TimeStep;Np;Nbound;Nfixed;Nmoving;Nfloat;Nfluid
0.00222229;2975;1031;1031;0;0;1944

Pos.x;Pos.y;Pos.z;Idp;Vel.x;Vel.y;Vel.z;Rhop;Mass;Press;Type;Acec.x;Acec.y;Acec.z;CellOffSpring;GradVel;Qfxx;Qfxy;Qfxz;Qfyy;Qfyz;Qfzz;StrainDot.x;StrainDot.y;StrainDot.z;VonMises3D;
 -2.2000000E-01;  9.9999998E-03; -3.8000000E-01;0;  0.0000000E+00;  0.0000000E+00;  0.0000000E+00;  1.0000000E+03;  4.0000001E-01;  0.0000000E+00;0;  0.0000000E+00;  0.0000000E+00;  0.0000000E+00;0;  0.0000000E+00;  1.0000000E+04;  0.0000000E+00;  0.0000000E+00;  1.0000000E+04;  0.0000000E+00;  1.0000000E+04;  0.0000000E+00;  0.0000000E+00;  0.0000000E+00;  0.0000000E+00;
 -2.2000000E-01;  9.9999998E-03; -3.6000001E-01;1;  0.0000000E+00;  0.0000000E+00;  0.0000000E+00;  1.0000000E+03;  4.0000001E-01;  0.0000000E+00;0;  0.0000000E+00;  0.0000000E+00;  0.0000000E+00;0;  0.0000000E+00;  1.0000000E+04;  0.0000000E+00;  0.0000000E+00;  1.0000000E+04;  0.0000000E+00;  1.0000000E+04;  0.0000000E+00;  0.0000000E+00;  0.0000000E+00;  0.0000000E+00;
 -2.0000000E-01;  9.9999998E-03; -4.0000001E-01;39;  0.0000000E+00;  0.0000000E+00;  0.0000000E+00;  1.0000000E+03;  4.0000001E-01;  0.0000000E+00;0;  0.0000000E+00;  0.0000000E+00;  0.0000000E+00;0;  0.0000000E+00;  1.0000000E+04;  0.0000000E+00;  0.0000000E+00;  1.0000000E+04;  0.0000000E+00;  1.0000000E+04;  0.0000000E+00;  0.0000000E+00;  0.0000000E+00;  0.0000000E+00;
 -2.0000000E-01;  9.9999998E-03; -3.8000000E-01;40;  0.0000000E+00;  0.0000000E+00;  0.0000000E+00;  1.0000000E+03;  4.0000001E-01;  0.0000000E+00;0;  0.0000000E+00;  0.0000000E+00;  0.0000000E+00;0;  0.0000000E+00;  1.0000000E+04;  0.0000000E+00;  0.0000000E+00;  1.0000000E+04;  0.0000000E+00;  1.0000000E+04;  0.0000000E+00;  0.0000000E+00;  0.0000000E+00;  0.0000000E+00;
 -2.0000000E-01;  9.9999998E-03; -3.6000001E-01;41;  0.0000000E+00;  0.0000000E+00;  0.0000000E+00;  1.0000000E+03;  4.0000001E-01;  0.0000000E+00;0;  0.0000000E+00;  0.0000000E+00;  0.0000000E+00;0;  0.0000000E+00;  1.0000000E+04;  0.0000000E+00;  0.0000000E+00;  1.0000000E+04;  0.0000000E+00;  1.0000000E+04;  0.0000000E+00;  0.0000000E+00;  0.0000000E+00;  0.0000000E+00;
 -1.8000001E-01;  9.9999998E-03; -4.0000001E-01;80;  0.0000000E+00;  0.0000000E+00;  0.0000000E+00;  1.0000000E+03;  4.0000001E-01;  0.0000000E+00;0;  0.0000000E+00;  0.0000000E+00;  0.0000000E+00;0;  0.0000000E+00;  1.0000000E+04;  0.0000000E+00;  0.0000000E+00;  1.0000000E+04;  0.0000000E+00;  1.0000000E+04;  0.0000000E+00;  0.0000000E+00;  0.0000000E+00;  0.0000000E+00;
 -1.8000001E-01;  9.9999998E-03; -3.8000000E-01;81;  0.0000000E+00;  0.0000000E+00;  0.0000000E+00;  1.0000000E+03;  4.0000001E-01;  0.0000000E+00;0;  0.0000000E+00;  0.0000000E+00;  0.0000000E+00;0;  0.0000000E+00;  1.0000000E+04;  0.0000000E+00;  0.0000000E+00;  1.0000000E+04;  0.0000000E+00;  1.0000000E+04;  0.0000000E+00;  0.0000000E+00;  0.0000000E+00;  0.0000000E+00;
 -1.8000001E-01;  9.9999998E-03; -3.6000001E-01;82;  0.0000000E+00;  0.0000000E+00;  0.0000000E+00;  1.0000000E+03;  4.0000001E-01;  0.0000000E+00;0;  0.0000000E+00;  0.0000000E+00;  0.0000000E+00;0;  0.0000000E+00;  1.0000000E+04;  0.0000000E+00;  0.0000000E+00;  1.0000000E+04;  0.0000000E+00;  1.0000000E+04;  0.0000000E+00;  0.0000000E+00;  0.0000000E+00;  0.0000000E+00;
 -1.6000000E-01;  9.9999998E-03; -4.0000001E-01;121;  0.0000000E+00;  0.0000000E+00;  0.0000000E+00;  1.0000000E+03;  4.0000001E-01;  0.0000000E+00;0;  0.0000000E+00;  0.0000000E+00;  0.0000000E+00;0;  0.0000000E+00;  1.0000000E+04;  0.0000000E+00;  0.0000000E+00;  1.0000000E+04;  0.0000000E+00;  1.0000000E+04;  0.0000000E+00;  0.0000000E+00;  0.0000000E+00;  0.0000000E+00;
 -1.6000000E-01;  9.9999998E-03; -3.8000000E-01;122;  0.0000000E+00;  0.0000000E+00;  0.0000000E+00;  1.0000000E+03;  4.0000001E-01;  0.0000000E+00;0;  0.0000000E+00;  0.0000000E+00;  0.0000000E+00;0;  0.0000000E+00;  1.0000000E+04;  0.0000000E+00;  0.0000000E+00;  1.0000000E+04;  0.0000000E+00;  1.0000000E+04;  0.0000000E+00;  0.0000000E+00;  0.0000000E+00;  0.0000000E+00;
 -1.6000000E-01;  9.9999998E-03; -3.6000001E-01;123;  0.0000000E+00;  0.0000000E+00;  0.0000000E+00;  1.0000000E+03;  4.0000001E-01;  0.0000000E+00;0;  0.0000000E+00;  0.0000000E+00;  0.0000000E+00;0;  0.0000000E+00;  1.0000000E+04;  0.0000000E+00;  0.0000000E+00;  1.0000000E+04;  0.0000000E+00;  1.0000000E+04;  0.0000000E+00;  0.0000000E+00;  0.0000000E+00;  0.0000000E+00;
 -1.4000000E-01;  9.9999998E-03; -4.0000001E-01;162;  0.0000000E+00;  0.0000000E+00;  0.0000000E+00;  1.0000000E+03;  4.0000001E-01;  0.0000000E+00;0;  0.0000000E+00;  0.0000000E+00;  0.0000000E+00;0;  0.0000000E+00;  1.0000000E+04;  0.0000000E+00;  0.0000000E+00;  1.0000000E+04;  0.0000000E+00;  1.0000000E+04;  0.0000000E+00;  0.0000000E+00;  0.0000000E+00;  0.0000000E+00;
 -1.4000000E-01;  9.9999998E-03; -3.8000000E-01;163;  0.0000000E+00;  0.0000000E+00;  0.0000000E+00;  1.0000000E+03;  4.0000001E-01;  0.0000000E+00;0;  0.0000000E+00;  0.0000000E+00;  0.0000000E+00;0;  0.0000000E+00;  1.0000000E+04;  0.0000000E+00;  0.0000000E+00;  1.0000000E+04;  0.0000000E+00;  1.0000000E+04;  0.0000000E+00;  0.0000000E+00;  0.0000000E+00;  0.0000000E+00;
 -1.4000000E-01;  9.9999998E-03; -3.6000001E-01;164;  0.0000000E+00;  0.0000000E+00;  0.0000000E+00;  1.0000000E+03;  4.0000001E-01;  0.0000000E+00;0;  0.0000000E+00;  0.0000000E+00;  0.0000000E+00;0; -1.3705301E-09;  1.0000000E+04;  0.0000000E+00;  0.0000000E+00;  1.0000000E+04;  0.0000000E+00;  1.0000000E+04; -1.0944154E-09;  0.0000000E+00; -2.7611463E-10;  5.7448148E-07;
 -1.2000000E-01;  9.9999998E-03; -4.0000001E-01;203;  0.0000000E+00;  0.0000000E+00;  0.0000000E+00;  1.0000000E+03;  4.0000001E-01;  0.0000000E+00;0;  0.0000000E+00;  0.0000000E+00;  0.0000000E+00;0;  0.0000000E+00;  1.0000000E+04;  0.0000000E+00;  0.0000000E+00;  1.0000000E+04;  0.0000000E+00;  1.0000000E+04;  0.0000000E+00;  0.0000000E+00;  0.0000000E+00;  0.0000000E+00;
 -1.2000000E-01;  9.9999998E-03; -3.8000000E-01;204;  0.0000000E+00;  0.0000000E+00;  0.0000000E+00;  1.0000000E+03;  4.0000001E-01;  0.0000000E+00;0;  0.0000000E+00;  0.0000000E+00;  0.0000000E+00;0; -7.4221207E-09;  1.0000000E+04;  0.0000000E+00;  0.0000000E+00;  1.0000000E+04;  0.0000000E+00;  1.0000000E+04; -5.3460374E-09;  0.0000000E+00; -2.0760833E-09;  4.3950231E-06;
 -1.2000000E-01;  9.9999998E-03; -3.6000001E-01;205;  0.0000000E+00;  0.0000000E+00;  0.0000000E+00;  1.0000000E+03;  4.0000001E-01;  0.0000000E+00;0;  0.0000000E+00;  0.0000000E+00;  0.0000000E+00;0; -5.0496855E-08;  1.0000000E+04;  0.0000000E+00;  0.0000000E+00;  1.0000000E+04;  0.0000000E+00;  1.0000000E+04; -3.8717278E-08;  0.0000000E+00; -1.1779576E-08;  2.4790872E-05;
 -1.0000000E-01;  9.9999998E-03; -4.0000001E-01;244;  0.0000000E+00;  0.0000000E+00;  0.0000000E+00;  1.0000000E+03;  4.0000001E-01;  0.0000000E+00;0;  0.0000000E+00;  0.0000000E+00;  0.0000000E+00;0; -1.4204222E-08;  1.0000000E+04;  0.0000000E+00;  0.0000000E+00;  1.0000000E+04;  0.0000000E+00;  1.0000000E+04; -9.6241841E-09;  0.0000000E+00; -4.5800377E-09;  9.8404898E-06;
 -1.0000000E-01;  9.9999998E-03; -3.8000000E-01;245;  0.0000000E+00;  0.0000000E+00;  0.0000000E+00;  1.0000000E+03;  4.0000001E-01;  0.0000000E+00;0;  0.0000000E+00;  0.0000000E+00;  0.0000000E+00;0; -1.0278802E-07;  1.0000000E+04;  0.0000000E+00;  0.0000000E+00;  1.0000000E+04;  0.0000000E+00;  1.0000000E+04; -7.0355057E-08;  0.0000000E+00; -3.2432968E-08;  6.9528556E-05;
 -1.0000000E-01;  9.9999998E-03; -3.6000001E-01;246;  0.0000000E+00;  0.0000000E+00;  0.0000000E+00;  1.0000000E+03;  4.0000001E-01;  0.0000000E+00;0;  0.0000000E+00;  0.0000000E+00;  0.0000000E+00;0; -3.2519688E-07;  1.0000000E+04;  0.0000000E+00;  0.0000000E+00;  1.0000000E+04;  0.0000000E+00;  1.0000000E+04; -2.3992092E-07;  0.0000000E+00; -8.5275950E-08;  1.8195111E-04;
 -7.9999998E-02;  9.9999998E-03; -4.0000001E-01;285;  0.0000000E+00;  0.0000000E+00;  0.0000000E+00;  1.0000000E+03;  4.0000001E-01;  0.0000000E+00;0;  0.0000000E+00;  0.0000000E+00;  0.0000000E+00;0; -1.2301570E-07;  1.0000000E+04;  0.0000000E+00;  0.0000000E+00;  1.0000000E+04;  0.0000000E+00;  1.0000000E+04; -7.8776331E-08;  0.0000000E+00; -4.4239364E-08;  9.6104959E-05;
 -7.9999998E-02;  9.9999998E-03; -3.8000000E-01;286;  0.0000000E+00;  0.0000000E+00;  0.0000000E+00;  1.0000000E+03;  4.0000001E-01;  0.0000000E+00;0;  0.0000000E+00;  0.0000000E+00;  0.0000000E+00;0; -4.6929770E-07;  1.0000000E+04;  0.0000000E+00;  0.0000000E+00;  1.0000000E+04;  0.0000000E+00;  1.0000000E+04; -3.0649750E-07;  0.0000000E+00; -1.6280021E-07;  3.5387647E-04;
 -7.9999998E-02;  9.9999998E-03; -3.6000001E-01;287;  0.0000000E+00;  0.0000000E+00;  0.0000000E+00;  1.0000000E+03;  4.0000001E-01;  0.0000000E+00;0;  0.0000000E+00;  0.0000000E+00;  0.0000000E+00;0; -1.1356467E-06;  1.0000000E+04;  0.0000000E+00;  0.0000000E+00;  1.0000000E+04;  0.0000000E+00;  1.0000000E+04; -8.0801016E-07;  0.0000000E+00; -3.2763651E-07;  7.0917699E-04;
 -5.9999999E-02;  9.9999998E-03; -4.0000001E-01;326;  0.0000000E+00;  0.0000000E+00;  0.0000000E+00;  1.0000000E+03;  4.0000001E-01;  0.0000000E+00;0;  0.0000000E+00;  0.0000000E+00;  0.0000000E+00;0; -4.5695040E-07;  1.0000000E+04;  0.0000000E+00;  0.0000000E+00;  1.0000000E+04;  0.0000000E+00;  1.0000000E+04; -2.7682376E-07;  0.0000000E+00; -1.8012665E-07;  3.9707389E-04;
 -5.9999999E-02;  9.9999998E-03; -3.8000000E-01;327;  0.0000000E+00;  0.0000000E+00;  0.0000000E+00;  1.0000000E+03;  4.0000001E-01;  0.0000000E+00;0;  0.0000000E+00;  0.0000000E+00;  0.0000000E+00;0; -1.3506292E-06;  1.0000000E+04;  0.0000000E+00;  0.0000000E+00;  1.0000000E+04;  0.0000000E+00;  1.0000000E+04; -8.4054784E-07;  0.0000000E+00; -5.1008141E-07;  1.1269214E-03;
 -5.9999999E-02;  9.9999998E-03; -3.6000001E-01;328;  0.0000000E+00;  0.0000000E+00;  0.0000000E+00;  1.0000000E+03;  4.0000001E-01;  0.0000000E+00;0;  0.0000000E+00;  0.0000000E+00;  0.0000000E+00;0; -2.8656495E-06;  1.0000000E+04;  0.0000000E+00;  0.0000000E+00;  1.0000000E+04;  0.0000000E+00;  1.0000000E+04; -1.9632366E-06;  0.0000000E+00; -9.0241303E-07;  1.9877600E-03;
 -3.9999999E-02;  9.9999998E-03; -4.0000001E-01;367;  0.0000000E+00;  0.0000000E+00;  0.0000000E+00;  1.0000000E+03;  4.0000001E-01;  0.0000000E+00;0;  0.0000000E+00;  0.0000000E+00;  0.0000000E+00;0; -1.1439470E-06;  1.0000000E+04;  0.0000000E+00;  0.0000000E+00;  1.0000000E+04;  0.0000000E+00;  1.0000000E+04; -6.5196315E-07;  0.0000000E+00; -4.9198388E-07;  1.1044167E-03;
 -3.9999999E-02;  9.9999998E-03; -3.8000000E-01;368;  0.0000000E+00;  0.0000000E+00;  0.0000000E+00;  1.0000000E+03;  4.0000001E-01;  0.0000000E+00;0;  0.0000000E+00;  0.0000000E+00;  0.0000000E+00;0; -2.9780290E-06;  1.0000000E+04;  0.0000000E+00;  0.0000000E+00;  1.0000000E+04;  0.0000000E+00;  1.0000000E+04; -1.7572756E-06;  0.0000000E+00; -1.2207535E-06;  2.7502356E-03;
 -3.9999999E-02;  9.9999998E-03; -3.6000001E-01;369;  0.0000000E+00;  0.0000000E+00;  0.0000000E+00;  1.0000000E+03;  4.0000001E-01;  0.0000000E+00;0;  0.0000000E+00;  0.0000000E+00;  0.0000000E+00;0; -5.8701339E-06;  1.0000000E+04;  0.0000000E+00;  0.0000000E+00;  1.0000000E+04;  0.0000000E+00;  1.0000000E+04; -3.8558323E-06;  0.0000000E+00; -2.0143016E-06;  4.5296950E-03;
 -2.0000000E-02;  9.9999998E-03; -4.0000001E-01;408;  0.0000000E+00;  0.0000000E+00;  0.0000000E+00;  1.0000000E+03;  4.0000001E-01;  0.0000000E+00;0;  0.0000000E+00;  0.0000000E+00;  0.0000000E+00;0; -2.2696445E-06;  1.0000000E+04;  0.0000000E+00;  0.0000000E+00;  1.0000000E+04;  0.0000000E+00;  1.0000000E+04; -1.2092398E-06;  0.0000000E+00; -1.0604047E-06;  2.4341105E-03;
 -2.0000000E-02;  9.9999998E-03; -3.8000000E-01;409;  0.0000000E+00;  0.0000000E+00;  0.0000000E+00;  1.0000000E+03;  4.0000001E-01;  0.0000000E+00;0;  0.0000000E+00;  0.0000000E+00;  0.0000000E+00;0; -5.5221462E-06;  1.0000000E+04;  0.0000000E+00;  0.0000000E+00;  1.0000000E+04;  0.0000000E+00;  1.0000000E+04; -3.0756189E-06;  0.0000000E+00; -2.4465273E-06;  5.6428546E-03;
 -2.0000000E-02;  9.9999998E-03; -3.6000001E-01;410;  0.0000000E+00;  0.0000000E+00;  0.0000000E+00;  1.0000000E+03;  4.0000001E-01;  0.0000000E+00;0;  0.0000000E+00;  0.0000000E+00;  0.0000000E+00;0; -1.0422113E-05;  1.0000000E+04;  0.0000000E+00;  0.0000000E+00;  1.0000000E+04;  0.0000000E+00;  1.0000000E+04; -6.5408462E-06;  0.0000000E+00; -3.8812668E-06;  8.9444527E-03;
  0.0000000E+00;  9.9999998E-03; -4.0000001E-01;449;  0.0000000E+00;  0.0000000E+00;  0.0000000E+00;  1.0000000E+03;  4.0000001E-01;  0.0000000E+00;0;  0.0000000E+00;  0.0000000E+00;  0.0000000E+00;0; -3.8803992E-06;  1.0000000E+04;  0.0000000E+00;  0.0000000E+00;  1.0000000E+04;  0.0000000E+00;  1.0000000E+04; -1.9277395E-06;  0.0000000E+00; -1.9526599E-06;  4.6052835E-03;
  0.0000000E+00;  9.9999998E-03; -3.8000000E-01;450;  0.0000000E+00;  0.0000000E+00;  0.0000000E+00;  1.0000000E+03;  4.0000001E-01;  0.0000000E+00;0;  0.0000000E+00;  0.0000000E+00;  0.0000000E+00;0; -9.1095617E-06;  1.0000000E+04;  0.0000000E+00;  0.0000000E+00;  1.0000000E+04;  0.0000000E+00;  1.0000000E+04; -4.7857698E-06;  0.0000000E+00; -4.3237919E-06;  1.0256873E-02;
  0.0000000E+00;  9.9999998E-03; -3.6000001E-01;451;  0.0000000E+00;  0.0000000E+00;  0.0000000E+00;  1.0000000E+03;  4.0000001E-01;  0.0000000E+00;0;  0.0000000E+00;  0.0000000E+00;  0.0000000E+00;0; -1.6746548E-05;  1.0000000E+04;  0.0000000E+00;  0.0000000E+00;  1.0000000E+04;  0.0000000E+00;  1.0000000E+04; -1.0040038E-05;  0.0000000E+00; -6.7065098E-06;  1.5908511E-02;
  2.0000000E-02;  9.9999998E-03; -4.0000001E-01;461;  0.0000000E+00;  0.0000000E+00;  0.0000000E+00;  1.0000000E+03;  4.0000001E-01;  0.0000000E+00;0;  0.0000000E+00;  0.0000000E+00;  0.0000000E+00;0; -6.0348975E-06;  1.0000000E+04;  0.0000000E+00;  0.0000000E+00;  1.0000000E+04;  0.0000000E+00;  1.0000000E+04; -2.8095494E-06;  0.0000000E+00; -3.2253481E-06;  7.8564351E-03;
  2.0000000E-02;  9.9999998E-03; -3.8000000E-01;462;  0.0000000E+00;  0.0000000E+00;  0.0000000E+00;  1.0000000E+03;  4.0000001E-01;  0.0000000E+00;0;  0.0000000E+00;  0.0000000E+00;  0.0000000E+00;0; -1.3918843E-05;  1.0000000E+04;  0.0000000E+00;  0.0000000E+00;  1.0000000E+04;  0.0000000E+00;  1.0000000E+04; -6.9390153E-06;  0.0000000E+00; -6.9798275E-06;  1.7113781E-02;
  2.0000000E-02;  9.9999998E-03; -3.6000001E-01;463;  0.0000000E+00;  0.0000000E+00;  0.0000000E+00;  1.0000000E+03;  4.0000001E-01;  0.0000000E+00;0;  0.0000000E+00;  0.0000000E+00;  0.0000000E+00;0; -2.5182080E-05;  1.0000000E+04;  0.0000000E+00;  0.0000000E+00;  1.0000000E+04;  0.0000000E+00;  1.0000000E+04; -1.4500404E-05;  0.0000000E+00; -1.0681676E-05;  2.6205892E-02;
  3.9999999E-02;  9.9999998E-03; -4.0000001E-01;471;  0.0000000E+00;  0.0000000E+00;  0.0000000E+00;  1.0000000E+03;  4.0000001E-01;  0.0000000E+00;0;  0.0000000E+00;  0.0000000E+00;  0.0000000E+00;0; -8.8835823E-06;  1.0000000E+04;  0.0000000E+00;  0.0000000E+00;  1.0000000E+04;  0.0000000E+00;  1.0000000E+04; -3.9324195E-06;  0.0000000E+00; -4.9511623E-06;  1.2517893E-02;
  3.9999999E-02;  9.9999998E-03; -3.8000000E-01;472;  0.0000000E+00;  0.0000000E+00;  0.0000000E+00;  1.0000000E+03;  4.0000001E-01;  0.0000000E+00;0;  0.0000000E+00;  0.0000000E+00;  0.0000000E+00;0; -2.0329891E-05;  1.0000000E+04;  0.0000000E+00;  0.0000000E+00;  1.0000000E+04;  0.0000000E+00;  1.0000000E+04; -9.7473321E-06;  0.0000000E+00; -1.0582559E-05;  2.6943715E-02;
  3.9999999E-02;  9.9999998E-03; -3.6000001E-01;473;  0.0000000E+00;  0.0000000E+00;  0.0000000E+00;  1.0000000E+03;  4.0000001E-01;  0.0000000E+00;0;  0.0000000E+00;  0.0000000E+00;  0.0000000E+00;0; -3.6438782E-05;  1.0000000E+04;  0.0000000E+00;  0.0000000E+00;  1.0000000E+04;  0.0000000E+00;  1.0000000E+04; -2.0380432E-05;  0.0000000E+00; -1.6058351E-05;  4.0929150E-02;
  5.9999999E-02;  9.9999998E-03; -4.0000001E-01;481;  0.0000000E+00;  0.0000000E+00;  0.0000000E+00;  1.0000000E+03;  4.0000001E-01;  0.0000000E+00;0;  0.0000000E+00;  0.0000000E+00;  0.0000000E+00;0; -1.2753320E-05;  1.0000000E+04;  0.0000000E+00;  0.0000000E+00;  1.0000000E+04;  0.0000000E+00;  1.0000000E+04; -5.4926986E-06;  0.0000000E+00; -7.2606217E-06;  1.9126287E-02;
  5.9999999E-02;  9.9999998E-03; -3.8000000E-01;482;  0.0000000E+00;  0.0000000E+00;  0.0000000E+00;  1.0000000E+03;  4.0000001E-01;  0.0000000E+00;0;  0.0000000E+00;  0.0000000E+00;  0.0000000E+00;0; -2.9086623E-05;  1.0000000E+04;  0.0000000E+00;  0.0000000E+00;  1.0000000E+04;  0.0000000E+00;  1.0000000E+04; -1.3666089E-05;  0.0000000E+00; -1.5420534E-05;  4.0913079E-02;
  5.9999999E-02;  9.9999998E-03; -3.6000001E-01;483;  0.0000000E+00;  0.0000000E+00;  0.0000000E+00;  1.0000000E+03;  4.0000001E-01;  0.0000000E+00;0;  0.0000000E+00;  0.0000000E+00;  0.0000000E+00;0; -5.1853625E-05;  1.0000000E+04;  0.0000000E+00;  0.0000000E+00;  1.0000000E+04;  0.0000000E+00;  1.0000000E+04; -2.8580551E-05;  0.0000000E+00; -2.3273076E-05;  6.1831683E-02;
  7.9999998E-02;  9.9999998E-03; -4.0000001E-01;491;  0.0000000E+00;  0.0000000E+00;  0.0000000E+00;  1.0000000E+03;  4.0000001E-01;  0.0000000E+00;0;  0.0000000E+00;  0.0000000E+00;  0.0000000E+00;0; -1.8262692E-05;  1.0000000E+04;  0.0000000E+00;  0.0000000E+00;  1.0000000E+04;  0.0000000E+00;  1.0000000E+04; -7.8770117E-06;  0.0000000E+00; -1.0385680E-05;  2.8573472E-02;
  7.9999998E-02;  9.9999998E-03; -3.8000000E-01;492;  0.0000000E+00;  0.0000000E+00;  0.0000000E+00;  1.0000000E+03;  4.0000001E-01;  0.0000000E+00;0;  0.0000000E+00;  0.0000000E+00;  0.0000000E+00;0; -4.1580788E-05;  1.0000000E+04;  0.0000000E+00;  0.0000000E+00;  1.0000000E+04;  0.0000000E+00;  1.0000000E+04; -1.9591731E-05;  0.0000000E+00; -2.1989059E-05;  6.0907107E-02;
  7.9999998E-02;  9.9999998E-03; -3.6000001E-01;493;  0.0000000E+00;  0.0000000E+00;  0.0000000E+00;  1.0000000E+03;  4.0000001E-01;  0.0000000E+00;0;  0.0000000E+00;  0.0000000E+00;  0.0000000E+00;0; -7.3928881E-05;  1.0000000E+04;  0.0000000E+00;  0.0000000E+00;  1.0000000E+04;  0.0000000E+00;  1.0000000E+04; -4.0841722E-05;  0.0000000E+00; -3.3087155E-05;  9.1861241E-02;
  1.0000000E-01;  9.9999998E-03; -4.0000001E-01;501;  0.0000000E+00;  0.0000000E+00;  0.0000000E+00;  1.0000000E+03;  4.0000001E-01;  0.0000000E+00;0;  0.0000000E+00;  0.0000000E+00;  0.0000000E+00;0; -2.6584687E-05;  1.0000000E+04;  0.0000000E+00;  0.0000000E+00;  1.0000000E+04;  0.0000000E+00;  1.0000000E+04; -1.1845568E-05;  0.0000000E+00; -1.4739117E-05;  4.3200232E-02;
  1.0000000E-01;  9.9999998E-03; -3.8000000E-01;502;  0.0000000E+00;  0.0000000E+00;  0.0000000E+00;  1.0000000E+03;  4.0000001E-01;  0.0000000E+00;0;  0.0000000E+00;  0.0000000E+00;  0.0000000E+00;0; -6.0451304E-05;  1.0000000E+04;  0.0000000E+00;  0.0000000E+00;  1.0000000E+04;  0.0000000E+00;  1.0000000E+04; -2.9279488E-05;  0.0000000E+00; -3.1171814E-05;  9.0158209E-02;
  1.0000000E-01;  9.9999998E-03; -3.6000001E-01;503;  0.0000000E+00;  0.0000000E+00;  0.0000000E+00;  1.0000000E+03;  4.0000001E-01;  0.0000000E+00;0;  0.0000000E+00;  0.0000000E+00;  0.0000000E+00;0; -1.0738615E-04;  1.0000000E+04;  0.0000000E+00;  0.0000000E+00;  1.0000000E+04;  0.0000000E+00;  1.0000000E+04; -6.0528164E-05;  0.0000000E+00; -4.6857989E-05;  1.3662228E-01;
  1.2000000E-01;  9.9999998E-03; -4.0000001E-01;511;  0.0000000E+00;  0.0000000E+00;  0.0000000E+00;  1.0000000E+03;  4.0000001E-01;  0.0000000E+00;0;  0.0000000E+00;  0.0000000E+00;  0.0000000E+00;0; -4.0028135E-05;  1.0000000E+04;  0.0000000E+00;  0.0000000E+00;  1.0000000E+04;  0.0000000E+00;  1.0000000E+04; -1.8856404E-05;  0.0000000E+00; -2.1171731E-05;  7.9591133E-02;
  1.2000000E-01;  9.9999998E-03; -3.8000000E-01;512;  0.0000000E+00;  0.0000000E+00;  0.0000000E+00;  1.0000000E+03;  4.0000001E-01;  0.0000000E+00;0;  0.0000000E+00;  0.0000000E+00;  0.0000000E+00;0; -9.0731395E-05;  1.0000000E+04;  0.0000000E+00;  0.0000000E+00;  1.0000000E+04;  0.0000000E+00;  1.0000000E+04; -4.6021098E-05;  0.0000000E+00; -4.4710298E-05;  1.3854600E-01;
  1.2000000E-01;  9.9999998E-03; -3.6000001E-01;513;  0.0000000E+00;  0.0000000E+00;  0.0000000E+00;  1.0000001E+03;  4.0000001E-01;  9.8762624E-02;0;  0.0000000E+00;  0.0000000E+00;  0.0000000E+00;0; -1.6094875E-04;  1.0000000E+04;  0.0000000E+00;  0.0000000E+00;  1.0000000E+04;  0.0000000E+00;  1.0000000E+04; -9.3797658E-05;  0.0000000E+00; -6.7151101E-05;  2.0781045E-01;
  1.4000000E-01;  9.9999998E-03; -4.0000001E-01;521;  0.0000000E+00;  0.0000000E+00;  0.0000000E+00;  1.0000000E+03;  4.0000001E-01;  0.0000000E+00;0;  0.0000000E+00;  0.0000000E+00;  0.0000000E+00;0; -6.3405023E-05;  1.0000000E+04;  0.0000000E+00;  0.0000000E+00;  1.0000000E+04;  0.0000000E+00;  1.0000000E+04; -3.1716063E-05;  0.0000000E+00; -3.1688960E-05;  2.2027741E-01;
  1.4000000E-01;  9.9999998E-03; -3.8000000E-01;522;  0.0000000E+00;  0.0000000E+00;  0.0000000E+00;  1.0000001E+03;  4.0000001E-01;  9.8762624E-02;0;  0.0000000E+00;  0.0000000E+00;  0.0000000E+00;0; -1.4190331E-04;  1.0000000E+04;  0.0000000E+00;  0.0000000E+00;  1.0000000E+04;  0.0000000E+00;  1.0000000E+04; -7.5728094E-05;  0.0000000E+00; -6.6175213E-05;  2.6074028E-01;
  1.4000000E-01;  9.9999998E-03; -3.6000001E-01;523;  0.0000000E+00;  0.0000000E+00;  0.0000000E+00;  1.0000001E+03;  4.0000001E-01;  9.8762624E-02;0;  0.0000000E+00;  0.0000000E+00;  0.0000000E+00;0; -2.4998974E-04;  1.0000000E+04;  0.0000000E+00;  0.0000000E+00;  1.0000000E+04;  0.0000000E+00;  1.0000000E+04; -1.5116973E-04;  0.0000000E+00; -9.8820004E-05;  3.2786334E-01;
  1.6000000E-01;  9.9999998E-03; -4.0000001E-01;531;  0.0000000E+00;  0.0000000E+00;  0.0000000E+00;  1.0000000E+03;  4.0000001E-01;  0.0000000E+00;0;  0.0000000E+00;  0.0000000E+00;  0.0000000E+00;0; -1.0651924E-04;  1.0000000E+04;  0.0000000E+00;  0.0000000E+00;  1.0000000E+04;  0.0000000E+00;  1.0000000E+04; -5.5310713E-05;  0.0000000E+00; -5.1208528E-05;  6.9110221E-01;
  1.6000000E-01;  9.9999998E-03; -3.8000000E-01;532;  0.0000000E+00;  0.0000000E+00;  0.0000000E+00;  1.0000001E+03;  4.0000001E-01;  9.8762624E-02;0;  0.0000000E+00;  0.0000000E+00;  0.0000000E+00;0; -2.2982736E-04;  1.0000000E+04;  0.0000000E+00;  0.0000000E+00;  1.0000000E+04;  0.0000000E+00;  1.0000000E+04; -1.2706153E-04;  0.0000000E+00; -1.0276583E-04;  6.5841907E-01;
  1.6000000E-01;  9.9999998E-03; -3.6000001E-01;533;  0.0000000E+00;  0.0000000E+00;  0.0000000E+00;  1.0000002E+03;  4.0000001E-01;  1.9752525E-01;0;  0.0000000E+00;  0.0000000E+00;  0.0000000E+00;0; -3.9746944E-04;  1.0000000E+04;  0.0000000E+00;  0.0000000E+00;  1.0000000E+04;  0.0000000E+00;  1.0000000E+04; -2.4678634E-04;  0.0000000E+00; -1.5068312E-04;  5.2716058E-01;
  1.8000001E-01;  9.9999998E-03; -4.0000001E-01;541;  0.0000000E+00;  0.0000000E+00;  0.0000000E+00;  1.0000001E+03;  4.0000001E-01;  9.8762624E-02;0;  0.0000000E+00;  0.0000000E+00;  0.0000000E+00;0; -1.8715335E-04;  1.0000000E+04;  0.0000000E+00;  0.0000000E+00;  1.0000000E+04;  0.0000000E+00;  1.0000000E+04; -9.5521769E-05;  0.0000000E+00; -9.1631569E-05;  1.9605676E+00;
  1.8000001E-01;  9.9999998E-03; -3.8000000E-01;542;  0.0000000E+00;  0.0000000E+00;  0.0000000E+00;  1.0000002E+03;  4.0000001E-01;  1.9752525E-01;0;  0.0000000E+00;  0.0000000E+00;  0.0000000E+00;0; -3.7504444E-04;  1.0000000E+04;  0.0000000E+00;  0.0000000E+00;  1.0000000E+04;  0.0000000E+00;  1.0000000E+04; -2.0646799E-04;  0.0000000E+00; -1.6857646E-04;  1.7160730E+00;
  1.8000001E-01;  9.9999998E-03; -3.6000001E-01;543;  0.0000000E+00;  0.0000000E+00;  0.0000000E+00;  1.0000003E+03;  4.0000001E-01;  2.9628786E-01;0;  0.0000000E+00;  0.0000000E+00;  0.0000000E+00;0; -6.2704500E-04;  1.0000000E+04;  0.0000000E+00;  0.0000000E+00;  1.0000000E+04;  0.0000000E+00;  1.0000000E+04; -3.8905905E-04;  0.0000000E+00; -2.3798597E-04;  8.2815385E-01;
  2.0000000E-01;  9.9999998E-03; -3.8000000E-01;551;  0.0000000E+00;  0.0000000E+00;  0.0000000E+00;  1.0000003E+03;  4.0000001E-01;  2.9628786E-01;0;  0.0000000E+00;  0.0000000E+00;  0.0000000E+00;0; -6.0046790E-04;  1.0000000E+04;  0.0000000E+00;  0.0000000E+00;  1.0000000E+04;  0.0000000E+00;  1.0000000E+04; -3.1180072E-04;  0.0000000E+00; -2.8866719E-04;  3.8126771E+00;
  2.0000000E-01;  9.9999998E-03; -3.6000001E-01;552;  0.0000000E+00;  0.0000000E+00;  0.0000000E+00;  1.0000004E+03;  4.0000001E-01;  3.9505050E-01;0;  0.0000000E+00;  0.0000000E+00;  0.0000000E+00;0; -9.5651869E-04;  1.0000000E+04;  0.0000000E+00;  0.0000000E+00;  1.0000000E+04;  0.0000000E+00;  1.0000000E+04; -5.7134713E-04;  0.0000000E+00; -3.8517153E-04;  1.3218188E+00;
 -2.2000000E-01;  9.9999998E-03; -3.4000000E-01;2;  0.0000000E+00;  0.0000000E+00;  0.0000000E+00;  1.0000000E+03;  4.0000001E-01;  0.0000000E+00;0;  0.0000000E+00;  0.0000000E+00;  0.0000000E+00;0;  0.0000000E+00;  1.0000000E+04;  0.0000000E+00;  0.0000000E+00;  1.0000000E+04;  0.0000000E+00;  1.0000000E+04;  0.0000000E+00;  0.0000000E+00;  0.0000000E+00;  0.0000000E+00;
 -2.2000000E-01;  9.9999998E-03; -3.1999999E-01;3;  0.0000000E+00;  0.0000000E+00;  0.0000000E+00;  1.0000000E+03;  4.0000001E-01;  0.0000000E+00;0;  0.0000000E+00;  0.0000000E+00;  0.0000000E+00;0;  0.0000000E+00;  1.0000000E+04;  0.0000000E+00;  0.0000000E+00;  1.0000000E+04;  0.0000000E+00;  1.0000000E+04;  0.0000000E+00;  0.0000000E+00;  0.0000000E+00;  0.0000000E+00;
 -2.2000000E-01;  9.9999998E-03; -3.0000001E-01;4;  0.0000000E+00;  0.0000000E+00;  0.0000000E+00;  1.0000000E+03;  4.0000001E-01;  0.0000000E+00;0;  0.0000000E+00;  0.0000000E+00;  0.0000000E+00;0;  0.0000000E+00;  1.0000000E+04;  0.0000000E+00;  0.0000000E+00;  1.0000000E+04;  0.0000000E+00;  1.0000000E+04;  0.0000000E+00;  0.0000000E+00;  0.0000000E+00;  0.0000000E+00;
 -2.2000000E-01;  9.9999998E-03; -2.8000000E-01;5;  0.0000000E+00;  0.0000000E+00;  0.0000000E+00;  1.0000000E+03;  4.0000001E-01;  0.0000000E+00;0;  0.0000000E+00;  0.0000000E+00;  0.0000000E+00;0;  0.0000000E+00;  1.0000000E+04;  0.0000000E+00;  0.0000000E+00;  1.0000000E+04;  0.0000000E+00;  1.0000000E+04;  0.0000000E+00;  0.0000000E+00;  0.0000000E+00;  0.0000000E+00;
 -2.2000000E-01;  9.9999998E-03; -2.5999999E-01;6;  0.0000000E+00;  0.0000000E+00;  0.0000000E+00;  1.0000000E+03;  4.0000001E-01;  0.0000000E+00;0;  0.0000000E+00;  0.0000000E+00;  0.0000000E+00;0;  0.0000000E+00;  1.0000000E+04;  0.0000000E+00;  0.0000000E+00;  1.0000000E+04;  0.0000000E+00;  1.0000000E+04;  0.0000000E+00;  0.0000000E+00;  0.0000000E+00;  0.0000000E+00;
 -2.2000000E-01;  9.9999998E-03; -2.3999999E-01;7;  0.0000000E+00;  0.0000000E+00;  0.0000000E+00;  1.0000000E+03;  4.0000001E-01;  0.0000000E+00;0;  0.0000000E+00;  0.0000000E+00;  0.0000000E+00;0;  0.0000000E+00;  1.0000000E+04;  0.0000000E+00;  0.0000000E+00;  1.0000000E+04;  0.0000000E+00;  1.0000000E+04;  0.0000000E+00;  0.0000000E+00;  0.0000000E+00;  0.0000000E+00;
 -2.2000000E-01;  9.9999998E-03; -2.2000000E-01;8;  0.0000000E+00;  0.0000000E+00;  0.0000000E+00;  1.0000000E+03;  4.0000001E-01;  0.0000000E+00;0;  0.0000000E+00;  0.0000000E+00;  0.0000000E+00;0;  0.0000000E+00;  1.0000000E+04;  0.0000000E+00;  0.0000000E+00;  1.0000000E+04;  0.0000000E+00;  1.0000000E+04;  0.0000000E+00;  0.0000000E+00;  0.0000000E+00;  0.0000000E+00;
 -2.2000000E-01;  9.9999998E-03; -2.0000000E-01;9;  0.0000000E+00;  0.0000000E+00;  0.0000000E+00;  1.0000000E+03;  4.0000001E-01;  0.0000000E+00;0;  0.0000000E+00;  0.0000000E+00;  0.0000000E+00;0;  0.0000000E+00;  1.0000000E+04;  0.0000000E+00;  0.0000000E+00;  1.0000000E+04;  0.0000000E+00;  1.0000000E+04;  0.0000000E+00;  0.0000000E+00;  0.0000000E+00;  0.0000000E+00;
 -2.0000000E-01;  9.9999998E-03; -3.4000000E-01;42;  0.0000000E+00;  0.0000000E+00;  0.0000000E+00;  1.0000000E+03;  4.0000001E-01;  0.0000000E+00;0;  0.0000000E+00;  0.0000000E+00;  0.0000000E+00;0;  0.0000000E+00;  1.0000000E+04;  0.0000000E+00;  0.0000000E+00;  1.0000000E+04;  0.0000000E+00;  1.0000000E+04;  0.0000000E+00;  0.0000000E+00;  0.0000000E+00;  0.0000000E+00;
 -2.0000000E-01;  9.9999998E-03; -3.1999999E-01;43;  0.0000000E+00;  0.0000000E+00;  0.0000000E+00;  1.0000000E+03;  4.0000001E-01;  0.0000000E+00;0;  0.0000000E+00;  0.0000000E+00;  0.0000000E+00;0;  0.0000000E+00;  1.0000000E+04;  0.0000000E+00;  0.0000000E+00;  1.0000000E+04;  0.0000000E+00;  1.0000000E+04;  0.0000000E+00;  0.0000000E+00;  0.0000000E+00;  0.0000000E+00;
 -2.0000000E-01;  9.9999998E-03; -3.0000001E-01;44;  0.0000000E+00;  0.0000000E+00;  0.0000000E+00;  1.0000000E+03;  4.0000001E-01;  0.0000000E+00;0;  0.0000000E+00;  0.0000000E+00;  0.0000000E+00;0;  0.0000000E+00;  1.0000000E+04;  0.0000000E+00;  0.0000000E+00;  1.0000000E+04;  0.0000000E+00;  1.0000000E+04;  0.0000000E+00;  0.0000000E+00;  0.0000000E+00;  0.0000000E+00;
 -2.0000000E-01;  9.9999998E-03; -2.8000000E-01;45;  0.0000000E+00;  0.0000000E+00;  0.0000000E+00;  1.0000000E+03;  4.0000001E-01;  0.0000000E+00;0;  0.0000000E+00;  0.0000000E+00;  0.0000000E+00;0;  0.0000000E+00;  1.0000000E+04;  0.0000000E+00;  0.0000000E+00;  1.0000000E+04;  0.0000000E+00;  1.0000000E+04;  0.0000000E+00;  0.0000000E+00;  0.0000000E+00;  0.0000000E+00;
 -2.0000000E-01;  9.9999998E-03; -2.5999999E-01;46;  0.0000000E+00;  0.0000000E+00;  0.0000000E+00;  1.0000000E+03;  4.0000001E-01;  0.0000000E+00;0;  0.0000000E+00;  0.0000000E+00;  0.0000000E+00;0;  0.0000000E+00;  1.0000000E+04;  0.0000000E+00;  0.0000000E+00;  1.0000000E+04;  0.0000000E+00;  1.0000000E+04;  0.0000000E+00;  0.0000000E+00;  0.0000000E+00;  0.0000000E+00;
 -2.0000000E-01;  9.9999998E-03; -2.3999999E-01;47;  0.0000000E+00;  0.0000000E+00;  0.0000000E+00;  1.0000000E+03;  4.0000001E-01;  0.0000000E+00;0;  0.0000000E+00;  0.0000000E+00;  0.0000000E+00;0;  0.0000000E+00;  1.0000000E+04;  0.0000000E+00;  0.0000000E+00;  1.0000000E+04;  0.0000000E+00;  1.0000000E+04;  0.0000000E+00;  0.0000000E+00;  0.0000000E+00;  0.0000000E+00;
 -2.0000000E-01;  9.9999998E-03; -2.2000000E-01;48;  0.0000000E+00;  0.0000000E+00;  0.0000000E+00;  1.0000000E+03;  4.0000001E-01;  0.0000000E+00;0;  0.0000000E+00;  0.0000000E+00;  0.0000000E+00;0;  0.0000000E+00;  1.0000000E+04;  0.0000000E+00;  0.0000000E+00;  1.0000000E+04;  0.0000000E+00;  1.0000000E+04;  0.0000000E+00;  0.0000000E+00;  0.0000000E+00;  0.0000000E+00;
 -2.0000000E-01;  9.9999998E-03; -2.0000000E-01;49;  0.0000000E+00;  0.0000000E+00;  0.0000000E+00;  1.0000000E+03;  4.0000001E-01;  0.0000000E+00;0;  0.0000000E+00;  0.0000000E+00;  0.0000000E+00;0;  0.0000000E+00;  1.0000000E+04;  0.0000000E+00;  0.0000000E+00;  1.0000000E+04;  0.0000000E+00;  1.0000000E+04;  0.0000000E+00;  0.0000000E+00;  0.0000000E+00;  0.0000000E+00;
 -1.8000001E-01;  9.9999998E-03; -3.4000000E-01;83;  0.0000000E+00;  0.0000000E+00;  0.0000000E+00;  1.0000000E+03;  4.0000001E-01;  0.0000000E+00;0;  0.0000000E+00;  0.0000000E+00;  0.0000000E+00;0;  0.0000000E+00;  1.0000000E+04;  0.0000000E+00;  0.0000000E+00;  1.0000000E+04;  0.0000000E+00;  1.0000000E+04;  0.0000000E+00;  0.0000000E+00;  0.0000000E+00;  0.0000000E+00;
 -1.8000001E-01;  9.9999998E-03; -3.1999999E-01;84;  0.0000000E+00;  0.0000000E+00;  0.0000000E+00;  1.0000000E+03;  4.0000001E-01;  0.0000000E+00;0;  0.0000000E+00;  0.0000000E+00;  0.0000000E+00;0;  0.0000000E+00;  1.0000000E+04;  0.0000000E+00;  0.0000000E+00;  1.0000000E+04;  0.0000000E+00;  1.0000000E+04;  0.0000000E+00;  0.0000000E+00;  0.0000000E+00;  0.0000000E+00;
 -1.8000001E-01;  9.9999998E-03; -3.0000001E-01;85;  0.0000000E+00;  0.0000000E+00;  0.0000000E+00;  1.0000000E+03;  4.0000001E-01;  0.0000000E+00;0;  0.0000000E+00;  0.0000000E+00;  0.0000000E+00;0;  0.0000000E+00;  1.0000000E+04;  0.0000000E+00;  0.0000000E+00;  1.0000000E+04;  0.0000000E+00;  1.0000000E+04;  0.0000000E+00;  0.0000000E+00;  0.0000000E+00;  0.0000000E+00;
 -1.8000001E-01;  9.9999998E-03; -2.8000000E-01;86;  0.0000000E+00;  0.0000000E+00;  0.0000000E+00;  1.0000000E+03;  4.0000001E-01;  0.0000000E+00;0;  0.0000000E+00;  0.0000000E+00;  0.0000000E+00;0;  0.0000000E+00;  1.0000000E+04;  0.0000000E+00;  0.0000000E+00;  1.0000000E+04;  0.0000000E+00;  1.0000000E+04;  0.0000000E+00;  0.0000000E+00;  0.0000000E+00;  0.0000000E+00;
 -1.8000001E-01;  9.9999998E-03; -2.5999999E-01;87;  0.0000000E+00;  0.0000000E+00;  0.0000000E+00;  1.0000000E+03;  4.0000001E-01;  0.0000000E+00;0;  0.0000000E+00;  0.0000000E+00;  0.0000000E+00;0;  0.0000000E+00;  1.0000000E+04;  0.0000000E+00;  0.0000000E+00;  1.0000000E+04;  0.0000000E+00;  1.0000000E+04;  0.0000000E+00;  0.0000000E+00;  0.0000000E+00;  0.0000000E+00;
 -1.8000001E-01;  9.9999998E-03; -2.3999999E-01;88;  0.0000000E+00;  0.0000000E+00;  0.0000000E+00;  1.0000000E+03;  4.0000001E-01;  0.0000000E+00;0;  0.0000000E+00;  0.0000000E+00;  0.0000000E+00;0;  0.0000000E+00;  1.0000000E+04;  0.0000000E+00;  0.0000000E+00;  1.0000000E+04;  0.0000000E+00;  1.0000000E+04;  0.0000000E+00;  0.0000000E+00;  0.0000000E+00;  0.0000000E+00;
 -1.8000001E-01;  9.9999998E-03; -2.2000000E-01;89;  0.0000000E+00;  0.0000000E+00;  0.0000000E+00;  1.0000000E+03;  4.0000001E-01;  0.0000000E+00;0;  0.0000000E+00;  0.0000000E+00;  0.0000000E+00;0;  0.0000000E+00;  1.0000000E+04;  0.0000000E+00;  0.0000000E+00;  1.0000000E+04;  0.0000000E+00;  1.0000000E+04;  0.0000000E+00;  0.0000000E+00;  0.0000000E+00;  0.0000000E+00;
 -1.8000001E-01;  9.9999998E-03; -2.0000000E-01;90;  0.0000000E+00;  0.0000000E+00;  0.0000000E+00;  1.0000000E+03;  4.0000001E-01;  0.0000000E+00;0;  0.0000000E+00;  0.0000000E+00;  0.0000000E+00;0;  0.0000000E+00;  1.0000000E+04;  0.0000000E+00;  0.0000000E+00;  1.0000000E+04;  0.0000000E+00;  1.0000000E+04;  0.0000000E+00;  0.0000000E+00;  0.0000000E+00;  0.0000000E+00;
 -1.6000000E-01;  9.9999998E-03; -3.4000000E-01;124;  0.0000000E+00;  0.0000000E+00;  0.0000000E+00;  1.0000000E+03;  4.0000001E-01;  0.0000000E+00;0;  0.0000000E+00;  0.0000000E+00;  0.0000000E+00;0;  0.0000000E+00;  1.0000000E+04;  0.0000000E+00;  0.0000000E+00;  1.0000000E+04;  0.0000000E+00;  1.0000000E+04;  0.0000000E+00;  0.0000000E+00;  0.0000000E+00;  0.0000000E+00;
 -1.6000000E-01;  9.9999998E-03; -3.1999999E-01;125;  0.0000000E+00;  0.0000000E+00;  0.0000000E+00;  1.0000000E+03;  4.0000001E-01;  0.0000000E+00;0;  0.0000000E+00;  0.0000000E+00;  0.0000000E+00;0; -2.4728325E-10;  1.0000000E+04;  0.0000000E+00;  0.0000000E+00;  1.0000000E+04;  0.0000000E+00;  1.0000000E+04; -2.2856725E-10;  0.0000000E+00; -1.8715987E-11;  3.6292914E-08;
 -1.6000000E-01;  9.9999998E-03; -3.0000001E-01;126;  0.0000000E+00;  0.0000000E+00;  0.0000000E+00;  1.0000000E+03;  4.0000001E-01;  0.0000000E+00;0;  0.0000000E+00;  0.0000000E+00;  0.0000000E+00;0; -1.5744718E-09;  1.0000000E+04;  0.0000000E+00;  0.0000000E+00;  1.0000000E+04;  0.0000000E+00;  1.0000000E+04; -1.5112620E-09;  0.0000000E+00; -6.3209785E-11;  1.1187350E-07;
 -1.6000000E-01;  9.9999998E-03; -2.8000000E-01;127;  0.0000000E+00;  0.0000000E+00;  0.0000000E+00;  1.0000000E+03;  4.0000001E-01;  0.0000000E+00;0;  0.0000000E+00;  0.0000000E+00;  0.0000000E+00;0; -3.7183894E-09;  1.0000000E+04;  0.0000000E+00;  0.0000000E+00;  1.0000000E+04;  0.0000000E+00;  1.0000000E+04; -3.6611310E-09;  0.0000000E+00; -5.7258462E-11;  5.9933342E-08;
 -1.6000000E-01;  9.9999998E-03; -2.5999999E-01;128;  0.0000000E+00;  0.0000000E+00;  0.0000000E+00;  1.0000000E+03;  4.0000001E-01;  0.0000000E+00;0;  0.0000000E+00;  0.0000000E+00;  0.0000000E+00;0; -5.5416995E-09;  1.0000000E+04;  0.0000000E+00;  0.0000000E+00;  1.0000000E+04;  0.0000000E+00;  1.0000000E+04; -5.5341718E-09;  0.0000000E+00; -7.5278768E-12;  8.8132452E-08;
 -1.6000000E-01;  9.9999998E-03; -2.3999999E-01;129;  0.0000000E+00;  0.0000000E+00;  0.0000000E+00;  1.0000000E+03;  4.0000001E-01;  0.0000000E+00;0;  0.0000000E+00;  0.0000000E+00;  0.0000000E+00;0; -6.5484111E-09;  1.0000000E+04;  0.0000000E+00;  0.0000000E+00;  1.0000000E+04;  0.0000000E+00;  1.0000000E+04; -6.5606658E-09;  0.0000000E+00;  1.2254794E-11;  1.4946885E-07;
 -1.6000000E-01;  9.9999998E-03; -2.2000000E-01;130;  0.0000000E+00;  0.0000000E+00;  0.0000000E+00;  1.0000000E+03;  4.0000001E-01;  0.0000000E+00;0;  0.0000000E+00;  0.0000000E+00;  0.0000000E+00;0; -7.2614816E-09;  1.0000000E+04;  0.0000000E+00;  0.0000000E+00;  1.0000000E+04;  0.0000000E+00;  1.0000000E+04; -7.2757862E-09;  0.0000000E+00;  1.4304629E-11;  1.6751902E-07;
 -1.6000000E-01;  9.9999998E-03; -2.0000000E-01;131;  0.0000000E+00;  0.0000000E+00;  0.0000000E+00;  1.0000000E+03;  4.0000001E-01;  0.0000000E+00;0;  0.0000000E+00;  0.0000000E+00;  0.0000000E+00;0; -7.8456859E-09;  1.0000000E+04;  0.0000000E+00;  0.0000000E+00;  1.0000000E+04;  0.0000000E+00;  1.0000000E+04; -7.8605593E-09;  0.0000000E+00;  1.4873632E-11;  1.8053137E-07;
 -1.4000000E-01;  9.9999998E-03; -3.4000000E-01;165;  0.0000000E+00;  0.0000000E+00;  0.0000000E+00;  1.0000000E+03;  4.0000001E-01;  0.0000000E+00;0;  0.0000000E+00;  0.0000000E+00;  0.0000000E+00;0; -1.1864827E-08;  1.0000000E+04;  0.0000000E+00;  0.0000000E+00;  1.0000000E+04;  0.0000000E+00;  1.0000000E+04; -1.0113130E-08;  0.0000000E+00; -1.7516973E-09;  3.5849396E-06;
 -1.4000000E-01;  9.9999998E-03; -3.1999999E-01;166;  0.0000000E+00;  0.0000000E+00;  0.0000000E+00;  1.0000000E+03;  4.0000001E-01;  0.0000000E+00;0;  0.0000000E+00;  0.0000000E+00;  0.0000000E+00;0; -3.8692114E-08;  1.0000000E+04;  0.0000000E+00;  0.0000000E+00;  1.0000000E+04;  0.0000000E+00;  1.0000000E+04; -3.4895457E-08;  0.0000000E+00; -3.7966581E-09;  7.5986254E-06;
 -1.4000000E-01;  9.9999998E-03; -3.0000001E-01;167;  0.0000000E+00;  0.0000000E+00;  0.0000000E+00;  1.0000000E+03;  4.0000001E-01;  0.0000000E+00;0;  0.0000000E+00;  0.0000000E+00;  0.0000000E+00;0; -8.2456822E-08;  1.0000000E+04;  0.0000000E+00;  0.0000000E+00;  1.0000000E+04;  0.0000000E+00;  1.0000000E+04; -7.7526508E-08;  0.0000000E+00; -4.9303122E-09;  9.2022092E-06;
 -1.4000000E-01;  9.9999998E-03; -2.8000000E-01;168;  0.0000000E+00;  0.0000000E+00;  0.0000000E+00;  1.0000000E+03;  4.0000001E-01;  0.0000000E+00;0;  0.0000000E+00;  0.0000000E+00;  0.0000000E+00;0; -1.3621923E-07;  1.0000000E+04;  0.0000000E+00;  0.0000000E+00;  1.0000000E+04;  0.0000000E+00;  1.0000000E+04; -1.3190524E-07;  0.0000000E+00; -4.3139852E-09;  6.7620290E-06;
 -1.4000000E-01;  9.9999998E-03; -2.5999999E-01;169;  0.0000000E+00;  0.0000000E+00;  0.0000000E+00;  1.0000000E+03;  4.0000001E-01;  0.0000000E+00;0;  0.0000000E+00;  0.0000000E+00;  0.0000000E+00;0; -1.8907332E-07;  1.0000000E+04;  0.0000000E+00;  0.0000000E+00;  1.0000000E+04;  0.0000000E+00;  1.0000000E+04; -1.8684567E-07;  0.0000000E+00; -2.2276567E-09;  1.2405015E-06;
 -1.4000000E-01;  9.9999998E-03; -2.3999999E-01;170;  0.0000000E+00;  0.0000000E+00;  0.0000000E+00;  1.0000000E+03;  4.0000001E-01;  0.0000000E+00;0;  0.0000000E+00;  0.0000000E+00;  0.0000000E+00;0; -2.3240588E-07;  1.0000000E+04;  0.0000000E+00;  0.0000000E+00;  1.0000000E+04;  0.0000000E+00;  1.0000000E+04; -2.3254783E-07;  0.0000000E+00;  1.4195765E-10;  4.6885225E-06;
 -1.4000000E-01;  9.9999998E-03; -2.2000000E-01;171;  0.0000000E+00;  0.0000000E+00;  0.0000000E+00;  1.0000000E+03;  4.0000001E-01;  0.0000000E+00;0;  0.0000000E+00;  0.0000000E+00;  0.0000000E+00;0; -2.6369850E-07;  1.0000000E+04;  0.0000000E+00;  0.0000000E+00;  1.0000000E+04;  0.0000000E+00;  1.0000000E+04; -2.6521681E-07;  0.0000000E+00;  1.5183101E-09;  8.2628649E-06;
 -1.4000000E-01;  9.9999998E-03; -2.0000000E-01;172;  0.0000000E+00;  0.0000000E+00;  0.0000000E+00;  1.0000000E+03;  4.0000001E-01;  0.0000000E+00;0;  0.0000000E+00;  0.0000000E+00;  0.0000000E+00;0; -2.8624748E-07;  1.0000000E+04;  0.0000000E+00;  0.0000000E+00;  1.0000000E+04;  0.0000000E+00;  1.0000000E+04; -2.8803530E-07;  0.0000000E+00;  1.7878174E-09;  9.3159724E-06;
 -1.2000000E-01;  9.9999998E-03; -3.4000000E-01;206;  0.0000000E+00;  0.0000000E+00;  0.0000000E+00;  1.0000000E+03;  4.0000001E-01;  0.0000000E+00;0;  0.0000000E+00;  0.0000000E+00;  0.0000000E+00;0; -1.5157195E-07;  1.0000000E+04;  0.0000000E+00;  0.0000000E+00;  1.0000000E+04;  0.0000000E+00;  1.0000000E+04; -1.2564792E-07;  0.0000000E+00; -2.5924038E-08;  5.3967538E-05;
 -1.2000000E-01;  9.9999998E-03; -3.1999999E-01;207;  0.0000000E+00;  0.0000000E+00;  0.0000000E+00;  1.0000000E+03;  4.0000001E-01;  0.0000000E+00;0;  0.0000000E+00;  0.0000000E+00;  0.0000000E+00;0; -3.2103392E-07;  1.0000000E+04;  0.0000000E+00;  0.0000000E+00;  1.0000000E+04;  0.0000000E+00;  1.0000000E+04; -2.8410292E-07;  0.0000000E+00; -3.6931009E-08;  7.4695723E-05;
 -1.2000000E-01;  9.9999998E-03; -3.0000001E-01;208;  0.0000000E+00;  0.0000000E+00;  0.0000000E+00;  1.0000000E+03;  4.0000001E-01;  0.0000000E+00;0;  0.0000000E+00;  0.0000000E+00;  0.0000000E+00;0; -5.5210330E-07;  1.0000000E+04;  0.0000000E+00;  0.0000000E+00;  1.0000000E+04;  0.0000000E+00;  1.0000000E+04; -5.1249714E-07;  0.0000000E+00; -3.9606149E-08;  7.5694959E-05;
 -1.2000000E-01;  9.9999998E-03; -2.8000000E-01;209;  0.0000000E+00;  0.0000000E+00;  0.0000000E+00;  1.0000000E+03;  4.0000001E-01;  0.0000000E+00;0;  0.0000000E+00;  0.0000000E+00;  0.0000000E+00;0; -8.1701603E-07;  1.0000000E+04;  0.0000000E+00;  0.0000000E+00;  1.0000000E+04;  0.0000000E+00;  1.0000000E+04; -7.8453292E-07;  0.0000000E+00; -3.2483108E-08;  5.4856049E-05;
 -1.2000000E-01;  9.9999998E-03; -2.5999999E-01;210;  0.0000000E+00;  0.0000000E+00;  0.0000000E+00;  1.0000000E+03;  4.0000001E-01;  0.0000000E+00;0;  0.0000000E+00;  0.0000000E+00;  0.0000000E+00;0; -1.0766371E-06;  1.0000000E+04;  0.0000000E+00;  0.0000000E+00;  1.0000000E+04;  0.0000000E+00;  1.0000000E+04; -1.0586771E-06;  0.0000000E+00; -1.7959975E-08;  1.8256469E-05;
 -1.2000000E-01;  9.9999998E-03; -2.3999999E-01;211;  0.0000000E+00;  0.0000000E+00;  0.0000000E+00;  1.0000000E+03;  4.0000001E-01;  0.0000000E+00;0;  0.0000000E+00;  0.0000000E+00;  0.0000000E+00;0; -1.3002816E-06;  1.0000000E+04;  0.0000000E+00;  0.0000000E+00;  1.0000000E+04;  0.0000000E+00;  1.0000000E+04; -1.2985507E-06;  0.0000000E+00; -1.7309038E-09;  2.1231179E-05;
 -1.2000000E-01;  9.9999998E-03; -2.2000000E-01;212;  0.0000000E+00;  0.0000000E+00;  0.0000000E+00;  1.0000000E+03;  4.0000001E-01;  0.0000000E+00;0;  0.0000000E+00;  0.0000000E+00;  0.0000000E+00;0; -1.4774290E-06;  1.0000000E+04;  0.0000000E+00;  0.0000000E+00;  1.0000000E+04;  0.0000000E+00;  1.0000000E+04; -1.4877636E-06;  0.0000000E+00;  1.0334610E-08;  5.0834442E-05;
 -1.2000000E-01;  9.9999998E-03; -2.0000000E-01;213;  0.0000000E+00;  0.0000000E+00;  0.0000000E+00;  1.0000000E+03;  4.0000001E-01;  0.0000000E+00;0;  0.0000000E+00;  0.0000000E+00;  0.0000000E+00;0; -1.6131378E-06;  1.0000000E+04;  0.0000000E+00;  0.0000000E+00;  1.0000000E+04;  0.0000000E+00;  1.0000000E+04; -1.6292340E-06;  0.0000000E+00;  1.6096219E-08;  6.6189707E-05;
 -1.0000000E-01;  9.9999998E-03; -3.4000000E-01;247;  0.0000000E+00;  0.0000000E+00;  0.0000000E+00;  1.0000000E+03;  4.0000001E-01;  0.0000000E+00;0;  0.0000000E+00;  0.0000000E+00;  0.0000000E+00;0; -7.1340196E-07;  1.0000000E+04;  0.0000000E+00;  0.0000000E+00;  1.0000000E+04;  0.0000000E+00;  1.0000000E+04; -5.7571634E-07;  0.0000000E+00; -1.3768560E-07;  2.8996138E-04;
 -1.0000000E-01;  9.9999998E-03; -3.1999999E-01;248;  0.0000000E+00;  0.0000000E+00;  0.0000000E+00;  1.0000000E+03;  4.0000001E-01;  0.0000000E+00;0;  0.0000000E+00;  0.0000000E+00;  0.0000000E+00;0; -1.2822375E-06;  1.0000000E+04;  0.0000000E+00;  0.0000000E+00;  1.0000000E+04;  0.0000000E+00;  1.0000000E+04; -1.1145800E-06;  0.0000000E+00; -1.6765750E-07;  3.4427183E-04;
 -1.0000000E-01;  9.9999998E-03; -3.0000001E-01;249;  0.0000000E+00;  0.0000000E+00;  0.0000000E+00;  1.0000000E+03;  4.0000001E-01;  0.0000000E+00;0;  0.0000000E+00;  0.0000000E+00;  0.0000000E+00;0; -2.0092152E-06;  1.0000000E+04;  0.0000000E+00;  0.0000000E+00;  1.0000000E+04;  0.0000000E+00;  1.0000000E+04; -1.8437565E-06;  0.0000000E+00; -1.6545872E-07;  3.2427392E-04;
 -1.0000000E-01;  9.9999998E-03; -2.8000000E-01;250;  0.0000000E+00;  0.0000000E+00;  0.0000000E+00;  1.0000000E+03;  4.0000001E-01;  0.0000000E+00;0;  0.0000000E+00;  0.0000000E+00;  0.0000000E+00;0; -2.8178777E-06;  1.0000000E+04;  0.0000000E+00;  0.0000000E+00;  1.0000000E+04;  0.0000000E+00;  1.0000000E+04; -2.6874982E-06;  0.0000000E+00; -1.3037956E-07;  2.3045618E-04;
 -1.0000000E-01;  9.9999998E-03; -2.5999999E-01;251;  0.0000000E+00;  0.0000000E+00;  0.0000000E+00;  1.0000000E+03;  4.0000001E-01;  0.0000000E+00;0;  0.0000000E+00;  0.0000000E+00;  0.0000000E+00;0; -3.6037657E-06;  1.0000000E+04;  0.0000000E+00;  0.0000000E+00;  1.0000000E+04;  0.0000000E+00;  1.0000000E+04; -3.5322869E-06;  0.0000000E+00; -7.1478723E-08;  8.5317341E-05;
 -1.0000000E-01;  9.9999998E-03; -2.3999999E-01;252;  0.0000000E+00;  0.0000000E+00;  0.0000000E+00;  1.0000000E+03;  4.0000001E-01;  0.0000000E+00;0;  0.0000000E+00;  0.0000000E+00;  0.0000000E+00;0; -4.2892079E-06;  1.0000000E+04;  0.0000000E+00;  0.0000000E+00;  1.0000000E+04;  0.0000000E+00;  1.0000000E+04; -4.2815382E-06;  0.0000000E+00; -7.6695423E-09;  6.7919296E-05;
 -1.0000000E-01;  9.9999998E-03; -2.2000000E-01;253;  0.0000000E+00;  0.0000000E+00;  0.0000000E+00;  1.0000000E+03;  4.0000001E-01;  0.0000000E+00;0;  0.0000000E+00;  0.0000000E+00;  0.0000000E+00;0; -4.8487327E-06;  1.0000000E+04;  0.0000000E+00;  0.0000000E+00;  1.0000000E+04;  0.0000000E+00;  1.0000000E+04; -4.8903071E-06;  0.0000000E+00;  4.1574452E-08;  1.8659676E-04;
 -1.0000000E-01;  9.9999998E-03; -2.0000000E-01;254;  0.0000000E+00;  0.0000000E+00;  0.0000000E+00;  1.0000000E+03;  4.0000001E-01;  0.0000000E+00;0;  0.0000000E+00;  0.0000000E+00;  0.0000000E+00;0; -5.2929054E-06;  1.0000000E+04;  0.0000000E+00;  0.0000000E+00;  1.0000000E+04;  0.0000000E+00;  1.0000000E+04; -5.3615368E-06;  0.0000000E+00;  6.8631429E-08;  2.5501451E-04;
 -7.9999998E-02;  9.9999998E-03; -3.4000000E-01;288;  0.0000000E+00;  0.0000000E+00;  0.0000000E+00;  1.0000000E+03;  4.0000001E-01;  0.0000000E+00;0;  0.0000000E+00;  0.0000000E+00;  0.0000000E+00;0; -2.1632270E-06;  1.0000000E+04;  0.0000000E+00;  0.0000000E+00;  1.0000000E+04;  0.0000000E+00;  1.0000000E+04; -1.7016423E-06;  0.0000000E+00; -4.6158479E-07;  9.8771381E-04;
 -7.9999998E-02;  9.9999998E-03; -3.1999999E-01;289;  0.0000000E+00;  0.0000000E+00;  0.0000000E+00;  1.0000000E+03;  4.0000001E-01;  0.0000000E+00;0;  0.0000000E+00;  0.0000000E+00;  0.0000000E+00;0; -3.5808564E-06;  1.0000000E+04;  0.0000000E+00;  0.0000000E+00;  1.0000000E+04;  0.0000000E+00;  1.0000000E+04; -3.0600645E-06;  0.0000000E+00; -5.2079190E-07;  1.0900162E-03;
 -7.9999998E-02;  9.9999998E-03; -3.0000001E-01;290;  0.0000000E+00;  0.0000000E+00;  0.0000000E+00;  1.0000000E+03;  4.0000001E-01;  0.0000000E+00;0;  0.0000000E+00;  0.0000000E+00;  0.0000000E+00;0; -5.3358713E-06;  1.0000000E+04;  0.0000000E+00;  0.0000000E+00;  1.0000000E+04;  0.0000000E+00;  1.0000000E+04; -4.8441675E-06;  0.0000000E+00; -4.9170370E-07;  9.8718447E-04;
 -7.9999998E-02;  9.9999998E-03; -2.8000000E-01;291;  0.0000000E+00;  0.0000000E+00;  0.0000000E+00;  1.0000000E+03;  4.0000001E-01;  0.0000000E+00;0;  0.0000000E+00;  0.0000000E+00;  0.0000000E+00;0; -7.2517360E-06;  1.0000000E+04;  0.0000000E+00;  0.0000000E+00;  1.0000000E+04;  0.0000000E+00;  1.0000000E+04; -6.8744639E-06;  0.0000000E+00; -3.7727213E-07;  6.9090334E-04;
 -7.9999998E-02;  9.9999998E-03; -2.5999999E-01;292;  0.0000000E+00;  0.0000000E+00;  0.0000000E+00;  1.0000000E+03;  4.0000001E-01;  0.0000000E+00;0;  0.0000000E+00;  0.0000000E+00;  0.0000000E+00;0; -9.0972790E-06;  1.0000000E+04;  0.0000000E+00;  0.0000000E+00;  1.0000000E+04;  0.0000000E+00;  1.0000000E+04; -8.8946672E-06;  0.0000000E+00; -2.0261197E-07;  2.6371927E-04;
 -7.9999998E-02;  9.9999998E-03; -2.3999999E-01;293;  0.0000000E+00;  0.0000000E+00;  0.0000000E+00;  1.0000000E+03;  4.0000001E-01;  0.0000000E+00;0;  0.0000000E+00;  0.0000000E+00;  0.0000000E+00;0; -1.0708827E-05;  1.0000000E+04;  0.0000000E+00;  0.0000000E+00;  1.0000000E+04;  0.0000000E+00;  1.0000000E+04; -1.0691306E-05;  0.0000000E+00; -1.7521559E-08;  1.7949157E-04;
 -7.9999998E-02;  9.9999998E-03; -2.2000000E-01;294;  0.0000000E+00;  0.0000000E+00;  0.0000000E+00;  1.0000000E+03;  4.0000001E-01;  0.0000000E+00;0;  0.0000000E+00;  0.0000000E+00;  0.0000000E+00;0; -1.2039484E-05;  1.0000000E+04;  0.0000000E+00;  0.0000000E+00;  1.0000000E+04;  0.0000000E+00;  1.0000000E+04; -1.2166220E-05;  0.0000000E+00;  1.2673554E-07;  5.2516256E-04;
 -7.9999998E-02;  9.9999998E-03; -2.0000000E-01;295;  0.0000000E+00;  0.0000000E+00;  0.0000000E+00;  1.0000000E+03;  4.0000001E-01;  0.0000000E+00;0;  0.0000000E+00;  0.0000000E+00;  0.0000000E+00;0; -1.3114448E-05;  1.0000000E+04;  0.0000000E+00;  0.0000000E+00;  1.0000000E+04;  0.0000000E+00;  1.0000000E+04; -1.3323686E-05;  0.0000000E+00;  2.0923869E-07;  7.2965404E-04;
 -5.9999999E-02;  9.9999998E-03; -3.4000000E-01;329;  0.0000000E+00;  0.0000000E+00;  0.0000000E+00;  1.0000000E+03;  4.0000001E-01;  0.0000000E+00;0;  0.0000000E+00;  0.0000000E+00;  0.0000000E+00;0; -5.0521412E-06;  1.0000000E+04;  0.0000000E+00;  0.0000000E+00;  1.0000000E+04;  0.0000000E+00;  1.0000000E+04; -3.8679846E-06;  0.0000000E+00; -1.1841566E-06;  2.5824506E-03;
 -5.9999999E-02;  9.9999998E-03; -3.1999999E-01;330;  0.0000000E+00;  0.0000000E+00;  0.0000000E+00;  1.0000000E+03;  4.0000001E-01;  0.0000000E+00;0;  0.0000000E+00;  0.0000000E+00;  0.0000000E+00;0; -7.9681686E-06;  1.0000000E+04;  0.0000000E+00;  0.0000000E+00;  1.0000000E+04;  0.0000000E+00;  1.0000000E+04; -6.6868024E-06;  0.0000000E+00; -1.2813659E-06;  2.7391161E-03;
 -5.9999999E-02;  9.9999998E-03; -3.0000001E-01;331;  0.0000000E+00;  0.0000000E+00;  0.0000000E+00;  1.0000000E+03;  4.0000001E-01;  0.0000000E+00;0;  0.0000000E+00;  0.0000000E+00;  0.0000000E+00;0; -1.1508146E-05;  1.0000000E+04;  0.0000000E+00;  0.0000000E+00;  1.0000000E+04;  0.0000000E+00;  1.0000000E+04; -1.0330151E-05;  0.0000000E+00; -1.1779948E-06;  2.4245162E-03;
 -5.9999999E-02;  9.9999998E-03; -2.8000000E-01;332;  0.0000000E+00;  0.0000000E+00;  0.0000000E+00;  1.0000000E+03;  4.0000001E-01;  0.0000000E+00;0;  0.0000000E+00;  0.0000000E+00;  0.0000000E+00;0; -1.5318688E-05;  1.0000000E+04;  0.0000000E+00;  0.0000000E+00;  1.0000000E+04;  0.0000000E+00;  1.0000000E+04; -1.4433280E-05;  0.0000000E+00; -8.8540793E-07;  1.6759547E-03;
 -5.9999999E-02;  9.9999998E-03; -2.5999999E-01;333;  0.0000000E+00;  0.0000000E+00;  0.0000000E+00;  1.0000000E+03;  4.0000001E-01;  0.0000000E+00;0;  0.0000000E+00;  0.0000000E+00;  0.0000000E+00;0; -1.8949231E-05;  1.0000000E+04;  0.0000000E+00;  0.0000000E+00;  1.0000000E+04;  0.0000000E+00;  1.0000000E+04; -1.8486282E-05;  0.0000000E+00; -4.6294949E-07;  6.4196455E-04;
 -5.9999999E-02;  9.9999998E-03; -2.3999999E-01;334;  0.0000000E+00;  0.0000000E+00;  0.0000000E+00;  1.0000000E+03;  4.0000001E-01;  0.0000000E+00;0;  0.0000000E+00;  0.0000000E+00;  0.0000000E+00;0; -2.2103148E-05;  1.0000000E+04;  0.0000000E+00;  0.0000000E+00;  1.0000000E+04;  0.0000000E+00;  1.0000000E+04; -2.2078915E-05;  0.0000000E+00; -2.4231920E-08;  4.1235104E-04;
 -5.9999999E-02;  9.9999998E-03; -2.2000000E-01;335;  0.0000000E+00;  0.0000000E+00;  0.0000000E+00;  1.0000000E+03;  4.0000001E-01;  0.0000000E+00;0;  0.0000000E+00;  0.0000000E+00;  0.0000000E+00;0; -2.4715999E-05;  1.0000000E+04;  0.0000000E+00;  0.0000000E+00;  1.0000000E+04;  0.0000000E+00;  1.0000000E+04; -2.5033014E-05;  0.0000000E+00;  3.1701498E-07;  1.2314682E-03;
 -5.9999999E-02;  9.9999998E-03; -2.0000000E-01;336;  0.0000000E+00;  0.0000000E+00;  0.0000000E+00;  1.0000000E+03;  4.0000001E-01;  0.0000000E+00;0;  0.0000000E+00;  0.0000000E+00;  0.0000000E+00;0; -2.6846930E-05;  1.0000000E+04;  0.0000000E+00;  0.0000000E+00;  1.0000000E+04;  0.0000000E+00;  1.0000000E+04; -2.7361788E-05;  0.0000000E+00;  5.1485802E-07;  1.7182784E-03;
 -3.9999999E-02;  9.9999998E-03; -3.4000000E-01;370;  0.0000000E+00;  0.0000000E+00;  0.0000000E+00;  1.0000000E+03;  4.0000001E-01;  0.0000000E+00;0;  0.0000000E+00;  0.0000000E+00;  0.0000000E+00;0; -9.8729315E-06;  1.0000000E+04;  0.0000000E+00;  0.0000000E+00;  1.0000000E+04;  0.0000000E+00;  1.0000000E+04; -7.3319056E-06;  0.0000000E+00; -2.5410259E-06;  5.6646783E-03;
 -3.9999999E-02;  9.9999998E-03; -3.1999999E-01;371;  0.0000000E+00;  0.0000000E+00;  0.0000000E+00;  1.0000000E+03;  4.0000001E-01;  0.0000000E+00;0;  0.0000000E+00;  0.0000000E+00;  0.0000000E+00;0; -1.5093463E-05;  1.0000000E+04;  0.0000000E+00;  0.0000000E+00;  1.0000000E+04;  0.0000000E+00;  1.0000000E+04; -1.2408754E-05;  0.0000000E+00; -2.6847094E-06;  5.8771325E-03;
 -3.9999999E-02;  9.9999998E-03; -3.0000001E-01;372;  0.0000000E+00;  0.0000000E+00;  0.0000000E+00;  1.0000000E+03;  4.0000001E-01;  0.0000000E+00;0;  0.0000000E+00;  0.0000000E+00;  0.0000000E+00;0; -2.1338890E-05;  1.0000000E+04;  0.0000000E+00;  0.0000000E+00;  1.0000000E+04;  0.0000000E+00;  1.0000000E+04; -1.8913397E-05;  0.0000000E+00; -2.4254934E-06;  5.1283538E-03;
 -3.9999999E-02;  9.9999998E-03; -2.8000000E-01;373;  0.0000000E+00;  0.0000000E+00;  0.0000000E+00;  1.0000000E+03;  4.0000001E-01;  0.0000000E+00;0;  0.0000000E+00;  0.0000000E+00;  0.0000000E+00;0; -2.7965441E-05;  1.0000000E+04;  0.0000000E+00;  0.0000000E+00;  1.0000000E+04;  0.0000000E+00;  1.0000000E+04; -2.6176742E-05;  0.0000000E+00; -1.7887002E-06;  3.5012397E-03;
 -3.9999999E-02;  9.9999998E-03; -2.5999999E-01;374;  0.0000000E+00;  0.0000000E+00;  0.0000000E+00;  1.0000000E+03;  4.0000001E-01;  0.0000000E+00;0;  0.0000000E+00;  0.0000000E+00;  0.0000000E+00;0; -3.4186261E-05;  1.0000000E+04;  0.0000000E+00;  0.0000000E+00;  1.0000000E+04;  0.0000000E+00;  1.0000000E+04; -3.3282562E-05;  0.0000000E+00; -9.0369895E-07;  1.3212918E-03;
 -3.9999999E-02;  9.9999998E-03; -2.3999999E-01;375;  0.0000000E+00;  0.0000000E+00;  0.0000000E+00;  1.0000000E+03;  4.0000001E-01;  0.0000000E+00;0;  0.0000000E+00;  0.0000000E+00;  0.0000000E+00;0; -3.9541595E-05;  1.0000000E+04;  0.0000000E+00;  0.0000000E+00;  1.0000000E+04;  0.0000000E+00;  1.0000000E+04; -3.9535611E-05;  0.0000000E+00; -5.9837038E-09;  8.5531175E-04;
 -3.9999999E-02;  9.9999998E-03; -2.2000000E-01;376;  0.0000000E+00;  0.0000000E+00;  0.0000000E+00;  1.0000000E+03;  4.0000001E-01;  0.0000000E+00;0;  0.0000000E+00;  0.0000000E+00;  0.0000000E+00;0; -4.3976717E-05;  1.0000000E+04;  0.0000000E+00;  0.0000000E+00;  1.0000000E+04;  0.0000000E+00;  1.0000000E+04; -4.4661425E-05;  0.0000000E+00;  6.8470689E-07;  2.5262798E-03;
 -3.9999999E-02;  9.9999998E-03; -2.0000000E-01;377;  0.0000000E+00;  0.0000000E+00;  0.0000000E+00;  1.0000000E+03;  4.0000001E-01;  0.0000000E+00;0;  0.0000000E+00;  0.0000000E+00;  0.0000000E+00;0; -4.7614802E-05;  1.0000000E+04;  0.0000000E+00;  0.0000000E+00;  1.0000000E+04;  0.0000000E+00;  1.0000000E+04; -4.8699945E-05;  0.0000000E+00;  1.0851437E-06;  3.5130016E-03;
 -2.0000000E-02;  9.9999998E-03; -3.4000000E-01;411;  0.0000000E+00;  0.0000000E+00;  0.0000000E+00;  1.0000000E+03;  4.0000001E-01;  0.0000000E+00;0;  0.0000000E+00;  0.0000000E+00;  0.0000000E+00;0; -1.7005243E-05;  1.0000000E+04;  0.0000000E+00;  0.0000000E+00;  1.0000000E+04;  0.0000000E+00;  1.0000000E+04; -1.2216095E-05;  0.0000000E+00; -4.7891481E-06;  1.0952701E-02;
 -2.0000000E-02;  9.9999998E-03; -3.1999999E-01;412;  0.0000000E+00;  0.0000000E+00;  0.0000000E+00;  1.0000000E+03;  4.0000001E-01;  0.0000000E+00;0;  0.0000000E+00;  0.0000000E+00;  0.0000000E+00;0; -2.5435793E-05;  1.0000000E+04;  0.0000000E+00;  0.0000000E+00;  1.0000000E+04;  0.0000000E+00;  1.0000000E+04; -2.0446549E-05;  0.0000000E+00; -4.9892437E-06;  1.1221477E-02;
 -2.0000000E-02;  9.9999998E-03; -3.0000001E-01;413;  0.0000000E+00;  0.0000000E+00;  0.0000000E+00;  1.0000000E+03;  4.0000001E-01;  0.0000000E+00;0;  0.0000000E+00;  0.0000000E+00;  0.0000000E+00;0; -3.5363308E-05;  1.0000000E+04;  0.0000000E+00;  0.0000000E+00;  1.0000000E+04;  0.0000000E+00;  1.0000000E+04; -3.0914922E-05;  0.0000000E+00; -4.4483863E-06;  9.6884910E-03;
 -2.0000000E-02;  9.9999998E-03; -2.8000000E-01;414;  0.0000000E+00;  0.0000000E+00;  0.0000000E+00;  1.0000000E+03;  4.0000001E-01;  0.0000000E+00;0;  0.0000000E+00;  0.0000000E+00;  0.0000000E+00;0; -4.5707504E-05;  1.0000000E+04;  0.0000000E+00;  0.0000000E+00;  1.0000000E+04;  0.0000000E+00;  1.0000000E+04; -4.2493702E-05;  0.0000000E+00; -3.2138005E-06;  6.5142005E-03;
 -2.0000000E-02;  9.9999998E-03; -2.5999999E-01;415;  0.0000000E+00;  0.0000000E+00;  0.0000000E+00;  1.0000000E+03;  4.0000001E-01;  0.0000000E+00;0;  0.0000000E+00;  0.0000000E+00;  0.0000000E+00;0; -5.5239256E-05;  1.0000000E+04;  0.0000000E+00;  0.0000000E+00;  1.0000000E+04;  0.0000000E+00;  1.0000000E+04; -5.3684198E-05;  0.0000000E+00; -1.5550582E-06;  2.3793171E-03;
 -2.0000000E-02;  9.9999998E-03; -2.3999999E-01;416;  0.0000000E+00;  0.0000000E+00;  0.0000000E+00;  1.0000000E+03;  4.0000001E-01;  0.0000000E+00;0;  0.0000000E+00;  0.0000000E+00;  0.0000000E+00;0; -6.3367515E-05;  1.0000000E+04;  0.0000000E+00;  0.0000000E+00;  1.0000000E+04;  0.0000000E+00;  1.0000000E+04; -6.3446925E-05;  0.0000000E+00;  7.9408153E-08;  1.6426129E-03;
 -2.0000000E-02;  9.9999998E-03; -2.2000000E-01;417;  0.0000000E+00;  0.0000000E+00;  0.0000000E+00;  1.0000000E+03;  4.0000001E-01;  0.0000000E+00;0;  0.0000000E+00;  0.0000000E+00;  0.0000000E+00;0; -7.0090187E-05;  1.0000000E+04;  0.0000000E+00;  0.0000000E+00;  1.0000000E+04;  0.0000000E+00;  1.0000000E+04; -7.1407208E-05;  0.0000000E+00;  1.3170214E-06;  4.6798359E-03;
 -2.0000000E-02;  9.9999998E-03; -2.0000000E-01;418;  0.0000000E+00;  0.0000000E+00;  0.0000000E+00;  1.0000000E+03;  4.0000001E-01;  0.0000000E+00;0;  0.0000000E+00;  0.0000000E+00;  0.0000000E+00;0; -7.5623997E-05;  1.0000000E+04;  0.0000000E+00;  0.0000000E+00;  1.0000000E+04;  0.0000000E+00;  1.0000000E+04; -7.7652992E-05;  0.0000000E+00;  2.0289976E-06;  6.4504854E-03;
  0.0000000E+00;  9.9999998E-03; -3.4000000E-01;452;  0.0000000E+00;  0.0000000E+00;  0.0000000E+00;  1.0000000E+03;  4.0000001E-01;  0.0000000E+00;0;  0.0000000E+00;  0.0000000E+00;  0.0000000E+00;0; -2.6766034E-05;  1.0000000E+04;  0.0000000E+00;  0.0000000E+00;  1.0000000E+04;  0.0000000E+00;  1.0000000E+04; -1.8594372E-05;  0.0000000E+00; -8.1716626E-06;  1.9252665E-02;
  0.0000000E+00;  9.9999998E-03; -3.1999999E-01;453;  0.0000000E+00;  0.0000000E+00;  0.0000000E+00;  1.0000000E+03;  4.0000001E-01;  0.0000000E+00;0;  0.0000000E+00;  0.0000000E+00;  0.0000000E+00;0; -3.9372975E-05;  1.0000000E+04;  0.0000000E+00;  0.0000000E+00;  1.0000000E+04;  0.0000000E+00;  1.0000000E+04; -3.0937063E-05;  0.0000000E+00; -8.4359135E-06;  1.9570479E-02;
  0.0000000E+00;  9.9999998E-03; -3.0000001E-01;454;  0.0000000E+00;  0.0000000E+00;  0.0000000E+00;  1.0000000E+03;  4.0000001E-01;  0.0000000E+00;0;  0.0000000E+00;  0.0000000E+00;  0.0000000E+00;0; -5.3895546E-05;  1.0000000E+04;  0.0000000E+00;  0.0000000E+00;  1.0000000E+04;  0.0000000E+00;  1.0000000E+04; -4.6481338E-05;  0.0000000E+00; -7.4142076E-06;  1.6693292E-02;
  2.0000000E-02;  9.9999998E-03; -3.4000000E-01;464;  0.0000000E+00;  0.0000000E+00;  0.0000000E+00;  1.0000000E+03;  4.0000001E-01;  0.0000000E+00;0;  0.0000000E+00;  0.0000000E+00;  0.0000000E+00;0; -3.9663322E-05;  1.0000000E+04;  0.0000000E+00;  0.0000000E+00;  1.0000000E+04;  0.0000000E+00;  1.0000000E+04; -2.6756094E-05;  0.0000000E+00; -1.2907229E-05;  3.1473193E-02;
  2.0000000E-02;  9.9999998E-03; -3.1999999E-01;465;  0.0000000E+00;  0.0000000E+00;  0.0000000E+00;  1.0000000E+03;  4.0000001E-01;  0.0000000E+00;0;  0.0000000E+00;  0.0000000E+00;  0.0000000E+00;0; -5.7564044E-05;  1.0000000E+04;  0.0000000E+00;  0.0000000E+00;  1.0000000E+04;  0.0000000E+00;  1.0000000E+04; -4.4336048E-05;  0.0000000E+00; -1.3227997E-05;  3.1794116E-02;
  3.9999999E-02;  9.9999998E-03; -3.4000000E-01;474;  0.0000000E+00;  0.0000000E+00;  0.0000000E+00;  1.0000000E+03;  4.0000001E-01;  0.0000000E+00;0;  0.0000000E+00;  0.0000000E+00;  0.0000000E+00;0; -5.6831872E-05;  1.0000000E+04;  0.0000000E+00;  0.0000000E+00;  1.0000000E+04;  0.0000000E+00;  1.0000000E+04; -3.7558373E-05;  0.0000000E+00; -1.9273499E-05;  4.8855036E-02;
  3.9999999E-02;  9.9999998E-03; -3.1999999E-01;475;  0.0000000E+00;  0.0000000E+00;  0.0000000E+00;  1.0000000E+03;  4.0000001E-01;  0.0000000E+00;0;  0.0000000E+00;  0.0000000E+00;  0.0000000E+00;0; -8.1684411E-05;  1.0000000E+04;  0.0000000E+00;  0.0000000E+00;  1.0000000E+04;  0.0000000E+00;  1.0000000E+04; -6.2079474E-05;  0.0000000E+00; -1.9604937E-05;  4.9030233E-02;
  5.9999999E-02;  9.9999998E-03; -3.4000000E-01;484;  0.0000000E+00;  0.0000000E+00;  0.0000000E+00;  1.0000000E+03;  4.0000001E-01;  0.0000000E+00;0;  0.0000000E+00;  0.0000000E+00;  0.0000000E+00;0; -8.0374535E-05;  1.0000000E+04;  0.0000000E+00;  0.0000000E+00;  1.0000000E+04;  0.0000000E+00;  1.0000000E+04; -5.2592779E-05;  0.0000000E+00; -2.7781758E-05;  7.3438406E-02;
  5.9999999E-02;  9.9999998E-03; -3.1999999E-01;485;  0.0000000E+00;  0.0000000E+00;  0.0000000E+00;  1.0000000E+03;  4.0000001E-01;  0.0000000E+00;0;  0.0000000E+00;  0.0000000E+00;  0.0000000E+00;0; -1.1482565E-04;  1.0000000E+04;  0.0000000E+00;  0.0000000E+00;  1.0000000E+04;  0.0000000E+00;  1.0000000E+04; -8.6746557E-05;  0.0000000E+00; -2.8079094E-05;  7.3277034E-02;
  7.9999998E-02;  9.9999998E-03; -3.4000000E-01;494;  0.0000000E+00;  0.0000000E+00;  0.0000000E+00;  1.0000000E+03;  4.0000001E-01;  0.0000000E+00;0;  0.0000000E+00;  0.0000000E+00;  0.0000000E+00;0; -1.1411624E-04;  1.0000000E+04;  0.0000000E+00;  0.0000000E+00;  1.0000000E+04;  0.0000000E+00;  1.0000000E+04; -7.4772885E-05;  0.0000000E+00; -3.9343347E-05;  1.0875984E-01;
  7.9999998E-02;  9.9999998E-03; -3.1999999E-01;495;  0.0000000E+00;  0.0000000E+00;  0.0000000E+00;  1.0000001E+03;  4.0000001E-01;  9.8762624E-02;0;  0.0000000E+00;  0.0000000E+00;  0.0000000E+00;0; -1.6214068E-04;  1.0000000E+04;  0.0000000E+00;  0.0000000E+00;  1.0000000E+04;  0.0000000E+00;  1.0000000E+04; -1.2259296E-04;  0.0000000E+00; -3.9547729E-05;  1.0793457E-01;
  1.0000000E-01;  9.9999998E-03; -3.4000000E-01;504;  0.0000000E+00;  0.0000000E+00;  0.0000000E+00;  1.0000001E+03;  4.0000001E-01;  9.8762624E-02;0;  0.0000000E+00;  0.0000000E+00;  0.0000000E+00;0; -1.6519395E-04;  1.0000000E+04;  0.0000000E+00;  0.0000000E+00;  1.0000000E+04;  0.0000000E+00;  1.0000000E+04; -1.0961894E-04;  0.0000000E+00; -5.5575016E-05;  1.6413973E-01;
  1.0000000E-01;  9.9999998E-03; -3.1999999E-01;505;  0.0000000E+00;  0.0000000E+00;  0.0000000E+00;  1.0000001E+03;  4.0000001E-01;  9.8762624E-02;0;  0.0000000E+00;  0.0000000E+00;  0.0000000E+00;0; -2.3301446E-04;  1.0000000E+04;  0.0000000E+00;  0.0000000E+00;  1.0000000E+04;  0.0000000E+00;  1.0000000E+04; -1.7744643E-04;  0.0000000E+00; -5.5568024E-05;  1.6427407E-01;
  1.2000000E-01;  9.9999998E-03; -3.4000000E-01;514;  0.0000000E+00;  0.0000000E+00;  0.0000000E+00;  1.0000001E+03;  4.0000001E-01;  9.8762624E-02;0;  0.0000000E+00;  0.0000000E+00;  0.0000000E+00;0; -2.4642376E-04;  1.0000000E+04;  0.0000000E+00;  0.0000000E+00;  1.0000000E+04;  0.0000000E+00;  1.0000000E+04; -1.6695753E-04;  0.0000000E+00; -7.9466234E-05;  2.7941605E-01;
  1.2000000E-01;  9.9999998E-03; -3.1999999E-01;515;  0.0000000E+00;  0.0000000E+00;  0.0000000E+00;  1.0000001E+03;  4.0000001E-01;  9.8762624E-02;0;  0.0000000E+00;  0.0000000E+00;  0.0000000E+00;0; -3.4374578E-04;  1.0000000E+04;  0.0000000E+00;  0.0000000E+00;  1.0000000E+04;  0.0000000E+00;  1.0000000E+04; -2.6477076E-04;  0.0000000E+00; -7.8975012E-05;  3.1135258E-01;
  1.4000000E-01;  9.9999998E-03; -3.4000000E-01;524;  0.0000000E+00;  0.0000000E+00;  0.0000000E+00;  1.0000002E+03;  4.0000001E-01;  1.9752525E-01;0;  0.0000000E+00;  0.0000000E+00;  0.0000000E+00;0; -3.7955798E-04;  1.0000000E+04;  0.0000000E+00;  0.0000000E+00;  1.0000000E+04;  0.0000000E+00;  1.0000000E+04; -2.6298437E-04;  0.0000000E+00; -1.1657362E-04;  5.9093422E-01;
  1.4000000E-01;  9.9999998E-03; -3.1999999E-01;525;  0.0000000E+00;  0.0000000E+00;  0.0000000E+00;  1.0000002E+03;  4.0000001E-01;  1.9752525E-01;0;  0.0000000E+00;  0.0000000E+00;  0.0000000E+00;0; -5.2086276E-04;  1.0000000E+04;  0.0000000E+00;  0.0000000E+00;  1.0000000E+04;  0.0000000E+00;  1.0000000E+04; -4.0581674E-04;  0.0000000E+00; -1.1504604E-04;  7.8725457E-01;
  1.6000000E-01;  9.9999998E-03; -3.4000000E-01;534;  0.0000000E+00;  0.0000000E+00;  0.0000000E+00;  1.0000003E+03;  4.0000001E-01;  2.9628786E-01;0;  0.0000000E+00;  0.0000000E+00;  0.0000000E+00;0; -5.9606740E-04;  1.0000000E+04;  0.0000000E+00;  0.0000000E+00;  1.0000000E+04;  0.0000000E+00;  1.0000000E+04; -4.1911798E-04;  0.0000000E+00; -1.7694943E-04;  1.3751028E+00;
  1.6000000E-01;  9.9999998E-03; -3.1999999E-01;535;  0.0000000E+00;  0.0000000E+00;  0.0000000E+00;  1.0000004E+03;  4.0000001E-01;  2.9628786E-01;0;  0.0000000E+00;  0.0000000E+00;  0.0000000E+00;0; -8.0189831E-04;  1.0000000E+04;  0.0000000E+00;  0.0000000E+00;  1.0000000E+04;  0.0000000E+00;  1.0000000E+04; -6.2832318E-04;  0.0000000E+00; -1.7357514E-04;  2.0472667E+00;
  1.8000001E-01;  9.9999998E-03; -3.4000000E-01;544;  0.0000000E+00;  0.0000000E+00;  0.0000000E+00;  1.0000004E+03;  4.0000001E-01;  3.9505050E-01;0;  0.0000000E+00;  0.0000000E+00;  0.0000000E+00;0; -9.2731975E-04;  1.0000000E+04;  0.0000000E+00;  0.0000000E+00;  1.0000000E+04;  0.0000000E+00;  1.0000000E+04; -6.4962293E-04;  0.0000000E+00; -2.7769685E-04;  2.9376242E+00;
  1.8000001E-01;  9.9999998E-03; -3.1999999E-01;545;  0.0000000E+00;  0.0000000E+00;  0.0000000E+00;  1.0000006E+03;  4.0000001E-01;  4.9381313E-01;0;  0.0000000E+00;  0.0000000E+00;  0.0000000E+00;0; -1.2260741E-03;  1.0000000E+04;  0.0000000E+00;  0.0000000E+00;  1.0000000E+04;  0.0000000E+00;  1.0000000E+04; -9.5421332E-04;  0.0000000E+00; -2.7186077E-04;  4.6857605E+00;
  2.0000000E-01;  9.9999998E-03; -3.4000000E-01;553;  0.0000000E+00;  0.0000000E+00;  0.0000000E+00;  1.0000007E+03;  4.0000001E-01;  5.9257573E-01;0;  0.0000000E+00;  0.0000000E+00;  0.0000000E+00;0; -1.3913098E-03;  1.0000000E+04;  0.0000000E+00;  0.0000000E+00;  1.0000000E+04;  0.0000000E+00;  1.0000000E+04; -9.4670465E-04;  0.0000000E+00; -4.4460516E-04;  5.2339201E+00;
  2.0000000E-01;  9.9999998E-03; -3.1999999E-01;554;  0.0000000E+00;  0.0000000E+00;  0.0000000E+00;  1.0000009E+03;  4.0000001E-01;  7.9010099E-01;0;  0.0000000E+00;  0.0000000E+00;  0.0000000E+00;0; -1.8186105E-03;  1.0000000E+04;  0.0000000E+00;  0.0000000E+00;  1.0000000E+04;  0.0000000E+00;  1.0000000E+04; -1.3822587E-03;  0.0000000E+00; -4.3635172E-04;  8.8930311E+00;
 -2.2000000E-01;  9.9999998E-03; -1.8000001E-01;10;  0.0000000E+00;  0.0000000E+00;  0.0000000E+00;  1.0000000E+03;  4.0000001E-01;  0.0000000E+00;0;  0.0000000E+00;  0.0000000E+00;  0.0000000E+00;0;  0.0000000E+00;  1.0000000E+04;  0.0000000E+00;  0.0000000E+00;  1.0000000E+04;  0.0000000E+00;  1.0000000E+04;  0.0000000E+00;  0.0000000E+00;  0.0000000E+00;  0.0000000E+00;
 -2.2000000E-01;  9.9999998E-03; -1.6000000E-01;11;  0.0000000E+00;  0.0000000E+00;  0.0000000E+00;  1.0000000E+03;  4.0000001E-01;  0.0000000E+00;0;  0.0000000E+00;  0.0000000E+00;  0.0000000E+00;0;  0.0000000E+00;  1.0000000E+04;  0.0000000E+00;  0.0000000E+00;  1.0000000E+04;  0.0000000E+00;  1.0000000E+04;  0.0000000E+00;  0.0000000E+00;  0.0000000E+00;  0.0000000E+00;
 -2.2000000E-01;  9.9999998E-03; -1.4000000E-01;12;  0.0000000E+00;  0.0000000E+00;  0.0000000E+00;  1.0000000E+03;  4.0000001E-01;  0.0000000E+00;0;  0.0000000E+00;  0.0000000E+00;  0.0000000E+00;0;  0.0000000E+00;  1.0000000E+04;  0.0000000E+00;  0.0000000E+00;  1.0000000E+04;  0.0000000E+00;  1.0000000E+04;  0.0000000E+00;  0.0000000E+00;  0.0000000E+00;  0.0000000E+00;
 -2.2000000E-01;  9.9999998E-03; -1.2000000E-01;13;  0.0000000E+00;  0.0000000E+00;  0.0000000E+00;  1.0000000E+03;  4.0000001E-01;  0.0000000E+00;0;  0.0000000E+00;  0.0000000E+00;  0.0000000E+00;0;  0.0000000E+00;  1.0000000E+04;  0.0000000E+00;  0.0000000E+00;  1.0000000E+04;  0.0000000E+00;  1.0000000E+04;  0.0000000E+00;  0.0000000E+00;  0.0000000E+00;  0.0000000E+00;
 -2.2000000E-01;  9.9999998E-03; -1.0000000E-01;14;  0.0000000E+00;  0.0000000E+00;  0.0000000E+00;  1.0000000E+03;  4.0000001E-01;  0.0000000E+00;0;  0.0000000E+00;  0.0000000E+00;  0.0000000E+00;0;  0.0000000E+00;  1.0000000E+04;  0.0000000E+00;  0.0000000E+00;  1.0000000E+04;  0.0000000E+00;  1.0000000E+04;  0.0000000E+00;  0.0000000E+00;  0.0000000E+00;  0.0000000E+00;
 -2.2000000E-01;  9.9999998E-03; -7.9999998E-02;15;  0.0000000E+00;  0.0000000E+00;  0.0000000E+00;  1.0000000E+03;  4.0000001E-01;  0.0000000E+00;0;  0.0000000E+00;  0.0000000E+00;  0.0000000E+00;0;  0.0000000E+00;  1.0000000E+04;  0.0000000E+00;  0.0000000E+00;  1.0000000E+04;  0.0000000E+00;  1.0000000E+04;  0.0000000E+00;  0.0000000E+00;  0.0000000E+00;  0.0000000E+00;
 -2.2000000E-01;  9.9999998E-03; -5.9999999E-02;16;  0.0000000E+00;  0.0000000E+00;  0.0000000E+00;  1.0000000E+03;  4.0000001E-01;  0.0000000E+00;0;  0.0000000E+00;  0.0000000E+00;  0.0000000E+00;0;  0.0000000E+00;  1.0000000E+04;  0.0000000E+00;  0.0000000E+00;  1.0000000E+04;  0.0000000E+00;  1.0000000E+04;  0.0000000E+00;  0.0000000E+00;  0.0000000E+00;  0.0000000E+00;
 -2.2000000E-01;  9.9999998E-03; -3.9999999E-02;17;  0.0000000E+00;  0.0000000E+00;  0.0000000E+00;  1.0000000E+03;  4.0000001E-01;  0.0000000E+00;0;  0.0000000E+00;  0.0000000E+00;  0.0000000E+00;0;  0.0000000E+00;  1.0000000E+04;  0.0000000E+00;  0.0000000E+00;  1.0000000E+04;  0.0000000E+00;  1.0000000E+04;  0.0000000E+00;  0.0000000E+00;  0.0000000E+00;  0.0000000E+00;
 -2.2000000E-01;  9.9999998E-03; -2.0000000E-02;18;  0.0000000E+00;  0.0000000E+00;  0.0000000E+00;  1.0000000E+03;  4.0000001E-01;  0.0000000E+00;0;  0.0000000E+00;  0.0000000E+00;  0.0000000E+00;0;  0.0000000E+00;  1.0000000E+04;  0.0000000E+00;  0.0000000E+00;  1.0000000E+04;  0.0000000E+00;  1.0000000E+04;  0.0000000E+00;  0.0000000E+00;  0.0000000E+00;  0.0000000E+00;
 -2.0000000E-01;  9.9999998E-03; -1.8000001E-01;50;  0.0000000E+00;  0.0000000E+00;  0.0000000E+00;  1.0000000E+03;  4.0000001E-01;  0.0000000E+00;0;  0.0000000E+00;  0.0000000E+00;  0.0000000E+00;0;  0.0000000E+00;  1.0000000E+04;  0.0000000E+00;  0.0000000E+00;  1.0000000E+04;  0.0000000E+00;  1.0000000E+04;  0.0000000E+00;  0.0000000E+00;  0.0000000E+00;  0.0000000E+00;
 -2.0000000E-01;  9.9999998E-03; -1.6000000E-01;51;  0.0000000E+00;  0.0000000E+00;  0.0000000E+00;  1.0000000E+03;  4.0000001E-01;  0.0000000E+00;0;  0.0000000E+00;  0.0000000E+00;  0.0000000E+00;0;  0.0000000E+00;  1.0000000E+04;  0.0000000E+00;  0.0000000E+00;  1.0000000E+04;  0.0000000E+00;  1.0000000E+04;  0.0000000E+00;  0.0000000E+00;  0.0000000E+00;  0.0000000E+00;
 -2.0000000E-01;  9.9999998E-03; -1.4000000E-01;52;  0.0000000E+00;  0.0000000E+00;  0.0000000E+00;  1.0000000E+03;  4.0000001E-01;  0.0000000E+00;0;  0.0000000E+00;  0.0000000E+00;  0.0000000E+00;0;  0.0000000E+00;  1.0000000E+04;  0.0000000E+00;  0.0000000E+00;  1.0000000E+04;  0.0000000E+00;  1.0000000E+04;  0.0000000E+00;  0.0000000E+00;  0.0000000E+00;  0.0000000E+00;
 -2.0000000E-01;  9.9999998E-03; -1.2000000E-01;53;  0.0000000E+00;  0.0000000E+00;  0.0000000E+00;  1.0000000E+03;  4.0000001E-01;  0.0000000E+00;0;  0.0000000E+00;  0.0000000E+00;  0.0000000E+00;0;  0.0000000E+00;  1.0000000E+04;  0.0000000E+00;  0.0000000E+00;  1.0000000E+04;  0.0000000E+00;  1.0000000E+04;  0.0000000E+00;  0.0000000E+00;  0.0000000E+00;  0.0000000E+00;
 -2.0000000E-01;  9.9999998E-03; -1.0000000E-01;54;  0.0000000E+00;  0.0000000E+00;  0.0000000E+00;  1.0000000E+03;  4.0000001E-01;  0.0000000E+00;0;  0.0000000E+00;  0.0000000E+00;  0.0000000E+00;0;  0.0000000E+00;  1.0000000E+04;  0.0000000E+00;  0.0000000E+00;  1.0000000E+04;  0.0000000E+00;  1.0000000E+04;  0.0000000E+00;  0.0000000E+00;  0.0000000E+00;  0.0000000E+00;
 -2.0000000E-01;  9.9999998E-03; -7.9999998E-02;55;  0.0000000E+00;  0.0000000E+00;  0.0000000E+00;  1.0000000E+03;  4.0000001E-01;  0.0000000E+00;0;  0.0000000E+00;  0.0000000E+00;  0.0000000E+00;0;  0.0000000E+00;  1.0000000E+04;  0.0000000E+00;  0.0000000E+00;  1.0000000E+04;  0.0000000E+00;  1.0000000E+04;  0.0000000E+00;  0.0000000E+00;  0.0000000E+00;  0.0000000E+00;
 -2.0000000E-01;  9.9999998E-03; -5.9999999E-02;56;  0.0000000E+00;  0.0000000E+00;  0.0000000E+00;  1.0000000E+03;  4.0000001E-01;  0.0000000E+00;0;  0.0000000E+00;  0.0000000E+00;  0.0000000E+00;0;  0.0000000E+00;  1.0000000E+04;  0.0000000E+00;  0.0000000E+00;  1.0000000E+04;  0.0000000E+00;  1.0000000E+04;  0.0000000E+00;  0.0000000E+00;  0.0000000E+00;  0.0000000E+00;
 -2.0000000E-01;  9.9999998E-03; -3.9999999E-02;57;  0.0000000E+00;  0.0000000E+00;  0.0000000E+00;  1.0000000E+03;  4.0000001E-01;  0.0000000E+00;0;  0.0000000E+00;  0.0000000E+00;  0.0000000E+00;0;  0.0000000E+00;  1.0000000E+04;  0.0000000E+00;  0.0000000E+00;  1.0000000E+04;  0.0000000E+00;  1.0000000E+04;  0.0000000E+00;  0.0000000E+00;  0.0000000E+00;  0.0000000E+00;
 -2.0000000E-01;  9.9999998E-03; -2.0000000E-02;58;  0.0000000E+00;  0.0000000E+00;  0.0000000E+00;  1.0000000E+03;  4.0000001E-01;  0.0000000E+00;0;  0.0000000E+00;  0.0000000E+00;  0.0000000E+00;0;  0.0000000E+00;  1.0000000E+04;  0.0000000E+00;  0.0000000E+00;  1.0000000E+04;  0.0000000E+00;  1.0000000E+04;  0.0000000E+00;  0.0000000E+00;  0.0000000E+00;  0.0000000E+00;
 -1.8000001E-01;  9.9999998E-03; -1.8000001E-01;91;  0.0000000E+00;  0.0000000E+00;  0.0000000E+00;  1.0000000E+03;  4.0000001E-01;  0.0000000E+00;0;  0.0000000E+00;  0.0000000E+00;  0.0000000E+00;0;  0.0000000E+00;  1.0000000E+04;  0.0000000E+00;  0.0000000E+00;  1.0000000E+04;  0.0000000E+00;  1.0000000E+04;  0.0000000E+00;  0.0000000E+00;  0.0000000E+00;  0.0000000E+00;
 -1.8000001E-01;  9.9999998E-03; -1.6000000E-01;92;  0.0000000E+00;  0.0000000E+00;  0.0000000E+00;  1.0000000E+03;  4.0000001E-01;  0.0000000E+00;0;  0.0000000E+00;  0.0000000E+00;  0.0000000E+00;0;  0.0000000E+00;  1.0000000E+04;  0.0000000E+00;  0.0000000E+00;  1.0000000E+04;  0.0000000E+00;  1.0000000E+04;  0.0000000E+00;  0.0000000E+00;  0.0000000E+00;  0.0000000E+00;
 -1.8000001E-01;  9.9999998E-03; -1.4000000E-01;93;  0.0000000E+00;  0.0000000E+00;  0.0000000E+00;  1.0000000E+03;  4.0000001E-01;  0.0000000E+00;0;  0.0000000E+00;  0.0000000E+00;  0.0000000E+00;0;  0.0000000E+00;  1.0000000E+04;  0.0000000E+00;  0.0000000E+00;  1.0000000E+04;  0.0000000E+00;  1.0000000E+04;  0.0000000E+00;  0.0000000E+00;  0.0000000E+00;  0.0000000E+00;
 -1.8000001E-01;  9.9999998E-03; -1.2000000E-01;94;  0.0000000E+00;  0.0000000E+00;  0.0000000E+00;  1.0000000E+03;  4.0000001E-01;  0.0000000E+00;0;  0.0000000E+00;  0.0000000E+00;  0.0000000E+00;0;  0.0000000E+00;  1.0000000E+04;  0.0000000E+00;  0.0000000E+00;  1.0000000E+04;  0.0000000E+00;  1.0000000E+04;  0.0000000E+00;  0.0000000E+00;  0.0000000E+00;  0.0000000E+00;
 -1.8000001E-01;  9.9999998E-03; -1.0000000E-01;95;  0.0000000E+00;  0.0000000E+00;  0.0000000E+00;  1.0000000E+03;  4.0000001E-01;  0.0000000E+00;0;  0.0000000E+00;  0.0000000E+00;  0.0000000E+00;0;  0.0000000E+00;  1.0000000E+04;  0.0000000E+00;  0.0000000E+00;  1.0000000E+04;  0.0000000E+00;  1.0000000E+04;  0.0000000E+00;  0.0000000E+00;  0.0000000E+00;  0.0000000E+00;
 -1.8000001E-01;  9.9999998E-03; -7.9999998E-02;96;  0.0000000E+00;  0.0000000E+00;  0.0000000E+00;  1.0000000E+03;  4.0000001E-01;  0.0000000E+00;0;  0.0000000E+00;  0.0000000E+00;  0.0000000E+00;0;  0.0000000E+00;  1.0000000E+04;  0.0000000E+00;  0.0000000E+00;  1.0000000E+04;  0.0000000E+00;  1.0000000E+04;  0.0000000E+00;  0.0000000E+00;  0.0000000E+00;  0.0000000E+00;
 -1.8000001E-01;  9.9999998E-03; -5.9999999E-02;97;  0.0000000E+00;  0.0000000E+00;  0.0000000E+00;  1.0000000E+03;  4.0000001E-01;  0.0000000E+00;0;  0.0000000E+00;  0.0000000E+00;  0.0000000E+00;0;  0.0000000E+00;  1.0000000E+04;  0.0000000E+00;  0.0000000E+00;  1.0000000E+04;  0.0000000E+00;  1.0000000E+04;  0.0000000E+00;  0.0000000E+00;  0.0000000E+00;  0.0000000E+00;
 -1.8000001E-01;  9.9999998E-03; -3.9999999E-02;98;  0.0000000E+00;  0.0000000E+00;  0.0000000E+00;  1.0000000E+03;  4.0000001E-01;  0.0000000E+00;0;  0.0000000E+00;  0.0000000E+00;  0.0000000E+00;0;  0.0000000E+00;  1.0000000E+04;  0.0000000E+00;  0.0000000E+00;  1.0000000E+04;  0.0000000E+00;  1.0000000E+04;  0.0000000E+00;  0.0000000E+00;  0.0000000E+00;  0.0000000E+00;
 -1.8000001E-01;  9.9999998E-03; -2.0000000E-02;99;  0.0000000E+00;  0.0000000E+00;  0.0000000E+00;  1.0000000E+03;  4.0000001E-01;  0.0000000E+00;0;  0.0000000E+00;  0.0000000E+00;  0.0000000E+00;0;  0.0000000E+00;  1.0000000E+04;  0.0000000E+00;  0.0000000E+00;  1.0000000E+04;  0.0000000E+00;  1.0000000E+04;  0.0000000E+00;  0.0000000E+00;  0.0000000E+00;  0.0000000E+00;
 -1.6000000E-01;  9.9999998E-03; -1.8000001E-01;132;  0.0000000E+00;  0.0000000E+00;  0.0000000E+00;  1.0000000E+03;  4.0000001E-01;  0.0000000E+00;0;  0.0000000E+00;  0.0000000E+00;  0.0000000E+00;0; -8.3186018E-09;  1.0000000E+04;  0.0000000E+00;  0.0000000E+00;  1.0000000E+04;  0.0000000E+00;  1.0000000E+04; -8.3328562E-09;  0.0000000E+00;  1.4254182E-11;  1.8917430E-07;
 -1.6000000E-01;  9.9999998E-03; -1.6000000E-01;133;  0.0000000E+00;  0.0000000E+00;  0.0000000E+00;  1.0000000E+03;  4.0000001E-01;  0.0000000E+00;0;  0.0000000E+00;  0.0000000E+00;  0.0000000E+00;0; -8.6975946E-09;  1.0000000E+04;  0.0000000E+00;  0.0000000E+00;  1.0000000E+04;  0.0000000E+00;  1.0000000E+04; -8.7106518E-09;  0.0000000E+00;  1.3056722E-11;  1.9469073E-07;
 -1.6000000E-01;  9.9999998E-03; -1.4000000E-01;134;  0.0000000E+00;  0.0000000E+00;  0.0000000E+00;  1.0000000E+03;  4.0000001E-01;  0.0000000E+00;0;  0.0000000E+00;  0.0000000E+00;  0.0000000E+00;0; -8.9994581E-09;  1.0000000E+04;  0.0000000E+00;  0.0000000E+00;  1.0000000E+04;  0.0000000E+00;  1.0000000E+04; -9.0113312E-09;  0.0000000E+00;  1.1872869E-11;  1.9814657E-07;
 -1.6000000E-01;  9.9999998E-03; -1.2000000E-01;135;  0.0000000E+00;  0.0000000E+00;  0.0000000E+00;  1.0000000E+03;  4.0000001E-01;  0.0000000E+00;0;  0.0000000E+00;  0.0000000E+00;  0.0000000E+00;0; -9.2386996E-09;  1.0000000E+04;  0.0000000E+00;  0.0000000E+00;  1.0000000E+04;  0.0000000E+00;  1.0000000E+04; -9.2496100E-09;  0.0000000E+00;  1.0910271E-11;  2.0015189E-07;
 -1.6000000E-01;  9.9999998E-03; -1.0000000E-01;136;  0.0000000E+00;  0.0000000E+00;  0.0000000E+00;  1.0000000E+03;  4.0000001E-01;  0.0000000E+00;0;  0.0000000E+00;  0.0000000E+00;  0.0000000E+00;0; -9.4262518E-09;  1.0000000E+04;  0.0000000E+00;  0.0000000E+00;  1.0000000E+04;  0.0000000E+00;  1.0000000E+04; -9.4363752E-09;  0.0000000E+00;  1.0123662E-11;  2.0125070E-07;
 -1.6000000E-01;  9.9999998E-03; -7.9999998E-02;137;  0.0000000E+00;  0.0000000E+00;  0.0000000E+00;  1.0000000E+03;  4.0000001E-01;  0.0000000E+00;0;  0.0000000E+00;  0.0000000E+00;  0.0000000E+00;0; -9.5697619E-09;  1.0000000E+04;  0.0000000E+00;  0.0000000E+00;  1.0000000E+04;  0.0000000E+00;  1.0000000E+04; -9.5792068E-09;  0.0000000E+00;  9.4450142E-12;  2.0186266E-07;
 -1.6000000E-01;  9.9999998E-03; -5.9999999E-02;138;  0.0000000E+00;  0.0000000E+00;  0.0000000E+00;  1.0000000E+03;  4.0000001E-01;  0.0000000E+00;0;  0.0000000E+00;  0.0000000E+00;  0.0000000E+00;0; -9.6750705E-09;  1.0000000E+04;  0.0000000E+00;  0.0000000E+00;  1.0000000E+04;  0.0000000E+00;  1.0000000E+04; -9.6838395E-09;  0.0000000E+00;  8.7689604E-12;  2.0215123E-07;
 -1.6000000E-01;  9.9999998E-03; -3.9999999E-02;139;  0.0000000E+00;  0.0000000E+00;  0.0000000E+00;  1.0000000E+03;  4.0000001E-01;  0.0000000E+00;0;  0.0000000E+00;  0.0000000E+00;  0.0000000E+00;0; -9.7467661E-09;  1.0000000E+04;  0.0000000E+00;  0.0000000E+00;  1.0000000E+04;  0.0000000E+00;  1.0000000E+04; -9.7549044E-09;  0.0000000E+00;  8.1384292E-12;  2.0226793E-07;
 -1.6000000E-01;  9.9999998E-03; -2.0000000E-02;140;  0.0000000E+00;  0.0000000E+00;  0.0000000E+00;  1.0000000E+03;  4.0000001E-01;  0.0000000E+00;0;  0.0000000E+00;  0.0000000E+00;  0.0000000E+00;0; -9.7883168E-09;  1.0000000E+04;  0.0000000E+00;  0.0000000E+00;  1.0000000E+04;  0.0000000E+00;  1.0000000E+04; -9.7960076E-09;  0.0000000E+00;  7.6905019E-12;  2.0231168E-07;
 -1.4000000E-01;  9.9999998E-03; -1.8000001E-01;173;  0.0000000E+00;  0.0000000E+00;  0.0000000E+00;  1.0000000E+03;  4.0000001E-01;  0.0000000E+00;0;  0.0000000E+00;  0.0000000E+00;  0.0000000E+00;0; -3.0424607E-07;  1.0000000E+04;  0.0000000E+00;  0.0000000E+00;  1.0000000E+04;  0.0000000E+00;  1.0000000E+04; -3.0600063E-07;  0.0000000E+00;  1.7545675E-09;  9.6520725E-06;
 -1.4000000E-01;  9.9999998E-03; -1.6000000E-01;174;  0.0000000E+00;  0.0000000E+00;  0.0000000E+00;  1.0000000E+03;  4.0000001E-01;  0.0000000E+00;0;  0.0000000E+00;  0.0000000E+00;  0.0000000E+00;0; -3.1879375E-07;  1.0000000E+04;  0.0000000E+00;  0.0000000E+00;  1.0000000E+04;  0.0000000E+00;  1.0000000E+04; -3.2044036E-07;  0.0000000E+00;  1.6466064E-09;  9.7467500E-06;
 -1.4000000E-01;  9.9999998E-03; -1.4000000E-01;175;  0.0000000E+00;  0.0000000E+00;  0.0000000E+00;  1.0000000E+03;  4.0000001E-01;  0.0000000E+00;0;  0.0000000E+00;  0.0000000E+00;  0.0000000E+00;0; -3.3043918E-07;  1.0000000E+04;  0.0000000E+00;  0.0000000E+00;  1.0000000E+04;  0.0000000E+00;  1.0000000E+04; -3.3195428E-07;  0.0000000E+00;  1.5151111E-09;  9.6894400E-06;
 -1.4000000E-01;  9.9999998E-03; -1.2000000E-01;176;  0.0000000E+00;  0.0000000E+00;  0.0000000E+00;  1.0000000E+03;  4.0000001E-01;  0.0000000E+00;0;  0.0000000E+00;  0.0000000E+00;  0.0000000E+00;0; -3.3966759E-07;  1.0000000E+04;  0.0000000E+00;  0.0000000E+00;  1.0000000E+04;  0.0000000E+00;  1.0000000E+04; -3.4106009E-07;  0.0000000E+00;  1.3924848E-09;  9.5536871E-06;
 -1.4000000E-01;  9.9999998E-03; -1.0000000E-01;177;  0.0000000E+00;  0.0000000E+00;  0.0000000E+00;  1.0000000E+03;  4.0000001E-01;  0.0000000E+00;0;  0.0000000E+00;  0.0000000E+00;  0.0000000E+00;0; -3.4688563E-07;  1.0000000E+04;  0.0000000E+00;  0.0000000E+00;  1.0000000E+04;  0.0000000E+00;  1.0000000E+04; -3.4817293E-07;  0.0000000E+00;  1.2872995E-09;  9.3889284E-06;
 -1.4000000E-01;  9.9999998E-03; -7.9999998E-02;178;  0.0000000E+00;  0.0000000E+00;  0.0000000E+00;  1.0000000E+03;  4.0000001E-01;  0.0000000E+00;0;  0.0000000E+00;  0.0000000E+00;  0.0000000E+00;0; -3.5241192E-07;  1.0000000E+04;  0.0000000E+00;  0.0000000E+00;  1.0000000E+04;  0.0000000E+00;  1.0000000E+04; -3.5360728E-07;  0.0000000E+00;  1.1953551E-09;  9.2273849E-06;
 -1.4000000E-01;  9.9999998E-03; -5.9999999E-02;179;  0.0000000E+00;  0.0000000E+00;  0.0000000E+00;  1.0000000E+03;  4.0000001E-01;  0.0000000E+00;0;  0.0000000E+00;  0.0000000E+00;  0.0000000E+00;0; -3.5648461E-07;  1.0000000E+04;  0.0000000E+00;  0.0000000E+00;  1.0000000E+04;  0.0000000E+00;  1.0000000E+04; -3.5759726E-07;  0.0000000E+00;  1.1126584E-09;  9.0889525E-06;
 -1.4000000E-01;  9.9999998E-03; -3.9999999E-02;180;  0.0000000E+00;  0.0000000E+00;  0.0000000E+00;  1.0000000E+03;  4.0000001E-01;  0.0000000E+00;0;  0.0000000E+00;  0.0000000E+00;  0.0000000E+00;0; -3.5927562E-07;  1.0000000E+04;  0.0000000E+00;  0.0000000E+00;  1.0000000E+04;  0.0000000E+00;  1.0000000E+04; -3.6031813E-07;  0.0000000E+00;  1.0424950E-09;  8.9845316E-06;
 -1.4000000E-01;  9.9999998E-03; -2.0000000E-02;181;  0.0000000E+00;  0.0000000E+00;  0.0000000E+00;  1.0000000E+03;  4.0000001E-01;  0.0000000E+00;0;  0.0000000E+00;  0.0000000E+00;  0.0000000E+00;0; -3.6090358E-07;  1.0000000E+04;  0.0000000E+00;  0.0000000E+00;  1.0000000E+04;  0.0000000E+00;  1.0000000E+04; -3.6189741E-07;  0.0000000E+00;  9.9382325E-10;  8.9197274E-06;
 -1.2000000E-01;  9.9999998E-03; -1.8000001E-01;214;  0.0000000E+00;  0.0000000E+00;  0.0000000E+00;  1.0000000E+03;  4.0000001E-01;  0.0000000E+00;0;  0.0000000E+00;  0.0000000E+00;  0.0000000E+00;0; -1.7180649E-06;  1.0000000E+04;  0.0000000E+00;  0.0000000E+00;  1.0000000E+04;  0.0000000E+00;  1.0000000E+04; -1.7349792E-06;  0.0000000E+00;  1.6914200E-08;  7.0384631E-05;
 -1.2000000E-01;  9.9999998E-03; -1.6000000E-01;215;  0.0000000E+00;  0.0000000E+00;  0.0000000E+00;  1.0000000E+03;  4.0000001E-01;  0.0000000E+00;0;  0.0000000E+00;  0.0000000E+00;  0.0000000E+00;0; -1.8021053E-06;  1.0000000E+04;  0.0000000E+00;  0.0000000E+00;  1.0000000E+04;  0.0000000E+00;  1.0000000E+04; -1.8182030E-06;  0.0000000E+00;  1.6097765E-08;  7.0537404E-05;
 -1.2000000E-01;  9.9999998E-03; -1.4000000E-01;216;  0.0000000E+00;  0.0000000E+00;  0.0000000E+00;  1.0000000E+03;  4.0000001E-01;  0.0000000E+00;0;  0.0000000E+00;  0.0000000E+00;  0.0000000E+00;0; -1.8695404E-06;  1.0000000E+04;  0.0000000E+00;  0.0000000E+00;  1.0000000E+04;  0.0000000E+00;  1.0000000E+04; -1.8844914E-06;  0.0000000E+00;  1.4951071E-08;  6.9335125E-05;
 -1.2000000E-01;  9.9999998E-03; -1.2000000E-01;217;  0.0000000E+00;  0.0000000E+00;  0.0000000E+00;  1.0000000E+03;  4.0000001E-01;  0.0000000E+00;0;  0.0000000E+00;  0.0000000E+00;  0.0000000E+00;0; -1.9230106E-06;  1.0000000E+04;  0.0000000E+00;  0.0000000E+00;  1.0000000E+04;  0.0000000E+00;  1.0000000E+04; -1.9367924E-06;  0.0000000E+00;  1.3781862E-08;  6.7450535E-05;
 -1.2000000E-01;  9.9999998E-03; -1.0000000E-01;218;  0.0000000E+00;  0.0000000E+00;  0.0000000E+00;  1.0000000E+03;  4.0000001E-01;  0.0000000E+00;0;  0.0000000E+00;  0.0000000E+00;  0.0000000E+00;0; -1.9647962E-06;  1.0000000E+04;  0.0000000E+00;  0.0000000E+00;  1.0000000E+04;  0.0000000E+00;  1.0000000E+04; -1.9775221E-06;  0.0000000E+00;  1.2725851E-08;  6.5370397E-05;
 -1.2000000E-01;  9.9999998E-03; -7.9999998E-02;219;  0.0000000E+00;  0.0000000E+00;  0.0000000E+00;  1.0000000E+03;  4.0000001E-01;  0.0000000E+00;0;  0.0000000E+00;  0.0000000E+00;  0.0000000E+00;0; -1.9967595E-06;  1.0000000E+04;  0.0000000E+00;  0.0000000E+00;  1.0000000E+04;  0.0000000E+00;  1.0000000E+04; -2.0085613E-06;  0.0000000E+00;  1.1801943E-08;  6.3408312E-05;
 -1.2000000E-01;  9.9999998E-03; -5.9999999E-02;220;  0.0000000E+00;  0.0000000E+00;  0.0000000E+00;  1.0000000E+03;  4.0000001E-01;  0.0000000E+00;0;  0.0000000E+00;  0.0000000E+00;  0.0000000E+00;0; -2.0203252E-06;  1.0000000E+04;  0.0000000E+00;  0.0000000E+00;  1.0000000E+04;  0.0000000E+00;  1.0000000E+04; -2.0313273E-06;  0.0000000E+00;  1.1002106E-08;  6.1754094E-05;
 -1.2000000E-01;  9.9999998E-03; -3.9999999E-02;221;  0.0000000E+00;  0.0000000E+00;  0.0000000E+00;  1.0000000E+03;  4.0000001E-01;  0.0000000E+00;0;  0.0000000E+00;  0.0000000E+00;  0.0000000E+00;0; -2.0365064E-06;  1.0000000E+04;  0.0000000E+00;  0.0000000E+00;  1.0000000E+04;  0.0000000E+00;  1.0000000E+04; -2.0468588E-06;  0.0000000E+00;  1.0352433E-08;  6.0516562E-05;
 -1.2000000E-01;  9.9999998E-03; -2.0000000E-02;222;  0.0000000E+00;  0.0000000E+00;  0.0000000E+00;  1.0000000E+03;  4.0000001E-01;  0.0000000E+00;0;  0.0000000E+00;  0.0000000E+00;  0.0000000E+00;0; -2.0459668E-06;  1.0000000E+04;  0.0000000E+00;  0.0000000E+00;  1.0000000E+04;  0.0000000E+00;  1.0000000E+04; -2.0558839E-06;  0.0000000E+00;  9.9171578E-09;  5.9754202E-05;
 -1.0000000E-01;  9.9999998E-03; -1.8000001E-01;255;  0.0000000E+00;  0.0000000E+00;  0.0000000E+00;  1.0000000E+03;  4.0000001E-01;  0.0000000E+00;0;  0.0000000E+00;  0.0000000E+00;  0.0000000E+00;0; -5.6441440E-06;  1.0000000E+04;  0.0000000E+00;  0.0000000E+00;  1.0000000E+04;  0.0000000E+00;  1.0000000E+04; -5.7213074E-06;  0.0000000E+00;  7.7163165E-08;  2.8165829E-04;
 -1.0000000E-01;  9.9999998E-03; -1.6000000E-01;256;  0.0000000E+00;  0.0000000E+00;  0.0000000E+00;  1.0000000E+03;  4.0000001E-01;  0.0000000E+00;0;  0.0000000E+00;  0.0000000E+00;  0.0000000E+00;0; -5.9240192E-06;  1.0000000E+04;  0.0000000E+00;  0.0000000E+00;  1.0000000E+04;  0.0000000E+00;  1.0000000E+04; -5.9992094E-06;  0.0000000E+00;  7.5190130E-08;  2.8370309E-04;
 -1.0000000E-01;  9.9999998E-03; -1.4000000E-01;257;  0.0000000E+00;  0.0000000E+00;  0.0000000E+00;  1.0000000E+03;  4.0000001E-01;  0.0000000E+00;0;  0.0000000E+00;  0.0000000E+00;  0.0000000E+00;0; -6.1482992E-06;  1.0000000E+04;  0.0000000E+00;  0.0000000E+00;  1.0000000E+04;  0.0000000E+00;  1.0000000E+04; -6.2186282E-06;  0.0000000E+00;  7.0329008E-08;  2.7723968E-04;
 -1.0000000E-01;  9.9999998E-03; -1.2000000E-01;258;  0.0000000E+00;  0.0000000E+00;  0.0000000E+00;  1.0000000E+03;  4.0000001E-01;  0.0000000E+00;0;  0.0000000E+00;  0.0000000E+00;  0.0000000E+00;0; -6.3262064E-06;  1.0000000E+04;  0.0000000E+00;  0.0000000E+00;  1.0000000E+04;  0.0000000E+00;  1.0000000E+04; -6.3912403E-06;  0.0000000E+00;  6.5033788E-08;  2.6759345E-04;
 -1.0000000E-01;  9.9999998E-03; -1.0000000E-01;259;  0.0000000E+00;  0.0000000E+00;  0.0000000E+00;  1.0000000E+03;  4.0000001E-01;  0.0000000E+00;0;  0.0000000E+00;  0.0000000E+00;  0.0000000E+00;0; -6.4651617E-06;  1.0000000E+04;  0.0000000E+00;  0.0000000E+00;  1.0000000E+04;  0.0000000E+00;  1.0000000E+04; -6.5252279E-06;  0.0000000E+00;  6.0066000E-08;  2.5706395E-04;
 -1.0000000E-01;  9.9999998E-03; -7.9999998E-02;260;  0.0000000E+00;  0.0000000E+00;  0.0000000E+00;  1.0000000E+03;  4.0000001E-01;  0.0000000E+00;0;  0.0000000E+00;  0.0000000E+00;  0.0000000E+00;0; -6.5713552E-06;  1.0000000E+04;  0.0000000E+00;  0.0000000E+00;  1.0000000E+04;  0.0000000E+00;  1.0000000E+04; -6.6270395E-06;  0.0000000E+00;  5.5684367E-08;  2.4717028E-04;
 -1.0000000E-01;  9.9999998E-03; -5.9999999E-02;261;  0.0000000E+00;  0.0000000E+00;  0.0000000E+00;  1.0000000E+03;  4.0000001E-01;  0.0000000E+00;0;  0.0000000E+00;  0.0000000E+00;  0.0000000E+00;0; -6.6496054E-06;  1.0000000E+04;  0.0000000E+00;  0.0000000E+00;  1.0000000E+04;  0.0000000E+00;  1.0000000E+04; -6.7015626E-06;  0.0000000E+00;  5.1957183E-08;  2.3883287E-04;
 -1.0000000E-01;  9.9999998E-03; -3.9999999E-02;262;  0.0000000E+00;  0.0000000E+00;  0.0000000E+00;  1.0000000E+03;  4.0000001E-01;  0.0000000E+00;0;  0.0000000E+00;  0.0000000E+00;  0.0000000E+00;0; -6.7033488E-06;  1.0000000E+04;  0.0000000E+00;  0.0000000E+00;  1.0000000E+04;  0.0000000E+00;  1.0000000E+04; -6.7523583E-06;  0.0000000E+00;  4.9009561E-08;  2.3258905E-04;
 -1.0000000E-01;  9.9999998E-03; -2.0000000E-02;263;  0.0000000E+00;  0.0000000E+00;  0.0000000E+00;  1.0000000E+03;  4.0000001E-01;  0.0000000E+00;0;  0.0000000E+00;  0.0000000E+00;  0.0000000E+00;0; -6.7347964E-06;  1.0000000E+04;  0.0000000E+00;  0.0000000E+00;  1.0000000E+04;  0.0000000E+00;  1.0000000E+04; -6.7818733E-06;  0.0000000E+00;  4.7076995E-08;  2.2874022E-04;
 -7.9999998E-02;  9.9999998E-03; -1.8000001E-01;296;  0.0000000E+00;  0.0000000E+00;  0.0000000E+00;  1.0000000E+03;  4.0000001E-01;  0.0000000E+00;0;  0.0000000E+00;  0.0000000E+00;  0.0000000E+00;0; -1.3978920E-05;  1.0000000E+04;  0.0000000E+00;  0.0000000E+00;  1.0000000E+04;  0.0000000E+00;  1.0000000E+04; -1.4218442E-05;  0.0000000E+00;  2.3952194E-07;  8.1568683E-04;
 -7.9999998E-02;  9.9999998E-03; -1.6000000E-01;297;  0.0000000E+00;  0.0000000E+00;  0.0000000E+00;  1.0000000E+03;  4.0000001E-01;  0.0000000E+00;0;  0.0000000E+00;  0.0000000E+00;  0.0000000E+00;0; -1.4673598E-05;  1.0000000E+04;  0.0000000E+00;  0.0000000E+00;  1.0000000E+04;  0.0000000E+00;  1.0000000E+04; -1.4912222E-05;  0.0000000E+00;  2.3862415E-07;  8.2904164E-04;
 -7.9999998E-02;  9.9999998E-03; -1.4000000E-01;298;  0.0000000E+00;  0.0000000E+00;  0.0000000E+00;  1.0000000E+03;  4.0000001E-01;  0.0000000E+00;0;  0.0000000E+00;  0.0000000E+00;  0.0000000E+00;0; -1.5229983E-05;  1.0000000E+04;  0.0000000E+00;  0.0000000E+00;  1.0000000E+04;  0.0000000E+00;  1.0000000E+04; -1.5454634E-05;  0.0000000E+00;  2.2465163E-07;  8.0814766E-04;
 -7.9999998E-02;  9.9999998E-03; -1.2000000E-01;299;  0.0000000E+00;  0.0000000E+00;  0.0000000E+00;  1.0000000E+03;  4.0000001E-01;  0.0000000E+00;0;  0.0000000E+00;  0.0000000E+00;  0.0000000E+00;0; -1.5671263E-05;  1.0000000E+04;  0.0000000E+00;  0.0000000E+00;  1.0000000E+04;  0.0000000E+00;  1.0000000E+04; -1.5879552E-05;  0.0000000E+00;  2.0828836E-07;  7.7626569E-04;
 -7.9999998E-02;  9.9999998E-03; -1.0000000E-01;300;  0.0000000E+00;  0.0000000E+00;  0.0000000E+00;  1.0000000E+03;  4.0000001E-01;  0.0000000E+00;0;  0.0000000E+00;  0.0000000E+00;  0.0000000E+00;0; -1.6015696E-05;  1.0000000E+04;  0.0000000E+00;  0.0000000E+00;  1.0000000E+04;  0.0000000E+00;  1.0000000E+04; -1.6208189E-05;  0.0000000E+00;  1.9249282E-07;  7.4144150E-04;
 -7.9999998E-02;  9.9999998E-03; -7.9999998E-02;301;  0.0000000E+00;  0.0000000E+00;  0.0000000E+00;  1.0000000E+03;  4.0000001E-01;  0.0000000E+00;0;  0.0000000E+00;  0.0000000E+00;  0.0000000E+00;0; -1.6278649E-05;  1.0000000E+04;  0.0000000E+00;  0.0000000E+00;  1.0000000E+04;  0.0000000E+00;  1.0000000E+04; -1.6457079E-05;  0.0000000E+00;  1.7843097E-07;  7.0865743E-04;
 -7.9999998E-02;  9.9999998E-03; -5.9999999E-02;302;  0.0000000E+00;  0.0000000E+00;  0.0000000E+00;  1.0000000E+03;  4.0000001E-01;  0.0000000E+00;0;  0.0000000E+00;  0.0000000E+00;  0.0000000E+00;0; -1.6472222E-05;  1.0000000E+04;  0.0000000E+00;  0.0000000E+00;  1.0000000E+04;  0.0000000E+00;  1.0000000E+04; -1.6638784E-05;  0.0000000E+00;  1.6656186E-07;  6.8097311E-04;
 -7.9999998E-02;  9.9999998E-03; -3.9999999E-02;303;  0.0000000E+00;  0.0000000E+00;  0.0000000E+00;  1.0000000E+03;  4.0000001E-01;  0.0000000E+00;0;  0.0000000E+00;  0.0000000E+00;  0.0000000E+00;0; -1.6605096E-05;  1.0000000E+04;  0.0000000E+00;  0.0000000E+00;  1.0000000E+04;  0.0000000E+00;  1.0000000E+04; -1.6762420E-05;  0.0000000E+00;  1.5732461E-07;  6.6019362E-04;
 -7.9999998E-02;  9.9999998E-03; -2.0000000E-02;304;  0.0000000E+00;  0.0000000E+00;  0.0000000E+00;  1.0000000E+03;  4.0000001E-01;  0.0000000E+00;0;  0.0000000E+00;  0.0000000E+00;  0.0000000E+00;0; -1.6682841E-05;  1.0000000E+04;  0.0000000E+00;  0.0000000E+00;  1.0000000E+04;  0.0000000E+00;  1.0000000E+04; -1.6834198E-05;  0.0000000E+00;  1.5135718E-07;  6.4736389E-04;
 -5.9999999E-02;  9.9999998E-03; -1.8000001E-01;337;  0.0000000E+00;  0.0000000E+00;  0.0000000E+00;  1.0000000E+03;  4.0000001E-01;  0.0000000E+00;0;  0.0000000E+00;  0.0000000E+00;  0.0000000E+00;0; -2.8579969E-05;  1.0000000E+04;  0.0000000E+00;  0.0000000E+00;  1.0000000E+04;  0.0000000E+00;  1.0000000E+04; -2.9170549E-05;  0.0000000E+00;  5.9058050E-07;  1.9249419E-03;
 -5.9999999E-02;  9.9999998E-03; -1.6000000E-01;338;  0.0000000E+00;  0.0000000E+00;  0.0000000E+00;  1.0000000E+03;  4.0000001E-01;  0.0000000E+00;0;  0.0000000E+00;  0.0000000E+00;  0.0000000E+00;0; -2.9984358E-05;  1.0000000E+04;  0.0000000E+00;  0.0000000E+00;  1.0000000E+04;  0.0000000E+00;  1.0000000E+04; -3.0577219E-05;  0.0000000E+00;  5.9286117E-07;  1.9598610E-03;
 -5.9999999E-02;  9.9999998E-03; -1.4000000E-01;339;  0.0000000E+00;  0.0000000E+00;  0.0000000E+00;  1.0000000E+03;  4.0000001E-01;  0.0000000E+00;0;  0.0000000E+00;  0.0000000E+00;  0.0000000E+00;0; -3.1112253E-05;  1.0000000E+04;  0.0000000E+00;  0.0000000E+00;  1.0000000E+04;  0.0000000E+00;  1.0000000E+04; -3.1674062E-05;  0.0000000E+00;  5.6180932E-07;  1.9095496E-03;
 -5.9999999E-02;  9.9999998E-03; -1.2000000E-01;340;  0.0000000E+00;  0.0000000E+00;  0.0000000E+00;  1.0000000E+03;  4.0000001E-01;  0.0000000E+00;0;  0.0000000E+00;  0.0000000E+00;  0.0000000E+00;0; -3.2006530E-05;  1.0000000E+04;  0.0000000E+00;  0.0000000E+00;  1.0000000E+04;  0.0000000E+00;  1.0000000E+04; -3.2528402E-05;  0.0000000E+00;  5.2187045E-07;  1.8275983E-03;
 -5.9999999E-02;  9.9999998E-03; -1.0000000E-01;341;  0.0000000E+00;  0.0000000E+00;  0.0000000E+00;  1.0000000E+03;  4.0000001E-01;  0.0000000E+00;0;  0.0000000E+00;  0.0000000E+00;  0.0000000E+00;0; -3.2703923E-05;  1.0000000E+04;  0.0000000E+00;  0.0000000E+00;  1.0000000E+04;  0.0000000E+00;  1.0000000E+04; -3.3186432E-05;  0.0000000E+00;  4.8251002E-07;  1.7380699E-03;
 -5.9999999E-02;  9.9999998E-03; -7.9999998E-02;342;  0.0000000E+00;  0.0000000E+00;  0.0000000E+00;  1.0000000E+03;  4.0000001E-01;  0.0000000E+00;0;  0.0000000E+00;  0.0000000E+00;  0.0000000E+00;0; -3.3235738E-05;  1.0000000E+04;  0.0000000E+00;  0.0000000E+00;  1.0000000E+04;  0.0000000E+00;  1.0000000E+04; -3.3682914E-05;  0.0000000E+00;  4.4717495E-07;  1.6536611E-03;
 -5.9999999E-02;  9.9999998E-03; -5.9999999E-02;343;  0.0000000E+00;  0.0000000E+00;  0.0000000E+00;  1.0000000E+03;  4.0000001E-01;  0.0000000E+00;0;  0.0000000E+00;  0.0000000E+00;  0.0000000E+00;0; -3.3626788E-05;  1.0000000E+04;  0.0000000E+00;  0.0000000E+00;  1.0000000E+04;  0.0000000E+00;  1.0000000E+04; -3.4044224E-05;  0.0000000E+00;  4.1743641E-07;  1.5822611E-03;
 -5.9999999E-02;  9.9999998E-03; -3.9999999E-02;344;  0.0000000E+00;  0.0000000E+00;  0.0000000E+00;  1.0000000E+03;  4.0000001E-01;  0.0000000E+00;0;  0.0000000E+00;  0.0000000E+00;  0.0000000E+00;0; -3.3894983E-05;  1.0000000E+04;  0.0000000E+00;  0.0000000E+00;  1.0000000E+04;  0.0000000E+00;  1.0000000E+04; -3.4289489E-05;  0.0000000E+00;  3.9450680E-07;  1.5285671E-03;
 -5.9999999E-02;  9.9999998E-03; -2.0000000E-02;345;  0.0000000E+00;  0.0000000E+00;  0.0000000E+00;  1.0000000E+03;  4.0000001E-01;  0.0000000E+00;0;  0.0000000E+00;  0.0000000E+00;  0.0000000E+00;0; -3.4051813E-05;  1.0000000E+04;  0.0000000E+00;  0.0000000E+00;  1.0000000E+04;  0.0000000E+00;  1.0000000E+04; -3.4431650E-05;  0.0000000E+00;  3.7983887E-07;  1.4953614E-03;
 -3.9999999E-02;  9.9999998E-03; -1.8000001E-01;378;  0.0000000E+00;  0.0000000E+00;  0.0000000E+00;  1.0000000E+03;  4.0000001E-01;  0.0000000E+00;0;  0.0000000E+00;  0.0000000E+00;  0.0000000E+00;0; -5.0597282E-05;  1.0000000E+04;  0.0000000E+00;  0.0000000E+00;  1.0000000E+04;  0.0000000E+00;  1.0000000E+04; -5.1836618E-05;  0.0000000E+00;  1.2393360E-06;  3.9257440E-03;
 -3.9999999E-02;  9.9999998E-03; -1.6000000E-01;379;  0.0000000E+00;  0.0000000E+00;  0.0000000E+00;  1.0000000E+03;  4.0000001E-01;  0.0000000E+00;0;  0.0000000E+00;  0.0000000E+00;  0.0000000E+00;0; -5.3030370E-05;  1.0000000E+04;  0.0000000E+00;  0.0000000E+00;  1.0000000E+04;  0.0000000E+00;  1.0000000E+04; -5.4275060E-05;  0.0000000E+00;  1.2446924E-06;  3.9871344E-03;
 -3.9999999E-02;  9.9999998E-03; -1.4000000E-01;380;  0.0000000E+00;  0.0000000E+00;  0.0000000E+00;  1.0000000E+03;  4.0000001E-01;  0.0000000E+00;0;  0.0000000E+00;  0.0000000E+00;  0.0000000E+00;0; -5.4990003E-05;  1.0000000E+04;  0.0000000E+00;  0.0000000E+00;  1.0000000E+04;  0.0000000E+00;  1.0000000E+04; -5.6173008E-05;  0.0000000E+00;  1.1830050E-06;  3.8777292E-03;
 -3.9999999E-02;  9.9999998E-03; -1.2000000E-01;381;  0.0000000E+00;  0.0000000E+00;  0.0000000E+00;  1.0000000E+03;  4.0000001E-01;  0.0000000E+00;0;  0.0000000E+00;  0.0000000E+00;  0.0000000E+00;0; -5.6543646E-05;  1.0000000E+04;  0.0000000E+00;  0.0000000E+00;  1.0000000E+04;  0.0000000E+00;  1.0000000E+04; -5.7643658E-05;  0.0000000E+00;  1.1000105E-06;  3.6991234E-03;
 -3.9999999E-02;  9.9999998E-03; -1.0000000E-01;382;  0.0000000E+00;  0.0000000E+00;  0.0000000E+00;  1.0000000E+03;  4.0000001E-01;  0.0000000E+00;0;  0.0000000E+00;  0.0000000E+00;  0.0000000E+00;0; -5.7753809E-05;  1.0000000E+04;  0.0000000E+00;  0.0000000E+00;  1.0000000E+04;  0.0000000E+00;  1.0000000E+04; -5.8770853E-05;  0.0000000E+00;  1.0170452E-06;  3.5046304E-03;
 -3.9999999E-02;  9.9999998E-03; -7.9999998E-02;383;  0.0000000E+00;  0.0000000E+00;  0.0000000E+00;  1.0000000E+03;  4.0000001E-01;  0.0000000E+00;0;  0.0000000E+00;  0.0000000E+00;  0.0000000E+00;0; -5.8675483E-05;  1.0000000E+04;  0.0000000E+00;  0.0000000E+00;  1.0000000E+04;  0.0000000E+00;  1.0000000E+04; -5.9617563E-05;  0.0000000E+00;  9.4207928E-07;  3.3213890E-03;
 -3.9999999E-02;  9.9999998E-03; -5.9999999E-02;384;  0.0000000E+00;  0.0000000E+00;  0.0000000E+00;  1.0000000E+03;  4.0000001E-01;  0.0000000E+00;0;  0.0000000E+00;  0.0000000E+00;  0.0000000E+00;0; -5.9352369E-05;  1.0000000E+04;  0.0000000E+00;  0.0000000E+00;  1.0000000E+04;  0.0000000E+00;  1.0000000E+04; -6.0231388E-05;  0.0000000E+00;  8.7901861E-07;  3.1663156E-03;
 -3.9999999E-02;  9.9999998E-03; -3.9999999E-02;385;  0.0000000E+00;  0.0000000E+00;  0.0000000E+00;  1.0000000E+03;  4.0000001E-01;  0.0000000E+00;0;  0.0000000E+00;  0.0000000E+00;  0.0000000E+00;0; -5.9816193E-05;  1.0000000E+04;  0.0000000E+00;  0.0000000E+00;  1.0000000E+04;  0.0000000E+00;  1.0000000E+04; -6.0646846E-05;  0.0000000E+00;  8.3065135E-07;  3.0495732E-03;
 -3.9999999E-02;  9.9999998E-03; -2.0000000E-02;386;  0.0000000E+00;  0.0000000E+00;  0.0000000E+00;  1.0000000E+03;  4.0000001E-01;  0.0000000E+00;0;  0.0000000E+00;  0.0000000E+00;  0.0000000E+00;0; -6.0087299E-05;  1.0000000E+04;  0.0000000E+00;  0.0000000E+00;  1.0000000E+04;  0.0000000E+00;  1.0000000E+04; -6.0887203E-05;  0.0000000E+00;  7.9990451E-07;  2.9772848E-03;
 -2.0000000E-02;  9.9999998E-03; -1.8000001E-01;419;  0.0000000E+00;  0.0000000E+00;  0.0000000E+00;  1.0000000E+03;  4.0000001E-01;  0.0000000E+00;0;  0.0000000E+00;  0.0000000E+00;  0.0000000E+00;0; -8.0185404E-05;  1.0000000E+04;  0.0000000E+00;  0.0000000E+00;  1.0000000E+04;  0.0000000E+00;  1.0000000E+04; -8.2485036E-05;  0.0000000E+00;  2.2996305E-06;  7.1701845E-03;
 -2.0000000E-02;  9.9999998E-03; -1.6000000E-01;420;  0.0000000E+00;  0.0000000E+00;  0.0000000E+00;  1.0000000E+03;  4.0000001E-01;  0.0000000E+00;0;  0.0000000E+00;  0.0000000E+00;  0.0000000E+00;0; -8.3924126E-05;  1.0000000E+04;  0.0000000E+00;  0.0000000E+00;  1.0000000E+04;  0.0000000E+00;  1.0000000E+04; -8.6227483E-05;  0.0000000E+00;  2.3033544E-06;  7.2496170E-03;
 -2.0000000E-02;  9.9999998E-03; -1.4000000E-01;421;  0.0000000E+00;  0.0000000E+00;  0.0000000E+00;  1.0000000E+03;  4.0000001E-01;  0.0000000E+00;0;  0.0000000E+00;  0.0000000E+00;  0.0000000E+00;0; -8.6940447E-05;  1.0000000E+04;  0.0000000E+00;  0.0000000E+00;  1.0000000E+04;  0.0000000E+00;  1.0000000E+04; -8.9129448E-05;  0.0000000E+00;  2.1890035E-06;  7.0267268E-03;
 -2.0000000E-02;  9.9999998E-03; -1.2000000E-01;422;  0.0000000E+00;  0.0000000E+00;  0.0000000E+00;  1.0000000E+03;  4.0000001E-01;  0.0000000E+00;0;  0.0000000E+00;  0.0000000E+00;  0.0000000E+00;0; -8.9330024E-05;  1.0000000E+04;  0.0000000E+00;  0.0000000E+00;  1.0000000E+04;  0.0000000E+00;  1.0000000E+04; -9.1365822E-05;  0.0000000E+00;  2.0358016E-06;  6.6811121E-03;
 -2.0000000E-02;  9.9999998E-03; -1.0000000E-01;423;  0.0000000E+00;  0.0000000E+00;  0.0000000E+00;  1.0000000E+03;  4.0000001E-01;  0.0000000E+00;0;  0.0000000E+00;  0.0000000E+00;  0.0000000E+00;0; -9.1188325E-05;  1.0000000E+04;  0.0000000E+00;  0.0000000E+00;  1.0000000E+04;  0.0000000E+00;  1.0000000E+04; -9.3069517E-05;  0.0000000E+00;  1.8811913E-06;  6.3072089E-03;
 -2.0000000E-02;  9.9999998E-03; -7.9999998E-02;424;  0.0000000E+00;  0.0000000E+00;  0.0000000E+00;  1.0000000E+03;  4.0000001E-01;  0.0000000E+00;0;  0.0000000E+00;  0.0000000E+00;  0.0000000E+00;0; -9.2601542E-05;  1.0000000E+04;  0.0000000E+00;  0.0000000E+00;  1.0000000E+04;  0.0000000E+00;  1.0000000E+04; -9.4342366E-05;  0.0000000E+00;  1.7408203E-06;  5.9559424E-03;
 -2.0000000E-02;  9.9999998E-03; -5.9999999E-02;425;  0.0000000E+00;  0.0000000E+00;  0.0000000E+00;  1.0000000E+03;  4.0000001E-01;  0.0000000E+00;0;  0.0000000E+00;  0.0000000E+00;  0.0000000E+00;0; -9.3638140E-05;  1.0000000E+04;  0.0000000E+00;  0.0000000E+00;  1.0000000E+04;  0.0000000E+00;  1.0000000E+04; -9.5260817E-05;  0.0000000E+00;  1.6226749E-06;  5.6588831E-03;
 -2.0000000E-02;  9.9999998E-03; -3.9999999E-02;426;  0.0000000E+00;  0.0000000E+00;  0.0000000E+00;  1.0000000E+03;  4.0000001E-01;  0.0000000E+00;0;  0.0000000E+00;  0.0000000E+00;  0.0000000E+00;0; -9.4347975E-05;  1.0000000E+04;  0.0000000E+00;  0.0000000E+00;  1.0000000E+04;  0.0000000E+00;  1.0000000E+04; -9.5880299E-05;  0.0000000E+00;  1.5323213E-06;  5.4351641E-03;
 -2.0000000E-02;  9.9999998E-03; -2.0000000E-02;427;  0.0000000E+00;  0.0000000E+00;  0.0000000E+00;  1.0000000E+03;  4.0000001E-01;  0.0000000E+00;0;  0.0000000E+00;  0.0000000E+00;  0.0000000E+00;0; -9.4762639E-05;  1.0000000E+04;  0.0000000E+00;  0.0000000E+00;  1.0000000E+04;  0.0000000E+00;  1.0000000E+04; -9.6237753E-05;  0.0000000E+00;  1.4751149E-06;  5.2965116E-03;
 -2.2000000E-01;  9.9999998E-03;  0.0000000E+00;19;  0.0000000E+00;  0.0000000E+00;  0.0000000E+00;  1.0000000E+03;  4.0000001E-01;  0.0000000E+00;0;  0.0000000E+00;  0.0000000E+00;  0.0000000E+00;0;  0.0000000E+00;  1.0000000E+04;  0.0000000E+00;  0.0000000E+00;  1.0000000E+04;  0.0000000E+00;  1.0000000E+04;  0.0000000E+00;  0.0000000E+00;  0.0000000E+00;  0.0000000E+00;
 -2.2000000E-01;  9.9999998E-03;  2.0000000E-02;20;  0.0000000E+00;  0.0000000E+00;  0.0000000E+00;  1.0000000E+03;  4.0000001E-01;  0.0000000E+00;0;  0.0000000E+00;  0.0000000E+00;  0.0000000E+00;0;  0.0000000E+00;  1.0000000E+04;  0.0000000E+00;  0.0000000E+00;  1.0000000E+04;  0.0000000E+00;  1.0000000E+04;  0.0000000E+00;  0.0000000E+00;  0.0000000E+00;  0.0000000E+00;
 -2.2000000E-01;  9.9999998E-03;  3.9999999E-02;21;  0.0000000E+00;  0.0000000E+00;  0.0000000E+00;  1.0000000E+03;  4.0000001E-01;  0.0000000E+00;0;  0.0000000E+00;  0.0000000E+00;  0.0000000E+00;0;  0.0000000E+00;  1.0000000E+04;  0.0000000E+00;  0.0000000E+00;  1.0000000E+04;  0.0000000E+00;  1.0000000E+04;  0.0000000E+00;  0.0000000E+00;  0.0000000E+00;  0.0000000E+00;
 -2.2000000E-01;  9.9999998E-03;  5.9999999E-02;22;  0.0000000E+00;  0.0000000E+00;  0.0000000E+00;  1.0000000E+03;  4.0000001E-01;  0.0000000E+00;0;  0.0000000E+00;  0.0000000E+00;  0.0000000E+00;0;  0.0000000E+00;  1.0000000E+04;  0.0000000E+00;  0.0000000E+00;  1.0000000E+04;  0.0000000E+00;  1.0000000E+04;  0.0000000E+00;  0.0000000E+00;  0.0000000E+00;  0.0000000E+00;
 -2.2000000E-01;  9.9999998E-03;  7.9999998E-02;23;  0.0000000E+00;  0.0000000E+00;  0.0000000E+00;  1.0000000E+03;  4.0000001E-01;  0.0000000E+00;0;  0.0000000E+00;  0.0000000E+00;  0.0000000E+00;0;  0.0000000E+00;  1.0000000E+04;  0.0000000E+00;  0.0000000E+00;  1.0000000E+04;  0.0000000E+00;  1.0000000E+04;  0.0000000E+00;  0.0000000E+00;  0.0000000E+00;  0.0000000E+00;
 -2.2000000E-01;  9.9999998E-03;  1.0000000E-01;24;  0.0000000E+00;  0.0000000E+00;  0.0000000E+00;  1.0000000E+03;  4.0000001E-01;  0.0000000E+00;0;  0.0000000E+00;  0.0000000E+00;  0.0000000E+00;0;  0.0000000E+00;  1.0000000E+04;  0.0000000E+00;  0.0000000E+00;  1.0000000E+04;  0.0000000E+00;  1.0000000E+04;  0.0000000E+00;  0.0000000E+00;  0.0000000E+00;  0.0000000E+00;
 -2.2000000E-01;  9.9999998E-03;  1.2000000E-01;25;  0.0000000E+00;  0.0000000E+00;  0.0000000E+00;  1.0000000E+03;  4.0000001E-01;  0.0000000E+00;0;  0.0000000E+00;  0.0000000E+00;  0.0000000E+00;0;  0.0000000E+00;  1.0000000E+04;  0.0000000E+00;  0.0000000E+00;  1.0000000E+04;  0.0000000E+00;  1.0000000E+04;  0.0000000E+00;  0.0000000E+00;  0.0000000E+00;  0.0000000E+00;
 -2.2000000E-01;  9.9999998E-03;  1.4000000E-01;26;  0.0000000E+00;  0.0000000E+00;  0.0000000E+00;  1.0000000E+03;  4.0000001E-01;  0.0000000E+00;0;  0.0000000E+00;  0.0000000E+00;  0.0000000E+00;0;  0.0000000E+00;  1.0000000E+04;  0.0000000E+00;  0.0000000E+00;  1.0000000E+04;  0.0000000E+00;  1.0000000E+04;  0.0000000E+00;  0.0000000E+00;  0.0000000E+00;  0.0000000E+00;
 -2.0000000E-01;  9.9999998E-03;  0.0000000E+00;59;  0.0000000E+00;  0.0000000E+00;  0.0000000E+00;  1.0000000E+03;  4.0000001E-01;  0.0000000E+00;0;  0.0000000E+00;  0.0000000E+00;  0.0000000E+00;0;  0.0000000E+00;  1.0000000E+04;  0.0000000E+00;  0.0000000E+00;  1.0000000E+04;  0.0000000E+00;  1.0000000E+04;  0.0000000E+00;  0.0000000E+00;  0.0000000E+00;  0.0000000E+00;
 -2.0000000E-01;  9.9999998E-03;  2.0000000E-02;60;  0.0000000E+00;  0.0000000E+00;  0.0000000E+00;  1.0000000E+03;  4.0000001E-01;  0.0000000E+00;0;  0.0000000E+00;  0.0000000E+00;  0.0000000E+00;0;  0.0000000E+00;  1.0000000E+04;  0.0000000E+00;  0.0000000E+00;  1.0000000E+04;  0.0000000E+00;  1.0000000E+04;  0.0000000E+00;  0.0000000E+00;  0.0000000E+00;  0.0000000E+00;
 -2.0000000E-01;  9.9999998E-03;  3.9999999E-02;61;  0.0000000E+00;  0.0000000E+00;  0.0000000E+00;  1.0000000E+03;  4.0000001E-01;  0.0000000E+00;0;  0.0000000E+00;  0.0000000E+00;  0.0000000E+00;0;  0.0000000E+00;  1.0000000E+04;  0.0000000E+00;  0.0000000E+00;  1.0000000E+04;  0.0000000E+00;  1.0000000E+04;  0.0000000E+00;  0.0000000E+00;  0.0000000E+00;  0.0000000E+00;
 -2.0000000E-01;  9.9999998E-03;  5.9999999E-02;62;  0.0000000E+00;  0.0000000E+00;  0.0000000E+00;  1.0000000E+03;  4.0000001E-01;  0.0000000E+00;0;  0.0000000E+00;  0.0000000E+00;  0.0000000E+00;0;  0.0000000E+00;  1.0000000E+04;  0.0000000E+00;  0.0000000E+00;  1.0000000E+04;  0.0000000E+00;  1.0000000E+04;  0.0000000E+00;  0.0000000E+00;  0.0000000E+00;  0.0000000E+00;
 -2.0000000E-01;  9.9999998E-03;  7.9999998E-02;63;  0.0000000E+00;  0.0000000E+00;  0.0000000E+00;  1.0000000E+03;  4.0000001E-01;  0.0000000E+00;0;  0.0000000E+00;  0.0000000E+00;  0.0000000E+00;0;  0.0000000E+00;  1.0000000E+04;  0.0000000E+00;  0.0000000E+00;  1.0000000E+04;  0.0000000E+00;  1.0000000E+04;  0.0000000E+00;  0.0000000E+00;  0.0000000E+00;  0.0000000E+00;
 -2.0000000E-01;  9.9999998E-03;  1.0000000E-01;64;  0.0000000E+00;  0.0000000E+00;  0.0000000E+00;  1.0000000E+03;  4.0000001E-01;  0.0000000E+00;0;  0.0000000E+00;  0.0000000E+00;  0.0000000E+00;0;  0.0000000E+00;  1.0000000E+04;  0.0000000E+00;  0.0000000E+00;  1.0000000E+04;  0.0000000E+00;  1.0000000E+04;  0.0000000E+00;  0.0000000E+00;  0.0000000E+00;  0.0000000E+00;
 -2.0000000E-01;  9.9999998E-03;  1.2000000E-01;65;  0.0000000E+00;  0.0000000E+00;  0.0000000E+00;  1.0000000E+03;  4.0000001E-01;  0.0000000E+00;0;  0.0000000E+00;  0.0000000E+00;  0.0000000E+00;0;  0.0000000E+00;  1.0000000E+04;  0.0000000E+00;  0.0000000E+00;  1.0000000E+04;  0.0000000E+00;  1.0000000E+04;  0.0000000E+00;  0.0000000E+00;  0.0000000E+00;  0.0000000E+00;
 -2.0000000E-01;  9.9999998E-03;  1.4000000E-01;66;  0.0000000E+00;  0.0000000E+00;  0.0000000E+00;  1.0000000E+03;  4.0000001E-01;  0.0000000E+00;0;  0.0000000E+00;  0.0000000E+00;  0.0000000E+00;0;  0.0000000E+00;  1.0000000E+04;  0.0000000E+00;  0.0000000E+00;  1.0000000E+04;  0.0000000E+00;  1.0000000E+04;  0.0000000E+00;  0.0000000E+00;  0.0000000E+00;  0.0000000E+00;
 -1.8000001E-01;  9.9999998E-03;  0.0000000E+00;100;  0.0000000E+00;  0.0000000E+00;  0.0000000E+00;  1.0000000E+03;  4.0000001E-01;  0.0000000E+00;0;  0.0000000E+00;  0.0000000E+00;  0.0000000E+00;0;  0.0000000E+00;  1.0000000E+04;  0.0000000E+00;  0.0000000E+00;  1.0000000E+04;  0.0000000E+00;  1.0000000E+04;  0.0000000E+00;  0.0000000E+00;  0.0000000E+00;  0.0000000E+00;
 -1.8000001E-01;  9.9999998E-03;  2.0000000E-02;101;  0.0000000E+00;  0.0000000E+00;  0.0000000E+00;  1.0000000E+03;  4.0000001E-01;  0.0000000E+00;0;  0.0000000E+00;  0.0000000E+00;  0.0000000E+00;0;  0.0000000E+00;  1.0000000E+04;  0.0000000E+00;  0.0000000E+00;  1.0000000E+04;  0.0000000E+00;  1.0000000E+04;  0.0000000E+00;  0.0000000E+00;  0.0000000E+00;  0.0000000E+00;
 -1.8000001E-01;  9.9999998E-03;  3.9999999E-02;102;  0.0000000E+00;  0.0000000E+00;  0.0000000E+00;  1.0000000E+03;  4.0000001E-01;  0.0000000E+00;0;  0.0000000E+00;  0.0000000E+00;  0.0000000E+00;0;  0.0000000E+00;  1.0000000E+04;  0.0000000E+00;  0.0000000E+00;  1.0000000E+04;  0.0000000E+00;  1.0000000E+04;  0.0000000E+00;  0.0000000E+00;  0.0000000E+00;  0.0000000E+00;
 -1.8000001E-01;  9.9999998E-03;  5.9999999E-02;103;  0.0000000E+00;  0.0000000E+00;  0.0000000E+00;  1.0000000E+03;  4.0000001E-01;  0.0000000E+00;0;  0.0000000E+00;  0.0000000E+00;  0.0000000E+00;0;  0.0000000E+00;  1.0000000E+04;  0.0000000E+00;  0.0000000E+00;  1.0000000E+04;  0.0000000E+00;  1.0000000E+04;  0.0000000E+00;  0.0000000E+00;  0.0000000E+00;  0.0000000E+00;
 -1.8000001E-01;  9.9999998E-03;  7.9999998E-02;104;  0.0000000E+00;  0.0000000E+00;  0.0000000E+00;  1.0000000E+03;  4.0000001E-01;  0.0000000E+00;0;  0.0000000E+00;  0.0000000E+00;  0.0000000E+00;0;  0.0000000E+00;  1.0000000E+04;  0.0000000E+00;  0.0000000E+00;  1.0000000E+04;  0.0000000E+00;  1.0000000E+04;  0.0000000E+00;  0.0000000E+00;  0.0000000E+00;  0.0000000E+00;
 -1.8000001E-01;  9.9999998E-03;  1.0000000E-01;105;  0.0000000E+00;  0.0000000E+00;  0.0000000E+00;  1.0000000E+03;  4.0000001E-01;  0.0000000E+00;0;  0.0000000E+00;  0.0000000E+00;  0.0000000E+00;0;  0.0000000E+00;  1.0000000E+04;  0.0000000E+00;  0.0000000E+00;  1.0000000E+04;  0.0000000E+00;  1.0000000E+04;  0.0000000E+00;  0.0000000E+00;  0.0000000E+00;  0.0000000E+00;
 -1.8000001E-01;  9.9999998E-03;  1.2000000E-01;106;  0.0000000E+00;  0.0000000E+00;  0.0000000E+00;  1.0000000E+03;  4.0000001E-01;  0.0000000E+00;0;  0.0000000E+00;  0.0000000E+00;  0.0000000E+00;0;  0.0000000E+00;  1.0000000E+04;  0.0000000E+00;  0.0000000E+00;  1.0000000E+04;  0.0000000E+00;  1.0000000E+04;  0.0000000E+00;  0.0000000E+00;  0.0000000E+00;  0.0000000E+00;
 -1.8000001E-01;  9.9999998E-03;  1.4000000E-01;107;  0.0000000E+00;  0.0000000E+00;  0.0000000E+00;  1.0000000E+03;  4.0000001E-01;  0.0000000E+00;0;  0.0000000E+00;  0.0000000E+00;  0.0000000E+00;0;  0.0000000E+00;  1.0000000E+04;  0.0000000E+00;  0.0000000E+00;  1.0000000E+04;  0.0000000E+00;  1.0000000E+04;  0.0000000E+00;  0.0000000E+00;  0.0000000E+00;  0.0000000E+00;
 -1.6000000E-01;  9.9999998E-03;  0.0000000E+00;141;  0.0000000E+00;  0.0000000E+00;  0.0000000E+00;  1.0000000E+03;  4.0000001E-01;  0.0000000E+00;0;  0.0000000E+00;  0.0000000E+00;  0.0000000E+00;0; -9.8019246E-09;  1.0000000E+04;  0.0000000E+00;  0.0000000E+00;  1.0000000E+04;  0.0000000E+00;  1.0000000E+04; -9.8094510E-09;  0.0000000E+00;  7.5264257E-12;  2.0231857E-07;
 -1.6000000E-01;  9.9999998E-03;  2.0000000E-02;142;  0.0000000E+00;  0.0000000E+00;  0.0000000E+00;  1.0000000E+03;  4.0000001E-01;  0.0000000E+00;0;  0.0000000E+00;  0.0000000E+00;  0.0000000E+00;0; -9.7883195E-09;  1.0000000E+04;  0.0000000E+00;  0.0000000E+00;  1.0000000E+04;  0.0000000E+00;  1.0000000E+04; -9.7960102E-09;  0.0000000E+00;  7.6904819E-12;  2.0231168E-07;
 -1.6000000E-01;  9.9999998E-03;  3.9999999E-02;143;  0.0000000E+00;  0.0000000E+00;  0.0000000E+00;  1.0000000E+03;  4.0000001E-01;  0.0000000E+00;0;  0.0000000E+00;  0.0000000E+00;  0.0000000E+00;0; -9.7467669E-09;  1.0000000E+04;  0.0000000E+00;  0.0000000E+00;  1.0000000E+04;  0.0000000E+00;  1.0000000E+04; -9.7549053E-09;  0.0000000E+00;  8.1384361E-12;  2.0226793E-07;
 -1.6000000E-01;  9.9999998E-03;  5.9999999E-02;144;  0.0000000E+00;  0.0000000E+00;  0.0000000E+00;  1.0000000E+03;  4.0000001E-01;  0.0000000E+00;0;  0.0000000E+00;  0.0000000E+00;  0.0000000E+00;0; -9.6750714E-09;  1.0000000E+04;  0.0000000E+00;  0.0000000E+00;  1.0000000E+04;  0.0000000E+00;  1.0000000E+04; -9.6838404E-09;  0.0000000E+00;  8.7689847E-12;  2.0215124E-07;
 -1.6000000E-01;  9.9999998E-03;  7.9999998E-02;145;  0.0000000E+00;  0.0000000E+00;  0.0000000E+00;  1.0000000E+03;  4.0000001E-01;  0.0000000E+00;0;  0.0000000E+00;  0.0000000E+00;  0.0000000E+00;0; -9.5697619E-09;  1.0000000E+04;  0.0000000E+00;  0.0000000E+00;  1.0000000E+04;  0.0000000E+00;  1.0000000E+04; -9.5792068E-09;  0.0000000E+00;  9.4450316E-12;  2.0186269E-07;
 -1.6000000E-01;  9.9999998E-03;  1.0000000E-01;146;  0.0000000E+00;  0.0000000E+00;  0.0000000E+00;  1.0000000E+03;  4.0000001E-01;  0.0000000E+00;0;  0.0000000E+00;  0.0000000E+00;  0.0000000E+00;0; -9.4262536E-09;  1.0000000E+04;  0.0000000E+00;  0.0000000E+00;  1.0000000E+04;  0.0000000E+00;  1.0000000E+04; -9.4363770E-09;  0.0000000E+00;  1.0123666E-11;  2.0125074E-07;
 -1.6000000E-01;  9.9999998E-03;  1.2000000E-01;147;  0.0000000E+00;  0.0000000E+00;  0.0000000E+00;  1.0000000E+03;  4.0000001E-01;  0.0000000E+00;0;  0.0000000E+00;  0.0000000E+00;  0.0000000E+00;0; -9.2387005E-09;  1.0000000E+04;  0.0000000E+00;  0.0000000E+00;  1.0000000E+04;  0.0000000E+00;  1.0000000E+04; -9.2496109E-09;  0.0000000E+00;  1.0910254E-11;  2.0015186E-07;
 -1.6000000E-01;  9.9999998E-03;  1.4000000E-01;148;  0.0000000E+00;  0.0000000E+00;  0.0000000E+00;  1.0000000E+03;  4.0000001E-01;  0.0000000E+00;0;  0.0000000E+00;  0.0000000E+00;  0.0000000E+00;0; -8.9994554E-09;  1.0000000E+04;  0.0000000E+00;  0.0000000E+00;  1.0000000E+04;  0.0000000E+00;  1.0000000E+04; -9.0113286E-09;  0.0000000E+00;  1.1872866E-11;  1.9814657E-07;
 -1.4000000E-01;  9.9999998E-03;  0.0000000E+00;182;  0.0000000E+00;  0.0000000E+00;  0.0000000E+00;  1.0000000E+03;  4.0000001E-01;  0.0000000E+00;0;  0.0000000E+00;  0.0000000E+00;  0.0000000E+00;0; -3.6143854E-07;  1.0000000E+04;  0.0000000E+00;  0.0000000E+00;  1.0000000E+04;  0.0000000E+00;  1.0000000E+04; -3.6241480E-07;  0.0000000E+00;  9.7624464E-10;  8.8978004E-06;
 -1.4000000E-01;  9.9999998E-03;  2.0000000E-02;183;  0.0000000E+00;  0.0000000E+00;  0.0000000E+00;  1.0000000E+03;  4.0000001E-01;  0.0000000E+00;0;  0.0000000E+00;  0.0000000E+00;  0.0000000E+00;0; -3.6090361E-07;  1.0000000E+04;  0.0000000E+00;  0.0000000E+00;  1.0000000E+04;  0.0000000E+00;  1.0000000E+04; -3.6189743E-07;  0.0000000E+00;  9.9382336E-10;  8.9197256E-06;
 -1.4000000E-01;  9.9999998E-03;  3.9999999E-02;184;  0.0000000E+00;  0.0000000E+00;  0.0000000E+00;  1.0000000E+03;  4.0000001E-01;  0.0000000E+00;0;  0.0000000E+00;  0.0000000E+00;  0.0000000E+00;0; -3.5927553E-07;  1.0000000E+04;  0.0000000E+00;  0.0000000E+00;  1.0000000E+04;  0.0000000E+00;  1.0000000E+04; -3.6031804E-07;  0.0000000E+00;  1.0424958E-09;  8.9845280E-06;
 -1.4000000E-01;  9.9999998E-03;  5.9999999E-02;185;  0.0000000E+00;  0.0000000E+00;  0.0000000E+00;  1.0000000E+03;  4.0000001E-01;  0.0000000E+00;0;  0.0000000E+00;  0.0000000E+00;  0.0000000E+00;0; -3.5648463E-07;  1.0000000E+04;  0.0000000E+00;  0.0000000E+00;  1.0000000E+04;  0.0000000E+00;  1.0000000E+04; -3.5759729E-07;  0.0000000E+00;  1.1126597E-09;  9.0889525E-06;
 -1.4000000E-01;  9.9999998E-03;  7.9999998E-02;186;  0.0000000E+00;  0.0000000E+00;  0.0000000E+00;  1.0000000E+03;  4.0000001E-01;  0.0000000E+00;0;  0.0000000E+00;  0.0000000E+00;  0.0000000E+00;0; -3.5241192E-07;  1.0000000E+04;  0.0000000E+00;  0.0000000E+00;  1.0000000E+04;  0.0000000E+00;  1.0000000E+04; -3.5360728E-07;  0.0000000E+00;  1.1953565E-09;  9.2273858E-06;
 -1.4000000E-01;  9.9999998E-03;  1.0000000E-01;187;  0.0000000E+00;  0.0000000E+00;  0.0000000E+00;  1.0000000E+03;  4.0000001E-01;  0.0000000E+00;0;  0.0000000E+00;  0.0000000E+00;  0.0000000E+00;0; -3.4688557E-07;  1.0000000E+04;  0.0000000E+00;  0.0000000E+00;  1.0000000E+04;  0.0000000E+00;  1.0000000E+04; -3.4817288E-07;  0.0000000E+00;  1.2872998E-09;  9.3889284E-06;
 -1.4000000E-01;  9.9999998E-03;  1.2000000E-01;188;  0.0000000E+00;  0.0000000E+00;  0.0000000E+00;  1.0000000E+03;  4.0000001E-01;  0.0000000E+00;0;  0.0000000E+00;  0.0000000E+00;  0.0000000E+00;0; -3.3966765E-07;  1.0000000E+04;  0.0000000E+00;  0.0000000E+00;  1.0000000E+04;  0.0000000E+00;  1.0000000E+04; -3.4106014E-07;  0.0000000E+00;  1.3924846E-09;  9.5536889E-06;
 -1.4000000E-01;  9.9999998E-03;  1.4000000E-01;189;  0.0000000E+00;  0.0000000E+00;  0.0000000E+00;  1.0000000E+03;  4.0000001E-01;  0.0000000E+00;0;  0.0000000E+00;  0.0000000E+00;  0.0000000E+00;0; -3.3043921E-07;  1.0000000E+04;  0.0000000E+00;  0.0000000E+00;  1.0000000E+04;  0.0000000E+00;  1.0000000E+04; -3.3195431E-07;  0.0000000E+00;  1.5151118E-09;  9.6894428E-06;
 -1.2000000E-01;  9.9999998E-03;  0.0000000E+00;223;  0.0000000E+00;  0.0000000E+00;  0.0000000E+00;  1.0000000E+03;  4.0000001E-01;  0.0000000E+00;0;  0.0000000E+00;  0.0000000E+00;  0.0000000E+00;0; -2.0490797E-06;  1.0000000E+04;  0.0000000E+00;  0.0000000E+00;  1.0000000E+04;  0.0000000E+00;  1.0000000E+04; -2.0588425E-06;  0.0000000E+00;  9.7626431E-09;  5.9496710E-05;
 -1.2000000E-01;  9.9999998E-03;  2.0000000E-02;224;  0.0000000E+00;  0.0000000E+00;  0.0000000E+00;  1.0000000E+03;  4.0000001E-01;  0.0000000E+00;0;  0.0000000E+00;  0.0000000E+00;  0.0000000E+00;0; -2.0459668E-06;  1.0000000E+04;  0.0000000E+00;  0.0000000E+00;  1.0000000E+04;  0.0000000E+00;  1.0000000E+04; -2.0558839E-06;  0.0000000E+00;  9.9171586E-09;  5.9754198E-05;
 -1.2000000E-01;  9.9999998E-03;  3.9999999E-02;225;  0.0000000E+00;  0.0000000E+00;  0.0000000E+00;  1.0000000E+03;  4.0000001E-01;  0.0000000E+00;0;  0.0000000E+00;  0.0000000E+00;  0.0000000E+00;0; -2.0365062E-06;  1.0000000E+04;  0.0000000E+00;  0.0000000E+00;  1.0000000E+04;  0.0000000E+00;  1.0000000E+04; -2.0468588E-06;  0.0000000E+00;  1.0352439E-08;  6.0516562E-05;
 -1.2000000E-01;  9.9999998E-03;  5.9999999E-02;226;  0.0000000E+00;  0.0000000E+00;  0.0000000E+00;  1.0000000E+03;  4.0000001E-01;  0.0000000E+00;0;  0.0000000E+00;  0.0000000E+00;  0.0000000E+00;0; -2.0203247E-06;  1.0000000E+04;  0.0000000E+00;  0.0000000E+00;  1.0000000E+04;  0.0000000E+00;  1.0000000E+04; -2.0313269E-06;  0.0000000E+00;  1.1002115E-08;  6.1754094E-05;
 -1.2000000E-01;  9.9999998E-03;  7.9999998E-02;227;  0.0000000E+00;  0.0000000E+00;  0.0000000E+00;  1.0000000E+03;  4.0000001E-01;  0.0000000E+00;0;  0.0000000E+00;  0.0000000E+00;  0.0000000E+00;0; -1.9967597E-06;  1.0000000E+04;  0.0000000E+00;  0.0000000E+00;  1.0000000E+04;  0.0000000E+00;  1.0000000E+04; -2.0085618E-06;  0.0000000E+00;  1.1801949E-08;  6.3408319E-05;
 -1.2000000E-01;  9.9999998E-03;  1.0000000E-01;228;  0.0000000E+00;  0.0000000E+00;  0.0000000E+00;  1.0000000E+03;  4.0000001E-01;  0.0000000E+00;0;  0.0000000E+00;  0.0000000E+00;  0.0000000E+00;0; -1.9647966E-06;  1.0000000E+04;  0.0000000E+00;  0.0000000E+00;  1.0000000E+04;  0.0000000E+00;  1.0000000E+04; -1.9775225E-06;  0.0000000E+00;  1.2725855E-08;  6.5370412E-05;
 -1.2000000E-01;  9.9999998E-03;  1.2000000E-01;229;  0.0000000E+00;  0.0000000E+00;  0.0000000E+00;  1.0000000E+03;  4.0000001E-01;  0.0000000E+00;0;  0.0000000E+00;  0.0000000E+00;  0.0000000E+00;0; -1.9230108E-06;  1.0000000E+04;  0.0000000E+00;  0.0000000E+00;  1.0000000E+04;  0.0000000E+00;  1.0000000E+04; -1.9367926E-06;  0.0000000E+00;  1.3781864E-08;  6.7450543E-05;
 -1.2000000E-01;  9.9999998E-03;  1.4000000E-01;230;  0.0000000E+00;  0.0000000E+00;  0.0000000E+00;  1.0000000E+03;  4.0000001E-01;  0.0000000E+00;0;  0.0000000E+00;  0.0000000E+00;  0.0000000E+00;0; -1.8695405E-06;  1.0000000E+04;  0.0000000E+00;  0.0000000E+00;  1.0000000E+04;  0.0000000E+00;  1.0000000E+04; -1.8844916E-06;  0.0000000E+00;  1.4951075E-08;  6.9335132E-05;
 -1.0000000E-01;  9.9999998E-03;  0.0000000E+00;264;  0.0000000E+00;  0.0000000E+00;  0.0000000E+00;  1.0000000E+03;  4.0000001E-01;  0.0000000E+00;0;  0.0000000E+00;  0.0000000E+00;  0.0000000E+00;0; -6.7451529E-06;  1.0000000E+04;  0.0000000E+00;  0.0000000E+00;  1.0000000E+04;  0.0000000E+00;  1.0000000E+04; -6.7915526E-06;  0.0000000E+00;  4.6399581E-08;  2.2744146E-04;
 -1.0000000E-01;  9.9999998E-03;  2.0000000E-02;265;  0.0000000E+00;  0.0000000E+00;  0.0000000E+00;  1.0000000E+03;  4.0000001E-01;  0.0000000E+00;0;  0.0000000E+00;  0.0000000E+00;  0.0000000E+00;0; -6.7347964E-06;  1.0000000E+04;  0.0000000E+00;  0.0000000E+00;  1.0000000E+04;  0.0000000E+00;  1.0000000E+04; -6.7818733E-06;  0.0000000E+00;  4.7076998E-08;  2.2874016E-04;
 -1.0000000E-01;  9.9999998E-03;  3.9999999E-02;266;  0.0000000E+00;  0.0000000E+00;  0.0000000E+00;  1.0000000E+03;  4.0000001E-01;  0.0000000E+00;0;  0.0000000E+00;  0.0000000E+00;  0.0000000E+00;0; -6.7033493E-06;  1.0000000E+04;  0.0000000E+00;  0.0000000E+00;  1.0000000E+04;  0.0000000E+00;  1.0000000E+04; -6.7523588E-06;  0.0000000E+00;  4.9009564E-08;  2.3258899E-04;
 -1.0000000E-01;  9.9999998E-03;  5.9999999E-02;267;  0.0000000E+00;  0.0000000E+00;  0.0000000E+00;  1.0000000E+03;  4.0000001E-01;  0.0000000E+00;0;  0.0000000E+00;  0.0000000E+00;  0.0000000E+00;0; -6.6496068E-06;  1.0000000E+04;  0.0000000E+00;  0.0000000E+00;  1.0000000E+04;  0.0000000E+00;  1.0000000E+04; -6.7015640E-06;  0.0000000E+00;  5.1957198E-08;  2.3883287E-04;
 -1.0000000E-01;  9.9999998E-03;  7.9999998E-02;268;  0.0000000E+00;  0.0000000E+00;  0.0000000E+00;  1.0000000E+03;  4.0000001E-01;  0.0000000E+00;0;  0.0000000E+00;  0.0000000E+00;  0.0000000E+00;0; -6.5713571E-06;  1.0000000E+04;  0.0000000E+00;  0.0000000E+00;  1.0000000E+04;  0.0000000E+00;  1.0000000E+04; -6.6270413E-06;  0.0000000E+00;  5.5684389E-08;  2.4717028E-04;
 -1.0000000E-01;  9.9999998E-03;  1.0000000E-01;269;  0.0000000E+00;  0.0000000E+00;  0.0000000E+00;  1.0000000E+03;  4.0000001E-01;  0.0000000E+00;0;  0.0000000E+00;  0.0000000E+00;  0.0000000E+00;0; -6.4651626E-06;  1.0000000E+04;  0.0000000E+00;  0.0000000E+00;  1.0000000E+04;  0.0000000E+00;  1.0000000E+04; -6.5252289E-06;  0.0000000E+00;  6.0066043E-08;  2.5706401E-04;
 -1.0000000E-01;  9.9999998E-03;  1.2000000E-01;270;  0.0000000E+00;  0.0000000E+00;  0.0000000E+00;  1.0000000E+03;  4.0000001E-01;  0.0000000E+00;0;  0.0000000E+00;  0.0000000E+00;  0.0000000E+00;0; -6.3262064E-06;  1.0000000E+04;  0.0000000E+00;  0.0000000E+00;  1.0000000E+04;  0.0000000E+00;  1.0000000E+04; -6.3912403E-06;  0.0000000E+00;  6.5033781E-08;  2.6759351E-04;
 -1.0000000E-01;  9.9999998E-03;  1.4000000E-01;271;  0.0000000E+00;  0.0000000E+00;  0.0000000E+00;  1.0000000E+03;  4.0000001E-01;  0.0000000E+00;0;  0.0000000E+00;  0.0000000E+00;  0.0000000E+00;0; -6.1482997E-06;  1.0000000E+04;  0.0000000E+00;  0.0000000E+00;  1.0000000E+04;  0.0000000E+00;  1.0000000E+04; -6.2186286E-06;  0.0000000E+00;  7.0329030E-08;  2.7723971E-04;
 -7.9999998E-02;  9.9999998E-03;  0.0000000E+00;305;  0.0000000E+00;  0.0000000E+00;  0.0000000E+00;  1.0000000E+03;  4.0000001E-01;  0.0000000E+00;0;  0.0000000E+00;  0.0000000E+00;  0.0000000E+00;0; -1.6708440E-05;  1.0000000E+04;  0.0000000E+00;  0.0000000E+00;  1.0000000E+04;  0.0000000E+00;  1.0000000E+04; -1.6857721E-05;  0.0000000E+00;  1.4928143E-07;  6.4303051E-04;
 -7.9999998E-02;  9.9999998E-03;  2.0000000E-02;306;  0.0000000E+00;  0.0000000E+00;  0.0000000E+00;  1.0000000E+03;  4.0000001E-01;  0.0000000E+00;0;  0.0000000E+00;  0.0000000E+00;  0.0000000E+00;0; -1.6682838E-05;  1.0000000E+04;  0.0000000E+00;  0.0000000E+00;  1.0000000E+04;  0.0000000E+00;  1.0000000E+04; -1.6834196E-05;  0.0000000E+00;  1.5135721E-07;  6.4736378E-04;
 -7.9999998E-02;  9.9999998E-03;  3.9999999E-02;307;  0.0000000E+00;  0.0000000E+00;  0.0000000E+00;  1.0000000E+03;  4.0000001E-01;  0.0000000E+00;0;  0.0000000E+00;  0.0000000E+00;  0.0000000E+00;0; -1.6605096E-05;  1.0000000E+04;  0.0000000E+00;  0.0000000E+00;  1.0000000E+04;  0.0000000E+00;  1.0000000E+04; -1.6762420E-05;  0.0000000E+00;  1.5732468E-07;  6.6019350E-04;
 -7.9999998E-02;  9.9999998E-03;  5.9999999E-02;308;  0.0000000E+00;  0.0000000E+00;  0.0000000E+00;  1.0000000E+03;  4.0000001E-01;  0.0000000E+00;0;  0.0000000E+00;  0.0000000E+00;  0.0000000E+00;0; -1.6472226E-05;  1.0000000E+04;  0.0000000E+00;  0.0000000E+00;  1.0000000E+04;  0.0000000E+00;  1.0000000E+04; -1.6638787E-05;  0.0000000E+00;  1.6656190E-07;  6.8097317E-04;
 -7.9999998E-02;  9.9999998E-03;  7.9999998E-02;309;  0.0000000E+00;  0.0000000E+00;  0.0000000E+00;  1.0000000E+03;  4.0000001E-01;  0.0000000E+00;0;  0.0000000E+00;  0.0000000E+00;  0.0000000E+00;0; -1.6278647E-05;  1.0000000E+04;  0.0000000E+00;  0.0000000E+00;  1.0000000E+04;  0.0000000E+00;  1.0000000E+04; -1.6457079E-05;  0.0000000E+00;  1.7843105E-07;  7.0865755E-04;
 -7.9999998E-02;  9.9999998E-03;  1.0000000E-01;310;  0.0000000E+00;  0.0000000E+00;  0.0000000E+00;  1.0000000E+03;  4.0000001E-01;  0.0000000E+00;0;  0.0000000E+00;  0.0000000E+00;  0.0000000E+00;0; -1.6015696E-05;  1.0000000E+04;  0.0000000E+00;  0.0000000E+00;  1.0000000E+04;  0.0000000E+00;  1.0000000E+04; -1.6208189E-05;  0.0000000E+00;  1.9249292E-07;  7.4144162E-04;
 -7.9999998E-02;  9.9999998E-03;  1.2000000E-01;311;  0.0000000E+00;  0.0000000E+00;  0.0000000E+00;  1.0000000E+03;  4.0000001E-01;  0.0000000E+00;0;  0.0000000E+00;  0.0000000E+00;  0.0000000E+00;0; -1.5671267E-05;  1.0000000E+04;  0.0000000E+00;  0.0000000E+00;  1.0000000E+04;  0.0000000E+00;  1.0000000E+04; -1.5879556E-05;  0.0000000E+00;  2.0828847E-07;  7.7626592E-04;
 -7.9999998E-02;  9.9999998E-03;  1.4000000E-01;312;  0.0000000E+00;  0.0000000E+00;  0.0000000E+00;  1.0000000E+03;  4.0000001E-01;  0.0000000E+00;0;  0.0000000E+00;  0.0000000E+00;  0.0000000E+00;0; -1.5229988E-05;  1.0000000E+04;  0.0000000E+00;  0.0000000E+00;  1.0000000E+04;  0.0000000E+00;  1.0000000E+04; -1.5454640E-05;  0.0000000E+00;  2.2465164E-07;  8.0814777E-04;
 -5.9999999E-02;  9.9999998E-03;  0.0000000E+00;346;  0.0000000E+00;  0.0000000E+00;  0.0000000E+00;  1.0000000E+03;  4.0000001E-01;  0.0000000E+00;0;  0.0000000E+00;  0.0000000E+00;  0.0000000E+00;0; -3.4103468E-05;  1.0000000E+04;  0.0000000E+00;  0.0000000E+00;  1.0000000E+04;  0.0000000E+00;  1.0000000E+04; -3.4478235E-05;  0.0000000E+00;  3.7476548E-07;  1.4841354E-03;
 -5.9999999E-02;  9.9999998E-03;  2.0000000E-02;347;  0.0000000E+00;  0.0000000E+00;  0.0000000E+00;  1.0000000E+03;  4.0000001E-01;  0.0000000E+00;0;  0.0000000E+00;  0.0000000E+00;  0.0000000E+00;0; -3.4051820E-05;  1.0000000E+04;  0.0000000E+00;  0.0000000E+00;  1.0000000E+04;  0.0000000E+00;  1.0000000E+04; -3.4431658E-05;  0.0000000E+00;  3.7983881E-07;  1.4953616E-03;
 -5.9999999E-02;  9.9999998E-03;  3.9999999E-02;348;  0.0000000E+00;  0.0000000E+00;  0.0000000E+00;  1.0000000E+03;  4.0000001E-01;  0.0000000E+00;0;  0.0000000E+00;  0.0000000E+00;  0.0000000E+00;0; -3.3894994E-05;  1.0000000E+04;  0.0000000E+00;  0.0000000E+00;  1.0000000E+04;  0.0000000E+00;  1.0000000E+04; -3.4289500E-05;  0.0000000E+00;  3.9450691E-07;  1.5285669E-03;
 -5.9999999E-02;  9.9999998E-03;  5.9999999E-02;349;  0.0000000E+00;  0.0000000E+00;  0.0000000E+00;  1.0000000E+03;  4.0000001E-01;  0.0000000E+00;0;  0.0000000E+00;  0.0000000E+00;  0.0000000E+00;0; -3.3626777E-05;  1.0000000E+04;  0.0000000E+00;  0.0000000E+00;  1.0000000E+04;  0.0000000E+00;  1.0000000E+04; -3.4044213E-05;  0.0000000E+00;  4.1743644E-07;  1.5822611E-03;
 -5.9999999E-02;  9.9999998E-03;  7.9999998E-02;350;  0.0000000E+00;  0.0000000E+00;  0.0000000E+00;  1.0000000E+03;  4.0000001E-01;  0.0000000E+00;0;  0.0000000E+00;  0.0000000E+00;  0.0000000E+00;0; -3.3235745E-05;  1.0000000E+04;  0.0000000E+00;  0.0000000E+00;  1.0000000E+04;  0.0000000E+00;  1.0000000E+04; -3.3682922E-05;  0.0000000E+00;  4.4717521E-07;  1.6536609E-03;
 -5.9999999E-02;  9.9999998E-03;  1.0000000E-01;351;  0.0000000E+00;  0.0000000E+00;  0.0000000E+00;  1.0000000E+03;  4.0000001E-01;  0.0000000E+00;0;  0.0000000E+00;  0.0000000E+00;  0.0000000E+00;0; -3.2703927E-05;  1.0000000E+04;  0.0000000E+00;  0.0000000E+00;  1.0000000E+04;  0.0000000E+00;  1.0000000E+04; -3.3186436E-05;  0.0000000E+00;  4.8251013E-07;  1.7380703E-03;
 -5.9999999E-02;  9.9999998E-03;  1.2000000E-01;352;  0.0000000E+00;  0.0000000E+00;  0.0000000E+00;  1.0000000E+03;  4.0000001E-01;  0.0000000E+00;0;  0.0000000E+00;  0.0000000E+00;  0.0000000E+00;0; -3.2006508E-05;  1.0000000E+04;  0.0000000E+00;  0.0000000E+00;  1.0000000E+04;  0.0000000E+00;  1.0000000E+04; -3.2528380E-05;  0.0000000E+00;  5.2187062E-07;  1.8275987E-03;
 -5.9999999E-02;  9.9999998E-03;  1.4000000E-01;353;  0.0000000E+00;  0.0000000E+00;  0.0000000E+00;  1.0000000E+03;  4.0000001E-01;  0.0000000E+00;0;  0.0000000E+00;  0.0000000E+00;  0.0000000E+00;0; -3.1112246E-05;  1.0000000E+04;  0.0000000E+00;  0.0000000E+00;  1.0000000E+04;  0.0000000E+00;  1.0000000E+04; -3.1674055E-05;  0.0000000E+00;  5.6180943E-07;  1.9095499E-03;
 -3.9999999E-02;  9.9999998E-03;  0.0000000E+00;387;  0.0000000E+00;  0.0000000E+00;  0.0000000E+00;  1.0000000E+03;  4.0000001E-01;  0.0000000E+00;0;  0.0000000E+00;  0.0000000E+00;  0.0000000E+00;0; -6.0176564E-05;  1.0000000E+04;  0.0000000E+00;  0.0000000E+00;  1.0000000E+04;  0.0000000E+00;  1.0000000E+04; -6.0965878E-05;  0.0000000E+00;  7.8931328E-07;  2.9528257E-03;
 -3.9999999E-02;  9.9999998E-03;  2.0000000E-02;388;  0.0000000E+00;  0.0000000E+00;  0.0000000E+00;  1.0000000E+03;  4.0000001E-01;  0.0000000E+00;0;  0.0000000E+00;  0.0000000E+00;  0.0000000E+00;0; -6.0087317E-05;  1.0000000E+04;  0.0000000E+00;  0.0000000E+00;  1.0000000E+04;  0.0000000E+00;  1.0000000E+04; -6.0887221E-05;  0.0000000E+00;  7.9990457E-07;  2.9772848E-03;
 -3.9999999E-02;  9.9999998E-03;  3.9999999E-02;389;  0.0000000E+00;  0.0000000E+00;  0.0000000E+00;  1.0000000E+03;  4.0000001E-01;  0.0000000E+00;0;  0.0000000E+00;  0.0000000E+00;  0.0000000E+00;0; -5.9816208E-05;  1.0000000E+04;  0.0000000E+00;  0.0000000E+00;  1.0000000E+04;  0.0000000E+00;  1.0000000E+04; -6.0646860E-05;  0.0000000E+00;  8.3065140E-07;  3.0495729E-03;
 -3.9999999E-02;  9.9999998E-03;  5.9999999E-02;390;  0.0000000E+00;  0.0000000E+00;  0.0000000E+00;  1.0000000E+03;  4.0000001E-01;  0.0000000E+00;0;  0.0000000E+00;  0.0000000E+00;  0.0000000E+00;0; -5.9352395E-05;  1.0000000E+04;  0.0000000E+00;  0.0000000E+00;  1.0000000E+04;  0.0000000E+00;  1.0000000E+04; -6.0231414E-05;  0.0000000E+00;  8.7901884E-07;  3.1663158E-03;
 -3.9999999E-02;  9.9999998E-03;  7.9999998E-02;391;  0.0000000E+00;  0.0000000E+00;  0.0000000E+00;  1.0000000E+03;  4.0000001E-01;  0.0000000E+00;0;  0.0000000E+00;  0.0000000E+00;  0.0000000E+00;0; -5.8675487E-05;  1.0000000E+04;  0.0000000E+00;  0.0000000E+00;  1.0000000E+04;  0.0000000E+00;  1.0000000E+04; -5.9617567E-05;  0.0000000E+00;  9.4207996E-07;  3.3213894E-03;
 -3.9999999E-02;  9.9999998E-03;  1.0000000E-01;392;  0.0000000E+00;  0.0000000E+00;  0.0000000E+00;  1.0000000E+03;  4.0000001E-01;  0.0000000E+00;0;  0.0000000E+00;  0.0000000E+00;  0.0000000E+00;0; -5.7753798E-05;  1.0000000E+04;  0.0000000E+00;  0.0000000E+00;  1.0000000E+04;  0.0000000E+00;  1.0000000E+04; -5.8770842E-05;  0.0000000E+00;  1.0170459E-06;  3.5046309E-03;
 -3.9999999E-02;  9.9999998E-03;  1.2000000E-01;393;  0.0000000E+00;  0.0000000E+00;  0.0000000E+00;  1.0000000E+03;  4.0000001E-01;  0.0000000E+00;0;  0.0000000E+00;  0.0000000E+00;  0.0000000E+00;0; -5.6543631E-05;  1.0000000E+04;  0.0000000E+00;  0.0000000E+00;  1.0000000E+04;  0.0000000E+00;  1.0000000E+04; -5.7643643E-05;  0.0000000E+00;  1.1000111E-06;  3.6991234E-03;
 -3.9999999E-02;  9.9999998E-03;  1.4000000E-01;394;  0.0000000E+00;  0.0000000E+00;  0.0000000E+00;  1.0000000E+03;  4.0000001E-01;  0.0000000E+00;0;  0.0000000E+00;  0.0000000E+00;  0.0000000E+00;0; -5.4990000E-05;  1.0000000E+04;  0.0000000E+00;  0.0000000E+00;  1.0000000E+04;  0.0000000E+00;  1.0000000E+04; -5.6173005E-05;  0.0000000E+00;  1.1830047E-06;  3.8777303E-03;
 -2.0000000E-02;  9.9999998E-03;  0.0000000E+00;428;  0.0000000E+00;  0.0000000E+00;  0.0000000E+00;  1.0000000E+03;  4.0000001E-01;  0.0000000E+00;0;  0.0000000E+00;  0.0000000E+00;  0.0000000E+00;0; -9.4899107E-05;  1.0000000E+04;  0.0000000E+00;  0.0000000E+00;  1.0000000E+04;  0.0000000E+00;  1.0000000E+04; -9.6354568E-05;  0.0000000E+00;  1.4554624E-06;  5.2495641E-03;
 -2.0000000E-02;  9.9999998E-03;  2.0000000E-02;429;  0.0000000E+00;  0.0000000E+00;  0.0000000E+00;  1.0000000E+03;  4.0000001E-01;  0.0000000E+00;0;  0.0000000E+00;  0.0000000E+00;  0.0000000E+00;0; -9.4762625E-05;  1.0000000E+04;  0.0000000E+00;  0.0000000E+00;  1.0000000E+04;  0.0000000E+00;  1.0000000E+04; -9.6237738E-05;  0.0000000E+00;  1.4751145E-06;  5.2965116E-03;
 -2.0000000E-02;  9.9999998E-03;  3.9999999E-02;430;  0.0000000E+00;  0.0000000E+00;  0.0000000E+00;  1.0000000E+03;  4.0000001E-01;  0.0000000E+00;0;  0.0000000E+00;  0.0000000E+00;  0.0000000E+00;0; -9.4347954E-05;  1.0000000E+04;  0.0000000E+00;  0.0000000E+00;  1.0000000E+04;  0.0000000E+00;  1.0000000E+04; -9.5880278E-05;  0.0000000E+00;  1.5323213E-06;  5.4351636E-03;
 -2.0000000E-02;  9.9999998E-03;  5.9999999E-02;431;  0.0000000E+00;  0.0000000E+00;  0.0000000E+00;  1.0000000E+03;  4.0000001E-01;  0.0000000E+00;0;  0.0000000E+00;  0.0000000E+00;  0.0000000E+00;0; -9.3638162E-05;  1.0000000E+04;  0.0000000E+00;  0.0000000E+00;  1.0000000E+04;  0.0000000E+00;  1.0000000E+04; -9.5260839E-05;  0.0000000E+00;  1.6226752E-06;  5.6588831E-03;
 -2.0000000E-02;  9.9999998E-03;  7.9999998E-02;432;  0.0000000E+00;  0.0000000E+00;  0.0000000E+00;  1.0000000E+03;  4.0000001E-01;  0.0000000E+00;0;  0.0000000E+00;  0.0000000E+00;  0.0000000E+00;0; -9.2601527E-05;  1.0000000E+04;  0.0000000E+00;  0.0000000E+00;  1.0000000E+04;  0.0000000E+00;  1.0000000E+04; -9.4342351E-05;  0.0000000E+00;  1.7408207E-06;  5.9559420E-03;
 -2.0000000E-02;  9.9999998E-03;  1.0000000E-01;433;  0.0000000E+00;  0.0000000E+00;  0.0000000E+00;  1.0000000E+03;  4.0000001E-01;  0.0000000E+00;0;  0.0000000E+00;  0.0000000E+00;  0.0000000E+00;0; -9.1188340E-05;  1.0000000E+04;  0.0000000E+00;  0.0000000E+00;  1.0000000E+04;  0.0000000E+00;  1.0000000E+04; -9.3069531E-05;  0.0000000E+00;  1.8811917E-06;  6.3072094E-03;
 -2.0000000E-02;  9.9999998E-03;  1.2000000E-01;434;  0.0000000E+00;  0.0000000E+00;  0.0000000E+00;  1.0000000E+03;  4.0000001E-01;  0.0000000E+00;0;  0.0000000E+00;  0.0000000E+00;  0.0000000E+00;0; -8.9330009E-05;  1.0000000E+04;  0.0000000E+00;  0.0000000E+00;  1.0000000E+04;  0.0000000E+00;  1.0000000E+04; -9.1365815E-05;  0.0000000E+00;  2.0358023E-06;  6.6811140E-03;
 -2.0000000E-02;  9.9999998E-03;  1.4000000E-01;435;  0.0000000E+00;  0.0000000E+00;  0.0000000E+00;  1.0000000E+03;  4.0000001E-01;  0.0000000E+00;0;  0.0000000E+00;  0.0000000E+00;  0.0000000E+00;0; -8.6940468E-05;  1.0000000E+04;  0.0000000E+00;  0.0000000E+00;  1.0000000E+04;  0.0000000E+00;  1.0000000E+04; -8.9129469E-05;  0.0000000E+00;  2.1890035E-06;  7.0267282E-03;
 -2.2000000E-01;  9.9999998E-03;  1.6000000E-01;27;  0.0000000E+00;  0.0000000E+00;  0.0000000E+00;  1.0000000E+03;  4.0000001E-01;  0.0000000E+00;0;  0.0000000E+00;  0.0000000E+00;  0.0000000E+00;0;  0.0000000E+00;  1.0000000E+04;  0.0000000E+00;  0.0000000E+00;  1.0000000E+04;  0.0000000E+00;  1.0000000E+04;  0.0000000E+00;  0.0000000E+00;  0.0000000E+00;  0.0000000E+00;
 -2.2000000E-01;  9.9999998E-03;  1.8000001E-01;28;  0.0000000E+00;  0.0000000E+00;  0.0000000E+00;  1.0000000E+03;  4.0000001E-01;  0.0000000E+00;0;  0.0000000E+00;  0.0000000E+00;  0.0000000E+00;0;  0.0000000E+00;  1.0000000E+04;  0.0000000E+00;  0.0000000E+00;  1.0000000E+04;  0.0000000E+00;  1.0000000E+04;  0.0000000E+00;  0.0000000E+00;  0.0000000E+00;  0.0000000E+00;
 -2.2000000E-01;  9.9999998E-03;  2.0000000E-01;29;  0.0000000E+00;  0.0000000E+00;  0.0000000E+00;  1.0000000E+03;  4.0000001E-01;  0.0000000E+00;0;  0.0000000E+00;  0.0000000E+00;  0.0000000E+00;0;  0.0000000E+00;  1.0000000E+04;  0.0000000E+00;  0.0000000E+00;  1.0000000E+04;  0.0000000E+00;  1.0000000E+04;  0.0000000E+00;  0.0000000E+00;  0.0000000E+00;  0.0000000E+00;
 -2.2000000E-01;  9.9999998E-03;  2.2000000E-01;30;  0.0000000E+00;  0.0000000E+00;  0.0000000E+00;  1.0000000E+03;  4.0000001E-01;  0.0000000E+00;0;  0.0000000E+00;  0.0000000E+00;  0.0000000E+00;0;  0.0000000E+00;  1.0000000E+04;  0.0000000E+00;  0.0000000E+00;  1.0000000E+04;  0.0000000E+00;  1.0000000E+04;  0.0000000E+00;  0.0000000E+00;  0.0000000E+00;  0.0000000E+00;
 -2.2000000E-01;  9.9999998E-03;  2.3999999E-01;31;  0.0000000E+00;  0.0000000E+00;  0.0000000E+00;  1.0000000E+03;  4.0000001E-01;  0.0000000E+00;0;  0.0000000E+00;  0.0000000E+00;  0.0000000E+00;0;  0.0000000E+00;  1.0000000E+04;  0.0000000E+00;  0.0000000E+00;  1.0000000E+04;  0.0000000E+00;  1.0000000E+04;  0.0000000E+00;  0.0000000E+00;  0.0000000E+00;  0.0000000E+00;
 -2.2000000E-01;  9.9999998E-03;  2.5999999E-01;32;  0.0000000E+00;  0.0000000E+00;  0.0000000E+00;  1.0000000E+03;  4.0000001E-01;  0.0000000E+00;0;  0.0000000E+00;  0.0000000E+00;  0.0000000E+00;0;  0.0000000E+00;  1.0000000E+04;  0.0000000E+00;  0.0000000E+00;  1.0000000E+04;  0.0000000E+00;  1.0000000E+04;  0.0000000E+00;  0.0000000E+00;  0.0000000E+00;  0.0000000E+00;
 -2.2000000E-01;  9.9999998E-03;  2.8000000E-01;33;  0.0000000E+00;  0.0000000E+00;  0.0000000E+00;  1.0000000E+03;  4.0000001E-01;  0.0000000E+00;0;  0.0000000E+00;  0.0000000E+00;  0.0000000E+00;0;  0.0000000E+00;  1.0000000E+04;  0.0000000E+00;  0.0000000E+00;  1.0000000E+04;  0.0000000E+00;  1.0000000E+04;  0.0000000E+00;  0.0000000E+00;  0.0000000E+00;  0.0000000E+00;
 -2.2000000E-01;  9.9999998E-03;  3.0000001E-01;34;  0.0000000E+00;  0.0000000E+00;  0.0000000E+00;  1.0000000E+03;  4.0000001E-01;  0.0000000E+00;0;  0.0000000E+00;  0.0000000E+00;  0.0000000E+00;0;  0.0000000E+00;  1.0000000E+04;  0.0000000E+00;  0.0000000E+00;  1.0000000E+04;  0.0000000E+00;  1.0000000E+04;  0.0000000E+00;  0.0000000E+00;  0.0000000E+00;  0.0000000E+00;
 -2.2000000E-01;  9.9999998E-03;  3.1999999E-01;35;  0.0000000E+00;  0.0000000E+00;  0.0000000E+00;  1.0000000E+03;  4.0000001E-01;  0.0000000E+00;0;  0.0000000E+00;  0.0000000E+00;  0.0000000E+00;0;  0.0000000E+00;  1.0000000E+04;  0.0000000E+00;  0.0000000E+00;  1.0000000E+04;  0.0000000E+00;  1.0000000E+04;  0.0000000E+00;  0.0000000E+00;  0.0000000E+00;  0.0000000E+00;
 -2.0000000E-01;  9.9999998E-03;  1.6000000E-01;67;  0.0000000E+00;  0.0000000E+00;  0.0000000E+00;  1.0000000E+03;  4.0000001E-01;  0.0000000E+00;0;  0.0000000E+00;  0.0000000E+00;  0.0000000E+00;0;  0.0000000E+00;  1.0000000E+04;  0.0000000E+00;  0.0000000E+00;  1.0000000E+04;  0.0000000E+00;  1.0000000E+04;  0.0000000E+00;  0.0000000E+00;  0.0000000E+00;  0.0000000E+00;
 -2.0000000E-01;  9.9999998E-03;  1.8000001E-01;68;  0.0000000E+00;  0.0000000E+00;  0.0000000E+00;  1.0000000E+03;  4.0000001E-01;  0.0000000E+00;0;  0.0000000E+00;  0.0000000E+00;  0.0000000E+00;0;  0.0000000E+00;  1.0000000E+04;  0.0000000E+00;  0.0000000E+00;  1.0000000E+04;  0.0000000E+00;  1.0000000E+04;  0.0000000E+00;  0.0000000E+00;  0.0000000E+00;  0.0000000E+00;
 -2.0000000E-01;  9.9999998E-03;  2.0000000E-01;69;  0.0000000E+00;  0.0000000E+00;  0.0000000E+00;  1.0000000E+03;  4.0000001E-01;  0.0000000E+00;0;  0.0000000E+00;  0.0000000E+00;  0.0000000E+00;0;  0.0000000E+00;  1.0000000E+04;  0.0000000E+00;  0.0000000E+00;  1.0000000E+04;  0.0000000E+00;  1.0000000E+04;  0.0000000E+00;  0.0000000E+00;  0.0000000E+00;  0.0000000E+00;
 -2.0000000E-01;  9.9999998E-03;  2.2000000E-01;70;  0.0000000E+00;  0.0000000E+00;  0.0000000E+00;  1.0000000E+03;  4.0000001E-01;  0.0000000E+00;0;  0.0000000E+00;  0.0000000E+00;  0.0000000E+00;0;  0.0000000E+00;  1.0000000E+04;  0.0000000E+00;  0.0000000E+00;  1.0000000E+04;  0.0000000E+00;  1.0000000E+04;  0.0000000E+00;  0.0000000E+00;  0.0000000E+00;  0.0000000E+00;
 -2.0000000E-01;  9.9999998E-03;  2.3999999E-01;71;  0.0000000E+00;  0.0000000E+00;  0.0000000E+00;  1.0000000E+03;  4.0000001E-01;  0.0000000E+00;0;  0.0000000E+00;  0.0000000E+00;  0.0000000E+00;0;  0.0000000E+00;  1.0000000E+04;  0.0000000E+00;  0.0000000E+00;  1.0000000E+04;  0.0000000E+00;  1.0000000E+04;  0.0000000E+00;  0.0000000E+00;  0.0000000E+00;  0.0000000E+00;
 -2.0000000E-01;  9.9999998E-03;  2.5999999E-01;72;  0.0000000E+00;  0.0000000E+00;  0.0000000E+00;  1.0000000E+03;  4.0000001E-01;  0.0000000E+00;0;  0.0000000E+00;  0.0000000E+00;  0.0000000E+00;0;  0.0000000E+00;  1.0000000E+04;  0.0000000E+00;  0.0000000E+00;  1.0000000E+04;  0.0000000E+00;  1.0000000E+04;  0.0000000E+00;  0.0000000E+00;  0.0000000E+00;  0.0000000E+00;
 -2.0000000E-01;  9.9999998E-03;  2.8000000E-01;73;  0.0000000E+00;  0.0000000E+00;  0.0000000E+00;  1.0000000E+03;  4.0000001E-01;  0.0000000E+00;0;  0.0000000E+00;  0.0000000E+00;  0.0000000E+00;0;  0.0000000E+00;  1.0000000E+04;  0.0000000E+00;  0.0000000E+00;  1.0000000E+04;  0.0000000E+00;  1.0000000E+04;  0.0000000E+00;  0.0000000E+00;  0.0000000E+00;  0.0000000E+00;
 -2.0000000E-01;  9.9999998E-03;  3.0000001E-01;74;  0.0000000E+00;  0.0000000E+00;  0.0000000E+00;  1.0000000E+03;  4.0000001E-01;  0.0000000E+00;0;  0.0000000E+00;  0.0000000E+00;  0.0000000E+00;0;  0.0000000E+00;  1.0000000E+04;  0.0000000E+00;  0.0000000E+00;  1.0000000E+04;  0.0000000E+00;  1.0000000E+04;  0.0000000E+00;  0.0000000E+00;  0.0000000E+00;  0.0000000E+00;
 -2.0000000E-01;  9.9999998E-03;  3.1999999E-01;75;  0.0000000E+00;  0.0000000E+00;  0.0000000E+00;  1.0000000E+03;  4.0000001E-01;  0.0000000E+00;0;  0.0000000E+00;  0.0000000E+00;  0.0000000E+00;0;  0.0000000E+00;  1.0000000E+04;  0.0000000E+00;  0.0000000E+00;  1.0000000E+04;  0.0000000E+00;  1.0000000E+04;  0.0000000E+00;  0.0000000E+00;  0.0000000E+00;  0.0000000E+00;
 -1.8000001E-01;  9.9999998E-03;  1.6000000E-01;108;  0.0000000E+00;  0.0000000E+00;  0.0000000E+00;  1.0000000E+03;  4.0000001E-01;  0.0000000E+00;0;  0.0000000E+00;  0.0000000E+00;  0.0000000E+00;0;  0.0000000E+00;  1.0000000E+04;  0.0000000E+00;  0.0000000E+00;  1.0000000E+04;  0.0000000E+00;  1.0000000E+04;  0.0000000E+00;  0.0000000E+00;  0.0000000E+00;  0.0000000E+00;
 -1.8000001E-01;  9.9999998E-03;  1.8000001E-01;109;  0.0000000E+00;  0.0000000E+00;  0.0000000E+00;  1.0000000E+03;  4.0000001E-01;  0.0000000E+00;0;  0.0000000E+00;  0.0000000E+00;  0.0000000E+00;0;  0.0000000E+00;  1.0000000E+04;  0.0000000E+00;  0.0000000E+00;  1.0000000E+04;  0.0000000E+00;  1.0000000E+04;  0.0000000E+00;  0.0000000E+00;  0.0000000E+00;  0.0000000E+00;
 -1.8000001E-01;  9.9999998E-03;  2.0000000E-01;110;  0.0000000E+00;  0.0000000E+00;  0.0000000E+00;  1.0000000E+03;  4.0000001E-01;  0.0000000E+00;0;  0.0000000E+00;  0.0000000E+00;  0.0000000E+00;0;  0.0000000E+00;  1.0000000E+04;  0.0000000E+00;  0.0000000E+00;  1.0000000E+04;  0.0000000E+00;  1.0000000E+04;  0.0000000E+00;  0.0000000E+00;  0.0000000E+00;  0.0000000E+00;
 -1.8000001E-01;  9.9999998E-03;  2.2000000E-01;111;  0.0000000E+00;  0.0000000E+00;  0.0000000E+00;  1.0000000E+03;  4.0000001E-01;  0.0000000E+00;0;  0.0000000E+00;  0.0000000E+00;  0.0000000E+00;0;  0.0000000E+00;  1.0000000E+04;  0.0000000E+00;  0.0000000E+00;  1.0000000E+04;  0.0000000E+00;  1.0000000E+04;  0.0000000E+00;  0.0000000E+00;  0.0000000E+00;  0.0000000E+00;
 -1.8000001E-01;  9.9999998E-03;  2.3999999E-01;112;  0.0000000E+00;  0.0000000E+00;  0.0000000E+00;  1.0000000E+03;  4.0000001E-01;  0.0000000E+00;0;  0.0000000E+00;  0.0000000E+00;  0.0000000E+00;0;  0.0000000E+00;  1.0000000E+04;  0.0000000E+00;  0.0000000E+00;  1.0000000E+04;  0.0000000E+00;  1.0000000E+04;  0.0000000E+00;  0.0000000E+00;  0.0000000E+00;  0.0000000E+00;
 -1.8000001E-01;  9.9999998E-03;  2.5999999E-01;113;  0.0000000E+00;  0.0000000E+00;  0.0000000E+00;  1.0000000E+03;  4.0000001E-01;  0.0000000E+00;0;  0.0000000E+00;  0.0000000E+00;  0.0000000E+00;0;  0.0000000E+00;  1.0000000E+04;  0.0000000E+00;  0.0000000E+00;  1.0000000E+04;  0.0000000E+00;  1.0000000E+04;  0.0000000E+00;  0.0000000E+00;  0.0000000E+00;  0.0000000E+00;
 -1.8000001E-01;  9.9999998E-03;  2.8000000E-01;114;  0.0000000E+00;  0.0000000E+00;  0.0000000E+00;  1.0000000E+03;  4.0000001E-01;  0.0000000E+00;0;  0.0000000E+00;  0.0000000E+00;  0.0000000E+00;0;  0.0000000E+00;  1.0000000E+04;  0.0000000E+00;  0.0000000E+00;  1.0000000E+04;  0.0000000E+00;  1.0000000E+04;  0.0000000E+00;  0.0000000E+00;  0.0000000E+00;  0.0000000E+00;
 -1.8000001E-01;  9.9999998E-03;  3.0000001E-01;115;  0.0000000E+00;  0.0000000E+00;  0.0000000E+00;  1.0000000E+03;  4.0000001E-01;  0.0000000E+00;0;  0.0000000E+00;  0.0000000E+00;  0.0000000E+00;0;  0.0000000E+00;  1.0000000E+04;  0.0000000E+00;  0.0000000E+00;  1.0000000E+04;  0.0000000E+00;  1.0000000E+04;  0.0000000E+00;  0.0000000E+00;  0.0000000E+00;  0.0000000E+00;
 -1.8000001E-01;  9.9999998E-03;  3.1999999E-01;116;  0.0000000E+00;  0.0000000E+00;  0.0000000E+00;  1.0000000E+03;  4.0000001E-01;  0.0000000E+00;0;  0.0000000E+00;  0.0000000E+00;  0.0000000E+00;0;  0.0000000E+00;  1.0000000E+04;  0.0000000E+00;  0.0000000E+00;  1.0000000E+04;  0.0000000E+00;  1.0000000E+04;  0.0000000E+00;  0.0000000E+00;  0.0000000E+00;  0.0000000E+00;
 -1.6000000E-01;  9.9999998E-03;  1.6000000E-01;149;  0.0000000E+00;  0.0000000E+00;  0.0000000E+00;  1.0000000E+03;  4.0000001E-01;  0.0000000E+00;0;  0.0000000E+00;  0.0000000E+00;  0.0000000E+00;0; -8.6975938E-09;  1.0000000E+04;  0.0000000E+00;  0.0000000E+00;  1.0000000E+04;  0.0000000E+00;  1.0000000E+04; -8.7106509E-09;  0.0000000E+00;  1.3056759E-11;  1.9469076E-07;
 -1.6000000E-01;  9.9999998E-03;  1.8000001E-01;150;  0.0000000E+00;  0.0000000E+00;  0.0000000E+00;  1.0000000E+03;  4.0000001E-01;  0.0000000E+00;0;  0.0000000E+00;  0.0000000E+00;  0.0000000E+00;0; -8.3186036E-09;  1.0000000E+04;  0.0000000E+00;  0.0000000E+00;  1.0000000E+04;  0.0000000E+00;  1.0000000E+04; -8.3328580E-09;  0.0000000E+00;  1.4254206E-11;  1.8917437E-07;
 -1.6000000E-01;  9.9999998E-03;  2.0000000E-01;151;  0.0000000E+00;  0.0000000E+00;  0.0000000E+00;  1.0000000E+03;  4.0000001E-01;  0.0000000E+00;0;  0.0000000E+00;  0.0000000E+00;  0.0000000E+00;0; -7.8456894E-09;  1.0000000E+04;  0.0000000E+00;  0.0000000E+00;  1.0000000E+04;  0.0000000E+00;  1.0000000E+04; -7.8605629E-09;  0.0000000E+00;  1.4873620E-11;  1.8053143E-07;
 -1.6000000E-01;  9.9999998E-03;  2.2000000E-01;152;  0.0000000E+00;  0.0000000E+00;  0.0000000E+00;  1.0000000E+03;  4.0000001E-01;  0.0000000E+00;0;  0.0000000E+00;  0.0000000E+00;  0.0000000E+00;0; -7.2614816E-09;  1.0000000E+04;  0.0000000E+00;  0.0000000E+00;  1.0000000E+04;  0.0000000E+00;  1.0000000E+04; -7.2757862E-09;  0.0000000E+00;  1.4304604E-11;  1.6751900E-07;
 -1.6000000E-01;  9.9999998E-03;  2.3999999E-01;153;  0.0000000E+00;  0.0000000E+00;  0.0000000E+00;  1.0000000E+03;  4.0000001E-01;  0.0000000E+00;0;  0.0000000E+00;  0.0000000E+00;  0.0000000E+00;0; -6.5484111E-09;  1.0000000E+04;  0.0000000E+00;  0.0000000E+00;  1.0000000E+04;  0.0000000E+00;  1.0000000E+04; -6.5606658E-09;  0.0000000E+00;  1.2254777E-11;  1.4946883E-07;
 -1.6000000E-01;  9.9999998E-03;  2.5999999E-01;154;  0.0000000E+00;  0.0000000E+00;  0.0000000E+00;  1.0000000E+03;  4.0000001E-01;  0.0000000E+00;0;  0.0000000E+00;  0.0000000E+00;  0.0000000E+00;0; -5.5417022E-09;  1.0000000E+04;  0.0000000E+00;  0.0000000E+00;  1.0000000E+04;  0.0000000E+00;  1.0000000E+04; -5.5341745E-09;  0.0000000E+00; -7.5278776E-12;  8.8132524E-08;
 -1.6000000E-01;  9.9999998E-03;  2.8000000E-01;155;  0.0000000E+00;  0.0000000E+00;  0.0000000E+00;  1.0000000E+03;  4.0000001E-01;  0.0000000E+00;0;  0.0000000E+00;  0.0000000E+00;  0.0000000E+00;0; -3.7183903E-09;  1.0000000E+04;  0.0000000E+00;  0.0000000E+00;  1.0000000E+04;  0.0000000E+00;  1.0000000E+04; -3.6611318E-09;  0.0000000E+00; -5.7258472E-11;  5.9933328E-08;
 -1.6000000E-01;  9.9999998E-03;  3.0000001E-01;156;  0.0000000E+00;  0.0000000E+00;  0.0000000E+00;  1.0000000E+03;  4.0000001E-01;  0.0000000E+00;0;  0.0000000E+00;  0.0000000E+00;  0.0000000E+00;0; -1.5744722E-09;  1.0000000E+04;  0.0000000E+00;  0.0000000E+00;  1.0000000E+04;  0.0000000E+00;  1.0000000E+04; -1.5112624E-09;  0.0000000E+00; -6.3209778E-11;  1.1187348E-07;
 -1.6000000E-01;  9.9999998E-03;  3.1999999E-01;157;  0.0000000E+00;  0.0000000E+00;  0.0000000E+00;  1.0000000E+03;  4.0000001E-01;  0.0000000E+00;0;  0.0000000E+00;  0.0000000E+00;  0.0000000E+00;0; -2.4728330E-10;  1.0000000E+04;  0.0000000E+00;  0.0000000E+00;  1.0000000E+04;  0.0000000E+00;  1.0000000E+04; -2.2856733E-10;  0.0000000E+00; -1.8715982E-11;  3.6292892E-08;
 -1.4000000E-01;  9.9999998E-03;  1.6000000E-01;190;  0.0000000E+00;  0.0000000E+00;  0.0000000E+00;  1.0000000E+03;  4.0000001E-01;  0.0000000E+00;0;  0.0000000E+00;  0.0000000E+00;  0.0000000E+00;0; -3.1879375E-07;  1.0000000E+04;  0.0000000E+00;  0.0000000E+00;  1.0000000E+04;  0.0000000E+00;  1.0000000E+04; -3.2044036E-07;  0.0000000E+00;  1.6466077E-09;  9.7467509E-06;
 -1.4000000E-01;  9.9999998E-03;  1.8000001E-01;191;  0.0000000E+00;  0.0000000E+00;  0.0000000E+00;  1.0000000E+03;  4.0000001E-01;  0.0000000E+00;0;  0.0000000E+00;  0.0000000E+00;  0.0000000E+00;0; -3.0424619E-07;  1.0000000E+04;  0.0000000E+00;  0.0000000E+00;  1.0000000E+04;  0.0000000E+00;  1.0000000E+04; -3.0600074E-07;  0.0000000E+00;  1.7545686E-09;  9.6520762E-06;
 -1.4000000E-01;  9.9999998E-03;  2.0000000E-01;192;  0.0000000E+00;  0.0000000E+00;  0.0000000E+00;  1.0000000E+03;  4.0000001E-01;  0.0000000E+00;0;  0.0000000E+00;  0.0000000E+00;  0.0000000E+00;0; -2.8624751E-07;  1.0000000E+04;  0.0000000E+00;  0.0000000E+00;  1.0000000E+04;  0.0000000E+00;  1.0000000E+04; -2.8803532E-07;  0.0000000E+00;  1.7878173E-09;  9.3159724E-06;
 -1.4000000E-01;  9.9999998E-03;  2.2000000E-01;193;  0.0000000E+00;  0.0000000E+00;  0.0000000E+00;  1.0000000E+03;  4.0000001E-01;  0.0000000E+00;0;  0.0000000E+00;  0.0000000E+00;  0.0000000E+00;0; -2.6369850E-07;  1.0000000E+04;  0.0000000E+00;  0.0000000E+00;  1.0000000E+04;  0.0000000E+00;  1.0000000E+04; -2.6521681E-07;  0.0000000E+00;  1.5183088E-09;  8.2628630E-06;
 -1.4000000E-01;  9.9999998E-03;  2.3999999E-01;194;  0.0000000E+00;  0.0000000E+00;  0.0000000E+00;  1.0000000E+03;  4.0000001E-01;  0.0000000E+00;0;  0.0000000E+00;  0.0000000E+00;  0.0000000E+00;0; -2.3240592E-07;  1.0000000E+04;  0.0000000E+00;  0.0000000E+00;  1.0000000E+04;  0.0000000E+00;  1.0000000E+04; -2.3254788E-07;  0.0000000E+00;  1.4195640E-10;  4.6885229E-06;
 -1.4000000E-01;  9.9999998E-03;  2.5999999E-01;195;  0.0000000E+00;  0.0000000E+00;  0.0000000E+00;  1.0000000E+03;  4.0000001E-01;  0.0000000E+00;0;  0.0000000E+00;  0.0000000E+00;  0.0000000E+00;0; -1.8907336E-07;  1.0000000E+04;  0.0000000E+00;  0.0000000E+00;  1.0000000E+04;  0.0000000E+00;  1.0000000E+04; -1.8684571E-07;  0.0000000E+00; -2.2276569E-09;  1.2405005E-06;
 -1.4000000E-01;  9.9999998E-03;  2.8000000E-01;196;  0.0000000E+00;  0.0000000E+00;  0.0000000E+00;  1.0000000E+03;  4.0000001E-01;  0.0000000E+00;0;  0.0000000E+00;  0.0000000E+00;  0.0000000E+00;0; -1.3621926E-07;  1.0000000E+04;  0.0000000E+00;  0.0000000E+00;  1.0000000E+04;  0.0000000E+00;  1.0000000E+04; -1.3190527E-07;  0.0000000E+00; -4.3139856E-09;  6.7620299E-06;
 -1.4000000E-01;  9.9999998E-03;  3.0000001E-01;197;  0.0000000E+00;  0.0000000E+00;  0.0000000E+00;  1.0000000E+03;  4.0000001E-01;  0.0000000E+00;0;  0.0000000E+00;  0.0000000E+00;  0.0000000E+00;0; -8.2456857E-08;  1.0000000E+04;  0.0000000E+00;  0.0000000E+00;  1.0000000E+04;  0.0000000E+00;  1.0000000E+04; -7.7526543E-08;  0.0000000E+00; -4.9303113E-09;  9.2022074E-06;
 -1.4000000E-01;  9.9999998E-03;  3.1999999E-01;198;  0.0000000E+00;  0.0000000E+00;  0.0000000E+00;  1.0000000E+03;  4.0000001E-01;  0.0000000E+00;0;  0.0000000E+00;  0.0000000E+00;  0.0000000E+00;0; -3.8692122E-08;  1.0000000E+04;  0.0000000E+00;  0.0000000E+00;  1.0000000E+04;  0.0000000E+00;  1.0000000E+04; -3.4895464E-08;  0.0000000E+00; -3.7966577E-09;  7.5986213E-06;
 -1.2000000E-01;  9.9999998E-03;  1.6000000E-01;231;  0.0000000E+00;  0.0000000E+00;  0.0000000E+00;  1.0000000E+03;  4.0000001E-01;  0.0000000E+00;0;  0.0000000E+00;  0.0000000E+00;  0.0000000E+00;0; -1.8021053E-06;  1.0000000E+04;  0.0000000E+00;  0.0000000E+00;  1.0000000E+04;  0.0000000E+00;  1.0000000E+04; -1.8182030E-06;  0.0000000E+00;  1.6097768E-08;  7.0537419E-05;
 -1.2000000E-01;  9.9999998E-03;  1.8000001E-01;232;  0.0000000E+00;  0.0000000E+00;  0.0000000E+00;  1.0000000E+03;  4.0000001E-01;  0.0000000E+00;0;  0.0000000E+00;  0.0000000E+00;  0.0000000E+00;0; -1.7180651E-06;  1.0000000E+04;  0.0000000E+00;  0.0000000E+00;  1.0000000E+04;  0.0000000E+00;  1.0000000E+04; -1.7349793E-06;  0.0000000E+00;  1.6914198E-08;  7.0384645E-05;
 -1.2000000E-01;  9.9999998E-03;  2.0000000E-01;233;  0.0000000E+00;  0.0000000E+00;  0.0000000E+00;  1.0000000E+03;  4.0000001E-01;  0.0000000E+00;0;  0.0000000E+00;  0.0000000E+00;  0.0000000E+00;0; -1.6131380E-06;  1.0000000E+04;  0.0000000E+00;  0.0000000E+00;  1.0000000E+04;  0.0000000E+00;  1.0000000E+04; -1.6292342E-06;  0.0000000E+00;  1.6096221E-08;  6.6189707E-05;
 -1.2000000E-01;  9.9999998E-03;  2.2000000E-01;234;  0.0000000E+00;  0.0000000E+00;  0.0000000E+00;  1.0000000E+03;  4.0000001E-01;  0.0000000E+00;0;  0.0000000E+00;  0.0000000E+00;  0.0000000E+00;0; -1.4774289E-06;  1.0000000E+04;  0.0000000E+00;  0.0000000E+00;  1.0000000E+04;  0.0000000E+00;  1.0000000E+04; -1.4877635E-06;  0.0000000E+00;  1.0334608E-08;  5.0834442E-05;
 -1.2000000E-01;  9.9999998E-03;  2.3999999E-01;235;  0.0000000E+00;  0.0000000E+00;  0.0000000E+00;  1.0000000E+03;  4.0000001E-01;  0.0000000E+00;0;  0.0000000E+00;  0.0000000E+00;  0.0000000E+00;0; -1.3002815E-06;  1.0000000E+04;  0.0000000E+00;  0.0000000E+00;  1.0000000E+04;  0.0000000E+00;  1.0000000E+04; -1.2985506E-06;  0.0000000E+00; -1.7309112E-09;  2.1231173E-05;
 -1.2000000E-01;  9.9999998E-03;  2.5999999E-01;236;  0.0000000E+00;  0.0000000E+00;  0.0000000E+00;  1.0000000E+03;  4.0000001E-01;  0.0000000E+00;0;  0.0000000E+00;  0.0000000E+00;  0.0000000E+00;0; -1.0766373E-06;  1.0000000E+04;  0.0000000E+00;  0.0000000E+00;  1.0000000E+04;  0.0000000E+00;  1.0000000E+04; -1.0586773E-06;  0.0000000E+00; -1.7959977E-08;  1.8256475E-05;
 -1.2000000E-01;  9.9999998E-03;  2.8000000E-01;237;  0.0000000E+00;  0.0000000E+00;  0.0000000E+00;  1.0000000E+03;  4.0000001E-01;  0.0000000E+00;0;  0.0000000E+00;  0.0000000E+00;  0.0000000E+00;0; -8.1701626E-07;  1.0000000E+04;  0.0000000E+00;  0.0000000E+00;  1.0000000E+04;  0.0000000E+00;  1.0000000E+04; -7.8453314E-07;  0.0000000E+00; -3.2483108E-08;  5.4856049E-05;
 -1.2000000E-01;  9.9999998E-03;  3.0000001E-01;238;  0.0000000E+00;  0.0000000E+00;  0.0000000E+00;  1.0000000E+03;  4.0000001E-01;  0.0000000E+00;0;  0.0000000E+00;  0.0000000E+00;  0.0000000E+00;0; -5.5210336E-07;  1.0000000E+04;  0.0000000E+00;  0.0000000E+00;  1.0000000E+04;  0.0000000E+00;  1.0000000E+04; -5.1249719E-07;  0.0000000E+00; -3.9606142E-08;  7.5694945E-05;
 -1.2000000E-01;  9.9999998E-03;  3.1999999E-01;239;  0.0000000E+00;  0.0000000E+00;  0.0000000E+00;  1.0000000E+03;  4.0000001E-01;  0.0000000E+00;0;  0.0000000E+00;  0.0000000E+00;  0.0000000E+00;0; -3.2103404E-07;  1.0000000E+04;  0.0000000E+00;  0.0000000E+00;  1.0000000E+04;  0.0000000E+00;  1.0000000E+04; -2.8410304E-07;  0.0000000E+00; -3.6930999E-08;  7.4695694E-05;
 -1.0000000E-01;  9.9999998E-03;  1.6000000E-01;272;  0.0000000E+00;  0.0000000E+00;  0.0000000E+00;  1.0000000E+03;  4.0000001E-01;  0.0000000E+00;0;  0.0000000E+00;  0.0000000E+00;  0.0000000E+00;0; -5.9240183E-06;  1.0000000E+04;  0.0000000E+00;  0.0000000E+00;  1.0000000E+04;  0.0000000E+00;  1.0000000E+04; -5.9992085E-06;  0.0000000E+00;  7.5190123E-08;  2.8370312E-04;
 -1.0000000E-01;  9.9999998E-03;  1.8000001E-01;273;  0.0000000E+00;  0.0000000E+00;  0.0000000E+00;  1.0000000E+03;  4.0000001E-01;  0.0000000E+00;0;  0.0000000E+00;  0.0000000E+00;  0.0000000E+00;0; -5.6441436E-06;  1.0000000E+04;  0.0000000E+00;  0.0000000E+00;  1.0000000E+04;  0.0000000E+00;  1.0000000E+04; -5.7213069E-06;  0.0000000E+00;  7.7163165E-08;  2.8165831E-04;
 -1.0000000E-01;  9.9999998E-03;  2.0000000E-01;274;  0.0000000E+00;  0.0000000E+00;  0.0000000E+00;  1.0000000E+03;  4.0000001E-01;  0.0000000E+00;0;  0.0000000E+00;  0.0000000E+00;  0.0000000E+00;0; -5.2929036E-06;  1.0000000E+04;  0.0000000E+00;  0.0000000E+00;  1.0000000E+04;  0.0000000E+00;  1.0000000E+04; -5.3615349E-06;  0.0000000E+00;  6.8631408E-08;  2.5501451E-04;
 -1.0000000E-01;  9.9999998E-03;  2.2000000E-01;275;  0.0000000E+00;  0.0000000E+00;  0.0000000E+00;  1.0000000E+03;  4.0000001E-01;  0.0000000E+00;0;  0.0000000E+00;  0.0000000E+00;  0.0000000E+00;0; -4.8487336E-06;  1.0000000E+04;  0.0000000E+00;  0.0000000E+00;  1.0000000E+04;  0.0000000E+00;  1.0000000E+04; -4.8903080E-06;  0.0000000E+00;  4.1574438E-08;  1.8659678E-04;
 -1.0000000E-01;  9.9999998E-03;  2.3999999E-01;276;  0.0000000E+00;  0.0000000E+00;  0.0000000E+00;  1.0000000E+03;  4.0000001E-01;  0.0000000E+00;0;  0.0000000E+00;  0.0000000E+00;  0.0000000E+00;0; -4.2892079E-06;  1.0000000E+04;  0.0000000E+00;  0.0000000E+00;  1.0000000E+04;  0.0000000E+00;  1.0000000E+04; -4.2815386E-06;  0.0000000E+00; -7.6695414E-09;  6.7919311E-05;
 -1.0000000E-01;  9.9999998E-03;  2.5999999E-01;277;  0.0000000E+00;  0.0000000E+00;  0.0000000E+00;  1.0000000E+03;  4.0000001E-01;  0.0000000E+00;0;  0.0000000E+00;  0.0000000E+00;  0.0000000E+00;0; -3.6037666E-06;  1.0000000E+04;  0.0000000E+00;  0.0000000E+00;  1.0000000E+04;  0.0000000E+00;  1.0000000E+04; -3.5322878E-06;  0.0000000E+00; -7.1478716E-08;  8.5317348E-05;
 -1.0000000E-01;  9.9999998E-03;  2.8000000E-01;278;  0.0000000E+00;  0.0000000E+00;  0.0000000E+00;  1.0000000E+03;  4.0000001E-01;  0.0000000E+00;0;  0.0000000E+00;  0.0000000E+00;  0.0000000E+00;0; -2.8178783E-06;  1.0000000E+04;  0.0000000E+00;  0.0000000E+00;  1.0000000E+04;  0.0000000E+00;  1.0000000E+04; -2.6874989E-06;  0.0000000E+00; -1.3037953E-07;  2.3045621E-04;
 -1.0000000E-01;  9.9999998E-03;  3.0000001E-01;279;  0.0000000E+00;  0.0000000E+00;  0.0000000E+00;  1.0000000E+03;  4.0000001E-01;  0.0000000E+00;0;  0.0000000E+00;  0.0000000E+00;  0.0000000E+00;0; -2.0092157E-06;  1.0000000E+04;  0.0000000E+00;  0.0000000E+00;  1.0000000E+04;  0.0000000E+00;  1.0000000E+04; -1.8437570E-06;  0.0000000E+00; -1.6545869E-07;  3.2427389E-04;
 -1.0000000E-01;  9.9999998E-03;  3.1999999E-01;280;  0.0000000E+00;  0.0000000E+00;  0.0000000E+00;  1.0000000E+03;  4.0000001E-01;  0.0000000E+00;0;  0.0000000E+00;  0.0000000E+00;  0.0000000E+00;0; -1.2822383E-06;  1.0000000E+04;  0.0000000E+00;  0.0000000E+00;  1.0000000E+04;  0.0000000E+00;  1.0000000E+04; -1.1145808E-06;  0.0000000E+00; -1.6765749E-07;  3.4427180E-04;
 -7.9999998E-02;  9.9999998E-03;  1.6000000E-01;313;  0.0000000E+00;  0.0000000E+00;  0.0000000E+00;  1.0000000E+03;  4.0000001E-01;  0.0000000E+00;0;  0.0000000E+00;  0.0000000E+00;  0.0000000E+00;0; -1.4673599E-05;  1.0000000E+04;  0.0000000E+00;  0.0000000E+00;  1.0000000E+04;  0.0000000E+00;  1.0000000E+04; -1.4912223E-05;  0.0000000E+00;  2.3862421E-07;  8.2904182E-04;
 -7.9999998E-02;  9.9999998E-03;  1.8000001E-01;314;  0.0000000E+00;  0.0000000E+00;  0.0000000E+00;  1.0000000E+03;  4.0000001E-01;  0.0000000E+00;0;  0.0000000E+00;  0.0000000E+00;  0.0000000E+00;0; -1.3978920E-05;  1.0000000E+04;  0.0000000E+00;  0.0000000E+00;  1.0000000E+04;  0.0000000E+00;  1.0000000E+04; -1.4218442E-05;  0.0000000E+00;  2.3952191E-07;  8.1568694E-04;
 -7.9999998E-02;  9.9999998E-03;  2.0000000E-01;315;  0.0000000E+00;  0.0000000E+00;  0.0000000E+00;  1.0000000E+03;  4.0000001E-01;  0.0000000E+00;0;  0.0000000E+00;  0.0000000E+00;  0.0000000E+00;0; -1.3114451E-05;  1.0000000E+04;  0.0000000E+00;  0.0000000E+00;  1.0000000E+04;  0.0000000E+00;  1.0000000E+04; -1.3323689E-05;  0.0000000E+00;  2.0923868E-07;  7.2965404E-04;
 -7.9999998E-02;  9.9999998E-03;  2.2000000E-01;316;  0.0000000E+00;  0.0000000E+00;  0.0000000E+00;  1.0000000E+03;  4.0000001E-01;  0.0000000E+00;0;  0.0000000E+00;  0.0000000E+00;  0.0000000E+00;0; -1.2039482E-05;  1.0000000E+04;  0.0000000E+00;  0.0000000E+00;  1.0000000E+04;  0.0000000E+00;  1.0000000E+04; -1.2166217E-05;  0.0000000E+00;  1.2673551E-07;  5.2516273E-04;
 -7.9999998E-02;  9.9999998E-03;  2.3999999E-01;317;  0.0000000E+00;  0.0000000E+00;  0.0000000E+00;  1.0000000E+03;  4.0000001E-01;  0.0000000E+00;0;  0.0000000E+00;  0.0000000E+00;  0.0000000E+00;0; -1.0708826E-05;  1.0000000E+04;  0.0000000E+00;  0.0000000E+00;  1.0000000E+04;  0.0000000E+00;  1.0000000E+04; -1.0691305E-05;  0.0000000E+00; -1.7521502E-08;  1.7949153E-04;
 -7.9999998E-02;  9.9999998E-03;  2.5999999E-01;318;  0.0000000E+00;  0.0000000E+00;  0.0000000E+00;  1.0000000E+03;  4.0000001E-01;  0.0000000E+00;0;  0.0000000E+00;  0.0000000E+00;  0.0000000E+00;0; -9.0972790E-06;  1.0000000E+04;  0.0000000E+00;  0.0000000E+00;  1.0000000E+04;  0.0000000E+00;  1.0000000E+04; -8.8946672E-06;  0.0000000E+00; -2.0261193E-07;  2.6371930E-04;
 -7.9999998E-02;  9.9999998E-03;  2.8000000E-01;319;  0.0000000E+00;  0.0000000E+00;  0.0000000E+00;  1.0000000E+03;  4.0000001E-01;  0.0000000E+00;0;  0.0000000E+00;  0.0000000E+00;  0.0000000E+00;0; -7.2517378E-06;  1.0000000E+04;  0.0000000E+00;  0.0000000E+00;  1.0000000E+04;  0.0000000E+00;  1.0000000E+04; -6.8744657E-06;  0.0000000E+00; -3.7727219E-07;  6.9090351E-04;
 -7.9999998E-02;  9.9999998E-03;  3.0000001E-01;320;  0.0000000E+00;  0.0000000E+00;  0.0000000E+00;  1.0000000E+03;  4.0000001E-01;  0.0000000E+00;0;  0.0000000E+00;  0.0000000E+00;  0.0000000E+00;0; -5.3358726E-06;  1.0000000E+04;  0.0000000E+00;  0.0000000E+00;  1.0000000E+04;  0.0000000E+00;  1.0000000E+04; -4.8441689E-06;  0.0000000E+00; -4.9170370E-07;  9.8718423E-04;
 -7.9999998E-02;  9.9999998E-03;  3.1999999E-01;321;  0.0000000E+00;  0.0000000E+00;  0.0000000E+00;  1.0000000E+03;  4.0000001E-01;  0.0000000E+00;0;  0.0000000E+00;  0.0000000E+00;  0.0000000E+00;0; -3.5808571E-06;  1.0000000E+04;  0.0000000E+00;  0.0000000E+00;  1.0000000E+04;  0.0000000E+00;  1.0000000E+04; -3.0600654E-06;  0.0000000E+00; -5.2079173E-07;  1.0900161E-03;
 -5.9999999E-02;  9.9999998E-03;  1.6000000E-01;354;  0.0000000E+00;  0.0000000E+00;  0.0000000E+00;  1.0000000E+03;  4.0000001E-01;  0.0000000E+00;0;  0.0000000E+00;  0.0000000E+00;  0.0000000E+00;0; -2.9984369E-05;  1.0000000E+04;  0.0000000E+00;  0.0000000E+00;  1.0000000E+04;  0.0000000E+00;  1.0000000E+04; -3.0577230E-05;  0.0000000E+00;  5.9286100E-07;  1.9598615E-03;
 -5.9999999E-02;  9.9999998E-03;  1.8000001E-01;355;  0.0000000E+00;  0.0000000E+00;  0.0000000E+00;  1.0000000E+03;  4.0000001E-01;  0.0000000E+00;0;  0.0000000E+00;  0.0000000E+00;  0.0000000E+00;0; -2.8579976E-05;  1.0000000E+04;  0.0000000E+00;  0.0000000E+00;  1.0000000E+04;  0.0000000E+00;  1.0000000E+04; -2.9170556E-05;  0.0000000E+00;  5.9058061E-07;  1.9249421E-03;
 -5.9999999E-02;  9.9999998E-03;  2.0000000E-01;356;  0.0000000E+00;  0.0000000E+00;  0.0000000E+00;  1.0000000E+03;  4.0000001E-01;  0.0000000E+00;0;  0.0000000E+00;  0.0000000E+00;  0.0000000E+00;0; -2.6846941E-05;  1.0000000E+04;  0.0000000E+00;  0.0000000E+00;  1.0000000E+04;  0.0000000E+00;  1.0000000E+04; -2.7361799E-05;  0.0000000E+00;  5.1485790E-07;  1.7182784E-03;
 -5.9999999E-02;  9.9999998E-03;  2.2000000E-01;357;  0.0000000E+00;  0.0000000E+00;  0.0000000E+00;  1.0000000E+03;  4.0000001E-01;  0.0000000E+00;0;  0.0000000E+00;  0.0000000E+00;  0.0000000E+00;0; -2.4716004E-05;  1.0000000E+04;  0.0000000E+00;  0.0000000E+00;  1.0000000E+04;  0.0000000E+00;  1.0000000E+04; -2.5033019E-05;  0.0000000E+00;  3.1701512E-07;  1.2314684E-03;
 -5.9999999E-02;  9.9999998E-03;  2.3999999E-01;358;  0.0000000E+00;  0.0000000E+00;  0.0000000E+00;  1.0000000E+03;  4.0000001E-01;  0.0000000E+00;0;  0.0000000E+00;  0.0000000E+00;  0.0000000E+00;0; -2.2103151E-05;  1.0000000E+04;  0.0000000E+00;  0.0000000E+00;  1.0000000E+04;  0.0000000E+00;  1.0000000E+04; -2.2078919E-05;  0.0000000E+00; -2.4231738E-08;  4.1235122E-04;
 -5.9999999E-02;  9.9999998E-03;  2.5999999E-01;359;  0.0000000E+00;  0.0000000E+00;  0.0000000E+00;  1.0000000E+03;  4.0000001E-01;  0.0000000E+00;0;  0.0000000E+00;  0.0000000E+00;  0.0000000E+00;0; -1.8949233E-05;  1.0000000E+04;  0.0000000E+00;  0.0000000E+00;  1.0000000E+04;  0.0000000E+00;  1.0000000E+04; -1.8486284E-05;  0.0000000E+00; -4.6294952E-07;  6.4196473E-04;
 -5.9999999E-02;  9.9999998E-03;  2.8000000E-01;360;  0.0000000E+00;  0.0000000E+00;  0.0000000E+00;  1.0000000E+03;  4.0000001E-01;  0.0000000E+00;0;  0.0000000E+00;  0.0000000E+00;  0.0000000E+00;0; -1.5318690E-05;  1.0000000E+04;  0.0000000E+00;  0.0000000E+00;  1.0000000E+04;  0.0000000E+00;  1.0000000E+04; -1.4433283E-05;  0.0000000E+00; -8.8540816E-07;  1.6759553E-03;
 -5.9999999E-02;  9.9999998E-03;  3.0000001E-01;361;  0.0000000E+00;  0.0000000E+00;  0.0000000E+00;  1.0000000E+03;  4.0000001E-01;  0.0000000E+00;0;  0.0000000E+00;  0.0000000E+00;  0.0000000E+00;0; -1.1508148E-05;  1.0000000E+04;  0.0000000E+00;  0.0000000E+00;  1.0000000E+04;  0.0000000E+00;  1.0000000E+04; -1.0330153E-05;  0.0000000E+00; -1.1779950E-06;  2.4245165E-03;
 -5.9999999E-02;  9.9999998E-03;  3.1999999E-01;362;  0.0000000E+00;  0.0000000E+00;  0.0000000E+00;  1.0000000E+03;  4.0000001E-01;  0.0000000E+00;0;  0.0000000E+00;  0.0000000E+00;  0.0000000E+00;0; -7.9681686E-06;  1.0000000E+04;  0.0000000E+00;  0.0000000E+00;  1.0000000E+04;  0.0000000E+00;  1.0000000E+04; -6.6868024E-06;  0.0000000E+00; -1.2813657E-06;  2.7391159E-03;
 -3.9999999E-02;  9.9999998E-03;  1.6000000E-01;395;  0.0000000E+00;  0.0000000E+00;  0.0000000E+00;  1.0000000E+03;  4.0000001E-01;  0.0000000E+00;0;  0.0000000E+00;  0.0000000E+00;  0.0000000E+00;0; -5.3030381E-05;  1.0000000E+04;  0.0000000E+00;  0.0000000E+00;  1.0000000E+04;  0.0000000E+00;  1.0000000E+04; -5.4275071E-05;  0.0000000E+00;  1.2446922E-06;  3.9871354E-03;
 -3.9999999E-02;  9.9999998E-03;  1.8000001E-01;396;  0.0000000E+00;  0.0000000E+00;  0.0000000E+00;  1.0000000E+03;  4.0000001E-01;  0.0000000E+00;0;  0.0000000E+00;  0.0000000E+00;  0.0000000E+00;0; -5.0597300E-05;  1.0000000E+04;  0.0000000E+00;  0.0000000E+00;  1.0000000E+04;  0.0000000E+00;  1.0000000E+04; -5.1836636E-05;  0.0000000E+00;  1.2393359E-06;  3.9257454E-03;
 -3.9999999E-02;  9.9999998E-03;  2.0000000E-01;397;  0.0000000E+00;  0.0000000E+00;  0.0000000E+00;  1.0000000E+03;  4.0000001E-01;  0.0000000E+00;0;  0.0000000E+00;  0.0000000E+00;  0.0000000E+00;0; -4.7614813E-05;  1.0000000E+04;  0.0000000E+00;  0.0000000E+00;  1.0000000E+04;  0.0000000E+00;  1.0000000E+04; -4.8699956E-05;  0.0000000E+00;  1.0851450E-06;  3.5130035E-03;
 -3.9999999E-02;  9.9999998E-03;  2.2000000E-01;398;  0.0000000E+00;  0.0000000E+00;  0.0000000E+00;  1.0000000E+03;  4.0000001E-01;  0.0000000E+00;0;  0.0000000E+00;  0.0000000E+00;  0.0000000E+00;0; -4.3976732E-05;  1.0000000E+04;  0.0000000E+00;  0.0000000E+00;  1.0000000E+04;  0.0000000E+00;  1.0000000E+04; -4.4661439E-05;  0.0000000E+00;  6.8470706E-07;  2.5262812E-03;
 -3.9999999E-02;  9.9999998E-03;  2.3999999E-01;399;  0.0000000E+00;  0.0000000E+00;  0.0000000E+00;  1.0000000E+03;  4.0000001E-01;  0.0000000E+00;0;  0.0000000E+00;  0.0000000E+00;  0.0000000E+00;0; -3.9541599E-05;  1.0000000E+04;  0.0000000E+00;  0.0000000E+00;  1.0000000E+04;  0.0000000E+00;  1.0000000E+04; -3.9535615E-05;  0.0000000E+00; -5.9833951E-09;  8.5531233E-04;
 -3.9999999E-02;  9.9999998E-03;  2.5999999E-01;400;  0.0000000E+00;  0.0000000E+00;  0.0000000E+00;  1.0000000E+03;  4.0000001E-01;  0.0000000E+00;0;  0.0000000E+00;  0.0000000E+00;  0.0000000E+00;0; -3.4186269E-05;  1.0000000E+04;  0.0000000E+00;  0.0000000E+00;  1.0000000E+04;  0.0000000E+00;  1.0000000E+04; -3.3282569E-05;  0.0000000E+00; -9.0369866E-07;  1.3212909E-03;
 -3.9999999E-02;  9.9999998E-03;  2.8000000E-01;401;  0.0000000E+00;  0.0000000E+00;  0.0000000E+00;  1.0000000E+03;  4.0000001E-01;  0.0000000E+00;0;  0.0000000E+00;  0.0000000E+00;  0.0000000E+00;0; -2.7965440E-05;  1.0000000E+04;  0.0000000E+00;  0.0000000E+00;  1.0000000E+04;  0.0000000E+00;  1.0000000E+04; -2.6176740E-05;  0.0000000E+00; -1.7887004E-06;  3.5012404E-03;
 -3.9999999E-02;  9.9999998E-03;  3.0000001E-01;402;  0.0000000E+00;  0.0000000E+00;  0.0000000E+00;  1.0000000E+03;  4.0000001E-01;  0.0000000E+00;0;  0.0000000E+00;  0.0000000E+00;  0.0000000E+00;0; -2.1338890E-05;  1.0000000E+04;  0.0000000E+00;  0.0000000E+00;  1.0000000E+04;  0.0000000E+00;  1.0000000E+04; -1.8913397E-05;  0.0000000E+00; -2.4254939E-06;  5.1283538E-03;
 -3.9999999E-02;  9.9999998E-03;  3.1999999E-01;403;  0.0000000E+00;  0.0000000E+00;  0.0000000E+00;  1.0000000E+03;  4.0000001E-01;  0.0000000E+00;0;  0.0000000E+00;  0.0000000E+00;  0.0000000E+00;0; -1.5093467E-05;  1.0000000E+04;  0.0000000E+00;  0.0000000E+00;  1.0000000E+04;  0.0000000E+00;  1.0000000E+04; -1.2408756E-05;  0.0000000E+00; -2.6847099E-06;  5.8771325E-03;
 -2.0000000E-02;  9.9999998E-03;  1.6000000E-01;436;  0.0000000E+00;  0.0000000E+00;  0.0000000E+00;  1.0000000E+03;  4.0000001E-01;  0.0000000E+00;0;  0.0000000E+00;  0.0000000E+00;  0.0000000E+00;0; -8.3924140E-05;  1.0000000E+04;  0.0000000E+00;  0.0000000E+00;  1.0000000E+04;  0.0000000E+00;  1.0000000E+04; -8.6227497E-05;  0.0000000E+00;  2.3033549E-06;  7.2496198E-03;
 -2.0000000E-02;  9.9999998E-03;  1.8000001E-01;437;  0.0000000E+00;  0.0000000E+00;  0.0000000E+00;  1.0000000E+03;  4.0000001E-01;  0.0000000E+00;0;  0.0000000E+00;  0.0000000E+00;  0.0000000E+00;0; -8.0185411E-05;  1.0000000E+04;  0.0000000E+00;  0.0000000E+00;  1.0000000E+04;  0.0000000E+00;  1.0000000E+04; -8.2485043E-05;  0.0000000E+00;  2.2996298E-06;  7.1701836E-03;
 -2.0000000E-02;  9.9999998E-03;  2.0000000E-01;438;  0.0000000E+00;  0.0000000E+00;  0.0000000E+00;  1.0000000E+03;  4.0000001E-01;  0.0000000E+00;0;  0.0000000E+00;  0.0000000E+00;  0.0000000E+00;0; -7.5623990E-05;  1.0000000E+04;  0.0000000E+00;  0.0000000E+00;  1.0000000E+04;  0.0000000E+00;  1.0000000E+04; -7.7652985E-05;  0.0000000E+00;  2.0289976E-06;  6.4504873E-03;
 -2.0000000E-02;  9.9999998E-03;  2.2000000E-01;439;  0.0000000E+00;  0.0000000E+00;  0.0000000E+00;  1.0000000E+03;  4.0000001E-01;  0.0000000E+00;0;  0.0000000E+00;  0.0000000E+00;  0.0000000E+00;0; -7.0090202E-05;  1.0000000E+04;  0.0000000E+00;  0.0000000E+00;  1.0000000E+04;  0.0000000E+00;  1.0000000E+04; -7.1407223E-05;  0.0000000E+00;  1.3170214E-06;  4.6798368E-03;
 -2.0000000E-02;  9.9999998E-03;  2.3999999E-01;440;  0.0000000E+00;  0.0000000E+00;  0.0000000E+00;  1.0000000E+03;  4.0000001E-01;  0.0000000E+00;0;  0.0000000E+00;  0.0000000E+00;  0.0000000E+00;0; -6.3367530E-05;  1.0000000E+04;  0.0000000E+00;  0.0000000E+00;  1.0000000E+04;  0.0000000E+00;  1.0000000E+04; -6.3446940E-05;  0.0000000E+00;  7.9408863E-08;  1.6426136E-03;
 -2.0000000E-02;  9.9999998E-03;  2.5999999E-01;441;  0.0000000E+00;  0.0000000E+00;  0.0000000E+00;  1.0000000E+03;  4.0000001E-01;  0.0000000E+00;0;  0.0000000E+00;  0.0000000E+00;  0.0000000E+00;0; -5.5239263E-05;  1.0000000E+04;  0.0000000E+00;  0.0000000E+00;  1.0000000E+04;  0.0000000E+00;  1.0000000E+04; -5.3684205E-05;  0.0000000E+00; -1.5550584E-06;  2.3793164E-03;
 -2.0000000E-02;  9.9999998E-03;  2.8000000E-01;442;  0.0000000E+00;  0.0000000E+00;  0.0000000E+00;  1.0000000E+03;  4.0000001E-01;  0.0000000E+00;0;  0.0000000E+00;  0.0000000E+00;  0.0000000E+00;0; -4.5707508E-05;  1.0000000E+04;  0.0000000E+00;  0.0000000E+00;  1.0000000E+04;  0.0000000E+00;  1.0000000E+04; -4.2493706E-05;  0.0000000E+00; -3.2138012E-06;  6.5142005E-03;
 -2.0000000E-02;  9.9999998E-03;  3.0000001E-01;443;  0.0000000E+00;  0.0000000E+00;  0.0000000E+00;  1.0000000E+03;  4.0000001E-01;  0.0000000E+00;0;  0.0000000E+00;  0.0000000E+00;  0.0000000E+00;0; -3.5363326E-05;  1.0000000E+04;  0.0000000E+00;  0.0000000E+00;  1.0000000E+04;  0.0000000E+00;  1.0000000E+04; -3.0914940E-05;  0.0000000E+00; -4.4483863E-06;  9.6884910E-03;
 -2.0000000E-02;  9.9999998E-03;  3.1999999E-01;444;  0.0000000E+00;  0.0000000E+00;  0.0000000E+00;  1.0000000E+03;  4.0000001E-01;  0.0000000E+00;0;  0.0000000E+00;  0.0000000E+00;  0.0000000E+00;0; -2.5435796E-05;  1.0000000E+04;  0.0000000E+00;  0.0000000E+00;  1.0000000E+04;  0.0000000E+00;  1.0000000E+04; -2.0446552E-05;  0.0000000E+00; -4.9892437E-06;  1.1221474E-02;
  0.0000000E+00;  9.9999998E-03;  3.0000001E-01;455;  0.0000000E+00;  0.0000000E+00;  0.0000000E+00;  1.0000000E+03;  4.0000001E-01;  0.0000000E+00;0;  0.0000000E+00;  0.0000000E+00;  0.0000000E+00;0; -5.3895550E-05;  1.0000000E+04;  0.0000000E+00;  0.0000000E+00;  1.0000000E+04;  0.0000000E+00;  1.0000000E+04; -4.6481342E-05;  0.0000000E+00; -7.4142085E-06;  1.6693294E-02;
  0.0000000E+00;  9.9999998E-03;  3.1999999E-01;456;  0.0000000E+00;  0.0000000E+00;  0.0000000E+00;  1.0000000E+03;  4.0000001E-01;  0.0000000E+00;0;  0.0000000E+00;  0.0000000E+00;  0.0000000E+00;0; -3.9372979E-05;  1.0000000E+04;  0.0000000E+00;  0.0000000E+00;  1.0000000E+04;  0.0000000E+00;  1.0000000E+04; -3.0937063E-05;  0.0000000E+00; -8.4359153E-06;  1.9570479E-02;
  2.0000000E-02;  9.9999998E-03;  3.1999999E-01;466;  0.0000000E+00;  0.0000000E+00;  0.0000000E+00;  1.0000000E+03;  4.0000001E-01;  0.0000000E+00;0;  0.0000000E+00;  0.0000000E+00;  0.0000000E+00;0; -5.7564055E-05;  1.0000000E+04;  0.0000000E+00;  0.0000000E+00;  1.0000000E+04;  0.0000000E+00;  1.0000000E+04; -4.4336055E-05;  0.0000000E+00; -1.3227999E-05;  3.1794120E-02;
  3.9999999E-02;  9.9999998E-03;  3.1999999E-01;476;  0.0000000E+00;  0.0000000E+00;  0.0000000E+00;  1.0000000E+03;  4.0000001E-01;  0.0000000E+00;0;  0.0000000E+00;  0.0000000E+00;  0.0000000E+00;0; -8.1684426E-05;  1.0000000E+04;  0.0000000E+00;  0.0000000E+00;  1.0000000E+04;  0.0000000E+00;  1.0000000E+04; -6.2079482E-05;  0.0000000E+00; -1.9604940E-05;  4.9030248E-02;
  5.9999999E-02;  9.9999998E-03;  3.1999999E-01;486;  0.0000000E+00;  0.0000000E+00;  0.0000000E+00;  1.0000000E+03;  4.0000001E-01;  0.0000000E+00;0;  0.0000000E+00;  0.0000000E+00;  0.0000000E+00;0; -1.1482569E-04;  1.0000000E+04;  0.0000000E+00;  0.0000000E+00;  1.0000000E+04;  0.0000000E+00;  1.0000000E+04; -8.6746586E-05;  0.0000000E+00; -2.8079108E-05;  7.3277041E-02;
  7.9999998E-02;  9.9999998E-03;  3.1999999E-01;496;  0.0000000E+00;  0.0000000E+00;  0.0000000E+00;  1.0000001E+03;  4.0000001E-01;  9.8762624E-02;0;  0.0000000E+00;  0.0000000E+00;  0.0000000E+00;0; -1.6214074E-04;  1.0000000E+04;  0.0000000E+00;  0.0000000E+00;  1.0000000E+04;  0.0000000E+00;  1.0000000E+04; -1.2259302E-04;  0.0000000E+00; -3.9547729E-05;  1.0793459E-01;
  1.0000000E-01;  9.9999998E-03;  3.1999999E-01;506;  0.0000000E+00;  0.0000000E+00;  0.0000000E+00;  1.0000001E+03;  4.0000001E-01;  9.8762624E-02;0;  0.0000000E+00;  0.0000000E+00;  0.0000000E+00;0; -2.3301455E-04;  1.0000000E+04;  0.0000000E+00;  0.0000000E+00;  1.0000000E+04;  0.0000000E+00;  1.0000000E+04; -1.7744653E-04;  0.0000000E+00; -5.5568020E-05;  1.6427414E-01;
  1.2000000E-01;  9.9999998E-03;  3.1999999E-01;516;  0.0000000E+00;  0.0000000E+00;  0.0000000E+00;  1.0000001E+03;  4.0000001E-01;  9.8762624E-02;0;  0.0000000E+00;  0.0000000E+00;  0.0000000E+00;0; -3.4374575E-04;  1.0000000E+04;  0.0000000E+00;  0.0000000E+00;  1.0000000E+04;  0.0000000E+00;  1.0000000E+04; -2.6477073E-04;  0.0000000E+00; -7.8975027E-05;  3.1135267E-01;
  1.4000000E-01;  9.9999998E-03;  3.1999999E-01;526;  0.0000000E+00;  0.0000000E+00;  0.0000000E+00;  1.0000002E+03;  4.0000001E-01;  1.9752525E-01;0;  0.0000000E+00;  0.0000000E+00;  0.0000000E+00;0; -5.2086276E-04;  1.0000000E+04;  0.0000000E+00;  0.0000000E+00;  1.0000000E+04;  0.0000000E+00;  1.0000000E+04; -4.0581671E-04;  0.0000000E+00; -1.1504602E-04;  7.8725481E-01;
  1.6000000E-01;  9.9999998E-03;  3.1999999E-01;536;  0.0000000E+00;  0.0000000E+00;  0.0000000E+00;  1.0000004E+03;  4.0000001E-01;  2.9628786E-01;0;  0.0000000E+00;  0.0000000E+00;  0.0000000E+00;0; -8.0189825E-04;  1.0000000E+04;  0.0000000E+00;  0.0000000E+00;  1.0000000E+04;  0.0000000E+00;  1.0000000E+04; -6.2832306E-04;  0.0000000E+00; -1.7357519E-04;  2.0472677E+00;
  1.8000001E-01;  9.9999998E-03;  3.1999999E-01;546;  0.0000000E+00;  0.0000000E+00;  0.0000000E+00;  1.0000006E+03;  4.0000001E-01;  4.9381313E-01;0;  0.0000000E+00;  0.0000000E+00;  0.0000000E+00;0; -1.2260744E-03;  1.0000000E+04;  0.0000000E+00;  0.0000000E+00;  1.0000000E+04;  0.0000000E+00;  1.0000000E+04; -9.5421361E-04;  0.0000000E+00; -2.7186083E-04;  4.6857605E+00;
  2.0000000E-01;  9.9999998E-03;  3.1999999E-01;555;  0.0000000E+00;  0.0000000E+00;  0.0000000E+00;  1.0000009E+03;  4.0000001E-01;  7.9010099E-01;0;  0.0000000E+00;  0.0000000E+00;  0.0000000E+00;0; -1.8186111E-03;  1.0000000E+04;  0.0000000E+00;  0.0000000E+00;  1.0000000E+04;  0.0000000E+00;  1.0000000E+04; -1.3822593E-03;  0.0000000E+00; -4.3635175E-04;  8.8930340E+00;
 -2.2000000E-01;  9.9999998E-03;  3.4000000E-01;36;  0.0000000E+00;  0.0000000E+00;  0.0000000E+00;  1.0000000E+03;  4.0000001E-01;  0.0000000E+00;0;  0.0000000E+00;  0.0000000E+00;  0.0000000E+00;0;  0.0000000E+00;  1.0000000E+04;  0.0000000E+00;  0.0000000E+00;  1.0000000E+04;  0.0000000E+00;  1.0000000E+04;  0.0000000E+00;  0.0000000E+00;  0.0000000E+00;  0.0000000E+00;
 -2.2000000E-01;  9.9999998E-03;  3.6000001E-01;37;  0.0000000E+00;  0.0000000E+00;  0.0000000E+00;  1.0000000E+03;  4.0000001E-01;  0.0000000E+00;0;  0.0000000E+00;  0.0000000E+00;  0.0000000E+00;0;  0.0000000E+00;  1.0000000E+04;  0.0000000E+00;  0.0000000E+00;  1.0000000E+04;  0.0000000E+00;  1.0000000E+04;  0.0000000E+00;  0.0000000E+00;  0.0000000E+00;  0.0000000E+00;
 -2.2000000E-01;  9.9999998E-03;  3.8000000E-01;38;  0.0000000E+00;  0.0000000E+00;  0.0000000E+00;  1.0000000E+03;  4.0000001E-01;  0.0000000E+00;0;  0.0000000E+00;  0.0000000E+00;  0.0000000E+00;0;  0.0000000E+00;  1.0000000E+04;  0.0000000E+00;  0.0000000E+00;  1.0000000E+04;  0.0000000E+00;  1.0000000E+04;  0.0000000E+00;  0.0000000E+00;  0.0000000E+00;  0.0000000E+00;
 -2.0000000E-01;  9.9999998E-03;  3.4000000E-01;76;  0.0000000E+00;  0.0000000E+00;  0.0000000E+00;  1.0000000E+03;  4.0000001E-01;  0.0000000E+00;0;  0.0000000E+00;  0.0000000E+00;  0.0000000E+00;0;  0.0000000E+00;  1.0000000E+04;  0.0000000E+00;  0.0000000E+00;  1.0000000E+04;  0.0000000E+00;  1.0000000E+04;  0.0000000E+00;  0.0000000E+00;  0.0000000E+00;  0.0000000E+00;
 -2.0000000E-01;  9.9999998E-03;  3.6000001E-01;77;  0.0000000E+00;  0.0000000E+00;  0.0000000E+00;  1.0000000E+03;  4.0000001E-01;  0.0000000E+00;0;  0.0000000E+00;  0.0000000E+00;  0.0000000E+00;0;  0.0000000E+00;  1.0000000E+04;  0.0000000E+00;  0.0000000E+00;  1.0000000E+04;  0.0000000E+00;  1.0000000E+04;  0.0000000E+00;  0.0000000E+00;  0.0000000E+00;  0.0000000E+00;
 -2.0000000E-01;  9.9999998E-03;  3.8000000E-01;78;  0.0000000E+00;  0.0000000E+00;  0.0000000E+00;  1.0000000E+03;  4.0000001E-01;  0.0000000E+00;0;  0.0000000E+00;  0.0000000E+00;  0.0000000E+00;0;  0.0000000E+00;  1.0000000E+04;  0.0000000E+00;  0.0000000E+00;  1.0000000E+04;  0.0000000E+00;  1.0000000E+04;  0.0000000E+00;  0.0000000E+00;  0.0000000E+00;  0.0000000E+00;
 -2.0000000E-01;  9.9999998E-03;  4.0000001E-01;79;  0.0000000E+00;  0.0000000E+00;  0.0000000E+00;  1.0000000E+03;  4.0000001E-01;  0.0000000E+00;0;  0.0000000E+00;  0.0000000E+00;  0.0000000E+00;0;  0.0000000E+00;  1.0000000E+04;  0.0000000E+00;  0.0000000E+00;  1.0000000E+04;  0.0000000E+00;  1.0000000E+04;  0.0000000E+00;  0.0000000E+00;  0.0000000E+00;  0.0000000E+00;
 -1.8000001E-01;  9.9999998E-03;  3.4000000E-01;117;  0.0000000E+00;  0.0000000E+00;  0.0000000E+00;  1.0000000E+03;  4.0000001E-01;  0.0000000E+00;0;  0.0000000E+00;  0.0000000E+00;  0.0000000E+00;0;  0.0000000E+00;  1.0000000E+04;  0.0000000E+00;  0.0000000E+00;  1.0000000E+04;  0.0000000E+00;  1.0000000E+04;  0.0000000E+00;  0.0000000E+00;  0.0000000E+00;  0.0000000E+00;
 -1.8000001E-01;  9.9999998E-03;  3.6000001E-01;118;  0.0000000E+00;  0.0000000E+00;  0.0000000E+00;  1.0000000E+03;  4.0000001E-01;  0.0000000E+00;0;  0.0000000E+00;  0.0000000E+00;  0.0000000E+00;0;  0.0000000E+00;  1.0000000E+04;  0.0000000E+00;  0.0000000E+00;  1.0000000E+04;  0.0000000E+00;  1.0000000E+04;  0.0000000E+00;  0.0000000E+00;  0.0000000E+00;  0.0000000E+00;
 -1.8000001E-01;  9.9999998E-03;  3.8000000E-01;119;  0.0000000E+00;  0.0000000E+00;  0.0000000E+00;  1.0000000E+03;  4.0000001E-01;  0.0000000E+00;0;  0.0000000E+00;  0.0000000E+00;  0.0000000E+00;0;  0.0000000E+00;  1.0000000E+04;  0.0000000E+00;  0.0000000E+00;  1.0000000E+04;  0.0000000E+00;  1.0000000E+04;  0.0000000E+00;  0.0000000E+00;  0.0000000E+00;  0.0000000E+00;
 -1.8000001E-01;  9.9999998E-03;  4.0000001E-01;120;  0.0000000E+00;  0.0000000E+00;  0.0000000E+00;  1.0000000E+03;  4.0000001E-01;  0.0000000E+00;0;  0.0000000E+00;  0.0000000E+00;  0.0000000E+00;0;  0.0000000E+00;  1.0000000E+04;  0.0000000E+00;  0.0000000E+00;  1.0000000E+04;  0.0000000E+00;  1.0000000E+04;  0.0000000E+00;  0.0000000E+00;  0.0000000E+00;  0.0000000E+00;
 -1.6000000E-01;  9.9999998E-03;  3.4000000E-01;158;  0.0000000E+00;  0.0000000E+00;  0.0000000E+00;  1.0000000E+03;  4.0000001E-01;  0.0000000E+00;0;  0.0000000E+00;  0.0000000E+00;  0.0000000E+00;0;  0.0000000E+00;  1.0000000E+04;  0.0000000E+00;  0.0000000E+00;  1.0000000E+04;  0.0000000E+00;  1.0000000E+04;  0.0000000E+00;  0.0000000E+00;  0.0000000E+00;  0.0000000E+00;
 -1.6000000E-01;  9.9999998E-03;  3.6000001E-01;159;  0.0000000E+00;  0.0000000E+00;  0.0000000E+00;  1.0000000E+03;  4.0000001E-01;  0.0000000E+00;0;  0.0000000E+00;  0.0000000E+00;  0.0000000E+00;0;  0.0000000E+00;  1.0000000E+04;  0.0000000E+00;  0.0000000E+00;  1.0000000E+04;  0.0000000E+00;  1.0000000E+04;  0.0000000E+00;  0.0000000E+00;  0.0000000E+00;  0.0000000E+00;
 -1.6000000E-01;  9.9999998E-03;  3.8000000E-01;160;  0.0000000E+00;  0.0000000E+00;  0.0000000E+00;  1.0000000E+03;  4.0000001E-01;  0.0000000E+00;0;  0.0000000E+00;  0.0000000E+00;  0.0000000E+00;0;  0.0000000E+00;  1.0000000E+04;  0.0000000E+00;  0.0000000E+00;  1.0000000E+04;  0.0000000E+00;  1.0000000E+04;  0.0000000E+00;  0.0000000E+00;  0.0000000E+00;  0.0000000E+00;
 -1.6000000E-01;  9.9999998E-03;  4.0000001E-01;161;  0.0000000E+00;  0.0000000E+00;  0.0000000E+00;  1.0000000E+03;  4.0000001E-01;  0.0000000E+00;0;  0.0000000E+00;  0.0000000E+00;  0.0000000E+00;0;  0.0000000E+00;  1.0000000E+04;  0.0000000E+00;  0.0000000E+00;  1.0000000E+04;  0.0000000E+00;  1.0000000E+04;  0.0000000E+00;  0.0000000E+00;  0.0000000E+00;  0.0000000E+00;
 -1.4000000E-01;  9.9999998E-03;  3.4000000E-01;199;  0.0000000E+00;  0.0000000E+00;  0.0000000E+00;  1.0000000E+03;  4.0000001E-01;  0.0000000E+00;0;  0.0000000E+00;  0.0000000E+00;  0.0000000E+00;0; -1.1864830E-08;  1.0000000E+04;  0.0000000E+00;  0.0000000E+00;  1.0000000E+04;  0.0000000E+00;  1.0000000E+04; -1.0113133E-08;  0.0000000E+00; -1.7516965E-09;  3.5849382E-06;
 -1.4000000E-01;  9.9999998E-03;  3.6000001E-01;200;  0.0000000E+00;  0.0000000E+00;  0.0000000E+00;  1.0000000E+03;  4.0000001E-01;  0.0000000E+00;0;  0.0000000E+00;  0.0000000E+00;  0.0000000E+00;0; -1.3705306E-09;  1.0000000E+04;  0.0000000E+00;  0.0000000E+00;  1.0000000E+04;  0.0000000E+00;  1.0000000E+04; -1.0944160E-09;  0.0000000E+00; -2.7611452E-10;  5.7448136E-07;
 -1.4000000E-01;  9.9999998E-03;  3.8000000E-01;201;  0.0000000E+00;  0.0000000E+00;  0.0000000E+00;  1.0000000E+03;  4.0000001E-01;  0.0000000E+00;0;  0.0000000E+00;  0.0000000E+00;  0.0000000E+00;0;  0.0000000E+00;  1.0000000E+04;  0.0000000E+00;  0.0000000E+00;  1.0000000E+04;  0.0000000E+00;  1.0000000E+04;  0.0000000E+00;  0.0000000E+00;  0.0000000E+00;  0.0000000E+00;
 -1.4000000E-01;  9.9999998E-03;  4.0000001E-01;202;  0.0000000E+00;  0.0000000E+00;  0.0000000E+00;  1.0000000E+03;  4.0000001E-01;  0.0000000E+00;0;  0.0000000E+00;  0.0000000E+00;  0.0000000E+00;0;  0.0000000E+00;  1.0000000E+04;  0.0000000E+00;  0.0000000E+00;  1.0000000E+04;  0.0000000E+00;  1.0000000E+04;  0.0000000E+00;  0.0000000E+00;  0.0000000E+00;  0.0000000E+00;
 -1.2000000E-01;  9.9999998E-03;  3.4000000E-01;240;  0.0000000E+00;  0.0000000E+00;  0.0000000E+00;  1.0000000E+03;  4.0000001E-01;  0.0000000E+00;0;  0.0000000E+00;  0.0000000E+00;  0.0000000E+00;0; -1.5157198E-07;  1.0000000E+04;  0.0000000E+00;  0.0000000E+00;  1.0000000E+04;  0.0000000E+00;  1.0000000E+04; -1.2564794E-07;  0.0000000E+00; -2.5924034E-08;  5.3967527E-05;
 -1.2000000E-01;  9.9999998E-03;  3.6000001E-01;241;  0.0000000E+00;  0.0000000E+00;  0.0000000E+00;  1.0000000E+03;  4.0000001E-01;  0.0000000E+00;0;  0.0000000E+00;  0.0000000E+00;  0.0000000E+00;0; -5.0496872E-08;  1.0000000E+04;  0.0000000E+00;  0.0000000E+00;  1.0000000E+04;  0.0000000E+00;  1.0000000E+04; -3.8717300E-08;  0.0000000E+00; -1.1779571E-08;  2.4790863E-05;
 -1.2000000E-01;  9.9999998E-03;  3.8000000E-01;242;  0.0000000E+00;  0.0000000E+00;  0.0000000E+00;  1.0000000E+03;  4.0000001E-01;  0.0000000E+00;0;  0.0000000E+00;  0.0000000E+00;  0.0000000E+00;0; -7.4221225E-09;  1.0000000E+04;  0.0000000E+00;  0.0000000E+00;  1.0000000E+04;  0.0000000E+00;  1.0000000E+04; -5.3460396E-09;  0.0000000E+00; -2.0760831E-09;  4.3950226E-06;
 -1.2000000E-01;  9.9999998E-03;  4.0000001E-01;243;  0.0000000E+00;  0.0000000E+00;  0.0000000E+00;  1.0000000E+03;  4.0000001E-01;  0.0000000E+00;0;  0.0000000E+00;  0.0000000E+00;  0.0000000E+00;0;  0.0000000E+00;  1.0000000E+04;  0.0000000E+00;  0.0000000E+00;  1.0000000E+04;  0.0000000E+00;  1.0000000E+04;  0.0000000E+00;  0.0000000E+00;  0.0000000E+00;  0.0000000E+00;
 -1.0000000E-01;  9.9999998E-03;  3.4000000E-01;281;  0.0000000E+00;  0.0000000E+00;  0.0000000E+00;  1.0000000E+03;  4.0000001E-01;  0.0000000E+00;0;  0.0000000E+00;  0.0000000E+00;  0.0000000E+00;0; -7.1340219E-07;  1.0000000E+04;  0.0000000E+00;  0.0000000E+00;  1.0000000E+04;  0.0000000E+00;  1.0000000E+04; -5.7571663E-07;  0.0000000E+00; -1.3768557E-07;  2.8996138E-04;
 -1.0000000E-01;  9.9999998E-03;  3.6000001E-01;282;  0.0000000E+00;  0.0000000E+00;  0.0000000E+00;  1.0000000E+03;  4.0000001E-01;  0.0000000E+00;0;  0.0000000E+00;  0.0000000E+00;  0.0000000E+00;0; -3.2519696E-07;  1.0000000E+04;  0.0000000E+00;  0.0000000E+00;  1.0000000E+04;  0.0000000E+00;  1.0000000E+04; -2.3992101E-07;  0.0000000E+00; -8.5275957E-08;  1.8195111E-04;
 -1.0000000E-01;  9.9999998E-03;  3.8000000E-01;283;  0.0000000E+00;  0.0000000E+00;  0.0000000E+00;  1.0000000E+03;  4.0000001E-01;  0.0000000E+00;0;  0.0000000E+00;  0.0000000E+00;  0.0000000E+00;0; -1.0278804E-07;  1.0000000E+04;  0.0000000E+00;  0.0000000E+00;  1.0000000E+04;  0.0000000E+00;  1.0000000E+04; -7.0355071E-08;  0.0000000E+00; -3.2432965E-08;  6.9528556E-05;
 -1.0000000E-01;  9.9999998E-03;  4.0000001E-01;284;  0.0000000E+00;  0.0000000E+00;  0.0000000E+00;  1.0000000E+03;  4.0000001E-01;  0.0000000E+00;0;  0.0000000E+00;  0.0000000E+00;  0.0000000E+00;0; -1.4204224E-08;  1.0000000E+04;  0.0000000E+00;  0.0000000E+00;  1.0000000E+04;  0.0000000E+00;  1.0000000E+04; -9.6241859E-09;  0.0000000E+00; -4.5800381E-09;  9.8404898E-06;
 -7.9999998E-02;  9.9999998E-03;  3.4000000E-01;322;  0.0000000E+00;  0.0000000E+00;  0.0000000E+00;  1.0000000E+03;  4.0000001E-01;  0.0000000E+00;0;  0.0000000E+00;  0.0000000E+00;  0.0000000E+00;0; -2.1632281E-06;  1.0000000E+04;  0.0000000E+00;  0.0000000E+00;  1.0000000E+04;  0.0000000E+00;  1.0000000E+04; -1.7016433E-06;  0.0000000E+00; -4.6158473E-07;  9.8771381E-04;
 -7.9999998E-02;  9.9999998E-03;  3.6000001E-01;323;  0.0000000E+00;  0.0000000E+00;  0.0000000E+00;  1.0000000E+03;  4.0000001E-01;  0.0000000E+00;0;  0.0000000E+00;  0.0000000E+00;  0.0000000E+00;0; -1.1356468E-06;  1.0000000E+04;  0.0000000E+00;  0.0000000E+00;  1.0000000E+04;  0.0000000E+00;  1.0000000E+04; -8.0801027E-07;  0.0000000E+00; -3.2763657E-07;  7.0917699E-04;
 -7.9999998E-02;  9.9999998E-03;  3.8000000E-01;324;  0.0000000E+00;  0.0000000E+00;  0.0000000E+00;  1.0000000E+03;  4.0000001E-01;  0.0000000E+00;0;  0.0000000E+00;  0.0000000E+00;  0.0000000E+00;0; -4.6929773E-07;  1.0000000E+04;  0.0000000E+00;  0.0000000E+00;  1.0000000E+04;  0.0000000E+00;  1.0000000E+04; -3.0649753E-07;  0.0000000E+00; -1.6280019E-07;  3.5387641E-04;
 -7.9999998E-02;  9.9999998E-03;  4.0000001E-01;325;  0.0000000E+00;  0.0000000E+00;  0.0000000E+00;  1.0000000E+03;  4.0000001E-01;  0.0000000E+00;0;  0.0000000E+00;  0.0000000E+00;  0.0000000E+00;0; -1.2301575E-07;  1.0000000E+04;  0.0000000E+00;  0.0000000E+00;  1.0000000E+04;  0.0000000E+00;  1.0000000E+04; -7.8776381E-08;  0.0000000E+00; -4.4239371E-08;  9.6104966E-05;
 -5.9999999E-02;  9.9999998E-03;  3.4000000E-01;363;  0.0000000E+00;  0.0000000E+00;  0.0000000E+00;  1.0000000E+03;  4.0000001E-01;  0.0000000E+00;0;  0.0000000E+00;  0.0000000E+00;  0.0000000E+00;0; -5.0521421E-06;  1.0000000E+04;  0.0000000E+00;  0.0000000E+00;  1.0000000E+04;  0.0000000E+00;  1.0000000E+04; -3.8679850E-06;  0.0000000E+00; -1.1841569E-06;  2.5824504E-03;
 -5.9999999E-02;  9.9999998E-03;  3.6000001E-01;364;  0.0000000E+00;  0.0000000E+00;  0.0000000E+00;  1.0000000E+03;  4.0000001E-01;  0.0000000E+00;0;  0.0000000E+00;  0.0000000E+00;  0.0000000E+00;0; -2.8656509E-06;  1.0000000E+04;  0.0000000E+00;  0.0000000E+00;  1.0000000E+04;  0.0000000E+00;  1.0000000E+04; -1.9632378E-06;  0.0000000E+00; -9.0241321E-07;  1.9877602E-03;
 -5.9999999E-02;  9.9999998E-03;  3.8000000E-01;365;  0.0000000E+00;  0.0000000E+00;  0.0000000E+00;  1.0000000E+03;  4.0000001E-01;  0.0000000E+00;0;  0.0000000E+00;  0.0000000E+00;  0.0000000E+00;0; -1.3506292E-06;  1.0000000E+04;  0.0000000E+00;  0.0000000E+00;  1.0000000E+04;  0.0000000E+00;  1.0000000E+04; -8.4054784E-07;  0.0000000E+00; -5.1008129E-07;  1.1269210E-03;
 -5.9999999E-02;  9.9999998E-03;  4.0000001E-01;366;  0.0000000E+00;  0.0000000E+00;  0.0000000E+00;  1.0000000E+03;  4.0000001E-01;  0.0000000E+00;0;  0.0000000E+00;  0.0000000E+00;  0.0000000E+00;0; -4.5695054E-07;  1.0000000E+04;  0.0000000E+00;  0.0000000E+00;  1.0000000E+04;  0.0000000E+00;  1.0000000E+04; -2.7682390E-07;  0.0000000E+00; -1.8012665E-07;  3.9707383E-04;
 -3.9999999E-02;  9.9999998E-03;  3.4000000E-01;404;  0.0000000E+00;  0.0000000E+00;  0.0000000E+00;  1.0000000E+03;  4.0000001E-01;  0.0000000E+00;0;  0.0000000E+00;  0.0000000E+00;  0.0000000E+00;0; -9.8729342E-06;  1.0000000E+04;  0.0000000E+00;  0.0000000E+00;  1.0000000E+04;  0.0000000E+00;  1.0000000E+04; -7.3319084E-06;  0.0000000E+00; -2.5410259E-06;  5.6646778E-03;
 -3.9999999E-02;  9.9999998E-03;  3.6000001E-01;405;  0.0000000E+00;  0.0000000E+00;  0.0000000E+00;  1.0000000E+03;  4.0000001E-01;  0.0000000E+00;0;  0.0000000E+00;  0.0000000E+00;  0.0000000E+00;0; -5.8701362E-06;  1.0000000E+04;  0.0000000E+00;  0.0000000E+00;  1.0000000E+04;  0.0000000E+00;  1.0000000E+04; -3.8558342E-06;  0.0000000E+00; -2.0143023E-06;  4.5296964E-03;
 -3.9999999E-02;  9.9999998E-03;  3.8000000E-01;406;  0.0000000E+00;  0.0000000E+00;  0.0000000E+00;  1.0000000E+03;  4.0000001E-01;  0.0000000E+00;0;  0.0000000E+00;  0.0000000E+00;  0.0000000E+00;0; -2.9780297E-06;  1.0000000E+04;  0.0000000E+00;  0.0000000E+00;  1.0000000E+04;  0.0000000E+00;  1.0000000E+04; -1.7572761E-06;  0.0000000E+00; -1.2207536E-06;  2.7502361E-03;
 -3.9999999E-02;  9.9999998E-03;  4.0000001E-01;407;  0.0000000E+00;  0.0000000E+00;  0.0000000E+00;  1.0000000E+03;  4.0000001E-01;  0.0000000E+00;0;  0.0000000E+00;  0.0000000E+00;  0.0000000E+00;0; -1.1439477E-06;  1.0000000E+04;  0.0000000E+00;  0.0000000E+00;  1.0000000E+04;  0.0000000E+00;  1.0000000E+04; -6.5196360E-07;  0.0000000E+00; -4.9198400E-07;  1.1044167E-03;
 -2.0000000E-02;  9.9999998E-03;  3.4000000E-01;445;  0.0000000E+00;  0.0000000E+00;  0.0000000E+00;  1.0000000E+03;  4.0000001E-01;  0.0000000E+00;0;  0.0000000E+00;  0.0000000E+00;  0.0000000E+00;0; -1.7005248E-05;  1.0000000E+04;  0.0000000E+00;  0.0000000E+00;  1.0000000E+04;  0.0000000E+00;  1.0000000E+04; -1.2216100E-05;  0.0000000E+00; -4.7891481E-06;  1.0952702E-02;
 -2.0000000E-02;  9.9999998E-03;  3.6000001E-01;446;  0.0000000E+00;  0.0000000E+00;  0.0000000E+00;  1.0000000E+03;  4.0000001E-01;  0.0000000E+00;0;  0.0000000E+00;  0.0000000E+00;  0.0000000E+00;0; -1.0422115E-05;  1.0000000E+04;  0.0000000E+00;  0.0000000E+00;  1.0000000E+04;  0.0000000E+00;  1.0000000E+04; -6.5408481E-06;  0.0000000E+00; -3.8812673E-06;  8.9444546E-03;
 -2.0000000E-02;  9.9999998E-03;  3.8000000E-01;447;  0.0000000E+00;  0.0000000E+00;  0.0000000E+00;  1.0000000E+03;  4.0000001E-01;  0.0000000E+00;0;  0.0000000E+00;  0.0000000E+00;  0.0000000E+00;0; -5.5221467E-06;  1.0000000E+04;  0.0000000E+00;  0.0000000E+00;  1.0000000E+04;  0.0000000E+00;  1.0000000E+04; -3.0756194E-06;  0.0000000E+00; -2.4465273E-06;  5.6428546E-03;
 -2.0000000E-02;  9.9999998E-03;  4.0000001E-01;448;  0.0000000E+00;  0.0000000E+00;  0.0000000E+00;  1.0000000E+03;  4.0000001E-01;  0.0000000E+00;0;  0.0000000E+00;  0.0000000E+00;  0.0000000E+00;0; -2.2696449E-06;  1.0000000E+04;  0.0000000E+00;  0.0000000E+00;  1.0000000E+04;  0.0000000E+00;  1.0000000E+04; -1.2092403E-06;  0.0000000E+00; -1.0604048E-06;  2.4341105E-03;
  0.0000000E+00;  9.9999998E-03;  3.4000000E-01;457;  0.0000000E+00;  0.0000000E+00;  0.0000000E+00;  1.0000000E+03;  4.0000001E-01;  0.0000000E+00;0;  0.0000000E+00;  0.0000000E+00;  0.0000000E+00;0; -2.6766040E-05;  1.0000000E+04;  0.0000000E+00;  0.0000000E+00;  1.0000000E+04;  0.0000000E+00;  1.0000000E+04; -1.8594377E-05;  0.0000000E+00; -8.1716635E-06;  1.9252663E-02;
  0.0000000E+00;  9.9999998E-03;  3.6000001E-01;458;  0.0000000E+00;  0.0000000E+00;  0.0000000E+00;  1.0000000E+03;  4.0000001E-01;  0.0000000E+00;0;  0.0000000E+00;  0.0000000E+00;  0.0000000E+00;0; -1.6746551E-05;  1.0000000E+04;  0.0000000E+00;  0.0000000E+00;  1.0000000E+04;  0.0000000E+00;  1.0000000E+04; -1.0040041E-05;  0.0000000E+00; -6.7065102E-06;  1.5908511E-02;
  0.0000000E+00;  9.9999998E-03;  3.8000000E-01;459;  0.0000000E+00;  0.0000000E+00;  0.0000000E+00;  1.0000000E+03;  4.0000001E-01;  0.0000000E+00;0;  0.0000000E+00;  0.0000000E+00;  0.0000000E+00;0; -9.1095608E-06;  1.0000000E+04;  0.0000000E+00;  0.0000000E+00;  1.0000000E+04;  0.0000000E+00;  1.0000000E+04; -4.7857698E-06;  0.0000000E+00; -4.3237915E-06;  1.0256873E-02;
  0.0000000E+00;  9.9999998E-03;  4.0000001E-01;460;  0.0000000E+00;  0.0000000E+00;  0.0000000E+00;  1.0000000E+03;  4.0000001E-01;  0.0000000E+00;0;  0.0000000E+00;  0.0000000E+00;  0.0000000E+00;0; -3.8804001E-06;  1.0000000E+04;  0.0000000E+00;  0.0000000E+00;  1.0000000E+04;  0.0000000E+00;  1.0000000E+04; -1.9277402E-06;  0.0000000E+00; -1.9526597E-06;  4.6052830E-03;
  2.0000000E-02;  9.9999998E-03;  3.4000000E-01;467;  0.0000000E+00;  0.0000000E+00;  0.0000000E+00;  1.0000000E+03;  4.0000001E-01;  0.0000000E+00;0;  0.0000000E+00;  0.0000000E+00;  0.0000000E+00;0; -3.9663333E-05;  1.0000000E+04;  0.0000000E+00;  0.0000000E+00;  1.0000000E+04;  0.0000000E+00;  1.0000000E+04; -2.6756103E-05;  0.0000000E+00; -1.2907230E-05;  3.1473193E-02;
  2.0000000E-02;  9.9999998E-03;  3.6000001E-01;468;  0.0000000E+00;  0.0000000E+00;  0.0000000E+00;  1.0000000E+03;  4.0000001E-01;  0.0000000E+00;0;  0.0000000E+00;  0.0000000E+00;  0.0000000E+00;0; -2.5182084E-05;  1.0000000E+04;  0.0000000E+00;  0.0000000E+00;  1.0000000E+04;  0.0000000E+00;  1.0000000E+04; -1.4500406E-05;  0.0000000E+00; -1.0681678E-05;  2.6205895E-02;
  2.0000000E-02;  9.9999998E-03;  3.8000000E-01;469;  0.0000000E+00;  0.0000000E+00;  0.0000000E+00;  1.0000000E+03;  4.0000001E-01;  0.0000000E+00;0;  0.0000000E+00;  0.0000000E+00;  0.0000000E+00;0; -1.3918843E-05;  1.0000000E+04;  0.0000000E+00;  0.0000000E+00;  1.0000000E+04;  0.0000000E+00;  1.0000000E+04; -6.9390157E-06;  0.0000000E+00; -6.9798275E-06;  1.7113779E-02;
  2.0000000E-02;  9.9999998E-03;  4.0000001E-01;470;  0.0000000E+00;  0.0000000E+00;  0.0000000E+00;  1.0000000E+03;  4.0000001E-01;  0.0000000E+00;0;  0.0000000E+00;  0.0000000E+00;  0.0000000E+00;0; -6.0348984E-06;  1.0000000E+04;  0.0000000E+00;  0.0000000E+00;  1.0000000E+04;  0.0000000E+00;  1.0000000E+04; -2.8095503E-06;  0.0000000E+00; -3.2253481E-06;  7.8564351E-03;
  3.9999999E-02;  9.9999998E-03;  3.4000000E-01;477;  0.0000000E+00;  0.0000000E+00;  0.0000000E+00;  1.0000000E+03;  4.0000001E-01;  0.0000000E+00;0;  0.0000000E+00;  0.0000000E+00;  0.0000000E+00;0; -5.6831886E-05;  1.0000000E+04;  0.0000000E+00;  0.0000000E+00;  1.0000000E+04;  0.0000000E+00;  1.0000000E+04; -3.7558380E-05;  0.0000000E+00; -1.9273504E-05;  4.8855055E-02;
  3.9999999E-02;  9.9999998E-03;  3.6000001E-01;478;  0.0000000E+00;  0.0000000E+00;  0.0000000E+00;  1.0000000E+03;  4.0000001E-01;  0.0000000E+00;0;  0.0000000E+00;  0.0000000E+00;  0.0000000E+00;0; -3.6438789E-05;  1.0000000E+04;  0.0000000E+00;  0.0000000E+00;  1.0000000E+04;  0.0000000E+00;  1.0000000E+04; -2.0380434E-05;  0.0000000E+00; -1.6058353E-05;  4.0929157E-02;
  3.9999999E-02;  9.9999998E-03;  3.8000000E-01;479;  0.0000000E+00;  0.0000000E+00;  0.0000000E+00;  1.0000000E+03;  4.0000001E-01;  0.0000000E+00;0;  0.0000000E+00;  0.0000000E+00;  0.0000000E+00;0; -2.0329891E-05;  1.0000000E+04;  0.0000000E+00;  0.0000000E+00;  1.0000000E+04;  0.0000000E+00;  1.0000000E+04; -9.7473321E-06;  0.0000000E+00; -1.0582558E-05;  2.6943715E-02;
  3.9999999E-02;  9.9999998E-03;  4.0000001E-01;480;  0.0000000E+00;  0.0000000E+00;  0.0000000E+00;  1.0000000E+03;  4.0000001E-01;  0.0000000E+00;0;  0.0000000E+00;  0.0000000E+00;  0.0000000E+00;0; -8.8835823E-06;  1.0000000E+04;  0.0000000E+00;  0.0000000E+00;  1.0000000E+04;  0.0000000E+00;  1.0000000E+04; -3.9324214E-06;  0.0000000E+00; -4.9511609E-06;  1.2517891E-02;
  5.9999999E-02;  9.9999998E-03;  3.4000000E-01;487;  0.0000000E+00;  0.0000000E+00;  0.0000000E+00;  1.0000000E+03;  4.0000001E-01;  0.0000000E+00;0;  0.0000000E+00;  0.0000000E+00;  0.0000000E+00;0; -8.0374542E-05;  1.0000000E+04;  0.0000000E+00;  0.0000000E+00;  1.0000000E+04;  0.0000000E+00;  1.0000000E+04; -5.2592775E-05;  0.0000000E+00; -2.7781765E-05;  7.3438413E-02;
  5.9999999E-02;  9.9999998E-03;  3.6000001E-01;488;  0.0000000E+00;  0.0000000E+00;  0.0000000E+00;  1.0000000E+03;  4.0000001E-01;  0.0000000E+00;0;  0.0000000E+00;  0.0000000E+00;  0.0000000E+00;0; -5.1853647E-05;  1.0000000E+04;  0.0000000E+00;  0.0000000E+00;  1.0000000E+04;  0.0000000E+00;  1.0000000E+04; -2.8580558E-05;  0.0000000E+00; -2.3273089E-05;  6.1831683E-02;
  5.9999999E-02;  9.9999998E-03;  3.8000000E-01;489;  0.0000000E+00;  0.0000000E+00;  0.0000000E+00;  1.0000000E+03;  4.0000001E-01;  0.0000000E+00;0;  0.0000000E+00;  0.0000000E+00;  0.0000000E+00;0; -2.9086623E-05;  1.0000000E+04;  0.0000000E+00;  0.0000000E+00;  1.0000000E+04;  0.0000000E+00;  1.0000000E+04; -1.3666090E-05;  0.0000000E+00; -1.5420532E-05;  4.0913083E-02;
  5.9999999E-02;  9.9999998E-03;  4.0000001E-01;490;  0.0000000E+00;  0.0000000E+00;  0.0000000E+00;  1.0000000E+03;  4.0000001E-01;  0.0000000E+00;0;  0.0000000E+00;  0.0000000E+00;  0.0000000E+00;0; -1.2753322E-05;  1.0000000E+04;  0.0000000E+00;  0.0000000E+00;  1.0000000E+04;  0.0000000E+00;  1.0000000E+04; -5.4927009E-06;  0.0000000E+00; -7.2606217E-06;  1.9126287E-02;
  7.9999998E-02;  9.9999998E-03;  3.4000000E-01;497;  0.0000000E+00;  0.0000000E+00;  0.0000000E+00;  1.0000000E+03;  4.0000001E-01;  0.0000000E+00;0;  0.0000000E+00;  0.0000000E+00;  0.0000000E+00;0; -1.1411625E-04;  1.0000000E+04;  0.0000000E+00;  0.0000000E+00;  1.0000000E+04;  0.0000000E+00;  1.0000000E+04; -7.4772899E-05;  0.0000000E+00; -3.9343355E-05;  1.0875984E-01;
  7.9999998E-02;  9.9999998E-03;  3.6000001E-01;498;  0.0000000E+00;  0.0000000E+00;  0.0000000E+00;  1.0000000E+03;  4.0000001E-01;  0.0000000E+00;0;  0.0000000E+00;  0.0000000E+00;  0.0000000E+00;0; -7.3928881E-05;  1.0000000E+04;  0.0000000E+00;  0.0000000E+00;  1.0000000E+04;  0.0000000E+00;  1.0000000E+04; -4.0841729E-05;  0.0000000E+00; -3.3087155E-05;  9.1861241E-02;
  7.9999998E-02;  9.9999998E-03;  3.8000000E-01;499;  0.0000000E+00;  0.0000000E+00;  0.0000000E+00;  1.0000000E+03;  4.0000001E-01;  0.0000000E+00;0;  0.0000000E+00;  0.0000000E+00;  0.0000000E+00;0; -4.1580792E-05;  1.0000000E+04;  0.0000000E+00;  0.0000000E+00;  1.0000000E+04;  0.0000000E+00;  1.0000000E+04; -1.9591733E-05;  0.0000000E+00; -2.1989059E-05;  6.0907103E-02;
  7.9999998E-02;  9.9999998E-03;  4.0000001E-01;500;  0.0000000E+00;  0.0000000E+00;  0.0000000E+00;  1.0000000E+03;  4.0000001E-01;  0.0000000E+00;0;  0.0000000E+00;  0.0000000E+00;  0.0000000E+00;0; -1.8262694E-05;  1.0000000E+04;  0.0000000E+00;  0.0000000E+00;  1.0000000E+04;  0.0000000E+00;  1.0000000E+04; -7.8770136E-06;  0.0000000E+00; -1.0385681E-05;  2.8573478E-02;
  1.0000000E-01;  9.9999998E-03;  3.4000000E-01;507;  0.0000000E+00;  0.0000000E+00;  0.0000000E+00;  1.0000001E+03;  4.0000001E-01;  9.8762624E-02;0;  0.0000000E+00;  0.0000000E+00;  0.0000000E+00;0; -1.6519403E-04;  1.0000000E+04;  0.0000000E+00;  0.0000000E+00;  1.0000000E+04;  0.0000000E+00;  1.0000000E+04; -1.0961899E-04;  0.0000000E+00; -5.5575034E-05;  1.6413975E-01;
  1.0000000E-01;  9.9999998E-03;  3.6000001E-01;508;  0.0000000E+00;  0.0000000E+00;  0.0000000E+00;  1.0000000E+03;  4.0000001E-01;  0.0000000E+00;0;  0.0000000E+00;  0.0000000E+00;  0.0000000E+00;0; -1.0738619E-04;  1.0000000E+04;  0.0000000E+00;  0.0000000E+00;  1.0000000E+04;  0.0000000E+00;  1.0000000E+04; -6.0528193E-05;  0.0000000E+00; -4.6857996E-05;  1.3662231E-01;
  1.0000000E-01;  9.9999998E-03;  3.8000000E-01;509;  0.0000000E+00;  0.0000000E+00;  0.0000000E+00;  1.0000000E+03;  4.0000001E-01;  0.0000000E+00;0;  0.0000000E+00;  0.0000000E+00;  0.0000000E+00;0; -6.0451286E-05;  1.0000000E+04;  0.0000000E+00;  0.0000000E+00;  1.0000000E+04;  0.0000000E+00;  1.0000000E+04; -2.9279487E-05;  0.0000000E+00; -3.1171799E-05;  9.0158202E-02;
  1.0000000E-01;  9.9999998E-03;  4.0000001E-01;510;  0.0000000E+00;  0.0000000E+00;  0.0000000E+00;  1.0000000E+03;  4.0000001E-01;  0.0000000E+00;0;  0.0000000E+00;  0.0000000E+00;  0.0000000E+00;0; -2.6584687E-05;  1.0000000E+04;  0.0000000E+00;  0.0000000E+00;  1.0000000E+04;  0.0000000E+00;  1.0000000E+04; -1.1845570E-05;  0.0000000E+00; -1.4739117E-05;  4.3200236E-02;
  1.2000000E-01;  9.9999998E-03;  3.4000000E-01;517;  0.0000000E+00;  0.0000000E+00;  0.0000000E+00;  1.0000001E+03;  4.0000001E-01;  9.8762624E-02;0;  0.0000000E+00;  0.0000000E+00;  0.0000000E+00;0; -2.4642376E-04;  1.0000000E+04;  0.0000000E+00;  0.0000000E+00;  1.0000000E+04;  0.0000000E+00;  1.0000000E+04; -1.6695754E-04;  0.0000000E+00; -7.9466226E-05;  2.7941608E-01;
  1.2000000E-01;  9.9999998E-03;  3.6000001E-01;518;  0.0000000E+00;  0.0000000E+00;  0.0000000E+00;  1.0000001E+03;  4.0000001E-01;  9.8762624E-02;0;  0.0000000E+00;  0.0000000E+00;  0.0000000E+00;0; -1.6094881E-04;  1.0000000E+04;  0.0000000E+00;  0.0000000E+00;  1.0000000E+04;  0.0000000E+00;  1.0000000E+04; -9.3797680E-05;  0.0000000E+00; -6.7151122E-05;  2.0781046E-01;
  1.2000000E-01;  9.9999998E-03;  3.8000000E-01;519;  0.0000000E+00;  0.0000000E+00;  0.0000000E+00;  1.0000000E+03;  4.0000001E-01;  0.0000000E+00;0;  0.0000000E+00;  0.0000000E+00;  0.0000000E+00;0; -9.0731395E-05;  1.0000000E+04;  0.0000000E+00;  0.0000000E+00;  1.0000000E+04;  0.0000000E+00;  1.0000000E+04; -4.6021098E-05;  0.0000000E+00; -4.4710301E-05;  1.3854600E-01;
  1.2000000E-01;  9.9999998E-03;  4.0000001E-01;520;  0.0000000E+00;  0.0000000E+00;  0.0000000E+00;  1.0000000E+03;  4.0000001E-01;  0.0000000E+00;0;  0.0000000E+00;  0.0000000E+00;  0.0000000E+00;0; -4.0028150E-05;  1.0000000E+04;  0.0000000E+00;  0.0000000E+00;  1.0000000E+04;  0.0000000E+00;  1.0000000E+04; -1.8856414E-05;  0.0000000E+00; -2.1171734E-05;  7.9591140E-02;
  1.4000000E-01;  9.9999998E-03;  3.4000000E-01;527;  0.0000000E+00;  0.0000000E+00;  0.0000000E+00;  1.0000002E+03;  4.0000001E-01;  1.9752525E-01;0;  0.0000000E+00;  0.0000000E+00;  0.0000000E+00;0; -3.7955804E-04;  1.0000000E+04;  0.0000000E+00;  0.0000000E+00;  1.0000000E+04;  0.0000000E+00;  1.0000000E+04; -2.6298442E-04;  0.0000000E+00; -1.1657361E-04;  5.9093404E-01;
  1.4000000E-01;  9.9999998E-03;  3.6000001E-01;528;  0.0000000E+00;  0.0000000E+00;  0.0000000E+00;  1.0000001E+03;  4.0000001E-01;  9.8762624E-02;0;  0.0000000E+00;  0.0000000E+00;  0.0000000E+00;0; -2.4998977E-04;  1.0000000E+04;  0.0000000E+00;  0.0000000E+00;  1.0000000E+04;  0.0000000E+00;  1.0000000E+04; -1.5116975E-04;  0.0000000E+00; -9.8820012E-05;  3.2786334E-01;
  1.4000000E-01;  9.9999998E-03;  3.8000000E-01;529;  0.0000000E+00;  0.0000000E+00;  0.0000000E+00;  1.0000001E+03;  4.0000001E-01;  9.8762624E-02;0;  0.0000000E+00;  0.0000000E+00;  0.0000000E+00;0; -1.4190332E-04;  1.0000000E+04;  0.0000000E+00;  0.0000000E+00;  1.0000000E+04;  0.0000000E+00;  1.0000000E+04; -7.5728109E-05;  0.0000000E+00; -6.6175206E-05;  2.6074028E-01;
  1.4000000E-01;  9.9999998E-03;  4.0000001E-01;530;  0.0000000E+00;  0.0000000E+00;  0.0000000E+00;  1.0000000E+03;  4.0000001E-01;  0.0000000E+00;0;  0.0000000E+00;  0.0000000E+00;  0.0000000E+00;0; -6.3405038E-05;  1.0000000E+04;  0.0000000E+00;  0.0000000E+00;  1.0000000E+04;  0.0000000E+00;  1.0000000E+04; -3.1716067E-05;  0.0000000E+00; -3.1688967E-05;  2.2027743E-01;
  1.6000000E-01;  9.9999998E-03;  3.4000000E-01;537;  0.0000000E+00;  0.0000000E+00;  0.0000000E+00;  1.0000003E+03;  4.0000001E-01;  2.9628786E-01;0;  0.0000000E+00;  0.0000000E+00;  0.0000000E+00;0; -5.9606752E-04;  1.0000000E+04;  0.0000000E+00;  0.0000000E+00;  1.0000000E+04;  0.0000000E+00;  1.0000000E+04; -4.1911803E-04;  0.0000000E+00; -1.7694947E-04;  1.3751029E+00;
  1.6000000E-01;  9.9999998E-03;  3.6000001E-01;538;  0.0000000E+00;  0.0000000E+00;  0.0000000E+00;  1.0000002E+03;  4.0000001E-01;  1.9752525E-01;0;  0.0000000E+00;  0.0000000E+00;  0.0000000E+00;0; -3.9746950E-04;  1.0000000E+04;  0.0000000E+00;  0.0000000E+00;  1.0000000E+04;  0.0000000E+00;  1.0000000E+04; -2.4678640E-04;  0.0000000E+00; -1.5068310E-04;  5.2716053E-01;
  1.6000000E-01;  9.9999998E-03;  3.8000000E-01;539;  0.0000000E+00;  0.0000000E+00;  0.0000000E+00;  1.0000001E+03;  4.0000001E-01;  9.8762624E-02;0;  0.0000000E+00;  0.0000000E+00;  0.0000000E+00;0; -2.2982733E-04;  1.0000000E+04;  0.0000000E+00;  0.0000000E+00;  1.0000000E+04;  0.0000000E+00;  1.0000000E+04; -1.2706155E-04;  0.0000000E+00; -1.0276578E-04;  6.5841919E-01;
  1.6000000E-01;  9.9999998E-03;  4.0000001E-01;540;  0.0000000E+00;  0.0000000E+00;  0.0000000E+00;  1.0000000E+03;  4.0000001E-01;  0.0000000E+00;0;  0.0000000E+00;  0.0000000E+00;  0.0000000E+00;0; -1.0651923E-04;  1.0000000E+04;  0.0000000E+00;  0.0000000E+00;  1.0000000E+04;  0.0000000E+00;  1.0000000E+04; -5.5310713E-05;  0.0000000E+00; -5.1208524E-05;  6.9110233E-01;
  1.8000001E-01;  9.9999998E-03;  3.4000000E-01;547;  0.0000000E+00;  0.0000000E+00;  0.0000000E+00;  1.0000004E+03;  4.0000001E-01;  3.9505050E-01;0;  0.0000000E+00;  0.0000000E+00;  0.0000000E+00;0; -9.2731987E-04;  1.0000000E+04;  0.0000000E+00;  0.0000000E+00;  1.0000000E+04;  0.0000000E+00;  1.0000000E+04; -6.4962299E-04;  0.0000000E+00; -2.7769688E-04;  2.9376245E+00;
  1.8000001E-01;  9.9999998E-03;  3.6000001E-01;548;  0.0000000E+00;  0.0000000E+00;  0.0000000E+00;  1.0000003E+03;  4.0000001E-01;  2.9628786E-01;0;  0.0000000E+00;  0.0000000E+00;  0.0000000E+00;0; -6.2704494E-04;  1.0000000E+04;  0.0000000E+00;  0.0000000E+00;  1.0000000E+04;  0.0000000E+00;  1.0000000E+04; -3.8905902E-04;  0.0000000E+00; -2.3798594E-04;  8.2815367E-01;
  1.8000001E-01;  9.9999998E-03;  3.8000000E-01;549;  0.0000000E+00;  0.0000000E+00;  0.0000000E+00;  1.0000002E+03;  4.0000001E-01;  1.9752525E-01;0;  0.0000000E+00;  0.0000000E+00;  0.0000000E+00;0; -3.7504444E-04;  1.0000000E+04;  0.0000000E+00;  0.0000000E+00;  1.0000000E+04;  0.0000000E+00;  1.0000000E+04; -2.0646800E-04;  0.0000000E+00; -1.6857644E-04;  1.7160730E+00;
  1.8000001E-01;  9.9999998E-03;  4.0000001E-01;550;  0.0000000E+00;  0.0000000E+00;  0.0000000E+00;  1.0000001E+03;  4.0000001E-01;  9.8762624E-02;0;  0.0000000E+00;  0.0000000E+00;  0.0000000E+00;0; -1.8715338E-04;  1.0000000E+04;  0.0000000E+00;  0.0000000E+00;  1.0000000E+04;  0.0000000E+00;  1.0000000E+04; -9.5521806E-05;  0.0000000E+00; -9.1631577E-05;  1.9605682E+00;
  2.0000000E-01;  9.9999998E-03;  3.4000000E-01;556;  0.0000000E+00;  0.0000000E+00;  0.0000000E+00;  1.0000007E+03;  4.0000001E-01;  5.9257573E-01;0;  0.0000000E+00;  0.0000000E+00;  0.0000000E+00;0; -1.3913098E-03;  1.0000000E+04;  0.0000000E+00;  0.0000000E+00;  1.0000000E+04;  0.0000000E+00;  1.0000000E+04; -9.4670465E-04;  0.0000000E+00; -4.4460519E-04;  5.2339196E+00;
  2.0000000E-01;  9.9999998E-03;  3.6000001E-01;557;  0.0000000E+00;  0.0000000E+00;  0.0000000E+00;  1.0000004E+03;  4.0000001E-01;  3.9505050E-01;0;  0.0000000E+00;  0.0000000E+00;  0.0000000E+00;0; -9.5651881E-04;  1.0000000E+04;  0.0000000E+00;  0.0000000E+00;  1.0000000E+04;  0.0000000E+00;  1.0000000E+04; -5.7134725E-04;  0.0000000E+00; -3.8517159E-04;  1.3218188E+00;
  2.0000000E-01;  9.9999998E-03;  3.8000000E-01;558;  0.0000000E+00;  0.0000000E+00;  0.0000000E+00;  1.0000003E+03;  4.0000001E-01;  2.9628786E-01;0;  0.0000000E+00;  0.0000000E+00;  0.0000000E+00;0; -6.0046790E-04;  1.0000000E+04;  0.0000000E+00;  0.0000000E+00;  1.0000000E+04;  0.0000000E+00;  1.0000000E+04; -3.1180069E-04;  0.0000000E+00; -2.8866719E-04;  3.8126767E+00;
  1.9200000E+00;  9.9999998E-03; -3.6000001E-01;559;  0.0000000E+00;  0.0000000E+00;  0.0000000E+00;  1.0000000E+03;  4.0000001E-01;  0.0000000E+00;0;  0.0000000E+00;  0.0000000E+00;  0.0000000E+00;0;  0.0000000E+00;  1.0000000E+04;  0.0000000E+00;  0.0000000E+00;  1.0000000E+04;  0.0000000E+00;  1.0000000E+04;  0.0000000E+00;  0.0000000E+00;  0.0000000E+00;  0.0000000E+00;
  1.9200000E+00;  9.9999998E-03; -3.4000000E-01;560;  0.0000000E+00;  0.0000000E+00;  0.0000000E+00;  1.0000000E+03;  4.0000001E-01;  0.0000000E+00;0;  0.0000000E+00;  0.0000000E+00;  0.0000000E+00;0;  0.0000000E+00;  1.0000000E+04;  0.0000000E+00;  0.0000000E+00;  1.0000000E+04;  0.0000000E+00;  1.0000000E+04;  0.0000000E+00;  0.0000000E+00;  0.0000000E+00;  0.0000000E+00;
  1.9200000E+00;  9.9999998E-03; -3.1999999E-01;561;  0.0000000E+00;  0.0000000E+00;  0.0000000E+00;  1.0000000E+03;  4.0000001E-01;  0.0000000E+00;0;  0.0000000E+00;  0.0000000E+00;  0.0000000E+00;0;  0.0000000E+00;  1.0000000E+04;  0.0000000E+00;  0.0000000E+00;  1.0000000E+04;  0.0000000E+00;  1.0000000E+04;  0.0000000E+00;  0.0000000E+00;  0.0000000E+00;  0.0000000E+00;
  1.9400001E+00;  9.9999998E-03; -3.8000000E-01;562;  0.0000000E+00;  0.0000000E+00;  0.0000000E+00;  1.0000000E+03;  4.0000001E-01;  0.0000000E+00;0;  0.0000000E+00;  0.0000000E+00;  0.0000000E+00;0;  0.0000000E+00;  1.0000000E+04;  0.0000000E+00;  0.0000000E+00;  1.0000000E+04;  0.0000000E+00;  1.0000000E+04;  0.0000000E+00;  0.0000000E+00;  0.0000000E+00;  0.0000000E+00;
  1.9400001E+00;  9.9999998E-03; -3.6000001E-01;563;  0.0000000E+00;  0.0000000E+00;  0.0000000E+00;  1.0000000E+03;  4.0000001E-01;  0.0000000E+00;0;  0.0000000E+00;  0.0000000E+00;  0.0000000E+00;0;  0.0000000E+00;  1.0000000E+04;  0.0000000E+00;  0.0000000E+00;  1.0000000E+04;  0.0000000E+00;  1.0000000E+04;  0.0000000E+00;  0.0000000E+00;  0.0000000E+00;  0.0000000E+00;
  1.9400001E+00;  9.9999998E-03; -3.4000000E-01;564;  0.0000000E+00;  0.0000000E+00;  0.0000000E+00;  1.0000000E+03;  4.0000001E-01;  0.0000000E+00;0;  0.0000000E+00;  0.0000000E+00;  0.0000000E+00;0;  0.0000000E+00;  1.0000000E+04;  0.0000000E+00;  0.0000000E+00;  1.0000000E+04;  0.0000000E+00;  1.0000000E+04;  0.0000000E+00;  0.0000000E+00;  0.0000000E+00;  0.0000000E+00;
  1.9400001E+00;  9.9999998E-03; -3.1999999E-01;565;  0.0000000E+00;  0.0000000E+00;  0.0000000E+00;  1.0000000E+03;  4.0000001E-01;  0.0000000E+00;0;  0.0000000E+00;  0.0000000E+00;  0.0000000E+00;0;  0.0000000E+00;  1.0000000E+04;  0.0000000E+00;  0.0000000E+00;  1.0000000E+04;  0.0000000E+00;  1.0000000E+04;  0.0000000E+00;  0.0000000E+00;  0.0000000E+00;  0.0000000E+00;
  1.9400001E+00;  9.9999998E-03; -3.0000001E-01;566;  0.0000000E+00;  0.0000000E+00;  0.0000000E+00;  1.0000000E+03;  4.0000001E-01;  0.0000000E+00;0;  0.0000000E+00;  0.0000000E+00;  0.0000000E+00;0;  0.0000000E+00;  1.0000000E+04;  0.0000000E+00;  0.0000000E+00;  1.0000000E+04;  0.0000000E+00;  1.0000000E+04;  0.0000000E+00;  0.0000000E+00;  0.0000000E+00;  0.0000000E+00;
  1.9400001E+00;  9.9999998E-03; -2.8000000E-01;567;  0.0000000E+00;  0.0000000E+00;  0.0000000E+00;  1.0000000E+03;  4.0000001E-01;  0.0000000E+00;0;  0.0000000E+00;  0.0000000E+00;  0.0000000E+00;0;  0.0000000E+00;  1.0000000E+04;  0.0000000E+00;  0.0000000E+00;  1.0000000E+04;  0.0000000E+00;  1.0000000E+04;  0.0000000E+00;  0.0000000E+00;  0.0000000E+00;  0.0000000E+00;
  1.9400001E+00;  9.9999998E-03; -2.5999999E-01;568;  0.0000000E+00;  0.0000000E+00;  0.0000000E+00;  1.0000000E+03;  4.0000001E-01;  0.0000000E+00;0;  0.0000000E+00;  0.0000000E+00;  0.0000000E+00;0;  0.0000000E+00;  1.0000000E+04;  0.0000000E+00;  0.0000000E+00;  1.0000000E+04;  0.0000000E+00;  1.0000000E+04;  0.0000000E+00;  0.0000000E+00;  0.0000000E+00;  0.0000000E+00;
  1.9400001E+00;  9.9999998E-03; -2.3999999E-01;569;  0.0000000E+00;  0.0000000E+00;  0.0000000E+00;  1.0000000E+03;  4.0000001E-01;  0.0000000E+00;0;  0.0000000E+00;  0.0000000E+00;  0.0000000E+00;0;  0.0000000E+00;  1.0000000E+04;  0.0000000E+00;  0.0000000E+00;  1.0000000E+04;  0.0000000E+00;  1.0000000E+04;  0.0000000E+00;  0.0000000E+00;  0.0000000E+00;  0.0000000E+00;
  1.9400001E+00;  9.9999998E-03; -2.2000000E-01;570;  0.0000000E+00;  0.0000000E+00;  0.0000000E+00;  1.0000000E+03;  4.0000001E-01;  0.0000000E+00;0;  0.0000000E+00;  0.0000000E+00;  0.0000000E+00;0;  0.0000000E+00;  1.0000000E+04;  0.0000000E+00;  0.0000000E+00;  1.0000000E+04;  0.0000000E+00;  1.0000000E+04;  0.0000000E+00;  0.0000000E+00;  0.0000000E+00;  0.0000000E+00;
  1.9600000E+00;  9.9999998E-03; -3.8000000E-01;571;  0.0000000E+00;  0.0000000E+00;  0.0000000E+00;  1.0000000E+03;  4.0000001E-01;  0.0000000E+00;0;  0.0000000E+00;  0.0000000E+00;  0.0000000E+00;0;  0.0000000E+00;  1.0000000E+04;  0.0000000E+00;  0.0000000E+00;  1.0000000E+04;  0.0000000E+00;  1.0000000E+04;  0.0000000E+00;  0.0000000E+00;  0.0000000E+00;  0.0000000E+00;
  1.9600000E+00;  9.9999998E-03; -3.6000001E-01;572;  0.0000000E+00;  0.0000000E+00;  0.0000000E+00;  1.0000000E+03;  4.0000001E-01;  0.0000000E+00;0;  0.0000000E+00;  0.0000000E+00;  0.0000000E+00;0;  0.0000000E+00;  1.0000000E+04;  0.0000000E+00;  0.0000000E+00;  1.0000000E+04;  0.0000000E+00;  1.0000000E+04;  0.0000000E+00;  0.0000000E+00;  0.0000000E+00;  0.0000000E+00;
  1.9600000E+00;  9.9999998E-03; -3.4000000E-01;573;  0.0000000E+00;  0.0000000E+00;  0.0000000E+00;  1.0000000E+03;  4.0000001E-01;  0.0000000E+00;0;  0.0000000E+00;  0.0000000E+00;  0.0000000E+00;0;  0.0000000E+00;  1.0000000E+04;  0.0000000E+00;  0.0000000E+00;  1.0000000E+04;  0.0000000E+00;  1.0000000E+04;  0.0000000E+00;  0.0000000E+00;  0.0000000E+00;  0.0000000E+00;
  1.9600000E+00;  9.9999998E-03; -3.1999999E-01;574;  0.0000000E+00;  0.0000000E+00;  0.0000000E+00;  1.0000000E+03;  4.0000001E-01;  0.0000000E+00;0;  0.0000000E+00;  0.0000000E+00;  0.0000000E+00;0;  0.0000000E+00;  1.0000000E+04;  0.0000000E+00;  0.0000000E+00;  1.0000000E+04;  0.0000000E+00;  1.0000000E+04;  0.0000000E+00;  0.0000000E+00;  0.0000000E+00;  0.0000000E+00;
  1.9600000E+00;  9.9999998E-03; -3.0000001E-01;575;  0.0000000E+00;  0.0000000E+00;  0.0000000E+00;  1.0000000E+03;  4.0000001E-01;  0.0000000E+00;0;  0.0000000E+00;  0.0000000E+00;  0.0000000E+00;0;  0.0000000E+00;  1.0000000E+04;  0.0000000E+00;  0.0000000E+00;  1.0000000E+04;  0.0000000E+00;  1.0000000E+04;  0.0000000E+00;  0.0000000E+00;  0.0000000E+00;  0.0000000E+00;
  1.9600000E+00;  9.9999998E-03; -2.8000000E-01;576;  0.0000000E+00;  0.0000000E+00;  0.0000000E+00;  1.0000000E+03;  4.0000001E-01;  0.0000000E+00;0;  0.0000000E+00;  0.0000000E+00;  0.0000000E+00;0;  0.0000000E+00;  1.0000000E+04;  0.0000000E+00;  0.0000000E+00;  1.0000000E+04;  0.0000000E+00;  1.0000000E+04;  0.0000000E+00;  0.0000000E+00;  0.0000000E+00;  0.0000000E+00;
  1.9600000E+00;  9.9999998E-03; -2.5999999E-01;577;  0.0000000E+00;  0.0000000E+00;  0.0000000E+00;  1.0000000E+03;  4.0000001E-01;  0.0000000E+00;0;  0.0000000E+00;  0.0000000E+00;  0.0000000E+00;0;  0.0000000E+00;  1.0000000E+04;  0.0000000E+00;  0.0000000E+00;  1.0000000E+04;  0.0000000E+00;  1.0000000E+04;  0.0000000E+00;  0.0000000E+00;  0.0000000E+00;  0.0000000E+00;
  1.9600000E+00;  9.9999998E-03; -2.3999999E-01;578;  0.0000000E+00;  0.0000000E+00;  0.0000000E+00;  1.0000000E+03;  4.0000001E-01;  0.0000000E+00;0;  0.0000000E+00;  0.0000000E+00;  0.0000000E+00;0;  0.0000000E+00;  1.0000000E+04;  0.0000000E+00;  0.0000000E+00;  1.0000000E+04;  0.0000000E+00;  1.0000000E+04;  0.0000000E+00;  0.0000000E+00;  0.0000000E+00;  0.0000000E+00;
  1.9600000E+00;  9.9999998E-03; -2.2000000E-01;579;  0.0000000E+00;  0.0000000E+00;  0.0000000E+00;  1.0000000E+03;  4.0000001E-01;  0.0000000E+00;0;  0.0000000E+00;  0.0000000E+00;  0.0000000E+00;0;  0.0000000E+00;  1.0000000E+04;  0.0000000E+00;  0.0000000E+00;  1.0000000E+04;  0.0000000E+00;  1.0000000E+04;  0.0000000E+00;  0.0000000E+00;  0.0000000E+00;  0.0000000E+00;
  1.9600000E+00;  9.9999998E-03; -2.0000000E-01;580;  0.0000000E+00;  0.0000000E+00;  0.0000000E+00;  1.0000000E+03;  4.0000001E-01;  0.0000000E+00;0;  0.0000000E+00;  0.0000000E+00;  0.0000000E+00;0;  0.0000000E+00;  1.0000000E+04;  0.0000000E+00;  0.0000000E+00;  1.0000000E+04;  0.0000000E+00;  1.0000000E+04;  0.0000000E+00;  0.0000000E+00;  0.0000000E+00;  0.0000000E+00;
  1.9600000E+00;  9.9999998E-03; -1.8000001E-01;581;  0.0000000E+00;  0.0000000E+00;  0.0000000E+00;  1.0000000E+03;  4.0000001E-01;  0.0000000E+00;0;  0.0000000E+00;  0.0000000E+00;  0.0000000E+00;0;  0.0000000E+00;  1.0000000E+04;  0.0000000E+00;  0.0000000E+00;  1.0000000E+04;  0.0000000E+00;  1.0000000E+04;  0.0000000E+00;  0.0000000E+00;  0.0000000E+00;  0.0000000E+00;
  1.9600000E+00;  9.9999998E-03; -1.6000000E-01;582;  0.0000000E+00;  0.0000000E+00;  0.0000000E+00;  1.0000000E+03;  4.0000001E-01;  0.0000000E+00;0;  0.0000000E+00;  0.0000000E+00;  0.0000000E+00;0;  0.0000000E+00;  1.0000000E+04;  0.0000000E+00;  0.0000000E+00;  1.0000000E+04;  0.0000000E+00;  1.0000000E+04;  0.0000000E+00;  0.0000000E+00;  0.0000000E+00;  0.0000000E+00;
  1.9600000E+00;  9.9999998E-03; -1.4000000E-01;583;  0.0000000E+00;  0.0000000E+00;  0.0000000E+00;  1.0000000E+03;  4.0000001E-01;  0.0000000E+00;0;  0.0000000E+00;  0.0000000E+00;  0.0000000E+00;0;  0.0000000E+00;  1.0000000E+04;  0.0000000E+00;  0.0000000E+00;  1.0000000E+04;  0.0000000E+00;  1.0000000E+04;  0.0000000E+00;  0.0000000E+00;  0.0000000E+00;  0.0000000E+00;
  1.9600000E+00;  9.9999998E-03; -1.2000000E-01;584;  0.0000000E+00;  0.0000000E+00;  0.0000000E+00;  1.0000000E+03;  4.0000001E-01;  0.0000000E+00;0;  0.0000000E+00;  0.0000000E+00;  0.0000000E+00;0;  0.0000000E+00;  1.0000000E+04;  0.0000000E+00;  0.0000000E+00;  1.0000000E+04;  0.0000000E+00;  1.0000000E+04;  0.0000000E+00;  0.0000000E+00;  0.0000000E+00;  0.0000000E+00;
  1.9800000E+00;  9.9999998E-03; -3.8000000E-01;585;  0.0000000E+00;  0.0000000E+00;  0.0000000E+00;  1.0000000E+03;  4.0000001E-01;  0.0000000E+00;0;  0.0000000E+00;  0.0000000E+00;  0.0000000E+00;0;  0.0000000E+00;  1.0000000E+04;  0.0000000E+00;  0.0000000E+00;  1.0000000E+04;  0.0000000E+00;  1.0000000E+04;  0.0000000E+00;  0.0000000E+00;  0.0000000E+00;  0.0000000E+00;
  1.9800000E+00;  9.9999998E-03; -3.6000001E-01;586;  0.0000000E+00;  0.0000000E+00;  0.0000000E+00;  1.0000000E+03;  4.0000001E-01;  0.0000000E+00;0;  0.0000000E+00;  0.0000000E+00;  0.0000000E+00;0;  0.0000000E+00;  1.0000000E+04;  0.0000000E+00;  0.0000000E+00;  1.0000000E+04;  0.0000000E+00;  1.0000000E+04;  0.0000000E+00;  0.0000000E+00;  0.0000000E+00;  0.0000000E+00;
  1.9800000E+00;  9.9999998E-03; -3.4000000E-01;587;  0.0000000E+00;  0.0000000E+00;  0.0000000E+00;  1.0000000E+03;  4.0000001E-01;  0.0000000E+00;0;  0.0000000E+00;  0.0000000E+00;  0.0000000E+00;0;  0.0000000E+00;  1.0000000E+04;  0.0000000E+00;  0.0000000E+00;  1.0000000E+04;  0.0000000E+00;  1.0000000E+04;  0.0000000E+00;  0.0000000E+00;  0.0000000E+00;  0.0000000E+00;
  1.9800000E+00;  9.9999998E-03; -3.1999999E-01;588;  0.0000000E+00;  0.0000000E+00;  0.0000000E+00;  1.0000000E+03;  4.0000001E-01;  0.0000000E+00;0;  0.0000000E+00;  0.0000000E+00;  0.0000000E+00;0;  0.0000000E+00;  1.0000000E+04;  0.0000000E+00;  0.0000000E+00;  1.0000000E+04;  0.0000000E+00;  1.0000000E+04;  0.0000000E+00;  0.0000000E+00;  0.0000000E+00;  0.0000000E+00;
  1.9800000E+00;  9.9999998E-03; -3.0000001E-01;589;  0.0000000E+00;  0.0000000E+00;  0.0000000E+00;  1.0000000E+03;  4.0000001E-01;  0.0000000E+00;0;  0.0000000E+00;  0.0000000E+00;  0.0000000E+00;0;  0.0000000E+00;  1.0000000E+04;  0.0000000E+00;  0.0000000E+00;  1.0000000E+04;  0.0000000E+00;  1.0000000E+04;  0.0000000E+00;  0.0000000E+00;  0.0000000E+00;  0.0000000E+00;
  1.9800000E+00;  9.9999998E-03; -2.8000000E-01;590;  0.0000000E+00;  0.0000000E+00;  0.0000000E+00;  1.0000000E+03;  4.0000001E-01;  0.0000000E+00;0;  0.0000000E+00;  0.0000000E+00;  0.0000000E+00;0;  0.0000000E+00;  1.0000000E+04;  0.0000000E+00;  0.0000000E+00;  1.0000000E+04;  0.0000000E+00;  1.0000000E+04;  0.0000000E+00;  0.0000000E+00;  0.0000000E+00;  0.0000000E+00;
  1.9800000E+00;  9.9999998E-03; -2.5999999E-01;591;  0.0000000E+00;  0.0000000E+00;  0.0000000E+00;  1.0000000E+03;  4.0000001E-01;  0.0000000E+00;0;  0.0000000E+00;  0.0000000E+00;  0.0000000E+00;0;  0.0000000E+00;  1.0000000E+04;  0.0000000E+00;  0.0000000E+00;  1.0000000E+04;  0.0000000E+00;  1.0000000E+04;  0.0000000E+00;  0.0000000E+00;  0.0000000E+00;  0.0000000E+00;
  1.9800000E+00;  9.9999998E-03; -2.3999999E-01;592;  0.0000000E+00;  0.0000000E+00;  0.0000000E+00;  1.0000000E+03;  4.0000001E-01;  0.0000000E+00;0;  0.0000000E+00;  0.0000000E+00;  0.0000000E+00;0;  0.0000000E+00;  1.0000000E+04;  0.0000000E+00;  0.0000000E+00;  1.0000000E+04;  0.0000000E+00;  1.0000000E+04;  0.0000000E+00;  0.0000000E+00;  0.0000000E+00;  0.0000000E+00;
  1.9800000E+00;  9.9999998E-03; -2.2000000E-01;593;  0.0000000E+00;  0.0000000E+00;  0.0000000E+00;  1.0000000E+03;  4.0000001E-01;  0.0000000E+00;0;  0.0000000E+00;  0.0000000E+00;  0.0000000E+00;0;  0.0000000E+00;  1.0000000E+04;  0.0000000E+00;  0.0000000E+00;  1.0000000E+04;  0.0000000E+00;  1.0000000E+04;  0.0000000E+00;  0.0000000E+00;  0.0000000E+00;  0.0000000E+00;
  1.9800000E+00;  9.9999998E-03; -2.0000000E-01;594;  0.0000000E+00;  0.0000000E+00;  0.0000000E+00;  1.0000000E+03;  4.0000001E-01;  0.0000000E+00;0;  0.0000000E+00;  0.0000000E+00;  0.0000000E+00;0;  0.0000000E+00;  1.0000000E+04;  0.0000000E+00;  0.0000000E+00;  1.0000000E+04;  0.0000000E+00;  1.0000000E+04;  0.0000000E+00;  0.0000000E+00;  0.0000000E+00;  0.0000000E+00;
  1.9800000E+00;  9.9999998E-03; -1.8000001E-01;595;  0.0000000E+00;  0.0000000E+00;  0.0000000E+00;  1.0000000E+03;  4.0000001E-01;  0.0000000E+00;0;  0.0000000E+00;  0.0000000E+00;  0.0000000E+00;0;  0.0000000E+00;  1.0000000E+04;  0.0000000E+00;  0.0000000E+00;  1.0000000E+04;  0.0000000E+00;  1.0000000E+04;  0.0000000E+00;  0.0000000E+00;  0.0000000E+00;  0.0000000E+00;
  1.9800000E+00;  9.9999998E-03; -1.6000000E-01;596;  0.0000000E+00;  0.0000000E+00;  0.0000000E+00;  1.0000000E+03;  4.0000001E-01;  0.0000000E+00;0;  0.0000000E+00;  0.0000000E+00;  0.0000000E+00;0;  0.0000000E+00;  1.0000000E+04;  0.0000000E+00;  0.0000000E+00;  1.0000000E+04;  0.0000000E+00;  1.0000000E+04;  0.0000000E+00;  0.0000000E+00;  0.0000000E+00;  0.0000000E+00;
  1.9800000E+00;  9.9999998E-03; -1.4000000E-01;597;  0.0000000E+00;  0.0000000E+00;  0.0000000E+00;  1.0000000E+03;  4.0000001E-01;  0.0000000E+00;0;  0.0000000E+00;  0.0000000E+00;  0.0000000E+00;0;  0.0000000E+00;  1.0000000E+04;  0.0000000E+00;  0.0000000E+00;  1.0000000E+04;  0.0000000E+00;  1.0000000E+04;  0.0000000E+00;  0.0000000E+00;  0.0000000E+00;  0.0000000E+00;
  1.9800000E+00;  9.9999998E-03; -1.2000000E-01;598;  0.0000000E+00;  0.0000000E+00;  0.0000000E+00;  1.0000000E+03;  4.0000001E-01;  0.0000000E+00;0;  0.0000000E+00;  0.0000000E+00;  0.0000000E+00;0;  0.0000000E+00;  1.0000000E+04;  0.0000000E+00;  0.0000000E+00;  1.0000000E+04;  0.0000000E+00;  1.0000000E+04;  0.0000000E+00;  0.0000000E+00;  0.0000000E+00;  0.0000000E+00;
  1.9800000E+00;  9.9999998E-03; -1.0000000E-01;599;  0.0000000E+00;  0.0000000E+00;  0.0000000E+00;  1.0000000E+03;  4.0000001E-01;  0.0000000E+00;0;  0.0000000E+00;  0.0000000E+00;  0.0000000E+00;0;  0.0000000E+00;  1.0000000E+04;  0.0000000E+00;  0.0000000E+00;  1.0000000E+04;  0.0000000E+00;  1.0000000E+04;  0.0000000E+00;  0.0000000E+00;  0.0000000E+00;  0.0000000E+00;
  1.9800000E+00;  9.9999998E-03; -7.9999998E-02;600;  0.0000000E+00;  0.0000000E+00;  0.0000000E+00;  1.0000000E+03;  4.0000001E-01;  0.0000000E+00;0;  0.0000000E+00;  0.0000000E+00;  0.0000000E+00;0;  0.0000000E+00;  1.0000000E+04;  0.0000000E+00;  0.0000000E+00;  1.0000000E+04;  0.0000000E+00;  1.0000000E+04;  0.0000000E+00;  0.0000000E+00;  0.0000000E+00;  0.0000000E+00;
  1.9800000E+00;  9.9999998E-03; -5.9999999E-02;601;  0.0000000E+00;  0.0000000E+00;  0.0000000E+00;  1.0000000E+03;  4.0000001E-01;  0.0000000E+00;0;  0.0000000E+00;  0.0000000E+00;  0.0000000E+00;0;  0.0000000E+00;  1.0000000E+04;  0.0000000E+00;  0.0000000E+00;  1.0000000E+04;  0.0000000E+00;  1.0000000E+04;  0.0000000E+00;  0.0000000E+00;  0.0000000E+00;  0.0000000E+00;
  1.9800000E+00;  9.9999998E-03; -3.9999999E-02;602;  0.0000000E+00;  0.0000000E+00;  0.0000000E+00;  1.0000000E+03;  4.0000001E-01;  0.0000000E+00;0;  0.0000000E+00;  0.0000000E+00;  0.0000000E+00;0;  0.0000000E+00;  1.0000000E+04;  0.0000000E+00;  0.0000000E+00;  1.0000000E+04;  0.0000000E+00;  1.0000000E+04;  0.0000000E+00;  0.0000000E+00;  0.0000000E+00;  0.0000000E+00;
  1.9800000E+00;  9.9999998E-03; -2.0000000E-02;603;  0.0000000E+00;  0.0000000E+00;  0.0000000E+00;  1.0000000E+03;  4.0000001E-01;  0.0000000E+00;0;  0.0000000E+00;  0.0000000E+00;  0.0000000E+00;0;  0.0000000E+00;  1.0000000E+04;  0.0000000E+00;  0.0000000E+00;  1.0000000E+04;  0.0000000E+00;  1.0000000E+04;  0.0000000E+00;  0.0000000E+00;  0.0000000E+00;  0.0000000E+00;
  2.0000000E+00;  9.9999998E-03; -3.8000000E-01;604;  0.0000000E+00;  0.0000000E+00;  0.0000000E+00;  1.0000000E+03;  4.0000001E-01;  0.0000000E+00;0;  0.0000000E+00;  0.0000000E+00;  0.0000000E+00;0;  0.0000000E+00;  1.0000000E+04;  0.0000000E+00;  0.0000000E+00;  1.0000000E+04;  0.0000000E+00;  1.0000000E+04;  0.0000000E+00;  0.0000000E+00;  0.0000000E+00;  0.0000000E+00;
  2.0000000E+00;  9.9999998E-03; -3.6000001E-01;605;  0.0000000E+00;  0.0000000E+00;  0.0000000E+00;  1.0000000E+03;  4.0000001E-01;  0.0000000E+00;0;  0.0000000E+00;  0.0000000E+00;  0.0000000E+00;0;  0.0000000E+00;  1.0000000E+04;  0.0000000E+00;  0.0000000E+00;  1.0000000E+04;  0.0000000E+00;  1.0000000E+04;  0.0000000E+00;  0.0000000E+00;  0.0000000E+00;  0.0000000E+00;
  2.0000000E+00;  9.9999998E-03; -3.4000000E-01;606;  0.0000000E+00;  0.0000000E+00;  0.0000000E+00;  1.0000000E+03;  4.0000001E-01;  0.0000000E+00;0;  0.0000000E+00;  0.0000000E+00;  0.0000000E+00;0;  0.0000000E+00;  1.0000000E+04;  0.0000000E+00;  0.0000000E+00;  1.0000000E+04;  0.0000000E+00;  1.0000000E+04;  0.0000000E+00;  0.0000000E+00;  0.0000000E+00;  0.0000000E+00;
  2.0000000E+00;  9.9999998E-03; -3.1999999E-01;607;  0.0000000E+00;  0.0000000E+00;  0.0000000E+00;  1.0000000E+03;  4.0000001E-01;  0.0000000E+00;0;  0.0000000E+00;  0.0000000E+00;  0.0000000E+00;0;  0.0000000E+00;  1.0000000E+04;  0.0000000E+00;  0.0000000E+00;  1.0000000E+04;  0.0000000E+00;  1.0000000E+04;  0.0000000E+00;  0.0000000E+00;  0.0000000E+00;  0.0000000E+00;
  2.0000000E+00;  9.9999998E-03; -3.0000001E-01;608;  0.0000000E+00;  0.0000000E+00;  0.0000000E+00;  1.0000000E+03;  4.0000001E-01;  0.0000000E+00;0;  0.0000000E+00;  0.0000000E+00;  0.0000000E+00;0;  0.0000000E+00;  1.0000000E+04;  0.0000000E+00;  0.0000000E+00;  1.0000000E+04;  0.0000000E+00;  1.0000000E+04;  0.0000000E+00;  0.0000000E+00;  0.0000000E+00;  0.0000000E+00;
  2.0000000E+00;  9.9999998E-03; -2.8000000E-01;609;  0.0000000E+00;  0.0000000E+00;  0.0000000E+00;  1.0000000E+03;  4.0000001E-01;  0.0000000E+00;0;  0.0000000E+00;  0.0000000E+00;  0.0000000E+00;0;  0.0000000E+00;  1.0000000E+04;  0.0000000E+00;  0.0000000E+00;  1.0000000E+04;  0.0000000E+00;  1.0000000E+04;  0.0000000E+00;  0.0000000E+00;  0.0000000E+00;  0.0000000E+00;
  2.0000000E+00;  9.9999998E-03; -2.5999999E-01;610;  0.0000000E+00;  0.0000000E+00;  0.0000000E+00;  1.0000000E+03;  4.0000001E-01;  0.0000000E+00;0;  0.0000000E+00;  0.0000000E+00;  0.0000000E+00;0;  0.0000000E+00;  1.0000000E+04;  0.0000000E+00;  0.0000000E+00;  1.0000000E+04;  0.0000000E+00;  1.0000000E+04;  0.0000000E+00;  0.0000000E+00;  0.0000000E+00;  0.0000000E+00;
  2.0000000E+00;  9.9999998E-03; -2.3999999E-01;611;  0.0000000E+00;  0.0000000E+00;  0.0000000E+00;  1.0000000E+03;  4.0000001E-01;  0.0000000E+00;0;  0.0000000E+00;  0.0000000E+00;  0.0000000E+00;0;  0.0000000E+00;  1.0000000E+04;  0.0000000E+00;  0.0000000E+00;  1.0000000E+04;  0.0000000E+00;  1.0000000E+04;  0.0000000E+00;  0.0000000E+00;  0.0000000E+00;  0.0000000E+00;
  2.0000000E+00;  9.9999998E-03; -2.2000000E-01;612;  0.0000000E+00;  0.0000000E+00;  0.0000000E+00;  1.0000000E+03;  4.0000001E-01;  0.0000000E+00;0;  0.0000000E+00;  0.0000000E+00;  0.0000000E+00;0;  0.0000000E+00;  1.0000000E+04;  0.0000000E+00;  0.0000000E+00;  1.0000000E+04;  0.0000000E+00;  1.0000000E+04;  0.0000000E+00;  0.0000000E+00;  0.0000000E+00;  0.0000000E+00;
  2.0000000E+00;  9.9999998E-03; -2.0000000E-01;613;  0.0000000E+00;  0.0000000E+00;  0.0000000E+00;  1.0000000E+03;  4.0000001E-01;  0.0000000E+00;0;  0.0000000E+00;  0.0000000E+00;  0.0000000E+00;0;  0.0000000E+00;  1.0000000E+04;  0.0000000E+00;  0.0000000E+00;  1.0000000E+04;  0.0000000E+00;  1.0000000E+04;  0.0000000E+00;  0.0000000E+00;  0.0000000E+00;  0.0000000E+00;
  2.0000000E+00;  9.9999998E-03; -1.8000001E-01;614;  0.0000000E+00;  0.0000000E+00;  0.0000000E+00;  1.0000000E+03;  4.0000001E-01;  0.0000000E+00;0;  0.0000000E+00;  0.0000000E+00;  0.0000000E+00;0;  0.0000000E+00;  1.0000000E+04;  0.0000000E+00;  0.0000000E+00;  1.0000000E+04;  0.0000000E+00;  1.0000000E+04;  0.0000000E+00;  0.0000000E+00;  0.0000000E+00;  0.0000000E+00;
  2.0000000E+00;  9.9999998E-03; -1.6000000E-01;615;  0.0000000E+00;  0.0000000E+00;  0.0000000E+00;  1.0000000E+03;  4.0000001E-01;  0.0000000E+00;0;  0.0000000E+00;  0.0000000E+00;  0.0000000E+00;0;  0.0000000E+00;  1.0000000E+04;  0.0000000E+00;  0.0000000E+00;  1.0000000E+04;  0.0000000E+00;  1.0000000E+04;  0.0000000E+00;  0.0000000E+00;  0.0000000E+00;  0.0000000E+00;
  2.0000000E+00;  9.9999998E-03; -1.4000000E-01;616;  0.0000000E+00;  0.0000000E+00;  0.0000000E+00;  1.0000000E+03;  4.0000001E-01;  0.0000000E+00;0;  0.0000000E+00;  0.0000000E+00;  0.0000000E+00;0;  0.0000000E+00;  1.0000000E+04;  0.0000000E+00;  0.0000000E+00;  1.0000000E+04;  0.0000000E+00;  1.0000000E+04;  0.0000000E+00;  0.0000000E+00;  0.0000000E+00;  0.0000000E+00;
  2.0000000E+00;  9.9999998E-03; -1.2000000E-01;617;  0.0000000E+00;  0.0000000E+00;  0.0000000E+00;  1.0000000E+03;  4.0000001E-01;  0.0000000E+00;0;  0.0000000E+00;  0.0000000E+00;  0.0000000E+00;0;  0.0000000E+00;  1.0000000E+04;  0.0000000E+00;  0.0000000E+00;  1.0000000E+04;  0.0000000E+00;  1.0000000E+04;  0.0000000E+00;  0.0000000E+00;  0.0000000E+00;  0.0000000E+00;
  2.0000000E+00;  9.9999998E-03; -1.0000000E-01;618;  0.0000000E+00;  0.0000000E+00;  0.0000000E+00;  1.0000000E+03;  4.0000001E-01;  0.0000000E+00;0;  0.0000000E+00;  0.0000000E+00;  0.0000000E+00;0;  0.0000000E+00;  1.0000000E+04;  0.0000000E+00;  0.0000000E+00;  1.0000000E+04;  0.0000000E+00;  1.0000000E+04;  0.0000000E+00;  0.0000000E+00;  0.0000000E+00;  0.0000000E+00;
  2.0000000E+00;  9.9999998E-03; -7.9999998E-02;619;  0.0000000E+00;  0.0000000E+00;  0.0000000E+00;  1.0000000E+03;  4.0000001E-01;  0.0000000E+00;0;  0.0000000E+00;  0.0000000E+00;  0.0000000E+00;0;  0.0000000E+00;  1.0000000E+04;  0.0000000E+00;  0.0000000E+00;  1.0000000E+04;  0.0000000E+00;  1.0000000E+04;  0.0000000E+00;  0.0000000E+00;  0.0000000E+00;  0.0000000E+00;
  2.0000000E+00;  9.9999998E-03; -5.9999999E-02;620;  0.0000000E+00;  0.0000000E+00;  0.0000000E+00;  1.0000000E+03;  4.0000001E-01;  0.0000000E+00;0;  0.0000000E+00;  0.0000000E+00;  0.0000000E+00;0;  0.0000000E+00;  1.0000000E+04;  0.0000000E+00;  0.0000000E+00;  1.0000000E+04;  0.0000000E+00;  1.0000000E+04;  0.0000000E+00;  0.0000000E+00;  0.0000000E+00;  0.0000000E+00;
  2.0000000E+00;  9.9999998E-03; -3.9999999E-02;621;  0.0000000E+00;  0.0000000E+00;  0.0000000E+00;  1.0000000E+03;  4.0000001E-01;  0.0000000E+00;0;  0.0000000E+00;  0.0000000E+00;  0.0000000E+00;0;  0.0000000E+00;  1.0000000E+04;  0.0000000E+00;  0.0000000E+00;  1.0000000E+04;  0.0000000E+00;  1.0000000E+04;  0.0000000E+00;  0.0000000E+00;  0.0000000E+00;  0.0000000E+00;
  2.0000000E+00;  9.9999998E-03; -2.0000000E-02;622;  0.0000000E+00;  0.0000000E+00;  0.0000000E+00;  1.0000000E+03;  4.0000001E-01;  0.0000000E+00;0;  0.0000000E+00;  0.0000000E+00;  0.0000000E+00;0;  0.0000000E+00;  1.0000000E+04;  0.0000000E+00;  0.0000000E+00;  1.0000000E+04;  0.0000000E+00;  1.0000000E+04;  0.0000000E+00;  0.0000000E+00;  0.0000000E+00;  0.0000000E+00;
  2.0000000E+00;  9.9999998E-03;  0.0000000E+00;623;  0.0000000E+00;  0.0000000E+00;  0.0000000E+00;  1.0000000E+03;  4.0000001E-01;  0.0000000E+00;0;  0.0000000E+00;  0.0000000E+00;  0.0000000E+00;0;  0.0000000E+00;  1.0000000E+04;  0.0000000E+00;  0.0000000E+00;  1.0000000E+04;  0.0000000E+00;  1.0000000E+04;  0.0000000E+00;  0.0000000E+00;  0.0000000E+00;  0.0000000E+00;
  2.0000000E+00;  9.9999998E-03;  2.0000000E-02;624;  0.0000000E+00;  0.0000000E+00;  0.0000000E+00;  1.0000000E+03;  4.0000001E-01;  0.0000000E+00;0;  0.0000000E+00;  0.0000000E+00;  0.0000000E+00;0;  0.0000000E+00;  1.0000000E+04;  0.0000000E+00;  0.0000000E+00;  1.0000000E+04;  0.0000000E+00;  1.0000000E+04;  0.0000000E+00;  0.0000000E+00;  0.0000000E+00;  0.0000000E+00;
  2.0000000E+00;  9.9999998E-03;  3.9999999E-02;625;  0.0000000E+00;  0.0000000E+00;  0.0000000E+00;  1.0000000E+03;  4.0000001E-01;  0.0000000E+00;0;  0.0000000E+00;  0.0000000E+00;  0.0000000E+00;0;  0.0000000E+00;  1.0000000E+04;  0.0000000E+00;  0.0000000E+00;  1.0000000E+04;  0.0000000E+00;  1.0000000E+04;  0.0000000E+00;  0.0000000E+00;  0.0000000E+00;  0.0000000E+00;
  2.0000000E+00;  9.9999998E-03;  5.9999999E-02;626;  0.0000000E+00;  0.0000000E+00;  0.0000000E+00;  1.0000000E+03;  4.0000001E-01;  0.0000000E+00;0;  0.0000000E+00;  0.0000000E+00;  0.0000000E+00;0;  0.0000000E+00;  1.0000000E+04;  0.0000000E+00;  0.0000000E+00;  1.0000000E+04;  0.0000000E+00;  1.0000000E+04;  0.0000000E+00;  0.0000000E+00;  0.0000000E+00;  0.0000000E+00;
  2.0000000E+00;  9.9999998E-03;  7.9999998E-02;627;  0.0000000E+00;  0.0000000E+00;  0.0000000E+00;  1.0000000E+03;  4.0000001E-01;  0.0000000E+00;0;  0.0000000E+00;  0.0000000E+00;  0.0000000E+00;0;  0.0000000E+00;  1.0000000E+04;  0.0000000E+00;  0.0000000E+00;  1.0000000E+04;  0.0000000E+00;  1.0000000E+04;  0.0000000E+00;  0.0000000E+00;  0.0000000E+00;  0.0000000E+00;
  2.0200000E+00;  9.9999998E-03; -4.0000001E-01;628;  0.0000000E+00;  0.0000000E+00;  0.0000000E+00;  1.0000000E+03;  4.0000001E-01;  0.0000000E+00;0;  0.0000000E+00;  0.0000000E+00;  0.0000000E+00;0;  0.0000000E+00;  1.0000000E+04;  0.0000000E+00;  0.0000000E+00;  1.0000000E+04;  0.0000000E+00;  1.0000000E+04;  0.0000000E+00;  0.0000000E+00;  0.0000000E+00;  0.0000000E+00;
  2.0200000E+00;  9.9999998E-03; -3.8000000E-01;629;  0.0000000E+00;  0.0000000E+00;  0.0000000E+00;  1.0000000E+03;  4.0000001E-01;  0.0000000E+00;0;  0.0000000E+00;  0.0000000E+00;  0.0000000E+00;0;  0.0000000E+00;  1.0000000E+04;  0.0000000E+00;  0.0000000E+00;  1.0000000E+04;  0.0000000E+00;  1.0000000E+04;  0.0000000E+00;  0.0000000E+00;  0.0000000E+00;  0.0000000E+00;
  2.0200000E+00;  9.9999998E-03; -3.6000001E-01;630;  0.0000000E+00;  0.0000000E+00;  0.0000000E+00;  1.0000000E+03;  4.0000001E-01;  0.0000000E+00;0;  0.0000000E+00;  0.0000000E+00;  0.0000000E+00;0;  0.0000000E+00;  1.0000000E+04;  0.0000000E+00;  0.0000000E+00;  1.0000000E+04;  0.0000000E+00;  1.0000000E+04;  0.0000000E+00;  0.0000000E+00;  0.0000000E+00;  0.0000000E+00;
  2.0200000E+00;  9.9999998E-03; -3.4000000E-01;631;  0.0000000E+00;  0.0000000E+00;  0.0000000E+00;  1.0000000E+03;  4.0000001E-01;  0.0000000E+00;0;  0.0000000E+00;  0.0000000E+00;  0.0000000E+00;0;  0.0000000E+00;  1.0000000E+04;  0.0000000E+00;  0.0000000E+00;  1.0000000E+04;  0.0000000E+00;  1.0000000E+04;  0.0000000E+00;  0.0000000E+00;  0.0000000E+00;  0.0000000E+00;
  2.0200000E+00;  9.9999998E-03; -3.1999999E-01;632;  0.0000000E+00;  0.0000000E+00;  0.0000000E+00;  1.0000000E+03;  4.0000001E-01;  0.0000000E+00;0;  0.0000000E+00;  0.0000000E+00;  0.0000000E+00;0;  0.0000000E+00;  1.0000000E+04;  0.0000000E+00;  0.0000000E+00;  1.0000000E+04;  0.0000000E+00;  1.0000000E+04;  0.0000000E+00;  0.0000000E+00;  0.0000000E+00;  0.0000000E+00;
  2.0200000E+00;  9.9999998E-03; -3.0000001E-01;633;  0.0000000E+00;  0.0000000E+00;  0.0000000E+00;  1.0000000E+03;  4.0000001E-01;  0.0000000E+00;0;  0.0000000E+00;  0.0000000E+00;  0.0000000E+00;0;  0.0000000E+00;  1.0000000E+04;  0.0000000E+00;  0.0000000E+00;  1.0000000E+04;  0.0000000E+00;  1.0000000E+04;  0.0000000E+00;  0.0000000E+00;  0.0000000E+00;  0.0000000E+00;
  2.0200000E+00;  9.9999998E-03; -2.8000000E-01;634;  0.0000000E+00;  0.0000000E+00;  0.0000000E+00;  1.0000000E+03;  4.0000001E-01;  0.0000000E+00;0;  0.0000000E+00;  0.0000000E+00;  0.0000000E+00;0;  0.0000000E+00;  1.0000000E+04;  0.0000000E+00;  0.0000000E+00;  1.0000000E+04;  0.0000000E+00;  1.0000000E+04;  0.0000000E+00;  0.0000000E+00;  0.0000000E+00;  0.0000000E+00;
  2.0200000E+00;  9.9999998E-03; -2.5999999E-01;635;  0.0000000E+00;  0.0000000E+00;  0.0000000E+00;  1.0000000E+03;  4.0000001E-01;  0.0000000E+00;0;  0.0000000E+00;  0.0000000E+00;  0.0000000E+00;0;  0.0000000E+00;  1.0000000E+04;  0.0000000E+00;  0.0000000E+00;  1.0000000E+04;  0.0000000E+00;  1.0000000E+04;  0.0000000E+00;  0.0000000E+00;  0.0000000E+00;  0.0000000E+00;
  2.0200000E+00;  9.9999998E-03; -2.3999999E-01;636;  0.0000000E+00;  0.0000000E+00;  0.0000000E+00;  1.0000000E+03;  4.0000001E-01;  0.0000000E+00;0;  0.0000000E+00;  0.0000000E+00;  0.0000000E+00;0;  0.0000000E+00;  1.0000000E+04;  0.0000000E+00;  0.0000000E+00;  1.0000000E+04;  0.0000000E+00;  1.0000000E+04;  0.0000000E+00;  0.0000000E+00;  0.0000000E+00;  0.0000000E+00;
  2.0200000E+00;  9.9999998E-03; -2.2000000E-01;637;  0.0000000E+00;  0.0000000E+00;  0.0000000E+00;  1.0000000E+03;  4.0000001E-01;  0.0000000E+00;0;  0.0000000E+00;  0.0000000E+00;  0.0000000E+00;0;  0.0000000E+00;  1.0000000E+04;  0.0000000E+00;  0.0000000E+00;  1.0000000E+04;  0.0000000E+00;  1.0000000E+04;  0.0000000E+00;  0.0000000E+00;  0.0000000E+00;  0.0000000E+00;
  2.0200000E+00;  9.9999998E-03; -2.0000000E-01;638;  0.0000000E+00;  0.0000000E+00;  0.0000000E+00;  1.0000000E+03;  4.0000001E-01;  0.0000000E+00;0;  0.0000000E+00;  0.0000000E+00;  0.0000000E+00;0;  0.0000000E+00;  1.0000000E+04;  0.0000000E+00;  0.0000000E+00;  1.0000000E+04;  0.0000000E+00;  1.0000000E+04;  0.0000000E+00;  0.0000000E+00;  0.0000000E+00;  0.0000000E+00;
  2.0200000E+00;  9.9999998E-03; -1.8000001E-01;639;  0.0000000E+00;  0.0000000E+00;  0.0000000E+00;  1.0000000E+03;  4.0000001E-01;  0.0000000E+00;0;  0.0000000E+00;  0.0000000E+00;  0.0000000E+00;0;  0.0000000E+00;  1.0000000E+04;  0.0000000E+00;  0.0000000E+00;  1.0000000E+04;  0.0000000E+00;  1.0000000E+04;  0.0000000E+00;  0.0000000E+00;  0.0000000E+00;  0.0000000E+00;
  2.0200000E+00;  9.9999998E-03; -1.6000000E-01;640;  0.0000000E+00;  0.0000000E+00;  0.0000000E+00;  1.0000000E+03;  4.0000001E-01;  0.0000000E+00;0;  0.0000000E+00;  0.0000000E+00;  0.0000000E+00;0;  0.0000000E+00;  1.0000000E+04;  0.0000000E+00;  0.0000000E+00;  1.0000000E+04;  0.0000000E+00;  1.0000000E+04;  0.0000000E+00;  0.0000000E+00;  0.0000000E+00;  0.0000000E+00;
  2.0200000E+00;  9.9999998E-03; -1.4000000E-01;641;  0.0000000E+00;  0.0000000E+00;  0.0000000E+00;  1.0000000E+03;  4.0000001E-01;  0.0000000E+00;0;  0.0000000E+00;  0.0000000E+00;  0.0000000E+00;0;  0.0000000E+00;  1.0000000E+04;  0.0000000E+00;  0.0000000E+00;  1.0000000E+04;  0.0000000E+00;  1.0000000E+04;  0.0000000E+00;  0.0000000E+00;  0.0000000E+00;  0.0000000E+00;
  2.0200000E+00;  9.9999998E-03; -1.2000000E-01;642;  0.0000000E+00;  0.0000000E+00;  0.0000000E+00;  1.0000000E+03;  4.0000001E-01;  0.0000000E+00;0;  0.0000000E+00;  0.0000000E+00;  0.0000000E+00;0;  0.0000000E+00;  1.0000000E+04;  0.0000000E+00;  0.0000000E+00;  1.0000000E+04;  0.0000000E+00;  1.0000000E+04;  0.0000000E+00;  0.0000000E+00;  0.0000000E+00;  0.0000000E+00;
  2.0200000E+00;  9.9999998E-03; -1.0000000E-01;643;  0.0000000E+00;  0.0000000E+00;  0.0000000E+00;  1.0000000E+03;  4.0000001E-01;  0.0000000E+00;0;  0.0000000E+00;  0.0000000E+00;  0.0000000E+00;0;  0.0000000E+00;  1.0000000E+04;  0.0000000E+00;  0.0000000E+00;  1.0000000E+04;  0.0000000E+00;  1.0000000E+04;  0.0000000E+00;  0.0000000E+00;  0.0000000E+00;  0.0000000E+00;
  2.0200000E+00;  9.9999998E-03; -7.9999998E-02;644;  0.0000000E+00;  0.0000000E+00;  0.0000000E+00;  1.0000000E+03;  4.0000001E-01;  0.0000000E+00;0;  0.0000000E+00;  0.0000000E+00;  0.0000000E+00;0;  0.0000000E+00;  1.0000000E+04;  0.0000000E+00;  0.0000000E+00;  1.0000000E+04;  0.0000000E+00;  1.0000000E+04;  0.0000000E+00;  0.0000000E+00;  0.0000000E+00;  0.0000000E+00;
  2.0200000E+00;  9.9999998E-03; -5.9999999E-02;645;  0.0000000E+00;  0.0000000E+00;  0.0000000E+00;  1.0000000E+03;  4.0000001E-01;  0.0000000E+00;0;  0.0000000E+00;  0.0000000E+00;  0.0000000E+00;0;  0.0000000E+00;  1.0000000E+04;  0.0000000E+00;  0.0000000E+00;  1.0000000E+04;  0.0000000E+00;  1.0000000E+04;  0.0000000E+00;  0.0000000E+00;  0.0000000E+00;  0.0000000E+00;
  2.0200000E+00;  9.9999998E-03; -3.9999999E-02;646;  0.0000000E+00;  0.0000000E+00;  0.0000000E+00;  1.0000000E+03;  4.0000001E-01;  0.0000000E+00;0;  0.0000000E+00;  0.0000000E+00;  0.0000000E+00;0;  0.0000000E+00;  1.0000000E+04;  0.0000000E+00;  0.0000000E+00;  1.0000000E+04;  0.0000000E+00;  1.0000000E+04;  0.0000000E+00;  0.0000000E+00;  0.0000000E+00;  0.0000000E+00;
  2.0200000E+00;  9.9999998E-03; -2.0000000E-02;647;  0.0000000E+00;  0.0000000E+00;  0.0000000E+00;  1.0000000E+03;  4.0000001E-01;  0.0000000E+00;0;  0.0000000E+00;  0.0000000E+00;  0.0000000E+00;0;  0.0000000E+00;  1.0000000E+04;  0.0000000E+00;  0.0000000E+00;  1.0000000E+04;  0.0000000E+00;  1.0000000E+04;  0.0000000E+00;  0.0000000E+00;  0.0000000E+00;  0.0000000E+00;
  2.0200000E+00;  9.9999998E-03;  0.0000000E+00;648;  0.0000000E+00;  0.0000000E+00;  0.0000000E+00;  1.0000000E+03;  4.0000001E-01;  0.0000000E+00;0;  0.0000000E+00;  0.0000000E+00;  0.0000000E+00;0;  0.0000000E+00;  1.0000000E+04;  0.0000000E+00;  0.0000000E+00;  1.0000000E+04;  0.0000000E+00;  1.0000000E+04;  0.0000000E+00;  0.0000000E+00;  0.0000000E+00;  0.0000000E+00;
  2.0200000E+00;  9.9999998E-03;  2.0000000E-02;649;  0.0000000E+00;  0.0000000E+00;  0.0000000E+00;  1.0000000E+03;  4.0000001E-01;  0.0000000E+00;0;  0.0000000E+00;  0.0000000E+00;  0.0000000E+00;0;  0.0000000E+00;  1.0000000E+04;  0.0000000E+00;  0.0000000E+00;  1.0000000E+04;  0.0000000E+00;  1.0000000E+04;  0.0000000E+00;  0.0000000E+00;  0.0000000E+00;  0.0000000E+00;
  2.0200000E+00;  9.9999998E-03;  3.9999999E-02;650;  0.0000000E+00;  0.0000000E+00;  0.0000000E+00;  1.0000000E+03;  4.0000001E-01;  0.0000000E+00;0;  0.0000000E+00;  0.0000000E+00;  0.0000000E+00;0;  0.0000000E+00;  1.0000000E+04;  0.0000000E+00;  0.0000000E+00;  1.0000000E+04;  0.0000000E+00;  1.0000000E+04;  0.0000000E+00;  0.0000000E+00;  0.0000000E+00;  0.0000000E+00;
  2.0200000E+00;  9.9999998E-03;  5.9999999E-02;651;  0.0000000E+00;  0.0000000E+00;  0.0000000E+00;  1.0000000E+03;  4.0000001E-01;  0.0000000E+00;0;  0.0000000E+00;  0.0000000E+00;  0.0000000E+00;0;  0.0000000E+00;  1.0000000E+04;  0.0000000E+00;  0.0000000E+00;  1.0000000E+04;  0.0000000E+00;  1.0000000E+04;  0.0000000E+00;  0.0000000E+00;  0.0000000E+00;  0.0000000E+00;
  2.0200000E+00;  9.9999998E-03;  7.9999998E-02;652;  0.0000000E+00;  0.0000000E+00;  0.0000000E+00;  1.0000000E+03;  4.0000001E-01;  0.0000000E+00;0;  0.0000000E+00;  0.0000000E+00;  0.0000000E+00;0;  0.0000000E+00;  1.0000000E+04;  0.0000000E+00;  0.0000000E+00;  1.0000000E+04;  0.0000000E+00;  1.0000000E+04;  0.0000000E+00;  0.0000000E+00;  0.0000000E+00;  0.0000000E+00;
  2.0200000E+00;  9.9999998E-03;  1.0000000E-01;653;  0.0000000E+00;  0.0000000E+00;  0.0000000E+00;  1.0000000E+03;  4.0000001E-01;  0.0000000E+00;0;  0.0000000E+00;  0.0000000E+00;  0.0000000E+00;0;  0.0000000E+00;  1.0000000E+04;  0.0000000E+00;  0.0000000E+00;  1.0000000E+04;  0.0000000E+00;  1.0000000E+04;  0.0000000E+00;  0.0000000E+00;  0.0000000E+00;  0.0000000E+00;
  2.0200000E+00;  9.9999998E-03;  1.2000000E-01;654;  0.0000000E+00;  0.0000000E+00;  0.0000000E+00;  1.0000000E+03;  4.0000001E-01;  0.0000000E+00;0;  0.0000000E+00;  0.0000000E+00;  0.0000000E+00;0;  0.0000000E+00;  1.0000000E+04;  0.0000000E+00;  0.0000000E+00;  1.0000000E+04;  0.0000000E+00;  1.0000000E+04;  0.0000000E+00;  0.0000000E+00;  0.0000000E+00;  0.0000000E+00;
  2.0200000E+00;  9.9999998E-03;  1.4000000E-01;655;  0.0000000E+00;  0.0000000E+00;  0.0000000E+00;  1.0000000E+03;  4.0000001E-01;  0.0000000E+00;0;  0.0000000E+00;  0.0000000E+00;  0.0000000E+00;0;  0.0000000E+00;  1.0000000E+04;  0.0000000E+00;  0.0000000E+00;  1.0000000E+04;  0.0000000E+00;  1.0000000E+04;  0.0000000E+00;  0.0000000E+00;  0.0000000E+00;  0.0000000E+00;
  2.0200000E+00;  9.9999998E-03;  1.6000000E-01;656;  0.0000000E+00;  0.0000000E+00;  0.0000000E+00;  1.0000000E+03;  4.0000001E-01;  0.0000000E+00;0;  0.0000000E+00;  0.0000000E+00;  0.0000000E+00;0;  0.0000000E+00;  1.0000000E+04;  0.0000000E+00;  0.0000000E+00;  1.0000000E+04;  0.0000000E+00;  1.0000000E+04;  0.0000000E+00;  0.0000000E+00;  0.0000000E+00;  0.0000000E+00;
  2.0200000E+00;  9.9999998E-03;  1.8000001E-01;657;  0.0000000E+00;  0.0000000E+00;  0.0000000E+00;  1.0000000E+03;  4.0000001E-01;  0.0000000E+00;0;  0.0000000E+00;  0.0000000E+00;  0.0000000E+00;0;  0.0000000E+00;  1.0000000E+04;  0.0000000E+00;  0.0000000E+00;  1.0000000E+04;  0.0000000E+00;  1.0000000E+04;  0.0000000E+00;  0.0000000E+00;  0.0000000E+00;  0.0000000E+00;
  2.0400000E+00;  9.9999998E-03; -4.0000001E-01;658;  0.0000000E+00;  0.0000000E+00;  0.0000000E+00;  1.0000000E+03;  4.0000001E-01;  0.0000000E+00;0;  0.0000000E+00;  0.0000000E+00;  0.0000000E+00;0;  0.0000000E+00;  1.0000000E+04;  0.0000000E+00;  0.0000000E+00;  1.0000000E+04;  0.0000000E+00;  1.0000000E+04;  0.0000000E+00;  0.0000000E+00;  0.0000000E+00;  0.0000000E+00;
  2.0400000E+00;  9.9999998E-03; -3.8000000E-01;659;  0.0000000E+00;  0.0000000E+00;  0.0000000E+00;  1.0000000E+03;  4.0000001E-01;  0.0000000E+00;0;  0.0000000E+00;  0.0000000E+00;  0.0000000E+00;0;  0.0000000E+00;  1.0000000E+04;  0.0000000E+00;  0.0000000E+00;  1.0000000E+04;  0.0000000E+00;  1.0000000E+04;  0.0000000E+00;  0.0000000E+00;  0.0000000E+00;  0.0000000E+00;
  2.0400000E+00;  9.9999998E-03; -3.6000001E-01;660;  0.0000000E+00;  0.0000000E+00;  0.0000000E+00;  1.0000000E+03;  4.0000001E-01;  0.0000000E+00;0;  0.0000000E+00;  0.0000000E+00;  0.0000000E+00;0;  0.0000000E+00;  1.0000000E+04;  0.0000000E+00;  0.0000000E+00;  1.0000000E+04;  0.0000000E+00;  1.0000000E+04;  0.0000000E+00;  0.0000000E+00;  0.0000000E+00;  0.0000000E+00;
  2.0400000E+00;  9.9999998E-03; -3.4000000E-01;661;  0.0000000E+00;  0.0000000E+00;  0.0000000E+00;  1.0000000E+03;  4.0000001E-01;  0.0000000E+00;0;  0.0000000E+00;  0.0000000E+00;  0.0000000E+00;0;  0.0000000E+00;  1.0000000E+04;  0.0000000E+00;  0.0000000E+00;  1.0000000E+04;  0.0000000E+00;  1.0000000E+04;  0.0000000E+00;  0.0000000E+00;  0.0000000E+00;  0.0000000E+00;
  2.0400000E+00;  9.9999998E-03; -3.1999999E-01;662;  0.0000000E+00;  0.0000000E+00;  0.0000000E+00;  1.0000000E+03;  4.0000001E-01;  0.0000000E+00;0;  0.0000000E+00;  0.0000000E+00;  0.0000000E+00;0;  0.0000000E+00;  1.0000000E+04;  0.0000000E+00;  0.0000000E+00;  1.0000000E+04;  0.0000000E+00;  1.0000000E+04;  0.0000000E+00;  0.0000000E+00;  0.0000000E+00;  0.0000000E+00;
  2.0400000E+00;  9.9999998E-03; -3.0000001E-01;663;  0.0000000E+00;  0.0000000E+00;  0.0000000E+00;  1.0000000E+03;  4.0000001E-01;  0.0000000E+00;0;  0.0000000E+00;  0.0000000E+00;  0.0000000E+00;0;  0.0000000E+00;  1.0000000E+04;  0.0000000E+00;  0.0000000E+00;  1.0000000E+04;  0.0000000E+00;  1.0000000E+04;  0.0000000E+00;  0.0000000E+00;  0.0000000E+00;  0.0000000E+00;
  2.0400000E+00;  9.9999998E-03; -2.8000000E-01;664;  0.0000000E+00;  0.0000000E+00;  0.0000000E+00;  1.0000000E+03;  4.0000001E-01;  0.0000000E+00;0;  0.0000000E+00;  0.0000000E+00;  0.0000000E+00;0;  0.0000000E+00;  1.0000000E+04;  0.0000000E+00;  0.0000000E+00;  1.0000000E+04;  0.0000000E+00;  1.0000000E+04;  0.0000000E+00;  0.0000000E+00;  0.0000000E+00;  0.0000000E+00;
  2.0400000E+00;  9.9999998E-03; -2.5999999E-01;665;  0.0000000E+00;  0.0000000E+00;  0.0000000E+00;  1.0000000E+03;  4.0000001E-01;  0.0000000E+00;0;  0.0000000E+00;  0.0000000E+00;  0.0000000E+00;0;  0.0000000E+00;  1.0000000E+04;  0.0000000E+00;  0.0000000E+00;  1.0000000E+04;  0.0000000E+00;  1.0000000E+04;  0.0000000E+00;  0.0000000E+00;  0.0000000E+00;  0.0000000E+00;
  2.0400000E+00;  9.9999998E-03; -2.3999999E-01;666;  0.0000000E+00;  0.0000000E+00;  0.0000000E+00;  1.0000000E+03;  4.0000001E-01;  0.0000000E+00;0;  0.0000000E+00;  0.0000000E+00;  0.0000000E+00;0;  0.0000000E+00;  1.0000000E+04;  0.0000000E+00;  0.0000000E+00;  1.0000000E+04;  0.0000000E+00;  1.0000000E+04;  0.0000000E+00;  0.0000000E+00;  0.0000000E+00;  0.0000000E+00;
  2.0400000E+00;  9.9999998E-03; -2.2000000E-01;667;  0.0000000E+00;  0.0000000E+00;  0.0000000E+00;  1.0000000E+03;  4.0000001E-01;  0.0000000E+00;0;  0.0000000E+00;  0.0000000E+00;  0.0000000E+00;0;  0.0000000E+00;  1.0000000E+04;  0.0000000E+00;  0.0000000E+00;  1.0000000E+04;  0.0000000E+00;  1.0000000E+04;  0.0000000E+00;  0.0000000E+00;  0.0000000E+00;  0.0000000E+00;
  2.0400000E+00;  9.9999998E-03; -2.0000000E-01;668;  0.0000000E+00;  0.0000000E+00;  0.0000000E+00;  1.0000000E+03;  4.0000001E-01;  0.0000000E+00;0;  0.0000000E+00;  0.0000000E+00;  0.0000000E+00;0;  0.0000000E+00;  1.0000000E+04;  0.0000000E+00;  0.0000000E+00;  1.0000000E+04;  0.0000000E+00;  1.0000000E+04;  0.0000000E+00;  0.0000000E+00;  0.0000000E+00;  0.0000000E+00;
  2.0400000E+00;  9.9999998E-03; -1.8000001E-01;669;  0.0000000E+00;  0.0000000E+00;  0.0000000E+00;  1.0000000E+03;  4.0000001E-01;  0.0000000E+00;0;  0.0000000E+00;  0.0000000E+00;  0.0000000E+00;0;  0.0000000E+00;  1.0000000E+04;  0.0000000E+00;  0.0000000E+00;  1.0000000E+04;  0.0000000E+00;  1.0000000E+04;  0.0000000E+00;  0.0000000E+00;  0.0000000E+00;  0.0000000E+00;
  2.0400000E+00;  9.9999998E-03; -1.6000000E-01;670;  0.0000000E+00;  0.0000000E+00;  0.0000000E+00;  1.0000000E+03;  4.0000001E-01;  0.0000000E+00;0;  0.0000000E+00;  0.0000000E+00;  0.0000000E+00;0;  0.0000000E+00;  1.0000000E+04;  0.0000000E+00;  0.0000000E+00;  1.0000000E+04;  0.0000000E+00;  1.0000000E+04;  0.0000000E+00;  0.0000000E+00;  0.0000000E+00;  0.0000000E+00;
  2.0400000E+00;  9.9999998E-03; -1.4000000E-01;671;  0.0000000E+00;  0.0000000E+00;  0.0000000E+00;  1.0000000E+03;  4.0000001E-01;  0.0000000E+00;0;  0.0000000E+00;  0.0000000E+00;  0.0000000E+00;0;  0.0000000E+00;  1.0000000E+04;  0.0000000E+00;  0.0000000E+00;  1.0000000E+04;  0.0000000E+00;  1.0000000E+04;  0.0000000E+00;  0.0000000E+00;  0.0000000E+00;  0.0000000E+00;
  2.0400000E+00;  9.9999998E-03; -1.2000000E-01;672;  0.0000000E+00;  0.0000000E+00;  0.0000000E+00;  1.0000000E+03;  4.0000001E-01;  0.0000000E+00;0;  0.0000000E+00;  0.0000000E+00;  0.0000000E+00;0;  0.0000000E+00;  1.0000000E+04;  0.0000000E+00;  0.0000000E+00;  1.0000000E+04;  0.0000000E+00;  1.0000000E+04;  0.0000000E+00;  0.0000000E+00;  0.0000000E+00;  0.0000000E+00;
  2.0400000E+00;  9.9999998E-03; -1.0000000E-01;673;  0.0000000E+00;  0.0000000E+00;  0.0000000E+00;  1.0000000E+03;  4.0000001E-01;  0.0000000E+00;0;  0.0000000E+00;  0.0000000E+00;  0.0000000E+00;0;  0.0000000E+00;  1.0000000E+04;  0.0000000E+00;  0.0000000E+00;  1.0000000E+04;  0.0000000E+00;  1.0000000E+04;  0.0000000E+00;  0.0000000E+00;  0.0000000E+00;  0.0000000E+00;
  2.0400000E+00;  9.9999998E-03; -7.9999998E-02;674;  0.0000000E+00;  0.0000000E+00;  0.0000000E+00;  1.0000000E+03;  4.0000001E-01;  0.0000000E+00;0;  0.0000000E+00;  0.0000000E+00;  0.0000000E+00;0;  0.0000000E+00;  1.0000000E+04;  0.0000000E+00;  0.0000000E+00;  1.0000000E+04;  0.0000000E+00;  1.0000000E+04;  0.0000000E+00;  0.0000000E+00;  0.0000000E+00;  0.0000000E+00;
  2.0400000E+00;  9.9999998E-03; -5.9999999E-02;675;  0.0000000E+00;  0.0000000E+00;  0.0000000E+00;  1.0000000E+03;  4.0000001E-01;  0.0000000E+00;0;  0.0000000E+00;  0.0000000E+00;  0.0000000E+00;0;  0.0000000E+00;  1.0000000E+04;  0.0000000E+00;  0.0000000E+00;  1.0000000E+04;  0.0000000E+00;  1.0000000E+04;  0.0000000E+00;  0.0000000E+00;  0.0000000E+00;  0.0000000E+00;
  2.0400000E+00;  9.9999998E-03; -3.9999999E-02;676;  0.0000000E+00;  0.0000000E+00;  0.0000000E+00;  1.0000000E+03;  4.0000001E-01;  0.0000000E+00;0;  0.0000000E+00;  0.0000000E+00;  0.0000000E+00;0;  0.0000000E+00;  1.0000000E+04;  0.0000000E+00;  0.0000000E+00;  1.0000000E+04;  0.0000000E+00;  1.0000000E+04;  0.0000000E+00;  0.0000000E+00;  0.0000000E+00;  0.0000000E+00;
  2.0400000E+00;  9.9999998E-03; -2.0000000E-02;677;  0.0000000E+00;  0.0000000E+00;  0.0000000E+00;  1.0000000E+03;  4.0000001E-01;  0.0000000E+00;0;  0.0000000E+00;  0.0000000E+00;  0.0000000E+00;0;  0.0000000E+00;  1.0000000E+04;  0.0000000E+00;  0.0000000E+00;  1.0000000E+04;  0.0000000E+00;  1.0000000E+04;  0.0000000E+00;  0.0000000E+00;  0.0000000E+00;  0.0000000E+00;
  2.0400000E+00;  9.9999998E-03;  0.0000000E+00;678;  0.0000000E+00;  0.0000000E+00;  0.0000000E+00;  1.0000000E+03;  4.0000001E-01;  0.0000000E+00;0;  0.0000000E+00;  0.0000000E+00;  0.0000000E+00;0;  0.0000000E+00;  1.0000000E+04;  0.0000000E+00;  0.0000000E+00;  1.0000000E+04;  0.0000000E+00;  1.0000000E+04;  0.0000000E+00;  0.0000000E+00;  0.0000000E+00;  0.0000000E+00;
  2.0400000E+00;  9.9999998E-03;  2.0000000E-02;679;  0.0000000E+00;  0.0000000E+00;  0.0000000E+00;  1.0000000E+03;  4.0000001E-01;  0.0000000E+00;0;  0.0000000E+00;  0.0000000E+00;  0.0000000E+00;0;  0.0000000E+00;  1.0000000E+04;  0.0000000E+00;  0.0000000E+00;  1.0000000E+04;  0.0000000E+00;  1.0000000E+04;  0.0000000E+00;  0.0000000E+00;  0.0000000E+00;  0.0000000E+00;
  2.0400000E+00;  9.9999998E-03;  3.9999999E-02;680;  0.0000000E+00;  0.0000000E+00;  0.0000000E+00;  1.0000000E+03;  4.0000001E-01;  0.0000000E+00;0;  0.0000000E+00;  0.0000000E+00;  0.0000000E+00;0;  0.0000000E+00;  1.0000000E+04;  0.0000000E+00;  0.0000000E+00;  1.0000000E+04;  0.0000000E+00;  1.0000000E+04;  0.0000000E+00;  0.0000000E+00;  0.0000000E+00;  0.0000000E+00;
  2.0400000E+00;  9.9999998E-03;  5.9999999E-02;681;  0.0000000E+00;  0.0000000E+00;  0.0000000E+00;  1.0000000E+03;  4.0000001E-01;  0.0000000E+00;0;  0.0000000E+00;  0.0000000E+00;  0.0000000E+00;0;  0.0000000E+00;  1.0000000E+04;  0.0000000E+00;  0.0000000E+00;  1.0000000E+04;  0.0000000E+00;  1.0000000E+04;  0.0000000E+00;  0.0000000E+00;  0.0000000E+00;  0.0000000E+00;
  2.0400000E+00;  9.9999998E-03;  7.9999998E-02;682;  0.0000000E+00;  0.0000000E+00;  0.0000000E+00;  1.0000000E+03;  4.0000001E-01;  0.0000000E+00;0;  0.0000000E+00;  0.0000000E+00;  0.0000000E+00;0;  0.0000000E+00;  1.0000000E+04;  0.0000000E+00;  0.0000000E+00;  1.0000000E+04;  0.0000000E+00;  1.0000000E+04;  0.0000000E+00;  0.0000000E+00;  0.0000000E+00;  0.0000000E+00;
  2.0400000E+00;  9.9999998E-03;  1.0000000E-01;683;  0.0000000E+00;  0.0000000E+00;  0.0000000E+00;  1.0000000E+03;  4.0000001E-01;  0.0000000E+00;0;  0.0000000E+00;  0.0000000E+00;  0.0000000E+00;0;  0.0000000E+00;  1.0000000E+04;  0.0000000E+00;  0.0000000E+00;  1.0000000E+04;  0.0000000E+00;  1.0000000E+04;  0.0000000E+00;  0.0000000E+00;  0.0000000E+00;  0.0000000E+00;
  2.0400000E+00;  9.9999998E-03;  1.2000000E-01;684;  0.0000000E+00;  0.0000000E+00;  0.0000000E+00;  1.0000000E+03;  4.0000001E-01;  0.0000000E+00;0;  0.0000000E+00;  0.0000000E+00;  0.0000000E+00;0;  0.0000000E+00;  1.0000000E+04;  0.0000000E+00;  0.0000000E+00;  1.0000000E+04;  0.0000000E+00;  1.0000000E+04;  0.0000000E+00;  0.0000000E+00;  0.0000000E+00;  0.0000000E+00;
  2.0400000E+00;  9.9999998E-03;  1.4000000E-01;685;  0.0000000E+00;  0.0000000E+00;  0.0000000E+00;  1.0000000E+03;  4.0000001E-01;  0.0000000E+00;0;  0.0000000E+00;  0.0000000E+00;  0.0000000E+00;0;  0.0000000E+00;  1.0000000E+04;  0.0000000E+00;  0.0000000E+00;  1.0000000E+04;  0.0000000E+00;  1.0000000E+04;  0.0000000E+00;  0.0000000E+00;  0.0000000E+00;  0.0000000E+00;
  2.0400000E+00;  9.9999998E-03;  1.6000000E-01;686;  0.0000000E+00;  0.0000000E+00;  0.0000000E+00;  1.0000000E+03;  4.0000001E-01;  0.0000000E+00;0;  0.0000000E+00;  0.0000000E+00;  0.0000000E+00;0;  0.0000000E+00;  1.0000000E+04;  0.0000000E+00;  0.0000000E+00;  1.0000000E+04;  0.0000000E+00;  1.0000000E+04;  0.0000000E+00;  0.0000000E+00;  0.0000000E+00;  0.0000000E+00;
  2.0400000E+00;  9.9999998E-03;  1.8000001E-01;687;  0.0000000E+00;  0.0000000E+00;  0.0000000E+00;  1.0000000E+03;  4.0000001E-01;  0.0000000E+00;0;  0.0000000E+00;  0.0000000E+00;  0.0000000E+00;0;  0.0000000E+00;  1.0000000E+04;  0.0000000E+00;  0.0000000E+00;  1.0000000E+04;  0.0000000E+00;  1.0000000E+04;  0.0000000E+00;  0.0000000E+00;  0.0000000E+00;  0.0000000E+00;
  2.0400000E+00;  9.9999998E-03;  2.0000000E-01;688;  0.0000000E+00;  0.0000000E+00;  0.0000000E+00;  1.0000000E+03;  4.0000001E-01;  0.0000000E+00;0;  0.0000000E+00;  0.0000000E+00;  0.0000000E+00;0;  0.0000000E+00;  1.0000000E+04;  0.0000000E+00;  0.0000000E+00;  1.0000000E+04;  0.0000000E+00;  1.0000000E+04;  0.0000000E+00;  0.0000000E+00;  0.0000000E+00;  0.0000000E+00;
  2.0400000E+00;  9.9999998E-03;  2.2000000E-01;689;  0.0000000E+00;  0.0000000E+00;  0.0000000E+00;  1.0000000E+03;  4.0000001E-01;  0.0000000E+00;0;  0.0000000E+00;  0.0000000E+00;  0.0000000E+00;0;  0.0000000E+00;  1.0000000E+04;  0.0000000E+00;  0.0000000E+00;  1.0000000E+04;  0.0000000E+00;  1.0000000E+04;  0.0000000E+00;  0.0000000E+00;  0.0000000E+00;  0.0000000E+00;
  2.0400000E+00;  9.9999998E-03;  2.3999999E-01;690;  0.0000000E+00;  0.0000000E+00;  0.0000000E+00;  1.0000000E+03;  4.0000001E-01;  0.0000000E+00;0;  0.0000000E+00;  0.0000000E+00;  0.0000000E+00;0;  0.0000000E+00;  1.0000000E+04;  0.0000000E+00;  0.0000000E+00;  1.0000000E+04;  0.0000000E+00;  1.0000000E+04;  0.0000000E+00;  0.0000000E+00;  0.0000000E+00;  0.0000000E+00;
  2.0400000E+00;  9.9999998E-03;  2.5999999E-01;691;  0.0000000E+00;  0.0000000E+00;  0.0000000E+00;  1.0000000E+03;  4.0000001E-01;  0.0000000E+00;0;  0.0000000E+00;  0.0000000E+00;  0.0000000E+00;0;  0.0000000E+00;  1.0000000E+04;  0.0000000E+00;  0.0000000E+00;  1.0000000E+04;  0.0000000E+00;  1.0000000E+04;  0.0000000E+00;  0.0000000E+00;  0.0000000E+00;  0.0000000E+00;
  2.0400000E+00;  9.9999998E-03;  2.8000000E-01;692;  0.0000000E+00;  0.0000000E+00;  0.0000000E+00;  1.0000000E+03;  4.0000001E-01;  0.0000000E+00;0;  0.0000000E+00;  0.0000000E+00;  0.0000000E+00;0;  0.0000000E+00;  1.0000000E+04;  0.0000000E+00;  0.0000000E+00;  1.0000000E+04;  0.0000000E+00;  1.0000000E+04;  0.0000000E+00;  0.0000000E+00;  0.0000000E+00;  0.0000000E+00;
  2.0599999E+00;  9.9999998E-03; -4.0000001E-01;693;  0.0000000E+00;  0.0000000E+00;  0.0000000E+00;  1.0000000E+03;  4.0000001E-01;  0.0000000E+00;0;  0.0000000E+00;  0.0000000E+00;  0.0000000E+00;0;  0.0000000E+00;  1.0000000E+04;  0.0000000E+00;  0.0000000E+00;  1.0000000E+04;  0.0000000E+00;  1.0000000E+04;  0.0000000E+00;  0.0000000E+00;  0.0000000E+00;  0.0000000E+00;
  2.0599999E+00;  9.9999998E-03; -3.8000000E-01;694;  0.0000000E+00;  0.0000000E+00;  0.0000000E+00;  1.0000000E+03;  4.0000001E-01;  0.0000000E+00;0;  0.0000000E+00;  0.0000000E+00;  0.0000000E+00;0;  0.0000000E+00;  1.0000000E+04;  0.0000000E+00;  0.0000000E+00;  1.0000000E+04;  0.0000000E+00;  1.0000000E+04;  0.0000000E+00;  0.0000000E+00;  0.0000000E+00;  0.0000000E+00;
  2.0599999E+00;  9.9999998E-03; -3.6000001E-01;695;  0.0000000E+00;  0.0000000E+00;  0.0000000E+00;  1.0000000E+03;  4.0000001E-01;  0.0000000E+00;0;  0.0000000E+00;  0.0000000E+00;  0.0000000E+00;0;  0.0000000E+00;  1.0000000E+04;  0.0000000E+00;  0.0000000E+00;  1.0000000E+04;  0.0000000E+00;  1.0000000E+04;  0.0000000E+00;  0.0000000E+00;  0.0000000E+00;  0.0000000E+00;
  2.0599999E+00;  9.9999998E-03; -3.4000000E-01;696;  0.0000000E+00;  0.0000000E+00;  0.0000000E+00;  1.0000000E+03;  4.0000001E-01;  0.0000000E+00;0;  0.0000000E+00;  0.0000000E+00;  0.0000000E+00;0;  0.0000000E+00;  1.0000000E+04;  0.0000000E+00;  0.0000000E+00;  1.0000000E+04;  0.0000000E+00;  1.0000000E+04;  0.0000000E+00;  0.0000000E+00;  0.0000000E+00;  0.0000000E+00;
  2.0599999E+00;  9.9999998E-03; -3.1999999E-01;697;  0.0000000E+00;  0.0000000E+00;  0.0000000E+00;  1.0000000E+03;  4.0000001E-01;  0.0000000E+00;0;  0.0000000E+00;  0.0000000E+00;  0.0000000E+00;0;  0.0000000E+00;  1.0000000E+04;  0.0000000E+00;  0.0000000E+00;  1.0000000E+04;  0.0000000E+00;  1.0000000E+04;  0.0000000E+00;  0.0000000E+00;  0.0000000E+00;  0.0000000E+00;
  2.0599999E+00;  9.9999998E-03; -3.0000001E-01;698;  0.0000000E+00;  0.0000000E+00;  0.0000000E+00;  1.0000000E+03;  4.0000001E-01;  0.0000000E+00;0;  0.0000000E+00;  0.0000000E+00;  0.0000000E+00;0;  0.0000000E+00;  1.0000000E+04;  0.0000000E+00;  0.0000000E+00;  1.0000000E+04;  0.0000000E+00;  1.0000000E+04;  0.0000000E+00;  0.0000000E+00;  0.0000000E+00;  0.0000000E+00;
  2.0599999E+00;  9.9999998E-03; -2.8000000E-01;699;  0.0000000E+00;  0.0000000E+00;  0.0000000E+00;  1.0000000E+03;  4.0000001E-01;  0.0000000E+00;0;  0.0000000E+00;  0.0000000E+00;  0.0000000E+00;0;  0.0000000E+00;  1.0000000E+04;  0.0000000E+00;  0.0000000E+00;  1.0000000E+04;  0.0000000E+00;  1.0000000E+04;  0.0000000E+00;  0.0000000E+00;  0.0000000E+00;  0.0000000E+00;
  2.0599999E+00;  9.9999998E-03; -2.5999999E-01;700;  0.0000000E+00;  0.0000000E+00;  0.0000000E+00;  1.0000000E+03;  4.0000001E-01;  0.0000000E+00;0;  0.0000000E+00;  0.0000000E+00;  0.0000000E+00;0;  0.0000000E+00;  1.0000000E+04;  0.0000000E+00;  0.0000000E+00;  1.0000000E+04;  0.0000000E+00;  1.0000000E+04;  0.0000000E+00;  0.0000000E+00;  0.0000000E+00;  0.0000000E+00;
  2.0599999E+00;  9.9999998E-03; -2.3999999E-01;701;  0.0000000E+00;  0.0000000E+00;  0.0000000E+00;  1.0000000E+03;  4.0000001E-01;  0.0000000E+00;0;  0.0000000E+00;  0.0000000E+00;  0.0000000E+00;0;  0.0000000E+00;  1.0000000E+04;  0.0000000E+00;  0.0000000E+00;  1.0000000E+04;  0.0000000E+00;  1.0000000E+04;  0.0000000E+00;  0.0000000E+00;  0.0000000E+00;  0.0000000E+00;
  2.0599999E+00;  9.9999998E-03; -2.2000000E-01;702;  0.0000000E+00;  0.0000000E+00;  0.0000000E+00;  1.0000000E+03;  4.0000001E-01;  0.0000000E+00;0;  0.0000000E+00;  0.0000000E+00;  0.0000000E+00;0;  0.0000000E+00;  1.0000000E+04;  0.0000000E+00;  0.0000000E+00;  1.0000000E+04;  0.0000000E+00;  1.0000000E+04;  0.0000000E+00;  0.0000000E+00;  0.0000000E+00;  0.0000000E+00;
  2.0599999E+00;  9.9999998E-03; -2.0000000E-01;703;  0.0000000E+00;  0.0000000E+00;  0.0000000E+00;  1.0000000E+03;  4.0000001E-01;  0.0000000E+00;0;  0.0000000E+00;  0.0000000E+00;  0.0000000E+00;0;  0.0000000E+00;  1.0000000E+04;  0.0000000E+00;  0.0000000E+00;  1.0000000E+04;  0.0000000E+00;  1.0000000E+04;  0.0000000E+00;  0.0000000E+00;  0.0000000E+00;  0.0000000E+00;
  2.0599999E+00;  9.9999998E-03; -1.8000001E-01;704;  0.0000000E+00;  0.0000000E+00;  0.0000000E+00;  1.0000000E+03;  4.0000001E-01;  0.0000000E+00;0;  0.0000000E+00;  0.0000000E+00;  0.0000000E+00;0;  0.0000000E+00;  1.0000000E+04;  0.0000000E+00;  0.0000000E+00;  1.0000000E+04;  0.0000000E+00;  1.0000000E+04;  0.0000000E+00;  0.0000000E+00;  0.0000000E+00;  0.0000000E+00;
  2.0599999E+00;  9.9999998E-03; -1.6000000E-01;705;  0.0000000E+00;  0.0000000E+00;  0.0000000E+00;  1.0000000E+03;  4.0000001E-01;  0.0000000E+00;0;  0.0000000E+00;  0.0000000E+00;  0.0000000E+00;0;  0.0000000E+00;  1.0000000E+04;  0.0000000E+00;  0.0000000E+00;  1.0000000E+04;  0.0000000E+00;  1.0000000E+04;  0.0000000E+00;  0.0000000E+00;  0.0000000E+00;  0.0000000E+00;
  2.0599999E+00;  9.9999998E-03; -1.4000000E-01;706;  0.0000000E+00;  0.0000000E+00;  0.0000000E+00;  1.0000000E+03;  4.0000001E-01;  0.0000000E+00;0;  0.0000000E+00;  0.0000000E+00;  0.0000000E+00;0;  0.0000000E+00;  1.0000000E+04;  0.0000000E+00;  0.0000000E+00;  1.0000000E+04;  0.0000000E+00;  1.0000000E+04;  0.0000000E+00;  0.0000000E+00;  0.0000000E+00;  0.0000000E+00;
  2.0599999E+00;  9.9999998E-03; -1.2000000E-01;707;  0.0000000E+00;  0.0000000E+00;  0.0000000E+00;  1.0000000E+03;  4.0000001E-01;  0.0000000E+00;0;  0.0000000E+00;  0.0000000E+00;  0.0000000E+00;0;  0.0000000E+00;  1.0000000E+04;  0.0000000E+00;  0.0000000E+00;  1.0000000E+04;  0.0000000E+00;  1.0000000E+04;  0.0000000E+00;  0.0000000E+00;  0.0000000E+00;  0.0000000E+00;
  2.0599999E+00;  9.9999998E-03; -1.0000000E-01;708;  0.0000000E+00;  0.0000000E+00;  0.0000000E+00;  1.0000000E+03;  4.0000001E-01;  0.0000000E+00;0;  0.0000000E+00;  0.0000000E+00;  0.0000000E+00;0;  0.0000000E+00;  1.0000000E+04;  0.0000000E+00;  0.0000000E+00;  1.0000000E+04;  0.0000000E+00;  1.0000000E+04;  0.0000000E+00;  0.0000000E+00;  0.0000000E+00;  0.0000000E+00;
  2.0599999E+00;  9.9999998E-03; -7.9999998E-02;709;  0.0000000E+00;  0.0000000E+00;  0.0000000E+00;  1.0000000E+03;  4.0000001E-01;  0.0000000E+00;0;  0.0000000E+00;  0.0000000E+00;  0.0000000E+00;0;  0.0000000E+00;  1.0000000E+04;  0.0000000E+00;  0.0000000E+00;  1.0000000E+04;  0.0000000E+00;  1.0000000E+04;  0.0000000E+00;  0.0000000E+00;  0.0000000E+00;  0.0000000E+00;
  2.0599999E+00;  9.9999998E-03; -5.9999999E-02;710;  0.0000000E+00;  0.0000000E+00;  0.0000000E+00;  1.0000000E+03;  4.0000001E-01;  0.0000000E+00;0;  0.0000000E+00;  0.0000000E+00;  0.0000000E+00;0;  0.0000000E+00;  1.0000000E+04;  0.0000000E+00;  0.0000000E+00;  1.0000000E+04;  0.0000000E+00;  1.0000000E+04;  0.0000000E+00;  0.0000000E+00;  0.0000000E+00;  0.0000000E+00;
  2.0599999E+00;  9.9999998E-03; -3.9999999E-02;711;  0.0000000E+00;  0.0000000E+00;  0.0000000E+00;  1.0000000E+03;  4.0000001E-01;  0.0000000E+00;0;  0.0000000E+00;  0.0000000E+00;  0.0000000E+00;0;  0.0000000E+00;  1.0000000E+04;  0.0000000E+00;  0.0000000E+00;  1.0000000E+04;  0.0000000E+00;  1.0000000E+04;  0.0000000E+00;  0.0000000E+00;  0.0000000E+00;  0.0000000E+00;
  2.0599999E+00;  9.9999998E-03; -2.0000000E-02;712;  0.0000000E+00;  0.0000000E+00;  0.0000000E+00;  1.0000000E+03;  4.0000001E-01;  0.0000000E+00;0;  0.0000000E+00;  0.0000000E+00;  0.0000000E+00;0;  0.0000000E+00;  1.0000000E+04;  0.0000000E+00;  0.0000000E+00;  1.0000000E+04;  0.0000000E+00;  1.0000000E+04;  0.0000000E+00;  0.0000000E+00;  0.0000000E+00;  0.0000000E+00;
  2.0599999E+00;  9.9999998E-03;  0.0000000E+00;713;  0.0000000E+00;  0.0000000E+00;  0.0000000E+00;  1.0000000E+03;  4.0000001E-01;  0.0000000E+00;0;  0.0000000E+00;  0.0000000E+00;  0.0000000E+00;0;  0.0000000E+00;  1.0000000E+04;  0.0000000E+00;  0.0000000E+00;  1.0000000E+04;  0.0000000E+00;  1.0000000E+04;  0.0000000E+00;  0.0000000E+00;  0.0000000E+00;  0.0000000E+00;
  2.0599999E+00;  9.9999998E-03;  2.0000000E-02;714;  0.0000000E+00;  0.0000000E+00;  0.0000000E+00;  1.0000000E+03;  4.0000001E-01;  0.0000000E+00;0;  0.0000000E+00;  0.0000000E+00;  0.0000000E+00;0;  0.0000000E+00;  1.0000000E+04;  0.0000000E+00;  0.0000000E+00;  1.0000000E+04;  0.0000000E+00;  1.0000000E+04;  0.0000000E+00;  0.0000000E+00;  0.0000000E+00;  0.0000000E+00;
  2.0599999E+00;  9.9999998E-03;  3.9999999E-02;715;  0.0000000E+00;  0.0000000E+00;  0.0000000E+00;  1.0000000E+03;  4.0000001E-01;  0.0000000E+00;0;  0.0000000E+00;  0.0000000E+00;  0.0000000E+00;0;  0.0000000E+00;  1.0000000E+04;  0.0000000E+00;  0.0000000E+00;  1.0000000E+04;  0.0000000E+00;  1.0000000E+04;  0.0000000E+00;  0.0000000E+00;  0.0000000E+00;  0.0000000E+00;
  2.0599999E+00;  9.9999998E-03;  5.9999999E-02;716;  0.0000000E+00;  0.0000000E+00;  0.0000000E+00;  1.0000000E+03;  4.0000001E-01;  0.0000000E+00;0;  0.0000000E+00;  0.0000000E+00;  0.0000000E+00;0;  0.0000000E+00;  1.0000000E+04;  0.0000000E+00;  0.0000000E+00;  1.0000000E+04;  0.0000000E+00;  1.0000000E+04;  0.0000000E+00;  0.0000000E+00;  0.0000000E+00;  0.0000000E+00;
  2.0599999E+00;  9.9999998E-03;  7.9999998E-02;717;  0.0000000E+00;  0.0000000E+00;  0.0000000E+00;  1.0000000E+03;  4.0000001E-01;  0.0000000E+00;0;  0.0000000E+00;  0.0000000E+00;  0.0000000E+00;0;  0.0000000E+00;  1.0000000E+04;  0.0000000E+00;  0.0000000E+00;  1.0000000E+04;  0.0000000E+00;  1.0000000E+04;  0.0000000E+00;  0.0000000E+00;  0.0000000E+00;  0.0000000E+00;
  2.0599999E+00;  9.9999998E-03;  1.0000000E-01;718;  0.0000000E+00;  0.0000000E+00;  0.0000000E+00;  1.0000000E+03;  4.0000001E-01;  0.0000000E+00;0;  0.0000000E+00;  0.0000000E+00;  0.0000000E+00;0;  0.0000000E+00;  1.0000000E+04;  0.0000000E+00;  0.0000000E+00;  1.0000000E+04;  0.0000000E+00;  1.0000000E+04;  0.0000000E+00;  0.0000000E+00;  0.0000000E+00;  0.0000000E+00;
  2.0599999E+00;  9.9999998E-03;  1.2000000E-01;719;  0.0000000E+00;  0.0000000E+00;  0.0000000E+00;  1.0000000E+03;  4.0000001E-01;  0.0000000E+00;0;  0.0000000E+00;  0.0000000E+00;  0.0000000E+00;0;  0.0000000E+00;  1.0000000E+04;  0.0000000E+00;  0.0000000E+00;  1.0000000E+04;  0.0000000E+00;  1.0000000E+04;  0.0000000E+00;  0.0000000E+00;  0.0000000E+00;  0.0000000E+00;
  2.0599999E+00;  9.9999998E-03;  1.4000000E-01;720;  0.0000000E+00;  0.0000000E+00;  0.0000000E+00;  1.0000000E+03;  4.0000001E-01;  0.0000000E+00;0;  0.0000000E+00;  0.0000000E+00;  0.0000000E+00;0;  0.0000000E+00;  1.0000000E+04;  0.0000000E+00;  0.0000000E+00;  1.0000000E+04;  0.0000000E+00;  1.0000000E+04;  0.0000000E+00;  0.0000000E+00;  0.0000000E+00;  0.0000000E+00;
  2.0599999E+00;  9.9999998E-03;  1.6000000E-01;721;  0.0000000E+00;  0.0000000E+00;  0.0000000E+00;  1.0000000E+03;  4.0000001E-01;  0.0000000E+00;0;  0.0000000E+00;  0.0000000E+00;  0.0000000E+00;0;  0.0000000E+00;  1.0000000E+04;  0.0000000E+00;  0.0000000E+00;  1.0000000E+04;  0.0000000E+00;  1.0000000E+04;  0.0000000E+00;  0.0000000E+00;  0.0000000E+00;  0.0000000E+00;
  2.0599999E+00;  9.9999998E-03;  1.8000001E-01;722;  0.0000000E+00;  0.0000000E+00;  0.0000000E+00;  1.0000000E+03;  4.0000001E-01;  0.0000000E+00;0;  0.0000000E+00;  0.0000000E+00;  0.0000000E+00;0;  0.0000000E+00;  1.0000000E+04;  0.0000000E+00;  0.0000000E+00;  1.0000000E+04;  0.0000000E+00;  1.0000000E+04;  0.0000000E+00;  0.0000000E+00;  0.0000000E+00;  0.0000000E+00;
  2.0599999E+00;  9.9999998E-03;  2.0000000E-01;723;  0.0000000E+00;  0.0000000E+00;  0.0000000E+00;  1.0000000E+03;  4.0000001E-01;  0.0000000E+00;0;  0.0000000E+00;  0.0000000E+00;  0.0000000E+00;0;  0.0000000E+00;  1.0000000E+04;  0.0000000E+00;  0.0000000E+00;  1.0000000E+04;  0.0000000E+00;  1.0000000E+04;  0.0000000E+00;  0.0000000E+00;  0.0000000E+00;  0.0000000E+00;
  2.0599999E+00;  9.9999998E-03;  2.2000000E-01;724;  0.0000000E+00;  0.0000000E+00;  0.0000000E+00;  1.0000000E+03;  4.0000001E-01;  0.0000000E+00;0;  0.0000000E+00;  0.0000000E+00;  0.0000000E+00;0;  0.0000000E+00;  1.0000000E+04;  0.0000000E+00;  0.0000000E+00;  1.0000000E+04;  0.0000000E+00;  1.0000000E+04;  0.0000000E+00;  0.0000000E+00;  0.0000000E+00;  0.0000000E+00;
  2.0599999E+00;  9.9999998E-03;  2.3999999E-01;725;  0.0000000E+00;  0.0000000E+00;  0.0000000E+00;  1.0000000E+03;  4.0000001E-01;  0.0000000E+00;0;  0.0000000E+00;  0.0000000E+00;  0.0000000E+00;0;  0.0000000E+00;  1.0000000E+04;  0.0000000E+00;  0.0000000E+00;  1.0000000E+04;  0.0000000E+00;  1.0000000E+04;  0.0000000E+00;  0.0000000E+00;  0.0000000E+00;  0.0000000E+00;
  2.0599999E+00;  9.9999998E-03;  2.5999999E-01;726;  0.0000000E+00;  0.0000000E+00;  0.0000000E+00;  1.0000000E+03;  4.0000001E-01;  0.0000000E+00;0;  0.0000000E+00;  0.0000000E+00;  0.0000000E+00;0;  0.0000000E+00;  1.0000000E+04;  0.0000000E+00;  0.0000000E+00;  1.0000000E+04;  0.0000000E+00;  1.0000000E+04;  0.0000000E+00;  0.0000000E+00;  0.0000000E+00;  0.0000000E+00;
  2.0599999E+00;  9.9999998E-03;  2.8000000E-01;727;  0.0000000E+00;  0.0000000E+00;  0.0000000E+00;  1.0000000E+03;  4.0000001E-01;  0.0000000E+00;0;  0.0000000E+00;  0.0000000E+00;  0.0000000E+00;0;  0.0000000E+00;  1.0000000E+04;  0.0000000E+00;  0.0000000E+00;  1.0000000E+04;  0.0000000E+00;  1.0000000E+04;  0.0000000E+00;  0.0000000E+00;  0.0000000E+00;  0.0000000E+00;
  2.0599999E+00;  9.9999998E-03;  3.0000001E-01;728;  0.0000000E+00;  0.0000000E+00;  0.0000000E+00;  1.0000000E+03;  4.0000001E-01;  0.0000000E+00;0;  0.0000000E+00;  0.0000000E+00;  0.0000000E+00;0;  0.0000000E+00;  1.0000000E+04;  0.0000000E+00;  0.0000000E+00;  1.0000000E+04;  0.0000000E+00;  1.0000000E+04;  0.0000000E+00;  0.0000000E+00;  0.0000000E+00;  0.0000000E+00;
  2.0599999E+00;  9.9999998E-03;  3.1999999E-01;729;  0.0000000E+00;  0.0000000E+00;  0.0000000E+00;  1.0000000E+03;  4.0000001E-01;  0.0000000E+00;0;  0.0000000E+00;  0.0000000E+00;  0.0000000E+00;0;  0.0000000E+00;  1.0000000E+04;  0.0000000E+00;  0.0000000E+00;  1.0000000E+04;  0.0000000E+00;  1.0000000E+04;  0.0000000E+00;  0.0000000E+00;  0.0000000E+00;  0.0000000E+00;
  2.0599999E+00;  9.9999998E-03;  3.4000000E-01;730;  0.0000000E+00;  0.0000000E+00;  0.0000000E+00;  1.0000000E+03;  4.0000001E-01;  0.0000000E+00;0;  0.0000000E+00;  0.0000000E+00;  0.0000000E+00;0;  0.0000000E+00;  1.0000000E+04;  0.0000000E+00;  0.0000000E+00;  1.0000000E+04;  0.0000000E+00;  1.0000000E+04;  0.0000000E+00;  0.0000000E+00;  0.0000000E+00;  0.0000000E+00;
  2.0599999E+00;  9.9999998E-03;  3.6000001E-01;731;  0.0000000E+00;  0.0000000E+00;  0.0000000E+00;  1.0000000E+03;  4.0000001E-01;  0.0000000E+00;0;  0.0000000E+00;  0.0000000E+00;  0.0000000E+00;0;  0.0000000E+00;  1.0000000E+04;  0.0000000E+00;  0.0000000E+00;  1.0000000E+04;  0.0000000E+00;  1.0000000E+04;  0.0000000E+00;  0.0000000E+00;  0.0000000E+00;  0.0000000E+00;
  2.0599999E+00;  9.9999998E-03;  3.8000000E-01;732;  0.0000000E+00;  0.0000000E+00;  0.0000000E+00;  1.0000000E+03;  4.0000001E-01;  0.0000000E+00;0;  0.0000000E+00;  0.0000000E+00;  0.0000000E+00;0;  0.0000000E+00;  1.0000000E+04;  0.0000000E+00;  0.0000000E+00;  1.0000000E+04;  0.0000000E+00;  1.0000000E+04;  0.0000000E+00;  0.0000000E+00;  0.0000000E+00;  0.0000000E+00;
  2.0799999E+00;  9.9999998E-03; -4.0000001E-01;733;  0.0000000E+00;  0.0000000E+00;  0.0000000E+00;  1.0000000E+03;  4.0000001E-01;  0.0000000E+00;0;  0.0000000E+00;  0.0000000E+00;  0.0000000E+00;0;  0.0000000E+00;  1.0000000E+04;  0.0000000E+00;  0.0000000E+00;  1.0000000E+04;  0.0000000E+00;  1.0000000E+04;  0.0000000E+00;  0.0000000E+00;  0.0000000E+00;  0.0000000E+00;
  2.0799999E+00;  9.9999998E-03; -3.8000000E-01;734;  0.0000000E+00;  0.0000000E+00;  0.0000000E+00;  1.0000000E+03;  4.0000001E-01;  0.0000000E+00;0;  0.0000000E+00;  0.0000000E+00;  0.0000000E+00;0;  0.0000000E+00;  1.0000000E+04;  0.0000000E+00;  0.0000000E+00;  1.0000000E+04;  0.0000000E+00;  1.0000000E+04;  0.0000000E+00;  0.0000000E+00;  0.0000000E+00;  0.0000000E+00;
  2.0799999E+00;  9.9999998E-03; -3.6000001E-01;735;  0.0000000E+00;  0.0000000E+00;  0.0000000E+00;  1.0000000E+03;  4.0000001E-01;  0.0000000E+00;0;  0.0000000E+00;  0.0000000E+00;  0.0000000E+00;0;  0.0000000E+00;  1.0000000E+04;  0.0000000E+00;  0.0000000E+00;  1.0000000E+04;  0.0000000E+00;  1.0000000E+04;  0.0000000E+00;  0.0000000E+00;  0.0000000E+00;  0.0000000E+00;
  2.0799999E+00;  9.9999998E-03; -3.4000000E-01;736;  0.0000000E+00;  0.0000000E+00;  0.0000000E+00;  1.0000000E+03;  4.0000001E-01;  0.0000000E+00;0;  0.0000000E+00;  0.0000000E+00;  0.0000000E+00;0;  0.0000000E+00;  1.0000000E+04;  0.0000000E+00;  0.0000000E+00;  1.0000000E+04;  0.0000000E+00;  1.0000000E+04;  0.0000000E+00;  0.0000000E+00;  0.0000000E+00;  0.0000000E+00;
  2.0799999E+00;  9.9999998E-03; -3.1999999E-01;737;  0.0000000E+00;  0.0000000E+00;  0.0000000E+00;  1.0000000E+03;  4.0000001E-01;  0.0000000E+00;0;  0.0000000E+00;  0.0000000E+00;  0.0000000E+00;0;  0.0000000E+00;  1.0000000E+04;  0.0000000E+00;  0.0000000E+00;  1.0000000E+04;  0.0000000E+00;  1.0000000E+04;  0.0000000E+00;  0.0000000E+00;  0.0000000E+00;  0.0000000E+00;
  2.0799999E+00;  9.9999998E-03; -3.0000001E-01;738;  0.0000000E+00;  0.0000000E+00;  0.0000000E+00;  1.0000000E+03;  4.0000001E-01;  0.0000000E+00;0;  0.0000000E+00;  0.0000000E+00;  0.0000000E+00;0;  0.0000000E+00;  1.0000000E+04;  0.0000000E+00;  0.0000000E+00;  1.0000000E+04;  0.0000000E+00;  1.0000000E+04;  0.0000000E+00;  0.0000000E+00;  0.0000000E+00;  0.0000000E+00;
  2.0799999E+00;  9.9999998E-03; -2.8000000E-01;739;  0.0000000E+00;  0.0000000E+00;  0.0000000E+00;  1.0000000E+03;  4.0000001E-01;  0.0000000E+00;0;  0.0000000E+00;  0.0000000E+00;  0.0000000E+00;0;  0.0000000E+00;  1.0000000E+04;  0.0000000E+00;  0.0000000E+00;  1.0000000E+04;  0.0000000E+00;  1.0000000E+04;  0.0000000E+00;  0.0000000E+00;  0.0000000E+00;  0.0000000E+00;
  2.0799999E+00;  9.9999998E-03; -2.5999999E-01;740;  0.0000000E+00;  0.0000000E+00;  0.0000000E+00;  1.0000000E+03;  4.0000001E-01;  0.0000000E+00;0;  0.0000000E+00;  0.0000000E+00;  0.0000000E+00;0;  0.0000000E+00;  1.0000000E+04;  0.0000000E+00;  0.0000000E+00;  1.0000000E+04;  0.0000000E+00;  1.0000000E+04;  0.0000000E+00;  0.0000000E+00;  0.0000000E+00;  0.0000000E+00;
  2.0799999E+00;  9.9999998E-03; -2.3999999E-01;741;  0.0000000E+00;  0.0000000E+00;  0.0000000E+00;  1.0000000E+03;  4.0000001E-01;  0.0000000E+00;0;  0.0000000E+00;  0.0000000E+00;  0.0000000E+00;0;  0.0000000E+00;  1.0000000E+04;  0.0000000E+00;  0.0000000E+00;  1.0000000E+04;  0.0000000E+00;  1.0000000E+04;  0.0000000E+00;  0.0000000E+00;  0.0000000E+00;  0.0000000E+00;
  2.0799999E+00;  9.9999998E-03; -2.2000000E-01;742;  0.0000000E+00;  0.0000000E+00;  0.0000000E+00;  1.0000000E+03;  4.0000001E-01;  0.0000000E+00;0;  0.0000000E+00;  0.0000000E+00;  0.0000000E+00;0;  0.0000000E+00;  1.0000000E+04;  0.0000000E+00;  0.0000000E+00;  1.0000000E+04;  0.0000000E+00;  1.0000000E+04;  0.0000000E+00;  0.0000000E+00;  0.0000000E+00;  0.0000000E+00;
  2.0799999E+00;  9.9999998E-03; -2.0000000E-01;743;  0.0000000E+00;  0.0000000E+00;  0.0000000E+00;  1.0000000E+03;  4.0000001E-01;  0.0000000E+00;0;  0.0000000E+00;  0.0000000E+00;  0.0000000E+00;0;  0.0000000E+00;  1.0000000E+04;  0.0000000E+00;  0.0000000E+00;  1.0000000E+04;  0.0000000E+00;  1.0000000E+04;  0.0000000E+00;  0.0000000E+00;  0.0000000E+00;  0.0000000E+00;
  2.0799999E+00;  9.9999998E-03; -1.8000001E-01;744;  0.0000000E+00;  0.0000000E+00;  0.0000000E+00;  1.0000000E+03;  4.0000001E-01;  0.0000000E+00;0;  0.0000000E+00;  0.0000000E+00;  0.0000000E+00;0;  0.0000000E+00;  1.0000000E+04;  0.0000000E+00;  0.0000000E+00;  1.0000000E+04;  0.0000000E+00;  1.0000000E+04;  0.0000000E+00;  0.0000000E+00;  0.0000000E+00;  0.0000000E+00;
  2.0799999E+00;  9.9999998E-03; -1.6000000E-01;745;  0.0000000E+00;  0.0000000E+00;  0.0000000E+00;  1.0000000E+03;  4.0000001E-01;  0.0000000E+00;0;  0.0000000E+00;  0.0000000E+00;  0.0000000E+00;0;  0.0000000E+00;  1.0000000E+04;  0.0000000E+00;  0.0000000E+00;  1.0000000E+04;  0.0000000E+00;  1.0000000E+04;  0.0000000E+00;  0.0000000E+00;  0.0000000E+00;  0.0000000E+00;
  2.0799999E+00;  9.9999998E-03; -1.4000000E-01;746;  0.0000000E+00;  0.0000000E+00;  0.0000000E+00;  1.0000000E+03;  4.0000001E-01;  0.0000000E+00;0;  0.0000000E+00;  0.0000000E+00;  0.0000000E+00;0;  0.0000000E+00;  1.0000000E+04;  0.0000000E+00;  0.0000000E+00;  1.0000000E+04;  0.0000000E+00;  1.0000000E+04;  0.0000000E+00;  0.0000000E+00;  0.0000000E+00;  0.0000000E+00;
  2.0799999E+00;  9.9999998E-03; -1.2000000E-01;747;  0.0000000E+00;  0.0000000E+00;  0.0000000E+00;  1.0000000E+03;  4.0000001E-01;  0.0000000E+00;0;  0.0000000E+00;  0.0000000E+00;  0.0000000E+00;0;  0.0000000E+00;  1.0000000E+04;  0.0000000E+00;  0.0000000E+00;  1.0000000E+04;  0.0000000E+00;  1.0000000E+04;  0.0000000E+00;  0.0000000E+00;  0.0000000E+00;  0.0000000E+00;
  2.0799999E+00;  9.9999998E-03; -1.0000000E-01;748;  0.0000000E+00;  0.0000000E+00;  0.0000000E+00;  1.0000000E+03;  4.0000001E-01;  0.0000000E+00;0;  0.0000000E+00;  0.0000000E+00;  0.0000000E+00;0;  0.0000000E+00;  1.0000000E+04;  0.0000000E+00;  0.0000000E+00;  1.0000000E+04;  0.0000000E+00;  1.0000000E+04;  0.0000000E+00;  0.0000000E+00;  0.0000000E+00;  0.0000000E+00;
  2.0799999E+00;  9.9999998E-03; -7.9999998E-02;749;  0.0000000E+00;  0.0000000E+00;  0.0000000E+00;  1.0000000E+03;  4.0000001E-01;  0.0000000E+00;0;  0.0000000E+00;  0.0000000E+00;  0.0000000E+00;0;  0.0000000E+00;  1.0000000E+04;  0.0000000E+00;  0.0000000E+00;  1.0000000E+04;  0.0000000E+00;  1.0000000E+04;  0.0000000E+00;  0.0000000E+00;  0.0000000E+00;  0.0000000E+00;
  2.0799999E+00;  9.9999998E-03; -5.9999999E-02;750;  0.0000000E+00;  0.0000000E+00;  0.0000000E+00;  1.0000000E+03;  4.0000001E-01;  0.0000000E+00;0;  0.0000000E+00;  0.0000000E+00;  0.0000000E+00;0;  0.0000000E+00;  1.0000000E+04;  0.0000000E+00;  0.0000000E+00;  1.0000000E+04;  0.0000000E+00;  1.0000000E+04;  0.0000000E+00;  0.0000000E+00;  0.0000000E+00;  0.0000000E+00;
  2.0799999E+00;  9.9999998E-03; -3.9999999E-02;751;  0.0000000E+00;  0.0000000E+00;  0.0000000E+00;  1.0000000E+03;  4.0000001E-01;  0.0000000E+00;0;  0.0000000E+00;  0.0000000E+00;  0.0000000E+00;0;  0.0000000E+00;  1.0000000E+04;  0.0000000E+00;  0.0000000E+00;  1.0000000E+04;  0.0000000E+00;  1.0000000E+04;  0.0000000E+00;  0.0000000E+00;  0.0000000E+00;  0.0000000E+00;
  2.0799999E+00;  9.9999998E-03; -2.0000000E-02;752;  0.0000000E+00;  0.0000000E+00;  0.0000000E+00;  1.0000000E+03;  4.0000001E-01;  0.0000000E+00;0;  0.0000000E+00;  0.0000000E+00;  0.0000000E+00;0;  0.0000000E+00;  1.0000000E+04;  0.0000000E+00;  0.0000000E+00;  1.0000000E+04;  0.0000000E+00;  1.0000000E+04;  0.0000000E+00;  0.0000000E+00;  0.0000000E+00;  0.0000000E+00;
  2.0799999E+00;  9.9999998E-03;  0.0000000E+00;753;  0.0000000E+00;  0.0000000E+00;  0.0000000E+00;  1.0000000E+03;  4.0000001E-01;  0.0000000E+00;0;  0.0000000E+00;  0.0000000E+00;  0.0000000E+00;0;  0.0000000E+00;  1.0000000E+04;  0.0000000E+00;  0.0000000E+00;  1.0000000E+04;  0.0000000E+00;  1.0000000E+04;  0.0000000E+00;  0.0000000E+00;  0.0000000E+00;  0.0000000E+00;
  2.0799999E+00;  9.9999998E-03;  2.0000000E-02;754;  0.0000000E+00;  0.0000000E+00;  0.0000000E+00;  1.0000000E+03;  4.0000001E-01;  0.0000000E+00;0;  0.0000000E+00;  0.0000000E+00;  0.0000000E+00;0;  0.0000000E+00;  1.0000000E+04;  0.0000000E+00;  0.0000000E+00;  1.0000000E+04;  0.0000000E+00;  1.0000000E+04;  0.0000000E+00;  0.0000000E+00;  0.0000000E+00;  0.0000000E+00;
  2.0799999E+00;  9.9999998E-03;  3.9999999E-02;755;  0.0000000E+00;  0.0000000E+00;  0.0000000E+00;  1.0000000E+03;  4.0000001E-01;  0.0000000E+00;0;  0.0000000E+00;  0.0000000E+00;  0.0000000E+00;0;  0.0000000E+00;  1.0000000E+04;  0.0000000E+00;  0.0000000E+00;  1.0000000E+04;  0.0000000E+00;  1.0000000E+04;  0.0000000E+00;  0.0000000E+00;  0.0000000E+00;  0.0000000E+00;
  2.0799999E+00;  9.9999998E-03;  5.9999999E-02;756;  0.0000000E+00;  0.0000000E+00;  0.0000000E+00;  1.0000000E+03;  4.0000001E-01;  0.0000000E+00;0;  0.0000000E+00;  0.0000000E+00;  0.0000000E+00;0;  0.0000000E+00;  1.0000000E+04;  0.0000000E+00;  0.0000000E+00;  1.0000000E+04;  0.0000000E+00;  1.0000000E+04;  0.0000000E+00;  0.0000000E+00;  0.0000000E+00;  0.0000000E+00;
  2.0799999E+00;  9.9999998E-03;  7.9999998E-02;757;  0.0000000E+00;  0.0000000E+00;  0.0000000E+00;  1.0000000E+03;  4.0000001E-01;  0.0000000E+00;0;  0.0000000E+00;  0.0000000E+00;  0.0000000E+00;0;  0.0000000E+00;  1.0000000E+04;  0.0000000E+00;  0.0000000E+00;  1.0000000E+04;  0.0000000E+00;  1.0000000E+04;  0.0000000E+00;  0.0000000E+00;  0.0000000E+00;  0.0000000E+00;
  2.0799999E+00;  9.9999998E-03;  1.0000000E-01;758;  0.0000000E+00;  0.0000000E+00;  0.0000000E+00;  1.0000000E+03;  4.0000001E-01;  0.0000000E+00;0;  0.0000000E+00;  0.0000000E+00;  0.0000000E+00;0;  0.0000000E+00;  1.0000000E+04;  0.0000000E+00;  0.0000000E+00;  1.0000000E+04;  0.0000000E+00;  1.0000000E+04;  0.0000000E+00;  0.0000000E+00;  0.0000000E+00;  0.0000000E+00;
  2.0799999E+00;  9.9999998E-03;  1.2000000E-01;759;  0.0000000E+00;  0.0000000E+00;  0.0000000E+00;  1.0000000E+03;  4.0000001E-01;  0.0000000E+00;0;  0.0000000E+00;  0.0000000E+00;  0.0000000E+00;0;  0.0000000E+00;  1.0000000E+04;  0.0000000E+00;  0.0000000E+00;  1.0000000E+04;  0.0000000E+00;  1.0000000E+04;  0.0000000E+00;  0.0000000E+00;  0.0000000E+00;  0.0000000E+00;
  2.0799999E+00;  9.9999998E-03;  1.4000000E-01;760;  0.0000000E+00;  0.0000000E+00;  0.0000000E+00;  1.0000000E+03;  4.0000001E-01;  0.0000000E+00;0;  0.0000000E+00;  0.0000000E+00;  0.0000000E+00;0;  0.0000000E+00;  1.0000000E+04;  0.0000000E+00;  0.0000000E+00;  1.0000000E+04;  0.0000000E+00;  1.0000000E+04;  0.0000000E+00;  0.0000000E+00;  0.0000000E+00;  0.0000000E+00;
  2.0799999E+00;  9.9999998E-03;  1.6000000E-01;761;  0.0000000E+00;  0.0000000E+00;  0.0000000E+00;  1.0000000E+03;  4.0000001E-01;  0.0000000E+00;0;  0.0000000E+00;  0.0000000E+00;  0.0000000E+00;0;  0.0000000E+00;  1.0000000E+04;  0.0000000E+00;  0.0000000E+00;  1.0000000E+04;  0.0000000E+00;  1.0000000E+04;  0.0000000E+00;  0.0000000E+00;  0.0000000E+00;  0.0000000E+00;
  2.0799999E+00;  9.9999998E-03;  1.8000001E-01;762;  0.0000000E+00;  0.0000000E+00;  0.0000000E+00;  1.0000000E+03;  4.0000001E-01;  0.0000000E+00;0;  0.0000000E+00;  0.0000000E+00;  0.0000000E+00;0;  0.0000000E+00;  1.0000000E+04;  0.0000000E+00;  0.0000000E+00;  1.0000000E+04;  0.0000000E+00;  1.0000000E+04;  0.0000000E+00;  0.0000000E+00;  0.0000000E+00;  0.0000000E+00;
  2.0799999E+00;  9.9999998E-03;  2.0000000E-01;763;  0.0000000E+00;  0.0000000E+00;  0.0000000E+00;  1.0000000E+03;  4.0000001E-01;  0.0000000E+00;0;  0.0000000E+00;  0.0000000E+00;  0.0000000E+00;0;  0.0000000E+00;  1.0000000E+04;  0.0000000E+00;  0.0000000E+00;  1.0000000E+04;  0.0000000E+00;  1.0000000E+04;  0.0000000E+00;  0.0000000E+00;  0.0000000E+00;  0.0000000E+00;
  2.0799999E+00;  9.9999998E-03;  2.2000000E-01;764;  0.0000000E+00;  0.0000000E+00;  0.0000000E+00;  1.0000000E+03;  4.0000001E-01;  0.0000000E+00;0;  0.0000000E+00;  0.0000000E+00;  0.0000000E+00;0;  0.0000000E+00;  1.0000000E+04;  0.0000000E+00;  0.0000000E+00;  1.0000000E+04;  0.0000000E+00;  1.0000000E+04;  0.0000000E+00;  0.0000000E+00;  0.0000000E+00;  0.0000000E+00;
  2.0799999E+00;  9.9999998E-03;  2.3999999E-01;765;  0.0000000E+00;  0.0000000E+00;  0.0000000E+00;  1.0000000E+03;  4.0000001E-01;  0.0000000E+00;0;  0.0000000E+00;  0.0000000E+00;  0.0000000E+00;0;  0.0000000E+00;  1.0000000E+04;  0.0000000E+00;  0.0000000E+00;  1.0000000E+04;  0.0000000E+00;  1.0000000E+04;  0.0000000E+00;  0.0000000E+00;  0.0000000E+00;  0.0000000E+00;
  2.0799999E+00;  9.9999998E-03;  2.5999999E-01;766;  0.0000000E+00;  0.0000000E+00;  0.0000000E+00;  1.0000000E+03;  4.0000001E-01;  0.0000000E+00;0;  0.0000000E+00;  0.0000000E+00;  0.0000000E+00;0;  0.0000000E+00;  1.0000000E+04;  0.0000000E+00;  0.0000000E+00;  1.0000000E+04;  0.0000000E+00;  1.0000000E+04;  0.0000000E+00;  0.0000000E+00;  0.0000000E+00;  0.0000000E+00;
  2.0799999E+00;  9.9999998E-03;  2.8000000E-01;767;  0.0000000E+00;  0.0000000E+00;  0.0000000E+00;  1.0000000E+03;  4.0000001E-01;  0.0000000E+00;0;  0.0000000E+00;  0.0000000E+00;  0.0000000E+00;0;  0.0000000E+00;  1.0000000E+04;  0.0000000E+00;  0.0000000E+00;  1.0000000E+04;  0.0000000E+00;  1.0000000E+04;  0.0000000E+00;  0.0000000E+00;  0.0000000E+00;  0.0000000E+00;
  2.0799999E+00;  9.9999998E-03;  3.0000001E-01;768;  0.0000000E+00;  0.0000000E+00;  0.0000000E+00;  1.0000000E+03;  4.0000001E-01;  0.0000000E+00;0;  0.0000000E+00;  0.0000000E+00;  0.0000000E+00;0;  0.0000000E+00;  1.0000000E+04;  0.0000000E+00;  0.0000000E+00;  1.0000000E+04;  0.0000000E+00;  1.0000000E+04;  0.0000000E+00;  0.0000000E+00;  0.0000000E+00;  0.0000000E+00;
  2.0799999E+00;  9.9999998E-03;  3.1999999E-01;769;  0.0000000E+00;  0.0000000E+00;  0.0000000E+00;  1.0000000E+03;  4.0000001E-01;  0.0000000E+00;0;  0.0000000E+00;  0.0000000E+00;  0.0000000E+00;0;  0.0000000E+00;  1.0000000E+04;  0.0000000E+00;  0.0000000E+00;  1.0000000E+04;  0.0000000E+00;  1.0000000E+04;  0.0000000E+00;  0.0000000E+00;  0.0000000E+00;  0.0000000E+00;
  2.0799999E+00;  9.9999998E-03;  3.4000000E-01;770;  0.0000000E+00;  0.0000000E+00;  0.0000000E+00;  1.0000000E+03;  4.0000001E-01;  0.0000000E+00;0;  0.0000000E+00;  0.0000000E+00;  0.0000000E+00;0;  0.0000000E+00;  1.0000000E+04;  0.0000000E+00;  0.0000000E+00;  1.0000000E+04;  0.0000000E+00;  1.0000000E+04;  0.0000000E+00;  0.0000000E+00;  0.0000000E+00;  0.0000000E+00;
  2.0799999E+00;  9.9999998E-03;  3.6000001E-01;771;  0.0000000E+00;  0.0000000E+00;  0.0000000E+00;  1.0000000E+03;  4.0000001E-01;  0.0000000E+00;0;  0.0000000E+00;  0.0000000E+00;  0.0000000E+00;0;  0.0000000E+00;  1.0000000E+04;  0.0000000E+00;  0.0000000E+00;  1.0000000E+04;  0.0000000E+00;  1.0000000E+04;  0.0000000E+00;  0.0000000E+00;  0.0000000E+00;  0.0000000E+00;
  2.0799999E+00;  9.9999998E-03;  3.8000000E-01;772;  0.0000000E+00;  0.0000000E+00;  0.0000000E+00;  1.0000000E+03;  4.0000001E-01;  0.0000000E+00;0;  0.0000000E+00;  0.0000000E+00;  0.0000000E+00;0;  0.0000000E+00;  1.0000000E+04;  0.0000000E+00;  0.0000000E+00;  1.0000000E+04;  0.0000000E+00;  1.0000000E+04;  0.0000000E+00;  0.0000000E+00;  0.0000000E+00;  0.0000000E+00;
  2.0799999E+00;  9.9999998E-03;  4.0000001E-01;773;  0.0000000E+00;  0.0000000E+00;  0.0000000E+00;  1.0000000E+03;  4.0000001E-01;  0.0000000E+00;0;  0.0000000E+00;  0.0000000E+00;  0.0000000E+00;0;  0.0000000E+00;  1.0000000E+04;  0.0000000E+00;  0.0000000E+00;  1.0000000E+04;  0.0000000E+00;  1.0000000E+04;  0.0000000E+00;  0.0000000E+00;  0.0000000E+00;  0.0000000E+00;
  2.0999999E+00;  9.9999998E-03; -4.0000001E-01;774;  0.0000000E+00;  0.0000000E+00;  0.0000000E+00;  1.0000000E+03;  4.0000001E-01;  0.0000000E+00;0;  0.0000000E+00;  0.0000000E+00;  0.0000000E+00;0;  0.0000000E+00;  1.0000000E+04;  0.0000000E+00;  0.0000000E+00;  1.0000000E+04;  0.0000000E+00;  1.0000000E+04;  0.0000000E+00;  0.0000000E+00;  0.0000000E+00;  0.0000000E+00;
  2.0999999E+00;  9.9999998E-03; -3.8000000E-01;775;  0.0000000E+00;  0.0000000E+00;  0.0000000E+00;  1.0000000E+03;  4.0000001E-01;  0.0000000E+00;0;  0.0000000E+00;  0.0000000E+00;  0.0000000E+00;0;  0.0000000E+00;  1.0000000E+04;  0.0000000E+00;  0.0000000E+00;  1.0000000E+04;  0.0000000E+00;  1.0000000E+04;  0.0000000E+00;  0.0000000E+00;  0.0000000E+00;  0.0000000E+00;
  2.0999999E+00;  9.9999998E-03; -3.6000001E-01;776;  0.0000000E+00;  0.0000000E+00;  0.0000000E+00;  1.0000000E+03;  4.0000001E-01;  0.0000000E+00;0;  0.0000000E+00;  0.0000000E+00;  0.0000000E+00;0;  0.0000000E+00;  1.0000000E+04;  0.0000000E+00;  0.0000000E+00;  1.0000000E+04;  0.0000000E+00;  1.0000000E+04;  0.0000000E+00;  0.0000000E+00;  0.0000000E+00;  0.0000000E+00;
  2.0999999E+00;  9.9999998E-03; -3.4000000E-01;777;  0.0000000E+00;  0.0000000E+00;  0.0000000E+00;  1.0000000E+03;  4.0000001E-01;  0.0000000E+00;0;  0.0000000E+00;  0.0000000E+00;  0.0000000E+00;0;  0.0000000E+00;  1.0000000E+04;  0.0000000E+00;  0.0000000E+00;  1.0000000E+04;  0.0000000E+00;  1.0000000E+04;  0.0000000E+00;  0.0000000E+00;  0.0000000E+00;  0.0000000E+00;
  2.0999999E+00;  9.9999998E-03; -3.1999999E-01;778;  0.0000000E+00;  0.0000000E+00;  0.0000000E+00;  1.0000000E+03;  4.0000001E-01;  0.0000000E+00;0;  0.0000000E+00;  0.0000000E+00;  0.0000000E+00;0;  0.0000000E+00;  1.0000000E+04;  0.0000000E+00;  0.0000000E+00;  1.0000000E+04;  0.0000000E+00;  1.0000000E+04;  0.0000000E+00;  0.0000000E+00;  0.0000000E+00;  0.0000000E+00;
  2.0999999E+00;  9.9999998E-03; -3.0000001E-01;779;  0.0000000E+00;  0.0000000E+00;  0.0000000E+00;  1.0000000E+03;  4.0000001E-01;  0.0000000E+00;0;  0.0000000E+00;  0.0000000E+00;  0.0000000E+00;0;  0.0000000E+00;  1.0000000E+04;  0.0000000E+00;  0.0000000E+00;  1.0000000E+04;  0.0000000E+00;  1.0000000E+04;  0.0000000E+00;  0.0000000E+00;  0.0000000E+00;  0.0000000E+00;
  2.0999999E+00;  9.9999998E-03; -2.8000000E-01;780;  0.0000000E+00;  0.0000000E+00;  0.0000000E+00;  1.0000000E+03;  4.0000001E-01;  0.0000000E+00;0;  0.0000000E+00;  0.0000000E+00;  0.0000000E+00;0;  0.0000000E+00;  1.0000000E+04;  0.0000000E+00;  0.0000000E+00;  1.0000000E+04;  0.0000000E+00;  1.0000000E+04;  0.0000000E+00;  0.0000000E+00;  0.0000000E+00;  0.0000000E+00;
  2.0999999E+00;  9.9999998E-03; -2.5999999E-01;781;  0.0000000E+00;  0.0000000E+00;  0.0000000E+00;  1.0000000E+03;  4.0000001E-01;  0.0000000E+00;0;  0.0000000E+00;  0.0000000E+00;  0.0000000E+00;0;  0.0000000E+00;  1.0000000E+04;  0.0000000E+00;  0.0000000E+00;  1.0000000E+04;  0.0000000E+00;  1.0000000E+04;  0.0000000E+00;  0.0000000E+00;  0.0000000E+00;  0.0000000E+00;
  2.0999999E+00;  9.9999998E-03; -2.3999999E-01;782;  0.0000000E+00;  0.0000000E+00;  0.0000000E+00;  1.0000000E+03;  4.0000001E-01;  0.0000000E+00;0;  0.0000000E+00;  0.0000000E+00;  0.0000000E+00;0;  0.0000000E+00;  1.0000000E+04;  0.0000000E+00;  0.0000000E+00;  1.0000000E+04;  0.0000000E+00;  1.0000000E+04;  0.0000000E+00;  0.0000000E+00;  0.0000000E+00;  0.0000000E+00;
  2.0999999E+00;  9.9999998E-03; -2.2000000E-01;783;  0.0000000E+00;  0.0000000E+00;  0.0000000E+00;  1.0000000E+03;  4.0000001E-01;  0.0000000E+00;0;  0.0000000E+00;  0.0000000E+00;  0.0000000E+00;0;  0.0000000E+00;  1.0000000E+04;  0.0000000E+00;  0.0000000E+00;  1.0000000E+04;  0.0000000E+00;  1.0000000E+04;  0.0000000E+00;  0.0000000E+00;  0.0000000E+00;  0.0000000E+00;
  2.0999999E+00;  9.9999998E-03; -2.0000000E-01;784;  0.0000000E+00;  0.0000000E+00;  0.0000000E+00;  1.0000000E+03;  4.0000001E-01;  0.0000000E+00;0;  0.0000000E+00;  0.0000000E+00;  0.0000000E+00;0;  0.0000000E+00;  1.0000000E+04;  0.0000000E+00;  0.0000000E+00;  1.0000000E+04;  0.0000000E+00;  1.0000000E+04;  0.0000000E+00;  0.0000000E+00;  0.0000000E+00;  0.0000000E+00;
  2.0999999E+00;  9.9999998E-03; -1.8000001E-01;785;  0.0000000E+00;  0.0000000E+00;  0.0000000E+00;  1.0000000E+03;  4.0000001E-01;  0.0000000E+00;0;  0.0000000E+00;  0.0000000E+00;  0.0000000E+00;0;  0.0000000E+00;  1.0000000E+04;  0.0000000E+00;  0.0000000E+00;  1.0000000E+04;  0.0000000E+00;  1.0000000E+04;  0.0000000E+00;  0.0000000E+00;  0.0000000E+00;  0.0000000E+00;
  2.0999999E+00;  9.9999998E-03; -1.6000000E-01;786;  0.0000000E+00;  0.0000000E+00;  0.0000000E+00;  1.0000000E+03;  4.0000001E-01;  0.0000000E+00;0;  0.0000000E+00;  0.0000000E+00;  0.0000000E+00;0;  0.0000000E+00;  1.0000000E+04;  0.0000000E+00;  0.0000000E+00;  1.0000000E+04;  0.0000000E+00;  1.0000000E+04;  0.0000000E+00;  0.0000000E+00;  0.0000000E+00;  0.0000000E+00;
  2.0999999E+00;  9.9999998E-03; -1.4000000E-01;787;  0.0000000E+00;  0.0000000E+00;  0.0000000E+00;  1.0000000E+03;  4.0000001E-01;  0.0000000E+00;0;  0.0000000E+00;  0.0000000E+00;  0.0000000E+00;0;  0.0000000E+00;  1.0000000E+04;  0.0000000E+00;  0.0000000E+00;  1.0000000E+04;  0.0000000E+00;  1.0000000E+04;  0.0000000E+00;  0.0000000E+00;  0.0000000E+00;  0.0000000E+00;
  2.0999999E+00;  9.9999998E-03; -1.2000000E-01;788;  0.0000000E+00;  0.0000000E+00;  0.0000000E+00;  1.0000000E+03;  4.0000001E-01;  0.0000000E+00;0;  0.0000000E+00;  0.0000000E+00;  0.0000000E+00;0;  0.0000000E+00;  1.0000000E+04;  0.0000000E+00;  0.0000000E+00;  1.0000000E+04;  0.0000000E+00;  1.0000000E+04;  0.0000000E+00;  0.0000000E+00;  0.0000000E+00;  0.0000000E+00;
  2.0999999E+00;  9.9999998E-03; -1.0000000E-01;789;  0.0000000E+00;  0.0000000E+00;  0.0000000E+00;  1.0000000E+03;  4.0000001E-01;  0.0000000E+00;0;  0.0000000E+00;  0.0000000E+00;  0.0000000E+00;0;  0.0000000E+00;  1.0000000E+04;  0.0000000E+00;  0.0000000E+00;  1.0000000E+04;  0.0000000E+00;  1.0000000E+04;  0.0000000E+00;  0.0000000E+00;  0.0000000E+00;  0.0000000E+00;
  2.0999999E+00;  9.9999998E-03; -7.9999998E-02;790;  0.0000000E+00;  0.0000000E+00;  0.0000000E+00;  1.0000000E+03;  4.0000001E-01;  0.0000000E+00;0;  0.0000000E+00;  0.0000000E+00;  0.0000000E+00;0;  0.0000000E+00;  1.0000000E+04;  0.0000000E+00;  0.0000000E+00;  1.0000000E+04;  0.0000000E+00;  1.0000000E+04;  0.0000000E+00;  0.0000000E+00;  0.0000000E+00;  0.0000000E+00;
  2.0999999E+00;  9.9999998E-03; -5.9999999E-02;791;  0.0000000E+00;  0.0000000E+00;  0.0000000E+00;  1.0000000E+03;  4.0000001E-01;  0.0000000E+00;0;  0.0000000E+00;  0.0000000E+00;  0.0000000E+00;0;  0.0000000E+00;  1.0000000E+04;  0.0000000E+00;  0.0000000E+00;  1.0000000E+04;  0.0000000E+00;  1.0000000E+04;  0.0000000E+00;  0.0000000E+00;  0.0000000E+00;  0.0000000E+00;
  2.0999999E+00;  9.9999998E-03; -3.9999999E-02;792;  0.0000000E+00;  0.0000000E+00;  0.0000000E+00;  1.0000000E+03;  4.0000001E-01;  0.0000000E+00;0;  0.0000000E+00;  0.0000000E+00;  0.0000000E+00;0;  0.0000000E+00;  1.0000000E+04;  0.0000000E+00;  0.0000000E+00;  1.0000000E+04;  0.0000000E+00;  1.0000000E+04;  0.0000000E+00;  0.0000000E+00;  0.0000000E+00;  0.0000000E+00;
  2.0999999E+00;  9.9999998E-03; -2.0000000E-02;793;  0.0000000E+00;  0.0000000E+00;  0.0000000E+00;  1.0000000E+03;  4.0000001E-01;  0.0000000E+00;0;  0.0000000E+00;  0.0000000E+00;  0.0000000E+00;0;  0.0000000E+00;  1.0000000E+04;  0.0000000E+00;  0.0000000E+00;  1.0000000E+04;  0.0000000E+00;  1.0000000E+04;  0.0000000E+00;  0.0000000E+00;  0.0000000E+00;  0.0000000E+00;
  2.0999999E+00;  9.9999998E-03;  0.0000000E+00;794;  0.0000000E+00;  0.0000000E+00;  0.0000000E+00;  1.0000000E+03;  4.0000001E-01;  0.0000000E+00;0;  0.0000000E+00;  0.0000000E+00;  0.0000000E+00;0;  0.0000000E+00;  1.0000000E+04;  0.0000000E+00;  0.0000000E+00;  1.0000000E+04;  0.0000000E+00;  1.0000000E+04;  0.0000000E+00;  0.0000000E+00;  0.0000000E+00;  0.0000000E+00;
  2.0999999E+00;  9.9999998E-03;  2.0000000E-02;795;  0.0000000E+00;  0.0000000E+00;  0.0000000E+00;  1.0000000E+03;  4.0000001E-01;  0.0000000E+00;0;  0.0000000E+00;  0.0000000E+00;  0.0000000E+00;0;  0.0000000E+00;  1.0000000E+04;  0.0000000E+00;  0.0000000E+00;  1.0000000E+04;  0.0000000E+00;  1.0000000E+04;  0.0000000E+00;  0.0000000E+00;  0.0000000E+00;  0.0000000E+00;
  2.0999999E+00;  9.9999998E-03;  3.9999999E-02;796;  0.0000000E+00;  0.0000000E+00;  0.0000000E+00;  1.0000000E+03;  4.0000001E-01;  0.0000000E+00;0;  0.0000000E+00;  0.0000000E+00;  0.0000000E+00;0;  0.0000000E+00;  1.0000000E+04;  0.0000000E+00;  0.0000000E+00;  1.0000000E+04;  0.0000000E+00;  1.0000000E+04;  0.0000000E+00;  0.0000000E+00;  0.0000000E+00;  0.0000000E+00;
  2.0999999E+00;  9.9999998E-03;  5.9999999E-02;797;  0.0000000E+00;  0.0000000E+00;  0.0000000E+00;  1.0000000E+03;  4.0000001E-01;  0.0000000E+00;0;  0.0000000E+00;  0.0000000E+00;  0.0000000E+00;0;  0.0000000E+00;  1.0000000E+04;  0.0000000E+00;  0.0000000E+00;  1.0000000E+04;  0.0000000E+00;  1.0000000E+04;  0.0000000E+00;  0.0000000E+00;  0.0000000E+00;  0.0000000E+00;
  2.0999999E+00;  9.9999998E-03;  7.9999998E-02;798;  0.0000000E+00;  0.0000000E+00;  0.0000000E+00;  1.0000000E+03;  4.0000001E-01;  0.0000000E+00;0;  0.0000000E+00;  0.0000000E+00;  0.0000000E+00;0;  0.0000000E+00;  1.0000000E+04;  0.0000000E+00;  0.0000000E+00;  1.0000000E+04;  0.0000000E+00;  1.0000000E+04;  0.0000000E+00;  0.0000000E+00;  0.0000000E+00;  0.0000000E+00;
  2.0999999E+00;  9.9999998E-03;  1.0000000E-01;799;  0.0000000E+00;  0.0000000E+00;  0.0000000E+00;  1.0000000E+03;  4.0000001E-01;  0.0000000E+00;0;  0.0000000E+00;  0.0000000E+00;  0.0000000E+00;0;  0.0000000E+00;  1.0000000E+04;  0.0000000E+00;  0.0000000E+00;  1.0000000E+04;  0.0000000E+00;  1.0000000E+04;  0.0000000E+00;  0.0000000E+00;  0.0000000E+00;  0.0000000E+00;
  2.0999999E+00;  9.9999998E-03;  1.2000000E-01;800;  0.0000000E+00;  0.0000000E+00;  0.0000000E+00;  1.0000000E+03;  4.0000001E-01;  0.0000000E+00;0;  0.0000000E+00;  0.0000000E+00;  0.0000000E+00;0;  0.0000000E+00;  1.0000000E+04;  0.0000000E+00;  0.0000000E+00;  1.0000000E+04;  0.0000000E+00;  1.0000000E+04;  0.0000000E+00;  0.0000000E+00;  0.0000000E+00;  0.0000000E+00;
  2.0999999E+00;  9.9999998E-03;  1.4000000E-01;801;  0.0000000E+00;  0.0000000E+00;  0.0000000E+00;  1.0000000E+03;  4.0000001E-01;  0.0000000E+00;0;  0.0000000E+00;  0.0000000E+00;  0.0000000E+00;0;  0.0000000E+00;  1.0000000E+04;  0.0000000E+00;  0.0000000E+00;  1.0000000E+04;  0.0000000E+00;  1.0000000E+04;  0.0000000E+00;  0.0000000E+00;  0.0000000E+00;  0.0000000E+00;
  2.0999999E+00;  9.9999998E-03;  1.6000000E-01;802;  0.0000000E+00;  0.0000000E+00;  0.0000000E+00;  1.0000000E+03;  4.0000001E-01;  0.0000000E+00;0;  0.0000000E+00;  0.0000000E+00;  0.0000000E+00;0;  0.0000000E+00;  1.0000000E+04;  0.0000000E+00;  0.0000000E+00;  1.0000000E+04;  0.0000000E+00;  1.0000000E+04;  0.0000000E+00;  0.0000000E+00;  0.0000000E+00;  0.0000000E+00;
  2.0999999E+00;  9.9999998E-03;  1.8000001E-01;803;  0.0000000E+00;  0.0000000E+00;  0.0000000E+00;  1.0000000E+03;  4.0000001E-01;  0.0000000E+00;0;  0.0000000E+00;  0.0000000E+00;  0.0000000E+00;0;  0.0000000E+00;  1.0000000E+04;  0.0000000E+00;  0.0000000E+00;  1.0000000E+04;  0.0000000E+00;  1.0000000E+04;  0.0000000E+00;  0.0000000E+00;  0.0000000E+00;  0.0000000E+00;
  2.0999999E+00;  9.9999998E-03;  2.0000000E-01;804;  0.0000000E+00;  0.0000000E+00;  0.0000000E+00;  1.0000000E+03;  4.0000001E-01;  0.0000000E+00;0;  0.0000000E+00;  0.0000000E+00;  0.0000000E+00;0;  0.0000000E+00;  1.0000000E+04;  0.0000000E+00;  0.0000000E+00;  1.0000000E+04;  0.0000000E+00;  1.0000000E+04;  0.0000000E+00;  0.0000000E+00;  0.0000000E+00;  0.0000000E+00;
  2.0999999E+00;  9.9999998E-03;  2.2000000E-01;805;  0.0000000E+00;  0.0000000E+00;  0.0000000E+00;  1.0000000E+03;  4.0000001E-01;  0.0000000E+00;0;  0.0000000E+00;  0.0000000E+00;  0.0000000E+00;0;  0.0000000E+00;  1.0000000E+04;  0.0000000E+00;  0.0000000E+00;  1.0000000E+04;  0.0000000E+00;  1.0000000E+04;  0.0000000E+00;  0.0000000E+00;  0.0000000E+00;  0.0000000E+00;
  2.0999999E+00;  9.9999998E-03;  2.3999999E-01;806;  0.0000000E+00;  0.0000000E+00;  0.0000000E+00;  1.0000000E+03;  4.0000001E-01;  0.0000000E+00;0;  0.0000000E+00;  0.0000000E+00;  0.0000000E+00;0;  0.0000000E+00;  1.0000000E+04;  0.0000000E+00;  0.0000000E+00;  1.0000000E+04;  0.0000000E+00;  1.0000000E+04;  0.0000000E+00;  0.0000000E+00;  0.0000000E+00;  0.0000000E+00;
  2.0999999E+00;  9.9999998E-03;  2.5999999E-01;807;  0.0000000E+00;  0.0000000E+00;  0.0000000E+00;  1.0000000E+03;  4.0000001E-01;  0.0000000E+00;0;  0.0000000E+00;  0.0000000E+00;  0.0000000E+00;0;  0.0000000E+00;  1.0000000E+04;  0.0000000E+00;  0.0000000E+00;  1.0000000E+04;  0.0000000E+00;  1.0000000E+04;  0.0000000E+00;  0.0000000E+00;  0.0000000E+00;  0.0000000E+00;
  2.0999999E+00;  9.9999998E-03;  2.8000000E-01;808;  0.0000000E+00;  0.0000000E+00;  0.0000000E+00;  1.0000000E+03;  4.0000001E-01;  0.0000000E+00;0;  0.0000000E+00;  0.0000000E+00;  0.0000000E+00;0;  0.0000000E+00;  1.0000000E+04;  0.0000000E+00;  0.0000000E+00;  1.0000000E+04;  0.0000000E+00;  1.0000000E+04;  0.0000000E+00;  0.0000000E+00;  0.0000000E+00;  0.0000000E+00;
  2.0999999E+00;  9.9999998E-03;  3.0000001E-01;809;  0.0000000E+00;  0.0000000E+00;  0.0000000E+00;  1.0000000E+03;  4.0000001E-01;  0.0000000E+00;0;  0.0000000E+00;  0.0000000E+00;  0.0000000E+00;0;  0.0000000E+00;  1.0000000E+04;  0.0000000E+00;  0.0000000E+00;  1.0000000E+04;  0.0000000E+00;  1.0000000E+04;  0.0000000E+00;  0.0000000E+00;  0.0000000E+00;  0.0000000E+00;
  2.0999999E+00;  9.9999998E-03;  3.1999999E-01;810;  0.0000000E+00;  0.0000000E+00;  0.0000000E+00;  1.0000000E+03;  4.0000001E-01;  0.0000000E+00;0;  0.0000000E+00;  0.0000000E+00;  0.0000000E+00;0;  0.0000000E+00;  1.0000000E+04;  0.0000000E+00;  0.0000000E+00;  1.0000000E+04;  0.0000000E+00;  1.0000000E+04;  0.0000000E+00;  0.0000000E+00;  0.0000000E+00;  0.0000000E+00;
  2.0999999E+00;  9.9999998E-03;  3.4000000E-01;811;  0.0000000E+00;  0.0000000E+00;  0.0000000E+00;  1.0000000E+03;  4.0000001E-01;  0.0000000E+00;0;  0.0000000E+00;  0.0000000E+00;  0.0000000E+00;0;  0.0000000E+00;  1.0000000E+04;  0.0000000E+00;  0.0000000E+00;  1.0000000E+04;  0.0000000E+00;  1.0000000E+04;  0.0000000E+00;  0.0000000E+00;  0.0000000E+00;  0.0000000E+00;
  2.0999999E+00;  9.9999998E-03;  3.6000001E-01;812;  0.0000000E+00;  0.0000000E+00;  0.0000000E+00;  1.0000000E+03;  4.0000001E-01;  0.0000000E+00;0;  0.0000000E+00;  0.0000000E+00;  0.0000000E+00;0;  0.0000000E+00;  1.0000000E+04;  0.0000000E+00;  0.0000000E+00;  1.0000000E+04;  0.0000000E+00;  1.0000000E+04;  0.0000000E+00;  0.0000000E+00;  0.0000000E+00;  0.0000000E+00;
  2.0999999E+00;  9.9999998E-03;  3.8000000E-01;813;  0.0000000E+00;  0.0000000E+00;  0.0000000E+00;  1.0000000E+03;  4.0000001E-01;  0.0000000E+00;0;  0.0000000E+00;  0.0000000E+00;  0.0000000E+00;0;  0.0000000E+00;  1.0000000E+04;  0.0000000E+00;  0.0000000E+00;  1.0000000E+04;  0.0000000E+00;  1.0000000E+04;  0.0000000E+00;  0.0000000E+00;  0.0000000E+00;  0.0000000E+00;
  2.0999999E+00;  9.9999998E-03;  4.0000001E-01;814;  0.0000000E+00;  0.0000000E+00;  0.0000000E+00;  1.0000000E+03;  4.0000001E-01;  0.0000000E+00;0;  0.0000000E+00;  0.0000000E+00;  0.0000000E+00;0;  0.0000000E+00;  1.0000000E+04;  0.0000000E+00;  0.0000000E+00;  1.0000000E+04;  0.0000000E+00;  1.0000000E+04;  0.0000000E+00;  0.0000000E+00;  0.0000000E+00;  0.0000000E+00;
  2.1199999E+00;  9.9999998E-03; -4.1999999E-01;815;  0.0000000E+00;  0.0000000E+00;  0.0000000E+00;  1.0000000E+03;  4.0000001E-01;  0.0000000E+00;0;  0.0000000E+00;  0.0000000E+00;  0.0000000E+00;0;  0.0000000E+00;  1.0000000E+04;  0.0000000E+00;  0.0000000E+00;  1.0000000E+04;  0.0000000E+00;  1.0000000E+04;  0.0000000E+00;  0.0000000E+00;  0.0000000E+00;  0.0000000E+00;
  2.1199999E+00;  9.9999998E-03; -4.0000001E-01;816;  0.0000000E+00;  0.0000000E+00;  0.0000000E+00;  1.0000000E+03;  4.0000001E-01;  0.0000000E+00;0;  0.0000000E+00;  0.0000000E+00;  0.0000000E+00;0;  0.0000000E+00;  1.0000000E+04;  0.0000000E+00;  0.0000000E+00;  1.0000000E+04;  0.0000000E+00;  1.0000000E+04;  0.0000000E+00;  0.0000000E+00;  0.0000000E+00;  0.0000000E+00;
  2.1199999E+00;  9.9999998E-03; -3.8000000E-01;817;  0.0000000E+00;  0.0000000E+00;  0.0000000E+00;  1.0000000E+03;  4.0000001E-01;  0.0000000E+00;0;  0.0000000E+00;  0.0000000E+00;  0.0000000E+00;0;  0.0000000E+00;  1.0000000E+04;  0.0000000E+00;  0.0000000E+00;  1.0000000E+04;  0.0000000E+00;  1.0000000E+04;  0.0000000E+00;  0.0000000E+00;  0.0000000E+00;  0.0000000E+00;
  2.1199999E+00;  9.9999998E-03; -3.6000001E-01;818;  0.0000000E+00;  0.0000000E+00;  0.0000000E+00;  1.0000000E+03;  4.0000001E-01;  0.0000000E+00;0;  0.0000000E+00;  0.0000000E+00;  0.0000000E+00;0;  0.0000000E+00;  1.0000000E+04;  0.0000000E+00;  0.0000000E+00;  1.0000000E+04;  0.0000000E+00;  1.0000000E+04;  0.0000000E+00;  0.0000000E+00;  0.0000000E+00;  0.0000000E+00;
  2.1199999E+00;  9.9999998E-03; -3.4000000E-01;819;  0.0000000E+00;  0.0000000E+00;  0.0000000E+00;  1.0000000E+03;  4.0000001E-01;  0.0000000E+00;0;  0.0000000E+00;  0.0000000E+00;  0.0000000E+00;0;  0.0000000E+00;  1.0000000E+04;  0.0000000E+00;  0.0000000E+00;  1.0000000E+04;  0.0000000E+00;  1.0000000E+04;  0.0000000E+00;  0.0000000E+00;  0.0000000E+00;  0.0000000E+00;
  2.1199999E+00;  9.9999998E-03; -3.1999999E-01;820;  0.0000000E+00;  0.0000000E+00;  0.0000000E+00;  1.0000000E+03;  4.0000001E-01;  0.0000000E+00;0;  0.0000000E+00;  0.0000000E+00;  0.0000000E+00;0;  0.0000000E+00;  1.0000000E+04;  0.0000000E+00;  0.0000000E+00;  1.0000000E+04;  0.0000000E+00;  1.0000000E+04;  0.0000000E+00;  0.0000000E+00;  0.0000000E+00;  0.0000000E+00;
  2.1199999E+00;  9.9999998E-03; -3.0000001E-01;821;  0.0000000E+00;  0.0000000E+00;  0.0000000E+00;  1.0000000E+03;  4.0000001E-01;  0.0000000E+00;0;  0.0000000E+00;  0.0000000E+00;  0.0000000E+00;0;  0.0000000E+00;  1.0000000E+04;  0.0000000E+00;  0.0000000E+00;  1.0000000E+04;  0.0000000E+00;  1.0000000E+04;  0.0000000E+00;  0.0000000E+00;  0.0000000E+00;  0.0000000E+00;
  2.1199999E+00;  9.9999998E-03; -2.8000000E-01;822;  0.0000000E+00;  0.0000000E+00;  0.0000000E+00;  1.0000000E+03;  4.0000001E-01;  0.0000000E+00;0;  0.0000000E+00;  0.0000000E+00;  0.0000000E+00;0;  0.0000000E+00;  1.0000000E+04;  0.0000000E+00;  0.0000000E+00;  1.0000000E+04;  0.0000000E+00;  1.0000000E+04;  0.0000000E+00;  0.0000000E+00;  0.0000000E+00;  0.0000000E+00;
  2.1199999E+00;  9.9999998E-03; -2.5999999E-01;823;  0.0000000E+00;  0.0000000E+00;  0.0000000E+00;  1.0000000E+03;  4.0000001E-01;  0.0000000E+00;0;  0.0000000E+00;  0.0000000E+00;  0.0000000E+00;0;  0.0000000E+00;  1.0000000E+04;  0.0000000E+00;  0.0000000E+00;  1.0000000E+04;  0.0000000E+00;  1.0000000E+04;  0.0000000E+00;  0.0000000E+00;  0.0000000E+00;  0.0000000E+00;
  2.1199999E+00;  9.9999998E-03; -2.3999999E-01;824;  0.0000000E+00;  0.0000000E+00;  0.0000000E+00;  1.0000000E+03;  4.0000001E-01;  0.0000000E+00;0;  0.0000000E+00;  0.0000000E+00;  0.0000000E+00;0;  0.0000000E+00;  1.0000000E+04;  0.0000000E+00;  0.0000000E+00;  1.0000000E+04;  0.0000000E+00;  1.0000000E+04;  0.0000000E+00;  0.0000000E+00;  0.0000000E+00;  0.0000000E+00;
  2.1199999E+00;  9.9999998E-03; -2.2000000E-01;825;  0.0000000E+00;  0.0000000E+00;  0.0000000E+00;  1.0000000E+03;  4.0000001E-01;  0.0000000E+00;0;  0.0000000E+00;  0.0000000E+00;  0.0000000E+00;0;  0.0000000E+00;  1.0000000E+04;  0.0000000E+00;  0.0000000E+00;  1.0000000E+04;  0.0000000E+00;  1.0000000E+04;  0.0000000E+00;  0.0000000E+00;  0.0000000E+00;  0.0000000E+00;
  2.1199999E+00;  9.9999998E-03; -2.0000000E-01;826;  0.0000000E+00;  0.0000000E+00;  0.0000000E+00;  1.0000000E+03;  4.0000001E-01;  0.0000000E+00;0;  0.0000000E+00;  0.0000000E+00;  0.0000000E+00;0;  0.0000000E+00;  1.0000000E+04;  0.0000000E+00;  0.0000000E+00;  1.0000000E+04;  0.0000000E+00;  1.0000000E+04;  0.0000000E+00;  0.0000000E+00;  0.0000000E+00;  0.0000000E+00;
  2.1199999E+00;  9.9999998E-03; -1.8000001E-01;827;  0.0000000E+00;  0.0000000E+00;  0.0000000E+00;  1.0000000E+03;  4.0000001E-01;  0.0000000E+00;0;  0.0000000E+00;  0.0000000E+00;  0.0000000E+00;0;  0.0000000E+00;  1.0000000E+04;  0.0000000E+00;  0.0000000E+00;  1.0000000E+04;  0.0000000E+00;  1.0000000E+04;  0.0000000E+00;  0.0000000E+00;  0.0000000E+00;  0.0000000E+00;
  2.1199999E+00;  9.9999998E-03; -1.6000000E-01;828;  0.0000000E+00;  0.0000000E+00;  0.0000000E+00;  1.0000000E+03;  4.0000001E-01;  0.0000000E+00;0;  0.0000000E+00;  0.0000000E+00;  0.0000000E+00;0;  0.0000000E+00;  1.0000000E+04;  0.0000000E+00;  0.0000000E+00;  1.0000000E+04;  0.0000000E+00;  1.0000000E+04;  0.0000000E+00;  0.0000000E+00;  0.0000000E+00;  0.0000000E+00;
  2.1199999E+00;  9.9999998E-03; -1.4000000E-01;829;  0.0000000E+00;  0.0000000E+00;  0.0000000E+00;  1.0000000E+03;  4.0000001E-01;  0.0000000E+00;0;  0.0000000E+00;  0.0000000E+00;  0.0000000E+00;0;  0.0000000E+00;  1.0000000E+04;  0.0000000E+00;  0.0000000E+00;  1.0000000E+04;  0.0000000E+00;  1.0000000E+04;  0.0000000E+00;  0.0000000E+00;  0.0000000E+00;  0.0000000E+00;
  2.1199999E+00;  9.9999998E-03; -1.2000000E-01;830;  0.0000000E+00;  0.0000000E+00;  0.0000000E+00;  1.0000000E+03;  4.0000001E-01;  0.0000000E+00;0;  0.0000000E+00;  0.0000000E+00;  0.0000000E+00;0;  0.0000000E+00;  1.0000000E+04;  0.0000000E+00;  0.0000000E+00;  1.0000000E+04;  0.0000000E+00;  1.0000000E+04;  0.0000000E+00;  0.0000000E+00;  0.0000000E+00;  0.0000000E+00;
  2.1199999E+00;  9.9999998E-03; -1.0000000E-01;831;  0.0000000E+00;  0.0000000E+00;  0.0000000E+00;  1.0000000E+03;  4.0000001E-01;  0.0000000E+00;0;  0.0000000E+00;  0.0000000E+00;  0.0000000E+00;0;  0.0000000E+00;  1.0000000E+04;  0.0000000E+00;  0.0000000E+00;  1.0000000E+04;  0.0000000E+00;  1.0000000E+04;  0.0000000E+00;  0.0000000E+00;  0.0000000E+00;  0.0000000E+00;
  2.1199999E+00;  9.9999998E-03; -7.9999998E-02;832;  0.0000000E+00;  0.0000000E+00;  0.0000000E+00;  1.0000000E+03;  4.0000001E-01;  0.0000000E+00;0;  0.0000000E+00;  0.0000000E+00;  0.0000000E+00;0;  0.0000000E+00;  1.0000000E+04;  0.0000000E+00;  0.0000000E+00;  1.0000000E+04;  0.0000000E+00;  1.0000000E+04;  0.0000000E+00;  0.0000000E+00;  0.0000000E+00;  0.0000000E+00;
  2.1199999E+00;  9.9999998E-03; -5.9999999E-02;833;  0.0000000E+00;  0.0000000E+00;  0.0000000E+00;  1.0000000E+03;  4.0000001E-01;  0.0000000E+00;0;  0.0000000E+00;  0.0000000E+00;  0.0000000E+00;0;  0.0000000E+00;  1.0000000E+04;  0.0000000E+00;  0.0000000E+00;  1.0000000E+04;  0.0000000E+00;  1.0000000E+04;  0.0000000E+00;  0.0000000E+00;  0.0000000E+00;  0.0000000E+00;
  2.1199999E+00;  9.9999998E-03; -3.9999999E-02;834;  0.0000000E+00;  0.0000000E+00;  0.0000000E+00;  1.0000000E+03;  4.0000001E-01;  0.0000000E+00;0;  0.0000000E+00;  0.0000000E+00;  0.0000000E+00;0;  0.0000000E+00;  1.0000000E+04;  0.0000000E+00;  0.0000000E+00;  1.0000000E+04;  0.0000000E+00;  1.0000000E+04;  0.0000000E+00;  0.0000000E+00;  0.0000000E+00;  0.0000000E+00;
  2.1199999E+00;  9.9999998E-03; -2.0000000E-02;835;  0.0000000E+00;  0.0000000E+00;  0.0000000E+00;  1.0000000E+03;  4.0000001E-01;  0.0000000E+00;0;  0.0000000E+00;  0.0000000E+00;  0.0000000E+00;0;  0.0000000E+00;  1.0000000E+04;  0.0000000E+00;  0.0000000E+00;  1.0000000E+04;  0.0000000E+00;  1.0000000E+04;  0.0000000E+00;  0.0000000E+00;  0.0000000E+00;  0.0000000E+00;
  2.1199999E+00;  9.9999998E-03;  0.0000000E+00;836;  0.0000000E+00;  0.0000000E+00;  0.0000000E+00;  1.0000000E+03;  4.0000001E-01;  0.0000000E+00;0;  0.0000000E+00;  0.0000000E+00;  0.0000000E+00;0;  0.0000000E+00;  1.0000000E+04;  0.0000000E+00;  0.0000000E+00;  1.0000000E+04;  0.0000000E+00;  1.0000000E+04;  0.0000000E+00;  0.0000000E+00;  0.0000000E+00;  0.0000000E+00;
  2.1199999E+00;  9.9999998E-03;  2.0000000E-02;837;  0.0000000E+00;  0.0000000E+00;  0.0000000E+00;  1.0000000E+03;  4.0000001E-01;  0.0000000E+00;0;  0.0000000E+00;  0.0000000E+00;  0.0000000E+00;0;  0.0000000E+00;  1.0000000E+04;  0.0000000E+00;  0.0000000E+00;  1.0000000E+04;  0.0000000E+00;  1.0000000E+04;  0.0000000E+00;  0.0000000E+00;  0.0000000E+00;  0.0000000E+00;
  2.1199999E+00;  9.9999998E-03;  3.9999999E-02;838;  0.0000000E+00;  0.0000000E+00;  0.0000000E+00;  1.0000000E+03;  4.0000001E-01;  0.0000000E+00;0;  0.0000000E+00;  0.0000000E+00;  0.0000000E+00;0;  0.0000000E+00;  1.0000000E+04;  0.0000000E+00;  0.0000000E+00;  1.0000000E+04;  0.0000000E+00;  1.0000000E+04;  0.0000000E+00;  0.0000000E+00;  0.0000000E+00;  0.0000000E+00;
  2.1199999E+00;  9.9999998E-03;  5.9999999E-02;839;  0.0000000E+00;  0.0000000E+00;  0.0000000E+00;  1.0000000E+03;  4.0000001E-01;  0.0000000E+00;0;  0.0000000E+00;  0.0000000E+00;  0.0000000E+00;0;  0.0000000E+00;  1.0000000E+04;  0.0000000E+00;  0.0000000E+00;  1.0000000E+04;  0.0000000E+00;  1.0000000E+04;  0.0000000E+00;  0.0000000E+00;  0.0000000E+00;  0.0000000E+00;
  2.1199999E+00;  9.9999998E-03;  7.9999998E-02;840;  0.0000000E+00;  0.0000000E+00;  0.0000000E+00;  1.0000000E+03;  4.0000001E-01;  0.0000000E+00;0;  0.0000000E+00;  0.0000000E+00;  0.0000000E+00;0;  0.0000000E+00;  1.0000000E+04;  0.0000000E+00;  0.0000000E+00;  1.0000000E+04;  0.0000000E+00;  1.0000000E+04;  0.0000000E+00;  0.0000000E+00;  0.0000000E+00;  0.0000000E+00;
  2.1199999E+00;  9.9999998E-03;  1.0000000E-01;841;  0.0000000E+00;  0.0000000E+00;  0.0000000E+00;  1.0000000E+03;  4.0000001E-01;  0.0000000E+00;0;  0.0000000E+00;  0.0000000E+00;  0.0000000E+00;0;  0.0000000E+00;  1.0000000E+04;  0.0000000E+00;  0.0000000E+00;  1.0000000E+04;  0.0000000E+00;  1.0000000E+04;  0.0000000E+00;  0.0000000E+00;  0.0000000E+00;  0.0000000E+00;
  2.1199999E+00;  9.9999998E-03;  1.2000000E-01;842;  0.0000000E+00;  0.0000000E+00;  0.0000000E+00;  1.0000000E+03;  4.0000001E-01;  0.0000000E+00;0;  0.0000000E+00;  0.0000000E+00;  0.0000000E+00;0;  0.0000000E+00;  1.0000000E+04;  0.0000000E+00;  0.0000000E+00;  1.0000000E+04;  0.0000000E+00;  1.0000000E+04;  0.0000000E+00;  0.0000000E+00;  0.0000000E+00;  0.0000000E+00;
  2.1199999E+00;  9.9999998E-03;  1.4000000E-01;843;  0.0000000E+00;  0.0000000E+00;  0.0000000E+00;  1.0000000E+03;  4.0000001E-01;  0.0000000E+00;0;  0.0000000E+00;  0.0000000E+00;  0.0000000E+00;0;  0.0000000E+00;  1.0000000E+04;  0.0000000E+00;  0.0000000E+00;  1.0000000E+04;  0.0000000E+00;  1.0000000E+04;  0.0000000E+00;  0.0000000E+00;  0.0000000E+00;  0.0000000E+00;
  2.1199999E+00;  9.9999998E-03;  1.6000000E-01;844;  0.0000000E+00;  0.0000000E+00;  0.0000000E+00;  1.0000000E+03;  4.0000001E-01;  0.0000000E+00;0;  0.0000000E+00;  0.0000000E+00;  0.0000000E+00;0;  0.0000000E+00;  1.0000000E+04;  0.0000000E+00;  0.0000000E+00;  1.0000000E+04;  0.0000000E+00;  1.0000000E+04;  0.0000000E+00;  0.0000000E+00;  0.0000000E+00;  0.0000000E+00;
  2.1199999E+00;  9.9999998E-03;  1.8000001E-01;845;  0.0000000E+00;  0.0000000E+00;  0.0000000E+00;  1.0000000E+03;  4.0000001E-01;  0.0000000E+00;0;  0.0000000E+00;  0.0000000E+00;  0.0000000E+00;0;  0.0000000E+00;  1.0000000E+04;  0.0000000E+00;  0.0000000E+00;  1.0000000E+04;  0.0000000E+00;  1.0000000E+04;  0.0000000E+00;  0.0000000E+00;  0.0000000E+00;  0.0000000E+00;
  2.1199999E+00;  9.9999998E-03;  2.0000000E-01;846;  0.0000000E+00;  0.0000000E+00;  0.0000000E+00;  1.0000000E+03;  4.0000001E-01;  0.0000000E+00;0;  0.0000000E+00;  0.0000000E+00;  0.0000000E+00;0;  0.0000000E+00;  1.0000000E+04;  0.0000000E+00;  0.0000000E+00;  1.0000000E+04;  0.0000000E+00;  1.0000000E+04;  0.0000000E+00;  0.0000000E+00;  0.0000000E+00;  0.0000000E+00;
  2.1199999E+00;  9.9999998E-03;  2.2000000E-01;847;  0.0000000E+00;  0.0000000E+00;  0.0000000E+00;  1.0000000E+03;  4.0000001E-01;  0.0000000E+00;0;  0.0000000E+00;  0.0000000E+00;  0.0000000E+00;0;  0.0000000E+00;  1.0000000E+04;  0.0000000E+00;  0.0000000E+00;  1.0000000E+04;  0.0000000E+00;  1.0000000E+04;  0.0000000E+00;  0.0000000E+00;  0.0000000E+00;  0.0000000E+00;
  2.1199999E+00;  9.9999998E-03;  2.3999999E-01;848;  0.0000000E+00;  0.0000000E+00;  0.0000000E+00;  1.0000000E+03;  4.0000001E-01;  0.0000000E+00;0;  0.0000000E+00;  0.0000000E+00;  0.0000000E+00;0;  0.0000000E+00;  1.0000000E+04;  0.0000000E+00;  0.0000000E+00;  1.0000000E+04;  0.0000000E+00;  1.0000000E+04;  0.0000000E+00;  0.0000000E+00;  0.0000000E+00;  0.0000000E+00;
  2.1199999E+00;  9.9999998E-03;  2.5999999E-01;849;  0.0000000E+00;  0.0000000E+00;  0.0000000E+00;  1.0000000E+03;  4.0000001E-01;  0.0000000E+00;0;  0.0000000E+00;  0.0000000E+00;  0.0000000E+00;0;  0.0000000E+00;  1.0000000E+04;  0.0000000E+00;  0.0000000E+00;  1.0000000E+04;  0.0000000E+00;  1.0000000E+04;  0.0000000E+00;  0.0000000E+00;  0.0000000E+00;  0.0000000E+00;
  2.1199999E+00;  9.9999998E-03;  2.8000000E-01;850;  0.0000000E+00;  0.0000000E+00;  0.0000000E+00;  1.0000000E+03;  4.0000001E-01;  0.0000000E+00;0;  0.0000000E+00;  0.0000000E+00;  0.0000000E+00;0;  0.0000000E+00;  1.0000000E+04;  0.0000000E+00;  0.0000000E+00;  1.0000000E+04;  0.0000000E+00;  1.0000000E+04;  0.0000000E+00;  0.0000000E+00;  0.0000000E+00;  0.0000000E+00;
  2.1199999E+00;  9.9999998E-03;  3.0000001E-01;851;  0.0000000E+00;  0.0000000E+00;  0.0000000E+00;  1.0000000E+03;  4.0000001E-01;  0.0000000E+00;0;  0.0000000E+00;  0.0000000E+00;  0.0000000E+00;0;  0.0000000E+00;  1.0000000E+04;  0.0000000E+00;  0.0000000E+00;  1.0000000E+04;  0.0000000E+00;  1.0000000E+04;  0.0000000E+00;  0.0000000E+00;  0.0000000E+00;  0.0000000E+00;
  2.1199999E+00;  9.9999998E-03;  3.1999999E-01;852;  0.0000000E+00;  0.0000000E+00;  0.0000000E+00;  1.0000000E+03;  4.0000001E-01;  0.0000000E+00;0;  0.0000000E+00;  0.0000000E+00;  0.0000000E+00;0;  0.0000000E+00;  1.0000000E+04;  0.0000000E+00;  0.0000000E+00;  1.0000000E+04;  0.0000000E+00;  1.0000000E+04;  0.0000000E+00;  0.0000000E+00;  0.0000000E+00;  0.0000000E+00;
  2.1199999E+00;  9.9999998E-03;  3.4000000E-01;853;  0.0000000E+00;  0.0000000E+00;  0.0000000E+00;  1.0000000E+03;  4.0000001E-01;  0.0000000E+00;0;  0.0000000E+00;  0.0000000E+00;  0.0000000E+00;0;  0.0000000E+00;  1.0000000E+04;  0.0000000E+00;  0.0000000E+00;  1.0000000E+04;  0.0000000E+00;  1.0000000E+04;  0.0000000E+00;  0.0000000E+00;  0.0000000E+00;  0.0000000E+00;
  2.1199999E+00;  9.9999998E-03;  3.6000001E-01;854;  0.0000000E+00;  0.0000000E+00;  0.0000000E+00;  1.0000000E+03;  4.0000001E-01;  0.0000000E+00;0;  0.0000000E+00;  0.0000000E+00;  0.0000000E+00;0;  0.0000000E+00;  1.0000000E+04;  0.0000000E+00;  0.0000000E+00;  1.0000000E+04;  0.0000000E+00;  1.0000000E+04;  0.0000000E+00;  0.0000000E+00;  0.0000000E+00;  0.0000000E+00;
  2.1199999E+00;  9.9999998E-03;  3.8000000E-01;855;  0.0000000E+00;  0.0000000E+00;  0.0000000E+00;  1.0000000E+03;  4.0000001E-01;  0.0000000E+00;0;  0.0000000E+00;  0.0000000E+00;  0.0000000E+00;0;  0.0000000E+00;  1.0000000E+04;  0.0000000E+00;  0.0000000E+00;  1.0000000E+04;  0.0000000E+00;  1.0000000E+04;  0.0000000E+00;  0.0000000E+00;  0.0000000E+00;  0.0000000E+00;
  2.1199999E+00;  9.9999998E-03;  4.0000001E-01;856;  0.0000000E+00;  0.0000000E+00;  0.0000000E+00;  1.0000000E+03;  4.0000001E-01;  0.0000000E+00;0;  0.0000000E+00;  0.0000000E+00;  0.0000000E+00;0;  0.0000000E+00;  1.0000000E+04;  0.0000000E+00;  0.0000000E+00;  1.0000000E+04;  0.0000000E+00;  1.0000000E+04;  0.0000000E+00;  0.0000000E+00;  0.0000000E+00;  0.0000000E+00;
  2.1400001E+00;  9.9999998E-03; -3.8000000E-01;857;  0.0000000E+00;  0.0000000E+00;  0.0000000E+00;  1.0000000E+03;  4.0000001E-01;  0.0000000E+00;0;  0.0000000E+00;  0.0000000E+00;  0.0000000E+00;0;  0.0000000E+00;  1.0000000E+04;  0.0000000E+00;  0.0000000E+00;  1.0000000E+04;  0.0000000E+00;  1.0000000E+04;  0.0000000E+00;  0.0000000E+00;  0.0000000E+00;  0.0000000E+00;
  2.1400001E+00;  9.9999998E-03; -3.6000001E-01;858;  0.0000000E+00;  0.0000000E+00;  0.0000000E+00;  1.0000000E+03;  4.0000001E-01;  0.0000000E+00;0;  0.0000000E+00;  0.0000000E+00;  0.0000000E+00;0;  0.0000000E+00;  1.0000000E+04;  0.0000000E+00;  0.0000000E+00;  1.0000000E+04;  0.0000000E+00;  1.0000000E+04;  0.0000000E+00;  0.0000000E+00;  0.0000000E+00;  0.0000000E+00;
  2.1400001E+00;  9.9999998E-03; -3.4000000E-01;859;  0.0000000E+00;  0.0000000E+00;  0.0000000E+00;  1.0000000E+03;  4.0000001E-01;  0.0000000E+00;0;  0.0000000E+00;  0.0000000E+00;  0.0000000E+00;0;  0.0000000E+00;  1.0000000E+04;  0.0000000E+00;  0.0000000E+00;  1.0000000E+04;  0.0000000E+00;  1.0000000E+04;  0.0000000E+00;  0.0000000E+00;  0.0000000E+00;  0.0000000E+00;
  2.1400001E+00;  9.9999998E-03; -3.1999999E-01;860;  0.0000000E+00;  0.0000000E+00;  0.0000000E+00;  1.0000000E+03;  4.0000001E-01;  0.0000000E+00;0;  0.0000000E+00;  0.0000000E+00;  0.0000000E+00;0;  0.0000000E+00;  1.0000000E+04;  0.0000000E+00;  0.0000000E+00;  1.0000000E+04;  0.0000000E+00;  1.0000000E+04;  0.0000000E+00;  0.0000000E+00;  0.0000000E+00;  0.0000000E+00;
  2.1400001E+00;  9.9999998E-03; -3.0000001E-01;861;  0.0000000E+00;  0.0000000E+00;  0.0000000E+00;  1.0000000E+03;  4.0000001E-01;  0.0000000E+00;0;  0.0000000E+00;  0.0000000E+00;  0.0000000E+00;0;  0.0000000E+00;  1.0000000E+04;  0.0000000E+00;  0.0000000E+00;  1.0000000E+04;  0.0000000E+00;  1.0000000E+04;  0.0000000E+00;  0.0000000E+00;  0.0000000E+00;  0.0000000E+00;
  2.1400001E+00;  9.9999998E-03; -2.8000000E-01;862;  0.0000000E+00;  0.0000000E+00;  0.0000000E+00;  1.0000000E+03;  4.0000001E-01;  0.0000000E+00;0;  0.0000000E+00;  0.0000000E+00;  0.0000000E+00;0;  0.0000000E+00;  1.0000000E+04;  0.0000000E+00;  0.0000000E+00;  1.0000000E+04;  0.0000000E+00;  1.0000000E+04;  0.0000000E+00;  0.0000000E+00;  0.0000000E+00;  0.0000000E+00;
  2.1400001E+00;  9.9999998E-03; -2.5999999E-01;863;  0.0000000E+00;  0.0000000E+00;  0.0000000E+00;  1.0000000E+03;  4.0000001E-01;  0.0000000E+00;0;  0.0000000E+00;  0.0000000E+00;  0.0000000E+00;0;  0.0000000E+00;  1.0000000E+04;  0.0000000E+00;  0.0000000E+00;  1.0000000E+04;  0.0000000E+00;  1.0000000E+04;  0.0000000E+00;  0.0000000E+00;  0.0000000E+00;  0.0000000E+00;
  2.1400001E+00;  9.9999998E-03; -2.3999999E-01;864;  0.0000000E+00;  0.0000000E+00;  0.0000000E+00;  1.0000000E+03;  4.0000001E-01;  0.0000000E+00;0;  0.0000000E+00;  0.0000000E+00;  0.0000000E+00;0;  0.0000000E+00;  1.0000000E+04;  0.0000000E+00;  0.0000000E+00;  1.0000000E+04;  0.0000000E+00;  1.0000000E+04;  0.0000000E+00;  0.0000000E+00;  0.0000000E+00;  0.0000000E+00;
  2.1400001E+00;  9.9999998E-03; -2.2000000E-01;865;  0.0000000E+00;  0.0000000E+00;  0.0000000E+00;  1.0000000E+03;  4.0000001E-01;  0.0000000E+00;0;  0.0000000E+00;  0.0000000E+00;  0.0000000E+00;0;  0.0000000E+00;  1.0000000E+04;  0.0000000E+00;  0.0000000E+00;  1.0000000E+04;  0.0000000E+00;  1.0000000E+04;  0.0000000E+00;  0.0000000E+00;  0.0000000E+00;  0.0000000E+00;
  2.1400001E+00;  9.9999998E-03; -2.0000000E-01;866;  0.0000000E+00;  0.0000000E+00;  0.0000000E+00;  1.0000000E+03;  4.0000001E-01;  0.0000000E+00;0;  0.0000000E+00;  0.0000000E+00;  0.0000000E+00;0;  0.0000000E+00;  1.0000000E+04;  0.0000000E+00;  0.0000000E+00;  1.0000000E+04;  0.0000000E+00;  1.0000000E+04;  0.0000000E+00;  0.0000000E+00;  0.0000000E+00;  0.0000000E+00;
  2.1400001E+00;  9.9999998E-03; -1.8000001E-01;867;  0.0000000E+00;  0.0000000E+00;  0.0000000E+00;  1.0000000E+03;  4.0000001E-01;  0.0000000E+00;0;  0.0000000E+00;  0.0000000E+00;  0.0000000E+00;0;  0.0000000E+00;  1.0000000E+04;  0.0000000E+00;  0.0000000E+00;  1.0000000E+04;  0.0000000E+00;  1.0000000E+04;  0.0000000E+00;  0.0000000E+00;  0.0000000E+00;  0.0000000E+00;
  2.1400001E+00;  9.9999998E-03; -1.6000000E-01;868;  0.0000000E+00;  0.0000000E+00;  0.0000000E+00;  1.0000000E+03;  4.0000001E-01;  0.0000000E+00;0;  0.0000000E+00;  0.0000000E+00;  0.0000000E+00;0;  0.0000000E+00;  1.0000000E+04;  0.0000000E+00;  0.0000000E+00;  1.0000000E+04;  0.0000000E+00;  1.0000000E+04;  0.0000000E+00;  0.0000000E+00;  0.0000000E+00;  0.0000000E+00;
  2.1400001E+00;  9.9999998E-03; -1.4000000E-01;869;  0.0000000E+00;  0.0000000E+00;  0.0000000E+00;  1.0000000E+03;  4.0000001E-01;  0.0000000E+00;0;  0.0000000E+00;  0.0000000E+00;  0.0000000E+00;0;  0.0000000E+00;  1.0000000E+04;  0.0000000E+00;  0.0000000E+00;  1.0000000E+04;  0.0000000E+00;  1.0000000E+04;  0.0000000E+00;  0.0000000E+00;  0.0000000E+00;  0.0000000E+00;
  2.1400001E+00;  9.9999998E-03; -1.2000000E-01;870;  0.0000000E+00;  0.0000000E+00;  0.0000000E+00;  1.0000000E+03;  4.0000001E-01;  0.0000000E+00;0;  0.0000000E+00;  0.0000000E+00;  0.0000000E+00;0;  0.0000000E+00;  1.0000000E+04;  0.0000000E+00;  0.0000000E+00;  1.0000000E+04;  0.0000000E+00;  1.0000000E+04;  0.0000000E+00;  0.0000000E+00;  0.0000000E+00;  0.0000000E+00;
  2.1400001E+00;  9.9999998E-03; -1.0000000E-01;871;  0.0000000E+00;  0.0000000E+00;  0.0000000E+00;  1.0000000E+03;  4.0000001E-01;  0.0000000E+00;0;  0.0000000E+00;  0.0000000E+00;  0.0000000E+00;0;  0.0000000E+00;  1.0000000E+04;  0.0000000E+00;  0.0000000E+00;  1.0000000E+04;  0.0000000E+00;  1.0000000E+04;  0.0000000E+00;  0.0000000E+00;  0.0000000E+00;  0.0000000E+00;
  2.1400001E+00;  9.9999998E-03; -7.9999998E-02;872;  0.0000000E+00;  0.0000000E+00;  0.0000000E+00;  1.0000000E+03;  4.0000001E-01;  0.0000000E+00;0;  0.0000000E+00;  0.0000000E+00;  0.0000000E+00;0;  0.0000000E+00;  1.0000000E+04;  0.0000000E+00;  0.0000000E+00;  1.0000000E+04;  0.0000000E+00;  1.0000000E+04;  0.0000000E+00;  0.0000000E+00;  0.0000000E+00;  0.0000000E+00;
  2.1400001E+00;  9.9999998E-03; -5.9999999E-02;873;  0.0000000E+00;  0.0000000E+00;  0.0000000E+00;  1.0000000E+03;  4.0000001E-01;  0.0000000E+00;0;  0.0000000E+00;  0.0000000E+00;  0.0000000E+00;0;  0.0000000E+00;  1.0000000E+04;  0.0000000E+00;  0.0000000E+00;  1.0000000E+04;  0.0000000E+00;  1.0000000E+04;  0.0000000E+00;  0.0000000E+00;  0.0000000E+00;  0.0000000E+00;
  2.1400001E+00;  9.9999998E-03; -3.9999999E-02;874;  0.0000000E+00;  0.0000000E+00;  0.0000000E+00;  1.0000000E+03;  4.0000001E-01;  0.0000000E+00;0;  0.0000000E+00;  0.0000000E+00;  0.0000000E+00;0;  0.0000000E+00;  1.0000000E+04;  0.0000000E+00;  0.0000000E+00;  1.0000000E+04;  0.0000000E+00;  1.0000000E+04;  0.0000000E+00;  0.0000000E+00;  0.0000000E+00;  0.0000000E+00;
  2.1400001E+00;  9.9999998E-03; -2.0000000E-02;875;  0.0000000E+00;  0.0000000E+00;  0.0000000E+00;  1.0000000E+03;  4.0000001E-01;  0.0000000E+00;0;  0.0000000E+00;  0.0000000E+00;  0.0000000E+00;0;  0.0000000E+00;  1.0000000E+04;  0.0000000E+00;  0.0000000E+00;  1.0000000E+04;  0.0000000E+00;  1.0000000E+04;  0.0000000E+00;  0.0000000E+00;  0.0000000E+00;  0.0000000E+00;
  2.1400001E+00;  9.9999998E-03;  0.0000000E+00;876;  0.0000000E+00;  0.0000000E+00;  0.0000000E+00;  1.0000000E+03;  4.0000001E-01;  0.0000000E+00;0;  0.0000000E+00;  0.0000000E+00;  0.0000000E+00;0;  0.0000000E+00;  1.0000000E+04;  0.0000000E+00;  0.0000000E+00;  1.0000000E+04;  0.0000000E+00;  1.0000000E+04;  0.0000000E+00;  0.0000000E+00;  0.0000000E+00;  0.0000000E+00;
  2.1400001E+00;  9.9999998E-03;  2.0000000E-02;877;  0.0000000E+00;  0.0000000E+00;  0.0000000E+00;  1.0000000E+03;  4.0000001E-01;  0.0000000E+00;0;  0.0000000E+00;  0.0000000E+00;  0.0000000E+00;0;  0.0000000E+00;  1.0000000E+04;  0.0000000E+00;  0.0000000E+00;  1.0000000E+04;  0.0000000E+00;  1.0000000E+04;  0.0000000E+00;  0.0000000E+00;  0.0000000E+00;  0.0000000E+00;
  2.1400001E+00;  9.9999998E-03;  3.9999999E-02;878;  0.0000000E+00;  0.0000000E+00;  0.0000000E+00;  1.0000000E+03;  4.0000001E-01;  0.0000000E+00;0;  0.0000000E+00;  0.0000000E+00;  0.0000000E+00;0;  0.0000000E+00;  1.0000000E+04;  0.0000000E+00;  0.0000000E+00;  1.0000000E+04;  0.0000000E+00;  1.0000000E+04;  0.0000000E+00;  0.0000000E+00;  0.0000000E+00;  0.0000000E+00;
  2.1400001E+00;  9.9999998E-03;  5.9999999E-02;879;  0.0000000E+00;  0.0000000E+00;  0.0000000E+00;  1.0000000E+03;  4.0000001E-01;  0.0000000E+00;0;  0.0000000E+00;  0.0000000E+00;  0.0000000E+00;0;  0.0000000E+00;  1.0000000E+04;  0.0000000E+00;  0.0000000E+00;  1.0000000E+04;  0.0000000E+00;  1.0000000E+04;  0.0000000E+00;  0.0000000E+00;  0.0000000E+00;  0.0000000E+00;
  2.1400001E+00;  9.9999998E-03;  7.9999998E-02;880;  0.0000000E+00;  0.0000000E+00;  0.0000000E+00;  1.0000000E+03;  4.0000001E-01;  0.0000000E+00;0;  0.0000000E+00;  0.0000000E+00;  0.0000000E+00;0;  0.0000000E+00;  1.0000000E+04;  0.0000000E+00;  0.0000000E+00;  1.0000000E+04;  0.0000000E+00;  1.0000000E+04;  0.0000000E+00;  0.0000000E+00;  0.0000000E+00;  0.0000000E+00;
  2.1400001E+00;  9.9999998E-03;  1.0000000E-01;881;  0.0000000E+00;  0.0000000E+00;  0.0000000E+00;  1.0000000E+03;  4.0000001E-01;  0.0000000E+00;0;  0.0000000E+00;  0.0000000E+00;  0.0000000E+00;0;  0.0000000E+00;  1.0000000E+04;  0.0000000E+00;  0.0000000E+00;  1.0000000E+04;  0.0000000E+00;  1.0000000E+04;  0.0000000E+00;  0.0000000E+00;  0.0000000E+00;  0.0000000E+00;
  2.1400001E+00;  9.9999998E-03;  1.2000000E-01;882;  0.0000000E+00;  0.0000000E+00;  0.0000000E+00;  1.0000000E+03;  4.0000001E-01;  0.0000000E+00;0;  0.0000000E+00;  0.0000000E+00;  0.0000000E+00;0;  0.0000000E+00;  1.0000000E+04;  0.0000000E+00;  0.0000000E+00;  1.0000000E+04;  0.0000000E+00;  1.0000000E+04;  0.0000000E+00;  0.0000000E+00;  0.0000000E+00;  0.0000000E+00;
  2.1400001E+00;  9.9999998E-03;  1.4000000E-01;883;  0.0000000E+00;  0.0000000E+00;  0.0000000E+00;  1.0000000E+03;  4.0000001E-01;  0.0000000E+00;0;  0.0000000E+00;  0.0000000E+00;  0.0000000E+00;0;  0.0000000E+00;  1.0000000E+04;  0.0000000E+00;  0.0000000E+00;  1.0000000E+04;  0.0000000E+00;  1.0000000E+04;  0.0000000E+00;  0.0000000E+00;  0.0000000E+00;  0.0000000E+00;
  2.1400001E+00;  9.9999998E-03;  1.6000000E-01;884;  0.0000000E+00;  0.0000000E+00;  0.0000000E+00;  1.0000000E+03;  4.0000001E-01;  0.0000000E+00;0;  0.0000000E+00;  0.0000000E+00;  0.0000000E+00;0;  0.0000000E+00;  1.0000000E+04;  0.0000000E+00;  0.0000000E+00;  1.0000000E+04;  0.0000000E+00;  1.0000000E+04;  0.0000000E+00;  0.0000000E+00;  0.0000000E+00;  0.0000000E+00;
  2.1400001E+00;  9.9999998E-03;  1.8000001E-01;885;  0.0000000E+00;  0.0000000E+00;  0.0000000E+00;  1.0000000E+03;  4.0000001E-01;  0.0000000E+00;0;  0.0000000E+00;  0.0000000E+00;  0.0000000E+00;0;  0.0000000E+00;  1.0000000E+04;  0.0000000E+00;  0.0000000E+00;  1.0000000E+04;  0.0000000E+00;  1.0000000E+04;  0.0000000E+00;  0.0000000E+00;  0.0000000E+00;  0.0000000E+00;
  2.1400001E+00;  9.9999998E-03;  2.0000000E-01;886;  0.0000000E+00;  0.0000000E+00;  0.0000000E+00;  1.0000000E+03;  4.0000001E-01;  0.0000000E+00;0;  0.0000000E+00;  0.0000000E+00;  0.0000000E+00;0;  0.0000000E+00;  1.0000000E+04;  0.0000000E+00;  0.0000000E+00;  1.0000000E+04;  0.0000000E+00;  1.0000000E+04;  0.0000000E+00;  0.0000000E+00;  0.0000000E+00;  0.0000000E+00;
  2.1400001E+00;  9.9999998E-03;  2.2000000E-01;887;  0.0000000E+00;  0.0000000E+00;  0.0000000E+00;  1.0000000E+03;  4.0000001E-01;  0.0000000E+00;0;  0.0000000E+00;  0.0000000E+00;  0.0000000E+00;0;  0.0000000E+00;  1.0000000E+04;  0.0000000E+00;  0.0000000E+00;  1.0000000E+04;  0.0000000E+00;  1.0000000E+04;  0.0000000E+00;  0.0000000E+00;  0.0000000E+00;  0.0000000E+00;
  2.1400001E+00;  9.9999998E-03;  2.3999999E-01;888;  0.0000000E+00;  0.0000000E+00;  0.0000000E+00;  1.0000000E+03;  4.0000001E-01;  0.0000000E+00;0;  0.0000000E+00;  0.0000000E+00;  0.0000000E+00;0;  0.0000000E+00;  1.0000000E+04;  0.0000000E+00;  0.0000000E+00;  1.0000000E+04;  0.0000000E+00;  1.0000000E+04;  0.0000000E+00;  0.0000000E+00;  0.0000000E+00;  0.0000000E+00;
  2.1400001E+00;  9.9999998E-03;  2.5999999E-01;889;  0.0000000E+00;  0.0000000E+00;  0.0000000E+00;  1.0000000E+03;  4.0000001E-01;  0.0000000E+00;0;  0.0000000E+00;  0.0000000E+00;  0.0000000E+00;0;  0.0000000E+00;  1.0000000E+04;  0.0000000E+00;  0.0000000E+00;  1.0000000E+04;  0.0000000E+00;  1.0000000E+04;  0.0000000E+00;  0.0000000E+00;  0.0000000E+00;  0.0000000E+00;
  2.1400001E+00;  9.9999998E-03;  2.8000000E-01;890;  0.0000000E+00;  0.0000000E+00;  0.0000000E+00;  1.0000000E+03;  4.0000001E-01;  0.0000000E+00;0;  0.0000000E+00;  0.0000000E+00;  0.0000000E+00;0;  0.0000000E+00;  1.0000000E+04;  0.0000000E+00;  0.0000000E+00;  1.0000000E+04;  0.0000000E+00;  1.0000000E+04;  0.0000000E+00;  0.0000000E+00;  0.0000000E+00;  0.0000000E+00;
  2.1400001E+00;  9.9999998E-03;  3.0000001E-01;891;  0.0000000E+00;  0.0000000E+00;  0.0000000E+00;  1.0000000E+03;  4.0000001E-01;  0.0000000E+00;0;  0.0000000E+00;  0.0000000E+00;  0.0000000E+00;0;  0.0000000E+00;  1.0000000E+04;  0.0000000E+00;  0.0000000E+00;  1.0000000E+04;  0.0000000E+00;  1.0000000E+04;  0.0000000E+00;  0.0000000E+00;  0.0000000E+00;  0.0000000E+00;
  2.1400001E+00;  9.9999998E-03;  3.1999999E-01;892;  0.0000000E+00;  0.0000000E+00;  0.0000000E+00;  1.0000000E+03;  4.0000001E-01;  0.0000000E+00;0;  0.0000000E+00;  0.0000000E+00;  0.0000000E+00;0;  0.0000000E+00;  1.0000000E+04;  0.0000000E+00;  0.0000000E+00;  1.0000000E+04;  0.0000000E+00;  1.0000000E+04;  0.0000000E+00;  0.0000000E+00;  0.0000000E+00;  0.0000000E+00;
  2.1400001E+00;  9.9999998E-03;  3.4000000E-01;893;  0.0000000E+00;  0.0000000E+00;  0.0000000E+00;  1.0000000E+03;  4.0000001E-01;  0.0000000E+00;0;  0.0000000E+00;  0.0000000E+00;  0.0000000E+00;0;  0.0000000E+00;  1.0000000E+04;  0.0000000E+00;  0.0000000E+00;  1.0000000E+04;  0.0000000E+00;  1.0000000E+04;  0.0000000E+00;  0.0000000E+00;  0.0000000E+00;  0.0000000E+00;
  2.1400001E+00;  9.9999998E-03;  3.6000001E-01;894;  0.0000000E+00;  0.0000000E+00;  0.0000000E+00;  1.0000000E+03;  4.0000001E-01;  0.0000000E+00;0;  0.0000000E+00;  0.0000000E+00;  0.0000000E+00;0;  0.0000000E+00;  1.0000000E+04;  0.0000000E+00;  0.0000000E+00;  1.0000000E+04;  0.0000000E+00;  1.0000000E+04;  0.0000000E+00;  0.0000000E+00;  0.0000000E+00;  0.0000000E+00;
  2.1400001E+00;  9.9999998E-03;  3.8000000E-01;895;  0.0000000E+00;  0.0000000E+00;  0.0000000E+00;  1.0000000E+03;  4.0000001E-01;  0.0000000E+00;0;  0.0000000E+00;  0.0000000E+00;  0.0000000E+00;0;  0.0000000E+00;  1.0000000E+04;  0.0000000E+00;  0.0000000E+00;  1.0000000E+04;  0.0000000E+00;  1.0000000E+04;  0.0000000E+00;  0.0000000E+00;  0.0000000E+00;  0.0000000E+00;
  2.1400001E+00;  9.9999998E-03;  4.0000001E-01;896;  0.0000000E+00;  0.0000000E+00;  0.0000000E+00;  1.0000000E+03;  4.0000001E-01;  0.0000000E+00;0;  0.0000000E+00;  0.0000000E+00;  0.0000000E+00;0;  0.0000000E+00;  1.0000000E+04;  0.0000000E+00;  0.0000000E+00;  1.0000000E+04;  0.0000000E+00;  1.0000000E+04;  0.0000000E+00;  0.0000000E+00;  0.0000000E+00;  0.0000000E+00;
  2.1600001E+00;  9.9999998E-03; -2.8000000E-01;897;  0.0000000E+00;  0.0000000E+00;  0.0000000E+00;  1.0000000E+03;  4.0000001E-01;  0.0000000E+00;0;  0.0000000E+00;  0.0000000E+00;  0.0000000E+00;0;  0.0000000E+00;  1.0000000E+04;  0.0000000E+00;  0.0000000E+00;  1.0000000E+04;  0.0000000E+00;  1.0000000E+04;  0.0000000E+00;  0.0000000E+00;  0.0000000E+00;  0.0000000E+00;
  2.1600001E+00;  9.9999998E-03; -2.5999999E-01;898;  0.0000000E+00;  0.0000000E+00;  0.0000000E+00;  1.0000000E+03;  4.0000001E-01;  0.0000000E+00;0;  0.0000000E+00;  0.0000000E+00;  0.0000000E+00;0;  0.0000000E+00;  1.0000000E+04;  0.0000000E+00;  0.0000000E+00;  1.0000000E+04;  0.0000000E+00;  1.0000000E+04;  0.0000000E+00;  0.0000000E+00;  0.0000000E+00;  0.0000000E+00;
  2.1600001E+00;  9.9999998E-03; -2.3999999E-01;899;  0.0000000E+00;  0.0000000E+00;  0.0000000E+00;  1.0000000E+03;  4.0000001E-01;  0.0000000E+00;0;  0.0000000E+00;  0.0000000E+00;  0.0000000E+00;0;  0.0000000E+00;  1.0000000E+04;  0.0000000E+00;  0.0000000E+00;  1.0000000E+04;  0.0000000E+00;  1.0000000E+04;  0.0000000E+00;  0.0000000E+00;  0.0000000E+00;  0.0000000E+00;
  2.1600001E+00;  9.9999998E-03; -2.2000000E-01;900;  0.0000000E+00;  0.0000000E+00;  0.0000000E+00;  1.0000000E+03;  4.0000001E-01;  0.0000000E+00;0;  0.0000000E+00;  0.0000000E+00;  0.0000000E+00;0;  0.0000000E+00;  1.0000000E+04;  0.0000000E+00;  0.0000000E+00;  1.0000000E+04;  0.0000000E+00;  1.0000000E+04;  0.0000000E+00;  0.0000000E+00;  0.0000000E+00;  0.0000000E+00;
  2.1600001E+00;  9.9999998E-03; -2.0000000E-01;901;  0.0000000E+00;  0.0000000E+00;  0.0000000E+00;  1.0000000E+03;  4.0000001E-01;  0.0000000E+00;0;  0.0000000E+00;  0.0000000E+00;  0.0000000E+00;0;  0.0000000E+00;  1.0000000E+04;  0.0000000E+00;  0.0000000E+00;  1.0000000E+04;  0.0000000E+00;  1.0000000E+04;  0.0000000E+00;  0.0000000E+00;  0.0000000E+00;  0.0000000E+00;
  2.1600001E+00;  9.9999998E-03; -1.8000001E-01;902;  0.0000000E+00;  0.0000000E+00;  0.0000000E+00;  1.0000000E+03;  4.0000001E-01;  0.0000000E+00;0;  0.0000000E+00;  0.0000000E+00;  0.0000000E+00;0;  0.0000000E+00;  1.0000000E+04;  0.0000000E+00;  0.0000000E+00;  1.0000000E+04;  0.0000000E+00;  1.0000000E+04;  0.0000000E+00;  0.0000000E+00;  0.0000000E+00;  0.0000000E+00;
  2.1600001E+00;  9.9999998E-03; -1.6000000E-01;903;  0.0000000E+00;  0.0000000E+00;  0.0000000E+00;  1.0000000E+03;  4.0000001E-01;  0.0000000E+00;0;  0.0000000E+00;  0.0000000E+00;  0.0000000E+00;0;  0.0000000E+00;  1.0000000E+04;  0.0000000E+00;  0.0000000E+00;  1.0000000E+04;  0.0000000E+00;  1.0000000E+04;  0.0000000E+00;  0.0000000E+00;  0.0000000E+00;  0.0000000E+00;
  2.1600001E+00;  9.9999998E-03; -1.4000000E-01;904;  0.0000000E+00;  0.0000000E+00;  0.0000000E+00;  1.0000000E+03;  4.0000001E-01;  0.0000000E+00;0;  0.0000000E+00;  0.0000000E+00;  0.0000000E+00;0;  0.0000000E+00;  1.0000000E+04;  0.0000000E+00;  0.0000000E+00;  1.0000000E+04;  0.0000000E+00;  1.0000000E+04;  0.0000000E+00;  0.0000000E+00;  0.0000000E+00;  0.0000000E+00;
  2.1600001E+00;  9.9999998E-03; -1.2000000E-01;905;  0.0000000E+00;  0.0000000E+00;  0.0000000E+00;  1.0000000E+03;  4.0000001E-01;  0.0000000E+00;0;  0.0000000E+00;  0.0000000E+00;  0.0000000E+00;0;  0.0000000E+00;  1.0000000E+04;  0.0000000E+00;  0.0000000E+00;  1.0000000E+04;  0.0000000E+00;  1.0000000E+04;  0.0000000E+00;  0.0000000E+00;  0.0000000E+00;  0.0000000E+00;
  2.1600001E+00;  9.9999998E-03; -1.0000000E-01;906;  0.0000000E+00;  0.0000000E+00;  0.0000000E+00;  1.0000000E+03;  4.0000001E-01;  0.0000000E+00;0;  0.0000000E+00;  0.0000000E+00;  0.0000000E+00;0;  0.0000000E+00;  1.0000000E+04;  0.0000000E+00;  0.0000000E+00;  1.0000000E+04;  0.0000000E+00;  1.0000000E+04;  0.0000000E+00;  0.0000000E+00;  0.0000000E+00;  0.0000000E+00;
  2.1600001E+00;  9.9999998E-03; -7.9999998E-02;907;  0.0000000E+00;  0.0000000E+00;  0.0000000E+00;  1.0000000E+03;  4.0000001E-01;  0.0000000E+00;0;  0.0000000E+00;  0.0000000E+00;  0.0000000E+00;0;  0.0000000E+00;  1.0000000E+04;  0.0000000E+00;  0.0000000E+00;  1.0000000E+04;  0.0000000E+00;  1.0000000E+04;  0.0000000E+00;  0.0000000E+00;  0.0000000E+00;  0.0000000E+00;
  2.1600001E+00;  9.9999998E-03; -5.9999999E-02;908;  0.0000000E+00;  0.0000000E+00;  0.0000000E+00;  1.0000000E+03;  4.0000001E-01;  0.0000000E+00;0;  0.0000000E+00;  0.0000000E+00;  0.0000000E+00;0;  0.0000000E+00;  1.0000000E+04;  0.0000000E+00;  0.0000000E+00;  1.0000000E+04;  0.0000000E+00;  1.0000000E+04;  0.0000000E+00;  0.0000000E+00;  0.0000000E+00;  0.0000000E+00;
  2.1600001E+00;  9.9999998E-03; -3.9999999E-02;909;  0.0000000E+00;  0.0000000E+00;  0.0000000E+00;  1.0000000E+03;  4.0000001E-01;  0.0000000E+00;0;  0.0000000E+00;  0.0000000E+00;  0.0000000E+00;0;  0.0000000E+00;  1.0000000E+04;  0.0000000E+00;  0.0000000E+00;  1.0000000E+04;  0.0000000E+00;  1.0000000E+04;  0.0000000E+00;  0.0000000E+00;  0.0000000E+00;  0.0000000E+00;
  2.1600001E+00;  9.9999998E-03; -2.0000000E-02;910;  0.0000000E+00;  0.0000000E+00;  0.0000000E+00;  1.0000000E+03;  4.0000001E-01;  0.0000000E+00;0;  0.0000000E+00;  0.0000000E+00;  0.0000000E+00;0;  0.0000000E+00;  1.0000000E+04;  0.0000000E+00;  0.0000000E+00;  1.0000000E+04;  0.0000000E+00;  1.0000000E+04;  0.0000000E+00;  0.0000000E+00;  0.0000000E+00;  0.0000000E+00;
  2.1600001E+00;  9.9999998E-03;  0.0000000E+00;911;  0.0000000E+00;  0.0000000E+00;  0.0000000E+00;  1.0000000E+03;  4.0000001E-01;  0.0000000E+00;0;  0.0000000E+00;  0.0000000E+00;  0.0000000E+00;0;  0.0000000E+00;  1.0000000E+04;  0.0000000E+00;  0.0000000E+00;  1.0000000E+04;  0.0000000E+00;  1.0000000E+04;  0.0000000E+00;  0.0000000E+00;  0.0000000E+00;  0.0000000E+00;
  2.1600001E+00;  9.9999998E-03;  2.0000000E-02;912;  0.0000000E+00;  0.0000000E+00;  0.0000000E+00;  1.0000000E+03;  4.0000001E-01;  0.0000000E+00;0;  0.0000000E+00;  0.0000000E+00;  0.0000000E+00;0;  0.0000000E+00;  1.0000000E+04;  0.0000000E+00;  0.0000000E+00;  1.0000000E+04;  0.0000000E+00;  1.0000000E+04;  0.0000000E+00;  0.0000000E+00;  0.0000000E+00;  0.0000000E+00;
  2.1600001E+00;  9.9999998E-03;  3.9999999E-02;913;  0.0000000E+00;  0.0000000E+00;  0.0000000E+00;  1.0000000E+03;  4.0000001E-01;  0.0000000E+00;0;  0.0000000E+00;  0.0000000E+00;  0.0000000E+00;0;  0.0000000E+00;  1.0000000E+04;  0.0000000E+00;  0.0000000E+00;  1.0000000E+04;  0.0000000E+00;  1.0000000E+04;  0.0000000E+00;  0.0000000E+00;  0.0000000E+00;  0.0000000E+00;
  2.1600001E+00;  9.9999998E-03;  5.9999999E-02;914;  0.0000000E+00;  0.0000000E+00;  0.0000000E+00;  1.0000000E+03;  4.0000001E-01;  0.0000000E+00;0;  0.0000000E+00;  0.0000000E+00;  0.0000000E+00;0;  0.0000000E+00;  1.0000000E+04;  0.0000000E+00;  0.0000000E+00;  1.0000000E+04;  0.0000000E+00;  1.0000000E+04;  0.0000000E+00;  0.0000000E+00;  0.0000000E+00;  0.0000000E+00;
  2.1600001E+00;  9.9999998E-03;  7.9999998E-02;915;  0.0000000E+00;  0.0000000E+00;  0.0000000E+00;  1.0000000E+03;  4.0000001E-01;  0.0000000E+00;0;  0.0000000E+00;  0.0000000E+00;  0.0000000E+00;0;  0.0000000E+00;  1.0000000E+04;  0.0000000E+00;  0.0000000E+00;  1.0000000E+04;  0.0000000E+00;  1.0000000E+04;  0.0000000E+00;  0.0000000E+00;  0.0000000E+00;  0.0000000E+00;
  2.1600001E+00;  9.9999998E-03;  1.0000000E-01;916;  0.0000000E+00;  0.0000000E+00;  0.0000000E+00;  1.0000000E+03;  4.0000001E-01;  0.0000000E+00;0;  0.0000000E+00;  0.0000000E+00;  0.0000000E+00;0;  0.0000000E+00;  1.0000000E+04;  0.0000000E+00;  0.0000000E+00;  1.0000000E+04;  0.0000000E+00;  1.0000000E+04;  0.0000000E+00;  0.0000000E+00;  0.0000000E+00;  0.0000000E+00;
  2.1600001E+00;  9.9999998E-03;  1.2000000E-01;917;  0.0000000E+00;  0.0000000E+00;  0.0000000E+00;  1.0000000E+03;  4.0000001E-01;  0.0000000E+00;0;  0.0000000E+00;  0.0000000E+00;  0.0000000E+00;0;  0.0000000E+00;  1.0000000E+04;  0.0000000E+00;  0.0000000E+00;  1.0000000E+04;  0.0000000E+00;  1.0000000E+04;  0.0000000E+00;  0.0000000E+00;  0.0000000E+00;  0.0000000E+00;
  2.1600001E+00;  9.9999998E-03;  1.4000000E-01;918;  0.0000000E+00;  0.0000000E+00;  0.0000000E+00;  1.0000000E+03;  4.0000001E-01;  0.0000000E+00;0;  0.0000000E+00;  0.0000000E+00;  0.0000000E+00;0;  0.0000000E+00;  1.0000000E+04;  0.0000000E+00;  0.0000000E+00;  1.0000000E+04;  0.0000000E+00;  1.0000000E+04;  0.0000000E+00;  0.0000000E+00;  0.0000000E+00;  0.0000000E+00;
  2.1600001E+00;  9.9999998E-03;  1.6000000E-01;919;  0.0000000E+00;  0.0000000E+00;  0.0000000E+00;  1.0000000E+03;  4.0000001E-01;  0.0000000E+00;0;  0.0000000E+00;  0.0000000E+00;  0.0000000E+00;0;  0.0000000E+00;  1.0000000E+04;  0.0000000E+00;  0.0000000E+00;  1.0000000E+04;  0.0000000E+00;  1.0000000E+04;  0.0000000E+00;  0.0000000E+00;  0.0000000E+00;  0.0000000E+00;
  2.1600001E+00;  9.9999998E-03;  1.8000001E-01;920;  0.0000000E+00;  0.0000000E+00;  0.0000000E+00;  1.0000000E+03;  4.0000001E-01;  0.0000000E+00;0;  0.0000000E+00;  0.0000000E+00;  0.0000000E+00;0;  0.0000000E+00;  1.0000000E+04;  0.0000000E+00;  0.0000000E+00;  1.0000000E+04;  0.0000000E+00;  1.0000000E+04;  0.0000000E+00;  0.0000000E+00;  0.0000000E+00;  0.0000000E+00;
  2.1600001E+00;  9.9999998E-03;  2.0000000E-01;921;  0.0000000E+00;  0.0000000E+00;  0.0000000E+00;  1.0000000E+03;  4.0000001E-01;  0.0000000E+00;0;  0.0000000E+00;  0.0000000E+00;  0.0000000E+00;0;  0.0000000E+00;  1.0000000E+04;  0.0000000E+00;  0.0000000E+00;  1.0000000E+04;  0.0000000E+00;  1.0000000E+04;  0.0000000E+00;  0.0000000E+00;  0.0000000E+00;  0.0000000E+00;
  2.1600001E+00;  9.9999998E-03;  2.2000000E-01;922;  0.0000000E+00;  0.0000000E+00;  0.0000000E+00;  1.0000000E+03;  4.0000001E-01;  0.0000000E+00;0;  0.0000000E+00;  0.0000000E+00;  0.0000000E+00;0;  0.0000000E+00;  1.0000000E+04;  0.0000000E+00;  0.0000000E+00;  1.0000000E+04;  0.0000000E+00;  1.0000000E+04;  0.0000000E+00;  0.0000000E+00;  0.0000000E+00;  0.0000000E+00;
  2.1600001E+00;  9.9999998E-03;  2.3999999E-01;923;  0.0000000E+00;  0.0000000E+00;  0.0000000E+00;  1.0000000E+03;  4.0000001E-01;  0.0000000E+00;0;  0.0000000E+00;  0.0000000E+00;  0.0000000E+00;0;  0.0000000E+00;  1.0000000E+04;  0.0000000E+00;  0.0000000E+00;  1.0000000E+04;  0.0000000E+00;  1.0000000E+04;  0.0000000E+00;  0.0000000E+00;  0.0000000E+00;  0.0000000E+00;
  2.1600001E+00;  9.9999998E-03;  2.5999999E-01;924;  0.0000000E+00;  0.0000000E+00;  0.0000000E+00;  1.0000000E+03;  4.0000001E-01;  0.0000000E+00;0;  0.0000000E+00;  0.0000000E+00;  0.0000000E+00;0;  0.0000000E+00;  1.0000000E+04;  0.0000000E+00;  0.0000000E+00;  1.0000000E+04;  0.0000000E+00;  1.0000000E+04;  0.0000000E+00;  0.0000000E+00;  0.0000000E+00;  0.0000000E+00;
  2.1600001E+00;  9.9999998E-03;  2.8000000E-01;925;  0.0000000E+00;  0.0000000E+00;  0.0000000E+00;  1.0000000E+03;  4.0000001E-01;  0.0000000E+00;0;  0.0000000E+00;  0.0000000E+00;  0.0000000E+00;0;  0.0000000E+00;  1.0000000E+04;  0.0000000E+00;  0.0000000E+00;  1.0000000E+04;  0.0000000E+00;  1.0000000E+04;  0.0000000E+00;  0.0000000E+00;  0.0000000E+00;  0.0000000E+00;
  2.1600001E+00;  9.9999998E-03;  3.0000001E-01;926;  0.0000000E+00;  0.0000000E+00;  0.0000000E+00;  1.0000000E+03;  4.0000001E-01;  0.0000000E+00;0;  0.0000000E+00;  0.0000000E+00;  0.0000000E+00;0;  0.0000000E+00;  1.0000000E+04;  0.0000000E+00;  0.0000000E+00;  1.0000000E+04;  0.0000000E+00;  1.0000000E+04;  0.0000000E+00;  0.0000000E+00;  0.0000000E+00;  0.0000000E+00;
  2.1600001E+00;  9.9999998E-03;  3.1999999E-01;927;  0.0000000E+00;  0.0000000E+00;  0.0000000E+00;  1.0000000E+03;  4.0000001E-01;  0.0000000E+00;0;  0.0000000E+00;  0.0000000E+00;  0.0000000E+00;0;  0.0000000E+00;  1.0000000E+04;  0.0000000E+00;  0.0000000E+00;  1.0000000E+04;  0.0000000E+00;  1.0000000E+04;  0.0000000E+00;  0.0000000E+00;  0.0000000E+00;  0.0000000E+00;
  2.1600001E+00;  9.9999998E-03;  3.4000000E-01;928;  0.0000000E+00;  0.0000000E+00;  0.0000000E+00;  1.0000000E+03;  4.0000001E-01;  0.0000000E+00;0;  0.0000000E+00;  0.0000000E+00;  0.0000000E+00;0;  0.0000000E+00;  1.0000000E+04;  0.0000000E+00;  0.0000000E+00;  1.0000000E+04;  0.0000000E+00;  1.0000000E+04;  0.0000000E+00;  0.0000000E+00;  0.0000000E+00;  0.0000000E+00;
  2.1600001E+00;  9.9999998E-03;  3.6000001E-01;929;  0.0000000E+00;  0.0000000E+00;  0.0000000E+00;  1.0000000E+03;  4.0000001E-01;  0.0000000E+00;0;  0.0000000E+00;  0.0000000E+00;  0.0000000E+00;0;  0.0000000E+00;  1.0000000E+04;  0.0000000E+00;  0.0000000E+00;  1.0000000E+04;  0.0000000E+00;  1.0000000E+04;  0.0000000E+00;  0.0000000E+00;  0.0000000E+00;  0.0000000E+00;
  2.1600001E+00;  9.9999998E-03;  3.8000000E-01;930;  0.0000000E+00;  0.0000000E+00;  0.0000000E+00;  1.0000000E+03;  4.0000001E-01;  0.0000000E+00;0;  0.0000000E+00;  0.0000000E+00;  0.0000000E+00;0;  0.0000000E+00;  1.0000000E+04;  0.0000000E+00;  0.0000000E+00;  1.0000000E+04;  0.0000000E+00;  1.0000000E+04;  0.0000000E+00;  0.0000000E+00;  0.0000000E+00;  0.0000000E+00;
  2.1600001E+00;  9.9999998E-03;  4.0000001E-01;931;  0.0000000E+00;  0.0000000E+00;  0.0000000E+00;  1.0000000E+03;  4.0000001E-01;  0.0000000E+00;0;  0.0000000E+00;  0.0000000E+00;  0.0000000E+00;0;  0.0000000E+00;  1.0000000E+04;  0.0000000E+00;  0.0000000E+00;  1.0000000E+04;  0.0000000E+00;  1.0000000E+04;  0.0000000E+00;  0.0000000E+00;  0.0000000E+00;  0.0000000E+00;
  2.1800001E+00;  9.9999998E-03; -1.8000001E-01;932;  0.0000000E+00;  0.0000000E+00;  0.0000000E+00;  1.0000000E+03;  4.0000001E-01;  0.0000000E+00;0;  0.0000000E+00;  0.0000000E+00;  0.0000000E+00;0;  0.0000000E+00;  1.0000000E+04;  0.0000000E+00;  0.0000000E+00;  1.0000000E+04;  0.0000000E+00;  1.0000000E+04;  0.0000000E+00;  0.0000000E+00;  0.0000000E+00;  0.0000000E+00;
  2.1800001E+00;  9.9999998E-03; -1.6000000E-01;933;  0.0000000E+00;  0.0000000E+00;  0.0000000E+00;  1.0000000E+03;  4.0000001E-01;  0.0000000E+00;0;  0.0000000E+00;  0.0000000E+00;  0.0000000E+00;0;  0.0000000E+00;  1.0000000E+04;  0.0000000E+00;  0.0000000E+00;  1.0000000E+04;  0.0000000E+00;  1.0000000E+04;  0.0000000E+00;  0.0000000E+00;  0.0000000E+00;  0.0000000E+00;
  2.1800001E+00;  9.9999998E-03; -1.4000000E-01;934;  0.0000000E+00;  0.0000000E+00;  0.0000000E+00;  1.0000000E+03;  4.0000001E-01;  0.0000000E+00;0;  0.0000000E+00;  0.0000000E+00;  0.0000000E+00;0;  0.0000000E+00;  1.0000000E+04;  0.0000000E+00;  0.0000000E+00;  1.0000000E+04;  0.0000000E+00;  1.0000000E+04;  0.0000000E+00;  0.0000000E+00;  0.0000000E+00;  0.0000000E+00;
  2.1800001E+00;  9.9999998E-03; -1.2000000E-01;935;  0.0000000E+00;  0.0000000E+00;  0.0000000E+00;  1.0000000E+03;  4.0000001E-01;  0.0000000E+00;0;  0.0000000E+00;  0.0000000E+00;  0.0000000E+00;0;  0.0000000E+00;  1.0000000E+04;  0.0000000E+00;  0.0000000E+00;  1.0000000E+04;  0.0000000E+00;  1.0000000E+04;  0.0000000E+00;  0.0000000E+00;  0.0000000E+00;  0.0000000E+00;
  2.1800001E+00;  9.9999998E-03; -1.0000000E-01;936;  0.0000000E+00;  0.0000000E+00;  0.0000000E+00;  1.0000000E+03;  4.0000001E-01;  0.0000000E+00;0;  0.0000000E+00;  0.0000000E+00;  0.0000000E+00;0;  0.0000000E+00;  1.0000000E+04;  0.0000000E+00;  0.0000000E+00;  1.0000000E+04;  0.0000000E+00;  1.0000000E+04;  0.0000000E+00;  0.0000000E+00;  0.0000000E+00;  0.0000000E+00;
  2.1800001E+00;  9.9999998E-03; -7.9999998E-02;937;  0.0000000E+00;  0.0000000E+00;  0.0000000E+00;  1.0000000E+03;  4.0000001E-01;  0.0000000E+00;0;  0.0000000E+00;  0.0000000E+00;  0.0000000E+00;0;  0.0000000E+00;  1.0000000E+04;  0.0000000E+00;  0.0000000E+00;  1.0000000E+04;  0.0000000E+00;  1.0000000E+04;  0.0000000E+00;  0.0000000E+00;  0.0000000E+00;  0.0000000E+00;
  2.1800001E+00;  9.9999998E-03; -5.9999999E-02;938;  0.0000000E+00;  0.0000000E+00;  0.0000000E+00;  1.0000000E+03;  4.0000001E-01;  0.0000000E+00;0;  0.0000000E+00;  0.0000000E+00;  0.0000000E+00;0;  0.0000000E+00;  1.0000000E+04;  0.0000000E+00;  0.0000000E+00;  1.0000000E+04;  0.0000000E+00;  1.0000000E+04;  0.0000000E+00;  0.0000000E+00;  0.0000000E+00;  0.0000000E+00;
  2.1800001E+00;  9.9999998E-03; -3.9999999E-02;939;  0.0000000E+00;  0.0000000E+00;  0.0000000E+00;  1.0000000E+03;  4.0000001E-01;  0.0000000E+00;0;  0.0000000E+00;  0.0000000E+00;  0.0000000E+00;0;  0.0000000E+00;  1.0000000E+04;  0.0000000E+00;  0.0000000E+00;  1.0000000E+04;  0.0000000E+00;  1.0000000E+04;  0.0000000E+00;  0.0000000E+00;  0.0000000E+00;  0.0000000E+00;
  2.1800001E+00;  9.9999998E-03; -2.0000000E-02;940;  0.0000000E+00;  0.0000000E+00;  0.0000000E+00;  1.0000000E+03;  4.0000001E-01;  0.0000000E+00;0;  0.0000000E+00;  0.0000000E+00;  0.0000000E+00;0;  0.0000000E+00;  1.0000000E+04;  0.0000000E+00;  0.0000000E+00;  1.0000000E+04;  0.0000000E+00;  1.0000000E+04;  0.0000000E+00;  0.0000000E+00;  0.0000000E+00;  0.0000000E+00;
  2.1800001E+00;  9.9999998E-03;  0.0000000E+00;941;  0.0000000E+00;  0.0000000E+00;  0.0000000E+00;  1.0000000E+03;  4.0000001E-01;  0.0000000E+00;0;  0.0000000E+00;  0.0000000E+00;  0.0000000E+00;0;  0.0000000E+00;  1.0000000E+04;  0.0000000E+00;  0.0000000E+00;  1.0000000E+04;  0.0000000E+00;  1.0000000E+04;  0.0000000E+00;  0.0000000E+00;  0.0000000E+00;  0.0000000E+00;
  2.1800001E+00;  9.9999998E-03;  2.0000000E-02;942;  0.0000000E+00;  0.0000000E+00;  0.0000000E+00;  1.0000000E+03;  4.0000001E-01;  0.0000000E+00;0;  0.0000000E+00;  0.0000000E+00;  0.0000000E+00;0;  0.0000000E+00;  1.0000000E+04;  0.0000000E+00;  0.0000000E+00;  1.0000000E+04;  0.0000000E+00;  1.0000000E+04;  0.0000000E+00;  0.0000000E+00;  0.0000000E+00;  0.0000000E+00;
  2.1800001E+00;  9.9999998E-03;  3.9999999E-02;943;  0.0000000E+00;  0.0000000E+00;  0.0000000E+00;  1.0000000E+03;  4.0000001E-01;  0.0000000E+00;0;  0.0000000E+00;  0.0000000E+00;  0.0000000E+00;0;  0.0000000E+00;  1.0000000E+04;  0.0000000E+00;  0.0000000E+00;  1.0000000E+04;  0.0000000E+00;  1.0000000E+04;  0.0000000E+00;  0.0000000E+00;  0.0000000E+00;  0.0000000E+00;
  2.1800001E+00;  9.9999998E-03;  5.9999999E-02;944;  0.0000000E+00;  0.0000000E+00;  0.0000000E+00;  1.0000000E+03;  4.0000001E-01;  0.0000000E+00;0;  0.0000000E+00;  0.0000000E+00;  0.0000000E+00;0;  0.0000000E+00;  1.0000000E+04;  0.0000000E+00;  0.0000000E+00;  1.0000000E+04;  0.0000000E+00;  1.0000000E+04;  0.0000000E+00;  0.0000000E+00;  0.0000000E+00;  0.0000000E+00;
  2.1800001E+00;  9.9999998E-03;  7.9999998E-02;945;  0.0000000E+00;  0.0000000E+00;  0.0000000E+00;  1.0000000E+03;  4.0000001E-01;  0.0000000E+00;0;  0.0000000E+00;  0.0000000E+00;  0.0000000E+00;0;  0.0000000E+00;  1.0000000E+04;  0.0000000E+00;  0.0000000E+00;  1.0000000E+04;  0.0000000E+00;  1.0000000E+04;  0.0000000E+00;  0.0000000E+00;  0.0000000E+00;  0.0000000E+00;
  2.1800001E+00;  9.9999998E-03;  1.0000000E-01;946;  0.0000000E+00;  0.0000000E+00;  0.0000000E+00;  1.0000000E+03;  4.0000001E-01;  0.0000000E+00;0;  0.0000000E+00;  0.0000000E+00;  0.0000000E+00;0;  0.0000000E+00;  1.0000000E+04;  0.0000000E+00;  0.0000000E+00;  1.0000000E+04;  0.0000000E+00;  1.0000000E+04;  0.0000000E+00;  0.0000000E+00;  0.0000000E+00;  0.0000000E+00;
  2.1800001E+00;  9.9999998E-03;  1.2000000E-01;947;  0.0000000E+00;  0.0000000E+00;  0.0000000E+00;  1.0000000E+03;  4.0000001E-01;  0.0000000E+00;0;  0.0000000E+00;  0.0000000E+00;  0.0000000E+00;0;  0.0000000E+00;  1.0000000E+04;  0.0000000E+00;  0.0000000E+00;  1.0000000E+04;  0.0000000E+00;  1.0000000E+04;  0.0000000E+00;  0.0000000E+00;  0.0000000E+00;  0.0000000E+00;
  2.1800001E+00;  9.9999998E-03;  1.4000000E-01;948;  0.0000000E+00;  0.0000000E+00;  0.0000000E+00;  1.0000000E+03;  4.0000001E-01;  0.0000000E+00;0;  0.0000000E+00;  0.0000000E+00;  0.0000000E+00;0;  0.0000000E+00;  1.0000000E+04;  0.0000000E+00;  0.0000000E+00;  1.0000000E+04;  0.0000000E+00;  1.0000000E+04;  0.0000000E+00;  0.0000000E+00;  0.0000000E+00;  0.0000000E+00;
  2.1800001E+00;  9.9999998E-03;  1.6000000E-01;949;  0.0000000E+00;  0.0000000E+00;  0.0000000E+00;  1.0000000E+03;  4.0000001E-01;  0.0000000E+00;0;  0.0000000E+00;  0.0000000E+00;  0.0000000E+00;0;  0.0000000E+00;  1.0000000E+04;  0.0000000E+00;  0.0000000E+00;  1.0000000E+04;  0.0000000E+00;  1.0000000E+04;  0.0000000E+00;  0.0000000E+00;  0.0000000E+00;  0.0000000E+00;
  2.1800001E+00;  9.9999998E-03;  1.8000001E-01;950;  0.0000000E+00;  0.0000000E+00;  0.0000000E+00;  1.0000000E+03;  4.0000001E-01;  0.0000000E+00;0;  0.0000000E+00;  0.0000000E+00;  0.0000000E+00;0;  0.0000000E+00;  1.0000000E+04;  0.0000000E+00;  0.0000000E+00;  1.0000000E+04;  0.0000000E+00;  1.0000000E+04;  0.0000000E+00;  0.0000000E+00;  0.0000000E+00;  0.0000000E+00;
  2.1800001E+00;  9.9999998E-03;  2.0000000E-01;951;  0.0000000E+00;  0.0000000E+00;  0.0000000E+00;  1.0000000E+03;  4.0000001E-01;  0.0000000E+00;0;  0.0000000E+00;  0.0000000E+00;  0.0000000E+00;0;  0.0000000E+00;  1.0000000E+04;  0.0000000E+00;  0.0000000E+00;  1.0000000E+04;  0.0000000E+00;  1.0000000E+04;  0.0000000E+00;  0.0000000E+00;  0.0000000E+00;  0.0000000E+00;
  2.1800001E+00;  9.9999998E-03;  2.2000000E-01;952;  0.0000000E+00;  0.0000000E+00;  0.0000000E+00;  1.0000000E+03;  4.0000001E-01;  0.0000000E+00;0;  0.0000000E+00;  0.0000000E+00;  0.0000000E+00;0;  0.0000000E+00;  1.0000000E+04;  0.0000000E+00;  0.0000000E+00;  1.0000000E+04;  0.0000000E+00;  1.0000000E+04;  0.0000000E+00;  0.0000000E+00;  0.0000000E+00;  0.0000000E+00;
  2.1800001E+00;  9.9999998E-03;  2.3999999E-01;953;  0.0000000E+00;  0.0000000E+00;  0.0000000E+00;  1.0000000E+03;  4.0000001E-01;  0.0000000E+00;0;  0.0000000E+00;  0.0000000E+00;  0.0000000E+00;0;  0.0000000E+00;  1.0000000E+04;  0.0000000E+00;  0.0000000E+00;  1.0000000E+04;  0.0000000E+00;  1.0000000E+04;  0.0000000E+00;  0.0000000E+00;  0.0000000E+00;  0.0000000E+00;
  2.1800001E+00;  9.9999998E-03;  2.5999999E-01;954;  0.0000000E+00;  0.0000000E+00;  0.0000000E+00;  1.0000000E+03;  4.0000001E-01;  0.0000000E+00;0;  0.0000000E+00;  0.0000000E+00;  0.0000000E+00;0;  0.0000000E+00;  1.0000000E+04;  0.0000000E+00;  0.0000000E+00;  1.0000000E+04;  0.0000000E+00;  1.0000000E+04;  0.0000000E+00;  0.0000000E+00;  0.0000000E+00;  0.0000000E+00;
  2.1800001E+00;  9.9999998E-03;  2.8000000E-01;955;  0.0000000E+00;  0.0000000E+00;  0.0000000E+00;  1.0000000E+03;  4.0000001E-01;  0.0000000E+00;0;  0.0000000E+00;  0.0000000E+00;  0.0000000E+00;0;  0.0000000E+00;  1.0000000E+04;  0.0000000E+00;  0.0000000E+00;  1.0000000E+04;  0.0000000E+00;  1.0000000E+04;  0.0000000E+00;  0.0000000E+00;  0.0000000E+00;  0.0000000E+00;
  2.1800001E+00;  9.9999998E-03;  3.0000001E-01;956;  0.0000000E+00;  0.0000000E+00;  0.0000000E+00;  1.0000000E+03;  4.0000001E-01;  0.0000000E+00;0;  0.0000000E+00;  0.0000000E+00;  0.0000000E+00;0;  0.0000000E+00;  1.0000000E+04;  0.0000000E+00;  0.0000000E+00;  1.0000000E+04;  0.0000000E+00;  1.0000000E+04;  0.0000000E+00;  0.0000000E+00;  0.0000000E+00;  0.0000000E+00;
  2.1800001E+00;  9.9999998E-03;  3.1999999E-01;957;  0.0000000E+00;  0.0000000E+00;  0.0000000E+00;  1.0000000E+03;  4.0000001E-01;  0.0000000E+00;0;  0.0000000E+00;  0.0000000E+00;  0.0000000E+00;0;  0.0000000E+00;  1.0000000E+04;  0.0000000E+00;  0.0000000E+00;  1.0000000E+04;  0.0000000E+00;  1.0000000E+04;  0.0000000E+00;  0.0000000E+00;  0.0000000E+00;  0.0000000E+00;
  2.1800001E+00;  9.9999998E-03;  3.4000000E-01;958;  0.0000000E+00;  0.0000000E+00;  0.0000000E+00;  1.0000000E+03;  4.0000001E-01;  0.0000000E+00;0;  0.0000000E+00;  0.0000000E+00;  0.0000000E+00;0;  0.0000000E+00;  1.0000000E+04;  0.0000000E+00;  0.0000000E+00;  1.0000000E+04;  0.0000000E+00;  1.0000000E+04;  0.0000000E+00;  0.0000000E+00;  0.0000000E+00;  0.0000000E+00;
  2.1800001E+00;  9.9999998E-03;  3.6000001E-01;959;  0.0000000E+00;  0.0000000E+00;  0.0000000E+00;  1.0000000E+03;  4.0000001E-01;  0.0000000E+00;0;  0.0000000E+00;  0.0000000E+00;  0.0000000E+00;0;  0.0000000E+00;  1.0000000E+04;  0.0000000E+00;  0.0000000E+00;  1.0000000E+04;  0.0000000E+00;  1.0000000E+04;  0.0000000E+00;  0.0000000E+00;  0.0000000E+00;  0.0000000E+00;
  2.1800001E+00;  9.9999998E-03;  3.8000000E-01;960;  0.0000000E+00;  0.0000000E+00;  0.0000000E+00;  1.0000000E+03;  4.0000001E-01;  0.0000000E+00;0;  0.0000000E+00;  0.0000000E+00;  0.0000000E+00;0;  0.0000000E+00;  1.0000000E+04;  0.0000000E+00;  0.0000000E+00;  1.0000000E+04;  0.0000000E+00;  1.0000000E+04;  0.0000000E+00;  0.0000000E+00;  0.0000000E+00;  0.0000000E+00;
  2.1800001E+00;  9.9999998E-03;  4.0000001E-01;961;  0.0000000E+00;  0.0000000E+00;  0.0000000E+00;  1.0000000E+03;  4.0000001E-01;  0.0000000E+00;0;  0.0000000E+00;  0.0000000E+00;  0.0000000E+00;0;  0.0000000E+00;  1.0000000E+04;  0.0000000E+00;  0.0000000E+00;  1.0000000E+04;  0.0000000E+00;  1.0000000E+04;  0.0000000E+00;  0.0000000E+00;  0.0000000E+00;  0.0000000E+00;
  2.2000000E+00;  9.9999998E-03; -7.9999998E-02;962;  0.0000000E+00;  0.0000000E+00;  0.0000000E+00;  1.0000000E+03;  4.0000001E-01;  0.0000000E+00;0;  0.0000000E+00;  0.0000000E+00;  0.0000000E+00;0;  0.0000000E+00;  1.0000000E+04;  0.0000000E+00;  0.0000000E+00;  1.0000000E+04;  0.0000000E+00;  1.0000000E+04;  0.0000000E+00;  0.0000000E+00;  0.0000000E+00;  0.0000000E+00;
  2.2000000E+00;  9.9999998E-03; -5.9999999E-02;963;  0.0000000E+00;  0.0000000E+00;  0.0000000E+00;  1.0000000E+03;  4.0000001E-01;  0.0000000E+00;0;  0.0000000E+00;  0.0000000E+00;  0.0000000E+00;0;  0.0000000E+00;  1.0000000E+04;  0.0000000E+00;  0.0000000E+00;  1.0000000E+04;  0.0000000E+00;  1.0000000E+04;  0.0000000E+00;  0.0000000E+00;  0.0000000E+00;  0.0000000E+00;
  2.2000000E+00;  9.9999998E-03; -3.9999999E-02;964;  0.0000000E+00;  0.0000000E+00;  0.0000000E+00;  1.0000000E+03;  4.0000001E-01;  0.0000000E+00;0;  0.0000000E+00;  0.0000000E+00;  0.0000000E+00;0;  0.0000000E+00;  1.0000000E+04;  0.0000000E+00;  0.0000000E+00;  1.0000000E+04;  0.0000000E+00;  1.0000000E+04;  0.0000000E+00;  0.0000000E+00;  0.0000000E+00;  0.0000000E+00;
  2.2000000E+00;  9.9999998E-03; -2.0000000E-02;965;  0.0000000E+00;  0.0000000E+00;  0.0000000E+00;  1.0000000E+03;  4.0000001E-01;  0.0000000E+00;0;  0.0000000E+00;  0.0000000E+00;  0.0000000E+00;0;  0.0000000E+00;  1.0000000E+04;  0.0000000E+00;  0.0000000E+00;  1.0000000E+04;  0.0000000E+00;  1.0000000E+04;  0.0000000E+00;  0.0000000E+00;  0.0000000E+00;  0.0000000E+00;
  2.2000000E+00;  9.9999998E-03;  0.0000000E+00;966;  0.0000000E+00;  0.0000000E+00;  0.0000000E+00;  1.0000000E+03;  4.0000001E-01;  0.0000000E+00;0;  0.0000000E+00;  0.0000000E+00;  0.0000000E+00;0;  0.0000000E+00;  1.0000000E+04;  0.0000000E+00;  0.0000000E+00;  1.0000000E+04;  0.0000000E+00;  1.0000000E+04;  0.0000000E+00;  0.0000000E+00;  0.0000000E+00;  0.0000000E+00;
  2.2000000E+00;  9.9999998E-03;  2.0000000E-02;967;  0.0000000E+00;  0.0000000E+00;  0.0000000E+00;  1.0000000E+03;  4.0000001E-01;  0.0000000E+00;0;  0.0000000E+00;  0.0000000E+00;  0.0000000E+00;0;  0.0000000E+00;  1.0000000E+04;  0.0000000E+00;  0.0000000E+00;  1.0000000E+04;  0.0000000E+00;  1.0000000E+04;  0.0000000E+00;  0.0000000E+00;  0.0000000E+00;  0.0000000E+00;
  2.2000000E+00;  9.9999998E-03;  3.9999999E-02;968;  0.0000000E+00;  0.0000000E+00;  0.0000000E+00;  1.0000000E+03;  4.0000001E-01;  0.0000000E+00;0;  0.0000000E+00;  0.0000000E+00;  0.0000000E+00;0;  0.0000000E+00;  1.0000000E+04;  0.0000000E+00;  0.0000000E+00;  1.0000000E+04;  0.0000000E+00;  1.0000000E+04;  0.0000000E+00;  0.0000000E+00;  0.0000000E+00;  0.0000000E+00;
  2.2000000E+00;  9.9999998E-03;  5.9999999E-02;969;  0.0000000E+00;  0.0000000E+00;  0.0000000E+00;  1.0000000E+03;  4.0000001E-01;  0.0000000E+00;0;  0.0000000E+00;  0.0000000E+00;  0.0000000E+00;0;  0.0000000E+00;  1.0000000E+04;  0.0000000E+00;  0.0000000E+00;  1.0000000E+04;  0.0000000E+00;  1.0000000E+04;  0.0000000E+00;  0.0000000E+00;  0.0000000E+00;  0.0000000E+00;
  2.2000000E+00;  9.9999998E-03;  7.9999998E-02;970;  0.0000000E+00;  0.0000000E+00;  0.0000000E+00;  1.0000000E+03;  4.0000001E-01;  0.0000000E+00;0;  0.0000000E+00;  0.0000000E+00;  0.0000000E+00;0;  0.0000000E+00;  1.0000000E+04;  0.0000000E+00;  0.0000000E+00;  1.0000000E+04;  0.0000000E+00;  1.0000000E+04;  0.0000000E+00;  0.0000000E+00;  0.0000000E+00;  0.0000000E+00;
  2.2000000E+00;  9.9999998E-03;  1.0000000E-01;971;  0.0000000E+00;  0.0000000E+00;  0.0000000E+00;  1.0000000E+03;  4.0000001E-01;  0.0000000E+00;0;  0.0000000E+00;  0.0000000E+00;  0.0000000E+00;0;  0.0000000E+00;  1.0000000E+04;  0.0000000E+00;  0.0000000E+00;  1.0000000E+04;  0.0000000E+00;  1.0000000E+04;  0.0000000E+00;  0.0000000E+00;  0.0000000E+00;  0.0000000E+00;
  2.2000000E+00;  9.9999998E-03;  1.2000000E-01;972;  0.0000000E+00;  0.0000000E+00;  0.0000000E+00;  1.0000000E+03;  4.0000001E-01;  0.0000000E+00;0;  0.0000000E+00;  0.0000000E+00;  0.0000000E+00;0;  0.0000000E+00;  1.0000000E+04;  0.0000000E+00;  0.0000000E+00;  1.0000000E+04;  0.0000000E+00;  1.0000000E+04;  0.0000000E+00;  0.0000000E+00;  0.0000000E+00;  0.0000000E+00;
  2.2000000E+00;  9.9999998E-03;  1.4000000E-01;973;  0.0000000E+00;  0.0000000E+00;  0.0000000E+00;  1.0000000E+03;  4.0000001E-01;  0.0000000E+00;0;  0.0000000E+00;  0.0000000E+00;  0.0000000E+00;0;  0.0000000E+00;  1.0000000E+04;  0.0000000E+00;  0.0000000E+00;  1.0000000E+04;  0.0000000E+00;  1.0000000E+04;  0.0000000E+00;  0.0000000E+00;  0.0000000E+00;  0.0000000E+00;
  2.2000000E+00;  9.9999998E-03;  1.6000000E-01;974;  0.0000000E+00;  0.0000000E+00;  0.0000000E+00;  1.0000000E+03;  4.0000001E-01;  0.0000000E+00;0;  0.0000000E+00;  0.0000000E+00;  0.0000000E+00;0;  0.0000000E+00;  1.0000000E+04;  0.0000000E+00;  0.0000000E+00;  1.0000000E+04;  0.0000000E+00;  1.0000000E+04;  0.0000000E+00;  0.0000000E+00;  0.0000000E+00;  0.0000000E+00;
  2.2000000E+00;  9.9999998E-03;  1.8000001E-01;975;  0.0000000E+00;  0.0000000E+00;  0.0000000E+00;  1.0000000E+03;  4.0000001E-01;  0.0000000E+00;0;  0.0000000E+00;  0.0000000E+00;  0.0000000E+00;0;  0.0000000E+00;  1.0000000E+04;  0.0000000E+00;  0.0000000E+00;  1.0000000E+04;  0.0000000E+00;  1.0000000E+04;  0.0000000E+00;  0.0000000E+00;  0.0000000E+00;  0.0000000E+00;
  2.2000000E+00;  9.9999998E-03;  2.0000000E-01;976;  0.0000000E+00;  0.0000000E+00;  0.0000000E+00;  1.0000000E+03;  4.0000001E-01;  0.0000000E+00;0;  0.0000000E+00;  0.0000000E+00;  0.0000000E+00;0;  0.0000000E+00;  1.0000000E+04;  0.0000000E+00;  0.0000000E+00;  1.0000000E+04;  0.0000000E+00;  1.0000000E+04;  0.0000000E+00;  0.0000000E+00;  0.0000000E+00;  0.0000000E+00;
  2.2000000E+00;  9.9999998E-03;  2.2000000E-01;977;  0.0000000E+00;  0.0000000E+00;  0.0000000E+00;  1.0000000E+03;  4.0000001E-01;  0.0000000E+00;0;  0.0000000E+00;  0.0000000E+00;  0.0000000E+00;0;  0.0000000E+00;  1.0000000E+04;  0.0000000E+00;  0.0000000E+00;  1.0000000E+04;  0.0000000E+00;  1.0000000E+04;  0.0000000E+00;  0.0000000E+00;  0.0000000E+00;  0.0000000E+00;
  2.2000000E+00;  9.9999998E-03;  2.3999999E-01;978;  0.0000000E+00;  0.0000000E+00;  0.0000000E+00;  1.0000000E+03;  4.0000001E-01;  0.0000000E+00;0;  0.0000000E+00;  0.0000000E+00;  0.0000000E+00;0;  0.0000000E+00;  1.0000000E+04;  0.0000000E+00;  0.0000000E+00;  1.0000000E+04;  0.0000000E+00;  1.0000000E+04;  0.0000000E+00;  0.0000000E+00;  0.0000000E+00;  0.0000000E+00;
  2.2000000E+00;  9.9999998E-03;  2.5999999E-01;979;  0.0000000E+00;  0.0000000E+00;  0.0000000E+00;  1.0000000E+03;  4.0000001E-01;  0.0000000E+00;0;  0.0000000E+00;  0.0000000E+00;  0.0000000E+00;0;  0.0000000E+00;  1.0000000E+04;  0.0000000E+00;  0.0000000E+00;  1.0000000E+04;  0.0000000E+00;  1.0000000E+04;  0.0000000E+00;  0.0000000E+00;  0.0000000E+00;  0.0000000E+00;
  2.2000000E+00;  9.9999998E-03;  2.8000000E-01;980;  0.0000000E+00;  0.0000000E+00;  0.0000000E+00;  1.0000000E+03;  4.0000001E-01;  0.0000000E+00;0;  0.0000000E+00;  0.0000000E+00;  0.0000000E+00;0;  0.0000000E+00;  1.0000000E+04;  0.0000000E+00;  0.0000000E+00;  1.0000000E+04;  0.0000000E+00;  1.0000000E+04;  0.0000000E+00;  0.0000000E+00;  0.0000000E+00;  0.0000000E+00;
  2.2000000E+00;  9.9999998E-03;  3.0000001E-01;981;  0.0000000E+00;  0.0000000E+00;  0.0000000E+00;  1.0000000E+03;  4.0000001E-01;  0.0000000E+00;0;  0.0000000E+00;  0.0000000E+00;  0.0000000E+00;0;  0.0000000E+00;  1.0000000E+04;  0.0000000E+00;  0.0000000E+00;  1.0000000E+04;  0.0000000E+00;  1.0000000E+04;  0.0000000E+00;  0.0000000E+00;  0.0000000E+00;  0.0000000E+00;
  2.2000000E+00;  9.9999998E-03;  3.1999999E-01;982;  0.0000000E+00;  0.0000000E+00;  0.0000000E+00;  1.0000000E+03;  4.0000001E-01;  0.0000000E+00;0;  0.0000000E+00;  0.0000000E+00;  0.0000000E+00;0;  0.0000000E+00;  1.0000000E+04;  0.0000000E+00;  0.0000000E+00;  1.0000000E+04;  0.0000000E+00;  1.0000000E+04;  0.0000000E+00;  0.0000000E+00;  0.0000000E+00;  0.0000000E+00;
  2.2000000E+00;  9.9999998E-03;  3.4000000E-01;983;  0.0000000E+00;  0.0000000E+00;  0.0000000E+00;  1.0000000E+03;  4.0000001E-01;  0.0000000E+00;0;  0.0000000E+00;  0.0000000E+00;  0.0000000E+00;0;  0.0000000E+00;  1.0000000E+04;  0.0000000E+00;  0.0000000E+00;  1.0000000E+04;  0.0000000E+00;  1.0000000E+04;  0.0000000E+00;  0.0000000E+00;  0.0000000E+00;  0.0000000E+00;
  2.2000000E+00;  9.9999998E-03;  3.6000001E-01;984;  0.0000000E+00;  0.0000000E+00;  0.0000000E+00;  1.0000000E+03;  4.0000001E-01;  0.0000000E+00;0;  0.0000000E+00;  0.0000000E+00;  0.0000000E+00;0;  0.0000000E+00;  1.0000000E+04;  0.0000000E+00;  0.0000000E+00;  1.0000000E+04;  0.0000000E+00;  1.0000000E+04;  0.0000000E+00;  0.0000000E+00;  0.0000000E+00;  0.0000000E+00;
  2.2000000E+00;  9.9999998E-03;  3.8000000E-01;985;  0.0000000E+00;  0.0000000E+00;  0.0000000E+00;  1.0000000E+03;  4.0000001E-01;  0.0000000E+00;0;  0.0000000E+00;  0.0000000E+00;  0.0000000E+00;0;  0.0000000E+00;  1.0000000E+04;  0.0000000E+00;  0.0000000E+00;  1.0000000E+04;  0.0000000E+00;  1.0000000E+04;  0.0000000E+00;  0.0000000E+00;  0.0000000E+00;  0.0000000E+00;
  2.2200000E+00;  9.9999998E-03;  2.0000000E-02;986;  0.0000000E+00;  0.0000000E+00;  0.0000000E+00;  1.0000000E+03;  4.0000001E-01;  0.0000000E+00;0;  0.0000000E+00;  0.0000000E+00;  0.0000000E+00;0;  0.0000000E+00;  1.0000000E+04;  0.0000000E+00;  0.0000000E+00;  1.0000000E+04;  0.0000000E+00;  1.0000000E+04;  0.0000000E+00;  0.0000000E+00;  0.0000000E+00;  0.0000000E+00;
  2.2200000E+00;  9.9999998E-03;  3.9999999E-02;987;  0.0000000E+00;  0.0000000E+00;  0.0000000E+00;  1.0000000E+03;  4.0000001E-01;  0.0000000E+00;0;  0.0000000E+00;  0.0000000E+00;  0.0000000E+00;0;  0.0000000E+00;  1.0000000E+04;  0.0000000E+00;  0.0000000E+00;  1.0000000E+04;  0.0000000E+00;  1.0000000E+04;  0.0000000E+00;  0.0000000E+00;  0.0000000E+00;  0.0000000E+00;
  2.2200000E+00;  9.9999998E-03;  5.9999999E-02;988;  0.0000000E+00;  0.0000000E+00;  0.0000000E+00;  1.0000000E+03;  4.0000001E-01;  0.0000000E+00;0;  0.0000000E+00;  0.0000000E+00;  0.0000000E+00;0;  0.0000000E+00;  1.0000000E+04;  0.0000000E+00;  0.0000000E+00;  1.0000000E+04;  0.0000000E+00;  1.0000000E+04;  0.0000000E+00;  0.0000000E+00;  0.0000000E+00;  0.0000000E+00;
  2.2200000E+00;  9.9999998E-03;  7.9999998E-02;989;  0.0000000E+00;  0.0000000E+00;  0.0000000E+00;  1.0000000E+03;  4.0000001E-01;  0.0000000E+00;0;  0.0000000E+00;  0.0000000E+00;  0.0000000E+00;0;  0.0000000E+00;  1.0000000E+04;  0.0000000E+00;  0.0000000E+00;  1.0000000E+04;  0.0000000E+00;  1.0000000E+04;  0.0000000E+00;  0.0000000E+00;  0.0000000E+00;  0.0000000E+00;
  2.2200000E+00;  9.9999998E-03;  1.0000000E-01;990;  0.0000000E+00;  0.0000000E+00;  0.0000000E+00;  1.0000000E+03;  4.0000001E-01;  0.0000000E+00;0;  0.0000000E+00;  0.0000000E+00;  0.0000000E+00;0;  0.0000000E+00;  1.0000000E+04;  0.0000000E+00;  0.0000000E+00;  1.0000000E+04;  0.0000000E+00;  1.0000000E+04;  0.0000000E+00;  0.0000000E+00;  0.0000000E+00;  0.0000000E+00;
  2.2200000E+00;  9.9999998E-03;  1.2000000E-01;991;  0.0000000E+00;  0.0000000E+00;  0.0000000E+00;  1.0000000E+03;  4.0000001E-01;  0.0000000E+00;0;  0.0000000E+00;  0.0000000E+00;  0.0000000E+00;0;  0.0000000E+00;  1.0000000E+04;  0.0000000E+00;  0.0000000E+00;  1.0000000E+04;  0.0000000E+00;  1.0000000E+04;  0.0000000E+00;  0.0000000E+00;  0.0000000E+00;  0.0000000E+00;
  2.2200000E+00;  9.9999998E-03;  1.4000000E-01;992;  0.0000000E+00;  0.0000000E+00;  0.0000000E+00;  1.0000000E+03;  4.0000001E-01;  0.0000000E+00;0;  0.0000000E+00;  0.0000000E+00;  0.0000000E+00;0;  0.0000000E+00;  1.0000000E+04;  0.0000000E+00;  0.0000000E+00;  1.0000000E+04;  0.0000000E+00;  1.0000000E+04;  0.0000000E+00;  0.0000000E+00;  0.0000000E+00;  0.0000000E+00;
  2.2200000E+00;  9.9999998E-03;  1.6000000E-01;993;  0.0000000E+00;  0.0000000E+00;  0.0000000E+00;  1.0000000E+03;  4.0000001E-01;  0.0000000E+00;0;  0.0000000E+00;  0.0000000E+00;  0.0000000E+00;0;  0.0000000E+00;  1.0000000E+04;  0.0000000E+00;  0.0000000E+00;  1.0000000E+04;  0.0000000E+00;  1.0000000E+04;  0.0000000E+00;  0.0000000E+00;  0.0000000E+00;  0.0000000E+00;
  2.2200000E+00;  9.9999998E-03;  1.8000001E-01;994;  0.0000000E+00;  0.0000000E+00;  0.0000000E+00;  1.0000000E+03;  4.0000001E-01;  0.0000000E+00;0;  0.0000000E+00;  0.0000000E+00;  0.0000000E+00;0;  0.0000000E+00;  1.0000000E+04;  0.0000000E+00;  0.0000000E+00;  1.0000000E+04;  0.0000000E+00;  1.0000000E+04;  0.0000000E+00;  0.0000000E+00;  0.0000000E+00;  0.0000000E+00;
  2.2200000E+00;  9.9999998E-03;  2.0000000E-01;995;  0.0000000E+00;  0.0000000E+00;  0.0000000E+00;  1.0000000E+03;  4.0000001E-01;  0.0000000E+00;0;  0.0000000E+00;  0.0000000E+00;  0.0000000E+00;0;  0.0000000E+00;  1.0000000E+04;  0.0000000E+00;  0.0000000E+00;  1.0000000E+04;  0.0000000E+00;  1.0000000E+04;  0.0000000E+00;  0.0000000E+00;  0.0000000E+00;  0.0000000E+00;
  2.2200000E+00;  9.9999998E-03;  2.2000000E-01;996;  0.0000000E+00;  0.0000000E+00;  0.0000000E+00;  1.0000000E+03;  4.0000001E-01;  0.0000000E+00;0;  0.0000000E+00;  0.0000000E+00;  0.0000000E+00;0;  0.0000000E+00;  1.0000000E+04;  0.0000000E+00;  0.0000000E+00;  1.0000000E+04;  0.0000000E+00;  1.0000000E+04;  0.0000000E+00;  0.0000000E+00;  0.0000000E+00;  0.0000000E+00;
  2.2200000E+00;  9.9999998E-03;  2.3999999E-01;997;  0.0000000E+00;  0.0000000E+00;  0.0000000E+00;  1.0000000E+03;  4.0000001E-01;  0.0000000E+00;0;  0.0000000E+00;  0.0000000E+00;  0.0000000E+00;0;  0.0000000E+00;  1.0000000E+04;  0.0000000E+00;  0.0000000E+00;  1.0000000E+04;  0.0000000E+00;  1.0000000E+04;  0.0000000E+00;  0.0000000E+00;  0.0000000E+00;  0.0000000E+00;
  2.2200000E+00;  9.9999998E-03;  2.5999999E-01;998;  0.0000000E+00;  0.0000000E+00;  0.0000000E+00;  1.0000000E+03;  4.0000001E-01;  0.0000000E+00;0;  0.0000000E+00;  0.0000000E+00;  0.0000000E+00;0;  0.0000000E+00;  1.0000000E+04;  0.0000000E+00;  0.0000000E+00;  1.0000000E+04;  0.0000000E+00;  1.0000000E+04;  0.0000000E+00;  0.0000000E+00;  0.0000000E+00;  0.0000000E+00;
  2.2200000E+00;  9.9999998E-03;  2.8000000E-01;999;  0.0000000E+00;  0.0000000E+00;  0.0000000E+00;  1.0000000E+03;  4.0000001E-01;  0.0000000E+00;0;  0.0000000E+00;  0.0000000E+00;  0.0000000E+00;0;  0.0000000E+00;  1.0000000E+04;  0.0000000E+00;  0.0000000E+00;  1.0000000E+04;  0.0000000E+00;  1.0000000E+04;  0.0000000E+00;  0.0000000E+00;  0.0000000E+00;  0.0000000E+00;
  2.2200000E+00;  9.9999998E-03;  3.0000001E-01;1000;  0.0000000E+00;  0.0000000E+00;  0.0000000E+00;  1.0000000E+03;  4.0000001E-01;  0.0000000E+00;0;  0.0000000E+00;  0.0000000E+00;  0.0000000E+00;0;  0.0000000E+00;  1.0000000E+04;  0.0000000E+00;  0.0000000E+00;  1.0000000E+04;  0.0000000E+00;  1.0000000E+04;  0.0000000E+00;  0.0000000E+00;  0.0000000E+00;  0.0000000E+00;
  2.2200000E+00;  9.9999998E-03;  3.1999999E-01;1001;  0.0000000E+00;  0.0000000E+00;  0.0000000E+00;  1.0000000E+03;  4.0000001E-01;  0.0000000E+00;0;  0.0000000E+00;  0.0000000E+00;  0.0000000E+00;0;  0.0000000E+00;  1.0000000E+04;  0.0000000E+00;  0.0000000E+00;  1.0000000E+04;  0.0000000E+00;  1.0000000E+04;  0.0000000E+00;  0.0000000E+00;  0.0000000E+00;  0.0000000E+00;
  2.2200000E+00;  9.9999998E-03;  3.4000000E-01;1002;  0.0000000E+00;  0.0000000E+00;  0.0000000E+00;  1.0000000E+03;  4.0000001E-01;  0.0000000E+00;0;  0.0000000E+00;  0.0000000E+00;  0.0000000E+00;0;  0.0000000E+00;  1.0000000E+04;  0.0000000E+00;  0.0000000E+00;  1.0000000E+04;  0.0000000E+00;  1.0000000E+04;  0.0000000E+00;  0.0000000E+00;  0.0000000E+00;  0.0000000E+00;
  2.2200000E+00;  9.9999998E-03;  3.6000001E-01;1003;  0.0000000E+00;  0.0000000E+00;  0.0000000E+00;  1.0000000E+03;  4.0000001E-01;  0.0000000E+00;0;  0.0000000E+00;  0.0000000E+00;  0.0000000E+00;0;  0.0000000E+00;  1.0000000E+04;  0.0000000E+00;  0.0000000E+00;  1.0000000E+04;  0.0000000E+00;  1.0000000E+04;  0.0000000E+00;  0.0000000E+00;  0.0000000E+00;  0.0000000E+00;
  2.2200000E+00;  9.9999998E-03;  3.8000000E-01;1004;  0.0000000E+00;  0.0000000E+00;  0.0000000E+00;  1.0000000E+03;  4.0000001E-01;  0.0000000E+00;0;  0.0000000E+00;  0.0000000E+00;  0.0000000E+00;0;  0.0000000E+00;  1.0000000E+04;  0.0000000E+00;  0.0000000E+00;  1.0000000E+04;  0.0000000E+00;  1.0000000E+04;  0.0000000E+00;  0.0000000E+00;  0.0000000E+00;  0.0000000E+00;
  2.2400000E+00;  9.9999998E-03;  1.2000000E-01;1005;  0.0000000E+00;  0.0000000E+00;  0.0000000E+00;  1.0000000E+03;  4.0000001E-01;  0.0000000E+00;0;  0.0000000E+00;  0.0000000E+00;  0.0000000E+00;0;  0.0000000E+00;  1.0000000E+04;  0.0000000E+00;  0.0000000E+00;  1.0000000E+04;  0.0000000E+00;  1.0000000E+04;  0.0000000E+00;  0.0000000E+00;  0.0000000E+00;  0.0000000E+00;
  2.2400000E+00;  9.9999998E-03;  1.4000000E-01;1006;  0.0000000E+00;  0.0000000E+00;  0.0000000E+00;  1.0000000E+03;  4.0000001E-01;  0.0000000E+00;0;  0.0000000E+00;  0.0000000E+00;  0.0000000E+00;0;  0.0000000E+00;  1.0000000E+04;  0.0000000E+00;  0.0000000E+00;  1.0000000E+04;  0.0000000E+00;  1.0000000E+04;  0.0000000E+00;  0.0000000E+00;  0.0000000E+00;  0.0000000E+00;
  2.2400000E+00;  9.9999998E-03;  1.6000000E-01;1007;  0.0000000E+00;  0.0000000E+00;  0.0000000E+00;  1.0000000E+03;  4.0000001E-01;  0.0000000E+00;0;  0.0000000E+00;  0.0000000E+00;  0.0000000E+00;0;  0.0000000E+00;  1.0000000E+04;  0.0000000E+00;  0.0000000E+00;  1.0000000E+04;  0.0000000E+00;  1.0000000E+04;  0.0000000E+00;  0.0000000E+00;  0.0000000E+00;  0.0000000E+00;
  2.2400000E+00;  9.9999998E-03;  1.8000001E-01;1008;  0.0000000E+00;  0.0000000E+00;  0.0000000E+00;  1.0000000E+03;  4.0000001E-01;  0.0000000E+00;0;  0.0000000E+00;  0.0000000E+00;  0.0000000E+00;0;  0.0000000E+00;  1.0000000E+04;  0.0000000E+00;  0.0000000E+00;  1.0000000E+04;  0.0000000E+00;  1.0000000E+04;  0.0000000E+00;  0.0000000E+00;  0.0000000E+00;  0.0000000E+00;
  2.2400000E+00;  9.9999998E-03;  2.0000000E-01;1009;  0.0000000E+00;  0.0000000E+00;  0.0000000E+00;  1.0000000E+03;  4.0000001E-01;  0.0000000E+00;0;  0.0000000E+00;  0.0000000E+00;  0.0000000E+00;0;  0.0000000E+00;  1.0000000E+04;  0.0000000E+00;  0.0000000E+00;  1.0000000E+04;  0.0000000E+00;  1.0000000E+04;  0.0000000E+00;  0.0000000E+00;  0.0000000E+00;  0.0000000E+00;
  2.2400000E+00;  9.9999998E-03;  2.2000000E-01;1010;  0.0000000E+00;  0.0000000E+00;  0.0000000E+00;  1.0000000E+03;  4.0000001E-01;  0.0000000E+00;0;  0.0000000E+00;  0.0000000E+00;  0.0000000E+00;0;  0.0000000E+00;  1.0000000E+04;  0.0000000E+00;  0.0000000E+00;  1.0000000E+04;  0.0000000E+00;  1.0000000E+04;  0.0000000E+00;  0.0000000E+00;  0.0000000E+00;  0.0000000E+00;
  2.2400000E+00;  9.9999998E-03;  2.3999999E-01;1011;  0.0000000E+00;  0.0000000E+00;  0.0000000E+00;  1.0000000E+03;  4.0000001E-01;  0.0000000E+00;0;  0.0000000E+00;  0.0000000E+00;  0.0000000E+00;0;  0.0000000E+00;  1.0000000E+04;  0.0000000E+00;  0.0000000E+00;  1.0000000E+04;  0.0000000E+00;  1.0000000E+04;  0.0000000E+00;  0.0000000E+00;  0.0000000E+00;  0.0000000E+00;
  2.2400000E+00;  9.9999998E-03;  2.5999999E-01;1012;  0.0000000E+00;  0.0000000E+00;  0.0000000E+00;  1.0000000E+03;  4.0000001E-01;  0.0000000E+00;0;  0.0000000E+00;  0.0000000E+00;  0.0000000E+00;0;  0.0000000E+00;  1.0000000E+04;  0.0000000E+00;  0.0000000E+00;  1.0000000E+04;  0.0000000E+00;  1.0000000E+04;  0.0000000E+00;  0.0000000E+00;  0.0000000E+00;  0.0000000E+00;
  2.2400000E+00;  9.9999998E-03;  2.8000000E-01;1013;  0.0000000E+00;  0.0000000E+00;  0.0000000E+00;  1.0000000E+03;  4.0000001E-01;  0.0000000E+00;0;  0.0000000E+00;  0.0000000E+00;  0.0000000E+00;0;  0.0000000E+00;  1.0000000E+04;  0.0000000E+00;  0.0000000E+00;  1.0000000E+04;  0.0000000E+00;  1.0000000E+04;  0.0000000E+00;  0.0000000E+00;  0.0000000E+00;  0.0000000E+00;
  2.2400000E+00;  9.9999998E-03;  3.0000001E-01;1014;  0.0000000E+00;  0.0000000E+00;  0.0000000E+00;  1.0000000E+03;  4.0000001E-01;  0.0000000E+00;0;  0.0000000E+00;  0.0000000E+00;  0.0000000E+00;0;  0.0000000E+00;  1.0000000E+04;  0.0000000E+00;  0.0000000E+00;  1.0000000E+04;  0.0000000E+00;  1.0000000E+04;  0.0000000E+00;  0.0000000E+00;  0.0000000E+00;  0.0000000E+00;
  2.2400000E+00;  9.9999998E-03;  3.1999999E-01;1015;  0.0000000E+00;  0.0000000E+00;  0.0000000E+00;  1.0000000E+03;  4.0000001E-01;  0.0000000E+00;0;  0.0000000E+00;  0.0000000E+00;  0.0000000E+00;0;  0.0000000E+00;  1.0000000E+04;  0.0000000E+00;  0.0000000E+00;  1.0000000E+04;  0.0000000E+00;  1.0000000E+04;  0.0000000E+00;  0.0000000E+00;  0.0000000E+00;  0.0000000E+00;
  2.2400000E+00;  9.9999998E-03;  3.4000000E-01;1016;  0.0000000E+00;  0.0000000E+00;  0.0000000E+00;  1.0000000E+03;  4.0000001E-01;  0.0000000E+00;0;  0.0000000E+00;  0.0000000E+00;  0.0000000E+00;0;  0.0000000E+00;  1.0000000E+04;  0.0000000E+00;  0.0000000E+00;  1.0000000E+04;  0.0000000E+00;  1.0000000E+04;  0.0000000E+00;  0.0000000E+00;  0.0000000E+00;  0.0000000E+00;
  2.2400000E+00;  9.9999998E-03;  3.6000001E-01;1017;  0.0000000E+00;  0.0000000E+00;  0.0000000E+00;  1.0000000E+03;  4.0000001E-01;  0.0000000E+00;0;  0.0000000E+00;  0.0000000E+00;  0.0000000E+00;0;  0.0000000E+00;  1.0000000E+04;  0.0000000E+00;  0.0000000E+00;  1.0000000E+04;  0.0000000E+00;  1.0000000E+04;  0.0000000E+00;  0.0000000E+00;  0.0000000E+00;  0.0000000E+00;
  2.2400000E+00;  9.9999998E-03;  3.8000000E-01;1018;  0.0000000E+00;  0.0000000E+00;  0.0000000E+00;  1.0000000E+03;  4.0000001E-01;  0.0000000E+00;0;  0.0000000E+00;  0.0000000E+00;  0.0000000E+00;0;  0.0000000E+00;  1.0000000E+04;  0.0000000E+00;  0.0000000E+00;  1.0000000E+04;  0.0000000E+00;  1.0000000E+04;  0.0000000E+00;  0.0000000E+00;  0.0000000E+00;  0.0000000E+00;
  2.2600000E+00;  9.9999998E-03;  2.2000000E-01;1019;  0.0000000E+00;  0.0000000E+00;  0.0000000E+00;  1.0000000E+03;  4.0000001E-01;  0.0000000E+00;0;  0.0000000E+00;  0.0000000E+00;  0.0000000E+00;0;  0.0000000E+00;  1.0000000E+04;  0.0000000E+00;  0.0000000E+00;  1.0000000E+04;  0.0000000E+00;  1.0000000E+04;  0.0000000E+00;  0.0000000E+00;  0.0000000E+00;  0.0000000E+00;
  2.2600000E+00;  9.9999998E-03;  2.3999999E-01;1020;  0.0000000E+00;  0.0000000E+00;  0.0000000E+00;  1.0000000E+03;  4.0000001E-01;  0.0000000E+00;0;  0.0000000E+00;  0.0000000E+00;  0.0000000E+00;0;  0.0000000E+00;  1.0000000E+04;  0.0000000E+00;  0.0000000E+00;  1.0000000E+04;  0.0000000E+00;  1.0000000E+04;  0.0000000E+00;  0.0000000E+00;  0.0000000E+00;  0.0000000E+00;
  2.2600000E+00;  9.9999998E-03;  2.5999999E-01;1021;  0.0000000E+00;  0.0000000E+00;  0.0000000E+00;  1.0000000E+03;  4.0000001E-01;  0.0000000E+00;0;  0.0000000E+00;  0.0000000E+00;  0.0000000E+00;0;  0.0000000E+00;  1.0000000E+04;  0.0000000E+00;  0.0000000E+00;  1.0000000E+04;  0.0000000E+00;  1.0000000E+04;  0.0000000E+00;  0.0000000E+00;  0.0000000E+00;  0.0000000E+00;
  2.2600000E+00;  9.9999998E-03;  2.8000000E-01;1022;  0.0000000E+00;  0.0000000E+00;  0.0000000E+00;  1.0000000E+03;  4.0000001E-01;  0.0000000E+00;0;  0.0000000E+00;  0.0000000E+00;  0.0000000E+00;0;  0.0000000E+00;  1.0000000E+04;  0.0000000E+00;  0.0000000E+00;  1.0000000E+04;  0.0000000E+00;  1.0000000E+04;  0.0000000E+00;  0.0000000E+00;  0.0000000E+00;  0.0000000E+00;
  2.2600000E+00;  9.9999998E-03;  3.0000001E-01;1023;  0.0000000E+00;  0.0000000E+00;  0.0000000E+00;  1.0000000E+03;  4.0000001E-01;  0.0000000E+00;0;  0.0000000E+00;  0.0000000E+00;  0.0000000E+00;0;  0.0000000E+00;  1.0000000E+04;  0.0000000E+00;  0.0000000E+00;  1.0000000E+04;  0.0000000E+00;  1.0000000E+04;  0.0000000E+00;  0.0000000E+00;  0.0000000E+00;  0.0000000E+00;
  2.2600000E+00;  9.9999998E-03;  3.1999999E-01;1024;  0.0000000E+00;  0.0000000E+00;  0.0000000E+00;  1.0000000E+03;  4.0000001E-01;  0.0000000E+00;0;  0.0000000E+00;  0.0000000E+00;  0.0000000E+00;0;  0.0000000E+00;  1.0000000E+04;  0.0000000E+00;  0.0000000E+00;  1.0000000E+04;  0.0000000E+00;  1.0000000E+04;  0.0000000E+00;  0.0000000E+00;  0.0000000E+00;  0.0000000E+00;
  2.2600000E+00;  9.9999998E-03;  3.4000000E-01;1025;  0.0000000E+00;  0.0000000E+00;  0.0000000E+00;  1.0000000E+03;  4.0000001E-01;  0.0000000E+00;0;  0.0000000E+00;  0.0000000E+00;  0.0000000E+00;0;  0.0000000E+00;  1.0000000E+04;  0.0000000E+00;  0.0000000E+00;  1.0000000E+04;  0.0000000E+00;  1.0000000E+04;  0.0000000E+00;  0.0000000E+00;  0.0000000E+00;  0.0000000E+00;
  2.2600000E+00;  9.9999998E-03;  3.6000001E-01;1026;  0.0000000E+00;  0.0000000E+00;  0.0000000E+00;  1.0000000E+03;  4.0000001E-01;  0.0000000E+00;0;  0.0000000E+00;  0.0000000E+00;  0.0000000E+00;0;  0.0000000E+00;  1.0000000E+04;  0.0000000E+00;  0.0000000E+00;  1.0000000E+04;  0.0000000E+00;  1.0000000E+04;  0.0000000E+00;  0.0000000E+00;  0.0000000E+00;  0.0000000E+00;
  2.2600000E+00;  9.9999998E-03;  3.8000000E-01;1027;  0.0000000E+00;  0.0000000E+00;  0.0000000E+00;  1.0000000E+03;  4.0000001E-01;  0.0000000E+00;0;  0.0000000E+00;  0.0000000E+00;  0.0000000E+00;0;  0.0000000E+00;  1.0000000E+04;  0.0000000E+00;  0.0000000E+00;  1.0000000E+04;  0.0000000E+00;  1.0000000E+04;  0.0000000E+00;  0.0000000E+00;  0.0000000E+00;  0.0000000E+00;
  2.2800000E+00;  9.9999998E-03;  3.1999999E-01;1028;  0.0000000E+00;  0.0000000E+00;  0.0000000E+00;  1.0000000E+03;  4.0000001E-01;  0.0000000E+00;0;  0.0000000E+00;  0.0000000E+00;  0.0000000E+00;0;  0.0000000E+00;  1.0000000E+04;  0.0000000E+00;  0.0000000E+00;  1.0000000E+04;  0.0000000E+00;  1.0000000E+04;  0.0000000E+00;  0.0000000E+00;  0.0000000E+00;  0.0000000E+00;
  2.2800000E+00;  9.9999998E-03;  3.4000000E-01;1029;  0.0000000E+00;  0.0000000E+00;  0.0000000E+00;  1.0000000E+03;  4.0000001E-01;  0.0000000E+00;0;  0.0000000E+00;  0.0000000E+00;  0.0000000E+00;0;  0.0000000E+00;  1.0000000E+04;  0.0000000E+00;  0.0000000E+00;  1.0000000E+04;  0.0000000E+00;  1.0000000E+04;  0.0000000E+00;  0.0000000E+00;  0.0000000E+00;  0.0000000E+00;
  2.2800000E+00;  9.9999998E-03;  3.6000001E-01;1030;  0.0000000E+00;  0.0000000E+00;  0.0000000E+00;  1.0000000E+03;  4.0000001E-01;  0.0000000E+00;0;  0.0000000E+00;  0.0000000E+00;  0.0000000E+00;0;  0.0000000E+00;  1.0000000E+04;  0.0000000E+00;  0.0000000E+00;  1.0000000E+04;  0.0000000E+00;  1.0000000E+04;  0.0000000E+00;  0.0000000E+00;  0.0000000E+00;  0.0000000E+00;
 -9.7374331E-10;  9.9999998E-03; -2.8000000E-01;1031; -3.2944913E-06;  0.0000000E+00; -1.2054463E-06;  1.0000000E+03;  4.0000001E-01;  0.0000000E+00;3; -7.5845961E-03;  0.0000000E+00; -2.8034835E-03;0; -6.8557943E-05;  1.0000000E+04;  0.0000000E+00;  4.9546305E-13;  1.0000000E+04;  0.0000000E+00;  1.0000000E+04; -6.3385931E-05;  0.0000000E+00; -5.1720158E-06;  1.0879130E-02;
 -1.1822030E-09;  9.9999998E-03; -2.5999999E-01;1032; -3.9914253E-06;  0.0000000E+00; -1.1609983E-06;  1.0000000E+03;  4.0000001E-01;  0.0000000E+00;3; -9.1088936E-03;  0.0000000E+00; -2.6877956E-03;0; -8.1977902E-05;  1.0000000E+04;  0.0000000E+00;  1.1869635E-12;  1.0000000E+04;  0.0000000E+00;  1.0000000E+04; -7.9566686E-05;  0.0000000E+00; -2.4112194E-06;  3.8400511E-03;
 -1.3593044E-09;  9.9999998E-03; -2.3999999E-01;1033; -4.5828147E-06;  0.0000000E+00; -1.0730472E-06;  1.0000000E+03;  4.0000001E-01;  0.0000000E+00;3; -1.0396493E-02;  0.0000000E+00; -2.4727527E-03;0; -9.3308699E-05;  1.0000001E+04;  0.0000000E+00; -3.8785663E-13;  1.0000000E+04;  0.0000000E+00;  1.0000000E+04; -9.3593830E-05;  0.0000000E+00;  2.8512727E-07;  2.9445966E-03;
 -1.5051894E-09;  9.9999998E-03; -2.2000000E-01;1034; -5.0666272E-06;  0.0000000E+00; -9.6567442E-07;  1.0000000E+03;  4.0000001E-01;  0.0000000E+00;3; -1.1447879E-02;  0.0000000E+00; -2.2183135E-03;0; -1.0265318E-04;  1.0000001E+04;  0.0000000E+00;  7.6877948E-12;  1.0000000E+04;  0.0000000E+00;  1.0000000E+04; -1.0495102E-04;  0.0000000E+00;  2.2978311E-06;  7.9917172E-03;
 -1.6247842E-09;  9.9999998E-03; -2.0000000E-01;1035; -5.4601887E-06;  0.0000000E+00; -8.4449061E-07;  1.0000000E+03;  4.0000001E-01;  0.0000000E+00;3; -1.2304686E-02;  0.0000000E+00; -1.9367934E-03;0; -1.1034824E-04;  1.0000001E+04;  0.0000000E+00; -4.0037292E-12;  1.0000000E+04;  0.0000000E+00;  1.0000000E+04; -1.1379120E-04;  0.0000000E+00;  3.4429636E-06;  1.0887956E-02;
  2.0000000E-02;  9.9999998E-03; -3.0000001E-01;1060; -3.7249231E-06;  0.0000000E+00; -1.7889686E-06;  1.0000000E+03;  4.0000001E-01;  0.0000000E+00;3; -8.4373243E-03;  0.0000000E+00; -4.0858304E-03;0; -7.7219665E-05;  1.0000000E+04;  0.0000000E+00;  3.3884408E-12;  1.0000000E+04;  0.0000000E+00;  1.0000000E+04; -6.6286950E-05;  0.0000000E+00; -1.0932713E-05;  2.5613662E-02;
  1.9999998E-02;  9.9999998E-03; -2.8000000E-01;1061; -5.0452886E-06;  0.0000000E+00; -1.7486561E-06;  1.0000000E+03;  4.0000001E-01;  0.0000000E+00;3; -1.1301750E-02;  0.0000000E+00; -3.9413152E-03;0; -9.7682925E-05;  1.0000000E+04;  0.0000000E+00;  3.1876377E-12;  1.0000000E+04;  0.0000000E+00;  1.0000000E+04; -8.9904846E-05;  0.0000000E+00; -7.7780805E-06;  1.7029725E-02;
  1.9999998E-02;  9.9999998E-03; -2.5999999E-01;1062; -6.1827541E-06;  0.0000000E+00; -1.7056462E-06;  1.0000001E+03;  4.0000001E-01;  9.8762624E-02;3; -1.3718193E-02;  0.0000000E+00; -3.8278447E-03;0; -1.1579686E-04;  1.0000001E+04;  0.0000000E+00; -2.6911039E-12;  1.0000000E+04;  0.0000000E+00;  1.0000000E+04; -1.1232615E-04;  0.0000000E+00; -3.4707095E-06;  5.7231700E-03;
  1.9999998E-02;  9.9999998E-03; -2.3999999E-01;1063; -7.1154618E-06;  0.0000000E+00; -1.5958893E-06;  1.0000001E+03;  4.0000001E-01;  9.8762624E-02;3; -1.5681688E-02;  0.0000000E+00; -3.5665086E-03;0; -1.3094019E-04;  1.0000001E+04;  0.0000000E+00; -8.6621492E-13;  1.0000000E+04;  0.0000000E+00;  1.0000000E+04; -1.3159830E-04;  0.0000000E+00;  6.5811014E-07;  4.9894867E-03;
  1.9999998E-02;  9.9999998E-03; -2.2000000E-01;1064; -7.8617313E-06;  0.0000000E+00; -1.4474890E-06;  1.0000001E+03;  4.0000001E-01;  9.8762624E-02;3; -1.7247546E-02;  0.0000000E+00; -3.2269815E-03;0; -1.4333293E-04;  1.0000001E+04;  0.0000000E+00;  9.7234139E-12;  1.0000000E+04;  0.0000000E+00;  1.0000000E+04; -1.4703721E-04;  0.0000000E+00;  3.7042732E-06;  1.2856908E-02;
  1.9999998E-02;  9.9999998E-03; -2.0000000E-01;1065; -8.4587982E-06;  0.0000000E+00; -1.2678496E-06;  1.0000001E+03;  4.0000001E-01;  9.8762624E-02;3; -1.8503154E-02;  0.0000000E+00; -2.8217591E-03;0; -1.5349446E-04;  1.0000001E+04;  0.0000000E+00;  2.7497564E-12;  1.0000000E+04;  0.0000000E+00;  1.0000000E+04; -1.5890917E-04;  0.0000000E+00;  5.4147131E-06;  1.7291818E-02;
  3.9999999E-02;  9.9999998E-03; -3.0000001E-01;1091; -5.6977551E-06;  0.0000000E+00; -2.4691690E-06;  1.0000000E+03;  4.0000001E-01;  0.0000000E+00;3; -1.2608686E-02;  0.0000000E+00; -5.4492638E-03;0; -1.0858349E-04;  1.0000001E+04;  0.0000000E+00;  1.4242558E-11;  1.0000000E+04;  0.0000000E+00;  1.0000000E+04; -9.2551192E-05;  0.0000000E+00; -1.6032294E-05;  3.9120592E-02;
  3.9999999E-02;  9.9999998E-03; -2.8000000E-01;1092; -7.6859496E-06;  0.0000000E+00; -2.4714493E-06;  1.0000001E+03;  4.0000001E-01;  9.8762624E-02;3; -1.6782392E-02;  0.0000000E+00; -5.3836629E-03;0; -1.3638732E-04;  1.0000001E+04;  0.0000000E+00;  4.0090990E-12;  1.0000000E+04;  0.0000000E+00;  1.0000000E+04; -1.2521350E-04;  0.0000000E+00; -1.1173815E-05;  2.5516132E-02;
  3.9999995E-02;  9.9999998E-03; -2.5999999E-01;1093; -9.3916688E-06;  0.0000000E+00; -2.3946254E-06;  1.0000001E+03;  4.0000001E-01;  9.8762624E-02;3; -2.0281568E-02;  0.0000000E+00; -5.1868353E-03;0; -1.6073784E-04;  1.0000001E+04;  0.0000000E+00; -1.3741381E-12;  1.0000000E+04;  0.0000000E+00;  1.0000000E+04; -1.5595855E-04;  0.0000000E+00; -4.7792882E-06;  8.1129996E-03;
  3.9999995E-02;  9.9999998E-03; -2.3999999E-01;1094; -1.0792550E-05;  0.0000000E+00; -2.2351687E-06;  1.0000001E+03;  4.0000001E-01;  9.8762624E-02;3; -2.3130827E-02;  0.0000000E+00; -4.8201783E-03;0; -1.8081850E-04;  1.0000001E+04;  0.0000000E+00;  1.1033196E-11;  1.0000000E+04;  0.0000000E+00;  1.0000000E+04; -1.8207506E-04;  0.0000000E+00;  1.2565574E-06;  8.1434902E-03;
  3.9999995E-02;  9.9999998E-03; -2.2000000E-01;1095; -1.1901211E-05;  0.0000000E+00; -2.0285459E-06;  1.0000001E+03;  4.0000001E-01;  9.8762624E-02;3; -2.5379673E-02;  0.0000000E+00; -4.3654339E-03;0; -1.9705007E-04;  1.0000002E+04;  0.0000000E+00;  1.3602882E-11;  1.0000000E+04;  0.0000000E+00;  1.0000000E+04; -2.0270697E-04;  0.0000000E+00;  5.6568997E-06;  1.9929040E-02;
  3.9999995E-02;  9.9999998E-03; -2.0000000E-01;1096; -1.2775588E-05;  0.0000000E+00; -1.7785584E-06;  1.0000001E+03;  4.0000001E-01;  9.8762624E-02;3; -2.7158154E-02;  0.0000000E+00; -3.8221385E-03;0; -2.1024249E-04;  1.0000002E+04;  0.0000000E+00;  9.6206402E-12;  1.0000000E+04;  0.0000000E+00;  1.0000000E+04; -2.1833045E-04;  0.0000000E+00;  8.0879581E-06;  2.6439194E-02;
  5.9999999E-02;  9.9999998E-03; -3.0000001E-01;1122; -8.4931107E-06;  0.0000000E+00; -3.4042810E-06;  1.0000001E+03;  4.0000001E-01;  9.8762624E-02;3; -1.8364504E-02;  0.0000000E+00; -7.2625279E-03;0; -1.5180648E-04;  1.0000001E+04;  0.0000000E+00; -8.0917495E-09;  1.0000000E+04;  0.0000000E+00;  1.0000000E+04; -1.2903713E-04;  0.0000000E+00; -2.2769356E-05;  5.7991479E-02;
  5.9999995E-02;  9.9999998E-03; -2.8000000E-01;1123; -1.1422679E-05;  0.0000000E+00; -3.4137367E-06;  1.0000001E+03;  4.0000001E-01;  9.8762624E-02;3; -2.4331141E-02;  0.0000000E+00; -7.1757333E-03;0; -1.8975261E-04;  1.0000001E+04;  0.0000000E+00; -2.1647029E-09;  1.0000000E+04;  0.0000000E+00;  1.0000000E+04; -1.7412067E-04;  0.0000000E+00; -1.5631942E-05;  3.7256207E-02;
  5.9999995E-02;  9.9999998E-03; -2.5999999E-01;1124; -1.3896683E-05;  0.0000000E+00; -3.3070996E-06;  1.0000001E+03;  4.0000001E-01;  9.8762624E-02;3; -2.9234555E-02;  0.0000000E+00; -6.9105653E-03;0; -2.2260936E-04;  1.0000002E+04;  0.0000000E+00;  8.2174523E-13;  1.0000000E+04;  0.0000000E+00;  1.0000000E+04; -2.1619335E-04;  0.0000000E+00; -6.4160085E-06;  1.1137228E-02;
  5.9999995E-02;  9.9999998E-03; -2.3999999E-01;1125; -1.5914340E-05;  0.0000000E+00; -3.0757467E-06;  1.0000001E+03;  4.0000001E-01;  9.8762624E-02;3; -3.3198562E-02;  0.0000000E+00; -6.3969838E-03;0; -2.4931668E-04;  1.0000002E+04;  0.0000000E+00;  7.4140182E-12;  1.0000000E+04;  0.0000000E+00;  1.0000000E+04; -2.5149167E-04;  0.0000000E+00;  2.1749929E-06;  1.2979562E-02;
  5.9999995E-02;  9.9999998E-03; -2.2000000E-01;1126; -1.7494451E-05;  0.0000000E+00; -2.7853978E-06;  1.0000001E+03;  4.0000001E-01;  9.8762624E-02;3; -3.6296014E-02;  0.0000000E+00; -5.7823448E-03;0; -2.7059109E-04;  1.0000003E+04;  0.0000000E+00;  6.9952876E-12;  1.0000000E+04;  0.0000000E+00;  1.0000000E+04; -2.7895207E-04;  0.0000000E+00;  8.3609866E-06;  3.0236755E-02;
  5.9999995E-02;  9.9999998E-03; -2.0000000E-01;1127; -1.8726163E-05;  0.0000000E+00; -2.4375884E-06;  1.0000001E+03;  4.0000001E-01;  9.8762624E-02;3; -3.8718756E-02;  0.0000000E+00; -5.0535868E-03;0; -2.8767908E-04;  1.0000003E+04;  0.0000000E+00;  3.0631608E-12;  1.0000000E+04;  0.0000000E+00;  1.0000000E+04; -2.9939416E-04;  0.0000000E+00;  1.1715078E-05;  3.9560985E-02;
  7.9999998E-02;  9.9999998E-03; -3.0000001E-01;1153; -1.2409296E-05;  0.0000000E+00; -4.7074186E-06;  1.0000001E+03;  4.0000001E-01;  9.8762624E-02;3; -2.6227606E-02;  0.0000000E+00; -9.7254794E-03;0; -2.1329135E-04;  1.0000001E+04;  0.0000000E+00; -1.0130052E-06;  1.0000000E+04;  0.0000000E+00;  1.0000000E+04; -1.8151397E-04;  0.0000000E+00; -3.1777374E-05;  8.4591031E-02;
  7.9999998E-02;  9.9999998E-03; -2.8000000E-01;1154; -1.6631795E-05;  0.0000000E+00; -4.6856389E-06;  1.0000001E+03;  4.0000001E-01;  9.8762624E-02;3; -3.4584150E-02;  0.0000000E+00; -9.5153013E-03;0; -2.6496398E-04;  1.0000002E+04;  0.0000000E+00; -5.8625341E-07;  1.0000000E+04;  0.0000000E+00;  1.0000000E+04; -2.4344449E-04;  0.0000000E+00; -2.1519489E-05;  5.3528629E-02;
  7.9999991E-02;  9.9999998E-03; -2.5999999E-01;1155; -2.0146059E-05;  0.0000000E+00; -4.5172510E-06;  1.0000001E+03;  4.0000001E-01;  9.8762624E-02;3; -4.1327011E-02;  0.0000000E+00; -9.1081196E-03;0; -3.0911807E-04;  1.0000003E+04;  0.0000000E+00; -2.1332292E-07;  1.0000000E+04;  0.0000000E+00;  1.0000000E+04; -3.0066460E-04;  0.0000000E+00; -8.4534822E-06;  1.4870120E-02;
  7.9999991E-02;  9.9999998E-03; -2.3999999E-01;1156; -2.2974536E-05;  0.0000000E+00; -4.1853305E-06;  1.0000001E+03;  4.0000001E-01;  9.8762624E-02;3; -4.6696968E-02;  0.0000000E+00; -8.3968192E-03;0; -3.4457407E-04;  1.0000003E+04;  0.0000000E+00; -2.4637490E-08;  1.0000000E+04;  0.0000000E+00;  1.0000000E+04; -3.4816228E-04;  0.0000000E+00;  3.5882158E-06;  2.0441322E-02;
  7.9999991E-02;  9.9999998E-03; -2.2000000E-01;1157; -2.5160061E-05;  0.0000000E+00; -3.7826567E-06;  1.0000002E+03;  4.0000001E-01;  1.9752525E-01;3; -5.0835185E-02;  0.0000000E+00; -7.5777834E-03;0; -3.7248083E-04;  1.0000003E+04;  0.0000000E+00;  5.9350268E-12;  1.0000000E+04;  0.0000000E+00;  1.0000000E+04; -3.8463049E-04;  0.0000000E+00;  1.2149661E-05;  4.5362331E-02;
  7.9999991E-02;  9.9999998E-03; -2.0000000E-01;1158; -2.6842645E-05;  0.0000000E+00; -3.3035135E-06;  1.0000002E+03;  4.0000001E-01;  1.9752525E-01;3; -5.4032411E-02;  0.0000000E+00; -6.6102864E-03;0; -3.9460475E-04;  1.0000003E+04;  0.0000000E+00;  7.6389728E-12;  1.0000000E+04;  0.0000000E+00;  1.0000000E+04; -4.1130476E-04;  0.0000000E+00;  1.6700018E-05;  5.8521807E-02;
  9.9999994E-02;  9.9999998E-03; -3.0000001E-01;1184; -1.7914079E-05;  0.0000000E+00; -6.5241129E-06;  1.0000001E+03;  4.0000001E-01;  9.8762624E-02;3; -3.7021305E-02;  0.0000000E+00; -1.3087071E-02;0; -3.0505002E-04;  1.0000002E+04;  0.0000000E+00; -1.0595325E-05;  1.0000000E+04;  0.0000000E+00;  1.0000000E+04; -2.6110446E-04;  0.0000000E+00; -4.3945554E-05;  1.2773883E-01;
  9.9999994E-02;  9.9999998E-03; -2.8000000E-01;1185; -2.3897559E-05;  0.0000000E+00; -6.4074425E-06;  1.0000002E+03;  4.0000001E-01;  1.9752525E-01;3; -4.8542641E-02;  0.0000000E+00; -1.2579849E-02;0; -3.7411440E-04;  1.0000003E+04;  0.0000000E+00; -6.9546636E-06;  1.0000000E+04;  0.0000000E+00;  1.0000000E+04; -3.4485507E-04;  0.0000000E+00; -2.9259323E-05;  7.9701900E-02;
  9.9999994E-02;  9.9999998E-03; -2.5999999E-01;1186; -2.8799470E-05;  0.0000000E+00; -6.1273208E-06;  1.0000002E+03;  4.0000001E-01;  1.9752525E-01;3; -5.7652585E-02;  0.0000000E+00; -1.1926107E-02;0; -4.3173652E-04;  1.0000004E+04;  0.0000000E+00; -3.3827102E-06;  1.0000000E+04;  0.0000000E+00;  1.0000000E+04; -4.2091022E-04;  0.0000000E+00; -1.0826310E-05;  2.2447230E-02;
  9.9999987E-02;  9.9999998E-03; -2.3999999E-01;1187; -3.2685537E-05;  0.0000000E+00; -5.6502199E-06;  1.0000002E+03;  4.0000001E-01;  1.9752525E-01;3; -6.4780608E-02;  0.0000000E+00; -1.0938995E-02;0; -4.7740046E-04;  1.0000005E+04;  0.0000000E+00; -1.0050371E-06;  1.0000000E+04;  0.0000000E+00;  1.0000000E+04; -4.8331544E-04;  0.0000000E+00;  5.9149879E-06;  3.2621086E-02;
  9.9999987E-02;  9.9999998E-03; -2.2000000E-01;1188; -3.5643832E-05;  0.0000000E+00; -5.0957979E-06;  1.0000002E+03;  4.0000001E-01;  1.9752525E-01;3; -7.0185468E-02;  0.0000000E+00; -9.8546073E-03;0; -5.1328423E-04;  1.0000005E+04;  0.0000000E+00; -1.2416075E-07;  1.0000000E+04;  0.0000000E+00;  1.0000000E+04; -5.3090398E-04;  0.0000000E+00;  1.7619721E-05;  6.7944705E-02;
  9.9999987E-02;  9.9999998E-03; -2.0000000E-01;1189; -3.7890091E-05;  0.0000000E+00; -4.4446524E-06;  1.0000002E+03;  4.0000001E-01;  1.9752525E-01;3; -7.4300319E-02;  0.0000000E+00; -8.5878028E-03;0; -5.4173107E-04;  1.0000006E+04;  0.0000000E+00; -2.5167702E-12;  1.0000000E+04;  0.0000000E+00;  1.0000000E+04; -5.6542293E-04;  0.0000000E+00;  2.3691829E-05;  8.6197853E-02;
  1.1999999E-01;  9.9999998E-03; -3.0000001E-01;1215; -2.5713063E-05;  0.0000000E+00; -9.0513613E-06;  1.0000002E+03;  4.0000001E-01;  1.9752525E-01;3; -5.1985297E-02;  0.0000000E+00; -1.7636146E-02;0; -4.4870589E-04;  1.0000003E+04;  0.0000000E+00; -5.2970681E-05;  1.0000000E+04;  0.0000000E+00;  1.0000000E+04; -3.8824827E-04;  0.0000000E+00; -6.0457627E-05;  2.6083758E-01;
  1.1999999E-01;  9.9999998E-03; -2.8000000E-01;1216; -3.4052355E-05;  0.0000000E+00; -8.7666076E-06;  1.0000002E+03;  4.0000001E-01;  1.9752525E-01;3; -6.7586109E-02;  0.0000000E+00; -1.6654922E-02;0; -5.3779525E-04;  1.0000005E+04;  0.0000000E+00; -3.7674905E-05;  1.0000000E+04;  0.0000000E+00;  1.0000000E+04; -4.9863412E-04;  0.0000000E+00; -3.9161136E-05;  1.7359783E-01;
  1.1999998E-01;  9.9999998E-03; -2.5999999E-01;1217; -4.0783045E-05;  0.0000000E+00; -8.2882898E-06;  1.0000003E+03;  4.0000001E-01;  2.9628786E-01;3; -7.9691179E-02;  0.0000000E+00; -1.5578945E-02;0; -6.0831936E-04;  1.0000006E+04;  0.0000000E+00; -2.0013307E-05;  1.0000000E+04;  0.0000000E+00;  1.0000000E+04; -5.9532409E-04;  0.0000000E+00; -1.2995284E-05;  7.6766692E-02;
  1.1999998E-01;  9.9999998E-03; -2.4000001E-01;1218; -4.6032146E-05;  0.0000000E+00; -7.6023507E-06;  1.0000003E+03;  4.0000001E-01;  2.9628786E-01;3; -8.8982217E-02;  0.0000000E+00; -1.4206592E-02;0; -6.6314498E-04;  1.0000007E+04;  0.0000000E+00; -7.5196326E-06;  1.0000000E+04;  0.0000000E+00;  1.0000000E+04; -6.7338051E-04;  0.0000000E+00;  1.0235509E-05;  6.0036622E-02;
  1.1999998E-01;  9.9999998E-03; -2.2000000E-01;1219; -4.9975180E-05;  0.0000000E+00; -6.8357417E-06;  1.0000004E+03;  4.0000001E-01;  2.9628786E-01;3; -9.5924065E-02;  0.0000000E+00; -1.2762620E-02;0; -7.0674735E-04;  1.0000007E+04;  0.0000000E+00; -1.6767399E-06;  1.0000000E+04;  0.0000000E+00;  1.0000000E+04; -7.3275645E-04;  0.0000000E+00;  2.6009100E-05;  1.0316579E-01;
  1.1999998E-01;  9.9999998E-03; -2.0000000E-01;1220; -5.2928855E-05;  0.0000000E+00; -5.9556351E-06;  1.0000004E+03;  4.0000001E-01;  2.9628786E-01;3; -1.0112932E-01;  0.0000000E+00; -1.1115510E-02;0; -7.4221217E-04;  1.0000007E+04;  0.0000000E+00; -1.3662176E-07;  1.0000000E+04;  0.0000000E+00;  1.0000000E+04; -7.7605166E-04;  0.0000000E+00;  3.3839500E-05;  1.2739789E-01;
  1.3999999E-01;  9.9999998E-03; -3.0000001E-01;1246; -3.6818983E-05;  0.0000000E+00; -1.2623524E-05;  1.0000004E+03;  4.0000001E-01;  2.9628786E-01;3; -7.2866097E-02;  0.0000000E+00; -2.3904260E-02;0; -6.7962019E-04;  1.0000006E+04;  0.0000000E+00; -1.8480793E-04;  1.0000000E+04;  0.0000000E+00;  1.0000000E+04; -5.9687998E-04;  0.0000000E+00; -8.2740225E-05;  7.3003739E-01;
  1.3999999E-01;  9.9999998E-03; -2.8000000E-01;1247; -4.8303064E-05;  0.0000000E+00; -1.2011331E-05;  1.0000004E+03;  4.0000001E-01;  2.9628786E-01;3; -9.3715951E-02;  0.0000000E+00; -2.2096422E-02;0; -7.8732340E-04;  1.0000007E+04;  0.0000000E+00; -1.3526088E-04;  1.0000000E+04;  0.0000000E+00;  1.0000000E+04; -7.3623785E-04;  0.0000000E+00; -5.1085539E-05;  5.2384400E-01;
  1.3999999E-01;  9.9999998E-03; -2.5999999E-01;1248; -5.7389829E-05;  0.0000000E+00; -1.1218118E-05;  1.0000004E+03;  4.0000001E-01;  3.9505050E-01;3; -1.0947573E-01;  0.0000000E+00; -2.0368725E-02;0; -8.6432311E-04;  1.0000008E+04;  0.0000000E+00; -7.4579773E-05;  1.0000000E+04;  0.0000000E+00;  1.0000000E+04; -8.5097720E-04;  0.0000000E+00; -1.3345902E-05;  2.8002739E-01;
  1.3999997E-01;  9.9999998E-03; -2.4000001E-01;1249; -6.4354892E-05;  0.0000000E+00; -1.0243364E-05;  1.0000004E+03;  4.0000001E-01;  3.9505050E-01;3; -1.2130647E-01;  0.0000000E+00; -1.8492872E-02;0; -9.2247693E-04;  1.0000009E+04;  0.0000000E+00; -3.0518895E-05;  1.0000000E+04;  0.0000000E+00;  1.0000000E+04; -9.4145321E-04;  0.0000000E+00;  1.8976263E-05;  1.4714506E-01;
  1.3999997E-01;  9.9999998E-03; -2.2000000E-01;1250; -6.9536698E-05;  0.0000000E+00; -9.1806905E-06;  1.0000004E+03;  4.0000001E-01;  3.9505050E-01;3; -1.3006255E-01;  0.0000000E+00; -1.6561126E-02;0; -9.7073050E-04;  1.0000010E+04;  0.0000000E+00; -8.4414914E-06;  1.0000000E+04;  0.0000000E+00;  1.0000000E+04; -1.0105612E-03;  0.0000000E+00;  3.9830735E-05;  1.6324626E-01;
  1.3999997E-01;  9.9999998E-03; -2.0000000E-01;1251; -7.3373129E-05;  0.0000000E+00; -7.9872789E-06;  1.0000004E+03;  4.0000001E-01;  3.9505050E-01;3; -1.3654384E-01;  0.0000000E+00; -1.4411578E-02;0; -1.0126483E-03;  1.0000011E+04;  0.0000000E+00; -1.2415688E-06;  1.0000000E+04;  0.0000000E+00;  1.0000000E+04; -1.0619290E-03;  0.0000000E+00;  4.9280701E-05;  1.9066991E-01;
  1.5999998E-01;  9.9999998E-03; -3.0000001E-01;1277; -5.2731481E-05;  0.0000000E+00; -1.7569291E-05;  1.0000005E+03;  4.0000001E-01;  3.9505050E-01;3; -1.0205879E-01;  0.0000000E+00; -3.2445937E-02;0; -1.0471857E-03;  1.0000010E+04;  0.0000000E+00; -5.0935196E-04;  1.0000000E+04;  0.0000000E+00;  1.0000001E+04; -9.3480333E-04;  0.0000000E+00; -1.1238236E-04;  1.9519989E+00;
  1.5999998E-01;  9.9999998E-03; -2.8000000E-01;1278; -6.8205314E-05;  0.0000000E+00; -1.6523256E-05;  1.0000006E+03;  4.0000001E-01;  4.9381313E-01;3; -1.2932828E-01;  0.0000000E+00; -2.9478420E-02;0; -1.1623143E-03;  1.0000012E+04;  0.0000000E+00; -3.7102040E-04;  1.0000000E+04;  0.0000000E+00;  1.0000000E+04; -1.0986163E-03;  0.0000000E+00; -6.3698026E-05;  1.4165066E+00;
  1.5999997E-01;  9.9999998E-03; -2.6000002E-01;1279; -8.0289356E-05;  0.0000000E+00; -1.5251664E-05;  1.0000006E+03;  4.0000001E-01;  4.9381313E-01;3; -1.4948103E-01;  0.0000000E+00; -2.6773214E-02;0; -1.2299535E-03;  1.0000014E+04;  0.0000000E+00; -2.0531149E-04;  1.0000000E+04;  0.0000000E+00;  1.0000000E+04; -1.2218013E-03;  0.0000000E+00; -8.1522121E-06;  7.8158480E-01;
  1.5999997E-01;  9.9999998E-03; -2.4000001E-01;1280; -8.9411224E-05;  0.0000000E+00; -1.3887240E-05;  1.0000007E+03;  4.0000001E-01;  5.9257573E-01;3; -1.6430013E-01;  0.0000000E+00; -2.4235994E-02;0; -1.2796854E-03;  1.0000014E+04;  0.0000000E+00; -8.6394226E-05;  1.0000000E+04;  0.0000000E+00;  1.0000000E+04; -1.3165977E-03;  0.0000000E+00;  3.6912279E-05;  3.6991686E-01;
  1.5999997E-01;  9.9999998E-03; -2.2000000E-01;1281; -9.6142714E-05;  0.0000000E+00; -1.2405310E-05;  1.0000007E+03;  4.0000001E-01;  5.9257573E-01;3; -1.7514451E-01;  0.0000000E+00; -2.1651242E-02;0; -1.3268341E-03;  1.0000015E+04;  0.0000000E+00; -2.6201440E-05;  1.0000000E+04;  0.0000000E+00;  1.0000000E+04; -1.3904929E-03;  0.0000000E+00;  6.3658750E-05;  2.7566546E-01;
  1.5999997E-01;  9.9999998E-03; -2.0000000E-01;1282; -1.0107489E-04;  0.0000000E+00; -1.0742475E-05;  1.0000007E+03;  4.0000001E-01;  5.9257573E-01;3; -1.8308660E-01;  0.0000000E+00; -1.8761477E-02;0; -1.3737422E-03;  1.0000015E+04;  0.0000000E+00; -4.8949537E-06;  1.0000000E+04;  0.0000000E+00;  1.0000000E+04; -1.4474641E-03;  0.0000000E+00;  7.3721880E-05;  2.9090127E-01;
  1.7999998E-01;  9.9999998E-03; -3.0000001E-01;1308; -7.5599812E-05;  0.0000000E+00; -2.4274976E-05;  1.0000009E+03;  4.0000001E-01;  6.9133836E-01;3; -1.4335486E-01;  0.0000000E+00; -4.3497466E-02;0; -1.5974268E-03;  1.0000015E+04;  0.0000000E+00; -1.1451542E-03;  1.0000000E+04;  0.0000000E+00;  1.0000001E+04; -1.4475422E-03;  0.0000000E+00; -1.4988467E-04;  4.4087634E+00;
  1.7999996E-01;  9.9999998E-03; -2.8000000E-01;1309; -9.6123986E-05;  0.0000000E+00; -2.2522203E-05;  1.0000009E+03;  4.0000001E-01;  6.9133836E-01;3; -1.7796516E-01;  0.0000000E+00; -3.9048299E-02;0; -1.6973716E-03;  1.0000017E+04;  0.0000000E+00; -8.1656594E-04;  1.0000000E+04;  0.0000000E+00;  1.0000000E+04; -1.6242692E-03;  0.0000000E+00; -7.3102456E-05;  3.1464615E+00;
  1.7999996E-01;  9.9999998E-03; -2.6000002E-01;1310; -1.1176691E-04;  0.0000000E+00; -2.0777141E-05;  1.0000009E+03;  4.0000001E-01;  7.9010099E-01;3; -2.0297042E-01;  0.0000000E+00; -3.5321340E-02;0; -1.7312338E-03;  1.0000018E+04;  0.0000000E+00; -4.4447539E-04;  1.0000000E+04;  0.0000000E+00;  1.0000000E+04; -1.7413846E-03;  0.0000000E+00;  1.0150783E-05;  1.7199008E+00;
  1.7999995E-01;  9.9999998E-03; -2.4000001E-01;1311; -1.2356443E-04;  0.0000000E+00; -1.8863380E-05;  1.0000009E+03;  4.0000001E-01;  7.9010099E-01;3; -2.2121170E-01;  0.0000000E+00; -3.1903610E-02;0; -1.7582544E-03;  1.0000020E+04;  0.0000000E+00; -1.8678347E-04;  1.0000000E+04;  0.0000000E+00;  1.0000000E+04; -1.8307039E-03;  0.0000000E+00;  7.2449606E-05;  7.8798687E-01;
  1.7999995E-01;  9.9999998E-03; -2.2000001E-01;1312; -1.3219428E-04;  0.0000000E+00; -1.6804599E-05;  1.0000009E+03;  4.0000001E-01;  7.9010099E-01;3; -2.3443963E-01;  0.0000000E+00; -2.8407851E-02;0; -1.7989539E-03;  1.0000020E+04;  0.0000000E+00; -5.8552832E-05;  1.0000000E+04;  0.0000000E+00;  9.9999990E+03; -1.9038455E-03;  0.0000000E+00;  1.0489163E-04;  4.7896308E-01;
  1.7999995E-01;  9.9999998E-03; -2.0000000E-01;1313; -1.3844225E-04;  0.0000000E+00; -1.4476330E-05;  1.0000010E+03;  4.0000001E-01;  7.9010099E-01;3; -2.4395807E-01;  0.0000000E+00; -2.4513606E-02;0; -1.8505157E-03;  1.0000021E+04;  0.0000000E+00; -1.2139488E-05;  1.0000000E+04;  0.0000000E+00;  9.9999990E+03; -1.9633973E-03;  0.0000000E+00;  1.1288150E-04;  4.5149150E-01;
  1.9999996E-01;  9.9999998E-03; -3.0000001E-01;1339; -1.0826695E-04;  0.0000000E+00; -3.3383963E-05;  1.0000012E+03;  4.0000001E-01;  9.8762625E-01;3; -2.0122662E-01;  0.0000000E+00; -5.7937123E-02;0; -2.3348550E-03;  1.0000021E+04;  0.0000000E+00; -2.0769408E-03;  1.0000000E+04;  0.0000000E+00;  1.0000002E+04; -2.1425369E-03;  0.0000000E+00; -1.9231814E-04;  8.0974522E+00;
  1.9999994E-01;  9.9999998E-03; -2.8000000E-01;1340; -1.3489934E-04;  0.0000000E+00; -3.0670315E-05;  1.0000012E+03;  4.0000001E-01;  9.8762625E-01;3; -2.4399486E-01;  0.0000000E+00; -5.1545203E-02;0; -2.3987892E-03;  1.0000025E+04;  0.0000000E+00; -1.4514861E-03;  1.0000000E+04;  0.0000000E+00;  1.0000000E+04; -2.3287125E-03;  0.0000000E+00; -7.0076640E-05;  5.6721268E+00;
  1.9999994E-01;  9.9999998E-03; -2.6000002E-01;1341; -1.5483967E-04;  0.0000000E+00; -2.8248727E-05;  1.0000012E+03;  4.0000001E-01;  9.8762625E-01;3; -2.7401105E-01;  0.0000000E+00; -4.6807654E-02;0; -2.3798100E-03;  1.0000027E+04;  0.0000000E+00; -7.7204080E-04;  1.0000000E+04;  0.0000000E+00;  1.0000000E+04; -2.4345955E-03;  0.0000000E+00;  5.4785458E-05;  3.0413396E+00;
  1.9999993E-01;  9.9999998E-03; -2.4000001E-01;1342; -1.6992106E-04;  0.0000000E+00; -2.5541480E-05;  1.0000012E+03;  4.0000001E-01;  9.8762625E-01;3; -2.9615492E-01;  0.0000000E+00; -4.2043589E-02;0; -2.3772756E-03;  1.0000028E+04;  0.0000000E+00; -3.1906139E-04;  1.0000000E+04;  0.0000000E+00;  9.9999990E+03; -2.5158823E-03;  0.0000000E+00;  1.3860666E-04;  1.3799181E+00;
  1.9999993E-01;  9.9999998E-03; -2.2000001E-01;1343; -1.8080023E-04;  0.0000000E+00; -2.2746783E-05;  1.0000012E+03;  4.0000001E-01;  9.8762625E-01;3; -3.1192952E-01;  0.0000000E+00; -3.7403449E-02;0; -2.4126987E-03;  1.0000028E+04;  0.0000000E+00; -1.0008968E-04;  1.0000000E+04;  0.0000000E+00;  9.9999980E+03; -2.5868043E-03;  0.0000000E+00;  1.7410573E-04;  8.0023807E-01;
  1.9999993E-01;  9.9999998E-03; -2.0000000E-01;1344; -1.8859583E-04;  0.0000000E+00; -1.9477398E-05;  1.0000013E+03;  4.0000001E-01;  1.0863888E+00;3; -3.2313281E-01;  0.0000000E+00; -3.2024451E-02;0; -2.4728603E-03;  1.0000028E+04;  0.0000000E+00; -2.1475287E-05;  1.0000000E+04;  0.0000000E+00;  9.9999980E+03; -2.6474097E-03;  0.0000000E+00;  1.7454935E-04;  7.0379215E-01;
  2.1999994E-01;  9.9999998E-03; -3.0000001E-01;1370; -1.5273207E-04;  0.0000000E+00; -5.4049808E-05;  1.0000018E+03;  4.0000001E-01;  1.4814394E+00;3; -2.7795371E-01;  0.0000000E+00; -9.2539057E-02;0; -3.1574601E-03;  1.0000032E+04;  0.0000000E+00; -3.0270442E-03;  1.0000000E+04;  0.0000000E+00;  1.0000002E+04; -2.9769288E-03;  0.0000000E+00; -1.8053140E-04;  1.1965743E+01;
  2.1999992E-01;  9.9999998E-03; -2.8000003E-01;1371; -1.8805655E-04;  0.0000000E+00; -4.5698260E-05;  1.0000018E+03;  4.0000001E-01;  1.4814394E+00;3; -3.3223486E-01;  0.0000000E+00; -7.5141430E-02;0; -3.2285035E-03;  1.0000034E+04;  0.0000000E+00; -2.0814717E-03;  1.0000000E+04;  0.0000000E+00;  1.0000000E+04; -3.2074782E-03;  0.0000000E+00; -2.1025204E-05;  8.2621651E+00;
  2.1999991E-01;  9.9999998E-03; -2.6000002E-01;1372; -2.1340065E-04;  0.0000000E+00; -4.0156607E-05;  1.0000018E+03;  4.0000001E-01;  1.4814394E+00;3; -3.6815262E-01;  0.0000000E+00; -6.4757064E-02;0; -3.1733408E-03;  1.0000035E+04;  0.0000000E+00; -1.0814006E-03;  1.0000000E+04;  0.0000000E+00;  9.9999990E+03; -3.3236223E-03;  0.0000000E+00;  1.5028156E-04;  4.3583813E+00;
  2.1999991E-01;  9.9999998E-03; -2.4000001E-01;1373; -2.3247353E-04;  0.0000000E+00; -3.5205423E-05;  1.0000018E+03;  4.0000001E-01;  1.4814394E+00;3; -3.9439803E-01;  0.0000000E+00; -5.6380145E-02;0; -3.1557756E-03;  1.0000039E+04;  0.0000000E+00; -4.3537363E-04;  1.0000000E+04;  0.0000000E+00;  9.9999980E+03; -3.4093463E-03;  0.0000000E+00;  2.5357073E-04;  2.0185006E+00;
  2.1999989E-01;  9.9999998E-03; -2.2000001E-01;1374; -2.4598537E-04;  0.0000000E+00; -3.0861440E-05;  1.0000018E+03;  4.0000001E-01;  1.4814394E+00;3; -4.1271999E-01;  0.0000000E+00; -4.9367584E-02;0; -3.1991540E-03;  1.0000039E+04;  0.0000000E+00; -1.3363628E-04;  1.0000000E+04;  0.0000000E+00;  9.9999971E+03; -3.4835390E-03;  0.0000000E+00;  2.8438502E-04;  1.2553909E+00;
  2.1999989E-01;  9.9999998E-03; -2.0000002E-01;1375; -2.5550736E-04;  0.0000000E+00; -2.6145002E-05;  1.0000018E+03;  4.0000001E-01;  1.4814394E+00;3; -4.2544222E-01;  0.0000000E+00; -4.1834634E-02;0; -3.2780278E-03;  1.0000039E+04;  0.0000000E+00; -2.8259246E-05;  1.0000000E+04;  0.0000000E+00;  9.9999980E+03; -3.5460037E-03;  0.0000000E+00;  2.6797605E-04;  1.0857545E+00;
  2.3999991E-01;  9.9999998E-03; -3.0000004E-01;1401; -2.2047966E-04;  0.0000000E+00; -9.6623764E-05;  1.0000021E+03;  4.0000001E-01;  1.7777272E+00;3; -3.9228797E-01;  0.0000000E+00; -1.6715777E-01;0; -3.9873775E-03;  1.0000045E+04;  0.0000000E+00; -3.5381860E-03;  1.0000000E+04;  0.0000000E+00;  1.0000000E+04; -4.0015774E-03;  0.0000000E+00;  1.4199904E-05;  1.4193467E+01;
  2.3999989E-01;  9.9999998E-03; -2.8000003E-01;1402; -2.6266318E-04;  0.0000000E+00; -7.5109281E-05;  1.0000024E+03;  4.0000001E-01;  1.9752525E+00;3; -4.5293438E-01;  0.0000000E+00; -1.2344205E-01;0; -4.1510491E-03;  1.0000047E+04;  0.0000000E+00; -2.4103501E-03;  1.0000000E+04;  0.0000000E+00;  9.9999990E+03; -4.2999582E-03;  0.0000000E+00;  1.4890938E-04;  9.7456188E+00;
  2.3999988E-01;  9.9999998E-03; -2.6000002E-01;1403; -2.9344624E-04;  0.0000000E+00; -6.0380837E-05;  1.0000024E+03;  4.0000001E-01;  1.9752525E+00;3; -4.9314195E-01;  0.0000000E+00; -9.6531421E-02;0; -4.1249823E-03;  1.0000050E+04;  0.0000000E+00; -1.2211271E-03;  1.0000000E+04;  0.0000000E+00;  9.9999971E+03; -4.4579543E-03;  0.0000000E+00;  3.3297221E-04;  5.1250916E+00;
  2.3999988E-01;  9.9999998E-03; -2.4000002E-01;1404; -3.1671586E-04;  0.0000000E+00; -4.9878534E-05;  1.0000024E+03;  4.0000001E-01;  1.9752525E+00;3; -5.2280992E-01;  0.0000000E+00; -7.8481451E-02;0; -4.1292585E-03;  1.0000052E+04;  0.0000000E+00; -4.7414360E-04;  1.0000000E+04;  0.0000000E+00;  9.9999961E+03; -4.5674122E-03;  0.0000000E+00;  4.3815360E-04;  2.6027253E+00;
  2.3999986E-01;  9.9999998E-03; -2.2000001E-01;1405; -3.3296397E-04;  0.0000000E+00; -4.2225038E-05;  1.0000024E+03;  4.0000001E-01;  1.9752525E+00;3; -5.4306614E-01;  0.0000000E+00; -6.6006154E-02;0; -4.2033852E-03;  1.0000053E+04;  0.0000000E+00; -1.3924022E-04;  1.0000000E+04;  0.0000000E+00;  9.9999961E+03; -4.6526776E-03;  0.0000000E+00;  4.4929239E-04;  1.8905574E+00;
  2.3999986E-01;  9.9999998E-03; -2.0000002E-01;1406; -3.4424514E-04;  0.0000000E+00; -3.5095101E-05;  1.0000024E+03;  4.0000001E-01;  1.9752525E+00;3; -5.5680597E-01;  0.0000000E+00; -5.4822307E-02;0; -4.3149963E-03;  1.0000056E+04;  0.0000000E+00; -2.7632803E-05;  1.0000000E+04;  0.0000000E+00;  9.9999961E+03; -4.7176732E-03;  0.0000000E+00;  4.0267673E-04;  1.6432333E+00;
  2.5999987E-01;  9.9999998E-03; -3.0000007E-01;1432; -3.2014184E-04;  0.0000000E+00; -1.5526349E-04;  1.0000028E+03;  4.0000001E-01;  2.3703027E+00;3; -5.5761045E-01;  0.0000000E+00; -2.6584452E-01;0; -4.9386886E-03;  1.0000060E+04;  0.0000000E+00; -3.3451437E-03;  1.0000000E+04;  0.0000000E+00;  9.9999971E+03; -5.3613679E-03;  0.0000000E+00;  4.2267915E-04;  1.3723864E+01;
  2.5999984E-01;  9.9999998E-03; -2.8000006E-01;1433; -3.6769576E-04;  0.0000000E+00; -1.1913131E-04;  1.0000031E+03;  4.0000001E-01;  2.5678279E+00;3; -6.1886215E-01;  0.0000000E+00; -1.9431329E-01;0; -5.2365288E-03;  1.0000066E+04;  0.0000000E+00; -2.2515070E-03;  1.0000000E+04;  0.0000000E+00;  9.9999951E+03; -5.7245847E-03;  0.0000000E+00;  4.8805610E-04;  9.4242325E+00;
  2.5999984E-01;  9.9999998E-03; -2.6000005E-01;1434; -4.0293165E-04;  0.0000000E+00; -9.0666173E-05;  1.0000031E+03;  4.0000001E-01;  2.5678279E+00;3; -6.5970147E-01;  0.0000000E+00; -1.4332166E-01;0; -5.3027812E-03;  1.0000069E+04;  0.0000000E+00; -1.1041402E-03;  1.0000000E+04;  0.0000000E+00;  9.9999941E+03; -5.9354194E-03;  0.0000000E+00;  6.3263834E-04;  5.1899781E+00;
  2.5999981E-01;  9.9999998E-03; -2.4000002E-01;1435; -4.2971576E-04;  0.0000000E+00; -7.1304072E-05;  1.0000031E+03;  4.0000001E-01;  2.5678279E+00;3; -6.8998462E-01;  0.0000000E+00; -1.1051116E-01;0; -5.3657512E-03;  1.0000071E+04;  0.0000000E+00; -4.0653336E-04;  1.0000000E+04;  0.0000000E+00;  9.9999932E+03; -6.0755219E-03;  0.0000000E+00;  7.0977060E-04;  3.3088429E+00;
  2.5999981E-01;  9.9999998E-03; -2.2000003E-01;1436; -4.4836564E-04;  0.0000000E+00; -5.8144295E-05;  1.0000032E+03;  4.0000001E-01;  2.6665907E+00;3; -7.1056509E-01;  0.0000000E+00; -8.9281134E-02;0; -5.4916260E-03;  1.0000074E+04;  0.0000000E+00; -1.1065438E-04;  1.0000000E+04;  0.0000000E+00;  9.9999932E+03; -6.1720568E-03;  0.0000000E+00;  6.8043085E-04;  2.8047156E+00;
  2.5999981E-01;  9.9999998E-03; -2.0000002E-01;1437; -4.6124848E-04;  0.0000000E+00; -4.7033678E-05;  1.0000034E+03;  4.0000001E-01;  2.8641160E+00;3; -7.2443092E-01;  0.0000000E+00; -7.1866736E-02;0; -5.6482530E-03;  1.0000074E+04;  0.0000000E+00; -1.9215211E-05;  1.0000000E+04;  0.0000000E+00;  9.9999941E+03; -6.2356163E-03;  0.0000000E+00;  5.8736338E-04;  2.4295859E+00;
  2.7999979E-01;  9.9999998E-03; -3.0000010E-01;1463; -4.5771012E-04;  0.0000000E+00; -2.2778740E-04;  1.0000038E+03;  4.0000001E-01;  3.1604037E+00;3; -7.8005743E-01;  0.0000000E+00; -3.8131887E-01;0; -6.2516090E-03;  1.0000086E+04;  0.0000000E+00; -2.5543550E-03;  1.0000000E+04;  0.0000000E+00;  9.9999912E+03; -7.2518340E-03;  0.0000000E+00;  1.0002252E-03;  1.1144679E+01;
  2.7999979E-01;  9.9999998E-03; -2.8000009E-01;1464; -5.1101402E-04;  0.0000000E+00; -1.7498824E-04;  1.0000040E+03;  4.0000001E-01;  3.3579290E+00;3; -8.3890069E-01;  0.0000000E+00; -2.8147835E-01;0; -6.6658738E-03;  1.0000092E+04;  0.0000000E+00; -1.6722609E-03;  1.0000000E+04;  0.0000000E+00;  9.9999902E+03; -7.6464475E-03;  0.0000000E+00;  9.8057371E-04;  7.8958988E+00;
  2.7999976E-01;  9.9999998E-03; -2.6000005E-01;1465; -5.5021199E-04;  0.0000000E+00; -1.3081801E-04;  1.0000042E+03;  4.0000001E-01;  3.4566915E+00;3; -8.7699264E-01;  0.0000000E+00; -2.0370279E-01;0; -6.8325093E-03;  1.0000095E+04;  0.0000000E+00; -7.7921362E-04;  1.0000000E+04;  0.0000000E+00;  9.9999883E+03; -7.8884065E-03;  0.0000000E+00;  1.0558972E-03;  5.3205152E+00;
  2.7999973E-01;  9.9999998E-03; -2.4000004E-01;1466; -5.7995220E-04;  0.0000000E+00; -9.9992307E-05;  1.0000042E+03;  4.0000001E-01;  3.4566915E+00;3; -9.0518653E-01;  0.0000000E+00; -1.5274709E-01;0; -6.9663664E-03;  1.0000097E+04;  0.0000000E+00; -2.6407428E-04;  1.0000000E+04;  0.0000000E+00;  9.9999883E+03; -8.0431569E-03;  0.0000000E+00;  1.0767906E-03;  4.5346351E+00;
  2.7999973E-01;  9.9999998E-03; -2.2000003E-01;1467; -6.0051348E-04;  0.0000000E+00; -7.9197576E-05;  1.0000045E+03;  4.0000001E-01;  3.6542168E+00;3; -9.2408025E-01;  0.0000000E+00; -1.1939941E-01;0; -7.1513578E-03;  1.0000098E+04;  0.0000000E+00; -6.2985055E-05;  1.0000000E+04;  0.0000000E+00;  9.9999893E+03; -8.1379646E-03;  0.0000000E+00;  9.8660681E-04;  4.1009569E+00;
  2.7999973E-01;  9.9999998E-03; -2.0000003E-01;1468; -6.1464676E-04;  0.0000000E+00; -6.2311301E-05;  1.0000045E+03;  4.0000001E-01;  3.7529795E+00;3; -9.3679547E-01;  0.0000000E+00; -9.3088925E-02;0; -7.3590497E-03;  1.0000099E+04;  0.0000000E+00; -8.3646000E-06;  1.0000000E+04;  0.0000000E+00;  9.9999902E+03; -8.1890170E-03;  0.0000000E+00;  8.2996703E-04;  3.5029998E+00;
  2.9999971E-01;  9.9999998E-03; -3.0000013E-01;1494; -6.4031768E-04;  0.0000000E+00; -3.1361621E-04;  1.0000051E+03;  4.0000001E-01;  4.2467918E+00;3; -1.0658109E+00;  0.0000000E+00; -5.1107389E-01;0; -8.1846928E-03;  1.0000120E+04;  0.0000000E+00; -1.5093182E-03;  1.0000000E+04;  0.0000000E+00;  9.9999834E+03; -9.8656565E-03;  0.0000000E+00;  1.6809640E-03;  8.6851034E+00;
  2.9999968E-01;  9.9999998E-03; -2.8000012E-01;1495; -7.0078677E-04;  0.0000000E+00; -2.4350939E-04;  1.0000054E+03;  4.0000001E-01;  4.4443169E+00;3; -1.1206427E+00;  0.0000000E+00; -3.8149795E-01;0; -8.6244568E-03;  1.0000126E+04;  0.0000000E+00; -9.3796517E-04;  1.0000000E+04;  0.0000000E+00;  9.9999834E+03; -1.0227645E-02;  0.0000000E+00;  1.6031880E-03;  7.3238478E+00;
  2.9999965E-01;  9.9999998E-03; -2.6000008E-01;1496; -7.4474135E-04;  0.0000000E+00; -1.8076526E-04;  1.0000056E+03;  4.0000001E-01;  4.6418424E+00;3; -1.1543012E+00;  0.0000000E+00; -2.7604854E-01;0; -8.8623073E-03;  1.0000129E+04;  0.0000000E+00; -4.0010930E-04;  1.0000000E+04;  0.0000000E+00;  9.9999824E+03; -1.0454370E-02;  0.0000000E+00;  1.5920624E-03;  6.6994429E+00;
  2.9999965E-01;  9.9999998E-03; -2.4000005E-01;1497; -7.7762309E-04;  0.0000000E+00; -1.3619542E-04;  1.0000057E+03;  4.0000001E-01;  4.7406049E+00;3; -1.1785102E+00;  0.0000000E+00; -2.0432298E-01;0; -9.0480307E-03;  1.0000132E+04;  0.0000000E+00; -1.1831414E-04;  1.0000000E+04;  0.0000000E+00;  9.9999834E+03; -1.0591650E-02;  0.0000000E+00;  1.5436197E-03;  6.4793625E+00;
  2.9999962E-01;  9.9999998E-03; -2.2000004E-01;1498; -7.9983060E-04;  0.0000000E+00; -1.0551811E-04;  1.0000059E+03;  4.0000001E-01;  4.8393674E+00;3; -1.1939732E+00;  0.0000000E+00; -1.5570216E-01;0; -9.2865210E-03;  1.0000133E+04;  0.0000000E+00; -2.1954958E-05;  1.0000000E+04;  0.0000000E+00;  9.9999863E+03; -1.0662899E-02;  0.0000000E+00;  1.3763787E-03;  5.8574471E+00;
  2.9999962E-01;  9.9999998E-03; -2.0000003E-01;1499; -8.1475964E-04;  0.0000000E+00; -8.1257262E-05;  1.0000060E+03;  4.0000001E-01;  4.9381299E+00;3; -1.2038702E+00;  0.0000000E+00; -1.1833649E-01;0; -9.5456420E-03;  1.0000134E+04;  0.0000000E+00; -1.5714440E-06;  1.0000000E+04;  0.0000000E+00;  9.9999873E+03; -1.0684762E-02;  0.0000000E+00;  1.1391203E-03;  4.9313812E+00;
  3.1999961E-01;  9.9999998E-03; -3.0000019E-01;1525; -8.7665743E-04;  0.0000000E+00; -4.2099855E-04;  1.0000070E+03;  4.0000001E-01;  5.8269935E+00;3; -1.4227991E+00;  0.0000000E+00; -6.6371560E-01;0; -1.0825852E-02;  1.0000167E+04;  0.0000000E+00; -6.1228935E-04;  1.0000000E+04;  0.0000000E+00;  9.9999736E+03; -1.3328052E-02;  0.0000000E+00;  2.5022002E-03;  9.6380301E+00;
  3.1999958E-01;  9.9999998E-03; -2.8000015E-01;1526; -9.4786217E-04;  0.0000000E+00; -3.2654157E-04;  1.0000073E+03;  4.0000001E-01;  6.0245185E+00;3; -1.4741899E+00;  0.0000000E+00; -4.9744037E-01;0; -1.1258502E-02;  1.0000172E+04;  0.0000000E+00; -3.4418271E-04;  1.0000000E+04;  0.0000000E+00;  9.9999736E+03; -1.3595823E-02;  0.0000000E+00;  2.3373214E-03;  9.4418859E+00;
  3.1999955E-01;  9.9999998E-03; -2.6000011E-01;1527; -9.9862309E-04;  0.0000000E+00; -2.4161073E-04;  1.0000074E+03;  4.0000001E-01;  6.1232815E+00;3; -1.5028336E+00;  0.0000000E+00; -3.5988271E-01;0; -1.1519922E-02;  1.0000175E+04;  0.0000000E+00; -1.2644443E-04;  1.0000000E+04;  0.0000000E+00;  9.9999746E+03; -1.3764224E-02;  0.0000000E+00;  2.2443018E-03;  9.4378710E+00;
  3.1999952E-01;  9.9999998E-03; -2.4000008E-01;1528; -1.0357496E-03;  0.0000000E+00; -1.8057447E-04;  1.0000076E+03;  4.0000001E-01;  6.3208065E+00;3; -1.5223018E+00;  0.0000000E+00; -2.6441482E-01;0; -1.1732456E-02;  1.0000177E+04;  0.0000000E+00; -2.8424207E-05;  1.0000000E+04;  0.0000000E+00;  9.9999746E+03; -1.3854871E-02;  0.0000000E+00;  2.1224143E-03;  9.1518383E+00;
  3.1999952E-01;  9.9999998E-03; -2.2000006E-01;1529; -1.0596208E-03;  0.0000000E+00; -1.3777682E-04;  1.0000079E+03;  4.0000001E-01;  6.5183315E+00;3; -1.5327071E+00;  0.0000000E+00; -1.9883497E-01;0; -1.2016737E-02;  1.0000180E+04;  0.0000000E+00; -2.8340726E-06;  1.0000000E+04;  0.0000000E+00;  9.9999785E+03; -1.3880054E-02;  0.0000000E+00;  1.8633163E-03;  8.1669884E+00;
  3.1999949E-01;  9.9999998E-03; -2.0000005E-01;1530; -1.0747069E-03;  0.0000000E+00; -1.0421270E-04;  1.0000081E+03;  4.0000001E-01;  6.7158570E+00;3; -1.5378194E+00;  0.0000000E+00; -1.4764097E-01;0; -1.2326508E-02;  1.0000180E+04;  0.0000000E+00; -5.4240773E-10;  1.0000000E+04;  0.0000000E+00;  9.9999834E+03; -1.3852037E-02;  0.0000000E+00;  1.5255286E-03;  6.8023906E+00;
  3.3999944E-01;  9.9999998E-03; -3.0000025E-01;1556; -1.1798886E-03;  0.0000000E+00; -5.5568223E-04;  1.0000097E+03;  4.0000001E-01;  7.9997702E+00;3; -1.8627852E+00;  0.0000000E+00; -8.4852523E-01;0; -1.4205489E-02;  1.0000230E+04;  0.0000000E+00; -1.1893598E-04;  1.0000000E+04;  0.0000000E+00;  9.9999619E+03; -1.7715408E-02;  0.0000000E+00;  3.5099182E-03;  1.3703245E+01;
  3.3999941E-01;  9.9999998E-03; -2.8000021E-01;1557; -1.2675431E-03;  0.0000000E+00; -4.2971774E-04;  1.0000099E+03;  4.0000001E-01;  8.1972952E+00;3; -1.9145499E+00;  0.0000000E+00; -6.3420349E-01;0; -1.4645432E-02;  1.0000233E+04;  0.0000000E+00; -5.6452540E-05;  1.0000000E+04;  0.0000000E+00;  9.9999648E+03; -1.7876673E-02;  0.0000000E+00;  3.2312411E-03;  1.3438528E+01;
  3.3999938E-01;  9.9999998E-03; -2.6000014E-01;1558; -1.3284201E-03;  0.0000000E+00; -3.1647924E-04;  1.0000101E+03;  4.0000001E-01;  8.2960577E+00;3; -1.9384594E+00;  0.0000000E+00; -4.5753035E-01;0; -1.4927227E-02;  1.0000235E+04;  0.0000000E+00; -1.4604019E-05;  1.0000000E+04;  0.0000000E+00;  9.9999648E+03; -1.7973460E-02;  0.0000000E+00;  3.0462334E-03;  1.3232476E+01;
  3.3999935E-01;  9.9999998E-03; -2.4000011E-01;1559; -1.3712076E-03;  0.0000000E+00; -2.3389079E-04;  1.0000102E+03;  4.0000001E-01;  8.4935827E+00;3; -1.9519136E+00;  0.0000000E+00; -3.3261815E-01;0; -1.5163222E-02;  1.0000237E+04;  0.0000000E+00; -1.2309946E-06;  1.0000000E+04;  0.0000000E+00;  9.9999678E+03; -1.7999582E-02;  0.0000000E+00;  2.8363594E-03;  1.2640506E+01;
  3.3999932E-01;  9.9999998E-03; -2.2000009E-01;1560; -1.3967307E-03;  0.0000000E+00; -1.7657873E-04;  1.0000104E+03;  4.0000001E-01;  8.6911087E+00;3; -1.9556811E+00;  0.0000000E+00; -2.4773622E-01;0; -1.5488926E-02;  1.0000237E+04;  0.0000000E+00;  1.7920665E-09;  1.0000000E+04;  0.0000000E+00;  9.9999717E+03; -1.7954681E-02;  0.0000000E+00;  2.4657550E-03;  1.1168341E+01;
  3.3999932E-01;  9.9999998E-03; -2.0000006E-01;1561; -1.4107773E-03;  0.0000000E+00; -1.3179782E-04;  1.0000107E+03;  4.0000001E-01;  8.8886337E+00;3; -1.9530196E+00;  0.0000000E+00; -1.8089871E-01;0; -1.5845843E-02;  1.0000236E+04;  0.0000000E+00; -6.8225076E-10;  1.0000000E+04;  0.0000000E+00;  9.9999756E+03; -1.7847385E-02;  0.0000000E+00;  2.0015431E-03;  9.2274828E+00;
  3.5999924E-01;  9.9999998E-03; -3.0000037E-01;1587; -1.5709839E-03;  0.0000000E+00; -7.2589202E-04;  1.0000129E+03;  4.0000001E-01;  1.0666359E+01;3; -2.4090438E+00;  0.0000000E+00; -1.0723319E+00;0; -1.8404689E-02;  1.0000311E+04;  0.0000000E+00; -1.9724102E-06;  1.0000000E+04;  0.0000000E+00;  9.9999473E+03; -2.3199124E-02;  0.0000000E+00;  4.7944346E-03;  1.9581757E+01;
  3.5999918E-01;  9.9999998E-03; -2.8000027E-01;1588; -1.6817363E-03;  0.0000000E+00; -5.5872463E-04;  1.0000131E+03;  4.0000001E-01;  1.0863884E+01;3; -2.4636586E+00;  0.0000000E+00; -7.9915541E-01;0; -1.8937740E-02;  1.0000314E+04;  0.0000000E+00; -2.8080319E-07;  1.0000000E+04;  0.0000000E+00;  9.9999502E+03; -2.3287416E-02;  0.0000000E+00;  4.3496741E-03;  1.8769039E+01;
  3.5999912E-01;  9.9999998E-03; -2.6000020E-01;1589; -1.7562809E-03;  0.0000000E+00; -4.0806289E-04;  1.0000134E+03;  4.0000001E-01;  1.1061409E+01;3; -2.4824035E+00;  0.0000000E+00; -5.7215285E-01;0; -1.9277111E-02;  1.0000314E+04;  0.0000000E+00;  5.9838733E-08;  1.0000000E+04;  0.0000000E+00;  9.9999531E+03; -2.3310458E-02;  0.0000000E+00;  4.0333471E-03;  1.8139179E+01;
  3.5999909E-01;  9.9999998E-03; -2.4000014E-01;1590; -1.8056000E-03;  0.0000000E+00; -2.9861202E-04;  1.0000136E+03;  4.0000001E-01;  1.1258934E+01;3; -2.4878500E+00;  0.0000000E+00; -4.1160294E-01;0; -1.9532202E-02;  1.0000315E+04;  0.0000000E+00;  2.0930345E-08;  1.0000000E+04;  0.0000000E+00;  9.9999561E+03; -2.3246048E-02;  0.0000000E+00;  3.7138469E-03;  1.7147968E+01;
  3.5999909E-01;  9.9999998E-03; -2.2000012E-01;1591; -1.8315024E-03;  0.0000000E+00; -2.2285499E-04;  1.0000138E+03;  4.0000001E-01;  1.1456459E+01;3; -2.4804168E+00;  0.0000000E+00; -3.0147460E-01;0; -1.9886814E-02;  1.0000315E+04;  0.0000000E+00;  2.7102462E-09;  1.0000000E+04;  0.0000000E+00;  9.9999629E+03; -2.3089318E-02;  0.0000000E+00;  3.2025035E-03;  1.5036613E+01;
  3.5999906E-01;  9.9999998E-03; -2.0000008E-01;1592; -1.8423740E-03;  0.0000000E+00; -1.6479335E-04;  1.0000141E+03;  4.0000001E-01;  1.1653984E+01;3; -2.4660118E+00;  0.0000000E+00; -2.1766034E-01;0; -2.0274904E-02;  1.0000313E+04;  0.0000000E+00; -1.6100150E-09;  1.0000000E+04;  0.0000000E+00;  9.9999688E+03; -2.2854220E-02;  0.0000000E+00;  2.5793163E-03;  1.2343886E+01;
  3.7999895E-01;  9.9999998E-03; -3.0000049E-01;1618; -2.0790547E-03;  0.0000000E+00; -9.4379496E-04;  1.0000171E+03;  4.0000001E-01;  1.4123047E+01;3; -3.0927942E+00;  0.0000000E+00; -1.3478953E+00;0; -2.3663480E-02;  1.0000417E+04;  0.0000000E+00;  1.9137269E-07;  1.0000000E+04;  0.0000000E+00;  9.9999258E+03; -3.0168146E-02;  0.0000000E+00;  6.5046661E-03;  2.7753336E+01;
  3.7999889E-01;  9.9999998E-03; -2.8000036E-01;1619; -2.2191801E-03;  0.0000000E+00; -7.2037504E-04;  1.0000175E+03;  4.0000001E-01;  1.4419334E+01;3; -3.1496925E+00;  0.0000000E+00; -9.9780267E-01;0; -2.4409009E-02;  1.0000418E+04;  0.0000000E+00;  1.7847773E-07;  1.0000000E+04;  0.0000000E+00;  9.9999326E+03; -3.0173698E-02;  0.0000000E+00;  5.7646888E-03;  2.5801584E+01;
  3.7999883E-01;  9.9999998E-03; -2.6000026E-01;1620; -2.3097999E-03;  0.0000000E+00; -5.2014465E-04;  1.0000177E+03;  4.0000001E-01;  1.4616859E+01;3; -3.1604269E+00;  0.0000000E+00; -7.0753646E-01;0; -2.4838880E-02;  1.0000419E+04;  0.0000000E+00;  9.5335018E-08;  1.0000000E+04;  0.0000000E+00;  9.9999375E+03; -3.0078160E-02;  0.0000000E+00;  5.2392790E-03;  2.4450798E+01;
  3.7999877E-01;  9.9999998E-03; -2.4000019E-01;1621; -2.3647526E-03;  0.0000000E+00; -3.7628182E-04;  1.0000179E+03;  4.0000001E-01;  1.4913147E+01;3; -3.1527514E+00;  0.0000000E+00; -5.0168985E-01;0; -2.5083361E-02;  1.0000417E+04;  0.0000000E+00;  3.3274279E-08;  1.0000000E+04;  0.0000000E+00;  9.9999414E+03; -2.9857311E-02;  0.0000000E+00;  4.7739502E-03;  2.2910795E+01;
  3.7999877E-01;  9.9999998E-03; -2.2000015E-01;1622; -2.3880876E-03;  0.0000000E+00; -2.7806932E-04;  1.0000182E+03;  4.0000001E-01;  1.5110672E+01;3; -3.1283147E+00;  0.0000000E+00; -3.6112005E-01;0; -2.5427345E-02;  1.0000415E+04;  0.0000000E+00;  4.8314681E-09;  1.0000000E+04;  0.0000000E+00;  9.9999502E+03; -2.9514810E-02;  0.0000000E+00;  4.0874649E-03;  1.9978247E+01;
  3.7999874E-01;  9.9999998E-03; -2.0000011E-01;1623; -2.3917079E-03;  0.0000000E+00; -2.0473759E-04;  1.0000185E+03;  4.0000001E-01;  1.5308197E+01;3; -3.0949707E+00;  0.0000000E+00; -2.5847477E-01;0; -2.5809929E-02;  1.0000412E+04;  0.0000000E+00; -1.4229591E-09;  1.0000000E+04;  0.0000000E+00;  9.9999580E+03; -2.9080978E-02;  0.0000000E+00;  3.2710480E-03;  1.6332460E+01;
  3.9999858E-01;  9.9999998E-03; -3.0000064E-01;1649; -2.7401741E-03;  0.0000000E+00; -1.2198222E-03;  1.0000226E+03;  4.0000001E-01;  1.8666121E+01;3; -3.9498134E+00;  0.0000000E+00; -1.6841110E+00;0; -3.0366305E-02;  1.0000556E+04;  0.0000000E+00;  2.7783153E-07;  1.0000000E+04;  0.0000000E+00;  9.9998965E+03; -3.9084051E-02;  0.0000000E+00;  8.7177455E-03;  3.8792759E+01;
  3.9999849E-01;  9.9999998E-03; -2.8000048E-01;1650; -2.9152136E-03;  0.0000000E+00; -9.2169194E-04;  1.0000233E+03;  4.0000001E-01;  1.9258696E+01;3; -4.0056791E+00;  0.0000000E+00; -1.2371054E+00;0; -3.1412628E-02;  1.0000555E+04;  0.0000000E+00;  2.7209995E-07;  1.0000000E+04;  0.0000000E+00;  9.9999092E+03; -3.8920671E-02;  0.0000000E+00;  7.5080423E-03;  3.4807732E+01;
  3.9999840E-01;  9.9999998E-03; -2.6000035E-01;1651; -3.0226395E-03;  0.0000000E+00; -6.5572193E-04;  1.0000235E+03;  4.0000001E-01;  1.9456221E+01;3; -4.0023470E+00;  0.0000000E+00; -8.6425197E-01;0; -3.1935528E-02;  1.0000554E+04;  0.0000000E+00;  1.4752885E-07;  1.0000000E+04;  0.0000000E+00;  9.9999180E+03; -3.8605776E-02;  0.0000000E+00;  6.6702496E-03;  3.2379829E+01;
  3.9999837E-01;  9.9999998E-03; -2.4000025E-01;1652; -3.0793995E-03;  0.0000000E+00; -4.6914318E-04;  1.0000236E+03;  4.0000001E-01;  1.9554983E+01;3; -3.9726241E+00;  0.0000000E+00; -6.0395682E-01;0; -3.2096710E-02;  1.0000550E+04;  0.0000000E+00;  5.1541260E-08;  1.0000000E+04;  0.0000000E+00;  9.9999238E+03; -3.8120348E-02;  0.0000000E+00;  6.0236370E-03;  3.0204109E+01;
  3.9999834E-01;  9.9999998E-03; -2.2000019E-01;1653; -3.0941130E-03;  0.0000000E+00; -3.4475783E-04;  1.0000239E+03;  4.0000001E-01;  1.9752508E+01;3; -3.9211688E+00;  0.0000000E+00; -4.2898491E-01;0; -3.2353748E-02;  1.0000544E+04;  0.0000000E+00;  9.6034780E-09;  1.0000000E+04;  0.0000000E+00;  9.9999346E+03; -3.7485648E-02;  0.0000000E+00;  5.1318998E-03;  2.6275530E+01;
  3.9999834E-01;  9.9999998E-03; -2.0000014E-01;1654; -3.0839907E-03;  0.0000000E+00; -2.5463477E-04;  1.0000242E+03;  4.0000001E-01;  2.0048796E+01;3; -3.8590481E+00;  0.0000000E+00; -3.0518433E-01;0; -3.2665502E-02;  1.0000537E+04;  0.0000000E+00; -1.4871371E-09;  1.0000000E+04;  0.0000000E+00;  9.9999482E+03; -3.6757573E-02;  0.0000000E+00;  4.0920726E-03;  2.1462334E+01;
  4.1999808E-01;  9.9999998E-03; -3.0000088E-01;1680; -3.5999904E-03;  0.0000000E+00; -1.5682111E-03;  1.0000301E+03;  4.0000001E-01;  2.4888153E+01;3; -5.0220585E+00;  0.0000000E+00; -2.0915606E+00;0; -3.8875010E-02;  1.0000740E+04;  0.0000000E+00;  3.8090008E-07;  1.0000000E+04;  0.0000000E+00;  9.9998613E+03; -5.0395567E-02;  0.0000000E+00;  1.1520556E-02;  5.3283611E+01;
  4.1999793E-01;  9.9999998E-03; -2.8000063E-01;1681; -3.8147368E-03;  0.0000000E+00; -1.1678685E-03;  1.0000308E+03;  4.0000001E-01;  2.5579491E+01;3; -5.0706177E+00;  0.0000000E+00; -1.5180116E+00;0; -4.0374059E-02;  1.0000736E+04;  0.0000000E+00;  4.0737405E-07;  1.0000000E+04;  0.0000000E+00;  9.9998838E+03; -4.9924266E-02;  0.0000000E+00;  9.5502073E-03;  4.5968704E+01;
  4.1999784E-01;  9.9999998E-03; -2.6000044E-01;1682; -3.9366018E-03;  0.0000000E+00; -8.1761228E-04;  1.0000311E+03;  4.0000001E-01;  2.5777016E+01;3; -5.0428805E+00;  0.0000000E+00; -1.0435600E+00;0; -4.0942866E-02;  1.0000729E+04;  0.0000000E+00;  2.3374918E-07;  1.0000000E+04;  0.0000000E+00;  9.9998936E+03; -4.9239039E-02;  0.0000000E+00;  8.2961740E-03;  4.2191948E+01;
  4.1999781E-01;  9.9999998E-03; -2.4000032E-01;1683; -3.9870287E-03;  0.0000000E+00; -5.7982095E-04;  1.0000310E+03;  4.0000001E-01;  2.5678253E+01;3; -4.9769573E+00;  0.0000000E+00; -7.1751928E-01;0; -4.0874604E-02;  1.0000719E+04;  0.0000000E+00;  8.5381473E-08;  1.0000000E+04;  0.0000000E+00;  9.9999004E+03; -4.8336048E-02;  0.0000000E+00;  7.4614431E-03;  3.9444714E+01;
  4.1999781E-01;  9.9999998E-03; -2.2000024E-01;1684; -3.9831041E-03;  0.0000000E+00; -4.2694053E-04;  1.0000312E+03;  4.0000001E-01;  2.5875778E+01;3; -4.8834047E+00;  0.0000000E+00; -5.0732416E-01;0; -4.0915057E-02;  1.0000707E+04;  0.0000000E+00;  1.7629093E-08;  1.0000000E+04;  0.0000000E+00;  9.9999160E+03; -4.7266677E-02;  0.0000000E+00;  6.3516209E-03;  3.4388317E+01;
  4.1999781E-01;  9.9999998E-03; -2.0000018E-01;1685; -3.9489102E-03;  0.0000000E+00; -3.1984426E-04;  1.0000313E+03;  4.0000001E-01;  2.5974541E+01;3; -4.7780766E+00;  0.0000000E+00; -3.6156404E-01;0; -4.1053291E-02;  1.0000697E+04;  0.0000000E+00; -1.1251304E-09;  1.0000000E+04;  0.0000000E+00;  9.9999326E+03; -4.6123404E-02;  0.0000000E+00;  5.0701136E-03;  2.8183331E+01;
  4.3999738E-01;  9.9999998E-03; -3.0000114E-01;1711; -4.7193617E-03;  0.0000000E+00; -2.0027277E-03;  1.0000397E+03;  4.0000001E-01;  3.2887905E+01;3; -6.3625097E+00;  0.0000000E+00; -2.5817297E+00;0; -4.9672097E-02;  1.0000979E+04;  0.0000000E+00;  4.5083956E-07;  1.0000000E+04;  0.0000000E+00;  9.9998154E+03; -6.4541064E-02;  0.0000000E+00;  1.4868967E-02;  7.1121765E+01;
  4.3999720E-01;  9.9999998E-03; -2.8000084E-01;1712; -4.9756006E-03;  0.0000000E+00; -1.4650653E-03;  1.0000407E+03;  4.0000001E-01;  3.3776768E+01;3; -6.3925753E+00;  0.0000000E+00; -1.8466467E+00;0; -5.1779047E-02;  1.0000966E+04;  0.0000000E+00;  6.1419371E-07;  1.0000000E+04;  0.0000000E+00;  9.9998506E+03; -6.3561253E-02;  0.0000000E+00;  1.1782207E-02;  5.9070568E+01;
  4.3999711E-01;  9.9999998E-03; -2.6000056E-01;1713; -5.1040957E-03;  0.0000000E+00; -1.0074705E-03;  1.0000407E+03;  4.0000001E-01;  3.3776768E+01;3; -6.3230109E+00;  0.0000000E+00; -1.2400224E+00;0; -5.2237310E-02;  1.0000949E+04;  0.0000000E+00;  3.7946188E-07;  1.0000000E+04;  0.0000000E+00;  9.9998652E+03; -6.2297784E-02;  0.0000000E+00;  1.0060475E-02;  5.4294197E+01;
  4.3999708E-01;  9.9999998E-03; -2.4000041E-01;1714; -5.1337541E-03;  0.0000000E+00; -7.1405747E-04;  1.0000403E+03;  4.0000001E-01;  3.3381718E+01;3; -6.1990490E+00;  0.0000000E+00; -8.4548354E-01;0; -5.1681116E-02;  1.0000932E+04;  0.0000000E+00;  1.4836556E-07;  1.0000000E+04;  0.0000000E+00;  9.9998740E+03; -6.0776748E-02;  0.0000000E+00;  9.0956334E-03;  5.1432896E+01;
  4.3999711E-01;  9.9999998E-03; -2.2000031E-01;1715; -5.0964630E-03;  0.0000000E+00; -5.3130061E-04;  1.0000402E+03;  4.0000001E-01;  3.3282955E+01;3; -6.0425625E+00;  0.0000000E+00; -5.9846812E-01;0; -5.1308788E-02;  1.0000912E+04;  0.0000000E+00;  3.6951214E-08;  1.0000000E+04;  0.0000000E+00;  9.9998916E+03; -5.9095148E-02;  0.0000000E+00;  7.7863606E-03;  4.5179394E+01;
  4.3999711E-01;  9.9999998E-03; -2.0000024E-01;1716; -5.0235041E-03;  0.0000000E+00; -4.1105555E-04;  1.0000402E+03;  4.0000001E-01;  3.3282955E+01;3; -5.8733630E+00;  0.0000000E+00; -4.3778792E-01;0; -5.1128253E-02;  1.0000896E+04;  0.0000000E+00;  5.1716564E-09;  1.0000000E+04;  0.0000000E+00;  9.9999121E+03; -5.7393532E-02;  0.0000000E+00;  6.2652775E-03;  3.7295380E+01;
  4.5999643E-01;  9.9999998E-03; -3.0000150E-01;1742; -6.1798608E-03;  0.0000000E+00; -2.5417123E-03;  1.0000526E+03;  4.0000021E-01;  4.3554226E+01;3; -8.0394154E+00;  0.0000000E+00; -3.1634128E+00;0; -6.3161582E-02;  1.0001277E+04;  0.0000000E+00;  4.8811154E-07;  1.0000000E+04;  0.0000000E+00;  9.9997646E+03; -8.1822939E-02;  0.0000000E+00;  1.8661361E-02;  9.2554779E+01;
  4.5999622E-01;  9.9999998E-03; -2.8000107E-01;1743; -6.4711669E-03;  0.0000000E+00; -1.8196295E-03;  1.0000538E+03;  4.0000024E-01;  4.4640614E+01;3; -8.0293722E+00;  0.0000000E+00; -2.2205665E+00;0; -6.6044509E-02;  1.0001253E+04;  0.0000000E+00;  9.7513987E-07;  1.0000000E+04;  0.0000000E+00;  9.9998145E+03; -8.0075040E-02;  0.0000000E+00;  1.4030532E-02;  7.4228264E+01;
  4.5999616E-01;  9.9999998E-03; -2.6000074E-01;1744; -6.5888315E-03;  0.0000000E+00; -1.2351756E-03;  1.0000532E+03;  4.0000024E-01;  4.4048038E+01;3; -7.8892627E+00;  0.0000000E+00; -1.4622974E+00;0; -6.6040620E-02;  1.0001226E+04;  0.0000000E+00;  6.6438889E-07;  1.0000000E+04;  0.0000000E+00;  9.9998301E+03; -7.7974141E-02;  0.0000000E+00;  1.1933522E-02;  6.9831245E+01;
  4.5999613E-01;  9.9999998E-03; -2.4000053E-01;1745; -6.5749884E-03;  0.0000000E+00; -8.8493002E-04;  1.0000522E+03;  4.0000021E-01;  4.3257938E+01;3; -7.6750412E+00;  0.0000000E+00; -9.9489200E-01;0; -6.4598083E-02;  1.0001195E+04;  0.0000000E+00;  2.8486241E-07;  1.0000000E+04;  0.0000000E+00;  9.9998369E+03; -7.5595543E-02;  0.0000000E+00;  1.0997456E-02;  6.7878731E+01;
  4.5999616E-01;  9.9999998E-03; -2.2000042E-01;1746; -6.4842426E-03;  0.0000000E+00; -6.7553204E-04;  1.0000516E+03;  4.0000024E-01;  4.2764126E+01;3; -7.4269080E+00;  0.0000000E+00; -7.1653247E-01;0; -6.3548177E-02;  1.0001165E+04;  0.0000000E+00;  9.0633527E-08;  1.0000000E+04;  0.0000000E+00;  9.9998574E+03; -7.3098294E-02;  0.0000000E+00;  9.5501179E-03;  6.0329433E+01;
  4.5999622E-01;  9.9999998E-03; -2.0000035E-01;1747; -6.3548354E-03;  0.0000000E+00; -5.4668001E-04;  1.0000514E+03;  4.0000024E-01;  4.2566601E+01;3; -7.1677084E+00;  0.0000000E+00; -5.5314970E-01;0; -6.2876329E-02;  1.0001137E+04;  0.0000000E+00;  2.4730326E-08;  1.0000000E+04;  0.0000000E+00;  9.9998838E+03; -7.0680834E-02;  0.0000000E+00;  7.8045093E-03;  5.0227314E+01;
  4.7999513E-01;  9.9999998E-03; -3.0000198E-01;1773; -8.0914879E-03;  0.0000000E+00; -3.2067103E-03;  1.0000690E+03;  4.0000072E-01;  5.7183395E+01;3; -1.0142911E+01;  0.0000000E+00; -3.8485088E+00;0; -7.9610482E-02;  1.0001644E+04;  0.0000000E+00;  5.2544306E-07;  1.0000000E+04;  0.0000000E+00;  9.9997051E+03; -1.0218343E-01;  0.0000000E+00;  2.2572948E-02;  1.1657831E+02;
  4.7999492E-01;  9.9999998E-03; -2.8000137E-01;1774; -8.3913235E-03;  0.0000000E+00; -2.2407877E-03;  1.0000706E+03;  4.0000069E-01;  5.8467304E+01;3; -1.0048854E+01;  0.0000000E+00; -2.6357267E+00;0; -8.3324775E-02;  1.0001602E+04;  0.0000000E+00;  1.7089728E-06;  1.0000000E+04;  0.0000000E+00;  9.9997744E+03; -9.9376872E-02;  0.0000000E+00;  1.6052095E-02;  9.1906715E+01;
  4.7999489E-01;  9.9999998E-03; -2.6000094E-01;1775; -8.4642423E-03;  0.0000000E+00; -1.5155936E-03;  1.0000685E+03;  4.0000075E-01;  5.6788345E+01;3; -9.7928600E+00;  0.0000000E+00; -1.7118642E+00;0; -8.2184710E-02;  1.0001556E+04;  0.0000000E+00;  1.2652652E-06;  1.0000000E+04;  0.0000000E+00;  9.9997832E+03; -9.6155547E-02;  0.0000000E+00;  1.3970839E-02;  9.1493607E+01;
  4.7999492E-01;  9.9999998E-03; -2.4000071E-01;1776; -8.3721615E-03;  0.0000000E+00; -1.1198529E-03;  1.0000663E+03;  4.0000069E-01;  5.4911861E+01;3; -9.4412012E+00;  0.0000000E+00; -1.1855658E+00;0; -7.9267398E-02;  1.0001509E+04;  0.0000000E+00;  5.8693098E-07;  1.0000000E+04;  0.0000000E+00;  9.9997822E+03; -9.2667900E-02;  0.0000000E+00;  1.3400506E-02;  9.2314804E+01;
  4.7999498E-01;  9.9999998E-03; -2.2000057E-01;1777; -8.2032634E-03;  0.0000000E+00; -8.9125521E-04;  1.0000652E+03;  4.0000072E-01;  5.4022999E+01;3; -9.0638409E+00;  0.0000000E+00; -8.8803077E-01;0; -7.7241793E-02;  1.0001464E+04;  0.0000000E+00;  2.1030166E-07;  1.0000000E+04;  0.0000000E+00;  9.9998057E+03; -8.9148171E-02;  0.0000000E+00;  1.1906375E-02;  8.3049583E+01;
  4.7999504E-01;  9.9999998E-03; -2.0000048E-01;1778; -7.9988455E-03;  0.0000000E+00; -7.5591292E-04;  1.0000649E+03;  4.0000060E-01;  5.3825478E+01;3; -8.6843605E+00;  0.0000000E+00; -7.3216575E-01;0; -7.5919509E-02;  1.0001425E+04;  0.0000000E+00;  7.9084614E-08;  1.0000000E+04;  0.0000000E+00;  9.9998408E+03; -8.5856162E-02;  0.0000000E+00;  9.9366531E-03;  6.9500374E+01;
  4.9999335E-01;  9.9999998E-03; -3.0000263E-01;1804; -1.0600622E-02;  0.0000000E+00; -4.0317150E-03;  1.0000892E+03;  4.0000159E-01;  7.3874161E+01;3; -1.2789640E+01;  0.0000000E+00; -4.6465650E+00;0; -9.8695643E-02;  1.0002060E+04;  0.0000000E+00;  7.5647262E-07;  1.0000000E+04;  0.0000000E+00;  9.9996455E+03; -1.2486279E-01;  0.0000000E+00;  2.6167147E-02;  1.4214063E+02;
  4.9999321E-01;  9.9999998E-03; -2.8000179E-01;1805; -1.0838847E-02;  0.0000000E+00; -2.7475068E-03;  1.0000901E+03;  4.0000162E-01;  7.4664253E+01;3; -1.2527551E+01;  0.0000000E+00; -3.0886979E+00;0; -1.0309057E-01;  1.0001998E+04;  0.0000000E+00;  3.4301049E-06;  1.0000000E+04;  0.0000000E+00;  9.9997275E+03; -1.2073668E-01;  0.0000000E+00;  1.7646115E-02;  1.1415210E+02;
  4.9999323E-01;  9.9999998E-03; -2.6000124E-01;1806; -1.0803243E-02;  0.0000000E+00; -1.8828209E-03;  1.0000861E+03;  4.0000159E-01;  7.1306343E+01;3; -1.2081521E+01;  0.0000000E+00; -1.9990659E+00;0; -9.9625923E-02;  1.0001932E+04;  0.0000000E+00;  2.6949297E-06;  1.0000000E+04;  0.0000000E+00;  9.9997119E+03; -1.1615115E-01;  0.0000000E+00;  1.6525222E-02;  1.2528210E+02;
  4.9999335E-01;  9.9999998E-03; -2.4000098E-01;1807; -1.0586548E-02;  0.0000000E+00; -1.4656099E-03;  1.0000820E+03;  4.0000159E-01;  6.7948425E+01;3; -1.1534612E+01;  0.0000000E+00; -1.4479560E+00;0; -9.4490290E-02;  1.0001866E+04;  0.0000000E+00;  1.2858166E-06;  1.0000000E+04;  0.0000000E+00;  9.9996963E+03; -1.1135153E-01;  0.0000000E+00;  1.6861234E-02;  1.3168538E+02;
  4.9999347E-01;  9.9999998E-03; -2.2000082E-01;1808; -1.0308726E-02;  0.0000000E+00; -1.2324576E-03;  1.0000804E+03;  4.0000162E-01;  6.6565750E+01;3; -1.0976404E+01;  0.0000000E+00; -1.1591496E+00;0; -9.1241546E-02;  1.0001803E+04;  0.0000000E+00;  4.7321825E-07;  1.0000000E+04;  0.0000000E+00;  9.9997266E+03; -1.0664757E-01;  0.0000000E+00;  1.5406017E-02;  1.1932365E+02;
  4.9999356E-01;  9.9999998E-03; -2.0000072E-01;1809; -1.0011639E-02;  0.0000000E+00; -1.0880705E-03;  1.0000800E+03;  4.0000159E-01;  6.6269463E+01;3; -1.0441179E+01;  0.0000000E+00; -1.0269209E+00;0; -8.9226797E-02;  1.0001748E+04;  0.0000000E+00;  1.9381847E-07;  1.0000000E+04;  0.0000000E+00;  9.9997725E+03; -1.0235127E-01;  0.0000000E+00;  1.3124474E-02;  9.9534332E+01;
  5.1999092E-01;  9.9999998E-03; -3.0000353E-01;1835; -1.3880069E-02;  0.0000000E+00; -5.0726668E-03;  1.0001149E+03;  4.0000436E-01;  9.5206673E+01;3; -1.6102758E+01;  0.0000000E+00; -5.5425467E+00;0; -1.1894771E-01;  1.0002499E+04;  0.0000000E+00;  2.1112248E-06;  1.0000000E+04;  0.0000000E+00;  9.9995811E+03; -1.4798854E-01;  0.0000000E+00;  2.9040830E-02;  1.7118550E+02;
  5.1999098E-01;  9.9999998E-03; -2.8000236E-01;1836; -1.3913943E-02;  0.0000000E+00; -3.4037335E-03;  1.0001146E+03;  4.0000445E-01;  9.5009148E+01;3; -1.5538767E+01;  0.0000000E+00; -3.5948505E+00;0; -1.2331156E-01;  1.0002413E+04;  0.0000000E+00;  7.8905205E-06;  1.0000000E+04;  0.0000000E+00;  9.9996582E+03; -1.4242257E-01;  0.0000000E+00;  1.9111006E-02;  1.4845831E+02;
  5.1999116E-01;  9.9999998E-03; -2.6000169E-01;1837; -1.3659730E-02;  0.0000000E+00; -2.4126631E-03;  1.0001065E+03;  4.0000439E-01;  8.8194565E+01;3; -1.4789497E+01;  0.0000000E+00; -2.3586726E+00;0; -1.1583748E-01;  1.0002323E+04;  0.0000000E+00;  6.2861764E-06;  1.0000000E+04;  0.0000000E+00;  9.9995869E+03; -1.3637900E-01;  0.0000000E+00;  2.0541517E-02;  1.8324634E+02;
  5.1999140E-01;  9.9999998E-03; -2.4000141E-01;1838; -1.3254456E-02;  0.0000000E+00; -2.0108372E-03;  1.0001003E+03;  4.0000442E-01;  8.3058937E+01;3; -1.3971310E+01;  0.0000000E+00; -1.8446293E+00;0; -1.0769276E-01;  1.0002238E+04;  0.0000000E+00;  2.9722310E-06;  1.0000000E+04;  0.0000000E+00;  9.9995498E+03; -1.3021317E-01;  0.0000000E+00;  2.2520414E-02;  1.9845662E+02;
  5.1999158E-01;  9.9999998E-03; -2.2000122E-01;1839; -1.2837481E-02;  0.0000000E+00; -1.7845420E-03;  1.0000984E+03;  4.0000442E-01;  8.1478737E+01;3; -1.3175654E+01;  0.0000000E+00; -1.6059332E+00;0; -1.0320557E-01;  1.0002155E+04;  0.0000000E+00;  1.0342920E-06;  1.0000000E+04;  0.0000000E+00;  9.9995918E+03; -1.2428898E-01;  0.0000000E+00;  2.1083407E-02;  1.7954097E+02;
  5.1999170E-01;  9.9999998E-03; -2.0000106E-01;1840; -1.2436885E-02;  0.0000000E+00; -1.6099312E-03;  1.0000986E+03;  4.0000448E-01;  8.1676262E+01;3; -1.2449490E+01;  0.0000000E+00; -1.5187697E+00;0; -1.0075854E-01;  1.0002086E+04;  0.0000000E+00;  3.7369941E-07;  1.0000000E+04;  0.0000000E+00;  9.9996631E+03; -1.1894430E-01;  0.0000000E+00;  1.8185765E-02;  1.4788649E+02;
  5.3998774E-01;  9.9999998E-03; -3.0000481E-01;1866; -1.8092992E-02;  0.0000000E+00; -6.4500207E-03;  1.0001489E+03;  4.0001169E-01;  1.2335365E+02;3; -2.0204521E+01;  0.0000000E+00; -6.5621614E+00;0; -1.3716401E-01;  1.0002891E+04;  0.0000000E+00;  6.7996712E-06;  1.0000000E+04;  0.0000000E+00;  9.9995010E+03; -1.6826482E-01;  0.0000000E+00;  3.1100811E-02;  2.1022194E+02;
  5.3998816E-01;  9.9999998E-03; -2.8000325E-01;1867; -1.7678043E-02;  0.0000000E+00; -4.3325177E-03;  1.0001452E+03;  4.0001166E-01;  1.2029202E+02;3; -1.9129501E+01;  0.0000000E+00; -4.1838951E+00;0; -1.4001490E-01;  1.0002787E+04;  0.0000000E+00;  1.9418187E-05;  1.0000000E+04;  0.0000000E+00;  9.9995322E+03; -1.6143207E-01;  0.0000000E+00;  2.1417167E-02;  2.1043481E+02;
  5.3998870E-01;  9.9999998E-03; -2.6000243E-01;1868; -1.7038919E-02;  0.0000000E+00; -3.2497232E-03;  1.0001314E+03;  4.0001166E-01;  1.0883564E+02;3; -1.7933542E+01;  0.0000000E+00; -2.8837013E+00;0; -1.2633689E-01;  1.0002680E+04;  0.0000000E+00;  1.5450829E-05;  1.0000000E+04;  0.0000000E+00;  9.9993633E+03; -1.5413670E-01;  0.0000000E+00;  2.7799809E-02;  2.8568204E+02;
  5.3998905E-01;  9.9999998E-03; -2.4000210E-01;1869; -1.6362155E-02;  0.0000000E+00; -2.8991676E-03;  1.0001227E+03;  4.0001175E-01;  1.0172478E+02;3; -1.6726601E+01;  0.0000000E+00; -2.5093267E+00;0; -1.1452632E-01;  1.0002575E+04;  0.0000000E+00;  7.0730280E-06;  1.0000000E+04;  0.0000000E+00;  9.9992969E+03; -1.4682733E-01;  0.0000000E+00;  3.2301005E-02;  3.1136200E+02;
  5.3998929E-01;  9.9999998E-03; -2.2000182E-01;1870; -1.5784651E-02;  0.0000000E+00; -2.6632973E-03;  1.0001213E+03;  4.0001175E-01;  1.0044088E+02;3; -1.5641954E+01;  0.0000000E+00; -2.3761194E+00;0; -1.0926315E-01;  1.0002478E+04;  0.0000000E+00;  2.1622327E-06;  1.0000000E+04;  0.0000000E+00;  9.9993662E+03; -1.3987419E-01;  0.0000000E+00;  3.0611036E-02;  2.7933905E+02;
  5.3998941E-01;  9.9999998E-03; -2.0000154E-01;1871; -1.5282977E-02;  0.0000000E+00; -2.3917847E-03;  1.0001229E+03;  4.0001169E-01;  1.0182354E+02;3; -1.4683917E+01;  0.0000000E+00; -2.3291707E+00;0; -1.0716985E-01;  1.0002392E+04;  0.0000000E+00;  5.6487096E-07;  1.0000000E+04;  0.0000000E+00;  9.9994824E+03; -1.3360050E-01;  0.0000000E+00;  2.6430655E-02;  2.2642778E+02;
  5.5998367E-01;  9.9999998E-03; -3.0000681E-01;1897; -2.3299670E-02;  0.0000000E+00; -8.3777001E-03;  1.0002037E+03;  4.0003145E-01;  1.6878372E+02;3; -2.5119591E+01;  0.0000000E+00; -7.7128820E+00;0; -1.4738557E-01;  1.0003149E+04;  0.0000000E+00;  1.9365014E-05;  1.0000000E+04;  0.0000000E+00;  9.9993506E+03; -1.8088937E-01;  0.0000000E+00;  3.3503797E-02;  2.8348108E+02;
  5.5998486E-01;  9.9999998E-03; -2.8000474E-01;1898; -2.2077182E-02;  0.0000000E+00; -5.7827616E-03;  1.0001944E+03;  4.0003145E-01;  1.6108031E+02;3; -2.3264967E+01;  0.0000000E+00; -4.9549432E+00;0; -1.4632757E-01;  1.0003035E+04;  0.0000000E+00;  4.6975190E-05;  1.0000000E+04;  0.0000000E+00;  9.9992803E+03; -1.7339863E-01;  0.0000000E+00;  2.7071061E-02;  3.3025284E+02;
  5.5998582E-01;  9.9999998E-03; -2.6000366E-01;1899; -2.0845341E-02;  0.0000000E+00; -4.6394821E-03;  1.0001736E+03;  4.0003142E-01;  1.4379701E+02;3; -2.1422808E+01;  0.0000000E+00; -3.7341220E+00;0; -1.2426658E-01;  1.0002919E+04;  0.0000000E+00;  3.7217433E-05;  1.0000000E+04;  0.0000000E+00;  9.9989805E+03; -1.6549389E-01;  0.0000000E+00;  4.1227311E-02;  4.5867307E+02;
  5.5998635E-01;  9.9999998E-03; -2.4000306E-01;1900; -1.9840663E-02;  0.0000000E+00; -4.2704339E-03;  1.0001634E+03;  4.0003145E-01;  1.3540227E+02;3; -1.9627251E+01;  0.0000000E+00; -3.7305653E+00;0; -1.0907815E-01;  1.0002808E+04;  0.0000000E+00;  1.6610915E-05;  1.0000000E+04;  0.0000000E+00;  9.9988896E+03; -1.5765569E-01;  0.0000000E+00;  4.8577540E-02;  4.9234253E+02;
  5.5998659E-01;  9.9999998E-03; -2.2000259E-01;1901; -1.9111203E-02;  0.0000000E+00; -3.9052812E-03;  1.0001638E+03;  4.0003151E-01;  1.3569856E+02;3; -1.8163462E+01;  0.0000000E+00; -3.7654765E+00;0; -1.0414149E-01;  1.0002699E+04;  0.0000000E+00;  4.4781727E-06;  1.0000000E+04;  0.0000000E+00;  9.9990049E+03; -1.5018892E-01;  0.0000000E+00;  4.6047438E-02;  4.3872107E+02;
  5.5998677E-01;  9.9999998E-03; -2.0000218E-01;1902; -1.8522816E-02;  0.0000000E+00; -3.4519997E-03;  1.0001686E+03;  4.0003142E-01;  1.3964902E+02;3; -1.7120964E+01;  0.0000000E+00; -3.4990461E+00;0; -1.0370897E-01;  1.0002604E+04;  0.0000000E+00;  5.6326382E-07;  1.0000000E+04;  0.0000000E+00;  9.9991963E+03; -1.4336117E-01;  0.0000000E+00;  3.9652195E-02;  3.5122098E+02;
  5.7997888E-01;  9.9999998E-03; -3.0000997E-01;1928; -2.9319268E-02;  0.0000000E+00; -1.1254147E-02;  1.0003182E+03;  4.0008396E-01;  2.6359406E+02;3; -3.0696117E+01;  0.0000000E+00; -9.0951777E+00;0; -1.3961449E-01;  1.0003152E+04;  0.0000000E+00;  4.6672030E-05;  1.0000000E+04;  0.0000000E+00;  9.9990078E+03; -1.7985971E-01;  0.0000000E+00;  4.0245216E-02;  4.4402853E+02;
  5.7998115E-01;  9.9999998E-03; -2.8000730E-01;1929; -2.6877401E-02;  0.0000000E+00; -8.2164006E-03;  1.0003012E+03;  4.0008393E-01;  2.4956993E+02;3; -2.7724564E+01;  0.0000000E+00; -6.0435691E+00;0; -1.3133505E-01;  1.0003049E+04;  0.0000000E+00;  1.0426730E-04;  1.0000000E+04;  0.0000000E+00;  9.9987754E+03; -1.7277780E-01;  0.0000000E+00;  4.1442759E-02;  5.6167004E+02;
  5.7998252E-01;  9.9999998E-03; -2.6000550E-01;1930; -2.4893282E-02;  0.0000000E+00; -6.8619875E-03;  1.0002759E+03;  4.0008396E-01;  2.2853377E+02;3; -2.4734825E+01;  0.0000000E+00; -5.4841347E+00;0; -1.0174429E-01;  1.0002939E+04;  0.0000000E+00;  8.2022518E-05;  1.0000000E+04;  0.0000000E+00;  9.9983809E+03; -1.6535282E-01;  0.0000000E+00;  6.3608535E-02;  7.2531964E+02;
  5.7998317E-01;  9.9999998E-03; -2.4000433E-01;1931; -2.3659492E-02;  0.0000000E+00; -6.1181961E-03;  1.0002651E+03;  4.0008396E-01;  2.1964525E+02;3; -2.2445589E+01;  0.0000000E+00; -5.5831051E+00;0; -8.4595501E-02;  1.0002833E+04;  0.0000000E+00;  3.6207843E-05;  1.0000000E+04;  0.0000000E+00;  9.9982715E+03; -1.5800115E-01;  0.0000000E+00;  7.3405653E-02;  7.6439301E+02;
  5.7998359E-01;  9.9999998E-03; -2.2000356E-01;1932; -2.2784885E-02;  0.0000000E+00; -5.4743104E-03;  1.0002690E+03;  4.0008393E-01;  2.2280560E+02;3; -2.0938515E+01;  0.0000000E+00; -5.4319749E+00;0; -8.1138887E-02;  1.0002732E+04;  0.0000000E+00;  8.9751848E-06;  1.0000000E+04;  0.0000000E+00;  9.9984502E+03; -1.5090311E-01;  0.0000000E+00;  6.9764219E-02;  6.7962573E+02;
  5.7998389E-01;  9.9999998E-03; -2.0000292E-01;1933; -2.2079436E-02;  0.0000000E+00; -4.7465567E-03;  1.0002797E+03;  4.0008396E-01;  2.3169412E+02;3; -1.9721848E+01;  0.0000000E+00; -4.9928212E+00;0; -8.4377900E-02;  1.0002638E+04;  0.0000000E+00;  1.3218229E-07;  1.0000000E+04;  0.0000000E+00;  9.9987578E+03; -1.4422481E-01;  0.0000000E+00;  5.9846908E-02;  5.3971606E+02;
  5.9997392E-01;  9.9999998E-03; -3.0001521E-01;1959; -3.5582688E-02;  0.0000000E+00; -1.5681284E-02;  1.0005934E+03;  4.0021726E-01;  4.9163177E+02;3; -3.6415020E+01;  0.0000000E+00; -1.0688551E+01;0; -9.9152565E-02;  1.0002787E+04;  0.0000000E+00;  9.3892420E-05;  1.0000000E+04;  0.0000000E+00;  9.9982158E+03; -1.5899190E-01;  0.0000000E+00;  5.9839334E-02;  8.1169958E+02;
  5.9997714E-01;  9.9999998E-03; -2.8001153E-01;1960; -3.1795248E-02;  0.0000000E+00; -1.2280310E-02;  1.0005718E+03;  4.0021724E-01;  4.7365729E+02;3; -3.1846302E+01;  0.0000000E+00; -8.0563107E+00;0; -8.2194000E-02;  1.0002711E+04;  0.0000000E+00;  1.9976869E-04;  1.0000000E+04;  0.0000000E+00;  9.9978604E+03; -1.5365413E-01;  0.0000000E+00;  7.1460128E-02;  9.7431500E+02;
  5.9997886E-01;  9.9999998E-03; -2.6000822E-01;1961; -2.9275954E-02;  0.0000000E+00; -9.9643040E-03;  1.0005492E+03;  4.0021729E-01;  4.5499149E+02;3; -2.7869736E+01;  0.0000000E+00; -7.7348347E+00;0; -5.1463291E-02;  1.0002633E+04;  0.0000000E+00;  1.5659603E-04;  1.0000000E+04;  0.0000000E+00;  9.9974902E+03; -1.4805736E-01;  0.0000000E+00;  9.6594065E-02;  1.1219124E+03;
  5.9997988E-01;  9.9999998E-03; -2.4000612E-01;1962; -2.7703626E-02;  0.0000000E+00; -8.5820565E-03;  1.0005403E+03;  4.0021726E-01;  4.4758441E+02;3; -2.5526972E+01;  0.0000000E+00; -7.8137765E+00;0; -3.3166528E-02;  1.0002555E+04;  0.0000000E+00;  6.9711597E-05;  1.0000000E+04;  0.0000000E+00;  9.9973906E+03; -1.4247213E-01;  0.0000000E+00;  1.0930561E-01;  1.1508052E+03;
  5.9998041E-01;  9.9999998E-03; -2.2000474E-01;1963; -2.6643317E-02;  0.0000000E+00; -7.3833931E-03;  1.0005503E+03;  4.0021732E-01;  4.5588034E+02;3; -2.3781986E+01;  0.0000000E+00; -7.4555516E+00;0; -3.3332601E-02;  1.0002478E+04;  0.0000000E+00;  1.6711705E-05;  1.0000000E+04;  0.0000000E+00;  9.9976689E+03; -1.3689980E-01;  0.0000000E+00;  1.0356720E-01;  1.0183219E+03;
  5.9998083E-01;  9.9999998E-03; -2.0000380E-01;1964; -2.5710681E-02;  0.0000000E+00; -6.3344394E-03;  1.0005699E+03;  4.0021726E-01;  4.7217587E+02;3; -2.2355377E+01;  0.0000000E+00; -6.8841453E+00;0; -4.2691372E-02;  1.0002397E+04;  0.0000000E+00; -9.5736641E-07;  1.0000000E+04;  0.0000000E+00;  9.9981387E+03; -1.3136414E-01;  0.0000000E+00;  8.8672765E-02;  8.0526691E+02;
  6.1996955E-01;  9.9999998E-03; -3.0002385E-01;1990; -4.1250940E-02;  0.0000000E+00; -2.2721017E-02;  1.0012299E+03;  4.0052250E-01;  1.0189100E+03;3; -4.1877934E+01;  0.0000000E+00; -1.2390962E+01;0; -2.0882785E-03;  1.0001983E+04;  0.0000000E+00;  1.5622596E-04;  1.0000000E+04;  0.0000000E+00;  9.9964922E+03; -1.1393337E-01;  0.0000000E+00;  1.1184509E-01;  1.5957767E+03;
  6.1997330E-01;  9.9999998E-03; -2.8001890E-01;1991; -3.6603034E-02;  0.0000000E+00; -1.8968608E-02;  1.0012113E+03;  4.0052244E-01;  1.0035034E+03;3; -3.5935555E+01;  0.0000000E+00; -1.0452291E+01;0;  2.0111121E-02;  1.0001955E+04;  0.0000000E+00;  3.2040867E-04;  1.0000000E+04;  0.0000000E+00;  9.9961523E+03; -1.1157998E-01;  0.0000000E+00;  1.3169110E-01;  1.7389386E+03;
  6.1997527E-01;  9.9999998E-03; -2.6001322E-01;1992; -3.3738490E-02;  0.0000000E+00; -1.5146814E-02;  1.0012067E+03;  4.0052247E-01;  9.9965173E+02;3; -3.1582394E+01;  0.0000000E+00; -1.0362722E+01;0;  4.1324437E-02;  1.0001927E+04;  0.0000000E+00;  2.5258618E-04;  1.0000000E+04;  0.0000000E+00;  9.9960918E+03; -1.0908510E-01;  0.0000000E+00;  1.5040953E-01;  1.7395654E+03;
  6.1997640E-01;  9.9999998E-03; -2.4000888E-01;1993; -3.1897172E-02;  0.0000000E+00; -1.2014731E-02;  1.0012108E+03;  4.0052253E-01;  1.0031083E+03;3; -2.8597336E+01;  0.0000000E+00; -1.0452475E+01;0;  5.1384315E-02;  1.0001895E+04;  0.0000000E+00;  1.1390452E-04;  1.0000000E+04;  0.0000000E+00;  9.9962070E+03; -1.0650437E-01;  0.0000000E+00;  1.5788868E-01;  1.6687043E+03;
  6.1997730E-01;  9.9999998E-03; -2.2000635E-01;1994; -3.0402262E-02;  0.0000000E+00; -9.9102361E-03;  1.0012312E+03;  4.0052253E-01;  1.0199964E+03;3; -2.6490322E+01;  0.0000000E+00; -1.0087969E+01;0;  4.4676021E-02;  1.0001855E+04;  0.0000000E+00;  2.7626220E-05;  1.0000000E+04;  0.0000000E+00;  9.9966523E+03; -1.0362306E-01;  0.0000000E+00;  1.4829908E-01;  1.4588256E+03;
  6.1997795E-01;  9.9999998E-03; -2.0000485E-01;1995; -2.9194659E-02;  0.0000000E+00; -8.2812821E-03;  1.0012628E+03;  4.0052250E-01;  1.0461678E+03;3; -2.4871786E+01;  0.0000000E+00; -9.2079124E+00;0;  2.6313633E-02;  1.0001808E+04;  0.0000000E+00; -2.2494214E-06;  1.0000000E+04;  0.0000000E+00;  9.9973311E+03; -1.0029550E-01;  0.0000000E+00;  1.2660913E-01;  1.1498451E+03;
  6.3996655E-01;  9.9999998E-03; -3.0003715E-01;2021; -4.5346927E-02;  0.0000000E+00; -3.3349205E-02;  1.0024086E+03;  4.0108147E-01;  1.9954354E+03;3; -4.6107857E+01;  0.0000000E+00; -1.4641658E+01;0;  1.7033982E-01;  1.0000762E+04;  0.0000000E+00;  2.0932063E-04;  1.0000000E+04;  0.0000000E+00;  9.9933623E+03; -4.4742830E-02;  0.0000000E+00;  2.1508266E-01;  3.0063032E+03;
  6.3997066E-01;  9.9999998E-03; -2.8003100E-01;2022; -4.0135730E-02;  0.0000000E+00; -3.0073548E-02;  1.0024023E+03;  4.0108144E-01;  1.9902012E+03;3; -3.9420349E+01;  0.0000000E+00; -1.4245946E+01;0;  1.9950248E-01;  1.0000790E+04;  0.0000000E+00;  4.2401656E-04;  1.0000000E+04;  0.0000000E+00;  9.9932100E+03; -4.6153102E-02;  0.0000000E+00;  2.4565558E-01;  3.0391628E+03;
  6.3997251E-01;  9.9999998E-03; -2.6002195E-01;2023; -3.7079934E-02;  0.0000000E+00; -2.4555711E-02;  1.0024432E+03;  4.0108144E-01;  2.0240757E+03;3; -3.4178146E+01;  0.0000000E+00; -1.5571994E+01;0;  1.9074090E-01;  1.0000819E+04;  0.0000000E+00;  3.3594287E-04;  1.0000000E+04;  0.0000000E+00;  9.9939951E+03; -4.7545452E-02;  0.0000000E+00;  2.3828635E-01;  2.6542300E+03;
  6.3997346E-01;  9.9999998E-03; -2.4001391E-01;2024; -3.5278749E-02;  0.0000000E+00; -1.8165851E-02;  1.0024781E+03;  4.0108144E-01;  2.0530122E+03;3; -3.0995707E+01;  0.0000000E+00; -1.4825069E+01;0;  1.7457594E-01;  1.0000843E+04;  0.0000000E+00;  1.5412568E-04;  1.0000000E+04;  0.0000000E+00;  9.9946729E+03; -4.8713923E-02;  0.0000000E+00;  2.2328986E-01;  2.3349917E+03;
  6.3997442E-01;  9.9999998E-03; -2.2000889E-01;2025; -3.3752743E-02;  0.0000000E+00; -1.3556258E-02;  1.0025163E+03;  4.0108144E-01;  2.0846152E+03;3; -2.8759497E+01;  0.0000000E+00; -1.3414106E+01;0;  1.5364993E-01;  1.0000854E+04;  0.0000000E+00;  3.8530361E-05;  1.0000000E+04;  0.0000000E+00;  9.9954248E+03; -4.9264096E-02;  0.0000000E+00;  2.0291401E-01;  1.9875142E+03;
  6.3997525E-01;  9.9999998E-03; -2.0000625E-01;2026; -3.2314613E-02;  0.0000000E+00; -1.0705035E-02;  1.0025637E+03;  4.0108132E-01;  2.1239216E+03;3; -2.7003086E+01;  0.0000000E+00; -1.1943486E+01;0;  1.2331637E-01;  1.0000850E+04;  0.0000000E+00; -2.8254842E-06;  1.0000000E+04;  0.0000000E+00;  9.9963701E+03; -4.8915960E-02;  0.0000000E+00;  1.7223233E-01;  1.5585265E+03;
  6.5996575E-01;  9.9999998E-03; -3.0005336E-01;2052; -4.6981052E-02;  0.0000000E+00; -4.6486363E-02;  1.0038840E+03;  4.0178341E-01;  3.2176472E+03;3; -4.8534985E+01;  0.0000000E+00; -1.7303234E+01;0;  3.9856777E-01;  9.9992549E+03;  0.0000000E+00;  2.2099937E-04;  1.0000000E+04;  0.0000000E+00;  9.9893135E+03;  4.2191278E-02;  0.0000000E+00;  3.5637650E-01;  4.8208506E+03;
  6.5996951E-01;  9.9999998E-03; -2.8004646E-01;2053; -4.1649248E-02;  0.0000000E+00; -4.4769958E-02;  1.0038927E+03;  4.0178341E-01;  3.2248564E+03;3; -4.0881840E+01;  0.0000000E+00; -1.9985840E+01;0;  4.3894854E-01;  9.9993369E+03;  0.0000000E+00;  4.4676199E-04;  1.0000000E+04;  0.0000000E+00;  9.9894053E+03;  3.7045896E-02;  0.0000000E+00;  4.0190265E-01;  4.7068828E+03;
  6.5997100E-01;  9.9999998E-03; -2.6003370E-01;2054; -3.8878500E-02;  0.0000000E+00; -3.7907276E-02;  1.0039966E+03;  4.0178335E-01;  3.3109739E+03;3; -3.5400204E+01;  0.0000000E+00; -2.3933262E+01;0;  3.8666677E-01;  9.9994180E+03;  0.0000000E+00;  3.5771326E-04;  1.0000000E+04;  0.0000000E+00;  9.9913965E+03;  3.1833585E-02;  0.0000000E+00;  3.5483319E-01;  3.7750547E+03;
  6.5997159E-01;  9.9999998E-03; -2.4002089E-01;2055; -3.7587348E-02;  0.0000000E+00; -2.7190248E-02;  1.0040768E+03;  4.0178332E-01;  3.3774382E+03;3; -3.2509380E+01;  0.0000000E+00; -2.1916475E+01;0;  3.2832760E-01;  9.9994922E+03;  0.0000000E+00;  1.6752923E-04;  1.0000000E+04;  0.0000000E+00;  9.9929199E+03;  2.7023507E-02;  0.0000000E+00;  3.0130410E-01;  3.0900774E+03;
  6.5997243E-01;  9.9999998E-03; -2.2001265E-01;2056; -3.6185324E-02;  0.0000000E+00; -1.9060753E-02;  1.0041378E+03;  4.0178329E-01;  3.4280024E+03;3; -3.0455494E+01;  0.0000000E+00; -1.8597300E+01;0;  2.8701463E-01;  9.9995508E+03;  0.0000000E+00;  4.3942651E-05;  1.0000000E+04;  0.0000000E+00;  9.9940801E+03;  2.3065297E-02;  0.0000000E+00;  2.6394933E-01;  2.5640100E+03;
  6.5997332E-01;  9.9999998E-03; -2.0000824E-01;2057; -3.4662955E-02;  0.0000000E+00; -1.4087388E-02;  1.0042026E+03;  4.0178323E-01;  3.4816284E+03;3; -2.8693760E+01;  0.0000000E+00; -1.5717247E+01;0;  2.4234334E-01;  9.9995918E+03;  0.0000000E+00; -2.0277625E-06;  1.0000000E+04;  0.0000000E+00;  9.9953301E+03;  2.0267388E-02;  0.0000000E+00;  2.2207595E-01;  1.9985055E+03;
  6.7996812E-01;  9.9999998E-03; -3.0006763E-01;2083; -4.4435754E-02;  0.0000000E+00; -5.8261096E-02;  1.0050345E+03;  4.0234289E-01;  4.1707017E+03;3; -4.6925793E+01;  0.0000000E+00; -2.0058199E+01;0;  6.0692227E-01;  9.9977012E+03;  0.0000000E+00;  1.8936931E-04;  1.0000000E+04;  0.0000000E+00;  9.9859385E+03;  1.3396089E-01;  0.0000000E+00;  4.7296137E-01;  6.3348042E+03;
  6.7997062E-01;  9.9999998E-03; -2.8006035E-01;2084; -4.0691197E-02;  0.0000000E+00; -5.8493339E-02;  1.0050463E+03;  4.0234292E-01;  4.1804785E+03;3; -4.0530262E+01;  0.0000000E+00; -2.6236555E+01;0;  6.6857010E-01;  9.9978184E+03;  0.0000000E+00;  3.7098580E-04;  1.0000000E+04;  0.0000000E+00;  9.9860586E+03;  1.2615049E-01;  0.0000000E+00;  5.4241961E-01;  6.1678965E+03;
  6.7997158E-01;  9.9999998E-03; -2.6004446E-01;2085; -3.8603872E-02;  0.0000000E+00; -5.0790317E-02;  1.0052001E+03;  4.0234274E-01;  4.3079736E+03;3; -3.5650894E+01;  0.0000000E+00; -3.3208084E+01;0;  5.8231896E-01;  9.9979375E+03;  0.0000000E+00;  3.0172165E-04;  1.0000000E+04;  0.0000000E+00;  9.9890078E+03;  1.1816522E-01;  0.0000000E+00;  4.6415374E-01;  4.7995034E+03;
  6.7997175E-01;  9.9999998E-03; -2.4002755E-01;2086; -3.7917603E-02;  0.0000000E+00; -3.6258958E-02;  1.0053179E+03;  4.0234262E-01;  4.4055454E+03;3; -3.3306900E+01;  0.0000000E+00; -2.9977396E+01;0;  4.8732090E-01;  9.9980439E+03;  0.0000000E+00;  1.4450637E-04;  1.0000000E+04;  0.0000000E+00;  9.9912490E+03;  1.1069380E-01;  0.0000000E+00;  3.7662709E-01;  3.8072051E+03;
  6.7997235E-01;  9.9999998E-03; -2.2001630E-01;2087; -3.6811698E-02;  0.0000000E+00; -2.4721742E-02;  1.0053996E+03;  4.0234259E-01;  4.4731938E+03;3; -3.1428267E+01;  0.0000000E+00; -2.4527060E+01;0;  4.2738086E-01;  9.9981367E+03;  0.0000000E+00;  3.9787581E-05;  1.0000000E+04;  0.0000000E+00;  9.9927832E+03;  1.0410865E-01;  0.0000000E+00;  3.2327220E-01;  3.1181819E+03;
  6.7997319E-01;  9.9999998E-03; -2.0001023E-01;2088; -3.5373073E-02;  0.0000000E+00; -1.7679784E-02;  1.0054806E+03;  4.0234253E-01;  4.5403486E+03;3; -2.9703154E+01;  0.0000000E+00; -2.0097147E+01;0;  3.6944732E-01;  9.9982129E+03;  0.0000000E+00; -5.9022193E-07;  1.0000000E+04;  0.0000000E+00;  9.9943232E+03;  9.8654807E-02;  0.0000000E+00;  2.7079251E-01;  2.4238428E+03;
  6.9997436E-01;  9.9999998E-03; -3.0007708E-01;2114; -3.6089003E-02;  0.0000000E+00; -6.6245109E-02;  1.0056398E+03;  4.0264866E-01;  4.6720947E+03;3; -3.8674484E+01;  0.0000000E+00; -2.2475803E+01;0;  7.4382174E-01;  9.9963965E+03;  0.0000000E+00;  1.4321739E-04;  1.0000000E+04;  0.0000000E+00;  9.9840918E+03;  2.1366502E-01;  0.0000000E+00;  5.3015673E-01;  7.1690479E+03;
  6.9997489E-01;  9.9999998E-03; -2.8006956E-01;2115; -3.5567496E-02;  0.0000000E+00; -6.7736596E-02;  1.0056395E+03;  4.0264854E-01;  4.6717983E+03;3; -3.6433758E+01;  0.0000000E+00; -3.0930923E+01;0;  8.3118457E-01;  9.9965195E+03;  0.0000000E+00;  2.5282011E-04;  1.0000000E+04;  0.0000000E+00;  9.9839678E+03;  2.0504613E-01;  0.0000000E+00;  6.2613845E-01;  7.0830020E+03;
  6.9997519E-01;  9.9999998E-03; -2.6005182E-01;2116; -3.4701854E-02;  0.0000000E+00; -5.9835047E-02;  1.0058120E+03;  4.0264833E-01;  4.8146968E+03;3; -3.3300499E+01;  0.0000000E+00; -4.0213261E+01;0;  7.3703450E-01;  9.9966475E+03;  0.0000000E+00;  2.0482446E-04;  1.0000000E+04;  0.0000000E+00;  9.9872793E+03;  1.9604094E-01;  0.0000000E+00;  5.4099357E-01;  5.5438545E+03;
  6.9997519E-01;  9.9999998E-03; -2.4003235E-01;2117; -3.4451600E-02;  0.0000000E+00; -4.3113612E-02;  1.0059489E+03;  4.0264833E-01;  4.9281660E+03;3; -3.1792158E+01;  0.0000000E+00; -3.6514336E+01;0;  6.2474322E-01;  9.9967666E+03;  0.0000000E+00;  9.9630939E-05;  1.0000000E+04;  0.0000000E+00;  9.9898877E+03;  1.8740860E-01;  0.0000000E+00;  4.3733463E-01;  4.3922168E+03;
  6.9997561E-01;  9.9999998E-03; -2.2001918E-01;2118; -3.3711102E-02;  0.0000000E+00; -2.9413221E-02;  1.0060438E+03;  4.0264815E-01;  5.0067749E+03;3; -3.0398746E+01;  0.0000000E+00; -2.9740065E+01;0;  5.5358958E-01;  9.9968750E+03;  0.0000000E+00;  2.8318329E-05;  1.0000000E+04;  0.0000000E+00;  9.9916689E+03;  1.7941999E-01;  0.0000000E+00;  3.7416959E-01;  3.5935696E+03;
  6.9997621E-01;  9.9999998E-03; -2.0001195E-01;2119; -3.2552604E-02;  0.0000000E+00; -2.0897044E-02;  1.0061379E+03;  4.0264806E-01;  5.0846924E+03;3; -2.8851374E+01;  0.0000000E+00; -2.4181995E+01;0;  4.8560190E-01;  9.9969717E+03;  0.0000000E+00;  4.3912132E-07;  1.0000000E+04;  0.0000000E+00;  9.9934443E+03;  1.7224292E-01;  0.0000000E+00;  3.1335896E-01;  2.7937034E+03;
  7.1998203E-01;  9.9999998E-03; -3.0008262E-01;2145; -2.5449334E-02;  0.0000000E+00; -7.0968576E-02;  1.0058933E+03;  4.0278217E-01;  4.8820122E+03;3; -2.7360254E+01;  0.0000000E+00; -2.4079884E+01;0;  8.1246543E-01;  9.9955654E+03;  0.0000000E+00;  8.1988881E-05;  1.0000000E+04;  0.0000000E+00;  9.9833359E+03;  2.6667222E-01;  0.0000000E+00;  5.4579318E-01;  7.5206553E+03;
  7.1998179E-01;  9.9999998E-03; -2.8007454E-01;2146; -2.5966270E-02;  0.0000000E+00; -7.2406113E-02;  1.0058796E+03;  4.0278217E-01;  4.8706558E+03;3; -2.6711535E+01;  0.0000000E+00; -3.2717167E+01;0;  9.1682267E-01;  9.9956748E+03;  0.0000000E+00;  1.4575997E-04;  1.0000000E+04;  0.0000000E+00;  9.9829561E+03;  2.5891724E-01;  0.0000000E+00;  6.5790540E-01;  7.5392266E+03;
  7.1998173E-01;  9.9999998E-03; -2.6005575E-01;2147; -2.6053719E-02;  0.0000000E+00; -6.4475022E-02;  1.0060496E+03;  4.0278196E-01;  5.0114761E+03;3; -2.5771112E+01;  0.0000000E+00; -4.3490917E+01;0;  8.3307260E-01;  9.9957881E+03;  0.0000000E+00;  1.1539230E-04;  1.0000000E+04;  0.0000000E+00;  9.9862305E+03;  2.5056446E-01;  0.0000000E+00;  5.8250815E-01;  6.0020698E+03;
  7.1998191E-01;  9.9999998E-03; -2.4003500E-01;2148; -2.5750773E-02;  0.0000000E+00; -4.6853691E-02;  1.0061902E+03;  4.0278175E-01;  5.1279053E+03;3; -2.4717655E+01;  0.0000000E+00; -4.0031025E+01;0;  7.2063649E-01;  9.9959014E+03;  0.0000000E+00;  5.5615350E-05;  1.0000000E+04;  0.0000000E+00;  9.9889150E+03;  2.4217424E-01;  0.0000000E+00;  4.7846228E-01;  4.8123325E+03;
  7.1998227E-01;  9.9999998E-03; -2.2002091E-01;2149; -2.5037497E-02;  0.0000000E+00; -3.2256089E-02;  1.0062911E+03;  4.0278172E-01;  5.2115483E+03;3; -2.3507832E+01;  0.0000000E+00; -3.2926048E+01;0;  6.4637017E-01;  9.9960078E+03;  0.0000000E+00;  1.5754171E-05;  1.0000000E+04;  0.0000000E+00;  9.9908164E+03;  2.3394540E-01;  0.0000000E+00;  4.1242480E-01;  3.9577839E+03;
  7.1998280E-01;  9.9999998E-03; -2.0001313E-01;2150; -2.4070114E-02;  0.0000000E+00; -2.3084266E-02;  1.0063937E+03;  4.0278164E-01;  5.2965737E+03;3; -2.2190741E+01;  0.0000000E+00; -2.6912037E+01;0;  5.7249057E-01;  9.9961104E+03;  0.0000000E+00;  6.0643492E-07;  1.0000000E+04;  0.0000000E+00;  9.9927578E+03;  2.2603449E-01;  0.0000000E+00;  3.4645608E-01;  3.0824180E+03;
  7.3998892E-01;  9.9999998E-03; -3.0008572E-01;2176; -1.5788190E-02;  0.0000000E+00; -7.3655680E-02;  1.0059988E+03;  4.0283477E-01;  4.9691260E+03;3; -1.7044151E+01;  0.0000000E+00; -2.5144194E+01;0;  8.3152264E-01;  9.9952832E+03;  0.0000000E+00;  2.7453150E-05;  1.0000000E+04;  0.0000000E+00;  9.9831055E+03;  2.8733194E-01;  0.0000000E+00;  5.4419070E-01;  7.6345151E+03;
  7.3998868E-01;  9.9999998E-03; -2.8007710E-01;2177; -1.6219316E-02;  0.0000000E+00; -7.4694254E-02;  1.0059727E+03;  4.0283471E-01;  4.9475986E+03;3; -1.6778997E+01;  0.0000000E+00; -3.3419559E+01;0;  9.4755375E-01;  9.9953662E+03;  0.0000000E+00;  6.3129293E-05;  1.0000000E+04;  0.0000000E+00;  9.9825117E+03;  2.8123668E-01;  0.0000000E+00;  6.6631711E-01;  7.7458911E+03;
  7.3998863E-01;  9.9999998E-03; -2.6005769E-01;2178; -1.6376808E-02;  0.0000000E+00; -6.6515550E-02;  1.0061345E+03;  4.0283459E-01;  5.0816006E+03;3; -1.6360792E+01;  0.0000000E+00; -4.4535202E+01;0;  8.7664557E-01;  9.9954551E+03;  0.0000000E+00;  5.0051833E-05;  1.0000000E+04;  0.0000000E+00;  9.9856387E+03;  2.7444032E-01;  0.0000000E+00;  6.0220528E-01;  6.2654019E+03;
  7.3998874E-01;  9.9999998E-03; -2.4003635E-01;2179; -1.6190475E-02;  0.0000000E+00; -4.8651069E-02;  1.0062719E+03;  4.0283442E-01;  5.1954575E+03;3; -1.5753837E+01;  0.0000000E+00; -4.1491234E+01;0;  7.7099466E-01;  9.9955518E+03;  0.0000000E+00;  2.3445918E-05;  1.0000000E+04;  0.0000000E+00;  9.9882793E+03;  2.6714221E-01;  0.0000000E+00;  5.0385249E-01;  5.0894121E+03;
  7.3998904E-01;  9.9999998E-03; -2.2002187E-01;2180; -1.5706487E-02;  0.0000000E+00; -3.3818539E-02;  1.0063748E+03;  4.0283427E-01;  5.2806772E+03;3; -1.4976484E+01;  0.0000000E+00; -3.4561398E+01;0;  6.9762254E-01;  9.9956484E+03;  0.0000000E+00;  6.4131136E-06;  1.0000000E+04;  0.0000000E+00;  9.9902305E+03;  2.5945643E-01;  0.0000000E+00;  4.3816611E-01;  4.2090439E+03;
  7.3998934E-01;  9.9999998E-03; -2.0001388E-01;2181; -1.5047730E-02;  0.0000000E+00; -2.4430756E-02;  1.0064828E+03;  4.0283418E-01;  5.3701436E+03;3; -1.4097611E+01;  0.0000000E+00; -2.8513536E+01;0;  6.2088764E-01;  9.9957480E+03;  0.0000000E+00;  3.6176962E-07;  1.0000000E+04;  0.0000000E+00;  9.9922813E+03;  2.5157550E-01;  0.0000000E+00;  3.6931217E-01;  3.2838376E+03;
  7.5999433E-01;  9.9999998E-03; -3.0008733E-01;2207; -8.1831804E-03;  0.0000000E+00; -7.5130492E-02;  1.0060547E+03;  4.0285456E-01;  5.0152876E+03;3; -8.9060898E+00;  0.0000000E+00; -2.5883099E+01;0;  8.1947881E-01;  9.9954443E+03;  0.0000000E+00; -1.9443642E-07;  1.0000000E+04;  0.0000000E+00;  9.9830781E+03;  2.8054118E-01;  0.0000000E+00;  5.3893763E-01;  7.6522441E+03;
  7.5999415E-01;  9.9999998E-03; -2.8007838E-01;2208; -8.4794369E-03;  0.0000000E+00; -7.5773902E-02;  1.0060202E+03;  4.0285456E-01;  4.9866523E+03;3; -8.8764668E+00;  0.0000000E+00; -3.3701397E+01;0;  9.4273758E-01;  9.9955029E+03;  0.0000000E+00;  1.6015074E-05;  1.0000000E+04;  0.0000000E+00;  9.9823350E+03;  2.7619451E-01;  0.0000000E+00;  6.6654307E-01;  7.8297881E+03;
  7.5999409E-01;  9.9999998E-03; -2.6005858E-01;2209; -8.6145699E-03;  0.0000000E+00; -6.7398086E-02;  1.0061738E+03;  4.0285441E-01;  5.1138340E+03;3; -8.7444782E+00;  0.0000000E+00; -4.4852951E+01;0;  8.8213146E-01;  9.9955693E+03;  0.0000000E+00;  1.3769968E-05;  1.0000000E+04;  0.0000000E+00;  9.9853262E+03;  2.7109835E-01;  0.0000000E+00;  6.1103314E-01;  6.4054590E+03;
  7.5999415E-01;  9.9999998E-03; -2.4003702E-01;2210; -8.5447412E-03;  0.0000000E+00; -4.9509920E-02;  1.0063073E+03;  4.0285423E-01;  5.2244268E+03;3; -8.4831314E+00;  0.0000000E+00; -4.2129234E+01;0;  7.8319842E-01;  9.9956436E+03;  0.0000000E+00;  6.2822587E-06;  1.0000000E+04;  0.0000000E+00;  9.9879043E+03;  2.6514792E-01;  0.0000000E+00;  5.1805049E-01;  5.2523125E+03;
  7.5999433E-01;  9.9999998E-03; -2.2002241E-01;2211; -8.2921972E-03;  0.0000000E+00; -3.4668975E-02;  1.0064107E+03;  4.0285414E-01;  5.3101362E+03;3; -8.0974531E+00;  0.0000000E+00; -3.5434917E+01;0;  7.1169972E-01;  9.9957314E+03;  0.0000000E+00;  1.6248753E-06;  1.0000000E+04;  0.0000000E+00;  9.9898760E+03;  2.5836623E-01;  0.0000000E+00;  4.5333347E-01;  4.3606689E+03;
  7.5999451E-01;  9.9999998E-03; -2.0001431E-01;2212; -7.9258624E-03;  0.0000000E+00; -2.5236353E-02;  1.0065215E+03;  4.0285408E-01;  5.4019678E+03;3; -7.6259689E+00;  0.0000000E+00; -2.9462450E+01;0;  6.3395822E-01;  9.9958223E+03;  0.0000000E+00;  1.3965192E-07;  1.0000000E+04;  0.0000000E+00;  9.9919902E+03;  2.5098065E-01;  0.0000000E+00;  3.8297755E-01;  3.4059312E+03;
  7.7999830E-01;  9.9999998E-03; -3.0008805E-01;2238; -2.5200229E-03;  0.0000000E+00; -7.5864576E-02;  1.0060947E+03;  4.0286186E-01;  5.0480273E+03;3; -2.8254738E+00;  0.0000000E+00; -2.6402742E+01;0;  7.9332089E-01;  9.9958564E+03;  0.0000000E+00; -4.8954798E-06;  1.0000000E+04;  0.0000000E+00;  9.9830977E+03;  2.5757989E-01;  0.0000000E+00;  5.3574097E-01;  7.6413853E+03;
  7.7999824E-01;  9.9999998E-03; -2.8007886E-01;2239; -2.6809559E-03;  0.0000000E+00; -7.6207198E-02;  1.0060555E+03;  4.0286192E-01;  5.0156416E+03;3; -2.9186976E+00;  0.0000000E+00; -3.3843826E+01;0;  9.1968238E-01;  9.9958945E+03;  0.0000000E+00; -2.9430353E-07;  1.0000000E+04;  0.0000000E+00;  9.9822852E+03;  2.5468513E-01;  0.0000000E+00;  6.6499722E-01;  7.8514229E+03;
  7.7999818E-01;  9.9999998E-03; -2.6005891E-01;2240; -2.7780819E-03;  0.0000000E+00; -6.7676529E-02;  1.0062042E+03;  4.0286171E-01;  5.1386680E+03;3; -2.9627688E+00;  0.0000000E+00; -4.4880920E+01;0;  8.6490822E-01;  9.9959414E+03;  0.0000000E+00;  7.1099601E-07;  1.0000000E+04;  0.0000000E+00;  9.9851943E+03;  2.5098553E-01;  0.0000000E+00;  6.1392272E-01;  6.4622632E+03;
  7.7999818E-01;  9.9999998E-03; -2.4003726E-01;2241; -2.7925167E-03;  0.0000000E+00; -4.9809948E-02;  1.0063347E+03;  4.0286154E-01;  5.2467847E+03;3; -2.9433918E+00;  0.0000000E+00; -4.2310459E+01;0;  7.7040958E-01;  9.9960029E+03;  0.0000000E+00;  3.6241823E-07;  1.0000000E+04;  0.0000000E+00;  9.9877295E+03;  2.4622132E-01;  0.0000000E+00;  5.2418828E-01;  5.3261289E+03;
  7.7999824E-01;  9.9999998E-03; -2.2002263E-01;2242; -2.7275335E-03;  0.0000000E+00; -3.5023760E-02;  1.0064379E+03;  4.0286145E-01;  5.3322910E+03;3; -2.8559592E+00;  0.0000000E+00; -3.5782757E+01;0;  7.0058525E-01;  9.9960752E+03;  0.0000000E+00;  8.8249692E-08;  1.0000000E+04;  0.0000000E+00;  9.9897090E+03;  2.4036190E-01;  0.0000000E+00;  4.6022338E-01;  4.4310029E+03;
  7.7999830E-01;  9.9999998E-03; -2.0001452E-01;2243; -2.6051668E-03;  0.0000000E+00; -2.5616590E-02;  1.0065498E+03;  4.0286136E-01;  5.4250049E+03;3; -2.7109027E+00;  0.0000000E+00; -2.9899025E+01;0;  6.2291586E-01;  9.9961582E+03;  0.0000000E+00;  4.1406853E-08;  1.0000000E+04;  0.0000000E+00;  9.9918545E+03;  2.3365507E-01;  0.0000000E+00;  3.8926083E-01;  3.4626782E+03;
  8.0000144E-01;  9.9999998E-03; -3.0008814E-01;2269;  1.9474337E-03;  0.0000000E+00; -7.6095082E-02;  1.0061234E+03;  4.0286344E-01;  5.0712627E+03;3;  1.9917837E+00;  0.0000000E+00; -2.6770567E+01;0;  7.6589954E-01;  9.9963271E+03;  0.0000000E+00; -9.2196461E-07;  1.0000000E+04;  0.0000000E+00;  9.9831191E+03;  2.2994360E-01;  0.0000000E+00;  5.3595591E-01;  7.6216069E+03;
  8.0000144E-01;  9.9999998E-03; -2.8007886E-01;2270;  1.9123349E-03;  0.0000000E+00; -7.6254465E-02;  1.0060834E+03;  4.0286344E-01;  5.0382876E+03;3;  1.8319080E+00;  0.0000000E+00; -3.3969421E+01;0;  8.9194399E-01;  9.9963516E+03;  0.0000000E+00; -3.9148222E-07;  1.0000000E+04;  0.0000000E+00;  9.9823066E+03;  2.2802646E-01;  0.0000000E+00;  6.6391754E-01;  7.8344819E+03;
  8.0000138E-01;  9.9999998E-03; -2.6005885E-01;2271;  1.8567794E-03;  0.0000000E+00; -6.7597710E-02;  1.0062305E+03;  4.0286326E-01;  5.1600195E+03;3;  1.6705053E+00;  0.0000000E+00; -4.4803715E+01;0;  8.3848780E-01;  9.9963857E+03;  0.0000000E+00;  3.6422836E-08;  1.0000000E+04;  0.0000000E+00;  9.9851914E+03;  2.2525030E-01;  0.0000000E+00;  6.1323750E-01;  6.4574150E+03;
  8.0000132E-01;  9.9999998E-03; -2.4003723E-01;2272;  1.7805502E-03;  0.0000000E+00; -4.9742568E-02;  1.0063595E+03;  4.0286312E-01;  5.2668433E+03;3;  1.5123481E+00;  0.0000000E+00; -4.2217327E+01;0;  7.4578953E-01;  9.9964375E+03;  0.0000000E+00;  1.2023121E-07;  1.0000000E+04;  0.0000000E+00;  9.9877109E+03;  2.2133109E-01;  0.0000000E+00;  5.2445847E-01;  5.3298604E+03;
  8.0000132E-01;  9.9999998E-03; -2.2002263E-01;2273;  1.6958921E-03;  0.0000000E+00; -3.5015136E-02;  1.0064620E+03;  4.0286306E-01;  5.3517490E+03;3;  1.3693056E+00;  0.0000000E+00; -3.5753807E+01;0;  6.7706001E-01;  9.9965000E+03;  0.0000000E+00;  4.9052598E-08;  1.0000000E+04;  0.0000000E+00;  9.9896865E+03;  2.1622632E-01;  0.0000000E+00;  4.6083367E-01;  4.4364580E+03;
  8.0000126E-01;  9.9999998E-03; -2.0001455E-01;2274;  1.6181539E-03;  0.0000000E+00; -2.5659023E-02;  1.0065739E+03;  4.0286294E-01;  5.4443560E+03;3;  1.2525631E+00;  0.0000000E+00; -2.9934446E+01;0;  6.0006368E-01;  9.9965742E+03;  0.0000000E+00; -7.1765411E-09;  1.0000000E+04;  0.0000000E+00;  9.9918359E+03;  2.1018514E-01;  0.0000000E+00;  3.8987854E-01;  3.4672278E+03;
  8.2000428E-01;  9.9999998E-03; -3.0008778E-01;2300;  6.0245767E-03;  0.0000000E+00; -7.5868987E-02;  1.0061374E+03;  4.0286070E-01;  5.0822900E+03;3;  6.4024301E+00;  0.0000000E+00; -2.6879644E+01;0;  7.4352318E-01;  9.9967412E+03;  0.0000000E+00;  3.6164568E-06;  1.0000000E+04;  0.0000000E+00;  9.9831201E+03;  2.0482557E-01;  0.0000000E+00;  5.3869760E-01;  7.6037661E+03;
  8.2000434E-01;  9.9999998E-03; -2.8007853E-01;2301;  6.1005382E-03;  0.0000000E+00; -7.5995132E-02;  1.0061000E+03;  4.0286070E-01;  5.0512930E+03;3;  6.1775842E+00;  0.0000000E+00; -3.4013615E+01;0;  8.6695075E-01;  9.9967598E+03;  0.0000000E+00;  6.3689781E-06;  1.0000000E+04;  0.0000000E+00;  9.9823633E+03;  2.0340060E-01;  0.0000000E+00;  6.6355014E-01;  7.7930947E+03;
  8.2000428E-01;  9.9999998E-03; -2.6005855E-01;2302;  6.0793716E-03;  0.0000000E+00; -6.7264400E-02;  1.0062485E+03;  4.0286049E-01;  5.1743916E+03;3;  5.9052243E+00;  0.0000000E+00; -4.4635899E+01;0;  8.1104112E-01;  9.9967900E+03;  0.0000000E+00;  5.1661914E-06;  1.0000000E+04;  0.0000000E+00;  9.9852881E+03;  2.0109519E-01;  0.0000000E+00;  6.0994595E-01;  6.4040186E+03;
  8.2000422E-01;  9.9999998E-03; -2.4003699E-01;2303;  5.9496677E-03;  0.0000000E+00; -4.9399219E-02;  1.0063779E+03;  4.0286040E-01;  5.2814985E+03;3;  5.5886102E+00;  0.0000000E+00; -4.1909004E+01;0;  7.1772474E-01;  9.9968340E+03;  0.0000000E+00;  2.4984906E-06;  1.0000000E+04;  0.0000000E+00;  9.9878174E+03;  1.9767080E-01;  0.0000000E+00;  5.2005392E-01;  5.2753228E+03;
  8.2000411E-01;  9.9999998E-03; -2.2002244E-01;2304;  5.7370733E-03;  0.0000000E+00; -3.4713898E-02;  1.0064798E+03;  4.0286022E-01;  5.3658018E+03;3;  5.2450914E+00;  0.0000000E+00; -3.5417995E+01;0;  6.4948308E-01;  9.9968906E+03;  0.0000000E+00;  6.5390731E-07;  1.0000000E+04;  0.0000000E+00;  9.9897842E+03;  1.9309208E-01;  0.0000000E+00;  4.5639098E-01;  4.3875786E+03;
  8.2000399E-01;  9.9999998E-03; -2.0001441E-01;2305;  5.4864530E-03;  0.0000000E+00; -2.5417108E-02;  1.0065903E+03;  4.0286016E-01;  5.4573115E+03;3;  4.9007707E+00;  0.0000000E+00; -2.9634415E+01;0;  5.7353574E-01;  9.9969600E+03;  0.0000000E+00; -3.7996113E-08;  1.0000000E+04;  0.0000000E+00;  9.9919160E+03;  1.8759097E-01;  0.0000000E+00;  3.8594475E-01;  3.4280945E+03;
  8.4000719E-01;  9.9999998E-03; -3.0008626E-01;2331;  1.0152884E-02;  0.0000000E+00; -7.4700169E-02;  1.0060510E+03;  4.0281445E-01;  5.0099907E+03;3;  1.0875518E+01;  0.0000000E+00; -2.6696451E+01;0;  7.1764255E-01;  9.9970791E+03;  0.0000000E+00;  9.3343297E-06;  1.0000000E+04;  0.0000000E+00;  9.9833604E+03;  1.8385914E-01;  0.0000000E+00;  5.3378344E-01;  7.4734722E+03;
  8.4000725E-01;  9.9999998E-03; -2.8007716E-01;2332;  1.0324263E-02;  0.0000000E+00; -7.4777074E-02;  1.0060161E+03;  4.0281442E-01;  4.9809731E+03;3;  1.0559381E+01;  0.0000000E+00; -3.3660725E+01;0;  8.3721495E-01;  9.9970977E+03;  0.0000000E+00;  1.8356915E-05;  1.0000000E+04;  0.0000000E+00;  9.9826504E+03;  1.8254310E-01;  0.0000000E+00;  6.5467185E-01;  7.6449712E+03;
  8.4000725E-01;  9.9999998E-03; -2.6005748E-01;2333;  1.0325191E-02;  0.0000000E+00; -6.6088848E-02;  1.0061636E+03;  4.0281430E-01;  5.1031631E+03;3;  1.0154647E+01;  0.0000000E+00; -4.3940643E+01;0;  7.8002369E-01;  9.9971270E+03;  0.0000000E+00;  1.4704304E-05;  1.0000000E+04;  0.0000000E+00;  9.9855566E+03;  1.8036304E-01;  0.0000000E+00;  5.9966063E-01;  6.2701548E+03;
  8.4000713E-01;  9.9999998E-03; -2.4003628E-01;2334;  1.0139429E-02;  0.0000000E+00; -4.8456382E-02;  1.0062914E+03;  4.0281409E-01;  5.2089692E+03;3;  9.6700325E+00;  0.0000000E+00; -4.1123730E+01;0;  6.8728006E-01;  9.9971680E+03;  0.0000000E+00;  6.9465086E-06;  1.0000000E+04;  0.0000000E+00;  9.9880576E+03;  1.7713885E-01;  0.0000000E+00;  5.1014119E-01;  5.1582583E+03;
  8.4000695E-01;  9.9999998E-03; -2.2002199E-01;2335;  9.8058609E-03;  0.0000000E+00; -3.4002770E-02;  1.0063915E+03;  4.0281406E-01;  5.2918770E+03;3;  9.1287670E+00;  0.0000000E+00; -3.4686649E+01;0;  6.2002337E-01;  9.9972227E+03;  0.0000000E+00;  1.8335406E-06;  1.0000000E+04;  0.0000000E+00;  9.9899951E+03;  1.7284518E-01;  0.0000000E+00;  4.4717821E-01;  4.2875537E+03;
  8.4000677E-01;  9.9999998E-03; -2.0001411E-01;2336;  9.3945973E-03;  0.0000000E+00; -2.4874715E-02;  1.0064998E+03;  4.0281394E-01;  5.3814961E+03;3;  8.5676966E+00;  0.0000000E+00; -2.8997227E+01;0;  5.4560834E-01;  9.9972861E+03;  0.0000000E+00; -3.3215493E-08;  1.0000000E+04;  0.0000000E+00;  9.9920859E+03;  1.6769236E-01;  0.0000000E+00;  3.7791598E-01;  3.3489487E+03;
  8.6001015E-01;  9.9999998E-03; -3.0008361E-01;2362;  1.4330037E-02;  0.0000000E+00; -7.2554238E-02;  1.0058641E+03;  4.0272343E-01;  4.8540479E+03;3;  1.5407136E+01;  0.0000000E+00; -2.6189545E+01;0;  6.8489099E-01;  9.9973848E+03;  0.0000000E+00;  1.9119569E-05;  1.0000000E+04;  0.0000000E+00;  9.9838564E+03;  1.6480300E-01;  0.0000000E+00;  5.2008802E-01;  7.2241641E+03;
  8.6001021E-01;  9.9999998E-03; -2.8007475E-01;2363;  1.4581673E-02;  0.0000000E+00; -7.2547048E-02;  1.0058309E+03;  4.0272346E-01;  4.8266157E+03;3;  1.4974050E+01;  0.0000000E+00; -3.2846188E+01;0;  7.9959249E-01;  9.9974053E+03;  0.0000000E+00;  3.6549969E-05;  1.0000000E+04;  0.0000000E+00;  9.9831777E+03;  1.6333684E-01;  0.0000000E+00;  6.3625562E-01;  7.3853613E+03;
  8.6001021E-01;  9.9999998E-03; -2.6005566E-01;2364;  1.4593952E-02;  0.0000000E+00; -6.4020358E-02;  1.0059745E+03;  4.0272328E-01;  4.9455220E+03;3;  1.4416988E+01;  0.0000000E+00; -4.2648453E+01;0;  7.4288148E-01;  9.9974346E+03;  0.0000000E+00;  2.9013401E-05;  1.0000000E+04;  0.0000000E+00;  9.9860078E+03;  1.6102912E-01;  0.0000000E+00;  5.8185238E-01;  6.0545156E+03;
  8.6001009E-01;  9.9999998E-03; -2.4003510E-01;2365;  1.4347453E-02;  0.0000000E+00; -4.6887562E-02;  1.0060986E+03;  4.0272319E-01;  5.0482451E+03;3;  1.3752070E+01;  0.0000000E+00; -3.9820366E+01;0;  6.5236658E-01;  9.9974795E+03;  0.0000000E+00;  1.3712710E-05;  1.0000000E+04;  0.0000000E+00;  9.9884346E+03;  1.5774523E-01;  0.0000000E+00;  4.9462137E-01;  4.9796797E+03;
  8.6000985E-01;  9.9999998E-03; -2.2002126E-01;2366;  1.3894686E-02;  0.0000000E+00; -3.2876104E-02;  1.0061957E+03;  4.0272304E-01;  5.1286675E+03;3;  1.3009417E+01;  0.0000000E+00; -3.3548409E+01;0;  5.8674902E-01;  9.9975332E+03;  0.0000000E+00;  3.6938825E-06;  1.0000000E+04;  0.0000000E+00;  9.9903135E+03;  1.5347701E-01;  0.0000000E+00;  4.3327200E-01;  4.1379941E+03;
  8.6000955E-01;  9.9999998E-03; -2.0001364E-01;2367;  1.3329413E-02;  0.0000000E+00; -2.4040407E-02;  1.0063008E+03;  4.0272295E-01;  5.2156025E+03;3;  1.2235425E+01;  0.0000000E+00; -2.8031126E+01;0;  5.1435077E-01;  9.9975957E+03;  0.0000000E+00;  6.2355603E-08;  1.0000000E+04;  0.0000000E+00;  9.9923389E+03;  1.4843041E-01;  0.0000000E+00;  3.6592039E-01;  3.2312317E+03;
  8.8001293E-01;  9.9999998E-03; -3.0007991E-01;2393;  1.8296350E-02;  0.0000000E+00; -6.9509923E-02;  1.0055909E+03;  4.0259290E-01;  4.6265850E+03;3;  1.9718857E+01;  0.0000000E+00; -2.5391996E+01;0;  6.4303881E-01;  9.9977051E+03;  0.0000000E+00;  3.3319098E-05;  1.0000000E+04;  0.0000000E+00;  9.9845859E+03;  1.4461879E-01;  0.0000000E+00;  4.9842000E-01;  6.8650806E+03;
  8.8001305E-01;  9.9999998E-03; -2.8007135E-01;2394;  1.8613435E-02;  0.0000000E+00; -6.9376901E-02;  1.0055593E+03;  4.0259293E-01;  4.6003442E+03;3;  1.9158934E+01;  0.0000000E+00; -3.1604698E+01;0;  7.5167489E-01;  9.9977295E+03;  0.0000000E+00;  5.9996892E-05;  1.0000000E+04;  0.0000000E+00;  9.9839346E+03;  1.4279407E-01;  0.0000000E+00;  6.0888082E-01;  7.0212158E+03;
  8.8001305E-01;  9.9999998E-03; -2.6005310E-01;2395;  1.8629046E-02;  0.0000000E+00; -6.1110321E-02;  1.0056963E+03;  4.0259275E-01;  4.7137896E+03;3;  1.8445179E+01;  0.0000000E+00; -4.0783535E+01;0;  6.9692451E-01;  9.9977676E+03;  0.0000000E+00;  4.7143141E-05;  1.0000000E+04;  0.0000000E+00;  9.9866260E+03;  1.4012088E-01;  0.0000000E+00;  5.5680364E-01;  5.7611621E+03;
  8.8001287E-01;  9.9999998E-03; -2.4003346E-01;2396;  1.8320311E-02;  0.0000000E+00; -4.4722706E-02;  1.0058149E+03;  4.0259263E-01;  4.8119443E+03;3;  1.7600147E+01;  0.0000000E+00; -3.8015068E+01;0;  6.1014044E-01;  9.9978164E+03;  0.0000000E+00;  2.2316048E-05;  1.0000000E+04;  0.0000000E+00;  9.9889365E+03;  1.3649645E-01;  0.0000000E+00;  4.7364402E-01;  4.7422954E+03;
  8.8001257E-01;  9.9999998E-03; -2.2002026E-01;2397;  1.7752774E-02;  0.0000000E+00; -3.1353489E-02;  1.0059081E+03;  4.0259254E-01;  4.8890869E+03;3;  1.6661123E+01;  0.0000000E+00; -3.2016487E+01;0;  5.4675639E-01;  9.9978750E+03;  0.0000000E+00;  6.1069732E-06;  1.0000000E+04;  0.0000000E+00;  9.9907314E+03;  1.3195205E-01;  0.0000000E+00;  4.1480431E-01;  3.9410681E+03;
  8.8001221E-01;  9.9999998E-03; -2.0001301E-01;2398;  1.7042862E-02;  0.0000000E+00; -2.2930797E-02;  1.0060090E+03;  4.0259242E-01;  4.9725430E+03;3;  1.5684449E+01;  0.0000000E+00; -2.6751999E+01;0;  4.7682196E-01;  9.9979443E+03;  0.0000000E+00;  1.9449611E-07;  1.0000000E+04;  0.0000000E+00;  9.9926758E+03;  1.2673484E-01;  0.0000000E+00;  3.5008714E-01;  3.0766462E+03;
  9.0001529E-01;  9.9999998E-03; -3.0007529E-01;2424;  2.1732941E-02;  0.0000000E+00; -6.5703429E-02;  1.0052482E+03;  4.0242985E-01;  4.3412100E+03;3;  2.3469278E+01;  0.0000000E+00; -2.4359175E+01;0;  5.9226143E-01;  9.9980654E+03;  0.0000000E+00;  4.9363400E-05;  1.0000000E+04;  0.0000000E+00;  9.9855117E+03;  1.2203225E-01;  0.0000000E+00;  4.7022921E-01;  6.4126309E+03;
  9.0001547E-01;  9.9999998E-03; -2.8006715E-01;2425;  2.2100171E-02;  0.0000000E+00; -6.5404221E-02;  1.0052184E+03;  4.0242985E-01;  4.3165581E+03;3;  2.2791185E+01;  0.0000000E+00; -3.0004305E+01;0;  6.9349855E-01;  9.9981016E+03;  0.0000000E+00;  8.5101557E-05;  1.0000000E+04;  0.0000000E+00;  9.9848818E+03;  1.1959247E-01;  0.0000000E+00;  5.7390606E-01;  6.5664434E+03;
  9.0001547E-01;  9.9999998E-03; -2.6004988E-01;2426;  2.2113906E-02;  0.0000000E+00; -5.7472330E-02;  1.0053467E+03;  4.0242973E-01;  4.4227588E+03;3;  2.1934244E+01;  0.0000000E+00; -3.8422859E+01;0;  6.4163023E-01;  9.9981494E+03;  0.0000000E+00;  6.6224253E-05;  1.0000000E+04;  0.0000000E+00;  9.9873916E+03;  1.1625598E-01;  0.0000000E+00;  5.2537423E-01;  5.3988994E+03;
  9.0001523E-01;  9.9999998E-03; -2.4003144E-01;2427;  2.1746121E-02;  0.0000000E+00; -4.2032067E-02;  1.0054582E+03;  4.0242958E-01;  4.5149570E+03;3;  2.0925713E+01;  0.0000000E+00; -3.5761753E+01;0;  5.5968058E-01;  9.9982080E+03;  0.0000000E+00;  3.1255833E-05;  1.0000000E+04;  0.0000000E+00;  9.9895518E+03;  1.1195268E-01;  0.0000000E+00;  4.4772792E-01;  4.4519043E+03;
  9.0001488E-01;  9.9999998E-03; -2.2001904E-01;2428;  2.1074655E-02;  0.0000000E+00; -2.9478014E-02;  1.0055468E+03;  4.0242955E-01;  4.5882227E+03;3;  1.9809839E+01;  0.0000000E+00; -3.0129110E+01;0;  4.9897856E-01;  9.9982783E+03;  0.0000000E+00;  8.5872916E-06;  1.0000000E+04;  0.0000000E+00;  9.9912451E+03;  1.0679582E-01;  0.0000000E+00;  3.9218274E-01;  3.7012673E+03;
  9.0001446E-01;  9.9999998E-03; -2.0001224E-01;2429;  2.0236358E-02;  0.0000000E+00; -2.1575930E-02;  1.0056429E+03;  4.0242946E-01;  4.6677012E+03;3;  1.8652971E+01;  0.0000000E+00; -2.5191010E+01;0;  4.3189746E-01;  9.9983555E+03;  0.0000000E+00;  3.2395948E-07;  1.0000000E+04;  0.0000000E+00;  9.9930840E+03;  1.0113637E-01;  0.0000000E+00;  3.3076108E-01;  2.8886975E+03;
  9.2001718E-01;  9.9999998E-03; -3.0006999E-01;2455;  2.4384864E-02;  0.0000000E+00; -6.1314538E-02;  1.0048538E+03;  4.0224272E-01;  4.0127207E+03;3;  2.6384632E+01;  0.0000000E+00; -2.3147465E+01;0;  5.3571510E-01;  9.9984453E+03;  0.0000000E+00;  6.3197534E-05;  1.0000000E+04;  0.0000000E+00;  9.9865830E+03;  9.8398887E-02;  0.0000000E+00;  4.3731621E-01;  5.8889253E+03;
  9.2001724E-01;  9.9999998E-03; -2.8006229E-01;2456;  2.4619419E-02;  0.0000000E+00; -6.0747385E-02;  1.0048263E+03;  4.0224269E-01;  3.9900532E+03;3;  2.5283894E+01;  0.0000000E+00; -2.7957634E+01;0;  6.2751758E-01;  9.9984951E+03;  0.0000000E+00;  1.0728465E-04;  1.0000000E+04;  0.0000000E+00;  9.9859863E+03;  9.4986580E-02;  0.0000000E+00;  5.3253102E-01;  6.0387441E+03;
  9.2001730E-01;  9.9999998E-03; -2.6004621E-01;2457;  2.4794359E-02;  0.0000000E+00; -5.3267919E-02;  1.0049443E+03;  4.0224263E-01;  4.0876216E+03;3;  2.4637806E+01;  0.0000000E+00; -3.5673088E+01;0;  5.7947087E-01;  9.9985596E+03;  0.0000000E+00;  8.2198851E-05;  1.0000000E+04;  0.0000000E+00;  9.9882773E+03;  9.0587355E-02;  0.0000000E+00;  4.8888353E-01;  4.9807593E+03;
  9.2001706E-01;  9.9999998E-03; -2.4002911E-01;2458;  2.4375258E-02;  0.0000000E+00; -3.8926162E-02;  1.0050480E+03;  4.0224254E-01;  4.1732651E+03;3;  2.3496180E+01;  0.0000000E+00; -3.3148880E+01;0;  5.0299537E-01;  9.9986387E+03;  0.0000000E+00;  3.8424845E-05;  1.0000000E+04;  0.0000000E+00;  9.9902588E+03;  8.5205123E-02;  0.0000000E+00;  4.1779026E-01;  4.1177256E+03;
  9.2001665E-01;  9.9999998E-03; -2.2001764E-01;2459;  2.3594508E-02;  0.0000000E+00; -2.7318221E-02;  1.0051314E+03;  4.0224245E-01;  4.2422529E+03;3;  2.2208946E+01;  0.0000000E+00; -2.7950943E+01;0;  4.4524843E-01;  9.9987246E+03;  0.0000000E+00;  1.0430861E-05;  1.0000000E+04;  0.0000000E+00;  9.9918320E+03;  7.9099551E-02;  0.0000000E+00;  3.6614889E-01;  3.4259019E+03;
  9.2001611E-01;  9.9999998E-03; -2.0001134E-01;2460;  2.2549270E-02;  0.0000000E+00; -2.0027544E-02;  1.0052220E+03;  4.0224236E-01;  4.3171543E+03;3;  2.0783184E+01;  0.0000000E+00; -2.3403727E+01;0;  3.8136211E-01;  9.9988154E+03;  0.0000000E+00;  3.5856567E-07;  1.0000000E+04;  0.0000000E+00;  9.9935498E+03;  7.2787493E-02;  0.0000000E+00;  3.0857462E-01;  2.6731956E+03;
  9.4001836E-01;  9.9999998E-03; -3.0006421E-01;2486;  2.6142897E-02;  0.0000000E+00; -5.6564994E-02;  1.0044244E+03;  4.0204039E-01;  3.6550349E+03;3;  2.8399048E+01;  0.0000000E+00; -2.1895355E+01;0;  4.7845274E-01;  9.9987881E+03;  0.0000000E+00;  7.1830465E-05;  1.0000000E+04;  0.0000000E+00;  9.9877500E+03;  7.6895572E-02;  0.0000000E+00;  4.0155718E-01;  5.3168540E+03;
  9.4001842E-01;  9.9999998E-03; -2.8005701E-01;2487;  2.6257917E-02;  0.0000000E+00; -5.5700507E-02;  1.0044000E+03;  4.0204045E-01;  3.6349446E+03;3;  2.6955225E+01;  0.0000000E+00; -2.5786636E+01;0;  5.5947590E-01;  9.9988623E+03;  0.0000000E+00;  1.4706646E-04;  1.0000000E+04;  0.0000000E+00;  9.9871914E+03;  7.2061479E-02;  0.0000000E+00;  4.8741442E-01;  5.4613867E+03;
  9.4001848E-01;  9.9999998E-03; -2.6004222E-01;2488;  2.6529213E-02;  0.0000000E+00; -4.8683826E-02;  1.0045074E+03;  4.0204036E-01;  3.7236763E+03;3;  2.6415522E+01;  0.0000000E+00; -3.2660454E+01;0;  5.1501209E-01;  9.9989521E+03;  0.0000000E+00;  9.7829354E-05;  1.0000000E+04;  0.0000000E+00;  9.9892441E+03;  6.6124216E-02;  0.0000000E+00;  4.4888785E-01;  4.5220894E+03;
  9.4001824E-01;  9.9999998E-03; -2.4002656E-01;2489;  2.6049783E-02;  0.0000000E+00; -3.5530910E-02;  1.0046025E+03;  4.0204021E-01;  3.8021660E+03;3;  2.5156641E+01;  0.0000000E+00; -3.0280491E+01;0;  4.4424868E-01;  9.9990566E+03;  0.0000000E+00;  4.1974312E-05;  1.0000000E+04;  0.0000000E+00;  9.9910332E+03;  5.9247065E-02;  0.0000000E+00;  3.8500160E-01;  3.7513481E+03;
  9.4001764E-01;  9.9999998E-03; -2.2001612E-01;2490;  2.4890454E-02;  0.0000000E+00; -2.4968127E-02;  1.0046802E+03;  4.0204021E-01;  3.8664749E+03;3;  2.3362551E+01;  0.0000000E+00; -2.5577904E+01;0;  3.8964421E-01;  9.9991670E+03;  0.0000000E+00;  1.1177536E-05;  1.0000000E+04;  0.0000000E+00;  9.9924736E+03;  5.1909253E-02;  0.0000000E+00;  3.3773494E-01;  3.1247266E+03;
  9.4001681E-01;  9.9999998E-03; -2.0001040E-01;2491;  2.3426875E-02;  0.0000000E+00; -1.8371962E-02;  1.0047650E+03;  4.0204015E-01;  3.9364951E+03;3;  2.1468292E+01;  0.0000000E+00; -2.1476128E+01;0;  3.2924849E-01;  9.9992725E+03;  0.0000000E+00;  3.6282847E-07;  1.0000000E+04;  0.0000000E+00;  9.9940586E+03;  4.4823255E-02;  0.0000000E+00;  2.8442523E-01;  2.4380742E+03;
  9.6001911E-01;  9.9999998E-03; -3.0005825E-01;2517;  2.7286397E-02;  0.0000000E+00; -5.1673412E-02;  1.0039769E+03;  4.0183184E-01;  3.2820781E+03;3;  2.9866810E+01;  0.0000000E+00; -2.0678345E+01;0;  4.2552873E-01;  9.9990459E+03;  0.0000000E+00;  7.2116141E-05;  1.0000000E+04;  0.0000000E+00;  9.9889609E+03;  6.0635172E-02;  0.0000000E+00;  3.6489356E-01;  4.7190669E+03;
  9.6001911E-01;  9.9999998E-03; -2.8005159E-01;2518;  2.7353974E-02;  0.0000000E+00; -5.0558768E-02;  1.0039557E+03;  4.0183178E-01;  3.2646641E+03;3;  2.8187878E+01;  0.0000000E+00; -2.3690821E+01;0;  4.9539477E-01;  9.9991494E+03;  0.0000000E+00;  9.9037390E-04;  1.0000000E+04;  0.0000000E+00;  9.9884336E+03;  5.3953364E-02;  0.0000000E+00;  4.4144142E-01;  4.8608521E+03;
  9.6001905E-01;  9.9999998E-03; -2.6003808E-01;2519;  2.7394565E-02;  0.0000000E+00; -4.3920930E-02;  1.0040530E+03;  4.0183172E-01;  3.3449453E+03;3;  2.7338371E+01;  0.0000000E+00; -2.9509733E+01;0;  4.5325589E-01;  9.9992744E+03;  0.0000000E+00;  8.1885111E-04;  1.0000000E+04;  0.0000000E+00;  9.9902529E+03;  4.6085887E-02;  0.0000000E+00;  4.0717000E-01;  4.0409199E+03;
  9.6001863E-01;  9.9999998E-03; -2.4002391E-01;2520;  2.6604554E-02;  0.0000000E+00; -3.1991363E-02;  1.0041396E+03;  4.0183166E-01;  3.4163721E+03;3;  2.5682623E+01;  0.0000000E+00; -2.7276510E+01;0;  3.8815981E-01;  9.9994111E+03;  0.0000000E+00;  2.9366207E-04;  1.0000000E+04;  0.0000000E+00;  9.9918408E+03;  3.7412845E-02;  0.0000000E+00;  3.5074696E-01;  3.3663242E+03;
  9.6001774E-01;  9.9999998E-03; -2.2001453E-01;2521;  2.5044980E-02;  0.0000000E+00; -2.2525815E-02;  1.0042116E+03;  4.0183160E-01;  3.4758940E+03;3;  2.3443392E+01;  0.0000000E+00; -2.3104164E+01;0;  3.3680063E-01;  9.9995469E+03;  0.0000000E+00;  3.2915977E-05;  1.0000000E+04;  0.0000000E+00;  9.9931416E+03;  2.8652325E-02;  0.0000000E+00;  3.0814832E-01;  2.8090759E+03;
  9.6001679E-01;  9.9999998E-03; -2.0000945E-01;2522;  2.3355693E-02;  0.0000000E+00; -1.6665032E-02;  1.0042903E+03;  4.0183166E-01;  3.5408276E+03;3;  2.1364759E+01;  0.0000000E+00; -1.9477331E+01;0;  2.8006065E-01;  9.9996709E+03;  0.0000000E+00;  3.5014457E-07;  1.0000000E+04;  0.0000000E+00;  9.9945850E+03;  2.0689849E-02;  0.0000000E+00;  2.5937080E-01;  2.1926064E+03;
  9.8001975E-01;  9.9999998E-03; -3.0005231E-01;2548;  2.8317317E-02;  0.0000000E+00; -4.6803642E-02;  1.0035285E+03;  4.0162498E-01;  2.9081736E+03;3;  3.1084755E+01;  0.0000000E+00; -1.9385309E+01;0;  3.7919089E-01;  9.9991963E+03;  0.0000000E+00;  3.1754338E-05;  1.0000000E+04;  0.0000000E+00;  9.9901748E+03;  5.0796062E-02;  0.0000000E+00;  3.2839483E-01;  4.1169741E+03;
  9.8001957E-01;  9.9999998E-03; -2.8004619E-01;2549;  2.8114522E-02;  0.0000000E+00; -4.5475565E-02;  1.0035104E+03;  4.0162492E-01;  2.8933374E+03;3;  2.9209526E+01;  0.0000000E+00; -2.1727789E+01;0;  4.3790495E-01;  9.9993359E+03;  0.0000000E+00;  4.2845625E-03;  1.0000000E+04;  0.0000000E+00;  9.9896748E+03;  4.2056654E-02;  0.0000000E+00;  3.9584830E-01;  4.2570801E+03;
  9.8001927E-01;  9.9999998E-03; -2.6003397E-01;2550;  2.7707659E-02;  0.0000000E+00; -3.9191976E-02;  1.0035977E+03;  4.0162483E-01;  2.9652581E+03;3;  2.7717484E+01;  0.0000000E+00; -2.6344440E+01;0;  3.9787978E-01;  9.9994961E+03;  0.0000000E+00;  4.0885392E-03;  1.0000000E+04;  0.0000000E+00;  9.9912549E+03;  3.2123350E-02;  0.0000000E+00;  3.6575642E-01;  3.5579114E+03;
  9.8001856E-01;  9.9999998E-03; -2.4002132E-01;2551;  2.6543317E-02;  0.0000000E+00; -2.8482297E-02;  1.0036759E+03;  4.0162477E-01;  3.0297119E+03;3;  2.5624121E+01;  0.0000000E+00; -2.4271910E+01;0;  3.3829010E-01;  9.9996680E+03;  0.0000000E+00;  1.9267483E-03;  1.0000000E+04;  0.0000000E+00;  9.9926455E+03;  2.1607412E-02;  0.0000000E+00;  3.1668270E-01;  2.9783511E+03;
  9.8001748E-01;  9.9999998E-03; -2.2001296E-01;2552;  2.4681242E-02;  0.0000000E+00; -2.0101180E-02;  1.0037422E+03;  4.0162480E-01;  3.0843403E+03;3;  2.3133051E+01;  0.0000000E+00; -2.0630432E+01;0;  2.9017109E-01;  9.9998301E+03;  0.0000000E+00;  4.7207624E-04;  1.0000000E+04;  0.0000000E+00;  9.9938037E+03;  1.1423537E-02;  0.0000000E+00;  2.7874756E-01;  2.4913367E+03;
  9.8001641E-01;  9.9999998E-03; -2.0000850E-01;2553;  2.2881960E-02;  0.0000000E+00; -1.4963892E-02;  1.0038147E+03;  4.0162477E-01;  3.1440784E+03;3;  2.0988708E+01;  0.0000000E+00; -1.7466413E+01;0;  2.3710276E-01;  9.9999746E+03;  0.0000000E+00;  3.9830207E-05;  1.0000000E+04;  0.0000000E+00;  9.9951035E+03;  2.5488867E-03;  0.0000000E+00;  2.3455387E-01;  1.9466671E+03;
  1.0000207E+00;  9.9999998E-03; -3.0004659E-01;2579;  2.9670613E-02;  0.0000000E+00; -4.2065285E-02;  1.0030959E+03;  4.0142652E-01;  2.5470444E+03;3;  3.2476456E+01;  0.0000000E+00; -1.8047379E+01;0;  3.3818868E-01;  9.9992549E+03;  0.0000000E+00; -8.4425451E-04;  1.0000000E+04;  0.0000000E+00;  9.9913691E+03;  4.6301026E-02;  0.0000000E+00;  2.9188764E-01;  3.5233240E+03;
  1.0000201E+00;  9.9999998E-03; -2.8004101E-01;2580;  2.8896177E-02;  0.0000000E+00; -4.0528484E-02;  1.0030798E+03;  4.0142661E-01;  2.5338042E+03;3;  3.0141380E+01;  0.0000000E+00; -1.9694530E+01;0;  3.8674650E-01;  9.9994346E+03;  0.0000000E+00;  1.0586686E-02;  1.0000000E+04;  0.0000000E+00;  9.9908740E+03;  3.5463762E-02;  0.0000000E+00;  3.5128275E-01;  3.6691399E+03;
  1.0000193E+00;  9.9999998E-03; -2.6003012E-01;2581;  2.7880717E-02;  0.0000000E+00; -3.4706034E-02;  1.0031564E+03;  4.0142652E-01;  2.5968674E+03;3;  2.7964247E+01;  0.0000000E+00; -2.3290522E+01;0;  3.5015535E-01;  9.9996279E+03;  0.0000000E+00;  1.1034623E-02;  1.0000000E+04;  0.0000000E+00;  9.9922080E+03;  2.3598390E-02;  0.0000000E+00;  3.2655695E-01;  3.0927056E+03;
  1.0000184E+00;  9.9999998E-03; -2.4001890E-01;2582;  2.6297329E-02;  0.0000000E+00; -2.5196288E-02;  1.0032268E+03;  4.0142646E-01;  2.6547332E+03;3;  2.5423752E+01;  0.0000000E+00; -2.1410879E+01;0;  2.9597196E-01;  9.9998281E+03;  0.0000000E+00;  5.6874226E-03;  1.0000000E+04;  0.0000000E+00;  9.9934121E+03;  1.1524312E-02;  0.0000000E+00;  2.8444764E-01;  2.6026370E+03;
  1.0000170E+00;  9.9999998E-03; -2.2001152E-01;2583;  2.4093492E-02;  0.0000000E+00; -1.7815787E-02;  1.0032875E+03;  4.0142646E-01;  2.7047522E+03;3;  2.2655964E+01;  0.0000000E+00; -1.8257080E+01;0;  2.5110960E-01;  1.0000016E+04;  0.0000000E+00;  1.6278016E-03;  1.0000000E+04;  0.0000000E+00;  9.9944346E+03;  2.3580750E-04;  0.0000000E+00;  2.5087380E-01;  2.1833750E+03;
  1.0000159E+00;  9.9999998E-03; -2.0000760E-01;2584;  2.2169081E-02;  0.0000000E+00; -1.3354926E-02;  1.0033537E+03;  4.0142637E-01;  2.7591848E+03;3;  2.0441826E+01;  0.0000000E+00; -1.5568288E+01;0;  2.0179109E-01;  1.0000176E+04;  0.0000000E+00;  2.0351019E-04;  1.0000000E+04;  0.0000000E+00;  9.9955957E+03; -9.3375631E-03;  0.0000000E+00;  2.1112865E-01;  1.7097048E+03;
  1.0200223E+00;  9.9999998E-03; -3.0004120E-01;2610;  3.1734519E-02;  0.0000000E+00; -3.7639879E-02;  1.0026937E+03;  4.0124214E-01;  2.2108115E+03;3;  3.4657455E+01;  0.0000000E+00; -1.6958021E+01;0;  3.0100635E-01;  9.9992617E+03;  0.0000000E+00; -3.2525735E-03;  1.0000000E+04;  0.0000000E+00;  9.9925322E+03;  4.4986654E-02;  0.0000000E+00;  2.5601968E-01;  2.9461829E+03;
  1.0200210E+00;  9.9999998E-03; -2.8003624E-01;2611;  3.0207822E-02;  0.0000000E+00; -3.5938710E-02;  1.0026776E+03;  4.0124217E-01;  2.1976033E+03;3;  3.1609741E+01;  0.0000000E+00; -1.7788883E+01;0;  3.4121972E-01;  9.9994814E+03;  0.0000000E+00;  1.7085651E-02;  1.0000000E+04;  0.0000000E+00;  9.9919951E+03;  3.1793449E-02;  0.0000000E+00;  3.0942628E-01;  3.1155227E+03;
  1.0200197E+00;  9.9999998E-03; -2.6002672E-01;2612;  2.8251233E-02;  0.0000000E+00; -3.0668847E-02;  1.0027432E+03;  4.0124214E-01;  2.2514160E+03;3;  2.8425131E+01;  0.0000000E+00; -2.0484671E+01;0;  3.0935222E-01;  9.9997061E+03;  0.0000000E+00;  1.9596696E-02;  1.0000000E+04;  0.0000000E+00;  9.9930752E+03;  1.8161533E-02;  0.0000000E+00;  2.9119068E-01;  2.6617551E+03;
  1.0200182E+00;  9.9999998E-03; -2.4001685E-01;2613;  2.6002707E-02;  0.0000000E+00; -2.2336686E-02;  1.0028062E+03;  4.0124214E-01;  2.3031743E+03;3;  2.5167284E+01;  0.0000000E+00; -1.8865629E+01;0;  2.6054883E-01;  9.9999258E+03;  0.0000000E+00;  1.0204612E-02;  1.0000000E+04;  0.0000000E+00;  9.9941143E+03;  5.1429374E-03;  0.0000000E+00;  2.5540590E-01;  2.2514480E+03;
  1.0200166E+00;  9.9999998E-03; -2.2001030E-01;2614;  2.3389859E-02;  0.0000000E+00; -1.5834400E-02;  1.0028613E+03;  4.0124211E-01;  2.3484753E+03;3;  2.2095137E+01;  0.0000000E+00; -1.6148615E+01;0;  2.1913771E-01;  1.0000125E+04;  0.0000000E+00;  2.6195867E-03;  1.0000000E+04;  0.0000000E+00;  9.9950137E+03; -6.5136733E-03;  0.0000000E+00;  2.2565138E-01;  1.8945964E+03;
  1.0200152E+00;  9.9999998E-03; -2.0000684E-01;2615;  2.1346971E-02;  0.0000000E+00; -1.1922159E-02;  1.0029213E+03;  4.0124205E-01;  2.3975920E+03;3;  1.9822309E+01;  0.0000000E+00; -1.3829340E+01;0;  1.7389508E-01;  1.0000294E+04;  0.0000000E+00;  8.2214036E-05;  1.0000000E+04;  0.0000000E+00;  9.9960410E+03; -1.6170898E-02;  0.0000000E+00;  1.9006598E-01;  1.4892712E+03;
  1.0400245E+00;  9.9999998E-03; -3.0003631E-01;2641;  3.4949344E-02;  0.0000000E+00; -3.3733379E-02;  1.0023304E+03;  4.0107539E-01;  1.9065442E+03;3;  3.8290623E+01;  0.0000000E+00; -1.6353682E+01;0;  2.6909494E-01;  9.9992217E+03;  0.0000000E+00; -4.2112870E-03;  1.0000000E+04;  0.0000000E+00;  9.9936357E+03;  4.6362180E-02;  0.0000000E+00;  2.2273275E-01;  2.4007258E+03;
  1.0400224E+00;  9.9999998E-03; -2.8003204E-01;2642;  3.2168131E-02;  0.0000000E+00; -3.1858698E-02;  1.0023138E+03;  4.0107539E-01;  1.8928914E+03;3;  3.3796654E+01;  0.0000000E+00; -1.6165051E+01;0;  3.0016184E-01;  9.9995146E+03;  0.0000000E+00;  1.6743757E-02;  1.0000000E+04;  0.0000000E+00;  9.9930156E+03;  2.8982891E-02;  0.0000000E+00;  2.7117896E-01;  2.6060247E+03;
  1.0400201E+00;  9.9999998E-03; -2.6002392E-01;2643;  2.8957419E-02;  0.0000000E+00; -2.7256960E-02;  1.0023679E+03;  4.0107539E-01;  1.9371692E+03;3;  2.9235044E+01;  0.0000000E+00; -1.8067167E+01;0;  2.7396423E-01;  9.9997754E+03;  0.0000000E+00;  2.3182776E-02;  1.0000000E+04;  0.0000000E+00;  9.9938311E+03;  1.3237571E-02;  0.0000000E+00;  2.6072666E-01;  2.2746226E+03;
  1.0400180E+00;  9.9999998E-03; -2.4001530E-01;2644;  2.5741974E-02;  0.0000000E+00; -2.0061335E-02;  1.0024241E+03;  4.0107542E-01;  1.9832024E+03;3;  2.4993910E+01;  0.0000000E+00; -1.6743250E+01;0;  2.3036671E-01;  1.0000002E+04;  0.0000000E+00;  1.1265521E-02;  1.0000000E+04;  0.0000000E+00;  9.9947295E+03; -3.1938143E-05;  0.0000000E+00;  2.3039864E-01;  1.9319733E+03;
  1.0400159E+00;  9.9999998E-03; -2.2000942E-01;2645;  2.2689493E-02;  0.0000000E+00; -1.4289198E-02;  1.0024736E+03;  4.0107536E-01;  2.0236766E+03;3;  2.1563168E+01;  0.0000000E+00; -1.4386066E+01;0;  1.9281831E-01;  1.0000192E+04;  0.0000000E+00;  7.7835820E-04;  1.0000000E+04;  0.0000000E+00;  9.9955244E+03; -1.0929082E-02;  0.0000000E+00;  2.0374739E-01;  1.6304242E+03;
  1.0400145E+00;  9.9999998E-03; -2.0000622E-01;2646;  2.0499686E-02;  0.0000000E+00; -1.0675271E-02;  1.0025268E+03;  4.0107536E-01;  2.0671741E+03;3;  1.9173483E+01;  0.0000000E+00; -1.2231393E+01;0;  1.5226293E-01;  1.0000351E+04;  0.0000000E+00; -1.7209916E-03;  1.0000000E+04;  0.0000000E+00;  9.9964277E+03; -1.9663326E-02;  0.0000000E+00;  1.7192626E-01;  1.2893654E+03;
  1.0600274E+00;  9.9999998E-03; -3.0003196E-01;2672;  3.8662214E-02;  0.0000000E+00; -3.0293474E-02;  1.0020095E+03;  4.0092859E-01;  1.6369579E+03;3;  4.2424847E+01;  0.0000000E+00; -1.6096033E+01;0;  2.4345857E-01;  9.9990996E+03;  0.0000000E+00;  8.5370624E-03;  1.0000000E+04;  0.0000000E+00;  9.9946807E+03;  5.2723698E-02;  0.0000000E+00;  1.9073488E-01;  1.8936733E+03;
  1.0600241E+00;  9.9999998E-03; -2.8002846E-01;2673;  3.4488667E-02;  0.0000000E+00; -2.8411053E-02;  1.0019937E+03;  4.0092859E-01;  1.6240436E+03;3;  3.6312080E+01;  0.0000000E+00; -1.4987043E+01;0;  2.6393551E-01;  9.9995332E+03;  0.0000000E+00;  2.5840017E-03;  1.0000000E+04;  0.0000000E+00;  9.9939287E+03;  2.7009938E-02;  0.0000000E+00;  2.3692556E-01;  2.1452808E+03;
  1.0600208E+00;  9.9999998E-03; -2.6002181E-01;2674;  2.9867066E-02;  0.0000000E+00; -2.4611291E-02;  1.0020367E+03;  4.0092856E-01;  1.6591011E+03;3;  3.0122313E+01;  0.0000000E+00; -1.6231356E+01;0;  2.4327989E-01;  9.9998564E+03;  0.0000000E+00;  1.2891372E-02;  1.0000000E+04;  0.0000000E+00;  9.9944639E+03;  7.5707142E-03;  0.0000000E+00;  2.3570918E-01;  1.9333531E+03;
  1.0600178E+00;  9.9999998E-03; -2.4001431E-01;2675;  2.5541455E-02;  0.0000000E+00; -1.8478762E-02;  1.0020877E+03;  4.0092856E-01;  1.7006649E+03;3;  2.4878376E+01;  0.0000000E+00; -1.5166078E+01;0;  2.0410773E-01;  1.0000084E+04;  0.0000000E+00;  3.6054668E-03;  1.0000000E+04;  0.0000000E+00;  9.9952549E+03; -5.7182806E-03;  0.0000000E+00;  2.0982601E-01;  1.6471265E+03;
  1.0600154E+00;  9.9999998E-03; -2.2000889E-01;2676;  2.2067517E-02;  0.0000000E+00; -1.3180295E-02;  1.0021315E+03;  4.0092856E-01;  1.7363047E+03;3;  2.1137243E+01;  0.0000000E+00; -1.2945391E+01;0;  1.7057505E-01;  1.0000245E+04;  0.0000000E+00; -7.2200638E-03;  1.0000000E+04;  0.0000000E+00;  9.9959678E+03; -1.4643190E-02;  0.0000000E+00;  1.8521824E-01;  1.3922930E+03;
  1.0600139E+00;  9.9999998E-03; -2.0000578E-01;2677;  1.9677499E-02;  0.0000000E+00; -9.6774641E-03;  1.0021776E+03;  4.0092856E-01;  1.7738865E+03;3;  1.8569193E+01;  0.0000000E+00; -1.0843032E+01;0;  1.3556015E-01;  1.0000373E+04;  0.0000000E+00; -7.3543899E-03;  1.0000000E+04;  0.0000000E+00;  9.9967578E+03; -2.1265436E-02;  0.0000000E+00;  1.5682559E-01;  1.1107635E+03;
  1.0800296E+00;  9.9999998E-03; -3.0002815E-01;2703;  4.1266643E-02;  0.0000000E+00; -2.7498987E-02;  1.0017315E+03;  4.0080243E-01;  1.4024728E+03;3;  4.4839737E+01;  0.0000000E+00; -1.6722534E+01;0;  2.2575057E-01;  9.9988721E+03;  0.0000000E+00;  5.7120357E-02;  1.0000000E+04;  0.0000000E+00;  9.9956484E+03;  6.4191923E-02;  0.0000000E+00;  1.6155864E-01;  1.4478370E+03;
  1.0800256E+00;  9.9999998E-03; -2.8002557E-01;2704;  3.6105514E-02;  0.0000000E+00; -2.5775537E-02;  1.0017184E+03;  4.0080252E-01;  1.3918534E+03;3;  3.7728333E+01;  0.0000000E+00; -1.4665017E+01;0;  2.3412183E-01;  9.9995234E+03;  0.0000000E+00; -1.9178918E-02;  1.0000000E+04;  0.0000000E+00;  9.9947334E+03;  2.6360758E-02;  0.0000000E+00;  2.0776108E-01;  1.7362587E+03;
  1.0800215E+00;  9.9999998E-03; -2.6002038E-01;2705;  3.0612117E-02;  0.0000000E+00; -2.2741821E-02;  1.0017514E+03;  4.0080243E-01;  1.4186012E+03;3;  3.0837530E+01;  0.0000000E+00; -1.5043223E+01;0;  2.1750739E-01;  9.9999365E+03;  0.0000000E+00; -1.5198947E-02;  1.0000000E+04;  0.0000000E+00;  9.9949824E+03;  1.7248110E-03;  0.0000000E+00;  2.1578258E-01;  1.6369077E+03;
  1.0800179E+00;  9.9999998E-03; -2.4001391E-01;2706;  2.5452923E-02;  0.0000000E+00; -1.7557014E-02;  1.0017986E+03;  4.0080249E-01;  1.4568394E+03;3;  2.4947374E+01;  0.0000000E+00; -1.4053821E+01;0;  1.8170686E-01;  1.0000173E+04;  0.0000000E+00; -1.6126456E-02;  1.0000000E+04;  0.0000000E+00;  9.9956855E+03; -1.1949450E-02;  0.0000000E+00;  1.9365631E-01;  1.3991750E+03;
  1.0800152E+00;  9.9999998E-03; -2.2000876E-01;2707;  2.1623334E-02;  0.0000000E+00; -1.2533895E-02;  1.0018377E+03;  4.0080246E-01;  1.4885110E+03;3;  2.0921740E+01;  0.0000000E+00; -1.1847118E+01;0;  1.5174678E-01;  1.0000294E+04;  0.0000000E+00; -2.3460757E-02;  1.0000000E+04;  0.0000000E+00;  9.9963438E+03; -1.8135034E-02;  0.0000000E+00;  1.6988182E-01;  1.1816378E+03;
  1.0800133E+00;  9.9999998E-03; -2.0000558E-01;2708;  1.8937467E-02;  0.0000000E+00; -8.9910980E-03;  1.0018760E+03;  4.0080249E-01;  1.5195065E+03;3;  1.8034678E+01;  0.0000000E+00; -9.7489758E+00;0;  1.2275603E-01;  1.0000369E+04;  0.0000000E+00; -1.8860973E-02;  1.0000000E+04;  0.0000000E+00;  9.9970322E+03; -2.1722343E-02;  0.0000000E+00;  1.4447838E-01;  9.5265527E+02;
  1.1000261E+00;  9.9999998E-03; -2.8002325E-01;2734;  3.6443230E-02;  0.0000000E+00; -2.3755617E-02;  1.0014899E+03;  4.0069672E-01;  1.1976844E+03;3;  3.8296265E+01;  0.0000000E+00; -1.4802325E+01;0;  2.0774560E-01;  9.9994990E+03;  0.0000000E+00; -2.1231784E-02;  1.0000000E+04;  0.0000000E+00;  9.9954766E+03;  2.6003161E-02;  0.0000000E+00;  1.8174243E-01;  1.3682560E+03;
  1.1000220E+00;  9.9999998E-03; -2.6001936E-01;2735;  3.1007806E-02;  0.0000000E+00; -2.1356042E-02;  1.0015123E+03;  4.0069669E-01;  1.2157026E+03;3;  3.1550974E+01;  0.0000000E+00; -1.4164447E+01;0;  1.9593248E-01;  9.9999873E+03;  0.0000000E+00; -5.1578686E-02;  1.0000000E+04;  0.0000000E+00;  9.9954326E+03; -2.3062350E-03;  0.0000000E+00;  1.9823872E-01;  1.3780162E+03;
  1.1000180E+00;  9.9999998E-03; -2.4001394E-01;2736;  2.5544947E-02;  0.0000000E+00; -1.7124064E-02;  1.0015549E+03;  4.0069669E-01;  1.2500121E+03;3;  2.5258387E+01;  0.0000000E+00; -1.3283156E+01;0;  1.6431548E-01;  1.0000240E+04;  0.0000000E+00; -4.7124751E-02;  1.0000000E+04;  0.0000000E+00;  9.9960303E+03; -1.6905766E-02;  0.0000000E+00;  1.8122125E-01;  1.1915118E+03;
  1.1000149E+00;  9.9999998E-03; -2.2000898E-01;2737;  2.1369930E-02;  0.0000000E+00; -1.2316692E-02;  1.0015906E+03;  4.0069675E-01;  1.2786671E+03;3;  2.0897070E+01;  0.0000000E+00; -1.1078563E+01;0;  1.3660191E-01;  1.0000322E+04;  0.0000000E+00; -4.7267493E-02;  1.0000000E+04;  0.0000000E+00;  9.9966611E+03; -2.0809025E-02;  0.0000000E+00;  1.5741093E-01;  1.0013899E+03;
  1.1000129E+00;  9.9999998E-03; -2.0000562E-01;2738;  1.8363783E-02;  0.0000000E+00; -8.6447131E-03;  1.0016220E+03;  4.0069675E-01;  1.3038716E+03;3;  1.7682049E+01;  0.0000000E+00; -8.9283762E+00;0;  1.1324205E-01;  1.0000348E+04;  0.0000000E+00; -3.6983330E-02;  1.0000000E+04;  0.0000000E+00;  9.9972637E+03; -2.1129811E-02;  0.0000000E+00;  1.3437186E-01;  8.1509125E+02;
  1.1200260E+00;  9.9999998E-03; -2.8002116E-01;2763;  3.6035046E-02;  0.0000000E+00; -2.1941544E-02;  1.0013076E+03;  4.0060994E-01;  1.0407976E+03;3;  3.8801170E+01;  0.0000000E+00; -1.4851133E+01;0;  1.8289188E-01;  9.9994414E+03;  0.0000000E+00;  2.2537433E-02;  1.0000000E+04;  0.0000000E+00;  9.9962197E+03;  2.7921399E-02;  0.0000000E+00;  1.5497048E-01;  1.0287191E+03;
  1.1200222E+00;  9.9999998E-03; -2.6001853E-01;2764;  3.1138033E-02;  0.0000000E+00; -2.0134995E-02;  1.0013172E+03;  4.0060994E-01;  1.0483907E+03;3;  3.2426235E+01;  0.0000000E+00; -1.3414064E+01;0;  1.7757565E-01;  9.9999639E+03;  0.0000000E+00; -7.2713748E-02;  1.0000000E+04;  0.0000000E+00;  9.9958906E+03; -1.7724568E-03;  0.0000000E+00;  1.7934811E-01;  1.1324358E+03;
  1.1200184E+00;  9.9999998E-03; -2.4001421E-01;2765;  2.5913935E-02;  0.0000000E+00; -1.6896430E-02;  1.0013519E+03;  4.0061000E-01;  1.0760996E+03;3;  2.6141420E+01;  0.0000000E+00; -1.2631544E+01;0;  1.5310949E-01;  1.0000239E+04;  0.0000000E+00; -8.2468927E-02;  1.0000000E+04;  0.0000000E+00;  9.9963066E+03; -1.7727649E-02;  0.0000000E+00;  1.7083713E-01;  1.0207114E+03;
  1.1200150E+00;  9.9999998E-03; -2.2000954E-01;2766;  2.1389371E-02;  0.0000000E+00; -1.2493343E-02;  1.0013862E+03;  4.0060997E-01;  1.1034288E+03;3;  2.1129103E+01;  0.0000000E+00; -1.0659182E+01;0;  1.2627099E-01;  1.0000315E+04;  0.0000000E+00; -7.5537816E-02;  1.0000000E+04;  0.0000000E+00;  9.9969141E+03; -2.1424694E-02;  0.0000000E+00;  1.4769569E-01;  8.5413812E+02;
  1.1200126E+00;  9.9999998E-03; -2.0000596E-01;2767;  1.8038312E-02;  0.0000000E+00; -8.6408546E-03;  1.0014126E+03;  4.0061000E-01;  1.1244000E+03;3;  1.7568005E+01;  0.0000000E+00; -8.3796320E+00;0;  1.0663156E-01;  1.0000297E+04;  0.0000000E+00; -6.0465463E-02;  1.0000000E+04;  0.0000000E+00;  9.9974590E+03; -1.9346414E-02;  0.0000000E+00;  1.2597798E-01;  6.9881061E+02;
  1.1400222E+00;  9.9999998E-03; -2.6001760E-01;2792;  3.1077133E-02;  0.0000000E+00; -1.8987142E-02;  1.0011621E+03;  4.0054044E-01;  9.1309735E+02;3;  3.3249104E+01;  0.0000000E+00; -1.3113083E+01;0;  1.6306992E-01;  9.9998340E+03;  0.0000000E+00; -4.8118927E-02;  1.0000000E+04;  0.0000000E+00;  9.9963945E+03;  5.6588189E-03;  0.0000000E+00;  1.5741110E-01;  8.7521960E+02;
  1.1400187E+00;  9.9999998E-03; -2.4001443E-01;2793;  2.6497481E-02;  0.0000000E+00; -1.6605541E-02;  1.0011854E+03;  4.0054038E-01;  9.3145911E+02;3;  2.7544069E+01;  0.0000000E+00; -1.1898113E+01;0;  1.4810327E-01;  1.0000132E+04;  0.0000000E+00; -1.0583083E-01;  1.0000000E+04;  0.0000000E+00;  9.9965615E+03; -1.1817882E-02;  0.0000000E+00;  1.5992115E-01;  8.6292865E+02;
  1.1400154E+00;  9.9999998E-03; -2.2001034E-01;2794;  2.1859959E-02;  0.0000000E+00; -1.2953511E-02;  1.0012178E+03;  4.0054035E-01;  9.5684613E+02;3;  2.1989180E+01;  0.0000000E+00; -1.0447004E+01;0;  1.2263227E-01;  1.0000240E+04;  0.0000000E+00; -1.0395025E-01;  1.0000000E+04;  0.0000000E+00;  9.9970977E+03; -1.8089661E-02;  0.0000000E+00;  1.4072193E-01;  7.3677856E+02;
  1.1400126E+00;  9.9999998E-03; -2.0000662E-01;2795;  1.8083349E-02;  0.0000000E+00; -9.0417638E-03;  1.0012426E+03;  4.0054038E-01;  9.7642529E+02;3;  1.7792313E+01;  0.0000000E+00; -8.1677675E+00;0;  1.0322416E-01;  1.0000216E+04;  0.0000000E+00; -8.6134605E-02;  1.0000000E+04;  0.0000000E+00;  9.9976182E+03; -1.6013555E-02;  0.0000000E+00;  1.1923771E-01;  6.0343140E+02;
  1.1600221E+00;  9.9999998E-03; -2.6001662E-01;2819;  3.0690916E-02;  0.0000000E+00; -1.7982701E-02;  1.0010398E+03;  4.0048584E-01;  8.0355756E+02;3;  3.3611710E+01;  0.0000000E+00; -1.3323805E+01;0;  1.5436155E-01;  9.9995840E+03;  0.0000000E+00;  4.3997191E-02;  1.0000000E+04;  0.0000000E+00;  9.9969258E+03;  1.9079812E-02;  0.0000000E+00;  1.3528173E-01;  6.4652106E+02;
  1.1600193E+00;  9.9999998E-03; -2.4001446E-01;2820;  2.7030358E-02;  0.0000000E+00; -1.6276268E-02;  1.0010511E+03;  4.0048587E-01;  8.1231207E+02;3;  2.8704041E+01;  0.0000000E+00; -1.1762289E+01;0;  1.4846888E-01;  9.9998877E+03;  0.0000000E+00; -8.9589931E-02;  1.0000000E+04;  0.0000000E+00;  9.9968457E+03;  1.9334126E-03;  0.0000000E+00;  1.4653547E-01;  6.8358459E+02;
  1.1600161E+00;  9.9999998E-03; -2.2001119E-01;2821;  2.2776162E-02;  0.0000000E+00; -1.3461761E-02;  1.0010788E+03;  4.0048581E-01;  8.3378088E+02;3;  2.3473116E+01;  0.0000000E+00; -1.0318225E+01;0;  1.2700811E-01;  1.0000059E+04;  0.0000000E+00; -1.2304582E-01;  1.0000000E+04;  0.0000000E+00;  9.9972305E+03; -8.4471852E-03;  0.0000000E+00;  1.3545530E-01;  6.3101276E+02;
  1.1600132E+00;  9.9999998E-03; -2.0000763E-01;2822;  1.8708494E-02;  0.0000000E+00; -9.8828031E-03;  1.0011051E+03;  4.0048590E-01;  8.5405194E+02;3;  1.8635212E+01;  0.0000000E+00; -8.3689356E+00;0;  1.0505085E-01;  1.0000087E+04;  0.0000000E+00; -1.1001839E-01;  1.0000000E+04;  0.0000000E+00;  9.9977275E+03; -9.8348549E-03;  0.0000000E+00;  1.1488571E-01;  5.2463849E+02;
  1.1800196E+00;  9.9999998E-03; -2.4001427E-01;2846;  2.7175093E-02;  0.0000000E+00; -1.5931815E-02;  1.0009448E+03;  4.0044388E-01;  7.1504309E+02;3;  2.9429987E+01;  0.0000000E+00; -1.2076695E+01;0;  1.5257020E-01;  9.9995537E+03;  0.0000000E+00; -8.0295652E-04;  1.0000000E+04;  0.0000000E+00;  9.9971563E+03;  2.0238560E-02;  0.0000000E+00;  1.3233164E-01;  5.0166125E+02;
  1.1800170E+00;  9.9999998E-03; -2.2001185E-01;2847;  2.3748832E-02;  0.0000000E+00; -1.3863648E-02;  1.0009647E+03;  4.0044388E-01;  7.3011115E+02;3;  2.4950653E+01;  0.0000000E+00; -1.0522395E+01;0;  1.3813029E-01;  9.9997510E+03;  0.0000000E+00; -1.0699821E-01;  1.0000000E+04;  0.0000000E+00;  9.9973535E+03;  8.4468024E-03;  0.0000000E+00;  1.2968349E-01;  5.0478168E+02;
  1.1800143E+00;  9.9999998E-03; -2.0000874E-01;2848;  1.9933973E-02;  0.0000000E+00; -1.0895889E-02;  1.0009917E+03;  4.0044388E-01;  7.5050214E+02;3;  2.0069885E+01;  0.0000000E+00; -8.8962078E+00;0;  1.1472272E-01;  9.9998555E+03;  0.0000000E+00; -1.2490985E-01;  1.0000000E+04;  0.0000000E+00;  9.9977871E+03;  2.0852867E-03;  0.0000000E+00;  1.1263744E-01;  4.4891525E+02;
  1.2000178E+00;  9.9999998E-03; -2.2001219E-01;2871;  2.4344880E-02;  0.0000000E+00; -1.4051051E-02;  1.0008740E+03;  4.0041232E-01;  6.4440051E+02;3;  2.5980927E+01;  0.0000000E+00; -1.1037932E+01;0;  1.5143400E-01;  9.9993691E+03;  0.0000000E+00; -1.5854282E-02;  1.0000000E+04;  0.0000000E+00;  9.9974990E+03;  2.9040556E-02;  0.0000000E+00;  1.2239344E-01;  3.6504678E+02;
  1.2000157E+00;  9.9999998E-03; -2.0000964E-01;2872;  2.1433363E-02;  0.0000000E+00; -1.1722026E-02;  1.0008969E+03;  4.0041232E-01;  6.6127710E+02;3;  2.1720995E+01;  0.0000000E+00; -9.6025629E+00;0;  1.3233128E-01;  9.9994805E+03;  0.0000000E+00; -1.0723040E-01;  1.0000000E+04;  0.0000000E+00;  9.9978447E+03;  2.2048188E-02;  0.0000000E+00;  1.1028310E-01;  3.5139932E+02;
  1.2200181E+00;  9.9999998E-03; -2.2001220E-01;2894;  2.4245778E-02;  0.0000000E+00; -1.3925909E-02;  1.0008064E+03;  4.0038905E-01;  5.7599030E+02;3;  2.6155130E+01;  0.0000000E+00; -1.1550966E+01;0;  1.5973897E-01;  9.9990283E+03;  0.0000000E+00;  1.6341627E-01;  1.0000000E+04;  0.0000000E+00;  9.9976484E+03;  4.5485865E-02;  0.0000000E+00;  1.1425311E-01;  3.4356314E+02;
  1.2200168E+00;  9.9999998E-03; -2.0001023E-01;2895;  2.2438752E-02;  0.0000000E+00; -1.2212663E-02;  1.0008217E+03;  4.0038911E-01;  5.8688989E+02;3;  2.3085888E+01;  0.0000000E+00; -1.0316930E+01;0;  1.5029734E-01;  9.9990713E+03;  0.0000000E+00; -1.5357333E-02;  1.0000000E+04;  0.0000000E+00;  9.9979141E+03;  4.3683711E-02;  0.0000000E+00;  1.0661364E-01;  2.4298322E+02;
 -1.7210192E-09;  9.9999998E-03; -1.8000001E-01;1036; -5.7737830E-06;  0.0000000E+00; -7.2445204E-07;  1.0000001E+03;  4.0000001E-01;  9.8762624E-02;3; -1.2987067E-02;  0.0000000E+00; -1.6621226E-03;0; -1.1670747E-04;  1.0000001E+04;  0.0000000E+00; -4.9499549E-12;  1.0000000E+04;  0.0000000E+00;  1.0000000E+04; -1.2057493E-04;  0.0000000E+00;  3.8674607E-06;  1.2019603E-02;
 -1.7976577E-09;  9.9999998E-03; -1.6000000E-01;1037; -6.0209236E-06;  0.0000000E+00; -6.1147807E-07;  1.0000001E+03;  4.0000001E-01;  9.8762624E-02;3; -1.3522479E-02;  0.0000000E+00; -1.4062484E-03;0; -1.2193236E-04;  1.0000001E+04;  0.0000000E+00;  1.8385965E-12;  1.0000000E+04;  0.0000000E+00;  1.0000000E+04; -1.2579036E-04;  0.0000000E+00;  3.8580015E-06;  1.2085873E-02;
 -1.8579195E-09;  9.9999998E-03; -1.4000000E-01;1038; -6.2124682E-06;  0.0000000E+00; -5.1078416E-07;  1.0000001E+03;  4.0000001E-01;  9.8762624E-02;3; -1.3932610E-02;  0.0000000E+00; -1.1818964E-03;0; -1.2614716E-04;  1.0000001E+04;  0.0000000E+00;  1.7042107E-12;  1.0000000E+04;  0.0000000E+00;  1.0000000E+04; -1.2980754E-04;  0.0000000E+00;  3.6603763E-06;  1.1664560E-02;
 -1.9050708E-09;  9.9999998E-03; -1.2000000E-01;1039; -6.3605576E-06;  0.0000000E+00; -4.1745594E-07;  1.0000001E+03;  4.0000001E-01;  9.8762624E-02;3; -1.4246081E-02;  0.0000000E+00; -9.7232184E-04;0; -1.2947885E-04;  1.0000001E+04;  0.0000000E+00;  2.8891733E-13;  1.0000000E+04;  0.0000000E+00;  1.0000000E+04; -1.3288073E-04;  0.0000000E+00;  3.4018678E-06;  1.1052620E-02;
 -1.9412774E-09;  9.9999998E-03; -1.0000000E-01;1040; -6.4727819E-06;  0.0000000E+00; -3.3376827E-07;  1.0000001E+03;  4.0000001E-01;  9.8762624E-02;3; -1.4480684E-02;  0.0000000E+00; -7.8236603E-04;0; -1.3206415E-04;  1.0000001E+04;  0.0000000E+00; -1.0618694E-13;  1.0000000E+04;  0.0000000E+00;  1.0000000E+04; -1.3520390E-04;  0.0000000E+00;  3.1397492E-06;  1.0397699E-02;
 -1.9685533E-09;  9.9999998E-03; -7.9999998E-02;1041; -6.5564004E-06;  0.0000000E+00; -2.5715872E-07;  1.0000001E+03;  4.0000001E-01;  9.8762624E-02;3; -1.4653842E-02;  0.0000000E+00; -6.0583174E-04;0; -1.3402663E-04;  1.0000001E+04;  0.0000000E+00; -1.7637705E-13;  1.0000000E+04;  0.0000000E+00;  1.0000000E+04; -1.3692753E-04;  0.0000000E+00;  2.9008886E-06;  9.7850477E-03;
 -1.9883926E-09;  9.9999998E-03; -5.9999999E-02;1042; -6.6168909E-06;  0.0000000E+00; -1.8612074E-07;  1.0000001E+03;  4.0000001E-01;  9.8762624E-02;3; -1.4778794E-02;  0.0000000E+00; -4.3935352E-04;0; -1.3546443E-04;  1.0000001E+04;  0.0000000E+00;  9.3849256E-13;  1.0000000E+04;  0.0000000E+00;  1.0000000E+04; -1.3816412E-04;  0.0000000E+00;  2.6996918E-06;  9.2676962E-03;
 -2.0018263E-09;  9.9999998E-03; -3.9999999E-02;1043; -6.6577459E-06;  0.0000000E+00; -1.2069056E-07;  1.0000001E+03;  4.0000001E-01;  9.8762624E-02;3; -1.4863340E-02;  0.0000000E+00; -2.8478404E-04;0; -1.3644823E-04;  1.0000001E+04;  0.0000000E+00;  2.8201267E-13;  1.0000000E+04;  0.0000000E+00;  1.0000000E+04; -1.3899438E-04;  0.0000000E+00;  2.5461459E-06;  8.8780895E-03;
 -2.0096129E-09;  9.9999998E-03; -2.0000000E-02;1044; -6.6814023E-06;  0.0000000E+00; -5.9309212E-08;  1.0000001E+03;  4.0000001E-01;  9.8762624E-02;3; -1.4912392E-02;  0.0000000E+00; -1.4005021E-04;0; -1.3702281E-04;  1.0000001E+04;  0.0000000E+00; -2.3324417E-13;  1.0000000E+04;  0.0000000E+00;  1.0000000E+04; -1.3947205E-04;  0.0000000E+00;  2.4492347E-06;  8.6364737E-03;
  1.9999998E-02;  9.9999998E-03; -1.8000001E-01;1066; -8.9261412E-06;  0.0000000E+00; -1.0895761E-06;  1.0000001E+03;  4.0000001E-01;  9.8762624E-02;3; -1.9483786E-02;  0.0000000E+00; -2.4261721E-03;0; -1.6188140E-04;  1.0000001E+04;  0.0000000E+00;  2.7457470E-12;  1.0000000E+04;  0.0000000E+00;  1.0000000E+04; -1.6790869E-04;  0.0000000E+00;  6.0272855E-06;  1.8942153E-02;
  1.9999998E-02;  9.9999998E-03; -1.6000000E-01;1067; -9.2897599E-06;  0.0000000E+00; -9.1987050E-07;  1.0000001E+03;  4.0000001E-01;  9.8762624E-02;3; -2.0240959E-02;  0.0000000E+00; -2.0517332E-03;0; -1.6876811E-04;  1.0000001E+04;  0.0000000E+00;  5.5462505E-12;  1.0000000E+04;  0.0000000E+00;  1.0000000E+04; -1.7475283E-04;  0.0000000E+00;  5.9847293E-06;  1.8933551E-02;
  1.9999998E-02;  9.9999998E-03; -1.4000000E-01;1068; -9.5693858E-06;  0.0000000E+00; -7.6698177E-07;  1.0000001E+03;  4.0000001E-01;  9.8762624E-02;3; -2.0813745E-02;  0.0000000E+00; -1.7191932E-03;0; -1.7430935E-04;  1.0000001E+04;  0.0000000E+00;  7.6829943E-13;  1.0000000E+04;  0.0000000E+00;  1.0000000E+04; -1.7997395E-04;  0.0000000E+00;  5.6646036E-06;  1.8191988E-02;
  1.9999998E-02;  9.9999998E-03; -1.2000000E-01;1069; -9.7841148E-06;  0.0000000E+00; -6.2629516E-07;  1.0000001E+03;  4.0000001E-01;  9.8762624E-02;3; -2.1246377E-02;  0.0000000E+00; -1.4112010E-03;0; -1.7867287E-04;  1.0000001E+04;  0.0000000E+00;  2.2013221E-14;  1.0000000E+04;  0.0000000E+00;  1.0000000E+04; -1.8392988E-04;  0.0000000E+00;  5.2570117E-06;  1.7178457E-02;
  1.9999998E-02;  9.9999998E-03; -1.0000000E-01;1070; -9.9461258E-06;  0.0000000E+00; -5.0004525E-07;  1.0000001E+03;  4.0000001E-01;  9.8762624E-02;3; -2.1566886E-02;  0.0000000E+00; -1.1325043E-03;0; -1.8204932E-04;  1.0000001E+04;  0.0000000E+00; -1.9057680E-13;  1.0000000E+04;  0.0000000E+00;  1.0000000E+04; -1.8689205E-04;  0.0000000E+00;  4.8427328E-06;  1.6107580E-02;
  1.9999998E-02;  9.9999998E-03; -7.9999998E-02;1071; -1.0066156E-05;  0.0000000E+00; -3.8442525E-07;  1.0000001E+03;  4.0000001E-01;  9.8762624E-02;3; -2.1800434E-02;  0.0000000E+00; -8.7408413E-04;0; -1.8460734E-04;  1.0000001E+04;  0.0000000E+00; -2.6318257E-13;  1.0000000E+04;  0.0000000E+00;  1.0000000E+04; -1.8907133E-04;  0.0000000E+00;  4.4639942E-06;  1.5110713E-02;
  1.9999998E-02;  9.9999998E-03; -5.9999999E-02;1072; -1.0152315E-05;  0.0000000E+00; -2.7808341E-07;  1.0000001E+03;  4.0000001E-01;  9.8762624E-02;3; -2.1966476E-02;  0.0000000E+00; -6.3356734E-04;0; -1.8647902E-04;  1.0000001E+04;  0.0000000E+00;  6.7508358E-13;  1.0000000E+04;  0.0000000E+00;  1.0000000E+04; -1.9062386E-04;  0.0000000E+00;  4.1448320E-06;  1.4270501E-02;
  1.9999998E-02;  9.9999998E-03; -3.9999999E-02;1073; -1.0210115E-05;  0.0000000E+00; -1.8033455E-07;  1.0000001E+03;  4.0000001E-01;  9.8762624E-02;3; -2.2077588E-02;  0.0000000E+00; -4.1116902E-04;0; -1.8775873E-04;  1.0000001E+04;  0.0000000E+00;  7.5399501E-13;  1.0000000E+04;  0.0000000E+00;  1.0000000E+04; -1.9166054E-04;  0.0000000E+00;  3.9018028E-06;  1.3637992E-02;
  1.9999998E-02;  9.9999998E-03; -2.0000000E-02;1074; -1.0243340E-05;  0.0000000E+00; -8.8559766E-08;  1.0000001E+03;  4.0000001E-01;  9.8762624E-02;3; -2.2141520E-02;  0.0000000E+00; -2.0220934E-04;0; -1.8850592E-04;  1.0000001E+04;  0.0000000E+00;  1.6037364E-13;  1.0000000E+04;  0.0000000E+00;  1.0000000E+04; -1.9225481E-04;  0.0000000E+00;  3.7488953E-06;  1.3245606E-02;
  3.9999995E-02;  9.9999998E-03; -1.8000001E-01;1097; -1.3451043E-05;  0.0000000E+00; -1.5284448E-06;  1.0000001E+03;  4.0000001E-01;  9.8762624E-02;3; -2.8527908E-02;  0.0000000E+00; -3.2847563E-03;0; -2.2107444E-04;  1.0000002E+04;  0.0000000E+00;  6.6885972E-12;  1.0000000E+04;  0.0000000E+00;  1.0000000E+04; -2.2999496E-04;  0.0000000E+00;  8.9205096E-06;  2.8723598E-02;
  3.9999995E-02;  9.9999998E-03; -1.6000000E-01;1098; -1.3970732E-05;  0.0000000E+00; -1.2898895E-06;  1.0000001E+03;  4.0000001E-01;  9.8762624E-02;3; -2.9569793E-02;  0.0000000E+00; -2.7735233E-03;0; -2.2993384E-04;  1.0000002E+04;  0.0000000E+00;  2.1292404E-12;  1.0000000E+04;  0.0000000E+00;  1.0000000E+04; -2.3874640E-04;  0.0000000E+00;  8.8125662E-06;  2.8533738E-02;
  3.9999995E-02;  9.9999998E-03; -1.4000000E-01;1099; -1.4367302E-05;  0.0000000E+00; -1.0744250E-06;  1.0000001E+03;  4.0000001E-01;  9.8762624E-02;3; -3.0347243E-02;  0.0000000E+00; -2.3173804E-03;0; -2.3702589E-04;  1.0000002E+04;  0.0000000E+00; -5.1741304E-13;  1.0000000E+04;  0.0000000E+00;  1.0000000E+04; -2.4534290E-04;  0.0000000E+00;  8.3170135E-06;  2.7292671E-02;
  3.9999995E-02;  9.9999998E-03; -1.2000000E-01;1100; -1.4670004E-05;  0.0000000E+00; -8.7660123E-07;  1.0000001E+03;  4.0000001E-01;  9.8762624E-02;3; -3.0926757E-02;  0.0000000E+00; -1.8972759E-03;0; -2.4258139E-04;  1.0000002E+04;  0.0000000E+00;  1.4255012E-12;  1.0000000E+04;  0.0000000E+00;  1.0000000E+04; -2.5028331E-04;  0.0000000E+00;  7.7019222E-06;  2.5683183E-02;
  3.9999995E-02;  9.9999998E-03; -1.0000000E-01;1101; -1.4897528E-05;  0.0000000E+00; -6.9896038E-07;  1.0000001E+03;  4.0000001E-01;  9.8762624E-02;3; -3.1351656E-02;  0.0000000E+00; -1.5180235E-03;0; -2.4686701E-04;  1.0000002E+04;  0.0000000E+00;  7.4817084E-13;  1.0000000E+04;  0.0000000E+00;  1.0000000E+04; -2.5394291E-04;  0.0000000E+00;  7.0758979E-06;  2.4005266E-02;
  3.9999995E-02;  9.9999998E-03; -7.9999998E-02;1102; -1.5065943E-05;  0.0000000E+00; -5.3658374E-07;  1.0000001E+03;  4.0000001E-01;  9.8762624E-02;3; -3.1659633E-02;  0.0000000E+00; -1.1686586E-03;0; -2.5010749E-04;  1.0000002E+04;  0.0000000E+00;  8.0284778E-14;  1.0000000E+04;  0.0000000E+00;  1.0000000E+04; -2.5660952E-04;  0.0000000E+00;  6.5020286E-06;  2.2451917E-02;
  3.9999995E-02;  9.9999998E-03; -5.9999999E-02;1103; -1.5186729E-05;  0.0000000E+00; -3.8792808E-07;  1.0000001E+03;  4.0000001E-01;  9.8762624E-02;3; -3.1877704E-02;  0.0000000E+00; -8.4670610E-04;0; -2.5247550E-04;  1.0000002E+04;  0.0000000E+00; -5.9201185E-13;  1.0000000E+04;  0.0000000E+00;  1.0000000E+04; -2.5849382E-04;  0.0000000E+00;  6.0183233E-06;  2.1145860E-02;
  3.9999995E-02;  9.9999998E-03; -3.9999999E-02;1104; -1.5267662E-05;  0.0000000E+00; -2.5152264E-07;  1.0000001E+03;  4.0000001E-01;  9.8762624E-02;3; -3.2023106E-02;  0.0000000E+00; -5.4998219E-04;0; -2.5409329E-04;  1.0000002E+04;  0.0000000E+00;  4.0616479E-13;  1.0000000E+04;  0.0000000E+00;  1.0000000E+04; -2.5974418E-04;  0.0000000E+00;  5.6508743E-06;  2.0163670E-02;
  3.9999995E-02;  9.9999998E-03; -2.0000000E-02;1105; -1.5314195E-05;  0.0000000E+00; -1.2343077E-07;  1.0000001E+03;  4.0000001E-01;  9.8762624E-02;3; -3.2106731E-02;  0.0000000E+00; -2.7060055E-04;0; -2.5503751E-04;  1.0000002E+04;  0.0000000E+00;  4.3302067E-13;  1.0000000E+04;  0.0000000E+00;  1.0000000E+04; -2.6045792E-04;  0.0000000E+00;  5.4204083E-06;  1.9554561E-02;
  5.9999995E-02;  9.9999998E-03; -1.8000001E-01;1128; -1.9666300E-05;  0.0000000E+00; -2.0912141E-06;  1.0000001E+03;  4.0000001E-01;  9.8762624E-02;3; -4.0561434E-02;  0.0000000E+00; -4.3328810E-03;0; -3.0159627E-04;  1.0000003E+04;  0.0000000E+00;  2.4002339E-12;  1.0000000E+04;  0.0000000E+00;  1.0000000E+04; -3.1439849E-04;  0.0000000E+00;  1.2802216E-05;  4.2615753E-02;
  5.9999995E-02;  9.9999998E-03; -1.6000000E-01;1129; -2.0382082E-05;  0.0000000E+00; -1.7621635E-06;  1.0000001E+03;  4.0000001E-01;  9.8762624E-02;3; -4.1944444E-02;  0.0000000E+00; -3.6470857E-03;0; -3.1290590E-04;  1.0000003E+04;  0.0000000E+00;  9.5770256E-13;  1.0000000E+04;  0.0000000E+00;  1.0000000E+04; -3.2548414E-04;  0.0000000E+00;  1.2578248E-05;  4.2068586E-02;
  5.9999995E-02;  9.9999998E-03; -1.4000000E-01;1130; -2.0924286E-05;  0.0000000E+00; -1.4650634E-06;  1.0000001E+03;  4.0000001E-01;  9.8762624E-02;3; -4.2963665E-02;  0.0000000E+00; -3.0337751E-03;0; -3.2189538E-04;  1.0000003E+04;  0.0000000E+00; -6.6955346E-14;  1.0000000E+04;  0.0000000E+00;  1.0000000E+04; -3.3372562E-04;  0.0000000E+00;  1.1830252E-05;  4.0052280E-02;
  5.9999995E-02;  9.9999998E-03; -1.2000000E-01;1131; -2.1335645E-05;  0.0000000E+00; -1.1932430E-06;  1.0000001E+03;  4.0000001E-01;  9.8762624E-02;3; -4.3713983E-02;  0.0000000E+00; -2.4724479E-03;0; -3.2889491E-04;  1.0000003E+04;  0.0000000E+00;  5.8709038E-13;  1.0000000E+04;  0.0000000E+00;  1.0000000E+04; -3.3981737E-04;  0.0000000E+00;  1.0922458E-05;  3.7549350E-02;
  5.9999991E-02;  9.9999998E-03; -1.0000000E-01;1132; -2.1643778E-05;  0.0000000E+00; -9.5022818E-07;  1.0000001E+03;  4.0000001E-01;  9.8762624E-02;3; -4.4258885E-02;  0.0000000E+00; -1.9717857E-03;0; -3.3427723E-04;  1.0000003E+04;  0.0000000E+00;  1.3235383E-12;  1.0000000E+04;  0.0000000E+00;  1.0000000E+04; -3.4427590E-04;  0.0000000E+00;  9.9986837E-06;  3.4975316E-02;
  5.9999991E-02;  9.9999998E-03; -7.9999998E-02;1133; -2.1871792E-05;  0.0000000E+00; -7.2935626E-07;  1.0000001E+03;  4.0000001E-01;  9.8762624E-02;3; -4.4652618E-02;  0.0000000E+00; -1.5170837E-03;0; -3.3833925E-04;  1.0000003E+04;  0.0000000E+00; -9.9993751E-14;  1.0000000E+04;  0.0000000E+00;  1.0000000E+04; -3.4748967E-04;  0.0000000E+00;  9.1504298E-06;  3.2607336E-02;
  5.9999991E-02;  9.9999998E-03; -5.9999999E-02;1134; -2.2035596E-05;  0.0000000E+00; -5.2742087E-07;  1.0000001E+03;  4.0000001E-01;  9.8762624E-02;3; -4.4931810E-02;  0.0000000E+00; -1.1001348E-03;0; -3.4130417E-04;  1.0000003E+04;  0.0000000E+00;  5.7549945E-13;  1.0000000E+04;  0.0000000E+00;  1.0000000E+04; -3.4973980E-04;  0.0000000E+00;  8.4356370E-06;  3.0622985E-02;
  5.9999991E-02;  9.9999998E-03; -3.9999999E-02;1135; -2.2145599E-05;  0.0000000E+00; -3.4217604E-07;  1.0000001E+03;  4.0000001E-01;  9.8762624E-02;3; -4.5118585E-02;  0.0000000E+00; -7.1606884E-04;0; -3.4332805E-04;  1.0000003E+04;  0.0000000E+00;  5.6528941E-13;  1.0000000E+04;  0.0000000E+00;  1.0000000E+04; -3.5122200E-04;  0.0000000E+00;  7.8939629E-06;  2.9133841E-02;
  5.9999991E-02;  9.9999998E-03; -2.0000000E-02;1136; -2.2209018E-05;  0.0000000E+00; -1.6791803E-07;  1.0000001E+03;  4.0000001E-01;  9.8762624E-02;3; -4.5226339E-02;  0.0000000E+00; -3.5261959E-04;0; -3.4450853E-04;  1.0000003E+04;  0.0000000E+00;  8.8102607E-14;  1.0000000E+04;  0.0000000E+00;  1.0000000E+04; -3.5206383E-04;  0.0000000E+00;  7.5552962E-06;  2.8211672E-02;
  7.9999991E-02;  9.9999998E-03; -1.8000001E-01;1159; -2.8111421E-05;  0.0000000E+00; -2.8284326E-06;  1.0000002E+03;  4.0000001E-01;  1.9752525E-01;3; -5.6432746E-02;  0.0000000E+00; -5.6535681E-03;0; -4.1244601E-04;  1.0000003E+04;  0.0000000E+00;  1.1838226E-11;  1.0000000E+04;  0.0000000E+00;  1.0000000E+04; -4.3052863E-04;  0.0000000E+00;  1.8082619E-05;  6.2505633E-02;
  7.9999991E-02;  9.9999998E-03; -1.6000000E-01;1160; -2.9067302E-05;  0.0000000E+00; -2.3796672E-06;  1.0000002E+03;  4.0000001E-01;  1.9752525E-01;3; -5.8211148E-02;  0.0000000E+00; -4.7451262E-03;0; -4.2683337E-04;  1.0000004E+04;  0.0000000E+00; -2.3871198E-12;  1.0000000E+04;  0.0000000E+00;  1.0000000E+04; -4.4449727E-04;  0.0000000E+00;  1.7663901E-05;  6.1312910E-02;
  7.9999991E-02;  9.9999998E-03; -1.4000000E-01;1161; -2.9786266E-05;  0.0000000E+00; -1.9738636E-06;  1.0000002E+03;  4.0000001E-01;  1.9752525E-01;3; -5.9509065E-02;  0.0000000E+00; -3.9281687E-03;0; -4.3818081E-04;  1.0000004E+04;  0.0000000E+00;  1.2488073E-12;  1.0000000E+04;  0.0000000E+00;  1.0000000E+04; -4.5472596E-04;  0.0000000E+00;  1.6545162E-05;  5.8086593E-02;
  7.9999991E-02;  9.9999998E-03; -1.2000000E-01;1162; -3.0328092E-05;  0.0000000E+00; -1.6050152E-06;  1.0000002E+03;  4.0000001E-01;  1.9752525E-01;3; -6.0454607E-02;  0.0000000E+00; -3.1876550E-03;0; -4.4696472E-04;  1.0000005E+04;  0.0000000E+00;  1.5589319E-12;  1.0000000E+04;  0.0000000E+00;  1.0000000E+04; -4.6217881E-04;  0.0000000E+00;  1.5214081E-05;  5.4223336E-02;
  7.9999991E-02;  9.9999998E-03; -1.0000000E-01;1163; -3.0732412E-05;  0.0000000E+00; -1.2765423E-06;  1.0000002E+03;  4.0000001E-01;  1.9752525E-01;3; -6.1136529E-02;  0.0000000E+00; -2.5342817E-03;0; -4.5369638E-04;  1.0000005E+04;  0.0000000E+00;  1.2744625E-12;  1.0000000E+04;  0.0000000E+00;  1.0000000E+04; -4.6755935E-04;  0.0000000E+00;  1.3862958E-05;  5.0304323E-02;
  7.9999991E-02;  9.9999998E-03; -7.9999998E-02;1164; -3.1030908E-05;  0.0000000E+00; -9.7947145E-07;  1.0000002E+03;  4.0000001E-01;  1.9752525E-01;3; -6.1627060E-02;  0.0000000E+00; -1.9488053E-03;0; -4.5876668E-04;  1.0000005E+04;  0.0000000E+00;  8.0210751E-13;  1.0000000E+04;  0.0000000E+00;  1.0000000E+04; -4.7138907E-04;  0.0000000E+00;  1.2622390E-05;  4.6724834E-02;
  7.9999991E-02;  9.9999998E-03; -5.9999999E-02;1165; -3.1245188E-05;  0.0000000E+00; -7.0857629E-07;  1.0000002E+03;  4.0000001E-01;  1.9752525E-01;3; -6.1974786E-02;  0.0000000E+00; -1.4151599E-03;0; -4.6246310E-04;  1.0000005E+04;  0.0000000E+00; -3.0209835E-13;  1.0000000E+04;  0.0000000E+00;  1.0000000E+04; -4.7404144E-04;  0.0000000E+00;  1.1578339E-05;  4.3739028E-02;
  7.9999991E-02;  9.9999998E-03; -3.9999999E-02;1166; -3.1389194E-05;  0.0000000E+00; -4.6014969E-07;  1.0000002E+03;  4.0000001E-01;  1.9752525E-01;3; -6.2207688E-02;  0.0000000E+00; -9.2350243E-04;0; -4.6498448E-04;  1.0000005E+04;  0.0000000E+00; -2.7924171E-14;  1.0000000E+04;  0.0000000E+00;  1.0000000E+04; -4.7577400E-04;  0.0000000E+00;  1.0789509E-05;  4.1506231E-02;
  7.9999991E-02;  9.9999998E-03; -2.0000000E-02;1167; -3.1472387E-05;  0.0000000E+00; -2.2593450E-07;  1.0000002E+03;  4.0000001E-01;  1.9752525E-01;3; -6.2342539E-02;  0.0000000E+00; -4.5542329E-04;0; -4.6645442E-04;  1.0000005E+04;  0.0000000E+00;  1.8237522E-13;  1.0000000E+04;  0.0000000E+00;  1.0000000E+04; -4.7675241E-04;  0.0000000E+00;  1.0297998E-05;  4.0127262E-02;
  9.9999987E-02;  9.9999998E-03; -1.8000001E-01;1190; -3.9563489E-05;  0.0000000E+00; -3.8000526E-06;  1.0000002E+03;  4.0000001E-01;  1.9752525E-01;3; -7.7348091E-02;  0.0000000E+00; -7.3341681E-03;0; -5.6450022E-04;  1.0000006E+04;  0.0000000E+00; -5.4064332E-13;  1.0000000E+04;  0.0000000E+00;  1.0000000E+04; -5.8989029E-04;  0.0000000E+00;  2.5390089E-05;  9.1195509E-02;
  9.9999987E-02;  9.9999998E-03; -1.6000000E-01;1191; -4.0810632E-05;  0.0000000E+00; -3.1933419E-06;  1.0000003E+03;  4.0000001E-01;  2.9628786E-01;3; -7.9577506E-02;  0.0000000E+00; -6.1449637E-03;0; -5.8271212E-04;  1.0000006E+04;  0.0000000E+00; -3.6697711E-12;  1.0000000E+04;  0.0000000E+00;  1.0000000E+04; -6.0735177E-04;  0.0000000E+00;  2.4639679E-05;  8.8843055E-02;
  9.9999987E-02;  9.9999998E-03; -1.4000000E-01;1192; -4.1740714E-05;  0.0000000E+00; -2.6420671E-06;  1.0000003E+03;  4.0000001E-01;  2.9628786E-01;3; -8.1187800E-02;  0.0000000E+00; -5.0663189E-03;0; -5.9697329E-04;  1.0000006E+04;  0.0000000E+00; -6.6642867E-12;  1.0000000E+04;  0.0000000E+00;  1.0000000E+04; -6.1993272E-04;  0.0000000E+00;  2.2959410E-05;  8.3700813E-02;
  9.9999987E-02;  9.9999998E-03; -1.2000000E-01;1193; -4.2435269E-05;  0.0000000E+00; -2.1446469E-06;  1.0000003E+03;  4.0000001E-01;  2.9628786E-01;3; -8.2347289E-02;  0.0000000E+00; -4.0971613E-03;0; -6.0795341E-04;  1.0000006E+04;  0.0000000E+00; -2.5569352E-13;  1.0000000E+04;  0.0000000E+00;  1.0000000E+04; -6.2895508E-04;  0.0000000E+00;  2.1001701E-05;  7.7742934E-02;
  9.9999987E-02;  9.9999998E-03; -1.0000000E-01;1194; -4.2950160E-05;  0.0000000E+00; -1.7029607E-06;  1.0000003E+03;  4.0000001E-01;  2.9628786E-01;3; -8.3176322E-02;  0.0000000E+00; -3.2482638E-03;0; -6.1633863E-04;  1.0000006E+04;  0.0000000E+00;  5.4440919E-13;  1.0000000E+04;  0.0000000E+00;  1.0000000E+04; -6.3536409E-04;  0.0000000E+00;  1.9025467E-05;  7.1783185E-02;
  9.9999987E-02;  9.9999998E-03; -7.9999998E-02;1195; -4.3328353E-05;  0.0000000E+00; -1.3049812E-06;  1.0000003E+03;  4.0000001E-01;  2.9628786E-01;3; -8.3769269E-02;  0.0000000E+00; -2.4949906E-03;0; -6.2264060E-04;  1.0000006E+04;  0.0000000E+00; -1.2849550E-12;  1.0000000E+04;  0.0000000E+00;  1.0000000E+04; -6.3985615E-04;  0.0000000E+00;  1.7215581E-05;  6.6384248E-02;
  9.9999987E-02;  9.9999998E-03; -5.9999999E-02;1196; -4.3598797E-05;  0.0000000E+00; -9.4378123E-07;  1.0000003E+03;  4.0000001E-01;  2.9628786E-01;3; -8.4188238E-02;  0.0000000E+00; -1.8132334E-03;0; -6.2722899E-04;  1.0000006E+04;  0.0000000E+00; -1.5811256E-12;  1.0000000E+04;  0.0000000E+00;  1.0000000E+04; -6.4292620E-04;  0.0000000E+00;  1.5697207E-05;  6.1908435E-02;
  9.9999987E-02;  9.9999998E-03; -3.9999999E-02;1197; -4.3780186E-05;  0.0000000E+00; -6.1320941E-07;  1.0000003E+03;  4.0000001E-01;  2.9628786E-01;3; -8.4468290E-02;  0.0000000E+00; -1.1855997E-03;0; -6.3035567E-04;  1.0000007E+04;  0.0000000E+00; -6.7812683E-13;  1.0000000E+04;  0.0000000E+00;  1.0000000E+04; -6.4491044E-04;  0.0000000E+00;  1.4554770E-05;  5.8578506E-02;
  9.9999987E-02;  9.9999998E-03; -2.0000000E-02;1198; -4.3884975E-05;  0.0000000E+00; -3.0120125E-07;  1.0000003E+03;  4.0000001E-01;  2.9628786E-01;3; -8.4630482E-02;  0.0000000E+00; -5.8532774E-04;0; -6.3217682E-04;  1.0000007E+04;  0.0000000E+00;  5.7923460E-14;  1.0000000E+04;  0.0000000E+00;  1.0000000E+04; -6.4602261E-04;  0.0000000E+00;  1.3845818E-05;  5.6530092E-02;
  1.1999998E-01;  9.9999998E-03; -1.8000001E-01;1221; -5.5102682E-05;  0.0000000E+00; -5.0863378E-06;  1.0000004E+03;  4.0000001E-01;  2.9628786E-01;3; -1.0493149E-01;  0.0000000E+00; -9.4868978E-03;0; -7.7098480E-04;  1.0000007E+04;  0.0000000E+00;  5.0881248E-12;  1.0000000E+04;  0.0000000E+00;  1.0000000E+04; -8.0670102E-04;  0.0000000E+00;  3.5716206E-05;  1.3297904E-01;
  1.1999998E-01;  9.9999998E-03; -1.6000000E-01;1222; -5.6701992E-05;  0.0000000E+00; -4.2690017E-06;  1.0000004E+03;  4.0000001E-01;  2.9628786E-01;3; -1.0766972E-01;  0.0000000E+00; -7.9414211E-03;0; -7.9389202E-04;  1.0000007E+04;  0.0000000E+00; -6.8274665E-12;  1.0000000E+04;  0.0000000E+00;  1.0000000E+04; -8.2823320E-04;  0.0000000E+00;  3.4341185E-05;  1.2839580E-01;
  1.1999998E-01;  9.9999998E-03; -1.4000000E-01;1223; -5.7881472E-05;  0.0000000E+00; -3.5208068E-06;  1.0000004E+03;  4.0000001E-01;  3.9505050E-01;3; -1.0962074E-01;  0.0000000E+00; -6.5235635E-03;0; -8.1170769E-04;  1.0000008E+04;  0.0000000E+00; -8.0060576E-12;  1.0000000E+04;  0.0000000E+00;  1.0000000E+04; -8.4347732E-04;  0.0000000E+00;  3.1769643E-05;  1.2012754E-01;
  1.1999998E-01;  9.9999998E-03; -1.2000000E-01;1224; -5.8751193E-05;  0.0000000E+00; -2.8504073E-06;  1.0000004E+03;  4.0000001E-01;  3.9505050E-01;3; -1.1100352E-01;  0.0000000E+00; -5.2581755E-03;0; -8.2534709E-04;  1.0000008E+04;  0.0000000E+00; -2.9293783E-12;  1.0000000E+04;  0.0000000E+00;  1.0000000E+04; -8.5420924E-04;  0.0000000E+00;  2.8862172E-05;  1.1090601E-01;
  1.1999998E-01;  9.9999998E-03; -1.0000000E-01;1225; -5.9389011E-05;  0.0000000E+00; -2.2574086E-06;  1.0000004E+03;  4.0000001E-01;  3.9505050E-01;3; -1.1197843E-01;  0.0000000E+00; -4.1563576E-03;0; -8.3572534E-04;  1.0000008E+04;  0.0000000E+00; -1.8969995E-13;  1.0000000E+04;  0.0000000E+00;  1.0000000E+04; -8.6168421E-04;  0.0000000E+00;  2.5958869E-05;  1.0183532E-01;
  1.1999998E-01;  9.9999998E-03; -7.9999998E-02;1226; -5.9853064E-05;  0.0000000E+00; -1.7253850E-06;  1.0000004E+03;  4.0000001E-01;  3.9505050E-01;3; -1.1266790E-01;  0.0000000E+00; -3.1860289E-03;0; -8.4350532E-04;  1.0000009E+04;  0.0000000E+00; -1.3021564E-12;  1.0000000E+04;  0.0000000E+00;  1.0000000E+04; -8.6682168E-04;  0.0000000E+00;  2.3316366E-05;  9.3701616E-02;
  1.1999998E-01;  9.9999998E-03; -5.9999999E-02;1227; -6.0182469E-05;  0.0000000E+00; -1.2462897E-06;  1.0000004E+03;  4.0000001E-01;  3.9505050E-01;3; -1.1315072E-01;  0.0000000E+00; -2.3149366E-03;0; -8.4915850E-04;  1.0000009E+04;  0.0000000E+00; -5.9180064E-13;  1.0000000E+04;  0.0000000E+00;  1.0000000E+04; -8.7027089E-04;  0.0000000E+00;  2.1112404E-05;  8.7012611E-02;
  1.1999998E-01;  9.9999998E-03; -3.9999999E-02;1228; -6.0402450E-05;  0.0000000E+00; -8.0975724E-07;  1.0000004E+03;  4.0000001E-01;  3.9505050E-01;3; -1.1347137E-01;  0.0000000E+00; -1.5157638E-03;0; -8.5300457E-04;  1.0000009E+04;  0.0000000E+00; -5.0006391E-13;  1.0000000E+04;  0.0000000E+00;  1.0000000E+04; -8.7246852E-04;  0.0000000E+00;  1.9463947E-05;  8.2069613E-02;
  1.1999998E-01;  9.9999998E-03; -2.0000000E-02;1229; -6.0529368E-05;  0.0000000E+00; -3.9759800E-07;  1.0000004E+03;  4.0000001E-01;  3.9505050E-01;3; -1.1365673E-01;  0.0000000E+00; -7.4804638E-04;0; -8.5524225E-04;  1.0000009E+04;  0.0000000E+00;  5.1652015E-13;  1.0000000E+04;  0.0000000E+00;  1.0000000E+04; -8.7368838E-04;  0.0000000E+00;  1.8446121E-05;  7.9044499E-02;
  1.3999997E-01;  9.9999998E-03; -1.8000001E-01;1252; -7.6164150E-05;  0.0000000E+00; -6.8021786E-06;  1.0000005E+03;  4.0000001E-01;  3.9505050E-01;3; -1.4121382E-01;  0.0000000E+00; -1.2272792E-02;0; -1.0482395E-03;  1.0000012E+04;  0.0000000E+00; -3.3443165E-08;  1.0000000E+04;  0.0000000E+00;  1.0000000E+04; -1.0989460E-03;  0.0000000E+00;  5.0706414E-05;  1.9473743E-01;
  1.3999997E-01;  9.9999998E-03; -1.6000000E-01;1253; -7.8186225E-05;  0.0000000E+00; -5.6931699E-06;  1.0000005E+03;  4.0000001E-01;  4.9381313E-01;3; -1.4451189E-01;  0.0000000E+00; -1.0253484E-02;0; -1.0768983E-03;  1.0000012E+04;  0.0000000E+00;  1.1003907E-12;  1.0000000E+04;  0.0000000E+00;  1.0000000E+04; -1.1249187E-03;  0.0000000E+00;  4.8020378E-05;  1.8550514E-01;
  1.3999997E-01;  9.9999998E-03; -1.4000000E-01;1254; -7.9655998E-05;  0.0000000E+00; -4.6742275E-06;  1.0000005E+03;  4.0000001E-01;  4.9381313E-01;3; -1.4681721E-01;  0.0000000E+00; -8.3879698E-03;0; -1.0990149E-03;  1.0000012E+04;  0.0000000E+00; -9.4376616E-12;  1.0000000E+04;  0.0000000E+00;  1.0000000E+04; -1.1429625E-03;  0.0000000E+00;  4.3947628E-05;  1.7190894E-01;
  1.3999997E-01;  9.9999998E-03; -1.2000000E-01;1255; -8.0721569E-05;  0.0000000E+00; -3.7679167E-06;  1.0000005E+03;  4.0000001E-01;  4.9381313E-01;3; -1.4841484E-01;  0.0000000E+00; -6.7342054E-03;0; -1.1158233E-03;  1.0000012E+04;  0.0000000E+00; -9.8700627E-13;  1.0000000E+04;  0.0000000E+00;  1.0000000E+04; -1.1553832E-03;  0.0000000E+00;  3.9559880E-05;  1.5751393E-01;
  1.3999997E-01;  9.9999998E-03; -1.0000000E-01;1256; -8.1489874E-05;  0.0000000E+00; -2.9714470E-06;  1.0000006E+03;  4.0000001E-01;  4.9381313E-01;3; -1.4951639E-01;  0.0000000E+00; -5.3014639E-03;0; -1.1285496E-03;  1.0000012E+04;  0.0000000E+00; -7.1998928E-13;  1.0000000E+04;  0.0000000E+00;  1.0000000E+04; -1.1638169E-03;  0.0000000E+00;  3.5267309E-05;  1.4368935E-01;
  1.3999997E-01;  9.9999998E-03; -7.9999998E-02;1257; -8.2041413E-05;  0.0000000E+00; -2.2623694E-06;  1.0000006E+03;  4.0000001E-01;  4.9381313E-01;3; -1.5027760E-01;  0.0000000E+00; -4.0494585E-03;0; -1.1380545E-03;  1.0000012E+04;  0.0000000E+00; -1.4811107E-12;  1.0000000E+04;  0.0000000E+00;  1.0000000E+04; -1.1694606E-03;  0.0000000E+00;  3.1406078E-05;  1.3146694E-01;
  1.3999997E-01;  9.9999998E-03; -6.0000002E-02;1258; -8.2428967E-05;  0.0000000E+00; -1.6305746E-06;  1.0000006E+03;  4.0000001E-01;  4.9381313E-01;3; -1.5079962E-01;  0.0000000E+00; -2.9368433E-03;0; -1.1449406E-03;  1.0000012E+04;  0.0000000E+00; -3.1122470E-12;  1.0000000E+04;  0.0000000E+00;  1.0000000E+04; -1.1731562E-03;  0.0000000E+00;  2.8215574E-05;  1.2152092E-01;
  1.3999997E-01;  9.9999998E-03; -3.9999999E-02;1259; -8.2685954E-05;  0.0000000E+00; -1.0580077E-06;  1.0000006E+03;  4.0000001E-01;  4.9381313E-01;3; -1.5114096E-01;  0.0000000E+00; -1.9209369E-03;0; -1.1496127E-03;  1.0000013E+04;  0.0000000E+00; -3.3763004E-13;  1.0000000E+04;  0.0000000E+00;  1.0000000E+04; -1.1754611E-03;  0.0000000E+00;  2.5848347E-05;  1.1423282E-01;
  1.3999997E-01;  9.9999998E-03; -2.0000000E-02;1260; -8.2833387E-05;  0.0000000E+00; -5.1925235E-07;  1.0000006E+03;  4.0000001E-01;  4.9381313E-01;3; -1.5133597E-01;  0.0000000E+00; -9.4742462E-04;0; -1.1523255E-03;  1.0000013E+04;  0.0000000E+00; -1.1169244E-12;  1.0000000E+04;  0.0000000E+00;  1.0000000E+04; -1.1767213E-03;  0.0000000E+00;  2.4395757E-05;  1.0979997E-01;
  1.5999997E-01;  9.9999998E-03; -1.8000001E-01;1283; -1.0460974E-04;  0.0000000E+00; -9.1043812E-06;  1.0000007E+03;  4.0000001E-01;  5.9257573E-01;3; -1.8870726E-01;  0.0000000E+00; -1.5906708E-02;0; -1.4168588E-03;  1.0000015E+04;  0.0000000E+00; -3.3904706E-07;  1.0000000E+04;  0.0000000E+00;  1.0000000E+04; -1.4899260E-03;  0.0000000E+00;  7.3067284E-05;  2.8753504E-01;
  1.5999997E-01;  9.9999998E-03; -1.6000000E-01;1284; -1.0712806E-04;  0.0000000E+00; -7.5845883E-06;  1.0000008E+03;  4.0000001E-01;  6.9133836E-01;3; -1.9258483E-01;  0.0000000E+00; -1.3238480E-02;0; -1.4525375E-03;  1.0000016E+04;  0.0000000E+00; -2.9535929E-11;  1.0000000E+04;  0.0000000E+00;  1.0000000E+04; -1.5201156E-03;  0.0000000E+00;  6.7578170E-05;  2.6846719E-01;
  1.5999997E-01;  9.9999998E-03; -1.4000000E-01;1285; -1.0892987E-04;  0.0000000E+00; -6.1869041E-06;  1.0000008E+03;  4.0000001E-01;  6.9133836E-01;3; -1.9522817E-01;  0.0000000E+00; -1.0768475E-02;0; -1.4798871E-03;  1.0000016E+04;  0.0000000E+00; -1.2991596E-11;  1.0000000E+04;  0.0000000E+00;  1.0000000E+04; -1.5407443E-03;  0.0000000E+00;  6.0857321E-05;  2.4546094E-01;
  1.5999995E-01;  9.9999998E-03; -1.2000000E-01;1286; -1.1021067E-04;  0.0000000E+00; -4.9546206E-06;  1.0000009E+03;  4.0000001E-01;  6.9133836E-01;3; -1.9700088E-01;  0.0000000E+00; -8.5948976E-03;0; -1.5004370E-03;  1.0000016E+04;  0.0000000E+00; -3.5476594E-13;  1.0000000E+04;  0.0000000E+00;  1.0000000E+04; -1.5545384E-03;  0.0000000E+00;  5.4101369E-05;  2.2271568E-01;
  1.5999995E-01;  9.9999998E-03; -1.0000000E-01;1287; -1.1111520E-04;  0.0000000E+00; -3.8833182E-06;  1.0000009E+03;  4.0000001E-01;  6.9133836E-01;3; -1.9817664E-01;  0.0000000E+00; -6.7241117E-03;0; -1.5158667E-03;  1.0000016E+04;  0.0000000E+00; -1.5967125E-13;  1.0000000E+04;  0.0000000E+00;  1.0000000E+04; -1.5635774E-03;  0.0000000E+00;  4.7710753E-05;  2.0161329E-01;
  1.5999995E-01;  9.9999998E-03; -7.9999998E-02;1288; -1.1175236E-04;  0.0000000E+00; -2.9416142E-06;  1.0000009E+03;  4.0000001E-01;  6.9133836E-01;3; -1.9895361E-01;  0.0000000E+00; -5.1053888E-03;0; -1.5273186E-03;  1.0000017E+04;  0.0000000E+00; -1.3070078E-12;  1.0000000E+04;  0.0000000E+00;  1.0000000E+04; -1.5693909E-03;  0.0000000E+00;  4.2072210E-05;  1.8332754E-01;
  1.5999995E-01;  9.9999998E-03; -6.0000002E-02;1289; -1.1219237E-04;  0.0000000E+00; -2.1131175E-06;  1.0000009E+03;  4.0000001E-01;  6.9133836E-01;3; -1.9946250E-01;  0.0000000E+00; -3.6873480E-03;0; -1.5355708E-03;  1.0000017E+04;  0.0000000E+00; -1.7244944E-12;  1.0000000E+04;  0.0000000E+00;  1.0000000E+04; -1.5730470E-03;  0.0000000E+00;  3.7476144E-05;  1.6865277E-01;
  1.5999995E-01;  9.9999998E-03; -3.9999999E-02;1290; -1.1248027E-04;  0.0000000E+00; -1.3677296E-06;  1.0000009E+03;  4.0000001E-01;  6.9133836E-01;3; -1.9978301E-01;  0.0000000E+00; -2.4042057E-03;0; -1.5411448E-03;  1.0000017E+04;  0.0000000E+00; -1.4545489E-12;  1.0000000E+04;  0.0000000E+00;  1.0000000E+04; -1.5752463E-03;  0.0000000E+00;  3.4101544E-05;  1.5801002E-01;
  1.5999995E-01;  9.9999998E-03; -2.0000000E-02;1291; -1.1264355E-04;  0.0000000E+00; -6.7025445E-07;  1.0000009E+03;  4.0000001E-01;  6.9133836E-01;3; -1.9996038E-01;  0.0000000E+00; -1.1830863E-03;0; -1.5443709E-03;  1.0000017E+04;  0.0000000E+00; -4.4243279E-13;  1.0000000E+04;  0.0000000E+00;  1.0000000E+04; -1.5764171E-03;  0.0000000E+00;  3.2046242E-05;  1.5158299E-01;
  1.7999995E-01;  9.9999998E-03; -1.8000001E-01;1314; -1.4284540E-04;  0.0000000E+00; -1.2202017E-05;  1.0000010E+03;  4.0000001E-01;  7.9010099E-01;3; -2.5055599E-01;  0.0000000E+00; -2.0671252E-02;0; -1.9027186E-03;  1.0000021E+04;  0.0000000E+00; -1.1576282E-06;  1.0000000E+04;  0.0000000E+00;  9.9999990E+03; -2.0095978E-03;  0.0000000E+00;  1.0687927E-04;  4.2813000E-01;
  1.7999995E-01;  9.9999998E-03; -1.6000001E-01;1315; -1.4593457E-04;  0.0000000E+00; -1.0088027E-05;  1.0000010E+03;  4.0000001E-01;  7.9010099E-01;3; -2.5499499E-01;  0.0000000E+00; -1.7075144E-02;0; -1.9471957E-03;  1.0000021E+04;  0.0000000E+00; -4.7265192E-09;  1.0000000E+04;  0.0000000E+00;  9.9999990E+03; -2.0429783E-03;  0.0000000E+00;  9.5782583E-05;  3.8938487E-01;
  1.7999995E-01;  9.9999998E-03; -1.4000000E-01;1316; -1.4810170E-04;  0.0000000E+00; -8.1659127E-06;  1.0000011E+03;  4.0000001E-01;  8.8886362E-01;3; -2.5791159E-01;  0.0000000E+00; -1.3786779E-02;0; -1.9810128E-03;  1.0000021E+04;  0.0000000E+00; -5.8085923E-12;  1.0000000E+04;  0.0000000E+00;  1.0000000E+04; -2.0653913E-03;  0.0000000E+00;  8.4378567E-05;  3.4973723E-01;
  1.7999995E-01;  9.9999998E-03; -1.2000000E-01;1317; -1.4960799E-04;  0.0000000E+00; -6.4860328E-06;  1.0000011E+03;  4.0000001E-01;  8.8886362E-01;3; -2.5976881E-01;  0.0000000E+00; -1.0909686E-02;0; -2.0059661E-03;  1.0000021E+04;  0.0000000E+00; -4.9992328E-12;  1.0000000E+04;  0.0000000E+00;  1.0000000E+04; -2.0797634E-03;  0.0000000E+00;  7.3797251E-05;  3.1343088E-01;
  1.7999995E-01;  9.9999998E-03; -1.0000000E-01;1318; -1.5064578E-04;  0.0000000E+00; -5.0448698E-06;  1.0000011E+03;  4.0000001E-01;  8.8886362E-01;3; -2.6091757E-01;  0.0000000E+00; -8.4588910E-03;0; -2.0244338E-03;  1.0000021E+04;  0.0000000E+00;  2.3657595E-12;  1.0000000E+04;  0.0000000E+00;  1.0000000E+04; -2.0886681E-03;  0.0000000E+00;  6.4234155E-05;  2.8120792E-01;
  1.7999995E-01;  9.9999998E-03; -7.9999998E-02;1319; -1.5135828E-04;  0.0000000E+00; -3.7949342E-06;  1.0000011E+03;  4.0000001E-01;  8.8886362E-01;3; -2.6161364E-01;  0.0000000E+00; -6.3631032E-03;0; -2.0379876E-03;  1.0000021E+04;  0.0000000E+00;  1.6457548E-12;  1.0000000E+04;  0.0000000E+00;  1.0000000E+04; -2.0940118E-03;  0.0000000E+00;  5.6024270E-05;  2.5402302E-01;
  1.7999995E-01;  9.9999998E-03; -6.0000002E-02;1320; -1.5183669E-04;  0.0000000E+00; -2.7120138E-06;  1.0000011E+03;  4.0000001E-01;  8.8886362E-01;3; -2.6202253E-01;  0.0000000E+00; -4.5605628E-03;0; -2.0476682E-03;  1.0000021E+04;  0.0000000E+00; -3.0815777E-12;  1.0000000E+04;  0.0000000E+00;  1.0000000E+04; -2.0971219E-03;  0.0000000E+00;  4.9453680E-05;  2.3258974E-01;
  1.7999995E-01;  9.9999998E-03; -3.9999999E-02;1321; -1.5214153E-04;  0.0000000E+00; -1.7481632E-06;  1.0000011E+03;  4.0000001E-01;  8.8886362E-01;3; -2.6224992E-01;  0.0000000E+00; -2.9551650E-03;0; -2.0541612E-03;  1.0000021E+04;  0.0000000E+00; -1.4861905E-12;  1.0000000E+04;  0.0000000E+00;  1.0000000E+04; -2.0988535E-03;  0.0000000E+00;  4.4692420E-05;  2.1723819E-01;
  1.7999995E-01;  9.9999998E-03; -2.0000000E-02;1322; -1.5231145E-04;  0.0000000E+00; -8.5453928E-07;  1.0000011E+03;  4.0000001E-01;  8.8886362E-01;3; -2.6236439E-01;  0.0000000E+00; -1.4482393E-03;0; -2.0579002E-03;  1.0000021E+04;  0.0000000E+00; -1.7666917E-12;  1.0000000E+04;  0.0000000E+00;  1.0000000E+04; -2.0997184E-03;  0.0000000E+00;  4.1818290E-05;  2.0804410E-01;
  1.9999993E-01;  9.9999998E-03; -1.8000001E-01;1345; -1.9397684E-04;  0.0000000E+00; -1.6322323E-05;  1.0000014E+03;  4.0000001E-01;  1.1851515E+00;3; -3.3065242E-01;  0.0000000E+00; -2.6851470E-02;0; -2.5379348E-03;  1.0000030E+04;  0.0000000E+00; -2.2979978E-06;  1.0000000E+04;  0.0000000E+00;  9.9999990E+03; -2.6955507E-03;  0.0000000E+00;  1.5761581E-04;  6.3976473E-01;
  1.9999993E-01;  9.9999998E-03; -1.6000001E-01;1346; -1.9769084E-04;  0.0000000E+00; -1.3367847E-05;  1.0000015E+03;  4.0000001E-01;  1.1851515E+00;3; -3.3555663E-01;  0.0000000E+00; -2.1949168E-02;0; -2.5939764E-03;  1.0000031E+04;  0.0000000E+00; -2.3375415E-08;  1.0000000E+04;  0.0000000E+00;  9.9999990E+03; -2.7303046E-03;  0.0000000E+00;  1.3632816E-04;  5.6487566E-01;
  1.9999991E-01;  9.9999998E-03; -1.4000000E-01;1347; -2.0022647E-04;  0.0000000E+00; -1.0733050E-05;  1.0000015E+03;  4.0000001E-01;  1.2839141E+00;3; -3.3858225E-01;  0.0000000E+00; -1.7562864E-02;0; -2.6358792E-03;  1.0000031E+04;  0.0000000E+00; -1.2984469E-11;  1.0000000E+04;  0.0000000E+00;  9.9999990E+03; -2.7528391E-03;  0.0000000E+00;  1.1695996E-04;  4.9678102E-01;
  1.9999991E-01;  9.9999998E-03; -1.2000000E-01;1348; -2.0194083E-04;  0.0000000E+00; -8.4473813E-06;  1.0000016E+03;  4.0000001E-01;  1.2839141E+00;3; -3.4035349E-01;  0.0000000E+00; -1.3741192E-02;0; -2.6659884E-03;  1.0000031E+04;  0.0000000E+00;  3.1442524E-12;  1.0000000E+04;  0.0000000E+00;  9.9999990E+03; -2.7662837E-03;  0.0000000E+00;  1.0029526E-04;  4.3876094E-01;
  1.9999991E-01;  9.9999998E-03; -1.0000000E-01;1349; -2.0308275E-04;  0.0000000E+00; -6.5154222E-06;  1.0000016E+03;  4.0000001E-01;  1.2839141E+00;3; -3.4131077E-01;  0.0000000E+00; -1.0534730E-02;0; -2.6877569E-03;  1.0000031E+04;  0.0000000E+00;  7.7089030E-12;  1.0000000E+04;  0.0000000E+00;  1.0000000E+04; -2.7737448E-03;  0.0000000E+00;  8.5987784E-05;  3.8973054E-01;
  1.9999991E-01;  9.9999998E-03; -8.0000006E-02;1350; -2.0384132E-04;  0.0000000E+00; -4.8606930E-06;  1.0000016E+03;  4.0000001E-01;  1.2839141E+00;3; -3.4178492E-01;  0.0000000E+00; -7.8290636E-03;0; -2.7034350E-03;  1.0000031E+04;  0.0000000E+00;  6.0905898E-12;  1.0000000E+04;  0.0000000E+00;  1.0000000E+04; -2.7775443E-03;  0.0000000E+00;  7.4109281E-05;  3.4966570E-01;
  1.9999991E-01;  9.9999998E-03; -6.0000002E-02;1351; -2.0433258E-04;  0.0000000E+00; -3.4500567E-06;  1.0000016E+03;  4.0000001E-01;  1.2839141E+00;3; -3.4198108E-01;  0.0000000E+00; -5.5478844E-03;0; -2.7144686E-03;  1.0000031E+04;  0.0000000E+00; -8.8792092E-13;  1.0000000E+04;  0.0000000E+00;  1.0000000E+04; -2.7792850E-03;  0.0000000E+00;  6.4816290E-05;  3.1874603E-01;
  1.9999991E-01;  9.9999998E-03; -3.9999999E-02;1352; -2.0463538E-04;  0.0000000E+00; -2.2111708E-06;  1.0000016E+03;  4.0000001E-01;  1.2839141E+00;3; -3.4203467E-01;  0.0000000E+00; -3.5603037E-03;0; -2.7217888E-03;  1.0000031E+04;  0.0000000E+00; -1.0942064E-12;  1.0000000E+04;  0.0000000E+00;  1.0000000E+04; -2.7799776E-03;  0.0000000E+00;  5.8188856E-05;  2.9692322E-01;
  1.9999991E-01;  9.9999998E-03; -2.0000000E-02;1353; -2.0480026E-04;  0.0000000E+00; -1.0779436E-06;  1.0000016E+03;  4.0000001E-01;  1.2839141E+00;3; -3.4203762E-01;  0.0000000E+00; -1.7362605E-03;0; -2.7259709E-03;  1.0000031E+04;  0.0000000E+00; -2.1175312E-12;  1.0000000E+04;  0.0000000E+00;  1.0000000E+04; -2.7802009E-03;  0.0000000E+00;  5.4230000E-05;  2.8397772E-01;
  2.1999989E-01;  9.9999998E-03; -1.8000001E-01;1376; -2.6195237E-04;  0.0000000E+00; -2.1711674E-05;  1.0000020E+03;  4.0000001E-01;  1.5802020E+00;3; -4.3374154E-01;  0.0000000E+00; -3.4715299E-02;0; -3.3625809E-03;  1.0000041E+04;  0.0000000E+00; -2.9925866E-06;  1.0000000E+04;  0.0000000E+00;  9.9999980E+03; -3.5943326E-03;  0.0000000E+00;  2.3175175E-04;  9.5184427E-01;
  2.1999989E-01;  9.9999998E-03; -1.6000001E-01;1377; -2.6630261E-04;  0.0000000E+00; -1.7599576E-05;  1.0000020E+03;  4.0000001E-01;  1.5802020E+00;3; -4.3889791E-01;  0.0000000E+00; -2.8025901E-02;0; -3.4340722E-03;  1.0000041E+04;  0.0000000E+00; -3.0117608E-08;  1.0000000E+04;  0.0000000E+00;  9.9999980E+03; -3.6277096E-03;  0.0000000E+00;  1.9363743E-04;  8.1614941E-01;
  2.1999989E-01;  9.9999998E-03; -1.4000000E-01;1378; -2.6916494E-04;  0.0000000E+00; -1.4013268E-05;  1.0000020E+03;  4.0000001E-01;  1.5802020E+00;3; -4.4176859E-01;  0.0000000E+00; -2.2187827E-02;0; -3.4860275E-03;  1.0000041E+04;  0.0000000E+00; -1.6648450E-11;  1.0000000E+04;  0.0000000E+00;  9.9999990E+03; -3.6475621E-03;  0.0000000E+00;  1.6153470E-04;  7.0198524E-01;
  2.1999989E-01;  9.9999998E-03; -1.2000000E-01;1379; -2.7102520E-04;  0.0000000E+00; -1.0925352E-05;  1.0000020E+03;  4.0000001E-01;  1.5802020E+00;3; -4.4318864E-01;  0.0000000E+00; -1.7135287E-02;0; -3.5220410E-03;  1.0000042E+04;  0.0000000E+00; -1.8496510E-11;  1.0000000E+04;  0.0000000E+00;  9.9999990E+03; -3.6575892E-03;  0.0000000E+00;  1.3554824E-04;  6.1031008E-01;
  2.1999989E-01;  9.9999998E-03; -1.0000000E-01;1380; -2.7220341E-04;  0.0000000E+00; -8.3568239E-06;  1.0000020E+03;  4.0000001E-01;  1.5802020E+00;3; -4.4370857E-01;  0.0000000E+00; -1.2977860E-02;0; -3.5471939E-03;  1.0000042E+04;  0.0000000E+00;  4.5413521E-12;  1.0000000E+04;  0.0000000E+00;  9.9999990E+03; -3.6615150E-03;  0.0000000E+00;  1.1432103E-04;  5.3643674E-01;
  2.1999989E-01;  9.9999998E-03; -8.0000006E-02;1381; -2.7294888E-04;  0.0000000E+00; -6.1827836E-06;  1.0000020E+03;  4.0000001E-01;  1.5802020E+00;3; -4.4375852E-01;  0.0000000E+00; -9.5139286E-03;0; -3.5647813E-03;  1.0000042E+04;  0.0000000E+00; -3.5108728E-12;  1.0000000E+04;  0.0000000E+00;  9.9999990E+03; -3.6621066E-03;  0.0000000E+00;  9.7325341E-05;  4.7809887E-01;
  2.1999989E-01;  9.9999998E-03; -6.0000002E-02;1382; -2.7340726E-04;  0.0000000E+00; -4.3591640E-06;  1.0000020E+03;  4.0000001E-01;  1.6789646E+00;3; -4.4359040E-01;  0.0000000E+00; -6.6593839E-03;0; -3.5768682E-03;  1.0000042E+04;  0.0000000E+00; -2.2979238E-12;  1.0000000E+04;  0.0000000E+00;  1.0000000E+04; -3.6612381E-03;  0.0000000E+00;  8.4370018E-05;  4.3414503E-01;
  2.1999989E-01;  9.9999998E-03; -4.0000003E-02;1383; -2.7367828E-04;  0.0000000E+00; -2.7776080E-06;  1.0000020E+03;  4.0000001E-01;  1.6789646E+00;3; -4.4337177E-01;  0.0000000E+00; -4.2277095E-03;0; -3.5847484E-03;  1.0000042E+04;  0.0000000E+00; -2.5220496E-12;  1.0000000E+04;  0.0000000E+00;  1.0000000E+04; -3.6600488E-03;  0.0000000E+00;  7.5300486E-05;  4.0363544E-01;
  2.1999989E-01;  9.9999998E-03; -2.0000001E-02;1384; -2.7382083E-04;  0.0000000E+00; -1.3502666E-06;  1.0000021E+03;  4.0000001E-01;  1.6789646E+00;3; -4.4320619E-01;  0.0000000E+00; -2.0493290E-03;0; -3.5891999E-03;  1.0000042E+04;  0.0000000E+00; -2.6354494E-12;  1.0000000E+04;  0.0000000E+00;  1.0000000E+04; -3.6591487E-03;  0.0000000E+00;  6.9948845E-05;  3.8573161E-01;
  2.3999986E-01;  9.9999998E-03; -1.8000001E-01;1407; -3.5174764E-04;  0.0000000E+00; -2.8704048E-05;  1.0000026E+03;  4.0000001E-01;  2.1727777E+00;3; -5.6552553E-01;  0.0000000E+00; -4.4632468E-02;0; -4.4272193E-03;  1.0000056E+04;  0.0000000E+00; -2.5530771E-06;  1.0000000E+04;  0.0000000E+00;  9.9999961E+03; -4.7633187E-03;  0.0000000E+00;  3.3609924E-04;  1.3989837E+00;
  2.3999985E-01;  9.9999998E-03; -1.6000001E-01;1408; -3.5665397E-04;  0.0000000E+00; -2.2991881E-05;  1.0000026E+03;  4.0000001E-01;  2.1727777E+00;3; -5.7052737E-01;  0.0000000E+00; -3.5501979E-02;0; -4.5186216E-03;  1.0000056E+04;  0.0000000E+00; -1.0191625E-08;  1.0000000E+04;  0.0000000E+00;  9.9999980E+03; -4.7910954E-03;  0.0000000E+00;  2.7247387E-04;  1.1686434E+00;
  2.3999985E-01;  9.9999998E-03; -1.4000000E-01;1409; -3.5971944E-04;  0.0000000E+00; -1.8138706E-05;  1.0000026E+03;  4.0000001E-01;  2.1727777E+00;3; -5.7283026E-01;  0.0000000E+00; -2.7751740E-02;0; -4.5826635E-03;  1.0000056E+04;  0.0000000E+00; -1.1176445E-11;  1.0000000E+04;  0.0000000E+00;  9.9999980E+03; -4.8039733E-03;  0.0000000E+00;  2.2130951E-04;  9.8410755E-01;
  2.3999985E-01;  9.9999998E-03; -1.2000000E-01;1410; -3.6158983E-04;  0.0000000E+00; -1.4008436E-05;  1.0000026E+03;  4.0000001E-01;  2.1727777E+00;3; -5.7349992E-01;  0.0000000E+00; -2.1125367E-02;0; -4.6250755E-03;  1.0000056E+04;  0.0000000E+00;  4.6371444E-12;  1.0000000E+04;  0.0000000E+00;  9.9999980E+03; -4.8067919E-03;  0.0000000E+00;  1.8171633E-04;  8.4245068E-01;
  2.3999985E-01;  9.9999998E-03; -1.0000000E-01;1411; -3.6267453E-04;  0.0000000E+00; -1.0632853E-05;  1.0000027E+03;  4.0000001E-01;  2.2715404E+00;3; -5.7321680E-01;  0.0000000E+00; -1.5803082E-02;0; -4.6532885E-03;  1.0000056E+04;  0.0000000E+00;  4.3123903E-12;  1.0000000E+04;  0.0000000E+00;  9.9999990E+03; -4.8040464E-03;  0.0000000E+00;  1.5075800E-04;  7.3299795E-01;
  2.3999985E-01;  9.9999998E-03; -8.0000006E-02;1412; -3.6329986E-04;  0.0000000E+00; -7.8094290E-06;  1.0000027E+03;  4.0000001E-01;  2.2715404E+00;3; -5.7254606E-01;  0.0000000E+00; -1.1422344E-02;0; -4.6721543E-03;  1.0000056E+04;  0.0000000E+00; -5.2523680E-12;  1.0000000E+04;  0.0000000E+00;  9.9999990E+03; -4.7990009E-03;  0.0000000E+00;  1.2684654E-04;  6.4941239E-01;
  2.3999985E-01;  9.9999998E-03; -6.0000002E-02;1413; -3.6364456E-04;  0.0000000E+00; -5.4767356E-06;  1.0000027E+03;  4.0000001E-01;  2.2715404E+00;3; -5.7178575E-01;  0.0000000E+00; -7.9041384E-03;0; -4.6846368E-03;  1.0000056E+04;  0.0000000E+00; -4.0087044E-12;  1.0000000E+04;  0.0000000E+00;  9.9999990E+03; -4.7937562E-03;  0.0000000E+00;  1.0911919E-04;  5.8799464E-01;
  2.3999985E-01;  9.9999998E-03; -4.0000003E-02;1414; -3.6382949E-04;  0.0000000E+00; -3.4734633E-06;  1.0000027E+03;  4.0000001E-01;  2.2715404E+00;3; -5.7113761E-01;  0.0000000E+00; -4.9665049E-03;0; -4.6925503E-03;  1.0000057E+04;  0.0000000E+00; -8.3058248E-12;  1.0000000E+04;  0.0000000E+00;  9.9999990E+03; -4.7895131E-03;  0.0000000E+00;  9.6962889E-05;  5.4612285E-01;
  2.3999985E-01;  9.9999998E-03; -2.0000001E-02;1415; -3.6391901E-04;  0.0000000E+00; -1.6851479E-06;  1.0000027E+03;  4.0000001E-01;  2.2715404E+00;3; -5.7071340E-01;  0.0000000E+00; -2.3938704E-03;0; -4.6969354E-03;  1.0000057E+04;  0.0000000E+00; -4.6262031E-12;  1.0000000E+04;  0.0000000E+00;  1.0000000E+04; -4.7868248E-03;  0.0000000E+00;  8.9889458E-05;  5.2183998E-01;
  2.5999981E-01;  9.9999998E-03; -1.8000002E-01;1438; -4.6961111E-04;  0.0000000E+00; -3.7693284E-05;  1.0000035E+03;  4.0000001E-01;  2.9628785E+00;3; -7.3280311E-01;  0.0000000E+00; -5.7063803E-02;0; -5.7954169E-03;  1.0000074E+04;  0.0000000E+00; -1.2615760E-06;  1.0000000E+04;  0.0000000E+00;  9.9999951E+03; -6.2726713E-03;  0.0000000E+00;  4.7725445E-04;  2.0204020E+00;
  2.5999978E-01;  9.9999998E-03; -1.6000001E-01;1439; -4.7483059E-04;  0.0000000E+00; -2.9761302E-05;  1.0000036E+03;  4.0000001E-01;  2.9628785E+00;3; -7.3693466E-01;  0.0000000E+00; -4.4546623E-02;0; -5.9107430E-03;  1.0000075E+04;  0.0000000E+00; -1.4910849E-10;  1.0000000E+04;  0.0000000E+00;  9.9999961E+03; -6.2883105E-03;  0.0000000E+00;  3.7756731E-04;  1.6518371E+00;
  2.5999978E-01;  9.9999998E-03; -1.4000002E-01;1440; -4.7782715E-04;  0.0000000E+00; -2.3235008E-05;  1.0000037E+03;  4.0000001E-01;  3.0616412E+00;3; -7.3796201E-01;  0.0000000E+00; -3.4292392E-02;0; -5.9884093E-03;  1.0000076E+04;  0.0000000E+00; -2.9690844E-11;  1.0000000E+04;  0.0000000E+00;  9.9999971E+03; -6.2879315E-03;  0.0000000E+00;  2.9952236E-04;  1.3653798E+00;
  2.5999978E-01;  9.9999998E-03; -1.2000000E-01;1441; -4.7944664E-04;  0.0000000E+00; -1.7785129E-05;  1.0000037E+03;  4.0000001E-01;  3.0616412E+00;3; -7.3723900E-01;  0.0000000E+00; -2.5707578E-02;0; -6.0369875E-03;  1.0000076E+04;  0.0000000E+00;  2.0958100E-11;  1.0000000E+04;  0.0000000E+00;  9.9999980E+03; -6.2780464E-03;  0.0000000E+00;  2.4105869E-04;  1.1527572E+00;
  2.5999978E-01;  9.9999998E-03; -1.0000001E-01;1442; -4.8021422E-04;  0.0000000E+00; -1.3404339E-05;  1.0000037E+03;  4.0000001E-01;  3.0616412E+00;3; -7.3560905E-01;  0.0000000E+00; -1.8972121E-02;0; -6.0671708E-03;  1.0000077E+04;  0.0000000E+00;  2.5605022E-11;  1.0000000E+04;  0.0000000E+00;  9.9999980E+03; -6.2641655E-03;  0.0000000E+00;  1.9699452E-04;  9.9418485E-01;
  2.5999978E-01;  9.9999998E-03; -8.0000006E-02;1443; -4.8054237E-04;  0.0000000E+00; -9.7970278E-06;  1.0000037E+03;  4.0000001E-01;  3.0616412E+00;3; -7.3377919E-01;  0.0000000E+00; -1.3552005E-02;0; -6.0859951E-03;  1.0000077E+04;  0.0000000E+00;  8.0105939E-12;  1.0000000E+04;  0.0000000E+00;  9.9999980E+03; -6.2500909E-03;  0.0000000E+00;  1.6409556E-04;  8.7677675E-01;
  2.5999978E-01;  9.9999998E-03; -6.0000002E-02;1444; -4.8064435E-04;  0.0000000E+00; -6.8504187E-06;  1.0000038E+03;  4.0000001E-01;  3.1604037E+00;3; -7.3209840E-01;  0.0000000E+00; -9.2900982E-03;0; -6.0976869E-03;  1.0000077E+04;  0.0000000E+00; -1.0071507E-11;  1.0000000E+04;  0.0000000E+00;  9.9999990E+03; -6.2380782E-03;  0.0000000E+00;  1.4039122E-04;  7.9260790E-01;
  2.5999978E-01;  9.9999998E-03; -4.0000003E-02;1445; -4.8065762E-04;  0.0000000E+00; -4.3326477E-06;  1.0000038E+03;  4.0000001E-01;  3.1604037E+00;3; -7.3079729E-01;  0.0000000E+00; -5.7850191E-03;0; -6.1047189E-03;  1.0000077E+04;  0.0000000E+00; -1.2363869E-11;  1.0000000E+04;  0.0000000E+00;  9.9999990E+03; -6.2292148E-03;  0.0000000E+00;  1.2449578E-04;  7.3627168E-01;
  2.5999978E-01;  9.9999998E-03; -2.0000001E-02;1446; -4.8064531E-04;  0.0000000E+00; -2.1005710E-06;  1.0000038E+03;  4.0000001E-01;  3.1604037E+00;3; -7.2998267E-01;  0.0000000E+00; -2.7754537E-03;0; -6.1084819E-03;  1.0000077E+04;  0.0000000E+00; -3.4157076E-12;  1.0000000E+04;  0.0000000E+00;  9.9999990E+03; -6.2238728E-03;  0.0000000E+00;  1.1539071E-04;  7.0400214E-01;
  2.7999973E-01;  9.9999998E-03; -1.8000002E-01;1469; -6.2343711E-04;  0.0000000E+00; -4.8962924E-05;  1.0000047E+03;  4.0000001E-01;  3.8517420E+00;3; -9.4361377E-01;  0.0000000E+00; -7.2138503E-02;0; -7.5457487E-03;  1.0000102E+04;  0.0000000E+00; -2.0907395E-07;  1.0000000E+04;  0.0000000E+00;  9.9999932E+03; -8.2073091E-03;  0.0000000E+00;  6.6156057E-04;  2.8609996E+00;
  2.7999973E-01;  9.9999998E-03; -1.6000001E-01;1470; -6.2848965E-04;  0.0000000E+00; -3.8119353E-05;  1.0000048E+03;  4.0000001E-01;  3.9505048E+00;3; -9.4572312E-01;  0.0000000E+00; -5.5208176E-02;0; -7.6876925E-03;  1.0000103E+04;  0.0000000E+00; -1.3452814E-10;  1.0000000E+04;  0.0000000E+00;  9.9999941E+03; -8.2011297E-03;  0.0000000E+00;  5.1343726E-04;  2.2999108E+00;
  2.7999970E-01;  9.9999998E-03; -1.4000002E-01;1471; -6.3093746E-04;  0.0000000E+00; -2.9445535E-05;  1.0000049E+03;  4.0000001E-01;  4.0492673E+00;3; -9.4439524E-01;  0.0000000E+00; -4.1845679E-02;0; -7.7792108E-03;  1.0000102E+04;  0.0000000E+00;  6.6105749E-12;  1.0000000E+04;  0.0000000E+00;  9.9999961E+03; -8.1785228E-03;  0.0000000E+00;  3.9931209E-04;  1.8722538E+00;
  2.7999970E-01;  9.9999998E-03; -1.2000001E-01;1472; -6.3186901E-04;  0.0000000E+00; -2.2364322E-05;  1.0000049E+03;  4.0000001E-01;  4.0492673E+00;3; -9.4130898E-01;  0.0000000E+00; -3.0896332E-02;0; -7.8322757E-03;  1.0000102E+04;  0.0000000E+00;  3.2807108E-11;  1.0000000E+04;  0.0000000E+00;  9.9999961E+03; -8.1481999E-03;  0.0000000E+00;  3.1592409E-04;  1.5630666E+00;
  2.7999970E-01;  9.9999998E-03; -1.0000001E-01;1473; -6.3196028E-04;  0.0000000E+00; -1.6767246E-05;  1.0000049E+03;  4.0000001E-01;  4.0492673E+00;3; -9.3753076E-01;  0.0000000E+00; -2.2507165E-02;0; -7.8620426E-03;  1.0000102E+04;  0.0000000E+00;  6.8713308E-12;  1.0000000E+04;  0.0000000E+00;  9.9999980E+03; -8.1170434E-03;  0.0000000E+00;  2.5500075E-04;  1.3391739E+00;
  2.7999970E-01;  9.9999998E-03; -8.0000006E-02;1474; -6.3171465E-04;  0.0000000E+00; -1.2226570E-05;  1.0000049E+03;  4.0000001E-01;  4.0492673E+00;3; -9.3391031E-01;  0.0000000E+00; -1.5909171E-02;0; -7.8784619E-03;  1.0000102E+04;  0.0000000E+00;  7.8702661E-12;  1.0000000E+04;  0.0000000E+00;  9.9999980E+03; -8.0893934E-03;  0.0000000E+00;  2.1093115E-04;  1.1778923E+00;
  2.7999970E-01;  9.9999998E-03; -6.0000002E-02;1475; -6.3137652E-04;  0.0000000E+00; -8.5503134E-06;  1.0000049E+03;  4.0000001E-01;  4.0492673E+00;3; -9.3084711E-01;  0.0000000E+00; -1.0843635E-02;0; -7.8873821E-03;  1.0000102E+04;  0.0000000E+00; -5.9114879E-12;  1.0000000E+04;  0.0000000E+00;  9.9999980E+03; -8.0674626E-03;  0.0000000E+00;  1.8008011E-04;  1.0649004E+00;
  2.7999970E-01;  9.9999998E-03; -4.0000003E-02;1476; -6.3108956E-04;  0.0000000E+00; -5.4062079E-06;  1.0000049E+03;  4.0000001E-01;  4.0492673E+00;3; -9.2857873E-01;  0.0000000E+00; -6.7054196E-03;0; -7.8921085E-03;  1.0000102E+04;  0.0000000E+00; -1.7337808E-11;  1.0000000E+04;  0.0000000E+00;  9.9999980E+03; -8.0519887E-03;  0.0000000E+00;  1.5988052E-04;  9.9060059E-01;
  2.7999970E-01;  9.9999998E-03; -2.0000001E-02;1477; -6.3090387E-04;  0.0000000E+00; -2.6238658E-06;  1.0000049E+03;  4.0000001E-01;  4.0492673E+00;3; -9.2719436E-01;  0.0000000E+00; -3.2090647E-03;0; -7.8943875E-03;  1.0000102E+04;  0.0000000E+00; -6.3127138E-12;  1.0000000E+04;  0.0000000E+00;  9.9999980E+03; -8.0428971E-03;  0.0000000E+00;  1.4850996E-04;  9.4855762E-01;
  2.9999962E-01;  9.9999998E-03; -1.8000002E-01;1500; -8.2328479E-04;  0.0000000E+00; -6.2878404E-05;  1.0000062E+03;  4.0000001E-01;  5.1356554E+00;3; -1.2074964E+00;  0.0000000E+00; -9.0157613E-02;0; -9.7740134E-03;  1.0000135E+04;  0.0000000E+00; -4.0337689E-10;  1.0000000E+04;  0.0000000E+00;  9.9999893E+03; -1.0669570E-02;  0.0000000E+00;  8.9555728E-04;  3.9746120E+00;
  2.9999962E-01;  9.9999998E-03; -1.6000003E-01;1501; -8.2736596E-04;  0.0000000E+00; -4.8263286E-05;  1.0000062E+03;  4.0000001E-01;  5.1356554E+00;3; -1.2058883E+00;  0.0000000E+00; -6.7489162E-02;0; -9.9431528E-03;  1.0000136E+04;  0.0000000E+00; -3.3053901E-10;  1.0000000E+04;  0.0000000E+00;  9.9999922E+03; -1.0627626E-02;  0.0000000E+00;  6.8447256E-04;  3.1536326E+00;
  2.9999962E-01;  9.9999998E-03; -1.4000002E-01;1502; -8.2849083E-04;  0.0000000E+00; -3.6895231E-05;  1.0000065E+03;  4.0000001E-01;  5.3331804E+00;3; -1.2005752E+00;  0.0000000E+00; -5.0201718E-02;0; -1.0046209E-02;  1.0000135E+04;  0.0000000E+00; -3.5110134E-11;  1.0000000E+04;  0.0000000E+00;  9.9999941E+03; -1.0570057E-02;  0.0000000E+00;  5.2384764E-04;  2.5374951E+00;
  2.9999962E-01;  9.9999998E-03; -1.2000001E-01;1503; -8.2806207E-04;  0.0000000E+00; -2.7894823E-05;  1.0000065E+03;  4.0000001E-01;  5.3331804E+00;3; -1.1937524E+00;  0.0000000E+00; -3.6663570E-02;0; -1.0099711E-02;  1.0000136E+04;  0.0000000E+00;  1.1307690E-11;  1.0000000E+04;  0.0000000E+00;  9.9999961E+03; -1.0508689E-02;  0.0000000E+00;  4.0897791E-04;  2.1018372E+00;
  2.9999962E-01;  9.9999998E-03; -1.0000001E-01;1504; -8.2693546E-04;  0.0000000E+00; -2.0861116E-05;  1.0000066E+03;  4.0000001E-01;  5.4319429E+00;3; -1.1866947E+00;  0.0000000E+00; -2.6436109E-02;0; -1.0124705E-02;  1.0000136E+04;  0.0000000E+00;  2.2912831E-11;  1.0000000E+04;  0.0000000E+00;  9.9999961E+03; -1.0452056E-02;  0.0000000E+00;  3.2735112E-04;  1.7940693E+00;
  2.9999962E-01;  9.9999998E-03; -8.0000006E-02;1505; -8.2570658E-04;  0.0000000E+00; -1.5232419E-05;  1.0000066E+03;  4.0000001E-01;  5.4319429E+00;3; -1.1804070E+00;  0.0000000E+00; -1.8564418E-02;0; -1.0134880E-02;  1.0000136E+04;  0.0000000E+00;  1.7238178E-11;  1.0000000E+04;  0.0000000E+00;  9.9999971E+03; -1.0404931E-02;  0.0000000E+00;  2.7005075E-04;  1.5775079E+00;
  2.9999962E-01;  9.9999998E-03; -6.0000006E-02;1506; -8.2464237E-04;  0.0000000E+00; -1.0678951E-05;  1.0000066E+03;  4.0000001E-01;  5.4319429E+00;3; -1.1753261E+00;  0.0000000E+00; -1.2603213E-02;0; -1.0138029E-02;  1.0000135E+04;  0.0000000E+00; -3.9811396E-12;  1.0000000E+04;  0.0000000E+00;  9.9999980E+03; -1.0369117E-02;  0.0000000E+00;  2.3108772E-04;  1.4287978E+00;
  2.9999962E-01;  9.9999998E-03; -4.0000003E-02;1507; -8.2387018E-04;  0.0000000E+00; -6.7780948E-06;  1.0000066E+03;  4.0000001E-01;  5.4319429E+00;3; -1.1716670E+00;  0.0000000E+00; -7.7890405E-03;0; -1.0138356E-02;  1.0000134E+04;  0.0000000E+00; -2.0360085E-11;  1.0000000E+04;  0.0000000E+00;  9.9999980E+03; -1.0344573E-02;  0.0000000E+00;  2.0621701E-04;  1.3325239E+00;
  2.9999962E-01;  9.9999998E-03; -2.0000001E-02;1508; -8.2340837E-04;  0.0000000E+00; -3.2997825E-06;  1.0000066E+03;  4.0000001E-01;  5.4319429E+00;3; -1.1694710E+00;  0.0000000E+00; -3.7299921E-03;0; -1.0137949E-02;  1.0000134E+04;  0.0000000E+00; -7.4372565E-12;  1.0000000E+04;  0.0000000E+00;  9.9999980E+03; -1.0330434E-02;  0.0000000E+00;  1.9248527E-04;  1.2786344E+00;
  3.1999949E-01;  9.9999998E-03; -1.8000004E-01;1531; -1.0818585E-03;  0.0000000E+00; -7.9537407E-05;  1.0000083E+03;  4.0000001E-01;  6.9133821E+00;3; -1.5357615E+00;  0.0000000E+00; -1.1017174E-01;0; -1.2596102E-02;  1.0000181E+04;  0.0000000E+00; -5.9992494E-10;  1.0000000E+04;  0.0000000E+00;  9.9999873E+03; -1.3782508E-02;  0.0000000E+00;  1.1864051E-03;  5.4282246E+00;
  3.1999949E-01;  9.9999998E-03; -1.6000003E-01;1532; -1.0837388E-03;  0.0000000E+00; -6.0494433E-05;  1.0000084E+03;  4.0000001E-01;  6.9133821E+00;3; -1.5280619E+00;  0.0000000E+00; -8.1346348E-02;0; -1.2789156E-02;  1.0000180E+04;  0.0000000E+00; -4.0960474E-10;  1.0000000E+04;  0.0000000E+00;  9.9999893E+03; -1.3684500E-02;  0.0000000E+00;  8.9534407E-04;  4.2643552E+00;
  3.1999949E-01;  9.9999998E-03; -1.4000002E-01;1533; -1.0824008E-03;  0.0000000E+00; -4.5837009E-05;  1.0000085E+03;  4.0000001E-01;  7.0121446E+00;3; -1.5165322E+00;  0.0000000E+00; -5.9492420E-02;0; -1.2897435E-02;  1.0000179E+04;  0.0000000E+00; -2.7059828E-11;  1.0000000E+04;  0.0000000E+00;  9.9999922E+03; -1.3574286E-02;  0.0000000E+00;  6.7685178E-04;  3.4045317E+00;
  3.1999949E-01;  9.9999998E-03; -1.2000002E-01;1534; -1.0796294E-03;  0.0000000E+00; -3.4605600E-05;  1.0000085E+03;  4.0000001E-01;  7.1109076E+00;3; -1.5040137E+00;  0.0000000E+00; -4.2972811E-02;0; -1.2943808E-02;  1.0000178E+04;  0.0000000E+00; -2.3410766E-11;  1.0000000E+04;  0.0000000E+00;  9.9999941E+03; -1.3467665E-02;  0.0000000E+00;  5.2385678E-04;  2.8087645E+00;
  3.1999949E-01;  9.9999998E-03; -1.0000002E-01;1535; -1.0765279E-03;  0.0000000E+00; -2.5931236E-05;  1.0000086E+03;  4.0000001E-01;  7.1109076E+00;3; -1.4921544E+00;  0.0000000E+00; -3.0885011E-02;0; -1.2957001E-02;  1.0000178E+04;  0.0000000E+00;  1.4973819E-11;  1.0000000E+04;  0.0000000E+00;  9.9999961E+03; -1.3374964E-02;  0.0000000E+00;  4.1796238E-04;  2.3964612E+00;
  3.1999949E-01;  9.9999998E-03; -8.0000013E-02;1536; -1.0737516E-03;  0.0000000E+00; -1.9045896E-05;  1.0000086E+03;  4.0000001E-01;  7.1109076E+00;3; -1.4820248E+00;  0.0000000E+00; -2.1697221E-02;0; -1.2955200E-02;  1.0000177E+04;  0.0000000E+00; -1.2611086E-11;  1.0000000E+04;  0.0000000E+00;  9.9999961E+03; -1.3300951E-02;  0.0000000E+00;  3.4575103E-04;  2.1116319E+00;
  3.1999949E-01;  9.9999998E-03; -6.0000006E-02;1537; -1.0715738E-03;  0.0000000E+00; -1.3438736E-05;  1.0000086E+03;  4.0000001E-01;  7.1109076E+00;3; -1.4740918E+00;  0.0000000E+00; -1.4758897E-02;0; -1.2948360E-02;  1.0000178E+04;  0.0000000E+00; -1.5610891E-11;  1.0000000E+04;  0.0000000E+00;  9.9999961E+03; -1.3246427E-02;  0.0000000E+00;  2.9806670E-04;  1.9189727E+00;
  3.1999949E-01;  9.9999998E-03; -4.0000003E-02;1538; -1.0700685E-03;  0.0000000E+00; -8.5922047E-06;  1.0000086E+03;  4.0000001E-01;  7.1109076E+00;3; -1.4684968E+00;  0.0000000E+00; -9.1823479E-03;0; -1.2941493E-02;  1.0000178E+04;  0.0000000E+00; -1.2268806E-11;  1.0000000E+04;  0.0000000E+00;  9.9999971E+03; -1.3209926E-02;  0.0000000E+00;  2.6843345E-04;  1.7956505E+00;
  3.1999949E-01;  9.9999998E-03; -2.0000001E-02;1539; -1.0691958E-03;  0.0000000E+00; -4.2007164E-06;  1.0000086E+03;  4.0000001E-01;  7.1109076E+00;3; -1.4651879E+00;  0.0000000E+00; -4.4131582E-03;0; -1.2936806E-02;  1.0000178E+04;  0.0000000E+00; -5.1282581E-12;  1.0000000E+04;  0.0000000E+00;  9.9999971E+03; -1.3189222E-02;  0.0000000E+00;  2.5241505E-04;  1.7271457E+00;
  3.3999932E-01;  9.9999998E-03; -1.8000005E-01;1562; -1.4148109E-03;  0.0000000E+00; -9.9447243E-05;  1.0000110E+03;  4.0000001E-01;  9.0861588E+00;3; -1.9418714E+00;  0.0000000E+00; -1.3251351E-01;0; -1.6150052E-02;  1.0000237E+04;  0.0000000E+00; -7.7013868E-10;  1.0000000E+04;  0.0000000E+00;  9.9999824E+03; -1.7691918E-02;  0.0000000E+00;  1.5418667E-03;  7.3062716E+00;
  3.3999929E-01;  9.9999998E-03; -1.6000004E-01;1563; -1.4126730E-03;  0.0000000E+00; -7.5258875E-05;  1.0000112E+03;  4.0000001E-01;  9.2836838E+00;3; -1.9246291E+00;  0.0000000E+00; -9.6638985E-02;0; -1.6357288E-02;  1.0000237E+04;  0.0000000E+00; -2.4382121E-10;  1.0000000E+04;  0.0000000E+00;  9.9999873E+03; -1.7509073E-02;  0.0000000E+00;  1.1517856E-03;  5.7011714E+00;
  3.3999929E-01;  9.9999998E-03; -1.4000003E-01;1564; -1.4072920E-03;  0.0000000E+00; -5.6767960E-05;  1.0000113E+03;  4.0000001E-01;  9.3824463E+00;3; -1.9039174E+00;  0.0000000E+00; -6.9806628E-02;0; -1.6458699E-02;  1.0000235E+04;  0.0000000E+00; -3.8707305E-11;  1.0000000E+04;  0.0000000E+00;  9.9999893E+03; -1.7322415E-02;  0.0000000E+00;  8.6371659E-04;  4.5354896E+00;
  3.3999929E-01;  9.9999998E-03; -1.2000002E-01;1565; -1.4008464E-03;  0.0000000E+00; -4.3036300E-05;  1.0000114E+03;  4.0000001E-01;  9.3824463E+00;3; -1.8831496E+00;  0.0000000E+00; -5.0266176E-02;0; -1.6485712E-02;  1.0000234E+04;  0.0000000E+00;  4.5790764E-11;  1.0000000E+04;  0.0000000E+00;  9.9999922E+03; -1.7152198E-02;  0.0000000E+00;  6.6648645E-04;  3.7429621E+00;
  3.3999929E-01;  9.9999998E-03; -1.0000002E-01;1566; -1.3947713E-03;  0.0000000E+00; -3.2461307E-05;  1.0000114E+03;  4.0000001E-01;  9.4812088E+00;3; -1.8645004E+00;  0.0000000E+00; -3.6257129E-02;0; -1.6476700E-02;  1.0000233E+04;  0.0000000E+00;  1.9889437E-11;  1.0000000E+04;  0.0000000E+00;  9.9999932E+03; -1.7010158E-02;  0.0000000E+00;  5.3345790E-04;  3.2030318E+00;
  3.3999929E-01;  9.9999998E-03; -8.0000013E-02;1567; -1.3897283E-03;  0.0000000E+00; -2.4107319E-05;  1.0000115E+03;  4.0000001E-01;  9.4812088E+00;3; -1.8490438E+00;  0.0000000E+00; -2.5743457E-02;0; -1.6455045E-02;  1.0000233E+04;  0.0000000E+00; -1.5916837E-11;  1.0000000E+04;  0.0000000E+00;  9.9999951E+03; -1.6900264E-02;  0.0000000E+00;  4.4521797E-04;  2.8341179E+00;
  3.3999929E-01;  9.9999998E-03; -6.0000010E-02;1568; -1.3859551E-03;  0.0000000E+00; -1.7187722E-05;  1.0000114E+03;  4.0000001E-01;  9.4812088E+00;3; -1.8372313E+00;  0.0000000E+00; -1.7722581E-02;0; -1.6432738E-02;  1.0000231E+04;  0.0000000E+00; -1.8364936E-11;  1.0000000E+04;  0.0000000E+00;  9.9999961E+03; -1.6821317E-02;  0.0000000E+00;  3.8858020E-04;  2.5863211E+00;
  3.3999929E-01;  9.9999998E-03; -4.0000007E-02;1569; -1.3834148E-03;  0.0000000E+00; -1.1099689E-05;  1.0000114E+03;  4.0000001E-01;  9.4812088E+00;3; -1.8290421E+00;  0.0000000E+00; -1.1193860E-02;0; -1.6415196E-02;  1.0000231E+04;  0.0000000E+00; -2.6452755E-11;  1.0000000E+04;  0.0000000E+00;  9.9999961E+03; -1.6769512E-02;  0.0000000E+00;  3.5431521E-04;  2.4283302E+00;
  3.3999929E-01;  9.9999998E-03; -2.0000003E-02;1570; -1.3819678E-03;  0.0000000E+00; -5.4587485E-06;  1.0000114E+03;  4.0000001E-01;  9.4812088E+00;3; -1.8242552E+00;  0.0000000E+00; -5.4289121E-03;0; -1.6404372E-02;  1.0000231E+04;  0.0000000E+00; -2.2296571E-11;  1.0000000E+04;  0.0000000E+00;  9.9999961E+03; -1.6740566E-02;  0.0000000E+00;  3.3619508E-04;  2.3407412E+00;
  3.5999906E-01;  9.9999998E-03; -1.8000007E-01;1593; -1.8405875E-03;  0.0000000E+00; -1.2348223E-04;  1.0000144E+03;  4.0000001E-01;  1.1950273E+01;3; -2.4409533E+00;  0.0000000E+00; -1.5711629E-01;0; -2.0595990E-02;  1.0000313E+04;  0.0000000E+00; -9.1267577E-10;  1.0000000E+04;  0.0000000E+00;  9.9999756E+03; -2.2567015E-02;  0.0000000E+00;  1.9710253E-03;  9.7215090E+00;
  3.5999906E-01;  9.9999998E-03; -1.6000006E-01;1594; -1.8317903E-03;  0.0000000E+00; -9.3403331E-05;  1.0000145E+03;  4.0000001E-01;  1.2049035E+01;3; -2.4093390E+00;  0.0000000E+00; -1.1361551E-01;0; -2.0798381E-02;  1.0000312E+04;  0.0000000E+00; -2.9279990E-10;  1.0000000E+04;  0.0000000E+00;  9.9999814E+03; -2.2260504E-02;  0.0000000E+00;  1.4621225E-03;  7.5639596E+00;
  3.5999906E-01;  9.9999998E-03; -1.4000005E-01;1595; -1.8202338E-03;  0.0000000E+00; -7.0698494E-05;  1.0000147E+03;  4.0000001E-01;  1.2147798E+01;3; -2.3757091E+00;  0.0000000E+00; -8.1857584E-02;0; -2.0873139E-02;  1.0000309E+04;  0.0000000E+00;  1.4109999E-10;  1.0000000E+04;  0.0000000E+00;  9.9999863E+03; -2.1966765E-02;  0.0000000E+00;  1.0936268E-03;  6.0252409E+00;
  3.5999906E-01;  9.9999998E-03; -1.2000003E-01;1596; -1.8083866E-03;  0.0000000E+00; -5.4171585E-05;  1.0000148E+03;  4.0000001E-01;  1.2246560E+01;3; -2.3434196E+00;  0.0000000E+00; -5.9486054E-02;0; -2.0862726E-02;  1.0000307E+04;  0.0000000E+00;  1.5445184E-10;  1.0000000E+04;  0.0000000E+00;  9.9999893E+03; -2.1710141E-02;  0.0000000E+00;  8.4741489E-04;  4.9963870E+00;
  3.5999906E-01;  9.9999998E-03; -1.0000002E-01;1597; -1.7980952E-03;  0.0000000E+00; -4.1358457E-05;  1.0000148E+03;  4.0000001E-01;  1.2246560E+01;3; -2.3155313E+00;  0.0000000E+00; -4.3452889E-02;0; -2.0817325E-02;  1.0000305E+04;  0.0000000E+00;  9.1348255E-11;  1.0000000E+04;  0.0000000E+00;  9.9999912E+03; -2.1502733E-02;  0.0000000E+00;  6.8540790E-04;  4.3012686E+00;
  3.5999906E-01;  9.9999998E-03; -8.0000021E-02;1598; -1.7899305E-03;  0.0000000E+00; -3.1212436E-05;  1.0000148E+03;  4.0000001E-01;  1.2246560E+01;3; -2.2930052E+00;  0.0000000E+00; -3.1637937E-02;0; -2.0765835E-02;  1.0000304E+04;  0.0000000E+00; -3.4836953E-11;  1.0000000E+04;  0.0000000E+00;  9.9999932E+03; -2.1346340E-02;  0.0000000E+00;  5.8050448E-04;  3.8262491E+00;
  3.5999906E-01;  9.9999998E-03; -6.0000014E-02;1599; -1.7840123E-03;  0.0000000E+00; -2.2549995E-05;  1.0000149E+03;  4.0000001E-01;  1.2345323E+01;3; -2.2761471E+00;  0.0000000E+00; -2.2291323E-02;0; -2.0721633E-02;  1.0000303E+04;  0.0000000E+00; -4.7455217E-11;  1.0000000E+04;  0.0000000E+00;  9.9999932E+03; -2.1236390E-02;  0.0000000E+00;  5.1475607E-04;  3.5054688E+00;
  3.5999906E-01;  9.9999998E-03; -4.0000007E-02;1600; -1.7801048E-03;  0.0000000E+00; -1.4730154E-05;  1.0000149E+03;  4.0000001E-01;  1.2345323E+01;3; -2.2646296E+00;  0.0000000E+00; -1.4399500E-02;0; -2.0689661E-02;  1.0000303E+04;  0.0000000E+00; -5.2342804E-11;  1.0000000E+04;  0.0000000E+00;  9.9999932E+03; -2.1165542E-02;  0.0000000E+00;  4.7588229E-04;  3.2995415E+00;
  3.5999906E-01;  9.9999998E-03; -2.0000003E-02;1601; -1.7779117E-03;  0.0000000E+00; -7.2926837E-06;  1.0000149E+03;  4.0000001E-01;  1.2345323E+01;3; -2.2579725E+00;  0.0000000E+00; -7.0772478E-03;0; -2.0670766E-02;  1.0000303E+04;  0.0000000E+00; -1.1251421E-11;  1.0000000E+04;  0.0000000E+00;  9.9999941E+03; -2.1126486E-02;  0.0000000E+00;  4.5571986E-04;  3.1847022E+00;
  3.7999874E-01;  9.9999998E-03; -1.8000008E-01;1624; -2.3799401E-03;  0.0000000E+00; -1.5346109E-04;  1.0000189E+03;  4.0000001E-01;  1.5604486E+01;3; -3.0492094E+00;  0.0000000E+00; -1.8498343E-01;0; -2.6114212E-02;  1.0000407E+04;  0.0000000E+00; -1.3107465E-09;  1.0000000E+04;  0.0000000E+00;  9.9999688E+03; -2.8600300E-02;  0.0000000E+00;  2.4860878E-03;  1.2836857E+01;
  3.7999874E-01;  9.9999998E-03; -1.6000007E-01;1625; -2.3608450E-03;  0.0000000E+00; -1.1682246E-04;  1.0000190E+03;  4.0000001E-01;  1.5802011E+01;3; -2.9972453E+00;  0.0000000E+00; -1.3349910E-01;0; -2.6280148E-02;  1.0000404E+04;  0.0000000E+00; -2.9682379E-10;  1.0000000E+04;  0.0000000E+00;  9.9999775E+03; -2.8120529E-02;  0.0000000E+00;  1.8403807E-03;  1.0007038E+01;
  3.7999874E-01;  9.9999998E-03; -1.4000005E-01;1626; -2.3401007E-03;  0.0000000E+00; -8.9593646E-05;  1.0000192E+03;  4.0000001E-01;  1.5900773E+01;3; -2.9453428E+00;  0.0000000E+00; -9.7442567E-02;0; -2.6298866E-02;  1.0000401E+04;  0.0000000E+00;  2.3668653E-10;  1.0000000E+04;  0.0000000E+00;  9.9999814E+03; -2.7682181E-02;  0.0000000E+00;  1.3833150E-03;  8.0244598E+00;
  3.7999874E-01;  9.9999998E-03; -1.2000004E-01;1627; -2.3206878E-03;  0.0000000E+00; -6.9757072E-05;  1.0000192E+03;  4.0000001E-01;  1.5900773E+01;3; -2.8975375E+00;  0.0000000E+00; -7.2371110E-02;0; -2.6226517E-02;  1.0000398E+04;  0.0000000E+00;  2.7876601E-10;  1.0000000E+04;  0.0000000E+00;  9.9999863E+03; -2.7312066E-02;  0.0000000E+00;  1.0855497E-03;  6.7140985E+00;
  3.7999874E-01;  9.9999998E-03; -1.0000003E-01;1628; -2.3046564E-03;  0.0000000E+00; -5.4273689E-05;  1.0000192E+03;  4.0000001E-01;  1.5900773E+01;3; -2.8574440E+00;  0.0000000E+00; -5.4498620E-02;0; -2.6126916E-02;  1.0000396E+04;  0.0000000E+00;  7.2432865E-11;  1.0000000E+04;  0.0000000E+00;  9.9999883E+03; -2.7020568E-02;  0.0000000E+00;  8.9365215E-04;  5.8259048E+00;
  3.7999877E-01;  9.9999998E-03; -8.0000021E-02;1629; -2.2923977E-03;  0.0000000E+00; -4.1712283E-05;  1.0000192E+03;  4.0000001E-01;  1.5900773E+01;3; -2.8258467E+00;  0.0000000E+00; -4.1146979E-02;0; -2.6034115E-02;  1.0000395E+04;  0.0000000E+00; -1.0706586E-11;  1.0000000E+04;  0.0000000E+00;  9.9999902E+03; -2.6805386E-02;  0.0000000E+00;  7.7127165E-04;  5.2093668E+00;
  3.7999877E-01;  9.9999998E-03; -6.0000017E-02;1630; -2.2837496E-03;  0.0000000E+00; -3.0560055E-05;  1.0000193E+03;  4.0000001E-01;  1.5999536E+01;3; -2.8026652E+00;  0.0000000E+00; -2.9891409E-02;0; -2.5961490E-02;  1.0000394E+04;  0.0000000E+00; -7.2934561E-11;  1.0000000E+04;  0.0000000E+00;  9.9999902E+03; -2.6656944E-02;  0.0000000E+00;  6.9545442E-04;  4.7842073E+00;
  3.7999877E-01;  9.9999998E-03; -4.0000010E-02;1631; -2.2781468E-03;  0.0000000E+00; -2.0178728E-05;  1.0000193E+03;  4.0000001E-01;  1.5999536E+01;3; -2.7870555E+00;  0.0000000E+00; -1.9789506E-02;0; -2.5911694E-02;  1.0000392E+04;  0.0000000E+00; -6.0290120E-11;  1.0000000E+04;  0.0000000E+00;  9.9999922E+03; -2.6562784E-02;  0.0000000E+00;  6.5108872E-04;  4.5059223E+00;
  3.7999877E-01;  9.9999998E-03; -2.0000005E-02;1632; -2.2750427E-03;  0.0000000E+00; -1.0053564E-05;  1.0000192E+03;  4.0000001E-01;  1.5900773E+01;3; -2.7781241E+00;  0.0000000E+00; -9.8709930E-03;0; -2.5883278E-02;  1.0000392E+04;  0.0000000E+00; -3.2927550E-11;  1.0000000E+04;  0.0000000E+00;  9.9999932E+03; -2.6511561E-02;  0.0000000E+00;  6.2828348E-04;  4.3485403E+00;
  3.9999834E-01;  9.9999998E-03; -1.8000011E-01;1655; -3.0559800E-03;  0.0000000E+00; -1.9268900E-04;  1.0000245E+03;  4.0000001E-01;  2.0345083E+01;3; -3.7830915E+00;  0.0000000E+00; -2.1866676E-01;0; -3.2897875E-02;  1.0000530E+04;  0.0000000E+00; -9.1375646E-10;  1.0000000E+04;  0.0000000E+00;  9.9999590E+03; -3.6005065E-02;  0.0000000E+00;  3.1071885E-03;  1.6908472E+01;
  3.9999834E-01;  9.9999998E-03; -1.6000009E-01;1656; -3.0213969E-03;  0.0000000E+00; -1.4913596E-04;  1.0000247E+03;  4.0000001E-01;  2.0443846E+01;3; -3.7025881E+00;  0.0000000E+00; -1.6003175E-01;0; -3.2980170E-02;  1.0000523E+04;  0.0000000E+00; -1.9597718E-10;  1.0000000E+04;  0.0000000E+00;  9.9999697E+03; -3.5292391E-02;  0.0000000E+00;  2.3122213E-03;  1.3279422E+01;
  3.9999837E-01;  9.9999998E-03; -1.4000008E-01;1657; -2.9874824E-03;  0.0000000E+00; -1.1689692E-04;  1.0000248E+03;  4.0000001E-01;  2.0542608E+01;3; -3.6258249E+00;  0.0000000E+00; -1.2020697E-01;0; -3.2903071E-02;  1.0000521E+04;  0.0000000E+00;  7.2732109E-10;  1.0000000E+04;  0.0000000E+00;  9.9999775E+03; -3.4666196E-02;  0.0000000E+00;  1.7631234E-03;  1.0774390E+01;
  3.9999837E-01;  9.9999998E-03; -1.2000006E-01;1658; -2.9577289E-03;  0.0000000E+00; -9.2911810E-05;  1.0000248E+03;  4.0000001E-01;  2.0542608E+01;3; -3.5576477E+00;  0.0000000E+00; -9.2514224E-02;0; -3.2738335E-02;  1.0000516E+04;  0.0000000E+00;  5.4937654E-10;  1.0000000E+04;  0.0000000E+00;  9.9999814E+03; -3.4151919E-02;  0.0000000E+00;  1.4135819E-03;  9.1218863E+00;
  3.9999837E-01;  9.9999998E-03; -1.0000005E-01;1659; -2.9341222E-03;  0.0000000E+00; -7.3851021E-05;  1.0000248E+03;  4.0000001E-01;  2.0542608E+01;3; -3.5019188E+00;  0.0000000E+00; -7.2789200E-02;0; -3.2564431E-02;  1.0000512E+04;  0.0000000E+00;  2.8326935E-10;  1.0000000E+04;  0.0000000E+00;  9.9999834E+03; -3.3755135E-02;  0.0000000E+00;  1.1907051E-03;  7.9794555E+00;
  3.9999837E-01;  9.9999998E-03; -8.0000035E-02;1660; -2.9166760E-03;  0.0000000E+00; -5.7685604E-05;  1.0000248E+03;  4.0000001E-01;  2.0542608E+01;3; -3.4590514E+00;  0.0000000E+00; -5.7038061E-02;0; -3.2419037E-02;  1.0000511E+04;  0.0000000E+00;  5.6732584E-11;  1.0000000E+04;  0.0000000E+00;  9.9999854E+03; -3.3467192E-02;  0.0000000E+00;  1.0481562E-03;  7.1595063E+00;
  3.9999837E-01;  9.9999998E-03; -6.0000025E-02;1661; -2.9046834E-03;  0.0000000E+00; -4.2800370E-05;  1.0000248E+03;  4.0000001E-01;  2.0542608E+01;3; -3.4281828E+00;  0.0000000E+00; -4.2770725E-02;0; -3.2312725E-02;  1.0000509E+04;  0.0000000E+00;  2.9302786E-11;  1.0000000E+04;  0.0000000E+00;  9.9999873E+03; -3.3271495E-02;  0.0000000E+00;  9.5876976E-04;  6.5737672E+00;
  3.9999837E-01;  9.9999998E-03; -4.0000018E-02;1662; -2.8970724E-03;  0.0000000E+00; -2.8486784E-05;  1.0000248E+03;  4.0000001E-01;  2.0542608E+01;3; -3.4077134E+00;  0.0000000E+00; -2.8894875E-02;0; -3.2243446E-02;  1.0000509E+04;  0.0000000E+00; -7.8217231E-11;  1.0000000E+04;  0.0000000E+00;  9.9999893E+03; -3.3149112E-02;  0.0000000E+00;  9.0566679E-04;  6.1791186E+00;
  3.9999837E-01;  9.9999998E-03; -2.0000009E-02;1663; -2.8929173E-03;  0.0000000E+00; -1.4264168E-05;  1.0000248E+03;  4.0000001E-01;  2.0542608E+01;3; -3.3961241E+00;  0.0000000E+00; -1.4614008E-02;0; -3.2205299E-02;  1.0000508E+04;  0.0000000E+00; -5.9059500E-11;  1.0000000E+04;  0.0000000E+00;  9.9999893E+03; -3.3083305E-02;  0.0000000E+00;  8.7800482E-04;  5.9515395E+00;
  4.1999781E-01;  9.9999998E-03; -1.8000014E-01;1686; -3.8958201E-03;  0.0000000E+00; -2.4739373E-04;  1.0000317E+03;  4.0000001E-01;  2.6270828E+01;3; -4.6591821E+00;  0.0000000E+00; -2.6404887E-01;0; -4.1133083E-02;  1.0000686E+04;  0.0000000E+00; -6.0067890E-10;  1.0000000E+04;  0.0000000E+00;  9.9999482E+03; -4.5005575E-02;  0.0000000E+00;  3.8724928E-03;  2.2361988E+01;
  4.1999784E-01;  9.9999998E-03; -1.6000012E-01;1687; -3.8387321E-03;  0.0000000E+00; -1.9627120E-04;  1.0000318E+03;  4.0000001E-01;  2.6369591E+01;3; -4.5396271E+00;  0.0000000E+00; -1.9928390E-01;0; -4.1068040E-02;  1.0000676E+04;  0.0000000E+00;  9.7848152E-10;  1.0000000E+04;  0.0000000E+00;  9.9999600E+03; -4.3992929E-02;  0.0000000E+00;  2.9248884E-03;  1.7784916E+01;
  4.1999784E-01;  9.9999998E-03; -1.4000009E-01;1688; -3.7863236E-03;  0.0000000E+00; -1.5826465E-04;  1.0000319E+03;  4.0000001E-01;  2.6468353E+01;3; -4.4296303E+00;  0.0000000E+00; -1.5683550E-01;0; -4.0846363E-02;  1.0000669E+04;  0.0000000E+00;  1.1792011E-09;  1.0000000E+04;  0.0000000E+00;  9.9999678E+03; -4.3132175E-02;  0.0000000E+00;  2.2858107E-03;  1.4652300E+01;
  4.1999784E-01;  9.9999998E-03; -1.2000008E-01;1689; -3.7426418E-03;  0.0000000E+00; -1.2856143E-04;  1.0000319E+03;  4.0000001E-01;  2.6369591E+01;3; -4.3352399E+00;  0.0000000E+00; -1.2626085E-01;0; -4.0555891E-02;  1.0000664E+04;  0.0000000E+00;  1.2477166E-09;  1.0000000E+04;  0.0000000E+00;  9.9999736E+03; -4.2440902E-02;  0.0000000E+00;  1.8850105E-03;  1.2558861E+01;
  4.1999784E-01;  9.9999998E-03; -1.0000006E-01;1690; -3.7092015E-03;  0.0000000E+00; -1.0402138E-04;  1.0000318E+03;  4.0000001E-01;  2.6369591E+01;3; -4.2600255E+00;  0.0000000E+00; -1.0368233E-01;0; -4.0288769E-02;  1.0000660E+04;  0.0000000E+00;  4.1592338E-10;  1.0000000E+04;  0.0000000E+00;  9.9999785E+03; -4.1915711E-02;  0.0000000E+00;  1.6269431E-03;  1.1054168E+01;
  4.1999787E-01;  9.9999998E-03; -8.0000050E-02;1691; -3.6852548E-03;  0.0000000E+00; -8.2235070E-05;  1.0000319E+03;  4.0000001E-01;  2.6369591E+01;3; -4.2034860E+00;  0.0000000E+00; -8.3942436E-02;0; -4.0082760E-02;  1.0000657E+04;  0.0000000E+00; -4.3446748E-12;  1.0000000E+04;  0.0000000E+00;  9.9999795E+03; -4.1539144E-02;  0.0000000E+00;  1.4563825E-03;  9.9214468E+00;
  4.1999787E-01;  9.9999998E-03; -6.0000036E-02;1692; -3.6692489E-03;  0.0000000E+00; -6.1499821E-05;  1.0000318E+03;  4.0000001E-01;  2.6369591E+01;3; -4.1636300E+00;  0.0000000E+00; -6.4224251E-02;0; -3.9941613E-02;  1.0000654E+04;  0.0000000E+00;  7.6856708E-11;  1.0000000E+04;  0.0000000E+00;  9.9999824E+03; -4.1286029E-02;  0.0000000E+00;  1.3444169E-03;  9.0775776E+00;
  4.1999787E-01;  9.9999998E-03; -4.0000021E-02;1693; -3.6593294E-03;  0.0000000E+00; -4.1097028E-05;  1.0000317E+03;  4.0000001E-01;  2.6270828E+01;3; -4.1375966E+00;  0.0000000E+00; -4.3906298E-02;0; -3.9854746E-02;  1.0000652E+04;  0.0000000E+00;  2.6264678E-11;  1.0000000E+04;  0.0000000E+00;  9.9999824E+03; -4.1129448E-02;  0.0000000E+00;  1.2747012E-03;  8.4912882E+00;
  4.1999787E-01;  9.9999998E-03; -2.0000011E-02;1694; -3.6540111E-03;  0.0000000E+00; -2.0603893E-05;  1.0000317E+03;  4.0000001E-01;  2.6270828E+01;3; -4.1230278E+00;  0.0000000E+00; -2.2323392E-02;0; -3.9809071E-02;  1.0000651E+04;  0.0000000E+00; -2.1335510E-11;  1.0000000E+04;  0.0000000E+00;  9.9999834E+03; -4.1046020E-02;  0.0000000E+00;  1.2369499E-03;  8.1465750E+00;
  4.3999714E-01;  9.9999998E-03; -1.8000020E-01;1717; -4.9338588E-03;  0.0000000E+00; -3.2840698E-04;  1.0000404E+03;  4.0000001E-01;  3.3480480E+01;3; -5.6948996E+00;  0.0000000E+00; -3.3233410E-01;0; -5.0950509E-02;  1.0000880E+04;  0.0000000E+00;  1.4147231E-09;  1.0000000E+04;  0.0000000E+00;  9.9999316E+03; -5.5805739E-02;  0.0000000E+00;  4.8552291E-03;  2.9910156E+01;
  4.3999717E-01;  9.9999998E-03; -1.6000016E-01;1718; -4.8452741E-03;  0.0000000E+00; -2.6846473E-04;  1.0000406E+03;  4.0000001E-01;  3.3579243E+01;3; -5.5231075E+00;  0.0000000E+00; -2.6324147E-01;0; -5.0661467E-02;  1.0000866E+04;  0.0000000E+00;  3.5840639E-09;  1.0000000E+04;  0.0000000E+00;  9.9999463E+03; -5.4422386E-02;  0.0000000E+00;  3.7609206E-03;  2.4157785E+01;
  4.3999717E-01;  9.9999998E-03; -1.4000013E-01;1719; -4.7677271E-03;  0.0000000E+00; -2.2236793E-04;  1.0000404E+03;  4.0000001E-01;  3.3480480E+01;3; -5.3699126E+00;  0.0000000E+00; -2.1837762E-01;0; -5.0242573E-02;  1.0000854E+04;  0.0000000E+00;  3.8433705E-09;  1.0000000E+04;  0.0000000E+00;  9.9999561E+03; -5.3279653E-02;  0.0000000E+00;  3.0370816E-03;  2.0217955E+01;
  4.3999720E-01;  9.9999998E-03; -1.2000011E-01;1720; -4.7055976E-03;  0.0000000E+00; -1.8380229E-04;  1.0000405E+03;  4.0000001E-01;  3.3480480E+01;3; -5.2426119E+00;  0.0000000E+00; -1.8323661E-01;0; -4.9796198E-02;  1.0000849E+04;  0.0000000E+00;  2.4463656E-09;  1.0000000E+04;  0.0000000E+00;  9.9999629E+03; -5.2377962E-02;  0.0000000E+00;  2.5817640E-03;  1.7505281E+01;
  4.3999720E-01;  9.9999998E-03; -1.0000009E-01;1721; -4.6594767E-03;  0.0000000E+00; -1.5026116E-04;  1.0000404E+03;  4.0000001E-01;  3.3480480E+01;3; -5.1436834E+00;  0.0000000E+00; -1.5501657E-01;0; -4.9424309E-02;  1.0000842E+04;  0.0000000E+00;  1.1917657E-09;  1.0000000E+04;  0.0000000E+00;  9.9999678E+03; -5.1699974E-02;  0.0000000E+00;  2.2756634E-03;  1.5447972E+01;
  4.3999723E-01;  9.9999998E-03; -8.0000065E-02;1722; -4.6274113E-03;  0.0000000E+00; -1.1934378E-04;  1.0000405E+03;  4.0000001E-01;  3.3579243E+01;3; -5.0710416E+00;  0.0000000E+00; -1.2767819E-01;0; -4.9158398E-02;  1.0000837E+04;  0.0000000E+00;  5.5518445E-10;  1.0000000E+04;  0.0000000E+00;  9.9999727E+03; -5.1217236E-02;  0.0000000E+00;  2.0588380E-03;  1.3816951E+01;
  4.3999723E-01;  9.9999998E-03; -6.0000051E-02;1723; -4.6065408E-03;  0.0000000E+00; -8.9580448E-05;  1.0000405E+03;  4.0000001E-01;  3.3480480E+01;3; -5.0207977E+00;  0.0000000E+00; -9.9008389E-02;0; -4.8989438E-02;  1.0000835E+04;  0.0000000E+00;  1.1289738E-10;  1.0000000E+04;  0.0000000E+00;  9.9999766E+03; -5.0894871E-02;  0.0000000E+00;  1.9054344E-03;  1.2554482E+01;
  4.3999723E-01;  9.9999998E-03; -4.0000033E-02;1724; -4.5939754E-03;  0.0000000E+00; -5.9910766E-05;  1.0000405E+03;  4.0000001E-01;  3.3480480E+01;3; -4.9886446E+00;  0.0000000E+00; -6.7859873E-02;0; -4.8893385E-02;  1.0000832E+04;  0.0000000E+00; -6.4945649E-12;  1.0000000E+04;  0.0000000E+00;  9.9999766E+03; -5.0696790E-02;  0.0000000E+00;  1.8034073E-03;  1.1655243E+01;
  4.3999723E-01;  9.9999998E-03; -2.0000016E-02;1725; -4.5873830E-03;  0.0000000E+00; -3.0039037E-05;  1.0000404E+03;  4.0000001E-01;  3.3480480E+01;3; -4.9708476E+00;  0.0000000E+00; -3.4561038E-02;0; -4.8846550E-02;  1.0000832E+04;  0.0000000E+00; -9.2490064E-11;  1.0000000E+04;  0.0000000E+00;  9.9999785E+03; -5.0591968E-02;  0.0000000E+00;  1.7454163E-03;  1.1118746E+01;
  4.5999625E-01;  9.9999998E-03; -1.8000029E-01;1748; -6.2149391E-03;  0.0000000E+00; -4.5305945E-04;  1.0000517E+03;  4.0000027E-01;  4.2862888E+01;3; -6.9089766E+00;  0.0000000E+00; -4.4186720E-01;0; -6.2324475E-02;  1.0001113E+04;  0.0000000E+00;  1.3659936E-08;  1.0000000E+04;  0.0000000E+00;  9.9999063E+03; -6.8512686E-02;  0.0000000E+00;  6.1882106E-03;  4.0717220E+01;
  4.5999628E-01;  9.9999998E-03; -1.6000023E-01;1749; -6.0845469E-03;  0.0000000E+00; -3.8143038E-04;  1.0000516E+03;  4.0000024E-01;  4.2764126E+01;3; -6.6696763E+00;  0.0000000E+00; -3.7072381E-01;0; -6.1733115E-02;  1.0001096E+04;  0.0000000E+00;  1.4513842E-08;  1.0000000E+04;  0.0000000E+00;  9.9999238E+03; -6.6687159E-02;  0.0000000E+00;  4.9540424E-03;  3.3343338E+01;
  4.5999631E-01;  9.9999998E-03; -1.4000019E-01;1750; -5.9742234E-03;  0.0000000E+00; -3.2180152E-04;  1.0000515E+03;  4.0000027E-01;  4.2665363E+01;3; -6.4624081E+00;  0.0000000E+00; -3.2149932E-01;0; -6.1070994E-02;  1.0001080E+04;  0.0000000E+00;  1.1046161E-08;  1.0000000E+04;  0.0000000E+00;  9.9999375E+03; -6.5216027E-02;  0.0000000E+00;  4.1450332E-03;  2.8243603E+01;
  4.5999634E-01;  9.9999998E-03; -1.2000016E-01;1751; -5.8882497E-03;  0.0000000E+00; -2.6842393E-04;  1.0000514E+03;  4.0000027E-01;  4.2566601E+01;3; -6.2949715E+00;  0.0000000E+00; -2.7825832E-01;0; -6.0451057E-02;  1.0001072E+04;  0.0000000E+00;  6.0019372E-09;  1.0000000E+04;  0.0000000E+00;  9.9999473E+03; -6.4070530E-02;  0.0000000E+00;  3.6194730E-03;  2.4588335E+01;
  4.5999637E-01;  9.9999998E-03; -1.0000013E-01;1752; -5.8259047E-03;  0.0000000E+00; -2.1989235E-04;  1.0000515E+03;  4.0000018E-01;  4.2665363E+01;3; -6.1680012E+00;  0.0000000E+00; -2.3787051E-01;0; -5.9978280E-02;  1.0001063E+04;  0.0000000E+00;  2.7434042E-09;  1.0000000E+04;  0.0000000E+00;  9.9999541E+03; -6.3214242E-02;  0.0000000E+00;  3.2359606E-03;  2.1661398E+01;
  4.5999637E-01;  9.9999998E-03; -8.0000095E-02;1753; -5.7836594E-03;  0.0000000E+00; -1.7424028E-04;  1.0000513E+03;  4.0000021E-01;  4.2566601E+01;3; -6.0768027E+00;  0.0000000E+00; -1.9651549E-01;0; -5.9668973E-02;  1.0001058E+04;  0.0000000E+00;  9.7176744E-10;  1.0000000E+04;  0.0000000E+00;  9.9999600E+03; -6.2606275E-02;  0.0000000E+00;  2.9373027E-03;  1.9238047E+01;
  4.5999637E-01;  9.9999998E-03; -6.0000069E-02;1754; -5.7568979E-03;  0.0000000E+00; -1.3026356E-04;  1.0000515E+03;  4.0000018E-01;  4.2665363E+01;3; -6.0150018E+00;  0.0000000E+00; -1.5197311E-01;0; -5.9492894E-02;  1.0001054E+04;  0.0000000E+00;  3.8945274E-11;  1.0000000E+04;  0.0000000E+00;  9.9999639E+03; -6.2201187E-02;  0.0000000E+00;  2.7082919E-03;  1.7310196E+01;
  4.5999637E-01;  9.9999998E-03; -4.0000048E-02;1755; -5.7412153E-03;  0.0000000E+00; -8.6869899E-05;  1.0000515E+03;  4.0000024E-01;  4.2665363E+01;3; -5.9761128E+00;  0.0000000E+00; -1.0375755E-01;0; -5.9406575E-02;  1.0001052E+04;  0.0000000E+00;  1.0938807E-10;  1.0000000E+04;  0.0000000E+00;  9.9999678E+03; -6.1953075E-02;  0.0000000E+00;  2.5465006E-03;  1.5914441E+01;
  4.5999640E-01;  9.9999998E-03; -2.0000022E-02;1756; -5.7331864E-03;  0.0000000E+00; -4.3487202E-05;  1.0000515E+03;  4.0000024E-01;  4.2665363E+01;3; -5.9549446E+00;  0.0000000E+00; -5.2514996E-02;0; -5.9371464E-02;  1.0001050E+04;  0.0000000E+00; -4.5392436E-11;  1.0000000E+04;  0.0000000E+00;  9.9999697E+03; -6.1822236E-02;  0.0000000E+00;  2.4507702E-03;  1.5074190E+01;
  4.7999510E-01;  9.9999998E-03; -1.8000041E-01;1779; -7.7945557E-03;  0.0000000E+00; -6.4921589E-04;  1.0000648E+03;  4.0000075E-01;  5.3726715E+01;3; -8.3215151E+00;  0.0000000E+00; -6.2539458E-01;0; -7.4899137E-02;  1.0001395E+04;  0.0000000E+00;  5.1235581E-08;  1.0000000E+04;  0.0000000E+00;  9.9998701E+03; -8.2995892E-02;  0.0000000E+00;  8.0967527E-03;  5.6637890E+01;
  4.7999516E-01;  9.9999998E-03; -1.6000035E-01;1780; -7.6118419E-03;  0.0000000E+00; -5.5825448E-04;  1.0000649E+03;  4.0000075E-01;  5.3726715E+01;3; -7.9990811E+00;  0.0000000E+00; -5.5230838E-01;0; -7.3950417E-02;  1.0001369E+04;  0.0000000E+00;  4.3044881E-08;  1.0000000E+04;  0.0000000E+00;  9.9998975E+03; -8.0655679E-02;  0.0000000E+00;  6.7052613E-03;  4.6681019E+01;
  4.7999522E-01;  9.9999998E-03; -1.4000028E-01;1781; -7.4606575E-03;  0.0000000E+00; -4.7378679E-04;  1.0000648E+03;  4.0000075E-01;  5.3627953E+01;3; -7.7268519E+00;  0.0000000E+00; -4.8980215E-01;0; -7.3023163E-02;  1.0001351E+04;  0.0000000E+00;  3.1890959E-08;  1.0000000E+04;  0.0000000E+00;  9.9999131E+03; -7.8808740E-02;  0.0000000E+00;  5.7855751E-03;  3.9714191E+01;
  4.7999525E-01;  9.9999998E-03; -1.2000023E-01;1782; -7.3447959E-03;  0.0000000E+00; -3.9445798E-04;  1.0000646E+03;  4.0000066E-01;  5.3529190E+01;3; -7.5121489E+00;  0.0000000E+00; -4.2838973E-01;0; -7.2237022E-02;  1.0001336E+04;  0.0000000E+00;  1.7302320E-08;  1.0000000E+04;  0.0000000E+00;  9.9999258E+03; -7.7384651E-02;  0.0000000E+00;  5.1476257E-03;  3.4550686E+01;
  4.7999528E-01;  9.9999998E-03; -1.0000018E-01;1783; -7.2620925E-03;  0.0000000E+00; -3.2101606E-04;  1.0000647E+03;  4.0000072E-01;  5.3627953E+01;3; -7.3526316E+00;  0.0000000E+00; -3.6527002E-01;0; -7.1692146E-02;  1.0001326E+04;  0.0000000E+00;  7.1881865E-09;  1.0000000E+04;  0.0000000E+00;  9.9999346E+03; -7.6322764E-02;  0.0000000E+00;  4.6306206E-03;  3.0260601E+01;
  4.7999531E-01;  9.9999998E-03; -8.0000140E-02;1784; -7.2071101E-03;  0.0000000E+00; -2.5279567E-04;  1.0000646E+03;  4.0000072E-01;  5.3529190E+01;3; -7.2406225E+00;  0.0000000E+00; -2.9948887E-01;0; -7.1378671E-02;  1.0001318E+04;  0.0000000E+00;  2.3584128E-09;  1.0000000E+04;  0.0000000E+00;  9.9999424E+03; -7.5568482E-02;  0.0000000E+00;  4.1898112E-03;  2.6614674E+01;
  4.7999531E-01;  9.9999998E-03; -6.0000099E-02;1785; -7.1730725E-03;  0.0000000E+00; -1.8791558E-04;  1.0000648E+03;  4.0000072E-01;  5.3726715E+01;3; -7.1660714E+00;  0.0000000E+00; -2.3000340E-01;0; -7.1235761E-02;  1.0001313E+04;  0.0000000E+00;  6.2417232E-10;  1.0000000E+04;  0.0000000E+00;  9.9999492E+03; -7.5065680E-02;  0.0000000E+00;  3.8299181E-03;  2.3668404E+01;
  4.7999531E-01;  9.9999998E-03; -4.0000062E-02;1786; -7.1537616E-03;  0.0000000E+00; -1.2456141E-04;  1.0000648E+03;  4.0000072E-01;  5.3627953E+01;3; -7.1201262E+00;  0.0000000E+00; -1.5605837E-01;0; -7.1192943E-02;  1.0001309E+04;  0.0000000E+00;  1.6121113E-10;  1.0000000E+04;  0.0000000E+00;  9.9999541E+03; -7.4757896E-02;  0.0000000E+00;  3.5649550E-03;  2.1516266E+01;
  4.7999531E-01;  9.9999998E-03; -2.0000031E-02;1787; -7.1441731E-03;  0.0000000E+00; -6.2176456E-05;  1.0000648E+03;  4.0000072E-01;  5.3627953E+01;3; -7.0955567E+00;  0.0000000E+00; -7.9088487E-02;0; -7.1191706E-02;  1.0001308E+04;  0.0000000E+00; -2.4815238E-11;  1.0000000E+04;  0.0000000E+00;  9.9999580E+03; -7.4595742E-02;  0.0000000E+00;  3.4040364E-03;  2.0213898E+01;
  4.9999365E-01;  9.9999998E-03; -1.8000060E-01;1810; -9.7320424E-03;  0.0000000E+00; -9.5595937E-04;  1.0000800E+03;  4.0000156E-01;  6.6269463E+01;3; -9.9524937E+00;  0.0000000E+00; -9.2997682E-01;0; -8.7748453E-02;  1.0001706E+04;  0.0000000E+00;  1.3123793E-07;  1.0000000E+04;  0.0000000E+00;  9.9998184E+03; -9.8696359E-02;  0.0000000E+00;  1.0947902E-02;  8.0640953E+01;
  4.9999374E-01;  9.9999998E-03; -1.6000050E-01;1811; -9.4881691E-03;  0.0000000E+00; -8.2765275E-04;  1.0000801E+03;  4.0000162E-01;  6.6368225E+01;3; -9.5327950E+00;  0.0000000E+00; -8.4689063E-01;0; -8.6464308E-02;  1.0001674E+04;  0.0000000E+00;  1.1288604E-07;  1.0000000E+04;  0.0000000E+00;  9.9998506E+03; -9.5765457E-02;  0.0000000E+00;  9.3011502E-03;  6.6048302E+01;
  4.9999380E-01;  9.9999998E-03; -1.4000042E-01;1812; -9.2881573E-03;  0.0000000E+00; -6.9979578E-04;  1.0000800E+03;  4.0000153E-01;  6.6269463E+01;3; -9.1861629E+00;  0.0000000E+00; -7.5486606E-01;0; -8.5304990E-02;  1.0001648E+04;  0.0000000E+00;  8.2416591E-08;  1.0000000E+04;  0.0000000E+00;  9.9998750E+03; -9.3489267E-02;  0.0000000E+00;  8.1842802E-03;  5.5822796E+01;
  4.9999386E-01;  9.9999998E-03; -1.2000033E-01;1813; -9.1357334E-03;  0.0000000E+00; -5.7738385E-04;  1.0000800E+03;  4.0000156E-01;  6.6269463E+01;3; -8.9176388E+00;  0.0000000E+00; -6.5647143E-01;0; -8.4402092E-02;  1.0001630E+04;  0.0000000E+00;  4.4564043E-08;  1.0000000E+04;  0.0000000E+00;  9.9998916E+03; -9.1746569E-02;  0.0000000E+00;  7.3444741E-03;  4.8192703E+01;
  4.9999389E-01;  9.9999998E-03; -1.0000025E-01;1814; -9.0279002E-03;  0.0000000E+00; -4.6440240E-04;  1.0000801E+03;  4.0000159E-01;  6.6368225E+01;3; -8.7212543E+00;  0.0000000E+00; -5.5267495E-01;0; -8.3848335E-02;  1.0001617E+04;  0.0000000E+00;  1.9478694E-08;  1.0000000E+04;  0.0000000E+00;  9.9999072E+03; -9.0447679E-02;  0.0000000E+00;  6.5993462E-03;  4.1810230E+01;
  4.9999392E-01;  9.9999998E-03; -8.0000192E-02;1815; -8.9573096E-03;  0.0000000E+00; -3.6153221E-04;  1.0000801E+03;  4.0000153E-01;  6.6368225E+01;3; -8.5857439E+00;  0.0000000E+00; -4.4650632E-01;0; -8.3599739E-02;  1.0001607E+04;  0.0000000E+00;  7.4114586E-09;  1.0000000E+04;  0.0000000E+00;  9.9999209E+03; -8.9523152E-02;  0.0000000E+00;  5.9234109E-03;  3.6352345E+01;
  4.9999392E-01;  9.9999998E-03; -6.0000136E-02;1816; -8.9147165E-03;  0.0000000E+00; -2.6619120E-04;  1.0000803E+03;  4.0000156E-01;  6.6565750E+01;3; -8.4977598E+00;  0.0000000E+00; -3.3812466E-01;0; -8.3554618E-02;  1.0001601E+04;  0.0000000E+00;  1.7103273E-09;  1.0000000E+04;  0.0000000E+00;  9.9999307E+03; -8.8905185E-02;  0.0000000E+00;  5.3505660E-03;  3.1917294E+01;
  4.9999392E-01;  9.9999998E-03; -4.0000089E-02;1817; -8.8911196E-03;  0.0000000E+00; -1.7573840E-04;  1.0000804E+03;  4.0000159E-01;  6.6664513E+01;3; -8.4444904E+00;  0.0000000E+00; -2.2835214E-01;0; -8.3607011E-02;  1.0001596E+04;  0.0000000E+00;  6.5295952E-10;  1.0000000E+04;  0.0000000E+00;  9.9999395E+03; -8.8525891E-02;  0.0000000E+00;  4.9188808E-03;  2.8662951E+01;
  4.9999392E-01;  9.9999998E-03; -2.0000044E-02;1818; -8.8796681E-03;  0.0000000E+00; -8.7497341E-05;  1.0000808E+03;  4.0000162E-01;  6.6960800E+01;3; -8.4159222E+00;  0.0000000E+00; -1.1604500E-01;0; -8.3672978E-02;  1.0001595E+04;  0.0000000E+00;  1.6712302E-11;  1.0000000E+04;  0.0000000E+00;  9.9999434E+03; -8.8325836E-02;  0.0000000E+00;  4.6528582E-03;  2.6687464E+01;
  5.1999182E-01;  9.9999998E-03; -1.8000089E-01;1841; -1.2077308E-02;  0.0000000E+00; -1.4190240E-03;  1.0000991E+03;  4.0000442E-01;  8.2071312E+01;3; -1.1817736E+01;  0.0000000E+00; -1.4223447E+00;0; -9.9096186E-02;  1.0002030E+04;  0.0000000E+00;  2.5758590E-07;  1.0000000E+04;  0.0000000E+00;  9.9997324E+03; -1.1443390E-01;  0.0000000E+00;  1.5337712E-02;  1.1759951E+02;
  5.1999193E-01;  9.9999998E-03; -1.6000073E-01;1842; -1.1765315E-02;  0.0000000E+00; -1.2198327E-03;  1.0000997E+03;  4.0000448E-01;  8.2565125E+01;3; -1.1288937E+01;  0.0000000E+00; -1.3026395E+00;0; -9.7693473E-02;  1.0001986E+04;  0.0000000E+00;  2.4309625E-07;  1.0000000E+04;  0.0000000E+00;  9.9997852E+03; -1.1084598E-01;  0.0000000E+00;  1.3152513E-02;  9.4235863E+01;
  5.1999199E-01;  9.9999998E-03; -1.4000058E-01;1843; -1.1508808E-02;  0.0000000E+00; -1.0203369E-03;  1.0000998E+03;  4.0000442E-01;  8.2663887E+01;3; -1.0860920E+01;  0.0000000E+00; -1.1471781E+00;0; -9.6458919E-02;  1.0001954E+04;  0.0000000E+00;  1.8189151E-07;  1.0000000E+04;  0.0000000E+00;  9.9998213E+03; -1.0808200E-01;  0.0000000E+00;  1.1623083E-02;  7.8066513E+01;
  5.1999205E-01;  9.9999998E-03; -1.2000046E-01;1844; -1.1312794E-02;  0.0000000E+00; -8.3263358E-04;  1.0001000E+03;  4.0000448E-01;  8.2861412E+01;3; -1.0532862E+01;  0.0000000E+00; -9.8022288E-01;0; -9.5562138E-02;  1.0001930E+04;  0.0000000E+00;  1.0522163E-07;  1.0000000E+04;  0.0000000E+00;  9.9998477E+03; -1.0597368E-01;  0.0000000E+00;  1.0411545E-02;  6.6345016E+01;
  5.1999211E-01;  9.9999998E-03; -1.0000035E-01;1845; -1.1174336E-02;  0.0000000E+00; -6.6220132E-04;  1.0001002E+03;  4.0000445E-01;  8.3058937E+01;3; -1.0294782E+01;  0.0000000E+00; -8.1502700E-01;0; -9.5111817E-02;  1.0001912E+04;  0.0000000E+00;  4.8839297E-08;  1.0000000E+04;  0.0000000E+00;  9.9998711E+03; -1.0440143E-01;  0.0000000E+00;  9.2896167E-03;  5.6809978E+01;
  5.1999217E-01;  9.9999998E-03; -8.0000266E-02;1846; -1.1085099E-02;  0.0000000E+00; -5.0872751E-04;  1.0001004E+03;  4.0000445E-01;  8.3157700E+01;3; -1.0133080E+01;  0.0000000E+00; -6.4930892E-01;0; -9.5033675E-02;  1.0001898E+04;  0.0000000E+00;  1.8604709E-08;  1.0000000E+04;  0.0000000E+00;  9.9998906E+03; -1.0327844E-01;  0.0000000E+00;  8.2447622E-03;  4.8764267E+01;
  5.1999217E-01;  9.9999998E-03; -6.0000185E-02;1847; -1.1032307E-02;  0.0000000E+00; -3.7041347E-04;  1.0001008E+03;  4.0000451E-01;  8.3552742E+01;3; -1.0029935E+01;  0.0000000E+00; -4.8552790E-01;0; -9.5179498E-02;  1.0001892E+04;  0.0000000E+00;  5.6632721E-09;  1.0000000E+04;  0.0000000E+00;  9.9999063E+03; -1.0252378E-01;  0.0000000E+00;  7.3442832E-03;  4.2243118E+01;
  5.1999217E-01;  9.9999998E-03; -4.0000118E-02;1848; -1.1003958E-02;  0.0000000E+00; -2.4223952E-04;  1.0001011E+03;  4.0000448E-01;  8.3750267E+01;3; -9.9688597E+00;  0.0000000E+00; -3.2328320E-01;0; -9.5400020E-02;  1.0001886E+04;  0.0000000E+00;  1.0372697E-09;  1.0000000E+04;  0.0000000E+00;  9.9999180E+03; -1.0205763E-01;  0.0000000E+00;  6.6576055E-03;  3.7448685E+01;
  5.1999217E-01;  9.9999998E-03; -2.0000059E-02;1849; -1.0990745E-02;  0.0000000E+00; -1.1973330E-04;  1.0001014E+03;  4.0000445E-01;  8.4046555E+01;3; -9.9372835E+00;  0.0000000E+00; -1.6074586E-01;0; -9.5579006E-02;  1.0001883E+04;  0.0000000E+00; -1.7668108E-11;  1.0000000E+04;  0.0000000E+00;  9.9999248E+03; -1.0181009E-01;  0.0000000E+00;  6.2310826E-03;  3.4530792E+01;
  5.3998959E-01;  9.9999998E-03; -1.8000129E-01;1872; -1.4845170E-02;  0.0000000E+00; -2.0824634E-03;  1.0001251E+03;  4.0001169E-01;  1.0370002E+02;3; -1.3910261E+01;  0.0000000E+00; -2.1730235E+00;0; -1.0607024E-01;  1.0002321E+04;  0.0000000E+00;  3.5938649E-07;  1.0000000E+04;  0.0000000E+00;  9.9995967E+03; -1.2827599E-01;  0.0000000E+00;  2.2205759E-02;  1.7528766E+02;
  5.3998971E-01;  9.9999998E-03; -1.6000104E-01;1873; -1.4461830E-02;  0.0000000E+00; -1.7658824E-03;  1.0001269E+03;  4.0001169E-01;  1.0508269E+02;3; -1.3283658E+01;  0.0000000E+00; -1.9356531E+00;0; -1.0514956E-01;  1.0002269E+04;  0.0000000E+00;  3.9547638E-07;  1.0000000E+04;  0.0000000E+00;  9.9996875E+03; -1.2401619E-01;  0.0000000E+00;  1.8866630E-02;  1.3559093E+02;
  5.3998983E-01;  9.9999998E-03; -1.4000082E-01;1874; -1.4141787E-02;  0.0000000E+00; -1.4583373E-03;  1.0001279E+03;  4.0001166E-01;  1.0597154E+02;3; -1.2764316E+01;  0.0000000E+00; -1.6857665E+00;0; -1.0425447E-01;  1.0002228E+04;  0.0000000E+00;  3.3106738E-07;  1.0000000E+04;  0.0000000E+00;  9.9997480E+03; -1.2072618E-01;  0.0000000E+00;  1.6471708E-02;  1.0855762E+02;
  5.3998989E-01;  9.9999998E-03; -1.2000064E-01;1875; -1.3894024E-02;  0.0000000E+00; -1.1740553E-03;  1.0001285E+03;  4.0001166E-01;  1.0646535E+02;3; -1.2367182E+01;  0.0000000E+00; -1.4173436E+00;0; -1.0363432E-01;  1.0002196E+04;  0.0000000E+00;  2.0190193E-07;  1.0000000E+04;  0.0000000E+00;  9.9997891E+03; -1.1821207E-01;  0.0000000E+00;  1.4577751E-02;  8.9954369E+01;
  5.3998995E-01;  9.9999998E-03; -1.0000049E-01;1876; -1.3719559E-02;  0.0000000E+00; -9.2139863E-04;  1.0001290E+03;  4.0001163E-01;  1.0686040E+02;3; -1.2081037E+01;  0.0000000E+00; -1.1552051E+00;0; -1.0348129E-01;  1.0002175E+04;  0.0000000E+00;  9.8572940E-08;  1.0000000E+04;  0.0000000E+00;  9.9998232E+03; -1.1633240E-01;  0.0000000E+00;  1.2851101E-02;  7.5685036E+01;
  5.3999001E-01;  9.9999998E-03; -8.0000356E-02;1877; -1.3608188E-02;  0.0000000E+00; -7.0052571E-04;  1.0001296E+03;  4.0001166E-01;  1.0735421E+02;3; -1.1890503E+01;  0.0000000E+00; -9.0998065E-01;0; -1.0373110E-01;  1.0002156E+04;  0.0000000E+00;  3.8533415E-08;  1.0000000E+04;  0.0000000E+00;  9.9998516E+03; -1.1498319E-01;  0.0000000E+00;  1.1252082E-02;  6.4032692E+01;
  5.3999007E-01;  9.9999998E-03; -6.0000252E-02;1878; -1.3543623E-02;  0.0000000E+00; -5.0484820E-04;  1.0001302E+03;  4.0001172E-01;  1.0784802E+02;3; -1.1770418E+01;  0.0000000E+00; -6.7761534E-01;0; -1.0419844E-01;  1.0002146E+04;  0.0000000E+00;  1.2023036E-08;  1.0000000E+04;  0.0000000E+00;  9.9998750E+03; -1.1406882E-01;  0.0000000E+00;  9.8703820E-03;  5.4683617E+01;
  5.3999007E-01;  9.9999998E-03; -4.0000159E-02;1879; -1.3510004E-02;  0.0000000E+00; -3.2646104E-04;  1.0001307E+03;  4.0001169E-01;  1.0824306E+02;3; -1.1701559E+01;  0.0000000E+00; -4.4446388E-01;0; -1.0468629E-01;  1.0002140E+04;  0.0000000E+00;  3.2855185E-09;  1.0000000E+04;  0.0000000E+00;  9.9998916E+03; -1.1349740E-01;  0.0000000E+00;  8.8111097E-03;  4.7809448E+01;
  5.3999007E-01;  9.9999998E-03; -2.0000078E-02;1880; -1.3494599E-02;  0.0000000E+00; -1.6015943E-04;  1.0001310E+03;  4.0001169E-01;  1.0853935E+02;3; -1.1666461E+01;  0.0000000E+00; -2.1842894E-01;0; -1.0504041E-01;  1.0002135E+04;  0.0000000E+00;  3.1750602E-10;  1.0000000E+04;  0.0000000E+00;  9.9999023E+03; -1.1319026E-01;  0.0000000E+00;  8.1498548E-03;  4.3614414E+01;
  5.5998695E-01;  9.9999998E-03; -1.8000180E-01;1903; -1.7999483E-02;  0.0000000E+00; -2.9670405E-03;  1.0001742E+03;  4.0003142E-01;  1.4429082E+02;3; -1.6219006E+01;  0.0000000E+00; -3.1924212E+00;0; -1.0457542E-01;  1.0002524E+04;  0.0000000E+00;  1.9855936E-07;  1.0000000E+04;  0.0000000E+00;  9.9993877E+03; -1.3745248E-01;  0.0000000E+00;  3.2877065E-02;  2.6466376E+02;
  5.5998713E-01;  9.9999998E-03; -1.6000144E-01;1904; -1.7530190E-02;  0.0000000E+00; -2.4913060E-03;  1.0001785E+03;  4.0003142E-01;  1.4784624E+02;3; -1.5478364E+01;  0.0000000E+00; -2.8093457E+00;0; -1.0533404E-01;  1.0002461E+04;  0.0000000E+00;  4.6016328E-07;  1.0000000E+04;  0.0000000E+00;  9.9995400E+03; -1.3263461E-01;  0.0000000E+00;  2.7300576E-02;  1.9642975E+02;
  5.5998731E-01;  9.9999998E-03; -1.4000113E-01;1905; -1.7135074E-02;  0.0000000E+00; -2.0353689E-03;  1.0001813E+03;  4.0003142E-01;  1.5021652E+02;3; -1.4864926E+01;  0.0000000E+00; -2.4035747E+00;0; -1.0563371E-01;  1.0002409E+04;  0.0000000E+00;  4.7807629E-07;  1.0000000E+04;  0.0000000E+00;  9.9996455E+03; -1.2886031E-01;  0.0000000E+00;  2.3226606E-02;  1.5034753E+02;
  5.5998743E-01;  9.9999998E-03; -1.2000087E-01;1906; -1.6829025E-02;  0.0000000E+00; -1.6192454E-03;  1.0001829E+03;  4.0003145E-01;  1.5150043E+02;3; -1.4392929E+01;  0.0000000E+00; -1.9984989E+00;0; -1.0583165E-01;  1.0002371E+04;  0.0000000E+00;  3.1783532E-07;  1.0000000E+04;  0.0000000E+00;  9.9997148E+03; -1.2594888E-01;  0.0000000E+00;  2.0117231E-02;  1.2026410E+02;
  5.5998749E-01;  9.9999998E-03; -1.0000065E-01;1907; -1.6614057E-02;  0.0000000E+00; -1.2516226E-03;  1.0001840E+03;  4.0003148E-01;  1.5238928E+02;3; -1.4057601E+01;  0.0000000E+00; -1.6026759E+00;0; -1.0631990E-01;  1.0002344E+04;  0.0000000E+00;  1.6301244E-07;  1.0000000E+04;  0.0000000E+00;  9.9997637E+03; -1.2375799E-01;  0.0000000E+00;  1.7438080E-02;  9.8848984E+01;
  5.5998755E-01;  9.9999998E-03; -8.0000475E-02;1908; -1.6477551E-02;  0.0000000E+00; -9.3717506E-04;  1.0001849E+03;  4.0003142E-01;  1.5317937E+02;3; -1.3834985E+01;  0.0000000E+00; -1.2341080E+00;0; -1.0714269E-01;  1.0002322E+04;  0.0000000E+00;  6.6821272E-08;  1.0000000E+04;  0.0000000E+00;  9.9998047E+03; -1.2217440E-01;  0.0000000E+00;  1.5031716E-02;  8.2216049E+01;
  5.5998760E-01;  9.9999998E-03; -6.0000326E-02;1909; -1.6399549E-02;  0.0000000E+00; -6.6684367E-04;  1.0001859E+03;  4.0003151E-01;  1.5406822E+02;3; -1.3697884E+01;  0.0000000E+00; -8.9871144E-01;0; -1.0812011E-01;  1.0002308E+04;  0.0000000E+00;  2.3037964E-08;  1.0000000E+04;  0.0000000E+00;  9.9998389E+03; -1.2108912E-01;  0.0000000E+00;  1.2969006E-02;  6.9116676E+01;
  5.5998760E-01;  9.9999998E-03; -4.0000208E-02;1910; -1.6359411E-02;  0.0000000E+00; -4.2902835E-04;  1.0001866E+03;  4.0003151E-01;  1.5456204E+02;3; -1.3618326E+01;  0.0000000E+00; -5.9512544E-01;0; -1.0901479E-01;  1.0002300E+04;  0.0000000E+00;  5.8626770E-09;  1.0000000E+04;  0.0000000E+00;  9.9998604E+03; -1.2040039E-01;  0.0000000E+00;  1.1385608E-02;  5.9505047E+01;
  5.5998760E-01;  9.9999998E-03; -2.0000100E-02;1911; -1.6342038E-02;  0.0000000E+00; -2.0936191E-04;  1.0001872E+03;  4.0003148E-01;  1.5505585E+02;3; -1.3580706E+01;  0.0000000E+00; -2.9360119E-01;0; -1.0963035E-01;  1.0002296E+04;  0.0000000E+00;  9.9231123E-10;  1.0000000E+04;  0.0000000E+00;  9.9998770E+03; -1.2002420E-01;  0.0000000E+00;  1.0393853E-02;  5.3623466E+01;
  5.7998413E-01;  9.9999998E-03; -1.8000241E-01;1934; -2.1407917E-02;  0.0000000E+00; -4.0755956E-03;  1.0002912E+03;  4.0008396E-01;  2.4127397E+02;3; -1.8681288E+01;  0.0000000E+00; -4.5051336E+00;0; -8.9343108E-02;  1.0002554E+04;  0.0000000E+00; -5.9697243E-07;  1.0000000E+04;  0.0000000E+00;  9.9990732E+03; -1.3823663E-01;  0.0000000E+00;  4.8893519E-02;  3.9823007E+02;
  5.7998437E-01;  9.9999998E-03; -1.6000193E-01;1935; -2.0829966E-02;  0.0000000E+00; -3.3975777E-03;  1.0003004E+03;  4.0008393E-01;  2.4887860E+02;3; -1.7812120E+01;  0.0000000E+00; -3.9291279E+00;0; -9.3701750E-02;  1.0002482E+04;  0.0000000E+00;  2.2864096E-07;  1.0000000E+04;  0.0000000E+00;  9.9993291E+03; -1.3318811E-01;  0.0000000E+00;  3.9486360E-02;  2.8433316E+02;
  5.7998455E-01;  9.9999998E-03; -1.4000151E-01;1936; -2.0339284E-02;  0.0000000E+00; -2.7590734E-03;  1.0003063E+03;  4.0008393E-01;  2.5371791E+02;3; -1.7090429E+01;  0.0000000E+00; -3.3253427E+00;0; -9.6637741E-02;  1.0002427E+04;  0.0000000E+00;  5.3385389E-07;  1.0000000E+04;  0.0000000E+00;  9.9995020E+03; -1.2912911E-01;  0.0000000E+00;  3.2491371E-02;  2.0725385E+02;
  5.7998472E-01;  9.9999998E-03; -1.2000114E-01;1937; -1.9965811E-02;  0.0000000E+00; -2.1649313E-03;  1.0003098E+03;  4.0008396E-01;  2.5658200E+02;3; -1.6535946E+01;  0.0000000E+00; -2.7133765E+00;0; -9.8592691E-02;  1.0002381E+04;  0.0000000E+00;  4.1092318E-07;  1.0000000E+04;  0.0000000E+00;  9.9996152E+03; -1.2594117E-01;  0.0000000E+00;  2.7348481E-02;  1.5883978E+02;
  5.7998484E-01;  9.9999998E-03; -1.0000085E-01;1938; -1.9703139E-02;  0.0000000E+00; -1.6518893E-03;  1.0003120E+03;  4.0008393E-01;  2.5845847E+02;3; -1.6145044E+01;  0.0000000E+00; -2.1367128E+00;0; -1.0030385E-01;  1.0002349E+04;  0.0000000E+00;  2.2029835E-07;  1.0000000E+04;  0.0000000E+00;  9.9996885E+03; -1.2351315E-01;  0.0000000E+00;  2.3209302E-02;  1.2675522E+02;
  5.7998490E-01;  9.9999998E-03; -8.0000609E-02;1939; -1.9538410E-02;  0.0000000E+00; -1.2185285E-03;  1.0003136E+03;  4.0008390E-01;  2.5984113E+02;3; -1.5886776E+01;  0.0000000E+00; -1.6313394E+00;0; -1.0208359E-01;  1.0002325E+04;  0.0000000E+00;  9.1163983E-08;  1.0000000E+04;  0.0000000E+00;  9.9997461E+03; -1.2173999E-01;  0.0000000E+00;  1.9656399E-02;  1.0327893E+02;
  5.7998490E-01;  9.9999998E-03; -6.0000416E-02;1940; -1.9444909E-02;  0.0000000E+00; -8.5371017E-04;  1.0003151E+03;  4.0008393E-01;  2.6102625E+02;3; -1.5729822E+01;  0.0000000E+00; -1.1679920E+00;0; -1.0384887E-01;  1.0002311E+04;  0.0000000E+00;  2.9872481E-08;  1.0000000E+04;  0.0000000E+00;  9.9997930E+03; -1.2050883E-01;  0.0000000E+00;  1.6659958E-02;  8.5276375E+01;
  5.7998496E-01;  9.9999998E-03; -4.0000260E-02;1941; -1.9397471E-02;  0.0000000E+00; -5.4145063E-04;  1.0003162E+03;  4.0008396E-01;  2.6201385E+02;3; -1.5642192E+01;  0.0000000E+00; -7.4917537E-01;0; -1.0535006E-01;  1.0002300E+04;  0.0000000E+00;  8.0919058E-09;  1.0000000E+04;  0.0000000E+00;  9.9998271E+03; -1.1971429E-01;  0.0000000E+00;  1.4364227E-02;  7.2133781E+01;
  5.7998496E-01;  9.9999998E-03; -2.0000124E-02;1942; -1.9376284E-02;  0.0000000E+00; -2.6421531E-04;  1.0003170E+03;  4.0008393E-01;  2.6260641E+02;3; -1.5595426E+01;  0.0000000E+00; -3.7508857E-01;0; -1.0634975E-01;  1.0002294E+04;  0.0000000E+00;  9.7882702E-10;  1.0000000E+04;  0.0000000E+00;  9.9998467E+03; -1.1927302E-01;  0.0000000E+00;  1.2923270E-02;  6.4073204E+01;
  5.9998125E-01;  9.9999998E-03; -1.8000308E-01;1965; -2.4870403E-02;  0.0000000E+00; -5.3636464E-03;  1.0005905E+03;  4.0021721E-01;  4.8926151E+02;3; -2.1167419E+01;  0.0000000E+00; -6.1228480E+00;0; -5.4529913E-02;  1.0002320E+04;  0.0000000E+00; -2.3896559E-06;  1.0000000E+04;  0.0000000E+00;  9.9986279E+03; -1.2608504E-01;  0.0000000E+00;  7.1555130E-02;  5.8591229E+02;
  5.9998155E-01;  9.9999998E-03; -1.6000247E-01;1966; -2.4143966E-02;  0.0000000E+00; -4.4355947E-03;  1.0006074E+03;  4.0021726E-01;  5.0318680E+02;3; -2.0167522E+01;  0.0000000E+00; -5.2316971E+00;0; -6.5040246E-02;  1.0002254E+04;  0.0000000E+00; -5.0614557E-07;  1.0000000E+04;  0.0000000E+00;  9.9990322E+03; -1.2138031E-01;  0.0000000E+00;  5.6340065E-02;  4.0575397E+02;
  5.9998184E-01;  9.9999998E-03; -1.4000192E-01;1967; -2.3534402E-02;  0.0000000E+00; -3.5727553E-03;  1.0006185E+03;  4.0021726E-01;  5.1247034E+02;3; -1.9315327E+01;  0.0000000E+00; -4.3659177E+00;0; -7.2616607E-02;  1.0002195E+04;  0.0000000E+00;  4.0641763E-07;  1.0000000E+04;  0.0000000E+00;  9.9993115E+03; -1.1743963E-01;  0.0000000E+00;  4.4823021E-02;  2.8273282E+02;
  5.9998202E-01;  9.9999998E-03; -1.2000146E-01;1968; -2.3074849E-02;  0.0000000E+00; -2.7808202E-03;  1.0006250E+03;  4.0021724E-01;  5.1780341E+02;3; -1.8680193E+01;  0.0000000E+00; -3.5136261E+00;0; -7.7692389E-02;  1.0002150E+04;  0.0000000E+00;  4.3196493E-07;  1.0000000E+04;  0.0000000E+00;  9.9994863E+03; -1.1425842E-01;  0.0000000E+00;  3.6566030E-02;  2.0715504E+02;
  5.9998220E-01;  9.9999998E-03; -1.0000107E-01;1969; -2.2753246E-02;  0.0000000E+00; -2.0960667E-03;  1.0006291E+03;  4.0021724E-01;  5.2116125E+02;3; -1.8214962E+01;  0.0000000E+00; -2.7387240E+00;0; -8.1490517E-02;  1.0002117E+04;  0.0000000E+00;  2.4698966E-07;  1.0000000E+04;  0.0000000E+00;  9.9995996E+03; -1.1178999E-01;  0.0000000E+00;  3.0299470E-02;  1.5979004E+02;
  5.9998226E-01;  9.9999998E-03; -8.0000758E-02;1970; -2.2553334E-02;  0.0000000E+00; -1.5224456E-03;  1.0006318E+03;  4.0021732E-01;  5.2343280E+02;3; -1.7912441E+01;  0.0000000E+00; -2.0479121E+00;0; -8.4787689E-02;  1.0002093E+04;  0.0000000E+00;  1.0249711E-07;  1.0000000E+04;  0.0000000E+00;  9.9996787E+03; -1.0996041E-01;  0.0000000E+00;  2.5172727E-02;  1.2708952E+02;
  5.9998232E-01;  9.9999998E-03; -6.0000509E-02;1971; -2.2441065E-02;  0.0000000E+00; -1.0489819E-03;  1.0006341E+03;  4.0021735E-01;  5.2530927E+02;3; -1.7732929E+01;  0.0000000E+00; -1.4366093E+00;0; -8.7731063E-02;  1.0002075E+04;  0.0000000E+00;  3.2018651E-08;  1.0000000E+04;  0.0000000E+00;  9.9997422E+03; -1.0867051E-01;  0.0000000E+00;  2.0939451E-02;  1.0278890E+02;
  5.9998232E-01;  9.9999998E-03; -4.0000316E-02;1972; -2.2382701E-02;  0.0000000E+00; -6.5831339E-04;  1.0006358E+03;  4.0021726E-01;  5.2679065E+02;3; -1.7626785E+01;  0.0000000E+00; -9.2343831E-01;0; -9.0113066E-02;  1.0002064E+04;  0.0000000E+00;  7.3591950E-09;  1.0000000E+04;  0.0000000E+00;  9.9997891E+03; -1.0782404E-01;  0.0000000E+00;  1.7710978E-02;  8.5190575E+01;
  5.9998238E-01;  9.9999998E-03; -2.0000150E-02;1973; -2.2355774E-02;  0.0000000E+00; -3.1570494E-04;  1.0006369E+03;  4.0021726E-01;  5.2767950E+02;3; -1.7572130E+01;  0.0000000E+00; -4.4108668E-01;0; -9.1664180E-02;  1.0002060E+04;  0.0000000E+00;  6.4487410E-10;  1.0000000E+04;  0.0000000E+00;  9.9998164E+03; -1.0734665E-01;  0.0000000E+00;  1.5682468E-02;  7.4382904E+01;
  6.1997843E-01;  9.9999998E-03; -1.8000384E-01;1996; -2.8159289E-02;  0.0000000E+00; -6.9021070E-03;  1.0012960E+03;  4.0052241E-01;  1.0737219E+03;3; -2.3530270E+01;  0.0000000E+00; -8.1076660E+00;0;  4.6180934E-03;  1.0001753E+04;  0.0000000E+00; -4.9396167E-06;  1.0000000E+04;  0.0000000E+00;  9.9980449E+03; -9.6653171E-02;  0.0000000E+00;  1.0127126E-01;  8.2967865E+02;
  6.1997890E-01;  9.9999998E-03; -1.6000307E-01;1997; -2.7245408E-02;  0.0000000E+00; -5.6829574E-03;  1.0013234E+03;  4.0052244E-01;  1.0963381E+03;3; -2.2373409E+01;  0.0000000E+00; -6.9420238E+00;0; -1.4851488E-02;  1.0001701E+04;  0.0000000E+00; -1.7179555E-06;  1.0000000E+04;  0.0000000E+00;  9.9986455E+03; -9.3043976E-02;  0.0000000E+00;  7.8192487E-02;  5.6243427E+02;
  6.1997926E-01;  9.9999998E-03; -1.4000237E-01;1998; -2.6516693E-02;  0.0000000E+00; -4.5058401E-03;  1.0013422E+03;  4.0052256E-01;  1.1119423E+03;3; -2.1404873E+01;  0.0000000E+00; -5.6870775E+00;0; -2.9354375E-02;  1.0001653E+04;  0.0000000E+00;  7.9187416E-08;  1.0000000E+04;  0.0000000E+00;  9.9990674E+03; -8.9798264E-02;  0.0000000E+00;  6.0443889E-02;  3.7791098E+02;
  6.1997956E-01;  9.9999998E-03; -1.2000177E-01;1999; -2.5964392E-02;  0.0000000E+00; -3.4373002E-03;  1.0013533E+03;  4.0052244E-01;  1.1212257E+03;3; -2.0697096E+01;  0.0000000E+00; -4.4416199E+00;0; -3.9178424E-02;  1.0001614E+04;  0.0000000E+00;  3.7478756E-07;  1.0000000E+04;  0.0000000E+00;  9.9993301E+03; -8.7064169E-02;  0.0000000E+00;  4.7885746E-02;  2.6568872E+02;
  6.1997974E-01;  9.9999998E-03; -1.0000128E-01;2000; -2.5572170E-02;  0.0000000E+00; -2.5283394E-03;  1.0013599E+03;  4.0052250E-01;  1.1265587E+03;3; -2.0165663E+01;  0.0000000E+00; -3.3381610E+00;0; -4.6140298E-02;  1.0001582E+04;  0.0000000E+00;  2.3704133E-07;  1.0000000E+04;  0.0000000E+00;  9.9994932E+03; -8.4884547E-02;  0.0000000E+00;  3.8744248E-02;  1.9794388E+02;
  6.1997986E-01;  9.9999998E-03; -8.0000885E-02;2001; -2.5322363E-02;  0.0000000E+00; -1.7948381E-03;  1.0013644E+03;  4.0052247E-01;  1.1303116E+03;3; -1.9801220E+01;  0.0000000E+00; -2.4317269E+00;0; -5.1667619E-02;  1.0001561E+04;  0.0000000E+00;  9.6337146E-08;  1.0000000E+04;  0.0000000E+00;  9.9996045E+03; -8.3235949E-02;  0.0000000E+00;  3.1568330E-02;  1.5335291E+02;
  6.1997992E-01;  9.9999998E-03; -6.0000587E-02;2002; -2.5175791E-02;  0.0000000E+00; -1.2197332E-03;  1.0013679E+03;  4.0052250E-01;  1.1331757E+03;3; -1.9573570E+01;  0.0000000E+00; -1.7010740E+00;0; -5.6283385E-02;  1.0001545E+04;  0.0000000E+00;  2.7191271E-08;  1.0000000E+04;  0.0000000E+00;  9.9996855E+03; -8.2052492E-02;  0.0000000E+00;  2.5769107E-02;  1.2121784E+02;
  6.1997998E-01;  9.9999998E-03; -4.0000357E-02;2003; -2.5094537E-02;  0.0000000E+00; -7.5438939E-04;  1.0013703E+03;  4.0052247E-01;  1.1352496E+03;3; -1.9437637E+01;  0.0000000E+00; -1.0738524E+00;0; -5.9889436E-02;  1.0001535E+04;  0.0000000E+00;  5.6987242E-09;  1.0000000E+04;  0.0000000E+00;  9.9997471E+03; -8.1262499E-02;  0.0000000E+00;  2.1373065E-02;  9.8172043E+01;
  6.1997998E-01;  9.9999998E-03; -2.0000169E-02;2004; -2.5056830E-02;  0.0000000E+00; -3.5862913E-04;  1.0013718E+03;  4.0052244E-01;  1.1365336E+03;3; -1.9368853E+01;  0.0000000E+00; -5.1219821E-01;0; -6.2199946E-02;  1.0001528E+04;  0.0000000E+00;  2.1421795E-10;  1.0000000E+04;  0.0000000E+00;  9.9997822E+03; -8.0810651E-02;  0.0000000E+00;  1.8610705E-02;  8.4014648E+01;
  6.3997597E-01;  9.9999998E-03; -1.8000479E-01;2027; -3.1034658E-02;  0.0000000E+00; -8.7533854E-03;  1.0026118E+03;  4.0108132E-01;  2.1638203E+03;3; -2.5518909E+01;  0.0000000E+00; -1.0423738E+01;0;  8.9265980E-02;  1.0000830E+04;  0.0000000E+00; -7.1773156E-06;  1.0000000E+04;  0.0000000E+00;  9.9973516E+03; -4.7696553E-02;  0.0000000E+00;  1.3696253E-01;  1.1190323E+03;
  6.3997656E-01;  9.9999998E-03; -1.6000377E-01;2028; -2.9994471E-02;  0.0000000E+00; -7.1182866E-03;  1.0026525E+03;  4.0108144E-01;  2.1973987E+03;3; -2.4263721E+01;  0.0000000E+00; -8.8102388E+00;0;  5.8421198E-02;  1.0000804E+04;  0.0000000E+00; -2.8804661E-06;  1.0000000E+04;  0.0000000E+00;  9.9981875E+03; -4.5919690E-02;  0.0000000E+00;  1.0434089E-01;  7.4826160E+02;
  6.3997698E-01;  9.9999998E-03; -1.4000289E-01;2029; -2.9153612E-02;  0.0000000E+00; -5.6011509E-03;  1.0026807E+03;  4.0108135E-01;  2.2208047E+03;3; -2.3218479E+01;  0.0000000E+00; -7.1462741E+00;0;  3.4937087E-02;  1.0000774E+04;  0.0000000E+00; -2.8864309E-07;  1.0000000E+04;  0.0000000E+00;  9.9987822E+03; -4.3998566E-02;  0.0000000E+00;  7.8935653E-02;  4.8967474E+02;
  6.3997734E-01;  9.9999998E-03; -1.2000212E-01;2030; -2.8509999E-02;  0.0000000E+00; -4.1977400E-03;  1.0026978E+03;  4.0108129E-01;  2.2350259E+03;3; -2.2389826E+01;  0.0000000E+00; -5.5118814E+00;0;  1.8827148E-02;  1.0000749E+04;  0.0000000E+00;  2.7669245E-07;  1.0000000E+04;  0.0000000E+00;  9.9991475E+03; -4.2229056E-02;  0.0000000E+00;  6.1056204E-02;  3.3290036E+02;
  6.3997757E-01;  9.9999998E-03; -1.0000148E-01;2031; -2.8052256E-02;  0.0000000E+00; -3.0007558E-03;  1.0027080E+03;  4.0108135E-01;  2.2434204E+03;3; -2.1794777E+01;  0.0000000E+00; -4.0535383E+00;0;  7.6256692E-03;  1.0000727E+04;  0.0000000E+00;  2.0368992E-07;  1.0000000E+04;  0.0000000E+00;  9.9993691E+03; -4.0749978E-02;  0.0000000E+00;  4.8375648E-02;  2.4035367E+02;
  6.3997769E-01;  9.9999998E-03; -8.0000997E-02;2032; -2.7738351E-02;  0.0000000E+00; -2.0611095E-03;  1.0027146E+03;  4.0108135E-01;  2.2489509E+03;3; -2.1381145E+01;  0.0000000E+00; -2.8657546E+00;0; -8.7723508E-04;  1.0000711E+04;  0.0000000E+00;  7.8014295E-08;  1.0000000E+04;  0.0000000E+00;  9.9995186E+03; -3.9596401E-02;  0.0000000E+00;  3.8719166E-02;  1.8147420E+02;
  6.3997781E-01;  9.9999998E-03; -6.0000639E-02;2033; -2.7535791E-02;  0.0000000E+00; -1.3580435E-03;  1.0027194E+03;  4.0108129E-01;  2.2529014E+03;3; -2.1075449E+01;  0.0000000E+00; -1.9561449E+00;0; -7.6950286E-03;  1.0000700E+04;  0.0000000E+00;  1.8851580E-08;  1.0000000E+04;  0.0000000E+00;  9.9996240E+03; -3.8748417E-02;  0.0000000E+00;  3.1053388E-02;  1.4009528E+02;
  6.3997787E-01;  9.9999998E-03; -4.0000379E-02;2034; -2.7420055E-02;  0.0000000E+00; -8.1851339E-04;  1.0027228E+03;  4.0108129E-01;  2.2556667E+03;3; -2.0903791E+01;  0.0000000E+00; -1.1973479E+00;0; -1.2895465E-02;  1.0000691E+04;  0.0000000E+00;  1.8544457E-09;  1.0000000E+04;  0.0000000E+00;  9.9997021E+03; -3.8171034E-02;  0.0000000E+00;  2.5275569E-02;  1.1068948E+02;
  6.3997787E-01;  9.9999998E-03; -2.0000177E-02;2035; -2.7357839E-02;  0.0000000E+00; -3.8741605E-04;  1.0027250E+03;  4.0108132E-01;  2.2575432E+03;3; -2.0802568E+01;  0.0000000E+00; -5.7178640E-01;0; -1.6189812E-02;  1.0000688E+04;  0.0000000E+00; -1.9693143E-10;  1.0000000E+04;  0.0000000E+00;  9.9997500E+03; -3.7835598E-02;  0.0000000E+00;  2.1645786E-02;  9.2627693E+01;
  6.5997422E-01;  9.9999998E-03; -1.8000598E-01;2058; -3.3264022E-02;  0.0000000E+00; -1.1041082E-02;  1.0042674E+03;  4.0178320E-01;  3.5353530E+03;3; -2.7177954E+01;  0.0000000E+00; -1.3300056E+01;0;  1.9458199E-01;  9.9996123E+03;  0.0000000E+00; -7.6712868E-06;  1.0000000E+04;  0.0000000E+00;  9.9966016E+03;  1.8700689E-02;  0.0000000E+00;  1.7588130E-01;  1.4305074E+03;
  6.5997487E-01;  9.9999998E-03; -1.6000463E-01;2059; -3.2102734E-02;  0.0000000E+00; -8.8457568E-03;  1.0043223E+03;  4.0178320E-01;  3.5807817E+03;3; -2.5863752E+01;  0.0000000E+00; -1.1079442E+01;0;  1.5106344E-01;  9.9996182E+03;  0.0000000E+00; -3.2802752E-06;  1.0000000E+04;  0.0000000E+00;  9.9976904E+03;  1.8162416E-02;  0.0000000E+00;  1.3290103E-01;  9.4873071E+02;
  6.5997535E-01;  9.9999998E-03; -1.4000353E-01;2060; -3.1185791E-02;  0.0000000E+00; -6.8865130E-03;  1.0043611E+03;  4.0178314E-01;  3.6129771E+03;3; -2.4775665E+01;  0.0000000E+00; -8.8633862E+00;0;  1.1737470E-01;  9.9996143E+03;  0.0000000E+00; -4.7048675E-07;  1.0000000E+04;  0.0000000E+00;  9.9984678E+03;  1.8258432E-02;  0.0000000E+00;  9.9116266E-02;  6.1012640E+02;
  6.5997571E-01;  9.9999998E-03; -1.2000255E-01;2061; -3.0474035E-02;  0.0000000E+00; -5.0956076E-03;  1.0043850E+03;  4.0178314E-01;  3.6327288E+03;3; -2.3899759E+01;  0.0000000E+00; -6.7484837E+00;0;  9.3969472E-02;  9.9996074E+03;  0.0000000E+00;  2.0107512E-07;  1.0000000E+04;  0.0000000E+00;  9.9989512E+03;  1.8609913E-02;  0.0000000E+00;  7.5359561E-02;  4.0479941E+02;
  6.5997601E-01;  9.9999998E-03; -1.0000175E-01;2062; -2.9936468E-02;  0.0000000E+00; -3.5886604E-03;  1.0043992E+03;  4.0178311E-01;  3.6444810E+03;3; -2.3202494E+01;  0.0000000E+00; -4.9214268E+00;0;  7.7755749E-02;  9.9996006E+03;  0.0000000E+00;  1.6507232E-07;  1.0000000E+04;  0.0000000E+00;  9.9992393E+03;  1.9005513E-02;  0.0000000E+00;  5.8750238E-02;  2.8503864E+02;
  6.5997618E-01;  9.9999998E-03; -8.0001146E-02;2063; -2.9553343E-02;  0.0000000E+00; -2.4112468E-03;  1.0044084E+03;  4.0178311E-01;  3.6520854E+03;3; -2.2692526E+01;  0.0000000E+00; -3.4292610E+00;0;  6.5700337E-02;  9.9995967E+03;  0.0000000E+00;  6.0755227E-08;  1.0000000E+04;  0.0000000E+00;  9.9994277E+03;  1.9358071E-02;  0.0000000E+00;  4.6342269E-02;  2.1044731E+02;
  6.5997630E-01;  9.9999998E-03; -6.0000714E-02;2064; -2.9293843E-02;  0.0000000E+00; -1.5445466E-03;  1.0044149E+03;  4.0178308E-01;  3.6575171E+03;3; -2.2333761E+01;  0.0000000E+00; -2.2648661E+00;0;  5.6250833E-02;  9.9995908E+03;  0.0000000E+00;  1.1684267E-08;  1.0000000E+04;  0.0000000E+00;  9.9995605E+03;  1.9639999E-02;  0.0000000E+00;  3.6610834E-02;  1.5891693E+02;
  6.5997642E-01;  9.9999998E-03; -4.0000413E-02;2065; -2.9132575E-02;  0.0000000E+00; -9.1448391E-04;  1.0044196E+03;  4.0178311E-01;  3.6613687E+03;3; -2.2102648E+01;  0.0000000E+00; -1.3748418E+00;0;  4.9148805E-02;  9.9995889E+03;  0.0000000E+00; -4.6585891E-10;  1.0000000E+04;  0.0000000E+00;  9.9996582E+03;  1.9844502E-02;  0.0000000E+00;  2.9304301E-02;  1.2252924E+02;
  6.5997642E-01;  9.9999998E-03; -2.0000188E-02;2066; -2.9044477E-02;  0.0000000E+00; -4.2809182E-04;  1.0044225E+03;  4.0178311E-01;  3.6638376E+03;3; -2.1978872E+01;  0.0000000E+00; -6.6365427E-01;0;  4.4682093E-02;  9.9995879E+03;  0.0000000E+00; -3.8506243E-10;  1.0000000E+04;  0.0000000E+00;  9.9997168E+03;  1.9968944E-02;  0.0000000E+00;  2.4713151E-02;  1.0017416E+02;
  6.7997402E-01;  9.9999998E-03; -1.8000722E-01;2089; -3.3912882E-02;  0.0000000E+00; -1.3589510E-02;  1.0055611E+03;  4.0234241E-01;  4.6070093E+03;3; -2.8061729E+01;  0.0000000E+00; -1.6723297E+01;0;  3.0861601E-01;  9.9982695E+03;  0.0000000E+00; -6.1232404E-06;  1.0000000E+04;  0.0000000E+00;  9.9958682E+03;  9.4483964E-02;  0.0000000E+00;  2.1413206E-01;  1.7329043E+03;
  6.7997468E-01;  9.9999998E-03; -1.6000552E-01;2090; -3.2705434E-02;  0.0000000E+00; -1.0778184E-02;  1.0056299E+03;  4.0234244E-01;  4.6639922E+03;3; -2.6653507E+01;  0.0000000E+00; -1.3771567E+01;0;  2.5272241E-01;  9.9983057E+03;  0.0000000E+00; -2.6331707E-06;  1.0000000E+04;  0.0000000E+00;  9.9972021E+03;  9.1566078E-02;  0.0000000E+00;  1.6115633E-01;  1.1442544E+03;
  6.7997521E-01;  9.9999998E-03; -1.4000420E-01;2091; -3.1760976E-02;  0.0000000E+00; -8.3230883E-03;  1.0056793E+03;  4.0234238E-01;  4.7048774E+03;3; -2.5513874E+01;  0.0000000E+00; -1.0894881E+01;0;  2.0886701E-01;  9.9983311E+03;  0.0000000E+00; -3.4320934E-07;  1.0000000E+04;  0.0000000E+00;  9.9981592E+03;  8.9638419E-02;  0.0000000E+00;  1.1922859E-01;  7.2829047E+02;
  6.7997557E-01;  9.9999998E-03; -1.2000301E-01;2092; -3.1034751E-02;  0.0000000E+00; -6.0804337E-03;  1.0057097E+03;  4.0234232E-01;  4.7301592E+03;3; -2.4595974E+01;  0.0000000E+00; -8.1873369E+00;0;  1.7803976E-01;  9.9983477E+03;  0.0000000E+00;  1.8463088E-07;  1.0000000E+04;  0.0000000E+00;  9.9987529E+03;  8.8340312E-02;  0.0000000E+00;  8.9699447E-02;  4.7570288E+02;
  6.7997587E-01;  9.9999998E-03; -1.0000203E-01;2093; -3.0491112E-02;  0.0000000E+00; -4.2073322E-03;  1.0057282E+03;  4.0234232E-01;  4.7454668E+03;3; -2.3900558E+01;  0.0000000E+00; -5.8523207E+00;0;  1.5661997E-01;  9.9983574E+03;  0.0000000E+00;  1.4007568E-07;  1.0000000E+04;  0.0000000E+00;  9.9991084E+03;  8.7438308E-02;  0.0000000E+00;  6.9181651E-02;  3.2919006E+02;
  6.7997605E-01;  9.9999998E-03; -8.0001295E-02;2094; -3.0096335E-02;  0.0000000E+00; -2.7709368E-03;  1.0057401E+03;  4.0234226E-01;  4.7552437E+03;3; -2.3364550E+01;  0.0000000E+00; -4.0183606E+00;0;  1.4081398E-01;  9.9983643E+03;  0.0000000E+00;  4.8056172E-08;  1.0000000E+04;  0.0000000E+00;  9.9993369E+03;  8.6812869E-02;  0.0000000E+00;  5.4001100E-02;  2.3894632E+02;
  6.7997617E-01;  9.9999998E-03; -6.0000781E-02;2095; -2.9829143E-02;  0.0000000E+00; -1.7346804E-03;  1.0057483E+03;  4.0234229E-01;  4.7620576E+03;3; -2.2994110E+01;  0.0000000E+00; -2.6198709E+00;0;  1.2856066E-01;  9.9983701E+03;  0.0000000E+00;  7.5098301E-09;  1.0000000E+04;  0.0000000E+00;  9.9994971E+03;  8.6393729E-02;  0.0000000E+00;  4.2166933E-02;  1.7716489E+02;
  6.7997622E-01;  9.9999998E-03; -4.0000435E-02;2096; -2.9662816E-02;  0.0000000E+00; -1.0045455E-03;  1.0057543E+03;  4.0234226E-01;  4.7669956E+03;3; -2.2748102E+01;  0.0000000E+00; -1.5728226E+00;0;  1.1942483E-01;  9.9983750E+03;  0.0000000E+00; -7.3579753E-10;  1.0000000E+04;  0.0000000E+00;  9.9996133E+03;  8.6131677E-02;  0.0000000E+00;  3.3293150E-02;  1.3365881E+02;
  6.7997628E-01;  9.9999998E-03; -2.0000195E-02;2097; -2.9573744E-02;  0.0000000E+00; -4.6325420E-04;  1.0057578E+03;  4.0234229E-01;  4.7699585E+03;3; -2.2612143E+01;  0.0000000E+00; -7.4234110E-01;0;  1.1370186E-01;  9.9983760E+03;  0.0000000E+00; -2.5867700E-10;  1.0000000E+04;  0.0000000E+00;  9.9996836E+03;  8.5990280E-02;  0.0000000E+00;  2.7711580E-02;  1.0690286E+02;
  6.9997686E-01;  9.9999998E-03; -1.8000834E-01;2120; -3.1307939E-02;  0.0000000E+00; -1.5905790E-02;  1.0062314E+03;  4.0264800E-01;  5.1622153E+03;3; -2.7307146E+01;  0.0000000E+00; -1.9938667E+01;0;  4.1397256E-01;  9.9970518E+03;  0.0000000E+00; -3.6064066E-06;  1.0000000E+04;  0.0000000E+00;  9.9952285E+03;  1.6610533E-01;  0.0000000E+00;  2.4786724E-01;  1.9971589E+03;
  6.9997746E-01;  9.9999998E-03; -1.6000636E-01;2121; -3.0208427E-02;  0.0000000E+00; -1.2576878E-02;  1.0063122E+03;  4.0264791E-01;  5.2291709E+03;3; -2.5929756E+01;  0.0000000E+00; -1.6343039E+01;0;  3.4752563E-01;  9.9971162E+03;  0.0000000E+00; -1.4256808E-06;  1.0000000E+04;  0.0000000E+00;  9.9967715E+03;  1.6117716E-01;  0.0000000E+00;  1.8634847E-01;  1.3162227E+03;
  6.9997787E-01;  9.9999998E-03; -1.4000481E-01;2122; -2.9332070E-02;  0.0000000E+00; -9.6738404E-03;  1.0063705E+03;  4.0264788E-01;  5.2773633E+03;3; -2.4808191E+01;  0.0000000E+00; -1.2854121E+01;0;  2.9481781E-01;  9.9971631E+03;  0.0000000E+00; -5.1236853E-08;  1.0000000E+04;  0.0000000E+00;  9.9978828E+03;  1.5740138E-01;  0.0000000E+00;  1.3741641E-01;  8.3347565E+02;
  6.9997823E-01;  9.9999998E-03; -1.2000342E-01;2123; -2.8666316E-02;  0.0000000E+00; -6.9972840E-03;  1.0064069E+03;  4.0264791E-01;  5.3075825E+03;3; -2.3926609E+01;  0.0000000E+00; -9.5553837E+00;0;  2.5739932E-01;  9.9972002E+03;  0.0000000E+00;  2.0188060E-07;  1.0000000E+04;  0.0000000E+00;  9.9985742E+03;  1.5453272E-01;  0.0000000E+00;  1.0286660E-01;  5.3990967E+02;
  6.9997847E-01;  9.9999998E-03; -1.0000226E-01;2124; -2.8190065E-02;  0.0000000E+00; -4.7507649E-03;  1.0064291E+03;  4.0264779E-01;  5.3260493E+03;3; -2.3271694E+01;  0.0000000E+00; -6.7200470E+00;0;  2.3125950E-01;  9.9972256E+03;  0.0000000E+00;  1.2094772E-07;  1.0000000E+04;  0.0000000E+00;  9.9989863E+03;  1.5237571E-01;  0.0000000E+00;  7.8883789E-02;  3.6992123E+02;
  6.9997859E-01;  9.9999998E-03; -8.0001391E-02;2125; -2.7863912E-02;  0.0000000E+00; -3.0396516E-03;  1.0064433E+03;  4.0264788E-01;  5.3377026E+03;3; -2.2801497E+01;  0.0000000E+00; -4.4952021E+00;0;  2.1198441E-01;  9.9972471E+03;  0.0000000E+00;  3.9789843E-08;  1.0000000E+04;  0.0000000E+00;  9.9992520E+03;  1.5080257E-01;  0.0000000E+00;  6.1181847E-02;  2.6562454E+02;
  6.9997871E-01;  9.9999998E-03; -6.0000807E-02;2126; -2.7655382E-02;  0.0000000E+00; -1.8371204E-03;  1.0064534E+03;  4.0264791E-01;  5.3460967E+03;3; -2.2484770E+01;  0.0000000E+00; -2.8572626E+00;0;  1.9710071E-01;  9.9972598E+03;  0.0000000E+00;  6.8374235E-09;  1.0000000E+04;  0.0000000E+00;  9.9994385E+03;  1.4970714E-01;  0.0000000E+00;  4.7393579E-02;  1.9439731E+02;
  6.9997877E-01;  9.9999998E-03; -4.0000431E-02;2127; -2.7530788E-02;  0.0000000E+00; -1.0252607E-03;  1.0064604E+03;  4.0264788E-01;  5.3519233E+03;3; -2.2286310E+01;  0.0000000E+00; -1.6740745E+00;0;  1.8604144E-01;  9.9972676E+03;  0.0000000E+00; -7.5016854E-11;  1.0000000E+04;  0.0000000E+00;  9.9995723E+03;  1.4899811E-01;  0.0000000E+00;  3.7043326E-02;  1.4421156E+02;
  6.9997877E-01;  9.9999998E-03; -2.0000184E-02;2128; -2.7466562E-02;  0.0000000E+00; -4.5734289E-04;  1.0064648E+03;  4.0264782E-01;  5.3555771E+03;3; -2.2179989E+01;  0.0000000E+00; -7.7374202E-01;0;  1.7912543E-01;  9.9972725E+03;  0.0000000E+00; -3.3511863E-10;  1.0000000E+04;  0.0000000E+00;  9.9996533E+03;  1.4860360E-01;  0.0000000E+00;  3.0521821E-02;  1.1328877E+02;
  7.1998334E-01;  9.9999998E-03; -1.8000920E-01;2151; -2.3056041E-02;  0.0000000E+00; -1.7636597E-02;  1.0064973E+03;  4.0278149E-01;  5.3822910E+03;3; -2.0880880E+01;  0.0000000E+00; -2.2234661E+01;0;  4.9322724E-01;  9.9962041E+03;  0.0000000E+00; -1.4871426E-06;  1.0000000E+04;  0.0000000E+00;  9.9947256E+03;  2.1875487E-01;  0.0000000E+00;  2.7447239E-01;  2.2046572E+03;
  7.1998382E-01;  9.9999998E-03; -1.6000703E-01;2152; -2.2148862E-02;  0.0000000E+00; -1.3965803E-02;  1.0065869E+03;  4.0278143E-01;  5.4565522E+03;3; -1.9710707E+01;  0.0000000E+00; -1.8238297E+01;0;  4.1896522E-01;  9.9962852E+03;  0.0000000E+00; -4.2737500E-07;  1.0000000E+04;  0.0000000E+00;  9.9964307E+03;  2.1245840E-01;  0.0000000E+00;  2.0650680E-01;  1.4524086E+03;
  7.1998417E-01;  9.9999998E-03; -1.4000534E-01;2153; -2.1414621E-02;  0.0000000E+00; -1.0743328E-02;  1.0066519E+03;  4.0278137E-01;  5.5103726E+03;3; -1.8745827E+01;  0.0000000E+00; -1.4341165E+01;0;  3.5957330E-01;  9.9963486E+03;  0.0000000E+00;  1.6157206E-07;  1.0000000E+04;  0.0000000E+00;  9.9976602E+03;  2.0730223E-01;  0.0000000E+00;  1.5227109E-01;  9.1836664E+02;
  7.1998441E-01;  9.9999998E-03; -1.2000378E-01;2154; -2.0861510E-02;  0.0000000E+00; -7.7598239E-03;  1.0066930E+03;  4.0278134E-01;  5.5444419E+03;3; -1.8000599E+01;  0.0000000E+00; -1.0637187E+01;0;  3.1708521E-01;  9.9964004E+03;  0.0000000E+00;  1.9418566E-07;  1.0000000E+04;  0.0000000E+00;  9.9984258E+03;  2.0320806E-01;  0.0000000E+00;  1.1387716E-01;  5.9327869E+02;
  7.1998459E-01;  9.9999998E-03; -1.0000250E-01;2155; -2.0472355E-02;  0.0000000E+00; -5.2557020E-03;  1.0067180E+03;  4.0278128E-01;  5.5650811E+03;3; -1.7459316E+01;  0.0000000E+00; -7.4584827E+00;0;  2.8723347E-01;  9.9964385E+03;  0.0000000E+00;  9.9401539E-08;  1.0000000E+04;  0.0000000E+00;  9.9988848E+03;  2.0006214E-01;  0.0000000E+00;  8.7171324E-02;  4.0496729E+02;
  7.1998471E-01;  9.9999998E-03; -8.0001533E-02;2156; -2.0216387E-02;  0.0000000E+00; -3.3460557E-03;  1.0067341E+03;  4.0278131E-01;  5.5784126E+03;3; -1.7088152E+01;  0.0000000E+00; -4.9622345E+00;0;  2.6515973E-01;  9.9964678E+03;  0.0000000E+00;  3.2687321E-08;  1.0000000E+04;  0.0000000E+00;  9.9991797E+03;  1.9774780E-01;  0.0000000E+00;  6.7411944E-02;  2.8934250E+02;
  7.1998483E-01;  9.9999998E-03; -6.0000882E-02;2157; -2.0058285E-02;  0.0000000E+00; -2.0080972E-03;  1.0067455E+03;  4.0278125E-01;  5.5878931E+03;3; -1.6846664E+01;  0.0000000E+00; -3.1336913E+00;0;  2.4810904E-01;  9.9964863E+03;  0.0000000E+00;  6.0084355E-09;  1.0000000E+04;  0.0000000E+00;  9.9993857E+03;  1.9613214E-01;  0.0000000E+00;  5.1976908E-02;  2.1021503E+02;
  7.1998483E-01;  9.9999998E-03; -4.0000465E-02;2158; -1.9966941E-02;  0.0000000E+00; -1.1124912E-03;  1.0067537E+03;  4.0278128E-01;  5.5947065E+03;3; -1.6699024E+01;  0.0000000E+00; -1.8246583E+00;0;  2.3544443E-01;  9.9964980E+03;  0.0000000E+00;  2.7673830E-10;  1.0000000E+04;  0.0000000E+00;  9.9995352E+03;  1.9508576E-01;  0.0000000E+00;  4.0358666E-02;  1.5430315E+02;
  7.1998489E-01;  9.9999998E-03; -2.0000199E-02;2159; -1.9920224E-02;  0.0000000E+00; -4.9319922E-04;  1.0067586E+03;  4.0278128E-01;  5.5987554E+03;3; -1.6619671E+01;  0.0000000E+00; -8.3907324E-01;0;  2.2752592E-01;  9.9965068E+03;  0.0000000E+00; -1.8813306E-10;  1.0000000E+04;  0.0000000E+00;  9.9996270E+03;  1.9450313E-01;  0.0000000E+00;  3.3022799E-02;  1.1976693E+02;
  7.3998976E-01;  9.9999998E-03; -1.8000980E-01;2182; -1.4351004E-02;  0.0000000E+00; -1.8788379E-02;  1.0065927E+03;  4.0283406E-01;  5.4611899E+03;3; -1.3210764E+01;  0.0000000E+00; -2.3693155E+01;0;  5.3699994E-01;  9.9958438E+03;  0.0000000E+00; -3.3569836E-07;  1.0000000E+04;  0.0000000E+00;  9.9943711E+03;  2.4390453E-01;  0.0000000E+00;  2.9309538E-01;  2.3500728E+03;
  7.3999006E-01;  9.9999998E-03; -1.6000752E-01;2183; -1.3716321E-02;  0.0000000E+00; -1.4926453E-02;  1.0066884E+03;  4.0283397E-01;  5.5403862E+03;3; -1.2398666E+01;  0.0000000E+00; -1.9493776E+01;0;  4.5780784E-01;  9.9959316E+03;  0.0000000E+00;  5.6396463E-08;  1.0000000E+04;  0.0000000E+00;  9.9961885E+03;  2.3693264E-01;  0.0000000E+00;  2.2087519E-01;  1.5489604E+03;
  7.3999029E-01;  9.9999998E-03; -1.4000571E-01;2184; -1.3191637E-02;  0.0000000E+00; -1.1499943E-02;  1.0067579E+03;  4.0283391E-01;  5.5979565E+03;3; -1.1712329E+01;  0.0000000E+00; -1.5355488E+01;0;  3.9413893E-01;  9.9960068E+03;  0.0000000E+00;  2.0133339E-07;  1.0000000E+04;  0.0000000E+00;  9.9974990E+03;  2.3098440E-01;  0.0000000E+00;  1.6315451E-01;  9.8022614E+02;
  7.3999053E-01;  9.9999998E-03; -1.2000405E-01;2185; -1.2790570E-02;  0.0000000E+00; -8.3145881E-03;  1.0068019E+03;  4.0283391E-01;  5.6344937E+03;3; -1.1173232E+01;  0.0000000E+00; -1.1403841E+01;0;  3.4834912E-01;  9.9960664E+03;  0.0000000E+00;  1.4595558E-07;  1.0000000E+04;  0.0000000E+00;  9.9983164E+03;  2.2614276E-01;  0.0000000E+00;  1.2220635E-01;  6.3385614E+02;
  7.3999065E-01;  9.9999998E-03; -1.0000267E-01;2186; -1.2506265E-02;  0.0000000E+00; -5.6348895E-03;  1.0068289E+03;  4.0283388E-01;  5.6568105E+03;3; -1.0777863E+01;  0.0000000E+00; -8.0033064E+00;0;  3.1600866E-01;  9.9961113E+03;  0.0000000E+00;  6.7888216E-08;  1.0000000E+04;  0.0000000E+00;  9.9988057E+03;  2.2238645E-01;  0.0000000E+00;  9.3622208E-02;  4.3293512E+02;
  7.3999071E-01;  9.9999998E-03; -8.0001645E-02;2187; -1.2318394E-02;  0.0000000E+00; -3.5889831E-03;  1.0068463E+03;  4.0283379E-01;  5.6712280E+03;3; -1.0504854E+01;  0.0000000E+00; -5.3287654E+00;0;  2.9198363E-01;  9.9961436E+03;  0.0000000E+00;  2.2168599E-08;  1.0000000E+04;  0.0000000E+00;  9.9991201E+03;  2.1961881E-01;  0.0000000E+00;  7.2364829E-02;  3.0915735E+02;
  7.3999077E-01;  9.9999998E-03; -6.0000945E-02;2188; -1.2201746E-02;  0.0000000E+00; -2.1546665E-03;  1.0068586E+03;  4.0283379E-01;  5.6813989E+03;3; -1.0325895E+01;  0.0000000E+00; -3.3676322E+00;0;  2.7337015E-01;  9.9961680E+03;  0.0000000E+00;  5.3404916E-09;  1.0000000E+04;  0.0000000E+00;  9.9993438E+03;  2.1769221E-01;  0.0000000E+00;  5.5677921E-02;  2.2406110E+02;
  7.3999083E-01;  9.9999998E-03; -4.0000498E-02;2189; -1.2133810E-02;  0.0000000E+00; -1.1941039E-03;  1.0068674E+03;  4.0283385E-01;  5.6887065E+03;3; -1.0215440E+01;  0.0000000E+00; -1.9622068E+00;0;  2.5952259E-01;  9.9961807E+03;  0.0000000E+00;  7.7529450E-10;  1.0000000E+04;  0.0000000E+00;  9.9995049E+03;  2.1644987E-01;  0.0000000E+00;  4.3072719E-02;  1.6369002E+02;
  7.3999083E-01;  9.9999998E-03; -2.0000212E-02;2190; -1.2098763E-02;  0.0000000E+00; -5.2956451E-04;  1.0068729E+03;  4.0283388E-01;  5.6932490E+03;3; -1.0155482E+01;  0.0000000E+00; -9.0283322E-01;0;  2.5085723E-01;  9.9961895E+03;  0.0000000E+00; -3.8029756E-11;  1.0000000E+04;  0.0000000E+00;  9.9996045E+03;  2.1576084E-01;  0.0000000E+00;  3.5096377E-02;  1.2630324E+02;
  7.5999469E-01;  9.9999998E-03; -1.8001017E-01;2213; -7.5234207E-03;  0.0000000E+00; -1.9521156E-02;  1.0066350E+03;  4.0285388E-01;  5.4958730E+03;3; -7.1238136E+00;  0.0000000E+00; -2.4610813E+01;0;  5.4783481E-01;  9.9959150E+03;  0.0000000E+00;  3.9577678E-08;  1.0000000E+04;  0.0000000E+00;  9.9941563E+03;  2.4346833E-01;  0.0000000E+00;  3.0436650E-01;  2.4385598E+03;
  7.5999492E-01;  9.9999998E-03; -1.6000783E-01;2214; -7.1438998E-03;  0.0000000E+00; -1.5560391E-02;  1.0067339E+03;  4.0285382E-01;  5.5778301E+03;3; -6.6435232E+00;  0.0000000E+00; -2.0314262E+01;0;  4.6618056E-01;  9.9960010E+03;  0.0000000E+00;  1.3651982E-07;  1.0000000E+04;  0.0000000E+00;  9.9960381E+03;  2.3640031E-01;  0.0000000E+00;  2.2978024E-01;  1.6087317E+03;
  7.5999504E-01;  9.9999998E-03; -1.4000596E-01;2215; -6.8212533E-03;  0.0000000E+00; -1.2009612E-02;  1.0068058E+03;  4.0285373E-01;  5.6374712E+03;3; -6.2243333E+00;  0.0000000E+00; -1.6034195E+01;0;  4.0036330E-01;  9.9960791E+03;  0.0000000E+00;  1.3066098E-07;  1.0000000E+04;  0.0000000E+00;  9.9973975E+03;  2.3020551E-01;  0.0000000E+00;  1.7015779E-01;  1.0200523E+03;
  7.5999522E-01;  9.9999998E-03; -1.2000423E-01;2216; -6.5707248E-03;  0.0000000E+00; -8.6922916E-03;  1.0068514E+03;  4.0285370E-01;  5.6751909E+03;3; -5.8889294E+00;  0.0000000E+00; -1.1923794E+01;0;  3.5288543E-01;  9.9961406E+03;  0.0000000E+00;  7.9234184E-08;  1.0000000E+04;  0.0000000E+00;  9.9982422E+03;  2.2508863E-01;  0.0000000E+00;  1.2779680E-01;  6.6151086E+02;
  7.5999528E-01;  9.9999998E-03; -1.0000280E-01;2217; -6.3917427E-03;  0.0000000E+00; -5.8944840E-03;  1.0068795E+03;  4.0285367E-01;  5.6983960E+03;3; -5.6402969E+00;  0.0000000E+00; -8.3758984E+00;0;  3.1920683E-01;  9.9961875E+03;  0.0000000E+00;  3.6135770E-08;  1.0000000E+04;  0.0000000E+00;  9.9987500E+03;  2.2109839E-01;  0.0000000E+00;  9.8108448E-02;  4.5316708E+02;
  7.5999534E-01;  9.9999998E-03; -8.0001719E-02;2218; -6.2728627E-03;  0.0000000E+00; -3.7561043E-03;  1.0068976E+03;  4.0285367E-01;  5.7135034E+03;3; -5.4671440E+00;  0.0000000E+00; -5.5814915E+00;0;  2.9405701E-01;  9.9962217E+03;  0.0000000E+00;  1.2475414E-08;  1.0000000E+04;  0.0000000E+00;  9.9990791E+03;  2.1815997E-01;  0.0000000E+00;  7.5897045E-02;  3.2426654E+02;
  7.5999540E-01;  9.9999998E-03; -6.0000986E-02;2219; -6.1984370E-03;  0.0000000E+00; -2.2562630E-03;  1.0069105E+03;  4.0285367E-01;  5.7241680E+03;3; -5.3523068E+00;  0.0000000E+00; -3.5306170E+00;0;  2.7448687E-01;  9.9962461E+03;  0.0000000E+00;  3.3256222E-09;  1.0000000E+04;  0.0000000E+00;  9.9993135E+03;  2.1612139E-01;  0.0000000E+00;  5.8365487E-02;  2.3517252E+02;
  7.5999540E-01;  9.9999998E-03; -4.0000521E-02;2220; -6.1545847E-03;  0.0000000E+00; -1.2512646E-03;  1.0069199E+03;  4.0285367E-01;  5.7318701E+03;3; -5.2803617E+00;  0.0000000E+00; -2.0592000E+00;0;  2.5988820E-01;  9.9962598E+03;  0.0000000E+00;  4.0367118E-10;  1.0000000E+04;  0.0000000E+00;  9.9994834E+03;  2.1481355E-01;  0.0000000E+00;  4.5074660E-02;  1.7170410E+02;
  7.5999540E-01;  9.9999998E-03; -2.0000223E-02;2221; -6.1316793E-03;  0.0000000E+00; -5.5520487E-04;  1.0069256E+03;  4.0285367E-01;  5.7366099E+03;3; -5.2407875E+00;  0.0000000E+00; -9.4815987E-01;0;  2.5074017E-01;  9.9962695E+03;  0.0000000E+00;  5.1185989E-11;  1.0000000E+04;  0.0000000E+00;  9.9995889E+03;  2.1409209E-01;  0.0000000E+00;  3.6648080E-02;  1.3230855E+02;
  7.7999836E-01;  9.9999998E-03; -1.8001038E-01;2244; -2.4529409E-03;  0.0000000E+00; -1.9895565E-02;  1.0066647E+03;  4.0286118E-01;  5.5201875E+03;3; -2.5285428E+00;  0.0000000E+00; -2.5070147E+01;0;  5.3624952E-01;  9.9962441E+03;  0.0000000E+00;  6.3204233E-08;  1.0000000E+04;  0.0000000E+00;  9.9940566E+03;  2.2660986E-01;  0.0000000E+00;  3.0963969E-01;  2.4799995E+03;
  7.7999848E-01;  9.9999998E-03; -1.6000801E-01;2245; -2.2962929E-03;  0.0000000E+00; -1.5900031E-02;  1.0067649E+03;  4.0286115E-01;  5.6031265E+03;3; -2.3344896E+00;  0.0000000E+00; -2.0747187E+01;0;  4.5394719E-01;  9.9963271E+03;  0.0000000E+00;  6.6369147E-08;  1.0000000E+04;  0.0000000E+00;  9.9959658E+03;  2.1982734E-01;  0.0000000E+00;  2.3411985E-01;  1.6376616E+03;
  7.7999854E-01;  9.9999998E-03; -1.4000610E-01;2246; -2.1557517E-03;  0.0000000E+00; -1.2289643E-02;  1.0068376E+03;  4.0286109E-01;  5.6633560E+03;3; -2.1542549E+00;  0.0000000E+00; -1.6403210E+01;0;  3.8757384E-01;  9.9964004E+03;  0.0000000E+00;  4.7798650E-08;  1.0000000E+04;  0.0000000E+00;  9.9973428E+03;  2.1378410E-01;  0.0000000E+00;  1.7378974E-01;  1.0406683E+03;
  7.7999860E-01;  9.9999998E-03; -1.2000433E-01;2247; -2.0438754E-03;  0.0000000E+00; -8.9021539E-03;  1.0068839E+03;  4.0286106E-01;  5.7016660E+03;3; -2.0055671E+00;  0.0000000E+00; -1.2210851E+01;0;  3.3963960E-01;  9.9964609E+03;  0.0000000E+00;  2.6394762E-08;  1.0000000E+04;  0.0000000E+00;  9.9982021E+03;  2.0875224E-01;  0.0000000E+00;  1.3088736E-01;  6.7711206E+02;
  7.7999860E-01;  9.9999998E-03; -1.0000286E-01;2248; -1.9630902E-03;  0.0000000E+00; -6.0395179E-03;  1.0069122E+03;  4.0286103E-01;  5.7250669E+03;3; -1.8934883E+00;  0.0000000E+00; -8.5836983E+00;0;  3.0553156E-01;  9.9965098E+03;  0.0000000E+00;  1.1700354E-08;  1.0000000E+04;  0.0000000E+00;  9.9987178E+03;  2.0481886E-01;  0.0000000E+00;  1.0071272E-01;  4.6551559E+02;
  7.7999866E-01;  9.9999998E-03; -8.0001757E-02;2249; -1.9089538E-03;  0.0000000E+00; -3.8500903E-03;  1.0069307E+03;  4.0286097E-01;  5.7404697E+03;3; -1.8141749E+00;  0.0000000E+00; -5.7240915E+00;0;  2.7993760E-01;  9.9965430E+03;  0.0000000E+00;  4.1361568E-09;  1.0000000E+04;  0.0000000E+00;  9.9990537E+03;  2.0192419E-01;  0.0000000E+00;  7.8013405E-02;  3.3407700E+02;
  7.7999866E-01;  9.9999998E-03; -6.0001012E-02;2250; -1.8745280E-03;  0.0000000E+00; -2.3140686E-03;  1.0069439E+03;  4.0286094E-01;  5.7514297E+03;3; -1.7603354E+00;  0.0000000E+00; -3.6241267E+00;0;  2.5993127E-01;  9.9965654E+03;  0.0000000E+00;  1.0861017E-09;  1.0000000E+04;  0.0000000E+00;  9.9992939E+03;  1.9992192E-01;  0.0000000E+00;  6.0009334E-02;  2.4278949E+02;
  7.7999866E-01;  9.9999998E-03; -4.0000536E-02;2251; -1.8537170E-03;  0.0000000E+00; -1.2842932E-03;  1.0069534E+03;  4.0286097E-01;  5.7592295E+03;3; -1.7254883E+00;  0.0000000E+00; -2.1158831E+00;0;  2.4496154E-01;  9.9965791E+03;  0.0000000E+00;  2.5293043E-10;  1.0000000E+04;  0.0000000E+00;  9.9994697E+03;  1.9864282E-01;  0.0000000E+00;  4.6318721E-02;  1.7753242E+02;
  7.7999866E-01;  9.9999998E-03; -2.0000229E-02;2252; -1.8425588E-03;  0.0000000E+00; -5.7026604E-04;  1.0069593E+03;  4.0286097E-01;  5.7641665E+03;3; -1.7057469E+00;  0.0000000E+00; -9.7507674E-01;0;  2.3556575E-01;  9.9965889E+03;  0.0000000E+00; -4.5174363E-12;  1.0000000E+04;  0.0000000E+00;  9.9995781E+03;  1.9794051E-01;  0.0000000E+00;  3.7625231E-02;  1.3695366E+02;
  8.0000126E-01;  9.9999998E-03; -1.8001041E-01;2275;  1.5595298E-03;  0.0000000E+00; -1.9968910E-02;  1.0066885E+03;  4.0286276E-01;  5.5394312E+03;3;  1.1691202E+00;  0.0000000E+00; -2.5149803E+01;0;  5.1396596E-01;  9.9966543E+03;  0.0000000E+00; -1.5833031E-08;  1.0000000E+04;  0.0000000E+00;  9.9940410E+03;  2.0370893E-01;  0.0000000E+00;  3.1025705E-01;  2.4837346E+03;
  8.0000120E-01;  9.9999998E-03; -1.6000806E-01;2276;  1.5228682E-03;  0.0000000E+00; -1.5983235E-02;  1.0067885E+03;  4.0286273E-01;  5.6221650E+03;3;  1.1171848E+00;  0.0000000E+00; -2.0846319E+01;0;  4.3221974E-01;  9.9967314E+03;  0.0000000E+00; -5.5491980E-09;  1.0000000E+04;  0.0000000E+00;  9.9959551E+03;  1.9738989E-01;  0.0000000E+00;  2.3482987E-01;  1.6414301E+03;
  8.0000120E-01;  9.9999998E-03; -1.4000614E-01;2277;  1.5021659E-03;  0.0000000E+00; -1.2365159E-02;  1.0068611E+03;  4.0286267E-01;  5.6822905E+03;3;  1.0871801E+00;  0.0000000E+00; -1.6498610E+01;0;  3.6634767E-01;  9.9968008E+03;  0.0000000E+00;  5.2470128E-10;  1.0000000E+04;  0.0000000E+00;  9.9973320E+03;  1.9171427E-01;  0.0000000E+00;  1.7463341E-01;  1.0449436E+03;
  8.0000120E-01;  9.9999998E-03; -1.2000436E-01;2278;  1.4899763E-03;  0.0000000E+00; -8.9608254E-03;  1.0069071E+03;  4.0286255E-01;  5.7203994E+03;3;  1.0694734E+00;  0.0000000E+00; -1.2289173E+01;0;  3.1878239E-01;  9.9968564E+03;  0.0000000E+00;  1.5023659E-09;  1.0000000E+04;  0.0000000E+00;  9.9981904E+03;  1.8697104E-01;  0.0000000E+00;  1.3181134E-01;  6.8177716E+02;
  8.0000120E-01;  9.9999998E-03; -1.0000288E-01;2279;  1.4823914E-03;  0.0000000E+00; -6.0807369E-03;  1.0069352E+03;  4.0286252E-01;  5.7436992E+03;3;  1.0588362E+00;  0.0000000E+00; -8.6424561E+00;0;  2.8487444E-01;  9.9968994E+03;  0.0000000E+00;  8.3470192E-10;  1.0000000E+04;  0.0000000E+00;  9.9987070E+03;  1.8325855E-01;  0.0000000E+00;  1.0161589E-01;  4.7015903E+02;
  8.0000120E-01;  9.9999998E-03; -8.0001771E-02;2280;  1.4779795E-03;  0.0000000E+00; -3.8774631E-03;  1.0069537E+03;  4.0286252E-01;  5.7590020E+03;3;  1.0532750E+00;  0.0000000E+00; -5.7663417E+00;0;  2.5933349E-01;  9.9969326E+03;  0.0000000E+00;  2.9516875E-10;  1.0000000E+04;  0.0000000E+00;  9.9990449E+03;  1.8052594E-01;  0.0000000E+00;  7.8807563E-02;  3.3831018E+02;
  8.0000120E-01;  9.9999998E-03; -6.0001019E-02;2281;  1.4760103E-03;  0.0000000E+00; -2.3316734E-03;  1.0069670E+03;  4.0286261E-01;  5.7699609E+03;3;  1.0515304E+00;  0.0000000E+00; -3.6536601E+00;0;  2.3928899E-01;  9.9969541E+03;  0.0000000E+00;  9.0992568E-11;  1.0000000E+04;  0.0000000E+00;  9.9992881E+03;  1.7863733E-01;  0.0000000E+00;  6.0651660E-02;  2.4641106E+02;
  8.0000120E-01;  9.9999998E-03; -4.0000539E-02;2282;  1.4756063E-03;  0.0000000E+00; -1.2949775E-03;  1.0069766E+03;  4.0286258E-01;  5.7779580E+03;3;  1.0520251E+00;  0.0000000E+00; -2.1350384E+00;0;  2.2424841E-01;  9.9969678E+03;  0.0000000E+00;  2.7333571E-11;  1.0000000E+04;  0.0000000E+00;  9.9994639E+03;  1.7743319E-01;  0.0000000E+00;  4.6815220E-02;  1.8055415E+02;
  8.0000120E-01;  9.9999998E-03; -2.0000231E-02;2283;  1.4758556E-03;  0.0000000E+00; -5.7537650E-04;  1.0069825E+03;  4.0286246E-01;  5.7827954E+03;3;  1.0531667E+00;  0.0000000E+00; -9.8458028E-01;0;  2.1479300E-01;  9.9969756E+03;  0.0000000E+00;  6.4248164E-12;  1.0000000E+04;  0.0000000E+00;  9.9995732E+03;  1.7677329E-01;  0.0000000E+00;  3.8019709E-02;  1.3955261E+02;
  8.2000387E-01;  9.9999998E-03; -1.8001032E-01;2306;  5.2423114E-03;  0.0000000E+00; -1.9782528E-02;  1.0067037E+03;  4.0285999E-01;  5.5511904E+03;3;  4.5833955E+00;  0.0000000E+00; -2.4905441E+01;0;  4.8875326E-01;  9.9970332E+03;  0.0000000E+00; -1.1411286E-07;  1.0000000E+04;  0.0000000E+00;  9.9941006E+03;  1.8163635E-01;  0.0000000E+00;  3.0711690E-01;  2.4557837E+03;
  8.2000375E-01;  9.9999998E-03; -1.6000798E-01;2307;  5.0333850E-03;  0.0000000E+00; -1.5842324E-02;  1.0068022E+03;  4.0285993E-01;  5.6328286E+03;3;  4.3127146E+00;  0.0000000E+00; -2.0656326E+01;0;  4.0835777E-01;  9.9971035E+03;  0.0000000E+00; -4.4946944E-08;  1.0000000E+04;  0.0000000E+00;  9.9959941E+03;  1.7579331E-01;  0.0000000E+00;  2.3256446E-01;  1.6237394E+03;
  8.2000369E-01;  9.9999998E-03; -1.4000608E-01;2308;  4.8686848E-03;  0.0000000E+00; -1.2260799E-02;  1.0068738E+03;  4.0285987E-01;  5.6921567E+03;3;  4.0954881E+00;  0.0000000E+00; -1.6355129E+01;0;  3.4366691E-01;  9.9971670E+03;  0.0000000E+00; -7.2510105E-09;  1.0000000E+04;  0.0000000E+00;  9.9973574E+03;  1.7053375E-01;  0.0000000E+00;  1.7313315E-01;  1.0348950E+03;
  8.2000363E-01;  9.9999998E-03; -1.2000433E-01;2309;  4.7459062E-03;  0.0000000E+00; -8.8862181E-03;  1.0069191E+03;  4.0285981E-01;  5.7295698E+03;3;  3.9297369E+00;  0.0000000E+00; -1.2184458E+01;0;  2.9699713E-01;  9.9972188E+03;  0.0000000E+00;  1.4929809E-09;  1.0000000E+04;  0.0000000E+00;  9.9982031E+03;  1.6613543E-01;  0.0000000E+00;  1.3086171E-01;  6.7648682E+02;
  8.2000357E-01;  9.9999998E-03; -1.0000286E-01;2310;  4.6596280E-03;  0.0000000E+00; -6.0302997E-03;  1.0069469E+03;  4.0285978E-01;  5.7526694E+03;3;  3.8099952E+00;  0.0000000E+00; -8.5700178E+00;0;  2.6370141E-01;  9.9972598E+03;  0.0000000E+00;  1.3269448E-09;  1.0000000E+04;  0.0000000E+00;  9.9987168E+03;  1.6268922E-01;  0.0000000E+00;  1.0101218E-01;  4.6750870E+02;
  8.2000357E-01;  9.9999998E-03; -8.0001757E-02;2311;  4.6029878E-03;  0.0000000E+00; -3.8458204E-03;  1.0069651E+03;  4.0285978E-01;  5.7677729E+03;3;  3.7286987E+00;  0.0000000E+00; -5.7197471E+00;0;  2.3855627E-01;  9.9972900E+03;  0.0000000E+00;  5.8873073E-10;  1.0000000E+04;  0.0000000E+00;  9.9990498E+03;  1.6014753E-01;  0.0000000E+00;  7.8408726E-02;  3.3706589E+02;
  8.2000351E-01;  9.9999998E-03; -6.0001012E-02;2312;  4.5683482E-03;  0.0000000E+00; -2.3134283E-03;  1.0069783E+03;  4.0285978E-01;  5.7786318E+03;3;  3.6769209E+00;  0.0000000E+00; -3.6260567E+00;0;  2.1876232E-01;  9.9973096E+03;  0.0000000E+00;  8.0047746E-11;  1.0000000E+04;  0.0000000E+00;  9.9992900E+03;  1.5838686E-01;  0.0000000E+00;  6.0375463E-02;  2.4594887E+02;
  8.2000351E-01;  9.9999998E-03; -4.0000536E-02;2313;  4.5487396E-03;  0.0000000E+00; -1.2855105E-03;  1.0069877E+03;  4.0285978E-01;  5.7864307E+03;3;  3.6462791E+00;  0.0000000E+00; -2.1203468E+00;0;  2.0387557E-01;  9.9973232E+03;  0.0000000E+00;  5.2887323E-11;  1.0000000E+04;  0.0000000E+00;  9.9994658E+03;  1.5726139E-01;  0.0000000E+00;  4.6614181E-02;  1.8055634E+02;
  8.2000351E-01;  9.9999998E-03; -2.0000229E-02;2314;  4.5390120E-03;  0.0000000E+00; -5.7148183E-04;  1.0069936E+03;  4.0285975E-01;  5.7912676E+03;3;  3.6304333E+00;  0.0000000E+00; -9.7838736E-01;0;  1.9450423E-01;  9.9973301E+03;  0.0000000E+00;  2.5492389E-11;  1.0000000E+04;  0.0000000E+00;  9.9995752E+03;  1.5664309E-01;  0.0000000E+00;  3.7861131E-02;  1.3981616E+02;
  8.4000653E-01;  9.9999998E-03; -1.8001010E-01;2337;  8.9788213E-03;  0.0000000E+00; -1.9355791E-02;  1.0066108E+03;  4.0281385E-01;  5.4733853E+03;3;  8.0313530E+00;  0.0000000E+00; -2.4365938E+01;0;  4.6274298E-01;  9.9973564E+03;  0.0000000E+00; -2.2533338E-07;  1.0000000E+04;  0.0000000E+00;  9.9942266E+03;  1.6211425E-01;  0.0000000E+00;  3.0062875E-01;  2.3988508E+03;
  8.4000635E-01;  9.9999998E-03; -1.6000782E-01;2338;  8.6116465E-03;  0.0000000E+00; -1.5502119E-02;  1.0067073E+03;  4.0281373E-01;  5.5533320E+03;3;  7.5589080E+00;  0.0000000E+00; -2.0210707E+01;0;  3.8430119E-01;  9.9974219E+03;  0.0000000E+00; -7.0222200E-08;  1.0000000E+04;  0.0000000E+00;  9.9960791E+03;  1.5664643E-01;  0.0000000E+00;  2.2765474E-01;  1.5863735E+03;
  8.4000617E-01;  9.9999998E-03; -1.4000596E-01;2339;  8.3163735E-03;  0.0000000E+00; -1.1998048E-02;  1.0067770E+03;  4.0281361E-01;  5.6109727E+03;3;  7.1716943E+00;  0.0000000E+00; -1.6002352E+01;0;  3.2129064E-01;  9.9974824E+03;  0.0000000E+00;  7.8344478E-09;  1.0000000E+04;  0.0000000E+00;  9.9974092E+03;  1.5173781E-01;  0.0000000E+00;  1.6955283E-01;  1.0117044E+03;
  8.4000611E-01;  9.9999998E-03; -1.2000423E-01;2340;  8.0943704E-03;  0.0000000E+00; -8.6948751E-03;  1.0068211E+03;  4.0281361E-01;  5.6475903E+03;3;  6.8731008E+00;  0.0000000E+00; -1.1920237E+01;0;  2.7589297E-01;  9.9975313E+03;  0.0000000E+00;  1.5485222E-08;  1.0000000E+04;  0.0000000E+00;  9.9982393E+03;  1.4764145E-01;  0.0000000E+00;  1.2825154E-01;  6.6206818E+02;
  8.4000599E-01;  9.9999998E-03; -1.0000280E-01;2341;  7.9378709E-03;  0.0000000E+00; -5.8997083E-03;  1.0068482E+03;  4.0281355E-01;  5.6699951E+03;3;  6.6560345E+00;  0.0000000E+00; -8.3833551E+00;0;  2.4350411E-01;  9.9975703E+03;  0.0000000E+00;  8.1929059E-09;  1.0000000E+04;  0.0000000E+00;  9.9987422E+03;  1.4443061E-01;  0.0000000E+00;  9.9073492E-02;  4.5817819E+02;
  8.4000599E-01;  9.9999998E-03; -8.0001719E-02;2342;  7.8345882E-03;  0.0000000E+00; -3.7624321E-03;  1.0068660E+03;  4.0281358E-01;  5.6847012E+03;3;  6.5070548E+00;  0.0000000E+00; -5.5954399E+00;0;  2.1900681E-01;  9.9975977E+03;  0.0000000E+00;  2.9904166E-09;  1.0000000E+04;  0.0000000E+00;  9.9990674E+03;  1.4205514E-01;  0.0000000E+00;  7.6951675E-02;  3.3080310E+02;
  8.4000593E-01;  9.9999998E-03; -6.0000990E-02;2343;  7.7706883E-03;  0.0000000E+00; -2.2636163E-03;  1.0068788E+03;  4.0281355E-01;  5.6952622E+03;3;  6.4104605E+00;  0.0000000E+00; -3.5481701E+00;0;  1.9968294E-01;  9.9976152E+03;  0.0000000E+00;  6.3478861E-10;  1.0000000E+04;  0.0000000E+00;  9.9993018E+03;  1.4040019E-01;  0.0000000E+00;  5.9282754E-02;  2.4173378E+02;
  8.4000593E-01;  9.9999998E-03; -4.0000524E-02;2344;  7.7337944E-03;  0.0000000E+00; -1.2582071E-03;  1.0068881E+03;  4.0281352E-01;  5.7030596E+03;3;  6.3517871E+00;  0.0000000E+00; -2.0756195E+00;0;  1.8512571E-01;  9.9976289E+03;  0.0000000E+00;  9.8963122E-11;  1.0000000E+04;  0.0000000E+00;  9.9994746E+03;  1.3933450E-01;  0.0000000E+00;  4.5791201E-02;  1.7776756E+02;
  8.4000593E-01;  9.9999998E-03; -2.0000223E-02;2345;  7.7150064E-03;  0.0000000E+00; -5.5950758E-04;  1.0068939E+03;  4.0281352E-01;  5.7077969E+03;3;  6.3204980E+00;  0.0000000E+00; -9.5809221E-01;0;  1.7595288E-01;  9.9976348E+03;  0.0000000E+00; -1.6825945E-11;  1.0000000E+04;  0.0000000E+00;  9.9995830E+03;  1.3874508E-01;  0.0000000E+00;  3.7207793E-02;  1.3790573E+02;
  8.6000925E-01;  9.9999998E-03; -1.8000975E-01;2368;  1.2751917E-02;  0.0000000E+00; -1.8704642E-02;  1.0064083E+03;  4.0272287E-01;  5.3046099E+03;3;  1.1489947E+01;  0.0000000E+00; -2.3550249E+01;0;  4.3395633E-01;  9.9976641E+03;  0.0000000E+00; -3.6587633E-07;  1.0000000E+04;  0.0000000E+00;  9.9944121E+03;  1.4302629E-01;  0.0000000E+00;  2.9093003E-01;  2.3140352E+03;
  8.6000896E-01;  9.9999998E-03; -1.6000755E-01;2369;  1.2238237E-02;  0.0000000E+00; -1.4980872E-02;  1.0065016E+03;  4.0272272E-01;  5.3818740E+03;3;  1.0829495E+01;  0.0000000E+00; -1.9532534E+01;0;  3.5802665E-01;  9.9977305E+03;  0.0000000E+00; -1.0100290E-07;  1.0000000E+04;  0.0000000E+00;  9.9962061E+03;  1.3778067E-01;  0.0000000E+00;  2.2024599E-01;  1.5302236E+03;
  8.6000878E-01;  9.9999998E-03; -1.4000575E-01;2370;  1.1824236E-02;  0.0000000E+00; -1.1593728E-02;  1.0065691E+03;  4.0272266E-01;  5.4377256E+03;3;  1.0287194E+01;  0.0000000E+00; -1.5462616E+01;0;  2.9716352E-01;  9.9977881E+03;  0.0000000E+00;  2.7210186E-08;  1.0000000E+04;  0.0000000E+00;  9.9974951E+03;  1.3311484E-01;  0.0000000E+00;  1.6404867E-01;  9.7620587E+02;
  8.6000860E-01;  9.9999998E-03; -1.2000409E-01;2371;  1.1513227E-02;  0.0000000E+00; -8.4001133E-03;  1.0066119E+03;  4.0272269E-01;  5.4731509E+03;3;  9.8692904E+00;  0.0000000E+00; -1.1514864E+01;0;  2.5338575E-01;  9.9978359E+03;  0.0000000E+00;  3.1826762E-08;  1.0000000E+04;  0.0000000E+00;  9.9982969E+03;  1.2924576E-01;  0.0000000E+00;  1.2413999E-01;  6.3934125E+02;
  8.6000854E-01;  9.9999998E-03; -1.0000270E-01;2372;  1.1294086E-02;  0.0000000E+00; -5.6982948E-03;  1.0066380E+03;  4.0272263E-01;  5.4947612E+03;3;  9.5653124E+00;  0.0000000E+00; -8.0958929E+00;0;  2.2217041E-01;  9.9978701E+03;  0.0000000E+00;  1.5443621E-08;  1.0000000E+04;  0.0000000E+00;  9.9987793E+03;  1.2621978E-01;  0.0000000E+00;  9.5950641E-02;  4.4295099E+02;
  8.6000848E-01;  9.9999998E-03; -8.0001660E-02;2373;  1.1149313E-02;  0.0000000E+00; -3.6332731E-03;  1.0066552E+03;  4.0272266E-01;  5.5089707E+03;3;  9.3561888E+00;  0.0000000E+00; -5.4024673E+00;0;  1.9854484E-01;  9.9978994E+03;  0.0000000E+00;  4.9836517E-09;  1.0000000E+04;  0.0000000E+00;  9.9990967E+03;  1.2397540E-01;  0.0000000E+00;  7.4569441E-02;  3.2023544E+02;
  8.6000842E-01;  9.9999998E-03; -6.0000956E-02;2374;  1.1059364E-02;  0.0000000E+00; -2.1857503E-03;  1.0066675E+03;  4.0272260E-01;  5.5191348E+03;3;  9.2196646E+00;  0.0000000E+00; -3.4256349E+00;0;  1.7988592E-01;  9.9979170E+03;  0.0000000E+00;  1.0904875E-09;  1.0000000E+04;  0.0000000E+00;  9.9993223E+03;  1.2240081E-01;  0.0000000E+00;  5.7485107E-02;  2.3439255E+02;
  8.6000836E-01;  9.9999998E-03; -4.0000506E-02;2375;  1.1007050E-02;  0.0000000E+00; -1.2149889E-03;  1.0066765E+03;  4.0272260E-01;  5.5266343E+03;3;  9.1359787E+00;  0.0000000E+00; -2.0041225E+00;0;  1.6581590E-01;  9.9979287E+03;  0.0000000E+00;  1.1256918E-10;  1.0000000E+04;  0.0000000E+00;  9.9994902E+03;  1.2137703E-01;  0.0000000E+00;  4.4438876E-02;  1.7273579E+02;
  8.6000836E-01;  9.9999998E-03; -2.0000216E-02;2376;  1.0980167E-02;  0.0000000E+00; -5.4034666E-04;  1.0066821E+03;  4.0272257E-01;  5.5311733E+03;3;  9.0909576E+00;  0.0000000E+00; -9.2523271E-01;0;  1.5694532E-01;  9.9979355E+03;  0.0000000E+00; -1.4980219E-12;  1.0000000E+04;  0.0000000E+00;  9.9995947E+03;  1.2080550E-01;  0.0000000E+00;  3.6139823E-02;  1.3431699E+02;
  8.8001180E-01;  9.9999998E-03; -1.8000931E-01;2399;  1.6316317E-02;  0.0000000E+00; -1.7846391E-02;  1.0061122E+03;  4.0259236E-01;  5.0579717E+03;3;  1.4744509E+01;  0.0000000E+00; -2.2478014E+01;0;  3.9943963E-01;  9.9980127E+03;  0.0000000E+00; -5.3648347E-07;  1.0000000E+04;  0.0000000E+00;  9.9946602E+03;  1.2129094E-01;  0.0000000E+00;  2.7814871E-01;  2.2026433E+03;
  8.8001150E-01;  9.9999998E-03; -1.6000721E-01;2400;  1.5670044E-02;  0.0000000E+00; -1.4296135E-02;  1.0062017E+03;  4.0259224E-01;  5.1319585E+03;3;  1.3912897E+01;  0.0000000E+00; -1.8643457E+01;0;  3.2660326E-01;  9.9980791E+03;  0.0000000E+00; -1.5244949E-07;  1.0000000E+04;  0.0000000E+00;  9.9963740E+03;  1.1612812E-01;  0.0000000E+00;  2.1047515E-01;  1.4563636E+03;
  8.8001120E-01;  9.9999998E-03; -1.4000550E-01;2401;  1.5150391E-02;  0.0000000E+00; -1.1063444E-02;  1.0062662E+03;  4.0259224E-01;  5.1853271E+03;3;  1.3232154E+01;  0.0000000E+00; -1.4756099E+01;0;  2.6839408E-01;  9.9981377E+03;  0.0000000E+00;  3.5345980E-08;  1.0000000E+04;  0.0000000E+00;  9.9976045E+03;  1.1162452E-01;  0.0000000E+00;  1.5676956E-01;  9.2938025E+02;
  8.8001102E-01;  9.9999998E-03; -1.2000390E-01;2402;  1.4761037E-02;  0.0000000E+00; -8.0141053E-03;  1.0063070E+03;  4.0259221E-01;  5.2191631E+03;3;  1.2708967E+01;  0.0000000E+00; -1.0984748E+01;0;  2.2662322E-01;  9.9981816E+03;  0.0000000E+00;  3.9721957E-08;  1.0000000E+04;  0.0000000E+00;  9.9983711E+03;  1.0794158E-01;  0.0000000E+00;  1.1868164E-01;  6.0924353E+02;
  8.8001090E-01;  9.9999998E-03; -1.0000258E-01;2403;  1.4487161E-02;  0.0000000E+00; -5.4345899E-03;  1.0063320E+03;  4.0259212E-01;  5.2398794E+03;3;  1.2328980E+01;  0.0000000E+00; -7.7196193E+00;0;  1.9687560E-01;  9.9982178E+03;  0.0000000E+00;  1.7119634E-08;  1.0000000E+04;  0.0000000E+00;  9.9988320E+03;  1.0508259E-01;  0.0000000E+00;  9.1793008E-02;  4.2271472E+02;
  8.8001078E-01;  9.9999998E-03; -8.0001585E-02;2404;  1.4306244E-02;  0.0000000E+00; -3.4638566E-03;  1.0063484E+03;  4.0259221E-01;  5.2533940E+03;3;  1.2067391E+01;  0.0000000E+00; -5.1490016E+00;0;  1.7436150E-01;  9.9982432E+03;  0.0000000E+00;  3.6293799E-09;  1.0000000E+04;  0.0000000E+00;  9.9991348E+03;  1.0296381E-01;  0.0000000E+00;  7.1397685E-02;  3.0617767E+02;
  8.8001078E-01;  9.9999998E-03; -6.0000911E-02;2405;  1.4193626E-02;  0.0000000E+00; -2.0831560E-03;  1.0063602E+03;  4.0259221E-01;  5.2631602E+03;3;  1.1896152E+01;  0.0000000E+00; -3.2636857E+00;0;  1.5657143E-01;  9.9982607E+03;  0.0000000E+00; -6.1117923E-11;  1.0000000E+04;  0.0000000E+00;  9.9993516E+03;  1.0146992E-01;  0.0000000E+00;  5.5101518E-02;  2.2465961E+02;
  8.8001072E-01;  9.9999998E-03; -4.0000480E-02;2406;  1.4127929E-02;  0.0000000E+00; -1.1577168E-03;  1.0063687E+03;  4.0259218E-01;  5.2702627E+03;3;  1.1790750E+01;  0.0000000E+00; -1.9089285E+00;0;  1.4315204E-01;  9.9982734E+03;  0.0000000E+00;  2.4376026E-10;  1.0000000E+04;  0.0000000E+00;  9.9995107E+03;  1.0049058E-01;  0.0000000E+00;  4.2661466E-02;  1.6612590E+02;
  8.8001072E-01;  9.9999998E-03; -2.0000206E-02;2407;  1.4094029E-02;  0.0000000E+00; -5.1482470E-04;  1.0063740E+03;  4.0259215E-01;  5.2746035E+03;3;  1.1733775E+01;  0.0000000E+00; -8.8116014E-01;0;  1.3469097E-01;  9.9982793E+03;  0.0000000E+00;  4.7688346E-11;  1.0000000E+04;  0.0000000E+00;  9.9996084E+03;  9.9939227E-02;  0.0000000E+00;  3.4751747E-02;  1.2966927E+02;
  9.0001404E-01;  9.9999998E-03; -1.8000875E-01;2430;  1.9378021E-02;  0.0000000E+00; -1.6805379E-02;  1.0057409E+03;  4.0242940E-01;  4.7487568E+03;3;  1.7541168E+01;  0.0000000E+00; -2.1177767E+01;0;  3.5806525E-01;  9.9984307E+03;  0.0000000E+00; -7.4960178E-07;  1.0000000E+04;  0.0000000E+00;  9.9949590E+03;  9.5487311E-02;  0.0000000E+00;  2.6257795E-01;  2.0673015E+03;
  9.0001363E-01;  9.9999998E-03; -1.6000679E-01;2431;  1.8615814E-02;  0.0000000E+00; -1.3469085E-02;  1.0058256E+03;  4.0242928E-01;  4.8188667E+03;3;  1.6559698E+01;  0.0000000E+00; -1.7569729E+01;0;  2.8893584E-01;  9.9984980E+03;  0.0000000E+00; -2.2152189E-07;  1.0000000E+04;  0.0000000E+00;  9.9965801E+03;  9.0345137E-02;  0.0000000E+00;  1.9859070E-01;  1.3667085E+03;
  9.0001333E-01;  9.9999998E-03; -1.4000517E-01;2432;  1.8003987E-02;  0.0000000E+00; -1.0424836E-02;  1.0058868E+03;  4.0242931E-01;  4.8694526E+03;3;  1.5757301E+01;  0.0000000E+00; -1.3905380E+01;0;  2.3394126E-01;  9.9985547E+03;  0.0000000E+00;  2.5738400E-08;  1.0000000E+04;  0.0000000E+00;  9.9977402E+03;  8.6010374E-02;  0.0000000E+00;  1.4793089E-01;  8.7264807E+02;
  9.0001309E-01;  9.9999998E-03; -1.2000368E-01;2433;  1.7545203E-02;  0.0000000E+00; -7.5503895E-03;  1.0059252E+03;  4.0242928E-01;  4.9012046E+03;3;  1.5140585E+01;  0.0000000E+00; -1.0347893E+01;0;  1.9462143E-01;  9.9985986E+03;  0.0000000E+00;  3.4707959E-08;  1.0000000E+04;  0.0000000E+00;  9.9984600E+03;  8.2554743E-02;  0.0000000E+00;  1.1206669E-01;  5.7289209E+02;
  9.0001291E-01;  9.9999998E-03; -1.0000243E-01;2434;  1.7221585E-02;  0.0000000E+00; -5.1182867E-03;  1.0059488E+03;  4.0242919E-01;  4.9207285E+03;3;  1.4690664E+01;  0.0000000E+00; -7.2679071E+00;0;  1.6668466E-01;  9.9986328E+03;  0.0000000E+00;  9.8145216E-09;  1.0000000E+04;  0.0000000E+00;  9.9988975E+03;  7.9916634E-02;  0.0000000E+00;  8.6768024E-02;  3.9839404E+02;
  9.0001285E-01;  9.9999998E-03; -8.0001488E-02;2435;  1.7006710E-02;  0.0000000E+00; -3.2609170E-03;  1.0059641E+03;  4.0242922E-01;  4.9334492E+03;3;  1.4379827E+01;  0.0000000E+00; -4.8446569E+00;0;  1.4555997E-01;  9.9986582E+03;  0.0000000E+00; -1.3839710E-09;  1.0000000E+04;  0.0000000E+00;  9.9991797E+03;  7.7977687E-02;  0.0000000E+00;  6.7582287E-02;  2.8941599E+02;
  9.0001279E-01;  9.9999998E-03; -6.0000855E-02;2436;  1.6872304E-02;  0.0000000E+00; -1.9605434E-03;  1.0059753E+03;  4.0242922E-01;  4.9426196E+03;3;  1.4175276E+01;  0.0000000E+00; -3.0692959E+00;0;  1.2887061E-01;  9.9986748E+03;  0.0000000E+00; -2.0331525E-09;  1.0000000E+04;  0.0000000E+00;  9.9993848E+03;  7.6612666E-02;  0.0000000E+00;  5.2257940E-02;  2.1321007E+02;
  9.0001273E-01;  9.9999998E-03; -4.0000454E-02;2437;  1.6793532E-02;  0.0000000E+00; -1.0894564E-03;  1.0059833E+03;  4.0242922E-01;  4.9492266E+03;3;  1.4049127E+01;  0.0000000E+00; -1.7947249E+00;0;  1.1628406E-01;  9.9986865E+03;  0.0000000E+00; -6.9730993E-10;  1.0000000E+04;  0.0000000E+00;  9.9995322E+03;  7.5715519E-02;  0.0000000E+00;  4.0568545E-02;  1.5852740E+02;
  9.0001273E-01;  9.9999998E-03; -2.0000193E-02;2438;  1.6752385E-02;  0.0000000E+00; -4.8437744E-04;  1.0059882E+03;  4.0242925E-01;  4.9533677E+03;3;  1.3979950E+01;  0.0000000E+00; -8.2818478E-01;0;  1.0835121E-01;  9.9986924E+03;  0.0000000E+00;  5.9386294E-11;  1.0000000E+04;  0.0000000E+00;  9.9996260E+03;  7.5208671E-02;  0.0000000E+00;  3.3142537E-02;  1.2449766E+02;
  9.2001557E-01;  9.9999998E-03; -1.8000814E-01;2461;  2.1464175E-02;  0.0000000E+00; -1.5630331E-02;  1.0053141E+03;  4.0224227E-01;  4.3933364E+03;3;  1.9400480E+01;  0.0000000E+00; -1.9699610E+01;0;  3.1160682E-01;  9.9988965E+03;  0.0000000E+00; -9.0136342E-07;  1.0000000E+04;  0.0000000E+00;  9.9953037E+03;  6.6870600E-02;  0.0000000E+00;  2.4473624E-01;  1.9123256E+03;
  9.2001504E-01;  9.9999998E-03; -1.6000633E-01;2462;  2.0511828E-02;  0.0000000E+00; -1.2542712E-02;  1.0053936E+03;  4.0224224E-01;  4.4589731E+03;3;  1.8182238E+01;  0.0000000E+00; -1.6353725E+01;0;  2.4680310E-01;  9.9989658E+03;  0.0000000E+00; -2.7872659E-07;  1.0000000E+04;  0.0000000E+00;  9.9968135E+03;  6.1803222E-02;  0.0000000E+00;  1.8499988E-01;  1.2642354E+03;
  9.2001468E-01;  9.9999998E-03; -1.4000483E-01;2463;  1.9760363E-02;  0.0000000E+00; -9.7142719E-03;  1.0054504E+03;  4.0224221E-01;  4.5060820E+03;3;  1.7208218E+01;  0.0000000E+00; -1.2947622E+01;0;  1.9559991E-01;  9.9990215E+03;  0.0000000E+00;  5.1085420E-09;  1.0000000E+04;  0.0000000E+00;  9.9978945E+03;  5.7753999E-02;  0.0000000E+00;  1.3784592E-01;  8.0797644E+02;
  9.2001438E-01;  9.9999998E-03; -1.2000344E-01;2464;  1.9189980E-02;  0.0000000E+00; -7.0441309E-03;  1.0054861E+03;  4.0224212E-01;  4.5355493E+03;3;  1.6458597E+01;  0.0000000E+00; -9.6369610E+00;0;  1.5920170E-01;  9.9990635E+03;  0.0000000E+00;  1.8401455E-08;  1.0000000E+04;  0.0000000E+00;  9.9985654E+03;  5.4662533E-02;  0.0000000E+00;  1.0453916E-01;  5.3160608E+02;
  9.2001420E-01;  9.9999998E-03; -1.0000228E-01;2465;  1.8764080E-02;  0.0000000E+00; -4.7918139E-03;  1.0055080E+03;  4.0224212E-01;  4.5535850E+03;3;  1.5872731E+01;  0.0000000E+00; -6.7838998E+00;0;  1.3345094E-01;  9.9990928E+03;  0.0000000E+00; -3.4298644E-09;  1.0000000E+04;  0.0000000E+00;  9.9989688E+03;  5.2379388E-02;  0.0000000E+00;  8.1071556E-02;  3.7092227E+02;
  9.2001402E-01;  9.9999998E-03; -8.0001414E-02;2466;  1.8459970E-02;  0.0000000E+00; -3.0712716E-03;  1.0055221E+03;  4.0224212E-01;  4.5653135E+03;3;  1.5442609E+01;  0.0000000E+00; -4.5406299E+00;0;  1.1402355E-01;  9.9991143E+03;  0.0000000E+00; -6.9945045E-09;  1.0000000E+04;  0.0000000E+00;  9.9992295E+03;  5.0740685E-02;  0.0000000E+00;  6.3282862E-02;  2.7064304E+02;
  9.2001396E-01;  9.9999998E-03; -6.0000822E-02;2467;  1.8253528E-02;  0.0000000E+00; -1.8648196E-03;  1.0055324E+03;  4.0224215E-01;  4.5737891E+03;3;  1.5148129E+01;  0.0000000E+00; -2.8944719E+00;0;  9.8689146E-02;  9.9991289E+03;  0.0000000E+00; -3.1220520E-09;  1.0000000E+04;  0.0000000E+00;  9.9994199E+03;  4.9604833E-02;  0.0000000E+00;  4.9084313E-02;  2.0056668E+02;
  9.2001390E-01;  9.9999998E-03; -4.0000442E-02;2468;  1.8122556E-02;  0.0000000E+00; -1.0492888E-03;  1.0055397E+03;  4.0224215E-01;  4.5798008E+03;3;  1.4947909E+01;  0.0000000E+00; -1.7051172E+00;0;  8.7132141E-02;  9.9991387E+03;  0.0000000E+00; -6.1351108E-10;  1.0000000E+04;  0.0000000E+00;  9.9995576E+03;  4.8865456E-02;  0.0000000E+00;  3.8266685E-02;  1.5033751E+02;
  9.2001384E-01;  9.9999998E-03; -2.0000193E-02;2469;  1.8054942E-02;  0.0000000E+00; -4.7300872E-04;  1.0055443E+03;  4.0224209E-01;  4.5836445E+03;3;  1.4841076E+01;  0.0000000E+00; -7.9256696E-01;0;  7.9853475E-02;  9.9991426E+03;  0.0000000E+00;  1.4772550E-10;  1.0000000E+04;  0.0000000E+00;  9.9996436E+03;  4.8450168E-02;  0.0000000E+00;  3.1403311E-02;  1.1911842E+02;
  9.4001609E-01;  9.9999998E-03; -1.8000753E-01;2492;  2.2061121E-02;  0.0000000E+00; -1.4401700E-02;  1.0048508E+03;  4.0204009E-01;  4.0073030E+03;3;  1.9824301E+01;  0.0000000E+00; -1.8117287E+01;0;  2.6401132E-01;  9.9993623E+03;  0.0000000E+00; -9.2051800E-07;  1.0000000E+04;  0.0000000E+00;  9.9956768E+03;  3.8660098E-02;  0.0000000E+00;  2.2535123E-01;  1.7436041E+03;
  9.4001549E-01;  9.9999998E-03; -1.6000587E-01;2493;  2.0955496E-02;  0.0000000E+00; -1.1577344E-02;  1.0049241E+03;  4.0204003E-01;  4.0679678E+03;3;  1.8474211E+01;  0.0000000E+00; -1.5045958E+01;0;  2.0404096E-01;  9.9994346E+03;  0.0000000E+00; -2.7111273E-07;  1.0000000E+04;  0.0000000E+00;  9.9970684E+03;  3.3783436E-02;  0.0000000E+00;  1.7025752E-01;  1.1529191E+03;
  9.4001502E-01;  9.9999998E-03; -1.4000449E-01;2494;  2.0108148E-02;  0.0000000E+00; -8.9783007E-03;  1.0049766E+03;  4.0204000E-01;  4.1112012E+03;3;  1.7413136E+01;  0.0000000E+00; -1.1921548E+01;0;  1.5709798E-01;  9.9994844E+03;  0.0000000E+00; -9.2244408E-09;  1.0000000E+04;  0.0000000E+00;  9.9980625E+03;  3.0177578E-02;  0.0000000E+00;  1.2692040E-01;  7.3785889E+02;
  9.4001466E-01;  9.9999998E-03; -1.2000320E-01;2495;  1.9462258E-02;  0.0000000E+00; -6.5306467E-03;  1.0050092E+03;  4.0203997E-01;  4.1381851E+03;3;  1.6597614E+01;  0.0000000E+00; -8.8844872E+00;0;  1.2400842E-01;  9.9995215E+03;  0.0000000E+00; -6.8954376E-10;  1.0000000E+04;  0.0000000E+00;  9.9986758E+03;  2.7612571E-02;  0.0000000E+00;  9.6395850E-02;  4.8691275E+02;
  9.4001442E-01;  9.9999998E-03; -1.0000215E-01;2496;  1.8974844E-02;  0.0000000E+00; -4.4723651E-03;  1.0050291E+03;  4.0203995E-01;  4.1546313E+03;3;  1.5963662E+01;  0.0000000E+00; -6.2815094E+00;0;  1.0075888E-01;  9.9995459E+03;  0.0000000E+00; -1.5995049E-08;  1.0000000E+04;  0.0000000E+00;  9.9990469E+03;  2.5832895E-02;  0.0000000E+00;  7.4925981E-02;  3.4125174E+02;
  9.4001424E-01;  9.9999998E-03; -8.0001347E-02;2497;  1.8621799E-02;  0.0000000E+00; -2.8996675E-03;  1.0050419E+03;  4.0203997E-01;  4.1651689E+03;3;  1.5486903E+01;  0.0000000E+00; -4.2361951E+00;0;  8.3290868E-02;  9.9995625E+03;  0.0000000E+00; -1.1620517E-08;  1.0000000E+04;  0.0000000E+00;  9.9992852E+03;  2.4622107E-02;  0.0000000E+00;  5.8668762E-02;  2.5046330E+02;
  9.4001412E-01;  9.9999998E-03; -6.0000807E-02;2498;  1.8380485E-02;  0.0000000E+00; -1.7893096E-03;  1.0050511E+03;  4.0203995E-01;  4.1728506E+03;3;  1.5157022E+01;  0.0000000E+00; -2.7226572E+00;0;  6.9527559E-02;  9.9995732E+03;  0.0000000E+00; -3.2940979E-09;  1.0000000E+04;  0.0000000E+00;  9.9994580E+03;  2.3819266E-02;  0.0000000E+00;  4.5708295E-02;  1.8709618E+02;
  9.4001406E-01;  9.9999998E-03; -4.0000450E-02;2499;  1.8226087E-02;  0.0000000E+00; -1.0256886E-03;  1.0050577E+03;  4.0203992E-01;  4.1782671E+03;3;  1.4944252E+01;  0.0000000E+00; -1.6139008E+00;0;  5.9165262E-02;  9.9995801E+03;  0.0000000E+00;  1.4958617E-09;  1.0000000E+04;  0.0000000E+00;  9.9995859E+03;  2.3315158E-02;  0.0000000E+00;  3.5850104E-02;  1.4174628E+02;
  9.4001400E-01;  9.9999998E-03; -2.0000201E-02;2500;  1.8142315E-02;  0.0000000E+00; -4.6780144E-04;  1.0050618E+03;  4.0204000E-01;  4.1817139E+03;3;  1.4820802E+01;  0.0000000E+00; -7.4683851E-01;0;  5.2644778E-02;  9.9995840E+03;  0.0000000E+00;  5.8956567E-10;  1.0000000E+04;  0.0000000E+00;  9.9996611E+03;  2.3039298E-02;  0.0000000E+00;  2.9605480E-02;  1.1360464E+02;
  9.6001595E-01;  9.9999998E-03; -1.8000689E-01;2523;  2.1892801E-02;  0.0000000E+00; -1.3133613E-02;  1.0043693E+03;  4.0183157E-01;  3.6060559E+03;3;  1.9668034E+01;  0.0000000E+00; -1.6470551E+01;0;  2.1954863E-01;  9.9997715E+03;  0.0000000E+00; -7.3155309E-07;  1.0000000E+04;  0.0000000E+00;  9.9960596E+03;  1.4255765E-02;  0.0000000E+00;  2.0529287E-01;  1.5681200E+03;
  9.6001530E-01;  9.9999998E-03; -1.6000539E-01;2524;  2.0740420E-02;  0.0000000E+00; -1.0578191E-02;  1.0044366E+03;  4.0183145E-01;  3.6615447E+03;3;  1.8299938E+01;  0.0000000E+00; -1.3695555E+01;0;  1.6462587E-01;  9.9998428E+03;  0.0000000E+00; -1.8408437E-07;  1.0000000E+04;  0.0000000E+00;  9.9973291E+03;  9.6016796E-03;  0.0000000E+00;  1.5502419E-01;  1.0374956E+03;
  9.6001482E-01;  9.9999998E-03; -1.4000413E-01;2525;  1.9856067E-02;  0.0000000E+00; -8.2138255E-03;  1.0044843E+03;  4.0183148E-01;  3.7008979E+03;3;  1.7216476E+01;  0.0000000E+00; -1.0852658E+01;0;  1.2212862E-01;  9.9998896E+03;  0.0000000E+00; -8.7417101E-10;  1.0000000E+04;  0.0000000E+00;  9.9982314E+03;  6.5014614E-03;  0.0000000E+00;  1.1562716E-01;  6.6522668E+02;
  9.6001446E-01;  9.9999998E-03; -1.2000296E-01;2526;  1.9180221E-02;  0.0000000E+00; -5.9958980E-03;  1.0045136E+03;  4.0183139E-01;  3.7251003E+03;3;  1.6353235E+01;  0.0000000E+00; -8.1226664E+00;0;  9.2498563E-02;  9.9999189E+03;  0.0000000E+00; -1.7328954E-08;  1.0000000E+04;  0.0000000E+00;  9.9987910E+03;  4.5297961E-03;  0.0000000E+00;  8.7968767E-02;  4.4054031E+02;
  9.6001422E-01;  9.9999998E-03; -1.0000199E-01;2527;  1.8684495E-02;  0.0000000E+00; -4.1253408E-03;  1.0045314E+03;  4.0183145E-01;  3.7397595E+03;3;  1.5710797E+01;  0.0000000E+00; -5.7563944E+00;0;  7.1878359E-02;  9.9999375E+03;  0.0000000E+00; -2.6343763E-08;  1.0000000E+04;  0.0000000E+00;  9.9991240E+03;  3.3111856E-03;  0.0000000E+00;  6.8567172E-02;  3.1038821E+02;
  9.6001405E-01;  9.9999998E-03; -8.0001272E-02;2528;  1.8331936E-02;  0.0000000E+00; -2.6962203E-03;  1.0045428E+03;  4.0183139E-01;  3.7492051E+03;3;  1.5252666E+01;  0.0000000E+00; -3.8894460E+00;0;  5.6483228E-02;  9.9999463E+03;  0.0000000E+00; -1.4955605E-08;  1.0000000E+04;  0.0000000E+00;  9.9993408E+03;  2.5739816E-03;  0.0000000E+00;  5.3909246E-02;  2.2944998E+02;
  9.6001393E-01;  9.9999998E-03; -6.0000774E-02;2529;  1.8088941E-02;  0.0000000E+00; -1.6835076E-03;  1.0045509E+03;  4.0183139E-01;  3.7558950E+03;3;  1.4927979E+01;  0.0000000E+00; -2.5106034E+00;0;  4.4388272E-02;  9.9999551E+03;  0.0000000E+00; -2.7220770E-09;  1.0000000E+04;  0.0000000E+00;  9.9994961E+03;  2.1393704E-03;  0.0000000E+00;  4.2248901E-02;  1.7308510E+02;
  9.6001387E-01;  9.9999998E-03; -4.0000435E-02;2530;  1.7935487E-02;  0.0000000E+00; -9.7928138E-04;  1.0045568E+03;  4.0183145E-01;  3.7607158E+03;3;  1.4712219E+01;  0.0000000E+00; -1.5054172E+00;0;  3.5294913E-02;  9.9999580E+03;  0.0000000E+00;  1.4772669E-09;  1.0000000E+04;  0.0000000E+00;  9.9996123E+03;  1.8962637E-03;  0.0000000E+00;  3.3398651E-02;  1.3283446E+02;
  9.6001381E-01;  9.9999998E-03; -2.0000195E-02;2531;  1.7854083E-02;  0.0000000E+00; -4.5360945E-04;  1.0045605E+03;  4.0183139E-01;  3.7637659E+03;3;  1.4608657E+01;  0.0000000E+00; -7.2632575E-01;0;  2.9578462E-02;  9.9999590E+03;  0.0000000E+00;  6.6745193E-10;  1.0000000E+04;  0.0000000E+00;  9.9996816E+03;  1.7760937E-03;  0.0000000E+00;  2.7802369E-02;  1.0790390E+02;
  9.8001558E-01;  9.9999998E-03; -1.8000625E-01;2554;  2.1371355E-02;  0.0000000E+00; -1.1860784E-02;  1.0038871E+03;  4.0162471E-01;  3.2037178E+03;3;  1.9264324E+01;  0.0000000E+00; -1.4834615E+01;0;  1.8122463E-01;  1.0000084E+04;  0.0000000E+00; -3.8550152E-07;  1.0000000E+04;  0.0000000E+00;  9.9964385E+03; -4.2778165E-03;  0.0000000E+00;  1.8550244E-01;  1.3933613E+03;
  9.8001492E-01;  9.9999998E-03; -1.6000490E-01;2555;  2.0197010E-02;  0.0000000E+00; -9.5748268E-03;  1.0039484E+03;  4.0162468E-01;  3.2542197E+03;3;  1.7868292E+01;  0.0000000E+00; -1.2349103E+01;0;  1.3117339E-01;  1.0000161E+04;  0.0000000E+00; -4.1438295E-08;  1.0000000E+04;  0.0000000E+00;  9.9975850E+03; -8.8428762E-03;  0.0000000E+00;  1.4001626E-01;  9.2312036E+02;
  9.8001444E-01;  9.9999998E-03; -1.4000376E-01;2556;  1.9305054E-02;  0.0000000E+00; -7.4512917E-03;  1.0039915E+03;  4.0162471E-01;  3.2897871E+03;3;  1.6768818E+01;  0.0000000E+00; -9.8161850E+00;0;  9.2925318E-02;  1.0000205E+04;  0.0000000E+00; -1.0124742E-08;  1.0000000E+04;  0.0000000E+00;  9.9983994E+03; -1.1547876E-02;  0.0000000E+00;  1.0447320E-01;  5.9330865E+02;
  9.8001409E-01;  9.9999998E-03; -1.2000271E-01;2557;  1.8632591E-02;  0.0000000E+00; -5.4567903E-03;  1.0040179E+03;  4.0162468E-01;  3.3115010E+03;3;  1.5929870E+01;  0.0000000E+00; -7.3548970E+00;0;  6.6584684E-02;  1.0000229E+04;  0.0000000E+00; -4.2530470E-08;  1.0000000E+04;  0.0000000E+00;  9.9989033E+03; -1.3018566E-02;  0.0000000E+00;  7.9603247E-02;  3.9438754E+02;
  9.8001379E-01;  9.9999998E-03; -1.0000184E-01;2558;  1.8146759E-02;  0.0000000E+00; -3.7790667E-03;  1.0040336E+03;  4.0162459E-01;  3.3244702E+03;3;  1.5282008E+01;  0.0000000E+00; -5.2285981E+00;0;  4.8471425E-02;  1.0000241E+04;  0.0000000E+00; -3.8908762E-08;  1.0000000E+04;  0.0000000E+00;  9.9992021E+03; -1.3757829E-02;  0.0000000E+00;  6.2229253E-02;  2.7941040E+02;
  9.8001367E-01;  9.9999998E-03; -8.0001190E-02;2559;  1.7819250E-02;  0.0000000E+00; -2.4939240E-03;  1.0040437E+03;  4.0162462E-01;  3.3328220E+03;3;  1.4854679E+01;  0.0000000E+00; -3.5487292E+00;0;  3.5070993E-02;  1.0000249E+04;  0.0000000E+00; -1.7400584E-08;  1.0000000E+04;  0.0000000E+00;  9.9993965E+03; -1.4093237E-02;  0.0000000E+00;  4.9164228E-02;  2.0819464E+02;
  9.8001355E-01;  9.9999998E-03; -6.0000736E-02;2560;  1.7600870E-02;  0.0000000E+00; -1.5788483E-03;  1.0040508E+03;  4.0162456E-01;  3.3387170E+03;3;  1.4557075E+01;  0.0000000E+00; -2.3160715E+00;0;  2.4594482E-02;  1.0000250E+04;  0.0000000E+00; -3.6048544E-09;  1.0000000E+04;  0.0000000E+00;  9.9995361E+03; -1.4218986E-02;  0.0000000E+00;  3.8813468E-02;  1.5882237E+02;
  9.8001349E-01;  9.9999998E-03; -4.0000424E-02;2561;  1.7467149E-02;  0.0000000E+00; -9.3137845E-04;  1.0040559E+03;  4.0162459E-01;  3.3428438E+03;3;  1.4370758E+01;  0.0000000E+00; -1.4158705E+00;0;  1.6735043E-02;  1.0000251E+04;  0.0000000E+00;  2.2889544E-09;  1.0000000E+04;  0.0000000E+00;  9.9996367E+03; -1.4245746E-02;  0.0000000E+00;  3.0980790E-02;  1.2369214E+02;
  9.8001343E-01;  9.9999998E-03; -2.0000191E-02;2562;  1.7391581E-02;  0.0000000E+00; -4.2908304E-04;  1.0040591E+03;  4.0162462E-01;  3.3454966E+03;3;  1.4246388E+01;  0.0000000E+00; -6.6212648E-01;0;  1.1800142E-02;  1.0000252E+04;  0.0000000E+00;  1.0147891E-09;  1.0000000E+04;  0.0000000E+00;  9.9996992E+03; -1.4237817E-02;  0.0000000E+00;  2.6037959E-02;  1.0198918E+02;
  1.0000150E+00;  9.9999998E-03; -1.8000564E-01;2585;  2.0649338E-02;  0.0000000E+00; -1.0640033E-02;  1.0034199E+03;  4.0142637E-01;  2.8136179E+03;3;  1.8682714E+01;  0.0000000E+00; -1.3258389E+01;0;  1.5033510E-01;  1.0000300E+04;  0.0000000E+00;  3.4102609E-06;  1.0000000E+04;  0.0000000E+00;  9.9967910E+03; -1.6579553E-02;  0.0000000E+00;  1.6691466E-01;  1.2265742E+03;
  1.0000143E+00;  9.9999998E-03; -1.6000445E-01;2586;  1.9508498E-02;  0.0000000E+00; -8.6130975E-03;  1.0034755E+03;  4.0142640E-01;  2.8594197E+03;3;  1.7293905E+01;  0.0000000E+00; -1.1059905E+01;0;  1.0467105E-01;  1.0000380E+04;  0.0000000E+00;  2.9773339E-08;  1.0000000E+04;  0.0000000E+00;  9.9978193E+03; -2.1280397E-02;  0.0000000E+00;  1.2595144E-01;  8.1490381E+02;
  1.0000138E+00;  9.9999998E-03; -1.4000341E-01;2587;  1.8622123E-02;  0.0000000E+00; -6.7198048E-03;  1.0035146E+03;  4.0142629E-01;  2.8915889E+03;3;  1.6214760E+01;  0.0000000E+00; -8.8030853E+00;0;  7.0123509E-02;  1.0000427E+04;  0.0000000E+00; -7.0492732E-08;  1.0000000E+04;  0.0000000E+00;  9.9985537E+03; -2.3845991E-02;  0.0000000E+00;  9.3969502E-02;  5.2539063E+02;
  1.0000135E+00;  9.9999998E-03; -1.2000248E-01;2588;  1.7963631E-02;  0.0000000E+00; -4.9492260E-03;  1.0035385E+03;  4.0142632E-01;  2.9112043E+03;3;  1.5397151E+01;  0.0000000E+00; -6.6121244E+00;0;  4.6596646E-02;  1.0000450E+04;  0.0000000E+00; -9.4259249E-08;  1.0000000E+04;  0.0000000E+00;  9.9990078E+03; -2.5045579E-02;  0.0000000E+00;  7.1642227E-02;  3.5042365E+02;
  1.0000132E+00;  9.9999998E-03; -1.0000171E-01;2589;  1.7496485E-02;  0.0000000E+00; -3.4613947E-03;  1.0035525E+03;  4.0142637E-01;  2.9226792E+03;3;  1.4799626E+01;  0.0000000E+00; -4.7188277E+00;0;  3.0634252E-02;  1.0000459E+04;  0.0000000E+00; -5.6660976E-08;  1.0000000E+04;  0.0000000E+00;  9.9992773E+03; -2.5500873E-02;  0.0000000E+00;  5.6135125E-02;  2.4943668E+02;
  1.0000131E+00;  9.9999998E-03; -8.0001131E-02;2590;  1.7181419E-02;  0.0000000E+00; -2.3258277E-03;  1.0035614E+03;  4.0142637E-01;  2.9300352E+03;3;  1.4381928E+01;  0.0000000E+00; -3.2507482E+00;0;  1.8980572E-02;  1.0000462E+04;  0.0000000E+00; -2.0797010E-08;  1.0000000E+04;  0.0000000E+00;  9.9994492E+03; -2.5595753E-02;  0.0000000E+00;  4.4576325E-02;  1.8730476E+02;
  1.0000130E+00;  9.9999998E-03; -6.0000710E-02;2591;  1.6981503E-02;  0.0000000E+00; -1.4999243E-03;  1.0035677E+03;  4.0142635E-01;  2.9352332E+03;3;  1.4085296E+01;  0.0000000E+00; -2.1623960E+00;0;  9.9503789E-03;  1.0000463E+04;  0.0000000E+00; -1.7047398E-09;  1.0000000E+04;  0.0000000E+00;  9.9995713E+03; -2.5540864E-02;  0.0000000E+00;  3.5491243E-02;  1.4461276E+02;
  1.0000130E+00;  9.9999998E-03; -4.0000416E-02;2592;  1.6866958E-02;  0.0000000E+00; -8.8908238E-04;  1.0035721E+03;  4.0142637E-01;  2.9388621E+03;3;  1.3919424E+01;  0.0000000E+00; -1.3100911E+00;0;  3.2050069E-03;  1.0000464E+04;  0.0000000E+00;  2.6236837E-09;  1.0000000E+04;  0.0000000E+00;  9.9996602E+03; -2.5445493E-02;  0.0000000E+00;  2.8650500E-02;  1.1444305E+02;
  1.0000130E+00;  9.9999998E-03; -2.0000193E-02;2593;  1.6805571E-02;  0.0000000E+00; -4.1465988E-04;  1.0035748E+03;  4.0142640E-01;  2.9411179E+03;3;  1.3816891E+01;  0.0000000E+00; -6.1421812E-01;0; -1.0222495E-03;  1.0000465E+04;  0.0000000E+00;  1.1347565E-09;  1.0000000E+04;  0.0000000E+00;  9.9997158E+03; -2.5367886E-02;  0.0000000E+00;  2.4345636E-02;  9.5881866E+01;
  1.0200144E+00;  9.9999998E-03; -1.8000509E-01;2616;  1.9864116E-02;  0.0000000E+00; -9.4959242E-03;  1.0029811E+03;  4.0124205E-01;  2.4468062E+03;3;  1.8073656E+01;  0.0000000E+00; -1.1750626E+01;0;  1.2679374E-01;  1.0000424E+04;  0.0000000E+00; -8.0786151E-05;  1.0000000E+04;  0.0000000E+00;  9.9971035E+03; -2.3559980E-02;  0.0000000E+00;  1.5035373E-01;  1.0735948E+03;
  1.0200137E+00;  9.9999998E-03; -1.6000403E-01;2617;  1.8715099E-02;  0.0000000E+00; -7.7175577E-03;  1.0030318E+03;  4.0124202E-01;  2.4883889E+03;3;  1.6694429E+01;  0.0000000E+00; -9.8152037E+00;0;  8.4975325E-02;  1.0000514E+04;  0.0000000E+00; -3.1777647E-06;  1.0000000E+04;  0.0000000E+00;  9.9980254E+03; -2.8512159E-02;  0.0000000E+00;  1.1348748E-01;  7.1724323E+02;
  1.0200132E+00;  9.9999998E-03; -1.4000310E-01;2618;  1.7820174E-02;  0.0000000E+00; -6.0425685E-03;  1.0030674E+03;  4.0124199E-01;  2.5176436E+03;3;  1.5600660E+01;  0.0000000E+00; -7.8437657E+00;0;  5.3353637E-02;  1.0000564E+04;  0.0000000E+00; -2.5769071E-07;  1.0000000E+04;  0.0000000E+00;  9.9986865E+03; -3.1243853E-02;  0.0000000E+00;  8.4597491E-02;  4.6444089E+02;
  1.0200129E+00;  9.9999998E-03; -1.2000228E-01;2619;  1.7169835E-02;  0.0000000E+00; -4.4946545E-03;  1.0030894E+03;  4.0124199E-01;  2.5355483E+03;3;  1.4784877E+01;  0.0000000E+00; -5.9388051E+00;0;  3.1938933E-02;  1.0000589E+04;  0.0000000E+00; -1.8943680E-07;  1.0000000E+04;  0.0000000E+00;  9.9990967E+03; -3.2472417E-02;  0.0000000E+00;  6.4411350E-02;  3.1050467E+02;
  1.0200126E+00;  9.9999998E-03; -1.0000160E-01;2620;  1.6717581E-02;  0.0000000E+00; -3.1917014E-03;  1.0031022E+03;  4.0124196E-01;  2.5461155E+03;3;  1.4198433E+01;  0.0000000E+00; -4.2990937E+00;0;  1.7593060E-02;  1.0000601E+04;  0.0000000E+00; -8.6560284E-08;  1.0000000E+04;  0.0000000E+00;  9.9993438E+03; -3.2896567E-02;  0.0000000E+00;  5.0489627E-02;  2.2154860E+02;
  1.0200125E+00;  9.9999998E-03; -8.0001071E-02;2621;  1.6426044E-02;  0.0000000E+00; -2.1791735E-03;  1.0031102E+03;  4.0124202E-01;  2.5526707E+03;3;  1.3801566E+01;  0.0000000E+00; -2.9985192E+00;0;  7.3151924E-03;  1.0000606E+04;  0.0000000E+00; -2.2507557E-08;  1.0000000E+04;  0.0000000E+00;  9.9994990E+03; -3.2950725E-02;  0.0000000E+00;  4.0265918E-02;  1.6736243E+02;
  1.0200124E+00;  9.9999998E-03; -6.0000688E-02;2622;  1.6249949E-02;  0.0000000E+00; -1.4257224E-03;  1.0031157E+03;  4.0124199E-01;  2.5572693E+03;3;  1.3563950E+01;  0.0000000E+00; -2.0177932E+00;0; -5.1873922E-04;  1.0000607E+04;  0.0000000E+00;  1.3734386E-09;  1.0000000E+04;  0.0000000E+00;  9.9996055E+03; -3.2866448E-02;  0.0000000E+00;  3.2347709E-02;  1.3073839E+02;
  1.0200124E+00;  9.9999998E-03; -4.0000409E-02;2623;  1.6144857E-02;  0.0000000E+00; -8.5516786E-04;  1.0031196E+03;  4.0124199E-01;  2.5604001E+03;3;  1.3396569E+01;  0.0000000E+00; -1.2274923E+00;0; -6.3152947E-03;  1.0000606E+04;  0.0000000E+00;  4.2139141E-09;  1.0000000E+04;  0.0000000E+00;  9.9996836E+03; -3.2756444E-02;  0.0000000E+00;  2.6441149E-02;  1.0519944E+02;
  1.0200124E+00;  9.9999998E-03; -2.0000191E-02;2624;  1.6093504E-02;  0.0000000E+00; -4.0199750E-04;  1.0031219E+03;  4.0124199E-01;  2.5623569E+03;3;  1.3314748E+01;  0.0000000E+00; -5.8110726E-01;0; -9.9324323E-03;  1.0000606E+04;  0.0000000E+00;  1.5063992E-09;  1.0000000E+04;  0.0000000E+00;  9.9997305E+03; -3.2674301E-02;  0.0000000E+00;  2.2741869E-02;  8.9604401E+01;
  1.0400137E+00;  9.9999998E-03; -1.8000463E-01;2647;  1.8995706E-02;  0.0000000E+00; -8.5034482E-03;  1.0025803E+03;  4.0107539E-01;  2.1109639E+03;3;  1.7426052E+01;  0.0000000E+00; -1.0391098E+01;0;  1.0978259E-01;  1.0000479E+04;  0.0000000E+00; -7.1894849E-04;  1.0000000E+04;  0.0000000E+00;  9.9973682E+03; -2.6606645E-02;  0.0000000E+00;  1.3638924E-01;  9.3772839E+02;
  1.0400130E+00;  9.9999998E-03; -1.6000365E-01;2648;  1.7807465E-02;  0.0000000E+00; -6.8829022E-03;  1.0026263E+03;  4.0107533E-01;  2.1486094E+03;3;  1.6001854E+01;  0.0000000E+00; -8.6659384E+00;0;  7.1454495E-02;  1.0000574E+04;  0.0000000E+00; -6.6688735E-05;  1.0000000E+04;  0.0000000E+00;  9.9981904E+03; -3.1680997E-02;  0.0000000E+00;  1.0313549E-01;  6.3286865E+02;
  1.0400125E+00;  9.9999998E-03; -1.4000283E-01;2649;  1.6932538E-02;  0.0000000E+00; -5.4289163E-03;  1.0026594E+03;  4.0107524E-01;  2.1757219E+03;3;  1.4928845E+01;  0.0000000E+00; -6.9749551E+00;0;  4.1961808E-02;  1.0000636E+04;  0.0000000E+00; -6.2027999E-07;  1.0000000E+04;  0.0000000E+00;  9.9987930E+03; -3.4809705E-02;  0.0000000E+00;  7.6771513E-02;  4.1264609E+02;
  1.0400121E+00;  9.9999998E-03; -1.2000210E-01;2650;  1.6281325E-02;  0.0000000E+00; -4.0853852E-03;  1.0026802E+03;  4.0107530E-01;  2.1926919E+03;3;  1.4109096E+01;  0.0000000E+00; -5.3381071E+00;0;  2.1830145E-02;  1.0000668E+04;  0.0000000E+00; -3.6150533E-07;  1.0000000E+04;  0.0000000E+00;  9.9991719E+03; -3.6374446E-02;  0.0000000E+00;  5.8204591E-02;  2.7615268E+02;
  1.0400119E+00;  9.9999998E-03; -1.0000149E-01;2651;  1.5840998E-02;  0.0000000E+00; -2.9430478E-03;  1.0026924E+03;  4.0107527E-01;  2.2027371E+03;3;  1.3538352E+01;  0.0000000E+00; -3.9154677E+00;0;  8.4480643E-03;  1.0000685E+04;  0.0000000E+00; -1.3518272E-07;  1.0000000E+04;  0.0000000E+00;  9.9994004E+03; -3.7029482E-02;  0.0000000E+00;  4.5477547E-02;  1.9670872E+02;
  1.0400118E+00;  9.9999998E-03; -8.0001019E-02;2652;  1.5565914E-02;  0.0000000E+00; -2.0461355E-03;  1.0027000E+03;  4.0107527E-01;  2.2088816E+03;3;  1.3183714E+01;  0.0000000E+00; -2.7936897E+00;0; -9.0751424E-04;  1.0000692E+04;  0.0000000E+00; -2.6812470E-08;  1.0000000E+04;  0.0000000E+00;  9.9995420E+03; -3.7240867E-02;  0.0000000E+00;  3.6333352E-02;  1.4890146E+02;
  1.0400118E+00;  9.9999998E-03; -6.0000665E-02;2653;  1.5395818E-02;  0.0000000E+00; -1.3510280E-03;  1.0027050E+03;  4.0107530E-01;  2.2129775E+03;3;  1.2943585E+01;  0.0000000E+00; -1.8726993E+00;0; -7.8399219E-03;  1.0000695E+04;  0.0000000E+00;  5.5548379E-09;  1.0000000E+04;  0.0000000E+00;  9.9996387E+03; -3.7267543E-02;  0.0000000E+00;  2.9427622E-02;  1.1744422E+02;
  1.0400116E+00;  9.9999998E-03; -4.0000401E-02;2654;  1.5299827E-02;  0.0000000E+00; -8.1896962E-04;  1.0027084E+03;  4.0107527E-01;  2.2157085E+03;3;  1.2796158E+01;  0.0000000E+00; -1.1431777E+00;0; -1.2870945E-02;  1.0000697E+04;  0.0000000E+00;  7.4946209E-09;  1.0000000E+04;  0.0000000E+00;  9.9997070E+03; -3.7236679E-02;  0.0000000E+00;  2.4365734E-02;  9.6034805E+01;
  1.0400116E+00;  9.9999998E-03; -2.0000188E-02;2655;  1.5252335E-02;  0.0000000E+00; -3.8759306E-04;  1.0027104E+03;  4.0107527E-01;  2.2174639E+03;3;  1.2726661E+01;  0.0000000E+00; -5.4246032E-01;0; -1.5979763E-02;  1.0000698E+04;  0.0000000E+00;  2.1736557E-09;  1.0000000E+04;  0.0000000E+00;  9.9997461E+03; -3.7204232E-02;  0.0000000E+00;  2.1224469E-02;  8.3145149E+01;
  1.0600129E+00;  9.9999998E-03; -1.8000424E-01;2678;  1.8058183E-02;  0.0000000E+00; -7.6414915E-03;  1.0022242E+03;  4.0092853E-01;  1.8118566E+03;3;  1.6716677E+01;  0.0000000E+00; -9.1916008E+00;0;  9.8304741E-02;  1.0000482E+04;  0.0000000E+00; -2.9535100E-03;  1.0000000E+04;  0.0000000E+00;  9.9975811E+03; -2.6913201E-02;  0.0000000E+00;  1.2521794E-01;  8.1922748E+02;
  1.0600122E+00;  9.9999998E-03; -1.6000329E-01;2679;  1.6858714E-02;  0.0000000E+00; -6.1314628E-03;  1.0022658E+03;  4.0092853E-01;  1.8457479E+03;3;  1.5288047E+01;  0.0000000E+00; -7.6488857E+00;0;  6.3450590E-02;  1.0000577E+04;  0.0000000E+00; -4.4052841E-04;  1.0000000E+04;  0.0000000E+00;  9.9983145E+03; -3.1719185E-02;  0.0000000E+00;  9.5169775E-02;  5.6215186E+02;
  1.0600117E+00;  9.9999998E-03; -1.4000256E-01;2680;  1.5974922E-02;  0.0000000E+00; -4.8697619E-03;  1.0022969E+03;  4.0092853E-01;  1.8710934E+03;3;  1.4195898E+01;  0.0000000E+00; -6.1990628E+00;0;  3.5489351E-02;  1.0000650E+04;  0.0000000E+00; -7.6497099E-06;  1.0000000E+04;  0.0000000E+00;  9.9988652E+03; -3.5309628E-02;  0.0000000E+00;  7.0798978E-02;  3.7094196E+02;
  1.0600114E+00;  9.9999998E-03; -1.2000193E-01;2681;  1.5325462E-02;  0.0000000E+00; -3.7030743E-03;  1.0023173E+03;  4.0092850E-01;  1.8876992E+03;3;  1.3386576E+01;  0.0000000E+00; -4.7947583E+00;0;  1.5788317E-02;  1.0000695E+04;  0.0000000E+00; -6.5569884E-07;  1.0000000E+04;  0.0000000E+00;  9.9992266E+03; -3.7489798E-02;  0.0000000E+00;  5.3278115E-02;  2.4834282E+02;
  1.0600111E+00;  9.9999998E-03; -1.0000139E-01;2682;  1.4896305E-02;  0.0000000E+00; -2.7181185E-03;  1.0023297E+03;  4.0092853E-01;  1.8977988E+03;3;  1.2850762E+01;  0.0000000E+00; -3.5911131E+00;0;  2.6455894E-03;  1.0000719E+04;  0.0000000E+00; -2.2813185E-07;  1.0000000E+04;  0.0000000E+00;  9.9994453E+03; -3.8631640E-02;  0.0000000E+00;  4.1277230E-02;  1.7571916E+02;
  1.0600110E+00;  9.9999998E-03; -8.0000967E-02;2683;  1.4622113E-02;  0.0000000E+00; -1.9122858E-03;  1.0023370E+03;  4.0092856E-01;  1.9037224E+03;3;  1.2505591E+01;  0.0000000E+00; -2.5742192E+00;0; -6.3094310E-03;  1.0000735E+04;  0.0000000E+00; -4.1882288E-08;  1.0000000E+04;  0.0000000E+00;  9.9995801E+03; -3.9187778E-02;  0.0000000E+00;  3.2878347E-02;  1.3244371E+02;
  1.0600109E+00;  9.9999998E-03; -6.0000639E-02;2684;  1.4455004E-02;  0.0000000E+00; -1.2798612E-03;  1.0023418E+03;  4.0092853E-01;  1.9076068E+03;3;  1.2279437E+01;  0.0000000E+00; -1.7409663E+00;0; -1.2676913E-02;  1.0000742E+04;  0.0000000E+00;  8.5904954E-09;  1.0000000E+04;  0.0000000E+00;  9.9996670E+03; -3.9447717E-02;  0.0000000E+00;  2.6770804E-02;  1.0498269E+02;
  1.0600109E+00;  9.9999998E-03; -4.0000390E-02;2685;  1.4362641E-02;  0.0000000E+00; -7.8479509E-04;  1.0023450E+03;  4.0092853E-01;  1.9102289E+03;3;  1.2149727E+01;  0.0000000E+00; -1.0749226E+00;0; -1.7142484E-02;  1.0000748E+04;  0.0000000E+00;  1.0969181E-08;  1.0000000E+04;  0.0000000E+00;  9.9997266E+03; -3.9569534E-02;  0.0000000E+00;  2.2427050E-02;  8.7009178E+01;
  1.0600108E+00;  9.9999998E-03; -2.0000184E-02;2686;  1.4315072E-02;  0.0000000E+00; -3.7474942E-04;  1.0023468E+03;  4.0092847E-01;  1.9116855E+03;3;  1.2088240E+01;  0.0000000E+00; -5.2038735E-01;0; -1.9848045E-02;  1.0000748E+04;  0.0000000E+00;  3.0686191E-09;  1.0000000E+04;  0.0000000E+00;  9.9997598E+03; -3.9625518E-02;  0.0000000E+00;  1.9777473E-02;  7.6460052E+01;
  1.0800122E+00;  9.9999998E-03; -1.8000393E-01;2709;  1.7143233E-02;  0.0000000E+00; -6.8998104E-03;  1.0019156E+03;  4.0080246E-01;  1.5515637E+03;3;  1.6035936E+01;  0.0000000E+00; -8.1213341E+00;0;  9.1409370E-02;  1.0000447E+04;  0.0000000E+00; -8.4662903E-03;  1.0000000E+04;  0.0000000E+00;  9.9977432E+03; -2.5227081E-02;  0.0000000E+00;  1.1663645E-01;  7.1590588E+02;
  1.0800115E+00;  9.9999998E-03; -1.6000299E-01;2710;  1.5928196E-02;  0.0000000E+00; -5.4892511E-03;  1.0019523E+03;  4.0080246E-01;  1.5813033E+03;3;  1.4588345E+01;  0.0000000E+00; -6.7586546E+00;0;  6.0374461E-02;  1.0000532E+04;  0.0000000E+00; -1.9122388E-03;  1.0000000E+04;  0.0000000E+00;  9.9983936E+03; -2.9191775E-02;  0.0000000E+00;  8.9566238E-02;  5.0301129E+02;
  1.0800109E+00;  9.9999998E-03; -1.4000231E-01;2711;  1.5006306E-02;  0.0000000E+00; -4.3235556E-03;  1.0019818E+03;  4.0080249E-01;  1.6052496E+03;3;  1.3471045E+01;  0.0000000E+00; -5.4527564E+00;0;  3.3767816E-02;  1.0000610E+04;  0.0000000E+00; -1.3552404E-04;  1.0000000E+04;  0.0000000E+00;  9.9989033E+03; -3.3053797E-02;  0.0000000E+00;  6.6821612E-02;  3.3845404E+02;
  1.0800105E+00;  9.9999998E-03; -1.2000177E-01;2712;  1.4371336E-02;  0.0000000E+00; -3.3513424E-03;  1.0020023E+03;  4.0080249E-01;  1.6218575E+03;3;  1.2678176E+01;  0.0000000E+00; -4.2899790E+00;0;  1.3807729E-02;  1.0000670E+04;  0.0000000E+00; -1.1409804E-06;  1.0000000E+04;  0.0000000E+00;  9.9992549E+03; -3.6038343E-02;  0.0000000E+00;  4.9846072E-02;  2.2727431E+02;
  1.0800103E+00;  9.9999998E-03; -1.0000130E-01;2713;  1.3934733E-02;  0.0000000E+00; -2.4988363E-03;  1.0020153E+03;  4.0080240E-01;  1.6323823E+03;3;  1.2161312E+01;  0.0000000E+00; -3.2588158E+00;0;  1.4588237E-04;  1.0000711E+04;  0.0000000E+00; -4.2675401E-07;  1.0000000E+04;  0.0000000E+00;  9.9994736E+03; -3.7935376E-02;  0.0000000E+00;  3.8081259E-02;  1.5914548E+02;
  1.0800102E+00;  9.9999998E-03; -8.0000922E-02;2714;  1.3654456E-02;  0.0000000E+00; -1.7884180E-03;  1.0020233E+03;  4.0080246E-01;  1.6387551E+03;3;  1.1825777E+01;  0.0000000E+00; -2.3716271E+00;0; -9.0159662E-03;  1.0000734E+04;  0.0000000E+00; -9.7986337E-08;  1.0000000E+04;  0.0000000E+00;  9.9996074E+03; -3.9048608E-02;  0.0000000E+00;  3.0032642E-02;  1.1853853E+02;
  1.0800101E+00;  9.9999998E-03; -6.0000621E-02;2715;  1.3481498E-02;  0.0000000E+00; -1.2148663E-03;  1.0020281E+03;  4.0080243E-01;  1.6427140E+03;3;  1.1606884E+01;  0.0000000E+00; -1.6228379E+00;0; -1.5237225E-02;  1.0000749E+04;  0.0000000E+00; -1.4935003E-10;  1.0000000E+04;  0.0000000E+00;  9.9996904E+03; -3.9679576E-02;  0.0000000E+00;  2.4442350E-02;  9.3699875E+01;
  1.0800101E+00;  9.9999998E-03; -4.0000379E-02;2716;  1.3382746E-02;  0.0000000E+00; -7.5272319E-04;  1.0020313E+03;  4.0080249E-01;  1.6452244E+03;3;  1.1484502E+01;  0.0000000E+00; -1.0100567E+00;0; -1.9390650E-02;  1.0000758E+04;  0.0000000E+00;  1.1729487E-08;  1.0000000E+04;  0.0000000E+00;  9.9997441E+03; -4.0030036E-02;  0.0000000E+00;  2.0639386E-02;  7.8254311E+01;
  1.0800099E+00;  9.9999998E-03; -2.0000180E-02;2717;  1.3331654E-02;  0.0000000E+00; -3.6253556E-04;  1.0020330E+03;  4.0080246E-01;  1.6466729E+03;3;  1.1415928E+01;  0.0000000E+00; -5.0188440E-01;0; -2.1823511E-02;  1.0000762E+04;  0.0000000E+00;  3.9819330E-09;  1.0000000E+04;  0.0000000E+00;  9.9997744E+03; -4.0209871E-02;  0.0000000E+00;  1.8386360E-02;  6.9540749E+01;
  1.1000115E+00;  9.9999998E-03; -1.8000376E-01;2739;  1.6356489E-02;  0.0000000E+00; -6.3482663E-03;  1.0016540E+03;  4.0069664E-01;  1.3296509E+03;3;  1.5467536E+01;  0.0000000E+00; -7.2267022E+00;0;  8.8209577E-02;  1.0000379E+04;  0.0000000E+00; -1.9147292E-02;  1.0000000E+04;  0.0000000E+00;  9.9978730E+03; -2.1899194E-02;  0.0000000E+00;  1.1010877E-01;  6.2505432E+02;
  1.1000108E+00;  9.9999998E-03; -1.6000272E-01;2740;  1.5024677E-02;  0.0000000E+00; -4.8924214E-03;  1.0016855E+03;  4.0069669E-01;  1.3549507E+03;3;  1.3931738E+01;  0.0000000E+00; -5.9131155E+00;0;  6.1577443E-02;  1.0000438E+04;  0.0000000E+00; -6.0671913E-03;  1.0000000E+04;  0.0000000E+00;  9.9984414E+03; -2.4394941E-02;  0.0000000E+00;  8.5972384E-02;  4.5169601E+02;
  1.1000102E+00;  9.9999998E-03; -1.4000209E-01;2741;  1.4109645E-02;  0.0000000E+00; -3.8451373E-03;  1.0017129E+03;  4.0069672E-01;  1.3769919E+03;3;  1.2821099E+01;  0.0000000E+00; -4.7808375E+00;0;  3.6651142E-02;  1.0000516E+04;  0.0000000E+00; -9.8678935E-04;  1.0000000E+04;  0.0000000E+00;  9.9989102E+03; -2.8091742E-02;  0.0000000E+00;  6.4742886E-02;  3.1232474E+02;
  1.1000098E+00;  9.9999998E-03; -1.2000161E-01;2742;  1.3452082E-02;  0.0000000E+00; -3.0020154E-03;  1.0017339E+03;  4.0069664E-01;  1.3938584E+03;3;  1.2024837E+01;  0.0000000E+00; -3.7926900E+00;0;  1.6235970E-02;  1.0000592E+04;  0.0000000E+00; -4.6845602E-05;  1.0000000E+04;  0.0000000E+00;  9.9992539E+03; -3.1814888E-02;  0.0000000E+00;  4.8050858E-02;  2.1204195E+02;
  1.1000096E+00;  9.9999998E-03; -1.0000121E-01;2743;  1.3010211E-02;  0.0000000E+00; -2.2867243E-03;  1.0017482E+03;  4.0069661E-01;  1.4053583E+03;3;  1.1512256E+01;  0.0000000E+00; -2.9410329E+00;0;  1.3827160E-03;  1.0000650E+04;  0.0000000E+00; -8.1528520E-07;  1.0000000E+04;  0.0000000E+00;  9.9994814E+03; -3.4716859E-02;  0.0000000E+00;  3.6099575E-02;  1.4709489E+02;
  1.1000093E+00;  9.9999998E-03; -8.0000877E-02;2744;  1.2711680E-02;  0.0000000E+00; -1.6677903E-03;  1.0017573E+03;  4.0069667E-01;  1.4127374E+03;3;  1.1165390E+01;  0.0000000E+00; -2.1656485E+00;0; -8.6762775E-03;  1.0000689E+04;  0.0000000E+00; -2.5405032E-07;  1.0000000E+04;  0.0000000E+00;  9.9996221E+03; -3.6661219E-02;  0.0000000E+00;  2.7984941E-02;  1.0766371E+02;
  1.1000092E+00;  9.9999998E-03; -6.0000598E-02;2745;  1.2525255E-02;  0.0000000E+00; -1.1515653E-03;  1.0017629E+03;  4.0069667E-01;  1.4171456E+03;3;  1.0952946E+01;  0.0000000E+00; -1.5100459E+00;0; -1.5306199E-02;  1.0000716E+04;  0.0000000E+00; -4.7947527E-08;  1.0000000E+04;  0.0000000E+00;  9.9997080E+03; -3.7876274E-02;  0.0000000E+00;  2.2570075E-02;  8.4066650E+01;
  1.1000092E+00;  9.9999998E-03; -4.0000372E-02;2746;  1.2415749E-02;  0.0000000E+00; -7.2174595E-04;  1.0017663E+03;  4.0069672E-01;  1.4199248E+03;3;  1.0822032E+01;  0.0000000E+00; -9.5598775E-01;0; -1.9523224E-02;  1.0000731E+04;  0.0000000E+00; -4.4076262E-12;  1.0000000E+04;  0.0000000E+00;  9.9997598E+03; -3.8590603E-02;  0.0000000E+00;  1.9067379E-02;  7.0082359E+01;
  1.1000092E+00;  9.9999998E-03; -2.0000178E-02;2747;  1.2357956E-02;  0.0000000E+00; -3.4787523E-04;  1.0017680E+03;  4.0069667E-01;  1.4212665E+03;3;  1.0754760E+01;  0.0000000E+00; -4.6963066E-01;0; -2.1890230E-02;  1.0000738E+04;  0.0000000E+00;  1.8166658E-09;  1.0000000E+04;  0.0000000E+00;  9.9997881E+03; -3.8963009E-02;  0.0000000E+00;  1.7072778E-02;  6.2551399E+01;
  1.1200111E+00;  9.9999998E-03; -1.8000378E-01;2768;  1.5761210E-02;  0.0000000E+00; -6.0537225E-03;  1.0014376E+03;  4.0060997E-01;  1.1443271E+03;3;  1.5081791E+01;  0.0000000E+00; -6.5697665E+00;0;  8.7597519E-02;  1.0000279E+04;  0.0000000E+00; -3.6413342E-02;  1.0000000E+04;  0.0000000E+00;  9.9979766E+03; -1.7300662E-02;  0.0000000E+00;  1.0489818E-01;  5.4553540E+02;
  1.1200101E+00;  9.9999998E-03; -1.6000256E-01;2769;  1.4273126E-02;  0.0000000E+00; -4.4432031E-03;  1.0014635E+03;  4.0061006E-01;  1.1649181E+03;3;  1.3403284E+01;  0.0000000E+00; -5.2120252E+00;0;  6.5972246E-02;  1.0000307E+04;  0.0000000E+00; -1.5421837E-02;  1.0000000E+04;  0.0000000E+00;  9.9984668E+03; -1.7767278E-02;  0.0000000E+00;  8.3739527E-02;  4.0476736E+02;
  1.1200095E+00;  9.9999998E-03; -1.4000188E-01;2770;  1.3281509E-02;  0.0000000E+00; -3.4043193E-03;  1.0014882E+03;  4.0061003E-01;  1.1845599E+03;3;  1.2231248E+01;  0.0000000E+00; -4.1629386E+00;0;  4.3547451E-02;  1.0000370E+04;  0.0000000E+00; -4.3044151E-03;  1.0000000E+04;  0.0000000E+00;  9.9988926E+03; -2.0624684E-02;  0.0000000E+00;  6.4172134E-02;  2.8854172E+02;
  1.1200091E+00;  9.9999998E-03; -1.2000145E-01;2771;  1.2618313E-02;  0.0000000E+00; -2.6697232E-03;  1.0015090E+03;  4.0060997E-01;  1.2010703E+03;3;  1.1451630E+01;  0.0000000E+00; -3.3357637E+00;0;  2.3232443E-02;  1.0000453E+04;  0.0000000E+00; -6.7301193E-04;  1.0000000E+04;  0.0000000E+00;  9.9992295E+03; -2.4604218E-02;  0.0000000E+00;  4.7836661E-02;  2.0012044E+02;
  1.1200088E+00;  9.9999998E-03; -1.0000110E-01;2772;  1.2151326E-02;  0.0000000E+00; -2.0628977E-03;  1.0015247E+03;  4.0060997E-01;  1.2135956E+03;3;  1.0917059E+01;  0.0000000E+00; -2.6178019E+00;0;  7.0614386E-03;  1.0000529E+04;  0.0000000E+00; -4.0654671E-05;  1.0000000E+04;  0.0000000E+00;  9.9994658E+03; -2.8457677E-02;  0.0000000E+00;  3.5519116E-02;  1.3885573E+02;
  1.1200086E+00;  9.9999998E-03; -8.0000818E-02;2773;  1.1842768E-02;  0.0000000E+00; -1.5417133E-03;  1.0015354E+03;  4.0061000E-01;  1.2221355E+03;3;  1.0570036E+01;  0.0000000E+00; -1.9788580E+00;0; -4.5010559E-03;  1.0000590E+04;  0.0000000E+00; -5.8771786E-07;  1.0000000E+04;  0.0000000E+00;  9.9996172E+03; -3.1476591E-02;  0.0000000E+00;  2.6975535E-02;  9.9933388E+01;
  1.1200085E+00;  9.9999998E-03; -6.0000576E-02;2774;  1.1637334E-02;  0.0000000E+00; -1.0854319E-03;  1.0015421E+03;  4.0061003E-01;  1.2274492E+03;3;  1.0338824E+01;  0.0000000E+00; -1.4002017E+00;0; -1.2183530E-02;  1.0000631E+04;  0.0000000E+00; -1.8612559E-07;  1.0000000E+04;  0.0000000E+00;  9.9997148E+03; -3.3550054E-02;  0.0000000E+00;  2.1366524E-02;  7.6505295E+01;
  1.1200085E+00;  9.9999998E-03; -4.0000364E-02;2775;  1.1511371E-02;  0.0000000E+00; -6.8899448E-04;  1.0015462E+03;  4.0060997E-01;  1.2306753E+03;3;  1.0196943E+01;  0.0000000E+00; -9.0037525E-01;0; -1.6975369E-02;  1.0000656E+04;  0.0000000E+00; -4.3967002E-08;  1.0000000E+04;  0.0000000E+00;  9.9997695E+03; -3.4844805E-02;  0.0000000E+00;  1.7869435E-02;  6.2951977E+01;
  1.1200083E+00;  9.9999998E-03; -2.0000175E-02;2776;  1.1446281E-02;  0.0000000E+00; -3.3388764E-04;  1.0015483E+03;  4.0061000E-01;  1.2323834E+03;3;  1.0130055E+01;  0.0000000E+00; -4.3869302E-01;0; -1.9592106E-02;  1.0000671E+04;  0.0000000E+00; -6.3785155E-09;  1.0000000E+04;  0.0000000E+00;  9.9997979E+03; -3.5541300E-02;  0.0000000E+00;  1.5949193E-02;  5.5893612E+01;
  1.1400108E+00;  9.9999998E-03; -1.8000408E-01;2796;  1.5442997E-02;  0.0000000E+00; -6.1061932E-03;  1.0012625E+03;  4.0054047E-01;  9.9206964E+02;3;  1.4940972E+01;  0.0000000E+00; -6.1833258E+00;0;  8.8439576E-02;  1.0000163E+04;  0.0000000E+00; -5.9610065E-02;  1.0000000E+04;  0.0000000E+00;  9.9980684E+03; -1.1931579E-02;  0.0000000E+00;  1.0037115E-01;  4.7788458E+02;
  1.1400096E+00;  9.9999998E-03; -1.6000259E-01;2797;  1.3724325E-02;  0.0000000E+00; -4.2272937E-03;  1.0012827E+03;  4.0054041E-01;  1.0079009E+03;3;  1.3047302E+01;  0.0000000E+00; -4.7052732E+00;0;  7.1968228E-02;  1.0000148E+04;  0.0000000E+00; -3.2223266E-02;  1.0000000E+04;  0.0000000E+00;  9.9984873E+03; -1.0084186E-02;  0.0000000E+00;  8.2052417E-02;  3.6177954E+02;
  1.1400089E+00;  9.9999998E-03; -1.4000176E-01;2798;  1.2610382E-02;  0.0000000E+00; -3.0704520E-03;  1.0013037E+03;  4.0054041E-01;  1.0243875E+03;3;  1.1787841E+01;  0.0000000E+00; -3.6634021E+00;0;  5.3088687E-02;  1.0000188E+04;  0.0000000E+00; -1.3159003E-02;  1.0000000E+04;  0.0000000E+00;  9.9988672E+03; -1.1334515E-02;  0.0000000E+00;  6.4423203E-02;  2.6420633E+02;
  1.1400084E+00;  9.9999998E-03; -1.2000129E-01;2799;  1.1875723E-02;  0.0000000E+00; -2.3499436E-03;  1.0013232E+03;  4.0054047E-01;  1.0397499E+03;3;  1.0939939E+01;  0.0000000E+00; -2.8951433E+00;0;  3.4105022E-02;  1.0000260E+04;  0.0000000E+00; -3.8966071E-03;  1.0000000E+04;  0.0000000E+00;  9.9991875E+03; -1.4719110E-02;  0.0000000E+00;  4.8824131E-02;  1.8801164E+02;
  1.1400082E+00;  9.9999998E-03; -1.0000099E-01;2800;  1.1400327E-02;  0.0000000E+00; -1.8331017E-03;  1.0013395E+03;  4.0054038E-01;  1.0525831E+03;3;  1.0402103E+01;  0.0000000E+00; -2.3041275E+00;0;  1.7446868E-02;  1.0000343E+04;  0.0000000E+00; -7.8656437E-04;  1.0000000E+04;  0.0000000E+00;  9.9994287E+03; -1.8882893E-02;  0.0000000E+00;  3.6329761E-02;  1.3230675E+02;
  1.1400080E+00;  9.9999998E-03; -8.0000743E-02;2801;  1.1064190E-02;  0.0000000E+00; -1.3848027E-03;  1.0013517E+03;  4.0054038E-01;  1.0621377E+03;3;  1.0031487E+01;  0.0000000E+00; -1.7623922E+00;0;  4.4782702E-03;  1.0000420E+04;  0.0000000E+00; -9.2843031E-05;  1.0000000E+04;  0.0000000E+00;  9.9995957E+03; -2.2753527E-02;  0.0000000E+00;  2.7231798E-02;  9.4660461E+01;
  1.1400079E+00;  9.9999998E-03; -6.0000531E-02;2802;  1.0847921E-02;  0.0000000E+00; -9.9615438E-04;  1.0013600E+03;  4.0054047E-01;  1.0686012E+03;3;  9.7928286E+00;  0.0000000E+00; -1.2821708E+00;0; -4.6645924E-03;  1.0000478E+04;  0.0000000E+00; -4.2069428E-06;  1.0000000E+04;  0.0000000E+00;  9.9997021E+03; -2.5784289E-02;  0.0000000E+00;  2.1119697E-02;  7.1038597E+01;
  1.1400077E+00;  9.9999998E-03; -4.0000342E-02;2803;  1.0711277E-02;  0.0000000E+00; -6.4063136E-04;  1.0013652E+03;  4.0054044E-01;  1.0727228E+03;3;  9.6435070E+00;  0.0000000E+00; -8.2515287E-01;0; -1.0522028E-02;  1.0000520E+04;  0.0000000E+00; -1.5254386E-07;  1.0000000E+04;  0.0000000E+00;  9.9997666E+03; -2.7840767E-02;  0.0000000E+00;  1.7318739E-02;  5.7186413E+01;
  1.1400077E+00;  9.9999998E-03; -2.0000167E-02;2804;  1.0638695E-02;  0.0000000E+00; -3.1395588E-04;  1.0013680E+03;  4.0054041E-01;  1.0748773E+03;3;  9.5703859E+00;  0.0000000E+00; -4.0370777E-01;0; -1.3738551E-02;  1.0000542E+04;  0.0000000E+00; -3.0655151E-08;  1.0000000E+04;  0.0000000E+00;  9.9998008E+03; -2.8999146E-02;  0.0000000E+00;  1.5260595E-02;  4.9999645E+01;
  1.1600109E+00;  9.9999998E-03; -1.8000475E-01;2823;  1.5571789E-02;  0.0000000E+00; -6.6114366E-03;  1.0011237E+03;  4.0048584E-01;  8.6842615E+02;3;  1.5194837E+01;  0.0000000E+00; -6.1749573E+00;0;  9.0368927E-02;  1.0000036E+04;  0.0000000E+00; -8.4948741E-02;  1.0000000E+04;  0.0000000E+00;  9.9981475E+03; -6.0585323E-03;  0.0000000E+00;  9.6427456E-02;  4.2066684E+02;
  1.1600095E+00;  9.9999998E-03; -1.6000287E-01;2824;  1.3475353E-02;  0.0000000E+00; -4.3596732E-03;  1.0011395E+03;  4.0048587E-01;  8.8068079E+02;3;  1.2960469E+01;  0.0000000E+00; -4.4965949E+00;0;  7.7886589E-02;  9.9999883E+03;  0.0000000E+00; -5.5887774E-02;  1.0000000E+04;  0.0000000E+00;  9.9985146E+03; -2.3444623E-03;  0.0000000E+00;  8.0231048E-02;  3.2458398E+02;
  1.1600085E+00;  9.9999998E-03; -1.4000180E-01;2825;  1.2160819E-02;  0.0000000E+00; -2.9623797E-03;  1.0011562E+03;  4.0048590E-01;  8.9357990E+02;3;  1.1521502E+01;  0.0000000E+00; -3.3417344E+00;0;  6.3341863E-02;  9.9999873E+03;  0.0000000E+00; -3.0117903E-02;  1.0000000E+04;  0.0000000E+00;  9.9988467E+03; -1.3501581E-03;  0.0000000E+00;  6.4692020E-02;  2.4054987E+02;
  1.1600080E+00;  9.9999998E-03; -1.2000121E-01;2826;  1.1303760E-02;  0.0000000E+00; -2.1217419E-03;  1.0011730E+03;  4.0048587E-01;  9.0657086E+02;3;  1.0570072E+01;  0.0000000E+00; -2.5483658E+00;0;  4.7188371E-02;  1.0000031E+04;  0.0000000E+00; -1.3159169E-02;  1.0000000E+04;  0.0000000E+00;  9.9991396E+03; -3.1476768E-03;  0.0000000E+00;  5.0336048E-02;  1.7404929E+02;
  1.1600076E+00;  9.9999998E-03; -1.0000087E-01;2827;  1.0752144E-02;  0.0000000E+00; -1.5958479E-03;  1.0011885E+03;  4.0048578E-01;  9.1854816E+02;3;  9.9668760E+00;  0.0000000E+00; -1.9899266E+00;0;  3.1588044E-02;  1.0000102E+04;  0.0000000E+00; -4.6426933E-03;  1.0000000E+04;  0.0000000E+00;  9.9993770E+03; -6.5663829E-03;  0.0000000E+00;  3.8154427E-02;  1.2468196E+02;
  1.1600074E+00;  9.9999998E-03; -8.0000654E-02;2828;  1.0400553E-02;  0.0000000E+00; -1.2117570E-03;  1.0012009E+03;  4.0048584E-01;  9.2813007E+02;3;  9.5768795E+00;  0.0000000E+00; -1.5423641E+00;0;  1.8323503E-02;  1.0000179E+04;  0.0000000E+00; -1.3010645E-03;  1.0000000E+04;  0.0000000E+00;  9.9995518E+03; -1.0414661E-02;  0.0000000E+00;  2.8738163E-02;  8.9890854E+01;
  1.1600072E+00;  9.9999998E-03; -6.0000461E-02;2829;  1.0162332E-02;  0.0000000E+00; -8.6930860E-04;  1.0012103E+03;  4.0048578E-01;  9.3540851E+02;3;  9.3201761E+00;  0.0000000E+00; -1.1245848E+00;0;  8.2193967E-03;  1.0000244E+04;  0.0000000E+00; -2.6675183E-04;  1.0000000E+04;  0.0000000E+00;  9.9996729E+03; -1.3857350E-02;  0.0000000E+00;  2.2076746E-02;  6.6828232E+01;
  1.1600071E+00;  9.9999998E-03; -4.0000301E-02;2830;  1.0018313E-02;  0.0000000E+00; -5.6618225E-04;  1.0012166E+03;  4.0048584E-01;  9.4029150E+02;3;  9.1684370E+00;  0.0000000E+00; -7.3764348E-01;0;  1.3050195E-03;  1.0000296E+04;  0.0000000E+00; -3.5921399E-05;  1.0000000E+04;  0.0000000E+00;  9.9997471E+03; -1.6462378E-02;  0.0000000E+00;  1.7767398E-02;  5.2604786E+01;
  1.1600071E+00;  9.9999998E-03; -2.0000147E-02;2831;  9.9384710E-03;  0.0000000E+00; -2.7709536E-04;  1.0012202E+03;  4.0048584E-01;  9.4305554E+02;3;  9.0856628E+00;  0.0000000E+00; -3.5916588E-01;0; -2.6668990E-03;  1.0000326E+04;  0.0000000E+00; -1.4479911E-06;  1.0000000E+04;  0.0000000E+00;  9.9997871E+03; -1.8048471E-02;  0.0000000E+00;  1.5381572E-02;  4.4986370E+01;
  1.1800117E+00;  9.9999998E-03; -1.8000582E-01;2849;  1.6491471E-02;  0.0000000E+00; -7.6839570E-03;  1.0010130E+03;  4.0044388E-01;  7.6665302E+02;3;  1.6158628E+01;  0.0000000E+00; -6.7273831E+00;0;  9.6085340E-02;  9.9998672E+03;  0.0000000E+00; -1.0788180E-01;  1.0000000E+04;  0.0000000E+00;  9.9982021E+03;  1.9488025E-03;  0.0000000E+00;  9.4136536E-02;  3.6973026E+02;
  1.1800097E+00;  9.9999998E-03; -1.6000360E-01;2850;  1.3799215E-02;  0.0000000E+00; -5.0420403E-03;  1.0010282E+03;  4.0044385E-01;  7.7811218E+02;3;  1.3328782E+01;  0.0000000E+00; -4.7400150E+00;0;  8.3442032E-02;  9.9998301E+03;  0.0000000E+00; -8.1623219E-02;  1.0000000E+04;  0.0000000E+00;  9.9985430E+03;  5.0139320E-03;  0.0000000E+00;  7.8428097E-02;  2.9212741E+02;
  1.1800085E+00;  9.9999998E-03; -1.4000216E-01;2851;  1.2046958E-02;  0.0000000E+00; -3.2369124E-03;  1.0010413E+03;  4.0044388E-01;  7.8803711E+02;3;  1.1524064E+01;  0.0000000E+00; -3.3132949E+00;0;  7.2417371E-02;  9.9997959E+03;  0.0000000E+00; -5.3922549E-02;  1.0000000E+04;  0.0000000E+00;  9.9988389E+03;  7.9661887E-03;  0.0000000E+00;  6.4451180E-02;  2.2068402E+02;
  1.1800077E+00;  9.9999998E-03; -1.2000132E-01;2852;  1.0967135E-02;  0.0000000E+00; -2.1370591E-03;  1.0010545E+03;  4.0044388E-01;  7.9805188E+02;3;  1.0387140E+01;  0.0000000E+00; -2.3858078E+00;0;  6.0265284E-02;  9.9997969E+03;  0.0000000E+00; -3.0592956E-02;  1.0000000E+04;  0.0000000E+00;  9.9990996E+03;  8.6237518E-03;  0.0000000E+00;  5.1641531E-02;  1.6093994E+02;
  1.1800072E+00;  9.9999998E-03; -1.0000086E-01;2853;  1.0281743E-02;  0.0000000E+00; -1.4754976E-03;  1.0010674E+03;  4.0044382E-01;  8.0779572E+02;3;  9.6719141E+00;  0.0000000E+00; -1.7625656E+00;0;  4.7461979E-02;  9.9998340E+03;  0.0000000E+00; -1.4829008E-02;  1.0000000E+04;  0.0000000E+00;  9.9993213E+03;  7.1086157E-03;  0.0000000E+00;  4.0353362E-02;  1.1579141E+02;
  1.1800069E+00;  9.9999998E-03; -8.0000579E-02;2854;  9.8528164E-03;  0.0000000E+00; -1.0492742E-03;  1.0010787E+03;  4.0044388E-01;  8.1636652E+02;3;  9.2171049E+00;  0.0000000E+00; -1.3199821E+00;0;  3.5558477E-02;  9.9998887E+03;  0.0000000E+00; -6.0804058E-03;  1.0000000E+04;  0.0000000E+00;  9.9994961E+03;  4.4304812E-03;  0.0000000E+00;  3.1127997E-02;  8.3868217E+01;
  1.1800067E+00;  9.9999998E-03; -6.0000390E-02;2855;  9.5801959E-03;  0.0000000E+00; -7.3450780E-04;  1.0010879E+03;  4.0044385E-01;  8.2331329E+02;3;  8.9341459E+00;  0.0000000E+00; -9.5408708E-01;0;  2.5729550E-02;  9.9999443E+03;  0.0000000E+00; -2.0193306E-03;  1.0000000E+04;  0.0000000E+00;  9.9996221E+03;  1.5336896E-03;  0.0000000E+00;  2.4195861E-02;  6.2252079E+01;
  1.1800066E+00;  9.9999998E-03; -4.0000245E-02;2856;  9.4253868E-03;  0.0000000E+00; -4.7487818E-04;  1.0010945E+03;  4.0044385E-01;  8.2827533E+02;3;  8.7733641E+00;  0.0000000E+00; -6.3003653E-01;0;  1.8517951E-02;  9.9999922E+03;  0.0000000E+00; -4.9611856E-04;  1.0000000E+04;  0.0000000E+00;  9.9997070E+03; -9.3079428E-04;  0.0000000E+00;  1.9448744E-02;  4.8345802E+01;
  1.1800065E+00;  9.9999998E-03; -2.0000117E-02;2857;  9.3358615E-03;  0.0000000E+00; -2.2861513E-04;  1.0010985E+03;  4.0044382E-01;  8.3134265E+02;3;  8.6855211E+00;  0.0000000E+00; -3.0669305E-01;0;  1.4140490E-02;  1.0000022E+04;  0.0000000E+00; -6.6200570E-05;  1.0000000E+04;  0.0000000E+00;  9.9997549E+03; -2.5548835E-03;  0.0000000E+00;  1.6695373E-02;  4.0536407E+01;
  1.2000134E+00;  9.9999998E-03; -1.8000700E-01;2873;  1.8278727E-02;  0.0000000E+00; -8.9222323E-03;  1.0009208E+03;  4.0041238E-01;  6.7894513E+02;3;  1.7849834E+01;  0.0000000E+00; -7.6566467E+00;0;  1.1029480E-01;  9.9995781E+03;  0.0000000E+00; -1.2221639E-01;  1.0000000E+04;  0.0000000E+00;  9.9982266E+03;  1.6963776E-02;  0.0000000E+00;  9.3331032E-02;  3.1482846E+02;
  1.2000110E+00;  9.9999998E-03; -1.6000475E-01;2874;  1.5180209E-02;  0.0000000E+00; -6.3158595E-03;  1.0009398E+03;  4.0041229E-01;  6.9292181E+02;3;  1.4563212E+01;  0.0000000E+00; -5.6370726E+00;0;  9.2818454E-02;  9.9996270E+03;  0.0000000E+00; -1.0449769E-01;  1.0000000E+04;  0.0000000E+00;  9.9985557E+03;  1.4976543E-02;  0.0000000E+00;  7.7841908E-02;  2.5975217E+02;
  1.2000091E+00;  9.9999998E-03; -1.4000304E-01;2875;  1.2726673E-02;  0.0000000E+00; -4.1799643E-03;  1.0009532E+03;  4.0041235E-01;  7.0276733E+02;3;  1.2129230E+01;  0.0000000E+00; -3.8683834E+00;0;  8.0858618E-02;  9.9996152E+03;  0.0000000E+00; -7.8618936E-02;  1.0000000E+04;  0.0000000E+00;  9.9988350E+03;  1.6527666E-02;  0.0000000E+00;  6.4330950E-02;  2.0261948E+02;
  1.2000079E+00;  9.9999998E-03; -1.2000183E-01;2876;  1.1081806E-02;  0.0000000E+00; -2.6337195E-03;  1.0009638E+03;  4.0041232E-01;  7.1059088E+02;3;  1.0517233E+01;  0.0000000E+00; -2.5903168E+00;0;  7.1427740E-02;  9.9995879E+03;  0.0000000E+00; -5.2712414E-02;  1.0000000E+04;  0.0000000E+00;  9.9990742E+03;  1.8878212E-02;  0.0000000E+00;  5.2549526E-02;  1.5050757E+02;
  1.2000071E+00;  9.9999998E-03; -1.0000110E-01;2877;  1.0099342E-02;  0.0000000E+00; -1.6682715E-03;  1.0009733E+03;  4.0041235E-01;  7.1753497E+02;3;  9.5767393E+00;  0.0000000E+00; -1.7691871E+00;0;  6.2414467E-02;  9.9995781E+03;  0.0000000E+00; -3.1096475E-02;  1.0000000E+04;  0.0000000E+00;  9.9992725E+03;  2.0002225E-02;  0.0000000E+00;  4.2412240E-02;  1.0827196E+02;
  1.2000066E+00;  9.9999998E-03; -8.0000661E-02;2878;  9.5145600E-03;  0.0000000E+00; -1.0760742E-03;  1.0009821E+03;  4.0041232E-01;  7.2403931E+02;3;  9.0059109E+00;  0.0000000E+00; -1.2358421E+00;0;  5.3486057E-02;  9.9995938E+03;  0.0000000E+00; -1.5758023E-02;  1.0000000E+04;  0.0000000E+00;  9.9994336E+03;  1.9591067E-02;  0.0000000E+00;  3.3894990E-02;  7.7373116E+01;
  1.2000064E+00;  9.9999998E-03; -6.0000394E-02;2879;  9.1596069E-03;  0.0000000E+00; -6.8509445E-04;  1.0009897E+03;  4.0041238E-01;  7.2966455E+02;3;  8.6581326E+00;  0.0000000E+00; -8.4519958E-01;0;  4.5423917E-02;  9.9996211E+03;  0.0000000E+00; -6.5986156E-03;  1.0000000E+04;  0.0000000E+00;  9.9995566E+03;  1.8263256E-02;  0.0000000E+00;  2.7160661E-02;  5.6610996E+01;
  1.2000062E+00;  9.9999998E-03; -4.0000223E-02;2880;  8.9506013E-03;  0.0000000E+00; -4.1068232E-04;  1.0009955E+03;  4.0041229E-01;  7.3397137E+02;3;  8.4508162E+00;  0.0000000E+00; -5.3334653E-01;0;  3.9033718E-02;  9.9996494E+03;  0.0000000E+00; -2.1074098E-03;  1.0000000E+04;  0.0000000E+00;  9.9996455E+03;  1.6744118E-02;  0.0000000E+00;  2.2289602E-02;  4.3432571E+01;
  1.2000061E+00;  9.9999998E-03; -2.0000100E-02;2881;  8.8446354E-03;  0.0000000E+00; -1.9306340E-04;  1.0009992E+03;  4.0041235E-01;  7.3669604E+02;3;  8.3492966E+00;  0.0000000E+00; -2.5976393E-01;0;  3.4934774E-02;  9.9996719E+03;  0.0000000E+00; -3.9327855E-04;  1.0000000E+04;  0.0000000E+00;  9.9996992E+03;  1.5606588E-02;  0.0000000E+00;  1.9328188E-02;  3.5961479E+01;
  1.2200152E+00;  9.9999998E-03; -1.8000802E-01;2896;  2.0217195E-02;  0.0000000E+00; -9.9637210E-03;  1.0008417E+03;  4.0038902E-01;  6.0119562E+02;3;  1.9875944E+01;  0.0000000E+00; -8.6215515E+00;0;  1.3290566E-01;  9.9991484E+03;  0.0000000E+00; -1.0159498E-01;  1.0000000E+04;  0.0000000E+00;  9.9982383E+03;  4.0141456E-02;  0.0000000E+00;  9.2764214E-02;  2.3729750E+02;
  1.2200131E+00;  9.9999998E-03; -1.6000591E-01;2897;  1.7598735E-02;  0.0000000E+00; -7.6001738E-03;  1.0008630E+03;  4.0038911E-01;  6.1635327E+02;3;  1.6825666E+01;  0.0000000E+00; -6.6953797E+00;0;  1.1288643E-01;  9.9992578E+03;  0.0000000E+00; -1.1585829E-01;  1.0000000E+04;  0.0000000E+00;  9.9985537E+03;  3.4738965E-02;  0.0000000E+00;  7.8147464E-02;  2.1728569E+02;
  1.2200110E+00;  9.9999998E-03; -1.4000417E-01;2898;  1.4822626E-02;  0.0000000E+00; -5.5291434E-03;  1.0008807E+03;  4.0038908E-01;  6.2904199E+02;3;  1.3898183E+01;  0.0000000E+00; -4.9873719E+00;0;  9.5623150E-02;  9.9993447E+03;  0.0000000E+00; -9.8392382E-02;  1.0000000E+04;  0.0000000E+00;  9.9988184E+03;  3.0364409E-02;  0.0000000E+00;  6.5258741E-02;  1.7933487E+02;
  1.2200091E+00;  9.9999998E-03; -1.2000283E-01;2899;  1.2391232E-02;  0.0000000E+00; -3.8455613E-03;  1.0008934E+03;  4.0038908E-01;  6.3815436E+02;3;  1.1531656E+01;  0.0000000E+00; -3.5295143E+00;0;  8.3342955E-02;  9.9993770E+03;  0.0000000E+00; -7.2743729E-02;  1.0000000E+04;  0.0000000E+00;  9.9990400E+03;  2.9165234E-02;  0.0000000E+00;  5.4177724E-02;  1.3816937E+02;
  1.2200078E+00;  9.9999998E-03; -1.0000180E-01;2900;  1.0712327E-02;  0.0000000E+00; -2.4790149E-03;  1.0009019E+03;  4.0038905E-01;  6.4420111E+02;3;  1.0013414E+01;  0.0000000E+00; -2.2965467E+00;0;  7.5248905E-02;  9.9993633E+03;  0.0000000E+00; -4.7806006E-02;  1.0000000E+04;  0.0000000E+00;  9.9992217E+03;  3.0589975E-02;  0.0000000E+00;  4.4658929E-02;  1.0079732E+02;
  1.2200069E+00;  9.9999998E-03; -8.0001079E-02;2901;  9.6752038E-03;  0.0000000E+00; -1.5134751E-03;  1.0009082E+03;  4.0038905E-01;  6.4871466E+02;3;  9.1020498E+00;  0.0000000E+00; -1.4583071E+00;0;  6.9098637E-02;  9.9993428E+03;  0.0000000E+00; -2.7365141E-02;  1.0000000E+04;  0.0000000E+00;  9.9993721E+03;  3.2260217E-02;  0.0000000E+00;  3.6838423E-02;  7.1140869E+01;
  1.2200065E+00;  9.9999998E-03; -6.0000602E-02;2902;  9.0875681E-03;  0.0000000E+00; -8.8023522E-04;  1.0009135E+03;  4.0038908E-01;  6.5246167E+02;3;  8.5903769E+00;  0.0000000E+00; -9.0834373E-01;0;  6.3782252E-02;  9.9993301E+03;  0.0000000E+00; -1.3092963E-02;  1.0000000E+04;  0.0000000E+00;  9.9994873E+03;  3.3166729E-02;  0.0000000E+00;  3.0615522E-02;  5.0533634E+01;
  1.2200061E+00;  9.9999998E-03; -4.0000316E-02;2903;  8.7730493E-03;  0.0000000E+00; -4.8134246E-04;  1.0009177E+03;  4.0038908E-01;  6.5544196E+02;3;  8.3183317E+00;  0.0000000E+00; -5.3264719E-01;0;  5.9314758E-02;  9.9993311E+03;  0.0000000E+00; -4.8272060E-03;  1.0000000E+04;  0.0000000E+00;  9.9995732E+03;  3.3340503E-02;  0.0000000E+00;  2.5974257E-02;  3.7782745E+01;
  1.2200060E+00;  9.9999998E-03; -2.0000132E-02;2904;  8.6141881E-03;  0.0000000E+00; -2.1117907E-04;  1.0009205E+03;  4.0038902E-01;  6.5740045E+02;3;  8.1774921E+00;  0.0000000E+00; -2.4798046E-01;0;  5.6241240E-02;  9.9993340E+03;  0.0000000E+00; -1.0271260E-03;  1.0000000E+04;  0.0000000E+00;  9.9996260E+03;  3.3192646E-02;  0.0000000E+00;  2.3048595E-02;  3.0856739E+01;
  1.2400160E+00;  9.9999998E-03; -1.8000887E-01;2917;  2.0853091E-02;  0.0000000E+00; -1.0769951E-02;  1.0007855E+03;  4.0037221E-01;  5.4035455E+02;3;  2.0987103E+01;  0.0000000E+00; -9.5526457E+00;0;  1.4693819E-01;  9.9988760E+03;  0.0000000E+00; -7.1172626E-04;  1.0000000E+04;  0.0000000E+00;  9.9982246E+03;  5.3822663E-02;  0.0000000E+00;  9.3115523E-02;  1.6001260E+02;
  1.2400148E+00;  9.9999998E-03; -1.6000701E-01;2918;  1.9401761E-02;  0.0000000E+00; -8.7481113E-03;  1.0007993E+03;  4.0037224E-01;  5.4986884E+02;3;  1.8841406E+01;  0.0000000E+00; -7.7743912E+00;0;  1.3595428E-01;  9.9988545E+03;  0.0000000E+00; -8.0371730E-02;  1.0000000E+04;  0.0000000E+00;  9.9985225E+03;  5.6354251E-02;  0.0000000E+00;  7.9600021E-02;  1.5052873E+02;
  1.2400132E+00;  9.9999998E-03; -1.4000529E-01;2919;  1.7524892E-02;  0.0000000E+00; -6.7685586E-03;  1.0008150E+03;  4.0037227E-01;  5.6069568E+02;3;  1.6561766E+01;  0.0000000E+00; -6.0367250E+00;0;  1.2128188E-01;  9.9989092E+03;  0.0000000E+00; -9.8709174E-02;  1.0000000E+04;  0.0000000E+00;  9.9987813E+03;  5.4229032E-02;  0.0000000E+00;  6.7052849E-02;  1.4070642E+02;
  1.2400116E+00;  9.9999998E-03; -1.2000387E-01;2920;  1.5355171E-02;  0.0000000E+00; -5.0639594E-03;  1.0008301E+03;  4.0037227E-01;  5.7111279E+02;3;  1.4217780E+01;  0.0000000E+00; -4.5617361E+00;0;  1.0622939E-01;  9.9989980E+03;  0.0000000E+00; -8.4733322E-02;  1.0000000E+04;  0.0000000E+00;  9.9989932E+03;  4.9711134E-02;  0.0000000E+00;  5.6518264E-02;  1.1658028E+02;
  1.2400099E+00;  9.9999998E-03; -1.0000273E-01;2921;  1.3233907E-02;  0.0000000E+00; -3.6481435E-03;  1.0008419E+03;  4.0037221E-01;  5.7915161E+02;3;  1.2070415E+01;  0.0000000E+00; -3.3337052E+00;0;  9.3944758E-02;  9.9990645E+03;  0.0000000E+00; -6.0052287E-02;  1.0000000E+04;  0.0000000E+00;  9.9991660E+03;  4.6228450E-02;  0.0000000E+00;  4.7716308E-02;  8.7749802E+01;
  1.2400086E+00;  9.9999998E-03; -8.0001824E-02;2922;  1.1486311E-02;  0.0000000E+00; -2.4862478E-03;  1.0008500E+03;  4.0037224E-01;  5.8481189E+02;3;  1.0384003E+01;  0.0000000E+00; -2.3050921E+00;0;  8.5404687E-02;  9.9990889E+03;  0.0000000E+00; -3.6415353E-02;  1.0000000E+04;  0.0000000E+00;  9.9993018E+03;  4.4981264E-02;  0.0000000E+00;  4.0423423E-02;  6.2211315E+01;
  1.2400076E+00;  9.9999998E-03; -6.0001124E-02;2923;  1.0276396E-02;  0.0000000E+00; -1.5533260E-03;  1.0008553E+03;  4.0037218E-01;  5.8842145E+02;3;  9.2810001E+00;  0.0000000E+00; -1.4588239E+00;0;  7.9876550E-02;  9.9990850E+03;  0.0000000E+00; -1.8520284E-02;  1.0000000E+04;  0.0000000E+00;  9.9994111E+03;  4.5304425E-02;  0.0000000E+00;  3.4572124E-02;  4.3415062E+01;
  1.2400070E+00;  9.9999998E-03; -4.0000618E-02;2924;  9.5658470E-03;  0.0000000E+00; -8.6315389E-04;  1.0008587E+03;  4.0037224E-01;  5.9071838E+02;3;  8.6793222E+00;  0.0000000E+00; -8.2267368E-01;0;  7.6291524E-02;  9.9990732E+03;  0.0000000E+00; -7.2972388E-03;  1.0000000E+04;  0.0000000E+00;  9.9994902E+03;  4.6099186E-02;  0.0000000E+00;  3.0192338E-02;  3.1617327E+01;
  1.2400068E+00;  9.9999998E-03; -2.0000268E-02;2925;  9.2138946E-03;  0.0000000E+00; -3.7759496E-04;  1.0008608E+03;  4.0037227E-01;  5.9219495E+02;3;  8.3941011E+00;  0.0000000E+00; -3.6630222E-01;0;  7.4111640E-02;  9.9990645E+03;  0.0000000E+00; -1.6442025E-03;  1.0000000E+04;  0.0000000E+00;  9.9995430E+03;  4.6698295E-02;  0.0000000E+00;  2.7413344E-02;  2.5403788E+01;
  1.2600151E+00;  9.9999998E-03; -1.6000792E-01;2936;  1.9489052E-02;  0.0000000E+00; -9.6586524E-03;  1.0007631E+03;  4.0036044E-01;  5.0289587E+02;3;  1.9489607E+01;  0.0000000E+00; -8.8269815E+00;0;  1.4072628E-01;  9.9988008E+03;  0.0000000E+00;  3.6214404E-02;  1.0000000E+04;  0.0000000E+00;  9.9984463E+03;  5.7660785E-02;  0.0000000E+00;  8.3065502E-02;  1.1068620E+02;
  1.2600145E+00;  9.9999998E-03; -1.4000636E-01;2937;  1.8798223E-02;  0.0000000E+00; -7.9334620E-03;  1.0007678E+03;  4.0036038E-01;  5.0596054E+02;3;  1.8143154E+01;  0.0000000E+00; -7.2340603E+00;0;  1.3907322E-01;  9.9986348E+03;  0.0000000E+00; -4.0688355E-02;  1.0000000E+04;  0.0000000E+00;  9.9987041E+03;  6.8184912E-02;  0.0000000E+00;  7.0888318E-02;  8.6244522E+01;
  1.2600137E+00;  9.9999998E-03; -1.2000496E-01;2938;  1.7730832E-02;  0.0000000E+00; -6.2824246E-03;  1.0007756E+03;  4.0036041E-01;  5.1114685E+02;3;  1.6673727E+01;  0.0000000E+00; -5.6788540E+00;0;  1.3282308E-01;  9.9985801E+03;  0.0000000E+00; -6.6532627E-02;  1.0000000E+04;  0.0000000E+00;  9.9989150E+03;  7.2327621E-02;  0.0000000E+00;  6.0495462E-02;  7.9654678E+01;
  1.2600126E+00;  9.9999998E-03; -1.0000368E-01;2939;  1.6385227E-02;  0.0000000E+00; -4.7425223E-03;  1.0007853E+03;  4.0036041E-01;  5.1759052E+02;3;  1.5091344E+01;  0.0000000E+00; -4.2839775E+00;0;  1.2341128E-01;  9.9986016E+03;  0.0000000E+00; -5.8908619E-02;  1.0000000E+04;  0.0000000E+00;  9.9990908E+03;  7.1786560E-02;  0.0000000E+00;  5.1624715E-02;  6.4756920E+01;
  1.2600116E+00;  9.9999998E-03; -8.0002561E-02;2940;  1.5012991E-02;  0.0000000E+00; -3.3529876E-03;  1.0007944E+03;  4.0036035E-01;  5.2356281E+02;3;  1.3616966E+01;  0.0000000E+00; -3.0451746E+00;0;  1.1398927E-01;  9.9986455E+03;  0.0000000E+00; -3.9022569E-02;  1.0000000E+04;  0.0000000E+00;  9.9992285E+03;  6.9659948E-02;  0.0000000E+00;  4.4329323E-02;  4.5966049E+01;
  1.2600106E+00;  9.9999998E-03; -6.0001627E-02;2941;  1.3873893E-02;  0.0000000E+00; -2.1601475E-03;  1.0008010E+03;  4.0036038E-01;  5.2788501E+02;3;  1.2447610E+01;  0.0000000E+00; -1.9830537E+00;0;  1.0687060E-01;  9.9986699E+03;  0.0000000E+00; -2.0458126E-02;  1.0000000E+04;  0.0000000E+00;  9.9993340E+03;  6.8228744E-02;  0.0000000E+00;  3.8641855E-02;  3.0340172E+01;
  1.2600100E+00;  9.9999998E-03; -4.0000916E-02;2942;  1.3090902E-02;  0.0000000E+00; -1.2336716E-03;  1.0008052E+03;  4.0036044E-01;  5.3071411E+02;3;  1.1663107E+01;  0.0000000E+00; -1.1480786E+00;0;  1.0234405E-01;  9.9986758E+03;  0.0000000E+00; -8.1747472E-03;  1.0000000E+04;  0.0000000E+00;  9.9994111E+03;  6.7840122E-02;  0.0000000E+00;  3.4503929E-02;  2.0348679E+01;
  1.2600096E+00;  9.9999998E-03; -2.0000404E-02;2943;  1.2650336E-02;  0.0000000E+00; -5.4919225E-04;  1.0008074E+03;  4.0036035E-01;  5.3212872E+02;3;  1.1227746E+01;  0.0000000E+00; -5.1706356E-01;0;  9.9803559E-02;  9.9986758E+03;  0.0000000E+00; -1.8634227E-03;  1.0000000E+04;  0.0000000E+00;  9.9994580E+03;  6.7895979E-02;  0.0000000E+00;  3.1907581E-02;  1.5230686E+01;
  1.2800142E+00;  9.9999998E-03; -1.2000602E-01;2953;  1.8016076E-02;  0.0000000E+00; -7.4448660E-03;  1.0007505E+03;  4.0035221E-01;  4.7180750E+02;3;  1.7506798E+01;  0.0000000E+00; -6.9165974E+00;0;  1.3552660E-01;  9.9986318E+03;  0.0000000E+00;  1.6462632E-02;  1.0000000E+04;  0.0000000E+00;  9.9987734E+03;  6.7793176E-02;  0.0000000E+00;  6.7733414E-02;  5.6884884E+01;
  1.2800140E+00;  9.9999998E-03; -1.0000470E-01;2954;  1.7758844E-02;  0.0000000E+00; -5.8894381E-03;  1.0007495E+03;  4.0035218E-01;  4.7113333E+02;3;  1.6782793E+01;  0.0000000E+00; -5.4357471E+00;0;  1.3857722E-01;  9.9984150E+03;  0.0000000E+00; -1.6819479E-02;  1.0000000E+04;  0.0000000E+00;  9.9989697E+03;  8.0705985E-02;  0.0000000E+00;  5.7871237E-02;  3.7693256E+01;
  1.2800136E+00;  9.9999998E-03; -8.0003388E-02;2955;  1.7308813E-02;  0.0000000E+00; -4.3052249E-03;  1.0007513E+03;  4.0035209E-01;  4.7225787E+02;3;  1.6012547E+01;  0.0000000E+00; -3.9569173E+00;0;  1.3774382E-01;  9.9982900E+03;  0.0000000E+00; -2.1442173E-02;  1.0000000E+04;  0.0000000E+00;  9.9991328E+03;  8.8352591E-02;  0.0000000E+00;  4.9391221E-02;  2.5016071E+01;
  1.2800132E+00;  9.9999998E-03; -6.0002178E-02;2956;  1.6858382E-02;  0.0000000E+00; -2.8014083E-03;  1.0007532E+03;  4.0035209E-01;  4.7345731E+02;3;  1.5356798E+01;  0.0000000E+00; -2.5801930E+00;0;  1.3622853E-01;  9.9982080E+03;  0.0000000E+00; -1.3548398E-02;  1.0000000E+04;  0.0000000E+00;  9.9992529E+03;  9.3317755E-02;  0.0000000E+00;  4.2910773E-02;  1.3362859E+01;
  1.2800130E+00;  9.9999998E-03; -4.0001228E-02;2957;  1.6517878E-02;  0.0000000E+00; -1.5989813E-03;  1.0007543E+03;  4.0035212E-01;  4.7413205E+02;3;  1.4894478E+01;  0.0000000E+00; -1.4818811E+00;0;  1.3535847E-01;  9.9981523E+03;  0.0000000E+00; -5.7013980E-03;  1.0000000E+04;  0.0000000E+00;  9.9993330E+03;  9.6732050E-02;  0.0000000E+00;  3.8626421E-02;  4.8059726E+00;
  1.2800127E+00;  9.9999998E-03; -2.0000542E-02;2958;  1.6313227E-02;  0.0000000E+00; -7.0939469E-04;  1.0007549E+03;  4.0035212E-01;  4.7450693E+02;3;  1.4626953E+01;  0.0000000E+00; -6.6167402E-01;0;  1.3491030E-01;  9.9981143E+03;  0.0000000E+00; -1.3131452E-03;  1.0000000E+04;  0.0000000E+00;  9.9993789E+03;  9.8786965E-02;  0.0000000E+00;  3.6123335E-02;  1.2169099E+00;
  1.3000137E+00;  9.9999998E-03; -8.0004260E-02;2966;  1.7064873E-02;  0.0000000E+00; -5.2841888E-03;  1.0007487E+03;  4.0034652E-01;  4.4764474E+02;3;  1.6472332E+01;  0.0000000E+00; -5.0259466E+00;0;  1.2329879E-01;  9.9986582E+03;  0.0000000E+00;  3.2738544E-02;  1.0000000E+04;  0.0000000E+00;  9.9989883E+03;  6.6382162E-02;  0.0000000E+00;  5.6916635E-02;  3.2760960E+01;
  1.3000138E+00;  9.9999998E-03; -6.0002755E-02;2967;  1.7234186E-02;  0.0000000E+00; -3.4584089E-03;  1.0007454E+03;  4.0034652E-01;  4.4572000E+02;3;  1.6326229E+01;  0.0000000E+00; -3.2870090E+00;0;  1.2754257E-01;  9.9984229E+03;  0.0000000E+00;  9.8706456E-03;  1.0000000E+04;  0.0000000E+00;  9.9991621E+03;  7.9773359E-02;  0.0000000E+00;  4.7769211E-02;  1.3046011E+01;
  1.3000139E+00;  9.9999998E-03; -4.0001556E-02;2968;  1.7330039E-02;  0.0000000E+00; -1.9676548E-03;  1.0007416E+03;  4.0034655E-01;  4.4343893E+02;3;  1.6208988E+01;  0.0000000E+00; -1.8738480E+00;0;  1.3194796E-01;  9.9982490E+03;  0.0000000E+00;  2.1912951E-03;  1.0000000E+04;  0.0000000E+00;  9.9992598E+03;  8.9458637E-02;  0.0000000E+00;  4.2489331E-02;  2.0596595E+00;
  1.3000139E+00;  9.9999998E-03; -2.0000681E-02;2969;  1.7373048E-02;  0.0000000E+00; -8.6787133E-04;  1.0007391E+03;  4.0034652E-01;  4.4194202E+02;3;  1.6132326E+01;  0.0000000E+00; -8.2900321E-01;0;  1.3500592E-01;  9.9981475E+03;  0.0000000E+00;  2.9951593E-04;  1.0000000E+04;  0.0000000E+00;  9.9993105E+03;  9.5176205E-02;  0.0000000E+00;  3.9829720E-02;  3.8314450E+00;
 -2.0121678E-09;  9.9999998E-03; -2.2790222E-17;1045; -6.6891885E-06;  0.0000000E+00; -3.0890937E-13;  1.0000001E+03;  4.0000001E-01;  9.8762624E-02;3; -1.4928641E-02;  0.0000000E+00; -1.3101258E-09;0; -1.3721191E-04;  1.0000001E+04;  0.0000000E+00; -8.0161168E-19;  1.0000000E+04;  0.0000000E+00;  1.0000000E+04; -1.3962793E-04;  0.0000000E+00;  2.4160120E-06;  8.5546132E-03;
 -2.0096127E-09;  9.9999998E-03;  2.0000000E-02;1046; -6.6814046E-06;  0.0000000E+00;  5.9308967E-08;  1.0000001E+03;  4.0000001E-01;  9.8762624E-02;3; -1.4912409E-02;  0.0000000E+00;  1.4004996E-04;0; -1.3702281E-04;  1.0000001E+04;  0.0000000E+00; -2.7045206E-13;  1.0000000E+04;  0.0000000E+00;  1.0000000E+04; -1.3947205E-04;  0.0000000E+00;  2.4492349E-06;  8.6364718E-03;
 -2.0018274E-09;  9.9999998E-03;  3.9999999E-02;1047; -6.6577509E-06;  0.0000000E+00;  1.2069053E-07;  1.0000001E+03;  4.0000001E-01;  9.8762624E-02;3; -1.4863351E-02;  0.0000000E+00;  2.8478436E-04;0; -1.3644825E-04;  1.0000001E+04;  0.0000000E+00; -2.7991129E-13;  1.0000000E+04;  0.0000000E+00;  1.0000000E+04; -1.3899439E-04;  0.0000000E+00;  2.5461466E-06;  8.8780895E-03;
 -1.9883928E-09;  9.9999998E-03;  5.9999999E-02;1048; -6.6168914E-06;  0.0000000E+00;  1.8612049E-07;  1.0000001E+03;  4.0000001E-01;  9.8762624E-02;3; -1.4778795E-02;  0.0000000E+00;  4.3935294E-04;0; -1.3546445E-04;  1.0000001E+04;  0.0000000E+00;  7.0172566E-14;  1.0000000E+04;  0.0000000E+00;  1.0000000E+04; -1.3816415E-04;  0.0000000E+00;  2.6996938E-06;  9.2676962E-03;
 -1.9685535E-09;  9.9999998E-03;  7.9999998E-02;1049; -6.5564004E-06;  0.0000000E+00;  2.5715877E-07;  1.0000001E+03;  4.0000001E-01;  9.8762624E-02;3; -1.4653843E-02;  0.0000000E+00;  6.0583197E-04;0; -1.3402662E-04;  1.0000001E+04;  0.0000000E+00;  9.7948586E-14;  1.0000000E+04;  0.0000000E+00;  1.0000000E+04; -1.3692751E-04;  0.0000000E+00;  2.9008893E-06;  9.7850468E-03;
 -1.9412776E-09;  9.9999998E-03;  1.0000000E-01;1050; -6.4727815E-06;  0.0000000E+00;  3.3376833E-07;  1.0000001E+03;  4.0000001E-01;  9.8762624E-02;3; -1.4480681E-02;  0.0000000E+00;  7.8236591E-04;0; -1.3206417E-04;  1.0000001E+04;  0.0000000E+00; -2.0921786E-12;  1.0000000E+04;  0.0000000E+00;  1.0000000E+04; -1.3520393E-04;  0.0000000E+00;  3.1397506E-06;  1.0397702E-02;
 -1.9050705E-09;  9.9999998E-03;  1.2000000E-01;1051; -6.3605557E-06;  0.0000000E+00;  4.1745517E-07;  1.0000001E+03;  4.0000001E-01;  9.8762624E-02;3; -1.4246074E-02;  0.0000000E+00;  9.7231910E-04;0; -1.2947884E-04;  1.0000001E+04;  0.0000000E+00; -2.2085426E-12;  1.0000000E+04;  0.0000000E+00;  1.0000000E+04; -1.3288071E-04;  0.0000000E+00;  3.4018688E-06;  1.1052621E-02;
 -1.8579202E-09;  9.9999998E-03;  1.4000000E-01;1052; -6.2124723E-06;  0.0000000E+00;  5.1078439E-07;  1.0000001E+03;  4.0000001E-01;  9.8762624E-02;3; -1.3932625E-02;  0.0000000E+00;  1.1818979E-03;0; -1.2614719E-04;  1.0000001E+04;  0.0000000E+00;  1.2188649E-12;  1.0000000E+04;  0.0000000E+00;  1.0000000E+04; -1.2980757E-04;  0.0000000E+00;  3.6603758E-06;  1.1664563E-02;
  1.9999998E-02;  9.9999998E-03;  1.4332046E-16;1075; -1.0254194E-05;  0.0000000E+00;  4.1961112E-13;  1.0000001E+03;  4.0000001E-01;  9.8762624E-02;3; -2.2162559E-02;  0.0000000E+00;  2.3401325E-10;0; -1.8875182E-04;  1.0000001E+04;  0.0000000E+00;  7.7256201E-20;  1.0000000E+04;  0.0000000E+00;  1.0000000E+04; -1.9244839E-04;  0.0000000E+00;  3.6965848E-06;  1.3112610E-02;
  1.9999998E-02;  9.9999998E-03;  2.0000000E-02;1076; -1.0243337E-05;  0.0000000E+00;  8.8558998E-08;  1.0000001E+03;  4.0000001E-01;  9.8762624E-02;3; -2.2141509E-02;  0.0000000E+00;  2.0220639E-04;0; -1.8850589E-04;  1.0000001E+04;  0.0000000E+00; -5.4316491E-13;  1.0000000E+04;  0.0000000E+00;  1.0000000E+04; -1.9225478E-04;  0.0000000E+00;  3.7488956E-06;  1.3245606E-02;
  1.9999998E-02;  9.9999998E-03;  3.9999999E-02;1077; -1.0210115E-05;  0.0000000E+00;  1.8033332E-07;  1.0000001E+03;  4.0000001E-01;  9.8762624E-02;3; -2.2077590E-02;  0.0000000E+00;  4.1116530E-04;0; -1.8775876E-04;  1.0000001E+04;  0.0000000E+00; -3.5058249E-13;  1.0000000E+04;  0.0000000E+00;  1.0000000E+04; -1.9166057E-04;  0.0000000E+00;  3.9018041E-06;  1.3637993E-02;
  1.9999998E-02;  9.9999998E-03;  5.9999999E-02;1078; -1.0152308E-05;  0.0000000E+00;  2.7808272E-07;  1.0000001E+03;  4.0000001E-01;  9.8762624E-02;3; -2.1966452E-02;  0.0000000E+00;  6.3356501E-04;0; -1.8647905E-04;  1.0000001E+04;  0.0000000E+00;  6.2981359E-15;  1.0000000E+04;  0.0000000E+00;  1.0000000E+04; -1.9062389E-04;  0.0000000E+00;  4.1448302E-06;  1.4270501E-02;
  1.9999998E-02;  9.9999998E-03;  7.9999998E-02;1079; -1.0066161E-05;  0.0000000E+00;  3.8442508E-07;  1.0000001E+03;  4.0000001E-01;  9.8762624E-02;3; -2.1800444E-02;  0.0000000E+00;  8.7408413E-04;0; -1.8460731E-04;  1.0000001E+04;  0.0000000E+00; -2.2868243E-14;  1.0000000E+04;  0.0000000E+00;  1.0000000E+04; -1.8907130E-04;  0.0000000E+00;  4.4639955E-06;  1.5110713E-02;
  1.9999998E-02;  9.9999998E-03;  1.0000000E-01;1080; -9.9461313E-06;  0.0000000E+00;  5.0004519E-07;  1.0000001E+03;  4.0000001E-01;  9.8762624E-02;3; -2.1566905E-02;  0.0000000E+00;  1.1325048E-03;0; -1.8204935E-04;  1.0000001E+04;  0.0000000E+00; -1.1641816E-12;  1.0000000E+04;  0.0000000E+00;  1.0000000E+04; -1.8689208E-04;  0.0000000E+00;  4.8427360E-06;  1.6107580E-02;
  1.9999998E-02;  9.9999998E-03;  1.2000000E-01;1081; -9.7841157E-06;  0.0000000E+00;  6.2629476E-07;  1.0000001E+03;  4.0000001E-01;  9.8762624E-02;3; -2.1246377E-02;  0.0000000E+00;  1.4111983E-03;0; -1.7867281E-04;  1.0000001E+04;  0.0000000E+00; -2.6751958E-12;  1.0000000E+04;  0.0000000E+00;  1.0000000E+04; -1.8392982E-04;  0.0000000E+00;  5.2570122E-06;  1.7178457E-02;
  1.9999998E-02;  9.9999998E-03;  1.4000000E-01;1082; -9.5693804E-06;  0.0000000E+00;  7.6698103E-07;  1.0000001E+03;  4.0000001E-01;  9.8762624E-02;3; -2.0813726E-02;  0.0000000E+00;  1.7191916E-03;0; -1.7430935E-04;  1.0000001E+04;  0.0000000E+00; -1.7146081E-12;  1.0000000E+04;  0.0000000E+00;  1.0000000E+04; -1.7997395E-04;  0.0000000E+00;  5.6646068E-06;  1.8191991E-02;
  3.9999995E-02;  9.9999998E-03; -2.2158362E-16;1106; -1.5329393E-05;  0.0000000E+00; -4.2386128E-13;  1.0000001E+03;  4.0000001E-01;  9.8762624E-02;3; -3.2134183E-02;  0.0000000E+00; -1.9528290E-10;0; -2.5534813E-04;  1.0000002E+04;  0.0000000E+00;  2.7375321E-18;  1.0000000E+04;  0.0000000E+00;  1.0000000E+04; -2.6068988E-04;  0.0000000E+00;  5.3417334E-06;  1.9348135E-02;
  3.9999995E-02;  9.9999998E-03;  2.0000000E-02;1107; -1.5314190E-05;  0.0000000E+00;  1.2343091E-07;  1.0000001E+03;  4.0000001E-01;  9.8762624E-02;3; -3.2106712E-02;  0.0000000E+00;  2.7060320E-04;0; -2.5503742E-04;  1.0000002E+04;  0.0000000E+00; -2.8310001E-13;  1.0000000E+04;  0.0000000E+00;  1.0000000E+04; -2.6045783E-04;  0.0000000E+00;  5.4204079E-06;  1.9554563E-02;
  3.9999995E-02;  9.9999998E-03;  3.9999999E-02;1108; -1.5267662E-05;  0.0000000E+00;  2.5152144E-07;  1.0000001E+03;  4.0000001E-01;  9.8762624E-02;3; -3.2023102E-02;  0.0000000E+00;  5.4997945E-04;0; -2.5409332E-04;  1.0000002E+04;  0.0000000E+00;  9.1956919E-14;  1.0000000E+04;  0.0000000E+00;  1.0000000E+04; -2.5974421E-04;  0.0000000E+00;  5.6508766E-06;  2.0163674E-02;
  3.9999995E-02;  9.9999998E-03;  5.9999999E-02;1109; -1.5186725E-05;  0.0000000E+00;  3.8792774E-07;  1.0000001E+03;  4.0000001E-01;  9.8762624E-02;3; -3.1877685E-02;  0.0000000E+00;  8.4670517E-04;0; -2.5247561E-04;  1.0000002E+04;  0.0000000E+00;  2.1688783E-13;  1.0000000E+04;  0.0000000E+00;  1.0000000E+04; -2.5849394E-04;  0.0000000E+00;  6.0183265E-06;  2.1145860E-02;
  3.9999995E-02;  9.9999998E-03;  7.9999998E-02;1110; -1.5065945E-05;  0.0000000E+00;  5.3658317E-07;  1.0000001E+03;  4.0000001E-01;  9.8762624E-02;3; -3.1659640E-02;  0.0000000E+00;  1.1686580E-03;0; -2.5010749E-04;  1.0000002E+04;  0.0000000E+00;  3.0587111E-13;  1.0000000E+04;  0.0000000E+00;  1.0000000E+04; -2.5660952E-04;  0.0000000E+00;  6.5020286E-06;  2.2451917E-02;
  3.9999995E-02;  9.9999998E-03;  1.0000000E-01;1111; -1.4897532E-05;  0.0000000E+00;  6.9895970E-07;  1.0000001E+03;  4.0000001E-01;  9.8762624E-02;3; -3.1351674E-02;  0.0000000E+00;  1.5180218E-03;0; -2.4686701E-04;  1.0000002E+04;  0.0000000E+00;  1.3669261E-12;  1.0000000E+04;  0.0000000E+00;  1.0000000E+04; -2.5394291E-04;  0.0000000E+00;  7.0759029E-06;  2.4005271E-02;
  3.9999995E-02;  9.9999998E-03;  1.2000000E-01;1112; -1.4670008E-05;  0.0000000E+00;  8.7660197E-07;  1.0000001E+03;  4.0000001E-01;  9.8762624E-02;3; -3.0926768E-02;  0.0000000E+00;  1.8972791E-03;0; -2.4258127E-04;  1.0000002E+04;  0.0000000E+00; -9.0067434E-13;  1.0000000E+04;  0.0000000E+00;  1.0000000E+04; -2.5028319E-04;  0.0000000E+00;  7.7019185E-06;  2.5683185E-02;
  3.9999995E-02;  9.9999998E-03;  1.4000000E-01;1113; -1.4367301E-05;  0.0000000E+00;  1.0744236E-06;  1.0000001E+03;  4.0000001E-01;  9.8762624E-02;3; -3.0347239E-02;  0.0000000E+00;  2.3173771E-03;0; -2.3702586E-04;  1.0000002E+04;  0.0000000E+00; -3.3638817E-12;  1.0000000E+04;  0.0000000E+00;  1.0000000E+04; -2.4534288E-04;  0.0000000E+00;  8.3170198E-06;  2.7292676E-02;
  5.9999991E-02;  9.9999998E-03;  4.7249568E-16;1137; -2.2229768E-05;  0.0000000E+00; -2.4343700E-14;  1.0000001E+03;  4.0000001E-01;  9.8762624E-02;3; -4.5261785E-02;  0.0000000E+00; -7.3256157E-09;0; -3.4489686E-04;  1.0000003E+04;  0.0000000E+00;  7.0201645E-19;  1.0000000E+04;  0.0000000E+00;  1.0000000E+04; -3.5233679E-04;  0.0000000E+00;  7.4399377E-06;  2.7899388E-02;
  5.9999991E-02;  9.9999998E-03;  2.0000000E-02;1138; -2.2209018E-05;  0.0000000E+00;  1.6791553E-07;  1.0000001E+03;  4.0000001E-01;  9.8762624E-02;3; -4.5226358E-02;  0.0000000E+00;  3.5261779E-04;0; -3.4450841E-04;  1.0000003E+04;  0.0000000E+00; -5.2310109E-13;  1.0000000E+04;  0.0000000E+00;  1.0000000E+04; -3.5206371E-04;  0.0000000E+00;  7.5552975E-06;  2.8211672E-02;
  5.9999991E-02;  9.9999998E-03;  3.9999999E-02;1139; -2.2145601E-05;  0.0000000E+00;  3.4217493E-07;  1.0000001E+03;  4.0000001E-01;  9.8762624E-02;3; -4.5118585E-02;  0.0000000E+00;  7.1606564E-04;0; -3.4332793E-04;  1.0000003E+04;  0.0000000E+00; -1.0063829E-13;  1.0000000E+04;  0.0000000E+00;  1.0000000E+04; -3.5122191E-04;  0.0000000E+00;  7.8939665E-06;  2.9133847E-02;
  5.9999991E-02;  9.9999998E-03;  5.9999999E-02;1140; -2.2035591E-05;  0.0000000E+00;  5.2742041E-07;  1.0000001E+03;  4.0000001E-01;  9.8762624E-02;3; -4.4931792E-02;  0.0000000E+00;  1.1001350E-03;0; -3.4130423E-04;  1.0000003E+04;  0.0000000E+00; -1.8210303E-13;  1.0000000E+04;  0.0000000E+00;  1.0000000E+04; -3.4973989E-04;  0.0000000E+00;  8.4356452E-06;  3.0622989E-02;
  5.9999991E-02;  9.9999998E-03;  7.9999998E-02;1141; -2.1871800E-05;  0.0000000E+00;  7.2935546E-07;  1.0000001E+03;  4.0000001E-01;  9.8762624E-02;3; -4.4652637E-02;  0.0000000E+00;  1.5170828E-03;0; -3.3833925E-04;  1.0000003E+04;  0.0000000E+00;  8.4093089E-13;  1.0000000E+04;  0.0000000E+00;  1.0000000E+04; -3.4748969E-04;  0.0000000E+00;  9.1504371E-06;  3.2607339E-02;
  5.9999991E-02;  9.9999998E-03;  1.0000000E-01;1142; -2.1643777E-05;  0.0000000E+00;  9.5022705E-07;  1.0000001E+03;  4.0000001E-01;  9.8762624E-02;3; -4.4258870E-02;  0.0000000E+00;  1.9717806E-03;0; -3.3427743E-04;  1.0000003E+04;  0.0000000E+00;  6.6882047E-13;  1.0000000E+04;  0.0000000E+00;  1.0000000E+04; -3.4427611E-04;  0.0000000E+00;  9.9986828E-06;  3.4975316E-02;
  5.9999995E-02;  9.9999998E-03;  1.2000000E-01;1143; -2.1335660E-05;  0.0000000E+00;  1.1932418E-06;  1.0000001E+03;  4.0000001E-01;  9.8762624E-02;3; -4.3714024E-02;  0.0000000E+00;  2.4724402E-03;0; -3.2889482E-04;  1.0000003E+04;  0.0000000E+00; -1.4687705E-12;  1.0000000E+04;  0.0000000E+00;  1.0000000E+04; -3.3981728E-04;  0.0000000E+00;  1.0922465E-05;  3.7549347E-02;
  5.9999995E-02;  9.9999998E-03;  1.4000000E-01;1144; -2.0924283E-05;  0.0000000E+00;  1.4650649E-06;  1.0000001E+03;  4.0000001E-01;  9.8762624E-02;3; -4.2963650E-02;  0.0000000E+00;  3.0337833E-03;0; -3.2189535E-04;  1.0000003E+04;  0.0000000E+00;  1.3458942E-12;  1.0000000E+04;  0.0000000E+00;  1.0000000E+04; -3.3372559E-04;  0.0000000E+00;  1.1830252E-05;  4.0052295E-02;
  7.9999991E-02;  9.9999998E-03;  2.5687680E-16;1168; -3.1499629E-05;  0.0000000E+00;  3.0080790E-12;  1.0000002E+03;  4.0000001E-01;  1.9752525E-01;3; -6.2386941E-02;  0.0000000E+00;  1.0741552E-08;0; -4.6693764E-04;  1.0000005E+04;  0.0000000E+00;  2.2134873E-18;  1.0000000E+04;  0.0000000E+00;  1.0000000E+04; -4.7706859E-04;  0.0000000E+00;  1.0130960E-05;  3.9661024E-02;
  7.9999991E-02;  9.9999998E-03;  2.0000000E-02;1169; -3.1472384E-05;  0.0000000E+00;  2.2593164E-07;  1.0000002E+03;  4.0000001E-01;  1.9752525E-01;3; -6.2342539E-02;  0.0000000E+00;  4.5541022E-04;0; -4.6645422E-04;  1.0000005E+04;  0.0000000E+00; -4.0272592E-13;  1.0000000E+04;  0.0000000E+00;  1.0000000E+04; -4.7675220E-04;  0.0000000E+00;  1.0297996E-05;  4.0127262E-02;
  7.9999991E-02;  9.9999998E-03;  3.9999999E-02;1170; -3.1389194E-05;  0.0000000E+00;  4.6014668E-07;  1.0000002E+03;  4.0000001E-01;  1.9752525E-01;3; -6.2207673E-02;  0.0000000E+00;  9.2349539E-04;0; -4.6498436E-04;  1.0000005E+04;  0.0000000E+00; -4.9284405E-13;  1.0000000E+04;  0.0000000E+00;  1.0000000E+04; -4.7577388E-04;  0.0000000E+00;  1.0789514E-05;  4.1506235E-02;
  7.9999991E-02;  9.9999998E-03;  5.9999999E-02;1171; -3.1245174E-05;  0.0000000E+00;  7.0857521E-07;  1.0000002E+03;  4.0000001E-01;  1.9752525E-01;3; -6.1974738E-02;  0.0000000E+00;  1.4151578E-03;0; -4.6246310E-04;  1.0000005E+04;  0.0000000E+00; -3.6680275E-13;  1.0000000E+04;  0.0000000E+00;  1.0000000E+04; -4.7404144E-04;  0.0000000E+00;  1.1578353E-05;  4.3739025E-02;
  7.9999991E-02;  9.9999998E-03;  7.9999998E-02;1172; -3.1030908E-05;  0.0000000E+00;  9.7946997E-07;  1.0000002E+03;  4.0000001E-01;  1.9752525E-01;3; -6.1627038E-02;  0.0000000E+00;  1.9488027E-03;0; -4.5876653E-04;  1.0000005E+04;  0.0000000E+00; -4.2709041E-13;  1.0000000E+04;  0.0000000E+00;  1.0000000E+04; -4.7138892E-04;  0.0000000E+00;  1.2622391E-05;  4.6724834E-02;
  7.9999991E-02;  9.9999998E-03;  1.0000000E-01;1173; -3.0732415E-05;  0.0000000E+00;  1.2765422E-06;  1.0000002E+03;  4.0000001E-01;  1.9752525E-01;3; -6.1136536E-02;  0.0000000E+00;  2.5342826E-03;0; -4.5369656E-04;  1.0000005E+04;  0.0000000E+00;  1.2217218E-12;  1.0000000E+04;  0.0000000E+00;  1.0000000E+04; -4.6755953E-04;  0.0000000E+00;  1.3862963E-05;  5.0304316E-02;
  7.9999991E-02;  9.9999998E-03;  1.2000000E-01;1174; -3.0328094E-05;  0.0000000E+00;  1.6050170E-06;  1.0000002E+03;  4.0000001E-01;  1.9752525E-01;3; -6.0454622E-02;  0.0000000E+00;  3.1876592E-03;0; -4.4696493E-04;  1.0000005E+04;  0.0000000E+00; -2.2250179E-12;  1.0000000E+04;  0.0000000E+00;  1.0000000E+04; -4.6217901E-04;  0.0000000E+00;  1.5214089E-05;  5.4223347E-02;
  7.9999991E-02;  9.9999998E-03;  1.4000000E-01;1175; -2.9786268E-05;  0.0000000E+00;  1.9738623E-06;  1.0000002E+03;  4.0000001E-01;  1.9752525E-01;3; -5.9509084E-02;  0.0000000E+00;  3.9281612E-03;0; -4.3818078E-04;  1.0000004E+04;  0.0000000E+00; -1.1164556E-12;  1.0000000E+04;  0.0000000E+00;  1.0000000E+04; -4.5472596E-04;  0.0000000E+00;  1.6545166E-05;  5.8086589E-02;
  9.9999987E-02;  9.9999998E-03; -3.8579844E-16;1199; -4.3919259E-05;  0.0000000E+00;  2.8235267E-14;  1.0000003E+03;  4.0000001E-01;  2.9628786E-01;3; -8.4683873E-02;  0.0000000E+00;  5.3520992E-09;0; -6.3277519E-04;  1.0000007E+04;  0.0000000E+00;  7.6839289E-19;  1.0000000E+04;  0.0000000E+00;  1.0000000E+04; -6.4638071E-04;  0.0000000E+00;  1.3605499E-05;  5.5839080E-02;
  9.9999987E-02;  9.9999998E-03;  2.0000000E-02;1200; -4.3884993E-05;  0.0000000E+00;  3.0120609E-07;  1.0000003E+03;  4.0000001E-01;  2.9628786E-01;3; -8.4630534E-02;  0.0000000E+00;  5.8534619E-04;0; -6.3217652E-04;  1.0000007E+04;  0.0000000E+00; -7.8786322E-14;  1.0000000E+04;  0.0000000E+00;  1.0000000E+04; -6.4602232E-04;  0.0000000E+00;  1.3845819E-05;  5.6530092E-02;
  9.9999987E-02;  9.9999998E-03;  3.9999999E-02;1201; -4.3780194E-05;  0.0000000E+00;  6.1320844E-07;  1.0000003E+03;  4.0000001E-01;  2.9628786E-01;3; -8.4468320E-02;  0.0000000E+00;  1.1856020E-03;0; -6.3035556E-04;  1.0000007E+04;  0.0000000E+00; -1.8079469E-14;  1.0000000E+04;  0.0000000E+00;  1.0000000E+04; -6.4491032E-04;  0.0000000E+00;  1.4554771E-05;  5.8578506E-02;
  9.9999987E-02;  9.9999998E-03;  5.9999999E-02;1202; -4.3598800E-05;  0.0000000E+00;  9.4378174E-07;  1.0000003E+03;  4.0000001E-01;  2.9628786E-01;3; -8.4188208E-02;  0.0000000E+00;  1.8132346E-03;0; -6.2722922E-04;  1.0000006E+04;  0.0000000E+00; -1.4375957E-12;  1.0000000E+04;  0.0000000E+00;  1.0000000E+04; -6.4292643E-04;  0.0000000E+00;  1.5697213E-05;  6.1908443E-02;
  9.9999987E-02;  9.9999998E-03;  7.9999998E-02;1203; -4.3328379E-05;  0.0000000E+00;  1.3049802E-06;  1.0000003E+03;  4.0000001E-01;  2.9628786E-01;3; -8.3769374E-02;  0.0000000E+00;  2.4949885E-03;0; -6.2264054E-04;  1.0000006E+04;  0.0000000E+00; -1.4090443E-12;  1.0000000E+04;  0.0000000E+00;  1.0000000E+04; -6.3985615E-04;  0.0000000E+00;  1.7215591E-05;  6.6384263E-02;
  9.9999987E-02;  9.9999998E-03;  1.0000000E-01;1204; -4.2950163E-05;  0.0000000E+00;  1.7029614E-06;  1.0000003E+03;  4.0000001E-01;  2.9628786E-01;3; -8.3176352E-02;  0.0000000E+00;  3.2482676E-03;0; -6.1633869E-04;  1.0000006E+04;  0.0000000E+00; -5.3090171E-13;  1.0000000E+04;  0.0000000E+00;  1.0000000E+04; -6.3536415E-04;  0.0000000E+00;  1.9025483E-05;  7.1783178E-02;
  9.9999987E-02;  9.9999998E-03;  1.2000000E-01;1205; -4.2435258E-05;  0.0000000E+00;  2.1446454E-06;  1.0000003E+03;  4.0000001E-01;  2.9628786E-01;3; -8.2347244E-02;  0.0000000E+00;  4.0971609E-03;0; -6.0795323E-04;  1.0000006E+04;  0.0000000E+00; -2.1404543E-12;  1.0000000E+04;  0.0000000E+00;  1.0000000E+04; -6.2895496E-04;  0.0000000E+00;  2.1001710E-05;  7.7742949E-02;
  9.9999987E-02;  9.9999998E-03;  1.4000000E-01;1206; -4.1740725E-05;  0.0000000E+00;  2.6420623E-06;  1.0000003E+03;  4.0000001E-01;  2.9628786E-01;3; -8.1187822E-02;  0.0000000E+00;  5.0662942E-03;0; -5.9697323E-04;  1.0000006E+04;  0.0000000E+00; -3.7547877E-12;  1.0000000E+04;  0.0000000E+00;  1.0000000E+04; -6.1993266E-04;  0.0000000E+00;  2.2959413E-05;  8.3700843E-02;
  1.1999998E-01;  9.9999998E-03; -1.4257690E-16;1230; -6.0570812E-05;  0.0000000E+00; -2.1632422E-12;  1.0000004E+03;  4.0000001E-01;  3.9505050E-01;3; -1.1371735E-01;  0.0000000E+00; -9.8684652E-09;0; -8.5597689E-04;  1.0000009E+04;  0.0000000E+00;  3.9972565E-19;  1.0000000E+04;  0.0000000E+00;  1.0000000E+04; -8.7407901E-04;  0.0000000E+00;  1.8102102E-05;  7.8026898E-02;
  1.1999998E-01;  9.9999998E-03;  2.0000000E-02;1231; -6.0529364E-05;  0.0000000E+00;  3.9759377E-07;  1.0000004E+03;  4.0000001E-01;  3.9505050E-01;3; -1.1365669E-01;  0.0000000E+00;  7.4803445E-04;0; -8.5524196E-04;  1.0000009E+04;  0.0000000E+00; -1.0797592E-13;  1.0000000E+04;  0.0000000E+00;  1.0000000E+04; -8.7368808E-04;  0.0000000E+00;  1.8446117E-05;  7.9044499E-02;
  1.1999998E-01;  9.9999998E-03;  3.9999999E-02;1232; -6.0402454E-05;  0.0000000E+00;  8.0975286E-07;  1.0000004E+03;  4.0000001E-01;  3.9505050E-01;3; -1.1347134E-01;  0.0000000E+00;  1.5157508E-03;0; -8.5300469E-04;  1.0000009E+04;  0.0000000E+00;  5.2418410E-13;  1.0000000E+04;  0.0000000E+00;  1.0000000E+04; -8.7246863E-04;  0.0000000E+00;  1.9463951E-05;  8.2069606E-02;
  1.1999998E-01;  9.9999998E-03;  5.9999999E-02;1233; -6.0182476E-05;  0.0000000E+00;  1.2462885E-06;  1.0000004E+03;  4.0000001E-01;  3.9505050E-01;3; -1.1315066E-01;  0.0000000E+00;  2.3149343E-03;0; -8.4915850E-04;  1.0000009E+04;  0.0000000E+00; -5.9746343E-13;  1.0000000E+04;  0.0000000E+00;  1.0000000E+04; -8.7027089E-04;  0.0000000E+00;  2.1112412E-05;  8.7012589E-02;
  1.1999998E-01;  9.9999998E-03;  7.9999998E-02;1234; -5.9853046E-05;  0.0000000E+00;  1.7253828E-06;  1.0000004E+03;  4.0000001E-01;  3.9505050E-01;3; -1.1266783E-01;  0.0000000E+00;  3.1860236E-03;0; -8.4350549E-04;  1.0000009E+04;  0.0000000E+00; -2.0633363E-12;  1.0000000E+04;  0.0000000E+00;  1.0000000E+04; -8.6682185E-04;  0.0000000E+00;  2.3316370E-05;  9.3701594E-02;
  1.1999998E-01;  9.9999998E-03;  1.0000000E-01;1235; -5.9389029E-05;  0.0000000E+00;  2.2574113E-06;  1.0000004E+03;  4.0000001E-01;  3.9505050E-01;3; -1.1197846E-01;  0.0000000E+00;  4.1563669E-03;0; -8.3572522E-04;  1.0000008E+04;  0.0000000E+00;  2.3674338E-13;  1.0000000E+04;  0.0000000E+00;  1.0000000E+04; -8.6168409E-04;  0.0000000E+00;  2.5958883E-05;  1.0183530E-01;
  1.1999998E-01;  9.9999998E-03;  1.2000000E-01;1236; -5.8751204E-05;  0.0000000E+00;  2.8504076E-06;  1.0000004E+03;  4.0000001E-01;  3.9505050E-01;3; -1.1100355E-01;  0.0000000E+00;  5.2581849E-03;0; -8.2534755E-04;  1.0000008E+04;  0.0000000E+00; -3.9853685E-12;  1.0000000E+04;  0.0000000E+00;  1.0000000E+04; -8.5420971E-04;  0.0000000E+00;  2.8862176E-05;  1.1090601E-01;
  1.1999998E-01;  9.9999998E-03;  1.4000000E-01;1237; -5.7881472E-05;  0.0000000E+00;  3.5208113E-06;  1.0000004E+03;  4.0000001E-01;  3.9505050E-01;3; -1.0962074E-01;  0.0000000E+00;  6.5235700E-03;0; -8.1170799E-04;  1.0000008E+04;  0.0000000E+00; -2.8429229E-12;  1.0000000E+04;  0.0000000E+00;  1.0000000E+04; -8.4347761E-04;  0.0000000E+00;  3.1769647E-05;  1.2012757E-01;
  1.3999997E-01;  9.9999998E-03; -9.5470682E-16;1261; -8.2881335E-05;  0.0000000E+00;  1.0956427E-12;  1.0000006E+03;  4.0000001E-01;  4.9381313E-01;3; -1.5139937E-01;  0.0000000E+00;  1.5237166E-08;0; -1.1532150E-03;  1.0000013E+04;  0.0000000E+00;  2.2886075E-18;  1.0000000E+04;  0.0000000E+00;  1.0000000E+04; -1.1771214E-03;  0.0000000E+00;  2.3906445E-05;  1.0831372E-01;
  1.3999997E-01;  9.9999998E-03;  2.0000000E-02;1262; -8.2833394E-05;  0.0000000E+00;  5.1925400E-07;  1.0000006E+03;  4.0000001E-01;  4.9381313E-01;3; -1.5133601E-01;  0.0000000E+00;  9.4746548E-04;0; -1.1523253E-03;  1.0000013E+04;  0.0000000E+00; -1.1161719E-12;  1.0000000E+04;  0.0000000E+00;  1.0000000E+04; -1.1767211E-03;  0.0000000E+00;  2.4395755E-05;  1.0979997E-01;
  1.3999997E-01;  9.9999998E-03;  3.9999999E-02;1263; -8.2685932E-05;  0.0000000E+00;  1.0580050E-06;  1.0000006E+03;  4.0000001E-01;  4.9381313E-01;3; -1.5114091E-01;  0.0000000E+00;  1.9209338E-03;0; -1.1496125E-03;  1.0000013E+04;  0.0000000E+00;  5.2874269E-13;  1.0000000E+04;  0.0000000E+00;  1.0000000E+04; -1.1754608E-03;  0.0000000E+00;  2.5848334E-05;  1.1423281E-01;
  1.3999997E-01;  9.9999998E-03;  6.0000002E-02;1264; -8.2428953E-05;  0.0000000E+00;  1.6305744E-06;  1.0000006E+03;  4.0000001E-01;  4.9381313E-01;3; -1.5079951E-01;  0.0000000E+00;  2.9368359E-03;0; -1.1449405E-03;  1.0000012E+04;  0.0000000E+00; -2.0307284E-12;  1.0000000E+04;  0.0000000E+00;  1.0000000E+04; -1.1731561E-03;  0.0000000E+00;  2.8215578E-05;  1.2152088E-01;
  1.3999997E-01;  9.9999998E-03;  7.9999998E-02;1265; -8.2041428E-05;  0.0000000E+00;  2.2623688E-06;  1.0000006E+03;  4.0000001E-01;  4.9381313E-01;3; -1.5027764E-01;  0.0000000E+00;  4.0494618E-03;0; -1.1380545E-03;  1.0000012E+04;  0.0000000E+00; -3.6645643E-12;  1.0000000E+04;  0.0000000E+00;  1.0000000E+04; -1.1694606E-03;  0.0000000E+00;  3.1406074E-05;  1.3146691E-01;
  1.3999997E-01;  9.9999998E-03;  1.0000000E-01;1266; -8.1489925E-05;  0.0000000E+00;  2.9714481E-06;  1.0000006E+03;  4.0000001E-01;  4.9381313E-01;3; -1.4951658E-01;  0.0000000E+00;  5.3014685E-03;0; -1.1285493E-03;  1.0000012E+04;  0.0000000E+00; -2.0164460E-13;  1.0000000E+04;  0.0000000E+00;  1.0000000E+04; -1.1638167E-03;  0.0000000E+00;  3.5267316E-05;  1.4368936E-01;
  1.3999997E-01;  9.9999998E-03;  1.2000000E-01;1267; -8.0721584E-05;  0.0000000E+00;  3.7679206E-06;  1.0000005E+03;  4.0000001E-01;  4.9381313E-01;3; -1.4841484E-01;  0.0000000E+00;  6.7342403E-03;0; -1.1158236E-03;  1.0000012E+04;  0.0000000E+00;  1.4999199E-12;  1.0000000E+04;  0.0000000E+00;  1.0000000E+04; -1.1553835E-03;  0.0000000E+00;  3.9559891E-05;  1.5751390E-01;
  1.3999997E-01;  9.9999998E-03;  1.4000000E-01;1268; -7.9655991E-05;  0.0000000E+00;  4.6742275E-06;  1.0000005E+03;  4.0000001E-01;  4.9381313E-01;3; -1.4681715E-01;  0.0000000E+00;  8.3879661E-03;0; -1.0990149E-03;  1.0000012E+04;  0.0000000E+00; -5.7201960E-12;  1.0000000E+04;  0.0000000E+00;  1.0000000E+04; -1.1429625E-03;  0.0000000E+00;  4.3947646E-05;  1.7190900E-01;
  1.5999995E-01;  9.9999998E-03; -7.5058321E-16;1292; -1.1269615E-04;  0.0000000E+00; -8.6659472E-13;  1.0000009E+03;  4.0000001E-01;  6.9133836E-01;3; -2.0001660E-01;  0.0000000E+00; -3.9818033E-09;0; -1.5454275E-03;  1.0000017E+04;  0.0000000E+00;  5.2575753E-18;  1.0000000E+04;  0.0000000E+00;  1.0000000E+04; -1.5767841E-03;  0.0000000E+00;  3.1356634E-05;  1.4943610E-01;
  1.5999995E-01;  9.9999998E-03;  2.0000000E-02;1293; -1.1264355E-04;  0.0000000E+00;  6.7024217E-07;  1.0000009E+03;  4.0000001E-01;  6.9133836E-01;3; -1.9996037E-01;  0.0000000E+00;  1.1830515E-03;0; -1.5443709E-03;  1.0000017E+04;  0.0000000E+00; -7.0538876E-13;  1.0000000E+04;  0.0000000E+00;  1.0000000E+04; -1.5764171E-03;  0.0000000E+00;  3.2046224E-05;  1.5158296E-01;
  1.5999995E-01;  9.9999998E-03;  3.9999999E-02;1294; -1.1248027E-04;  0.0000000E+00;  1.3677147E-06;  1.0000009E+03;  4.0000001E-01;  6.9133836E-01;3; -1.9978297E-01;  0.0000000E+00;  2.4041862E-03;0; -1.5411451E-03;  1.0000017E+04;  0.0000000E+00;  7.9737513E-13;  1.0000000E+04;  0.0000000E+00;  1.0000000E+04; -1.5752467E-03;  0.0000000E+00;  3.4101515E-05;  1.5800996E-01;
  1.5999995E-01;  9.9999998E-03;  6.0000002E-02;1295; -1.1219236E-04;  0.0000000E+00;  2.1131123E-06;  1.0000009E+03;  4.0000001E-01;  6.9133836E-01;3; -1.9946241E-01;  0.0000000E+00;  3.6873515E-03;0; -1.5355707E-03;  1.0000017E+04;  0.0000000E+00;  6.0053145E-13;  1.0000000E+04;  0.0000000E+00;  1.0000000E+04; -1.5730468E-03;  0.0000000E+00;  3.7476108E-05;  1.6865274E-01;
  1.5999995E-01;  9.9999998E-03;  7.9999998E-02;1296; -1.1175234E-04;  0.0000000E+00;  2.9416115E-06;  1.0000009E+03;  4.0000001E-01;  6.9133836E-01;3; -1.9895354E-01;  0.0000000E+00;  5.1053781E-03;0; -1.5273184E-03;  1.0000017E+04;  0.0000000E+00; -1.3297858E-12;  1.0000000E+04;  0.0000000E+00;  1.0000000E+04; -1.5693906E-03;  0.0000000E+00;  4.2072210E-05;  1.8332753E-01;
  1.5999995E-01;  9.9999998E-03;  1.0000000E-01;1297; -1.1111516E-04;  0.0000000E+00;  3.8833200E-06;  1.0000009E+03;  4.0000001E-01;  6.9133836E-01;3; -1.9817650E-01;  0.0000000E+00;  6.7241210E-03;0; -1.5158668E-03;  1.0000016E+04;  0.0000000E+00;  5.8152398E-12;  1.0000000E+04;  0.0000000E+00;  1.0000000E+04; -1.5635776E-03;  0.0000000E+00;  4.7710731E-05;  2.0161329E-01;
  1.5999995E-01;  9.9999998E-03;  1.2000000E-01;1298; -1.1021070E-04;  0.0000000E+00;  4.9546175E-06;  1.0000009E+03;  4.0000001E-01;  6.9133836E-01;3; -1.9700101E-01;  0.0000000E+00;  8.5948892E-03;0; -1.5004369E-03;  1.0000016E+04;  0.0000000E+00; -1.0188017E-12;  1.0000000E+04;  0.0000000E+00;  1.0000000E+04; -1.5545383E-03;  0.0000000E+00;  5.4101376E-05;  2.2271568E-01;
  1.5999997E-01;  9.9999998E-03;  1.4000000E-01;1299; -1.0892990E-04;  0.0000000E+00;  6.1868850E-06;  1.0000008E+03;  4.0000001E-01;  6.9133836E-01;3; -1.9522831E-01;  0.0000000E+00;  1.0768423E-02;0; -1.4798868E-03;  1.0000016E+04;  0.0000000E+00; -8.7991639E-14;  1.0000000E+04;  0.0000000E+00;  1.0000000E+04; -1.5407442E-03;  0.0000000E+00;  6.0857357E-05;  2.4546108E-01;
  1.7999995E-01;  9.9999998E-03;  1.9598189E-15;1323; -1.5236567E-04;  0.0000000E+00;  1.1341844E-11;  1.0000011E+03;  4.0000001E-01;  8.8886362E-01;3; -2.6239860E-01;  0.0000000E+00;  3.6712528E-08;0; -2.0591214E-03;  1.0000021E+04;  0.0000000E+00; -5.1750851E-18;  1.0000000E+04;  0.0000000E+00;  1.0000000E+04; -2.0999797E-03;  0.0000000E+00;  4.0858366E-05;  2.0498590E-01;
  1.7999995E-01;  9.9999998E-03;  2.0000000E-02;1324; -1.5231145E-04;  0.0000000E+00;  8.5456935E-07;  1.0000011E+03;  4.0000001E-01;  8.8886362E-01;3; -2.6236448E-01;  0.0000000E+00;  1.4482826E-03;0; -2.0578997E-03;  1.0000021E+04;  0.0000000E+00; -8.7134699E-13;  1.0000000E+04;  0.0000000E+00;  1.0000000E+04; -2.0997180E-03;  0.0000000E+00;  4.1818261E-05;  2.0804405E-01;
  1.7999995E-01;  9.9999998E-03;  3.9999999E-02;1325; -1.5214157E-04;  0.0000000E+00;  1.7481520E-06;  1.0000011E+03;  4.0000001E-01;  8.8886362E-01;3; -2.6225004E-01;  0.0000000E+00;  2.9551438E-03;0; -2.0541602E-03;  1.0000021E+04;  0.0000000E+00; -4.5284496E-13;  1.0000000E+04;  0.0000000E+00;  1.0000000E+04; -2.0988525E-03;  0.0000000E+00;  4.4692380E-05;  2.1723808E-01;
  1.7999995E-01;  9.9999998E-03;  6.0000002E-02;1326; -1.5183665E-04;  0.0000000E+00;  2.7120054E-06;  1.0000011E+03;  4.0000001E-01;  8.8886362E-01;3; -2.6202229E-01;  0.0000000E+00;  4.5605307E-03;0; -2.0476677E-03;  1.0000021E+04;  0.0000000E+00; -2.8197553E-12;  1.0000000E+04;  0.0000000E+00;  1.0000000E+04; -2.0971214E-03;  0.0000000E+00;  4.9453654E-05;  2.3258966E-01;
  1.7999995E-01;  9.9999998E-03;  7.9999998E-02;1327; -1.5135827E-04;  0.0000000E+00;  3.7949276E-06;  1.0000011E+03;  4.0000001E-01;  8.8886362E-01;3; -2.6161352E-01;  0.0000000E+00;  6.3630813E-03;0; -2.0379894E-03;  1.0000021E+04;  0.0000000E+00;  3.6123082E-13;  1.0000000E+04;  0.0000000E+00;  1.0000000E+04; -2.0940136E-03;  0.0000000E+00;  5.6024259E-05;  2.5402296E-01;
  1.7999995E-01;  9.9999998E-03;  1.0000000E-01;1328; -1.5064579E-04;  0.0000000E+00;  5.0448689E-06;  1.0000011E+03;  4.0000001E-01;  8.8886362E-01;3; -2.6091754E-01;  0.0000000E+00;  8.4589049E-03;0; -2.0244350E-03;  1.0000021E+04;  0.0000000E+00;  7.5847358E-12;  1.0000000E+04;  0.0000000E+00;  1.0000000E+04; -2.0886692E-03;  0.0000000E+00;  6.4234140E-05;  2.8120789E-01;
  1.7999995E-01;  9.9999998E-03;  1.2000000E-01;1329; -1.4960801E-04;  0.0000000E+00;  6.4860369E-06;  1.0000011E+03;  4.0000001E-01;  8.8886362E-01;3; -2.5976884E-01;  0.0000000E+00;  1.0909702E-02;0; -2.0059657E-03;  1.0000021E+04;  0.0000000E+00; -7.4825519E-13;  1.0000000E+04;  0.0000000E+00;  1.0000000E+04; -2.0797630E-03;  0.0000000E+00;  7.3797222E-05;  3.1343091E-01;
  1.7999995E-01;  9.9999998E-03;  1.4000000E-01;1330; -1.4810171E-04;  0.0000000E+00;  8.1659118E-06;  1.0000011E+03;  4.0000001E-01;  8.8886362E-01;3; -2.5791168E-01;  0.0000000E+00;  1.3786782E-02;0; -1.9810139E-03;  1.0000021E+04;  0.0000000E+00;  7.6710383E-12;  1.0000000E+04;  0.0000000E+00;  1.0000000E+04; -2.0653924E-03;  0.0000000E+00;  8.4378582E-05;  3.4973732E-01;
  1.9999991E-01;  9.9999998E-03;  2.8846711E-15;1354; -2.0485213E-04;  0.0000000E+00;  3.6504836E-12;  1.0000016E+03;  4.0000001E-01;  1.2839141E+00;3; -3.4203306E-01;  0.0000000E+00;  1.8806546E-08;0; -2.7273346E-03;  1.0000031E+04;  0.0000000E+00; -9.2625443E-18;  1.0000000E+04;  0.0000000E+00;  1.0000000E+04; -2.7802493E-03;  0.0000000E+00;  5.2914806E-05;  2.7969232E-01;
  1.9999991E-01;  9.9999998E-03;  2.0000000E-02;1355; -2.0480026E-04;  0.0000000E+00;  1.0779394E-06;  1.0000016E+03;  4.0000001E-01;  1.2839141E+00;3; -3.4203762E-01;  0.0000000E+00;  1.7362438E-03;0; -2.7259735E-03;  1.0000031E+04;  0.0000000E+00; -6.6246189E-13;  1.0000000E+04;  0.0000000E+00;  1.0000000E+04; -2.7802035E-03;  0.0000000E+00;  5.4229997E-05;  2.8397772E-01;
  1.9999991E-01;  9.9999998E-03;  3.9999999E-02;1356; -2.0463542E-04;  0.0000000E+00;  2.2111840E-06;  1.0000016E+03;  4.0000001E-01;  1.2839141E+00;3; -3.4203464E-01;  0.0000000E+00;  3.5603107E-03;0; -2.7217879E-03;  1.0000031E+04;  0.0000000E+00;  1.6451512E-12;  1.0000000E+04;  0.0000000E+00;  1.0000000E+04; -2.7799767E-03;  0.0000000E+00;  5.8188820E-05;  2.9692307E-01;
  1.9999991E-01;  9.9999998E-03;  6.0000002E-02;1357; -2.0433259E-04;  0.0000000E+00;  3.4500456E-06;  1.0000016E+03;  4.0000001E-01;  1.2839141E+00;3; -3.4198117E-01;  0.0000000E+00;  5.5478471E-03;0; -2.7144698E-03;  1.0000031E+04;  0.0000000E+00;  8.1693154E-13;  1.0000000E+04;  0.0000000E+00;  1.0000000E+04; -2.7792861E-03;  0.0000000E+00;  6.4816268E-05;  3.1874597E-01;
  1.9999991E-01;  9.9999998E-03;  8.0000006E-02;1358; -2.0384135E-04;  0.0000000E+00;  4.8606794E-06;  1.0000016E+03;  4.0000001E-01;  1.2839141E+00;3; -3.4178495E-01;  0.0000000E+00;  7.8290096E-03;0; -2.7034355E-03;  1.0000031E+04;  0.0000000E+00;  1.8844024E-12;  1.0000000E+04;  0.0000000E+00;  1.0000000E+04; -2.7775448E-03;  0.0000000E+00;  7.4109266E-05;  3.4966564E-01;
  1.9999991E-01;  9.9999998E-03;  1.0000000E-01;1359; -2.0308269E-04;  0.0000000E+00;  6.5154127E-06;  1.0000016E+03;  4.0000001E-01;  1.2839141E+00;3; -3.4131038E-01;  0.0000000E+00;  1.0534743E-02;0; -2.6877574E-03;  1.0000031E+04;  0.0000000E+00;  7.4774475E-12;  1.0000000E+04;  0.0000000E+00;  1.0000000E+04; -2.7737452E-03;  0.0000000E+00;  8.5987776E-05;  3.8973057E-01;
  1.9999991E-01;  9.9999998E-03;  1.2000000E-01;1360; -2.0194080E-04;  0.0000000E+00;  8.4473768E-06;  1.0000016E+03;  4.0000001E-01;  1.2839141E+00;3; -3.4035337E-01;  0.0000000E+00;  1.3741211E-02;0; -2.6659872E-03;  1.0000031E+04;  0.0000000E+00;  1.3503702E-12;  1.0000000E+04;  0.0000000E+00;  9.9999990E+03; -2.7662825E-03;  0.0000000E+00;  1.0029520E-04;  4.3876100E-01;
  1.9999991E-01;  9.9999998E-03;  1.4000000E-01;1361; -2.0022650E-04;  0.0000000E+00;  1.0733057E-05;  1.0000015E+03;  4.0000001E-01;  1.2839141E+00;3; -3.3858228E-01;  0.0000000E+00;  1.7562905E-02;0; -2.6358778E-03;  1.0000031E+04;  0.0000000E+00; -1.4888620E-11;  1.0000000E+04;  0.0000000E+00;  9.9999990E+03; -2.7528377E-03;  0.0000000E+00;  1.1695996E-04;  4.9678111E-01;
  2.1999989E-01;  9.9999998E-03;  6.8877151E-16;1385; -2.7386475E-04;  0.0000000E+00;  2.7844272E-12;  1.0000021E+03;  4.0000001E-01;  1.6789646E+00;3; -4.4314429E-01;  0.0000000E+00;  3.7174161E-08;0; -3.5906427E-03;  1.0000042E+04;  0.0000000E+00;  8.8283771E-18;  1.0000000E+04;  0.0000000E+00;  1.0000000E+04; -3.6588246E-03;  0.0000000E+00;  6.8181813E-05;  3.7983677E-01;
  2.1999989E-01;  9.9999998E-03;  2.0000001E-02;1386; -2.7382077E-04;  0.0000000E+00;  1.3502876E-06;  1.0000021E+03;  4.0000001E-01;  1.6789646E+00;3; -4.4320607E-01;  0.0000000E+00;  2.0494352E-03;0; -3.5892013E-03;  1.0000042E+04;  0.0000000E+00;  9.6914854E-14;  1.0000000E+04;  0.0000000E+00;  1.0000000E+04; -3.6591501E-03;  0.0000000E+00;  6.9948816E-05;  3.8573152E-01;
  2.1999989E-01;  9.9999998E-03;  4.0000003E-02;1387; -2.7367822E-04;  0.0000000E+00;  2.7776209E-06;  1.0000020E+03;  4.0000001E-01;  1.6789646E+00;3; -4.4337147E-01;  0.0000000E+00;  4.2277467E-03;0; -3.5847477E-03;  1.0000042E+04;  0.0000000E+00;  2.0075799E-12;  1.0000000E+04;  0.0000000E+00;  1.0000000E+04; -3.6600481E-03;  0.0000000E+00;  7.5300501E-05;  4.0363541E-01;
  2.1999989E-01;  9.9999998E-03;  6.0000002E-02;1388; -2.7340729E-04;  0.0000000E+00;  4.3591467E-06;  1.0000020E+03;  4.0000001E-01;  1.6789646E+00;3; -4.4359019E-01;  0.0000000E+00;  6.6593620E-03;0; -3.5768677E-03;  1.0000042E+04;  0.0000000E+00; -3.1353711E-12;  1.0000000E+04;  0.0000000E+00;  1.0000000E+04; -3.6612377E-03;  0.0000000E+00;  8.4369967E-05;  4.3414491E-01;
  2.1999989E-01;  9.9999998E-03;  8.0000006E-02;1389; -2.7294891E-04;  0.0000000E+00;  6.1827873E-06;  1.0000020E+03;  4.0000001E-01;  1.5802020E+00;3; -4.4375873E-01;  0.0000000E+00;  9.5139295E-03;0; -3.5647815E-03;  1.0000042E+04;  0.0000000E+00; -2.2550499E-12;  1.0000000E+04;  0.0000000E+00;  9.9999990E+03; -3.6621068E-03;  0.0000000E+00;  9.7325297E-05;  4.7809881E-01;
  2.1999989E-01;  9.9999998E-03;  1.0000000E-01;1390; -2.7220330E-04;  0.0000000E+00;  8.3568202E-06;  1.0000020E+03;  4.0000001E-01;  1.5802020E+00;3; -4.4370827E-01;  0.0000000E+00;  1.2977874E-02;0; -3.5471928E-03;  1.0000042E+04;  0.0000000E+00;  5.2197530E-12;  1.0000000E+04;  0.0000000E+00;  9.9999990E+03; -3.6615138E-03;  0.0000000E+00;  1.1432102E-04;  5.3643668E-01;
  2.1999989E-01;  9.9999998E-03;  1.2000000E-01;1391; -2.7102526E-04;  0.0000000E+00;  1.0925345E-05;  1.0000020E+03;  4.0000001E-01;  1.5802020E+00;3; -4.4318876E-01;  0.0000000E+00;  1.7135272E-02;0; -3.5220436E-03;  1.0000042E+04;  0.0000000E+00; -7.0381171E-12;  1.0000000E+04;  0.0000000E+00;  9.9999990E+03; -3.6575918E-03;  0.0000000E+00;  1.3554825E-04;  6.1031008E-01;
  2.1999989E-01;  9.9999998E-03;  1.4000000E-01;1392; -2.6916494E-04;  0.0000000E+00;  1.4013226E-05;  1.0000020E+03;  4.0000001E-01;  1.5802020E+00;3; -4.4176844E-01;  0.0000000E+00;  2.2187732E-02;0; -3.4860286E-03;  1.0000041E+04;  0.0000000E+00;  5.4936277E-12;  1.0000000E+04;  0.0000000E+00;  9.9999990E+03; -3.6475633E-03;  0.0000000E+00;  1.6153461E-04;  7.0198524E-01;
  2.3999985E-01;  9.9999998E-03; -7.7464983E-15;1416; -3.6394529E-04;  0.0000000E+00; -4.8395371E-11;  1.0000027E+03;  4.0000001E-01;  2.2715404E+00;3; -5.7056600E-01;  0.0000000E+00; -1.9356355E-07;0; -4.6983436E-03;  1.0000057E+04;  0.0000000E+00; -4.3201327E-18;  1.0000000E+04;  0.0000000E+00;  1.0000000E+04; -4.7859144E-03;  0.0000000E+00;  8.7570661E-05;  5.1389265E-01;
  2.3999985E-01;  9.9999998E-03;  2.0000001E-02;1417; -3.6391907E-04;  0.0000000E+00;  1.6851665E-06;  1.0000027E+03;  4.0000001E-01;  2.2715404E+00;3; -5.7071382E-01;  0.0000000E+00;  2.3939009E-03;0; -4.6969354E-03;  1.0000057E+04;  0.0000000E+00; -2.6935621E-14;  1.0000000E+04;  0.0000000E+00;  1.0000000E+04; -4.7868248E-03;  0.0000000E+00;  8.9889472E-05;  5.2184004E-01;
  2.3999985E-01;  9.9999998E-03;  4.0000003E-02;1418; -3.6382963E-04;  0.0000000E+00;  3.4734492E-06;  1.0000027E+03;  4.0000001E-01;  2.2715404E+00;3; -5.7113791E-01;  0.0000000E+00;  4.9664234E-03;0; -4.6925503E-03;  1.0000057E+04;  0.0000000E+00; -2.3887600E-12;  1.0000000E+04;  0.0000000E+00;  9.9999990E+03; -4.7895131E-03;  0.0000000E+00;  9.6962875E-05;  5.4612285E-01;
  2.3999985E-01;  9.9999998E-03;  6.0000002E-02;1419; -3.6364459E-04;  0.0000000E+00;  5.4767452E-06;  1.0000027E+03;  4.0000001E-01;  2.2715404E+00;3; -5.7178569E-01;  0.0000000E+00;  7.9041785E-03;0; -4.6846387E-03;  1.0000056E+04;  0.0000000E+00; -5.9331776E-12;  1.0000000E+04;  0.0000000E+00;  9.9999990E+03; -4.7937580E-03;  0.0000000E+00;  1.0911920E-04;  5.8799452E-01;
  2.3999985E-01;  9.9999998E-03;  8.0000006E-02;1420; -3.6329977E-04;  0.0000000E+00;  7.8094135E-06;  1.0000027E+03;  4.0000001E-01;  2.2715404E+00;3; -5.7254571E-01;  0.0000000E+00;  1.1422278E-02;0; -4.6721525E-03;  1.0000056E+04;  0.0000000E+00; -5.1935418E-12;  1.0000000E+04;  0.0000000E+00;  9.9999990E+03; -4.7989991E-03;  0.0000000E+00;  1.2684651E-04;  6.4941239E-01;
  2.3999985E-01;  9.9999998E-03;  1.0000000E-01;1421; -3.6267456E-04;  0.0000000E+00;  1.0632834E-05;  1.0000027E+03;  4.0000001E-01;  2.2715404E+00;3; -5.7321680E-01;  0.0000000E+00;  1.5803024E-02;0; -4.6532885E-03;  1.0000056E+04;  0.0000000E+00;  2.8851502E-12;  1.0000000E+04;  0.0000000E+00;  9.9999990E+03; -4.8040464E-03;  0.0000000E+00;  1.5075794E-04;  7.3299783E-01;
  2.3999985E-01;  9.9999998E-03;  1.2000000E-01;1422; -3.6158986E-04;  0.0000000E+00;  1.4008411E-05;  1.0000026E+03;  4.0000001E-01;  2.1727777E+00;3; -5.7350004E-01;  0.0000000E+00;  2.1125328E-02;0; -4.6250750E-03;  1.0000056E+04;  0.0000000E+00;  2.9427436E-11;  1.0000000E+04;  0.0000000E+00;  9.9999980E+03; -4.8067914E-03;  0.0000000E+00;  1.8171626E-04;  8.4245032E-01;
  2.3999985E-01;  9.9999998E-03;  1.4000000E-01;1423; -3.5971947E-04;  0.0000000E+00;  1.8138689E-05;  1.0000026E+03;  4.0000001E-01;  2.1727777E+00;3; -5.7283032E-01;  0.0000000E+00;  2.7751705E-02;0; -4.5826631E-03;  1.0000056E+04;  0.0000000E+00;  1.2715794E-11;  1.0000000E+04;  0.0000000E+00;  9.9999980E+03; -4.8039728E-03;  0.0000000E+00;  2.2130950E-04;  9.8410767E-01;
  2.5999978E-01;  9.9999998E-03;  6.6449163E-16;1447; -4.8063858E-04;  0.0000000E+00;  1.5141126E-11;  1.0000038E+03;  4.0000001E-01;  3.1604037E+00;3; -7.2970676E-01;  0.0000000E+00;  2.8834904E-08;0; -6.1096624E-03;  1.0000077E+04;  0.0000000E+00; -2.7401584E-18;  1.0000000E+04;  0.0000000E+00;  9.9999990E+03; -6.2220925E-03;  0.0000000E+00;  1.1243036E-04;  6.9350761E-01;
  2.5999978E-01;  9.9999998E-03;  2.0000001E-02;1448; -4.8064522E-04;  0.0000000E+00;  2.1005874E-06;  1.0000038E+03;  4.0000001E-01;  3.1604037E+00;3; -7.2998250E-01;  0.0000000E+00;  2.7756549E-03;0; -6.1084777E-03;  1.0000077E+04;  0.0000000E+00;  1.9838961E-12;  1.0000000E+04;  0.0000000E+00;  9.9999990E+03; -6.2238686E-03;  0.0000000E+00;  1.1539075E-04;  7.0400202E-01;
  2.5999978E-01;  9.9999998E-03;  4.0000003E-02;1449; -4.8065753E-04;  0.0000000E+00;  4.3326063E-06;  1.0000038E+03;  4.0000001E-01;  3.1604037E+00;3; -7.3079717E-01;  0.0000000E+00;  5.7849544E-03;0; -6.1047161E-03;  1.0000077E+04;  0.0000000E+00;  2.3363150E-13;  1.0000000E+04;  0.0000000E+00;  9.9999990E+03; -6.2292120E-03;  0.0000000E+00;  1.2449580E-04;  7.3627180E-01;
  2.5999978E-01;  9.9999998E-03;  6.0000002E-02;1450; -4.8064432E-04;  0.0000000E+00;  6.8504141E-06;  1.0000038E+03;  4.0000001E-01;  3.1604037E+00;3; -7.3209858E-01;  0.0000000E+00;  9.2900973E-03;0; -6.0976851E-03;  1.0000077E+04;  0.0000000E+00;  2.3327828E-12;  1.0000000E+04;  0.0000000E+00;  9.9999990E+03; -6.2380764E-03;  0.0000000E+00;  1.4039128E-04;  7.9260778E-01;
  2.5999978E-01;  9.9999998E-03;  8.0000006E-02;1451; -4.8054248E-04;  0.0000000E+00;  9.7970278E-06;  1.0000037E+03;  4.0000001E-01;  3.0616412E+00;3; -7.3377955E-01;  0.0000000E+00;  1.3552025E-02;0; -6.0859947E-03;  1.0000077E+04;  0.0000000E+00;  2.1557393E-12;  1.0000000E+04;  0.0000000E+00;  9.9999980E+03; -6.2500904E-03;  0.0000000E+00;  1.6409566E-04;  8.7677664E-01;
  2.5999978E-01;  9.9999998E-03;  1.0000001E-01;1452; -4.8021422E-04;  0.0000000E+00;  1.3404321E-05;  1.0000037E+03;  4.0000001E-01;  3.0616412E+00;3; -7.3560888E-01;  0.0000000E+00;  1.8972130E-02;0; -6.0671750E-03;  1.0000077E+04;  0.0000000E+00;  1.3602438E-11;  1.0000000E+04;  0.0000000E+00;  9.9999980E+03; -6.2641697E-03;  0.0000000E+00;  1.9699453E-04;  9.9418485E-01;
  2.5999978E-01;  9.9999998E-03;  1.2000000E-01;1453; -4.7944669E-04;  0.0000000E+00;  1.7785156E-05;  1.0000037E+03;  4.0000001E-01;  3.0616412E+00;3; -7.3723912E-01;  0.0000000E+00;  2.5707664E-02;0; -6.0369880E-03;  1.0000076E+04;  0.0000000E+00;  2.6145463E-11;  1.0000000E+04;  0.0000000E+00;  9.9999980E+03; -6.2780469E-03;  0.0000000E+00;  2.4105870E-04;  1.1527567E+00;
  2.5999978E-01;  9.9999998E-03;  1.4000002E-01;1454; -4.7782715E-04;  0.0000000E+00;  2.3235005E-05;  1.0000037E+03;  4.0000001E-01;  3.0616412E+00;3; -7.3796195E-01;  0.0000000E+00;  3.4292433E-02;0; -5.9884144E-03;  1.0000076E+04;  0.0000000E+00; -9.2141236E-13;  1.0000000E+04;  0.0000000E+00;  9.9999971E+03; -6.2879366E-03;  0.0000000E+00;  2.9952236E-04;  1.3653796E+00;
  2.7999970E-01;  9.9999998E-03;  3.1173135E-15;1478; -6.3084101E-04;  0.0000000E+00;  1.8921052E-11;  1.0000049E+03;  4.0000001E-01;  4.0492673E+00;3; -9.2673111E-01;  0.0000000E+00;  1.0319525E-08;0; -7.8950627E-03;  1.0000102E+04;  0.0000000E+00;  3.0577337E-17;  1.0000000E+04;  0.0000000E+00;  9.9999990E+03; -8.0399103E-03;  0.0000000E+00;  1.4484800E-04;  9.3497092E-01;
  2.7999970E-01;  9.9999998E-03;  2.0000001E-02;1479; -6.3090399E-04;  0.0000000E+00;  2.6238513E-06;  1.0000049E+03;  4.0000001E-01;  4.0492673E+00;3; -9.2719436E-01;  0.0000000E+00;  3.2089707E-03;0; -7.8943884E-03;  1.0000102E+04;  0.0000000E+00;  5.1951750E-12;  1.0000000E+04;  0.0000000E+00;  9.9999980E+03; -8.0428980E-03;  0.0000000E+00;  1.4851004E-04;  9.4855738E-01;
  2.7999970E-01;  9.9999998E-03;  4.0000003E-02;1480; -6.3108961E-04;  0.0000000E+00;  5.4061593E-06;  1.0000049E+03;  4.0000001E-01;  4.0492673E+00;3; -9.2857885E-01;  0.0000000E+00;  6.7053572E-03;0; -7.8921020E-03;  1.0000102E+04;  0.0000000E+00;  5.8786838E-12;  1.0000000E+04;  0.0000000E+00;  9.9999980E+03; -8.0519821E-03;  0.0000000E+00;  1.5988061E-04;  9.9060059E-01;
  2.7999970E-01;  9.9999998E-03;  6.0000002E-02;1481; -6.3137669E-04;  0.0000000E+00;  8.5502934E-06;  1.0000049E+03;  4.0000001E-01;  4.0492673E+00;3; -9.3084747E-01;  0.0000000E+00;  1.0843561E-02;0; -7.8873783E-03;  1.0000102E+04;  0.0000000E+00; -4.9663693E-12;  1.0000000E+04;  0.0000000E+00;  9.9999980E+03; -8.0674589E-03;  0.0000000E+00;  1.8008020E-04;  1.0649003E+00;
  2.7999970E-01;  9.9999998E-03;  8.0000006E-02;1482; -6.3171465E-04;  0.0000000E+00;  1.2226586E-05;  1.0000049E+03;  4.0000001E-01;  4.0492673E+00;3; -9.3391031E-01;  0.0000000E+00;  1.5909277E-02;0; -7.8784600E-03;  1.0000102E+04;  0.0000000E+00; -7.1891955E-13;  1.0000000E+04;  0.0000000E+00;  9.9999980E+03; -8.0893915E-03;  0.0000000E+00;  2.1093120E-04;  1.1778922E+00;
  2.7999970E-01;  9.9999998E-03;  1.0000001E-01;1483; -6.3196028E-04;  0.0000000E+00;  1.6767233E-05;  1.0000049E+03;  4.0000001E-01;  4.0492673E+00;3; -9.3753070E-01;  0.0000000E+00;  2.2507112E-02;0; -7.8620426E-03;  1.0000102E+04;  0.0000000E+00; -3.6957624E-12;  1.0000000E+04;  0.0000000E+00;  9.9999980E+03; -8.1170434E-03;  0.0000000E+00;  2.5500057E-04;  1.3391739E+00;
  2.7999970E-01;  9.9999998E-03;  1.2000001E-01;1484; -6.3186896E-04;  0.0000000E+00;  2.2364307E-05;  1.0000049E+03;  4.0000001E-01;  4.0492673E+00;3; -9.4130921E-01;  0.0000000E+00;  3.0896343E-02;0; -7.8322757E-03;  1.0000102E+04;  0.0000000E+00;  2.7822406E-11;  1.0000000E+04;  0.0000000E+00;  9.9999961E+03; -8.1481999E-03;  0.0000000E+00;  3.1592403E-04;  1.5630662E+00;
  2.7999970E-01;  9.9999998E-03;  1.4000002E-01;1485; -6.3093723E-04;  0.0000000E+00;  2.9445662E-05;  1.0000049E+03;  4.0000001E-01;  4.0492673E+00;3; -9.4439465E-01;  0.0000000E+00;  4.1846115E-02;0; -7.7792117E-03;  1.0000102E+04;  0.0000000E+00;  2.9029683E-11;  1.0000000E+04;  0.0000000E+00;  9.9999961E+03; -8.1785237E-03;  0.0000000E+00;  3.9931203E-04;  1.8722538E+00;
  2.9999962E-01;  9.9999998E-03; -1.2482847E-14;1509; -8.2325708E-04;  0.0000000E+00; -1.3875226E-11;  1.0000066E+03;  4.0000001E-01;  5.4319429E+00;3; -1.1687435E+00;  0.0000000E+00;  1.4981458E-07;0; -1.0137729E-02;  1.0000134E+04;  0.0000000E+00; -2.0017099E-17;  1.0000000E+04;  0.0000000E+00;  9.9999980E+03; -1.0325840E-02;  0.0000000E+00;  1.8811066E-04;  1.2613190E+00;
  2.9999962E-01;  9.9999998E-03;  2.0000001E-02;1510; -8.2340842E-04;  0.0000000E+00;  3.2996884E-06;  1.0000066E+03;  4.0000001E-01;  5.4319429E+00;3; -1.1694713E+00;  0.0000000E+00;  3.7297669E-03;0; -1.0137953E-02;  1.0000134E+04;  0.0000000E+00;  1.6435299E-12;  1.0000000E+04;  0.0000000E+00;  9.9999980E+03; -1.0330439E-02;  0.0000000E+00;  1.9248540E-04;  1.2786342E+00;
  2.9999962E-01;  9.9999998E-03;  4.0000003E-02;1511; -8.2386984E-04;  0.0000000E+00;  6.7780984E-06;  1.0000066E+03;  4.0000001E-01;  5.4319429E+00;3; -1.1716659E+00;  0.0000000E+00;  7.7890162E-03;0; -1.0138357E-02;  1.0000134E+04;  0.0000000E+00; -1.4818558E-12;  1.0000000E+04;  0.0000000E+00;  9.9999980E+03; -1.0344574E-02;  0.0000000E+00;  2.0621718E-04;  1.3325242E+00;
  2.9999962E-01;  9.9999998E-03;  6.0000006E-02;1512; -8.2464219E-04;  0.0000000E+00;  1.0678873E-05;  1.0000066E+03;  4.0000001E-01;  5.4319429E+00;3; -1.1753256E+00;  0.0000000E+00;  1.2602977E-02;0; -1.0138026E-02;  1.0000135E+04;  0.0000000E+00; -9.5141657E-13;  1.0000000E+04;  0.0000000E+00;  9.9999980E+03; -1.0369115E-02;  0.0000000E+00;  2.3108772E-04;  1.4287978E+00;
  2.9999962E-01;  9.9999998E-03;  8.0000006E-02;1513; -8.2570658E-04;  0.0000000E+00;  1.5232397E-05;  1.0000066E+03;  4.0000001E-01;  5.4319429E+00;3; -1.1804070E+00;  0.0000000E+00;  1.8564399E-02;0; -1.0134877E-02;  1.0000136E+04;  0.0000000E+00;  9.5133259E-12;  1.0000000E+04;  0.0000000E+00;  9.9999971E+03; -1.0404928E-02;  0.0000000E+00;  2.7005083E-04;  1.5775079E+00;
  2.9999962E-01;  9.9999998E-03;  1.0000001E-01;1514; -8.2693557E-04;  0.0000000E+00;  2.0861060E-05;  1.0000066E+03;  4.0000001E-01;  5.4319429E+00;3; -1.1866949E+00;  0.0000000E+00;  2.6435994E-02;0; -1.0124706E-02;  1.0000136E+04;  0.0000000E+00;  1.6892120E-11;  1.0000000E+04;  0.0000000E+00;  9.9999961E+03; -1.0452057E-02;  0.0000000E+00;  3.2735118E-04;  1.7940692E+00;
  2.9999962E-01;  9.9999998E-03;  1.2000001E-01;1515; -8.2806230E-04;  0.0000000E+00;  2.7894808E-05;  1.0000065E+03;  4.0000001E-01;  5.3331804E+00;3; -1.1937528E+00;  0.0000000E+00;  3.6663435E-02;0; -1.0099700E-02;  1.0000136E+04;  0.0000000E+00;  6.6991100E-12;  1.0000000E+04;  0.0000000E+00;  9.9999961E+03; -1.0508678E-02;  0.0000000E+00;  4.0897785E-04;  2.1018369E+00;
  2.9999962E-01;  9.9999998E-03;  1.4000002E-01;1516; -8.2849100E-04;  0.0000000E+00;  3.6895126E-05;  1.0000065E+03;  4.0000001E-01;  5.3331804E+00;3; -1.2005758E+00;  0.0000000E+00;  5.0201174E-02;0; -1.0046209E-02;  1.0000135E+04;  0.0000000E+00; -1.0388078E-11;  1.0000000E+04;  0.0000000E+00;  9.9999941E+03; -1.0570057E-02;  0.0000000E+00;  5.2384729E-04;  2.5374951E+00;
  3.1999949E-01;  9.9999998E-03; -8.9149201E-15;1540; -1.0689124E-03;  0.0000000E+00;  3.5178083E-11;  1.0000086E+03;  4.0000001E-01;  7.1109076E+00;3; -1.4640974E+00;  0.0000000E+00;  1.6605384E-07;0; -1.2935173E-02;  1.0000178E+04;  0.0000000E+00; -6.1953669E-18;  1.0000000E+04;  0.0000000E+00;  9.9999971E+03; -1.3182546E-02;  0.0000000E+00;  2.4737348E-04;  1.7052231E+00;
  3.1999949E-01;  9.9999998E-03;  2.0000001E-02;1541; -1.0691955E-03;  0.0000000E+00;  4.2006868E-06;  1.0000086E+03;  4.0000001E-01;  7.1109076E+00;3; -1.4651864E+00;  0.0000000E+00;  4.4130944E-03;0; -1.2936805E-02;  1.0000178E+04;  0.0000000E+00;  2.8019241E-12;  1.0000000E+04;  0.0000000E+00;  9.9999971E+03; -1.3189221E-02;  0.0000000E+00;  2.5241528E-04;  1.7271456E+00;
  3.1999949E-01;  9.9999998E-03;  4.0000003E-02;1542; -1.0700681E-03;  0.0000000E+00;  8.5922511E-06;  1.0000086E+03;  4.0000001E-01;  7.1109076E+00;3; -1.4684972E+00;  0.0000000E+00;  9.1826366E-03;0; -1.2941489E-02;  1.0000178E+04;  0.0000000E+00; -1.2012384E-12;  1.0000000E+04;  0.0000000E+00;  9.9999971E+03; -1.3209923E-02;  0.0000000E+00;  2.6843374E-04;  1.7956502E+00;
  3.1999949E-01;  9.9999998E-03;  6.0000006E-02;1543; -1.0715738E-03;  0.0000000E+00;  1.3438691E-05;  1.0000086E+03;  4.0000001E-01;  7.1109076E+00;3; -1.4740919E+00;  0.0000000E+00;  1.4758789E-02;0; -1.2948359E-02;  1.0000178E+04;  0.0000000E+00; -1.4027229E-11;  1.0000000E+04;  0.0000000E+00;  9.9999961E+03; -1.3246426E-02;  0.0000000E+00;  2.9806700E-04;  1.9189727E+00;
  3.1999949E-01;  9.9999998E-03;  8.0000013E-02;1544; -1.0737511E-03;  0.0000000E+00;  1.9045838E-05;  1.0000086E+03;  4.0000001E-01;  7.1109076E+00;3; -1.4820240E+00;  0.0000000E+00;  2.1697165E-02;0; -1.2955202E-02;  1.0000177E+04;  0.0000000E+00; -1.4033946E-11;  1.0000000E+04;  0.0000000E+00;  9.9999961E+03; -1.3300953E-02;  0.0000000E+00;  3.4575094E-04;  2.1116316E+00;
  3.1999949E-01;  9.9999998E-03;  1.0000002E-01;1545; -1.0765279E-03;  0.0000000E+00;  2.5931246E-05;  1.0000086E+03;  4.0000001E-01;  7.1109076E+00;3; -1.4921551E+00;  0.0000000E+00;  3.0885139E-02;0; -1.2956999E-02;  1.0000178E+04;  0.0000000E+00;  2.9349253E-12;  1.0000000E+04;  0.0000000E+00;  9.9999961E+03; -1.3374962E-02;  0.0000000E+00;  4.1796250E-04;  2.3964615E+00;
  3.1999949E-01;  9.9999998E-03;  1.2000002E-01;1546; -1.0796294E-03;  0.0000000E+00;  3.4605546E-05;  1.0000085E+03;  4.0000001E-01;  7.1109076E+00;3; -1.5040134E+00;  0.0000000E+00;  4.2972662E-02;0; -1.2943809E-02;  1.0000178E+04;  0.0000000E+00; -5.9580424E-11;  1.0000000E+04;  0.0000000E+00;  9.9999941E+03; -1.3467666E-02;  0.0000000E+00;  5.2385655E-04;  2.8087645E+00;
  3.1999949E-01;  9.9999998E-03;  1.4000002E-01;1547; -1.0824004E-03;  0.0000000E+00;  4.5836889E-05;  1.0000085E+03;  4.0000001E-01;  7.0121446E+00;3; -1.5165316E+00;  0.0000000E+00;  5.9492294E-02;0; -1.2897437E-02;  1.0000179E+04;  0.0000000E+00; -3.2655094E-11;  1.0000000E+04;  0.0000000E+00;  9.9999922E+03; -1.3574289E-02;  0.0000000E+00;  6.7685166E-04;  3.4045320E+00;
  3.3999929E-01;  9.9999998E-03;  5.1682742E-14;1571; -1.3815012E-03;  0.0000000E+00;  1.1443031E-10;  1.0000114E+03;  4.0000001E-01;  9.4812088E+00;3; -1.8226856E+00;  0.0000000E+00;  9.7103225E-08;0; -1.6400730E-02;  1.0000231E+04;  0.0000000E+00;  1.4837739E-17;  1.0000000E+04;  0.0000000E+00;  9.9999961E+03; -1.6731294E-02;  0.0000000E+00;  3.3056454E-04;  2.3127332E+00;
  3.3999929E-01;  9.9999998E-03;  2.0000003E-02;1572; -1.3819677E-03;  0.0000000E+00;  5.4587649E-06;  1.0000114E+03;  4.0000001E-01;  9.4812088E+00;3; -1.8242548E+00;  0.0000000E+00;  5.4286406E-03;0; -1.6404368E-02;  1.0000231E+04;  0.0000000E+00; -6.2675013E-12;  1.0000000E+04;  0.0000000E+00;  9.9999961E+03; -1.6740562E-02;  0.0000000E+00;  3.3619508E-04;  2.3407412E+00;
  3.3999929E-01;  9.9999998E-03;  4.0000007E-02;1573; -1.3834148E-03;  0.0000000E+00;  1.1099643E-05;  1.0000114E+03;  4.0000001E-01;  9.4812088E+00;3; -1.8290418E+00;  0.0000000E+00;  1.1193350E-02;0; -1.6415199E-02;  1.0000231E+04;  0.0000000E+00; -7.7378269E-12;  1.0000000E+04;  0.0000000E+00;  9.9999961E+03; -1.6769515E-02;  0.0000000E+00;  3.5431536E-04;  2.4283304E+00;
  3.3999929E-01;  9.9999998E-03;  6.0000010E-02;1574; -1.3859551E-03;  0.0000000E+00;  1.7187655E-05;  1.0000114E+03;  4.0000001E-01;  9.4812088E+00;3; -1.8372306E+00;  0.0000000E+00;  1.7722484E-02;0; -1.6432738E-02;  1.0000231E+04;  0.0000000E+00;  1.0293271E-11;  1.0000000E+04;  0.0000000E+00;  9.9999961E+03; -1.6821317E-02;  0.0000000E+00;  3.8858014E-04;  2.5863211E+00;
  3.3999929E-01;  9.9999998E-03;  8.0000013E-02;1575; -1.3897280E-03;  0.0000000E+00;  2.4107278E-05;  1.0000115E+03;  4.0000001E-01;  9.4812088E+00;3; -1.8490428E+00;  0.0000000E+00;  2.5743315E-02;0; -1.6455043E-02;  1.0000233E+04;  0.0000000E+00; -2.3999153E-11;  1.0000000E+04;  0.0000000E+00;  9.9999951E+03; -1.6900262E-02;  0.0000000E+00;  4.4521832E-04;  2.8341181E+00;
  3.3999929E-01;  9.9999998E-03;  1.0000002E-01;1576; -1.3947715E-03;  0.0000000E+00;  3.2461277E-05;  1.0000114E+03;  4.0000001E-01;  9.4812088E+00;3; -1.8645017E+00;  0.0000000E+00;  3.6257043E-02;0; -1.6476691E-02;  1.0000233E+04;  0.0000000E+00; -2.7387198E-11;  1.0000000E+04;  0.0000000E+00;  9.9999932E+03; -1.7010149E-02;  0.0000000E+00;  5.3345796E-04;  3.2030311E+00;
  3.3999929E-01;  9.9999998E-03;  1.2000002E-01;1577; -1.4008464E-03;  0.0000000E+00;  4.3036220E-05;  1.0000114E+03;  4.0000001E-01;  9.3824463E+00;3; -1.8831489E+00;  0.0000000E+00;  5.0266128E-02;0; -1.6485704E-02;  1.0000234E+04;  0.0000000E+00;  1.0159255E-11;  1.0000000E+04;  0.0000000E+00;  9.9999922E+03; -1.7152190E-02;  0.0000000E+00;  6.6648645E-04;  3.7429616E+00;
  3.3999929E-01;  9.9999998E-03;  1.4000003E-01;1578; -1.4072920E-03;  0.0000000E+00;  5.6768007E-05;  1.0000113E+03;  4.0000001E-01;  9.3824463E+00;3; -1.9039166E+00;  0.0000000E+00;  6.9807418E-02;0; -1.6458696E-02;  1.0000235E+04;  0.0000000E+00;  4.7405378E-11;  1.0000000E+04;  0.0000000E+00;  9.9999893E+03; -1.7322412E-02;  0.0000000E+00;  8.6371659E-04;  4.5354896E+00;
  3.5999906E-01;  9.9999998E-03;  8.3071232E-15;1602; -1.7772081E-03;  0.0000000E+00;  1.3292009E-10;  1.0000149E+03;  4.0000001E-01;  1.2345323E+01;3; -2.2557983E+00;  0.0000000E+00;  3.4538652E-07;0; -2.0664560E-02;  1.0000303E+04;  0.0000000E+00; -4.1077045E-17;  1.0000000E+04;  0.0000000E+00;  9.9999951E+03; -2.1114087E-02;  0.0000000E+00;  4.4952729E-04;  3.1478565E+00;
  3.5999906E-01;  9.9999998E-03;  2.0000003E-02;1603; -1.7779114E-03;  0.0000000E+00;  7.2928292E-06;  1.0000149E+03;  4.0000001E-01;  1.2345323E+01;3; -2.2579708E+00;  0.0000000E+00;  7.0780455E-03;0; -2.0670770E-02;  1.0000303E+04;  0.0000000E+00; -1.7556887E-12;  1.0000000E+04;  0.0000000E+00;  9.9999941E+03; -2.1126490E-02;  0.0000000E+00;  4.5571991E-04;  3.1847026E+00;
  3.5999906E-01;  9.9999998E-03;  4.0000007E-02;1604; -1.7801054E-03;  0.0000000E+00;  1.4730083E-05;  1.0000149E+03;  4.0000001E-01;  1.2345323E+01;3; -2.2646303E+00;  0.0000000E+00;  1.4399695E-02;0; -2.0689663E-02;  1.0000303E+04;  0.0000000E+00;  2.5348111E-12;  1.0000000E+04;  0.0000000E+00;  9.9999932E+03; -2.1165544E-02;  0.0000000E+00;  4.7588249E-04;  3.2995417E+00;
  3.5999906E-01;  9.9999998E-03;  6.0000014E-02;1605; -1.7840123E-03;  0.0000000E+00;  2.2549930E-05;  1.0000149E+03;  4.0000001E-01;  1.2345323E+01;3; -2.2761462E+00;  0.0000000E+00;  2.2291206E-02;0; -2.0721650E-02;  1.0000303E+04;  0.0000000E+00; -2.5351287E-11;  1.0000000E+04;  0.0000000E+00;  9.9999932E+03; -2.1236407E-02;  0.0000000E+00;  5.1475619E-04;  3.5054684E+00;
  3.5999906E-01;  9.9999998E-03;  8.0000021E-02;1606; -1.7899306E-03;  0.0000000E+00;  3.1212410E-05;  1.0000148E+03;  4.0000001E-01;  1.2246560E+01;3; -2.2930043E+00;  0.0000000E+00;  3.1637982E-02;0; -2.0765839E-02;  1.0000304E+04;  0.0000000E+00; -1.2476215E-11;  1.0000000E+04;  0.0000000E+00;  9.9999932E+03; -2.1346344E-02;  0.0000000E+00;  5.8050494E-04;  3.8262484E+00;
  3.5999906E-01;  9.9999998E-03;  1.0000002E-01;1607; -1.7980952E-03;  0.0000000E+00;  4.1358388E-05;  1.0000148E+03;  4.0000001E-01;  1.2246560E+01;3; -2.3155315E+00;  0.0000000E+00;  4.3452796E-02;0; -2.0817326E-02;  1.0000305E+04;  0.0000000E+00;  6.5869782E-11;  1.0000000E+04;  0.0000000E+00;  9.9999912E+03; -2.1502735E-02;  0.0000000E+00;  6.8540813E-04;  4.3012686E+00;
  3.5999906E-01;  9.9999998E-03;  1.2000003E-01;1608; -1.8083873E-03;  0.0000000E+00;  5.4171396E-05;  1.0000148E+03;  4.0000001E-01;  1.2246560E+01;3; -2.3434210E+00;  0.0000000E+00;  5.9486277E-02;0; -2.0862725E-02;  1.0000307E+04;  0.0000000E+00;  1.2799627E-10;  1.0000000E+04;  0.0000000E+00;  9.9999893E+03; -2.1710139E-02;  0.0000000E+00;  8.4741507E-04;  4.9963875E+00;
  3.5999906E-01;  9.9999998E-03;  1.4000005E-01;1609; -1.8202334E-03;  0.0000000E+00;  7.0698414E-05;  1.0000147E+03;  4.0000001E-01;  1.2147798E+01;3; -2.3757076E+00;  0.0000000E+00;  8.1857271E-02;0; -2.0873118E-02;  1.0000309E+04;  0.0000000E+00;  9.1833381E-11;  1.0000000E+04;  0.0000000E+00;  9.9999863E+03; -2.1966746E-02;  0.0000000E+00;  1.0936270E-03;  6.0252395E+00;
  3.7999877E-01;  9.9999998E-03;  1.4288001E-14;1633; -2.2740541E-03;  0.0000000E+00;  1.9907379E-10;  1.0000192E+03;  4.0000001E-01;  1.5900773E+01;3; -2.7752225E+00;  0.0000000E+00;  7.2271280E-07;0; -2.5874093E-02;  1.0000392E+04;  0.0000000E+00; -6.9166163E-18;  1.0000000E+04;  0.0000000E+00;  9.9999932E+03; -2.6495412E-02;  0.0000000E+00;  6.2131911E-04;  4.2976742E+00;
  3.7999877E-01;  9.9999998E-03;  2.0000005E-02;1634; -2.2750427E-03;  0.0000000E+00;  1.0053795E-05;  1.0000192E+03;  4.0000001E-01;  1.5900773E+01;3; -2.7781229E+00;  0.0000000E+00;  9.8707536E-03;0; -2.5883282E-02;  1.0000392E+04;  0.0000000E+00; -2.4847159E-11;  1.0000000E+04;  0.0000000E+00;  9.9999932E+03; -2.6511565E-02;  0.0000000E+00;  6.2828395E-04;  4.3485398E+00;
  3.7999877E-01;  9.9999998E-03;  4.0000010E-02;1635; -2.2781470E-03;  0.0000000E+00;  2.0178812E-05;  1.0000193E+03;  4.0000001E-01;  1.5999536E+01;3; -2.7870564E+00;  0.0000000E+00;  1.9789580E-02;0; -2.5911694E-02;  1.0000392E+04;  0.0000000E+00; -3.8548081E-11;  1.0000000E+04;  0.0000000E+00;  9.9999922E+03; -2.6562784E-02;  0.0000000E+00;  6.5108866E-04;  4.5059233E+00;
  3.7999877E-01;  9.9999998E-03;  6.0000017E-02;1636; -2.2837501E-03;  0.0000000E+00;  3.0559986E-05;  1.0000193E+03;  4.0000001E-01;  1.5999536E+01;3; -2.8026655E+00;  0.0000000E+00;  2.9891144E-02;0; -2.5961474E-02;  1.0000394E+04;  0.0000000E+00; -4.0168587E-11;  1.0000000E+04;  0.0000000E+00;  9.9999902E+03; -2.6656928E-02;  0.0000000E+00;  6.9545466E-04;  4.7842064E+00;
  3.7999877E-01;  9.9999998E-03;  8.0000021E-02;1637; -2.2923984E-03;  0.0000000E+00;  4.1712272E-05;  1.0000192E+03;  4.0000001E-01;  1.5900773E+01;3; -2.8258491E+00;  0.0000000E+00;  4.1146945E-02;0; -2.6034120E-02;  1.0000395E+04;  0.0000000E+00; -4.3701948E-11;  1.0000000E+04;  0.0000000E+00;  9.9999902E+03; -2.6805392E-02;  0.0000000E+00;  7.7127159E-04;  5.2093668E+00;
  3.7999874E-01;  9.9999998E-03;  1.0000003E-01;1638; -2.3046564E-03;  0.0000000E+00;  5.4273522E-05;  1.0000192E+03;  4.0000001E-01;  1.5900773E+01;3; -2.8574448E+00;  0.0000000E+00;  5.4497968E-02;0; -2.6126906E-02;  1.0000396E+04;  0.0000000E+00;  1.2745757E-11;  1.0000000E+04;  0.0000000E+00;  9.9999883E+03; -2.7020559E-02;  0.0000000E+00;  8.9365221E-04;  5.8259039E+00;
  3.7999874E-01;  9.9999998E-03;  1.2000004E-01;1639; -2.3206882E-03;  0.0000000E+00;  6.9757087E-05;  1.0000192E+03;  4.0000001E-01;  1.5900773E+01;3; -2.8975389E+00;  0.0000000E+00;  7.2371356E-02;0; -2.6226509E-02;  1.0000398E+04;  0.0000000E+00;  2.8230146E-10;  1.0000000E+04;  0.0000000E+00;  9.9999863E+03; -2.7312061E-02;  0.0000000E+00;  1.0855508E-03;  6.7140980E+00;
  3.7999874E-01;  9.9999998E-03;  1.4000005E-01;1640; -2.3401007E-03;  0.0000000E+00;  8.9593683E-05;  1.0000192E+03;  4.0000001E-01;  1.5900773E+01;3; -2.9453418E+00;  0.0000000E+00;  9.7442009E-02;0; -2.6298877E-02;  1.0000401E+04;  0.0000000E+00;  1.2415788E-10;  1.0000000E+04;  0.0000000E+00;  9.9999814E+03; -2.7682191E-02;  0.0000000E+00;  1.3833146E-03;  8.0244608E+00;
  3.9999837E-01;  9.9999998E-03; -1.6171894E-14;1664; -2.8916064E-03;  0.0000000E+00;  1.1402884E-10;  1.0000248E+03;  4.0000001E-01;  2.0542608E+01;3; -3.3923862E+00;  0.0000000E+00;  6.8452960E-07;0; -3.2193203E-02;  1.0000508E+04;  0.0000000E+00; -2.8108491E-17;  1.0000000E+04;  0.0000000E+00;  9.9999893E+03; -3.3062693E-02;  0.0000000E+00;  8.6948846E-04;  5.8772817E+00;
  3.9999837E-01;  9.9999998E-03;  2.0000009E-02;1665; -2.8929173E-03;  0.0000000E+00;  1.4264016E-05;  1.0000248E+03;  4.0000001E-01;  2.0542608E+01;3; -3.3961225E+00;  0.0000000E+00;  1.4614024E-02;0; -3.2205299E-02;  1.0000508E+04;  0.0000000E+00; -2.2617932E-11;  1.0000000E+04;  0.0000000E+00;  9.9999893E+03; -3.3083305E-02;  0.0000000E+00;  8.7800453E-04;  5.9515400E+00;
  3.9999837E-01;  9.9999998E-03;  4.0000018E-02;1666; -2.8970724E-03;  0.0000000E+00;  2.8486598E-05;  1.0000248E+03;  4.0000001E-01;  2.0542608E+01;3; -3.4077156E+00;  0.0000000E+00;  2.8894912E-02;0; -3.2243453E-02;  1.0000509E+04;  0.0000000E+00; -1.6444256E-11;  1.0000000E+04;  0.0000000E+00;  9.9999893E+03; -3.3149119E-02;  0.0000000E+00;  9.0566702E-04;  6.1791182E+00;
  3.9999837E-01;  9.9999998E-03;  6.0000025E-02;1667; -2.9046843E-03;  0.0000000E+00;  4.2800417E-05;  1.0000248E+03;  4.0000001E-01;  2.0542608E+01;3; -3.4281857E+00;  0.0000000E+00;  4.2770989E-02;0; -3.2312728E-02;  1.0000509E+04;  0.0000000E+00;  5.3059526E-11;  1.0000000E+04;  0.0000000E+00;  9.9999873E+03; -3.3271499E-02;  0.0000000E+00;  9.5877005E-04;  6.5737658E+00;
  3.9999837E-01;  9.9999998E-03;  8.0000035E-02;1668; -2.9166765E-03;  0.0000000E+00;  5.7685633E-05;  1.0000248E+03;  4.0000001E-01;  2.0542608E+01;3; -3.4590526E+00;  0.0000000E+00;  5.7038035E-02;0; -3.2419045E-02;  1.0000511E+04;  0.0000000E+00;  5.5422975E-11;  1.0000000E+04;  0.0000000E+00;  9.9999854E+03; -3.3467200E-02;  0.0000000E+00;  1.0481562E-03;  7.1595073E+00;
  3.9999837E-01;  9.9999998E-03;  1.0000005E-01;1669; -2.9341229E-03;  0.0000000E+00;  7.3850861E-05;  1.0000248E+03;  4.0000001E-01;  2.0542608E+01;3; -3.5019195E+00;  0.0000000E+00;  7.2788768E-02;0; -3.2564446E-02;  1.0000512E+04;  0.0000000E+00;  2.4682342E-10;  1.0000000E+04;  0.0000000E+00;  9.9999834E+03; -3.3755150E-02;  0.0000000E+00;  1.1907042E-03;  7.9794569E+00;
  3.9999837E-01;  9.9999998E-03;  1.2000006E-01;1670; -2.9577294E-03;  0.0000000E+00;  9.2912080E-05;  1.0000248E+03;  4.0000001E-01;  2.0542608E+01;3; -3.5576503E+00;  0.0000000E+00;  9.2514493E-02;0; -3.2738343E-02;  1.0000516E+04;  0.0000000E+00;  6.6905714E-10;  1.0000000E+04;  0.0000000E+00;  9.9999814E+03; -3.4151927E-02;  0.0000000E+00;  1.4135820E-03;  9.1218834E+00;
  3.9999837E-01;  9.9999998E-03;  1.4000008E-01;1671; -2.9874817E-03;  0.0000000E+00;  1.1689693E-04;  1.0000248E+03;  4.0000001E-01;  2.0542608E+01;3; -3.6258240E+00;  0.0000000E+00;  1.2020647E-01;0; -3.2903079E-02;  1.0000521E+04;  0.0000000E+00;  5.6359700E-10;  1.0000000E+04;  0.0000000E+00;  9.9999775E+03; -3.4666203E-02;  0.0000000E+00;  1.7631226E-03;  1.0774394E+01;
  4.1999787E-01;  9.9999998E-03; -2.7720127E-14;1695; -3.6523461E-03;  0.0000000E+00;  4.8089262E-11;  1.0000317E+03;  4.0000001E-01;  2.6270828E+01;3; -4.1183543E+00;  0.0000000E+00;  1.1074803E-07;0; -3.9794974E-02;  1.0000651E+04;  0.0000000E+00;  1.8262326E-17;  1.0000000E+04;  0.0000000E+00;  9.9999844E+03; -4.1020036E-02;  0.0000000E+00;  1.2250617E-03;  8.0330133E+00;
  4.1999787E-01;  9.9999998E-03;  2.0000011E-02;1696; -3.6540106E-03;  0.0000000E+00;  2.0603424E-05;  1.0000317E+03;  4.0000001E-01;  2.6270828E+01;3; -4.1230259E+00;  0.0000000E+00;  2.2322321E-02;0; -3.9809089E-02;  1.0000651E+04;  0.0000000E+00;  4.3556807E-12;  1.0000000E+04;  0.0000000E+00;  9.9999834E+03; -4.1046038E-02;  0.0000000E+00;  1.2369497E-03;  8.1465750E+00;
  4.1999787E-01;  9.9999998E-03;  4.0000021E-02;1697; -3.6593294E-03;  0.0000000E+00;  4.1096471E-05;  1.0000317E+03;  4.0000001E-01;  2.6270828E+01;3; -4.1375961E+00;  0.0000000E+00;  4.3905713E-02;0; -3.9854754E-02;  1.0000652E+04;  0.0000000E+00; -4.1681224E-11;  1.0000000E+04;  0.0000000E+00;  9.9999824E+03; -4.1129455E-02;  0.0000000E+00;  1.2747009E-03;  8.4912872E+00;
  4.1999787E-01;  9.9999998E-03;  6.0000036E-02;1698; -3.6692491E-03;  0.0000000E+00;  6.1499595E-05;  1.0000318E+03;  4.0000001E-01;  2.6369591E+01;3; -4.1636281E+00;  0.0000000E+00;  6.4223751E-02;0; -3.9941616E-02;  1.0000654E+04;  0.0000000E+00;  6.7107819E-11;  1.0000000E+04;  0.0000000E+00;  9.9999824E+03; -4.1286033E-02;  0.0000000E+00;  1.3444179E-03;  9.0775757E+00;
  4.1999787E-01;  9.9999998E-03;  8.0000050E-02;1699; -3.6852551E-03;  0.0000000E+00;  8.2235114E-05;  1.0000319E+03;  4.0000001E-01;  2.6369591E+01;3; -4.2034874E+00;  0.0000000E+00;  8.3942547E-02;0; -4.0082768E-02;  1.0000657E+04;  0.0000000E+00;  9.4910621E-11;  1.0000000E+04;  0.0000000E+00;  9.9999795E+03; -4.1539151E-02;  0.0000000E+00;  1.4563821E-03;  9.9214458E+00;
  4.1999784E-01;  9.9999998E-03;  1.0000006E-01;1700; -3.7092015E-03;  0.0000000E+00;  1.0402131E-04;  1.0000318E+03;  4.0000001E-01;  2.6369591E+01;3; -4.2600241E+00;  0.0000000E+00;  1.0368270E-01;0; -4.0288776E-02;  1.0000660E+04;  0.0000000E+00;  4.1942749E-10;  1.0000000E+04;  0.0000000E+00;  9.9999785E+03; -4.1915718E-02;  0.0000000E+00;  1.6269439E-03;  1.1054168E+01;
  4.1999784E-01;  9.9999998E-03;  1.2000008E-01;1701; -3.7426425E-03;  0.0000000E+00;  1.2856111E-04;  1.0000319E+03;  4.0000001E-01;  2.6369591E+01;3; -4.3352413E+00;  0.0000000E+00;  1.2626043E-01;0; -4.0555868E-02;  1.0000664E+04;  0.0000000E+00;  1.1021136E-09;  1.0000000E+04;  0.0000000E+00;  9.9999736E+03; -4.2440880E-02;  0.0000000E+00;  1.8850107E-03;  1.2558859E+01;
  4.1999784E-01;  9.9999998E-03;  1.4000009E-01;1702; -3.7863238E-03;  0.0000000E+00;  1.5826429E-04;  1.0000319E+03;  4.0000001E-01;  2.6468353E+01;3; -4.4296317E+00;  0.0000000E+00;  1.5683471E-01;0; -4.0846344E-02;  1.0000669E+04;  0.0000000E+00;  1.8072968E-09;  1.0000000E+04;  0.0000000E+00;  9.9999678E+03; -4.3132156E-02;  0.0000000E+00;  2.2858104E-03;  1.4652303E+01;
  4.3999723E-01;  9.9999998E-03; -8.7635126E-14;1726; -4.5853439E-03;  0.0000000E+00;  1.5663179E-10;  1.0000404E+03;  4.0000001E-01;  3.3480480E+01;3; -4.9651761E+00;  0.0000000E+00;  1.7781200E-06;0; -4.8832782E-02;  1.0000832E+04;  0.0000000E+00; -1.7382242E-16;  1.0000000E+04;  0.0000000E+00;  9.9999785E+03; -5.0559450E-02;  0.0000000E+00;  1.7266698E-03;  1.0940769E+01;
  4.3999723E-01;  9.9999998E-03;  2.0000016E-02;1727; -4.5873830E-03;  0.0000000E+00;  3.0038964E-05;  1.0000404E+03;  4.0000001E-01;  3.3480480E+01;3; -4.9708490E+00;  0.0000000E+00;  3.4560706E-02;0; -4.8846528E-02;  1.0000832E+04;  0.0000000E+00; -3.2488894E-11;  1.0000000E+04;  0.0000000E+00;  9.9999785E+03; -5.0591942E-02;  0.0000000E+00;  1.7454157E-03;  1.1118748E+01;
  4.3999723E-01;  9.9999998E-03;  4.0000033E-02;1728; -4.5939763E-03;  0.0000000E+00;  5.9910406E-05;  1.0000405E+03;  4.0000001E-01;  3.3480480E+01;3; -4.9886456E+00;  0.0000000E+00;  6.7859471E-02;0; -4.8893403E-02;  1.0000832E+04;  0.0000000E+00;  3.1864778E-11;  1.0000000E+04;  0.0000000E+00;  9.9999766E+03; -5.0696809E-02;  0.0000000E+00;  1.8034072E-03;  1.1655239E+01;
  4.3999723E-01;  9.9999998E-03;  6.0000051E-02;1729; -4.6065408E-03;  0.0000000E+00;  8.9580659E-05;  1.0000405E+03;  4.0000001E-01;  3.3480480E+01;3; -5.0207977E+00;  0.0000000E+00;  9.9009089E-02;0; -4.8989445E-02;  1.0000835E+04;  0.0000000E+00;  1.0299437E-10;  1.0000000E+04;  0.0000000E+00;  9.9999766E+03; -5.0894879E-02;  0.0000000E+00;  1.9054343E-03;  1.2554482E+01;
  4.3999723E-01;  9.9999998E-03;  8.0000065E-02;1730; -4.6274113E-03;  0.0000000E+00;  1.1934367E-04;  1.0000405E+03;  4.0000001E-01;  3.3579243E+01;3; -5.0710382E+00;  0.0000000E+00;  1.2767829E-01;0; -4.9158409E-02;  1.0000837E+04;  0.0000000E+00;  5.1156185E-10;  1.0000000E+04;  0.0000000E+00;  9.9999727E+03; -5.1217247E-02;  0.0000000E+00;  2.0588380E-03;  1.3816951E+01;
  4.3999720E-01;  9.9999998E-03;  1.0000009E-01;1731; -4.6594790E-03;  0.0000000E+00;  1.5026111E-04;  1.0000404E+03;  4.0000001E-01;  3.3480480E+01;3; -5.1436882E+00;  0.0000000E+00;  1.5501615E-01;0; -4.9424306E-02;  1.0000842E+04;  0.0000000E+00;  1.0718234E-09;  1.0000000E+04;  0.0000000E+00;  9.9999678E+03; -5.1699970E-02;  0.0000000E+00;  2.2756639E-03;  1.5447969E+01;
  4.3999720E-01;  9.9999998E-03;  1.2000011E-01;1732; -4.7055967E-03;  0.0000000E+00;  1.8380236E-04;  1.0000405E+03;  4.0000001E-01;  3.3480480E+01;3; -5.2426090E+00;  0.0000000E+00;  1.8323712E-01;0; -4.9796198E-02;  1.0000849E+04;  0.0000000E+00;  2.0956168E-09;  1.0000000E+04;  0.0000000E+00;  9.9999629E+03; -5.2377962E-02;  0.0000000E+00;  2.5817640E-03;  1.7505280E+01;
  4.3999717E-01;  9.9999998E-03;  1.4000013E-01;1733; -4.7677290E-03;  0.0000000E+00;  2.2236789E-04;  1.0000404E+03;  4.0000001E-01;  3.3480480E+01;3; -5.3699145E+00;  0.0000000E+00;  2.1837839E-01;0; -5.0242580E-02;  1.0000854E+04;  0.0000000E+00;  3.7945842E-09;  1.0000000E+04;  0.0000000E+00;  9.9999561E+03; -5.3279664E-02;  0.0000000E+00;  3.0370830E-03;  2.0217951E+01;
  4.5999640E-01;  9.9999998E-03; -9.4485082E-14;1757; -5.7307379E-03;  0.0000000E+00;  1.7471949E-10;  1.0000515E+03;  4.0000024E-01;  4.2665363E+01;3; -5.9482098E+00;  0.0000000E+00;  2.3892035E-06;0; -5.9362587E-02;  1.0001050E+04;  0.0000000E+00; -3.1781568E-16;  1.0000000E+04;  0.0000000E+00;  9.9999697E+03; -6.1781771E-02;  0.0000000E+00;  2.4191837E-03;  1.4794324E+01;
  4.5999640E-01;  9.9999998E-03;  2.0000022E-02;1758; -5.7331882E-03;  0.0000000E+00;  4.3487071E-05;  1.0000515E+03;  4.0000024E-01;  4.2665363E+01;3; -5.9549475E+00;  0.0000000E+00;  5.2515220E-02;0; -5.9371460E-02;  1.0001050E+04;  0.0000000E+00; -5.7868879E-12;  1.0000000E+04;  0.0000000E+00;  9.9999697E+03; -6.1822232E-02;  0.0000000E+00;  2.4507702E-03;  1.5074186E+01;
  4.5999637E-01;  9.9999998E-03;  4.0000048E-02;1759; -5.7412144E-03;  0.0000000E+00;  8.6869979E-05;  1.0000515E+03;  4.0000024E-01;  4.2665363E+01;3; -5.9761128E+00;  0.0000000E+00;  1.0375814E-01;0; -5.9406552E-02;  1.0001052E+04;  0.0000000E+00;  4.0722876E-11;  1.0000000E+04;  0.0000000E+00;  9.9999678E+03; -6.1953053E-02;  0.0000000E+00;  2.5464999E-03;  1.5914442E+01;
  4.5999637E-01;  9.9999998E-03;  6.0000069E-02;1760; -5.7568983E-03;  0.0000000E+00;  1.3026345E-04;  1.0000515E+03;  4.0000018E-01;  4.2665363E+01;3; -6.0150032E+00;  0.0000000E+00;  1.5197325E-01;0; -5.9492879E-02;  1.0001054E+04;  0.0000000E+00;  2.6605332E-10;  1.0000000E+04;  0.0000000E+00;  9.9999639E+03; -6.2201168E-02;  0.0000000E+00;  2.7082907E-03;  1.7310194E+01;
  4.5999637E-01;  9.9999998E-03;  8.0000095E-02;1761; -5.7836589E-03;  0.0000000E+00;  1.7424017E-04;  1.0000513E+03;  4.0000021E-01;  4.2566601E+01;3; -6.0767994E+00;  0.0000000E+00;  1.9651586E-01;0; -5.9668958E-02;  1.0001058E+04;  0.0000000E+00;  8.3854212E-10;  1.0000000E+04;  0.0000000E+00;  9.9999600E+03; -6.2606260E-02;  0.0000000E+00;  2.9373020E-03;  1.9238047E+01;
  4.5999637E-01;  9.9999998E-03;  1.0000013E-01;1762; -5.8259061E-03;  0.0000000E+00;  2.1989232E-04;  1.0000515E+03;  4.0000018E-01;  4.2665363E+01;3; -6.1680045E+00;  0.0000000E+00;  2.3787132E-01;0; -5.9978306E-02;  1.0001063E+04;  0.0000000E+00;  2.7766933E-09;  1.0000000E+04;  0.0000000E+00;  9.9999541E+03; -6.3214265E-02;  0.0000000E+00;  3.2359594E-03;  2.1661396E+01;
  4.5999634E-01;  9.9999998E-03;  1.2000016E-01;1763; -5.8882497E-03;  0.0000000E+00;  2.6842358E-04;  1.0000514E+03;  4.0000027E-01;  4.2566601E+01;3; -6.2949705E+00;  0.0000000E+00;  2.7825767E-01;0; -6.0451057E-02;  1.0001072E+04;  0.0000000E+00;  5.7422622E-09;  1.0000000E+04;  0.0000000E+00;  9.9999473E+03; -6.4070530E-02;  0.0000000E+00;  3.6194718E-03;  2.4588341E+01;
  4.5999631E-01;  9.9999998E-03;  1.4000019E-01;1764; -5.9742243E-03;  0.0000000E+00;  3.2180169E-04;  1.0000515E+03;  4.0000027E-01;  4.2665363E+01;3; -6.4624095E+00;  0.0000000E+00;  3.2150227E-01;0; -6.1070994E-02;  1.0001080E+04;  0.0000000E+00;  1.1857793E-08;  1.0000000E+04;  0.0000000E+00;  9.9999375E+03; -6.5216027E-02;  0.0000000E+00;  4.1450327E-03;  2.8243599E+01;
  4.7999531E-01;  9.9999998E-03;  1.8365742E-13;1788; -7.1412884E-03;  0.0000000E+00; -2.9024855E-10;  1.0000648E+03;  4.0000072E-01;  5.3726715E+01;3; -7.0878334E+00;  0.0000000E+00; -1.5171295E-06;0; -7.1195401E-02;  1.0001308E+04;  0.0000000E+00;  3.5974412E-17;  1.0000000E+04;  0.0000000E+00;  9.9999600E+03; -7.4545667E-02;  0.0000000E+00;  3.3502630E-03;  1.9779095E+01;
  4.7999531E-01;  9.9999998E-03;  2.0000031E-02;1789; -7.1441727E-03;  0.0000000E+00;  6.2176296E-05;  1.0000648E+03;  4.0000072E-01;  5.3627953E+01;3; -7.0955586E+00;  0.0000000E+00;  7.9088889E-02;0; -7.1191728E-02;  1.0001308E+04;  0.0000000E+00;  8.4935444E-12;  1.0000000E+04;  0.0000000E+00;  9.9999580E+03; -7.4595764E-02;  0.0000000E+00;  3.4040371E-03;  2.0213898E+01;
  4.7999531E-01;  9.9999998E-03;  4.0000062E-02;1790; -7.1537625E-03;  0.0000000E+00;  1.2456122E-04;  1.0000648E+03;  4.0000072E-01;  5.3627953E+01;3; -7.1201267E+00;  0.0000000E+00;  1.5605761E-01;0; -7.1192943E-02;  1.0001309E+04;  0.0000000E+00;  1.8737759E-10;  1.0000000E+04;  0.0000000E+00;  9.9999541E+03; -7.4757896E-02;  0.0000000E+00;  3.5649571E-03;  2.1516264E+01;
  4.7999531E-01;  9.9999998E-03;  6.0000099E-02;1791; -7.1730735E-03;  0.0000000E+00;  1.8791534E-04;  1.0000648E+03;  4.0000072E-01;  5.3726715E+01;3; -7.1660728E+00;  0.0000000E+00;  2.3000284E-01;0; -7.1235768E-02;  1.0001313E+04;  0.0000000E+00;  6.9373690E-10;  1.0000000E+04;  0.0000000E+00;  9.9999492E+03; -7.5065687E-02;  0.0000000E+00;  3.8299181E-03;  2.3668404E+01;
  4.7999531E-01;  9.9999998E-03;  8.0000140E-02;1792; -7.2071096E-03;  0.0000000E+00;  2.5279549E-04;  1.0000646E+03;  4.0000072E-01;  5.3529190E+01;3; -7.2406297E+00;  0.0000000E+00;  2.9948774E-01;0; -7.1378663E-02;  1.0001318E+04;  0.0000000E+00;  2.3324953E-09;  1.0000000E+04;  0.0000000E+00;  9.9999424E+03; -7.5568475E-02;  0.0000000E+00;  4.1898098E-03;  2.6614664E+01;
  4.7999528E-01;  9.9999998E-03;  1.0000018E-01;1793; -7.2620939E-03;  0.0000000E+00;  3.2101569E-04;  1.0000647E+03;  4.0000072E-01;  5.3627953E+01;3; -7.3526368E+00;  0.0000000E+00;  3.6526966E-01;0; -7.1692124E-02;  1.0001326E+04;  0.0000000E+00;  6.9454718E-09;  1.0000000E+04;  0.0000000E+00;  9.9999346E+03; -7.6322749E-02;  0.0000000E+00;  4.6306248E-03;  3.0260597E+01;
  4.7999525E-01;  9.9999998E-03;  1.2000023E-01;1794; -7.3447963E-03;  0.0000000E+00;  3.9445786E-04;  1.0000646E+03;  4.0000066E-01;  5.3529190E+01;3; -7.5121508E+00;  0.0000000E+00;  4.2838806E-01;0; -7.2237022E-02;  1.0001336E+04;  0.0000000E+00;  1.7062916E-08;  1.0000000E+04;  0.0000000E+00;  9.9999258E+03; -7.7384651E-02;  0.0000000E+00;  5.1476266E-03;  3.4550694E+01;
  4.7999522E-01;  9.9999998E-03;  1.4000028E-01;1795; -7.4606570E-03;  0.0000000E+00;  4.7378649E-04;  1.0000648E+03;  4.0000075E-01;  5.3627953E+01;3; -7.7268515E+00;  0.0000000E+00;  4.8980179E-01;0; -7.3023207E-02;  1.0001351E+04;  0.0000000E+00;  3.2284433E-08;  1.0000000E+04;  0.0000000E+00;  9.9999131E+03; -7.8808784E-02;  0.0000000E+00;  5.7855770E-03;  3.9714199E+01;
  4.9999392E-01;  9.9999998E-03;  3.6761132E-13;1819; -8.8763637E-03;  0.0000000E+00;  3.7169492E-10;  1.0000808E+03;  4.0000162E-01;  6.6960800E+01;3; -8.4071226E+00;  0.0000000E+00; -3.9322003E-07;0; -8.3700664E-02;  1.0001595E+04;  0.0000000E+00; -1.4180745E-16;  1.0000000E+04;  0.0000000E+00;  9.9999434E+03; -8.8263966E-02;  0.0000000E+00;  4.5633046E-03;  2.6026779E+01;
  4.9999392E-01;  9.9999998E-03;  2.0000044E-02;1820; -8.8796681E-03;  0.0000000E+00;  8.7497225E-05;  1.0000808E+03;  4.0000162E-01;  6.6960800E+01;3; -8.4159193E+00;  0.0000000E+00;  1.1604199E-01;0; -8.3672971E-02;  1.0001595E+04;  0.0000000E+00;  1.5063112E-10;  1.0000000E+04;  0.0000000E+00;  9.9999434E+03; -8.8325828E-02;  0.0000000E+00;  4.6528601E-03;  2.6687458E+01;
  4.9999392E-01;  9.9999998E-03;  4.0000089E-02;1821; -8.8911187E-03;  0.0000000E+00;  1.7573862E-04;  1.0000804E+03;  4.0000159E-01;  6.6664513E+01;3; -8.4444914E+00;  0.0000000E+00;  2.2835240E-01;0; -8.3607078E-02;  1.0001596E+04;  0.0000000E+00;  5.1240584E-10;  1.0000000E+04;  0.0000000E+00;  9.9999395E+03; -8.8525958E-02;  0.0000000E+00;  4.9188780E-03;  2.8662945E+01;
  4.9999392E-01;  9.9999998E-03;  6.0000136E-02;1822; -8.9147184E-03;  0.0000000E+00;  2.6619143E-04;  1.0000803E+03;  4.0000156E-01;  6.6565750E+01;3; -8.4977636E+00;  0.0000000E+00;  3.3812490E-01;0; -8.3554655E-02;  1.0001601E+04;  0.0000000E+00;  1.7997684E-09;  1.0000000E+04;  0.0000000E+00;  9.9999307E+03; -8.8905223E-02;  0.0000000E+00;  5.3505683E-03;  3.1917282E+01;
  4.9999392E-01;  9.9999998E-03;  8.0000192E-02;1823; -8.9573087E-03;  0.0000000E+00;  3.6153203E-04;  1.0000801E+03;  4.0000153E-01;  6.6368225E+01;3; -8.5857430E+00;  0.0000000E+00;  4.4650650E-01;0; -8.3599746E-02;  1.0001607E+04;  0.0000000E+00;  7.3555508E-09;  1.0000000E+04;  0.0000000E+00;  9.9999209E+03; -8.9523159E-02;  0.0000000E+00;  5.9234099E-03;  3.6352345E+01;
  4.9999389E-01;  9.9999998E-03;  1.0000025E-01;1824; -9.0278992E-03;  0.0000000E+00;  4.6440208E-04;  1.0000801E+03;  4.0000159E-01;  6.6368225E+01;3; -8.7212543E+00;  0.0000000E+00;  5.5267537E-01;0; -8.3848342E-02;  1.0001617E+04;  0.0000000E+00;  1.9702160E-08;  1.0000000E+04;  0.0000000E+00;  9.9999072E+03; -9.0447687E-02;  0.0000000E+00;  6.5993471E-03;  4.1810219E+01;
  4.9999386E-01;  9.9999998E-03;  1.2000033E-01;1825; -9.1357324E-03;  0.0000000E+00;  5.7738367E-04;  1.0000800E+03;  4.0000156E-01;  6.6269463E+01;3; -8.9176331E+00;  0.0000000E+00;  6.5647095E-01;0; -8.4402084E-02;  1.0001630E+04;  0.0000000E+00;  4.4557410E-08;  1.0000000E+04;  0.0000000E+00;  9.9998916E+03; -9.1746554E-02;  0.0000000E+00;  7.3444708E-03;  4.8192696E+01;
  4.9999380E-01;  9.9999998E-03;  1.4000042E-01;1826; -9.2881545E-03;  0.0000000E+00;  6.9979596E-04;  1.0000800E+03;  4.0000153E-01;  6.6269463E+01;3; -9.1861591E+00;  0.0000000E+00;  7.5486630E-01;0; -8.5304968E-02;  1.0001648E+04;  0.0000000E+00;  8.1258264E-08;  1.0000000E+04;  0.0000000E+00;  9.9998750E+03; -9.3489252E-02;  0.0000000E+00;  8.1842812E-03;  5.5822784E+01;
  5.1999217E-01;  9.9999998E-03;  4.5218828E-13;1850; -1.0986766E-02;  0.0000000E+00;  4.4790605E-10;  1.0001014E+03;  4.0000445E-01;  8.4046555E+01;3; -9.9269333E+00;  0.0000000E+00; -1.7443290E-06;0; -9.5646247E-02;  1.0001883E+04;  0.0000000E+00;  4.4163273E-16;  1.0000000E+04;  0.0000000E+00;  9.9999268E+03; -1.0173316E-01;  0.0000000E+00;  6.0869115E-03;  3.3553429E+01;
  5.1999217E-01;  9.9999998E-03;  2.0000059E-02;1851; -1.0990746E-02;  0.0000000E+00;  1.1973247E-04;  1.0001014E+03;  4.0000445E-01;  8.4046555E+01;3; -9.9372883E+00;  0.0000000E+00;  1.6074176E-01;0; -9.5578946E-02;  1.0001883E+04;  0.0000000E+00; -6.2697500E-11;  1.0000000E+04;  0.0000000E+00;  9.9999248E+03; -1.0181003E-01;  0.0000000E+00;  6.2310826E-03;  3.4530792E+01;
  5.1999217E-01;  9.9999998E-03;  4.0000118E-02;1852; -1.1003956E-02;  0.0000000E+00;  2.4223911E-04;  1.0001011E+03;  4.0000448E-01;  8.3750267E+01;3; -9.9688501E+00;  0.0000000E+00;  3.2327983E-01;0; -9.5400006E-02;  1.0001886E+04;  0.0000000E+00;  1.3672461E-09;  1.0000000E+04;  0.0000000E+00;  9.9999180E+03; -1.0205761E-01;  0.0000000E+00;  6.6576065E-03;  3.7448692E+01;
  5.1999217E-01;  9.9999998E-03;  6.0000185E-02;1853; -1.1032307E-02;  0.0000000E+00;  3.7041339E-04;  1.0001008E+03;  4.0000451E-01;  8.3552742E+01;3; -1.0029933E+01;  0.0000000E+00;  4.8552829E-01;0; -9.5179483E-02;  1.0001892E+04;  0.0000000E+00;  5.3326588E-09;  1.0000000E+04;  0.0000000E+00;  9.9999063E+03; -1.0252377E-01;  0.0000000E+00;  7.3442860E-03;  4.2243126E+01;
  5.1999217E-01;  9.9999998E-03;  8.0000266E-02;1854; -1.1085096E-02;  0.0000000E+00;  5.0872751E-04;  1.0001004E+03;  4.0000445E-01;  8.3157700E+01;3; -1.0133068E+01;  0.0000000E+00;  6.4930910E-01;0; -9.5033705E-02;  1.0001898E+04;  0.0000000E+00;  1.8307315E-08;  1.0000000E+04;  0.0000000E+00;  9.9998906E+03; -1.0327847E-01;  0.0000000E+00;  8.2447650E-03;  4.8764267E+01;
  5.1999211E-01;  9.9999998E-03;  1.0000035E-01;1855; -1.1174336E-02;  0.0000000E+00;  6.6220073E-04;  1.0001002E+03;  4.0000445E-01;  8.3058937E+01;3; -1.0294773E+01;  0.0000000E+00;  8.1502640E-01;0; -9.5111810E-02;  1.0001912E+04;  0.0000000E+00;  5.0000398E-08;  1.0000000E+04;  0.0000000E+00;  9.9998711E+03; -1.0440142E-01;  0.0000000E+00;  9.2896149E-03;  5.6809982E+01;
  5.1999205E-01;  9.9999998E-03;  1.2000046E-01;1856; -1.1312797E-02;  0.0000000E+00;  8.3263364E-04;  1.0001000E+03;  4.0000448E-01;  8.2861412E+01;3; -1.0532871E+01;  0.0000000E+00;  9.8022068E-01;0; -9.5562175E-02;  1.0001930E+04;  0.0000000E+00;  1.0514801E-07;  1.0000000E+04;  0.0000000E+00;  9.9998477E+03; -1.0597372E-01;  0.0000000E+00;  1.0411543E-02;  6.6345032E+01;
  5.1999199E-01;  9.9999998E-03;  1.4000058E-01;1857; -1.1508808E-02;  0.0000000E+00;  1.0203359E-03;  1.0000998E+03;  4.0000442E-01;  8.2663887E+01;3; -1.0860924E+01;  0.0000000E+00;  1.1471775E+00;0; -9.6458912E-02;  1.0001954E+04;  0.0000000E+00;  1.8136433E-07;  1.0000000E+04;  0.0000000E+00;  9.9998213E+03; -1.0808200E-01;  0.0000000E+00;  1.1623084E-02;  7.8066505E+01;
  5.3999007E-01;  9.9999998E-03; -5.1262098E-13;1881; -1.3490534E-02;  0.0000000E+00;  3.0411429E-10;  1.0001312E+03;  4.0001172E-01;  1.0863811E+02;3; -1.1656310E+01;  0.0000000E+00;  6.7158771E-06;0; -1.0516839E-01;  1.0002133E+04;  0.0000000E+00;  5.5737256E-17;  1.0000000E+04;  0.0000000E+00;  9.9999053E+03; -1.1309410E-01;  0.0000000E+00;  7.9257125E-03;  4.2206745E+01;
  5.3999007E-01;  9.9999998E-03;  2.0000078E-02;1882; -1.3494599E-02;  0.0000000E+00;  1.6015950E-04;  1.0001310E+03;  4.0001169E-01;  1.0853935E+02;3; -1.1666456E+01;  0.0000000E+00;  2.1842644E-01;0; -1.0504039E-01;  1.0002135E+04;  0.0000000E+00;  4.1670195E-10;  1.0000000E+04;  0.0000000E+00;  9.9999023E+03; -1.1319024E-01;  0.0000000E+00;  8.1498586E-03;  4.3614426E+01;
  5.3999007E-01;  9.9999998E-03;  4.0000159E-02;1883; -1.3510003E-02;  0.0000000E+00;  3.2646194E-04;  1.0001307E+03;  4.0001169E-01;  1.0824306E+02;3; -1.1701566E+01;  0.0000000E+00;  4.4446939E-01;0; -1.0468628E-01;  1.0002140E+04;  0.0000000E+00;  3.0615261E-09;  1.0000000E+04;  0.0000000E+00;  9.9998916E+03; -1.1349739E-01;  0.0000000E+00;  8.8111116E-03;  4.7809460E+01;
  5.3999007E-01;  9.9999998E-03;  6.0000252E-02;1884; -1.3543626E-02;  0.0000000E+00;  5.0484785E-04;  1.0001302E+03;  4.0001172E-01;  1.0784802E+02;3; -1.1770430E+01;  0.0000000E+00;  6.7761421E-01;0; -1.0419849E-01;  1.0002146E+04;  0.0000000E+00;  1.2418945E-08;  1.0000000E+04;  0.0000000E+00;  9.9998750E+03; -1.1406887E-01;  0.0000000E+00;  9.8703839E-03;  5.4683613E+01;
  5.3999001E-01;  9.9999998E-03;  8.0000356E-02;1885; -1.3608188E-02;  0.0000000E+00;  7.0052501E-04;  1.0001296E+03;  4.0001166E-01;  1.0735421E+02;3; -1.1890501E+01;  0.0000000E+00;  9.0997922E-01;0; -1.0373114E-01;  1.0002156E+04;  0.0000000E+00;  3.8080533E-08;  1.0000000E+04;  0.0000000E+00;  9.9998516E+03; -1.1498322E-01;  0.0000000E+00;  1.1252083E-02;  6.4032700E+01;
  5.3998995E-01;  9.9999998E-03;  1.0000049E-01;1886; -1.3719559E-02;  0.0000000E+00;  9.2139910E-04;  1.0001290E+03;  4.0001163E-01;  1.0686040E+02;3; -1.2081043E+01;  0.0000000E+00;  1.1552079E+00;0; -1.0348128E-01;  1.0002175E+04;  0.0000000E+00;  9.8845788E-08;  1.0000000E+04;  0.0000000E+00;  9.9998232E+03; -1.1633238E-01;  0.0000000E+00;  1.2851103E-02;  7.5685028E+01;
  5.3998989E-01;  9.9999998E-03;  1.2000064E-01;1887; -1.3894024E-02;  0.0000000E+00;  1.1740536E-03;  1.0001285E+03;  4.0001166E-01;  1.0646535E+02;3; -1.2367177E+01;  0.0000000E+00;  1.4173430E+00;0; -1.0363430E-01;  1.0002196E+04;  0.0000000E+00;  2.0072819E-07;  1.0000000E+04;  0.0000000E+00;  9.9997891E+03; -1.1821205E-01;  0.0000000E+00;  1.4577756E-02;  8.9954369E+01;
  5.3998983E-01;  9.9999998E-03;  1.4000082E-01;1888; -1.4141791E-02;  0.0000000E+00;  1.4583382E-03;  1.0001279E+03;  4.0001166E-01;  1.0597154E+02;3; -1.2764325E+01;  0.0000000E+00;  1.6857698E+00;0; -1.0425447E-01;  1.0002228E+04;  0.0000000E+00;  3.3042446E-07;  1.0000000E+04;  0.0000000E+00;  9.9997480E+03; -1.2072616E-01;  0.0000000E+00;  1.6471695E-02;  1.0855766E+02;
  5.5998760E-01;  9.9999998E-03; -7.7356584E-13;1912; -1.6337045E-02;  0.0000000E+00; -9.2706781E-10;  1.0001873E+03;  4.0003145E-01;  1.5515460E+02;3; -1.3569352E+01;  0.0000000E+00;  2.5298559E-06;0; -1.0984834E-01;  1.0002293E+04;  0.0000000E+00; -1.3974524E-15;  1.0000000E+04;  0.0000000E+00;  9.9998809E+03; -1.1990527E-01;  0.0000000E+00;  1.0056932E-02;  5.1645393E+01;
  5.5998760E-01;  9.9999998E-03;  2.0000100E-02;1913; -1.6342036E-02;  0.0000000E+00;  2.0936049E-04;  1.0001872E+03;  4.0003148E-01;  1.5505585E+02;3; -1.3580706E+01;  0.0000000E+00;  2.9359484E-01;0; -1.0963032E-01;  1.0002296E+04;  0.0000000E+00;  1.1109368E-09;  1.0000000E+04;  0.0000000E+00;  9.9998770E+03; -1.2002417E-01;  0.0000000E+00;  1.0393861E-02;  5.3623451E+01;
  5.5998760E-01;  9.9999998E-03;  4.0000208E-02;1914; -1.6359411E-02;  0.0000000E+00;  4.2902646E-04;  1.0001866E+03;  4.0003151E-01;  1.5456204E+02;3; -1.3618321E+01;  0.0000000E+00;  5.9512174E-01;0; -1.0901481E-01;  1.0002300E+04;  0.0000000E+00;  5.9762995E-09;  1.0000000E+04;  0.0000000E+00;  9.9998604E+03; -1.2040041E-01;  0.0000000E+00;  1.1385608E-02;  5.9505058E+01;
  5.5998760E-01;  9.9999998E-03;  6.0000326E-02;1915; -1.6399549E-02;  0.0000000E+00;  6.6684297E-04;  1.0001859E+03;  4.0003151E-01;  1.5406822E+02;3; -1.3697874E+01;  0.0000000E+00;  8.9871174E-01;0; -1.0812012E-01;  1.0002308E+04;  0.0000000E+00;  2.2693062E-08;  1.0000000E+04;  0.0000000E+00;  9.9998389E+03; -1.2108912E-01;  0.0000000E+00;  1.2968999E-02;  6.9116669E+01;
  5.5998755E-01;  9.9999998E-03;  8.0000475E-02;1916; -1.6477551E-02;  0.0000000E+00;  9.3717501E-04;  1.0001849E+03;  4.0003142E-01;  1.5317937E+02;3; -1.3834980E+01;  0.0000000E+00;  1.2341080E+00;0; -1.0714269E-01;  1.0002322E+04;  0.0000000E+00;  6.6441913E-08;  1.0000000E+04;  0.0000000E+00;  9.9998047E+03; -1.2217441E-01;  0.0000000E+00;  1.5031721E-02;  8.2216042E+01;
  5.5998749E-01;  9.9999998E-03;  1.0000065E-01;1917; -1.6614059E-02;  0.0000000E+00;  1.2516223E-03;  1.0001840E+03;  4.0003148E-01;  1.5238928E+02;3; -1.4057604E+01;  0.0000000E+00;  1.6026751E+00;0; -1.0631990E-01;  1.0002344E+04;  0.0000000E+00;  1.6352304E-07;  1.0000000E+04;  0.0000000E+00;  9.9997637E+03; -1.2375798E-01;  0.0000000E+00;  1.7438084E-02;  9.8849007E+01;
  5.5998743E-01;  9.9999998E-03;  1.2000087E-01;1918; -1.6829025E-02;  0.0000000E+00;  1.6192447E-03;  1.0001829E+03;  4.0003145E-01;  1.5150043E+02;3; -1.4392926E+01;  0.0000000E+00;  1.9984978E+00;0; -1.0583165E-01;  1.0002371E+04;  0.0000000E+00;  3.1850510E-07;  1.0000000E+04;  0.0000000E+00;  9.9997148E+03; -1.2594886E-01;  0.0000000E+00;  2.0117214E-02;  1.2026414E+02;
  5.5998731E-01;  9.9999998E-03;  1.4000113E-01;1919; -1.7135078E-02;  0.0000000E+00;  2.0353689E-03;  1.0001813E+03;  4.0003142E-01;  1.5021652E+02;3; -1.4864936E+01;  0.0000000E+00;  2.4035747E+00;0; -1.0563372E-01;  1.0002409E+04;  0.0000000E+00;  4.8479899E-07;  1.0000000E+04;  0.0000000E+00;  9.9996455E+03; -1.2886034E-01;  0.0000000E+00;  2.3226617E-02;  1.5034755E+02;
  5.7998496E-01;  9.9999998E-03; -7.5430639E-13;1943; -1.9370604E-02;  0.0000000E+00;  1.3669035E-10;  1.0003172E+03;  4.0008396E-01;  2.6280396E+02;3; -1.5582088E+01;  0.0000000E+00;  5.7381403E-06;0; -1.0669913E-01;  1.0002293E+04;  0.0000000E+00;  2.8961970E-16;  1.0000000E+04;  0.0000000E+00;  9.9998535E+03; -1.1913203E-01;  0.0000000E+00;  1.2432901E-02;  6.1355877E+01;
  5.7998496E-01;  9.9999998E-03;  2.0000124E-02;1944; -1.9376282E-02;  0.0000000E+00;  2.6421275E-04;  1.0003170E+03;  4.0008393E-01;  2.6260641E+02;3; -1.5595413E+01;  0.0000000E+00;  3.7508017E-01;0; -1.0634977E-01;  1.0002294E+04;  0.0000000E+00;  1.2077261E-09;  1.0000000E+04;  0.0000000E+00;  9.9998467E+03; -1.1927303E-01;  0.0000000E+00;  1.2923267E-02;  6.4073204E+01;
  5.7998496E-01;  9.9999998E-03;  4.0000260E-02;1945; -1.9397467E-02;  0.0000000E+00;  5.4145028E-04;  1.0003162E+03;  4.0008396E-01;  2.6201385E+02;3; -1.5642171E+01;  0.0000000E+00;  7.4917644E-01;0; -1.0535008E-01;  1.0002300E+04;  0.0000000E+00;  7.8508915E-09;  1.0000000E+04;  0.0000000E+00;  9.9998271E+03; -1.1971430E-01;  0.0000000E+00;  1.4364222E-02;  7.2133797E+01;
  5.7998490E-01;  9.9999998E-03;  6.0000416E-02;1946; -1.9444911E-02;  0.0000000E+00;  8.5371017E-04;  1.0003151E+03;  4.0008393E-01;  2.6102625E+02;3; -1.5729811E+01;  0.0000000E+00;  1.1679893E+00;0; -1.0384885E-01;  1.0002311E+04;  0.0000000E+00;  3.0145145E-08;  1.0000000E+04;  0.0000000E+00;  9.9997930E+03; -1.2050881E-01;  0.0000000E+00;  1.6659958E-02;  8.5276421E+01;
  5.7998490E-01;  9.9999998E-03;  8.0000609E-02;1947; -1.9538410E-02;  0.0000000E+00;  1.2185284E-03;  1.0003136E+03;  4.0008390E-01;  2.5984113E+02;3; -1.5886779E+01;  0.0000000E+00;  1.6313417E+00;0; -1.0208357E-01;  1.0002325E+04;  0.0000000E+00;  9.1942773E-08;  1.0000000E+04;  0.0000000E+00;  9.9997461E+03; -1.2173998E-01;  0.0000000E+00;  1.9656403E-02;  1.0327893E+02;
  5.7998484E-01;  9.9999998E-03;  1.0000085E-01;1948; -1.9703140E-02;  0.0000000E+00;  1.6518893E-03;  1.0003120E+03;  4.0008393E-01;  2.5845847E+02;3; -1.6145035E+01;  0.0000000E+00;  2.1367133E+00;0; -1.0030393E-01;  1.0002349E+04;  0.0000000E+00;  2.2010069E-07;  1.0000000E+04;  0.0000000E+00;  9.9996885E+03; -1.2351322E-01;  0.0000000E+00;  2.3209296E-02;  1.2675523E+02;
  5.7998472E-01;  9.9999998E-03;  1.2000114E-01;1949; -1.9965813E-02;  0.0000000E+00;  2.1649313E-03;  1.0003098E+03;  4.0008396E-01;  2.5658200E+02;3; -1.6535955E+01;  0.0000000E+00;  2.7133708E+00;0; -9.8592721E-02;  1.0002381E+04;  0.0000000E+00;  4.0955678E-07;  1.0000000E+04;  0.0000000E+00;  9.9996152E+03; -1.2594119E-01;  0.0000000E+00;  2.7348464E-02;  1.5883974E+02;
  5.7998455E-01;  9.9999998E-03;  1.4000151E-01;1950; -2.0339282E-02;  0.0000000E+00;  2.7590718E-03;  1.0003063E+03;  4.0008393E-01;  2.5371791E+02;3; -1.7090418E+01;  0.0000000E+00;  3.3253415E+00;0; -9.6637815E-02;  1.0002427E+04;  0.0000000E+00;  5.3331814E-07;  1.0000000E+04;  0.0000000E+00;  9.9995020E+03; -1.2912919E-01;  0.0000000E+00;  3.2491367E-02;  2.0725386E+02;
  5.9998238E-01;  9.9999998E-03; -5.4441575E-13;1974; -2.2349253E-02;  0.0000000E+00;  3.1615974E-10;  1.0006373E+03;  4.0021729E-01;  5.2797577E+02;3; -1.7559027E+01;  0.0000000E+00;  3.1945092E-06;0; -9.2201494E-02;  1.0002057E+04;  0.0000000E+00; -2.7012534E-16;  1.0000000E+04;  0.0000000E+00;  9.9998252E+03; -1.0719267E-01;  0.0000000E+00;  1.4991174E-02;  7.0731567E+01;
  5.9998238E-01;  9.9999998E-03;  2.0000150E-02;1975; -2.2355778E-02;  0.0000000E+00;  3.1570299E-04;  1.0006369E+03;  4.0021726E-01;  5.2767950E+02;3; -1.7572140E+01;  0.0000000E+00;  4.4109431E-01;0; -9.1664225E-02;  1.0002060E+04;  0.0000000E+00;  7.5660850E-10;  1.0000000E+04;  0.0000000E+00;  9.9998164E+03; -1.0734670E-01;  0.0000000E+00;  1.5682474E-02;  7.4382904E+01;
  5.9998232E-01;  9.9999998E-03;  4.0000316E-02;1976; -2.2382705E-02;  0.0000000E+00;  6.5831229E-04;  1.0006358E+03;  4.0021726E-01;  5.2679065E+02;3; -1.7626791E+01;  0.0000000E+00;  9.2342699E-01;0; -9.0113074E-02;  1.0002064E+04;  0.0000000E+00;  7.6480680E-09;  1.0000000E+04;  0.0000000E+00;  9.9997891E+03; -1.0782406E-01;  0.0000000E+00;  1.7710991E-02;  8.5190575E+01;
  5.9998232E-01;  9.9999998E-03;  6.0000509E-02;1977; -2.2441065E-02;  0.0000000E+00;  1.0489823E-03;  1.0006341E+03;  4.0021735E-01;  5.2530927E+02;3; -1.7732937E+01;  0.0000000E+00;  1.4366090E+00;0; -8.7731026E-02;  1.0002075E+04;  0.0000000E+00;  3.2303582E-08;  1.0000000E+04;  0.0000000E+00;  9.9997422E+03; -1.0867048E-01;  0.0000000E+00;  2.0939456E-02;  1.0278891E+02;
  5.9998226E-01;  9.9999998E-03;  8.0000758E-02;1978; -2.2553334E-02;  0.0000000E+00;  1.5224448E-03;  1.0006318E+03;  4.0021732E-01;  5.2343280E+02;3; -1.7912449E+01;  0.0000000E+00;  2.0479152E+00;0; -8.4787689E-02;  1.0002093E+04;  0.0000000E+00;  1.0234508E-07;  1.0000000E+04;  0.0000000E+00;  9.9996787E+03; -1.0996042E-01;  0.0000000E+00;  2.5172733E-02;  1.2708956E+02;
  5.9998220E-01;  9.9999998E-03;  1.0000107E-01;1979; -2.2753246E-02;  0.0000000E+00;  2.0960667E-03;  1.0006291E+03;  4.0021724E-01;  5.2116125E+02;3; -1.8214960E+01;  0.0000000E+00;  2.7387245E+00;0; -8.1490524E-02;  1.0002117E+04;  0.0000000E+00;  2.4689422E-07;  1.0000000E+04;  0.0000000E+00;  9.9995996E+03; -1.1179000E-01;  0.0000000E+00;  3.0299475E-02;  1.5979002E+02;
  5.9998202E-01;  9.9999998E-03;  1.2000146E-01;1980; -2.3074837E-02;  0.0000000E+00;  2.7808179E-03;  1.0006250E+03;  4.0021724E-01;  5.1780341E+02;3; -1.8680182E+01;  0.0000000E+00;  3.5136247E+00;0; -7.7692360E-02;  1.0002150E+04;  0.0000000E+00;  4.3421971E-07;  1.0000000E+04;  0.0000000E+00;  9.9994863E+03; -1.1425840E-01;  0.0000000E+00;  3.6566038E-02;  2.0715503E+02;
  5.9998184E-01;  9.9999998E-03;  1.4000192E-01;1981; -2.3534410E-02;  0.0000000E+00;  3.5727578E-03;  1.0006185E+03;  4.0021726E-01;  5.1247034E+02;3; -1.9315325E+01;  0.0000000E+00;  4.3659320E+00;0; -7.2616652E-02;  1.0002195E+04;  0.0000000E+00;  4.0722085E-07;  1.0000000E+04;  0.0000000E+00;  9.9993115E+03; -1.1743969E-01;  0.0000000E+00;  4.4823039E-02;  2.8273285E+02;
  6.1997998E-01;  9.9999998E-03;  1.1816978E-12;2005; -2.5045607E-02;  0.0000000E+00; -4.1600398E-10;  1.0013723E+03;  4.0052244E-01;  1.1369286E+03;3; -1.9348978E+01;  0.0000000E+00; -3.5132107E-06;0; -6.2995188E-02;  1.0001527E+04;  0.0000000E+00;  6.9214498E-16;  1.0000000E+04;  0.0000000E+00;  9.9997949E+03; -8.0663592E-02;  0.0000000E+00;  1.7668406E-02;  7.9222511E+01;
  6.1997998E-01;  9.9999998E-03;  2.0000169E-02;2006; -2.5056833E-02;  0.0000000E+00;  3.5862802E-04;  1.0013718E+03;  4.0052244E-01;  1.1365336E+03;3; -1.9368843E+01;  0.0000000E+00;  5.1220107E-01;0; -6.2199920E-02;  1.0001528E+04;  0.0000000E+00;  3.9397638E-10;  1.0000000E+04;  0.0000000E+00;  9.9997822E+03; -8.0810621E-02;  0.0000000E+00;  1.8610699E-02;  8.4014656E+01;
  6.1997998E-01;  9.9999998E-03;  4.0000357E-02;2007; -2.5094533E-02;  0.0000000E+00;  7.5438968E-04;  1.0013703E+03;  4.0052247E-01;  1.1352496E+03;3; -1.9437620E+01;  0.0000000E+00;  1.0738491E+00;0; -5.9889514E-02;  1.0001535E+04;  0.0000000E+00;  5.0540701E-09;  1.0000000E+04;  0.0000000E+00;  9.9997471E+03; -8.1262589E-02;  0.0000000E+00;  2.1373075E-02;  9.8172050E+01;
  6.1997992E-01;  9.9999998E-03;  6.0000587E-02;2008; -2.5175797E-02;  0.0000000E+00;  1.2197301E-03;  1.0013679E+03;  4.0052250E-01;  1.1331757E+03;3; -1.9573572E+01;  0.0000000E+00;  1.7010651E+00;0; -5.6283392E-02;  1.0001545E+04;  0.0000000E+00;  2.7150659E-08;  1.0000000E+04;  0.0000000E+00;  9.9996855E+03; -8.2052499E-02;  0.0000000E+00;  2.5769105E-02;  1.2121786E+02;
  6.1997986E-01;  9.9999998E-03;  8.0000885E-02;2009; -2.5322363E-02;  0.0000000E+00;  1.7948367E-03;  1.0013644E+03;  4.0052247E-01;  1.1303116E+03;3; -1.9801222E+01;  0.0000000E+00;  2.4317248E+00;0; -5.1667612E-02;  1.0001561E+04;  0.0000000E+00;  9.6559383E-08;  1.0000000E+04;  0.0000000E+00;  9.9996045E+03; -8.3235942E-02;  0.0000000E+00;  3.1568330E-02;  1.5335294E+02;
  6.1997974E-01;  9.9999998E-03;  1.0000128E-01;2010; -2.5572170E-02;  0.0000000E+00;  2.5283399E-03;  1.0013599E+03;  4.0052250E-01;  1.1265587E+03;3; -2.0165653E+01;  0.0000000E+00;  3.3381548E+00;0; -4.6140302E-02;  1.0001582E+04;  0.0000000E+00;  2.3573661E-07;  1.0000000E+04;  0.0000000E+00;  9.9994932E+03; -8.4884532E-02;  0.0000000E+00;  3.8744230E-02;  1.9794392E+02;
  6.1997956E-01;  9.9999998E-03;  1.2000177E-01;2011; -2.5964390E-02;  0.0000000E+00;  3.4372997E-03;  1.0013533E+03;  4.0052244E-01;  1.1212257E+03;3; -2.0697096E+01;  0.0000000E+00;  4.4416289E+00;0; -3.9178416E-02;  1.0001614E+04;  0.0000000E+00;  3.7823878E-07;  1.0000000E+04;  0.0000000E+00;  9.9993301E+03; -8.7064177E-02;  0.0000000E+00;  4.7885761E-02;  2.6568872E+02;
  6.1997926E-01;  9.9999998E-03;  1.4000237E-01;2012; -2.6516693E-02;  0.0000000E+00;  4.5058387E-03;  1.0013422E+03;  4.0052256E-01;  1.1119423E+03;3; -2.1404871E+01;  0.0000000E+00;  5.6870685E+00;0; -2.9354390E-02;  1.0001653E+04;  0.0000000E+00;  7.6411034E-08;  1.0000000E+04;  0.0000000E+00;  9.9990674E+03; -8.9798249E-02;  0.0000000E+00;  6.0443860E-02;  3.7791092E+02;
  6.3997793E-01;  9.9999998E-03; -8.5633844E-13;2036; -2.7336808E-02;  0.0000000E+00;  7.9842338E-10;  1.0027257E+03;  4.0108138E-01;  2.2581357E+03;3; -2.0757151E+01;  0.0000000E+00;  1.5195226E-05;0; -1.7318945E-02;  1.0000687E+04;  0.0000000E+00;  5.1238564E-16;  1.0000000E+04;  0.0000000E+00;  9.9997656E+03; -3.7725560E-02;  0.0000000E+00;  2.0406615E-02;  8.6504143E+01;
  6.3997787E-01;  9.9999998E-03;  2.0000177E-02;2037; -2.7357841E-02;  0.0000000E+00;  3.8741340E-04;  1.0027250E+03;  4.0108132E-01;  2.2575432E+03;3; -2.0802567E+01;  0.0000000E+00;  5.7179302E-01;0; -1.6189776E-02;  1.0000688E+04;  0.0000000E+00; -3.0537581E-10;  1.0000000E+04;  0.0000000E+00;  9.9997500E+03; -3.7835572E-02;  0.0000000E+00;  2.1645796E-02;  9.2627670E+01;
  6.3997787E-01;  9.9999998E-03;  4.0000379E-02;2038; -2.7420059E-02;  0.0000000E+00;  8.1851304E-04;  1.0027228E+03;  4.0108129E-01;  2.2556667E+03;3; -2.0903812E+01;  0.0000000E+00;  1.1973454E+00;0; -1.2895444E-02;  1.0000691E+04;  0.0000000E+00;  1.8291479E-09;  1.0000000E+04;  0.0000000E+00;  9.9997021E+03; -3.8171008E-02;  0.0000000E+00;  2.5275564E-02;  1.1068948E+02;
  6.3997781E-01;  9.9999998E-03;  6.0000639E-02;2039; -2.7535794E-02;  0.0000000E+00;  1.3580414E-03;  1.0027194E+03;  4.0108129E-01;  2.2529014E+03;3; -2.1075439E+01;  0.0000000E+00;  1.9561452E+00;0; -7.6950211E-03;  1.0000700E+04;  0.0000000E+00;  1.8325977E-08;  1.0000000E+04;  0.0000000E+00;  9.9996240E+03; -3.8748413E-02;  0.0000000E+00;  3.1053392E-02;  1.4009526E+02;
  6.3997769E-01;  9.9999998E-03;  8.0000997E-02;2040; -2.7738351E-02;  0.0000000E+00;  2.0611095E-03;  1.0027146E+03;  4.0108135E-01;  2.2489509E+03;3; -2.1381132E+01;  0.0000000E+00;  2.8657539E+00;0; -8.7724999E-04;  1.0000711E+04;  0.0000000E+00;  7.8882465E-08;  1.0000000E+04;  0.0000000E+00;  9.9995186E+03; -3.9596416E-02;  0.0000000E+00;  3.8719166E-02;  1.8147421E+02;
  6.3997757E-01;  9.9999998E-03;  1.0000148E-01;2041; -2.8052257E-02;  0.0000000E+00;  3.0007511E-03;  1.0027080E+03;  4.0108135E-01;  2.2434204E+03;3; -2.1794750E+01;  0.0000000E+00;  4.0535359E+00;0;  7.6257363E-03;  1.0000727E+04;  0.0000000E+00;  2.0341540E-07;  1.0000000E+04;  0.0000000E+00;  9.9993691E+03; -4.0749934E-02;  0.0000000E+00;  4.8375670E-02;  2.4035374E+02;
  6.3997734E-01;  9.9999998E-03;  1.2000212E-01;2042; -2.8510004E-02;  0.0000000E+00;  4.1977419E-03;  1.0026978E+03;  4.0108129E-01;  2.2350259E+03;3; -2.2389828E+01;  0.0000000E+00;  5.5118799E+00;0;  1.8827155E-02;  1.0000749E+04;  0.0000000E+00;  2.7612467E-07;  1.0000000E+04;  0.0000000E+00;  9.9991475E+03; -4.2229053E-02;  0.0000000E+00;  6.1056208E-02;  3.3290045E+02;
  6.3997698E-01;  9.9999998E-03;  1.4000289E-01;2043; -2.9153612E-02;  0.0000000E+00;  5.6011509E-03;  1.0026807E+03;  4.0108135E-01;  2.2208047E+03;3; -2.3218472E+01;  0.0000000E+00;  7.1462760E+00;0;  3.4937128E-02;  1.0000774E+04;  0.0000000E+00; -2.9755427E-07;  1.0000000E+04;  0.0000000E+00;  9.9987822E+03; -4.3998547E-02;  0.0000000E+00;  7.8935675E-02;  4.8967468E+02;
  6.5997648E-01;  9.9999998E-03; -5.9321498E-13;2067; -2.9019397E-02;  0.0000000E+00;  4.3077226E-09;  1.0044235E+03;  4.0178314E-01;  3.6646277E+03;3; -2.1947094E+01;  0.0000000E+00;  3.3494551E-05;0;  4.3155190E-02;  9.9995859E+03;  0.0000000E+00;  1.2126260E-16;  1.0000000E+04;  0.0000000E+00;  9.9997363E+03;  2.0010849E-02;  0.0000000E+00;  2.3144340E-02;  9.2584282E+01;
  6.5997642E-01;  9.9999998E-03;  2.0000188E-02;2068; -2.9044479E-02;  0.0000000E+00;  4.2809598E-04;  1.0044225E+03;  4.0178311E-01;  3.6638376E+03;3; -2.1978880E+01;  0.0000000E+00;  6.6366702E-01;0;  4.4682086E-02;  9.9995879E+03;  0.0000000E+00; -1.8703071E-10;  1.0000000E+04;  0.0000000E+00;  9.9997168E+03;  1.9968957E-02;  0.0000000E+00;  2.4713131E-02;  1.0017413E+02;
  6.5997642E-01;  9.9999998E-03;  4.0000413E-02;2069; -2.9132582E-02;  0.0000000E+00;  9.1448578E-04;  1.0044196E+03;  4.0178311E-01;  3.6613687E+03;3; -2.2102654E+01;  0.0000000E+00;  1.3748609E+00;0;  4.9148828E-02;  9.9995889E+03;  0.0000000E+00;  9.3996116E-11;  1.0000000E+04;  0.0000000E+00;  9.9996582E+03;  1.9844526E-02;  0.0000000E+00;  2.9304300E-02;  1.2252924E+02;
  6.5997630E-01;  9.9999998E-03;  6.0000714E-02;2070; -2.9293850E-02;  0.0000000E+00;  1.5445424E-03;  1.0044149E+03;  4.0178308E-01;  3.6575171E+03;3; -2.2333784E+01;  0.0000000E+00;  2.2648590E+00;0;  5.6250848E-02;  9.9995908E+03;  0.0000000E+00;  1.1586567E-08;  1.0000000E+04;  0.0000000E+00;  9.9995605E+03;  1.9640017E-02;  0.0000000E+00;  3.6610831E-02;  1.5891695E+02;
  6.5997618E-01;  9.9999998E-03;  8.0001146E-02;2071; -2.9553344E-02;  0.0000000E+00;  2.4112449E-03;  1.0044084E+03;  4.0178311E-01;  3.6520854E+03;3; -2.2692545E+01;  0.0000000E+00;  3.4292562E+00;0;  6.5700367E-02;  9.9995967E+03;  0.0000000E+00;  6.0797802E-08;  1.0000000E+04;  0.0000000E+00;  9.9994277E+03;  1.9358084E-02;  0.0000000E+00;  4.6342280E-02;  2.1044739E+02;
  6.5997601E-01;  9.9999998E-03;  1.0000175E-01;2072; -2.9936470E-02;  0.0000000E+00;  3.5886602E-03;  1.0043992E+03;  4.0178311E-01;  3.6444810E+03;3; -2.3202480E+01;  0.0000000E+00;  4.9214244E+00;0;  7.7755772E-02;  9.9996006E+03;  0.0000000E+00;  1.6557956E-07;  1.0000000E+04;  0.0000000E+00;  9.9992393E+03;  1.9005533E-02;  0.0000000E+00;  5.8750238E-02;  2.8503873E+02;
  6.5997571E-01;  9.9999998E-03;  1.2000255E-01;2073; -3.0474043E-02;  0.0000000E+00;  5.0956039E-03;  1.0043850E+03;  4.0178314E-01;  3.6327288E+03;3; -2.3899782E+01;  0.0000000E+00;  6.7484913E+00;0;  9.3969502E-02;  9.9996074E+03;  0.0000000E+00;  2.0381377E-07;  1.0000000E+04;  0.0000000E+00;  9.9989512E+03;  1.8609941E-02;  0.0000000E+00;  7.5359561E-02;  4.0479950E+02;
  6.5997535E-01;  9.9999998E-03;  1.4000353E-01;2074; -3.1185791E-02;  0.0000000E+00;  6.8865153E-03;  1.0043611E+03;  4.0178314E-01;  3.6129771E+03;3; -2.4775658E+01;  0.0000000E+00;  8.8634081E+00;0;  1.1737473E-01;  9.9996143E+03;  0.0000000E+00; -4.7033132E-07;  1.0000000E+04;  0.0000000E+00;  9.9984678E+03;  1.8258445E-02;  0.0000000E+00;  9.9116281E-02;  6.1012640E+02;
  6.7997628E-01;  9.9999998E-03;  3.2026059E-12;2098; -2.9548831E-02;  0.0000000E+00;  2.8909581E-09;  1.0057592E+03;  4.0234232E-01;  4.7711436E+03;3; -2.2582235E+01;  0.0000000E+00; -2.9631890E-05;0;  1.1174822E-01;  9.9983760E+03;  0.0000000E+00;  1.7537857E-15;  1.0000000E+04;  0.0000000E+00;  9.9997090E+03;  8.5945860E-02;  0.0000000E+00;  2.5802363E-02;  9.7806320E+01;
  6.7997628E-01;  9.9999998E-03;  2.0000195E-02;2099; -2.9573748E-02;  0.0000000E+00;  4.6325781E-04;  1.0057578E+03;  4.0234229E-01;  4.7699585E+03;3; -2.2612158E+01;  0.0000000E+00;  7.4233711E-01;0;  1.1370185E-01;  9.9983760E+03;  0.0000000E+00; -3.8120399E-10;  1.0000000E+04;  0.0000000E+00;  9.9996836E+03;  8.5990295E-02;  0.0000000E+00;  2.7711557E-02;  1.0690287E+02;
  6.7997622E-01;  9.9999998E-03;  4.0000435E-02;2100; -2.9662812E-02;  0.0000000E+00;  1.0045397E-03;  1.0057543E+03;  4.0234226E-01;  4.7669956E+03;3; -2.2748104E+01;  0.0000000E+00;  1.5728177E+00;0;  1.1942485E-01;  9.9983750E+03;  0.0000000E+00; -2.8562155E-10;  1.0000000E+04;  0.0000000E+00;  9.9996133E+03;  8.6131699E-02;  0.0000000E+00;  3.3293147E-02;  1.3365884E+02;
  6.7997617E-01;  9.9999998E-03;  6.0000781E-02;2101; -2.9829144E-02;  0.0000000E+00;  1.7346769E-03;  1.0057483E+03;  4.0234229E-01;  4.7620576E+03;3; -2.2994110E+01;  0.0000000E+00;  2.6198609E+00;0;  1.2856072E-01;  9.9983701E+03;  0.0000000E+00;  7.6573778E-09;  1.0000000E+04;  0.0000000E+00;  9.9994971E+03;  8.6393766E-02;  0.0000000E+00;  4.2166948E-02;  1.7716493E+02;
  6.7997605E-01;  9.9999998E-03;  8.0001295E-02;2102; -3.0096339E-02;  0.0000000E+00;  2.7709347E-03;  1.0057401E+03;  4.0234226E-01;  4.7552437E+03;3; -2.3364574E+01;  0.0000000E+00;  4.0183558E+00;0;  1.4081404E-01;  9.9983643E+03;  0.0000000E+00;  4.7664710E-08;  1.0000000E+04;  0.0000000E+00;  9.9993369E+03;  8.6812936E-02;  0.0000000E+00;  5.4001100E-02;  2.3894635E+02;
  6.7997587E-01;  9.9999998E-03;  1.0000203E-01;2103; -3.0491110E-02;  0.0000000E+00;  4.2073335E-03;  1.0057282E+03;  4.0234232E-01;  4.7454668E+03;3; -2.3900555E+01;  0.0000000E+00;  5.8523374E+00;0;  1.5661997E-01;  9.9983574E+03;  0.0000000E+00;  1.4019112E-07;  1.0000000E+04;  0.0000000E+00;  9.9991084E+03;  8.7438263E-02;  0.0000000E+00;  6.9181703E-02;  3.2919012E+02;
  6.7997557E-01;  9.9999998E-03;  1.2000301E-01;2104; -3.1034756E-02;  0.0000000E+00;  6.0804440E-03;  1.0057097E+03;  4.0234232E-01;  4.7301592E+03;3; -2.4595978E+01;  0.0000000E+00;  8.1873560E+00;0;  1.7803973E-01;  9.9983477E+03;  0.0000000E+00;  1.8591832E-07;  1.0000000E+04;  0.0000000E+00;  9.9987529E+03;  8.8340290E-02;  0.0000000E+00;  8.9699440E-02;  4.7570285E+02;
  6.7997521E-01;  9.9999998E-03;  1.4000420E-01;2105; -3.1760972E-02;  0.0000000E+00;  8.3230929E-03;  1.0056793E+03;  4.0234238E-01;  4.7048774E+03;3; -2.5513863E+01;  0.0000000E+00;  1.0894863E+01;0;  2.0886695E-01;  9.9983311E+03;  0.0000000E+00; -3.3944747E-07;  1.0000000E+04;  0.0000000E+00;  9.9981592E+03;  8.9638405E-02;  0.0000000E+00;  1.1922854E-01;  7.2829053E+02;
  6.9997877E-01;  9.9999998E-03;  4.1385441E-12;2129; -2.7447440E-02;  0.0000000E+00;  8.9490761E-09;  1.0064662E+03;  4.0264782E-01;  5.3567622E+03;3; -2.2147272E+01;  0.0000000E+00;  7.0238020E-06;0;  1.7676568E-01;  9.9972744E+03;  0.0000000E+00;  5.0044739E-16;  1.0000000E+04;  0.0000000E+00;  9.9996826E+03;  1.4847727E-01;  0.0000000E+00;  2.8288405E-02;  1.0276069E+02;
  6.9997877E-01;  9.9999998E-03;  2.0000184E-02;2130; -2.7466564E-02;  0.0000000E+00;  4.5733512E-04;  1.0064648E+03;  4.0264782E-01;  5.3555771E+03;3; -2.2179976E+01;  0.0000000E+00;  7.7374136E-01;0;  1.7912537E-01;  9.9972725E+03;  0.0000000E+00; -1.8897020E-10;  1.0000000E+04;  0.0000000E+00;  9.9996533E+03;  1.4860354E-01;  0.0000000E+00;  3.0521832E-02;  1.1328872E+02;
  6.9997877E-01;  9.9999998E-03;  4.0000431E-02;2131; -2.7530788E-02;  0.0000000E+00;  1.0252531E-03;  1.0064604E+03;  4.0264788E-01;  5.3519233E+03;3; -2.2286301E+01;  0.0000000E+00;  1.6740761E+00;0;  1.8604152E-01;  9.9972676E+03;  0.0000000E+00; -2.2782583E-10;  1.0000000E+04;  0.0000000E+00;  9.9995723E+03;  1.4899817E-01;  0.0000000E+00;  3.7043344E-02;  1.4421153E+02;
  6.9997871E-01;  9.9999998E-03;  6.0000807E-02;2132; -2.7655382E-02;  0.0000000E+00;  1.8371319E-03;  1.0064534E+03;  4.0264791E-01;  5.3460967E+03;3; -2.2484774E+01;  0.0000000E+00;  2.8572650E+00;0;  1.9710080E-01;  9.9972598E+03;  0.0000000E+00;  6.5919759E-09;  1.0000000E+04;  0.0000000E+00;  9.9994385E+03;  1.4970721E-01;  0.0000000E+00;  4.7393594E-02;  1.9439729E+02;
  6.9997859E-01;  9.9999998E-03;  8.0001391E-02;2133; -2.7863910E-02;  0.0000000E+00;  3.0396469E-03;  1.0064433E+03;  4.0264788E-01;  5.3377026E+03;3; -2.2801483E+01;  0.0000000E+00;  4.4951944E+00;0;  2.1198440E-01;  9.9972471E+03;  0.0000000E+00;  3.9968075E-08;  1.0000000E+04;  0.0000000E+00;  9.9992520E+03;  1.5080252E-01;  0.0000000E+00;  6.1181873E-02;  2.6562454E+02;
  6.9997847E-01;  9.9999998E-03;  1.0000226E-01;2134; -2.8190052E-02;  0.0000000E+00;  4.7507719E-03;  1.0064291E+03;  4.0264779E-01;  5.3260493E+03;3; -2.3271683E+01;  0.0000000E+00;  6.7200599E+00;0;  2.3125967E-01;  9.9972256E+03;  0.0000000E+00;  1.2099925E-07;  1.0000000E+04;  0.0000000E+00;  9.9989863E+03;  1.5237583E-01;  0.0000000E+00;  7.8883842E-02;  3.6992120E+02;
  6.9997823E-01;  9.9999998E-03;  1.2000342E-01;2135; -2.8666325E-02;  0.0000000E+00;  6.9973082E-03;  1.0064069E+03;  4.0264791E-01;  5.3075825E+03;3; -2.3926634E+01;  0.0000000E+00;  9.5554056E+00;0;  2.5739941E-01;  9.9972002E+03;  0.0000000E+00;  2.0199492E-07;  1.0000000E+04;  0.0000000E+00;  9.9985742E+03;  1.5453279E-01;  0.0000000E+00;  1.0286661E-01;  5.3990967E+02;
  6.9997787E-01;  9.9999998E-03;  1.4000481E-01;2136; -2.9332073E-02;  0.0000000E+00;  9.6738311E-03;  1.0063705E+03;  4.0264788E-01;  5.2773633E+03;3; -2.4808189E+01;  0.0000000E+00;  1.2854119E+01;0;  2.9481792E-01;  9.9971631E+03;  0.0000000E+00; -5.1942198E-08;  1.0000000E+04;  0.0000000E+00;  9.9978828E+03;  1.5740146E-01;  0.0000000E+00;  1.3741648E-01;  8.3347540E+02;
  7.1998489E-01;  9.9999998E-03;  1.7301179E-12;2160; -1.9905925E-02;  0.0000000E+00;  4.0848516E-09;  1.0067603E+03;  4.0278128E-01;  5.6002368E+03;3; -1.6594662E+01;  0.0000000E+00;  2.0378036E-05;0;  2.2482421E-01;  9.9965078E+03;  0.0000000E+00;  1.7146502E-15;  1.0000000E+04;  0.0000000E+00;  9.9996592E+03;  1.9431667E-01;  0.0000000E+00;  3.0507538E-02;  1.0799269E+02;
  7.1998489E-01;  9.9999998E-03;  2.0000199E-02;2161; -1.9920222E-02;  0.0000000E+00;  4.9319898E-04;  1.0067586E+03;  4.0278128E-01;  5.5987554E+03;3; -1.6619675E+01;  0.0000000E+00;  8.3907866E-01;0;  2.2752586E-01;  9.9965068E+03;  0.0000000E+00; -9.7763693E-11;  1.0000000E+04;  0.0000000E+00;  9.9996270E+03;  1.9450305E-01;  0.0000000E+00;  3.3022810E-02;  1.1976695E+02;
  7.1998483E-01;  9.9999998E-03;  4.0000465E-02;2162; -1.9966932E-02;  0.0000000E+00;  1.1124858E-03;  1.0067537E+03;  4.0278128E-01;  5.5947065E+03;3; -1.6699013E+01;  0.0000000E+00;  1.8246404E+00;0;  2.3544440E-01;  9.9964980E+03;  0.0000000E+00;  5.2749388E-10;  1.0000000E+04;  0.0000000E+00;  9.9995352E+03;  1.9508572E-01;  0.0000000E+00;  4.0358674E-02;  1.5430315E+02;
  7.1998483E-01;  9.9999998E-03;  6.0000882E-02;2163; -2.0058287E-02;  0.0000000E+00;  2.0080972E-03;  1.0067455E+03;  4.0278125E-01;  5.5878931E+03;3; -1.6846664E+01;  0.0000000E+00;  3.1336911E+00;0;  2.4810919E-01;  9.9964863E+03;  0.0000000E+00;  6.0689476E-09;  1.0000000E+04;  0.0000000E+00;  9.9993857E+03;  1.9613227E-01;  0.0000000E+00;  5.1976923E-02;  2.1021507E+02;
  7.1998471E-01;  9.9999998E-03;  8.0001533E-02;2164; -2.0216377E-02;  0.0000000E+00;  3.3460578E-03;  1.0067341E+03;  4.0278131E-01;  5.5784126E+03;3; -1.7088129E+01;  0.0000000E+00;  4.9622335E+00;0;  2.6515961E-01;  9.9964678E+03;  0.0000000E+00;  3.2550663E-08;  1.0000000E+04;  0.0000000E+00;  9.9991797E+03;  1.9774769E-01;  0.0000000E+00;  6.7411929E-02;  2.8934253E+02;
  7.1998459E-01;  9.9999998E-03;  1.0000250E-01;2165; -2.0472342E-02;  0.0000000E+00;  5.2557024E-03;  1.0067180E+03;  4.0278128E-01;  5.5650811E+03;3; -1.7459282E+01;  0.0000000E+00;  7.4584961E+00;0;  2.8723344E-01;  9.9964385E+03;  0.0000000E+00;  9.9015658E-08;  1.0000000E+04;  0.0000000E+00;  9.9988848E+03;  2.0006211E-01;  0.0000000E+00;  8.7171338E-02;  4.0496704E+02;
  7.1998441E-01;  9.9999998E-03;  1.2000378E-01;2166; -2.0861505E-02;  0.0000000E+00;  7.7598258E-03;  1.0066930E+03;  4.0278134E-01;  5.5444419E+03;3; -1.8000582E+01;  0.0000000E+00;  1.0637179E+01;0;  3.1708515E-01;  9.9964004E+03;  0.0000000E+00;  1.9579159E-07;  1.0000000E+04;  0.0000000E+00;  9.9984258E+03;  2.0320798E-01;  0.0000000E+00;  1.1387717E-01;  5.9327863E+02;
  7.1998417E-01;  9.9999998E-03;  1.4000534E-01;2167; -2.1414621E-02;  0.0000000E+00;  1.0743339E-02;  1.0066519E+03;  4.0278137E-01;  5.5103726E+03;3; -1.8745819E+01;  0.0000000E+00;  1.4341171E+01;0;  3.5957360E-01;  9.9963486E+03;  0.0000000E+00;  1.6347627E-07;  1.0000000E+04;  0.0000000E+00;  9.9976602E+03;  2.0730244E-01;  0.0000000E+00;  1.5227115E-01;  9.1836633E+02;
  7.3999083E-01;  9.9999998E-03;  2.7209107E-12;2191; -1.2087965E-02;  0.0000000E+00; -4.2169033E-09;  1.0068748E+03;  4.0283379E-01;  5.6948291E+03;3; -1.0136483E+01;  0.0000000E+00; -1.2775534E-05;0;  2.4789974E-01;  9.9961914E+03;  0.0000000E+00;  1.9413237E-17;  1.0000000E+04;  0.0000000E+00;  9.9996396E+03;  2.1554102E-01;  0.0000000E+00;  3.2358728E-02;  1.1354193E+02;
  7.3999083E-01;  9.9999998E-03;  2.0000212E-02;2192; -1.2098762E-02;  0.0000000E+00;  5.2954408E-04;  1.0068729E+03;  4.0283388E-01;  5.6932490E+03;3; -1.0155493E+01;  0.0000000E+00;  9.0277672E-01;0;  2.5085729E-01;  9.9961895E+03;  0.0000000E+00;  7.2948786E-11;  1.0000000E+04;  0.0000000E+00;  9.9996045E+03;  2.1576093E-01;  0.0000000E+00;  3.5096362E-02;  1.2630318E+02;
  7.3999083E-01;  9.9999998E-03;  4.0000498E-02;2193; -1.2133800E-02;  0.0000000E+00;  1.1941151E-03;  1.0068674E+03;  4.0283385E-01;  5.6887065E+03;3; -1.0215429E+01;  0.0000000E+00;  1.9622416E+00;0;  2.5952253E-01;  9.9961807E+03;  0.0000000E+00;  5.7587501E-10;  1.0000000E+04;  0.0000000E+00;  9.9995049E+03;  2.1644981E-01;  0.0000000E+00;  4.3072708E-02;  1.6368996E+02;
  7.3999077E-01;  9.9999998E-03;  6.0000945E-02;2194; -1.2201737E-02;  0.0000000E+00;  2.1546639E-03;  1.0068586E+03;  4.0283379E-01;  5.6813989E+03;3; -1.0325891E+01;  0.0000000E+00;  3.3676205E+00;0;  2.7337006E-01;  9.9961680E+03;  0.0000000E+00;  5.1140834E-09;  1.0000000E+04;  0.0000000E+00;  9.9993438E+03;  2.1769214E-01;  0.0000000E+00;  5.5677932E-02;  2.2406102E+02;
  7.3999071E-01;  9.9999998E-03;  8.0001645E-02;2195; -1.2318399E-02;  0.0000000E+00;  3.5889808E-03;  1.0068463E+03;  4.0283379E-01;  5.6712280E+03;3; -1.0504848E+01;  0.0000000E+00;  5.3287606E+00;0;  2.9198366E-01;  9.9961436E+03;  0.0000000E+00;  2.3103654E-08;  1.0000000E+04;  0.0000000E+00;  9.9991201E+03;  2.1961878E-01;  0.0000000E+00;  7.2364867E-02;  3.0915720E+02;
  7.3999065E-01;  9.9999998E-03;  1.0000267E-01;2196; -1.2506258E-02;  0.0000000E+00;  5.6348941E-03;  1.0068289E+03;  4.0283388E-01;  5.6568105E+03;3; -1.0777864E+01;  0.0000000E+00;  8.0032930E+00;0;  3.1600869E-01;  9.9961113E+03;  0.0000000E+00;  6.8617851E-08;  1.0000000E+04;  0.0000000E+00;  9.9988057E+03;  2.2238648E-01;  0.0000000E+00;  9.3622223E-02;  4.3293503E+02;
  7.3999053E-01;  9.9999998E-03;  1.2000405E-01;2197; -1.2790568E-02;  0.0000000E+00;  8.3146039E-03;  1.0068019E+03;  4.0283391E-01;  5.6344937E+03;3; -1.1173232E+01;  0.0000000E+00;  1.1403865E+01;0;  3.4834924E-01;  9.9960664E+03;  0.0000000E+00;  1.4556605E-07;  1.0000000E+04;  0.0000000E+00;  9.9983164E+03;  2.2614287E-01;  0.0000000E+00;  1.2220637E-01;  6.3385583E+02;
  7.3999029E-01;  9.9999998E-03;  1.4000571E-01;2198; -1.3191642E-02;  0.0000000E+00;  1.1499955E-02;  1.0067579E+03;  4.0283391E-01;  5.5979565E+03;3; -1.1712324E+01;  0.0000000E+00;  1.5355499E+01;0;  3.9413893E-01;  9.9960068E+03;  0.0000000E+00;  2.0030859E-07;  1.0000000E+04;  0.0000000E+00;  9.9974990E+03;  2.3098440E-01;  0.0000000E+00;  1.6315454E-01;  9.8022626E+02;
  7.5999540E-01;  9.9999998E-03;  5.2039154E-12;2222; -6.1245607E-03;  0.0000000E+00;  1.7299568E-09;  1.0069276E+03;  4.0285361E-01;  5.7382881E+03;3; -5.2281098E+00;  0.0000000E+00; -1.9083673E-05;0;  2.4761595E-01;  9.9962715E+03;  0.0000000E+00;  1.1690162E-15;  1.0000000E+04;  0.0000000E+00;  9.9996240E+03;  2.1386243E-01;  0.0000000E+00;  3.3753518E-02;  1.1884875E+02;
  7.5999540E-01;  9.9999998E-03;  2.0000223E-02;2223; -6.1316779E-03;  0.0000000E+00;  5.5520277E-04;  1.0069256E+03;  4.0285367E-01;  5.7366099E+03;3; -5.2407742E+00;  0.0000000E+00;  9.4812256E-01;0;  2.5074005E-01;  9.9962695E+03;  0.0000000E+00;  2.3916482E-11;  1.0000000E+04;  0.0000000E+00;  9.9995889E+03;  2.1409200E-01;  0.0000000E+00;  3.6648065E-02;  1.3230847E+02;
  7.5999540E-01;  9.9999998E-03;  4.0000521E-02;2224; -6.1545828E-03;  0.0000000E+00;  1.2512547E-03;  1.0069199E+03;  4.0285367E-01;  5.7318701E+03;3; -5.2803617E+00;  0.0000000E+00;  2.0591908E+00;0;  2.5988820E-01;  9.9962598E+03;  0.0000000E+00;  4.7045412E-10;  1.0000000E+04;  0.0000000E+00;  9.9994834E+03;  2.1481356E-01;  0.0000000E+00;  4.5074653E-02;  1.7170406E+02;
  7.5999540E-01;  9.9999998E-03;  6.0000986E-02;2225; -6.1984388E-03;  0.0000000E+00;  2.2562563E-03;  1.0069105E+03;  4.0285367E-01;  5.7241680E+03;3; -5.3522992E+00;  0.0000000E+00;  3.5306103E+00;0;  2.7448693E-01;  9.9962461E+03;  0.0000000E+00;  2.9564453E-09;  1.0000000E+04;  0.0000000E+00;  9.9993135E+03;  2.1612144E-01;  0.0000000E+00;  5.8365490E-02;  2.3517233E+02;
  7.5999534E-01;  9.9999998E-03;  8.0001719E-02;2226; -6.2728473E-03;  0.0000000E+00;  3.7561024E-03;  1.0068976E+03;  4.0285367E-01;  5.7135034E+03;3; -5.4671144E+00;  0.0000000E+00;  5.5814762E+00;0;  2.9405695E-01;  9.9962217E+03;  0.0000000E+00;  1.2445643E-08;  1.0000000E+04;  0.0000000E+00;  9.9990791E+03;  2.1815993E-01;  0.0000000E+00;  7.5897031E-02;  3.2426642E+02;
  7.5999528E-01;  9.9999998E-03;  1.0000280E-01;2227; -6.3917520E-03;  0.0000000E+00;  5.8944854E-03;  1.0068795E+03;  4.0285367E-01;  5.6983960E+03;3; -5.6402860E+00;  0.0000000E+00;  8.3758783E+00;0;  3.1920671E-01;  9.9961875E+03;  0.0000000E+00;  3.6012938E-08;  1.0000000E+04;  0.0000000E+00;  9.9987500E+03;  2.2109830E-01;  0.0000000E+00;  9.8108403E-02;  4.5316699E+02;
  7.5999522E-01;  9.9999998E-03;  1.2000423E-01;2228; -6.5707224E-03;  0.0000000E+00;  8.6922934E-03;  1.0068514E+03;  4.0285370E-01;  5.6751909E+03;3; -5.8889155E+00;  0.0000000E+00;  1.1923809E+01;0;  3.5288543E-01;  9.9961406E+03;  0.0000000E+00;  8.0126703E-08;  1.0000000E+04;  0.0000000E+00;  9.9982422E+03;  2.2508858E-01;  0.0000000E+00;  1.2779686E-01;  6.6151068E+02;
  7.5999504E-01;  9.9999998E-03;  1.4000596E-01;2229; -6.8212552E-03;  0.0000000E+00;  1.2009599E-02;  1.0068058E+03;  4.0285373E-01;  5.6374712E+03;3; -6.2243357E+00;  0.0000000E+00;  1.6034203E+01;0;  4.0036345E-01;  9.9960791E+03;  0.0000000E+00;  1.3073465E-07;  1.0000000E+04;  0.0000000E+00;  9.9973975E+03;  2.3020564E-01;  0.0000000E+00;  1.7015779E-01;  1.0200522E+03;
  7.7999866E-01;  9.9999998E-03; -6.5361705E-12;2253; -1.8390161E-03;  0.0000000E+00; -5.5145688E-09;  1.0069612E+03;  4.0286094E-01;  5.7657461E+03;3; -1.6993200E+00;  0.0000000E+00;  1.3043347E-05;0;  2.3235470E-01;  9.9965898E+03;  0.0000000E+00; -1.6237406E-16;  1.0000000E+04;  0.0000000E+00;  9.9996143E+03;  1.9771755E-01;  0.0000000E+00;  3.4637149E-02;  1.2307997E+02;
  7.7999866E-01;  9.9999998E-03;  2.0000229E-02;2254; -1.8425507E-03;  0.0000000E+00;  5.7026563E-04;  1.0069593E+03;  4.0286097E-01;  5.7641665E+03;3; -1.7057458E+00;  0.0000000E+00;  9.7504479E-01;0;  2.3556577E-01;  9.9965889E+03;  0.0000000E+00;  4.1074207E-11;  1.0000000E+04;  0.0000000E+00;  9.9995781E+03;  1.9794053E-01;  0.0000000E+00;  3.7625238E-02;  1.3695363E+02;
  7.7999866E-01;  9.9999998E-03;  4.0000536E-02;2255; -1.8537197E-03;  0.0000000E+00;  1.2842910E-03;  1.0069534E+03;  4.0286097E-01;  5.7592295E+03;3; -1.7254959E+00;  0.0000000E+00;  2.1158938E+00;0;  2.4496150E-01;  9.9965791E+03;  0.0000000E+00;  2.4833580E-10;  1.0000000E+04;  0.0000000E+00;  9.9994697E+03;  1.9864276E-01;  0.0000000E+00;  4.6318736E-02;  1.7753239E+02;
  7.7999866E-01;  9.9999998E-03;  6.0001012E-02;2256; -1.8745241E-03;  0.0000000E+00;  2.3140628E-03;  1.0069439E+03;  4.0286094E-01;  5.7514297E+03;3; -1.7603002E+00;  0.0000000E+00;  3.6241446E+00;0;  2.5993121E-01;  9.9965654E+03;  0.0000000E+00;  1.1299737E-09;  1.0000000E+04;  0.0000000E+00;  9.9992939E+03;  1.9992186E-01;  0.0000000E+00;  6.0009349E-02;  2.4278947E+02;
  7.7999866E-01;  9.9999998E-03;  8.0001757E-02;2257; -1.9089461E-03;  0.0000000E+00;  3.8500847E-03;  1.0069307E+03;  4.0286097E-01;  5.7404697E+03;3; -1.8141667E+00;  0.0000000E+00;  5.7240934E+00;0;  2.7993765E-01;  9.9965430E+03;  0.0000000E+00;  4.2976214E-09;  1.0000000E+04;  0.0000000E+00;  9.9990537E+03;  2.0192423E-01;  0.0000000E+00;  7.8013420E-02;  3.3407690E+02;
  7.7999860E-01;  9.9999998E-03;  1.0000286E-01;2258; -1.9630899E-03;  0.0000000E+00;  6.0395151E-03;  1.0069122E+03;  4.0286103E-01;  5.7250669E+03;3; -1.8934886E+00;  0.0000000E+00;  8.5837030E+00;0;  3.0553162E-01;  9.9965098E+03;  0.0000000E+00;  1.1685154E-08;  1.0000000E+04;  0.0000000E+00;  9.9987178E+03;  2.0481887E-01;  0.0000000E+00;  1.0071273E-01;  4.6551538E+02;
  7.7999860E-01;  9.9999998E-03;  1.2000433E-01;2259; -2.0438787E-03;  0.0000000E+00;  8.9021670E-03;  1.0068839E+03;  4.0286106E-01;  5.7016660E+03;3; -2.0055649E+00;  0.0000000E+00;  1.2210859E+01;0;  3.3963960E-01;  9.9964609E+03;  0.0000000E+00;  2.7443539E-08;  1.0000000E+04;  0.0000000E+00;  9.9982021E+03;  2.0875221E-01;  0.0000000E+00;  1.3088740E-01;  6.7711206E+02;
  7.7999854E-01;  9.9999998E-03;  1.4000610E-01;2260; -2.1557622E-03;  0.0000000E+00;  1.2289621E-02;  1.0068376E+03;  4.0286109E-01;  5.6633560E+03;3; -2.1542706E+00;  0.0000000E+00;  1.6403212E+01;0;  3.8757390E-01;  9.9964004E+03;  0.0000000E+00;  4.7574513E-08;  1.0000000E+04;  0.0000000E+00;  9.9973428E+03;  2.1378426E-01;  0.0000000E+00;  1.7378965E-01;  1.0406683E+03;
  8.0000120E-01;  9.9999998E-03; -6.5177880E-12;2284;  1.4760173E-03;  0.0000000E+00; -1.9501571E-09;  1.0069846E+03;  4.0286252E-01;  5.7845728E+03;3;  1.0537084E+00;  0.0000000E+00;  2.6405905E-06;0;  2.1155949E-01;  9.9969766E+03;  0.0000000E+00;  6.6532331E-16;  1.0000000E+04;  0.0000000E+00;  9.9996113E+03;  1.7656416E-01;  0.0000000E+00;  3.4995332E-02;  1.2552826E+02;
  8.0000120E-01;  9.9999998E-03;  2.0000231E-02;2285;  1.4758584E-03;  0.0000000E+00;  5.7539059E-04;  1.0069825E+03;  4.0286246E-01;  5.7827954E+03;3;  1.0531780E+00;  0.0000000E+00;  9.8464352E-01;0;  2.1479298E-01;  9.9969756E+03;  0.0000000E+00;  1.2389116E-11;  1.0000000E+04;  0.0000000E+00;  9.9995732E+03;  1.7677325E-01;  0.0000000E+00;  3.8019728E-02;  1.3955266E+02;
  8.0000120E-01;  9.9999998E-03;  4.0000539E-02;2286;  1.4756096E-03;  0.0000000E+00;  1.2949656E-03;  1.0069766E+03;  4.0286258E-01;  5.7779580E+03;3;  1.0520391E+00;  0.0000000E+00;  2.1350517E+00;0;  2.2424850E-01;  9.9969678E+03;  0.0000000E+00;  3.7550230E-11;  1.0000000E+04;  0.0000000E+00;  9.9994639E+03;  1.7743331E-01;  0.0000000E+00;  4.6815194E-02;  1.8055408E+02;
  8.0000120E-01;  9.9999998E-03;  6.0001019E-02;2287;  1.4760124E-03;  0.0000000E+00;  2.3316697E-03;  1.0069670E+03;  4.0286261E-01;  5.7699609E+03;3;  1.0515380E+00;  0.0000000E+00;  3.6536653E+00;0;  2.3928893E-01;  9.9969541E+03;  0.0000000E+00;  1.1017084E-10;  1.0000000E+04;  0.0000000E+00;  9.9992881E+03;  1.7863727E-01;  0.0000000E+00;  6.0651656E-02;  2.4641112E+02;
  8.0000120E-01;  9.9999998E-03;  8.0001771E-02;2288;  1.4779741E-03;  0.0000000E+00;  3.8774584E-03;  1.0069537E+03;  4.0286252E-01;  5.7590020E+03;3;  1.0532711E+00;  0.0000000E+00;  5.7663403E+00;0;  2.5933352E-01;  9.9969326E+03;  0.0000000E+00;  3.0884290E-10;  1.0000000E+04;  0.0000000E+00;  9.9990449E+03;  1.8052593E-01;  0.0000000E+00;  7.8807592E-02;  3.3831012E+02;
  8.0000120E-01;  9.9999998E-03;  1.0000288E-01;2289;  1.4823924E-03;  0.0000000E+00;  6.0807341E-03;  1.0069352E+03;  4.0286252E-01;  5.7436992E+03;3;  1.0588473E+00;  0.0000000E+00;  8.6424294E+00;0;  2.8487444E-01;  9.9968994E+03;  0.0000000E+00;  8.0211782E-10;  1.0000000E+04;  0.0000000E+00;  9.9987070E+03;  1.8325861E-01;  0.0000000E+00;  1.0161582E-01;  4.7015909E+02;
  8.0000120E-01;  9.9999998E-03;  1.2000436E-01;2290;  1.4899756E-03;  0.0000000E+00;  8.9608096E-03;  1.0069071E+03;  4.0286255E-01;  5.7203994E+03;3;  1.0694536E+00;  0.0000000E+00;  1.2289159E+01;0;  3.1878245E-01;  9.9968564E+03;  0.0000000E+00;  1.4383565E-09;  1.0000000E+04;  0.0000000E+00;  9.9981904E+03;  1.8697110E-01;  0.0000000E+00;  1.3181134E-01;  6.8177716E+02;
  8.0000120E-01;  9.9999998E-03;  1.4000614E-01;2291;  1.5021735E-03;  0.0000000E+00;  1.2365167E-02;  1.0068611E+03;  4.0286267E-01;  5.6822905E+03;3;  1.0871967E+00;  0.0000000E+00;  1.6498642E+01;0;  3.6634776E-01;  9.9968008E+03;  0.0000000E+00;  5.2365007E-10;  1.0000000E+04;  0.0000000E+00;  9.9973320E+03;  1.9171430E-01;  0.0000000E+00;  1.7463346E-01;  1.0449432E+03;
  8.2000351E-01;  9.9999998E-03;  9.4864123E-13;2315;  4.5360830E-03;  0.0000000E+00;  4.4399213E-09;  1.0069956E+03;  4.0285975E-01;  5.7929458E+03;3;  3.6255326E+00;  0.0000000E+00;  2.1415937E-05;0;  1.9129753E-01;  9.9973311E+03;  0.0000000E+00; -1.1778733E-15;  1.0000000E+04;  0.0000000E+00;  9.9996123E+03;  1.5644690E-01;  0.0000000E+00;  3.4850631E-02;  1.2587798E+02;
  8.2000351E-01;  9.9999998E-03;  2.0000229E-02;2316;  4.5390120E-03;  0.0000000E+00;  5.7147286E-04;  1.0069936E+03;  4.0285975E-01;  5.7912676E+03;3;  3.6304266E+00;  0.0000000E+00;  9.7840613E-01;0;  1.9450422E-01;  9.9973301E+03;  0.0000000E+00;  3.3633419E-12;  1.0000000E+04;  0.0000000E+00;  9.9995752E+03;  1.5664311E-01;  0.0000000E+00;  3.7861113E-02;  1.3981621E+02;
  8.2000351E-01;  9.9999998E-03;  4.0000536E-02;2317;  4.5487406E-03;  0.0000000E+00;  1.2855064E-03;  1.0069877E+03;  4.0285978E-01;  5.7864307E+03;3;  3.6462743E+00;  0.0000000E+00;  2.1203384E+00;0;  2.0387560E-01;  9.9973232E+03;  0.0000000E+00;  6.0876172E-11;  1.0000000E+04;  0.0000000E+00;  9.9994658E+03;  1.5726142E-01;  0.0000000E+00;  4.6614185E-02;  1.8055640E+02;
  8.2000351E-01;  9.9999998E-03;  6.0001012E-02;2318;  4.5683403E-03;  0.0000000E+00;  2.3134369E-03;  1.0069783E+03;  4.0285978E-01;  5.7786318E+03;3;  3.6769264E+00;  0.0000000E+00;  3.6260684E+00;0;  2.1876225E-01;  9.9973096E+03;  0.0000000E+00;  1.5208641E-10;  1.0000000E+04;  0.0000000E+00;  9.9992900E+03;  1.5838680E-01;  0.0000000E+00;  6.0375452E-02;  2.4594890E+02;
  8.2000357E-01;  9.9999998E-03;  8.0001757E-02;2319;  4.6029892E-03;  0.0000000E+00;  3.8458190E-03;  1.0069651E+03;  4.0285978E-01;  5.7677729E+03;3;  3.7286875E+00;  0.0000000E+00;  5.7197351E+00;0;  2.3855624E-01;  9.9972900E+03;  0.0000000E+00;  5.6575400E-10;  1.0000000E+04;  0.0000000E+00;  9.9990498E+03;  1.6014758E-01;  0.0000000E+00;  7.8408659E-02;  3.3706580E+02;
  8.2000357E-01;  9.9999998E-03;  1.0000286E-01;2320;  4.6596350E-03;  0.0000000E+00;  6.0303053E-03;  1.0069469E+03;  4.0285978E-01;  5.7526694E+03;3;  3.8100042E+00;  0.0000000E+00;  8.5700359E+00;0;  2.6370129E-01;  9.9972598E+03;  0.0000000E+00;  1.5148128E-09;  1.0000000E+04;  0.0000000E+00;  9.9987168E+03;  1.6268913E-01;  0.0000000E+00;  1.0101216E-01;  4.6750858E+02;
  8.2000363E-01;  9.9999998E-03;  1.2000433E-01;2321;  4.7459030E-03;  0.0000000E+00;  8.8862199E-03;  1.0069191E+03;  4.0285981E-01;  5.7295698E+03;3;  3.9297261E+00;  0.0000000E+00;  1.2184464E+01;0;  2.9699713E-01;  9.9972188E+03;  0.0000000E+00;  1.7770495E-09;  1.0000000E+04;  0.0000000E+00;  9.9982031E+03;  1.6613546E-01;  0.0000000E+00;  1.3086167E-01;  6.7648676E+02;
  8.2000369E-01;  9.9999998E-03;  1.4000608E-01;2322;  4.8686815E-03;  0.0000000E+00;  1.2260803E-02;  1.0068738E+03;  4.0285987E-01;  5.6921567E+03;3;  4.0954905E+00;  0.0000000E+00;  1.6355145E+01;0;  3.4366679E-01;  9.9971670E+03;  0.0000000E+00; -7.0263546E-09;  1.0000000E+04;  0.0000000E+00;  9.9973574E+03;  1.7053375E-01;  0.0000000E+00;  1.7313305E-01;  1.0348951E+03;
  8.4000593E-01;  9.9999998E-03; -8.6410382E-13;2346;  7.7092792E-03;  0.0000000E+00; -2.0092381E-10;  1.0068958E+03;  4.0281349E-01;  5.7093760E+03;3;  6.3107214E+00;  0.0000000E+00;  4.9399678E-06;0;  1.7281270E-01;  9.9976377E+03;  0.0000000E+00;  1.8394664E-16;  1.0000000E+04;  0.0000000E+00;  9.9996191E+03;  1.3855718E-01;  0.0000000E+00;  3.4255512E-02;  1.2426723E+02;
  8.4000593E-01;  9.9999998E-03;  2.0000223E-02;2347;  7.7150036E-03;  0.0000000E+00;  5.5949332E-04;  1.0068939E+03;  4.0281352E-01;  5.7077969E+03;3;  6.3205099E+00;  0.0000000E+00;  9.5807433E-01;0;  1.7595287E-01;  9.9976348E+03;  0.0000000E+00; -2.6971068E-11;  1.0000000E+04;  0.0000000E+00;  9.9995830E+03;  1.3874508E-01;  0.0000000E+00;  3.7207779E-02;  1.3790581E+02;
  8.4000593E-01;  9.9999998E-03;  4.0000524E-02;2348;  7.7338004E-03;  0.0000000E+00;  1.2582012E-03;  1.0068881E+03;  4.0281352E-01;  5.7030596E+03;3;  6.3517890E+00;  0.0000000E+00;  2.0756135E+00;0;  1.8512565E-01;  9.9976289E+03;  0.0000000E+00;  8.2441991E-11;  1.0000000E+04;  0.0000000E+00;  9.9994746E+03;  1.3933444E-01;  0.0000000E+00;  4.5791201E-02;  1.7776761E+02;
  8.4000593E-01;  9.9999998E-03;  6.0000990E-02;2349;  7.7706990E-03;  0.0000000E+00;  2.2636168E-03;  1.0068788E+03;  4.0281355E-01;  5.6952622E+03;3;  6.4104819E+00;  0.0000000E+00;  3.5481725E+00;0;  1.9968292E-01;  9.9976152E+03;  0.0000000E+00;  7.5546719E-10;  1.0000000E+04;  0.0000000E+00;  9.9993018E+03;  1.4040019E-01;  0.0000000E+00;  5.9282739E-02;  2.4173389E+02;
  8.4000599E-01;  9.9999998E-03;  8.0001719E-02;2350;  7.8345807E-03;  0.0000000E+00;  3.7624328E-03;  1.0068660E+03;  4.0281358E-01;  5.6847012E+03;3;  6.5070624E+00;  0.0000000E+00;  5.5954366E+00;0;  2.1900685E-01;  9.9975977E+03;  0.0000000E+00;  3.0081273E-09;  1.0000000E+04;  0.0000000E+00;  9.9990674E+03;  1.4205518E-01;  0.0000000E+00;  7.6951668E-02;  3.3080319E+02;
  8.4000599E-01;  9.9999998E-03;  1.0000280E-01;2351;  7.9378663E-03;  0.0000000E+00;  5.8997050E-03;  1.0068482E+03;  4.0281355E-01;  5.6699951E+03;3;  6.6560097E+00;  0.0000000E+00;  8.3833790E+00;0;  2.4350409E-01;  9.9975703E+03;  0.0000000E+00;  8.0645179E-09;  1.0000000E+04;  0.0000000E+00;  9.9987422E+03;  1.4443061E-01;  0.0000000E+00;  9.9073485E-02;  4.5817813E+02;
  8.4000611E-01;  9.9999998E-03;  1.2000423E-01;2352;  8.0943648E-03;  0.0000000E+00;  8.6948657E-03;  1.0068211E+03;  4.0281361E-01;  5.6475903E+03;3;  6.8730946E+00;  0.0000000E+00;  1.1920204E+01;0;  2.7589312E-01;  9.9975313E+03;  0.0000000E+00;  1.6071688E-08;  1.0000000E+04;  0.0000000E+00;  9.9982393E+03;  1.4764154E-01;  0.0000000E+00;  1.2825158E-01;  6.6206805E+02;
  8.4000617E-01;  9.9999998E-03;  1.4000596E-01;2353;  8.3163725E-03;  0.0000000E+00;  1.1998058E-02;  1.0067770E+03;  4.0281361E-01;  5.6109727E+03;3;  7.1716909E+00;  0.0000000E+00;  1.6002377E+01;0;  3.2129076E-01;  9.9974824E+03;  0.0000000E+00;  8.5031386E-09;  1.0000000E+04;  0.0000000E+00;  9.9974092E+03;  1.5173788E-01;  0.0000000E+00;  1.6955288E-01;  1.0117041E+03;
  8.6000836E-01;  9.9999998E-03;  9.8857866E-12;2377;  1.0971911E-02;  0.0000000E+00;  3.5231110E-10;  1.0066840E+03;  4.0272263E-01;  5.5327520E+03;3;  9.0767593E+00;  0.0000000E+00; -2.1875661E-05;0;  1.5390798E-01;  9.9979375E+03;  0.0000000E+00;  2.5738615E-16;  1.0000000E+04;  0.0000000E+00;  9.9996289E+03;  1.2062229E-01;  0.0000000E+00;  3.3285700E-02;  1.2117367E+02;
  8.6000836E-01;  9.9999998E-03;  2.0000216E-02;2378;  1.0980172E-02;  0.0000000E+00;  5.4033368E-04;  1.0066821E+03;  4.0272257E-01;  5.5311733E+03;3;  9.0909586E+00;  0.0000000E+00;  9.2519546E-01;0;  1.5694529E-01;  9.9979355E+03;  0.0000000E+00; -4.0883412E-12;  1.0000000E+04;  0.0000000E+00;  9.9995947E+03;  1.2080545E-01;  0.0000000E+00;  3.6139842E-02;  1.3431700E+02;
  8.6000836E-01;  9.9999998E-03;  4.0000506E-02;2379;  1.1007040E-02;  0.0000000E+00;  1.2149921E-03;  1.0066765E+03;  4.0272260E-01;  5.5266343E+03;3;  9.1359472E+00;  0.0000000E+00;  2.0041227E+00;0;  1.6581592E-01;  9.9979287E+03;  0.0000000E+00;  9.3087274E-11;  1.0000000E+04;  0.0000000E+00;  9.9994902E+03;  1.2137704E-01;  0.0000000E+00;  4.4438891E-02;  1.7273592E+02;
  8.6000842E-01;  9.9999998E-03;  6.0000956E-02;2380;  1.1059368E-02;  0.0000000E+00;  2.1857428E-03;  1.0066675E+03;  4.0272260E-01;  5.5191348E+03;3;  9.2196789E+00;  0.0000000E+00;  3.4256244E+00;0;  1.7988589E-01;  9.9979170E+03;  0.0000000E+00;  9.6352659E-10;  1.0000000E+04;  0.0000000E+00;  9.9993223E+03;  1.2240075E-01;  0.0000000E+00;  5.7485145E-02;  2.3439267E+02;
  8.6000848E-01;  9.9999998E-03;  8.0001660E-02;2381;  1.1149320E-02;  0.0000000E+00;  3.6332756E-03;  1.0066552E+03;  4.0272266E-01;  5.5089707E+03;3;  9.3561907E+00;  0.0000000E+00;  5.4024744E+00;0;  1.9854484E-01;  9.9978994E+03;  0.0000000E+00;  5.4155080E-09;  1.0000000E+04;  0.0000000E+00;  9.9990967E+03;  1.2397540E-01;  0.0000000E+00;  7.4569441E-02;  3.2023547E+02;
  8.6000854E-01;  9.9999998E-03;  1.0000270E-01;2382;  1.1294086E-02;  0.0000000E+00;  5.6983004E-03;  1.0066380E+03;  4.0272263E-01;  5.4947612E+03;3;  9.5653076E+00;  0.0000000E+00;  8.0958986E+00;0;  2.2217047E-01;  9.9978701E+03;  0.0000000E+00;  1.5459776E-08;  1.0000000E+04;  0.0000000E+00;  9.9987793E+03;  1.2621981E-01;  0.0000000E+00;  9.5950671E-02;  4.4295105E+02;
  8.6000860E-01;  9.9999998E-03;  1.2000409E-01;2383;  1.1513213E-02;  0.0000000E+00;  8.4001077E-03;  1.0066119E+03;  4.0272269E-01;  5.4731509E+03;3;  9.8692818E+00;  0.0000000E+00;  1.1514867E+01;0;  2.5338575E-01;  9.9978359E+03;  0.0000000E+00;  3.3191561E-08;  1.0000000E+04;  0.0000000E+00;  9.9982969E+03;  1.2924579E-01;  0.0000000E+00;  1.2413996E-01;  6.3934113E+02;
  8.6000878E-01;  9.9999998E-03;  1.4000575E-01;2384;  1.1824246E-02;  0.0000000E+00;  1.1593728E-02;  1.0065691E+03;  4.0272266E-01;  5.4377256E+03;3;  1.0287218E+01;  0.0000000E+00;  1.5462619E+01;0;  2.9716343E-01;  9.9977881E+03;  0.0000000E+00;  2.8993512E-08;  1.0000000E+04;  0.0000000E+00;  9.9974951E+03;  1.3311486E-01;  0.0000000E+00;  1.6404858E-01;  9.7620587E+02;
  8.8001072E-01;  9.9999998E-03;  1.2460302E-12;2408;  1.4083585E-02;  0.0000000E+00;  6.2745964E-10;  1.0063759E+03;  4.0259212E-01;  5.2761816E+03;3;  1.1715756E+01;  0.0000000E+00; -7.9104211E-07;0;  1.3179402E-01;  9.9982832E+03;  0.0000000E+00; -9.0231434E-16;  1.0000000E+04;  0.0000000E+00;  9.9996436E+03;  9.9761628E-02;  0.0000000E+00;  3.2032389E-02;  1.1720111E+02;
  8.8001072E-01;  9.9999998E-03;  2.0000206E-02;2409;  1.4094029E-02;  0.0000000E+00;  5.1480584E-04;  1.0063740E+03;  4.0259215E-01;  5.2746035E+03;3;  1.1733791E+01;  0.0000000E+00;  8.8115656E-01;0;  1.3469101E-01;  9.9982793E+03;  0.0000000E+00;  4.9798221E-12;  1.0000000E+04;  0.0000000E+00;  9.9996084E+03;  9.9939264E-02;  0.0000000E+00;  3.4751747E-02;  1.2966933E+02;
  8.8001072E-01;  9.9999998E-03;  4.0000480E-02;2410;  1.4127925E-02;  0.0000000E+00;  1.1577146E-03;  1.0063687E+03;  4.0259218E-01;  5.2702627E+03;3;  1.1790733E+01;  0.0000000E+00;  1.9089257E+00;0;  1.4315203E-01;  9.9982734E+03;  0.0000000E+00; -4.0103434E-10;  1.0000000E+04;  0.0000000E+00;  9.9995107E+03;  1.0049052E-01;  0.0000000E+00;  4.2661514E-02;  1.6612602E+02;
  8.8001078E-01;  9.9999998E-03;  6.0000911E-02;2411;  1.4193641E-02;  0.0000000E+00;  2.0831602E-03;  1.0063602E+03;  4.0259221E-01;  5.2631602E+03;3;  1.1896160E+01;  0.0000000E+00;  3.2636886E+00;0;  1.5657145E-01;  9.9982607E+03;  0.0000000E+00;  3.7331885E-10;  1.0000000E+04;  0.0000000E+00;  9.9993516E+03;  1.0146993E-01;  0.0000000E+00;  5.5101529E-02;  2.2465968E+02;
  8.8001078E-01;  9.9999998E-03;  8.0001585E-02;2412;  1.4306242E-02;  0.0000000E+00;  3.4638552E-03;  1.0063484E+03;  4.0259221E-01;  5.2533940E+03;3;  1.2067401E+01;  0.0000000E+00;  5.1489997E+00;0;  1.7436144E-01;  9.9982432E+03;  0.0000000E+00;  3.8956660E-09;  1.0000000E+04;  0.0000000E+00;  9.9991348E+03;  1.0296380E-01;  0.0000000E+00;  7.1397640E-02;  3.0617758E+02;
  8.8001090E-01;  9.9999998E-03;  1.0000258E-01;2413;  1.4487155E-02;  0.0000000E+00;  5.4345923E-03;  1.0063320E+03;  4.0259212E-01;  5.2398794E+03;3;  1.2328960E+01;  0.0000000E+00;  7.7196283E+00;0;  1.9687560E-01;  9.9982178E+03;  0.0000000E+00;  1.7102005E-08;  1.0000000E+04;  0.0000000E+00;  9.9988320E+03;  1.0508258E-01;  0.0000000E+00;  9.1793031E-02;  4.2271445E+02;
  8.8001102E-01;  9.9999998E-03;  1.2000390E-01;2414;  1.4761034E-02;  0.0000000E+00;  8.0140959E-03;  1.0063070E+03;  4.0259221E-01;  5.2191631E+03;3;  1.2708974E+01;  0.0000000E+00;  1.0984753E+01;0;  2.2662324E-01;  9.9981816E+03;  0.0000000E+00;  3.9393882E-08;  1.0000000E+04;  0.0000000E+00;  9.9983711E+03;  1.0794157E-01;  0.0000000E+00;  1.1868167E-01;  6.0924347E+02;
  8.8001120E-01;  9.9999998E-03;  1.4000550E-01;2415;  1.5150388E-02;  0.0000000E+00;  1.1063444E-02;  1.0062662E+03;  4.0259224E-01;  5.1853271E+03;3;  1.3232132E+01;  0.0000000E+00;  1.4756110E+01;0;  2.6839411E-01;  9.9981377E+03;  0.0000000E+00;  3.4086110E-08;  1.0000000E+04;  0.0000000E+00;  9.9976045E+03;  1.1162453E-01;  0.0000000E+00;  1.5676959E-01;  9.2938037E+02;
  9.0001273E-01;  9.9999998E-03; -1.3109841E-11;2439;  1.6739815E-02;  0.0000000E+00; -1.6968281E-08;  1.0059899E+03;  4.0242925E-01;  4.9547485E+03;3;  1.3958023E+01;  0.0000000E+00; -8.9935493E-06;0;  1.0563600E-01;  9.9986934E+03;  0.0000000E+00;  8.9195163E-16;  1.0000000E+04;  0.0000000E+00;  9.9996592E+03;  7.5045034E-02;  0.0000000E+00;  3.0590966E-02;  1.1286604E+02;
  9.0001273E-01;  9.9999998E-03;  2.0000193E-02;2440;  1.6752396E-02;  0.0000000E+00;  4.8439615E-04;  1.0059882E+03;  4.0242925E-01;  4.9533677E+03;3;  1.3979968E+01;  0.0000000E+00;  8.2819170E-01;0;  1.0835122E-01;  9.9986924E+03;  0.0000000E+00; -1.0799508E-11;  1.0000000E+04;  0.0000000E+00;  9.9996260E+03;  7.5208656E-02;  0.0000000E+00;  3.3142559E-02;  1.2449775E+02;
  9.0001273E-01;  9.9999998E-03;  4.0000454E-02;2441;  1.6793525E-02;  0.0000000E+00;  1.0894646E-03;  1.0059833E+03;  4.0242922E-01;  4.9492266E+03;3;  1.4049146E+01;  0.0000000E+00;  1.7947397E+00;0;  1.1628406E-01;  9.9986865E+03;  0.0000000E+00; -4.9659554E-10;  1.0000000E+04;  0.0000000E+00;  9.9995322E+03;  7.5715497E-02;  0.0000000E+00;  4.0568560E-02;  1.5852750E+02;
  9.0001279E-01;  9.9999998E-03;  6.0000855E-02;2442;  1.6872309E-02;  0.0000000E+00;  1.9605416E-03;  1.0059753E+03;  4.0242922E-01;  4.9426196E+03;3;  1.4175297E+01;  0.0000000E+00;  3.0693071E+00;0;  1.2887062E-01;  9.9986748E+03;  0.0000000E+00; -1.6604007E-09;  1.0000000E+04;  0.0000000E+00;  9.9993848E+03;  7.6612681E-02;  0.0000000E+00;  5.2257936E-02;  2.1321008E+02;
  9.0001285E-01;  9.9999998E-03;  8.0001488E-02;2443;  1.7006708E-02;  0.0000000E+00;  3.2609198E-03;  1.0059641E+03;  4.0242922E-01;  4.9334492E+03;3;  1.4379810E+01;  0.0000000E+00;  4.8446593E+00;0;  1.4555998E-01;  9.9986582E+03;  0.0000000E+00; -1.6164419E-09;  1.0000000E+04;  0.0000000E+00;  9.9991797E+03;  7.7977702E-02;  0.0000000E+00;  6.7582279E-02;  2.8941589E+02;
  9.0001291E-01;  9.9999998E-03;  1.0000243E-01;2444;  1.7221589E-02;  0.0000000E+00;  5.1182844E-03;  1.0059488E+03;  4.0242919E-01;  4.9207285E+03;3;  1.4690683E+01;  0.0000000E+00;  7.2679038E+00;0;  1.6668470E-01;  9.9986328E+03;  0.0000000E+00;  9.4401162E-09;  1.0000000E+04;  0.0000000E+00;  9.9988975E+03;  7.9916656E-02;  0.0000000E+00;  8.6768046E-02;  3.9839380E+02;
  9.0001309E-01;  9.9999998E-03;  1.2000368E-01;2445;  1.7545201E-02;  0.0000000E+00;  7.5503839E-03;  1.0059252E+03;  4.0242928E-01;  4.9012046E+03;3;  1.5140577E+01;  0.0000000E+00;  1.0347875E+01;0;  1.9462144E-01;  9.9985986E+03;  0.0000000E+00;  3.2971844E-08;  1.0000000E+04;  0.0000000E+00;  9.9984600E+03;  8.2554713E-02;  0.0000000E+00;  1.1206674E-01;  5.7289209E+02;
  9.0001333E-01;  9.9999998E-03;  1.4000517E-01;2446;  1.8003972E-02;  0.0000000E+00;  1.0424828E-02;  1.0058868E+03;  4.0242931E-01;  4.8694526E+03;3;  1.5757277E+01;  0.0000000E+00;  1.3905366E+01;0;  2.3394138E-01;  9.9985547E+03;  0.0000000E+00;  2.6304535E-08;  1.0000000E+04;  0.0000000E+00;  9.9977402E+03;  8.6010434E-02;  0.0000000E+00;  1.4793094E-01;  8.7264844E+02;
  9.2001384E-01;  9.9999998E-03; -3.9345415E-12;2470;  1.8035254E-02;  0.0000000E+00; -7.6482989E-09;  1.0055459E+03;  4.0224218E-01;  4.5849258E+03;3;  1.4817571E+01;  0.0000000E+00; -7.1804971E-07;0;  7.7363506E-02;  9.9991455E+03;  0.0000000E+00;  9.1151545E-16;  1.0000000E+04;  0.0000000E+00;  9.9996748E+03;  4.8316482E-02;  0.0000000E+00;  2.9047025E-02;  1.0845640E+02;
  9.2001384E-01;  9.9999998E-03;  2.0000193E-02;2471;  1.8054932E-02;  0.0000000E+00;  4.7299982E-04;  1.0055443E+03;  4.0224209E-01;  4.5836445E+03;3;  1.4841045E+01;  0.0000000E+00;  7.9255223E-01;0;  7.9853490E-02;  9.9991426E+03;  0.0000000E+00;  3.6989287E-10;  1.0000000E+04;  0.0000000E+00;  9.9996436E+03;  4.8450164E-02;  0.0000000E+00;  3.1403325E-02;  1.1911849E+02;
  9.2001390E-01;  9.9999998E-03;  4.0000442E-02;2472;  1.8122545E-02;  0.0000000E+00;  1.0492782E-03;  1.0055397E+03;  4.0224215E-01;  4.5798008E+03;3;  1.4947888E+01;  0.0000000E+00;  1.7051345E+00;0;  8.7132126E-02;  9.9991387E+03;  0.0000000E+00; -4.0948625E-10;  1.0000000E+04;  0.0000000E+00;  9.9995576E+03;  4.8865460E-02;  0.0000000E+00;  3.8266670E-02;  1.5033759E+02;
  9.2001396E-01;  9.9999998E-03;  6.0000822E-02;2473;  1.8253520E-02;  0.0000000E+00;  1.8648139E-03;  1.0055324E+03;  4.0224215E-01;  4.5737891E+03;3;  1.5148129E+01;  0.0000000E+00;  2.8944640E+00;0;  9.8689109E-02;  9.9991289E+03;  0.0000000E+00; -2.9549698E-09;  1.0000000E+04;  0.0000000E+00;  9.9994199E+03;  4.9604796E-02;  0.0000000E+00;  4.9084313E-02;  2.0056668E+02;
  9.2001402E-01;  9.9999998E-03;  8.0001414E-02;2474;  1.8459974E-02;  0.0000000E+00;  3.0712704E-03;  1.0055221E+03;  4.0224212E-01;  4.5653135E+03;3;  1.5442614E+01;  0.0000000E+00;  4.5406270E+00;0;  1.1402349E-01;  9.9991143E+03;  0.0000000E+00; -6.9476425E-09;  1.0000000E+04;  0.0000000E+00;  9.9992295E+03;  5.0740656E-02;  0.0000000E+00;  6.3282840E-02;  2.7064291E+02;
  9.2001420E-01;  9.9999998E-03;  1.0000228E-01;2475;  1.8764084E-02;  0.0000000E+00;  4.7918181E-03;  1.0055080E+03;  4.0224212E-01;  4.5535850E+03;3;  1.5872771E+01;  0.0000000E+00;  6.7839017E+00;0;  1.3345091E-01;  9.9990928E+03;  0.0000000E+00; -3.2389513E-09;  1.0000000E+04;  0.0000000E+00;  9.9989688E+03;  5.2379396E-02;  0.0000000E+00;  8.1071518E-02;  3.7092209E+02;
  9.2001438E-01;  9.9999998E-03;  1.2000344E-01;2476;  1.9189985E-02;  0.0000000E+00;  7.0441272E-03;  1.0054861E+03;  4.0224212E-01;  4.5355493E+03;3;  1.6458609E+01;  0.0000000E+00;  9.6369562E+00;0;  1.5920170E-01;  9.9990635E+03;  0.0000000E+00;  1.7417420E-08;  1.0000000E+04;  0.0000000E+00;  9.9985654E+03;  5.4662537E-02;  0.0000000E+00;  1.0453916E-01;  5.3160590E+02;
  9.2001468E-01;  9.9999998E-03;  1.4000483E-01;2477;  1.9760365E-02;  0.0000000E+00;  9.7142700E-03;  1.0054504E+03;  4.0224221E-01;  4.5060820E+03;3;  1.7208225E+01;  0.0000000E+00;  1.2947657E+01;0;  1.9559985E-01;  9.9990215E+03;  0.0000000E+00;  3.7194450E-09;  1.0000000E+04;  0.0000000E+00;  9.9978945E+03;  5.7754017E-02;  0.0000000E+00;  1.3784583E-01;  8.0797632E+02;
  9.4001400E-01;  9.9999998E-03; -2.3100068E-12;2501;  1.8116513E-02;  0.0000000E+00;  2.8072247E-09;  1.0050633E+03;  4.0203992E-01;  4.1828955E+03;3;  1.4780761E+01;  0.0000000E+00;  1.3553450E-05;0;  5.0415426E-02;  9.9995850E+03;  0.0000000E+00; -7.2721707E-16;  1.0000000E+04;  0.0000000E+00;  9.9996904E+03;  2.2951715E-02;  0.0000000E+00;  2.7463714E-02;  1.0400341E+02;
  9.4001400E-01;  9.9999998E-03;  2.0000201E-02;2502;  1.8142315E-02;  0.0000000E+00;  4.6781191E-04;  1.0050618E+03;  4.0204000E-01;  4.1817139E+03;3;  1.4820817E+01;  0.0000000E+00;  7.4686950E-01;0;  5.2644782E-02;  9.9995840E+03;  0.0000000E+00;  5.3692589E-10;  1.0000000E+04;  0.0000000E+00;  9.9996611E+03;  2.3039302E-02;  0.0000000E+00;  2.9605480E-02;  1.1360466E+02;
  9.4001406E-01;  9.9999998E-03;  4.0000450E-02;2503;  1.8226082E-02;  0.0000000E+00;  1.0256907E-03;  1.0050577E+03;  4.0203992E-01;  4.1782671E+03;3;  1.4944234E+01;  0.0000000E+00;  1.6139047E+00;0;  5.9165265E-02;  9.9995801E+03;  0.0000000E+00;  9.2782754E-10;  1.0000000E+04;  0.0000000E+00;  9.9995859E+03;  2.3315147E-02;  0.0000000E+00;  3.5850119E-02;  1.4174634E+02;
  9.4001412E-01;  9.9999998E-03;  6.0000807E-02;2504;  1.8380487E-02;  0.0000000E+00;  1.7893167E-03;  1.0050511E+03;  4.0203995E-01;  4.1728506E+03;3;  1.5157032E+01;  0.0000000E+00;  2.7226460E+00;0;  6.9527566E-02;  9.9995732E+03;  0.0000000E+00; -3.1357719E-09;  1.0000000E+04;  0.0000000E+00;  9.9994580E+03;  2.3819285E-02;  0.0000000E+00;  4.5708284E-02;  1.8709615E+02;
  9.4001424E-01;  9.9999998E-03;  8.0001347E-02;2505;  1.8621806E-02;  0.0000000E+00;  2.8996661E-03;  1.0050419E+03;  4.0203997E-01;  4.1651689E+03;3;  1.5486917E+01;  0.0000000E+00;  4.2361937E+00;0;  8.3290860E-02;  9.9995625E+03;  0.0000000E+00; -1.1795592E-08;  1.0000000E+04;  0.0000000E+00;  9.9992852E+03;  2.4622139E-02;  0.0000000E+00;  5.8668721E-02;  2.5046317E+02;
  9.4001442E-01;  9.9999998E-03;  1.0000215E-01;2506;  1.8974846E-02;  0.0000000E+00;  4.4723623E-03;  1.0050291E+03;  4.0203995E-01;  4.1546313E+03;3;  1.5963657E+01;  0.0000000E+00;  6.2815061E+00;0;  1.0075890E-01;  9.9995459E+03;  0.0000000E+00; -1.4578017E-08;  1.0000000E+04;  0.0000000E+00;  9.9990469E+03;  2.5832923E-02;  0.0000000E+00;  7.4925974E-02;  3.4125162E+02;
  9.4001466E-01;  9.9999998E-03;  1.2000320E-01;2507;  1.9462258E-02;  0.0000000E+00;  6.5306318E-03;  1.0050092E+03;  4.0203997E-01;  4.1381851E+03;3;  1.6597595E+01;  0.0000000E+00;  8.8844614E+00;0;  1.2400848E-01;  9.9995215E+03;  0.0000000E+00; -2.2851114E-09;  1.0000000E+04;  0.0000000E+00;  9.9986758E+03;  2.7612582E-02;  0.0000000E+00;  9.6395895E-02;  4.8691263E+02;
  9.4001502E-01;  9.9999998E-03;  1.4000449E-01;2508;  2.0108145E-02;  0.0000000E+00;  8.9782998E-03;  1.0049766E+03;  4.0204000E-01;  4.1112012E+03;3;  1.7413137E+01;  0.0000000E+00;  1.1921554E+01;0;  1.5709800E-01;  9.9994844E+03;  0.0000000E+00; -4.7072142E-09;  1.0000000E+04;  0.0000000E+00;  9.9980625E+03;  3.0177571E-02;  0.0000000E+00;  1.2692042E-01;  7.3785901E+02;
  9.6001381E-01;  9.9999998E-03; -7.2245604E-12;2532;  1.7825231E-02;  0.0000000E+00; -1.4758335E-09;  1.0045616E+03;  4.0183136E-01;  3.7647495E+03;3;  1.4566480E+01;  0.0000000E+00;  3.0051655E-05;0;  2.7625097E-02;  9.9999619E+03;  0.0000000E+00;  1.9169611E-15;  1.0000000E+04;  0.0000000E+00;  9.9997061E+03;  1.7402635E-03;  0.0000000E+00;  2.5884833E-02;  9.9407845E+01;
  9.6001381E-01;  9.9999998E-03;  2.0000195E-02;2533;  1.7854080E-02;  0.0000000E+00;  4.5361079E-04;  1.0045605E+03;  4.0183139E-01;  3.7637659E+03;3;  1.4608641E+01;  0.0000000E+00;  7.2633111E-01;0;  2.9578494E-02;  9.9999590E+03;  0.0000000E+00;  7.6402329E-10;  1.0000000E+04;  0.0000000E+00;  9.9996816E+03;  1.7760959E-03;  0.0000000E+00;  2.7802398E-02;  1.0790395E+02;
  9.6001387E-01;  9.9999998E-03;  4.0000435E-02;2534;  1.7935483E-02;  0.0000000E+00;  9.7928918E-04;  1.0045568E+03;  4.0183145E-01;  3.7607158E+03;3;  1.4712214E+01;  0.0000000E+00;  1.5054059E+00;0;  3.5294920E-02;  9.9999580E+03;  0.0000000E+00;  1.6940079E-09;  1.0000000E+04;  0.0000000E+00;  9.9996123E+03;  1.8962671E-03;  0.0000000E+00;  3.3398654E-02;  1.3283446E+02;
  9.6001393E-01;  9.9999998E-03;  6.0000774E-02;2535;  1.8088941E-02;  0.0000000E+00;  1.6835141E-03;  1.0045509E+03;  4.0183139E-01;  3.7558950E+03;3;  1.4927986E+01;  0.0000000E+00;  2.5106153E+00;0;  4.4388268E-02;  9.9999551E+03;  0.0000000E+00; -2.6324269E-09;  1.0000000E+04;  0.0000000E+00;  9.9994961E+03;  2.1393844E-03;  0.0000000E+00;  4.2248882E-02;  1.7308505E+02;
  9.6001405E-01;  9.9999998E-03;  8.0001272E-02;2536;  1.8331941E-02;  0.0000000E+00;  2.6962205E-03;  1.0045428E+03;  4.0183139E-01;  3.7492051E+03;3;  1.5252654E+01;  0.0000000E+00;  3.8894365E+00;0;  5.6483231E-02;  9.9999463E+03;  0.0000000E+00; -1.5425218E-08;  1.0000000E+04;  0.0000000E+00;  9.9993408E+03;  2.5739952E-03;  0.0000000E+00;  5.3909235E-02;  2.2944983E+02;
  9.6001422E-01;  9.9999998E-03;  1.0000199E-01;2537;  1.8684493E-02;  0.0000000E+00;  4.1253390E-03;  1.0045314E+03;  4.0183145E-01;  3.7397595E+03;3;  1.5710778E+01;  0.0000000E+00;  5.7563882E+00;0;  7.1878389E-02;  9.9999375E+03;  0.0000000E+00; -2.6771156E-08;  1.0000000E+04;  0.0000000E+00;  9.9991240E+03;  3.3111894E-03;  0.0000000E+00;  6.8567201E-02;  3.1038821E+02;
  9.6001446E-01;  9.9999998E-03;  1.2000296E-01;2538;  1.9180221E-02;  0.0000000E+00;  5.9959022E-03;  1.0045136E+03;  4.0183139E-01;  3.7251003E+03;3;  1.6353252E+01;  0.0000000E+00;  8.1226635E+00;0;  9.2498600E-02;  9.9999189E+03;  0.0000000E+00; -1.6698992E-08;  1.0000000E+04;  0.0000000E+00;  9.9987910E+03;  4.5298012E-03;  0.0000000E+00;  8.7968796E-02;  4.4054016E+02;
  9.6001482E-01;  9.9999998E-03;  1.4000413E-01;2539;  1.9856071E-02;  0.0000000E+00;  8.2138125E-03;  1.0044843E+03;  4.0183148E-01;  3.7008979E+03;3;  1.7216467E+01;  0.0000000E+00;  1.0852665E+01;0;  1.2212858E-01;  9.9998896E+03;  0.0000000E+00; -2.2630402E-09;  1.0000000E+04;  0.0000000E+00;  9.9982314E+03;  6.5014693E-03;  0.0000000E+00;  1.1562712E-01;  6.6522662E+02;
  9.8001343E-01;  9.9999998E-03; -1.3530281E-12;2563;  1.7368747E-02;  0.0000000E+00; -1.2188583E-10;  1.0040602E+03;  4.0162468E-01;  3.3464790E+03;3;  1.4202798E+01;  0.0000000E+00;  4.4138578E-06;0;  1.0114782E-02;  1.0000252E+04;  0.0000000E+00;  7.7986705E-16;  1.0000000E+04;  0.0000000E+00;  9.9997217E+03; -1.4231212E-02;  0.0000000E+00;  2.4345994E-02;  9.4603233E+01;
  9.8001343E-01;  9.9999998E-03;  2.0000191E-02;2564;  1.7391572E-02;  0.0000000E+00;  4.2908185E-04;  1.0040591E+03;  4.0162462E-01;  3.3454966E+03;3;  1.4246401E+01;  0.0000000E+00;  6.6211200E-01;0;  1.1800124E-02;  1.0000252E+04;  0.0000000E+00;  1.0014299E-09;  1.0000000E+04;  0.0000000E+00;  9.9996992E+03; -1.4237815E-02;  0.0000000E+00;  2.6037939E-02;  1.0198917E+02;
  9.8001349E-01;  9.9999998E-03;  4.0000424E-02;2565;  1.7467145E-02;  0.0000000E+00;  9.3138043E-04;  1.0040559E+03;  4.0162459E-01;  3.3428438E+03;3;  1.4370741E+01;  0.0000000E+00;  1.4158750E+00;0;  1.6735040E-02;  1.0000251E+04;  0.0000000E+00;  2.1254571E-09;  1.0000000E+04;  0.0000000E+00;  9.9996367E+03; -1.4245741E-02;  0.0000000E+00;  3.0980781E-02;  1.2369209E+02;
  9.8001355E-01;  9.9999998E-03;  6.0000736E-02;2566;  1.7600866E-02;  0.0000000E+00;  1.5788460E-03;  1.0040508E+03;  4.0162456E-01;  3.3387170E+03;3;  1.4557073E+01;  0.0000000E+00;  2.3160651E+00;0;  2.4594471E-02;  1.0000250E+04;  0.0000000E+00; -2.7524225E-09;  1.0000000E+04;  0.0000000E+00;  9.9995361E+03; -1.4218983E-02;  0.0000000E+00;  3.8813453E-02;  1.5882227E+02;
  9.8001367E-01;  9.9999998E-03;  8.0001190E-02;2567;  1.7819254E-02;  0.0000000E+00;  2.4939263E-03;  1.0040437E+03;  4.0162462E-01;  3.3328220E+03;3;  1.4854676E+01;  0.0000000E+00;  3.5487285E+00;0;  3.5071008E-02;  1.0000249E+04;  0.0000000E+00; -1.7223908E-08;  1.0000000E+04;  0.0000000E+00;  9.9993965E+03; -1.4093229E-02;  0.0000000E+00;  4.9164236E-02;  2.0819450E+02;
  9.8001379E-01;  9.9999998E-03;  1.0000184E-01;2568;  1.8146759E-02;  0.0000000E+00;  3.7790607E-03;  1.0040336E+03;  4.0162459E-01;  3.3244702E+03;3;  1.5282009E+01;  0.0000000E+00;  5.2285929E+00;0;  4.8471399E-02;  1.0000241E+04;  0.0000000E+00; -3.9908006E-08;  1.0000000E+04;  0.0000000E+00;  9.9992021E+03; -1.3757825E-02;  0.0000000E+00;  6.2229224E-02;  2.7941022E+02;
  9.8001409E-01;  9.9999998E-03;  1.2000271E-01;2569;  1.8632591E-02;  0.0000000E+00;  5.4567885E-03;  1.0040179E+03;  4.0162468E-01;  3.3115010E+03;3;  1.5929853E+01;  0.0000000E+00;  7.3549013E+00;0;  6.6584691E-02;  1.0000229E+04;  0.0000000E+00; -4.2714476E-08;  1.0000000E+04;  0.0000000E+00;  9.9989033E+03; -1.3018553E-02;  0.0000000E+00;  7.9603247E-02;  3.9438745E+02;
  9.8001444E-01;  9.9999998E-03;  1.4000376E-01;2570;  1.9305054E-02;  0.0000000E+00;  7.4512856E-03;  1.0039915E+03;  4.0162471E-01;  3.2897871E+03;3;  1.6768799E+01;  0.0000000E+00;  9.8161812E+00;0;  9.2925310E-02;  1.0000205E+04;  0.0000000E+00; -8.5821092E-09;  1.0000000E+04;  0.0000000E+00;  9.9983994E+03; -1.1547869E-02;  0.0000000E+00;  1.0447318E-01;  5.9330841E+02;
  1.0000130E+00;  9.9999998E-03;  4.6008716E-14;2594;  1.6786765E-02;  0.0000000E+00;  1.0067285E-09;  1.0035757E+03;  4.0142643E-01;  2.9419026E+03;3;  1.3782648E+01;  0.0000000E+00; -6.1618921E-06;0; -2.4647769E-03;  1.0000465E+04;  0.0000000E+00; -1.2356796E-16;  1.0000000E+04;  0.0000000E+00;  9.9997354E+03; -2.5338760E-02;  0.0000000E+00;  2.2873983E-02;  8.9577415E+01;
  1.0000130E+00;  9.9999998E-03;  2.0000193E-02;2595;  1.6805569E-02;  0.0000000E+00;  4.1465680E-04;  1.0035748E+03;  4.0142640E-01;  2.9411179E+03;3;  1.3816891E+01;  0.0000000E+00;  6.1419189E-01;0; -1.0222588E-03;  1.0000465E+04;  0.0000000E+00;  1.0530498E-09;  1.0000000E+04;  0.0000000E+00;  9.9997158E+03; -2.5367897E-02;  0.0000000E+00;  2.4345638E-02;  9.5881805E+01;
  1.0000130E+00;  9.9999998E-03;  4.0000416E-02;2596;  1.6866954E-02;  0.0000000E+00;  8.8907883E-04;  1.0035721E+03;  4.0142637E-01;  2.9388621E+03;3;  1.3919395E+01;  0.0000000E+00;  1.3100765E+00;0;  3.2049902E-03;  1.0000464E+04;  0.0000000E+00;  2.2256299E-09;  1.0000000E+04;  0.0000000E+00;  9.9996602E+03; -2.5445493E-02;  0.0000000E+00;  2.8650483E-02;  1.1444299E+02;
  1.0000130E+00;  9.9999998E-03;  6.0000710E-02;2597;  1.6981503E-02;  0.0000000E+00;  1.4999172E-03;  1.0035677E+03;  4.0142635E-01;  2.9352332E+03;3;  1.4085279E+01;  0.0000000E+00;  2.1623826E+00;0;  9.9503696E-03;  1.0000463E+04;  0.0000000E+00; -1.8583757E-09;  1.0000000E+04;  0.0000000E+00;  9.9995713E+03; -2.5540847E-02;  0.0000000E+00;  3.5491217E-02;  1.4461269E+02;
  1.0000131E+00;  9.9999998E-03;  8.0001131E-02;2598;  1.7181423E-02;  0.0000000E+00;  2.3258249E-03;  1.0035614E+03;  4.0142637E-01;  2.9300352E+03;3;  1.4381932E+01;  0.0000000E+00;  3.2507465E+00;0;  1.8980561E-02;  1.0000462E+04;  0.0000000E+00; -2.0509288E-08;  1.0000000E+04;  0.0000000E+00;  9.9994492E+03; -2.5595749E-02;  0.0000000E+00;  4.4576310E-02;  1.8730461E+02;
  1.0000132E+00;  9.9999998E-03;  1.0000171E-01;2599;  1.7496493E-02;  0.0000000E+00;  3.4613924E-03;  1.0035525E+03;  4.0142637E-01;  2.9226792E+03;3;  1.4799635E+01;  0.0000000E+00;  4.7188177E+00;0;  3.0634217E-02;  1.0000459E+04;  0.0000000E+00; -5.7812322E-08;  1.0000000E+04;  0.0000000E+00;  9.9992773E+03; -2.5500871E-02;  0.0000000E+00;  5.6135088E-02;  2.4943658E+02;
  1.0000135E+00;  9.9999998E-03;  1.2000248E-01;2600;  1.7963635E-02;  0.0000000E+00;  4.9492326E-03;  1.0035385E+03;  4.0142632E-01;  2.9112043E+03;3;  1.5397141E+01;  0.0000000E+00;  6.6121507E+00;0;  4.6596684E-02;  1.0000450E+04;  0.0000000E+00; -9.7330954E-08;  1.0000000E+04;  0.0000000E+00;  9.9990078E+03; -2.5045583E-02;  0.0000000E+00;  7.1642265E-02;  3.5042355E+02;
  1.0000138E+00;  9.9999998E-03;  1.4000341E-01;2601;  1.8622123E-02;  0.0000000E+00;  6.7197974E-03;  1.0035146E+03;  4.0142629E-01;  2.8915889E+03;3;  1.6214745E+01;  0.0000000E+00;  8.8030758E+00;0;  7.0123553E-02;  1.0000427E+04;  0.0000000E+00; -7.4797768E-08;  1.0000000E+04;  0.0000000E+00;  9.9985537E+03; -2.3845989E-02;  0.0000000E+00;  9.3969546E-02;  5.2539063E+02;
  1.0200124E+00;  9.9999998E-03;  3.9933995E-14;2625;  1.6078483E-02;  0.0000000E+00;  4.2116741E-09;  1.0031228E+03;  4.0124199E-01;  2.5630420E+03;3;  1.3296254E+01;  0.0000000E+00;  9.3437557E-06;0; -1.1164771E-02;  1.0000607E+04;  0.0000000E+00; -8.4546031E-17;  1.0000000E+04;  0.0000000E+00;  9.9997480E+03; -3.2644589E-02;  0.0000000E+00;  2.1479817E-02;  8.4324219E+01;
  1.0200124E+00;  9.9999998E-03;  2.0000191E-02;2626;  1.6093507E-02;  0.0000000E+00;  4.0200373E-04;  1.0031219E+03;  4.0124199E-01;  2.5623569E+03;3;  1.3314749E+01;  0.0000000E+00;  5.8110607E-01;0; -9.9324379E-03;  1.0000606E+04;  0.0000000E+00;  1.4324163E-09;  1.0000000E+04;  0.0000000E+00;  9.9997305E+03; -3.2674301E-02;  0.0000000E+00;  2.2741864E-02;  8.9604370E+01;
  1.0200124E+00;  9.9999998E-03;  4.0000409E-02;2627;  1.6144851E-02;  0.0000000E+00;  8.5517223E-04;  1.0031196E+03;  4.0124199E-01;  2.5604001E+03;3;  1.3396565E+01;  0.0000000E+00;  1.2274905E+00;0; -6.3152872E-03;  1.0000606E+04;  0.0000000E+00;  3.9133385E-09;  1.0000000E+04;  0.0000000E+00;  9.9996836E+03; -3.2756411E-02;  0.0000000E+00;  2.6441123E-02;  1.0519942E+02;
  1.0200124E+00;  9.9999998E-03;  6.0000688E-02;2628;  1.6249949E-02;  0.0000000E+00;  1.4257259E-03;  1.0031157E+03;  4.0124199E-01;  2.5572693E+03;3;  1.3563922E+01;  0.0000000E+00;  2.0178196E+00;0; -5.1873922E-04;  1.0000607E+04;  0.0000000E+00;  6.9615902E-10;  1.0000000E+04;  0.0000000E+00;  9.9996055E+03; -3.2866444E-02;  0.0000000E+00;  3.2347705E-02;  1.3073830E+02;
  1.0200125E+00;  9.9999998E-03;  8.0001071E-02;2629;  1.6426044E-02;  0.0000000E+00;  2.1791728E-03;  1.0031102E+03;  4.0124202E-01;  2.5526707E+03;3;  1.3801573E+01;  0.0000000E+00;  2.9985194E+00;0;  7.3151886E-03;  1.0000606E+04;  0.0000000E+00; -2.2496486E-08;  1.0000000E+04;  0.0000000E+00;  9.9994990E+03; -3.2950718E-02;  0.0000000E+00;  4.0265907E-02;  1.6736229E+02;
  1.0200126E+00;  9.9999998E-03;  1.0000160E-01;2630;  1.6717583E-02;  0.0000000E+00;  3.1917037E-03;  1.0031022E+03;  4.0124196E-01;  2.5461155E+03;3;  1.4198421E+01;  0.0000000E+00;  4.2991028E+00;0;  1.7593011E-02;  1.0000601E+04;  0.0000000E+00; -8.5471662E-08;  1.0000000E+04;  0.0000000E+00;  9.9993438E+03; -3.2896582E-02;  0.0000000E+00;  5.0489593E-02;  2.2154849E+02;
  1.0200129E+00;  9.9999998E-03;  1.2000228E-01;2631;  1.7169831E-02;  0.0000000E+00;  4.4946526E-03;  1.0030894E+03;  4.0124199E-01;  2.5355483E+03;3;  1.4784873E+01;  0.0000000E+00;  5.9388113E+00;0;  3.1938910E-02;  1.0000589E+04;  0.0000000E+00; -1.9185359E-07;  1.0000000E+04;  0.0000000E+00;  9.9990967E+03; -3.2472417E-02;  0.0000000E+00;  6.4411327E-02;  3.1050455E+02;
  1.0200132E+00;  9.9999998E-03;  1.4000310E-01;2632;  1.7820181E-02;  0.0000000E+00;  6.0425662E-03;  1.0030674E+03;  4.0124199E-01;  2.5176436E+03;3;  1.5600674E+01;  0.0000000E+00;  7.8437591E+00;0;  5.3353705E-02;  1.0000564E+04;  0.0000000E+00; -2.5169712E-07;  1.0000000E+04;  0.0000000E+00;  9.9986865E+03; -3.1243859E-02;  0.0000000E+00;  8.4597565E-02;  4.6444073E+02;
  1.0400116E+00;  9.9999998E-03;  2.3017914E-12;2656;  1.5238840E-02;  0.0000000E+00; -3.7786636E-09;  1.0027111E+03;  4.0107524E-01;  2.2180491E+03;3;  1.2711794E+01;  0.0000000E+00; -1.6990962E-05;0; -1.7034888E-02;  1.0000699E+04;  0.0000000E+00;  3.0071001E-16;  1.0000000E+04;  0.0000000E+00;  9.9997617E+03; -3.7191648E-02;  0.0000000E+00;  2.0156760E-02;  7.8806633E+01;
  1.0400116E+00;  9.9999998E-03;  2.0000188E-02;2657;  1.5252328E-02;  0.0000000E+00;  3.8759594E-04;  1.0027104E+03;  4.0107527E-01;  2.2174639E+03;3;  1.2726624E+01;  0.0000000E+00;  5.4247266E-01;0; -1.5979791E-02;  1.0000698E+04;  0.0000000E+00;  2.1039968E-09;  1.0000000E+04;  0.0000000E+00;  9.9997461E+03; -3.7204243E-02;  0.0000000E+00;  2.1224452E-02;  8.3145096E+01;
  1.0400116E+00;  9.9999998E-03;  4.0000401E-02;2658;  1.5299828E-02;  0.0000000E+00;  8.1897009E-04;  1.0027084E+03;  4.0107527E-01;  2.2157085E+03;3;  1.2796165E+01;  0.0000000E+00;  1.1431733E+00;0; -1.2870945E-02;  1.0000697E+04;  0.0000000E+00;  7.1214146E-09;  1.0000000E+04;  0.0000000E+00;  9.9997070E+03; -3.7236664E-02;  0.0000000E+00;  2.4365719E-02;  9.6034729E+01;
  1.0400118E+00;  9.9999998E-03;  6.0000665E-02;2659;  1.5395820E-02;  0.0000000E+00;  1.3510267E-03;  1.0027050E+03;  4.0107530E-01;  2.2129775E+03;3;  1.2943601E+01;  0.0000000E+00;  1.8727007E+00;0; -7.8399461E-03;  1.0000695E+04;  0.0000000E+00;  5.5788183E-09;  1.0000000E+04;  0.0000000E+00;  9.9996387E+03; -3.7267555E-02;  0.0000000E+00;  2.9427608E-02;  1.1744408E+02;
  1.0400118E+00;  9.9999998E-03;  8.0001019E-02;2660;  1.5565914E-02;  0.0000000E+00;  2.0461355E-03;  1.0027000E+03;  4.0107527E-01;  2.2088816E+03;3;  1.3183709E+01;  0.0000000E+00;  2.7936969E+00;0; -9.0749562E-04;  1.0000692E+04;  0.0000000E+00; -2.6646237E-08;  1.0000000E+04;  0.0000000E+00;  9.9995420E+03; -3.7240852E-02;  0.0000000E+00;  3.6333356E-02;  1.4890134E+02;
  1.0400119E+00;  9.9999998E-03;  1.0000149E-01;2661;  1.5840992E-02;  0.0000000E+00;  2.9430466E-03;  1.0026924E+03;  4.0107527E-01;  2.2027371E+03;3;  1.3538342E+01;  0.0000000E+00;  3.9154682E+00;0;  8.4480532E-03;  1.0000685E+04;  0.0000000E+00; -1.3488125E-07;  1.0000000E+04;  0.0000000E+00;  9.9994004E+03; -3.7029482E-02;  0.0000000E+00;  4.5477536E-02;  1.9670859E+02;
  1.0400121E+00;  9.9999998E-03;  1.2000210E-01;2662;  1.6281333E-02;  0.0000000E+00;  4.0853843E-03;  1.0026802E+03;  4.0107530E-01;  2.1926919E+03;3;  1.4109105E+01;  0.0000000E+00;  5.3381004E+00;0;  2.1830097E-02;  1.0000668E+04;  0.0000000E+00; -3.6598482E-07;  1.0000000E+04;  0.0000000E+00;  9.9991719E+03; -3.6374476E-02;  0.0000000E+00;  5.8204573E-02;  2.7615268E+02;
  1.0400125E+00;  9.9999998E-03;  1.4000283E-01;2663;  1.6932532E-02;  0.0000000E+00;  5.4289154E-03;  1.0026594E+03;  4.0107524E-01;  2.1757219E+03;3;  1.4928831E+01;  0.0000000E+00;  6.9749665E+00;0;  4.1961819E-02;  1.0000636E+04;  0.0000000E+00; -6.1635603E-07;  1.0000000E+04;  0.0000000E+00;  9.9987930E+03; -3.4809723E-02;  0.0000000E+00;  7.6771542E-02;  4.1264603E+02;
  1.0600108E+00;  9.9999998E-03;  1.6962295E-12;2687;  1.4298756E-02;  0.0000000E+00;  1.3650341E-09;  1.0023475E+03;  4.0092844E-01;  1.9122682E+03;3;  1.2059375E+01;  0.0000000E+00;  6.2068284E-07;0; -2.0758733E-02;  1.0000748E+04;  0.0000000E+00;  2.5588095E-16;  1.0000000E+04;  0.0000000E+00;  9.9997715E+03; -3.9642189E-02;  0.0000000E+00;  1.8883456E-02;  7.2949265E+01;
  1.0600108E+00;  9.9999998E-03;  2.0000184E-02;2688;  1.4315070E-02;  0.0000000E+00;  3.7475085E-04;  1.0023468E+03;  4.0092847E-01;  1.9116855E+03;3;  1.2088225E+01;  0.0000000E+00;  5.2038598E-01;0; -1.9848045E-02;  1.0000748E+04;  0.0000000E+00;  3.2774385E-09;  1.0000000E+04;  0.0000000E+00;  9.9997598E+03; -3.9625518E-02;  0.0000000E+00;  1.9777473E-02;  7.6460014E+01;
  1.0600109E+00;  9.9999998E-03;  4.0000390E-02;2689;  1.4362648E-02;  0.0000000E+00;  7.8479387E-04;  1.0023450E+03;  4.0092853E-01;  1.9102289E+03;3;  1.2149748E+01;  0.0000000E+00;  1.0749161E+00;0; -1.7142506E-02;  1.0000748E+04;  0.0000000E+00;  1.0714741E-08;  1.0000000E+04;  0.0000000E+00;  9.9997266E+03; -3.9569549E-02;  0.0000000E+00;  2.2427043E-02;  8.7009117E+01;
  1.0600109E+00;  9.9999998E-03;  6.0000639E-02;2690;  1.4455001E-02;  0.0000000E+00;  1.2798589E-03;  1.0023418E+03;  4.0092853E-01;  1.9076068E+03;3;  1.2279427E+01;  0.0000000E+00;  1.7409687E+00;0; -1.2676932E-02;  1.0000742E+04;  0.0000000E+00;  8.9852223E-09;  1.0000000E+04;  0.0000000E+00;  9.9996670E+03; -3.9447725E-02;  0.0000000E+00;  2.6770793E-02;  1.0498262E+02;
  1.0600110E+00;  9.9999998E-03;  8.0000967E-02;2691;  1.4622112E-02;  0.0000000E+00;  1.9122864E-03;  1.0023370E+03;  4.0092856E-01;  1.9037224E+03;3;  1.2505590E+01;  0.0000000E+00;  2.5742209E+00;0; -6.3094534E-03;  1.0000735E+04;  0.0000000E+00; -4.1507672E-08;  1.0000000E+04;  0.0000000E+00;  9.9995801E+03; -3.9187789E-02;  0.0000000E+00;  3.2878336E-02;  1.3244366E+02;
  1.0600111E+00;  9.9999998E-03;  1.0000139E-01;2692;  1.4896300E-02;  0.0000000E+00;  2.7181183E-03;  1.0023297E+03;  4.0092853E-01;  1.8977988E+03;3;  1.2850748E+01;  0.0000000E+00;  3.5911169E+00;0;  2.6455559E-03;  1.0000719E+04;  0.0000000E+00; -2.2806550E-07;  1.0000000E+04;  0.0000000E+00;  9.9994453E+03; -3.8631644E-02;  0.0000000E+00;  4.1277200E-02;  1.7571904E+02;
  1.0600114E+00;  9.9999998E-03;  1.2000193E-01;2693;  1.5325467E-02;  0.0000000E+00;  3.7030750E-03;  1.0023173E+03;  4.0092850E-01;  1.8876992E+03;3;  1.3386586E+01;  0.0000000E+00;  4.7947612E+00;0;  1.5788313E-02;  1.0000695E+04;  0.0000000E+00; -6.5607622E-07;  1.0000000E+04;  0.0000000E+00;  9.9992266E+03; -3.7489798E-02;  0.0000000E+00;  5.3278111E-02;  2.4834277E+02;
  1.0600117E+00;  9.9999998E-03;  1.4000256E-01;2694;  1.5974930E-02;  0.0000000E+00;  4.8697661E-03;  1.0022969E+03;  4.0092853E-01;  1.8710934E+03;3;  1.4195910E+01;  0.0000000E+00;  6.1990719E+00;0;  3.5489395E-02;  1.0000650E+04;  0.0000000E+00; -7.6520455E-06;  1.0000000E+04;  0.0000000E+00;  9.9988652E+03; -3.5309628E-02;  0.0000000E+00;  7.0799023E-02;  3.7094189E+02;
  1.0800099E+00;  9.9999998E-03; -7.8745246E-13;2718;  1.3316091E-02;  0.0000000E+00; -2.5246054E-09;  1.0020336E+03;  4.0080249E-01;  1.6471556E+03;3;  1.1395553E+01;  0.0000000E+00; -6.8707595E-06;0; -2.2629660E-02;  1.0000764E+04;  0.0000000E+00;  5.4333310E-16;  1.0000000E+04;  0.0000000E+00;  9.9997842E+03; -4.0265862E-02;  0.0000000E+00;  1.7636202E-02;  6.6696732E+01;
  1.0800099E+00;  9.9999998E-03;  2.0000180E-02;2719;  1.3331655E-02;  0.0000000E+00;  3.6253818E-04;  1.0020330E+03;  4.0080246E-01;  1.6466729E+03;3;  1.1415927E+01;  0.0000000E+00;  5.0189674E-01;0; -2.1823512E-02;  1.0000762E+04;  0.0000000E+00;  4.1329784E-09;  1.0000000E+04;  0.0000000E+00;  9.9997744E+03; -4.0209871E-02;  0.0000000E+00;  1.8386358E-02;  6.9540726E+01;
  1.0800101E+00;  9.9999998E-03;  4.0000379E-02;2720;  1.3382745E-02;  0.0000000E+00;  7.5272727E-04;  1.0020313E+03;  4.0080249E-01;  1.6452244E+03;3;  1.1484510E+01;  0.0000000E+00;  1.0100628E+00;0; -1.9390658E-02;  1.0000758E+04;  0.0000000E+00;  1.1673017E-08;  1.0000000E+04;  0.0000000E+00;  9.9997441E+03; -4.0030047E-02;  0.0000000E+00;  2.0639390E-02;  7.8254295E+01;
  1.0800101E+00;  9.9999998E-03;  6.0000621E-02;2721;  1.3481499E-02;  0.0000000E+00;  1.2148677E-03;  1.0020281E+03;  4.0080243E-01;  1.6427140E+03;3;  1.1606870E+01;  0.0000000E+00;  1.6228369E+00;0; -1.5237248E-02;  1.0000749E+04;  0.0000000E+00;  1.9366940E-10;  1.0000000E+04;  0.0000000E+00;  9.9996904E+03; -3.9679583E-02;  0.0000000E+00;  2.4442336E-02;  9.3699821E+01;
  1.0800102E+00;  9.9999998E-03;  8.0000922E-02;2722;  1.3654453E-02;  0.0000000E+00;  1.7884208E-03;  1.0020233E+03;  4.0080246E-01;  1.6387551E+03;3;  1.1825747E+01;  0.0000000E+00;  2.3716342E+00;0; -9.0159755E-03;  1.0000734E+04;  0.0000000E+00; -9.7847007E-08;  1.0000000E+04;  0.0000000E+00;  9.9996074E+03; -3.9048608E-02;  0.0000000E+00;  3.0032633E-02;  1.1853848E+02;
  1.0800103E+00;  9.9999998E-03;  1.0000130E-01;2723;  1.3934738E-02;  0.0000000E+00;  2.4988365E-03;  1.0020153E+03;  4.0080240E-01;  1.6323823E+03;3;  1.2161321E+01;  0.0000000E+00;  3.2588224E+00;0;  1.4586002E-04;  1.0000711E+04;  0.0000000E+00; -4.2626831E-07;  1.0000000E+04;  0.0000000E+00;  9.9994736E+03; -3.7935376E-02;  0.0000000E+00;  3.8081236E-02;  1.5914543E+02;
  1.0800105E+00;  9.9999998E-03;  1.2000177E-01;2724;  1.4371340E-02;  0.0000000E+00;  3.3513459E-03;  1.0020023E+03;  4.0080249E-01;  1.6218575E+03;3;  1.2678168E+01;  0.0000000E+00;  4.2899899E+00;0;  1.3807755E-02;  1.0000670E+04;  0.0000000E+00; -1.1402524E-06;  1.0000000E+04;  0.0000000E+00;  9.9992549E+03; -3.6038343E-02;  0.0000000E+00;  4.9846098E-02;  2.2727429E+02;
  1.0800109E+00;  9.9999998E-03;  1.4000231E-01;2725;  1.5006305E-02;  0.0000000E+00;  4.3235561E-03;  1.0019818E+03;  4.0080249E-01;  1.6052496E+03;3;  1.3471041E+01;  0.0000000E+00;  5.4527683E+00;0;  3.3767823E-02;  1.0000610E+04;  0.0000000E+00; -1.3553072E-04;  1.0000000E+04;  0.0000000E+00;  9.9989033E+03; -3.3053812E-02;  0.0000000E+00;  6.6821635E-02;  3.3845401E+02;
  1.1000091E+00;  9.9999998E-03; -2.5233353E-13;2748;  1.2340109E-02;  0.0000000E+00; -9.0737307E-10;  1.0017686E+03;  4.0069667E-01;  1.4217456E+03;3;  1.0736560E+01;  0.0000000E+00; -4.0512532E-07;0; -2.2656638E-02;  1.0000740E+04;  0.0000000E+00; -1.2056122E-16;  1.0000000E+04;  0.0000000E+00;  9.9997979E+03; -3.9078623E-02;  0.0000000E+00;  1.6421985E-02;  6.0156612E+01;
  1.1000092E+00;  9.9999998E-03;  2.0000178E-02;2749;  1.2357957E-02;  0.0000000E+00;  3.4787462E-04;  1.0017680E+03;  4.0069667E-01;  1.4212665E+03;3;  1.0754771E+01;  0.0000000E+00;  4.6963435E-01;0; -2.1890244E-02;  1.0000738E+04;  0.0000000E+00;  2.1271540E-09;  1.0000000E+04;  0.0000000E+00;  9.9997881E+03; -3.8963027E-02;  0.0000000E+00;  1.7072784E-02;  6.2551399E+01;
  1.1000092E+00;  9.9999998E-03;  4.0000372E-02;2750;  1.2415749E-02;  0.0000000E+00;  7.2174659E-04;  1.0017663E+03;  4.0069672E-01;  1.4199248E+03;3;  1.0822052E+01;  0.0000000E+00;  9.5599192E-01;0; -1.9523194E-02;  1.0000731E+04;  0.0000000E+00; -1.5664673E-11;  1.0000000E+04;  0.0000000E+00;  9.9997598E+03; -3.8590580E-02;  0.0000000E+00;  1.9067386E-02;  7.0082321E+01;
  1.1000092E+00;  9.9999998E-03;  6.0000598E-02;2751;  1.2525253E-02;  0.0000000E+00;  1.1515648E-03;  1.0017629E+03;  4.0069667E-01;  1.4171456E+03;3;  1.0952936E+01;  0.0000000E+00;  1.5100479E+00;0; -1.5306210E-02;  1.0000716E+04;  0.0000000E+00; -4.7713488E-08;  1.0000000E+04;  0.0000000E+00;  9.9997080E+03; -3.7876278E-02;  0.0000000E+00;  2.2570068E-02;  8.4066582E+01;
  1.1000093E+00;  9.9999998E-03;  8.0000877E-02;2752;  1.2711678E-02;  0.0000000E+00;  1.6677905E-03;  1.0017573E+03;  4.0069667E-01;  1.4127374E+03;3;  1.1165391E+01;  0.0000000E+00;  2.1656480E+00;0; -8.6762756E-03;  1.0000689E+04;  0.0000000E+00; -2.5320543E-07;  1.0000000E+04;  0.0000000E+00;  9.9996221E+03; -3.6661219E-02;  0.0000000E+00;  2.7984943E-02;  1.0766368E+02;
  1.1000096E+00;  9.9999998E-03;  1.0000121E-01;2753;  1.3010215E-02;  0.0000000E+00;  2.2867247E-03;  1.0017482E+03;  4.0069661E-01;  1.4053583E+03;3;  1.1512255E+01;  0.0000000E+00;  2.9410286E+00;0;  1.3827048E-03;  1.0000650E+04;  0.0000000E+00; -8.1537240E-07;  1.0000000E+04;  0.0000000E+00;  9.9994814E+03; -3.4716856E-02;  0.0000000E+00;  3.6099561E-02;  1.4709486E+02;
  1.1000098E+00;  9.9999998E-03;  1.2000161E-01;2754;  1.3452085E-02;  0.0000000E+00;  3.0020110E-03;  1.0017339E+03;  4.0069664E-01;  1.3938584E+03;3;  1.2024848E+01;  0.0000000E+00;  3.7926824E+00;0;  1.6235974E-02;  1.0000592E+04;  0.0000000E+00; -4.6848170E-05;  1.0000000E+04;  0.0000000E+00;  9.9992539E+03; -3.1814896E-02;  0.0000000E+00;  4.8050869E-02;  2.1204199E+02;
  1.1000102E+00;  9.9999998E-03;  1.4000209E-01;2755;  1.4109647E-02;  0.0000000E+00;  3.8451375E-03;  1.0017129E+03;  4.0069672E-01;  1.3769919E+03;3;  1.2821096E+01;  0.0000000E+00;  4.7808452E+00;0;  3.6651172E-02;  1.0000516E+04;  0.0000000E+00; -9.8678994E-04;  1.0000000E+04;  0.0000000E+00;  9.9989102E+03; -2.8091738E-02;  0.0000000E+00;  6.4742908E-02;  3.1232474E+02;
  1.1200083E+00;  9.9999998E-03; -6.8178758E-13;2777;  1.1425904E-02;  0.0000000E+00;  1.5533240E-10;  1.0015490E+03;  4.0060997E-01;  1.2329528E+03;3;  1.0111563E+01;  0.0000000E+00;  4.1408202E-06;0; -2.0423928E-02;  1.0000674E+04;  0.0000000E+00;  1.0213617E-16;  1.0000000E+04;  0.0000000E+00;  9.9998076E+03; -3.5759684E-02;  0.0000000E+00;  1.5335755E-02;  5.3697830E+01;
  1.1200083E+00;  9.9999998E-03;  2.0000175E-02;2778;  1.1446279E-02;  0.0000000E+00;  3.3388892E-04;  1.0015483E+03;  4.0061000E-01;  1.2323834E+03;3;  1.0130051E+01;  0.0000000E+00;  4.3869513E-01;0; -1.9592110E-02;  1.0000671E+04;  0.0000000E+00; -6.3873586E-09;  1.0000000E+04;  0.0000000E+00;  9.9997979E+03; -3.5541311E-02;  0.0000000E+00;  1.5949201E-02;  5.5893604E+01;
  1.1200085E+00;  9.9999998E-03;  4.0000364E-02;2779;  1.1511371E-02;  0.0000000E+00;  6.8899634E-04;  1.0015462E+03;  4.0060997E-01;  1.2306753E+03;3;  1.0196943E+01;  0.0000000E+00;  9.0038455E-01;0; -1.6975369E-02;  1.0000656E+04;  0.0000000E+00; -4.4092264E-08;  1.0000000E+04;  0.0000000E+00;  9.9997695E+03; -3.4844805E-02;  0.0000000E+00;  1.7869435E-02;  6.2951942E+01;
  1.1200085E+00;  9.9999998E-03;  6.0000576E-02;2780;  1.1637333E-02;  0.0000000E+00;  1.0854321E-03;  1.0015421E+03;  4.0061003E-01;  1.2274492E+03;3;  1.0338827E+01;  0.0000000E+00;  1.4002037E+00;0; -1.2183525E-02;  1.0000631E+04;  0.0000000E+00; -1.8666718E-07;  1.0000000E+04;  0.0000000E+00;  9.9997148E+03; -3.3550031E-02;  0.0000000E+00;  2.1366507E-02;  7.6505241E+01;
  1.1200086E+00;  9.9999998E-03;  8.0000818E-02;2781;  1.1842769E-02;  0.0000000E+00;  1.5417140E-03;  1.0015354E+03;  4.0061000E-01;  1.2221355E+03;3;  1.0570028E+01;  0.0000000E+00;  1.9788585E+00;0; -4.5010410E-03;  1.0000590E+04;  0.0000000E+00; -5.8751345E-07;  1.0000000E+04;  0.0000000E+00;  9.9996172E+03; -3.1476580E-02;  0.0000000E+00;  2.6975539E-02;  9.9933334E+01;
  1.1200088E+00;  9.9999998E-03;  1.0000110E-01;2782;  1.2151327E-02;  0.0000000E+00;  2.0628986E-03;  1.0015247E+03;  4.0060997E-01;  1.2135956E+03;3;  1.0917062E+01;  0.0000000E+00;  2.6178052E+00;0;  7.0614610E-03;  1.0000529E+04;  0.0000000E+00; -4.0656319E-05;  1.0000000E+04;  0.0000000E+00;  9.9994658E+03; -2.8457666E-02;  0.0000000E+00;  3.5519127E-02;  1.3885573E+02;
  1.1200091E+00;  9.9999998E-03;  1.2000145E-01;2783;  1.2618314E-02;  0.0000000E+00;  2.6697207E-03;  1.0015090E+03;  4.0060997E-01;  1.2010703E+03;3;  1.1451629E+01;  0.0000000E+00;  3.3357592E+00;0;  2.3232415E-02;  1.0000453E+04;  0.0000000E+00; -6.7300798E-04;  1.0000000E+04;  0.0000000E+00;  9.9992295E+03; -2.4604231E-02;  0.0000000E+00;  4.7836646E-02;  2.0012048E+02;
  1.1200095E+00;  9.9999998E-03;  1.4000188E-01;2784;  1.3281512E-02;  0.0000000E+00;  3.4043172E-03;  1.0014882E+03;  4.0061003E-01;  1.1845599E+03;3;  1.2231235E+01;  0.0000000E+00;  4.1629395E+00;0;  4.3547474E-02;  1.0000370E+04;  0.0000000E+00; -4.3044337E-03;  1.0000000E+04;  0.0000000E+00;  9.9988926E+03; -2.0624669E-02;  0.0000000E+00;  6.4172141E-02;  2.8854166E+02;
  1.1400076E+00;  9.9999998E-03; -3.6691087E-13;2805;  1.0614730E-02;  0.0000000E+00; -2.4759410E-09;  1.0013689E+03;  4.0054038E-01;  1.0756267E+03;3;  9.5462570E+00;  0.0000000E+00; -1.1462107E-05;0; -1.4760435E-02;  1.0000549E+04;  0.0000000E+00; -4.7426021E-16;  1.0000000E+04;  0.0000000E+00;  9.9998096E+03; -2.9370368E-02;  0.0000000E+00;  1.4609933E-02;  4.7777065E+01;
  1.1400077E+00;  9.9999998E-03;  2.0000167E-02;2806;  1.0638700E-02;  0.0000000E+00;  3.1395469E-04;  1.0013680E+03;  4.0054041E-01;  1.0748773E+03;3;  9.5703983E+00;  0.0000000E+00;  4.0370646E-01;0; -1.3738556E-02;  1.0000542E+04;  0.0000000E+00; -2.9752961E-08;  1.0000000E+04;  0.0000000E+00;  9.9998008E+03; -2.8999154E-02;  0.0000000E+00;  1.5260598E-02;  4.9999645E+01;
  1.1400077E+00;  9.9999998E-03;  4.0000342E-02;2807;  1.0711282E-02;  0.0000000E+00;  6.4063031E-04;  1.0013652E+03;  4.0054044E-01;  1.0727228E+03;3;  9.6435213E+00;  0.0000000E+00;  8.2514501E-01;0; -1.0522002E-02;  1.0000520E+04;  0.0000000E+00; -1.5271179E-07;  1.0000000E+04;  0.0000000E+00;  9.9997666E+03; -2.7840754E-02;  0.0000000E+00;  1.7318752E-02;  5.7186398E+01;
  1.1400079E+00;  9.9999998E-03;  6.0000531E-02;2808;  1.0847921E-02;  0.0000000E+00;  9.9615555E-04;  1.0013600E+03;  4.0054047E-01;  1.0686012E+03;3;  9.7928133E+00;  0.0000000E+00;  1.2821720E+00;0; -4.6645999E-03;  1.0000478E+04;  0.0000000E+00; -4.2088454E-06;  1.0000000E+04;  0.0000000E+00;  9.9997021E+03; -2.5784304E-02;  0.0000000E+00;  2.1119704E-02;  7.1038574E+01;
  1.1400080E+00;  9.9999998E-03;  8.0000743E-02;2809;  1.1064192E-02;  0.0000000E+00;  1.3848025E-03;  1.0013517E+03;  4.0054038E-01;  1.0621377E+03;3;  1.0031498E+01;  0.0000000E+00;  1.7623941E+00;0;  4.4782646E-03;  1.0000420E+04;  0.0000000E+00; -9.2842514E-05;  1.0000000E+04;  0.0000000E+00;  9.9995957E+03; -2.2753527E-02;  0.0000000E+00;  2.7231792E-02;  9.4660423E+01;
  1.1400082E+00;  9.9999998E-03;  1.0000099E-01;2810;  1.1400333E-02;  0.0000000E+00;  1.8331014E-03;  1.0013395E+03;  4.0054038E-01;  1.0525831E+03;3;  1.0402113E+01;  0.0000000E+00;  2.3041260E+00;0;  1.7446881E-02;  1.0000343E+04;  0.0000000E+00; -7.8656292E-04;  1.0000000E+04;  0.0000000E+00;  9.9994287E+03; -1.8882887E-02;  0.0000000E+00;  3.6329769E-02;  1.3230672E+02;
  1.1400084E+00;  9.9999998E-03;  1.2000129E-01;2811;  1.1875727E-02;  0.0000000E+00;  2.3499439E-03;  1.0013232E+03;  4.0054047E-01;  1.0397499E+03;3;  1.0939954E+01;  0.0000000E+00;  2.8951416E+00;0;  3.4105003E-02;  1.0000260E+04;  0.0000000E+00; -3.8966031E-03;  1.0000000E+04;  0.0000000E+00;  9.9991875E+03; -1.4719120E-02;  0.0000000E+00;  4.8824124E-02;  1.8801160E+02;
  1.1400089E+00;  9.9999998E-03;  1.4000176E-01;2812;  1.2610388E-02;  0.0000000E+00;  3.0704527E-03;  1.0013037E+03;  4.0054041E-01;  1.0243875E+03;3;  1.1787848E+01;  0.0000000E+00;  3.6634052E+00;0;  5.3088684E-02;  1.0000188E+04;  0.0000000E+00; -1.3159018E-02;  1.0000000E+04;  0.0000000E+00;  9.9988672E+03; -1.1334512E-02;  0.0000000E+00;  6.4423196E-02;  2.6420630E+02;
  1.1600071E+00;  9.9999998E-03; -1.1636550E-12;2832;  9.9144112E-03;  0.0000000E+00; -4.6318910E-10;  1.0012213E+03;  4.0048587E-01;  9.4388470E+02;3;  9.0545282E+00;  0.0000000E+00;  4.2798492E-06;0; -3.9598066E-03;  1.0000335E+04;  0.0000000E+00;  7.3146344E-17;  1.0000000E+04;  0.0000000E+00;  9.9998008E+03; -1.8578982E-02;  0.0000000E+00;  1.4619175E-02;  4.2592548E+01;
  1.1600071E+00;  9.9999998E-03;  2.0000147E-02;2833;  9.9384673E-03;  0.0000000E+00;  2.7709469E-04;  1.0012202E+03;  4.0048584E-01;  9.4305554E+02;3;  9.0856514E+00;  0.0000000E+00;  3.5916990E-01;0; -2.6669102E-03;  1.0000326E+04;  0.0000000E+00; -1.4480132E-06;  1.0000000E+04;  0.0000000E+00;  9.9997871E+03; -1.8048476E-02;  0.0000000E+00;  1.5381566E-02;  4.4986374E+01;
  1.1600071E+00;  9.9999998E-03;  4.0000301E-02;2834;  1.0018314E-02;  0.0000000E+00;  5.6618248E-04;  1.0012166E+03;  4.0048584E-01;  9.4029150E+02;3;  9.1684361E+00;  0.0000000E+00;  7.3765147E-01;0;  1.3050269E-03;  1.0000296E+04;  0.0000000E+00; -3.5921385E-05;  1.0000000E+04;  0.0000000E+00;  9.9997471E+03; -1.6462384E-02;  0.0000000E+00;  1.7767411E-02;  5.2604767E+01;
  1.1600072E+00;  9.9999998E-03;  6.0000461E-02;2835;  1.0162335E-02;  0.0000000E+00;  8.6930871E-04;  1.0012103E+03;  4.0048578E-01;  9.3540851E+02;3;  9.3201780E+00;  0.0000000E+00;  1.1245856E+00;0;  8.2194069E-03;  1.0000244E+04;  0.0000000E+00; -2.6675250E-04;  1.0000000E+04;  0.0000000E+00;  9.9996729E+03; -1.3857341E-02;  0.0000000E+00;  2.2076748E-02;  6.6828224E+01;
  1.1600074E+00;  9.9999998E-03;  8.0000654E-02;2836;  1.0400556E-02;  0.0000000E+00;  1.2117574E-03;  1.0012009E+03;  4.0048584E-01;  9.2813007E+02;3;  9.5768805E+00;  0.0000000E+00;  1.5423671E+00;0;  1.8323511E-02;  1.0000179E+04;  0.0000000E+00; -1.3010652E-03;  1.0000000E+04;  0.0000000E+00;  9.9995518E+03; -1.0414666E-02;  0.0000000E+00;  2.8738178E-02;  8.9890839E+01;
  1.1600076E+00;  9.9999998E-03;  1.0000087E-01;2837;  1.0752145E-02;  0.0000000E+00;  1.5958470E-03;  1.0011885E+03;  4.0048578E-01;  9.1854816E+02;3;  9.9668703E+00;  0.0000000E+00;  1.9899237E+00;0;  3.1588055E-02;  1.0000102E+04;  0.0000000E+00; -4.6427017E-03;  1.0000000E+04;  0.0000000E+00;  9.9993770E+03; -6.5663783E-03;  0.0000000E+00;  3.8154434E-02;  1.2468195E+02;
  1.1600080E+00;  9.9999998E-03;  1.2000121E-01;2838;  1.1303759E-02;  0.0000000E+00;  2.1217417E-03;  1.0011730E+03;  4.0048587E-01;  9.0657086E+02;3;  1.0570077E+01;  0.0000000E+00;  2.5483680E+00;0;  4.7188383E-02;  1.0000031E+04;  0.0000000E+00; -1.3159180E-02;  1.0000000E+04;  0.0000000E+00;  9.9991396E+03; -3.1476812E-03;  0.0000000E+00;  5.0336063E-02;  1.7404924E+02;
  1.1600085E+00;  9.9999998E-03;  1.4000180E-01;2839;  1.2160822E-02;  0.0000000E+00;  2.9623797E-03;  1.0011562E+03;  4.0048590E-01;  8.9357990E+02;3;  1.1521505E+01;  0.0000000E+00;  3.3417342E+00;0;  6.3341834E-02;  9.9999873E+03;  0.0000000E+00; -3.0117922E-02;  1.0000000E+04;  0.0000000E+00;  9.9988467E+03; -1.3501581E-03;  0.0000000E+00;  6.4691991E-02;  2.4054991E+02;
  1.1800065E+00;  9.9999998E-03; -5.3051530E-13;2858;  9.3118027E-03;  0.0000000E+00; -5.6036226E-10;  1.0010999E+03;  4.0044382E-01;  8.3233514E+02;3;  8.6596451E+00;  0.0000000E+00;  3.4958139E-06;0;  1.2674909E-02;  1.0000033E+04;  0.0000000E+00; -1.4529741E-16;  1.0000000E+04;  0.0000000E+00;  9.9997695E+03; -3.1195616E-03;  0.0000000E+00;  1.5794471E-02;  3.8016922E+01;
  1.1800065E+00;  9.9999998E-03;  2.0000117E-02;2859;  9.3358625E-03;  0.0000000E+00;  2.2861456E-04;  1.0010985E+03;  4.0044382E-01;  8.3134265E+02;3;  8.6855211E+00;  0.0000000E+00;  3.0670038E-01;0;  1.4140501E-02;  1.0000022E+04;  0.0000000E+00; -6.6199485E-05;  1.0000000E+04;  0.0000000E+00;  9.9997549E+03; -2.5548816E-03;  0.0000000E+00;  1.6695382E-02;  4.0536407E+01;
  1.1800066E+00;  9.9999998E-03;  4.0000245E-02;2860;  9.4253831E-03;  0.0000000E+00;  4.7487850E-04;  1.0010945E+03;  4.0044385E-01;  8.2827533E+02;3;  8.7733517E+00;  0.0000000E+00;  6.3002980E-01;0;  1.8517943E-02;  9.9999922E+03;  0.0000000E+00; -4.9612182E-04;  1.0000000E+04;  0.0000000E+00;  9.9997070E+03; -9.3080191E-04;  0.0000000E+00;  1.9448744E-02;  4.8345787E+01;
  1.1800067E+00;  9.9999998E-03;  6.0000390E-02;2861;  9.5801977E-03;  0.0000000E+00;  7.3450833E-04;  1.0010879E+03;  4.0044385E-01;  8.2331329E+02;3;  8.9341440E+00;  0.0000000E+00;  9.5408839E-01;0;  2.5729548E-02;  9.9999443E+03;  0.0000000E+00; -2.0193334E-03;  1.0000000E+04;  0.0000000E+00;  9.9996221E+03;  1.5336878E-03;  0.0000000E+00;  2.4195861E-02;  6.2252056E+01;
  1.1800069E+00;  9.9999998E-03;  8.0000579E-02;2862;  9.8528173E-03;  0.0000000E+00;  1.0492740E-03;  1.0010787E+03;  4.0044388E-01;  8.1636652E+02;3;  9.2171049E+00;  0.0000000E+00;  1.3199819E+00;0;  3.5558477E-02;  9.9998887E+03;  0.0000000E+00; -6.0804104E-03;  1.0000000E+04;  0.0000000E+00;  9.9994961E+03;  4.4304766E-03;  0.0000000E+00;  3.1128000E-02;  8.3868210E+01;
  1.1800072E+00;  9.9999998E-03;  1.0000086E-01;2863;  1.0281743E-02;  0.0000000E+00;  1.4754963E-03;  1.0010674E+03;  4.0044382E-01;  8.0779572E+02;3;  9.6719055E+00;  0.0000000E+00;  1.7625655E+00;0;  4.7461987E-02;  9.9998340E+03;  0.0000000E+00; -1.4829014E-02;  1.0000000E+04;  0.0000000E+00;  9.9993213E+03;  7.1086208E-03;  0.0000000E+00;  4.0353365E-02;  1.1579143E+02;
  1.1800077E+00;  9.9999998E-03;  1.2000132E-01;2864;  1.0967136E-02;  0.0000000E+00;  2.1370577E-03;  1.0010545E+03;  4.0044388E-01;  7.9805188E+02;3;  1.0387142E+01;  0.0000000E+00;  2.3858006E+00;0;  6.0265303E-02;  9.9997969E+03;  0.0000000E+00; -3.0592961E-02;  1.0000000E+04;  0.0000000E+00;  9.9990996E+03;  8.6237621E-03;  0.0000000E+00;  5.1641539E-02;  1.6093993E+02;
  1.1800085E+00;  9.9999998E-03;  1.4000216E-01;2865;  1.2046964E-02;  0.0000000E+00;  3.2369124E-03;  1.0010413E+03;  4.0044388E-01;  7.8803711E+02;3;  1.1524077E+01;  0.0000000E+00;  3.3132980E+00;0;  7.2417378E-02;  9.9997959E+03;  0.0000000E+00; -5.3922575E-02;  1.0000000E+04;  0.0000000E+00;  9.9988389E+03;  7.9662018E-03;  0.0000000E+00;  6.4451180E-02;  2.2068402E+02;
  1.2000061E+00;  9.9999998E-03;  3.1610280E-13;2882;  8.8142017E-03;  0.0000000E+00; -3.5125020E-10;  1.0010005E+03;  4.0041226E-01;  7.3766284E+02;3;  8.3200827E+00;  0.0000000E+00; -4.2031752E-07;0;  3.3533722E-02;  9.9996797E+03;  0.0000000E+00;  1.1923573E-15;  1.0000000E+04;  0.0000000E+00;  9.9997148E+03;  1.5193606E-02;  0.0000000E+00;  1.8340116E-02;  3.3530758E+01;
  1.2000061E+00;  9.9999998E-03;  2.0000100E-02;2883;  8.8446382E-03;  0.0000000E+00;  1.9306371E-04;  1.0009992E+03;  4.0041235E-01;  7.3669604E+02;3;  8.3492994E+00;  0.0000000E+00;  2.5976354E-01;0;  3.4934781E-02;  9.9996719E+03;  0.0000000E+00; -3.9327896E-04;  1.0000000E+04;  0.0000000E+00;  9.9996992E+03;  1.5606591E-02;  0.0000000E+00;  1.9328190E-02;  3.5961479E+01;
  1.2000062E+00;  9.9999998E-03;  4.0000223E-02;2884;  8.9506041E-03;  0.0000000E+00;  4.1068217E-04;  1.0009955E+03;  4.0041229E-01;  7.3397137E+02;3;  8.4508200E+00;  0.0000000E+00;  5.3334492E-01;0;  3.9033733E-02;  9.9996494E+03;  0.0000000E+00; -2.1074098E-03;  1.0000000E+04;  0.0000000E+00;  9.9996455E+03;  1.6744127E-02;  0.0000000E+00;  2.2289608E-02;  4.3432552E+01;
  1.2000064E+00;  9.9999998E-03;  6.0000394E-02;2885;  9.1596097E-03;  0.0000000E+00;  6.8509340E-04;  1.0009897E+03;  4.0041238E-01;  7.2966455E+02;3;  8.6581411E+00;  0.0000000E+00;  8.4519893E-01;0;  4.5423925E-02;  9.9996211E+03;  0.0000000E+00; -6.5986193E-03;  1.0000000E+04;  0.0000000E+00;  9.9995566E+03;  1.8263264E-02;  0.0000000E+00;  2.7160663E-02;  5.6610981E+01;
  1.2000066E+00;  9.9999998E-03;  8.0000661E-02;2886;  9.5145609E-03;  0.0000000E+00;  1.0760737E-03;  1.0009821E+03;  4.0041232E-01;  7.2403931E+02;3;  9.0059099E+00;  0.0000000E+00;  1.2358398E+00;0;  5.3486042E-02;  9.9995938E+03;  0.0000000E+00; -1.5758028E-02;  1.0000000E+04;  0.0000000E+00;  9.9994336E+03;  1.9591069E-02;  0.0000000E+00;  3.3894975E-02;  7.7373116E+01;
  1.2000071E+00;  9.9999998E-03;  1.0000110E-01;2887;  1.0099341E-02;  0.0000000E+00;  1.6682714E-03;  1.0009733E+03;  4.0041235E-01;  7.1753497E+02;3;  9.5767336E+00;  0.0000000E+00;  1.7691898E+00;0;  6.2414471E-02;  9.9995781E+03;  0.0000000E+00; -3.1096477E-02;  1.0000000E+04;  0.0000000E+00;  9.9992725E+03;  2.0002224E-02;  0.0000000E+00;  4.2412248E-02;  1.0827196E+02;
  1.2000079E+00;  9.9999998E-03;  1.2000183E-01;2888;  1.1081806E-02;  0.0000000E+00;  2.6337195E-03;  1.0009638E+03;  4.0041232E-01;  7.1059088E+02;3;  1.0517229E+01;  0.0000000E+00;  2.5903163E+00;0;  7.1427740E-02;  9.9995879E+03;  0.0000000E+00; -5.2712429E-02;  1.0000000E+04;  0.0000000E+00;  9.9990742E+03;  1.8878212E-02;  0.0000000E+00;  5.2549526E-02;  1.5050755E+02;
  1.2000091E+00;  9.9999998E-03;  1.4000304E-01;2889;  1.2726678E-02;  0.0000000E+00;  4.1799676E-03;  1.0009532E+03;  4.0041235E-01;  7.0276733E+02;3;  1.2129228E+01;  0.0000000E+00;  3.8683875E+00;0;  8.0858678E-02;  9.9996152E+03;  0.0000000E+00; -7.8618981E-02;  1.0000000E+04;  0.0000000E+00;  9.9988350E+03;  1.6527677E-02;  0.0000000E+00;  6.4331003E-02;  2.0261954E+02;
  1.2200060E+00;  9.9999998E-03; -8.9141619E-14;2905;  8.5661476E-03;  0.0000000E+00;  3.6033971E-11;  1.0009215E+03;  4.0038908E-01;  6.5816681E+02;3;  8.1335297E+00;  0.0000000E+00; -1.5557307E-06;0;  5.5156436E-02;  9.9993340E+03;  0.0000000E+00;  1.2720734E-15;  1.0000000E+04;  0.0000000E+00;  9.9996426E+03;  3.3102978E-02;  0.0000000E+00;  2.2053458E-02;  2.8656773E+01;
  1.2200060E+00;  9.9999998E-03;  2.0000132E-02;2906;  8.6141899E-03;  0.0000000E+00;  2.1117677E-04;  1.0009205E+03;  4.0038902E-01;  6.5740045E+02;3;  8.1774988E+00;  0.0000000E+00;  2.4797241E-01;0;  5.6241229E-02;  9.9993340E+03;  0.0000000E+00; -1.0271251E-03;  1.0000000E+04;  0.0000000E+00;  9.9996260E+03;  3.3192649E-02;  0.0000000E+00;  2.3048580E-02;  3.0856728E+01;
  1.2200061E+00;  9.9999998E-03;  4.0000316E-02;2907;  8.7730493E-03;  0.0000000E+00;  4.8134144E-04;  1.0009177E+03;  4.0038908E-01;  6.5544196E+02;3;  8.3183317E+00;  0.0000000E+00;  5.3264821E-01;0;  5.9314761E-02;  9.9993311E+03;  0.0000000E+00; -4.8272097E-03;  1.0000000E+04;  0.0000000E+00;  9.9995732E+03;  3.3340506E-02;  0.0000000E+00;  2.5974255E-02;  3.7782742E+01;
  1.2200065E+00;  9.9999998E-03;  6.0000602E-02;2908;  9.0875691E-03;  0.0000000E+00;  8.8023499E-04;  1.0009135E+03;  4.0038908E-01;  6.5246167E+02;3;  8.5903740E+00;  0.0000000E+00;  9.0834457E-01;0;  6.3782245E-02;  9.9993301E+03;  0.0000000E+00; -1.3092969E-02;  1.0000000E+04;  0.0000000E+00;  9.9994873E+03;  3.3166729E-02;  0.0000000E+00;  3.0615518E-02;  5.0533623E+01;
  1.2200069E+00;  9.9999998E-03;  8.0001079E-02;2909;  9.6752048E-03;  0.0000000E+00;  1.5134747E-03;  1.0009082E+03;  4.0038905E-01;  6.4871466E+02;3;  9.1020584E+00;  0.0000000E+00;  1.4583043E+00;0;  6.9098637E-02;  9.9993428E+03;  0.0000000E+00; -2.7365163E-02;  1.0000000E+04;  0.0000000E+00;  9.9993721E+03;  3.2260217E-02;  0.0000000E+00;  3.6838416E-02;  7.1140854E+01;
  1.2200078E+00;  9.9999998E-03;  1.0000180E-01;2910;  1.0712328E-02;  0.0000000E+00;  2.4790147E-03;  1.0009019E+03;  4.0038905E-01;  6.4420111E+02;3;  1.0013418E+01;  0.0000000E+00;  2.2965486E+00;0;  7.5248897E-02;  9.9993633E+03;  0.0000000E+00; -4.7806010E-02;  1.0000000E+04;  0.0000000E+00;  9.9992217E+03;  3.0589968E-02;  0.0000000E+00;  4.4658929E-02;  1.0079729E+02;
  1.2200091E+00;  9.9999998E-03;  1.2000283E-01;2911;  1.2391234E-02;  0.0000000E+00;  3.8455601E-03;  1.0008934E+03;  4.0038908E-01;  6.3815436E+02;3;  1.1531655E+01;  0.0000000E+00;  3.5295131E+00;0;  8.3342940E-02;  9.9993770E+03;  0.0000000E+00; -7.2743736E-02;  1.0000000E+04;  0.0000000E+00;  9.9990400E+03;  2.9165236E-02;  0.0000000E+00;  5.4177705E-02;  1.3816937E+02;
  1.2200110E+00;  9.9999998E-03;  1.4000417E-01;2912;  1.4822629E-02;  0.0000000E+00;  5.5291434E-03;  1.0008807E+03;  4.0038908E-01;  6.2904199E+02;3;  1.3898186E+01;  0.0000000E+00;  4.9873691E+00;0;  9.5623143E-02;  9.9993447E+03;  0.0000000E+00; -9.8392367E-02;  1.0000000E+04;  0.0000000E+00;  9.9988184E+03;  3.0364389E-02;  0.0000000E+00;  6.5258756E-02;  1.7933488E+02;
  1.2400067E+00;  9.9999998E-03; -4.8747258E-13;2926;  9.1094123E-03;  0.0000000E+00; -8.5072466E-10;  1.0008616E+03;  4.0037227E-01;  5.9276910E+02;3;  8.3119402E+00;  0.0000000E+00; -4.2241300E-07;0;  7.3364466E-02;  9.9990615E+03;  0.0000000E+00; -9.8661455E-16;  1.0000000E+04;  0.0000000E+00;  9.9995576E+03;  4.6905078E-02;  0.0000000E+00;  2.6459390E-02;  2.3496408E+01;
  1.2400068E+00;  9.9999998E-03;  2.0000268E-02;2927;  9.2138974E-03;  0.0000000E+00;  3.7759435E-04;  1.0008608E+03;  4.0037227E-01;  5.9219495E+02;3;  8.3941031E+00;  0.0000000E+00;  3.6630279E-01;0;  7.4111633E-02;  9.9990645E+03;  0.0000000E+00; -1.6442013E-03;  1.0000000E+04;  0.0000000E+00;  9.9995430E+03;  4.6698309E-02;  0.0000000E+00;  2.7413325E-02;  2.5403772E+01;
  1.2400070E+00;  9.9999998E-03;  4.0000618E-02;2928;  9.5658479E-03;  0.0000000E+00;  8.6315424E-04;  1.0008587E+03;  4.0037224E-01;  5.9071838E+02;3;  8.6793232E+00;  0.0000000E+00;  8.2267118E-01;0;  7.6291546E-02;  9.9990732E+03;  0.0000000E+00; -7.2972528E-03;  1.0000000E+04;  0.0000000E+00;  9.9994902E+03;  4.6099212E-02;  0.0000000E+00;  3.0192338E-02;  3.1617331E+01;
  1.2400076E+00;  9.9999998E-03;  6.0001124E-02;2929;  1.0276393E-02;  0.0000000E+00;  1.5533254E-03;  1.0008553E+03;  4.0037218E-01;  5.8842145E+02;3;  9.2810001E+00;  0.0000000E+00;  1.4588255E+00;0;  7.9876527E-02;  9.9990850E+03;  0.0000000E+00; -1.8520286E-02;  1.0000000E+04;  0.0000000E+00;  9.9994111E+03;  4.5304414E-02;  0.0000000E+00;  3.4572117E-02;  4.3415058E+01;
  1.2400086E+00;  9.9999998E-03;  8.0001824E-02;2930;  1.1486313E-02;  0.0000000E+00;  2.4862476E-03;  1.0008500E+03;  4.0037224E-01;  5.8481189E+02;3;  1.0384007E+01;  0.0000000E+00;  2.3050921E+00;0;  8.5404694E-02;  9.9990889E+03;  0.0000000E+00; -3.6415365E-02;  1.0000000E+04;  0.0000000E+00;  9.9993018E+03;  4.4981282E-02;  0.0000000E+00;  4.0423416E-02;  6.2211315E+01;
  1.2400099E+00;  9.9999998E-03;  1.0000273E-01;2931;  1.3233908E-02;  0.0000000E+00;  3.6481430E-03;  1.0008419E+03;  4.0037221E-01;  5.7915161E+02;3;  1.2070415E+01;  0.0000000E+00;  3.3337045E+00;0;  9.3944788E-02;  9.9990645E+03;  0.0000000E+00; -6.0052305E-02;  1.0000000E+04;  0.0000000E+00;  9.9991660E+03;  4.6228483E-02;  0.0000000E+00;  4.7716301E-02;  8.7749809E+01;
  1.2400116E+00;  9.9999998E-03;  1.2000387E-01;2932;  1.5355175E-02;  0.0000000E+00;  5.0639585E-03;  1.0008301E+03;  4.0037227E-01;  5.7111279E+02;3;  1.4217779E+01;  0.0000000E+00;  4.5617332E+00;0;  1.0622942E-01;  9.9989980E+03;  0.0000000E+00; -8.4733374E-02;  1.0000000E+04;  0.0000000E+00;  9.9989932E+03;  4.9711164E-02;  0.0000000E+00;  5.6518253E-02;  1.1658031E+02;
  1.2400132E+00;  9.9999998E-03;  1.4000529E-01;2933;  1.7524896E-02;  0.0000000E+00;  6.7685586E-03;  1.0008150E+03;  4.0037227E-01;  5.6069568E+02;3;  1.6561768E+01;  0.0000000E+00;  6.0367298E+00;0;  1.2128186E-01;  9.9989092E+03;  0.0000000E+00; -9.8709188E-02;  1.0000000E+04;  0.0000000E+00;  9.9987813E+03;  5.4228999E-02;  0.0000000E+00;  6.7052864E-02;  1.4070642E+02;
  1.2600095E+00;  9.9999998E-03; -6.2031343E-13;2944;  1.2510590E-02;  0.0000000E+00; -3.2793207E-10;  1.0008083E+03;  4.0036038E-01;  5.3267883E+02;3;  1.1090777E+01;  0.0000000E+00;  1.5253318E-06;0;  9.8979250E-02;  9.9986748E+03;  0.0000000E+00; -1.2701593E-15;  1.0000000E+04;  0.0000000E+00;  9.9994736E+03;  6.7964047E-02;  0.0000000E+00;  3.1015201E-02;  1.3716856E+01;
  1.2600096E+00;  9.9999998E-03;  2.0000404E-02;2945;  1.2650337E-02;  0.0000000E+00;  5.4919207E-04;  1.0008074E+03;  4.0036035E-01;  5.3212872E+02;3;  1.1227737E+01;  0.0000000E+00;  5.1706362E-01;0;  9.9803589E-02;  9.9986758E+03;  0.0000000E+00; -1.8634312E-03;  1.0000000E+04;  0.0000000E+00;  9.9994580E+03;  6.7896001E-02;  0.0000000E+00;  3.1907588E-02;  1.5230672E+01;
  1.2600100E+00;  9.9999998E-03;  4.0000916E-02;2946;  1.3090908E-02;  0.0000000E+00;  1.2336711E-03;  1.0008052E+03;  4.0036044E-01;  5.3071411E+02;3;  1.1663108E+01;  0.0000000E+00;  1.1480803E+00;0;  1.0234411E-01;  9.9986758E+03;  0.0000000E+00; -8.1747603E-03;  1.0000000E+04;  0.0000000E+00;  9.9994111E+03;  6.7840174E-02;  0.0000000E+00;  3.4503940E-02;  2.0348650E+01;
  1.2600106E+00;  9.9999998E-03;  6.0001627E-02;2947;  1.3873896E-02;  0.0000000E+00;  2.1601478E-03;  1.0008010E+03;  4.0036038E-01;  5.2788501E+02;3;  1.2447620E+01;  0.0000000E+00;  1.9830527E+00;0;  1.0687062E-01;  9.9986699E+03;  0.0000000E+00; -2.0458147E-02;  1.0000000E+04;  0.0000000E+00;  9.9993340E+03;  6.8228759E-02;  0.0000000E+00;  3.8641866E-02;  3.0340172E+01;
  1.2600116E+00;  9.9999998E-03;  8.0002561E-02;2948;  1.5012995E-02;  0.0000000E+00;  3.3529873E-03;  1.0007944E+03;  4.0036035E-01;  5.2356281E+02;3;  1.3616974E+01;  0.0000000E+00;  3.0451753E+00;0;  1.1398936E-01;  9.9986455E+03;  0.0000000E+00; -3.9022595E-02;  1.0000000E+04;  0.0000000E+00;  9.9992285E+03;  6.9660015E-02;  0.0000000E+00;  4.4329345E-02;  4.5966064E+01;
  1.2600126E+00;  9.9999998E-03;  1.0000368E-01;2949;  1.6385229E-02;  0.0000000E+00;  4.7425223E-03;  1.0007853E+03;  4.0036041E-01;  5.1759052E+02;3;  1.5091344E+01;  0.0000000E+00;  4.2839770E+00;0;  1.2341130E-01;  9.9986016E+03;  0.0000000E+00; -5.8908645E-02;  1.0000000E+04;  0.0000000E+00;  9.9990908E+03;  7.1786582E-02;  0.0000000E+00;  5.1624715E-02;  6.4756927E+01;
  1.2600137E+00;  9.9999998E-03;  1.2000496E-01;2950;  1.7730834E-02;  0.0000000E+00;  6.2824250E-03;  1.0007756E+03;  4.0036041E-01;  5.1114685E+02;3;  1.6673735E+01;  0.0000000E+00;  5.6788549E+00;0;  1.3282309E-01;  9.9985801E+03;  0.0000000E+00; -6.6532649E-02;  1.0000000E+04;  0.0000000E+00;  9.9989150E+03;  7.2327621E-02;  0.0000000E+00;  6.0495477E-02;  7.9654671E+01;
  1.2600145E+00;  9.9999998E-03;  1.4000636E-01;2951;  1.8798223E-02;  0.0000000E+00;  7.9334620E-03;  1.0007678E+03;  4.0036038E-01;  5.0596054E+02;3;  1.8143154E+01;  0.0000000E+00;  7.2340603E+00;0;  1.3907322E-01;  9.9986348E+03;  0.0000000E+00; -4.0688355E-02;  1.0000000E+04;  0.0000000E+00;  9.9987041E+03;  6.8184890E-02;  0.0000000E+00;  7.0888340E-02;  8.6244522E+01;
  1.2800127E+00;  9.9999998E-03;  4.3285593E-13;2959;  1.6244875E-02;  0.0000000E+00;  8.6468249E-10;  1.0007550E+03;  4.0035215E-01;  4.7458197E+02;3;  1.4539860E+01;  0.0000000E+00;  8.3935447E-07;0;  1.3474648E-01;  9.9981045E+03;  0.0000000E+00; -2.3752585E-15;  1.0000000E+04;  0.0000000E+00;  9.9993936E+03;  9.9461854E-02;  0.0000000E+00;  3.5284620E-02;  2.3214328E+00;
  1.2800127E+00;  9.9999998E-03;  2.0000542E-02;2960;  1.6313227E-02;  0.0000000E+00;  7.0939440E-04;  1.0007549E+03;  4.0035212E-01;  4.7450693E+02;3;  1.4626952E+01;  0.0000000E+00;  6.6167611E-01;0;  1.3491023E-01;  9.9981143E+03;  0.0000000E+00; -1.3131420E-03;  1.0000000E+04;  0.0000000E+00;  9.9993789E+03;  9.8786905E-02;  0.0000000E+00;  3.6123328E-02;  1.2169209E+00;
  1.2800130E+00;  9.9999998E-03;  4.0001228E-02;2961;  1.6517878E-02;  0.0000000E+00;  1.5989823E-03;  1.0007543E+03;  4.0035212E-01;  4.7413205E+02;3;  1.4894476E+01;  0.0000000E+00;  1.4818811E+00;0;  1.3535848E-01;  9.9981523E+03;  0.0000000E+00; -5.7014017E-03;  1.0000000E+04;  0.0000000E+00;  9.9993330E+03;  9.6732058E-02;  0.0000000E+00;  3.8626418E-02;  4.8059688E+00;
  1.2800132E+00;  9.9999998E-03;  6.0002178E-02;2962;  1.6858384E-02;  0.0000000E+00;  2.8014074E-03;  1.0007532E+03;  4.0035209E-01;  4.7345731E+02;3;  1.5356798E+01;  0.0000000E+00;  2.5801911E+00;0;  1.3622850E-01;  9.9982080E+03;  0.0000000E+00; -1.3548409E-02;  1.0000000E+04;  0.0000000E+00;  9.9992529E+03;  9.3317740E-02;  0.0000000E+00;  4.2910758E-02;  1.3362843E+01;
  1.2800136E+00;  9.9999998E-03;  8.0003388E-02;2963;  1.7308813E-02;  0.0000000E+00;  4.3052244E-03;  1.0007513E+03;  4.0035209E-01;  4.7225787E+02;3;  1.6012545E+01;  0.0000000E+00;  3.9569173E+00;0;  1.3774386E-01;  9.9982900E+03;  0.0000000E+00; -2.1442180E-02;  1.0000000E+04;  0.0000000E+00;  9.9991328E+03;  8.8352636E-02;  0.0000000E+00;  4.9391229E-02;  2.5016071E+01;
  1.2800140E+00;  9.9999998E-03;  1.0000470E-01;2964;  1.7758846E-02;  0.0000000E+00;  5.8894381E-03;  1.0007495E+03;  4.0035218E-01;  4.7113333E+02;3;  1.6782793E+01;  0.0000000E+00;  5.4357462E+00;0;  1.3857722E-01;  9.9984150E+03;  0.0000000E+00; -1.6819481E-02;  1.0000000E+04;  0.0000000E+00;  9.9989697E+03;  8.0705985E-02;  0.0000000E+00;  5.7871241E-02;  3.7693233E+01;
  1.2800142E+00;  9.9999998E-03;  1.2000602E-01;2965;  1.8016078E-02;  0.0000000E+00;  7.4448655E-03;  1.0007505E+03;  4.0035221E-01;  4.7180750E+02;3;  1.7506805E+01;  0.0000000E+00;  6.9165959E+00;0;  1.3552654E-01;  9.9986318E+03;  0.0000000E+00;  1.6462615E-02;  1.0000000E+04;  0.0000000E+00;  9.9987734E+03;  6.7793131E-02;  0.0000000E+00;  6.7733407E-02;  5.6884907E+01;
  1.3000139E+00;  9.9999998E-03;  9.5850248E-14;2970;  1.7384220E-02;  0.0000000E+00;  1.6311177E-10;  1.0007382E+03;  4.0034655E-01;  4.4137177E+02;3;  1.6105886E+01;  0.0000000E+00;  2.4100154E-07;0;  1.3604864E-01;  9.9981143E+03;  0.0000000E+00; -1.4602481E-15;  1.0000000E+04;  0.0000000E+00;  9.9993242E+03;  9.7044319E-02;  0.0000000E+00;  3.9004322E-02;  5.6106043E+00;
  1.3000139E+00;  9.9999998E-03;  2.0000681E-02;2971;  1.7373046E-02;  0.0000000E+00;  8.6787052E-04;  1.0007391E+03;  4.0034652E-01;  4.4194202E+02;3;  1.6132324E+01;  0.0000000E+00;  8.2900321E-01;0;  1.3500585E-01;  9.9981475E+03;  0.0000000E+00;  2.9951494E-04;  1.0000000E+04;  0.0000000E+00;  9.9993105E+03;  9.5176131E-02;  0.0000000E+00;  3.9829712E-02;  3.8314490E+00;
  1.3000139E+00;  9.9999998E-03;  4.0001556E-02;2972;  1.7330037E-02;  0.0000000E+00;  1.9676562E-03;  1.0007416E+03;  4.0034655E-01;  4.4343893E+02;3;  1.6208986E+01;  0.0000000E+00;  1.8738495E+00;0;  1.3194792E-01;  9.9982490E+03;  0.0000000E+00;  2.1912998E-03;  1.0000000E+04;  0.0000000E+00;  9.9992598E+03;  8.9458585E-02;  0.0000000E+00;  4.2489335E-02;  2.0596716E+00;
  1.3000138E+00;  9.9999998E-03;  6.0002755E-02;2973;  1.7234189E-02;  0.0000000E+00;  3.4584093E-03;  1.0007454E+03;  4.0034652E-01;  4.4572000E+02;3;  1.6326237E+01;  0.0000000E+00;  3.2870097E+00;0;  1.2754259E-01;  9.9984229E+03;  0.0000000E+00;  9.8706605E-03;  1.0000000E+04;  0.0000000E+00;  9.9991621E+03;  7.9773366E-02;  0.0000000E+00;  4.7769226E-02;  1.3046027E+01;
  1.3000137E+00;  9.9999998E-03;  8.0004260E-02;2974;  1.7064875E-02;  0.0000000E+00;  5.2841874E-03;  1.0007487E+03;  4.0034652E-01;  4.4764474E+02;3;  1.6472334E+01;  0.0000000E+00;  5.0259471E+00;0;  1.2329881E-01;  9.9986582E+03;  0.0000000E+00;  3.2738540E-02;  1.0000000E+04;  0.0000000E+00;  9.9989883E+03;  6.6382170E-02;  0.0000000E+00;  5.6916643E-02;  3.2760956E+01;
 -1.7976577E-09;  9.9999998E-03;  1.6000000E-01;1053; -6.0209227E-06;  0.0000000E+00;  6.1147745E-07;  1.0000001E+03;  4.0000001E-01;  9.8762624E-02;3; -1.3522475E-02;  0.0000000E+00;  1.4062463E-03;0; -1.2193239E-04;  1.0000001E+04;  0.0000000E+00;  2.1960884E-12;  1.0000000E+04;  0.0000000E+00;  1.0000000E+04; -1.2579039E-04;  0.0000000E+00;  3.8580019E-06;  1.2085875E-02;
 -1.7210191E-09;  9.9999998E-03;  1.8000001E-01;1054; -5.7737816E-06;  0.0000000E+00;  7.2445164E-07;  1.0000001E+03;  4.0000001E-01;  9.8762624E-02;3; -1.2987060E-02;  0.0000000E+00;  1.6621207E-03;0; -1.1670750E-04;  1.0000001E+04;  0.0000000E+00; -2.9137159E-12;  1.0000000E+04;  0.0000000E+00;  1.0000000E+04; -1.2057496E-04;  0.0000000E+00;  3.8674593E-06;  1.2019604E-02;
 -1.6247848E-09;  9.9999998E-03;  2.0000000E-01;1055; -5.4601910E-06;  0.0000000E+00;  8.4449039E-07;  1.0000000E+03;  4.0000001E-01;  0.0000000E+00;3; -1.2304690E-02;  0.0000000E+00;  1.9367917E-03;0; -1.1034824E-04;  1.0000001E+04;  0.0000000E+00; -1.2600090E-12;  1.0000000E+04;  0.0000000E+00;  1.0000000E+04; -1.1379120E-04;  0.0000000E+00;  3.4429650E-06;  1.0887963E-02;
 -1.5051894E-09;  9.9999998E-03;  2.2000000E-01;1056; -5.0666272E-06;  0.0000000E+00;  9.6567430E-07;  1.0000000E+03;  4.0000001E-01;  0.0000000E+00;3; -1.1447880E-02;  0.0000000E+00;  2.2183121E-03;0; -1.0265321E-04;  1.0000001E+04;  0.0000000E+00;  3.0039968E-13;  1.0000000E+04;  0.0000000E+00;  1.0000000E+04; -1.0495105E-04;  0.0000000E+00;  2.2978311E-06;  7.9917200E-03;
 -1.3593046E-09;  9.9999998E-03;  2.3999999E-01;1057; -4.5828160E-06;  0.0000000E+00;  1.0730475E-06;  1.0000000E+03;  4.0000001E-01;  0.0000000E+00;3; -1.0396502E-02;  0.0000000E+00;  2.4727546E-03;0; -9.3308736E-05;  1.0000001E+04;  0.0000000E+00;  9.7968068E-15;  1.0000000E+04;  0.0000000E+00;  1.0000000E+04; -9.3593866E-05;  0.0000000E+00;  2.8512829E-07;  2.9445987E-03;
 -1.1822029E-09;  9.9999998E-03;  2.5999999E-01;1058; -3.9914235E-06;  0.0000000E+00;  1.1609983E-06;  1.0000000E+03;  4.0000001E-01;  0.0000000E+00;3; -9.1088861E-03;  0.0000000E+00;  2.6877958E-03;0; -8.1977931E-05;  1.0000000E+04;  0.0000000E+00; -4.9213997E-13;  1.0000000E+04;  0.0000000E+00;  1.0000000E+04; -7.9566715E-05;  0.0000000E+00; -2.4112192E-06;  3.8400509E-03;
 -9.7374353E-10;  9.9999998E-03;  2.8000000E-01;1059; -3.2944918E-06;  0.0000000E+00;  1.2054467E-06;  1.0000000E+03;  4.0000001E-01;  0.0000000E+00;3; -7.5845970E-03;  0.0000000E+00;  2.8034854E-03;0; -6.8557951E-05;  1.0000000E+04;  0.0000000E+00; -2.7463535E-12;  1.0000000E+04;  0.0000000E+00;  1.0000000E+04; -6.3385931E-05;  0.0000000E+00; -5.1720167E-06;  1.0879132E-02;
  1.9999998E-02;  9.9999998E-03;  1.6000000E-01;1083; -9.2897553E-06;  0.0000000E+00;  9.1986954E-07;  1.0000001E+03;  4.0000001E-01;  9.8762624E-02;3; -2.0240944E-02;  0.0000000E+00;  2.0517292E-03;0; -1.6876805E-04;  1.0000001E+04;  0.0000000E+00; -3.4403706E-12;  1.0000000E+04;  0.0000000E+00;  1.0000000E+04; -1.7475279E-04;  0.0000000E+00;  5.9847298E-06;  1.8933557E-02;
  1.9999998E-02;  9.9999998E-03;  1.8000001E-01;1084; -8.9261412E-06;  0.0000000E+00;  1.0895765E-06;  1.0000001E+03;  4.0000001E-01;  9.8762624E-02;3; -1.9483786E-02;  0.0000000E+00;  2.4261731E-03;0; -1.6188135E-04;  1.0000001E+04;  0.0000000E+00; -5.2451767E-12;  1.0000000E+04;  0.0000000E+00;  1.0000000E+04; -1.6790864E-04;  0.0000000E+00;  6.0272882E-06;  1.8942159E-02;
  1.9999998E-02;  9.9999998E-03;  2.0000000E-01;1085; -8.4587982E-06;  0.0000000E+00;  1.2678496E-06;  1.0000001E+03;  4.0000001E-01;  9.8762624E-02;3; -1.8503156E-02;  0.0000000E+00;  2.8217586E-03;0; -1.5349450E-04;  1.0000001E+04;  0.0000000E+00; -2.2654381E-12;  1.0000000E+04;  0.0000000E+00;  1.0000000E+04; -1.5890921E-04;  0.0000000E+00;  5.4147140E-06;  1.7291825E-02;
  1.9999998E-02;  9.9999998E-03;  2.2000000E-01;1086; -7.8617295E-06;  0.0000000E+00;  1.4474892E-06;  1.0000001E+03;  4.0000001E-01;  9.8762624E-02;3; -1.7247535E-02;  0.0000000E+00;  3.2269824E-03;0; -1.4333299E-04;  1.0000001E+04;  0.0000000E+00; -2.8926657E-12;  1.0000000E+04;  0.0000000E+00;  1.0000000E+04; -1.4703727E-04;  0.0000000E+00;  3.7042755E-06;  1.2856914E-02;
  1.9999998E-02;  9.9999998E-03;  2.3999999E-01;1087; -7.1154623E-06;  0.0000000E+00;  1.5958897E-06;  1.0000001E+03;  4.0000001E-01;  9.8762624E-02;3; -1.5681688E-02;  0.0000000E+00;  3.5665096E-03;0; -1.3094023E-04;  1.0000001E+04;  0.0000000E+00;  1.8859846E-13;  1.0000000E+04;  0.0000000E+00;  1.0000000E+04; -1.3159834E-04;  0.0000000E+00;  6.5811150E-07;  4.9894927E-03;
  1.9999998E-02;  9.9999998E-03;  2.5999999E-01;1088; -6.1827554E-06;  0.0000000E+00;  1.7056459E-06;  1.0000001E+03;  4.0000001E-01;  9.8762624E-02;3; -1.3718198E-02;  0.0000000E+00;  3.8278433E-03;0; -1.1579686E-04;  1.0000001E+04;  0.0000000E+00;  3.8889885E-12;  1.0000000E+04;  0.0000000E+00;  1.0000000E+04; -1.1232615E-04;  0.0000000E+00; -3.4707095E-06;  5.7231672E-03;
  1.9999998E-02;  9.9999998E-03;  2.8000000E-01;1089; -5.0452895E-06;  0.0000000E+00;  1.7486562E-06;  1.0000000E+03;  4.0000001E-01;  0.0000000E+00;3; -1.1301756E-02;  0.0000000E+00;  3.9413143E-03;0; -9.7682918E-05;  1.0000000E+04;  0.0000000E+00;  2.4543863E-12;  1.0000000E+04;  0.0000000E+00;  1.0000000E+04; -8.9904839E-05;  0.0000000E+00; -7.7780778E-06;  1.7029725E-02;
  2.0000000E-02;  9.9999998E-03;  3.0000001E-01;1090; -3.7249245E-06;  0.0000000E+00;  1.7889688E-06;  1.0000000E+03;  4.0000001E-01;  0.0000000E+00;3; -8.4373262E-03;  0.0000000E+00;  4.0858313E-03;0; -7.7219665E-05;  1.0000000E+04;  0.0000000E+00; -3.6459672E-12;  1.0000000E+04;  0.0000000E+00;  1.0000000E+04; -6.6286950E-05;  0.0000000E+00; -1.0932714E-05;  2.5613660E-02;
  3.9999995E-02;  9.9999998E-03;  1.6000000E-01;1114; -1.3970728E-05;  0.0000000E+00;  1.2898892E-06;  1.0000001E+03;  4.0000001E-01;  9.8762624E-02;3; -2.9569782E-02;  0.0000000E+00;  2.7735247E-03;0; -2.2993384E-04;  1.0000002E+04;  0.0000000E+00; -3.7187506E-12;  1.0000000E+04;  0.0000000E+00;  1.0000000E+04; -2.3874640E-04;  0.0000000E+00;  8.8125635E-06;  2.8533749E-02;
  3.9999995E-02;  9.9999998E-03;  1.8000001E-01;1115; -1.3451046E-05;  0.0000000E+00;  1.5284453E-06;  1.0000001E+03;  4.0000001E-01;  9.8762624E-02;3; -2.8527930E-02;  0.0000000E+00;  3.2847582E-03;0; -2.2107438E-04;  1.0000002E+04;  0.0000000E+00; -1.8599816E-12;  1.0000000E+04;  0.0000000E+00;  1.0000000E+04; -2.2999490E-04;  0.0000000E+00;  8.9205123E-06;  2.8723612E-02;
  3.9999995E-02;  9.9999998E-03;  2.0000000E-01;1116; -1.2775590E-05;  0.0000000E+00;  1.7785574E-06;  1.0000001E+03;  4.0000001E-01;  9.8762624E-02;3; -2.7158171E-02;  0.0000000E+00;  3.8221353E-03;0; -2.1024249E-04;  1.0000002E+04;  0.0000000E+00;  1.8767125E-12;  1.0000000E+04;  0.0000000E+00;  1.0000000E+04; -2.1833046E-04;  0.0000000E+00;  8.0879618E-06;  2.6439199E-02;
  3.9999995E-02;  9.9999998E-03;  2.2000000E-01;1117; -1.1901216E-05;  0.0000000E+00;  2.0285456E-06;  1.0000001E+03;  4.0000001E-01;  9.8762624E-02;3; -2.5379691E-02;  0.0000000E+00;  4.3654339E-03;0; -1.9705023E-04;  1.0000002E+04;  0.0000000E+00;  2.4127002E-12;  1.0000000E+04;  0.0000000E+00;  1.0000000E+04; -2.0270713E-04;  0.0000000E+00;  5.6568997E-06;  1.9929055E-02;
  3.9999995E-02;  9.9999998E-03;  2.3999999E-01;1118; -1.0792547E-05;  0.0000000E+00;  2.2351696E-06;  1.0000001E+03;  4.0000001E-01;  9.8762624E-02;3; -2.3130819E-02;  0.0000000E+00;  4.8201811E-03;0; -1.8081858E-04;  1.0000001E+04;  0.0000000E+00;  5.3017738E-12;  1.0000000E+04;  0.0000000E+00;  1.0000000E+04; -1.8207513E-04;  0.0000000E+00;  1.2565606E-06;  8.1435023E-03;
  3.9999995E-02;  9.9999998E-03;  2.5999999E-01;1119; -9.3916697E-06;  0.0000000E+00;  2.3946261E-06;  1.0000001E+03;  4.0000001E-01;  9.8762624E-02;3; -2.0281568E-02;  0.0000000E+00;  5.1868367E-03;0; -1.6073791E-04;  1.0000001E+04;  0.0000000E+00;  5.2317664E-12;  1.0000000E+04;  0.0000000E+00;  1.0000000E+04; -1.5595862E-04;  0.0000000E+00; -4.7792846E-06;  8.1129894E-03;
  3.9999999E-02;  9.9999998E-03;  2.8000000E-01;1120; -7.6859487E-06;  0.0000000E+00;  2.4714482E-06;  1.0000001E+03;  4.0000001E-01;  9.8762624E-02;3; -1.6782392E-02;  0.0000000E+00;  5.3836573E-03;0; -1.3638733E-04;  1.0000001E+04;  0.0000000E+00;  8.8086461E-13;  1.0000000E+04;  0.0000000E+00;  1.0000000E+04; -1.2521351E-04;  0.0000000E+00; -1.1173816E-05;  2.5516132E-02;
  3.9999999E-02;  9.9999998E-03;  3.0000001E-01;1121; -5.6977547E-06;  0.0000000E+00;  2.4691701E-06;  1.0000000E+03;  4.0000001E-01;  0.0000000E+00;3; -1.2608683E-02;  0.0000000E+00;  5.4492685E-03;0; -1.0858348E-04;  1.0000001E+04;  0.0000000E+00; -2.9910117E-12;  1.0000000E+04;  0.0000000E+00;  1.0000000E+04; -9.2551185E-05;  0.0000000E+00; -1.6032292E-05;  3.9120596E-02;
  5.9999995E-02;  9.9999998E-03;  1.6000000E-01;1145; -2.0382082E-05;  0.0000000E+00;  1.7621600E-06;  1.0000001E+03;  4.0000001E-01;  9.8762624E-02;3; -4.1944444E-02;  0.0000000E+00;  3.6470729E-03;0; -3.1290605E-04;  1.0000003E+04;  0.0000000E+00; -1.2335833E-12;  1.0000000E+04;  0.0000000E+00;  1.0000000E+04; -3.2548429E-04;  0.0000000E+00;  1.2578252E-05;  4.2068586E-02;
  5.9999995E-02;  9.9999998E-03;  1.8000001E-01;1146; -1.9666299E-05;  0.0000000E+00;  2.0912164E-06;  1.0000001E+03;  4.0000001E-01;  9.8762624E-02;3; -4.0561438E-02;  0.0000000E+00;  4.3328889E-03;0; -3.0159624E-04;  1.0000003E+04;  0.0000000E+00; -1.7675160E-12;  1.0000000E+04;  0.0000000E+00;  1.0000000E+04; -3.1439846E-04;  0.0000000E+00;  1.2802220E-05;  4.2615775E-02;
  5.9999995E-02;  9.9999998E-03;  2.0000000E-01;1147; -1.8726165E-05;  0.0000000E+00;  2.4375886E-06;  1.0000001E+03;  4.0000001E-01;  9.8762624E-02;3; -3.8718753E-02;  0.0000000E+00;  5.0535901E-03;0; -2.8767917E-04;  1.0000003E+04;  0.0000000E+00;  1.2397834E-13;  1.0000000E+04;  0.0000000E+00;  1.0000000E+04; -2.9939425E-04;  0.0000000E+00;  1.1715075E-05;  3.9561000E-02;
  5.9999995E-02;  9.9999998E-03;  2.2000000E-01;1148; -1.7494449E-05;  0.0000000E+00;  2.7853982E-06;  1.0000001E+03;  4.0000001E-01;  9.8762624E-02;3; -3.6296003E-02;  0.0000000E+00;  5.7823434E-03;0; -2.7059123E-04;  1.0000003E+04;  0.0000000E+00;  5.1387375E-12;  1.0000000E+04;  0.0000000E+00;  1.0000000E+04; -2.7895221E-04;  0.0000000E+00;  8.3609830E-06;  3.0236769E-02;
  5.9999995E-02;  9.9999998E-03;  2.3999999E-01;1149; -1.5914338E-05;  0.0000000E+00;  3.0757467E-06;  1.0000001E+03;  4.0000001E-01;  9.8762624E-02;3; -3.3198554E-02;  0.0000000E+00;  6.3969865E-03;0; -2.4931680E-04;  1.0000002E+04;  0.0000000E+00;  3.3207475E-12;  1.0000000E+04;  0.0000000E+00;  1.0000000E+04; -2.5149179E-04;  0.0000000E+00;  2.1749952E-06;  1.2979576E-02;
  5.9999995E-02;  9.9999998E-03;  2.5999999E-01;1150; -1.3896683E-05;  0.0000000E+00;  3.3071005E-06;  1.0000001E+03;  4.0000001E-01;  9.8762624E-02;3; -2.9234551E-02;  0.0000000E+00;  6.9105667E-03;0; -2.2260944E-04;  1.0000002E+04;  0.0000000E+00;  1.1512716E-12;  1.0000000E+04;  0.0000000E+00;  1.0000000E+04; -2.1619344E-04;  0.0000000E+00; -6.4160049E-06;  1.1137217E-02;
  5.9999995E-02;  9.9999998E-03;  2.8000000E-01;1151; -1.1422685E-05;  0.0000000E+00;  3.4137381E-06;  1.0000001E+03;  4.0000001E-01;  9.8762624E-02;3; -2.4331164E-02;  0.0000000E+00;  7.1757385E-03;0; -1.8975267E-04;  1.0000001E+04;  0.0000000E+00; -2.1719613E-09;  1.0000000E+04;  0.0000000E+00;  1.0000000E+04; -1.7412074E-04;  0.0000000E+00; -1.5631935E-05;  3.7256204E-02;
  5.9999999E-02;  9.9999998E-03;  3.0000001E-01;1152; -8.4931116E-06;  0.0000000E+00;  3.4042812E-06;  1.0000001E+03;  4.0000001E-01;  9.8762624E-02;3; -1.8364506E-02;  0.0000000E+00;  7.2625279E-03;0; -1.5180648E-04;  1.0000001E+04;  0.0000000E+00; -8.1075280E-09;  1.0000000E+04;  0.0000000E+00;  1.0000000E+04; -1.2903713E-04;  0.0000000E+00; -2.2769354E-05;  5.7991486E-02;
  7.9999991E-02;  9.9999998E-03;  1.6000000E-01;1176; -2.9067303E-05;  0.0000000E+00;  2.3796647E-06;  1.0000002E+03;  4.0000001E-01;  1.9752525E-01;3; -5.8211148E-02;  0.0000000E+00;  4.7451220E-03;0; -4.2683366E-04;  1.0000004E+04;  0.0000000E+00; -2.8410583E-12;  1.0000000E+04;  0.0000000E+00;  1.0000000E+04; -4.4449756E-04;  0.0000000E+00;  1.7663895E-05;  6.1312914E-02;
  7.9999991E-02;  9.9999998E-03;  1.8000001E-01;1177; -2.8111426E-05;  0.0000000E+00;  2.8284305E-06;  1.0000002E+03;  4.0000001E-01;  1.9752525E-01;3; -5.6432761E-02;  0.0000000E+00;  5.6535648E-03;0; -4.1244589E-04;  1.0000003E+04;  0.0000000E+00; -5.4055462E-12;  1.0000000E+04;  0.0000000E+00;  1.0000000E+04; -4.3052851E-04;  0.0000000E+00;  1.8082617E-05;  6.2505670E-02;
  7.9999991E-02;  9.9999998E-03;  2.0000000E-01;1178; -2.6842650E-05;  0.0000000E+00;  3.3035130E-06;  1.0000002E+03;  4.0000001E-01;  1.9752525E-01;3; -5.4032419E-02;  0.0000000E+00;  6.6102929E-03;0; -3.9460487E-04;  1.0000003E+04;  0.0000000E+00; -1.7535699E-12;  1.0000000E+04;  0.0000000E+00;  1.0000000E+04; -4.1130488E-04;  0.0000000E+00;  1.6700014E-05;  5.8521833E-02;
  7.9999991E-02;  9.9999998E-03;  2.2000000E-01;1179; -2.5160069E-05;  0.0000000E+00;  3.7826571E-06;  1.0000002E+03;  4.0000001E-01;  1.9752525E-01;3; -5.0835200E-02;  0.0000000E+00;  7.5777872E-03;0; -3.7248083E-04;  1.0000003E+04;  0.0000000E+00;  4.3071861E-12;  1.0000000E+04;  0.0000000E+00;  1.0000000E+04; -3.8463049E-04;  0.0000000E+00;  1.2149653E-05;  4.5362361E-02;
  7.9999991E-02;  9.9999998E-03;  2.3999999E-01;1180; -2.2974540E-05;  0.0000000E+00;  4.1853327E-06;  1.0000001E+03;  4.0000001E-01;  9.8762624E-02;3; -4.6696965E-02;  0.0000000E+00;  8.3968276E-03;0; -3.4457416E-04;  1.0000003E+04;  0.0000000E+00; -2.4636320E-08;  1.0000000E+04;  0.0000000E+00;  1.0000000E+04; -3.4816237E-04;  0.0000000E+00;  3.5882231E-06;  2.0441331E-02;
  7.9999991E-02;  9.9999998E-03;  2.5999999E-01;1181; -2.0146063E-05;  0.0000000E+00;  4.5172542E-06;  1.0000001E+03;  4.0000001E-01;  9.8762624E-02;3; -4.1327026E-02;  0.0000000E+00;  9.1081299E-03;0; -3.0911833E-04;  1.0000003E+04;  0.0000000E+00; -2.1332849E-07;  1.0000000E+04;  0.0000000E+00;  1.0000000E+04; -3.0066486E-04;  0.0000000E+00; -8.4534822E-06;  1.4870100E-02;
  7.9999998E-02;  9.9999998E-03;  2.8000000E-01;1182; -1.6631793E-05;  0.0000000E+00;  4.6856385E-06;  1.0000001E+03;  4.0000001E-01;  9.8762624E-02;3; -3.4584139E-02;  0.0000000E+00;  9.5152976E-03;0; -2.6496404E-04;  1.0000002E+04;  0.0000000E+00; -5.8624926E-07;  1.0000000E+04;  0.0000000E+00;  1.0000000E+04; -2.4344455E-04;  0.0000000E+00; -2.1519496E-05;  5.3528633E-02;
  7.9999998E-02;  9.9999998E-03;  3.0000001E-01;1183; -1.2409297E-05;  0.0000000E+00;  4.7074177E-06;  1.0000001E+03;  4.0000001E-01;  9.8762624E-02;3; -2.6227605E-02;  0.0000000E+00;  9.7254766E-03;0; -2.1329132E-04;  1.0000001E+04;  0.0000000E+00; -1.0130555E-06;  1.0000000E+04;  0.0000000E+00;  1.0000000E+04; -1.8151395E-04;  0.0000000E+00; -3.1777367E-05;  8.4591039E-02;
  9.9999987E-02;  9.9999998E-03;  1.6000000E-01;1207; -4.0810624E-05;  0.0000000E+00;  3.1933382E-06;  1.0000003E+03;  4.0000001E-01;  2.9628786E-01;3; -7.9577498E-02;  0.0000000E+00;  6.1449669E-03;0; -5.8271224E-04;  1.0000006E+04;  0.0000000E+00; -1.1341065E-11;  1.0000000E+04;  0.0000000E+00;  1.0000000E+04; -6.0735189E-04;  0.0000000E+00;  2.4639679E-05;  8.8843063E-02;
  9.9999987E-02;  9.9999998E-03;  1.8000001E-01;1208; -3.9563496E-05;  0.0000000E+00;  3.8000537E-06;  1.0000002E+03;  4.0000001E-01;  1.9752525E-01;3; -7.7348091E-02;  0.0000000E+00;  7.3341583E-03;0; -5.6449999E-04;  1.0000006E+04;  0.0000000E+00; -5.8695917E-12;  1.0000000E+04;  0.0000000E+00;  1.0000000E+04; -5.8989011E-04;  0.0000000E+00;  2.5390100E-05;  9.1195554E-02;
  9.9999987E-02;  9.9999998E-03;  2.0000000E-01;1209; -3.7890080E-05;  0.0000000E+00;  4.4446506E-06;  1.0000002E+03;  4.0000001E-01;  1.9752525E-01;3; -7.4300274E-02;  0.0000000E+00;  8.5877925E-03;0; -5.4173102E-04;  1.0000006E+04;  0.0000000E+00; -8.1659948E-12;  1.0000000E+04;  0.0000000E+00;  1.0000000E+04; -5.6542287E-04;  0.0000000E+00;  2.3691831E-05;  8.6197868E-02;
  9.9999987E-02;  9.9999998E-03;  2.2000000E-01;1210; -3.5643825E-05;  0.0000000E+00;  5.0957956E-06;  1.0000002E+03;  4.0000001E-01;  1.9752525E-01;3; -7.0185453E-02;  0.0000000E+00;  9.8546026E-03;0; -5.1328441E-04;  1.0000005E+04;  0.0000000E+00; -1.2415663E-07;  1.0000000E+04;  0.0000000E+00;  1.0000000E+04; -5.3090416E-04;  0.0000000E+00;  1.7619728E-05;  6.7944720E-02;
  9.9999987E-02;  9.9999998E-03;  2.3999999E-01;1211; -3.2685530E-05;  0.0000000E+00;  5.6502172E-06;  1.0000002E+03;  4.0000001E-01;  1.9752525E-01;3; -6.4780571E-02;  0.0000000E+00;  1.0938986E-02;0; -4.7740067E-04;  1.0000005E+04;  0.0000000E+00; -1.0050288E-06;  1.0000000E+04;  0.0000000E+00;  1.0000000E+04; -4.8331567E-04;  0.0000000E+00;  5.9149897E-06;  3.2621093E-02;
  9.9999994E-02;  9.9999998E-03;  2.5999999E-01;1212; -2.8799477E-05;  0.0000000E+00;  6.1273190E-06;  1.0000002E+03;  4.0000001E-01;  1.9752525E-01;3; -5.7652589E-02;  0.0000000E+00;  1.1926098E-02;0; -4.3173661E-04;  1.0000004E+04;  0.0000000E+00; -3.3827082E-06;  1.0000000E+04;  0.0000000E+00;  1.0000000E+04; -4.2091031E-04;  0.0000000E+00; -1.0826308E-05;  2.2447225E-02;
  9.9999994E-02;  9.9999998E-03;  2.8000000E-01;1213; -2.3897566E-05;  0.0000000E+00;  6.4074429E-06;  1.0000002E+03;  4.0000001E-01;  1.9752525E-01;3; -4.8542667E-02;  0.0000000E+00;  1.2579847E-02;0; -3.7411443E-04;  1.0000003E+04;  0.0000000E+00; -6.9546454E-06;  1.0000000E+04;  0.0000000E+00;  1.0000000E+04; -3.4485510E-04;  0.0000000E+00; -2.9259332E-05;  7.9701893E-02;
  9.9999994E-02;  9.9999998E-03;  3.0000001E-01;1214; -1.7914084E-05;  0.0000000E+00;  6.5241156E-06;  1.0000001E+03;  4.0000001E-01;  9.8762624E-02;3; -3.7021317E-02;  0.0000000E+00;  1.3087085E-02;0; -3.0505011E-04;  1.0000002E+04;  0.0000000E+00; -1.0595363E-05;  1.0000000E+04;  0.0000000E+00;  1.0000000E+04; -2.6110455E-04;  0.0000000E+00; -4.3945558E-05;  1.2773889E-01;
  1.1999998E-01;  9.9999998E-03;  1.6000000E-01;1238; -5.6701985E-05;  0.0000000E+00;  4.2689971E-06;  1.0000004E+03;  4.0000001E-01;  2.9628786E-01;3; -1.0766969E-01;  0.0000000E+00;  7.9414127E-03;0; -7.9389202E-04;  1.0000007E+04;  0.0000000E+00;  4.0651085E-12;  1.0000000E+04;  0.0000000E+00;  1.0000000E+04; -8.2823320E-04;  0.0000000E+00;  3.4341185E-05;  1.2839584E-01;
  1.1999998E-01;  9.9999998E-03;  1.8000001E-01;1239; -5.5102682E-05;  0.0000000E+00;  5.0863432E-06;  1.0000004E+03;  4.0000001E-01;  2.9628786E-01;3; -1.0493147E-01;  0.0000000E+00;  9.4869127E-03;0; -7.7098462E-04;  1.0000007E+04;  0.0000000E+00; -1.4101521E-11;  1.0000000E+04;  0.0000000E+00;  1.0000000E+04; -8.0670085E-04;  0.0000000E+00;  3.5716203E-05;  1.3297911E-01;
  1.1999998E-01;  9.9999998E-03;  2.0000000E-01;1240; -5.2928870E-05;  0.0000000E+00;  5.9556432E-06;  1.0000004E+03;  4.0000001E-01;  2.9628786E-01;3; -1.0112936E-01;  0.0000000E+00;  1.1115536E-02;0; -7.4221217E-04;  1.0000007E+04;  0.0000000E+00; -1.3661872E-07;  1.0000000E+04;  0.0000000E+00;  1.0000000E+04; -7.7605166E-04;  0.0000000E+00;  3.3839508E-05;  1.2739789E-01;
  1.1999998E-01;  9.9999998E-03;  2.2000000E-01;1241; -4.9975191E-05;  0.0000000E+00;  6.8357422E-06;  1.0000004E+03;  4.0000001E-01;  2.9628786E-01;3; -9.5924109E-02;  0.0000000E+00;  1.2762626E-02;0; -7.0674758E-04;  1.0000007E+04;  0.0000000E+00; -1.6767377E-06;  1.0000000E+04;  0.0000000E+00;  1.0000000E+04; -7.3275669E-04;  0.0000000E+00;  2.6009115E-05;  1.0316582E-01;
  1.1999998E-01;  9.9999998E-03;  2.4000001E-01;1242; -4.6032157E-05;  0.0000000E+00;  7.6023507E-06;  1.0000003E+03;  4.0000001E-01;  2.9628786E-01;3; -8.8982254E-02;  0.0000000E+00;  1.4206594E-02;0; -6.6314515E-04;  1.0000007E+04;  0.0000000E+00; -7.5196303E-06;  1.0000000E+04;  0.0000000E+00;  1.0000000E+04; -6.7338068E-04;  0.0000000E+00;  1.0235515E-05;  6.0036611E-02;
  1.1999998E-01;  9.9999998E-03;  2.5999999E-01;1243; -4.0783070E-05;  0.0000000E+00;  8.2882943E-06;  1.0000003E+03;  4.0000001E-01;  2.9628786E-01;3; -7.9691261E-02;  0.0000000E+00;  1.5578961E-02;0; -6.0831942E-04;  1.0000006E+04;  0.0000000E+00; -2.0013322E-05;  1.0000000E+04;  0.0000000E+00;  1.0000000E+04; -5.9532415E-04;  0.0000000E+00; -1.2995271E-05;  7.6766722E-02;
  1.1999999E-01;  9.9999998E-03;  2.8000000E-01;1244; -3.4052358E-05;  0.0000000E+00;  8.7666085E-06;  1.0000002E+03;  4.0000001E-01;  1.9752525E-01;3; -6.7586116E-02;  0.0000000E+00;  1.6654927E-02;0; -5.3779519E-04;  1.0000005E+04;  0.0000000E+00; -3.7674883E-05;  1.0000000E+04;  0.0000000E+00;  1.0000000E+04; -4.9863406E-04;  0.0000000E+00; -3.9161125E-05;  1.7359784E-01;
  1.1999999E-01;  9.9999998E-03;  3.0000001E-01;1245; -2.5713078E-05;  0.0000000E+00;  9.0513613E-06;  1.0000002E+03;  4.0000001E-01;  1.9752525E-01;3; -5.1985338E-02;  0.0000000E+00;  1.7636145E-02;0; -4.4870598E-04;  1.0000003E+04;  0.0000000E+00; -5.2970718E-05;  1.0000000E+04;  0.0000000E+00;  1.0000000E+04; -3.8824836E-04;  0.0000000E+00; -6.0457623E-05;  2.6083764E-01;
  1.3999997E-01;  9.9999998E-03;  1.6000000E-01;1269; -7.8186225E-05;  0.0000000E+00;  5.6931717E-06;  1.0000005E+03;  4.0000001E-01;  4.9381313E-01;3; -1.4451186E-01;  0.0000000E+00;  1.0253500E-02;0; -1.0768983E-03;  1.0000012E+04;  0.0000000E+00;  6.1866753E-12;  1.0000000E+04;  0.0000000E+00;  1.0000000E+04; -1.1249187E-03;  0.0000000E+00;  4.8020363E-05;  1.8550514E-01;
  1.3999997E-01;  9.9999998E-03;  1.8000001E-01;1270; -7.6164135E-05;  0.0000000E+00;  6.8021741E-06;  1.0000005E+03;  4.0000001E-01;  3.9505050E-01;3; -1.4121377E-01;  0.0000000E+00;  1.2272787E-02;0; -1.0482398E-03;  1.0000012E+04;  0.0000000E+00; -3.3464641E-08;  1.0000000E+04;  0.0000000E+00;  1.0000000E+04; -1.0989462E-03;  0.0000000E+00;  5.0706411E-05;  1.9473752E-01;
  1.3999997E-01;  9.9999998E-03;  2.0000000E-01;1271; -7.3373143E-05;  0.0000000E+00;  7.9872834E-06;  1.0000004E+03;  4.0000001E-01;  3.9505050E-01;3; -1.3654388E-01;  0.0000000E+00;  1.4411607E-02;0; -1.0126489E-03;  1.0000011E+04;  0.0000000E+00; -1.2415888E-06;  1.0000000E+04;  0.0000000E+00;  1.0000000E+04; -1.0619296E-03;  0.0000000E+00;  4.9280683E-05;  1.9066994E-01;
  1.3999997E-01;  9.9999998E-03;  2.2000000E-01;1272; -6.9536713E-05;  0.0000000E+00;  9.1806914E-06;  1.0000004E+03;  4.0000001E-01;  3.9505050E-01;3; -1.3006254E-01;  0.0000000E+00;  1.6561138E-02;0; -9.7073108E-04;  1.0000010E+04;  0.0000000E+00; -8.4414623E-06;  1.0000000E+04;  0.0000000E+00;  1.0000000E+04; -1.0105618E-03;  0.0000000E+00;  3.9830742E-05;  1.6324630E-01;
  1.3999997E-01;  9.9999998E-03;  2.4000001E-01;1273; -6.4354892E-05;  0.0000000E+00;  1.0243362E-05;  1.0000004E+03;  4.0000001E-01;  3.9505050E-01;3; -1.2130646E-01;  0.0000000E+00;  1.8492850E-02;0; -9.2247711E-04;  1.0000009E+04;  0.0000000E+00; -3.0518888E-05;  1.0000000E+04;  0.0000000E+00;  1.0000000E+04; -9.4145339E-04;  0.0000000E+00;  1.8976274E-05;  1.4714505E-01;
  1.3999999E-01;  9.9999998E-03;  2.5999999E-01;1274; -5.7389832E-05;  0.0000000E+00;  1.1218115E-05;  1.0000004E+03;  4.0000001E-01;  3.9505050E-01;3; -1.0947576E-01;  0.0000000E+00;  2.0368712E-02;0; -8.6432317E-04;  1.0000008E+04;  0.0000000E+00; -7.4579773E-05;  1.0000000E+04;  0.0000000E+00;  1.0000000E+04; -8.5097726E-04;  0.0000000E+00; -1.3345883E-05;  2.8002745E-01;
  1.3999999E-01;  9.9999998E-03;  2.8000000E-01;1275; -4.8303067E-05;  0.0000000E+00;  1.2011335E-05;  1.0000004E+03;  4.0000001E-01;  2.9628786E-01;3; -9.3715951E-02;  0.0000000E+00;  2.2096429E-02;0; -7.8732375E-04;  1.0000007E+04;  0.0000000E+00; -1.3526094E-04;  1.0000000E+04;  0.0000000E+00;  1.0000000E+04; -7.3623820E-04;  0.0000000E+00; -5.1085524E-05;  5.2384406E-01;
  1.3999999E-01;  9.9999998E-03;  3.0000001E-01;1276; -3.6818987E-05;  0.0000000E+00;  1.2623526E-05;  1.0000004E+03;  4.0000001E-01;  2.9628786E-01;3; -7.2866097E-02;  0.0000000E+00;  2.3904275E-02;0; -6.7962037E-04;  1.0000006E+04;  0.0000000E+00; -1.8480796E-04;  1.0000000E+04;  0.0000000E+00;  1.0000000E+04; -5.9688016E-04;  0.0000000E+00; -8.2740233E-05;  7.3003763E-01;
  1.5999997E-01;  9.9999998E-03;  1.6000000E-01;1300; -1.0712807E-04;  0.0000000E+00;  7.5845851E-06;  1.0000008E+03;  4.0000001E-01;  6.9133836E-01;3; -1.9258481E-01;  0.0000000E+00;  1.3238453E-02;0; -1.4525376E-03;  1.0000016E+04;  0.0000000E+00;  1.7068957E-12;  1.0000000E+04;  0.0000000E+00;  1.0000000E+04; -1.5201158E-03;  0.0000000E+00;  6.7578185E-05;  2.6846719E-01;
  1.5999997E-01;  9.9999998E-03;  1.8000001E-01;1301; -1.0460974E-04;  0.0000000E+00;  9.1043730E-06;  1.0000007E+03;  4.0000001E-01;  5.9257573E-01;3; -1.8870719E-01;  0.0000000E+00;  1.5906647E-02;0; -1.4168593E-03;  1.0000015E+04;  0.0000000E+00; -3.3908086E-07;  1.0000000E+04;  0.0000000E+00;  1.0000000E+04; -1.4899267E-03;  0.0000000E+00;  7.3067335E-05;  2.8753513E-01;
  1.5999997E-01;  9.9999998E-03;  2.0000000E-01;1302; -1.0107490E-04;  0.0000000E+00;  1.0742472E-05;  1.0000007E+03;  4.0000001E-01;  5.9257573E-01;3; -1.8308662E-01;  0.0000000E+00;  1.8761484E-02;0; -1.3737426E-03;  1.0000015E+04;  0.0000000E+00; -4.8949814E-06;  1.0000000E+04;  0.0000000E+00;  1.0000000E+04; -1.4474645E-03;  0.0000000E+00;  7.3721851E-05;  2.9090136E-01;
  1.5999997E-01;  9.9999998E-03;  2.2000000E-01;1303; -9.6142729E-05;  0.0000000E+00;  1.2405307E-05;  1.0000007E+03;  4.0000001E-01;  5.9257573E-01;3; -1.7514446E-01;  0.0000000E+00;  2.1651238E-02;0; -1.3268343E-03;  1.0000015E+04;  0.0000000E+00; -2.6201395E-05;  1.0000000E+04;  0.0000000E+00;  1.0000000E+04; -1.3904930E-03;  0.0000000E+00;  6.3658736E-05;  2.7566549E-01;
  1.5999997E-01;  9.9999998E-03;  2.4000001E-01;1304; -8.9411245E-05;  0.0000000E+00;  1.3887242E-05;  1.0000007E+03;  4.0000001E-01;  5.9257573E-01;3; -1.6430013E-01;  0.0000000E+00;  2.4236001E-02;0; -1.2796861E-03;  1.0000014E+04;  0.0000000E+00; -8.6394240E-05;  1.0000000E+04;  0.0000000E+00;  1.0000000E+04; -1.3165984E-03;  0.0000000E+00;  3.6912272E-05;  3.6991686E-01;
  1.5999997E-01;  9.9999998E-03;  2.6000002E-01;1305; -8.0289356E-05;  0.0000000E+00;  1.5251664E-05;  1.0000006E+03;  4.0000001E-01;  4.9381313E-01;3; -1.4948103E-01;  0.0000000E+00;  2.6773207E-02;0; -1.2299537E-03;  1.0000014E+04;  0.0000000E+00; -2.0531144E-04;  1.0000000E+04;  0.0000000E+00;  1.0000000E+04; -1.2218015E-03;  0.0000000E+00; -8.1522157E-06;  7.8158504E-01;
  1.5999998E-01;  9.9999998E-03;  2.8000000E-01;1306; -6.8205321E-05;  0.0000000E+00;  1.6523254E-05;  1.0000006E+03;  4.0000001E-01;  4.9381313E-01;3; -1.2932827E-01;  0.0000000E+00;  2.9478423E-02;0; -1.1623146E-03;  1.0000012E+04;  0.0000000E+00; -3.7102046E-04;  1.0000000E+04;  0.0000000E+00;  1.0000000E+04; -1.0986165E-03;  0.0000000E+00; -6.3698011E-05;  1.4165070E+00;
  1.5999998E-01;  9.9999998E-03;  3.0000001E-01;1307; -5.2731470E-05;  0.0000000E+00;  1.7569295E-05;  1.0000005E+03;  4.0000001E-01;  3.9505050E-01;3; -1.0205878E-01;  0.0000000E+00;  3.2445941E-02;0; -1.0471861E-03;  1.0000010E+04;  0.0000000E+00; -5.0935213E-04;  1.0000000E+04;  0.0000000E+00;  1.0000001E+04; -9.3480368E-04;  0.0000000E+00; -1.1238235E-04;  1.9520004E+00;
  1.7999995E-01;  9.9999998E-03;  1.6000001E-01;1331; -1.4593455E-04;  0.0000000E+00;  1.0088017E-05;  1.0000010E+03;  4.0000001E-01;  7.9010099E-01;3; -2.5499505E-01;  0.0000000E+00;  1.7075140E-02;0; -1.9471961E-03;  1.0000021E+04;  0.0000000E+00; -4.7292366E-09;  1.0000000E+04;  0.0000000E+00;  9.9999990E+03; -2.0429788E-03;  0.0000000E+00;  9.5782634E-05;  3.8938487E-01;
  1.7999995E-01;  9.9999998E-03;  1.8000001E-01;1332; -1.4284538E-04;  0.0000000E+00;  1.2202016E-05;  1.0000010E+03;  4.0000001E-01;  7.9010099E-01;3; -2.5055593E-01;  0.0000000E+00;  2.0671226E-02;0; -1.9027200E-03;  1.0000021E+04;  0.0000000E+00; -1.1575866E-06;  1.0000000E+04;  0.0000000E+00;  9.9999990E+03; -2.0095992E-03;  0.0000000E+00;  1.0687928E-04;  4.2813003E-01;
  1.7999995E-01;  9.9999998E-03;  2.0000000E-01;1333; -1.3844225E-04;  0.0000000E+00;  1.4476332E-05;  1.0000010E+03;  4.0000001E-01;  7.9010099E-01;3; -2.4395801E-01;  0.0000000E+00;  2.4513606E-02;0; -1.8505161E-03;  1.0000021E+04;  0.0000000E+00; -1.2139493E-05;  1.0000000E+04;  0.0000000E+00;  9.9999990E+03; -1.9633975E-03;  0.0000000E+00;  1.1288143E-04;  4.5149159E-01;
  1.7999995E-01;  9.9999998E-03;  2.2000001E-01;1334; -1.3219430E-04;  0.0000000E+00;  1.6804595E-05;  1.0000009E+03;  4.0000001E-01;  7.9010099E-01;3; -2.3443979E-01;  0.0000000E+00;  2.8407842E-02;0; -1.7989547E-03;  1.0000020E+04;  0.0000000E+00; -5.8552749E-05;  1.0000000E+04;  0.0000000E+00;  9.9999990E+03; -1.9038463E-03;  0.0000000E+00;  1.0489161E-04;  4.7896296E-01;
  1.7999995E-01;  9.9999998E-03;  2.4000001E-01;1335; -1.2356442E-04;  0.0000000E+00;  1.8863382E-05;  1.0000009E+03;  4.0000001E-01;  7.9010099E-01;3; -2.2121161E-01;  0.0000000E+00;  3.1903617E-02;0; -1.7582548E-03;  1.0000020E+04;  0.0000000E+00; -1.8678345E-04;  1.0000000E+04;  0.0000000E+00;  1.0000000E+04; -1.8307044E-03;  0.0000000E+00;  7.2449606E-05;  7.8798687E-01;
  1.7999996E-01;  9.9999998E-03;  2.6000002E-01;1336; -1.1176693E-04;  0.0000000E+00;  2.0777139E-05;  1.0000009E+03;  4.0000001E-01;  7.9010099E-01;3; -2.0297045E-01;  0.0000000E+00;  3.5321340E-02;0; -1.7312343E-03;  1.0000018E+04;  0.0000000E+00; -4.4447544E-04;  1.0000000E+04;  0.0000000E+00;  1.0000000E+04; -1.7413851E-03;  0.0000000E+00;  1.0150812E-05;  1.7199016E+00;
  1.7999996E-01;  9.9999998E-03;  2.8000000E-01;1337; -9.6123986E-05;  0.0000000E+00;  2.2522196E-05;  1.0000009E+03;  4.0000001E-01;  6.9133836E-01;3; -1.7796507E-01;  0.0000000E+00;  3.9048262E-02;0; -1.6973724E-03;  1.0000017E+04;  0.0000000E+00; -8.1656594E-04;  1.0000000E+04;  0.0000000E+00;  1.0000000E+04; -1.6242700E-03;  0.0000000E+00; -7.3102376E-05;  3.1464612E+00;
  1.7999998E-01;  9.9999998E-03;  3.0000001E-01;1338; -7.5599812E-05;  0.0000000E+00;  2.4274965E-05;  1.0000009E+03;  4.0000001E-01;  6.9133836E-01;3; -1.4335486E-01;  0.0000000E+00;  4.3497458E-02;0; -1.5974267E-03;  1.0000015E+04;  0.0000000E+00; -1.1451542E-03;  1.0000000E+04;  0.0000000E+00;  1.0000001E+04; -1.4475421E-03;  0.0000000E+00; -1.4988465E-04;  4.4087639E+00;
  1.9999993E-01;  9.9999998E-03;  1.6000001E-01;1362; -1.9769094E-04;  0.0000000E+00;  1.3367830E-05;  1.0000015E+03;  4.0000001E-01;  1.1851515E+00;3; -3.3555683E-01;  0.0000000E+00;  2.1949043E-02;0; -2.5939764E-03;  1.0000031E+04;  0.0000000E+00; -2.3364423E-08;  1.0000000E+04;  0.0000000E+00;  9.9999990E+03; -2.7303046E-03;  0.0000000E+00;  1.3632828E-04;  5.6487566E-01;
  1.9999993E-01;  9.9999998E-03;  1.8000001E-01;1363; -1.9397687E-04;  0.0000000E+00;  1.6322338E-05;  1.0000014E+03;  4.0000001E-01;  1.1851515E+00;3; -3.3065248E-01;  0.0000000E+00;  2.6851537E-02;0; -2.5379355E-03;  1.0000030E+04;  0.0000000E+00; -2.2980048E-06;  1.0000000E+04;  0.0000000E+00;  9.9999990E+03; -2.6955514E-03;  0.0000000E+00;  1.5761582E-04;  6.3976490E-01;
  1.9999993E-01;  9.9999998E-03;  2.0000000E-01;1364; -1.8859589E-04;  0.0000000E+00;  1.9477393E-05;  1.0000013E+03;  4.0000001E-01;  1.0863888E+00;3; -3.2313287E-01;  0.0000000E+00;  3.2024421E-02;0; -2.4728614E-03;  1.0000028E+04;  0.0000000E+00; -2.1475245E-05;  1.0000000E+04;  0.0000000E+00;  9.9999980E+03; -2.6474108E-03;  0.0000000E+00;  1.7454936E-04;  7.0379215E-01;
  1.9999993E-01;  9.9999998E-03;  2.2000001E-01;1365; -1.8080026E-04;  0.0000000E+00;  2.2746786E-05;  1.0000012E+03;  4.0000001E-01;  9.8762625E-01;3; -3.1192958E-01;  0.0000000E+00;  3.7403468E-02;0; -2.4126982E-03;  1.0000028E+04;  0.0000000E+00; -1.0008961E-04;  1.0000000E+04;  0.0000000E+00;  9.9999980E+03; -2.5868039E-03;  0.0000000E+00;  1.7410573E-04;  8.0023813E-01;
  1.9999993E-01;  9.9999998E-03;  2.4000001E-01;1366; -1.6992108E-04;  0.0000000E+00;  2.5541482E-05;  1.0000012E+03;  4.0000001E-01;  9.8762625E-01;3; -2.9615507E-01;  0.0000000E+00;  4.2043597E-02;0; -2.3772751E-03;  1.0000028E+04;  0.0000000E+00; -3.1906139E-04;  1.0000000E+04;  0.0000000E+00;  9.9999990E+03; -2.5158818E-03;  0.0000000E+00;  1.3860659E-04;  1.3799180E+00;
  1.9999994E-01;  9.9999998E-03;  2.6000002E-01;1367; -1.5483968E-04;  0.0000000E+00;  2.8248718E-05;  1.0000012E+03;  4.0000001E-01;  9.8762625E-01;3; -2.7401096E-01;  0.0000000E+00;  4.6807624E-02;0; -2.3798107E-03;  1.0000027E+04;  0.0000000E+00; -7.7204092E-04;  1.0000000E+04;  0.0000000E+00;  1.0000000E+04; -2.4345962E-03;  0.0000000E+00;  5.4785531E-05;  3.0413399E+00;
  1.9999994E-01;  9.9999998E-03;  2.8000000E-01;1368; -1.3489943E-04;  0.0000000E+00;  3.0670311E-05;  1.0000012E+03;  4.0000001E-01;  9.8762625E-01;3; -2.4399514E-01;  0.0000000E+00;  5.1545233E-02;0; -2.3987899E-03;  1.0000025E+04;  0.0000000E+00; -1.4514860E-03;  1.0000000E+04;  0.0000000E+00;  1.0000000E+04; -2.3287132E-03;  0.0000000E+00; -7.0076589E-05;  5.6721282E+00;
  1.9999996E-01;  9.9999998E-03;  3.0000001E-01;1369; -1.0826699E-04;  0.0000000E+00;  3.3383960E-05;  1.0000012E+03;  4.0000001E-01;  9.8762625E-01;3; -2.0122674E-01;  0.0000000E+00;  5.7937093E-02;0; -2.3348555E-03;  1.0000021E+04;  0.0000000E+00; -2.0769422E-03;  1.0000000E+04;  0.0000000E+00;  1.0000002E+04; -2.1425374E-03;  0.0000000E+00; -1.9231818E-04;  8.0974569E+00;
  2.1999989E-01;  9.9999998E-03;  1.6000001E-01;1393; -2.6630261E-04;  0.0000000E+00;  1.7599545E-05;  1.0000020E+03;  4.0000001E-01;  1.5802020E+00;3; -4.3889803E-01;  0.0000000E+00;  2.8025776E-02;0; -3.4340720E-03;  1.0000041E+04;  0.0000000E+00; -3.0085047E-08;  1.0000000E+04;  0.0000000E+00;  9.9999980E+03; -3.6277093E-03;  0.0000000E+00;  1.9363743E-04;  8.1614941E-01;
  2.1999989E-01;  9.9999998E-03;  1.8000001E-01;1394; -2.6195237E-04;  0.0000000E+00;  2.1711698E-05;  1.0000020E+03;  4.0000001E-01;  1.5802020E+00;3; -4.3374139E-01;  0.0000000E+00;  3.4715440E-02;0; -3.3625825E-03;  1.0000041E+04;  0.0000000E+00; -2.9925470E-06;  1.0000000E+04;  0.0000000E+00;  9.9999980E+03; -3.5943342E-03;  0.0000000E+00;  2.3175176E-04;  9.5184439E-01;
  2.1999989E-01;  9.9999998E-03;  2.0000002E-01;1395; -2.5550742E-04;  0.0000000E+00;  2.6144979E-05;  1.0000018E+03;  4.0000001E-01;  1.4814394E+00;3; -4.2544222E-01;  0.0000000E+00;  4.1834500E-02;0; -3.2780275E-03;  1.0000039E+04;  0.0000000E+00; -2.8259181E-05;  1.0000000E+04;  0.0000000E+00;  9.9999980E+03; -3.5460037E-03;  0.0000000E+00;  2.6797617E-04;  1.0857546E+00;
  2.1999989E-01;  9.9999998E-03;  2.2000001E-01;1396; -2.4598534E-04;  0.0000000E+00;  3.0861440E-05;  1.0000018E+03;  4.0000001E-01;  1.4814394E+00;3; -4.1271985E-01;  0.0000000E+00;  4.9367562E-02;0; -3.1991547E-03;  1.0000039E+04;  0.0000000E+00; -1.3363600E-04;  1.0000000E+04;  0.0000000E+00;  9.9999971E+03; -3.4835397E-03;  0.0000000E+00;  2.8438497E-04;  1.2553906E+00;
  2.1999991E-01;  9.9999998E-03;  2.4000001E-01;1397; -2.3247358E-04;  0.0000000E+00;  3.5205427E-05;  1.0000018E+03;  4.0000001E-01;  1.4814394E+00;3; -3.9439821E-01;  0.0000000E+00;  5.6380145E-02;0; -3.1557754E-03;  1.0000039E+04;  0.0000000E+00; -4.3537340E-04;  1.0000000E+04;  0.0000000E+00;  9.9999980E+03; -3.4093461E-03;  0.0000000E+00;  2.5357067E-04;  2.0184999E+00;
  2.1999991E-01;  9.9999998E-03;  2.6000002E-01;1398; -2.1340062E-04;  0.0000000E+00;  4.0156603E-05;  1.0000018E+03;  4.0000001E-01;  1.4814394E+00;3; -3.6815247E-01;  0.0000000E+00;  6.4757049E-02;0; -3.1733410E-03;  1.0000035E+04;  0.0000000E+00; -1.0814001E-03;  1.0000000E+04;  0.0000000E+00;  9.9999990E+03; -3.3236225E-03;  0.0000000E+00;  1.5028159E-04;  4.3583798E+00;
  2.1999992E-01;  9.9999998E-03;  2.8000003E-01;1399; -1.8805661E-04;  0.0000000E+00;  4.5698274E-05;  1.0000018E+03;  4.0000001E-01;  1.4814394E+00;3; -3.3223504E-01;  0.0000000E+00;  7.5141460E-02;0; -3.2285042E-03;  1.0000034E+04;  0.0000000E+00; -2.0814713E-03;  1.0000000E+04;  0.0000000E+00;  1.0000000E+04; -3.2074789E-03;  0.0000000E+00; -2.1025218E-05;  8.2621651E+00;
  2.1999994E-01;  9.9999998E-03;  3.0000001E-01;1400; -1.5273209E-04;  0.0000000E+00;  5.4049804E-05;  1.0000018E+03;  4.0000001E-01;  1.4814394E+00;3; -2.7795374E-01;  0.0000000E+00;  9.2539042E-02;0; -3.1574606E-03;  1.0000032E+04;  0.0000000E+00; -3.0270438E-03;  1.0000000E+04;  0.0000000E+00;  1.0000002E+04; -2.9769293E-03;  0.0000000E+00; -1.8053118E-04;  1.1965743E+01;
  2.3999985E-01;  9.9999998E-03;  1.6000001E-01;1424; -3.5665391E-04;  0.0000000E+00;  2.2991824E-05;  1.0000026E+03;  4.0000001E-01;  2.1727777E+00;3; -5.7052732E-01;  0.0000000E+00;  3.5501879E-02;0; -4.5186225E-03;  1.0000056E+04;  0.0000000E+00; -1.0155826E-08;  1.0000000E+04;  0.0000000E+00;  9.9999980E+03; -4.7910963E-03;  0.0000000E+00;  2.7247390E-04;  1.1686436E+00;
  2.3999986E-01;  9.9999998E-03;  1.8000001E-01;1425; -3.5174770E-04;  0.0000000E+00;  2.8704057E-05;  1.0000026E+03;  4.0000001E-01;  2.1727777E+00;3; -5.6552577E-01;  0.0000000E+00;  4.4632640E-02;0; -4.4272216E-03;  1.0000056E+04;  0.0000000E+00; -2.5530574E-06;  1.0000000E+04;  0.0000000E+00;  9.9999961E+03; -4.7633210E-03;  0.0000000E+00;  3.3609930E-04;  1.3989840E+00;
  2.3999986E-01;  9.9999998E-03;  2.0000002E-01;1426; -3.4424520E-04;  0.0000000E+00;  3.5095076E-05;  1.0000024E+03;  4.0000001E-01;  1.9752525E+00;3; -5.5680615E-01;  0.0000000E+00;  5.4822255E-02;0; -4.3149949E-03;  1.0000056E+04;  0.0000000E+00; -2.7632821E-05;  1.0000000E+04;  0.0000000E+00;  9.9999961E+03; -4.7176718E-03;  0.0000000E+00;  4.0267681E-04;  1.6432338E+00;
  2.3999986E-01;  9.9999998E-03;  2.2000001E-01;1427; -3.3296391E-04;  0.0000000E+00;  4.2225045E-05;  1.0000024E+03;  4.0000001E-01;  1.9752525E+00;3; -5.4306591E-01;  0.0000000E+00;  6.6006154E-02;0; -4.2033866E-03;  1.0000053E+04;  0.0000000E+00; -1.3924009E-04;  1.0000000E+04;  0.0000000E+00;  9.9999961E+03; -4.6526790E-03;  0.0000000E+00;  4.4929239E-04;  1.8905576E+00;
  2.3999988E-01;  9.9999998E-03;  2.4000002E-01;1428; -3.1671586E-04;  0.0000000E+00;  4.9878519E-05;  1.0000024E+03;  4.0000001E-01;  1.9752525E+00;3; -5.2280980E-01;  0.0000000E+00;  7.8481421E-02;0; -4.1292580E-03;  1.0000052E+04;  0.0000000E+00; -4.7414351E-04;  1.0000000E+04;  0.0000000E+00;  9.9999961E+03; -4.5674117E-03;  0.0000000E+00;  4.3815371E-04;  2.6027248E+00;
  2.3999988E-01;  9.9999998E-03;  2.6000002E-01;1429; -2.9344633E-04;  0.0000000E+00;  6.0380851E-05;  1.0000024E+03;  4.0000001E-01;  1.9752525E+00;3; -4.9314201E-01;  0.0000000E+00;  9.6531436E-02;0; -4.1249841E-03;  1.0000050E+04;  0.0000000E+00; -1.2211275E-03;  1.0000000E+04;  0.0000000E+00;  9.9999971E+03; -4.4579562E-03;  0.0000000E+00;  3.3297224E-04;  5.1250906E+00;
  2.3999989E-01;  9.9999998E-03;  2.8000003E-01;1430; -2.6266320E-04;  0.0000000E+00;  7.5109288E-05;  1.0000024E+03;  4.0000001E-01;  1.9752525E+00;3; -4.5293435E-01;  0.0000000E+00;  1.2344210E-01;0; -4.1510491E-03;  1.0000047E+04;  0.0000000E+00; -2.4103504E-03;  1.0000000E+04;  0.0000000E+00;  9.9999990E+03; -4.2999582E-03;  0.0000000E+00;  1.4890921E-04;  9.7456179E+00;
  2.3999991E-01;  9.9999998E-03;  3.0000004E-01;1431; -2.2047963E-04;  0.0000000E+00;  9.6623742E-05;  1.0000021E+03;  4.0000001E-01;  1.7777272E+00;3; -3.9228782E-01;  0.0000000E+00;  1.6715769E-01;0; -3.9873789E-03;  1.0000045E+04;  0.0000000E+00; -3.5381871E-03;  1.0000000E+04;  0.0000000E+00;  1.0000000E+04; -4.0015788E-03;  0.0000000E+00;  1.4199992E-05;  1.4193469E+01;
  2.5999978E-01;  9.9999998E-03;  1.6000001E-01;1455; -4.7483059E-04;  0.0000000E+00;  2.9761233E-05;  1.0000036E+03;  4.0000001E-01;  2.9628785E+00;3; -7.3693424E-01;  0.0000000E+00;  4.4546310E-02;0; -5.9107412E-03;  1.0000075E+04;  0.0000000E+00; -2.8421522E-11;  1.0000000E+04;  0.0000000E+00;  9.9999961E+03; -6.2883082E-03;  0.0000000E+00;  3.7756714E-04;  1.6518372E+00;
  2.5999981E-01;  9.9999998E-03;  1.8000002E-01;1456; -4.6961114E-04;  0.0000000E+00;  3.7693233E-05;  1.0000035E+03;  4.0000001E-01;  2.9628785E+00;3; -7.3280340E-01;  0.0000000E+00;  5.7063702E-02;0; -5.7954169E-03;  1.0000074E+04;  0.0000000E+00; -1.2614549E-06;  1.0000000E+04;  0.0000000E+00;  9.9999951E+03; -6.2726713E-03;  0.0000000E+00;  4.7725451E-04;  2.0204022E+00;
  2.5999981E-01;  9.9999998E-03;  2.0000002E-01;1457; -4.6124854E-04;  0.0000000E+00;  4.7033682E-05;  1.0000034E+03;  4.0000001E-01;  2.8641160E+00;3; -7.2443086E-01;  0.0000000E+00;  7.1866818E-02;0; -5.6482544E-03;  1.0000074E+04;  0.0000000E+00; -1.9214935E-05;  1.0000000E+04;  0.0000000E+00;  9.9999941E+03; -6.2356181E-03;  0.0000000E+00;  5.8736349E-04;  2.4295859E+00;
  2.5999981E-01;  9.9999998E-03;  2.2000003E-01;1458; -4.4836567E-04;  0.0000000E+00;  5.8144302E-05;  1.0000032E+03;  4.0000001E-01;  2.6665907E+00;3; -7.1056509E-01;  0.0000000E+00;  8.9281186E-02;0; -5.4916269E-03;  1.0000074E+04;  0.0000000E+00; -1.1065414E-04;  1.0000000E+04;  0.0000000E+00;  9.9999932E+03; -6.1720582E-03;  0.0000000E+00;  6.8043132E-04;  2.8047156E+00;
  2.5999981E-01;  9.9999998E-03;  2.4000002E-01;1459; -4.2971602E-04;  0.0000000E+00;  7.1304079E-05;  1.0000031E+03;  4.0000001E-01;  2.5678279E+00;3; -6.8998522E-01;  0.0000000E+00;  1.1051119E-01;0; -5.3657526E-03;  1.0000071E+04;  0.0000000E+00; -4.0653331E-04;  1.0000000E+04;  0.0000000E+00;  9.9999932E+03; -6.0755233E-03;  0.0000000E+00;  7.0977077E-04;  3.3088429E+00;
  2.5999984E-01;  9.9999998E-03;  2.6000005E-01;1460; -4.0293179E-04;  0.0000000E+00;  9.0666159E-05;  1.0000031E+03;  4.0000001E-01;  2.5678279E+00;3; -6.5970194E-01;  0.0000000E+00;  1.4332165E-01;0; -5.3027822E-03;  1.0000069E+04;  0.0000000E+00; -1.1041404E-03;  1.0000000E+04;  0.0000000E+00;  9.9999941E+03; -5.9354203E-03;  0.0000000E+00;  6.3263834E-04;  5.1899791E+00;
  2.5999984E-01;  9.9999998E-03;  2.8000006E-01;1461; -3.6769579E-04;  0.0000000E+00;  1.1913131E-04;  1.0000031E+03;  4.0000001E-01;  2.5678279E+00;3; -6.1886197E-01;  0.0000000E+00;  1.9431329E-01;0; -5.2365316E-03;  1.0000066E+04;  0.0000000E+00; -2.2515075E-03;  1.0000000E+04;  0.0000000E+00;  9.9999951E+03; -5.7245879E-03;  0.0000000E+00;  4.8805610E-04;  9.4242344E+00;
  2.5999987E-01;  9.9999998E-03;  3.0000007E-01;1462; -3.2014181E-04;  0.0000000E+00;  1.5526351E-04;  1.0000028E+03;  4.0000001E-01;  2.3703027E+00;3; -5.5761033E-01;  0.0000000E+00;  2.6584452E-01;0; -4.9386905E-03;  1.0000060E+04;  0.0000000E+00; -3.3451451E-03;  1.0000000E+04;  0.0000000E+00;  9.9999971E+03; -5.3613698E-03;  0.0000000E+00;  4.2267924E-04;  1.3723871E+01;
  2.7999973E-01;  9.9999998E-03;  1.6000001E-01;1486; -6.2848965E-04;  0.0000000E+00;  3.8119364E-05;  1.0000048E+03;  4.0000001E-01;  3.9505048E+00;3; -9.4572276E-01;  0.0000000E+00;  5.5208053E-02;0; -7.6876953E-03;  1.0000103E+04;  0.0000000E+00;  3.1210142E-11;  1.0000000E+04;  0.0000000E+00;  9.9999941E+03; -8.2011325E-03;  0.0000000E+00;  5.1343709E-04;  2.2999105E+00;
  2.7999973E-01;  9.9999998E-03;  1.8000002E-01;1487; -6.2343717E-04;  0.0000000E+00;  4.8962916E-05;  1.0000047E+03;  4.0000001E-01;  3.8517420E+00;3; -9.4361401E-01;  0.0000000E+00;  7.2138570E-02;0; -7.5457511E-03;  1.0000102E+04;  0.0000000E+00; -2.0902708E-07;  1.0000000E+04;  0.0000000E+00;  9.9999932E+03; -8.2073119E-03;  0.0000000E+00;  6.6156086E-04;  2.8609996E+00;
  2.7999973E-01;  9.9999998E-03;  2.0000003E-01;1488; -6.1464700E-04;  0.0000000E+00;  6.2311330E-05;  1.0000045E+03;  4.0000001E-01;  3.7529795E+00;3; -9.3679583E-01;  0.0000000E+00;  9.3088940E-02;0; -7.3590497E-03;  1.0000099E+04;  0.0000000E+00; -8.3645191E-06;  1.0000000E+04;  0.0000000E+00;  9.9999902E+03; -8.1890170E-03;  0.0000000E+00;  8.2996732E-04;  3.5030003E+00;
  2.7999973E-01;  9.9999998E-03;  2.2000003E-01;1489; -6.0051354E-04;  0.0000000E+00;  7.9197576E-05;  1.0000045E+03;  4.0000001E-01;  3.6542168E+00;3; -9.2408043E-01;  0.0000000E+00;  1.1939942E-01;0; -7.1513560E-03;  1.0000098E+04;  0.0000000E+00; -6.2985135E-05;  1.0000000E+04;  0.0000000E+00;  9.9999893E+03; -8.1379628E-03;  0.0000000E+00;  9.8660693E-04;  4.1009560E+00;
  2.7999973E-01;  9.9999998E-03;  2.4000004E-01;1490; -5.7995209E-04;  0.0000000E+00;  9.9992278E-05;  1.0000042E+03;  4.0000001E-01;  3.4566915E+00;3; -9.0518653E-01;  0.0000000E+00;  1.5274698E-01;0; -6.9663692E-03;  1.0000097E+04;  0.0000000E+00; -2.6407425E-04;  1.0000000E+04;  0.0000000E+00;  9.9999883E+03; -8.0431588E-03;  0.0000000E+00;  1.0767898E-03;  4.5346365E+00;
  2.7999976E-01;  9.9999998E-03;  2.6000005E-01;1491; -5.5021199E-04;  0.0000000E+00;  1.3081802E-04;  1.0000042E+03;  4.0000001E-01;  3.4566915E+00;3; -8.7699258E-01;  0.0000000E+00;  2.0370284E-01;0; -6.8325084E-03;  1.0000095E+04;  0.0000000E+00; -7.7921385E-04;  1.0000000E+04;  0.0000000E+00;  9.9999883E+03; -7.8884056E-03;  0.0000000E+00;  1.0558974E-03;  5.3205161E+00;
  2.7999979E-01;  9.9999998E-03;  2.8000009E-01;1492; -5.1101414E-04;  0.0000000E+00;  1.7498821E-04;  1.0000040E+03;  4.0000001E-01;  3.3579290E+00;3; -8.3890092E-01;  0.0000000E+00;  2.8147829E-01;0; -6.6658766E-03;  1.0000092E+04;  0.0000000E+00; -1.6722619E-03;  1.0000000E+04;  0.0000000E+00;  9.9999902E+03; -7.6464508E-03;  0.0000000E+00;  9.8057406E-04;  7.8958998E+00;
  2.7999979E-01;  9.9999998E-03;  3.0000010E-01;1493; -4.5771021E-04;  0.0000000E+00;  2.2778739E-04;  1.0000038E+03;  4.0000001E-01;  3.1604037E+00;3; -7.8005749E-01;  0.0000000E+00;  3.8131878E-01;0; -6.2516113E-03;  1.0000086E+04;  0.0000000E+00; -2.5543559E-03;  1.0000000E+04;  0.0000000E+00;  9.9999912E+03; -7.2518368E-03;  0.0000000E+00;  1.0002257E-03;  1.1144682E+01;
  2.9999962E-01;  9.9999998E-03;  1.6000003E-01;1517; -8.2736602E-04;  0.0000000E+00;  4.8263242E-05;  1.0000062E+03;  4.0000001E-01;  5.1356554E+00;3; -1.2058879E+00;  0.0000000E+00;  6.7489140E-02;0; -9.9431509E-03;  1.0000136E+04;  0.0000000E+00; -1.7909174E-10;  1.0000000E+04;  0.0000000E+00;  9.9999922E+03; -1.0627623E-02;  0.0000000E+00;  6.8447221E-04;  3.1536334E+00;
  2.9999962E-01;  9.9999998E-03;  1.8000002E-01;1518; -8.2328462E-04;  0.0000000E+00;  6.2878426E-05;  1.0000062E+03;  4.0000001E-01;  5.1356554E+00;3; -1.2074958E+00;  0.0000000E+00;  9.0157486E-02;0; -9.7740162E-03;  1.0000135E+04;  0.0000000E+00; -4.0567363E-10;  1.0000000E+04;  0.0000000E+00;  9.9999893E+03; -1.0669574E-02;  0.0000000E+00;  8.9555775E-04;  3.9746130E+00;
  2.9999962E-01;  9.9999998E-03;  2.0000003E-01;1519; -8.1475993E-04;  0.0000000E+00;  8.1257225E-05;  1.0000060E+03;  4.0000001E-01;  4.9381299E+00;3; -1.2038709E+00;  0.0000000E+00;  1.1833639E-01;0; -9.5456429E-03;  1.0000134E+04;  0.0000000E+00; -1.5712061E-06;  1.0000000E+04;  0.0000000E+00;  9.9999873E+03; -1.0684763E-02;  0.0000000E+00;  1.1391204E-03;  4.9313822E+00;
  2.9999962E-01;  9.9999998E-03;  2.2000004E-01;1520; -7.9983077E-04;  0.0000000E+00;  1.0551811E-04;  1.0000059E+03;  4.0000001E-01;  4.8393674E+00;3; -1.1939732E+00;  0.0000000E+00;  1.5570217E-01;0; -9.2865191E-03;  1.0000133E+04;  0.0000000E+00; -2.1954307E-05;  1.0000000E+04;  0.0000000E+00;  9.9999863E+03; -1.0662897E-02;  0.0000000E+00;  1.3763787E-03;  5.8574471E+00;
  2.9999965E-01;  9.9999998E-03;  2.4000005E-01;1521; -7.7762303E-04;  0.0000000E+00;  1.3619541E-04;  1.0000057E+03;  4.0000001E-01;  4.7406049E+00;3; -1.1785097E+00;  0.0000000E+00;  2.0432293E-01;0; -9.0480354E-03;  1.0000132E+04;  0.0000000E+00; -1.1831419E-04;  1.0000000E+04;  0.0000000E+00;  9.9999834E+03; -1.0591655E-02;  0.0000000E+00;  1.5436201E-03;  6.4793630E+00;
  2.9999965E-01;  9.9999998E-03;  2.6000008E-01;1522; -7.4474176E-04;  0.0000000E+00;  1.8076533E-04;  1.0000056E+03;  4.0000001E-01;  4.6418424E+00;3; -1.1543019E+00;  0.0000000E+00;  2.7604875E-01;0; -8.8623045E-03;  1.0000129E+04;  0.0000000E+00; -4.0010904E-04;  1.0000000E+04;  0.0000000E+00;  9.9999824E+03; -1.0454368E-02;  0.0000000E+00;  1.5920632E-03;  6.6994433E+00;
  2.9999968E-01;  9.9999998E-03;  2.8000012E-01;1523; -7.0078706E-04;  0.0000000E+00;  2.4350942E-04;  1.0000054E+03;  4.0000001E-01;  4.4443169E+00;3; -1.1206436E+00;  0.0000000E+00;  3.8149795E-01;0; -8.6244550E-03;  1.0000126E+04;  0.0000000E+00; -9.3796512E-04;  1.0000000E+04;  0.0000000E+00;  9.9999834E+03; -1.0227645E-02;  0.0000000E+00;  1.6031894E-03;  7.3238468E+00;
  2.9999971E-01;  9.9999998E-03;  3.0000013E-01;1524; -6.4031774E-04;  0.0000000E+00;  3.1361621E-04;  1.0000051E+03;  4.0000001E-01;  4.2467918E+00;3; -1.0658109E+00;  0.0000000E+00;  5.1107383E-01;0; -8.1846938E-03;  1.0000120E+04;  0.0000000E+00; -1.5093174E-03;  1.0000000E+04;  0.0000000E+00;  9.9999834E+03; -9.8656584E-03;  0.0000000E+00;  1.6809646E-03;  8.6851034E+00;
  3.1999949E-01;  9.9999998E-03;  1.6000003E-01;1548; -1.0837390E-03;  0.0000000E+00;  6.0494225E-05;  1.0000084E+03;  4.0000001E-01;  6.9133821E+00;3; -1.5280622E+00;  0.0000000E+00;  8.1346221E-02;0; -1.2789160E-02;  1.0000180E+04;  0.0000000E+00; -2.4629765E-10;  1.0000000E+04;  0.0000000E+00;  9.9999893E+03; -1.3684504E-02;  0.0000000E+00;  8.9534407E-04;  4.2643542E+00;
  3.1999949E-01;  9.9999998E-03;  1.8000004E-01;1549; -1.0818586E-03;  0.0000000E+00;  7.9537560E-05;  1.0000083E+03;  4.0000001E-01;  6.9133821E+00;3; -1.5357618E+00;  0.0000000E+00;  1.1017206E-01;0; -1.2596113E-02;  1.0000181E+04;  0.0000000E+00; -4.3263237E-10;  1.0000000E+04;  0.0000000E+00;  9.9999873E+03; -1.3782518E-02;  0.0000000E+00;  1.1864055E-03;  5.4282246E+00;
  3.1999949E-01;  9.9999998E-03;  2.0000005E-01;1550; -1.0747071E-03;  0.0000000E+00;  1.0421272E-04;  1.0000081E+03;  4.0000001E-01;  6.7158570E+00;3; -1.5378195E+00;  0.0000000E+00;  1.4764114E-01;0; -1.2326505E-02;  1.0000180E+04;  0.0000000E+00; -4.7328141E-10;  1.0000000E+04;  0.0000000E+00;  9.9999834E+03; -1.3852036E-02;  0.0000000E+00;  1.5255304E-03;  6.8023920E+00;
  3.1999952E-01;  9.9999998E-03;  2.2000006E-01;1551; -1.0596206E-03;  0.0000000E+00;  1.3777688E-04;  1.0000079E+03;  4.0000001E-01;  6.5183315E+00;3; -1.5327070E+00;  0.0000000E+00;  1.9883513E-01;0; -1.2016740E-02;  1.0000180E+04;  0.0000000E+00; -2.8336510E-06;  1.0000000E+04;  0.0000000E+00;  9.9999785E+03; -1.3880056E-02;  0.0000000E+00;  1.8633165E-03;  8.1669893E+00;
  3.1999952E-01;  9.9999998E-03;  2.4000008E-01;1552; -1.0357497E-03;  0.0000000E+00;  1.8057447E-04;  1.0000076E+03;  4.0000001E-01;  6.3208065E+00;3; -1.5223012E+00;  0.0000000E+00;  2.6441479E-01;0; -1.1732453E-02;  1.0000177E+04;  0.0000000E+00; -2.8424131E-05;  1.0000000E+04;  0.0000000E+00;  9.9999746E+03; -1.3854870E-02;  0.0000000E+00;  2.1224164E-03;  9.1518402E+00;
  3.1999955E-01;  9.9999998E-03;  2.6000011E-01;1553; -9.9862332E-04;  0.0000000E+00;  2.4161070E-04;  1.0000074E+03;  4.0000001E-01;  6.1232815E+00;3; -1.5028343E+00;  0.0000000E+00;  3.5988259E-01;0; -1.1519929E-02;  1.0000175E+04;  0.0000000E+00; -1.2644460E-04;  1.0000000E+04;  0.0000000E+00;  9.9999746E+03; -1.3764231E-02;  0.0000000E+00;  2.2443016E-03;  9.4378729E+00;
  3.1999958E-01;  9.9999998E-03;  2.8000015E-01;1554; -9.4786234E-04;  0.0000000E+00;  3.2654157E-04;  1.0000073E+03;  4.0000001E-01;  6.0245185E+00;3; -1.4741901E+00;  0.0000000E+00;  4.9744037E-01;0; -1.1258507E-02;  1.0000172E+04;  0.0000000E+00; -3.4418236E-04;  1.0000000E+04;  0.0000000E+00;  9.9999736E+03; -1.3595828E-02;  0.0000000E+00;  2.3373212E-03;  9.4418888E+00;
  3.1999961E-01;  9.9999998E-03;  3.0000019E-01;1555; -8.7665755E-04;  0.0000000E+00;  4.2099849E-04;  1.0000070E+03;  4.0000001E-01;  5.8269935E+00;3; -1.4227993E+00;  0.0000000E+00;  6.6371554E-01;0; -1.0825857E-02;  1.0000167E+04;  0.0000000E+00; -6.1228708E-04;  1.0000000E+04;  0.0000000E+00;  9.9999736E+03; -1.3328056E-02;  0.0000000E+00;  2.5021995E-03;  9.6380281E+00;
  3.3999929E-01;  9.9999998E-03;  1.6000004E-01;1579; -1.4126729E-03;  0.0000000E+00;  7.5258780E-05;  1.0000112E+03;  4.0000001E-01;  9.2836838E+00;3; -1.9246286E+00;  0.0000000E+00;  9.6638873E-02;0; -1.6357288E-02;  1.0000237E+04;  0.0000000E+00; -1.0210430E-10;  1.0000000E+04;  0.0000000E+00;  9.9999873E+03; -1.7509073E-02;  0.0000000E+00;  1.1517851E-03;  5.7011704E+00;
  3.3999932E-01;  9.9999998E-03;  1.8000005E-01;1580; -1.4148111E-03;  0.0000000E+00;  9.9447301E-05;  1.0000110E+03;  4.0000001E-01;  9.0861588E+00;3; -1.9418718E+00;  0.0000000E+00;  1.3251385E-01;0; -1.6150046E-02;  1.0000237E+04;  0.0000000E+00; -8.1369483E-10;  1.0000000E+04;  0.0000000E+00;  9.9999824E+03; -1.7691914E-02;  0.0000000E+00;  1.5418675E-03;  7.3062739E+00;
  3.3999932E-01;  9.9999998E-03;  2.0000006E-01;1581; -1.4107774E-03;  0.0000000E+00;  1.3179764E-04;  1.0000107E+03;  4.0000001E-01;  8.8886337E+00;3; -1.9530199E+00;  0.0000000E+00;  1.8089804E-01;0; -1.5845841E-02;  1.0000236E+04;  0.0000000E+00; -9.4136554E-10;  1.0000000E+04;  0.0000000E+00;  9.9999756E+03; -1.7847383E-02;  0.0000000E+00;  2.0015433E-03;  9.2274828E+00;
  3.3999932E-01;  9.9999998E-03;  2.2000009E-01;1582; -1.3967309E-03;  0.0000000E+00;  1.7657875E-04;  1.0000104E+03;  4.0000001E-01;  8.6911087E+00;3; -1.9556816E+00;  0.0000000E+00;  2.4773644E-01;0; -1.5488937E-02;  1.0000237E+04;  0.0000000E+00;  2.2267603E-09;  1.0000000E+04;  0.0000000E+00;  9.9999717E+03; -1.7954692E-02;  0.0000000E+00;  2.4657554E-03;  1.1168343E+01;
  3.3999935E-01;  9.9999998E-03;  2.4000011E-01;1583; -1.3712079E-03;  0.0000000E+00;  2.3389079E-04;  1.0000102E+03;  4.0000001E-01;  8.4935827E+00;3; -1.9519136E+00;  0.0000000E+00;  3.3261803E-01;0; -1.5163237E-02;  1.0000237E+04;  0.0000000E+00; -1.2310375E-06;  1.0000000E+04;  0.0000000E+00;  9.9999678E+03; -1.7999597E-02;  0.0000000E+00;  2.8363592E-03;  1.2640509E+01;
  3.3999938E-01;  9.9999998E-03;  2.6000014E-01;1584; -1.3284205E-03;  0.0000000E+00;  3.1647927E-04;  1.0000101E+03;  4.0000001E-01;  8.2960577E+00;3; -1.9384604E+00;  0.0000000E+00;  4.5753029E-01;0; -1.4927235E-02;  1.0000235E+04;  0.0000000E+00; -1.4603009E-05;  1.0000000E+04;  0.0000000E+00;  9.9999648E+03; -1.7973470E-02;  0.0000000E+00;  3.0462346E-03;  1.3232479E+01;
  3.3999941E-01;  9.9999998E-03;  2.8000021E-01;1585; -1.2675434E-03;  0.0000000E+00;  4.2971774E-04;  1.0000099E+03;  4.0000001E-01;  8.1972952E+00;3; -1.9145507E+00;  0.0000000E+00;  6.3420326E-01;0; -1.4645437E-02;  1.0000233E+04;  0.0000000E+00; -5.6453202E-05;  1.0000000E+04;  0.0000000E+00;  9.9999648E+03; -1.7876681E-02;  0.0000000E+00;  3.2312439E-03;  1.3438532E+01;
  3.3999944E-01;  9.9999998E-03;  3.0000025E-01;1586; -1.1798890E-03;  0.0000000E+00;  5.5568229E-04;  1.0000097E+03;  4.0000001E-01;  7.9997702E+00;3; -1.8627863E+00;  0.0000000E+00;  8.4852540E-01;0; -1.4205495E-02;  1.0000230E+04;  0.0000000E+00; -1.1893910E-04;  1.0000000E+04;  0.0000000E+00;  9.9999619E+03; -1.7715413E-02;  0.0000000E+00;  3.5099187E-03;  1.3703243E+01;
  3.5999906E-01;  9.9999998E-03;  1.6000006E-01;1610; -1.8317907E-03;  0.0000000E+00;  9.3403185E-05;  1.0000145E+03;  4.0000001E-01;  1.2049035E+01;3; -2.4093394E+00;  0.0000000E+00;  1.1361530E-01;0; -2.0798400E-02;  1.0000312E+04;  0.0000000E+00;  5.9517766E-11;  1.0000000E+04;  0.0000000E+00;  9.9999814E+03; -2.2260522E-02;  0.0000000E+00;  1.4621221E-03;  7.5639582E+00;
  3.5999906E-01;  9.9999998E-03;  1.8000007E-01;1611; -1.8405877E-03;  0.0000000E+00;  1.2348218E-04;  1.0000144E+03;  4.0000001E-01;  1.1950273E+01;3; -2.4409537E+00;  0.0000000E+00;  1.5711586E-01;0; -2.0596001E-02;  1.0000313E+04;  0.0000000E+00; -5.8896937E-10;  1.0000000E+04;  0.0000000E+00;  9.9999756E+03; -2.2567026E-02;  0.0000000E+00;  1.9710260E-03;  9.7215099E+00;
  3.5999906E-01;  9.9999998E-03;  2.0000008E-01;1612; -1.8423739E-03;  0.0000000E+00;  1.6479331E-04;  1.0000141E+03;  4.0000001E-01;  1.1653984E+01;3; -2.4660125E+00;  0.0000000E+00;  2.1766064E-01;0; -2.0274917E-02;  1.0000313E+04;  0.0000000E+00; -7.0217465E-10;  1.0000000E+04;  0.0000000E+00;  9.9999688E+03; -2.2854235E-02;  0.0000000E+00;  2.5793179E-03;  1.2343888E+01;
  3.5999909E-01;  9.9999998E-03;  2.2000012E-01;1613; -1.8315028E-03;  0.0000000E+00;  2.2285503E-04;  1.0000138E+03;  4.0000001E-01;  1.1456459E+01;3; -2.4804173E+00;  0.0000000E+00;  3.0147496E-01;0; -1.9886823E-02;  1.0000315E+04;  0.0000000E+00;  3.8139469E-09;  1.0000000E+04;  0.0000000E+00;  9.9999629E+03; -2.3089327E-02;  0.0000000E+00;  3.2025038E-03;  1.5036617E+01;
  3.5999909E-01;  9.9999998E-03;  2.4000014E-01;1614; -1.8056002E-03;  0.0000000E+00;  2.9861205E-04;  1.0000136E+03;  4.0000001E-01;  1.1258934E+01;3; -2.4878502E+00;  0.0000000E+00;  4.1160294E-01;0; -1.9532204E-02;  1.0000315E+04;  0.0000000E+00;  2.1489045E-08;  1.0000000E+04;  0.0000000E+00;  9.9999561E+03; -2.3246052E-02;  0.0000000E+00;  3.7138481E-03;  1.7147966E+01;
  3.5999912E-01;  9.9999998E-03;  2.6000020E-01;1615; -1.7562812E-03;  0.0000000E+00;  4.0806292E-04;  1.0000134E+03;  4.0000001E-01;  1.1061409E+01;3; -2.4824045E+00;  0.0000000E+00;  5.7215273E-01;0; -1.9277113E-02;  1.0000314E+04;  0.0000000E+00;  5.9710906E-08;  1.0000000E+04;  0.0000000E+00;  9.9999531E+03; -2.3310460E-02;  0.0000000E+00;  4.0333476E-03;  1.8139185E+01;
  3.5999918E-01;  9.9999998E-03;  2.8000027E-01;1616; -1.6817364E-03;  0.0000000E+00;  5.5872469E-04;  1.0000131E+03;  4.0000001E-01;  1.0863884E+01;3; -2.4636586E+00;  0.0000000E+00;  7.9915529E-01;0; -1.8937748E-02;  1.0000314E+04;  0.0000000E+00; -2.8047535E-07;  1.0000000E+04;  0.0000000E+00;  9.9999502E+03; -2.3287421E-02;  0.0000000E+00;  4.3496727E-03;  1.8769047E+01;
  3.5999924E-01;  9.9999998E-03;  3.0000037E-01;1617; -1.5709840E-03;  0.0000000E+00;  7.2589214E-04;  1.0000129E+03;  4.0000001E-01;  1.0666359E+01;3; -2.4090443E+00;  0.0000000E+00;  1.0723321E+00;0; -1.8404698E-02;  1.0000311E+04;  0.0000000E+00; -1.9760964E-06;  1.0000000E+04;  0.0000000E+00;  9.9999473E+03; -2.3199134E-02;  0.0000000E+00;  4.7944356E-03;  1.9581764E+01;
  3.7999874E-01;  9.9999998E-03;  1.6000007E-01;1641; -2.3608450E-03;  0.0000000E+00;  1.1682239E-04;  1.0000190E+03;  4.0000001E-01;  1.5802011E+01;3; -2.9972444E+00;  0.0000000E+00;  1.3349845E-01;0; -2.6280144E-02;  1.0000404E+04;  0.0000000E+00; -1.7147865E-10;  1.0000000E+04;  0.0000000E+00;  9.9999775E+03; -2.8120525E-02;  0.0000000E+00;  1.8403805E-03;  1.0007040E+01;
  3.7999874E-01;  9.9999998E-03;  1.8000008E-01;1642; -2.3799399E-03;  0.0000000E+00;  1.5346102E-04;  1.0000189E+03;  4.0000001E-01;  1.5604486E+01;3; -3.0492089E+00;  0.0000000E+00;  1.8498367E-01;0; -2.6114224E-02;  1.0000407E+04;  0.0000000E+00; -1.2487974E-09;  1.0000000E+04;  0.0000000E+00;  9.9999688E+03; -2.8600313E-02;  0.0000000E+00;  2.4860890E-03;  1.2836861E+01;
  3.7999874E-01;  9.9999998E-03;  2.0000011E-01;1643; -2.3917079E-03;  0.0000000E+00;  2.0473747E-04;  1.0000185E+03;  4.0000001E-01;  1.5308197E+01;3; -3.0949702E+00;  0.0000000E+00;  2.5847393E-01;0; -2.5809936E-02;  1.0000412E+04;  0.0000000E+00; -1.1563894E-09;  1.0000000E+04;  0.0000000E+00;  9.9999580E+03; -2.9080985E-02;  0.0000000E+00;  3.2710491E-03;  1.6332466E+01;
  3.7999877E-01;  9.9999998E-03;  2.2000015E-01;1644; -2.3880876E-03;  0.0000000E+00;  2.7806932E-04;  1.0000182E+03;  4.0000001E-01;  1.5110672E+01;3; -3.1283162E+00;  0.0000000E+00;  3.6112040E-01;0; -2.5427345E-02;  1.0000415E+04;  0.0000000E+00;  5.8766334E-09;  1.0000000E+04;  0.0000000E+00;  9.9999502E+03; -2.9514810E-02;  0.0000000E+00;  4.0874658E-03;  1.9978254E+01;
  3.7999877E-01;  9.9999998E-03;  2.4000019E-01;1645; -2.3647530E-03;  0.0000000E+00;  3.7628182E-04;  1.0000179E+03;  4.0000001E-01;  1.4913147E+01;3; -3.1527529E+00;  0.0000000E+00;  5.0168985E-01;0; -2.5083359E-02;  1.0000417E+04;  0.0000000E+00;  3.3000457E-08;  1.0000000E+04;  0.0000000E+00;  9.9999414E+03; -2.9857310E-02;  0.0000000E+00;  4.7739511E-03;  2.2910803E+01;
  3.7999883E-01;  9.9999998E-03;  2.6000026E-01;1646; -2.3097997E-03;  0.0000000E+00;  5.2014453E-04;  1.0000177E+03;  4.0000001E-01;  1.4616859E+01;3; -3.1604266E+00;  0.0000000E+00;  7.0753604E-01;0; -2.4838883E-02;  1.0000419E+04;  0.0000000E+00;  9.5039695E-08;  1.0000000E+04;  0.0000000E+00;  9.9999375E+03; -3.0078163E-02;  0.0000000E+00;  5.2392804E-03;  2.4450804E+01;
  3.7999889E-01;  9.9999998E-03;  2.8000036E-01;1647; -2.2191803E-03;  0.0000000E+00;  7.2037522E-04;  1.0000175E+03;  4.0000001E-01;  1.4419334E+01;3; -3.1496918E+00;  0.0000000E+00;  9.9780291E-01;0; -2.4409024E-02;  1.0000418E+04;  0.0000000E+00;  1.7817227E-07;  1.0000000E+04;  0.0000000E+00;  9.9999326E+03; -3.0173713E-02;  0.0000000E+00;  5.7646893E-03;  2.5801596E+01;
  3.7999895E-01;  9.9999998E-03;  3.0000049E-01;1648; -2.0790547E-03;  0.0000000E+00;  9.4379508E-04;  1.0000171E+03;  4.0000001E-01;  1.4123047E+01;3; -3.0927949E+00;  0.0000000E+00;  1.3478953E+00;0; -2.3663484E-02;  1.0000417E+04;  0.0000000E+00;  1.9052996E-07;  1.0000000E+04;  0.0000000E+00;  9.9999258E+03; -3.0168151E-02;  0.0000000E+00;  6.5046684E-03;  2.7753342E+01;
  3.9999834E-01;  9.9999998E-03;  1.6000009E-01;1672; -3.0213967E-03;  0.0000000E+00;  1.4913586E-04;  1.0000247E+03;  4.0000001E-01;  2.0443846E+01;3; -3.7025888E+00;  0.0000000E+00;  1.6003133E-01;0; -3.2980174E-02;  1.0000523E+04;  0.0000000E+00;  6.3113265E-10;  1.0000000E+04;  0.0000000E+00;  9.9999697E+03; -3.5292394E-02;  0.0000000E+00;  2.3122225E-03;  1.3279426E+01;
  3.9999834E-01;  9.9999998E-03;  1.8000011E-01;1673; -3.0559800E-03;  0.0000000E+00;  1.9268888E-04;  1.0000245E+03;  4.0000001E-01;  2.0345083E+01;3; -3.7830904E+00;  0.0000000E+00;  2.1866685E-01;0; -3.2897878E-02;  1.0000530E+04;  0.0000000E+00; -1.2980435E-09;  1.0000000E+04;  0.0000000E+00;  9.9999590E+03; -3.6005065E-02;  0.0000000E+00;  3.1071871E-03;  1.6908478E+01;
  3.9999834E-01;  9.9999998E-03;  2.0000014E-01;1674; -3.0839911E-03;  0.0000000E+00;  2.5463494E-04;  1.0000242E+03;  4.0000001E-01;  2.0048796E+01;3; -3.8590477E+00;  0.0000000E+00;  3.0518466E-01;0; -3.2665513E-02;  1.0000537E+04;  0.0000000E+00; -1.5985167E-09;  1.0000000E+04;  0.0000000E+00;  9.9999482E+03; -3.6757592E-02;  0.0000000E+00;  4.0920773E-03;  2.1462334E+01;
  3.9999834E-01;  9.9999998E-03;  2.2000019E-01;1675; -3.0941139E-03;  0.0000000E+00;  3.4475783E-04;  1.0000239E+03;  4.0000001E-01;  1.9752508E+01;3; -3.9211698E+00;  0.0000000E+00;  4.2898491E-01;0; -3.2353770E-02;  1.0000544E+04;  0.0000000E+00;  1.0164763E-08;  1.0000000E+04;  0.0000000E+00;  9.9999346E+03; -3.7485674E-02;  0.0000000E+00;  5.1319036E-03;  2.6275532E+01;
  3.9999837E-01;  9.9999998E-03;  2.4000025E-01;1676; -3.0793995E-03;  0.0000000E+00;  4.6914312E-04;  1.0000236E+03;  4.0000001E-01;  1.9554983E+01;3; -3.9726248E+00;  0.0000000E+00;  6.0395694E-01;0; -3.2096703E-02;  1.0000550E+04;  0.0000000E+00;  5.2852482E-08;  1.0000000E+04;  0.0000000E+00;  9.9999238E+03; -3.8120344E-02;  0.0000000E+00;  6.0236403E-03;  3.0204117E+01;
  3.9999840E-01;  9.9999998E-03;  2.6000035E-01;1677; -3.0226402E-03;  0.0000000E+00;  6.5572199E-04;  1.0000235E+03;  4.0000001E-01;  1.9456221E+01;3; -4.0023494E+00;  0.0000000E+00;  8.6425185E-01;0; -3.1935528E-02;  1.0000554E+04;  0.0000000E+00;  1.4804313E-07;  1.0000000E+04;  0.0000000E+00;  9.9999180E+03; -3.8605783E-02;  0.0000000E+00;  6.6702543E-03;  3.2379822E+01;
  3.9999849E-01;  9.9999998E-03;  2.8000048E-01;1678; -2.9152143E-03;  0.0000000E+00;  9.2169194E-04;  1.0000233E+03;  4.0000001E-01;  1.9258696E+01;3; -4.0056801E+00;  0.0000000E+00;  1.2371057E+00;0; -3.1412650E-02;  1.0000555E+04;  0.0000000E+00;  2.6698618E-07;  1.0000000E+04;  0.0000000E+00;  9.9999092E+03; -3.8920693E-02;  0.0000000E+00;  7.5080437E-03;  3.4807728E+01;
  3.9999858E-01;  9.9999998E-03;  3.0000064E-01;1679; -2.7401741E-03;  0.0000000E+00;  1.2198222E-03;  1.0000226E+03;  4.0000001E-01;  1.8666121E+01;3; -3.9498131E+00;  0.0000000E+00;  1.6841111E+00;0; -3.0366328E-02;  1.0000556E+04;  0.0000000E+00;  2.7763599E-07;  1.0000000E+04;  0.0000000E+00;  9.9998965E+03; -3.9084073E-02;  0.0000000E+00;  8.7177465E-03;  3.8792767E+01;
  4.1999784E-01;  9.9999998E-03;  1.6000012E-01;1703; -3.8387314E-03;  0.0000000E+00;  1.9627059E-04;  1.0000318E+03;  4.0000001E-01;  2.6369591E+01;3; -4.5396242E+00;  0.0000000E+00;  1.9928324E-01;0; -4.1068066E-02;  1.0000676E+04;  0.0000000E+00;  1.6969571E-09;  1.0000000E+04;  0.0000000E+00;  9.9999600E+03; -4.3992955E-02;  0.0000000E+00;  2.9248884E-03;  1.7784918E+01;
  4.1999781E-01;  9.9999998E-03;  1.8000014E-01;1704; -3.8958210E-03;  0.0000000E+00;  2.4739312E-04;  1.0000317E+03;  4.0000001E-01;  2.6270828E+01;3; -4.6591825E+00;  0.0000000E+00;  2.6404732E-01;0; -4.1133080E-02;  1.0000686E+04;  0.0000000E+00; -7.4898365E-10;  1.0000000E+04;  0.0000000E+00;  9.9999482E+03; -4.5005571E-02;  0.0000000E+00;  3.8724921E-03;  2.2361992E+01;
  4.1999781E-01;  9.9999998E-03;  2.0000018E-01;1705; -3.9489106E-03;  0.0000000E+00;  3.1984437E-04;  1.0000313E+03;  4.0000001E-01;  2.5974541E+01;3; -4.7780766E+00;  0.0000000E+00;  3.6156493E-01;0; -4.1053317E-02;  1.0000697E+04;  0.0000000E+00; -6.8537986E-10;  1.0000000E+04;  0.0000000E+00;  9.9999326E+03; -4.6123434E-02;  0.0000000E+00;  5.0701145E-03;  2.8183342E+01;
  4.1999781E-01;  9.9999998E-03;  2.2000024E-01;1706; -3.9831046E-03;  0.0000000E+00;  4.2694071E-04;  1.0000312E+03;  4.0000001E-01;  2.5875778E+01;3; -4.8834038E+00;  0.0000000E+00;  5.0732458E-01;0; -4.0915083E-02;  1.0000707E+04;  0.0000000E+00;  1.8430478E-08;  1.0000000E+04;  0.0000000E+00;  9.9999160E+03; -4.7266703E-02;  0.0000000E+00;  6.3516209E-03;  3.4388325E+01;
  4.1999781E-01;  9.9999998E-03;  2.4000032E-01;1707; -3.9870297E-03;  0.0000000E+00;  5.7982095E-04;  1.0000310E+03;  4.0000001E-01;  2.5678253E+01;3; -4.9769568E+00;  0.0000000E+00;  7.1751893E-01;0; -4.0874623E-02;  1.0000719E+04;  0.0000000E+00;  8.4847017E-08;  1.0000000E+04;  0.0000000E+00;  9.9999004E+03; -4.8336066E-02;  0.0000000E+00;  7.4614445E-03;  3.9444729E+01;
  4.1999784E-01;  9.9999998E-03;  2.6000044E-01;1708; -3.9366027E-03;  0.0000000E+00;  8.1761234E-04;  1.0000311E+03;  4.0000001E-01;  2.5777016E+01;3; -5.0428820E+00;  0.0000000E+00;  1.0435599E+00;0; -4.0942896E-02;  1.0000729E+04;  0.0000000E+00;  2.3210322E-07;  1.0000000E+04;  0.0000000E+00;  9.9998936E+03; -4.9239069E-02;  0.0000000E+00;  8.2961721E-03;  4.2191963E+01;
  4.1999793E-01;  9.9999998E-03;  2.8000063E-01;1709; -3.8147359E-03;  0.0000000E+00;  1.1678687E-03;  1.0000308E+03;  4.0000001E-01;  2.5579491E+01;3; -5.0706134E+00;  0.0000000E+00;  1.5180118E+00;0; -4.0374078E-02;  1.0000736E+04;  0.0000000E+00;  4.0266789E-07;  1.0000000E+04;  0.0000000E+00;  9.9998838E+03; -4.9924284E-02;  0.0000000E+00;  9.5502082E-03;  4.5968712E+01;
  4.1999808E-01;  9.9999998E-03;  3.0000088E-01;1710; -3.5999913E-03;  0.0000000E+00;  1.5682112E-03;  1.0000301E+03;  4.0000001E-01;  2.4888153E+01;3; -5.0220613E+00;  0.0000000E+00;  2.0915606E+00;0; -3.8875021E-02;  1.0000740E+04;  0.0000000E+00;  3.8032334E-07;  1.0000000E+04;  0.0000000E+00;  9.9998613E+03; -5.0395582E-02;  0.0000000E+00;  1.1520559E-02;  5.3283619E+01;
  4.3999717E-01;  9.9999998E-03;  1.6000016E-01;1734; -4.8452727E-03;  0.0000000E+00;  2.6846497E-04;  1.0000406E+03;  4.0000001E-01;  3.3579243E+01;3; -5.5231056E+00;  0.0000000E+00;  2.6324344E-01;0; -5.0661467E-02;  1.0000866E+04;  0.0000000E+00;  4.2872119E-09;  1.0000000E+04;  0.0000000E+00;  9.9999463E+03; -5.4422390E-02;  0.0000000E+00;  3.7609218E-03;  2.4157784E+01;
  4.3999714E-01;  9.9999998E-03;  1.8000020E-01;1735; -4.9338592E-03;  0.0000000E+00;  3.2840710E-04;  1.0000404E+03;  4.0000001E-01;  3.3480480E+01;3; -5.6948981E+00;  0.0000000E+00;  3.3233446E-01;0; -5.0950520E-02;  1.0000880E+04;  0.0000000E+00;  2.8761551E-09;  1.0000000E+04;  0.0000000E+00;  9.9999316E+03; -5.5805750E-02;  0.0000000E+00;  4.8552323E-03;  2.9910170E+01;
  4.3999711E-01;  9.9999998E-03;  2.0000024E-01;1736; -5.0235041E-03;  0.0000000E+00;  4.1105569E-04;  1.0000402E+03;  4.0000001E-01;  3.3282955E+01;3; -5.8733606E+00;  0.0000000E+00;  4.3778801E-01;0; -5.1128276E-02;  1.0000896E+04;  0.0000000E+00;  5.8867844E-09;  1.0000000E+04;  0.0000000E+00;  9.9999121E+03; -5.7393555E-02;  0.0000000E+00;  6.2652794E-03;  3.7295383E+01;
  4.3999711E-01;  9.9999998E-03;  2.2000031E-01;1737; -5.0964644E-03;  0.0000000E+00;  5.3130044E-04;  1.0000402E+03;  4.0000001E-01;  3.3282955E+01;3; -6.0425658E+00;  0.0000000E+00;  5.9846771E-01;0; -5.1308800E-02;  1.0000912E+04;  0.0000000E+00;  3.7787498E-08;  1.0000000E+04;  0.0000000E+00;  9.9998916E+03; -5.9095159E-02;  0.0000000E+00;  7.7863587E-03;  4.5179394E+01;
  4.3999708E-01;  9.9999998E-03;  2.4000041E-01;1738; -5.1337550E-03;  0.0000000E+00;  7.1405742E-04;  1.0000403E+03;  4.0000001E-01;  3.3381718E+01;3; -6.1990485E+00;  0.0000000E+00;  8.4548336E-01;0; -5.1681139E-02;  1.0000932E+04;  0.0000000E+00;  1.4796522E-07;  1.0000000E+04;  0.0000000E+00;  9.9998740E+03; -6.0776770E-02;  0.0000000E+00;  9.0956325E-03;  5.1432907E+01;
  4.3999711E-01;  9.9999998E-03;  2.6000056E-01;1739; -5.1040966E-03;  0.0000000E+00;  1.0074705E-03;  1.0000407E+03;  4.0000001E-01;  3.3776768E+01;3; -6.3230095E+00;  0.0000000E+00;  1.2400224E+00;0; -5.2237317E-02;  1.0000949E+04;  0.0000000E+00;  3.7929993E-07;  1.0000000E+04;  0.0000000E+00;  9.9998652E+03; -6.2297799E-02;  0.0000000E+00;  1.0060480E-02;  5.4294201E+01;
  4.3999720E-01;  9.9999998E-03;  2.8000084E-01;1740; -4.9756011E-03;  0.0000000E+00;  1.4650654E-03;  1.0000407E+03;  4.0000001E-01;  3.3776768E+01;3; -6.3925748E+00;  0.0000000E+00;  1.8466473E+00;0; -5.1779032E-02;  1.0000966E+04;  0.0000000E+00;  6.1363994E-07;  1.0000000E+04;  0.0000000E+00;  9.9998506E+03; -6.3561238E-02;  0.0000000E+00;  1.1782207E-02;  5.9070568E+01;
  4.3999738E-01;  9.9999998E-03;  3.0000114E-01;1741; -4.7193617E-03;  0.0000000E+00;  2.0027279E-03;  1.0000397E+03;  4.0000001E-01;  3.2887905E+01;3; -6.3625102E+00;  0.0000000E+00;  2.5817308E+00;0; -4.9672104E-02;  1.0000979E+04;  0.0000000E+00;  4.5347636E-07;  1.0000000E+04;  0.0000000E+00;  9.9998154E+03; -6.4541072E-02;  0.0000000E+00;  1.4868965E-02;  7.1121765E+01;
  4.5999628E-01;  9.9999998E-03;  1.6000023E-01;1765; -6.0845483E-03;  0.0000000E+00;  3.8143035E-04;  1.0000516E+03;  4.0000024E-01;  4.2764126E+01;3; -6.6696773E+00;  0.0000000E+00;  3.7072468E-01;0; -6.1733101E-02;  1.0001096E+04;  0.0000000E+00;  1.4405646E-08;  1.0000000E+04;  0.0000000E+00;  9.9999238E+03; -6.6687144E-02;  0.0000000E+00;  4.9540433E-03;  3.3343342E+01;
  4.5999625E-01;  9.9999998E-03;  1.8000029E-01;1766; -6.2149386E-03;  0.0000000E+00;  4.5305979E-04;  1.0000517E+03;  4.0000027E-01;  4.2862888E+01;3; -6.9089746E+00;  0.0000000E+00;  4.4186807E-01;0; -6.2324472E-02;  1.0001113E+04;  0.0000000E+00;  1.4846957E-08;  1.0000000E+04;  0.0000000E+00;  9.9999063E+03; -6.8512686E-02;  0.0000000E+00;  6.1882120E-03;  4.0717243E+01;
  4.5999622E-01;  9.9999998E-03;  2.0000035E-01;1767; -6.3548372E-03;  0.0000000E+00;  5.4667983E-04;  1.0000514E+03;  4.0000024E-01;  4.2566601E+01;3; -7.1677113E+00;  0.0000000E+00;  5.5314916E-01;0; -6.2876321E-02;  1.0001137E+04;  0.0000000E+00;  2.5172477E-08;  1.0000000E+04;  0.0000000E+00;  9.9998838E+03; -7.0680834E-02;  0.0000000E+00;  7.8045125E-03;  5.0227333E+01;
  4.5999616E-01;  9.9999998E-03;  2.2000042E-01;1768; -6.4842440E-03;  0.0000000E+00;  6.7553215E-04;  1.0000516E+03;  4.0000024E-01;  4.2764126E+01;3; -7.4269085E+00;  0.0000000E+00;  7.1653342E-01;0; -6.3548192E-02;  1.0001165E+04;  0.0000000E+00;  9.0091639E-08;  1.0000000E+04;  0.0000000E+00;  9.9998574E+03; -7.3098309E-02;  0.0000000E+00;  9.5501151E-03;  6.0329449E+01;
  4.5999613E-01;  9.9999998E-03;  2.4000053E-01;1769; -6.5749898E-03;  0.0000000E+00;  8.8492990E-04;  1.0000522E+03;  4.0000021E-01;  4.3257938E+01;3; -7.6750441E+00;  0.0000000E+00;  9.9489158E-01;0; -6.4598098E-02;  1.0001195E+04;  0.0000000E+00;  2.8493679E-07;  1.0000000E+04;  0.0000000E+00;  9.9998369E+03; -7.5595558E-02;  0.0000000E+00;  1.0997456E-02;  6.7878746E+01;
  4.5999616E-01;  9.9999998E-03;  2.6000074E-01;1770; -6.5888320E-03;  0.0000000E+00;  1.2351758E-03;  1.0000532E+03;  4.0000024E-01;  4.4048038E+01;3; -7.8892641E+00;  0.0000000E+00;  1.4622979E+00;0; -6.6040628E-02;  1.0001226E+04;  0.0000000E+00;  6.6313044E-07;  1.0000000E+04;  0.0000000E+00;  9.9998301E+03; -7.7974163E-02;  0.0000000E+00;  1.1933533E-02;  6.9831245E+01;
  4.5999622E-01;  9.9999998E-03;  2.8000107E-01;1771; -6.4711692E-03;  0.0000000E+00;  1.8196296E-03;  1.0000538E+03;  4.0000024E-01;  4.4640614E+01;3; -8.0293751E+00;  0.0000000E+00;  2.2205665E+00;0; -6.6044532E-02;  1.0001253E+04;  0.0000000E+00;  9.7020484E-07;  1.0000000E+04;  0.0000000E+00;  9.9998145E+03; -8.0075063E-02;  0.0000000E+00;  1.4030533E-02;  7.4228271E+01;
  4.5999643E-01;  9.9999998E-03;  3.0000150E-01;1772; -6.1798608E-03;  0.0000000E+00;  2.5417127E-03;  1.0000526E+03;  4.0000021E-01;  4.3554226E+01;3; -8.0394144E+00;  0.0000000E+00;  3.1634128E+00;0; -6.3161582E-02;  1.0001277E+04;  0.0000000E+00;  4.9193898E-07;  1.0000000E+04;  0.0000000E+00;  9.9997646E+03; -8.1822954E-02;  0.0000000E+00;  1.8661374E-02;  9.2554817E+01;
  4.7999516E-01;  9.9999998E-03;  1.6000035E-01;1796; -7.6118433E-03;  0.0000000E+00;  5.5825408E-04;  1.0000649E+03;  4.0000075E-01;  5.3726715E+01;3; -7.9990830E+00;  0.0000000E+00;  5.5230677E-01;0; -7.3950380E-02;  1.0001369E+04;  0.0000000E+00;  4.5078526E-08;  1.0000000E+04;  0.0000000E+00;  9.9998975E+03; -8.0655642E-02;  0.0000000E+00;  6.7052604E-03;  4.6681026E+01;
  4.7999510E-01;  9.9999998E-03;  1.8000041E-01;1797; -7.7945571E-03;  0.0000000E+00;  6.4921548E-04;  1.0000648E+03;  4.0000075E-01;  5.3726715E+01;3; -8.3215237E+00;  0.0000000E+00;  6.2539256E-01;0; -7.4899204E-02;  1.0001395E+04;  0.0000000E+00;  5.0609721E-08;  1.0000000E+04;  0.0000000E+00;  9.9998701E+03; -8.2995951E-02;  0.0000000E+00;  8.0967499E-03;  5.6637917E+01;
  4.7999504E-01;  9.9999998E-03;  2.0000048E-01;1798; -7.9988455E-03;  0.0000000E+00;  7.5591326E-04;  1.0000649E+03;  4.0000060E-01;  5.3825478E+01;3; -8.6843529E+00;  0.0000000E+00;  7.3216575E-01;0; -7.5919554E-02;  1.0001425E+04;  0.0000000E+00;  8.0882444E-08;  1.0000000E+04;  0.0000000E+00;  9.9998408E+03; -8.5856207E-02;  0.0000000E+00;  9.9366521E-03;  6.9500389E+01;
  4.7999498E-01;  9.9999998E-03;  2.2000057E-01;1799; -8.2032643E-03;  0.0000000E+00;  8.9125521E-04;  1.0000652E+03;  4.0000072E-01;  5.4022999E+01;3; -9.0638371E+00;  0.0000000E+00;  8.8803136E-01;0; -7.7241808E-02;  1.0001464E+04;  0.0000000E+00;  2.1095313E-07;  1.0000000E+04;  0.0000000E+00;  9.9998057E+03; -8.9148179E-02;  0.0000000E+00;  1.1906374E-02;  8.3049614E+01;
  4.7999492E-01;  9.9999998E-03;  2.4000071E-01;1800; -8.3721643E-03;  0.0000000E+00;  1.1198530E-03;  1.0000663E+03;  4.0000069E-01;  5.4911861E+01;3; -9.4412050E+00;  0.0000000E+00;  1.1855655E+00;0; -7.9267405E-02;  1.0001509E+04;  0.0000000E+00;  5.8915060E-07;  1.0000000E+04;  0.0000000E+00;  9.9997822E+03; -9.2667922E-02;  0.0000000E+00;  1.3400517E-02;  9.2314819E+01;
  4.7999489E-01;  9.9999998E-03;  2.6000094E-01;1801; -8.4642423E-03;  0.0000000E+00;  1.5155937E-03;  1.0000685E+03;  4.0000075E-01;  5.6788345E+01;3; -9.7928562E+00;  0.0000000E+00;  1.7118640E+00;0; -8.2184732E-02;  1.0001556E+04;  0.0000000E+00;  1.2668939E-06;  1.0000000E+04;  0.0000000E+00;  9.9997832E+03; -9.6155576E-02;  0.0000000E+00;  1.3970842E-02;  9.1493637E+01;
  4.7999492E-01;  9.9999998E-03;  2.8000137E-01;1802; -8.3913235E-03;  0.0000000E+00;  2.2407882E-03;  1.0000706E+03;  4.0000069E-01;  5.8467304E+01;3; -1.0048851E+01;  0.0000000E+00;  2.6357276E+00;0; -8.3324790E-02;  1.0001602E+04;  0.0000000E+00;  1.6977393E-06;  1.0000000E+04;  0.0000000E+00;  9.9997744E+03; -9.9376887E-02;  0.0000000E+00;  1.6052093E-02;  9.1906700E+01;
  4.7999513E-01;  9.9999998E-03;  3.0000198E-01;1803; -8.0914898E-03;  0.0000000E+00;  3.2067108E-03;  1.0000690E+03;  4.0000072E-01;  5.7183395E+01;3; -1.0142915E+01;  0.0000000E+00;  3.8485093E+00;0; -7.9610489E-02;  1.0001644E+04;  0.0000000E+00;  5.2393125E-07;  1.0000000E+04;  0.0000000E+00;  9.9997051E+03; -1.0218345E-01;  0.0000000E+00;  2.2572959E-02;  1.1657833E+02;
  4.9999374E-01;  9.9999998E-03;  1.6000050E-01;1827; -9.4881691E-03;  0.0000000E+00;  8.2765258E-04;  1.0000801E+03;  4.0000162E-01;  6.6368225E+01;3; -9.5327950E+00;  0.0000000E+00;  8.4689432E-01;0; -8.6464331E-02;  1.0001674E+04;  0.0000000E+00;  1.1519203E-07;  1.0000000E+04;  0.0000000E+00;  9.9998506E+03; -9.5765479E-02;  0.0000000E+00;  9.3011521E-03;  6.6048294E+01;
  4.9999365E-01;  9.9999998E-03;  1.8000060E-01;1828; -9.7320415E-03;  0.0000000E+00;  9.5595873E-04;  1.0000800E+03;  4.0000156E-01;  6.6269463E+01;3; -9.9524889E+00;  0.0000000E+00;  9.2997307E-01;0; -8.7748468E-02;  1.0001706E+04;  0.0000000E+00;  1.3201003E-07;  1.0000000E+04;  0.0000000E+00;  9.9998184E+03; -9.8696366E-02;  0.0000000E+00;  1.0947901E-02;  8.0640961E+01;
  4.9999356E-01;  9.9999998E-03;  2.0000072E-01;1829; -1.0011639E-02;  0.0000000E+00;  1.0880706E-03;  1.0000800E+03;  4.0000159E-01;  6.6269463E+01;3; -1.0441176E+01;  0.0000000E+00;  1.0269228E+00;0; -8.9226738E-02;  1.0001748E+04;  0.0000000E+00;  1.9558604E-07;  1.0000000E+04;  0.0000000E+00;  9.9997725E+03; -1.0235122E-01;  0.0000000E+00;  1.3124479E-02;  9.9534348E+01;
  4.9999347E-01;  9.9999998E-03;  2.2000082E-01;1830; -1.0308729E-02;  0.0000000E+00;  1.2324583E-03;  1.0000804E+03;  4.0000162E-01;  6.6565750E+01;3; -1.0976412E+01;  0.0000000E+00;  1.1591518E+00;0; -9.1241576E-02;  1.0001803E+04;  0.0000000E+00;  4.7607642E-07;  1.0000000E+04;  0.0000000E+00;  9.9997266E+03; -1.0664760E-01;  0.0000000E+00;  1.5406020E-02;  1.1932370E+02;
  4.9999335E-01;  9.9999998E-03;  2.4000098E-01;1831; -1.0586550E-02;  0.0000000E+00;  1.4656101E-03;  1.0000820E+03;  4.0000159E-01;  6.7948425E+01;3; -1.1534617E+01;  0.0000000E+00;  1.4479568E+00;0; -9.4490334E-02;  1.0001866E+04;  0.0000000E+00;  1.2897672E-06;  1.0000000E+04;  0.0000000E+00;  9.9996963E+03; -1.1135158E-01;  0.0000000E+00;  1.6861243E-02;  1.3168538E+02;
  4.9999323E-01;  9.9999998E-03;  2.6000124E-01;1832; -1.0803245E-02;  0.0000000E+00;  1.8828214E-03;  1.0000861E+03;  4.0000159E-01;  7.1306343E+01;3; -1.2081520E+01;  0.0000000E+00;  1.9990666E+00;0; -9.9625930E-02;  1.0001932E+04;  0.0000000E+00;  2.6915352E-06;  1.0000000E+04;  0.0000000E+00;  9.9997119E+03; -1.1615116E-01;  0.0000000E+00;  1.6525233E-02;  1.2528210E+02;
  4.9999321E-01;  9.9999998E-03;  2.8000179E-01;1833; -1.0838847E-02;  0.0000000E+00;  2.7475075E-03;  1.0000901E+03;  4.0000162E-01;  7.4664253E+01;3; -1.2527547E+01;  0.0000000E+00;  3.0886979E+00;0; -1.0309057E-01;  1.0001998E+04;  0.0000000E+00;  3.4280479E-06;  1.0000000E+04;  0.0000000E+00;  9.9997275E+03; -1.2073669E-01;  0.0000000E+00;  1.7646121E-02;  1.1415210E+02;
  4.9999335E-01;  9.9999998E-03;  3.0000263E-01;1834; -1.0600622E-02;  0.0000000E+00;  4.0317150E-03;  1.0000892E+03;  4.0000159E-01;  7.3874161E+01;3; -1.2789639E+01;  0.0000000E+00;  4.6465650E+00;0; -9.8695628E-02;  1.0002060E+04;  0.0000000E+00;  7.6680988E-07;  1.0000000E+04;  0.0000000E+00;  9.9996455E+03; -1.2486278E-01;  0.0000000E+00;  2.6167149E-02;  1.4214066E+02;
  5.1999193E-01;  9.9999998E-03;  1.6000073E-01;1858; -1.1765315E-02;  0.0000000E+00;  1.2198305E-03;  1.0000997E+03;  4.0000448E-01;  8.2565125E+01;3; -1.1288945E+01;  0.0000000E+00;  1.3026381E+00;0; -9.7693518E-02;  1.0001986E+04;  0.0000000E+00;  2.4349609E-07;  1.0000000E+04;  0.0000000E+00;  9.9997852E+03; -1.1084604E-01;  0.0000000E+00;  1.3152514E-02;  9.4235901E+01;
  5.1999182E-01;  9.9999998E-03;  1.8000089E-01;1859; -1.2077309E-02;  0.0000000E+00;  1.4190242E-03;  1.0000991E+03;  4.0000442E-01;  8.2071312E+01;3; -1.1817739E+01;  0.0000000E+00;  1.4223486E+00;0; -9.9096261E-02;  1.0002030E+04;  0.0000000E+00;  2.5761631E-07;  1.0000000E+04;  0.0000000E+00;  9.9997324E+03; -1.1443398E-01;  0.0000000E+00;  1.5337718E-02;  1.1759955E+02;
  5.1999170E-01;  9.9999998E-03;  2.0000106E-01;1860; -1.2436885E-02;  0.0000000E+00;  1.6099310E-03;  1.0000986E+03;  4.0000448E-01;  8.1676262E+01;3; -1.2449483E+01;  0.0000000E+00;  1.5187693E+00;0; -1.0075848E-01;  1.0002086E+04;  0.0000000E+00;  3.7438434E-07;  1.0000000E+04;  0.0000000E+00;  9.9996631E+03; -1.1894423E-01;  0.0000000E+00;  1.8185753E-02;  1.4788651E+02;
  5.1999158E-01;  9.9999998E-03;  2.2000122E-01;1861; -1.2837482E-02;  0.0000000E+00;  1.7845422E-03;  1.0000984E+03;  4.0000442E-01;  8.1478737E+01;3; -1.3175649E+01;  0.0000000E+00;  1.6059344E+00;0; -1.0320558E-01;  1.0002155E+04;  0.0000000E+00;  1.0279573E-06;  1.0000000E+04;  0.0000000E+00;  9.9995918E+03; -1.2428900E-01;  0.0000000E+00;  2.1083413E-02;  1.7954100E+02;
  5.1999140E-01;  9.9999998E-03;  2.4000141E-01;1862; -1.3254458E-02;  0.0000000E+00;  2.0108374E-03;  1.0001003E+03;  4.0000442E-01;  8.3058937E+01;3; -1.3971315E+01;  0.0000000E+00;  1.8446279E+00;0; -1.0769276E-01;  1.0002238E+04;  0.0000000E+00;  2.9720961E-06;  1.0000000E+04;  0.0000000E+00;  9.9995498E+03; -1.3021319E-01;  0.0000000E+00;  2.2520419E-02;  1.9845667E+02;
  5.1999116E-01;  9.9999998E-03;  2.6000169E-01;1863; -1.3659732E-02;  0.0000000E+00;  2.4126631E-03;  1.0001065E+03;  4.0000439E-01;  8.8194565E+01;3; -1.4789505E+01;  0.0000000E+00;  2.3586717E+00;0; -1.1583752E-01;  1.0002323E+04;  0.0000000E+00;  6.2843560E-06;  1.0000000E+04;  0.0000000E+00;  9.9995869E+03; -1.3637903E-01;  0.0000000E+00;  2.0541513E-02;  1.8324640E+02;
  5.1999098E-01;  9.9999998E-03;  2.8000236E-01;1864; -1.3913946E-02;  0.0000000E+00;  3.4037337E-03;  1.0001146E+03;  4.0000445E-01;  9.5009148E+01;3; -1.5538774E+01;  0.0000000E+00;  3.5948508E+00;0; -1.2331156E-01;  1.0002413E+04;  0.0000000E+00;  7.8942039E-06;  1.0000000E+04;  0.0000000E+00;  9.9996582E+03; -1.4242259E-01;  0.0000000E+00;  1.9111022E-02;  1.4845827E+02;
  5.1999092E-01;  9.9999998E-03;  3.0000353E-01;1865; -1.3880072E-02;  0.0000000E+00;  5.0726668E-03;  1.0001149E+03;  4.0000436E-01;  9.5206673E+01;3; -1.6102758E+01;  0.0000000E+00;  5.5425463E+00;0; -1.1894776E-01;  1.0002499E+04;  0.0000000E+00;  2.0994587E-06;  1.0000000E+04;  0.0000000E+00;  9.9995811E+03; -1.4798859E-01;  0.0000000E+00;  2.9040826E-02;  1.7118549E+02;
  5.3998971E-01;  9.9999998E-03;  1.6000104E-01;1889; -1.4461829E-02;  0.0000000E+00;  1.7658815E-03;  1.0001269E+03;  4.0001169E-01;  1.0508269E+02;3; -1.3283655E+01;  0.0000000E+00;  1.9356507E+00;0; -1.0514956E-01;  1.0002269E+04;  0.0000000E+00;  3.9858915E-07;  1.0000000E+04;  0.0000000E+00;  9.9996875E+03; -1.2401619E-01;  0.0000000E+00;  1.8866628E-02;  1.3559093E+02;
  5.3998959E-01;  9.9999998E-03;  1.8000129E-01;1890; -1.4845173E-02;  0.0000000E+00;  2.0824629E-03;  1.0001251E+03;  4.0001169E-01;  1.0370002E+02;3; -1.3910261E+01;  0.0000000E+00;  2.1730254E+00;0; -1.0607024E-01;  1.0002321E+04;  0.0000000E+00;  3.5757540E-07;  1.0000000E+04;  0.0000000E+00;  9.9995967E+03; -1.2827599E-01;  0.0000000E+00;  2.2205757E-02;  1.7528766E+02;
  5.3998941E-01;  9.9999998E-03;  2.0000154E-01;1891; -1.5282977E-02;  0.0000000E+00;  2.3917849E-03;  1.0001229E+03;  4.0001169E-01;  1.0182354E+02;3; -1.4683923E+01;  0.0000000E+00;  2.3291740E+00;0; -1.0716981E-01;  1.0002392E+04;  0.0000000E+00;  5.6473414E-07;  1.0000000E+04;  0.0000000E+00;  9.9994824E+03; -1.3360047E-01;  0.0000000E+00;  2.6430657E-02;  2.2642780E+02;
  5.3998929E-01;  9.9999998E-03;  2.2000182E-01;1892; -1.5784653E-02;  0.0000000E+00;  2.6632973E-03;  1.0001213E+03;  4.0001175E-01;  1.0044088E+02;3; -1.5641949E+01;  0.0000000E+00;  2.3761175E+00;0; -1.0926312E-01;  1.0002478E+04;  0.0000000E+00;  2.1631406E-06;  1.0000000E+04;  0.0000000E+00;  9.9993662E+03; -1.3987416E-01;  0.0000000E+00;  3.0611038E-02;  2.7933905E+02;
  5.3998905E-01;  9.9999998E-03;  2.4000210E-01;1893; -1.6362155E-02;  0.0000000E+00;  2.8991681E-03;  1.0001227E+03;  4.0001175E-01;  1.0172478E+02;3; -1.6726593E+01;  0.0000000E+00;  2.5093250E+00;0; -1.1452627E-01;  1.0002575E+04;  0.0000000E+00;  7.0716815E-06;  1.0000000E+04;  0.0000000E+00;  9.9992969E+03; -1.4682730E-01;  0.0000000E+00;  3.2301024E-02;  3.1136203E+02;
  5.3998870E-01;  9.9999998E-03;  2.6000243E-01;1894; -1.7038921E-02;  0.0000000E+00;  3.2497237E-03;  1.0001314E+03;  4.0001166E-01;  1.0883564E+02;3; -1.7933550E+01;  0.0000000E+00;  2.8837016E+00;0; -1.2633686E-01;  1.0002680E+04;  0.0000000E+00;  1.5454038E-05;  1.0000000E+04;  0.0000000E+00;  9.9993633E+03; -1.5413667E-01;  0.0000000E+00;  2.7799815E-02;  2.8568216E+02;
  5.3998816E-01;  9.9999998E-03;  2.8000325E-01;1895; -1.7678043E-02;  0.0000000E+00;  4.3325177E-03;  1.0001452E+03;  4.0001166E-01;  1.2029202E+02;3; -1.9129492E+01;  0.0000000E+00;  4.1838946E+00;0; -1.4001489E-01;  1.0002787E+04;  0.0000000E+00;  1.9402296E-05;  1.0000000E+04;  0.0000000E+00;  9.9995322E+03; -1.6143207E-01;  0.0000000E+00;  2.1417184E-02;  2.1043486E+02;
  5.3998774E-01;  9.9999998E-03;  3.0000481E-01;1896; -1.8092996E-02;  0.0000000E+00;  6.4500207E-03;  1.0001489E+03;  4.0001169E-01;  1.2335365E+02;3; -2.0204523E+01;  0.0000000E+00;  6.5621605E+00;0; -1.3716406E-01;  1.0002891E+04;  0.0000000E+00;  6.8175877E-06;  1.0000000E+04;  0.0000000E+00;  9.9995010E+03; -1.6826487E-01;  0.0000000E+00;  3.1100817E-02;  2.1022198E+02;
  5.5998713E-01;  9.9999998E-03;  1.6000144E-01;1920; -1.7530190E-02;  0.0000000E+00;  2.4913058E-03;  1.0001785E+03;  4.0003142E-01;  1.4784624E+02;3; -1.5478364E+01;  0.0000000E+00;  2.8093481E+00;0; -1.0533404E-01;  1.0002461E+04;  0.0000000E+00;  4.5963191E-07;  1.0000000E+04;  0.0000000E+00;  9.9995400E+03; -1.3263461E-01;  0.0000000E+00;  2.7300570E-02;  1.9642972E+02;
  5.5998695E-01;  9.9999998E-03;  1.8000180E-01;1921; -1.7999478E-02;  0.0000000E+00;  2.9670401E-03;  1.0001742E+03;  4.0003142E-01;  1.4429082E+02;3; -1.6219006E+01;  0.0000000E+00;  3.1924231E+00;0; -1.0457538E-01;  1.0002524E+04;  0.0000000E+00;  1.9876211E-07;  1.0000000E+04;  0.0000000E+00;  9.9993877E+03; -1.3745245E-01;  0.0000000E+00;  3.2877073E-02;  2.6466373E+02;
  5.5998677E-01;  9.9999998E-03;  2.0000218E-01;1922; -1.8522818E-02;  0.0000000E+00;  3.4519990E-03;  1.0001686E+03;  4.0003142E-01;  1.3964902E+02;3; -1.7120962E+01;  0.0000000E+00;  3.4990451E+00;0; -1.0370892E-01;  1.0002604E+04;  0.0000000E+00;  5.8148953E-07;  1.0000000E+04;  0.0000000E+00;  9.9991963E+03; -1.4336114E-01;  0.0000000E+00;  3.9652210E-02;  3.5122098E+02;
  5.5998659E-01;  9.9999998E-03;  2.2000259E-01;1923; -1.9111210E-02;  0.0000000E+00;  3.9052807E-03;  1.0001638E+03;  4.0003151E-01;  1.3569856E+02;3; -1.8163488E+01;  0.0000000E+00;  3.7654729E+00;0; -1.0414146E-01;  1.0002699E+04;  0.0000000E+00;  4.4840722E-06;  1.0000000E+04;  0.0000000E+00;  9.9990049E+03; -1.5018889E-01;  0.0000000E+00;  4.6047430E-02;  4.3872110E+02;
  5.5998635E-01;  9.9999998E-03;  2.4000306E-01;1924; -1.9840663E-02;  0.0000000E+00;  4.2704334E-03;  1.0001634E+03;  4.0003145E-01;  1.3540227E+02;3; -1.9627243E+01;  0.0000000E+00;  3.7305651E+00;0; -1.0907815E-01;  1.0002808E+04;  0.0000000E+00;  1.6621645E-05;  1.0000000E+04;  0.0000000E+00;  9.9988896E+03; -1.5765570E-01;  0.0000000E+00;  4.8577551E-02;  4.9234259E+02;
  5.5998582E-01;  9.9999998E-03;  2.6000366E-01;1925; -2.0845342E-02;  0.0000000E+00;  4.6394826E-03;  1.0001736E+03;  4.0003142E-01;  1.4379701E+02;3; -2.1422792E+01;  0.0000000E+00;  3.7341218E+00;0; -1.2426656E-01;  1.0002919E+04;  0.0000000E+00;  3.7212969E-05;  1.0000000E+04;  0.0000000E+00;  9.9989805E+03; -1.6549389E-01;  0.0000000E+00;  4.1227322E-02;  4.5867313E+02;
  5.5998486E-01;  9.9999998E-03;  2.8000474E-01;1926; -2.2077186E-02;  0.0000000E+00;  5.7827621E-03;  1.0001944E+03;  4.0003145E-01;  1.6108031E+02;3; -2.3264971E+01;  0.0000000E+00;  4.9549437E+00;0; -1.4632753E-01;  1.0003035E+04;  0.0000000E+00;  4.6988280E-05;  1.0000000E+04;  0.0000000E+00;  9.9992803E+03; -1.7339860E-01;  0.0000000E+00;  2.7071068E-02;  3.3025284E+02;
  5.5998367E-01;  9.9999998E-03;  3.0000681E-01;1927; -2.3299674E-02;  0.0000000E+00;  8.3777020E-03;  1.0002037E+03;  4.0003145E-01;  1.6878372E+02;3; -2.5119598E+01;  0.0000000E+00;  7.7128835E+00;0; -1.4738561E-01;  1.0003149E+04;  0.0000000E+00;  1.9383069E-05;  1.0000000E+04;  0.0000000E+00;  9.9993506E+03; -1.8088944E-01;  0.0000000E+00;  3.3503827E-02;  2.8348114E+02;
  5.7998437E-01;  9.9999998E-03;  1.6000193E-01;1951; -2.0829970E-02;  0.0000000E+00;  3.3975793E-03;  1.0003004E+03;  4.0008393E-01;  2.4887860E+02;3; -1.7812138E+01;  0.0000000E+00;  3.9291313E+00;0; -9.3701825E-02;  1.0002482E+04;  0.0000000E+00;  2.2618148E-07;  1.0000000E+04;  0.0000000E+00;  9.9993291E+03; -1.3318819E-01;  0.0000000E+00;  3.9486364E-02;  2.8433316E+02;
  5.7998413E-01;  9.9999998E-03;  1.8000241E-01;1952; -2.1407925E-02;  0.0000000E+00;  4.0755970E-03;  1.0002912E+03;  4.0008396E-01;  2.4127397E+02;3; -1.8681290E+01;  0.0000000E+00;  4.5051351E+00;0; -8.9343131E-02;  1.0002554E+04;  0.0000000E+00; -5.8919562E-07;  1.0000000E+04;  0.0000000E+00;  9.9990732E+03; -1.3823667E-01;  0.0000000E+00;  4.8893537E-02;  3.9823007E+02;
  5.7998389E-01;  9.9999998E-03;  2.0000292E-01;1953; -2.2079440E-02;  0.0000000E+00;  4.7465567E-03;  1.0002797E+03;  4.0008396E-01;  2.3169412E+02;3; -1.9721851E+01;  0.0000000E+00;  4.9928212E+00;0; -8.4377989E-02;  1.0002638E+04;  0.0000000E+00;  1.2041255E-07;  1.0000000E+04;  0.0000000E+00;  9.9987578E+03; -1.4422487E-01;  0.0000000E+00;  5.9846882E-02;  5.3971625E+02;
  5.7998359E-01;  9.9999998E-03;  2.2000356E-01;1954; -2.2784885E-02;  0.0000000E+00;  5.4743104E-03;  1.0002690E+03;  4.0008393E-01;  2.2280560E+02;3; -2.0938503E+01;  0.0000000E+00;  5.4319749E+00;0; -8.1138887E-02;  1.0002732E+04;  0.0000000E+00;  8.9833648E-06;  1.0000000E+04;  0.0000000E+00;  9.9984502E+03; -1.5090311E-01;  0.0000000E+00;  6.9764219E-02;  6.7962561E+02;
  5.7998317E-01;  9.9999998E-03;  2.4000433E-01;1955; -2.3659497E-02;  0.0000000E+00;  6.1181956E-03;  1.0002651E+03;  4.0008396E-01;  2.1964525E+02;3; -2.2445585E+01;  0.0000000E+00;  5.5831032E+00;0; -8.4595494E-02;  1.0002833E+04;  0.0000000E+00;  3.6215315E-05;  1.0000000E+04;  0.0000000E+00;  9.9982715E+03; -1.5800115E-01;  0.0000000E+00;  7.3405661E-02;  7.6439282E+02;
  5.7998252E-01;  9.9999998E-03;  2.6000550E-01;1956; -2.4893286E-02;  0.0000000E+00;  6.8619871E-03;  1.0002759E+03;  4.0008396E-01;  2.2853377E+02;3; -2.4734831E+01;  0.0000000E+00;  5.4841337E+00;0; -1.0174435E-01;  1.0002939E+04;  0.0000000E+00;  8.2020655E-05;  1.0000000E+04;  0.0000000E+00;  9.9983809E+03; -1.6535291E-01;  0.0000000E+00;  6.3608564E-02;  7.2531964E+02;
  5.7998115E-01;  9.9999998E-03;  2.8000730E-01;1957; -2.6877403E-02;  0.0000000E+00;  8.2164016E-03;  1.0003012E+03;  4.0008393E-01;  2.4956993E+02;3; -2.7724569E+01;  0.0000000E+00;  6.0435658E+00;0; -1.3133509E-01;  1.0003049E+04;  0.0000000E+00;  1.0425639E-04;  1.0000000E+04;  0.0000000E+00;  9.9987754E+03; -1.7277789E-01;  0.0000000E+00;  4.1442800E-02;  5.6167029E+02;
  5.7997888E-01;  9.9999998E-03;  3.0000997E-01;1958; -2.9319270E-02;  0.0000000E+00;  1.1254149E-02;  1.0003182E+03;  4.0008396E-01;  2.6359406E+02;3; -3.0696121E+01;  0.0000000E+00;  9.0951805E+00;0; -1.3961451E-01;  1.0003152E+04;  0.0000000E+00;  4.6637695E-05;  1.0000000E+04;  0.0000000E+00;  9.9990078E+03; -1.7985971E-01;  0.0000000E+00;  4.0245205E-02;  4.4402863E+02;
  5.9998155E-01;  9.9999998E-03;  1.6000247E-01;1982; -2.4143966E-02;  0.0000000E+00;  4.4355923E-03;  1.0006074E+03;  4.0021726E-01;  5.0318680E+02;3; -2.0167507E+01;  0.0000000E+00;  5.2316966E+00;0; -6.5040261E-02;  1.0002254E+04;  0.0000000E+00; -5.0056246E-07;  1.0000000E+04;  0.0000000E+00;  9.9990322E+03; -1.2138030E-01;  0.0000000E+00;  5.6340039E-02;  4.0575378E+02;
  5.9998125E-01;  9.9999998E-03;  1.8000308E-01;1983; -2.4870407E-02;  0.0000000E+00;  5.3636450E-03;  1.0005905E+03;  4.0021721E-01;  4.8926151E+02;3; -2.1167419E+01;  0.0000000E+00;  6.1228423E+00;0; -5.4529957E-02;  1.0002320E+04;  0.0000000E+00; -2.3783139E-06;  1.0000000E+04;  0.0000000E+00;  9.9986279E+03; -1.2608507E-01;  0.0000000E+00;  7.1555115E-02;  5.8591229E+02;
  5.9998083E-01;  9.9999998E-03;  2.0000380E-01;1984; -2.5710685E-02;  0.0000000E+00;  6.3344399E-03;  1.0005699E+03;  4.0021726E-01;  4.7217587E+02;3; -2.2355358E+01;  0.0000000E+00;  6.8841500E+00;0; -4.2691298E-02;  1.0002397E+04;  0.0000000E+00; -9.5260646E-07;  1.0000000E+04;  0.0000000E+00;  9.9981387E+03; -1.3136412E-01;  0.0000000E+00;  8.8672824E-02;  8.0526666E+02;
  5.9998041E-01;  9.9999998E-03;  2.2000474E-01;1985; -2.6643325E-02;  0.0000000E+00;  7.3833927E-03;  1.0005503E+03;  4.0021732E-01;  4.5588034E+02;3; -2.3781986E+01;  0.0000000E+00;  7.4555545E+00;0; -3.3332646E-02;  1.0002478E+04;  0.0000000E+00;  1.6713175E-05;  1.0000000E+04;  0.0000000E+00;  9.9976689E+03; -1.3689984E-01;  0.0000000E+00;  1.0356720E-01;  1.0183217E+03;
  5.9997988E-01;  9.9999998E-03;  2.4000612E-01;1986; -2.7703628E-02;  0.0000000E+00;  8.5820565E-03;  1.0005403E+03;  4.0021726E-01;  4.4758441E+02;3; -2.5526978E+01;  0.0000000E+00;  7.8137751E+00;0; -3.3166587E-02;  1.0002555E+04;  0.0000000E+00;  6.9699534E-05;  1.0000000E+04;  0.0000000E+00;  9.9973906E+03; -1.4247216E-01;  0.0000000E+00;  1.0930558E-01;  1.1508053E+03;
  5.9997886E-01;  9.9999998E-03;  2.6000822E-01;1987; -2.9275956E-02;  0.0000000E+00;  9.9643050E-03;  1.0005492E+03;  4.0021729E-01;  4.5499149E+02;3; -2.7869736E+01;  0.0000000E+00;  7.7348356E+00;0; -5.1463202E-02;  1.0002633E+04;  0.0000000E+00;  1.5660448E-04;  1.0000000E+04;  0.0000000E+00;  9.9974902E+03; -1.4805733E-01;  0.0000000E+00;  9.6594125E-02;  1.1219121E+03;
  5.9997714E-01;  9.9999998E-03;  2.8001153E-01;1988; -3.1795248E-02;  0.0000000E+00;  1.2280310E-02;  1.0005718E+03;  4.0021724E-01;  4.7365729E+02;3; -3.1846298E+01;  0.0000000E+00;  8.0563116E+00;0; -8.2193904E-02;  1.0002711E+04;  0.0000000E+00;  1.9974740E-04;  1.0000000E+04;  0.0000000E+00;  9.9978604E+03; -1.5365405E-01;  0.0000000E+00;  7.1460150E-02;  9.7431506E+02;
  5.9997392E-01;  9.9999998E-03;  3.0001521E-01;1989; -3.5582691E-02;  0.0000000E+00;  1.5681285E-02;  1.0005934E+03;  4.0021726E-01;  4.9163177E+02;3; -3.6415012E+01;  0.0000000E+00;  1.0688556E+01;0; -9.9152535E-02;  1.0002787E+04;  0.0000000E+00;  9.3927367E-05;  1.0000000E+04;  0.0000000E+00;  9.9982158E+03; -1.5899190E-01;  0.0000000E+00;  5.9839368E-02;  8.1169934E+02;
  6.1997890E-01;  9.9999998E-03;  1.6000307E-01;2013; -2.7245410E-02;  0.0000000E+00;  5.6829592E-03;  1.0013234E+03;  4.0052244E-01;  1.0963381E+03;3; -2.2373413E+01;  0.0000000E+00;  6.9420071E+00;0; -1.4851518E-02;  1.0001701E+04;  0.0000000E+00; -1.7135754E-06;  1.0000000E+04;  0.0000000E+00;  9.9986455E+03; -9.3044013E-02;  0.0000000E+00;  7.8192495E-02;  5.6243427E+02;
  6.1997843E-01;  9.9999998E-03;  1.8000384E-01;2014; -2.8159289E-02;  0.0000000E+00;  6.9021080E-03;  1.0012960E+03;  4.0052241E-01;  1.0737219E+03;3; -2.3530273E+01;  0.0000000E+00;  8.1076670E+00;0;  4.6181381E-03;  1.0001753E+04;  0.0000000E+00; -4.9464343E-06;  1.0000000E+04;  0.0000000E+00;  9.9980449E+03; -9.6653201E-02;  0.0000000E+00;  1.0127134E-01;  8.2967871E+02;
  6.1997795E-01;  9.9999998E-03;  2.0000485E-01;2015; -2.9194668E-02;  0.0000000E+00;  8.2812784E-03;  1.0012628E+03;  4.0052250E-01;  1.0461678E+03;3; -2.4871790E+01;  0.0000000E+00;  9.2079086E+00;0;  2.6313573E-02;  1.0001808E+04;  0.0000000E+00; -2.2416129E-06;  1.0000000E+04;  0.0000000E+00;  9.9973311E+03; -1.0029554E-01;  0.0000000E+00;  1.2660912E-01;  1.1498450E+03;
  6.1997730E-01;  9.9999998E-03;  2.2000635E-01;2016; -3.0402267E-02;  0.0000000E+00;  9.9102370E-03;  1.0012312E+03;  4.0052253E-01;  1.0199964E+03;3; -2.6490345E+01;  0.0000000E+00;  1.0087976E+01;0;  4.4676028E-02;  1.0001855E+04;  0.0000000E+00;  2.7596161E-05;  1.0000000E+04;  0.0000000E+00;  9.9966523E+03; -1.0362308E-01;  0.0000000E+00;  1.4829911E-01;  1.4588256E+03;
  6.1997640E-01;  9.9999998E-03;  2.4000888E-01;2017; -3.1897180E-02;  0.0000000E+00;  1.2014731E-02;  1.0012108E+03;  4.0052253E-01;  1.0031083E+03;3; -2.8597343E+01;  0.0000000E+00;  1.0452468E+01;0;  5.1384352E-02;  1.0001895E+04;  0.0000000E+00;  1.1390931E-04;  1.0000000E+04;  0.0000000E+00;  9.9962070E+03; -1.0650439E-01;  0.0000000E+00;  1.5788874E-01;  1.6687043E+03;
  6.1997527E-01;  9.9999998E-03;  2.6001322E-01;2018; -3.3738490E-02;  0.0000000E+00;  1.5146815E-02;  1.0012067E+03;  4.0052247E-01;  9.9965173E+02;3; -3.1582378E+01;  0.0000000E+00;  1.0362720E+01;0;  4.1324422E-02;  1.0001927E+04;  0.0000000E+00;  2.5260772E-04;  1.0000000E+04;  0.0000000E+00;  9.9960918E+03; -1.0908508E-01;  0.0000000E+00;  1.5040950E-01;  1.7395659E+03;
  6.1997330E-01;  9.9999998E-03;  2.8001890E-01;2019; -3.6603037E-02;  0.0000000E+00;  1.8968610E-02;  1.0012113E+03;  4.0052244E-01;  1.0035034E+03;3; -3.5935543E+01;  0.0000000E+00;  1.0452287E+01;0;  2.0111158E-02;  1.0001955E+04;  0.0000000E+00;  3.2039487E-04;  1.0000000E+04;  0.0000000E+00;  9.9961523E+03; -1.1158001E-01;  0.0000000E+00;  1.3169117E-01;  1.7389385E+03;
  6.1996955E-01;  9.9999998E-03;  3.0002385E-01;2020; -4.1250948E-02;  0.0000000E+00;  2.2721017E-02;  1.0012299E+03;  4.0052250E-01;  1.0189100E+03;3; -4.1877949E+01;  0.0000000E+00;  1.2390961E+01;0; -2.0882934E-03;  1.0001983E+04;  0.0000000E+00;  1.5623940E-04;  1.0000000E+04;  0.0000000E+00;  9.9964922E+03; -1.1393338E-01;  0.0000000E+00;  1.1184508E-01;  1.5957771E+03;
  6.3997656E-01;  9.9999998E-03;  1.6000377E-01;2044; -2.9994473E-02;  0.0000000E+00;  7.1182824E-03;  1.0026525E+03;  4.0108144E-01;  2.1973987E+03;3; -2.4263710E+01;  0.0000000E+00;  8.8102322E+00;0;  5.8421161E-02;  1.0000804E+04;  0.0000000E+00; -2.8862789E-06;  1.0000000E+04;  0.0000000E+00;  9.9981875E+03; -4.5919698E-02;  0.0000000E+00;  1.0434086E-01;  7.4826178E+02;
  6.3997597E-01;  9.9999998E-03;  1.8000479E-01;2045; -3.1034663E-02;  0.0000000E+00;  8.7533854E-03;  1.0026118E+03;  4.0108132E-01;  2.1638203E+03;3; -2.5518921E+01;  0.0000000E+00;  1.0423747E+01;0;  8.9265898E-02;  1.0000830E+04;  0.0000000E+00; -7.1677982E-06;  1.0000000E+04;  0.0000000E+00;  9.9973516E+03; -4.7696587E-02;  0.0000000E+00;  1.3696249E-01;  1.1190326E+03;
  6.3997525E-01;  9.9999998E-03;  2.0000625E-01;2046; -3.2314621E-02;  0.0000000E+00;  1.0705032E-02;  1.0025637E+03;  4.0108132E-01;  2.1239216E+03;3; -2.7003098E+01;  0.0000000E+00;  1.1943480E+01;0;  1.2331635E-01;  1.0000850E+04;  0.0000000E+00; -2.8036611E-06;  1.0000000E+04;  0.0000000E+00;  9.9963701E+03; -4.8915964E-02;  0.0000000E+00;  1.7223231E-01;  1.5585267E+03;
  6.3997442E-01;  9.9999998E-03;  2.2000889E-01;2047; -3.3752747E-02;  0.0000000E+00;  1.3556257E-02;  1.0025163E+03;  4.0108144E-01;  2.0846152E+03;3; -2.8759480E+01;  0.0000000E+00;  1.3414106E+01;0;  1.5364984E-01;  1.0000854E+04;  0.0000000E+00;  3.8564853E-05;  1.0000000E+04;  0.0000000E+00;  9.9954248E+03; -4.9264081E-02;  0.0000000E+00;  2.0291393E-01;  1.9875143E+03;
  6.3997346E-01;  9.9999998E-03;  2.4001391E-01;2048; -3.5278756E-02;  0.0000000E+00;  1.8165851E-02;  1.0024781E+03;  4.0108144E-01;  2.0530122E+03;3; -3.0995716E+01;  0.0000000E+00;  1.4825067E+01;0;  1.7457598E-01;  1.0000843E+04;  0.0000000E+00;  1.5413319E-04;  1.0000000E+04;  0.0000000E+00;  9.9946729E+03; -4.8713915E-02;  0.0000000E+00;  2.2328991E-01;  2.3349922E+03;
  6.3997251E-01;  9.9999998E-03;  2.6002195E-01;2049; -3.7079930E-02;  0.0000000E+00;  2.4555715E-02;  1.0024432E+03;  4.0108144E-01;  2.0240757E+03;3; -3.4178123E+01;  0.0000000E+00;  1.5571979E+01;0;  1.9074090E-01;  1.0000819E+04;  0.0000000E+00;  3.3595428E-04;  1.0000000E+04;  0.0000000E+00;  9.9939951E+03; -4.7545429E-02;  0.0000000E+00;  2.3828633E-01;  2.6542297E+03;
  6.3997066E-01;  9.9999998E-03;  2.8003100E-01;2050; -4.0135734E-02;  0.0000000E+00;  3.0073550E-02;  1.0024023E+03;  4.0108144E-01;  1.9902012E+03;3; -3.9420372E+01;  0.0000000E+00;  1.4245954E+01;0;  1.9950250E-01;  1.0000790E+04;  0.0000000E+00;  4.2395192E-04;  1.0000000E+04;  0.0000000E+00;  9.9932100E+03; -4.6153091E-02;  0.0000000E+00;  2.4565558E-01;  3.0391626E+03;
  6.3996655E-01;  9.9999998E-03;  3.0003715E-01;2051; -4.5346931E-02;  0.0000000E+00;  3.3349209E-02;  1.0024086E+03;  4.0108147E-01;  1.9954354E+03;3; -4.6107872E+01;  0.0000000E+00;  1.4641665E+01;0;  1.7033993E-01;  1.0000762E+04;  0.0000000E+00;  2.0940833E-04;  1.0000000E+04;  0.0000000E+00;  9.9933623E+03; -4.4742808E-02;  0.0000000E+00;  2.1508273E-01;  3.0063030E+03;
  6.5997487E-01;  9.9999998E-03;  1.6000463E-01;2075; -3.2102741E-02;  0.0000000E+00;  8.8457549E-03;  1.0043223E+03;  4.0178320E-01;  3.5807817E+03;3; -2.5863764E+01;  0.0000000E+00;  1.1079426E+01;0;  1.5106344E-01;  9.9996182E+03;  0.0000000E+00; -3.2810394E-06;  1.0000000E+04;  0.0000000E+00;  9.9976904E+03;  1.8162441E-02;  0.0000000E+00;  1.3290100E-01;  9.4873083E+02;
  6.5997422E-01;  9.9999998E-03;  1.8000598E-01;2076; -3.3264022E-02;  0.0000000E+00;  1.1041082E-02;  1.0042674E+03;  4.0178320E-01;  3.5353530E+03;3; -2.7177944E+01;  0.0000000E+00;  1.3300052E+01;0;  1.9458194E-01;  9.9996123E+03;  0.0000000E+00; -7.6698998E-06;  1.0000000E+04;  0.0000000E+00;  9.9966016E+03;  1.8700693E-02;  0.0000000E+00;  1.7588125E-01;  1.4305073E+03;
  6.5997332E-01;  9.9999998E-03;  2.0000824E-01;2077; -3.4662958E-02;  0.0000000E+00;  1.4087389E-02;  1.0042026E+03;  4.0178323E-01;  3.4816284E+03;3; -2.8693727E+01;  0.0000000E+00;  1.5717254E+01;0;  2.4234344E-01;  9.9995918E+03;  0.0000000E+00; -2.0537593E-06;  1.0000000E+04;  0.0000000E+00;  9.9953301E+03;  2.0267412E-02;  0.0000000E+00;  2.2207603E-01;  1.9985057E+03;
  6.5997243E-01;  9.9999998E-03;  2.2001265E-01;2078; -3.6185324E-02;  0.0000000E+00;  1.9060748E-02;  1.0041378E+03;  4.0178329E-01;  3.4280024E+03;3; -3.0455494E+01;  0.0000000E+00;  1.8597282E+01;0;  2.8701451E-01;  9.9995508E+03;  0.0000000E+00;  4.3925600E-05;  1.0000000E+04;  0.0000000E+00;  9.9940801E+03;  2.3065327E-02;  0.0000000E+00;  2.6394919E-01;  2.5640095E+03;
  6.5997159E-01;  9.9999998E-03;  2.4002089E-01;2079; -3.7587345E-02;  0.0000000E+00;  2.7190249E-02;  1.0040768E+03;  4.0178332E-01;  3.3774382E+03;3; -3.2509384E+01;  0.0000000E+00;  2.1916475E+01;0;  3.2832778E-01;  9.9994922E+03;  0.0000000E+00;  1.6751606E-04;  1.0000000E+04;  0.0000000E+00;  9.9929199E+03;  2.7023578E-02;  0.0000000E+00;  3.0130419E-01;  3.0900767E+03;
  6.5997100E-01;  9.9999998E-03;  2.6003370E-01;2080; -3.8878515E-02;  0.0000000E+00;  3.7907273E-02;  1.0039966E+03;  4.0178335E-01;  3.3109739E+03;3; -3.5400219E+01;  0.0000000E+00;  2.3933262E+01;0;  3.8666674E-01;  9.9994180E+03;  0.0000000E+00;  3.5766306E-04;  1.0000000E+04;  0.0000000E+00;  9.9913965E+03;  3.1833645E-02;  0.0000000E+00;  3.5483310E-01;  3.7750547E+03;
  6.5996951E-01;  9.9999998E-03;  2.8004646E-01;2081; -4.1649245E-02;  0.0000000E+00;  4.4769958E-02;  1.0038927E+03;  4.0178341E-01;  3.2248564E+03;3; -4.0881821E+01;  0.0000000E+00;  1.9985834E+01;0;  4.3894854E-01;  9.9993369E+03;  0.0000000E+00;  4.4673044E-04;  1.0000000E+04;  0.0000000E+00;  9.9894053E+03;  3.7045915E-02;  0.0000000E+00;  4.0190262E-01;  4.7068823E+03;
  6.5996575E-01;  9.9999998E-03;  3.0005336E-01;2082; -4.6981063E-02;  0.0000000E+00;  4.6486367E-02;  1.0038840E+03;  4.0178341E-01;  3.2176472E+03;3; -4.8535011E+01;  0.0000000E+00;  1.7303242E+01;0;  3.9856786E-01;  9.9992549E+03;  0.0000000E+00;  2.2094029E-04;  1.0000000E+04;  0.0000000E+00;  9.9893135E+03;  4.2191342E-02;  0.0000000E+00;  3.5637653E-01;  4.8208511E+03;
  6.7997468E-01;  9.9999998E-03;  1.6000552E-01;2106; -3.2705434E-02;  0.0000000E+00;  1.0778191E-02;  1.0056299E+03;  4.0234244E-01;  4.6639922E+03;3; -2.6653509E+01;  0.0000000E+00;  1.3771576E+01;0;  2.5272250E-01;  9.9983057E+03;  0.0000000E+00; -2.6428227E-06;  1.0000000E+04;  0.0000000E+00;  9.9972021E+03;  9.1566123E-02;  0.0000000E+00;  1.6115639E-01;  1.1442545E+03;
  6.7997402E-01;  9.9999998E-03;  1.8000722E-01;2107; -3.3912890E-02;  0.0000000E+00;  1.3589517E-02;  1.0055611E+03;  4.0234241E-01;  4.6070093E+03;3; -2.8061722E+01;  0.0000000E+00;  1.6723297E+01;0;  3.0861622E-01;  9.9982695E+03;  0.0000000E+00; -6.1312849E-06;  1.0000000E+04;  0.0000000E+00;  9.9958682E+03;  9.4484039E-02;  0.0000000E+00;  2.1413217E-01;  1.7329042E+03;
  6.7997319E-01;  9.9999998E-03;  2.0001023E-01;2108; -3.5373081E-02;  0.0000000E+00;  1.7679775E-02;  1.0054806E+03;  4.0234253E-01;  4.5403486E+03;3; -2.9703176E+01;  0.0000000E+00;  2.0097149E+01;0;  3.6944744E-01;  9.9982129E+03;  0.0000000E+00; -5.7403156E-07;  1.0000000E+04;  0.0000000E+00;  9.9943232E+03;  9.8654859E-02;  0.0000000E+00;  2.7079257E-01;  2.4238425E+03;
  6.7997235E-01;  9.9999998E-03;  2.2001630E-01;2109; -3.6811702E-02;  0.0000000E+00;  2.4721738E-02;  1.0053996E+03;  4.0234259E-01;  4.4731938E+03;3; -3.1428272E+01;  0.0000000E+00;  2.4527050E+01;0;  4.2738083E-01;  9.9981367E+03;  0.0000000E+00;  3.9805360E-05;  1.0000000E+04;  0.0000000E+00;  9.9927832E+03;  1.0410873E-01;  0.0000000E+00;  3.2327211E-01;  3.1181821E+03;
  6.7997175E-01;  9.9999998E-03;  2.4002755E-01;2110; -3.7917603E-02;  0.0000000E+00;  3.6258962E-02;  1.0053179E+03;  4.0234262E-01;  4.4055454E+03;3; -3.3306866E+01;  0.0000000E+00;  2.9977398E+01;0;  4.8732084E-01;  9.9980439E+03;  0.0000000E+00;  1.4453493E-04;  1.0000000E+04;  0.0000000E+00;  9.9912490E+03;  1.1069383E-01;  0.0000000E+00;  3.7662700E-01;  3.8072041E+03;
  6.7997158E-01;  9.9999998E-03;  2.6004446E-01;2111; -3.8603868E-02;  0.0000000E+00;  5.0790321E-02;  1.0052001E+03;  4.0234274E-01;  4.3079736E+03;3; -3.5650890E+01;  0.0000000E+00;  3.3208073E+01;0;  5.8231902E-01;  9.9979375E+03;  0.0000000E+00;  3.0172904E-04;  1.0000000E+04;  0.0000000E+00;  9.9890078E+03;  1.1816525E-01;  0.0000000E+00;  4.6415374E-01;  4.7995029E+03;
  6.7997062E-01;  9.9999998E-03;  2.8006035E-01;2112; -4.0691193E-02;  0.0000000E+00;  5.8493346E-02;  1.0050463E+03;  4.0234292E-01;  4.1804785E+03;3; -4.0530254E+01;  0.0000000E+00;  2.6236563E+01;0;  6.6857028E-01;  9.9978184E+03;  0.0000000E+00;  3.7102730E-04;  1.0000000E+04;  0.0000000E+00;  9.9860586E+03;  1.2615055E-01;  0.0000000E+00;  5.4241973E-01;  6.1678940E+03;
  6.7996812E-01;  9.9999998E-03;  3.0006763E-01;2113; -4.4435758E-02;  0.0000000E+00;  5.8261096E-02;  1.0050345E+03;  4.0234289E-01;  4.1707017E+03;3; -4.6925804E+01;  0.0000000E+00;  2.0058199E+01;0;  6.0692251E-01;  9.9977012E+03;  0.0000000E+00;  1.8947564E-04;  1.0000000E+04;  0.0000000E+00;  9.9859385E+03;  1.3396090E-01;  0.0000000E+00;  4.7296157E-01;  6.3348047E+03;
  6.9997746E-01;  9.9999998E-03;  1.6000636E-01;2137; -3.0208427E-02;  0.0000000E+00;  1.2576874E-02;  1.0063122E+03;  4.0264791E-01;  5.2291709E+03;3; -2.5929735E+01;  0.0000000E+00;  1.6343021E+01;0;  3.4752557E-01;  9.9971162E+03;  0.0000000E+00; -1.4340148E-06;  1.0000000E+04;  0.0000000E+00;  9.9967715E+03;  1.6117711E-01;  0.0000000E+00;  1.8634845E-01;  1.3162227E+03;
  6.9997686E-01;  9.9999998E-03;  1.8000834E-01;2138; -3.1307939E-02;  0.0000000E+00;  1.5905790E-02;  1.0062314E+03;  4.0264800E-01;  5.1622153E+03;3; -2.7307138E+01;  0.0000000E+00;  1.9938679E+01;0;  4.1397268E-01;  9.9970518E+03;  0.0000000E+00; -3.6105466E-06;  1.0000000E+04;  0.0000000E+00;  9.9952285E+03;  1.6610539E-01;  0.0000000E+00;  2.4786730E-01;  1.9971588E+03;
  6.9997621E-01;  9.9999998E-03;  2.0001195E-01;2139; -3.2552604E-02;  0.0000000E+00;  2.0897035E-02;  1.0061379E+03;  4.0264806E-01;  5.0846924E+03;3; -2.8851370E+01;  0.0000000E+00;  2.4181959E+01;0;  4.8560178E-01;  9.9969717E+03;  0.0000000E+00;  4.3245504E-07;  1.0000000E+04;  0.0000000E+00;  9.9934443E+03;  1.7224298E-01;  0.0000000E+00;  3.1335878E-01;  2.7937031E+03;
  6.9997561E-01;  9.9999998E-03;  2.2001918E-01;2140; -3.3711106E-02;  0.0000000E+00;  2.9413220E-02;  1.0060438E+03;  4.0264815E-01;  5.0067749E+03;3; -3.0398756E+01;  0.0000000E+00;  2.9740065E+01;0;  5.5358958E-01;  9.9968750E+03;  0.0000000E+00;  2.8327335E-05;  1.0000000E+04;  0.0000000E+00;  9.9916689E+03;  1.7942001E-01;  0.0000000E+00;  3.7416959E-01;  3.5935698E+03;
  6.9997519E-01;  9.9999998E-03;  2.4003235E-01;2141; -3.4451608E-02;  0.0000000E+00;  4.3113604E-02;  1.0059489E+03;  4.0264833E-01;  4.9281660E+03;3; -3.1792191E+01;  0.0000000E+00;  3.6514317E+01;0;  6.2474316E-01;  9.9967666E+03;  0.0000000E+00;  9.9620076E-05;  1.0000000E+04;  0.0000000E+00;  9.9898877E+03;  1.8740870E-01;  0.0000000E+00;  4.3733448E-01;  4.3922163E+03;
  6.9997519E-01;  9.9999998E-03;  2.6005182E-01;2142; -3.4701850E-02;  0.0000000E+00;  5.9835054E-02;  1.0058120E+03;  4.0264833E-01;  4.8146968E+03;3; -3.3300484E+01;  0.0000000E+00;  4.0213245E+01;0;  7.3703444E-01;  9.9966475E+03;  0.0000000E+00;  2.0483593E-04;  1.0000000E+04;  0.0000000E+00;  9.9872793E+03;  1.9604094E-01;  0.0000000E+00;  5.4099351E-01;  5.5438545E+03;
  6.9997489E-01;  9.9999998E-03;  2.8006956E-01;2143; -3.5567489E-02;  0.0000000E+00;  6.7736603E-02;  1.0056395E+03;  4.0264854E-01;  4.6717983E+03;3; -3.6433750E+01;  0.0000000E+00;  3.0930941E+01;0;  8.3118474E-01;  9.9965195E+03;  0.0000000E+00;  2.5279593E-04;  1.0000000E+04;  0.0000000E+00;  9.9839678E+03;  2.0504625E-01;  0.0000000E+00;  6.2613851E-01;  7.0830000E+03;
  6.9997436E-01;  9.9999998E-03;  3.0007708E-01;2144; -3.6088999E-02;  0.0000000E+00;  6.6245101E-02;  1.0056398E+03;  4.0264866E-01;  4.6720947E+03;3; -3.8674473E+01;  0.0000000E+00;  2.2475796E+01;0;  7.4382168E-01;  9.9963965E+03;  0.0000000E+00;  1.4319166E-04;  1.0000000E+04;  0.0000000E+00;  9.9840918E+03;  2.1366499E-01;  0.0000000E+00;  5.3015667E-01;  7.1690488E+03;
  7.1998382E-01;  9.9999998E-03;  1.6000703E-01;2168; -2.2148859E-02;  0.0000000E+00;  1.3965798E-02;  1.0065869E+03;  4.0278143E-01;  5.4565522E+03;3; -1.9710699E+01;  0.0000000E+00;  1.8238295E+01;0;  4.1896504E-01;  9.9962852E+03;  0.0000000E+00; -4.2475807E-07;  1.0000000E+04;  0.0000000E+00;  9.9964307E+03;  2.1245828E-01;  0.0000000E+00;  2.0650674E-01;  1.4524083E+03;
  7.1998334E-01;  9.9999998E-03;  1.8000920E-01;2169; -2.3056045E-02;  0.0000000E+00;  1.7636584E-02;  1.0064973E+03;  4.0278149E-01;  5.3822910E+03;3; -2.0880886E+01;  0.0000000E+00;  2.2234631E+01;0;  4.9322712E-01;  9.9962041E+03;  0.0000000E+00; -1.4862599E-06;  1.0000000E+04;  0.0000000E+00;  9.9947256E+03;  2.1875490E-01;  0.0000000E+00;  2.7447224E-01;  2.2046572E+03;
  7.1998280E-01;  9.9999998E-03;  2.0001313E-01;2170; -2.4070108E-02;  0.0000000E+00;  2.3084264E-02;  1.0063937E+03;  4.0278164E-01;  5.2965737E+03;3; -2.2190720E+01;  0.0000000E+00;  2.6912016E+01;0;  5.7249045E-01;  9.9961104E+03;  0.0000000E+00;  6.0673716E-07;  1.0000000E+04;  0.0000000E+00;  9.9927578E+03;  2.2603449E-01;  0.0000000E+00;  3.4645596E-01;  3.0824172E+03;
  7.1998227E-01;  9.9999998E-03;  2.2002091E-01;2171; -2.5037492E-02;  0.0000000E+00;  3.2256071E-02;  1.0062911E+03;  4.0278172E-01;  5.2115483E+03;3; -2.3507832E+01;  0.0000000E+00;  3.2926018E+01;0;  6.4636999E-01;  9.9960078E+03;  0.0000000E+00;  1.5742753E-05;  1.0000000E+04;  0.0000000E+00;  9.9908164E+03;  2.3394547E-01;  0.0000000E+00;  4.1242450E-01;  3.9577832E+03;
  7.1998191E-01;  9.9999998E-03;  2.4003500E-01;2172; -2.5750764E-02;  0.0000000E+00;  4.6853691E-02;  1.0061902E+03;  4.0278175E-01;  5.1279053E+03;3; -2.4717651E+01;  0.0000000E+00;  4.0031021E+01;0;  7.2063661E-01;  9.9959014E+03;  0.0000000E+00;  5.5629025E-05;  1.0000000E+04;  0.0000000E+00;  9.9889150E+03;  2.4217428E-01;  0.0000000E+00;  4.7846231E-01;  4.8123325E+03;
  7.1998173E-01;  9.9999998E-03;  2.6005575E-01;2173; -2.6053710E-02;  0.0000000E+00;  6.4475015E-02;  1.0060496E+03;  4.0278196E-01;  5.0114761E+03;3; -2.5771097E+01;  0.0000000E+00;  4.3490940E+01;0;  8.3307278E-01;  9.9957881E+03;  0.0000000E+00;  1.1539844E-04;  1.0000000E+04;  0.0000000E+00;  9.9862305E+03;  2.5056449E-01;  0.0000000E+00;  5.8250833E-01;  6.0020688E+03;
  7.1998179E-01;  9.9999998E-03;  2.8007454E-01;2174; -2.5966268E-02;  0.0000000E+00;  7.2406121E-02;  1.0058796E+03;  4.0278217E-01;  4.8706558E+03;3; -2.6711542E+01;  0.0000000E+00;  3.2717171E+01;0;  9.1682279E-01;  9.9956748E+03;  0.0000000E+00;  1.4576396E-04;  1.0000000E+04;  0.0000000E+00;  9.9829561E+03;  2.5891721E-01;  0.0000000E+00;  6.5790558E-01;  7.5392246E+03;
  7.1998203E-01;  9.9999998E-03;  3.0008262E-01;2175; -2.5449345E-02;  0.0000000E+00;  7.0968576E-02;  1.0058933E+03;  4.0278217E-01;  4.8820122E+03;3; -2.7360271E+01;  0.0000000E+00;  2.4079891E+01;0;  8.1246555E-01;  9.9955654E+03;  0.0000000E+00;  8.2047503E-05;  1.0000000E+04;  0.0000000E+00;  9.9833359E+03;  2.6667225E-01;  0.0000000E+00;  5.4579329E-01;  7.5206553E+03;
  7.3999006E-01;  9.9999998E-03;  1.6000752E-01;2199; -1.3716334E-02;  0.0000000E+00;  1.4926444E-02;  1.0066884E+03;  4.0283397E-01;  5.5403862E+03;3; -1.2398684E+01;  0.0000000E+00;  1.9493740E+01;0;  4.5780778E-01;  9.9959316E+03;  0.0000000E+00;  5.6604009E-08;  1.0000000E+04;  0.0000000E+00;  9.9961885E+03;  2.3693259E-01;  0.0000000E+00;  2.2087520E-01;  1.5489606E+03;
  7.3998976E-01;  9.9999998E-03;  1.8000980E-01;2200; -1.4351002E-02;  0.0000000E+00;  1.8788381E-02;  1.0065927E+03;  4.0283406E-01;  5.4611899E+03;3; -1.3210754E+01;  0.0000000E+00;  2.3693150E+01;0;  5.3699958E-01;  9.9958438E+03;  0.0000000E+00; -3.4215944E-07;  1.0000000E+04;  0.0000000E+00;  9.9943711E+03;  2.4390444E-01;  0.0000000E+00;  2.9309514E-01;  2.3500728E+03;
  7.3998934E-01;  9.9999998E-03;  2.0001388E-01;2201; -1.5047736E-02;  0.0000000E+00;  2.4430741E-02;  1.0064828E+03;  4.0283418E-01;  5.3701436E+03;3; -1.4097653E+01;  0.0000000E+00;  2.8513527E+01;0;  6.2088770E-01;  9.9957480E+03;  0.0000000E+00;  3.5747976E-07;  1.0000000E+04;  0.0000000E+00;  9.9922813E+03;  2.5157547E-01;  0.0000000E+00;  3.6931223E-01;  3.2838379E+03;
  7.3998904E-01;  9.9999998E-03;  2.2002187E-01;2202; -1.5706470E-02;  0.0000000E+00;  3.3818528E-02;  1.0063748E+03;  4.0283427E-01;  5.2806772E+03;3; -1.4976482E+01;  0.0000000E+00;  3.4561378E+01;0;  6.9762242E-01;  9.9956484E+03;  0.0000000E+00;  6.4012406E-06;  1.0000000E+04;  0.0000000E+00;  9.9902305E+03;  2.5945655E-01;  0.0000000E+00;  4.3816590E-01;  4.2090430E+03;
  7.3998874E-01;  9.9999998E-03;  2.4003635E-01;2203; -1.6190471E-02;  0.0000000E+00;  4.8651058E-02;  1.0062719E+03;  4.0283442E-01;  5.1954575E+03;3; -1.5753827E+01;  0.0000000E+00;  4.1491215E+01;0;  7.7099466E-01;  9.9955518E+03;  0.0000000E+00;  2.3437044E-05;  1.0000000E+04;  0.0000000E+00;  9.9882793E+03;  2.6714221E-01;  0.0000000E+00;  5.0385243E-01;  5.0894111E+03;
  7.3998863E-01;  9.9999998E-03;  2.6005769E-01;2204; -1.6376808E-02;  0.0000000E+00;  6.6515550E-02;  1.0061345E+03;  4.0283459E-01;  5.0816006E+03;3; -1.6360781E+01;  0.0000000E+00;  4.4535202E+01;0;  8.7664568E-01;  9.9954551E+03;  0.0000000E+00;  5.0075305E-05;  1.0000000E+04;  0.0000000E+00;  9.9856387E+03;  2.7444038E-01;  0.0000000E+00;  6.0220534E-01;  6.2654014E+03;
  7.3998868E-01;  9.9999998E-03;  2.8007710E-01;2205; -1.6219312E-02;  0.0000000E+00;  7.4694261E-02;  1.0059727E+03;  4.0283471E-01;  4.9475986E+03;3; -1.6778997E+01;  0.0000000E+00;  3.3419582E+01;0;  9.4755405E-01;  9.9953662E+03;  0.0000000E+00;  6.3131774E-05;  1.0000000E+04;  0.0000000E+00;  9.9825117E+03;  2.8123671E-01;  0.0000000E+00;  6.6631734E-01;  7.7458901E+03;
  7.3998892E-01;  9.9999998E-03;  3.0008572E-01;2206; -1.5788190E-02;  0.0000000E+00;  7.3655680E-02;  1.0059988E+03;  4.0283477E-01;  4.9691260E+03;3; -1.7044167E+01;  0.0000000E+00;  2.5144196E+01;0;  8.3152258E-01;  9.9952832E+03;  0.0000000E+00;  2.7442493E-05;  1.0000000E+04;  0.0000000E+00;  9.9831055E+03;  2.8733191E-01;  0.0000000E+00;  5.4419070E-01;  7.6345161E+03;
  7.5999492E-01;  9.9999998E-03;  1.6000783E-01;2230; -7.1438900E-03;  0.0000000E+00;  1.5560393E-02;  1.0067339E+03;  4.0285382E-01;  5.5778301E+03;3; -6.6434994E+00;  0.0000000E+00;  2.0314247E+01;0;  4.6618068E-01;  9.9960010E+03;  0.0000000E+00;  1.3584392E-07;  1.0000000E+04;  0.0000000E+00;  9.9960381E+03;  2.3640046E-01;  0.0000000E+00;  2.2978023E-01;  1.6087317E+03;
  7.5999469E-01;  9.9999998E-03;  1.8001017E-01;2231; -7.5234305E-03;  0.0000000E+00;  1.9521158E-02;  1.0066350E+03;  4.0285388E-01;  5.4958730E+03;3; -7.1238222E+00;  0.0000000E+00;  2.4610811E+01;0;  5.4783487E-01;  9.9959150E+03;  0.0000000E+00;  4.3109512E-08;  1.0000000E+04;  0.0000000E+00;  9.9941563E+03;  2.4346831E-01;  0.0000000E+00;  3.0436653E-01;  2.4385598E+03;
  7.5999451E-01;  9.9999998E-03;  2.0001431E-01;2232; -7.9258662E-03;  0.0000000E+00;  2.5236337E-02;  1.0065215E+03;  4.0285408E-01;  5.4019678E+03;3; -7.6259737E+00;  0.0000000E+00;  2.9462408E+01;0;  6.3395828E-01;  9.9958223E+03;  0.0000000E+00;  1.4312612E-07;  1.0000000E+04;  0.0000000E+00;  9.9919902E+03;  2.5098073E-01;  0.0000000E+00;  3.8297755E-01;  3.4059307E+03;
  7.5999433E-01;  9.9999998E-03;  2.2002241E-01;2233; -8.2921972E-03;  0.0000000E+00;  3.4668960E-02;  1.0064107E+03;  4.0285414E-01;  5.3101362E+03;3; -8.0974674E+00;  0.0000000E+00;  3.5434887E+01;0;  7.1169960E-01;  9.9957314E+03;  0.0000000E+00;  1.6261132E-06;  1.0000000E+04;  0.0000000E+00;  9.9898760E+03;  2.5836629E-01;  0.0000000E+00;  4.5333335E-01;  4.3606685E+03;
  7.5999415E-01;  9.9999998E-03;  2.4003702E-01;2234; -8.5447449E-03;  0.0000000E+00;  4.9509924E-02;  1.0063073E+03;  4.0285423E-01;  5.2244268E+03;3; -8.4831333E+00;  0.0000000E+00;  4.2129234E+01;0;  7.8319865E-01;  9.9956436E+03;  0.0000000E+00;  6.2810723E-06;  1.0000000E+04;  0.0000000E+00;  9.9879043E+03;  2.6514804E-01;  0.0000000E+00;  5.1805061E-01;  5.2523125E+03;
  7.5999409E-01;  9.9999998E-03;  2.6005858E-01;2235; -8.6145680E-03;  0.0000000E+00;  6.7398094E-02;  1.0061738E+03;  4.0285441E-01;  5.1138340E+03;3; -8.7444992E+00;  0.0000000E+00;  4.4852924E+01;0;  8.8213140E-01;  9.9955693E+03;  0.0000000E+00;  1.3773792E-05;  1.0000000E+04;  0.0000000E+00;  9.9853262E+03;  2.7109838E-01;  0.0000000E+00;  6.1103302E-01;  6.4054585E+03;
  7.5999415E-01;  9.9999998E-03;  2.8007838E-01;2236; -8.4794192E-03;  0.0000000E+00;  7.5773902E-02;  1.0060202E+03;  4.0285456E-01;  4.9866523E+03;3; -8.8764296E+00;  0.0000000E+00;  3.3701424E+01;0;  9.4273758E-01;  9.9955029E+03;  0.0000000E+00;  1.6046672E-05;  1.0000000E+04;  0.0000000E+00;  9.9823350E+03;  2.7619451E-01;  0.0000000E+00;  6.6654307E-01;  7.8297871E+03;
  7.5999433E-01;  9.9999998E-03;  3.0008733E-01;2237; -8.1831822E-03;  0.0000000E+00;  7.5130478E-02;  1.0060547E+03;  4.0285456E-01;  5.0152876E+03;3; -8.9060993E+00;  0.0000000E+00;  2.5883095E+01;0;  8.1947827E-01;  9.9954443E+03;  0.0000000E+00; -1.9296881E-07;  1.0000000E+04;  0.0000000E+00;  9.9830781E+03;  2.8054097E-01;  0.0000000E+00;  5.3893727E-01;  7.6522441E+03;
  7.7999848E-01;  9.9999998E-03;  1.6000801E-01;2261; -2.2962929E-03;  0.0000000E+00;  1.5900034E-02;  1.0067649E+03;  4.0286115E-01;  5.6031265E+03;3; -2.3344841E+00;  0.0000000E+00;  2.0747200E+01;0;  4.5394728E-01;  9.9963271E+03;  0.0000000E+00;  6.7162041E-08;  1.0000000E+04;  0.0000000E+00;  9.9959658E+03;  2.1982734E-01;  0.0000000E+00;  2.3411994E-01;  1.6376615E+03;
  7.7999836E-01;  9.9999998E-03;  1.8001038E-01;2262; -2.4529446E-03;  0.0000000E+00;  1.9895563E-02;  1.0066647E+03;  4.0286118E-01;  5.5201875E+03;3; -2.5285399E+00;  0.0000000E+00;  2.5070135E+01;0;  5.3624946E-01;  9.9962441E+03;  0.0000000E+00;  6.2266594E-08;  1.0000000E+04;  0.0000000E+00;  9.9940566E+03;  2.2660992E-01;  0.0000000E+00;  3.0963954E-01;  2.4799988E+03;
  7.7999830E-01;  9.9999998E-03;  2.0001452E-01;2263; -2.6051737E-03;  0.0000000E+00;  2.5616594E-02;  1.0065498E+03;  4.0286136E-01;  5.4250049E+03;3; -2.7108839E+00;  0.0000000E+00;  2.9899044E+01;0;  6.2291586E-01;  9.9961582E+03;  0.0000000E+00;  4.2736417E-08;  1.0000000E+04;  0.0000000E+00;  9.9918545E+03;  2.3365512E-01;  0.0000000E+00;  3.8926071E-01;  3.4626772E+03;
  7.7999824E-01;  9.9999998E-03;  2.2002263E-01;2264; -2.7275325E-03;  0.0000000E+00;  3.5023756E-02;  1.0064379E+03;  4.0286145E-01;  5.3322910E+03;3; -2.8559582E+00;  0.0000000E+00;  3.5782768E+01;0;  7.0058513E-01;  9.9960752E+03;  0.0000000E+00;  8.5749832E-08;  1.0000000E+04;  0.0000000E+00;  9.9897090E+03;  2.4036193E-01;  0.0000000E+00;  4.6022323E-01;  4.4310029E+03;
  7.7999818E-01;  9.9999998E-03;  2.4003726E-01;2265; -2.7925142E-03;  0.0000000E+00;  4.9809951E-02;  1.0063347E+03;  4.0286154E-01;  5.2467847E+03;3; -2.9433908E+00;  0.0000000E+00;  4.2310486E+01;0;  7.7040988E-01;  9.9960029E+03;  0.0000000E+00;  3.6327873E-07;  1.0000000E+04;  0.0000000E+00;  9.9877295E+03;  2.4622135E-01;  0.0000000E+00;  5.2418852E-01;  5.3261284E+03;
  7.7999818E-01;  9.9999998E-03;  2.6005891E-01;2266; -2.7781050E-03;  0.0000000E+00;  6.7676529E-02;  1.0062042E+03;  4.0286171E-01;  5.1386680E+03;3; -2.9627948E+00;  0.0000000E+00;  4.4880924E+01;0;  8.6490810E-01;  9.9959414E+03;  0.0000000E+00;  7.0260063E-07;  1.0000000E+04;  0.0000000E+00;  9.9851943E+03;  2.5098544E-01;  0.0000000E+00;  6.1392266E-01;  6.4622622E+03;
  7.7999824E-01;  9.9999998E-03;  2.8007886E-01;2267; -2.6809464E-03;  0.0000000E+00;  7.6207198E-02;  1.0060555E+03;  4.0286192E-01;  5.0156416E+03;3; -2.9186606E+00;  0.0000000E+00;  3.3843826E+01;0;  9.1968191E-01;  9.9958945E+03;  0.0000000E+00; -2.9009030E-07;  1.0000000E+04;  0.0000000E+00;  9.9822852E+03;  2.5468513E-01;  0.0000000E+00;  6.6499680E-01;  7.8514209E+03;
  7.7999830E-01;  9.9999998E-03;  3.0008805E-01;2268; -2.5200092E-03;  0.0000000E+00;  7.5864583E-02;  1.0060947E+03;  4.0286186E-01;  5.0480273E+03;3; -2.8254535E+00;  0.0000000E+00;  2.6402756E+01;0;  7.9332042E-01;  9.9958564E+03;  0.0000000E+00; -4.8949296E-06;  1.0000000E+04;  0.0000000E+00;  9.9830977E+03;  2.5757965E-01;  0.0000000E+00;  5.3574073E-01;  7.6413853E+03;
  8.0000120E-01;  9.9999998E-03;  1.6000806E-01;2292;  1.5228802E-03;  0.0000000E+00;  1.5983230E-02;  1.0067885E+03;  4.0286273E-01;  5.6221650E+03;3;  1.1172050E+00;  0.0000000E+00;  2.0846283E+01;0;  4.3221968E-01;  9.9967314E+03;  0.0000000E+00; -5.5552398E-09;  1.0000000E+04;  0.0000000E+00;  9.9959551E+03;  1.9738989E-01;  0.0000000E+00;  2.3482981E-01;  1.6414296E+03;
  8.0000126E-01;  9.9999998E-03;  1.8001041E-01;2293;  1.5595233E-03;  0.0000000E+00;  1.9968893E-02;  1.0066885E+03;  4.0286276E-01;  5.5394312E+03;3;  1.1690961E+00;  0.0000000E+00;  2.5149778E+01;0;  5.1396573E-01;  9.9966543E+03;  0.0000000E+00; -1.5802776E-08;  1.0000000E+04;  0.0000000E+00;  9.9940410E+03;  2.0370883E-01;  0.0000000E+00;  3.1025693E-01;  2.4837349E+03;
  8.0000126E-01;  9.9999998E-03;  2.0001455E-01;2294;  1.6181588E-03;  0.0000000E+00;  2.5659025E-02;  1.0065739E+03;  4.0286294E-01;  5.4443560E+03;3;  1.2525618E+00;  0.0000000E+00;  2.9934429E+01;0;  6.0006368E-01;  9.9965742E+03;  0.0000000E+00; -7.9552684E-09;  1.0000000E+04;  0.0000000E+00;  9.9918359E+03;  2.1018510E-01;  0.0000000E+00;  3.8987860E-01;  3.4672271E+03;
  8.0000132E-01;  9.9999998E-03;  2.2002263E-01;2295;  1.6959099E-03;  0.0000000E+00;  3.5015132E-02;  1.0064620E+03;  4.0286306E-01;  5.3517490E+03;3;  1.3693370E+00;  0.0000000E+00;  3.5753819E+01;0;  6.7705989E-01;  9.9965000E+03;  0.0000000E+00;  4.8775959E-08;  1.0000000E+04;  0.0000000E+00;  9.9896865E+03;  2.1622638E-01;  0.0000000E+00;  4.6083349E-01;  4.4364575E+03;
  8.0000132E-01;  9.9999998E-03;  2.4003723E-01;2296;  1.7805538E-03;  0.0000000E+00;  4.9742565E-02;  1.0063595E+03;  4.0286312E-01;  5.2668433E+03;3;  1.5123805E+00;  0.0000000E+00;  4.2217339E+01;0;  7.4578983E-01;  9.9964375E+03;  0.0000000E+00;  1.2041478E-07;  1.0000000E+04;  0.0000000E+00;  9.9877109E+03;  2.2133106E-01;  0.0000000E+00;  5.2445877E-01;  5.3298594E+03;
  8.0000138E-01;  9.9999998E-03;  2.6005885E-01;2297;  1.8567774E-03;  0.0000000E+00;  6.7597710E-02;  1.0062305E+03;  4.0286326E-01;  5.1600195E+03;3;  1.6704895E+00;  0.0000000E+00;  4.4803753E+01;0;  8.3848822E-01;  9.9963857E+03;  0.0000000E+00;  3.5583511E-08;  1.0000000E+04;  0.0000000E+00;  9.9851914E+03;  2.2525033E-01;  0.0000000E+00;  6.1323786E-01;  6.4574136E+03;
  8.0000144E-01;  9.9999998E-03;  2.8007886E-01;2298;  1.9123427E-03;  0.0000000E+00;  7.6254457E-02;  1.0060834E+03;  4.0286344E-01;  5.0382876E+03;3;  1.8319556E+00;  0.0000000E+00;  3.3969402E+01;0;  8.9194381E-01;  9.9963516E+03;  0.0000000E+00; -3.8908178E-07;  1.0000000E+04;  0.0000000E+00;  9.9823066E+03;  2.2802645E-01;  0.0000000E+00;  6.6391736E-01;  7.8344839E+03;
  8.0000144E-01;  9.9999998E-03;  3.0008814E-01;2299;  1.9474272E-03;  0.0000000E+00;  7.6095074E-02;  1.0061234E+03;  4.0286344E-01;  5.0712627E+03;3;  1.9917750E+00;  0.0000000E+00;  2.6770540E+01;0;  7.6589936E-01;  9.9963271E+03;  0.0000000E+00; -9.2034009E-07;  1.0000000E+04;  0.0000000E+00;  9.9831191E+03;  2.2994339E-01;  0.0000000E+00;  5.3595597E-01;  7.6216099E+03;
  8.2000375E-01;  9.9999998E-03;  1.6000798E-01;2323;  5.0333864E-03;  0.0000000E+00;  1.5842319E-02;  1.0068022E+03;  4.0285993E-01;  5.6328286E+03;3;  4.3127460E+00;  0.0000000E+00;  2.0656340E+01;0;  4.0835795E-01;  9.9971035E+03;  0.0000000E+00; -4.4873488E-08;  1.0000000E+04;  0.0000000E+00;  9.9959941E+03;  1.7579331E-01;  0.0000000E+00;  2.3256464E-01;  1.6237394E+03;
  8.2000387E-01;  9.9999998E-03;  1.8001032E-01;2324;  5.2423333E-03;  0.0000000E+00;  1.9782528E-02;  1.0067037E+03;  4.0285999E-01;  5.5511904E+03;3;  4.5834494E+00;  0.0000000E+00;  2.4905434E+01;0;  4.8875341E-01;  9.9970332E+03;  0.0000000E+00; -1.1318634E-07;  1.0000000E+04;  0.0000000E+00;  9.9941006E+03;  1.8163633E-01;  0.0000000E+00;  3.0711707E-01;  2.4557837E+03;
  8.2000399E-01;  9.9999998E-03;  2.0001441E-01;2325;  5.4864506E-03;  0.0000000E+00;  2.5417093E-02;  1.0065903E+03;  4.0286016E-01;  5.4573115E+03;3;  4.9007607E+00;  0.0000000E+00;  2.9634418E+01;0;  5.7353556E-01;  9.9969600E+03;  0.0000000E+00; -3.8539962E-08;  1.0000000E+04;  0.0000000E+00;  9.9919160E+03;  1.8759094E-01;  0.0000000E+00;  3.8594460E-01;  3.4280942E+03;
  8.2000411E-01;  9.9999998E-03;  2.2002244E-01;2326;  5.7370816E-03;  0.0000000E+00;  3.4713890E-02;  1.0064798E+03;  4.0286022E-01;  5.3658018E+03;3;  5.2451048E+00;  0.0000000E+00;  3.5418003E+01;0;  6.4948308E-01;  9.9968906E+03;  0.0000000E+00;  6.5535085E-07;  1.0000000E+04;  0.0000000E+00;  9.9897842E+03;  1.9309215E-01;  0.0000000E+00;  4.5639092E-01;  4.3875786E+03;
  8.2000422E-01;  9.9999998E-03;  2.4003699E-01;2327;  5.9496704E-03;  0.0000000E+00;  4.9399205E-02;  1.0063779E+03;  4.0286040E-01;  5.2814985E+03;3;  5.5886278E+00;  0.0000000E+00;  4.1908989E+01;0;  7.1772462E-01;  9.9968340E+03;  0.0000000E+00;  2.4988426E-06;  1.0000000E+04;  0.0000000E+00;  9.9878174E+03;  1.9767083E-01;  0.0000000E+00;  5.2005380E-01;  5.2753208E+03;
  8.2000428E-01;  9.9999998E-03;  2.6005855E-01;2328;  6.0793767E-03;  0.0000000E+00;  6.7264393E-02;  1.0062485E+03;  4.0286049E-01;  5.1743916E+03;3;  5.9052253E+00;  0.0000000E+00;  4.4635899E+01;0;  8.1104082E-01;  9.9967900E+03;  0.0000000E+00;  5.1699099E-06;  1.0000000E+04;  0.0000000E+00;  9.9852881E+03;  2.0109518E-01;  0.0000000E+00;  6.0994565E-01;  6.4040171E+03;
  8.2000434E-01;  9.9999998E-03;  2.8007853E-01;2329;  6.1005251E-03;  0.0000000E+00;  7.5995140E-02;  1.0061000E+03;  4.0286070E-01;  5.0512930E+03;3;  6.1775551E+00;  0.0000000E+00;  3.4013634E+01;0;  8.6695099E-01;  9.9967598E+03;  0.0000000E+00;  6.3788389E-06;  1.0000000E+04;  0.0000000E+00;  9.9823633E+03;  2.0340052E-01;  0.0000000E+00;  6.6355044E-01;  7.7930918E+03;
  8.2000428E-01;  9.9999998E-03;  3.0008778E-01;2330;  6.0245749E-03;  0.0000000E+00;  7.5868994E-02;  1.0061374E+03;  4.0286070E-01;  5.0822900E+03;3;  6.4023943E+00;  0.0000000E+00;  2.6879656E+01;0;  7.4352288E-01;  9.9967412E+03;  0.0000000E+00;  3.6126357E-06;  1.0000000E+04;  0.0000000E+00;  9.9831201E+03;  2.0482549E-01;  0.0000000E+00;  5.3869736E-01;  7.6037646E+03;
  8.4000635E-01;  9.9999998E-03;  1.6000782E-01;2354;  8.6116446E-03;  0.0000000E+00;  1.5502117E-02;  1.0067073E+03;  4.0281373E-01;  5.5533320E+03;3;  7.5588951E+00;  0.0000000E+00;  2.0210649E+01;0;  3.8430110E-01;  9.9974219E+03;  0.0000000E+00; -6.9253282E-08;  1.0000000E+04;  0.0000000E+00;  9.9960791E+03;  1.5664643E-01;  0.0000000E+00;  2.2765467E-01;  1.5863735E+03;
  8.4000653E-01;  9.9999998E-03;  1.8001010E-01;2355;  8.9788241E-03;  0.0000000E+00;  1.9355785E-02;  1.0066108E+03;  4.0281385E-01;  5.4733853E+03;3;  8.0313444E+00;  0.0000000E+00;  2.4365936E+01;0;  4.6274292E-01;  9.9973564E+03;  0.0000000E+00; -2.2415338E-07;  1.0000000E+04;  0.0000000E+00;  9.9942266E+03;  1.6211422E-01;  0.0000000E+00;  3.0062869E-01;  2.3988506E+03;
  8.4000677E-01;  9.9999998E-03;  2.0001411E-01;2356;  9.3946047E-03;  0.0000000E+00;  2.4874711E-02;  1.0064998E+03;  4.0281394E-01;  5.3814961E+03;3;  8.5676899E+00;  0.0000000E+00;  2.8997219E+01;0;  5.4560840E-01;  9.9972861E+03;  0.0000000E+00; -3.0056569E-08;  1.0000000E+04;  0.0000000E+00;  9.9920859E+03;  1.6769236E-01;  0.0000000E+00;  3.7791604E-01;  3.3489482E+03;
  8.4000695E-01;  9.9999998E-03;  2.2002199E-01;2357;  9.8058609E-03;  0.0000000E+00;  3.4002766E-02;  1.0063915E+03;  4.0281406E-01;  5.2918770E+03;3;  9.1287775E+00;  0.0000000E+00;  3.4686638E+01;0;  6.2002343E-01;  9.9972227E+03;  0.0000000E+00;  1.8238413E-06;  1.0000000E+04;  0.0000000E+00;  9.9899951E+03;  1.7284526E-01;  0.0000000E+00;  4.4717816E-01;  4.2875537E+03;
  8.4000713E-01;  9.9999998E-03;  2.4003628E-01;2358;  1.0139427E-02;  0.0000000E+00;  4.8456371E-02;  1.0062914E+03;  4.0281409E-01;  5.2089692E+03;3;  9.6700668E+00;  0.0000000E+00;  4.1123726E+01;0;  6.8728036E-01;  9.9971680E+03;  0.0000000E+00;  6.9503958E-06;  1.0000000E+04;  0.0000000E+00;  9.9880576E+03;  1.7713886E-01;  0.0000000E+00;  5.1014149E-01;  5.1582568E+03;
  8.4000725E-01;  9.9999998E-03;  2.6005748E-01;2359;  1.0325196E-02;  0.0000000E+00;  6.6088855E-02;  1.0061636E+03;  4.0281430E-01;  5.1031631E+03;3;  1.0154649E+01;  0.0000000E+00;  4.3940651E+01;0;  7.8002363E-01;  9.9971270E+03;  0.0000000E+00;  1.4708215E-05;  1.0000000E+04;  0.0000000E+00;  9.9855566E+03;  1.8036307E-01;  0.0000000E+00;  5.9966058E-01;  6.2701543E+03;
  8.4000725E-01;  9.9999998E-03;  2.8007716E-01;2360;  1.0324254E-02;  0.0000000E+00;  7.4777082E-02;  1.0060161E+03;  4.0281442E-01;  4.9809731E+03;3;  1.0559389E+01;  0.0000000E+00;  3.3660744E+01;0;  8.3721507E-01;  9.9970977E+03;  0.0000000E+00;  1.8353578E-05;  1.0000000E+04;  0.0000000E+00;  9.9826504E+03;  1.8254301E-01;  0.0000000E+00;  6.5467209E-01;  7.6449722E+03;
  8.4000719E-01;  9.9999998E-03;  3.0008626E-01;2361;  1.0152870E-02;  0.0000000E+00;  7.4700177E-02;  1.0060510E+03;  4.0281445E-01;  5.0099907E+03;3;  1.0875487E+01;  0.0000000E+00;  2.6696457E+01;0;  7.1764266E-01;  9.9970791E+03;  0.0000000E+00;  9.3416747E-06;  1.0000000E+04;  0.0000000E+00;  9.9833604E+03;  1.8385908E-01;  0.0000000E+00;  5.3378361E-01;  7.4734712E+03;
  8.6000896E-01;  9.9999998E-03;  1.6000755E-01;2385;  1.2238254E-02;  0.0000000E+00;  1.4980895E-02;  1.0065016E+03;  4.0272272E-01;  5.3818740E+03;3;  1.0829508E+01;  0.0000000E+00;  1.9532587E+01;0;  3.5802686E-01;  9.9977305E+03;  0.0000000E+00; -1.0178196E-07;  1.0000000E+04;  0.0000000E+00;  9.9962061E+03;  1.3778074E-01;  0.0000000E+00;  2.2024611E-01;  1.5302239E+03;
  8.6000925E-01;  9.9999998E-03;  1.8000975E-01;2386;  1.2751927E-02;  0.0000000E+00;  1.8704630E-02;  1.0064083E+03;  4.0272287E-01;  5.3046099E+03;3;  1.1489973E+01;  0.0000000E+00;  2.3550268E+01;0;  4.3395621E-01;  9.9976641E+03;  0.0000000E+00; -3.6513134E-07;  1.0000000E+04;  0.0000000E+00;  9.9944121E+03;  1.4302634E-01;  0.0000000E+00;  2.9092985E-01;  2.3140352E+03;
  8.6000955E-01;  9.9999998E-03;  2.0001364E-01;2387;  1.3329403E-02;  0.0000000E+00;  2.4040410E-02;  1.0063008E+03;  4.0272295E-01;  5.2156025E+03;3;  1.2235406E+01;  0.0000000E+00;  2.8031132E+01;0;  5.1435077E-01;  9.9975957E+03;  0.0000000E+00;  5.7121525E-08;  1.0000000E+04;  0.0000000E+00;  9.9923389E+03;  1.4843036E-01;  0.0000000E+00;  3.6592042E-01;  3.2312322E+03;
  8.6000985E-01;  9.9999998E-03;  2.2002126E-01;2388;  1.3894689E-02;  0.0000000E+00;  3.2876097E-02;  1.0061957E+03;  4.0272304E-01;  5.1286675E+03;3;  1.3009431E+01;  0.0000000E+00;  3.3548389E+01;0;  5.8674878E-01;  9.9975332E+03;  0.0000000E+00;  3.6910371E-06;  1.0000000E+04;  0.0000000E+00;  9.9903135E+03;  1.5347703E-01;  0.0000000E+00;  4.3327177E-01;  4.1379932E+03;
  8.6001009E-01;  9.9999998E-03;  2.4003510E-01;2389;  1.4347454E-02;  0.0000000E+00;  4.6887558E-02;  1.0060986E+03;  4.0272319E-01;  5.0482451E+03;3;  1.3752094E+01;  0.0000000E+00;  3.9820362E+01;0;  6.5236676E-01;  9.9974795E+03;  0.0000000E+00;  1.3710055E-05;  1.0000000E+04;  0.0000000E+00;  9.9884346E+03;  1.5774529E-01;  0.0000000E+00;  4.9462149E-01;  4.9796797E+03;
  8.6001021E-01;  9.9999998E-03;  2.6005566E-01;2390;  1.4593941E-02;  0.0000000E+00;  6.4020373E-02;  1.0059745E+03;  4.0272328E-01;  4.9455220E+03;3;  1.4417007E+01;  0.0000000E+00;  4.2648472E+01;0;  7.4288160E-01;  9.9974346E+03;  0.0000000E+00;  2.9022813E-05;  1.0000000E+04;  0.0000000E+00;  9.9860078E+03;  1.6102917E-01;  0.0000000E+00;  5.8185244E-01;  6.0545156E+03;
  8.6001021E-01;  9.9999998E-03;  2.8007475E-01;2391;  1.4581669E-02;  0.0000000E+00;  7.2547033E-02;  1.0058309E+03;  4.0272346E-01;  4.8266157E+03;3;  1.4974059E+01;  0.0000000E+00;  3.2846184E+01;0;  7.9959232E-01;  9.9974053E+03;  0.0000000E+00;  3.6557074E-05;  1.0000000E+04;  0.0000000E+00;  9.9831777E+03;  1.6333687E-01;  0.0000000E+00;  6.3625544E-01;  7.3853608E+03;
  8.6001015E-01;  9.9999998E-03;  3.0008361E-01;2392;  1.4330024E-02;  0.0000000E+00;  7.2554238E-02;  1.0058641E+03;  4.0272343E-01;  4.8540479E+03;3;  1.5407132E+01;  0.0000000E+00;  2.6189554E+01;0;  6.8489099E-01;  9.9973848E+03;  0.0000000E+00;  1.9162491E-05;  1.0000000E+04;  0.0000000E+00;  9.9838564E+03;  1.6480292E-01;  0.0000000E+00;  5.2008808E-01;  7.2241641E+03;
  8.8001150E-01;  9.9999998E-03;  1.6000721E-01;2416;  1.5670048E-02;  0.0000000E+00;  1.4296127E-02;  1.0062017E+03;  4.0259224E-01;  5.1319585E+03;3;  1.3912906E+01;  0.0000000E+00;  1.8643480E+01;0;  3.2660332E-01;  9.9980791E+03;  0.0000000E+00; -1.5035799E-07;  1.0000000E+04;  0.0000000E+00;  9.9963740E+03;  1.1612816E-01;  0.0000000E+00;  2.1047516E-01;  1.4563636E+03;
  8.8001180E-01;  9.9999998E-03;  1.8000931E-01;2417;  1.6316323E-02;  0.0000000E+00;  1.7846383E-02;  1.0061122E+03;  4.0259236E-01;  5.0579717E+03;3;  1.4744486E+01;  0.0000000E+00;  2.2478018E+01;0;  3.9943957E-01;  9.9980127E+03;  0.0000000E+00; -5.4485986E-07;  1.0000000E+04;  0.0000000E+00;  9.9946602E+03;  1.2129095E-01;  0.0000000E+00;  2.7814862E-01;  2.2026438E+03;
  8.8001221E-01;  9.9999998E-03;  2.0001301E-01;2418;  1.7042849E-02;  0.0000000E+00;  2.2930805E-02;  1.0060090E+03;  4.0259242E-01;  4.9725430E+03;3;  1.5684430E+01;  0.0000000E+00;  2.6752033E+01;0;  4.7682214E-01;  9.9979443E+03;  0.0000000E+00;  2.0222811E-07;  1.0000000E+04;  0.0000000E+00;  9.9926758E+03;  1.2673484E-01;  0.0000000E+00;  3.5008729E-01;  3.0766458E+03;
  8.8001257E-01;  9.9999998E-03;  2.2002026E-01;2419;  1.7752767E-02;  0.0000000E+00;  3.1353492E-02;  1.0059081E+03;  4.0259254E-01;  4.8890869E+03;3;  1.6661112E+01;  0.0000000E+00;  3.2016499E+01;0;  5.4675663E-01;  9.9978750E+03;  0.0000000E+00;  6.1176092E-06;  1.0000000E+04;  0.0000000E+00;  9.9907314E+03;  1.3195209E-01;  0.0000000E+00;  4.1480452E-01;  3.9410671E+03;
  8.8001287E-01;  9.9999998E-03;  2.4003346E-01;2420;  1.8320307E-02;  0.0000000E+00;  4.4722710E-02;  1.0058149E+03;  4.0259263E-01;  4.8119443E+03;3;  1.7600143E+01;  0.0000000E+00;  3.8015068E+01;0;  6.1014062E-01;  9.9978164E+03;  0.0000000E+00;  2.2307264E-05;  1.0000000E+04;  0.0000000E+00;  9.9889365E+03;  1.3649653E-01;  0.0000000E+00;  4.7364408E-01;  4.7422949E+03;
  8.8001305E-01;  9.9999998E-03;  2.6005310E-01;2421;  1.8629042E-02;  0.0000000E+00;  6.1110314E-02;  1.0056963E+03;  4.0259275E-01;  4.7137896E+03;3;  1.8445196E+01;  0.0000000E+00;  4.0783539E+01;0;  6.9692457E-01;  9.9977676E+03;  0.0000000E+00;  4.7149995E-05;  1.0000000E+04;  0.0000000E+00;  9.9866260E+03;  1.4012089E-01;  0.0000000E+00;  5.5680364E-01;  5.7611616E+03;
  8.8001305E-01;  9.9999998E-03;  2.8007135E-01;2422;  1.8613437E-02;  0.0000000E+00;  6.9376908E-02;  1.0055593E+03;  4.0259293E-01;  4.6003442E+03;3;  1.9158968E+01;  0.0000000E+00;  3.1604691E+01;0;  7.5167549E-01;  9.9977295E+03;  0.0000000E+00;  6.0035843E-05;  1.0000000E+04;  0.0000000E+00;  9.9839346E+03;  1.4279413E-01;  0.0000000E+00;  6.0888135E-01;  7.0212173E+03;
  8.8001293E-01;  9.9999998E-03;  3.0007991E-01;2423;  1.8296337E-02;  0.0000000E+00;  6.9509916E-02;  1.0055909E+03;  4.0259290E-01;  4.6265850E+03;3;  1.9718819E+01;  0.0000000E+00;  2.5391987E+01;0;  6.4303875E-01;  9.9977051E+03;  0.0000000E+00;  3.3376822E-05;  1.0000000E+04;  0.0000000E+00;  9.9845859E+03;  1.4461881E-01;  0.0000000E+00;  4.9841991E-01;  6.8650825E+03;
  9.0001363E-01;  9.9999998E-03;  1.6000679E-01;2447;  1.8615818E-02;  0.0000000E+00;  1.3469070E-02;  1.0058256E+03;  4.0242928E-01;  4.8188667E+03;3;  1.6559696E+01;  0.0000000E+00;  1.7569717E+01;0;  2.8893587E-01;  9.9984980E+03;  0.0000000E+00; -2.2273117E-07;  1.0000000E+04;  0.0000000E+00;  9.9965801E+03;  9.0345137E-02;  0.0000000E+00;  1.9859073E-01;  1.3667084E+03;
  9.0001404E-01;  9.9999998E-03;  1.8000875E-01;2448;  1.9378033E-02;  0.0000000E+00;  1.6805362E-02;  1.0057409E+03;  4.0242940E-01;  4.7487568E+03;3;  1.7541155E+01;  0.0000000E+00;  2.1177753E+01;0;  3.5806510E-01;  9.9984307E+03;  0.0000000E+00; -7.4294218E-07;  1.0000000E+04;  0.0000000E+00;  9.9949590E+03;  9.5487304E-02;  0.0000000E+00;  2.6257780E-01;  2.0673013E+03;
  9.0001446E-01;  9.9999998E-03;  2.0001224E-01;2449;  2.0236351E-02;  0.0000000E+00;  2.1575937E-02;  1.0056429E+03;  4.0242946E-01;  4.6677012E+03;3;  1.8652943E+01;  0.0000000E+00;  2.5191013E+01;0;  4.3189734E-01;  9.9983555E+03;  0.0000000E+00;  3.2245924E-07;  1.0000000E+04;  0.0000000E+00;  9.9930840E+03;  1.0113637E-01;  0.0000000E+00;  3.3076096E-01;  2.8886975E+03;
  9.0001488E-01;  9.9999998E-03;  2.2001904E-01;2450;  2.1074649E-02;  0.0000000E+00;  2.9478017E-02;  1.0055468E+03;  4.0242955E-01;  4.5882227E+03;3;  1.9809855E+01;  0.0000000E+00;  3.0129110E+01;0;  4.9897879E-01;  9.9982783E+03;  0.0000000E+00;  8.5777992E-06;  1.0000000E+04;  0.0000000E+00;  9.9912451E+03;  1.0679592E-01;  0.0000000E+00;  3.9218286E-01;  3.7012678E+03;
  9.0001523E-01;  9.9999998E-03;  2.4003144E-01;2451;  2.1746125E-02;  0.0000000E+00;  4.2032078E-02;  1.0054582E+03;  4.0242958E-01;  4.5149570E+03;3;  2.0925703E+01;  0.0000000E+00;  3.5761776E+01;0;  5.5968076E-01;  9.9982080E+03;  0.0000000E+00;  3.1245563E-05;  1.0000000E+04;  0.0000000E+00;  9.9895518E+03;  1.1195272E-01;  0.0000000E+00;  4.4772804E-01;  4.4519033E+03;
  9.0001547E-01;  9.9999998E-03;  2.6004988E-01;2452;  2.2113895E-02;  0.0000000E+00;  5.7472330E-02;  1.0053467E+03;  4.0242973E-01;  4.4227588E+03;3;  2.1934231E+01;  0.0000000E+00;  3.8422855E+01;0;  6.4163023E-01;  9.9981494E+03;  0.0000000E+00;  6.6229040E-05;  1.0000000E+04;  0.0000000E+00;  9.9873916E+03;  1.1625601E-01;  0.0000000E+00;  5.2537423E-01;  5.3988979E+03;
  9.0001547E-01;  9.9999998E-03;  2.8006715E-01;2453;  2.2100177E-02;  0.0000000E+00;  6.5404236E-02;  1.0052184E+03;  4.0242985E-01;  4.3165581E+03;3;  2.2791218E+01;  0.0000000E+00;  3.0004313E+01;0;  6.9349861E-01;  9.9981016E+03;  0.0000000E+00;  8.5080297E-05;  1.0000000E+04;  0.0000000E+00;  9.9848818E+03;  1.1959256E-01;  0.0000000E+00;  5.7390606E-01;  6.5664419E+03;
  9.0001529E-01;  9.9999998E-03;  3.0007529E-01;2454;  2.1732939E-02;  0.0000000E+00;  6.5703437E-02;  1.0052482E+03;  4.0242985E-01;  4.3412100E+03;3;  2.3469271E+01;  0.0000000E+00;  2.4359184E+01;0;  5.9226161E-01;  9.9980654E+03;  0.0000000E+00;  4.9321046E-05;  1.0000000E+04;  0.0000000E+00;  9.9855117E+03;  1.2203228E-01;  0.0000000E+00;  4.7022933E-01;  6.4126309E+03;
  9.2001504E-01;  9.9999998E-03;  1.6000633E-01;2478;  2.0511830E-02;  0.0000000E+00;  1.2542713E-02;  1.0053936E+03;  4.0224224E-01;  4.4589731E+03;3;  1.8182209E+01;  0.0000000E+00;  1.6353729E+01;0;  2.4680319E-01;  9.9989658E+03;  0.0000000E+00; -2.7808105E-07;  1.0000000E+04;  0.0000000E+00;  9.9968135E+03;  6.1803244E-02;  0.0000000E+00;  1.8499994E-01;  1.2642350E+03;
  9.2001557E-01;  9.9999998E-03;  1.8000814E-01;2479;  2.1464180E-02;  0.0000000E+00;  1.5630331E-02;  1.0053141E+03;  4.0224227E-01;  4.3933364E+03;3;  1.9400496E+01;  0.0000000E+00;  1.9699600E+01;0;  3.1160694E-01;  9.9988965E+03;  0.0000000E+00; -9.0138565E-07;  1.0000000E+04;  0.0000000E+00;  9.9953037E+03;  6.6870652E-02;  0.0000000E+00;  2.4473630E-01;  1.9123259E+03;
  9.2001611E-01;  9.9999998E-03;  2.0001134E-01;2480;  2.2549279E-02;  0.0000000E+00;  2.0027550E-02;  1.0052220E+03;  4.0224236E-01;  4.3171543E+03;3;  2.0783199E+01;  0.0000000E+00;  2.3403719E+01;0;  3.8136217E-01;  9.9988154E+03;  0.0000000E+00;  3.6010377E-07;  1.0000000E+04;  0.0000000E+00;  9.9935498E+03;  7.2787561E-02;  0.0000000E+00;  3.0857462E-01;  2.6731956E+03;
  9.2001665E-01;  9.9999998E-03;  2.2001764E-01;2481;  2.3594510E-02;  0.0000000E+00;  2.7318217E-02;  1.0051314E+03;  4.0224245E-01;  4.2422529E+03;3;  2.2208931E+01;  0.0000000E+00;  2.7950947E+01;0;  4.4524860E-01;  9.9987246E+03;  0.0000000E+00;  1.0430284E-05;  1.0000000E+04;  0.0000000E+00;  9.9918320E+03;  7.9099610E-02;  0.0000000E+00;  3.6614898E-01;  3.4259021E+03;
  9.2001706E-01;  9.9999998E-03;  2.4002911E-01;2482;  2.4375249E-02;  0.0000000E+00;  3.8926166E-02;  1.0050480E+03;  4.0224254E-01;  4.1732651E+03;3;  2.3496155E+01;  0.0000000E+00;  3.3148880E+01;0;  5.0299537E-01;  9.9986387E+03;  0.0000000E+00;  3.8419268E-05;  1.0000000E+04;  0.0000000E+00;  9.9902588E+03;  8.5205190E-02;  0.0000000E+00;  4.1779020E-01;  4.1177241E+03;
  9.2001730E-01;  9.9999998E-03;  2.6004621E-01;2483;  2.4794361E-02;  0.0000000E+00;  5.3267911E-02;  1.0049443E+03;  4.0224263E-01;  4.0876216E+03;3;  2.4637798E+01;  0.0000000E+00;  3.5673084E+01;0;  5.7947105E-01;  9.9985596E+03;  0.0000000E+00;  8.2189057E-05;  1.0000000E+04;  0.0000000E+00;  9.9882773E+03;  9.0587430E-02;  0.0000000E+00;  4.8888364E-01;  4.9807588E+03;
  9.2001724E-01;  9.9999998E-03;  2.8006229E-01;2484;  2.4619428E-02;  0.0000000E+00;  6.0747385E-02;  1.0048263E+03;  4.0224269E-01;  3.9900532E+03;3;  2.5283907E+01;  0.0000000E+00;  2.7957626E+01;0;  6.2751746E-01;  9.9984951E+03;  0.0000000E+00;  1.0733581E-04;  1.0000000E+04;  0.0000000E+00;  9.9859863E+03;  9.4986625E-02;  0.0000000E+00;  5.3253084E-01;  6.0387441E+03;
  9.2001718E-01;  9.9999998E-03;  3.0006999E-01;2485;  2.4384854E-02;  0.0000000E+00;  6.1314531E-02;  1.0048538E+03;  4.0224272E-01;  4.0127207E+03;3;  2.6384626E+01;  0.0000000E+00;  2.3147463E+01;0;  5.3571492E-01;  9.9984453E+03;  0.0000000E+00;  6.3209976E-05;  1.0000000E+04;  0.0000000E+00;  9.9865830E+03;  9.8398946E-02;  0.0000000E+00;  4.3731600E-01;  5.8889243E+03;
  9.4001549E-01;  9.9999998E-03;  1.6000587E-01;2509;  2.0955499E-02;  0.0000000E+00;  1.1577344E-02;  1.0049241E+03;  4.0204003E-01;  4.0679678E+03;3;  1.8474218E+01;  0.0000000E+00;  1.5045957E+01;0;  2.0404103E-01;  9.9994346E+03;  0.0000000E+00; -2.7209626E-07;  1.0000000E+04;  0.0000000E+00;  9.9970684E+03;  3.3783443E-02;  0.0000000E+00;  1.7025760E-01;  1.1529191E+03;
  9.4001609E-01;  9.9999998E-03;  1.8000753E-01;2510;  2.2061121E-02;  0.0000000E+00;  1.4401700E-02;  1.0048508E+03;  4.0204009E-01;  4.0073030E+03;3;  1.9824291E+01;  0.0000000E+00;  1.8117287E+01;0;  2.6401135E-01;  9.9993623E+03;  0.0000000E+00; -9.1838217E-07;  1.0000000E+04;  0.0000000E+00;  9.9956768E+03;  3.8660098E-02;  0.0000000E+00;  2.2535126E-01;  1.7436049E+03;
  9.4001681E-01;  9.9999998E-03;  2.0001040E-01;2511;  2.3426879E-02;  0.0000000E+00;  1.8371964E-02;  1.0047650E+03;  4.0204015E-01;  3.9364951E+03;3;  2.1468285E+01;  0.0000000E+00;  2.1476130E+01;0;  3.2924843E-01;  9.9992725E+03;  0.0000000E+00;  3.4915928E-07;  1.0000000E+04;  0.0000000E+00;  9.9940586E+03;  4.4823233E-02;  0.0000000E+00;  2.8442520E-01;  2.4380745E+03;
  9.4001764E-01;  9.9999998E-03;  2.2001612E-01;2512;  2.4890460E-02;  0.0000000E+00;  2.4968125E-02;  1.0046802E+03;  4.0204021E-01;  3.8664749E+03;3;  2.3362551E+01;  0.0000000E+00;  2.5577894E+01;0;  3.8964418E-01;  9.9991670E+03;  0.0000000E+00;  1.1189533E-05;  1.0000000E+04;  0.0000000E+00;  9.9924736E+03;  5.1909287E-02;  0.0000000E+00;  3.3773488E-01;  3.1247268E+03;
  9.4001824E-01;  9.9999998E-03;  2.4002656E-01;2513;  2.6049780E-02;  0.0000000E+00;  3.5530917E-02;  1.0046025E+03;  4.0204021E-01;  3.8021660E+03;3;  2.5156658E+01;  0.0000000E+00;  3.0280491E+01;0;  4.4424874E-01;  9.9990566E+03;  0.0000000E+00;  4.1977200E-05;  1.0000000E+04;  0.0000000E+00;  9.9910332E+03;  5.9247095E-02;  0.0000000E+00;  3.8500163E-01;  3.7513474E+03;
  9.4001848E-01;  9.9999998E-03;  2.6004222E-01;2514;  2.6529210E-02;  0.0000000E+00;  4.8683841E-02;  1.0045074E+03;  4.0204036E-01;  3.7236763E+03;3;  2.6415497E+01;  0.0000000E+00;  3.2660480E+01;0;  5.1501232E-01;  9.9989521E+03;  0.0000000E+00;  9.7834163E-05;  1.0000000E+04;  0.0000000E+00;  9.9892441E+03;  6.6124298E-02;  0.0000000E+00;  4.4888803E-01;  4.5220908E+03;
  9.4001842E-01;  9.9999998E-03;  2.8005701E-01;2515;  2.6257914E-02;  0.0000000E+00;  5.5700511E-02;  1.0044000E+03;  4.0204045E-01;  3.6349446E+03;3;  2.6955204E+01;  0.0000000E+00;  2.5786655E+01;0;  5.5947602E-01;  9.9988623E+03;  0.0000000E+00;  1.4706854E-04;  1.0000000E+04;  0.0000000E+00;  9.9871914E+03;  7.2061568E-02;  0.0000000E+00;  4.8741445E-01;  5.4613848E+03;
  9.4001836E-01;  9.9999998E-03;  3.0006421E-01;2516;  2.6142903E-02;  0.0000000E+00;  5.6564994E-02;  1.0044244E+03;  4.0204039E-01;  3.6550349E+03;3;  2.8399057E+01;  0.0000000E+00;  2.1895344E+01;0;  4.7845283E-01;  9.9987881E+03;  0.0000000E+00;  7.1860508E-05;  1.0000000E+04;  0.0000000E+00;  9.9877500E+03;  7.6895587E-02;  0.0000000E+00;  4.0155724E-01;  5.3168545E+03;
  9.6001530E-01;  9.9999998E-03;  1.6000539E-01;2540;  2.0740418E-02;  0.0000000E+00;  1.0578200E-02;  1.0044366E+03;  4.0183145E-01;  3.6615447E+03;3;  1.8299934E+01;  0.0000000E+00;  1.3695571E+01;0;  1.6462593E-01;  9.9998428E+03;  0.0000000E+00; -1.8486506E-07;  1.0000000E+04;  0.0000000E+00;  9.9973291E+03;  9.6016796E-03;  0.0000000E+00;  1.5502425E-01;  1.0374956E+03;
  9.6001595E-01;  9.9999998E-03;  1.8000689E-01;2541;  2.1892805E-02;  0.0000000E+00;  1.3133607E-02;  1.0043693E+03;  4.0183157E-01;  3.6060559E+03;3;  1.9668036E+01;  0.0000000E+00;  1.6470551E+01;0;  2.1954878E-01;  9.9997715E+03;  0.0000000E+00; -7.3541798E-07;  1.0000000E+04;  0.0000000E+00;  9.9960596E+03;  1.4255780E-02;  0.0000000E+00;  2.0529300E-01;  1.5681196E+03;
  9.6001679E-01;  9.9999998E-03;  2.0000945E-01;2542;  2.3355698E-02;  0.0000000E+00;  1.6665038E-02;  1.0042903E+03;  4.0183166E-01;  3.5408276E+03;3;  2.1364777E+01;  0.0000000E+00;  1.9477341E+01;0;  2.8006062E-01;  9.9996709E+03;  0.0000000E+00;  3.4378138E-07;  1.0000000E+04;  0.0000000E+00;  9.9945850E+03;  2.0689854E-02;  0.0000000E+00;  2.5937077E-01;  2.1926064E+03;
  9.6001774E-01;  9.9999998E-03;  2.2001453E-01;2543;  2.5044983E-02;  0.0000000E+00;  2.2525821E-02;  1.0042116E+03;  4.0183160E-01;  3.4758940E+03;3;  2.3443377E+01;  0.0000000E+00;  2.3104168E+01;0;  3.3680061E-01;  9.9995469E+03;  0.0000000E+00;  3.2926851E-05;  1.0000000E+04;  0.0000000E+00;  9.9931416E+03;  2.8652361E-02;  0.0000000E+00;  3.0814824E-01;  2.8090757E+03;
  9.6001863E-01;  9.9999998E-03;  2.4002391E-01;2544;  2.6604563E-02;  0.0000000E+00;  3.1991363E-02;  1.0041396E+03;  4.0183166E-01;  3.4163721E+03;3;  2.5682665E+01;  0.0000000E+00;  2.7276506E+01;0;  3.8815990E-01;  9.9994111E+03;  0.0000000E+00;  2.9366469E-04;  1.0000000E+04;  0.0000000E+00;  9.9918408E+03;  3.7412871E-02;  0.0000000E+00;  3.5074702E-01;  3.3663245E+03;
  9.6001905E-01;  9.9999998E-03;  2.6003808E-01;2545;  2.7394557E-02;  0.0000000E+00;  4.3920923E-02;  1.0040530E+03;  4.0183172E-01;  3.3449453E+03;3;  2.7338354E+01;  0.0000000E+00;  2.9509729E+01;0;  4.5325574E-01;  9.9992744E+03;  0.0000000E+00;  8.1883883E-04;  1.0000000E+04;  0.0000000E+00;  9.9902529E+03;  4.6085905E-02;  0.0000000E+00;  4.0716985E-01;  4.0409194E+03;
  9.6001911E-01;  9.9999998E-03;  2.8005159E-01;2546;  2.7353980E-02;  0.0000000E+00;  5.0558776E-02;  1.0039557E+03;  4.0183178E-01;  3.2646641E+03;3;  2.8187872E+01;  0.0000000E+00;  2.3690807E+01;0;  4.9539500E-01;  9.9991494E+03;  0.0000000E+00;  9.9032023E-04;  1.0000000E+04;  0.0000000E+00;  9.9884336E+03;  5.3953428E-02;  0.0000000E+00;  4.4144157E-01;  4.8608525E+03;
  9.6001911E-01;  9.9999998E-03;  3.0005825E-01;2547;  2.7286382E-02;  0.0000000E+00;  5.1673405E-02;  1.0039769E+03;  4.0183184E-01;  3.2820781E+03;3;  2.9866802E+01;  0.0000000E+00;  2.0678341E+01;0;  4.2552873E-01;  9.9990459E+03;  0.0000000E+00;  7.2118528E-05;  1.0000000E+04;  0.0000000E+00;  9.9889609E+03;  6.0635213E-02;  0.0000000E+00;  3.6489353E-01;  4.7190674E+03;
  9.8001492E-01;  9.9999998E-03;  1.6000490E-01;2571;  2.0197010E-02;  0.0000000E+00;  9.5748268E-03;  1.0039484E+03;  4.0162468E-01;  3.2542197E+03;3;  1.7868277E+01;  0.0000000E+00;  1.2349079E+01;0;  1.3117336E-01;  1.0000161E+04;  0.0000000E+00; -4.0671210E-08;  1.0000000E+04;  0.0000000E+00;  9.9975850E+03; -8.8428818E-03;  0.0000000E+00;  1.4001624E-01;  9.2312048E+02;
  9.8001558E-01;  9.9999998E-03;  1.8000625E-01;2572;  2.1371359E-02;  0.0000000E+00;  1.1860779E-02;  1.0038871E+03;  4.0162471E-01;  3.2037178E+03;3;  1.9264328E+01;  0.0000000E+00;  1.4834593E+01;0;  1.8122455E-01;  1.0000084E+04;  0.0000000E+00; -3.8406984E-07;  1.0000000E+04;  0.0000000E+00;  9.9964385E+03; -4.2778226E-03;  0.0000000E+00;  1.8550238E-01;  1.3933608E+03;
  9.8001641E-01;  9.9999998E-03;  2.0000850E-01;2573;  2.2881974E-02;  0.0000000E+00;  1.4963892E-02;  1.0038147E+03;  4.0162477E-01;  3.1440784E+03;3;  2.0988735E+01;  0.0000000E+00;  1.7466419E+01;0;  2.3710270E-01;  9.9999746E+03;  0.0000000E+00;  3.9826504E-05;  1.0000000E+04;  0.0000000E+00;  9.9951035E+03;  2.5488804E-03;  0.0000000E+00;  2.3455383E-01;  1.9466677E+03;
  9.8001748E-01;  9.9999998E-03;  2.2001296E-01;2574;  2.4681253E-02;  0.0000000E+00;  2.0101184E-02;  1.0037422E+03;  4.0162480E-01;  3.0843403E+03;3;  2.3133078E+01;  0.0000000E+00;  2.0630440E+01;0;  2.9017103E-01;  9.9998301E+03;  0.0000000E+00;  4.7207464E-04;  1.0000000E+04;  0.0000000E+00;  9.9938037E+03;  1.1423529E-02;  0.0000000E+00;  2.7874750E-01;  2.4913364E+03;
  9.8001856E-01;  9.9999998E-03;  2.4002132E-01;2575;  2.6543316E-02;  0.0000000E+00;  2.8482296E-02;  1.0036759E+03;  4.0162477E-01;  3.0297119E+03;3;  2.5624098E+01;  0.0000000E+00;  2.4271906E+01;0;  3.3829001E-01;  9.9996680E+03;  0.0000000E+00;  1.9267402E-03;  1.0000000E+04;  0.0000000E+00;  9.9926455E+03;  2.1607418E-02;  0.0000000E+00;  3.1668258E-01;  2.9783506E+03;
  9.8001927E-01;  9.9999998E-03;  2.6003397E-01;2576;  2.7707677E-02;  0.0000000E+00;  3.9191980E-02;  1.0035977E+03;  4.0162483E-01;  2.9652581E+03;3;  2.7717497E+01;  0.0000000E+00;  2.6344448E+01;0;  3.9787972E-01;  9.9994961E+03;  0.0000000E+00;  4.0885629E-03;  1.0000000E+04;  0.0000000E+00;  9.9912549E+03;  3.2123357E-02;  0.0000000E+00;  3.6575636E-01;  3.5579109E+03;
  9.8001957E-01;  9.9999998E-03;  2.8004619E-01;2577;  2.8114516E-02;  0.0000000E+00;  4.5475561E-02;  1.0035104E+03;  4.0162492E-01;  2.8933374E+03;3;  2.9209505E+01;  0.0000000E+00;  2.1727787E+01;0;  4.3790492E-01;  9.9993359E+03;  0.0000000E+00;  4.2845635E-03;  1.0000000E+04;  0.0000000E+00;  9.9896748E+03;  4.2056676E-02;  0.0000000E+00;  3.9584824E-01;  4.2570801E+03;
  9.8001975E-01;  9.9999998E-03;  3.0005231E-01;2578;  2.8317319E-02;  0.0000000E+00;  4.6803638E-02;  1.0035285E+03;  4.0162498E-01;  2.9081736E+03;3;  3.1084759E+01;  0.0000000E+00;  1.9385303E+01;0;  3.7919074E-01;  9.9991963E+03;  0.0000000E+00;  3.1769858E-05;  1.0000000E+04;  0.0000000E+00;  9.9901748E+03;  5.0796095E-02;  0.0000000E+00;  3.2839465E-01;  4.1169746E+03;
  1.0000143E+00;  9.9999998E-03;  1.6000445E-01;2602;  1.9508496E-02;  0.0000000E+00;  8.6130938E-03;  1.0034755E+03;  4.0142640E-01;  2.8594197E+03;3;  1.7293877E+01;  0.0000000E+00;  1.1059893E+01;0;  1.0467110E-01;  1.0000380E+04;  0.0000000E+00;  2.7856480E-08;  1.0000000E+04;  0.0000000E+00;  9.9978193E+03; -2.1280399E-02;  0.0000000E+00;  1.2595150E-01;  8.1490399E+02;
  1.0000150E+00;  9.9999998E-03;  1.8000564E-01;2603;  2.0649336E-02;  0.0000000E+00;  1.0640031E-02;  1.0034199E+03;  4.0142637E-01;  2.8136179E+03;3;  1.8682709E+01;  0.0000000E+00;  1.3258375E+01;0;  1.5033509E-01;  1.0000300E+04;  0.0000000E+00;  3.4091581E-06;  1.0000000E+04;  0.0000000E+00;  9.9967910E+03; -1.6579567E-02;  0.0000000E+00;  1.6691466E-01;  1.2265743E+03;
  1.0000159E+00;  9.9999998E-03;  2.0000760E-01;2604;  2.2169085E-02;  0.0000000E+00;  1.3354921E-02;  1.0033537E+03;  4.0142637E-01;  2.7591848E+03;3;  2.0441858E+01;  0.0000000E+00;  1.5568286E+01;0;  2.0179109E-01;  1.0000176E+04;  0.0000000E+00;  2.0351030E-04;  1.0000000E+04;  0.0000000E+00;  9.9955957E+03; -9.3375780E-03;  0.0000000E+00;  2.1112867E-01;  1.7097048E+03;
  1.0000170E+00;  9.9999998E-03;  2.2001152E-01;2605;  2.4093488E-02;  0.0000000E+00;  1.7815782E-02;  1.0032875E+03;  4.0142646E-01;  2.7047522E+03;3;  2.2655949E+01;  0.0000000E+00;  1.8257065E+01;0;  2.5110966E-01;  1.0000016E+04;  0.0000000E+00;  1.6277985E-03;  1.0000000E+04;  0.0000000E+00;  9.9944346E+03;  2.3579290E-04;  0.0000000E+00;  2.5087386E-01;  2.1833752E+03;
  1.0000184E+00;  9.9999998E-03;  2.4001890E-01;2606;  2.6297320E-02;  0.0000000E+00;  2.5196288E-02;  1.0032268E+03;  4.0142646E-01;  2.6547332E+03;3;  2.5423702E+01;  0.0000000E+00;  2.1410881E+01;0;  2.9597202E-01;  9.9998281E+03;  0.0000000E+00;  5.6874095E-03;  1.0000000E+04;  0.0000000E+00;  9.9934121E+03;  1.1524303E-02;  0.0000000E+00;  2.8444773E-01;  2.6026365E+03;
  1.0000193E+00;  9.9999998E-03;  2.6003012E-01;2607;  2.7880721E-02;  0.0000000E+00;  3.4706034E-02;  1.0031564E+03;  4.0142652E-01;  2.5968674E+03;3;  2.7964249E+01;  0.0000000E+00;  2.3290527E+01;0;  3.5015553E-01;  9.9996279E+03;  0.0000000E+00;  1.1034628E-02;  1.0000000E+04;  0.0000000E+00;  9.9922080E+03;  2.3598379E-02;  0.0000000E+00;  3.2655716E-01;  3.0927061E+03;
  1.0000201E+00;  9.9999998E-03;  2.8004101E-01;2608;  2.8896187E-02;  0.0000000E+00;  4.0528491E-02;  1.0030798E+03;  4.0142661E-01;  2.5338042E+03;3;  3.0141380E+01;  0.0000000E+00;  1.9694540E+01;0;  3.8674647E-01;  9.9994346E+03;  0.0000000E+00;  1.0586729E-02;  1.0000000E+04;  0.0000000E+00;  9.9908740E+03;  3.5463758E-02;  0.0000000E+00;  3.5128272E-01;  3.6691389E+03;
  1.0000207E+00;  9.9999998E-03;  3.0004659E-01;2609;  2.9670615E-02;  0.0000000E+00;  4.2065285E-02;  1.0030959E+03;  4.0142652E-01;  2.5470444E+03;3;  3.2476456E+01;  0.0000000E+00;  1.8047373E+01;0;  3.3818880E-01;  9.9992549E+03;  0.0000000E+00; -8.4427564E-04;  1.0000000E+04;  0.0000000E+00;  9.9913691E+03;  4.6301030E-02;  0.0000000E+00;  2.9188776E-01;  3.5233250E+03;
  1.0200137E+00;  9.9999998E-03;  1.6000403E-01;2633;  1.8715100E-02;  0.0000000E+00;  7.7175437E-03;  1.0030318E+03;  4.0124202E-01;  2.4883889E+03;3;  1.6694443E+01;  0.0000000E+00;  9.8151855E+00;0;  8.4975339E-02;  1.0000514E+04;  0.0000000E+00; -3.1736747E-06;  1.0000000E+04;  0.0000000E+00;  9.9980254E+03; -2.8512150E-02;  0.0000000E+00;  1.1348749E-01;  7.1724316E+02;
  1.0200144E+00;  9.9999998E-03;  1.8000509E-01;2634;  1.9864108E-02;  0.0000000E+00;  9.4959224E-03;  1.0029811E+03;  4.0124205E-01;  2.4468062E+03;3;  1.8073660E+01;  0.0000000E+00;  1.1750630E+01;0;  1.2679371E-01;  1.0000424E+04;  0.0000000E+00; -8.0785117E-05;  1.0000000E+04;  0.0000000E+00;  9.9971035E+03; -2.3559997E-02;  0.0000000E+00;  1.5035371E-01;  1.0735947E+03;
  1.0200152E+00;  9.9999998E-03;  2.0000684E-01;2635;  2.1346975E-02;  0.0000000E+00;  1.1922157E-02;  1.0029213E+03;  4.0124205E-01;  2.3975920E+03;3;  1.9822315E+01;  0.0000000E+00;  1.3829344E+01;0;  1.7389520E-01;  1.0000294E+04;  0.0000000E+00;  8.2217979E-05;  1.0000000E+04;  0.0000000E+00;  9.9960410E+03; -1.6170928E-02;  0.0000000E+00;  1.9006613E-01;  1.4892710E+03;
  1.0200166E+00;  9.9999998E-03;  2.2001030E-01;2636;  2.3389861E-02;  0.0000000E+00;  1.5834397E-02;  1.0028613E+03;  4.0124211E-01;  2.3484753E+03;3;  2.2095146E+01;  0.0000000E+00;  1.6148609E+01;0;  2.1913768E-01;  1.0000125E+04;  0.0000000E+00;  2.6195978E-03;  1.0000000E+04;  0.0000000E+00;  9.9950137E+03; -6.5136952E-03;  0.0000000E+00;  2.2565138E-01;  1.8945962E+03;
  1.0200182E+00;  9.9999998E-03;  2.4001685E-01;2637;  2.6002711E-02;  0.0000000E+00;  2.2336690E-02;  1.0028062E+03;  4.0124214E-01;  2.3031743E+03;3;  2.5167274E+01;  0.0000000E+00;  1.8865631E+01;0;  2.6054883E-01;  9.9999258E+03;  0.0000000E+00;  1.0204620E-02;  1.0000000E+04;  0.0000000E+00;  9.9941143E+03;  5.1429118E-03;  0.0000000E+00;  2.5540593E-01;  2.2514478E+03;
  1.0200197E+00;  9.9999998E-03;  2.6002672E-01;2638;  2.8251234E-02;  0.0000000E+00;  3.0668855E-02;  1.0027432E+03;  4.0124214E-01;  2.2514160E+03;3;  2.8425154E+01;  0.0000000E+00;  2.0484673E+01;0;  3.0935222E-01;  9.9997061E+03;  0.0000000E+00;  1.9596724E-02;  1.0000000E+04;  0.0000000E+00;  9.9930752E+03;  1.8161507E-02;  0.0000000E+00;  2.9119071E-01;  2.6617554E+03;
  1.0200210E+00;  9.9999998E-03;  2.8003624E-01;2639;  3.0207826E-02;  0.0000000E+00;  3.5938710E-02;  1.0026776E+03;  4.0124217E-01;  2.1976033E+03;3;  3.1609749E+01;  0.0000000E+00;  1.7788881E+01;0;  3.4121978E-01;  9.9994814E+03;  0.0000000E+00;  1.7085627E-02;  1.0000000E+04;  0.0000000E+00;  9.9919951E+03;  3.1793442E-02;  0.0000000E+00;  3.0942634E-01;  3.1155229E+03;
  1.0200223E+00;  9.9999998E-03;  3.0004120E-01;2640;  3.1734519E-02;  0.0000000E+00;  3.7639879E-02;  1.0026937E+03;  4.0124214E-01;  2.2108115E+03;3;  3.4657448E+01;  0.0000000E+00;  1.6958017E+01;0;  3.0100632E-01;  9.9992617E+03;  0.0000000E+00; -3.2525645E-03;  1.0000000E+04;  0.0000000E+00;  9.9925322E+03;  4.4986621E-02;  0.0000000E+00;  2.5601971E-01;  2.9461831E+03;
  1.0400130E+00;  9.9999998E-03;  1.6000365E-01;2664;  1.7807461E-02;  0.0000000E+00;  6.8829074E-03;  1.0026263E+03;  4.0107533E-01;  2.1486094E+03;3;  1.6001854E+01;  0.0000000E+00;  8.6659431E+00;0;  7.1454525E-02;  1.0000574E+04;  0.0000000E+00; -6.6687382E-05;  1.0000000E+04;  0.0000000E+00;  9.9981904E+03; -3.1680990E-02;  0.0000000E+00;  1.0313552E-01;  6.3286865E+02;
  1.0400137E+00;  9.9999998E-03;  1.8000463E-01;2665;  1.8995700E-02;  0.0000000E+00;  8.5034491E-03;  1.0025803E+03;  4.0107539E-01;  2.1109639E+03;3;  1.7426056E+01;  0.0000000E+00;  1.0391105E+01;0;  1.0978262E-01;  1.0000479E+04;  0.0000000E+00; -7.1894214E-04;  1.0000000E+04;  0.0000000E+00;  9.9973682E+03; -2.6606664E-02;  0.0000000E+00;  1.3638929E-01;  9.3772858E+02;
  1.0400145E+00;  9.9999998E-03;  2.0000622E-01;2666;  2.0499684E-02;  0.0000000E+00;  1.0675265E-02;  1.0025268E+03;  4.0107536E-01;  2.0671741E+03;3;  1.9173462E+01;  0.0000000E+00;  1.2231382E+01;0;  1.5226290E-01;  1.0000351E+04;  0.0000000E+00; -1.7209877E-03;  1.0000000E+04;  0.0000000E+00;  9.9964277E+03; -1.9663341E-02;  0.0000000E+00;  1.7192625E-01;  1.2893654E+03;
  1.0400159E+00;  9.9999998E-03;  2.2000942E-01;2667;  2.2689492E-02;  0.0000000E+00;  1.4289202E-02;  1.0024736E+03;  4.0107536E-01;  2.0236766E+03;3;  2.1563154E+01;  0.0000000E+00;  1.4386065E+01;0;  1.9281821E-01;  1.0000192E+04;  0.0000000E+00;  7.7836961E-04;  1.0000000E+04;  0.0000000E+00;  9.9955244E+03; -1.0929109E-02;  0.0000000E+00;  2.0374732E-01;  1.6304238E+03;
  1.0400180E+00;  9.9999998E-03;  2.4001530E-01;2668;  2.5741970E-02;  0.0000000E+00;  2.0061336E-02;  1.0024241E+03;  4.0107542E-01;  1.9832024E+03;3;  2.4993910E+01;  0.0000000E+00;  1.6743244E+01;0;  2.3036668E-01;  1.0000002E+04;  0.0000000E+00;  1.1265532E-02;  1.0000000E+04;  0.0000000E+00;  9.9947295E+03; -3.1965392E-05;  0.0000000E+00;  2.3039864E-01;  1.9319733E+03;
  1.0400201E+00;  9.9999998E-03;  2.6002392E-01;2669;  2.8957419E-02;  0.0000000E+00;  2.7256960E-02;  1.0023679E+03;  4.0107539E-01;  1.9371692E+03;3;  2.9235044E+01;  0.0000000E+00;  1.8067160E+01;0;  2.7396405E-01;  9.9997754E+03;  0.0000000E+00;  2.3182757E-02;  1.0000000E+04;  0.0000000E+00;  9.9938311E+03;  1.3237527E-02;  0.0000000E+00;  2.6072651E-01;  2.2746226E+03;
  1.0400224E+00;  9.9999998E-03;  2.8003204E-01;2670;  3.2168128E-02;  0.0000000E+00;  3.1858694E-02;  1.0023138E+03;  4.0107539E-01;  1.8928914E+03;3;  3.3796642E+01;  0.0000000E+00;  1.6165062E+01;0;  3.0016166E-01;  9.9995146E+03;  0.0000000E+00;  1.6743749E-02;  1.0000000E+04;  0.0000000E+00;  9.9930156E+03;  2.8982842E-02;  0.0000000E+00;  2.7117881E-01;  2.6060234E+03;
  1.0400245E+00;  9.9999998E-03;  3.0003631E-01;2671;  3.4949351E-02;  0.0000000E+00;  3.3733375E-02;  1.0023304E+03;  4.0107539E-01;  1.9065442E+03;3;  3.8290611E+01;  0.0000000E+00;  1.6353676E+01;0;  2.6909477E-01;  9.9992217E+03;  0.0000000E+00; -4.2113005E-03;  1.0000000E+04;  0.0000000E+00;  9.9936357E+03;  4.6362165E-02;  0.0000000E+00;  2.2273259E-01;  2.4007258E+03;
  1.0600122E+00;  9.9999998E-03;  1.6000329E-01;2695;  1.6858714E-02;  0.0000000E+00;  6.1314618E-03;  1.0022658E+03;  4.0092853E-01;  1.8457479E+03;3;  1.5288041E+01;  0.0000000E+00;  7.6488762E+00;0;  6.3450575E-02;  1.0000577E+04;  0.0000000E+00; -4.4052440E-04;  1.0000000E+04;  0.0000000E+00;  9.9983145E+03; -3.1719163E-02;  0.0000000E+00;  9.5169738E-02;  5.6215179E+02;
  1.0600129E+00;  9.9999998E-03;  1.8000424E-01;2696;  1.8058179E-02;  0.0000000E+00;  7.6414854E-03;  1.0022242E+03;  4.0092853E-01;  1.8118566E+03;3;  1.6716663E+01;  0.0000000E+00;  9.1915817E+00;0;  9.8304823E-02;  1.0000482E+04;  0.0000000E+00; -2.9535128E-03;  1.0000000E+04;  0.0000000E+00;  9.9975811E+03; -2.6913207E-02;  0.0000000E+00;  1.2521803E-01;  8.1922754E+02;
  1.0600139E+00;  9.9999998E-03;  2.0000578E-01;2697;  1.9677490E-02;  0.0000000E+00;  9.6774623E-03;  1.0021776E+03;  4.0092856E-01;  1.7738865E+03;3;  1.8569162E+01;  0.0000000E+00;  1.0843033E+01;0;  1.3556018E-01;  1.0000373E+04;  0.0000000E+00; -7.3543880E-03;  1.0000000E+04;  0.0000000E+00;  9.9967578E+03; -2.1265443E-02;  0.0000000E+00;  1.5682563E-01;  1.1107635E+03;
  1.0600154E+00;  9.9999998E-03;  2.2000889E-01;2698;  2.2067513E-02;  0.0000000E+00;  1.3180291E-02;  1.0021315E+03;  4.0092856E-01;  1.7363047E+03;3;  2.1137234E+01;  0.0000000E+00;  1.2945391E+01;0;  1.7057504E-01;  1.0000245E+04;  0.0000000E+00; -7.2200568E-03;  1.0000000E+04;  0.0000000E+00;  9.9959678E+03; -1.4643214E-02;  0.0000000E+00;  1.8521824E-01;  1.3922926E+03;
  1.0600178E+00;  9.9999998E-03;  2.4001431E-01;2699;  2.5541460E-02;  0.0000000E+00;  1.8478762E-02;  1.0020877E+03;  4.0092856E-01;  1.7006649E+03;3;  2.4878374E+01;  0.0000000E+00;  1.5166077E+01;0;  2.0410766E-01;  1.0000084E+04;  0.0000000E+00;  3.6054584E-03;  1.0000000E+04;  0.0000000E+00;  9.9952549E+03; -5.7183001E-03;  0.0000000E+00;  2.0982596E-01;  1.6471262E+03;
  1.0600208E+00;  9.9999998E-03;  2.6002181E-01;2700;  2.9867070E-02;  0.0000000E+00;  2.4611291E-02;  1.0020367E+03;  4.0092856E-01;  1.6591011E+03;3;  3.0122322E+01;  0.0000000E+00;  1.6231358E+01;0;  2.4327978E-01;  9.9998564E+03;  0.0000000E+00;  1.2891390E-02;  1.0000000E+04;  0.0000000E+00;  9.9944639E+03;  7.5706854E-03;  0.0000000E+00;  2.3570910E-01;  1.9333531E+03;
  1.0600241E+00;  9.9999998E-03;  2.8002846E-01;2701;  3.4488671E-02;  0.0000000E+00;  2.8411051E-02;  1.0019937E+03;  4.0092859E-01;  1.6240436E+03;3;  3.6312084E+01;  0.0000000E+00;  1.4987036E+01;0;  2.6393548E-01;  9.9995332E+03;  0.0000000E+00;  2.5839719E-03;  1.0000000E+04;  0.0000000E+00;  9.9939287E+03;  2.7009876E-02;  0.0000000E+00;  2.3692559E-01;  2.1452815E+03;
  1.0600274E+00;  9.9999998E-03;  3.0003196E-01;2702;  3.8662218E-02;  0.0000000E+00;  3.0293467E-02;  1.0020095E+03;  4.0092859E-01;  1.6369579E+03;3;  4.2424847E+01;  0.0000000E+00;  1.6096029E+01;0;  2.4345845E-01;  9.9990996E+03;  0.0000000E+00;  8.5370410E-03;  1.0000000E+04;  0.0000000E+00;  9.9946807E+03;  5.2723683E-02;  0.0000000E+00;  1.9073476E-01;  1.8936733E+03;
  1.0800115E+00;  9.9999998E-03;  1.6000299E-01;2726;  1.5928200E-02;  0.0000000E+00;  5.4892530E-03;  1.0019523E+03;  4.0080246E-01;  1.5813033E+03;3;  1.4588340E+01;  0.0000000E+00;  6.7586570E+00;0;  6.0374431E-02;  1.0000532E+04;  0.0000000E+00; -1.9122480E-03;  1.0000000E+04;  0.0000000E+00;  9.9983936E+03; -2.9191790E-02;  0.0000000E+00;  8.9566223E-02;  5.0301129E+02;
  1.0800122E+00;  9.9999998E-03;  1.8000393E-01;2727;  1.7143238E-02;  0.0000000E+00;  6.8998085E-03;  1.0019156E+03;  4.0080246E-01;  1.5515637E+03;3;  1.6035952E+01;  0.0000000E+00;  8.1213284E+00;0;  9.1409370E-02;  1.0000447E+04;  0.0000000E+00; -8.4662847E-03;  1.0000000E+04;  0.0000000E+00;  9.9977432E+03; -2.5227085E-02;  0.0000000E+00;  1.1663646E-01;  7.1590576E+02;
  1.0800133E+00;  9.9999998E-03;  2.0000558E-01;2728;  1.8937465E-02;  0.0000000E+00;  8.9910980E-03;  1.0018760E+03;  4.0080249E-01;  1.5195065E+03;3;  1.8034678E+01;  0.0000000E+00;  9.7489758E+00;0;  1.2275603E-01;  1.0000369E+04;  0.0000000E+00; -1.8860972E-02;  1.0000000E+04;  0.0000000E+00;  9.9970322E+03; -2.1722334E-02;  0.0000000E+00;  1.4447837E-01;  9.5265527E+02;
  1.0800152E+00;  9.9999998E-03;  2.2000876E-01;2729;  2.1623336E-02;  0.0000000E+00;  1.2533897E-02;  1.0018377E+03;  4.0080246E-01;  1.4885110E+03;3;  2.0921741E+01;  0.0000000E+00;  1.1847122E+01;0;  1.5174684E-01;  1.0000294E+04;  0.0000000E+00; -2.3460757E-02;  1.0000000E+04;  0.0000000E+00;  9.9963438E+03; -1.8135048E-02;  0.0000000E+00;  1.6988190E-01;  1.1816378E+03;
  1.0800179E+00;  9.9999998E-03;  2.4001391E-01;2730;  2.5452927E-02;  0.0000000E+00;  1.7557018E-02;  1.0017986E+03;  4.0080249E-01;  1.4568394E+03;3;  2.4947371E+01;  0.0000000E+00;  1.4053835E+01;0;  1.8170689E-01;  1.0000173E+04;  0.0000000E+00; -1.6126465E-02;  1.0000000E+04;  0.0000000E+00;  9.9956855E+03; -1.1949461E-02;  0.0000000E+00;  1.9365636E-01;  1.3991749E+03;
  1.0800215E+00;  9.9999998E-03;  2.6002038E-01;2731;  3.0612117E-02;  0.0000000E+00;  2.2741819E-02;  1.0017514E+03;  4.0080243E-01;  1.4186012E+03;3;  3.0837536E+01;  0.0000000E+00;  1.5043219E+01;0;  2.1750741E-01;  9.9999365E+03;  0.0000000E+00; -1.5198955E-02;  1.0000000E+04;  0.0000000E+00;  9.9949824E+03;  1.7247997E-03;  0.0000000E+00;  2.1578261E-01;  1.6369075E+03;
  1.0800256E+00;  9.9999998E-03;  2.8002557E-01;2732;  3.6105506E-02;  0.0000000E+00;  2.5775539E-02;  1.0017184E+03;  4.0080252E-01;  1.3918534E+03;3;  3.7728340E+01;  0.0000000E+00;  1.4665017E+01;0;  2.3412172E-01;  9.9995234E+03;  0.0000000E+00; -1.9178882E-02;  1.0000000E+04;  0.0000000E+00;  9.9947334E+03;  2.6360679E-02;  0.0000000E+00;  2.0776105E-01;  1.7362583E+03;
  1.0800296E+00;  9.9999998E-03;  3.0002815E-01;2733;  4.1266635E-02;  0.0000000E+00;  2.7498985E-02;  1.0017315E+03;  4.0080243E-01;  1.4024728E+03;3;  4.4839722E+01;  0.0000000E+00;  1.6722538E+01;0;  2.2575045E-01;  9.9988721E+03;  0.0000000E+00;  5.7120390E-02;  1.0000000E+04;  0.0000000E+00;  9.9956484E+03;  6.4191855E-02;  0.0000000E+00;  1.6155858E-01;  1.4478367E+03;
  1.1000108E+00;  9.9999998E-03;  1.6000272E-01;2756;  1.5024681E-02;  0.0000000E+00;  4.8924214E-03;  1.0016855E+03;  4.0069669E-01;  1.3549507E+03;3;  1.3931750E+01;  0.0000000E+00;  5.9131131E+00;0;  6.1577410E-02;  1.0000438E+04;  0.0000000E+00; -6.0671917E-03;  1.0000000E+04;  0.0000000E+00;  9.9984414E+03; -2.4394944E-02;  0.0000000E+00;  8.5972354E-02;  4.5169601E+02;
  1.1000115E+00;  9.9999998E-03;  1.8000376E-01;2757;  1.6356485E-02;  0.0000000E+00;  6.3482649E-03;  1.0016540E+03;  4.0069664E-01;  1.3296509E+03;3;  1.5467534E+01;  0.0000000E+00;  7.2266984E+00;0;  8.8209584E-02;  1.0000379E+04;  0.0000000E+00; -1.9147273E-02;  1.0000000E+04;  0.0000000E+00;  9.9978730E+03; -2.1899186E-02;  0.0000000E+00;  1.1010877E-01;  6.2505420E+02;
  1.1000129E+00;  9.9999998E-03;  2.0000562E-01;2758;  1.8363789E-02;  0.0000000E+00;  8.6447103E-03;  1.0016220E+03;  4.0069675E-01;  1.3038716E+03;3;  1.7682072E+01;  0.0000000E+00;  8.9283762E+00;0;  1.1324204E-01;  1.0000348E+04;  0.0000000E+00; -3.6983341E-02;  1.0000000E+04;  0.0000000E+00;  9.9972637E+03; -2.1129807E-02;  0.0000000E+00;  1.3437185E-01;  8.1509100E+02;
  1.1000149E+00;  9.9999998E-03;  2.2000898E-01;2759;  2.1369934E-02;  0.0000000E+00;  1.2316692E-02;  1.0015906E+03;  4.0069675E-01;  1.2786671E+03;3;  2.0897091E+01;  0.0000000E+00;  1.1078566E+01;0;  1.3660198E-01;  1.0000322E+04;  0.0000000E+00; -4.7267508E-02;  1.0000000E+04;  0.0000000E+00;  9.9966611E+03; -2.0809047E-02;  0.0000000E+00;  1.5741102E-01;  1.0013899E+03;
  1.1000180E+00;  9.9999998E-03;  2.4001394E-01;2760;  2.5544951E-02;  0.0000000E+00;  1.7124068E-02;  1.0015549E+03;  4.0069669E-01;  1.2500121E+03;3;  2.5258398E+01;  0.0000000E+00;  1.3283155E+01;0;  1.6431548E-01;  1.0000240E+04;  0.0000000E+00; -4.7124725E-02;  1.0000000E+04;  0.0000000E+00;  9.9960303E+03; -1.6905781E-02;  0.0000000E+00;  1.8122126E-01;  1.1915118E+03;
  1.1000220E+00;  9.9999998E-03;  2.6001936E-01;2761;  3.1007802E-02;  0.0000000E+00;  2.1356044E-02;  1.0015123E+03;  4.0069669E-01;  1.2157026E+03;3;  3.1550980E+01;  0.0000000E+00;  1.4164442E+01;0;  1.9593248E-01;  9.9999873E+03;  0.0000000E+00; -5.1578715E-02;  1.0000000E+04;  0.0000000E+00;  9.9954326E+03; -2.3062371E-03;  0.0000000E+00;  1.9823872E-01;  1.3780162E+03;
  1.1000261E+00;  9.9999998E-03;  2.8002325E-01;2762;  3.6443233E-02;  0.0000000E+00;  2.3755621E-02;  1.0014899E+03;  4.0069672E-01;  1.1976844E+03;3;  3.8296265E+01;  0.0000000E+00;  1.4802325E+01;0;  2.0774564E-01;  9.9994990E+03;  0.0000000E+00; -2.1231795E-02;  1.0000000E+04;  0.0000000E+00;  9.9954766E+03;  2.6003182E-02;  0.0000000E+00;  1.8174246E-01;  1.3682566E+03;
  1.1200101E+00;  9.9999998E-03;  1.6000256E-01;2785;  1.4273126E-02;  0.0000000E+00;  4.4432096E-03;  1.0014635E+03;  4.0061006E-01;  1.1649181E+03;3;  1.3403288E+01;  0.0000000E+00;  5.2120452E+00;0;  6.5972276E-02;  1.0000307E+04;  0.0000000E+00; -1.5421836E-02;  1.0000000E+04;  0.0000000E+00;  9.9984668E+03; -1.7767282E-02;  0.0000000E+00;  8.3739556E-02;  4.0476724E+02;
  1.1200111E+00;  9.9999998E-03;  1.8000378E-01;2786;  1.5761210E-02;  0.0000000E+00;  6.0537201E-03;  1.0014376E+03;  4.0060997E-01;  1.1443271E+03;3;  1.5081800E+01;  0.0000000E+00;  6.5697718E+00;0;  8.7597512E-02;  1.0000279E+04;  0.0000000E+00; -3.6413338E-02;  1.0000000E+04;  0.0000000E+00;  9.9979766E+03; -1.7300660E-02;  0.0000000E+00;  1.0489817E-01;  5.4553510E+02;
  1.1200126E+00;  9.9999998E-03;  2.0000596E-01;2787;  1.8038316E-02;  0.0000000E+00;  8.6408528E-03;  1.0014126E+03;  4.0061000E-01;  1.1244000E+03;3;  1.7567999E+01;  0.0000000E+00;  8.3796291E+00;0;  1.0663155E-01;  1.0000297E+04;  0.0000000E+00; -6.0465444E-02;  1.0000000E+04;  0.0000000E+00;  9.9974590E+03; -1.9346416E-02;  0.0000000E+00;  1.2597796E-01;  6.9881049E+02;
  1.1200150E+00;  9.9999998E-03;  2.2000954E-01;2788;  2.1389373E-02;  0.0000000E+00;  1.2493343E-02;  1.0013862E+03;  4.0060997E-01;  1.1034288E+03;3;  2.1129105E+01;  0.0000000E+00;  1.0659179E+01;0;  1.2627101E-01;  1.0000315E+04;  0.0000000E+00; -7.5537831E-02;  1.0000000E+04;  0.0000000E+00;  9.9969141E+03; -2.1424673E-02;  0.0000000E+00;  1.4769568E-01;  8.5413806E+02;
  1.1200184E+00;  9.9999998E-03;  2.4001421E-01;2789;  2.5913943E-02;  0.0000000E+00;  1.6896434E-02;  1.0013519E+03;  4.0061000E-01;  1.0760996E+03;3;  2.6141441E+01;  0.0000000E+00;  1.2631545E+01;0;  1.5310960E-01;  1.0000239E+04;  0.0000000E+00; -8.2468942E-02;  1.0000000E+04;  0.0000000E+00;  9.9963066E+03; -1.7727634E-02;  0.0000000E+00;  1.7083722E-01;  1.0207115E+03;
  1.1200222E+00;  9.9999998E-03;  2.6001853E-01;2790;  3.1138036E-02;  0.0000000E+00;  2.0134998E-02;  1.0013172E+03;  4.0060994E-01;  1.0483907E+03;3;  3.2426243E+01;  0.0000000E+00;  1.3414065E+01;0;  1.7757575E-01;  9.9999639E+03;  0.0000000E+00; -7.2713763E-02;  1.0000000E+04;  0.0000000E+00;  9.9958906E+03; -1.7724431E-03;  0.0000000E+00;  1.7934820E-01;  1.1324359E+03;
  1.1200260E+00;  9.9999998E-03;  2.8002116E-01;2791;  3.6035046E-02;  0.0000000E+00;  2.1941546E-02;  1.0013076E+03;  4.0060994E-01;  1.0407976E+03;3;  3.8801167E+01;  0.0000000E+00;  1.4851141E+01;0;  1.8289191E-01;  9.9994414E+03;  0.0000000E+00;  2.2537405E-02;  1.0000000E+04;  0.0000000E+00;  9.9962197E+03;  2.7921412E-02;  0.0000000E+00;  1.5497050E-01;  1.0287190E+03;
  1.1400096E+00;  9.9999998E-03;  1.6000259E-01;2813;  1.3724327E-02;  0.0000000E+00;  4.2272946E-03;  1.0012827E+03;  4.0054041E-01;  1.0079009E+03;3;  1.3047297E+01;  0.0000000E+00;  4.7052708E+00;0;  7.1968235E-02;  1.0000148E+04;  0.0000000E+00; -3.2223299E-02;  1.0000000E+04;  0.0000000E+00;  9.9984873E+03; -1.0084170E-02;  0.0000000E+00;  8.2052402E-02;  3.6177951E+02;
  1.1400108E+00;  9.9999998E-03;  1.8000408E-01;2814;  1.5442996E-02;  0.0000000E+00;  6.1061936E-03;  1.0012625E+03;  4.0054047E-01;  9.9206964E+02;3;  1.4940966E+01;  0.0000000E+00;  6.1833239E+00;0;  8.8439606E-02;  1.0000163E+04;  0.0000000E+00; -5.9610050E-02;  1.0000000E+04;  0.0000000E+00;  9.9980684E+03; -1.1931566E-02;  0.0000000E+00;  1.0037117E-01;  4.7788452E+02;
  1.1400126E+00;  9.9999998E-03;  2.0000662E-01;2815;  1.8083349E-02;  0.0000000E+00;  9.0417610E-03;  1.0012426E+03;  4.0054038E-01;  9.7642529E+02;3;  1.7792311E+01;  0.0000000E+00;  8.1677618E+00;0;  1.0322416E-01;  1.0000216E+04;  0.0000000E+00; -8.6134613E-02;  1.0000000E+04;  0.0000000E+00;  9.9976182E+03; -1.6013533E-02;  0.0000000E+00;  1.1923769E-01;  6.0343127E+02;
  1.1400154E+00;  9.9999998E-03;  2.2001034E-01;2816;  2.1859955E-02;  0.0000000E+00;  1.2953511E-02;  1.0012178E+03;  4.0054035E-01;  9.5684613E+02;3;  2.1989182E+01;  0.0000000E+00;  1.0447008E+01;0;  1.2263227E-01;  1.0000240E+04;  0.0000000E+00; -1.0395018E-01;  1.0000000E+04;  0.0000000E+00;  9.9970977E+03; -1.8089652E-02;  0.0000000E+00;  1.4072192E-01;  7.3677844E+02;
  1.1400187E+00;  9.9999998E-03;  2.4001443E-01;2817;  2.6497481E-02;  0.0000000E+00;  1.6605537E-02;  1.0011854E+03;  4.0054038E-01;  9.3145911E+02;3;  2.7544075E+01;  0.0000000E+00;  1.1898108E+01;0;  1.4810321E-01;  1.0000132E+04;  0.0000000E+00; -1.0583082E-01;  1.0000000E+04;  0.0000000E+00;  9.9965615E+03; -1.1817875E-02;  0.0000000E+00;  1.5992108E-01;  8.6292871E+02;
  1.1400222E+00;  9.9999998E-03;  2.6001760E-01;2818;  3.1077133E-02;  0.0000000E+00;  1.8987140E-02;  1.0011621E+03;  4.0054044E-01;  9.1309735E+02;3;  3.3249107E+01;  0.0000000E+00;  1.3113077E+01;0;  1.6307001E-01;  9.9998340E+03;  0.0000000E+00; -4.8118934E-02;  1.0000000E+04;  0.0000000E+00;  9.9963945E+03;  5.6588356E-03;  0.0000000E+00;  1.5741117E-01;  8.7521985E+02;
  1.1600095E+00;  9.9999998E-03;  1.6000287E-01;2840;  1.3475350E-02;  0.0000000E+00;  4.3596756E-03;  1.0011395E+03;  4.0048587E-01;  8.8068079E+02;3;  1.2960456E+01;  0.0000000E+00;  4.4965978E+00;0;  7.7886626E-02;  9.9999883E+03;  0.0000000E+00; -5.5887774E-02;  1.0000000E+04;  0.0000000E+00;  9.9985146E+03; -2.3444495E-03;  0.0000000E+00;  8.0231078E-02;  3.2458405E+02;
  1.1600109E+00;  9.9999998E-03;  1.8000475E-01;2841;  1.5571791E-02;  0.0000000E+00;  6.6114352E-03;  1.0011237E+03;  4.0048584E-01;  8.6842615E+02;3;  1.5194842E+01;  0.0000000E+00;  6.1749535E+00;0;  9.0368919E-02;  1.0000036E+04;  0.0000000E+00; -8.4948763E-02;  1.0000000E+04;  0.0000000E+00;  9.9981475E+03; -6.0585225E-03;  0.0000000E+00;  9.6427441E-02;  4.2066684E+02;
  1.1600132E+00;  9.9999998E-03;  2.0000763E-01;2842;  1.8708501E-02;  0.0000000E+00;  9.8828012E-03;  1.0011051E+03;  4.0048590E-01;  8.5405194E+02;3;  1.8635214E+01;  0.0000000E+00;  8.3689337E+00;0;  1.0505091E-01;  1.0000087E+04;  0.0000000E+00; -1.1001840E-01;  1.0000000E+04;  0.0000000E+00;  9.9977275E+03; -9.8348269E-03;  0.0000000E+00;  1.1488573E-01;  5.2463837E+02;
  1.1600161E+00;  9.9999998E-03;  2.2001119E-01;2843;  2.2776166E-02;  0.0000000E+00;  1.3461762E-02;  1.0010788E+03;  4.0048581E-01;  8.3378088E+02;3;  2.3473108E+01;  0.0000000E+00;  1.0318230E+01;0;  1.2700821E-01;  1.0000059E+04;  0.0000000E+00; -1.2304585E-01;  1.0000000E+04;  0.0000000E+00;  9.9972305E+03; -8.4471498E-03;  0.0000000E+00;  1.3545537E-01;  6.3101263E+02;
  1.1600193E+00;  9.9999998E-03;  2.4001446E-01;2844;  2.7030360E-02;  0.0000000E+00;  1.6276270E-02;  1.0010511E+03;  4.0048587E-01;  8.1231207E+02;3;  2.8704033E+01;  0.0000000E+00;  1.1762298E+01;0;  1.4846900E-01;  9.9998877E+03;  0.0000000E+00; -8.9589946E-02;  1.0000000E+04;  0.0000000E+00;  9.9968457E+03;  1.9334650E-03;  0.0000000E+00;  1.4653553E-01;  6.8358453E+02;
  1.1600221E+00;  9.9999998E-03;  2.6001662E-01;2845;  3.0690910E-02;  0.0000000E+00;  1.7982699E-02;  1.0010398E+03;  4.0048584E-01;  8.0355756E+02;3;  3.3611710E+01;  0.0000000E+00;  1.3323803E+01;0;  1.5436150E-01;  9.9995840E+03;  0.0000000E+00;  4.3997176E-02;  1.0000000E+04;  0.0000000E+00;  9.9969258E+03;  1.9079803E-02;  0.0000000E+00;  1.3528170E-01;  6.4652106E+02;
  1.1800097E+00;  9.9999998E-03;  1.6000360E-01;2866;  1.3799216E-02;  0.0000000E+00;  5.0420384E-03;  1.0010282E+03;  4.0044385E-01;  7.7811218E+02;3;  1.3328785E+01;  0.0000000E+00;  4.7400107E+00;0;  8.3441988E-02;  9.9998301E+03;  0.0000000E+00; -8.1623212E-02;  1.0000000E+04;  0.0000000E+00;  9.9985430E+03;  5.0139297E-03;  0.0000000E+00;  7.8428060E-02;  2.9212747E+02;
  1.1800117E+00;  9.9999998E-03;  1.8000582E-01;2867;  1.6491469E-02;  0.0000000E+00;  7.6839533E-03;  1.0010130E+03;  4.0044388E-01;  7.6665302E+02;3;  1.6158615E+01;  0.0000000E+00;  6.7273788E+00;0;  9.6085340E-02;  9.9998672E+03;  0.0000000E+00; -1.0788177E-01;  1.0000000E+04;  0.0000000E+00;  9.9982021E+03;  1.9488275E-03;  0.0000000E+00;  9.4136514E-02;  3.6973016E+02;
  1.1800143E+00;  9.9999998E-03;  2.0000874E-01;2868;  1.9933978E-02;  0.0000000E+00;  1.0895887E-02;  1.0009917E+03;  4.0044388E-01;  7.5050214E+02;3;  2.0069885E+01;  0.0000000E+00;  8.8962135E+00;0;  1.1472274E-01;  9.9998555E+03;  0.0000000E+00; -1.2490989E-01;  1.0000000E+04;  0.0000000E+00;  9.9977871E+03;  2.0853234E-03;  0.0000000E+00;  1.1263742E-01;  4.4891516E+02;
  1.1800170E+00;  9.9999998E-03;  2.2001185E-01;2869;  2.3748836E-02;  0.0000000E+00;  1.3863651E-02;  1.0009647E+03;  4.0044388E-01;  7.3011115E+02;3;  2.4950644E+01;  0.0000000E+00;  1.0522402E+01;0;  1.3813038E-01;  9.9997510E+03;  0.0000000E+00; -1.0699824E-01;  1.0000000E+04;  0.0000000E+00;  9.9973535E+03;  8.4468564E-03;  0.0000000E+00;  1.2968352E-01;  5.0478165E+02;
  1.1800196E+00;  9.9999998E-03;  2.4001427E-01;2870;  2.7175095E-02;  0.0000000E+00;  1.5931813E-02;  1.0009448E+03;  4.0044388E-01;  7.1504309E+02;3;  2.9429981E+01;  0.0000000E+00;  1.2076697E+01;0;  1.5257020E-01;  9.9995537E+03;  0.0000000E+00; -8.0293906E-04;  1.0000000E+04;  0.0000000E+00;  9.9971563E+03;  2.0238589E-02;  0.0000000E+00;  1.3233161E-01;  5.0166116E+02;
  1.2000110E+00;  9.9999998E-03;  1.6000475E-01;2890;  1.5180209E-02;  0.0000000E+00;  6.3158576E-03;  1.0009398E+03;  4.0041229E-01;  6.9292181E+02;3;  1.4563208E+01;  0.0000000E+00;  5.6370707E+00;0;  9.2818424E-02;  9.9996270E+03;  0.0000000E+00; -1.0449773E-01;  1.0000000E+04;  0.0000000E+00;  9.9985557E+03;  1.4976556E-02;  0.0000000E+00;  7.7841870E-02;  2.5975226E+02;
  1.2000134E+00;  9.9999998E-03;  1.8000700E-01;2891;  1.8278725E-02;  0.0000000E+00;  8.9222332E-03;  1.0009208E+03;  4.0041238E-01;  6.7894513E+02;3;  1.7849825E+01;  0.0000000E+00;  7.6566467E+00;0;  1.1029479E-01;  9.9995781E+03;  0.0000000E+00; -1.2221642E-01;  1.0000000E+04;  0.0000000E+00;  9.9982266E+03;  1.6963784E-02;  0.0000000E+00;  9.3331002E-02;  3.1482846E+02;
  1.2000157E+00;  9.9999998E-03;  2.0000964E-01;2892;  2.1433365E-02;  0.0000000E+00;  1.1722025E-02;  1.0008969E+03;  4.0041232E-01;  6.6127710E+02;3;  2.1721004E+01;  0.0000000E+00;  9.6025591E+00;0;  1.3233128E-01;  9.9994805E+03;  0.0000000E+00; -1.0723037E-01;  1.0000000E+04;  0.0000000E+00;  9.9978447E+03;  2.2048187E-02;  0.0000000E+00;  1.1028309E-01;  3.5139935E+02;
  1.2000178E+00;  9.9999998E-03;  2.2001219E-01;2893;  2.4344886E-02;  0.0000000E+00;  1.4051053E-02;  1.0008740E+03;  4.0041232E-01;  6.4440051E+02;3;  2.5980934E+01;  0.0000000E+00;  1.1037931E+01;0;  1.5143408E-01;  9.9993691E+03;  0.0000000E+00; -1.5854271E-02;  1.0000000E+04;  0.0000000E+00;  9.9974990E+03;  2.9040601E-02;  0.0000000E+00;  1.2239347E-01;  3.6504697E+02;
  1.2200131E+00;  9.9999998E-03;  1.6000591E-01;2913;  1.7598739E-02;  0.0000000E+00;  7.6001743E-03;  1.0008630E+03;  4.0038911E-01;  6.1635327E+02;3;  1.6825659E+01;  0.0000000E+00;  6.6953788E+00;0;  1.1288647E-01;  9.9992578E+03;  0.0000000E+00; -1.1585831E-01;  1.0000000E+04;  0.0000000E+00;  9.9985537E+03;  3.4738977E-02;  0.0000000E+00;  7.8147493E-02;  2.1728568E+02;
  1.2200152E+00;  9.9999998E-03;  1.8000802E-01;2914;  2.0217197E-02;  0.0000000E+00;  9.9637229E-03;  1.0008417E+03;  4.0038902E-01;  6.0119562E+02;3;  1.9875942E+01;  0.0000000E+00;  8.6215563E+00;0;  1.3290574E-01;  9.9991484E+03;  0.0000000E+00; -1.0159505E-01;  1.0000000E+04;  0.0000000E+00;  9.9982383E+03;  4.0141504E-02;  0.0000000E+00;  9.2764229E-02;  2.3729755E+02;
  1.2200168E+00;  9.9999998E-03;  2.0001023E-01;2915;  2.2438753E-02;  0.0000000E+00;  1.2212665E-02;  1.0008217E+03;  4.0038911E-01;  5.8688989E+02;3;  2.3085884E+01;  0.0000000E+00;  1.0316931E+01;0;  1.5029736E-01;  9.9990713E+03;  0.0000000E+00; -1.5357343E-02;  1.0000000E+04;  0.0000000E+00;  9.9979141E+03;  4.3683723E-02;  0.0000000E+00;  1.0661364E-01;  2.4298322E+02;
  1.2200181E+00;  9.9999998E-03;  2.2001220E-01;2916;  2.4245778E-02;  0.0000000E+00;  1.3925910E-02;  1.0008064E+03;  4.0038905E-01;  5.7599030E+02;3;  2.6155121E+01;  0.0000000E+00;  1.1550968E+01;0;  1.5973899E-01;  9.9990283E+03;  0.0000000E+00;  1.6341622E-01;  1.0000000E+04;  0.0000000E+00;  9.9976484E+03;  4.5485854E-02;  0.0000000E+00;  1.1425313E-01;  3.4356305E+02;
  1.2400148E+00;  9.9999998E-03;  1.6000701E-01;2934;  1.9401761E-02;  0.0000000E+00;  8.7481095E-03;  1.0007993E+03;  4.0037224E-01;  5.4986884E+02;3;  1.8841394E+01;  0.0000000E+00;  7.7743921E+00;0;  1.3595425E-01;  9.9988545E+03;  0.0000000E+00; -8.0371760E-02;  1.0000000E+04;  0.0000000E+00;  9.9985225E+03;  5.6354247E-02;  0.0000000E+00;  7.9599999E-02;  1.5052867E+02;
  1.2400160E+00;  9.9999998E-03;  1.8000887E-01;2935;  2.0853091E-02;  0.0000000E+00;  1.0769952E-02;  1.0007855E+03;  4.0037221E-01;  5.4035455E+02;3;  2.0987097E+01;  0.0000000E+00;  9.5526466E+00;0;  1.4693823E-01;  9.9988760E+03;  0.0000000E+00; -7.1171660E-04;  1.0000000E+04;  0.0000000E+00;  9.9982246E+03;  5.3822670E-02;  0.0000000E+00;  9.3115561E-02;  1.6001260E+02;
  1.2600151E+00;  9.9999998E-03;  1.6000792E-01;2952;  1.9489054E-02;  0.0000000E+00;  9.6586524E-03;  1.0007631E+03;  4.0036044E-01;  5.0289587E+02;3;  1.9489611E+01;  0.0000000E+00;  8.8269787E+00;0;  1.4072622E-01;  9.9988008E+03;  0.0000000E+00;  3.6214408E-02;  1.0000000E+04;  0.0000000E+00;  9.9984463E+03;  5.7660751E-02;  0.0000000E+00;  8.3065473E-02;  1.1068621E+02;
