TimeStep;Np;Nbound;Nfixed;Nmoving;Nfloat;Nfluid
0.00407899;2975;1031;1031;0;0;1944

Pos.x;Pos.y;Pos.z;Idp;Vel.x;Vel.y;Vel.z;Rhop;Mass;Press;Type;Acec.x;Acec.y;Acec.z;CellOffSpring;GradVel;Qfxx;Qfxy;Qfxz;Qfyy;Qfyz;Qfzz;StrainDot.x;StrainDot.y;StrainDot.z;VonMises3D;
 -2.2000000E-01;  9.9999998E-03; -3.8000000E-01;0;  0.0000000E+00;  0.0000000E+00;  0.0000000E+00;  1.0000000E+03;  4.0000001E-01;  0.0000000E+00;0;  0.0000000E+00;  0.0000000E+00;  0.0000000E+00;0;  0.0000000E+00;  1.0000000E+04;  0.0000000E+00;  0.0000000E+00;  1.0000000E+04;  0.0000000E+00;  1.0000000E+04;  0.0000000E+00;  0.0000000E+00;  0.0000000E+00;  0.0000000E+00;
 -2.2000000E-01;  9.9999998E-03; -3.6000001E-01;1;  0.0000000E+00;  0.0000000E+00;  0.0000000E+00;  1.0000000E+03;  4.0000001E-01;  0.0000000E+00;0;  0.0000000E+00;  0.0000000E+00;  0.0000000E+00;0;  0.0000000E+00;  1.0000000E+04;  0.0000000E+00;  0.0000000E+00;  1.0000000E+04;  0.0000000E+00;  1.0000000E+04;  0.0000000E+00;  0.0000000E+00;  0.0000000E+00;  0.0000000E+00;
 -2.0000000E-01;  9.9999998E-03; -4.0000001E-01;39;  0.0000000E+00;  0.0000000E+00;  0.0000000E+00;  1.0000000E+03;  4.0000001E-01;  0.0000000E+00;0;  0.0000000E+00;  0.0000000E+00;  0.0000000E+00;0;  0.0000000E+00;  1.0000000E+04;  0.0000000E+00;  0.0000000E+00;  1.0000000E+04;  0.0000000E+00;  1.0000000E+04;  0.0000000E+00;  0.0000000E+00;  0.0000000E+00;  0.0000000E+00;
 -2.0000000E-01;  9.9999998E-03; -3.8000000E-01;40;  0.0000000E+00;  0.0000000E+00;  0.0000000E+00;  1.0000000E+03;  4.0000001E-01;  0.0000000E+00;0;  0.0000000E+00;  0.0000000E+00;  0.0000000E+00;0;  0.0000000E+00;  1.0000000E+04;  0.0000000E+00;  0.0000000E+00;  1.0000000E+04;  0.0000000E+00;  1.0000000E+04;  0.0000000E+00;  0.0000000E+00;  0.0000000E+00;  0.0000000E+00;
 -2.0000000E-01;  9.9999998E-03; -3.6000001E-01;41;  0.0000000E+00;  0.0000000E+00;  0.0000000E+00;  1.0000000E+03;  4.0000001E-01;  0.0000000E+00;0;  0.0000000E+00;  0.0000000E+00;  0.0000000E+00;0;  0.0000000E+00;  1.0000000E+04;  0.0000000E+00;  0.0000000E+00;  1.0000000E+04;  0.0000000E+00;  1.0000000E+04;  0.0000000E+00;  0.0000000E+00;  0.0000000E+00;  0.0000000E+00;
 -1.8000001E-01;  9.9999998E-03; -4.0000001E-01;80;  0.0000000E+00;  0.0000000E+00;  0.0000000E+00;  1.0000000E+03;  4.0000001E-01;  0.0000000E+00;0;  0.0000000E+00;  0.0000000E+00;  0.0000000E+00;0;  0.0000000E+00;  1.0000000E+04;  0.0000000E+00;  0.0000000E+00;  1.0000000E+04;  0.0000000E+00;  1.0000000E+04;  0.0000000E+00;  0.0000000E+00;  0.0000000E+00;  0.0000000E+00;
 -1.8000001E-01;  9.9999998E-03; -3.8000000E-01;81;  0.0000000E+00;  0.0000000E+00;  0.0000000E+00;  1.0000000E+03;  4.0000001E-01;  0.0000000E+00;0;  0.0000000E+00;  0.0000000E+00;  0.0000000E+00;0;  0.0000000E+00;  1.0000000E+04;  0.0000000E+00;  0.0000000E+00;  1.0000000E+04;  0.0000000E+00;  1.0000000E+04;  0.0000000E+00;  0.0000000E+00;  0.0000000E+00;  0.0000000E+00;
 -1.8000001E-01;  9.9999998E-03; -3.6000001E-01;82;  0.0000000E+00;  0.0000000E+00;  0.0000000E+00;  1.0000000E+03;  4.0000001E-01;  0.0000000E+00;0;  0.0000000E+00;  0.0000000E+00;  0.0000000E+00;0;  0.0000000E+00;  1.0000000E+04;  0.0000000E+00;  0.0000000E+00;  1.0000000E+04;  0.0000000E+00;  1.0000000E+04;  0.0000000E+00;  0.0000000E+00;  0.0000000E+00;  0.0000000E+00;
 -1.6000000E-01;  9.9999998E-03; -4.0000001E-01;121;  0.0000000E+00;  0.0000000E+00;  0.0000000E+00;  1.0000000E+03;  4.0000001E-01;  0.0000000E+00;0;  0.0000000E+00;  0.0000000E+00;  0.0000000E+00;0;  0.0000000E+00;  1.0000000E+04;  0.0000000E+00;  0.0000000E+00;  1.0000000E+04;  0.0000000E+00;  1.0000000E+04;  0.0000000E+00;  0.0000000E+00;  0.0000000E+00;  0.0000000E+00;
 -1.6000000E-01;  9.9999998E-03; -3.8000000E-01;122;  0.0000000E+00;  0.0000000E+00;  0.0000000E+00;  1.0000000E+03;  4.0000001E-01;  0.0000000E+00;0;  0.0000000E+00;  0.0000000E+00;  0.0000000E+00;0;  0.0000000E+00;  1.0000000E+04;  0.0000000E+00;  0.0000000E+00;  1.0000000E+04;  0.0000000E+00;  1.0000000E+04;  0.0000000E+00;  0.0000000E+00;  0.0000000E+00;  0.0000000E+00;
 -1.6000000E-01;  9.9999998E-03; -3.6000001E-01;123;  0.0000000E+00;  0.0000000E+00;  0.0000000E+00;  1.0000000E+03;  4.0000001E-01;  0.0000000E+00;0;  0.0000000E+00;  0.0000000E+00;  0.0000000E+00;0;  0.0000000E+00;  1.0000000E+04;  0.0000000E+00;  0.0000000E+00;  1.0000000E+04;  0.0000000E+00;  1.0000000E+04;  0.0000000E+00;  0.0000000E+00;  0.0000000E+00;  0.0000000E+00;
 -1.4000000E-01;  9.9999998E-03; -4.0000001E-01;162;  0.0000000E+00;  0.0000000E+00;  0.0000000E+00;  1.0000000E+03;  4.0000001E-01;  0.0000000E+00;0;  0.0000000E+00;  0.0000000E+00;  0.0000000E+00;0;  0.0000000E+00;  1.0000000E+04;  0.0000000E+00;  0.0000000E+00;  1.0000000E+04;  0.0000000E+00;  1.0000000E+04;  0.0000000E+00;  0.0000000E+00;  0.0000000E+00;  0.0000000E+00;
 -1.4000000E-01;  9.9999998E-03; -3.8000000E-01;163;  0.0000000E+00;  0.0000000E+00;  0.0000000E+00;  1.0000000E+03;  4.0000001E-01;  0.0000000E+00;0;  0.0000000E+00;  0.0000000E+00;  0.0000000E+00;0;  0.0000000E+00;  1.0000000E+04;  0.0000000E+00;  0.0000000E+00;  1.0000000E+04;  0.0000000E+00;  1.0000000E+04;  0.0000000E+00;  0.0000000E+00;  0.0000000E+00;  0.0000000E+00;
 -1.4000000E-01;  9.9999998E-03; -3.6000001E-01;164;  0.0000000E+00;  0.0000000E+00;  0.0000000E+00;  1.0000000E+03;  4.0000001E-01;  0.0000000E+00;0;  0.0000000E+00;  0.0000000E+00;  0.0000000E+00;0; -5.9355955E-08;  1.0000000E+04;  0.0000000E+00;  0.0000000E+00;  1.0000000E+04;  0.0000000E+00;  1.0000000E+04; -4.6895973E-08;  0.0000000E+00; -1.2459982E-08;  7.0728274E-05;
 -1.2000000E-01;  9.9999998E-03; -4.0000001E-01;203;  0.0000000E+00;  0.0000000E+00;  0.0000000E+00;  1.0000000E+03;  4.0000001E-01;  0.0000000E+00;0;  0.0000000E+00;  0.0000000E+00;  0.0000000E+00;0; -2.8352106E-23;  1.0000000E+04;  0.0000000E+00;  0.0000000E+00;  1.0000000E+04;  0.0000000E+00;  1.0000000E+04; -2.0002381E-23;  0.0000000E+00; -8.3497251E-24;  4.6655943E-21;
 -1.2000000E-01;  9.9999998E-03; -3.8000000E-01;204;  0.0000000E+00;  0.0000000E+00;  0.0000000E+00;  1.0000000E+03;  4.0000001E-01;  0.0000000E+00;0;  0.0000000E+00;  0.0000000E+00;  0.0000000E+00;0; -3.1546710E-07;  1.0000000E+04;  0.0000000E+00;  0.0000000E+00;  1.0000000E+04;  0.0000000E+00;  1.0000000E+04; -2.2374195E-07;  0.0000000E+00; -9.1725148E-08;  5.2700873E-04;
 -1.2000000E-01;  9.9999998E-03; -3.6000001E-01;205;  0.0000000E+00;  0.0000000E+00;  0.0000000E+00;  1.0000000E+03;  4.0000001E-01;  0.0000000E+00;0;  0.0000000E+00;  0.0000000E+00;  0.0000000E+00;0; -2.1319865E-06;  1.0000000E+04;  0.0000000E+00;  0.0000000E+00;  1.0000000E+04;  0.0000000E+00;  1.0000000E+04; -1.6134094E-06;  0.0000000E+00; -5.1857705E-07;  2.9639567E-03;
 -1.0000000E-01;  9.9999998E-03; -4.0000001E-01;244;  0.0000000E+00;  0.0000000E+00;  0.0000000E+00;  1.0000000E+03;  4.0000001E-01;  0.0000000E+00;0;  0.0000000E+00;  0.0000000E+00;  0.0000000E+00;0; -5.8610527E-07;  1.0000000E+04;  0.0000000E+00;  0.0000000E+00;  1.0000000E+04;  0.0000000E+00;  1.0000000E+04; -3.8994017E-07;  0.0000000E+00; -1.9616509E-07;  1.1364296E-03;
 -1.0000000E-01;  9.9999998E-03; -3.8000000E-01;245;  0.0000000E+00;  0.0000000E+00;  0.0000000E+00;  1.0000000E+03;  4.0000001E-01;  0.0000000E+00;0;  0.0000000E+00;  0.0000000E+00;  0.0000000E+00;0; -4.2529537E-06;  1.0000000E+04;  0.0000000E+00;  0.0000000E+00;  1.0000000E+04;  0.0000000E+00;  1.0000000E+04; -2.8616705E-06;  0.0000000E+00; -1.3912834E-06;  8.0534173E-03;
 -1.0000000E-01;  9.9999998E-03; -3.6000001E-01;246;  0.0000000E+00;  0.0000000E+00;  0.0000000E+00;  1.0000000E+03;  4.0000001E-01;  0.0000000E+00;0;  0.0000000E+00;  0.0000000E+00;  0.0000000E+00;0; -1.3389995E-05;  1.0000000E+04;  0.0000000E+00;  0.0000000E+00;  1.0000000E+04;  0.0000000E+00;  1.0000000E+04; -9.7453221E-06;  0.0000000E+00; -3.6446725E-06;  2.1025022E-02;
 -7.9999998E-02;  9.9999998E-03; -4.0000001E-01;285;  0.0000000E+00;  0.0000000E+00;  0.0000000E+00;  1.0000000E+03;  4.0000001E-01;  0.0000000E+00;0;  0.0000000E+00;  0.0000000E+00;  0.0000000E+00;0; -4.9745208E-06;  1.0000000E+04;  0.0000000E+00;  0.0000000E+00;  1.0000000E+04;  0.0000000E+00;  1.0000000E+04; -3.1269342E-06;  0.0000000E+00; -1.8475865E-06;  1.0780041E-02;
 -7.9999998E-02;  9.9999998E-03; -3.8000000E-01;286;  0.0000000E+00;  0.0000000E+00;  0.0000000E+00;  1.0000000E+03;  4.0000001E-01;  0.0000000E+00;0;  0.0000000E+00;  0.0000000E+00;  0.0000000E+00;0; -1.8890958E-05;  1.0000000E+04;  0.0000000E+00;  0.0000000E+00;  1.0000000E+04;  0.0000000E+00;  1.0000000E+04; -1.2138504E-05;  0.0000000E+00; -6.7524547E-06;  3.9436482E-02;
 -7.9999998E-02;  9.9999998E-03; -3.6000001E-01;287;  0.0000000E+00;  0.0000000E+00;  0.0000000E+00;  1.0000000E+03;  4.0000001E-01;  0.0000000E+00;0;  0.0000000E+00;  0.0000000E+00;  0.0000000E+00;0; -4.5413704E-05;  1.0000000E+04;  0.0000000E+00;  0.0000000E+00;  1.0000000E+04;  0.0000000E+00;  1.0000000E+04; -3.1901491E-05;  0.0000000E+00; -1.3512215E-05;  7.8673318E-02;
 -5.9999999E-02;  9.9999998E-03; -4.0000001E-01;326;  0.0000000E+00;  0.0000000E+00;  0.0000000E+00;  1.0000000E+03;  4.0000001E-01;  0.0000000E+00;0;  0.0000000E+00;  0.0000000E+00;  0.0000000E+00;0; -1.7934117E-05;  1.0000000E+04;  0.0000000E+00;  0.0000000E+00;  1.0000000E+04;  0.0000000E+00;  1.0000000E+04; -1.0683410E-05;  0.0000000E+00; -7.2507073E-06;  4.2704750E-02;
 -5.9999999E-02;  9.9999998E-03; -3.8000000E-01;327;  0.0000000E+00;  0.0000000E+00;  0.0000000E+00;  1.0000000E+03;  4.0000001E-01;  0.0000000E+00;0;  0.0000000E+00;  0.0000000E+00;  0.0000000E+00;0; -5.2519761E-05;  1.0000000E+04;  0.0000000E+00;  0.0000000E+00;  1.0000000E+04;  0.0000000E+00;  1.0000000E+04; -3.2219661E-05;  0.0000000E+00; -2.0300100E-05;  1.1979008E-01;
 -5.9999999E-02;  9.9999998E-03; -3.6000001E-01;328;  0.0000000E+00;  0.0000000E+00;  0.0000000E+00;  1.0000000E+03;  4.0000001E-01;  0.0000000E+00;0;  0.0000000E+00;  0.0000000E+00;  0.0000000E+00;0; -1.1050078E-04;  1.0000000E+04;  0.0000000E+00;  0.0000000E+00;  1.0000000E+04;  0.0000000E+00;  1.0000000E+04; -7.4854208E-05;  0.0000000E+00; -3.5646568E-05;  2.0989971E-01;
 -3.9999999E-02;  9.9999998E-03; -4.0000001E-01;367;  0.0000000E+00;  0.0000000E+00;  0.0000000E+00;  1.0000000E+03;  4.0000001E-01;  0.0000000E+00;0;  0.0000000E+00;  0.0000000E+00;  0.0000000E+00;0; -4.3110751E-05;  1.0000000E+04;  0.0000000E+00;  0.0000000E+00;  1.0000000E+04;  0.0000000E+00;  1.0000000E+04; -2.4222179E-05;  0.0000000E+00; -1.8888572E-05;  1.1253590E-01;
 -3.9999999E-02;  9.9999998E-03; -3.8000000E-01;368;  0.0000000E+00;  0.0000000E+00;  0.0000000E+00;  1.0000000E+03;  4.0000001E-01;  0.0000000E+00;0;  0.0000000E+00;  0.0000000E+00;  0.0000000E+00;0; -1.1075773E-04;  1.0000000E+04;  0.0000000E+00;  0.0000000E+00;  1.0000000E+04;  0.0000000E+00;  1.0000000E+04; -6.4576314E-05;  0.0000000E+00; -4.6181409E-05;  2.7589464E-01;
 -3.9999999E-02;  9.9999998E-03; -3.6000001E-01;369;  0.0000000E+00;  0.0000000E+00;  0.0000000E+00;  1.0000001E+03;  4.0000001E-01;  9.8762624E-02;0;  0.0000000E+00;  0.0000000E+00;  0.0000000E+00;0; -2.1612848E-04;  1.0000000E+04;  0.0000000E+00;  0.0000000E+00;  1.0000000E+04;  0.0000000E+00;  1.0000000E+04; -1.4060394E-04;  0.0000000E+00; -7.5524549E-05;  4.5062587E-01;
 -2.0000000E-02;  9.9999998E-03; -4.0000001E-01;408;  0.0000000E+00;  0.0000000E+00;  0.0000000E+00;  1.0000000E+03;  4.0000001E-01;  0.0000000E+00;0;  0.0000000E+00;  0.0000000E+00;  0.0000000E+00;0; -8.1039223E-05;  1.0000000E+04;  0.0000000E+00;  0.0000000E+00;  1.0000000E+04;  0.0000000E+00;  1.0000000E+04; -4.2672604E-05;  0.0000000E+00; -3.8366619E-05;  2.3183809E-01;
 -2.0000000E-02;  9.9999998E-03; -3.8000000E-01;409;  0.0000000E+00;  0.0000000E+00;  0.0000000E+00;  1.0000001E+03;  4.0000001E-01;  9.8762624E-02;0;  0.0000000E+00;  0.0000000E+00;  0.0000000E+00;0; -1.9389606E-04;  1.0000000E+04;  0.0000000E+00;  0.0000000E+00;  1.0000000E+04;  0.0000000E+00;  1.0000000E+04; -1.0692337E-04;  0.0000000E+00; -8.6972686E-05;  5.2739048E-01;
 -2.0000000E-02;  9.9999998E-03; -3.6000001E-01;410;  0.0000000E+00;  0.0000000E+00;  0.0000000E+00;  1.0000002E+03;  4.0000001E-01;  1.9752525E-01;0;  0.0000000E+00;  0.0000000E+00;  0.0000000E+00;0; -3.6169309E-04;  1.0000000E+04;  0.0000000E+00;  0.0000000E+00;  1.0000000E+04;  0.0000000E+00;  1.0000000E+04; -2.2510163E-04;  0.0000000E+00; -1.3659148E-04;  8.2787699E-01;
  0.0000000E+00;  9.9999998E-03; -4.0000001E-01;449;  0.0000000E+00;  0.0000000E+00;  0.0000000E+00;  1.0000001E+03;  4.0000001E-01;  9.8762624E-02;0;  0.0000000E+00;  0.0000000E+00;  0.0000000E+00;0; -1.2911241E-04;  1.0000000E+04;  0.0000000E+00;  0.0000000E+00;  1.0000000E+04;  0.0000000E+00;  1.0000000E+04; -6.3481959E-05;  0.0000000E+00; -6.5630447E-05;  4.0357867E-01;
  0.0000000E+00;  9.9999998E-03; -3.8000000E-01;450;  0.0000000E+00;  0.0000000E+00;  0.0000000E+00;  1.0000002E+03;  4.0000001E-01;  1.9752525E-01;0;  0.0000000E+00;  0.0000000E+00;  0.0000000E+00;0; -2.9717240E-04;  1.0000000E+04;  0.0000000E+00;  0.0000000E+00;  1.0000000E+04;  0.0000000E+00;  1.0000000E+04; -1.5473447E-04;  0.0000000E+00; -1.4243792E-04;  8.7960130E-01;
  0.0000000E+00;  9.9999998E-03; -3.6000001E-01;451;  0.0000000E+00;  0.0000000E+00;  0.0000000E+00;  1.0000004E+03;  4.0000001E-01;  2.9628786E-01;0;  0.0000000E+00;  0.0000000E+00;  0.0000000E+00;0; -5.3914846E-04;  1.0000000E+04;  0.0000000E+00;  0.0000000E+00;  1.0000000E+04;  0.0000000E+00;  1.0000000E+04; -3.2066659E-04;  0.0000000E+00; -2.1848186E-04;  1.3495148E+00;
  2.0000000E-02;  9.9999998E-03; -4.0000001E-01;461;  0.0000000E+00;  0.0000000E+00;  0.0000000E+00;  1.0000001E+03;  4.0000001E-01;  9.8762624E-02;0;  0.0000000E+00;  0.0000000E+00;  0.0000000E+00;0; -1.8363704E-04;  1.0000000E+04;  0.0000000E+00;  0.0000000E+00;  1.0000000E+04;  0.0000000E+00;  1.0000000E+04; -8.4585976E-05;  0.0000000E+00; -9.9051060E-05;  6.2240279E-01;
  2.0000000E-02;  9.9999998E-03; -3.8000000E-01;462;  0.0000000E+00;  0.0000000E+00;  0.0000000E+00;  1.0000003E+03;  4.0000001E-01;  2.9628786E-01;0;  0.0000000E+00;  0.0000000E+00;  0.0000000E+00;0; -4.1438642E-04;  1.0000000E+04;  0.0000000E+00;  0.0000000E+00;  1.0000000E+04;  0.0000000E+00;  1.0000000E+04; -2.0473730E-04;  0.0000000E+00; -2.0964912E-04;  1.3238878E+00;
  2.0000000E-02;  9.9999998E-03; -3.6000001E-01;463;  0.0000000E+00;  0.0000000E+00;  0.0000000E+00;  1.0000005E+03;  4.0000001E-01;  4.9381313E-01;0;  0.0000000E+00;  0.0000000E+00;  0.0000000E+00;0; -7.3892646E-04;  1.0000000E+04;  0.0000000E+00;  0.0000000E+00;  1.0000000E+04;  0.0000000E+00;  1.0000000E+04; -4.2203776E-04;  0.0000000E+00; -3.1688873E-04;  2.0029519E+00;
  3.9999999E-02;  9.9999998E-03; -4.0000001E-01;471;  0.0000000E+00;  0.0000000E+00;  0.0000000E+00;  1.0000002E+03;  4.0000001E-01;  1.9752525E-01;0;  0.0000000E+00;  0.0000000E+00;  0.0000000E+00;0; -2.4281703E-04;  1.0000000E+04;  0.0000000E+00;  0.0000000E+00;  1.0000000E+04;  0.0000000E+00;  1.0000000E+04; -1.0627501E-04;  0.0000000E+00; -1.3654202E-04;  8.8091463E-01;
  3.9999999E-02;  9.9999998E-03; -3.8000000E-01;472;  0.0000000E+00;  0.0000000E+00;  0.0000000E+00;  1.0000004E+03;  4.0000001E-01;  3.9505050E-01;0;  0.0000000E+00;  0.0000000E+00;  0.0000000E+00;0; -5.4324087E-04;  1.0000000E+04;  0.0000000E+00;  0.0000000E+00;  1.0000000E+04;  0.0000000E+00;  1.0000000E+04; -2.5827656E-04;  0.0000000E+00; -2.8496431E-04;  1.8488287E+00;
  3.9999999E-02;  9.9999998E-03; -3.6000001E-01;473;  0.0000000E+00;  0.0000000E+00;  0.0000000E+00;  1.0000007E+03;  4.0000001E-01;  5.9257573E-01;0;  0.0000000E+00;  0.0000000E+00;  0.0000000E+00;0; -9.5898064E-04;  1.0000000E+04;  0.0000000E+00;  0.0000000E+00;  1.0000000E+04;  0.0000000E+00;  1.0000000E+04; -5.3257926E-04;  0.0000000E+00; -4.2640138E-04;  2.7711098E+00;
  5.9999999E-02;  9.9999998E-03; -4.0000001E-01;481;  0.0000000E+00;  0.0000000E+00;  0.0000000E+00;  1.0000002E+03;  4.0000001E-01;  1.9752525E-01;0;  0.0000000E+00;  0.0000000E+00;  0.0000000E+00;0; -3.0910285E-04;  1.0000000E+04;  0.0000000E+00;  0.0000000E+00;  1.0000000E+04;  0.0000000E+00;  1.0000000E+04; -1.3202493E-04;  0.0000000E+00; -1.7707792E-04;  1.1786031E+00;
  5.9999999E-02;  9.9999998E-03; -3.8000000E-01;482;  0.0000000E+00;  0.0000000E+00;  0.0000000E+00;  1.0000005E+03;  4.0000001E-01;  4.9381313E-01;0;  0.0000000E+00;  0.0000000E+00;  0.0000000E+00;0; -6.8955647E-04;  1.0000000E+04;  0.0000000E+00;  0.0000000E+00;  1.0000000E+04;  0.0000000E+00;  1.0000000E+04; -3.2277268E-04;  0.0000000E+00; -3.6678376E-04;  2.4566424E+00;
  5.9999999E-02;  9.9999998E-03; -3.6000001E-01;483;  0.0000000E+00;  0.0000000E+00;  0.0000000E+00;  1.0000010E+03;  4.0000001E-01;  7.9010099E-01;0;  0.0000000E+00;  0.0000000E+00;  0.0000000E+00;0; -1.2111142E-03;  1.0000000E+04;  0.0000000E+00;  0.0000000E+00;  1.0000000E+04;  0.0000000E+00;  1.0000000E+04; -6.6623441E-04;  0.0000000E+00; -5.4487988E-04;  3.6585279E+00;
  7.9999998E-02;  9.9999998E-03; -4.0000001E-01;491;  0.0000000E+00;  0.0000000E+00;  0.0000000E+00;  1.0000003E+03;  4.0000001E-01;  2.9628786E-01;0;  0.0000000E+00;  0.0000000E+00;  0.0000000E+00;0; -3.9053959E-04;  1.0000000E+04;  0.0000000E+00;  0.0000000E+00;  1.0000000E+04;  0.0000000E+00;  1.0000000E+04; -1.6885843E-04;  0.0000000E+00; -2.2168114E-04;  1.5290802E+00;
  7.9999998E-02;  9.9999998E-03; -3.8000000E-01;492;  0.0000000E+00;  0.0000000E+00;  0.0000000E+00;  1.0000007E+03;  4.0000001E-01;  5.9257573E-01;0;  0.0000000E+00;  0.0000000E+00;  0.0000000E+00;0; -8.7088731E-04;  1.0000000E+04;  0.0000000E+00;  0.0000000E+00;  1.0000000E+04;  0.0000000E+00;  1.0000000E+04; -4.1353155E-04;  0.0000000E+00; -4.5735578E-04;  3.1753848E+00;
  7.9999998E-02;  9.9999998E-03; -3.6000001E-01;493;  0.0000000E+00;  0.0000000E+00;  0.0000000E+00;  1.0000013E+03;  4.0000001E-01;  1.0863888E+00;0;  0.0000000E+00;  0.0000000E+00;  0.0000000E+00;0; -1.5277016E-03;  1.0000000E+04;  0.0000000E+00;  0.0000000E+00;  1.0000000E+04;  0.0000000E+00;  1.0000000E+04; -8.5144729E-04;  0.0000000E+00; -6.7625433E-04;  4.7157521E+00;
  1.0000000E-01;  9.9999998E-03; -4.0000001E-01;501;  0.0000000E+00;  0.0000000E+00;  0.0000000E+00;  1.0000004E+03;  4.0000001E-01;  3.9505050E-01;0;  0.0000000E+00;  0.0000000E+00;  0.0000000E+00;0; -5.0290686E-04;  1.0000000E+04;  0.0000000E+00;  0.0000000E+00;  1.0000000E+04;  0.0000000E+00;  1.0000000E+04; -2.2876936E-04;  0.0000000E+00; -2.7413748E-04;  2.0216870E+00;
  1.0000000E-01;  9.9999998E-03; -3.8000000E-01;502;  0.0000000E+00;  0.0000000E+00;  0.0000000E+00;  1.0000010E+03;  4.0000001E-01;  7.9010099E-01;0;  0.0000000E+00;  0.0000000E+00;  0.0000000E+00;0; -1.1215347E-03;  1.0000000E+04;  0.0000000E+00;  0.0000000E+00;  1.0000000E+04;  0.0000000E+00;  1.0000000E+04; -5.5698375E-04;  0.0000000E+00; -5.6455092E-04;  4.0745463E+00;
  1.0000000E-01;  9.9999998E-03; -3.6000001E-01;503;  0.0000000E+00;  0.0000000E+00;  0.0000000E+00;  1.0000016E+03;  4.0000001E-01;  1.3826767E+00;0;  0.0000000E+00;  0.0000000E+00;  0.0000000E+00;0; -1.9698965E-03;  1.0000000E+04;  0.0000000E+00;  0.0000000E+00;  1.0000000E+04;  0.0000000E+00;  1.0000000E+04; -1.1369048E-03;  0.0000000E+00; -8.3299162E-04;  6.0928521E+00;
  1.2000000E-01;  9.9999998E-03; -4.0000001E-01;511;  0.0000000E+00;  0.0000000E+00;  0.0000000E+00;  1.0000006E+03;  4.0000001E-01;  4.9381313E-01;0;  0.0000000E+00;  0.0000000E+00;  0.0000000E+00;0; -6.7493599E-04;  1.0000000E+04;  0.0000000E+00;  0.0000000E+00;  1.0000000E+04;  0.0000000E+00;  1.0000000E+04; -3.3139085E-04;  0.0000000E+00; -3.4354514E-04;  3.5324473E+00;
  1.2000000E-01;  9.9999998E-03; -3.8000000E-01;512;  0.0000000E+00;  0.0000000E+00;  0.0000000E+00;  1.0000014E+03;  4.0000001E-01;  1.1851515E+00;0;  0.0000000E+00;  0.0000000E+00;  0.0000000E+00;0; -1.5022649E-03;  1.0000000E+04;  0.0000000E+00;  0.0000000E+00;  1.0000000E+04;  0.0000000E+00;  1.0000000E+04; -7.9535018E-04;  0.0000000E+00; -7.0691470E-04;  5.5345287E+00;
  1.2000000E-01;  9.9999998E-03; -3.6000001E-01;513;  0.0000000E+00;  0.0000000E+00;  0.0000000E+00;  1.0000023E+03;  4.0000001E-01;  1.8764899E+00;0;  0.0000000E+00;  0.0000000E+00;  0.0000000E+00;0; -2.6409680E-03;  1.0000000E+04;  0.0000000E+00;  0.0000000E+00;  1.0000000E+04;  0.0000000E+00;  1.0000000E+04; -1.5984992E-03;  0.0000000E+00; -1.0424687E-03;  8.1597977E+00;
  1.4000000E-01;  9.9999998E-03; -4.0000001E-01;521;  0.0000000E+00;  0.0000000E+00;  0.0000000E+00;  1.0000008E+03;  4.0000001E-01;  6.9133836E-01;0;  0.0000000E+00;  0.0000000E+00;  0.0000000E+00;0; -9.6283644E-04;  1.0000000E+04;  0.0000000E+00;  0.0000000E+00;  1.0000000E+04;  0.0000000E+00;  1.0000000E+04; -5.0985318E-04;  0.0000000E+00; -4.5298328E-04;  9.6795788E+00;
  1.4000000E-01;  9.9999998E-03; -3.8000000E-01;522;  0.0000000E+00;  0.0000000E+00;  0.0000000E+00;  1.0000020E+03;  4.0000001E-01;  1.5802020E+00;0;  0.0000000E+00;  0.0000000E+00;  0.0000000E+00;0; -2.1190501E-03;  1.0000000E+04;  0.0000000E+00;  0.0000000E+00;  1.0000000E+04;  0.0000000E+00;  1.0000000E+04; -1.1944389E-03;  0.0000000E+00; -9.2461123E-04;  1.0071657E+01;
  1.4000000E-01;  9.9999998E-03; -3.6000001E-01;523;  0.0000000E+00;  0.0000000E+00;  0.0000000E+00;  1.0000034E+03;  4.0000001E-01;  2.8641162E+00;0;  0.0000000E+00;  0.0000000E+00;  0.0000000E+00;0; -3.7057563E-03;  1.0000000E+04;  0.0000000E+00;  0.0000000E+00;  1.0000000E+04;  0.0000000E+00;  1.0000000E+04; -2.3477231E-03;  0.0000000E+00; -1.3580332E-03;  1.1594794E+01;
  1.6000000E-01;  9.9999998E-03; -4.0000001E-01;531;  0.0000000E+00;  0.0000000E+00;  0.0000000E+00;  1.0000013E+03;  4.0000001E-01;  1.0863888E+00;0;  0.0000000E+00;  0.0000000E+00;  0.0000000E+00;0; -1.4728718E-03;  1.0000000E+04;  0.0000000E+00;  0.0000000E+00;  1.0000000E+04;  0.0000000E+00;  1.0000000E+04; -8.1406825E-04;  0.0000000E+00; -6.5880356E-04;  2.8368349E+01;
  1.6000000E-01;  9.9999998E-03; -3.8000000E-01;532;  0.0000000E+00;  0.0000000E+00;  0.0000000E+00;  1.0000031E+03;  4.0000001E-01;  2.5678282E+00;0;  0.0000000E+00;  0.0000000E+00;  0.0000000E+00;0; -3.1298900E-03;  1.0000000E+04;  0.0000000E+00;  0.0000000E+00;  1.0000000E+04;  0.0000000E+00;  1.0000000E+04; -1.8326184E-03;  0.0000000E+00; -1.2972716E-03;  2.5185705E+01;
  1.6000000E-01;  9.9999998E-03; -3.6000001E-01;533;  0.0000000E+00;  0.0000000E+00;  0.0000000E+00;  1.0000051E+03;  4.0000001E-01;  4.1480303E+00;0;  0.0000000E+00;  0.0000000E+00;  0.0000000E+00;0; -5.3754365E-03;  1.0000000E+04;  0.0000000E+00;  0.0000000E+00;  1.0000000E+04;  0.0000000E+00;  1.0000000E+04; -3.5013771E-03;  0.0000000E+00; -1.8740592E-03;  1.6998583E+01;
  1.8000001E-01;  9.9999998E-03; -4.0000001E-01;541;  0.0000000E+00;  0.0000000E+00;  0.0000000E+00;  1.0000021E+03;  4.0000001E-01;  1.7777272E+00;0;  0.0000000E+00;  0.0000000E+00;  0.0000000E+00;0; -2.3780200E-03;  1.0000000E+04;  0.0000000E+00;  0.0000000E+00;  1.0000000E+04;  0.0000000E+00;  1.0000000E+04; -1.2876841E-03;  0.0000000E+00; -1.0903360E-03;  7.3650391E+01;
  1.8000001E-01;  9.9999998E-03; -3.8000000E-01;542;  0.0000000E+00;  0.0000000E+00;  0.0000000E+00;  1.0000045E+03;  4.0000001E-01;  3.6542170E+00;0;  0.0000000E+00;  0.0000000E+00;  0.0000000E+00;0; -4.6986109E-03;  1.0000000E+04;  0.0000000E+00;  0.0000000E+00;  1.0000000E+04;  0.0000000E+00;  1.0000000E+04; -2.7265153E-03;  0.0000000E+00; -1.9720953E-03;  6.1647465E+01;
  1.8000001E-01;  9.9999998E-03; -3.6000001E-01;543;  0.0000000E+00;  0.0000000E+00;  0.0000000E+00;  1.0000074E+03;  4.0000001E-01;  6.1232829E+00;0;  0.0000000E+00;  0.0000000E+00;  0.0000000E+00;0; -7.7960272E-03;  1.0000000E+04;  0.0000000E+00;  0.0000000E+00;  1.0000000E+04;  0.0000000E+00;  1.0000000E+04; -5.0514382E-03;  0.0000000E+00; -2.7445890E-03;  2.4119339E+01;
  2.0000000E-01;  9.9999998E-03; -3.8000000E-01;551;  0.0000000E+00;  0.0000000E+00;  0.0000000E+00;  1.0000068E+03;  4.0000001E-01;  5.6294694E+00;0;  0.0000000E+00;  0.0000000E+00;  0.0000000E+00;0; -6.9639985E-03;  1.0000000E+04;  0.0000000E+00;  0.0000000E+00;  1.0000000E+04;  0.0000000E+00;  1.0000000E+04; -3.7748963E-03;  0.0000000E+00; -3.1891023E-03;  1.2587422E+02;
  2.0000000E-01;  9.9999998E-03; -3.6000001E-01;552;  0.0000000E+00;  0.0000000E+00;  0.0000000E+00;  1.0000107E+03;  4.0000001E-01;  8.8886366E+00;0;  0.0000000E+00;  0.0000000E+00;  0.0000000E+00;0; -1.0993222E-02;  1.0000000E+04;  0.0000000E+00;  0.0000000E+00;  1.0000000E+04;  0.0000000E+00;  1.0000000E+04; -6.7977696E-03;  0.0000000E+00; -4.1954527E-03;  3.5220192E+01;
 -2.2000000E-01;  9.9999998E-03; -3.4000000E-01;2;  0.0000000E+00;  0.0000000E+00;  0.0000000E+00;  1.0000000E+03;  4.0000001E-01;  0.0000000E+00;0;  0.0000000E+00;  0.0000000E+00;  0.0000000E+00;0;  0.0000000E+00;  1.0000000E+04;  0.0000000E+00;  0.0000000E+00;  1.0000000E+04;  0.0000000E+00;  1.0000000E+04;  0.0000000E+00;  0.0000000E+00;  0.0000000E+00;  0.0000000E+00;
 -2.2000000E-01;  9.9999998E-03; -3.1999999E-01;3;  0.0000000E+00;  0.0000000E+00;  0.0000000E+00;  1.0000000E+03;  4.0000001E-01;  0.0000000E+00;0;  0.0000000E+00;  0.0000000E+00;  0.0000000E+00;0;  0.0000000E+00;  1.0000000E+04;  0.0000000E+00;  0.0000000E+00;  1.0000000E+04;  0.0000000E+00;  1.0000000E+04;  0.0000000E+00;  0.0000000E+00;  0.0000000E+00;  0.0000000E+00;
 -2.2000000E-01;  9.9999998E-03; -3.0000001E-01;4;  0.0000000E+00;  0.0000000E+00;  0.0000000E+00;  1.0000000E+03;  4.0000001E-01;  0.0000000E+00;0;  0.0000000E+00;  0.0000000E+00;  0.0000000E+00;0;  0.0000000E+00;  1.0000000E+04;  0.0000000E+00;  0.0000000E+00;  1.0000000E+04;  0.0000000E+00;  1.0000000E+04;  0.0000000E+00;  0.0000000E+00;  0.0000000E+00;  0.0000000E+00;
 -2.2000000E-01;  9.9999998E-03; -2.8000000E-01;5;  0.0000000E+00;  0.0000000E+00;  0.0000000E+00;  1.0000000E+03;  4.0000001E-01;  0.0000000E+00;0;  0.0000000E+00;  0.0000000E+00;  0.0000000E+00;0;  0.0000000E+00;  1.0000000E+04;  0.0000000E+00;  0.0000000E+00;  1.0000000E+04;  0.0000000E+00;  1.0000000E+04;  0.0000000E+00;  0.0000000E+00;  0.0000000E+00;  0.0000000E+00;
 -2.2000000E-01;  9.9999998E-03; -2.5999999E-01;6;  0.0000000E+00;  0.0000000E+00;  0.0000000E+00;  1.0000000E+03;  4.0000001E-01;  0.0000000E+00;0;  0.0000000E+00;  0.0000000E+00;  0.0000000E+00;0;  0.0000000E+00;  1.0000000E+04;  0.0000000E+00;  0.0000000E+00;  1.0000000E+04;  0.0000000E+00;  1.0000000E+04;  0.0000000E+00;  0.0000000E+00;  0.0000000E+00;  0.0000000E+00;
 -2.2000000E-01;  9.9999998E-03; -2.3999999E-01;7;  0.0000000E+00;  0.0000000E+00;  0.0000000E+00;  1.0000000E+03;  4.0000001E-01;  0.0000000E+00;0;  0.0000000E+00;  0.0000000E+00;  0.0000000E+00;0;  0.0000000E+00;  1.0000000E+04;  0.0000000E+00;  0.0000000E+00;  1.0000000E+04;  0.0000000E+00;  1.0000000E+04;  0.0000000E+00;  0.0000000E+00;  0.0000000E+00;  0.0000000E+00;
 -2.2000000E-01;  9.9999998E-03; -2.2000000E-01;8;  0.0000000E+00;  0.0000000E+00;  0.0000000E+00;  1.0000000E+03;  4.0000001E-01;  0.0000000E+00;0;  0.0000000E+00;  0.0000000E+00;  0.0000000E+00;0;  0.0000000E+00;  1.0000000E+04;  0.0000000E+00;  0.0000000E+00;  1.0000000E+04;  0.0000000E+00;  1.0000000E+04;  0.0000000E+00;  0.0000000E+00;  0.0000000E+00;  0.0000000E+00;
 -2.2000000E-01;  9.9999998E-03; -2.0000000E-01;9;  0.0000000E+00;  0.0000000E+00;  0.0000000E+00;  1.0000000E+03;  4.0000001E-01;  0.0000000E+00;0;  0.0000000E+00;  0.0000000E+00;  0.0000000E+00;0;  0.0000000E+00;  1.0000000E+04;  0.0000000E+00;  0.0000000E+00;  1.0000000E+04;  0.0000000E+00;  1.0000000E+04;  0.0000000E+00;  0.0000000E+00;  0.0000000E+00;  0.0000000E+00;
 -2.0000000E-01;  9.9999998E-03; -3.4000000E-01;42;  0.0000000E+00;  0.0000000E+00;  0.0000000E+00;  1.0000000E+03;  4.0000001E-01;  0.0000000E+00;0;  0.0000000E+00;  0.0000000E+00;  0.0000000E+00;0;  0.0000000E+00;  1.0000000E+04;  0.0000000E+00;  0.0000000E+00;  1.0000000E+04;  0.0000000E+00;  1.0000000E+04;  0.0000000E+00;  0.0000000E+00;  0.0000000E+00;  0.0000000E+00;
 -2.0000000E-01;  9.9999998E-03; -3.1999999E-01;43;  0.0000000E+00;  0.0000000E+00;  0.0000000E+00;  1.0000000E+03;  4.0000001E-01;  0.0000000E+00;0;  0.0000000E+00;  0.0000000E+00;  0.0000000E+00;0;  0.0000000E+00;  1.0000000E+04;  0.0000000E+00;  0.0000000E+00;  1.0000000E+04;  0.0000000E+00;  1.0000000E+04;  0.0000000E+00;  0.0000000E+00;  0.0000000E+00;  0.0000000E+00;
 -2.0000000E-01;  9.9999998E-03; -3.0000001E-01;44;  0.0000000E+00;  0.0000000E+00;  0.0000000E+00;  1.0000000E+03;  4.0000001E-01;  0.0000000E+00;0;  0.0000000E+00;  0.0000000E+00;  0.0000000E+00;0;  0.0000000E+00;  1.0000000E+04;  0.0000000E+00;  0.0000000E+00;  1.0000000E+04;  0.0000000E+00;  1.0000000E+04;  0.0000000E+00;  0.0000000E+00;  0.0000000E+00;  0.0000000E+00;
 -2.0000000E-01;  9.9999998E-03; -2.8000000E-01;45;  0.0000000E+00;  0.0000000E+00;  0.0000000E+00;  1.0000000E+03;  4.0000001E-01;  0.0000000E+00;0;  0.0000000E+00;  0.0000000E+00;  0.0000000E+00;0;  0.0000000E+00;  1.0000000E+04;  0.0000000E+00;  0.0000000E+00;  1.0000000E+04;  0.0000000E+00;  1.0000000E+04;  0.0000000E+00;  0.0000000E+00;  0.0000000E+00;  0.0000000E+00;
 -2.0000000E-01;  9.9999998E-03; -2.5999999E-01;46;  0.0000000E+00;  0.0000000E+00;  0.0000000E+00;  1.0000000E+03;  4.0000001E-01;  0.0000000E+00;0;  0.0000000E+00;  0.0000000E+00;  0.0000000E+00;0;  0.0000000E+00;  1.0000000E+04;  0.0000000E+00;  0.0000000E+00;  1.0000000E+04;  0.0000000E+00;  1.0000000E+04;  0.0000000E+00;  0.0000000E+00;  0.0000000E+00;  0.0000000E+00;
 -2.0000000E-01;  9.9999998E-03; -2.3999999E-01;47;  0.0000000E+00;  0.0000000E+00;  0.0000000E+00;  1.0000000E+03;  4.0000001E-01;  0.0000000E+00;0;  0.0000000E+00;  0.0000000E+00;  0.0000000E+00;0;  0.0000000E+00;  1.0000000E+04;  0.0000000E+00;  0.0000000E+00;  1.0000000E+04;  0.0000000E+00;  1.0000000E+04;  0.0000000E+00;  0.0000000E+00;  0.0000000E+00;  0.0000000E+00;
 -2.0000000E-01;  9.9999998E-03; -2.2000000E-01;48;  0.0000000E+00;  0.0000000E+00;  0.0000000E+00;  1.0000000E+03;  4.0000001E-01;  0.0000000E+00;0;  0.0000000E+00;  0.0000000E+00;  0.0000000E+00;0;  0.0000000E+00;  1.0000000E+04;  0.0000000E+00;  0.0000000E+00;  1.0000000E+04;  0.0000000E+00;  1.0000000E+04;  0.0000000E+00;  0.0000000E+00;  0.0000000E+00;  0.0000000E+00;
 -2.0000000E-01;  9.9999998E-03; -2.0000000E-01;49;  0.0000000E+00;  0.0000000E+00;  0.0000000E+00;  1.0000000E+03;  4.0000001E-01;  0.0000000E+00;0;  0.0000000E+00;  0.0000000E+00;  0.0000000E+00;0;  0.0000000E+00;  1.0000000E+04;  0.0000000E+00;  0.0000000E+00;  1.0000000E+04;  0.0000000E+00;  1.0000000E+04;  0.0000000E+00;  0.0000000E+00;  0.0000000E+00;  0.0000000E+00;
 -1.8000001E-01;  9.9999998E-03; -3.4000000E-01;83;  0.0000000E+00;  0.0000000E+00;  0.0000000E+00;  1.0000000E+03;  4.0000001E-01;  0.0000000E+00;0;  0.0000000E+00;  0.0000000E+00;  0.0000000E+00;0;  0.0000000E+00;  1.0000000E+04;  0.0000000E+00;  0.0000000E+00;  1.0000000E+04;  0.0000000E+00;  1.0000000E+04;  0.0000000E+00;  0.0000000E+00;  0.0000000E+00;  0.0000000E+00;
 -1.8000001E-01;  9.9999998E-03; -3.1999999E-01;84;  0.0000000E+00;  0.0000000E+00;  0.0000000E+00;  1.0000000E+03;  4.0000001E-01;  0.0000000E+00;0;  0.0000000E+00;  0.0000000E+00;  0.0000000E+00;0;  0.0000000E+00;  1.0000000E+04;  0.0000000E+00;  0.0000000E+00;  1.0000000E+04;  0.0000000E+00;  1.0000000E+04;  0.0000000E+00;  0.0000000E+00;  0.0000000E+00;  0.0000000E+00;
 -1.8000001E-01;  9.9999998E-03; -3.0000001E-01;85;  0.0000000E+00;  0.0000000E+00;  0.0000000E+00;  1.0000000E+03;  4.0000001E-01;  0.0000000E+00;0;  0.0000000E+00;  0.0000000E+00;  0.0000000E+00;0;  0.0000000E+00;  1.0000000E+04;  0.0000000E+00;  0.0000000E+00;  1.0000000E+04;  0.0000000E+00;  1.0000000E+04;  0.0000000E+00;  0.0000000E+00;  0.0000000E+00;  0.0000000E+00;
 -1.8000001E-01;  9.9999998E-03; -2.8000000E-01;86;  0.0000000E+00;  0.0000000E+00;  0.0000000E+00;  1.0000000E+03;  4.0000001E-01;  0.0000000E+00;0;  0.0000000E+00;  0.0000000E+00;  0.0000000E+00;0;  0.0000000E+00;  1.0000000E+04;  0.0000000E+00;  0.0000000E+00;  1.0000000E+04;  0.0000000E+00;  1.0000000E+04;  0.0000000E+00;  0.0000000E+00;  0.0000000E+00;  0.0000000E+00;
 -1.8000001E-01;  9.9999998E-03; -2.5999999E-01;87;  0.0000000E+00;  0.0000000E+00;  0.0000000E+00;  1.0000000E+03;  4.0000001E-01;  0.0000000E+00;0;  0.0000000E+00;  0.0000000E+00;  0.0000000E+00;0;  0.0000000E+00;  1.0000000E+04;  0.0000000E+00;  0.0000000E+00;  1.0000000E+04;  0.0000000E+00;  1.0000000E+04;  0.0000000E+00;  0.0000000E+00;  0.0000000E+00;  0.0000000E+00;
 -1.8000001E-01;  9.9999998E-03; -2.3999999E-01;88;  0.0000000E+00;  0.0000000E+00;  0.0000000E+00;  1.0000000E+03;  4.0000001E-01;  0.0000000E+00;0;  0.0000000E+00;  0.0000000E+00;  0.0000000E+00;0;  0.0000000E+00;  1.0000000E+04;  0.0000000E+00;  0.0000000E+00;  1.0000000E+04;  0.0000000E+00;  1.0000000E+04;  0.0000000E+00;  0.0000000E+00;  0.0000000E+00;  0.0000000E+00;
 -1.8000001E-01;  9.9999998E-03; -2.2000000E-01;89;  0.0000000E+00;  0.0000000E+00;  0.0000000E+00;  1.0000000E+03;  4.0000001E-01;  0.0000000E+00;0;  0.0000000E+00;  0.0000000E+00;  0.0000000E+00;0;  0.0000000E+00;  1.0000000E+04;  0.0000000E+00;  0.0000000E+00;  1.0000000E+04;  0.0000000E+00;  1.0000000E+04;  0.0000000E+00;  0.0000000E+00;  0.0000000E+00;  0.0000000E+00;
 -1.8000001E-01;  9.9999998E-03; -2.0000000E-01;90;  0.0000000E+00;  0.0000000E+00;  0.0000000E+00;  1.0000000E+03;  4.0000001E-01;  0.0000000E+00;0;  0.0000000E+00;  0.0000000E+00;  0.0000000E+00;0;  0.0000000E+00;  1.0000000E+04;  0.0000000E+00;  0.0000000E+00;  1.0000000E+04;  0.0000000E+00;  1.0000000E+04;  0.0000000E+00;  0.0000000E+00;  0.0000000E+00;  0.0000000E+00;
 -1.6000000E-01;  9.9999998E-03; -3.4000000E-01;124;  0.0000000E+00;  0.0000000E+00;  0.0000000E+00;  1.0000000E+03;  4.0000001E-01;  0.0000000E+00;0;  0.0000000E+00;  0.0000000E+00;  0.0000000E+00;0;  0.0000000E+00;  1.0000000E+04;  0.0000000E+00;  0.0000000E+00;  1.0000000E+04;  0.0000000E+00;  1.0000000E+04;  0.0000000E+00;  0.0000000E+00;  0.0000000E+00;  0.0000000E+00;
 -1.6000000E-01;  9.9999998E-03; -3.1999999E-01;125;  0.0000000E+00;  0.0000000E+00;  0.0000000E+00;  1.0000000E+03;  4.0000001E-01;  0.0000000E+00;0;  0.0000000E+00;  0.0000000E+00;  0.0000000E+00;0; -1.0638787E-08;  1.0000000E+04;  0.0000000E+00;  0.0000000E+00;  1.0000000E+04;  0.0000000E+00;  1.0000000E+04; -9.7942037E-09;  0.0000000E+00; -8.4458307E-10;  4.4916405E-06;
 -1.6000000E-01;  9.9999998E-03; -3.0000001E-01;126;  0.0000000E+00;  0.0000000E+00;  0.0000000E+00;  1.0000000E+03;  4.0000001E-01;  0.0000000E+00;0;  0.0000000E+00;  0.0000000E+00;  0.0000000E+00;0; -6.7569786E-08;  1.0000000E+04;  0.0000000E+00;  0.0000000E+00;  1.0000000E+04;  0.0000000E+00;  1.0000000E+04; -6.4716417E-08;  0.0000000E+00; -2.8533722E-09;  1.3980160E-05;
 -1.6000000E-01;  9.9999998E-03; -2.8000000E-01;127;  0.0000000E+00;  0.0000000E+00;  0.0000000E+00;  1.0000000E+03;  4.0000001E-01;  0.0000000E+00;0;  0.0000000E+00;  0.0000000E+00;  0.0000000E+00;0; -1.5914163E-07;  1.0000000E+04;  0.0000000E+00;  0.0000000E+00;  1.0000000E+04;  0.0000000E+00;  1.0000000E+04; -1.5656418E-07;  0.0000000E+00; -2.5774534E-09;  7.9491747E-06;
 -1.6000000E-01;  9.9999998E-03; -2.5999999E-01;128;  0.0000000E+00;  0.0000000E+00;  0.0000000E+00;  1.0000000E+03;  4.0000001E-01;  0.0000000E+00;0;  0.0000000E+00;  0.0000000E+00;  0.0000000E+00;0; -2.3641323E-07;  1.0000000E+04;  0.0000000E+00;  0.0000000E+00;  1.0000000E+04;  0.0000000E+00;  1.0000000E+04; -2.3611959E-07;  0.0000000E+00; -2.9364206E-10;  9.9691470E-06;
 -1.6000000E-01;  9.9999998E-03; -2.3999999E-01;129;  0.0000000E+00;  0.0000000E+00;  0.0000000E+00;  1.0000000E+03;  4.0000001E-01;  0.0000000E+00;0;  0.0000000E+00;  0.0000000E+00;  0.0000000E+00;0; -2.7812837E-07;  1.0000000E+04;  0.0000000E+00;  0.0000000E+00;  1.0000000E+04;  0.0000000E+00;  1.0000000E+04; -2.7877792E-07;  0.0000000E+00;  6.4955308E-10;  1.7516813E-05;
 -1.6000000E-01;  9.9999998E-03; -2.2000000E-01;130;  0.0000000E+00;  0.0000000E+00;  0.0000000E+00;  1.0000000E+03;  4.0000001E-01;  0.0000000E+00;0;  0.0000000E+00;  0.0000000E+00;  0.0000000E+00;0; -3.0647928E-07;  1.0000000E+04;  0.0000000E+00;  0.0000000E+00;  1.0000000E+04;  0.0000000E+00;  1.0000000E+04; -3.0724217E-07;  0.0000000E+00;  7.6289480E-10;  1.9583958E-05;
 -1.6000000E-01;  9.9999998E-03; -2.0000000E-01;131;  0.0000000E+00;  0.0000000E+00;  0.0000000E+00;  1.0000000E+03;  4.0000001E-01;  0.0000000E+00;0;  0.0000000E+00;  0.0000000E+00;  0.0000000E+00;0; -3.2832114E-07;  1.0000000E+04;  0.0000000E+00;  0.0000000E+00;  1.0000000E+04;  0.0000000E+00;  1.0000000E+04; -3.2910668E-07;  0.0000000E+00;  7.8555584E-10;  2.0851912E-05;
 -1.4000000E-01;  9.9999998E-03; -3.4000000E-01;165;  0.0000000E+00;  0.0000000E+00;  0.0000000E+00;  1.0000000E+03;  4.0000001E-01;  0.0000000E+00;0;  0.0000000E+00;  0.0000000E+00;  0.0000000E+00;0; -5.1114262E-07;  1.0000000E+04;  0.0000000E+00;  0.0000000E+00;  1.0000000E+04;  0.0000000E+00;  1.0000000E+04; -4.3221189E-07;  0.0000000E+00; -7.8930697E-08;  4.4141908E-04;
 -1.4000000E-01;  9.9999998E-03; -3.1999999E-01;166;  0.0000000E+00;  0.0000000E+00;  0.0000000E+00;  1.0000000E+03;  4.0000001E-01;  0.0000000E+00;0;  0.0000000E+00;  0.0000000E+00;  0.0000000E+00;0; -1.6581266E-06;  1.0000000E+04;  0.0000000E+00;  0.0000000E+00;  1.0000000E+04;  0.0000000E+00;  1.0000000E+04; -1.4872816E-06;  0.0000000E+00; -1.7084507E-07;  9.3737664E-04;
 -1.4000000E-01;  9.9999998E-03; -3.0000001E-01;167;  0.0000000E+00;  0.0000000E+00;  0.0000000E+00;  1.0000000E+03;  4.0000001E-01;  0.0000000E+00;0;  0.0000000E+00;  0.0000000E+00;  0.0000000E+00;0; -3.5208959E-06;  1.0000000E+04;  0.0000000E+00;  0.0000000E+00;  1.0000000E+04;  0.0000000E+00;  1.0000000E+04; -3.2996427E-06;  0.0000000E+00; -2.2125323E-07;  1.1422208E-03;
 -1.4000000E-01;  9.9999998E-03; -2.8000000E-01;168;  0.0000000E+00;  0.0000000E+00;  0.0000000E+00;  1.0000000E+03;  4.0000001E-01;  0.0000000E+00;0;  0.0000000E+00;  0.0000000E+00;  0.0000000E+00;0; -5.7990874E-06;  1.0000000E+04;  0.0000000E+00;  0.0000000E+00;  1.0000000E+04;  0.0000000E+00;  1.0000000E+04; -5.6074355E-06;  0.0000000E+00; -1.9165208E-07;  8.4934972E-04;
 -1.4000000E-01;  9.9999998E-03; -2.5999999E-01;169;  0.0000000E+00;  0.0000000E+00;  0.0000000E+00;  1.0000000E+03;  4.0000001E-01;  0.0000000E+00;0;  0.0000000E+00;  0.0000000E+00;  0.0000000E+00;0; -8.0206446E-06;  1.0000000E+04;  0.0000000E+00;  0.0000000E+00;  1.0000000E+04;  0.0000000E+00;  1.0000000E+04; -7.9264837E-06;  0.0000000E+00; -9.4160896E-08;  1.6896661E-04;
 -1.4000000E-01;  9.9999998E-03; -2.3999999E-01;170;  0.0000000E+00;  0.0000000E+00;  0.0000000E+00;  1.0000000E+03;  4.0000001E-01;  0.0000000E+00;0;  0.0000000E+00;  0.0000000E+00;  0.0000000E+00;0; -9.8105857E-06;  1.0000000E+04;  0.0000000E+00;  0.0000000E+00;  1.0000000E+04;  0.0000000E+00;  1.0000000E+04; -9.8272067E-06;  0.0000000E+00;  1.6621049E-08;  5.6622503E-04;
 -1.4000000E-01;  9.9999998E-03; -2.2000000E-01;171;  0.0000000E+00;  0.0000000E+00;  0.0000000E+00;  1.0000000E+03;  4.0000001E-01;  0.0000000E+00;0;  0.0000000E+00;  0.0000000E+00;  0.0000000E+00;0; -1.1059180E-05;  1.0000000E+04;  0.0000000E+00;  0.0000000E+00;  1.0000000E+04;  0.0000000E+00;  1.0000000E+04; -1.1140540E-05;  0.0000000E+00;  8.1359424E-08;  1.0067602E-03;
 -1.4000000E-01;  9.9999998E-03; -2.0000000E-01;172;  0.0000000E+00;  0.0000000E+00;  0.0000000E+00;  1.0000000E+03;  4.0000001E-01;  0.0000000E+00;0;  0.0000000E+00;  0.0000000E+00;  0.0000000E+00;0; -1.1906589E-05;  1.0000000E+04;  0.0000000E+00;  0.0000000E+00;  1.0000000E+04;  0.0000000E+00;  1.0000000E+04; -1.2000538E-05;  0.0000000E+00;  9.3949360E-08;  1.1251239E-03;
 -1.2000000E-01;  9.9999998E-03; -3.4000000E-01;206;  0.0000000E+00;  0.0000000E+00;  0.0000000E+00;  1.0000000E+03;  4.0000001E-01;  0.0000000E+00;0;  0.0000000E+00;  0.0000000E+00;  0.0000000E+00;0; -6.3721764E-06;  1.0000000E+04;  0.0000000E+00;  0.0000000E+00;  1.0000000E+04;  0.0000000E+00;  1.0000000E+04; -5.2321775E-06;  0.0000000E+00; -1.1399991E-06;  6.4600273E-03;
 -1.2000000E-01;  9.9999998E-03; -3.1999999E-01;207;  0.0000000E+00;  0.0000000E+00;  0.0000000E+00;  1.0000000E+03;  4.0000001E-01;  0.0000000E+00;0;  0.0000000E+00;  0.0000000E+00;  0.0000000E+00;0; -1.3451479E-05;  1.0000000E+04;  0.0000000E+00;  0.0000000E+00;  1.0000000E+04;  0.0000000E+00;  1.0000000E+04; -1.1828565E-05;  0.0000000E+00; -1.6229142E-06;  8.9791212E-03;
 -1.2000000E-01;  9.9999998E-03; -3.0000001E-01;208;  0.0000000E+00;  0.0000000E+00;  0.0000000E+00;  1.0000000E+03;  4.0000001E-01;  0.0000000E+00;0;  0.0000000E+00;  0.0000000E+00;  0.0000000E+00;0; -2.3077611E-05;  1.0000000E+04;  0.0000000E+00;  0.0000000E+00;  1.0000000E+04;  0.0000000E+00;  1.0000000E+04; -2.1340455E-05;  0.0000000E+00; -1.7371560E-06;  9.1677681E-03;
 -1.2000000E-01;  9.9999998E-03; -2.8000000E-01;209;  0.0000000E+00;  0.0000000E+00;  0.0000000E+00;  1.0000000E+03;  4.0000001E-01;  0.0000000E+00;0;  0.0000000E+00;  0.0000000E+00;  0.0000000E+00;0; -3.4075874E-05;  1.0000000E+04;  0.0000000E+00;  0.0000000E+00;  1.0000000E+04;  0.0000000E+00;  1.0000000E+04; -3.2663978E-05;  0.0000000E+00; -1.4118954E-06;  6.7190393E-03;
 -1.2000000E-01;  9.9999998E-03; -2.5999999E-01;210;  0.0000000E+00;  0.0000000E+00;  0.0000000E+00;  1.0000000E+03;  4.0000001E-01;  0.0000000E+00;0;  0.0000000E+00;  0.0000000E+00;  0.0000000E+00;0; -4.4774228E-05;  1.0000000E+04;  0.0000000E+00;  0.0000000E+00;  1.0000000E+04;  0.0000000E+00;  1.0000000E+04; -4.4027522E-05;  0.0000000E+00; -7.4670538E-07;  2.3024816E-03;
 -1.2000000E-01;  9.9999998E-03; -2.3999999E-01;211;  0.0000000E+00;  0.0000000E+00;  0.0000000E+00;  1.0000000E+03;  4.0000001E-01;  0.0000000E+00;0;  0.0000000E+00;  0.0000000E+00;  0.0000000E+00;0; -5.3841573E-05;  1.0000000E+04;  0.0000000E+00;  0.0000000E+00;  1.0000000E+04;  0.0000000E+00;  1.0000000E+04; -5.3845353E-05;  0.0000000E+00;  3.7809826E-09;  2.5336591E-03;
 -1.2000000E-01;  9.9999998E-03; -2.2000000E-01;212;  0.0000000E+00;  0.0000000E+00;  0.0000000E+00;  1.0000000E+03;  4.0000001E-01;  0.0000000E+00;0;  0.0000000E+00;  0.0000000E+00;  0.0000000E+00;0; -6.0805014E-05;  1.0000000E+04;  0.0000000E+00;  0.0000000E+00;  1.0000000E+04;  0.0000000E+00;  1.0000000E+04; -6.1371611E-05;  0.0000000E+00;  5.6659599E-07;  6.1756107E-03;
 -1.2000000E-01;  9.9999998E-03; -2.0000000E-01;213;  0.0000000E+00;  0.0000000E+00;  0.0000000E+00;  1.0000000E+03;  4.0000001E-01;  0.0000000E+00;0;  0.0000000E+00;  0.0000000E+00;  0.0000000E+00;0; -6.5869695E-05;  1.0000000E+04;  0.0000000E+00;  0.0000000E+00;  1.0000000E+04;  0.0000000E+00;  1.0000000E+04; -6.6701832E-05;  0.0000000E+00;  8.3213553E-07;  8.0048200E-03;
 -1.0000000E-01;  9.9999998E-03; -3.4000000E-01;247;  0.0000000E+00;  0.0000000E+00;  0.0000000E+00;  1.0000000E+03;  4.0000001E-01;  0.0000000E+00;0;  0.0000000E+00;  0.0000000E+00;  0.0000000E+00;0; -2.9241250E-05;  1.0000000E+04;  0.0000000E+00;  0.0000000E+00;  1.0000000E+04;  0.0000000E+00;  1.0000000E+04; -2.3367818E-05;  0.0000000E+00; -5.8734308E-06;  3.3535663E-02;
 -1.0000000E-01;  9.9999998E-03; -3.1999999E-01;248;  0.0000000E+00;  0.0000000E+00;  0.0000000E+00;  1.0000000E+03;  4.0000001E-01;  0.0000000E+00;0;  0.0000000E+00;  0.0000000E+00;  0.0000000E+00;0; -5.2383042E-05;  1.0000000E+04;  0.0000000E+00;  0.0000000E+00;  1.0000000E+04;  0.0000000E+00;  1.0000000E+04; -4.5235432E-05;  0.0000000E+00; -7.1476111E-06;  3.9997168E-02;
 -1.0000000E-01;  9.9999998E-03; -3.0000001E-01;249;  0.0000000E+00;  0.0000000E+00;  0.0000000E+00;  1.0000000E+03;  4.0000001E-01;  0.0000000E+00;0;  0.0000000E+00;  0.0000000E+00;  0.0000000E+00;0; -8.1895807E-05;  1.0000000E+04;  0.0000000E+00;  0.0000000E+00;  1.0000000E+04;  0.0000000E+00;  1.0000000E+04; -7.4850257E-05;  0.0000000E+00; -7.0455480E-06;  3.7988320E-02;
 -1.0000000E-01;  9.9999998E-03; -2.8000000E-01;250;  0.0000000E+00;  0.0000000E+00;  0.0000000E+00;  1.0000000E+03;  4.0000001E-01;  0.0000000E+00;0;  0.0000000E+00;  0.0000000E+00;  0.0000000E+00;0; -1.1462416E-04;  1.0000000E+04;  0.0000000E+00;  0.0000000E+00;  1.0000000E+04;  0.0000000E+00;  1.0000000E+04; -1.0911444E-04;  0.0000000E+00; -5.5097194E-06;  2.7352720E-02;
 -1.0000000E-01;  9.9999998E-03; -2.5999999E-01;251;  0.0000000E+00;  0.0000000E+00;  0.0000000E+00;  1.0000001E+03;  4.0000001E-01;  9.8762624E-02;0;  0.0000000E+00;  0.0000000E+00;  0.0000000E+00;0; -1.4619506E-04;  1.0000000E+04;  0.0000000E+00;  0.0000000E+00;  1.0000000E+04;  0.0000000E+00;  1.0000000E+04; -1.4329673E-04;  0.0000000E+00; -2.8983322E-06;  1.0439742E-02;
 -1.0000000E-01;  9.9999998E-03; -2.3999999E-01;252;  0.0000000E+00;  0.0000000E+00;  0.0000000E+00;  1.0000001E+03;  4.0000001E-01;  9.8762624E-02;0;  0.0000000E+00;  0.0000000E+00;  0.0000000E+00;0; -1.7328864E-04;  1.0000000E+04;  0.0000000E+00;  0.0000000E+00;  1.0000000E+04;  0.0000000E+00;  1.0000000E+04; -1.7326322E-04;  0.0000000E+00; -2.5427820E-08;  7.7843149E-03;
 -1.0000000E-01;  9.9999998E-03; -2.2000000E-01;253;  0.0000000E+00;  0.0000000E+00;  0.0000000E+00;  1.0000001E+03;  4.0000001E-01;  9.8762624E-02;0;  0.0000000E+00;  0.0000000E+00;  0.0000000E+00;0; -1.9475512E-04;  1.0000000E+04;  0.0000000E+00;  0.0000000E+00;  1.0000000E+04;  0.0000000E+00;  1.0000000E+04; -1.9697957E-04;  0.0000000E+00;  2.2244465E-06;  2.2087159E-02;
 -1.0000000E-01;  9.9999998E-03; -2.0000000E-01;254;  0.0000000E+00;  0.0000000E+00;  0.0000000E+00;  1.0000001E+03;  4.0000001E-01;  9.8762624E-02;0;  0.0000000E+00;  0.0000000E+00;  0.0000000E+00;0; -2.1099451E-04;  1.0000000E+04;  0.0000000E+00;  0.0000000E+00;  1.0000000E+04;  0.0000000E+00;  1.0000000E+04; -2.1445217E-04;  0.0000000E+00;  3.4576603E-06;  3.0231783E-02;
 -7.9999998E-02;  9.9999998E-03; -3.4000000E-01;288;  0.0000000E+00;  0.0000000E+00;  0.0000000E+00;  1.0000000E+03;  4.0000001E-01;  0.0000000E+00;0;  0.0000000E+00;  0.0000000E+00;  0.0000000E+00;0; -8.6049840E-05;  1.0000000E+04;  0.0000000E+00;  0.0000000E+00;  1.0000000E+04;  0.0000000E+00;  1.0000000E+04; -6.7065244E-05;  0.0000000E+00; -1.8984600E-05;  1.0957129E-01;
 -7.9999998E-02;  9.9999998E-03; -3.1999999E-01;289;  0.0000000E+00;  0.0000000E+00;  0.0000000E+00;  1.0000001E+03;  4.0000001E-01;  9.8762624E-02;0;  0.0000000E+00;  0.0000000E+00;  0.0000000E+00;0; -1.4194097E-04;  1.0000000E+04;  0.0000000E+00;  0.0000000E+00;  1.0000000E+04;  0.0000000E+00;  1.0000000E+04; -1.2053255E-04;  0.0000000E+00; -2.1408412E-05;  1.2147862E-01;
 -7.9999998E-02;  9.9999998E-03; -3.0000001E-01;290;  0.0000000E+00;  0.0000000E+00;  0.0000000E+00;  1.0000001E+03;  4.0000001E-01;  9.8762624E-02;0;  0.0000000E+00;  0.0000000E+00;  0.0000000E+00;0; -2.1103349E-04;  1.0000000E+04;  0.0000000E+00;  0.0000000E+00;  1.0000000E+04;  0.0000000E+00;  1.0000000E+04; -1.9082872E-04;  0.0000000E+00; -2.0204763E-05;  1.1104820E-01;
 -7.9999998E-02;  9.9999998E-03; -2.8000000E-01;291;  0.0000000E+00;  0.0000000E+00;  0.0000000E+00;  1.0000002E+03;  4.0000001E-01;  1.9752525E-01;0;  0.0000000E+00;  0.0000000E+00;  0.0000000E+00;0; -2.8624927E-04;  1.0000000E+04;  0.0000000E+00;  0.0000000E+00;  1.0000000E+04;  0.0000000E+00;  1.0000000E+04; -2.7084019E-04;  0.0000000E+00; -1.5409087E-05;  7.8918144E-02;
 -7.9999998E-02;  9.9999998E-03; -2.5999999E-01;292;  0.0000000E+00;  0.0000000E+00;  0.0000000E+00;  1.0000002E+03;  4.0000001E-01;  1.9752525E-01;0;  0.0000000E+00;  0.0000000E+00;  0.0000000E+00;0; -3.5815351E-04;  1.0000000E+04;  0.0000000E+00;  0.0000000E+00;  1.0000000E+04;  0.0000000E+00;  1.0000000E+04; -3.5018765E-04;  0.0000000E+00; -7.9658766E-06;  3.1258721E-02;
 -7.9999998E-02;  9.9999998E-03; -2.3999999E-01;293;  0.0000000E+00;  0.0000000E+00;  0.0000000E+00;  1.0000003E+03;  4.0000001E-01;  2.9628786E-01;0;  0.0000000E+00;  0.0000000E+00;  0.0000000E+00;0; -4.1990014E-04;  1.0000000E+04;  0.0000000E+00;  0.0000000E+00;  1.0000000E+04;  0.0000000E+00;  1.0000000E+04; -4.1997072E-04;  0.0000000E+00;  7.0591021E-08;  1.9377720E-02;
 -7.9999998E-02;  9.9999998E-03; -2.2000000E-01;294;  0.0000000E+00;  0.0000000E+00;  0.0000000E+00;  1.0000003E+03;  4.0000001E-01;  2.9628786E-01;0;  0.0000000E+00;  0.0000000E+00;  0.0000000E+00;0; -4.6937377E-04;  1.0000000E+04;  0.0000000E+00;  0.0000000E+00;  1.0000000E+04;  0.0000000E+00;  1.0000000E+04; -4.7582798E-04;  0.0000000E+00;  6.4541996E-06;  5.9654273E-02;
 -7.9999998E-02;  9.9999998E-03; -2.0000000E-01;295;  0.0000000E+00;  0.0000000E+00;  0.0000000E+00;  1.0000004E+03;  4.0000001E-01;  2.9628786E-01;0;  0.0000000E+00;  0.0000000E+00;  0.0000000E+00;0; -5.0750584E-04;  1.0000000E+04;  0.0000000E+00;  0.0000000E+00;  1.0000000E+04;  0.0000000E+00;  1.0000000E+04; -5.1763415E-04;  0.0000000E+00;  1.0128313E-05;  8.3527148E-02;
 -5.9999999E-02;  9.9999998E-03; -3.4000000E-01;329;  0.0000000E+00;  0.0000000E+00;  0.0000000E+00;  1.0000001E+03;  4.0000001E-01;  9.8762624E-02;0;  0.0000000E+00;  0.0000000E+00;  0.0000000E+00;0; -1.9365366E-04;  1.0000000E+04;  0.0000000E+00;  0.0000000E+00;  1.0000000E+04;  0.0000000E+00;  1.0000000E+04; -1.4703105E-04;  0.0000000E+00; -4.6622601E-05;  2.7250555E-01;
 -5.9999999E-02;  9.9999998E-03; -3.1999999E-01;330;  0.0000000E+00;  0.0000000E+00;  0.0000000E+00;  1.0000002E+03;  4.0000001E-01;  1.9752525E-01;0;  0.0000000E+00;  0.0000000E+00;  0.0000000E+00;0; -3.0432086E-04;  1.0000000E+04;  0.0000000E+00;  0.0000000E+00;  1.0000000E+04;  0.0000000E+00;  1.0000000E+04; -2.5387938E-04;  0.0000000E+00; -5.0441475E-05;  2.9048276E-01;
 -5.9999999E-02;  9.9999998E-03; -3.0000001E-01;331;  0.0000000E+00;  0.0000000E+00;  0.0000000E+00;  1.0000003E+03;  4.0000001E-01;  2.9628786E-01;0;  0.0000000E+00;  0.0000000E+00;  0.0000000E+00;0; -4.3858361E-04;  1.0000000E+04;  0.0000000E+00;  0.0000000E+00;  1.0000000E+04;  0.0000000E+00;  1.0000000E+04; -3.9218293E-04;  0.0000000E+00; -4.6400663E-05;  2.5983986E-01;
 -5.9999999E-02;  9.9999998E-03; -2.8000000E-01;332;  0.0000000E+00;  0.0000000E+00;  0.0000000E+00;  1.0000004E+03;  4.0000001E-01;  3.9505050E-01;0;  0.0000000E+00;  0.0000000E+00;  0.0000000E+00;0; -5.8274099E-04;  1.0000000E+04;  0.0000000E+00;  0.0000000E+00;  1.0000000E+04;  0.0000000E+00;  1.0000000E+04; -5.4802117E-04;  0.0000000E+00; -3.4719829E-05;  1.8279704E-01;
 -5.9999999E-02;  9.9999998E-03; -2.5999999E-01;333;  0.0000000E+00;  0.0000000E+00;  0.0000000E+00;  1.0000005E+03;  4.0000001E-01;  3.9505050E-01;0;  0.0000000E+00;  0.0000000E+00;  0.0000000E+00;0; -7.1896985E-04;  1.0000000E+04;  0.0000000E+00;  0.0000000E+00;  1.0000000E+04;  0.0000000E+00;  1.0000000E+04; -7.0144655E-04;  0.0000000E+00; -1.7523294E-05;  7.3192462E-02;
 -5.9999999E-02;  9.9999998E-03; -2.3999999E-01;334;  0.0000000E+00;  0.0000000E+00;  0.0000000E+00;  1.0000007E+03;  4.0000001E-01;  5.9257573E-01;0;  0.0000000E+00;  0.0000000E+00;  0.0000000E+00;0; -8.3521695E-04;  1.0000000E+04;  0.0000000E+00;  0.0000000E+00;  1.0000000E+04;  0.0000000E+00;  1.0000000E+04; -8.3592243E-04;  0.0000000E+00;  7.0545366E-07;  4.1488186E-02;
 -5.9999999E-02;  9.9999998E-03; -2.2000000E-01;335;  0.0000000E+00;  0.0000000E+00;  0.0000000E+00;  1.0000007E+03;  4.0000001E-01;  5.9257573E-01;0;  0.0000000E+00;  0.0000000E+00;  0.0000000E+00;0; -9.2854915E-04;  1.0000000E+04;  0.0000000E+00;  0.0000000E+00;  1.0000000E+04;  0.0000000E+00;  1.0000000E+04; -9.4374391E-04;  0.0000000E+00;  1.5194788E-05;  1.3274425E-01;
 -5.9999999E-02;  9.9999998E-03; -2.0000000E-01;336;  0.0000000E+00;  0.0000000E+00;  0.0000000E+00;  1.0000007E+03;  4.0000001E-01;  5.9257573E-01;0;  0.0000000E+00;  0.0000000E+00;  0.0000000E+00;0; -1.0011384E-03;  1.0000000E+04;  0.0000000E+00;  0.0000000E+00;  1.0000000E+04;  0.0000000E+00;  1.0000000E+04; -1.0248412E-03;  0.0000000E+00;  2.3702873E-05;  1.8766171E-01;
 -3.9999999E-02;  9.9999998E-03; -3.4000000E-01;370;  0.0000000E+00;  0.0000000E+00;  0.0000000E+00;  1.0000002E+03;  4.0000001E-01;  1.9752525E-01;0;  0.0000000E+00;  0.0000000E+00;  0.0000000E+00;0; -3.6112772E-04;  1.0000000E+04;  0.0000000E+00;  0.0000000E+00;  1.0000000E+04;  0.0000000E+00;  1.0000000E+04; -2.6618695E-04;  0.0000000E+00; -9.4940769E-05;  5.6295812E-01;
 -3.9999999E-02;  9.9999998E-03; -3.1999999E-01;371;  0.0000000E+00;  0.0000000E+00;  0.0000000E+00;  1.0000004E+03;  4.0000001E-01;  2.9628786E-01;0;  0.0000000E+00;  0.0000000E+00;  0.0000000E+00;0; -5.5005390E-04;  1.0000000E+04;  0.0000000E+00;  0.0000000E+00;  1.0000000E+04;  0.0000000E+00;  1.0000000E+04; -4.4969024E-04;  0.0000000E+00; -1.0036366E-04;  5.8743238E-01;
 -3.9999999E-02;  9.9999998E-03; -3.0000001E-01;372;  0.0000000E+00;  0.0000000E+00;  0.0000000E+00;  1.0000005E+03;  4.0000001E-01;  4.9381313E-01;0;  0.0000000E+00;  0.0000000E+00;  0.0000000E+00;0; -7.7611796E-04;  1.0000000E+04;  0.0000000E+00;  0.0000000E+00;  1.0000000E+04;  0.0000000E+00;  1.0000000E+04; -6.8527483E-04;  0.0000000E+00; -9.0843103E-05;  5.1878393E-01;
 -3.9999999E-02;  9.9999998E-03; -2.8000000E-01;373;  0.0000000E+00;  0.0000000E+00;  0.0000000E+00;  1.0000007E+03;  4.0000001E-01;  5.9257573E-01;0;  0.0000000E+00;  0.0000000E+00;  0.0000000E+00;0; -1.0153379E-03;  1.0000000E+04;  0.0000000E+00;  0.0000000E+00;  1.0000000E+04;  0.0000000E+00;  1.0000000E+04; -9.4855722E-04;  0.0000000E+00; -6.6780703E-05;  3.6120999E-01;
 -3.9999999E-02;  9.9999998E-03; -2.5999999E-01;374;  0.0000000E+00;  0.0000000E+00;  0.0000000E+00;  1.0000010E+03;  4.0000001E-01;  7.9010099E-01;0;  0.0000000E+00;  0.0000000E+00;  0.0000000E+00;0; -1.2377674E-03;  1.0000000E+04;  0.0000000E+00;  0.0000000E+00;  1.0000000E+04;  0.0000000E+00;  1.0000000E+04; -1.2051607E-03;  0.0000000E+00; -3.2606666E-05;  1.4347620E-01;
 -3.9999999E-02;  9.9999998E-03; -2.3999999E-01;375;  0.0000000E+00;  0.0000000E+00;  0.0000000E+00;  1.0000010E+03;  4.0000001E-01;  8.8886362E-01;0;  0.0000000E+00;  0.0000000E+00;  0.0000000E+00;0; -1.4254741E-03;  1.0000000E+04;  0.0000000E+00;  0.0000000E+00;  1.0000000E+04;  0.0000000E+00;  1.0000000E+04; -1.4282645E-03;  0.0000000E+00;  2.7905010E-06;  7.9723030E-02;
 -3.9999999E-02;  9.9999998E-03; -2.2000000E-01;376;  0.0000000E+00;  0.0000000E+00;  0.0000000E+00;  1.0000012E+03;  4.0000001E-01;  9.8762625E-01;0;  0.0000000E+00;  0.0000000E+00;  0.0000000E+00;0; -1.5758093E-03;  1.0000000E+04;  0.0000000E+00;  0.0000000E+00;  1.0000000E+04;  0.0000000E+00;  1.0000000E+04; -1.6064596E-03;  0.0000000E+00;  3.0650262E-05;  2.5564331E-01;
 -3.9999999E-02;  9.9999998E-03; -2.0000000E-01;377;  0.0000000E+00;  0.0000000E+00;  0.0000000E+00;  1.0000012E+03;  4.0000001E-01;  9.8762625E-01;0;  0.0000000E+00;  0.0000000E+00;  0.0000000E+00;0; -1.6932082E-03;  1.0000000E+04;  0.0000000E+00;  0.0000000E+00;  1.0000000E+04;  0.0000000E+00;  1.0000000E+04; -1.7402865E-03;  0.0000000E+00;  4.7078200E-05;  3.6165795E-01;
 -2.0000000E-02;  9.9999998E-03; -3.4000000E-01;411;  0.0000000E+00;  0.0000000E+00;  0.0000000E+00;  1.0000004E+03;  4.0000001E-01;  3.9505050E-01;0;  0.0000000E+00;  0.0000000E+00;  0.0000000E+00;0; -5.8593816E-04;  1.0000000E+04;  0.0000000E+00;  0.0000000E+00;  1.0000000E+04;  0.0000000E+00;  1.0000000E+04; -4.1798165E-04;  0.0000000E+00; -1.6795652E-04;  1.0126778E+00;
 -2.0000000E-02;  9.9999998E-03; -3.1999999E-01;412;  0.0000000E+00;  0.0000000E+00;  0.0000000E+00;  1.0000007E+03;  4.0000001E-01;  5.9257573E-01;0;  0.0000000E+00;  0.0000000E+00;  0.0000000E+00;0; -8.7302463E-04;  1.0000000E+04;  0.0000000E+00;  0.0000000E+00;  1.0000000E+04;  0.0000000E+00;  1.0000000E+04; -6.9780520E-04;  0.0000000E+00; -1.7521944E-04;  1.0444840E+00;
 -2.0000000E-02;  9.9999998E-03; -3.0000001E-01;413;  0.0000000E+00;  0.0000000E+00;  0.0000000E+00;  1.0000010E+03;  4.0000001E-01;  7.9010099E-01;0;  0.0000000E+00;  0.0000000E+00;  0.0000000E+00;0; -1.2111847E-03;  1.0000000E+04;  0.0000000E+00;  0.0000000E+00;  1.0000000E+04;  0.0000000E+00;  1.0000000E+04; -1.0544721E-03;  0.0000000E+00; -1.5671259E-04;  9.1411245E-01;
 -2.0000000E-02;  9.9999998E-03; -2.8000000E-01;414;  0.0000000E+00;  0.0000000E+00;  0.0000000E+00;  1.0000012E+03;  4.0000001E-01;  9.8762625E-01;0;  0.0000000E+00;  0.0000000E+00;  0.0000000E+00;0; -1.5621366E-03;  1.0000000E+04;  0.0000000E+00;  0.0000000E+00;  1.0000000E+04;  0.0000000E+00;  1.0000000E+04; -1.4492300E-03;  0.0000000E+00; -1.1290658E-04;  6.2769932E-01;
 -2.0000000E-02;  9.9999998E-03; -2.5999999E-01;415;  0.0000000E+00;  0.0000000E+00;  0.0000000E+00;  1.0000015E+03;  4.0000001E-01;  1.1851515E+00;0;  0.0000000E+00;  0.0000000E+00;  0.0000000E+00;0; -1.8814495E-03;  1.0000000E+04;  0.0000000E+00;  0.0000000E+00;  1.0000000E+04;  0.0000000E+00;  1.0000000E+04; -1.8287560E-03;  0.0000000E+00; -5.2693500E-05;  2.4269691E-01;
 -2.0000000E-02;  9.9999998E-03; -2.3999999E-01;416;  0.0000000E+00;  0.0000000E+00;  0.0000000E+00;  1.0000016E+03;  4.0000001E-01;  1.3826767E+00;0;  0.0000000E+00;  0.0000000E+00;  0.0000000E+00;0; -2.1476415E-03;  1.0000000E+04;  0.0000000E+00;  0.0000000E+00;  1.0000000E+04;  0.0000000E+00;  1.0000000E+04; -2.1554176E-03;  0.0000000E+00;  7.7761370E-06;  1.4106156E-01;
 -2.0000000E-02;  9.9999998E-03; -2.2000000E-01;417;  0.0000000E+00;  0.0000000E+00;  0.0000000E+00;  1.0000018E+03;  4.0000001E-01;  1.4814394E+00;0;  0.0000000E+00;  0.0000000E+00;  0.0000000E+00;0; -2.3599607E-03;  1.0000000E+04;  0.0000000E+00;  0.0000000E+00;  1.0000000E+04;  0.0000000E+00;  1.0000000E+04; -2.4145527E-03;  0.0000000E+00;  5.4592081E-05;  4.3881676E-01;
 -2.0000000E-02;  9.9999998E-03; -2.0000000E-01;418;  0.0000000E+00;  0.0000000E+00;  0.0000000E+00;  1.0000019E+03;  4.0000001E-01;  1.5802020E+00;0;  0.0000000E+00;  0.0000000E+00;  0.0000000E+00;0; -2.5258705E-03;  1.0000000E+04;  0.0000000E+00;  0.0000000E+00;  1.0000000E+04;  0.0000000E+00;  1.0000000E+04; -2.6079218E-03;  0.0000000E+00;  8.2051447E-05;  6.1702240E-01;
  0.0000000E+00;  9.9999998E-03; -3.4000000E-01;452;  0.0000000E+00;  0.0000000E+00;  0.0000000E+00;  1.0000007E+03;  4.0000001E-01;  5.9257573E-01;0;  0.0000000E+00;  0.0000000E+00;  0.0000000E+00;0; -8.5489114E-04;  1.0000000E+04;  0.0000000E+00;  0.0000000E+00;  1.0000000E+04;  0.0000000E+00;  1.0000000E+04; -5.8961555E-04;  0.0000000E+00; -2.6527559E-04;  1.6314352E+00;
  0.0000000E+00;  9.9999998E-03; -3.1999999E-01;453;  0.0000000E+00;  0.0000000E+00;  0.0000000E+00;  1.0000010E+03;  4.0000001E-01;  7.9010099E-01;0;  0.0000000E+00;  0.0000000E+00;  0.0000000E+00;0; -1.2518307E-03;  1.0000000E+04;  0.0000000E+00;  0.0000000E+00;  1.0000000E+04;  0.0000000E+00;  1.0000000E+04; -9.7747077E-04;  0.0000000E+00; -2.7435992E-04;  1.6704634E+00;
  0.0000000E+00;  9.9999998E-03; -3.0000001E-01;454;  0.0000000E+00;  0.0000000E+00;  0.0000000E+00;  1.0000012E+03;  4.0000001E-01;  9.8762625E-01;0;  0.0000000E+00;  0.0000000E+00;  0.0000000E+00;0; -1.7078312E-03;  1.0000000E+04;  0.0000000E+00;  0.0000000E+00;  1.0000000E+04;  0.0000000E+00;  1.0000000E+04; -1.4660176E-03;  0.0000000E+00; -2.4181360E-04;  1.4444640E+00;
  2.0000000E-02;  9.9999998E-03; -3.4000000E-01;464;  0.0000000E+00;  0.0000000E+00;  0.0000000E+00;  1.0000009E+03;  4.0000001E-01;  7.9010099E-01;0;  0.0000000E+00;  0.0000000E+00;  0.0000000E+00;0; -1.1534370E-03;  1.0000000E+04;  0.0000000E+00;  0.0000000E+00;  1.0000000E+04;  0.0000000E+00;  1.0000000E+04; -7.7213836E-04;  0.0000000E+00; -3.8129860E-04;  2.4016085E+00;
  2.0000000E-02;  9.9999998E-03; -3.1999999E-01;465;  0.0000000E+00;  0.0000000E+00;  0.0000000E+00;  1.0000013E+03;  4.0000001E-01;  1.0863888E+00;0;  0.0000000E+00;  0.0000000E+00;  0.0000000E+00;0; -1.6642737E-03;  1.0000000E+04;  0.0000000E+00;  0.0000000E+00;  1.0000000E+04;  0.0000000E+00;  1.0000000E+04; -1.2730489E-03;  0.0000000E+00; -3.9122472E-04;  2.4426816E+00;
  3.9999999E-02;  9.9999998E-03; -3.4000000E-01;474;  0.0000000E+00;  0.0000000E+00;  0.0000000E+00;  1.0000011E+03;  4.0000001E-01;  8.8886362E-01;0;  0.0000000E+00;  0.0000000E+00;  0.0000000E+00;0; -1.4810710E-03;  1.0000000E+04;  0.0000000E+00;  0.0000000E+00;  1.0000000E+04;  0.0000000E+00;  1.0000000E+04; -9.7238162E-04;  0.0000000E+00; -5.0868938E-04;  3.2973111E+00;
  3.9999999E-02;  9.9999998E-03; -3.1999999E-01;475;  0.0000000E+00;  0.0000000E+00;  0.0000000E+00;  1.0000017E+03;  4.0000001E-01;  1.3826767E+00;0;  0.0000000E+00;  0.0000000E+00;  0.0000000E+00;0; -2.1138659E-03;  1.0000000E+04;  0.0000000E+00;  0.0000000E+00;  1.0000000E+04;  0.0000000E+00;  1.0000000E+04; -1.5971650E-03;  0.0000000E+00; -5.1670091E-04;  3.3244975E+00;
  5.9999999E-02;  9.9999998E-03; -3.4000000E-01;484;  0.0000000E+00;  0.0000000E+00;  0.0000000E+00;  1.0000015E+03;  4.0000001E-01;  1.2839141E+00;0;  0.0000000E+00;  0.0000000E+00;  0.0000000E+00;0; -1.8594153E-03;  1.0000000E+04;  0.0000000E+00;  0.0000000E+00;  1.0000000E+04;  0.0000000E+00;  1.0000000E+04; -1.2144974E-03;  0.0000000E+00; -6.4491795E-04;  4.3229880E+00;
  5.9999999E-02;  9.9999998E-03; -3.1999999E-01;485;  0.0000000E+00;  0.0000000E+00;  0.0000000E+00;  1.0000021E+03;  4.0000001E-01;  1.7777272E+00;0;  0.0000000E+00;  0.0000000E+00;  0.0000000E+00;0; -2.6381062E-03;  1.0000000E+04;  0.0000000E+00;  0.0000000E+00;  1.0000000E+04;  0.0000000E+00;  1.0000000E+04; -1.9894203E-03;  0.0000000E+00; -6.4868585E-04;  4.3213649E+00;
  7.9999998E-02;  9.9999998E-03; -3.4000000E-01;494;  0.0000000E+00;  0.0000000E+00;  0.0000000E+00;  1.0000020E+03;  4.0000001E-01;  1.5802020E+00;0;  0.0000000E+00;  0.0000000E+00;  0.0000000E+00;0; -2.3394963E-03;  1.0000000E+04;  0.0000000E+00;  0.0000000E+00;  1.0000000E+04;  0.0000000E+00;  1.0000000E+04; -1.5441303E-03;  0.0000000E+00; -7.9536613E-04;  5.5452313E+00;
  7.9999998E-02;  9.9999998E-03; -3.1999999E-01;495;  0.0000000E+00;  0.0000000E+00;  0.0000000E+00;  1.0000028E+03;  4.0000001E-01;  2.3703029E+00;0;  0.0000000E+00;  0.0000000E+00;  0.0000000E+00;0; -3.3058936E-03;  1.0000000E+04;  0.0000000E+00;  0.0000000E+00;  1.0000000E+04;  0.0000000E+00;  1.0000000E+04; -2.5128473E-03;  0.0000000E+00; -7.9304632E-04;  5.4983044E+00;
  1.0000000E-01;  9.9999998E-03; -3.4000000E-01;504;  0.0000000E+00;  0.0000000E+00;  0.0000000E+00;  1.0000026E+03;  4.0000001E-01;  2.1727777E+00;0;  0.0000000E+00;  0.0000000E+00;  0.0000000E+00;0; -3.0137273E-03;  1.0000000E+04;  0.0000000E+00;  0.0000000E+00;  1.0000000E+04;  0.0000000E+00;  1.0000000E+04; -2.0381508E-03;  0.0000000E+00; -9.7557635E-04;  7.3101859E+00;
  1.0000000E-01;  9.9999998E-03; -3.1999999E-01;505;  0.0000000E+00;  0.0000000E+00;  0.0000000E+00;  1.0000037E+03;  4.0000001E-01;  3.0616415E+00;0;  0.0000000E+00;  0.0000000E+00;  0.0000000E+00;0; -4.2367661E-03;  1.0000000E+04;  0.0000000E+00;  0.0000000E+00;  1.0000000E+04;  0.0000000E+00;  1.0000000E+04; -3.2715762E-03;  0.0000000E+00; -9.6518977E-04;  7.3226290E+00;
  1.2000000E-01;  9.9999998E-03; -3.4000000E-01;514;  0.0000000E+00;  0.0000000E+00;  0.0000000E+00;  1.0000037E+03;  4.0000001E-01;  3.0616415E+00;0;  0.0000000E+00;  0.0000000E+00;  0.0000000E+00;0; -4.0308293E-03;  1.0000000E+04;  0.0000000E+00;  0.0000000E+00;  1.0000000E+04;  0.0000000E+00;  1.0000000E+04; -2.8131190E-03;  0.0000000E+00; -1.2177104E-03;  1.1455172E+01;
  1.2000000E-01;  9.9999998E-03; -3.1999999E-01;515;  0.0000000E+00;  0.0000000E+00;  0.0000000E+00;  1.0000050E+03;  4.0000001E-01;  4.1480303E+00;0;  0.0000000E+00;  0.0000000E+00;  0.0000000E+00;0; -5.6141187E-03;  1.0000000E+04;  0.0000000E+00;  0.0000000E+00;  1.0000000E+04;  0.0000000E+00;  1.0000000E+04; -4.4182385E-03;  0.0000000E+00; -1.1958804E-03;  1.3066799E+01;
  1.4000000E-01;  9.9999998E-03; -3.4000000E-01;524;  0.0000000E+00;  0.0000000E+00;  0.0000000E+00;  1.0000052E+03;  4.0000001E-01;  4.3455553E+00;0;  0.0000000E+00;  0.0000000E+00;  0.0000000E+00;0; -5.6153224E-03;  1.0000000E+04;  0.0000000E+00;  0.0000000E+00;  1.0000000E+04;  0.0000000E+00;  1.0000000E+04; -4.0332843E-03;  0.0000000E+00; -1.5820380E-03;  2.3400116E+01;
  1.4000000E-01;  9.9999998E-03; -3.1999999E-01;525;  0.0000000E+00;  0.0000000E+00;  0.0000000E+00;  1.0000070E+03;  4.0000001E-01;  5.8269949E+00;0;  0.0000000E+00;  0.0000000E+00;  0.0000000E+00;0; -7.6987129E-03;  1.0000000E+04;  0.0000000E+00;  0.0000000E+00;  1.0000000E+04;  0.0000000E+00;  1.0000000E+04; -6.1566662E-03;  0.0000000E+00; -1.5420467E-03;  3.1755415E+01;
  1.6000000E-01;  9.9999998E-03; -3.4000000E-01;534;  0.0000000E+00;  0.0000000E+00;  0.0000000E+00;  1.0000075E+03;  4.0000001E-01;  6.2220454E+00;0;  0.0000000E+00;  0.0000000E+00;  0.0000000E+00;0; -8.0409124E-03;  1.0000000E+04;  0.0000000E+00;  0.0000000E+00;  1.0000000E+04;  0.0000000E+00;  1.0000000E+04; -5.8670281E-03;  0.0000000E+00; -2.1738841E-03;  5.1424561E+01;
  1.6000000E-01;  9.9999998E-03; -3.1999999E-01;535;  0.0000000E+00;  0.0000000E+00;  0.0000000E+00;  1.0000101E+03;  4.0000001E-01;  8.2960606E+00;0;  0.0000000E+00;  0.0000000E+00;  0.0000000E+00;0; -1.0797474E-02;  1.0000000E+04;  0.0000000E+00;  0.0000000E+00;  1.0000000E+04;  0.0000000E+00;  1.0000000E+04; -8.6923838E-03;  0.0000000E+00; -2.1050896E-03;  7.6566879E+01;
  1.8000001E-01;  9.9999998E-03; -3.4000000E-01;544;  0.0000000E+00;  0.0000000E+00;  0.0000000E+00;  1.0000110E+03;  4.0000001E-01;  9.0861616E+00;0;  0.0000000E+00;  0.0000000E+00;  0.0000000E+00;0; -1.1479632E-02;  1.0000000E+04;  0.0000000E+00;  0.0000000E+00;  1.0000000E+04;  0.0000000E+00;  1.0000000E+04; -8.3166705E-03;  0.0000000E+00; -3.1629612E-03;  1.0137521E+02;
  1.8000001E-01;  9.9999998E-03; -3.1999999E-01;545;  0.0000000E+00;  0.0000000E+00;  0.0000000E+00;  1.0000145E+03;  4.0000001E-01;  1.2049040E+01;0;  0.0000000E+00;  0.0000000E+00;  0.0000000E+00;0; -1.5118623E-02;  1.0000000E+04;  0.0000000E+00;  0.0000000E+00;  1.0000000E+04;  0.0000000E+00;  1.0000000E+04; -1.2063389E-02;  0.0000000E+00; -3.0552347E-03;  1.6035573E+02;
  2.0000000E-01;  9.9999998E-03; -3.4000000E-01;553;  0.0000000E+00;  0.0000000E+00;  0.0000000E+00;  1.0000156E+03;  4.0000001E-01;  1.2937903E+01;0;  0.0000000E+00;  0.0000000E+00;  0.0000000E+00;0; -1.5884710E-02;  1.0000000E+04;  0.0000000E+00;  0.0000000E+00;  1.0000000E+04;  0.0000000E+00;  1.0000000E+04; -1.1099468E-02;  0.0000000E+00; -4.7852420E-03;  1.6519864E+02;
  2.0000000E-01;  9.9999998E-03; -3.1999999E-01;554;  0.0000000E+00;  0.0000000E+00;  0.0000000E+00;  1.0000202E+03;  4.0000001E-01;  1.6690884E+01;0;  0.0000000E+00;  0.0000000E+00;  0.0000000E+00;0; -2.0628765E-02;  1.0000000E+04;  0.0000000E+00;  0.0000000E+00;  1.0000000E+04;  0.0000000E+00;  1.0000000E+04; -1.5991896E-02;  0.0000000E+00; -4.6368693E-03;  2.7776654E+02;
 -2.2000000E-01;  9.9999998E-03; -1.8000001E-01;10;  0.0000000E+00;  0.0000000E+00;  0.0000000E+00;  1.0000000E+03;  4.0000001E-01;  0.0000000E+00;0;  0.0000000E+00;  0.0000000E+00;  0.0000000E+00;0;  0.0000000E+00;  1.0000000E+04;  0.0000000E+00;  0.0000000E+00;  1.0000000E+04;  0.0000000E+00;  1.0000000E+04;  0.0000000E+00;  0.0000000E+00;  0.0000000E+00;  0.0000000E+00;
 -2.2000000E-01;  9.9999998E-03; -1.6000000E-01;11;  0.0000000E+00;  0.0000000E+00;  0.0000000E+00;  1.0000000E+03;  4.0000001E-01;  0.0000000E+00;0;  0.0000000E+00;  0.0000000E+00;  0.0000000E+00;0;  0.0000000E+00;  1.0000000E+04;  0.0000000E+00;  0.0000000E+00;  1.0000000E+04;  0.0000000E+00;  1.0000000E+04;  0.0000000E+00;  0.0000000E+00;  0.0000000E+00;  0.0000000E+00;
 -2.2000000E-01;  9.9999998E-03; -1.4000000E-01;12;  0.0000000E+00;  0.0000000E+00;  0.0000000E+00;  1.0000000E+03;  4.0000001E-01;  0.0000000E+00;0;  0.0000000E+00;  0.0000000E+00;  0.0000000E+00;0;  0.0000000E+00;  1.0000000E+04;  0.0000000E+00;  0.0000000E+00;  1.0000000E+04;  0.0000000E+00;  1.0000000E+04;  0.0000000E+00;  0.0000000E+00;  0.0000000E+00;  0.0000000E+00;
 -2.2000000E-01;  9.9999998E-03; -1.2000000E-01;13;  0.0000000E+00;  0.0000000E+00;  0.0000000E+00;  1.0000000E+03;  4.0000001E-01;  0.0000000E+00;0;  0.0000000E+00;  0.0000000E+00;  0.0000000E+00;0;  0.0000000E+00;  1.0000000E+04;  0.0000000E+00;  0.0000000E+00;  1.0000000E+04;  0.0000000E+00;  1.0000000E+04;  0.0000000E+00;  0.0000000E+00;  0.0000000E+00;  0.0000000E+00;
 -2.2000000E-01;  9.9999998E-03; -1.0000000E-01;14;  0.0000000E+00;  0.0000000E+00;  0.0000000E+00;  1.0000000E+03;  4.0000001E-01;  0.0000000E+00;0;  0.0000000E+00;  0.0000000E+00;  0.0000000E+00;0;  0.0000000E+00;  1.0000000E+04;  0.0000000E+00;  0.0000000E+00;  1.0000000E+04;  0.0000000E+00;  1.0000000E+04;  0.0000000E+00;  0.0000000E+00;  0.0000000E+00;  0.0000000E+00;
 -2.2000000E-01;  9.9999998E-03; -7.9999998E-02;15;  0.0000000E+00;  0.0000000E+00;  0.0000000E+00;  1.0000000E+03;  4.0000001E-01;  0.0000000E+00;0;  0.0000000E+00;  0.0000000E+00;  0.0000000E+00;0;  0.0000000E+00;  1.0000000E+04;  0.0000000E+00;  0.0000000E+00;  1.0000000E+04;  0.0000000E+00;  1.0000000E+04;  0.0000000E+00;  0.0000000E+00;  0.0000000E+00;  0.0000000E+00;
 -2.2000000E-01;  9.9999998E-03; -5.9999999E-02;16;  0.0000000E+00;  0.0000000E+00;  0.0000000E+00;  1.0000000E+03;  4.0000001E-01;  0.0000000E+00;0;  0.0000000E+00;  0.0000000E+00;  0.0000000E+00;0;  0.0000000E+00;  1.0000000E+04;  0.0000000E+00;  0.0000000E+00;  1.0000000E+04;  0.0000000E+00;  1.0000000E+04;  0.0000000E+00;  0.0000000E+00;  0.0000000E+00;  0.0000000E+00;
 -2.2000000E-01;  9.9999998E-03; -3.9999999E-02;17;  0.0000000E+00;  0.0000000E+00;  0.0000000E+00;  1.0000000E+03;  4.0000001E-01;  0.0000000E+00;0;  0.0000000E+00;  0.0000000E+00;  0.0000000E+00;0;  0.0000000E+00;  1.0000000E+04;  0.0000000E+00;  0.0000000E+00;  1.0000000E+04;  0.0000000E+00;  1.0000000E+04;  0.0000000E+00;  0.0000000E+00;  0.0000000E+00;  0.0000000E+00;
 -2.2000000E-01;  9.9999998E-03; -2.0000000E-02;18;  0.0000000E+00;  0.0000000E+00;  0.0000000E+00;  1.0000000E+03;  4.0000001E-01;  0.0000000E+00;0;  0.0000000E+00;  0.0000000E+00;  0.0000000E+00;0;  0.0000000E+00;  1.0000000E+04;  0.0000000E+00;  0.0000000E+00;  1.0000000E+04;  0.0000000E+00;  1.0000000E+04;  0.0000000E+00;  0.0000000E+00;  0.0000000E+00;  0.0000000E+00;
 -2.0000000E-01;  9.9999998E-03; -1.8000001E-01;50;  0.0000000E+00;  0.0000000E+00;  0.0000000E+00;  1.0000000E+03;  4.0000001E-01;  0.0000000E+00;0;  0.0000000E+00;  0.0000000E+00;  0.0000000E+00;0;  0.0000000E+00;  1.0000000E+04;  0.0000000E+00;  0.0000000E+00;  1.0000000E+04;  0.0000000E+00;  1.0000000E+04;  0.0000000E+00;  0.0000000E+00;  0.0000000E+00;  0.0000000E+00;
 -2.0000000E-01;  9.9999998E-03; -1.6000000E-01;51;  0.0000000E+00;  0.0000000E+00;  0.0000000E+00;  1.0000000E+03;  4.0000001E-01;  0.0000000E+00;0;  0.0000000E+00;  0.0000000E+00;  0.0000000E+00;0;  0.0000000E+00;  1.0000000E+04;  0.0000000E+00;  0.0000000E+00;  1.0000000E+04;  0.0000000E+00;  1.0000000E+04;  0.0000000E+00;  0.0000000E+00;  0.0000000E+00;  0.0000000E+00;
 -2.0000000E-01;  9.9999998E-03; -1.4000000E-01;52;  0.0000000E+00;  0.0000000E+00;  0.0000000E+00;  1.0000000E+03;  4.0000001E-01;  0.0000000E+00;0;  0.0000000E+00;  0.0000000E+00;  0.0000000E+00;0;  0.0000000E+00;  1.0000000E+04;  0.0000000E+00;  0.0000000E+00;  1.0000000E+04;  0.0000000E+00;  1.0000000E+04;  0.0000000E+00;  0.0000000E+00;  0.0000000E+00;  0.0000000E+00;
 -2.0000000E-01;  9.9999998E-03; -1.2000000E-01;53;  0.0000000E+00;  0.0000000E+00;  0.0000000E+00;  1.0000000E+03;  4.0000001E-01;  0.0000000E+00;0;  0.0000000E+00;  0.0000000E+00;  0.0000000E+00;0;  0.0000000E+00;  1.0000000E+04;  0.0000000E+00;  0.0000000E+00;  1.0000000E+04;  0.0000000E+00;  1.0000000E+04;  0.0000000E+00;  0.0000000E+00;  0.0000000E+00;  0.0000000E+00;
 -2.0000000E-01;  9.9999998E-03; -1.0000000E-01;54;  0.0000000E+00;  0.0000000E+00;  0.0000000E+00;  1.0000000E+03;  4.0000001E-01;  0.0000000E+00;0;  0.0000000E+00;  0.0000000E+00;  0.0000000E+00;0;  0.0000000E+00;  1.0000000E+04;  0.0000000E+00;  0.0000000E+00;  1.0000000E+04;  0.0000000E+00;  1.0000000E+04;  0.0000000E+00;  0.0000000E+00;  0.0000000E+00;  0.0000000E+00;
 -2.0000000E-01;  9.9999998E-03; -7.9999998E-02;55;  0.0000000E+00;  0.0000000E+00;  0.0000000E+00;  1.0000000E+03;  4.0000001E-01;  0.0000000E+00;0;  0.0000000E+00;  0.0000000E+00;  0.0000000E+00;0;  0.0000000E+00;  1.0000000E+04;  0.0000000E+00;  0.0000000E+00;  1.0000000E+04;  0.0000000E+00;  1.0000000E+04;  0.0000000E+00;  0.0000000E+00;  0.0000000E+00;  0.0000000E+00;
 -2.0000000E-01;  9.9999998E-03; -5.9999999E-02;56;  0.0000000E+00;  0.0000000E+00;  0.0000000E+00;  1.0000000E+03;  4.0000001E-01;  0.0000000E+00;0;  0.0000000E+00;  0.0000000E+00;  0.0000000E+00;0;  0.0000000E+00;  1.0000000E+04;  0.0000000E+00;  0.0000000E+00;  1.0000000E+04;  0.0000000E+00;  1.0000000E+04;  0.0000000E+00;  0.0000000E+00;  0.0000000E+00;  0.0000000E+00;
 -2.0000000E-01;  9.9999998E-03; -3.9999999E-02;57;  0.0000000E+00;  0.0000000E+00;  0.0000000E+00;  1.0000000E+03;  4.0000001E-01;  0.0000000E+00;0;  0.0000000E+00;  0.0000000E+00;  0.0000000E+00;0;  0.0000000E+00;  1.0000000E+04;  0.0000000E+00;  0.0000000E+00;  1.0000000E+04;  0.0000000E+00;  1.0000000E+04;  0.0000000E+00;  0.0000000E+00;  0.0000000E+00;  0.0000000E+00;
 -2.0000000E-01;  9.9999998E-03; -2.0000000E-02;58;  0.0000000E+00;  0.0000000E+00;  0.0000000E+00;  1.0000000E+03;  4.0000001E-01;  0.0000000E+00;0;  0.0000000E+00;  0.0000000E+00;  0.0000000E+00;0;  0.0000000E+00;  1.0000000E+04;  0.0000000E+00;  0.0000000E+00;  1.0000000E+04;  0.0000000E+00;  1.0000000E+04;  0.0000000E+00;  0.0000000E+00;  0.0000000E+00;  0.0000000E+00;
 -1.8000001E-01;  9.9999998E-03; -1.8000001E-01;91;  0.0000000E+00;  0.0000000E+00;  0.0000000E+00;  1.0000000E+03;  4.0000001E-01;  0.0000000E+00;0;  0.0000000E+00;  0.0000000E+00;  0.0000000E+00;0;  0.0000000E+00;  1.0000000E+04;  0.0000000E+00;  0.0000000E+00;  1.0000000E+04;  0.0000000E+00;  1.0000000E+04;  0.0000000E+00;  0.0000000E+00;  0.0000000E+00;  0.0000000E+00;
 -1.8000001E-01;  9.9999998E-03; -1.6000000E-01;92;  0.0000000E+00;  0.0000000E+00;  0.0000000E+00;  1.0000000E+03;  4.0000001E-01;  0.0000000E+00;0;  0.0000000E+00;  0.0000000E+00;  0.0000000E+00;0;  0.0000000E+00;  1.0000000E+04;  0.0000000E+00;  0.0000000E+00;  1.0000000E+04;  0.0000000E+00;  1.0000000E+04;  0.0000000E+00;  0.0000000E+00;  0.0000000E+00;  0.0000000E+00;
 -1.8000001E-01;  9.9999998E-03; -1.4000000E-01;93;  0.0000000E+00;  0.0000000E+00;  0.0000000E+00;  1.0000000E+03;  4.0000001E-01;  0.0000000E+00;0;  0.0000000E+00;  0.0000000E+00;  0.0000000E+00;0;  0.0000000E+00;  1.0000000E+04;  0.0000000E+00;  0.0000000E+00;  1.0000000E+04;  0.0000000E+00;  1.0000000E+04;  0.0000000E+00;  0.0000000E+00;  0.0000000E+00;  0.0000000E+00;
 -1.8000001E-01;  9.9999998E-03; -1.2000000E-01;94;  0.0000000E+00;  0.0000000E+00;  0.0000000E+00;  1.0000000E+03;  4.0000001E-01;  0.0000000E+00;0;  0.0000000E+00;  0.0000000E+00;  0.0000000E+00;0;  0.0000000E+00;  1.0000000E+04;  0.0000000E+00;  0.0000000E+00;  1.0000000E+04;  0.0000000E+00;  1.0000000E+04;  0.0000000E+00;  0.0000000E+00;  0.0000000E+00;  0.0000000E+00;
 -1.8000001E-01;  9.9999998E-03; -1.0000000E-01;95;  0.0000000E+00;  0.0000000E+00;  0.0000000E+00;  1.0000000E+03;  4.0000001E-01;  0.0000000E+00;0;  0.0000000E+00;  0.0000000E+00;  0.0000000E+00;0;  0.0000000E+00;  1.0000000E+04;  0.0000000E+00;  0.0000000E+00;  1.0000000E+04;  0.0000000E+00;  1.0000000E+04;  0.0000000E+00;  0.0000000E+00;  0.0000000E+00;  0.0000000E+00;
 -1.8000001E-01;  9.9999998E-03; -7.9999998E-02;96;  0.0000000E+00;  0.0000000E+00;  0.0000000E+00;  1.0000000E+03;  4.0000001E-01;  0.0000000E+00;0;  0.0000000E+00;  0.0000000E+00;  0.0000000E+00;0;  0.0000000E+00;  1.0000000E+04;  0.0000000E+00;  0.0000000E+00;  1.0000000E+04;  0.0000000E+00;  1.0000000E+04;  0.0000000E+00;  0.0000000E+00;  0.0000000E+00;  0.0000000E+00;
 -1.8000001E-01;  9.9999998E-03; -5.9999999E-02;97;  0.0000000E+00;  0.0000000E+00;  0.0000000E+00;  1.0000000E+03;  4.0000001E-01;  0.0000000E+00;0;  0.0000000E+00;  0.0000000E+00;  0.0000000E+00;0;  0.0000000E+00;  1.0000000E+04;  0.0000000E+00;  0.0000000E+00;  1.0000000E+04;  0.0000000E+00;  1.0000000E+04;  0.0000000E+00;  0.0000000E+00;  0.0000000E+00;  0.0000000E+00;
 -1.8000001E-01;  9.9999998E-03; -3.9999999E-02;98;  0.0000000E+00;  0.0000000E+00;  0.0000000E+00;  1.0000000E+03;  4.0000001E-01;  0.0000000E+00;0;  0.0000000E+00;  0.0000000E+00;  0.0000000E+00;0;  0.0000000E+00;  1.0000000E+04;  0.0000000E+00;  0.0000000E+00;  1.0000000E+04;  0.0000000E+00;  1.0000000E+04;  0.0000000E+00;  0.0000000E+00;  0.0000000E+00;  0.0000000E+00;
 -1.8000001E-01;  9.9999998E-03; -2.0000000E-02;99;  0.0000000E+00;  0.0000000E+00;  0.0000000E+00;  1.0000000E+03;  4.0000001E-01;  0.0000000E+00;0;  0.0000000E+00;  0.0000000E+00;  0.0000000E+00;0;  0.0000000E+00;  1.0000000E+04;  0.0000000E+00;  0.0000000E+00;  1.0000000E+04;  0.0000000E+00;  1.0000000E+04;  0.0000000E+00;  0.0000000E+00;  0.0000000E+00;  0.0000000E+00;
 -1.6000000E-01;  9.9999998E-03; -1.8000001E-01;132;  0.0000000E+00;  0.0000000E+00;  0.0000000E+00;  1.0000000E+03;  4.0000001E-01;  0.0000000E+00;0;  0.0000000E+00;  0.0000000E+00;  0.0000000E+00;0; -3.4450815E-07;  1.0000000E+04;  0.0000000E+00;  0.0000000E+00;  1.0000000E+04;  0.0000000E+00;  1.0000000E+04; -3.4525164E-07;  0.0000000E+00;  7.4347051E-10;  2.1498432E-05;
 -1.6000000E-01;  9.9999998E-03; -1.6000000E-01;133;  0.0000000E+00;  0.0000000E+00;  0.0000000E+00;  1.0000000E+03;  4.0000001E-01;  0.0000000E+00;0;  0.0000000E+00;  0.0000000E+00;  0.0000000E+00;0; -3.5602864E-07;  1.0000000E+04;  0.0000000E+00;  0.0000000E+00;  1.0000000E+04;  0.0000000E+00;  1.0000000E+04; -3.5669129E-07;  0.0000000E+00;  6.6266581E-10;  2.1711674E-05;
 -1.6000000E-01;  9.9999998E-03; -1.4000000E-01;134;  0.0000000E+00;  0.0000000E+00;  0.0000000E+00;  1.0000000E+03;  4.0000001E-01;  0.0000000E+00;0;  0.0000000E+00;  0.0000000E+00;  0.0000000E+00;0; -3.6388030E-07;  1.0000000E+04;  0.0000000E+00;  0.0000000E+00;  1.0000000E+04;  0.0000000E+00;  1.0000000E+04; -3.6445104E-07;  0.0000000E+00;  5.7072952E-10;  2.1693717E-05;
 -1.6000000E-01;  9.9999998E-03; -1.2000000E-01;135;  0.0000000E+00;  0.0000000E+00;  0.0000000E+00;  1.0000000E+03;  4.0000001E-01;  0.0000000E+00;0;  0.0000000E+00;  0.0000000E+00;  0.0000000E+00;0; -3.6899036E-07;  1.0000000E+04;  0.0000000E+00;  0.0000000E+00;  1.0000000E+04;  0.0000000E+00;  1.0000000E+04; -3.6947463E-07;  0.0000000E+00;  4.8429039E-10;  2.1575886E-05;
 -1.6000000E-01;  9.9999998E-03; -1.0000000E-01;136;  0.0000000E+00;  0.0000000E+00;  0.0000000E+00;  1.0000000E+03;  4.0000001E-01;  0.0000000E+00;0;  0.0000000E+00;  0.0000000E+00;  0.0000000E+00;0; -3.7215520E-07;  1.0000000E+04;  0.0000000E+00;  0.0000000E+00;  1.0000000E+04;  0.0000000E+00;  1.0000000E+04; -3.7256009E-07;  0.0000000E+00;  4.0488934E-10;  2.1394231E-05;
 -1.6000000E-01;  9.9999998E-03; -7.9999998E-02;137;  0.0000000E+00;  0.0000000E+00;  0.0000000E+00;  1.0000000E+03;  4.0000001E-01;  0.0000000E+00;0;  0.0000000E+00;  0.0000000E+00;  0.0000000E+00;0; -3.7399758E-07;  1.0000000E+04;  0.0000000E+00;  0.0000000E+00;  1.0000000E+04;  0.0000000E+00;  1.0000000E+04; -3.7433452E-07;  0.0000000E+00;  3.3695172E-10;  2.1193491E-05;
 -1.6000000E-01;  9.9999998E-03; -5.9999999E-02;138;  0.0000000E+00;  0.0000000E+00;  0.0000000E+00;  1.0000000E+03;  4.0000001E-01;  0.0000000E+00;0;  0.0000000E+00;  0.0000000E+00;  0.0000000E+00;0; -3.7499268E-07;  1.0000000E+04;  0.0000000E+00;  0.0000000E+00;  1.0000000E+04;  0.0000000E+00;  1.0000000E+04; -3.7527474E-07;  0.0000000E+00;  2.8204616E-10;  2.1001913E-05;
 -1.6000000E-01;  9.9999998E-03; -3.9999999E-02;139;  0.0000000E+00;  0.0000000E+00;  0.0000000E+00;  1.0000000E+03;  4.0000001E-01;  0.0000000E+00;0;  0.0000000E+00;  0.0000000E+00;  0.0000000E+00;0; -3.7548335E-07;  1.0000000E+04;  0.0000000E+00;  0.0000000E+00;  1.0000000E+04;  0.0000000E+00;  1.0000000E+04; -3.7572386E-07;  0.0000000E+00;  2.4051811E-10;  2.0838117E-05;
 -1.6000000E-01;  9.9999998E-03; -2.0000000E-02;140;  0.0000000E+00;  0.0000000E+00;  0.0000000E+00;  1.0000000E+03;  4.0000001E-01;  0.0000000E+00;0;  0.0000000E+00;  0.0000000E+00;  0.0000000E+00;0; -3.7569271E-07;  1.0000000E+04;  0.0000000E+00;  0.0000000E+00;  1.0000000E+04;  0.0000000E+00;  1.0000000E+04; -3.7590769E-07;  0.0000000E+00;  2.1497269E-10;  2.0730851E-05;
 -1.4000000E-01;  9.9999998E-03; -1.8000001E-01;173;  0.0000000E+00;  0.0000000E+00;  0.0000000E+00;  1.0000000E+03;  4.0000001E-01;  0.0000000E+00;0;  0.0000000E+00;  0.0000000E+00;  0.0000000E+00;0; -1.2532816E-05;  1.0000000E+04;  0.0000000E+00;  0.0000000E+00;  1.0000000E+04;  0.0000000E+00;  1.0000000E+04; -1.2623563E-05;  0.0000000E+00;  9.0746965E-08;  1.1437777E-03;
 -1.4000000E-01;  9.9999998E-03; -1.6000000E-01;174;  0.0000000E+00;  0.0000000E+00;  0.0000000E+00;  1.0000000E+03;  4.0000001E-01;  0.0000000E+00;0;  0.0000000E+00;  0.0000000E+00;  0.0000000E+00;0; -1.2990403E-05;  1.0000000E+04;  0.0000000E+00;  0.0000000E+00;  1.0000000E+04;  0.0000000E+00;  1.0000000E+04; -1.3073027E-05;  0.0000000E+00;  8.2623856E-08;  1.1279491E-03;
 -1.4000000E-01;  9.9999998E-03; -1.4000000E-01;175;  0.0000000E+00;  0.0000000E+00;  0.0000000E+00;  1.0000000E+03;  4.0000001E-01;  0.0000000E+00;0;  0.0000000E+00;  0.0000000E+00;  0.0000000E+00;0; -1.3312148E-05;  1.0000000E+04;  0.0000000E+00;  0.0000000E+00;  1.0000000E+04;  0.0000000E+00;  1.0000000E+04; -1.3384451E-05;  0.0000000E+00;  7.2302591E-08;  1.0939994E-03;
 -1.4000000E-01;  9.9999998E-03; -1.2000000E-01;176;  0.0000000E+00;  0.0000000E+00;  0.0000000E+00;  1.0000000E+03;  4.0000001E-01;  0.0000000E+00;0;  0.0000000E+00;  0.0000000E+00;  0.0000000E+00;0; -1.3529325E-05;  1.0000000E+04;  0.0000000E+00;  0.0000000E+00;  1.0000000E+04;  0.0000000E+00;  1.0000000E+04; -1.3591060E-05;  0.0000000E+00;  6.1734966E-08;  1.0537761E-03;
 -1.4000000E-01;  9.9999998E-03; -1.0000000E-01;177;  0.0000000E+00;  0.0000000E+00;  0.0000000E+00;  1.0000000E+03;  4.0000001E-01;  0.0000000E+00;0;  0.0000000E+00;  0.0000000E+00;  0.0000000E+00;0; -1.3669727E-05;  1.0000000E+04;  0.0000000E+00;  0.0000000E+00;  1.0000000E+04;  0.0000000E+00;  1.0000000E+04; -1.3721718E-05;  0.0000000E+00;  5.1990465E-08;  1.0138482E-03;
 -1.4000000E-01;  9.9999998E-03; -7.9999998E-02;178;  0.0000000E+00;  0.0000000E+00;  0.0000000E+00;  1.0000000E+03;  4.0000001E-01;  0.0000000E+00;0;  0.0000000E+00;  0.0000000E+00;  0.0000000E+00;0; -1.3756342E-05;  1.0000000E+04;  0.0000000E+00;  0.0000000E+00;  1.0000000E+04;  0.0000000E+00;  1.0000000E+04; -1.3799908E-05;  0.0000000E+00;  4.3565734E-08;  9.7738160E-04;
 -1.4000000E-01;  9.9999998E-03; -5.9999999E-02;179;  0.0000000E+00;  0.0000000E+00;  0.0000000E+00;  1.0000000E+03;  4.0000001E-01;  0.0000000E+00;0;  0.0000000E+00;  0.0000000E+00;  0.0000000E+00;0; -1.3807042E-05;  1.0000000E+04;  0.0000000E+00;  0.0000000E+00;  1.0000000E+04;  0.0000000E+00;  1.0000000E+04; -1.3843745E-05;  0.0000000E+00;  3.6704009E-08;  9.4622624E-04;
 -1.4000000E-01;  9.9999998E-03; -3.9999999E-02;180;  0.0000000E+00;  0.0000000E+00;  0.0000000E+00;  1.0000000E+03;  4.0000001E-01;  0.0000000E+00;0;  0.0000000E+00;  0.0000000E+00;  0.0000000E+00;0; -1.3834736E-05;  1.0000000E+04;  0.0000000E+00;  0.0000000E+00;  1.0000000E+04;  0.0000000E+00;  1.0000000E+04; -1.3866362E-05;  0.0000000E+00;  3.1625735E-08;  9.2227152E-04;
 -1.4000000E-01;  9.9999998E-03; -2.0000000E-02;181;  0.0000000E+00;  0.0000000E+00;  0.0000000E+00;  1.0000000E+03;  4.0000001E-01;  0.0000000E+00;0;  0.0000000E+00;  0.0000000E+00;  0.0000000E+00;0; -1.3848082E-05;  1.0000000E+04;  0.0000000E+00;  0.0000000E+00;  1.0000000E+04;  0.0000000E+00;  1.0000000E+04; -1.3876575E-05;  0.0000000E+00;  2.8493293E-08;  9.0709393E-04;
 -1.2000000E-01;  9.9999998E-03; -1.8000001E-01;214;  0.0000000E+00;  0.0000000E+00;  0.0000000E+00;  1.0000000E+03;  4.0000001E-01;  0.0000000E+00;0;  0.0000000E+00;  0.0000000E+00;  0.0000000E+00;0; -6.9504509E-05;  1.0000000E+04;  0.0000000E+00;  0.0000000E+00;  1.0000000E+04;  0.0000000E+00;  1.0000000E+04; -7.0361115E-05;  0.0000000E+00;  8.5660719E-07;  8.3787367E-03;
 -1.2000000E-01;  9.9999998E-03; -1.6000000E-01;215;  0.0000000E+00;  0.0000000E+00;  0.0000000E+00;  1.0000000E+03;  4.0000001E-01;  0.0000000E+00;0;  0.0000000E+00;  0.0000000E+00;  0.0000000E+00;0; -7.2157731E-05;  1.0000000E+04;  0.0000000E+00;  0.0000000E+00;  1.0000000E+04;  0.0000000E+00;  1.0000000E+04; -7.2949377E-05;  0.0000000E+00;  7.9164528E-07;  8.2039274E-03;
 -1.2000000E-01;  9.9999998E-03; -1.4000000E-01;216;  0.0000000E+00;  0.0000000E+00;  0.0000000E+00;  1.0000000E+03;  4.0000001E-01;  0.0000000E+00;0;  0.0000000E+00;  0.0000000E+00;  0.0000000E+00;0; -7.4054849E-05;  1.0000000E+04;  0.0000000E+00;  0.0000000E+00;  1.0000000E+04;  0.0000000E+00;  1.0000000E+04; -7.4755786E-05;  0.0000000E+00;  7.0093745E-07;  7.8545725E-03;
 -1.2000000E-01;  9.9999998E-03; -1.2000000E-01;217;  0.0000000E+00;  0.0000000E+00;  0.0000000E+00;  1.0000000E+03;  4.0000001E-01;  0.0000000E+00;0;  0.0000000E+00;  0.0000000E+00;  0.0000000E+00;0; -7.5360869E-05;  1.0000000E+04;  0.0000000E+00;  0.0000000E+00;  1.0000000E+04;  0.0000000E+00;  1.0000000E+04; -7.5964439E-05;  0.0000000E+00;  6.0356780E-07;  7.4401596E-03;
 -1.2000000E-01;  9.9999998E-03; -1.0000000E-01;218;  0.0000000E+00;  0.0000000E+00;  0.0000000E+00;  1.0000000E+03;  4.0000001E-01;  0.0000000E+00;0;  0.0000000E+00;  0.0000000E+00;  0.0000000E+00;0; -7.6225035E-05;  1.0000000E+04;  0.0000000E+00;  0.0000000E+00;  1.0000000E+04;  0.0000000E+00;  1.0000000E+04; -7.6736447E-05;  0.0000000E+00;  5.1141211E-07;  7.0286393E-03;
 -1.2000000E-01;  9.9999998E-03; -7.9999998E-02;219;  0.0000000E+00;  0.0000000E+00;  0.0000000E+00;  1.0000000E+03;  4.0000001E-01;  0.0000000E+00;0;  0.0000000E+00;  0.0000000E+00;  0.0000000E+00;0; -7.6773351E-05;  1.0000000E+04;  0.0000000E+00;  0.0000000E+00;  1.0000000E+04;  0.0000000E+00;  1.0000000E+04; -7.7204233E-05;  0.0000000E+00;  4.3088528E-07;  6.6569764E-03;
 -1.2000000E-01;  9.9999998E-03; -5.9999999E-02;220;  0.0000000E+00;  0.0000000E+00;  0.0000000E+00;  1.0000000E+03;  4.0000001E-01;  0.0000000E+00;0;  0.0000000E+00;  0.0000000E+00;  0.0000000E+00;0; -7.7105251E-05;  1.0000000E+04;  0.0000000E+00;  0.0000000E+00;  1.0000000E+04;  0.0000000E+00;  1.0000000E+04; -7.7470620E-05;  0.0000000E+00;  3.6536855E-07;  6.3458993E-03;
 -1.2000000E-01;  9.9999998E-03; -3.9999999E-02;221;  0.0000000E+00;  0.0000000E+00;  0.0000000E+00;  1.0000000E+03;  4.0000001E-01;  0.0000000E+00;0;  0.0000000E+00;  0.0000000E+00;  0.0000000E+00;0; -7.7293844E-05;  1.0000000E+04;  0.0000000E+00;  0.0000000E+00;  1.0000000E+04;  0.0000000E+00;  1.0000000E+04; -7.7610799E-05;  0.0000000E+00;  3.1695635E-07;  6.1103301E-03;
 -1.2000000E-01;  9.9999998E-03; -2.0000000E-02;222;  0.0000000E+00;  0.0000000E+00;  0.0000000E+00;  1.0000000E+03;  4.0000001E-01;  0.0000000E+00;0;  0.0000000E+00;  0.0000000E+00;  0.0000000E+00;0; -7.7388315E-05;  1.0000000E+04;  0.0000000E+00;  0.0000000E+00;  1.0000000E+04;  0.0000000E+00;  1.0000000E+04; -7.7675533E-05;  0.0000000E+00;  2.8721672E-07;  5.9629455E-03;
 -1.0000000E-01;  9.9999998E-03; -1.8000001E-01;255;  0.0000000E+00;  0.0000000E+00;  0.0000000E+00;  1.0000001E+03;  4.0000001E-01;  9.8762624E-02;0;  0.0000000E+00;  0.0000000E+00;  0.0000000E+00;0; -2.2298655E-04;  1.0000000E+04;  0.0000000E+00;  0.0000000E+00;  1.0000000E+04;  0.0000000E+00;  1.0000000E+04; -2.2678381E-04;  0.0000000E+00;  3.7972582E-06;  3.3026531E-02;
 -1.0000000E-01;  9.9999998E-03; -1.6000000E-01;256;  0.0000000E+00;  0.0000000E+00;  0.0000000E+00;  1.0000001E+03;  4.0000001E-01;  9.8762624E-02;0;  0.0000000E+00;  0.0000000E+00;  0.0000000E+00;0; -2.3173852E-04;  1.0000000E+04;  0.0000000E+00;  0.0000000E+00;  1.0000000E+04;  0.0000000E+00;  1.0000000E+04; -2.3533541E-04;  0.0000000E+00;  3.5968908E-06;  3.2590117E-02;
 -1.0000000E-01;  9.9999998E-03; -1.4000000E-01;257;  0.0000000E+00;  0.0000000E+00;  0.0000000E+00;  1.0000001E+03;  4.0000001E-01;  9.8762624E-02;0;  0.0000000E+00;  0.0000000E+00;  0.0000000E+00;0; -2.3804327E-04;  1.0000000E+04;  0.0000000E+00;  0.0000000E+00;  1.0000000E+04;  0.0000000E+00;  1.0000000E+04; -2.4125958E-04;  0.0000000E+00;  3.2163030E-06;  3.1036193E-02;
 -1.0000000E-01;  9.9999998E-03; -1.2000000E-01;258;  0.0000000E+00;  0.0000000E+00;  0.0000000E+00;  1.0000001E+03;  4.0000001E-01;  9.8762624E-02;0;  0.0000000E+00;  0.0000000E+00;  0.0000000E+00;0; -2.4243965E-04;  1.0000000E+04;  0.0000000E+00;  0.0000000E+00;  1.0000000E+04;  0.0000000E+00;  1.0000000E+04; -2.4522978E-04;  0.0000000E+00;  2.7901331E-06;  2.9136647E-02;
 -1.0000000E-01;  9.9999998E-03; -1.0000000E-01;259;  0.0000000E+00;  0.0000000E+00;  0.0000000E+00;  1.0000002E+03;  4.0000001E-01;  1.9752525E-01;0;  0.0000000E+00;  0.0000000E+00;  0.0000000E+00;0; -2.4539253E-04;  1.0000000E+04;  0.0000000E+00;  0.0000000E+00;  1.0000000E+04;  0.0000000E+00;  1.0000000E+04; -2.4777019E-04;  0.0000000E+00;  2.3776536E-06;  2.7223632E-02;
 -1.0000000E-01;  9.9999998E-03; -7.9999998E-02;260;  0.0000000E+00;  0.0000000E+00;  0.0000000E+00;  1.0000002E+03;  4.0000001E-01;  1.9752525E-01;0;  0.0000000E+00;  0.0000000E+00;  0.0000000E+00;0; -2.4729877E-04;  1.0000000E+04;  0.0000000E+00;  0.0000000E+00;  1.0000000E+04;  0.0000000E+00;  1.0000000E+04; -2.4931214E-04;  0.0000000E+00;  2.0133746E-06;  2.5490679E-02;
 -1.0000000E-01;  9.9999998E-03; -5.9999999E-02;261;  0.0000000E+00;  0.0000000E+00;  0.0000000E+00;  1.0000002E+03;  4.0000001E-01;  1.9752525E-01;0;  0.0000000E+00;  0.0000000E+00;  0.0000000E+00;0; -2.4847582E-04;  1.0000000E+04;  0.0000000E+00;  0.0000000E+00;  1.0000000E+04;  0.0000000E+00;  1.0000000E+04; -2.5019184E-04;  0.0000000E+00;  1.7160181E-06;  2.4046415E-02;
 -1.0000000E-01;  9.9999998E-03; -3.9999999E-02;262;  0.0000000E+00;  0.0000000E+00;  0.0000000E+00;  1.0000002E+03;  4.0000001E-01;  1.9752525E-01;0;  0.0000000E+00;  0.0000000E+00;  0.0000000E+00;0; -2.4915903E-04;  1.0000000E+04;  0.0000000E+00;  0.0000000E+00;  1.0000000E+04;  0.0000000E+00;  1.0000000E+04; -2.5065549E-04;  0.0000000E+00;  1.4964719E-06;  2.2960803E-02;
 -1.0000000E-01;  9.9999998E-03; -2.0000000E-02;263;  0.0000000E+00;  0.0000000E+00;  0.0000000E+00;  1.0000002E+03;  4.0000001E-01;  1.9752525E-01;0;  0.0000000E+00;  0.0000000E+00;  0.0000000E+00;0; -2.4950819E-04;  1.0000000E+04;  0.0000000E+00;  0.0000000E+00;  1.0000000E+04;  0.0000000E+00;  1.0000000E+04; -2.5087001E-04;  0.0000000E+00;  1.3618393E-06;  2.2285881E-02;
 -7.9999998E-02;  9.9999998E-03; -1.8000001E-01;296;  0.0000000E+00;  0.0000000E+00;  0.0000000E+00;  1.0000004E+03;  4.0000001E-01;  2.9628786E-01;0;  0.0000000E+00;  0.0000000E+00;  0.0000000E+00;0; -5.3624023E-04;  1.0000000E+04;  0.0000000E+00;  0.0000000E+00;  1.0000000E+04;  0.0000000E+00;  1.0000000E+04; -5.4760120E-04;  0.0000000E+00;  1.1360958E-05;  9.2810914E-02;
 -7.9999998E-02;  9.9999998E-03; -1.6000000E-01;297;  0.0000000E+00;  0.0000000E+00;  0.0000000E+00;  1.0000004E+03;  4.0000001E-01;  2.9628786E-01;0;  0.0000000E+00;  0.0000000E+00;  0.0000000E+00;0; -5.5749115E-04;  1.0000000E+04;  0.0000000E+00;  0.0000000E+00;  1.0000000E+04;  0.0000000E+00;  1.0000000E+04; -5.6851353E-04;  0.0000000E+00;  1.1022360E-05;  9.2746697E-02;
 -7.9999998E-02;  9.9999998E-03; -1.4000000E-01;298;  0.0000000E+00;  0.0000000E+00;  0.0000000E+00;  1.0000004E+03;  4.0000001E-01;  2.9628786E-01;0;  0.0000000E+00;  0.0000000E+00;  0.0000000E+00;0; -5.7287433E-04;  1.0000000E+04;  0.0000000E+00;  0.0000000E+00;  1.0000000E+04;  0.0000000E+00;  1.0000000E+04; -5.8282266E-04;  0.0000000E+00;  9.9483177E-06;  8.8244945E-02;
 -7.9999998E-02;  9.9999998E-03; -1.2000000E-01;299;  0.0000000E+00;  0.0000000E+00;  0.0000000E+00;  1.0000004E+03;  4.0000001E-01;  3.9505050E-01;0;  0.0000000E+00;  0.0000000E+00;  0.0000000E+00;0; -5.8368262E-04;  1.0000000E+04;  0.0000000E+00;  0.0000000E+00;  1.0000000E+04;  0.0000000E+00;  1.0000000E+04; -5.9236732E-04;  0.0000000E+00;  8.6847149E-06;  8.2455859E-02;
 -7.9999998E-02;  9.9999998E-03; -1.0000000E-01;300;  0.0000000E+00;  0.0000000E+00;  0.0000000E+00;  1.0000004E+03;  4.0000001E-01;  3.9505050E-01;0;  0.0000000E+00;  0.0000000E+00;  0.0000000E+00;0; -5.9100700E-04;  1.0000000E+04;  0.0000000E+00;  0.0000000E+00;  1.0000000E+04;  0.0000000E+00;  1.0000000E+04; -5.9844478E-04;  0.0000000E+00;  7.4377954E-06;  7.6533258E-02;
 -7.9999998E-02;  9.9999998E-03; -7.9999998E-02;301;  0.0000000E+00;  0.0000000E+00;  0.0000000E+00;  1.0000004E+03;  4.0000001E-01;  3.9505050E-01;0;  0.0000000E+00;  0.0000000E+00;  0.0000000E+00;0; -5.9578347E-04;  1.0000000E+04;  0.0000000E+00;  0.0000000E+00;  1.0000000E+04;  0.0000000E+00;  1.0000000E+04; -6.0210895E-04;  0.0000000E+00;  6.3254697E-06;  7.1133450E-02;
 -7.9999998E-02;  9.9999998E-03; -5.9999999E-02;302;  0.0000000E+00;  0.0000000E+00;  0.0000000E+00;  1.0000004E+03;  4.0000001E-01;  3.9505050E-01;0;  0.0000000E+00;  0.0000000E+00;  0.0000000E+00;0; -5.9876597E-04;  1.0000000E+04;  0.0000000E+00;  0.0000000E+00;  1.0000000E+04;  0.0000000E+00;  1.0000000E+04; -6.0417980E-04;  0.0000000E+00;  5.4138368E-06;  6.6632316E-02;
 -7.9999998E-02;  9.9999998E-03; -3.9999999E-02;303;  0.0000000E+00;  0.0000000E+00;  0.0000000E+00;  1.0000005E+03;  4.0000001E-01;  3.9505050E-01;0;  0.0000000E+00;  0.0000000E+00;  0.0000000E+00;0; -6.0051784E-04;  1.0000000E+04;  0.0000000E+00;  0.0000000E+00;  1.0000000E+04;  0.0000000E+00;  1.0000000E+04; -6.0525810E-04;  0.0000000E+00;  4.7402518E-06;  6.3258708E-02;
 -7.9999998E-02;  9.9999998E-03; -2.0000000E-02;304;  0.0000000E+00;  0.0000000E+00;  0.0000000E+00;  1.0000005E+03;  4.0000001E-01;  3.9505050E-01;0;  0.0000000E+00;  0.0000000E+00;  0.0000000E+00;0; -6.0142239E-04;  1.0000000E+04;  0.0000000E+00;  0.0000000E+00;  1.0000000E+04;  0.0000000E+00;  1.0000000E+04; -6.0574978E-04;  0.0000000E+00;  4.3273826E-06;  6.1168257E-02;
 -5.9999999E-02;  9.9999998E-03; -1.8000001E-01;337;  0.0000000E+00;  0.0000000E+00;  0.0000000E+00;  1.0000007E+03;  4.0000001E-01;  5.9257573E-01;0;  0.0000000E+00;  0.0000000E+00;  0.0000000E+00;0; -1.0565235E-03;  1.0000000E+04;  0.0000000E+00;  0.0000000E+00;  1.0000000E+04;  0.0000000E+00;  1.0000000E+04; -1.0832766E-03;  0.0000000E+00;  2.6753096E-05;  2.0987134E-01;
 -5.9999999E-02;  9.9999998E-03; -1.6000000E-01;338;  0.0000000E+00;  0.0000000E+00;  0.0000000E+00;  1.0000008E+03;  4.0000001E-01;  6.9133836E-01;0;  0.0000000E+00;  0.0000000E+00;  0.0000000E+00;0; -1.0979545E-03;  1.0000000E+04;  0.0000000E+00;  0.0000000E+00;  1.0000000E+04;  0.0000000E+00;  1.0000000E+04; -1.1241809E-03;  0.0000000E+00;  2.6226351E-05;  2.1080244E-01;
 -5.9999999E-02;  9.9999998E-03; -1.4000000E-01;339;  0.0000000E+00;  0.0000000E+00;  0.0000000E+00;  1.0000009E+03;  4.0000001E-01;  6.9133836E-01;0;  0.0000000E+00;  0.0000000E+00;  0.0000000E+00;0; -1.1281362E-03;  1.0000000E+04;  0.0000000E+00;  0.0000000E+00;  1.0000000E+04;  0.0000000E+00;  1.0000000E+04; -1.1520265E-03;  0.0000000E+00;  2.3890254E-05;  2.0089100E-01;
 -5.9999999E-02;  9.9999998E-03; -1.2000000E-01;340;  0.0000000E+00;  0.0000000E+00;  0.0000000E+00;  1.0000009E+03;  4.0000001E-01;  7.9010099E-01;0;  0.0000000E+00;  0.0000000E+00;  0.0000000E+00;0; -1.1494298E-03;  1.0000000E+04;  0.0000000E+00;  0.0000000E+00;  1.0000000E+04;  0.0000000E+00;  1.0000000E+04; -1.1703916E-03;  0.0000000E+00;  2.0961776E-05;  1.8717246E-01;
 -5.9999999E-02;  9.9999998E-03; -1.0000000E-01;341;  0.0000000E+00;  0.0000000E+00;  0.0000000E+00;  1.0000009E+03;  4.0000001E-01;  7.9010099E-01;0;  0.0000000E+00;  0.0000000E+00;  0.0000000E+00;0; -1.1639229E-03;  1.0000000E+04;  0.0000000E+00;  0.0000000E+00;  1.0000000E+04;  0.0000000E+00;  1.0000000E+04; -1.1819492E-03;  0.0000000E+00;  1.8026263E-05;  1.7295004E-01;
 -5.9999999E-02;  9.9999998E-03; -7.9999998E-02;342;  0.0000000E+00;  0.0000000E+00;  0.0000000E+00;  1.0000009E+03;  4.0000001E-01;  7.9010099E-01;0;  0.0000000E+00;  0.0000000E+00;  0.0000000E+00;0; -1.1734229E-03;  1.0000000E+04;  0.0000000E+00;  0.0000000E+00;  1.0000000E+04;  0.0000000E+00;  1.0000000E+04; -1.1888080E-03;  0.0000000E+00;  1.5385054E-05;  1.5990064E-01;
 -5.9999999E-02;  9.9999998E-03; -5.9999999E-02;343;  0.0000000E+00;  0.0000000E+00;  0.0000000E+00;  1.0000009E+03;  4.0000001E-01;  7.9010099E-01;0;  0.0000000E+00;  0.0000000E+00;  0.0000000E+00;0; -1.1793870E-03;  1.0000000E+04;  0.0000000E+00;  0.0000000E+00;  1.0000000E+04;  0.0000000E+00;  1.0000000E+04; -1.1925988E-03;  0.0000000E+00;  1.3211821E-05;  1.4900532E-01;
 -5.9999999E-02;  9.9999998E-03; -3.9999999E-02;344;  0.0000000E+00;  0.0000000E+00;  0.0000000E+00;  1.0000009E+03;  4.0000001E-01;  7.9010099E-01;0;  0.0000000E+00;  0.0000000E+00;  0.0000000E+00;0; -1.1829101E-03;  1.0000000E+04;  0.0000000E+00;  0.0000000E+00;  1.0000000E+04;  0.0000000E+00;  1.0000000E+04; -1.1945140E-03;  0.0000000E+00;  1.1603924E-05;  1.4084676E-01;
 -5.9999999E-02;  9.9999998E-03; -2.0000000E-02;345;  0.0000000E+00;  0.0000000E+00;  0.0000000E+00;  1.0000009E+03;  4.0000001E-01;  7.9010099E-01;0;  0.0000000E+00;  0.0000000E+00;  0.0000000E+00;0; -1.1847386E-03;  1.0000000E+04;  0.0000000E+00;  0.0000000E+00;  1.0000000E+04;  0.0000000E+00;  1.0000000E+04; -1.1953567E-03;  0.0000000E+00;  1.0618142E-05;  1.3579939E-01;
 -3.9999999E-02;  9.9999998E-03; -1.8000001E-01;378;  0.0000000E+00;  0.0000000E+00;  0.0000000E+00;  1.0000013E+03;  4.0000001E-01;  1.0863888E+00;0;  0.0000000E+00;  0.0000000E+00;  0.0000000E+00;0; -1.7834613E-03;  1.0000000E+04;  0.0000000E+00;  0.0000000E+00;  1.0000000E+04;  0.0000000E+00;  1.0000000E+04; -1.8365594E-03;  0.0000000E+00;  5.3098047E-05;  4.0488368E-01;
 -3.9999999E-02;  9.9999998E-03; -1.6000000E-01;379;  0.0000000E+00;  0.0000000E+00;  0.0000000E+00;  1.0000015E+03;  4.0000001E-01;  1.1851515E+00;0;  0.0000000E+00;  0.0000000E+00;  0.0000000E+00;0; -1.8515086E-03;  1.0000000E+04;  0.0000000E+00;  0.0000000E+00;  1.0000000E+04;  0.0000000E+00;  1.0000000E+04; -1.9037251E-03;  0.0000000E+00;  5.2216517E-05;  4.0687120E-01;
 -3.9999999E-02;  9.9999998E-03; -1.4000000E-01;380;  0.0000000E+00;  0.0000000E+00;  0.0000000E+00;  1.0000015E+03;  4.0000001E-01;  1.1851515E+00;0;  0.0000000E+00;  0.0000000E+00;  0.0000000E+00;0; -1.9013117E-03;  1.0000000E+04;  0.0000000E+00;  0.0000000E+00;  1.0000000E+04;  0.0000000E+00;  1.0000000E+04; -1.9491359E-03;  0.0000000E+00;  4.7824204E-05;  3.8782367E-01;
 -3.9999999E-02;  9.9999998E-03; -1.2000000E-01;381;  0.0000000E+00;  0.0000000E+00;  0.0000000E+00;  1.0000015E+03;  4.0000001E-01;  1.2839141E+00;0;  0.0000000E+00;  0.0000000E+00;  0.0000000E+00;0; -1.9365082E-03;  1.0000000E+04;  0.0000000E+00;  0.0000000E+00;  1.0000000E+04;  0.0000000E+00;  1.0000000E+04; -1.9786272E-03;  0.0000000E+00;  4.2118976E-05;  3.6050260E-01;
 -3.9999999E-02;  9.9999998E-03; -1.0000000E-01;382;  0.0000000E+00;  0.0000000E+00;  0.0000000E+00;  1.0000016E+03;  4.0000001E-01;  1.2839141E+00;0;  0.0000000E+00;  0.0000000E+00;  0.0000000E+00;0; -1.9604797E-03;  1.0000000E+04;  0.0000000E+00;  0.0000000E+00;  1.0000000E+04;  0.0000000E+00;  1.0000000E+04; -1.9968131E-03;  0.0000000E+00;  3.6333553E-05;  3.3191371E-01;
 -3.9999999E-02;  9.9999998E-03; -7.9999998E-02;383;  0.0000000E+00;  0.0000000E+00;  0.0000000E+00;  1.0000016E+03;  4.0000001E-01;  1.2839141E+00;0;  0.0000000E+00;  0.0000000E+00;  0.0000000E+00;0; -1.9762041E-03;  1.0000000E+04;  0.0000000E+00;  0.0000000E+00;  1.0000000E+04;  0.0000000E+00;  1.0000000E+04; -2.0072986E-03;  0.0000000E+00;  3.1094423E-05;  3.0555955E-01;
 -3.9999999E-02;  9.9999998E-03; -5.9999999E-02;384;  0.0000000E+00;  0.0000000E+00;  0.0000000E+00;  1.0000016E+03;  4.0000001E-01;  1.2839141E+00;0;  0.0000000E+00;  0.0000000E+00;  0.0000000E+00;0; -1.9860864E-03;  1.0000000E+04;  0.0000000E+00;  0.0000000E+00;  1.0000000E+04;  0.0000000E+00;  1.0000000E+04; -2.0128558E-03;  0.0000000E+00;  2.6769509E-05;  2.8352019E-01;
 -3.9999999E-02;  9.9999998E-03; -3.9999999E-02;385;  0.0000000E+00;  0.0000000E+00;  0.0000000E+00;  1.0000016E+03;  4.0000001E-01;  1.2839141E+00;0;  0.0000000E+00;  0.0000000E+00;  0.0000000E+00;0; -1.9919290E-03;  1.0000000E+04;  0.0000000E+00;  0.0000000E+00;  1.0000000E+04;  0.0000000E+00;  1.0000000E+04; -2.0154945E-03;  0.0000000E+00;  2.3565406E-05;  2.6702005E-01;
 -3.9999999E-02;  9.9999998E-03; -2.0000000E-02;386;  0.0000000E+00;  0.0000000E+00;  0.0000000E+00;  1.0000016E+03;  4.0000001E-01;  1.2839141E+00;0;  0.0000000E+00;  0.0000000E+00;  0.0000000E+00;0; -1.9949647E-03;  1.0000000E+04;  0.0000000E+00;  0.0000000E+00;  1.0000000E+04;  0.0000000E+00;  1.0000000E+04; -2.0165648E-03;  0.0000000E+00;  2.1600252E-05;  2.5682047E-01;
 -2.0000000E-02;  9.9999998E-03; -1.8000001E-01;419;  0.0000000E+00;  0.0000000E+00;  0.0000000E+00;  1.0000021E+03;  4.0000001E-01;  1.6789646E+00;0;  0.0000000E+00;  0.0000000E+00;  0.0000000E+00;0; -2.6538563E-03;  1.0000000E+04;  0.0000000E+00;  0.0000000E+00;  1.0000000E+04;  0.0000000E+00;  1.0000000E+04; -2.7459394E-03;  0.0000000E+00;  9.2083108E-05;  6.8897706E-01;
 -2.0000000E-02;  9.9999998E-03; -1.6000000E-01;420;  0.0000000E+00;  0.0000000E+00;  0.0000000E+00;  1.0000021E+03;  4.0000001E-01;  1.6789646E+00;0;  0.0000000E+00;  0.0000000E+00;  0.0000000E+00;0; -2.7507485E-03;  1.0000000E+04;  0.0000000E+00;  0.0000000E+00;  1.0000000E+04;  0.0000000E+00;  1.0000000E+04; -2.8412552E-03;  0.0000000E+00;  9.0506539E-05;  6.9093663E-01;
 -2.0000000E-02;  9.9999998E-03; -1.4000000E-01;421;  0.0000000E+00;  0.0000000E+00;  0.0000000E+00;  1.0000021E+03;  4.0000001E-01;  1.7777272E+00;0;  0.0000000E+00;  0.0000000E+00;  0.0000000E+00;0; -2.8217621E-03;  1.0000000E+04;  0.0000000E+00;  0.0000000E+00;  1.0000000E+04;  0.0000000E+00;  1.0000000E+04; -2.9048203E-03;  0.0000000E+00;  8.3058163E-05;  6.5752846E-01;
 -2.0000000E-02;  9.9999998E-03; -1.2000000E-01;422;  0.0000000E+00;  0.0000000E+00;  0.0000000E+00;  1.0000021E+03;  4.0000001E-01;  1.7777272E+00;0;  0.0000000E+00;  0.0000000E+00;  0.0000000E+00;0; -2.8718549E-03;  1.0000000E+04;  0.0000000E+00;  0.0000000E+00;  1.0000000E+04;  0.0000000E+00;  1.0000000E+04; -2.9451926E-03;  0.0000000E+00;  7.3337636E-05;  6.0984856E-01;
 -2.0000000E-02;  9.9999998E-03; -1.0000000E-01;423;  0.0000000E+00;  0.0000000E+00;  0.0000000E+00;  1.0000023E+03;  4.0000001E-01;  1.8764899E+00;0;  0.0000000E+00;  0.0000000E+00;  0.0000000E+00;0; -2.9058564E-03;  1.0000000E+04;  0.0000000E+00;  0.0000000E+00;  1.0000000E+04;  0.0000000E+00;  1.0000000E+04; -2.9692587E-03;  0.0000000E+00;  6.3402302E-05;  5.5967706E-01;
 -2.0000000E-02;  9.9999998E-03; -7.9999998E-02;424;  0.0000000E+00;  0.0000000E+00;  0.0000000E+00;  1.0000023E+03;  4.0000001E-01;  1.8764899E+00;0;  0.0000000E+00;  0.0000000E+00;  0.0000000E+00;0; -2.9280786E-03;  1.0000000E+04;  0.0000000E+00;  0.0000000E+00;  1.0000000E+04;  0.0000000E+00;  1.0000000E+04; -2.9824446E-03;  0.0000000E+00;  5.4365930E-05;  5.1329935E-01;
 -2.0000000E-02;  9.9999998E-03; -5.9999999E-02;425;  0.0000000E+00;  0.0000000E+00;  0.0000000E+00;  1.0000023E+03;  4.0000001E-01;  1.8764899E+00;0;  0.0000000E+00;  0.0000000E+00;  0.0000000E+00;0; -2.9419872E-03;  1.0000000E+04;  0.0000000E+00;  0.0000000E+00;  1.0000000E+04;  0.0000000E+00;  1.0000000E+04; -2.9888761E-03;  0.0000000E+00;  4.6888734E-05;  4.7447267E-01;
 -2.0000000E-02;  9.9999998E-03; -3.9999999E-02;426;  0.0000000E+00;  0.0000000E+00;  0.0000000E+00;  1.0000023E+03;  4.0000001E-01;  1.8764899E+00;0;  0.0000000E+00;  0.0000000E+00;  0.0000000E+00;0; -2.9501782E-03;  1.0000000E+04;  0.0000000E+00;  0.0000000E+00;  1.0000000E+04;  0.0000000E+00;  1.0000000E+04; -2.9915217E-03;  0.0000000E+00;  4.1343563E-05;  4.4540626E-01;
 -2.0000000E-02;  9.9999998E-03; -2.0000000E-02;427;  0.0000000E+00;  0.0000000E+00;  0.0000000E+00;  1.0000023E+03;  4.0000001E-01;  1.8764899E+00;0;  0.0000000E+00;  0.0000000E+00;  0.0000000E+00;0; -2.9544195E-03;  1.0000000E+04;  0.0000000E+00;  0.0000000E+00;  1.0000000E+04;  0.0000000E+00;  1.0000000E+04; -2.9923611E-03;  0.0000000E+00;  3.7941656E-05;  4.2744941E-01;
 -2.2000000E-01;  9.9999998E-03;  0.0000000E+00;19;  0.0000000E+00;  0.0000000E+00;  0.0000000E+00;  1.0000000E+03;  4.0000001E-01;  0.0000000E+00;0;  0.0000000E+00;  0.0000000E+00;  0.0000000E+00;0;  0.0000000E+00;  1.0000000E+04;  0.0000000E+00;  0.0000000E+00;  1.0000000E+04;  0.0000000E+00;  1.0000000E+04;  0.0000000E+00;  0.0000000E+00;  0.0000000E+00;  0.0000000E+00;
 -2.2000000E-01;  9.9999998E-03;  2.0000000E-02;20;  0.0000000E+00;  0.0000000E+00;  0.0000000E+00;  1.0000000E+03;  4.0000001E-01;  0.0000000E+00;0;  0.0000000E+00;  0.0000000E+00;  0.0000000E+00;0;  0.0000000E+00;  1.0000000E+04;  0.0000000E+00;  0.0000000E+00;  1.0000000E+04;  0.0000000E+00;  1.0000000E+04;  0.0000000E+00;  0.0000000E+00;  0.0000000E+00;  0.0000000E+00;
 -2.2000000E-01;  9.9999998E-03;  3.9999999E-02;21;  0.0000000E+00;  0.0000000E+00;  0.0000000E+00;  1.0000000E+03;  4.0000001E-01;  0.0000000E+00;0;  0.0000000E+00;  0.0000000E+00;  0.0000000E+00;0;  0.0000000E+00;  1.0000000E+04;  0.0000000E+00;  0.0000000E+00;  1.0000000E+04;  0.0000000E+00;  1.0000000E+04;  0.0000000E+00;  0.0000000E+00;  0.0000000E+00;  0.0000000E+00;
 -2.2000000E-01;  9.9999998E-03;  5.9999999E-02;22;  0.0000000E+00;  0.0000000E+00;  0.0000000E+00;  1.0000000E+03;  4.0000001E-01;  0.0000000E+00;0;  0.0000000E+00;  0.0000000E+00;  0.0000000E+00;0;  0.0000000E+00;  1.0000000E+04;  0.0000000E+00;  0.0000000E+00;  1.0000000E+04;  0.0000000E+00;  1.0000000E+04;  0.0000000E+00;  0.0000000E+00;  0.0000000E+00;  0.0000000E+00;
 -2.2000000E-01;  9.9999998E-03;  7.9999998E-02;23;  0.0000000E+00;  0.0000000E+00;  0.0000000E+00;  1.0000000E+03;  4.0000001E-01;  0.0000000E+00;0;  0.0000000E+00;  0.0000000E+00;  0.0000000E+00;0;  0.0000000E+00;  1.0000000E+04;  0.0000000E+00;  0.0000000E+00;  1.0000000E+04;  0.0000000E+00;  1.0000000E+04;  0.0000000E+00;  0.0000000E+00;  0.0000000E+00;  0.0000000E+00;
 -2.2000000E-01;  9.9999998E-03;  1.0000000E-01;24;  0.0000000E+00;  0.0000000E+00;  0.0000000E+00;  1.0000000E+03;  4.0000001E-01;  0.0000000E+00;0;  0.0000000E+00;  0.0000000E+00;  0.0000000E+00;0;  0.0000000E+00;  1.0000000E+04;  0.0000000E+00;  0.0000000E+00;  1.0000000E+04;  0.0000000E+00;  1.0000000E+04;  0.0000000E+00;  0.0000000E+00;  0.0000000E+00;  0.0000000E+00;
 -2.2000000E-01;  9.9999998E-03;  1.2000000E-01;25;  0.0000000E+00;  0.0000000E+00;  0.0000000E+00;  1.0000000E+03;  4.0000001E-01;  0.0000000E+00;0;  0.0000000E+00;  0.0000000E+00;  0.0000000E+00;0;  0.0000000E+00;  1.0000000E+04;  0.0000000E+00;  0.0000000E+00;  1.0000000E+04;  0.0000000E+00;  1.0000000E+04;  0.0000000E+00;  0.0000000E+00;  0.0000000E+00;  0.0000000E+00;
 -2.2000000E-01;  9.9999998E-03;  1.4000000E-01;26;  0.0000000E+00;  0.0000000E+00;  0.0000000E+00;  1.0000000E+03;  4.0000001E-01;  0.0000000E+00;0;  0.0000000E+00;  0.0000000E+00;  0.0000000E+00;0;  0.0000000E+00;  1.0000000E+04;  0.0000000E+00;  0.0000000E+00;  1.0000000E+04;  0.0000000E+00;  1.0000000E+04;  0.0000000E+00;  0.0000000E+00;  0.0000000E+00;  0.0000000E+00;
 -2.0000000E-01;  9.9999998E-03;  0.0000000E+00;59;  0.0000000E+00;  0.0000000E+00;  0.0000000E+00;  1.0000000E+03;  4.0000001E-01;  0.0000000E+00;0;  0.0000000E+00;  0.0000000E+00;  0.0000000E+00;0;  0.0000000E+00;  1.0000000E+04;  0.0000000E+00;  0.0000000E+00;  1.0000000E+04;  0.0000000E+00;  1.0000000E+04;  0.0000000E+00;  0.0000000E+00;  0.0000000E+00;  0.0000000E+00;
 -2.0000000E-01;  9.9999998E-03;  2.0000000E-02;60;  0.0000000E+00;  0.0000000E+00;  0.0000000E+00;  1.0000000E+03;  4.0000001E-01;  0.0000000E+00;0;  0.0000000E+00;  0.0000000E+00;  0.0000000E+00;0;  0.0000000E+00;  1.0000000E+04;  0.0000000E+00;  0.0000000E+00;  1.0000000E+04;  0.0000000E+00;  1.0000000E+04;  0.0000000E+00;  0.0000000E+00;  0.0000000E+00;  0.0000000E+00;
 -2.0000000E-01;  9.9999998E-03;  3.9999999E-02;61;  0.0000000E+00;  0.0000000E+00;  0.0000000E+00;  1.0000000E+03;  4.0000001E-01;  0.0000000E+00;0;  0.0000000E+00;  0.0000000E+00;  0.0000000E+00;0;  0.0000000E+00;  1.0000000E+04;  0.0000000E+00;  0.0000000E+00;  1.0000000E+04;  0.0000000E+00;  1.0000000E+04;  0.0000000E+00;  0.0000000E+00;  0.0000000E+00;  0.0000000E+00;
 -2.0000000E-01;  9.9999998E-03;  5.9999999E-02;62;  0.0000000E+00;  0.0000000E+00;  0.0000000E+00;  1.0000000E+03;  4.0000001E-01;  0.0000000E+00;0;  0.0000000E+00;  0.0000000E+00;  0.0000000E+00;0;  0.0000000E+00;  1.0000000E+04;  0.0000000E+00;  0.0000000E+00;  1.0000000E+04;  0.0000000E+00;  1.0000000E+04;  0.0000000E+00;  0.0000000E+00;  0.0000000E+00;  0.0000000E+00;
 -2.0000000E-01;  9.9999998E-03;  7.9999998E-02;63;  0.0000000E+00;  0.0000000E+00;  0.0000000E+00;  1.0000000E+03;  4.0000001E-01;  0.0000000E+00;0;  0.0000000E+00;  0.0000000E+00;  0.0000000E+00;0;  0.0000000E+00;  1.0000000E+04;  0.0000000E+00;  0.0000000E+00;  1.0000000E+04;  0.0000000E+00;  1.0000000E+04;  0.0000000E+00;  0.0000000E+00;  0.0000000E+00;  0.0000000E+00;
 -2.0000000E-01;  9.9999998E-03;  1.0000000E-01;64;  0.0000000E+00;  0.0000000E+00;  0.0000000E+00;  1.0000000E+03;  4.0000001E-01;  0.0000000E+00;0;  0.0000000E+00;  0.0000000E+00;  0.0000000E+00;0;  0.0000000E+00;  1.0000000E+04;  0.0000000E+00;  0.0000000E+00;  1.0000000E+04;  0.0000000E+00;  1.0000000E+04;  0.0000000E+00;  0.0000000E+00;  0.0000000E+00;  0.0000000E+00;
 -2.0000000E-01;  9.9999998E-03;  1.2000000E-01;65;  0.0000000E+00;  0.0000000E+00;  0.0000000E+00;  1.0000000E+03;  4.0000001E-01;  0.0000000E+00;0;  0.0000000E+00;  0.0000000E+00;  0.0000000E+00;0;  0.0000000E+00;  1.0000000E+04;  0.0000000E+00;  0.0000000E+00;  1.0000000E+04;  0.0000000E+00;  1.0000000E+04;  0.0000000E+00;  0.0000000E+00;  0.0000000E+00;  0.0000000E+00;
 -2.0000000E-01;  9.9999998E-03;  1.4000000E-01;66;  0.0000000E+00;  0.0000000E+00;  0.0000000E+00;  1.0000000E+03;  4.0000001E-01;  0.0000000E+00;0;  0.0000000E+00;  0.0000000E+00;  0.0000000E+00;0;  0.0000000E+00;  1.0000000E+04;  0.0000000E+00;  0.0000000E+00;  1.0000000E+04;  0.0000000E+00;  1.0000000E+04;  0.0000000E+00;  0.0000000E+00;  0.0000000E+00;  0.0000000E+00;
 -1.8000001E-01;  9.9999998E-03;  0.0000000E+00;100;  0.0000000E+00;  0.0000000E+00;  0.0000000E+00;  1.0000000E+03;  4.0000001E-01;  0.0000000E+00;0;  0.0000000E+00;  0.0000000E+00;  0.0000000E+00;0;  0.0000000E+00;  1.0000000E+04;  0.0000000E+00;  0.0000000E+00;  1.0000000E+04;  0.0000000E+00;  1.0000000E+04;  0.0000000E+00;  0.0000000E+00;  0.0000000E+00;  0.0000000E+00;
 -1.8000001E-01;  9.9999998E-03;  2.0000000E-02;101;  0.0000000E+00;  0.0000000E+00;  0.0000000E+00;  1.0000000E+03;  4.0000001E-01;  0.0000000E+00;0;  0.0000000E+00;  0.0000000E+00;  0.0000000E+00;0;  0.0000000E+00;  1.0000000E+04;  0.0000000E+00;  0.0000000E+00;  1.0000000E+04;  0.0000000E+00;  1.0000000E+04;  0.0000000E+00;  0.0000000E+00;  0.0000000E+00;  0.0000000E+00;
 -1.8000001E-01;  9.9999998E-03;  3.9999999E-02;102;  0.0000000E+00;  0.0000000E+00;  0.0000000E+00;  1.0000000E+03;  4.0000001E-01;  0.0000000E+00;0;  0.0000000E+00;  0.0000000E+00;  0.0000000E+00;0;  0.0000000E+00;  1.0000000E+04;  0.0000000E+00;  0.0000000E+00;  1.0000000E+04;  0.0000000E+00;  1.0000000E+04;  0.0000000E+00;  0.0000000E+00;  0.0000000E+00;  0.0000000E+00;
 -1.8000001E-01;  9.9999998E-03;  5.9999999E-02;103;  0.0000000E+00;  0.0000000E+00;  0.0000000E+00;  1.0000000E+03;  4.0000001E-01;  0.0000000E+00;0;  0.0000000E+00;  0.0000000E+00;  0.0000000E+00;0;  0.0000000E+00;  1.0000000E+04;  0.0000000E+00;  0.0000000E+00;  1.0000000E+04;  0.0000000E+00;  1.0000000E+04;  0.0000000E+00;  0.0000000E+00;  0.0000000E+00;  0.0000000E+00;
 -1.8000001E-01;  9.9999998E-03;  7.9999998E-02;104;  0.0000000E+00;  0.0000000E+00;  0.0000000E+00;  1.0000000E+03;  4.0000001E-01;  0.0000000E+00;0;  0.0000000E+00;  0.0000000E+00;  0.0000000E+00;0;  0.0000000E+00;  1.0000000E+04;  0.0000000E+00;  0.0000000E+00;  1.0000000E+04;  0.0000000E+00;  1.0000000E+04;  0.0000000E+00;  0.0000000E+00;  0.0000000E+00;  0.0000000E+00;
 -1.8000001E-01;  9.9999998E-03;  1.0000000E-01;105;  0.0000000E+00;  0.0000000E+00;  0.0000000E+00;  1.0000000E+03;  4.0000001E-01;  0.0000000E+00;0;  0.0000000E+00;  0.0000000E+00;  0.0000000E+00;0;  0.0000000E+00;  1.0000000E+04;  0.0000000E+00;  0.0000000E+00;  1.0000000E+04;  0.0000000E+00;  1.0000000E+04;  0.0000000E+00;  0.0000000E+00;  0.0000000E+00;  0.0000000E+00;
 -1.8000001E-01;  9.9999998E-03;  1.2000000E-01;106;  0.0000000E+00;  0.0000000E+00;  0.0000000E+00;  1.0000000E+03;  4.0000001E-01;  0.0000000E+00;0;  0.0000000E+00;  0.0000000E+00;  0.0000000E+00;0;  0.0000000E+00;  1.0000000E+04;  0.0000000E+00;  0.0000000E+00;  1.0000000E+04;  0.0000000E+00;  1.0000000E+04;  0.0000000E+00;  0.0000000E+00;  0.0000000E+00;  0.0000000E+00;
 -1.8000001E-01;  9.9999998E-03;  1.4000000E-01;107;  0.0000000E+00;  0.0000000E+00;  0.0000000E+00;  1.0000000E+03;  4.0000001E-01;  0.0000000E+00;0;  0.0000000E+00;  0.0000000E+00;  0.0000000E+00;0;  0.0000000E+00;  1.0000000E+04;  0.0000000E+00;  0.0000000E+00;  1.0000000E+04;  0.0000000E+00;  1.0000000E+04;  0.0000000E+00;  0.0000000E+00;  0.0000000E+00;  0.0000000E+00;
 -1.6000000E-01;  9.9999998E-03;  0.0000000E+00;141;  0.0000000E+00;  0.0000000E+00;  0.0000000E+00;  1.0000000E+03;  4.0000001E-01;  0.0000000E+00;0;  0.0000000E+00;  0.0000000E+00;  0.0000000E+00;0; -3.7574861E-07;  1.0000000E+04;  0.0000000E+00;  0.0000000E+00;  1.0000000E+04;  0.0000000E+00;  1.0000000E+04; -3.7595501E-07;  0.0000000E+00;  2.0638444E-10;  2.0694399E-05;
 -1.6000000E-01;  9.9999998E-03;  2.0000000E-02;142;  0.0000000E+00;  0.0000000E+00;  0.0000000E+00;  1.0000000E+03;  4.0000001E-01;  0.0000000E+00;0;  0.0000000E+00;  0.0000000E+00;  0.0000000E+00;0; -3.7569288E-07;  1.0000000E+04;  0.0000000E+00;  0.0000000E+00;  1.0000000E+04;  0.0000000E+00;  1.0000000E+04; -3.7590786E-07;  0.0000000E+00;  2.1497243E-10;  2.0730857E-05;
 -1.6000000E-01;  9.9999998E-03;  3.9999999E-02;143;  0.0000000E+00;  0.0000000E+00;  0.0000000E+00;  1.0000000E+03;  4.0000001E-01;  0.0000000E+00;0;  0.0000000E+00;  0.0000000E+00;  0.0000000E+00;0; -3.7548341E-07;  1.0000000E+04;  0.0000000E+00;  0.0000000E+00;  1.0000000E+04;  0.0000000E+00;  1.0000000E+04; -3.7572391E-07;  0.0000000E+00;  2.4051777E-10;  2.0838115E-05;
 -1.6000000E-01;  9.9999998E-03;  5.9999999E-02;144;  0.0000000E+00;  0.0000000E+00;  0.0000000E+00;  1.0000000E+03;  4.0000001E-01;  0.0000000E+00;0;  0.0000000E+00;  0.0000000E+00;  0.0000000E+00;0; -3.7499265E-07;  1.0000000E+04;  0.0000000E+00;  0.0000000E+00;  1.0000000E+04;  0.0000000E+00;  1.0000000E+04; -3.7527471E-07;  0.0000000E+00;  2.8204672E-10;  2.1001913E-05;
 -1.6000000E-01;  9.9999998E-03;  7.9999998E-02;145;  0.0000000E+00;  0.0000000E+00;  0.0000000E+00;  1.0000000E+03;  4.0000001E-01;  0.0000000E+00;0;  0.0000000E+00;  0.0000000E+00;  0.0000000E+00;0; -3.7399758E-07;  1.0000000E+04;  0.0000000E+00;  0.0000000E+00;  1.0000000E+04;  0.0000000E+00;  1.0000000E+04; -3.7433452E-07;  0.0000000E+00;  3.3695252E-10;  2.1193491E-05;
 -1.6000000E-01;  9.9999998E-03;  1.0000000E-01;146;  0.0000000E+00;  0.0000000E+00;  0.0000000E+00;  1.0000000E+03;  4.0000001E-01;  0.0000000E+00;0;  0.0000000E+00;  0.0000000E+00;  0.0000000E+00;0; -3.7215528E-07;  1.0000000E+04;  0.0000000E+00;  0.0000000E+00;  1.0000000E+04;  0.0000000E+00;  1.0000000E+04; -3.7256018E-07;  0.0000000E+00;  4.0488932E-10;  2.1394235E-05;
 -1.6000000E-01;  9.9999998E-03;  1.2000000E-01;147;  0.0000000E+00;  0.0000000E+00;  0.0000000E+00;  1.0000000E+03;  4.0000001E-01;  0.0000000E+00;0;  0.0000000E+00;  0.0000000E+00;  0.0000000E+00;0; -3.6899036E-07;  1.0000000E+04;  0.0000000E+00;  0.0000000E+00;  1.0000000E+04;  0.0000000E+00;  1.0000000E+04; -3.6947463E-07;  0.0000000E+00;  4.8429016E-10;  2.1575890E-05;
 -1.6000000E-01;  9.9999998E-03;  1.4000000E-01;148;  0.0000000E+00;  0.0000000E+00;  0.0000000E+00;  1.0000000E+03;  4.0000001E-01;  0.0000000E+00;0;  0.0000000E+00;  0.0000000E+00;  0.0000000E+00;0; -3.6388025E-07;  1.0000000E+04;  0.0000000E+00;  0.0000000E+00;  1.0000000E+04;  0.0000000E+00;  1.0000000E+04; -3.6445098E-07;  0.0000000E+00;  5.7072935E-10;  2.1693717E-05;
 -1.4000000E-01;  9.9999998E-03;  0.0000000E+00;182;  0.0000000E+00;  0.0000000E+00;  0.0000000E+00;  1.0000000E+03;  4.0000001E-01;  0.0000000E+00;0;  0.0000000E+00;  0.0000000E+00;  0.0000000E+00;0; -1.3852004E-05;  1.0000000E+04;  0.0000000E+00;  0.0000000E+00;  1.0000000E+04;  0.0000000E+00;  1.0000000E+04; -1.3879433E-05;  0.0000000E+00;  2.7429127E-08;  9.0186659E-04;
 -1.4000000E-01;  9.9999998E-03;  2.0000000E-02;183;  0.0000000E+00;  0.0000000E+00;  0.0000000E+00;  1.0000000E+03;  4.0000001E-01;  0.0000000E+00;0;  0.0000000E+00;  0.0000000E+00;  0.0000000E+00;0; -1.3848084E-05;  1.0000000E+04;  0.0000000E+00;  0.0000000E+00;  1.0000000E+04;  0.0000000E+00;  1.0000000E+04; -1.3876577E-05;  0.0000000E+00;  2.8493284E-08;  9.0709404E-04;
 -1.4000000E-01;  9.9999998E-03;  3.9999999E-02;184;  0.0000000E+00;  0.0000000E+00;  0.0000000E+00;  1.0000000E+03;  4.0000001E-01;  0.0000000E+00;0;  0.0000000E+00;  0.0000000E+00;  0.0000000E+00;0; -1.3834734E-05;  1.0000000E+04;  0.0000000E+00;  0.0000000E+00;  1.0000000E+04;  0.0000000E+00;  1.0000000E+04; -1.3866360E-05;  0.0000000E+00;  3.1625753E-08;  9.2227146E-04;
 -1.4000000E-01;  9.9999998E-03;  5.9999999E-02;185;  0.0000000E+00;  0.0000000E+00;  0.0000000E+00;  1.0000000E+03;  4.0000001E-01;  0.0000000E+00;0;  0.0000000E+00;  0.0000000E+00;  0.0000000E+00;0; -1.3807040E-05;  1.0000000E+04;  0.0000000E+00;  0.0000000E+00;  1.0000000E+04;  0.0000000E+00;  1.0000000E+04; -1.3843744E-05;  0.0000000E+00;  3.6704037E-08;  9.4622618E-04;
 -1.4000000E-01;  9.9999998E-03;  7.9999998E-02;186;  0.0000000E+00;  0.0000000E+00;  0.0000000E+00;  1.0000000E+03;  4.0000001E-01;  0.0000000E+00;0;  0.0000000E+00;  0.0000000E+00;  0.0000000E+00;0; -1.3756344E-05;  1.0000000E+04;  0.0000000E+00;  0.0000000E+00;  1.0000000E+04;  0.0000000E+00;  1.0000000E+04; -1.3799910E-05;  0.0000000E+00;  4.3565766E-08;  9.7738171E-04;
 -1.4000000E-01;  9.9999998E-03;  1.0000000E-01;187;  0.0000000E+00;  0.0000000E+00;  0.0000000E+00;  1.0000000E+03;  4.0000001E-01;  0.0000000E+00;0;  0.0000000E+00;  0.0000000E+00;  0.0000000E+00;0; -1.3669729E-05;  1.0000000E+04;  0.0000000E+00;  0.0000000E+00;  1.0000000E+04;  0.0000000E+00;  1.0000000E+04; -1.3721719E-05;  0.0000000E+00;  5.1990476E-08;  1.0138486E-03;
 -1.4000000E-01;  9.9999998E-03;  1.2000000E-01;188;  0.0000000E+00;  0.0000000E+00;  0.0000000E+00;  1.0000000E+03;  4.0000001E-01;  0.0000000E+00;0;  0.0000000E+00;  0.0000000E+00;  0.0000000E+00;0; -1.3529328E-05;  1.0000000E+04;  0.0000000E+00;  0.0000000E+00;  1.0000000E+04;  0.0000000E+00;  1.0000000E+04; -1.3591063E-05;  0.0000000E+00;  6.1734958E-08;  1.0537766E-03;
 -1.4000000E-01;  9.9999998E-03;  1.4000000E-01;189;  0.0000000E+00;  0.0000000E+00;  0.0000000E+00;  1.0000000E+03;  4.0000001E-01;  0.0000000E+00;0;  0.0000000E+00;  0.0000000E+00;  0.0000000E+00;0; -1.3312148E-05;  1.0000000E+04;  0.0000000E+00;  0.0000000E+00;  1.0000000E+04;  0.0000000E+00;  1.0000000E+04; -1.3384451E-05;  0.0000000E+00;  7.2302583E-08;  1.0939995E-03;
 -1.2000000E-01;  9.9999998E-03;  0.0000000E+00;223;  0.0000000E+00;  0.0000000E+00;  0.0000000E+00;  1.0000000E+03;  4.0000001E-01;  0.0000000E+00;0;  0.0000000E+00;  0.0000000E+00;  0.0000000E+00;0; -7.7416757E-05;  1.0000000E+04;  0.0000000E+00;  0.0000000E+00;  1.0000000E+04;  0.0000000E+00;  1.0000000E+04; -7.7693941E-05;  0.0000000E+00;  2.7718457E-07;  5.9127323E-03;
 -1.2000000E-01;  9.9999998E-03;  2.0000000E-02;224;  0.0000000E+00;  0.0000000E+00;  0.0000000E+00;  1.0000000E+03;  4.0000001E-01;  0.0000000E+00;0;  0.0000000E+00;  0.0000000E+00;  0.0000000E+00;0; -7.7388300E-05;  1.0000000E+04;  0.0000000E+00;  0.0000000E+00;  1.0000000E+04;  0.0000000E+00;  1.0000000E+04; -7.7675519E-05;  0.0000000E+00;  2.8721675E-07;  5.9629451E-03;
 -1.2000000E-01;  9.9999998E-03;  3.9999999E-02;225;  0.0000000E+00;  0.0000000E+00;  0.0000000E+00;  1.0000000E+03;  4.0000001E-01;  0.0000000E+00;0;  0.0000000E+00;  0.0000000E+00;  0.0000000E+00;0; -7.7293844E-05;  1.0000000E+04;  0.0000000E+00;  0.0000000E+00;  1.0000000E+04;  0.0000000E+00;  1.0000000E+04; -7.7610799E-05;  0.0000000E+00;  3.1695643E-07;  6.1103306E-03;
 -1.2000000E-01;  9.9999998E-03;  5.9999999E-02;226;  0.0000000E+00;  0.0000000E+00;  0.0000000E+00;  1.0000000E+03;  4.0000001E-01;  0.0000000E+00;0;  0.0000000E+00;  0.0000000E+00;  0.0000000E+00;0; -7.7105222E-05;  1.0000000E+04;  0.0000000E+00;  0.0000000E+00;  1.0000000E+04;  0.0000000E+00;  1.0000000E+04; -7.7470591E-05;  0.0000000E+00;  3.6536872E-07;  6.3458993E-03;
 -1.2000000E-01;  9.9999998E-03;  7.9999998E-02;227;  0.0000000E+00;  0.0000000E+00;  0.0000000E+00;  1.0000000E+03;  4.0000001E-01;  0.0000000E+00;0;  0.0000000E+00;  0.0000000E+00;  0.0000000E+00;0; -7.6773365E-05;  1.0000000E+04;  0.0000000E+00;  0.0000000E+00;  1.0000000E+04;  0.0000000E+00;  1.0000000E+04; -7.7204248E-05;  0.0000000E+00;  4.3088554E-07;  6.6569773E-03;
 -1.2000000E-01;  9.9999998E-03;  1.0000000E-01;228;  0.0000000E+00;  0.0000000E+00;  0.0000000E+00;  1.0000000E+03;  4.0000001E-01;  0.0000000E+00;0;  0.0000000E+00;  0.0000000E+00;  0.0000000E+00;0; -7.6225064E-05;  1.0000000E+04;  0.0000000E+00;  0.0000000E+00;  1.0000000E+04;  0.0000000E+00;  1.0000000E+04; -7.6736476E-05;  0.0000000E+00;  5.1141228E-07;  7.0286416E-03;
 -1.2000000E-01;  9.9999998E-03;  1.2000000E-01;229;  0.0000000E+00;  0.0000000E+00;  0.0000000E+00;  1.0000000E+03;  4.0000001E-01;  0.0000000E+00;0;  0.0000000E+00;  0.0000000E+00;  0.0000000E+00;0; -7.5360884E-05;  1.0000000E+04;  0.0000000E+00;  0.0000000E+00;  1.0000000E+04;  0.0000000E+00;  1.0000000E+04; -7.5964454E-05;  0.0000000E+00;  6.0356774E-07;  7.4401624E-03;
 -1.2000000E-01;  9.9999998E-03;  1.4000000E-01;230;  0.0000000E+00;  0.0000000E+00;  0.0000000E+00;  1.0000000E+03;  4.0000001E-01;  0.0000000E+00;0;  0.0000000E+00;  0.0000000E+00;  0.0000000E+00;0; -7.4054886E-05;  1.0000000E+04;  0.0000000E+00;  0.0000000E+00;  1.0000000E+04;  0.0000000E+00;  1.0000000E+04; -7.4755822E-05;  0.0000000E+00;  7.0093762E-07;  7.8545744E-03;
 -1.0000000E-01;  9.9999998E-03;  0.0000000E+00;264;  0.0000000E+00;  0.0000000E+00;  0.0000000E+00;  1.0000002E+03;  4.0000001E-01;  1.9752525E-01;0;  0.0000000E+00;  0.0000000E+00;  0.0000000E+00;0; -2.4961462E-04;  1.0000000E+04;  0.0000000E+00;  0.0000000E+00;  1.0000000E+04;  0.0000000E+00;  1.0000000E+04; -2.5093110E-04;  0.0000000E+00;  1.3164838E-06;  2.2056807E-02;
 -1.0000000E-01;  9.9999998E-03;  2.0000000E-02;265;  0.0000000E+00;  0.0000000E+00;  0.0000000E+00;  1.0000002E+03;  4.0000001E-01;  1.9752525E-01;0;  0.0000000E+00;  0.0000000E+00;  0.0000000E+00;0; -2.4950813E-04;  1.0000000E+04;  0.0000000E+00;  0.0000000E+00;  1.0000000E+04;  0.0000000E+00;  1.0000000E+04; -2.5086995E-04;  0.0000000E+00;  1.3618395E-06;  2.2285881E-02;
 -1.0000000E-01;  9.9999998E-03;  3.9999999E-02;266;  0.0000000E+00;  0.0000000E+00;  0.0000000E+00;  1.0000002E+03;  4.0000001E-01;  1.9752525E-01;0;  0.0000000E+00;  0.0000000E+00;  0.0000000E+00;0; -2.4915903E-04;  1.0000000E+04;  0.0000000E+00;  0.0000000E+00;  1.0000000E+04;  0.0000000E+00;  1.0000000E+04; -2.5065549E-04;  0.0000000E+00;  1.4964722E-06;  2.2960803E-02;
 -1.0000000E-01;  9.9999998E-03;  5.9999999E-02;267;  0.0000000E+00;  0.0000000E+00;  0.0000000E+00;  1.0000002E+03;  4.0000001E-01;  1.9752525E-01;0;  0.0000000E+00;  0.0000000E+00;  0.0000000E+00;0; -2.4847582E-04;  1.0000000E+04;  0.0000000E+00;  0.0000000E+00;  1.0000000E+04;  0.0000000E+00;  1.0000000E+04; -2.5019184E-04;  0.0000000E+00;  1.7160186E-06;  2.4046419E-02;
 -1.0000000E-01;  9.9999998E-03;  7.9999998E-02;268;  0.0000000E+00;  0.0000000E+00;  0.0000000E+00;  1.0000002E+03;  4.0000001E-01;  1.9752525E-01;0;  0.0000000E+00;  0.0000000E+00;  0.0000000E+00;0; -2.4729886E-04;  1.0000000E+04;  0.0000000E+00;  0.0000000E+00;  1.0000000E+04;  0.0000000E+00;  1.0000000E+04; -2.4931223E-04;  0.0000000E+00;  2.0133759E-06;  2.5490690E-02;
 -1.0000000E-01;  9.9999998E-03;  1.0000000E-01;269;  0.0000000E+00;  0.0000000E+00;  0.0000000E+00;  1.0000002E+03;  4.0000001E-01;  1.9752525E-01;0;  0.0000000E+00;  0.0000000E+00;  0.0000000E+00;0; -2.4539256E-04;  1.0000000E+04;  0.0000000E+00;  0.0000000E+00;  1.0000000E+04;  0.0000000E+00;  1.0000000E+04; -2.4777022E-04;  0.0000000E+00;  2.3776545E-06;  2.7223639E-02;
 -1.0000000E-01;  9.9999998E-03;  1.2000000E-01;270;  0.0000000E+00;  0.0000000E+00;  0.0000000E+00;  1.0000001E+03;  4.0000001E-01;  9.8762624E-02;0;  0.0000000E+00;  0.0000000E+00;  0.0000000E+00;0; -2.4243974E-04;  1.0000000E+04;  0.0000000E+00;  0.0000000E+00;  1.0000000E+04;  0.0000000E+00;  1.0000000E+04; -2.4522986E-04;  0.0000000E+00;  2.7901331E-06;  2.9136652E-02;
 -1.0000000E-01;  9.9999998E-03;  1.4000000E-01;271;  0.0000000E+00;  0.0000000E+00;  0.0000000E+00;  1.0000001E+03;  4.0000001E-01;  9.8762624E-02;0;  0.0000000E+00;  0.0000000E+00;  0.0000000E+00;0; -2.3804330E-04;  1.0000000E+04;  0.0000000E+00;  0.0000000E+00;  1.0000000E+04;  0.0000000E+00;  1.0000000E+04; -2.4125961E-04;  0.0000000E+00;  3.2163036E-06;  3.1036202E-02;
 -7.9999998E-02;  9.9999998E-03;  0.0000000E+00;305;  0.0000000E+00;  0.0000000E+00;  0.0000000E+00;  1.0000005E+03;  4.0000001E-01;  3.9505050E-01;0;  0.0000000E+00;  0.0000000E+00;  0.0000000E+00;0; -6.0170016E-04;  1.0000000E+04;  0.0000000E+00;  0.0000000E+00;  1.0000000E+04;  0.0000000E+00;  1.0000000E+04; -6.0588849E-04;  0.0000000E+00;  4.1883136E-06;  6.0459953E-02;
 -7.9999998E-02;  9.9999998E-03;  2.0000000E-02;306;  0.0000000E+00;  0.0000000E+00;  0.0000000E+00;  1.0000005E+03;  4.0000001E-01;  3.9505050E-01;0;  0.0000000E+00;  0.0000000E+00;  0.0000000E+00;0; -6.0142251E-04;  1.0000000E+04;  0.0000000E+00;  0.0000000E+00;  1.0000000E+04;  0.0000000E+00;  1.0000000E+04; -6.0574990E-04;  0.0000000E+00;  4.3273817E-06;  6.1168268E-02;
 -7.9999998E-02;  9.9999998E-03;  3.9999999E-02;307;  0.0000000E+00;  0.0000000E+00;  0.0000000E+00;  1.0000005E+03;  4.0000001E-01;  3.9505050E-01;0;  0.0000000E+00;  0.0000000E+00;  0.0000000E+00;0; -6.0051808E-04;  1.0000000E+04;  0.0000000E+00;  0.0000000E+00;  1.0000000E+04;  0.0000000E+00;  1.0000000E+04; -6.0525833E-04;  0.0000000E+00;  4.7402536E-06;  6.3258730E-02;
 -7.9999998E-02;  9.9999998E-03;  5.9999999E-02;308;  0.0000000E+00;  0.0000000E+00;  0.0000000E+00;  1.0000004E+03;  4.0000001E-01;  3.9505050E-01;0;  0.0000000E+00;  0.0000000E+00;  0.0000000E+00;0; -5.9876638E-04;  1.0000000E+04;  0.0000000E+00;  0.0000000E+00;  1.0000000E+04;  0.0000000E+00;  1.0000000E+04; -6.0418021E-04;  0.0000000E+00;  5.4138368E-06;  6.6632330E-02;
 -7.9999998E-02;  9.9999998E-03;  7.9999998E-02;309;  0.0000000E+00;  0.0000000E+00;  0.0000000E+00;  1.0000004E+03;  4.0000001E-01;  3.9505050E-01;0;  0.0000000E+00;  0.0000000E+00;  0.0000000E+00;0; -5.9578387E-04;  1.0000000E+04;  0.0000000E+00;  0.0000000E+00;  1.0000000E+04;  0.0000000E+00;  1.0000000E+04; -6.0210936E-04;  0.0000000E+00;  6.3254729E-06;  7.1133479E-02;
 -7.9999998E-02;  9.9999998E-03;  1.0000000E-01;310;  0.0000000E+00;  0.0000000E+00;  0.0000000E+00;  1.0000004E+03;  4.0000001E-01;  3.9505050E-01;0;  0.0000000E+00;  0.0000000E+00;  0.0000000E+00;0; -5.9100706E-04;  1.0000000E+04;  0.0000000E+00;  0.0000000E+00;  1.0000000E+04;  0.0000000E+00;  1.0000000E+04; -5.9844484E-04;  0.0000000E+00;  7.4377995E-06;  7.6533295E-02;
 -7.9999998E-02;  9.9999998E-03;  1.2000000E-01;311;  0.0000000E+00;  0.0000000E+00;  0.0000000E+00;  1.0000004E+03;  4.0000001E-01;  3.9505050E-01;0;  0.0000000E+00;  0.0000000E+00;  0.0000000E+00;0; -5.8368244E-04;  1.0000000E+04;  0.0000000E+00;  0.0000000E+00;  1.0000000E+04;  0.0000000E+00;  1.0000000E+04; -5.9236714E-04;  0.0000000E+00;  8.6847158E-06;  8.2455873E-02;
 -7.9999998E-02;  9.9999998E-03;  1.4000000E-01;312;  0.0000000E+00;  0.0000000E+00;  0.0000000E+00;  1.0000004E+03;  4.0000001E-01;  2.9628786E-01;0;  0.0000000E+00;  0.0000000E+00;  0.0000000E+00;0; -5.7287427E-04;  1.0000000E+04;  0.0000000E+00;  0.0000000E+00;  1.0000000E+04;  0.0000000E+00;  1.0000000E+04; -5.8282260E-04;  0.0000000E+00;  9.9483232E-06;  8.8244967E-02;
 -5.9999999E-02;  9.9999998E-03;  0.0000000E+00;346;  0.0000000E+00;  0.0000000E+00;  0.0000000E+00;  1.0000009E+03;  4.0000001E-01;  7.9010099E-01;0;  0.0000000E+00;  0.0000000E+00;  0.0000000E+00;0; -1.1853020E-03;  1.0000000E+04;  0.0000000E+00;  0.0000000E+00;  1.0000000E+04;  0.0000000E+00;  1.0000000E+04; -1.1955880E-03;  0.0000000E+00;  1.0286015E-05;  1.3409045E-01;
 -5.9999999E-02;  9.9999998E-03;  2.0000000E-02;347;  0.0000000E+00;  0.0000000E+00;  0.0000000E+00;  1.0000009E+03;  4.0000001E-01;  7.9010099E-01;0;  0.0000000E+00;  0.0000000E+00;  0.0000000E+00;0; -1.1847389E-03;  1.0000000E+04;  0.0000000E+00;  0.0000000E+00;  1.0000000E+04;  0.0000000E+00;  1.0000000E+04; -1.1953571E-03;  0.0000000E+00;  1.0618141E-05;  1.3579939E-01;
 -5.9999999E-02;  9.9999998E-03;  3.9999999E-02;348;  0.0000000E+00;  0.0000000E+00;  0.0000000E+00;  1.0000009E+03;  4.0000001E-01;  7.9010099E-01;0;  0.0000000E+00;  0.0000000E+00;  0.0000000E+00;0; -1.1829106E-03;  1.0000000E+04;  0.0000000E+00;  0.0000000E+00;  1.0000000E+04;  0.0000000E+00;  1.0000000E+04; -1.1945146E-03;  0.0000000E+00;  1.1603928E-05;  1.4084680E-01;
 -5.9999999E-02;  9.9999998E-03;  5.9999999E-02;349;  0.0000000E+00;  0.0000000E+00;  0.0000000E+00;  1.0000009E+03;  4.0000001E-01;  7.9010099E-01;0;  0.0000000E+00;  0.0000000E+00;  0.0000000E+00;0; -1.1793873E-03;  1.0000000E+04;  0.0000000E+00;  0.0000000E+00;  1.0000000E+04;  0.0000000E+00;  1.0000000E+04; -1.1925992E-03;  0.0000000E+00;  1.3211827E-05;  1.4900535E-01;
 -5.9999999E-02;  9.9999998E-03;  7.9999998E-02;350;  0.0000000E+00;  0.0000000E+00;  0.0000000E+00;  1.0000009E+03;  4.0000001E-01;  7.9010099E-01;0;  0.0000000E+00;  0.0000000E+00;  0.0000000E+00;0; -1.1734229E-03;  1.0000000E+04;  0.0000000E+00;  0.0000000E+00;  1.0000000E+04;  0.0000000E+00;  1.0000000E+04; -1.1888080E-03;  0.0000000E+00;  1.5385065E-05;  1.5990070E-01;
 -5.9999999E-02;  9.9999998E-03;  1.0000000E-01;351;  0.0000000E+00;  0.0000000E+00;  0.0000000E+00;  1.0000009E+03;  4.0000001E-01;  7.9010099E-01;0;  0.0000000E+00;  0.0000000E+00;  0.0000000E+00;0; -1.1639233E-03;  1.0000000E+04;  0.0000000E+00;  0.0000000E+00;  1.0000000E+04;  0.0000000E+00;  1.0000000E+04; -1.1819495E-03;  0.0000000E+00;  1.8026270E-05;  1.7295009E-01;
 -5.9999999E-02;  9.9999998E-03;  1.2000000E-01;352;  0.0000000E+00;  0.0000000E+00;  0.0000000E+00;  1.0000009E+03;  4.0000001E-01;  7.9010099E-01;0;  0.0000000E+00;  0.0000000E+00;  0.0000000E+00;0; -1.1494295E-03;  1.0000000E+04;  0.0000000E+00;  0.0000000E+00;  1.0000000E+04;  0.0000000E+00;  1.0000000E+04; -1.1703912E-03;  0.0000000E+00;  2.0961774E-05;  1.8717246E-01;
 -5.9999999E-02;  9.9999998E-03;  1.4000000E-01;353;  0.0000000E+00;  0.0000000E+00;  0.0000000E+00;  1.0000009E+03;  4.0000001E-01;  6.9133836E-01;0;  0.0000000E+00;  0.0000000E+00;  0.0000000E+00;0; -1.1281363E-03;  1.0000000E+04;  0.0000000E+00;  0.0000000E+00;  1.0000000E+04;  0.0000000E+00;  1.0000000E+04; -1.1520266E-03;  0.0000000E+00;  2.3890263E-05;  2.0089103E-01;
 -3.9999999E-02;  9.9999998E-03;  0.0000000E+00;387;  0.0000000E+00;  0.0000000E+00;  0.0000000E+00;  1.0000016E+03;  4.0000001E-01;  1.2839141E+00;0;  0.0000000E+00;  0.0000000E+00;  0.0000000E+00;0; -1.9959006E-03;  1.0000000E+04;  0.0000000E+00;  0.0000000E+00;  1.0000000E+04;  0.0000000E+00;  1.0000000E+04; -2.0168389E-03;  0.0000000E+00;  2.0938120E-05;  2.5336918E-01;
 -3.9999999E-02;  9.9999998E-03;  2.0000000E-02;388;  0.0000000E+00;  0.0000000E+00;  0.0000000E+00;  1.0000016E+03;  4.0000001E-01;  1.2839141E+00;0;  0.0000000E+00;  0.0000000E+00;  0.0000000E+00;0; -1.9949647E-03;  1.0000000E+04;  0.0000000E+00;  0.0000000E+00;  1.0000000E+04;  0.0000000E+00;  1.0000000E+04; -2.0165648E-03;  0.0000000E+00;  2.1600255E-05;  2.5682053E-01;
 -3.9999999E-02;  9.9999998E-03;  3.9999999E-02;389;  0.0000000E+00;  0.0000000E+00;  0.0000000E+00;  1.0000016E+03;  4.0000001E-01;  1.2839141E+00;0;  0.0000000E+00;  0.0000000E+00;  0.0000000E+00;0; -1.9919288E-03;  1.0000000E+04;  0.0000000E+00;  0.0000000E+00;  1.0000000E+04;  0.0000000E+00;  1.0000000E+04; -2.0154943E-03;  0.0000000E+00;  2.3565413E-05;  2.6702008E-01;
 -3.9999999E-02;  9.9999998E-03;  5.9999999E-02;390;  0.0000000E+00;  0.0000000E+00;  0.0000000E+00;  1.0000016E+03;  4.0000001E-01;  1.2839141E+00;0;  0.0000000E+00;  0.0000000E+00;  0.0000000E+00;0; -1.9860854E-03;  1.0000000E+04;  0.0000000E+00;  0.0000000E+00;  1.0000000E+04;  0.0000000E+00;  1.0000000E+04; -2.0128549E-03;  0.0000000E+00;  2.6769521E-05;  2.8352031E-01;
 -3.9999999E-02;  9.9999998E-03;  7.9999998E-02;391;  0.0000000E+00;  0.0000000E+00;  0.0000000E+00;  1.0000016E+03;  4.0000001E-01;  1.2839141E+00;0;  0.0000000E+00;  0.0000000E+00;  0.0000000E+00;0; -1.9762046E-03;  1.0000000E+04;  0.0000000E+00;  0.0000000E+00;  1.0000000E+04;  0.0000000E+00;  1.0000000E+04; -2.0072991E-03;  0.0000000E+00;  3.1094438E-05;  3.0555964E-01;
 -3.9999999E-02;  9.9999998E-03;  1.0000000E-01;392;  0.0000000E+00;  0.0000000E+00;  0.0000000E+00;  1.0000016E+03;  4.0000001E-01;  1.2839141E+00;0;  0.0000000E+00;  0.0000000E+00;  0.0000000E+00;0; -1.9604787E-03;  1.0000000E+04;  0.0000000E+00;  0.0000000E+00;  1.0000000E+04;  0.0000000E+00;  1.0000000E+04; -1.9968122E-03;  0.0000000E+00;  3.6333571E-05;  3.3191377E-01;
 -3.9999999E-02;  9.9999998E-03;  1.2000000E-01;393;  0.0000000E+00;  0.0000000E+00;  0.0000000E+00;  1.0000015E+03;  4.0000001E-01;  1.2839141E+00;0;  0.0000000E+00;  0.0000000E+00;  0.0000000E+00;0; -1.9365082E-03;  1.0000000E+04;  0.0000000E+00;  0.0000000E+00;  1.0000000E+04;  0.0000000E+00;  1.0000000E+04; -1.9786272E-03;  0.0000000E+00;  4.2119002E-05;  3.6050272E-01;
 -3.9999999E-02;  9.9999998E-03;  1.4000000E-01;394;  0.0000000E+00;  0.0000000E+00;  0.0000000E+00;  1.0000015E+03;  4.0000001E-01;  1.1851515E+00;0;  0.0000000E+00;  0.0000000E+00;  0.0000000E+00;0; -1.9013115E-03;  1.0000000E+04;  0.0000000E+00;  0.0000000E+00;  1.0000000E+04;  0.0000000E+00;  1.0000000E+04; -1.9491357E-03;  0.0000000E+00;  4.7824225E-05;  3.8782373E-01;
 -2.0000000E-02;  9.9999998E-03;  0.0000000E+00;428;  0.0000000E+00;  0.0000000E+00;  0.0000000E+00;  1.0000023E+03;  4.0000001E-01;  1.8764899E+00;0;  0.0000000E+00;  0.0000000E+00;  0.0000000E+00;0; -2.9557238E-03;  1.0000000E+04;  0.0000000E+00;  0.0000000E+00;  1.0000000E+04;  0.0000000E+00;  1.0000000E+04; -2.9925192E-03;  0.0000000E+00;  3.6795460E-05;  4.2137644E-01;
 -2.0000000E-02;  9.9999998E-03;  2.0000000E-02;429;  0.0000000E+00;  0.0000000E+00;  0.0000000E+00;  1.0000023E+03;  4.0000001E-01;  1.8764899E+00;0;  0.0000000E+00;  0.0000000E+00;  0.0000000E+00;0; -2.9544202E-03;  1.0000000E+04;  0.0000000E+00;  0.0000000E+00;  1.0000000E+04;  0.0000000E+00;  1.0000000E+04; -2.9923618E-03;  0.0000000E+00;  3.7941645E-05;  4.2744941E-01;
 -2.0000000E-02;  9.9999998E-03;  3.9999999E-02;430;  0.0000000E+00;  0.0000000E+00;  0.0000000E+00;  1.0000023E+03;  4.0000001E-01;  1.8764899E+00;0;  0.0000000E+00;  0.0000000E+00;  0.0000000E+00;0; -2.9501787E-03;  1.0000000E+04;  0.0000000E+00;  0.0000000E+00;  1.0000000E+04;  0.0000000E+00;  1.0000000E+04; -2.9915222E-03;  0.0000000E+00;  4.1343592E-05;  4.4540635E-01;
 -2.0000000E-02;  9.9999998E-03;  5.9999999E-02;431;  0.0000000E+00;  0.0000000E+00;  0.0000000E+00;  1.0000023E+03;  4.0000001E-01;  1.8764899E+00;0;  0.0000000E+00;  0.0000000E+00;  0.0000000E+00;0; -2.9419872E-03;  1.0000000E+04;  0.0000000E+00;  0.0000000E+00;  1.0000000E+04;  0.0000000E+00;  1.0000000E+04; -2.9888761E-03;  0.0000000E+00;  4.6888785E-05;  4.7447282E-01;
 -2.0000000E-02;  9.9999998E-03;  7.9999998E-02;432;  0.0000000E+00;  0.0000000E+00;  0.0000000E+00;  1.0000023E+03;  4.0000001E-01;  1.8764899E+00;0;  0.0000000E+00;  0.0000000E+00;  0.0000000E+00;0; -2.9280796E-03;  1.0000000E+04;  0.0000000E+00;  0.0000000E+00;  1.0000000E+04;  0.0000000E+00;  1.0000000E+04; -2.9824455E-03;  0.0000000E+00;  5.4365966E-05;  5.1329947E-01;
 -2.0000000E-02;  9.9999998E-03;  1.0000000E-01;433;  0.0000000E+00;  0.0000000E+00;  0.0000000E+00;  1.0000023E+03;  4.0000001E-01;  1.8764899E+00;0;  0.0000000E+00;  0.0000000E+00;  0.0000000E+00;0; -2.9058566E-03;  1.0000000E+04;  0.0000000E+00;  0.0000000E+00;  1.0000000E+04;  0.0000000E+00;  1.0000000E+04; -2.9692589E-03;  0.0000000E+00;  6.3402331E-05;  5.5967718E-01;
 -2.0000000E-02;  9.9999998E-03;  1.2000000E-01;434;  0.0000000E+00;  0.0000000E+00;  0.0000000E+00;  1.0000021E+03;  4.0000001E-01;  1.7777272E+00;0;  0.0000000E+00;  0.0000000E+00;  0.0000000E+00;0; -2.8718552E-03;  1.0000000E+04;  0.0000000E+00;  0.0000000E+00;  1.0000000E+04;  0.0000000E+00;  1.0000000E+04; -2.9451929E-03;  0.0000000E+00;  7.3337629E-05;  6.0984874E-01;
 -2.0000000E-02;  9.9999998E-03;  1.4000000E-01;435;  0.0000000E+00;  0.0000000E+00;  0.0000000E+00;  1.0000021E+03;  4.0000001E-01;  1.7777272E+00;0;  0.0000000E+00;  0.0000000E+00;  0.0000000E+00;0; -2.8217619E-03;  1.0000000E+04;  0.0000000E+00;  0.0000000E+00;  1.0000000E+04;  0.0000000E+00;  1.0000000E+04; -2.9048200E-03;  0.0000000E+00;  8.3058192E-05;  6.5752858E-01;
 -2.2000000E-01;  9.9999998E-03;  1.6000000E-01;27;  0.0000000E+00;  0.0000000E+00;  0.0000000E+00;  1.0000000E+03;  4.0000001E-01;  0.0000000E+00;0;  0.0000000E+00;  0.0000000E+00;  0.0000000E+00;0;  0.0000000E+00;  1.0000000E+04;  0.0000000E+00;  0.0000000E+00;  1.0000000E+04;  0.0000000E+00;  1.0000000E+04;  0.0000000E+00;  0.0000000E+00;  0.0000000E+00;  0.0000000E+00;
 -2.2000000E-01;  9.9999998E-03;  1.8000001E-01;28;  0.0000000E+00;  0.0000000E+00;  0.0000000E+00;  1.0000000E+03;  4.0000001E-01;  0.0000000E+00;0;  0.0000000E+00;  0.0000000E+00;  0.0000000E+00;0;  0.0000000E+00;  1.0000000E+04;  0.0000000E+00;  0.0000000E+00;  1.0000000E+04;  0.0000000E+00;  1.0000000E+04;  0.0000000E+00;  0.0000000E+00;  0.0000000E+00;  0.0000000E+00;
 -2.2000000E-01;  9.9999998E-03;  2.0000000E-01;29;  0.0000000E+00;  0.0000000E+00;  0.0000000E+00;  1.0000000E+03;  4.0000001E-01;  0.0000000E+00;0;  0.0000000E+00;  0.0000000E+00;  0.0000000E+00;0;  0.0000000E+00;  1.0000000E+04;  0.0000000E+00;  0.0000000E+00;  1.0000000E+04;  0.0000000E+00;  1.0000000E+04;  0.0000000E+00;  0.0000000E+00;  0.0000000E+00;  0.0000000E+00;
 -2.2000000E-01;  9.9999998E-03;  2.2000000E-01;30;  0.0000000E+00;  0.0000000E+00;  0.0000000E+00;  1.0000000E+03;  4.0000001E-01;  0.0000000E+00;0;  0.0000000E+00;  0.0000000E+00;  0.0000000E+00;0;  0.0000000E+00;  1.0000000E+04;  0.0000000E+00;  0.0000000E+00;  1.0000000E+04;  0.0000000E+00;  1.0000000E+04;  0.0000000E+00;  0.0000000E+00;  0.0000000E+00;  0.0000000E+00;
 -2.2000000E-01;  9.9999998E-03;  2.3999999E-01;31;  0.0000000E+00;  0.0000000E+00;  0.0000000E+00;  1.0000000E+03;  4.0000001E-01;  0.0000000E+00;0;  0.0000000E+00;  0.0000000E+00;  0.0000000E+00;0;  0.0000000E+00;  1.0000000E+04;  0.0000000E+00;  0.0000000E+00;  1.0000000E+04;  0.0000000E+00;  1.0000000E+04;  0.0000000E+00;  0.0000000E+00;  0.0000000E+00;  0.0000000E+00;
 -2.2000000E-01;  9.9999998E-03;  2.5999999E-01;32;  0.0000000E+00;  0.0000000E+00;  0.0000000E+00;  1.0000000E+03;  4.0000001E-01;  0.0000000E+00;0;  0.0000000E+00;  0.0000000E+00;  0.0000000E+00;0;  0.0000000E+00;  1.0000000E+04;  0.0000000E+00;  0.0000000E+00;  1.0000000E+04;  0.0000000E+00;  1.0000000E+04;  0.0000000E+00;  0.0000000E+00;  0.0000000E+00;  0.0000000E+00;
 -2.2000000E-01;  9.9999998E-03;  2.8000000E-01;33;  0.0000000E+00;  0.0000000E+00;  0.0000000E+00;  1.0000000E+03;  4.0000001E-01;  0.0000000E+00;0;  0.0000000E+00;  0.0000000E+00;  0.0000000E+00;0;  0.0000000E+00;  1.0000000E+04;  0.0000000E+00;  0.0000000E+00;  1.0000000E+04;  0.0000000E+00;  1.0000000E+04;  0.0000000E+00;  0.0000000E+00;  0.0000000E+00;  0.0000000E+00;
 -2.2000000E-01;  9.9999998E-03;  3.0000001E-01;34;  0.0000000E+00;  0.0000000E+00;  0.0000000E+00;  1.0000000E+03;  4.0000001E-01;  0.0000000E+00;0;  0.0000000E+00;  0.0000000E+00;  0.0000000E+00;0;  0.0000000E+00;  1.0000000E+04;  0.0000000E+00;  0.0000000E+00;  1.0000000E+04;  0.0000000E+00;  1.0000000E+04;  0.0000000E+00;  0.0000000E+00;  0.0000000E+00;  0.0000000E+00;
 -2.2000000E-01;  9.9999998E-03;  3.1999999E-01;35;  0.0000000E+00;  0.0000000E+00;  0.0000000E+00;  1.0000000E+03;  4.0000001E-01;  0.0000000E+00;0;  0.0000000E+00;  0.0000000E+00;  0.0000000E+00;0;  0.0000000E+00;  1.0000000E+04;  0.0000000E+00;  0.0000000E+00;  1.0000000E+04;  0.0000000E+00;  1.0000000E+04;  0.0000000E+00;  0.0000000E+00;  0.0000000E+00;  0.0000000E+00;
 -2.0000000E-01;  9.9999998E-03;  1.6000000E-01;67;  0.0000000E+00;  0.0000000E+00;  0.0000000E+00;  1.0000000E+03;  4.0000001E-01;  0.0000000E+00;0;  0.0000000E+00;  0.0000000E+00;  0.0000000E+00;0;  0.0000000E+00;  1.0000000E+04;  0.0000000E+00;  0.0000000E+00;  1.0000000E+04;  0.0000000E+00;  1.0000000E+04;  0.0000000E+00;  0.0000000E+00;  0.0000000E+00;  0.0000000E+00;
 -2.0000000E-01;  9.9999998E-03;  1.8000001E-01;68;  0.0000000E+00;  0.0000000E+00;  0.0000000E+00;  1.0000000E+03;  4.0000001E-01;  0.0000000E+00;0;  0.0000000E+00;  0.0000000E+00;  0.0000000E+00;0;  0.0000000E+00;  1.0000000E+04;  0.0000000E+00;  0.0000000E+00;  1.0000000E+04;  0.0000000E+00;  1.0000000E+04;  0.0000000E+00;  0.0000000E+00;  0.0000000E+00;  0.0000000E+00;
 -2.0000000E-01;  9.9999998E-03;  2.0000000E-01;69;  0.0000000E+00;  0.0000000E+00;  0.0000000E+00;  1.0000000E+03;  4.0000001E-01;  0.0000000E+00;0;  0.0000000E+00;  0.0000000E+00;  0.0000000E+00;0;  0.0000000E+00;  1.0000000E+04;  0.0000000E+00;  0.0000000E+00;  1.0000000E+04;  0.0000000E+00;  1.0000000E+04;  0.0000000E+00;  0.0000000E+00;  0.0000000E+00;  0.0000000E+00;
 -2.0000000E-01;  9.9999998E-03;  2.2000000E-01;70;  0.0000000E+00;  0.0000000E+00;  0.0000000E+00;  1.0000000E+03;  4.0000001E-01;  0.0000000E+00;0;  0.0000000E+00;  0.0000000E+00;  0.0000000E+00;0;  0.0000000E+00;  1.0000000E+04;  0.0000000E+00;  0.0000000E+00;  1.0000000E+04;  0.0000000E+00;  1.0000000E+04;  0.0000000E+00;  0.0000000E+00;  0.0000000E+00;  0.0000000E+00;
 -2.0000000E-01;  9.9999998E-03;  2.3999999E-01;71;  0.0000000E+00;  0.0000000E+00;  0.0000000E+00;  1.0000000E+03;  4.0000001E-01;  0.0000000E+00;0;  0.0000000E+00;  0.0000000E+00;  0.0000000E+00;0;  0.0000000E+00;  1.0000000E+04;  0.0000000E+00;  0.0000000E+00;  1.0000000E+04;  0.0000000E+00;  1.0000000E+04;  0.0000000E+00;  0.0000000E+00;  0.0000000E+00;  0.0000000E+00;
 -2.0000000E-01;  9.9999998E-03;  2.5999999E-01;72;  0.0000000E+00;  0.0000000E+00;  0.0000000E+00;  1.0000000E+03;  4.0000001E-01;  0.0000000E+00;0;  0.0000000E+00;  0.0000000E+00;  0.0000000E+00;0;  0.0000000E+00;  1.0000000E+04;  0.0000000E+00;  0.0000000E+00;  1.0000000E+04;  0.0000000E+00;  1.0000000E+04;  0.0000000E+00;  0.0000000E+00;  0.0000000E+00;  0.0000000E+00;
 -2.0000000E-01;  9.9999998E-03;  2.8000000E-01;73;  0.0000000E+00;  0.0000000E+00;  0.0000000E+00;  1.0000000E+03;  4.0000001E-01;  0.0000000E+00;0;  0.0000000E+00;  0.0000000E+00;  0.0000000E+00;0;  0.0000000E+00;  1.0000000E+04;  0.0000000E+00;  0.0000000E+00;  1.0000000E+04;  0.0000000E+00;  1.0000000E+04;  0.0000000E+00;  0.0000000E+00;  0.0000000E+00;  0.0000000E+00;
 -2.0000000E-01;  9.9999998E-03;  3.0000001E-01;74;  0.0000000E+00;  0.0000000E+00;  0.0000000E+00;  1.0000000E+03;  4.0000001E-01;  0.0000000E+00;0;  0.0000000E+00;  0.0000000E+00;  0.0000000E+00;0;  0.0000000E+00;  1.0000000E+04;  0.0000000E+00;  0.0000000E+00;  1.0000000E+04;  0.0000000E+00;  1.0000000E+04;  0.0000000E+00;  0.0000000E+00;  0.0000000E+00;  0.0000000E+00;
 -2.0000000E-01;  9.9999998E-03;  3.1999999E-01;75;  0.0000000E+00;  0.0000000E+00;  0.0000000E+00;  1.0000000E+03;  4.0000001E-01;  0.0000000E+00;0;  0.0000000E+00;  0.0000000E+00;  0.0000000E+00;0;  0.0000000E+00;  1.0000000E+04;  0.0000000E+00;  0.0000000E+00;  1.0000000E+04;  0.0000000E+00;  1.0000000E+04;  0.0000000E+00;  0.0000000E+00;  0.0000000E+00;  0.0000000E+00;
 -1.8000001E-01;  9.9999998E-03;  1.6000000E-01;108;  0.0000000E+00;  0.0000000E+00;  0.0000000E+00;  1.0000000E+03;  4.0000001E-01;  0.0000000E+00;0;  0.0000000E+00;  0.0000000E+00;  0.0000000E+00;0;  0.0000000E+00;  1.0000000E+04;  0.0000000E+00;  0.0000000E+00;  1.0000000E+04;  0.0000000E+00;  1.0000000E+04;  0.0000000E+00;  0.0000000E+00;  0.0000000E+00;  0.0000000E+00;
 -1.8000001E-01;  9.9999998E-03;  1.8000001E-01;109;  0.0000000E+00;  0.0000000E+00;  0.0000000E+00;  1.0000000E+03;  4.0000001E-01;  0.0000000E+00;0;  0.0000000E+00;  0.0000000E+00;  0.0000000E+00;0;  0.0000000E+00;  1.0000000E+04;  0.0000000E+00;  0.0000000E+00;  1.0000000E+04;  0.0000000E+00;  1.0000000E+04;  0.0000000E+00;  0.0000000E+00;  0.0000000E+00;  0.0000000E+00;
 -1.8000001E-01;  9.9999998E-03;  2.0000000E-01;110;  0.0000000E+00;  0.0000000E+00;  0.0000000E+00;  1.0000000E+03;  4.0000001E-01;  0.0000000E+00;0;  0.0000000E+00;  0.0000000E+00;  0.0000000E+00;0;  0.0000000E+00;  1.0000000E+04;  0.0000000E+00;  0.0000000E+00;  1.0000000E+04;  0.0000000E+00;  1.0000000E+04;  0.0000000E+00;  0.0000000E+00;  0.0000000E+00;  0.0000000E+00;
 -1.8000001E-01;  9.9999998E-03;  2.2000000E-01;111;  0.0000000E+00;  0.0000000E+00;  0.0000000E+00;  1.0000000E+03;  4.0000001E-01;  0.0000000E+00;0;  0.0000000E+00;  0.0000000E+00;  0.0000000E+00;0;  0.0000000E+00;  1.0000000E+04;  0.0000000E+00;  0.0000000E+00;  1.0000000E+04;  0.0000000E+00;  1.0000000E+04;  0.0000000E+00;  0.0000000E+00;  0.0000000E+00;  0.0000000E+00;
 -1.8000001E-01;  9.9999998E-03;  2.3999999E-01;112;  0.0000000E+00;  0.0000000E+00;  0.0000000E+00;  1.0000000E+03;  4.0000001E-01;  0.0000000E+00;0;  0.0000000E+00;  0.0000000E+00;  0.0000000E+00;0;  0.0000000E+00;  1.0000000E+04;  0.0000000E+00;  0.0000000E+00;  1.0000000E+04;  0.0000000E+00;  1.0000000E+04;  0.0000000E+00;  0.0000000E+00;  0.0000000E+00;  0.0000000E+00;
 -1.8000001E-01;  9.9999998E-03;  2.5999999E-01;113;  0.0000000E+00;  0.0000000E+00;  0.0000000E+00;  1.0000000E+03;  4.0000001E-01;  0.0000000E+00;0;  0.0000000E+00;  0.0000000E+00;  0.0000000E+00;0;  0.0000000E+00;  1.0000000E+04;  0.0000000E+00;  0.0000000E+00;  1.0000000E+04;  0.0000000E+00;  1.0000000E+04;  0.0000000E+00;  0.0000000E+00;  0.0000000E+00;  0.0000000E+00;
 -1.8000001E-01;  9.9999998E-03;  2.8000000E-01;114;  0.0000000E+00;  0.0000000E+00;  0.0000000E+00;  1.0000000E+03;  4.0000001E-01;  0.0000000E+00;0;  0.0000000E+00;  0.0000000E+00;  0.0000000E+00;0;  0.0000000E+00;  1.0000000E+04;  0.0000000E+00;  0.0000000E+00;  1.0000000E+04;  0.0000000E+00;  1.0000000E+04;  0.0000000E+00;  0.0000000E+00;  0.0000000E+00;  0.0000000E+00;
 -1.8000001E-01;  9.9999998E-03;  3.0000001E-01;115;  0.0000000E+00;  0.0000000E+00;  0.0000000E+00;  1.0000000E+03;  4.0000001E-01;  0.0000000E+00;0;  0.0000000E+00;  0.0000000E+00;  0.0000000E+00;0;  0.0000000E+00;  1.0000000E+04;  0.0000000E+00;  0.0000000E+00;  1.0000000E+04;  0.0000000E+00;  1.0000000E+04;  0.0000000E+00;  0.0000000E+00;  0.0000000E+00;  0.0000000E+00;
 -1.8000001E-01;  9.9999998E-03;  3.1999999E-01;116;  0.0000000E+00;  0.0000000E+00;  0.0000000E+00;  1.0000000E+03;  4.0000001E-01;  0.0000000E+00;0;  0.0000000E+00;  0.0000000E+00;  0.0000000E+00;0;  0.0000000E+00;  1.0000000E+04;  0.0000000E+00;  0.0000000E+00;  1.0000000E+04;  0.0000000E+00;  1.0000000E+04;  0.0000000E+00;  0.0000000E+00;  0.0000000E+00;  0.0000000E+00;
 -1.6000000E-01;  9.9999998E-03;  1.6000000E-01;149;  0.0000000E+00;  0.0000000E+00;  0.0000000E+00;  1.0000000E+03;  4.0000001E-01;  0.0000000E+00;0;  0.0000000E+00;  0.0000000E+00;  0.0000000E+00;0; -3.5602858E-07;  1.0000000E+04;  0.0000000E+00;  0.0000000E+00;  1.0000000E+04;  0.0000000E+00;  1.0000000E+04; -3.5669123E-07;  0.0000000E+00;  6.6266603E-10;  2.1711670E-05;
 -1.6000000E-01;  9.9999998E-03;  1.8000001E-01;150;  0.0000000E+00;  0.0000000E+00;  0.0000000E+00;  1.0000000E+03;  4.0000001E-01;  0.0000000E+00;0;  0.0000000E+00;  0.0000000E+00;  0.0000000E+00;0; -3.4450835E-07;  1.0000000E+04;  0.0000000E+00;  0.0000000E+00;  1.0000000E+04;  0.0000000E+00;  1.0000000E+04; -3.4525183E-07;  0.0000000E+00;  7.4347145E-10;  2.1498439E-05;
 -1.6000000E-01;  9.9999998E-03;  2.0000000E-01;151;  0.0000000E+00;  0.0000000E+00;  0.0000000E+00;  1.0000000E+03;  4.0000001E-01;  0.0000000E+00;0;  0.0000000E+00;  0.0000000E+00;  0.0000000E+00;0; -3.2832125E-07;  1.0000000E+04;  0.0000000E+00;  0.0000000E+00;  1.0000000E+04;  0.0000000E+00;  1.0000000E+04; -3.2910680E-07;  0.0000000E+00;  7.8555634E-10;  2.0851918E-05;
 -1.6000000E-01;  9.9999998E-03;  2.2000000E-01;152;  0.0000000E+00;  0.0000000E+00;  0.0000000E+00;  1.0000000E+03;  4.0000001E-01;  0.0000000E+00;0;  0.0000000E+00;  0.0000000E+00;  0.0000000E+00;0; -3.0647931E-07;  1.0000000E+04;  0.0000000E+00;  0.0000000E+00;  1.0000000E+04;  0.0000000E+00;  1.0000000E+04; -3.0724220E-07;  0.0000000E+00;  7.6289475E-10;  1.9583962E-05;
 -1.6000000E-01;  9.9999998E-03;  2.3999999E-01;153;  0.0000000E+00;  0.0000000E+00;  0.0000000E+00;  1.0000000E+03;  4.0000001E-01;  0.0000000E+00;0;  0.0000000E+00;  0.0000000E+00;  0.0000000E+00;0; -2.7812843E-07;  1.0000000E+04;  0.0000000E+00;  0.0000000E+00;  1.0000000E+04;  0.0000000E+00;  1.0000000E+04; -2.7877797E-07;  0.0000000E+00;  6.4955308E-10;  1.7516815E-05;
 -1.6000000E-01;  9.9999998E-03;  2.5999999E-01;154;  0.0000000E+00;  0.0000000E+00;  0.0000000E+00;  1.0000000E+03;  4.0000001E-01;  0.0000000E+00;0;  0.0000000E+00;  0.0000000E+00;  0.0000000E+00;0; -2.3641326E-07;  1.0000000E+04;  0.0000000E+00;  0.0000000E+00;  1.0000000E+04;  0.0000000E+00;  1.0000000E+04; -2.3611962E-07;  0.0000000E+00; -2.9364222E-10;  9.9691506E-06;
 -1.6000000E-01;  9.9999998E-03;  2.8000000E-01;155;  0.0000000E+00;  0.0000000E+00;  0.0000000E+00;  1.0000000E+03;  4.0000001E-01;  0.0000000E+00;0;  0.0000000E+00;  0.0000000E+00;  0.0000000E+00;0; -1.5914168E-07;  1.0000000E+04;  0.0000000E+00;  0.0000000E+00;  1.0000000E+04;  0.0000000E+00;  1.0000000E+04; -1.5656423E-07;  0.0000000E+00; -2.5774543E-09;  7.9491783E-06;
 -1.6000000E-01;  9.9999998E-03;  3.0000001E-01;156;  0.0000000E+00;  0.0000000E+00;  0.0000000E+00;  1.0000000E+03;  4.0000001E-01;  0.0000000E+00;0;  0.0000000E+00;  0.0000000E+00;  0.0000000E+00;0; -6.7569779E-08;  1.0000000E+04;  0.0000000E+00;  0.0000000E+00;  1.0000000E+04;  0.0000000E+00;  1.0000000E+04; -6.4716410E-08;  0.0000000E+00; -2.8533722E-09;  1.3980162E-05;
 -1.6000000E-01;  9.9999998E-03;  3.1999999E-01;157;  0.0000000E+00;  0.0000000E+00;  0.0000000E+00;  1.0000000E+03;  4.0000001E-01;  0.0000000E+00;0;  0.0000000E+00;  0.0000000E+00;  0.0000000E+00;0; -1.0638787E-08;  1.0000000E+04;  0.0000000E+00;  0.0000000E+00;  1.0000000E+04;  0.0000000E+00;  1.0000000E+04; -9.7942037E-09;  0.0000000E+00; -8.4458290E-10;  4.4916401E-06;
 -1.4000000E-01;  9.9999998E-03;  1.6000000E-01;190;  0.0000000E+00;  0.0000000E+00;  0.0000000E+00;  1.0000000E+03;  4.0000001E-01;  0.0000000E+00;0;  0.0000000E+00;  0.0000000E+00;  0.0000000E+00;0; -1.2990402E-05;  1.0000000E+04;  0.0000000E+00;  0.0000000E+00;  1.0000000E+04;  0.0000000E+00;  1.0000000E+04; -1.3073026E-05;  0.0000000E+00;  8.2623878E-08;  1.1279490E-03;
 -1.4000000E-01;  9.9999998E-03;  1.8000001E-01;191;  0.0000000E+00;  0.0000000E+00;  0.0000000E+00;  1.0000000E+03;  4.0000001E-01;  0.0000000E+00;0;  0.0000000E+00;  0.0000000E+00;  0.0000000E+00;0; -1.2532821E-05;  1.0000000E+04;  0.0000000E+00;  0.0000000E+00;  1.0000000E+04;  0.0000000E+00;  1.0000000E+04; -1.2623567E-05;  0.0000000E+00;  9.0747029E-08;  1.1437781E-03;
 -1.4000000E-01;  9.9999998E-03;  2.0000000E-01;192;  0.0000000E+00;  0.0000000E+00;  0.0000000E+00;  1.0000000E+03;  4.0000001E-01;  0.0000000E+00;0;  0.0000000E+00;  0.0000000E+00;  0.0000000E+00;0; -1.1906591E-05;  1.0000000E+04;  0.0000000E+00;  0.0000000E+00;  1.0000000E+04;  0.0000000E+00;  1.0000000E+04; -1.2000540E-05;  0.0000000E+00;  9.3949417E-08;  1.1251241E-03;
 -1.4000000E-01;  9.9999998E-03;  2.2000000E-01;193;  0.0000000E+00;  0.0000000E+00;  0.0000000E+00;  1.0000000E+03;  4.0000001E-01;  0.0000000E+00;0;  0.0000000E+00;  0.0000000E+00;  0.0000000E+00;0; -1.1059180E-05;  1.0000000E+04;  0.0000000E+00;  0.0000000E+00;  1.0000000E+04;  0.0000000E+00;  1.0000000E+04; -1.1140540E-05;  0.0000000E+00;  8.1359460E-08;  1.0067605E-03;
 -1.4000000E-01;  9.9999998E-03;  2.3999999E-01;194;  0.0000000E+00;  0.0000000E+00;  0.0000000E+00;  1.0000000E+03;  4.0000001E-01;  0.0000000E+00;0;  0.0000000E+00;  0.0000000E+00;  0.0000000E+00;0; -9.8105857E-06;  1.0000000E+04;  0.0000000E+00;  0.0000000E+00;  1.0000000E+04;  0.0000000E+00;  1.0000000E+04; -9.8272067E-06;  0.0000000E+00;  1.6621049E-08;  5.6622515E-04;
 -1.4000000E-01;  9.9999998E-03;  2.5999999E-01;195;  0.0000000E+00;  0.0000000E+00;  0.0000000E+00;  1.0000000E+03;  4.0000001E-01;  0.0000000E+00;0;  0.0000000E+00;  0.0000000E+00;  0.0000000E+00;0; -8.0206446E-06;  1.0000000E+04;  0.0000000E+00;  0.0000000E+00;  1.0000000E+04;  0.0000000E+00;  1.0000000E+04; -7.9264837E-06;  0.0000000E+00; -9.4160903E-08;  1.6896660E-04;
 -1.4000000E-01;  9.9999998E-03;  2.8000000E-01;196;  0.0000000E+00;  0.0000000E+00;  0.0000000E+00;  1.0000000E+03;  4.0000001E-01;  0.0000000E+00;0;  0.0000000E+00;  0.0000000E+00;  0.0000000E+00;0; -5.7990887E-06;  1.0000000E+04;  0.0000000E+00;  0.0000000E+00;  1.0000000E+04;  0.0000000E+00;  1.0000000E+04; -5.6074364E-06;  0.0000000E+00; -1.9165215E-07;  8.4935006E-04;
 -1.4000000E-01;  9.9999998E-03;  3.0000001E-01;197;  0.0000000E+00;  0.0000000E+00;  0.0000000E+00;  1.0000000E+03;  4.0000001E-01;  0.0000000E+00;0;  0.0000000E+00;  0.0000000E+00;  0.0000000E+00;0; -3.5208968E-06;  1.0000000E+04;  0.0000000E+00;  0.0000000E+00;  1.0000000E+04;  0.0000000E+00;  1.0000000E+04; -3.2996436E-06;  0.0000000E+00; -2.2125323E-07;  1.1422210E-03;
 -1.4000000E-01;  9.9999998E-03;  3.1999999E-01;198;  0.0000000E+00;  0.0000000E+00;  0.0000000E+00;  1.0000000E+03;  4.0000001E-01;  0.0000000E+00;0;  0.0000000E+00;  0.0000000E+00;  0.0000000E+00;0; -1.6581270E-06;  1.0000000E+04;  0.0000000E+00;  0.0000000E+00;  1.0000000E+04;  0.0000000E+00;  1.0000000E+04; -1.4872819E-06;  0.0000000E+00; -1.7084508E-07;  9.3737652E-04;
 -1.2000000E-01;  9.9999998E-03;  1.6000000E-01;231;  0.0000000E+00;  0.0000000E+00;  0.0000000E+00;  1.0000000E+03;  4.0000001E-01;  0.0000000E+00;0;  0.0000000E+00;  0.0000000E+00;  0.0000000E+00;0; -7.2157745E-05;  1.0000000E+04;  0.0000000E+00;  0.0000000E+00;  1.0000000E+04;  0.0000000E+00;  1.0000000E+04; -7.2949391E-05;  0.0000000E+00;  7.9164533E-07;  8.2039274E-03;
 -1.2000000E-01;  9.9999998E-03;  1.8000001E-01;232;  0.0000000E+00;  0.0000000E+00;  0.0000000E+00;  1.0000000E+03;  4.0000001E-01;  0.0000000E+00;0;  0.0000000E+00;  0.0000000E+00;  0.0000000E+00;0; -6.9504531E-05;  1.0000000E+04;  0.0000000E+00;  0.0000000E+00;  1.0000000E+04;  0.0000000E+00;  1.0000000E+04; -7.0361137E-05;  0.0000000E+00;  8.5660781E-07;  8.3787385E-03;
 -1.2000000E-01;  9.9999998E-03;  2.0000000E-01;233;  0.0000000E+00;  0.0000000E+00;  0.0000000E+00;  1.0000000E+03;  4.0000001E-01;  0.0000000E+00;0;  0.0000000E+00;  0.0000000E+00;  0.0000000E+00;0; -6.5869732E-05;  1.0000000E+04;  0.0000000E+00;  0.0000000E+00;  1.0000000E+04;  0.0000000E+00;  1.0000000E+04; -6.6701868E-05;  0.0000000E+00;  8.3213610E-07;  8.0048218E-03;
 -1.2000000E-01;  9.9999998E-03;  2.2000000E-01;234;  0.0000000E+00;  0.0000000E+00;  0.0000000E+00;  1.0000000E+03;  4.0000001E-01;  0.0000000E+00;0;  0.0000000E+00;  0.0000000E+00;  0.0000000E+00;0; -6.0805021E-05;  1.0000000E+04;  0.0000000E+00;  0.0000000E+00;  1.0000000E+04;  0.0000000E+00;  1.0000000E+04; -6.1371618E-05;  0.0000000E+00;  5.6659616E-07;  6.1756121E-03;
 -1.2000000E-01;  9.9999998E-03;  2.3999999E-01;235;  0.0000000E+00;  0.0000000E+00;  0.0000000E+00;  1.0000000E+03;  4.0000001E-01;  0.0000000E+00;0;  0.0000000E+00;  0.0000000E+00;  0.0000000E+00;0; -5.3841566E-05;  1.0000000E+04;  0.0000000E+00;  0.0000000E+00;  1.0000000E+04;  0.0000000E+00;  1.0000000E+04; -5.3845346E-05;  0.0000000E+00;  3.7810972E-09;  2.5336603E-03;
 -1.2000000E-01;  9.9999998E-03;  2.5999999E-01;236;  0.0000000E+00;  0.0000000E+00;  0.0000000E+00;  1.0000000E+03;  4.0000001E-01;  0.0000000E+00;0;  0.0000000E+00;  0.0000000E+00;  0.0000000E+00;0; -4.4774239E-05;  1.0000000E+04;  0.0000000E+00;  0.0000000E+00;  1.0000000E+04;  0.0000000E+00;  1.0000000E+04; -4.4027533E-05;  0.0000000E+00; -7.4670561E-07;  2.3024809E-03;
 -1.2000000E-01;  9.9999998E-03;  2.8000000E-01;237;  0.0000000E+00;  0.0000000E+00;  0.0000000E+00;  1.0000000E+03;  4.0000001E-01;  0.0000000E+00;0;  0.0000000E+00;  0.0000000E+00;  0.0000000E+00;0; -3.4075889E-05;  1.0000000E+04;  0.0000000E+00;  0.0000000E+00;  1.0000000E+04;  0.0000000E+00;  1.0000000E+04; -3.2663993E-05;  0.0000000E+00; -1.4118953E-06;  6.7190407E-03;
 -1.2000000E-01;  9.9999998E-03;  3.0000001E-01;238;  0.0000000E+00;  0.0000000E+00;  0.0000000E+00;  1.0000000E+03;  4.0000001E-01;  0.0000000E+00;0;  0.0000000E+00;  0.0000000E+00;  0.0000000E+00;0; -2.3077611E-05;  1.0000000E+04;  0.0000000E+00;  0.0000000E+00;  1.0000000E+04;  0.0000000E+00;  1.0000000E+04; -2.1340456E-05;  0.0000000E+00; -1.7371557E-06;  9.1677681E-03;
 -1.2000000E-01;  9.9999998E-03;  3.1999999E-01;239;  0.0000000E+00;  0.0000000E+00;  0.0000000E+00;  1.0000000E+03;  4.0000001E-01;  0.0000000E+00;0;  0.0000000E+00;  0.0000000E+00;  0.0000000E+00;0; -1.3451483E-05;  1.0000000E+04;  0.0000000E+00;  0.0000000E+00;  1.0000000E+04;  0.0000000E+00;  1.0000000E+04; -1.1828569E-05;  0.0000000E+00; -1.6229142E-06;  8.9791212E-03;
 -1.0000000E-01;  9.9999998E-03;  1.6000000E-01;272;  0.0000000E+00;  0.0000000E+00;  0.0000000E+00;  1.0000001E+03;  4.0000001E-01;  9.8762624E-02;0;  0.0000000E+00;  0.0000000E+00;  0.0000000E+00;0; -2.3173864E-04;  1.0000000E+04;  0.0000000E+00;  0.0000000E+00;  1.0000000E+04;  0.0000000E+00;  1.0000000E+04; -2.3533552E-04;  0.0000000E+00;  3.5968912E-06;  3.2590125E-02;
 -1.0000000E-01;  9.9999998E-03;  1.8000001E-01;273;  0.0000000E+00;  0.0000000E+00;  0.0000000E+00;  1.0000001E+03;  4.0000001E-01;  9.8762624E-02;0;  0.0000000E+00;  0.0000000E+00;  0.0000000E+00;0; -2.2298655E-04;  1.0000000E+04;  0.0000000E+00;  0.0000000E+00;  1.0000000E+04;  0.0000000E+00;  1.0000000E+04; -2.2678381E-04;  0.0000000E+00;  3.7972602E-06;  3.3026535E-02;
 -1.0000000E-01;  9.9999998E-03;  2.0000000E-01;274;  0.0000000E+00;  0.0000000E+00;  0.0000000E+00;  1.0000001E+03;  4.0000001E-01;  9.8762624E-02;0;  0.0000000E+00;  0.0000000E+00;  0.0000000E+00;0; -2.1099453E-04;  1.0000000E+04;  0.0000000E+00;  0.0000000E+00;  1.0000000E+04;  0.0000000E+00;  1.0000000E+04; -2.1445220E-04;  0.0000000E+00;  3.4576617E-06;  3.0231792E-02;
 -1.0000000E-01;  9.9999998E-03;  2.2000000E-01;275;  0.0000000E+00;  0.0000000E+00;  0.0000000E+00;  1.0000001E+03;  4.0000001E-01;  9.8762624E-02;0;  0.0000000E+00;  0.0000000E+00;  0.0000000E+00;0; -1.9475514E-04;  1.0000000E+04;  0.0000000E+00;  0.0000000E+00;  1.0000000E+04;  0.0000000E+00;  1.0000000E+04; -1.9697958E-04;  0.0000000E+00;  2.2244471E-06;  2.2087168E-02;
 -1.0000000E-01;  9.9999998E-03;  2.3999999E-01;276;  0.0000000E+00;  0.0000000E+00;  0.0000000E+00;  1.0000001E+03;  4.0000001E-01;  9.8762624E-02;0;  0.0000000E+00;  0.0000000E+00;  0.0000000E+00;0; -1.7328867E-04;  1.0000000E+04;  0.0000000E+00;  0.0000000E+00;  1.0000000E+04;  0.0000000E+00;  1.0000000E+04; -1.7326325E-04;  0.0000000E+00; -2.5427550E-08;  7.7843238E-03;
 -1.0000000E-01;  9.9999998E-03;  2.5999999E-01;277;  0.0000000E+00;  0.0000000E+00;  0.0000000E+00;  1.0000001E+03;  4.0000001E-01;  9.8762624E-02;0;  0.0000000E+00;  0.0000000E+00;  0.0000000E+00;0; -1.4619509E-04;  1.0000000E+04;  0.0000000E+00;  0.0000000E+00;  1.0000000E+04;  0.0000000E+00;  1.0000000E+04; -1.4329675E-04;  0.0000000E+00; -2.8983334E-06;  1.0439740E-02;
 -1.0000000E-01;  9.9999998E-03;  2.8000000E-01;278;  0.0000000E+00;  0.0000000E+00;  0.0000000E+00;  1.0000000E+03;  4.0000001E-01;  0.0000000E+00;0;  0.0000000E+00;  0.0000000E+00;  0.0000000E+00;0; -1.1462418E-04;  1.0000000E+04;  0.0000000E+00;  0.0000000E+00;  1.0000000E+04;  0.0000000E+00;  1.0000000E+04; -1.0911447E-04;  0.0000000E+00; -5.5097212E-06;  2.7352726E-02;
 -1.0000000E-01;  9.9999998E-03;  3.0000001E-01;279;  0.0000000E+00;  0.0000000E+00;  0.0000000E+00;  1.0000000E+03;  4.0000001E-01;  0.0000000E+00;0;  0.0000000E+00;  0.0000000E+00;  0.0000000E+00;0; -8.1895821E-05;  1.0000000E+04;  0.0000000E+00;  0.0000000E+00;  1.0000000E+04;  0.0000000E+00;  1.0000000E+04; -7.4850272E-05;  0.0000000E+00; -7.0455480E-06;  3.7988320E-02;
 -1.0000000E-01;  9.9999998E-03;  3.1999999E-01;280;  0.0000000E+00;  0.0000000E+00;  0.0000000E+00;  1.0000000E+03;  4.0000001E-01;  0.0000000E+00;0;  0.0000000E+00;  0.0000000E+00;  0.0000000E+00;0; -5.2383053E-05;  1.0000000E+04;  0.0000000E+00;  0.0000000E+00;  1.0000000E+04;  0.0000000E+00;  1.0000000E+04; -4.5235443E-05;  0.0000000E+00; -7.1476115E-06;  3.9997172E-02;
 -7.9999998E-02;  9.9999998E-03;  1.6000000E-01;313;  0.0000000E+00;  0.0000000E+00;  0.0000000E+00;  1.0000004E+03;  4.0000001E-01;  2.9628786E-01;0;  0.0000000E+00;  0.0000000E+00;  0.0000000E+00;0; -5.5749126E-04;  1.0000000E+04;  0.0000000E+00;  0.0000000E+00;  1.0000000E+04;  0.0000000E+00;  1.0000000E+04; -5.6851364E-04;  0.0000000E+00;  1.1022366E-05;  9.2746697E-02;
 -7.9999998E-02;  9.9999998E-03;  1.8000001E-01;314;  0.0000000E+00;  0.0000000E+00;  0.0000000E+00;  1.0000004E+03;  4.0000001E-01;  2.9628786E-01;0;  0.0000000E+00;  0.0000000E+00;  0.0000000E+00;0; -5.3624023E-04;  1.0000000E+04;  0.0000000E+00;  0.0000000E+00;  1.0000000E+04;  0.0000000E+00;  1.0000000E+04; -5.4760120E-04;  0.0000000E+00;  1.1360959E-05;  9.2810944E-02;
 -7.9999998E-02;  9.9999998E-03;  2.0000000E-01;315;  0.0000000E+00;  0.0000000E+00;  0.0000000E+00;  1.0000004E+03;  4.0000001E-01;  2.9628786E-01;0;  0.0000000E+00;  0.0000000E+00;  0.0000000E+00;0; -5.0750608E-04;  1.0000000E+04;  0.0000000E+00;  0.0000000E+00;  1.0000000E+04;  0.0000000E+00;  1.0000000E+04; -5.1763438E-04;  0.0000000E+00;  1.0128314E-05;  8.3527170E-02;
 -7.9999998E-02;  9.9999998E-03;  2.2000000E-01;316;  0.0000000E+00;  0.0000000E+00;  0.0000000E+00;  1.0000003E+03;  4.0000001E-01;  2.9628786E-01;0;  0.0000000E+00;  0.0000000E+00;  0.0000000E+00;0; -4.6937395E-04;  1.0000000E+04;  0.0000000E+00;  0.0000000E+00;  1.0000000E+04;  0.0000000E+00;  1.0000000E+04; -4.7582816E-04;  0.0000000E+00;  6.4542087E-06;  5.9654307E-02;
 -7.9999998E-02;  9.9999998E-03;  2.3999999E-01;317;  0.0000000E+00;  0.0000000E+00;  0.0000000E+00;  1.0000003E+03;  4.0000001E-01;  2.9628786E-01;0;  0.0000000E+00;  0.0000000E+00;  0.0000000E+00;0; -4.1990026E-04;  1.0000000E+04;  0.0000000E+00;  0.0000000E+00;  1.0000000E+04;  0.0000000E+00;  1.0000000E+04; -4.1997086E-04;  0.0000000E+00;  7.0592961E-08;  1.9377744E-02;
 -7.9999998E-02;  9.9999998E-03;  2.5999999E-01;318;  0.0000000E+00;  0.0000000E+00;  0.0000000E+00;  1.0000002E+03;  4.0000001E-01;  1.9752525E-01;0;  0.0000000E+00;  0.0000000E+00;  0.0000000E+00;0; -3.5815357E-04;  1.0000000E+04;  0.0000000E+00;  0.0000000E+00;  1.0000000E+04;  0.0000000E+00;  1.0000000E+04; -3.5018771E-04;  0.0000000E+00; -7.9658748E-06;  3.1258710E-02;
 -7.9999998E-02;  9.9999998E-03;  2.8000000E-01;319;  0.0000000E+00;  0.0000000E+00;  0.0000000E+00;  1.0000002E+03;  4.0000001E-01;  1.9752525E-01;0;  0.0000000E+00;  0.0000000E+00;  0.0000000E+00;0; -2.8624939E-04;  1.0000000E+04;  0.0000000E+00;  0.0000000E+00;  1.0000000E+04;  0.0000000E+00;  1.0000000E+04; -2.7084028E-04;  0.0000000E+00; -1.5409096E-05;  7.8918181E-02;
 -7.9999998E-02;  9.9999998E-03;  3.0000001E-01;320;  0.0000000E+00;  0.0000000E+00;  0.0000000E+00;  1.0000001E+03;  4.0000001E-01;  9.8762624E-02;0;  0.0000000E+00;  0.0000000E+00;  0.0000000E+00;0; -2.1103350E-04;  1.0000000E+04;  0.0000000E+00;  0.0000000E+00;  1.0000000E+04;  0.0000000E+00;  1.0000000E+04; -1.9082875E-04;  0.0000000E+00; -2.0204756E-05;  1.1104818E-01;
 -7.9999998E-02;  9.9999998E-03;  3.1999999E-01;321;  0.0000000E+00;  0.0000000E+00;  0.0000000E+00;  1.0000001E+03;  4.0000001E-01;  9.8762624E-02;0;  0.0000000E+00;  0.0000000E+00;  0.0000000E+00;0; -1.4194100E-04;  1.0000000E+04;  0.0000000E+00;  0.0000000E+00;  1.0000000E+04;  0.0000000E+00;  1.0000000E+04; -1.2053258E-04;  0.0000000E+00; -2.1408412E-05;  1.2147860E-01;
 -5.9999999E-02;  9.9999998E-03;  1.6000000E-01;354;  0.0000000E+00;  0.0000000E+00;  0.0000000E+00;  1.0000008E+03;  4.0000001E-01;  6.9133836E-01;0;  0.0000000E+00;  0.0000000E+00;  0.0000000E+00;0; -1.0979545E-03;  1.0000000E+04;  0.0000000E+00;  0.0000000E+00;  1.0000000E+04;  0.0000000E+00;  1.0000000E+04; -1.1241809E-03;  0.0000000E+00;  2.6226362E-05;  2.1080247E-01;
 -5.9999999E-02;  9.9999998E-03;  1.8000001E-01;355;  0.0000000E+00;  0.0000000E+00;  0.0000000E+00;  1.0000007E+03;  4.0000001E-01;  5.9257573E-01;0;  0.0000000E+00;  0.0000000E+00;  0.0000000E+00;0; -1.0565239E-03;  1.0000000E+04;  0.0000000E+00;  0.0000000E+00;  1.0000000E+04;  0.0000000E+00;  1.0000000E+04; -1.0832769E-03;  0.0000000E+00;  2.6753100E-05;  2.0987137E-01;
 -5.9999999E-02;  9.9999998E-03;  2.0000000E-01;356;  0.0000000E+00;  0.0000000E+00;  0.0000000E+00;  1.0000007E+03;  4.0000001E-01;  5.9257573E-01;0;  0.0000000E+00;  0.0000000E+00;  0.0000000E+00;0; -1.0011388E-03;  1.0000000E+04;  0.0000000E+00;  0.0000000E+00;  1.0000000E+04;  0.0000000E+00;  1.0000000E+04; -1.0248417E-03;  0.0000000E+00;  2.3702885E-05;  1.8766175E-01;
 -5.9999999E-02;  9.9999998E-03;  2.2000000E-01;357;  0.0000000E+00;  0.0000000E+00;  0.0000000E+00;  1.0000007E+03;  4.0000001E-01;  5.9257573E-01;0;  0.0000000E+00;  0.0000000E+00;  0.0000000E+00;0; -9.2854962E-04;  1.0000000E+04;  0.0000000E+00;  0.0000000E+00;  1.0000000E+04;  0.0000000E+00;  1.0000000E+04; -9.4374444E-04;  0.0000000E+00;  1.5194798E-05;  1.3274436E-01;
 -5.9999999E-02;  9.9999998E-03;  2.3999999E-01;358;  0.0000000E+00;  0.0000000E+00;  0.0000000E+00;  1.0000007E+03;  4.0000001E-01;  5.9257573E-01;0;  0.0000000E+00;  0.0000000E+00;  0.0000000E+00;0; -8.3521707E-04;  1.0000000E+04;  0.0000000E+00;  0.0000000E+00;  1.0000000E+04;  0.0000000E+00;  1.0000000E+04; -8.3592255E-04;  0.0000000E+00;  7.0546224E-07;  4.1488249E-02;
 -5.9999999E-02;  9.9999998E-03;  2.5999999E-01;359;  0.0000000E+00;  0.0000000E+00;  0.0000000E+00;  1.0000005E+03;  4.0000001E-01;  3.9505050E-01;0;  0.0000000E+00;  0.0000000E+00;  0.0000000E+00;0; -7.1896991E-04;  1.0000000E+04;  0.0000000E+00;  0.0000000E+00;  1.0000000E+04;  0.0000000E+00;  1.0000000E+04; -7.0144661E-04;  0.0000000E+00; -1.7523294E-05;  7.3192433E-02;
 -5.9999999E-02;  9.9999998E-03;  2.8000000E-01;360;  0.0000000E+00;  0.0000000E+00;  0.0000000E+00;  1.0000004E+03;  4.0000001E-01;  3.9505050E-01;0;  0.0000000E+00;  0.0000000E+00;  0.0000000E+00;0; -5.8274105E-04;  1.0000000E+04;  0.0000000E+00;  0.0000000E+00;  1.0000000E+04;  0.0000000E+00;  1.0000000E+04; -5.4802123E-04;  0.0000000E+00; -3.4719844E-05;  1.8279710E-01;
 -5.9999999E-02;  9.9999998E-03;  3.0000001E-01;361;  0.0000000E+00;  0.0000000E+00;  0.0000000E+00;  1.0000003E+03;  4.0000001E-01;  2.9628786E-01;0;  0.0000000E+00;  0.0000000E+00;  0.0000000E+00;0; -4.3858378E-04;  1.0000000E+04;  0.0000000E+00;  0.0000000E+00;  1.0000000E+04;  0.0000000E+00;  1.0000000E+04; -3.9218314E-04;  0.0000000E+00; -4.6400655E-05;  2.5983989E-01;
 -5.9999999E-02;  9.9999998E-03;  3.1999999E-01;362;  0.0000000E+00;  0.0000000E+00;  0.0000000E+00;  1.0000002E+03;  4.0000001E-01;  1.9752525E-01;0;  0.0000000E+00;  0.0000000E+00;  0.0000000E+00;0; -3.0432100E-04;  1.0000000E+04;  0.0000000E+00;  0.0000000E+00;  1.0000000E+04;  0.0000000E+00;  1.0000000E+04; -2.5387952E-04;  0.0000000E+00; -5.0441475E-05;  2.9048282E-01;
 -3.9999999E-02;  9.9999998E-03;  1.6000000E-01;395;  0.0000000E+00;  0.0000000E+00;  0.0000000E+00;  1.0000015E+03;  4.0000001E-01;  1.1851515E+00;0;  0.0000000E+00;  0.0000000E+00;  0.0000000E+00;0; -1.8515086E-03;  1.0000000E+04;  0.0000000E+00;  0.0000000E+00;  1.0000000E+04;  0.0000000E+00;  1.0000000E+04; -1.9037252E-03;  0.0000000E+00;  5.2216539E-05;  4.0687126E-01;
 -3.9999999E-02;  9.9999998E-03;  1.8000001E-01;396;  0.0000000E+00;  0.0000000E+00;  0.0000000E+00;  1.0000013E+03;  4.0000001E-01;  1.0863888E+00;0;  0.0000000E+00;  0.0000000E+00;  0.0000000E+00;0; -1.7834610E-03;  1.0000000E+04;  0.0000000E+00;  0.0000000E+00;  1.0000000E+04;  0.0000000E+00;  1.0000000E+04; -1.8365590E-03;  0.0000000E+00;  5.3098032E-05;  4.0488377E-01;
 -3.9999999E-02;  9.9999998E-03;  2.0000000E-01;397;  0.0000000E+00;  0.0000000E+00;  0.0000000E+00;  1.0000012E+03;  4.0000001E-01;  9.8762625E-01;0;  0.0000000E+00;  0.0000000E+00;  0.0000000E+00;0; -1.6932085E-03;  1.0000000E+04;  0.0000000E+00;  0.0000000E+00;  1.0000000E+04;  0.0000000E+00;  1.0000000E+04; -1.7402867E-03;  0.0000000E+00;  4.7078243E-05;  3.6165801E-01;
 -3.9999999E-02;  9.9999998E-03;  2.2000000E-01;398;  0.0000000E+00;  0.0000000E+00;  0.0000000E+00;  1.0000012E+03;  4.0000001E-01;  9.8762625E-01;0;  0.0000000E+00;  0.0000000E+00;  0.0000000E+00;0; -1.5758098E-03;  1.0000000E+04;  0.0000000E+00;  0.0000000E+00;  1.0000000E+04;  0.0000000E+00;  1.0000000E+04; -1.6064601E-03;  0.0000000E+00;  3.0650292E-05;  2.5564346E-01;
 -3.9999999E-02;  9.9999998E-03;  2.3999999E-01;399;  0.0000000E+00;  0.0000000E+00;  0.0000000E+00;  1.0000010E+03;  4.0000001E-01;  8.8886362E-01;0;  0.0000000E+00;  0.0000000E+00;  0.0000000E+00;0; -1.4254748E-03;  1.0000000E+04;  0.0000000E+00;  0.0000000E+00;  1.0000000E+04;  0.0000000E+00;  1.0000000E+04; -1.4282652E-03;  0.0000000E+00;  2.7905071E-06;  7.9723135E-02;
 -3.9999999E-02;  9.9999998E-03;  2.5999999E-01;400;  0.0000000E+00;  0.0000000E+00;  0.0000000E+00;  1.0000010E+03;  4.0000001E-01;  7.9010099E-01;0;  0.0000000E+00;  0.0000000E+00;  0.0000000E+00;0; -1.2377675E-03;  1.0000000E+04;  0.0000000E+00;  0.0000000E+00;  1.0000000E+04;  0.0000000E+00;  1.0000000E+04; -1.2051609E-03;  0.0000000E+00; -3.2606658E-05;  1.4347614E-01;
 -3.9999999E-02;  9.9999998E-03;  2.8000000E-01;401;  0.0000000E+00;  0.0000000E+00;  0.0000000E+00;  1.0000007E+03;  4.0000001E-01;  5.9257573E-01;0;  0.0000000E+00;  0.0000000E+00;  0.0000000E+00;0; -1.0153380E-03;  1.0000000E+04;  0.0000000E+00;  0.0000000E+00;  1.0000000E+04;  0.0000000E+00;  1.0000000E+04; -9.4855728E-04;  0.0000000E+00; -6.6780711E-05;  3.6121011E-01;
 -3.9999999E-02;  9.9999998E-03;  3.0000001E-01;402;  0.0000000E+00;  0.0000000E+00;  0.0000000E+00;  1.0000005E+03;  4.0000001E-01;  4.9381313E-01;0;  0.0000000E+00;  0.0000000E+00;  0.0000000E+00;0; -7.7611831E-04;  1.0000000E+04;  0.0000000E+00;  0.0000000E+00;  1.0000000E+04;  0.0000000E+00;  1.0000000E+04; -6.8527518E-04;  0.0000000E+00; -9.0843118E-05;  5.1878417E-01;
 -3.9999999E-02;  9.9999998E-03;  3.1999999E-01;403;  0.0000000E+00;  0.0000000E+00;  0.0000000E+00;  1.0000004E+03;  4.0000001E-01;  2.9628786E-01;0;  0.0000000E+00;  0.0000000E+00;  0.0000000E+00;0; -5.5005401E-04;  1.0000000E+04;  0.0000000E+00;  0.0000000E+00;  1.0000000E+04;  0.0000000E+00;  1.0000000E+04; -4.4969033E-04;  0.0000000E+00; -1.0036370E-04;  5.8743244E-01;
 -2.0000000E-02;  9.9999998E-03;  1.6000000E-01;436;  0.0000000E+00;  0.0000000E+00;  0.0000000E+00;  1.0000021E+03;  4.0000001E-01;  1.6789646E+00;0;  0.0000000E+00;  0.0000000E+00;  0.0000000E+00;0; -2.7507485E-03;  1.0000000E+04;  0.0000000E+00;  0.0000000E+00;  1.0000000E+04;  0.0000000E+00;  1.0000000E+04; -2.8412552E-03;  0.0000000E+00;  9.0506597E-05;  6.9093692E-01;
 -2.0000000E-02;  9.9999998E-03;  1.8000001E-01;437;  0.0000000E+00;  0.0000000E+00;  0.0000000E+00;  1.0000021E+03;  4.0000001E-01;  1.6789646E+00;0;  0.0000000E+00;  0.0000000E+00;  0.0000000E+00;0; -2.6538572E-03;  1.0000000E+04;  0.0000000E+00;  0.0000000E+00;  1.0000000E+04;  0.0000000E+00;  1.0000000E+04; -2.7459403E-03;  0.0000000E+00;  9.2083166E-05;  6.8897724E-01;
 -2.0000000E-02;  9.9999998E-03;  2.0000000E-01;438;  0.0000000E+00;  0.0000000E+00;  0.0000000E+00;  1.0000019E+03;  4.0000001E-01;  1.5802020E+00;0;  0.0000000E+00;  0.0000000E+00;  0.0000000E+00;0; -2.5258702E-03;  1.0000000E+04;  0.0000000E+00;  0.0000000E+00;  1.0000000E+04;  0.0000000E+00;  1.0000000E+04; -2.6079218E-03;  0.0000000E+00;  8.2051498E-05;  6.1702263E-01;
 -2.0000000E-02;  9.9999998E-03;  2.2000000E-01;439;  0.0000000E+00;  0.0000000E+00;  0.0000000E+00;  1.0000018E+03;  4.0000001E-01;  1.4814394E+00;0;  0.0000000E+00;  0.0000000E+00;  0.0000000E+00;0; -2.3599600E-03;  1.0000000E+04;  0.0000000E+00;  0.0000000E+00;  1.0000000E+04;  0.0000000E+00;  1.0000000E+04; -2.4145520E-03;  0.0000000E+00;  5.4592139E-05;  4.3881705E-01;
 -2.0000000E-02;  9.9999998E-03;  2.3999999E-01;440;  0.0000000E+00;  0.0000000E+00;  0.0000000E+00;  1.0000016E+03;  4.0000001E-01;  1.3826767E+00;0;  0.0000000E+00;  0.0000000E+00;  0.0000000E+00;0; -2.1476410E-03;  1.0000000E+04;  0.0000000E+00;  0.0000000E+00;  1.0000000E+04;  0.0000000E+00;  1.0000000E+04; -2.1554171E-03;  0.0000000E+00;  7.7761688E-06;  1.4106178E-01;
 -2.0000000E-02;  9.9999998E-03;  2.5999999E-01;441;  0.0000000E+00;  0.0000000E+00;  0.0000000E+00;  1.0000015E+03;  4.0000001E-01;  1.1851515E+00;0;  0.0000000E+00;  0.0000000E+00;  0.0000000E+00;0; -1.8814497E-03;  1.0000000E+04;  0.0000000E+00;  0.0000000E+00;  1.0000000E+04;  0.0000000E+00;  1.0000000E+04; -1.8287563E-03;  0.0000000E+00; -5.2693475E-05;  2.4269687E-01;
 -2.0000000E-02;  9.9999998E-03;  2.8000000E-01;442;  0.0000000E+00;  0.0000000E+00;  0.0000000E+00;  1.0000012E+03;  4.0000001E-01;  9.8762625E-01;0;  0.0000000E+00;  0.0000000E+00;  0.0000000E+00;0; -1.5621363E-03;  1.0000000E+04;  0.0000000E+00;  0.0000000E+00;  1.0000000E+04;  0.0000000E+00;  1.0000000E+04; -1.4492298E-03;  0.0000000E+00; -1.1290658E-04;  6.2769949E-01;
 -2.0000000E-02;  9.9999998E-03;  3.0000001E-01;443;  0.0000000E+00;  0.0000000E+00;  0.0000000E+00;  1.0000010E+03;  4.0000001E-01;  7.9010099E-01;0;  0.0000000E+00;  0.0000000E+00;  0.0000000E+00;0; -1.2111848E-03;  1.0000000E+04;  0.0000000E+00;  0.0000000E+00;  1.0000000E+04;  0.0000000E+00;  1.0000000E+04; -1.0544722E-03;  0.0000000E+00; -1.5671262E-04;  9.1411287E-01;
 -2.0000000E-02;  9.9999998E-03;  3.1999999E-01;444;  0.0000000E+00;  0.0000000E+00;  0.0000000E+00;  1.0000007E+03;  4.0000001E-01;  5.9257573E-01;0;  0.0000000E+00;  0.0000000E+00;  0.0000000E+00;0; -8.7302481E-04;  1.0000000E+04;  0.0000000E+00;  0.0000000E+00;  1.0000000E+04;  0.0000000E+00;  1.0000000E+04; -6.9780531E-04;  0.0000000E+00; -1.7521949E-04;  1.0444841E+00;
  0.0000000E+00;  9.9999998E-03;  3.0000001E-01;455;  0.0000000E+00;  0.0000000E+00;  0.0000000E+00;  1.0000012E+03;  4.0000001E-01;  9.8762625E-01;0;  0.0000000E+00;  0.0000000E+00;  0.0000000E+00;0; -1.7078312E-03;  1.0000000E+04;  0.0000000E+00;  0.0000000E+00;  1.0000000E+04;  0.0000000E+00;  1.0000000E+04; -1.4660174E-03;  0.0000000E+00; -2.4181372E-04;  1.4444643E+00;
  0.0000000E+00;  9.9999998E-03;  3.1999999E-01;456;  0.0000000E+00;  0.0000000E+00;  0.0000000E+00;  1.0000010E+03;  4.0000001E-01;  7.9010099E-01;0;  0.0000000E+00;  0.0000000E+00;  0.0000000E+00;0; -1.2518312E-03;  1.0000000E+04;  0.0000000E+00;  0.0000000E+00;  1.0000000E+04;  0.0000000E+00;  1.0000000E+04; -9.7747124E-04;  0.0000000E+00; -2.7435992E-04;  1.6704638E+00;
  2.0000000E-02;  9.9999998E-03;  3.1999999E-01;466;  0.0000000E+00;  0.0000000E+00;  0.0000000E+00;  1.0000013E+03;  4.0000001E-01;  1.0863888E+00;0;  0.0000000E+00;  0.0000000E+00;  0.0000000E+00;0; -1.6642741E-03;  1.0000000E+04;  0.0000000E+00;  0.0000000E+00;  1.0000000E+04;  0.0000000E+00;  1.0000000E+04; -1.2730493E-03;  0.0000000E+00; -3.9122481E-04;  2.4426816E+00;
  3.9999999E-02;  9.9999998E-03;  3.1999999E-01;476;  0.0000000E+00;  0.0000000E+00;  0.0000000E+00;  1.0000017E+03;  4.0000001E-01;  1.3826767E+00;0;  0.0000000E+00;  0.0000000E+00;  0.0000000E+00;0; -2.1138669E-03;  1.0000000E+04;  0.0000000E+00;  0.0000000E+00;  1.0000000E+04;  0.0000000E+00;  1.0000000E+04; -1.5971658E-03;  0.0000000E+00; -5.1670102E-04;  3.3244984E+00;
  5.9999999E-02;  9.9999998E-03;  3.1999999E-01;486;  0.0000000E+00;  0.0000000E+00;  0.0000000E+00;  1.0000021E+03;  4.0000001E-01;  1.7777272E+00;0;  0.0000000E+00;  0.0000000E+00;  0.0000000E+00;0; -2.6381074E-03;  1.0000000E+04;  0.0000000E+00;  0.0000000E+00;  1.0000000E+04;  0.0000000E+00;  1.0000000E+04; -1.9894214E-03;  0.0000000E+00; -6.4868596E-04;  4.3213663E+00;
  7.9999998E-02;  9.9999998E-03;  3.1999999E-01;496;  0.0000000E+00;  0.0000000E+00;  0.0000000E+00;  1.0000028E+03;  4.0000001E-01;  2.3703029E+00;0;  0.0000000E+00;  0.0000000E+00;  0.0000000E+00;0; -3.3058941E-03;  1.0000000E+04;  0.0000000E+00;  0.0000000E+00;  1.0000000E+04;  0.0000000E+00;  1.0000000E+04; -2.5128478E-03;  0.0000000E+00; -7.9304632E-04;  5.4983053E+00;
  1.0000000E-01;  9.9999998E-03;  3.1999999E-01;506;  0.0000000E+00;  0.0000000E+00;  0.0000000E+00;  1.0000037E+03;  4.0000001E-01;  3.0616415E+00;0;  0.0000000E+00;  0.0000000E+00;  0.0000000E+00;0; -4.2367661E-03;  1.0000000E+04;  0.0000000E+00;  0.0000000E+00;  1.0000000E+04;  0.0000000E+00;  1.0000000E+04; -3.2715765E-03;  0.0000000E+00; -9.6518954E-04;  7.3226299E+00;
  1.2000000E-01;  9.9999998E-03;  3.1999999E-01;516;  0.0000000E+00;  0.0000000E+00;  0.0000000E+00;  1.0000050E+03;  4.0000001E-01;  4.1480303E+00;0;  0.0000000E+00;  0.0000000E+00;  0.0000000E+00;0; -5.6141187E-03;  1.0000000E+04;  0.0000000E+00;  0.0000000E+00;  1.0000000E+04;  0.0000000E+00;  1.0000000E+04; -4.4182381E-03;  0.0000000E+00; -1.1958805E-03;  1.3066801E+01;
  1.4000000E-01;  9.9999998E-03;  3.1999999E-01;526;  0.0000000E+00;  0.0000000E+00;  0.0000000E+00;  1.0000070E+03;  4.0000001E-01;  5.8269949E+00;0;  0.0000000E+00;  0.0000000E+00;  0.0000000E+00;0; -7.6987133E-03;  1.0000000E+04;  0.0000000E+00;  0.0000000E+00;  1.0000000E+04;  0.0000000E+00;  1.0000000E+04; -6.1566667E-03;  0.0000000E+00; -1.5420467E-03;  3.1755432E+01;
  1.6000000E-01;  9.9999998E-03;  3.1999999E-01;536;  0.0000000E+00;  0.0000000E+00;  0.0000000E+00;  1.0000101E+03;  4.0000001E-01;  8.2960606E+00;0;  0.0000000E+00;  0.0000000E+00;  0.0000000E+00;0; -1.0797475E-02;  1.0000000E+04;  0.0000000E+00;  0.0000000E+00;  1.0000000E+04;  0.0000000E+00;  1.0000000E+04; -8.6923866E-03;  0.0000000E+00; -2.1050891E-03;  7.6566879E+01;
  1.8000001E-01;  9.9999998E-03;  3.1999999E-01;546;  0.0000000E+00;  0.0000000E+00;  0.0000000E+00;  1.0000145E+03;  4.0000001E-01;  1.2049040E+01;0;  0.0000000E+00;  0.0000000E+00;  0.0000000E+00;0; -1.5118625E-02;  1.0000000E+04;  0.0000000E+00;  0.0000000E+00;  1.0000000E+04;  0.0000000E+00;  1.0000000E+04; -1.2063391E-02;  0.0000000E+00; -3.0552342E-03;  1.6035577E+02;
  2.0000000E-01;  9.9999998E-03;  3.1999999E-01;555;  0.0000000E+00;  0.0000000E+00;  0.0000000E+00;  1.0000202E+03;  4.0000001E-01;  1.6690884E+01;0;  0.0000000E+00;  0.0000000E+00;  0.0000000E+00;0; -2.0628769E-02;  1.0000000E+04;  0.0000000E+00;  0.0000000E+00;  1.0000000E+04;  0.0000000E+00;  1.0000000E+04; -1.5991900E-02;  0.0000000E+00; -4.6368688E-03;  2.7776660E+02;
 -2.2000000E-01;  9.9999998E-03;  3.4000000E-01;36;  0.0000000E+00;  0.0000000E+00;  0.0000000E+00;  1.0000000E+03;  4.0000001E-01;  0.0000000E+00;0;  0.0000000E+00;  0.0000000E+00;  0.0000000E+00;0;  0.0000000E+00;  1.0000000E+04;  0.0000000E+00;  0.0000000E+00;  1.0000000E+04;  0.0000000E+00;  1.0000000E+04;  0.0000000E+00;  0.0000000E+00;  0.0000000E+00;  0.0000000E+00;
 -2.2000000E-01;  9.9999998E-03;  3.6000001E-01;37;  0.0000000E+00;  0.0000000E+00;  0.0000000E+00;  1.0000000E+03;  4.0000001E-01;  0.0000000E+00;0;  0.0000000E+00;  0.0000000E+00;  0.0000000E+00;0;  0.0000000E+00;  1.0000000E+04;  0.0000000E+00;  0.0000000E+00;  1.0000000E+04;  0.0000000E+00;  1.0000000E+04;  0.0000000E+00;  0.0000000E+00;  0.0000000E+00;  0.0000000E+00;
 -2.2000000E-01;  9.9999998E-03;  3.8000000E-01;38;  0.0000000E+00;  0.0000000E+00;  0.0000000E+00;  1.0000000E+03;  4.0000001E-01;  0.0000000E+00;0;  0.0000000E+00;  0.0000000E+00;  0.0000000E+00;0;  0.0000000E+00;  1.0000000E+04;  0.0000000E+00;  0.0000000E+00;  1.0000000E+04;  0.0000000E+00;  1.0000000E+04;  0.0000000E+00;  0.0000000E+00;  0.0000000E+00;  0.0000000E+00;
 -2.0000000E-01;  9.9999998E-03;  3.4000000E-01;76;  0.0000000E+00;  0.0000000E+00;  0.0000000E+00;  1.0000000E+03;  4.0000001E-01;  0.0000000E+00;0;  0.0000000E+00;  0.0000000E+00;  0.0000000E+00;0;  0.0000000E+00;  1.0000000E+04;  0.0000000E+00;  0.0000000E+00;  1.0000000E+04;  0.0000000E+00;  1.0000000E+04;  0.0000000E+00;  0.0000000E+00;  0.0000000E+00;  0.0000000E+00;
 -2.0000000E-01;  9.9999998E-03;  3.6000001E-01;77;  0.0000000E+00;  0.0000000E+00;  0.0000000E+00;  1.0000000E+03;  4.0000001E-01;  0.0000000E+00;0;  0.0000000E+00;  0.0000000E+00;  0.0000000E+00;0;  0.0000000E+00;  1.0000000E+04;  0.0000000E+00;  0.0000000E+00;  1.0000000E+04;  0.0000000E+00;  1.0000000E+04;  0.0000000E+00;  0.0000000E+00;  0.0000000E+00;  0.0000000E+00;
 -2.0000000E-01;  9.9999998E-03;  3.8000000E-01;78;  0.0000000E+00;  0.0000000E+00;  0.0000000E+00;  1.0000000E+03;  4.0000001E-01;  0.0000000E+00;0;  0.0000000E+00;  0.0000000E+00;  0.0000000E+00;0;  0.0000000E+00;  1.0000000E+04;  0.0000000E+00;  0.0000000E+00;  1.0000000E+04;  0.0000000E+00;  1.0000000E+04;  0.0000000E+00;  0.0000000E+00;  0.0000000E+00;  0.0000000E+00;
 -2.0000000E-01;  9.9999998E-03;  4.0000001E-01;79;  0.0000000E+00;  0.0000000E+00;  0.0000000E+00;  1.0000000E+03;  4.0000001E-01;  0.0000000E+00;0;  0.0000000E+00;  0.0000000E+00;  0.0000000E+00;0;  0.0000000E+00;  1.0000000E+04;  0.0000000E+00;  0.0000000E+00;  1.0000000E+04;  0.0000000E+00;  1.0000000E+04;  0.0000000E+00;  0.0000000E+00;  0.0000000E+00;  0.0000000E+00;
 -1.8000001E-01;  9.9999998E-03;  3.4000000E-01;117;  0.0000000E+00;  0.0000000E+00;  0.0000000E+00;  1.0000000E+03;  4.0000001E-01;  0.0000000E+00;0;  0.0000000E+00;  0.0000000E+00;  0.0000000E+00;0;  0.0000000E+00;  1.0000000E+04;  0.0000000E+00;  0.0000000E+00;  1.0000000E+04;  0.0000000E+00;  1.0000000E+04;  0.0000000E+00;  0.0000000E+00;  0.0000000E+00;  0.0000000E+00;
 -1.8000001E-01;  9.9999998E-03;  3.6000001E-01;118;  0.0000000E+00;  0.0000000E+00;  0.0000000E+00;  1.0000000E+03;  4.0000001E-01;  0.0000000E+00;0;  0.0000000E+00;  0.0000000E+00;  0.0000000E+00;0;  0.0000000E+00;  1.0000000E+04;  0.0000000E+00;  0.0000000E+00;  1.0000000E+04;  0.0000000E+00;  1.0000000E+04;  0.0000000E+00;  0.0000000E+00;  0.0000000E+00;  0.0000000E+00;
 -1.8000001E-01;  9.9999998E-03;  3.8000000E-01;119;  0.0000000E+00;  0.0000000E+00;  0.0000000E+00;  1.0000000E+03;  4.0000001E-01;  0.0000000E+00;0;  0.0000000E+00;  0.0000000E+00;  0.0000000E+00;0;  0.0000000E+00;  1.0000000E+04;  0.0000000E+00;  0.0000000E+00;  1.0000000E+04;  0.0000000E+00;  1.0000000E+04;  0.0000000E+00;  0.0000000E+00;  0.0000000E+00;  0.0000000E+00;
 -1.8000001E-01;  9.9999998E-03;  4.0000001E-01;120;  0.0000000E+00;  0.0000000E+00;  0.0000000E+00;  1.0000000E+03;  4.0000001E-01;  0.0000000E+00;0;  0.0000000E+00;  0.0000000E+00;  0.0000000E+00;0;  0.0000000E+00;  1.0000000E+04;  0.0000000E+00;  0.0000000E+00;  1.0000000E+04;  0.0000000E+00;  1.0000000E+04;  0.0000000E+00;  0.0000000E+00;  0.0000000E+00;  0.0000000E+00;
 -1.6000000E-01;  9.9999998E-03;  3.4000000E-01;158;  0.0000000E+00;  0.0000000E+00;  0.0000000E+00;  1.0000000E+03;  4.0000001E-01;  0.0000000E+00;0;  0.0000000E+00;  0.0000000E+00;  0.0000000E+00;0;  0.0000000E+00;  1.0000000E+04;  0.0000000E+00;  0.0000000E+00;  1.0000000E+04;  0.0000000E+00;  1.0000000E+04;  0.0000000E+00;  0.0000000E+00;  0.0000000E+00;  0.0000000E+00;
 -1.6000000E-01;  9.9999998E-03;  3.6000001E-01;159;  0.0000000E+00;  0.0000000E+00;  0.0000000E+00;  1.0000000E+03;  4.0000001E-01;  0.0000000E+00;0;  0.0000000E+00;  0.0000000E+00;  0.0000000E+00;0;  0.0000000E+00;  1.0000000E+04;  0.0000000E+00;  0.0000000E+00;  1.0000000E+04;  0.0000000E+00;  1.0000000E+04;  0.0000000E+00;  0.0000000E+00;  0.0000000E+00;  0.0000000E+00;
 -1.6000000E-01;  9.9999998E-03;  3.8000000E-01;160;  0.0000000E+00;  0.0000000E+00;  0.0000000E+00;  1.0000000E+03;  4.0000001E-01;  0.0000000E+00;0;  0.0000000E+00;  0.0000000E+00;  0.0000000E+00;0;  0.0000000E+00;  1.0000000E+04;  0.0000000E+00;  0.0000000E+00;  1.0000000E+04;  0.0000000E+00;  1.0000000E+04;  0.0000000E+00;  0.0000000E+00;  0.0000000E+00;  0.0000000E+00;
 -1.6000000E-01;  9.9999998E-03;  4.0000001E-01;161;  0.0000000E+00;  0.0000000E+00;  0.0000000E+00;  1.0000000E+03;  4.0000001E-01;  0.0000000E+00;0;  0.0000000E+00;  0.0000000E+00;  0.0000000E+00;0;  0.0000000E+00;  1.0000000E+04;  0.0000000E+00;  0.0000000E+00;  1.0000000E+04;  0.0000000E+00;  1.0000000E+04;  0.0000000E+00;  0.0000000E+00;  0.0000000E+00;  0.0000000E+00;
 -1.4000000E-01;  9.9999998E-03;  3.4000000E-01;199;  0.0000000E+00;  0.0000000E+00;  0.0000000E+00;  1.0000000E+03;  4.0000001E-01;  0.0000000E+00;0;  0.0000000E+00;  0.0000000E+00;  0.0000000E+00;0; -5.1114262E-07;  1.0000000E+04;  0.0000000E+00;  0.0000000E+00;  1.0000000E+04;  0.0000000E+00;  1.0000000E+04; -4.3221192E-07;  0.0000000E+00; -7.8930675E-08;  4.4141902E-04;
 -1.4000000E-01;  9.9999998E-03;  3.6000001E-01;200;  0.0000000E+00;  0.0000000E+00;  0.0000000E+00;  1.0000000E+03;  4.0000001E-01;  0.0000000E+00;0;  0.0000000E+00;  0.0000000E+00;  0.0000000E+00;0; -5.9355962E-08;  1.0000000E+04;  0.0000000E+00;  0.0000000E+00;  1.0000000E+04;  0.0000000E+00;  1.0000000E+04; -4.6895984E-08;  0.0000000E+00; -1.2459980E-08;  7.0728267E-05;
 -1.4000000E-01;  9.9999998E-03;  3.8000000E-01;201;  0.0000000E+00;  0.0000000E+00;  0.0000000E+00;  1.0000000E+03;  4.0000001E-01;  0.0000000E+00;0;  0.0000000E+00;  0.0000000E+00;  0.0000000E+00;0;  0.0000000E+00;  1.0000000E+04;  0.0000000E+00;  0.0000000E+00;  1.0000000E+04;  0.0000000E+00;  1.0000000E+04;  0.0000000E+00;  0.0000000E+00;  0.0000000E+00;  0.0000000E+00;
 -1.4000000E-01;  9.9999998E-03;  4.0000001E-01;202;  0.0000000E+00;  0.0000000E+00;  0.0000000E+00;  1.0000000E+03;  4.0000001E-01;  0.0000000E+00;0;  0.0000000E+00;  0.0000000E+00;  0.0000000E+00;0;  0.0000000E+00;  1.0000000E+04;  0.0000000E+00;  0.0000000E+00;  1.0000000E+04;  0.0000000E+00;  1.0000000E+04;  0.0000000E+00;  0.0000000E+00;  0.0000000E+00;  0.0000000E+00;
 -1.2000000E-01;  9.9999998E-03;  3.4000000E-01;240;  0.0000000E+00;  0.0000000E+00;  0.0000000E+00;  1.0000000E+03;  4.0000001E-01;  0.0000000E+00;0;  0.0000000E+00;  0.0000000E+00;  0.0000000E+00;0; -6.3721777E-06;  1.0000000E+04;  0.0000000E+00;  0.0000000E+00;  1.0000000E+04;  0.0000000E+00;  1.0000000E+04; -5.2321789E-06;  0.0000000E+00; -1.1399987E-06;  6.4600273E-03;
 -1.2000000E-01;  9.9999998E-03;  3.6000001E-01;241;  0.0000000E+00;  0.0000000E+00;  0.0000000E+00;  1.0000000E+03;  4.0000001E-01;  0.0000000E+00;0;  0.0000000E+00;  0.0000000E+00;  0.0000000E+00;0; -2.1319865E-06;  1.0000000E+04;  0.0000000E+00;  0.0000000E+00;  1.0000000E+04;  0.0000000E+00;  1.0000000E+04; -1.6134096E-06;  0.0000000E+00; -5.1857694E-07;  2.9639564E-03;
 -1.2000000E-01;  9.9999998E-03;  3.8000000E-01;242;  0.0000000E+00;  0.0000000E+00;  0.0000000E+00;  1.0000000E+03;  4.0000001E-01;  0.0000000E+00;0;  0.0000000E+00;  0.0000000E+00;  0.0000000E+00;0; -3.1546713E-07;  1.0000000E+04;  0.0000000E+00;  0.0000000E+00;  1.0000000E+04;  0.0000000E+00;  1.0000000E+04; -2.2374198E-07;  0.0000000E+00; -9.1725148E-08;  5.2700879E-04;
 -1.2000000E-01;  9.9999998E-03;  4.0000001E-01;243;  0.0000000E+00;  0.0000000E+00;  0.0000000E+00;  1.0000000E+03;  4.0000001E-01;  0.0000000E+00;0;  0.0000000E+00;  0.0000000E+00;  0.0000000E+00;0; -2.8352100E-23;  1.0000000E+04;  0.0000000E+00;  0.0000000E+00;  1.0000000E+04;  0.0000000E+00;  1.0000000E+04; -2.0002376E-23;  0.0000000E+00; -8.3497235E-24;  4.6655943E-21;
 -1.0000000E-01;  9.9999998E-03;  3.4000000E-01;281;  0.0000000E+00;  0.0000000E+00;  0.0000000E+00;  1.0000000E+03;  4.0000001E-01;  0.0000000E+00;0;  0.0000000E+00;  0.0000000E+00;  0.0000000E+00;0; -2.9241251E-05;  1.0000000E+04;  0.0000000E+00;  0.0000000E+00;  1.0000000E+04;  0.0000000E+00;  1.0000000E+04; -2.3367824E-05;  0.0000000E+00; -5.8734286E-06;  3.3535663E-02;
 -1.0000000E-01;  9.9999998E-03;  3.6000001E-01;282;  0.0000000E+00;  0.0000000E+00;  0.0000000E+00;  1.0000000E+03;  4.0000001E-01;  0.0000000E+00;0;  0.0000000E+00;  0.0000000E+00;  0.0000000E+00;0; -1.3389999E-05;  1.0000000E+04;  0.0000000E+00;  0.0000000E+00;  1.0000000E+04;  0.0000000E+00;  1.0000000E+04; -9.7453267E-06;  0.0000000E+00; -3.6446725E-06;  2.1025026E-02;
 -1.0000000E-01;  9.9999998E-03;  3.8000000E-01;283;  0.0000000E+00;  0.0000000E+00;  0.0000000E+00;  1.0000000E+03;  4.0000001E-01;  0.0000000E+00;0;  0.0000000E+00;  0.0000000E+00;  0.0000000E+00;0; -4.2529546E-06;  1.0000000E+04;  0.0000000E+00;  0.0000000E+00;  1.0000000E+04;  0.0000000E+00;  1.0000000E+04; -2.8616707E-06;  0.0000000E+00; -1.3912837E-06;  8.0534192E-03;
 -1.0000000E-01;  9.9999998E-03;  4.0000001E-01;284;  0.0000000E+00;  0.0000000E+00;  0.0000000E+00;  1.0000000E+03;  4.0000001E-01;  0.0000000E+00;0;  0.0000000E+00;  0.0000000E+00;  0.0000000E+00;0; -5.8610544E-07;  1.0000000E+04;  0.0000000E+00;  0.0000000E+00;  1.0000000E+04;  0.0000000E+00;  1.0000000E+04; -3.8994031E-07;  0.0000000E+00; -1.9616516E-07;  1.1364297E-03;
 -7.9999998E-02;  9.9999998E-03;  3.4000000E-01;322;  0.0000000E+00;  0.0000000E+00;  0.0000000E+00;  1.0000000E+03;  4.0000001E-01;  0.0000000E+00;0;  0.0000000E+00;  0.0000000E+00;  0.0000000E+00;0; -8.6049855E-05;  1.0000000E+04;  0.0000000E+00;  0.0000000E+00;  1.0000000E+04;  0.0000000E+00;  1.0000000E+04; -6.7065259E-05;  0.0000000E+00; -1.8984598E-05;  1.0957128E-01;
 -7.9999998E-02;  9.9999998E-03;  3.6000001E-01;323;  0.0000000E+00;  0.0000000E+00;  0.0000000E+00;  1.0000000E+03;  4.0000001E-01;  0.0000000E+00;0;  0.0000000E+00;  0.0000000E+00;  0.0000000E+00;0; -4.5413712E-05;  1.0000000E+04;  0.0000000E+00;  0.0000000E+00;  1.0000000E+04;  0.0000000E+00;  1.0000000E+04; -3.1901498E-05;  0.0000000E+00; -1.3512212E-05;  7.8673318E-02;
 -7.9999998E-02;  9.9999998E-03;  3.8000000E-01;324;  0.0000000E+00;  0.0000000E+00;  0.0000000E+00;  1.0000000E+03;  4.0000001E-01;  0.0000000E+00;0;  0.0000000E+00;  0.0000000E+00;  0.0000000E+00;0; -1.8890960E-05;  1.0000000E+04;  0.0000000E+00;  0.0000000E+00;  1.0000000E+04;  0.0000000E+00;  1.0000000E+04; -1.2138504E-05;  0.0000000E+00; -6.7524556E-06;  3.9436482E-02;
 -7.9999998E-02;  9.9999998E-03;  4.0000001E-01;325;  0.0000000E+00;  0.0000000E+00;  0.0000000E+00;  1.0000000E+03;  4.0000001E-01;  0.0000000E+00;0;  0.0000000E+00;  0.0000000E+00;  0.0000000E+00;0; -4.9745227E-06;  1.0000000E+04;  0.0000000E+00;  0.0000000E+00;  1.0000000E+04;  0.0000000E+00;  1.0000000E+04; -3.1269356E-06;  0.0000000E+00; -1.8475870E-06;  1.0780044E-02;
 -5.9999999E-02;  9.9999998E-03;  3.4000000E-01;363;  0.0000000E+00;  0.0000000E+00;  0.0000000E+00;  1.0000001E+03;  4.0000001E-01;  9.8762624E-02;0;  0.0000000E+00;  0.0000000E+00;  0.0000000E+00;0; -1.9365372E-04;  1.0000000E+04;  0.0000000E+00;  0.0000000E+00;  1.0000000E+04;  0.0000000E+00;  1.0000000E+04; -1.4703111E-04;  0.0000000E+00; -4.6622605E-05;  2.7250555E-01;
 -5.9999999E-02;  9.9999998E-03;  3.6000001E-01;364;  0.0000000E+00;  0.0000000E+00;  0.0000000E+00;  1.0000000E+03;  4.0000001E-01;  0.0000000E+00;0;  0.0000000E+00;  0.0000000E+00;  0.0000000E+00;0; -1.1050077E-04;  1.0000000E+04;  0.0000000E+00;  0.0000000E+00;  1.0000000E+04;  0.0000000E+00;  1.0000000E+04; -7.4854208E-05;  0.0000000E+00; -3.5646561E-05;  2.0989975E-01;
 -5.9999999E-02;  9.9999998E-03;  3.8000000E-01;365;  0.0000000E+00;  0.0000000E+00;  0.0000000E+00;  1.0000000E+03;  4.0000001E-01;  0.0000000E+00;0;  0.0000000E+00;  0.0000000E+00;  0.0000000E+00;0; -5.2519761E-05;  1.0000000E+04;  0.0000000E+00;  0.0000000E+00;  1.0000000E+04;  0.0000000E+00;  1.0000000E+04; -3.2219657E-05;  0.0000000E+00; -2.0300102E-05;  1.1979007E-01;
 -5.9999999E-02;  9.9999998E-03;  4.0000001E-01;366;  0.0000000E+00;  0.0000000E+00;  0.0000000E+00;  1.0000000E+03;  4.0000001E-01;  0.0000000E+00;0;  0.0000000E+00;  0.0000000E+00;  0.0000000E+00;0; -1.7934128E-05;  1.0000000E+04;  0.0000000E+00;  0.0000000E+00;  1.0000000E+04;  0.0000000E+00;  1.0000000E+04; -1.0683418E-05;  0.0000000E+00; -7.2507096E-06;  4.2704761E-02;
 -3.9999999E-02;  9.9999998E-03;  3.4000000E-01;404;  0.0000000E+00;  0.0000000E+00;  0.0000000E+00;  1.0000002E+03;  4.0000001E-01;  1.9752525E-01;0;  0.0000000E+00;  0.0000000E+00;  0.0000000E+00;0; -3.6112787E-04;  1.0000000E+04;  0.0000000E+00;  0.0000000E+00;  1.0000000E+04;  0.0000000E+00;  1.0000000E+04; -2.6618707E-04;  0.0000000E+00; -9.4940791E-05;  5.6295818E-01;
 -3.9999999E-02;  9.9999998E-03;  3.6000001E-01;405;  0.0000000E+00;  0.0000000E+00;  0.0000000E+00;  1.0000001E+03;  4.0000001E-01;  9.8762624E-02;0;  0.0000000E+00;  0.0000000E+00;  0.0000000E+00;0; -2.1612849E-04;  1.0000000E+04;  0.0000000E+00;  0.0000000E+00;  1.0000000E+04;  0.0000000E+00;  1.0000000E+04; -1.4060395E-04;  0.0000000E+00; -7.5524542E-05;  4.5062584E-01;
 -3.9999999E-02;  9.9999998E-03;  3.8000000E-01;406;  0.0000000E+00;  0.0000000E+00;  0.0000000E+00;  1.0000000E+03;  4.0000001E-01;  0.0000000E+00;0;  0.0000000E+00;  0.0000000E+00;  0.0000000E+00;0; -1.1075770E-04;  1.0000000E+04;  0.0000000E+00;  0.0000000E+00;  1.0000000E+04;  0.0000000E+00;  1.0000000E+04; -6.4576299E-05;  0.0000000E+00; -4.6181402E-05;  2.7589464E-01;
 -3.9999999E-02;  9.9999998E-03;  4.0000001E-01;407;  0.0000000E+00;  0.0000000E+00;  0.0000000E+00;  1.0000000E+03;  4.0000001E-01;  0.0000000E+00;0;  0.0000000E+00;  0.0000000E+00;  0.0000000E+00;0; -4.3110769E-05;  1.0000000E+04;  0.0000000E+00;  0.0000000E+00;  1.0000000E+04;  0.0000000E+00;  1.0000000E+04; -2.4222192E-05;  0.0000000E+00; -1.8888577E-05;  1.1253592E-01;
 -2.0000000E-02;  9.9999998E-03;  3.4000000E-01;445;  0.0000000E+00;  0.0000000E+00;  0.0000000E+00;  1.0000004E+03;  4.0000001E-01;  3.9505050E-01;0;  0.0000000E+00;  0.0000000E+00;  0.0000000E+00;0; -5.8593822E-04;  1.0000000E+04;  0.0000000E+00;  0.0000000E+00;  1.0000000E+04;  0.0000000E+00;  1.0000000E+04; -4.1798168E-04;  0.0000000E+00; -1.6795655E-04;  1.0126778E+00;
 -2.0000000E-02;  9.9999998E-03;  3.6000001E-01;446;  0.0000000E+00;  0.0000000E+00;  0.0000000E+00;  1.0000002E+03;  4.0000001E-01;  1.9752525E-01;0;  0.0000000E+00;  0.0000000E+00;  0.0000000E+00;0; -3.6169318E-04;  1.0000000E+04;  0.0000000E+00;  0.0000000E+00;  1.0000000E+04;  0.0000000E+00;  1.0000000E+04; -2.2510166E-04;  0.0000000E+00; -1.3659152E-04;  8.2787699E-01;
 -2.0000000E-02;  9.9999998E-03;  3.8000000E-01;447;  0.0000000E+00;  0.0000000E+00;  0.0000000E+00;  1.0000001E+03;  4.0000001E-01;  9.8762624E-02;0;  0.0000000E+00;  0.0000000E+00;  0.0000000E+00;0; -1.9389603E-04;  1.0000000E+04;  0.0000000E+00;  0.0000000E+00;  1.0000000E+04;  0.0000000E+00;  1.0000000E+04; -1.0692336E-04;  0.0000000E+00; -8.6972672E-05;  5.2739042E-01;
 -2.0000000E-02;  9.9999998E-03;  4.0000001E-01;448;  0.0000000E+00;  0.0000000E+00;  0.0000000E+00;  1.0000000E+03;  4.0000001E-01;  0.0000000E+00;0;  0.0000000E+00;  0.0000000E+00;  0.0000000E+00;0; -8.1039238E-05;  1.0000000E+04;  0.0000000E+00;  0.0000000E+00;  1.0000000E+04;  0.0000000E+00;  1.0000000E+04; -4.2672611E-05;  0.0000000E+00; -3.8366623E-05;  2.3183811E-01;
  0.0000000E+00;  9.9999998E-03;  3.4000000E-01;457;  0.0000000E+00;  0.0000000E+00;  0.0000000E+00;  1.0000007E+03;  4.0000001E-01;  5.9257573E-01;0;  0.0000000E+00;  0.0000000E+00;  0.0000000E+00;0; -8.5489126E-04;  1.0000000E+04;  0.0000000E+00;  0.0000000E+00;  1.0000000E+04;  0.0000000E+00;  1.0000000E+04; -5.8961561E-04;  0.0000000E+00; -2.6527562E-04;  1.6314354E+00;
  0.0000000E+00;  9.9999998E-03;  3.6000001E-01;458;  0.0000000E+00;  0.0000000E+00;  0.0000000E+00;  1.0000004E+03;  4.0000001E-01;  2.9628786E-01;0;  0.0000000E+00;  0.0000000E+00;  0.0000000E+00;0; -5.3914858E-04;  1.0000000E+04;  0.0000000E+00;  0.0000000E+00;  1.0000000E+04;  0.0000000E+00;  1.0000000E+04; -3.2066670E-04;  0.0000000E+00; -2.1848189E-04;  1.3495151E+00;
  0.0000000E+00;  9.9999998E-03;  3.8000000E-01;459;  0.0000000E+00;  0.0000000E+00;  0.0000000E+00;  1.0000002E+03;  4.0000001E-01;  1.9752525E-01;0;  0.0000000E+00;  0.0000000E+00;  0.0000000E+00;0; -2.9717232E-04;  1.0000000E+04;  0.0000000E+00;  0.0000000E+00;  1.0000000E+04;  0.0000000E+00;  1.0000000E+04; -1.5473443E-04;  0.0000000E+00; -1.4243789E-04;  8.7960124E-01;
  0.0000000E+00;  9.9999998E-03;  4.0000001E-01;460;  0.0000000E+00;  0.0000000E+00;  0.0000000E+00;  1.0000001E+03;  4.0000001E-01;  9.8762624E-02;0;  0.0000000E+00;  0.0000000E+00;  0.0000000E+00;0; -1.2911244E-04;  1.0000000E+04;  0.0000000E+00;  0.0000000E+00;  1.0000000E+04;  0.0000000E+00;  1.0000000E+04; -6.3481966E-05;  0.0000000E+00; -6.5630469E-05;  4.0357870E-01;
  2.0000000E-02;  9.9999998E-03;  3.4000000E-01;467;  0.0000000E+00;  0.0000000E+00;  0.0000000E+00;  1.0000009E+03;  4.0000001E-01;  7.9010099E-01;0;  0.0000000E+00;  0.0000000E+00;  0.0000000E+00;0; -1.1534374E-03;  1.0000000E+04;  0.0000000E+00;  0.0000000E+00;  1.0000000E+04;  0.0000000E+00;  1.0000000E+04; -7.7213871E-04;  0.0000000E+00; -3.8129871E-04;  2.4016089E+00;
  2.0000000E-02;  9.9999998E-03;  3.6000001E-01;468;  0.0000000E+00;  0.0000000E+00;  0.0000000E+00;  1.0000005E+03;  4.0000001E-01;  4.9381313E-01;0;  0.0000000E+00;  0.0000000E+00;  0.0000000E+00;0; -7.3892670E-04;  1.0000000E+04;  0.0000000E+00;  0.0000000E+00;  1.0000000E+04;  0.0000000E+00;  1.0000000E+04; -4.2203785E-04;  0.0000000E+00; -3.1688882E-04;  2.0029521E+00;
  2.0000000E-02;  9.9999998E-03;  3.8000000E-01;469;  0.0000000E+00;  0.0000000E+00;  0.0000000E+00;  1.0000003E+03;  4.0000001E-01;  2.9628786E-01;0;  0.0000000E+00;  0.0000000E+00;  0.0000000E+00;0; -4.1438639E-04;  1.0000000E+04;  0.0000000E+00;  0.0000000E+00;  1.0000000E+04;  0.0000000E+00;  1.0000000E+04; -2.0473728E-04;  0.0000000E+00; -2.0964911E-04;  1.3238877E+00;
  2.0000000E-02;  9.9999998E-03;  4.0000001E-01;470;  0.0000000E+00;  0.0000000E+00;  0.0000000E+00;  1.0000001E+03;  4.0000001E-01;  9.8762624E-02;0;  0.0000000E+00;  0.0000000E+00;  0.0000000E+00;0; -1.8363706E-04;  1.0000000E+04;  0.0000000E+00;  0.0000000E+00;  1.0000000E+04;  0.0000000E+00;  1.0000000E+04; -8.4585998E-05;  0.0000000E+00; -9.9051067E-05;  6.2240285E-01;
  3.9999999E-02;  9.9999998E-03;  3.4000000E-01;477;  0.0000000E+00;  0.0000000E+00;  0.0000000E+00;  1.0000011E+03;  4.0000001E-01;  8.8886362E-01;0;  0.0000000E+00;  0.0000000E+00;  0.0000000E+00;0; -1.4810715E-03;  1.0000000E+04;  0.0000000E+00;  0.0000000E+00;  1.0000000E+04;  0.0000000E+00;  1.0000000E+04; -9.7238203E-04;  0.0000000E+00; -5.0868944E-04;  3.2973120E+00;
  3.9999999E-02;  9.9999998E-03;  3.6000001E-01;478;  0.0000000E+00;  0.0000000E+00;  0.0000000E+00;  1.0000007E+03;  4.0000001E-01;  5.9257573E-01;0;  0.0000000E+00;  0.0000000E+00;  0.0000000E+00;0; -9.5898058E-04;  1.0000000E+04;  0.0000000E+00;  0.0000000E+00;  1.0000000E+04;  0.0000000E+00;  1.0000000E+04; -5.3257920E-04;  0.0000000E+00; -4.2640138E-04;  2.7711103E+00;
  3.9999999E-02;  9.9999998E-03;  3.8000000E-01;479;  0.0000000E+00;  0.0000000E+00;  0.0000000E+00;  1.0000004E+03;  4.0000001E-01;  3.9505050E-01;0;  0.0000000E+00;  0.0000000E+00;  0.0000000E+00;0; -5.4324087E-04;  1.0000000E+04;  0.0000000E+00;  0.0000000E+00;  1.0000000E+04;  0.0000000E+00;  1.0000000E+04; -2.5827656E-04;  0.0000000E+00; -2.8496431E-04;  1.8488287E+00;
  3.9999999E-02;  9.9999998E-03;  4.0000001E-01;480;  0.0000000E+00;  0.0000000E+00;  0.0000000E+00;  1.0000002E+03;  4.0000001E-01;  1.9752525E-01;0;  0.0000000E+00;  0.0000000E+00;  0.0000000E+00;0; -2.4281703E-04;  1.0000000E+04;  0.0000000E+00;  0.0000000E+00;  1.0000000E+04;  0.0000000E+00;  1.0000000E+04; -1.0627501E-04;  0.0000000E+00; -1.3654202E-04;  8.8091475E-01;
  5.9999999E-02;  9.9999998E-03;  3.4000000E-01;487;  0.0000000E+00;  0.0000000E+00;  0.0000000E+00;  1.0000015E+03;  4.0000001E-01;  1.2839141E+00;0;  0.0000000E+00;  0.0000000E+00;  0.0000000E+00;0; -1.8594158E-03;  1.0000000E+04;  0.0000000E+00;  0.0000000E+00;  1.0000000E+04;  0.0000000E+00;  1.0000000E+04; -1.2144977E-03;  0.0000000E+00; -6.4491801E-04;  4.3229885E+00;
  5.9999999E-02;  9.9999998E-03;  3.6000001E-01;488;  0.0000000E+00;  0.0000000E+00;  0.0000000E+00;  1.0000010E+03;  4.0000001E-01;  7.9010099E-01;0;  0.0000000E+00;  0.0000000E+00;  0.0000000E+00;0; -1.2111145E-03;  1.0000000E+04;  0.0000000E+00;  0.0000000E+00;  1.0000000E+04;  0.0000000E+00;  1.0000000E+04; -6.6623453E-04;  0.0000000E+00; -5.4487999E-04;  3.6585283E+00;
  5.9999999E-02;  9.9999998E-03;  3.8000000E-01;489;  0.0000000E+00;  0.0000000E+00;  0.0000000E+00;  1.0000005E+03;  4.0000001E-01;  4.9381313E-01;0;  0.0000000E+00;  0.0000000E+00;  0.0000000E+00;0; -6.8955636E-04;  1.0000000E+04;  0.0000000E+00;  0.0000000E+00;  1.0000000E+04;  0.0000000E+00;  1.0000000E+04; -3.2277266E-04;  0.0000000E+00; -3.6678373E-04;  2.4566419E+00;
  5.9999999E-02;  9.9999998E-03;  4.0000001E-01;490;  0.0000000E+00;  0.0000000E+00;  0.0000000E+00;  1.0000002E+03;  4.0000001E-01;  1.9752525E-01;0;  0.0000000E+00;  0.0000000E+00;  0.0000000E+00;0; -3.0910288E-04;  1.0000000E+04;  0.0000000E+00;  0.0000000E+00;  1.0000000E+04;  0.0000000E+00;  1.0000000E+04; -1.3202493E-04;  0.0000000E+00; -1.7707793E-04;  1.1786032E+00;
  7.9999998E-02;  9.9999998E-03;  3.4000000E-01;497;  0.0000000E+00;  0.0000000E+00;  0.0000000E+00;  1.0000020E+03;  4.0000001E-01;  1.5802020E+00;0;  0.0000000E+00;  0.0000000E+00;  0.0000000E+00;0; -2.3394972E-03;  1.0000000E+04;  0.0000000E+00;  0.0000000E+00;  1.0000000E+04;  0.0000000E+00;  1.0000000E+04; -1.5441311E-03;  0.0000000E+00; -7.9536613E-04;  5.5452318E+00;
  7.9999998E-02;  9.9999998E-03;  3.6000001E-01;498;  0.0000000E+00;  0.0000000E+00;  0.0000000E+00;  1.0000013E+03;  4.0000001E-01;  1.0863888E+00;0;  0.0000000E+00;  0.0000000E+00;  0.0000000E+00;0; -1.5277021E-03;  1.0000000E+04;  0.0000000E+00;  0.0000000E+00;  1.0000000E+04;  0.0000000E+00;  1.0000000E+04; -8.5144758E-04;  0.0000000E+00; -6.7625451E-04;  4.7157521E+00;
  7.9999998E-02;  9.9999998E-03;  3.8000000E-01;499;  0.0000000E+00;  0.0000000E+00;  0.0000000E+00;  1.0000007E+03;  4.0000001E-01;  5.9257573E-01;0;  0.0000000E+00;  0.0000000E+00;  0.0000000E+00;0; -8.7088736E-04;  1.0000000E+04;  0.0000000E+00;  0.0000000E+00;  1.0000000E+04;  0.0000000E+00;  1.0000000E+04; -4.1353158E-04;  0.0000000E+00; -4.5735578E-04;  3.1753843E+00;
  7.9999998E-02;  9.9999998E-03;  4.0000001E-01;500;  0.0000000E+00;  0.0000000E+00;  0.0000000E+00;  1.0000003E+03;  4.0000001E-01;  2.9628786E-01;0;  0.0000000E+00;  0.0000000E+00;  0.0000000E+00;0; -3.9053959E-04;  1.0000000E+04;  0.0000000E+00;  0.0000000E+00;  1.0000000E+04;  0.0000000E+00;  1.0000000E+04; -1.6885843E-04;  0.0000000E+00; -2.2168116E-04;  1.5290803E+00;
  1.0000000E-01;  9.9999998E-03;  3.4000000E-01;507;  0.0000000E+00;  0.0000000E+00;  0.0000000E+00;  1.0000026E+03;  4.0000001E-01;  2.1727777E+00;0;  0.0000000E+00;  0.0000000E+00;  0.0000000E+00;0; -3.0137275E-03;  1.0000000E+04;  0.0000000E+00;  0.0000000E+00;  1.0000000E+04;  0.0000000E+00;  1.0000000E+04; -2.0381510E-03;  0.0000000E+00; -9.7557652E-04;  7.3101864E+00;
  1.0000000E-01;  9.9999998E-03;  3.6000001E-01;508;  0.0000000E+00;  0.0000000E+00;  0.0000000E+00;  1.0000016E+03;  4.0000001E-01;  1.3826767E+00;0;  0.0000000E+00;  0.0000000E+00;  0.0000000E+00;0; -1.9698972E-03;  1.0000000E+04;  0.0000000E+00;  0.0000000E+00;  1.0000000E+04;  0.0000000E+00;  1.0000000E+04; -1.1369053E-03;  0.0000000E+00; -8.3299197E-04;  6.0928535E+00;
  1.0000000E-01;  9.9999998E-03;  3.8000000E-01;509;  0.0000000E+00;  0.0000000E+00;  0.0000000E+00;  1.0000010E+03;  4.0000001E-01;  7.9010099E-01;0;  0.0000000E+00;  0.0000000E+00;  0.0000000E+00;0; -1.1215348E-03;  1.0000000E+04;  0.0000000E+00;  0.0000000E+00;  1.0000000E+04;  0.0000000E+00;  1.0000000E+04; -5.5698387E-04;  0.0000000E+00; -5.6455098E-04;  4.0745468E+00;
  1.0000000E-01;  9.9999998E-03;  4.0000001E-01;510;  0.0000000E+00;  0.0000000E+00;  0.0000000E+00;  1.0000004E+03;  4.0000001E-01;  3.9505050E-01;0;  0.0000000E+00;  0.0000000E+00;  0.0000000E+00;0; -5.0290703E-04;  1.0000000E+04;  0.0000000E+00;  0.0000000E+00;  1.0000000E+04;  0.0000000E+00;  1.0000000E+04; -2.2876945E-04;  0.0000000E+00; -2.7413756E-04;  2.0216873E+00;
  1.2000000E-01;  9.9999998E-03;  3.4000000E-01;517;  0.0000000E+00;  0.0000000E+00;  0.0000000E+00;  1.0000037E+03;  4.0000001E-01;  3.0616415E+00;0;  0.0000000E+00;  0.0000000E+00;  0.0000000E+00;0; -4.0308302E-03;  1.0000000E+04;  0.0000000E+00;  0.0000000E+00;  1.0000000E+04;  0.0000000E+00;  1.0000000E+04; -2.8131194E-03;  0.0000000E+00; -1.2177110E-03;  1.1455172E+01;
  1.2000000E-01;  9.9999998E-03;  3.6000001E-01;518;  0.0000000E+00;  0.0000000E+00;  0.0000000E+00;  1.0000023E+03;  4.0000001E-01;  1.8764899E+00;0;  0.0000000E+00;  0.0000000E+00;  0.0000000E+00;0; -2.6409687E-03;  1.0000000E+04;  0.0000000E+00;  0.0000000E+00;  1.0000000E+04;  0.0000000E+00;  1.0000000E+04; -1.5984996E-03;  0.0000000E+00; -1.0424689E-03;  8.1597986E+00;
  1.2000000E-01;  9.9999998E-03;  3.8000000E-01;519;  0.0000000E+00;  0.0000000E+00;  0.0000000E+00;  1.0000014E+03;  4.0000001E-01;  1.1851515E+00;0;  0.0000000E+00;  0.0000000E+00;  0.0000000E+00;0; -1.5022650E-03;  1.0000000E+04;  0.0000000E+00;  0.0000000E+00;  1.0000000E+04;  0.0000000E+00;  1.0000000E+04; -7.9535035E-04;  0.0000000E+00; -7.0691458E-04;  5.5345287E+00;
  1.2000000E-01;  9.9999998E-03;  4.0000001E-01;520;  0.0000000E+00;  0.0000000E+00;  0.0000000E+00;  1.0000006E+03;  4.0000001E-01;  4.9381313E-01;0;  0.0000000E+00;  0.0000000E+00;  0.0000000E+00;0; -6.7493622E-04;  1.0000000E+04;  0.0000000E+00;  0.0000000E+00;  1.0000000E+04;  0.0000000E+00;  1.0000000E+04; -3.3139097E-04;  0.0000000E+00; -3.4354525E-04;  3.5324483E+00;
  1.4000000E-01;  9.9999998E-03;  3.4000000E-01;527;  0.0000000E+00;  0.0000000E+00;  0.0000000E+00;  1.0000052E+03;  4.0000001E-01;  4.3455553E+00;0;  0.0000000E+00;  0.0000000E+00;  0.0000000E+00;0; -5.6153219E-03;  1.0000000E+04;  0.0000000E+00;  0.0000000E+00;  1.0000000E+04;  0.0000000E+00;  1.0000000E+04; -4.0332838E-03;  0.0000000E+00; -1.5820379E-03;  2.3400122E+01;
  1.4000000E-01;  9.9999998E-03;  3.6000001E-01;528;  0.0000000E+00;  0.0000000E+00;  0.0000000E+00;  1.0000034E+03;  4.0000001E-01;  2.8641162E+00;0;  0.0000000E+00;  0.0000000E+00;  0.0000000E+00;0; -3.7057558E-03;  1.0000000E+04;  0.0000000E+00;  0.0000000E+00;  1.0000000E+04;  0.0000000E+00;  1.0000000E+04; -2.3477231E-03;  0.0000000E+00; -1.3580328E-03;  1.1594796E+01;
  1.4000000E-01;  9.9999998E-03;  3.8000000E-01;529;  0.0000000E+00;  0.0000000E+00;  0.0000000E+00;  1.0000020E+03;  4.0000001E-01;  1.5802020E+00;0;  0.0000000E+00;  0.0000000E+00;  0.0000000E+00;0; -2.1190506E-03;  1.0000000E+04;  0.0000000E+00;  0.0000000E+00;  1.0000000E+04;  0.0000000E+00;  1.0000000E+04; -1.1944391E-03;  0.0000000E+00; -9.2461152E-04;  1.0071656E+01;
  1.4000000E-01;  9.9999998E-03;  4.0000001E-01;530;  0.0000000E+00;  0.0000000E+00;  0.0000000E+00;  1.0000008E+03;  4.0000001E-01;  6.9133836E-01;0;  0.0000000E+00;  0.0000000E+00;  0.0000000E+00;0; -9.6283655E-04;  1.0000000E+04;  0.0000000E+00;  0.0000000E+00;  1.0000000E+04;  0.0000000E+00;  1.0000000E+04; -5.0985324E-04;  0.0000000E+00; -4.5298328E-04;  9.6795807E+00;
  1.6000000E-01;  9.9999998E-03;  3.4000000E-01;537;  0.0000000E+00;  0.0000000E+00;  0.0000000E+00;  1.0000075E+03;  4.0000001E-01;  6.2220454E+00;0;  0.0000000E+00;  0.0000000E+00;  0.0000000E+00;0; -8.0409143E-03;  1.0000000E+04;  0.0000000E+00;  0.0000000E+00;  1.0000000E+04;  0.0000000E+00;  1.0000000E+04; -5.8670295E-03;  0.0000000E+00; -2.1738843E-03;  5.1424580E+01;
  1.6000000E-01;  9.9999998E-03;  3.6000001E-01;538;  0.0000000E+00;  0.0000000E+00;  0.0000000E+00;  1.0000051E+03;  4.0000001E-01;  4.1480303E+00;0;  0.0000000E+00;  0.0000000E+00;  0.0000000E+00;0; -5.3754365E-03;  1.0000000E+04;  0.0000000E+00;  0.0000000E+00;  1.0000000E+04;  0.0000000E+00;  1.0000000E+04; -3.5013773E-03;  0.0000000E+00; -1.8740590E-03;  1.6998589E+01;
  1.6000000E-01;  9.9999998E-03;  3.8000000E-01;539;  0.0000000E+00;  0.0000000E+00;  0.0000000E+00;  1.0000031E+03;  4.0000001E-01;  2.5678282E+00;0;  0.0000000E+00;  0.0000000E+00;  0.0000000E+00;0; -3.1298900E-03;  1.0000000E+04;  0.0000000E+00;  0.0000000E+00;  1.0000000E+04;  0.0000000E+00;  1.0000000E+04; -1.8326185E-03;  0.0000000E+00; -1.2972715E-03;  2.5185709E+01;
  1.6000000E-01;  9.9999998E-03;  4.0000001E-01;540;  0.0000000E+00;  0.0000000E+00;  0.0000000E+00;  1.0000013E+03;  4.0000001E-01;  1.0863888E+00;0;  0.0000000E+00;  0.0000000E+00;  0.0000000E+00;0; -1.4728718E-03;  1.0000000E+04;  0.0000000E+00;  0.0000000E+00;  1.0000000E+04;  0.0000000E+00;  1.0000000E+04; -8.1406819E-04;  0.0000000E+00; -6.5880356E-04;  2.8368355E+01;
  1.8000001E-01;  9.9999998E-03;  3.4000000E-01;547;  0.0000000E+00;  0.0000000E+00;  0.0000000E+00;  1.0000110E+03;  4.0000001E-01;  9.0861616E+00;0;  0.0000000E+00;  0.0000000E+00;  0.0000000E+00;0; -1.1479633E-02;  1.0000000E+04;  0.0000000E+00;  0.0000000E+00;  1.0000000E+04;  0.0000000E+00;  1.0000000E+04; -8.3166715E-03;  0.0000000E+00; -3.1629619E-03;  1.0137522E+02;
  1.8000001E-01;  9.9999998E-03;  3.6000001E-01;548;  0.0000000E+00;  0.0000000E+00;  0.0000000E+00;  1.0000074E+03;  4.0000001E-01;  6.1232829E+00;0;  0.0000000E+00;  0.0000000E+00;  0.0000000E+00;0; -7.7960277E-03;  1.0000000E+04;  0.0000000E+00;  0.0000000E+00;  1.0000000E+04;  0.0000000E+00;  1.0000000E+04; -5.0514382E-03;  0.0000000E+00; -2.7445892E-03;  2.4119339E+01;
  1.8000001E-01;  9.9999998E-03;  3.8000000E-01;549;  0.0000000E+00;  0.0000000E+00;  0.0000000E+00;  1.0000045E+03;  4.0000001E-01;  3.6542170E+00;0;  0.0000000E+00;  0.0000000E+00;  0.0000000E+00;0; -4.6986109E-03;  1.0000000E+04;  0.0000000E+00;  0.0000000E+00;  1.0000000E+04;  0.0000000E+00;  1.0000000E+04; -2.7265158E-03;  0.0000000E+00; -1.9720951E-03;  6.1647465E+01;
  1.8000001E-01;  9.9999998E-03;  4.0000001E-01;550;  0.0000000E+00;  0.0000000E+00;  0.0000000E+00;  1.0000021E+03;  4.0000001E-01;  1.7777272E+00;0;  0.0000000E+00;  0.0000000E+00;  0.0000000E+00;0; -2.3780200E-03;  1.0000000E+04;  0.0000000E+00;  0.0000000E+00;  1.0000000E+04;  0.0000000E+00;  1.0000000E+04; -1.2876841E-03;  0.0000000E+00; -1.0903360E-03;  7.3650436E+01;
  2.0000000E-01;  9.9999998E-03;  3.4000000E-01;556;  0.0000000E+00;  0.0000000E+00;  0.0000000E+00;  1.0000156E+03;  4.0000001E-01;  1.2937903E+01;0;  0.0000000E+00;  0.0000000E+00;  0.0000000E+00;0; -1.5884712E-02;  1.0000000E+04;  0.0000000E+00;  0.0000000E+00;  1.0000000E+04;  0.0000000E+00;  1.0000000E+04; -1.1099470E-02;  0.0000000E+00; -4.7852425E-03;  1.6519864E+02;
  2.0000000E-01;  9.9999998E-03;  3.6000001E-01;557;  0.0000000E+00;  0.0000000E+00;  0.0000000E+00;  1.0000107E+03;  4.0000001E-01;  8.8886366E+00;0;  0.0000000E+00;  0.0000000E+00;  0.0000000E+00;0; -1.0993222E-02;  1.0000000E+04;  0.0000000E+00;  0.0000000E+00;  1.0000000E+04;  0.0000000E+00;  1.0000000E+04; -6.7977705E-03;  0.0000000E+00; -4.1954517E-03;  3.5220196E+01;
  2.0000000E-01;  9.9999998E-03;  3.8000000E-01;558;  0.0000000E+00;  0.0000000E+00;  0.0000000E+00;  1.0000068E+03;  4.0000001E-01;  5.6294694E+00;0;  0.0000000E+00;  0.0000000E+00;  0.0000000E+00;0; -6.9639995E-03;  1.0000000E+04;  0.0000000E+00;  0.0000000E+00;  1.0000000E+04;  0.0000000E+00;  1.0000000E+04; -3.7748974E-03;  0.0000000E+00; -3.1891020E-03;  1.2587423E+02;
  1.9200000E+00;  9.9999998E-03; -3.6000001E-01;559;  0.0000000E+00;  0.0000000E+00;  0.0000000E+00;  1.0000000E+03;  4.0000001E-01;  0.0000000E+00;0;  0.0000000E+00;  0.0000000E+00;  0.0000000E+00;0;  0.0000000E+00;  1.0000000E+04;  0.0000000E+00;  0.0000000E+00;  1.0000000E+04;  0.0000000E+00;  1.0000000E+04;  0.0000000E+00;  0.0000000E+00;  0.0000000E+00;  0.0000000E+00;
  1.9200000E+00;  9.9999998E-03; -3.4000000E-01;560;  0.0000000E+00;  0.0000000E+00;  0.0000000E+00;  1.0000000E+03;  4.0000001E-01;  0.0000000E+00;0;  0.0000000E+00;  0.0000000E+00;  0.0000000E+00;0;  0.0000000E+00;  1.0000000E+04;  0.0000000E+00;  0.0000000E+00;  1.0000000E+04;  0.0000000E+00;  1.0000000E+04;  0.0000000E+00;  0.0000000E+00;  0.0000000E+00;  0.0000000E+00;
  1.9200000E+00;  9.9999998E-03; -3.1999999E-01;561;  0.0000000E+00;  0.0000000E+00;  0.0000000E+00;  1.0000000E+03;  4.0000001E-01;  0.0000000E+00;0;  0.0000000E+00;  0.0000000E+00;  0.0000000E+00;0;  0.0000000E+00;  1.0000000E+04;  0.0000000E+00;  0.0000000E+00;  1.0000000E+04;  0.0000000E+00;  1.0000000E+04;  0.0000000E+00;  0.0000000E+00;  0.0000000E+00;  0.0000000E+00;
  1.9400001E+00;  9.9999998E-03; -3.8000000E-01;562;  0.0000000E+00;  0.0000000E+00;  0.0000000E+00;  1.0000000E+03;  4.0000001E-01;  0.0000000E+00;0;  0.0000000E+00;  0.0000000E+00;  0.0000000E+00;0;  0.0000000E+00;  1.0000000E+04;  0.0000000E+00;  0.0000000E+00;  1.0000000E+04;  0.0000000E+00;  1.0000000E+04;  0.0000000E+00;  0.0000000E+00;  0.0000000E+00;  0.0000000E+00;
  1.9400001E+00;  9.9999998E-03; -3.6000001E-01;563;  0.0000000E+00;  0.0000000E+00;  0.0000000E+00;  1.0000000E+03;  4.0000001E-01;  0.0000000E+00;0;  0.0000000E+00;  0.0000000E+00;  0.0000000E+00;0;  0.0000000E+00;  1.0000000E+04;  0.0000000E+00;  0.0000000E+00;  1.0000000E+04;  0.0000000E+00;  1.0000000E+04;  0.0000000E+00;  0.0000000E+00;  0.0000000E+00;  0.0000000E+00;
  1.9400001E+00;  9.9999998E-03; -3.4000000E-01;564;  0.0000000E+00;  0.0000000E+00;  0.0000000E+00;  1.0000000E+03;  4.0000001E-01;  0.0000000E+00;0;  0.0000000E+00;  0.0000000E+00;  0.0000000E+00;0;  0.0000000E+00;  1.0000000E+04;  0.0000000E+00;  0.0000000E+00;  1.0000000E+04;  0.0000000E+00;  1.0000000E+04;  0.0000000E+00;  0.0000000E+00;  0.0000000E+00;  0.0000000E+00;
  1.9400001E+00;  9.9999998E-03; -3.1999999E-01;565;  0.0000000E+00;  0.0000000E+00;  0.0000000E+00;  1.0000000E+03;  4.0000001E-01;  0.0000000E+00;0;  0.0000000E+00;  0.0000000E+00;  0.0000000E+00;0;  0.0000000E+00;  1.0000000E+04;  0.0000000E+00;  0.0000000E+00;  1.0000000E+04;  0.0000000E+00;  1.0000000E+04;  0.0000000E+00;  0.0000000E+00;  0.0000000E+00;  0.0000000E+00;
  1.9400001E+00;  9.9999998E-03; -3.0000001E-01;566;  0.0000000E+00;  0.0000000E+00;  0.0000000E+00;  1.0000000E+03;  4.0000001E-01;  0.0000000E+00;0;  0.0000000E+00;  0.0000000E+00;  0.0000000E+00;0;  0.0000000E+00;  1.0000000E+04;  0.0000000E+00;  0.0000000E+00;  1.0000000E+04;  0.0000000E+00;  1.0000000E+04;  0.0000000E+00;  0.0000000E+00;  0.0000000E+00;  0.0000000E+00;
  1.9400001E+00;  9.9999998E-03; -2.8000000E-01;567;  0.0000000E+00;  0.0000000E+00;  0.0000000E+00;  1.0000000E+03;  4.0000001E-01;  0.0000000E+00;0;  0.0000000E+00;  0.0000000E+00;  0.0000000E+00;0;  0.0000000E+00;  1.0000000E+04;  0.0000000E+00;  0.0000000E+00;  1.0000000E+04;  0.0000000E+00;  1.0000000E+04;  0.0000000E+00;  0.0000000E+00;  0.0000000E+00;  0.0000000E+00;
  1.9400001E+00;  9.9999998E-03; -2.5999999E-01;568;  0.0000000E+00;  0.0000000E+00;  0.0000000E+00;  1.0000000E+03;  4.0000001E-01;  0.0000000E+00;0;  0.0000000E+00;  0.0000000E+00;  0.0000000E+00;0;  0.0000000E+00;  1.0000000E+04;  0.0000000E+00;  0.0000000E+00;  1.0000000E+04;  0.0000000E+00;  1.0000000E+04;  0.0000000E+00;  0.0000000E+00;  0.0000000E+00;  0.0000000E+00;
  1.9400001E+00;  9.9999998E-03; -2.3999999E-01;569;  0.0000000E+00;  0.0000000E+00;  0.0000000E+00;  1.0000000E+03;  4.0000001E-01;  0.0000000E+00;0;  0.0000000E+00;  0.0000000E+00;  0.0000000E+00;0;  0.0000000E+00;  1.0000000E+04;  0.0000000E+00;  0.0000000E+00;  1.0000000E+04;  0.0000000E+00;  1.0000000E+04;  0.0000000E+00;  0.0000000E+00;  0.0000000E+00;  0.0000000E+00;
  1.9400001E+00;  9.9999998E-03; -2.2000000E-01;570;  0.0000000E+00;  0.0000000E+00;  0.0000000E+00;  1.0000000E+03;  4.0000001E-01;  0.0000000E+00;0;  0.0000000E+00;  0.0000000E+00;  0.0000000E+00;0;  0.0000000E+00;  1.0000000E+04;  0.0000000E+00;  0.0000000E+00;  1.0000000E+04;  0.0000000E+00;  1.0000000E+04;  0.0000000E+00;  0.0000000E+00;  0.0000000E+00;  0.0000000E+00;
  1.9600000E+00;  9.9999998E-03; -3.8000000E-01;571;  0.0000000E+00;  0.0000000E+00;  0.0000000E+00;  1.0000000E+03;  4.0000001E-01;  0.0000000E+00;0;  0.0000000E+00;  0.0000000E+00;  0.0000000E+00;0;  0.0000000E+00;  1.0000000E+04;  0.0000000E+00;  0.0000000E+00;  1.0000000E+04;  0.0000000E+00;  1.0000000E+04;  0.0000000E+00;  0.0000000E+00;  0.0000000E+00;  0.0000000E+00;
  1.9600000E+00;  9.9999998E-03; -3.6000001E-01;572;  0.0000000E+00;  0.0000000E+00;  0.0000000E+00;  1.0000000E+03;  4.0000001E-01;  0.0000000E+00;0;  0.0000000E+00;  0.0000000E+00;  0.0000000E+00;0;  0.0000000E+00;  1.0000000E+04;  0.0000000E+00;  0.0000000E+00;  1.0000000E+04;  0.0000000E+00;  1.0000000E+04;  0.0000000E+00;  0.0000000E+00;  0.0000000E+00;  0.0000000E+00;
  1.9600000E+00;  9.9999998E-03; -3.4000000E-01;573;  0.0000000E+00;  0.0000000E+00;  0.0000000E+00;  1.0000000E+03;  4.0000001E-01;  0.0000000E+00;0;  0.0000000E+00;  0.0000000E+00;  0.0000000E+00;0;  0.0000000E+00;  1.0000000E+04;  0.0000000E+00;  0.0000000E+00;  1.0000000E+04;  0.0000000E+00;  1.0000000E+04;  0.0000000E+00;  0.0000000E+00;  0.0000000E+00;  0.0000000E+00;
  1.9600000E+00;  9.9999998E-03; -3.1999999E-01;574;  0.0000000E+00;  0.0000000E+00;  0.0000000E+00;  1.0000000E+03;  4.0000001E-01;  0.0000000E+00;0;  0.0000000E+00;  0.0000000E+00;  0.0000000E+00;0;  0.0000000E+00;  1.0000000E+04;  0.0000000E+00;  0.0000000E+00;  1.0000000E+04;  0.0000000E+00;  1.0000000E+04;  0.0000000E+00;  0.0000000E+00;  0.0000000E+00;  0.0000000E+00;
  1.9600000E+00;  9.9999998E-03; -3.0000001E-01;575;  0.0000000E+00;  0.0000000E+00;  0.0000000E+00;  1.0000000E+03;  4.0000001E-01;  0.0000000E+00;0;  0.0000000E+00;  0.0000000E+00;  0.0000000E+00;0;  0.0000000E+00;  1.0000000E+04;  0.0000000E+00;  0.0000000E+00;  1.0000000E+04;  0.0000000E+00;  1.0000000E+04;  0.0000000E+00;  0.0000000E+00;  0.0000000E+00;  0.0000000E+00;
  1.9600000E+00;  9.9999998E-03; -2.8000000E-01;576;  0.0000000E+00;  0.0000000E+00;  0.0000000E+00;  1.0000000E+03;  4.0000001E-01;  0.0000000E+00;0;  0.0000000E+00;  0.0000000E+00;  0.0000000E+00;0;  0.0000000E+00;  1.0000000E+04;  0.0000000E+00;  0.0000000E+00;  1.0000000E+04;  0.0000000E+00;  1.0000000E+04;  0.0000000E+00;  0.0000000E+00;  0.0000000E+00;  0.0000000E+00;
  1.9600000E+00;  9.9999998E-03; -2.5999999E-01;577;  0.0000000E+00;  0.0000000E+00;  0.0000000E+00;  1.0000000E+03;  4.0000001E-01;  0.0000000E+00;0;  0.0000000E+00;  0.0000000E+00;  0.0000000E+00;0;  0.0000000E+00;  1.0000000E+04;  0.0000000E+00;  0.0000000E+00;  1.0000000E+04;  0.0000000E+00;  1.0000000E+04;  0.0000000E+00;  0.0000000E+00;  0.0000000E+00;  0.0000000E+00;
  1.9600000E+00;  9.9999998E-03; -2.3999999E-01;578;  0.0000000E+00;  0.0000000E+00;  0.0000000E+00;  1.0000000E+03;  4.0000001E-01;  0.0000000E+00;0;  0.0000000E+00;  0.0000000E+00;  0.0000000E+00;0;  0.0000000E+00;  1.0000000E+04;  0.0000000E+00;  0.0000000E+00;  1.0000000E+04;  0.0000000E+00;  1.0000000E+04;  0.0000000E+00;  0.0000000E+00;  0.0000000E+00;  0.0000000E+00;
  1.9600000E+00;  9.9999998E-03; -2.2000000E-01;579;  0.0000000E+00;  0.0000000E+00;  0.0000000E+00;  1.0000000E+03;  4.0000001E-01;  0.0000000E+00;0;  0.0000000E+00;  0.0000000E+00;  0.0000000E+00;0;  0.0000000E+00;  1.0000000E+04;  0.0000000E+00;  0.0000000E+00;  1.0000000E+04;  0.0000000E+00;  1.0000000E+04;  0.0000000E+00;  0.0000000E+00;  0.0000000E+00;  0.0000000E+00;
  1.9600000E+00;  9.9999998E-03; -2.0000000E-01;580;  0.0000000E+00;  0.0000000E+00;  0.0000000E+00;  1.0000000E+03;  4.0000001E-01;  0.0000000E+00;0;  0.0000000E+00;  0.0000000E+00;  0.0000000E+00;0;  0.0000000E+00;  1.0000000E+04;  0.0000000E+00;  0.0000000E+00;  1.0000000E+04;  0.0000000E+00;  1.0000000E+04;  0.0000000E+00;  0.0000000E+00;  0.0000000E+00;  0.0000000E+00;
  1.9600000E+00;  9.9999998E-03; -1.8000001E-01;581;  0.0000000E+00;  0.0000000E+00;  0.0000000E+00;  1.0000000E+03;  4.0000001E-01;  0.0000000E+00;0;  0.0000000E+00;  0.0000000E+00;  0.0000000E+00;0;  0.0000000E+00;  1.0000000E+04;  0.0000000E+00;  0.0000000E+00;  1.0000000E+04;  0.0000000E+00;  1.0000000E+04;  0.0000000E+00;  0.0000000E+00;  0.0000000E+00;  0.0000000E+00;
  1.9600000E+00;  9.9999998E-03; -1.6000000E-01;582;  0.0000000E+00;  0.0000000E+00;  0.0000000E+00;  1.0000000E+03;  4.0000001E-01;  0.0000000E+00;0;  0.0000000E+00;  0.0000000E+00;  0.0000000E+00;0;  0.0000000E+00;  1.0000000E+04;  0.0000000E+00;  0.0000000E+00;  1.0000000E+04;  0.0000000E+00;  1.0000000E+04;  0.0000000E+00;  0.0000000E+00;  0.0000000E+00;  0.0000000E+00;
  1.9600000E+00;  9.9999998E-03; -1.4000000E-01;583;  0.0000000E+00;  0.0000000E+00;  0.0000000E+00;  1.0000000E+03;  4.0000001E-01;  0.0000000E+00;0;  0.0000000E+00;  0.0000000E+00;  0.0000000E+00;0;  0.0000000E+00;  1.0000000E+04;  0.0000000E+00;  0.0000000E+00;  1.0000000E+04;  0.0000000E+00;  1.0000000E+04;  0.0000000E+00;  0.0000000E+00;  0.0000000E+00;  0.0000000E+00;
  1.9600000E+00;  9.9999998E-03; -1.2000000E-01;584;  0.0000000E+00;  0.0000000E+00;  0.0000000E+00;  1.0000000E+03;  4.0000001E-01;  0.0000000E+00;0;  0.0000000E+00;  0.0000000E+00;  0.0000000E+00;0;  0.0000000E+00;  1.0000000E+04;  0.0000000E+00;  0.0000000E+00;  1.0000000E+04;  0.0000000E+00;  1.0000000E+04;  0.0000000E+00;  0.0000000E+00;  0.0000000E+00;  0.0000000E+00;
  1.9800000E+00;  9.9999998E-03; -3.8000000E-01;585;  0.0000000E+00;  0.0000000E+00;  0.0000000E+00;  1.0000000E+03;  4.0000001E-01;  0.0000000E+00;0;  0.0000000E+00;  0.0000000E+00;  0.0000000E+00;0;  0.0000000E+00;  1.0000000E+04;  0.0000000E+00;  0.0000000E+00;  1.0000000E+04;  0.0000000E+00;  1.0000000E+04;  0.0000000E+00;  0.0000000E+00;  0.0000000E+00;  0.0000000E+00;
  1.9800000E+00;  9.9999998E-03; -3.6000001E-01;586;  0.0000000E+00;  0.0000000E+00;  0.0000000E+00;  1.0000000E+03;  4.0000001E-01;  0.0000000E+00;0;  0.0000000E+00;  0.0000000E+00;  0.0000000E+00;0;  0.0000000E+00;  1.0000000E+04;  0.0000000E+00;  0.0000000E+00;  1.0000000E+04;  0.0000000E+00;  1.0000000E+04;  0.0000000E+00;  0.0000000E+00;  0.0000000E+00;  0.0000000E+00;
  1.9800000E+00;  9.9999998E-03; -3.4000000E-01;587;  0.0000000E+00;  0.0000000E+00;  0.0000000E+00;  1.0000000E+03;  4.0000001E-01;  0.0000000E+00;0;  0.0000000E+00;  0.0000000E+00;  0.0000000E+00;0;  0.0000000E+00;  1.0000000E+04;  0.0000000E+00;  0.0000000E+00;  1.0000000E+04;  0.0000000E+00;  1.0000000E+04;  0.0000000E+00;  0.0000000E+00;  0.0000000E+00;  0.0000000E+00;
  1.9800000E+00;  9.9999998E-03; -3.1999999E-01;588;  0.0000000E+00;  0.0000000E+00;  0.0000000E+00;  1.0000000E+03;  4.0000001E-01;  0.0000000E+00;0;  0.0000000E+00;  0.0000000E+00;  0.0000000E+00;0;  0.0000000E+00;  1.0000000E+04;  0.0000000E+00;  0.0000000E+00;  1.0000000E+04;  0.0000000E+00;  1.0000000E+04;  0.0000000E+00;  0.0000000E+00;  0.0000000E+00;  0.0000000E+00;
  1.9800000E+00;  9.9999998E-03; -3.0000001E-01;589;  0.0000000E+00;  0.0000000E+00;  0.0000000E+00;  1.0000000E+03;  4.0000001E-01;  0.0000000E+00;0;  0.0000000E+00;  0.0000000E+00;  0.0000000E+00;0;  0.0000000E+00;  1.0000000E+04;  0.0000000E+00;  0.0000000E+00;  1.0000000E+04;  0.0000000E+00;  1.0000000E+04;  0.0000000E+00;  0.0000000E+00;  0.0000000E+00;  0.0000000E+00;
  1.9800000E+00;  9.9999998E-03; -2.8000000E-01;590;  0.0000000E+00;  0.0000000E+00;  0.0000000E+00;  1.0000000E+03;  4.0000001E-01;  0.0000000E+00;0;  0.0000000E+00;  0.0000000E+00;  0.0000000E+00;0;  0.0000000E+00;  1.0000000E+04;  0.0000000E+00;  0.0000000E+00;  1.0000000E+04;  0.0000000E+00;  1.0000000E+04;  0.0000000E+00;  0.0000000E+00;  0.0000000E+00;  0.0000000E+00;
  1.9800000E+00;  9.9999998E-03; -2.5999999E-01;591;  0.0000000E+00;  0.0000000E+00;  0.0000000E+00;  1.0000000E+03;  4.0000001E-01;  0.0000000E+00;0;  0.0000000E+00;  0.0000000E+00;  0.0000000E+00;0;  0.0000000E+00;  1.0000000E+04;  0.0000000E+00;  0.0000000E+00;  1.0000000E+04;  0.0000000E+00;  1.0000000E+04;  0.0000000E+00;  0.0000000E+00;  0.0000000E+00;  0.0000000E+00;
  1.9800000E+00;  9.9999998E-03; -2.3999999E-01;592;  0.0000000E+00;  0.0000000E+00;  0.0000000E+00;  1.0000000E+03;  4.0000001E-01;  0.0000000E+00;0;  0.0000000E+00;  0.0000000E+00;  0.0000000E+00;0;  0.0000000E+00;  1.0000000E+04;  0.0000000E+00;  0.0000000E+00;  1.0000000E+04;  0.0000000E+00;  1.0000000E+04;  0.0000000E+00;  0.0000000E+00;  0.0000000E+00;  0.0000000E+00;
  1.9800000E+00;  9.9999998E-03; -2.2000000E-01;593;  0.0000000E+00;  0.0000000E+00;  0.0000000E+00;  1.0000000E+03;  4.0000001E-01;  0.0000000E+00;0;  0.0000000E+00;  0.0000000E+00;  0.0000000E+00;0;  0.0000000E+00;  1.0000000E+04;  0.0000000E+00;  0.0000000E+00;  1.0000000E+04;  0.0000000E+00;  1.0000000E+04;  0.0000000E+00;  0.0000000E+00;  0.0000000E+00;  0.0000000E+00;
  1.9800000E+00;  9.9999998E-03; -2.0000000E-01;594;  0.0000000E+00;  0.0000000E+00;  0.0000000E+00;  1.0000000E+03;  4.0000001E-01;  0.0000000E+00;0;  0.0000000E+00;  0.0000000E+00;  0.0000000E+00;0;  0.0000000E+00;  1.0000000E+04;  0.0000000E+00;  0.0000000E+00;  1.0000000E+04;  0.0000000E+00;  1.0000000E+04;  0.0000000E+00;  0.0000000E+00;  0.0000000E+00;  0.0000000E+00;
  1.9800000E+00;  9.9999998E-03; -1.8000001E-01;595;  0.0000000E+00;  0.0000000E+00;  0.0000000E+00;  1.0000000E+03;  4.0000001E-01;  0.0000000E+00;0;  0.0000000E+00;  0.0000000E+00;  0.0000000E+00;0;  0.0000000E+00;  1.0000000E+04;  0.0000000E+00;  0.0000000E+00;  1.0000000E+04;  0.0000000E+00;  1.0000000E+04;  0.0000000E+00;  0.0000000E+00;  0.0000000E+00;  0.0000000E+00;
  1.9800000E+00;  9.9999998E-03; -1.6000000E-01;596;  0.0000000E+00;  0.0000000E+00;  0.0000000E+00;  1.0000000E+03;  4.0000001E-01;  0.0000000E+00;0;  0.0000000E+00;  0.0000000E+00;  0.0000000E+00;0;  0.0000000E+00;  1.0000000E+04;  0.0000000E+00;  0.0000000E+00;  1.0000000E+04;  0.0000000E+00;  1.0000000E+04;  0.0000000E+00;  0.0000000E+00;  0.0000000E+00;  0.0000000E+00;
  1.9800000E+00;  9.9999998E-03; -1.4000000E-01;597;  0.0000000E+00;  0.0000000E+00;  0.0000000E+00;  1.0000000E+03;  4.0000001E-01;  0.0000000E+00;0;  0.0000000E+00;  0.0000000E+00;  0.0000000E+00;0;  0.0000000E+00;  1.0000000E+04;  0.0000000E+00;  0.0000000E+00;  1.0000000E+04;  0.0000000E+00;  1.0000000E+04;  0.0000000E+00;  0.0000000E+00;  0.0000000E+00;  0.0000000E+00;
  1.9800000E+00;  9.9999998E-03; -1.2000000E-01;598;  0.0000000E+00;  0.0000000E+00;  0.0000000E+00;  1.0000000E+03;  4.0000001E-01;  0.0000000E+00;0;  0.0000000E+00;  0.0000000E+00;  0.0000000E+00;0;  0.0000000E+00;  1.0000000E+04;  0.0000000E+00;  0.0000000E+00;  1.0000000E+04;  0.0000000E+00;  1.0000000E+04;  0.0000000E+00;  0.0000000E+00;  0.0000000E+00;  0.0000000E+00;
  1.9800000E+00;  9.9999998E-03; -1.0000000E-01;599;  0.0000000E+00;  0.0000000E+00;  0.0000000E+00;  1.0000000E+03;  4.0000001E-01;  0.0000000E+00;0;  0.0000000E+00;  0.0000000E+00;  0.0000000E+00;0;  0.0000000E+00;  1.0000000E+04;  0.0000000E+00;  0.0000000E+00;  1.0000000E+04;  0.0000000E+00;  1.0000000E+04;  0.0000000E+00;  0.0000000E+00;  0.0000000E+00;  0.0000000E+00;
  1.9800000E+00;  9.9999998E-03; -7.9999998E-02;600;  0.0000000E+00;  0.0000000E+00;  0.0000000E+00;  1.0000000E+03;  4.0000001E-01;  0.0000000E+00;0;  0.0000000E+00;  0.0000000E+00;  0.0000000E+00;0;  0.0000000E+00;  1.0000000E+04;  0.0000000E+00;  0.0000000E+00;  1.0000000E+04;  0.0000000E+00;  1.0000000E+04;  0.0000000E+00;  0.0000000E+00;  0.0000000E+00;  0.0000000E+00;
  1.9800000E+00;  9.9999998E-03; -5.9999999E-02;601;  0.0000000E+00;  0.0000000E+00;  0.0000000E+00;  1.0000000E+03;  4.0000001E-01;  0.0000000E+00;0;  0.0000000E+00;  0.0000000E+00;  0.0000000E+00;0;  0.0000000E+00;  1.0000000E+04;  0.0000000E+00;  0.0000000E+00;  1.0000000E+04;  0.0000000E+00;  1.0000000E+04;  0.0000000E+00;  0.0000000E+00;  0.0000000E+00;  0.0000000E+00;
  1.9800000E+00;  9.9999998E-03; -3.9999999E-02;602;  0.0000000E+00;  0.0000000E+00;  0.0000000E+00;  1.0000000E+03;  4.0000001E-01;  0.0000000E+00;0;  0.0000000E+00;  0.0000000E+00;  0.0000000E+00;0;  0.0000000E+00;  1.0000000E+04;  0.0000000E+00;  0.0000000E+00;  1.0000000E+04;  0.0000000E+00;  1.0000000E+04;  0.0000000E+00;  0.0000000E+00;  0.0000000E+00;  0.0000000E+00;
  1.9800000E+00;  9.9999998E-03; -2.0000000E-02;603;  0.0000000E+00;  0.0000000E+00;  0.0000000E+00;  1.0000000E+03;  4.0000001E-01;  0.0000000E+00;0;  0.0000000E+00;  0.0000000E+00;  0.0000000E+00;0;  0.0000000E+00;  1.0000000E+04;  0.0000000E+00;  0.0000000E+00;  1.0000000E+04;  0.0000000E+00;  1.0000000E+04;  0.0000000E+00;  0.0000000E+00;  0.0000000E+00;  0.0000000E+00;
  2.0000000E+00;  9.9999998E-03; -3.8000000E-01;604;  0.0000000E+00;  0.0000000E+00;  0.0000000E+00;  1.0000000E+03;  4.0000001E-01;  0.0000000E+00;0;  0.0000000E+00;  0.0000000E+00;  0.0000000E+00;0;  0.0000000E+00;  1.0000000E+04;  0.0000000E+00;  0.0000000E+00;  1.0000000E+04;  0.0000000E+00;  1.0000000E+04;  0.0000000E+00;  0.0000000E+00;  0.0000000E+00;  0.0000000E+00;
  2.0000000E+00;  9.9999998E-03; -3.6000001E-01;605;  0.0000000E+00;  0.0000000E+00;  0.0000000E+00;  1.0000000E+03;  4.0000001E-01;  0.0000000E+00;0;  0.0000000E+00;  0.0000000E+00;  0.0000000E+00;0;  0.0000000E+00;  1.0000000E+04;  0.0000000E+00;  0.0000000E+00;  1.0000000E+04;  0.0000000E+00;  1.0000000E+04;  0.0000000E+00;  0.0000000E+00;  0.0000000E+00;  0.0000000E+00;
  2.0000000E+00;  9.9999998E-03; -3.4000000E-01;606;  0.0000000E+00;  0.0000000E+00;  0.0000000E+00;  1.0000000E+03;  4.0000001E-01;  0.0000000E+00;0;  0.0000000E+00;  0.0000000E+00;  0.0000000E+00;0;  0.0000000E+00;  1.0000000E+04;  0.0000000E+00;  0.0000000E+00;  1.0000000E+04;  0.0000000E+00;  1.0000000E+04;  0.0000000E+00;  0.0000000E+00;  0.0000000E+00;  0.0000000E+00;
  2.0000000E+00;  9.9999998E-03; -3.1999999E-01;607;  0.0000000E+00;  0.0000000E+00;  0.0000000E+00;  1.0000000E+03;  4.0000001E-01;  0.0000000E+00;0;  0.0000000E+00;  0.0000000E+00;  0.0000000E+00;0;  0.0000000E+00;  1.0000000E+04;  0.0000000E+00;  0.0000000E+00;  1.0000000E+04;  0.0000000E+00;  1.0000000E+04;  0.0000000E+00;  0.0000000E+00;  0.0000000E+00;  0.0000000E+00;
  2.0000000E+00;  9.9999998E-03; -3.0000001E-01;608;  0.0000000E+00;  0.0000000E+00;  0.0000000E+00;  1.0000000E+03;  4.0000001E-01;  0.0000000E+00;0;  0.0000000E+00;  0.0000000E+00;  0.0000000E+00;0;  0.0000000E+00;  1.0000000E+04;  0.0000000E+00;  0.0000000E+00;  1.0000000E+04;  0.0000000E+00;  1.0000000E+04;  0.0000000E+00;  0.0000000E+00;  0.0000000E+00;  0.0000000E+00;
  2.0000000E+00;  9.9999998E-03; -2.8000000E-01;609;  0.0000000E+00;  0.0000000E+00;  0.0000000E+00;  1.0000000E+03;  4.0000001E-01;  0.0000000E+00;0;  0.0000000E+00;  0.0000000E+00;  0.0000000E+00;0;  0.0000000E+00;  1.0000000E+04;  0.0000000E+00;  0.0000000E+00;  1.0000000E+04;  0.0000000E+00;  1.0000000E+04;  0.0000000E+00;  0.0000000E+00;  0.0000000E+00;  0.0000000E+00;
  2.0000000E+00;  9.9999998E-03; -2.5999999E-01;610;  0.0000000E+00;  0.0000000E+00;  0.0000000E+00;  1.0000000E+03;  4.0000001E-01;  0.0000000E+00;0;  0.0000000E+00;  0.0000000E+00;  0.0000000E+00;0;  0.0000000E+00;  1.0000000E+04;  0.0000000E+00;  0.0000000E+00;  1.0000000E+04;  0.0000000E+00;  1.0000000E+04;  0.0000000E+00;  0.0000000E+00;  0.0000000E+00;  0.0000000E+00;
  2.0000000E+00;  9.9999998E-03; -2.3999999E-01;611;  0.0000000E+00;  0.0000000E+00;  0.0000000E+00;  1.0000000E+03;  4.0000001E-01;  0.0000000E+00;0;  0.0000000E+00;  0.0000000E+00;  0.0000000E+00;0;  0.0000000E+00;  1.0000000E+04;  0.0000000E+00;  0.0000000E+00;  1.0000000E+04;  0.0000000E+00;  1.0000000E+04;  0.0000000E+00;  0.0000000E+00;  0.0000000E+00;  0.0000000E+00;
  2.0000000E+00;  9.9999998E-03; -2.2000000E-01;612;  0.0000000E+00;  0.0000000E+00;  0.0000000E+00;  1.0000000E+03;  4.0000001E-01;  0.0000000E+00;0;  0.0000000E+00;  0.0000000E+00;  0.0000000E+00;0;  0.0000000E+00;  1.0000000E+04;  0.0000000E+00;  0.0000000E+00;  1.0000000E+04;  0.0000000E+00;  1.0000000E+04;  0.0000000E+00;  0.0000000E+00;  0.0000000E+00;  0.0000000E+00;
  2.0000000E+00;  9.9999998E-03; -2.0000000E-01;613;  0.0000000E+00;  0.0000000E+00;  0.0000000E+00;  1.0000000E+03;  4.0000001E-01;  0.0000000E+00;0;  0.0000000E+00;  0.0000000E+00;  0.0000000E+00;0;  0.0000000E+00;  1.0000000E+04;  0.0000000E+00;  0.0000000E+00;  1.0000000E+04;  0.0000000E+00;  1.0000000E+04;  0.0000000E+00;  0.0000000E+00;  0.0000000E+00;  0.0000000E+00;
  2.0000000E+00;  9.9999998E-03; -1.8000001E-01;614;  0.0000000E+00;  0.0000000E+00;  0.0000000E+00;  1.0000000E+03;  4.0000001E-01;  0.0000000E+00;0;  0.0000000E+00;  0.0000000E+00;  0.0000000E+00;0;  0.0000000E+00;  1.0000000E+04;  0.0000000E+00;  0.0000000E+00;  1.0000000E+04;  0.0000000E+00;  1.0000000E+04;  0.0000000E+00;  0.0000000E+00;  0.0000000E+00;  0.0000000E+00;
  2.0000000E+00;  9.9999998E-03; -1.6000000E-01;615;  0.0000000E+00;  0.0000000E+00;  0.0000000E+00;  1.0000000E+03;  4.0000001E-01;  0.0000000E+00;0;  0.0000000E+00;  0.0000000E+00;  0.0000000E+00;0;  0.0000000E+00;  1.0000000E+04;  0.0000000E+00;  0.0000000E+00;  1.0000000E+04;  0.0000000E+00;  1.0000000E+04;  0.0000000E+00;  0.0000000E+00;  0.0000000E+00;  0.0000000E+00;
  2.0000000E+00;  9.9999998E-03; -1.4000000E-01;616;  0.0000000E+00;  0.0000000E+00;  0.0000000E+00;  1.0000000E+03;  4.0000001E-01;  0.0000000E+00;0;  0.0000000E+00;  0.0000000E+00;  0.0000000E+00;0;  0.0000000E+00;  1.0000000E+04;  0.0000000E+00;  0.0000000E+00;  1.0000000E+04;  0.0000000E+00;  1.0000000E+04;  0.0000000E+00;  0.0000000E+00;  0.0000000E+00;  0.0000000E+00;
  2.0000000E+00;  9.9999998E-03; -1.2000000E-01;617;  0.0000000E+00;  0.0000000E+00;  0.0000000E+00;  1.0000000E+03;  4.0000001E-01;  0.0000000E+00;0;  0.0000000E+00;  0.0000000E+00;  0.0000000E+00;0;  0.0000000E+00;  1.0000000E+04;  0.0000000E+00;  0.0000000E+00;  1.0000000E+04;  0.0000000E+00;  1.0000000E+04;  0.0000000E+00;  0.0000000E+00;  0.0000000E+00;  0.0000000E+00;
  2.0000000E+00;  9.9999998E-03; -1.0000000E-01;618;  0.0000000E+00;  0.0000000E+00;  0.0000000E+00;  1.0000000E+03;  4.0000001E-01;  0.0000000E+00;0;  0.0000000E+00;  0.0000000E+00;  0.0000000E+00;0;  0.0000000E+00;  1.0000000E+04;  0.0000000E+00;  0.0000000E+00;  1.0000000E+04;  0.0000000E+00;  1.0000000E+04;  0.0000000E+00;  0.0000000E+00;  0.0000000E+00;  0.0000000E+00;
  2.0000000E+00;  9.9999998E-03; -7.9999998E-02;619;  0.0000000E+00;  0.0000000E+00;  0.0000000E+00;  1.0000000E+03;  4.0000001E-01;  0.0000000E+00;0;  0.0000000E+00;  0.0000000E+00;  0.0000000E+00;0;  0.0000000E+00;  1.0000000E+04;  0.0000000E+00;  0.0000000E+00;  1.0000000E+04;  0.0000000E+00;  1.0000000E+04;  0.0000000E+00;  0.0000000E+00;  0.0000000E+00;  0.0000000E+00;
  2.0000000E+00;  9.9999998E-03; -5.9999999E-02;620;  0.0000000E+00;  0.0000000E+00;  0.0000000E+00;  1.0000000E+03;  4.0000001E-01;  0.0000000E+00;0;  0.0000000E+00;  0.0000000E+00;  0.0000000E+00;0;  0.0000000E+00;  1.0000000E+04;  0.0000000E+00;  0.0000000E+00;  1.0000000E+04;  0.0000000E+00;  1.0000000E+04;  0.0000000E+00;  0.0000000E+00;  0.0000000E+00;  0.0000000E+00;
  2.0000000E+00;  9.9999998E-03; -3.9999999E-02;621;  0.0000000E+00;  0.0000000E+00;  0.0000000E+00;  1.0000000E+03;  4.0000001E-01;  0.0000000E+00;0;  0.0000000E+00;  0.0000000E+00;  0.0000000E+00;0;  0.0000000E+00;  1.0000000E+04;  0.0000000E+00;  0.0000000E+00;  1.0000000E+04;  0.0000000E+00;  1.0000000E+04;  0.0000000E+00;  0.0000000E+00;  0.0000000E+00;  0.0000000E+00;
  2.0000000E+00;  9.9999998E-03; -2.0000000E-02;622;  0.0000000E+00;  0.0000000E+00;  0.0000000E+00;  1.0000000E+03;  4.0000001E-01;  0.0000000E+00;0;  0.0000000E+00;  0.0000000E+00;  0.0000000E+00;0;  0.0000000E+00;  1.0000000E+04;  0.0000000E+00;  0.0000000E+00;  1.0000000E+04;  0.0000000E+00;  1.0000000E+04;  0.0000000E+00;  0.0000000E+00;  0.0000000E+00;  0.0000000E+00;
  2.0000000E+00;  9.9999998E-03;  0.0000000E+00;623;  0.0000000E+00;  0.0000000E+00;  0.0000000E+00;  1.0000000E+03;  4.0000001E-01;  0.0000000E+00;0;  0.0000000E+00;  0.0000000E+00;  0.0000000E+00;0;  0.0000000E+00;  1.0000000E+04;  0.0000000E+00;  0.0000000E+00;  1.0000000E+04;  0.0000000E+00;  1.0000000E+04;  0.0000000E+00;  0.0000000E+00;  0.0000000E+00;  0.0000000E+00;
  2.0000000E+00;  9.9999998E-03;  2.0000000E-02;624;  0.0000000E+00;  0.0000000E+00;  0.0000000E+00;  1.0000000E+03;  4.0000001E-01;  0.0000000E+00;0;  0.0000000E+00;  0.0000000E+00;  0.0000000E+00;0;  0.0000000E+00;  1.0000000E+04;  0.0000000E+00;  0.0000000E+00;  1.0000000E+04;  0.0000000E+00;  1.0000000E+04;  0.0000000E+00;  0.0000000E+00;  0.0000000E+00;  0.0000000E+00;
  2.0000000E+00;  9.9999998E-03;  3.9999999E-02;625;  0.0000000E+00;  0.0000000E+00;  0.0000000E+00;  1.0000000E+03;  4.0000001E-01;  0.0000000E+00;0;  0.0000000E+00;  0.0000000E+00;  0.0000000E+00;0;  0.0000000E+00;  1.0000000E+04;  0.0000000E+00;  0.0000000E+00;  1.0000000E+04;  0.0000000E+00;  1.0000000E+04;  0.0000000E+00;  0.0000000E+00;  0.0000000E+00;  0.0000000E+00;
  2.0000000E+00;  9.9999998E-03;  5.9999999E-02;626;  0.0000000E+00;  0.0000000E+00;  0.0000000E+00;  1.0000000E+03;  4.0000001E-01;  0.0000000E+00;0;  0.0000000E+00;  0.0000000E+00;  0.0000000E+00;0;  0.0000000E+00;  1.0000000E+04;  0.0000000E+00;  0.0000000E+00;  1.0000000E+04;  0.0000000E+00;  1.0000000E+04;  0.0000000E+00;  0.0000000E+00;  0.0000000E+00;  0.0000000E+00;
  2.0000000E+00;  9.9999998E-03;  7.9999998E-02;627;  0.0000000E+00;  0.0000000E+00;  0.0000000E+00;  1.0000000E+03;  4.0000001E-01;  0.0000000E+00;0;  0.0000000E+00;  0.0000000E+00;  0.0000000E+00;0;  0.0000000E+00;  1.0000000E+04;  0.0000000E+00;  0.0000000E+00;  1.0000000E+04;  0.0000000E+00;  1.0000000E+04;  0.0000000E+00;  0.0000000E+00;  0.0000000E+00;  0.0000000E+00;
  2.0200000E+00;  9.9999998E-03; -4.0000001E-01;628;  0.0000000E+00;  0.0000000E+00;  0.0000000E+00;  1.0000000E+03;  4.0000001E-01;  0.0000000E+00;0;  0.0000000E+00;  0.0000000E+00;  0.0000000E+00;0;  0.0000000E+00;  1.0000000E+04;  0.0000000E+00;  0.0000000E+00;  1.0000000E+04;  0.0000000E+00;  1.0000000E+04;  0.0000000E+00;  0.0000000E+00;  0.0000000E+00;  0.0000000E+00;
  2.0200000E+00;  9.9999998E-03; -3.8000000E-01;629;  0.0000000E+00;  0.0000000E+00;  0.0000000E+00;  1.0000000E+03;  4.0000001E-01;  0.0000000E+00;0;  0.0000000E+00;  0.0000000E+00;  0.0000000E+00;0;  0.0000000E+00;  1.0000000E+04;  0.0000000E+00;  0.0000000E+00;  1.0000000E+04;  0.0000000E+00;  1.0000000E+04;  0.0000000E+00;  0.0000000E+00;  0.0000000E+00;  0.0000000E+00;
  2.0200000E+00;  9.9999998E-03; -3.6000001E-01;630;  0.0000000E+00;  0.0000000E+00;  0.0000000E+00;  1.0000000E+03;  4.0000001E-01;  0.0000000E+00;0;  0.0000000E+00;  0.0000000E+00;  0.0000000E+00;0;  0.0000000E+00;  1.0000000E+04;  0.0000000E+00;  0.0000000E+00;  1.0000000E+04;  0.0000000E+00;  1.0000000E+04;  0.0000000E+00;  0.0000000E+00;  0.0000000E+00;  0.0000000E+00;
  2.0200000E+00;  9.9999998E-03; -3.4000000E-01;631;  0.0000000E+00;  0.0000000E+00;  0.0000000E+00;  1.0000000E+03;  4.0000001E-01;  0.0000000E+00;0;  0.0000000E+00;  0.0000000E+00;  0.0000000E+00;0;  0.0000000E+00;  1.0000000E+04;  0.0000000E+00;  0.0000000E+00;  1.0000000E+04;  0.0000000E+00;  1.0000000E+04;  0.0000000E+00;  0.0000000E+00;  0.0000000E+00;  0.0000000E+00;
  2.0200000E+00;  9.9999998E-03; -3.1999999E-01;632;  0.0000000E+00;  0.0000000E+00;  0.0000000E+00;  1.0000000E+03;  4.0000001E-01;  0.0000000E+00;0;  0.0000000E+00;  0.0000000E+00;  0.0000000E+00;0;  0.0000000E+00;  1.0000000E+04;  0.0000000E+00;  0.0000000E+00;  1.0000000E+04;  0.0000000E+00;  1.0000000E+04;  0.0000000E+00;  0.0000000E+00;  0.0000000E+00;  0.0000000E+00;
  2.0200000E+00;  9.9999998E-03; -3.0000001E-01;633;  0.0000000E+00;  0.0000000E+00;  0.0000000E+00;  1.0000000E+03;  4.0000001E-01;  0.0000000E+00;0;  0.0000000E+00;  0.0000000E+00;  0.0000000E+00;0;  0.0000000E+00;  1.0000000E+04;  0.0000000E+00;  0.0000000E+00;  1.0000000E+04;  0.0000000E+00;  1.0000000E+04;  0.0000000E+00;  0.0000000E+00;  0.0000000E+00;  0.0000000E+00;
  2.0200000E+00;  9.9999998E-03; -2.8000000E-01;634;  0.0000000E+00;  0.0000000E+00;  0.0000000E+00;  1.0000000E+03;  4.0000001E-01;  0.0000000E+00;0;  0.0000000E+00;  0.0000000E+00;  0.0000000E+00;0;  0.0000000E+00;  1.0000000E+04;  0.0000000E+00;  0.0000000E+00;  1.0000000E+04;  0.0000000E+00;  1.0000000E+04;  0.0000000E+00;  0.0000000E+00;  0.0000000E+00;  0.0000000E+00;
  2.0200000E+00;  9.9999998E-03; -2.5999999E-01;635;  0.0000000E+00;  0.0000000E+00;  0.0000000E+00;  1.0000000E+03;  4.0000001E-01;  0.0000000E+00;0;  0.0000000E+00;  0.0000000E+00;  0.0000000E+00;0;  0.0000000E+00;  1.0000000E+04;  0.0000000E+00;  0.0000000E+00;  1.0000000E+04;  0.0000000E+00;  1.0000000E+04;  0.0000000E+00;  0.0000000E+00;  0.0000000E+00;  0.0000000E+00;
  2.0200000E+00;  9.9999998E-03; -2.3999999E-01;636;  0.0000000E+00;  0.0000000E+00;  0.0000000E+00;  1.0000000E+03;  4.0000001E-01;  0.0000000E+00;0;  0.0000000E+00;  0.0000000E+00;  0.0000000E+00;0;  0.0000000E+00;  1.0000000E+04;  0.0000000E+00;  0.0000000E+00;  1.0000000E+04;  0.0000000E+00;  1.0000000E+04;  0.0000000E+00;  0.0000000E+00;  0.0000000E+00;  0.0000000E+00;
  2.0200000E+00;  9.9999998E-03; -2.2000000E-01;637;  0.0000000E+00;  0.0000000E+00;  0.0000000E+00;  1.0000000E+03;  4.0000001E-01;  0.0000000E+00;0;  0.0000000E+00;  0.0000000E+00;  0.0000000E+00;0;  0.0000000E+00;  1.0000000E+04;  0.0000000E+00;  0.0000000E+00;  1.0000000E+04;  0.0000000E+00;  1.0000000E+04;  0.0000000E+00;  0.0000000E+00;  0.0000000E+00;  0.0000000E+00;
  2.0200000E+00;  9.9999998E-03; -2.0000000E-01;638;  0.0000000E+00;  0.0000000E+00;  0.0000000E+00;  1.0000000E+03;  4.0000001E-01;  0.0000000E+00;0;  0.0000000E+00;  0.0000000E+00;  0.0000000E+00;0;  0.0000000E+00;  1.0000000E+04;  0.0000000E+00;  0.0000000E+00;  1.0000000E+04;  0.0000000E+00;  1.0000000E+04;  0.0000000E+00;  0.0000000E+00;  0.0000000E+00;  0.0000000E+00;
  2.0200000E+00;  9.9999998E-03; -1.8000001E-01;639;  0.0000000E+00;  0.0000000E+00;  0.0000000E+00;  1.0000000E+03;  4.0000001E-01;  0.0000000E+00;0;  0.0000000E+00;  0.0000000E+00;  0.0000000E+00;0;  0.0000000E+00;  1.0000000E+04;  0.0000000E+00;  0.0000000E+00;  1.0000000E+04;  0.0000000E+00;  1.0000000E+04;  0.0000000E+00;  0.0000000E+00;  0.0000000E+00;  0.0000000E+00;
  2.0200000E+00;  9.9999998E-03; -1.6000000E-01;640;  0.0000000E+00;  0.0000000E+00;  0.0000000E+00;  1.0000000E+03;  4.0000001E-01;  0.0000000E+00;0;  0.0000000E+00;  0.0000000E+00;  0.0000000E+00;0;  0.0000000E+00;  1.0000000E+04;  0.0000000E+00;  0.0000000E+00;  1.0000000E+04;  0.0000000E+00;  1.0000000E+04;  0.0000000E+00;  0.0000000E+00;  0.0000000E+00;  0.0000000E+00;
  2.0200000E+00;  9.9999998E-03; -1.4000000E-01;641;  0.0000000E+00;  0.0000000E+00;  0.0000000E+00;  1.0000000E+03;  4.0000001E-01;  0.0000000E+00;0;  0.0000000E+00;  0.0000000E+00;  0.0000000E+00;0;  0.0000000E+00;  1.0000000E+04;  0.0000000E+00;  0.0000000E+00;  1.0000000E+04;  0.0000000E+00;  1.0000000E+04;  0.0000000E+00;  0.0000000E+00;  0.0000000E+00;  0.0000000E+00;
  2.0200000E+00;  9.9999998E-03; -1.2000000E-01;642;  0.0000000E+00;  0.0000000E+00;  0.0000000E+00;  1.0000000E+03;  4.0000001E-01;  0.0000000E+00;0;  0.0000000E+00;  0.0000000E+00;  0.0000000E+00;0;  0.0000000E+00;  1.0000000E+04;  0.0000000E+00;  0.0000000E+00;  1.0000000E+04;  0.0000000E+00;  1.0000000E+04;  0.0000000E+00;  0.0000000E+00;  0.0000000E+00;  0.0000000E+00;
  2.0200000E+00;  9.9999998E-03; -1.0000000E-01;643;  0.0000000E+00;  0.0000000E+00;  0.0000000E+00;  1.0000000E+03;  4.0000001E-01;  0.0000000E+00;0;  0.0000000E+00;  0.0000000E+00;  0.0000000E+00;0;  0.0000000E+00;  1.0000000E+04;  0.0000000E+00;  0.0000000E+00;  1.0000000E+04;  0.0000000E+00;  1.0000000E+04;  0.0000000E+00;  0.0000000E+00;  0.0000000E+00;  0.0000000E+00;
  2.0200000E+00;  9.9999998E-03; -7.9999998E-02;644;  0.0000000E+00;  0.0000000E+00;  0.0000000E+00;  1.0000000E+03;  4.0000001E-01;  0.0000000E+00;0;  0.0000000E+00;  0.0000000E+00;  0.0000000E+00;0;  0.0000000E+00;  1.0000000E+04;  0.0000000E+00;  0.0000000E+00;  1.0000000E+04;  0.0000000E+00;  1.0000000E+04;  0.0000000E+00;  0.0000000E+00;  0.0000000E+00;  0.0000000E+00;
  2.0200000E+00;  9.9999998E-03; -5.9999999E-02;645;  0.0000000E+00;  0.0000000E+00;  0.0000000E+00;  1.0000000E+03;  4.0000001E-01;  0.0000000E+00;0;  0.0000000E+00;  0.0000000E+00;  0.0000000E+00;0;  0.0000000E+00;  1.0000000E+04;  0.0000000E+00;  0.0000000E+00;  1.0000000E+04;  0.0000000E+00;  1.0000000E+04;  0.0000000E+00;  0.0000000E+00;  0.0000000E+00;  0.0000000E+00;
  2.0200000E+00;  9.9999998E-03; -3.9999999E-02;646;  0.0000000E+00;  0.0000000E+00;  0.0000000E+00;  1.0000000E+03;  4.0000001E-01;  0.0000000E+00;0;  0.0000000E+00;  0.0000000E+00;  0.0000000E+00;0;  0.0000000E+00;  1.0000000E+04;  0.0000000E+00;  0.0000000E+00;  1.0000000E+04;  0.0000000E+00;  1.0000000E+04;  0.0000000E+00;  0.0000000E+00;  0.0000000E+00;  0.0000000E+00;
  2.0200000E+00;  9.9999998E-03; -2.0000000E-02;647;  0.0000000E+00;  0.0000000E+00;  0.0000000E+00;  1.0000000E+03;  4.0000001E-01;  0.0000000E+00;0;  0.0000000E+00;  0.0000000E+00;  0.0000000E+00;0;  0.0000000E+00;  1.0000000E+04;  0.0000000E+00;  0.0000000E+00;  1.0000000E+04;  0.0000000E+00;  1.0000000E+04;  0.0000000E+00;  0.0000000E+00;  0.0000000E+00;  0.0000000E+00;
  2.0200000E+00;  9.9999998E-03;  0.0000000E+00;648;  0.0000000E+00;  0.0000000E+00;  0.0000000E+00;  1.0000000E+03;  4.0000001E-01;  0.0000000E+00;0;  0.0000000E+00;  0.0000000E+00;  0.0000000E+00;0;  0.0000000E+00;  1.0000000E+04;  0.0000000E+00;  0.0000000E+00;  1.0000000E+04;  0.0000000E+00;  1.0000000E+04;  0.0000000E+00;  0.0000000E+00;  0.0000000E+00;  0.0000000E+00;
  2.0200000E+00;  9.9999998E-03;  2.0000000E-02;649;  0.0000000E+00;  0.0000000E+00;  0.0000000E+00;  1.0000000E+03;  4.0000001E-01;  0.0000000E+00;0;  0.0000000E+00;  0.0000000E+00;  0.0000000E+00;0;  0.0000000E+00;  1.0000000E+04;  0.0000000E+00;  0.0000000E+00;  1.0000000E+04;  0.0000000E+00;  1.0000000E+04;  0.0000000E+00;  0.0000000E+00;  0.0000000E+00;  0.0000000E+00;
  2.0200000E+00;  9.9999998E-03;  3.9999999E-02;650;  0.0000000E+00;  0.0000000E+00;  0.0000000E+00;  1.0000000E+03;  4.0000001E-01;  0.0000000E+00;0;  0.0000000E+00;  0.0000000E+00;  0.0000000E+00;0;  0.0000000E+00;  1.0000000E+04;  0.0000000E+00;  0.0000000E+00;  1.0000000E+04;  0.0000000E+00;  1.0000000E+04;  0.0000000E+00;  0.0000000E+00;  0.0000000E+00;  0.0000000E+00;
  2.0200000E+00;  9.9999998E-03;  5.9999999E-02;651;  0.0000000E+00;  0.0000000E+00;  0.0000000E+00;  1.0000000E+03;  4.0000001E-01;  0.0000000E+00;0;  0.0000000E+00;  0.0000000E+00;  0.0000000E+00;0;  0.0000000E+00;  1.0000000E+04;  0.0000000E+00;  0.0000000E+00;  1.0000000E+04;  0.0000000E+00;  1.0000000E+04;  0.0000000E+00;  0.0000000E+00;  0.0000000E+00;  0.0000000E+00;
  2.0200000E+00;  9.9999998E-03;  7.9999998E-02;652;  0.0000000E+00;  0.0000000E+00;  0.0000000E+00;  1.0000000E+03;  4.0000001E-01;  0.0000000E+00;0;  0.0000000E+00;  0.0000000E+00;  0.0000000E+00;0;  0.0000000E+00;  1.0000000E+04;  0.0000000E+00;  0.0000000E+00;  1.0000000E+04;  0.0000000E+00;  1.0000000E+04;  0.0000000E+00;  0.0000000E+00;  0.0000000E+00;  0.0000000E+00;
  2.0200000E+00;  9.9999998E-03;  1.0000000E-01;653;  0.0000000E+00;  0.0000000E+00;  0.0000000E+00;  1.0000000E+03;  4.0000001E-01;  0.0000000E+00;0;  0.0000000E+00;  0.0000000E+00;  0.0000000E+00;0;  0.0000000E+00;  1.0000000E+04;  0.0000000E+00;  0.0000000E+00;  1.0000000E+04;  0.0000000E+00;  1.0000000E+04;  0.0000000E+00;  0.0000000E+00;  0.0000000E+00;  0.0000000E+00;
  2.0200000E+00;  9.9999998E-03;  1.2000000E-01;654;  0.0000000E+00;  0.0000000E+00;  0.0000000E+00;  1.0000000E+03;  4.0000001E-01;  0.0000000E+00;0;  0.0000000E+00;  0.0000000E+00;  0.0000000E+00;0;  0.0000000E+00;  1.0000000E+04;  0.0000000E+00;  0.0000000E+00;  1.0000000E+04;  0.0000000E+00;  1.0000000E+04;  0.0000000E+00;  0.0000000E+00;  0.0000000E+00;  0.0000000E+00;
  2.0200000E+00;  9.9999998E-03;  1.4000000E-01;655;  0.0000000E+00;  0.0000000E+00;  0.0000000E+00;  1.0000000E+03;  4.0000001E-01;  0.0000000E+00;0;  0.0000000E+00;  0.0000000E+00;  0.0000000E+00;0;  0.0000000E+00;  1.0000000E+04;  0.0000000E+00;  0.0000000E+00;  1.0000000E+04;  0.0000000E+00;  1.0000000E+04;  0.0000000E+00;  0.0000000E+00;  0.0000000E+00;  0.0000000E+00;
  2.0200000E+00;  9.9999998E-03;  1.6000000E-01;656;  0.0000000E+00;  0.0000000E+00;  0.0000000E+00;  1.0000000E+03;  4.0000001E-01;  0.0000000E+00;0;  0.0000000E+00;  0.0000000E+00;  0.0000000E+00;0;  0.0000000E+00;  1.0000000E+04;  0.0000000E+00;  0.0000000E+00;  1.0000000E+04;  0.0000000E+00;  1.0000000E+04;  0.0000000E+00;  0.0000000E+00;  0.0000000E+00;  0.0000000E+00;
  2.0200000E+00;  9.9999998E-03;  1.8000001E-01;657;  0.0000000E+00;  0.0000000E+00;  0.0000000E+00;  1.0000000E+03;  4.0000001E-01;  0.0000000E+00;0;  0.0000000E+00;  0.0000000E+00;  0.0000000E+00;0;  0.0000000E+00;  1.0000000E+04;  0.0000000E+00;  0.0000000E+00;  1.0000000E+04;  0.0000000E+00;  1.0000000E+04;  0.0000000E+00;  0.0000000E+00;  0.0000000E+00;  0.0000000E+00;
  2.0400000E+00;  9.9999998E-03; -4.0000001E-01;658;  0.0000000E+00;  0.0000000E+00;  0.0000000E+00;  1.0000000E+03;  4.0000001E-01;  0.0000000E+00;0;  0.0000000E+00;  0.0000000E+00;  0.0000000E+00;0;  0.0000000E+00;  1.0000000E+04;  0.0000000E+00;  0.0000000E+00;  1.0000000E+04;  0.0000000E+00;  1.0000000E+04;  0.0000000E+00;  0.0000000E+00;  0.0000000E+00;  0.0000000E+00;
  2.0400000E+00;  9.9999998E-03; -3.8000000E-01;659;  0.0000000E+00;  0.0000000E+00;  0.0000000E+00;  1.0000000E+03;  4.0000001E-01;  0.0000000E+00;0;  0.0000000E+00;  0.0000000E+00;  0.0000000E+00;0;  0.0000000E+00;  1.0000000E+04;  0.0000000E+00;  0.0000000E+00;  1.0000000E+04;  0.0000000E+00;  1.0000000E+04;  0.0000000E+00;  0.0000000E+00;  0.0000000E+00;  0.0000000E+00;
  2.0400000E+00;  9.9999998E-03; -3.6000001E-01;660;  0.0000000E+00;  0.0000000E+00;  0.0000000E+00;  1.0000000E+03;  4.0000001E-01;  0.0000000E+00;0;  0.0000000E+00;  0.0000000E+00;  0.0000000E+00;0;  0.0000000E+00;  1.0000000E+04;  0.0000000E+00;  0.0000000E+00;  1.0000000E+04;  0.0000000E+00;  1.0000000E+04;  0.0000000E+00;  0.0000000E+00;  0.0000000E+00;  0.0000000E+00;
  2.0400000E+00;  9.9999998E-03; -3.4000000E-01;661;  0.0000000E+00;  0.0000000E+00;  0.0000000E+00;  1.0000000E+03;  4.0000001E-01;  0.0000000E+00;0;  0.0000000E+00;  0.0000000E+00;  0.0000000E+00;0;  0.0000000E+00;  1.0000000E+04;  0.0000000E+00;  0.0000000E+00;  1.0000000E+04;  0.0000000E+00;  1.0000000E+04;  0.0000000E+00;  0.0000000E+00;  0.0000000E+00;  0.0000000E+00;
  2.0400000E+00;  9.9999998E-03; -3.1999999E-01;662;  0.0000000E+00;  0.0000000E+00;  0.0000000E+00;  1.0000000E+03;  4.0000001E-01;  0.0000000E+00;0;  0.0000000E+00;  0.0000000E+00;  0.0000000E+00;0;  0.0000000E+00;  1.0000000E+04;  0.0000000E+00;  0.0000000E+00;  1.0000000E+04;  0.0000000E+00;  1.0000000E+04;  0.0000000E+00;  0.0000000E+00;  0.0000000E+00;  0.0000000E+00;
  2.0400000E+00;  9.9999998E-03; -3.0000001E-01;663;  0.0000000E+00;  0.0000000E+00;  0.0000000E+00;  1.0000000E+03;  4.0000001E-01;  0.0000000E+00;0;  0.0000000E+00;  0.0000000E+00;  0.0000000E+00;0;  0.0000000E+00;  1.0000000E+04;  0.0000000E+00;  0.0000000E+00;  1.0000000E+04;  0.0000000E+00;  1.0000000E+04;  0.0000000E+00;  0.0000000E+00;  0.0000000E+00;  0.0000000E+00;
  2.0400000E+00;  9.9999998E-03; -2.8000000E-01;664;  0.0000000E+00;  0.0000000E+00;  0.0000000E+00;  1.0000000E+03;  4.0000001E-01;  0.0000000E+00;0;  0.0000000E+00;  0.0000000E+00;  0.0000000E+00;0;  0.0000000E+00;  1.0000000E+04;  0.0000000E+00;  0.0000000E+00;  1.0000000E+04;  0.0000000E+00;  1.0000000E+04;  0.0000000E+00;  0.0000000E+00;  0.0000000E+00;  0.0000000E+00;
  2.0400000E+00;  9.9999998E-03; -2.5999999E-01;665;  0.0000000E+00;  0.0000000E+00;  0.0000000E+00;  1.0000000E+03;  4.0000001E-01;  0.0000000E+00;0;  0.0000000E+00;  0.0000000E+00;  0.0000000E+00;0;  0.0000000E+00;  1.0000000E+04;  0.0000000E+00;  0.0000000E+00;  1.0000000E+04;  0.0000000E+00;  1.0000000E+04;  0.0000000E+00;  0.0000000E+00;  0.0000000E+00;  0.0000000E+00;
  2.0400000E+00;  9.9999998E-03; -2.3999999E-01;666;  0.0000000E+00;  0.0000000E+00;  0.0000000E+00;  1.0000000E+03;  4.0000001E-01;  0.0000000E+00;0;  0.0000000E+00;  0.0000000E+00;  0.0000000E+00;0;  0.0000000E+00;  1.0000000E+04;  0.0000000E+00;  0.0000000E+00;  1.0000000E+04;  0.0000000E+00;  1.0000000E+04;  0.0000000E+00;  0.0000000E+00;  0.0000000E+00;  0.0000000E+00;
  2.0400000E+00;  9.9999998E-03; -2.2000000E-01;667;  0.0000000E+00;  0.0000000E+00;  0.0000000E+00;  1.0000000E+03;  4.0000001E-01;  0.0000000E+00;0;  0.0000000E+00;  0.0000000E+00;  0.0000000E+00;0;  0.0000000E+00;  1.0000000E+04;  0.0000000E+00;  0.0000000E+00;  1.0000000E+04;  0.0000000E+00;  1.0000000E+04;  0.0000000E+00;  0.0000000E+00;  0.0000000E+00;  0.0000000E+00;
  2.0400000E+00;  9.9999998E-03; -2.0000000E-01;668;  0.0000000E+00;  0.0000000E+00;  0.0000000E+00;  1.0000000E+03;  4.0000001E-01;  0.0000000E+00;0;  0.0000000E+00;  0.0000000E+00;  0.0000000E+00;0;  0.0000000E+00;  1.0000000E+04;  0.0000000E+00;  0.0000000E+00;  1.0000000E+04;  0.0000000E+00;  1.0000000E+04;  0.0000000E+00;  0.0000000E+00;  0.0000000E+00;  0.0000000E+00;
  2.0400000E+00;  9.9999998E-03; -1.8000001E-01;669;  0.0000000E+00;  0.0000000E+00;  0.0000000E+00;  1.0000000E+03;  4.0000001E-01;  0.0000000E+00;0;  0.0000000E+00;  0.0000000E+00;  0.0000000E+00;0;  0.0000000E+00;  1.0000000E+04;  0.0000000E+00;  0.0000000E+00;  1.0000000E+04;  0.0000000E+00;  1.0000000E+04;  0.0000000E+00;  0.0000000E+00;  0.0000000E+00;  0.0000000E+00;
  2.0400000E+00;  9.9999998E-03; -1.6000000E-01;670;  0.0000000E+00;  0.0000000E+00;  0.0000000E+00;  1.0000000E+03;  4.0000001E-01;  0.0000000E+00;0;  0.0000000E+00;  0.0000000E+00;  0.0000000E+00;0;  0.0000000E+00;  1.0000000E+04;  0.0000000E+00;  0.0000000E+00;  1.0000000E+04;  0.0000000E+00;  1.0000000E+04;  0.0000000E+00;  0.0000000E+00;  0.0000000E+00;  0.0000000E+00;
  2.0400000E+00;  9.9999998E-03; -1.4000000E-01;671;  0.0000000E+00;  0.0000000E+00;  0.0000000E+00;  1.0000000E+03;  4.0000001E-01;  0.0000000E+00;0;  0.0000000E+00;  0.0000000E+00;  0.0000000E+00;0;  0.0000000E+00;  1.0000000E+04;  0.0000000E+00;  0.0000000E+00;  1.0000000E+04;  0.0000000E+00;  1.0000000E+04;  0.0000000E+00;  0.0000000E+00;  0.0000000E+00;  0.0000000E+00;
  2.0400000E+00;  9.9999998E-03; -1.2000000E-01;672;  0.0000000E+00;  0.0000000E+00;  0.0000000E+00;  1.0000000E+03;  4.0000001E-01;  0.0000000E+00;0;  0.0000000E+00;  0.0000000E+00;  0.0000000E+00;0;  0.0000000E+00;  1.0000000E+04;  0.0000000E+00;  0.0000000E+00;  1.0000000E+04;  0.0000000E+00;  1.0000000E+04;  0.0000000E+00;  0.0000000E+00;  0.0000000E+00;  0.0000000E+00;
  2.0400000E+00;  9.9999998E-03; -1.0000000E-01;673;  0.0000000E+00;  0.0000000E+00;  0.0000000E+00;  1.0000000E+03;  4.0000001E-01;  0.0000000E+00;0;  0.0000000E+00;  0.0000000E+00;  0.0000000E+00;0;  0.0000000E+00;  1.0000000E+04;  0.0000000E+00;  0.0000000E+00;  1.0000000E+04;  0.0000000E+00;  1.0000000E+04;  0.0000000E+00;  0.0000000E+00;  0.0000000E+00;  0.0000000E+00;
  2.0400000E+00;  9.9999998E-03; -7.9999998E-02;674;  0.0000000E+00;  0.0000000E+00;  0.0000000E+00;  1.0000000E+03;  4.0000001E-01;  0.0000000E+00;0;  0.0000000E+00;  0.0000000E+00;  0.0000000E+00;0;  0.0000000E+00;  1.0000000E+04;  0.0000000E+00;  0.0000000E+00;  1.0000000E+04;  0.0000000E+00;  1.0000000E+04;  0.0000000E+00;  0.0000000E+00;  0.0000000E+00;  0.0000000E+00;
  2.0400000E+00;  9.9999998E-03; -5.9999999E-02;675;  0.0000000E+00;  0.0000000E+00;  0.0000000E+00;  1.0000000E+03;  4.0000001E-01;  0.0000000E+00;0;  0.0000000E+00;  0.0000000E+00;  0.0000000E+00;0;  0.0000000E+00;  1.0000000E+04;  0.0000000E+00;  0.0000000E+00;  1.0000000E+04;  0.0000000E+00;  1.0000000E+04;  0.0000000E+00;  0.0000000E+00;  0.0000000E+00;  0.0000000E+00;
  2.0400000E+00;  9.9999998E-03; -3.9999999E-02;676;  0.0000000E+00;  0.0000000E+00;  0.0000000E+00;  1.0000000E+03;  4.0000001E-01;  0.0000000E+00;0;  0.0000000E+00;  0.0000000E+00;  0.0000000E+00;0;  0.0000000E+00;  1.0000000E+04;  0.0000000E+00;  0.0000000E+00;  1.0000000E+04;  0.0000000E+00;  1.0000000E+04;  0.0000000E+00;  0.0000000E+00;  0.0000000E+00;  0.0000000E+00;
  2.0400000E+00;  9.9999998E-03; -2.0000000E-02;677;  0.0000000E+00;  0.0000000E+00;  0.0000000E+00;  1.0000000E+03;  4.0000001E-01;  0.0000000E+00;0;  0.0000000E+00;  0.0000000E+00;  0.0000000E+00;0;  0.0000000E+00;  1.0000000E+04;  0.0000000E+00;  0.0000000E+00;  1.0000000E+04;  0.0000000E+00;  1.0000000E+04;  0.0000000E+00;  0.0000000E+00;  0.0000000E+00;  0.0000000E+00;
  2.0400000E+00;  9.9999998E-03;  0.0000000E+00;678;  0.0000000E+00;  0.0000000E+00;  0.0000000E+00;  1.0000000E+03;  4.0000001E-01;  0.0000000E+00;0;  0.0000000E+00;  0.0000000E+00;  0.0000000E+00;0;  0.0000000E+00;  1.0000000E+04;  0.0000000E+00;  0.0000000E+00;  1.0000000E+04;  0.0000000E+00;  1.0000000E+04;  0.0000000E+00;  0.0000000E+00;  0.0000000E+00;  0.0000000E+00;
  2.0400000E+00;  9.9999998E-03;  2.0000000E-02;679;  0.0000000E+00;  0.0000000E+00;  0.0000000E+00;  1.0000000E+03;  4.0000001E-01;  0.0000000E+00;0;  0.0000000E+00;  0.0000000E+00;  0.0000000E+00;0;  0.0000000E+00;  1.0000000E+04;  0.0000000E+00;  0.0000000E+00;  1.0000000E+04;  0.0000000E+00;  1.0000000E+04;  0.0000000E+00;  0.0000000E+00;  0.0000000E+00;  0.0000000E+00;
  2.0400000E+00;  9.9999998E-03;  3.9999999E-02;680;  0.0000000E+00;  0.0000000E+00;  0.0000000E+00;  1.0000000E+03;  4.0000001E-01;  0.0000000E+00;0;  0.0000000E+00;  0.0000000E+00;  0.0000000E+00;0;  0.0000000E+00;  1.0000000E+04;  0.0000000E+00;  0.0000000E+00;  1.0000000E+04;  0.0000000E+00;  1.0000000E+04;  0.0000000E+00;  0.0000000E+00;  0.0000000E+00;  0.0000000E+00;
  2.0400000E+00;  9.9999998E-03;  5.9999999E-02;681;  0.0000000E+00;  0.0000000E+00;  0.0000000E+00;  1.0000000E+03;  4.0000001E-01;  0.0000000E+00;0;  0.0000000E+00;  0.0000000E+00;  0.0000000E+00;0;  0.0000000E+00;  1.0000000E+04;  0.0000000E+00;  0.0000000E+00;  1.0000000E+04;  0.0000000E+00;  1.0000000E+04;  0.0000000E+00;  0.0000000E+00;  0.0000000E+00;  0.0000000E+00;
  2.0400000E+00;  9.9999998E-03;  7.9999998E-02;682;  0.0000000E+00;  0.0000000E+00;  0.0000000E+00;  1.0000000E+03;  4.0000001E-01;  0.0000000E+00;0;  0.0000000E+00;  0.0000000E+00;  0.0000000E+00;0;  0.0000000E+00;  1.0000000E+04;  0.0000000E+00;  0.0000000E+00;  1.0000000E+04;  0.0000000E+00;  1.0000000E+04;  0.0000000E+00;  0.0000000E+00;  0.0000000E+00;  0.0000000E+00;
  2.0400000E+00;  9.9999998E-03;  1.0000000E-01;683;  0.0000000E+00;  0.0000000E+00;  0.0000000E+00;  1.0000000E+03;  4.0000001E-01;  0.0000000E+00;0;  0.0000000E+00;  0.0000000E+00;  0.0000000E+00;0;  0.0000000E+00;  1.0000000E+04;  0.0000000E+00;  0.0000000E+00;  1.0000000E+04;  0.0000000E+00;  1.0000000E+04;  0.0000000E+00;  0.0000000E+00;  0.0000000E+00;  0.0000000E+00;
  2.0400000E+00;  9.9999998E-03;  1.2000000E-01;684;  0.0000000E+00;  0.0000000E+00;  0.0000000E+00;  1.0000000E+03;  4.0000001E-01;  0.0000000E+00;0;  0.0000000E+00;  0.0000000E+00;  0.0000000E+00;0;  0.0000000E+00;  1.0000000E+04;  0.0000000E+00;  0.0000000E+00;  1.0000000E+04;  0.0000000E+00;  1.0000000E+04;  0.0000000E+00;  0.0000000E+00;  0.0000000E+00;  0.0000000E+00;
  2.0400000E+00;  9.9999998E-03;  1.4000000E-01;685;  0.0000000E+00;  0.0000000E+00;  0.0000000E+00;  1.0000000E+03;  4.0000001E-01;  0.0000000E+00;0;  0.0000000E+00;  0.0000000E+00;  0.0000000E+00;0;  0.0000000E+00;  1.0000000E+04;  0.0000000E+00;  0.0000000E+00;  1.0000000E+04;  0.0000000E+00;  1.0000000E+04;  0.0000000E+00;  0.0000000E+00;  0.0000000E+00;  0.0000000E+00;
  2.0400000E+00;  9.9999998E-03;  1.6000000E-01;686;  0.0000000E+00;  0.0000000E+00;  0.0000000E+00;  1.0000000E+03;  4.0000001E-01;  0.0000000E+00;0;  0.0000000E+00;  0.0000000E+00;  0.0000000E+00;0;  0.0000000E+00;  1.0000000E+04;  0.0000000E+00;  0.0000000E+00;  1.0000000E+04;  0.0000000E+00;  1.0000000E+04;  0.0000000E+00;  0.0000000E+00;  0.0000000E+00;  0.0000000E+00;
  2.0400000E+00;  9.9999998E-03;  1.8000001E-01;687;  0.0000000E+00;  0.0000000E+00;  0.0000000E+00;  1.0000000E+03;  4.0000001E-01;  0.0000000E+00;0;  0.0000000E+00;  0.0000000E+00;  0.0000000E+00;0;  0.0000000E+00;  1.0000000E+04;  0.0000000E+00;  0.0000000E+00;  1.0000000E+04;  0.0000000E+00;  1.0000000E+04;  0.0000000E+00;  0.0000000E+00;  0.0000000E+00;  0.0000000E+00;
  2.0400000E+00;  9.9999998E-03;  2.0000000E-01;688;  0.0000000E+00;  0.0000000E+00;  0.0000000E+00;  1.0000000E+03;  4.0000001E-01;  0.0000000E+00;0;  0.0000000E+00;  0.0000000E+00;  0.0000000E+00;0;  0.0000000E+00;  1.0000000E+04;  0.0000000E+00;  0.0000000E+00;  1.0000000E+04;  0.0000000E+00;  1.0000000E+04;  0.0000000E+00;  0.0000000E+00;  0.0000000E+00;  0.0000000E+00;
  2.0400000E+00;  9.9999998E-03;  2.2000000E-01;689;  0.0000000E+00;  0.0000000E+00;  0.0000000E+00;  1.0000000E+03;  4.0000001E-01;  0.0000000E+00;0;  0.0000000E+00;  0.0000000E+00;  0.0000000E+00;0;  0.0000000E+00;  1.0000000E+04;  0.0000000E+00;  0.0000000E+00;  1.0000000E+04;  0.0000000E+00;  1.0000000E+04;  0.0000000E+00;  0.0000000E+00;  0.0000000E+00;  0.0000000E+00;
  2.0400000E+00;  9.9999998E-03;  2.3999999E-01;690;  0.0000000E+00;  0.0000000E+00;  0.0000000E+00;  1.0000000E+03;  4.0000001E-01;  0.0000000E+00;0;  0.0000000E+00;  0.0000000E+00;  0.0000000E+00;0;  0.0000000E+00;  1.0000000E+04;  0.0000000E+00;  0.0000000E+00;  1.0000000E+04;  0.0000000E+00;  1.0000000E+04;  0.0000000E+00;  0.0000000E+00;  0.0000000E+00;  0.0000000E+00;
  2.0400000E+00;  9.9999998E-03;  2.5999999E-01;691;  0.0000000E+00;  0.0000000E+00;  0.0000000E+00;  1.0000000E+03;  4.0000001E-01;  0.0000000E+00;0;  0.0000000E+00;  0.0000000E+00;  0.0000000E+00;0;  0.0000000E+00;  1.0000000E+04;  0.0000000E+00;  0.0000000E+00;  1.0000000E+04;  0.0000000E+00;  1.0000000E+04;  0.0000000E+00;  0.0000000E+00;  0.0000000E+00;  0.0000000E+00;
  2.0400000E+00;  9.9999998E-03;  2.8000000E-01;692;  0.0000000E+00;  0.0000000E+00;  0.0000000E+00;  1.0000000E+03;  4.0000001E-01;  0.0000000E+00;0;  0.0000000E+00;  0.0000000E+00;  0.0000000E+00;0;  0.0000000E+00;  1.0000000E+04;  0.0000000E+00;  0.0000000E+00;  1.0000000E+04;  0.0000000E+00;  1.0000000E+04;  0.0000000E+00;  0.0000000E+00;  0.0000000E+00;  0.0000000E+00;
  2.0599999E+00;  9.9999998E-03; -4.0000001E-01;693;  0.0000000E+00;  0.0000000E+00;  0.0000000E+00;  1.0000000E+03;  4.0000001E-01;  0.0000000E+00;0;  0.0000000E+00;  0.0000000E+00;  0.0000000E+00;0;  0.0000000E+00;  1.0000000E+04;  0.0000000E+00;  0.0000000E+00;  1.0000000E+04;  0.0000000E+00;  1.0000000E+04;  0.0000000E+00;  0.0000000E+00;  0.0000000E+00;  0.0000000E+00;
  2.0599999E+00;  9.9999998E-03; -3.8000000E-01;694;  0.0000000E+00;  0.0000000E+00;  0.0000000E+00;  1.0000000E+03;  4.0000001E-01;  0.0000000E+00;0;  0.0000000E+00;  0.0000000E+00;  0.0000000E+00;0;  0.0000000E+00;  1.0000000E+04;  0.0000000E+00;  0.0000000E+00;  1.0000000E+04;  0.0000000E+00;  1.0000000E+04;  0.0000000E+00;  0.0000000E+00;  0.0000000E+00;  0.0000000E+00;
  2.0599999E+00;  9.9999998E-03; -3.6000001E-01;695;  0.0000000E+00;  0.0000000E+00;  0.0000000E+00;  1.0000000E+03;  4.0000001E-01;  0.0000000E+00;0;  0.0000000E+00;  0.0000000E+00;  0.0000000E+00;0;  0.0000000E+00;  1.0000000E+04;  0.0000000E+00;  0.0000000E+00;  1.0000000E+04;  0.0000000E+00;  1.0000000E+04;  0.0000000E+00;  0.0000000E+00;  0.0000000E+00;  0.0000000E+00;
  2.0599999E+00;  9.9999998E-03; -3.4000000E-01;696;  0.0000000E+00;  0.0000000E+00;  0.0000000E+00;  1.0000000E+03;  4.0000001E-01;  0.0000000E+00;0;  0.0000000E+00;  0.0000000E+00;  0.0000000E+00;0;  0.0000000E+00;  1.0000000E+04;  0.0000000E+00;  0.0000000E+00;  1.0000000E+04;  0.0000000E+00;  1.0000000E+04;  0.0000000E+00;  0.0000000E+00;  0.0000000E+00;  0.0000000E+00;
  2.0599999E+00;  9.9999998E-03; -3.1999999E-01;697;  0.0000000E+00;  0.0000000E+00;  0.0000000E+00;  1.0000000E+03;  4.0000001E-01;  0.0000000E+00;0;  0.0000000E+00;  0.0000000E+00;  0.0000000E+00;0;  0.0000000E+00;  1.0000000E+04;  0.0000000E+00;  0.0000000E+00;  1.0000000E+04;  0.0000000E+00;  1.0000000E+04;  0.0000000E+00;  0.0000000E+00;  0.0000000E+00;  0.0000000E+00;
  2.0599999E+00;  9.9999998E-03; -3.0000001E-01;698;  0.0000000E+00;  0.0000000E+00;  0.0000000E+00;  1.0000000E+03;  4.0000001E-01;  0.0000000E+00;0;  0.0000000E+00;  0.0000000E+00;  0.0000000E+00;0;  0.0000000E+00;  1.0000000E+04;  0.0000000E+00;  0.0000000E+00;  1.0000000E+04;  0.0000000E+00;  1.0000000E+04;  0.0000000E+00;  0.0000000E+00;  0.0000000E+00;  0.0000000E+00;
  2.0599999E+00;  9.9999998E-03; -2.8000000E-01;699;  0.0000000E+00;  0.0000000E+00;  0.0000000E+00;  1.0000000E+03;  4.0000001E-01;  0.0000000E+00;0;  0.0000000E+00;  0.0000000E+00;  0.0000000E+00;0;  0.0000000E+00;  1.0000000E+04;  0.0000000E+00;  0.0000000E+00;  1.0000000E+04;  0.0000000E+00;  1.0000000E+04;  0.0000000E+00;  0.0000000E+00;  0.0000000E+00;  0.0000000E+00;
  2.0599999E+00;  9.9999998E-03; -2.5999999E-01;700;  0.0000000E+00;  0.0000000E+00;  0.0000000E+00;  1.0000000E+03;  4.0000001E-01;  0.0000000E+00;0;  0.0000000E+00;  0.0000000E+00;  0.0000000E+00;0;  0.0000000E+00;  1.0000000E+04;  0.0000000E+00;  0.0000000E+00;  1.0000000E+04;  0.0000000E+00;  1.0000000E+04;  0.0000000E+00;  0.0000000E+00;  0.0000000E+00;  0.0000000E+00;
  2.0599999E+00;  9.9999998E-03; -2.3999999E-01;701;  0.0000000E+00;  0.0000000E+00;  0.0000000E+00;  1.0000000E+03;  4.0000001E-01;  0.0000000E+00;0;  0.0000000E+00;  0.0000000E+00;  0.0000000E+00;0;  0.0000000E+00;  1.0000000E+04;  0.0000000E+00;  0.0000000E+00;  1.0000000E+04;  0.0000000E+00;  1.0000000E+04;  0.0000000E+00;  0.0000000E+00;  0.0000000E+00;  0.0000000E+00;
  2.0599999E+00;  9.9999998E-03; -2.2000000E-01;702;  0.0000000E+00;  0.0000000E+00;  0.0000000E+00;  1.0000000E+03;  4.0000001E-01;  0.0000000E+00;0;  0.0000000E+00;  0.0000000E+00;  0.0000000E+00;0;  0.0000000E+00;  1.0000000E+04;  0.0000000E+00;  0.0000000E+00;  1.0000000E+04;  0.0000000E+00;  1.0000000E+04;  0.0000000E+00;  0.0000000E+00;  0.0000000E+00;  0.0000000E+00;
  2.0599999E+00;  9.9999998E-03; -2.0000000E-01;703;  0.0000000E+00;  0.0000000E+00;  0.0000000E+00;  1.0000000E+03;  4.0000001E-01;  0.0000000E+00;0;  0.0000000E+00;  0.0000000E+00;  0.0000000E+00;0;  0.0000000E+00;  1.0000000E+04;  0.0000000E+00;  0.0000000E+00;  1.0000000E+04;  0.0000000E+00;  1.0000000E+04;  0.0000000E+00;  0.0000000E+00;  0.0000000E+00;  0.0000000E+00;
  2.0599999E+00;  9.9999998E-03; -1.8000001E-01;704;  0.0000000E+00;  0.0000000E+00;  0.0000000E+00;  1.0000000E+03;  4.0000001E-01;  0.0000000E+00;0;  0.0000000E+00;  0.0000000E+00;  0.0000000E+00;0;  0.0000000E+00;  1.0000000E+04;  0.0000000E+00;  0.0000000E+00;  1.0000000E+04;  0.0000000E+00;  1.0000000E+04;  0.0000000E+00;  0.0000000E+00;  0.0000000E+00;  0.0000000E+00;
  2.0599999E+00;  9.9999998E-03; -1.6000000E-01;705;  0.0000000E+00;  0.0000000E+00;  0.0000000E+00;  1.0000000E+03;  4.0000001E-01;  0.0000000E+00;0;  0.0000000E+00;  0.0000000E+00;  0.0000000E+00;0;  0.0000000E+00;  1.0000000E+04;  0.0000000E+00;  0.0000000E+00;  1.0000000E+04;  0.0000000E+00;  1.0000000E+04;  0.0000000E+00;  0.0000000E+00;  0.0000000E+00;  0.0000000E+00;
  2.0599999E+00;  9.9999998E-03; -1.4000000E-01;706;  0.0000000E+00;  0.0000000E+00;  0.0000000E+00;  1.0000000E+03;  4.0000001E-01;  0.0000000E+00;0;  0.0000000E+00;  0.0000000E+00;  0.0000000E+00;0;  0.0000000E+00;  1.0000000E+04;  0.0000000E+00;  0.0000000E+00;  1.0000000E+04;  0.0000000E+00;  1.0000000E+04;  0.0000000E+00;  0.0000000E+00;  0.0000000E+00;  0.0000000E+00;
  2.0599999E+00;  9.9999998E-03; -1.2000000E-01;707;  0.0000000E+00;  0.0000000E+00;  0.0000000E+00;  1.0000000E+03;  4.0000001E-01;  0.0000000E+00;0;  0.0000000E+00;  0.0000000E+00;  0.0000000E+00;0;  0.0000000E+00;  1.0000000E+04;  0.0000000E+00;  0.0000000E+00;  1.0000000E+04;  0.0000000E+00;  1.0000000E+04;  0.0000000E+00;  0.0000000E+00;  0.0000000E+00;  0.0000000E+00;
  2.0599999E+00;  9.9999998E-03; -1.0000000E-01;708;  0.0000000E+00;  0.0000000E+00;  0.0000000E+00;  1.0000000E+03;  4.0000001E-01;  0.0000000E+00;0;  0.0000000E+00;  0.0000000E+00;  0.0000000E+00;0;  0.0000000E+00;  1.0000000E+04;  0.0000000E+00;  0.0000000E+00;  1.0000000E+04;  0.0000000E+00;  1.0000000E+04;  0.0000000E+00;  0.0000000E+00;  0.0000000E+00;  0.0000000E+00;
  2.0599999E+00;  9.9999998E-03; -7.9999998E-02;709;  0.0000000E+00;  0.0000000E+00;  0.0000000E+00;  1.0000000E+03;  4.0000001E-01;  0.0000000E+00;0;  0.0000000E+00;  0.0000000E+00;  0.0000000E+00;0;  0.0000000E+00;  1.0000000E+04;  0.0000000E+00;  0.0000000E+00;  1.0000000E+04;  0.0000000E+00;  1.0000000E+04;  0.0000000E+00;  0.0000000E+00;  0.0000000E+00;  0.0000000E+00;
  2.0599999E+00;  9.9999998E-03; -5.9999999E-02;710;  0.0000000E+00;  0.0000000E+00;  0.0000000E+00;  1.0000000E+03;  4.0000001E-01;  0.0000000E+00;0;  0.0000000E+00;  0.0000000E+00;  0.0000000E+00;0;  0.0000000E+00;  1.0000000E+04;  0.0000000E+00;  0.0000000E+00;  1.0000000E+04;  0.0000000E+00;  1.0000000E+04;  0.0000000E+00;  0.0000000E+00;  0.0000000E+00;  0.0000000E+00;
  2.0599999E+00;  9.9999998E-03; -3.9999999E-02;711;  0.0000000E+00;  0.0000000E+00;  0.0000000E+00;  1.0000000E+03;  4.0000001E-01;  0.0000000E+00;0;  0.0000000E+00;  0.0000000E+00;  0.0000000E+00;0;  0.0000000E+00;  1.0000000E+04;  0.0000000E+00;  0.0000000E+00;  1.0000000E+04;  0.0000000E+00;  1.0000000E+04;  0.0000000E+00;  0.0000000E+00;  0.0000000E+00;  0.0000000E+00;
  2.0599999E+00;  9.9999998E-03; -2.0000000E-02;712;  0.0000000E+00;  0.0000000E+00;  0.0000000E+00;  1.0000000E+03;  4.0000001E-01;  0.0000000E+00;0;  0.0000000E+00;  0.0000000E+00;  0.0000000E+00;0;  0.0000000E+00;  1.0000000E+04;  0.0000000E+00;  0.0000000E+00;  1.0000000E+04;  0.0000000E+00;  1.0000000E+04;  0.0000000E+00;  0.0000000E+00;  0.0000000E+00;  0.0000000E+00;
  2.0599999E+00;  9.9999998E-03;  0.0000000E+00;713;  0.0000000E+00;  0.0000000E+00;  0.0000000E+00;  1.0000000E+03;  4.0000001E-01;  0.0000000E+00;0;  0.0000000E+00;  0.0000000E+00;  0.0000000E+00;0;  0.0000000E+00;  1.0000000E+04;  0.0000000E+00;  0.0000000E+00;  1.0000000E+04;  0.0000000E+00;  1.0000000E+04;  0.0000000E+00;  0.0000000E+00;  0.0000000E+00;  0.0000000E+00;
  2.0599999E+00;  9.9999998E-03;  2.0000000E-02;714;  0.0000000E+00;  0.0000000E+00;  0.0000000E+00;  1.0000000E+03;  4.0000001E-01;  0.0000000E+00;0;  0.0000000E+00;  0.0000000E+00;  0.0000000E+00;0;  0.0000000E+00;  1.0000000E+04;  0.0000000E+00;  0.0000000E+00;  1.0000000E+04;  0.0000000E+00;  1.0000000E+04;  0.0000000E+00;  0.0000000E+00;  0.0000000E+00;  0.0000000E+00;
  2.0599999E+00;  9.9999998E-03;  3.9999999E-02;715;  0.0000000E+00;  0.0000000E+00;  0.0000000E+00;  1.0000000E+03;  4.0000001E-01;  0.0000000E+00;0;  0.0000000E+00;  0.0000000E+00;  0.0000000E+00;0;  0.0000000E+00;  1.0000000E+04;  0.0000000E+00;  0.0000000E+00;  1.0000000E+04;  0.0000000E+00;  1.0000000E+04;  0.0000000E+00;  0.0000000E+00;  0.0000000E+00;  0.0000000E+00;
  2.0599999E+00;  9.9999998E-03;  5.9999999E-02;716;  0.0000000E+00;  0.0000000E+00;  0.0000000E+00;  1.0000000E+03;  4.0000001E-01;  0.0000000E+00;0;  0.0000000E+00;  0.0000000E+00;  0.0000000E+00;0;  0.0000000E+00;  1.0000000E+04;  0.0000000E+00;  0.0000000E+00;  1.0000000E+04;  0.0000000E+00;  1.0000000E+04;  0.0000000E+00;  0.0000000E+00;  0.0000000E+00;  0.0000000E+00;
  2.0599999E+00;  9.9999998E-03;  7.9999998E-02;717;  0.0000000E+00;  0.0000000E+00;  0.0000000E+00;  1.0000000E+03;  4.0000001E-01;  0.0000000E+00;0;  0.0000000E+00;  0.0000000E+00;  0.0000000E+00;0;  0.0000000E+00;  1.0000000E+04;  0.0000000E+00;  0.0000000E+00;  1.0000000E+04;  0.0000000E+00;  1.0000000E+04;  0.0000000E+00;  0.0000000E+00;  0.0000000E+00;  0.0000000E+00;
  2.0599999E+00;  9.9999998E-03;  1.0000000E-01;718;  0.0000000E+00;  0.0000000E+00;  0.0000000E+00;  1.0000000E+03;  4.0000001E-01;  0.0000000E+00;0;  0.0000000E+00;  0.0000000E+00;  0.0000000E+00;0;  0.0000000E+00;  1.0000000E+04;  0.0000000E+00;  0.0000000E+00;  1.0000000E+04;  0.0000000E+00;  1.0000000E+04;  0.0000000E+00;  0.0000000E+00;  0.0000000E+00;  0.0000000E+00;
  2.0599999E+00;  9.9999998E-03;  1.2000000E-01;719;  0.0000000E+00;  0.0000000E+00;  0.0000000E+00;  1.0000000E+03;  4.0000001E-01;  0.0000000E+00;0;  0.0000000E+00;  0.0000000E+00;  0.0000000E+00;0;  0.0000000E+00;  1.0000000E+04;  0.0000000E+00;  0.0000000E+00;  1.0000000E+04;  0.0000000E+00;  1.0000000E+04;  0.0000000E+00;  0.0000000E+00;  0.0000000E+00;  0.0000000E+00;
  2.0599999E+00;  9.9999998E-03;  1.4000000E-01;720;  0.0000000E+00;  0.0000000E+00;  0.0000000E+00;  1.0000000E+03;  4.0000001E-01;  0.0000000E+00;0;  0.0000000E+00;  0.0000000E+00;  0.0000000E+00;0;  0.0000000E+00;  1.0000000E+04;  0.0000000E+00;  0.0000000E+00;  1.0000000E+04;  0.0000000E+00;  1.0000000E+04;  0.0000000E+00;  0.0000000E+00;  0.0000000E+00;  0.0000000E+00;
  2.0599999E+00;  9.9999998E-03;  1.6000000E-01;721;  0.0000000E+00;  0.0000000E+00;  0.0000000E+00;  1.0000000E+03;  4.0000001E-01;  0.0000000E+00;0;  0.0000000E+00;  0.0000000E+00;  0.0000000E+00;0;  0.0000000E+00;  1.0000000E+04;  0.0000000E+00;  0.0000000E+00;  1.0000000E+04;  0.0000000E+00;  1.0000000E+04;  0.0000000E+00;  0.0000000E+00;  0.0000000E+00;  0.0000000E+00;
  2.0599999E+00;  9.9999998E-03;  1.8000001E-01;722;  0.0000000E+00;  0.0000000E+00;  0.0000000E+00;  1.0000000E+03;  4.0000001E-01;  0.0000000E+00;0;  0.0000000E+00;  0.0000000E+00;  0.0000000E+00;0;  0.0000000E+00;  1.0000000E+04;  0.0000000E+00;  0.0000000E+00;  1.0000000E+04;  0.0000000E+00;  1.0000000E+04;  0.0000000E+00;  0.0000000E+00;  0.0000000E+00;  0.0000000E+00;
  2.0599999E+00;  9.9999998E-03;  2.0000000E-01;723;  0.0000000E+00;  0.0000000E+00;  0.0000000E+00;  1.0000000E+03;  4.0000001E-01;  0.0000000E+00;0;  0.0000000E+00;  0.0000000E+00;  0.0000000E+00;0;  0.0000000E+00;  1.0000000E+04;  0.0000000E+00;  0.0000000E+00;  1.0000000E+04;  0.0000000E+00;  1.0000000E+04;  0.0000000E+00;  0.0000000E+00;  0.0000000E+00;  0.0000000E+00;
  2.0599999E+00;  9.9999998E-03;  2.2000000E-01;724;  0.0000000E+00;  0.0000000E+00;  0.0000000E+00;  1.0000000E+03;  4.0000001E-01;  0.0000000E+00;0;  0.0000000E+00;  0.0000000E+00;  0.0000000E+00;0;  0.0000000E+00;  1.0000000E+04;  0.0000000E+00;  0.0000000E+00;  1.0000000E+04;  0.0000000E+00;  1.0000000E+04;  0.0000000E+00;  0.0000000E+00;  0.0000000E+00;  0.0000000E+00;
  2.0599999E+00;  9.9999998E-03;  2.3999999E-01;725;  0.0000000E+00;  0.0000000E+00;  0.0000000E+00;  1.0000000E+03;  4.0000001E-01;  0.0000000E+00;0;  0.0000000E+00;  0.0000000E+00;  0.0000000E+00;0;  0.0000000E+00;  1.0000000E+04;  0.0000000E+00;  0.0000000E+00;  1.0000000E+04;  0.0000000E+00;  1.0000000E+04;  0.0000000E+00;  0.0000000E+00;  0.0000000E+00;  0.0000000E+00;
  2.0599999E+00;  9.9999998E-03;  2.5999999E-01;726;  0.0000000E+00;  0.0000000E+00;  0.0000000E+00;  1.0000000E+03;  4.0000001E-01;  0.0000000E+00;0;  0.0000000E+00;  0.0000000E+00;  0.0000000E+00;0;  0.0000000E+00;  1.0000000E+04;  0.0000000E+00;  0.0000000E+00;  1.0000000E+04;  0.0000000E+00;  1.0000000E+04;  0.0000000E+00;  0.0000000E+00;  0.0000000E+00;  0.0000000E+00;
  2.0599999E+00;  9.9999998E-03;  2.8000000E-01;727;  0.0000000E+00;  0.0000000E+00;  0.0000000E+00;  1.0000000E+03;  4.0000001E-01;  0.0000000E+00;0;  0.0000000E+00;  0.0000000E+00;  0.0000000E+00;0;  0.0000000E+00;  1.0000000E+04;  0.0000000E+00;  0.0000000E+00;  1.0000000E+04;  0.0000000E+00;  1.0000000E+04;  0.0000000E+00;  0.0000000E+00;  0.0000000E+00;  0.0000000E+00;
  2.0599999E+00;  9.9999998E-03;  3.0000001E-01;728;  0.0000000E+00;  0.0000000E+00;  0.0000000E+00;  1.0000000E+03;  4.0000001E-01;  0.0000000E+00;0;  0.0000000E+00;  0.0000000E+00;  0.0000000E+00;0;  0.0000000E+00;  1.0000000E+04;  0.0000000E+00;  0.0000000E+00;  1.0000000E+04;  0.0000000E+00;  1.0000000E+04;  0.0000000E+00;  0.0000000E+00;  0.0000000E+00;  0.0000000E+00;
  2.0599999E+00;  9.9999998E-03;  3.1999999E-01;729;  0.0000000E+00;  0.0000000E+00;  0.0000000E+00;  1.0000000E+03;  4.0000001E-01;  0.0000000E+00;0;  0.0000000E+00;  0.0000000E+00;  0.0000000E+00;0;  0.0000000E+00;  1.0000000E+04;  0.0000000E+00;  0.0000000E+00;  1.0000000E+04;  0.0000000E+00;  1.0000000E+04;  0.0000000E+00;  0.0000000E+00;  0.0000000E+00;  0.0000000E+00;
  2.0599999E+00;  9.9999998E-03;  3.4000000E-01;730;  0.0000000E+00;  0.0000000E+00;  0.0000000E+00;  1.0000000E+03;  4.0000001E-01;  0.0000000E+00;0;  0.0000000E+00;  0.0000000E+00;  0.0000000E+00;0;  0.0000000E+00;  1.0000000E+04;  0.0000000E+00;  0.0000000E+00;  1.0000000E+04;  0.0000000E+00;  1.0000000E+04;  0.0000000E+00;  0.0000000E+00;  0.0000000E+00;  0.0000000E+00;
  2.0599999E+00;  9.9999998E-03;  3.6000001E-01;731;  0.0000000E+00;  0.0000000E+00;  0.0000000E+00;  1.0000000E+03;  4.0000001E-01;  0.0000000E+00;0;  0.0000000E+00;  0.0000000E+00;  0.0000000E+00;0;  0.0000000E+00;  1.0000000E+04;  0.0000000E+00;  0.0000000E+00;  1.0000000E+04;  0.0000000E+00;  1.0000000E+04;  0.0000000E+00;  0.0000000E+00;  0.0000000E+00;  0.0000000E+00;
  2.0599999E+00;  9.9999998E-03;  3.8000000E-01;732;  0.0000000E+00;  0.0000000E+00;  0.0000000E+00;  1.0000000E+03;  4.0000001E-01;  0.0000000E+00;0;  0.0000000E+00;  0.0000000E+00;  0.0000000E+00;0;  0.0000000E+00;  1.0000000E+04;  0.0000000E+00;  0.0000000E+00;  1.0000000E+04;  0.0000000E+00;  1.0000000E+04;  0.0000000E+00;  0.0000000E+00;  0.0000000E+00;  0.0000000E+00;
  2.0799999E+00;  9.9999998E-03; -4.0000001E-01;733;  0.0000000E+00;  0.0000000E+00;  0.0000000E+00;  1.0000000E+03;  4.0000001E-01;  0.0000000E+00;0;  0.0000000E+00;  0.0000000E+00;  0.0000000E+00;0;  0.0000000E+00;  1.0000000E+04;  0.0000000E+00;  0.0000000E+00;  1.0000000E+04;  0.0000000E+00;  1.0000000E+04;  0.0000000E+00;  0.0000000E+00;  0.0000000E+00;  0.0000000E+00;
  2.0799999E+00;  9.9999998E-03; -3.8000000E-01;734;  0.0000000E+00;  0.0000000E+00;  0.0000000E+00;  1.0000000E+03;  4.0000001E-01;  0.0000000E+00;0;  0.0000000E+00;  0.0000000E+00;  0.0000000E+00;0;  0.0000000E+00;  1.0000000E+04;  0.0000000E+00;  0.0000000E+00;  1.0000000E+04;  0.0000000E+00;  1.0000000E+04;  0.0000000E+00;  0.0000000E+00;  0.0000000E+00;  0.0000000E+00;
  2.0799999E+00;  9.9999998E-03; -3.6000001E-01;735;  0.0000000E+00;  0.0000000E+00;  0.0000000E+00;  1.0000000E+03;  4.0000001E-01;  0.0000000E+00;0;  0.0000000E+00;  0.0000000E+00;  0.0000000E+00;0;  0.0000000E+00;  1.0000000E+04;  0.0000000E+00;  0.0000000E+00;  1.0000000E+04;  0.0000000E+00;  1.0000000E+04;  0.0000000E+00;  0.0000000E+00;  0.0000000E+00;  0.0000000E+00;
  2.0799999E+00;  9.9999998E-03; -3.4000000E-01;736;  0.0000000E+00;  0.0000000E+00;  0.0000000E+00;  1.0000000E+03;  4.0000001E-01;  0.0000000E+00;0;  0.0000000E+00;  0.0000000E+00;  0.0000000E+00;0;  0.0000000E+00;  1.0000000E+04;  0.0000000E+00;  0.0000000E+00;  1.0000000E+04;  0.0000000E+00;  1.0000000E+04;  0.0000000E+00;  0.0000000E+00;  0.0000000E+00;  0.0000000E+00;
  2.0799999E+00;  9.9999998E-03; -3.1999999E-01;737;  0.0000000E+00;  0.0000000E+00;  0.0000000E+00;  1.0000000E+03;  4.0000001E-01;  0.0000000E+00;0;  0.0000000E+00;  0.0000000E+00;  0.0000000E+00;0;  0.0000000E+00;  1.0000000E+04;  0.0000000E+00;  0.0000000E+00;  1.0000000E+04;  0.0000000E+00;  1.0000000E+04;  0.0000000E+00;  0.0000000E+00;  0.0000000E+00;  0.0000000E+00;
  2.0799999E+00;  9.9999998E-03; -3.0000001E-01;738;  0.0000000E+00;  0.0000000E+00;  0.0000000E+00;  1.0000000E+03;  4.0000001E-01;  0.0000000E+00;0;  0.0000000E+00;  0.0000000E+00;  0.0000000E+00;0;  0.0000000E+00;  1.0000000E+04;  0.0000000E+00;  0.0000000E+00;  1.0000000E+04;  0.0000000E+00;  1.0000000E+04;  0.0000000E+00;  0.0000000E+00;  0.0000000E+00;  0.0000000E+00;
  2.0799999E+00;  9.9999998E-03; -2.8000000E-01;739;  0.0000000E+00;  0.0000000E+00;  0.0000000E+00;  1.0000000E+03;  4.0000001E-01;  0.0000000E+00;0;  0.0000000E+00;  0.0000000E+00;  0.0000000E+00;0;  0.0000000E+00;  1.0000000E+04;  0.0000000E+00;  0.0000000E+00;  1.0000000E+04;  0.0000000E+00;  1.0000000E+04;  0.0000000E+00;  0.0000000E+00;  0.0000000E+00;  0.0000000E+00;
  2.0799999E+00;  9.9999998E-03; -2.5999999E-01;740;  0.0000000E+00;  0.0000000E+00;  0.0000000E+00;  1.0000000E+03;  4.0000001E-01;  0.0000000E+00;0;  0.0000000E+00;  0.0000000E+00;  0.0000000E+00;0;  0.0000000E+00;  1.0000000E+04;  0.0000000E+00;  0.0000000E+00;  1.0000000E+04;  0.0000000E+00;  1.0000000E+04;  0.0000000E+00;  0.0000000E+00;  0.0000000E+00;  0.0000000E+00;
  2.0799999E+00;  9.9999998E-03; -2.3999999E-01;741;  0.0000000E+00;  0.0000000E+00;  0.0000000E+00;  1.0000000E+03;  4.0000001E-01;  0.0000000E+00;0;  0.0000000E+00;  0.0000000E+00;  0.0000000E+00;0;  0.0000000E+00;  1.0000000E+04;  0.0000000E+00;  0.0000000E+00;  1.0000000E+04;  0.0000000E+00;  1.0000000E+04;  0.0000000E+00;  0.0000000E+00;  0.0000000E+00;  0.0000000E+00;
  2.0799999E+00;  9.9999998E-03; -2.2000000E-01;742;  0.0000000E+00;  0.0000000E+00;  0.0000000E+00;  1.0000000E+03;  4.0000001E-01;  0.0000000E+00;0;  0.0000000E+00;  0.0000000E+00;  0.0000000E+00;0;  0.0000000E+00;  1.0000000E+04;  0.0000000E+00;  0.0000000E+00;  1.0000000E+04;  0.0000000E+00;  1.0000000E+04;  0.0000000E+00;  0.0000000E+00;  0.0000000E+00;  0.0000000E+00;
  2.0799999E+00;  9.9999998E-03; -2.0000000E-01;743;  0.0000000E+00;  0.0000000E+00;  0.0000000E+00;  1.0000000E+03;  4.0000001E-01;  0.0000000E+00;0;  0.0000000E+00;  0.0000000E+00;  0.0000000E+00;0;  0.0000000E+00;  1.0000000E+04;  0.0000000E+00;  0.0000000E+00;  1.0000000E+04;  0.0000000E+00;  1.0000000E+04;  0.0000000E+00;  0.0000000E+00;  0.0000000E+00;  0.0000000E+00;
  2.0799999E+00;  9.9999998E-03; -1.8000001E-01;744;  0.0000000E+00;  0.0000000E+00;  0.0000000E+00;  1.0000000E+03;  4.0000001E-01;  0.0000000E+00;0;  0.0000000E+00;  0.0000000E+00;  0.0000000E+00;0;  0.0000000E+00;  1.0000000E+04;  0.0000000E+00;  0.0000000E+00;  1.0000000E+04;  0.0000000E+00;  1.0000000E+04;  0.0000000E+00;  0.0000000E+00;  0.0000000E+00;  0.0000000E+00;
  2.0799999E+00;  9.9999998E-03; -1.6000000E-01;745;  0.0000000E+00;  0.0000000E+00;  0.0000000E+00;  1.0000000E+03;  4.0000001E-01;  0.0000000E+00;0;  0.0000000E+00;  0.0000000E+00;  0.0000000E+00;0;  0.0000000E+00;  1.0000000E+04;  0.0000000E+00;  0.0000000E+00;  1.0000000E+04;  0.0000000E+00;  1.0000000E+04;  0.0000000E+00;  0.0000000E+00;  0.0000000E+00;  0.0000000E+00;
  2.0799999E+00;  9.9999998E-03; -1.4000000E-01;746;  0.0000000E+00;  0.0000000E+00;  0.0000000E+00;  1.0000000E+03;  4.0000001E-01;  0.0000000E+00;0;  0.0000000E+00;  0.0000000E+00;  0.0000000E+00;0;  0.0000000E+00;  1.0000000E+04;  0.0000000E+00;  0.0000000E+00;  1.0000000E+04;  0.0000000E+00;  1.0000000E+04;  0.0000000E+00;  0.0000000E+00;  0.0000000E+00;  0.0000000E+00;
  2.0799999E+00;  9.9999998E-03; -1.2000000E-01;747;  0.0000000E+00;  0.0000000E+00;  0.0000000E+00;  1.0000000E+03;  4.0000001E-01;  0.0000000E+00;0;  0.0000000E+00;  0.0000000E+00;  0.0000000E+00;0;  0.0000000E+00;  1.0000000E+04;  0.0000000E+00;  0.0000000E+00;  1.0000000E+04;  0.0000000E+00;  1.0000000E+04;  0.0000000E+00;  0.0000000E+00;  0.0000000E+00;  0.0000000E+00;
  2.0799999E+00;  9.9999998E-03; -1.0000000E-01;748;  0.0000000E+00;  0.0000000E+00;  0.0000000E+00;  1.0000000E+03;  4.0000001E-01;  0.0000000E+00;0;  0.0000000E+00;  0.0000000E+00;  0.0000000E+00;0;  0.0000000E+00;  1.0000000E+04;  0.0000000E+00;  0.0000000E+00;  1.0000000E+04;  0.0000000E+00;  1.0000000E+04;  0.0000000E+00;  0.0000000E+00;  0.0000000E+00;  0.0000000E+00;
  2.0799999E+00;  9.9999998E-03; -7.9999998E-02;749;  0.0000000E+00;  0.0000000E+00;  0.0000000E+00;  1.0000000E+03;  4.0000001E-01;  0.0000000E+00;0;  0.0000000E+00;  0.0000000E+00;  0.0000000E+00;0;  0.0000000E+00;  1.0000000E+04;  0.0000000E+00;  0.0000000E+00;  1.0000000E+04;  0.0000000E+00;  1.0000000E+04;  0.0000000E+00;  0.0000000E+00;  0.0000000E+00;  0.0000000E+00;
  2.0799999E+00;  9.9999998E-03; -5.9999999E-02;750;  0.0000000E+00;  0.0000000E+00;  0.0000000E+00;  1.0000000E+03;  4.0000001E-01;  0.0000000E+00;0;  0.0000000E+00;  0.0000000E+00;  0.0000000E+00;0;  0.0000000E+00;  1.0000000E+04;  0.0000000E+00;  0.0000000E+00;  1.0000000E+04;  0.0000000E+00;  1.0000000E+04;  0.0000000E+00;  0.0000000E+00;  0.0000000E+00;  0.0000000E+00;
  2.0799999E+00;  9.9999998E-03; -3.9999999E-02;751;  0.0000000E+00;  0.0000000E+00;  0.0000000E+00;  1.0000000E+03;  4.0000001E-01;  0.0000000E+00;0;  0.0000000E+00;  0.0000000E+00;  0.0000000E+00;0;  0.0000000E+00;  1.0000000E+04;  0.0000000E+00;  0.0000000E+00;  1.0000000E+04;  0.0000000E+00;  1.0000000E+04;  0.0000000E+00;  0.0000000E+00;  0.0000000E+00;  0.0000000E+00;
  2.0799999E+00;  9.9999998E-03; -2.0000000E-02;752;  0.0000000E+00;  0.0000000E+00;  0.0000000E+00;  1.0000000E+03;  4.0000001E-01;  0.0000000E+00;0;  0.0000000E+00;  0.0000000E+00;  0.0000000E+00;0;  0.0000000E+00;  1.0000000E+04;  0.0000000E+00;  0.0000000E+00;  1.0000000E+04;  0.0000000E+00;  1.0000000E+04;  0.0000000E+00;  0.0000000E+00;  0.0000000E+00;  0.0000000E+00;
  2.0799999E+00;  9.9999998E-03;  0.0000000E+00;753;  0.0000000E+00;  0.0000000E+00;  0.0000000E+00;  1.0000000E+03;  4.0000001E-01;  0.0000000E+00;0;  0.0000000E+00;  0.0000000E+00;  0.0000000E+00;0;  0.0000000E+00;  1.0000000E+04;  0.0000000E+00;  0.0000000E+00;  1.0000000E+04;  0.0000000E+00;  1.0000000E+04;  0.0000000E+00;  0.0000000E+00;  0.0000000E+00;  0.0000000E+00;
  2.0799999E+00;  9.9999998E-03;  2.0000000E-02;754;  0.0000000E+00;  0.0000000E+00;  0.0000000E+00;  1.0000000E+03;  4.0000001E-01;  0.0000000E+00;0;  0.0000000E+00;  0.0000000E+00;  0.0000000E+00;0;  0.0000000E+00;  1.0000000E+04;  0.0000000E+00;  0.0000000E+00;  1.0000000E+04;  0.0000000E+00;  1.0000000E+04;  0.0000000E+00;  0.0000000E+00;  0.0000000E+00;  0.0000000E+00;
  2.0799999E+00;  9.9999998E-03;  3.9999999E-02;755;  0.0000000E+00;  0.0000000E+00;  0.0000000E+00;  1.0000000E+03;  4.0000001E-01;  0.0000000E+00;0;  0.0000000E+00;  0.0000000E+00;  0.0000000E+00;0;  0.0000000E+00;  1.0000000E+04;  0.0000000E+00;  0.0000000E+00;  1.0000000E+04;  0.0000000E+00;  1.0000000E+04;  0.0000000E+00;  0.0000000E+00;  0.0000000E+00;  0.0000000E+00;
  2.0799999E+00;  9.9999998E-03;  5.9999999E-02;756;  0.0000000E+00;  0.0000000E+00;  0.0000000E+00;  1.0000000E+03;  4.0000001E-01;  0.0000000E+00;0;  0.0000000E+00;  0.0000000E+00;  0.0000000E+00;0;  0.0000000E+00;  1.0000000E+04;  0.0000000E+00;  0.0000000E+00;  1.0000000E+04;  0.0000000E+00;  1.0000000E+04;  0.0000000E+00;  0.0000000E+00;  0.0000000E+00;  0.0000000E+00;
  2.0799999E+00;  9.9999998E-03;  7.9999998E-02;757;  0.0000000E+00;  0.0000000E+00;  0.0000000E+00;  1.0000000E+03;  4.0000001E-01;  0.0000000E+00;0;  0.0000000E+00;  0.0000000E+00;  0.0000000E+00;0;  0.0000000E+00;  1.0000000E+04;  0.0000000E+00;  0.0000000E+00;  1.0000000E+04;  0.0000000E+00;  1.0000000E+04;  0.0000000E+00;  0.0000000E+00;  0.0000000E+00;  0.0000000E+00;
  2.0799999E+00;  9.9999998E-03;  1.0000000E-01;758;  0.0000000E+00;  0.0000000E+00;  0.0000000E+00;  1.0000000E+03;  4.0000001E-01;  0.0000000E+00;0;  0.0000000E+00;  0.0000000E+00;  0.0000000E+00;0;  0.0000000E+00;  1.0000000E+04;  0.0000000E+00;  0.0000000E+00;  1.0000000E+04;  0.0000000E+00;  1.0000000E+04;  0.0000000E+00;  0.0000000E+00;  0.0000000E+00;  0.0000000E+00;
  2.0799999E+00;  9.9999998E-03;  1.2000000E-01;759;  0.0000000E+00;  0.0000000E+00;  0.0000000E+00;  1.0000000E+03;  4.0000001E-01;  0.0000000E+00;0;  0.0000000E+00;  0.0000000E+00;  0.0000000E+00;0;  0.0000000E+00;  1.0000000E+04;  0.0000000E+00;  0.0000000E+00;  1.0000000E+04;  0.0000000E+00;  1.0000000E+04;  0.0000000E+00;  0.0000000E+00;  0.0000000E+00;  0.0000000E+00;
  2.0799999E+00;  9.9999998E-03;  1.4000000E-01;760;  0.0000000E+00;  0.0000000E+00;  0.0000000E+00;  1.0000000E+03;  4.0000001E-01;  0.0000000E+00;0;  0.0000000E+00;  0.0000000E+00;  0.0000000E+00;0;  0.0000000E+00;  1.0000000E+04;  0.0000000E+00;  0.0000000E+00;  1.0000000E+04;  0.0000000E+00;  1.0000000E+04;  0.0000000E+00;  0.0000000E+00;  0.0000000E+00;  0.0000000E+00;
  2.0799999E+00;  9.9999998E-03;  1.6000000E-01;761;  0.0000000E+00;  0.0000000E+00;  0.0000000E+00;  1.0000000E+03;  4.0000001E-01;  0.0000000E+00;0;  0.0000000E+00;  0.0000000E+00;  0.0000000E+00;0;  0.0000000E+00;  1.0000000E+04;  0.0000000E+00;  0.0000000E+00;  1.0000000E+04;  0.0000000E+00;  1.0000000E+04;  0.0000000E+00;  0.0000000E+00;  0.0000000E+00;  0.0000000E+00;
  2.0799999E+00;  9.9999998E-03;  1.8000001E-01;762;  0.0000000E+00;  0.0000000E+00;  0.0000000E+00;  1.0000000E+03;  4.0000001E-01;  0.0000000E+00;0;  0.0000000E+00;  0.0000000E+00;  0.0000000E+00;0;  0.0000000E+00;  1.0000000E+04;  0.0000000E+00;  0.0000000E+00;  1.0000000E+04;  0.0000000E+00;  1.0000000E+04;  0.0000000E+00;  0.0000000E+00;  0.0000000E+00;  0.0000000E+00;
  2.0799999E+00;  9.9999998E-03;  2.0000000E-01;763;  0.0000000E+00;  0.0000000E+00;  0.0000000E+00;  1.0000000E+03;  4.0000001E-01;  0.0000000E+00;0;  0.0000000E+00;  0.0000000E+00;  0.0000000E+00;0;  0.0000000E+00;  1.0000000E+04;  0.0000000E+00;  0.0000000E+00;  1.0000000E+04;  0.0000000E+00;  1.0000000E+04;  0.0000000E+00;  0.0000000E+00;  0.0000000E+00;  0.0000000E+00;
  2.0799999E+00;  9.9999998E-03;  2.2000000E-01;764;  0.0000000E+00;  0.0000000E+00;  0.0000000E+00;  1.0000000E+03;  4.0000001E-01;  0.0000000E+00;0;  0.0000000E+00;  0.0000000E+00;  0.0000000E+00;0;  0.0000000E+00;  1.0000000E+04;  0.0000000E+00;  0.0000000E+00;  1.0000000E+04;  0.0000000E+00;  1.0000000E+04;  0.0000000E+00;  0.0000000E+00;  0.0000000E+00;  0.0000000E+00;
  2.0799999E+00;  9.9999998E-03;  2.3999999E-01;765;  0.0000000E+00;  0.0000000E+00;  0.0000000E+00;  1.0000000E+03;  4.0000001E-01;  0.0000000E+00;0;  0.0000000E+00;  0.0000000E+00;  0.0000000E+00;0;  0.0000000E+00;  1.0000000E+04;  0.0000000E+00;  0.0000000E+00;  1.0000000E+04;  0.0000000E+00;  1.0000000E+04;  0.0000000E+00;  0.0000000E+00;  0.0000000E+00;  0.0000000E+00;
  2.0799999E+00;  9.9999998E-03;  2.5999999E-01;766;  0.0000000E+00;  0.0000000E+00;  0.0000000E+00;  1.0000000E+03;  4.0000001E-01;  0.0000000E+00;0;  0.0000000E+00;  0.0000000E+00;  0.0000000E+00;0;  0.0000000E+00;  1.0000000E+04;  0.0000000E+00;  0.0000000E+00;  1.0000000E+04;  0.0000000E+00;  1.0000000E+04;  0.0000000E+00;  0.0000000E+00;  0.0000000E+00;  0.0000000E+00;
  2.0799999E+00;  9.9999998E-03;  2.8000000E-01;767;  0.0000000E+00;  0.0000000E+00;  0.0000000E+00;  1.0000000E+03;  4.0000001E-01;  0.0000000E+00;0;  0.0000000E+00;  0.0000000E+00;  0.0000000E+00;0;  0.0000000E+00;  1.0000000E+04;  0.0000000E+00;  0.0000000E+00;  1.0000000E+04;  0.0000000E+00;  1.0000000E+04;  0.0000000E+00;  0.0000000E+00;  0.0000000E+00;  0.0000000E+00;
  2.0799999E+00;  9.9999998E-03;  3.0000001E-01;768;  0.0000000E+00;  0.0000000E+00;  0.0000000E+00;  1.0000000E+03;  4.0000001E-01;  0.0000000E+00;0;  0.0000000E+00;  0.0000000E+00;  0.0000000E+00;0;  0.0000000E+00;  1.0000000E+04;  0.0000000E+00;  0.0000000E+00;  1.0000000E+04;  0.0000000E+00;  1.0000000E+04;  0.0000000E+00;  0.0000000E+00;  0.0000000E+00;  0.0000000E+00;
  2.0799999E+00;  9.9999998E-03;  3.1999999E-01;769;  0.0000000E+00;  0.0000000E+00;  0.0000000E+00;  1.0000000E+03;  4.0000001E-01;  0.0000000E+00;0;  0.0000000E+00;  0.0000000E+00;  0.0000000E+00;0;  0.0000000E+00;  1.0000000E+04;  0.0000000E+00;  0.0000000E+00;  1.0000000E+04;  0.0000000E+00;  1.0000000E+04;  0.0000000E+00;  0.0000000E+00;  0.0000000E+00;  0.0000000E+00;
  2.0799999E+00;  9.9999998E-03;  3.4000000E-01;770;  0.0000000E+00;  0.0000000E+00;  0.0000000E+00;  1.0000000E+03;  4.0000001E-01;  0.0000000E+00;0;  0.0000000E+00;  0.0000000E+00;  0.0000000E+00;0;  0.0000000E+00;  1.0000000E+04;  0.0000000E+00;  0.0000000E+00;  1.0000000E+04;  0.0000000E+00;  1.0000000E+04;  0.0000000E+00;  0.0000000E+00;  0.0000000E+00;  0.0000000E+00;
  2.0799999E+00;  9.9999998E-03;  3.6000001E-01;771;  0.0000000E+00;  0.0000000E+00;  0.0000000E+00;  1.0000000E+03;  4.0000001E-01;  0.0000000E+00;0;  0.0000000E+00;  0.0000000E+00;  0.0000000E+00;0;  0.0000000E+00;  1.0000000E+04;  0.0000000E+00;  0.0000000E+00;  1.0000000E+04;  0.0000000E+00;  1.0000000E+04;  0.0000000E+00;  0.0000000E+00;  0.0000000E+00;  0.0000000E+00;
  2.0799999E+00;  9.9999998E-03;  3.8000000E-01;772;  0.0000000E+00;  0.0000000E+00;  0.0000000E+00;  1.0000000E+03;  4.0000001E-01;  0.0000000E+00;0;  0.0000000E+00;  0.0000000E+00;  0.0000000E+00;0;  0.0000000E+00;  1.0000000E+04;  0.0000000E+00;  0.0000000E+00;  1.0000000E+04;  0.0000000E+00;  1.0000000E+04;  0.0000000E+00;  0.0000000E+00;  0.0000000E+00;  0.0000000E+00;
  2.0799999E+00;  9.9999998E-03;  4.0000001E-01;773;  0.0000000E+00;  0.0000000E+00;  0.0000000E+00;  1.0000000E+03;  4.0000001E-01;  0.0000000E+00;0;  0.0000000E+00;  0.0000000E+00;  0.0000000E+00;0;  0.0000000E+00;  1.0000000E+04;  0.0000000E+00;  0.0000000E+00;  1.0000000E+04;  0.0000000E+00;  1.0000000E+04;  0.0000000E+00;  0.0000000E+00;  0.0000000E+00;  0.0000000E+00;
  2.0999999E+00;  9.9999998E-03; -4.0000001E-01;774;  0.0000000E+00;  0.0000000E+00;  0.0000000E+00;  1.0000000E+03;  4.0000001E-01;  0.0000000E+00;0;  0.0000000E+00;  0.0000000E+00;  0.0000000E+00;0;  0.0000000E+00;  1.0000000E+04;  0.0000000E+00;  0.0000000E+00;  1.0000000E+04;  0.0000000E+00;  1.0000000E+04;  0.0000000E+00;  0.0000000E+00;  0.0000000E+00;  0.0000000E+00;
  2.0999999E+00;  9.9999998E-03; -3.8000000E-01;775;  0.0000000E+00;  0.0000000E+00;  0.0000000E+00;  1.0000000E+03;  4.0000001E-01;  0.0000000E+00;0;  0.0000000E+00;  0.0000000E+00;  0.0000000E+00;0;  0.0000000E+00;  1.0000000E+04;  0.0000000E+00;  0.0000000E+00;  1.0000000E+04;  0.0000000E+00;  1.0000000E+04;  0.0000000E+00;  0.0000000E+00;  0.0000000E+00;  0.0000000E+00;
  2.0999999E+00;  9.9999998E-03; -3.6000001E-01;776;  0.0000000E+00;  0.0000000E+00;  0.0000000E+00;  1.0000000E+03;  4.0000001E-01;  0.0000000E+00;0;  0.0000000E+00;  0.0000000E+00;  0.0000000E+00;0;  0.0000000E+00;  1.0000000E+04;  0.0000000E+00;  0.0000000E+00;  1.0000000E+04;  0.0000000E+00;  1.0000000E+04;  0.0000000E+00;  0.0000000E+00;  0.0000000E+00;  0.0000000E+00;
  2.0999999E+00;  9.9999998E-03; -3.4000000E-01;777;  0.0000000E+00;  0.0000000E+00;  0.0000000E+00;  1.0000000E+03;  4.0000001E-01;  0.0000000E+00;0;  0.0000000E+00;  0.0000000E+00;  0.0000000E+00;0;  0.0000000E+00;  1.0000000E+04;  0.0000000E+00;  0.0000000E+00;  1.0000000E+04;  0.0000000E+00;  1.0000000E+04;  0.0000000E+00;  0.0000000E+00;  0.0000000E+00;  0.0000000E+00;
  2.0999999E+00;  9.9999998E-03; -3.1999999E-01;778;  0.0000000E+00;  0.0000000E+00;  0.0000000E+00;  1.0000000E+03;  4.0000001E-01;  0.0000000E+00;0;  0.0000000E+00;  0.0000000E+00;  0.0000000E+00;0;  0.0000000E+00;  1.0000000E+04;  0.0000000E+00;  0.0000000E+00;  1.0000000E+04;  0.0000000E+00;  1.0000000E+04;  0.0000000E+00;  0.0000000E+00;  0.0000000E+00;  0.0000000E+00;
  2.0999999E+00;  9.9999998E-03; -3.0000001E-01;779;  0.0000000E+00;  0.0000000E+00;  0.0000000E+00;  1.0000000E+03;  4.0000001E-01;  0.0000000E+00;0;  0.0000000E+00;  0.0000000E+00;  0.0000000E+00;0;  0.0000000E+00;  1.0000000E+04;  0.0000000E+00;  0.0000000E+00;  1.0000000E+04;  0.0000000E+00;  1.0000000E+04;  0.0000000E+00;  0.0000000E+00;  0.0000000E+00;  0.0000000E+00;
  2.0999999E+00;  9.9999998E-03; -2.8000000E-01;780;  0.0000000E+00;  0.0000000E+00;  0.0000000E+00;  1.0000000E+03;  4.0000001E-01;  0.0000000E+00;0;  0.0000000E+00;  0.0000000E+00;  0.0000000E+00;0;  0.0000000E+00;  1.0000000E+04;  0.0000000E+00;  0.0000000E+00;  1.0000000E+04;  0.0000000E+00;  1.0000000E+04;  0.0000000E+00;  0.0000000E+00;  0.0000000E+00;  0.0000000E+00;
  2.0999999E+00;  9.9999998E-03; -2.5999999E-01;781;  0.0000000E+00;  0.0000000E+00;  0.0000000E+00;  1.0000000E+03;  4.0000001E-01;  0.0000000E+00;0;  0.0000000E+00;  0.0000000E+00;  0.0000000E+00;0;  0.0000000E+00;  1.0000000E+04;  0.0000000E+00;  0.0000000E+00;  1.0000000E+04;  0.0000000E+00;  1.0000000E+04;  0.0000000E+00;  0.0000000E+00;  0.0000000E+00;  0.0000000E+00;
  2.0999999E+00;  9.9999998E-03; -2.3999999E-01;782;  0.0000000E+00;  0.0000000E+00;  0.0000000E+00;  1.0000000E+03;  4.0000001E-01;  0.0000000E+00;0;  0.0000000E+00;  0.0000000E+00;  0.0000000E+00;0;  0.0000000E+00;  1.0000000E+04;  0.0000000E+00;  0.0000000E+00;  1.0000000E+04;  0.0000000E+00;  1.0000000E+04;  0.0000000E+00;  0.0000000E+00;  0.0000000E+00;  0.0000000E+00;
  2.0999999E+00;  9.9999998E-03; -2.2000000E-01;783;  0.0000000E+00;  0.0000000E+00;  0.0000000E+00;  1.0000000E+03;  4.0000001E-01;  0.0000000E+00;0;  0.0000000E+00;  0.0000000E+00;  0.0000000E+00;0;  0.0000000E+00;  1.0000000E+04;  0.0000000E+00;  0.0000000E+00;  1.0000000E+04;  0.0000000E+00;  1.0000000E+04;  0.0000000E+00;  0.0000000E+00;  0.0000000E+00;  0.0000000E+00;
  2.0999999E+00;  9.9999998E-03; -2.0000000E-01;784;  0.0000000E+00;  0.0000000E+00;  0.0000000E+00;  1.0000000E+03;  4.0000001E-01;  0.0000000E+00;0;  0.0000000E+00;  0.0000000E+00;  0.0000000E+00;0;  0.0000000E+00;  1.0000000E+04;  0.0000000E+00;  0.0000000E+00;  1.0000000E+04;  0.0000000E+00;  1.0000000E+04;  0.0000000E+00;  0.0000000E+00;  0.0000000E+00;  0.0000000E+00;
  2.0999999E+00;  9.9999998E-03; -1.8000001E-01;785;  0.0000000E+00;  0.0000000E+00;  0.0000000E+00;  1.0000000E+03;  4.0000001E-01;  0.0000000E+00;0;  0.0000000E+00;  0.0000000E+00;  0.0000000E+00;0;  0.0000000E+00;  1.0000000E+04;  0.0000000E+00;  0.0000000E+00;  1.0000000E+04;  0.0000000E+00;  1.0000000E+04;  0.0000000E+00;  0.0000000E+00;  0.0000000E+00;  0.0000000E+00;
  2.0999999E+00;  9.9999998E-03; -1.6000000E-01;786;  0.0000000E+00;  0.0000000E+00;  0.0000000E+00;  1.0000000E+03;  4.0000001E-01;  0.0000000E+00;0;  0.0000000E+00;  0.0000000E+00;  0.0000000E+00;0;  0.0000000E+00;  1.0000000E+04;  0.0000000E+00;  0.0000000E+00;  1.0000000E+04;  0.0000000E+00;  1.0000000E+04;  0.0000000E+00;  0.0000000E+00;  0.0000000E+00;  0.0000000E+00;
  2.0999999E+00;  9.9999998E-03; -1.4000000E-01;787;  0.0000000E+00;  0.0000000E+00;  0.0000000E+00;  1.0000000E+03;  4.0000001E-01;  0.0000000E+00;0;  0.0000000E+00;  0.0000000E+00;  0.0000000E+00;0;  0.0000000E+00;  1.0000000E+04;  0.0000000E+00;  0.0000000E+00;  1.0000000E+04;  0.0000000E+00;  1.0000000E+04;  0.0000000E+00;  0.0000000E+00;  0.0000000E+00;  0.0000000E+00;
  2.0999999E+00;  9.9999998E-03; -1.2000000E-01;788;  0.0000000E+00;  0.0000000E+00;  0.0000000E+00;  1.0000000E+03;  4.0000001E-01;  0.0000000E+00;0;  0.0000000E+00;  0.0000000E+00;  0.0000000E+00;0;  0.0000000E+00;  1.0000000E+04;  0.0000000E+00;  0.0000000E+00;  1.0000000E+04;  0.0000000E+00;  1.0000000E+04;  0.0000000E+00;  0.0000000E+00;  0.0000000E+00;  0.0000000E+00;
  2.0999999E+00;  9.9999998E-03; -1.0000000E-01;789;  0.0000000E+00;  0.0000000E+00;  0.0000000E+00;  1.0000000E+03;  4.0000001E-01;  0.0000000E+00;0;  0.0000000E+00;  0.0000000E+00;  0.0000000E+00;0;  0.0000000E+00;  1.0000000E+04;  0.0000000E+00;  0.0000000E+00;  1.0000000E+04;  0.0000000E+00;  1.0000000E+04;  0.0000000E+00;  0.0000000E+00;  0.0000000E+00;  0.0000000E+00;
  2.0999999E+00;  9.9999998E-03; -7.9999998E-02;790;  0.0000000E+00;  0.0000000E+00;  0.0000000E+00;  1.0000000E+03;  4.0000001E-01;  0.0000000E+00;0;  0.0000000E+00;  0.0000000E+00;  0.0000000E+00;0;  0.0000000E+00;  1.0000000E+04;  0.0000000E+00;  0.0000000E+00;  1.0000000E+04;  0.0000000E+00;  1.0000000E+04;  0.0000000E+00;  0.0000000E+00;  0.0000000E+00;  0.0000000E+00;
  2.0999999E+00;  9.9999998E-03; -5.9999999E-02;791;  0.0000000E+00;  0.0000000E+00;  0.0000000E+00;  1.0000000E+03;  4.0000001E-01;  0.0000000E+00;0;  0.0000000E+00;  0.0000000E+00;  0.0000000E+00;0;  0.0000000E+00;  1.0000000E+04;  0.0000000E+00;  0.0000000E+00;  1.0000000E+04;  0.0000000E+00;  1.0000000E+04;  0.0000000E+00;  0.0000000E+00;  0.0000000E+00;  0.0000000E+00;
  2.0999999E+00;  9.9999998E-03; -3.9999999E-02;792;  0.0000000E+00;  0.0000000E+00;  0.0000000E+00;  1.0000000E+03;  4.0000001E-01;  0.0000000E+00;0;  0.0000000E+00;  0.0000000E+00;  0.0000000E+00;0;  0.0000000E+00;  1.0000000E+04;  0.0000000E+00;  0.0000000E+00;  1.0000000E+04;  0.0000000E+00;  1.0000000E+04;  0.0000000E+00;  0.0000000E+00;  0.0000000E+00;  0.0000000E+00;
  2.0999999E+00;  9.9999998E-03; -2.0000000E-02;793;  0.0000000E+00;  0.0000000E+00;  0.0000000E+00;  1.0000000E+03;  4.0000001E-01;  0.0000000E+00;0;  0.0000000E+00;  0.0000000E+00;  0.0000000E+00;0;  0.0000000E+00;  1.0000000E+04;  0.0000000E+00;  0.0000000E+00;  1.0000000E+04;  0.0000000E+00;  1.0000000E+04;  0.0000000E+00;  0.0000000E+00;  0.0000000E+00;  0.0000000E+00;
  2.0999999E+00;  9.9999998E-03;  0.0000000E+00;794;  0.0000000E+00;  0.0000000E+00;  0.0000000E+00;  1.0000000E+03;  4.0000001E-01;  0.0000000E+00;0;  0.0000000E+00;  0.0000000E+00;  0.0000000E+00;0;  0.0000000E+00;  1.0000000E+04;  0.0000000E+00;  0.0000000E+00;  1.0000000E+04;  0.0000000E+00;  1.0000000E+04;  0.0000000E+00;  0.0000000E+00;  0.0000000E+00;  0.0000000E+00;
  2.0999999E+00;  9.9999998E-03;  2.0000000E-02;795;  0.0000000E+00;  0.0000000E+00;  0.0000000E+00;  1.0000000E+03;  4.0000001E-01;  0.0000000E+00;0;  0.0000000E+00;  0.0000000E+00;  0.0000000E+00;0;  0.0000000E+00;  1.0000000E+04;  0.0000000E+00;  0.0000000E+00;  1.0000000E+04;  0.0000000E+00;  1.0000000E+04;  0.0000000E+00;  0.0000000E+00;  0.0000000E+00;  0.0000000E+00;
  2.0999999E+00;  9.9999998E-03;  3.9999999E-02;796;  0.0000000E+00;  0.0000000E+00;  0.0000000E+00;  1.0000000E+03;  4.0000001E-01;  0.0000000E+00;0;  0.0000000E+00;  0.0000000E+00;  0.0000000E+00;0;  0.0000000E+00;  1.0000000E+04;  0.0000000E+00;  0.0000000E+00;  1.0000000E+04;  0.0000000E+00;  1.0000000E+04;  0.0000000E+00;  0.0000000E+00;  0.0000000E+00;  0.0000000E+00;
  2.0999999E+00;  9.9999998E-03;  5.9999999E-02;797;  0.0000000E+00;  0.0000000E+00;  0.0000000E+00;  1.0000000E+03;  4.0000001E-01;  0.0000000E+00;0;  0.0000000E+00;  0.0000000E+00;  0.0000000E+00;0;  0.0000000E+00;  1.0000000E+04;  0.0000000E+00;  0.0000000E+00;  1.0000000E+04;  0.0000000E+00;  1.0000000E+04;  0.0000000E+00;  0.0000000E+00;  0.0000000E+00;  0.0000000E+00;
  2.0999999E+00;  9.9999998E-03;  7.9999998E-02;798;  0.0000000E+00;  0.0000000E+00;  0.0000000E+00;  1.0000000E+03;  4.0000001E-01;  0.0000000E+00;0;  0.0000000E+00;  0.0000000E+00;  0.0000000E+00;0;  0.0000000E+00;  1.0000000E+04;  0.0000000E+00;  0.0000000E+00;  1.0000000E+04;  0.0000000E+00;  1.0000000E+04;  0.0000000E+00;  0.0000000E+00;  0.0000000E+00;  0.0000000E+00;
  2.0999999E+00;  9.9999998E-03;  1.0000000E-01;799;  0.0000000E+00;  0.0000000E+00;  0.0000000E+00;  1.0000000E+03;  4.0000001E-01;  0.0000000E+00;0;  0.0000000E+00;  0.0000000E+00;  0.0000000E+00;0;  0.0000000E+00;  1.0000000E+04;  0.0000000E+00;  0.0000000E+00;  1.0000000E+04;  0.0000000E+00;  1.0000000E+04;  0.0000000E+00;  0.0000000E+00;  0.0000000E+00;  0.0000000E+00;
  2.0999999E+00;  9.9999998E-03;  1.2000000E-01;800;  0.0000000E+00;  0.0000000E+00;  0.0000000E+00;  1.0000000E+03;  4.0000001E-01;  0.0000000E+00;0;  0.0000000E+00;  0.0000000E+00;  0.0000000E+00;0;  0.0000000E+00;  1.0000000E+04;  0.0000000E+00;  0.0000000E+00;  1.0000000E+04;  0.0000000E+00;  1.0000000E+04;  0.0000000E+00;  0.0000000E+00;  0.0000000E+00;  0.0000000E+00;
  2.0999999E+00;  9.9999998E-03;  1.4000000E-01;801;  0.0000000E+00;  0.0000000E+00;  0.0000000E+00;  1.0000000E+03;  4.0000001E-01;  0.0000000E+00;0;  0.0000000E+00;  0.0000000E+00;  0.0000000E+00;0;  0.0000000E+00;  1.0000000E+04;  0.0000000E+00;  0.0000000E+00;  1.0000000E+04;  0.0000000E+00;  1.0000000E+04;  0.0000000E+00;  0.0000000E+00;  0.0000000E+00;  0.0000000E+00;
  2.0999999E+00;  9.9999998E-03;  1.6000000E-01;802;  0.0000000E+00;  0.0000000E+00;  0.0000000E+00;  1.0000000E+03;  4.0000001E-01;  0.0000000E+00;0;  0.0000000E+00;  0.0000000E+00;  0.0000000E+00;0;  0.0000000E+00;  1.0000000E+04;  0.0000000E+00;  0.0000000E+00;  1.0000000E+04;  0.0000000E+00;  1.0000000E+04;  0.0000000E+00;  0.0000000E+00;  0.0000000E+00;  0.0000000E+00;
  2.0999999E+00;  9.9999998E-03;  1.8000001E-01;803;  0.0000000E+00;  0.0000000E+00;  0.0000000E+00;  1.0000000E+03;  4.0000001E-01;  0.0000000E+00;0;  0.0000000E+00;  0.0000000E+00;  0.0000000E+00;0;  0.0000000E+00;  1.0000000E+04;  0.0000000E+00;  0.0000000E+00;  1.0000000E+04;  0.0000000E+00;  1.0000000E+04;  0.0000000E+00;  0.0000000E+00;  0.0000000E+00;  0.0000000E+00;
  2.0999999E+00;  9.9999998E-03;  2.0000000E-01;804;  0.0000000E+00;  0.0000000E+00;  0.0000000E+00;  1.0000000E+03;  4.0000001E-01;  0.0000000E+00;0;  0.0000000E+00;  0.0000000E+00;  0.0000000E+00;0;  0.0000000E+00;  1.0000000E+04;  0.0000000E+00;  0.0000000E+00;  1.0000000E+04;  0.0000000E+00;  1.0000000E+04;  0.0000000E+00;  0.0000000E+00;  0.0000000E+00;  0.0000000E+00;
  2.0999999E+00;  9.9999998E-03;  2.2000000E-01;805;  0.0000000E+00;  0.0000000E+00;  0.0000000E+00;  1.0000000E+03;  4.0000001E-01;  0.0000000E+00;0;  0.0000000E+00;  0.0000000E+00;  0.0000000E+00;0;  0.0000000E+00;  1.0000000E+04;  0.0000000E+00;  0.0000000E+00;  1.0000000E+04;  0.0000000E+00;  1.0000000E+04;  0.0000000E+00;  0.0000000E+00;  0.0000000E+00;  0.0000000E+00;
  2.0999999E+00;  9.9999998E-03;  2.3999999E-01;806;  0.0000000E+00;  0.0000000E+00;  0.0000000E+00;  1.0000000E+03;  4.0000001E-01;  0.0000000E+00;0;  0.0000000E+00;  0.0000000E+00;  0.0000000E+00;0;  0.0000000E+00;  1.0000000E+04;  0.0000000E+00;  0.0000000E+00;  1.0000000E+04;  0.0000000E+00;  1.0000000E+04;  0.0000000E+00;  0.0000000E+00;  0.0000000E+00;  0.0000000E+00;
  2.0999999E+00;  9.9999998E-03;  2.5999999E-01;807;  0.0000000E+00;  0.0000000E+00;  0.0000000E+00;  1.0000000E+03;  4.0000001E-01;  0.0000000E+00;0;  0.0000000E+00;  0.0000000E+00;  0.0000000E+00;0;  0.0000000E+00;  1.0000000E+04;  0.0000000E+00;  0.0000000E+00;  1.0000000E+04;  0.0000000E+00;  1.0000000E+04;  0.0000000E+00;  0.0000000E+00;  0.0000000E+00;  0.0000000E+00;
  2.0999999E+00;  9.9999998E-03;  2.8000000E-01;808;  0.0000000E+00;  0.0000000E+00;  0.0000000E+00;  1.0000000E+03;  4.0000001E-01;  0.0000000E+00;0;  0.0000000E+00;  0.0000000E+00;  0.0000000E+00;0;  0.0000000E+00;  1.0000000E+04;  0.0000000E+00;  0.0000000E+00;  1.0000000E+04;  0.0000000E+00;  1.0000000E+04;  0.0000000E+00;  0.0000000E+00;  0.0000000E+00;  0.0000000E+00;
  2.0999999E+00;  9.9999998E-03;  3.0000001E-01;809;  0.0000000E+00;  0.0000000E+00;  0.0000000E+00;  1.0000000E+03;  4.0000001E-01;  0.0000000E+00;0;  0.0000000E+00;  0.0000000E+00;  0.0000000E+00;0;  0.0000000E+00;  1.0000000E+04;  0.0000000E+00;  0.0000000E+00;  1.0000000E+04;  0.0000000E+00;  1.0000000E+04;  0.0000000E+00;  0.0000000E+00;  0.0000000E+00;  0.0000000E+00;
  2.0999999E+00;  9.9999998E-03;  3.1999999E-01;810;  0.0000000E+00;  0.0000000E+00;  0.0000000E+00;  1.0000000E+03;  4.0000001E-01;  0.0000000E+00;0;  0.0000000E+00;  0.0000000E+00;  0.0000000E+00;0;  0.0000000E+00;  1.0000000E+04;  0.0000000E+00;  0.0000000E+00;  1.0000000E+04;  0.0000000E+00;  1.0000000E+04;  0.0000000E+00;  0.0000000E+00;  0.0000000E+00;  0.0000000E+00;
  2.0999999E+00;  9.9999998E-03;  3.4000000E-01;811;  0.0000000E+00;  0.0000000E+00;  0.0000000E+00;  1.0000000E+03;  4.0000001E-01;  0.0000000E+00;0;  0.0000000E+00;  0.0000000E+00;  0.0000000E+00;0;  0.0000000E+00;  1.0000000E+04;  0.0000000E+00;  0.0000000E+00;  1.0000000E+04;  0.0000000E+00;  1.0000000E+04;  0.0000000E+00;  0.0000000E+00;  0.0000000E+00;  0.0000000E+00;
  2.0999999E+00;  9.9999998E-03;  3.6000001E-01;812;  0.0000000E+00;  0.0000000E+00;  0.0000000E+00;  1.0000000E+03;  4.0000001E-01;  0.0000000E+00;0;  0.0000000E+00;  0.0000000E+00;  0.0000000E+00;0;  0.0000000E+00;  1.0000000E+04;  0.0000000E+00;  0.0000000E+00;  1.0000000E+04;  0.0000000E+00;  1.0000000E+04;  0.0000000E+00;  0.0000000E+00;  0.0000000E+00;  0.0000000E+00;
  2.0999999E+00;  9.9999998E-03;  3.8000000E-01;813;  0.0000000E+00;  0.0000000E+00;  0.0000000E+00;  1.0000000E+03;  4.0000001E-01;  0.0000000E+00;0;  0.0000000E+00;  0.0000000E+00;  0.0000000E+00;0;  0.0000000E+00;  1.0000000E+04;  0.0000000E+00;  0.0000000E+00;  1.0000000E+04;  0.0000000E+00;  1.0000000E+04;  0.0000000E+00;  0.0000000E+00;  0.0000000E+00;  0.0000000E+00;
  2.0999999E+00;  9.9999998E-03;  4.0000001E-01;814;  0.0000000E+00;  0.0000000E+00;  0.0000000E+00;  1.0000000E+03;  4.0000001E-01;  0.0000000E+00;0;  0.0000000E+00;  0.0000000E+00;  0.0000000E+00;0;  0.0000000E+00;  1.0000000E+04;  0.0000000E+00;  0.0000000E+00;  1.0000000E+04;  0.0000000E+00;  1.0000000E+04;  0.0000000E+00;  0.0000000E+00;  0.0000000E+00;  0.0000000E+00;
  2.1199999E+00;  9.9999998E-03; -4.1999999E-01;815;  0.0000000E+00;  0.0000000E+00;  0.0000000E+00;  1.0000000E+03;  4.0000001E-01;  0.0000000E+00;0;  0.0000000E+00;  0.0000000E+00;  0.0000000E+00;0;  0.0000000E+00;  1.0000000E+04;  0.0000000E+00;  0.0000000E+00;  1.0000000E+04;  0.0000000E+00;  1.0000000E+04;  0.0000000E+00;  0.0000000E+00;  0.0000000E+00;  0.0000000E+00;
  2.1199999E+00;  9.9999998E-03; -4.0000001E-01;816;  0.0000000E+00;  0.0000000E+00;  0.0000000E+00;  1.0000000E+03;  4.0000001E-01;  0.0000000E+00;0;  0.0000000E+00;  0.0000000E+00;  0.0000000E+00;0;  0.0000000E+00;  1.0000000E+04;  0.0000000E+00;  0.0000000E+00;  1.0000000E+04;  0.0000000E+00;  1.0000000E+04;  0.0000000E+00;  0.0000000E+00;  0.0000000E+00;  0.0000000E+00;
  2.1199999E+00;  9.9999998E-03; -3.8000000E-01;817;  0.0000000E+00;  0.0000000E+00;  0.0000000E+00;  1.0000000E+03;  4.0000001E-01;  0.0000000E+00;0;  0.0000000E+00;  0.0000000E+00;  0.0000000E+00;0;  0.0000000E+00;  1.0000000E+04;  0.0000000E+00;  0.0000000E+00;  1.0000000E+04;  0.0000000E+00;  1.0000000E+04;  0.0000000E+00;  0.0000000E+00;  0.0000000E+00;  0.0000000E+00;
  2.1199999E+00;  9.9999998E-03; -3.6000001E-01;818;  0.0000000E+00;  0.0000000E+00;  0.0000000E+00;  1.0000000E+03;  4.0000001E-01;  0.0000000E+00;0;  0.0000000E+00;  0.0000000E+00;  0.0000000E+00;0;  0.0000000E+00;  1.0000000E+04;  0.0000000E+00;  0.0000000E+00;  1.0000000E+04;  0.0000000E+00;  1.0000000E+04;  0.0000000E+00;  0.0000000E+00;  0.0000000E+00;  0.0000000E+00;
  2.1199999E+00;  9.9999998E-03; -3.4000000E-01;819;  0.0000000E+00;  0.0000000E+00;  0.0000000E+00;  1.0000000E+03;  4.0000001E-01;  0.0000000E+00;0;  0.0000000E+00;  0.0000000E+00;  0.0000000E+00;0;  0.0000000E+00;  1.0000000E+04;  0.0000000E+00;  0.0000000E+00;  1.0000000E+04;  0.0000000E+00;  1.0000000E+04;  0.0000000E+00;  0.0000000E+00;  0.0000000E+00;  0.0000000E+00;
  2.1199999E+00;  9.9999998E-03; -3.1999999E-01;820;  0.0000000E+00;  0.0000000E+00;  0.0000000E+00;  1.0000000E+03;  4.0000001E-01;  0.0000000E+00;0;  0.0000000E+00;  0.0000000E+00;  0.0000000E+00;0;  0.0000000E+00;  1.0000000E+04;  0.0000000E+00;  0.0000000E+00;  1.0000000E+04;  0.0000000E+00;  1.0000000E+04;  0.0000000E+00;  0.0000000E+00;  0.0000000E+00;  0.0000000E+00;
  2.1199999E+00;  9.9999998E-03; -3.0000001E-01;821;  0.0000000E+00;  0.0000000E+00;  0.0000000E+00;  1.0000000E+03;  4.0000001E-01;  0.0000000E+00;0;  0.0000000E+00;  0.0000000E+00;  0.0000000E+00;0;  0.0000000E+00;  1.0000000E+04;  0.0000000E+00;  0.0000000E+00;  1.0000000E+04;  0.0000000E+00;  1.0000000E+04;  0.0000000E+00;  0.0000000E+00;  0.0000000E+00;  0.0000000E+00;
  2.1199999E+00;  9.9999998E-03; -2.8000000E-01;822;  0.0000000E+00;  0.0000000E+00;  0.0000000E+00;  1.0000000E+03;  4.0000001E-01;  0.0000000E+00;0;  0.0000000E+00;  0.0000000E+00;  0.0000000E+00;0;  0.0000000E+00;  1.0000000E+04;  0.0000000E+00;  0.0000000E+00;  1.0000000E+04;  0.0000000E+00;  1.0000000E+04;  0.0000000E+00;  0.0000000E+00;  0.0000000E+00;  0.0000000E+00;
  2.1199999E+00;  9.9999998E-03; -2.5999999E-01;823;  0.0000000E+00;  0.0000000E+00;  0.0000000E+00;  1.0000000E+03;  4.0000001E-01;  0.0000000E+00;0;  0.0000000E+00;  0.0000000E+00;  0.0000000E+00;0;  0.0000000E+00;  1.0000000E+04;  0.0000000E+00;  0.0000000E+00;  1.0000000E+04;  0.0000000E+00;  1.0000000E+04;  0.0000000E+00;  0.0000000E+00;  0.0000000E+00;  0.0000000E+00;
  2.1199999E+00;  9.9999998E-03; -2.3999999E-01;824;  0.0000000E+00;  0.0000000E+00;  0.0000000E+00;  1.0000000E+03;  4.0000001E-01;  0.0000000E+00;0;  0.0000000E+00;  0.0000000E+00;  0.0000000E+00;0;  0.0000000E+00;  1.0000000E+04;  0.0000000E+00;  0.0000000E+00;  1.0000000E+04;  0.0000000E+00;  1.0000000E+04;  0.0000000E+00;  0.0000000E+00;  0.0000000E+00;  0.0000000E+00;
  2.1199999E+00;  9.9999998E-03; -2.2000000E-01;825;  0.0000000E+00;  0.0000000E+00;  0.0000000E+00;  1.0000000E+03;  4.0000001E-01;  0.0000000E+00;0;  0.0000000E+00;  0.0000000E+00;  0.0000000E+00;0;  0.0000000E+00;  1.0000000E+04;  0.0000000E+00;  0.0000000E+00;  1.0000000E+04;  0.0000000E+00;  1.0000000E+04;  0.0000000E+00;  0.0000000E+00;  0.0000000E+00;  0.0000000E+00;
  2.1199999E+00;  9.9999998E-03; -2.0000000E-01;826;  0.0000000E+00;  0.0000000E+00;  0.0000000E+00;  1.0000000E+03;  4.0000001E-01;  0.0000000E+00;0;  0.0000000E+00;  0.0000000E+00;  0.0000000E+00;0;  0.0000000E+00;  1.0000000E+04;  0.0000000E+00;  0.0000000E+00;  1.0000000E+04;  0.0000000E+00;  1.0000000E+04;  0.0000000E+00;  0.0000000E+00;  0.0000000E+00;  0.0000000E+00;
  2.1199999E+00;  9.9999998E-03; -1.8000001E-01;827;  0.0000000E+00;  0.0000000E+00;  0.0000000E+00;  1.0000000E+03;  4.0000001E-01;  0.0000000E+00;0;  0.0000000E+00;  0.0000000E+00;  0.0000000E+00;0;  0.0000000E+00;  1.0000000E+04;  0.0000000E+00;  0.0000000E+00;  1.0000000E+04;  0.0000000E+00;  1.0000000E+04;  0.0000000E+00;  0.0000000E+00;  0.0000000E+00;  0.0000000E+00;
  2.1199999E+00;  9.9999998E-03; -1.6000000E-01;828;  0.0000000E+00;  0.0000000E+00;  0.0000000E+00;  1.0000000E+03;  4.0000001E-01;  0.0000000E+00;0;  0.0000000E+00;  0.0000000E+00;  0.0000000E+00;0;  0.0000000E+00;  1.0000000E+04;  0.0000000E+00;  0.0000000E+00;  1.0000000E+04;  0.0000000E+00;  1.0000000E+04;  0.0000000E+00;  0.0000000E+00;  0.0000000E+00;  0.0000000E+00;
  2.1199999E+00;  9.9999998E-03; -1.4000000E-01;829;  0.0000000E+00;  0.0000000E+00;  0.0000000E+00;  1.0000000E+03;  4.0000001E-01;  0.0000000E+00;0;  0.0000000E+00;  0.0000000E+00;  0.0000000E+00;0;  0.0000000E+00;  1.0000000E+04;  0.0000000E+00;  0.0000000E+00;  1.0000000E+04;  0.0000000E+00;  1.0000000E+04;  0.0000000E+00;  0.0000000E+00;  0.0000000E+00;  0.0000000E+00;
  2.1199999E+00;  9.9999998E-03; -1.2000000E-01;830;  0.0000000E+00;  0.0000000E+00;  0.0000000E+00;  1.0000000E+03;  4.0000001E-01;  0.0000000E+00;0;  0.0000000E+00;  0.0000000E+00;  0.0000000E+00;0;  0.0000000E+00;  1.0000000E+04;  0.0000000E+00;  0.0000000E+00;  1.0000000E+04;  0.0000000E+00;  1.0000000E+04;  0.0000000E+00;  0.0000000E+00;  0.0000000E+00;  0.0000000E+00;
  2.1199999E+00;  9.9999998E-03; -1.0000000E-01;831;  0.0000000E+00;  0.0000000E+00;  0.0000000E+00;  1.0000000E+03;  4.0000001E-01;  0.0000000E+00;0;  0.0000000E+00;  0.0000000E+00;  0.0000000E+00;0;  0.0000000E+00;  1.0000000E+04;  0.0000000E+00;  0.0000000E+00;  1.0000000E+04;  0.0000000E+00;  1.0000000E+04;  0.0000000E+00;  0.0000000E+00;  0.0000000E+00;  0.0000000E+00;
  2.1199999E+00;  9.9999998E-03; -7.9999998E-02;832;  0.0000000E+00;  0.0000000E+00;  0.0000000E+00;  1.0000000E+03;  4.0000001E-01;  0.0000000E+00;0;  0.0000000E+00;  0.0000000E+00;  0.0000000E+00;0;  0.0000000E+00;  1.0000000E+04;  0.0000000E+00;  0.0000000E+00;  1.0000000E+04;  0.0000000E+00;  1.0000000E+04;  0.0000000E+00;  0.0000000E+00;  0.0000000E+00;  0.0000000E+00;
  2.1199999E+00;  9.9999998E-03; -5.9999999E-02;833;  0.0000000E+00;  0.0000000E+00;  0.0000000E+00;  1.0000000E+03;  4.0000001E-01;  0.0000000E+00;0;  0.0000000E+00;  0.0000000E+00;  0.0000000E+00;0;  0.0000000E+00;  1.0000000E+04;  0.0000000E+00;  0.0000000E+00;  1.0000000E+04;  0.0000000E+00;  1.0000000E+04;  0.0000000E+00;  0.0000000E+00;  0.0000000E+00;  0.0000000E+00;
  2.1199999E+00;  9.9999998E-03; -3.9999999E-02;834;  0.0000000E+00;  0.0000000E+00;  0.0000000E+00;  1.0000000E+03;  4.0000001E-01;  0.0000000E+00;0;  0.0000000E+00;  0.0000000E+00;  0.0000000E+00;0;  0.0000000E+00;  1.0000000E+04;  0.0000000E+00;  0.0000000E+00;  1.0000000E+04;  0.0000000E+00;  1.0000000E+04;  0.0000000E+00;  0.0000000E+00;  0.0000000E+00;  0.0000000E+00;
  2.1199999E+00;  9.9999998E-03; -2.0000000E-02;835;  0.0000000E+00;  0.0000000E+00;  0.0000000E+00;  1.0000000E+03;  4.0000001E-01;  0.0000000E+00;0;  0.0000000E+00;  0.0000000E+00;  0.0000000E+00;0;  0.0000000E+00;  1.0000000E+04;  0.0000000E+00;  0.0000000E+00;  1.0000000E+04;  0.0000000E+00;  1.0000000E+04;  0.0000000E+00;  0.0000000E+00;  0.0000000E+00;  0.0000000E+00;
  2.1199999E+00;  9.9999998E-03;  0.0000000E+00;836;  0.0000000E+00;  0.0000000E+00;  0.0000000E+00;  1.0000000E+03;  4.0000001E-01;  0.0000000E+00;0;  0.0000000E+00;  0.0000000E+00;  0.0000000E+00;0;  0.0000000E+00;  1.0000000E+04;  0.0000000E+00;  0.0000000E+00;  1.0000000E+04;  0.0000000E+00;  1.0000000E+04;  0.0000000E+00;  0.0000000E+00;  0.0000000E+00;  0.0000000E+00;
  2.1199999E+00;  9.9999998E-03;  2.0000000E-02;837;  0.0000000E+00;  0.0000000E+00;  0.0000000E+00;  1.0000000E+03;  4.0000001E-01;  0.0000000E+00;0;  0.0000000E+00;  0.0000000E+00;  0.0000000E+00;0;  0.0000000E+00;  1.0000000E+04;  0.0000000E+00;  0.0000000E+00;  1.0000000E+04;  0.0000000E+00;  1.0000000E+04;  0.0000000E+00;  0.0000000E+00;  0.0000000E+00;  0.0000000E+00;
  2.1199999E+00;  9.9999998E-03;  3.9999999E-02;838;  0.0000000E+00;  0.0000000E+00;  0.0000000E+00;  1.0000000E+03;  4.0000001E-01;  0.0000000E+00;0;  0.0000000E+00;  0.0000000E+00;  0.0000000E+00;0;  0.0000000E+00;  1.0000000E+04;  0.0000000E+00;  0.0000000E+00;  1.0000000E+04;  0.0000000E+00;  1.0000000E+04;  0.0000000E+00;  0.0000000E+00;  0.0000000E+00;  0.0000000E+00;
  2.1199999E+00;  9.9999998E-03;  5.9999999E-02;839;  0.0000000E+00;  0.0000000E+00;  0.0000000E+00;  1.0000000E+03;  4.0000001E-01;  0.0000000E+00;0;  0.0000000E+00;  0.0000000E+00;  0.0000000E+00;0;  0.0000000E+00;  1.0000000E+04;  0.0000000E+00;  0.0000000E+00;  1.0000000E+04;  0.0000000E+00;  1.0000000E+04;  0.0000000E+00;  0.0000000E+00;  0.0000000E+00;  0.0000000E+00;
  2.1199999E+00;  9.9999998E-03;  7.9999998E-02;840;  0.0000000E+00;  0.0000000E+00;  0.0000000E+00;  1.0000000E+03;  4.0000001E-01;  0.0000000E+00;0;  0.0000000E+00;  0.0000000E+00;  0.0000000E+00;0;  0.0000000E+00;  1.0000000E+04;  0.0000000E+00;  0.0000000E+00;  1.0000000E+04;  0.0000000E+00;  1.0000000E+04;  0.0000000E+00;  0.0000000E+00;  0.0000000E+00;  0.0000000E+00;
  2.1199999E+00;  9.9999998E-03;  1.0000000E-01;841;  0.0000000E+00;  0.0000000E+00;  0.0000000E+00;  1.0000000E+03;  4.0000001E-01;  0.0000000E+00;0;  0.0000000E+00;  0.0000000E+00;  0.0000000E+00;0;  0.0000000E+00;  1.0000000E+04;  0.0000000E+00;  0.0000000E+00;  1.0000000E+04;  0.0000000E+00;  1.0000000E+04;  0.0000000E+00;  0.0000000E+00;  0.0000000E+00;  0.0000000E+00;
  2.1199999E+00;  9.9999998E-03;  1.2000000E-01;842;  0.0000000E+00;  0.0000000E+00;  0.0000000E+00;  1.0000000E+03;  4.0000001E-01;  0.0000000E+00;0;  0.0000000E+00;  0.0000000E+00;  0.0000000E+00;0;  0.0000000E+00;  1.0000000E+04;  0.0000000E+00;  0.0000000E+00;  1.0000000E+04;  0.0000000E+00;  1.0000000E+04;  0.0000000E+00;  0.0000000E+00;  0.0000000E+00;  0.0000000E+00;
  2.1199999E+00;  9.9999998E-03;  1.4000000E-01;843;  0.0000000E+00;  0.0000000E+00;  0.0000000E+00;  1.0000000E+03;  4.0000001E-01;  0.0000000E+00;0;  0.0000000E+00;  0.0000000E+00;  0.0000000E+00;0;  0.0000000E+00;  1.0000000E+04;  0.0000000E+00;  0.0000000E+00;  1.0000000E+04;  0.0000000E+00;  1.0000000E+04;  0.0000000E+00;  0.0000000E+00;  0.0000000E+00;  0.0000000E+00;
  2.1199999E+00;  9.9999998E-03;  1.6000000E-01;844;  0.0000000E+00;  0.0000000E+00;  0.0000000E+00;  1.0000000E+03;  4.0000001E-01;  0.0000000E+00;0;  0.0000000E+00;  0.0000000E+00;  0.0000000E+00;0;  0.0000000E+00;  1.0000000E+04;  0.0000000E+00;  0.0000000E+00;  1.0000000E+04;  0.0000000E+00;  1.0000000E+04;  0.0000000E+00;  0.0000000E+00;  0.0000000E+00;  0.0000000E+00;
  2.1199999E+00;  9.9999998E-03;  1.8000001E-01;845;  0.0000000E+00;  0.0000000E+00;  0.0000000E+00;  1.0000000E+03;  4.0000001E-01;  0.0000000E+00;0;  0.0000000E+00;  0.0000000E+00;  0.0000000E+00;0;  0.0000000E+00;  1.0000000E+04;  0.0000000E+00;  0.0000000E+00;  1.0000000E+04;  0.0000000E+00;  1.0000000E+04;  0.0000000E+00;  0.0000000E+00;  0.0000000E+00;  0.0000000E+00;
  2.1199999E+00;  9.9999998E-03;  2.0000000E-01;846;  0.0000000E+00;  0.0000000E+00;  0.0000000E+00;  1.0000000E+03;  4.0000001E-01;  0.0000000E+00;0;  0.0000000E+00;  0.0000000E+00;  0.0000000E+00;0;  0.0000000E+00;  1.0000000E+04;  0.0000000E+00;  0.0000000E+00;  1.0000000E+04;  0.0000000E+00;  1.0000000E+04;  0.0000000E+00;  0.0000000E+00;  0.0000000E+00;  0.0000000E+00;
  2.1199999E+00;  9.9999998E-03;  2.2000000E-01;847;  0.0000000E+00;  0.0000000E+00;  0.0000000E+00;  1.0000000E+03;  4.0000001E-01;  0.0000000E+00;0;  0.0000000E+00;  0.0000000E+00;  0.0000000E+00;0;  0.0000000E+00;  1.0000000E+04;  0.0000000E+00;  0.0000000E+00;  1.0000000E+04;  0.0000000E+00;  1.0000000E+04;  0.0000000E+00;  0.0000000E+00;  0.0000000E+00;  0.0000000E+00;
  2.1199999E+00;  9.9999998E-03;  2.3999999E-01;848;  0.0000000E+00;  0.0000000E+00;  0.0000000E+00;  1.0000000E+03;  4.0000001E-01;  0.0000000E+00;0;  0.0000000E+00;  0.0000000E+00;  0.0000000E+00;0;  0.0000000E+00;  1.0000000E+04;  0.0000000E+00;  0.0000000E+00;  1.0000000E+04;  0.0000000E+00;  1.0000000E+04;  0.0000000E+00;  0.0000000E+00;  0.0000000E+00;  0.0000000E+00;
  2.1199999E+00;  9.9999998E-03;  2.5999999E-01;849;  0.0000000E+00;  0.0000000E+00;  0.0000000E+00;  1.0000000E+03;  4.0000001E-01;  0.0000000E+00;0;  0.0000000E+00;  0.0000000E+00;  0.0000000E+00;0;  0.0000000E+00;  1.0000000E+04;  0.0000000E+00;  0.0000000E+00;  1.0000000E+04;  0.0000000E+00;  1.0000000E+04;  0.0000000E+00;  0.0000000E+00;  0.0000000E+00;  0.0000000E+00;
  2.1199999E+00;  9.9999998E-03;  2.8000000E-01;850;  0.0000000E+00;  0.0000000E+00;  0.0000000E+00;  1.0000000E+03;  4.0000001E-01;  0.0000000E+00;0;  0.0000000E+00;  0.0000000E+00;  0.0000000E+00;0;  0.0000000E+00;  1.0000000E+04;  0.0000000E+00;  0.0000000E+00;  1.0000000E+04;  0.0000000E+00;  1.0000000E+04;  0.0000000E+00;  0.0000000E+00;  0.0000000E+00;  0.0000000E+00;
  2.1199999E+00;  9.9999998E-03;  3.0000001E-01;851;  0.0000000E+00;  0.0000000E+00;  0.0000000E+00;  1.0000000E+03;  4.0000001E-01;  0.0000000E+00;0;  0.0000000E+00;  0.0000000E+00;  0.0000000E+00;0;  0.0000000E+00;  1.0000000E+04;  0.0000000E+00;  0.0000000E+00;  1.0000000E+04;  0.0000000E+00;  1.0000000E+04;  0.0000000E+00;  0.0000000E+00;  0.0000000E+00;  0.0000000E+00;
  2.1199999E+00;  9.9999998E-03;  3.1999999E-01;852;  0.0000000E+00;  0.0000000E+00;  0.0000000E+00;  1.0000000E+03;  4.0000001E-01;  0.0000000E+00;0;  0.0000000E+00;  0.0000000E+00;  0.0000000E+00;0;  0.0000000E+00;  1.0000000E+04;  0.0000000E+00;  0.0000000E+00;  1.0000000E+04;  0.0000000E+00;  1.0000000E+04;  0.0000000E+00;  0.0000000E+00;  0.0000000E+00;  0.0000000E+00;
  2.1199999E+00;  9.9999998E-03;  3.4000000E-01;853;  0.0000000E+00;  0.0000000E+00;  0.0000000E+00;  1.0000000E+03;  4.0000001E-01;  0.0000000E+00;0;  0.0000000E+00;  0.0000000E+00;  0.0000000E+00;0;  0.0000000E+00;  1.0000000E+04;  0.0000000E+00;  0.0000000E+00;  1.0000000E+04;  0.0000000E+00;  1.0000000E+04;  0.0000000E+00;  0.0000000E+00;  0.0000000E+00;  0.0000000E+00;
  2.1199999E+00;  9.9999998E-03;  3.6000001E-01;854;  0.0000000E+00;  0.0000000E+00;  0.0000000E+00;  1.0000000E+03;  4.0000001E-01;  0.0000000E+00;0;  0.0000000E+00;  0.0000000E+00;  0.0000000E+00;0;  0.0000000E+00;  1.0000000E+04;  0.0000000E+00;  0.0000000E+00;  1.0000000E+04;  0.0000000E+00;  1.0000000E+04;  0.0000000E+00;  0.0000000E+00;  0.0000000E+00;  0.0000000E+00;
  2.1199999E+00;  9.9999998E-03;  3.8000000E-01;855;  0.0000000E+00;  0.0000000E+00;  0.0000000E+00;  1.0000000E+03;  4.0000001E-01;  0.0000000E+00;0;  0.0000000E+00;  0.0000000E+00;  0.0000000E+00;0;  0.0000000E+00;  1.0000000E+04;  0.0000000E+00;  0.0000000E+00;  1.0000000E+04;  0.0000000E+00;  1.0000000E+04;  0.0000000E+00;  0.0000000E+00;  0.0000000E+00;  0.0000000E+00;
  2.1199999E+00;  9.9999998E-03;  4.0000001E-01;856;  0.0000000E+00;  0.0000000E+00;  0.0000000E+00;  1.0000000E+03;  4.0000001E-01;  0.0000000E+00;0;  0.0000000E+00;  0.0000000E+00;  0.0000000E+00;0;  0.0000000E+00;  1.0000000E+04;  0.0000000E+00;  0.0000000E+00;  1.0000000E+04;  0.0000000E+00;  1.0000000E+04;  0.0000000E+00;  0.0000000E+00;  0.0000000E+00;  0.0000000E+00;
  2.1400001E+00;  9.9999998E-03; -3.8000000E-01;857;  0.0000000E+00;  0.0000000E+00;  0.0000000E+00;  1.0000000E+03;  4.0000001E-01;  0.0000000E+00;0;  0.0000000E+00;  0.0000000E+00;  0.0000000E+00;0;  0.0000000E+00;  1.0000000E+04;  0.0000000E+00;  0.0000000E+00;  1.0000000E+04;  0.0000000E+00;  1.0000000E+04;  0.0000000E+00;  0.0000000E+00;  0.0000000E+00;  0.0000000E+00;
  2.1400001E+00;  9.9999998E-03; -3.6000001E-01;858;  0.0000000E+00;  0.0000000E+00;  0.0000000E+00;  1.0000000E+03;  4.0000001E-01;  0.0000000E+00;0;  0.0000000E+00;  0.0000000E+00;  0.0000000E+00;0;  0.0000000E+00;  1.0000000E+04;  0.0000000E+00;  0.0000000E+00;  1.0000000E+04;  0.0000000E+00;  1.0000000E+04;  0.0000000E+00;  0.0000000E+00;  0.0000000E+00;  0.0000000E+00;
  2.1400001E+00;  9.9999998E-03; -3.4000000E-01;859;  0.0000000E+00;  0.0000000E+00;  0.0000000E+00;  1.0000000E+03;  4.0000001E-01;  0.0000000E+00;0;  0.0000000E+00;  0.0000000E+00;  0.0000000E+00;0;  0.0000000E+00;  1.0000000E+04;  0.0000000E+00;  0.0000000E+00;  1.0000000E+04;  0.0000000E+00;  1.0000000E+04;  0.0000000E+00;  0.0000000E+00;  0.0000000E+00;  0.0000000E+00;
  2.1400001E+00;  9.9999998E-03; -3.1999999E-01;860;  0.0000000E+00;  0.0000000E+00;  0.0000000E+00;  1.0000000E+03;  4.0000001E-01;  0.0000000E+00;0;  0.0000000E+00;  0.0000000E+00;  0.0000000E+00;0;  0.0000000E+00;  1.0000000E+04;  0.0000000E+00;  0.0000000E+00;  1.0000000E+04;  0.0000000E+00;  1.0000000E+04;  0.0000000E+00;  0.0000000E+00;  0.0000000E+00;  0.0000000E+00;
  2.1400001E+00;  9.9999998E-03; -3.0000001E-01;861;  0.0000000E+00;  0.0000000E+00;  0.0000000E+00;  1.0000000E+03;  4.0000001E-01;  0.0000000E+00;0;  0.0000000E+00;  0.0000000E+00;  0.0000000E+00;0;  0.0000000E+00;  1.0000000E+04;  0.0000000E+00;  0.0000000E+00;  1.0000000E+04;  0.0000000E+00;  1.0000000E+04;  0.0000000E+00;  0.0000000E+00;  0.0000000E+00;  0.0000000E+00;
  2.1400001E+00;  9.9999998E-03; -2.8000000E-01;862;  0.0000000E+00;  0.0000000E+00;  0.0000000E+00;  1.0000000E+03;  4.0000001E-01;  0.0000000E+00;0;  0.0000000E+00;  0.0000000E+00;  0.0000000E+00;0;  0.0000000E+00;  1.0000000E+04;  0.0000000E+00;  0.0000000E+00;  1.0000000E+04;  0.0000000E+00;  1.0000000E+04;  0.0000000E+00;  0.0000000E+00;  0.0000000E+00;  0.0000000E+00;
  2.1400001E+00;  9.9999998E-03; -2.5999999E-01;863;  0.0000000E+00;  0.0000000E+00;  0.0000000E+00;  1.0000000E+03;  4.0000001E-01;  0.0000000E+00;0;  0.0000000E+00;  0.0000000E+00;  0.0000000E+00;0;  0.0000000E+00;  1.0000000E+04;  0.0000000E+00;  0.0000000E+00;  1.0000000E+04;  0.0000000E+00;  1.0000000E+04;  0.0000000E+00;  0.0000000E+00;  0.0000000E+00;  0.0000000E+00;
  2.1400001E+00;  9.9999998E-03; -2.3999999E-01;864;  0.0000000E+00;  0.0000000E+00;  0.0000000E+00;  1.0000000E+03;  4.0000001E-01;  0.0000000E+00;0;  0.0000000E+00;  0.0000000E+00;  0.0000000E+00;0;  0.0000000E+00;  1.0000000E+04;  0.0000000E+00;  0.0000000E+00;  1.0000000E+04;  0.0000000E+00;  1.0000000E+04;  0.0000000E+00;  0.0000000E+00;  0.0000000E+00;  0.0000000E+00;
  2.1400001E+00;  9.9999998E-03; -2.2000000E-01;865;  0.0000000E+00;  0.0000000E+00;  0.0000000E+00;  1.0000000E+03;  4.0000001E-01;  0.0000000E+00;0;  0.0000000E+00;  0.0000000E+00;  0.0000000E+00;0;  0.0000000E+00;  1.0000000E+04;  0.0000000E+00;  0.0000000E+00;  1.0000000E+04;  0.0000000E+00;  1.0000000E+04;  0.0000000E+00;  0.0000000E+00;  0.0000000E+00;  0.0000000E+00;
  2.1400001E+00;  9.9999998E-03; -2.0000000E-01;866;  0.0000000E+00;  0.0000000E+00;  0.0000000E+00;  1.0000000E+03;  4.0000001E-01;  0.0000000E+00;0;  0.0000000E+00;  0.0000000E+00;  0.0000000E+00;0;  0.0000000E+00;  1.0000000E+04;  0.0000000E+00;  0.0000000E+00;  1.0000000E+04;  0.0000000E+00;  1.0000000E+04;  0.0000000E+00;  0.0000000E+00;  0.0000000E+00;  0.0000000E+00;
  2.1400001E+00;  9.9999998E-03; -1.8000001E-01;867;  0.0000000E+00;  0.0000000E+00;  0.0000000E+00;  1.0000000E+03;  4.0000001E-01;  0.0000000E+00;0;  0.0000000E+00;  0.0000000E+00;  0.0000000E+00;0;  0.0000000E+00;  1.0000000E+04;  0.0000000E+00;  0.0000000E+00;  1.0000000E+04;  0.0000000E+00;  1.0000000E+04;  0.0000000E+00;  0.0000000E+00;  0.0000000E+00;  0.0000000E+00;
  2.1400001E+00;  9.9999998E-03; -1.6000000E-01;868;  0.0000000E+00;  0.0000000E+00;  0.0000000E+00;  1.0000000E+03;  4.0000001E-01;  0.0000000E+00;0;  0.0000000E+00;  0.0000000E+00;  0.0000000E+00;0;  0.0000000E+00;  1.0000000E+04;  0.0000000E+00;  0.0000000E+00;  1.0000000E+04;  0.0000000E+00;  1.0000000E+04;  0.0000000E+00;  0.0000000E+00;  0.0000000E+00;  0.0000000E+00;
  2.1400001E+00;  9.9999998E-03; -1.4000000E-01;869;  0.0000000E+00;  0.0000000E+00;  0.0000000E+00;  1.0000000E+03;  4.0000001E-01;  0.0000000E+00;0;  0.0000000E+00;  0.0000000E+00;  0.0000000E+00;0;  0.0000000E+00;  1.0000000E+04;  0.0000000E+00;  0.0000000E+00;  1.0000000E+04;  0.0000000E+00;  1.0000000E+04;  0.0000000E+00;  0.0000000E+00;  0.0000000E+00;  0.0000000E+00;
  2.1400001E+00;  9.9999998E-03; -1.2000000E-01;870;  0.0000000E+00;  0.0000000E+00;  0.0000000E+00;  1.0000000E+03;  4.0000001E-01;  0.0000000E+00;0;  0.0000000E+00;  0.0000000E+00;  0.0000000E+00;0;  0.0000000E+00;  1.0000000E+04;  0.0000000E+00;  0.0000000E+00;  1.0000000E+04;  0.0000000E+00;  1.0000000E+04;  0.0000000E+00;  0.0000000E+00;  0.0000000E+00;  0.0000000E+00;
  2.1400001E+00;  9.9999998E-03; -1.0000000E-01;871;  0.0000000E+00;  0.0000000E+00;  0.0000000E+00;  1.0000000E+03;  4.0000001E-01;  0.0000000E+00;0;  0.0000000E+00;  0.0000000E+00;  0.0000000E+00;0;  0.0000000E+00;  1.0000000E+04;  0.0000000E+00;  0.0000000E+00;  1.0000000E+04;  0.0000000E+00;  1.0000000E+04;  0.0000000E+00;  0.0000000E+00;  0.0000000E+00;  0.0000000E+00;
  2.1400001E+00;  9.9999998E-03; -7.9999998E-02;872;  0.0000000E+00;  0.0000000E+00;  0.0000000E+00;  1.0000000E+03;  4.0000001E-01;  0.0000000E+00;0;  0.0000000E+00;  0.0000000E+00;  0.0000000E+00;0;  0.0000000E+00;  1.0000000E+04;  0.0000000E+00;  0.0000000E+00;  1.0000000E+04;  0.0000000E+00;  1.0000000E+04;  0.0000000E+00;  0.0000000E+00;  0.0000000E+00;  0.0000000E+00;
  2.1400001E+00;  9.9999998E-03; -5.9999999E-02;873;  0.0000000E+00;  0.0000000E+00;  0.0000000E+00;  1.0000000E+03;  4.0000001E-01;  0.0000000E+00;0;  0.0000000E+00;  0.0000000E+00;  0.0000000E+00;0;  0.0000000E+00;  1.0000000E+04;  0.0000000E+00;  0.0000000E+00;  1.0000000E+04;  0.0000000E+00;  1.0000000E+04;  0.0000000E+00;  0.0000000E+00;  0.0000000E+00;  0.0000000E+00;
  2.1400001E+00;  9.9999998E-03; -3.9999999E-02;874;  0.0000000E+00;  0.0000000E+00;  0.0000000E+00;  1.0000000E+03;  4.0000001E-01;  0.0000000E+00;0;  0.0000000E+00;  0.0000000E+00;  0.0000000E+00;0;  0.0000000E+00;  1.0000000E+04;  0.0000000E+00;  0.0000000E+00;  1.0000000E+04;  0.0000000E+00;  1.0000000E+04;  0.0000000E+00;  0.0000000E+00;  0.0000000E+00;  0.0000000E+00;
  2.1400001E+00;  9.9999998E-03; -2.0000000E-02;875;  0.0000000E+00;  0.0000000E+00;  0.0000000E+00;  1.0000000E+03;  4.0000001E-01;  0.0000000E+00;0;  0.0000000E+00;  0.0000000E+00;  0.0000000E+00;0;  0.0000000E+00;  1.0000000E+04;  0.0000000E+00;  0.0000000E+00;  1.0000000E+04;  0.0000000E+00;  1.0000000E+04;  0.0000000E+00;  0.0000000E+00;  0.0000000E+00;  0.0000000E+00;
  2.1400001E+00;  9.9999998E-03;  0.0000000E+00;876;  0.0000000E+00;  0.0000000E+00;  0.0000000E+00;  1.0000000E+03;  4.0000001E-01;  0.0000000E+00;0;  0.0000000E+00;  0.0000000E+00;  0.0000000E+00;0;  0.0000000E+00;  1.0000000E+04;  0.0000000E+00;  0.0000000E+00;  1.0000000E+04;  0.0000000E+00;  1.0000000E+04;  0.0000000E+00;  0.0000000E+00;  0.0000000E+00;  0.0000000E+00;
  2.1400001E+00;  9.9999998E-03;  2.0000000E-02;877;  0.0000000E+00;  0.0000000E+00;  0.0000000E+00;  1.0000000E+03;  4.0000001E-01;  0.0000000E+00;0;  0.0000000E+00;  0.0000000E+00;  0.0000000E+00;0;  0.0000000E+00;  1.0000000E+04;  0.0000000E+00;  0.0000000E+00;  1.0000000E+04;  0.0000000E+00;  1.0000000E+04;  0.0000000E+00;  0.0000000E+00;  0.0000000E+00;  0.0000000E+00;
  2.1400001E+00;  9.9999998E-03;  3.9999999E-02;878;  0.0000000E+00;  0.0000000E+00;  0.0000000E+00;  1.0000000E+03;  4.0000001E-01;  0.0000000E+00;0;  0.0000000E+00;  0.0000000E+00;  0.0000000E+00;0;  0.0000000E+00;  1.0000000E+04;  0.0000000E+00;  0.0000000E+00;  1.0000000E+04;  0.0000000E+00;  1.0000000E+04;  0.0000000E+00;  0.0000000E+00;  0.0000000E+00;  0.0000000E+00;
  2.1400001E+00;  9.9999998E-03;  5.9999999E-02;879;  0.0000000E+00;  0.0000000E+00;  0.0000000E+00;  1.0000000E+03;  4.0000001E-01;  0.0000000E+00;0;  0.0000000E+00;  0.0000000E+00;  0.0000000E+00;0;  0.0000000E+00;  1.0000000E+04;  0.0000000E+00;  0.0000000E+00;  1.0000000E+04;  0.0000000E+00;  1.0000000E+04;  0.0000000E+00;  0.0000000E+00;  0.0000000E+00;  0.0000000E+00;
  2.1400001E+00;  9.9999998E-03;  7.9999998E-02;880;  0.0000000E+00;  0.0000000E+00;  0.0000000E+00;  1.0000000E+03;  4.0000001E-01;  0.0000000E+00;0;  0.0000000E+00;  0.0000000E+00;  0.0000000E+00;0;  0.0000000E+00;  1.0000000E+04;  0.0000000E+00;  0.0000000E+00;  1.0000000E+04;  0.0000000E+00;  1.0000000E+04;  0.0000000E+00;  0.0000000E+00;  0.0000000E+00;  0.0000000E+00;
  2.1400001E+00;  9.9999998E-03;  1.0000000E-01;881;  0.0000000E+00;  0.0000000E+00;  0.0000000E+00;  1.0000000E+03;  4.0000001E-01;  0.0000000E+00;0;  0.0000000E+00;  0.0000000E+00;  0.0000000E+00;0;  0.0000000E+00;  1.0000000E+04;  0.0000000E+00;  0.0000000E+00;  1.0000000E+04;  0.0000000E+00;  1.0000000E+04;  0.0000000E+00;  0.0000000E+00;  0.0000000E+00;  0.0000000E+00;
  2.1400001E+00;  9.9999998E-03;  1.2000000E-01;882;  0.0000000E+00;  0.0000000E+00;  0.0000000E+00;  1.0000000E+03;  4.0000001E-01;  0.0000000E+00;0;  0.0000000E+00;  0.0000000E+00;  0.0000000E+00;0;  0.0000000E+00;  1.0000000E+04;  0.0000000E+00;  0.0000000E+00;  1.0000000E+04;  0.0000000E+00;  1.0000000E+04;  0.0000000E+00;  0.0000000E+00;  0.0000000E+00;  0.0000000E+00;
  2.1400001E+00;  9.9999998E-03;  1.4000000E-01;883;  0.0000000E+00;  0.0000000E+00;  0.0000000E+00;  1.0000000E+03;  4.0000001E-01;  0.0000000E+00;0;  0.0000000E+00;  0.0000000E+00;  0.0000000E+00;0;  0.0000000E+00;  1.0000000E+04;  0.0000000E+00;  0.0000000E+00;  1.0000000E+04;  0.0000000E+00;  1.0000000E+04;  0.0000000E+00;  0.0000000E+00;  0.0000000E+00;  0.0000000E+00;
  2.1400001E+00;  9.9999998E-03;  1.6000000E-01;884;  0.0000000E+00;  0.0000000E+00;  0.0000000E+00;  1.0000000E+03;  4.0000001E-01;  0.0000000E+00;0;  0.0000000E+00;  0.0000000E+00;  0.0000000E+00;0;  0.0000000E+00;  1.0000000E+04;  0.0000000E+00;  0.0000000E+00;  1.0000000E+04;  0.0000000E+00;  1.0000000E+04;  0.0000000E+00;  0.0000000E+00;  0.0000000E+00;  0.0000000E+00;
  2.1400001E+00;  9.9999998E-03;  1.8000001E-01;885;  0.0000000E+00;  0.0000000E+00;  0.0000000E+00;  1.0000000E+03;  4.0000001E-01;  0.0000000E+00;0;  0.0000000E+00;  0.0000000E+00;  0.0000000E+00;0;  0.0000000E+00;  1.0000000E+04;  0.0000000E+00;  0.0000000E+00;  1.0000000E+04;  0.0000000E+00;  1.0000000E+04;  0.0000000E+00;  0.0000000E+00;  0.0000000E+00;  0.0000000E+00;
  2.1400001E+00;  9.9999998E-03;  2.0000000E-01;886;  0.0000000E+00;  0.0000000E+00;  0.0000000E+00;  1.0000000E+03;  4.0000001E-01;  0.0000000E+00;0;  0.0000000E+00;  0.0000000E+00;  0.0000000E+00;0;  0.0000000E+00;  1.0000000E+04;  0.0000000E+00;  0.0000000E+00;  1.0000000E+04;  0.0000000E+00;  1.0000000E+04;  0.0000000E+00;  0.0000000E+00;  0.0000000E+00;  0.0000000E+00;
  2.1400001E+00;  9.9999998E-03;  2.2000000E-01;887;  0.0000000E+00;  0.0000000E+00;  0.0000000E+00;  1.0000000E+03;  4.0000001E-01;  0.0000000E+00;0;  0.0000000E+00;  0.0000000E+00;  0.0000000E+00;0;  0.0000000E+00;  1.0000000E+04;  0.0000000E+00;  0.0000000E+00;  1.0000000E+04;  0.0000000E+00;  1.0000000E+04;  0.0000000E+00;  0.0000000E+00;  0.0000000E+00;  0.0000000E+00;
  2.1400001E+00;  9.9999998E-03;  2.3999999E-01;888;  0.0000000E+00;  0.0000000E+00;  0.0000000E+00;  1.0000000E+03;  4.0000001E-01;  0.0000000E+00;0;  0.0000000E+00;  0.0000000E+00;  0.0000000E+00;0;  0.0000000E+00;  1.0000000E+04;  0.0000000E+00;  0.0000000E+00;  1.0000000E+04;  0.0000000E+00;  1.0000000E+04;  0.0000000E+00;  0.0000000E+00;  0.0000000E+00;  0.0000000E+00;
  2.1400001E+00;  9.9999998E-03;  2.5999999E-01;889;  0.0000000E+00;  0.0000000E+00;  0.0000000E+00;  1.0000000E+03;  4.0000001E-01;  0.0000000E+00;0;  0.0000000E+00;  0.0000000E+00;  0.0000000E+00;0;  0.0000000E+00;  1.0000000E+04;  0.0000000E+00;  0.0000000E+00;  1.0000000E+04;  0.0000000E+00;  1.0000000E+04;  0.0000000E+00;  0.0000000E+00;  0.0000000E+00;  0.0000000E+00;
  2.1400001E+00;  9.9999998E-03;  2.8000000E-01;890;  0.0000000E+00;  0.0000000E+00;  0.0000000E+00;  1.0000000E+03;  4.0000001E-01;  0.0000000E+00;0;  0.0000000E+00;  0.0000000E+00;  0.0000000E+00;0;  0.0000000E+00;  1.0000000E+04;  0.0000000E+00;  0.0000000E+00;  1.0000000E+04;  0.0000000E+00;  1.0000000E+04;  0.0000000E+00;  0.0000000E+00;  0.0000000E+00;  0.0000000E+00;
  2.1400001E+00;  9.9999998E-03;  3.0000001E-01;891;  0.0000000E+00;  0.0000000E+00;  0.0000000E+00;  1.0000000E+03;  4.0000001E-01;  0.0000000E+00;0;  0.0000000E+00;  0.0000000E+00;  0.0000000E+00;0;  0.0000000E+00;  1.0000000E+04;  0.0000000E+00;  0.0000000E+00;  1.0000000E+04;  0.0000000E+00;  1.0000000E+04;  0.0000000E+00;  0.0000000E+00;  0.0000000E+00;  0.0000000E+00;
  2.1400001E+00;  9.9999998E-03;  3.1999999E-01;892;  0.0000000E+00;  0.0000000E+00;  0.0000000E+00;  1.0000000E+03;  4.0000001E-01;  0.0000000E+00;0;  0.0000000E+00;  0.0000000E+00;  0.0000000E+00;0;  0.0000000E+00;  1.0000000E+04;  0.0000000E+00;  0.0000000E+00;  1.0000000E+04;  0.0000000E+00;  1.0000000E+04;  0.0000000E+00;  0.0000000E+00;  0.0000000E+00;  0.0000000E+00;
  2.1400001E+00;  9.9999998E-03;  3.4000000E-01;893;  0.0000000E+00;  0.0000000E+00;  0.0000000E+00;  1.0000000E+03;  4.0000001E-01;  0.0000000E+00;0;  0.0000000E+00;  0.0000000E+00;  0.0000000E+00;0;  0.0000000E+00;  1.0000000E+04;  0.0000000E+00;  0.0000000E+00;  1.0000000E+04;  0.0000000E+00;  1.0000000E+04;  0.0000000E+00;  0.0000000E+00;  0.0000000E+00;  0.0000000E+00;
  2.1400001E+00;  9.9999998E-03;  3.6000001E-01;894;  0.0000000E+00;  0.0000000E+00;  0.0000000E+00;  1.0000000E+03;  4.0000001E-01;  0.0000000E+00;0;  0.0000000E+00;  0.0000000E+00;  0.0000000E+00;0;  0.0000000E+00;  1.0000000E+04;  0.0000000E+00;  0.0000000E+00;  1.0000000E+04;  0.0000000E+00;  1.0000000E+04;  0.0000000E+00;  0.0000000E+00;  0.0000000E+00;  0.0000000E+00;
  2.1400001E+00;  9.9999998E-03;  3.8000000E-01;895;  0.0000000E+00;  0.0000000E+00;  0.0000000E+00;  1.0000000E+03;  4.0000001E-01;  0.0000000E+00;0;  0.0000000E+00;  0.0000000E+00;  0.0000000E+00;0;  0.0000000E+00;  1.0000000E+04;  0.0000000E+00;  0.0000000E+00;  1.0000000E+04;  0.0000000E+00;  1.0000000E+04;  0.0000000E+00;  0.0000000E+00;  0.0000000E+00;  0.0000000E+00;
  2.1400001E+00;  9.9999998E-03;  4.0000001E-01;896;  0.0000000E+00;  0.0000000E+00;  0.0000000E+00;  1.0000000E+03;  4.0000001E-01;  0.0000000E+00;0;  0.0000000E+00;  0.0000000E+00;  0.0000000E+00;0;  0.0000000E+00;  1.0000000E+04;  0.0000000E+00;  0.0000000E+00;  1.0000000E+04;  0.0000000E+00;  1.0000000E+04;  0.0000000E+00;  0.0000000E+00;  0.0000000E+00;  0.0000000E+00;
  2.1600001E+00;  9.9999998E-03; -2.8000000E-01;897;  0.0000000E+00;  0.0000000E+00;  0.0000000E+00;  1.0000000E+03;  4.0000001E-01;  0.0000000E+00;0;  0.0000000E+00;  0.0000000E+00;  0.0000000E+00;0;  0.0000000E+00;  1.0000000E+04;  0.0000000E+00;  0.0000000E+00;  1.0000000E+04;  0.0000000E+00;  1.0000000E+04;  0.0000000E+00;  0.0000000E+00;  0.0000000E+00;  0.0000000E+00;
  2.1600001E+00;  9.9999998E-03; -2.5999999E-01;898;  0.0000000E+00;  0.0000000E+00;  0.0000000E+00;  1.0000000E+03;  4.0000001E-01;  0.0000000E+00;0;  0.0000000E+00;  0.0000000E+00;  0.0000000E+00;0;  0.0000000E+00;  1.0000000E+04;  0.0000000E+00;  0.0000000E+00;  1.0000000E+04;  0.0000000E+00;  1.0000000E+04;  0.0000000E+00;  0.0000000E+00;  0.0000000E+00;  0.0000000E+00;
  2.1600001E+00;  9.9999998E-03; -2.3999999E-01;899;  0.0000000E+00;  0.0000000E+00;  0.0000000E+00;  1.0000000E+03;  4.0000001E-01;  0.0000000E+00;0;  0.0000000E+00;  0.0000000E+00;  0.0000000E+00;0;  0.0000000E+00;  1.0000000E+04;  0.0000000E+00;  0.0000000E+00;  1.0000000E+04;  0.0000000E+00;  1.0000000E+04;  0.0000000E+00;  0.0000000E+00;  0.0000000E+00;  0.0000000E+00;
  2.1600001E+00;  9.9999998E-03; -2.2000000E-01;900;  0.0000000E+00;  0.0000000E+00;  0.0000000E+00;  1.0000000E+03;  4.0000001E-01;  0.0000000E+00;0;  0.0000000E+00;  0.0000000E+00;  0.0000000E+00;0;  0.0000000E+00;  1.0000000E+04;  0.0000000E+00;  0.0000000E+00;  1.0000000E+04;  0.0000000E+00;  1.0000000E+04;  0.0000000E+00;  0.0000000E+00;  0.0000000E+00;  0.0000000E+00;
  2.1600001E+00;  9.9999998E-03; -2.0000000E-01;901;  0.0000000E+00;  0.0000000E+00;  0.0000000E+00;  1.0000000E+03;  4.0000001E-01;  0.0000000E+00;0;  0.0000000E+00;  0.0000000E+00;  0.0000000E+00;0;  0.0000000E+00;  1.0000000E+04;  0.0000000E+00;  0.0000000E+00;  1.0000000E+04;  0.0000000E+00;  1.0000000E+04;  0.0000000E+00;  0.0000000E+00;  0.0000000E+00;  0.0000000E+00;
  2.1600001E+00;  9.9999998E-03; -1.8000001E-01;902;  0.0000000E+00;  0.0000000E+00;  0.0000000E+00;  1.0000000E+03;  4.0000001E-01;  0.0000000E+00;0;  0.0000000E+00;  0.0000000E+00;  0.0000000E+00;0;  0.0000000E+00;  1.0000000E+04;  0.0000000E+00;  0.0000000E+00;  1.0000000E+04;  0.0000000E+00;  1.0000000E+04;  0.0000000E+00;  0.0000000E+00;  0.0000000E+00;  0.0000000E+00;
  2.1600001E+00;  9.9999998E-03; -1.6000000E-01;903;  0.0000000E+00;  0.0000000E+00;  0.0000000E+00;  1.0000000E+03;  4.0000001E-01;  0.0000000E+00;0;  0.0000000E+00;  0.0000000E+00;  0.0000000E+00;0;  0.0000000E+00;  1.0000000E+04;  0.0000000E+00;  0.0000000E+00;  1.0000000E+04;  0.0000000E+00;  1.0000000E+04;  0.0000000E+00;  0.0000000E+00;  0.0000000E+00;  0.0000000E+00;
  2.1600001E+00;  9.9999998E-03; -1.4000000E-01;904;  0.0000000E+00;  0.0000000E+00;  0.0000000E+00;  1.0000000E+03;  4.0000001E-01;  0.0000000E+00;0;  0.0000000E+00;  0.0000000E+00;  0.0000000E+00;0;  0.0000000E+00;  1.0000000E+04;  0.0000000E+00;  0.0000000E+00;  1.0000000E+04;  0.0000000E+00;  1.0000000E+04;  0.0000000E+00;  0.0000000E+00;  0.0000000E+00;  0.0000000E+00;
  2.1600001E+00;  9.9999998E-03; -1.2000000E-01;905;  0.0000000E+00;  0.0000000E+00;  0.0000000E+00;  1.0000000E+03;  4.0000001E-01;  0.0000000E+00;0;  0.0000000E+00;  0.0000000E+00;  0.0000000E+00;0;  0.0000000E+00;  1.0000000E+04;  0.0000000E+00;  0.0000000E+00;  1.0000000E+04;  0.0000000E+00;  1.0000000E+04;  0.0000000E+00;  0.0000000E+00;  0.0000000E+00;  0.0000000E+00;
  2.1600001E+00;  9.9999998E-03; -1.0000000E-01;906;  0.0000000E+00;  0.0000000E+00;  0.0000000E+00;  1.0000000E+03;  4.0000001E-01;  0.0000000E+00;0;  0.0000000E+00;  0.0000000E+00;  0.0000000E+00;0;  0.0000000E+00;  1.0000000E+04;  0.0000000E+00;  0.0000000E+00;  1.0000000E+04;  0.0000000E+00;  1.0000000E+04;  0.0000000E+00;  0.0000000E+00;  0.0000000E+00;  0.0000000E+00;
  2.1600001E+00;  9.9999998E-03; -7.9999998E-02;907;  0.0000000E+00;  0.0000000E+00;  0.0000000E+00;  1.0000000E+03;  4.0000001E-01;  0.0000000E+00;0;  0.0000000E+00;  0.0000000E+00;  0.0000000E+00;0;  0.0000000E+00;  1.0000000E+04;  0.0000000E+00;  0.0000000E+00;  1.0000000E+04;  0.0000000E+00;  1.0000000E+04;  0.0000000E+00;  0.0000000E+00;  0.0000000E+00;  0.0000000E+00;
  2.1600001E+00;  9.9999998E-03; -5.9999999E-02;908;  0.0000000E+00;  0.0000000E+00;  0.0000000E+00;  1.0000000E+03;  4.0000001E-01;  0.0000000E+00;0;  0.0000000E+00;  0.0000000E+00;  0.0000000E+00;0;  0.0000000E+00;  1.0000000E+04;  0.0000000E+00;  0.0000000E+00;  1.0000000E+04;  0.0000000E+00;  1.0000000E+04;  0.0000000E+00;  0.0000000E+00;  0.0000000E+00;  0.0000000E+00;
  2.1600001E+00;  9.9999998E-03; -3.9999999E-02;909;  0.0000000E+00;  0.0000000E+00;  0.0000000E+00;  1.0000000E+03;  4.0000001E-01;  0.0000000E+00;0;  0.0000000E+00;  0.0000000E+00;  0.0000000E+00;0;  0.0000000E+00;  1.0000000E+04;  0.0000000E+00;  0.0000000E+00;  1.0000000E+04;  0.0000000E+00;  1.0000000E+04;  0.0000000E+00;  0.0000000E+00;  0.0000000E+00;  0.0000000E+00;
  2.1600001E+00;  9.9999998E-03; -2.0000000E-02;910;  0.0000000E+00;  0.0000000E+00;  0.0000000E+00;  1.0000000E+03;  4.0000001E-01;  0.0000000E+00;0;  0.0000000E+00;  0.0000000E+00;  0.0000000E+00;0;  0.0000000E+00;  1.0000000E+04;  0.0000000E+00;  0.0000000E+00;  1.0000000E+04;  0.0000000E+00;  1.0000000E+04;  0.0000000E+00;  0.0000000E+00;  0.0000000E+00;  0.0000000E+00;
  2.1600001E+00;  9.9999998E-03;  0.0000000E+00;911;  0.0000000E+00;  0.0000000E+00;  0.0000000E+00;  1.0000000E+03;  4.0000001E-01;  0.0000000E+00;0;  0.0000000E+00;  0.0000000E+00;  0.0000000E+00;0;  0.0000000E+00;  1.0000000E+04;  0.0000000E+00;  0.0000000E+00;  1.0000000E+04;  0.0000000E+00;  1.0000000E+04;  0.0000000E+00;  0.0000000E+00;  0.0000000E+00;  0.0000000E+00;
  2.1600001E+00;  9.9999998E-03;  2.0000000E-02;912;  0.0000000E+00;  0.0000000E+00;  0.0000000E+00;  1.0000000E+03;  4.0000001E-01;  0.0000000E+00;0;  0.0000000E+00;  0.0000000E+00;  0.0000000E+00;0;  0.0000000E+00;  1.0000000E+04;  0.0000000E+00;  0.0000000E+00;  1.0000000E+04;  0.0000000E+00;  1.0000000E+04;  0.0000000E+00;  0.0000000E+00;  0.0000000E+00;  0.0000000E+00;
  2.1600001E+00;  9.9999998E-03;  3.9999999E-02;913;  0.0000000E+00;  0.0000000E+00;  0.0000000E+00;  1.0000000E+03;  4.0000001E-01;  0.0000000E+00;0;  0.0000000E+00;  0.0000000E+00;  0.0000000E+00;0;  0.0000000E+00;  1.0000000E+04;  0.0000000E+00;  0.0000000E+00;  1.0000000E+04;  0.0000000E+00;  1.0000000E+04;  0.0000000E+00;  0.0000000E+00;  0.0000000E+00;  0.0000000E+00;
  2.1600001E+00;  9.9999998E-03;  5.9999999E-02;914;  0.0000000E+00;  0.0000000E+00;  0.0000000E+00;  1.0000000E+03;  4.0000001E-01;  0.0000000E+00;0;  0.0000000E+00;  0.0000000E+00;  0.0000000E+00;0;  0.0000000E+00;  1.0000000E+04;  0.0000000E+00;  0.0000000E+00;  1.0000000E+04;  0.0000000E+00;  1.0000000E+04;  0.0000000E+00;  0.0000000E+00;  0.0000000E+00;  0.0000000E+00;
  2.1600001E+00;  9.9999998E-03;  7.9999998E-02;915;  0.0000000E+00;  0.0000000E+00;  0.0000000E+00;  1.0000000E+03;  4.0000001E-01;  0.0000000E+00;0;  0.0000000E+00;  0.0000000E+00;  0.0000000E+00;0;  0.0000000E+00;  1.0000000E+04;  0.0000000E+00;  0.0000000E+00;  1.0000000E+04;  0.0000000E+00;  1.0000000E+04;  0.0000000E+00;  0.0000000E+00;  0.0000000E+00;  0.0000000E+00;
  2.1600001E+00;  9.9999998E-03;  1.0000000E-01;916;  0.0000000E+00;  0.0000000E+00;  0.0000000E+00;  1.0000000E+03;  4.0000001E-01;  0.0000000E+00;0;  0.0000000E+00;  0.0000000E+00;  0.0000000E+00;0;  0.0000000E+00;  1.0000000E+04;  0.0000000E+00;  0.0000000E+00;  1.0000000E+04;  0.0000000E+00;  1.0000000E+04;  0.0000000E+00;  0.0000000E+00;  0.0000000E+00;  0.0000000E+00;
  2.1600001E+00;  9.9999998E-03;  1.2000000E-01;917;  0.0000000E+00;  0.0000000E+00;  0.0000000E+00;  1.0000000E+03;  4.0000001E-01;  0.0000000E+00;0;  0.0000000E+00;  0.0000000E+00;  0.0000000E+00;0;  0.0000000E+00;  1.0000000E+04;  0.0000000E+00;  0.0000000E+00;  1.0000000E+04;  0.0000000E+00;  1.0000000E+04;  0.0000000E+00;  0.0000000E+00;  0.0000000E+00;  0.0000000E+00;
  2.1600001E+00;  9.9999998E-03;  1.4000000E-01;918;  0.0000000E+00;  0.0000000E+00;  0.0000000E+00;  1.0000000E+03;  4.0000001E-01;  0.0000000E+00;0;  0.0000000E+00;  0.0000000E+00;  0.0000000E+00;0;  0.0000000E+00;  1.0000000E+04;  0.0000000E+00;  0.0000000E+00;  1.0000000E+04;  0.0000000E+00;  1.0000000E+04;  0.0000000E+00;  0.0000000E+00;  0.0000000E+00;  0.0000000E+00;
  2.1600001E+00;  9.9999998E-03;  1.6000000E-01;919;  0.0000000E+00;  0.0000000E+00;  0.0000000E+00;  1.0000000E+03;  4.0000001E-01;  0.0000000E+00;0;  0.0000000E+00;  0.0000000E+00;  0.0000000E+00;0;  0.0000000E+00;  1.0000000E+04;  0.0000000E+00;  0.0000000E+00;  1.0000000E+04;  0.0000000E+00;  1.0000000E+04;  0.0000000E+00;  0.0000000E+00;  0.0000000E+00;  0.0000000E+00;
  2.1600001E+00;  9.9999998E-03;  1.8000001E-01;920;  0.0000000E+00;  0.0000000E+00;  0.0000000E+00;  1.0000000E+03;  4.0000001E-01;  0.0000000E+00;0;  0.0000000E+00;  0.0000000E+00;  0.0000000E+00;0;  0.0000000E+00;  1.0000000E+04;  0.0000000E+00;  0.0000000E+00;  1.0000000E+04;  0.0000000E+00;  1.0000000E+04;  0.0000000E+00;  0.0000000E+00;  0.0000000E+00;  0.0000000E+00;
  2.1600001E+00;  9.9999998E-03;  2.0000000E-01;921;  0.0000000E+00;  0.0000000E+00;  0.0000000E+00;  1.0000000E+03;  4.0000001E-01;  0.0000000E+00;0;  0.0000000E+00;  0.0000000E+00;  0.0000000E+00;0;  0.0000000E+00;  1.0000000E+04;  0.0000000E+00;  0.0000000E+00;  1.0000000E+04;  0.0000000E+00;  1.0000000E+04;  0.0000000E+00;  0.0000000E+00;  0.0000000E+00;  0.0000000E+00;
  2.1600001E+00;  9.9999998E-03;  2.2000000E-01;922;  0.0000000E+00;  0.0000000E+00;  0.0000000E+00;  1.0000000E+03;  4.0000001E-01;  0.0000000E+00;0;  0.0000000E+00;  0.0000000E+00;  0.0000000E+00;0;  0.0000000E+00;  1.0000000E+04;  0.0000000E+00;  0.0000000E+00;  1.0000000E+04;  0.0000000E+00;  1.0000000E+04;  0.0000000E+00;  0.0000000E+00;  0.0000000E+00;  0.0000000E+00;
  2.1600001E+00;  9.9999998E-03;  2.3999999E-01;923;  0.0000000E+00;  0.0000000E+00;  0.0000000E+00;  1.0000000E+03;  4.0000001E-01;  0.0000000E+00;0;  0.0000000E+00;  0.0000000E+00;  0.0000000E+00;0;  0.0000000E+00;  1.0000000E+04;  0.0000000E+00;  0.0000000E+00;  1.0000000E+04;  0.0000000E+00;  1.0000000E+04;  0.0000000E+00;  0.0000000E+00;  0.0000000E+00;  0.0000000E+00;
  2.1600001E+00;  9.9999998E-03;  2.5999999E-01;924;  0.0000000E+00;  0.0000000E+00;  0.0000000E+00;  1.0000000E+03;  4.0000001E-01;  0.0000000E+00;0;  0.0000000E+00;  0.0000000E+00;  0.0000000E+00;0;  0.0000000E+00;  1.0000000E+04;  0.0000000E+00;  0.0000000E+00;  1.0000000E+04;  0.0000000E+00;  1.0000000E+04;  0.0000000E+00;  0.0000000E+00;  0.0000000E+00;  0.0000000E+00;
  2.1600001E+00;  9.9999998E-03;  2.8000000E-01;925;  0.0000000E+00;  0.0000000E+00;  0.0000000E+00;  1.0000000E+03;  4.0000001E-01;  0.0000000E+00;0;  0.0000000E+00;  0.0000000E+00;  0.0000000E+00;0;  0.0000000E+00;  1.0000000E+04;  0.0000000E+00;  0.0000000E+00;  1.0000000E+04;  0.0000000E+00;  1.0000000E+04;  0.0000000E+00;  0.0000000E+00;  0.0000000E+00;  0.0000000E+00;
  2.1600001E+00;  9.9999998E-03;  3.0000001E-01;926;  0.0000000E+00;  0.0000000E+00;  0.0000000E+00;  1.0000000E+03;  4.0000001E-01;  0.0000000E+00;0;  0.0000000E+00;  0.0000000E+00;  0.0000000E+00;0;  0.0000000E+00;  1.0000000E+04;  0.0000000E+00;  0.0000000E+00;  1.0000000E+04;  0.0000000E+00;  1.0000000E+04;  0.0000000E+00;  0.0000000E+00;  0.0000000E+00;  0.0000000E+00;
  2.1600001E+00;  9.9999998E-03;  3.1999999E-01;927;  0.0000000E+00;  0.0000000E+00;  0.0000000E+00;  1.0000000E+03;  4.0000001E-01;  0.0000000E+00;0;  0.0000000E+00;  0.0000000E+00;  0.0000000E+00;0;  0.0000000E+00;  1.0000000E+04;  0.0000000E+00;  0.0000000E+00;  1.0000000E+04;  0.0000000E+00;  1.0000000E+04;  0.0000000E+00;  0.0000000E+00;  0.0000000E+00;  0.0000000E+00;
  2.1600001E+00;  9.9999998E-03;  3.4000000E-01;928;  0.0000000E+00;  0.0000000E+00;  0.0000000E+00;  1.0000000E+03;  4.0000001E-01;  0.0000000E+00;0;  0.0000000E+00;  0.0000000E+00;  0.0000000E+00;0;  0.0000000E+00;  1.0000000E+04;  0.0000000E+00;  0.0000000E+00;  1.0000000E+04;  0.0000000E+00;  1.0000000E+04;  0.0000000E+00;  0.0000000E+00;  0.0000000E+00;  0.0000000E+00;
  2.1600001E+00;  9.9999998E-03;  3.6000001E-01;929;  0.0000000E+00;  0.0000000E+00;  0.0000000E+00;  1.0000000E+03;  4.0000001E-01;  0.0000000E+00;0;  0.0000000E+00;  0.0000000E+00;  0.0000000E+00;0;  0.0000000E+00;  1.0000000E+04;  0.0000000E+00;  0.0000000E+00;  1.0000000E+04;  0.0000000E+00;  1.0000000E+04;  0.0000000E+00;  0.0000000E+00;  0.0000000E+00;  0.0000000E+00;
  2.1600001E+00;  9.9999998E-03;  3.8000000E-01;930;  0.0000000E+00;  0.0000000E+00;  0.0000000E+00;  1.0000000E+03;  4.0000001E-01;  0.0000000E+00;0;  0.0000000E+00;  0.0000000E+00;  0.0000000E+00;0;  0.0000000E+00;  1.0000000E+04;  0.0000000E+00;  0.0000000E+00;  1.0000000E+04;  0.0000000E+00;  1.0000000E+04;  0.0000000E+00;  0.0000000E+00;  0.0000000E+00;  0.0000000E+00;
  2.1600001E+00;  9.9999998E-03;  4.0000001E-01;931;  0.0000000E+00;  0.0000000E+00;  0.0000000E+00;  1.0000000E+03;  4.0000001E-01;  0.0000000E+00;0;  0.0000000E+00;  0.0000000E+00;  0.0000000E+00;0;  0.0000000E+00;  1.0000000E+04;  0.0000000E+00;  0.0000000E+00;  1.0000000E+04;  0.0000000E+00;  1.0000000E+04;  0.0000000E+00;  0.0000000E+00;  0.0000000E+00;  0.0000000E+00;
  2.1800001E+00;  9.9999998E-03; -1.8000001E-01;932;  0.0000000E+00;  0.0000000E+00;  0.0000000E+00;  1.0000000E+03;  4.0000001E-01;  0.0000000E+00;0;  0.0000000E+00;  0.0000000E+00;  0.0000000E+00;0;  0.0000000E+00;  1.0000000E+04;  0.0000000E+00;  0.0000000E+00;  1.0000000E+04;  0.0000000E+00;  1.0000000E+04;  0.0000000E+00;  0.0000000E+00;  0.0000000E+00;  0.0000000E+00;
  2.1800001E+00;  9.9999998E-03; -1.6000000E-01;933;  0.0000000E+00;  0.0000000E+00;  0.0000000E+00;  1.0000000E+03;  4.0000001E-01;  0.0000000E+00;0;  0.0000000E+00;  0.0000000E+00;  0.0000000E+00;0;  0.0000000E+00;  1.0000000E+04;  0.0000000E+00;  0.0000000E+00;  1.0000000E+04;  0.0000000E+00;  1.0000000E+04;  0.0000000E+00;  0.0000000E+00;  0.0000000E+00;  0.0000000E+00;
  2.1800001E+00;  9.9999998E-03; -1.4000000E-01;934;  0.0000000E+00;  0.0000000E+00;  0.0000000E+00;  1.0000000E+03;  4.0000001E-01;  0.0000000E+00;0;  0.0000000E+00;  0.0000000E+00;  0.0000000E+00;0;  0.0000000E+00;  1.0000000E+04;  0.0000000E+00;  0.0000000E+00;  1.0000000E+04;  0.0000000E+00;  1.0000000E+04;  0.0000000E+00;  0.0000000E+00;  0.0000000E+00;  0.0000000E+00;
  2.1800001E+00;  9.9999998E-03; -1.2000000E-01;935;  0.0000000E+00;  0.0000000E+00;  0.0000000E+00;  1.0000000E+03;  4.0000001E-01;  0.0000000E+00;0;  0.0000000E+00;  0.0000000E+00;  0.0000000E+00;0;  0.0000000E+00;  1.0000000E+04;  0.0000000E+00;  0.0000000E+00;  1.0000000E+04;  0.0000000E+00;  1.0000000E+04;  0.0000000E+00;  0.0000000E+00;  0.0000000E+00;  0.0000000E+00;
  2.1800001E+00;  9.9999998E-03; -1.0000000E-01;936;  0.0000000E+00;  0.0000000E+00;  0.0000000E+00;  1.0000000E+03;  4.0000001E-01;  0.0000000E+00;0;  0.0000000E+00;  0.0000000E+00;  0.0000000E+00;0;  0.0000000E+00;  1.0000000E+04;  0.0000000E+00;  0.0000000E+00;  1.0000000E+04;  0.0000000E+00;  1.0000000E+04;  0.0000000E+00;  0.0000000E+00;  0.0000000E+00;  0.0000000E+00;
  2.1800001E+00;  9.9999998E-03; -7.9999998E-02;937;  0.0000000E+00;  0.0000000E+00;  0.0000000E+00;  1.0000000E+03;  4.0000001E-01;  0.0000000E+00;0;  0.0000000E+00;  0.0000000E+00;  0.0000000E+00;0;  0.0000000E+00;  1.0000000E+04;  0.0000000E+00;  0.0000000E+00;  1.0000000E+04;  0.0000000E+00;  1.0000000E+04;  0.0000000E+00;  0.0000000E+00;  0.0000000E+00;  0.0000000E+00;
  2.1800001E+00;  9.9999998E-03; -5.9999999E-02;938;  0.0000000E+00;  0.0000000E+00;  0.0000000E+00;  1.0000000E+03;  4.0000001E-01;  0.0000000E+00;0;  0.0000000E+00;  0.0000000E+00;  0.0000000E+00;0;  0.0000000E+00;  1.0000000E+04;  0.0000000E+00;  0.0000000E+00;  1.0000000E+04;  0.0000000E+00;  1.0000000E+04;  0.0000000E+00;  0.0000000E+00;  0.0000000E+00;  0.0000000E+00;
  2.1800001E+00;  9.9999998E-03; -3.9999999E-02;939;  0.0000000E+00;  0.0000000E+00;  0.0000000E+00;  1.0000000E+03;  4.0000001E-01;  0.0000000E+00;0;  0.0000000E+00;  0.0000000E+00;  0.0000000E+00;0;  0.0000000E+00;  1.0000000E+04;  0.0000000E+00;  0.0000000E+00;  1.0000000E+04;  0.0000000E+00;  1.0000000E+04;  0.0000000E+00;  0.0000000E+00;  0.0000000E+00;  0.0000000E+00;
  2.1800001E+00;  9.9999998E-03; -2.0000000E-02;940;  0.0000000E+00;  0.0000000E+00;  0.0000000E+00;  1.0000000E+03;  4.0000001E-01;  0.0000000E+00;0;  0.0000000E+00;  0.0000000E+00;  0.0000000E+00;0;  0.0000000E+00;  1.0000000E+04;  0.0000000E+00;  0.0000000E+00;  1.0000000E+04;  0.0000000E+00;  1.0000000E+04;  0.0000000E+00;  0.0000000E+00;  0.0000000E+00;  0.0000000E+00;
  2.1800001E+00;  9.9999998E-03;  0.0000000E+00;941;  0.0000000E+00;  0.0000000E+00;  0.0000000E+00;  1.0000000E+03;  4.0000001E-01;  0.0000000E+00;0;  0.0000000E+00;  0.0000000E+00;  0.0000000E+00;0;  0.0000000E+00;  1.0000000E+04;  0.0000000E+00;  0.0000000E+00;  1.0000000E+04;  0.0000000E+00;  1.0000000E+04;  0.0000000E+00;  0.0000000E+00;  0.0000000E+00;  0.0000000E+00;
  2.1800001E+00;  9.9999998E-03;  2.0000000E-02;942;  0.0000000E+00;  0.0000000E+00;  0.0000000E+00;  1.0000000E+03;  4.0000001E-01;  0.0000000E+00;0;  0.0000000E+00;  0.0000000E+00;  0.0000000E+00;0;  0.0000000E+00;  1.0000000E+04;  0.0000000E+00;  0.0000000E+00;  1.0000000E+04;  0.0000000E+00;  1.0000000E+04;  0.0000000E+00;  0.0000000E+00;  0.0000000E+00;  0.0000000E+00;
  2.1800001E+00;  9.9999998E-03;  3.9999999E-02;943;  0.0000000E+00;  0.0000000E+00;  0.0000000E+00;  1.0000000E+03;  4.0000001E-01;  0.0000000E+00;0;  0.0000000E+00;  0.0000000E+00;  0.0000000E+00;0;  0.0000000E+00;  1.0000000E+04;  0.0000000E+00;  0.0000000E+00;  1.0000000E+04;  0.0000000E+00;  1.0000000E+04;  0.0000000E+00;  0.0000000E+00;  0.0000000E+00;  0.0000000E+00;
  2.1800001E+00;  9.9999998E-03;  5.9999999E-02;944;  0.0000000E+00;  0.0000000E+00;  0.0000000E+00;  1.0000000E+03;  4.0000001E-01;  0.0000000E+00;0;  0.0000000E+00;  0.0000000E+00;  0.0000000E+00;0;  0.0000000E+00;  1.0000000E+04;  0.0000000E+00;  0.0000000E+00;  1.0000000E+04;  0.0000000E+00;  1.0000000E+04;  0.0000000E+00;  0.0000000E+00;  0.0000000E+00;  0.0000000E+00;
  2.1800001E+00;  9.9999998E-03;  7.9999998E-02;945;  0.0000000E+00;  0.0000000E+00;  0.0000000E+00;  1.0000000E+03;  4.0000001E-01;  0.0000000E+00;0;  0.0000000E+00;  0.0000000E+00;  0.0000000E+00;0;  0.0000000E+00;  1.0000000E+04;  0.0000000E+00;  0.0000000E+00;  1.0000000E+04;  0.0000000E+00;  1.0000000E+04;  0.0000000E+00;  0.0000000E+00;  0.0000000E+00;  0.0000000E+00;
  2.1800001E+00;  9.9999998E-03;  1.0000000E-01;946;  0.0000000E+00;  0.0000000E+00;  0.0000000E+00;  1.0000000E+03;  4.0000001E-01;  0.0000000E+00;0;  0.0000000E+00;  0.0000000E+00;  0.0000000E+00;0;  0.0000000E+00;  1.0000000E+04;  0.0000000E+00;  0.0000000E+00;  1.0000000E+04;  0.0000000E+00;  1.0000000E+04;  0.0000000E+00;  0.0000000E+00;  0.0000000E+00;  0.0000000E+00;
  2.1800001E+00;  9.9999998E-03;  1.2000000E-01;947;  0.0000000E+00;  0.0000000E+00;  0.0000000E+00;  1.0000000E+03;  4.0000001E-01;  0.0000000E+00;0;  0.0000000E+00;  0.0000000E+00;  0.0000000E+00;0;  0.0000000E+00;  1.0000000E+04;  0.0000000E+00;  0.0000000E+00;  1.0000000E+04;  0.0000000E+00;  1.0000000E+04;  0.0000000E+00;  0.0000000E+00;  0.0000000E+00;  0.0000000E+00;
  2.1800001E+00;  9.9999998E-03;  1.4000000E-01;948;  0.0000000E+00;  0.0000000E+00;  0.0000000E+00;  1.0000000E+03;  4.0000001E-01;  0.0000000E+00;0;  0.0000000E+00;  0.0000000E+00;  0.0000000E+00;0;  0.0000000E+00;  1.0000000E+04;  0.0000000E+00;  0.0000000E+00;  1.0000000E+04;  0.0000000E+00;  1.0000000E+04;  0.0000000E+00;  0.0000000E+00;  0.0000000E+00;  0.0000000E+00;
  2.1800001E+00;  9.9999998E-03;  1.6000000E-01;949;  0.0000000E+00;  0.0000000E+00;  0.0000000E+00;  1.0000000E+03;  4.0000001E-01;  0.0000000E+00;0;  0.0000000E+00;  0.0000000E+00;  0.0000000E+00;0;  0.0000000E+00;  1.0000000E+04;  0.0000000E+00;  0.0000000E+00;  1.0000000E+04;  0.0000000E+00;  1.0000000E+04;  0.0000000E+00;  0.0000000E+00;  0.0000000E+00;  0.0000000E+00;
  2.1800001E+00;  9.9999998E-03;  1.8000001E-01;950;  0.0000000E+00;  0.0000000E+00;  0.0000000E+00;  1.0000000E+03;  4.0000001E-01;  0.0000000E+00;0;  0.0000000E+00;  0.0000000E+00;  0.0000000E+00;0;  0.0000000E+00;  1.0000000E+04;  0.0000000E+00;  0.0000000E+00;  1.0000000E+04;  0.0000000E+00;  1.0000000E+04;  0.0000000E+00;  0.0000000E+00;  0.0000000E+00;  0.0000000E+00;
  2.1800001E+00;  9.9999998E-03;  2.0000000E-01;951;  0.0000000E+00;  0.0000000E+00;  0.0000000E+00;  1.0000000E+03;  4.0000001E-01;  0.0000000E+00;0;  0.0000000E+00;  0.0000000E+00;  0.0000000E+00;0;  0.0000000E+00;  1.0000000E+04;  0.0000000E+00;  0.0000000E+00;  1.0000000E+04;  0.0000000E+00;  1.0000000E+04;  0.0000000E+00;  0.0000000E+00;  0.0000000E+00;  0.0000000E+00;
  2.1800001E+00;  9.9999998E-03;  2.2000000E-01;952;  0.0000000E+00;  0.0000000E+00;  0.0000000E+00;  1.0000000E+03;  4.0000001E-01;  0.0000000E+00;0;  0.0000000E+00;  0.0000000E+00;  0.0000000E+00;0;  0.0000000E+00;  1.0000000E+04;  0.0000000E+00;  0.0000000E+00;  1.0000000E+04;  0.0000000E+00;  1.0000000E+04;  0.0000000E+00;  0.0000000E+00;  0.0000000E+00;  0.0000000E+00;
  2.1800001E+00;  9.9999998E-03;  2.3999999E-01;953;  0.0000000E+00;  0.0000000E+00;  0.0000000E+00;  1.0000000E+03;  4.0000001E-01;  0.0000000E+00;0;  0.0000000E+00;  0.0000000E+00;  0.0000000E+00;0;  0.0000000E+00;  1.0000000E+04;  0.0000000E+00;  0.0000000E+00;  1.0000000E+04;  0.0000000E+00;  1.0000000E+04;  0.0000000E+00;  0.0000000E+00;  0.0000000E+00;  0.0000000E+00;
  2.1800001E+00;  9.9999998E-03;  2.5999999E-01;954;  0.0000000E+00;  0.0000000E+00;  0.0000000E+00;  1.0000000E+03;  4.0000001E-01;  0.0000000E+00;0;  0.0000000E+00;  0.0000000E+00;  0.0000000E+00;0;  0.0000000E+00;  1.0000000E+04;  0.0000000E+00;  0.0000000E+00;  1.0000000E+04;  0.0000000E+00;  1.0000000E+04;  0.0000000E+00;  0.0000000E+00;  0.0000000E+00;  0.0000000E+00;
  2.1800001E+00;  9.9999998E-03;  2.8000000E-01;955;  0.0000000E+00;  0.0000000E+00;  0.0000000E+00;  1.0000000E+03;  4.0000001E-01;  0.0000000E+00;0;  0.0000000E+00;  0.0000000E+00;  0.0000000E+00;0;  0.0000000E+00;  1.0000000E+04;  0.0000000E+00;  0.0000000E+00;  1.0000000E+04;  0.0000000E+00;  1.0000000E+04;  0.0000000E+00;  0.0000000E+00;  0.0000000E+00;  0.0000000E+00;
  2.1800001E+00;  9.9999998E-03;  3.0000001E-01;956;  0.0000000E+00;  0.0000000E+00;  0.0000000E+00;  1.0000000E+03;  4.0000001E-01;  0.0000000E+00;0;  0.0000000E+00;  0.0000000E+00;  0.0000000E+00;0;  0.0000000E+00;  1.0000000E+04;  0.0000000E+00;  0.0000000E+00;  1.0000000E+04;  0.0000000E+00;  1.0000000E+04;  0.0000000E+00;  0.0000000E+00;  0.0000000E+00;  0.0000000E+00;
  2.1800001E+00;  9.9999998E-03;  3.1999999E-01;957;  0.0000000E+00;  0.0000000E+00;  0.0000000E+00;  1.0000000E+03;  4.0000001E-01;  0.0000000E+00;0;  0.0000000E+00;  0.0000000E+00;  0.0000000E+00;0;  0.0000000E+00;  1.0000000E+04;  0.0000000E+00;  0.0000000E+00;  1.0000000E+04;  0.0000000E+00;  1.0000000E+04;  0.0000000E+00;  0.0000000E+00;  0.0000000E+00;  0.0000000E+00;
  2.1800001E+00;  9.9999998E-03;  3.4000000E-01;958;  0.0000000E+00;  0.0000000E+00;  0.0000000E+00;  1.0000000E+03;  4.0000001E-01;  0.0000000E+00;0;  0.0000000E+00;  0.0000000E+00;  0.0000000E+00;0;  0.0000000E+00;  1.0000000E+04;  0.0000000E+00;  0.0000000E+00;  1.0000000E+04;  0.0000000E+00;  1.0000000E+04;  0.0000000E+00;  0.0000000E+00;  0.0000000E+00;  0.0000000E+00;
  2.1800001E+00;  9.9999998E-03;  3.6000001E-01;959;  0.0000000E+00;  0.0000000E+00;  0.0000000E+00;  1.0000000E+03;  4.0000001E-01;  0.0000000E+00;0;  0.0000000E+00;  0.0000000E+00;  0.0000000E+00;0;  0.0000000E+00;  1.0000000E+04;  0.0000000E+00;  0.0000000E+00;  1.0000000E+04;  0.0000000E+00;  1.0000000E+04;  0.0000000E+00;  0.0000000E+00;  0.0000000E+00;  0.0000000E+00;
  2.1800001E+00;  9.9999998E-03;  3.8000000E-01;960;  0.0000000E+00;  0.0000000E+00;  0.0000000E+00;  1.0000000E+03;  4.0000001E-01;  0.0000000E+00;0;  0.0000000E+00;  0.0000000E+00;  0.0000000E+00;0;  0.0000000E+00;  1.0000000E+04;  0.0000000E+00;  0.0000000E+00;  1.0000000E+04;  0.0000000E+00;  1.0000000E+04;  0.0000000E+00;  0.0000000E+00;  0.0000000E+00;  0.0000000E+00;
  2.1800001E+00;  9.9999998E-03;  4.0000001E-01;961;  0.0000000E+00;  0.0000000E+00;  0.0000000E+00;  1.0000000E+03;  4.0000001E-01;  0.0000000E+00;0;  0.0000000E+00;  0.0000000E+00;  0.0000000E+00;0;  0.0000000E+00;  1.0000000E+04;  0.0000000E+00;  0.0000000E+00;  1.0000000E+04;  0.0000000E+00;  1.0000000E+04;  0.0000000E+00;  0.0000000E+00;  0.0000000E+00;  0.0000000E+00;
  2.2000000E+00;  9.9999998E-03; -7.9999998E-02;962;  0.0000000E+00;  0.0000000E+00;  0.0000000E+00;  1.0000000E+03;  4.0000001E-01;  0.0000000E+00;0;  0.0000000E+00;  0.0000000E+00;  0.0000000E+00;0;  0.0000000E+00;  1.0000000E+04;  0.0000000E+00;  0.0000000E+00;  1.0000000E+04;  0.0000000E+00;  1.0000000E+04;  0.0000000E+00;  0.0000000E+00;  0.0000000E+00;  0.0000000E+00;
  2.2000000E+00;  9.9999998E-03; -5.9999999E-02;963;  0.0000000E+00;  0.0000000E+00;  0.0000000E+00;  1.0000000E+03;  4.0000001E-01;  0.0000000E+00;0;  0.0000000E+00;  0.0000000E+00;  0.0000000E+00;0;  0.0000000E+00;  1.0000000E+04;  0.0000000E+00;  0.0000000E+00;  1.0000000E+04;  0.0000000E+00;  1.0000000E+04;  0.0000000E+00;  0.0000000E+00;  0.0000000E+00;  0.0000000E+00;
  2.2000000E+00;  9.9999998E-03; -3.9999999E-02;964;  0.0000000E+00;  0.0000000E+00;  0.0000000E+00;  1.0000000E+03;  4.0000001E-01;  0.0000000E+00;0;  0.0000000E+00;  0.0000000E+00;  0.0000000E+00;0;  0.0000000E+00;  1.0000000E+04;  0.0000000E+00;  0.0000000E+00;  1.0000000E+04;  0.0000000E+00;  1.0000000E+04;  0.0000000E+00;  0.0000000E+00;  0.0000000E+00;  0.0000000E+00;
  2.2000000E+00;  9.9999998E-03; -2.0000000E-02;965;  0.0000000E+00;  0.0000000E+00;  0.0000000E+00;  1.0000000E+03;  4.0000001E-01;  0.0000000E+00;0;  0.0000000E+00;  0.0000000E+00;  0.0000000E+00;0;  0.0000000E+00;  1.0000000E+04;  0.0000000E+00;  0.0000000E+00;  1.0000000E+04;  0.0000000E+00;  1.0000000E+04;  0.0000000E+00;  0.0000000E+00;  0.0000000E+00;  0.0000000E+00;
  2.2000000E+00;  9.9999998E-03;  0.0000000E+00;966;  0.0000000E+00;  0.0000000E+00;  0.0000000E+00;  1.0000000E+03;  4.0000001E-01;  0.0000000E+00;0;  0.0000000E+00;  0.0000000E+00;  0.0000000E+00;0;  0.0000000E+00;  1.0000000E+04;  0.0000000E+00;  0.0000000E+00;  1.0000000E+04;  0.0000000E+00;  1.0000000E+04;  0.0000000E+00;  0.0000000E+00;  0.0000000E+00;  0.0000000E+00;
  2.2000000E+00;  9.9999998E-03;  2.0000000E-02;967;  0.0000000E+00;  0.0000000E+00;  0.0000000E+00;  1.0000000E+03;  4.0000001E-01;  0.0000000E+00;0;  0.0000000E+00;  0.0000000E+00;  0.0000000E+00;0;  0.0000000E+00;  1.0000000E+04;  0.0000000E+00;  0.0000000E+00;  1.0000000E+04;  0.0000000E+00;  1.0000000E+04;  0.0000000E+00;  0.0000000E+00;  0.0000000E+00;  0.0000000E+00;
  2.2000000E+00;  9.9999998E-03;  3.9999999E-02;968;  0.0000000E+00;  0.0000000E+00;  0.0000000E+00;  1.0000000E+03;  4.0000001E-01;  0.0000000E+00;0;  0.0000000E+00;  0.0000000E+00;  0.0000000E+00;0;  0.0000000E+00;  1.0000000E+04;  0.0000000E+00;  0.0000000E+00;  1.0000000E+04;  0.0000000E+00;  1.0000000E+04;  0.0000000E+00;  0.0000000E+00;  0.0000000E+00;  0.0000000E+00;
  2.2000000E+00;  9.9999998E-03;  5.9999999E-02;969;  0.0000000E+00;  0.0000000E+00;  0.0000000E+00;  1.0000000E+03;  4.0000001E-01;  0.0000000E+00;0;  0.0000000E+00;  0.0000000E+00;  0.0000000E+00;0;  0.0000000E+00;  1.0000000E+04;  0.0000000E+00;  0.0000000E+00;  1.0000000E+04;  0.0000000E+00;  1.0000000E+04;  0.0000000E+00;  0.0000000E+00;  0.0000000E+00;  0.0000000E+00;
  2.2000000E+00;  9.9999998E-03;  7.9999998E-02;970;  0.0000000E+00;  0.0000000E+00;  0.0000000E+00;  1.0000000E+03;  4.0000001E-01;  0.0000000E+00;0;  0.0000000E+00;  0.0000000E+00;  0.0000000E+00;0;  0.0000000E+00;  1.0000000E+04;  0.0000000E+00;  0.0000000E+00;  1.0000000E+04;  0.0000000E+00;  1.0000000E+04;  0.0000000E+00;  0.0000000E+00;  0.0000000E+00;  0.0000000E+00;
  2.2000000E+00;  9.9999998E-03;  1.0000000E-01;971;  0.0000000E+00;  0.0000000E+00;  0.0000000E+00;  1.0000000E+03;  4.0000001E-01;  0.0000000E+00;0;  0.0000000E+00;  0.0000000E+00;  0.0000000E+00;0;  0.0000000E+00;  1.0000000E+04;  0.0000000E+00;  0.0000000E+00;  1.0000000E+04;  0.0000000E+00;  1.0000000E+04;  0.0000000E+00;  0.0000000E+00;  0.0000000E+00;  0.0000000E+00;
  2.2000000E+00;  9.9999998E-03;  1.2000000E-01;972;  0.0000000E+00;  0.0000000E+00;  0.0000000E+00;  1.0000000E+03;  4.0000001E-01;  0.0000000E+00;0;  0.0000000E+00;  0.0000000E+00;  0.0000000E+00;0;  0.0000000E+00;  1.0000000E+04;  0.0000000E+00;  0.0000000E+00;  1.0000000E+04;  0.0000000E+00;  1.0000000E+04;  0.0000000E+00;  0.0000000E+00;  0.0000000E+00;  0.0000000E+00;
  2.2000000E+00;  9.9999998E-03;  1.4000000E-01;973;  0.0000000E+00;  0.0000000E+00;  0.0000000E+00;  1.0000000E+03;  4.0000001E-01;  0.0000000E+00;0;  0.0000000E+00;  0.0000000E+00;  0.0000000E+00;0;  0.0000000E+00;  1.0000000E+04;  0.0000000E+00;  0.0000000E+00;  1.0000000E+04;  0.0000000E+00;  1.0000000E+04;  0.0000000E+00;  0.0000000E+00;  0.0000000E+00;  0.0000000E+00;
  2.2000000E+00;  9.9999998E-03;  1.6000000E-01;974;  0.0000000E+00;  0.0000000E+00;  0.0000000E+00;  1.0000000E+03;  4.0000001E-01;  0.0000000E+00;0;  0.0000000E+00;  0.0000000E+00;  0.0000000E+00;0;  0.0000000E+00;  1.0000000E+04;  0.0000000E+00;  0.0000000E+00;  1.0000000E+04;  0.0000000E+00;  1.0000000E+04;  0.0000000E+00;  0.0000000E+00;  0.0000000E+00;  0.0000000E+00;
  2.2000000E+00;  9.9999998E-03;  1.8000001E-01;975;  0.0000000E+00;  0.0000000E+00;  0.0000000E+00;  1.0000000E+03;  4.0000001E-01;  0.0000000E+00;0;  0.0000000E+00;  0.0000000E+00;  0.0000000E+00;0;  0.0000000E+00;  1.0000000E+04;  0.0000000E+00;  0.0000000E+00;  1.0000000E+04;  0.0000000E+00;  1.0000000E+04;  0.0000000E+00;  0.0000000E+00;  0.0000000E+00;  0.0000000E+00;
  2.2000000E+00;  9.9999998E-03;  2.0000000E-01;976;  0.0000000E+00;  0.0000000E+00;  0.0000000E+00;  1.0000000E+03;  4.0000001E-01;  0.0000000E+00;0;  0.0000000E+00;  0.0000000E+00;  0.0000000E+00;0;  0.0000000E+00;  1.0000000E+04;  0.0000000E+00;  0.0000000E+00;  1.0000000E+04;  0.0000000E+00;  1.0000000E+04;  0.0000000E+00;  0.0000000E+00;  0.0000000E+00;  0.0000000E+00;
  2.2000000E+00;  9.9999998E-03;  2.2000000E-01;977;  0.0000000E+00;  0.0000000E+00;  0.0000000E+00;  1.0000000E+03;  4.0000001E-01;  0.0000000E+00;0;  0.0000000E+00;  0.0000000E+00;  0.0000000E+00;0;  0.0000000E+00;  1.0000000E+04;  0.0000000E+00;  0.0000000E+00;  1.0000000E+04;  0.0000000E+00;  1.0000000E+04;  0.0000000E+00;  0.0000000E+00;  0.0000000E+00;  0.0000000E+00;
  2.2000000E+00;  9.9999998E-03;  2.3999999E-01;978;  0.0000000E+00;  0.0000000E+00;  0.0000000E+00;  1.0000000E+03;  4.0000001E-01;  0.0000000E+00;0;  0.0000000E+00;  0.0000000E+00;  0.0000000E+00;0;  0.0000000E+00;  1.0000000E+04;  0.0000000E+00;  0.0000000E+00;  1.0000000E+04;  0.0000000E+00;  1.0000000E+04;  0.0000000E+00;  0.0000000E+00;  0.0000000E+00;  0.0000000E+00;
  2.2000000E+00;  9.9999998E-03;  2.5999999E-01;979;  0.0000000E+00;  0.0000000E+00;  0.0000000E+00;  1.0000000E+03;  4.0000001E-01;  0.0000000E+00;0;  0.0000000E+00;  0.0000000E+00;  0.0000000E+00;0;  0.0000000E+00;  1.0000000E+04;  0.0000000E+00;  0.0000000E+00;  1.0000000E+04;  0.0000000E+00;  1.0000000E+04;  0.0000000E+00;  0.0000000E+00;  0.0000000E+00;  0.0000000E+00;
  2.2000000E+00;  9.9999998E-03;  2.8000000E-01;980;  0.0000000E+00;  0.0000000E+00;  0.0000000E+00;  1.0000000E+03;  4.0000001E-01;  0.0000000E+00;0;  0.0000000E+00;  0.0000000E+00;  0.0000000E+00;0;  0.0000000E+00;  1.0000000E+04;  0.0000000E+00;  0.0000000E+00;  1.0000000E+04;  0.0000000E+00;  1.0000000E+04;  0.0000000E+00;  0.0000000E+00;  0.0000000E+00;  0.0000000E+00;
  2.2000000E+00;  9.9999998E-03;  3.0000001E-01;981;  0.0000000E+00;  0.0000000E+00;  0.0000000E+00;  1.0000000E+03;  4.0000001E-01;  0.0000000E+00;0;  0.0000000E+00;  0.0000000E+00;  0.0000000E+00;0;  0.0000000E+00;  1.0000000E+04;  0.0000000E+00;  0.0000000E+00;  1.0000000E+04;  0.0000000E+00;  1.0000000E+04;  0.0000000E+00;  0.0000000E+00;  0.0000000E+00;  0.0000000E+00;
  2.2000000E+00;  9.9999998E-03;  3.1999999E-01;982;  0.0000000E+00;  0.0000000E+00;  0.0000000E+00;  1.0000000E+03;  4.0000001E-01;  0.0000000E+00;0;  0.0000000E+00;  0.0000000E+00;  0.0000000E+00;0;  0.0000000E+00;  1.0000000E+04;  0.0000000E+00;  0.0000000E+00;  1.0000000E+04;  0.0000000E+00;  1.0000000E+04;  0.0000000E+00;  0.0000000E+00;  0.0000000E+00;  0.0000000E+00;
  2.2000000E+00;  9.9999998E-03;  3.4000000E-01;983;  0.0000000E+00;  0.0000000E+00;  0.0000000E+00;  1.0000000E+03;  4.0000001E-01;  0.0000000E+00;0;  0.0000000E+00;  0.0000000E+00;  0.0000000E+00;0;  0.0000000E+00;  1.0000000E+04;  0.0000000E+00;  0.0000000E+00;  1.0000000E+04;  0.0000000E+00;  1.0000000E+04;  0.0000000E+00;  0.0000000E+00;  0.0000000E+00;  0.0000000E+00;
  2.2000000E+00;  9.9999998E-03;  3.6000001E-01;984;  0.0000000E+00;  0.0000000E+00;  0.0000000E+00;  1.0000000E+03;  4.0000001E-01;  0.0000000E+00;0;  0.0000000E+00;  0.0000000E+00;  0.0000000E+00;0;  0.0000000E+00;  1.0000000E+04;  0.0000000E+00;  0.0000000E+00;  1.0000000E+04;  0.0000000E+00;  1.0000000E+04;  0.0000000E+00;  0.0000000E+00;  0.0000000E+00;  0.0000000E+00;
  2.2000000E+00;  9.9999998E-03;  3.8000000E-01;985;  0.0000000E+00;  0.0000000E+00;  0.0000000E+00;  1.0000000E+03;  4.0000001E-01;  0.0000000E+00;0;  0.0000000E+00;  0.0000000E+00;  0.0000000E+00;0;  0.0000000E+00;  1.0000000E+04;  0.0000000E+00;  0.0000000E+00;  1.0000000E+04;  0.0000000E+00;  1.0000000E+04;  0.0000000E+00;  0.0000000E+00;  0.0000000E+00;  0.0000000E+00;
  2.2200000E+00;  9.9999998E-03;  2.0000000E-02;986;  0.0000000E+00;  0.0000000E+00;  0.0000000E+00;  1.0000000E+03;  4.0000001E-01;  0.0000000E+00;0;  0.0000000E+00;  0.0000000E+00;  0.0000000E+00;0;  0.0000000E+00;  1.0000000E+04;  0.0000000E+00;  0.0000000E+00;  1.0000000E+04;  0.0000000E+00;  1.0000000E+04;  0.0000000E+00;  0.0000000E+00;  0.0000000E+00;  0.0000000E+00;
  2.2200000E+00;  9.9999998E-03;  3.9999999E-02;987;  0.0000000E+00;  0.0000000E+00;  0.0000000E+00;  1.0000000E+03;  4.0000001E-01;  0.0000000E+00;0;  0.0000000E+00;  0.0000000E+00;  0.0000000E+00;0;  0.0000000E+00;  1.0000000E+04;  0.0000000E+00;  0.0000000E+00;  1.0000000E+04;  0.0000000E+00;  1.0000000E+04;  0.0000000E+00;  0.0000000E+00;  0.0000000E+00;  0.0000000E+00;
  2.2200000E+00;  9.9999998E-03;  5.9999999E-02;988;  0.0000000E+00;  0.0000000E+00;  0.0000000E+00;  1.0000000E+03;  4.0000001E-01;  0.0000000E+00;0;  0.0000000E+00;  0.0000000E+00;  0.0000000E+00;0;  0.0000000E+00;  1.0000000E+04;  0.0000000E+00;  0.0000000E+00;  1.0000000E+04;  0.0000000E+00;  1.0000000E+04;  0.0000000E+00;  0.0000000E+00;  0.0000000E+00;  0.0000000E+00;
  2.2200000E+00;  9.9999998E-03;  7.9999998E-02;989;  0.0000000E+00;  0.0000000E+00;  0.0000000E+00;  1.0000000E+03;  4.0000001E-01;  0.0000000E+00;0;  0.0000000E+00;  0.0000000E+00;  0.0000000E+00;0;  0.0000000E+00;  1.0000000E+04;  0.0000000E+00;  0.0000000E+00;  1.0000000E+04;  0.0000000E+00;  1.0000000E+04;  0.0000000E+00;  0.0000000E+00;  0.0000000E+00;  0.0000000E+00;
  2.2200000E+00;  9.9999998E-03;  1.0000000E-01;990;  0.0000000E+00;  0.0000000E+00;  0.0000000E+00;  1.0000000E+03;  4.0000001E-01;  0.0000000E+00;0;  0.0000000E+00;  0.0000000E+00;  0.0000000E+00;0;  0.0000000E+00;  1.0000000E+04;  0.0000000E+00;  0.0000000E+00;  1.0000000E+04;  0.0000000E+00;  1.0000000E+04;  0.0000000E+00;  0.0000000E+00;  0.0000000E+00;  0.0000000E+00;
  2.2200000E+00;  9.9999998E-03;  1.2000000E-01;991;  0.0000000E+00;  0.0000000E+00;  0.0000000E+00;  1.0000000E+03;  4.0000001E-01;  0.0000000E+00;0;  0.0000000E+00;  0.0000000E+00;  0.0000000E+00;0;  0.0000000E+00;  1.0000000E+04;  0.0000000E+00;  0.0000000E+00;  1.0000000E+04;  0.0000000E+00;  1.0000000E+04;  0.0000000E+00;  0.0000000E+00;  0.0000000E+00;  0.0000000E+00;
  2.2200000E+00;  9.9999998E-03;  1.4000000E-01;992;  0.0000000E+00;  0.0000000E+00;  0.0000000E+00;  1.0000000E+03;  4.0000001E-01;  0.0000000E+00;0;  0.0000000E+00;  0.0000000E+00;  0.0000000E+00;0;  0.0000000E+00;  1.0000000E+04;  0.0000000E+00;  0.0000000E+00;  1.0000000E+04;  0.0000000E+00;  1.0000000E+04;  0.0000000E+00;  0.0000000E+00;  0.0000000E+00;  0.0000000E+00;
  2.2200000E+00;  9.9999998E-03;  1.6000000E-01;993;  0.0000000E+00;  0.0000000E+00;  0.0000000E+00;  1.0000000E+03;  4.0000001E-01;  0.0000000E+00;0;  0.0000000E+00;  0.0000000E+00;  0.0000000E+00;0;  0.0000000E+00;  1.0000000E+04;  0.0000000E+00;  0.0000000E+00;  1.0000000E+04;  0.0000000E+00;  1.0000000E+04;  0.0000000E+00;  0.0000000E+00;  0.0000000E+00;  0.0000000E+00;
  2.2200000E+00;  9.9999998E-03;  1.8000001E-01;994;  0.0000000E+00;  0.0000000E+00;  0.0000000E+00;  1.0000000E+03;  4.0000001E-01;  0.0000000E+00;0;  0.0000000E+00;  0.0000000E+00;  0.0000000E+00;0;  0.0000000E+00;  1.0000000E+04;  0.0000000E+00;  0.0000000E+00;  1.0000000E+04;  0.0000000E+00;  1.0000000E+04;  0.0000000E+00;  0.0000000E+00;  0.0000000E+00;  0.0000000E+00;
  2.2200000E+00;  9.9999998E-03;  2.0000000E-01;995;  0.0000000E+00;  0.0000000E+00;  0.0000000E+00;  1.0000000E+03;  4.0000001E-01;  0.0000000E+00;0;  0.0000000E+00;  0.0000000E+00;  0.0000000E+00;0;  0.0000000E+00;  1.0000000E+04;  0.0000000E+00;  0.0000000E+00;  1.0000000E+04;  0.0000000E+00;  1.0000000E+04;  0.0000000E+00;  0.0000000E+00;  0.0000000E+00;  0.0000000E+00;
  2.2200000E+00;  9.9999998E-03;  2.2000000E-01;996;  0.0000000E+00;  0.0000000E+00;  0.0000000E+00;  1.0000000E+03;  4.0000001E-01;  0.0000000E+00;0;  0.0000000E+00;  0.0000000E+00;  0.0000000E+00;0;  0.0000000E+00;  1.0000000E+04;  0.0000000E+00;  0.0000000E+00;  1.0000000E+04;  0.0000000E+00;  1.0000000E+04;  0.0000000E+00;  0.0000000E+00;  0.0000000E+00;  0.0000000E+00;
  2.2200000E+00;  9.9999998E-03;  2.3999999E-01;997;  0.0000000E+00;  0.0000000E+00;  0.0000000E+00;  1.0000000E+03;  4.0000001E-01;  0.0000000E+00;0;  0.0000000E+00;  0.0000000E+00;  0.0000000E+00;0;  0.0000000E+00;  1.0000000E+04;  0.0000000E+00;  0.0000000E+00;  1.0000000E+04;  0.0000000E+00;  1.0000000E+04;  0.0000000E+00;  0.0000000E+00;  0.0000000E+00;  0.0000000E+00;
  2.2200000E+00;  9.9999998E-03;  2.5999999E-01;998;  0.0000000E+00;  0.0000000E+00;  0.0000000E+00;  1.0000000E+03;  4.0000001E-01;  0.0000000E+00;0;  0.0000000E+00;  0.0000000E+00;  0.0000000E+00;0;  0.0000000E+00;  1.0000000E+04;  0.0000000E+00;  0.0000000E+00;  1.0000000E+04;  0.0000000E+00;  1.0000000E+04;  0.0000000E+00;  0.0000000E+00;  0.0000000E+00;  0.0000000E+00;
  2.2200000E+00;  9.9999998E-03;  2.8000000E-01;999;  0.0000000E+00;  0.0000000E+00;  0.0000000E+00;  1.0000000E+03;  4.0000001E-01;  0.0000000E+00;0;  0.0000000E+00;  0.0000000E+00;  0.0000000E+00;0;  0.0000000E+00;  1.0000000E+04;  0.0000000E+00;  0.0000000E+00;  1.0000000E+04;  0.0000000E+00;  1.0000000E+04;  0.0000000E+00;  0.0000000E+00;  0.0000000E+00;  0.0000000E+00;
  2.2200000E+00;  9.9999998E-03;  3.0000001E-01;1000;  0.0000000E+00;  0.0000000E+00;  0.0000000E+00;  1.0000000E+03;  4.0000001E-01;  0.0000000E+00;0;  0.0000000E+00;  0.0000000E+00;  0.0000000E+00;0;  0.0000000E+00;  1.0000000E+04;  0.0000000E+00;  0.0000000E+00;  1.0000000E+04;  0.0000000E+00;  1.0000000E+04;  0.0000000E+00;  0.0000000E+00;  0.0000000E+00;  0.0000000E+00;
  2.2200000E+00;  9.9999998E-03;  3.1999999E-01;1001;  0.0000000E+00;  0.0000000E+00;  0.0000000E+00;  1.0000000E+03;  4.0000001E-01;  0.0000000E+00;0;  0.0000000E+00;  0.0000000E+00;  0.0000000E+00;0;  0.0000000E+00;  1.0000000E+04;  0.0000000E+00;  0.0000000E+00;  1.0000000E+04;  0.0000000E+00;  1.0000000E+04;  0.0000000E+00;  0.0000000E+00;  0.0000000E+00;  0.0000000E+00;
  2.2200000E+00;  9.9999998E-03;  3.4000000E-01;1002;  0.0000000E+00;  0.0000000E+00;  0.0000000E+00;  1.0000000E+03;  4.0000001E-01;  0.0000000E+00;0;  0.0000000E+00;  0.0000000E+00;  0.0000000E+00;0;  0.0000000E+00;  1.0000000E+04;  0.0000000E+00;  0.0000000E+00;  1.0000000E+04;  0.0000000E+00;  1.0000000E+04;  0.0000000E+00;  0.0000000E+00;  0.0000000E+00;  0.0000000E+00;
  2.2200000E+00;  9.9999998E-03;  3.6000001E-01;1003;  0.0000000E+00;  0.0000000E+00;  0.0000000E+00;  1.0000000E+03;  4.0000001E-01;  0.0000000E+00;0;  0.0000000E+00;  0.0000000E+00;  0.0000000E+00;0;  0.0000000E+00;  1.0000000E+04;  0.0000000E+00;  0.0000000E+00;  1.0000000E+04;  0.0000000E+00;  1.0000000E+04;  0.0000000E+00;  0.0000000E+00;  0.0000000E+00;  0.0000000E+00;
  2.2200000E+00;  9.9999998E-03;  3.8000000E-01;1004;  0.0000000E+00;  0.0000000E+00;  0.0000000E+00;  1.0000000E+03;  4.0000001E-01;  0.0000000E+00;0;  0.0000000E+00;  0.0000000E+00;  0.0000000E+00;0;  0.0000000E+00;  1.0000000E+04;  0.0000000E+00;  0.0000000E+00;  1.0000000E+04;  0.0000000E+00;  1.0000000E+04;  0.0000000E+00;  0.0000000E+00;  0.0000000E+00;  0.0000000E+00;
  2.2400000E+00;  9.9999998E-03;  1.2000000E-01;1005;  0.0000000E+00;  0.0000000E+00;  0.0000000E+00;  1.0000000E+03;  4.0000001E-01;  0.0000000E+00;0;  0.0000000E+00;  0.0000000E+00;  0.0000000E+00;0;  0.0000000E+00;  1.0000000E+04;  0.0000000E+00;  0.0000000E+00;  1.0000000E+04;  0.0000000E+00;  1.0000000E+04;  0.0000000E+00;  0.0000000E+00;  0.0000000E+00;  0.0000000E+00;
  2.2400000E+00;  9.9999998E-03;  1.4000000E-01;1006;  0.0000000E+00;  0.0000000E+00;  0.0000000E+00;  1.0000000E+03;  4.0000001E-01;  0.0000000E+00;0;  0.0000000E+00;  0.0000000E+00;  0.0000000E+00;0;  0.0000000E+00;  1.0000000E+04;  0.0000000E+00;  0.0000000E+00;  1.0000000E+04;  0.0000000E+00;  1.0000000E+04;  0.0000000E+00;  0.0000000E+00;  0.0000000E+00;  0.0000000E+00;
  2.2400000E+00;  9.9999998E-03;  1.6000000E-01;1007;  0.0000000E+00;  0.0000000E+00;  0.0000000E+00;  1.0000000E+03;  4.0000001E-01;  0.0000000E+00;0;  0.0000000E+00;  0.0000000E+00;  0.0000000E+00;0;  0.0000000E+00;  1.0000000E+04;  0.0000000E+00;  0.0000000E+00;  1.0000000E+04;  0.0000000E+00;  1.0000000E+04;  0.0000000E+00;  0.0000000E+00;  0.0000000E+00;  0.0000000E+00;
  2.2400000E+00;  9.9999998E-03;  1.8000001E-01;1008;  0.0000000E+00;  0.0000000E+00;  0.0000000E+00;  1.0000000E+03;  4.0000001E-01;  0.0000000E+00;0;  0.0000000E+00;  0.0000000E+00;  0.0000000E+00;0;  0.0000000E+00;  1.0000000E+04;  0.0000000E+00;  0.0000000E+00;  1.0000000E+04;  0.0000000E+00;  1.0000000E+04;  0.0000000E+00;  0.0000000E+00;  0.0000000E+00;  0.0000000E+00;
  2.2400000E+00;  9.9999998E-03;  2.0000000E-01;1009;  0.0000000E+00;  0.0000000E+00;  0.0000000E+00;  1.0000000E+03;  4.0000001E-01;  0.0000000E+00;0;  0.0000000E+00;  0.0000000E+00;  0.0000000E+00;0;  0.0000000E+00;  1.0000000E+04;  0.0000000E+00;  0.0000000E+00;  1.0000000E+04;  0.0000000E+00;  1.0000000E+04;  0.0000000E+00;  0.0000000E+00;  0.0000000E+00;  0.0000000E+00;
  2.2400000E+00;  9.9999998E-03;  2.2000000E-01;1010;  0.0000000E+00;  0.0000000E+00;  0.0000000E+00;  1.0000000E+03;  4.0000001E-01;  0.0000000E+00;0;  0.0000000E+00;  0.0000000E+00;  0.0000000E+00;0;  0.0000000E+00;  1.0000000E+04;  0.0000000E+00;  0.0000000E+00;  1.0000000E+04;  0.0000000E+00;  1.0000000E+04;  0.0000000E+00;  0.0000000E+00;  0.0000000E+00;  0.0000000E+00;
  2.2400000E+00;  9.9999998E-03;  2.3999999E-01;1011;  0.0000000E+00;  0.0000000E+00;  0.0000000E+00;  1.0000000E+03;  4.0000001E-01;  0.0000000E+00;0;  0.0000000E+00;  0.0000000E+00;  0.0000000E+00;0;  0.0000000E+00;  1.0000000E+04;  0.0000000E+00;  0.0000000E+00;  1.0000000E+04;  0.0000000E+00;  1.0000000E+04;  0.0000000E+00;  0.0000000E+00;  0.0000000E+00;  0.0000000E+00;
  2.2400000E+00;  9.9999998E-03;  2.5999999E-01;1012;  0.0000000E+00;  0.0000000E+00;  0.0000000E+00;  1.0000000E+03;  4.0000001E-01;  0.0000000E+00;0;  0.0000000E+00;  0.0000000E+00;  0.0000000E+00;0;  0.0000000E+00;  1.0000000E+04;  0.0000000E+00;  0.0000000E+00;  1.0000000E+04;  0.0000000E+00;  1.0000000E+04;  0.0000000E+00;  0.0000000E+00;  0.0000000E+00;  0.0000000E+00;
  2.2400000E+00;  9.9999998E-03;  2.8000000E-01;1013;  0.0000000E+00;  0.0000000E+00;  0.0000000E+00;  1.0000000E+03;  4.0000001E-01;  0.0000000E+00;0;  0.0000000E+00;  0.0000000E+00;  0.0000000E+00;0;  0.0000000E+00;  1.0000000E+04;  0.0000000E+00;  0.0000000E+00;  1.0000000E+04;  0.0000000E+00;  1.0000000E+04;  0.0000000E+00;  0.0000000E+00;  0.0000000E+00;  0.0000000E+00;
  2.2400000E+00;  9.9999998E-03;  3.0000001E-01;1014;  0.0000000E+00;  0.0000000E+00;  0.0000000E+00;  1.0000000E+03;  4.0000001E-01;  0.0000000E+00;0;  0.0000000E+00;  0.0000000E+00;  0.0000000E+00;0;  0.0000000E+00;  1.0000000E+04;  0.0000000E+00;  0.0000000E+00;  1.0000000E+04;  0.0000000E+00;  1.0000000E+04;  0.0000000E+00;  0.0000000E+00;  0.0000000E+00;  0.0000000E+00;
  2.2400000E+00;  9.9999998E-03;  3.1999999E-01;1015;  0.0000000E+00;  0.0000000E+00;  0.0000000E+00;  1.0000000E+03;  4.0000001E-01;  0.0000000E+00;0;  0.0000000E+00;  0.0000000E+00;  0.0000000E+00;0;  0.0000000E+00;  1.0000000E+04;  0.0000000E+00;  0.0000000E+00;  1.0000000E+04;  0.0000000E+00;  1.0000000E+04;  0.0000000E+00;  0.0000000E+00;  0.0000000E+00;  0.0000000E+00;
  2.2400000E+00;  9.9999998E-03;  3.4000000E-01;1016;  0.0000000E+00;  0.0000000E+00;  0.0000000E+00;  1.0000000E+03;  4.0000001E-01;  0.0000000E+00;0;  0.0000000E+00;  0.0000000E+00;  0.0000000E+00;0;  0.0000000E+00;  1.0000000E+04;  0.0000000E+00;  0.0000000E+00;  1.0000000E+04;  0.0000000E+00;  1.0000000E+04;  0.0000000E+00;  0.0000000E+00;  0.0000000E+00;  0.0000000E+00;
  2.2400000E+00;  9.9999998E-03;  3.6000001E-01;1017;  0.0000000E+00;  0.0000000E+00;  0.0000000E+00;  1.0000000E+03;  4.0000001E-01;  0.0000000E+00;0;  0.0000000E+00;  0.0000000E+00;  0.0000000E+00;0;  0.0000000E+00;  1.0000000E+04;  0.0000000E+00;  0.0000000E+00;  1.0000000E+04;  0.0000000E+00;  1.0000000E+04;  0.0000000E+00;  0.0000000E+00;  0.0000000E+00;  0.0000000E+00;
  2.2400000E+00;  9.9999998E-03;  3.8000000E-01;1018;  0.0000000E+00;  0.0000000E+00;  0.0000000E+00;  1.0000000E+03;  4.0000001E-01;  0.0000000E+00;0;  0.0000000E+00;  0.0000000E+00;  0.0000000E+00;0;  0.0000000E+00;  1.0000000E+04;  0.0000000E+00;  0.0000000E+00;  1.0000000E+04;  0.0000000E+00;  1.0000000E+04;  0.0000000E+00;  0.0000000E+00;  0.0000000E+00;  0.0000000E+00;
  2.2600000E+00;  9.9999998E-03;  2.2000000E-01;1019;  0.0000000E+00;  0.0000000E+00;  0.0000000E+00;  1.0000000E+03;  4.0000001E-01;  0.0000000E+00;0;  0.0000000E+00;  0.0000000E+00;  0.0000000E+00;0;  0.0000000E+00;  1.0000000E+04;  0.0000000E+00;  0.0000000E+00;  1.0000000E+04;  0.0000000E+00;  1.0000000E+04;  0.0000000E+00;  0.0000000E+00;  0.0000000E+00;  0.0000000E+00;
  2.2600000E+00;  9.9999998E-03;  2.3999999E-01;1020;  0.0000000E+00;  0.0000000E+00;  0.0000000E+00;  1.0000000E+03;  4.0000001E-01;  0.0000000E+00;0;  0.0000000E+00;  0.0000000E+00;  0.0000000E+00;0;  0.0000000E+00;  1.0000000E+04;  0.0000000E+00;  0.0000000E+00;  1.0000000E+04;  0.0000000E+00;  1.0000000E+04;  0.0000000E+00;  0.0000000E+00;  0.0000000E+00;  0.0000000E+00;
  2.2600000E+00;  9.9999998E-03;  2.5999999E-01;1021;  0.0000000E+00;  0.0000000E+00;  0.0000000E+00;  1.0000000E+03;  4.0000001E-01;  0.0000000E+00;0;  0.0000000E+00;  0.0000000E+00;  0.0000000E+00;0;  0.0000000E+00;  1.0000000E+04;  0.0000000E+00;  0.0000000E+00;  1.0000000E+04;  0.0000000E+00;  1.0000000E+04;  0.0000000E+00;  0.0000000E+00;  0.0000000E+00;  0.0000000E+00;
  2.2600000E+00;  9.9999998E-03;  2.8000000E-01;1022;  0.0000000E+00;  0.0000000E+00;  0.0000000E+00;  1.0000000E+03;  4.0000001E-01;  0.0000000E+00;0;  0.0000000E+00;  0.0000000E+00;  0.0000000E+00;0;  0.0000000E+00;  1.0000000E+04;  0.0000000E+00;  0.0000000E+00;  1.0000000E+04;  0.0000000E+00;  1.0000000E+04;  0.0000000E+00;  0.0000000E+00;  0.0000000E+00;  0.0000000E+00;
  2.2600000E+00;  9.9999998E-03;  3.0000001E-01;1023;  0.0000000E+00;  0.0000000E+00;  0.0000000E+00;  1.0000000E+03;  4.0000001E-01;  0.0000000E+00;0;  0.0000000E+00;  0.0000000E+00;  0.0000000E+00;0;  0.0000000E+00;  1.0000000E+04;  0.0000000E+00;  0.0000000E+00;  1.0000000E+04;  0.0000000E+00;  1.0000000E+04;  0.0000000E+00;  0.0000000E+00;  0.0000000E+00;  0.0000000E+00;
  2.2600000E+00;  9.9999998E-03;  3.1999999E-01;1024;  0.0000000E+00;  0.0000000E+00;  0.0000000E+00;  1.0000000E+03;  4.0000001E-01;  0.0000000E+00;0;  0.0000000E+00;  0.0000000E+00;  0.0000000E+00;0;  0.0000000E+00;  1.0000000E+04;  0.0000000E+00;  0.0000000E+00;  1.0000000E+04;  0.0000000E+00;  1.0000000E+04;  0.0000000E+00;  0.0000000E+00;  0.0000000E+00;  0.0000000E+00;
  2.2600000E+00;  9.9999998E-03;  3.4000000E-01;1025;  0.0000000E+00;  0.0000000E+00;  0.0000000E+00;  1.0000000E+03;  4.0000001E-01;  0.0000000E+00;0;  0.0000000E+00;  0.0000000E+00;  0.0000000E+00;0;  0.0000000E+00;  1.0000000E+04;  0.0000000E+00;  0.0000000E+00;  1.0000000E+04;  0.0000000E+00;  1.0000000E+04;  0.0000000E+00;  0.0000000E+00;  0.0000000E+00;  0.0000000E+00;
  2.2600000E+00;  9.9999998E-03;  3.6000001E-01;1026;  0.0000000E+00;  0.0000000E+00;  0.0000000E+00;  1.0000000E+03;  4.0000001E-01;  0.0000000E+00;0;  0.0000000E+00;  0.0000000E+00;  0.0000000E+00;0;  0.0000000E+00;  1.0000000E+04;  0.0000000E+00;  0.0000000E+00;  1.0000000E+04;  0.0000000E+00;  1.0000000E+04;  0.0000000E+00;  0.0000000E+00;  0.0000000E+00;  0.0000000E+00;
  2.2600000E+00;  9.9999998E-03;  3.8000000E-01;1027;  0.0000000E+00;  0.0000000E+00;  0.0000000E+00;  1.0000000E+03;  4.0000001E-01;  0.0000000E+00;0;  0.0000000E+00;  0.0000000E+00;  0.0000000E+00;0;  0.0000000E+00;  1.0000000E+04;  0.0000000E+00;  0.0000000E+00;  1.0000000E+04;  0.0000000E+00;  1.0000000E+04;  0.0000000E+00;  0.0000000E+00;  0.0000000E+00;  0.0000000E+00;
  2.2800000E+00;  9.9999998E-03;  3.1999999E-01;1028;  0.0000000E+00;  0.0000000E+00;  0.0000000E+00;  1.0000000E+03;  4.0000001E-01;  0.0000000E+00;0;  0.0000000E+00;  0.0000000E+00;  0.0000000E+00;0;  0.0000000E+00;  1.0000000E+04;  0.0000000E+00;  0.0000000E+00;  1.0000000E+04;  0.0000000E+00;  1.0000000E+04;  0.0000000E+00;  0.0000000E+00;  0.0000000E+00;  0.0000000E+00;
  2.2800000E+00;  9.9999998E-03;  3.4000000E-01;1029;  0.0000000E+00;  0.0000000E+00;  0.0000000E+00;  1.0000000E+03;  4.0000001E-01;  0.0000000E+00;0;  0.0000000E+00;  0.0000000E+00;  0.0000000E+00;0;  0.0000000E+00;  1.0000000E+04;  0.0000000E+00;  0.0000000E+00;  1.0000000E+04;  0.0000000E+00;  1.0000000E+04;  0.0000000E+00;  0.0000000E+00;  0.0000000E+00;  0.0000000E+00;
  2.2800000E+00;  9.9999998E-03;  3.6000001E-01;1030;  0.0000000E+00;  0.0000000E+00;  0.0000000E+00;  1.0000000E+03;  4.0000001E-01;  0.0000000E+00;0;  0.0000000E+00;  0.0000000E+00;  0.0000000E+00;0;  0.0000000E+00;  1.0000000E+04;  0.0000000E+00;  0.0000000E+00;  1.0000000E+04;  0.0000000E+00;  1.0000000E+04;  0.0000000E+00;  0.0000000E+00;  0.0000000E+00;  0.0000000E+00;
 -6.8447768E-08;  9.9999998E-03; -2.8000003E-01;1031; -1.0544946E-04;  0.0000000E+00; -4.0224615E-05;  1.0000017E+03;  4.0000001E-01;  1.3826767E+00;3; -1.3872439E-01;  0.0000000E+00; -5.3020515E-02;0; -2.1630162E-03;  1.0000030E+04;  0.0000000E+00; -4.2904810E-10;  1.0000000E+04;  0.0000000E+00;  1.0000002E+04; -1.9958215E-03;  0.0000000E+00; -1.6719487E-04;  9.5682013E-01;
 -8.2753900E-08;  9.9999998E-03; -2.6000002E-01;1032; -1.2759218E-04;  0.0000000E+00; -3.8823047E-05;  1.0000020E+03;  4.0000001E-01;  1.5802020E+00;3; -1.6457695E-01;  0.0000000E+00; -5.0128914E-02;0; -2.5744538E-03;  1.0000040E+04;  0.0000000E+00; -2.2377140E-11;  1.0000000E+04;  0.0000000E+00;  1.0000000E+04; -2.4994106E-03;  0.0000000E+00; -7.5043223E-05;  3.6063769E-01;
 -9.4828309E-08;  9.9999998E-03; -2.4000002E-01;1033; -1.4627566E-04;  0.0000000E+00; -3.5332869E-05;  1.0000023E+03;  4.0000001E-01;  1.8764899E+00;3; -1.8614823E-01;  0.0000000E+00; -4.4803351E-02;0; -2.9126017E-03;  1.0000046E+04;  0.0000000E+00;  8.0342163E-11;  1.0000000E+04;  0.0000000E+00;  1.0000000E+04; -2.9295590E-03;  0.0000000E+00;  1.6957209E-05;  2.3040327E-01;
 -1.0435986E-07;  9.9999998E-03; -2.2000001E-01;1034; -1.6088616E-04;  0.0000000E+00; -3.0984495E-05;  1.0000025E+03;  4.0000001E-01;  2.0740151E+00;3; -2.0304033E-01;  0.0000000E+00; -3.8700275E-02;0; -3.1805197E-03;  1.0000053E+04;  0.0000000E+00;  8.3878592E-11;  1.0000000E+04;  0.0000000E+00;  1.0000000E+04; -3.2676281E-03;  0.0000000E+00;  8.7108492E-05;  6.8237895E-01;
 -1.1170929E-07;  9.9999998E-03; -2.0000002E-01;1035; -1.7196663E-04;  0.0000000E+00; -2.6128859E-05;  1.0000026E+03;  4.0000001E-01;  2.1727777E+00;3; -2.1597379E-01;  0.0000000E+00; -3.2122876E-02;0; -3.3889858E-03;  1.0000055E+04;  0.0000000E+00; -1.2748326E-10;  1.0000000E+04;  0.0000000E+00;  9.9999990E+03; -3.5168412E-03;  0.0000000E+00;  1.2785544E-04;  9.5001251E-01;
  1.9999927E-02;  9.9999998E-03; -3.0000004E-01;1060; -1.0942925E-04;  0.0000000E+00; -5.5019624E-05;  1.0000018E+03;  4.0000001E-01;  1.4814394E+00;3; -1.4198288E-01;  0.0000000E+00; -7.1615294E-02;0; -2.2140129E-03;  1.0000028E+04;  0.0000000E+00; -9.0360425E-10;  1.0000000E+04;  0.0000000E+00;  1.0000005E+04; -1.8966307E-03;  0.0000000E+00; -3.1738213E-04;  1.9533163E+00;
  1.9999901E-02;  9.9999998E-03; -2.8000003E-01;1061; -1.5082372E-04;  0.0000000E+00; -5.2416581E-05;  1.0000023E+03;  4.0000001E-01;  1.8764899E+00;3; -1.9018841E-01;  0.0000000E+00; -6.5636456E-02;0; -2.7897728E-03;  1.0000041E+04;  0.0000000E+00; -1.7428507E-10;  1.0000000E+04;  0.0000000E+00;  1.0000003E+04; -2.5630156E-03;  0.0000000E+00; -2.2675718E-04;  1.3400506E+00;
  1.9999878E-02;  9.9999998E-03; -2.6000002E-01;1062; -1.8602349E-04;  0.0000000E+00; -5.1692405E-05;  1.0000026E+03;  4.0000001E-01;  2.1727777E+00;3; -2.2888449E-01;  0.0000000E+00; -6.3048832E-02;0; -3.2861966E-03;  1.0000051E+04;  0.0000000E+00;  2.6784705E-10;  1.0000000E+04;  0.0000000E+00;  1.0000001E+04; -3.1896608E-03;  0.0000000E+00; -9.6535827E-05;  4.8250729E-01;
  1.9999860E-02;  9.9999998E-03; -2.4000002E-01;1063; -2.1434868E-04;  0.0000000E+00; -4.8083206E-05;  1.0000029E+03;  4.0000001E-01;  2.3703029E+00;3; -2.5923690E-01;  0.0000000E+00; -5.7400480E-02;0; -3.6883738E-03;  1.0000059E+04;  0.0000000E+00;  3.6195680E-10;  1.0000000E+04;  0.0000000E+00;  1.0000000E+04; -3.7189736E-03;  0.0000000E+00;  3.0599746E-05;  3.5067952E-01;
  1.9999845E-02;  9.9999998E-03; -2.2000003E-01;1064; -2.3588110E-04;  0.0000000E+00; -4.2777367E-05;  1.0000032E+03;  4.0000001E-01;  2.6665909E+00;3; -2.8229317E-01;  0.0000000E+00; -5.0157618E-02;0; -4.0024268E-03;  1.0000065E+04;  0.0000000E+00;  4.6308048E-11;  1.0000000E+04;  0.0000000E+00;  9.9999990E+03; -4.1287364E-03;  0.0000000E+00;  1.2630963E-04;  9.8006684E-01;
  1.9999836E-02;  9.9999998E-03; -2.0000002E-01;1065; -2.5172369E-04;  0.0000000E+00; -3.6349011E-05;  1.0000033E+03;  4.0000001E-01;  2.7653534E+00;3; -2.9944229E-01;  0.0000000E+00; -4.1901253E-02;0; -4.2436831E-03;  1.0000070E+04;  0.0000000E+00;  2.6456551E-10;  1.0000000E+04;  0.0000000E+00;  9.9999980E+03; -4.4248560E-03;  0.0000000E+00;  1.8117316E-04;  1.3477715E+00;
  3.9999895E-02;  9.9999998E-03; -3.0000004E-01;1091; -1.5702182E-04;  0.0000000E+00; -6.5924542E-05;  1.0000023E+03;  4.0000001E-01;  1.8764899E+00;3; -1.9771361E-01;  0.0000000E+00; -8.1878081E-02;0; -2.7837451E-03;  1.0000039E+04;  0.0000000E+00; -8.1879542E-10;  1.0000000E+04;  0.0000000E+00;  1.0000007E+04; -2.3694814E-03;  0.0000000E+00; -4.1426366E-04;  2.6322188E+00;
  3.9999858E-02;  9.9999998E-03; -2.8000003E-01;1092; -2.1573275E-04;  0.0000000E+00; -6.4826541E-05;  1.0000028E+03;  4.0000001E-01;  2.3703029E+00;3; -2.6232681E-01;  0.0000000E+00; -7.6847509E-02;0; -3.4776775E-03;  1.0000052E+04;  0.0000000E+00; -6.7665390E-10;  1.0000000E+04;  0.0000000E+00;  1.0000005E+04; -3.1902599E-03;  0.0000000E+00; -2.8741750E-04;  1.7594222E+00;
  3.9999824E-02;  9.9999998E-03; -2.6000005E-01;1093; -2.6566981E-04;  0.0000000E+00; -6.3362357E-05;  1.0000033E+03;  4.0000001E-01;  2.7653534E+00;3; -3.1371397E-01;  0.0000000E+00; -7.2648615E-02;0; -4.0681241E-03;  1.0000064E+04;  0.0000000E+00;  4.1389669E-10;  1.0000000E+04;  0.0000000E+00;  1.0000001E+04; -3.9526233E-03;  0.0000000E+00; -1.1550081E-04;  5.9794253E-01;
  3.9999798E-02;  9.9999998E-03; -2.4000004E-01;1094; -3.0600940E-04;  0.0000000E+00; -5.8850874E-05;  1.0000037E+03;  4.0000001E-01;  3.0616415E+00;3; -3.5411039E-01;  0.0000000E+00; -6.5705337E-02;0; -4.5365687E-03;  1.0000074E+04;  0.0000000E+00;  3.8866454E-10;  1.0000000E+04;  0.0000000E+00;  1.0000000E+04; -4.5854468E-03;  0.0000000E+00;  4.8878050E-05;  5.0970918E-01;
  3.9999776E-02;  9.9999998E-03; -2.2000004E-01;1095; -3.3618833E-04;  0.0000000E+00; -5.2650979E-05;  1.0000040E+03;  4.0000001E-01;  3.2591665E+00;3; -3.8428721E-01;  0.0000000E+00; -5.7628106E-02;0; -4.8938892E-03;  1.0000083E+04;  0.0000000E+00;  3.6945547E-10;  1.0000000E+04;  0.0000000E+00;  9.9999980E+03; -5.0646625E-03;  0.0000000E+00;  1.7077343E-04;  1.3347653E+00;
  3.9999761E-02;  9.9999998E-03; -2.0000003E-01;1096; -3.5793256E-04;  0.0000000E+00; -4.4895616E-05;  1.0000042E+03;  4.0000001E-01;  3.4566917E+00;3; -4.0635473E-01;  0.0000000E+00; -4.8222709E-02;0; -5.1621320E-03;  1.0000088E+04;  0.0000000E+00;  2.2277002E-10;  1.0000000E+04;  0.0000000E+00;  9.9999971E+03; -5.4014171E-03;  0.0000000E+00;  2.3928509E-04;  1.8079524E+00;
  5.9999853E-02;  9.9999998E-03; -3.0000004E-01;1122; -2.1851998E-04;  0.0000000E+00; -7.8181009E-05;  1.0000028E+03;  4.0000001E-01;  2.3703029E+00;3; -2.6829657E-01;  0.0000000E+00; -9.2677325E-02;0; -3.4567227E-03;  1.0000049E+04;  0.0000000E+00; -3.8208285E-07;  1.0000000E+04;  0.0000000E+00;  1.0000008E+04; -2.9423260E-03;  0.0000000E+00; -5.1439676E-04;  3.3887513E+00;
  5.9999797E-02;  9.9999998E-03; -2.8000006E-01;1123; -2.9923045E-04;  0.0000000E+00; -7.6747870E-05;  1.0000037E+03;  4.0000001E-01;  3.0616415E+00;3; -3.5304818E-01;  0.0000000E+00; -8.6041093E-02;0; -4.2956308E-03;  1.0000065E+04;  0.0000000E+00; -1.0178474E-07;  1.0000000E+04;  0.0000000E+00;  1.0000005E+04; -3.9469479E-03;  0.0000000E+00; -3.4868292E-04;  2.2175224E+00;
  5.9999753E-02;  9.9999998E-03; -2.6000005E-01;1124; -3.6664703E-04;  0.0000000E+00; -7.5020274E-05;  1.0000042E+03;  4.0000001E-01;  3.4566917E+00;3; -4.1855925E-01;  0.0000000E+00; -8.0802172E-02;0; -4.9992288E-03;  1.0000080E+04;  0.0000000E+00; -9.9508202E-10;  1.0000000E+04;  0.0000000E+00;  1.0000002E+04; -4.8678350E-03;  0.0000000E+00; -1.3139396E-04;  7.0136845E-01;
  5.9999716E-02;  9.9999998E-03; -2.4000005E-01;1125; -4.2066432E-04;  0.0000000E+00; -6.9444955E-05;  1.0000047E+03;  4.0000001E-01;  3.8517423E+00;3; -4.6946225E-01;  0.0000000E+00; -7.2579406E-02;0; -5.5448608E-03;  1.0000094E+04;  0.0000000E+00;  1.9907555E-11;  1.0000000E+04;  0.0000000E+00;  1.0000000E+04; -5.6172400E-03;  0.0000000E+00;  7.2379349E-05;  7.2028458E-01;
  5.9999689E-02;  9.9999998E-03; -2.2000004E-01;1126; -4.6056358E-04;  0.0000000E+00; -6.2021638E-05;  1.0000049E+03;  4.0000001E-01;  4.0492678E+00;3; -5.0714099E-01;  0.0000000E+00; -6.3347794E-02;0; -5.9490753E-03;  1.0000104E+04;  0.0000000E+00;  1.1193397E-10;  1.0000000E+04;  0.0000000E+00;  9.9999971E+03; -6.1697913E-03;  0.0000000E+00;  2.2071609E-04;  1.7618977E+00;
  5.9999671E-02;  9.9999998E-03; -2.0000003E-01;1127; -4.8873149E-04;  0.0000000E+00; -5.2842366E-05;  1.0000052E+03;  4.0000001E-01;  4.3455553E+00;3; -5.3422678E-01;  0.0000000E+00; -5.2834578E-02;0; -6.2429332E-03;  1.0000110E+04;  0.0000000E+00; -2.7413277E-10;  1.0000000E+04;  0.0000000E+00;  9.9999951E+03; -6.5447772E-03;  0.0000000E+00;  3.0184386E-04;  2.3451176E+00;
  7.9999797E-02;  9.9999998E-03; -3.0000007E-01;1153; -2.9629836E-04;  0.0000000E+00; -9.3256422E-05;  1.0000037E+03;  4.0000001E-01;  3.0616415E+00;3; -3.5619178E-01;  0.0000000E+00; -1.0576764E-01;0; -4.3188347E-03;  1.0000063E+04;  0.0000000E+00; -4.3155065E-05;  1.0000000E+04;  0.0000000E+00;  1.0000011E+04; -3.6981842E-03;  0.0000000E+00; -6.2065077E-04;  4.2578354E+00;
  7.9999723E-02;  9.9999998E-03; -2.8000006E-01;1154; -4.0388171E-04;  0.0000000E+00; -8.9783061E-05;  1.0000046E+03;  4.0000001E-01;  3.7529798E+00;3; -4.6493262E-01;  0.0000000E+00; -9.5207691E-02;0; -5.3344276E-03;  1.0000084E+04;  0.0000000E+00; -2.4416599E-05;  1.0000000E+04;  0.0000000E+00;  1.0000007E+04; -4.9226992E-03;  0.0000000E+00; -4.1172822E-04;  2.7282951E+00;
  7.9999663E-02;  9.9999998E-03; -2.6000005E-01;1155; -4.9203518E-04;  0.0000000E+00; -8.7113913E-05;  1.0000052E+03;  4.0000001E-01;  4.3455553E+00;3; -5.4658782E-01;  0.0000000E+00; -8.8206977E-02;0; -6.1718831E-03;  1.0000103E+04;  0.0000000E+00; -8.5967604E-06;  1.0000000E+04;  0.0000000E+00;  1.0000002E+04; -6.0277721E-03;  0.0000000E+00; -1.4411096E-04;  7.8834629E-01;
  7.9999618E-02;  9.9999998E-03; -2.4000005E-01;1156; -5.6148286E-04;  0.0000000E+00; -8.0175312E-05;  1.0000059E+03;  4.0000001E-01;  4.8393683E+00;3; -6.0871208E-01;  0.0000000E+00; -7.8466073E-02;0; -6.8079252E-03;  1.0000118E+04;  0.0000000E+00; -9.4994266E-07;  1.0000000E+04;  0.0000000E+00;  9.9999990E+03; -6.9101676E-03;  0.0000000E+00;  1.0224234E-04;  1.0018624E+00;
  7.9999581E-02;  9.9999998E-03; -2.2000006E-01;1157; -6.1184156E-04;  0.0000000E+00; -7.1347895E-05;  1.0000063E+03;  4.0000001E-01;  5.2344189E+00;3; -6.5396088E-01;  0.0000000E+00; -6.7990087E-02;0; -7.2660055E-03;  1.0000128E+04;  0.0000000E+00; -1.4693690E-09;  1.0000000E+04;  0.0000000E+00;  9.9999951E+03; -7.5439694E-03;  0.0000000E+00;  2.7796396E-04;  2.2899835E+00;
  7.9999559E-02;  9.9999998E-03; -2.0000005E-01;1158; -6.4659503E-04;  0.0000000E+00; -6.0583712E-05;  1.0000065E+03;  4.0000001E-01;  5.3331819E+00;3; -6.8584561E-01;  0.0000000E+00; -5.6324814E-02;0; -7.5862156E-03;  1.0000136E+04;  0.0000000E+00; -7.0649492E-10;  1.0000000E+04;  0.0000000E+00;  9.9999951E+03; -7.9572499E-03;  0.0000000E+00;  3.7103449E-04;  2.9920354E+00;
  9.9999726E-02;  9.9999998E-03; -3.0000007E-01;1184; -3.9546806E-04;  0.0000000E+00; -1.1209869E-04;  1.0000048E+03;  4.0000001E-01;  3.9505050E+00;3; -4.6666029E-01;  0.0000000E+00; -1.2205553E-01;0; -5.5361036E-03;  1.0000083E+04;  0.0000000E+00; -4.1024238E-04;  1.0000000E+04;  0.0000000E+00;  1.0000013E+04; -4.7967331E-03;  0.0000000E+00; -7.3937036E-04;  5.6098299E+00;
  9.9999629E-02;  9.9999998E-03; -2.8000009E-01;1185; -5.3554808E-04;  0.0000000E+00; -1.0477805E-04;  1.0000059E+03;  4.0000001E-01;  4.9381313E+00;3; -6.0373306E-01;  0.0000000E+00; -1.0527268E-01;0; -6.7467205E-03;  1.0000108E+04;  0.0000000E+00; -2.6266824E-04;  1.0000000E+04;  0.0000000E+00;  1.0000009E+04; -6.2677548E-03;  0.0000000E+00; -4.7896587E-04;  3.5182722E+00;
  9.9999547E-02;  9.9999998E-03; -2.6000008E-01;1186; -6.4784882E-04;  0.0000000E+00; -1.0015495E-04;  1.0000068E+03;  4.0000001E-01;  5.6294694E+00;3; -7.0341408E-01;  0.0000000E+00; -9.5300555E-02;0; -7.7141612E-03;  1.0000133E+04;  0.0000000E+00; -1.2323352E-04;  1.0000000E+04;  0.0000000E+00;  1.0000003E+04; -7.5618112E-03;  0.0000000E+00; -1.5234979E-04;  1.0143862E+00;
  9.9999487E-02;  9.9999998E-03; -2.4000007E-01;1187; -7.3454011E-04;  0.0000000E+00; -9.1360904E-05;  1.0000073E+03;  4.0000001E-01;  6.0245199E+00;3; -7.7738637E-01;  0.0000000E+00; -8.3577305E-02;0; -8.4312726E-03;  1.0000151E+04;  0.0000000E+00; -3.4828594E-05;  1.0000000E+04;  0.0000000E+00;  9.9999980E+03; -8.5732359E-03;  0.0000000E+00;  1.4196320E-04;  1.4064043E+00;
  9.9999443E-02;  9.9999998E-03; -2.2000006E-01;1188; -7.9596339E-04;  0.0000000E+00; -8.1031154E-05;  1.0000078E+03;  4.0000001E-01;  6.5183330E+00;3; -8.3002460E-01;  0.0000000E+00; -7.1880303E-02;0; -8.9379027E-03;  1.0000161E+04;  0.0000000E+00; -4.0236696E-06;  1.0000000E+04;  0.0000000E+00;  9.9999951E+03; -9.2849098E-03;  0.0000000E+00;  3.4700663E-04;  2.9712927E+00;
  9.9999413E-02;  9.9999998E-03; -2.0000005E-01;1189; -8.3726685E-04;  0.0000000E+00; -6.8612906E-05;  1.0000082E+03;  4.0000001E-01;  6.8146210E+00;3; -8.6618429E-01;  0.0000000E+00; -5.9160948E-02;0; -9.2823170E-03;  1.0000172E+04;  0.0000000E+00; -1.5405383E-09;  1.0000000E+04;  0.0000000E+00;  9.9999932E+03; -9.7342767E-03;  0.0000000E+00;  4.5195949E-04;  3.8049769E+00;
  1.1999962E-01;  9.9999998E-03; -3.0000010E-01;1215; -5.2349747E-04;  0.0000000E+00; -1.3693504E-04;  1.0000066E+03;  4.0000001E-01;  5.4319444E+00;3; -6.0701877E-01;  0.0000000E+00; -1.4389187E-01;0; -7.3888679E-03;  1.0000114E+04;  0.0000000E+00; -1.8623276E-03;  1.0000000E+04;  0.0000000E+00;  1.0000017E+04; -6.5100240E-03;  0.0000000E+00; -8.7884400E-04;  1.0871036E+01;
  1.1999950E-01;  9.9999998E-03; -2.8000009E-01;1216; -7.0269557E-04;  0.0000000E+00; -1.2325063E-04;  1.0000078E+03;  4.0000001E-01;  6.5183330E+00;3; -7.7709597E-01;  0.0000000E+00; -1.1742848E-01;0; -8.7794662E-03;  1.0000147E+04;  0.0000000E+00; -1.2896300E-03;  1.0000000E+04;  0.0000000E+00;  1.0000010E+04; -8.2280561E-03;  0.0000000E+00; -5.5140979E-04;  7.2039051E+00;
  1.1999940E-01;  9.9999998E-03; -2.6000008E-01;1217; -8.4279780E-04;  0.0000000E+00; -1.1529530E-04;  1.0000089E+03;  4.0000001E-01;  7.4071970E+00;3; -8.9620161E-01;  0.0000000E+00; -1.0304669E-01;0; -9.8116416E-03;  1.0000173E+04;  0.0000000E+00; -6.5954449E-04;  1.0000000E+04;  0.0000000E+00;  1.0000003E+04; -9.6623171E-03;  0.0000000E+00; -1.4932427E-04;  3.1922524E+00;
  1.1999933E-01;  9.9999998E-03; -2.4000008E-01;1218; -9.4862224E-04;  0.0000000E+00; -1.0388720E-04;  1.0000094E+03;  4.0000001E-01;  7.8022475E+00;3; -9.8229408E-01;  0.0000000E+00; -8.8557109E-02;0; -1.0546767E-02;  1.0000191E+04;  0.0000000E+00; -2.3509878E-04;  1.0000000E+04;  0.0000000E+00;  9.9999971E+03; -1.0749674E-02;  0.0000000E+00;  2.0290766E-04;  2.3016753E+00;
  1.1999927E-01;  9.9999998E-03; -2.2000007E-01;1219; -1.0216106E-03;  0.0000000E+00; -9.1957932E-05;  1.0000099E+03;  4.0000001E-01;  8.1972980E+00;3; -1.0416521E+00;  0.0000000E+00; -7.5773805E-02;0; -1.1059913E-02;  1.0000206E+04;  0.0000000E+00; -4.8807276E-05;  1.0000000E+04;  0.0000000E+00;  9.9999932E+03; -1.1499926E-02;  0.0000000E+00;  4.4001278E-04;  3.9296823E+00;
  1.1999924E-01;  9.9999998E-03; -2.0000006E-01;1220; -1.0693163E-03;  0.0000000E+00; -7.7753204E-05;  1.0000104E+03;  4.0000001E-01;  8.6911106E+00;3; -1.0812643E+00;  0.0000000E+00; -6.2011264E-02;0; -1.1408297E-02;  1.0000215E+04;  0.0000000E+00; -3.6233826E-06;  1.0000000E+04;  0.0000000E+00;  9.9999902E+03; -1.1963888E-02;  0.0000000E+00;  5.5559084E-04;  4.8889618E+00;
  1.3999949E-01;  9.9999998E-03; -3.0000013E-01;1246; -6.9111184E-04;  0.0000000E+00; -1.7035560E-04;  1.0000093E+03;  4.0000001E-01;  7.7034845E+00;3; -7.8747678E-01;  0.0000000E+00; -1.7349333E-01;0; -1.0292463E-02;  1.0000167E+04;  0.0000000E+00; -5.8917031E-03;  1.0000000E+04;  0.0000000E+00;  1.0000021E+04; -9.2445165E-03;  0.0000000E+00; -1.0479470E-03;  2.8809000E+01;
  1.3999933E-01;  9.9999998E-03; -2.8000012E-01;1247; -9.1628288E-04;  0.0000000E+00; -1.4767016E-04;  1.0000107E+03;  4.0000001E-01;  8.8886366E+00;3; -9.9409103E-01;  0.0000000E+00; -1.3404357E-01;0; -1.1765772E-02;  1.0000202E+04;  0.0000000E+00; -4.1901222E-03;  1.0000000E+04;  0.0000000E+00;  1.0000012E+04; -1.1140408E-02;  0.0000000E+00; -6.2536367E-04;  2.0239803E+01;
  1.3999921E-01;  9.9999998E-03; -2.6000011E-01;1248; -1.0881304E-03;  0.0000000E+00; -1.3441716E-04;  1.0000115E+03;  4.0000001E-01;  9.5799742E+00;3; -1.1333432E+00;  0.0000000E+00; -1.1323708E-01;0; -1.2694005E-02;  1.0000229E+04;  0.0000000E+00; -2.2220120E-03;  1.0000000E+04;  0.0000000E+00;  1.0000002E+04; -1.2577057E-02;  0.0000000E+00; -1.1694810E-04;  1.0497690E+01;
  1.3999912E-01;  9.9999998E-03; -2.4000010E-01;1249; -1.2146024E-03;  0.0000000E+00; -1.1988332E-04;  1.0000122E+03;  4.0000001E-01;  1.0073788E+01;3; -1.2308083E+00;  0.0000000E+00; -9.5235780E-02;0; -1.3301731E-02;  1.0000249E+04;  0.0000000E+00; -8.6164952E-04;  1.0000000E+04;  0.0000000E+00;  9.9999951E+03; -1.3613154E-02;  0.0000000E+00;  3.1142280E-04;  5.1310124E+00;
  1.3999905E-01;  9.9999998E-03; -2.2000009E-01;1250; -1.2997548E-03;  0.0000000E+00; -1.0584803E-04;  1.0000126E+03;  4.0000001E-01;  1.0468838E+01;3; -1.2959155E+00;  0.0000000E+00; -8.1175923E-02;0; -1.3728458E-02;  1.0000263E+04;  0.0000000E+00; -2.2144360E-04;  1.0000000E+04;  0.0000000E+00;  9.9999902E+03; -1.4312769E-02;  0.0000000E+00;  5.8431120E-04;  5.4925284E+00;
  1.3999902E-01;  9.9999998E-03; -2.0000008E-01;1251; -1.3534282E-03;  0.0000000E+00; -8.9636567E-05;  1.0000129E+03;  4.0000001E-01;  1.0765126E+01;3; -1.3375922E+00;  0.0000000E+00; -6.6347815E-02;0; -1.4033328E-02;  1.0000272E+04;  0.0000000E+00; -2.9536068E-05;  1.0000000E+04;  0.0000000E+00;  9.9999873E+03; -1.4738477E-02;  0.0000000E+00;  7.0514920E-04;  6.4513483E+00;
  1.5999933E-01;  9.9999998E-03; -3.0000019E-01;1277; -9.1364101E-04;  0.0000000E+00; -2.1257719E-04;  1.0000135E+03;  4.0000001E-01;  1.1258939E+01;3; -1.0226569E+00;  0.0000000E+00; -2.0963836E-01;0; -1.4741222E-02;  1.0000249E+04;  0.0000000E+00; -1.4694377E-02;  1.0000000E+04;  0.0000000E+00;  1.0000024E+04; -1.3485770E-02;  0.0000000E+00; -1.2554529E-03;  7.0067169E+01;
  1.5999912E-01;  9.9999998E-03; -2.8000015E-01;1278; -1.1896624E-03;  0.0000000E+00; -1.8018283E-04;  1.0000150E+03;  4.0000001E-01;  1.2345328E+01;3; -1.2653767E+00;  0.0000000E+00; -1.5658557E-01;0; -1.6040588E-02;  1.0000284E+04;  0.0000000E+00; -1.0374726E-02;  1.0000000E+04;  0.0000000E+00;  1.0000014E+04; -1.5354313E-02;  0.0000000E+00; -6.8627473E-04;  4.9348225E+01;
  1.5999897E-01;  9.9999998E-03; -2.6000014E-01;1279; -1.3964486E-03;  0.0000000E+00; -1.6031321E-04;  1.0000154E+03;  4.0000001E-01;  1.2740378E+01;3; -1.4236863E+00;  0.0000000E+00; -1.2779891E-01;0; -1.6561089E-02;  1.0000310E+04;  0.0000000E+00; -5.5190744E-03;  1.0000000E+04;  0.0000000E+00;  1.0000000E+04; -1.6543448E-02;  0.0000000E+00; -1.7641287E-05;  2.6200571E+01;
  1.5999885E-01;  9.9999998E-03; -2.4000013E-01;1280; -1.5446942E-03;  0.0000000E+00; -1.4304725E-04;  1.0000158E+03;  4.0000001E-01;  1.3135429E+01;3; -1.5304786E+00;  0.0000000E+00; -1.0712416E-01;0; -1.6814722E-02;  1.0000325E+04;  0.0000000E+00; -2.2013211E-03;  1.0000000E+04;  0.0000000E+00;  9.9999902E+03; -1.7331753E-02;  0.0000000E+00;  5.1703159E-04;  1.1669877E+01;
  1.5999877E-01;  9.9999998E-03; -2.2000012E-01;1281; -1.6425307E-03;  0.0000000E+00; -1.2610390E-04;  1.0000161E+03;  4.0000001E-01;  1.3332954E+01;3; -1.6000499E+00;  0.0000000E+00; -9.1026977E-02;0; -1.7023368E-02;  1.0000338E+04;  0.0000000E+00; -6.2020816E-04;  1.0000000E+04;  0.0000000E+00;  9.9999834E+03; -1.7852232E-02;  0.0000000E+00;  8.2886440E-04;  8.3536949E+00;
  1.5999873E-01;  9.9999998E-03; -2.0000009E-01;1282; -1.7017398E-03;  0.0000000E+00; -1.0671388E-04;  1.0000164E+03;  4.0000001E-01;  1.3629242E+01;3; -1.6421703E+00;  0.0000000E+00; -7.4665174E-02;0; -1.7220322E-02;  1.0000345E+04;  0.0000000E+00; -1.0484389E-04;  1.0000000E+04;  0.0000000E+00;  9.9999824E+03; -1.8161975E-02;  0.0000000E+00;  9.4165187E-04;  8.8588371E+00;
  1.7999908E-01;  9.9999998E-03; -3.0000022E-01;1308; -1.2128399E-03;  0.0000000E+00; -2.5790426E-04;  1.0000198E+03;  4.0000001E-01;  1.6394596E+01;3; -1.3342810E+00;  0.0000000E+00; -2.4239767E-01;0; -2.1035919E-02;  1.0000363E+04;  0.0000000E+00; -2.9746890E-02;  1.0000000E+04;  0.0000000E+00;  1.0000030E+04; -1.9513128E-02;  0.0000000E+00; -1.5227913E-03;  1.4176547E+02;
  1.7999883E-01;  9.9999998E-03; -2.8000021E-01;1309; -1.5397157E-03;  0.0000000E+00; -2.2051123E-04;  1.0000204E+03;  4.0000001E-01;  1.6987171E+01;3; -1.6036892E+00;  0.0000000E+00; -1.8400204E-01;0; -2.1717945E-02;  1.0000396E+04;  0.0000000E+00; -2.0527653E-02;  1.0000000E+04;  0.0000000E+00;  1.0000014E+04; -2.1016216E-02;  0.0000000E+00; -7.0172868E-04;  9.7829796E+01;
  1.7999865E-01;  9.9999998E-03; -2.6000017E-01;1310; -1.7820421E-03;  0.0000000E+00; -1.9679351E-04;  1.0000204E+03;  4.0000001E-01;  1.6888409E+01;3; -1.7766334E+00;  0.0000000E+00; -1.5022010E-01;0; -2.1442872E-02;  1.0000412E+04;  0.0000000E+00; -1.0742585E-02;  1.0000000E+04;  0.0000000E+00;  9.9999971E+03; -2.1662347E-02;  0.0000000E+00;  2.1947507E-04;  5.1361217E+01;
  1.7999852E-01;  9.9999998E-03; -2.4000016E-01;1311; -1.9534749E-03;  0.0000000E+00; -1.7655973E-04;  1.0000203E+03;  4.0000001E-01;  1.6789646E+01;3; -1.8903708E+00;  0.0000000E+00; -1.2711528E-01;0; -2.1108272E-02;  1.0000423E+04;  0.0000000E+00; -4.2846631E-03;  1.0000000E+04;  0.0000000E+00;  9.9999824E+03; -2.2009283E-02;  0.0000000E+00;  9.0101152E-04;  2.2330973E+01;
  1.7999843E-01;  9.9999998E-03; -2.2000015E-01;1312; -2.0643293E-03;  0.0000000E+00; -1.5525128E-04;  1.0000203E+03;  4.0000001E-01;  1.6789646E+01;3; -1.9625121E+00;  0.0000000E+00; -1.0788423E-01;0; -2.0983901E-02;  1.0000431E+04;  0.0000000E+00; -1.2494385E-03;  1.0000000E+04;  0.0000000E+00;  9.9999766E+03; -2.2231227E-02;  0.0000000E+00;  1.2473257E-03;  1.3278334E+01;
  1.7999837E-01;  9.9999998E-03; -2.0000012E-01;1313; -2.1277142E-03;  0.0000000E+00; -1.3197790E-04;  1.0000204E+03;  4.0000001E-01;  1.6888409E+01;3; -2.0025680E+00;  0.0000000E+00; -8.9839786E-02;0; -2.1023711E-02;  1.0000434E+04;  0.0000000E+00; -2.3430672E-04;  1.0000000E+04;  0.0000000E+00;  9.9999746E+03; -2.2348737E-02;  0.0000000E+00;  1.3250255E-03;  1.2651110E+01;
  1.9999875E-01;  9.9999998E-03; -3.0000028E-01;1339; -1.6144825E-03;  0.0000000E+00; -3.0636284E-04;  1.0000275E+03;  4.0000001E-01;  2.2715403E+01;3; -1.7457443E+00;  0.0000000E+00; -2.7125382E-01;0; -2.8763201E-02;  1.0000509E+04;  0.0000000E+00; -4.8201170E-02;  1.0000000E+04;  0.0000000E+00;  1.0000040E+04; -2.6878884E-02;  0.0000000E+00; -1.8843175E-03;  2.3085979E+02;
  1.9999845E-01;  9.9999998E-03; -2.8000024E-01;1340; -1.9891588E-03;  0.0000000E+00; -2.6846418E-04;  1.0000273E+03;  4.0000001E-01;  2.2616640E+01;3; -2.0284309E+00;  0.0000000E+00; -2.1381831E-01;0; -2.8427152E-02;  1.0000536E+04;  0.0000000E+00; -3.2592602E-02;  1.0000000E+04;  0.0000000E+00;  1.0000013E+04; -2.7808761E-02;  0.0000000E+00; -6.1839126E-04;  1.5617076E+02;
  1.9999824E-01;  9.9999998E-03; -2.6000023E-01;1341; -2.2646785E-03;  0.0000000E+00; -2.4433268E-04;  1.0000264E+03;  4.0000001E-01;  2.1826540E+01;3; -2.2060151E+00;  0.0000000E+00; -1.7969453E-01;0; -2.7093921E-02;  1.0000543E+04;  0.0000000E+00; -1.6686289E-02;  1.0000000E+04;  0.0000000E+00;  9.9999863E+03; -2.7796535E-02;  0.0000000E+00;  7.0261484E-04;  8.0505783E+01;
  1.9999808E-01;  9.9999998E-03; -2.4000020E-01;1342; -2.4593242E-03;  0.0000000E+00; -2.2183523E-04;  1.0000255E+03;  4.0000001E-01;  2.1135202E+01;3; -2.3220208E+00;  0.0000000E+00; -1.5586385E-01;0; -2.6070293E-02;  1.0000544E+04;  0.0000000E+00; -6.5595033E-03;  1.0000000E+04;  0.0000000E+00;  9.9999688E+03; -2.7646769E-02;  0.0000000E+00;  1.5764765E-03;  3.5070560E+01;
  1.9999798E-01;  9.9999998E-03; -2.2000019E-01;1343; -2.5811002E-03;  0.0000000E+00; -1.9813307E-04;  1.0000252E+03;  4.0000001E-01;  2.0838913E+01;3; -2.3920093E+00;  0.0000000E+00; -1.3626167E-01;0; -2.5594028E-02;  1.0000547E+04;  0.0000000E+00; -1.9186317E-03;  1.0000000E+04;  0.0000000E+00;  9.9999600E+03; -2.7529206E-02;  0.0000000E+00;  1.9351786E-03;  2.0574823E+01;
  1.9999792E-01;  9.9999998E-03; -2.0000017E-01;1344; -2.6471056E-03;  0.0000000E+00; -1.6841170E-04;  1.0000255E+03;  4.0000001E-01;  2.1135202E+01;3; -2.4271817E+00;  0.0000000E+00; -1.1470375E-01;0; -2.5483271E-02;  1.0000546E+04;  0.0000000E+00; -3.7254975E-04;  1.0000000E+04;  0.0000000E+00;  9.9999609E+03; -2.7412210E-02;  0.0000000E+00;  1.9289383E-03;  1.8473944E+01;
  2.1999833E-01;  9.9999998E-03; -3.0000046E-01;1370; -2.1083551E-03;  0.0000000E+00; -4.7757311E-04;  1.0000350E+03;  4.0000001E-01;  2.9036211E+01;3; -2.2385812E+00;  0.0000000E+00; -4.1572094E-01;0; -3.5832539E-02;  1.0000664E+04;  0.0000000E+00; -6.2627837E-02;  1.0000000E+04;  0.0000000E+00;  1.0000032E+04; -3.4284271E-02;  0.0000000E+00; -1.5482686E-03;  3.0164981E+02;
  2.1999797E-01;  9.9999998E-03; -2.8000036E-01;1371; -2.5557771E-03;  0.0000000E+00; -3.7642010E-04;  1.0000347E+03;  4.0000001E-01;  2.8739923E+01;3; -2.5509191E+00;  0.0000000E+00; -2.9215002E-01;0; -3.5181552E-02;  1.0000688E+04;  0.0000000E+00; -4.1452147E-02;  1.0000000E+04;  0.0000000E+00;  1.0000001E+04; -3.5072573E-02;  0.0000000E+00; -1.0897953E-04;  1.9996800E+02;
  2.1999772E-01;  9.9999998E-03; -2.6000032E-01;1372; -2.8662686E-03;  0.0000000E+00; -3.2713352E-04;  1.0000330E+03;  4.0000001E-01;  2.7258484E+01;3; -2.7256427E+00;  0.0000000E+00; -2.3634869E-01;0; -3.3053279E-02;  1.0000689E+04;  0.0000000E+00; -2.0750990E-02;  1.0000000E+04;  0.0000000E+00;  9.9999678E+03; -3.4684960E-02;  0.0000000E+00;  1.6316827E-03;  1.0169650E+02;
  2.1999754E-01;  9.9999998E-03; -2.4000028E-01;1373; -3.0831841E-03;  0.0000000E+00; -2.9045413E-04;  1.0000318E+03;  4.0000001E-01;  2.6369621E+01;3; -2.8375218E+00;  0.0000000E+00; -2.0218617E-01;0; -3.1522978E-02;  1.0000690E+04;  0.0000000E+00; -7.9681901E-03;  1.0000000E+04;  0.0000000E+00;  9.9999463E+03; -3.4204733E-02;  0.0000000E+00;  2.6817559E-03;  4.6382233E+01;
  2.1999742E-01;  9.9999998E-03; -2.2000025E-01;1374; -3.2128119E-03;  0.0000000E+00; -2.5878981E-04;  1.0000313E+03;  4.0000001E-01;  2.5974569E+01;3; -2.8988113E+00;  0.0000000E+00; -1.7988673E-01;0; -3.0825144E-02;  1.0000688E+04;  0.0000000E+00; -2.2866915E-03;  1.0000000E+04;  0.0000000E+00;  9.9999385E+03; -3.3815350E-02;  0.0000000E+00;  2.9902067E-03;  3.0442610E+01;
  2.1999736E-01;  9.9999998E-03; -2.0000021E-01;1375; -3.2780534E-03;  0.0000000E+00; -2.1983171E-04;  1.0000314E+03;  4.0000001E-01;  2.5974569E+01;3; -2.9248869E+00;  0.0000000E+00; -1.5273076E-01;0; -3.0641148E-02;  1.0000686E+04;  0.0000000E+00; -4.3775528E-04;  1.0000000E+04;  0.0000000E+00;  9.9999443E+03; -3.3467244E-02;  0.0000000E+00;  2.8260960E-03;  2.6987848E+01;
  2.3999773E-01;  9.9999998E-03; -3.0000085E-01;1401; -2.7932518E-03;  0.0000000E+00; -9.3891297E-04;  1.0000401E+03;  4.0000001E-01;  3.3184242E+01;3; -2.8977549E+00;  0.0000000E+00; -8.6346436E-01;0; -3.9838128E-02;  1.0000832E+04;  0.0000000E+00; -6.5409757E-02;  1.0000000E+04;  0.0000000E+00;  9.9999727E+03; -4.1697107E-02;  0.0000000E+00;  1.8589811E-03;  3.1719556E+02;
  2.3999733E-01;  9.9999998E-03; -2.8000063E-01;1402; -3.2850916E-03;  0.0000000E+00; -6.5743423E-04;  1.0000413E+03;  4.0000001E-01;  3.4171867E+01;3; -3.2025790E+00;  0.0000000E+00; -5.3855002E-01;0; -4.0720057E-02;  1.0000862E+04;  0.0000000E+00; -4.2358052E-02;  1.0000000E+04;  0.0000000E+00;  9.9999639E+03; -4.2650070E-02;  0.0000000E+00;  1.9300118E-03;  2.0671761E+02;
  2.3999704E-01;  9.9999998E-03; -2.6000047E-01;1403; -3.6209456E-03;  0.0000000E+00; -5.0246663E-04;  1.0000398E+03;  4.0000001E-01;  3.2986717E+01;3; -3.3577559E+00;  0.0000000E+00; -3.7604737E-01;0; -3.8902868E-02;  1.0000866E+04;  0.0000000E+00; -2.0646170E-02;  1.0000000E+04;  0.0000000E+00;  9.9999297E+03; -4.2302571E-02;  0.0000000E+00;  3.3997053E-03;  1.0585289E+02;
  2.3999685E-01;  9.9999998E-03; -2.4000040E-01;1404; -3.8533621E-03;  0.0000000E+00; -4.0968001E-04;  1.0000388E+03;  4.0000001E-01;  3.2097855E+01;3; -3.4527242E+00;  0.0000000E+00; -2.9286498E-01;0; -3.7387572E-02;  1.0000865E+04;  0.0000000E+00; -7.6609352E-03;  1.0000000E+04;  0.0000000E+00;  9.9999102E+03; -4.1749489E-02;  0.0000000E+00;  4.3619149E-03;  5.5968082E+01;
  2.3999672E-01;  9.9999998E-03; -2.2000033E-01;1405; -3.9836685E-03;  0.0000000E+00; -3.5027714E-04;  1.0000384E+03;  4.0000001E-01;  3.1801565E+01;3; -3.4957263E+00;  0.0000000E+00; -2.4948792E-01;0; -3.6717273E-02;  1.0000860E+04;  0.0000000E+00; -2.1085425E-03;  1.0000000E+04;  0.0000000E+00;  9.9999072E+03; -4.1202269E-02;  0.0000000E+00;  4.4849967E-03;  4.3825508E+01;
  2.3999666E-01;  9.9999998E-03; -2.0000027E-01;1406; -4.0423125E-03;  0.0000000E+00; -2.9263072E-04;  1.0000385E+03;  4.0000001E-01;  3.1900328E+01;3; -3.5058806E+00;  0.0000000E+00; -2.0974211E-01;0; -3.6579620E-02;  1.0000856E+04;  0.0000000E+00; -3.7832701E-04;  1.0000000E+04;  0.0000000E+00;  9.9999160E+03; -4.0646970E-02;  0.0000000E+00;  4.0673506E-03;  3.8784798E+01;
  2.5999689E-01;  9.9999998E-03; -3.0000132E-01;1432; -3.7437484E-03;  0.0000000E+00; -1.4765614E-03;  1.0000448E+03;  4.0000001E-01;  3.7134743E+01;3; -3.7964563E+00;  0.0000000E+00; -1.3499362E+00;0; -4.2729333E-02;  1.0001028E+04;  0.0000000E+00; -5.3794086E-02;  1.0000000E+04;  0.0000000E+00;  9.9998672E+03; -5.0082792E-02;  0.0000000E+00;  7.3534604E-03;  2.6938815E+02;
  2.5999647E-01;  9.9999998E-03; -2.8000098E-01;1433; -4.2384099E-03;  0.0000000E+00; -1.0602421E-03;  1.0000477E+03;  4.0000001E-01;  3.9505047E+01;3; -4.0322685E+00;  0.0000000E+00; -8.8718110E-01;0; -4.5389608E-02;  1.0001065E+04;  0.0000000E+00; -3.4406088E-02;  1.0000000E+04;  0.0000000E+00;  9.9998857E+03; -5.1137201E-02;  0.0000000E+00;  5.7475944E-03;  1.7645665E+02;
  2.5999618E-01;  9.9999998E-03; -2.6000074E-01;1434; -4.5774900E-03;  0.0000000E+00; -7.7092118E-04;  1.0000473E+03;  4.0000001E-01;  3.9208759E+01;3; -4.1361156E+00;  0.0000000E+00; -5.9614891E-01;0; -4.4828326E-02;  1.0001075E+04;  0.0000000E+00; -1.6268162E-02;  1.0000000E+04;  0.0000000E+00;  9.9998701E+03; -5.1003255E-02;  0.0000000E+00;  6.1749290E-03;  9.9260757E+01;
  2.5999597E-01;  9.9999998E-03; -2.4000056E-01;1435; -4.8034680E-03;  0.0000000E+00; -5.9535005E-04;  1.0000467E+03;  4.0000001E-01;  3.8714947E+01;3; -4.1863251E+00;  0.0000000E+00; -4.4076672E-01;0; -4.3840144E-02;  1.0001076E+04;  0.0000000E+00; -5.7457029E-03;  1.0000000E+04;  0.0000000E+00;  9.9998604E+03; -5.0512318E-02;  0.0000000E+00;  6.6721728E-03;  6.9923141E+01;
  2.5999585E-01;  9.9999998E-03; -2.2000046E-01;1436; -4.9214331E-03;  0.0000000E+00; -4.8745068E-04;  1.0000468E+03;  4.0000001E-01;  3.8714947E+01;3; -4.1958694E+00;  0.0000000E+00; -3.5887319E-01;0; -4.3434363E-02;  1.0001073E+04;  0.0000000E+00; -1.4686234E-03;  1.0000000E+04;  0.0000000E+00;  9.9998652E+03; -4.9868725E-02;  0.0000000E+00;  6.4343628E-03;  6.1992035E+01;
  2.5999579E-01;  9.9999998E-03; -2.0000036E-01;1437; -4.9659805E-03;  0.0000000E+00; -3.9328609E-04;  1.0000472E+03;  4.0000001E-01;  3.9109997E+01;3; -4.1824131E+00;  0.0000000E+00; -2.9184359E-01;0; -4.3444514E-02;  1.0001063E+04;  0.0000000E+00; -2.2948351E-04;  1.0000000E+04;  0.0000000E+00;  9.9998818E+03; -4.9110241E-02;  0.0000000E+00;  5.6657251E-03;  5.4252529E+01;
  2.7999577E-01;  9.9999998E-03; -3.0000186E-01;1463; -4.9618268E-03;  0.0000000E+00; -1.9809930E-03;  1.0000516E+03;  4.0000001E-01;  4.2764214E+01;3; -4.9213324E+00;  0.0000000E+00; -1.7540436E+00;0; -4.7388595E-02;  1.0001285E+04;  0.0000000E+00; -3.4819648E-02;  1.0000000E+04;  0.0000000E+00;  9.9997480E+03; -6.0268018E-02;  0.0000000E+00;  1.2879425E-02;  2.0419893E+02;
  2.7999535E-01;  9.9999998E-03; -2.8000140E-01;1464; -5.4349569E-03;  0.0000000E+00; -1.4927107E-03;  1.0000554E+03;  4.0000001E-01;  4.5924618E+01;3; -5.0454450E+00;  0.0000000E+00; -1.2305074E+00;0; -5.0911490E-02;  1.0001321E+04;  0.0000000E+00; -2.1913603E-02;  1.0000000E+04;  0.0000000E+00;  9.9997881E+03; -6.1258823E-02;  0.0000000E+00;  1.0347333E-02;  1.4391951E+02;
  2.7999505E-01;  9.9999998E-03; -2.6000103E-01;1465; -5.7589435E-03;  0.0000000E+00; -1.0986787E-03;  1.0000565E+03;  4.0000001E-01;  4.6813480E+01;3; -5.0647779E+00;  0.0000000E+00; -8.5513908E-01;0; -5.1604204E-02;  1.0001333E+04;  0.0000000E+00; -9.9211391E-03;  1.0000000E+04;  0.0000000E+00;  9.9997949E+03; -6.1261725E-02;  0.0000000E+00;  9.6575189E-03;  1.0497198E+02;
  2.7999485E-01;  9.9999998E-03; -2.4000078E-01;1466; -5.9621399E-03;  0.0000000E+00; -8.4028434E-04;  1.0000565E+03;  4.0000001E-01;  4.6813480E+01;3; -5.0484171E+00;  0.0000000E+00; -6.3557410E-01;0; -5.1297497E-02;  1.0001333E+04;  0.0000000E+00; -3.2440023E-03;  1.0000000E+04;  0.0000000E+00;  9.9997959E+03; -6.0795553E-02;  0.0000000E+00;  9.4980551E-03;  9.3622101E+01;
  2.7999476E-01;  9.9999998E-03; -2.2000062E-01;1467; -6.0559441E-03;  0.0000000E+00; -6.6499546E-04;  1.0000571E+03;  4.0000001E-01;  4.7307293E+01;3; -5.0121384E+00;  0.0000000E+00; -5.0003028E-01;0; -5.1250406E-02;  1.0001326E+04;  0.0000000E+00; -7.2651962E-04;  1.0000000E+04;  0.0000000E+00;  9.9998115E+03; -6.0028154E-02;  0.0000000E+00;  8.7777479E-03;  8.5256981E+01;
  2.7999470E-01;  9.9999998E-03; -2.0000048E-01;1468; -6.0783918E-03;  0.0000000E+00; -5.2166829E-04;  1.0000577E+03;  4.0000001E-01;  4.7801105E+01;3; -4.9667821E+00;  0.0000000E+00; -3.9781904E-01;0; -5.1435437E-02;  1.0001313E+04;  0.0000000E+00; -8.5870801E-05;  1.0000000E+04;  0.0000000E+00;  9.9998379E+03; -5.9034858E-02;  0.0000000E+00;  7.5994199E-03;  7.3523254E+01;
  2.9999438E-01;  9.9999998E-03; -3.0000240E-01;1494; -6.4192163E-03;  0.0000000E+00; -2.4653520E-03;  1.0000623E+03;  4.0000001E-01;  5.1652840E+01;3; -6.2182460E+00;  0.0000000E+00; -2.1014004E+00;0; -5.5198696E-02;  1.0001610E+04;  0.0000000E+00; -1.7386615E-02;  1.0000000E+04;  0.0000000E+00;  9.9996367E+03; -7.2770223E-02;  0.0000000E+00;  1.7571528E-02;  1.8229539E+02;
  2.9999396E-01;  9.9999998E-03; -2.8000185E-01;1495; -6.8752272E-03;  0.0000000E+00; -1.9249534E-03;  1.0000663E+03;  4.0000001E-01;  5.4912006E+01;3; -6.2156625E+00;  0.0000000E+00; -1.5434819E+00;0; -5.8733303E-02;  1.0001640E+04;  0.0000000E+00; -1.0537185E-02;  1.0000000E+04;  0.0000000E+00;  9.9996855E+03; -7.3492132E-02;  0.0000000E+00;  1.4758830E-02;  1.4986774E+02;
  2.9999366E-01;  9.9999998E-03; -2.6000139E-01;1496; -7.1768505E-03;  0.0000000E+00; -1.4550309E-03;  1.0000679E+03;  4.0000001E-01;  5.6294682E+01;3; -6.1347108E+00;  0.0000000E+00; -1.1209669E+00;0; -6.0059771E-02;  1.0001652E+04;  0.0000000E+00; -4.4109924E-03;  1.0000000E+04;  0.0000000E+00;  9.9997080E+03; -7.3429957E-02;  0.0000000E+00;  1.3370184E-02;  1.3337119E+02;
  2.9999349E-01;  9.9999998E-03; -2.4000105E-01;1497; -7.3523172E-03;  0.0000000E+00; -1.1170456E-03;  1.0000685E+03;  4.0000001E-01;  5.6788494E+01;3; -6.0405054E+00;  0.0000000E+00; -8.4638143E-01;0; -6.0236018E-02;  1.0001648E+04;  0.0000000E+00; -1.2633647E-03;  1.0000000E+04;  0.0000000E+00;  9.9997227E+03; -7.2860263E-02;  0.0000000E+00;  1.2624244E-02;  1.2555079E+02;
  2.9999340E-01;  9.9999998E-03; -2.2000082E-01;1498; -7.4201440E-03;  0.0000000E+00; -8.7595120E-04;  1.0000693E+03;  4.0000001E-01;  5.7479836E+01;3; -5.9546871E+00;  0.0000000E+00; -6.6450375E-01;0; -6.0454767E-02;  1.0001637E+04;  0.0000000E+00; -2.1891543E-04;  1.0000000E+04;  0.0000000E+00;  9.9997529E+03; -7.1894847E-02;  0.0000000E+00;  1.1440081E-02;  1.1327464E+02;
  2.9999334E-01;  9.9999998E-03; -2.0000063E-01;1499; -7.4123810E-03;  0.0000000E+00; -6.7586504E-04;  1.0000701E+03;  4.0000001E-01;  5.8072411E+01;3; -5.8708334E+00;  0.0000000E+00; -5.2517754E-01;0; -6.0775474E-02;  1.0001617E+04;  0.0000000E+00; -1.3646591E-05;  1.0000000E+04;  0.0000000E+00;  9.9997891E+03; -7.0614792E-02;  0.0000000E+00;  9.8393196E-03;  9.6670044E+01;
  3.1999272E-01;  9.9999998E-03; -3.0000299E-01;1525; -8.0959182E-03;  0.0000000E+00; -2.9764480E-03;  1.0000771E+03;  4.0000001E-01;  6.3899403E+01;3; -7.6502261E+00;  0.0000000E+00; -2.4417789E+00;0; -6.6020377E-02;  1.0002018E+04;  0.0000000E+00; -6.0825436E-03;  1.0000000E+04;  0.0000000E+00;  9.9995264E+03; -8.7689057E-02;  0.0000000E+00;  2.1668682E-02;  2.1258772E+02;
  3.1999227E-01;  9.9999998E-03; -2.8000236E-01;1526; -8.5570738E-03;  0.0000000E+00; -2.3717545E-03;  1.0000809E+03;  4.0000001E-01;  6.7059807E+01;3; -7.5234041E+00;  0.0000000E+00; -1.8402175E+00;0; -6.9189884E-02;  1.0002035E+04;  0.0000000E+00; -3.3691451E-03;  1.0000000E+04;  0.0000000E+00;  9.9995820E+03; -8.7986439E-02;  0.0000000E+00;  1.8796554E-02;  1.8821616E+02;
  3.1999198E-01;  9.9999998E-03; -2.6000178E-01;1527; -8.8513950E-03;  0.0000000E+00; -1.8358112E-03;  1.0000825E+03;  4.0000001E-01;  6.8343719E+01;3; -7.3409829E+00;  0.0000000E+00; -1.3852198E+00;0; -7.0579097E-02;  1.0002039E+04;  0.0000000E+00; -1.2208321E-03;  1.0000000E+04;  0.0000000E+00;  9.9996133E+03; -8.7701276E-02;  0.0000000E+00;  1.7122181E-02;  1.7424593E+02;
  3.1999177E-01;  9.9999998E-03; -2.4000135E-01;1528; -9.0071755E-03;  0.0000000E+00; -1.4233108E-03;  1.0000834E+03;  4.0000001E-01;  6.9133820E+01;3; -7.1703310E+00;  0.0000000E+00; -1.0723228E+00;0; -7.0947856E-02;  1.0002031E+04;  0.0000000E+00; -2.6499206E-04;  1.0000000E+04;  0.0000000E+00;  9.9996377E+03; -8.6925000E-02;  0.0000000E+00;  1.5977146E-02;  1.6328516E+02;
  3.1999171E-01;  9.9999998E-03; -2.2000104E-01;1529; -9.0467557E-03;  0.0000000E+00; -1.1103065E-03;  1.0000845E+03;  4.0000001E-01;  7.0022682E+01;3; -7.0299578E+00;  0.0000000E+00; -8.4596640E-01;0; -7.1303621E-02;  1.0002014E+04;  0.0000000E+00; -2.4209003E-05;  1.0000000E+04;  0.0000000E+00;  9.9996787E+03; -8.5696541E-02;  0.0000000E+00;  1.4392922E-02;  1.4604184E+02;
  3.1999168E-01;  9.9999998E-03; -2.0000079E-01;1530; -9.0044737E-03;  0.0000000E+00; -8.5261679E-04;  1.0000856E+03;  4.0000001E-01;  7.0911545E+01;3; -6.9050698E+00;  0.0000000E+00; -6.6916078E-01;0; -7.1698226E-02;  1.0001983E+04;  0.0000000E+00;  9.5785966E-09;  1.0000000E+04;  0.0000000E+00;  9.9997295E+03; -8.4073849E-02;  0.0000000E+00;  1.2375623E-02;  1.2392853E+02;
  3.3999076E-01;  9.9999998E-03; -3.0000368E-01;1556; -1.0011727E-02;  0.0000000E+00; -3.5411371E-03;  1.0000958E+03;  4.0000001E-01;  7.9306366E+01;3; -9.2110968E+00;  0.0000000E+00; -2.7933195E+00;0; -7.9310805E-02;  1.0002506E+04;  0.0000000E+00; -1.0471813E-03;  1.0000000E+04;  0.0000000E+00;  9.9994082E+03; -1.0489316E-01;  0.0000000E+00;  2.5582362E-02;  2.6488196E+02;
  3.3999023E-01;  9.9999998E-03; -2.8000292E-01;1557; -1.0511821E-02;  0.0000000E+00; -2.8598572E-03;  1.0000992E+03;  4.0000001E-01;  8.2170479E+01;3; -8.9724112E+00;  0.0000000E+00; -2.1436210E+00;0; -8.2042985E-02;  1.0002511E+04;  0.0000000E+00; -4.8908807E-04;  1.0000000E+04;  0.0000000E+00;  9.9994727E+03; -1.0480113E-01;  0.0000000E+00;  2.2758147E-02;  2.3885201E+02;
  3.3998990E-01;  9.9999998E-03; -2.6000223E-01;1558; -1.0821805E-02;  0.0000000E+00; -2.2477489E-03;  1.0001008E+03;  4.0000001E-01;  8.3553154E+01;3; -8.6942329E+00;  0.0000000E+00; -1.6521573E+00;0; -8.3259620E-02;  1.0002508E+04;  0.0000000E+00; -1.2314075E-04;  1.0000000E+04;  0.0000000E+00;  9.9995107E+03; -1.0427753E-01;  0.0000000E+00;  2.1017911E-02;  2.2216260E+02;
  3.3998969E-01;  9.9999998E-03; -2.4000169E-01;1559; -1.0968706E-02;  0.0000000E+00; -1.7606376E-03;  1.0001017E+03;  4.0000001E-01;  8.4244492E+01;3; -8.4467344E+00;  0.0000000E+00; -1.3098154E+00;0; -8.3627596E-02;  1.0002491E+04;  0.0000000E+00; -9.0999001E-06;  1.0000000E+04;  0.0000000E+00;  9.9995459E+03; -1.0326241E-01;  0.0000000E+00;  1.9634817E-02;  2.0704066E+02;
  3.3998963E-01;  9.9999998E-03; -2.2000130E-01;1560; -1.0981435E-02;  0.0000000E+00; -1.3733758E-03;  1.0001029E+03;  4.0000001E-01;  8.5232117E+01;3; -8.2513533E+00;  0.0000000E+00; -1.0453465E+00;0; -8.4037967E-02;  1.0002462E+04;  0.0000000E+00;  2.7388251E-07;  1.0000000E+04;  0.0000000E+00;  9.9995967E+03; -1.0172085E-01;  0.0000000E+00;  1.7682886E-02;  1.8424770E+02;
  3.3998966E-01;  9.9999998E-03; -2.0000097E-01;1561; -1.0897337E-02;  0.0000000E+00; -1.0480164E-03;  1.0001041E+03;  4.0000001E-01;  8.6219742E+01;3; -8.0827017E+00;  0.0000000E+00; -8.3114517E-01;0; -8.4465295E-02;  1.0002421E+04;  0.0000000E+00;  5.8520166E-09;  1.0000000E+04;  0.0000000E+00;  9.9996572E+03; -9.9681906E-02;  0.0000000E+00;  1.5216615E-02;  1.5566481E+02;
  3.5998836E-01;  9.9999998E-03; -3.0000454E-01;1587; -1.2228703E-02;  0.0000000E+00; -4.1898759E-03;  1.0001177E+03;  4.0000001E-01;  9.7577431E+01;3; -1.0938863E+01;  0.0000000E+00; -3.1726775E+00;0; -9.4603121E-02;  1.0003086E+04;  0.0000000E+00; -1.0713986E-05;  1.0000000E+04;  0.0000000E+00;  9.9992705E+03; -1.2455677E-01;  0.0000000E+00;  2.9953651E-02;  3.2976794E+02;
  3.5998774E-01;  9.9999998E-03; -2.8000361E-01;1588; -1.2802901E-02;  0.0000000E+00; -3.4115240E-03;  1.0001212E+03;  4.0000001E-01;  1.0034278E+02;3; -1.0594270E+01;  0.0000000E+00; -2.4628103E+00;0; -9.7142301E-02;  1.0003085E+04;  0.0000000E+00;  3.6098249E-06;  1.0000000E+04;  0.0000000E+00;  9.9993418E+03; -1.2427380E-01;  0.0000000E+00;  2.7131496E-02;  2.9921790E+02;
  3.5998732E-01;  9.9999998E-03; -2.6000276E-01;1589; -1.3146540E-02;  0.0000000E+00; -2.7082502E-03;  1.0001230E+03;  4.0000001E-01;  1.0192298E+02;3; -1.0214192E+01;  0.0000000E+00; -1.9352194E+00;0; -9.8216370E-02;  1.0003070E+04;  0.0000000E+00;  4.0233540E-06;  1.0000000E+04;  0.0000000E+00;  9.9993896E+03; -1.2356170E-01;  0.0000000E+00;  2.5345327E-02;  2.7831186E+02;
  3.5998714E-01;  9.9999998E-03; -2.4000210E-01;1590; -1.3291389E-02;  0.0000000E+00; -2.1353194E-03;  1.0001240E+03;  4.0000001E-01;  1.0271308E+02;3; -9.8847961E+00;  0.0000000E+00; -1.5637937E+00;0; -9.8542720E-02;  1.0003047E+04;  0.0000000E+00;  1.5219499E-06;  1.0000000E+04;  0.0000000E+00;  9.9994336E+03; -1.2227302E-01;  0.0000000E+00;  2.3730297E-02;  2.5825732E+02;
  3.5998708E-01;  9.9999998E-03; -2.2000159E-01;1591; -1.3274774E-02;  0.0000000E+00; -1.6641758E-03;  1.0001252E+03;  4.0000001E-01;  1.0379947E+02;3; -9.6305904E+00;  0.0000000E+00; -1.2614837E+00;0; -9.8961361E-02;  1.0003005E+04;  0.0000000E+00;  3.1886998E-07;  1.0000000E+04;  0.0000000E+00;  9.9995010E+03; -1.2032490E-01;  0.0000000E+00;  2.1363541E-02;  2.2870187E+02;
  3.5998714E-01;  9.9999998E-03; -2.0000118E-01;1592; -1.3139713E-02;  0.0000000E+00; -1.2624272E-03;  1.0001265E+03;  4.0000001E-01;  1.0478709E+02;3; -9.4147825E+00;  0.0000000E+00; -1.0067399E+00;0; -9.9366829E-02;  1.0002949E+04;  0.0000000E+00; -1.6009429E-10;  1.0000000E+04;  0.0000000E+00;  9.9995811E+03; -1.1773916E-01;  0.0000000E+00;  1.8372331E-02;  1.9221887E+02;
  3.7998542E-01;  9.9999998E-03; -3.0000558E-01;1618; -1.4838908E-02;  0.0000000E+00; -4.9460577E-03;  1.0001442E+03;  4.0000001E-01;  1.1940394E+02;3; -1.2888766E+01;  0.0000000E+00; -3.5878737E+00;0; -1.1227397E-01;  1.0003788E+04;  0.0000000E+00;  8.6418559E-06;  1.0000000E+04;  0.0000000E+00;  9.9990977E+03; -1.4752044E-01;  0.0000000E+00;  3.5246469E-02;  4.1187344E+02;
  3.7998465E-01;  9.9999998E-03; -2.8000441E-01;1619; -1.5507273E-02;  0.0000000E+00; -4.0509179E-03;  1.0001481E+03;  4.0000001E-01;  1.2276186E+02;3; -1.2420307E+01;  0.0000000E+00; -2.8135691E+00;0; -1.1477622E-01;  1.0003780E+04;  0.0000000E+00;  9.3184872E-06;  1.0000000E+04;  0.0000000E+00;  9.9991836E+03; -1.4709751E-01;  0.0000000E+00;  3.2321293E-02;  3.7319125E+02;
  3.7998420E-01;  9.9999998E-03; -2.6000336E-01;1620; -1.5893241E-02;  0.0000000E+00; -3.2328658E-03;  1.0001501E+03;  4.0000001E-01;  1.2444083E+02;3; -1.1921391E+01;  0.0000000E+00; -2.2467017E+00;0; -1.1580175E-01;  1.0003760E+04;  0.0000000E+00;  5.4399443E-06;  1.0000000E+04;  0.0000000E+00;  9.9992471E+03; -1.4612591E-01;  0.0000000E+00;  3.0324157E-02;  3.4488861E+02;
  3.7998399E-01;  9.9999998E-03; -2.4000254E-01;1621; -1.6036181E-02;  0.0000000E+00; -2.5542672E-03;  1.0001512E+03;  4.0000001E-01;  1.2523093E+02;3; -1.1498290E+01;  0.0000000E+00; -1.8422326E+00;0; -1.1606459E-01;  1.0003718E+04;  0.0000000E+00;  1.9759923E-06;  1.0000000E+04;  0.0000000E+00;  9.9993066E+03; -1.4441893E-01;  0.0000000E+00;  2.8354341E-02;  3.1793698E+02;
  3.7998396E-01;  9.9999998E-03; -2.2000192E-01;1622; -1.5983172E-02;  0.0000000E+00; -1.9841441E-03;  1.0001524E+03;  4.0000001E-01;  1.2621856E+02;3; -1.1179961E+01;  0.0000000E+00; -1.4972298E+00;0; -1.1641955E-01;  1.0003658E+04;  0.0000000E+00;  3.8242416E-07;  1.0000000E+04;  0.0000000E+00;  9.9993906E+03; -1.4187936E-01;  0.0000000E+00;  2.5459819E-02;  2.7986105E+02;
  3.7998411E-01;  9.9999998E-03; -2.0000140E-01;1623; -1.5784534E-02;  0.0000000E+00; -1.4959589E-03;  1.0001534E+03;  4.0000001E-01;  1.2710742E+02;3; -1.0914341E+01;  0.0000000E+00; -1.1972300E+00;0; -1.1671266E-01;  1.0003578E+04;  0.0000000E+00; -1.2547550E-09;  1.0000000E+04;  0.0000000E+00;  9.9994902E+03; -1.3854712E-01;  0.0000000E+00;  2.1834465E-02;  2.3377504E+02;
  3.9998180E-01;  9.9999998E-03; -3.0000684E-01;1649; -1.7926194E-02;  0.0000000E+00; -5.8328453E-03;  1.0001763E+03;  4.0000001E-01;  1.4606979E+02;3; -1.5096657E+01;  0.0000000E+00; -4.0479608E+00;0; -1.3296349E-01;  1.0004651E+04;  0.0000000E+00;  1.1581562E-05;  1.0000000E+04;  0.0000000E+00;  9.9988750E+03; -1.7468332E-01;  0.0000000E+00;  4.1719824E-02;  5.1525354E+02;
  3.9998087E-01;  9.9999998E-03; -2.8000540E-01;1650; -1.8699983E-02;  0.0000000E+00; -4.7979979E-03;  1.0001812E+03;  4.0000001E-01;  1.5011906E+02;3; -1.4471106E+01;  0.0000000E+00; -3.2066031E+00;0; -1.3542713E-01;  1.0004631E+04;  0.0000000E+00;  1.2707932E-05;  1.0000000E+04;  0.0000000E+00;  9.9989912E+03; -1.7395072E-01;  0.0000000E+00;  3.8523585E-02;  4.6289578E+02;
  3.9998034E-01;  9.9999998E-03; -2.6000410E-01;1651; -1.9132830E-02;  0.0000000E+00; -3.8352567E-03;  1.0001835E+03;  4.0000001E-01;  1.5199556E+02;3; -1.3828857E+01;  0.0000000E+00; -2.5976477E+00;0; -1.3646564E-01;  1.0004593E+04;  0.0000000E+00;  7.2978860E-06;  1.0000000E+04;  0.0000000E+00;  9.9990801E+03; -1.7250559E-01;  0.0000000E+00;  3.6039948E-02;  4.2246530E+02;
  3.9998013E-01;  9.9999998E-03; -2.4000306E-01;1652; -1.9270193E-02;  0.0000000E+00; -3.0233504E-03;  1.0001843E+03;  4.0000001E-01;  1.5268689E+02;3; -1.3299111E+01;  0.0000000E+00; -2.1517568E+00;0; -1.3661592E-01;  1.0004527E+04;  0.0000000E+00;  2.5688494E-06;  1.0000000E+04;  0.0000000E+00;  9.9991592E+03; -1.7013140E-01;  0.0000000E+00;  3.3515483E-02;  3.8619965E+02;
  3.9998019E-01;  9.9999998E-03; -2.2000229E-01;1653; -1.9169193E-02;  0.0000000E+00; -2.3366443E-03;  1.0001852E+03;  4.0000001E-01;  1.5337823E+02;3; -1.2911630E+01;  0.0000000E+00; -1.7560182E+00;0; -1.3678356E-01;  1.0004438E+04;  0.0000000E+00;  4.6768577E-07;  1.0000000E+04;  0.0000000E+00;  9.9992666E+03; -1.6673067E-01;  0.0000000E+00;  2.9947119E-02;  3.3772577E+02;
  3.9998040E-01;  9.9999998E-03; -2.0000167E-01;1654; -1.8888580E-02;  0.0000000E+00; -1.7517197E-03;  1.0001859E+03;  4.0000001E-01;  1.5406956E+02;3; -1.2594463E+01;  0.0000000E+00; -1.4046195E+00;0; -1.3682345E-01;  1.0004325E+04;  0.0000000E+00; -9.8224229E-10;  1.0000000E+04;  0.0000000E+00;  9.9993955E+03; -1.6238216E-01;  0.0000000E+00;  2.5558710E-02;  2.8029999E+02;
  4.1997731E-01;  9.9999998E-03; -3.0000839E-01;1680; -2.1574205E-02;  0.0000000E+00; -6.8820561E-03;  1.0002158E+03;  4.0000001E-01;  1.7876015E+02;3; -1.7585491E+01;  0.0000000E+00; -4.5674586E+00;0; -1.5713426E-01;  1.0005711E+04;  0.0000000E+00;  1.4666771E-05;  1.0000000E+04;  0.0000000E+00;  9.9986064E+03; -2.0672078E-01;  0.0000000E+00;  4.9586527E-02;  6.4353253E+02;
  4.1997623E-01;  9.9999998E-03; -2.8000659E-01;1681; -2.2465184E-02;  0.0000000E+00; -5.6758462E-03;  1.0002217E+03;  4.0000001E-01;  1.8369827E+02;3; -1.6763115E+01;  0.0000000E+00; -3.6597483E+00;0; -1.5960412E-01;  1.0005668E+04;  0.0000000E+00;  1.6952148E-05;  1.0000000E+04;  0.0000000E+00;  9.9987695E+03; -2.0540711E-01;  0.0000000E+00;  4.5802996E-02;  5.6798401E+02;
  4.1997564E-01;  9.9999998E-03; -2.6000494E-01;1682; -2.2946972E-02;  0.0000000E+00; -4.5257835E-03;  1.0002244E+03;  4.0000001E-01;  1.8596982E+02;3; -1.5948782E+01;  0.0000000E+00; -2.9984066E+00;0; -1.6074736E-01;  1.0005596E+04;  0.0000000E+00;  9.7451575E-06;  1.0000000E+04;  0.0000000E+00;  9.9988936E+03; -2.0317179E-01;  0.0000000E+00;  4.2424429E-02;  5.0970685E+02;
  4.1997543E-01;  9.9999998E-03; -2.4000366E-01;1683; -2.3070626E-02;  0.0000000E+00; -3.5474985E-03;  1.0002245E+03;  4.0000001E-01;  1.8606857E+02;3; -1.5299631E+01;  0.0000000E+00; -2.4969432E+00;0; -1.6066538E-01;  1.0005494E+04;  0.0000000E+00;  3.3849440E-06;  1.0000000E+04;  0.0000000E+00;  9.9989971E+03; -1.9978049E-01;  0.0000000E+00;  3.9115116E-02;  4.6212912E+02;
  4.1997558E-01;  9.9999998E-03; -2.2000273E-01;1684; -2.2902673E-02;  0.0000000E+00; -2.7276413E-03;  1.0002245E+03;  4.0000001E-01;  1.8606857E+02;3; -1.4838314E+01;  0.0000000E+00; -2.0394938E+00;0; -1.6043213E-01;  1.0005357E+04;  0.0000000E+00;  6.1034825E-07;  1.0000000E+04;  0.0000000E+00;  9.9991318E+03; -1.9515863E-01;  0.0000000E+00;  3.4726508E-02;  4.0181290E+02;
  4.1997594E-01;  9.9999998E-03; -2.0000200E-01;1685; -2.2513680E-02;  0.0000000E+00; -2.0396032E-03;  1.0002244E+03;  4.0000001E-01;  1.8596982E+02;3; -1.4467293E+01;  0.0000000E+00; -1.6280410E+00;0; -1.5999889E-01;  1.0005206E+04;  0.0000000E+00;  8.3299048E-09;  1.0000000E+04;  0.0000000E+00;  9.9992861E+03; -1.8945399E-01;  0.0000000E+00;  2.9455088E-02;  3.3168430E+02;
  4.3997177E-01;  9.9999998E-03; -3.0001026E-01;1711; -2.5886109E-02;  0.0000000E+00; -8.1327148E-03;  1.0002637E+03;  4.0000001E-01;  2.1846260E+02;3; -2.0379475E+01;  0.0000000E+00; -5.1665421E+00;0; -1.8519354E-01;  1.0006997E+04;  0.0000000E+00;  1.7073817E-05;  1.0000000E+04;  0.0000000E+00;  9.9982793E+03; -2.4419053E-01;  0.0000000E+00;  5.8996983E-02;  7.9679681E+02;
  4.3997049E-01;  9.9999998E-03; -2.8000799E-01;1712; -2.6905082E-02;  0.0000000E+00; -6.7104432E-03;  1.0002714E+03;  4.0000001E-01;  2.2488216E+02;3; -1.9313221E+01;  0.0000000E+00; -4.1927142E+00;0; -1.8784989E-01;  1.0006911E+04;  0.0000000E+00;  2.2239099E-05;  1.0000000E+04;  0.0000000E+00;  9.9985176E+03; -2.4190088E-01;  0.0000000E+00;  5.4050978E-02;  6.8514618E+02;
  4.3996984E-01;  9.9999998E-03; -2.6000589E-01;1713; -2.7433824E-02;  0.0000000E+00; -5.3113746E-03;  1.0002743E+03;  4.0000001E-01;  2.2725246E+02;3; -1.8295271E+01;  0.0000000E+00; -3.4604404E+00;0; -1.8925177E-01;  1.0006790E+04;  0.0000000E+00;  1.3112663E-05;  1.0000000E+04;  0.0000000E+00;  9.9986963E+03; -2.3843598E-01;  0.0000000E+00;  4.9184222E-02;  6.0284515E+02;
  4.3996972E-01;  9.9999998E-03; -2.4000435E-01;1714; -2.7527219E-02;  0.0000000E+00; -4.1313386E-03;  1.0002729E+03;  4.0000001E-01;  2.2606731E+02;3; -1.7513367E+01;  0.0000000E+00; -2.8804536E+00;0; -1.8865511E-01;  1.0006633E+04;  0.0000000E+00;  4.6527125E-06;  1.0000000E+04;  0.0000000E+00;  9.9988252E+03; -2.3356566E-01;  0.0000000E+00;  4.4910543E-02;  5.4387299E+02;
  4.3997002E-01;  9.9999998E-03; -2.2000323E-01;1715; -2.7262850E-02;  0.0000000E+00; -3.1696649E-03;  1.0002714E+03;  4.0000001E-01;  2.2478339E+02;3; -1.6973177E+01;  0.0000000E+00; -2.3478892E+00;0; -1.8765654E-01;  1.0006440E+04;  0.0000000E+00;  9.0929973E-07;  1.0000000E+04;  0.0000000E+00;  9.9989854E+03; -2.2727461E-01;  0.0000000E+00;  3.9618075E-02;  4.7154831E+02;
  4.3997058E-01;  9.9999998E-03; -2.0000240E-01;1716; -2.6728716E-02;  0.0000000E+00; -2.3821313E-03;  1.0002697E+03;  4.0000001E-01;  2.2349948E+02;3; -1.6546694E+01;  0.0000000E+00; -1.8720232E+00;0; -1.8641780E-01;  1.0006229E+04;  0.0000000E+00;  5.2921759E-08;  1.0000000E+04;  0.0000000E+00;  9.9991709E+03; -2.1981883E-01;  0.0000000E+00;  3.3401027E-02;  3.8829941E+02;
  4.5996487E-01;  9.9999998E-03; -3.0001259E-01;1742; -3.0993935E-02;  0.0000000E+00; -9.6398164E-03;  1.0003223E+03;  4.0000039E-01;  2.6695480E+02;3; -2.3508516E+01;  0.0000000E+00; -5.8860574E+00;0; -2.1725646E-01;  1.0008519E+04;  0.0000000E+00;  1.7827329E-05;  1.0000000E+04;  0.0000000E+00;  9.9979082E+03; -2.8723782E-01;  0.0000000E+00;  6.9981359E-02;  9.7276050E+02;
  4.5996341E-01;  9.9999998E-03; -2.8000966E-01;1743; -3.2145552E-02;  0.0000000E+00; -7.9299472E-03;  1.0003325E+03;  4.0000042E-01;  2.7544836E+02;3; -2.2141998E+01;  0.0000000E+00; -4.8289504E+00;0; -2.2060061E-01;  1.0008373E+04;  0.0000000E+00;  2.9195020E-05;  1.0000000E+04;  0.0000000E+00;  9.9982598E+03; -2.8344047E-01;  0.0000000E+00;  6.2839858E-02;  8.0671338E+02;
  4.5996276E-01;  9.9999998E-03; -2.6000702E-01;1744; -3.2709699E-02;  0.0000000E+00; -6.1979648E-03;  1.0003350E+03;  4.0000045E-01;  2.7752240E+02;3; -2.0882919E+01;  0.0000000E+00; -3.9865503E+00;0; -2.2241053E-01;  1.0008185E+04;  0.0000000E+00;  1.8278030E-05;  1.0000000E+04;  0.0000000E+00;  9.9984980E+03; -2.7818304E-01;  0.0000000E+00;  5.5772517E-02;  6.9649316E+02;
  4.5996279E-01;  9.9999998E-03; -2.4000515E-01;1745; -3.2742243E-02;  0.0000000E+00; -4.7876136E-03;  1.0003308E+03;  4.0000036E-01;  2.7406570E+02;3; -1.9956177E+01;  0.0000000E+00; -3.2988300E+00;0; -2.2074662E-01;  1.0007950E+04;  0.0000000E+00;  6.9365706E-06;  1.0000000E+04;  0.0000000E+00;  9.9986455E+03; -2.7127740E-01;  0.0000000E+00;  5.0530780E-02;  6.2989111E+02;
  4.5996332E-01;  9.9999998E-03; -2.2000389E-01;1746; -3.2337844E-02;  0.0000000E+00; -3.6915957E-03;  1.0003264E+03;  4.0000045E-01;  2.7041150E+02;3; -1.9332142E+01;  0.0000000E+00; -2.6776462E+00;0; -2.1840967E-01;  1.0007682E+04;  0.0000000E+00;  1.6143160E-06;  1.0000000E+04;  0.0000000E+00;  9.9988291E+03; -2.6281223E-01;  0.0000000E+00;  4.4402555E-02;  5.4751990E+02;
  4.5996416E-01;  9.9999998E-03; -2.0000298E-01;1747; -3.1609774E-02;  0.0000000E+00; -2.8235791E-03;  1.0003226E+03;  4.0000045E-01;  2.6725110E+02;3; -1.8843880E+01;  0.0000000E+00; -2.1379306E+00;0; -2.1590026E-01;  1.0007396E+04;  0.0000000E+00;  2.0225643E-07;  1.0000000E+04;  0.0000000E+00;  9.9990391E+03; -2.5319526E-01;  0.0000000E+00;  3.7295002E-02;  4.5217697E+02;
  4.7995624E-01;  9.9999998E-03; -3.0001542E-01;1773; -3.7071846E-02;  0.0000000E+00; -1.1461253E-02;  1.0003916E+03;  4.0000117E-01;  3.2443430E+02;3; -2.7012415E+01;  0.0000000E+00; -6.7546105E+00;0; -2.5290489E-01;  1.0010271E+04;  0.0000000E+00;  1.6279397E-05;  1.0000000E+04;  0.0000000E+00;  9.9975039E+03; -3.3504713E-01;  0.0000000E+00;  8.2142219E-02;  1.1623289E+03;
  4.7995469E-01;  9.9999998E-03; -2.8001162E-01;1774; -3.8338974E-02;  0.0000000E+00; -9.3650362E-03;  1.0004059E+03;  4.0000114E-01;  3.3628577E+02;3; -2.5277199E+01;  0.0000000E+00; -5.6058559E+00;0; -2.5782853E-01;  1.0010039E+04;  0.0000000E+00;  3.9646311E-05;  1.0000000E+04;  0.0000000E+00;  9.9980205E+03; -3.2911658E-01;  0.0000000E+00;  7.1288057E-02;  9.1952124E+02;
  4.7995412E-01;  9.9999998E-03; -2.6000834E-01;1775; -3.8907304E-02;  0.0000000E+00; -7.1994867E-03;  1.0004064E+03;  4.0000123E-01;  3.3668082E+02;3; -2.3735830E+01;  0.0000000E+00; -4.5827522E+00;0; -2.6004857E-01;  1.0009756E+04;  0.0000000E+00;  2.7166107E-05;  1.0000000E+04;  0.0000000E+00;  9.9983174E+03; -3.2143655E-01;  0.0000000E+00;  6.1387975E-02;  7.8537653E+02;
  4.7995442E-01;  9.9999998E-03; -2.4000618E-01;1776; -3.8823497E-02;  0.0000000E+00; -5.5491356E-03;  1.0003970E+03;  4.0000117E-01;  3.2897736E+02;3; -2.2644522E+01;  0.0000000E+00; -3.7494678E+00;0; -2.5635827E-01;  1.0009425E+04;  0.0000000E+00;  1.1395690E-05;  1.0000000E+04;  0.0000000E+00;  9.9984561E+03; -3.1191611E-01;  0.0000000E+00;  5.5557836E-02;  7.2167230E+02;
  4.7995529E-01;  9.9999998E-03; -2.2000480E-01;1777; -3.8218800E-02;  0.0000000E+00; -4.3496932E-03;  1.0003885E+03;  4.0000120E-01;  3.2186646E+02;3; -2.1919912E+01;  0.0000000E+00; -3.0565505E+00;0; -2.5188920E-01;  1.0009061E+04;  0.0000000E+00;  3.2878656E-06;  1.0000000E+04;  0.0000000E+00;  9.9986504E+03; -3.0079633E-01;  0.0000000E+00;  4.8907131E-02;  6.3402563E+02;
  4.7995651E-01;  9.9999998E-03; -2.0000386E-01;1778; -3.7235998E-02;  0.0000000E+00; -3.4438295E-03;  1.0003816E+03;  4.0000111E-01;  3.1613824E+02;3; -2.1364672E+01;  0.0000000E+00; -2.4309251E+00;0; -2.4751079E-01;  1.0008690E+04;  0.0000000E+00;  7.4084852E-07;  1.0000000E+04;  0.0000000E+00;  9.9988828E+03; -2.8866956E-01;  0.0000000E+00;  4.1158766E-02;  5.2894495E+02;
  4.9994540E-01;  9.9999998E-03; -3.0001894E-01;1804; -4.4349864E-02;  0.0000000E+00; -1.3677165E-02;  1.0004708E+03;  4.0000278E-01;  3.9011087E+02;3; -3.0939989E+01;  0.0000000E+00; -7.8073936E+00;0; -2.9037541E-01;  1.0012168E+04;  0.0000000E+00;  1.3493381E-05;  1.0000000E+04;  0.0000000E+00;  9.9971104E+03; -3.8515738E-01;  0.0000000E+00;  9.4781950E-02;  1.3476591E+03;
  4.9994391E-01;  9.9999998E-03; -2.8001398E-01;1805; -4.5660529E-02;  0.0000000E+00; -1.1051279E-02;  1.0004901E+03;  4.0000287E-01;  4.0601160E+02;3; -2.8753071E+01;  0.0000000E+00; -6.5482373E+00;0; -2.9842889E-01;  1.0011829E+04;  0.0000000E+00;  5.8511305E-05;  1.0000000E+04;  0.0000000E+00;  9.9978350E+03; -3.7650657E-01;  0.0000000E+00;  7.8077666E-02;  1.0074116E+03;
  4.9994364E-01;  9.9999998E-03; -2.6000991E-01;1806; -4.6157066E-02;  0.0000000E+00; -8.3538415E-03;  1.0004858E+03;  4.0000281E-01;  4.0245615E+02;3; -2.6887566E+01;  0.0000000E+00; -5.2406116E+00;0; -3.0065528E-01;  1.0011432E+04;  0.0000000E+00;  4.4393557E-05;  1.0000000E+04;  0.0000000E+00;  9.9981504E+03; -3.6584699E-01;  0.0000000E+00;  6.5191716E-02;  8.6899445E+02;
  4.9994439E-01;  9.9999998E-03; -2.4000758E-01;1807; -4.5869429E-02;  0.0000000E+00; -6.4936359E-03;  1.0004683E+03;  4.0000284E-01;  3.8793808E+02;3; -2.5594124E+01;  0.0000000E+00; -4.2248054E+00;0; -2.9351106E-01;  1.0010988E+04;  0.0000000E+00;  2.0623835E-05;  1.0000000E+04;  0.0000000E+00;  9.9982422E+03; -3.5325325E-01;  0.0000000E+00;  5.9742175E-02;  8.2898297E+02;
  4.9994570E-01;  9.9999998E-03; -2.2000617E-01;1808; -4.4986401E-02;  0.0000000E+00; -5.2530454E-03;  1.0004542E+03;  4.0000281E-01;  3.7628415E+02;3; -2.4749094E+01;  0.0000000E+00; -3.4555571E+00;0; -2.8594261E-01;  1.0010517E+04;  0.0000000E+00;  7.0489245E-06;  1.0000000E+04;  0.0000000E+00;  9.9984297E+03; -3.3915809E-01;  0.0000000E+00;  5.3215459E-02;  7.4336584E+02;
  4.9994740E-01;  9.9999998E-03; -2.0000525E-01;1809; -4.3679658E-02;  0.0000000E+00; -4.3780166E-03;  1.0004433E+03;  4.0000284E-01;  3.6729678E+02;3; -2.4119469E+01;  0.0000000E+00; -2.8157859E+00;0; -2.7907324E-01;  1.0010051E+04;  0.0000000E+00;  2.2427412E-06;  1.0000000E+04;  0.0000000E+00;  9.9986758E+03; -3.2435155E-01;  0.0000000E+00;  4.5278315E-02;  6.3085577E+02;
  5.1993167E-01;  9.9999998E-03; -3.0002329E-01;1835; -5.3108782E-02;  0.0000000E+00; -1.6392775E-02;  1.0005604E+03;  4.0000772E-01;  4.6428067E+02;3; -3.5400539E+01;  0.0000000E+00; -9.1809940E+00;0; -3.2635707E-01;  1.0014050E+04;  0.0000000E+00;  1.5281008E-05;  1.0000000E+04;  0.0000000E+00;  9.9967705E+03; -4.3288073E-01;  0.0000000E+00;  1.0652366E-01;  1.5055295E+03;
  5.1993072E-01;  9.9999998E-03; -2.8001690E-01;1836; -5.4287005E-02;  0.0000000E+00; -1.3058760E-02;  1.0005853E+03;  4.0000775E-01;  4.8492197E+02;3; -3.2610245E+01;  0.0000000E+00; -7.6938105E+00;0; -3.3941400E-01;  1.0013591E+04;  0.0000000E+00;  9.7718315E-05;  1.0000000E+04;  0.0000000E+00;  9.9977217E+03; -4.2117015E-01;  0.0000000E+00;  8.1756137E-02;  1.0635586E+03;
  5.1993114E-01;  9.9999998E-03; -2.6001206E-01;1837; -5.4557946E-02;  0.0000000E+00; -9.7543588E-03;  1.0005713E+03;  4.0000775E-01;  4.7326804E+02;3; -3.0359941E+01;  0.0000000E+00; -6.0153341E+00;0; -3.4068063E-01;  1.0013068E+04;  0.0000000E+00;  8.0884063E-05;  1.0000000E+04;  0.0000000E+00;  9.9979688E+03; -4.0725574E-01;  0.0000000E+00;  6.6575110E-02;  9.6193420E+02;
  5.1993251E-01;  9.9999998E-03; -2.4000970E-01;1838; -5.3944495E-02;  0.0000000E+00; -7.7912314E-03;  1.0005419E+03;  4.0000775E-01;  4.4897256E+02;3; -2.8808298E+01;  0.0000000E+00; -4.7320185E+00;0; -3.2808879E-01;  1.0012508E+04;  0.0000000E+00;  4.0674440E-05;  1.0000000E+04;  0.0000000E+00;  9.9979463E+03; -3.9145282E-01;  0.0000000E+00;  6.3364036E-02;  9.7652911E+02;
  5.1993448E-01;  9.9999998E-03; -2.2000833E-01;1839; -5.2681506E-02;  0.0000000E+00; -6.6002137E-03;  1.0005212E+03;  4.0000778E-01;  4.3178793E+02;3; -2.7825302E+01;  0.0000000E+00; -3.9436817E+00;0; -3.1653151E-01;  1.0011929E+04;  0.0000000E+00;  1.5214728E-05;  1.0000000E+04;  0.0000000E+00;  9.9981104E+03; -3.7440628E-01;  0.0000000E+00;  5.7874765E-02;  9.0126849E+02;
  5.1993674E-01;  9.9999998E-03; -2.0000742E-01;1840; -5.0975323E-02;  0.0000000E+00; -5.8111507E-03;  1.0005067E+03;  4.0000778E-01;  4.1973895E+02;3; -2.7093760E+01;  0.0000000E+00; -3.3211746E+00;0; -3.0670112E-01;  1.0011372E+04;  0.0000000E+00;  5.4588891E-06;  1.0000000E+04;  0.0000000E+00;  9.9983682E+03; -3.5707906E-01;  0.0000000E+00;  5.0377939E-02;  7.8104163E+02;
  5.3991461E-01;  9.9999998E-03; -3.0002880E-01;1866; -6.3583188E-02;  0.0000000E+00; -1.9699184E-02;  1.0006609E+03;  4.0002075E-01;  5.4753613E+02;3; -4.0449165E+01;  0.0000000E+00; -1.0945561E+01;0; -3.5558939E-01;  1.0015637E+04;  0.0000000E+00;  3.4511508E-05;  1.0000000E+04;  0.0000000E+00;  9.9965361E+03; -4.7104120E-01;  0.0000000E+00;  1.1545180E-01;  1.6145590E+03;
  5.3991497E-01;  9.9999998E-03; -2.8002071E-01;1867; -6.4316846E-02;  0.0000000E+00; -1.5495539E-02;  1.0006890E+03;  4.0002072E-01;  5.7084393E+02;3; -3.6864807E+01;  0.0000000E+00; -9.0473461E+00;0; -3.7541085E-01;  1.0015069E+04;  0.0000000E+00;  1.8247380E-04;  1.0000000E+04;  0.0000000E+00;  9.9976699E+03; -4.5642322E-01;  0.0000000E+00;  8.1012368E-02;  1.0959584E+03;
  5.3991652E-01;  9.9999998E-03; -2.6001522E-01;1868; -6.4119376E-02;  0.0000000E+00; -1.1590974E-02;  1.0006588E+03;  4.0002072E-01;  5.4575836E+02;3; -3.4108902E+01;  0.0000000E+00; -6.8232446E+00;0; -3.7365305E-01;  1.0014439E+04;  0.0000000E+00;  1.6144451E-04;  1.0000000E+04;  0.0000000E+00;  9.9976953E+03; -4.3952054E-01;  0.0000000E+00;  6.5867491E-02;  1.1025255E+03;
  5.3991896E-01;  9.9999998E-03; -2.4001297E-01;1869; -6.3013725E-02;  0.0000000E+00; -9.6871592E-03;  1.0006144E+03;  4.0002078E-01;  5.0901895E+02;3; -3.2278000E+01;  0.0000000E+00; -5.3596768E+00;0; -3.5372937E-01;  1.0013775E+04;  0.0000000E+00;  8.5412823E-05;  1.0000000E+04;  0.0000000E+00;  9.9974756E+03; -4.2093825E-01;  0.0000000E+00;  6.7208871E-02;  1.2091144E+03;
  5.3992164E-01;  9.9999998E-03; -2.2001171E-01;1870; -6.1251279E-02;  0.0000000E+00; -8.6544277E-03;  1.0005873E+03;  4.0002078E-01;  4.8650122E+02;3; -3.1123323E+01;  0.0000000E+00; -4.5393639E+00;0; -3.3747762E-01;  1.0013109E+04;  0.0000000E+00;  3.2432923E-05;  1.0000000E+04;  0.0000000E+00;  9.9975986E+03; -4.0151319E-01;  0.0000000E+00;  6.4035557E-02;  1.1511549E+03;
  5.3992450E-01;  9.9999998E-03; -2.0001075E-01;1871; -5.9083544E-02;  0.0000000E+00; -8.0004940E-03;  1.0005700E+03;  4.0002081E-01;  4.7227951E+02;3; -3.0267366E+01;  0.0000000E+00; -3.9715455E+00;0; -3.2455492E-01;  1.0012479E+04;  0.0000000E+00;  1.0895815E-05;  1.0000000E+04;  0.0000000E+00;  9.9978809E+03; -3.8231027E-01;  0.0000000E+00;  5.7755362E-02;  1.0173573E+03;
  5.5989403E-01;  9.9999998E-03; -3.0003610E-01;1897; -7.5785346E-02;  0.0000000E+00; -2.3721769E-02;  1.0007874E+03;  4.0005577E-01;  6.5232092E+02;3; -4.6047260E+01;  0.0000000E+00; -1.3112856E+01;0; -3.7041104E-01;  1.0016550E+04;  0.0000000E+00;  9.0205736E-05;  1.0000000E+04;  0.0000000E+00;  9.9963936E+03; -4.8993981E-01;  0.0000000E+00;  1.1952878E-01;  1.6813903E+03;
  5.5989677E-01;  9.9999998E-03; -2.8002620E-01;1898; -7.5630687E-02;  0.0000000E+00; -1.8585244E-02;  1.0008143E+03;  4.0005577E-01;  6.7464105E+02;3; -4.1467941E+01;  0.0000000E+00; -1.0629441E+01;0; -3.9768454E-01;  1.0015914E+04;  0.0000000E+00;  3.5818780E-04;  1.0000000E+04;  0.0000000E+00;  9.9975713E+03; -4.7334394E-01;  0.0000000E+00;  7.5659394E-02;  1.1536099E+03;
  5.5990022E-01;  9.9999998E-03; -2.6002014E-01;1899; -7.4658953E-02;  0.0000000E+00; -1.4203430E-02;  1.0007609E+03;  4.0005574E-01;  6.3039581E+02;3; -3.8115112E+01;  0.0000000E+00; -7.7350330E+00;0; -3.9045331E-01;  1.0015221E+04;  0.0000000E+00;  3.3407603E-04;  1.0000000E+04;  0.0000000E+00;  9.9971973E+03; -4.5459080E-01;  0.0000000E+00;  6.4137481E-02;  1.3546512E+03;
  5.5990386E-01;  9.9999998E-03; -2.4001801E-01;1900; -7.2854355E-02;  0.0000000E+00; -1.2534816E-02;  1.0007003E+03;  4.0005583E-01;  5.8012616E+02;3; -3.5961315E+01;  0.0000000E+00; -6.0915337E+00;0; -3.6171091E-01;  1.0014508E+04;  0.0000000E+00;  1.8263307E-04;  1.0000000E+04;  0.0000000E+00;  9.9966992E+03; -4.3452719E-01;  0.0000000E+00;  7.2816275E-02;  1.5887938E+03;
  5.5990744E-01;  9.9999998E-03; -2.2001675E-01;1901; -7.0481367E-02;  0.0000000E+00; -1.1763888E-02;  1.0006686E+03;  4.0005592E-01;  5.5395428E+02;3; -3.4575325E+01;  0.0000000E+00; -5.3030949E+00;0; -3.4068167E-01;  1.0013802E+04;  0.0000000E+00;  6.7617584E-05;  1.0000000E+04;  0.0000000E+00;  9.9967734E+03; -4.1407117E-01;  0.0000000E+00;  7.3389500E-02;  1.5514948E+03;
  5.5991095E-01;  9.9999998E-03; -2.0001554E-01;1902; -6.7817204E-02;  0.0000000E+00; -1.1215881E-02;  1.0006522E+03;  4.0005577E-01;  5.4032520E+02;3; -3.3587120E+01;  0.0000000E+00; -4.8444042E+00;0; -3.2508636E-01;  1.0013141E+04;  0.0000000E+00;  1.7925073E-05;  1.0000000E+04;  0.0000000E+00;  9.9971035E+03; -3.9426014E-01;  0.0000000E+00;  6.9173776E-02;  1.3914829E+03;
  5.7987070E-01;  9.9999998E-03; -3.0004621E-01;1928; -8.9216314E-02;  0.0000000E+00; -2.8651245E-02;  1.0009977E+03;  4.0014887E-01;  8.2663257E+02;3; -5.1957691E+01;  0.0000000E+00; -1.5692765E+01;0; -3.5948646E-01;  1.0016298E+04;  0.0000000E+00;  2.0327882E-04;  1.0000000E+04;  0.0000000E+00;  9.9961885E+03; -4.7731292E-01;  0.0000000E+00;  1.1782647E-01;  1.7781727E+03;
  5.7987702E-01;  9.9999998E-03; -2.8003460E-01;1929; -8.7709531E-02;  0.0000000E+00; -2.2701593E-02;  1.0010163E+03;  4.0014887E-01;  8.4194055E+02;3; -4.6216782E+01;  0.0000000E+00; -1.2462886E+01;0; -3.9319077E-01;  1.0015679E+04;  0.0000000E+00;  6.9330609E-04;  1.0000000E+04;  0.0000000E+00;  9.9971826E+03; -4.6069050E-01;  0.0000000E+00;  6.7499727E-02;  1.3521122E+03;
  5.7988286E-01;  9.9999998E-03; -2.6002780E-01;1930; -8.5650876E-02;  0.0000000E+00; -1.8094987E-02;  1.0009382E+03;  4.0014893E-01;  7.7725189E+02;3; -4.2219906E+01;  0.0000000E+00; -8.8429956E+00;0; -3.7850851E-01;  1.0015010E+04;  0.0000000E+00;  6.7433045E-04;  1.0000000E+04;  0.0000000E+00;  9.9962939E+03; -4.4234037E-01;  0.0000000E+00;  6.3831873E-02;  1.8001345E+03;
  5.7988793E-01;  9.9999998E-03; -2.4002536E-01;1931; -8.2969546E-02;  0.0000000E+00; -1.6740352E-02;  1.0008635E+03;  4.0014893E-01;  7.1542725E+02;3; -3.9701736E+01;  0.0000000E+00; -6.9691525E+00;0; -3.4127215E-01;  1.0014333E+04;  0.0000000E+00;  3.7696576E-04;  1.0000000E+04;  0.0000000E+00;  9.9954814E+03; -4.2318973E-01;  0.0000000E+00;  8.1917576E-02;  2.1800286E+03;
  5.7989246E-01;  9.9999998E-03; -2.2002386E-01;1932; -7.9907946E-02;  0.0000000E+00; -1.6329339E-02;  1.0008312E+03;  4.0014890E-01;  6.8856421E+02;3; -3.8032330E+01;  0.0000000E+00; -6.2969718E+00;0; -3.1623569E-01;  1.0013671E+04;  0.0000000E+00;  1.3549342E-04;  1.0000000E+04;  0.0000000E+00;  9.9954951E+03; -4.0401602E-01;  0.0000000E+00;  8.7780334E-02;  2.1645867E+03;
  5.7989657E-01;  9.9999998E-03; -2.0002191E-01;1933; -7.6776795E-02;  0.0000000E+00; -1.5714720E-02;  1.0008206E+03;  4.0014896E-01;  6.7987317E+02;3; -3.6858398E+01;  0.0000000E+00; -6.0035744E+00;0; -2.9908773E-01;  1.0013045E+04;  0.0000000E+00;  2.5292171E-05;  1.0000000E+04;  0.0000000E+00;  9.9959131E+03; -3.8559869E-01;  0.0000000E+00;  8.6510964E-02;  1.9591993E+03;
  5.9984672E-01;  9.9999998E-03; -3.0006072E-01;1959; -1.0272285E-01;  0.0000000E+00; -3.4799881E-02;  1.0014579E+03;  4.0038523E-01;  1.2078459E+03;3; -5.7643219E+01;  0.0000000E+00; -1.8727724E+01;0; -3.0655521E-01;  1.0014362E+04;  0.0000000E+00;  3.8362376E-04;  1.0000000E+04;  0.0000000E+00;  9.9955117E+03; -4.1907707E-01;  0.0000000E+00;  1.1252184E-01;  2.1080532E+03;
  5.9985697E-01;  9.9999998E-03; -2.8004789E-01;1960; -9.9602319E-02;  0.0000000E+00; -2.8497545E-02;  1.0014613E+03;  4.0038532E-01;  1.2106112E+03;3; -5.0755436E+01;  0.0000000E+00; -1.4547318E+01;0; -3.4292945E-01;  1.0013868E+04;  0.0000000E+00;  1.2488180E-03;  1.0000000E+04;  0.0000000E+00;  9.9960713E+03; -4.0530720E-01;  0.0000000E+00;  6.2377762E-02;  1.8997329E+03;
  5.9986526E-01;  9.9999998E-03; -2.6003942E-01;1961; -9.6277244E-02;  0.0000000E+00; -2.3958696E-02;  1.0013705E+03;  4.0038541E-01;  1.1353555E+03;3; -4.6142502E+01;  0.0000000E+00; -1.0162600E+01;0; -3.2161862E-01;  1.0013345E+04;  0.0000000E+00;  1.2553266E-03;  1.0000000E+04;  0.0000000E+00;  9.9947861E+03; -3.9050341E-01;  0.0000000E+00;  6.8884790E-02;  2.5353904E+03;
  5.9987199E-01;  9.9999998E-03; -2.4003562E-01;1962; -9.2644438E-02;  0.0000000E+00; -2.2815622E-02;  1.0012900E+03;  4.0038547E-01;  1.0686918E+03;3; -4.3215992E+01;  0.0000000E+00; -8.1725388E+00;0; -2.7928185E-01;  1.0012821E+04;  0.0000000E+00;  7.1615988E-04;  1.0000000E+04;  0.0000000E+00;  9.9937051E+03; -3.7548965E-01;  0.0000000E+00;  9.6207812E-02;  3.0362275E+03;
  5.9987730E-01;  9.9999998E-03; -2.2003271E-01;1963; -8.8989578E-02;  0.0000000E+00; -2.2377981E-02;  1.0012633E+03;  4.0038556E-01;  1.0465693E+03;3; -4.1216824E+01;  0.0000000E+00; -7.6821351E+00;0; -2.5266901E-01;  1.0012306E+04;  0.0000000E+00;  2.5369992E-04;  1.0000000E+04;  0.0000000E+00;  9.9936875E+03; -3.6067054E-01;  0.0000000E+00;  1.0800152E-01;  3.0297346E+03;
  5.9988201E-01;  9.9999998E-03; -2.0002963E-01;1964; -8.5573956E-02;  0.0000000E+00; -2.1294842E-02;  1.0012648E+03;  4.0038550E-01;  1.0478533E+03;3; -3.9779964E+01;  0.0000000E+00; -7.7369127E+00;0; -2.3538399E-01;  1.0011802E+04;  0.0000000E+00;  3.2748449E-05;  1.0000000E+04;  0.0000000E+00;  9.9942197E+03; -3.4629795E-01;  0.0000000E+00;  1.1091397E-01;  2.7629922E+03;
  6.1982518E-01;  9.9999998E-03; -3.0008209E-01;1990; -1.1475334E-01;  0.0000000E+00; -4.2527486E-02;  1.0025103E+03;  4.0092668E-01;  2.0796946E+03;3; -6.2492916E+01;  0.0000000E+00; -2.2315485E+01;0; -1.9258095E-01;  1.0010333E+04;  0.0000000E+00;  5.9790921E-04;  1.0000000E+04;  0.0000000E+00;  9.9935361E+03; -3.0209950E-01;  0.0000000E+00;  1.0951854E-01;  3.0666724E+03;
  6.1983860E-01;  9.9999998E-03; -2.8006896E-01;1991; -1.1026893E-01;  0.0000000E+00; -3.6700387E-02;  1.0024954E+03;  4.0092680E-01;  2.0673496E+03;3; -5.4745472E+01;  0.0000000E+00; -1.6797316E+01;0; -2.2572687E-01;  1.0010076E+04;  0.0000000E+00;  1.9688555E-03;  1.0000000E+04;  0.0000000E+00;  9.9934912E+03; -2.9444554E-01;  0.0000000E+00;  6.8718664E-02;  3.1535503E+03;
  6.1984867E-01;  9.9999998E-03; -2.6005751E-01;1992; -1.0581481E-01;  0.0000000E+00; -3.2499757E-02;  1.0024225E+03;  4.0092701E-01;  2.0070070E+03;3; -4.9657036E+01;  0.0000000E+00; -1.1704440E+01;0; -2.0306683E-01;  1.0009813E+04;  0.0000000E+00;  2.0417394E-03;  1.0000000E+04;  0.0000000E+00;  9.9923057E+03; -2.8652117E-01;  0.0000000E+00;  8.3454333E-02;  3.7317129E+03;
  6.1985618E-01;  9.9999998E-03; -2.4004926E-01;1993; -1.0146724E-01;  0.0000000E+00; -3.0797767E-02;  1.0023610E+03;  4.0092704E-01;  1.9560466E+03;3; -4.6024826E+01;  0.0000000E+00; -1.0053489E+01;0; -1.6425619E-01;  1.0009553E+04;  0.0000000E+00;  1.1947209E-03;  1.0000000E+04;  0.0000000E+00;  9.9913408E+03; -2.7894896E-01;  0.0000000E+00;  1.1469278E-01;  4.1725269E+03;
  6.1986256E-01;  9.9999998E-03; -2.2004361E-01;1994; -9.7535200E-02;  0.0000000E+00; -2.9477127E-02;  1.0023472E+03;  4.0092710E-01;  1.9444917E+03;3; -4.3714680E+01;  0.0000000E+00; -9.6415300E+00;0; -1.3862342E-01;  1.0009291E+04;  0.0000000E+00;  4.2986695E-04;  1.0000000E+04;  0.0000000E+00;  9.9913262E+03; -2.7162042E-01;  0.0000000E+00;  1.3299701E-01;  4.1585781E+03;
  6.1986810E-01;  9.9999998E-03; -2.0003869E-01;1995; -9.3845479E-02;  0.0000000E+00; -2.7662832E-02;  1.0023669E+03;  4.0092716E-01;  1.9608859E+03;3; -4.2305008E+01;  0.0000000E+00; -9.5233364E+00;0; -1.2170462E-01;  1.0009006E+04;  0.0000000E+00;  4.5413581E-05;  1.0000000E+04;  0.0000000E+00;  9.9920010E+03; -2.6410788E-01;  0.0000000E+00;  1.4240326E-01;  3.8130347E+03;
  6.3980901E-01;  9.9999998E-03; -3.0011237E-01;2021; -1.2409273E-01;  0.0000000E+00; -5.1862668E-02;  1.0044699E+03;  4.0191907E-01;  3.7030859E+03;3; -6.6082672E+01;  0.0000000E+00; -2.6406536E+01;0; -7.8135654E-03;  1.0004100E+04;  0.0000000E+00;  7.2544056E-04;  1.0000000E+04;  0.0000000E+00;  9.9894082E+03; -1.1955230E-01;  0.0000000E+00;  1.1173873E-01;  5.0763501E+03;
  6.3982415E-01;  9.9999998E-03; -2.8010076E-01;2022; -1.1891253E-01;  0.0000000E+00; -4.7035296E-02;  1.0044345E+03;  4.0191942E-01;  3.6737544E+03;3; -5.7934216E+01;  0.0000000E+00; -1.8933765E+01;0; -3.6503650E-02;  1.0004168E+04;  0.0000000E+00;  2.5692764E-03;  1.0000000E+04;  0.0000000E+00;  9.9886230E+03; -1.2081899E-01;  0.0000000E+00;  8.4315345E-02;  5.5225254E+03;
  6.3983512E-01;  9.9999998E-03; -2.6008698E-01;2023; -1.1382254E-01;  0.0000000E+00; -4.4365339E-02;  1.0044150E+03;  4.0191954E-01;  3.6576567E+03;3; -5.2383308E+01;  0.0000000E+00; -1.3210676E+01;0; -1.1173137E-02;  1.0004245E+04;  0.0000000E+00;  2.7848592E-03;  1.0000000E+04;  0.0000000E+00;  9.9881582E+03; -1.2245376E-01;  0.0000000E+00;  1.1128063E-01;  5.7314551E+03;
  6.3984275E-01;  9.9999998E-03; -2.4007057E-01;2024; -1.0933764E-01;  0.0000000E+00; -4.1008092E-02;  1.0044198E+03;  4.0191960E-01;  3.6616069E+03;3; -4.8382042E+01;  0.0000000E+00; -1.1375635E+01;0;  1.2411505E-02;  1.0004330E+04;  0.0000000E+00;  1.6899963E-03;  1.0000000E+04;  0.0000000E+00;  9.9881729E+03; -1.2484117E-01;  0.0000000E+00;  1.3725267E-01;  5.6961968E+03;
  6.3984936E-01;  9.9999998E-03; -2.2005813E-01;2025; -1.0520137E-01;  0.0000000E+00; -3.7852433E-02;  1.0044376E+03;  4.0191975E-01;  3.6763223E+03;3; -4.5916592E+01;  0.0000000E+00; -1.1145576E+01;0;  3.4203708E-02;  1.0004392E+04;  0.0000000E+00;  6.3424342E-04;  1.0000000E+04;  0.0000000E+00;  9.9884648E+03; -1.2738390E-01;  0.0000000E+00;  1.6158761E-01;  5.5236416E+03;
  6.3985568E-01;  9.9999998E-03; -2.0004977E-01;2026; -1.0110264E-01;  0.0000000E+00; -3.5107352E-02;  1.0044820E+03;  4.0191960E-01;  3.7131594E+03;3; -4.4445503E+01;  0.0000000E+00; -1.1299755E+01;0;  5.0700784E-02;  1.0004403E+04;  0.0000000E+00;  7.2164534E-05;  1.0000000E+04;  0.0000000E+00;  9.9893350E+03; -1.2897782E-01;  0.0000000E+00;  1.7967860E-01;  5.0702314E+03;
  6.5980077E-01;  9.9999998E-03; -3.0014798E-01;2052; -1.2971821E-01;  0.0000000E+00; -6.2039457E-02;  1.0069119E+03;  4.0316755E-01;  5.7261108E+03;3; -6.8156456E+01;  0.0000000E+00; -3.1172064E+01;0;  2.3336744E-01;  9.9960713E+03;  0.0000000E+00;  5.8914861E-04;  1.0000000E+04;  0.0000000E+00;  9.9839873E+03;  1.2208783E-01;  0.0000000E+00;  1.1127961E-01;  7.7258384E+03;
  6.5981621E-01;  9.9999998E-03; -2.8014052E-01;2053; -1.2456266E-01;  0.0000000E+00; -5.8030263E-02;  1.0068367E+03;  4.0316787E-01;  5.6638931E+03;3; -6.0423382E+01;  0.0000000E+00; -1.9574274E+01;0;  2.0707503E-01;  9.9964893E+03;  0.0000000E+00;  2.6459822E-03;  1.0000000E+04;  0.0000000E+00;  9.9820605E+03;  1.1052652E-01;  0.0000000E+00;  9.6548520E-02;  8.7346416E+03;
  6.5982795E-01;  9.9999998E-03; -2.6012793E-01;2054; -1.1857442E-01;  0.0000000E+00; -5.9788227E-02;  1.0068759E+03;  4.0316781E-01;  5.6962856E+03;3; -5.4650101E+01;  0.0000000E+00; -1.3196094E+01;0;  2.5490016E-01;  9.9969316E+03;  0.0000000E+00;  3.0998865E-03;  1.0000000E+04;  0.0000000E+00;  9.9824033E+03;  9.8017678E-02;  0.0000000E+00;  1.5688246E-01;  8.5041377E+03;
  6.5983456E-01;  9.9999998E-03; -2.4010240E-01;2055; -1.1387920E-01;  0.0000000E+00; -5.6595940E-02;  1.0069879E+03;  4.0316772E-01;  5.7890200E+03;3; -5.0000546E+01;  0.0000000E+00; -1.2682446E+01;0;  2.5832906E-01;  9.9973721E+03;  0.0000000E+00;  1.9693614E-03;  1.0000000E+04;  0.0000000E+00;  9.9841914E+03;  8.4637083E-02;  0.0000000E+00;  1.7369199E-01;  7.5984331E+03;
  6.5984064E-01;  9.9999998E-03; -2.2007991E-01;2056; -1.1000204E-01;  0.0000000E+00; -5.0349209E-02;  1.0070601E+03;  4.0316769E-01;  5.8488677E+03;3; -4.7392532E+01;  0.0000000E+00; -1.2798410E+01;0;  2.6633388E-01;  9.9977754E+03;  0.0000000E+00;  7.8422209E-04;  1.0000000E+04;  0.0000000E+00;  9.9852305E+03;  7.1400642E-02;  0.0000000E+00;  1.9493324E-01;  7.0619956E+03;
  6.5984702E-01;  9.9999998E-03; -2.0006499E-01;2057; -1.0599186E-01;  0.0000000E+00; -4.5150455E-02;  1.0071358E+03;  4.0316769E-01;  5.9115791E+03;3; -4.5861462E+01;  0.0000000E+00; -1.3395225E+01;0;  2.8018028E-01;  9.9980977E+03;  0.0000000E+00;  1.1245874E-04;  1.0000000E+04;  0.0000000E+00;  9.9864141E+03;  5.9868053E-02;  0.0000000E+00;  2.2031221E-01;  6.4429092E+03;
  6.7980647E-01;  9.9999998E-03; -3.0018038E-01;2083; -1.2933935E-01;  0.0000000E+00; -7.1526542E-02;  1.0087437E+03;  4.0416446E-01;  7.2436230E+03;3; -6.9400276E+01;  0.0000000E+00; -3.4956676E+01;0;  4.9726555E-01;  9.9872813E+03;  0.0000000E+00;  3.1021136E-04;  1.0000000E+04;  0.0000000E+00;  9.9797256E+03;  3.9679074E-01;  0.0000000E+00;  1.0047480E-01;  9.8124072E+03;
  6.7981786E-01;  9.9999998E-03; -2.8017727E-01;2084; -1.2577513E-01;  0.0000000E+00; -6.8479292E-02;  1.0086153E+03;  4.0416479E-01;  7.1371631E+03;3; -6.2115234E+01;  0.0000000E+00; -2.0307112E+01;0;  4.7176176E-01;  9.9879844E+03;  0.0000000E+00;  2.0556306E-03;  1.0000000E+04;  0.0000000E+00;  9.9764697E+03;  3.7610796E-01;  0.0000000E+00;  9.5653802E-02;  1.1480848E+04;
  6.7982912E-01;  9.9999998E-03; -2.6016790E-01;2085; -1.1892802E-01;  0.0000000E+00; -7.4770272E-02;  1.0086798E+03;  4.0416437E-01;  7.1906890E+03;3; -5.6325092E+01;  0.0000000E+00; -1.2566060E+01;0;  5.4613876E-01;  9.9887334E+03;  0.0000000E+00;  2.7185334E-03;  1.0000000E+04;  0.0000000E+00;  9.9770195E+03;  3.5362855E-01;  0.0000000E+00;  1.9251023E-01;  1.1103350E+04;
  6.7983389E-01;  9.9999998E-03; -2.4013716E-01;2086; -1.1424199E-01;  0.0000000E+00; -7.4628860E-02;  1.0088762E+03;  4.0416402E-01;  7.3533418E+03;3; -5.0333218E+01;  0.0000000E+00; -1.4123146E+01;0;  5.4299057E-01;  9.9894678E+03;  0.0000000E+00;  1.8279015E-03;  1.0000000E+04;  0.0000000E+00;  9.9802002E+03;  3.3044535E-01;  0.0000000E+00;  2.1254520E-01;  9.5015059E+03;
  6.7983830E-01;  9.9999998E-03; -2.2010535E-01;2087; -1.1126634E-01;  0.0000000E+00; -6.6731922E-02;  1.0090024E+03;  4.0416375E-01;  7.4578267E+03;3; -4.7169651E+01;  0.0000000E+00; -1.6149452E+01;0;  5.3729117E-01;  9.9901523E+03;  0.0000000E+00;  7.7970419E-04;  1.0000000E+04;  0.0000000E+00;  9.9820264E+03;  3.0790439E-01;  0.0000000E+00;  2.2938679E-01;  8.5782715E+03;
  6.7984408E-01;  9.9999998E-03; -2.0008326E-01;2088; -1.0781267E-01;  0.0000000E+00; -5.8443781E-02;  1.0091085E+03;  4.0416363E-01;  7.5458188E+03;3; -4.5864697E+01;  0.0000000E+00; -1.7155869E+01;0;  5.4786247E-01;  9.9907441E+03;  0.0000000E+00;  1.4308374E-04;  1.0000000E+04;  0.0000000E+00;  9.9835459E+03;  2.8758907E-01;  0.0000000E+00;  2.6027340E-01;  7.7874028E+03;
  6.9983852E-01;  9.9999998E-03; -3.0020446E-01;2114; -1.1144996E-01;  0.0000000E+00; -8.0234155E-02;  1.0096028E+03;  4.0471008E-01;  7.9551040E+03;3; -6.2236191E+01;  0.0000000E+00; -3.8757729E+01;0;  7.4497569E-01;  9.9792959E+03;  0.0000000E+00;  4.7416208E-04;  1.0000000E+04;  0.0000000E+00;  9.9777412E+03;  6.5765339E-01;  0.0000000E+00;  8.7322287E-02;  1.0773906E+04;
  6.9983727E-01;  9.9999998E-03; -2.8020355E-01;2115; -1.1558561E-01;  0.0000000E+00; -7.7311814E-02;  1.0094254E+03;  4.0471026E-01;  7.8081567E+03;3; -6.0022972E+01;  0.0000000E+00; -2.2223791E+01;0;  7.1244419E-01;  9.9801191E+03;  0.0000000E+00;  1.3902605E-03;  1.0000000E+04;  0.0000000E+00;  9.9734121E+03;  6.3268268E-01;  0.0000000E+00;  7.9761535E-02;  1.2984330E+04;
  6.9984353E-01;  9.9999998E-03; -2.6019827E-01;2116; -1.1147840E-01;  0.0000000E+00; -8.7823868E-02;  1.0094626E+03;  4.0470979E-01;  7.8389683E+03;3; -5.5023281E+01;  0.0000000E+00; -1.3335824E+01;0;  8.1846589E-01;  9.9810176E+03;  0.0000000E+00;  1.8895182E-03;  1.0000000E+04;  0.0000000E+00;  9.9732803E+03;  6.0459691E-01;  0.0000000E+00;  2.1386899E-01;  1.2903825E+04;
  6.9984591E-01;  9.9999998E-03; -2.4016580E-01;2117; -1.0796715E-01;  0.0000000E+00; -9.0956680E-02;  1.0096947E+03;  4.0470934E-01;  8.0312437E+03;3; -4.8175198E+01;  0.0000000E+00; -1.5980844E+01;0;  8.1758249E-01;  9.9819063E+03;  0.0000000E+00;  1.3326774E-03;  1.0000000E+04;  0.0000000E+00;  9.9770098E+03;  5.7574785E-01;  0.0000000E+00;  2.4183464E-01;  1.1018108E+04;
  6.9984800E-01;  9.9999998E-03; -2.2012888E-01;2118; -1.0704338E-01;  0.0000000E+00; -8.3854243E-02;  1.0098511E+03;  4.0470892E-01;  8.1608105E+03;3; -4.5581196E+01;  0.0000000E+00; -2.1356693E+01;0;  8.0639625E-01;  9.9827490E+03;  0.0000000E+00;  6.0497120E-04;  1.0000000E+04;  0.0000000E+00;  9.9792822E+03;  5.4767728E-01;  0.0000000E+00;  2.5871894E-01;  9.8728115E+03;
  6.9985259E-01;  9.9999998E-03; -2.0010164E-01;2119; -1.0466969E-01;  0.0000000E+00; -7.3775269E-02;  1.0099784E+03;  4.0470859E-01;  8.2662803E+03;3; -4.5145599E+01;  0.0000000E+00; -2.3969824E+01;0;  8.1651282E-01;  9.9835234E+03;  0.0000000E+00;  1.3663783E-04;  1.0000000E+04;  0.0000000E+00;  9.9810381E+03;  5.2154583E-01;  0.0000000E+00;  2.9496700E-01;  8.9587178E+03;
  7.1988636E-01;  9.9999998E-03; -3.0021986E-01;2145; -7.7981293E-02;  0.0000000E+00; -8.7343395E-02;  1.0099083E+03;  4.0494856E-01;  8.2079883E+03;3; -4.2688877E+01;  0.0000000E+00; -4.3176399E+01;0;  9.2158443E-01;  9.9736611E+03;  0.0000000E+00;  5.4406381E-04;  1.0000000E+04;  0.0000000E+00;  9.9776416E+03;  8.5093099E-01;  0.0000000E+00;  7.0653461E-02;  1.0810802E+04;
  7.1988147E-01;  9.9999998E-03; -2.8021812E-01;2146; -8.4066033E-02;  0.0000000E+00; -8.3667360E-02;  1.0097049E+03;  4.0494889E-01;  8.0395171E+03;3; -4.3501740E+01;  0.0000000E+00; -2.5122017E+01;0;  8.7718266E-01;  9.9744170E+03;  0.0000000E+00;  1.1459063E-03;  1.0000000E+04;  0.0000000E+00;  9.9728633E+03;  8.2830447E-01;  0.0000000E+00;  4.8878215E-02;  1.3266902E+04;
  7.1987933E-01;  9.9999998E-03; -2.6021484E-01;2147; -8.7403625E-02;  0.0000000E+00; -9.5754251E-02;  1.0096844E+03;  4.0494838E-01;  8.0225317E+03;3; -4.2978527E+01;  0.0000000E+00; -1.4552223E+01;0;  1.0083890E+00;  9.9752627E+03;  0.0000000E+00;  1.1735829E-03;  1.0000000E+04;  0.0000000E+00;  9.9716455E+03;  8.0180985E-01;  0.0000000E+00;  2.0657915E-01;  1.3698500E+04;
  7.1987903E-01;  9.9999998E-03; -2.4018325E-01;2148; -8.8715486E-02;  0.0000000E+00; -1.0256284E-01;  1.0098981E+03;  4.0494773E-01;  8.1995947E+03;3; -4.1649845E+01;  0.0000000E+00; -1.8896036E+01;0;  1.0280612E+00;  9.9761387E+03;  0.0000000E+00;  7.9354097E-04;  1.0000000E+04;  0.0000000E+00;  9.9750225E+03;  7.7364677E-01;  0.0000000E+00;  2.5441435E-01;  1.1962203E+04;
  7.1988112E-01;  9.9999998E-03; -2.2014444E-01;2149; -8.8669389E-02;  0.0000000E+00; -9.6911438E-02;  1.0100569E+03;  4.0494743E-01;  8.3310342E+03;3; -4.1813076E+01;  0.0000000E+00; -2.7932228E+01;0;  1.0218987E+00;  9.9770068E+03;  0.0000000E+00;  3.6839987E-04;  1.0000000E+04;  0.0000000E+00;  9.9773066E+03;  7.4508882E-01;  0.0000000E+00;  2.7680993E-01;  1.0804837E+04;
  7.1988535E-01;  9.9999998E-03; -2.0011477E-01;2150; -8.6261824E-02;  0.0000000E+00; -8.5844815E-02;  1.0101907E+03;  4.0494710E-01;  8.4419326E+03;3; -4.1604664E+01;  0.0000000E+00; -3.1400438E+01;0;  1.0368098E+00;  9.9778574E+03;  0.0000000E+00;  9.6262716E-05;  1.0000000E+04;  0.0000000E+00;  9.9791191E+03;  7.1682703E-01;  0.0000000E+00;  3.1998274E-01;  9.8536475E+03;
  7.3992985E-01;  9.9999998E-03; -3.0022919E-01;2176; -4.7751915E-02;  0.0000000E+00; -9.2235900E-02;  1.0100448E+03;  4.0504235E-01;  8.3207529E+03;3; -2.5439857E+01;  0.0000000E+00; -4.6507454E+01;0;  9.9675095E-01;  9.9711523E+03;  0.0000000E+00;  1.4326644E-04;  1.0000000E+04;  0.0000000E+00;  9.9782324E+03;  9.4535381E-01;  0.0000000E+00;  5.1397167E-02;  1.0520295E+04;
  7.3992616E-01;  9.9999998E-03; -2.8022552E-01;2177; -5.2146528E-02;  0.0000000E+00; -8.7096937E-02;  1.0098281E+03;  4.0504265E-01;  8.1412280E+03;3; -2.6593805E+01;  0.0000000E+00; -2.7090670E+01;0;  9.3820894E-01;  9.9717266E+03;  0.0000000E+00;  6.1593688E-04;  1.0000000E+04;  0.0000000E+00;  9.9733750E+03;  9.2926365E-01;  0.0000000E+00;  8.9452928E-03;  1.3046485E+04;
  7.3992407E-01;  9.9999998E-03; -2.6022100E-01;2178; -5.4843292E-02;  0.0000000E+00; -9.8179191E-02;  1.0097654E+03;  4.0504241E-01;  8.0892861E+03;3; -2.6587194E+01;  0.0000000E+00; -1.5165195E+01;0;  1.0821339E+00;  9.9723877E+03;  0.0000000E+00;  6.0234382E-04;  1.0000000E+04;  0.0000000E+00;  9.9714912E+03;  9.0975785E-01;  0.0000000E+00;  1.7237608E-01;  1.3801843E+04;
  7.3992342E-01;  9.9999998E-03; -2.4018946E-01;2179; -5.6451853E-02;  0.0000000E+00; -1.0542835E-01;  1.0099376E+03;  4.0504181E-01;  8.2319775E+03;3; -2.6309223E+01;  0.0000000E+00; -1.9061464E+01;0;  1.1280699E+00;  9.9731270E+03;  0.0000000E+00;  3.7734848E-04;  1.0000000E+04;  0.0000000E+00;  9.9741807E+03;  8.8734704E-01;  0.0000000E+00;  2.4072279E-01;  1.2382401E+04;
  7.3992467E-01;  9.9999998E-03; -2.2015099E-01;2180; -5.6739315E-02;  0.0000000E+00; -1.0092951E-01;  1.0100753E+03;  4.0504131E-01;  8.3460322E+03;3; -2.7008167E+01;  0.0000000E+00; -2.8643988E+01;0;  1.1421527E+00;  9.9739209E+03;  0.0000000E+00;  1.6929940E-04;  1.0000000E+04;  0.0000000E+00;  9.9761270E+03;  8.6236668E-01;  0.0000000E+00;  2.7978599E-01;  1.1370345E+04;
  7.3992741E-01;  9.9999998E-03; -2.0012121E-01;2181; -5.5276379E-02;  0.0000000E+00; -9.0348303E-02;  1.0102043E+03;  4.0504095E-01;  8.4528779E+03;3; -2.7105919E+01;  0.0000000E+00; -3.2538330E+01;0;  1.1690520E+00;  9.9747617E+03;  0.0000000E+00;  4.9398684E-05;  1.0000000E+04;  0.0000000E+00;  9.9778477E+03;  8.3519477E-01;  0.0000000E+00;  3.3385721E-01;  1.0450267E+04;
  7.5996363E-01;  9.9999998E-03; -3.0023494E-01;2207; -2.4672717E-02;  0.0000000E+00; -9.5712982E-02;  1.0101687E+03;  4.0507764E-01;  8.4229316E+03;3; -1.2945214E+01;  0.0000000E+00; -4.8725456E+01;0;  9.9183953E-01;  9.9714277E+03;  0.0000000E+00; -1.7396346E-04;  1.0000000E+04;  0.0000000E+00;  9.9786777E+03;  9.4727612E-01;  0.0000000E+00;  4.4563413E-02;  1.0297517E+04;
  7.5996131E-01;  9.9999998E-03; -2.8022942E-01;2208; -2.7452806E-02;  0.0000000E+00; -8.9327738E-02;  1.0099464E+03;  4.0507799E-01;  8.2387754E+03;3; -1.4078938E+01;  0.0000000E+00; -2.8477676E+01;0;  9.2386210E-01;  9.9717988E+03;  0.0000000E+00;  1.3091642E-04;  1.0000000E+04;  0.0000000E+00;  9.9739023E+03;  9.3861586E-01;  0.0000000E+00; -1.4753755E-02;  1.2803740E+04;
  7.5995988E-01;  9.9999998E-03; -2.6022345E-01;2209; -2.9106133E-02;  0.0000000E+00; -9.9069610E-02;  1.0098546E+03;  4.0507779E-01;  8.1627422E+03;3; -1.4077976E+01;  0.0000000E+00; -1.5492709E+01;0;  1.0731678E+00;  9.9722568E+03;  0.0000000E+00;  1.7275861E-04;  1.0000000E+04;  0.0000000E+00;  9.9716533E+03;  9.2723387E-01;  0.0000000E+00;  1.4593390E-01;  1.3745621E+04;
  7.5995916E-01;  9.9999998E-03; -2.4019186E-01;2210; -3.0364905E-02;  0.0000000E+00; -1.0592477E-01;  1.0099919E+03;  4.0507725E-01;  8.2764951E+03;3; -1.4175697E+01;  0.0000000E+00; -1.8502472E+01;0;  1.1387088E+00;  9.9728135E+03;  0.0000000E+00;  1.0888663E-04;  1.0000000E+04;  0.0000000E+00;  9.9738252E+03;  9.1207874E-01;  0.0000000E+00;  2.2663008E-01;  1.2567850E+04;
  7.5995958E-01;  9.9999998E-03; -2.2015415E-01;2211; -3.0848432E-02;  0.0000000E+00; -1.0238148E-01;  1.0101093E+03;  4.0507689E-01;  8.3737578E+03;3; -1.4877174E+01;  0.0000000E+00; -2.8122400E+01;0;  1.1709735E+00;  9.9734883E+03;  0.0000000E+00;  4.8683407E-05;  1.0000000E+04;  0.0000000E+00;  9.9754854E+03;  8.9249372E-01;  0.0000000E+00;  2.7847987E-01;  1.1680965E+04;
  7.5996095E-01;  9.9999998E-03; -2.0012476E-01;2212; -3.0308504E-02;  0.0000000E+00; -9.2511594E-02;  1.0102302E+03;  4.0507650E-01;  8.4738838E+03;3; -1.5227609E+01;  0.0000000E+00; -3.2568779E+01;0;  1.2088457E+00;  9.9742578E+03;  0.0000000E+00;  1.7099759E-05;  1.0000000E+04;  0.0000000E+00;  9.9771191E+03;  8.6850828E-01;  0.0000000E+00;  3.4033749E-01;  1.0794081E+04;
  7.7998853E-01;  9.9999998E-03; -3.0023819E-01;2238; -8.0382228E-03;  0.0000000E+00; -9.7968280E-02;  1.0103085E+03;  4.0509045E-01;  8.5381846E+03;3; -4.4216971E+00;  0.0000000E+00; -5.0263153E+01;0;  9.3685937E-01;  9.9734395E+03;  0.0000000E+00; -1.7473134E-04;  1.0000000E+04;  0.0000000E+00;  9.9788008E+03;  8.8936919E-01;  0.0000000E+00;  4.7490165E-02;  1.0228133E+04;
  7.7998739E-01;  9.9999998E-03; -2.8023148E-01;2239; -9.3069943E-03;  0.0000000E+00; -9.0903707E-02;  1.0100837E+03;  4.0509096E-01;  8.3519658E+03;3; -5.0551486E+00;  0.0000000E+00; -2.9742670E+01;0;  8.6564130E-01;  9.9736406E+03;  0.0000000E+00; -4.9789567E-05;  1.0000000E+04;  0.0000000E+00;  9.9741455E+03;  8.8696498E-01;  0.0000000E+00; -2.1323681E-02;  1.2683869E+04;
  7.7998662E-01;  9.9999998E-03; -2.6022431E-01;2240; -1.0026409E-02;  0.0000000E+00; -9.9550508E-02;  1.0099786E+03;  4.0509069E-01;  8.2649785E+03;3; -5.1620440E+00;  0.0000000E+00; -1.5944007E+01;0;  1.0158753E+00;  9.9739229E+03;  0.0000000E+00; -3.3700392E-06;  1.0000000E+04;  0.0000000E+00;  9.9718008E+03;  8.8222939E-01;  0.0000000E+00;  1.3364601E-01;  1.3680073E+04;
  7.7998608E-01;  9.9999998E-03; -2.4019247E-01;2241; -1.0800747E-02;  0.0000000E+00; -1.0585919E-01;  1.0100950E+03;  4.0509021E-01;  8.3613457E+03;3; -5.3310957E+00;  0.0000000E+00; -1.8208042E+01;0;  1.0920430E+00;  9.9743291E+03;  0.0000000E+00;  4.2923189E-06;  1.0000000E+04;  0.0000000E+00;  9.9737139E+03;  8.7329131E-01;  0.0000000E+00;  2.1875170E-01;  1.2625741E+04;
  7.7998590E-01;  9.9999998E-03; -2.2015522E-01;2242; -1.1343765E-02;  0.0000000E+00; -1.0266197E-01;  1.0101984E+03;  4.0508980E-01;  8.4469512E+03;3; -5.8982167E+00;  0.0000000E+00; -2.7683050E+01;0;  1.1354414E+00;  9.9748750E+03;  0.0000000E+00;  3.3899767E-06;  1.0000000E+04;  0.0000000E+00;  9.9752227E+03;  8.5887450E-01;  0.0000000E+00;  2.7656695E-01;  1.1807191E+04;
  7.7998620E-01;  9.9999998E-03; -2.0012625E-01;2243; -1.1418461E-02;  0.0000000E+00; -9.3192175E-02;  1.0103121E+03;  4.0508941E-01;  8.5411465E+03;3; -6.2887254E+00;  0.0000000E+00; -3.2204021E+01;0;  1.1808591E+00;  9.9755566E+03;  0.0000000E+00;  2.9321502E-06;  1.0000000E+04;  0.0000000E+00;  9.9768076E+03;  8.3870202E-01;  0.0000000E+00;  3.4215713E-01;  1.0940808E+04;
  8.0000812E-01;  9.9999998E-03; -3.0023947E-01;2269;  4.9807192E-03;  0.0000000E+00; -9.9126436E-02;  1.0104406E+03;  4.0509400E-01;  8.6467988E+03;3;  2.1656458E+00;  0.0000000E+00; -5.1185211E+01;0;  8.6595243E-01;  9.9760420E+03;  0.0000000E+00; -4.9784921E-05;  1.0000000E+04;  0.0000000E+00;  9.9786338E+03;  8.0945587E-01;  0.0000000E+00;  5.6496542E-02;  1.0294021E+04;
  8.0000806E-01;  9.9999998E-03; -2.8023219E-01;2270;  5.0704386E-03;  0.0000000E+00; -9.1705635E-02;  1.0102164E+03;  4.0509453E-01;  8.4610918E+03;3;  2.0198278E+00;  0.0000000E+00; -3.0431721E+01;0;  7.9460675E-01;  9.9761289E+03;  0.0000000E+00; -3.1017840E-05;  1.0000000E+04;  0.0000000E+00;  9.9741055E+03;  8.1103396E-01;  0.0000000E+00; -1.6427230E-02;  1.2687944E+04;
  8.0000788E-01;  9.9999998E-03; -2.6022425E-01;2271;  5.0971010E-03;  0.0000000E+00; -9.9851839E-02;  1.0101107E+03;  4.0509433E-01;  8.3736182E+03;3;  1.8681790E+00;  0.0000000E+00; -1.6512398E+01;0;  9.4405615E-01;  9.9762979E+03;  0.0000000E+00; -1.3226339E-05;  1.0000000E+04;  0.0000000E+00;  9.9718594E+03;  8.1034255E-01;  0.0000000E+00;  1.3371363E-01;  1.3640602E+04;
  8.0000752E-01;  9.9999998E-03; -2.4019215E-01;2272;  4.8523662E-03;  0.0000000E+00; -1.0573744E-01;  1.0102202E+03;  4.0509379E-01;  8.4642510E+03;3;  1.7146342E+00;  0.0000000E+00; -1.8355534E+01;0;  1.0229777E+00;  9.9765977E+03;  0.0000000E+00; -3.5875751E-06;  1.0000000E+04;  0.0000000E+00;  9.9737422E+03;  8.0539674E-01;  0.0000000E+00;  2.1758093E-01;  1.2604349E+04;
  8.0000699E-01;  9.9999998E-03; -2.2015491E-01;2273;  4.3718764E-03;  0.0000000E+00; -1.0231516E-01;  1.0103173E+03;  4.0509346E-01;  8.5447139E+03;3;  1.3720545E+00;  0.0000000E+00; -2.7514946E+01;0;  1.0701406E+00;  9.9770469E+03;  0.0000000E+00; -6.2140617E-07;  1.0000000E+04;  0.0000000E+00;  9.9752246E+03;  7.9469991E-01;  0.0000000E+00;  2.7544063E-01;  1.1799190E+04;
  8.0000651E-01;  9.9999998E-03; -2.0012617E-01;2274;  3.8867882E-03;  0.0000000E+00; -9.2873231E-02;  1.0104263E+03;  4.0509298E-01;  8.6349521E+03;3;  1.0319577E+00;  0.0000000E+00; -3.1724337E+01;0;  1.1190660E+00;  9.9776436E+03;  0.0000000E+00; -7.2921999E-08;  1.0000000E+04;  0.0000000E+00;  9.9767979E+03;  7.7776015E-01;  0.0000000E+00;  3.4130588E-01;  1.0939086E+04;
  8.2002616E-01;  9.9999998E-03; -3.0023894E-01;2300;  1.7284282E-02;  0.0000000E+00; -9.9148057E-02;  1.0105322E+03;  4.0508807E-01;  8.7215527E+03;3;  8.6650143E+00;  0.0000000E+00; -5.1436600E+01;0;  8.0092049E-01;  9.9784688E+03;  0.0000000E+00;  1.7798813E-05;  1.0000000E+04;  0.0000000E+00;  9.9783027E+03;  7.3338240E-01;  0.0000000E+00;  6.7538068E-02;  1.0432400E+04;
  8.2002717E-01;  9.9999998E-03; -2.8023171E-01;2301;  1.8634090E-02;  0.0000000E+00; -9.1718443E-02;  1.0103101E+03;  4.0508854E-01;  8.5376455E+03;3;  8.9386368E+00;  0.0000000E+00; -3.0365026E+01;0;  7.3194456E-01;  9.9785088E+03;  0.0000000E+00;  3.8263071E-05;  1.0000000E+04;  0.0000000E+00;  9.9738662E+03;  7.3635006E-01;  0.0000000E+00; -4.4054934E-03;  1.2775870E+04;
  8.2002735E-01;  9.9999998E-03; -2.6022357E-01;2302;  1.9073933E-02;  0.0000000E+00; -9.9931926E-02;  1.0102131E+03;  4.0508828E-01;  8.4572910E+03;3;  8.6637936E+00;  0.0000000E+00; -1.6955359E+01;0;  8.7976182E-01;  9.9786318E+03;  0.0000000E+00;  4.2554504E-05;  1.0000000E+04;  0.0000000E+00;  9.9718428E+03;  7.3699301E-01;  0.0000000E+00;  1.4276883E-01;  1.3619550E+04;
  8.2002723E-01;  9.9999998E-03; -2.4019106E-01;2303;  1.9319844E-02;  0.0000000E+00; -1.0546111E-01;  1.0103282E+03;  4.0508786E-01;  8.5527490E+03;3;  8.3876734E+00;  0.0000000E+00; -1.8743917E+01;0;  9.5454669E-01;  9.9788789E+03;  0.0000000E+00;  2.8580911E-05;  1.0000000E+04;  0.0000000E+00;  9.9738887E+03;  7.3359960E-01;  0.0000000E+00;  2.2094710E-01;  1.2512525E+04;
  8.2002640E-01;  9.9999998E-03; -2.2015354E-01;2304;  1.8976774E-02;  0.0000000E+00; -1.0147043E-01;  1.0104261E+03;  4.0508741E-01;  8.6336963E+03;3;  8.2965612E+00;  0.0000000E+00; -2.7515335E+01;0;  9.9957377E-01;  9.9792705E+03;  0.0000000E+00;  1.2163582E-05;  1.0000000E+04;  0.0000000E+00;  9.9754375E+03;  7.2471029E-01;  0.0000000E+00;  2.7486348E-01;  1.1680222E+04;
  8.2002521E-01;  9.9999998E-03; -2.0012484E-01;2305;  1.8149424E-02;  0.0000000E+00; -9.1791280E-02;  1.0105327E+03;  4.0508705E-01;  8.7220469E+03;3;  8.0111275E+00;  0.0000000E+00; -3.1229645E+01;0;  1.0483093E+00;  9.9798096E+03;  0.0000000E+00;  2.0415343E-06;  1.0000000E+04;  0.0000000E+00;  9.9770254E+03;  7.0971590E-01;  0.0000000E+00;  3.3859348E-01;  1.0817221E+04;
  8.4004486E-01;  9.9999998E-03; -3.0023542E-01;2331;  3.0332385E-02;  0.0000000E+00; -9.7974613E-02;  1.0104316E+03;  4.0500575E-01;  8.6368076E+03;3;  1.5971257E+01;  0.0000000E+00; -5.1061085E+01;0;  7.4475169E-01;  9.9805234E+03;  0.0000000E+00;  3.9692950E-05;  1.0000000E+04;  0.0000000E+00;  9.9783193E+03;  6.6869241E-01;  0.0000000E+00;  7.6059267E-02;  1.0394882E+04;
  8.4004664E-01;  9.9999998E-03; -2.8022841E-01;2332;  3.2739729E-02;  0.0000000E+00; -9.0687811E-02;  1.0102144E+03;  4.0500617E-01;  8.4569775E+03;3;  1.6513931E+01;  0.0000000E+00; -3.0068987E+01;0;  6.7791963E-01;  9.9805713E+03;  0.0000000E+00;  1.2998885E-04;  1.0000000E+04;  0.0000000E+00;  9.9739707E+03;  6.7079413E-01;  0.0000000E+00;  7.1254782E-03;  1.2685984E+04;
  8.4004700E-01;  9.9999998E-03; -2.6022017E-01;2333;  3.3427328E-02;  0.0000000E+00; -9.8903783E-02;  1.0101265E+03;  4.0500590E-01;  8.3842354E+03;3;  1.6030958E+01;  0.0000000E+00; -1.7211126E+01;0;  8.2162958E-01;  9.9806973E+03;  0.0000000E+00;  1.3737145E-04;  1.0000000E+04;  0.0000000E+00;  9.9721221E+03;  6.7052352E-01;  0.0000000E+00;  1.5110604E-01;  1.3443313E+04;
  8.4004706E-01;  9.9999998E-03; -2.4018779E-01;2334;  3.4050260E-02;  0.0000000E+00; -1.0414103E-01;  1.0102468E+03;  4.0500540E-01;  8.4838232E+03;3;  1.5461074E+01;  0.0000000E+00; -1.9035221E+01;0;  8.9037490E-01;  9.9809395E+03;  0.0000000E+00;  8.6407934E-05;  1.0000000E+04;  0.0000000E+00;  9.9742744E+03;  6.6654074E-01;  0.0000000E+00;  2.2383417E-01;  1.2293573E+04;
  8.4004599E-01;  9.9999998E-03; -2.2015050E-01;2335;  3.3865143E-02;  0.0000000E+00; -9.9655449E-02;  1.0103462E+03;  4.0500510E-01;  8.5661387E+03;3;  1.5534243E+01;  0.0000000E+00; -2.7447474E+01;0;  9.3070424E-01;  9.9813154E+03;  0.0000000E+00;  3.6021283E-05;  1.0000000E+04;  0.0000000E+00;  9.9758789E+03;  6.5755683E-01;  0.0000000E+00;  2.7314737E-01;  1.1444020E+04;
  8.4004408E-01;  9.9999998E-03; -2.0012221E-01;2336;  3.2657295E-02;  0.0000000E+00; -8.9872330E-02;  1.0104520E+03;  4.0500468E-01;  8.6537842E+03;3;  1.5253319E+01;  0.0000000E+00; -3.0634535E+01;0;  9.7675860E-01;  9.9818232E+03;  0.0000000E+00;  7.5668540E-06;  1.0000000E+04;  0.0000000E+00;  9.9774746E+03;  6.4297378E-01;  0.0000000E+00;  3.3378479E-01;  1.0583216E+04;
  8.6006403E-01;  9.9999998E-03; -3.0022886E-01;2362;  4.3950893E-02;  0.0000000E+00; -9.5555313E-02;  1.0101448E+03;  4.0484369E-01;  8.3975596E+03;3;  2.3946724E+01;  0.0000000E+00; -4.9967281E+01;0;  6.8879020E-01;  9.9824102E+03;  0.0000000E+00;  9.0733767E-05;  1.0000000E+04;  0.0000000E+00;  9.9787578E+03;  6.0882956E-01;  0.0000000E+00;  7.9960674E-02;  1.0149605E+04;
  8.6006653E-01;  9.9999998E-03; -2.8022200E-01;2363;  4.7307882E-02;  0.0000000E+00; -8.8492967E-02;  1.0099352E+03;  4.0484414E-01;  8.2240840E+03;3;  2.4621977E+01;  0.0000000E+00; -2.9429043E+01;0;  6.2437648E-01;  9.9825010E+03;  0.0000000E+00;  2.7018131E-04;  1.0000000E+04;  0.0000000E+00;  9.9745137E+03;  6.0852164E-01;  0.0000000E+00;  1.5854811E-02;  1.2373150E+04;
  8.6006683E-01;  9.9999998E-03; -2.6021370E-01;2364;  4.8108675E-02;  0.0000000E+00; -9.6459523E-02;  1.0098566E+03;  4.0484387E-01;  8.1589565E+03;3;  2.3852421E+01;  0.0000000E+00; -1.7393137E+01;0;  7.6035243E-01;  9.9826699E+03;  0.0000000E+00;  2.8122216E-04;  1.0000000E+04;  0.0000000E+00;  9.9728057E+03;  6.0572553E-01;  0.0000000E+00;  1.5462692E-01;  1.3065243E+04;
  8.6006707E-01;  9.9999998E-03; -2.4018210E-01;2365;  4.8995048E-02;  0.0000000E+00; -1.0141373E-01;  1.0099781E+03;  4.0484348E-01;  8.2596074E+03;3;  2.2915506E+01;  0.0000000E+00; -1.9027096E+01;0;  8.2311738E-01;  9.9829473E+03;  0.0000000E+00;  1.7445194E-04;  1.0000000E+04;  0.0000000E+00;  9.9749512E+03;  5.9945846E-01;  0.0000000E+00;  2.2365895E-01;  1.1927774E+04;
  8.6006576E-01;  9.9999998E-03; -2.2014572E-01;2366;  4.8949745E-02;  0.0000000E+00; -9.6697487E-02;  1.0100790E+03;  4.0484309E-01;  8.3430889E+03;3;  2.3075264E+01;  0.0000000E+00; -2.6940920E+01;0;  8.5779822E-01;  9.9833438E+03;  0.0000000E+00;  7.2631730E-05;  1.0000000E+04;  0.0000000E+00;  9.9765596E+03;  5.8870584E-01;  0.0000000E+00;  2.6909241E-01;  1.1083860E+04;
  8.6006314E-01;  9.9999998E-03; -2.0011821E-01;2367;  4.7286708E-02;  0.0000000E+00; -8.7059259E-02;  1.0101844E+03;  4.0484273E-01;  8.4303203E+03;3;  2.2649467E+01;  0.0000000E+00; -2.9841856E+01;0;  8.9932430E-01;  9.9838574E+03;  0.0000000E+00;  1.6485217E-05;  1.0000000E+04;  0.0000000E+00;  9.9781416E+03;  5.7306373E-01;  0.0000000E+00;  3.2626057E-01;  1.0236044E+04;
  8.8008237E-01;  9.9999998E-03; -3.0021957E-01;2393;  5.7174206E-02;  0.0000000E+00; -9.2061616E-02;  1.0097071E+03;  4.0461129E-01;  8.0327954E+03;3;  3.1871113E+01;  0.0000000E+00; -4.8176052E+01;0;  6.2496710E-01;  9.9844326E+03;  0.0000000E+00;  1.8998032E-04;  1.0000000E+04;  0.0000000E+00;  9.9795469E+03;  5.4317182E-01;  0.0000000E+00;  8.1795290E-02;  9.7275566E+03;
  8.8008541E-01;  9.9999998E-03; -2.8021282E-01;2394;  6.1314929E-02;  0.0000000E+00; -8.5329488E-02;  1.0095088E+03;  4.0461162E-01;  7.8687441E+03;3;  3.2517471E+01;  0.0000000E+00; -2.8607256E+01;0;  5.6236243E-01;  9.9845889E+03;  0.0000000E+00;  4.5825995E-04;  1.0000000E+04;  0.0000000E+00;  9.9754619E+03;  5.3955650E-01;  0.0000000E+00;  2.2805924E-02;  1.1854136E+04;
  8.8008565E-01;  9.9999998E-03; -2.6020432E-01;2395;  6.2052794E-02;  0.0000000E+00; -9.2668712E-02;  1.0094403E+03;  4.0461141E-01;  7.8120215E+03;3;  3.1437773E+01;  0.0000000E+00; -1.7308168E+01;0;  6.8674558E-01;  9.9848369E+03;  0.0000000E+00;  4.6834920E-04;  1.0000000E+04;  0.0000000E+00;  9.9738818E+03;  5.3314364E-01;  0.0000000E+00;  1.5360193E-01;  1.2490659E+04;
  8.8008606E-01;  9.9999998E-03; -2.4017400E-01;2396;  6.3214839E-02;  0.0000000E+00; -9.7269692E-02;  1.0095605E+03;  4.0461102E-01;  7.9114590E+03;3;  3.0084797E+01;  0.0000000E+00; -1.8700718E+01;0;  7.4275917E-01;  9.9851797E+03;  0.0000000E+00;  2.8693958E-04;  1.0000000E+04;  0.0000000E+00;  9.9759277E+03;  5.2328080E-01;  0.0000000E+00;  2.1947837E-01;  1.1410486E+04;
  8.8008446E-01;  9.9999998E-03; -2.2013921E-01;2397;  6.3272722E-02;  0.0000000E+00; -9.2599161E-02;  1.0096617E+03;  4.0461066E-01;  7.9953096E+03;3;  3.0339626E+01;  0.0000000E+00; -2.6075363E+01;0;  7.7129495E-01;  9.9856357E+03;  0.0000000E+00;  1.1866246E-04;  1.0000000E+04;  0.0000000E+00;  9.9774834E+03;  5.0936460E-01;  0.0000000E+00;  2.6193038E-01;  1.0597761E+04;
  8.8008112E-01;  9.9999998E-03; -2.0011294E-01;2398;  6.1131455E-02;  0.0000000E+00; -8.3327360E-02;  1.0097675E+03;  4.0461031E-01;  8.0827119E+03;3;  2.9717840E+01;  0.0000000E+00; -2.8775440E+01;0;  8.0695367E-01;  9.9861914E+03;  0.0000000E+00;  2.6907675E-05;  1.0000000E+04;  0.0000000E+00;  9.9790371E+03;  4.9141756E-01;  0.0000000E+00;  3.1553614E-01;  9.7757705E+03;
  9.0009856E-01;  9.9999998E-03; -3.0020803E-01;2424;  6.8980753E-02;  0.0000000E+00; -8.7678827E-02;  1.0091516E+03;  4.0432110E-01;  7.5700205E+03;3;  3.9064125E+01;  0.0000000E+00; -4.5811363E+01;0;  5.4866195E-01;  9.9867383E+03;  0.0000000E+00;  3.0491897E-04;  1.0000000E+04;  0.0000000E+00;  9.9805859E+03;  4.6647906E-01;  0.0000000E+00;  8.2182854E-02;  9.1762480E+03;
  9.0010178E-01;  9.9999998E-03; -2.8020123E-01;2425;  7.3620498E-02;  0.0000000E+00; -8.1268877E-02;  1.0089705E+03;  4.0432137E-01;  7.4202349E+03;3;  3.9564190E+01;  0.0000000E+00; -2.7404951E+01;0;  4.8721257E-01;  9.9869893E+03;  0.0000000E+00;  6.5712014E-04;  1.0000000E+04;  0.0000000E+00;  9.9767500E+03;  4.5898849E-01;  0.0000000E+00;  2.8224075E-02;  1.1160773E+04;
  9.0010166E-01;  9.9999998E-03; -2.6019239E-01;2426;  7.3989697E-02;  0.0000000E+00; -8.7671727E-02;  1.0089142E+03;  4.0432119E-01;  7.3736919E+03;3;  3.8048512E+01;  0.0000000E+00; -1.6983215E+01;0;  5.9616625E-01;  9.9873330E+03;  0.0000000E+00;  6.6423242E-04;  1.0000000E+04;  0.0000000E+00;  9.9753105E+03;  4.4818571E-01;  0.0000000E+00;  1.4798053E-01;  1.1738427E+04;
  9.0010232E-01;  9.9999998E-03; -2.4016361E-01;2427;  7.5262092E-02;  0.0000000E+00; -9.1527671E-02;  1.0090311E+03;  4.0432075E-01;  7.4703276E+03;3;  3.6079792E+01;  0.0000000E+00; -1.7790440E+01;0;  6.4411181E-01;  9.9877783E+03;  0.0000000E+00;  3.9932210E-04;  1.0000000E+04;  0.0000000E+00;  9.9771885E+03;  4.3370956E-01;  0.0000000E+00;  2.1040224E-01;  1.0750770E+04;
  9.0010059E-01;  9.9999998E-03; -2.2013110E-01;2428;  7.5653493E-02;  0.0000000E+00; -8.7336414E-02;  1.0091318E+03;  4.0432048E-01;  7.5536519E+03;3;  3.6540199E+01;  0.0000000E+00; -2.4588060E+01;0;  6.6705751E-01;  9.9883281E+03;  0.0000000E+00;  1.6155691E-04;  1.0000000E+04;  0.0000000E+00;  9.9786475E+03;  4.1553673E-01;  0.0000000E+00;  2.5152081E-01;  9.9933164E+03;
  9.0009665E-01;  9.9999998E-03; -2.0010646E-01;2429;  7.3146477E-02;  0.0000000E+00; -7.8725189E-02;  1.0092382E+03;  4.0432027E-01;  7.6416104E+03;3;  3.5932358E+01;  0.0000000E+00; -2.7407610E+01;0;  6.9597268E-01;  9.9889502E+03;  0.0000000E+00;  3.4545112E-05;  1.0000000E+04;  0.0000000E+00;  9.9801396E+03;  3.9440051E-01;  0.0000000E+00;  3.0157220E-01;  9.2097119E+03;
  9.2011142E-01;  9.9999998E-03; -3.0019471E-01;2455;  7.8460574E-02;  0.0000000E+00; -8.2569554E-02;  1.0085072E+03;  4.0398809E-01;  7.0331938E+03;3;  4.4964176E+01;  0.0000000E+00; -4.3224407E+01;0;  4.6242675E-01;  9.9892031E+03;  0.0000000E+00;  3.9620372E-04;  1.0000000E+04;  0.0000000E+00;  9.9818252E+03;  3.8245365E-01;  0.0000000E+00;  7.9973109E-02;  8.5240303E+03;
  9.2011416E-01;  9.9999998E-03; -2.8018770E-01;2456;  8.3185017E-02;  0.0000000E+00; -7.6498583E-02;  1.0083480E+03;  4.0398824E-01;  6.9015249E+03;3;  4.5325066E+01;  0.0000000E+00; -2.5981228E+01;0;  4.0354997E-01;  9.9895654E+03;  0.0000000E+00;  8.2761043E-04;  1.0000000E+04;  0.0000000E+00;  9.9783086E+03;  3.7066925E-01;  0.0000000E+00;  3.2880716E-02;  1.0325897E+04;
  9.2011386E-01;  9.9999998E-03; -2.6017851E-01;2457;  8.3148032E-02;  0.0000000E+00; -8.1758484E-02;  1.0083055E+03;  4.0398809E-01;  6.8663413E+03;3;  4.3268265E+01;  0.0000000E+00; -1.6317492E+01;0;  4.9446309E-01;  9.9900371E+03;  0.0000000E+00;  8.1776700E-04;  1.0000000E+04;  0.0000000E+00;  9.9770127E+03;  3.5494381E-01;  0.0000000E+00;  1.3951927E-01;  1.0845911E+04;
  9.2011470E-01;  9.9999998E-03; -2.4015151E-01;2458;  8.4376670E-02;  0.0000000E+00; -8.4747359E-02;  1.0084183E+03;  4.0398782E-01;  6.9596709E+03;3;  4.0565842E+01;  0.0000000E+00; -1.6668541E+01;0;  5.3320217E-01;  9.9906221E+03;  0.0000000E+00;  4.7734354E-04;  1.0000000E+04;  0.0000000E+00;  9.9786768E+03;  3.3520174E-01;  0.0000000E+00;  1.9800040E-01;  9.9743193E+03;
  9.2011285E-01;  9.9999998E-03; -2.2012168E-01;2459;  8.5041597E-02;  0.0000000E+00; -8.1033640E-02;  1.0085187E+03;  4.0398750E-01;  7.0426538E+03;3;  4.1052246E+01;  0.0000000E+00; -2.2475105E+01;0;  5.5045325E-01;  9.9912881E+03;  0.0000000E+00;  1.8615868E-04;  1.0000000E+04;  0.0000000E+00;  9.9800020E+03;  3.1219226E-01;  0.0000000E+00;  2.3826100E-01;  9.2882666E+03;
  9.2010790E-01;  9.9999998E-03; -2.0009902E-01;2460;  8.1836112E-02;  0.0000000E+00; -7.3406324E-02;  1.0086246E+03;  4.0398729E-01;  7.1302700E+03;3;  4.0498253E+01;  0.0000000E+00; -2.5777536E+01;0;  5.7249844E-01;  9.9919932E+03;  0.0000000E+00;  3.5966696E-05;  1.0000000E+04;  0.0000000E+00;  9.9814141E+03;  2.8765783E-01;  0.0000000E+00;  2.8484061E-01;  8.5541230E+03;
  9.4012010E-01;  9.9999998E-03; -3.0018017E-01;2486;  8.5107781E-02;  0.0000000E+00; -7.6936230E-02;  1.0077943E+03;  4.0362811E-01;  6.4389917E+03;3;  4.9210541E+01;  0.0000000E+00; -4.0297829E+01;0;  3.7790844E-01;  9.9915195E+03;  0.0000000E+00;  4.4282427E-04;  1.0000000E+04;  0.0000000E+00;  9.9831924E+03;  3.0096364E-01;  0.0000000E+00;  7.6944806E-02;  7.8011064E+03;
  9.4012254E-01;  9.9999998E-03; -2.8017306E-01;2487;  8.9977764E-02;  0.0000000E+00; -7.1415827E-02;  1.0076592E+03;  4.0362832E-01;  6.3274121E+03;3;  4.9818035E+01;  0.0000000E+00; -2.4743176E+01;0;  3.2127473E-01;  9.9920215E+03;  0.0000000E+00;  9.9266577E-04;  1.0000000E+04;  0.0000000E+00;  9.9800137E+03;  2.8458816E-01;  0.0000000E+00;  3.6686581E-02;  9.4108486E+03;
  9.4012213E-01;  9.9999998E-03; -2.6016364E-01;2488;  8.9647606E-02;  0.0000000E+00; -7.5562693E-02;  1.0076315E+03;  4.0362814E-01;  6.3044658E+03;3;  4.7060757E+01;  0.0000000E+00; -1.5627526E+01;0;  3.9458907E-01;  9.9926494E+03;  0.0000000E+00;  8.9911080E-04;  1.0000000E+04;  0.0000000E+00;  9.9788506E+03;  2.6371258E-01;  0.0000000E+00;  1.3087650E-01;  9.8756748E+03;
  9.4012284E-01;  9.9999998E-03; -2.4013853E-01;2489;  9.0551294E-02;  0.0000000E+00; -7.7755138E-02;  1.0077416E+03;  4.0362784E-01;  6.3954614E+03;3;  4.3769657E+01;  0.0000000E+00; -1.5656495E+01;0;  4.2341837E-01;  9.9933877E+03;  0.0000000E+00;  4.9421249E-04;  1.0000000E+04;  0.0000000E+00;  9.9803057E+03;  2.3867467E-01;  0.0000000E+00;  1.8474370E-01;  9.1194658E+03;
  9.4011873E-01;  9.9999998E-03; -2.2011150E-01;2490;  8.9250483E-02;  0.0000000E+00; -7.4538201E-02;  1.0078412E+03;  4.0362769E-01;  6.4777930E+03;3;  4.3009377E+01;  0.0000000E+00; -2.1013201E+01;0;  4.3459129E-01;  9.9941885E+03;  0.0000000E+00;  1.8634024E-04;  1.0000000E+04;  0.0000000E+00;  9.9814932E+03;  2.1115339E-01;  0.0000000E+00;  2.2343792E-01;  8.5103223E+03;
  9.4011158E-01;  9.9999998E-03; -2.0009103E-01;2491;  8.4280446E-02;  0.0000000E+00; -6.7663476E-02;  1.0079467E+03;  4.0362749E-01;  6.5649512E+03;3;  4.1483143E+01;  0.0000000E+00; -2.4006409E+01;0;  4.5008051E-01;  9.9949688E+03;  0.0000000E+00;  3.2208121E-05;  1.0000000E+04;  0.0000000E+00;  9.9828115E+03;  1.8388677E-01;  0.0000000E+00;  2.6619375E-01;  7.8331206E+03;
  9.6012604E-01;  9.9999998E-03; -3.0016509E-01;2517;  8.9805797E-02;  0.0000000E+00; -7.1000561E-02;  1.0070334E+03;  4.0325695E-01;  5.8047168E+03;3;  5.2282589E+01;  0.0000000E+00; -3.7132854E+01;0;  3.0533668E-01;  9.9933848E+03;  0.0000000E+00;  4.1777286E-04;  1.0000000E+04;  0.0000000E+00;  9.9846182E+03;  2.3231529E-01;  0.0000000E+00;  7.3021397E-02;  7.0389180E+03;
  9.6012813E-01;  9.9999998E-03; -2.8015795E-01;2518;  9.4465971E-02;  0.0000000E+00; -6.5897971E-02;  1.0069236E+03;  4.0325704E-01;  5.7140068E+03;3;  5.2700527E+01;  0.0000000E+00; -2.3164690E+01;0;  2.4873820E-01;  9.9940459E+03;  0.0000000E+00;  3.3016072E-03;  1.0000000E+04;  0.0000000E+00;  9.9817734E+03;  2.1127793E-01;  0.0000000E+00;  3.7460264E-02;  8.4605938E+03;
  9.6012729E-01;  9.9999998E-03; -2.6014856E-01;2519;  9.3960375E-02;  0.0000000E+00; -6.9292121E-02;  1.0069099E+03;  4.0325701E-01;  5.7027910E+03;3;  4.9504715E+01;  0.0000000E+00; -1.4752254E+01;0;  3.0804288E-01;  9.9948457E+03;  0.0000000E+00;  3.0141438E-03;  1.0000000E+04;  0.0000000E+00;  9.9807227E+03;  1.8540989E-01;  0.0000000E+00;  1.2263300E-01;  8.8770020E+03;
  9.6012592E-01;  9.9999998E-03; -2.4012549E-01;2520;  9.3414903E-02;  0.0000000E+00; -7.1185723E-02;  1.0070182E+03;  4.0325674E-01;  5.7921240E+03;3;  4.5645554E+01;  0.0000000E+00; -1.4877275E+01;0;  3.2868069E-01;  9.9957461E+03;  0.0000000E+00;  1.2589924E-03;  1.0000000E+04;  0.0000000E+00;  9.9819814E+03;  1.5575638E-01;  0.0000000E+00;  1.7292431E-01;  8.2291279E+03;
  9.6011925E-01;  9.9999998E-03; -2.2010104E-01;2521;  8.9682370E-02;  0.0000000E+00; -6.8187751E-02;  1.0071181E+03;  4.0325657E-01;  5.8745713E+03;3;  4.3637905E+01;  0.0000000E+00; -2.0434376E+01;0;  3.3282197E-01;  9.9966680E+03;  0.0000000E+00;  2.3976738E-04;  1.0000000E+04;  0.0000000E+00;  9.9830469E+03;  1.2478510E-01;  0.0000000E+00;  2.0803687E-01;  7.6904839E+03;
  9.6011126E-01;  9.9999998E-03; -2.0008275E-01;2522;  8.4023722E-02;  0.0000000E+00; -6.1709929E-02;  1.0072220E+03;  4.0325648E-01;  5.9602661E+03;3;  4.1469013E+01;  0.0000000E+00; -2.2200981E+01;0;  3.4235007E-01;  9.9975146E+03;  0.0000000E+00;  2.5631416E-05;  1.0000000E+04;  0.0000000E+00;  9.9842695E+03;  9.5809519E-02;  0.0000000E+00;  2.4654053E-01;  7.0750791E+03;
  9.8013103E-01;  9.9999998E-03; -3.0014983E-01;2548;  9.3699977E-02;  0.0000000E+00; -6.4862445E-02;  1.0062554E+03;  4.0288904E-01;  5.1556768E+03;3;  5.4980652E+01;  0.0000000E+00; -3.3941994E+01;0;  2.4685556E-01;  9.9946641E+03;  0.0000000E+00;  2.3894904E-04;  1.0000000E+04;  0.0000000E+00;  9.9861338E+03;  1.8161933E-01;  0.0000000E+00;  6.5236218E-02;  6.2295596E+03;
  9.8013228E-01;  9.9999998E-03; -2.8014278E-01;2549;  9.7806051E-02;  0.0000000E+00; -6.0152031E-02;  1.0061668E+03;  4.0288901E-01;  5.0826743E+03;3;  5.4682770E+01;  0.0000000E+00; -2.1371571E+01;0;  1.9227399E-01;  9.9954912E+03;  0.0000000E+00;  1.1752476E-02;  1.0000000E+04;  0.0000000E+00;  9.9835518E+03;  1.5641192E-01;  0.0000000E+00;  3.5862070E-02;  7.4950605E+03;
  9.8013026E-01;  9.9999998E-03; -2.6013368E-01;2550;  9.6728452E-02;  0.0000000E+00; -6.3084349E-02;  1.0061644E+03;  4.0288889E-01;  5.0806123E+03;3;  5.0826191E+01;  0.0000000E+00; -1.3750382E+01;0;  2.4142459E-01;  9.9964561E+03;  0.0000000E+00;  1.1915573E-02;  1.0000000E+04;  0.0000000E+00;  9.9825508E+03;  1.2623188E-01;  0.0000000E+00;  1.1519270E-01;  7.8854453E+03;
  9.8012608E-01;  9.9999998E-03; -2.4011268E-01;2551;  9.4056472E-02;  0.0000000E+00; -6.5032125E-02;  1.0062707E+03;  4.0288880E-01;  5.1682549E+03;3;  4.6220467E+01;  0.0000000E+00; -1.4617673E+01;0;  2.5571382E-01;  9.9974980E+03;  0.0000000E+00;  5.9788036E-03;  1.0000000E+04;  0.0000000E+00;  9.9836309E+03;  9.3190424E-02;  0.0000000E+00;  1.6252339E-01;  7.3366343E+03;
  9.8011786E-01;  9.9999998E-03; -2.2009057E-01;2552;  8.8902026E-02;  0.0000000E+00; -6.1666865E-02;  1.0063704E+03;  4.0288869E-01;  5.2503965E+03;3;  4.3656017E+01;  0.0000000E+00; -1.9468937E+01;0;  2.5269142E-01;  9.9985186E+03;  0.0000000E+00;  1.5941670E-03;  1.0000000E+04;  0.0000000E+00;  9.9845918E+03;  6.0137756E-02;  0.0000000E+00;  1.9255367E-01;  6.8637612E+03;
  9.8010933E-01;  9.9999998E-03; -2.0007454E-01;2553;  8.2862809E-02;  0.0000000E+00; -5.5853955E-02;  1.0064719E+03;  4.0288857E-01;  5.3341113E+03;3;  4.1199352E+01;  0.0000000E+00; -2.0499935E+01;0;  2.5724813E-01;  9.9994209E+03;  0.0000000E+00;  1.5144210E-04;  1.0000000E+04;  0.0000000E+00;  9.9857109E+03;  3.0416269E-02;  0.0000000E+00;  2.2683187E-01;  6.3113389E+03;
  1.0001369E+00;  9.9999998E-03; -3.0013469E-01;2579;  9.7915724E-02;  0.0000000E+00; -5.8624517E-02;  1.0054960E+03;  4.0253621E-01;  4.5216875E+03;3;  5.7923477E+01;  0.0000000E+00; -3.0843197E+01;0;  2.0003669E-01;  9.9954258E+03;  0.0000000E+00; -1.9624992E-03;  1.0000000E+04;  0.0000000E+00;  9.9877891E+03;  1.4785418E-01;  0.0000000E+00;  5.2182510E-02;  5.3579756E+03;
  1.0001363E+00;  9.9999998E-03; -2.8012788E-01;2580;  1.0052102E-01;  0.0000000E+00; -5.4410249E-02;  1.0054224E+03;  4.0253633E-01;  4.4610771E+03;3;  5.5802261E+01;  0.0000000E+00; -1.9754011E+01;0;  1.5156317E-01;  9.9964072E+03;  0.0000000E+00;  2.5393629E-02;  1.0000000E+04;  0.0000000E+00;  9.9853525E+03;  1.1936150E-01;  0.0000000E+00;  3.2201666E-02;  6.5131343E+03;
  1.0001321E+00;  9.9999998E-03; -2.6011935E-01;2581;  9.8219730E-02;  0.0000000E+00; -5.7071254E-02;  1.0054241E+03;  4.0253615E-01;  4.4624526E+03;3;  5.0963383E+01;  0.0000000E+00; -1.3170862E+01;0;  1.9423756E-01;  9.9975137E+03;  0.0000000E+00;  2.7604364E-02;  1.0000000E+04;  0.0000000E+00;  9.9842881E+03;  8.5851572E-02;  0.0000000E+00;  1.0838598E-01;  6.9256201E+03;
  1.0001252E+00;  9.9999998E-03; -2.4010034E-01;2582;  9.3710721E-02;  0.0000000E+00; -5.8950588E-02;  1.0055265E+03;  4.0253603E-01;  4.5468008E+03;3;  4.6368866E+01;  0.0000000E+00; -1.4627114E+01;0;  2.0392573E-01;  9.9986582E+03;  0.0000000E+00;  1.4743615E-02;  1.0000000E+04;  0.0000000E+00;  9.9851836E+03;  5.0879478E-02;  0.0000000E+00;  1.5304625E-01;  6.4764585E+03;
  1.0001154E+00;  9.9999998E-03; -2.2008058E-01;2583;  8.7457463E-02;  0.0000000E+00; -5.5273585E-02;  1.0056239E+03;  4.0253606E-01;  4.6269336E+03;3;  4.3431034E+01;  0.0000000E+00; -1.8132692E+01;0;  1.9555953E-01;  9.9997383E+03;  0.0000000E+00;  4.2008609E-03;  1.0000000E+04;  0.0000000E+00;  9.9860430E+03;  1.7308924E-02;  0.0000000E+00;  1.7825061E-01;  6.0674238E+03;
  1.0001065E+00;  9.9999998E-03; -2.0006680E-01;2584;  8.1209518E-02;  0.0000000E+00; -5.0394088E-02;  1.0057222E+03;  4.0253580E-01;  4.7078506E+03;3;  4.0849026E+01;  0.0000000E+00; -1.9019114E+01;0;  1.9608685E-01;  1.0000666E+04;  0.0000000E+00;  4.4581897E-04;  1.0000000E+04;  0.0000000E+00;  9.9870732E+03; -1.2094550E-02;  0.0000000E+00;  2.0818140E-01;  5.5749839E+03;
  1.0201452E+00;  9.9999998E-03; -3.0012012E-01;2610;  1.0334235E-01;  0.0000000E+00; -5.2416217E-02;  1.0047855E+03;  4.0220815E-01;  3.9275894E+03;3;  6.1707012E+01;  0.0000000E+00; -2.7810083E+01;0;  1.6101737E-01;  9.9958408E+03;  0.0000000E+00; -5.6653251E-03;  1.0000000E+04;  0.0000000E+00;  9.9895420E+03;  1.2708831E-01;  0.0000000E+00;  3.3929069E-02;  4.4518354E+03;
  1.0201410E+00;  9.9999998E-03; -2.8011376E-01;2611;  1.0277934E-01;  0.0000000E+00; -4.9142484E-02;  1.0047204E+03;  4.0220830E-01;  3.8742690E+03;3;  5.6475769E+01;  0.0000000E+00; -1.8651520E+01;0;  1.2541854E-01;  9.9969863E+03;  0.0000000E+00;  3.1387255E-02;  1.0000000E+04;  0.0000000E+00;  9.9871045E+03;  9.4823584E-02;  0.0000000E+00;  3.0594965E-02;  5.5501851E+03;
  1.0201337E+00;  9.9999998E-03; -2.6010615E-01;2612;  9.8998591E-02;  0.0000000E+00; -5.1474947E-02;  1.0047188E+03;  4.0220839E-01;  3.8729031E+03;3;  5.0562309E+01;  0.0000000E+00; -1.2555758E+01;0;  1.6402072E-01;  9.9982109E+03;  0.0000000E+00;  3.6606550E-02;  1.0000000E+04;  0.0000000E+00;  9.9858467E+03;  5.9018701E-02;  0.0000000E+00;  1.0500202E-01;  6.0358125E+03;
  1.0201238E+00;  9.9999998E-03; -2.4008916E-01;2613;  9.3114272E-02;  0.0000000E+00; -5.2854281E-02;  1.0048140E+03;  4.0220824E-01;  3.9510825E+03;3;  4.6672363E+01;  0.0000000E+00; -1.4050010E+01;0;  1.6899963E-01;  9.9994053E+03;  0.0000000E+00;  1.7669909E-02;  1.0000000E+04;  0.0000000E+00;  9.9865537E+03;  2.3695817E-02;  0.0000000E+00;  1.4530382E-01;  5.6887163E+03;
  1.0201126E+00;  9.9999998E-03; -2.2007187E-01;2614;  8.5898511E-02;  0.0000000E+00; -4.9557459E-02;  1.0049067E+03;  4.0220812E-01;  4.0272087E+03;3;  4.3289009E+01;  0.0000000E+00; -1.6729311E+01;0;  1.5819308E-01;  1.0000479E+04;  0.0000000E+00;  2.0175292E-03;  1.0000000E+04;  0.0000000E+00;  9.9873232E+03; -8.5887853E-03;  0.0000000E+00;  1.6678187E-01;  5.3361514E+03;
  1.0201033E+00;  9.9999998E-03; -2.0005986E-01;2615;  7.9486668E-02;  0.0000000E+00; -4.5388296E-02;  1.0050005E+03;  4.0220809E-01;  4.1041167E+03;3;  4.0601017E+01;  0.0000000E+00; -1.7519686E+01;0;  1.5545380E-01;  1.0001383E+04;  0.0000000E+00; -1.7298063E-03;  1.0000000E+04;  0.0000000E+00;  9.9882881E+03; -3.6245111E-02;  0.0000000E+00;  1.9169891E-01;  4.8945137E+03;
  1.0401576E+00;  9.9999998E-03; -3.0010805E-01;2641;  1.1055750E-01;  0.0000000E+00; -4.7510453E-02;  1.0041157E+03;  4.0191174E-01;  3.3670537E+03;3;  6.6715973E+01;  0.0000000E+00; -2.4890493E+01;0;  1.4791536E-01;  9.9959258E+03;  0.0000000E+00;  8.7153232E-03;  1.0000000E+04;  0.0000000E+00;  9.9908691E+03;  1.1820626E-01;  0.0000000E+00;  2.9709101E-02;  3.7258701E+03;
  1.0401478E+00;  9.9999998E-03; -2.8010178E-01;2642;  1.0572828E-01;  0.0000000E+00; -4.4592250E-02;  1.0040723E+03;  4.0191180E-01;  3.3315605E+03;3;  5.7698002E+01;  0.0000000E+00; -1.7121450E+01;0;  1.1185133E-01;  9.9974063E+03;  0.0000000E+00;  2.3836121E-03;  1.0000000E+04;  0.0000000E+00;  9.9885283E+03;  7.7235453E-02;  0.0000000E+00;  3.4615882E-02;  4.7263018E+03;
  1.0401360E+00;  9.9999998E-03; -2.6009461E-01;2643;  9.9803276E-02;  0.0000000E+00; -4.6302941E-02;  1.0040725E+03;  4.0191185E-01;  3.3317629E+03;3;  5.0957054E+01;  0.0000000E+00; -1.2133740E+01;0;  1.4226888E-01;  9.9987783E+03;  0.0000000E+00;  1.0162807E-02;  1.0000000E+04;  0.0000000E+00;  9.9871572E+03;  3.8920749E-02;  0.0000000E+00;  1.0334814E-01;  5.2459082E+03;
  1.0401227E+00;  9.9999998E-03; -2.4007986E-01;2644;  9.2511363E-02;  0.0000000E+00; -4.7218889E-02;  1.0041577E+03;  4.0191188E-01;  3.4014043E+03;3;  4.7022331E+01;  0.0000000E+00; -1.2951859E+01;0;  1.4575595E-01;  9.9999639E+03;  0.0000000E+00; -6.4565619E-03;  1.0000000E+04;  0.0000000E+00;  9.9876660E+03;  4.8105316E-03;  0.0000000E+00;  1.4094542E-01;  5.0004419E+03;
  1.0401100E+00;  9.9999998E-03; -2.2006465E-01;2645;  8.4517293E-02;  0.0000000E+00; -4.4526339E-02;  1.0042432E+03;  4.0191177E-01;  3.4714360E+03;3;  4.3320004E+01;  0.0000000E+00; -1.5396844E+01;0;  1.3479447E-01;  1.0000941E+04;  0.0000000E+00; -1.8788911E-02;  1.0000000E+04;  0.0000000E+00;  9.9883936E+03; -2.4087194E-02;  0.0000000E+00;  1.5888166E-01;  4.6865039E+03;
  1.0401000E+00;  9.9999998E-03; -2.0005350E-01;2646;  7.7509888E-02;  0.0000000E+00; -4.0651433E-02;  1.0043297E+03;  4.0191171E-01;  3.5421492E+03;3;  4.0113117E+01;  0.0000000E+00; -1.6173191E+01;0;  1.2994348E-01;  1.0001737E+04;  0.0000000E+00; -1.3613664E-02;  1.0000000E+04;  0.0000000E+00;  9.9893193E+03; -4.8144534E-02;  0.0000000E+00;  1.7808801E-01;  4.2850791E+03;
  1.0601709E+00;  9.9999998E-03; -3.0009931E-01;2672;  1.1827902E-01;  0.0000000E+00; -4.4538457E-02;  1.0034706E+03;  4.0165070E-01;  2.8270601E+03;3;  7.2304420E+01;  0.0000000E+00; -2.1986877E+01;0;  1.8121898E-01;  9.9955264E+03;  0.0000000E+00;  1.0463595E-01;  1.0000000E+04;  0.0000000E+00;  9.9914229E+03;  1.2571216E-01;  0.0000000E+00;  5.5506822E-02;  3.3113118E+03;
  1.0601553E+00;  9.9999998E-03; -2.8009269E-01;2673;  1.0964158E-01;  0.0000000E+00; -4.1449953E-02;  1.0034805E+03;  4.0165085E-01;  2.8352278E+03;3;  6.0736042E+01;  0.0000000E+00; -1.5740220E+01;0;  1.1828692E-01;  9.9977100E+03;  0.0000000E+00; -7.9229511E-02;  1.0000000E+04;  0.0000000E+00;  9.9894268E+03;  6.5250434E-02;  0.0000000E+00;  5.3036489E-02;  4.1217534E+03;
  1.0601388E+00;  9.9999998E-03; -2.6008561E-01;2674;  1.0131102E-01;  0.0000000E+00; -4.2082105E-02;  1.0034960E+03;  4.0165073E-01;  2.8478630E+03;3;  5.2511002E+01;  0.0000000E+00; -1.1877869E+01;0;  1.2940428E-01;  9.9993320E+03;  0.0000000E+00; -8.3067216E-02;  1.0000000E+04;  0.0000000E+00;  9.9881094E+03;  2.1671697E-02;  0.0000000E+00;  1.0773257E-01;  4.6079570E+03;
  1.0601220E+00;  9.9999998E-03; -2.4007268E-01;2675;  9.2269950E-02;  0.0000000E+00; -4.2231694E-02;  1.0035746E+03;  4.0165076E-01;  2.9118691E+03;3;  4.7667633E+01;  0.0000000E+00; -1.1858384E+01;0;  1.2881322E-01;  1.0000493E+04;  0.0000000E+00; -8.0261894E-02;  1.0000000E+04;  0.0000000E+00;  9.9885156E+03; -1.1055979E-02;  0.0000000E+00;  1.3986920E-01;  4.4244570E+03;
  1.0601077E+00;  9.9999998E-03; -2.2005884E-01;2676;  8.3534829E-02;  0.0000000E+00; -3.9858226E-02;  1.0036515E+03;  4.0165082E-01;  2.9745137E+03;3;  4.3915558E+01;  0.0000000E+00; -1.3199030E+01;0;  1.1968642E-01;  1.0001287E+04;  0.0000000E+00; -7.4393637E-02;  1.0000000E+04;  0.0000000E+00;  9.9892510E+03; -3.4725334E-02;  0.0000000E+00;  1.5441176E-01;  4.1254839E+03;
  1.0600966E+00;  9.9999998E-03; -2.0004816E-01;2677;  7.5635627E-02;  0.0000000E+00; -3.6475617E-02;  1.0037272E+03;  4.0165073E-01;  3.0361860E+03;3;  4.0065243E+01;  0.0000000E+00; -1.4673063E+01;0;  1.1470407E-01;  1.0001892E+04;  0.0000000E+00; -4.5886796E-02;  1.0000000E+04;  0.0000000E+00;  9.9901523E+03; -5.3221647E-02;  0.0000000E+00;  1.6792572E-01;  3.7529316E+03;
  1.0801803E+00;  9.9999998E-03; -3.0009201E-01;2703;  1.2347907E-01;  0.0000000E+00; -4.1779999E-02;  1.0028933E+03;  4.0142649E-01;  2.3434346E+03;3;  7.7143799E+01;  0.0000000E+00; -1.9687859E+01;0;  2.2146299E-01;  9.9947080E+03;  0.0000000E+00;  3.7999445E-01;  1.0000000E+04;  0.0000000E+00;  9.9918975E+03;  1.4614452E-01;  0.0000000E+00;  7.5318471E-02;  3.2137534E+03;
  1.0801610E+00;  9.9999998E-03; -2.8008553E-01;2704;  1.1288744E-01;  0.0000000E+00; -3.8786236E-02;  1.0029622E+03;  4.0142664E-01;  2.3991609E+03;3;  6.4333565E+01;  0.0000000E+00; -1.4961361E+01;0;  1.3076994E-01;  9.9978525E+03;  0.0000000E+00; -1.6790251E-01;  1.0000000E+04;  0.0000000E+00;  9.9901152E+03;  5.9857883E-02;  0.0000000E+00;  7.0912056E-02;  3.6271941E+03;
  1.0801415E+00;  9.9999998E-03; -2.6007852E-01;2705;  1.0283618E-01;  0.0000000E+00; -3.8151771E-02;  1.0029988E+03;  4.0142649E-01;  2.4289148E+03;3;  5.4625233E+01;  0.0000000E+00; -1.1285360E+01;0;  1.1806936E-01;  9.9998379E+03;  0.0000000E+00; -2.4118987E-01;  1.0000000E+04;  0.0000000E+00;  9.9888643E+03;  7.0861280E-03;  0.0000000E+00;  1.1098323E-01;  4.1253213E+03;
  1.0801221E+00;  9.9999998E-03; -2.4006720E-01;2706;  9.2475280E-02;  0.0000000E+00; -3.7637994E-02;  1.0030730E+03;  4.0142658E-01;  2.4889871E+03;3;  4.8595142E+01;  0.0000000E+00; -1.0587639E+01;0;  1.1411017E-01;  1.0001012E+04;  0.0000000E+00; -2.1231836E-01;  1.0000000E+04;  0.0000000E+00;  9.9891631E+03; -2.5471341E-02;  0.0000000E+00;  1.3958152E-01;  3.9786626E+03;
  1.0801061E+00;  9.9999998E-03; -2.2005445E-01;2707;  8.2833305E-02;  0.0000000E+00; -3.5569336E-02;  1.0031401E+03;  4.0142649E-01;  2.5433608E+03;3;  4.4246605E+01;  0.0000000E+00; -1.1263750E+01;0;  1.0861908E-01;  1.0001587E+04;  0.0000000E+00; -1.7424446E-01;  1.0000000E+04;  0.0000000E+00;  9.9899199E+03; -4.3430861E-02;  0.0000000E+00;  1.5204994E-01;  3.6700771E+03;
  1.0800937E+00;  9.9999998E-03; -2.0004390E-01;2708;  7.4160933E-02;  0.0000000E+00; -3.2517310E-02;  1.0032020E+03;  4.0142661E-01;  2.5935801E+03;3;  4.0221523E+01;  0.0000000E+00; -1.2477367E+01;0;  1.0585676E-01;  1.0001931E+04;  0.0000000E+00; -1.0898169E-01;  1.0000000E+04;  0.0000000E+00;  9.9908076E+03; -5.4973949E-02;  0.0000000E+00;  1.6083071E-01;  3.3017976E+03;
  1.1001630E+00;  9.9999998E-03; -2.8007931E-01;2734;  1.1438502E-01;  0.0000000E+00; -3.6222767E-02;  1.0025323E+03;  4.0123856E-01;  2.0356498E+03;3;  6.8255661E+01;  0.0000000E+00; -1.4433761E+01;0;  1.4238368E-01;  9.9978408E+03;  0.0000000E+00; -1.3580957E-01;  1.0000000E+04;  0.0000000E+00;  9.9909326E+03;  6.0924318E-02;  0.0000000E+00;  8.1459366E-02;  3.0325630E+03;
  1.1001433E+00;  9.9999998E-03; -2.6007259E-01;2735;  1.0379512E-01;  0.0000000E+00; -3.4428895E-02;  1.0025844E+03;  4.0123850E-01;  2.0775437E+03;3;  5.7233322E+01;  0.0000000E+00; -1.0648413E+01;0;  1.0581840E-01;  1.0000144E+04;  0.0000000E+00; -4.0000668E-01;  1.0000000E+04;  0.0000000E+00;  9.9896602E+03; -1.8733449E-03;  0.0000000E+00;  1.0769174E-01;  3.7172458E+03;
  1.1001230E+00;  9.9999998E-03; -2.4006300E-01;2736;  9.3120068E-02;  0.0000000E+00; -3.3644546E-02;  1.0026494E+03;  4.0123853E-01;  2.1297883E+03;3;  5.0045002E+01;  0.0000000E+00; -9.5270147E+00;0;  1.0224989E-01;  1.0001389E+04;  0.0000000E+00; -3.8671166E-01;  1.0000000E+04;  0.0000000E+00;  9.9897100E+03; -3.5806108E-02;  0.0000000E+00;  1.3805600E-01;  3.6716143E+03;
  1.1001054E+00;  9.9999998E-03; -2.2005118E-01;2737;  8.2524776E-02;  0.0000000E+00; -3.1641010E-02;  1.0027086E+03;  4.0123865E-01;  2.1773359E+03;3;  4.4836380E+01;  0.0000000E+00; -9.5475874E+00;0;  9.9713519E-02;  1.0001812E+04;  0.0000000E+00; -3.1395373E-01;  1.0000000E+04;  0.0000000E+00;  9.9904600E+03; -5.0384376E-02;  0.0000000E+00;  1.5009789E-01;  3.3370476E+03;
  1.1000917E+00;  9.9999998E-03; -2.0004065E-01;2738;  7.3097549E-02;  0.0000000E+00; -2.8878747E-02;  1.0027563E+03;  4.0123856E-01;  2.2156807E+03;3;  4.0354149E+01;  0.0000000E+00; -1.0486774E+01;0;  1.0081206E-01;  1.0001896E+04;  0.0000000E+00; -2.0818877E-01;  1.0000000E+04;  0.0000000E+00;  9.9913252E+03; -5.5055972E-02;  0.0000000E+00;  1.5586804E-01;  2.9416523E+03;
  1.1201619E+00;  9.9999998E-03; -2.8007415E-01;2763;  1.1404926E-01;  0.0000000E+00; -3.4302957E-02;  1.0021776E+03;  4.0108427E-01;  1.7331953E+03;3;  7.1952980E+01;  0.0000000E+00; -1.4267619E+01;0;  1.6050275E-01;  9.9975820E+03;  0.0000000E+00;  1.3019054E-01;  1.0000000E+04;  0.0000000E+00;  9.9917949E+03;  6.8838082E-02;  0.0000000E+00;  9.1664664E-02;  2.4610239E+03;
  1.1201441E+00;  9.9999998E-03; -2.6006791E-01;2764;  1.0428268E-01;  0.0000000E+00; -3.1799562E-02;  1.0022370E+03;  4.0108433E-01;  1.7804640E+03;3;  6.0581409E+01;  0.0000000E+00; -1.0561909E+01;0;  1.0629653E-01;  1.0000043E+04;  0.0000000E+00; -4.5331481E-01;  1.0000000E+04;  0.0000000E+00;  9.9905176E+03;  2.9986224E-04;  0.0000000E+00;  1.0599667E-01;  3.1937766E+03;
  1.1201248E+00;  9.9999998E-03; -2.4005975E-01;2765;  9.3913078E-02;  0.0000000E+00; -3.0370390E-02;  1.0022929E+03;  4.0108436E-01;  1.8249836E+03;3;  5.2087925E+01;  0.0000000E+00; -8.6738157E+00;0;  9.6228324E-02;  1.0001412E+04;  0.0000000E+00; -5.5721486E-01;  1.0000000E+04;  0.0000000E+00;  9.9902598E+03; -3.7509821E-02;  0.0000000E+00;  1.3373815E-01;  3.4194077E+03;
  1.1201060E+00;  9.9999998E-03; -2.2004899E-01;2766;  8.2846917E-02;  0.0000000E+00; -2.8343480E-02;  1.0023494E+03;  4.0108427E-01;  1.8699781E+03;3;  4.5874416E+01;  0.0000000E+00; -8.2528172E+00;0;  9.3746342E-02;  1.0001873E+04;  0.0000000E+00; -4.7645789E-01;  1.0000000E+04;  0.0000000E+00;  9.9909180E+03; -5.3283609E-02;  0.0000000E+00;  1.4702995E-01;  3.1095576E+03;
  1.1200906E+00;  9.9999998E-03; -2.0003840E-01;2767;  7.2515577E-02;  0.0000000E+00; -2.5616946E-02;  1.0023873E+03;  4.0108436E-01;  1.9001677E+03;3;  4.0775902E+01;  0.0000000E+00; -8.5319777E+00;0;  9.7501874E-02;  1.0001791E+04;  0.0000000E+00; -3.4082192E-01;  1.0000000E+04;  0.0000000E+00;  9.9917588E+03; -5.4081142E-02;  0.0000000E+00;  1.5158302E-01;  2.6810200E+03;
  1.1401436E+00;  9.9999998E-03; -2.6006454E-01;2792;  1.0411809E-01;  0.0000000E+00; -3.0359475E-02;  1.0019386E+03;  4.0096074E-01;  1.5231952E+03;3;  6.4427986E+01;  0.0000000E+00; -1.1153822E+01;0;  1.2663548E-01;  9.9994141E+03;  0.0000000E+00; -2.7270246E-01;  1.0000000E+04;  0.0000000E+00;  9.9913535E+03;  1.7270427E-02;  0.0000000E+00;  1.0936505E-01;  2.4148010E+03;
  1.1401266E+00;  9.9999998E-03; -2.4005754E-01;2793;  9.4557665E-02;  0.0000000E+00; -2.8221540E-02;  1.0019885E+03;  4.0096062E-01;  1.5623671E+03;3;  5.4845177E+01;  0.0000000E+00; -8.4351768E+00;0;  1.0305651E-01;  1.0000924E+04;  0.0000000E+00; -6.3710868E-01;  1.0000000E+04;  0.0000000E+00;  9.9908379E+03; -2.6239056E-02;  0.0000000E+00;  1.2929556E-01;  3.0269822E+03;
  1.1401081E+00;  9.9999998E-03; -2.2004811E-01;2794;  8.3939359E-02;  0.0000000E+00; -2.6167581E-02;  1.0020458E+03;  4.0096065E-01;  1.6074426E+03;3;  4.7720215E+01;  0.0000000E+00; -7.5498166E+00;0;  9.6475460E-02;  1.0001604E+04;  0.0000000E+00; -6.3488269E-01;  1.0000000E+04;  0.0000000E+00;  9.9912949E+03; -4.7594823E-02;  0.0000000E+00;  1.4407028E-01;  2.9186272E+03;
  1.1400911E+00;  9.9999998E-03; -2.0003748E-01;2795;  7.2780699E-02;  0.0000000E+00; -2.3148300E-02;  1.0020866E+03;  4.0096065E-01;  1.6395914E+03;3;  4.1690590E+01;  0.0000000E+00; -7.1581688E+00;0;  9.5942825E-02;  1.0001584E+04;  0.0000000E+00; -4.9418852E-01;  1.0000000E+04;  0.0000000E+00;  9.9921289E+03; -5.1081765E-02;  0.0000000E+00;  1.4702459E-01;  2.5012644E+03;
  1.1601419E+00;  9.9999998E-03; -2.6006192E-01;2819;  1.0289086E-01;  0.0000000E+00; -2.9537991E-02;  1.0016821E+03;  4.0086362E-01;  1.2999716E+03;3;  6.8015884E+01;  0.0000000E+00; -1.2064436E+01;0;  1.6015476E-01;  9.9983281E+03;  0.0000000E+00;  2.3655304E-01;  1.0000000E+04;  0.0000000E+00;  9.9921602E+03;  4.5786500E-02;  0.0000000E+00;  1.1436827E-01;  1.8708218E+03;
  1.1601280E+00;  9.9999998E-03; -2.4005637E-01;2820;  9.5060945E-02;  0.0000000E+00; -2.7437527E-02;  1.0017192E+03;  4.0086368E-01;  1.3286396E+03;3;  5.8549179E+01;  0.0000000E+00; -9.2664642E+00;0;  1.3224483E-01;  9.9998369E+03;  0.0000000E+00; -5.0200939E-01;  1.0000000E+04;  0.0000000E+00;  9.9913896E+03;  1.6007532E-03;  0.0000000E+00;  1.3064407E-01;  2.3264321E+03;
  1.1601113E+00;  9.9999998E-03; -2.2004826E-01;2821;  8.5406974E-02;  0.0000000E+00; -2.5013860E-02;  1.0017794E+03;  4.0086365E-01;  1.3751846E+03;3;  5.0407059E+01;  0.0000000E+00; -7.4658012E+00;0;  1.1344288E-01;  1.0000817E+04;  0.0000000E+00; -7.2432697E-01;  1.0000000E+04;  0.0000000E+00;  9.9916123E+03; -2.8259374E-02;  0.0000000E+00;  1.4170225E-01;  2.6120093E+03;
  1.1600939E+00;  9.9999998E-03; -2.0003828E-01;2822;  7.4401006E-02;  0.0000000E+00; -2.1968491E-02;  1.0018347E+03;  4.0086374E-01;  1.4179548E+03;3;  4.3498932E+01;  0.0000000E+00; -6.5932655E+00;0;  1.0272366E-01;  1.0001130E+04;  0.0000000E+00; -6.4474094E-01;  1.0000000E+04;  0.0000000E+00;  9.9923994E+03; -4.0989678E-02;  0.0000000E+00;  1.4371334E-01;  2.3439097E+03;
  1.1801277E+00;  9.9999998E-03; -2.4005541E-01;2846;  9.4396614E-02;  0.0000000E+00; -2.7047902E-02;  1.0014902E+03;  4.0078908E-01;  1.1277104E+03;3;  6.2273075E+01;  0.0000000E+00; -1.0475800E+01;0;  1.7075023E-01;  9.9983955E+03;  0.0000000E+00; -4.4803279E-03;  1.0000000E+04;  0.0000000E+00;  9.9919785E+03;  3.9155420E-02;  0.0000000E+00;  1.3159481E-01;  1.5550175E+03;
  1.1801144E+00;  9.9999998E-03; -2.2004904E-01;2847;  8.6563498E-02;  0.0000000E+00; -2.4802960E-02;  1.0015382E+03;  4.0078908E-01;  1.1639929E+03;3;  5.3762783E+01;  0.0000000E+00; -8.1924381E+00;0;  1.4932825E-01;  9.9994395E+03;  0.0000000E+00; -6.0179514E-01;  1.0000000E+04;  0.0000000E+00;  9.9918926E+03;  7.5290212E-03;  0.0000000E+00;  1.4179923E-01;  2.0055833E+03;
  1.1800985E+00;  9.9999998E-03; -2.0004036E-01;2848;  7.6691099E-02;  0.0000000E+00; -2.1967070E-02;  1.0016072E+03;  4.0078914E-01;  1.2162478E+03;3;  4.6181618E+01;  0.0000000E+00; -6.8059654E+00;0;  1.2656671E-01;  1.0000162E+04;  0.0000000E+00; -7.3190832E-01;  1.0000000E+04;  0.0000000E+00;  9.9925459E+03; -1.6659014E-02;  0.0000000E+00;  1.4322571E-01;  2.0867534E+03;
  1.2001157E+00;  9.9999998E-03; -2.2004944E-01;2871;  8.6492166E-02;  0.0000000E+00; -2.4749350E-02;  1.0013330E+03;  4.0073302E-01;  9.8271631E+02;3;  5.7401482E+01;  0.0000000E+00; -9.3686733E+00;0;  1.9165792E-01;  9.9977705E+03;  0.0000000E+00; -8.4524237E-02;  1.0000000E+04;  0.0000000E+00;  9.9922598E+03;  5.1511407E-02;  0.0000000E+00;  1.4014651E-01;  1.2530111E+03;
  1.2001034E+00;  9.9999998E-03; -2.0004259E-01;2872;  7.8717873E-02;  0.0000000E+00; -2.2501636E-02;  1.0013924E+03;  4.0073299E-01;  1.0265009E+03;3;  4.9747925E+01;  0.0000000E+00; -7.7016034E+00;0;  1.6962308E-01;  9.9985566E+03;  0.0000000E+00; -6.0529894E-01;  1.0000000E+04;  0.0000000E+00;  9.9926592E+03;  2.5526265E-02;  0.0000000E+00;  1.4409681E-01;  1.5645387E+03;
  1.2201134E+00;  9.9999998E-03; -2.2004853E-01;2894;  8.3637930E-02;  0.0000000E+00; -2.3691274E-02;  1.0012040E+03;  4.0069160E-01;  8.5988635E+02;3;  5.9570873E+01;  0.0000000E+00; -9.8072758E+00;0;  1.9917363E-01;  9.9966934E+03;  0.0000000E+00;  7.9118186E-01;  1.0000000E+04;  0.0000000E+00;  9.9928252E+03;  7.2984353E-02;  0.0000000E+00;  1.2618928E-01;  1.4289596E+03;
  1.2201059E+00;  9.9999998E-03; -2.0004408E-01;2895;  7.9117313E-02;  0.0000000E+00; -2.2943031E-02;  1.0012121E+03;  4.0069172E-01;  8.6568695E+02;3;  5.3382252E+01;  0.0000000E+00; -8.9489870E+00;0;  2.1419500E-01;  9.9968408E+03;  0.0000000E+00; -8.2022496E-02;  1.0000000E+04;  0.0000000E+00;  9.9928418E+03;  7.0553884E-02;  0.0000000E+00;  1.4364111E-01;  9.3339044E+02;
 -1.1714914E-07;  9.9999998E-03; -1.8000001E-01;1036; -1.7994268E-04;  0.0000000E+00; -2.1444406E-05;  1.0000028E+03;  4.0000001E-01;  2.3703029E+00;3; -2.2527096E-01;  0.0000000E+00; -2.5891732E-02;0; -3.5495395E-03;  1.0000057E+04;  0.0000000E+00; -2.0569996E-10;  1.0000000E+04;  0.0000000E+00;  9.9999980E+03; -3.6919890E-03;  0.0000000E+00;  1.4244941E-04;  1.0557016E+00;
 -1.2108194E-07;  9.9999998E-03; -1.6000001E-01;1037; -1.8549553E-04;  0.0000000E+00; -1.7089864E-05;  1.0000029E+03;  4.0000001E-01;  2.3703029E+00;3; -2.3160318E-01;  0.0000000E+00; -2.0146357E-02;0; -3.6710198E-03;  1.0000061E+04;  0.0000000E+00; -5.8694417E-11;  1.0000000E+04;  0.0000000E+00;  9.9999980E+03; -3.8106795E-03;  0.0000000E+00;  1.3965984E-04;  1.0550416E+00;
 -1.2380363E-07;  9.9999998E-03; -1.4000002E-01;1038; -1.8911902E-04;  0.0000000E+00; -1.3399816E-05;  1.0000029E+03;  4.0000001E-01;  2.4690657E+00;3; -2.3549041E-01;  0.0000000E+00; -1.5327657E-02;0; -3.7597588E-03;  1.0000061E+04;  0.0000000E+00; -4.5156261E-11;  1.0000000E+04;  0.0000000E+00;  9.9999990E+03; -3.8879341E-03;  0.0000000E+00;  1.2817528E-04;  1.0013976E+00;
 -1.2564594E-07;  9.9999998E-03; -1.2000000E-01;1039; -1.9136528E-04;  0.0000000E+00; -1.0246755E-05;  1.0000030E+03;  4.0000001E-01;  2.4690657E+00;3; -2.3762965E-01;  0.0000000E+00; -1.1295874E-02;0; -3.8218945E-03;  1.0000062E+04;  0.0000000E+00;  7.6896033E-12;  1.0000000E+04;  0.0000000E+00;  9.9999990E+03; -3.9352430E-03;  0.0000000E+00;  1.1334845E-04;  9.2661017E-01;
 -1.2685157E-07;  9.9999998E-03; -1.0000001E-01;1040; -1.9265531E-04;  0.0000000E+00; -7.6288125E-06;  1.0000031E+03;  4.0000001E-01;  2.5678282E+00;3; -2.3859945E-01;  0.0000000E+00; -8.0555817E-03;0; -3.8636993E-03;  1.0000063E+04;  0.0000000E+00;  1.2621010E-11;  1.0000000E+04;  0.0000000E+00;  9.9999990E+03; -3.9618360E-03;  0.0000000E+00;  9.8136690E-05;  8.4781504E-01;
 -1.2760988E-07;  9.9999998E-03; -8.0000006E-02;1041; -1.9331569E-04;  0.0000000E+00; -5.5141968E-06;  1.0000031E+03;  4.0000001E-01;  2.5678282E+00;3; -2.3884633E-01;  0.0000000E+00; -5.5779405E-03;0; -3.8907479E-03;  1.0000063E+04;  0.0000000E+00;  1.3859442E-11;  1.0000000E+04;  0.0000000E+00;  1.0000000E+04; -3.9750109E-03;  0.0000000E+00;  8.4262945E-05;  7.7488148E-01;
 -1.2807125E-07;  9.9999998E-03; -6.0000002E-02;1042; -1.9361159E-04;  0.0000000E+00; -3.7623822E-06;  1.0000031E+03;  4.0000001E-01;  2.5678282E+00;3; -2.3874122E-01;  0.0000000E+00; -3.6417018E-03;0; -3.9074910E-03;  1.0000064E+04;  0.0000000E+00; -8.0653435E-12;  1.0000000E+04;  0.0000000E+00;  1.0000000E+04; -3.9802552E-03;  0.0000000E+00;  7.2764044E-05;  7.1378851E-01;
 -1.2833443E-07;  9.9999998E-03; -4.0000003E-02;1043; -1.9370980E-04;  0.0000000E+00; -2.3347275E-06;  1.0000031E+03;  4.0000001E-01;  2.5678282E+00;3; -2.3850706E-01;  0.0000000E+00; -2.1885084E-03;0; -3.9172387E-03;  1.0000065E+04;  0.0000000E+00; -7.6487315E-12;  1.0000000E+04;  0.0000000E+00;  1.0000000E+04; -3.9814687E-03;  0.0000000E+00;  6.4230175E-05;  6.6806155E-01;
 -1.2846657E-07;  9.9999998E-03; -2.0000001E-02;1044; -1.9372621E-04;  0.0000000E+00; -1.1143462E-06;  1.0000031E+03;  4.0000001E-01;  2.5678282E+00;3; -2.3830929E-01;  0.0000000E+00; -1.0192477E-03;0; -3.9222352E-03;  1.0000065E+04;  0.0000000E+00;  1.8736870E-12;  1.0000000E+04;  0.0000000E+00;  1.0000000E+04; -3.9812294E-03;  0.0000000E+00;  5.8994156E-05;  6.3982856E-01;
  1.9999826E-02;  9.9999998E-03; -1.8000002E-01;1066; -2.6281737E-04;  0.0000000E+00; -2.9910068E-05;  1.0000035E+03;  4.0000001E-01;  2.8641162E+00;3; -3.1148455E-01;  0.0000000E+00; -3.3790633E-02;0; -4.4277064E-03;  1.0000073E+04;  0.0000000E+00;  4.1483279E-11;  1.0000000E+04;  0.0000000E+00;  9.9999971E+03; -4.6278615E-03;  0.0000000E+00;  2.0015497E-04;  1.4883084E+00;
  1.9999823E-02;  9.9999998E-03; -1.6000001E-01;1067; -2.7023378E-04;  0.0000000E+00; -2.3967821E-05;  1.0000037E+03;  4.0000001E-01;  3.0616415E+00;3; -3.1929535E-01;  0.0000000E+00; -2.6395941E-02;0; -4.5657987E-03;  1.0000077E+04;  0.0000000E+00; -2.8500223E-11;  1.0000000E+04;  0.0000000E+00;  9.9999971E+03; -4.7613070E-03;  0.0000000E+00;  1.9550849E-04;  1.4811220E+00;
  1.9999819E-02;  9.9999998E-03; -1.4000002E-01;1068; -2.7487261E-04;  0.0000000E+00; -1.8911260E-05;  1.0000037E+03;  4.0000001E-01;  3.0616415E+00;3; -3.2376635E-01;  0.0000000E+00; -2.0204486E-02;0; -4.6654823E-03;  1.0000077E+04;  0.0000000E+00; -4.1155683E-11;  1.0000000E+04;  0.0000000E+00;  9.9999980E+03; -4.8447507E-03;  0.0000000E+00;  1.7926838E-04;  1.4018488E+00;
  1.9999815E-02;  9.9999998E-03; -1.2000001E-01;1069; -2.7762417E-04;  0.0000000E+00; -1.4481786E-05;  1.0000038E+03;  4.0000001E-01;  3.1604040E+00;3; -3.2597661E-01;  0.0000000E+00; -1.4905721E-02;0; -4.7340789E-03;  1.0000078E+04;  0.0000000E+00;  2.9303157E-11;  1.0000000E+04;  0.0000000E+00;  9.9999980E+03; -4.8927385E-03;  0.0000000E+00;  1.5865947E-04;  1.2944158E+00;
  1.9999813E-02;  9.9999998E-03; -1.0000001E-01;1070; -2.7905119E-04;  0.0000000E+00; -1.0856406E-05;  1.0000039E+03;  4.0000001E-01;  3.2591665E+00;3; -3.2665962E-01;  0.0000000E+00; -1.0718747E-02;0; -4.7793481E-03;  1.0000079E+04;  0.0000000E+00; -2.1735143E-11;  1.0000000E+04;  0.0000000E+00;  9.9999980E+03; -4.9168430E-03;  0.0000000E+00;  1.3749496E-04;  1.1813692E+00;
  1.9999813E-02;  9.9999998E-03; -8.0000006E-02;1071; -2.7965798E-04;  0.0000000E+00; -7.8832427E-06;  1.0000040E+03;  4.0000001E-01;  3.2591665E+00;3; -3.2648396E-01;  0.0000000E+00; -7.4481131E-03;0; -4.8079910E-03;  1.0000080E+04;  0.0000000E+00; -1.0812227E-11;  1.0000000E+04;  0.0000000E+00;  9.9999990E+03; -4.9261469E-03;  0.0000000E+00;  1.1815580E-04;  1.0766587E+00;
  1.9999813E-02;  9.9999998E-03; -6.0000002E-02;1072; -2.7981636E-04;  0.0000000E+00; -5.4223883E-06;  1.0000040E+03;  4.0000001E-01;  3.2591665E+00;3; -3.2593197E-01;  0.0000000E+00; -4.9240855E-03;0; -4.8252637E-03;  1.0000080E+04;  0.0000000E+00; -1.2489529E-12;  1.0000000E+04;  0.0000000E+00;  9.9999990E+03; -4.9273688E-03;  0.0000000E+00;  1.0210522E-04;  9.8891139E-01;
  1.9999813E-02;  9.9999998E-03; -4.0000003E-02;1073; -2.7976767E-04;  0.0000000E+00; -3.3903154E-06;  1.0000040E+03;  4.0000001E-01;  3.2591665E+00;3; -3.2532299E-01;  0.0000000E+00; -2.9890139E-03;0; -4.8350384E-03;  1.0000080E+04;  0.0000000E+00; -4.4456938E-12;  1.0000000E+04;  0.0000000E+00;  1.0000000E+04; -4.9252254E-03;  0.0000000E+00;  9.0186732E-05;  9.2325073E-01;
  1.9999811E-02;  9.9999998E-03; -2.0000001E-02;1074; -2.7968010E-04;  0.0000000E+00; -1.6218171E-06;  1.0000040E+03;  4.0000001E-01;  3.2591665E+00;3; -3.2488179E-01;  0.0000000E+00; -1.3947675E-03;0; -4.8399176E-03;  1.0000080E+04;  0.0000000E+00; -7.7553036E-13;  1.0000000E+04;  0.0000000E+00;  1.0000000E+04; -4.9227909E-03;  0.0000000E+00;  8.2873114E-05;  8.8273233E-01;
  3.9999753E-02;  9.9999998E-03; -1.8000002E-01;1097; -3.7270051E-04;  0.0000000E+00; -3.7151884E-05;  1.0000043E+03;  4.0000001E-01;  3.5554545E+00;3; -4.2137685E-01;  0.0000000E+00; -3.9061829E-02;0; -5.3625763E-03;  1.0000093E+04;  0.0000000E+00;  5.2137555E-11;  1.0000000E+04;  0.0000000E+00;  9.9999971E+03; -5.6242920E-03;  0.0000000E+00;  2.6171570E-04;  1.9806256E+00;
  3.9999746E-02;  9.9999998E-03; -1.6000003E-01;1098; -3.8225300E-04;  0.0000000E+00; -2.9919094E-05;  1.0000044E+03;  4.0000001E-01;  3.6542170E+00;3; -4.3072161E-01;  0.0000000E+00; -3.0649591E-02;0; -5.5100080E-03;  1.0000094E+04;  0.0000000E+00; -4.7600760E-11;  1.0000000E+04;  0.0000000E+00;  9.9999971E+03; -5.7643717E-03;  0.0000000E+00;  2.5436358E-04;  1.9613525E+00;
  3.9999738E-02;  9.9999998E-03; -1.4000002E-01;1099; -3.8801026E-04;  0.0000000E+00; -2.3636350E-05;  1.0000046E+03;  4.0000001E-01;  3.8517423E+00;3; -4.3573794E-01;  0.0000000E+00; -2.3409184E-02;0; -5.6137061E-03;  1.0000096E+04;  0.0000000E+00; -1.2674158E-11;  1.0000000E+04;  0.0000000E+00;  9.9999971E+03; -5.8465428E-03;  0.0000000E+00;  2.3283668E-04;  1.8511493E+00;
  3.9999738E-02;  9.9999998E-03; -1.2000001E-01;1100; -3.9119466E-04;  0.0000000E+00; -1.8191196E-05;  1.0000047E+03;  4.0000001E-01;  3.8517423E+00;3; -4.3779850E-01;  0.0000000E+00; -1.7326653E-02;0; -5.6826659E-03;  1.0000096E+04;  0.0000000E+00;  2.7264179E-11;  1.0000000E+04;  0.0000000E+00;  9.9999971E+03; -5.8887624E-03;  0.0000000E+00;  2.0609678E-04;  1.7062162E+00;
  3.9999735E-02;  9.9999998E-03; -1.0000001E-01;1101; -3.9264862E-04;  0.0000000E+00; -1.3692375E-05;  1.0000048E+03;  4.0000001E-01;  3.9505050E+00;3; -4.3796682E-01;  0.0000000E+00; -1.2487015E-02;0; -5.7264389E-03;  1.0000098E+04;  0.0000000E+00;  1.7535097E-11;  1.0000000E+04;  0.0000000E+00;  9.9999971E+03; -5.9051020E-03;  0.0000000E+00;  1.7866319E-04;  1.5541204E+00;
  3.9999735E-02;  9.9999998E-03; -8.0000006E-02;1102; -3.9307913E-04;  0.0000000E+00; -9.9632043E-06;  1.0000048E+03;  4.0000001E-01;  3.9505050E+00;3; -4.3714583E-01;  0.0000000E+00; -8.6690914E-03;0; -5.7528340E-03;  1.0000098E+04;  0.0000000E+00; -1.4600085E-12;  1.0000000E+04;  0.0000000E+00;  9.9999980E+03; -5.9063951E-03;  0.0000000E+00;  1.5356114E-04;  1.4131751E+00;
  3.9999735E-02;  9.9999998E-03; -6.0000006E-02;1103; -3.9298099E-04;  0.0000000E+00; -6.8839895E-06;  1.0000048E+03;  4.0000001E-01;  3.9505050E+00;3; -4.3595144E-01;  0.0000000E+00; -5.7444461E-03;0; -5.7678199E-03;  1.0000098E+04;  0.0000000E+00; -1.2472729E-11;  1.0000000E+04;  0.0000000E+00;  9.9999980E+03; -5.9005185E-03;  0.0000000E+00;  1.3269848E-04;  1.2949891E+00;
  3.9999735E-02;  9.9999998E-03; -4.0000003E-02;1104; -3.9269132E-04;  0.0000000E+00; -4.3170144E-06;  1.0000048E+03;  4.0000001E-01;  3.9505050E+00;3; -4.3482012E-01;  0.0000000E+00; -3.4822905E-03;0; -5.7757036E-03;  1.0000098E+04;  0.0000000E+00; -1.5187402E-11;  1.0000000E+04;  0.0000000E+00;  9.9999990E+03; -5.8928975E-03;  0.0000000E+00;  1.1719383E-04;  1.2065464E+00;
  3.9999735E-02;  9.9999998E-03; -2.0000001E-02;1105; -3.9243602E-04;  0.0000000E+00; -2.0706232E-06;  1.0000048E+03;  4.0000001E-01;  3.9505050E+00;3; -4.3403488E-01;  0.0000000E+00; -1.6333372E-03;0; -5.7793604E-03;  1.0000098E+04;  0.0000000E+00; -3.0376773E-12;  1.0000000E+04;  0.0000000E+00;  9.9999990E+03; -5.8870362E-03;  0.0000000E+00;  1.0767572E-04;  1.1519841E+00;
  5.9999656E-02;  9.9999998E-03; -1.8000004E-01;1128; -5.0736958E-04;  0.0000000E+00; -4.3688065E-05;  1.0000054E+03;  4.0000001E-01;  4.5430808E+00;3; -5.5217814E-01;  0.0000000E+00; -4.2649459E-02;0; -6.4555155E-03;  1.0000113E+04;  0.0000000E+00; -2.0327376E-10;  1.0000000E+04;  0.0000000E+00;  9.9999951E+03; -6.7818160E-03;  0.0000000E+00;  3.2630059E-04;  2.5449541E+00;
  5.9999648E-02;  9.9999998E-03; -1.6000003E-01;1129; -5.1900174E-04;  0.0000000E+00; -3.5228677E-05;  1.0000056E+03;  4.0000001E-01;  4.6418433E+00;3; -5.6280416E-01;  0.0000000E+00; -3.3450209E-02;0; -6.6065020E-03;  1.0000118E+04;  0.0000000E+00; -1.0869455E-10;  1.0000000E+04;  0.0000000E+00;  9.9999951E+03; -6.9216602E-03;  0.0000000E+00;  3.1515819E-04;  2.5060790E+00;
  5.9999641E-02;  9.9999998E-03; -1.4000002E-01;1130; -5.2570400E-04;  0.0000000E+00; -2.7805931E-05;  1.0000056E+03;  4.0000001E-01;  4.6418433E+00;3; -5.6801277E-01;  0.0000000E+00; -2.5437966E-02;0; -6.7078751E-03;  1.0000118E+04;  0.0000000E+00;  3.1124950E-11;  1.0000000E+04;  0.0000000E+00;  9.9999951E+03; -6.9956733E-03;  0.0000000E+00;  2.8779820E-04;  2.3584578E+00;
  5.9999637E-02;  9.9999998E-03; -1.2000002E-01;1131; -5.2908337E-04;  0.0000000E+00; -2.1449830E-05;  1.0000057E+03;  4.0000001E-01;  4.7406058E+00;3; -5.6955433E-01;  0.0000000E+00; -1.8803261E-02;0; -6.7712772E-03;  1.0000118E+04;  0.0000000E+00;  3.6438725E-12;  1.0000000E+04;  0.0000000E+00;  9.9999961E+03; -7.0258789E-03;  0.0000000E+00;  2.5460168E-04;  2.1699958E+00;
  5.9999637E-02;  9.9999998E-03; -1.0000002E-01;1132; -5.3031801E-04;  0.0000000E+00; -1.6179312E-05;  1.0000059E+03;  4.0000001E-01;  4.8393683E+00;3; -5.6886709E-01;  0.0000000E+00; -1.3529464E-02;0; -6.8085319E-03;  1.0000118E+04;  0.0000000E+00;  2.5253636E-11;  1.0000000E+04;  0.0000000E+00;  9.9999971E+03; -7.0291529E-03;  0.0000000E+00;  2.2062102E-04;  1.9729544E+00;
  5.9999637E-02;  9.9999998E-03; -8.0000013E-02;1133; -5.3034676E-04;  0.0000000E+00; -1.1768641E-05;  1.0000059E+03;  4.0000001E-01;  4.8393683E+00;3; -5.6709880E-01;  0.0000000E+00; -9.3275737E-03;0; -6.8286592E-03;  1.0000118E+04;  0.0000000E+00; -2.1610138E-12;  1.0000000E+04;  0.0000000E+00;  9.9999971E+03; -7.0181484E-03;  0.0000000E+00;  1.8948923E-04;  1.7902840E+00;
  5.9999634E-02;  9.9999998E-03; -6.0000006E-02;1134; -5.2980002E-04;  0.0000000E+00; -8.1473290E-06;  1.0000059E+03;  4.0000001E-01;  4.8393683E+00;3; -5.6500947E-01;  0.0000000E+00; -6.1679352E-03;0; -6.8383226E-03;  1.0000118E+04;  0.0000000E+00; -9.9569424E-12;  1.0000000E+04;  0.0000000E+00;  9.9999971E+03; -7.0018889E-03;  0.0000000E+00;  1.6356610E-04;  1.6369444E+00;
  5.9999634E-02;  9.9999998E-03; -4.0000003E-02;1135; -5.2912772E-04;  0.0000000E+00; -5.1077486E-06;  1.0000059E+03;  4.0000001E-01;  4.8393683E+00;3; -5.6317008E-01;  0.0000000E+00; -3.7074722E-03;0; -6.8422183E-03;  1.0000119E+04;  0.0000000E+00; -8.4239473E-12;  1.0000000E+04;  0.0000000E+00;  9.9999980E+03; -6.9864891E-03;  0.0000000E+00;  1.4427093E-04;  1.5221206E+00;
  5.9999634E-02;  9.9999998E-03; -2.0000001E-02;1136; -5.2861759E-04;  0.0000000E+00; -2.4544181E-06;  1.0000059E+03;  4.0000001E-01;  4.8393683E+00;3; -5.6193054E-01;  0.0000000E+00; -1.7424071E-03;0; -6.8434174E-03;  1.0000119E+04;  0.0000000E+00; -3.0819451E-12;  1.0000000E+04;  0.0000000E+00;  9.9999980E+03; -6.9758315E-03;  0.0000000E+00;  1.3241413E-04;  1.4512695E+00;
  7.9999536E-02;  9.9999998E-03; -1.8000004E-01;1159; -6.6892215E-04;  0.0000000E+00; -4.9945913E-05;  1.0000067E+03;  4.0000001E-01;  5.5307069E+00;3; -7.0631337E-01;  0.0000000E+00; -4.5170080E-02;0; -7.8077740E-03;  1.0000141E+04;  0.0000000E+00; -2.4817709E-10;  1.0000000E+04;  0.0000000E+00;  9.9999932E+03; -8.2039479E-03;  0.0000000E+00;  3.9617383E-04;  3.2145438E+00;
  7.9999529E-02;  9.9999998E-03; -1.6000003E-01;1160; -6.8228168E-04;  0.0000000E+00; -4.0271676E-05;  1.0000070E+03;  4.0000001E-01;  5.7282324E+00;3; -7.1767294E-01;  0.0000000E+00; -3.5333425E-02;0; -7.9570748E-03;  1.0000143E+04;  0.0000000E+00; -1.1808916E-10;  1.0000000E+04;  0.0000000E+00;  9.9999932E+03; -8.3371392E-03;  0.0000000E+00;  3.8006413E-04;  3.1468978E+00;
  7.9999521E-02;  9.9999998E-03; -1.4000003E-01;1161; -6.8953139E-04;  0.0000000E+00; -3.1693060E-05;  1.0000070E+03;  4.0000001E-01;  5.7282324E+00;3; -7.2250855E-01;  0.0000000E+00; -2.6653677E-02;0; -8.0500543E-03;  1.0000146E+04;  0.0000000E+00;  6.1387291E-11;  1.0000000E+04;  0.0000000E+00;  9.9999951E+03; -8.3961654E-03;  0.0000000E+00;  3.4611160E-04;  2.9525833E+00;
  7.9999521E-02;  9.9999998E-03; -1.2000002E-01;1162; -6.9268810E-04;  0.0000000E+00; -2.4455621E-05;  1.0000070E+03;  4.0000001E-01;  5.7282324E+00;3; -7.2297323E-01;  0.0000000E+00; -1.9622244E-02;0; -8.1021460E-03;  1.0000147E+04;  0.0000000E+00; -1.0894594E-11;  1.0000000E+04;  0.0000000E+00;  9.9999951E+03; -8.4079579E-03;  0.0000000E+00;  3.0581231E-04;  2.7110226E+00;
  7.9999514E-02;  9.9999998E-03; -1.0000002E-01;1163; -6.9332158E-04;  0.0000000E+00; -1.8413355E-05;  1.0000070E+03;  4.0000001E-01;  5.8269949E+00;3; -7.2094953E-01;  0.0000000E+00; -1.3949513E-02;0; -8.1278570E-03;  1.0000148E+04;  0.0000000E+00;  1.2983277E-12;  1.0000000E+04;  0.0000000E+00;  9.9999961E+03; -8.3925268E-03;  0.0000000E+00;  2.6467000E-04;  2.4595551E+00;
  7.9999514E-02;  9.9999998E-03; -8.0000013E-02;1164; -6.9260475E-04;  0.0000000E+00; -1.3386723E-05;  1.0000071E+03;  4.0000001E-01;  5.8269949E+00;3; -7.1780443E-01;  0.0000000E+00; -9.5731281E-03;0; -8.1376210E-03;  1.0000147E+04;  0.0000000E+00; -2.7513830E-11;  1.0000000E+04;  0.0000000E+00;  9.9999961E+03; -8.3645210E-03;  0.0000000E+00;  2.2689994E-04;  2.2262583E+00;
  7.9999514E-02;  9.9999998E-03; -6.0000010E-02;1165; -6.9133827E-04;  0.0000000E+00; -9.2701712E-06;  1.0000071E+03;  4.0000001E-01;  5.8269949E+00;3; -7.1449763E-01;  0.0000000E+00; -6.2941578E-03;0; -8.1388196E-03;  1.0000147E+04;  0.0000000E+00; -1.5196682E-11;  1.0000000E+04;  0.0000000E+00;  9.9999971E+03; -8.3341757E-03;  0.0000000E+00;  1.9535593E-04;  2.0300908E+00;
  7.9999514E-02;  9.9999998E-03; -4.0000007E-02;1166; -6.9008925E-04;  0.0000000E+00; -5.7984407E-06;  1.0000071E+03;  4.0000001E-01;  5.8269949E+00;3; -7.1171892E-01;  0.0000000E+00; -3.7341379E-03;0; -8.1365295E-03;  1.0000147E+04;  0.0000000E+00; -1.1771579E-11;  1.0000000E+04;  0.0000000E+00;  9.9999971E+03; -8.3083445E-03;  0.0000000E+00;  1.7181550E-04;  1.8830098E+00;
  7.9999514E-02;  9.9999998E-03; -2.0000003E-02;1167; -6.8920699E-04;  0.0000000E+00; -2.7885897E-06;  1.0000071E+03;  4.0000001E-01;  5.8269949E+00;3; -7.0988518E-01;  0.0000000E+00; -1.7517535E-03;0; -8.1339739E-03;  1.0000147E+04;  0.0000000E+00; -5.2546105E-12;  1.0000000E+04;  0.0000000E+00;  9.9999971E+03; -8.2912976E-03;  0.0000000E+00;  1.5732381E-04;  1.7921916E+00;
  9.9999398E-02;  9.9999998E-03; -1.8000005E-01;1190; -8.6285145E-04;  0.0000000E+00; -5.6504130E-05;  1.0000084E+03;  4.0000001E-01;  6.9133835E+00;3; -8.8840133E-01;  0.0000000E+00; -4.7282949E-02;0; -9.5083406E-03;  1.0000177E+04;  0.0000000E+00; -7.8133716E-10;  1.0000000E+04;  0.0000000E+00;  9.9999922E+03; -9.9851694E-03;  0.0000000E+00;  4.7682881E-04;  4.0463324E+00;
  9.9999383E-02;  9.9999998E-03; -1.6000004E-01;1191; -8.7736460E-04;  0.0000000E+00; -4.5547720E-05;  1.0000085E+03;  4.0000001E-01;  7.1109090E+00;3; -8.9972472E-01;  0.0000000E+00; -3.6772780E-02;0; -9.6495850E-03;  1.0000179E+04;  0.0000000E+00; -1.2193614E-10;  1.0000000E+04;  0.0000000E+00;  9.9999932E+03; -1.0104143E-02;  0.0000000E+00;  4.5455780E-04;  3.9381552E+00;
  9.9999376E-02;  9.9999998E-03; -1.4000003E-01;1192; -8.8453805E-04;  0.0000000E+00; -3.5721845E-05;  1.0000087E+03;  4.0000001E-01;  7.2096715E+00;3; -9.0337288E-01;  0.0000000E+00; -2.7510699E-02;0; -9.7276019E-03;  1.0000182E+04;  0.0000000E+00;  8.3512398E-11;  1.0000000E+04;  0.0000000E+00;  9.9999932E+03; -1.0140385E-02;  0.0000000E+00;  4.1278265E-04;  3.6825194E+00;
  9.9999368E-02;  9.9999998E-03; -1.2000003E-01;1193; -8.8686420E-04;  0.0000000E+00; -2.7531290E-05;  1.0000087E+03;  4.0000001E-01;  7.2096715E+00;3; -9.0201050E-01;  0.0000000E+00; -2.0132184E-02;0; -9.7623402E-03;  1.0000183E+04;  0.0000000E+00;  3.3030894E-11;  1.0000000E+04;  0.0000000E+00;  9.9999932E+03; -1.0126438E-02;  0.0000000E+00;  3.6409820E-04;  3.3720808E+00;
  9.9999368E-02;  9.9999998E-03; -1.0000002E-01;1194; -8.8635384E-04;  0.0000000E+00; -2.0654976E-05;  1.0000089E+03;  4.0000001E-01;  7.3084340E+00;3; -8.9799190E-01;  0.0000000E+00; -1.4140485E-02;0; -9.7712781E-03;  1.0000181E+04;  0.0000000E+00; -1.2068674E-11;  1.0000000E+04;  0.0000000E+00;  9.9999951E+03; -1.0085721E-02;  0.0000000E+00;  3.1444230E-04;  3.0501342E+00;
  9.9999368E-02;  9.9999998E-03; -8.0000013E-02;1195; -8.8443322E-04;  0.0000000E+00; -1.4988290E-05;  1.0000089E+03;  4.0000001E-01;  7.3084340E+00;3; -8.9293337E-01;  0.0000000E+00; -9.6208118E-03;0; -9.7664222E-03;  1.0000181E+04;  0.0000000E+00;  4.8769183E-12;  1.0000000E+04;  0.0000000E+00;  9.9999961E+03; -1.0035103E-02;  0.0000000E+00;  2.6868100E-04;  2.7510569E+00;
  9.9999368E-02;  9.9999998E-03; -6.0000010E-02;1196; -8.8209467E-04;  0.0000000E+00; -1.0349077E-05;  1.0000089E+03;  4.0000001E-01;  7.3084340E+00;3; -8.8800943E-01;  0.0000000E+00; -6.2014032E-03;0; -9.7559225E-03;  1.0000180E+04;  0.0000000E+00; -2.8467291E-12;  1.0000000E+04;  0.0000000E+00;  9.9999961E+03; -9.9862106E-03;  0.0000000E+00;  2.3028768E-04;  2.4990263E+00;
  9.9999368E-02;  9.9999998E-03; -4.0000007E-02;1197; -8.8001299E-04;  0.0000000E+00; -6.4626938E-06;  1.0000089E+03;  4.0000001E-01;  7.3084340E+00;3; -8.8399148E-01;  0.0000000E+00; -3.6645527E-03;0; -9.7451657E-03;  1.0000181E+04;  0.0000000E+00; -9.1880678E-12;  1.0000000E+04;  0.0000000E+00;  9.9999961E+03; -9.9466909E-03;  0.0000000E+00;  2.0152563E-04;  2.3097477E+00;
  9.9999368E-02;  9.9999998E-03; -2.0000003E-02;1198; -8.7860663E-04;  0.0000000E+00; -3.1047537E-06;  1.0000089E+03;  4.0000001E-01;  7.3084340E+00;3; -8.8139194E-01;  0.0000000E+00; -1.6998957E-03;0; -9.7375195E-03;  1.0000181E+04;  0.0000000E+00; -4.9496583E-12;  1.0000000E+04;  0.0000000E+00;  9.9999971E+03; -9.9212928E-03;  0.0000000E+00;  1.8377283E-04;  2.1927621E+00;
  1.1999922E-01;  9.9999998E-03; -1.8000005E-01;1221; -1.0975582E-03;  0.0000000E+00; -6.4123422E-05;  1.0000105E+03;  4.0000001E-01;  8.6911106E+00;3; -1.1041777E+00;  0.0000000E+00; -4.9561325E-02;0; -1.1629516E-02;  1.0000220E+04;  0.0000000E+00; -1.3273008E-09;  1.0000000E+04;  0.0000000E+00;  9.9999902E+03; -1.2207703E-02;  0.0000000E+00;  5.7818671E-04;  5.1327915E+00;
  1.1999920E-01;  9.9999998E-03; -1.6000004E-01;1222; -1.1124430E-03;  0.0000000E+00; -5.1675252E-05;  1.0000107E+03;  4.0000001E-01;  8.8886366E+00;3; -1.1143887E+00;  0.0000000E+00; -3.8338374E-02;0; -1.1754222E-02;  1.0000224E+04;  0.0000000E+00; -5.3766258E-10;  1.0000000E+04;  0.0000000E+00;  9.9999902E+03; -1.2301913E-02;  0.0000000E+00;  5.4769008E-04;  4.9613714E+00;
  1.1999919E-01;  9.9999998E-03; -1.4000003E-01;1223; -1.1186652E-03;  0.0000000E+00; -4.0488474E-05;  1.0000109E+03;  4.0000001E-01;  8.9873991E+00;3; -1.1157421E+00;  0.0000000E+00; -2.8630683E-02;0; -1.1809516E-02;  1.0000226E+04;  0.0000000E+00; -2.9183866E-14;  1.0000000E+04;  0.0000000E+00;  9.9999902E+03; -1.2305347E-02;  0.0000000E+00;  4.9583154E-04;  4.6188760E+00;
  1.1999919E-01;  9.9999998E-03; -1.2000003E-01;1224; -1.1193558E-03;  0.0000000E+00; -3.1151470E-05;  1.0000109E+03;  4.0000001E-01;  8.9873991E+00;3; -1.1115966E+00;  0.0000000E+00; -2.0861948E-02;0; -1.1820030E-02;  1.0000226E+04;  0.0000000E+00;  2.6263056E-11;  1.0000000E+04;  0.0000000E+00;  9.9999932E+03; -1.2256407E-02;  0.0000000E+00;  4.3637722E-04;  4.2132392E+00;
  1.1999919E-01;  9.9999998E-03; -1.0000002E-01;1225; -1.1169952E-03;  0.0000000E+00; -2.3259725E-05;  1.0000109E+03;  4.0000001E-01;  8.9873991E+00;3; -1.1047659E+00;  0.0000000E+00; -1.4488070E-02;0; -1.1806500E-02;  1.0000225E+04;  0.0000000E+00; -4.9412395E-13;  1.0000000E+04;  0.0000000E+00;  9.9999932E+03; -1.2182143E-02;  0.0000000E+00;  3.7564259E-04;  3.7942746E+00;
  1.1999919E-01;  9.9999998E-03; -8.0000013E-02;1226; -1.1132840E-03;  0.0000000E+00; -1.6822622E-05;  1.0000109E+03;  4.0000001E-01;  8.9873991E+00;3; -1.0971255E+00;  0.0000000E+00; -9.7647933E-03;0; -1.1782527E-02;  1.0000225E+04;  0.0000000E+00; -1.0174136E-11;  1.0000000E+04;  0.0000000E+00;  9.9999941E+03; -1.2101864E-02;  0.0000000E+00;  3.1933759E-04;  3.4045579E+00;
  1.1999919E-01;  9.9999998E-03; -6.0000010E-02;1227; -1.1094175E-03;  0.0000000E+00; -1.1560653E-05;  1.0000109E+03;  4.0000001E-01;  8.9873991E+00;3; -1.0900652E+00;  0.0000000E+00; -6.1942451E-03;0; -1.1756934E-02;  1.0000223E+04;  0.0000000E+00; -6.9196714E-12;  1.0000000E+04;  0.0000000E+00;  9.9999961E+03; -1.2028749E-02;  0.0000000E+00;  2.7181531E-04;  3.0754921E+00;
  1.1999919E-01;  9.9999998E-03; -4.0000007E-02;1228; -1.1061770E-03;  0.0000000E+00; -7.2004591E-06;  1.0000109E+03;  4.0000001E-01;  8.9873991E+00;3; -1.0844591E+00;  0.0000000E+00; -3.6247480E-03;0; -1.1735377E-02;  1.0000223E+04;  0.0000000E+00; -6.6366140E-12;  1.0000000E+04;  0.0000000E+00;  9.9999961E+03; -1.1971422E-02;  0.0000000E+00;  2.3604558E-04;  2.8279934E+00;
  1.1999919E-01;  9.9999998E-03; -2.0000003E-02;1229; -1.1040523E-03;  0.0000000E+00; -3.4487587E-06;  1.0000109E+03;  4.0000001E-01;  8.9873991E+00;3; -1.0808866E+00;  0.0000000E+00; -1.6465157E-03;0; -1.1721240E-02;  1.0000223E+04;  0.0000000E+00; -3.9708922E-12;  1.0000000E+04;  0.0000000E+00;  9.9999961E+03; -1.1935139E-02;  0.0000000E+00;  2.1389914E-04;  2.6749082E+00;
  1.3999899E-01;  9.9999998E-03; -1.8000007E-01;1252; -1.3835382E-03;  0.0000000E+00; -7.4029675E-05;  1.0000132E+03;  4.0000001E-01;  1.0962651E+01;3; -1.3598745E+00;  0.0000000E+00; -5.3162206E-02;0; -1.4229878E-02;  1.0000279E+04;  0.0000000E+00; -7.0621934E-07;  1.0000000E+04;  0.0000000E+00;  9.9999873E+03; -1.4947991E-02;  0.0000000E+00;  7.1811338E-04;  6.6315489E+00;
  1.3999897E-01;  9.9999998E-03; -1.6000006E-01;1253; -1.3977442E-03;  0.0000000E+00; -5.9679725E-05;  1.0000134E+03;  4.0000001E-01;  1.1061414E+01;3; -1.3675784E+00;  0.0000000E+00; -4.1153520E-02;0; -1.4328215E-02;  1.0000280E+04;  0.0000000E+00; -5.6567939E-10;  1.0000000E+04;  0.0000000E+00;  9.9999873E+03; -1.5001711E-02;  0.0000000E+00;  6.7349488E-04;  6.3387246E+00;
  1.3999896E-01;  9.9999998E-03; -1.4000005E-01;1254; -1.4019129E-03;  0.0000000E+00; -4.6774145E-05;  1.0000134E+03;  4.0000001E-01;  1.1160176E+01;3; -1.3653293E+00;  0.0000000E+00; -3.0845148E-02;0; -1.4351772E-02;  1.0000280E+04;  0.0000000E+00; -1.0371229E-10;  1.0000000E+04;  0.0000000E+00;  9.9999893E+03; -1.4958558E-02;  0.0000000E+00;  6.0678530E-04;  5.8596711E+00;
  1.3999896E-01;  9.9999998E-03; -1.2000003E-01;1255; -1.3999491E-03;  0.0000000E+00; -3.5886875E-05;  1.0000135E+03;  4.0000001E-01;  1.1160176E+01;3; -1.3572556E+00;  0.0000000E+00; -2.2364078E-02;0; -1.4330291E-02;  1.0000279E+04;  0.0000000E+00; -1.8292357E-11;  1.0000000E+04;  0.0000000E+00;  9.9999902E+03; -1.4862368E-02;  0.0000000E+00;  5.3207704E-04;  5.3133335E+00;
  1.3999896E-01;  9.9999998E-03; -1.0000002E-01;1256; -1.3948296E-03;  0.0000000E+00; -2.6671556E-05;  1.0000135E+03;  4.0000001E-01;  1.1258939E+01;3; -1.3465818E+00;  0.0000000E+00; -1.5497410E-02;0; -1.4288069E-02;  1.0000279E+04;  0.0000000E+00; -2.9712214E-12;  1.0000000E+04;  0.0000000E+00;  9.9999912E+03; -1.4743832E-02;  0.0000000E+00;  4.5576299E-04;  4.7543135E+00;
  1.3999896E-01;  9.9999998E-03; -8.0000021E-02;1257; -1.3885726E-03;  0.0000000E+00; -1.9193485E-05;  1.0000135E+03;  4.0000001E-01;  1.1258939E+01;3; -1.3355383E+00;  0.0000000E+00; -1.0388867E-02;0; -1.4240209E-02;  1.0000276E+04;  0.0000000E+00; -1.9392179E-11;  1.0000000E+04;  0.0000000E+00;  9.9999932E+03; -1.4624813E-02;  0.0000000E+00;  3.8460342E-04;  4.2349682E+00;
  1.3999896E-01;  9.9999998E-03; -6.0000014E-02;1258; -1.3825826E-03;  0.0000000E+00; -1.3108162E-05;  1.0000136E+03;  4.0000001E-01;  1.1258939E+01;3; -1.3257073E+00;  0.0000000E+00; -6.5131988E-03;0; -1.4196038E-02;  1.0000276E+04;  0.0000000E+00; -1.0179183E-11;  1.0000000E+04;  0.0000000E+00;  9.9999941E+03; -1.4520229E-02;  0.0000000E+00;  3.2419030E-04;  3.7962985E+00;
  1.3999896E-01;  9.9999998E-03; -4.0000010E-02;1259; -1.3777559E-03;  0.0000000E+00; -8.1268154E-06;  1.0000136E+03;  4.0000001E-01;  1.1258939E+01;3; -1.3180563E+00;  0.0000000E+00; -3.7812022E-03;0; -1.4161269E-02;  1.0000276E+04;  0.0000000E+00;  5.7282147E-13;  1.0000000E+04;  0.0000000E+00;  9.9999941E+03; -1.4439780E-02;  0.0000000E+00;  2.7851140E-04;  3.4662447E+00;
  1.3999897E-01;  9.9999998E-03; -2.0000003E-02;1260; -1.3746556E-03;  0.0000000E+00; -3.8773383E-06;  1.0000135E+03;  4.0000001E-01;  1.1258939E+01;3; -1.3132365E+00;  0.0000000E+00; -1.7036338E-03;0; -1.4139259E-02;  1.0000276E+04;  0.0000000E+00; -1.0485703E-11;  1.0000000E+04;  0.0000000E+00;  9.9999951E+03; -1.4389410E-02;  0.0000000E+00;  2.5015025E-04;  3.2620926E+00;
  1.5999870E-01;  9.9999998E-03; -1.8000008E-01;1283; -1.7325818E-03;  0.0000000E+00; -8.8086395E-05;  1.0000165E+03;  4.0000001E-01;  1.3629242E+01;3; -1.6621386E+00;  0.0000000E+00; -6.0002793E-02;0; -1.7365824E-02;  1.0000348E+04;  0.0000000E+00; -6.3892289E-06;  1.0000000E+04;  0.0000000E+00;  9.9999824E+03; -1.8293044E-02;  0.0000000E+00;  9.2721923E-04;  8.8060026E+00;
  1.5999869E-01;  9.9999998E-03; -1.6000007E-01;1284; -1.7447349E-03;  0.0000000E+00; -7.1012466E-05;  1.0000168E+03;  4.0000001E-01;  1.3925530E+01;3; -1.6656661E+00;  0.0000000E+00; -4.6732858E-02;0; -1.7427079E-02;  1.0000351E+04;  0.0000000E+00; -1.0444311E-09;  1.0000000E+04;  0.0000000E+00;  9.9999834E+03; -1.8280936E-02;  0.0000000E+00;  8.5385708E-04;  8.2570343E+00;
  1.5999867E-01;  9.9999998E-03; -1.4000006E-01;1285; -1.7454766E-03;  0.0000000E+00; -5.5640761E-05;  1.0000169E+03;  4.0000001E-01;  1.4024293E+01;3; -1.6582741E+00;  0.0000000E+00; -3.5339206E-02;0; -1.7410345E-02;  1.0000351E+04;  0.0000000E+00;  1.0486998E-10;  1.0000000E+04;  0.0000000E+00;  9.9999854E+03; -1.8172210E-02;  0.0000000E+00;  7.6186529E-04;  7.5415053E+00;
  1.5999867E-01;  9.9999998E-03; -1.2000004E-01;1286; -1.7395705E-03;  0.0000000E+00; -4.2512380E-05;  1.0000169E+03;  4.0000001E-01;  1.4024293E+01;3; -1.6448891E+00;  0.0000000E+00; -2.5667094E-02;0; -1.7349048E-02;  1.0000349E+04;  0.0000000E+00;  7.7897362E-11;  1.0000000E+04;  0.0000000E+00;  9.9999863E+03; -1.8012470E-02;  0.0000000E+00;  6.6342211E-04;  6.7741480E+00;
  1.5999867E-01;  9.9999998E-03; -1.0000003E-01;1287; -1.7305426E-03;  0.0000000E+00; -3.1400225E-05;  1.0000169E+03;  4.0000001E-01;  1.4024293E+01;3; -1.6291893E+00;  0.0000000E+00; -1.7840181E-02;0; -1.7271783E-02;  1.0000348E+04;  0.0000000E+00; -6.5726717E-12;  1.0000000E+04;  0.0000000E+00;  9.9999902E+03; -1.7835699E-02;  0.0000000E+00;  5.6391646E-04;  6.0059986E+00;
  1.5999869E-01;  9.9999998E-03; -8.0000021E-02;1288; -1.7207714E-03;  0.0000000E+00; -2.2420529E-05;  1.0000168E+03;  4.0000001E-01;  1.3925530E+01;3; -1.6137538E+00;  0.0000000E+00; -1.1947653E-02;0; -1.7195182E-02;  1.0000346E+04;  0.0000000E+00; -2.3018795E-11;  1.0000000E+04;  0.0000000E+00;  9.9999902E+03; -1.7666256E-02;  0.0000000E+00;  4.7107364E-04;  5.2979245E+00;
  1.5999869E-01;  9.9999998E-03; -6.0000017E-02;1289; -1.7118864E-03;  0.0000000E+00; -1.5184221E-05;  1.0000168E+03;  4.0000001E-01;  1.3925530E+01;3; -1.6003599E+00;  0.0000000E+00; -7.4628438E-03;0; -1.7128874E-02;  1.0000344E+04;  0.0000000E+00;  1.0041173E-12;  1.0000000E+04;  0.0000000E+00;  9.9999922E+03; -1.7520895E-02;  0.0000000E+00;  3.9202164E-04;  4.7018428E+00;
  1.5999869E-01;  9.9999998E-03; -4.0000010E-02;1290; -1.7049169E-03;  0.0000000E+00; -9.3490216E-06;  1.0000168E+03;  4.0000001E-01;  1.3925530E+01;3; -1.5900941E+00;  0.0000000E+00; -4.3121274E-03;0; -1.7078469E-02;  1.0000342E+04;  0.0000000E+00; -3.2101068E-11;  1.0000000E+04;  0.0000000E+00;  9.9999941E+03; -1.7410561E-02;  0.0000000E+00;  3.3209252E-04;  4.2542076E+00;
  1.5999869E-01;  9.9999998E-03; -2.0000005E-02;1291; -1.7005047E-03;  0.0000000E+00; -4.4383087E-06;  1.0000168E+03;  4.0000001E-01;  1.3925530E+01;3; -1.5836797E+00;  0.0000000E+00; -1.9353805E-03;0; -1.7047156E-02;  1.0000341E+04;  0.0000000E+00; -1.1622097E-11;  1.0000000E+04;  0.0000000E+00;  9.9999941E+03; -1.7341977E-02;  0.0000000E+00;  2.9482177E-04;  3.9776809E+00;
  1.7999834E-01;  9.9999998E-03; -1.8000010E-01;1314; -2.1575827E-03;  0.0000000E+00; -1.0902245E-04;  1.0000206E+03;  4.0000001E-01;  1.7085934E+01;3; -2.0179753E+00;  0.0000000E+00; -7.2910123E-02;0; -2.1099702E-02;  1.0000438E+04;  0.0000000E+00; -1.9548617E-05;  1.0000000E+04;  0.0000000E+00;  9.9999756E+03; -2.2350429E-02;  0.0000000E+00;  1.2507276E-03;  1.2045959E+01;
  1.7999832E-01;  9.9999998E-03; -1.6000009E-01;1315; -2.1659369E-03;  0.0000000E+00; -8.7681881E-05;  1.0000208E+03;  4.0000001E-01;  1.7283459E+01;3; -2.0153489E+00;  0.0000000E+00; -5.7268944E-02;0; -2.1117335E-02;  1.0000438E+04;  0.0000000E+00; -6.8201835E-08;  1.0000000E+04;  0.0000000E+00;  9.9999775E+03; -2.2237981E-02;  0.0000000E+00;  1.1206452E-03;  1.0987041E+01;
  1.7999832E-01;  9.9999998E-03; -1.4000006E-01;1316; -2.1615811E-03;  0.0000000E+00; -6.8360328E-05;  1.0000209E+03;  4.0000001E-01;  1.7283459E+01;3; -2.0010855E+00;  0.0000000E+00; -4.3614149E-02;0; -2.1055022E-02;  1.0000435E+04;  0.0000000E+00;  4.6715683E-12;  1.0000000E+04;  0.0000000E+00;  9.9999824E+03; -2.2038188E-02;  0.0000000E+00;  9.8316616E-04;  9.8505983E+00;
  1.7999832E-01;  9.9999998E-03; -1.2000005E-01;1317; -2.1501211E-03;  0.0000000E+00; -5.1881667E-05;  1.0000209E+03;  4.0000001E-01;  1.7283459E+01;3; -1.9807917E+00;  0.0000000E+00; -3.1907670E-02;0; -2.0947689E-02;  1.0000432E+04;  0.0000000E+00;  1.1835954E-10;  1.0000000E+04;  0.0000000E+00;  9.9999824E+03; -2.1793511E-02;  0.0000000E+00;  8.4582239E-04;  8.7251911E+00;
  1.7999832E-01;  9.9999998E-03; -1.0000004E-01;1318; -2.1357357E-03;  0.0000000E+00; -3.7960777E-05;  1.0000208E+03;  4.0000001E-01;  1.7283459E+01;3; -1.9586819E+00;  0.0000000E+00; -2.2243455E-02;0; -2.0829668E-02;  1.0000429E+04;  0.0000000E+00;  8.2059021E-12;  1.0000000E+04;  0.0000000E+00;  9.9999863E+03; -2.1540420E-02;  0.0000000E+00;  7.1075110E-04;  7.6396742E+00;
  1.7999834E-01;  9.9999998E-03; -8.0000028E-02;1319; -2.1212143E-03;  0.0000000E+00; -2.6798609E-05;  1.0000208E+03;  4.0000001E-01;  1.7184696E+01;3; -1.9376782E+00;  0.0000000E+00; -1.4909494E-02;0; -2.0719701E-02;  1.0000427E+04;  0.0000000E+00; -3.8924822E-11;  1.0000000E+04;  0.0000000E+00;  9.9999873E+03; -2.1305591E-02;  0.0000000E+00;  5.8588973E-04;  6.6560335E+00;
  1.7999834E-01;  9.9999998E-03; -6.0000021E-02;1320; -2.1084452E-03;  0.0000000E+00; -1.7950613E-05;  1.0000208E+03;  4.0000001E-01;  1.7184696E+01;3; -1.9197829E+00;  0.0000000E+00; -9.3278317E-03;0; -2.0627744E-02;  1.0000425E+04;  0.0000000E+00; -3.3462240E-11;  1.0000000E+04;  0.0000000E+00;  9.9999902E+03; -2.1107625E-02;  0.0000000E+00;  4.7988057E-04;  5.8351755E+00;
  1.7999834E-01;  9.9999998E-03; -4.0000010E-02;1321; -2.0986171E-03;  0.0000000E+00; -1.0942802E-05;  1.0000207E+03;  4.0000001E-01;  1.7184696E+01;3; -1.9062176E+00;  0.0000000E+00; -5.3770891E-03;0; -2.0559244E-02;  1.0000422E+04;  0.0000000E+00; -5.7389361E-11;  1.0000000E+04;  0.0000000E+00;  9.9999922E+03; -2.0958830E-02;  0.0000000E+00;  3.9958552E-04;  5.2218785E+00;
  1.7999834E-01;  9.9999998E-03; -2.0000005E-02;1322; -2.0924583E-03;  0.0000000E+00; -5.1611414E-06;  1.0000207E+03;  4.0000001E-01;  1.7184696E+01;3; -1.8977910E+00;  0.0000000E+00; -2.4139509E-03;0; -2.0517189E-02;  1.0000419E+04;  0.0000000E+00;  1.0821830E-11;  1.0000000E+04;  0.0000000E+00;  9.9999922E+03; -2.0866854E-02;  0.0000000E+00;  3.4966427E-04;  4.8441634E+00;
  1.9999789E-01;  9.9999998E-03; -1.8000013E-01;1345; -2.6735265E-03;  0.0000000E+00; -1.3947794E-04;  1.0000256E+03;  4.0000001E-01;  2.1233965E+01;3; -2.4350898E+00;  0.0000000E+00; -9.4617091E-02;0; -2.5496583E-02;  1.0000549E+04;  0.0000000E+00; -3.4696852E-05;  1.0000000E+04;  0.0000000E+00;  9.9999668E+03; -2.7240949E-02;  0.0000000E+00;  1.7443659E-03;  1.6843603E+01;
  1.9999787E-01;  9.9999998E-03; -1.6000010E-01;1346; -2.6759214E-03;  0.0000000E+00; -1.1152229E-04;  1.0000258E+03;  4.0000001E-01;  2.1431490E+01;3; -2.4240375E+00;  0.0000000E+00; -7.4936546E-02;0; -2.5474589E-02;  1.0000548E+04;  0.0000000E+00; -2.9248889E-07;  1.0000000E+04;  0.0000000E+00;  9.9999697E+03; -2.6988665E-02;  0.0000000E+00;  1.5140749E-03;  1.4875765E+01;
  1.9999787E-01;  9.9999998E-03; -1.4000009E-01;1347; -2.6643148E-03;  0.0000000E+00; -8.6295207E-05;  1.0000259E+03;  4.0000001E-01;  2.1431490E+01;3; -2.4009044E+00;  0.0000000E+00; -5.7259005E-02;0; -2.5366938E-02;  1.0000543E+04;  0.0000000E+00;  2.1331414E-10;  1.0000000E+04;  0.0000000E+00;  9.9999746E+03; -2.6665065E-02;  0.0000000E+00;  1.2981272E-03;  1.3021193E+01;
  1.9999789E-01;  9.9999998E-03; -1.2000006E-01;1348; -2.6452746E-03;  0.0000000E+00; -6.4883265E-05;  1.0000259E+03;  4.0000001E-01;  2.1530252E+01;3; -2.3717990E+00;  0.0000000E+00; -4.2289793E-02;0; -2.5210403E-02;  1.0000539E+04;  0.0000000E+00;  3.1213462E-11;  1.0000000E+04;  0.0000000E+00;  9.9999775E+03; -2.6307955E-02;  0.0000000E+00;  1.0975531E-03;  1.1322607E+01;
  1.9999789E-01;  9.9999998E-03; -1.0000005E-01;1349; -2.6237206E-03;  0.0000000E+00; -4.6831992E-05;  1.0000258E+03;  4.0000001E-01;  2.1431490E+01;3; -2.3416929E+00;  0.0000000E+00; -2.9435892E-02;0; -2.5047304E-02;  1.0000533E+04;  0.0000000E+00;  1.7357601E-11;  1.0000000E+04;  0.0000000E+00;  9.9999824E+03; -2.5955373E-02;  0.0000000E+00;  9.0806955E-04;  9.7584944E+00;
  1.9999790E-01;  9.9999998E-03; -8.0000035E-02;1350; -2.6028838E-03;  0.0000000E+00; -3.2561398E-05;  1.0000257E+03;  4.0000001E-01;  2.1332727E+01;3; -2.3137321E+00;  0.0000000E+00; -1.9715402E-02;0; -2.4899760E-02;  1.0000530E+04;  0.0000000E+00;  5.9298170E-12;  1.0000000E+04;  0.0000000E+00;  9.9999854E+03; -2.5636068E-02;  0.0000000E+00;  7.3630735E-04;  8.3768139E+00;
  1.9999790E-01;  9.9999998E-03; -6.0000025E-02;1351; -2.5849710E-03;  0.0000000E+00; -2.1500486E-05;  1.0000257E+03;  4.0000001E-01;  2.1332727E+01;3; -2.2902207E+00;  0.0000000E+00; -1.2367841E-02;0; -2.4778612E-02;  1.0000525E+04;  0.0000000E+00; -5.4703242E-11;  1.0000000E+04;  0.0000000E+00;  9.9999873E+03; -2.5370482E-02;  0.0000000E+00;  5.9187133E-04;  7.2402177E+00;
  1.9999792E-01;  9.9999998E-03; -4.0000014E-02;1352; -2.5713700E-03;  0.0000000E+00; -1.2925734E-05;  1.0000256E+03;  4.0000001E-01;  2.1233965E+01;3; -2.2725489E+00;  0.0000000E+00; -7.1054548E-03;0; -2.4689415E-02;  1.0000521E+04;  0.0000000E+00; -5.5162767E-11;  1.0000000E+04;  0.0000000E+00;  9.9999893E+03; -2.5172438E-02;  0.0000000E+00;  4.8302364E-04;  6.3982644E+00;
  1.9999792E-01;  9.9999998E-03; -2.0000007E-02;1353; -2.5629138E-03;  0.0000000E+00; -6.0487041E-06;  1.0000256E+03;  4.0000001E-01;  2.1233965E+01;3; -2.2616272E+00;  0.0000000E+00; -3.1992276E-03;0; -2.4634998E-02;  1.0000520E+04;  0.0000000E+00; -3.3109467E-11;  1.0000000E+04;  0.0000000E+00;  9.9999912E+03; -2.5050532E-02;  0.0000000E+00;  4.1553320E-04;  5.8823266E+00;
  2.1999733E-01;  9.9999998E-03; -1.8000017E-01;1376; -3.2980777E-03;  0.0000000E+00; -1.8168874E-04;  1.0000317E+03;  4.0000001E-01;  2.6270859E+01;3; -2.9220867E+00;  0.0000000E+00; -1.2746628E-01;0; -3.0629246E-02;  1.0000684E+04;  0.0000000E+00; -4.0071995E-05;  1.0000000E+04;  0.0000000E+00;  9.9999512E+03; -3.3093136E-02;  0.0000000E+00;  2.4638905E-03;  2.3720957E+01;
  2.1999732E-01;  9.9999998E-03; -1.6000013E-01;1377; -3.2917662E-03;  0.0000000E+00; -1.4410350E-04;  1.0000318E+03;  4.0000001E-01;  2.6369621E+01;3; -2.9001334E+00;  0.0000000E+00; -1.0117064E-01;0; -3.0583682E-02;  1.0000680E+04;  0.0000000E+00; -3.2632647E-07;  1.0000000E+04;  0.0000000E+00;  9.9999580E+03; -3.2659899E-02;  0.0000000E+00;  2.0762172E-03;  2.0303114E+01;
  2.1999732E-01;  9.9999998E-03; -1.4000010E-01;1378; -3.2701737E-03;  0.0000000E+00; -1.1054637E-04;  1.0000318E+03;  4.0000001E-01;  2.6369621E+01;3; -2.8657153E+00;  0.0000000E+00; -7.7578165E-02;0; -3.0436849E-02;  1.0000673E+04;  0.0000000E+00;  5.1674010E-10;  1.0000000E+04;  0.0000000E+00;  9.9999668E+03; -3.2173056E-02;  0.0000000E+00;  1.7362071E-03;  1.7313705E+01;
  2.1999733E-01;  9.9999998E-03; -1.2000008E-01;1379; -3.2410284E-03;  0.0000000E+00; -8.1975428E-05;  1.0000317E+03;  4.0000001E-01;  2.6270859E+01;3; -2.8257136E+00;  0.0000000E+00; -5.7295021E-02;0; -3.0231334E-02;  1.0000665E+04;  0.0000000E+00;  9.3932355E-11;  1.0000000E+04;  0.0000000E+00;  9.9999707E+03; -3.1669259E-02;  0.0000000E+00;  1.4379249E-03;  1.4737556E+01;
  2.1999735E-01;  9.9999998E-03; -1.0000006E-01;1380; -3.2099879E-03;  0.0000000E+00; -5.8303762E-05;  1.0000316E+03;  4.0000001E-01;  2.6172096E+01;3; -2.7856629E+00;  0.0000000E+00; -3.9922919E-02;0; -3.0020295E-02;  1.0000657E+04;  0.0000000E+00; -3.7890694E-11;  1.0000000E+04;  0.0000000E+00;  9.9999766E+03; -3.1188039E-02;  0.0000000E+00;  1.1677437E-03;  1.2471857E+01;
  2.1999736E-01;  9.9999998E-03; -8.0000043E-02;1381; -3.1808603E-03;  0.0000000E+00; -3.9795414E-05;  1.0000315E+03;  4.0000001E-01;  2.6073332E+01;3; -2.7491064E+00;  0.0000000E+00; -2.6659815E-02;0; -2.9831152E-02;  1.0000651E+04;  0.0000000E+00; -3.8314810E-11;  1.0000000E+04;  0.0000000E+00;  9.9999814E+03; -3.0760130E-02;  0.0000000E+00;  9.2897768E-04;  1.0528850E+01;
  2.1999738E-01;  9.9999998E-03; -6.0000028E-02;1382; -3.1562122E-03;  0.0000000E+00; -2.5812571E-05;  1.0000315E+03;  4.0000001E-01;  2.6073332E+01;3; -2.7186480E+00;  0.0000000E+00; -1.6725894E-02;0; -2.9676937E-02;  1.0000646E+04;  0.0000000E+00;  7.6368755E-12;  1.0000000E+04;  0.0000000E+00;  9.9999854E+03; -3.0408071E-02;  0.0000000E+00;  7.3113386E-04;  8.9597988E+00;
  2.1999739E-01;  9.9999998E-03; -4.0000018E-02;1383; -3.1376830E-03;  0.0000000E+00; -1.5244439E-05;  1.0000314E+03;  4.0000001E-01;  2.5974569E+01;3; -2.6959095E+00;  0.0000000E+00; -9.5658982E-03;0; -2.9563935E-02;  1.0000642E+04;  0.0000000E+00; -4.4066341E-11;  1.0000000E+04;  0.0000000E+00;  9.9999873E+03; -3.0147264E-02;  0.0000000E+00;  5.8332755E-04;  7.8109193E+00;
  2.1999739E-01;  9.9999998E-03; -2.0000007E-02;1384; -3.1262268E-03;  0.0000000E+00; -7.0613451E-06;  1.0000314E+03;  4.0000001E-01;  2.6073332E+01;3; -2.6819129E+00;  0.0000000E+00; -4.3111807E-03;0; -2.9495187E-02;  1.0000640E+04;  0.0000000E+00;  1.6228210E-11;  1.0000000E+04;  0.0000000E+00;  9.9999893E+03; -2.9987320E-02;  0.0000000E+00;  4.9213262E-04;  7.1117558E+00;
  2.3999663E-01;  9.9999998E-03; -1.8000023E-01;1407; -4.0519927E-03;  0.0000000E+00; -2.3833306E-04;  1.0000389E+03;  4.0000001E-01;  3.2196617E+01;3; -3.4887269E+00;  0.0000000E+00; -1.7367470E-01;0; -3.6594763E-02;  1.0000850E+04;  0.0000000E+00; -2.9881992E-05;  1.0000000E+04;  0.0000000E+00;  9.9999277E+03; -4.0046420E-02;  0.0000000E+00;  3.4516584E-03;  3.3133991E+01;
  2.3999663E-01;  9.9999998E-03; -1.6000018E-01;1408; -4.0332363E-03;  0.0000000E+00; -1.8695946E-04;  1.0000391E+03;  4.0000001E-01;  3.2394142E+01;3; -3.4526720E+00;  0.0000000E+00; -1.3818033E-01;0; -3.6547154E-02;  1.0000841E+04;  0.0000000E+00; -9.2827435E-08;  1.0000000E+04;  0.0000000E+00;  9.9999443E+03; -3.9389312E-02;  0.0000000E+00;  2.8421581E-03;  2.7619356E+01;
  2.3999664E-01;  9.9999998E-03; -1.4000013E-01;1409; -3.9981692E-03;  0.0000000E+00; -1.4164209E-04;  1.0000391E+03;  4.0000001E-01;  3.2394142E+01;3; -3.4043911E+00;  0.0000000E+00; -1.0528070E-01;0; -3.6370482E-02;  1.0000830E+04;  0.0000000E+00;  3.4834904E-10;  1.0000000E+04;  0.0000000E+00;  9.9999531E+03; -3.8693994E-02;  0.0000000E+00;  2.3235129E-03;  2.2977251E+01;
  2.3999666E-01;  9.9999998E-03; -1.2000010E-01;1410; -3.9556981E-03;  0.0000000E+00; -1.0322695E-04;  1.0000389E+03;  4.0000001E-01;  3.2295380E+01;3; -3.3510652E+00;  0.0000000E+00; -7.7172183E-02;0; -3.6118239E-02;  1.0000817E+04;  0.0000000E+00;  6.7368409E-11;  1.0000000E+04;  0.0000000E+00;  9.9999629E+03; -3.8002472E-02;  0.0000000E+00;  1.8842331E-03;  1.9135431E+01;
  2.3999669E-01;  9.9999998E-03; -1.0000007E-01;1411; -3.9121900E-03;  0.0000000E+00; -7.2247873E-05;  1.0000388E+03;  4.0000001E-01;  3.2196617E+01;3; -3.2987761E+00;  0.0000000E+00; -5.3743422E-02;0; -3.5856735E-02;  1.0000809E+04;  0.0000000E+00; -1.7485072E-10;  1.0000000E+04;  0.0000000E+00;  9.9999707E+03; -3.7356753E-02;  0.0000000E+00;  1.5000177E-03;  1.5884889E+01;
  2.3999670E-01;  9.9999998E-03; -8.0000050E-02;1412; -3.8722777E-03;  0.0000000E+00; -4.8270049E-05;  1.0000388E+03;  4.0000001E-01;  3.2196617E+01;3; -3.2517045E+00;  0.0000000E+00; -3.5627604E-02;0; -3.5621375E-02;  1.0000800E+04;  0.0000000E+00; -6.7052440E-11;  1.0000000E+04;  0.0000000E+00;  9.9999766E+03; -3.6790453E-02;  0.0000000E+00;  1.1690778E-03;  1.3177749E+01;
  2.3999672E-01;  9.9999998E-03; -6.0000032E-02;1413; -3.8389170E-03;  0.0000000E+00; -3.0707135E-05;  1.0000387E+03;  4.0000001E-01;  3.2097855E+01;3; -3.2127695E+00;  0.0000000E+00; -2.2346323E-02;0; -3.5429113E-02;  1.0000791E+04;  0.0000000E+00;  1.7628675E-11;  1.0000000E+04;  0.0000000E+00;  9.9999814E+03; -3.6328588E-02;  0.0000000E+00;  8.9947542E-04;  1.1035797E+01;
  2.3999673E-01;  9.9999998E-03; -4.0000018E-02;1414; -3.8140197E-03;  0.0000000E+00; -1.7746448E-05;  1.0000386E+03;  4.0000001E-01;  3.1999090E+01;3; -3.1838422E+00;  0.0000000E+00; -1.2710165E-02;0; -3.5288092E-02;  1.0000788E+04;  0.0000000E+00; -8.1961000E-11;  1.0000000E+04;  0.0000000E+00;  9.9999844E+03; -3.5988338E-02;  0.0000000E+00;  7.0024584E-04;  9.4887762E+00;
  2.3999675E-01;  9.9999998E-03; -2.0000009E-02;1415; -3.7986876E-03;  0.0000000E+00; -8.0911568E-06;  1.0000385E+03;  4.0000001E-01;  3.1900328E+01;3; -3.1660695E+00;  0.0000000E+00; -5.6969202E-03;0; -3.5202317E-02;  1.0000784E+04;  0.0000000E+00;  5.9316281E-11;  1.0000000E+04;  0.0000000E+00;  9.9999873E+03; -3.5780437E-02;  0.0000000E+00;  5.7812041E-04;  8.5552664E+00;
  2.5999576E-01;  9.9999998E-03; -1.8000029E-01;1438; -4.9597123E-03;  0.0000000E+00; -3.1187726E-04;  1.0000477E+03;  4.0000001E-01;  3.9505047E+01;3; -4.1462202E+00;  0.0000000E+00; -2.3568040E-01;0; -4.3525882E-02;  1.0001051E+04;  0.0000000E+00; -1.2635813E-05;  1.0000000E+04;  0.0000000E+00;  9.9999033E+03; -4.8252996E-02;  0.0000000E+00;  4.7271131E-03;  4.5400467E+01;
  2.5999576E-01;  9.9999998E-03; -1.6000022E-01;1439; -4.9233600E-03;  0.0000000E+00; -2.4042043E-04;  1.0000480E+03;  4.0000001E-01;  3.9702572E+01;3; -4.0922718E+00;  0.0000000E+00; -1.8533100E-01;0; -4.3492403E-02;  1.0001037E+04;  0.0000000E+00; -4.7279564E-10;  1.0000000E+04;  0.0000000E+00;  9.9999219E+03; -4.7325362E-02;  0.0000000E+00;  3.8329596E-03;  3.7091976E+01;
  2.5999579E-01;  9.9999998E-03; -1.4000016E-01;1440; -4.8699901E-03;  0.0000000E+00; -1.7968033E-04;  1.0000480E+03;  4.0000001E-01;  3.9801334E+01;3; -4.0266099E+00;  0.0000000E+00; -1.4084326E-01;0; -4.3293618E-02;  1.0001023E+04;  0.0000000E+00;  3.5164313E-10;  1.0000000E+04;  0.0000000E+00;  9.9999375E+03; -4.6371248E-02;  0.0000000E+00;  3.0776295E-03;  3.0211424E+01;
  2.5999582E-01;  9.9999998E-03; -1.2000012E-01;1441; -4.8099286E-03;  0.0000000E+00; -1.2843388E-04;  1.0000480E+03;  4.0000001E-01;  3.9702572E+01;3; -3.9569948E+00;  0.0000000E+00; -1.0212624E-01;0; -4.2995259E-02;  1.0001007E+04;  0.0000000E+00; -1.1426884E-10;  1.0000000E+04;  0.0000000E+00;  9.9999521E+03; -4.5443825E-02;  0.0000000E+00;  2.4485649E-03;  2.4653126E+01;
  2.5999585E-01;  9.9999998E-03; -1.0000008E-01;1442; -4.7502010E-03;  0.0000000E+00; -8.8345121E-05;  1.0000477E+03;  4.0000001E-01;  3.9505047E+01;3; -3.8898640E+00;  0.0000000E+00; -7.0924088E-02;0; -4.2678814E-02;  1.0000995E+04;  0.0000000E+00; -3.8917972E-10;  1.0000000E+04;  0.0000000E+00;  9.9999619E+03; -4.4590607E-02;  0.0000000E+00;  1.9117924E-03;  2.0087763E+01;
  2.5999588E-01;  9.9999998E-03; -8.0000058E-02;1443; -4.6963599E-03;  0.0000000E+00; -5.7603967E-05;  1.0000475E+03;  4.0000001E-01;  3.9307522E+01;3; -3.8300636E+00;  0.0000000E+00; -4.6500236E-02;0; -4.2390272E-02;  1.0000982E+04;  0.0000000E+00; -1.0165645E-10;  1.0000000E+04;  0.0000000E+00;  9.9999697E+03; -4.3849904E-02;  0.0000000E+00;  1.4596339E-03;  1.6384380E+01;
  2.5999591E-01;  9.9999998E-03; -6.0000036E-02;1444; -4.6517807E-03;  0.0000000E+00; -3.5734283E-05;  1.0000474E+03;  4.0000001E-01;  3.9307522E+01;3; -3.7808352E+00;  0.0000000E+00; -2.8826341E-02;0; -4.2152602E-02;  1.0000974E+04;  0.0000000E+00;  1.2353829E-10;  1.0000000E+04;  0.0000000E+00;  9.9999766E+03; -4.3250032E-02;  0.0000000E+00;  1.0974297E-03;  1.3513695E+01;
  2.5999594E-01;  9.9999998E-03; -4.0000021E-02;1445; -4.6187458E-03;  0.0000000E+00; -2.0180059E-05;  1.0000473E+03;  4.0000001E-01;  3.9208759E+01;3; -3.7444277E+00;  0.0000000E+00; -1.6325178E-02;0; -4.1977409E-02;  1.0000966E+04;  0.0000000E+00;  3.4700579E-11;  1.0000000E+04;  0.0000000E+00;  9.9999814E+03; -4.2810302E-02;  0.0000000E+00;  8.3289383E-04;  1.1470886E+01;
  2.5999594E-01;  9.9999998E-03; -2.0000011E-02;1446; -4.5984625E-03;  0.0000000E+00; -9.0152598E-06;  1.0000472E+03;  4.0000001E-01;  3.9109997E+01;3; -3.7220612E+00;  0.0000000E+00; -7.2479788E-03;0; -4.1870490E-02;  1.0000961E+04;  0.0000000E+00;  1.0622959E-10;  1.0000000E+04;  0.0000000E+00;  9.9999844E+03; -4.2542413E-02;  0.0000000E+00;  6.7192386E-04;  1.0249991E+01;
  2.7999470E-01;  9.9999998E-03; -1.8000038E-01;1469; -6.0489462E-03;  0.0000000E+00; -4.0455296E-04;  1.0000583E+03;  4.0000001E-01;  4.8294918E+01;3; -4.9060397E+00;  0.0000000E+00; -3.1570989E-01;0; -5.1590543E-02;  1.0001297E+04;  0.0000000E+00; -1.7430094E-06;  1.0000000E+04;  0.0000000E+00;  9.9998682E+03; -5.7878628E-02;  0.0000000E+00;  6.2880856E-03;  6.0701519E+01;
  2.7999473E-01;  9.9999998E-03; -1.6000028E-01;1470; -5.9883310E-03;  0.0000000E+00; -3.0567450E-04;  1.0000587E+03;  4.0000001E-01;  4.8689968E+01;3; -4.8298559E+00;  0.0000000E+00; -2.4474062E-01;0; -5.1575080E-02;  1.0001276E+04;  0.0000000E+00; -1.1751931E-09;  1.0000000E+04;  0.0000000E+00;  9.9998965E+03; -5.6628887E-02;  0.0000000E+00;  5.0538075E-03;  4.8886696E+01;
  2.7999476E-01;  9.9999998E-03; -1.4000021E-01;1471; -5.9103523E-03;  0.0000000E+00; -2.2443163E-04;  1.0000587E+03;  4.0000001E-01;  4.8689968E+01;3; -4.7425804E+00;  0.0000000E+00; -1.8380991E-01;0; -5.1354807E-02;  1.0001254E+04;  0.0000000E+00;  6.7227744E-11;  1.0000000E+04;  0.0000000E+00;  9.9999209E+03; -5.5359770E-02;  0.0000000E+00;  4.0049627E-03;  3.9144424E+01;
  2.7999482E-01;  9.9999998E-03; -1.2000015E-01;1472; -5.8271261E-03;  0.0000000E+00; -1.5707655E-04;  1.0000585E+03;  4.0000001E-01;  4.8393681E+01;3; -4.6531615E+00;  0.0000000E+00; -1.3150415E-01;0; -5.1004555E-02;  1.0001233E+04;  0.0000000E+00; -2.2095724E-10;  1.0000000E+04;  0.0000000E+00;  9.9999365E+03; -5.4140307E-02;  0.0000000E+00;  3.1357503E-03;  3.1384851E+01;
  2.7999485E-01;  9.9999998E-03; -1.0000011E-01;1473; -5.7463958E-03;  0.0000000E+00; -1.0588628E-04;  1.0000582E+03;  4.0000001E-01;  4.8196156E+01;3; -4.5681901E+00;  0.0000000E+00; -9.0559147E-02;0; -5.0623011E-02;  1.0001214E+04;  0.0000000E+00; -7.5509848E-10;  1.0000000E+04;  0.0000000E+00;  9.9999531E+03; -5.3028665E-02;  0.0000000E+00;  2.4056558E-03;  2.5151817E+01;
  2.7999490E-01;  9.9999998E-03; -8.0000065E-02;1474; -5.6746388E-03;  0.0000000E+00; -6.7234410E-05;  1.0000578E+03;  4.0000001E-01;  4.7899868E+01;3; -4.4931097E+00;  0.0000000E+00; -5.8749441E-02;0; -5.0269097E-02;  1.0001198E+04;  0.0000000E+00; -2.4809277E-10;  1.0000000E+04;  0.0000000E+00;  9.9999629E+03; -5.2070700E-02;  0.0000000E+00;  1.8016023E-03;  2.0210539E+01;
  2.7999493E-01;  9.9999998E-03; -6.0000043E-02;1475; -5.6157191E-03;  0.0000000E+00; -4.0427632E-05;  1.0000577E+03;  4.0000001E-01;  4.7801105E+01;3; -4.4315009E+00;  0.0000000E+00; -3.5758078E-02;0; -4.9974341E-02;  1.0001185E+04;  0.0000000E+00; -3.0277891E-11;  1.0000000E+04;  0.0000000E+00;  9.9999727E+03; -5.1299535E-02;  0.0000000E+00;  1.3251922E-03;  1.6455778E+01;
  2.7999496E-01;  9.9999998E-03; -4.0000025E-02;1476; -5.5723051E-03;  0.0000000E+00; -2.2148935E-05;  1.0000576E+03;  4.0000001E-01;  4.7702343E+01;3; -4.3860035E+00;  0.0000000E+00; -1.9811593E-02;0; -4.9755421E-02;  1.0001176E+04;  0.0000000E+00;  7.9793908E-11;  1.0000000E+04;  0.0000000E+00;  9.9999785E+03; -5.0736737E-02;  0.0000000E+00;  9.8131446E-04;  1.3824860E+01;
  2.7999496E-01;  9.9999998E-03; -2.0000011E-02;1477; -5.5457507E-03;  0.0000000E+00; -9.6621197E-06;  1.0000574E+03;  4.0000001E-01;  4.7603580E+01;3; -4.3581591E+00;  0.0000000E+00; -8.7705031E-03;0; -4.9621224E-02;  1.0001170E+04;  0.0000000E+00;  2.4868257E-10;  1.0000000E+04;  0.0000000E+00;  9.9999824E+03; -5.0394904E-02;  0.0000000E+00;  7.7367859E-04;  1.2268927E+01;
  2.9999337E-01;  9.9999998E-03; -1.8000047E-01;1500; -7.3512923E-03;  0.0000000E+00; -5.1473832E-04;  1.0000710E+03;  4.0000001E-01;  5.8862511E+01;3; -5.7800746E+00;  0.0000000E+00; -4.1190168E-01;0; -6.0986377E-02;  1.0001592E+04;  0.0000000E+00; -7.6091160E-09;  1.0000000E+04;  0.0000000E+00;  9.9998281E+03; -6.9107994E-02;  0.0000000E+00;  8.1216153E-03;  7.9152664E+01;
  2.9999343E-01;  9.9999998E-03; -1.6000035E-01;1501; -7.2579705E-03;  0.0000000E+00; -3.8150183E-04;  1.0000713E+03;  4.0000001E-01;  5.9060036E+01;3; -5.6765790E+00;  0.0000000E+00; -3.1530905E-01;0; -6.0979620E-02;  1.0001564E+04;  0.0000000E+00; -1.9002224E-09;  1.0000000E+04;  0.0000000E+00;  9.9998662E+03; -6.7476876E-02;  0.0000000E+00;  6.4972565E-03;  6.3083759E+01;
  2.9999349E-01;  9.9999998E-03; -1.4000025E-01;1502; -7.1475091E-03;  0.0000000E+00; -2.7464650E-04;  1.0000714E+03;  4.0000001E-01;  5.9158798E+01;3; -5.5632424E+00;  0.0000000E+00; -2.3366077E-01;0; -6.0725078E-02;  1.0001533E+04;  0.0000000E+00; -1.0133050E-10;  1.0000000E+04;  0.0000000E+00;  9.9998965E+03; -6.5826416E-02;  0.0000000E+00;  5.1013394E-03;  4.9836384E+01;
  2.9999354E-01;  9.9999998E-03; -1.2000018E-01;1503; -7.0340172E-03;  0.0000000E+00; -1.8799935E-04;  1.0000712E+03;  4.0000001E-01;  5.9060036E+01;3; -5.4499011E+00;  0.0000000E+00; -1.6470020E-01;0; -6.0305294E-02;  1.0001506E+04;  0.0000000E+00; -6.5527594E-10;  1.0000000E+04;  0.0000000E+00;  9.9999219E+03; -6.4248614E-02;  0.0000000E+00;  3.9433218E-03;  3.9385582E+01;
  2.9999363E-01;  9.9999998E-03; -1.0000012E-01;1504; -6.9261654E-03;  0.0000000E+00; -1.2361920E-04;  1.0000710E+03;  4.0000001E-01;  5.8862511E+01;3; -5.3433871E+00;  0.0000000E+00; -1.1123450E-01;0; -5.9838302E-02;  1.0001479E+04;  0.0000000E+00; -8.2624313E-10;  1.0000000E+04;  0.0000000E+00;  9.9999395E+03; -6.2818728E-02;  0.0000000E+00;  2.9804260E-03;  3.1140518E+01;
  2.9999369E-01;  9.9999998E-03; -8.0000080E-02;1505; -6.8314928E-03;  0.0000000E+00; -7.6433433E-05;  1.0000706E+03;  4.0000001E-01;  5.8467461E+01;3; -5.2499080E+00;  0.0000000E+00; -7.1162343E-02;0; -5.9398405E-02;  1.0001458E+04;  0.0000000E+00;  2.0809937E-10;  1.0000000E+04;  0.0000000E+00;  9.9999551E+03; -6.1593775E-02;  0.0000000E+00;  2.1953706E-03;  2.4738848E+01;
  2.9999372E-01;  9.9999998E-03; -6.0000047E-02;1506; -6.7543532E-03;  0.0000000E+00; -4.4377637E-05;  1.0000703E+03;  4.0000001E-01;  5.8269936E+01;3; -5.1735806E+00;  0.0000000E+00; -4.2586554E-02;0; -5.9027806E-02;  1.0001439E+04;  0.0000000E+00;  4.1163375E-10;  1.0000000E+04;  0.0000000E+00;  9.9999668E+03; -6.0612839E-02;  0.0000000E+00;  1.5850341E-03;  1.9968817E+01;
  2.9999378E-01;  9.9999998E-03; -4.0000029E-02;1507; -6.6977730E-03;  0.0000000E+00; -2.3340868E-05;  1.0000699E+03;  4.0000001E-01;  5.7973648E+01;3; -5.1171865E+00;  0.0000000E+00; -2.2952249E-02;0; -5.8750458E-02;  1.0001426E+04;  0.0000000E+00;  5.1582438E-10;  1.0000000E+04;  0.0000000E+00;  9.9999736E+03; -5.9900064E-02;  0.0000000E+00;  1.1496043E-03;  1.6680183E+01;
  2.9999378E-01;  9.9999998E-03; -2.0000013E-02;1508; -6.6633043E-03;  0.0000000E+00; -9.8858009E-06;  1.0000699E+03;  4.0000001E-01;  5.7874886E+01;3; -5.0827413E+00;  0.0000000E+00; -1.0031484E-02;0; -5.8579579E-02;  1.0001420E+04;  0.0000000E+00;  1.7504259E-10;  1.0000000E+04;  0.0000000E+00;  9.9999785E+03; -5.9468385E-02;  0.0000000E+00;  8.8880508E-04;  1.4757563E+01;
  3.1999174E-01;  9.9999998E-03; -1.8000059E-01;1531; -8.9032259E-03;  0.0000000E+00; -6.4108305E-04;  1.0000864E+03;  4.0000001E-01;  7.1504120E+01;3; -6.7804198E+00;  0.0000000E+00; -5.2216345E-01;0; -7.1937218E-02;  1.0001948E+04;  0.0000000E+00; -1.1025797E-08;  1.0000000E+04;  0.0000000E+00;  9.9997822E+03; -8.2152501E-02;  0.0000000E+00;  1.0215285E-02;  1.0087339E+02;
  3.1999183E-01;  9.9999998E-03; -1.6000043E-01;1532; -8.7670768E-03;  0.0000000E+00; -4.6743688E-04;  1.0000868E+03;  4.0000001E-01;  7.1899178E+01;3; -6.6446290E+00;  0.0000000E+00; -3.9648539E-01;0; -7.1914583E-02;  1.0001909E+04;  0.0000000E+00; -1.1814715E-09;  1.0000000E+04;  0.0000000E+00;  9.9998291E+03; -8.0063656E-02;  0.0000000E+00;  8.1490716E-03;  7.9716713E+01;
  3.1999192E-01;  9.9999998E-03; -1.4000030E-01;1533; -8.6142765E-03;  0.0000000E+00; -3.2967358E-04;  1.0000869E+03;  4.0000001E-01;  7.1997940E+01;3; -6.5002203E+00;  0.0000000E+00; -2.8975704E-01;0; -7.1594387E-02;  1.0001868E+04;  0.0000000E+00;  5.4691490E-10;  1.0000000E+04;  0.0000000E+00;  9.9998701E+03; -7.7949233E-02;  0.0000000E+00;  6.3548447E-03;  6.2305447E+01;
  3.1999204E-01;  9.9999998E-03; -1.2000021E-01;1534; -8.4615573E-03;  0.0000000E+00; -2.2067672E-04;  1.0000865E+03;  4.0000001E-01;  7.1701653E+01;3; -6.3582134E+00;  0.0000000E+00; -2.0093766E-01;0; -7.1070179E-02;  1.0001829E+04;  0.0000000E+00; -5.4792504E-10;  1.0000000E+04;  0.0000000E+00;  9.9999023E+03; -7.5933762E-02;  0.0000000E+00;  4.8635849E-03;  4.8698612E+01;
  3.1999213E-01;  9.9999998E-03; -1.0000014E-01;1535; -8.3188638E-03;  0.0000000E+00; -1.4135579E-04;  1.0000859E+03;  4.0000001E-01;  7.1207832E+01;3; -6.2258830E+00;  0.0000000E+00; -1.3301240E-01;0; -7.0482247E-02;  1.0001795E+04;  0.0000000E+00; -6.2253919E-10;  1.0000000E+04;  0.0000000E+00;  9.9999268E+03; -7.4116029E-02;  0.0000000E+00;  3.6337855E-03;  3.8144436E+01;
  3.1999221E-01;  9.9999998E-03; -8.0000088E-02;1536; -8.1949802E-03;  0.0000000E+00; -8.4553605E-05;  1.0000855E+03;  4.0000001E-01;  7.0812782E+01;3; -6.1102319E+00;  0.0000000E+00; -8.2785897E-02;0; -6.9922991E-02;  1.0001766E+04;  0.0000000E+00;  6.8071847E-11;  1.0000000E+04;  0.0000000E+00;  9.9999443E+03; -7.2567374E-02;  0.0000000E+00;  2.6443838E-03;  3.0115807E+01;
  3.1999227E-01;  9.9999998E-03; -6.0000055E-02;1537; -8.0948332E-03;  0.0000000E+00; -4.7351878E-05;  1.0000851E+03;  4.0000001E-01;  7.0516495E+01;3; -6.0162044E+00;  0.0000000E+00; -4.8668910E-02;0; -6.9447882E-02;  1.0001746E+04;  0.0000000E+00;  2.9370123E-10;  1.0000000E+04;  0.0000000E+00;  9.9999590E+03; -7.1333773E-02;  0.0000000E+00;  1.8858926E-03;  2.4253696E+01;
  3.1999233E-01;  9.9999998E-03; -4.0000029E-02;1538; -8.0216741E-03;  0.0000000E+00; -2.3698884E-05;  1.0000847E+03;  4.0000001E-01;  7.0121445E+01;3; -5.9467244E+00;  0.0000000E+00; -2.5190389E-02;0; -6.9090024E-02;  1.0001729E+04;  0.0000000E+00;  6.3794481E-10;  1.0000000E+04;  0.0000000E+00;  9.9999678E+03; -7.0441291E-02;  0.0000000E+00;  1.3512692E-03;  2.0282541E+01;
  3.1999236E-01;  9.9999998E-03; -2.0000013E-02;1539; -7.9772519E-03;  0.0000000E+00; -9.6549966E-06;  1.0000845E+03;  4.0000001E-01;  7.0022682E+01;3; -5.9043260E+00;  0.0000000E+00; -1.0761222E-02;0; -6.8868689E-02;  1.0001720E+04;  0.0000000E+00;  4.4650944E-10;  1.0000000E+04;  0.0000000E+00;  9.9999736E+03; -6.9902532E-02;  0.0000000E+00;  1.0338408E-03;  1.7990925E+01;
  3.3998975E-01;  9.9999998E-03; -1.8000071E-01;1562; -1.0745109E-02;  0.0000000E+00; -7.7848701E-04;  1.0001050E+03;  4.0000001E-01;  8.7009842E+01;3; -7.9184141E+00;  0.0000000E+00; -6.4239979E-01;0; -8.4692352E-02;  1.0002373E+04;  0.0000000E+00; -9.9352384E-09;  1.0000000E+04;  0.0000000E+00;  9.9997266E+03; -9.7250365E-02;  0.0000000E+00;  1.2558013E-02;  1.2598334E+02;
  3.3998987E-01;  9.9999998E-03; -1.6000052E-01;1563; -1.0554388E-02;  0.0000000E+00; -5.6017016E-04;  1.0001055E+03;  4.0000001E-01;  8.7404900E+01;3; -7.7454567E+00;  0.0000000E+00; -4.8293591E-01;0; -8.4606253E-02;  1.0002321E+04;  0.0000000E+00;  2.5292877E-09;  1.0000000E+04;  0.0000000E+00;  9.9997900E+03; -9.4598025E-02;  0.0000000E+00;  9.9917706E-03;  9.8806282E+01;
  3.3999002E-01;  9.9999998E-03; -1.4000036E-01;1564; -1.0347939E-02;  0.0000000E+00; -3.8896303E-04;  1.0001053E+03;  4.0000001E-01;  8.7306129E+01;3; -7.5657005E+00;  0.0000000E+00; -3.5159242E-01;0; -8.4165692E-02;  1.0002267E+04;  0.0000000E+00;  6.4596728E-10;  1.0000000E+04;  0.0000000E+00;  9.9998398E+03; -9.1914982E-02;  0.0000000E+00;  7.7492911E-03;  7.6573044E+01;
  3.3999017E-01;  9.9999998E-03; -1.2000024E-01;1565; -1.0145035E-02;  0.0000000E+00; -2.5489496E-04;  1.0001049E+03;  4.0000001E-01;  8.6911079E+01;3; -7.3897061E+00;  0.0000000E+00; -2.3909709E-01;0; -8.3479367E-02;  1.0002216E+04;  0.0000000E+00; -1.1942409E-09;  1.0000000E+04;  0.0000000E+00;  9.9998799E+03; -8.9367181E-02;  0.0000000E+00;  5.8878125E-03;  5.9413647E+01;
  3.3999029E-01;  9.9999998E-03; -1.0000016E-01;1566; -9.9580782E-03;  0.0000000E+00; -1.5923145E-04;  1.0001040E+03;  4.0000001E-01;  8.6120979E+01;3; -7.2264085E+00;  0.0000000E+00; -1.5533592E-01;0; -8.2714513E-02;  1.0002171E+04;  0.0000000E+00; -1.2895435E-09;  1.0000000E+04;  0.0000000E+00;  9.9999102E+03; -8.7081999E-02;  0.0000000E+00;  4.3674847E-03;  4.6349796E+01;
  3.3999041E-01;  9.9999998E-03; -8.0000103E-02;1567; -9.7973300E-03;  0.0000000E+00; -9.2194961E-05;  1.0001035E+03;  4.0000001E-01;  8.5725929E+01;3; -7.0842743E+00;  0.0000000E+00; -9.3178086E-02;0; -8.1985325E-02;  1.0002134E+04;  0.0000000E+00; -1.4517465E-10;  1.0000000E+04;  0.0000000E+00;  9.9999346E+03; -8.5146859E-02;  0.0000000E+00;  3.1615312E-03;  3.6627323E+01;
  3.3999053E-01;  9.9999998E-03; -6.0000062E-02;1568; -9.6683344E-03;  0.0000000E+00; -4.9875678E-05;  1.0001028E+03;  4.0000001E-01;  8.5133354E+01;3; -6.9688978E+00;  0.0000000E+00; -5.3376149E-02;0; -8.1363566E-02;  1.0002104E+04;  0.0000000E+00;  1.5812474E-10;  1.0000000E+04;  0.0000000E+00;  9.9999492E+03; -8.3614387E-02;  0.0000000E+00;  2.2508190E-03;  2.9684841E+01;
  3.3999059E-01;  9.9999998E-03; -4.0000033E-02;1569; -9.5744794E-03;  0.0000000E+00; -2.3681774E-05;  1.0001022E+03;  4.0000001E-01;  8.4738304E+01;3; -6.8836813E+00;  0.0000000E+00; -2.6099110E-02;0; -8.0893673E-02;  1.0002084E+04;  0.0000000E+00;  3.1070574E-10;  1.0000000E+04;  0.0000000E+00;  9.9999600E+03; -8.2511097E-02;  0.0000000E+00;  1.6174245E-03;  2.5074900E+01;
  3.3999062E-01;  9.9999998E-03; -2.0000014E-02;1570; -9.5176725E-03;  0.0000000E+00; -9.2305772E-06;  1.0001020E+03;  4.0000001E-01;  8.4540779E+01;3; -6.8316684E+00;  0.0000000E+00; -1.0757419E-02;0; -8.0602288E-02;  1.0002072E+04;  0.0000000E+00;  4.5691112E-10;  1.0000000E+04;  0.0000000E+00;  9.9999668E+03; -8.1847362E-02;  0.0000000E+00;  1.2450723E-03;  2.2455141E+01;
  3.5998729E-01;  9.9999998E-03; -1.8000086E-01;1593; -1.2923563E-02;  0.0000000E+00; -9.2758687E-04;  1.0001274E+03;  4.0000001E-01;  1.0557719E+02;3; -9.2089930E+00;  0.0000000E+00; -7.7694076E-01;0; -9.9516742E-02;  1.0002884E+04;  0.0000000E+00; -5.7674243E-09;  1.0000000E+04;  0.0000000E+00;  9.9996660E+03; -1.1465361E-01;  0.0000000E+00;  1.5136866E-02;  1.5459122E+02;
  3.5998750E-01;  9.9999998E-03; -1.6000061E-01;1594; -1.2663337E-02;  0.0000000E+00; -6.5891177E-04;  1.0001276E+03;  4.0000001E-01;  1.0577472E+02;3; -8.9930000E+00;  0.0000000E+00; -5.7587874E-01;0; -9.9291243E-02;  1.0002813E+04;  0.0000000E+00;  6.9225257E-09;  1.0000000E+04;  0.0000000E+00;  9.9997422E+03; -1.1129539E-01;  0.0000000E+00;  1.2004145E-02;  1.2039010E+02;
  3.5998771E-01;  9.9999998E-03; -1.4000042E-01;1595; -1.2388832E-02;  0.0000000E+00; -4.5062887E-04;  1.0001273E+03;  4.0000001E-01;  1.0547843E+02;3; -8.7711926E+00;  0.0000000E+00; -4.1279170E-01;0; -9.8646156E-02;  1.0002738E+04;  0.0000000E+00; -9.6806496E-10;  1.0000000E+04;  0.0000000E+00;  9.9998057E+03; -1.0791413E-01;  0.0000000E+00;  9.2679802E-03;  9.2737930E+01;
  3.5998791E-01;  9.9999998E-03; -1.2000029E-01;1596; -1.2123155E-02;  0.0000000E+00; -2.9197140E-04;  1.0001263E+03;  4.0000001E-01;  1.0468833E+02;3; -8.5559902E+00;  0.0000000E+00; -2.7731824E-01;0; -9.7710922E-02;  1.0002673E+04;  0.0000000E+00; -5.9079386E-09;  1.0000000E+04;  0.0000000E+00;  9.9998555E+03; -1.0472389E-01;  0.0000000E+00;  7.0129666E-03;  7.1768982E+01;
  3.5998809E-01;  9.9999998E-03; -1.0000019E-01;1597; -1.1880865E-02;  0.0000000E+00; -1.7936181E-04;  1.0001252E+03;  4.0000001E-01;  1.0379947E+02;3; -8.3562632E+00;  0.0000000E+00; -1.7732243E-01;0; -9.6686974E-02;  1.0002616E+04;  0.0000000E+00; -3.6889836E-09;  1.0000000E+04;  0.0000000E+00;  9.9998916E+03; -1.0188314E-01;  0.0000000E+00;  5.1961648E-03;  5.6154404E+01;
  3.5998824E-01;  9.9999998E-03; -8.0000117E-02;1598; -1.1674176E-02;  0.0000000E+00; -1.0171147E-04;  1.0001244E+03;  4.0000001E-01;  1.0300937E+02;3; -8.1825333E+00;  0.0000000E+00; -1.0231090E-01;0; -9.5715903E-02;  1.0002568E+04;  0.0000000E+00; -8.8420099E-10;  1.0000000E+04;  0.0000000E+00;  9.9999180E+03; -9.9495217E-02;  0.0000000E+00;  3.7793124E-03;  4.4817833E+01;
  3.5998836E-01;  9.9999998E-03; -6.0000073E-02;1599; -1.1509382E-02;  0.0000000E+00; -5.3620417E-05;  1.0001234E+03;  4.0000001E-01;  1.0221927E+02;3; -8.0411415E+00;  0.0000000E+00; -5.5117551E-02;0; -9.4888777E-02;  1.0002532E+04;  0.0000000E+00;  3.1633540E-10;  1.0000000E+04;  0.0000000E+00;  9.9999355E+03; -9.7616747E-02;  0.0000000E+00;  2.7279740E-03;  3.6926407E+01;
  3.5998845E-01;  9.9999998E-03; -4.0000044E-02;1600; -1.1390083E-02;  0.0000000E+00; -2.4892992E-05;  1.0001229E+03;  4.0000001E-01;  1.0182422E+02;3; -7.9372063E+00;  0.0000000E+00; -2.5748510E-02;0; -9.4263650E-02;  1.0002508E+04;  0.0000000E+00;  4.8945104E-10;  1.0000000E+04;  0.0000000E+00;  9.9999492E+03; -9.6271902E-02;  0.0000000E+00;  2.0082546E-03;  3.1808931E+01;
  3.5998851E-01;  9.9999998E-03; -2.0000020E-02;1601; -1.1318055E-02;  0.0000000E+00; -9.4656380E-06;  1.0001225E+03;  4.0000001E-01;  1.0152793E+02;3; -7.8735671E+00;  0.0000000E+00; -1.0059092E-02;0; -9.3875870E-02;  1.0002493E+04;  0.0000000E+00;  4.2793757E-10;  1.0000000E+04;  0.0000000E+00;  9.9999561E+03; -9.5466085E-02;  0.0000000E+00;  1.5902109E-03;  2.8954924E+01;
  3.7998432E-01;  9.9999998E-03; -1.8000102E-01;1624; -1.5487920E-02;  0.0000000E+00; -1.0897382E-03;  1.0001542E+03;  4.0000001E-01;  1.2779876E+02;3; -1.0663669E+01;  0.0000000E+00; -9.2032576E-01;0; -1.1668426E-01;  1.0003485E+04;  0.0000000E+00;  2.5981921E-09;  1.0000000E+04;  0.0000000E+00;  9.9995977E+03; -1.3461034E-01;  0.0000000E+00;  1.7926080E-02;  1.8676595E+02;
  3.7998462E-01;  9.9999998E-03; -1.6000073E-01;1625; -1.5140069E-02;  0.0000000E+00; -7.6790963E-04;  1.0001541E+03;  4.0000001E-01;  1.2770000E+02;3; -1.0400621E+01;  0.0000000E+00; -6.7580664E-01;0; -1.1620758E-01;  1.0003390E+04;  0.0000000E+00;  8.8391294E-09;  1.0000000E+04;  0.0000000E+00;  9.9996934E+03; -1.3036683E-01;  0.0000000E+00;  1.4159250E-02;  1.4458737E+02;
  3.7998492E-01;  9.9999998E-03; -1.4000051E-01;1626; -1.4780295E-02;  0.0000000E+00; -5.2045472E-04;  1.0001534E+03;  4.0000001E-01;  1.2710742E+02;3; -1.0130805E+01;  0.0000000E+00; -4.7846177E-01;0; -1.1523572E-01;  1.0003298E+04;  0.0000000E+00; -9.5435206E-09;  1.0000000E+04;  0.0000000E+00;  9.9997686E+03; -1.2613504E-01;  0.0000000E+00;  1.0899317E-02;  1.1110941E+02;
  3.7998518E-01;  9.9999998E-03; -1.2000034E-01;1627; -1.4436012E-02;  0.0000000E+00; -3.3628594E-04;  1.0001519E+03;  4.0000001E-01;  1.2582351E+02;3; -9.8684235E+00;  0.0000000E+00; -3.1355062E-01;0; -1.1392811E-01;  1.0003212E+04;  0.0000000E+00; -1.5735816E-08;  1.0000000E+04;  0.0000000E+00;  9.9998262E+03; -1.2218066E-01;  0.0000000E+00;  8.2525564E-03;  8.6320198E+01;
  3.7998542E-01;  9.9999998E-03; -1.0000023E-01;1628; -1.4125660E-02;  0.0000000E+00; -2.0702698E-04;  1.0001505E+03;  4.0000001E-01;  1.2463836E+02;3; -9.6264944E+00;  0.0000000E+00; -1.9845685E-01;0; -1.1253133E-01;  1.0003139E+04;  0.0000000E+00; -1.0890285E-08;  1.0000000E+04;  0.0000000E+00;  9.9998682E+03; -1.1869235E-01;  0.0000000E+00;  6.1610215E-03;  6.8345451E+01;
  3.7998563E-01;  9.9999998E-03; -8.0000155E-02;1629; -1.3862603E-02;  0.0000000E+00; -1.1871044E-04;  1.0001489E+03;  4.0000001E-01;  1.2335445E+02;3; -9.4150391E+00;  0.0000000E+00; -1.1120977E-01;0; -1.1122117E-01;  1.0003082E+04;  0.0000000E+00; -4.2415786E-09;  1.0000000E+04;  0.0000000E+00;  9.9998984E+03; -1.1578578E-01;  0.0000000E+00;  4.5646033E-03;  5.5660633E+01;
  3.7998581E-01;  9.9999998E-03; -6.0000099E-02;1630; -1.3654189E-02;  0.0000000E+00; -6.3789332E-05;  1.0001478E+03;  4.0000001E-01;  1.2246558E+02;3; -9.2426538E+00;  0.0000000E+00; -5.6864880E-02;0; -1.1011171E-01;  1.0003038E+04;  0.0000000E+00; -1.9444177E-09;  1.0000000E+04;  0.0000000E+00;  9.9999180E+03; -1.1351724E-01;  0.0000000E+00;  3.4055244E-03;  4.7087357E+01;
  3.7998590E-01;  9.9999998E-03; -4.0000059E-02;1631; -1.3503978E-02;  0.0000000E+00; -3.0801188E-05;  1.0001470E+03;  4.0000001E-01;  1.2177424E+02;3; -9.1160030E+00;  0.0000000E+00; -2.5180519E-02;0; -1.0927579E-01;  1.0003006E+04;  0.0000000E+00; -4.6214269E-11;  1.0000000E+04;  0.0000000E+00;  9.9999316E+03; -1.1190340E-01;  0.0000000E+00;  2.6276142E-03;  4.1684090E+01;
  3.7998599E-01;  9.9999998E-03; -2.0000027E-02;1632; -1.3413534E-02;  0.0000000E+00; -1.2193348E-05;  1.0001464E+03;  4.0000001E-01;  1.2128043E+02;3; -9.0383091E+00;  0.0000000E+00; -9.2372997E-03;0; -1.0875809E-01;  1.0002987E+04;  0.0000000E+00;  6.1118677E-10;  1.0000000E+04;  0.0000000E+00;  9.9999375E+03; -1.1094075E-01;  0.0000000E+00;  2.1826574E-03;  3.8741184E+01;
  3.9998075E-01;  9.9999998E-03; -1.8000121E-01;1655; -1.8489689E-02;  0.0000000E+00; -1.2709408E-03;  1.0001863E+03;  4.0000001E-01;  1.5436586E+02;3; -1.2295811E+01;  0.0000000E+00; -1.0749345E+00;0; -1.3646689E-01;  1.0004200E+04;  0.0000000E+00;  8.4870830E-09;  1.0000000E+04;  0.0000000E+00;  9.9995225E+03; -1.5734552E-01;  0.0000000E+00;  2.0878633E-02;  2.2259261E+02;
  3.9998114E-01;  9.9999998E-03; -1.6000086E-01;1656; -1.8031590E-02;  0.0000000E+00; -8.9613913E-04;  1.0001855E+03;  4.0000001E-01;  1.5367451E+02;3; -1.1981193E+01;  0.0000000E+00; -7.8357738E-01;0; -1.3557784E-01;  1.0004072E+04;  0.0000000E+00;  5.3550169E-09;  1.0000000E+04;  0.0000000E+00;  9.9996377E+03; -1.5200570E-01;  0.0000000E+00;  1.6427865E-02;  1.7177028E+02;
  3.9998156E-01;  9.9999998E-03; -1.4000061E-01;1657; -1.7565353E-02;  0.0000000E+00; -6.0937984E-04;  1.0001840E+03;  4.0000001E-01;  1.5239061E+02;3; -1.1656462E+01;  0.0000000E+00; -5.4984641E-01;0; -1.3410822E-01;  1.0003955E+04;  0.0000000E+00; -2.8532058E-08;  1.0000000E+04;  0.0000000E+00;  9.9997256E+03; -1.4675720E-01;  0.0000000E+00;  1.2648983E-02;  1.3244771E+02;
  3.9998192E-01;  9.9999998E-03; -1.2000043E-01;1658; -1.7123945E-02;  0.0000000E+00; -4.0069758E-04;  1.0001819E+03;  4.0000001E-01;  1.5071164E+02;3; -1.1339686E+01;  0.0000000E+00; -3.5687909E-01;0; -1.3226035E-01;  1.0003846E+04;  0.0000000E+00; -3.4533311E-08;  1.0000000E+04;  0.0000000E+00;  9.9997920E+03; -1.4191446E-01;  0.0000000E+00;  9.6541075E-03;  1.0420258E+02;
  3.9998224E-01;  9.9999998E-03; -1.0000031E-01;1659; -1.6730422E-02;  0.0000000E+00; -2.5401032E-04;  1.0001796E+03;  4.0000001E-01;  1.4883514E+02;3; -1.1047110E+01;  0.0000000E+00; -2.2362234E-01;0; -1.3034147E-01;  1.0003756E+04;  0.0000000E+00; -2.1212694E-08;  1.0000000E+04;  0.0000000E+00;  9.9998359E+03; -1.3769086E-01;  0.0000000E+00;  7.3493798E-03;  8.4349503E+01;
  3.9998251E-01;  9.9999998E-03; -8.0000214E-02;1660; -1.6399294E-02;  0.0000000E+00; -1.5372947E-04;  1.0001777E+03;  4.0000001E-01;  1.4725494E+02;3; -1.0790796E+01;  0.0000000E+00; -1.2368856E-01;0; -1.2856911E-01;  1.0003686E+04;  0.0000000E+00; -9.9816972E-09;  1.0000000E+04;  0.0000000E+00;  9.9998691E+03; -1.3420723E-01;  0.0000000E+00;  5.6381202E-03;  7.0777565E+01;
  3.9998272E-01;  9.9999998E-03; -6.0000144E-02;1661; -1.6138615E-02;  0.0000000E+00; -8.9115987E-05;  1.0001761E+03;  4.0000001E-01;  1.4587227E+02;3; -1.0581522E+01;  0.0000000E+00; -6.1877344E-02;0; -1.2708233E-01;  1.0003632E+04;  0.0000000E+00; -3.8351224E-09;  1.0000000E+04;  0.0000000E+00;  9.9998906E+03; -1.3151205E-01;  0.0000000E+00;  4.4297199E-03;  6.1905338E+01;
  3.9998287E-01;  9.9999998E-03; -4.0000089E-02;1662; -1.5951565E-02;  0.0000000E+00; -4.7620459E-05;  1.0001748E+03;  4.0000001E-01;  1.4478589E+02;3; -1.0427538E+01;  0.0000000E+00; -2.6834035E-02;0; -1.2596899E-01;  1.0003596E+04;  0.0000000E+00; -7.2155742E-10;  1.0000000E+04;  0.0000000E+00;  9.9999043E+03; -1.2960844E-01;  0.0000000E+00;  3.6394375E-03;  5.6499680E+01;
  3.9998293E-01;  9.9999998E-03; -2.0000042E-02;1663; -1.5839262E-02;  0.0000000E+00; -2.0625572E-05;  1.0001743E+03;  4.0000001E-01;  1.4439084E+02;3; -1.0332952E+01;  0.0000000E+00; -9.4993282E-03;0; -1.2528212E-01;  1.0003574E+04;  0.0000000E+00; -1.4691188E-11;  1.0000000E+04;  0.0000000E+00;  9.9999111E+03; -1.2847880E-01;  0.0000000E+00;  3.1966646E-03;  5.3641655E+01;
  4.1997644E-01;  9.9999998E-03; -1.8000145E-01;1686; -2.1982664E-02;  0.0000000E+00; -1.4848952E-03;  1.0002240E+03;  4.0000001E-01;  1.8557477E+02;3; -1.4117832E+01;  0.0000000E+00; -1.2416755E+00;0; -1.5909515E-01;  1.0005038E+04;  0.0000000E+00;  1.8090743E-08;  1.0000000E+04;  0.0000000E+00;  9.9994395E+03; -1.8302666E-01;  0.0000000E+00;  2.3931509E-02;  2.6244934E+02;
  4.1997701E-01;  9.9999998E-03; -1.6000107E-01;1687; -2.1385767E-02;  0.0000000E+00; -1.0622457E-03;  1.0002224E+03;  4.0000001E-01;  1.8419208E+02;3; -1.3746060E+01;  0.0000000E+00; -9.0468699E-01;0; -1.5756847E-01;  1.0004871E+04;  0.0000000E+00; -1.4931643E-08;  1.0000000E+04;  0.0000000E+00;  9.9995742E+03; -1.7636399E-01;  0.0000000E+00;  1.8795518E-02;  2.0292931E+02;
  4.1997755E-01;  9.9999998E-03; -1.4000079E-01;1688; -2.0787546E-02;  0.0000000E+00; -7.3862431E-04;  1.0002198E+03;  4.0000001E-01;  1.8211807E+02;3; -1.3358877E+01;  0.0000000E+00; -6.3304311E-01;0; -1.5537052E-01;  1.0004720E+04;  0.0000000E+00; -6.1562616E-08;  1.0000000E+04;  0.0000000E+00;  9.9996738E+03; -1.6993475E-01;  0.0000000E+00;  1.4564225E-02;  1.5835924E+02;
  4.1997805E-01;  9.9999998E-03; -1.2000058E-01;1689; -2.0227313E-02;  0.0000000E+00; -5.0686329E-04;  1.0002167E+03;  4.0000001E-01;  1.7955025E+02;3; -1.2978543E+01;  0.0000000E+00; -4.1456932E-01;0; -1.5276596E-01;  1.0004589E+04;  0.0000000E+00; -5.9537665E-08;  1.0000000E+04;  0.0000000E+00;  9.9997451E+03; -1.6409194E-01;  0.0000000E+00;  1.1325992E-02;  1.2750300E+02;
  4.1997847E-01;  9.9999998E-03; -1.0000043E-01;1690; -1.9733509E-02;  0.0000000E+00; -3.4083004E-04;  1.0002136E+03;  4.0000001E-01;  1.7698242E+02;3; -1.2626524E+01;  0.0000000E+00; -2.6095676E-01;0; -1.5014087E-01;  1.0004479E+04;  0.0000000E+00; -3.8525421E-08;  1.0000000E+04;  0.0000000E+00;  9.9997949E+03; -1.5906154E-01;  0.0000000E+00;  8.9206649E-03;  1.0654852E+02;
  4.1997880E-01;  9.9999998E-03; -8.0000319E-02;1691; -1.9321440E-02;  0.0000000E+00; -2.2459135E-04;  1.0002109E+03;  4.0000001E-01;  1.7471088E+02;3; -1.2317320E+01;  0.0000000E+00; -1.4743578E-01;0; -1.4776102E-01;  1.0004394E+04;  0.0000000E+00; -1.7353877E-08;  1.0000000E+04;  0.0000000E+00;  9.9998242E+03; -1.5495825E-01;  0.0000000E+00;  7.1972245E-03;  9.2687050E+01;
  4.1997904E-01;  9.9999998E-03; -6.0000226E-02;1692; -1.8999280E-02;  0.0000000E+00; -1.4388918E-04;  1.0002087E+03;  4.0000001E-01;  1.7293317E+02;3; -1.2064375E+01;  0.0000000E+00; -7.6734684E-02;0; -1.4579017E-01;  1.0004330E+04;  0.0000000E+00; -7.0049717E-09;  1.0000000E+04;  0.0000000E+00;  9.9998467E+03; -1.5181391E-01;  0.0000000E+00;  6.0237315E-03;  8.3930161E+01;
  4.1997921E-01;  9.9999998E-03; -4.0000144E-02;1693; -1.8769212E-02;  0.0000000E+00; -8.5306914E-05;  1.0002072E+03;  4.0000001E-01;  1.7164925E+02;3; -1.1877818E+01;  0.0000000E+00; -3.5475560E-02;0; -1.4432682E-01;  1.0004285E+04;  0.0000000E+00; -1.9247255E-09;  1.0000000E+04;  0.0000000E+00;  9.9998574E+03; -1.4960983E-01;  0.0000000E+00;  5.2830158E-03;  7.8786766E+01;
  4.1997933E-01;  9.9999998E-03; -2.0000072E-02;1694; -1.8631490E-02;  0.0000000E+00; -3.9802922E-05;  1.0002062E+03;  4.0000001E-01;  1.7085915E+02;3; -1.1763077E+01;  0.0000000E+00; -1.3086027E-02;0; -1.4342877E-01;  1.0004262E+04;  0.0000000E+00; -9.4208708E-10;  1.0000000E+04;  0.0000000E+00;  9.9998643E+03; -1.4830898E-01;  0.0000000E+00;  4.8802085E-03;  7.6160019E+01;
  4.3997130E-01;  9.9999998E-03; -1.8000181E-01;1717; -2.6027320E-02;  0.0000000E+00; -1.7633458E-03;  1.0002677E+03;  4.0000001E-01;  2.2182053E+02;3; -1.6141008E+01;  0.0000000E+00; -1.4252903E+00;0; -1.8465589E-01;  1.0006010E+04;  0.0000000E+00;  4.7600666E-09;  1.0000000E+04;  0.0000000E+00;  9.9993496E+03; -2.1169011E-01;  0.0000000E+00;  2.7034227E-02;  3.0762289E+02;
  4.3997207E-01;  9.9999998E-03; -1.6000138E-01;1718; -2.5255408E-02;  0.0000000E+00; -1.3001808E-03;  1.0002648E+03;  4.0000001E-01;  2.1945023E+02;3; -1.5702706E+01;  0.0000000E+00; -1.0555214E+00;0; -1.8218774E-01;  1.0005801E+04;  0.0000000E+00; -5.1717073E-08;  1.0000000E+04;  0.0000000E+00;  9.9994980E+03; -2.0348759E-01;  0.0000000E+00;  2.1299848E-02;  2.4028502E+02;
  4.3997279E-01;  9.9999998E-03; -1.4000106E-01;1719; -2.4494953E-02;  0.0000000E+00; -9.4490557E-04;  1.0002607E+03;  4.0000001E-01;  2.1599353E+02;3; -1.5246839E+01;  0.0000000E+00; -7.4125499E-01;0; -1.7896767E-01;  1.0005609E+04;  0.0000000E+00; -1.0072872E-07;  1.0000000E+04;  0.0000000E+00;  9.9996074E+03; -1.9574139E-01;  0.0000000E+00;  1.6773719E-02;  1.9184792E+02;
  4.3997341E-01;  9.9999998E-03; -1.2000082E-01;1720; -2.3791496E-02;  0.0000000E+00; -6.8979361E-04;  1.0002565E+03;  4.0000001E-01;  2.1253685E+02;3; -1.4793099E+01;  0.0000000E+00; -5.0008833E-01;0; -1.7534597E-01;  1.0005451E+04;  0.0000000E+00; -8.6063579E-08;  1.0000000E+04;  0.0000000E+00;  9.9996797E+03; -1.8882029E-01;  0.0000000E+00;  1.3474310E-02;  1.5971278E+02;
  4.3997395E-01;  9.9999998E-03; -1.0000064E-01;1721; -2.3178415E-02;  0.0000000E+00; -4.9958105E-04;  1.0002523E+03;  4.0000001E-01;  2.0908015E+02;3; -1.4371878E+01;  0.0000000E+00; -3.2540795E-01;0; -1.7180607E-01;  1.0005318E+04;  0.0000000E+00; -4.7857117E-08;  1.0000000E+04;  0.0000000E+00;  9.9997295E+03; -1.8294284E-01;  0.0000000E+00;  1.1136767E-02;  1.3861801E+02;
  4.3997437E-01;  9.9999998E-03; -8.0000497E-02;1722; -2.2671865E-02;  0.0000000E+00; -3.5856629E-04;  1.0002489E+03;  4.0000001E-01;  2.0621605E+02;3; -1.4000696E+01;  0.0000000E+00; -1.9597566E-01;0; -1.6866459E-01;  1.0005217E+04;  0.0000000E+00; -1.9792520E-08;  1.0000000E+04;  0.0000000E+00;  9.9997607E+03; -1.7820334E-01;  0.0000000E+00;  9.5387530E-03;  1.2503114E+02;
  4.3997470E-01;  9.9999998E-03; -6.0000367E-02;1723; -2.2278730E-02;  0.0000000E+00; -2.4945219E-04;  1.0002462E+03;  4.0000001E-01;  2.0394450E+02;3; -1.3696707E+01;  0.0000000E+00; -1.1256351E-01;0; -1.6610251E-01;  1.0005144E+04;  0.0000000E+00; -7.2824937E-09;  1.0000000E+04;  0.0000000E+00;  9.9997822E+03; -1.7460585E-01;  0.0000000E+00;  8.5033271E-03;  1.1665757E+02;
  4.3997490E-01;  9.9999998E-03; -4.0000245E-02;1724; -2.1999508E-02;  0.0000000E+00; -1.5835270E-04;  1.0002443E+03;  4.0000001E-01;  2.0236430E+02;3; -1.3471917E+01;  0.0000000E+00; -5.8775928E-02;0; -1.6422065E-01;  1.0005094E+04;  0.0000000E+00; -3.4607324E-09;  1.0000000E+04;  0.0000000E+00;  9.9997910E+03; -1.7210343E-01;  0.0000000E+00;  7.8827823E-03;  1.1187191E+02;
  4.3997505E-01;  9.9999998E-03; -2.0000121E-02;1725; -2.1832908E-02;  0.0000000E+00; -7.7255492E-05;  1.0002429E+03;  4.0000001E-01;  2.0127792E+02;3; -1.3333442E+01;  0.0000000E+00; -2.4423443E-02;0; -1.6307336E-01;  1.0005064E+04;  0.0000000E+00; -6.2503341E-10;  1.0000000E+04;  0.0000000E+00;  9.9997969E+03; -1.7063425E-01;  0.0000000E+00;  7.5608953E-03;  1.0949656E+02;
  4.5996517E-01;  9.9999998E-03; -1.8000235E-01;1748; -3.0690558E-02;  0.0000000E+00; -2.1608097E-03;  1.0003187E+03;  4.0000039E-01;  2.6409070E+02;3; -1.8374023E+01;  0.0000000E+00; -1.6399659E+00;0; -2.1286808E-01;  1.0007114E+04;  0.0000000E+00;  9.6890567E-09;  1.0000000E+04;  0.0000000E+00;  9.9992373E+03; -2.4307665E-01;  0.0000000E+00;  3.0208578E-02;  3.6132565E+02;
  4.5996618E-01;  9.9999998E-03; -1.6000187E-01;1749; -2.9703299E-02;  0.0000000E+00; -1.6668712E-03;  1.0003138E+03;  4.0000036E-01;  2.5994269E+02;3; -1.7863518E+01;  0.0000000E+00; -1.2431712E+00;0; -2.0907596E-01;  1.0006854E+04;  0.0000000E+00; -8.0672230E-08;  1.0000000E+04;  0.0000000E+00;  9.9994014E+03; -2.3316641E-01;  0.0000000E+00;  2.4090460E-02;  2.8811765E+02;
  4.5996714E-01;  9.9999998E-03; -1.4000152E-01;1750; -2.8745856E-02;  0.0000000E+00; -1.2865058E-03;  1.0003080E+03;  4.0000048E-01;  2.5520209E+02;3; -1.7327288E+01;  0.0000000E+00; -8.9722109E-01;0; -2.0448655E-01;  1.0006625E+04;  0.0000000E+00; -1.2632293E-07;  1.0000000E+04;  0.0000000E+00;  9.9995146E+03; -2.2402740E-01;  0.0000000E+00;  1.9540841E-02;  2.3794133E+02;
  4.5996794E-01;  9.9999998E-03; -1.2000123E-01;1751; -2.7872249E-02;  0.0000000E+00; -1.0025086E-03;  1.0003019E+03;  4.0000045E-01;  2.5006644E+02;3; -1.6789097E+01;  0.0000000E+00; -6.4207184E-01;0; -1.9956233E-01;  1.0006435E+04;  0.0000000E+00; -8.8042690E-08;  1.0000000E+04;  0.0000000E+00;  9.9995869E+03; -2.1600707E-01;  0.0000000E+00;  1.6444737E-02;  2.0615553E+02;
  4.5996863E-01;  9.9999998E-03; -1.0000100E-01;1752; -2.7120665E-02;  0.0000000E+00; -7.7681552E-04;  1.0002966E+03;  4.0000039E-01;  2.4572089E+02;3; -1.6288828E+01;  0.0000000E+00; -4.4051939E-01;0; -1.9489861E-01;  1.0006280E+04;  0.0000000E+00; -4.1851699E-08;  1.0000000E+04;  0.0000000E+00;  9.9996338E+03; -2.0928952E-01;  0.0000000E+00;  1.4390913E-02;  1.8578316E+02;
  4.5996913E-01;  9.9999998E-03; -8.0000795E-02;1753; -2.6506118E-02;  0.0000000E+00; -5.9425365E-04;  1.0002922E+03;  4.0000039E-01;  2.4206668E+02;3; -1.5846638E+01;  0.0000000E+00; -2.9079601E-01;0; -1.9085634E-01;  1.0006162E+04;  0.0000000E+00; -1.6713564E-08;  1.0000000E+04;  0.0000000E+00;  9.9996641E+03; -2.0393167E-01;  0.0000000E+00;  1.3075335E-02;  1.7268958E+02;
  4.5996952E-01;  9.9999998E-03; -6.0000598E-02;1754; -2.6032891E-02;  0.0000000E+00; -4.3603883E-04;  1.0002889E+03;  4.0000036E-01;  2.3940010E+02;3; -1.5483728E+01;  0.0000000E+00; -1.8726018E-01;0; -1.8761763E-01;  1.0006078E+04;  0.0000000E+00; -4.4531849E-09;  1.0000000E+04;  0.0000000E+00;  9.9996797E+03; -1.9990006E-01;  0.0000000E+00;  1.2282427E-02;  1.6453308E+02;
  4.5996979E-01;  9.9999998E-03; -4.0000401E-02;1755; -2.5698854E-02;  0.0000000E+00; -2.8771034E-04;  1.0002865E+03;  4.0000039E-01;  2.3732608E+02;3; -1.5214870E+01;  0.0000000E+00; -1.0996605E-01;0; -1.8526873E-01;  1.0006021E+04;  0.0000000E+00; -2.1004032E-09;  1.0000000E+04;  0.0000000E+00;  9.9996924E+03; -1.9711457E-01;  0.0000000E+00;  1.1845835E-02;  1.5980389E+02;
  4.5996994E-01;  9.9999998E-03; -2.0000203E-02;1756; -2.5500251E-02;  0.0000000E+00; -1.4326192E-04;  1.0002852E+03;  4.0000039E-01;  2.3633846E+02;3; -1.5049104E+01;  0.0000000E+00; -4.9524281E-02;0; -1.8384849E-01;  1.0005989E+04;  0.0000000E+00; -4.8769287E-11;  1.0000000E+04;  0.0000000E+00;  9.9996963E+03; -1.9548707E-01;  0.0000000E+00;  1.1638580E-02;  1.5742877E+02;
  4.7995785E-01;  9.9999998E-03; -1.8000320E-01;1779; -3.6046561E-02;  0.0000000E+00; -2.7693380E-03;  1.0003747E+03;  4.0000129E-01;  3.1041003E+02;3; -2.0827297E+01;  0.0000000E+00; -1.9201965E+00;0; -2.4272153E-01;  1.0008339E+04;  0.0000000E+00;  1.9902986E-07;  1.0000000E+04;  0.0000000E+00;  9.9990986E+03; -2.7636018E-01;  0.0000000E+00;  3.3638664E-02;  4.3010529E+02;
  4.7995919E-01;  9.9999998E-03; -1.6000268E-01;1780; -3.4800395E-02;  0.0000000E+00; -2.2528481E-03;  1.0003676E+03;  4.0000126E-01;  3.0448428E+02;3; -2.0233589E+01;  0.0000000E+00; -1.4975247E+00;0; -2.3717074E-01;  1.0008023E+04;  0.0000000E+00;  3.1849243E-08;  1.0000000E+04;  0.0000000E+00;  9.9992725E+03; -2.6467311E-01;  0.0000000E+00;  2.7502369E-02;  3.5367780E+02;
  4.7996041E-01;  9.9999998E-03; -1.4000225E-01;1781; -3.3609897E-02;  0.0000000E+00; -1.8469437E-03;  1.0003595E+03;  4.0000123E-01;  2.9786722E+02;3; -1.9605791E+01;  0.0000000E+00; -1.1382358E+00;0; -2.3084396E-01;  1.0007752E+04;  0.0000000E+00; -3.2522333E-08;  1.0000000E+04;  0.0000000E+00;  9.9993809E+03; -2.5416052E-01;  0.0000000E+00;  2.3316562E-02;  3.0420309E+02;
  4.7996143E-01;  9.9999998E-03; -1.2000189E-01;1782; -3.2540474E-02;  0.0000000E+00; -1.5182234E-03;  1.0003516E+03;  4.0000117E-01;  2.9134891E+02;3; -1.8975140E+01;  0.0000000E+00; -8.7028110E-01;0; -2.2434419E-01;  1.0007529E+04;  0.0000000E+00; -2.3200544E-08;  1.0000000E+04;  0.0000000E+00;  9.9994492E+03; -2.4509935E-01;  0.0000000E+00;  2.0755164E-02;  2.7421445E+02;
  4.7996226E-01;  9.9999998E-03; -1.0000156E-01;1783; -3.1630982E-02;  0.0000000E+00; -1.2339599E-03;  1.0003450E+03;  4.0000126E-01;  2.8581821E+02;3; -1.8382486E+01;  0.0000000E+00; -6.3921112E-01;0; -2.1838392E-01;  1.0007354E+04;  0.0000000E+00; -3.7457650E-09;  1.0000000E+04;  0.0000000E+00;  9.9994902E+03; -2.3760635E-01;  0.0000000E+00;  1.9222429E-02;  2.5484328E+02;
  4.7996289E-01;  9.9999998E-03; -8.0001257E-02;1784; -3.0895874E-02;  0.0000000E+00; -9.8087534E-04;  1.0003397E+03;  4.0000120E-01;  2.8147266E+02;3; -1.7860210E+01;  0.0000000E+00; -4.6247703E-01;0; -2.1334998E-01;  1.0007221E+04;  0.0000000E+00;  2.6681206E-09;  1.0000000E+04;  0.0000000E+00;  9.9995146E+03; -2.3168534E-01;  0.0000000E+00;  1.8335352E-02;  2.4166400E+02;
  4.7996336E-01;  9.9999998E-03; -6.0000949E-02;1785; -3.0334964E-02;  0.0000000E+00; -7.3967245E-04;  1.0003359E+03;  4.0000126E-01;  2.7831229E+02;3; -1.7431242E+01;  0.0000000E+00; -3.2291073E-01;0; -2.0939925E-01;  1.0007126E+04;  0.0000000E+00;  1.6492417E-09;  1.0000000E+04;  0.0000000E+00;  9.9995352E+03; -2.2726084E-01;  0.0000000E+00;  1.7861584E-02;  2.3273743E+02;
  4.7996366E-01;  9.9999998E-03; -4.0000640E-02;1786; -2.9941695E-02;  0.0000000E+00; -4.9803243E-04;  1.0003333E+03;  4.0000123E-01;  2.7613950E+02;3; -1.7113331E+01;  0.0000000E+00; -2.0684300E-01;0; -2.0657685E-01;  1.0007061E+04;  0.0000000E+00;  1.3214918E-09;  1.0000000E+04;  0.0000000E+00;  9.9995469E+03; -2.2421890E-01;  0.0000000E+00;  1.7642053E-02;  2.2707324E+02;
  4.7996384E-01;  9.9999998E-03; -2.0000322E-02;1787; -2.9708769E-02;  0.0000000E+00; -2.5112194E-04;  1.0003317E+03;  4.0000120E-01;  2.7475684E+02;3; -1.6916876E+01;  0.0000000E+00; -1.0007687E-01;0; -2.0488697E-01;  1.0007025E+04;  0.0000000E+00;  2.4717578E-10;  1.0000000E+04;  0.0000000E+00;  9.9995537E+03; -2.2244740E-01;  0.0000000E+00;  1.7560428E-02;  2.2399300E+02;
  4.9994919E-01;  9.9999998E-03; -1.8000454E-01;1810; -4.2163622E-02;  0.0000000E+00; -3.7185997E-03;  1.0004333E+03;  4.0000275E-01;  3.5900076E+02;3; -2.3496786E+01;  0.0000000E+00; -2.3069918E+00;0; -2.7204326E-01;  1.0009624E+04;  0.0000000E+00;  1.0289751E-06;  1.0000000E+04;  0.0000000E+00;  9.9989082E+03; -3.0982229E-01;  0.0000000E+00;  3.7779044E-02;  5.2569366E+02;
  4.9995089E-01;  9.9999998E-03; -1.6000395E-01;1811; -4.0617999E-02;  0.0000000E+00; -3.1867449E-03;  1.0004232E+03;  4.0000281E-01;  3.5060596E+02;3; -2.2815233E+01;  0.0000000E+00; -1.8723298E+00;0; -2.6431513E-01;  1.0009252E+04;  0.0000000E+00;  6.8687945E-07;  1.0000000E+04;  0.0000000E+00;  9.9990781E+03; -2.9643950E-01;  0.0000000E+00;  3.2124367E-02;  4.4806589E+02;
  4.9995241E-01;  9.9999998E-03; -1.4000340E-01;1812; -3.9162774E-02;  0.0000000E+00; -2.7372120E-03;  1.0004128E+03;  4.0000275E-01;  3.4201364E+02;3; -2.2086937E+01;  0.0000000E+00; -1.5174578E+00;0; -2.5592163E-01;  1.0008940E+04;  0.0000000E+00;  4.6310396E-07;  1.0000000E+04;  0.0000000E+00;  9.9991787E+03; -2.8469333E-01;  0.0000000E+00;  2.8771700E-02;  4.0095972E+02;
  4.9995369E-01;  9.9999998E-03; -1.2000289E-01;1813; -3.7873421E-02;  0.0000000E+00; -2.3295952E-03;  1.0004032E+03;  4.0000278E-01;  3.3401392E+02;3; -2.1349768E+01;  0.0000000E+00; -1.2133243E+00;0; -2.4763767E-01;  1.0008688E+04;  0.0000000E+00;  2.7919441E-07;  1.0000000E+04;  0.0000000E+00;  9.9992373E+03; -2.7473789E-01;  0.0000000E+00;  2.7100215E-02;  3.7318716E+02;
  4.9995467E-01;  9.9999998E-03; -1.0000241E-01;1814; -3.6790606E-02;  0.0000000E+00; -1.9484417E-03;  1.0003953E+03;  4.0000278E-01;  3.2749561E+02;3; -2.0657475E+01;  0.0000000E+00; -9.6153522E-01;0; -2.4029006E-01;  1.0008491E+04;  0.0000000E+00;  1.4337604E-07;  1.0000000E+04;  0.0000000E+00;  9.9992783E+03; -2.6659206E-01;  0.0000000E+00;  2.6301997E-02;  3.5384543E+02;
  4.9995545E-01;  9.9999998E-03; -8.0001928E-02;1815; -3.5924919E-02;  0.0000000E+00; -1.5767324E-03;  1.0003893E+03;  4.0000269E-01;  3.2255750E+02;3; -2.0047003E+01;  0.0000000E+00; -7.4439710E-01;0; -2.3426047E-01;  1.0008342E+04;  0.0000000E+00;  5.7573516E-08;  1.0000000E+04;  0.0000000E+00;  9.9993096E+03; -2.6019606E-01;  0.0000000E+00;  2.5935596E-02;  3.3865778E+02;
  4.9995598E-01;  9.9999998E-03; -6.0001459E-02;1816; -3.5270445E-02;  0.0000000E+00; -1.2011272E-03;  1.0003853E+03;  4.0000272E-01;  3.1919958E+02;3; -1.9545704E+01;  0.0000000E+00; -5.4966420E-01;0; -2.2964121E-01;  1.0008236E+04;  0.0000000E+00;  1.9133431E-08;  1.0000000E+04;  0.0000000E+00;  9.9993330E+03; -2.5543442E-01;  0.0000000E+00;  2.5793212E-02;  3.2671625E+02;
  4.9995634E-01;  9.9999998E-03; -4.0000983E-02;1817; -3.4814786E-02;  0.0000000E+00; -8.1253255E-04;  1.0003824E+03;  4.0000284E-01;  3.1682928E+02;3; -1.9174152E+01;  0.0000000E+00; -3.6563021E-01;0; -2.2640285E-01;  1.0008166E+04;  0.0000000E+00;  4.6838027E-09;  1.0000000E+04;  0.0000000E+00;  9.9993506E+03; -2.5216800E-01;  0.0000000E+00;  2.5765151E-02;  3.1810895E+02;
  4.9995652E-01;  9.9999998E-03; -2.0000493E-02;1818; -3.4546357E-02;  0.0000000E+00; -4.1046861E-04;  1.0003812E+03;  4.0000284E-01;  3.1584164E+02;3; -1.8945501E+01;  0.0000000E+00; -1.8302076E-01;0; -2.2448809E-01;  1.0008126E+04;  0.0000000E+00; -3.0250091E-10;  1.0000000E+04;  0.0000000E+00;  9.9993604E+03; -2.5026780E-01;  0.0000000E+00;  2.5779713E-02;  3.1296173E+02;
  5.1993901E-01;  9.9999998E-03; -1.8000662E-01;1841; -4.9088284E-02;  0.0000000E+00; -5.1815738E-03;  1.0004938E+03;  4.0000775E-01;  4.0907266E+02;3; -2.6380781E+01;  0.0000000E+00; -2.8244033E+00;0; -2.9710564E-01;  1.0010873E+04;  0.0000000E+00;  3.0432966E-06;  1.0000000E+04;  0.0000000E+00;  9.9986152E+03; -3.4057716E-01;  0.0000000E+00;  4.3471515E-02;  6.6766931E+02;
  5.1994109E-01;  9.9999998E-03; -1.6000587E-01;1842; -4.7207672E-02;  0.0000000E+00; -4.6192948E-03;  1.0004811E+03;  4.0000787E-01;  3.9860388E+02;3; -2.5603197E+01;  0.0000000E+00; -2.4237621E+00;0; -2.8693318E-01;  1.0010445E+04;  0.0000000E+00;  2.4791736E-06;  1.0000000E+04;  0.0000000E+00;  9.9987881E+03; -3.2578385E-01;  0.0000000E+00;  3.8850665E-02;  5.8734393E+02;
  5.1994294E-01;  9.9999998E-03; -1.4000511E-01;1843; -4.5463413E-02;  0.0000000E+00; -4.0818583E-03;  1.0004684E+03;  4.0000775E-01;  3.8813510E+02;3; -2.4759052E+01;  0.0000000E+00; -2.0648415E+00;0; -2.7628702E-01;  1.0010096E+04;  0.0000000E+00;  1.9086199E-06;  1.0000000E+04;  0.0000000E+00;  9.9988838E+03; -3.1308147E-01;  0.0000000E+00;  3.6794443E-02;  5.4131342E+02;
  5.1994449E-01;  9.9999998E-03; -1.2000435E-01;1844; -4.3938562E-02;  0.0000000E+00; -3.5426302E-03;  1.0004572E+03;  4.0000778E-01;  3.7875269E+02;3; -2.3911316E+01;  0.0000000E+00; -1.7510500E+00;0; -2.6614857E-01;  1.0009815E+04;  0.0000000E+00;  1.1638846E-06;  1.0000000E+04;  0.0000000E+00;  9.9989375E+03; -3.0246454E-01;  0.0000000E+00;  3.6315985E-02;  5.1378809E+02;
  5.1994568E-01;  9.9999998E-03; -1.0000361E-01;1845; -4.2670861E-02;  0.0000000E+00; -2.9958168E-03;  1.0004485E+03;  4.0000778E-01;  3.7154306E+02;3; -2.3114710E+01;  0.0000000E+00; -1.4627467E+00;0; -2.5745600E-01;  1.0009598E+04;  0.0000000E+00;  5.8213635E-07;  1.0000000E+04;  0.0000000E+00;  9.9989814E+03; -2.9383686E-01;  0.0000000E+00;  3.6380846E-02;  4.9142041E+02;
  5.1994658E-01;  9.9999998E-03; -8.0002882E-02;1846; -4.1667186E-02;  0.0000000E+00; -2.4357960E-03;  1.0004421E+03;  4.0000775E-01;  3.6630865E+02;3; -2.2411310E+01;  0.0000000E+00; -1.1844406E+00;0; -2.5055227E-01;  1.0009433E+04;  0.0000000E+00;  2.4158200E-07;  1.0000000E+04;  0.0000000E+00;  9.9990234E+03; -2.8707743E-01;  0.0000000E+00;  3.6525160E-02;  4.7039999E+02;
  5.1994723E-01;  9.9999998E-03; -6.0002163E-02;1847; -4.0915702E-02;  0.0000000E+00; -1.8535571E-03;  1.0004381E+03;  4.0000790E-01;  3.6295074E+02;3; -2.1836567E+01;  0.0000000E+00; -9.0283489E-01;0; -2.4541646E-01;  1.0009316E+04;  0.0000000E+00;  8.0187768E-08;  1.0000000E+04;  0.0000000E+00;  9.9990596E+03; -2.8204161E-01;  0.0000000E+00;  3.6625151E-02;  4.5152399E+02;
  5.1994765E-01;  9.9999998E-03; -4.0001445E-02;1848; -4.0395919E-02;  0.0000000E+00; -1.2521927E-03;  1.0004357E+03;  4.0000778E-01;  3.6097552E+02;3; -2.1411291E+01;  0.0000000E+00; -6.1458361E-01;0; -2.4190179E-01;  1.0009238E+04;  0.0000000E+00;  2.2087452E-08;  1.0000000E+04;  0.0000000E+00;  9.9990898E+03; -2.7858022E-01;  0.0000000E+00;  3.6678441E-02;  4.3664539E+02;
  5.1994783E-01;  9.9999998E-03; -2.0000724E-02;1849; -4.0090777E-02;  0.0000000E+00; -6.3185475E-04;  1.0004346E+03;  4.0000775E-01;  3.5998788E+02;3; -2.1149290E+01;  0.0000000E+00; -3.1134635E-01;0; -2.3985833E-01;  1.0009194E+04;  0.0000000E+00;  3.7993217E-09;  1.0000000E+04;  0.0000000E+00;  9.9991064E+03; -2.7656251E-01;  0.0000000E+00;  3.6704179E-02;  4.2722363E+02;
  5.3992724E-01;  9.9999998E-03; -1.8000972E-01;1872; -5.6793574E-02;  0.0000000E+00; -7.3706186E-03;  1.0005560E+03;  4.0002066E-01;  4.6062561E+02;3; -2.9458855E+01;  0.0000000E+00; -3.5516434E+00;0; -3.1242806E-01;  1.0011922E+04;  0.0000000E+00;  5.8542673E-06;  1.0000000E+04;  0.0000000E+00;  9.9981592E+03; -3.6446542E-01;  0.0000000E+00;  5.2037343E-02;  8.8645361E+02;
  5.3992981E-01;  9.9999998E-03; -1.6000864E-01;1873; -5.4562025E-02;  0.0000000E+00; -6.7209108E-03;  1.0005422E+03;  4.0002078E-01;  4.4916922E+02;3; -2.8565088E+01;  0.0000000E+00; -3.1904922E+00;0; -2.9988900E-01;  1.0011450E+04;  0.0000000E+00;  5.4685061E-06;  1.0000000E+04;  0.0000000E+00;  9.9983525E+03; -3.4880871E-01;  0.0000000E+00;  4.8919719E-02;  7.9420111E+02;
  5.3993201E-01;  9.9999998E-03; -1.4000751E-01;1874; -5.2523322E-02;  0.0000000E+00; -6.0155634E-03;  1.0005284E+03;  4.0002063E-01;  4.3771286E+02;3; -2.7607994E+01;  0.0000000E+00; -2.8636248E+00;0; -2.8711596E-01;  1.0011070E+04;  0.0000000E+00;  4.6715072E-06;  1.0000000E+04;  0.0000000E+00;  9.9984580E+03; -3.3558518E-01;  0.0000000E+00;  4.8469212E-02;  7.4150006E+02;
  5.3993386E-01;  9.9999998E-03; -1.2000635E-01;1875; -5.0756805E-02;  0.0000000E+00; -5.2451286E-03;  1.0005164E+03;  4.0002072E-01;  4.2783664E+02;3; -2.6651011E+01;  0.0000000E+00; -2.5436792E+00;0; -2.7530453E-01;  1.0010767E+04;  0.0000000E+00;  3.0595484E-06;  1.0000000E+04;  0.0000000E+00;  9.9985186E+03; -3.2462603E-01;  0.0000000E+00;  4.9321495E-02;  7.0770715E+02;
  5.3993523E-01;  9.9999998E-03; -1.0000522E-01;1876; -4.9299866E-02;  0.0000000E+00; -4.4310614E-03;  1.0005074E+03;  4.0002069E-01;  4.2033075E+02;3; -2.5749847E+01;  0.0000000E+00; -2.2001433E+00;0; -2.6550952E-01;  1.0010530E+04;  0.0000000E+00;  1.5945624E-06;  1.0000000E+04;  0.0000000E+00;  9.9985781E+03; -3.1573284E-01;  0.0000000E+00;  5.0223310E-02;  6.7611450E+02;
  5.3993630E-01;  9.9999998E-03; -8.0004126E-02;1877; -4.8155662E-02;  0.0000000E+00; -3.5895491E-03;  1.0005016E+03;  4.0002075E-01;  4.1559018E+02;3; -2.4956844E+01;  0.0000000E+00; -1.8218961E+00;0; -2.5801870E-01;  1.0010348E+04;  0.0000000E+00;  6.7712790E-07;  1.0000000E+04;  0.0000000E+00;  9.9986436E+03; -3.0874214E-01;  0.0000000E+00;  5.0723433E-02;  6.4299939E+02;
  5.3993702E-01;  9.9999998E-03; -6.0003068E-02;1878; -4.7302961E-02;  0.0000000E+00; -2.7253893E-03;  1.0004983E+03;  4.0002078E-01;  4.1282483E+02;3; -2.4306200E+01;  0.0000000E+00; -1.4156709E+00;0; -2.5265515E-01;  1.0010220E+04;  0.0000000E+00;  2.3131660E-07;  1.0000000E+04;  0.0000000E+00;  9.9987061E+03; -3.0350181E-01;  0.0000000E+00;  5.0846670E-02;  6.1125861E+02;
  5.3993750E-01;  9.9999998E-03; -4.0002037E-02;1879; -4.6715923E-02;  0.0000000E+00; -1.8358991E-03;  1.0004965E+03;  4.0002072E-01;  4.1134341E+02;3; -2.3823036E+01;  0.0000000E+00; -9.7247416E-01;0; -2.4910627E-01;  1.0010136E+04;  0.0000000E+00;  6.7510108E-08;  1.0000000E+04;  0.0000000E+00;  9.9987549E+03; -2.9987410E-01;  0.0000000E+00;  5.0767824E-02;  5.8522247E+02;
  5.3993773E-01;  9.9999998E-03; -2.0001017E-02;1880; -4.6372429E-02;  0.0000000E+00; -9.2445331E-04;  1.0004957E+03;  4.0002072E-01;  4.1065207E+02;3; -2.3527128E+01;  0.0000000E+00; -4.9857509E-01;0; -2.4709351E-01;  1.0010085E+04;  0.0000000E+00;  1.1662576E-08;  1.0000000E+04;  0.0000000E+00;  9.9987900E+03; -2.9774657E-01;  0.0000000E+00;  5.0653055E-02;  5.6832495E+02;
  5.5991423E-01;  9.9999998E-03; -1.8001407E-01;1903; -6.5120302E-02;  0.0000000E+00; -1.0514401E-02;  1.0006401E+03;  4.0005577E-01;  5.3025146E+02;3; -3.2645901E+01;  0.0000000E+00; -4.5341477E+00;0; -3.1093204E-01;  1.0012553E+04;  0.0000000E+00;  6.6460807E-06;  1.0000000E+04;  0.0000000E+00;  9.9974502E+03; -3.7615934E-01;  0.0000000E+00;  6.5227292E-02;  1.2236378E+03;
  5.5991715E-01;  9.9999998E-03; -1.6001245E-01;1904; -6.2558569E-02;  0.0000000E+00; -9.6619204E-03;  1.0006281E+03;  4.0005577E-01;  5.2037531E+02;3; -3.1642084E+01;  0.0000000E+00; -4.2772260E+00;0; -2.9659328E-01;  1.0012063E+04;  0.0000000E+00;  7.6349897E-06;  1.0000000E+04;  0.0000000E+00;  9.9977021E+03; -3.6048803E-01;  0.0000000E+00;  6.3894749E-02;  1.0987871E+03;
  5.5991977E-01;  9.9999998E-03; -1.4001071E-01;1905; -6.0238793E-02;  0.0000000E+00; -8.6468952E-03;  1.0006156E+03;  4.0005577E-01;  5.1000534E+02;3; -3.0586851E+01;  0.0000000E+00; -3.9955173E+00;0; -2.8229526E-01;  1.0011661E+04;  0.0000000E+00;  8.0075679E-06;  1.0000000E+04;  0.0000000E+00;  9.9978545E+03; -3.4735855E-01;  0.0000000E+00;  6.5063290E-02;  1.0215312E+03;
  5.5992192E-01;  9.9999998E-03; -1.2000898E-01;1906; -5.8232266E-02;  0.0000000E+00; -7.5156838E-03;  1.0006045E+03;  4.0005583E-01;  5.0082050E+02;3; -2.9525976E+01;  0.0000000E+00; -3.6389019E+00;0; -2.6938891E-01;  1.0011339E+04;  0.0000000E+00;  5.8648043E-06;  1.0000000E+04;  0.0000000E+00;  9.9979541E+03; -3.3648029E-01;  0.0000000E+00;  6.7091390E-02;  9.6775317E+02;
  5.5992353E-01;  9.9999998E-03; -1.0000730E-01;1907; -5.6584105E-02;  0.0000000E+00; -6.3240803E-03;  1.0005968E+03;  4.0005589E-01;  4.9440100E+02;3; -2.8532099E+01;  0.0000000E+00; -3.1937678E+00;0; -2.5902787E-01;  1.0011088E+04;  0.0000000E+00;  3.2507628E-06;  1.0000000E+04;  0.0000000E+00;  9.9980488E+03; -3.2760012E-01;  0.0000000E+00;  6.8572260E-02;  9.1618646E+02;
  5.5992472E-01;  9.9999998E-03; -8.0005720E-02;1908; -5.5295315E-02;  0.0000000E+00; -5.0998391E-03;  1.0005923E+03;  4.0005580E-01;  4.9074683E+02;3; -2.7651474E+01;  0.0000000E+00; -2.6777346E+00;0; -2.5145760E-01;  1.0010894E+04;  0.0000000E+00;  1.4126750E-06;  1.0000000E+04;  0.0000000E+00;  9.9981543E+03; -3.2054827E-01;  0.0000000E+00;  6.9090657E-02;  8.6167365E+02;
  5.5992556E-01;  9.9999998E-03; -6.0004216E-02;1909; -5.4338630E-02;  0.0000000E+00; -3.8474184E-03;  1.0005907E+03;  4.0005586E-01;  4.8936414E+02;3; -2.6923582E+01;  0.0000000E+00; -2.0815501E+00;0; -2.4632937E-01;  1.0010754E+04;  0.0000000E+00;  4.8729385E-07;  1.0000000E+04;  0.0000000E+00;  9.9982607E+03; -3.1519780E-01;  0.0000000E+00;  6.8868428E-02;  8.0884979E+02;
  5.5992609E-01;  9.9999998E-03; -4.0002778E-02;1910; -5.3680897E-02;  0.0000000E+00; -2.5756257E-03;  1.0005903E+03;  4.0005592E-01;  4.8906787E+02;3; -2.6384281E+01;  0.0000000E+00; -1.4217983E+00;0; -2.4311984E-01;  1.0010661E+04;  0.0000000E+00;  1.3321581E-07;  1.0000000E+04;  0.0000000E+00;  9.9983467E+03; -3.1144837E-01;  0.0000000E+00;  6.8328522E-02;  7.6504663E+02;
  5.5992633E-01;  9.9999998E-03; -2.0001380E-02;1911; -5.3294845E-02;  0.0000000E+00; -1.2912378E-03;  1.0005906E+03;  4.0005589E-01;  4.8926538E+02;3; -2.6052233E+01;  0.0000000E+00; -7.1969050E-01;0; -2.4137884E-01;  1.0010607E+04;  0.0000000E+00;  2.3908425E-08;  1.0000000E+04;  0.0000000E+00;  9.9984082E+03; -3.0922738E-01;  0.0000000E+00;  6.7848541E-02;  7.3638043E+02;
  5.7990032E-01;  9.9999998E-03; -1.8001971E-01;1934; -7.3737435E-02;  0.0000000E+00; -1.4765255E-02;  1.0008162E+03;  4.0014896E-01;  6.7612024E+02;3; -3.5751869E+01;  0.0000000E+00; -6.0017948E+00;0; -2.8388843E-01;  1.0012480E+04;  0.0000000E+00; -6.0198607E-07;  1.0000000E+04;  0.0000000E+00;  9.9963877E+03; -3.6880329E-01;  0.0000000E+00;  8.4914856E-02;  1.7257773E+03;
  5.7990378E-01;  9.9999998E-03; -1.6001725E-01;1935; -7.0897721E-02;  0.0000000E+00; -1.3452169E-02;  1.0008110E+03;  4.0014893E-01;  6.7187354E+02;3; -3.4689629E+01;  0.0000000E+00; -5.7826934E+00;0; -2.6877481E-01;  1.0011997E+04;  0.0000000E+00;  3.9053434E-06;  1.0000000E+04;  0.0000000E+00;  9.9967666E+03; -3.5425958E-01;  0.0000000E+00;  8.5484765E-02;  1.5356584E+03;
  5.7990676E-01;  9.9999998E-03; -1.4001474E-01;1936; -6.8312667E-02;  0.0000000E+00; -1.1961835E-02;  1.0008040E+03;  4.0014896E-01;  6.6614532E+02;3; -3.3576218E+01;  0.0000000E+00; -5.4599957E+00;0; -2.5405559E-01;  1.0011602E+04;  0.0000000E+00;  9.0408703E-06;  1.0000000E+04;  0.0000000E+00;  9.9970205E+03; -3.4202722E-01;  0.0000000E+00;  8.7971628E-02;  1.4042760E+03;
  5.7990921E-01;  9.9999998E-03; -1.2001222E-01;1937; -6.6073790E-02;  0.0000000E+00; -1.0341029E-02;  1.0007971E+03;  4.0014893E-01;  6.6041718E+02;3; -3.2444817E+01;  0.0000000E+00; -5.0281940E+00;0; -2.4111682E-01;  1.0011276E+04;  0.0000000E+00;  8.2916131E-06;  1.0000000E+04;  0.0000000E+00;  9.9972041E+03; -3.3178160E-01;  0.0000000E+00;  9.0664767E-02;  1.3077906E+03;
  5.7991105E-01;  9.9999998E-03; -1.0000983E-01;1938; -6.4237013E-02;  0.0000000E+00; -8.6329244E-03;  1.0007926E+03;  4.0014893E-01;  6.5666425E+02;3; -3.1376154E+01;  0.0000000E+00; -4.4584904E+00;0; -2.3111805E-01;  1.0011019E+04;  0.0000000E+00;  4.9950472E-06;  1.0000000E+04;  0.0000000E+00;  9.9973711E+03; -3.2328489E-01;  0.0000000E+00;  9.2166841E-02;  1.2196383E+03;
  5.7991242E-01;  9.9999998E-03; -8.0007605E-02;1939; -6.2805429E-02;  0.0000000E+00; -6.8952595E-03;  1.0007913E+03;  4.0014893E-01;  6.5557782E+02;3; -3.0420694E+01;  0.0000000E+00; -3.7363172E+00;0; -2.2427613E-01;  1.0010819E+04;  0.0000000E+00;  2.1781102E-06;  1.0000000E+04;  0.0000000E+00;  9.9975469E+03; -3.1641847E-01;  0.0000000E+00;  9.2142344E-02;  1.1307410E+03;
  5.7991338E-01;  9.9999998E-03; -6.0005546E-02;1940; -6.1744038E-02;  0.0000000E+00; -5.1563242E-03;  1.0007926E+03;  4.0014893E-01;  6.5666425E+02;3; -2.9629065E+01;  0.0000000E+00; -2.8955204E+00;0; -2.2007632E-01;  1.0010672E+04;  0.0000000E+00;  6.8561565E-07;  1.0000000E+04;  0.0000000E+00;  9.9977178E+03; -3.1111446E-01;  0.0000000E+00;  9.1038145E-02;  1.0460896E+03;
  5.7991397E-01;  9.9999998E-03; -4.0003624E-02;1941; -6.1010554E-02;  0.0000000E+00; -3.4273770E-03;  1.0007947E+03;  4.0014899E-01;  6.5844189E+02;3; -2.9038013E+01;  0.0000000E+00; -1.9710902E+00;0; -2.1775068E-01;  1.0010572E+04;  0.0000000E+00;  1.5610786E-07;  1.0000000E+04;  0.0000000E+00;  9.9978623E+03; -3.0733716E-01;  0.0000000E+00;  8.9586481E-02;  9.7610895E+02;
  5.7991427E-01;  9.9999998E-03; -2.0001790E-02;1942; -6.0578130E-02;  0.0000000E+00; -1.7110830E-03;  1.0007964E+03;  4.0014893E-01;  6.5982458E+02;3; -2.8671783E+01;  0.0000000E+00; -9.9702168E-01;0; -2.1662970E-01;  1.0010513E+04;  0.0000000E+00;  2.0238474E-08;  1.0000000E+04;  0.0000000E+00;  9.9979561E+03; -3.0507165E-01;  0.0000000E+00;  8.8441953E-02;  9.3025769E+02;
  5.9988636E-01;  9.9999998E-03; -1.8002632E-01;1965; -8.2283005E-02;  0.0000000E+00; -1.9768665E-02;  1.0012745E+03;  4.0038544E-01;  1.0558529E+03;3; -3.8652702E+01;  0.0000000E+00; -7.6764922E+00;0; -2.2029546E-01;  1.0011330E+04;  0.0000000E+00; -2.2342507E-05;  1.0000000E+04;  0.0000000E+00;  9.9948848E+03; -3.3284631E-01;  0.0000000E+00;  1.1255085E-01;  2.4307703E+03;
  5.9989035E-01;  9.9999998E-03; -1.6002294E-01;1966; -7.9122521E-02;  0.0000000E+00; -1.8005552E-02;  1.0012830E+03;  4.0038553E-01;  1.0629636E+03;3; -3.7546604E+01;  0.0000000E+00; -7.5718637E+00;0; -2.0569375E-01;  1.0010908E+04;  0.0000000E+00; -1.2302493E-05;  1.0000000E+04;  0.0000000E+00;  9.9954727E+03; -3.2086477E-01;  0.0000000E+00;  1.1517102E-01;  2.1346685E+03;
  5.9989381E-01;  9.9999998E-03; -1.4001949E-01;1967; -7.6244086E-02;  0.0000000E+00; -1.5998835E-02;  1.0012870E+03;  4.0038553E-01;  1.0662228E+03;3; -3.6378277E+01;  0.0000000E+00; -7.3178043E+00;0; -1.9202828E-01;  1.0010549E+04;  0.0000000E+00;  3.2593202E-06;  1.0000000E+04;  0.0000000E+00;  9.9959102E+03; -3.1052938E-01;  0.0000000E+00;  1.1850109E-01;  1.9103759E+03;
  5.9989661E-01;  9.9999998E-03; -1.2001600E-01;1968; -7.3782988E-02;  0.0000000E+00; -1.3727593E-02;  1.0012885E+03;  4.0038544E-01;  1.0675067E+03;3; -3.5215492E+01;  0.0000000E+00; -6.7964082E+00;0; -1.8057232E-01;  1.0010248E+04;  0.0000000E+00;  7.7522691E-06;  1.0000000E+04;  0.0000000E+00;  9.9962402E+03; -3.0162770E-01;  0.0000000E+00;  1.2105538E-01;  1.7403619E+03;
  5.9989876E-01;  9.9999998E-03; -1.0001269E-01;1969; -7.1781039E-02;  0.0000000E+00; -1.1349020E-02;  1.0012909E+03;  4.0038550E-01;  1.0694819E+03;3; -3.4102467E+01;  0.0000000E+00; -6.0594187E+00;0; -1.7230992E-01;  1.0010002E+04;  0.0000000E+00;  5.5249016E-06;  1.0000000E+04;  0.0000000E+00;  9.9965303E+03; -2.9402521E-01;  0.0000000E+00;  1.2171529E-01;  1.5931499E+03;
  5.9990031E-01;  9.9999998E-03; -8.0009691E-02;1970; -7.0216134E-02;  0.0000000E+00; -8.9710234E-03;  1.0012951E+03;  4.0038553E-01;  1.0729385E+03;3; -3.3107304E+01;  0.0000000E+00; -5.0921359E+00;0; -1.6737036E-01;  1.0009810E+04;  0.0000000E+00;  2.3087105E-06;  1.0000000E+04;  0.0000000E+00;  9.9968105E+03; -2.8771469E-01;  0.0000000E+00;  1.2034433E-01;  1.4531371E+03;
  5.9990138E-01;  9.9999998E-03; -6.0006991E-02;1971; -6.9045790E-02;  0.0000000E+00; -6.6553238E-03;  1.0013012E+03;  4.0038568E-01;  1.0779753E+03;3; -3.2275700E+01;  0.0000000E+00; -3.9505572E+00;0; -1.6508099E-01;  1.0009663E+04;  0.0000000E+00;  5.1349946E-07;  1.0000000E+04;  0.0000000E+00;  9.9970742E+03; -2.8272972E-01;  0.0000000E+00;  1.1764873E-01;  1.3235029E+03;
  5.9990203E-01;  9.9999998E-03; -4.0004540E-02;1972; -6.8224117E-02;  0.0000000E+00; -4.4055721E-03;  1.0013071E+03;  4.0038556E-01;  1.0828146E+03;3; -3.1639753E+01;  0.0000000E+00; -2.6769571E+00;0; -1.6439864E-01;  1.0009560E+04;  0.0000000E+00; -1.8025309E-08;  1.0000000E+04;  0.0000000E+00;  9.9972959E+03; -2.7911419E-01;  0.0000000E+00;  1.1471555E-01;  1.2173077E+03;
  5.9990245E-01;  9.9999998E-03; -2.0002237E-02;1973; -6.7731634E-02;  0.0000000E+00; -2.1950873E-03;  1.0013113E+03;  4.0038559E-01;  1.0863700E+03;3; -3.1240698E+01;  0.0000000E+00; -1.3368282E+00;0; -1.6438201E-01;  1.0009501E+04;  0.0000000E+00; -3.2293773E-08;  1.0000000E+04;  0.0000000E+00;  9.9974404E+03; -2.7691796E-01;  0.0000000E+00;  1.1253595E-01;  1.1478654E+03;
  6.1987317E-01;  9.9999998E-03; -1.8003416E-01;1996; -9.0212680E-02;  0.0000000E+00; -2.5635827E-02;  1.0023980E+03;  4.0092707E-01;  1.9866624E+03;3; -4.1166000E+01;  0.0000000E+00; -9.5400524E+00;0; -1.0770085E-01;  1.0008705E+04;  0.0000000E+00; -5.8484402E-05;  1.0000000E+04;  0.0000000E+00;  9.9929170E+03; -2.5631902E-01;  0.0000000E+00;  1.4861816E-01;  3.3501653E+03;
  6.1987776E-01;  9.9999998E-03; -1.6002972E-01;1997; -8.6746074E-02;  0.0000000E+00; -2.3382267E-02;  1.0024270E+03;  4.0092716E-01;  2.0106611E+03;3; -4.0044044E+01;  0.0000000E+00; -9.5631132E+00;0; -9.4955176E-02;  1.0008408E+04;  0.0000000E+00; -4.3247786E-05;  1.0000000E+04;  0.0000000E+00;  9.9937930E+03; -2.4861993E-01;  0.0000000E+00;  1.5366475E-01;  2.9069600E+03;
  6.1988175E-01;  9.9999998E-03; -1.4002506E-01;1998; -8.3630227E-02;  0.0000000E+00; -2.0688584E-02;  1.0024490E+03;  4.0092734E-01;  2.0289318E+03;3; -3.8894833E+01;  0.0000000E+00; -9.3274174E+00;0; -8.3981216E-02;  1.0008134E+04;  0.0000000E+00; -1.2278892E-05;  1.0000000E+04;  0.0000000E+00;  9.9945000E+03; -2.4140289E-01;  0.0000000E+00;  1.5742168E-01;  2.5486375E+03;
  6.1988491E-01;  9.9999998E-03; -1.2002033E-01;1999; -8.0977522E-02;  0.0000000E+00; -1.7657196E-02;  1.0024645E+03;  4.0092719E-01;  2.0417706E+03;3; -3.7737362E+01;  0.0000000E+00; -8.7936773E+00;0; -7.5835288E-02;  1.0007893E+04;  0.0000000E+00;  1.9193219E-06;  1.0000000E+04;  0.0000000E+00;  9.9950488E+03; -2.3476115E-01;  0.0000000E+00;  1.5892586E-01;  2.2708696E+03;
  6.1988735E-01;  9.9999998E-03; -1.0001589E-01;2000; -7.8804120E-02;  0.0000000E+00; -1.4476744E-02;  1.0024774E+03;  4.0092725E-01;  2.0524368E+03;3; -3.6629295E+01;  0.0000000E+00; -7.9200406E+00;0; -7.1084261E-02;  1.0007684E+04;  0.0000000E+00;  3.3585532E-06;  1.0000000E+04;  0.0000000E+00;  9.9955156E+03; -2.2877154E-01;  0.0000000E+00;  1.5768728E-01;  2.0388875E+03;
  6.1988908E-01;  9.9999998E-03; -8.0011941E-02;2001; -7.7068135E-02;  0.0000000E+00; -1.1370642E-02;  1.0024906E+03;  4.0092719E-01;  2.0633992E+03;3; -3.5595352E+01;  0.0000000E+00; -6.7056179E+00;0; -6.9609106E-02;  1.0007517E+04;  0.0000000E+00;  1.0502677E-06;  1.0000000E+04;  0.0000000E+00;  9.9959424E+03; -2.2358927E-01;  0.0000000E+00;  1.5398017E-01;  1.8287266E+03;
  6.1989033E-01;  9.9999998E-03; -6.0008507E-02;2002; -7.5765140E-02;  0.0000000E+00; -8.3933491E-03;  1.0025039E+03;  4.0092725E-01;  2.0743616E+03;3; -3.4701561E+01;  0.0000000E+00; -5.2641783E+00;0; -7.0526302E-02;  1.0007388E+04;  0.0000000E+00; -3.7218632E-07;  1.0000000E+04;  0.0000000E+00;  9.9963320E+03; -2.1937206E-01;  0.0000000E+00;  1.4884576E-01;  1.6395220E+03;
  6.1989111E-01;  9.9999998E-03; -4.0005479E-02;2003; -7.4849762E-02;  0.0000000E+00; -5.5364887E-03;  1.0025153E+03;  4.0092722E-01;  2.0838425E+03;3; -3.4027557E+01;  0.0000000E+00; -3.5999742E+00;0; -7.2481826E-02;  1.0007297E+04;  0.0000000E+00; -4.7201149E-07;  1.0000000E+04;  0.0000000E+00;  9.9966533E+03; -2.1625046E-01;  0.0000000E+00;  1.4376864E-01;  1.4861827E+03;
  6.1989158E-01;  9.9999998E-03; -2.0002687E-02;2004; -7.4295856E-02;  0.0000000E+00; -2.7530787E-03;  1.0025231E+03;  4.0092719E-01;  2.0902620E+03;3; -3.3597572E+01;  0.0000000E+00; -1.8116804E+00;0; -7.4200824E-02;  1.0007241E+04;  0.0000000E+00; -1.5910905E-07;  1.0000000E+04;  0.0000000E+00;  9.9968604E+03; -2.1432932E-01;  0.0000000E+00;  1.4012849E-01;  1.3862144E+03;
  6.3986158E-01;  9.9999998E-03; -1.8004344E-01;2027; -9.7083859E-02;  0.0000000E+00; -3.2484185E-02;  1.0045402E+03;  4.0191972E-01;  3.7613540E+03;3; -4.3272877E+01;  0.0000000E+00; -1.1588399E+01;0;  6.3182652E-02;  1.0004341E+04;  0.0000000E+00; -9.3985203E-05;  1.0000000E+04;  0.0000000E+00;  9.9905479E+03; -1.2889175E-01;  0.0000000E+00;  1.9207440E-01;  4.4524570E+03;
  6.3986677E-01;  9.9999998E-03; -1.6003747E-01;2028; -9.3347795E-02;  0.0000000E+00; -2.9500090E-02;  1.0045964E+03;  4.0191978E-01;  3.8078699E+03;3; -4.2161045E+01;  0.0000000E+00; -1.1756189E+01;0;  7.3095173E-02;  1.0004229E+04;  0.0000000E+00; -7.9557889E-05;  1.0000000E+04;  0.0000000E+00;  9.9917744E+03; -1.2718351E-01;  0.0000000E+00;  2.0027868E-01;  3.8308640E+03;
  6.3987106E-01;  9.9999998E-03; -1.4003128E-01;2029; -9.0050578E-02;  0.0000000E+00; -2.5928723E-02;  1.0046419E+03;  4.0191975E-01;  3.8455959E+03;3; -4.1060993E+01;  0.0000000E+00; -1.1665731E+01;0;  7.9917930E-02;  1.0004091E+04;  0.0000000E+00; -3.3896322E-05;  1.0000000E+04;  0.0000000E+00;  9.9928203E+03; -1.2442548E-01;  0.0000000E+00;  2.0434341E-01;  3.3051848E+03;
  6.3987458E-01;  9.9999998E-03; -1.2002503E-01;2030; -8.7223142E-02;  0.0000000E+00; -2.1868013E-02;  1.0046765E+03;  4.0191969E-01;  3.8742363E+03;3; -3.9883663E+01;  0.0000000E+00; -1.0972764E+01;0;  8.2923681E-02;  1.0003949E+04;  0.0000000E+00; -8.6121245E-06;  1.0000000E+04;  0.0000000E+00;  9.9936465E+03; -1.2113585E-01;  0.0000000E+00;  2.0405953E-01;  2.8900789E+03;
  6.3987732E-01;  9.9999998E-03; -1.0001926E-01;2031; -8.4862784E-02;  0.0000000E+00; -1.7756950E-02;  1.0047050E+03;  4.0191981E-01;  3.8978398E+03;3; -3.8758110E+01;  0.0000000E+00; -9.8431959E+00;0;  8.2213312E-02;  1.0003817E+04;  0.0000000E+00; -1.7111273E-06;  1.0000000E+04;  0.0000000E+00;  9.9943340E+03; -1.1769657E-01;  0.0000000E+00;  1.9990988E-01;  2.5497715E+03;
  6.3987941E-01;  9.9999998E-03; -8.0014281E-02;2032; -8.2955219E-02;  0.0000000E+00; -1.3853611E-02;  1.0047302E+03;  4.0191981E-01;  3.9187769E+03;3; -3.7728222E+01;  0.0000000E+00; -8.3468275E+00;0;  7.8405678E-02;  1.0003706E+04;  0.0000000E+00; -1.7757573E-06;  1.0000000E+04;  0.0000000E+00;  9.9949502E+03; -1.1444403E-01;  0.0000000E+00;  1.9284971E-01;  2.2514385E+03;
  6.3988084E-01;  9.9999998E-03; -6.0010068E-02;2033; -8.1509389E-02;  0.0000000E+00; -1.0196494E-02;  1.0047531E+03;  4.0191975E-01;  3.9376399E+03;3; -3.6860798E+01;  0.0000000E+00; -6.5632591E+00;0;  7.2740875E-02;  1.0003615E+04;  0.0000000E+00; -1.9773427E-06;  1.0000000E+04;  0.0000000E+00;  9.9954961E+03; -1.1165059E-01;  0.0000000E+00;  1.8439147E-01;  1.9887745E+03;
  6.3988185E-01;  9.9999998E-03; -4.0006429E-02;2034; -8.0482677E-02;  0.0000000E+00; -6.7228191E-03;  1.0047722E+03;  4.0191975E-01;  3.9535400E+03;3; -3.6164558E+01;  0.0000000E+00; -4.5421367E+00;0;  6.6970341E-02;  1.0003549E+04;  0.0000000E+00; -1.2198575E-06;  1.0000000E+04;  0.0000000E+00;  9.9959404E+03; -1.0951357E-01;  0.0000000E+00;  1.7648391E-01;  1.7779299E+03;
  6.3988239E-01;  9.9999998E-03; -2.0003138E-02;2035; -7.9870634E-02;  0.0000000E+00; -3.3446301E-03;  1.0047847E+03;  4.0191975E-01;  3.9639099E+03;3; -3.5721924E+01;  0.0000000E+00; -2.3279586E+00;0;  6.2772609E-02;  1.0003511E+04;  0.0000000E+00; -3.4877357E-07;  1.0000000E+04;  0.0000000E+00;  9.9962295E+03; -1.0817315E-01;  0.0000000E+00;  1.7094576E-01;  1.6408760E+03;
  6.5985310E-01;  9.9999998E-03; -1.8005499E-01;2058; -1.0193104E-01;  0.0000000E+00; -4.0979210E-02;  1.0072239E+03;  4.0316752E-01;  5.9845615E+03;3; -4.4608311E+01;  0.0000000E+00; -1.4009436E+01;0;  2.9130921E-01;  9.9983135E+03;  0.0000000E+00; -1.0543290E-04;  1.0000000E+04;  0.0000000E+00;  9.9879512E+03;  5.1253583E-02;  0.0000000E+00;  2.4005564E-01;  5.6567949E+03;
  6.5985852E-01;  9.9999998E-03; -1.6004689E-01;2059; -9.8151162E-02;  0.0000000E+00; -3.6939994E-02;  1.0073102E+03;  4.0316758E-01;  6.0560625E+03;3; -4.3577103E+01;  0.0000000E+00; -1.4526251E+01;0;  2.9828897E-01;  9.9984258E+03;  0.0000000E+00; -1.0084264E-04;  1.0000000E+04;  0.0000000E+00;  9.9895459E+03;  4.5828752E-02;  0.0000000E+00;  2.5246021E-01;  4.8453950E+03;
  6.5986300E-01;  9.9999998E-03; -1.4003882E-01;2060; -9.4815344E-02;  0.0000000E+00; -3.2223657E-02;  1.0073831E+03;  4.0316752E-01;  6.1165029E+03;3; -4.2427860E+01;  0.0000000E+00; -1.4304768E+01;0;  3.0015340E-01;  9.9984648E+03;  0.0000000E+00; -5.0165843E-05;  1.0000000E+04;  0.0000000E+00;  9.9909521E+03;  4.2975068E-02;  0.0000000E+00;  2.5717834E-01;  4.1373481E+03;
  6.5986669E-01;  9.9999998E-03; -1.2003078E-01;2061; -9.1978781E-02;  0.0000000E+00; -2.7015688E-02;  1.0074405E+03;  4.0316743E-01;  6.1640054E+03;3; -4.1255936E+01;  0.0000000E+00; -1.3468262E+01;0;  2.9663122E-01;  9.9984629E+03;  0.0000000E+00; -1.8631919E-05;  1.0000000E+04;  0.0000000E+00;  9.9920977E+03;  4.1811951E-02;  0.0000000E+00;  2.5481927E-01;  3.5688950E+03;
  6.5986967E-01;  9.9999998E-03; -1.0002343E-01;2062; -8.9567117E-02;  0.0000000E+00; -2.1811791E-02;  1.0074871E+03;  4.0316737E-01;  6.2026201E+03;3; -4.0280430E+01;  0.0000000E+00; -1.2203773E+01;0;  2.8874466E-01;  9.9984424E+03;  0.0000000E+00; -7.4590557E-06;  1.0000000E+04;  0.0000000E+00;  9.9930430E+03;  4.1662969E-02;  0.0000000E+00;  2.4708170E-01;  3.1054717E+03;
  6.5987200E-01;  9.9999998E-03; -8.0017149E-02;2063; -8.7546691E-02;  0.0000000E+00; -1.6888728E-02;  1.0075276E+03;  4.0316743E-01;  6.2361978E+03;3; -3.9298737E+01;  0.0000000E+00; -1.0396974E+01;0;  2.7790940E-01;  9.9984170E+03;  0.0000000E+00; -5.0246467E-06;  1.0000000E+04;  0.0000000E+00;  9.9938711E+03;  4.2044241E-02;  0.0000000E+00;  2.3586516E-01;  2.7064102E+03;
  6.5987366E-01;  9.9999998E-03; -6.0011957E-02;2064; -8.5971057E-02;  0.0000000E+00; -1.2357557E-02;  1.0075631E+03;  4.0316734E-01;  6.2656279E+03;3; -3.8473137E+01;  0.0000000E+00; -8.1605911E+00;0;  2.6595828E-01;  9.9983916E+03;  0.0000000E+00; -3.6998986E-06;  1.0000000E+04;  0.0000000E+00;  9.9945947E+03;  4.2620525E-02;  0.0000000E+00;  2.2333775E-01;  2.3600737E+03;
  6.5987480E-01;  9.9999998E-03; -4.0007576E-02;2065; -8.4844366E-02;  0.0000000E+00; -8.1254486E-03;  1.0075915E+03;  4.0316743E-01;  6.2891323E+03;3; -3.7805500E+01;  0.0000000E+00; -5.6489549E+00;0;  2.5518620E-01;  9.9983711E+03;  0.0000000E+00; -1.9618406E-06;  1.0000000E+04;  0.0000000E+00;  9.9951807E+03;  4.3173458E-02;  0.0000000E+00;  2.1201274E-01;  2.0839624E+03;
  6.5987551E-01;  9.9999998E-03; -2.0003682E-02;2066; -8.4172688E-02;  0.0000000E+00; -4.0385085E-03;  1.0076099E+03;  4.0316740E-01;  6.3044399E+03;3; -3.7374886E+01;  0.0000000E+00; -2.8954804E+00;0;  2.4776509E-01;  9.9983574E+03;  0.0000000E+00; -5.2596977E-07;  1.0000000E+04;  0.0000000E+00;  9.9955586E+03;  4.3561392E-02;  0.0000000E+00;  2.0420371E-01;  1.9048882E+03;
  6.7985016E-01;  9.9999998E-03; -1.8006915E-01;2089; -1.0398108E-01;  0.0000000E+00; -5.2180726E-02;  1.0092242E+03;  4.0416336E-01;  7.6416133E+03;3; -4.4918400E+01;  0.0000000E+00; -1.7972383E+01;0;  5.5888021E-01;  9.9912168E+03;  0.0000000E+00; -8.2574828E-05;  1.0000000E+04;  0.0000000E+00;  9.9853691E+03;  2.7080661E-01;  0.0000000E+00;  2.8807363E-01;  6.8455137E+03;
  6.7985564E-01;  9.9999998E-03; -1.6005841E-01;2090; -1.0031671E-01;  0.0000000E+00; -4.6610441E-02;  1.0093391E+03;  4.0416327E-01;  7.7368149E+03;3; -4.4032764E+01;  0.0000000E+00; -1.8450344E+01;0;  5.6392086E-01;  9.9915596E+03;  0.0000000E+00; -9.1897418E-05;  1.0000000E+04;  0.0000000E+00;  9.9873076E+03;  2.5807622E-01;  0.0000000E+00;  3.0584466E-01;  5.8586846E+03;
  6.7986017E-01;  9.9999998E-03; -1.4004804E-01;2091; -9.7093955E-02;  0.0000000E+00; -4.0496755E-02;  1.0094391E+03;  4.0416309E-01;  7.8196719E+03;3; -4.3138626E+01;  0.0000000E+00; -1.8302849E+01;0;  5.6098771E-01;  9.9918008E+03;  0.0000000E+00; -4.9977461E-05;  1.0000000E+04;  0.0000000E+00;  9.9890586E+03;  2.4894981E-01;  0.0000000E+00;  3.1203791E-01;  4.9777759E+03;
  6.7986393E-01;  9.9999998E-03; -1.2003773E-01;2092; -9.4282895E-02;  0.0000000E+00; -3.3754032E-02;  1.0095204E+03;  4.0416291E-01;  7.8870244E+03;3; -4.2258369E+01;  0.0000000E+00; -1.7414072E+01;0;  5.5035394E-01;  9.9919668E+03;  0.0000000E+00; -2.1471065E-05;  1.0000000E+04;  0.0000000E+00;  9.9905068E+03;  2.4244694E-01;  0.0000000E+00;  3.0790699E-01;  4.2593706E+03;
  6.7986697E-01;  9.9999998E-03; -1.0002839E-01;2093; -9.1809228E-02;  0.0000000E+00; -2.7012752E-02;  1.0095873E+03;  4.0416291E-01;  7.9424268E+03;3; -4.1298321E+01;  0.0000000E+00; -1.5674150E+01;0;  5.3422368E-01;  9.9920850E+03;  0.0000000E+00; -1.0196461E-05;  1.0000000E+04;  0.0000000E+00;  9.9917119E+03;  2.3776245E-01;  0.0000000E+00;  2.9646125E-01;  3.6718755E+03;
  6.7986935E-01;  9.9999998E-03; -8.0020532E-02;2094; -8.9721777E-02;  0.0000000E+00; -2.0753341E-02;  1.0096443E+03;  4.0416276E-01;  7.9896328E+03;3; -4.0311764E+01;  0.0000000E+00; -1.3314313E+01;0;  5.1512003E-01;  9.9921689E+03;  0.0000000E+00; -6.6942453E-06;  1.0000000E+04;  0.0000000E+00;  9.9927607E+03;  2.3437767E-01;  0.0000000E+00;  2.8074238E-01;  3.1690383E+03;
  6.7987114E-01;  9.9999998E-03; -6.0014158E-02;2095; -8.8081069E-02;  0.0000000E+00; -1.5093955E-02;  1.0096933E+03;  4.0416279E-01;  8.0302217E+03;3; -3.9433056E+01;  0.0000000E+00; -1.0462478E+01;0;  4.9574018E-01;  9.9922285E+03;  0.0000000E+00; -4.4923436E-06;  1.0000000E+04;  0.0000000E+00;  9.9936748E+03;  2.3197795E-01;  0.0000000E+00;  2.6376224E-01;  2.7355649E+03;
  6.7987233E-01;  9.9999998E-03; -4.0008895E-02;2096; -8.6906314E-02;  0.0000000E+00; -9.8783765E-03;  1.0097321E+03;  4.0416262E-01;  8.0623179E+03;3; -3.8743195E+01;  0.0000000E+00; -7.2248015E+00;0;  4.7907996E-01;  9.9922695E+03;  0.0000000E+00; -2.2463200E-06;  1.0000000E+04;  0.0000000E+00;  9.9944053E+03;  2.3037668E-01;  0.0000000E+00;  2.4870330E-01;  2.3912107E+03;
  6.7987299E-01;  9.9999998E-03; -2.0004304E-02;2097; -8.6201057E-02;  0.0000000E+00; -4.8971786E-03;  1.0097569E+03;  4.0416268E-01;  8.0829580E+03;3; -3.8291515E+01;  0.0000000E+00; -3.6976068E+00;0;  4.6788156E-01;  9.9922910E+03;  0.0000000E+00; -5.9429533E-07;  1.0000000E+04;  0.0000000E+00;  9.9948789E+03;  2.2946012E-01;  0.0000000E+00;  2.3842143E-01;  2.1681409E+03;
  6.9985807E-01;  9.9999998E-03; -1.8008384E-01;2120; -1.0118528E-01;  0.0000000E+00; -6.5395348E-02;  1.0101151E+03;  4.0470830E-01;  8.3795527E+03;3; -4.4550808E+01;  0.0000000E+00; -2.4657650E+01;0;  8.2943821E-01;  9.9841924E+03;  0.0000000E+00; -4.1981832E-05;  1.0000000E+04;  0.0000000E+00;  9.9830820E+03;  4.9844247E-01;  0.0000000E+00;  3.3099571E-01;  7.8971904E+03;
  6.9986326E-01;  9.9999998E-03; -1.6007048E-01;2121; -9.7688124E-02;  0.0000000E+00; -5.7976320E-02;  1.0102535E+03;  4.0470791E-01;  8.4941084E+03;3; -4.3840771E+01;  0.0000000E+00; -2.4767200E+01;0;  8.3424062E-01;  9.9847451E+03;  0.0000000E+00; -5.8402933E-05;  1.0000000E+04;  0.0000000E+00;  9.9852783E+03;  4.7915789E-01;  0.0000000E+00;  3.5508272E-01;  6.7719800E+03;
  6.9986761E-01;  9.9999998E-03; -1.4005752E-01;2122; -9.4668865E-02;  0.0000000E+00; -4.9799468E-02;  1.0103772E+03;  4.0470776E-01;  8.5966162E+03;3; -4.3280811E+01;  0.0000000E+00; -2.4041521E+01;0;  8.2750452E-01;  9.9851797E+03;  0.0000000E+00; -3.3412794E-05;  1.0000000E+04;  0.0000000E+00;  9.9873057E+03;  4.6370637E-01;  0.0000000E+00;  3.6379811E-01;  5.7499053E+03;
  6.9987112E-01;  9.9999998E-03; -1.2004468E-01;2123; -9.2006408E-02;  0.0000000E+00; -4.0908705E-02;  1.0104802E+03;  4.0470755E-01;  8.6819404E+03;3; -4.2586117E+01;  0.0000000E+00; -2.2197466E+01;0;  8.1010127E-01;  9.9855195E+03;  0.0000000E+00; -1.5356865E-05;  1.0000000E+04;  0.0000000E+00;  9.9890146E+03;  4.5138848E-01;  0.0000000E+00;  3.5871282E-01;  4.9040293E+03;
  6.9987398E-01;  9.9999998E-03; -1.0003316E-01;2124; -8.9604497E-02;  0.0000000E+00; -3.2303292E-02;  1.0105660E+03;  4.0470731E-01;  8.7530439E+03;3; -4.1679092E+01;  0.0000000E+00; -1.9617058E+01;0;  7.8563297E-01;  9.9857842E+03;  0.0000000E+00; -8.1244107E-06;  1.0000000E+04;  0.0000000E+00;  9.9904482E+03;  4.4155052E-01;  0.0000000E+00;  3.4408247E-01;  4.2065659E+03;
  6.9987625E-01;  9.9999998E-03; -8.0023602E-02;2125; -8.7527081E-02;  0.0000000E+00; -2.4529077E-02;  1.0106392E+03;  4.0470731E-01;  8.8136787E+03;3; -4.0601089E+01;  0.0000000E+00; -1.6449625E+01;0;  7.5795758E-01;  9.9859893E+03;  0.0000000E+00; -5.6640720E-06;  1.0000000E+04;  0.0000000E+00;  9.9917031E+03;  4.3380502E-01;  0.0000000E+00;  3.2415256E-01;  3.6083569E+03;
  6.9987786E-01;  9.9999998E-03; -6.0016021E-02;2126; -8.5897110E-02;  0.0000000E+00; -1.7670022E-02;  1.0107017E+03;  4.0470725E-01;  8.8655254E+03;3; -3.9641018E+01;  0.0000000E+00; -1.2846432E+01;0;  7.3082507E-01;  9.9861387E+03;  0.0000000E+00; -3.7979135E-06;  1.0000000E+04;  0.0000000E+00;  9.9927930E+03;  4.2793939E-01;  0.0000000E+00;  3.0288568E-01;  3.0929553E+03;
  6.9987893E-01;  9.9999998E-03; -4.0009946E-02;2127; -8.4733628E-02;  0.0000000E+00; -1.1494285E-02;  1.0107507E+03;  4.0470722E-01;  8.9060146E+03;3; -3.8884972E+01;  0.0000000E+00; -8.8432503E+00;0;  7.0803154E-01;  9.9862402E+03;  0.0000000E+00; -1.8828648E-06;  1.0000000E+04;  0.0000000E+00;  9.9936641E+03;  4.2382988E-01;  0.0000000E+00;  2.8420162E-01;  2.6837151E+03;
  6.9987959E-01;  9.9999998E-03; -2.0004777E-02;2128; -8.4034272E-02;  0.0000000E+00; -5.6828344E-03;  1.0107823E+03;  4.0470713E-01;  8.9322842E+03;3; -3.8384232E+01;  0.0000000E+00; -4.5176983E+00;0;  6.9291180E-01;  9.9863008E+03;  0.0000000E+00; -4.8688736E-07;  1.0000000E+04;  0.0000000E+00;  9.9942295E+03;  4.2139712E-01;  0.0000000E+00;  2.7151468E-01;  2.4186179E+03;
  7.1989030E-01;  9.9999998E-03; -1.8009497E-01;2151; -8.2789242E-02;  0.0000000E+00; -7.6091096E-02;  1.0103395E+03;  4.0494671E-01;  8.5651758E+03;3; -4.0733124E+01;  0.0000000E+00; -3.1558762E+01;0;  1.0544014E+00;  9.9786543E+03;  0.0000000E+00; -8.9318664E-06;  1.0000000E+04;  0.0000000E+00;  9.9812783E+03;  6.8985617E-01;  0.0000000E+00;  3.6454523E-01;  8.7249707E+03;
  7.1989506E-01;  9.9999998E-03; -1.6007984E-01;2152; -7.9183966E-02;  0.0000000E+00; -6.7257881E-02;  1.0104939E+03;  4.0494630E-01;  8.6930596E+03;3; -3.9641430E+01;  0.0000000E+00; -3.1090347E+01;0;  1.0607741E+00;  9.9793623E+03;  0.0000000E+00; -2.2320042E-05;  1.0000000E+04;  0.0000000E+00;  9.9836406E+03;  6.6541040E-01;  0.0000000E+00;  3.9536366E-01;  7.5094614E+03;
  7.1989924E-01;  9.9999998E-03; -1.4006500E-01;2153; -7.5846508E-02;  0.0000000E+00; -5.7393216E-02;  1.0106354E+03;  4.0494609E-01;  8.8103770E+03;3; -3.8372078E+01;  0.0000000E+00; -2.9358778E+01;0;  1.0516831E+00;  9.9799600E+03;  0.0000000E+00; -1.2413026E-05;  1.0000000E+04;  0.0000000E+00;  9.9858516E+03;  6.4422786E-01;  0.0000000E+00;  4.0745518E-01;  6.3900625E+03;
  7.1990258E-01;  9.9999998E-03; -1.2005033E-01;2154; -7.2950147E-02;  0.0000000E+00; -4.6834506E-02;  1.0107557E+03;  4.0494579E-01;  8.9100186E+03;3; -3.7025818E+01;  0.0000000E+00; -2.6512220E+01;0;  1.0287474E+00;  9.9804561E+03;  0.0000000E+00; -5.4768893E-06;  1.0000000E+04;  0.0000000E+00;  9.9877441E+03;  6.2624955E-01;  0.0000000E+00;  4.0249792E-01;  5.4516680E+03;
  7.1990514E-01;  9.9999998E-03; -1.0003724E-01;2155; -7.0549779E-02;  0.0000000E+00; -3.6789488E-02;  1.0108571E+03;  4.0494555E-01;  8.9939570E+03;3; -3.5728298E+01;  0.0000000E+00; -2.3052059E+01;0;  9.9700654E-01;  9.9808545E+03;  0.0000000E+00; -3.4067775E-06;  1.0000000E+04;  0.0000000E+00;  9.9893564E+03;  6.1126113E-01;  0.0000000E+00;  3.8574544E-01;  4.6697661E+03;
  7.1990705E-01;  9.9999998E-03; -8.0026425E-02;2156; -6.8637840E-02;  0.0000000E+00; -2.7819458E-02;  1.0109442E+03;  4.0494552E-01;  9.0660469E+03;3; -3.4517368E+01;  0.0000000E+00; -1.9156765E+01;0;  9.6166635E-01;  9.9811680E+03;  0.0000000E+00; -2.9444980E-06;  1.0000000E+04;  0.0000000E+00;  9.9907754E+03;  5.9914386E-01;  0.0000000E+00;  3.6252251E-01;  3.9944385E+03;
  7.1990836E-01;  9.9999998E-03; -6.0017869E-02;2157; -6.7190118E-02;  0.0000000E+00; -1.9980259E-02;  1.0110182E+03;  4.0494531E-01;  9.1273721E+03;3; -3.3490982E+01;  0.0000000E+00; -1.4882340E+01;0;  9.2754400E-01;  9.9813984E+03;  0.0000000E+00; -2.1673357E-06;  1.0000000E+04;  0.0000000E+00;  9.9920127E+03;  5.8982766E-01;  0.0000000E+00;  3.3771631E-01;  3.4104333E+03;
  7.1990925E-01;  9.9999998E-03; -4.0011063E-02;2158; -6.6172436E-02;  0.0000000E+00; -1.2975436E-02;  1.0110762E+03;  4.0494522E-01;  9.1754639E+03;3; -3.2707767E+01;  0.0000000E+00; -1.0226817E+01;0;  8.9921606E-01;  9.9815576E+03;  0.0000000E+00; -1.1137300E-06;  1.0000000E+04;  0.0000000E+00;  9.9930039E+03;  5.8324271E-01;  0.0000000E+00;  3.1597337E-01;  2.9458457E+03;
  7.1990979E-01;  9.9999998E-03; -2.0005304E-02;2159; -6.5564841E-02;  0.0000000E+00; -6.4103911E-03;  1.0111133E+03;  4.0494525E-01;  9.2061758E+03;3; -3.2215218E+01;  0.0000000E+00; -5.2220159E+00;0;  8.8056248E-01;  9.9816504E+03;  0.0000000E+00; -2.9122901E-07;  1.0000000E+04;  0.0000000E+00;  9.9936475E+03;  5.7932311E-01;  0.0000000E+00;  3.0123937E-01;  2.6445950E+03;
  7.3993075E-01;  9.9999998E-03; -1.8010101E-01;2182; -5.3015098E-02;  0.0000000E+00; -8.0728367E-02;  1.0103565E+03;  4.0504050E-01;  8.5789805E+03;3; -2.6648689E+01;  0.0000000E+00; -3.3175735E+01;0;  1.1938596E+00;  9.9756055E+03;  0.0000000E+00;  5.7355451E-06;  1.0000000E+04;  0.0000000E+00;  9.9800283E+03;  8.0695504E-01;  0.0000000E+00;  3.8690457E-01;  9.2988057E+03;
  7.3993403E-01;  9.9999998E-03; -1.6008523E-01;2183; -5.0570320E-02;  0.0000000E+00; -7.1687728E-02;  1.0105193E+03;  4.0504017E-01;  8.7137725E+03;3; -2.5950161E+01;  0.0000000E+00; -3.2949352E+01;0;  1.2033823E+00;  9.9764033E+03;  0.0000000E+00; -6.1648268E-07;  1.0000000E+04;  0.0000000E+00;  9.9824678E+03;  7.7937967E-01;  0.0000000E+00;  4.2400259E-01;  8.0372588E+03;
  7.3993695E-01;  9.9999998E-03; -1.4006957E-01;2184; -4.8239369E-02;  0.0000000E+00; -6.1377354E-02;  1.0106714E+03;  4.0503973E-01;  8.8397754E+03;3; -2.5088121E+01;  0.0000000E+00; -3.1299353E+01;0;  1.1937351E+00;  9.9771152E+03;  0.0000000E+00;  1.2244412E-06;  1.0000000E+04;  0.0000000E+00;  9.9847793E+03;  7.5396323E-01;  0.0000000E+00;  4.3977183E-01;  6.8640532E+03;
  7.3993939E-01;  9.9999998E-03; -1.2005397E-01;2185; -4.6172887E-02;  0.0000000E+00; -5.0234947E-02;  1.0108028E+03;  4.0503961E-01;  8.9485967E+03;3; -2.4150892E+01;  0.0000000E+00; -2.8424923E+01;0;  1.1673625E+00;  9.9777246E+03;  0.0000000E+00;  1.4853719E-06;  1.0000000E+04;  0.0000000E+00;  9.9867813E+03;  7.3145133E-01;  0.0000000E+00;  4.3591106E-01;  5.8706782E+03;
  7.3994124E-01;  9.9999998E-03; -1.0004000E-01;2186; -4.4436850E-02;  0.0000000E+00; -3.9567523E-02;  1.0109149E+03;  4.0503940E-01;  9.0415176E+03;3; -2.3215189E+01;  0.0000000E+00; -2.4826374E+01;0;  1.1305201E+00;  9.9782227E+03;  0.0000000E+00;  3.7407057E-07;  1.0000000E+04;  0.0000000E+00;  9.9885039E+03;  7.1222943E-01;  0.0000000E+00;  4.1829064E-01;  5.0341401E+03;
  7.3994261E-01;  9.9999998E-03; -8.0028437E-02;2187; -4.3040846E-02;  0.0000000E+00; -2.9995626E-02;  1.0110117E+03;  4.0503916E-01;  9.1217021E+03;3; -2.2343330E+01;  0.0000000E+00; -2.0711979E+01;0;  1.0895584E+00;  9.9786123E+03;  0.0000000E+00; -5.3335623E-07;  1.0000000E+04;  0.0000000E+00;  9.9900352E+03;  6.9651920E-01;  0.0000000E+00;  3.9303914E-01;  4.3048833E+03;
  7.3994362E-01;  9.9999998E-03; -6.0019262E-02;2188; -4.1968830E-02;  0.0000000E+00; -2.1590132E-02;  1.0110944E+03;  4.0503907E-01;  9.1902334E+03;3; -2.1589725E+01;  0.0000000E+00; -1.6137699E+01;0;  1.0502030E+00;  9.9789053E+03;  0.0000000E+00; -6.8755350E-07;  1.0000000E+04;  0.0000000E+00;  9.9913838E+03;  6.8439144E-01;  0.0000000E+00;  3.6581156E-01;  3.6703870E+03;
  7.3994428E-01;  9.9999998E-03; -4.0011942E-02;2189; -4.1204844E-02;  0.0000000E+00; -1.4044339E-02;  1.0111589E+03;  4.0503898E-01;  9.2436563E+03;3; -2.1004816E+01;  0.0000000E+00; -1.1111281E+01;0;  1.0176942E+00;  9.9791035E+03;  0.0000000E+00; -3.9946315E-07;  1.0000000E+04;  0.0000000E+00;  9.9924658E+03;  6.7580903E-01;  0.0000000E+00;  3.4188518E-01;  3.1639622E+03;
  7.3994470E-01;  9.9999998E-03; -2.0005731E-02;2190; -4.0743988E-02;  0.0000000E+00; -6.9456403E-03;  1.0112003E+03;  4.0503901E-01;  9.2779219E+03;3; -2.0632710E+01;  0.0000000E+00; -5.6799326E+00;0;  9.9636340E-01;  9.9792197E+03;  0.0000000E+00; -1.0693469E-07;  1.0000000E+04;  0.0000000E+00;  9.9931689E+03;  6.7069983E-01;  0.0000000E+00;  3.2566357E-01;  2.8350510E+03;
  7.5996280E-01;  9.9999998E-03; -1.8010464E-01;2213; -2.9196238E-02;  0.0000000E+00; -8.3297692E-02;  1.0103810E+03;  4.0507591E-01;  8.5987939E+03;3; -1.5176538E+01;  0.0000000E+00; -3.3727264E+01;0;  1.2405887E+00;  9.9750859E+03;  0.0000000E+00;  6.8788431E-06;  1.0000000E+04;  0.0000000E+00;  9.9792900E+03;  8.4130287E-01;  0.0000000E+00;  3.9928582E-01;  9.6395791E+03;
  7.5996464E-01;  9.9999998E-03; -1.6008866E-01;2214; -2.7872119E-02;  0.0000000E+00; -7.4357629E-02;  1.0105459E+03;  4.0507555E-01;  8.7353564E+03;3; -1.4916296E+01;  0.0000000E+00; -3.3854221E+01;0;  1.2540666E+00;  9.9759072E+03;  0.0000000E+00;  5.4853808E-06;  1.0000000E+04;  0.0000000E+00;  9.9817490E+03;  8.1293708E-01;  0.0000000E+00;  4.4112951E-01;  8.3627119E+03;
  7.5996643E-01;  9.9999998E-03; -1.4007257E-01;2215; -2.6531124E-02;  0.0000000E+00; -6.3907057E-02;  1.0107021E+03;  4.0507522E-01;  8.8648096E+03;3; -1.4496989E+01;  0.0000000E+00; -3.2409565E+01;0;  1.2456573E+00;  9.9766680E+03;  0.0000000E+00;  4.8641218E-06;  1.0000000E+04;  0.0000000E+00;  9.9840938E+03;  7.8546524E-01;  0.0000000E+00;  4.6019211E-01;  7.1697153E+03;
  7.5996786E-01;  9.9999998E-03; -1.2005641E-01;2216; -2.5296954E-02;  0.0000000E+00; -5.2466128E-02;  1.0108387E+03;  4.0507492E-01;  8.9778711E+03;3; -1.3984800E+01;  0.0000000E+00; -2.9611326E+01;0;  1.2182992E+00;  9.9773320E+03;  0.0000000E+00;  3.2653215E-06;  1.0000000E+04;  0.0000000E+00;  9.9861387E+03;  7.6035345E-01;  0.0000000E+00;  4.5794576E-01;  6.1528828E+03;
  7.5996906E-01;  9.9999998E-03; -1.0004188E-01;2217; -2.4233181E-02;  0.0000000E+00; -4.1432675E-02;  1.0109563E+03;  4.0507472E-01;  9.0753311E+03;3; -1.3438821E+01;  0.0000000E+00; -2.5985527E+01;0;  1.1790477E+00;  9.9778848E+03;  0.0000000E+00;  1.5893049E-06;  1.0000000E+04;  0.0000000E+00;  9.9879180E+03;  7.3856282E-01;  0.0000000E+00;  4.4048485E-01;  5.2886167E+03;
  7.5996995E-01;  9.9999998E-03; -8.0029815E-02;2218; -2.3358915E-02;  0.0000000E+00; -3.1484008E-02;  1.0110587E+03;  4.0507457E-01;  9.1601523E+03;3; -1.2907020E+01;  0.0000000E+00; -2.1760258E+01;0;  1.1350470E+00;  9.9783193E+03;  0.0000000E+00;  5.1215511E-07;  1.0000000E+04;  0.0000000E+00;  9.9895176E+03;  7.2063959E-01;  0.0000000E+00;  4.1440734E-01;  4.5279834E+03;
  7.5997055E-01;  9.9999998E-03; -6.0020234E-02;2219; -2.2672929E-02;  0.0000000E+00; -2.2709990E-02;  1.0111464E+03;  4.0507445E-01;  9.2327285E+03;3; -1.2431850E+01;  0.0000000E+00; -1.7003222E+01;0;  1.0926845E+00;  9.9786445E+03;  0.0000000E+00;  7.2381788E-08;  1.0000000E+04;  0.0000000E+00;  9.9909326E+03;  7.0678174E-01;  0.0000000E+00;  3.8590279E-01;  3.8616897E+03;
  7.5997102E-01;  9.9999998E-03; -4.0012561E-02;2220; -2.2174215E-02;  0.0000000E+00; -1.4798315E-02;  1.0112151E+03;  4.0507439E-01;  9.2897031E+03;3; -1.2053746E+01;  0.0000000E+00; -1.1730871E+01;0;  1.0577035E+00;  9.9788643E+03;  0.0000000E+00; -2.1157728E-08;  1.0000000E+04;  0.0000000E+00;  9.9920742E+03;  6.9697940E-01;  0.0000000E+00;  3.6072406E-01;  3.3278896E+03;
  7.5997126E-01;  9.9999998E-03; -2.0006035E-02;2221; -2.1868831E-02;  0.0000000E+00; -7.3265508E-03;  1.0112592E+03;  4.0507436E-01;  9.3262383E+03;3; -1.1809285E+01;  0.0000000E+00; -6.0037670E+00;0;  1.0347681E+00;  9.9789951E+03;  0.0000000E+00; -9.9273594E-09;  1.0000000E+04;  0.0000000E+00;  9.9928184E+03;  6.9114667E-01;  0.0000000E+00;  3.4362140E-01;  2.9805845E+03;
  7.7998680E-01;  9.9999998E-03; -1.8010634E-01;2244; -1.1166470E-02;  0.0000000E+00; -8.4352620E-02;  1.0104593E+03;  4.0508893E-01;  8.6630859E+03;3; -6.4540367E+00;  0.0000000E+00; -3.3716946E+01;0;  1.2179576E+00;  9.9763271E+03;  0.0000000E+00;  3.3071826E-06;  1.0000000E+04;  0.0000000E+00;  9.9789648E+03;  8.1385821E-01;  0.0000000E+00;  4.0409938E-01;  9.7910137E+03;
  7.7998751E-01;  9.9999998E-03; -1.6009039E-01;2245; -1.0738708E-02;  0.0000000E+00; -7.5602911E-02;  1.0106224E+03;  4.0508854E-01;  8.7981582E+03;3; -6.4831510E+00;  0.0000000E+00; -3.4123470E+01;0;  1.2352109E+00;  9.9771221E+03;  0.0000000E+00;  3.5292067E-06;  1.0000000E+04;  0.0000000E+00;  9.9814092E+03;  7.8647703E-01;  0.0000000E+00;  4.4873384E-01;  8.5166719E+03;
  7.7998823E-01;  9.9999998E-03; -1.4007413E-01;2246; -1.0236252E-02;  0.0000000E+00; -6.5173015E-02;  1.0107780E+03;  4.0508822E-01;  8.9270107E+03;3; -6.3994370E+00;  0.0000000E+00; -3.2868801E+01;0;  1.2290857E+00;  9.9778770E+03;  0.0000000E+00;  2.9874388E-06;  1.0000000E+04;  0.0000000E+00;  9.9837451E+03;  7.5891930E-01;  0.0000000E+00;  4.7016639E-01;  7.3255762E+03;
  7.7998888E-01;  9.9999998E-03; -1.2005772E-01;2247; -9.7368071E-03;  0.0000000E+00; -5.3631417E-02;  1.0109149E+03;  4.0508789E-01;  9.0404590E+03;3; -6.2384830E+00;  0.0000000E+00; -3.0173695E+01;0;  1.2026629E+00;  9.9785488E+03;  0.0000000E+00;  1.9707477E-06;  1.0000000E+04;  0.0000000E+00;  9.9857920E+03;  7.3315465E-01;  0.0000000E+00;  4.6950823E-01;  6.3069883E+03;
  7.7998936E-01;  9.9999998E-03; -1.0004292E-01;2248; -9.2831450E-03;  0.0000000E+00; -4.2438749E-02;  1.0110338E+03;  4.0508774E-01;  9.1388994E+03;3; -6.0322204E+00;  0.0000000E+00; -2.6579603E+01;0;  1.1633356E+00;  9.9791152E+03;  0.0000000E+00;  1.0516312E-06;  1.0000000E+04;  0.0000000E+00;  9.9875850E+03;  7.1056014E-01;  0.0000000E+00;  4.5277542E-01;  5.4351597E+03;
  7.7998978E-01;  9.9999998E-03; -8.0030590E-02;2249; -8.8918684E-03;  0.0000000E+00; -3.2311182E-02;  1.0111381E+03;  4.0508750E-01;  9.2252939E+03;3; -5.8075957E+00;  0.0000000E+00; -2.2327026E+01;0;  1.1186408E+00;  9.9795586E+03;  0.0000000E+00;  4.7194135E-07;  1.0000000E+04;  0.0000000E+00;  9.9892100E+03;  6.9190496E-01;  0.0000000E+00;  4.2673579E-01;  4.6616201E+03;
  7.7999008E-01;  9.9999998E-03; -6.0020790E-02;2250; -8.5696140E-03;  0.0000000E+00; -2.3350067E-02;  1.0112277E+03;  4.0508741E-01;  9.2994453E+03;3; -5.5904346E+00;  0.0000000E+00; -1.7489719E+01;0;  1.0753436E+00;  9.9798887E+03;  0.0000000E+00;  1.8595487E-07;  1.0000000E+04;  0.0000000E+00;  9.9906602E+03;  6.7747188E-01;  0.0000000E+00;  3.9787173E-01;  3.9799185E+03;
  7.7999032E-01;  9.9999998E-03; -4.0012926E-02;2251; -8.3250375E-03;  0.0000000E+00; -1.5239252E-02;  1.0112982E+03;  4.0508735E-01;  9.3578984E+03;3; -5.4080091E+00;  0.0000000E+00; -1.2088601E+01;0;  1.0394964E+00;  9.9801123E+03;  0.0000000E+00;  6.3779154E-08;  1.0000000E+04;  0.0000000E+00;  9.9918330E+03;  6.6726655E-01;  0.0000000E+00;  3.7222993E-01;  3.4319441E+03;
  7.7999043E-01;  9.9999998E-03; -2.0006215E-02;2252; -8.1705274E-03;  0.0000000E+00; -7.5527164E-03;  1.0113434E+03;  4.0508726E-01;  9.3953193E+03;3; -5.2858524E+00;  0.0000000E+00; -6.1936150E+00;0;  1.0159737E+00;  9.9802451E+03;  0.0000000E+00;  1.4155878E-08;  1.0000000E+04;  0.0000000E+00;  9.9925977E+03;  6.6119927E-01;  0.0000000E+00;  3.5477445E-01;  3.0748721E+03;
  8.0000609E-01;  9.9999998E-03; -1.8010651E-01;2275;  3.4828356E-03;  0.0000000E+00; -8.4270135E-02;  1.0105694E+03;  4.0509254E-01;  8.7535244E+03;3;  7.5636595E-01;  0.0000000E+00; -3.3385696E+01;0;  1.1591926E+00;  9.9783477E+03;  0.0000000E+00;  1.7517182E-07;  1.0000000E+04;  0.0000000E+00;  9.9789404E+03;  7.5547689E-01;  0.0000000E+00;  4.0371570E-01;  9.7963350E+03;
  8.0000579E-01;  9.9999998E-03; -1.6009068E-01;2276;  3.1829253E-03;  0.0000000E+00; -7.5702511E-02;  1.0107287E+03;  4.0509212E-01;  8.8854248E+03;3;  5.2960181E-01;  0.0000000E+00; -3.3948170E+01;0;  1.1791499E+00;  9.9790908E+03;  0.0000000E+00;  4.0454842E-07;  1.0000000E+04;  0.0000000E+00;  9.9813652E+03;  7.2989935E-01;  0.0000000E+00;  4.4925049E-01;  8.5337432E+03;
  8.0000561E-01;  9.9999998E-03; -1.4007449E-01;2277;  2.9770967E-03;  0.0000000E+00; -6.5375239E-02;  1.0108810E+03;  4.0509176E-01;  9.0115996E+03;3;  3.5451329E-01;  0.0000000E+00; -3.2822025E+01;0;  1.1753994E+00;  9.9798125E+03;  0.0000000E+00;  4.5370660E-07;  1.0000000E+04;  0.0000000E+00;  9.9836719E+03;  7.0350158E-01;  0.0000000E+00;  4.7189781E-01;  7.3565068E+03;
  8.0000550E-01;  9.9999998E-03; -1.2005804E-01;2278;  2.8410694E-03;  0.0000000E+00; -5.3872649E-02;  1.0110156E+03;  4.0509146E-01;  9.1229648E+03;3;  2.2813611E-01;  0.0000000E+00; -3.0219984E+01;0;  1.1508996E+00;  9.9804570E+03;  0.0000000E+00;  3.4561069E-07;  1.0000000E+04;  0.0000000E+00;  9.9856943E+03;  6.7850024E-01;  0.0000000E+00;  4.7239938E-01;  6.3491221E+03;
  8.0000544E-01;  9.9999998E-03; -1.0004319E-01;2279;  2.7587479E-03;  0.0000000E+00; -4.2684685E-02;  1.0111327E+03;  4.0509126E-01;  9.2200137E+03;3;  1.4664367E-01;  0.0000000E+00; -2.6687752E+01;0;  1.1129774E+00;  9.9809990E+03;  0.0000000E+00;  2.0783635E-07;  1.0000000E+04;  0.0000000E+00;  9.9874775E+03;  6.5645975E-01;  0.0000000E+00;  4.5651764E-01;  5.4831431E+03;
  8.0000544E-01;  9.9999998E-03; -8.0030814E-02;2280;  2.7200459E-03;  0.0000000E+00; -3.2543413E-02;  1.0112362E+03;  4.0509117E-01;  9.3057100E+03;3;  1.0466418E-01;  0.0000000E+00; -2.2468407E+01;0;  1.0692185E+00;  9.9814297E+03;  0.0000000E+00;  1.0946869E-07;  1.0000000E+04;  0.0000000E+00;  9.9891025E+03;  6.3823617E-01;  0.0000000E+00;  4.3098232E-01;  4.7103794E+03;
  8.0000544E-01;  9.9999998E-03; -6.0020965E-02;2281;  2.7141389E-03;  0.0000000E+00; -2.3551803E-02;  1.0113255E+03;  4.0509108E-01;  9.3796572E+03;3;  9.3459047E-02;  0.0000000E+00; -1.7634552E+01;0;  1.0264996E+00;  9.9817461E+03;  0.0000000E+00;  5.3173363E-08;  1.0000000E+04;  0.0000000E+00;  9.9905576E+03;  6.2413734E-01;  0.0000000E+00;  4.0236232E-01;  4.0263589E+03;
  8.0000544E-01;  9.9999998E-03; -4.0013049E-02;2282;  2.7264047E-03;  0.0000000E+00; -1.5390578E-02;  1.0113959E+03;  4.0509093E-01;  9.4380059E+03;3;  1.0011905E-01;  0.0000000E+00; -1.2206829E+01;0;  9.9099112E-01;  9.9819639E+03;  0.0000000E+00;  2.1851442E-08;  1.0000000E+04;  0.0000000E+00;  9.9917354E+03;  6.1417186E-01;  0.0000000E+00;  3.7681928E-01;  3.4751873E+03;
  8.0000544E-01;  9.9999998E-03; -2.0006280E-02;2283;  2.7416411E-03;  0.0000000E+00; -7.6343212E-03;  1.0114412E+03;  4.0509081E-01;  9.4754238E+03;3;  1.1111428E-01;  0.0000000E+00; -6.2599998E+00;0;  9.6765184E-01;  9.9820918E+03;  0.0000000E+00;  5.4493254E-09;  1.0000000E+04;  0.0000000E+00;  9.9925059E+03;  6.0825032E-01;  0.0000000E+00;  3.5940149E-01;  3.1156465E+03;
  8.2002389E-01;  9.9999998E-03; -1.8010540E-01;2306;  1.7171605E-02;  0.0000000E+00; -8.3281204E-02;  1.0106724E+03;  4.0508661E-01;  8.8376436E+03;3;  7.6351089E+00;  0.0000000E+00; -3.2855846E+01;0;  1.0889848E+00;  9.9804531E+03;  0.0000000E+00; -1.3003782E-06;  1.0000000E+04;  0.0000000E+00;  9.9791582E+03;  6.8935031E-01;  0.0000000E+00;  3.9963454E-01;  9.6841406E+03;
  8.2002276E-01;  9.9999998E-03; -1.6008979E-01;2307;  1.6228413E-02;  0.0000000E+00; -7.4860923E-02;  1.0108273E+03;  4.0508613E-01;  8.9659736E+03;3;  7.2331295E+00;  0.0000000E+00; -3.3449833E+01;0;  1.1101179E+00;  9.9811426E+03;  0.0000000E+00; -1.3523368E-06;  1.0000000E+04;  0.0000000E+00;  9.9815527E+03;  6.6555870E-01;  0.0000000E+00;  4.4455925E-01;  8.4396074E+03;
  8.2002181E-01;  9.9999998E-03; -1.4007378E-01;2308;  1.5397565E-02;  0.0000000E+00; -6.4686418E-02;  1.0109753E+03;  4.0508583E-01;  9.0884805E+03;3;  6.8330564E+00;  0.0000000E+00; -3.2381317E+01;0;  1.1081455E+00;  9.9818135E+03;  0.0000000E+00; -7.4622454E-07;  1.0000000E+04;  0.0000000E+00;  9.9838223E+03;  6.4080286E-01;  0.0000000E+00;  4.6734256E-01;  7.2836162E+03;
  8.2002103E-01;  9.9999998E-03; -1.2005752E-01;2309;  1.4703074E-02;  0.0000000E+00; -5.3330161E-02;  1.0111057E+03;  4.0508559E-01;  9.1964756E+03;3;  6.4592443E+00;  0.0000000E+00; -2.9849131E+01;0;  1.0857208E+00;  9.9824170E+03;  0.0000000E+00; -3.4135431E-07;  1.0000000E+04;  0.0000000E+00;  9.9858047E+03;  6.1729908E-01;  0.0000000E+00;  4.6842167E-01;  6.2954780E+03;
  8.2002044E-01;  9.9999998E-03; -1.0004281E-01;2310;  1.4150120E-02;  0.0000000E+00; -4.2279147E-02;  1.0112197E+03;  4.0508527E-01;  9.2908477E+03;3;  6.1301847E+00;  0.0000000E+00; -2.6393108E+01;0;  1.0498228E+00;  9.9829238E+03;  0.0000000E+00; -1.5567107E-07;  1.0000000E+04;  0.0000000E+00;  9.9875605E+03;  5.9657776E-01;  0.0000000E+00;  4.5324507E-01;  5.4443813E+03;
  8.2002002E-01;  9.9999998E-03; -8.0030560E-02;2311;  1.3732594E-02;  0.0000000E+00; -3.2260153E-02;  1.0113207E+03;  4.0508518E-01;  9.3745596E+03;3;  5.8578639E+00;  0.0000000E+00; -2.2250229E+01;0;  1.0078393E+00;  9.9833252E+03;  0.0000000E+00; -8.2339113E-08;  1.0000000E+04;  0.0000000E+00;  9.9891631E+03;  5.7945812E-01;  0.0000000E+00;  4.2838117E-01;  4.6824575E+03;
  8.2001978E-01;  9.9999998E-03; -6.0020808E-02;2312;  1.3435594E-02;  0.0000000E+00; -2.3369351E-02;  1.0114083E+03;  4.0508509E-01;  9.4471152E+03;3;  5.6477995E+00;  0.0000000E+00; -1.7486078E+01;0;  9.6655917E-01;  9.9836230E+03;  0.0000000E+00; -4.6687525E-08;  1.0000000E+04;  0.0000000E+00;  9.9906016E+03;  5.6622183E-01;  0.0000000E+00;  4.0033737E-01;  4.0063196E+03;
  8.2001960E-01;  9.9999998E-03; -4.0012959E-02;2313;  1.3240301E-02;  0.0000000E+00; -1.5285375E-02;  1.0114775E+03;  4.0508500E-01;  9.5043701E+03;3;  5.5003233E+00;  0.0000000E+00; -1.2116989E+01;0;  9.3211460E-01;  9.9838291E+03;  0.0000000E+00; -2.1596279E-08;  1.0000000E+04;  0.0000000E+00;  9.9917705E+03;  5.5687064E-01;  0.0000000E+00;  3.7524396E-01;  3.4607520E+03;
  8.2001948E-01;  9.9999998E-03; -2.0006241E-02;2314;  1.3130140E-02;  0.0000000E+00; -7.5870813E-03;  1.0115219E+03;  4.0508494E-01;  9.5411914E+03;3;  5.4131255E+00;  0.0000000E+00; -6.2182422E+00;0;  9.0943217E-01;  9.9839463E+03;  0.0000000E+00; -5.7453633E-09;  1.0000000E+04;  0.0000000E+00;  9.9925352E+03;  5.5131507E-01;  0.0000000E+00;  3.5811713E-01;  3.1046658E+03;
  8.4004200E-01;  9.9999998E-03; -1.8010311E-01;2337;  3.1102140E-02;  0.0000000E+00; -8.1463933E-02;  1.0105887E+03;  4.0500432E-01;  8.7668936E+03;3;  1.4726334E+01;  0.0000000E+00; -3.2137268E+01;0;  1.0158303E+00;  9.9824336E+03;  0.0000000E+00; -1.4470859E-06;  1.0000000E+04;  0.0000000E+00;  9.9795859E+03;  6.2348169E-01;  0.0000000E+00;  3.9234862E-01;  9.4666689E+03;
  8.4004003E-01;  9.9999998E-03; -1.6008782E-01;2338;  2.9539771E-02;  0.0000000E+00; -7.3200278E-02;  1.0107396E+03;  4.0500385E-01;  8.8918486E+03;3;  1.4126753E+01;  0.0000000E+00; -3.2678646E+01;0;  1.0366132E+00;  9.9830791E+03;  0.0000000E+00; -1.8770880E-06;  1.0000000E+04;  0.0000000E+00;  9.9819385E+03;  6.0097134E-01;  0.0000000E+00;  4.3564186E-01;  8.2480205E+03;
  8.4003836E-01;  9.9999998E-03; -1.4007215E-01;2339;  2.8128760E-02;  0.0000000E+00; -6.3233994E-02;  1.0108826E+03;  4.0500349E-01;  9.0102881E+03;3;  1.3503715E+01;  0.0000000E+00; -3.1614950E+01;0;  1.0355445E+00;  9.9837061E+03;  0.0000000E+00; -7.7285068E-07;  1.0000000E+04;  0.0000000E+00;  9.9841543E+03;  5.7779646E-01;  0.0000000E+00;  4.5774806E-01;  7.1206890E+03;
  8.4003699E-01;  9.9999998E-03; -1.2005624E-01;2340;  2.6928937E-02;  0.0000000E+00; -5.2121025E-02;  1.0110083E+03;  4.0500328E-01;  9.1143174E+03;3;  1.2900909E+01;  0.0000000E+00; -2.9135237E+01;0;  1.0148646E+00;  9.9842666E+03;  0.0000000E+00; -1.8695641E-07;  1.0000000E+04;  0.0000000E+00;  9.9860928E+03;  5.5596977E-01;  0.0000000E+00;  4.5889479E-01;  6.1588843E+03;
  8.4003597E-01;  9.9999998E-03; -1.0004186E-01;2341;  2.5956176E-02;  0.0000000E+00; -4.1320030E-02;  1.0111182E+03;  4.0500304E-01;  9.2053184E+03;3;  1.2350735E+01;  0.0000000E+00; -2.5766256E+01;0;  9.8104411E-01;  9.9847363E+03;  0.0000000E+00; -4.0900993E-08;  1.0000000E+04;  0.0000000E+00;  9.9878047E+03;  5.3682899E-01;  0.0000000E+00;  4.4421512E-01;  5.3301611E+03;
  8.4003520E-01;  9.9999998E-03; -8.0029882E-02;2342;  2.5202725E-02;  0.0000000E+00; -3.1537030E-02;  1.0112158E+03;  4.0500295E-01;  9.2861533E+03;3;  1.1875926E+01;  0.0000000E+00; -2.1733229E+01;0;  9.4111878E-01;  9.9851064E+03;  0.0000000E+00; -4.5177863E-08;  1.0000000E+04;  0.0000000E+00;  9.9893691E+03;  5.2106547E-01;  0.0000000E+00;  4.2005330E-01;  4.5872852E+03;
  8.4003466E-01;  9.9999998E-03; -6.0020357E-02;2343;  2.4647700E-02;  0.0000000E+00; -2.2857012E-02;  1.0113007E+03;  4.0500277E-01;  9.3564277E+03;3;  1.1491974E+01;  0.0000000E+00; -1.7091686E+01;0;  9.0165931E-01;  9.9853818E+03;  0.0000000E+00; -4.9410133E-08;  1.0000000E+04;  0.0000000E+00;  9.9907754E+03;  5.0889975E-01;  0.0000000E+00;  3.9275956E-01;  3.9273677E+03;
  8.4003437E-01;  9.9999998E-03; -4.0012687E-02;2344;  2.4268012E-02;  0.0000000E+00; -1.4958519E-02;  1.0113678E+03;  4.0500268E-01;  9.4119951E+03;3;  1.1209599E+01;  0.0000000E+00; -1.1851457E+01;0;  8.6863577E-01;  9.9855723E+03;  0.0000000E+00; -3.2674901E-08;  1.0000000E+04;  0.0000000E+00;  9.9919199E+03;  5.0030953E-01;  0.0000000E+00;  3.6832622E-01;  3.3946365E+03;
  8.4003413E-01;  9.9999998E-03; -2.0006113E-02;2345;  2.4046311E-02;  0.0000000E+00; -7.4279001E-03;  1.0114111E+03;  4.0500265E-01;  9.4478232E+03;3;  1.1036499E+01;  0.0000000E+00; -6.0846376E+00;0;  8.4685671E-01;  9.9856797E+03;  0.0000000E+00; -1.0052413E-08;  1.0000000E+04;  0.0000000E+00;  9.9926689E+03;  4.9520558E-01;  0.0000000E+00;  3.5165113E-01;  3.0468989E+03;
  8.6006021E-01;  9.9999998E-03; -1.8009970E-01;2368;  4.5129646E-02;  0.0000000E+00; -7.8830585E-02;  1.0103186E+03;  4.0484238E-01;  8.5414316E+03;3;  2.1911829E+01;  0.0000000E+00; -3.1186531E+01;0;  9.3508583E-01;  9.9844561E+03;  0.0000000E+00; -1.1991478E-06;  1.0000000E+04;  0.0000000E+00;  9.9802148E+03;  5.5335712E-01;  0.0000000E+00;  3.8172871E-01;  9.1467773E+03;
  8.6005747E-01;  9.9999998E-03; -1.6008489E-01;2369;  4.2956434E-02;  0.0000000E+00; -7.0776589E-02;  1.0104650E+03;  4.0484190E-01;  8.6626094E+03;3;  2.1083038E+01;  0.0000000E+00; -3.1632633E+01;0;  9.5425808E-01;  9.9850781E+03;  0.0000000E+00; -2.2505496E-06;  1.0000000E+04;  0.0000000E+00;  9.9825068E+03;  5.3147566E-01;  0.0000000E+00;  4.2278239E-01;  7.9649038E+03;
  8.6005515E-01;  9.9999998E-03; -1.4006972E-01;2370;  4.0996842E-02;  0.0000000E+00; -6.1094847E-02;  1.0106028E+03;  4.0484157E-01;  8.7766807E+03;3;  2.0229939E+01;  0.0000000E+00; -3.0549046E+01;0;  9.5328712E-01;  9.9856709E+03;  0.0000000E+00; -6.0396633E-07;  1.0000000E+04;  0.0000000E+00;  9.9846572E+03;  5.0957572E-01;  0.0000000E+00;  4.4371140E-01;  6.8759419E+03;
  8.6005324E-01;  9.9999998E-03; -1.2005431E-01;2371;  3.9333362E-02;  0.0000000E+00; -5.0324563E-02;  1.0107238E+03;  4.0484139E-01;  8.8767393E+03;3;  1.9407705E+01;  0.0000000E+00; -2.8119555E+01;0;  9.3394768E-01;  9.9861895E+03;  0.0000000E+00;  1.4788056E-07;  1.0000000E+04;  0.0000000E+00;  9.9865303E+03;  4.8933703E-01;  0.0000000E+00;  4.4461069E-01;  5.9488643E+03;
  8.6005181E-01;  9.9999998E-03; -1.0004041E-01;2372;  3.7982538E-02;  0.0000000E+00; -3.9877720E-02;  1.0108289E+03;  4.0484121E-01;  8.9637734E+03;3;  1.8654819E+01;  0.0000000E+00; -2.4852747E+01;0;  9.0210223E-01;  9.9866230E+03;  0.0000000E+00;  1.9420879E-07;  1.0000000E+04;  0.0000000E+00;  9.9881855E+03;  4.7179461E-01;  0.0000000E+00;  4.3030766E-01;  5.1503276E+03;
  8.6005074E-01;  9.9999998E-03; -8.0028847E-02;2373;  3.6929458E-02;  0.0000000E+00; -3.0430956E-02;  1.0109224E+03;  4.0484110E-01;  9.0412354E+03;3;  1.7998638E+01;  0.0000000E+00; -2.0960056E+01;0;  8.6432743E-01;  9.9869668E+03;  0.0000000E+00;  4.7583374E-08;  1.0000000E+04;  0.0000000E+00;  9.9897002E+03;  4.5744520E-01;  0.0000000E+00;  4.0688220E-01;  4.4342363E+03;
  8.6005002E-01;  9.9999998E-03; -6.0019650E-02;2374;  3.6145587E-02;  0.0000000E+00; -2.2057179E-02;  1.0110037E+03;  4.0484098E-01;  9.1085332E+03;3;  1.7461033E+01;  0.0000000E+00; -1.6486658E+01;0;  8.2687461E-01;  9.9872188E+03;  0.0000000E+00; -4.1329091E-08;  1.0000000E+04;  0.0000000E+00;  9.9910596E+03;  4.4640851E-01;  0.0000000E+00;  3.8046607E-01;  3.7979985E+03;
  8.6004949E-01;  9.9999998E-03; -4.0012248E-02;2375;  3.5602815E-02;  0.0000000E+00; -1.4438156E-02;  1.0110682E+03;  4.0484086E-01;  9.1619180E+03;3;  1.7060152E+01;  0.0000000E+00; -1.1435214E+01;0;  7.9547250E-01;  9.9873936E+03;  0.0000000E+00; -4.1576108E-08;  1.0000000E+04;  0.0000000E+00;  9.9921670E+03;  4.3862459E-01;  0.0000000E+00;  3.5684788E-01;  3.2844729E+03;
  8.6004925E-01;  9.9999998E-03; -2.0005902E-02;2376;  3.5282560E-02;  0.0000000E+00; -7.1708946E-03;  1.0111097E+03;  4.0484083E-01;  9.1962578E+03;3;  1.6811983E+01;  0.0000000E+00; -5.8723226E+00;0;  7.7474415E-01;  9.9874941E+03;  0.0000000E+00; -1.3510480E-08;  1.0000000E+04;  0.0000000E+00;  9.9928896E+03;  4.3399933E-01;  0.0000000E+00;  3.4074482E-01;  2.9493752E+03;
  8.8007742E-01;  9.9999998E-03; -1.8009523E-01;2399;  5.8377396E-02;  0.0000000E+00; -7.5392649E-02;  1.0098992E+03;  4.0461001E-01;  8.1917178E+03;3;  2.8737164E+01;  0.0000000E+00; -2.9958944E+01;0;  8.3813667E-01;  9.9868027E+03;  0.0000000E+00; -1.7799271E-06;  1.0000000E+04;  0.0000000E+00;  9.9810469E+03;  4.7058561E-01;  0.0000000E+00;  3.6755106E-01;  8.7266563E+03;
  8.8007396E-01;  9.9999998E-03; -1.6008106E-01;2400;  5.5622831E-02;  0.0000000E+00; -6.7632981E-02;  1.0100409E+03;  4.0460962E-01;  8.3090107E+03;3;  2.7666574E+01;  0.0000000E+00; -3.0299129E+01;0;  8.5483658E-01;  9.9874131E+03;  0.0000000E+00; -3.5769779E-06;  1.0000000E+04;  0.0000000E+00;  9.9832520E+03;  4.4880655E-01;  0.0000000E+00;  4.0603003E-01;  7.5947104E+03;
  8.8007098E-01;  9.9999998E-03; -1.4006655E-01;2401;  5.3157296E-02;  0.0000000E+00; -5.8328576E-02;  1.0101729E+03;  4.0460941E-01;  8.4182139E+03;3;  2.6586582E+01;  0.0000000E+00; -2.9194937E+01;0;  8.5349715E-01;  9.9879766E+03;  0.0000000E+00; -1.0645921E-06;  1.0000000E+04;  0.0000000E+00;  9.9853145E+03;  4.2795867E-01;  0.0000000E+00;  4.2553845E-01;  6.5559526E+03;
  8.8006866E-01;  9.9999998E-03; -1.2005181E-01;2402;  5.1075842E-02;  0.0000000E+00; -4.8002575E-02;  1.0102877E+03;  4.0460920E-01;  8.5132129E+03;3;  2.5557930E+01;  0.0000000E+00; -2.6827299E+01;0;  8.3536327E-01;  9.9884600E+03;  0.0000000E+00;  6.9961899E-08;  1.0000000E+04;  0.0000000E+00;  9.9871064E+03;  4.0928078E-01;  0.0000000E+00;  4.2608246E-01;  5.6735571E+03;
  8.8006681E-01;  9.9999998E-03; -1.0003852E-01;2403;  4.9389035E-02;  0.0000000E+00; -3.8007803E-02;  1.0103873E+03;  4.0460899E-01;  8.5956826E+03;3;  2.4620197E+01;  0.0000000E+00; -2.3683432E+01;0;  8.0558759E-01;  9.9888564E+03;  0.0000000E+00;  1.7916256E-07;  1.0000000E+04;  0.0000000E+00;  9.9886885E+03;  3.9341217E-01;  0.0000000E+00;  4.1217542E-01;  4.9137822E+03;
  8.8006550E-01;  9.9999998E-03; -8.0027483E-02;2404;  4.8072267E-02;  0.0000000E+00; -2.8987782E-02;  1.0104758E+03;  4.0460894E-01;  8.6689785E+03;3;  2.3802187E+01;  0.0000000E+00; -1.9961388E+01;0;  7.7017599E-01;  9.9891670E+03;  0.0000000E+00;  1.2444944E-09;  1.0000000E+04;  0.0000000E+00;  9.9901387E+03;  3.8058367E-01;  0.0000000E+00;  3.8959232E-01;  4.2322573E+03;
  8.8006461E-01;  9.9999998E-03; -6.0018715E-02;2405;  4.7088187E-02;  0.0000000E+00; -2.1004919E-02;  1.0105530E+03;  4.0460888E-01;  8.7328037E+03;3;  2.3129112E+01;  0.0000000E+00; -1.5697536E+01;0;  7.3498356E-01;  9.9893955E+03;  0.0000000E+00; -9.7364243E-08;  1.0000000E+04;  0.0000000E+00;  9.9914414E+03;  3.7077695E-01;  0.0000000E+00;  3.6420661E-01;  3.6268123E+03;
  8.8006395E-01;  9.9999998E-03; -4.0011663E-02;2406;  4.6403319E-02;  0.0000000E+00; -1.3748067E-02;  1.0106141E+03;  4.0460879E-01;  8.7833115E+03;3;  2.2624844E+01;  0.0000000E+00; -1.0887713E+01;0;  7.0543867E-01;  9.9895557E+03;  0.0000000E+00; -7.1009190E-08;  1.0000000E+04;  0.0000000E+00;  9.9924961E+03;  3.6387917E-01;  0.0000000E+00;  3.4155950E-01;  3.1384214E+03;
  8.8006365E-01;  9.9999998E-03; -2.0005619E-02;2407;  4.5997445E-02;  0.0000000E+00; -6.8281926E-03;  1.0106534E+03;  4.0460867E-01;  8.8159639E+03;3;  2.2311298E+01;  0.0000000E+00; -5.5914693E+00;0;  6.8592691E-01;  9.9896465E+03;  0.0000000E+00; -2.3057245E-08;  1.0000000E+04;  0.0000000E+00;  9.9931855E+03;  3.5978362E-01;  0.0000000E+00;  3.2614329E-01;  2.8199290E+03;
  9.0009230E-01;  9.9999998E-03; -1.8008980E-01;2430;  6.9848724E-02;  0.0000000E+00; -7.1206525E-02;  1.0093669E+03;  4.0431997E-01;  7.7482065E+03;3;  3.4717312E+01;  0.0000000E+00; -2.8442041E+01;0;  7.2185618E-01;  9.9895918E+03;  0.0000000E+00; -4.2326233E-06;  1.0000000E+04;  0.0000000E+00;  9.9820605E+03;  3.7195554E-01;  0.0000000E+00;  3.4990063E-01;  8.2137305E+03;
  9.0008819E-01;  9.9999998E-03; -1.6007644E-01;2431;  6.6573411E-02;  0.0000000E+00; -6.3836865E-02;  1.0095029E+03;  4.0431964E-01;  7.8606201E+03;3;  3.3421715E+01;  0.0000000E+00; -2.8683842E+01;0;  7.3579788E-01;  9.9901963E+03;  0.0000000E+00; -6.1179817E-06;  1.0000000E+04;  0.0000000E+00;  9.9841602E+03;  3.5017672E-01;  0.0000000E+00;  3.8562116E-01;  7.1452378E+03;
  9.0008467E-01;  9.9999998E-03; -1.4006272E-01;2432;  6.3656919E-02;  0.0000000E+00; -5.5005614E-02;  1.0096279E+03;  4.0431949E-01;  7.9640601E+03;3;  3.2132885E+01;  0.0000000E+00; -2.7571648E+01;0;  7.3416424E-01;  9.9907256E+03;  0.0000000E+00; -2.3751275E-06;  1.0000000E+04;  0.0000000E+00;  9.9861123E+03;  3.3053505E-01;  0.0000000E+00;  4.0362918E-01;  6.1690142E+03;
  9.0008187E-01;  9.9999998E-03; -1.2004881E-01;2433;  6.1201066E-02;  0.0000000E+00; -4.5220565E-02;  1.0097351E+03;  4.0431929E-01;  8.0527085E+03;3;  3.0916128E+01;  0.0000000E+00; -2.5284685E+01;0;  7.1755350E-01;  9.9911660E+03;  0.0000000E+00; -5.6514983E-07;  1.0000000E+04;  0.0000000E+00;  9.9878018E+03;  3.1370091E-01;  0.0000000E+00;  4.0385261E-01;  5.3416245E+03;
  9.0007973E-01;  9.9999998E-03; -1.0003626E-01;2434;  5.9209596E-02;  0.0000000E+00; -3.5767026E-02;  1.0098282E+03;  4.0431908E-01;  8.1297222E+03;3;  2.9809668E+01;  0.0000000E+00; -2.2287088E+01;0;  6.9029307E-01;  9.9915186E+03;  0.0000000E+00; -1.8242319E-07;  1.0000000E+04;  0.0000000E+00;  9.9892988E+03;  2.9982767E-01;  0.0000000E+00;  3.9046538E-01;  4.6292686E+03;
  9.0007818E-01;  9.9999998E-03; -8.0025852E-02;2435;  5.7649337E-02;  0.0000000E+00; -2.7254125E-02;  1.0099106E+03;  4.0431902E-01;  8.1979590E+03;3;  2.8844658E+01;  0.0000000E+00; -1.8765022E+01;0;  6.5772128E-01;  9.9917910E+03;  0.0000000E+00; -2.3148355E-07;  1.0000000E+04;  0.0000000E+00;  9.9906660E+03;  2.8882268E-01;  0.0000000E+00;  3.6889860E-01;  3.9899092E+03;
  9.0007704E-01;  9.9999998E-03; -6.0017589E-02;2436;  5.6478176E-02;  0.0000000E+00; -1.9736415E-02;  1.0099826E+03;  4.0431899E-01;  8.2574199E+03;3;  2.8048777E+01;  0.0000000E+00; -1.4747903E+01;0;  6.2523055E-01;  9.9919912E+03;  0.0000000E+00; -2.3174698E-07;  1.0000000E+04;  0.0000000E+00;  9.9918945E+03;  2.8049901E-01;  0.0000000E+00;  3.4473151E-01;  3.4220010E+03;
  9.0007633E-01;  9.9999998E-03; -4.0010959E-02;2437;  5.5660568E-02;  0.0000000E+00; -1.2913516E-02;  1.0100397E+03;  4.0431890E-01;  8.3046533E+03;3;  2.7448221E+01;  0.0000000E+00; -1.0226200E+01;0;  5.9790337E-01;  9.9921289E+03;  0.0000000E+00; -1.3723037E-07;  1.0000000E+04;  0.0000000E+00;  9.9928877E+03;  2.7467701E-01;  0.0000000E+00;  3.2322639E-01;  2.9642617E+03;
  9.0007591E-01;  9.9999998E-03; -2.0005280E-02;2438;  5.5174727E-02;  0.0000000E+00; -6.4127059E-03;  1.0100764E+03;  4.0431893E-01;  8.3350244E+03;3;  2.7073931E+01;  0.0000000E+00; -5.2512484E+00;0;  5.7984519E-01;  9.9922090E+03;  0.0000000E+00; -3.7590961E-08;  1.0000000E+04;  0.0000000E+00;  9.9935410E+03;  2.7122965E-01;  0.0000000E+00;  3.0861554E-01;  2.6660293E+03;
  9.2010230E-01;  9.9999998E-03; -1.8008363E-01;2461;  7.7514291E-02;  0.0000000E+00; -6.6417024E-02;  1.0087499E+03;  4.0398702E-01;  7.2337520E+03;3;  3.8749813E+01;  0.0000000E+00; -2.6673805E+01;0;  5.9314275E-01;  9.9926631E+03;  0.0000000E+00; -7.6939368E-06;  1.0000000E+04;  0.0000000E+00;  9.9832314E+03;  2.6382574E-01;  0.0000000E+00;  3.2931700E-01;  7.6226440E+03;
  9.2009711E-01;  9.9999998E-03; -1.6007121E-01;2462;  7.3342904E-02;  0.0000000E+00; -5.9502605E-02;  1.0088785E+03;  4.0398681E-01;  7.3400933E+03;3;  3.6996166E+01;  0.0000000E+00; -2.6808701E+01;0;  6.0471797E-01;  9.9932510E+03;  0.0000000E+00; -8.6581749E-06;  1.0000000E+04;  0.0000000E+00;  9.9851992E+03;  2.4254952E-01;  0.0000000E+00;  3.6216843E-01;  6.6294771E+03;
  9.2009282E-01;  9.9999998E-03; -1.4005841E-01;2463;  6.9773950E-02;  0.0000000E+00; -5.1225610E-02;  1.0089943E+03;  4.0398660E-01;  7.4357900E+03;3;  3.5374550E+01;  0.0000000E+00; -2.5698431E+01;0;  6.0337418E-01;  9.9937344E+03;  0.0000000E+00; -3.7435475E-06;  1.0000000E+04;  0.0000000E+00;  9.9870215E+03;  2.2470815E-01;  0.0000000E+00;  3.7866604E-01;  5.7265840E+03;
  9.2008942E-01;  9.9999998E-03; -1.2004545E-01;2464;  6.6791154E-02;  0.0000000E+00; -4.2079452E-02;  1.0090925E+03;  4.0398642E-01;  7.5170977E+03;3;  3.3888065E+01;  0.0000000E+00; -2.3515400E+01;0;  5.8895862E-01;  9.9941162E+03;  0.0000000E+00; -1.3205481E-06;  1.0000000E+04;  0.0000000E+00;  9.9885947E+03;  2.1030135E-01;  0.0000000E+00;  3.7865725E-01;  4.9632593E+03;
  9.2008674E-01;  9.9999998E-03; -1.0003380E-01;2465;  6.4328209E-02;  0.0000000E+00; -3.3269681E-02;  1.0091775E+03;  4.0398630E-01;  7.5872686E+03;3;  3.2570030E+01;  0.0000000E+00; -2.0690538E+01;0;  5.6490427E-01;  9.9944082E+03;  0.0000000E+00; -6.2311187E-07;  1.0000000E+04;  0.0000000E+00;  9.9899844E+03;  1.9895381E-01;  0.0000000E+00;  3.6595047E-01;  4.3059902E+03;
  9.2008466E-01;  9.9999998E-03; -8.0024138E-02;2466;  6.2350616E-02;  0.0000000E+00; -2.5359560E-02;  1.0092524E+03;  4.0398622E-01;  7.6492588E+03;3;  3.1397543E+01;  0.0000000E+00; -1.7399582E+01;0;  5.3582633E-01;  9.9946270E+03;  0.0000000E+00; -4.7469675E-07;  1.0000000E+04;  0.0000000E+00;  9.9912559E+03;  1.9022857E-01;  0.0000000E+00;  3.4559777E-01;  3.7155605E+03;
  9.2008317E-01;  9.9999998E-03; -6.0016476E-02;2467;  6.0847268E-02;  0.0000000E+00; -1.8380782E-02;  1.0093181E+03;  4.0398613E-01;  7.7035635E+03;3;  3.0448324E+01;  0.0000000E+00; -1.3663023E+01;0;  5.0660801E-01;  9.9947852E+03;  0.0000000E+00; -3.3948092E-07;  1.0000000E+04;  0.0000000E+00;  9.9924033E+03;  1.8375877E-01;  0.0000000E+00;  3.2284924E-01;  3.1911438E+03;
  9.2008215E-01;  9.9999998E-03; -4.0010296E-02;2468;  5.9788778E-02;  0.0000000E+00; -1.2037391E-02;  1.0093700E+03;  4.0398616E-01;  7.7464341E+03;3;  2.9753160E+01;  0.0000000E+00; -9.4686880E+00;0;  4.8194206E-01;  9.9948936E+03;  0.0000000E+00; -1.7642354E-07;  1.0000000E+04;  0.0000000E+00;  9.9933281E+03;  1.7928816E-01;  0.0000000E+00;  3.0265388E-01;  2.7688630E+03;
  9.2008156E-01;  9.9999998E-03; -2.0004973E-02;2469;  5.9164099E-02;  0.0000000E+00; -5.9814025E-03;  1.0094036E+03;  4.0398604E-01;  7.7742271E+03;3;  2.9324860E+01;  0.0000000E+00; -4.8601813E+00;0;  4.6561909E-01;  9.9949531E+03;  0.0000000E+00; -4.6079357E-08;  1.0000000E+04;  0.0000000E+00;  9.9939326E+03;  1.7666014E-01;  0.0000000E+00;  2.8895897E-01;  2.4940417E+03;
  9.4010478E-01;  9.9999998E-03; -1.8007706E-01;2492;  7.9121895E-02;  0.0000000E+00; -6.1261412E-02;  1.0080667E+03;  4.0362722E-01;  6.6640249E+03;3;  3.9437561E+01;  0.0000000E+00; -2.4738596E+01;0;  4.6615303E-01;  9.9956572E+03;  0.0000000E+00; -9.3930339E-06;  1.0000000E+04;  0.0000000E+00;  9.9845107E+03;  1.5947850E-01;  0.0000000E+00;  3.0667454E-01;  6.9744141E+03;
  9.4009900E-01;  9.9999998E-03; -1.6006564E-01;2493;  7.4585751E-02;  0.0000000E+00; -5.4826163E-02;  1.0081863E+03;  4.0362701E-01;  6.7628032E+03;3;  3.7593185E+01;  0.0000000E+00; -2.4755880E+01;0;  4.7604948E-01;  9.9962119E+03;  0.0000000E+00; -9.0300518E-06;  1.0000000E+04;  0.0000000E+00;  9.9863330E+03;  1.3946933E-01;  0.0000000E+00;  3.3658016E-01;  6.0651597E+03;
  9.4009435E-01;  9.9999998E-03; -1.4005385E-01;2494;  7.0771538E-02;  0.0000000E+00; -4.7157444E-02;  1.0082916E+03;  4.0362686E-01;  6.8498613E+03;3;  3.5909058E+01;  0.0000000E+00; -2.3655020E+01;0;  4.7562671E-01;  9.9966309E+03;  0.0000000E+00; -3.9409274E-06;  1.0000000E+04;  0.0000000E+00;  9.9880088E+03;  1.2405477E-01;  0.0000000E+00;  3.5157195E-01;  5.2432432E+03;
  9.4009060E-01;  9.9999998E-03; -1.2004193E-01;2495;  6.7590639E-02;  0.0000000E+00; -3.8721133E-02;  1.0083797E+03;  4.0362680E-01;  6.9226406E+03;3;  3.4369797E+01;  0.0000000E+00; -2.1594593E+01;0;  4.6397293E-01;  9.9969395E+03;  0.0000000E+00; -1.5429881E-06;  1.0000000E+04;  0.0000000E+00;  9.9894512E+03;  1.1256076E-01;  0.0000000E+00;  3.5141215E-01;  4.5504204E+03;
  9.4008768E-01;  9.9999998E-03; -1.0003124E-01;2496;  6.4982772E-02;  0.0000000E+00; -3.0620687E-02;  1.0084549E+03;  4.0362665E-01;  6.9847827E+03;3;  3.2998730E+01;  0.0000000E+00; -1.8963587E+01;0;  4.4364685E-01;  9.9971582E+03;  0.0000000E+00; -7.8381782E-07;  1.0000000E+04;  0.0000000E+00;  9.9907285E+03;  1.0411783E-01;  0.0000000E+00;  3.3952901E-01;  3.9539336E+03;
  9.4008541E-01;  9.9999998E-03; -8.0022402E-02;2497;  6.2899105E-02;  0.0000000E+00; -2.3362992E-02;  1.0085217E+03;  4.0362665E-01;  7.0399331E+03;3;  3.1810364E+01;  0.0000000E+00; -1.5924922E+01;0;  4.1854301E-01;  9.9973145E+03;  0.0000000E+00; -5.3141991E-07;  1.0000000E+04;  0.0000000E+00;  9.9918945E+03;  9.7974181E-02;  0.0000000E+00;  3.2056883E-01;  3.4176709E+03;
  9.4008380E-01;  9.9999998E-03; -6.0015365E-02;2498;  6.1311759E-02;  0.0000000E+00; -1.6953336E-02;  1.0085799E+03;  4.0362662E-01;  7.0879927E+03;3;  3.0835743E+01;  0.0000000E+00; -1.2485509E+01;0;  3.9301199E-01;  9.9974219E+03;  0.0000000E+00; -3.4152291E-07;  1.0000000E+04;  0.0000000E+00;  9.9929473E+03;  9.3598381E-02;  0.0000000E+00;  2.9941362E-01;  2.9413877E+03;
  9.4008267E-01;  9.9999998E-03; -4.0009648E-02;2499;  6.0202122E-02;  0.0000000E+00; -1.1113901E-02;  1.0086264E+03;  4.0362653E-01;  7.1264995E+03;3;  3.0119293E+01;  0.0000000E+00; -8.6402559E+00;0;  3.7132657E-01;  9.9974922E+03;  0.0000000E+00; -1.5149314E-07;  1.0000000E+04;  0.0000000E+00;  9.9937979E+03;  9.0659484E-02;  0.0000000E+00;  2.8066710E-01;  2.5582505E+03;
  9.4008201E-01;  9.9999998E-03; -2.0004673E-02;2500;  5.9546787E-02;  0.0000000E+00; -5.5242795E-03;  1.0086562E+03;  4.0362653E-01;  7.1510215E+03;3;  2.9681166E+01;  0.0000000E+00; -4.4318399E+00;0;  3.5693753E-01;  9.9975342E+03;  0.0000000E+00; -3.5961403E-08;  1.0000000E+04;  0.0000000E+00;  9.9943506E+03;  8.8963702E-02;  0.0000000E+00;  2.6797381E-01;  2.3092009E+03;
  9.6010411E-01;  9.9999998E-03; -1.8007030E-01;2523;  7.8722060E-02;  0.0000000E+00; -5.5948894E-02;  1.0073358E+03;  4.0325630E-01;  6.0542246E+03;3;  3.9375095E+01;  0.0000000E+00; -2.2786797E+01;0;  3.5451576E-01;  9.9982129E+03;  0.0000000E+00; -7.1633185E-06;  1.0000000E+04;  0.0000000E+00;  9.9858350E+03;  7.1561597E-02;  0.0000000E+00;  2.8295416E-01;  6.2942549E+03;
  9.6009815E-01;  9.9999998E-03; -1.6005990E-01;2524;  7.4069284E-02;  0.0000000E+00; -5.0022110E-02;  1.0074458E+03;  4.0325606E-01;  6.1450347E+03;3;  3.7487633E+01;  0.0000000E+00; -2.2661285E+01;0;  3.6309791E-01;  9.9987275E+03;  0.0000000E+00; -6.2078675E-06;  1.0000000E+04;  0.0000000E+00;  9.9875059E+03;  5.3229228E-02;  0.0000000E+00;  3.0986866E-01;  5.4733755E+03;
  9.6009338E-01;  9.9999998E-03; -1.4004914E-01;2525;  7.0189312E-02;  0.0000000E+00; -4.2985346E-02;  1.0075402E+03;  4.0325603E-01;  6.2228574E+03;3;  3.5787022E+01;  0.0000000E+00; -2.1581764E+01;0;  3.6374497E-01;  9.9990791E+03;  0.0000000E+00; -2.6032840E-06;  1.0000000E+04;  0.0000000E+00;  9.9890293E+03;  4.0389813E-02;  0.0000000E+00;  3.2335517E-01;  4.7359126E+03;
  9.6008956E-01;  9.9999998E-03; -1.2003830E-01;2526;  6.6974156E-02;  0.0000000E+00; -3.5283640E-02;  1.0076174E+03;  4.0325582E-01;  6.2867100E+03;3;  3.4251030E+01;  0.0000000E+00; -1.9649355E+01;0;  3.5488355E-01;  9.9993076E+03;  0.0000000E+00; -1.0664202E-06;  1.0000000E+04;  0.0000000E+00;  9.9903428E+03;  3.1785868E-02;  0.0000000E+00;  3.2309768E-01;  4.1165425E+03;
  9.6008658E-01;  9.9999998E-03; -1.0002859E-01;2527;  6.4342968E-02;  0.0000000E+00; -2.7897321E-02;  1.0076830E+03;  4.0325585E-01;  6.3408218E+03;3;  3.2872490E+01;  0.0000000E+00; -1.7204824E+01;0;  3.3828500E-01;  9.9994531E+03;  0.0000000E+00; -5.7733843E-07;  1.0000000E+04;  0.0000000E+00;  9.9914961E+03;  2.6143212E-02;  0.0000000E+00;  3.1214178E-01;  3.5838850E+03;
  9.6008426E-01;  9.9999998E-03; -8.0020539E-02;2528;  6.2239122E-02;  0.0000000E+00; -2.1278467E-02;  1.0077410E+03;  4.0325576E-01;  6.3886372E+03;3;  3.1683714E+01;  0.0000000E+00; -1.4410933E+01;0;  3.1717202E-01;  9.9995430E+03;  0.0000000E+00; -3.8956858E-07;  1.0000000E+04;  0.0000000E+00;  9.9925547E+03;  2.2462087E-02;  0.0000000E+00;  2.9470992E-01;  3.1050066E+03;
  9.6008265E-01;  9.9999998E-03; -6.0014118E-02;2529;  6.0645271E-02;  0.0000000E+00; -1.5432848E-02;  1.0077915E+03;  4.0325576E-01;  6.4303525E+03;3;  3.0707195E+01;  0.0000000E+00; -1.1271202E+01;0;  2.9536062E-01;  9.9996016E+03;  0.0000000E+00; -2.1780494E-07;  1.0000000E+04;  0.0000000E+00;  9.9935059E+03;  2.0080827E-02;  0.0000000E+00;  2.7527979E-01;  2.6798540E+03;
  9.6008152E-01;  9.9999998E-03; -4.0008880E-02;2530;  5.9536498E-02;  0.0000000E+00; -1.0111023E-02;  1.0078322E+03;  4.0325579E-01;  6.4639019E+03;3;  2.9981918E+01;  0.0000000E+00; -7.7833395E+00;0;  2.7668488E-01;  9.9996357E+03;  0.0000000E+00; -8.8815398E-08;  1.0000000E+04;  0.0000000E+00;  9.9942793E+03;  1.8605240E-02;  0.0000000E+00;  2.5807965E-01;  2.3382097E+03;
  9.6008092E-01;  9.9999998E-03; -2.0004306E-02;2531;  5.8883905E-02;  0.0000000E+00; -5.0240145E-03;  1.0078582E+03;  4.0325561E-01;  6.4853496E+03;3;  2.9537003E+01;  0.0000000E+00; -3.9858835E+00;0;  2.6424640E-01;  9.9996523E+03;  0.0000000E+00; -1.8865732E-08;  1.0000000E+04;  0.0000000E+00;  9.9947773E+03;  1.7803416E-02;  0.0000000E+00;  2.4644299E-01;  2.1163938E+03;
  9.8010200E-01;  9.9999998E-03; -1.8006356E-01;2554;  7.7423304E-02;  0.0000000E+00; -5.0727997E-02;  1.0065798E+03;  4.0288842E-01;  5.4230322E+03;3;  3.9052444E+01;  0.0000000E+00; -2.0929707E+01;0;  2.6571393E-01;  1.0000125E+04;  0.0000000E+00; -2.6141477E-06;  1.0000000E+04;  0.0000000E+00;  9.9871533E+03;  6.6046100E-03;  0.0000000E+00;  2.5910932E-01;  5.6096445E+03;
  9.8009592E-01;  9.9999998E-03; -1.6005418E-01;2555;  7.2723351E-02;  0.0000000E+00; -4.5296635E-02;  1.0066805E+03;  4.0288827E-01;  5.5060581E+03;3;  3.7128410E+01;  0.0000000E+00; -2.0699663E+01;0;  2.7274266E-01;  1.0000613E+04;  0.0000000E+00; -1.8419802E-06;  1.0000000E+04;  0.0000000E+00;  9.9886738E+03; -1.0260696E-02;  0.0000000E+00;  2.8300336E-01;  4.8770068E+03;
  9.8009109E-01;  9.9999998E-03; -1.4004447E-01;2556;  6.8814658E-02;  0.0000000E+00; -3.8881835E-02;  1.0067649E+03;  4.0288821E-01;  5.5756226E+03;3;  3.5394970E+01;  0.0000000E+00; -1.9599957E+01;0;  2.7397540E-01;  1.0000908E+04;  0.0000000E+00; -6.2160933E-07;  1.0000000E+04;  0.0000000E+00;  9.9900537E+03; -2.0995438E-02;  0.0000000E+00;  2.9497084E-01;  4.2227920E+03;
  9.8008728E-01;  9.9999998E-03; -1.2003470E-01;2557;  6.5593332E-02;  0.0000000E+00; -3.1897400E-02;  1.0068324E+03;  4.0288818E-01;  5.6312354E+03;3;  3.3836464E+01;  0.0000000E+00; -1.7764185E+01;0;  2.6733792E-01;  1.0001074E+04;  0.0000000E+00; -3.1606666E-07;  1.0000000E+04;  0.0000000E+00;  9.9912334E+03; -2.7295087E-02;  0.0000000E+00;  2.9463300E-01;  3.6758384E+03;
  9.8008436E-01;  9.9999998E-03; -1.0002595E-01;2558;  6.2972315E-02;  0.0000000E+00; -2.5208909E-02;  1.0068885E+03;  4.0288809E-01;  5.6775137E+03;3;  3.2456947E+01;  0.0000000E+00; -1.5490068E+01;0;  2.5393769E-01;  1.0001159E+04;  0.0000000E+00; -2.3009642E-07;  1.0000000E+04;  0.0000000E+00;  9.9922656E+03; -3.0728202E-02;  0.0000000E+00;  2.8466588E-01;  3.2069824E+03;
  9.8008215E-01;  9.9999998E-03; -8.0018699E-02;2559;  6.0897876E-02;  0.0000000E+00; -1.9227773E-02;  1.0069385E+03;  4.0288809E-01;  5.7187803E+03;3;  3.1277357E+01;  0.0000000E+00; -1.2920047E+01;0;  2.3638789E-01;  1.0001200E+04;  0.0000000E+00; -1.5228666E-07;  1.0000000E+04;  0.0000000E+00;  9.9932158E+03; -3.2466400E-02;  0.0000000E+00;  2.6885429E-01;  2.7864238E+03;
  9.8008060E-01;  9.9999998E-03; -6.0012884E-02;2560;  5.9340674E-02;  0.0000000E+00; -1.3947953E-02;  1.0069822E+03;  4.0288800E-01;  5.7547417E+03;3;  3.0294710E+01;  0.0000000E+00; -1.0082103E+01;0;  2.1797620E-01;  1.0001215E+04;  0.0000000E+00; -6.1762719E-08;  1.0000000E+04;  0.0000000E+00;  9.9940664E+03; -3.3264857E-02;  0.0000000E+00;  2.5124106E-01;  2.4136875E+03;
  9.8007953E-01;  9.9999998E-03; -4.0008120E-02;2561;  5.8256876E-02;  0.0000000E+00; -9.1316579E-03;  1.0070168E+03;  4.0288794E-01;  5.7833330E+03;3;  2.9556585E+01;  0.0000000E+00; -6.9481173E+00;0;  2.0208021E-01;  1.0001218E+04;  0.0000000E+00; -1.0845338E-08;  1.0000000E+04;  0.0000000E+00;  9.9947529E+03; -3.3570837E-02;  0.0000000E+00;  2.3565105E-01;  2.1146104E+03;
  9.8007900E-01;  9.9999998E-03; -2.0003941E-02;2562;  5.7618815E-02;  0.0000000E+00; -4.5324778E-03;  1.0070393E+03;  4.0288800E-01;  5.8018052E+03;3;  2.9087519E+01;  0.0000000E+00; -3.5498490E+00;0;  1.9145116E-01;  1.0001220E+04;  0.0000000E+00;  4.2827848E-09;  1.0000000E+04;  0.0000000E+00;  9.9951992E+03; -3.3653852E-02;  0.0000000E+00;  2.2510502E-01;  1.9206774E+03;
  1.0000991E+00;  9.9999998E-03; -1.8005714E-01;2585;  7.5698294E-02;  0.0000000E+00; -4.5804136E-02;  1.0058249E+03;  4.0253577E-01;  4.7922979E+03;3;  3.8679050E+01;  0.0000000E+00; -1.9281683E+01;0;  2.0074342E-01;  1.0001383E+04;  0.0000000E+00; -3.0875128E-06;  1.0000000E+04;  0.0000000E+00;  9.9883975E+03; -3.5310935E-02;  0.0000000E+00;  2.3605436E-01;  4.9481045E+03;
  1.0000931E+00;  9.9999998E-03; -1.6004878E-01;2586;  7.0951469E-02;  0.0000000E+00; -4.0904243E-02;  1.0059183E+03;  4.0253574E-01;  4.8691929E+03;3;  3.6672169E+01;  0.0000000E+00; -1.8950968E+01;0;  2.0548208E-01;  1.0001857E+04;  0.0000000E+00;  6.1852666E-07;  1.0000000E+04;  0.0000000E+00;  9.9897842E+03; -5.1351052E-02;  0.0000000E+00;  2.5683314E-01;  4.2987065E+03;
  1.0000882E+00;  9.9999998E-03; -1.4004008E-01;2587;  6.6966891E-02;  0.0000000E+00; -3.5083912E-02;  1.0059946E+03;  4.0253553E-01;  4.9318657E+03;3;  3.4834774E+01;  0.0000000E+00; -1.7830633E+01;0;  2.0630953E-01;  1.0002128E+04;  0.0000000E+00;  8.4977842E-08;  1.0000000E+04;  0.0000000E+00;  9.9910342E+03; -6.0913596E-02;  0.0000000E+00;  2.6722312E-01;  3.7218589E+03;
  1.0000844E+00;  9.9999998E-03; -1.2003137E-01;2588;  6.3747831E-02;  0.0000000E+00; -2.8810000E-02;  1.0060542E+03;  4.0253547E-01;  4.9809058E+03;3;  3.3234718E+01;  0.0000000E+00; -1.6091064E+01;0;  2.0089045E-01;  1.0002259E+04;  0.0000000E+00; -1.3242675E-07;  1.0000000E+04;  0.0000000E+00;  9.9920938E+03; -6.5885805E-02;  0.0000000E+00;  2.6677626E-01;  3.2422219E+03;
  1.0000815E+00;  9.9999998E-03; -1.0002354E-01;2589;  6.1181128E-02;  0.0000000E+00; -2.2785574E-02;  1.0061033E+03;  4.0253556E-01;  5.0213145E+03;3;  3.1831030E+01;  0.0000000E+00; -1.3989266E+01;0;  1.8980318E-01;  1.0002306E+04;  0.0000000E+00; -4.2764093E-08;  1.0000000E+04;  0.0000000E+00;  9.9930166E+03; -6.8014324E-02;  0.0000000E+00;  2.5781751E-01;  2.8339429E+03;
  1.0000795E+00;  9.9999998E-03; -8.0017015E-02;2590;  5.9191570E-02;  0.0000000E+00; -1.7368268E-02;  1.0061459E+03;  4.0253553E-01;  5.0564272E+03;3;  3.0619854E+01;  0.0000000E+00; -1.1646068E+01;0;  1.7510873E-01;  1.0002314E+04;  0.0000000E+00;  6.3237351E-08;  1.0000000E+04;  0.0000000E+00;  9.9938564E+03; -6.8573132E-02;  0.0000000E+00;  2.4368186E-01;  2.4702566E+03;
  1.0000781E+00;  9.9999998E-03; -6.0011771E-02;2591;  5.7709996E-02;  0.0000000E+00; -1.2571109E-02;  1.0061832E+03;  4.0253547E-01;  5.0870278E+03;3;  2.9628824E+01;  0.0000000E+00; -9.0328569E+00;0;  1.5956762E-01;  1.0002304E+04;  0.0000000E+00;  9.6024493E-08;  1.0000000E+04;  0.0000000E+00;  9.9946045E+03; -6.8380892E-02;  0.0000000E+00;  2.2794852E-01;  2.1495244E+03;
  1.0000771E+00;  9.9999998E-03; -4.0007442E-02;2592;  5.6678455E-02;  0.0000000E+00; -8.2184132E-03;  1.0062128E+03;  4.0253547E-01;  5.1114492E+03;3;  2.8900393E+01;  0.0000000E+00; -6.1946392E+00;0;  1.4607778E-01;  1.0002291E+04;  0.0000000E+00;  7.2202170E-08;  1.0000000E+04;  0.0000000E+00;  9.9952100E+03; -6.7937486E-02;  0.0000000E+00;  2.1401526E-01;  1.8929236E+03;
  1.0000765E+00;  9.9999998E-03; -2.0003617E-02;2593;  5.6063253E-02;  0.0000000E+00; -4.0743668E-03;  1.0062319E+03;  4.0253553E-01;  5.1271421E+03;3;  2.8444069E+01;  0.0000000E+00; -3.1555657E+00;0;  1.3703074E-01;  1.0002280E+04;  0.0000000E+00;  2.0638748E-08;  1.0000000E+04;  0.0000000E+00;  9.9956035E+03; -6.7553252E-02;  0.0000000E+00;  2.0458399E-01;  1.7267993E+03;
  1.0200958E+00;  9.9999998E-03; -1.8005113E-01;2616;  7.3786288E-02;  0.0000000E+00; -4.1170750E-02;  1.0050975E+03;  4.0220806E-01;  4.1837632E+03;3;  3.8195229E+01;  0.0000000E+00; -1.7689569E+01;0;  1.5636614E-01;  1.0002083E+04;  0.0000000E+00; -5.6751707E-04;  1.0000000E+04;  0.0000000E+00;  9.9895195E+03; -5.8363851E-02;  0.0000000E+00;  2.1472999E-01;  4.3342632E+03;
  1.0200897E+00;  9.9999998E-03; -1.6004373E-01;2617;  6.8929873E-02;  0.0000000E+00; -3.6774635E-02;  1.0051859E+03;  4.0220791E-01;  4.2563643E+03;3;  3.6063084E+01;  0.0000000E+00; -1.7318752E+01;0;  1.5797153E-01;  1.0002566E+04;  0.0000000E+00; -1.7803823E-05;  1.0000000E+04;  0.0000000E+00;  9.9907949E+03; -7.4116245E-02;  0.0000000E+00;  2.3208778E-01;  3.7585786E+03;
  1.0200849E+00;  9.9999998E-03; -1.4003600E-01;2618;  6.4870246E-02;  0.0000000E+00; -3.1567134E-02;  1.0052568E+03;  4.0220788E-01;  4.3144844E+03;3;  3.4157902E+01;  0.0000000E+00; -1.6230902E+01;0;  1.5714246E-01;  1.0002839E+04;  0.0000000E+00; -2.2026277E-06;  1.0000000E+04;  0.0000000E+00;  9.9919355E+03; -8.3607078E-02;  0.0000000E+00;  2.4074954E-01;  3.2492864E+03;
  1.0200812E+00;  9.9999998E-03; -1.2002829E-01;2619;  6.1637677E-02;  0.0000000E+00; -2.5948687E-02;  1.0053115E+03;  4.0220782E-01;  4.3593960E+03;3;  3.2500671E+01;  0.0000000E+00; -1.4582739E+01;0;  1.5172049E-01;  1.0002965E+04;  0.0000000E+00; -1.2278664E-06;  1.0000000E+04;  0.0000000E+00;  9.9928955E+03; -8.8374861E-02;  0.0000000E+00;  2.4009535E-01;  2.8283181E+03;
  1.0200783E+00;  9.9999998E-03; -1.0002133E-01;2620;  5.9113994E-02;  0.0000000E+00; -2.0516636E-02;  1.0053552E+03;  4.0220779E-01;  4.3952070E+03;3;  3.1077141E+01;  0.0000000E+00; -1.2588526E+01;0;  1.4191553E-01;  1.0003008E+04;  0.0000000E+00; -2.2528569E-07;  1.0000000E+04;  0.0000000E+00;  9.9937256E+03; -9.0194337E-02;  0.0000000E+00;  2.3210987E-01;  2.4743818E+03;
  1.0200764E+00;  9.9999998E-03; -8.0015518E-02;2621;  5.7186186E-02;  0.0000000E+00; -1.5642410E-02;  1.0053925E+03;  4.0220788E-01;  4.4258325E+03;3;  2.9872860E+01;  0.0000000E+00; -1.0383026E+01;0;  1.2928361E-01;  1.0003011E+04;  0.0000000E+00;  2.1939331E-07;  1.0000000E+04;  0.0000000E+00;  9.9944658E+03; -9.0382181E-02;  0.0000000E+00;  2.1966580E-01;  2.1637456E+03;
  1.0200750E+00;  9.9999998E-03; -6.0010798E-02;2622;  5.5756282E-02;  0.0000000E+00; -1.1326660E-02;  1.0054246E+03;  4.0220779E-01;  4.4522505E+03;3;  2.8886860E+01;  0.0000000E+00; -8.0087471E+00;0;  1.1603751E-01;  1.0002992E+04;  0.0000000E+00;  2.6118408E-07;  1.0000000E+04;  0.0000000E+00;  9.9951191E+03; -8.9813881E-02;  0.0000000E+00;  2.0585139E-01;  1.8928585E+03;
  1.0200741E+00;  9.9999998E-03; -4.0006846E-02;2623;  5.4766197E-02;  0.0000000E+00; -7.3931240E-03;  1.0054496E+03;  4.0220782E-01;  4.4727979E+03;3;  2.8142511E+01;  0.0000000E+00; -5.4564986E+00;0;  1.0456128E-01;  1.0002970E+04;  0.0000000E+00;  1.5147771E-07;  1.0000000E+04;  0.0000000E+00;  9.9956436E+03; -8.9054130E-02;  0.0000000E+00;  1.9361541E-01;  1.6774708E+03;
  1.0200735E+00;  9.9999998E-03; -2.0003326E-02;2624;  5.4179318E-02;  0.0000000E+00; -3.6593361E-03;  1.0054661E+03;  4.0220782E-01;  4.4863003E+03;3;  2.7684216E+01;  0.0000000E+00; -2.7669683E+00;0;  9.6861862E-02;  1.0002953E+04;  0.0000000E+00;  4.0568867E-08;  1.0000000E+04;  0.0000000E+00;  9.9959824E+03; -8.8462539E-02;  0.0000000E+00;  1.8532440E-01;  1.5384047E+03;
  1.0400923E+00;  9.9999998E-03; -1.8004578E-01;2647;  7.1672074E-02;  0.0000000E+00; -3.6967743E-02;  1.0044200E+03;  4.0191171E-01;  3.6160789E+03;3;  3.7668789E+01;  0.0000000E+00; -1.6219290E+01;0;  1.2789567E-01;  1.0002381E+04;  0.0000000E+00; -4.1510258E-03;  1.0000000E+04;  0.0000000E+00;  9.9904746E+03; -6.8104312E-02;  0.0000000E+00;  1.9599998E-01;  3.7848374E+03;
  1.0400860E+00;  9.9999998E-03; -1.6003899E-01;2648;  6.6629082E-02;  0.0000000E+00; -3.2883365E-02;  1.0045042E+03;  4.0191159E-01;  3.6849368E+03;3;  3.5390514E+01;  0.0000000E+00; -1.5742406E+01;0;  1.2590137E-01;  1.0002863E+04;  0.0000000E+00; -3.5529921E-04;  1.0000000E+04;  0.0000000E+00;  9.9916680E+03; -8.3558358E-02;  0.0000000E+00;  2.0945972E-01;  3.2717864E+03;
  1.0400811E+00;  9.9999998E-03; -1.4003225E-01;2649;  6.2521651E-02;  0.0000000E+00; -2.8321395E-02;  1.0045730E+03;  4.0191150E-01;  3.7412129E+03;3;  3.3363525E+01;  0.0000000E+00; -1.4748746E+01;0;  1.2221454E-01;  1.0003172E+04;  0.0000000E+00; -8.7972639E-06;  1.0000000E+04;  0.0000000E+00;  9.9927344E+03; -9.3856573E-02;  0.0000000E+00;  2.1607111E-01;  2.8180374E+03;
  1.0400774E+00;  9.9999998E-03; -1.2002547E-01;2650;  5.9259217E-02;  0.0000000E+00; -2.3320675E-02;  1.0046256E+03;  4.0191147E-01;  3.7842249E+03;3;  3.1647903E+01;  0.0000000E+00; -1.3190719E+01;0;  1.1554175E-01;  1.0003327E+04;  0.0000000E+00; -4.2257302E-06;  1.0000000E+04;  0.0000000E+00;  9.9936240E+03; -9.9472784E-02;  0.0000000E+00;  2.1501453E-01;  2.4447983E+03;
  1.0400747E+00;  9.9999998E-03; -1.0001935E-01;2651;  5.6761134E-02;  0.0000000E+00; -1.8485846E-02;  1.0046664E+03;  4.0191144E-01;  3.8175808E+03;3;  3.0199877E+01;  0.0000000E+00; -1.1309648E+01;0;  1.0599201E-01;  1.0003391E+04;  0.0000000E+00; -9.5837856E-07;  1.0000000E+04;  0.0000000E+00;  9.9943760E+03; -1.0189385E-01;  0.0000000E+00;  2.0788586E-01;  2.1365605E+03;
  1.0400728E+00;  9.9999998E-03; -8.0014192E-02;2652;  5.4887023E-02;  0.0000000E+00; -1.4114425E-02;  1.0046998E+03;  4.0191144E-01;  3.8449873E+03;3;  2.8987518E+01;  0.0000000E+00; -9.2482452E+00;0;  9.4666056E-02;  1.0003402E+04;  0.0000000E+00;  3.2177255E-07;  1.0000000E+04;  0.0000000E+00;  9.9950313E+03; -1.0242244E-01;  0.0000000E+00;  1.9708849E-01;  1.8728678E+03;
  1.0400715E+00;  9.9999998E-03; -6.0009930E-02;2653;  5.3515617E-02;  0.0000000E+00; -1.0221746E-02;  1.0047277E+03;  4.0191147E-01;  3.8678091E+03;3;  2.8014011E+01;  0.0000000E+00; -7.0698819E+00;0;  8.3186589E-02;  1.0003391E+04;  0.0000000E+00;  4.7512805E-07;  1.0000000E+04;  0.0000000E+00;  9.9955977E+03; -1.0200766E-01;  0.0000000E+00;  1.8519425E-01;  1.6477904E+03;
  1.0400707E+00;  9.9999998E-03; -4.0006306E-02;2654;  5.2570265E-02;  0.0000000E+00; -6.6625513E-03;  1.0047495E+03;  4.0191141E-01;  3.8856570E+03;3;  2.7275640E+01;  0.0000000E+00; -4.7837033E+00;0;  7.3377185E-02;  1.0003373E+04;  0.0000000E+00;  2.6679515E-07;  1.0000000E+04;  0.0000000E+00;  9.9960498E+03; -1.0130190E-01;  0.0000000E+00;  1.7467909E-01;  1.4710530E+03;
  1.0400702E+00;  9.9999998E-03; -2.0003065E-02;2655;  5.2012164E-02;  0.0000000E+00; -3.2936712E-03;  1.0047632E+03;  4.0191147E-01;  3.8968730E+03;3;  2.6826355E+01;  0.0000000E+00; -2.4118142E+00;0;  6.6827342E-02;  1.0003361E+04;  0.0000000E+00;  7.3392819E-08;  1.0000000E+04;  0.0000000E+00;  9.9963359E+03; -1.0072391E-01;  0.0000000E+00;  1.6755125E-01;  1.3575814E+03;
  1.0600885E+00;  9.9999998E-03; -1.8004091E-01;2678;  6.9379099E-02;  0.0000000E+00; -3.3025589E-02;  1.0038082E+03;  4.0165067E-01;  3.1021287E+03;3;  3.7023132E+01;  0.0000000E+00; -1.4782124E+01;0;  1.1109837E-01;  1.0002410E+04;  0.0000000E+00; -1.6011406E-02;  1.0000000E+04;  0.0000000E+00;  9.9912471E+03; -6.9341056E-02;  0.0000000E+00;  1.8043943E-01;  3.3050591E+03;
  1.0600822E+00;  9.9999998E-03; -1.6003464E-01;2679;  6.4207032E-02;  0.0000000E+00; -2.9269157E-02;  1.0038879E+03;  4.0165064E-01;  3.1670989E+03;3;  3.4607094E+01;  0.0000000E+00; -1.4245017E+01;0;  1.0589045E-01;  1.0002864E+04;  0.0000000E+00; -2.2989195E-03;  1.0000000E+04;  0.0000000E+00;  9.9923848E+03; -8.3709694E-02;  0.0000000E+00;  1.8960014E-01;  2.8459375E+03;
  1.0600772E+00;  9.9999998E-03; -1.4002876E-01;2680;  5.9987709E-02;  0.0000000E+00; -2.5246926E-02;  1.0039565E+03;  4.0165061E-01;  3.2230376E+03;3;  3.2483826E+01;  0.0000000E+00; -1.3275922E+01;0;  9.8598823E-02;  1.0003211E+04;  0.0000000E+00; -5.3220603E-05;  1.0000000E+04;  0.0000000E+00;  9.9934053E+03; -9.5101386E-02;  0.0000000E+00;  1.9370021E-01;  2.4368049E+03;
  1.0600734E+00;  9.9999998E-03; -1.2002293E-01;2681;  5.6701284E-02;  0.0000000E+00; -2.0943012E-02;  1.0040100E+03;  4.0165058E-01;  3.2665454E+03;3;  3.0694675E+01;  0.0000000E+00; -1.1885581E+01;0;  8.9537568E-02;  1.0003424E+04;  0.0000000E+00; -1.0105625E-05;  1.0000000E+04;  0.0000000E+00;  9.9942578E+03; -1.0239487E-01;  0.0000000E+00;  1.9193244E-01;  2.1000420E+03;
  1.0600708E+00;  9.9999998E-03; -1.0001760E-01;2682;  5.4208402E-02;  0.0000000E+00; -1.6686356E-02;  1.0040507E+03;  4.0165052E-01;  3.2996616E+03;3;  2.9214710E+01;  0.0000000E+00; -1.0157774E+01;0;  7.9239048E-02;  1.0003531E+04;  0.0000000E+00; -2.8429279E-06;  1.0000000E+04;  0.0000000E+00;  9.9949600E+03; -1.0618373E-01;  0.0000000E+00;  1.8542278E-01;  1.8275085E+03;
  1.0600688E+00;  9.9999998E-03; -8.0013014E-02;2683;  5.2378066E-02;  0.0000000E+00; -1.2779943E-02;  1.0040823E+03;  4.0165055E-01;  3.3254941E+03;3;  2.8018820E+01;  0.0000000E+00; -8.2561512E+00;0;  6.8456516E-02;  1.0003576E+04;  0.0000000E+00;  1.3280496E-07;  1.0000000E+04;  0.0000000E+00;  9.9955488E+03; -1.0765806E-01;  0.0000000E+00;  1.7611457E-01;  1.6026688E+03;
  1.0600675E+00;  9.9999998E-03; -6.0009148E-02;2684;  5.1052041E-02;  0.0000000E+00; -9.2514539E-03;  1.0041074E+03;  4.0165058E-01;  3.3458879E+03;3;  2.7064056E+01;  0.0000000E+00; -6.2405157E+00;0;  5.8224246E-02;  1.0003585E+04;  0.0000000E+00;  6.7091901E-07;  1.0000000E+04;  0.0000000E+00;  9.9960381E+03; -1.0783628E-01;  0.0000000E+00;  1.6606052E-01;  1.4173931E+03;
  1.0600668E+00;  9.9999998E-03; -4.0005822E-02;2685;  5.0149299E-02;  0.0000000E+00; -6.0252026E-03;  1.0041263E+03;  4.0165055E-01;  3.3613291E+03;3;  2.6360806E+01;  0.0000000E+00; -4.1793160E+00;0;  4.9759395E-02;  1.0003582E+04;  0.0000000E+00;  4.1541557E-07;  1.0000000E+04;  0.0000000E+00;  9.9964189E+03; -1.0748108E-01;  0.0000000E+00;  1.5724048E-01;  1.2752487E+03;
  1.0600663E+00;  9.9999998E-03; -2.0002831E-02;2686;  4.9617272E-02;  0.0000000E+00; -2.9736154E-03;  1.0041381E+03;  4.0165049E-01;  3.3709431E+03;3;  2.5913433E+01;  0.0000000E+00; -2.0937214E+00;0;  4.4186249E-02;  1.0003574E+04;  0.0000000E+00;  1.1303575E-07;  1.0000000E+04;  0.0000000E+00;  9.9966602E+03; -1.0708869E-01;  0.0000000E+00;  1.5127493E-01;  1.1850496E+03;
  1.0800848E+00;  9.9999998E-03; -1.8003656E-01;2709;  6.7203857E-02;  0.0000000E+00; -2.9311558E-02;  1.0032705E+03;  4.0142661E-01;  2.6490105E+03;3;  3.6649784E+01;  0.0000000E+00; -1.3061835E+01;0;  1.0276210E-01;  1.0002258E+04;  0.0000000E+00; -4.4681694E-02;  1.0000000E+04;  0.0000000E+00;  9.9918408E+03; -6.5514341E-02;  0.0000000E+00;  1.6827644E-01;  2.8913230E+03;
  1.0800782E+00;  9.9999998E-03; -1.6003087E-01;2710;  6.1795827E-02;  0.0000000E+00; -2.6056647E-02;  1.0033438E+03;  4.0142658E-01;  2.7083018E+03;3;  3.3842682E+01;  0.0000000E+00; -1.2805421E+01;0;  9.5797069E-02;  1.0002634E+04;  0.0000000E+00; -9.8750917E-03;  1.0000000E+04;  0.0000000E+00;  9.9929297E+03; -7.7291511E-02;  0.0000000E+00;  1.7308858E-01;  2.4801016E+03;
  1.0800731E+00;  9.9999998E-03; -1.4002551E-01;2711;  5.7435058E-02;  0.0000000E+00; -2.2421975E-02;  1.0034124E+03;  4.0142664E-01;  2.7639229E+03;3;  3.1544439E+01;  0.0000000E+00; -1.1932702E+01;0;  8.5157670E-02;  1.0003003E+04;  0.0000000E+00; -7.2896999E-04;  1.0000000E+04;  0.0000000E+00;  9.9939316E+03; -8.9092560E-02;  0.0000000E+00;  1.7425023E-01;  2.1089175E+03;
  1.0800694E+00;  9.9999998E-03; -1.2002062E-01;2712;  5.4115441E-02;  0.0000000E+00; -1.8765148E-02;  1.0034689E+03;  4.0142661E-01;  2.8097908E+03;3;  2.9704119E+01;  0.0000000E+00; -1.0664176E+01;0;  7.2910883E-02;  1.0003286E+04;  0.0000000E+00; -2.0255389E-05;  1.0000000E+04;  0.0000000E+00;  9.9947764E+03; -9.8427646E-02;  0.0000000E+00;  1.7133853E-01;  1.7997432E+03;
  1.0800667E+00;  9.9999998E-03; -1.0001601E-01;2713;  5.1610462E-02;  0.0000000E+00; -1.5067845E-02;  1.0035121E+03;  4.0142646E-01;  2.8447463E+03;3;  2.8195629E+01;  0.0000000E+00; -9.1129246E+00;0;  6.0819402E-02;  1.0003464E+04;  0.0000000E+00; -7.2860735E-06;  1.0000000E+04;  0.0000000E+00;  9.9954570E+03; -1.0423931E-01;  0.0000000E+00;  1.6505872E-01;  1.5532125E+03;
  1.0800648E+00;  9.9999998E-03; -8.0011964E-02;2714;  4.9785409E-02;  0.0000000E+00; -1.1606205E-02;  1.0035441E+03;  4.0142652E-01;  2.8706255E+03;3;  2.6991207E+01;  0.0000000E+00; -7.3799944E+00;0;  4.9663283E-02;  1.0003558E+04;  0.0000000E+00; -1.1378986E-06;  1.0000000E+04;  0.0000000E+00;  9.9960029E+03; -1.0724928E-01;  0.0000000E+00;  1.5691257E-01;  1.3579525E+03;
  1.0800636E+00;  9.9999998E-03; -6.0008455E-02;2715;  4.8486244E-02;  0.0000000E+00; -8.4226923E-03;  1.0035681E+03;  4.0142643E-01;  2.8901309E+03;3;  2.6050787E+01;  0.0000000E+00; -5.5727878E+00;0;  4.0011249E-02;  1.0003601E+04;  0.0000000E+00;  5.2997115E-07;  1.0000000E+04;  0.0000000E+00;  9.9964375E+03; -1.0846169E-01;  0.0000000E+00;  1.4847293E-01;  1.2046350E+03;
  1.0800627E+00;  9.9999998E-03; -4.0005393E-02;2716;  4.7614433E-02;  0.0000000E+00; -5.4827179E-03;  1.0035852E+03;  4.0142652E-01;  2.9039392E+03;3;  2.5360426E+01;  0.0000000E+00; -3.7172797E+00;0;  3.2477975E-02;  1.0003619E+04;  0.0000000E+00;  4.8328235E-07;  1.0000000E+04;  0.0000000E+00;  9.9967598E+03; -1.0873909E-01;  0.0000000E+00;  1.4121707E-01;  1.0913475E+03;
  1.0800623E+00;  9.9999998E-03; -2.0002622E-02;2717;  4.7112394E-02;  0.0000000E+00; -2.7013335E-03;  1.0035956E+03;  4.0142646E-01;  2.9123401E+03;3;  2.4947231E+01;  0.0000000E+00; -1.8533578E+00;0;  2.7669147E-02;  1.0003625E+04;  0.0000000E+00;  1.4487826E-07;  1.0000000E+04;  0.0000000E+00;  9.9969629E+03; -1.0868403E-01;  0.0000000E+00;  1.3635318E-01;  1.0210250E+03;
  1.1000817E+00;  9.9999998E-03; -1.8003292E-01;2739;  6.5396145E-02;  0.0000000E+00; -2.5843235E-02;  1.0028093E+03;  4.0123844E-01;  2.2583347E+03;3;  3.6393009E+01;  0.0000000E+00; -1.1133446E+01;0;  1.0041158E-01;  1.0001985E+04;  0.0000000E+00; -1.0034764E-01;  1.0000000E+04;  0.0000000E+00;  9.9922949E+03; -5.8824655E-02;  0.0000000E+00;  1.5923624E-01;  2.5401213E+03;
  1.1000745E+00;  9.9999998E-03; -1.6002725E-01;2740;  5.9498511E-02;  0.0000000E+00; -2.2840910E-02;  1.0028726E+03;  4.0123853E-01;  2.3092275E+03;3;  3.3153835E+01;  0.0000000E+00; -1.1182051E+01;0;  9.3991056E-02;  1.0002219E+04;  0.0000000E+00; -3.1259041E-02;  1.0000000E+04;  0.0000000E+00;  9.9933242E+03; -6.6200390E-02;  0.0000000E+00;  1.6019145E-01;  2.1661267E+03;
  1.1000694E+00;  9.9999998E-03; -1.4002265E-01;2741;  5.5063441E-02;  0.0000000E+00; -1.9884864E-02;  1.0029391E+03;  4.0123853E-01;  2.3627065E+03;3;  3.0712553E+01;  0.0000000E+00; -1.0605578E+01;0;  8.1534013E-02;  1.0002560E+04;  0.0000000E+00; -5.1679499E-03;  1.0000000E+04;  0.0000000E+00;  9.9943086E+03; -7.6833397E-02;  0.0000000E+00;  1.5836741E-01;  1.8310618E+03;
  1.1000655E+00;  9.9999998E-03; -1.2001839E-01;2742;  5.1601171E-02;  0.0000000E+00; -1.6715456E-02;  1.0029993E+03;  4.0123844E-01;  2.4111050E+03;3;  2.8710642E+01;  0.0000000E+00; -9.5569048E+00;0;  6.6214755E-02;  1.0002907E+04;  0.0000000E+00; -2.7442860E-04;  1.0000000E+04;  0.0000000E+00;  9.9951621E+03; -8.7634176E-02;  0.0000000E+00;  1.5384893E-01;  1.5458401E+03;
  1.1000627E+00;  9.9999998E-03; -1.0001453E-01;2743;  4.9091455E-02;  0.0000000E+00; -1.3611569E-02;  1.0030470E+03;  4.0123838E-01;  2.4494402E+03;3;  2.7165569E+01;  0.0000000E+00; -8.2105227E+00;0;  5.1365830E-02;  1.0003172E+04;  0.0000000E+00; -1.6178405E-05;  1.0000000E+04;  0.0000000E+00;  9.9958506E+03; -9.5921315E-02;  0.0000000E+00;  1.4728715E-01;  1.3181129E+03;
  1.1000608E+00;  9.9999998E-03; -8.0010965E-02;2744;  4.7246367E-02;  0.0000000E+00; -1.0536462E-02;  1.0030824E+03;  4.0123841E-01;  2.4779041E+03;3;  2.5946487E+01;  0.0000000E+00; -6.6456919E+00;0;  3.8683683E-02;  1.0003341E+04;  0.0000000E+00; -5.0116118E-06;  1.0000000E+04;  0.0000000E+00;  9.9963848E+03; -1.0111248E-01;  0.0000000E+00;  1.3979617E-01;  1.1435182E+03;
  1.1000596E+00;  9.9999998E-03; -6.0007822E-02;2745;  4.5957491E-02;  0.0000000E+00; -7.6821572E-03;  1.0031074E+03;  4.0123844E-01;  2.4979341E+03;3;  2.5000925E+01;  0.0000000E+00; -5.0035453E+00;0;  2.8617606E-02;  1.0003440E+04;  0.0000000E+00; -7.4611160E-07;  1.0000000E+04;  0.0000000E+00;  9.9967842E+03; -1.0392925E-01;  0.0000000E+00;  1.3254686E-01;  1.0132820E+03;
  1.1000588E+00;  9.9999998E-03; -4.0005006E-02;2746;  4.5099523E-02;  0.0000000E+00; -5.0007217E-03;  1.0031242E+03;  4.0123844E-01;  2.5115430E+03;3;  2.4326746E+01;  0.0000000E+00; -3.3234601E+00;0;  2.1319471E-02;  1.0003492E+04;  0.0000000E+00;  1.7248186E-07;  1.0000000E+04;  0.0000000E+00;  9.9970693E+03; -1.0523713E-01;  0.0000000E+00;  1.2655661E-01;  9.2163251E+02;
  1.1000583E+00;  9.9999998E-03; -2.0002440E-02;2747;  4.4611953E-02;  0.0000000E+00; -2.4645389E-03;  1.0031339E+03;  4.0123844E-01;  2.5193059E+03;3;  2.3909376E+01;  0.0000000E+00; -1.6491406E+00;0;  1.6890153E-02;  1.0003515E+04;  0.0000000E+00;  9.8179157E-08;  1.0000000E+04;  0.0000000E+00;  9.9972412E+03; -1.0573550E-01;  0.0000000E+00;  1.2262565E-01;  8.6662970E+02;
  1.1200794E+00;  9.9999998E-03; -1.8003017E-01;2768;  6.4118311E-02;  0.0000000E+00; -2.2750495E-02;  1.0024243E+03;  4.0108433E-01;  1.9296892E+03;3;  3.6341614E+01;  0.0000000E+00; -9.2455711E+00;0;  1.0133249E-01;  1.0001639E+04;  0.0000000E+00; -1.9270015E-01;  1.0000000E+04;  0.0000000E+00;  9.9926455E+03; -5.1188435E-02;  0.0000000E+00;  1.5252092E-01;  2.2594260E+03;
  1.1200715E+00;  9.9999998E-03; -1.6002420E-01;2769;  5.7640929E-02;  0.0000000E+00; -1.9922979E-02;  1.0024742E+03;  4.0108442E-01;  1.9693602E+03;3;  3.2704166E+01;  0.0000000E+00; -9.5175552E+00;0;  9.8033816E-02;  1.0001681E+04;  0.0000000E+00; -8.0024101E-02;  1.0000000E+04;  0.0000000E+00;  9.9935977E+03; -5.2664533E-02;  0.0000000E+00;  1.5069835E-01;  1.8979570E+03;
  1.1200659E+00;  9.9999998E-03; -1.4001980E-01;2770;  5.2852757E-02;  0.0000000E+00; -1.7266162E-02;  1.0025344E+03;  4.0108433E-01;  2.0172841E+03;3;  2.9902586E+01;  0.0000000E+00; -9.1769123E+00;0;  8.6433806E-02;  1.0001930E+04;  0.0000000E+00; -2.2463206E-02;  1.0000000E+04;  0.0000000E+00;  9.9945488E+03; -5.9940286E-02;  0.0000000E+00;  1.4637409E-01;  1.5939379E+03;
  1.1200620E+00;  9.9999998E-03; -1.2001625E-01;2771;  4.9372118E-02;  0.0000000E+00; -1.4741750E-02;  1.0025953E+03;  4.0108436E-01;  2.0657756E+03;3;  2.7838068E+01;  0.0000000E+00; -8.4142408E+00;0;  6.9684714E-02;  1.0002283E+04;  0.0000000E+00; -3.5952153E-03;  1.0000000E+04;  0.0000000E+00;  9.9954121E+03; -7.0407227E-02;  0.0000000E+00;  1.4009194E-01;  1.3343762E+03;
  1.1200591E+00;  9.9999998E-03; -1.0001297E-01;2772;  4.6741992E-02;  0.0000000E+00; -1.2098684E-02;  1.0026481E+03;  4.0108430E-01;  2.1078137E+03;3;  2.6193981E+01;  0.0000000E+00; -7.2923484E+00;0;  5.2106075E-02;  1.0002626E+04;  0.0000000E+00; -2.4068901E-04;  1.0000000E+04;  0.0000000E+00;  9.9961230E+03; -8.0633052E-02;  0.0000000E+00;  1.3273913E-01;  1.1233989E+03;
  1.1200572E+00;  9.9999998E-03; -8.0009997E-02;2773;  4.4893559E-02;  0.0000000E+00; -9.5280623E-03;  1.0026888E+03;  4.0108436E-01;  2.1402673E+03;3;  2.4940971E+01;  0.0000000E+00; -5.9710984E+00;0;  3.6857836E-02;  1.0002891E+04;  0.0000000E+00; -1.3113491E-05;  1.0000000E+04;  0.0000000E+00;  9.9966699E+03; -8.8437162E-02;  0.0000000E+00;  1.2529500E-01;  9.6296545E+02;
  1.1200559E+00;  9.9999998E-03; -6.0007196E-02;2774;  4.3586597E-02;  0.0000000E+00; -6.9709481E-03;  1.0027174E+03;  4.0108442E-01;  2.1629468E+03;3;  2.3999086E+01;  0.0000000E+00; -4.4816151E+00;0;  2.5164142E-02;  1.0003065E+04;  0.0000000E+00; -4.3682526E-06;  1.0000000E+04;  0.0000000E+00;  9.9970684E+03; -9.3474887E-02;  0.0000000E+00;  1.1863903E-01;  8.4752289E+02;
  1.1200551E+00;  9.9999998E-03; -4.0004652E-02;2775;  4.2734139E-02;  0.0000000E+00; -4.5626466E-03;  1.0027361E+03;  4.0108430E-01;  2.1778450E+03;3;  2.3324921E+01;  0.0000000E+00; -2.9597373E+00;0;  1.7084599E-02;  1.0003169E+04;  0.0000000E+00; -1.0515987E-06;  1.0000000E+04;  0.0000000E+00;  9.9973359E+03; -9.6346721E-02;  0.0000000E+00;  1.1343132E-01;  7.6985712E+02;
  1.1200546E+00;  9.9999998E-03; -2.0002274E-02;2776;  4.2250674E-02;  0.0000000E+00; -2.2482884E-03;  1.0027465E+03;  4.0108430E-01;  2.1861008E+03;3;  2.2924738E+01;  0.0000000E+00; -1.4630829E+00;0;  1.2386017E-02;  1.0003224E+04;  0.0000000E+00; -1.4571341E-07;  1.0000000E+04;  0.0000000E+00;  9.9974922E+03; -9.7742006E-02;  0.0000000E+00;  1.1012802E-01;  7.2493951E+02;
  1.1400782E+00;  9.9999998E-03; -1.8002857E-01;2796;  6.3448645E-02;  0.0000000E+00; -2.0169560E-02;  1.0021124E+03;  4.0096074E-01;  1.6598396E+03;3;  3.6672260E+01;  0.0000000E+00; -7.4273872E+00;0;  1.0254286E-01;  1.0001278E+04;  0.0000000E+00; -3.2343209E-01;  1.0000000E+04;  0.0000000E+00;  9.9929502E+03; -4.4321466E-02;  0.0000000E+00;  1.4686432E-01;  2.0630369E+03;
  1.1400692E+00;  9.9999998E-03; -1.6002204E-01;2797;  5.6338869E-02;  0.0000000E+00; -1.7406574E-02;  1.0021466E+03;  4.0096068E-01;  1.6867340E+03;3;  3.2567631E+01;  0.0000000E+00; -7.7917180E+00;0;  1.0426740E-01;  1.0001104E+04;  0.0000000E+00; -1.7027766E-01;  1.0000000E+04;  0.0000000E+00;  9.9938076E+03; -3.9426204E-02;  0.0000000E+00;  1.4369361E-01;  1.6858148E+03;
  1.1400632E+00;  9.9999998E-03; -1.4001746E-01;2798;  5.1115159E-02;  0.0000000E+00; -1.4951364E-02;  1.0021954E+03;  4.0096074E-01;  1.7251469E+03;3;  2.9373833E+01;  0.0000000E+00; -7.7476401E+00;0;  9.6662983E-02;  1.0001187E+04;  0.0000000E+00; -6.9137111E-02;  1.0000000E+04;  0.0000000E+00;  9.9946934E+03; -4.1236442E-02;  0.0000000E+00;  1.3789943E-01;  1.3913724E+03;
  1.1400589E+00;  9.9999998E-03; -1.2001413E-01;2799;  4.7364958E-02;  0.0000000E+00; -1.2712535E-02;  1.0022516E+03;  4.0096071E-01;  1.7692714E+03;3;  2.7044378E+01;  0.0000000E+00; -7.2104421E+00;0;  8.1505522E-02;  1.0001467E+04;  0.0000000E+00; -2.0560207E-02;  1.0000000E+04;  0.0000000E+00;  9.9955391E+03; -4.8766691E-02;  0.0000000E+00;  1.3027221E-01;  1.1556586E+03;
  1.1400560E+00;  9.9999998E-03; -1.0001143E-01;2800;  4.4716232E-02;  0.0000000E+00; -1.0612455E-02;  1.0023058E+03;  4.0096059E-01;  1.8118959E+03;3;  2.5345078E+01;  0.0000000E+00; -6.3658814E+00;0;  6.3165002E-02;  1.0001819E+04;  0.0000000E+00; -4.1951234E-03;  1.0000000E+04;  0.0000000E+00;  9.9962705E+03; -5.8808886E-02;  0.0000000E+00;  1.2197389E-01;  9.6414722E+02;
  1.1400540E+00;  9.9999998E-03; -8.0008879E-02;2801;  4.2785335E-02;  0.0000000E+00; -8.4102741E-03;  1.0023513E+03;  4.0096065E-01;  1.8475875E+03;3;  2.4037203E+01;  0.0000000E+00; -5.2282805E+00;0;  4.5767151E-02;  1.0002151E+04;  0.0000000E+00; -5.1155698E-04;  1.0000000E+04;  0.0000000E+00;  9.9968438E+03; -6.8314165E-02;  0.0000000E+00;  1.1408132E-01;  8.1620679E+02;
  1.1400527E+00;  9.9999998E-03; -6.0006518E-02;2802;  4.1463528E-02;  0.0000000E+00; -6.2580900E-03;  1.0023849E+03;  4.0096068E-01;  1.8740049E+03;3;  2.3081964E+01;  0.0000000E+00; -3.9726825E+00;0;  3.1759739E-02;  1.0002408E+04;  0.0000000E+00; -3.0896008E-05;  1.0000000E+04;  0.0000000E+00;  9.9972588E+03; -7.5629599E-02;  0.0000000E+00;  1.0738934E-01;  7.0994824E+02;
  1.1400518E+00;  9.9999998E-03; -4.0004246E-02;2803;  4.0601607E-02;  0.0000000E+00; -4.1136034E-03;  1.0024073E+03;  4.0096071E-01;  1.8916165E+03;3;  2.2413509E+01;  0.0000000E+00; -2.6283216E+00;0;  2.1963395E-02;  1.0002583E+04;  0.0000000E+00; -3.8075693E-06;  1.0000000E+04;  0.0000000E+00;  9.9975361E+03; -8.0411777E-02;  0.0000000E+00;  1.0237517E-01;  6.3979065E+02;
  1.1400514E+00;  9.9999998E-03; -2.0002097E-02;2804;  4.0120214E-02;  0.0000000E+00; -2.0413634E-03;  1.0024199E+03;  4.0096059E-01;  1.9015464E+03;3;  2.2028145E+01;  0.0000000E+00; -1.3030462E+00;0;  1.6290061E-02;  1.0002677E+04;  0.0000000E+00; -7.7951245E-07;  1.0000000E+04;  0.0000000E+00;  9.9976943E+03; -8.2999036E-02;  0.0000000E+00;  9.9289097E-02;  6.0009998E+02;
  1.1600789E+00;  9.9999998E-03; -1.8002857E-01;2823;  6.3890256E-02;  0.0000000E+00; -1.8509263E-02;  1.0018654E+03;  4.0086371E-01;  1.4416521E+03;3;  3.7632008E+01;  0.0000000E+00; -6.1408887E+00;0;  1.0333550E-01;  1.0000912E+04;  0.0000000E+00; -4.7799367E-01;  1.0000000E+04;  0.0000000E+00;  9.9932236E+03; -3.8066912E-02;  0.0000000E+00;  1.4140241E-01;  1.9345006E+03;
  1.1600684E+00;  9.9999998E-03; -1.6002114E-01;2824;  5.5802926E-02;  0.0000000E+00; -1.5530911E-02;  1.0018876E+03;  4.0086374E-01;  1.4588948E+03;3;  3.2883453E+01;  0.0000000E+00; -6.2194858E+00;0;  1.0877140E-01;  1.0000579E+04;  0.0000000E+00; -3.0435154E-01;  1.0000000E+04;  0.0000000E+00;  9.9940010E+03; -2.9032441E-02;  0.0000000E+00;  1.3780384E-01;  1.5491404E+03;
  1.1600614E+00;  9.9999998E-03; -1.4001596E-01;2825;  4.9963322E-02;  0.0000000E+00; -1.3036486E-02;  1.0019208E+03;  4.0086383E-01;  1.4845170E+03;3;  2.9211781E+01;  0.0000000E+00; -6.2953157E+00;0;  1.0754739E-01;  1.0000445E+04;  0.0000000E+00; -1.6097261E-01;  1.0000000E+04;  0.0000000E+00;  9.9947959E+03; -2.4194473E-02;  0.0000000E+00;  1.3174187E-01;  1.2368578E+03;
  1.1600566E+00;  9.9999998E-03; -1.2001245E-01;2826;  4.5844335E-02;  0.0000000E+00; -1.0961255E-02;  1.0019658E+03;  4.0086365E-01;  1.5192573E+03;3;  2.6532274E+01;  0.0000000E+00; -6.0314035E+00;0;  9.7585194E-02;  1.0000556E+04;  0.0000000E+00; -6.9660500E-02;  1.0000000E+04;  0.0000000E+00;  9.9955859E+03; -2.6175315E-02;  0.0000000E+00;  1.2376051E-01;  1.0053681E+03;
  1.1600534E+00;  9.9999998E-03; -1.0000985E-01;2827;  4.2967878E-02;  0.0000000E+00; -9.0671340E-03;  1.0020151E+03;  4.0086359E-01;  1.5574047E+03;3;  2.4619608E+01;  0.0000000E+00; -5.3796477E+00;0;  8.1939355E-02;  1.0000822E+04;  0.0000000E+00; -2.4434121E-02;  1.0000000E+04;  0.0000000E+00;  9.9963027E+03; -3.3043809E-02;  0.0000000E+00;  1.1498316E-01;  8.3061395E+02;
  1.1600512E+00;  9.9999998E-03; -8.0007732E-02;2828;  4.0977523E-02;  0.0000000E+00; -7.2951568E-03;  1.0020605E+03;  4.0086365E-01;  1.5925103E+03;3;  2.3265284E+01;  0.0000000E+00; -4.5042586E+00;0;  6.4929590E-02;  1.0001141E+04;  0.0000000E+00; -6.8194685E-03;  1.0000000E+04;  0.0000000E+00;  9.9968936E+03; -4.1694429E-02;  0.0000000E+00;  1.0662401E-01;  6.9682623E+02;
  1.1600498E+00;  9.9999998E-03; -6.0005691E-02;2829;  3.9608683E-02;  0.0000000E+00; -5.4527908E-03;  1.0020973E+03;  4.0086359E-01;  1.6208892E+03;3;  2.2270582E+01;  0.0000000E+00; -3.4375212E+00;0;  4.9873348E-02;  1.0001427E+04;  0.0000000E+00; -1.3975688E-03;  1.0000000E+04;  0.0000000E+00;  9.9973389E+03; -4.9669024E-02;  0.0000000E+00;  9.9542372E-02;  5.9876819E+02;
  1.1600490E+00;  9.9999998E-03; -4.0003754E-02;2830;  3.8734004E-02;  0.0000000E+00; -3.6269829E-03;  1.0021233E+03;  4.0086371E-01;  1.6409755E+03;3;  2.1606833E+01;  0.0000000E+00; -2.3031108E+00;0;  3.8550023E-02;  1.0001645E+04;  0.0000000E+00; -1.9097845E-04;  1.0000000E+04;  0.0000000E+00;  9.9976426E+03; -5.5689465E-02;  0.0000000E+00;  9.4239488E-02;  5.3271399E+02;
  1.1600484E+00;  9.9999998E-03; -2.0001864E-02;2831;  3.8246278E-02;  0.0000000E+00; -1.8154572E-03;  1.0021386E+03;  4.0086362E-01;  1.6528612E+03;3;  2.1224463E+01;  0.0000000E+00; -1.1577970E+00;0;  3.1676237E-02;  1.0001778E+04;  0.0000000E+00; -8.8272336E-06;  1.0000000E+04;  0.0000000E+00;  9.9978145E+03; -5.9297699E-02;  0.0000000E+00;  9.0973936E-02;  4.9495325E+02;
  1.1800828E+00;  9.9999998E-03; -1.8003078E-01;2849;  6.6242784E-02;  0.0000000E+00; -1.8397525E-02;  1.0016590E+03;  4.0078911E-01;  1.2555134E+03;3;  3.9685814E+01;  0.0000000E+00; -5.8923635E+00;0;  1.1286376E-01;  1.0000339E+04;  0.0000000E+00; -6.2937140E-01;  1.0000000E+04;  0.0000000E+00;  9.9934014E+03; -2.5353488E-02;  0.0000000E+00;  1.3821726E-01;  1.8175743E+03;
  1.1800698E+00;  9.9999998E-03; -1.6002224E-01;2850;  5.6705773E-02;  0.0000000E+00; -1.4763634E-02;  1.0016871E+03;  4.0078905E-01;  1.2768235E+03;3;  3.4025005E+01;  0.0000000E+00; -5.1499882E+00;0;  1.1135027E-01;  1.0000118E+04;  0.0000000E+00; -4.6172073E-01;  1.0000000E+04;  0.0000000E+00;  9.9941807E+03; -2.1106614E-02;  0.0000000E+00;  1.3245688E-01;  1.4688618E+03;
  1.1800609E+00;  9.9999998E-03; -1.4001592E-01;2851;  4.9661197E-02;  0.0000000E+00; -1.1892323E-02;  1.0017081E+03;  4.0078917E-01;  1.2926249E+03;3;  2.9586761E+01;  0.0000000E+00; -5.0237179E+00;0;  1.1463395E-01;  9.9998145E+03;  0.0000000E+00; -2.9635918E-01;  1.0000000E+04;  0.0000000E+00;  9.9949004E+03; -1.1886256E-02;  0.0000000E+00;  1.2652020E-01;  1.1494108E+03;
  1.1800551E+00;  9.9999998E-03; -1.2001166E-01;2852;  4.4906791E-02;  0.0000000E+00; -9.6474634E-03;  1.0017370E+03;  4.0078914E-01;  1.3145563E+03;3;  2.6434040E+01;  0.0000000E+00; -4.8443890E+00;0;  1.1256986E-01;  9.9996865E+03;  0.0000000E+00; -1.6450115E-01;  1.0000000E+04;  0.0000000E+00;  9.9956045E+03; -6.6251806E-03;  0.0000000E+00;  1.1919504E-01;  8.9981915E+02;
  1.1800514E+00;  9.9999998E-03; -1.0000879E-01;2853;  4.1710395E-02;  0.0000000E+00; -7.8453477E-03;  1.0017739E+03;  4.0078905E-01;  1.3424393E+03;3;  2.4230042E+01;  0.0000000E+00; -4.4618845E+00;0;  1.0361580E-01;  9.9997617E+03;  0.0000000E+00; -7.8412466E-02;  1.0000000E+04;  0.0000000E+00;  9.9962686E+03; -7.3284241E-03;  0.0000000E+00;  1.1094422E-01;  7.2215527E+02;
  1.1800489E+00;  9.9999998E-03; -8.0006622E-02;2854;  3.9494608E-02;  0.0000000E+00; -6.1867493E-03;  1.0018126E+03;  4.0078911E-01;  1.3717640E+03;3;  2.2663748E+01;  0.0000000E+00; -3.7647228E+00;0;  9.0696983E-02;  9.9999590E+03;  0.0000000E+00; -3.1706192E-02;  1.0000000E+04;  0.0000000E+00;  9.9968438E+03; -1.2027448E-02;  0.0000000E+00;  1.0272443E-01;  5.9679199E+02;
  1.1800474E+00;  9.9999998E-03; -6.0004842E-02;2855;  3.8048130E-02;  0.0000000E+00; -4.6391203E-03;  1.0018470E+03;  4.0078908E-01;  1.3978396E+03;3;  2.1637100E+01;  0.0000000E+00; -2.9126544E+00;0;  7.7451155E-02;  1.0000189E+04;  0.0000000E+00; -1.0409467E-02;  1.0000000E+04;  0.0000000E+00;  9.9973018E+03; -1.8019635E-02;  0.0000000E+00;  9.5470786E-02;  5.0726654E+02;
  1.1800464E+00;  9.9999998E-03; -4.0003199E-02;2856;  3.7142444E-02;  0.0000000E+00; -3.1077242E-03;  1.0018734E+03;  4.0078908E-01;  1.4177794E+03;3;  2.0925062E+01;  0.0000000E+00; -1.9825711E+00;0;  6.6411763E-02;  1.0000390E+04;  0.0000000E+00; -2.5360074E-03;  1.0000000E+04;  0.0000000E+00;  9.9976289E+03; -2.3402726E-02;  0.0000000E+00;  8.9814492E-02;  4.4572696E+02;
  1.1800460E+00;  9.9999998E-03; -2.0001575E-02;2857;  3.6635876E-02;  0.0000000E+00; -1.5533903E-03;  1.0018901E+03;  4.0078905E-01;  1.4304108E+03;3;  2.0540470E+01;  0.0000000E+00; -1.0024110E+00;0;  5.9216082E-02;  1.0000522E+04;  0.0000000E+00; -3.3695536E-04;  1.0000000E+04;  0.0000000E+00;  9.9978252E+03; -2.7000234E-02;  0.0000000E+00;  8.6216316E-02;  4.0939536E+02;
  1.2000893E+00;  9.9999998E-03; -1.8003419E-01;2873;  6.9424555E-02;  0.0000000E+00; -1.9348800E-02;  1.0014626E+03;  4.0073305E-01;  1.0782870E+03;3;  4.2521439E+01;  0.0000000E+00; -6.3192825E+00;0;  1.4216864E-01;  9.9991748E+03;  0.0000000E+00; -7.1615404E-01;  1.0000000E+04;  0.0000000E+00;  9.9934424E+03;  3.4417212E-03;  0.0000000E+00;  1.3872692E-01;  1.6050817E+03;
  1.2000753E+00;  9.9999998E-03; -1.6002582E-01;2874;  5.9877798E-02;  0.0000000E+00; -1.5725154E-02;  1.0015145E+03;  4.0073296E-01;  1.1166284E+03;3;  3.6413822E+01;  0.0000000E+00; -5.2262988E+00;0;  1.2522832E-01;  9.9994092E+03;  0.0000000E+00; -6.1086303E-01;  1.0000000E+04;  0.0000000E+00;  9.9942451E+03; -5.2037691E-03;  0.0000000E+00;  1.3043208E-01;  1.3844554E+03;
  1.2000636E+00;  9.9999998E-03; -1.4001842E-01;2875;  5.1250383E-02;  0.0000000E+00; -1.2184370E-02;  1.0015439E+03;  4.0073299E-01;  1.1383563E+03;3;  3.1126759E+01;  0.0000000E+00; -4.2288389E+00;0;  1.2033077E-01;  9.9992676E+03;  0.0000000E+00; -4.4670027E-01;  1.0000000E+04;  0.0000000E+00;  9.9949736E+03; -2.3692315E-03;  0.0000000E+00;  1.2270001E-01;  1.1000017E+03;
  1.2000555E+00;  9.9999998E-03; -1.2001270E-01;2876;  4.5012087E-02;  0.0000000E+00; -9.3231946E-03;  1.0015627E+03;  4.0073302E-01;  1.1521686E+03;3;  2.6991056E+01;  0.0000000E+00; -3.9244144E+00;0;  1.2228440E-01;  9.9989902E+03;  0.0000000E+00; -2.9078978E-01;  1.0000000E+04;  0.0000000E+00;  9.9956240E+03;  6.6217934E-03;  0.0000000E+00;  1.1566260E-01;  8.4482751E+02;
  1.2000506E+00;  9.9999998E-03; -1.0000887E-01;2877;  4.1079041E-02;  0.0000000E+00; -7.1750139E-03;  1.0015831E+03;  4.0073299E-01;  1.1672063E+03;3;  2.4282984E+01;  0.0000000E+00; -3.5825591E+00;0;  1.2223223E-01;  9.9988145E+03;  0.0000000E+00; -1.6738810E-01;  1.0000000E+04;  0.0000000E+00;  9.9962080E+03;  1.3556866E-02;  0.0000000E+00;  1.0867536E-01;  6.5083679E+02;
  1.2000476E+00;  9.9999998E-03; -8.0006279E-02;2878;  3.8553689E-02;  0.0000000E+00; -5.5131754E-03;  1.0016082E+03;  4.0073293E-01;  1.1857566E+03;3;  2.2430967E+01;  0.0000000E+00; -3.1304147E+00;0;  1.1726468E-01;  9.9987959E+03;  0.0000000E+00; -8.3116613E-02;  1.0000000E+04;  0.0000000E+00;  9.9967285E+03;  1.5672013E-02;  0.0000000E+00;  1.0159267E-01;  5.1762787E+02;
  1.2000456E+00;  9.9999998E-03; -6.0004313E-02;2879;  3.6877245E-02;  0.0000000E+00; -4.0075951E-03;  1.0016342E+03;  4.0073302E-01;  1.2048326E+03;3;  2.1218842E+01;  0.0000000E+00; -2.4516780E+00;0;  1.0923970E-01;  9.9988760E+03;  0.0000000E+00; -3.4223404E-02;  1.0000000E+04;  0.0000000E+00;  9.9971641E+03;  1.4352073E-02;  0.0000000E+00;  9.4887629E-02;  4.3022427E+02;
  1.2000445E+00;  9.9999998E-03; -4.0002726E-02;2880;  3.5865340E-02;  0.0000000E+00; -2.6207515E-03;  1.0016562E+03;  4.0073293E-01;  1.2210947E+03;3;  2.0471395E+01;  0.0000000E+00; -1.6697820E+00;0;  1.0109489E-01;  9.9989854E+03;  0.0000000E+00; -1.0793301E-02;  1.0000000E+04;  0.0000000E+00;  9.9974980E+03;  1.1778117E-02;  0.0000000E+00;  8.9316778E-02;  3.7331744E+02;
  1.2000439E+00;  9.9999998E-03; -2.0001322E-02;2881;  3.5318516E-02;  0.0000000E+00; -1.2959902E-03;  1.0016711E+03;  4.0073299E-01;  1.2320824E+03;3;  2.0045223E+01;  0.0000000E+00; -8.3822012E-01;0;  9.5180534E-02;  9.9990742E+03;  0.0000000E+00; -1.9980320E-03;  1.0000000E+04;  0.0000000E+00;  9.9977061E+03;  9.5818928E-03;  0.0000000E+00;  8.5598640E-02;  3.3975537E+02;
  1.2200954E+00;  9.9999998E-03; -1.8003745E-01;2896;  7.1835101E-02;  0.0000000E+00; -2.0458635E-02;  1.0012703E+03;  4.0069166E-01;  9.0725092E+02;3;  4.6063171E+01;  0.0000000E+00; -7.2349243E+00;0;  1.8824849E-01;  9.9974141E+03;  0.0000000E+00; -5.7089144E-01;  1.0000000E+04;  0.0000000E+00;  9.9934297E+03;  4.7759563E-02;  0.0000000E+00;  1.4048892E-01;  1.1538441E+03;
  1.2200837E+00;  9.9999998E-03; -1.6003008E-01;2897;  6.3806117E-02;  0.0000000E+00; -1.7496124E-02;  1.0013334E+03;  4.0069169E-01;  9.5230927E+02;3;  3.9418659E+01;  0.0000000E+00; -6.0182219E+00;0;  1.6365711E-01;  9.9979189E+03;  0.0000000E+00; -6.7422903E-01;  1.0000000E+04;  0.0000000E+00;  9.9941865E+03;  3.0754110E-02;  0.0000000E+00;  1.3290301E-01;  1.1866522E+03;
  1.2200713E+00;  9.9999998E-03; -1.4002299E-01;2898;  5.5468671E-02;  0.0000000E+00; -1.4095746E-02;  1.0013870E+03;  4.0069157E-01;  9.9064417E+02;3;  3.3905533E+01;  0.0000000E+00; -4.6854930E+00;0;  1.4446339E-01;  9.9982666E+03;  0.0000000E+00; -5.7231390E-01;  1.0000000E+04;  0.0000000E+00;  9.9949063E+03;  2.0969765E-02;  0.0000000E+00;  1.2349363E-01;  1.0190413E+03;
  1.2200605E+00;  9.9999998E-03; -1.2001672E-01;2899;  4.7733516E-02;  0.0000000E+00; -1.0861228E-02;  1.0014207E+03;  4.0069166E-01;  1.0146739E+03;3;  2.9013863E+01;  0.0000000E+00; -3.6813321E+00;0;  1.3559744E-01;  9.9982998E+03;  0.0000000E+00; -4.1305134E-01;  1.0000000E+04;  0.0000000E+00;  9.9955459E+03;  2.0080954E-02;  0.0000000E+00;  1.1551648E-01;  7.9932904E+02;
  1.2200527E+00;  9.9999998E-03; -1.0001139E-01;2900;  4.2010311E-02;  0.0000000E+00; -7.9632085E-03;  1.0014383E+03;  4.0069169E-01;  1.0272892E+03;3;  2.5156244E+01;  0.0000000E+00; -3.1768975E+00;0;  1.3581574E-01;  9.9980938E+03;  0.0000000E+00; -2.6368830E-01;  1.0000000E+04;  0.0000000E+00;  9.9960986E+03;  2.7240250E-02;  0.0000000E+00;  1.0857549E-01;  6.0363458E+02;
  1.2200480E+00;  9.9999998E-03; -8.0007479E-02;2901;  3.8461387E-02;  0.0000000E+00; -5.6786719E-03;  1.0014506E+03;  4.0069160E-01;  1.0360676E+03;3;  2.2734644E+01;  0.0000000E+00; -2.6686671E+00;0;  1.3821340E-01;  9.9978721E+03;  0.0000000E+00; -1.4733046E-01;  1.0000000E+04;  0.0000000E+00;  9.9965693E+03;  3.5589684E-02;  0.0000000E+00;  1.0262372E-01;  4.5999075E+02;
  1.2200452E+00;  9.9999998E-03; -6.0004760E-02;2902;  3.6342822E-02;  0.0000000E+00; -3.9283577E-03;  1.0014638E+03;  4.0069163E-01;  1.0455239E+03;3;  2.1229031E+01;  0.0000000E+00; -2.1081190E+00;0;  1.3799442E-01;  9.9977402E+03;  0.0000000E+00; -6.9134176E-02;  1.0000000E+04;  0.0000000E+00;  9.9969639E+03;  4.0861156E-02;  0.0000000E+00;  9.7133264E-02;  3.6749481E+02;
  1.2200437E+00;  9.9999998E-03; -4.0002834E-02;2903;  3.5121500E-02;  0.0000000E+00; -2.5077129E-03;  1.0014769E+03;  4.0069163E-01;  1.0548931E+03;3;  2.0336229E+01;  0.0000000E+00; -1.4829073E+00;0;  1.3538492E-01;  9.9976963E+03;  0.0000000E+00; -2.5114607E-02;  1.0000000E+04;  0.0000000E+00;  9.9972725E+03;  4.3099746E-02;  0.0000000E+00;  9.2285164E-02;  3.1222885E+02;
  1.2200428E+00;  9.9999998E-03; -2.0001322E-02;2904;  3.4465898E-02;  0.0000000E+00; -1.2247945E-03;  1.0014869E+03;  4.0069157E-01;  1.0620470E+03;3;  1.9855816E+01;  0.0000000E+00; -7.7121860E-01;0;  1.3249341E-01;  9.9976924E+03;  0.0000000E+00; -5.2926769E-03;  1.0000000E+04;  0.0000000E+00;  9.9974746E+03;  4.3651029E-02;  0.0000000E+00;  8.8842385E-02;  2.8174075E+02;
  1.2400967E+00;  9.9999998E-03; -1.8003936E-01;2917;  7.1409993E-02;  0.0000000E+00; -2.0567859E-02;  1.0011451E+03;  4.0066189E-01;  7.8773914E+02;3;  4.9097000E+01;  0.0000000E+00; -7.8772755E+00;0;  2.1088162E-01;  9.9963271E+03;  0.0000000E+00; -3.8909910E-03;  1.0000000E+04;  0.0000000E+00;  9.9935020E+03;  7.5381622E-02;  0.0000000E+00;  1.3550000E-01;  6.6698798E+02;
  1.2400892E+00;  9.9999998E-03; -1.6003366E-01;2918;  6.5765947E-02;  0.0000000E+00; -1.8671356E-02;  1.0011721E+03;  4.0066180E-01;  8.0628455E+02;3;  4.2774776E+01;  0.0000000E+00; -6.7090650E+00;0;  2.0504744E-01;  9.9962910E+03;  0.0000000E+00; -4.4142246E-01;  1.0000000E+04;  0.0000000E+00;  9.9940752E+03;  7.0444688E-02;  0.0000000E+00;  1.3460276E-01;  7.6437146E+02;
  1.2400805E+00;  9.9999998E-03; -1.4002737E-01;2919;  5.9485104E-02;  0.0000000E+00; -1.6237751E-02;  1.0012131E+03;  4.0066186E-01;  8.3450916E+02;3;  3.6863705E+01;  0.0000000E+00; -5.8325372E+00;0;  1.9208349E-01;  9.9964502E+03;  0.0000000E+00; -5.6161541E-01;  1.0000000E+04;  0.0000000E+00;  9.9947363E+03;  6.3583121E-02;  0.0000000E+00;  1.2850037E-01;  7.9957208E+02;
  1.2400711E+00;  9.9999998E-03; -1.2002143E-01;2920;  5.3145755E-02;  0.0000000E+00; -1.3426293E-02;  1.0012573E+03;  4.0066186E-01;  8.6495044E+02;3;  3.2251850E+01;  0.0000000E+00; -4.7418332E+00;0;  1.7870997E-01;  9.9967314E+03;  0.0000000E+00; -4.8732314E-01;  1.0000000E+04;  0.0000000E+00;  9.9953389E+03;  5.7746809E-02;  0.0000000E+00;  1.2096316E-01;  6.9526898E+02;
  1.2400618E+00;  9.9999998E-03; -1.0001609E-01;2921;  4.6558097E-02;  0.0000000E+00; -1.0677338E-02;  1.0012952E+03;  4.0066183E-01;  8.9104620E+02;3;  2.7681461E+01;  0.0000000E+00; -4.0084925E+00;0;  1.6584879E-01;  9.9969697E+03;  0.0000000E+00; -3.4105974E-01;  1.0000000E+04;  0.0000000E+00;  9.9958604E+03;  5.1611107E-02;  0.0000000E+00;  1.1423768E-01;  5.4169196E+02;
  1.2400540E+00;  9.9999998E-03; -8.0011323E-02;2922;  4.1176364E-02;  0.0000000E+00; -7.8598000E-03;  1.0013198E+03;  4.0066180E-01;  9.0795441E+02;3;  2.4120251E+01;  0.0000000E+00; -3.2206693E+00;0;  1.6004221E-01;  9.9970059E+03;  0.0000000E+00; -2.0175244E-01;  1.0000000E+04;  0.0000000E+00;  9.9963105E+03;  5.2163091E-02;  0.0000000E+00;  1.0787912E-01;  4.0733038E+02;
  1.2400489E+00;  9.9999998E-03; -6.0007270E-02;2923;  3.7654549E-02;  0.0000000E+00; -5.2463645E-03;  1.0013334E+03;  4.0066174E-01;  9.1739539E+02;3;  2.1949030E+01;  0.0000000E+00; -2.3251870E+00;0;  1.5979326E-01;  9.9969004E+03;  0.0000000E+00; -1.0010101E-01;  1.0000000E+04;  0.0000000E+00;  9.9966885E+03;  5.7388600E-02;  0.0000000E+00;  1.0240466E-01;  3.1590216E+02;
  1.2400459E+00;  9.9999998E-03; -4.0004171E-02;2924;  3.5673790E-02;  0.0000000E+00; -3.1438852E-03;  1.0013414E+03;  4.0066177E-01;  9.2289569E+02;3;  2.0697657E+01;  0.0000000E+00; -1.5393755E+00;0;  1.6082567E-01;  9.9967715E+03;  0.0000000E+00; -3.8728215E-02;  1.0000000E+04;  0.0000000E+00;  9.9969766E+03;  6.2814564E-02;  0.0000000E+00;  9.8011114E-02;  2.6256851E+02;
  1.2400445E+00;  9.9999998E-03; -2.0001877E-02;2925;  3.4727279E-02;  0.0000000E+00; -1.4625941E-03;  1.0013467E+03;  4.0066180E-01;  9.2650690E+02;3;  2.0117638E+01;  0.0000000E+00; -7.5896049E-01;0;  1.6124675E-01;  9.9966875E+03;  0.0000000E+00; -8.6288853E-03;  1.0000000E+04;  0.0000000E+00;  9.9971670E+03;  6.6293910E-02;  0.0000000E+00;  9.4952829E-02;  2.3485368E+02;
  1.2600886E+00;  9.9999998E-03; -1.6003546E-01;2936;  6.4321660E-02;  0.0000000E+00; -1.8449187E-02;  1.0011109E+03;  4.0064079E-01;  7.3212439E+02;3;  4.5296005E+01;  0.0000000E+00; -7.1067843E+00;0;  2.0145237E-01;  9.9961680E+03;  0.0000000E+00;  1.7881532E-01;  1.0000000E+04;  0.0000000E+00;  9.9940371E+03;  7.3761217E-02;  0.0000000E+00;  1.2769115E-01;  5.0617435E+02;
  1.2600840E+00;  9.9999998E-03; -1.4003080E-01;2937;  6.0283888E-02;  0.0000000E+00; -1.7112235E-02;  1.0010998E+03;  4.0064073E-01;  7.2482562E+02;3;  3.9942657E+01;  0.0000000E+00; -6.3485708E+00;0;  2.1645521E-01;  9.9954814E+03;  0.0000000E+00; -2.1344671E-01;  1.0000000E+04;  0.0000000E+00;  9.9944980E+03;  8.6076126E-02;  0.0000000E+00;  1.3037908E-01;  4.5378058E+02;
  1.2600788E+00;  9.9999998E-03; -1.2002556E-01;2938;  5.6093801E-02;  0.0000000E+00; -1.5313708E-02;  1.0011047E+03;  4.0064073E-01;  7.2805524E+02;3;  3.4860374E+01;  0.0000000E+00; -5.9470735E+00;0;  2.2364840E-01;  9.9950488E+03;  0.0000000E+00; -3.6297673E-01;  1.0000000E+04;  0.0000000E+00;  9.9950264E+03;  9.5237598E-02;  0.0000000E+00;  1.2841080E-01;  4.6739917E+02;
  1.2600731E+00;  9.9999998E-03; -1.0002005E-01;2939;  5.1942069E-02;  0.0000000E+00; -1.2888096E-02;  1.0011247E+03;  4.0064076E-01;  7.4126373E+02;3;  3.0584375E+01;  0.0000000E+00; -5.6222658E+00;0;  2.2374377E-01;  9.9949316E+03;  0.0000000E+00; -3.2855827E-01;  1.0000000E+04;  0.0000000E+00;  9.9955469E+03;  1.0109598E-01;  0.0000000E+00;  1.2264778E-01;  4.0617303E+02;
  1.2600673E+00;  9.9999998E-03; -8.0014631E-02;2940;  4.8171673E-02;  0.0000000E+00; -9.8983524E-03;  1.0011500E+03;  4.0064070E-01;  7.5792944E+02;3;  2.7401655E+01;  0.0000000E+00; -4.7570620E+00;0;  2.2024500E-01;  9.9949756E+03;  0.0000000E+00; -2.1864164E-01;  1.0000000E+04;  0.0000000E+00;  9.9960059E+03;  1.0453575E-01;  0.0000000E+00;  1.1570925E-01;  3.1137457E+02;
  1.2600625E+00;  9.9999998E-03; -6.0009707E-02;2941;  4.4890873E-02;  0.0000000E+00; -6.8344483E-03;  1.0011713E+03;  4.0064076E-01;  7.7200128E+02;3;  2.4980663E+01;  0.0000000E+00; -3.4628305E+00;0;  2.1518506E-01;  9.9950293E+03;  0.0000000E+00; -1.1367172E-01;  1.0000000E+04;  0.0000000E+00;  9.9963779E+03;  1.0533483E-01;  0.0000000E+00;  1.0985024E-01;  2.3503706E+02;
  1.2600590E+00;  9.9999998E-03; -4.0005688E-02;2942;  4.2579763E-02;  0.0000000E+00; -4.1299933E-03;  1.0011853E+03;  4.0064082E-01;  7.8119965E+02;3;  2.3403898E+01;  0.0000000E+00; -2.1582427E+00;0;  2.1225524E-01;  9.9950273E+03;  0.0000000E+00; -4.4810615E-02;  1.0000000E+04;  0.0000000E+00;  9.9966553E+03;  1.0678812E-01;  0.0000000E+00;  1.0546711E-01;  1.9052585E+02;
  1.2600571E+00;  9.9999998E-03; -2.0002581E-02;2943;  4.1254684E-02;  0.0000000E+00; -1.9128213E-03;  1.0011929E+03;  4.0064070E-01;  7.8623145E+02;3;  2.2526730E+01;  0.0000000E+00; -1.0219256E+00;0;  2.1075219E-01;  9.9950068E+03;  0.0000000E+00; -1.0099134E-02;  1.0000000E+04;  0.0000000E+00;  9.9968320E+03;  1.0815766E-01;  0.0000000E+00;  1.0259454E-01;  1.6870973E+02;
  1.2800788E+00;  9.9999998E-03; -1.2002864E-01;2953;  5.5061392E-02;  0.0000000E+00; -1.5679853E-02;  1.0010717E+03;  4.0062609E-01;  6.7367975E+02;3;  3.7454586E+01;  0.0000000E+00; -6.0363417E+00;0;  2.1324342E-01;  9.9955498E+03;  0.0000000E+00;  8.0042087E-02;  1.0000000E+04;  0.0000000E+00;  9.9946006E+03;  8.1108861E-02;  0.0000000E+00;  1.3213457E-01;  3.2379410E+02;
  1.2800765E+00;  9.9999998E-03; -1.0002385E-01;2954;  5.2480791E-02;  0.0000000E+00; -1.4211365E-02;  1.0010435E+03;  4.0062603E-01;  6.5599817E+02;3;  3.3174923E+01;  0.0000000E+00; -6.0167222E+00;0;  2.3571211E-01;  9.9945195E+03;  0.0000000E+00; -8.6111650E-02;  1.0000000E+04;  0.0000000E+00;  9.9950693E+03;  1.0294104E-01;  0.0000000E+00;  1.3277106E-01;  2.5617606E+02;
  1.2800742E+00;  9.9999998E-03; -8.0017947E-02;2955;  5.0306898E-02;  0.0000000E+00; -1.1433127E-02;  1.0010331E+03;  4.0062597E-01;  6.4948230E+02;3;  2.9541357E+01;  0.0000000E+00; -5.6400394E+00;0;  2.4895719E-01;  9.9937725E+03;  0.0000000E+00; -1.1229258E-01;  1.0000000E+04;  0.0000000E+00;  9.9956084E+03;  1.2342122E-01;  0.0000000E+00;  1.2553596E-01;  1.9874487E+02;
  1.2800726E+00;  9.9999998E-03; -6.0011946E-02;2956;  4.9217001E-02;  0.0000000E+00; -7.8836652E-03;  1.0010235E+03;  4.0062597E-01;  6.4341504E+02;3;  2.7764463E+01;  0.0000000E+00; -4.0630937E+00;0;  2.6549214E-01;  9.9931436E+03;  0.0000000E+00; -7.2192885E-02;  1.0000000E+04;  0.0000000E+00;  9.9960469E+03;  1.4768088E-01;  0.0000000E+00;  1.1781128E-01;  1.3983142E+02;
  1.2800711E+00;  9.9999998E-03; -4.0006954E-02;2957;  4.8395757E-02;  0.0000000E+00; -4.7078347E-03;  1.0010180E+03;  4.0062600E-01;  6.3997009E+02;3;  2.6836166E+01;  0.0000000E+00; -2.4665303E+00;0;  2.7659687E-01;  9.9927471E+03;  0.0000000E+00; -3.0537378E-02;  1.0000000E+04;  0.0000000E+00;  9.9963369E+03;  1.6355762E-01;  0.0000000E+00;  1.1303926E-01;  9.8928894E+01;
  1.2800703E+00;  9.9999998E-03; -2.0003129E-02;2958;  4.7836509E-02;  0.0000000E+00; -2.1564898E-03;  1.0010153E+03;  4.0062597E-01;  6.3824786E+02;3;  2.6321331E+01;  0.0000000E+00; -1.1465052E+00;0;  2.8229976E-01;  9.9925186E+03;  0.0000000E+00; -7.0270305E-03;  1.0000000E+04;  0.0000000E+00;  9.9965068E+03;  1.7193931E-01;  0.0000000E+00;  1.1036046E-01;  7.6919823E+01;
  1.3000723E+00;  9.9999998E-03; -8.0021039E-02;2966;  4.8480712E-02;  0.0000000E+00; -1.2273242E-02;  1.0010784E+03;  4.0061602E-01;  6.4480780E+02;3;  3.2133205E+01;  0.0000000E+00; -5.6815853E+00;0;  2.0781890E-01;  9.9957246E+03;  0.0000000E+00;  1.5532941E-01;  1.0000000E+04;  0.0000000E+00;  9.9950488E+03;  7.0692845E-02;  0.0000000E+00;  1.3712604E-01;  2.3443901E+02;
  1.3000723E+00;  9.9999998E-03; -6.0014229E-02;2967;  4.7490142E-02;  0.0000000E+00; -8.9471061E-03;  1.0010563E+03;  4.0061608E-01;  6.3162097E+02;3;  2.9413103E+01;  0.0000000E+00; -4.9278750E+00;0;  2.2160178E-01;  9.9946699E+03;  0.0000000E+00;  4.8369620E-02;  1.0000000E+04;  0.0000000E+00;  9.9956660E+03;  9.4255015E-02;  0.0000000E+00;  1.2734677E-01;  1.4850197E+02;
  1.3000724E+00;  9.9999998E-03; -4.0008221E-02;2968;  4.7269616E-02;  0.0000000E+00; -5.2822544E-03;  1.0010317E+03;  4.0061617E-01;  6.1686554E+02;3;  2.8364546E+01;  0.0000000E+00; -2.9439659E+00;0;  2.3930821E-01;  9.9938115E+03;  0.0000000E+00;  1.0844698E-02;  1.0000000E+04;  0.0000000E+00;  9.9960352E+03;  1.1885117E-01;  0.0000000E+00;  1.2045704E-01;  9.6991653E+01;
  1.3000724E+00;  9.9999998E-03; -2.0003665E-02;2969;  4.7135402E-02;  0.0000000E+00; -2.3880105E-03;  1.0010153E+03;  4.0061611E-01;  6.0710004E+02;3;  2.7730305E+01;  0.0000000E+00; -1.3400016E+00;0;  2.5134847E-01;  9.9933008E+03;  0.0000000E+00;  1.4877408E-03;  1.0000000E+04;  0.0000000E+00;  9.9962188E+03;  1.3386874E-01;  0.0000000E+00;  1.1747973E-01;  7.0030220E+01;
 -1.2850712E-07;  9.9999998E-03; -7.8096201E-15;1045; -1.9372557E-04;  0.0000000E+00; -2.6536700E-11;  1.0000031E+03;  4.0000001E-01;  2.5678282E+00;3; -2.3823410E-01;  0.0000000E+00; -6.4332141E-08;0; -3.9237617E-03;  1.0000065E+04;  0.0000000E+00;  7.1826945E-17;  1.0000000E+04;  0.0000000E+00;  1.0000000E+04; -3.9809919E-03;  0.0000000E+00;  5.7230151E-05;  6.3028520E-01;
 -1.2846661E-07;  9.9999998E-03;  2.0000001E-02;1046; -1.9372629E-04;  0.0000000E+00;  1.1143527E-06;  1.0000031E+03;  4.0000001E-01;  2.5678282E+00;3; -2.3830920E-01;  0.0000000E+00;  1.0192656E-03;0; -3.9222348E-03;  1.0000065E+04;  0.0000000E+00;  2.5740961E-12;  1.0000000E+04;  0.0000000E+00;  1.0000000E+04; -3.9812289E-03;  0.0000000E+00;  5.8994166E-05;  6.3982874E-01;
 -1.2833445E-07;  9.9999998E-03;  4.0000003E-02;1047; -1.9370980E-04;  0.0000000E+00;  2.3347350E-06;  1.0000031E+03;  4.0000001E-01;  2.5678282E+00;3; -2.3850703E-01;  0.0000000E+00;  2.1885345E-03;0; -3.9172391E-03;  1.0000065E+04;  0.0000000E+00;  2.5887068E-12;  1.0000000E+04;  0.0000000E+00;  1.0000000E+04; -3.9814692E-03;  0.0000000E+00;  6.4230233E-05;  6.6806167E-01;
 -1.2807128E-07;  9.9999998E-03;  6.0000002E-02;1048; -1.9361172E-04;  0.0000000E+00;  3.7623779E-06;  1.0000031E+03;  4.0000001E-01;  2.5678282E+00;3; -2.3874155E-01;  0.0000000E+00;  3.6417209E-03;0; -3.9074915E-03;  1.0000064E+04;  0.0000000E+00; -2.3323019E-12;  1.0000000E+04;  0.0000000E+00;  1.0000000E+04; -3.9802557E-03;  0.0000000E+00;  7.2764131E-05;  7.1378869E-01;
 -1.2760991E-07;  9.9999998E-03;  8.0000006E-02;1049; -1.9331583E-04;  0.0000000E+00;  5.5141809E-06;  1.0000031E+03;  4.0000001E-01;  2.5678282E+00;3; -2.3884678E-01;  0.0000000E+00;  5.5779116E-03;0; -3.8907488E-03;  1.0000063E+04;  0.0000000E+00; -4.8342489E-12;  1.0000000E+04;  0.0000000E+00;  1.0000000E+04; -3.9750119E-03;  0.0000000E+00;  8.4263047E-05;  7.7488172E-01;
 -1.2685160E-07;  9.9999998E-03;  1.0000001E-01;1050; -1.9265535E-04;  0.0000000E+00;  7.6288047E-06;  1.0000031E+03;  4.0000001E-01;  2.5678282E+00;3; -2.3859918E-01;  0.0000000E+00;  8.0555705E-03;0; -3.8636993E-03;  1.0000063E+04;  0.0000000E+00;  8.8325702E-14;  1.0000000E+04;  0.0000000E+00;  9.9999990E+03; -3.9618360E-03;  0.0000000E+00;  9.8136748E-05;  8.4781545E-01;
 -1.2564597E-07;  9.9999998E-03;  1.2000000E-01;1051; -1.9136535E-04;  0.0000000E+00;  1.0246746E-05;  1.0000030E+03;  4.0000001E-01;  2.4690657E+00;3; -2.3762965E-01;  0.0000000E+00;  1.1295879E-02;0; -3.8218936E-03;  1.0000062E+04;  0.0000000E+00; -5.4333695E-12;  1.0000000E+04;  0.0000000E+00;  9.9999990E+03; -3.9352421E-03;  0.0000000E+00;  1.1334848E-04;  9.2661047E-01;
 -1.2380367E-07;  9.9999998E-03;  1.4000002E-01;1052; -1.8911893E-04;  0.0000000E+00;  1.3399816E-05;  1.0000029E+03;  4.0000001E-01;  2.4690657E+00;3; -2.3548993E-01;  0.0000000E+00;  1.5327644E-02;0; -3.7597590E-03;  1.0000061E+04;  0.0000000E+00; -1.7414235E-10;  1.0000000E+04;  0.0000000E+00;  9.9999990E+03; -3.8879341E-03;  0.0000000E+00;  1.2817523E-04;  1.0013980E+00;
  1.9999811E-02;  9.9999998E-03; -7.0410592E-15;1075; -2.7964116E-04;  0.0000000E+00; -2.6472446E-11;  1.0000040E+03;  4.0000001E-01;  3.2591665E+00;3; -3.2472050E-01;  0.0000000E+00; -9.4992870E-08;0; -4.8413854E-03;  1.0000080E+04;  0.0000000E+00;  6.2971742E-18;  1.0000000E+04;  0.0000000E+00;  1.0000000E+04; -4.9217949E-03;  0.0000000E+00;  8.0409365E-05;  8.6904216E-01;
  1.9999811E-02;  9.9999998E-03;  2.0000001E-02;1076; -2.7968019E-04;  0.0000000E+00;  1.6217676E-06;  1.0000040E+03;  4.0000001E-01;  3.2591665E+00;3; -3.2488197E-01;  0.0000000E+00;  1.3946611E-03;0; -4.8399186E-03;  1.0000080E+04;  0.0000000E+00; -6.2757742E-12;  1.0000000E+04;  0.0000000E+00;  1.0000000E+04; -4.9227918E-03;  0.0000000E+00;  8.2873128E-05;  8.8273257E-01;
  1.9999813E-02;  9.9999998E-03;  4.0000003E-02;1077; -2.7976773E-04;  0.0000000E+00;  3.3903061E-06;  1.0000040E+03;  4.0000001E-01;  3.2591665E+00;3; -3.2532269E-01;  0.0000000E+00;  2.9890153E-03;0; -4.8350380E-03;  1.0000080E+04;  0.0000000E+00; -1.2122750E-11;  1.0000000E+04;  0.0000000E+00;  1.0000000E+04; -4.9252249E-03;  0.0000000E+00;  9.0186804E-05;  9.2325103E-01;
  1.9999813E-02;  9.9999998E-03;  6.0000002E-02;1078; -2.7981642E-04;  0.0000000E+00;  5.4223879E-06;  1.0000040E+03;  4.0000001E-01;  3.2591665E+00;3; -3.2593179E-01;  0.0000000E+00;  4.9240948E-03;0; -4.8252642E-03;  1.0000080E+04;  0.0000000E+00; -1.8070311E-11;  1.0000000E+04;  0.0000000E+00;  9.9999990E+03; -4.9273693E-03;  0.0000000E+00;  1.0210528E-04;  9.8891157E-01;
  1.9999813E-02;  9.9999998E-03;  8.0000006E-02;1079; -2.7965807E-04;  0.0000000E+00;  7.8832318E-06;  1.0000040E+03;  4.0000001E-01;  3.2591665E+00;3; -3.2648408E-01;  0.0000000E+00;  7.4481075E-03;0; -4.8079905E-03;  1.0000080E+04;  0.0000000E+00; -1.4653801E-11;  1.0000000E+04;  0.0000000E+00;  9.9999990E+03; -4.9261465E-03;  0.0000000E+00;  1.1815588E-04;  1.0766591E+00;
  1.9999813E-02;  9.9999998E-03;  1.0000001E-01;1080; -2.7905128E-04;  0.0000000E+00;  1.0856396E-05;  1.0000039E+03;  4.0000001E-01;  3.2591665E+00;3; -3.2665992E-01;  0.0000000E+00;  1.0718723E-02;0; -4.7793491E-03;  1.0000079E+04;  0.0000000E+00; -1.9708721E-11;  1.0000000E+04;  0.0000000E+00;  9.9999980E+03; -4.9168440E-03;  0.0000000E+00;  1.3749507E-04;  1.1813695E+00;
  1.9999815E-02;  9.9999998E-03;  1.2000001E-01;1081; -2.7762415E-04;  0.0000000E+00;  1.4481770E-05;  1.0000038E+03;  4.0000001E-01;  3.1604040E+00;3; -3.2597643E-01;  0.0000000E+00;  1.4905656E-02;0; -4.7340798E-03;  1.0000078E+04;  0.0000000E+00; -3.7134542E-11;  1.0000000E+04;  0.0000000E+00;  9.9999980E+03; -4.8927395E-03;  0.0000000E+00;  1.5865956E-04;  1.2944161E+00;
  1.9999819E-02;  9.9999998E-03;  1.4000002E-01;1082; -2.7487258E-04;  0.0000000E+00;  1.8911242E-05;  1.0000037E+03;  4.0000001E-01;  3.0616415E+00;3; -3.2376629E-01;  0.0000000E+00;  2.0204447E-02;0; -4.6654809E-03;  1.0000077E+04;  0.0000000E+00; -9.9995394E-11;  1.0000000E+04;  0.0000000E+00;  9.9999980E+03; -4.8447493E-03;  0.0000000E+00;  1.7926857E-04;  1.4018489E+00;
  3.9999735E-02;  9.9999998E-03; -7.3884338E-15;1106; -3.9233710E-04;  0.0000000E+00; -1.2161263E-11;  1.0000048E+03;  4.0000001E-01;  3.9505050E+00;3; -4.3375465E-01;  0.0000000E+00;  3.0008664E-08;0; -5.7804068E-03;  1.0000098E+04;  0.0000000E+00; -8.3714483E-18;  1.0000000E+04;  0.0000000E+00;  9.9999990E+03; -5.8848760E-03;  0.0000000E+00;  1.0446915E-04;  1.1335539E+00;
  3.9999735E-02;  9.9999998E-03;  2.0000001E-02;1107; -3.9243614E-04;  0.0000000E+00;  2.0706002E-06;  1.0000048E+03;  4.0000001E-01;  3.9505050E+00;3; -4.3403524E-01;  0.0000000E+00;  1.6333793E-03;0; -5.7793632E-03;  1.0000098E+04;  0.0000000E+00;  3.1471351E-13;  1.0000000E+04;  0.0000000E+00;  9.9999990E+03; -5.8870390E-03;  0.0000000E+00;  1.0767581E-04;  1.1519843E+00;
  3.9999735E-02;  9.9999998E-03;  4.0000003E-02;1108; -3.9269129E-04;  0.0000000E+00;  4.3170003E-06;  1.0000048E+03;  4.0000001E-01;  3.9505050E+00;3; -4.3482026E-01;  0.0000000E+00;  3.4822882E-03;0; -5.7757064E-03;  1.0000098E+04;  0.0000000E+00; -7.4233779E-12;  1.0000000E+04;  0.0000000E+00;  9.9999990E+03; -5.8929003E-03;  0.0000000E+00;  1.1719402E-04;  1.2065465E+00;
  3.9999735E-02;  9.9999998E-03;  6.0000006E-02;1109; -3.9298090E-04;  0.0000000E+00;  6.8839677E-06;  1.0000048E+03;  4.0000001E-01;  3.9505050E+00;3; -4.3595105E-01;  0.0000000E+00;  5.7444628E-03;0; -5.7678199E-03;  1.0000098E+04;  0.0000000E+00; -6.5879455E-12;  1.0000000E+04;  0.0000000E+00;  9.9999980E+03; -5.9005185E-03;  0.0000000E+00;  1.3269862E-04;  1.2949898E+00;
  3.9999735E-02;  9.9999998E-03;  8.0000006E-02;1110; -3.9307924E-04;  0.0000000E+00;  9.9632034E-06;  1.0000048E+03;  4.0000001E-01;  3.9505050E+00;3; -4.3714607E-01;  0.0000000E+00;  8.6690970E-03;0; -5.7528354E-03;  1.0000098E+04;  0.0000000E+00; -2.0126187E-11;  1.0000000E+04;  0.0000000E+00;  9.9999980E+03; -5.9063965E-03;  0.0000000E+00;  1.5356130E-04;  1.4131756E+00;
  3.9999735E-02;  9.9999998E-03;  1.0000001E-01;1111; -3.9264871E-04;  0.0000000E+00;  1.3692385E-05;  1.0000048E+03;  4.0000001E-01;  3.9505050E+00;3; -4.3796724E-01;  0.0000000E+00;  1.2487078E-02;0; -5.7264403E-03;  1.0000098E+04;  0.0000000E+00; -1.1119027E-11;  1.0000000E+04;  0.0000000E+00;  9.9999971E+03; -5.9051034E-03;  0.0000000E+00;  1.7866325E-04;  1.5541208E+00;
  3.9999738E-02;  9.9999998E-03;  1.2000001E-01;1112; -3.9119460E-04;  0.0000000E+00;  1.8191149E-05;  1.0000047E+03;  4.0000001E-01;  3.8517423E+00;3; -4.3779835E-01;  0.0000000E+00;  1.7326484E-02;0; -5.6826668E-03;  1.0000096E+04;  0.0000000E+00;  1.0765124E-11;  1.0000000E+04;  0.0000000E+00;  9.9999971E+03; -5.8887638E-03;  0.0000000E+00;  2.0609697E-04;  1.7062163E+00;
  3.9999738E-02;  9.9999998E-03;  1.4000002E-01;1113; -3.8801023E-04;  0.0000000E+00;  2.3636365E-05;  1.0000046E+03;  4.0000001E-01;  3.8517423E+00;3; -4.3573746E-01;  0.0000000E+00;  2.3409227E-02;0; -5.6137075E-03;  1.0000096E+04;  0.0000000E+00; -5.3999985E-11;  1.0000000E+04;  0.0000000E+00;  9.9999971E+03; -5.8465442E-03;  0.0000000E+00;  2.3283671E-04;  1.8511493E+00;
  5.9999634E-02;  9.9999998E-03; -2.0788486E-14;1137; -5.2842975E-04;  0.0000000E+00; -2.6759352E-11;  1.0000059E+03;  4.0000001E-01;  4.8393683E+00;3; -5.6149560E-01;  0.0000000E+00;  7.5608142E-08;0; -6.8436349E-03;  1.0000119E+04;  0.0000000E+00;  1.9375890E-17;  1.0000000E+04;  0.0000000E+00;  9.9999980E+03; -6.9720531E-03;  0.0000000E+00;  1.2841818E-04;  1.4273388E+00;
  5.9999634E-02;  9.9999998E-03;  2.0000001E-02;1138; -5.2861770E-04;  0.0000000E+00;  2.4544065E-06;  1.0000059E+03;  4.0000001E-01;  4.8393683E+00;3; -5.6193089E-01;  0.0000000E+00;  1.7424665E-03;0; -6.8434160E-03;  1.0000119E+04;  0.0000000E+00; -1.7895644E-12;  1.0000000E+04;  0.0000000E+00;  9.9999980E+03; -6.9758301E-03;  0.0000000E+00;  1.3241425E-04;  1.4512699E+00;
  5.9999634E-02;  9.9999998E-03;  4.0000003E-02;1139; -5.2912772E-04;  0.0000000E+00;  5.1076954E-06;  1.0000059E+03;  4.0000001E-01;  4.8393683E+00;3; -5.6316996E-01;  0.0000000E+00;  3.7074815E-03;0; -6.8422183E-03;  1.0000119E+04;  0.0000000E+00; -3.0764998E-12;  1.0000000E+04;  0.0000000E+00;  9.9999980E+03; -6.9864895E-03;  0.0000000E+00;  1.4427106E-04;  1.5221212E+00;
  5.9999634E-02;  9.9999998E-03;  6.0000006E-02;1140; -5.2979996E-04;  0.0000000E+00;  8.1473027E-06;  1.0000059E+03;  4.0000001E-01;  4.8393683E+00;3; -5.6500971E-01;  0.0000000E+00;  6.1678849E-03;0; -6.8383235E-03;  1.0000118E+04;  0.0000000E+00; -2.5632762E-12;  1.0000000E+04;  0.0000000E+00;  9.9999971E+03; -7.0018899E-03;  0.0000000E+00;  1.6356635E-04;  1.6369450E+00;
  5.9999637E-02;  9.9999998E-03;  8.0000013E-02;1141; -5.3034682E-04;  0.0000000E+00;  1.1768638E-05;  1.0000059E+03;  4.0000001E-01;  4.8393683E+00;3; -5.6709933E-01;  0.0000000E+00;  9.3275644E-03;0; -6.8286606E-03;  1.0000118E+04;  0.0000000E+00;  5.2528110E-13;  1.0000000E+04;  0.0000000E+00;  9.9999971E+03; -7.0181503E-03;  0.0000000E+00;  1.8948957E-04;  1.7902846E+00;
  5.9999637E-02;  9.9999998E-03;  1.0000002E-01;1142; -5.3031807E-04;  0.0000000E+00;  1.6179278E-05;  1.0000059E+03;  4.0000001E-01;  4.8393683E+00;3; -5.6886786E-01;  0.0000000E+00;  1.3529416E-02;0; -6.8085329E-03;  1.0000118E+04;  0.0000000E+00;  7.6243187E-12;  1.0000000E+04;  0.0000000E+00;  9.9999971E+03; -7.0291539E-03;  0.0000000E+00;  2.2062122E-04;  1.9729550E+00;
  5.9999637E-02;  9.9999998E-03;  1.2000002E-01;1143; -5.2908331E-04;  0.0000000E+00;  2.1449807E-05;  1.0000057E+03;  4.0000001E-01;  4.7406058E+00;3; -5.6955421E-01;  0.0000000E+00;  1.8803272E-02;0; -6.7712800E-03;  1.0000118E+04;  0.0000000E+00;  1.0848556E-11;  1.0000000E+04;  0.0000000E+00;  9.9999961E+03; -7.0258817E-03;  0.0000000E+00;  2.5460182E-04;  2.1699960E+00;
  5.9999641E-02;  9.9999998E-03;  1.4000002E-01;1144; -5.2570412E-04;  0.0000000E+00;  2.7805856E-05;  1.0000056E+03;  4.0000001E-01;  4.6418433E+00;3; -5.6801307E-01;  0.0000000E+00;  2.5437739E-02;0; -6.7078779E-03;  1.0000118E+04;  0.0000000E+00;  2.3238939E-11;  1.0000000E+04;  0.0000000E+00;  9.9999951E+03; -6.9956761E-03;  0.0000000E+00;  2.8779841E-04;  2.3584583E+00;
  7.9999514E-02;  9.9999998E-03; -2.3683970E-14;1168; -6.8889186E-04;  0.0000000E+00; -1.5111220E-11;  1.0000071E+03;  4.0000001E-01;  5.8269949E+00;3; -7.0924985E-01;  0.0000000E+00;  1.1828058E-07;0; -8.1329355E-03;  1.0000147E+04;  0.0000000E+00; -1.0548541E-17;  1.0000000E+04;  0.0000000E+00;  9.9999971E+03; -8.2853716E-03;  0.0000000E+00;  1.5243582E-04;  1.7615107E+00;
  7.9999514E-02;  9.9999998E-03;  2.0000003E-02;1169; -6.8920705E-04;  0.0000000E+00;  2.7885808E-06;  1.0000071E+03;  4.0000001E-01;  5.8269949E+00;3; -7.0988572E-01;  0.0000000E+00;  1.7519863E-03;0; -8.1339749E-03;  1.0000147E+04;  0.0000000E+00; -1.9602668E-12;  1.0000000E+04;  0.0000000E+00;  9.9999971E+03; -8.2912985E-03;  0.0000000E+00;  1.5732393E-04;  1.7921916E+00;
  7.9999514E-02;  9.9999998E-03;  4.0000007E-02;1170; -6.9008913E-04;  0.0000000E+00;  5.7984680E-06;  1.0000071E+03;  4.0000001E-01;  5.8269949E+00;3; -7.1171856E-01;  0.0000000E+00;  3.7343223E-03;0; -8.1365276E-03;  1.0000147E+04;  0.0000000E+00; -1.1265054E-11;  1.0000000E+04;  0.0000000E+00;  9.9999971E+03; -8.3083436E-03;  0.0000000E+00;  1.7181570E-04;  1.8830101E+00;
  7.9999514E-02;  9.9999998E-03;  6.0000010E-02;1171; -6.9133833E-04;  0.0000000E+00;  9.2701503E-06;  1.0000071E+03;  4.0000001E-01;  5.8269949E+00;3; -7.1449733E-01;  0.0000000E+00;  6.2941890E-03;0; -8.1388196E-03;  1.0000147E+04;  0.0000000E+00; -1.0427670E-11;  1.0000000E+04;  0.0000000E+00;  9.9999971E+03; -8.3341757E-03;  0.0000000E+00;  1.9535612E-04;  2.0300915E+00;
  7.9999514E-02;  9.9999998E-03;  8.0000013E-02;1172; -6.9260481E-04;  0.0000000E+00;  1.3386689E-05;  1.0000071E+03;  4.0000001E-01;  5.8269949E+00;3; -7.1780437E-01;  0.0000000E+00;  9.5730349E-03;0; -8.1376210E-03;  1.0000147E+04;  0.0000000E+00; -3.1814364E-11;  1.0000000E+04;  0.0000000E+00;  9.9999961E+03; -8.3645210E-03;  0.0000000E+00;  2.2690013E-04;  2.2262588E+00;
  7.9999514E-02;  9.9999998E-03;  1.0000002E-01;1173; -6.9332169E-04;  0.0000000E+00;  1.8413319E-05;  1.0000070E+03;  4.0000001E-01;  5.8269949E+00;3; -7.2094959E-01;  0.0000000E+00;  1.3949522E-02;0; -8.1278607E-03;  1.0000148E+04;  0.0000000E+00; -8.9881375E-12;  1.0000000E+04;  0.0000000E+00;  9.9999961E+03; -8.3925305E-03;  0.0000000E+00;  2.6467018E-04;  2.4595559E+00;
  7.9999521E-02;  9.9999998E-03;  1.2000002E-01;1174; -6.9268822E-04;  0.0000000E+00;  2.4455556E-05;  1.0000070E+03;  4.0000001E-01;  5.7282324E+00;3; -7.2297359E-01;  0.0000000E+00;  1.9621998E-02;0; -8.1021450E-03;  1.0000147E+04;  0.0000000E+00; -1.5708164E-11;  1.0000000E+04;  0.0000000E+00;  9.9999951E+03; -8.4079579E-03;  0.0000000E+00;  3.0581249E-04;  2.7110224E+00;
  7.9999521E-02;  9.9999998E-03;  1.4000003E-01;1175; -6.8953156E-04;  0.0000000E+00;  3.1693125E-05;  1.0000070E+03;  4.0000001E-01;  5.7282324E+00;3; -7.2250891E-01;  0.0000000E+00;  2.6653832E-02;0; -8.0500543E-03;  1.0000146E+04;  0.0000000E+00;  3.5509116E-11;  1.0000000E+04;  0.0000000E+00;  9.9999951E+03; -8.3961664E-03;  0.0000000E+00;  3.4611192E-04;  2.9525838E+00;
  9.9999368E-02;  9.9999998E-03; -5.4855112E-15;1199; -8.7811385E-04;  0.0000000E+00;  1.5914504E-13;  1.0000089E+03;  4.0000001E-01;  7.3084340E+00;3; -8.8049841E-01;  0.0000000E+00;  5.7412080E-08;0; -9.7347759E-03;  1.0000181E+04;  0.0000000E+00; -4.5392400E-17;  1.0000000E+04;  0.0000000E+00;  9.9999971E+03; -9.9125532E-03;  0.0000000E+00;  1.7777731E-04;  2.1532288E+00;
  9.9999368E-02;  9.9999998E-03;  2.0000003E-02;1200; -8.7860686E-04;  0.0000000E+00;  3.1046752E-06;  1.0000089E+03;  4.0000001E-01;  7.3084340E+00;3; -8.8139236E-01;  0.0000000E+00;  1.6996171E-03;0; -9.7375186E-03;  1.0000181E+04;  0.0000000E+00; -1.5835508E-12;  1.0000000E+04;  0.0000000E+00;  9.9999971E+03; -9.9212918E-03;  0.0000000E+00;  1.8377281E-04;  2.1927626E+00;
  9.9999368E-02;  9.9999998E-03;  4.0000007E-02;1201; -8.8001299E-04;  0.0000000E+00;  6.4625938E-06;  1.0000089E+03;  4.0000001E-01;  7.3084340E+00;3; -8.8399082E-01;  0.0000000E+00;  3.6642819E-03;0; -9.7451676E-03;  1.0000181E+04;  0.0000000E+00;  4.2758674E-12;  1.0000000E+04;  0.0000000E+00;  9.9999961E+03; -9.9466937E-03;  0.0000000E+00;  2.0152575E-04;  2.3097482E+00;
  9.9999368E-02;  9.9999998E-03;  6.0000010E-02;1202; -8.8209467E-04;  0.0000000E+00;  1.0349063E-05;  1.0000089E+03;  4.0000001E-01;  7.3084340E+00;3; -8.8800913E-01;  0.0000000E+00;  6.2012486E-03;0; -9.7559234E-03;  1.0000180E+04;  0.0000000E+00; -3.3824135E-12;  1.0000000E+04;  0.0000000E+00;  9.9999961E+03; -9.9862115E-03;  0.0000000E+00;  2.3028784E-04;  2.4990273E+00;
  9.9999368E-02;  9.9999998E-03;  8.0000013E-02;1203; -8.8443339E-04;  0.0000000E+00;  1.4988264E-05;  1.0000089E+03;  4.0000001E-01;  7.3084340E+00;3; -8.9293402E-01;  0.0000000E+00;  9.6207950E-03;0; -9.7664222E-03;  1.0000181E+04;  0.0000000E+00; -1.5279292E-11;  1.0000000E+04;  0.0000000E+00;  9.9999961E+03; -1.0035103E-02;  0.0000000E+00;  2.6868118E-04;  2.7510571E+00;
  9.9999368E-02;  9.9999998E-03;  1.0000002E-01;1204; -8.8635396E-04;  0.0000000E+00;  2.0654923E-05;  1.0000089E+03;  4.0000001E-01;  7.3084340E+00;3; -8.9799172E-01;  0.0000000E+00;  1.4140351E-02;0; -9.7712846E-03;  1.0000181E+04;  0.0000000E+00; -2.7737566E-11;  1.0000000E+04;  0.0000000E+00;  9.9999951E+03; -1.0085727E-02;  0.0000000E+00;  3.1444253E-04;  3.0501347E+00;
  9.9999368E-02;  9.9999998E-03;  1.2000003E-01;1205; -8.8686426E-04;  0.0000000E+00;  2.7531276E-05;  1.0000087E+03;  4.0000001E-01;  7.2096715E+00;3; -9.0201068E-01;  0.0000000E+00;  2.0132303E-02;0; -9.7623393E-03;  1.0000183E+04;  0.0000000E+00; -5.5755118E-12;  1.0000000E+04;  0.0000000E+00;  9.9999932E+03; -1.0126438E-02;  0.0000000E+00;  3.6409835E-04;  3.3720808E+00;
  9.9999376E-02;  9.9999998E-03;  1.4000003E-01;1206; -8.8453811E-04;  0.0000000E+00;  3.5721845E-05;  1.0000087E+03;  4.0000001E-01;  7.2096715E+00;3; -9.0337318E-01;  0.0000000E+00;  2.7510546E-02;0; -9.7276038E-03;  1.0000182E+04;  0.0000000E+00;  1.4631274E-10;  1.0000000E+04;  0.0000000E+00;  9.9999932E+03; -1.0140386E-02;  0.0000000E+00;  4.1278274E-04;  3.6825209E+00;
  1.1999919E-01;  9.9999998E-03; -3.7323927E-15;1230; -1.1033160E-03;  0.0000000E+00; -1.1362711E-10;  1.0000109E+03;  4.0000001E-01;  8.9873991E+00;3; -1.0796611E+00;  0.0000000E+00; -3.7363043E-07;0; -1.1716349E-02;  1.0000223E+04;  0.0000000E+00; -4.0738728E-17;  1.0000000E+04;  0.0000000E+00;  9.9999961E+03; -1.1922758E-02;  0.0000000E+00;  2.0640883E-04;  2.6231606E+00;
  1.1999919E-01;  9.9999998E-03;  2.0000003E-02;1231; -1.1040524E-03;  0.0000000E+00;  3.4486936E-06;  1.0000109E+03;  4.0000001E-01;  8.9873991E+00;3; -1.0808864E+00;  0.0000000E+00;  1.6468158E-03;0; -1.1721245E-02;  1.0000223E+04;  0.0000000E+00;  2.6700486E-12;  1.0000000E+04;  0.0000000E+00;  9.9999961E+03; -1.1935144E-02;  0.0000000E+00;  2.1389915E-04;  2.6749082E+00;
  1.1999919E-01;  9.9999998E-03;  4.0000007E-02;1232; -1.1061770E-03;  0.0000000E+00;  7.2003522E-06;  1.0000109E+03;  4.0000001E-01;  8.9873991E+00;3; -1.0844593E+00;  0.0000000E+00;  3.6244311E-03;0; -1.1735373E-02;  1.0000223E+04;  0.0000000E+00; -1.4240231E-12;  1.0000000E+04;  0.0000000E+00;  9.9999961E+03; -1.1971419E-02;  0.0000000E+00;  2.3604544E-04;  2.8279941E+00;
  1.1999919E-01;  9.9999998E-03;  6.0000010E-02;1233; -1.1094176E-03;  0.0000000E+00;  1.1560623E-05;  1.0000109E+03;  4.0000001E-01;  8.9873991E+00;3; -1.0900654E+00;  0.0000000E+00;  6.1941110E-03;0; -1.1756937E-02;  1.0000223E+04;  0.0000000E+00; -1.3710952E-12;  1.0000000E+04;  0.0000000E+00;  9.9999961E+03; -1.2028752E-02;  0.0000000E+00;  2.7181517E-04;  3.0754926E+00;
  1.1999919E-01;  9.9999998E-03;  8.0000013E-02;1234; -1.1132846E-03;  0.0000000E+00;  1.6822609E-05;  1.0000109E+03;  4.0000001E-01;  8.9873991E+00;3; -1.0971265E+00;  0.0000000E+00;  9.7648511E-03;0; -1.1782525E-02;  1.0000225E+04;  0.0000000E+00; -1.7800610E-11;  1.0000000E+04;  0.0000000E+00;  9.9999941E+03; -1.2101863E-02;  0.0000000E+00;  3.1933759E-04;  3.4045582E+00;
  1.1999919E-01;  9.9999998E-03;  1.0000002E-01;1235; -1.1169950E-03;  0.0000000E+00;  2.3259679E-05;  1.0000109E+03;  4.0000001E-01;  8.9873991E+00;3; -1.1047660E+00;  0.0000000E+00;  1.4488071E-02;0; -1.1806497E-02;  1.0000225E+04;  0.0000000E+00;  1.0036325E-11;  1.0000000E+04;  0.0000000E+00;  9.9999932E+03; -1.2182141E-02;  0.0000000E+00;  3.7564297E-04;  3.7942750E+00;
  1.1999919E-01;  9.9999998E-03;  1.2000003E-01;1236; -1.1193558E-03;  0.0000000E+00;  3.1151376E-05;  1.0000109E+03;  4.0000001E-01;  8.9873991E+00;3; -1.1115962E+00;  0.0000000E+00;  2.0861721E-02;0; -1.1820033E-02;  1.0000226E+04;  0.0000000E+00;  2.1302368E-11;  1.0000000E+04;  0.0000000E+00;  9.9999932E+03; -1.2256411E-02;  0.0000000E+00;  4.3637751E-04;  4.2132392E+00;
  1.1999919E-01;  9.9999998E-03;  1.4000003E-01;1237; -1.1186651E-03;  0.0000000E+00;  4.0488412E-05;  1.0000109E+03;  4.0000001E-01;  8.9873991E+00;3; -1.1157426E+00;  0.0000000E+00;  2.8630124E-02;0; -1.1809519E-02;  1.0000226E+04;  0.0000000E+00; -4.4501923E-11;  1.0000000E+04;  0.0000000E+00;  9.9999902E+03; -1.2305350E-02;  0.0000000E+00;  4.9583160E-04;  4.6188769E+00;
  1.3999897E-01;  9.9999998E-03; -4.5592829E-14;1261; -1.3735902E-03;  0.0000000E+00; -6.4888455E-12;  1.0000135E+03;  4.0000001E-01;  1.1258939E+01;3; -1.3115914E+00;  0.0000000E+00;  7.2848025E-08;0; -1.4131732E-02;  1.0000276E+04;  0.0000000E+00; -5.0487568E-17;  1.0000000E+04;  0.0000000E+00;  9.9999951E+03; -1.4372277E-02;  0.0000000E+00;  2.4054508E-04;  3.1930902E+00;
  1.3999897E-01;  9.9999998E-03;  2.0000003E-02;1262; -1.3746561E-03;  0.0000000E+00;  3.8774392E-06;  1.0000135E+03;  4.0000001E-01;  1.1258939E+01;3; -1.3132373E+00;  0.0000000E+00;  1.7037247E-03;0; -1.4139253E-02;  1.0000276E+04;  0.0000000E+00; -2.5104510E-12;  1.0000000E+04;  0.0000000E+00;  9.9999951E+03; -1.4389403E-02;  0.0000000E+00;  2.5015004E-04;  3.2620928E+00;
  1.3999896E-01;  9.9999998E-03;  4.0000010E-02;1263; -1.3777559E-03;  0.0000000E+00;  8.1267308E-06;  1.0000136E+03;  4.0000001E-01;  1.1258939E+01;3; -1.3180563E+00;  0.0000000E+00;  3.7808153E-03;0; -1.4161263E-02;  1.0000276E+04;  0.0000000E+00; -5.3914108E-12;  1.0000000E+04;  0.0000000E+00;  9.9999941E+03; -1.4439774E-02;  0.0000000E+00;  2.7851108E-04;  3.4662447E+00;
  1.3999896E-01;  9.9999998E-03;  6.0000014E-02;1264; -1.3825827E-03;  0.0000000E+00;  1.3108179E-05;  1.0000136E+03;  4.0000001E-01;  1.1258939E+01;3; -1.3257070E+00;  0.0000000E+00;  6.5132594E-03;0; -1.4196037E-02;  1.0000276E+04;  0.0000000E+00; -1.2320784E-11;  1.0000000E+04;  0.0000000E+00;  9.9999941E+03; -1.4520228E-02;  0.0000000E+00;  3.2419022E-04;  3.7962985E+00;
  1.3999896E-01;  9.9999998E-03;  8.0000021E-02;1265; -1.3885731E-03;  0.0000000E+00;  1.9193485E-05;  1.0000135E+03;  4.0000001E-01;  1.1258939E+01;3; -1.3355390E+00;  0.0000000E+00;  1.0388932E-02;0; -1.4240212E-02;  1.0000276E+04;  0.0000000E+00; -2.0508401E-11;  1.0000000E+04;  0.0000000E+00;  9.9999932E+03; -1.4624815E-02;  0.0000000E+00;  3.8460345E-04;  4.2349687E+00;
  1.3999896E-01;  9.9999998E-03;  1.0000002E-01;1266; -1.3948292E-03;  0.0000000E+00;  2.6671514E-05;  1.0000135E+03;  4.0000001E-01;  1.1258939E+01;3; -1.3465813E+00;  0.0000000E+00;  1.5497288E-02;0; -1.4288068E-02;  1.0000279E+04;  0.0000000E+00;  3.1093071E-12;  1.0000000E+04;  0.0000000E+00;  9.9999912E+03; -1.4743831E-02;  0.0000000E+00;  4.5576302E-04;  4.7543139E+00;
  1.3999896E-01;  9.9999998E-03;  1.2000003E-01;1267; -1.3999486E-03;  0.0000000E+00;  3.5886933E-05;  1.0000135E+03;  4.0000001E-01;  1.1160176E+01;3; -1.3572540E+00;  0.0000000E+00;  2.2364216E-02;0; -1.4330290E-02;  1.0000279E+04;  0.0000000E+00; -5.8065171E-11;  1.0000000E+04;  0.0000000E+00;  9.9999902E+03; -1.4862367E-02;  0.0000000E+00;  5.3207716E-04;  5.3133330E+00;
  1.3999896E-01;  9.9999998E-03;  1.4000005E-01;1268; -1.4019130E-03;  0.0000000E+00;  4.6774076E-05;  1.0000134E+03;  4.0000001E-01;  1.1160176E+01;3; -1.3653299E+00;  0.0000000E+00;  3.0844638E-02;0; -1.4351779E-02;  1.0000280E+04;  0.0000000E+00; -9.1572819E-11;  1.0000000E+04;  0.0000000E+00;  9.9999893E+03; -1.4958564E-02;  0.0000000E+00;  6.0678582E-04;  5.8596706E+00;
  1.5999869E-01;  9.9999998E-03; -5.1103808E-14;1292; -1.6989973E-03;  0.0000000E+00; -1.6290495E-10;  1.0000168E+03;  4.0000001E-01;  1.3925530E+01;3; -1.5814995E+00;  0.0000000E+00; -7.4816342E-07;0; -1.7036563E-02;  1.0000341E+04;  0.0000000E+00; -1.6357180E-16;  1.0000000E+04;  0.0000000E+00;  9.9999941E+03; -1.7318752E-02;  0.0000000E+00;  2.8218949E-04;  3.8842828E+00;
  1.5999869E-01;  9.9999998E-03;  2.0000005E-02;1293; -1.7005048E-03;  0.0000000E+00;  4.4382468E-06;  1.0000168E+03;  4.0000001E-01;  1.3925530E+01;3; -1.5836803E+00;  0.0000000E+00;  1.9357458E-03;0; -1.7047159E-02;  1.0000341E+04;  0.0000000E+00;  1.7923330E-12;  1.0000000E+04;  0.0000000E+00;  9.9999941E+03; -1.7341981E-02;  0.0000000E+00;  2.9482166E-04;  3.9776809E+00;
  1.5999869E-01;  9.9999998E-03;  4.0000010E-02;1294; -1.7049172E-03;  0.0000000E+00;  9.3489843E-06;  1.0000168E+03;  4.0000001E-01;  1.3925530E+01;3; -1.5900948E+00;  0.0000000E+00;  4.3120706E-03;0; -1.7078463E-02;  1.0000342E+04;  0.0000000E+00; -8.3838657E-12;  1.0000000E+04;  0.0000000E+00;  9.9999941E+03; -1.7410556E-02;  0.0000000E+00;  3.3209214E-04;  4.2542076E+00;
  1.5999869E-01;  9.9999998E-03;  6.0000017E-02;1295; -1.7118866E-03;  0.0000000E+00;  1.5184156E-05;  1.0000168E+03;  4.0000001E-01;  1.3925530E+01;3; -1.6003604E+00;  0.0000000E+00;  7.4628033E-03;0; -1.7128872E-02;  1.0000344E+04;  0.0000000E+00; -1.9630686E-11;  1.0000000E+04;  0.0000000E+00;  9.9999922E+03; -1.7520893E-02;  0.0000000E+00;  3.9202144E-04;  4.7018414E+00;
  1.5999869E-01;  9.9999998E-03;  8.0000021E-02;1296; -1.7207719E-03;  0.0000000E+00;  2.2420505E-05;  1.0000168E+03;  4.0000001E-01;  1.3925530E+01;3; -1.6137533E+00;  0.0000000E+00;  1.1947569E-02;0; -1.7195184E-02;  1.0000346E+04;  0.0000000E+00; -1.0504065E-11;  1.0000000E+04;  0.0000000E+00;  9.9999902E+03; -1.7666258E-02;  0.0000000E+00;  4.7107341E-04;  5.2979240E+00;
  1.5999867E-01;  9.9999998E-03;  1.0000003E-01;1297; -1.7305426E-03;  0.0000000E+00;  3.1400181E-05;  1.0000169E+03;  4.0000001E-01;  1.4024293E+01;3; -1.6291891E+00;  0.0000000E+00;  1.7840089E-02;0; -1.7271774E-02;  1.0000348E+04;  0.0000000E+00; -3.8625367E-11;  1.0000000E+04;  0.0000000E+00;  9.9999902E+03; -1.7835690E-02;  0.0000000E+00;  5.6391658E-04;  6.0059986E+00;
  1.5999867E-01;  9.9999998E-03;  1.2000004E-01;1298; -1.7395706E-03;  0.0000000E+00;  4.2512333E-05;  1.0000169E+03;  4.0000001E-01;  1.4024293E+01;3; -1.6448889E+00;  0.0000000E+00;  2.5667185E-02;0; -1.7349048E-02;  1.0000349E+04;  0.0000000E+00; -4.3520170E-11;  1.0000000E+04;  0.0000000E+00;  9.9999863E+03; -1.8012470E-02;  0.0000000E+00;  6.6342205E-04;  6.7741485E+00;
  1.5999867E-01;  9.9999998E-03;  1.4000006E-01;1299; -1.7454766E-03;  0.0000000E+00;  5.5640801E-05;  1.0000169E+03;  4.0000001E-01;  1.4024293E+01;3; -1.6582724E+00;  0.0000000E+00;  3.5339616E-02;0; -1.7410351E-02;  1.0000351E+04;  0.0000000E+00; -9.9228001E-11;  1.0000000E+04;  0.0000000E+00;  9.9999854E+03; -1.8172218E-02;  0.0000000E+00;  7.6186581E-04;  7.5415058E+00;
  1.7999834E-01;  9.9999998E-03;  1.0115248E-13;1323; -2.0903642E-03;  0.0000000E+00;  1.2240735E-11;  1.0000206E+03;  4.0000001E-01;  1.7085934E+01;3; -1.8949325E+00;  0.0000000E+00; -2.2370841E-07;0; -2.0503020E-02;  1.0000419E+04;  0.0000000E+00;  1.1498610E-16;  1.0000000E+04;  0.0000000E+00;  9.9999922E+03; -2.0835767E-02;  0.0000000E+00;  3.3274677E-04;  4.7167735E+00;
  1.7999834E-01;  9.9999998E-03;  2.0000005E-02;1324; -2.0924588E-03;  0.0000000E+00;  5.1611078E-06;  1.0000207E+03;  4.0000001E-01;  1.7184696E+01;3; -1.8977909E+00;  0.0000000E+00;  2.4141173E-03;0; -2.0517195E-02;  1.0000419E+04;  0.0000000E+00;  3.1112274E-12;  1.0000000E+04;  0.0000000E+00;  9.9999922E+03; -2.0866858E-02;  0.0000000E+00;  3.4966398E-04;  4.8441634E+00;
  1.7999834E-01;  9.9999998E-03;  4.0000010E-02;1325; -2.0986171E-03;  0.0000000E+00;  1.0942691E-05;  1.0000207E+03;  4.0000001E-01;  1.7184696E+01;3; -1.9062176E+00;  0.0000000E+00;  5.3766407E-03;0; -2.0559251E-02;  1.0000422E+04;  0.0000000E+00; -2.9974249E-11;  1.0000000E+04;  0.0000000E+00;  9.9999922E+03; -2.0958837E-02;  0.0000000E+00;  3.9958509E-04;  5.2218785E+00;
  1.7999834E-01;  9.9999998E-03;  6.0000021E-02;1326; -2.1084459E-03;  0.0000000E+00;  1.7950624E-05;  1.0000208E+03;  4.0000001E-01;  1.7184696E+01;3; -1.9197829E+00;  0.0000000E+00;  9.3279555E-03;0; -2.0627733E-02;  1.0000425E+04;  0.0000000E+00; -1.2194058E-11;  1.0000000E+04;  0.0000000E+00;  9.9999902E+03; -2.1107614E-02;  0.0000000E+00;  4.7987991E-04;  5.8351765E+00;
  1.7999834E-01;  9.9999998E-03;  8.0000028E-02;1327; -2.1212141E-03;  0.0000000E+00;  2.6798532E-05;  1.0000208E+03;  4.0000001E-01;  1.7184696E+01;3; -1.9376765E+00;  0.0000000E+00;  1.4909290E-02;0; -2.0719690E-02;  1.0000427E+04;  0.0000000E+00; -3.1087997E-11;  1.0000000E+04;  0.0000000E+00;  9.9999873E+03; -2.1305580E-02;  0.0000000E+00;  5.8588909E-04;  6.6560326E+00;
  1.7999832E-01;  9.9999998E-03;  1.0000004E-01;1328; -2.1357355E-03;  0.0000000E+00;  3.7960643E-05;  1.0000208E+03;  4.0000001E-01;  1.7283459E+01;3; -1.9586811E+00;  0.0000000E+00;  2.2243220E-02;0; -2.0829670E-02;  1.0000429E+04;  0.0000000E+00; -9.7807196E-12;  1.0000000E+04;  0.0000000E+00;  9.9999863E+03; -2.1540422E-02;  0.0000000E+00;  7.1075145E-04;  7.6396751E+00;
  1.7999832E-01;  9.9999998E-03;  1.2000005E-01;1329; -2.1501211E-03;  0.0000000E+00;  5.1881616E-05;  1.0000209E+03;  4.0000001E-01;  1.7283459E+01;3; -1.9807911E+00;  0.0000000E+00;  3.1908043E-02;0; -2.0947685E-02;  1.0000432E+04;  0.0000000E+00;  4.0283204E-11;  1.0000000E+04;  0.0000000E+00;  9.9999824E+03; -2.1793509E-02;  0.0000000E+00;  8.4582280E-04;  8.7251921E+00;
  1.7999832E-01;  9.9999998E-03;  1.4000006E-01;1330; -2.1615813E-03;  0.0000000E+00;  6.8360241E-05;  1.0000209E+03;  4.0000001E-01;  1.7283459E+01;3; -2.0010867E+00;  0.0000000E+00;  4.3614082E-02;0; -2.1055020E-02;  1.0000435E+04;  0.0000000E+00; -8.0151052E-11;  1.0000000E+04;  0.0000000E+00;  9.9999824E+03; -2.2038186E-02;  0.0000000E+00;  9.8316604E-04;  9.8506002E+00;
  1.9999792E-01;  9.9999998E-03;  5.9084584E-15;1354; -2.5600477E-03;  0.0000000E+00; -1.8152657E-10;  1.0000256E+03;  4.0000001E-01;  2.1233965E+01;3; -2.2579310E+00;  0.0000000E+00; -8.0586528E-07;0; -2.4616737E-02;  1.0000520E+04;  0.0000000E+00; -1.6255131E-17;  1.0000000E+04;  0.0000000E+00;  9.9999922E+03; -2.5009425E-02;  0.0000000E+00;  3.9268931E-04;  5.7087250E+00;
  1.9999792E-01;  9.9999998E-03;  2.0000007E-02;1355; -2.5629140E-03;  0.0000000E+00;  6.0487300E-06;  1.0000256E+03;  4.0000001E-01;  2.1233965E+01;3; -2.2616286E+00;  0.0000000E+00;  3.1987503E-03;0; -2.4635011E-02;  1.0000520E+04;  0.0000000E+00; -2.9095211E-11;  1.0000000E+04;  0.0000000E+00;  9.9999912E+03; -2.5050545E-02;  0.0000000E+00;  4.1553302E-04;  5.8823276E+00;
  1.9999792E-01;  9.9999998E-03;  4.0000014E-02;1356; -2.5713698E-03;  0.0000000E+00;  1.2925512E-05;  1.0000256E+03;  4.0000001E-01;  2.1233965E+01;3; -2.2725489E+00;  0.0000000E+00;  7.1055363E-03;0; -2.4689397E-02;  1.0000521E+04;  0.0000000E+00; -2.5800698E-11;  1.0000000E+04;  0.0000000E+00;  9.9999893E+03; -2.5172420E-02;  0.0000000E+00;  4.8302280E-04;  6.3982658E+00;
  1.9999790E-01;  9.9999998E-03;  6.0000025E-02;1357; -2.5849708E-03;  0.0000000E+00;  2.1500342E-05;  1.0000257E+03;  4.0000001E-01;  2.1332727E+01;3; -2.2902203E+00;  0.0000000E+00;  1.2367475E-02;0; -2.4778601E-02;  1.0000525E+04;  0.0000000E+00;  4.6689020E-12;  1.0000000E+04;  0.0000000E+00;  9.9999873E+03; -2.5370471E-02;  0.0000000E+00;  5.9187086E-04;  7.2402177E+00;
  1.9999790E-01;  9.9999998E-03;  8.0000035E-02;1358; -2.6028845E-03;  0.0000000E+00;  3.2561315E-05;  1.0000257E+03;  4.0000001E-01;  2.1332727E+01;3; -2.3137321E+00;  0.0000000E+00;  1.9715374E-02;0; -2.4899751E-02;  1.0000530E+04;  0.0000000E+00; -1.8291488E-11;  1.0000000E+04;  0.0000000E+00;  9.9999854E+03; -2.5636058E-02;  0.0000000E+00;  7.3630712E-04;  8.3768148E+00;
  1.9999789E-01;  9.9999998E-03;  1.0000005E-01;1359; -2.6237201E-03;  0.0000000E+00;  4.6832021E-05;  1.0000258E+03;  4.0000001E-01;  2.1431490E+01;3; -2.3416922E+00;  0.0000000E+00;  2.9436171E-02;0; -2.5047300E-02;  1.0000533E+04;  0.0000000E+00; -3.5855714E-11;  1.0000000E+04;  0.0000000E+00;  9.9999824E+03; -2.5955370E-02;  0.0000000E+00;  9.0806989E-04;  9.7584963E+00;
  1.9999789E-01;  9.9999998E-03;  1.2000006E-01;1360; -2.6452749E-03;  0.0000000E+00;  6.4883352E-05;  1.0000259E+03;  4.0000001E-01;  2.1530252E+01;3; -2.3717985E+00;  0.0000000E+00;  4.2290010E-02;0; -2.5210401E-02;  1.0000539E+04;  0.0000000E+00;  7.6654696E-11;  1.0000000E+04;  0.0000000E+00;  9.9999775E+03; -2.6307955E-02;  0.0000000E+00;  1.0975536E-03;  1.1322609E+01;
  1.9999787E-01;  9.9999998E-03;  1.4000009E-01;1361; -2.6643153E-03;  0.0000000E+00;  8.6295244E-05;  1.0000259E+03;  4.0000001E-01;  2.1431490E+01;3; -2.4009051E+00;  0.0000000E+00;  5.7259493E-02;0; -2.5366940E-02;  1.0000543E+04;  0.0000000E+00;  2.0467446E-10;  1.0000000E+04;  0.0000000E+00;  9.9999746E+03; -2.6665067E-02;  0.0000000E+00;  1.2981283E-03;  1.3021194E+01;
  2.1999739E-01;  9.9999998E-03;  4.4246755E-14;1385; -3.1223551E-03;  0.0000000E+00; -1.1969105E-10;  1.0000314E+03;  4.0000001E-01;  2.6073332E+01;3; -2.6771884E+00;  0.0000000E+00; -4.1596127E-07;0; -2.9472141E-02;  1.0000640E+04;  0.0000000E+00;  3.2700064E-17;  1.0000000E+04;  0.0000000E+00;  9.9999893E+03; -2.9933473E-02;  0.0000000E+00;  4.6133308E-04;  6.8772597E+00;
  2.1999739E-01;  9.9999998E-03;  2.0000007E-02;1386; -3.1262268E-03;  0.0000000E+00;  7.0614092E-06;  1.0000314E+03;  4.0000001E-01;  2.6073332E+01;3; -2.6819136E+00;  0.0000000E+00;  4.3109092E-03;0; -2.9495198E-02;  1.0000640E+04;  0.0000000E+00;  1.4380523E-11;  1.0000000E+04;  0.0000000E+00;  9.9999893E+03; -2.9987330E-02;  0.0000000E+00;  4.9213227E-04;  7.1117558E+00;
  2.1999739E-01;  9.9999998E-03;  4.0000018E-02;1387; -3.1376835E-03;  0.0000000E+00;  1.5244079E-05;  1.0000314E+03;  4.0000001E-01;  2.5974569E+01;3; -2.6959119E+00;  0.0000000E+00;  9.5651178E-03;0; -2.9563921E-02;  1.0000642E+04;  0.0000000E+00;  6.3113633E-12;  1.0000000E+04;  0.0000000E+00;  9.9999873E+03; -3.0147247E-02;  0.0000000E+00;  5.8332691E-04;  7.8109202E+00;
  2.1999738E-01;  9.9999998E-03;  6.0000028E-02;1388; -3.1562126E-03;  0.0000000E+00;  2.5812522E-05;  1.0000315E+03;  4.0000001E-01;  2.6073332E+01;3; -2.7186487E+00;  0.0000000E+00;  1.6725762E-02;0; -2.9676929E-02;  1.0000646E+04;  0.0000000E+00;  2.5503939E-11;  1.0000000E+04;  0.0000000E+00;  9.9999854E+03; -3.0408064E-02;  0.0000000E+00;  7.3113386E-04;  8.9598007E+00;
  2.1999736E-01;  9.9999998E-03;  8.0000043E-02;1389; -3.1808598E-03;  0.0000000E+00;  3.9795301E-05;  1.0000315E+03;  4.0000001E-01;  2.6073332E+01;3; -2.7491076E+00;  0.0000000E+00;  2.6659880E-02;0; -2.9831154E-02;  1.0000651E+04;  0.0000000E+00; -4.0450424E-11;  1.0000000E+04;  0.0000000E+00;  9.9999814E+03; -3.0760132E-02;  0.0000000E+00;  9.2897785E-04;  1.0528852E+01;
  2.1999735E-01;  9.9999998E-03;  1.0000006E-01;1390; -3.2099881E-03;  0.0000000E+00;  5.8303780E-05;  1.0000316E+03;  4.0000001E-01;  2.6172096E+01;3; -2.7856638E+00;  0.0000000E+00;  3.9923325E-02;0; -3.0020289E-02;  1.0000657E+04;  0.0000000E+00; -6.2544976E-11;  1.0000000E+04;  0.0000000E+00;  9.9999766E+03; -3.1188034E-02;  0.0000000E+00;  1.1677438E-03;  1.2471862E+01;
  2.1999733E-01;  9.9999998E-03;  1.2000008E-01;1391; -3.2410286E-03;  0.0000000E+00;  8.1975188E-05;  1.0000317E+03;  4.0000001E-01;  2.6270859E+01;3; -2.8257153E+00;  0.0000000E+00;  5.7295352E-02;0; -3.0231345E-02;  1.0000665E+04;  0.0000000E+00; -2.0228531E-11;  1.0000000E+04;  0.0000000E+00;  9.9999707E+03; -3.1669270E-02;  0.0000000E+00;  1.4379250E-03;  1.4737559E+01;
  2.1999732E-01;  9.9999998E-03;  1.4000010E-01;1392; -3.2701741E-03;  0.0000000E+00;  1.1054641E-04;  1.0000318E+03;  4.0000001E-01;  2.6369621E+01;3; -2.8657160E+00;  0.0000000E+00;  7.7578217E-02;0; -3.0436836E-02;  1.0000673E+04;  0.0000000E+00;  5.5188121E-10;  1.0000000E+04;  0.0000000E+00;  9.9999668E+03; -3.2173045E-02;  0.0000000E+00;  1.7362090E-03;  1.7313707E+01;
  2.3999675E-01;  9.9999998E-03; -1.4226982E-13;1416; -3.7935202E-03;  0.0000000E+00; -3.2809347E-10;  1.0000385E+03;  4.0000001E-01;  3.1900328E+01;3; -3.1600840E+00;  0.0000000E+00; -9.2288178E-07;0; -3.5173543E-02;  1.0000784E+04;  0.0000000E+00; -4.0731957E-18;  1.0000000E+04;  0.0000000E+00;  9.9999883E+03; -3.5710540E-02;  0.0000000E+00;  5.3699804E-04;  8.2434311E+00;
  2.3999675E-01;  9.9999998E-03;  2.0000009E-02;1417; -3.7986874E-03;  0.0000000E+00;  8.0913187E-06;  1.0000385E+03;  4.0000001E-01;  3.1900328E+01;3; -3.1660678E+00;  0.0000000E+00;  5.6964383E-03;0; -3.5202317E-02;  1.0000784E+04;  0.0000000E+00;  6.3778677E-11;  1.0000000E+04;  0.0000000E+00;  9.9999873E+03; -3.5780437E-02;  0.0000000E+00;  5.7812018E-04;  8.5552692E+00;
  2.3999673E-01;  9.9999998E-03;  4.0000018E-02;1418; -3.8140200E-03;  0.0000000E+00;  1.7746201E-05;  1.0000386E+03;  4.0000001E-01;  3.1999090E+01;3; -3.1838443E+00;  0.0000000E+00;  1.2709760E-02;0; -3.5288107E-02;  1.0000788E+04;  0.0000000E+00; -5.4588421E-12;  1.0000000E+04;  0.0000000E+00;  9.9999844E+03; -3.5988353E-02;  0.0000000E+00;  7.0024555E-04;  9.4887800E+00;
  2.3999672E-01;  9.9999998E-03;  6.0000032E-02;1419; -3.8389172E-03;  0.0000000E+00;  3.0707244E-05;  1.0000387E+03;  4.0000001E-01;  3.2097855E+01;3; -3.2127719E+00;  0.0000000E+00;  2.2347080E-02;0; -3.5429128E-02;  1.0000791E+04;  0.0000000E+00; -8.2849456E-11;  1.0000000E+04;  0.0000000E+00;  9.9999814E+03; -3.6328603E-02;  0.0000000E+00;  8.9947530E-04;  1.1035802E+01;
  2.3999670E-01;  9.9999998E-03;  8.0000050E-02;1420; -3.8722779E-03;  0.0000000E+00;  4.8270020E-05;  1.0000388E+03;  4.0000001E-01;  3.2196617E+01;3; -3.2517049E+00;  0.0000000E+00;  3.5627943E-02;0; -3.5621367E-02;  1.0000800E+04;  0.0000000E+00; -1.3187459E-10;  1.0000000E+04;  0.0000000E+00;  9.9999766E+03; -3.6790445E-02;  0.0000000E+00;  1.1690777E-03;  1.3177752E+01;
  2.3999669E-01;  9.9999998E-03;  1.0000007E-01;1421; -3.9121904E-03;  0.0000000E+00;  7.2247807E-05;  1.0000388E+03;  4.0000001E-01;  3.2196617E+01;3; -3.2987754E+00;  0.0000000E+00;  5.3744093E-02;0; -3.5856701E-02;  1.0000809E+04;  0.0000000E+00; -1.0072644E-11;  1.0000000E+04;  0.0000000E+00;  9.9999707E+03; -3.7356719E-02;  0.0000000E+00;  1.5000185E-03;  1.5884895E+01;
  2.3999666E-01;  9.9999998E-03;  1.2000010E-01;1422; -3.9556976E-03;  0.0000000E+00;  1.0322688E-04;  1.0000389E+03;  4.0000001E-01;  3.2295380E+01;3; -3.3510621E+00;  0.0000000E+00;  7.7172332E-02;0; -3.6118235E-02;  1.0000817E+04;  0.0000000E+00;  9.2677324E-12;  1.0000000E+04;  0.0000000E+00;  9.9999629E+03; -3.8002469E-02;  0.0000000E+00;  1.8842341E-03;  1.9135437E+01;
  2.3999664E-01;  9.9999998E-03;  1.4000013E-01;1423; -3.9981692E-03;  0.0000000E+00;  1.4164197E-04;  1.0000391E+03;  4.0000001E-01;  3.2394142E+01;3; -3.4043884E+00;  0.0000000E+00;  1.0528015E-01;0; -3.6370475E-02;  1.0000830E+04;  0.0000000E+00;  2.9865307E-10;  1.0000000E+04;  0.0000000E+00;  9.9999531E+03; -3.8693991E-02;  0.0000000E+00;  2.3235148E-03;  2.2977255E+01;
  2.5999594E-01;  9.9999998E-03; -1.2236574E-13;1447; -4.5916433E-03;  0.0000000E+00;  7.4903084E-11;  1.0000472E+03;  4.0000001E-01;  3.9109997E+01;3; -3.7145443E+00;  0.0000000E+00;  5.9877721E-07;0; -4.1834608E-02;  1.0000959E+04;  0.0000000E+00; -1.3019221E-16;  1.0000000E+04;  0.0000000E+00;  9.9999863E+03; -4.2452518E-02;  0.0000000E+00;  6.1791122E-04;  9.8440752E+00;
  2.5999594E-01;  9.9999998E-03;  2.0000011E-02;1448; -4.5984625E-03;  0.0000000E+00;  9.0152625E-06;  1.0000472E+03;  4.0000001E-01;  3.9109997E+01;3; -3.7220612E+00;  0.0000000E+00;  7.2492990E-03;0; -4.1870501E-02;  1.0000961E+04;  0.0000000E+00;  9.6849945E-11;  1.0000000E+04;  0.0000000E+00;  9.9999844E+03; -4.2542424E-02;  0.0000000E+00;  6.7192392E-04;  1.0249997E+01;
  2.5999594E-01;  9.9999998E-03;  4.0000021E-02;1449; -4.6187453E-03;  0.0000000E+00;  2.0180223E-05;  1.0000473E+03;  4.0000001E-01;  3.9208759E+01;3; -3.7444267E+00;  0.0000000E+00;  1.6325388E-02;0; -4.1977394E-02;  1.0000966E+04;  0.0000000E+00;  1.2191717E-10;  1.0000000E+04;  0.0000000E+00;  9.9999814E+03; -4.2810287E-02;  0.0000000E+00;  8.3289377E-04;  1.1470892E+01;
  2.5999591E-01;  9.9999998E-03;  6.0000036E-02;1450; -4.6517802E-03;  0.0000000E+00;  3.5734163E-05;  1.0000474E+03;  4.0000001E-01;  3.9307522E+01;3; -3.7808335E+00;  0.0000000E+00;  2.8826457E-02;0; -4.2152587E-02;  1.0000974E+04;  0.0000000E+00;  1.2846751E-10;  1.0000000E+04;  0.0000000E+00;  9.9999766E+03; -4.3250017E-02;  0.0000000E+00;  1.0974295E-03;  1.3513701E+01;
  2.5999588E-01;  9.9999998E-03;  8.0000058E-02;1451; -4.6963594E-03;  0.0000000E+00;  5.7603862E-05;  1.0000475E+03;  4.0000001E-01;  3.9307522E+01;3; -3.8300638E+00;  0.0000000E+00;  4.6499941E-02;0; -4.2390250E-02;  1.0000982E+04;  0.0000000E+00; -8.0734482E-11;  1.0000000E+04;  0.0000000E+00;  9.9999697E+03; -4.3849885E-02;  0.0000000E+00;  1.4596342E-03;  1.6384388E+01;
  2.5999585E-01;  9.9999998E-03;  1.0000008E-01;1452; -4.7502015E-03;  0.0000000E+00;  8.8344997E-05;  1.0000477E+03;  4.0000001E-01;  3.9505047E+01;3; -3.8898652E+00;  0.0000000E+00;  7.0924163E-02;0; -4.2678811E-02;  1.0000995E+04;  0.0000000E+00; -5.1259236E-10;  1.0000000E+04;  0.0000000E+00;  9.9999619E+03; -4.4590604E-02;  0.0000000E+00;  1.9117940E-03;  2.0087774E+01;
  2.5999582E-01;  9.9999998E-03;  1.2000012E-01;1453; -4.8099281E-03;  0.0000000E+00;  1.2843340E-04;  1.0000480E+03;  4.0000001E-01;  3.9702572E+01;3; -3.9569914E+00;  0.0000000E+00;  1.0212686E-01;0; -4.2995259E-02;  1.0001007E+04;  0.0000000E+00; -2.4426755E-10;  1.0000000E+04;  0.0000000E+00;  9.9999521E+03; -4.5443825E-02;  0.0000000E+00;  2.4485658E-03;  2.4653133E+01;
  2.5999579E-01;  9.9999998E-03;  1.4000016E-01;1454; -4.8699905E-03;  0.0000000E+00;  1.7968030E-04;  1.0000480E+03;  4.0000001E-01;  3.9801334E+01;3; -4.0266123E+00;  0.0000000E+00;  1.4084275E-01;0; -4.3293640E-02;  1.0001023E+04;  0.0000000E+00;  2.9103778E-10;  1.0000000E+04;  0.0000000E+00;  9.9999375E+03; -4.6371274E-02;  0.0000000E+00;  3.0776320E-03;  3.0211428E+01;
  2.7999499E-01;  9.9999998E-03; -4.1743722E-13;1478; -5.5368338E-03;  0.0000000E+00;  1.5679553E-10;  1.0000574E+03;  4.0000001E-01;  4.7504818E+01;3; -4.3487892E+00;  0.0000000E+00;  2.7466208E-06;0; -4.9576059E-02;  1.0001167E+04;  0.0000000E+00;  1.3151660E-16;  1.0000000E+04;  0.0000000E+00;  9.9999844E+03; -5.0280329E-02;  0.0000000E+00;  7.0427032E-04;  1.1754361E+01;
  2.7999496E-01;  9.9999998E-03;  2.0000011E-02;1479; -5.5457503E-03;  0.0000000E+00;  9.6617750E-06;  1.0000574E+03;  4.0000001E-01;  4.7603580E+01;3; -4.3581586E+00;  0.0000000E+00;  8.7690158E-03;0; -4.9621228E-02;  1.0001170E+04;  0.0000000E+00;  2.6913619E-10;  1.0000000E+04;  0.0000000E+00;  9.9999824E+03; -5.0394908E-02;  0.0000000E+00;  7.7367888E-04;  1.2268931E+01;
  2.7999496E-01;  9.9999998E-03;  4.0000025E-02;1480; -5.5723032E-03;  0.0000000E+00;  2.2148295E-05;  1.0000576E+03;  4.0000001E-01;  4.7702343E+01;3; -4.3859987E+00;  0.0000000E+00;  1.9810198E-02;0; -4.9755406E-02;  1.0001176E+04;  0.0000000E+00;  7.2663535E-11;  1.0000000E+04;  0.0000000E+00;  9.9999785E+03; -5.0736722E-02;  0.0000000E+00;  9.8131469E-04;  1.3824865E+01;
  2.7999493E-01;  9.9999998E-03;  6.0000043E-02;1481; -5.6157182E-03;  0.0000000E+00;  4.0427447E-05;  1.0000577E+03;  4.0000001E-01;  4.7801105E+01;3; -4.4314981E+00;  0.0000000E+00;  3.5758127E-02;0; -4.9974333E-02;  1.0001185E+04;  0.0000000E+00;  2.2632328E-11;  1.0000000E+04;  0.0000000E+00;  9.9999727E+03; -5.1299527E-02;  0.0000000E+00;  1.3251927E-03;  1.6455790E+01;
  2.7999490E-01;  9.9999998E-03;  8.0000065E-02;1482; -5.6746388E-03;  0.0000000E+00;  6.7234119E-05;  1.0000578E+03;  4.0000001E-01;  4.7899868E+01;3; -4.4931097E+00;  0.0000000E+00;  5.8749616E-02;0; -5.0269097E-02;  1.0001198E+04;  0.0000000E+00; -2.6190447E-10;  1.0000000E+04;  0.0000000E+00;  9.9999629E+03; -5.2070700E-02;  0.0000000E+00;  1.8016031E-03;  2.0210545E+01;
  2.7999485E-01;  9.9999998E-03;  1.0000011E-01;1483; -5.7463967E-03;  0.0000000E+00;  1.0588609E-04;  1.0000582E+03;  4.0000001E-01;  4.8196156E+01;3; -4.5681891E+00;  0.0000000E+00;  9.0558574E-02;0; -5.0623007E-02;  1.0001214E+04;  0.0000000E+00; -8.4740420E-10;  1.0000000E+04;  0.0000000E+00;  9.9999531E+03; -5.3028662E-02;  0.0000000E+00;  2.4056556E-03;  2.5151821E+01;
  2.7999482E-01;  9.9999998E-03;  1.2000015E-01;1484; -5.8271256E-03;  0.0000000E+00;  1.5707692E-04;  1.0000585E+03;  4.0000001E-01;  4.8393681E+01;3; -4.6531606E+00;  0.0000000E+00;  1.3150580E-01;0; -5.1004563E-02;  1.0001233E+04;  0.0000000E+00; -4.7500748E-10;  1.0000000E+04;  0.0000000E+00;  9.9999365E+03; -5.4140314E-02;  0.0000000E+00;  3.1357508E-03;  3.1384855E+01;
  2.7999476E-01;  9.9999998E-03;  1.4000021E-01;1485; -5.9103514E-03;  0.0000000E+00;  2.2443138E-04;  1.0000587E+03;  4.0000001E-01;  4.8689968E+01;3; -4.7425804E+00;  0.0000000E+00;  1.8381044E-01;0; -5.1354811E-02;  1.0001254E+04;  0.0000000E+00;  1.2673350E-10;  1.0000000E+04;  0.0000000E+00;  9.9999209E+03; -5.5359773E-02;  0.0000000E+00;  4.0049623E-03;  3.9144440E+01;
  2.9999381E-01;  9.9999998E-03; -2.1305294E-13;1509; -6.6517368E-03;  0.0000000E+00;  3.5139728E-11;  1.0000698E+03;  4.0000001E-01;  5.7874886E+01;3; -5.0711308E+00;  0.0000000E+00;  1.4696266E-06;0; -5.8521952E-02;  1.0001416E+04;  0.0000000E+00; -4.9513205E-16;  1.0000000E+04;  0.0000000E+00;  9.9999814E+03; -5.9323937E-02;  0.0000000E+00;  8.0198364E-04;  1.4125554E+01;
  2.9999378E-01;  9.9999998E-03;  2.0000013E-02;1510; -6.6633029E-03;  0.0000000E+00;  9.8855835E-06;  1.0000699E+03;  4.0000001E-01;  5.7874886E+01;3; -5.0827384E+00;  0.0000000E+00;  1.0030705E-02;0; -5.8579560E-02;  1.0001420E+04;  0.0000000E+00;  2.3123409E-10;  1.0000000E+04;  0.0000000E+00;  9.9999785E+03; -5.9468366E-02;  0.0000000E+00;  8.8880520E-04;  1.4757570E+01;
  2.9999378E-01;  9.9999998E-03;  4.0000029E-02;1511; -6.6977725E-03;  0.0000000E+00;  2.3340390E-05;  1.0000699E+03;  4.0000001E-01;  5.7973648E+01;3; -5.1171827E+00;  0.0000000E+00;  2.2952113E-02;0; -5.8750425E-02;  1.0001426E+04;  0.0000000E+00;  2.6694807E-10;  1.0000000E+04;  0.0000000E+00;  9.9999736E+03; -5.9900030E-02;  0.0000000E+00;  1.1496044E-03;  1.6680191E+01;
  2.9999372E-01;  9.9999998E-03;  6.0000047E-02;1512; -6.7543527E-03;  0.0000000E+00;  4.4377623E-05;  1.0000703E+03;  4.0000001E-01;  5.8269936E+01;3; -5.1735744E+00;  0.0000000E+00;  4.2587921E-02;0; -5.9027836E-02;  1.0001439E+04;  0.0000000E+00;  2.4629451E-10;  1.0000000E+04;  0.0000000E+00;  9.9999668E+03; -6.0612872E-02;  0.0000000E+00;  1.5850354E-03;  1.9968830E+01;
  2.9999369E-01;  9.9999998E-03;  8.0000080E-02;1513; -6.8314937E-03;  0.0000000E+00;  7.6433163E-05;  1.0000706E+03;  4.0000001E-01;  5.8467461E+01;3; -5.2499104E+00;  0.0000000E+00;  7.1162701E-02;0; -5.9398398E-02;  1.0001458E+04;  0.0000000E+00;  2.2862362E-10;  1.0000000E+04;  0.0000000E+00;  9.9999551E+03; -6.1593771E-02;  0.0000000E+00;  2.1953732E-03;  2.4738861E+01;
  2.9999363E-01;  9.9999998E-03;  1.0000012E-01;1514; -6.9261673E-03;  0.0000000E+00;  1.2361906E-04;  1.0000710E+03;  4.0000001E-01;  5.8862511E+01;3; -5.3433900E+00;  0.0000000E+00;  1.1123488E-01;0; -5.9838317E-02;  1.0001479E+04;  0.0000000E+00; -3.3986736E-10;  1.0000000E+04;  0.0000000E+00;  9.9999395E+03; -6.2818743E-02;  0.0000000E+00;  2.9804278E-03;  3.1140532E+01;
  2.9999354E-01;  9.9999998E-03;  1.2000018E-01;1515; -7.0340177E-03;  0.0000000E+00;  1.8799935E-04;  1.0000712E+03;  4.0000001E-01;  5.9060036E+01;3; -5.4499025E+00;  0.0000000E+00;  1.6470084E-01;0; -6.0305323E-02;  1.0001506E+04;  0.0000000E+00; -5.7075716E-10;  1.0000000E+04;  0.0000000E+00;  9.9999219E+03; -6.4248644E-02;  0.0000000E+00;  3.9433199E-03;  3.9385590E+01;
  2.9999349E-01;  9.9999998E-03;  1.4000025E-01;1516; -7.1475096E-03;  0.0000000E+00;  2.7464674E-04;  1.0000714E+03;  4.0000001E-01;  5.9158798E+01;3; -5.5632463E+00;  0.0000000E+00;  2.3366278E-01;0; -6.0725044E-02;  1.0001533E+04;  0.0000000E+00; -8.4276447E-11;  1.0000000E+04;  0.0000000E+00;  9.9998965E+03; -6.5826386E-02;  0.0000000E+00;  5.1013413E-03;  4.9836399E+01;
  3.1999236E-01;  9.9999998E-03; -7.1189101E-14;1540; -7.9623638E-03;  0.0000000E+00; -2.2303320E-10;  1.0000845E+03;  4.0000001E-01;  7.0022682E+01;3; -5.8900228E+00;  0.0000000E+00; -1.6902004E-07;0; -6.8793871E-02;  1.0001716E+04;  0.0000000E+00; -6.2555432E-16;  1.0000000E+04;  0.0000000E+00;  9.9999756E+03; -6.9722518E-02;  0.0000000E+00;  9.2865090E-04;  1.7242874E+01;
  3.1999236E-01;  9.9999998E-03;  2.0000013E-02;1541; -7.9772519E-03;  0.0000000E+00;  9.6547719E-06;  1.0000845E+03;  4.0000001E-01;  7.0022682E+01;3; -5.9043264E+00;  0.0000000E+00;  1.0765497E-02;0; -6.8868712E-02;  1.0001720E+04;  0.0000000E+00;  1.4172536E-11;  1.0000000E+04;  0.0000000E+00;  9.9999736E+03; -6.9902554E-02;  0.0000000E+00;  1.0338407E-03;  1.7990929E+01;
  3.1999233E-01;  9.9999998E-03;  4.0000029E-02;1542; -8.0216732E-03;  0.0000000E+00;  2.3698341E-05;  1.0000847E+03;  4.0000001E-01;  7.0121445E+01;3; -5.9467268E+00;  0.0000000E+00;  2.5190528E-02;0; -6.9090046E-02;  1.0001729E+04;  0.0000000E+00;  2.9935648E-10;  1.0000000E+04;  0.0000000E+00;  9.9999678E+03; -7.0441313E-02;  0.0000000E+00;  1.3512702E-03;  2.0282555E+01;
  3.1999227E-01;  9.9999998E-03;  6.0000055E-02;1543; -8.0948342E-03;  0.0000000E+00;  4.7351437E-05;  1.0000851E+03;  4.0000001E-01;  7.0516495E+01;3; -6.0162072E+00;  0.0000000E+00;  4.8668373E-02;0; -6.9447905E-02;  1.0001746E+04;  0.0000000E+00;  4.3131951E-10;  1.0000000E+04;  0.0000000E+00;  9.9999590E+03; -7.1333796E-02;  0.0000000E+00;  1.8858946E-03;  2.4253714E+01;
  3.1999221E-01;  9.9999998E-03;  8.0000088E-02;1544; -8.1949783E-03;  0.0000000E+00;  8.4553489E-05;  1.0000855E+03;  4.0000001E-01;  7.0812782E+01;3; -6.1102319E+00;  0.0000000E+00;  8.2786322E-02;0; -6.9922976E-02;  1.0001766E+04;  0.0000000E+00;  2.6155370E-10;  1.0000000E+04;  0.0000000E+00;  9.9999443E+03; -7.2567366E-02;  0.0000000E+00;  2.6443871E-03;  3.0115820E+01;
  3.1999213E-01;  9.9999998E-03;  1.0000014E-01;1545; -8.3188619E-03;  0.0000000E+00;  1.4135565E-04;  1.0000859E+03;  4.0000001E-01;  7.1207832E+01;3; -6.2258749E+00;  0.0000000E+00;  1.3301198E-01;0; -7.0482284E-02;  1.0001795E+04;  0.0000000E+00; -5.8498284E-10;  1.0000000E+04;  0.0000000E+00;  9.9999268E+03; -7.4116074E-02;  0.0000000E+00;  3.6337874E-03;  3.8144447E+01;
  3.1999204E-01;  9.9999998E-03;  1.2000021E-01;1546; -8.4615573E-03;  0.0000000E+00;  2.2067723E-04;  1.0000865E+03;  4.0000001E-01;  7.1701653E+01;3; -6.3582168E+00;  0.0000000E+00;  2.0094015E-01;0; -7.1070239E-02;  1.0001829E+04;  0.0000000E+00; -8.7578372E-10;  1.0000000E+04;  0.0000000E+00;  9.9999023E+03; -7.5933821E-02;  0.0000000E+00;  4.8635863E-03;  4.8698620E+01;
  3.1999192E-01;  9.9999998E-03;  1.4000030E-01;1547; -8.6142775E-03;  0.0000000E+00;  3.2967335E-04;  1.0000869E+03;  4.0000001E-01;  7.1997940E+01;3; -6.5002208E+00;  0.0000000E+00;  2.8975624E-01;0; -7.1594395E-02;  1.0001868E+04;  0.0000000E+00;  3.6013612E-10;  1.0000000E+04;  0.0000000E+00;  9.9998701E+03; -7.7949241E-02;  0.0000000E+00;  6.3548461E-03;  6.2305450E+01;
  3.3999065E-01;  9.9999998E-03; -2.6351095E-13;1571; -9.4986493E-03;  0.0000000E+00; -1.7772903E-10;  1.0001019E+03;  4.0000001E-01;  8.4442017E+01;3; -6.8141184E+00;  0.0000000E+00; -1.0108351E-07;0; -8.0503672E-02;  1.0002069E+04;  0.0000000E+00; -2.3913474E-16;  1.0000000E+04;  0.0000000E+00;  9.9999697E+03; -8.1626013E-02;  0.0000000E+00;  1.1223407E-03;  2.1607185E+01;
  3.3999062E-01;  9.9999998E-03;  2.0000014E-02;1572; -9.5176734E-03;  0.0000000E+00;  9.2294931E-06;  1.0001020E+03;  4.0000001E-01;  8.4540779E+01;3; -6.8316693E+00;  0.0000000E+00;  1.0751833E-02;0; -8.0602296E-02;  1.0002072E+04;  0.0000000E+00;  2.1931047E-10;  1.0000000E+04;  0.0000000E+00;  9.9999668E+03; -8.1847370E-02;  0.0000000E+00;  1.2450728E-03;  2.2455154E+01;
  3.3999059E-01;  9.9999998E-03;  4.0000033E-02;1573; -9.5744804E-03;  0.0000000E+00;  2.3682251E-05;  1.0001022E+03;  4.0000001E-01;  8.4738304E+01;3; -6.8836842E+00;  0.0000000E+00;  2.6099663E-02;0; -8.0893688E-02;  1.0002084E+04;  0.0000000E+00;  2.3639415E-10;  1.0000000E+04;  0.0000000E+00;  9.9999600E+03; -8.2511112E-02;  0.0000000E+00;  1.6174259E-03;  2.5074917E+01;
  3.3999053E-01;  9.9999998E-03;  6.0000062E-02;1574; -9.6683372E-03;  0.0000000E+00;  4.9875231E-05;  1.0001028E+03;  4.0000001E-01;  8.5133354E+01;3; -6.9688931E+00;  0.0000000E+00;  5.3376477E-02;0; -8.1363566E-02;  1.0002104E+04;  0.0000000E+00;  5.4043520E-10;  1.0000000E+04;  0.0000000E+00;  9.9999492E+03; -8.3614387E-02;  0.0000000E+00;  2.2508220E-03;  2.9684858E+01;
  3.3999041E-01;  9.9999998E-03;  8.0000103E-02;1575; -9.7973300E-03;  0.0000000E+00;  9.2194590E-05;  1.0001035E+03;  4.0000001E-01;  8.5725929E+01;3; -7.0842791E+00;  0.0000000E+00;  9.3178116E-02;0; -8.1985340E-02;  1.0002134E+04;  0.0000000E+00; -2.6809156E-11;  1.0000000E+04;  0.0000000E+00;  9.9999346E+03; -8.5146874E-02;  0.0000000E+00;  3.1615340E-03;  3.6627338E+01;
  3.3999029E-01;  9.9999998E-03;  1.0000016E-01;1576; -9.9580791E-03;  0.0000000E+00;  1.5923157E-04;  1.0001040E+03;  4.0000001E-01;  8.6120979E+01;3; -7.2264118E+00;  0.0000000E+00;  1.5533568E-01;0; -8.2714505E-02;  1.0002171E+04;  0.0000000E+00; -5.7240157E-10;  1.0000000E+04;  0.0000000E+00;  9.9999102E+03; -8.7081991E-02;  0.0000000E+00;  4.3674870E-03;  4.6349819E+01;
  3.3999017E-01;  9.9999998E-03;  1.2000024E-01;1577; -1.0145037E-02;  0.0000000E+00;  2.5489522E-04;  1.0001049E+03;  4.0000001E-01;  8.6911079E+01;3; -7.3897071E+00;  0.0000000E+00;  2.3909879E-01;0; -8.3479360E-02;  1.0002216E+04;  0.0000000E+00; -6.0246874E-10;  1.0000000E+04;  0.0000000E+00;  9.9998799E+03; -8.9367181E-02;  0.0000000E+00;  5.8878176E-03;  5.9413662E+01;
  3.3999002E-01;  9.9999998E-03;  1.4000036E-01;1578; -1.0347941E-02;  0.0000000E+00;  3.8896364E-04;  1.0001053E+03;  4.0000001E-01;  8.7306129E+01;3; -7.5657024E+00;  0.0000000E+00;  3.5159397E-01;0; -8.4165677E-02;  1.0002267E+04;  0.0000000E+00;  6.5850925E-10;  1.0000000E+04;  0.0000000E+00;  9.9998398E+03; -9.1914974E-02;  0.0000000E+00;  7.7493000E-03;  7.6573082E+01;
  3.5998854E-01;  9.9999998E-03; -8.5436275E-13;1602; -1.1293954E-02;  0.0000000E+00; -2.4741006E-10;  1.0001223E+03;  4.0000001E-01;  1.0133041E+02;3; -7.8520737E+00;  0.0000000E+00;  1.1853854E-06;0; -9.3744569E-02;  1.0002488E+04;  0.0000000E+00; -2.6428301E-16;  1.0000000E+04;  0.0000000E+00;  9.9999580E+03; -9.5197894E-02;  0.0000000E+00;  1.4533233E-03;  2.8040903E+01;
  3.5998851E-01;  9.9999998E-03;  2.0000020E-02;1603; -1.1318055E-02;  0.0000000E+00;  9.4659090E-06;  1.0001225E+03;  4.0000001E-01;  1.0152793E+02;3; -7.8735690E+00;  0.0000000E+00;  1.0061346E-02;0; -9.3875907E-02;  1.0002493E+04;  0.0000000E+00;  3.0399566E-10;  1.0000000E+04;  0.0000000E+00;  9.9999561E+03; -9.5466122E-02;  0.0000000E+00;  1.5902118E-03;  2.8954935E+01;
  3.5998845E-01;  9.9999998E-03;  4.0000044E-02;1604; -1.1390084E-02;  0.0000000E+00;  2.4893783E-05;  1.0001229E+03;  4.0000001E-01;  1.0182422E+02;3; -7.9372134E+00;  0.0000000E+00;  2.5750188E-02;0; -9.4263658E-02;  1.0002508E+04;  0.0000000E+00;  2.8925681E-10;  1.0000000E+04;  0.0000000E+00;  9.9999492E+03; -9.6271910E-02;  0.0000000E+00;  2.0082556E-03;  3.1808945E+01;
  3.5998836E-01;  9.9999998E-03;  6.0000073E-02;1605; -1.1509382E-02;  0.0000000E+00;  5.3620173E-05;  1.0001234E+03;  4.0000001E-01;  1.0221927E+02;3; -8.0411425E+00;  0.0000000E+00;  5.5118822E-02;0; -9.4888806E-02;  1.0002532E+04;  0.0000000E+00;  5.5717268E-11;  1.0000000E+04;  0.0000000E+00;  9.9999355E+03; -9.7616777E-02;  0.0000000E+00;  2.7279740E-03;  3.6926426E+01;
  3.5998824E-01;  9.9999998E-03;  8.0000117E-02;1606; -1.1674177E-02;  0.0000000E+00;  1.0171159E-04;  1.0001244E+03;  4.0000001E-01;  1.0300937E+02;3; -8.1825352E+00;  0.0000000E+00;  1.0231192E-01;0; -9.5715940E-02;  1.0002568E+04;  0.0000000E+00; -1.0641739E-09;  1.0000000E+04;  0.0000000E+00;  9.9999180E+03; -9.9495254E-02;  0.0000000E+00;  3.7793147E-03;  4.4817856E+01;
  3.5998809E-01;  9.9999998E-03;  1.0000019E-01;1607; -1.1880866E-02;  0.0000000E+00;  1.7936186E-04;  1.0001252E+03;  4.0000001E-01;  1.0379947E+02;3; -8.3562670E+00;  0.0000000E+00;  1.7732310E-01;0; -9.6686967E-02;  1.0002616E+04;  0.0000000E+00; -2.7812528E-09;  1.0000000E+04;  0.0000000E+00;  9.9998916E+03; -1.0188314E-01;  0.0000000E+00;  5.1961718E-03;  5.6154430E+01;
  3.5998791E-01;  9.9999998E-03;  1.2000029E-01;1608; -1.2123154E-02;  0.0000000E+00;  2.9197143E-04;  1.0001263E+03;  4.0000001E-01;  1.0468833E+02;3; -8.5559940E+00;  0.0000000E+00;  2.7731761E-01;0; -9.7710885E-02;  1.0002673E+04;  0.0000000E+00; -5.1470579E-09;  1.0000000E+04;  0.0000000E+00;  9.9998555E+03; -1.0472385E-01;  0.0000000E+00;  7.0129666E-03;  7.1769005E+01;
  3.5998771E-01;  9.9999998E-03;  1.4000042E-01;1609; -1.2388831E-02;  0.0000000E+00;  4.5062814E-04;  1.0001273E+03;  4.0000001E-01;  1.0547843E+02;3; -8.7711954E+00;  0.0000000E+00;  4.1279247E-01;0; -9.8646149E-02;  1.0002738E+04;  0.0000000E+00; -2.1121431E-09;  1.0000000E+04;  0.0000000E+00;  9.9998057E+03; -1.0791413E-01;  0.0000000E+00;  9.2679774E-03;  9.2737946E+01;
  3.7998599E-01;  9.9999998E-03; -2.0100296E-13;1633; -1.3383308E-02;  0.0000000E+00;  7.8791246E-10;  1.0001461E+03;  4.0000001E-01;  1.2108290E+02;3; -9.0120487E+00;  0.0000000E+00;  4.2901602E-06;0; -1.0858298E-01;  1.0002982E+04;  0.0000000E+00;  7.0385553E-16;  1.0000000E+04;  0.0000000E+00;  9.9999414E+03; -1.1062117E-01;  0.0000000E+00;  2.0381915E-03;  3.7811573E+01;
  3.7998599E-01;  9.9999998E-03;  2.0000027E-02;1634; -1.3413534E-02;  0.0000000E+00;  1.2191388E-05;  1.0001464E+03;  4.0000001E-01;  1.2128043E+02;3; -9.0383139E+00;  0.0000000E+00;  9.2374524E-03;0; -1.0875810E-01;  1.0002987E+04;  0.0000000E+00;  2.2334082E-10;  1.0000000E+04;  0.0000000E+00;  9.9999375E+03; -1.1094075E-01;  0.0000000E+00;  2.1826564E-03;  3.8741188E+01;
  3.7998590E-01;  9.9999998E-03;  4.0000059E-02;1635; -1.3503977E-02;  0.0000000E+00;  3.0801155E-05;  1.0001470E+03;  4.0000001E-01;  1.2177424E+02;3; -9.1160021E+00;  0.0000000E+00;  2.5180675E-02;0; -1.0927578E-01;  1.0003006E+04;  0.0000000E+00;  1.4860344E-10;  1.0000000E+04;  0.0000000E+00;  9.9999316E+03; -1.1190340E-01;  0.0000000E+00;  2.6276170E-03;  4.1684105E+01;
  3.7998581E-01;  9.9999998E-03;  6.0000099E-02;1636; -1.3654188E-02;  0.0000000E+00;  6.3789092E-05;  1.0001478E+03;  4.0000001E-01;  1.2246558E+02;3; -9.2426624E+00;  0.0000000E+00;  5.6863643E-02;0; -1.1011173E-01;  1.0003038E+04;  0.0000000E+00; -1.3188148E-09;  1.0000000E+04;  0.0000000E+00;  9.9999180E+03; -1.1351725E-01;  0.0000000E+00;  3.4055270E-03;  4.7087372E+01;
  3.7998563E-01;  9.9999998E-03;  8.0000155E-02;1637; -1.3862604E-02;  0.0000000E+00;  1.1870978E-04;  1.0001489E+03;  4.0000001E-01;  1.2335445E+02;3; -9.4150400E+00;  0.0000000E+00;  1.1121062E-01;0; -1.1122122E-01;  1.0003082E+04;  0.0000000E+00; -4.3686277E-09;  1.0000000E+04;  0.0000000E+00;  9.9998984E+03; -1.1578583E-01;  0.0000000E+00;  4.5646084E-03;  5.5660652E+01;
  3.7998542E-01;  9.9999998E-03;  1.0000023E-01;1638; -1.4125660E-02;  0.0000000E+00;  2.0702624E-04;  1.0001505E+03;  4.0000001E-01;  1.2463836E+02;3; -9.6264963E+00;  0.0000000E+00;  1.9845599E-01;0; -1.1253136E-01;  1.0003139E+04;  0.0000000E+00; -9.1030419E-09;  1.0000000E+04;  0.0000000E+00;  9.9998682E+03; -1.1869239E-01;  0.0000000E+00;  6.1610243E-03;  6.8345482E+01;
  3.7998518E-01;  9.9999998E-03;  1.2000034E-01;1639; -1.4436010E-02;  0.0000000E+00;  3.3628527E-04;  1.0001519E+03;  4.0000001E-01;  1.2582351E+02;3; -9.8684177E+00;  0.0000000E+00;  3.1354761E-01;0; -1.1392804E-01;  1.0003212E+04;  0.0000000E+00; -1.5043289E-08;  1.0000000E+04;  0.0000000E+00;  9.9998262E+03; -1.2218060E-01;  0.0000000E+00;  8.2525611E-03;  8.6320236E+01;
  3.7998492E-01;  9.9999998E-03;  1.4000051E-01;1640; -1.4780297E-02;  0.0000000E+00;  5.2045361E-04;  1.0001534E+03;  4.0000001E-01;  1.2710742E+02;3; -1.0130816E+01;  0.0000000E+00;  4.7846320E-01;0; -1.1523575E-01;  1.0003298E+04;  0.0000000E+00; -8.8093008E-09;  1.0000000E+04;  0.0000000E+00;  9.9997686E+03; -1.2613507E-01;  0.0000000E+00;  1.0899319E-02;  1.1110941E+02;
  3.9998296E-01;  9.9999998E-03;  4.9834773E-13;1664; -1.5801789E-02;  0.0000000E+00;  3.6328790E-10;  1.0001740E+03;  4.0000001E-01;  1.4409454E+02;3; -1.0300990E+01;  0.0000000E+00; -2.7675342E-06;0; -1.2505013E-01;  1.0003566E+04;  0.0000000E+00; -5.3285493E-16;  1.0000000E+04;  0.0000000E+00;  9.9999121E+03; -1.2810472E-01;  0.0000000E+00;  3.0545869E-03;  5.2754997E+01;
  3.9998293E-01;  9.9999998E-03;  2.0000042E-02;1665; -1.5839264E-02;  0.0000000E+00;  2.0625976E-05;  1.0001743E+03;  4.0000001E-01;  1.4439084E+02;3; -1.0332949E+01;  0.0000000E+00;  9.5025105E-03;0; -1.2528217E-01;  1.0003574E+04;  0.0000000E+00;  1.3674406E-10;  1.0000000E+04;  0.0000000E+00;  9.9999111E+03; -1.2847884E-01;  0.0000000E+00;  3.1966679E-03;  5.3641663E+01;
  3.9998287E-01;  9.9999998E-03;  4.0000089E-02;1666; -1.5951563E-02;  0.0000000E+00;  4.7619600E-05;  1.0001748E+03;  4.0000001E-01;  1.4478589E+02;3; -1.0427531E+01;  0.0000000E+00;  2.6836526E-02;0; -1.2596905E-01;  1.0003596E+04;  0.0000000E+00; -4.9455673E-10;  1.0000000E+04;  0.0000000E+00;  9.9999043E+03; -1.2960850E-01;  0.0000000E+00;  3.6394377E-03;  5.6499699E+01;
  3.9998272E-01;  9.9999998E-03;  6.0000144E-02;1667; -1.6138611E-02;  0.0000000E+00;  8.9115179E-05;  1.0001761E+03;  4.0000001E-01;  1.4587227E+02;3; -1.0581512E+01;  0.0000000E+00;  6.1876241E-02;0; -1.2708235E-01;  1.0003632E+04;  0.0000000E+00; -4.3206487E-09;  1.0000000E+04;  0.0000000E+00;  9.9998906E+03; -1.3151208E-01;  0.0000000E+00;  4.4297203E-03;  6.1905342E+01;
  3.9998251E-01;  9.9999998E-03;  8.0000214E-02;1668; -1.6399294E-02;  0.0000000E+00;  1.5372966E-04;  1.0001777E+03;  4.0000001E-01;  1.4725494E+02;3; -1.0790801E+01;  0.0000000E+00;  1.2368996E-01;0; -1.2856913E-01;  1.0003686E+04;  0.0000000E+00; -1.0013959E-08;  1.0000000E+04;  0.0000000E+00;  9.9998691E+03; -1.3420725E-01;  0.0000000E+00;  5.6381221E-03;  7.0777588E+01;
  3.9998224E-01;  9.9999998E-03;  1.0000031E-01;1669; -1.6730420E-02;  0.0000000E+00;  2.5401008E-04;  1.0001796E+03;  4.0000001E-01;  1.4883514E+02;3; -1.1047100E+01;  0.0000000E+00;  2.2362429E-01;0; -1.3034147E-01;  1.0003756E+04;  0.0000000E+00; -2.2309800E-08;  1.0000000E+04;  0.0000000E+00;  9.9998359E+03; -1.3769086E-01;  0.0000000E+00;  7.3493859E-03;  8.4349533E+01;
  3.9998192E-01;  9.9999998E-03;  1.2000043E-01;1670; -1.7123945E-02;  0.0000000E+00;  4.0069636E-04;  1.0001819E+03;  4.0000001E-01;  1.5071164E+02;3; -1.1339683E+01;  0.0000000E+00;  3.5687527E-01;0; -1.3226035E-01;  1.0003846E+04;  0.0000000E+00; -3.2700893E-08;  1.0000000E+04;  0.0000000E+00;  9.9997920E+03; -1.4191446E-01;  0.0000000E+00;  9.6541094E-03;  1.0420260E+02;
  3.9998156E-01;  9.9999998E-03;  1.4000061E-01;1671; -1.7565351E-02;  0.0000000E+00;  6.0938013E-04;  1.0001840E+03;  4.0000001E-01;  1.5239061E+02;3; -1.1656463E+01;  0.0000000E+00;  5.4985070E-01;0; -1.3410825E-01;  1.0003955E+04;  0.0000000E+00; -3.0947856E-08;  1.0000000E+04;  0.0000000E+00;  9.9997256E+03; -1.4675723E-01;  0.0000000E+00;  1.2648985E-02;  1.3244777E+02;
  4.1997936E-01;  9.9999998E-03; -1.2198290E-12;1695; -1.8585639E-02;  0.0000000E+00; -2.4703093E-09;  1.0002059E+03;  4.0000001E-01;  1.7056287E+02;3; -1.1724436E+01;  0.0000000E+00; -6.1037144E-06;0; -1.4312623E-01;  1.0004252E+04;  0.0000000E+00;  6.0196736E-16;  1.0000000E+04;  0.0000000E+00;  9.9998672E+03; -1.4787944E-01;  0.0000000E+00;  4.7532013E-03;  7.5363152E+01;
  4.1997933E-01;  9.9999998E-03;  2.0000072E-02;1696; -1.8631490E-02;  0.0000000E+00;  3.9804188E-05;  1.0002062E+03;  4.0000001E-01;  1.7085915E+02;3; -1.1763077E+01;  0.0000000E+00;  1.3087949E-02;0; -1.4342876E-01;  1.0004262E+04;  0.0000000E+00; -5.0730298E-10;  1.0000000E+04;  0.0000000E+00;  9.9998643E+03; -1.4830896E-01;  0.0000000E+00;  4.8802118E-03;  7.6160011E+01;
  4.1997921E-01;  9.9999998E-03;  4.0000144E-02;1697; -1.8769210E-02;  0.0000000E+00;  8.5307729E-05;  1.0002072E+03;  4.0000001E-01;  1.7164925E+02;3; -1.1877823E+01;  0.0000000E+00;  3.5473395E-02;0; -1.4432678E-01;  1.0004285E+04;  0.0000000E+00; -2.6971116E-09;  1.0000000E+04;  0.0000000E+00;  9.9998574E+03; -1.4960980E-01;  0.0000000E+00;  5.2830218E-03;  7.8786774E+01;
  4.1997904E-01;  9.9999998E-03;  6.0000226E-02;1698; -1.8999279E-02;  0.0000000E+00;  1.4388870E-04;  1.0002087E+03;  4.0000001E-01;  1.7293317E+02;3; -1.2064374E+01;  0.0000000E+00;  7.6735161E-02;0; -1.4579013E-01;  1.0004330E+04;  0.0000000E+00; -6.7690653E-09;  1.0000000E+04;  0.0000000E+00;  9.9998467E+03; -1.5181386E-01;  0.0000000E+00;  6.0237357E-03;  8.3930191E+01;
  4.1997880E-01;  9.9999998E-03;  8.0000319E-02;1699; -1.9321445E-02;  0.0000000E+00;  2.2459115E-04;  1.0002109E+03;  4.0000001E-01;  1.7471088E+02;3; -1.2317335E+01;  0.0000000E+00;  1.4743468E-01;0; -1.4776103E-01;  1.0004394E+04;  0.0000000E+00; -1.6946489E-08;  1.0000000E+04;  0.0000000E+00;  9.9998242E+03; -1.5495826E-01;  0.0000000E+00;  7.1972269E-03;  9.2687073E+01;
  4.1997847E-01;  9.9999998E-03;  1.0000043E-01;1700; -1.9733507E-02;  0.0000000E+00;  3.4083024E-04;  1.0002136E+03;  4.0000001E-01;  1.7698242E+02;3; -1.2626532E+01;  0.0000000E+00;  2.6095834E-01;0; -1.5014078E-01;  1.0004479E+04;  0.0000000E+00; -3.6935269E-08;  1.0000000E+04;  0.0000000E+00;  9.9997949E+03; -1.5906145E-01;  0.0000000E+00;  8.9206696E-03;  1.0654856E+02;
  4.1997805E-01;  9.9999998E-03;  1.2000058E-01;1701; -2.0227315E-02;  0.0000000E+00;  5.0686265E-04;  1.0002167E+03;  4.0000001E-01;  1.7955025E+02;3; -1.2978539E+01;  0.0000000E+00;  4.1456559E-01;0; -1.5276591E-01;  1.0004589E+04;  0.0000000E+00; -5.9982455E-08;  1.0000000E+04;  0.0000000E+00;  9.9997451E+03; -1.6409190E-01;  0.0000000E+00;  1.1325991E-02;  1.2750303E+02;
  4.1997755E-01;  9.9999998E-03;  1.4000079E-01;1702; -2.0787552E-02;  0.0000000E+00;  7.3862640E-04;  1.0002198E+03;  4.0000001E-01;  1.8211807E+02;3; -1.3358876E+01;  0.0000000E+00;  6.3304436E-01;0; -1.5537064E-01;  1.0004720E+04;  0.0000000E+00; -6.1169970E-08;  1.0000000E+04;  0.0000000E+00;  9.9996738E+03; -1.6993487E-01;  0.0000000E+00;  1.4564229E-02;  1.5835928E+02;
  4.3997508E-01;  9.9999998E-03; -1.7040397E-12;1726; -2.1777559E-02;  0.0000000E+00; -1.4425638E-09;  1.0002426E+03;  4.0000001E-01;  2.0098164E+02;3; -1.3286946E+01;  0.0000000E+00;  3.6815127E-06;0; -1.6268818E-01;  1.0005057E+04;  0.0000000E+00; -1.3905837E-15;  1.0000000E+04;  0.0000000E+00;  9.9997988E+03; -1.7015055E-01;  0.0000000E+00;  7.4623725E-03;  1.0879025E+02;
  4.3997505E-01;  9.9999998E-03;  2.0000121E-02;1727; -2.1832904E-02;  0.0000000E+00;  7.7255812E-05;  1.0002429E+03;  4.0000001E-01;  2.0127792E+02;3; -1.3333449E+01;  0.0000000E+00;  2.4415426E-02;0; -1.6307342E-01;  1.0005064E+04;  0.0000000E+00; -4.9420545E-10;  1.0000000E+04;  0.0000000E+00;  9.9997969E+03; -1.7063431E-01;  0.0000000E+00;  7.5608939E-03;  1.0949655E+02;
  4.3997490E-01;  9.9999998E-03;  4.0000245E-02;1728; -2.1999504E-02;  0.0000000E+00;  1.5835307E-04;  1.0002443E+03;  4.0000001E-01;  2.0236430E+02;3; -1.3471913E+01;  0.0000000E+00;  5.8785323E-02;0; -1.6422063E-01;  1.0005094E+04;  0.0000000E+00; -3.4135363E-09;  1.0000000E+04;  0.0000000E+00;  9.9997910E+03; -1.7210342E-01;  0.0000000E+00;  7.8827823E-03;  1.1187191E+02;
  4.3997470E-01;  9.9999998E-03;  6.0000367E-02;1729; -2.2278730E-02;  0.0000000E+00;  2.4945129E-04;  1.0002462E+03;  4.0000001E-01;  2.0394450E+02;3; -1.3696722E+01;  0.0000000E+00;  1.1256422E-01;0; -1.6610259E-01;  1.0005144E+04;  0.0000000E+00; -7.1827357E-09;  1.0000000E+04;  0.0000000E+00;  9.9997822E+03; -1.7460591E-01;  0.0000000E+00;  8.5033234E-03;  1.1665759E+02;
  4.3997437E-01;  9.9999998E-03;  8.0000497E-02;1730; -2.2671865E-02;  0.0000000E+00;  3.5856580E-04;  1.0002489E+03;  4.0000001E-01;  2.0621605E+02;3; -1.4000704E+01;  0.0000000E+00;  1.9597593E-01;0; -1.6866459E-01;  1.0005217E+04;  0.0000000E+00; -1.9937209E-08;  1.0000000E+04;  0.0000000E+00;  9.9997607E+03; -1.7820334E-01;  0.0000000E+00;  9.5387613E-03;  1.2503117E+02;
  4.3997395E-01;  9.9999998E-03;  1.0000064E-01;1731; -2.3178417E-02;  0.0000000E+00;  4.9958157E-04;  1.0002523E+03;  4.0000001E-01;  2.0908015E+02;3; -1.4371885E+01;  0.0000000E+00;  3.2540777E-01;0; -1.7180601E-01;  1.0005318E+04;  0.0000000E+00; -4.6766132E-08;  1.0000000E+04;  0.0000000E+00;  9.9997295E+03; -1.8294278E-01;  0.0000000E+00;  1.1136770E-02;  1.3861804E+02;
  4.3997341E-01;  9.9999998E-03;  1.2000082E-01;1732; -2.3791501E-02;  0.0000000E+00;  6.8979483E-04;  1.0002565E+03;  4.0000001E-01;  2.1253685E+02;3; -1.4793093E+01;  0.0000000E+00;  5.0009257E-01;0; -1.7534600E-01;  1.0005451E+04;  0.0000000E+00; -8.7113719E-08;  1.0000000E+04;  0.0000000E+00;  9.9996797E+03; -1.8882030E-01;  0.0000000E+00;  1.3474306E-02;  1.5971284E+02;
  4.3997279E-01;  9.9999998E-03;  1.4000106E-01;1733; -2.4494959E-02;  0.0000000E+00;  9.4490487E-04;  1.0002607E+03;  4.0000001E-01;  2.1599353E+02;3; -1.5246840E+01;  0.0000000E+00;  7.4125385E-01;0; -1.7896771E-01;  1.0005609E+04;  0.0000000E+00; -1.0276293E-07;  1.0000000E+04;  0.0000000E+00;  9.9996074E+03; -1.9574143E-01;  0.0000000E+00;  1.6773721E-02;  1.9184792E+02;
  4.5996997E-01;  9.9999998E-03;  2.4296195E-13;1757; -2.5434403E-02;  0.0000000E+00;  3.6776310E-10;  1.0002847E+03;  4.0000045E-01;  2.3584465E+02;3; -1.4993271E+01;  0.0000000E+00;  1.4906955E-06;0; -1.8337342E-01;  1.0005979E+04;  0.0000000E+00; -3.1947237E-16;  1.0000000E+04;  0.0000000E+00;  9.9996963E+03; -1.9495244E-01;  0.0000000E+00;  1.1579022E-02;  1.5671809E+02;
  4.5996994E-01;  9.9999998E-03;  2.0000203E-02;1758; -2.5500253E-02;  0.0000000E+00;  1.4326234E-04;  1.0002852E+03;  4.0000039E-01;  2.3633846E+02;3; -1.5049106E+01;  0.0000000E+00;  4.9525388E-02;0; -1.8384847E-01;  1.0005989E+04;  0.0000000E+00; -1.8019662E-10;  1.0000000E+04;  0.0000000E+00;  9.9996963E+03; -1.9548704E-01;  0.0000000E+00;  1.1638573E-02;  1.5742876E+02;
  4.5996979E-01;  9.9999998E-03;  4.0000401E-02;1759; -2.5698861E-02;  0.0000000E+00;  2.8770961E-04;  1.0002865E+03;  4.0000039E-01;  2.3732608E+02;3; -1.5214884E+01;  0.0000000E+00;  1.0996235E-01;0; -1.8526880E-01;  1.0006021E+04;  0.0000000E+00; -1.2438577E-09;  1.0000000E+04;  0.0000000E+00;  9.9996924E+03; -1.9711465E-01;  0.0000000E+00;  1.1845837E-02;  1.5980388E+02;
  4.5996952E-01;  9.9999998E-03;  6.0000598E-02;1760; -2.6032893E-02;  0.0000000E+00;  4.3603827E-04;  1.0002889E+03;  4.0000036E-01;  2.3940010E+02;3; -1.5483737E+01;  0.0000000E+00;  1.8725759E-01;0; -1.8761761E-01;  1.0006078E+04;  0.0000000E+00; -5.8473555E-09;  1.0000000E+04;  0.0000000E+00;  9.9996797E+03; -1.9990005E-01;  0.0000000E+00;  1.2282435E-02;  1.6453308E+02;
  4.5996913E-01;  9.9999998E-03;  8.0000795E-02;1761; -2.6506118E-02;  0.0000000E+00;  5.9425342E-04;  1.0002922E+03;  4.0000039E-01;  2.4206668E+02;3; -1.5846618E+01;  0.0000000E+00;  2.9079604E-01;0; -1.9085646E-01;  1.0006162E+04;  0.0000000E+00; -1.7033569E-08;  1.0000000E+04;  0.0000000E+00;  9.9996641E+03; -2.0393179E-01;  0.0000000E+00;  1.3075342E-02;  1.7268962E+02;
  4.5996863E-01;  9.9999998E-03;  1.0000100E-01;1762; -2.7120670E-02;  0.0000000E+00;  7.7681494E-04;  1.0002966E+03;  4.0000039E-01;  2.4572089E+02;3; -1.6288839E+01;  0.0000000E+00;  4.4052005E-01;0; -1.9489872E-01;  1.0006280E+04;  0.0000000E+00; -4.0722622E-08;  1.0000000E+04;  0.0000000E+00;  9.9996338E+03; -2.0928964E-01;  0.0000000E+00;  1.4390915E-02;  1.8578319E+02;
  4.5996794E-01;  9.9999998E-03;  1.2000123E-01;1763; -2.7872257E-02;  0.0000000E+00;  1.0025088E-03;  1.0003019E+03;  4.0000045E-01;  2.5006644E+02;3; -1.6789101E+01;  0.0000000E+00;  6.4206767E-01;0; -1.9956237E-01;  1.0006435E+04;  0.0000000E+00; -8.8818254E-08;  1.0000000E+04;  0.0000000E+00;  9.9995869E+03; -2.1600710E-01;  0.0000000E+00;  1.6444728E-02;  2.0615558E+02;
  4.5996714E-01;  9.9999998E-03;  1.4000152E-01;1764; -2.8745856E-02;  0.0000000E+00;  1.2865055E-03;  1.0003080E+03;  4.0000048E-01;  2.5520209E+02;3; -1.7327295E+01;  0.0000000E+00;  8.9722002E-01;0; -2.0448665E-01;  1.0006625E+04;  0.0000000E+00; -1.2448658E-07;  1.0000000E+04;  0.0000000E+00;  9.9995146E+03; -2.2402750E-01;  0.0000000E+00;  1.9540850E-02;  2.3794133E+02;
  4.7996390E-01;  9.9999998E-03;  2.2191540E-13;1788; -2.9631656E-02;  0.0000000E+00; -6.6344036E-10;  1.0003312E+03;  4.0000123E-01;  2.7446054E+02;3; -1.6850355E+01;  0.0000000E+00; -2.0576508E-06;0; -2.0432451E-01;  1.0007015E+04;  0.0000000E+00;  4.0444296E-16;  1.0000000E+04;  0.0000000E+00;  9.9995566E+03; -2.2186650E-01;  0.0000000E+00;  1.7541984E-02;  2.2302507E+02;
  4.7996384E-01;  9.9999998E-03;  2.0000322E-02;1789; -2.9708765E-02;  0.0000000E+00;  2.5112179E-04;  1.0003317E+03;  4.0000120E-01;  2.7475684E+02;3; -1.6916864E+01;  0.0000000E+00;  1.0006808E-01;0; -2.0488693E-01;  1.0007025E+04;  0.0000000E+00; -1.0875795E-10;  1.0000000E+04;  0.0000000E+00;  9.9995537E+03; -2.2244735E-01;  0.0000000E+00;  1.7560419E-02;  2.2399303E+02;
  4.7996366E-01;  9.9999998E-03;  4.0000640E-02;1790; -2.9941699E-02;  0.0000000E+00;  4.9803423E-04;  1.0003333E+03;  4.0000123E-01;  2.7613950E+02;3; -1.7113331E+01;  0.0000000E+00;  2.0684052E-01;0; -2.0657681E-01;  1.0007061E+04;  0.0000000E+00;  1.0169313E-09;  1.0000000E+04;  0.0000000E+00;  9.9995469E+03; -2.2421886E-01;  0.0000000E+00;  1.7642055E-02;  2.2707333E+02;
  4.7996336E-01;  9.9999998E-03;  6.0000949E-02;1791; -3.0334968E-02;  0.0000000E+00;  7.3967280E-04;  1.0003359E+03;  4.0000126E-01;  2.7831229E+02;3; -1.7431257E+01;  0.0000000E+00;  3.2291478E-01;0; -2.0939916E-01;  1.0007126E+04;  0.0000000E+00;  5.9403471E-10;  1.0000000E+04;  0.0000000E+00;  9.9995352E+03; -2.2726075E-01;  0.0000000E+00;  1.7861584E-02;  2.3273746E+02;
  4.7996289E-01;  9.9999998E-03;  8.0001257E-02;1792; -3.0895872E-02;  0.0000000E+00;  9.8087476E-04;  1.0003397E+03;  4.0000120E-01;  2.8147266E+02;3; -1.7860218E+01;  0.0000000E+00;  4.6247715E-01;0; -2.1335000E-01;  1.0007221E+04;  0.0000000E+00;  3.0303438E-09;  1.0000000E+04;  0.0000000E+00;  9.9995146E+03; -2.3168534E-01;  0.0000000E+00;  1.8335350E-02;  2.4166403E+02;
  4.7996226E-01;  9.9999998E-03;  1.0000156E-01;1793; -3.1630989E-02;  0.0000000E+00;  1.2339586E-03;  1.0003450E+03;  4.0000126E-01;  2.8581821E+02;3; -1.8382517E+01;  0.0000000E+00;  6.3920712E-01;0; -2.1838401E-01;  1.0007354E+04;  0.0000000E+00; -5.0348548E-09;  1.0000000E+04;  0.0000000E+00;  9.9994902E+03; -2.3760645E-01;  0.0000000E+00;  1.9222433E-02;  2.5484326E+02;
  4.7996143E-01;  9.9999998E-03;  1.2000189E-01;1794; -3.2540474E-02;  0.0000000E+00;  1.5182238E-03;  1.0003516E+03;  4.0000117E-01;  2.9134891E+02;3; -1.8975147E+01;  0.0000000E+00;  8.7028414E-01;0; -2.2434421E-01;  1.0007529E+04;  0.0000000E+00; -2.3311884E-08;  1.0000000E+04;  0.0000000E+00;  9.9994492E+03; -2.4509937E-01;  0.0000000E+00;  2.0755162E-02;  2.7421445E+02;
  4.7996041E-01;  9.9999998E-03;  1.4000225E-01;1795; -3.3609901E-02;  0.0000000E+00;  1.8469471E-03;  1.0003595E+03;  4.0000123E-01;  2.9786722E+02;3; -1.9605778E+01;  0.0000000E+00;  1.1382388E+00;0; -2.3084399E-01;  1.0007752E+04;  0.0000000E+00; -3.0247623E-08;  1.0000000E+04;  0.0000000E+00;  9.9993809E+03; -2.5416055E-01;  0.0000000E+00;  2.3316564E-02;  3.0420309E+02;
  4.9995661E-01;  9.9999998E-03;  6.8387787E-13;1819; -3.4457710E-02;  0.0000000E+00;  7.8551221E-10;  1.0003807E+03;  4.0000287E-01;  3.1534784E+02;3; -1.8868303E+01;  0.0000000E+00;  2.4866290E-06;0; -2.2385496E-01;  1.0008115E+04;  0.0000000E+00; -2.4142819E-15;  1.0000000E+04;  0.0000000E+00;  9.9993613E+03; -2.4964517E-01;  0.0000000E+00;  2.5790222E-02;  3.1125690E+02;
  4.9995652E-01;  9.9999998E-03;  2.0000493E-02;1820; -3.4546349E-02;  0.0000000E+00;  4.1047030E-04;  1.0003812E+03;  4.0000284E-01;  3.1584164E+02;3; -1.8945478E+01;  0.0000000E+00;  1.8301849E-01;0; -2.2448823E-01;  1.0008126E+04;  0.0000000E+00;  8.2786250E-10;  1.0000000E+04;  0.0000000E+00;  9.9993604E+03; -2.5026795E-01;  0.0000000E+00;  2.5779724E-02;  3.1296173E+02;
  4.9995634E-01;  9.9999998E-03;  4.0000983E-02;1821; -3.4814786E-02;  0.0000000E+00;  8.1253215E-04;  1.0003824E+03;  4.0000284E-01;  3.1682928E+02;3; -1.9174164E+01;  0.0000000E+00;  3.6562896E-01;0; -2.2640297E-01;  1.0008166E+04;  0.0000000E+00;  3.8894190E-09;  1.0000000E+04;  0.0000000E+00;  9.9993506E+03; -2.5216812E-01;  0.0000000E+00;  2.5765149E-02;  3.1810895E+02;
  4.9995598E-01;  9.9999998E-03;  6.0001459E-02;1822; -3.5270441E-02;  0.0000000E+00;  1.2011270E-03;  1.0003853E+03;  4.0000272E-01;  3.1919958E+02;3; -1.9545692E+01;  0.0000000E+00;  5.4966784E-01;0; -2.2964133E-01;  1.0008236E+04;  0.0000000E+00;  1.7839206E-08;  1.0000000E+04;  0.0000000E+00;  9.9993330E+03; -2.5543454E-01;  0.0000000E+00;  2.5793206E-02;  3.2671628E+02;
  4.9995545E-01;  9.9999998E-03;  8.0001928E-02;1823; -3.5924926E-02;  0.0000000E+00;  1.5767320E-03;  1.0003893E+03;  4.0000269E-01;  3.2255750E+02;3; -2.0047022E+01;  0.0000000E+00;  7.4439871E-01;0; -2.3426041E-01;  1.0008342E+04;  0.0000000E+00;  5.8964964E-08;  1.0000000E+04;  0.0000000E+00;  9.9993096E+03; -2.6019600E-01;  0.0000000E+00;  2.5935594E-02;  3.3865778E+02;
  4.9995467E-01;  9.9999998E-03;  1.0000241E-01;1824; -3.6790613E-02;  0.0000000E+00;  1.9484417E-03;  1.0003953E+03;  4.0000278E-01;  3.2749561E+02;3; -2.0657492E+01;  0.0000000E+00;  9.6153462E-01;0; -2.4029003E-01;  1.0008491E+04;  0.0000000E+00;  1.4339601E-07;  1.0000000E+04;  0.0000000E+00;  9.9992783E+03; -2.6659203E-01;  0.0000000E+00;  2.6301991E-02;  3.5384546E+02;
  4.9995369E-01;  9.9999998E-03;  1.2000289E-01;1825; -3.7873432E-02;  0.0000000E+00;  2.3295935E-03;  1.0004032E+03;  4.0000278E-01;  3.3401392E+02;3; -2.1349766E+01;  0.0000000E+00;  1.2133193E+00;0; -2.4763775E-01;  1.0008688E+04;  0.0000000E+00;  2.8571904E-07;  1.0000000E+04;  0.0000000E+00;  9.9992373E+03; -2.7473798E-01;  0.0000000E+00;  2.7100231E-02;  3.7318723E+02;
  4.9995241E-01;  9.9999998E-03;  1.4000340E-01;1826; -3.9162774E-02;  0.0000000E+00;  2.7372073E-03;  1.0004128E+03;  4.0000275E-01;  3.4201364E+02;3; -2.2086939E+01;  0.0000000E+00;  1.5174394E+00;0; -2.5592157E-01;  1.0008940E+04;  0.0000000E+00;  4.6565779E-07;  1.0000000E+04;  0.0000000E+00;  9.9991787E+03; -2.8469327E-01;  0.0000000E+00;  2.8771704E-02;  4.0095966E+02;
  5.1994795E-01;  9.9999998E-03; -1.1025299E-12;1850; -3.9990231E-02;  0.0000000E+00; -3.0238823E-09;  1.0004341E+03;  4.0000778E-01;  3.5969159E+02;3; -2.1060839E+01;  0.0000000E+00; -4.9277887E-06;0; -2.3918825E-01;  1.0009181E+04;  0.0000000E+00;  1.3193100E-15;  1.0000000E+04;  0.0000000E+00;  9.9991133E+03; -2.7590033E-01;  0.0000000E+00;  3.6712080E-02;  4.2401205E+02;
  5.1994783E-01;  9.9999998E-03;  2.0000724E-02;1851; -4.0090777E-02;  0.0000000E+00;  6.3185778E-04;  1.0004346E+03;  4.0000775E-01;  3.5998788E+02;3; -2.1149311E+01;  0.0000000E+00;  3.1135657E-01;0; -2.3985851E-01;  1.0009194E+04;  0.0000000E+00;  2.8559091E-09;  1.0000000E+04;  0.0000000E+00;  9.9991064E+03; -2.7656269E-01;  0.0000000E+00;  3.6704183E-02;  4.2722375E+02;
  5.1994765E-01;  9.9999998E-03;  4.0001445E-02;1852; -4.0395912E-02;  0.0000000E+00;  1.2521915E-03;  1.0004357E+03;  4.0000778E-01;  3.6097552E+02;3; -2.1411270E+01;  0.0000000E+00;  6.1457735E-01;0; -2.4190176E-01;  1.0009238E+04;  0.0000000E+00;  1.9141092E-08;  1.0000000E+04;  0.0000000E+00;  9.9990898E+03; -2.7858019E-01;  0.0000000E+00;  3.6678441E-02;  4.3664542E+02;
  5.1994723E-01;  9.9999998E-03;  6.0002163E-02;1853; -4.0915713E-02;  0.0000000E+00;  1.8535559E-03;  1.0004381E+03;  4.0000790E-01;  3.6295074E+02;3; -2.1836565E+01;  0.0000000E+00;  9.0283251E-01;0; -2.4541658E-01;  1.0009316E+04;  0.0000000E+00;  7.8046575E-08;  1.0000000E+04;  0.0000000E+00;  9.9990596E+03; -2.8204173E-01;  0.0000000E+00;  3.6625139E-02;  4.5152405E+02;
  5.1994658E-01;  9.9999998E-03;  8.0002882E-02;1854; -4.1667193E-02;  0.0000000E+00;  2.4357960E-03;  1.0004421E+03;  4.0000775E-01;  3.6630865E+02;3; -2.2411312E+01;  0.0000000E+00;  1.1844419E+00;0; -2.5055215E-01;  1.0009433E+04;  0.0000000E+00;  2.3807011E-07;  1.0000000E+04;  0.0000000E+00;  9.9990234E+03; -2.8707734E-01;  0.0000000E+00;  3.6525182E-02;  4.7039999E+02;
  5.1994568E-01;  9.9999998E-03;  1.0000361E-01;1855; -4.2670865E-02;  0.0000000E+00;  2.9958158E-03;  1.0004485E+03;  4.0000778E-01;  3.7154306E+02;3; -2.3114704E+01;  0.0000000E+00;  1.4627424E+00;0; -2.5745609E-01;  1.0009598E+04;  0.0000000E+00;  5.8411729E-07;  1.0000000E+04;  0.0000000E+00;  9.9989814E+03; -2.9383692E-01;  0.0000000E+00;  3.6380839E-02;  4.9142044E+02;
  5.1994449E-01;  9.9999998E-03;  1.2000435E-01;1856; -4.3938562E-02;  0.0000000E+00;  3.5426335E-03;  1.0004572E+03;  4.0000778E-01;  3.7875269E+02;3; -2.3911318E+01;  0.0000000E+00;  1.7510527E+00;0; -2.6614857E-01;  1.0009815E+04;  0.0000000E+00;  1.1633787E-06;  1.0000000E+04;  0.0000000E+00;  9.9989375E+03; -3.0246457E-01;  0.0000000E+00;  3.6315996E-02;  5.1378809E+02;
  5.1994294E-01;  9.9999998E-03;  1.4000511E-01;1857; -4.5463413E-02;  0.0000000E+00;  4.0818588E-03;  1.0004684E+03;  4.0000775E-01;  3.8813510E+02;3; -2.4759058E+01;  0.0000000E+00;  2.0648406E+00;0; -2.7628690E-01;  1.0010096E+04;  0.0000000E+00;  1.9060438E-06;  1.0000000E+04;  0.0000000E+00;  9.9988838E+03; -3.1308135E-01;  0.0000000E+00;  3.6794461E-02;  5.4131335E+02;
  5.3993779E-01;  9.9999998E-03; -1.2412233E-12;1881; -4.6259422E-02;  0.0000000E+00;  3.3258638E-09;  1.0004955E+03;  4.0002084E-01;  4.1055331E+02;3; -2.3427732E+01;  0.0000000E+00;  1.2387049E-05;0; -2.4644189E-01;  1.0010067E+04;  0.0000000E+00; -4.6649985E-16;  1.0000000E+04;  0.0000000E+00;  9.9988018E+03; -2.9704577E-01;  0.0000000E+00;  5.0603878E-02;  5.6249530E+02;
  5.3993773E-01;  9.9999998E-03;  2.0001017E-02;1882; -4.6372432E-02;  0.0000000E+00;  9.2445523E-04;  1.0004957E+03;  4.0002072E-01;  4.1065207E+02;3; -2.3527142E+01;  0.0000000E+00;  4.9857920E-01;0; -2.4709353E-01;  1.0010085E+04;  0.0000000E+00;  1.2273649E-08;  1.0000000E+04;  0.0000000E+00;  9.9987900E+03; -2.9774657E-01;  0.0000000E+00;  5.0653037E-02;  5.6832495E+02;
  5.3993750E-01;  9.9999998E-03;  4.0002037E-02;1883; -4.6715930E-02;  0.0000000E+00;  1.8359002E-03;  1.0004965E+03;  4.0002072E-01;  4.1134341E+02;3; -2.3823059E+01;  0.0000000E+00;  9.7247976E-01;0; -2.4910641E-01;  1.0010136E+04;  0.0000000E+00;  6.5607111E-08;  1.0000000E+04;  0.0000000E+00;  9.9987549E+03; -2.9987422E-01;  0.0000000E+00;  5.0767809E-02;  5.8522253E+02;
  5.3993702E-01;  9.9999998E-03;  6.0003068E-02;1884; -4.7302958E-02;  0.0000000E+00;  2.7253891E-03;  1.0004983E+03;  4.0002078E-01;  4.1282483E+02;3; -2.4306175E+01;  0.0000000E+00;  1.4156699E+00;0; -2.5265509E-01;  1.0010220E+04;  0.0000000E+00;  2.3295077E-07;  1.0000000E+04;  0.0000000E+00;  9.9987061E+03; -3.0350175E-01;  0.0000000E+00;  5.0846681E-02;  6.1125873E+02;
  5.3993630E-01;  9.9999998E-03;  8.0004126E-02;1885; -4.8155665E-02;  0.0000000E+00;  3.5895500E-03;  1.0005016E+03;  4.0002075E-01;  4.1559018E+02;3; -2.4956850E+01;  0.0000000E+00;  1.8218981E+00;0; -2.5801861E-01;  1.0010348E+04;  0.0000000E+00;  6.7702831E-07;  1.0000000E+04;  0.0000000E+00;  9.9986436E+03; -3.0874205E-01;  0.0000000E+00;  5.0723426E-02;  6.4299933E+02;
  5.3993523E-01;  9.9999998E-03;  1.0000522E-01;1886; -4.9299870E-02;  0.0000000E+00;  4.4310624E-03;  1.0005074E+03;  4.0002069E-01;  4.2033075E+02;3; -2.5749861E+01;  0.0000000E+00;  2.2001438E+00;0; -2.6550958E-01;  1.0010530E+04;  0.0000000E+00;  1.5993106E-06;  1.0000000E+04;  0.0000000E+00;  9.9985781E+03; -3.1573287E-01;  0.0000000E+00;  5.0223287E-02;  6.7611450E+02;
  5.3993386E-01;  9.9999998E-03;  1.2000635E-01;1887; -5.0756805E-02;  0.0000000E+00;  5.2451310E-03;  1.0005164E+03;  4.0002072E-01;  4.2783664E+02;3; -2.6651020E+01;  0.0000000E+00;  2.5436800E+00;0; -2.7530450E-01;  1.0010767E+04;  0.0000000E+00;  3.0493327E-06;  1.0000000E+04;  0.0000000E+00;  9.9985186E+03; -3.2462600E-01;  0.0000000E+00;  4.9321495E-02;  7.0770721E+02;
  5.3993201E-01;  9.9999998E-03;  1.4000751E-01;1888; -5.2523322E-02;  0.0000000E+00;  6.0155634E-03;  1.0005284E+03;  4.0002063E-01;  4.3771286E+02;3; -2.7607985E+01;  0.0000000E+00;  2.8636236E+00;0; -2.8711590E-01;  1.0011070E+04;  0.0000000E+00;  4.6685309E-06;  1.0000000E+04;  0.0000000E+00;  9.9984580E+03; -3.3558512E-01;  0.0000000E+00;  4.8469223E-02;  7.4150012E+02;
  5.5992645E-01;  9.9999998E-03; -2.7543087E-12;1912; -5.3167470E-02;  0.0000000E+00;  2.5401761E-09;  1.0005906E+03;  4.0005583E-01;  4.8936414E+02;3; -2.5939295E+01;  0.0000000E+00;  1.0879639E-05;0; -2.4082878E-01;  1.0010588E+04;  0.0000000E+00; -3.0305380E-15;  1.0000000E+04;  0.0000000E+00;  9.9984258E+03; -3.0849180E-01;  0.0000000E+00;  6.7663014E-02;  7.2644678E+02;
  5.5992633E-01;  9.9999998E-03;  2.0001380E-02;1913; -5.3294852E-02;  0.0000000E+00;  1.2912342E-03;  1.0005906E+03;  4.0005589E-01;  4.8926538E+02;3; -2.6052219E+01;  0.0000000E+00;  7.1968478E-01;0; -2.4137893E-01;  1.0010607E+04;  0.0000000E+00;  2.4230673E-08;  1.0000000E+04;  0.0000000E+00;  9.9984082E+03; -3.0922753E-01;  0.0000000E+00;  6.7848600E-02;  7.3638055E+02;
  5.5992609E-01;  9.9999998E-03;  4.0002778E-02;1914; -5.3680904E-02;  0.0000000E+00;  2.5756275E-03;  1.0005903E+03;  4.0005592E-01;  4.8906787E+02;3; -2.6384249E+01;  0.0000000E+00;  1.4218140E+00;0; -2.4312007E-01;  1.0010661E+04;  0.0000000E+00;  1.3586923E-07;  1.0000000E+04;  0.0000000E+00;  9.9983467E+03; -3.1144857E-01;  0.0000000E+00;  6.8328500E-02;  7.6504663E+02;
  5.5992556E-01;  9.9999998E-03;  6.0004216E-02;1915; -5.4338630E-02;  0.0000000E+00;  3.8474195E-03;  1.0005907E+03;  4.0005586E-01;  4.8936414E+02;3; -2.6923576E+01;  0.0000000E+00;  2.0815542E+00;0; -2.4632940E-01;  1.0010754E+04;  0.0000000E+00;  4.8904099E-07;  1.0000000E+04;  0.0000000E+00;  9.9982607E+03; -3.1519783E-01;  0.0000000E+00;  6.8868428E-02;  8.0884967E+02;
  5.5992472E-01;  9.9999998E-03;  8.0005720E-02;1916; -5.5295315E-02;  0.0000000E+00;  5.0998395E-03;  1.0005923E+03;  4.0005580E-01;  4.9074683E+02;3; -2.7651461E+01;  0.0000000E+00;  2.6777349E+00;0; -2.5145766E-01;  1.0010894E+04;  0.0000000E+00;  1.4143111E-06;  1.0000000E+04;  0.0000000E+00;  9.9981543E+03; -3.2054833E-01;  0.0000000E+00;  6.9090657E-02;  8.6167358E+02;
  5.5992353E-01;  9.9999998E-03;  1.0000730E-01;1917; -5.6584094E-02;  0.0000000E+00;  6.3240803E-03;  1.0005968E+03;  4.0005589E-01;  4.9440100E+02;3; -2.8532106E+01;  0.0000000E+00;  3.1937704E+00;0; -2.5902769E-01;  1.0011088E+04;  0.0000000E+00;  3.2541850E-06;  1.0000000E+04;  0.0000000E+00;  9.9980488E+03; -3.2759991E-01;  0.0000000E+00;  6.8572231E-02;  9.1618658E+02;
  5.5992192E-01;  9.9999998E-03;  1.2000898E-01;1918; -5.8232263E-02;  0.0000000E+00;  7.5156824E-03;  1.0006045E+03;  4.0005583E-01;  5.0082050E+02;3; -2.9526001E+01;  0.0000000E+00;  3.6389079E+00;0; -2.6938891E-01;  1.0011339E+04;  0.0000000E+00;  5.8541877E-06;  1.0000000E+04;  0.0000000E+00;  9.9979541E+03; -3.3648029E-01;  0.0000000E+00;  6.7091376E-02;  9.6775317E+02;
  5.5991977E-01;  9.9999998E-03;  1.4001071E-01;1919; -6.0238790E-02;  0.0000000E+00;  8.6468924E-03;  1.0006156E+03;  4.0005577E-01;  5.1000534E+02;3; -3.0586853E+01;  0.0000000E+00;  3.9955170E+00;0; -2.8229505E-01;  1.0011661E+04;  0.0000000E+00;  8.0357977E-06;  1.0000000E+04;  0.0000000E+00;  9.9978545E+03; -3.4735835E-01;  0.0000000E+00;  6.5063283E-02;  1.0215313E+03;
  5.7991439E-01;  9.9999998E-03; -3.6754589E-13;1943; -6.0434725E-02;  0.0000000E+00;  2.9331104E-09;  1.0007971E+03;  4.0014899E-01;  6.6031836E+02;3; -2.8550398E+01;  0.0000000E+00;  1.4578422E-05;0; -2.1630082E-01;  1.0010493E+04;  0.0000000E+00; -9.0741179E-16;  1.0000000E+04;  0.0000000E+00;  9.9979883E+03; -3.0431628E-01;  0.0000000E+00;  8.8015467E-02;  9.1434998E+02;
  5.7991427E-01;  9.9999998E-03;  2.0001790E-02;1944; -6.0578126E-02;  0.0000000E+00;  1.7110863E-03;  1.0007964E+03;  4.0014893E-01;  6.5982458E+02;3; -2.8671799E+01;  0.0000000E+00;  9.9702960E-01;0; -2.1662974E-01;  1.0010513E+04;  0.0000000E+00;  1.8647603E-08;  1.0000000E+04;  0.0000000E+00;  9.9979561E+03; -3.0507168E-01;  0.0000000E+00;  8.8441938E-02;  9.3025781E+02;
  5.7991397E-01;  9.9999998E-03;  4.0003624E-02;1945; -6.1010547E-02;  0.0000000E+00;  3.4273800E-03;  1.0007947E+03;  4.0014899E-01;  6.5844189E+02;3; -2.9038002E+01;  0.0000000E+00;  1.9710940E+00;0; -2.1775070E-01;  1.0010572E+04;  0.0000000E+00;  1.5205742E-07;  1.0000000E+04;  0.0000000E+00;  9.9978623E+03; -3.0733716E-01;  0.0000000E+00;  8.9586459E-02;  9.7610870E+02;
  5.7991338E-01;  9.9999998E-03;  6.0005546E-02;1946; -6.1744045E-02;  0.0000000E+00;  5.1563247E-03;  1.0007926E+03;  4.0014893E-01;  6.5666425E+02;3; -2.9629078E+01;  0.0000000E+00;  2.8955224E+00;0; -2.2007622E-01;  1.0010672E+04;  0.0000000E+00;  6.8958434E-07;  1.0000000E+04;  0.0000000E+00;  9.9977178E+03; -3.1111437E-01;  0.0000000E+00;  9.1038153E-02;  1.0460897E+03;
  5.7991242E-01;  9.9999998E-03;  8.0007605E-02;1947; -6.2805422E-02;  0.0000000E+00;  6.8952590E-03;  1.0007913E+03;  4.0014893E-01;  6.5557782E+02;3; -3.0420710E+01;  0.0000000E+00;  3.7363157E+00;0; -2.2427601E-01;  1.0010819E+04;  0.0000000E+00;  2.1817652E-06;  1.0000000E+04;  0.0000000E+00;  9.9975469E+03; -3.1641832E-01;  0.0000000E+00;  9.2142321E-02;  1.1307410E+03;
  5.7991105E-01;  9.9999998E-03;  1.0000983E-01;1948; -6.4237013E-02;  0.0000000E+00;  8.6329263E-03;  1.0007926E+03;  4.0014893E-01;  6.5666425E+02;3; -3.1376106E+01;  0.0000000E+00;  4.4584870E+00;0; -2.3111784E-01;  1.0011019E+04;  0.0000000E+00;  4.9966397E-06;  1.0000000E+04;  0.0000000E+00;  9.9973711E+03; -3.2328472E-01;  0.0000000E+00;  9.2166863E-02;  1.2196383E+03;
  5.7990921E-01;  9.9999998E-03;  1.2001222E-01;1949; -6.6073798E-02;  0.0000000E+00;  1.0341028E-02;  1.0007971E+03;  4.0014893E-01;  6.6041718E+02;3; -3.2444817E+01;  0.0000000E+00;  5.0281954E+00;0; -2.4111679E-01;  1.0011276E+04;  0.0000000E+00;  8.3024488E-06;  1.0000000E+04;  0.0000000E+00;  9.9972041E+03; -3.3178157E-01;  0.0000000E+00;  9.0664782E-02;  1.3077909E+03;
  5.7990676E-01;  9.9999998E-03;  1.4001474E-01;1950; -6.8312675E-02;  0.0000000E+00;  1.1961835E-02;  1.0008040E+03;  4.0014896E-01;  6.6614532E+02;3; -3.3576225E+01;  0.0000000E+00;  5.4600015E+00;0; -2.5405568E-01;  1.0011602E+04;  0.0000000E+00;  9.0496032E-06;  1.0000000E+04;  0.0000000E+00;  9.9970205E+03; -3.4202728E-01;  0.0000000E+00;  8.7971598E-02;  1.4042761E+03;
  5.9990257E-01;  9.9999998E-03;  3.3929179E-12;1974; -6.7570090E-02;  0.0000000E+00; -1.3622059E-09;  1.0013128E+03;  4.0038556E-01;  1.0876539E+03;3; -3.1120457E+01;  0.0000000E+00; -8.7648368E-06;0; -1.6444057E-01;  1.0009481E+04;  0.0000000E+00;  5.0932393E-16;  1.0000000E+04;  0.0000000E+00;  9.9974902E+03; -2.7618068E-01;  0.0000000E+00;  1.1174012E-01;  1.1237749E+03;
  5.9990245E-01;  9.9999998E-03;  2.0002237E-02;1975; -6.7731634E-02;  0.0000000E+00;  2.1950852E-03;  1.0013113E+03;  4.0038559E-01;  1.0863700E+03;3; -3.1240658E+01;  0.0000000E+00;  1.3368149E+00;0; -1.6438204E-01;  1.0009501E+04;  0.0000000E+00; -3.4750151E-08;  1.0000000E+04;  0.0000000E+00;  9.9974404E+03; -2.7691802E-01;  0.0000000E+00;  1.1253598E-01;  1.1478651E+03;
  5.9990203E-01;  9.9999998E-03;  4.0004540E-02;1976; -6.8224110E-02;  0.0000000E+00;  4.4055753E-03;  1.0013071E+03;  4.0038556E-01;  1.0828146E+03;3; -3.1639788E+01;  0.0000000E+00;  2.6769567E+00;0; -1.6439867E-01;  1.0009560E+04;  0.0000000E+00; -1.7087595E-08;  1.0000000E+04;  0.0000000E+00;  9.9972959E+03; -2.7911425E-01;  0.0000000E+00;  1.1471557E-01;  1.2173075E+03;
  5.9990138E-01;  9.9999998E-03;  6.0006991E-02;1977; -6.9045790E-02;  0.0000000E+00;  6.6553229E-03;  1.0013012E+03;  4.0038568E-01;  1.0779753E+03;3; -3.2275673E+01;  0.0000000E+00;  3.9505563E+00;0; -1.6508082E-01;  1.0009663E+04;  0.0000000E+00;  5.2067958E-07;  1.0000000E+04;  0.0000000E+00;  9.9970742E+03; -2.8272960E-01;  0.0000000E+00;  1.1764879E-01;  1.3235031E+03;
  5.9990031E-01;  9.9999998E-03;  8.0009691E-02;1978; -7.0216134E-02;  0.0000000E+00;  8.9710243E-03;  1.0012951E+03;  4.0038553E-01;  1.0729385E+03;3; -3.3107265E+01;  0.0000000E+00;  5.0921392E+00;0; -1.6737029E-01;  1.0009810E+04;  0.0000000E+00;  2.3024854E-06;  1.0000000E+04;  0.0000000E+00;  9.9968105E+03; -2.8771466E-01;  0.0000000E+00;  1.2034436E-01;  1.4531371E+03;
  5.9989876E-01;  9.9999998E-03;  1.0001269E-01;1979; -7.1781039E-02;  0.0000000E+00;  1.1349020E-02;  1.0012909E+03;  4.0038550E-01;  1.0694819E+03;3; -3.4102455E+01;  0.0000000E+00;  6.0594144E+00;0; -1.7231002E-01;  1.0010002E+04;  0.0000000E+00;  5.5209453E-06;  1.0000000E+04;  0.0000000E+00;  9.9965303E+03; -2.9402530E-01;  0.0000000E+00;  1.2171527E-01;  1.5931501E+03;
  5.9989661E-01;  9.9999998E-03;  1.2001600E-01;1980; -7.3782988E-02;  0.0000000E+00;  1.3727595E-02;  1.0012885E+03;  4.0038544E-01;  1.0675067E+03;3; -3.5215454E+01;  0.0000000E+00;  6.7964144E+00;0; -1.8057233E-01;  1.0010248E+04;  0.0000000E+00;  7.7611503E-06;  1.0000000E+04;  0.0000000E+00;  9.9962402E+03; -3.0162776E-01;  0.0000000E+00;  1.2105542E-01;  1.7403617E+03;
  5.9989381E-01;  9.9999998E-03;  1.4001949E-01;1981; -7.6244086E-02;  0.0000000E+00;  1.5998837E-02;  1.0012870E+03;  4.0038553E-01;  1.0662228E+03;3; -3.6378258E+01;  0.0000000E+00;  7.3178124E+00;0; -1.9202855E-01;  1.0010549E+04;  0.0000000E+00;  3.2580765E-06;  1.0000000E+04;  0.0000000E+00;  9.9959102E+03; -3.1052962E-01;  0.0000000E+00;  1.1850107E-01;  1.9103759E+03;
  6.1989176E-01;  9.9999998E-03; -4.3141766E-12;2005; -7.4113794E-02;  0.0000000E+00; -1.3629211E-09;  1.0025258E+03;  4.0092713E-01;  2.0925334E+03;3; -3.3476692E+01;  0.0000000E+00;  4.7662179E-06;0; -7.4863762E-02;  1.0007225E+04;  0.0000000E+00;  8.3821999E-16;  1.0000000E+04;  0.0000000E+00;  9.9969336E+03; -2.1368028E-01;  0.0000000E+00;  1.3881652E-01;  1.3515531E+03;
  6.1989158E-01;  9.9999998E-03;  2.0002687E-02;2006; -7.4295856E-02;  0.0000000E+00;  2.7530894E-03;  1.0025231E+03;  4.0092719E-01;  2.0902620E+03;3; -3.3597523E+01;  0.0000000E+00;  1.8116767E+00;0; -7.4200764E-02;  1.0007241E+04;  0.0000000E+00; -1.5967689E-07;  1.0000000E+04;  0.0000000E+00;  9.9968604E+03; -2.1432918E-01;  0.0000000E+00;  1.4012842E-01;  1.3862141E+03;
  6.1989111E-01;  9.9999998E-03;  4.0005479E-02;2007; -7.4849762E-02;  0.0000000E+00;  5.5364911E-03;  1.0025153E+03;  4.0092722E-01;  2.0838425E+03;3; -3.4027576E+01;  0.0000000E+00;  3.5999920E+00;0; -7.2481811E-02;  1.0007297E+04;  0.0000000E+00; -4.8004136E-07;  1.0000000E+04;  0.0000000E+00;  9.9966533E+03; -2.1625043E-01;  0.0000000E+00;  1.4376862E-01;  1.4861827E+03;
  6.1989033E-01;  9.9999998E-03;  6.0008507E-02;2008; -7.5765148E-02;  0.0000000E+00;  8.3933510E-03;  1.0025039E+03;  4.0092725E-01;  2.0743616E+03;3; -3.4701607E+01;  0.0000000E+00;  5.2641740E+00;0; -7.0526391E-02;  1.0007388E+04;  0.0000000E+00; -3.6515945E-07;  1.0000000E+04;  0.0000000E+00;  9.9963320E+03; -2.1937209E-01;  0.0000000E+00;  1.4884570E-01;  1.6395221E+03;
  6.1988908E-01;  9.9999998E-03;  8.0011941E-02;2009; -7.7068135E-02;  0.0000000E+00;  1.1370640E-02;  1.0024906E+03;  4.0092719E-01;  2.0633992E+03;3; -3.5595352E+01;  0.0000000E+00;  6.7056227E+00;0; -6.9609061E-02;  1.0007517E+04;  0.0000000E+00;  1.0506133E-06;  1.0000000E+04;  0.0000000E+00;  9.9959424E+03; -2.2358926E-01;  0.0000000E+00;  1.5398020E-01;  1.8287264E+03;
  6.1988735E-01;  9.9999998E-03;  1.0001589E-01;2010; -7.8804106E-02;  0.0000000E+00;  1.4476744E-02;  1.0024774E+03;  4.0092725E-01;  2.0524368E+03;3; -3.6629257E+01;  0.0000000E+00;  7.9200411E+00;0; -7.1084157E-02;  1.0007684E+04;  0.0000000E+00;  3.3645329E-06;  1.0000000E+04;  0.0000000E+00;  9.9955156E+03; -2.2877151E-01;  0.0000000E+00;  1.5768735E-01;  2.0388877E+03;
  6.1988491E-01;  9.9999998E-03;  1.2002033E-01;2011; -8.0977514E-02;  0.0000000E+00;  1.7657196E-02;  1.0024645E+03;  4.0092719E-01;  2.0417706E+03;3; -3.7737301E+01;  0.0000000E+00;  8.7936792E+00;0; -7.5835094E-02;  1.0007893E+04;  0.0000000E+00;  1.9425845E-06;  1.0000000E+04;  0.0000000E+00;  9.9950488E+03; -2.3476093E-01;  0.0000000E+00;  1.5892583E-01;  2.2708696E+03;
  6.1988175E-01;  9.9999998E-03;  1.4002506E-01;2012; -8.3630219E-02;  0.0000000E+00;  2.0688590E-02;  1.0024490E+03;  4.0092734E-01;  2.0289318E+03;3; -3.8894855E+01;  0.0000000E+00;  9.3274183E+00;0; -8.3981156E-02;  1.0008134E+04;  0.0000000E+00; -1.2274755E-05;  1.0000000E+04;  0.0000000E+00;  9.9945000E+03; -2.4140279E-01;  0.0000000E+00;  1.5742163E-01;  2.5486382E+03;
  6.3988256E-01;  9.9999998E-03;  1.9696631E-12;2036; -7.9667941E-02;  0.0000000E+00;  3.3220696E-10;  1.0047891E+03;  4.0191984E-01;  3.9675640E+03;3; -3.5569687E+01;  0.0000000E+00; -1.6700185E-05;0;  6.1250716E-02;  1.0003497E+04;  0.0000000E+00;  8.7129478E-16;  1.0000000E+04;  0.0000000E+00;  9.9963291E+03; -1.0771620E-01;  0.0000000E+00;  1.6896692E-01;  1.5933850E+03;
  6.3988239E-01;  9.9999998E-03;  2.0003138E-02;2037; -7.9870634E-02;  0.0000000E+00;  3.3446278E-03;  1.0047847E+03;  4.0191975E-01;  3.9639099E+03;3; -3.5721943E+01;  0.0000000E+00;  2.3279519E+00;0;  6.2772639E-02;  1.0003511E+04;  0.0000000E+00; -3.4635204E-07;  1.0000000E+04;  0.0000000E+00;  9.9962295E+03; -1.0817308E-01;  0.0000000E+00;  1.7094572E-01;  1.6408763E+03;
  6.3988185E-01;  9.9999998E-03;  4.0006429E-02;2038; -8.0482699E-02;  0.0000000E+00;  6.7228172E-03;  1.0047722E+03;  4.0191975E-01;  3.9535400E+03;3; -3.6164616E+01;  0.0000000E+00;  4.5421381E+00;0;  6.6970177E-02;  1.0003549E+04;  0.0000000E+00; -1.2193200E-06;  1.0000000E+04;  0.0000000E+00;  9.9959404E+03; -1.0951365E-01;  0.0000000E+00;  1.7648382E-01;  1.7779299E+03;
  6.3988084E-01;  9.9999998E-03;  6.0010068E-02;2039; -8.1509389E-02;  0.0000000E+00;  1.0196490E-02;  1.0047531E+03;  4.0191975E-01;  3.9376399E+03;3; -3.6860809E+01;  0.0000000E+00;  6.5632539E+00;0;  7.2740905E-02;  1.0003615E+04;  0.0000000E+00; -1.9793563E-06;  1.0000000E+04;  0.0000000E+00;  9.9954961E+03; -1.1165058E-01;  0.0000000E+00;  1.8439148E-01;  1.9887743E+03;
  6.3987941E-01;  9.9999998E-03;  8.0014281E-02;2040; -8.2955211E-02;  0.0000000E+00;  1.3853617E-02;  1.0047302E+03;  4.0191981E-01;  3.9187769E+03;3; -3.7728226E+01;  0.0000000E+00;  8.3468361E+00;0;  7.8405723E-02;  1.0003706E+04;  0.0000000E+00; -1.7681688E-06;  1.0000000E+04;  0.0000000E+00;  9.9949502E+03; -1.1444396E-01;  0.0000000E+00;  1.9284968E-01;  2.2514385E+03;
  6.3987732E-01;  9.9999998E-03;  1.0001926E-01;2041; -8.4862784E-02;  0.0000000E+00;  1.7756952E-02;  1.0047050E+03;  4.0191981E-01;  3.8978398E+03;3; -3.8758087E+01;  0.0000000E+00;  9.8431950E+00;0;  8.2213320E-02;  1.0003817E+04;  0.0000000E+00; -1.7185960E-06;  1.0000000E+04;  0.0000000E+00;  9.9943340E+03; -1.1769649E-01;  0.0000000E+00;  1.9990981E-01;  2.5497720E+03;
  6.3987458E-01;  9.9999998E-03;  1.2002503E-01;2042; -8.7223157E-02;  0.0000000E+00;  2.1868020E-02;  1.0046765E+03;  4.0191969E-01;  3.8742363E+03;3; -3.9883656E+01;  0.0000000E+00;  1.0972754E+01;0;  8.2923882E-02;  1.0003949E+04;  0.0000000E+00; -8.6058444E-06;  1.0000000E+04;  0.0000000E+00;  9.9936465E+03; -1.2113576E-01;  0.0000000E+00;  2.0405965E-01;  2.8900789E+03;
  6.3987106E-01;  9.9999998E-03;  1.4003128E-01;2043; -9.0050586E-02;  0.0000000E+00;  2.5928721E-02;  1.0046419E+03;  4.0191975E-01;  3.8455959E+03;3; -4.1060970E+01;  0.0000000E+00;  1.1665719E+01;0;  7.9917900E-02;  1.0004091E+04;  0.0000000E+00; -3.3852441E-05;  1.0000000E+04;  0.0000000E+00;  9.9928203E+03; -1.2442539E-01;  0.0000000E+00;  2.0434329E-01;  3.3051848E+03;
  6.5987569E-01;  9.9999998E-03; -2.8705571E-12;2067; -8.3950274E-02;  0.0000000E+00; -1.4737579E-08;  1.0076163E+03;  4.0316740E-01;  6.3096743E+03;3; -3.7226677E+01;  0.0000000E+00; -1.9895902E-05;0;  2.4513075E-01;  9.9983545E+03;  0.0000000E+00;  1.7723504E-15;  1.0000000E+04;  0.0000000E+00;  9.9956904E+03;  4.3700155E-02;  0.0000000E+00;  2.0143059E-01;  1.8428661E+03;
  6.5987551E-01;  9.9999998E-03;  2.0003682E-02;2068; -8.4172688E-02;  0.0000000E+00;  4.0384866E-03;  1.0076099E+03;  4.0316740E-01;  6.3044399E+03;3; -3.7374882E+01;  0.0000000E+00;  2.8954258E+00;0;  2.4776518E-01;  9.9983574E+03;  0.0000000E+00; -5.2633590E-07;  1.0000000E+04;  0.0000000E+00;  9.9955586E+03;  4.3561425E-02;  0.0000000E+00;  2.0420375E-01;  1.9048879E+03;
  6.5987480E-01;  9.9999998E-03;  4.0007576E-02;2069; -8.4844366E-02;  0.0000000E+00;  8.1254346E-03;  1.0075915E+03;  4.0316743E-01;  6.2891323E+03;3; -3.7805504E+01;  0.0000000E+00;  5.6489563E+00;0;  2.5518614E-01;  9.9983711E+03;  0.0000000E+00; -1.9559811E-06;  1.0000000E+04;  0.0000000E+00;  9.9951807E+03;  4.3173470E-02;  0.0000000E+00;  2.1201268E-01;  2.0839629E+03;
  6.5987366E-01;  9.9999998E-03;  6.0011957E-02;2070; -8.5971057E-02;  0.0000000E+00;  1.2357562E-02;  1.0075631E+03;  4.0316734E-01;  6.2656279E+03;3; -3.8473087E+01;  0.0000000E+00;  8.1605682E+00;0;  2.6595837E-01;  9.9983916E+03;  0.0000000E+00; -3.6974277E-06;  1.0000000E+04;  0.0000000E+00;  9.9945947E+03;  4.2620558E-02;  0.0000000E+00;  2.2333780E-01;  2.3600742E+03;
  6.5987200E-01;  9.9999998E-03;  8.0017149E-02;2071; -8.7546699E-02;  0.0000000E+00;  1.6888727E-02;  1.0075276E+03;  4.0316743E-01;  6.2361978E+03;3; -3.9298756E+01;  0.0000000E+00;  1.0396971E+01;0;  2.7790943E-01;  9.9984170E+03;  0.0000000E+00; -5.0322178E-06;  1.0000000E+04;  0.0000000E+00;  9.9938711E+03;  4.2044252E-02;  0.0000000E+00;  2.3586518E-01;  2.7064104E+03;
  6.5986967E-01;  9.9999998E-03;  1.0002343E-01;2072; -8.9567117E-02;  0.0000000E+00;  2.1811800E-02;  1.0074871E+03;  4.0316737E-01;  6.2026201E+03;3; -4.0280476E+01;  0.0000000E+00;  1.2203779E+01;0;  2.8874481E-01;  9.9984424E+03;  0.0000000E+00; -7.4757863E-06;  1.0000000E+04;  0.0000000E+00;  9.9930430E+03;  4.1663028E-02;  0.0000000E+00;  2.4708179E-01;  3.1054724E+03;
  6.5986669E-01;  9.9999998E-03;  1.2003078E-01;2073; -9.1978766E-02;  0.0000000E+00;  2.7015682E-02;  1.0074405E+03;  4.0316743E-01;  6.1640054E+03;3; -4.1255913E+01;  0.0000000E+00;  1.3468258E+01;0;  2.9663137E-01;  9.9984629E+03;  0.0000000E+00; -1.8657704E-05;  1.0000000E+04;  0.0000000E+00;  9.9920977E+03;  4.1811906E-02;  0.0000000E+00;  2.5481945E-01;  3.5688950E+03;
  6.5986300E-01;  9.9999998E-03;  1.4003882E-01;2074; -9.4815359E-02;  0.0000000E+00;  3.2223649E-02;  1.0073831E+03;  4.0316752E-01;  6.1165029E+03;3; -4.2427864E+01;  0.0000000E+00;  1.4304790E+01;0;  3.0015320E-01;  9.9984648E+03;  0.0000000E+00; -5.0161314E-05;  1.0000000E+04;  0.0000000E+00;  9.9909521E+03;  4.2974994E-02;  0.0000000E+00;  2.5717819E-01;  4.1373467E+03;
  6.7987323E-01;  9.9999998E-03;  4.6830369E-12;2098; -8.5966527E-02;  0.0000000E+00;  1.4146196E-09;  1.0097657E+03;  4.0416279E-01;  8.0902661E+03;3; -3.8139847E+01;  0.0000000E+00; -1.0709628E-05;0;  4.6394715E-01;  9.9922959E+03;  0.0000000E+00;  4.3817412E-15;  1.0000000E+04;  0.0000000E+00;  9.9950439E+03;  2.2916198E-01;  0.0000000E+00;  2.3478517E-01;  2.0908994E+03;
  6.7987299E-01;  9.9999998E-03;  2.0004304E-02;2099; -8.6201042E-02;  0.0000000E+00;  4.8971549E-03;  1.0097569E+03;  4.0416268E-01;  8.0829580E+03;3; -3.8291515E+01;  0.0000000E+00;  3.6975944E+00;0;  4.6788174E-01;  9.9922910E+03;  0.0000000E+00; -5.9308383E-07;  1.0000000E+04;  0.0000000E+00;  9.9948789E+03;  2.2946022E-01;  0.0000000E+00;  2.3842150E-01;  2.1681411E+03;
  6.7987233E-01;  9.9999998E-03;  4.0008895E-02;2100; -8.6906321E-02;  0.0000000E+00;  9.8783756E-03;  1.0097321E+03;  4.0416262E-01;  8.0623179E+03;3; -3.8743183E+01;  0.0000000E+00;  7.2247915E+00;0;  4.7908011E-01;  9.9922695E+03;  0.0000000E+00; -2.2488446E-06;  1.0000000E+04;  0.0000000E+00;  9.9944053E+03;  2.3037675E-01;  0.0000000E+00;  2.4870336E-01;  2.3912107E+03;
  6.7987114E-01;  9.9999998E-03;  6.0014158E-02;2101; -8.8081084E-02;  0.0000000E+00;  1.5093962E-02;  1.0096933E+03;  4.0416279E-01;  8.0302217E+03;3; -3.9433083E+01;  0.0000000E+00;  1.0462495E+01;0;  4.9574023E-01;  9.9922285E+03;  0.0000000E+00; -4.4927242E-06;  1.0000000E+04;  0.0000000E+00;  9.9936748E+03;  2.3197806E-01;  0.0000000E+00;  2.6376218E-01;  2.7355654E+03;
  6.7986935E-01;  9.9999998E-03;  8.0020532E-02;2102; -8.9721754E-02;  0.0000000E+00;  2.0753352E-02;  1.0096443E+03;  4.0416276E-01;  7.9896328E+03;3; -4.0311729E+01;  0.0000000E+00;  1.3314323E+01;0;  5.1512003E-01;  9.9921689E+03;  0.0000000E+00; -6.6967959E-06;  1.0000000E+04;  0.0000000E+00;  9.9927607E+03;  2.3437765E-01;  0.0000000E+00;  2.8074238E-01;  3.1690391E+03;
  6.7986697E-01;  9.9999998E-03;  1.0002839E-01;2103; -9.1809243E-02;  0.0000000E+00;  2.7012751E-02;  1.0095873E+03;  4.0416291E-01;  7.9424268E+03;3; -4.1298306E+01;  0.0000000E+00;  1.5674137E+01;0;  5.3422397E-01;  9.9920850E+03;  0.0000000E+00; -1.0205545E-05;  1.0000000E+04;  0.0000000E+00;  9.9917119E+03;  2.3776254E-01;  0.0000000E+00;  2.9646143E-01;  3.6718755E+03;
  6.7986393E-01;  9.9999998E-03;  1.2003773E-01;2104; -9.4282910E-02;  0.0000000E+00;  3.3754017E-02;  1.0095204E+03;  4.0416291E-01;  7.8870244E+03;3; -4.2258354E+01;  0.0000000E+00;  1.7414082E+01;0;  5.5035412E-01;  9.9919668E+03;  0.0000000E+00; -2.1474149E-05;  1.0000000E+04;  0.0000000E+00;  9.9905068E+03;  2.4244699E-01;  0.0000000E+00;  3.0790716E-01;  4.2593706E+03;
  6.7986017E-01;  9.9999998E-03;  1.4004804E-01;2105; -9.7093955E-02;  0.0000000E+00;  4.0496748E-02;  1.0094391E+03;  4.0416309E-01;  7.8196719E+03;3; -4.3138626E+01;  0.0000000E+00;  1.8302811E+01;0;  5.6098801E-01;  9.9918008E+03;  0.0000000E+00; -4.9997896E-05;  1.0000000E+04;  0.0000000E+00;  9.9890586E+03;  2.4894989E-01;  0.0000000E+00;  3.1203812E-01;  4.9777744E+03;
  6.9987977E-01;  9.9999998E-03;  1.9363790E-11;2129; -8.3802238E-02;  0.0000000E+00;  1.2046908E-08;  1.0107931E+03;  4.0470710E-01;  8.9411719E+03;3; -3.8212143E+01;  0.0000000E+00;  1.0449439E-06;0;  6.8763083E-01;  9.9863203E+03;  0.0000000E+00;  5.0682144E-15;  1.0000000E+04;  0.0000000E+00;  9.9944268E+03;  4.2059174E-01;  0.0000000E+00;  2.6703909E-01;  2.3268120E+03;
  6.9987959E-01;  9.9999998E-03;  2.0004777E-02;2130; -8.4034294E-02;  0.0000000E+00;  5.6828070E-03;  1.0107823E+03;  4.0470713E-01;  8.9322842E+03;3; -3.8384247E+01;  0.0000000E+00;  4.5176978E+00;0;  6.9291198E-01;  9.9863008E+03;  0.0000000E+00; -4.8900046E-07;  1.0000000E+04;  0.0000000E+00;  9.9942295E+03;  4.2139706E-01;  0.0000000E+00;  2.7151492E-01;  2.4186182E+03;
  6.9987893E-01;  9.9999998E-03;  4.0009946E-02;2131; -8.4733628E-02;  0.0000000E+00;  1.1494275E-02;  1.0107507E+03;  4.0470722E-01;  8.9060146E+03;3; -3.8884983E+01;  0.0000000E+00;  8.8431969E+00;0;  7.0803177E-01;  9.9862402E+03;  0.0000000E+00; -1.8794111E-06;  1.0000000E+04;  0.0000000E+00;  9.9936641E+03;  4.2383006E-01;  0.0000000E+00;  2.8420174E-01;  2.6837158E+03;
  6.9987786E-01;  9.9999998E-03;  6.0016021E-02;2132; -8.5897118E-02;  0.0000000E+00;  1.7670017E-02;  1.0107017E+03;  4.0470725E-01;  8.8655254E+03;3; -3.9640999E+01;  0.0000000E+00;  1.2846422E+01;0;  7.3082530E-01;  9.9861387E+03;  0.0000000E+00; -3.7958700E-06;  1.0000000E+04;  0.0000000E+00;  9.9927930E+03;  4.2793953E-01;  0.0000000E+00;  3.0288574E-01;  3.0929563E+03;
  6.9987625E-01;  9.9999998E-03;  8.0023602E-02;2133; -8.7527066E-02;  0.0000000E+00;  2.4529088E-02;  1.0106392E+03;  4.0470731E-01;  8.8136787E+03;3; -4.0601078E+01;  0.0000000E+00;  1.6449631E+01;0;  7.5795770E-01;  9.9859893E+03;  0.0000000E+00; -5.6682084E-06;  1.0000000E+04;  0.0000000E+00;  9.9917031E+03;  4.3380511E-01;  0.0000000E+00;  3.2415262E-01;  3.6083579E+03;
  6.9987398E-01;  9.9999998E-03;  1.0003316E-01;2134; -8.9604497E-02;  0.0000000E+00;  3.2303274E-02;  1.0105660E+03;  4.0470731E-01;  8.7530439E+03;3; -4.1679111E+01;  0.0000000E+00;  1.9617054E+01;0;  7.8563303E-01;  9.9857842E+03;  0.0000000E+00; -8.1262406E-06;  1.0000000E+04;  0.0000000E+00;  9.9904482E+03;  4.4155067E-01;  0.0000000E+00;  3.4408236E-01;  4.2065659E+03;
  6.9987112E-01;  9.9999998E-03;  1.2004468E-01;2135; -9.2006408E-02;  0.0000000E+00;  4.0908724E-02;  1.0104802E+03;  4.0470755E-01;  8.6819404E+03;3; -4.2586086E+01;  0.0000000E+00;  2.2197489E+01;0;  8.1010121E-01;  9.9855195E+03;  0.0000000E+00; -1.5356865E-05;  1.0000000E+04;  0.0000000E+00;  9.9890146E+03;  4.5138845E-01;  0.0000000E+00;  3.5871276E-01;  4.9040283E+03;
  6.9986761E-01;  9.9999998E-03;  1.4005752E-01;2136; -9.4668880E-02;  0.0000000E+00;  4.9799468E-02;  1.0103772E+03;  4.0470776E-01;  8.5966162E+03;3; -4.3280830E+01;  0.0000000E+00;  2.4041529E+01;0;  8.2750428E-01;  9.9851797E+03;  0.0000000E+00; -3.3412041E-05;  1.0000000E+04;  0.0000000E+00;  9.9873057E+03;  4.6370628E-01;  0.0000000E+00;  3.6379799E-01;  5.7499053E+03;
  7.1990991E-01;  9.9999998E-03;  1.4073756E-12;2160; -6.5362327E-02;  0.0000000E+00; -4.7956739E-10;  1.0111260E+03;  4.0494522E-01;  9.2167422E+03;3; -3.2046848E+01;  0.0000000E+00;  4.6486384E-06;0;  8.7406933E-01;  9.9816797E+03;  0.0000000E+00; -1.3898060E-15;  1.0000000E+04;  0.0000000E+00;  9.9938721E+03;  5.7802230E-01;  0.0000000E+00;  2.9604706E-01;  2.5402219E+03;
  7.1990979E-01;  9.9999998E-03;  2.0005304E-02;2161; -6.5564856E-02;  0.0000000E+00;  6.4103883E-03;  1.0111133E+03;  4.0494525E-01;  9.2061758E+03;3; -3.2215210E+01;  0.0000000E+00;  5.2220297E+00;0;  8.8056242E-01;  9.9816504E+03;  0.0000000E+00; -2.9124263E-07;  1.0000000E+04;  0.0000000E+00;  9.9936475E+03;  5.7932299E-01;  0.0000000E+00;  3.0123946E-01;  2.6445952E+03;
  7.1990925E-01;  9.9999998E-03;  4.0011063E-02;2162; -6.6172414E-02;  0.0000000E+00;  1.2975444E-02;  1.0110762E+03;  4.0494522E-01;  9.1754639E+03;3; -3.2707771E+01;  0.0000000E+00;  1.0226808E+01;0;  8.9921653E-01;  9.9815576E+03;  0.0000000E+00; -1.1078615E-06;  1.0000000E+04;  0.0000000E+00;  9.9930039E+03;  5.8324307E-01;  0.0000000E+00;  3.1597343E-01;  2.9458457E+03;
  7.1990836E-01;  9.9999998E-03;  6.0017869E-02;2163; -6.7190133E-02;  0.0000000E+00;  1.9980233E-02;  1.0110182E+03;  4.0494531E-01;  9.1273721E+03;3; -3.3490974E+01;  0.0000000E+00;  1.4882323E+01;0;  9.2754394E-01;  9.9813984E+03;  0.0000000E+00; -2.1673770E-06;  1.0000000E+04;  0.0000000E+00;  9.9920127E+03;  5.8982772E-01;  0.0000000E+00;  3.3771622E-01;  3.4104336E+03;
  7.1990705E-01;  9.9999998E-03;  8.0026425E-02;2164; -6.8637796E-02;  0.0000000E+00;  2.7819445E-02;  1.0109442E+03;  4.0494552E-01;  9.0660469E+03;3; -3.4517353E+01;  0.0000000E+00;  1.9156750E+01;0;  9.6166682E-01;  9.9811680E+03;  0.0000000E+00; -2.9351988E-06;  1.0000000E+04;  0.0000000E+00;  9.9907754E+03;  5.9914416E-01;  0.0000000E+00;  3.6252263E-01;  3.9944382E+03;
  7.1990514E-01;  9.9999998E-03;  1.0003724E-01;2165; -7.0549779E-02;  0.0000000E+00;  3.6789507E-02;  1.0108571E+03;  4.0494555E-01;  8.9939570E+03;3; -3.5728321E+01;  0.0000000E+00;  2.3052101E+01;0;  9.9700636E-01;  9.9808545E+03;  0.0000000E+00; -3.4035240E-06;  1.0000000E+04;  0.0000000E+00;  9.9893564E+03;  6.1126095E-01;  0.0000000E+00;  3.8574541E-01;  4.6697666E+03;
  7.1990258E-01;  9.9999998E-03;  1.2005033E-01;2166; -7.2950169E-02;  0.0000000E+00;  4.6834536E-02;  1.0107557E+03;  4.0494579E-01;  8.9100186E+03;3; -3.7025871E+01;  0.0000000E+00;  2.6512251E+01;0;  1.0287479E+00;  9.9804561E+03;  0.0000000E+00; -5.4626039E-06;  1.0000000E+04;  0.0000000E+00;  9.9877441E+03;  6.2624991E-01;  0.0000000E+00;  4.0249798E-01;  5.4516665E+03;
  7.1989924E-01;  9.9999998E-03;  1.4006500E-01;2167; -7.5846516E-02;  0.0000000E+00;  5.7393182E-02;  1.0106354E+03;  4.0494609E-01;  8.8103770E+03;3; -3.8372101E+01;  0.0000000E+00;  2.9358686E+01;0;  1.0516829E+00;  9.9799600E+03;  0.0000000E+00; -1.2395428E-05;  1.0000000E+04;  0.0000000E+00;  9.9858516E+03;  6.4422786E-01;  0.0000000E+00;  4.0745512E-01;  6.3900640E+03;
  7.3994482E-01;  9.9999998E-03;  7.0616729E-12;2191; -4.0589526E-02;  0.0000000E+00;  2.2068104E-08;  1.0112147E+03;  4.0503889E-01;  9.2897715E+03;3; -2.0504868E+01;  0.0000000E+00;  3.6469079E-05;0;  9.8895085E-01;  9.9792578E+03;  0.0000000E+00;  1.2502375E-15;  1.0000000E+04;  0.0000000E+00;  9.9934150E+03;  6.6900361E-01;  0.0000000E+00;  3.1994721E-01;  2.7210205E+03;
  7.3994470E-01;  9.9999998E-03;  2.0005731E-02;2192; -4.0743973E-02;  0.0000000E+00;  6.9456059E-03;  1.0112003E+03;  4.0503901E-01;  9.2779219E+03;3; -2.0632704E+01;  0.0000000E+00;  5.6799488E+00;0;  9.9636304E-01;  9.9792197E+03;  0.0000000E+00; -1.0898043E-07;  1.0000000E+04;  0.0000000E+00;  9.9931689E+03;  6.7069942E-01;  0.0000000E+00;  3.2566360E-01;  2.8350513E+03;
  7.3994428E-01;  9.9999998E-03;  4.0011942E-02;2193; -4.1204832E-02;  0.0000000E+00;  1.4044338E-02;  1.0111589E+03;  4.0503898E-01;  9.2436563E+03;3; -2.1004787E+01;  0.0000000E+00;  1.1111320E+01;0;  1.0176945E+00;  9.9791035E+03;  0.0000000E+00; -4.0116259E-07;  1.0000000E+04;  0.0000000E+00;  9.9924658E+03;  6.7580938E-01;  0.0000000E+00;  3.4188512E-01;  3.1639626E+03;
  7.3994362E-01;  9.9999998E-03;  6.0019262E-02;2194; -4.1968804E-02;  0.0000000E+00;  2.1590129E-02;  1.0110944E+03;  4.0503907E-01;  9.1902334E+03;3; -2.1589699E+01;  0.0000000E+00;  1.6137678E+01;0;  1.0502027E+00;  9.9789053E+03;  0.0000000E+00; -6.8433894E-07;  1.0000000E+04;  0.0000000E+00;  9.9913838E+03;  6.8439114E-01;  0.0000000E+00;  3.6581159E-01;  3.6703870E+03;
  7.3994261E-01;  9.9999998E-03;  8.0028437E-02;2195; -4.3040846E-02;  0.0000000E+00;  2.9995631E-02;  1.0110117E+03;  4.0503916E-01;  9.1217021E+03;3; -2.2343321E+01;  0.0000000E+00;  2.0712006E+01;0;  1.0895586E+00;  9.9786123E+03;  0.0000000E+00; -5.3413748E-07;  1.0000000E+04;  0.0000000E+00;  9.9900352E+03;  6.9651932E-01;  0.0000000E+00;  3.9303926E-01;  4.3048838E+03;
  7.3994124E-01;  9.9999998E-03;  1.0004000E-01;2196; -4.4436831E-02;  0.0000000E+00;  3.9567504E-02;  1.0109149E+03;  4.0503940E-01;  9.0415176E+03;3; -2.3215187E+01;  0.0000000E+00;  2.4826324E+01;0;  1.1305201E+00;  9.9782227E+03;  0.0000000E+00;  3.7402788E-07;  1.0000000E+04;  0.0000000E+00;  9.9885039E+03;  7.1222961E-01;  0.0000000E+00;  4.1829053E-01;  5.0341401E+03;
  7.3993939E-01;  9.9999998E-03;  1.2005397E-01;2197; -4.6172872E-02;  0.0000000E+00;  5.0234981E-02;  1.0108028E+03;  4.0503961E-01;  8.9485967E+03;3; -2.4150873E+01;  0.0000000E+00;  2.8424955E+01;0;  1.1673622E+00;  9.9777246E+03;  0.0000000E+00;  1.4894013E-06;  1.0000000E+04;  0.0000000E+00;  9.9867813E+03;  7.3145109E-01;  0.0000000E+00;  4.3591109E-01;  5.8706782E+03;
  7.3993695E-01;  9.9999998E-03;  1.4006957E-01;2198; -4.8239373E-02;  0.0000000E+00;  6.1377369E-02;  1.0106714E+03;  4.0503973E-01;  8.8397754E+03;3; -2.5088110E+01;  0.0000000E+00;  3.1299372E+01;0;  1.1937355E+00;  9.9771152E+03;  0.0000000E+00;  1.2187405E-06;  1.0000000E+04;  0.0000000E+00;  9.9847793E+03;  7.5396347E-01;  0.0000000E+00;  4.3977198E-01;  6.8640532E+03;
  7.5997132E-01;  9.9999998E-03;  3.0861900E-11;2222; -2.1765674E-02;  0.0000000E+00;  1.0716835E-08;  1.0112743E+03;  4.0507418E-01;  9.3387793E+03;3; -1.1724609E+01;  0.0000000E+00; -2.2291730E-05;0;  1.0268033E+00;  9.9790361E+03;  0.0000000E+00;  4.4511048E-15;  1.0000000E+04;  0.0000000E+00;  9.9930762E+03;  6.8921179E-01;  0.0000000E+00;  3.3759147E-01;  2.8600977E+03;
  7.5997126E-01;  9.9999998E-03;  2.0006035E-02;2223; -2.1868844E-02;  0.0000000E+00;  7.3265731E-03;  1.0112592E+03;  4.0507436E-01;  9.3262383E+03;3; -1.1809301E+01;  0.0000000E+00;  6.0037503E+00;0;  1.0347683E+00;  9.9789951E+03;  0.0000000E+00; -1.1506716E-08;  1.0000000E+04;  0.0000000E+00;  9.9928184E+03;  6.9114709E-01;  0.0000000E+00;  3.4362128E-01;  2.9805857E+03;
  7.5997102E-01;  9.9999998E-03;  4.0012561E-02;2224; -2.2174234E-02;  0.0000000E+00;  1.4798307E-02;  1.0112151E+03;  4.0507439E-01;  9.2897031E+03;3; -1.2053818E+01;  0.0000000E+00;  1.1730880E+01;0;  1.0577031E+00;  9.9788643E+03;  0.0000000E+00; -2.0402512E-08;  1.0000000E+04;  0.0000000E+00;  9.9920742E+03;  6.9697911E-01;  0.0000000E+00;  3.6072403E-01;  3.3278901E+03;
  7.5997055E-01;  9.9999998E-03;  6.0020234E-02;2225; -2.2672916E-02;  0.0000000E+00;  2.2709996E-02;  1.0111464E+03;  4.0507445E-01;  9.2327285E+03;3; -1.2431838E+01;  0.0000000E+00;  1.7003204E+01;0;  1.0926845E+00;  9.9786445E+03;  0.0000000E+00;  7.1181923E-08;  1.0000000E+04;  0.0000000E+00;  9.9909326E+03;  7.0678186E-01;  0.0000000E+00;  3.8590264E-01;  3.8616899E+03;
  7.5996995E-01;  9.9999998E-03;  8.0029815E-02;2226; -2.3358900E-02;  0.0000000E+00;  3.1483993E-02;  1.0110587E+03;  4.0507457E-01;  9.1601523E+03;3; -1.2906983E+01;  0.0000000E+00;  2.1760258E+01;0;  1.1350466E+00;  9.9783193E+03;  0.0000000E+00;  5.1322974E-07;  1.0000000E+04;  0.0000000E+00;  9.9895176E+03;  7.2063929E-01;  0.0000000E+00;  4.1440728E-01;  4.5279834E+03;
  7.5996906E-01;  9.9999998E-03;  1.0004188E-01;2227; -2.4233209E-02;  0.0000000E+00;  4.1432660E-02;  1.0109563E+03;  4.0507472E-01;  9.0753311E+03;3; -1.3438821E+01;  0.0000000E+00;  2.5985525E+01;0;  1.1790479E+00;  9.9778848E+03;  0.0000000E+00;  1.5947311E-06;  1.0000000E+04;  0.0000000E+00;  9.9879180E+03;  7.3856288E-01;  0.0000000E+00;  4.4048506E-01;  5.2886162E+03;
  7.5996786E-01;  9.9999998E-03;  1.2005641E-01;2228; -2.5296938E-02;  0.0000000E+00;  5.2466094E-02;  1.0108387E+03;  4.0507492E-01;  8.9778711E+03;3; -1.3984806E+01;  0.0000000E+00;  2.9611343E+01;0;  1.2182989E+00;  9.9773320E+03;  0.0000000E+00;  3.2685871E-06;  1.0000000E+04;  0.0000000E+00;  9.9861387E+03;  7.6035303E-01;  0.0000000E+00;  4.5794585E-01;  6.1528823E+03;
  7.5996643E-01;  9.9999998E-03;  1.4007257E-01;2229; -2.6531110E-02;  0.0000000E+00;  6.3907057E-02;  1.0107021E+03;  4.0507522E-01;  8.8648096E+03;3; -1.4496958E+01;  0.0000000E+00;  3.2409534E+01;0;  1.2456574E+00;  9.9766680E+03;  0.0000000E+00;  4.8727461E-06;  1.0000000E+04;  0.0000000E+00;  9.9840938E+03;  7.8546518E-01;  0.0000000E+00;  4.6019226E-01;  7.1697139E+03;
  7.7999043E-01;  9.9999998E-03; -1.1656314E-11;2253; -8.1174383E-03;  0.0000000E+00; -1.0540073E-10;  1.0113588E+03;  4.0508720E-01;  9.4081553E+03;3; -5.2428031E+00;  0.0000000E+00;  1.8674706E-05;0;  1.0078039E+00;  9.9802871E+03;  0.0000000E+00; -2.2639622E-15;  1.0000000E+04;  0.0000000E+00;  9.9928633E+03;  6.5918726E-01;  0.0000000E+00;  3.4861663E-01;  2.9509280E+03;
  7.7999043E-01;  9.9999998E-03;  2.0006215E-02;2254; -8.1705125E-03;  0.0000000E+00;  7.5527225E-03;  1.0113434E+03;  4.0508726E-01;  9.3953193E+03;3; -5.2858596E+00;  0.0000000E+00;  6.1936555E+00;0;  1.0159740E+00;  9.9802451E+03;  0.0000000E+00;  1.5095607E-08;  1.0000000E+04;  0.0000000E+00;  9.9925977E+03;  6.6119951E-01;  0.0000000E+00;  3.5477453E-01;  3.0748723E+03;
  7.7999032E-01;  9.9999998E-03;  4.0012926E-02;2255; -8.3250441E-03;  0.0000000E+00;  1.5239265E-02;  1.0112982E+03;  4.0508735E-01;  9.3578984E+03;3; -5.4079771E+00;  0.0000000E+00;  1.2088630E+01;0;  1.0394964E+00;  9.9801123E+03;  0.0000000E+00;  6.4768599E-08;  1.0000000E+04;  0.0000000E+00;  9.9918330E+03;  6.6726649E-01;  0.0000000E+00;  3.7222987E-01;  3.4319441E+03;
  7.7999008E-01;  9.9999998E-03;  6.0020790E-02;2256; -8.5696271E-03;  0.0000000E+00;  2.3350051E-02;  1.0112277E+03;  4.0508741E-01;  9.2994453E+03;3; -5.5904374E+00;  0.0000000E+00;  1.7489693E+01;0;  1.0753440E+00;  9.9798887E+03;  0.0000000E+00;  1.8585196E-07;  1.0000000E+04;  0.0000000E+00;  9.9906602E+03;  6.7747205E-01;  0.0000000E+00;  3.9787191E-01;  3.9799185E+03;
  7.7998978E-01;  9.9999998E-03;  8.0030590E-02;2257; -8.8918470E-03;  0.0000000E+00;  3.2311160E-02;  1.0111381E+03;  4.0508750E-01;  9.2252939E+03;3; -5.8075809E+00;  0.0000000E+00;  2.2327021E+01;0;  1.1186410E+00;  9.9795586E+03;  0.0000000E+00;  4.7237182E-07;  1.0000000E+04;  0.0000000E+00;  9.9892100E+03;  6.9190520E-01;  0.0000000E+00;  4.2673579E-01;  4.6616216E+03;
  7.7998936E-01;  9.9999998E-03;  1.0004292E-01;2258; -9.2831543E-03;  0.0000000E+00;  4.2438742E-02;  1.0110338E+03;  4.0508774E-01;  9.1388994E+03;3; -6.0322371E+00;  0.0000000E+00;  2.6579601E+01;0;  1.1633356E+00;  9.9791152E+03;  0.0000000E+00;  1.0521481E-06;  1.0000000E+04;  0.0000000E+00;  9.9875850E+03;  7.1056008E-01;  0.0000000E+00;  4.5277542E-01;  5.4351587E+03;
  7.7998888E-01;  9.9999998E-03;  1.2005772E-01;2259; -9.7367913E-03;  0.0000000E+00;  5.3631421E-02;  1.0109149E+03;  4.0508789E-01;  9.0404590E+03;3; -6.2384791E+00;  0.0000000E+00;  3.0173685E+01;0;  1.2026629E+00;  9.9785488E+03;  0.0000000E+00;  1.9786366E-06;  1.0000000E+04;  0.0000000E+00;  9.9857920E+03;  7.3315442E-01;  0.0000000E+00;  4.6950850E-01;  6.3069883E+03;
  7.7998823E-01;  9.9999998E-03;  1.4007413E-01;2260; -1.0236305E-02;  0.0000000E+00;  6.5172985E-02;  1.0107780E+03;  4.0508822E-01;  8.9270107E+03;3; -6.3995013E+00;  0.0000000E+00;  3.2868805E+01;0;  1.2290850E+00;  9.9778770E+03;  0.0000000E+00;  2.9935447E-06;  1.0000000E+04;  0.0000000E+00;  9.9837451E+03;  7.5891888E-01;  0.0000000E+00;  4.7016615E-01;  7.3255771E+03;
  8.0000544E-01;  9.9999998E-03; -3.5222391E-11;2284;  2.7481306E-03;  0.0000000E+00; -3.0133425E-08;  1.0114569E+03;  4.0509081E-01;  9.4885547E+03;3;  1.1607677E-01;  0.0000000E+00; -2.9108254E-05;0;  9.5954084E-01;  9.9821309E+03;  0.0000000E+00;  1.9210443E-15;  1.0000000E+04;  0.0000000E+00;  9.9927734E+03;  6.0628712E-01;  0.0000000E+00;  3.5325369E-01;  2.9907983E+03;
  8.0000544E-01;  9.9999998E-03;  2.0006280E-02;2285;  2.7416525E-03;  0.0000000E+00;  7.6343180E-03;  1.0114412E+03;  4.0509081E-01;  9.4754238E+03;3;  1.1112237E-01;  0.0000000E+00;  6.2599678E+00;0;  9.6765155E-01;  9.9820918E+03;  0.0000000E+00;  5.4885372E-09;  1.0000000E+04;  0.0000000E+00;  9.9925059E+03;  6.0825002E-01;  0.0000000E+00;  3.5940152E-01;  3.1156462E+03;
  8.0000544E-01;  9.9999998E-03;  4.0013049E-02;2286;  2.7264447E-03;  0.0000000E+00;  1.5390560E-02;  1.0113959E+03;  4.0509093E-01;  9.4380059E+03;3;  1.0013265E-01;  0.0000000E+00;  1.2206815E+01;0;  9.9099082E-01;  9.9819639E+03;  0.0000000E+00;  2.2034843E-08;  1.0000000E+04;  0.0000000E+00;  9.9917354E+03;  6.1417174E-01;  0.0000000E+00;  3.7681907E-01;  3.4751868E+03;
  8.0000544E-01;  9.9999998E-03;  6.0020965E-02;2287;  2.7141285E-03;  0.0000000E+00;  2.3551792E-02;  1.0113255E+03;  4.0509108E-01;  9.3796572E+03;3;  9.3432590E-02;  0.0000000E+00;  1.7634550E+01;0;  1.0264995E+00;  9.9817461E+03;  0.0000000E+00;  5.3153173E-08;  1.0000000E+04;  0.0000000E+00;  9.9905576E+03;  6.2413740E-01;  0.0000000E+00;  4.0236217E-01;  4.0263594E+03;
  8.0000544E-01;  9.9999998E-03;  8.0030814E-02;2288;  2.7200393E-03;  0.0000000E+00;  3.2543413E-02;  1.0112362E+03;  4.0509117E-01;  9.3057100E+03;3;  1.0464093E-01;  0.0000000E+00;  2.2468409E+01;0;  1.0692185E+00;  9.9814297E+03;  0.0000000E+00;  1.0953511E-07;  1.0000000E+04;  0.0000000E+00;  9.9891025E+03;  6.3823628E-01;  0.0000000E+00;  4.3098223E-01;  4.7103789E+03;
  8.0000544E-01;  9.9999998E-03;  1.0004319E-01;2289;  2.7587544E-03;  0.0000000E+00;  4.2684682E-02;  1.0111327E+03;  4.0509126E-01;  9.2200137E+03;3;  1.4664033E-01;  0.0000000E+00;  2.6687752E+01;0;  1.1129774E+00;  9.9810000E+03;  0.0000000E+00;  2.0798332E-07;  1.0000000E+04;  0.0000000E+00;  9.9874775E+03;  6.5645987E-01;  0.0000000E+00;  4.5651755E-01;  5.4831421E+03;
  8.0000550E-01;  9.9999998E-03;  1.2005804E-01;2290;  2.8411134E-03;  0.0000000E+00;  5.3872649E-02;  1.0110156E+03;  4.0509146E-01;  9.1229648E+03;3;  2.2818369E-01;  0.0000000E+00;  3.0220005E+01;0;  1.1508999E+00;  9.9804570E+03;  0.0000000E+00;  3.4519368E-07;  1.0000000E+04;  0.0000000E+00;  9.9856943E+03;  6.7850029E-01;  0.0000000E+00;  4.7239962E-01;  6.3491226E+03;
  8.0000561E-01;  9.9999998E-03;  1.4007449E-01;2291;  2.9771023E-03;  0.0000000E+00;  6.5375239E-02;  1.0108810E+03;  4.0509176E-01;  9.0115996E+03;3;  3.5451075E-01;  0.0000000E+00;  3.2822021E+01;0;  1.1753995E+00;  9.9798125E+03;  0.0000000E+00;  4.5259600E-07;  1.0000000E+04;  0.0000000E+00;  9.9836719E+03;  7.0350170E-01;  0.0000000E+00;  4.7189790E-01;  7.3565078E+03;
  8.2001948E-01;  9.9999998E-03;  9.1972237E-12;2315;  1.3094623E-02;  0.0000000E+00;  7.4396374E-09;  1.0115374E+03;  4.0508485E-01;  9.5539258E+03;3;  5.3842816E+00;  0.0000000E+00; -3.0133640E-05;0;  9.0154415E-01;  9.9839854E+03;  0.0000000E+00; -2.6107048E-15;  1.0000000E+04;  0.0000000E+00;  9.9927998E+03;  5.4947329E-01;  0.0000000E+00;  3.5207087E-01;  2.9809966E+03;
  8.2001948E-01;  9.9999998E-03;  2.0006241E-02;2316;  1.3130151E-02;  0.0000000E+00;  7.5870398E-03;  1.0115219E+03;  4.0508494E-01;  9.5411914E+03;3;  5.4131093E+00;  0.0000000E+00;  6.2182217E+00;0;  9.0943223E-01;  9.9839463E+03;  0.0000000E+00; -5.6318874E-09;  1.0000000E+04;  0.0000000E+00;  9.9925352E+03;  5.5131501E-01;  0.0000000E+00;  3.5811722E-01;  3.1046663E+03;
  8.2001960E-01;  9.9999998E-03;  4.0012959E-02;2317;  1.3240288E-02;  0.0000000E+00;  1.5285359E-02;  1.0114775E+03;  4.0508500E-01;  9.5043701E+03;3;  5.5003324E+00;  0.0000000E+00;  1.2117009E+01;0;  9.3211448E-01;  9.9838291E+03;  0.0000000E+00; -2.1723908E-08;  1.0000000E+04;  0.0000000E+00;  9.9917705E+03;  5.5687064E-01;  0.0000000E+00;  3.7524387E-01;  3.4607520E+03;
  8.2001978E-01;  9.9999998E-03;  6.0020808E-02;2318;  1.3435585E-02;  0.0000000E+00;  2.3369366E-02;  1.0114083E+03;  4.0508509E-01;  9.4471152E+03;3;  5.6477709E+00;  0.0000000E+00;  1.7486076E+01;0;  9.6655929E-01;  9.9836230E+03;  0.0000000E+00; -4.5720149E-08;  1.0000000E+04;  0.0000000E+00;  9.9906016E+03;  5.6622189E-01;  0.0000000E+00;  4.0033743E-01;  4.0063196E+03;
  8.2002002E-01;  9.9999998E-03;  8.0030560E-02;2319;  1.3732601E-02;  0.0000000E+00;  3.2260127E-02;  1.0113207E+03;  4.0508518E-01;  9.3745596E+03;3;  5.8578448E+00;  0.0000000E+00;  2.2250210E+01;0;  1.0078391E+00;  9.9833252E+03;  0.0000000E+00; -8.1697465E-08;  1.0000000E+04;  0.0000000E+00;  9.9891631E+03;  5.7945782E-01;  0.0000000E+00;  4.2838126E-01;  4.6824580E+03;
  8.2002044E-01;  9.9999998E-03;  1.0004281E-01;2320;  1.4150117E-02;  0.0000000E+00;  4.2279162E-02;  1.0112197E+03;  4.0508527E-01;  9.2908477E+03;3;  6.1301274E+00;  0.0000000E+00;  2.6393105E+01;0;  1.0498222E+00;  9.9829238E+03;  0.0000000E+00; -1.5711174E-07;  1.0000000E+04;  0.0000000E+00;  9.9875605E+03;  5.9657729E-01;  0.0000000E+00;  4.5324489E-01;  5.4443813E+03;
  8.2002103E-01;  9.9999998E-03;  1.2005752E-01;2321;  1.4703051E-02;  0.0000000E+00;  5.3330127E-02;  1.0111057E+03;  4.0508559E-01;  9.1964756E+03;3;  6.4592152E+00;  0.0000000E+00;  2.9849079E+01;0;  1.0857207E+00;  9.9824170E+03;  0.0000000E+00; -3.4109661E-07;  1.0000000E+04;  0.0000000E+00;  9.9858047E+03;  6.1729914E-01;  0.0000000E+00;  4.6842152E-01;  6.2954775E+03;
  8.2002181E-01;  9.9999998E-03;  1.4007378E-01;2322;  1.5397569E-02;  0.0000000E+00;  6.4686425E-02;  1.0109753E+03;  4.0508583E-01;  9.0884805E+03;3;  6.8330584E+00;  0.0000000E+00;  3.2381325E+01;0;  1.1081461E+00;  9.9818135E+03;  0.0000000E+00; -7.5042755E-07;  1.0000000E+04;  0.0000000E+00;  9.9838223E+03;  6.4080352E-01;  0.0000000E+00;  4.6734259E-01;  7.2836162E+03;
  8.4003407E-01;  9.9999998E-03;  1.8232651E-11;2346;  2.3973323E-02;  0.0000000E+00;  2.9119541E-08;  1.0114260E+03;  4.0500253E-01;  9.4601602E+03;3;  1.0978141E+01;  0.0000000E+00;  2.0407198E-05;0;  8.3927906E-01;  9.9857168E+03;  0.0000000E+00;  1.1699528E-15;  1.0000000E+04;  0.0000000E+00;  9.9929268E+03;  4.9351346E-01;  0.0000000E+00;  3.4576556E-01;  2.9261326E+03;
  8.4003413E-01;  9.9999998E-03;  2.0006113E-02;2347;  2.4046313E-02;  0.0000000E+00;  7.4278926E-03;  1.0114111E+03;  4.0500265E-01;  9.4478232E+03;3;  1.1036535E+01;  0.0000000E+00;  6.0846820E+00;0;  8.4685713E-01;  9.9856797E+03;  0.0000000E+00; -1.0754662E-08;  1.0000000E+04;  0.0000000E+00;  9.9926689E+03;  4.9520576E-01;  0.0000000E+00;  3.5165137E-01;  3.0468987E+03;
  8.4003437E-01;  9.9999998E-03;  4.0012687E-02;2348;  2.4268026E-02;  0.0000000E+00;  1.4958515E-02;  1.0113678E+03;  4.0500268E-01;  9.4119951E+03;3;  1.1209589E+01;  0.0000000E+00;  1.1851448E+01;0;  8.6863565E-01;  9.9855723E+03;  0.0000000E+00; -3.3507526E-08;  1.0000000E+04;  0.0000000E+00;  9.9919199E+03;  5.0030947E-01;  0.0000000E+00;  3.6832619E-01;  3.3946372E+03;
  8.4003466E-01;  9.9999998E-03;  6.0020357E-02;2349;  2.4647735E-02;  0.0000000E+00;  2.2857010E-02;  1.0113007E+03;  4.0500277E-01;  9.3564277E+03;3;  1.1491985E+01;  0.0000000E+00;  1.7091690E+01;0;  9.0165937E-01;  9.9853818E+03;  0.0000000E+00; -5.1440058E-08;  1.0000000E+04;  0.0000000E+00;  9.9907754E+03;  5.0889981E-01;  0.0000000E+00;  3.9275953E-01;  3.9273667E+03;
  8.4003520E-01;  9.9999998E-03;  8.0029882E-02;2350;  2.5202727E-02;  0.0000000E+00;  3.1537019E-02;  1.0112158E+03;  4.0500295E-01;  9.2861533E+03;3;  1.1875934E+01;  0.0000000E+00;  2.1733225E+01;0;  9.4111884E-01;  9.9851064E+03;  0.0000000E+00; -4.3208036E-08;  1.0000000E+04;  0.0000000E+00;  9.9893691E+03;  5.2106553E-01;  0.0000000E+00;  4.2005333E-01;  4.5872847E+03;
  8.4003597E-01;  9.9999998E-03;  1.0004186E-01;2351;  2.5956165E-02;  0.0000000E+00;  4.1320007E-02;  1.0111182E+03;  4.0500304E-01;  9.2053184E+03;3;  1.2350780E+01;  0.0000000E+00;  2.5766235E+01;0;  9.8104393E-01;  9.9847363E+03;  0.0000000E+00; -4.4564757E-08;  1.0000000E+04;  0.0000000E+00;  9.9878047E+03;  5.3682888E-01;  0.0000000E+00;  4.4421509E-01;  5.3301611E+03;
  8.4003699E-01;  9.9999998E-03;  1.2005624E-01;2352;  2.6928920E-02;  0.0000000E+00;  5.2121013E-02;  1.0110083E+03;  4.0500328E-01;  9.1143174E+03;3;  1.2900934E+01;  0.0000000E+00;  2.9135248E+01;0;  1.0148647E+00;  9.9842666E+03;  0.0000000E+00; -1.9083943E-07;  1.0000000E+04;  0.0000000E+00;  9.9860928E+03;  5.5596977E-01;  0.0000000E+00;  4.5889488E-01;  6.1588833E+03;
  8.4003836E-01;  9.9999998E-03;  1.4007215E-01;2353;  2.8128758E-02;  0.0000000E+00;  6.3234024E-02;  1.0108826E+03;  4.0500349E-01;  9.0102881E+03;3;  1.3503693E+01;  0.0000000E+00;  3.1614901E+01;0;  1.0355443E+00;  9.9837061E+03;  0.0000000E+00; -7.7718931E-07;  1.0000000E+04;  0.0000000E+00;  9.9841543E+03;  5.7779634E-01;  0.0000000E+00;  4.5774797E-01;  7.1206890E+03;
  8.6004913E-01;  9.9999998E-03;  1.9744234E-11;2377;  3.5176456E-02;  0.0000000E+00;  8.8141201E-09;  1.0111242E+03;  4.0484089E-01;  9.2082969E+03;3;  1.6727768E+01;  0.0000000E+00;  1.2520468E-07;0;  7.6752961E-01;  9.9875283E+03;  0.0000000E+00;  8.0228494E-16;  1.0000000E+04;  0.0000000E+00;  9.9931406E+03;  4.3246549E-01;  0.0000000E+00;  3.3506408E-01;  2.8330239E+03;
  8.6004925E-01;  9.9999998E-03;  2.0005902E-02;2378;  3.5282545E-02;  0.0000000E+00;  7.1708746E-03;  1.0111097E+03;  4.0484083E-01;  9.1962578E+03;3;  1.6811930E+01;  0.0000000E+00;  5.8722677E+00;0;  7.7474409E-01;  9.9874941E+03;  0.0000000E+00; -1.4225980E-08;  1.0000000E+04;  0.0000000E+00;  9.9928896E+03;  4.3399930E-01;  0.0000000E+00;  3.4074479E-01;  2.9493760E+03;
  8.6004949E-01;  9.9999998E-03;  4.0012248E-02;2379;  3.5602827E-02;  0.0000000E+00;  1.4438148E-02;  1.0110682E+03;  4.0484086E-01;  9.1619180E+03;3;  1.7060190E+01;  0.0000000E+00;  1.1435177E+01;0;  7.9547262E-01;  9.9873936E+03;  0.0000000E+00; -4.1863444E-08;  1.0000000E+04;  0.0000000E+00;  9.9921670E+03;  4.3862477E-01;  0.0000000E+00;  3.5684785E-01;  3.2844734E+03;
  8.6005002E-01;  9.9999998E-03;  6.0019650E-02;2380;  3.6145598E-02;  0.0000000E+00;  2.2057176E-02;  1.0110037E+03;  4.0484098E-01;  9.1085332E+03;3;  1.7461010E+01;  0.0000000E+00;  1.6486681E+01;0;  8.2687461E-01;  9.9872188E+03;  0.0000000E+00; -3.8891059E-08;  1.0000000E+04;  0.0000000E+00;  9.9910596E+03;  4.4640842E-01;  0.0000000E+00;  3.8046616E-01;  3.7979980E+03;
  8.6005074E-01;  9.9999998E-03;  8.0028847E-02;2381;  3.6929484E-02;  0.0000000E+00;  3.0430954E-02;  1.0109224E+03;  4.0484110E-01;  9.0412354E+03;3;  1.7998646E+01;  0.0000000E+00;  2.0960077E+01;0;  8.6432731E-01;  9.9869668E+03;  0.0000000E+00;  5.0430202E-08;  1.0000000E+04;  0.0000000E+00;  9.9897002E+03;  4.5744520E-01;  0.0000000E+00;  4.0688211E-01;  4.4342354E+03;
  8.6005181E-01;  9.9999998E-03;  1.0004041E-01;2382;  3.7982520E-02;  0.0000000E+00;  3.9877724E-02;  1.0108289E+03;  4.0484121E-01;  8.9637734E+03;3;  1.8654810E+01;  0.0000000E+00;  2.4852747E+01;0;  9.0210235E-01;  9.9866230E+03;  0.0000000E+00;  1.9416412E-07;  1.0000000E+04;  0.0000000E+00;  9.9881855E+03;  4.7179469E-01;  0.0000000E+00;  4.3030769E-01;  5.1503276E+03;
  8.6005324E-01;  9.9999998E-03;  1.2005431E-01;2383;  3.9333377E-02;  0.0000000E+00;  5.0324537E-02;  1.0107238E+03;  4.0484139E-01;  8.8767393E+03;3;  1.9407755E+01;  0.0000000E+00;  2.8119549E+01;0;  9.3394774E-01;  9.9861895E+03;  0.0000000E+00;  1.4374857E-07;  1.0000000E+04;  0.0000000E+00;  9.9865303E+03;  4.8933682E-01;  0.0000000E+00;  4.4461092E-01;  5.9488628E+03;
  8.6005515E-01;  9.9999998E-03;  1.4006972E-01;2384;  4.0996827E-02;  0.0000000E+00;  6.1094847E-02;  1.0106028E+03;  4.0484157E-01;  8.7766807E+03;3;  2.0229969E+01;  0.0000000E+00;  3.0549028E+01;0;  9.5328712E-01;  9.9856709E+03;  0.0000000E+00; -5.9007937E-07;  1.0000000E+04;  0.0000000E+00;  9.9846572E+03;  5.0957566E-01;  0.0000000E+00;  4.4371146E-01;  6.8759419E+03;
  8.8006353E-01;  9.9999998E-03; -2.4004314E-11;2408;  4.5862678E-02;  0.0000000E+00; -2.3140268E-08;  1.0106672E+03;  4.0460867E-01;  8.8273086E+03;3;  2.2204735E+01;  0.0000000E+00; -1.2312084E-05;0;  6.7913496E-01;  9.9896797E+03;  0.0000000E+00;  1.8580491E-14;  1.0000000E+04;  0.0000000E+00;  9.9934268E+03;  3.5842553E-01;  0.0000000E+00;  3.2070944E-01;  2.7093879E+03;
  8.8006365E-01;  9.9999998E-03;  2.0005619E-02;2409;  4.5997478E-02;  0.0000000E+00;  6.8281679E-03;  1.0106534E+03;  4.0460867E-01;  8.8159639E+03;3;  2.2311306E+01;  0.0000000E+00;  5.5914860E+00;0;  6.8592715E-01;  9.9896465E+03;  0.0000000E+00; -2.3779203E-08;  1.0000000E+04;  0.0000000E+00;  9.9931855E+03;  3.5978359E-01;  0.0000000E+00;  3.2614353E-01;  2.8199297E+03;
  8.8006395E-01;  9.9999998E-03;  4.0011663E-02;2410;  4.6403334E-02;  0.0000000E+00;  1.3748040E-02;  1.0106141E+03;  4.0460879E-01;  8.7833115E+03;3;  2.2624855E+01;  0.0000000E+00;  1.0887712E+01;0;  7.0543861E-01;  9.9895557E+03;  0.0000000E+00; -7.5159448E-08;  1.0000000E+04;  0.0000000E+00;  9.9924961E+03;  3.6387902E-01;  0.0000000E+00;  3.4155959E-01;  3.1384229E+03;
  8.8006461E-01;  9.9999998E-03;  6.0018715E-02;2411;  4.7088228E-02;  0.0000000E+00;  2.1004923E-02;  1.0105530E+03;  4.0460888E-01;  8.7328037E+03;3;  2.3129162E+01;  0.0000000E+00;  1.5697534E+01;0;  7.3498344E-01;  9.9893955E+03;  0.0000000E+00; -9.5782617E-08;  1.0000000E+04;  0.0000000E+00;  9.9914414E+03;  3.7077671E-01;  0.0000000E+00;  3.6420676E-01;  3.6268130E+03;
  8.8006550E-01;  9.9999998E-03;  8.0027483E-02;2412;  4.8072286E-02;  0.0000000E+00;  2.8987793E-02;  1.0104758E+03;  4.0460894E-01;  8.6689785E+03;3;  2.3802217E+01;  0.0000000E+00;  1.9961386E+01;0;  7.7017617E-01;  9.9891670E+03;  0.0000000E+00;  9.7289643E-10;  1.0000000E+04;  0.0000000E+00;  9.9901387E+03;  3.8058367E-01;  0.0000000E+00;  3.8959250E-01;  4.2322568E+03;
  8.8006681E-01;  9.9999998E-03;  1.0003852E-01;2413;  4.9389042E-02;  0.0000000E+00;  3.8007822E-02;  1.0103873E+03;  4.0460899E-01;  8.5956826E+03;3;  2.4620237E+01;  0.0000000E+00;  2.3683472E+01;0;  8.0558789E-01;  9.9888564E+03;  0.0000000E+00;  1.7398021E-07;  1.0000000E+04;  0.0000000E+00;  9.9886885E+03;  3.9341220E-01;  0.0000000E+00;  4.1217566E-01;  4.9137803E+03;
  8.8006866E-01;  9.9999998E-03;  1.2005181E-01;2414;  5.1075857E-02;  0.0000000E+00;  4.8002534E-02;  1.0102877E+03;  4.0460920E-01;  8.5132129E+03;3;  2.5557972E+01;  0.0000000E+00;  2.6827271E+01;0;  8.3536339E-01;  9.9884600E+03;  0.0000000E+00;  8.2676216E-08;  1.0000000E+04;  0.0000000E+00;  9.9871064E+03;  4.0928078E-01;  0.0000000E+00;  4.2608258E-01;  5.6735562E+03;
  8.8007098E-01;  9.9999998E-03;  1.4006655E-01;2415;  5.3157326E-02;  0.0000000E+00;  5.8328588E-02;  1.0101729E+03;  4.0460941E-01;  8.4182139E+03;3;  2.6586590E+01;  0.0000000E+00;  2.9194925E+01;0;  8.5349691E-01;  9.9879766E+03;  0.0000000E+00; -1.0856196E-06;  1.0000000E+04;  0.0000000E+00;  9.9853145E+03;  4.2795876E-01;  0.0000000E+00;  4.2553818E-01;  6.5559531E+03;
  9.0007579E-01;  9.9999998E-03; -5.4207257E-11;2439;  5.5013221E-02;  0.0000000E+00; -3.0844905E-08;  1.0100890E+03;  4.0431893E-01;  8.3454775E+03;3;  2.6946733E+01;  0.0000000E+00;  4.4764602E-06;0;  5.7355857E-01;  9.9922314E+03;  0.0000000E+00; -3.8759007E-17;  1.0000000E+04;  0.0000000E+00;  9.9937676E+03;  2.7008793E-01;  0.0000000E+00;  3.0347067E-01;  2.5625793E+03;
  9.0007591E-01;  9.9999998E-03;  2.0005280E-02;2440;  5.5174723E-02;  0.0000000E+00;  6.4127357E-03;  1.0100764E+03;  4.0431893E-01;  8.3350244E+03;3;  2.7073944E+01;  0.0000000E+00;  5.2512932E+00;0;  5.7984507E-01;  9.9922090E+03;  0.0000000E+00; -3.6998372E-08;  1.0000000E+04;  0.0000000E+00;  9.9935410E+03;  2.7122971E-01;  0.0000000E+00;  3.0861536E-01;  2.6660303E+03;
  9.0007633E-01;  9.9999998E-03;  4.0010959E-02;2441;  5.5660561E-02;  0.0000000E+00;  1.2913528E-02;  1.0100397E+03;  4.0431890E-01;  8.3046533E+03;3;  2.7448202E+01;  0.0000000E+00;  1.0226193E+01;0;  5.9790325E-01;  9.9921289E+03;  0.0000000E+00; -1.3742839E-07;  1.0000000E+04;  0.0000000E+00;  9.9928877E+03;  2.7467695E-01;  0.0000000E+00;  3.2322627E-01;  2.9642612E+03;
  9.0007704E-01;  9.9999998E-03;  6.0017589E-02;2442;  5.6478206E-02;  0.0000000E+00;  1.9736419E-02;  1.0099826E+03;  4.0431899E-01;  8.2574199E+03;3;  2.8048815E+01;  0.0000000E+00;  1.4747902E+01;0;  6.2523067E-01;  9.9919912E+03;  0.0000000E+00; -2.3259132E-07;  1.0000000E+04;  0.0000000E+00;  9.9918945E+03;  2.8049910E-01;  0.0000000E+00;  3.4473160E-01;  3.4220015E+03;
  9.0007818E-01;  9.9999998E-03;  8.0025852E-02;2443;  5.7649337E-02;  0.0000000E+00;  2.7254118E-02;  1.0099106E+03;  4.0431902E-01;  8.1979590E+03;3;  2.8844679E+01;  0.0000000E+00;  1.8765022E+01;0;  6.5772086E-01;  9.9917910E+03;  0.0000000E+00; -2.3167026E-07;  1.0000000E+04;  0.0000000E+00;  9.9906660E+03;  2.8882250E-01;  0.0000000E+00;  3.6889836E-01;  3.9899097E+03;
  9.0007973E-01;  9.9999998E-03;  1.0003626E-01;2444;  5.9209596E-02;  0.0000000E+00;  3.5767030E-02;  1.0098282E+03;  4.0431908E-01;  8.1297222E+03;3;  2.9809612E+01;  0.0000000E+00;  2.2287094E+01;0;  6.9029295E-01;  9.9915186E+03;  0.0000000E+00; -1.7728304E-07;  1.0000000E+04;  0.0000000E+00;  9.9892988E+03;  2.9982764E-01;  0.0000000E+00;  3.9046529E-01;  4.6292686E+03;
  9.0008187E-01;  9.9999998E-03;  1.2004881E-01;2445;  6.1201077E-02;  0.0000000E+00;  4.5220554E-02;  1.0097351E+03;  4.0431929E-01;  8.0527085E+03;3;  3.0916168E+01;  0.0000000E+00;  2.5284691E+01;0;  7.1755338E-01;  9.9911660E+03;  0.0000000E+00; -5.3908923E-07;  1.0000000E+04;  0.0000000E+00;  9.9878018E+03;  3.1370097E-01;  0.0000000E+00;  4.0385237E-01;  5.3416226E+03;
  9.0008467E-01;  9.9999998E-03;  1.4006272E-01;2446;  6.3656934E-02;  0.0000000E+00;  5.5005606E-02;  1.0096279E+03;  4.0431949E-01;  7.9640601E+03;3;  3.2132931E+01;  0.0000000E+00;  2.7571642E+01;0;  7.3416436E-01;  9.9907256E+03;  0.0000000E+00; -2.3711334E-06;  1.0000000E+04;  0.0000000E+00;  9.9861123E+03;  3.3053514E-01;  0.0000000E+00;  4.0362918E-01;  6.1690137E+03;
  9.2008138E-01;  9.9999998E-03; -1.5438687E-12;2470;  5.8957167E-02;  0.0000000E+00;  4.1008623E-09;  1.0094153E+03;  4.0398613E-01;  7.7839839E+03;3;  2.9179989E+01;  0.0000000E+00;  2.0210282E-06;0;  4.5993429E-01;  9.9949746E+03;  0.0000000E+00; -2.1396141E-15;  1.0000000E+04;  0.0000000E+00;  9.9941436E+03;  1.7579268E-01;  0.0000000E+00;  2.8414160E-01;  2.3987788E+03;
  9.2008156E-01;  9.9999998E-03;  2.0004973E-02;2471;  5.9164096E-02;  0.0000000E+00;  5.9814169E-03;  1.0094036E+03;  4.0398604E-01;  7.7742271E+03;3;  2.9324907E+01;  0.0000000E+00;  4.8602028E+00;0;  4.6561915E-01;  9.9949531E+03;  0.0000000E+00; -4.6772890E-08;  1.0000000E+04;  0.0000000E+00;  9.9939326E+03;  1.7666022E-01;  0.0000000E+00;  2.8895891E-01;  2.4940415E+03;
  9.2008215E-01;  9.9999998E-03;  4.0010296E-02;2472;  5.9788808E-02;  0.0000000E+00;  1.2037364E-02;  1.0093700E+03;  4.0398616E-01;  7.7464341E+03;3;  2.9753195E+01;  0.0000000E+00;  9.4687023E+00;0;  4.8194212E-01;  9.9948936E+03;  0.0000000E+00; -1.7323737E-07;  1.0000000E+04;  0.0000000E+00;  9.9933281E+03;  1.7928807E-01;  0.0000000E+00;  3.0265403E-01;  2.7688628E+03;
  9.2008317E-01;  9.9999998E-03;  6.0016476E-02;2473;  6.0847245E-02;  0.0000000E+00;  1.8380791E-02;  1.0093181E+03;  4.0398613E-01;  7.7035635E+03;3;  3.0448345E+01;  0.0000000E+00;  1.3663029E+01;0;  5.0660789E-01;  9.9947852E+03;  0.0000000E+00; -3.4141885E-07;  1.0000000E+04;  0.0000000E+00;  9.9924033E+03;  1.8375875E-01;  0.0000000E+00;  3.2284915E-01;  3.1911440E+03;
  9.2008466E-01;  9.9999998E-03;  8.0024138E-02;2474;  6.2350623E-02;  0.0000000E+00;  2.5359545E-02;  1.0092524E+03;  4.0398622E-01;  7.6492588E+03;3;  3.1397543E+01;  0.0000000E+00;  1.7399574E+01;0;  5.3582633E-01;  9.9946270E+03;  0.0000000E+00; -4.7374169E-07;  1.0000000E+04;  0.0000000E+00;  9.9912559E+03;  1.9022854E-01;  0.0000000E+00;  3.4559777E-01;  3.7155610E+03;
  9.2008674E-01;  9.9999998E-03;  1.0003380E-01;2475;  6.4328216E-02;  0.0000000E+00;  3.3269674E-02;  1.0091775E+03;  4.0398630E-01;  7.5872686E+03;3;  3.2569992E+01;  0.0000000E+00;  2.0690546E+01;0;  5.6490433E-01;  9.9944082E+03;  0.0000000E+00; -6.2966035E-07;  1.0000000E+04;  0.0000000E+00;  9.9899844E+03;  1.9895384E-01;  0.0000000E+00;  3.6595047E-01;  4.3059902E+03;
  9.2008942E-01;  9.9999998E-03;  1.2004545E-01;2476;  6.6791169E-02;  0.0000000E+00;  4.2079471E-02;  1.0090925E+03;  4.0398642E-01;  7.5170977E+03;3;  3.3888039E+01;  0.0000000E+00;  2.3515388E+01;0;  5.8895838E-01;  9.9941162E+03;  0.0000000E+00; -1.3144015E-06;  1.0000000E+04;  0.0000000E+00;  9.9885947E+03;  2.1030127E-01;  0.0000000E+00;  3.7865713E-01;  4.9632583E+03;
  9.2009282E-01;  9.9999998E-03;  1.4005841E-01;2477;  6.9773927E-02;  0.0000000E+00;  5.1225625E-02;  1.0089943E+03;  4.0398660E-01;  7.4357900E+03;3;  3.5374542E+01;  0.0000000E+00;  2.5698446E+01;0;  6.0337436E-01;  9.9937344E+03;  0.0000000E+00; -3.7359362E-06;  1.0000000E+04;  0.0000000E+00;  9.9870215E+03;  2.2470817E-01;  0.0000000E+00;  3.7866622E-01;  5.7265850E+03;
  9.4008183E-01;  9.9999998E-03;  1.0364713E-11;2501;  5.9330188E-02;  0.0000000E+00;  9.5300159E-09;  1.0086666E+03;  4.0362650E-01;  7.1596875E+03;3;  2.9533676E+01;  0.0000000E+00;  1.8913415E-05;0;  3.5192174E-01;  9.9975449E+03;  0.0000000E+00;  8.9665637E-15;  1.0000000E+04;  0.0000000E+00;  9.9945430E+03;  8.8409081E-02;  0.0000000E+00;  2.6351264E-01;  2.2229385E+03;
  9.4008201E-01;  9.9999998E-03;  2.0004673E-02;2502;  5.9546791E-02;  0.0000000E+00;  5.5243098E-03;  1.0086562E+03;  4.0362653E-01;  7.1510215E+03;3;  2.9681200E+01;  0.0000000E+00;  4.4318419E+00;0;  3.5693753E-01;  9.9975342E+03;  0.0000000E+00; -3.6067668E-08;  1.0000000E+04;  0.0000000E+00;  9.9943506E+03;  8.8963725E-02;  0.0000000E+00;  2.6797381E-01;  2.3092002E+03;
  9.4008267E-01;  9.9999998E-03;  4.0009648E-02;2503;  6.0202133E-02;  0.0000000E+00;  1.1113913E-02;  1.0086264E+03;  4.0362653E-01;  7.1264995E+03;3;  3.0119284E+01;  0.0000000E+00;  8.6402636E+00;0;  3.7132645E-01;  9.9974922E+03;  0.0000000E+00; -1.5185842E-07;  1.0000000E+04;  0.0000000E+00;  9.9937979E+03;  9.0659440E-02;  0.0000000E+00;  2.8066701E-01;  2.5582495E+03;
  9.4008380E-01;  9.9999998E-03;  6.0015365E-02;2504;  6.1311778E-02;  0.0000000E+00;  1.6953338E-02;  1.0085799E+03;  4.0362662E-01;  7.0879927E+03;3;  3.0835793E+01;  0.0000000E+00;  1.2485506E+01;0;  3.9301181E-01;  9.9974219E+03;  0.0000000E+00; -3.3959725E-07;  1.0000000E+04;  0.0000000E+00;  9.9929473E+03;  9.3598351E-02;  0.0000000E+00;  2.9941347E-01;  2.9413877E+03;
  9.4008541E-01;  9.9999998E-03;  8.0022402E-02;2505;  6.2899105E-02;  0.0000000E+00;  2.3362994E-02;  1.0085217E+03;  4.0362665E-01;  7.0399331E+03;3;  3.1810318E+01;  0.0000000E+00;  1.5924941E+01;0;  4.1854301E-01;  9.9973145E+03;  0.0000000E+00; -5.3469705E-07;  1.0000000E+04;  0.0000000E+00;  9.9918945E+03;  9.7974233E-02;  0.0000000E+00;  3.2056877E-01;  3.4176702E+03;
  9.4008768E-01;  9.9999998E-03;  1.0003124E-01;2506;  6.4982772E-02;  0.0000000E+00;  3.0620655E-02;  1.0084549E+03;  4.0362665E-01;  6.9847827E+03;3;  3.2998749E+01;  0.0000000E+00;  1.8963554E+01;0;  4.4364685E-01;  9.9971582E+03;  0.0000000E+00; -7.8471476E-07;  1.0000000E+04;  0.0000000E+00;  9.9907285E+03;  1.0411787E-01;  0.0000000E+00;  3.3952898E-01;  3.9539336E+03;
  9.4009060E-01;  9.9999998E-03;  1.2004193E-01;2507;  6.7590639E-02;  0.0000000E+00;  3.8721111E-02;  1.0083797E+03;  4.0362680E-01;  6.9226406E+03;3;  3.4369781E+01;  0.0000000E+00;  2.1594580E+01;0;  4.6397275E-01;  9.9969395E+03;  0.0000000E+00; -1.5418707E-06;  1.0000000E+04;  0.0000000E+00;  9.9894512E+03;  1.1256073E-01;  0.0000000E+00;  3.5141200E-01;  4.5504204E+03;
  9.4009435E-01;  9.9999998E-03;  1.4005385E-01;2508;  7.0771530E-02;  0.0000000E+00;  4.7157459E-02;  1.0082916E+03;  4.0362686E-01;  6.8498613E+03;3;  3.5908978E+01;  0.0000000E+00;  2.3655027E+01;0;  4.7562665E-01;  9.9966309E+03;  0.0000000E+00; -3.9374058E-06;  1.0000000E+04;  0.0000000E+00;  9.9880088E+03;  1.2405477E-01;  0.0000000E+00;  3.5157189E-01;  5.2432432E+03;
  9.6008068E-01;  9.9999998E-03; -2.8657695E-12;2532;  5.8668215E-02;  0.0000000E+00;  8.4185858E-09;  1.0078672E+03;  4.0325570E-01;  6.4928271E+03;3;  2.9387407E+01;  0.0000000E+00;  3.4620811E-05;0;  2.5990471E-01;  9.9996611E+03;  0.0000000E+00; -6.0338439E-15;  1.0000000E+04;  0.0000000E+00;  9.9949521E+03;  1.7549535E-02;  0.0000000E+00;  2.4235518E-01;  2.0396211E+03;
  9.6008092E-01;  9.9999998E-03;  2.0004306E-02;2533;  5.8883913E-02;  0.0000000E+00;  5.0240294E-03;  1.0078582E+03;  4.0325561E-01;  6.4853496E+03;3;  2.9537006E+01;  0.0000000E+00;  3.9858618E+00;0;  2.6424640E-01;  9.9996523E+03;  0.0000000E+00; -1.9331900E-08;  1.0000000E+04;  0.0000000E+00;  9.9947773E+03;  1.7803386E-02;  0.0000000E+00;  2.4644300E-01;  2.1163933E+03;
  9.6008152E-01;  9.9999998E-03;  4.0008880E-02;2534;  5.9536517E-02;  0.0000000E+00;  1.0111037E-02;  1.0078322E+03;  4.0325579E-01;  6.4639019E+03;3;  2.9981951E+01;  0.0000000E+00;  7.7833109E+00;0;  2.7668464E-01;  9.9996357E+03;  0.0000000E+00; -8.5851525E-08;  1.0000000E+04;  0.0000000E+00;  9.9942793E+03;  1.8605234E-02;  0.0000000E+00;  2.5807941E-01;  2.3382095E+03;
  9.6008265E-01;  9.9999998E-03;  6.0014118E-02;2535;  6.0645267E-02;  0.0000000E+00;  1.5432835E-02;  1.0077915E+03;  4.0325576E-01;  6.4303525E+03;3;  3.0707129E+01;  0.0000000E+00;  1.1271177E+01;0;  2.9536077E-01;  9.9996016E+03;  0.0000000E+00; -2.1945327E-07;  1.0000000E+04;  0.0000000E+00;  9.9935059E+03;  2.0080818E-02;  0.0000000E+00;  2.7527997E-01;  2.6798538E+03;
  9.6008426E-01;  9.9999998E-03;  8.0020539E-02;2536;  6.2239137E-02;  0.0000000E+00;  2.1278465E-02;  1.0077410E+03;  4.0325576E-01;  6.3886372E+03;3;  3.1683630E+01;  0.0000000E+00;  1.4410953E+01;0;  3.1717214E-01;  9.9995430E+03;  0.0000000E+00; -3.8569985E-07;  1.0000000E+04;  0.0000000E+00;  9.9925547E+03;  2.2462089E-02;  0.0000000E+00;  2.9471004E-01;  3.1050054E+03;
  9.6008658E-01;  9.9999998E-03;  1.0002859E-01;2537;  6.4342961E-02;  0.0000000E+00;  2.7897341E-02;  1.0076830E+03;  4.0325585E-01;  6.3408218E+03;3;  3.2872467E+01;  0.0000000E+00;  1.7204807E+01;0;  3.3828512E-01;  9.9994531E+03;  0.0000000E+00; -5.7928469E-07;  1.0000000E+04;  0.0000000E+00;  9.9914961E+03;  2.6143175E-02;  0.0000000E+00;  3.1214195E-01;  3.5838845E+03;
  9.6008956E-01;  9.9999998E-03;  1.2003830E-01;2538;  6.6974156E-02;  0.0000000E+00;  3.5283644E-02;  1.0076174E+03;  4.0325582E-01;  6.2867100E+03;3;  3.4250999E+01;  0.0000000E+00;  1.9649345E+01;0;  3.5488346E-01;  9.9993076E+03;  0.0000000E+00; -1.0443257E-06;  1.0000000E+04;  0.0000000E+00;  9.9903428E+03;  3.1785838E-02;  0.0000000E+00;  3.2309762E-01;  4.1165425E+03;
  9.6009338E-01;  9.9999998E-03;  1.4004914E-01;2539;  7.0189327E-02;  0.0000000E+00;  4.2985383E-02;  1.0075402E+03;  4.0325603E-01;  6.2228574E+03;3;  3.5787003E+01;  0.0000000E+00;  2.1581820E+01;0;  3.6374512E-01;  9.9990791E+03;  0.0000000E+00; -2.5979384E-06;  1.0000000E+04;  0.0000000E+00;  9.9890293E+03;  4.0389806E-02;  0.0000000E+00;  3.2335532E-01;  4.7359131E+03;
  9.8007876E-01;  9.9999998E-03;  4.7730526E-12;2563;  5.7406716E-02;  0.0000000E+00; -3.6837577E-10;  1.0070472E+03;  4.0288800E-01;  5.8082900E+03;3;  2.8931519E+01;  0.0000000E+00;  1.5340571E-05;0;  1.8773472E-01;  1.0001220E+04;  0.0000000E+00;  2.6720122E-15;  1.0000000E+04;  0.0000000E+00;  9.9953564E+03; -3.3665206E-02;  0.0000000E+00;  2.2139993E-01;  1.8535981E+03;
  9.8007900E-01;  9.9999998E-03;  2.0003941E-02;2564;  5.7618812E-02;  0.0000000E+00;  4.5324597E-03;  1.0070393E+03;  4.0288800E-01;  5.8018052E+03;3;  2.9087507E+01;  0.0000000E+00;  3.5498157E+00;0;  1.9145119E-01;  1.0001220E+04;  0.0000000E+00;  6.0076855E-09;  1.0000000E+04;  0.0000000E+00;  9.9951992E+03; -3.3653889E-02;  0.0000000E+00;  2.2510508E-01;  1.9206766E+03;
  9.8007953E-01;  9.9999998E-03;  4.0008120E-02;2565;  5.8256879E-02;  0.0000000E+00;  9.1316747E-03;  1.0070168E+03;  4.0288794E-01;  5.7833330E+03;3;  2.9556574E+01;  0.0000000E+00;  6.9481149E+00;0;  2.0208022E-01;  1.0001218E+04;  0.0000000E+00; -7.9640641E-09;  1.0000000E+04;  0.0000000E+00;  9.9947529E+03; -3.3570848E-02;  0.0000000E+00;  2.3565106E-01;  2.1146099E+03;
  9.8008060E-01;  9.9999998E-03;  6.0012884E-02;2566;  5.9340674E-02;  0.0000000E+00;  1.3947946E-02;  1.0069822E+03;  4.0288800E-01;  5.7547417E+03;3;  3.0294682E+01;  0.0000000E+00;  1.0082104E+01;0;  2.1797624E-01;  1.0001215E+04;  0.0000000E+00; -6.0117046E-08;  1.0000000E+04;  0.0000000E+00;  9.9940664E+03; -3.3264875E-02;  0.0000000E+00;  2.5124112E-01;  2.4136868E+03;
  9.8008215E-01;  9.9999998E-03;  8.0018699E-02;2567;  6.0897887E-02;  0.0000000E+00;  1.9227788E-02;  1.0069385E+03;  4.0288809E-01;  5.7187803E+03;3;  3.1277397E+01;  0.0000000E+00;  1.2920064E+01;0;  2.3638782E-01;  1.0001200E+04;  0.0000000E+00; -1.4740893E-07;  1.0000000E+04;  0.0000000E+00;  9.9932158E+03; -3.2466441E-02;  0.0000000E+00;  2.6885426E-01;  2.7864236E+03;
  9.8008436E-01;  9.9999998E-03;  1.0002595E-01;2568;  6.2972315E-02;  0.0000000E+00;  2.5208918E-02;  1.0068885E+03;  4.0288809E-01;  5.6775137E+03;3;  3.2456940E+01;  0.0000000E+00;  1.5490050E+01;0;  2.5393769E-01;  1.0001159E+04;  0.0000000E+00; -2.3056691E-07;  1.0000000E+04;  0.0000000E+00;  9.9922656E+03; -3.0728245E-02;  0.0000000E+00;  2.8466594E-01;  3.2069824E+03;
  9.8008728E-01;  9.9999998E-03;  1.2003470E-01;2569;  6.5593354E-02;  0.0000000E+00;  3.1897411E-02;  1.0068324E+03;  4.0288818E-01;  5.6312354E+03;3;  3.3836529E+01;  0.0000000E+00;  1.7764193E+01;0;  2.6733786E-01;  1.0001074E+04;  0.0000000E+00; -3.2220709E-07;  1.0000000E+04;  0.0000000E+00;  9.9912334E+03; -2.7295137E-02;  0.0000000E+00;  2.9463300E-01;  3.6758376E+03;
  9.8009109E-01;  9.9999998E-03;  1.4004447E-01;2570;  6.8814673E-02;  0.0000000E+00;  3.8881835E-02;  1.0067649E+03;  4.0288821E-01;  5.5756226E+03;3;  3.5394947E+01;  0.0000000E+00;  1.9599968E+01;0;  2.7397543E-01;  1.0000908E+04;  0.0000000E+00; -6.2551567E-07;  1.0000000E+04;  0.0000000E+00;  9.9900537E+03; -2.0995464E-02;  0.0000000E+00;  2.9497090E-01;  4.2227920E+03;
  1.0000764E+00;  9.9999998E-03; -6.2299081E-12;2594;  5.5858992E-02;  0.0000000E+00;  9.9786543E-09;  1.0062385E+03;  4.0253553E-01;  5.1325361E+03;3;  2.8288845E+01;  0.0000000E+00;  6.0200720E-05;0;  1.3386336E-01;  1.0002276E+04;  0.0000000E+00;  1.5845756E-15;  1.0000000E+04;  0.0000000E+00;  9.9957402E+03; -6.7405634E-02;  0.0000000E+00;  2.0126899E-01;  1.6693793E+03;
  1.0000765E+00;  9.9999998E-03;  2.0003617E-02;2595;  5.6063242E-02;  0.0000000E+00;  4.0743751E-03;  1.0062319E+03;  4.0253553E-01;  5.1271421E+03;3;  2.8444036E+01;  0.0000000E+00;  3.1555512E+00;0;  1.3703081E-01;  1.0002280E+04;  0.0000000E+00;  2.0875104E-08;  1.0000000E+04;  0.0000000E+00;  9.9956035E+03; -6.7553245E-02;  0.0000000E+00;  2.0458406E-01;  1.7267990E+03;
  1.0000771E+00;  9.9999998E-03;  4.0007442E-02;2596;  5.6678455E-02;  0.0000000E+00;  8.2184225E-03;  1.0062128E+03;  4.0253547E-01;  5.1114492E+03;3;  2.8900387E+01;  0.0000000E+00;  6.1946545E+00;0;  1.4607780E-01;  1.0002291E+04;  0.0000000E+00;  6.7710793E-08;  1.0000000E+04;  0.0000000E+00;  9.9952100E+03; -6.7937478E-02;  0.0000000E+00;  2.1401528E-01;  1.8929229E+03;
  1.0000781E+00;  9.9999998E-03;  6.0011771E-02;2597;  5.7710011E-02;  0.0000000E+00;  1.2571110E-02;  1.0061832E+03;  4.0253547E-01;  5.0870278E+03;3;  2.9628878E+01;  0.0000000E+00;  9.0328541E+00;0;  1.5956748E-01;  1.0002304E+04;  0.0000000E+00;  9.4673503E-08;  1.0000000E+04;  0.0000000E+00;  9.9946045E+03; -6.8380944E-02;  0.0000000E+00;  2.2794843E-01;  2.1495234E+03;
  1.0000795E+00;  9.9999998E-03;  8.0017015E-02;2598;  5.9191581E-02;  0.0000000E+00;  1.7368268E-02;  1.0061459E+03;  4.0253553E-01;  5.0564272E+03;3;  3.0619890E+01;  0.0000000E+00;  1.1646079E+01;0;  1.7510873E-01;  1.0002314E+04;  0.0000000E+00;  6.2054575E-08;  1.0000000E+04;  0.0000000E+00;  9.9938564E+03; -6.8573169E-02;  0.0000000E+00;  2.4368191E-01;  2.4702561E+03;
  1.0000815E+00;  9.9999998E-03;  1.0002354E-01;2599;  6.1181128E-02;  0.0000000E+00;  2.2785587E-02;  1.0061033E+03;  4.0253556E-01;  5.0213145E+03;3;  3.1831041E+01;  0.0000000E+00;  1.3989275E+01;0;  1.8980327E-01;  1.0002306E+04;  0.0000000E+00; -4.7181864E-08;  1.0000000E+04;  0.0000000E+00;  9.9930166E+03; -6.8014383E-02;  0.0000000E+00;  2.5781766E-01;  2.8339424E+03;
  1.0000844E+00;  9.9999998E-03;  1.2003137E-01;2600;  6.3747846E-02;  0.0000000E+00;  2.8809996E-02;  1.0060542E+03;  4.0253547E-01;  4.9809058E+03;3;  3.3234707E+01;  0.0000000E+00;  1.6091059E+01;0;  2.0089047E-01;  1.0002259E+04;  0.0000000E+00; -1.3429447E-07;  1.0000000E+04;  0.0000000E+00;  9.9920938E+03; -6.5885857E-02;  0.0000000E+00;  2.6677632E-01;  3.2422212E+03;
  1.0000882E+00;  9.9999998E-03;  1.4004008E-01;2601;  6.6966921E-02;  0.0000000E+00;  3.5083920E-02;  1.0059946E+03;  4.0253553E-01;  4.9318657E+03;3;  3.4834812E+01;  0.0000000E+00;  1.7830667E+01;0;  2.0630954E-01;  1.0002128E+04;  0.0000000E+00;  1.1532121E-07;  1.0000000E+04;  0.0000000E+00;  9.9910342E+03; -6.0913634E-02;  0.0000000E+00;  2.6722318E-01;  3.7218584E+03;
  1.0200734E+00;  9.9999998E-03;  1.9251389E-12;2625;  5.3983983E-02;  0.0000000E+00;  3.4287371E-09;  1.0054717E+03;  4.0220773E-01;  4.4908984E+03;3;  2.7529322E+01;  0.0000000E+00;  1.3508223E-05;0;  9.4164744E-02;  1.0002949E+04;  0.0000000E+00; -4.6948432E-16;  1.0000000E+04;  0.0000000E+00;  9.9961025E+03; -8.8243037E-02;  0.0000000E+00;  1.8240778E-01;  1.4903823E+03;
  1.0200735E+00;  9.9999998E-03;  2.0003326E-02;2626;  5.4179311E-02;  0.0000000E+00;  3.6593410E-03;  1.0054661E+03;  4.0220782E-01;  4.4863003E+03;3;  2.7684164E+01;  0.0000000E+00;  2.7669516E+00;0;  9.6861869E-02;  1.0002953E+04;  0.0000000E+00;  4.1513132E-08;  1.0000000E+04;  0.0000000E+00;  9.9959824E+03; -8.8462576E-02;  0.0000000E+00;  1.8532445E-01;  1.5384044E+03;
  1.0200741E+00;  9.9999998E-03;  4.0006846E-02;2627;  5.4766204E-02;  0.0000000E+00;  7.3931320E-03;  1.0054496E+03;  4.0220782E-01;  4.4727979E+03;3;  2.8142500E+01;  0.0000000E+00;  5.4565234E+00;0;  1.0456134E-01;  1.0002970E+04;  0.0000000E+00;  1.4921032E-07;  1.0000000E+04;  0.0000000E+00;  9.9956436E+03; -8.9054152E-02;  0.0000000E+00;  1.9361550E-01;  1.6774702E+03;
  1.0200750E+00;  9.9999998E-03;  6.0010798E-02;2628;  5.5756282E-02;  0.0000000E+00;  1.1326665E-02;  1.0054246E+03;  4.0220779E-01;  4.4522505E+03;3;  2.8886881E+01;  0.0000000E+00;  8.0087461E+00;0;  1.1603752E-01;  1.0002992E+04;  0.0000000E+00;  2.6332089E-07;  1.0000000E+04;  0.0000000E+00;  9.9951191E+03; -8.9813903E-02;  0.0000000E+00;  2.0585142E-01;  1.8928584E+03;
  1.0200764E+00;  9.9999998E-03;  8.0015518E-02;2629;  5.7186186E-02;  0.0000000E+00;  1.5642412E-02;  1.0053925E+03;  4.0220788E-01;  4.4258325E+03;3;  2.9872841E+01;  0.0000000E+00;  1.0383030E+01;0;  1.2928352E-01;  1.0003011E+04;  0.0000000E+00;  2.2149486E-07;  1.0000000E+04;  0.0000000E+00;  9.9944658E+03; -9.0382248E-02;  0.0000000E+00;  2.1966577E-01;  2.1637451E+03;
  1.0200783E+00;  9.9999998E-03;  1.0002133E-01;2630;  5.9114005E-02;  0.0000000E+00;  2.0516641E-02;  1.0053552E+03;  4.0220779E-01;  4.3952070E+03;3;  3.1077122E+01;  0.0000000E+00;  1.2588528E+01;0;  1.4191532E-01;  1.0003008E+04;  0.0000000E+00; -2.3232968E-07;  1.0000000E+04;  0.0000000E+00;  9.9937256E+03; -9.0194412E-02;  0.0000000E+00;  2.3210974E-01;  2.4743809E+03;
  1.0200812E+00;  9.9999998E-03;  1.2002829E-01;2631;  6.1637681E-02;  0.0000000E+00;  2.5948690E-02;  1.0053115E+03;  4.0220782E-01;  4.3593960E+03;3;  3.2500664E+01;  0.0000000E+00;  1.4582733E+01;0;  1.5172045E-01;  1.0002965E+04;  0.0000000E+00; -1.2080139E-06;  1.0000000E+04;  0.0000000E+00;  9.9928955E+03; -8.8374883E-02;  0.0000000E+00;  2.4009533E-01;  2.8283179E+03;
  1.0200849E+00;  9.9999998E-03;  1.4003600E-01;2632;  6.4870261E-02;  0.0000000E+00;  3.1567141E-02;  1.0052568E+03;  4.0220788E-01;  4.3144844E+03;3;  3.4157879E+01;  0.0000000E+00;  1.6230906E+01;0;  1.5714239E-01;  1.0002839E+04;  0.0000000E+00; -2.2399051E-06;  1.0000000E+04;  0.0000000E+00;  9.9919355E+03; -8.3607212E-02;  0.0000000E+00;  2.4074960E-01;  3.2492861E+03;
  1.0400699E+00;  9.9999998E-03;  1.3396627E-11;2656;  5.1826715E-02;  0.0000000E+00;  7.3524142E-09;  1.0047679E+03;  4.0191141E-01;  3.9006768E+03;3;  2.6671232E+01;  0.0000000E+00; -4.8195070E-06;0;  6.4535424E-02;  1.0003358E+04;  0.0000000E+00; -8.7164296E-16;  1.0000000E+04;  0.0000000E+00;  9.9964375E+03; -1.0050632E-01;  0.0000000E+00;  1.6504174E-01;  1.3184720E+03;
  1.0400702E+00;  9.9999998E-03;  2.0003065E-02;2657;  5.2012164E-02;  0.0000000E+00;  3.2936747E-03;  1.0047632E+03;  4.0191147E-01;  3.8968730E+03;3;  2.6826368E+01;  0.0000000E+00;  2.4118264E+00;0;  6.6827245E-02;  1.0003361E+04;  0.0000000E+00;  7.1378693E-08;  1.0000000E+04;  0.0000000E+00;  9.9963359E+03; -1.0072394E-01;  0.0000000E+00;  1.6755119E-01;  1.3575811E+03;
  1.0400707E+00;  9.9999998E-03;  4.0006306E-02;2658;  5.2570276E-02;  0.0000000E+00;  6.6625373E-03;  1.0047495E+03;  4.0191141E-01;  3.8856570E+03;3;  2.7275667E+01;  0.0000000E+00;  4.7837029E+00;0;  7.3377185E-02;  1.0003373E+04;  0.0000000E+00;  2.6939907E-07;  1.0000000E+04;  0.0000000E+00;  9.9960498E+03; -1.0130195E-01;  0.0000000E+00;  1.7467913E-01;  1.4710530E+03;
  1.0400715E+00;  9.9999998E-03;  6.0009930E-02;2659;  5.3515624E-02;  0.0000000E+00;  1.0221744E-02;  1.0047277E+03;  4.0191147E-01;  3.8678091E+03;3;  2.8014040E+01;  0.0000000E+00;  7.0698805E+00;0;  8.3186507E-02;  1.0003391E+04;  0.0000000E+00;  4.7592201E-07;  1.0000000E+04;  0.0000000E+00;  9.9955977E+03; -1.0200772E-01;  0.0000000E+00;  1.8519422E-01;  1.6477896E+03;
  1.0400728E+00;  9.9999998E-03;  8.0014192E-02;2660;  5.4887038E-02;  0.0000000E+00;  1.4114421E-02;  1.0046998E+03;  4.0191144E-01;  3.8449873E+03;3;  2.8987547E+01;  0.0000000E+00;  9.2482300E+00;0;  9.4666004E-02;  1.0003402E+04;  0.0000000E+00;  3.2120431E-07;  1.0000000E+04;  0.0000000E+00;  9.9950313E+03; -1.0242245E-01;  0.0000000E+00;  1.9708845E-01;  1.8728678E+03;
  1.0400747E+00;  9.9999998E-03;  1.0001935E-01;2661;  5.6761138E-02;  0.0000000E+00;  1.8485853E-02;  1.0046664E+03;  4.0191144E-01;  3.8175808E+03;3;  3.0199917E+01;  0.0000000E+00;  1.1309659E+01;0;  1.0599209E-01;  1.0003391E+04;  0.0000000E+00; -9.5701307E-07;  1.0000000E+04;  0.0000000E+00;  9.9943760E+03; -1.0189388E-01;  0.0000000E+00;  2.0788597E-01;  2.1365598E+03;
  1.0400774E+00;  9.9999998E-03;  1.2002547E-01;2662;  5.9259217E-02;  0.0000000E+00;  2.3320679E-02;  1.0046256E+03;  4.0191147E-01;  3.7842249E+03;3;  3.1647907E+01;  0.0000000E+00;  1.3190733E+01;0;  1.1554173E-01;  1.0003327E+04;  0.0000000E+00; -4.2314987E-06;  1.0000000E+04;  0.0000000E+00;  9.9936240E+03; -9.9472798E-02;  0.0000000E+00;  2.1501453E-01;  2.4447976E+03;
  1.0400811E+00;  9.9999998E-03;  1.4003225E-01;2663;  6.2521651E-02;  0.0000000E+00;  2.8321395E-02;  1.0045730E+03;  4.0191150E-01;  3.7412129E+03;3;  3.3363510E+01;  0.0000000E+00;  1.4748754E+01;0;  1.2221453E-01;  1.0003172E+04;  0.0000000E+00; -8.8017641E-06;  1.0000000E+04;  0.0000000E+00;  9.9927344E+03; -9.3856633E-02;  0.0000000E+00;  2.1607116E-01;  2.8180376E+03;
  1.0600662E+00;  9.9999998E-03;  8.1425864E-12;2687;  4.9444608E-02;  0.0000000E+00;  4.5751580E-09;  1.0041422E+03;  4.0165049E-01;  3.3742449E+03;3;  2.5751247E+01;  0.0000000E+00; -1.4734396E-06;0;  4.2245649E-02;  1.0003570E+04;  0.0000000E+00;  1.5182829E-15;  1.0000000E+04;  0.0000000E+00;  9.9967432E+03; -1.0692947E-01;  0.0000000E+00;  1.4917512E-01;  1.1541012E+03;
  1.0600663E+00;  9.9999998E-03;  2.0002831E-02;2688;  4.9617276E-02;  0.0000000E+00;  2.9736154E-03;  1.0041381E+03;  4.0165049E-01;  3.3709431E+03;3;  2.5913464E+01;  0.0000000E+00;  2.0936997E+00;0;  4.4186197E-02;  1.0003574E+04;  0.0000000E+00;  1.1365992E-07;  1.0000000E+04;  0.0000000E+00;  9.9966602E+03; -1.0708872E-01;  0.0000000E+00;  1.5127492E-01;  1.1850496E+03;
  1.0600668E+00;  9.9999998E-03;  4.0005822E-02;2689;  5.0149299E-02;  0.0000000E+00;  6.0252119E-03;  1.0041263E+03;  4.0165055E-01;  3.3613291E+03;3;  2.6360786E+01;  0.0000000E+00;  4.1793222E+00;0;  4.9759313E-02;  1.0003582E+04;  0.0000000E+00;  4.1910616E-07;  1.0000000E+04;  0.0000000E+00;  9.9964189E+03; -1.0748106E-01;  0.0000000E+00;  1.5724038E-01;  1.2752484E+03;
  1.0600675E+00;  9.9999998E-03;  6.0009148E-02;2690;  5.1052049E-02;  0.0000000E+00;  9.2514604E-03;  1.0041074E+03;  4.0165058E-01;  3.3458879E+03;3;  2.7064060E+01;  0.0000000E+00;  6.2405353E+00;0;  5.8224261E-02;  1.0003585E+04;  0.0000000E+00;  6.7510780E-07;  1.0000000E+04;  0.0000000E+00;  9.9960381E+03; -1.0783629E-01;  0.0000000E+00;  1.6606055E-01;  1.4173925E+03;
  1.0600688E+00;  9.9999998E-03;  8.0013014E-02;2691;  5.2378073E-02;  0.0000000E+00;  1.2779943E-02;  1.0040823E+03;  4.0165055E-01;  3.3254941E+03;3;  2.8018820E+01;  0.0000000E+00;  8.2561474E+00;0;  6.8456516E-02;  1.0003576E+04;  0.0000000E+00;  1.3187719E-07;  1.0000000E+04;  0.0000000E+00;  9.9955488E+03; -1.0765807E-01;  0.0000000E+00;  1.7611459E-01;  1.6026686E+03;
  1.0600708E+00;  9.9999998E-03;  1.0001760E-01;2692;  5.4208402E-02;  0.0000000E+00;  1.6686361E-02;  1.0040507E+03;  4.0165052E-01;  3.2996616E+03;3;  2.9214697E+01;  0.0000000E+00;  1.0157780E+01;0;  7.9239033E-02;  1.0003531E+04;  0.0000000E+00; -2.8421157E-06;  1.0000000E+04;  0.0000000E+00;  9.9949600E+03; -1.0618372E-01;  0.0000000E+00;  1.8542275E-01;  1.8275083E+03;
  1.0600734E+00;  9.9999998E-03;  1.2002293E-01;2693;  5.6701284E-02;  0.0000000E+00;  2.0943020E-02;  1.0040100E+03;  4.0165058E-01;  3.2665454E+03;3;  3.0694672E+01;  0.0000000E+00;  1.1885562E+01;0;  8.9537427E-02;  1.0003424E+04;  0.0000000E+00; -1.0090295E-05;  1.0000000E+04;  0.0000000E+00;  9.9942578E+03; -1.0239497E-01;  0.0000000E+00;  1.9193240E-01;  2.1000420E+03;
  1.0600772E+00;  9.9999998E-03;  1.4002876E-01;2694;  5.9987716E-02;  0.0000000E+00;  2.5246922E-02;  1.0039565E+03;  4.0165061E-01;  3.2230376E+03;3;  3.2483837E+01;  0.0000000E+00;  1.3275915E+01;0;  9.8598883E-02;  1.0003211E+04;  0.0000000E+00; -5.3217442E-05;  1.0000000E+04;  0.0000000E+00;  9.9934053E+03; -9.5101431E-02;  0.0000000E+00;  1.9370031E-01;  2.4368052E+03;
  1.0800622E+00;  9.9999998E-03;  1.2375841E-12;2718;  4.6948191E-02;  0.0000000E+00;  2.2601860E-09;  1.0035991E+03;  4.0142652E-01;  2.9151401E+03;3;  2.4815334E+01;  0.0000000E+00;  6.9559319E-06;0;  2.6015677E-02;  1.0003626E+04;  0.0000000E+00; -2.9272360E-15;  1.0000000E+04;  0.0000000E+00;  9.9970293E+03; -1.0863090E-01;  0.0000000E+00;  1.3464658E-01;  9.9712445E+02;
  1.0800623E+00;  9.9999998E-03;  2.0002622E-02;2719;  4.7112402E-02;  0.0000000E+00;  2.7013365E-03;  1.0035956E+03;  4.0142646E-01;  2.9123401E+03;3;  2.4947235E+01;  0.0000000E+00;  1.8533585E+00;0;  2.7669072E-02;  1.0003625E+04;  0.0000000E+00;  1.4540340E-07;  1.0000000E+04;  0.0000000E+00;  9.9969629E+03; -1.0868411E-01;  0.0000000E+00;  1.3635318E-01;  1.0210248E+03;
  1.0800627E+00;  9.9999998E-03;  4.0005393E-02;2720;  4.7614422E-02;  0.0000000E+00;  5.4827221E-03;  1.0035852E+03;  4.0142652E-01;  2.9039392E+03;3;  2.5360392E+01;  0.0000000E+00;  3.7172828E+00;0;  3.2477900E-02;  1.0003619E+04;  0.0000000E+00;  4.8545854E-07;  1.0000000E+04;  0.0000000E+00;  9.9967598E+03; -1.0873914E-01;  0.0000000E+00;  1.4121704E-01;  1.0913472E+03;
  1.0800636E+00;  9.9999998E-03;  6.0008455E-02;2721;  4.8486251E-02;  0.0000000E+00;  8.4226932E-03;  1.0035681E+03;  4.0142643E-01;  2.8901309E+03;3;  2.6050802E+01;  0.0000000E+00;  5.5727839E+00;0;  4.0011138E-02;  1.0003601E+04;  0.0000000E+00;  5.3074365E-07;  1.0000000E+04;  0.0000000E+00;  9.9964375E+03; -1.0846172E-01;  0.0000000E+00;  1.4847286E-01;  1.2046348E+03;
  1.0800648E+00;  9.9999998E-03;  8.0011964E-02;2722;  4.9785413E-02;  0.0000000E+00;  1.1606204E-02;  1.0035441E+03;  4.0142652E-01;  2.8706255E+03;3;  2.6991213E+01;  0.0000000E+00;  7.3799877E+00;0;  4.9663089E-02;  1.0003558E+04;  0.0000000E+00; -1.1359083E-06;  1.0000000E+04;  0.0000000E+00;  9.9960029E+03; -1.0724934E-01;  0.0000000E+00;  1.5691243E-01;  1.3579521E+03;
  1.0800667E+00;  9.9999998E-03;  1.0001601E-01;2723;  5.1610459E-02;  0.0000000E+00;  1.5067843E-02;  1.0035121E+03;  4.0142646E-01;  2.8447463E+03;3;  2.8195641E+01;  0.0000000E+00;  9.1129255E+00;0;  6.0819387E-02;  1.0003464E+04;  0.0000000E+00; -7.2821049E-06;  1.0000000E+04;  0.0000000E+00;  9.9954570E+03; -1.0423933E-01;  0.0000000E+00;  1.6505872E-01;  1.5532123E+03;
  1.0800694E+00;  9.9999998E-03;  1.2002062E-01;2724;  5.4115441E-02;  0.0000000E+00;  1.8765152E-02;  1.0034689E+03;  4.0142661E-01;  2.8097908E+03;3;  2.9704071E+01;  0.0000000E+00;  1.0664178E+01;0;  7.2910883E-02;  1.0003286E+04;  0.0000000E+00; -2.0248657E-05;  1.0000000E+04;  0.0000000E+00;  9.9947764E+03; -9.8427691E-02;  0.0000000E+00;  1.7133857E-01;  1.7997427E+03;
  1.0800731E+00;  9.9999998E-03;  1.4002551E-01;2725;  5.7435062E-02;  0.0000000E+00;  2.2421969E-02;  1.0034124E+03;  4.0142664E-01;  2.7639229E+03;3;  3.1544479E+01;  0.0000000E+00;  1.1932692E+01;0;  8.5157648E-02;  1.0003003E+04;  0.0000000E+00; -7.2899292E-04;  1.0000000E+04;  0.0000000E+00;  9.9939316E+03; -8.9092597E-02;  0.0000000E+00;  1.7425025E-01;  2.1089175E+03;
  1.1000582E+00;  9.9999998E-03; -3.9239895E-13;2748;  4.4453122E-02;  0.0000000E+00;  2.9899359E-09;  1.0031371E+03;  4.0123835E-01;  2.5218933E+03;3;  2.3786392E+01;  0.0000000E+00;  7.0952956E-06;0;  1.5404575E-02;  1.0003521E+04;  0.0000000E+00; -1.1361559E-15;  1.0000000E+04;  0.0000000E+00;  9.9972998E+03; -1.0585432E-01;  0.0000000E+00;  1.2125890E-01;  8.4823853E+02;
  1.1000583E+00;  9.9999998E-03;  2.0002440E-02;2749;  4.4611957E-02;  0.0000000E+00;  2.4645375E-03;  1.0031339E+03;  4.0123844E-01;  2.5193059E+03;3;  2.3909376E+01;  0.0000000E+00;  1.6491288E+00;0;  1.6890228E-02;  1.0003515E+04;  0.0000000E+00;  9.9136862E-08;  1.0000000E+04;  0.0000000E+00;  9.9972412E+03; -1.0573547E-01;  0.0000000E+00;  1.2262570E-01;  8.6662976E+02;
  1.1000588E+00;  9.9999998E-03;  4.0005006E-02;2750;  4.5099519E-02;  0.0000000E+00;  5.0007235E-03;  1.0031242E+03;  4.0123844E-01;  2.5115430E+03;3;  2.4326757E+01;  0.0000000E+00;  3.3234608E+00;0;  2.1319516E-02;  1.0003492E+04;  0.0000000E+00;  1.7559530E-07;  1.0000000E+04;  0.0000000E+00;  9.9970693E+03; -1.0523709E-01;  0.0000000E+00;  1.2655661E-01;  9.2163232E+02;
  1.1000596E+00;  9.9999998E-03;  6.0007822E-02;2751;  4.5957498E-02;  0.0000000E+00;  7.6821567E-03;  1.0031074E+03;  4.0123844E-01;  2.4979341E+03;3;  2.5000912E+01;  0.0000000E+00;  5.0035429E+00;0;  2.8617583E-02;  1.0003440E+04;  0.0000000E+00; -7.4354347E-07;  1.0000000E+04;  0.0000000E+00;  9.9967842E+03; -1.0392929E-01;  0.0000000E+00;  1.3254687E-01;  1.0132816E+03;
  1.1000608E+00;  9.9999998E-03;  8.0010965E-02;2752;  4.7246367E-02;  0.0000000E+00;  1.0536463E-02;  1.0030824E+03;  4.0123841E-01;  2.4779041E+03;3;  2.5946487E+01;  0.0000000E+00;  6.6456943E+00;0;  3.8683675E-02;  1.0003341E+04;  0.0000000E+00; -5.0145318E-06;  1.0000000E+04;  0.0000000E+00;  9.9963848E+03; -1.0111249E-01;  0.0000000E+00;  1.3979617E-01;  1.1435179E+03;
  1.1000627E+00;  9.9999998E-03;  1.0001453E-01;2753;  4.9091455E-02;  0.0000000E+00;  1.3611569E-02;  1.0030470E+03;  4.0123838E-01;  2.4494402E+03;3;  2.7165562E+01;  0.0000000E+00;  8.2105141E+00;0;  5.1365890E-02;  1.0003172E+04;  0.0000000E+00; -1.6179523E-05;  1.0000000E+04;  0.0000000E+00;  9.9958506E+03; -9.5921345E-02;  0.0000000E+00;  1.4728723E-01;  1.3181129E+03;
  1.1000655E+00;  9.9999998E-03;  1.2001839E-01;2754;  5.1601179E-02;  0.0000000E+00;  1.6715460E-02;  1.0029993E+03;  4.0123844E-01;  2.4111050E+03;3;  2.8710640E+01;  0.0000000E+00;  9.5569143E+00;0;  6.6214710E-02;  1.0002907E+04;  0.0000000E+00; -2.7442208E-04;  1.0000000E+04;  0.0000000E+00;  9.9951621E+03; -8.7634221E-02;  0.0000000E+00;  1.5384893E-01;  1.5458398E+03;
  1.1000694E+00;  9.9999998E-03;  1.4002265E-01;2755;  5.5063441E-02;  0.0000000E+00;  1.9884864E-02;  1.0029391E+03;  4.0123853E-01;  2.3627065E+03;3;  3.0712585E+01;  0.0000000E+00;  1.0605573E+01;0;  8.1533968E-02;  1.0002560E+04;  0.0000000E+00; -5.1679774E-03;  1.0000000E+04;  0.0000000E+00;  9.9943086E+03; -7.6833412E-02;  0.0000000E+00;  1.5836738E-01;  1.8310618E+03;
  1.1200545E+00;  9.9999998E-03; -3.3058055E-12;2777;  4.2095646E-02;  0.0000000E+00;  7.7195456E-10;  1.0027499E+03;  4.0108427E-01;  2.1888528E+03;3;  2.2801981E+01;  0.0000000E+00;  6.1468745E-06;0;  1.0848403E-02;  1.0003239E+04;  0.0000000E+00; -1.4256101E-15;  1.0000000E+04;  0.0000000E+00;  9.9975430E+03; -9.8148912E-02;  0.0000000E+00;  1.0899732E-01;  7.1021533E+02;
  1.1200546E+00;  9.9999998E-03;  2.0002274E-02;2778;  4.2250678E-02;  0.0000000E+00;  2.2482886E-03;  1.0027465E+03;  4.0108430E-01;  2.1861008E+03;3;  2.2924749E+01;  0.0000000E+00;  1.4630718E+00;0;  1.2385920E-02;  1.0003224E+04;  0.0000000E+00; -1.4574657E-07;  1.0000000E+04;  0.0000000E+00;  9.9974922E+03; -9.7742029E-02;  0.0000000E+00;  1.1012795E-01;  7.2493964E+02;
  1.1200551E+00;  9.9999998E-03;  4.0004652E-02;2779;  4.2734135E-02;  0.0000000E+00;  4.5626517E-03;  1.0027361E+03;  4.0108430E-01;  2.1778450E+03;3;  2.3324913E+01;  0.0000000E+00;  2.9597440E+00;0;  1.7084658E-02;  1.0003169E+04;  0.0000000E+00; -1.0503259E-06;  1.0000000E+04;  0.0000000E+00;  9.9973359E+03; -9.6346691E-02;  0.0000000E+00;  1.1343135E-01;  7.6985699E+02;
  1.1200559E+00;  9.9999998E-03;  6.0007196E-02;2780;  4.3586597E-02;  0.0000000E+00;  6.9709476E-03;  1.0027174E+03;  4.0108442E-01;  2.1629468E+03;3;  2.3999117E+01;  0.0000000E+00;  4.4816098E+00;0;  2.5164232E-02;  1.0003065E+04;  0.0000000E+00; -4.3655882E-06;  1.0000000E+04;  0.0000000E+00;  9.9970684E+03; -9.3474850E-02;  0.0000000E+00;  1.1863908E-01;  8.4752264E+02;
  1.1200572E+00;  9.9999998E-03;  8.0009997E-02;2781;  4.4893552E-02;  0.0000000E+00;  9.5280623E-03;  1.0026888E+03;  4.0108436E-01;  2.1402673E+03;3;  2.4940966E+01;  0.0000000E+00;  5.9710908E+00;0;  3.6857814E-02;  1.0002891E+04;  0.0000000E+00; -1.3114289E-05;  1.0000000E+04;  0.0000000E+00;  9.9966699E+03; -8.8437140E-02;  0.0000000E+00;  1.2529495E-01;  9.6296539E+02;
  1.1200591E+00;  9.9999998E-03;  1.0001297E-01;2782;  4.6741996E-02;  0.0000000E+00;  1.2098685E-02;  1.0026481E+03;  4.0108430E-01;  2.1078137E+03;3;  2.6193979E+01;  0.0000000E+00;  7.2923546E+00;0;  5.2106023E-02;  1.0002626E+04;  0.0000000E+00; -2.4069165E-04;  1.0000000E+04;  0.0000000E+00;  9.9961230E+03; -8.0633059E-02;  0.0000000E+00;  1.3273908E-01;  1.1233989E+03;
  1.1200620E+00;  9.9999998E-03;  1.2001625E-01;2783;  4.9372114E-02;  0.0000000E+00;  1.4741750E-02;  1.0025953E+03;  4.0108436E-01;  2.0657756E+03;3;  2.7838070E+01;  0.0000000E+00;  8.4142466E+00;0;  6.9684625E-02;  1.0002283E+04;  0.0000000E+00; -3.5951936E-03;  1.0000000E+04;  0.0000000E+00;  9.9954121E+03; -7.0407301E-02;  0.0000000E+00;  1.4009193E-01;  1.3343763E+03;
  1.1200659E+00;  9.9999998E-03;  1.4001980E-01;2784;  5.2852765E-02;  0.0000000E+00;  1.7266160E-02;  1.0025344E+03;  4.0108433E-01;  2.0172841E+03;3;  2.9902632E+01;  0.0000000E+00;  9.1769133E+00;0;  8.6433955E-02;  1.0001930E+04;  0.0000000E+00; -2.2463171E-02;  1.0000000E+04;  0.0000000E+00;  9.9945488E+03; -5.9940271E-02;  0.0000000E+00;  1.4637423E-01;  1.5939376E+03;
  1.1400511E+00;  9.9999998E-03; -6.2641710E-13;2805;  3.9966315E-02;  0.0000000E+00;  1.3593651E-09;  1.0024241E+03;  4.0096065E-01;  1.9048253E+03;3;  2.1911005E+01;  0.0000000E+00; -2.6575581E-06;0;  1.4442667E-02;  1.0002707E+04;  0.0000000E+00;  9.7458486E-18;  1.0000000E+04;  0.0000000E+00;  9.9977422E+03; -8.3806567E-02;  0.0000000E+00;  9.8249234E-02;  5.8726563E+02;
  1.1400514E+00;  9.9999998E-03;  2.0002097E-02;2806;  4.0120225E-02;  0.0000000E+00;  2.0413636E-03;  1.0024199E+03;  4.0096059E-01;  1.9015464E+03;3;  2.2028128E+01;  0.0000000E+00;  1.3030394E+00;0;  1.6290039E-02;  1.0002677E+04;  0.0000000E+00; -7.8081683E-07;  1.0000000E+04;  0.0000000E+00;  9.9976943E+03; -8.2999058E-02;  0.0000000E+00;  9.9289097E-02;  6.0010004E+02;
  1.1400518E+00;  9.9999998E-03;  4.0004246E-02;2807;  4.0601611E-02;  0.0000000E+00;  4.1136066E-03;  1.0024073E+03;  4.0096071E-01;  1.8916165E+03;3;  2.2413506E+01;  0.0000000E+00;  2.6283298E+00;0;  2.1963358E-02;  1.0002583E+04;  0.0000000E+00; -3.8096482E-06;  1.0000000E+04;  0.0000000E+00;  9.9975361E+03; -8.0411755E-02;  0.0000000E+00;  1.0237511E-01;  6.3979059E+02;
  1.1400527E+00;  9.9999998E-03;  6.0006518E-02;2808;  4.1463532E-02;  0.0000000E+00;  6.2580891E-03;  1.0023849E+03;  4.0096068E-01;  1.8740049E+03;3;  2.3081966E+01;  0.0000000E+00;  3.9726751E+00;0;  3.1759739E-02;  1.0002408E+04;  0.0000000E+00; -3.0892919E-05;  1.0000000E+04;  0.0000000E+00;  9.9972588E+03; -7.5629599E-02;  0.0000000E+00;  1.0738934E-01;  7.0994824E+02;
  1.1400540E+00;  9.9999998E-03;  8.0008879E-02;2809;  4.2785339E-02;  0.0000000E+00;  8.4102731E-03;  1.0023513E+03;  4.0096065E-01;  1.8475875E+03;3;  2.4037224E+01;  0.0000000E+00;  5.2282786E+00;0;  4.5767151E-02;  1.0002151E+04;  0.0000000E+00; -5.1155686E-04;  1.0000000E+04;  0.0000000E+00;  9.9968438E+03; -6.8314165E-02;  0.0000000E+00;  1.1408132E-01;  8.1620673E+02;
  1.1400560E+00;  9.9999998E-03;  1.0001143E-01;2810;  4.4716239E-02;  0.0000000E+00;  1.0612454E-02;  1.0023058E+03;  4.0096059E-01;  1.8118959E+03;3;  2.5345091E+01;  0.0000000E+00;  6.3658810E+00;0;  6.3165054E-02;  1.0001819E+04;  0.0000000E+00; -4.1951220E-03;  1.0000000E+04;  0.0000000E+00;  9.9962705E+03; -5.8808848E-02;  0.0000000E+00;  1.2197390E-01;  9.6414722E+02;
  1.1400589E+00;  9.9999998E-03;  1.2001413E-01;2811;  4.7364958E-02;  0.0000000E+00;  1.2712537E-02;  1.0022516E+03;  4.0096071E-01;  1.7692714E+03;3;  2.7044369E+01;  0.0000000E+00;  7.2104454E+00;0;  8.1505567E-02;  1.0001467E+04;  0.0000000E+00; -2.0560227E-02;  1.0000000E+04;  0.0000000E+00;  9.9955391E+03; -4.8766684E-02;  0.0000000E+00;  1.3027225E-01;  1.1556586E+03;
  1.1400632E+00;  9.9999998E-03;  1.4001746E-01;2812;  5.1115159E-02;  0.0000000E+00;  1.4951365E-02;  1.0021954E+03;  4.0096074E-01;  1.7251469E+03;3;  2.9373825E+01;  0.0000000E+00;  7.7476373E+00;0;  9.6662961E-02;  1.0001187E+04;  0.0000000E+00; -6.9137156E-02;  1.0000000E+04;  0.0000000E+00;  9.9946934E+03; -4.1236408E-02;  0.0000000E+00;  1.3789937E-01;  1.3913723E+03;
  1.1600482E+00;  9.9999998E-03;  5.6674565E-13;2832;  3.8092572E-02;  0.0000000E+00;  2.1824180E-09;  1.0021437E+03;  4.0086368E-01;  1.6567311E+03;3;  2.1102766E+01;  0.0000000E+00;  4.3358013E-06;0;  2.9380906E-02;  1.0001820E+04;  0.0000000E+00; -1.6809908E-15;  1.0000000E+04;  0.0000000E+00;  9.9978730E+03; -6.0490418E-02;  0.0000000E+00;  8.9871325E-02;  4.8268204E+02;
  1.1600484E+00;  9.9999998E-03;  2.0001864E-02;2833;  3.8246285E-02;  0.0000000E+00;  1.8154562E-03;  1.0021386E+03;  4.0086362E-01;  1.6528612E+03;3;  2.1224476E+01;  0.0000000E+00;  1.1577951E+00;0;  3.1676255E-02;  1.0001778E+04;  0.0000000E+00; -8.8292072E-06;  1.0000000E+04;  0.0000000E+00;  9.9978145E+03; -5.9297688E-02;  0.0000000E+00;  9.0973943E-02;  4.9495325E+02;
  1.1600490E+00;  9.9999998E-03;  4.0003754E-02;2834;  3.8734008E-02;  0.0000000E+00;  3.6269850E-03;  1.0021233E+03;  4.0086371E-01;  1.6409755E+03;3;  2.1606817E+01;  0.0000000E+00;  2.3031187E+00;0;  3.8550071E-02;  1.0001645E+04;  0.0000000E+00; -1.9098421E-04;  1.0000000E+04;  0.0000000E+00;  9.9976426E+03; -5.5689454E-02;  0.0000000E+00;  9.4239525E-02;  5.3271399E+02;
  1.1600498E+00;  9.9999998E-03;  6.0005691E-02;2835;  3.9608683E-02;  0.0000000E+00;  5.4527912E-03;  1.0020973E+03;  4.0086359E-01;  1.6208892E+03;3;  2.2270586E+01;  0.0000000E+00;  3.4375281E+00;0;  4.9873360E-02;  1.0001427E+04;  0.0000000E+00; -1.3975608E-03;  1.0000000E+04;  0.0000000E+00;  9.9973389E+03; -4.9669005E-02;  0.0000000E+00;  9.9542364E-02;  5.9876819E+02;
  1.1600512E+00;  9.9999998E-03;  8.0007732E-02;2836;  4.0977526E-02;  0.0000000E+00;  7.2951559E-03;  1.0020605E+03;  4.0086365E-01;  1.5925103E+03;3;  2.3265301E+01;  0.0000000E+00;  4.5042558E+00;0;  6.4929582E-02;  1.0001141E+04;  0.0000000E+00; -6.8194703E-03;  1.0000000E+04;  0.0000000E+00;  9.9968936E+03; -4.1694447E-02;  0.0000000E+00;  1.0662403E-01;  6.9682623E+02;
  1.1600534E+00;  9.9999998E-03;  1.0000985E-01;2837;  4.2967875E-02;  0.0000000E+00;  9.0671340E-03;  1.0020151E+03;  4.0086359E-01;  1.5574047E+03;3;  2.4619612E+01;  0.0000000E+00;  5.3796463E+00;0;  8.1939355E-02;  1.0000822E+04;  0.0000000E+00; -2.4434129E-02;  1.0000000E+04;  0.0000000E+00;  9.9963027E+03; -3.3043809E-02;  0.0000000E+00;  1.1498316E-01;  8.3061395E+02;
  1.1600566E+00;  9.9999998E-03;  1.2001245E-01;2838;  4.5844339E-02;  0.0000000E+00;  1.0961260E-02;  1.0019658E+03;  4.0086365E-01;  1.5192573E+03;3;  2.6532259E+01;  0.0000000E+00;  6.0314040E+00;0;  9.7585164E-02;  1.0000556E+04;  0.0000000E+00; -6.9660522E-02;  1.0000000E+04;  0.0000000E+00;  9.9955859E+03; -2.6175290E-02;  0.0000000E+00;  1.2376045E-01;  1.0053681E+03;
  1.1600614E+00;  9.9999998E-03;  1.4001596E-01;2839;  4.9963333E-02;  0.0000000E+00;  1.3036486E-02;  1.0019208E+03;  4.0086383E-01;  1.4845170E+03;3;  2.9211811E+01;  0.0000000E+00;  6.2953181E+00;0;  1.0754736E-01;  1.0000445E+04;  0.0000000E+00; -1.6097270E-01;  1.0000000E+04;  0.0000000E+00;  9.9947959E+03; -2.4194481E-02;  0.0000000E+00;  1.3174184E-01;  1.2368579E+03;
  1.1800457E+00;  9.9999998E-03;  9.9028511E-13;2858;  3.6466334E-02;  0.0000000E+00;  1.6126253E-09;  1.0018956E+03;  4.0078902E-01;  1.4345610E+03;3;  2.0397312E+01;  0.0000000E+00; -1.0491640E-06;0;  5.6725148E-02;  1.0000568E+04;  0.0000000E+00;  2.1634295E-15;  1.0000000E+04;  0.0000000E+00;  9.9978916E+03; -2.8254751E-02;  0.0000000E+00;  8.4979899E-02;  3.9736331E+02;
  1.1800460E+00;  9.9999998E-03;  2.0001575E-02;2859;  3.6635872E-02;  0.0000000E+00;  1.5533920E-03;  1.0018901E+03;  4.0078905E-01;  1.4304108E+03;3;  2.0540468E+01;  0.0000000E+00;  1.0024291E+00;0;  5.9216108E-02;  1.0000522E+04;  0.0000000E+00; -3.3695728E-04;  1.0000000E+04;  0.0000000E+00;  9.9978252E+03; -2.7000222E-02;  0.0000000E+00;  8.6216331E-02;  4.0939532E+02;
  1.1800464E+00;  9.9999998E-03;  4.0003199E-02;2860;  3.7142448E-02;  0.0000000E+00;  3.1077205E-03;  1.0018734E+03;  4.0078908E-01;  1.4177794E+03;3;  2.0925079E+01;  0.0000000E+00;  1.9825683E+00;0;  6.6411741E-02;  1.0000390E+04;  0.0000000E+00; -2.5360063E-03;  1.0000000E+04;  0.0000000E+00;  9.9976289E+03; -2.3402711E-02;  0.0000000E+00;  8.9814454E-02;  4.4572684E+02;
  1.1800474E+00;  9.9999998E-03;  6.0004842E-02;2861;  3.8048133E-02;  0.0000000E+00;  4.6391212E-03;  1.0018470E+03;  4.0078908E-01;  1.3978396E+03;3;  2.1637087E+01;  0.0000000E+00;  2.9126608E+00;0;  7.7451095E-02;  1.0000189E+04;  0.0000000E+00; -1.0409467E-02;  1.0000000E+04;  0.0000000E+00;  9.9973018E+03; -1.8019646E-02;  0.0000000E+00;  9.5470741E-02;  5.0726648E+02;
  1.1800489E+00;  9.9999998E-03;  8.0006622E-02;2862;  3.9494611E-02;  0.0000000E+00;  6.1867489E-03;  1.0018126E+03;  4.0078911E-01;  1.3717640E+03;3;  2.2663748E+01;  0.0000000E+00;  3.7647204E+00;0;  9.0696961E-02;  9.9999590E+03;  0.0000000E+00; -3.1706195E-02;  1.0000000E+04;  0.0000000E+00;  9.9968438E+03; -1.2027441E-02;  0.0000000E+00;  1.0272440E-01;  5.9679199E+02;
  1.1800514E+00;  9.9999998E-03;  1.0000879E-01;2863;  4.1710392E-02;  0.0000000E+00;  7.8453468E-03;  1.0017739E+03;  4.0078905E-01;  1.3424393E+03;3;  2.4230040E+01;  0.0000000E+00;  4.4618840E+00;0;  1.0361579E-01;  9.9997617E+03;  0.0000000E+00; -7.8412436E-02;  1.0000000E+04;  0.0000000E+00;  9.9962686E+03; -7.3284190E-03;  0.0000000E+00;  1.1094421E-01;  7.2215521E+02;
  1.1800551E+00;  9.9999998E-03;  1.2001166E-01;2864;  4.4906795E-02;  0.0000000E+00;  9.6474625E-03;  1.0017370E+03;  4.0078914E-01;  1.3145563E+03;3;  2.6434052E+01;  0.0000000E+00;  4.8443918E+00;0;  1.1256982E-01;  9.9996865E+03;  0.0000000E+00; -1.6450118E-01;  1.0000000E+04;  0.0000000E+00;  9.9956045E+03; -6.6251792E-03;  0.0000000E+00;  1.1919501E-01;  8.9981927E+02;
  1.1800609E+00;  9.9999998E-03;  1.4001592E-01;2865;  4.9661208E-02;  0.0000000E+00;  1.1892328E-02;  1.0017081E+03;  4.0078917E-01;  1.2926249E+03;3;  2.9586767E+01;  0.0000000E+00;  5.0237331E+00;0;  1.1463399E-01;  9.9998145E+03;  0.0000000E+00; -2.9635945E-01;  1.0000000E+04;  0.0000000E+00;  9.9949004E+03; -1.1886228E-02;  0.0000000E+00;  1.2652022E-01;  1.1494109E+03;
  1.2000437E+00;  9.9999998E-03; -1.9708176E-12;2882;  3.5140023E-02;  0.0000000E+00;  4.1733633E-10;  1.0016763E+03;  4.0073290E-01;  1.2359501E+03;3;  1.9899303E+01;  0.0000000E+00; -2.5298505E-08;0;  9.3047209E-02;  9.9991064E+03;  0.0000000E+00; -2.9733594E-15;  1.0000000E+04;  0.0000000E+00;  9.9977744E+03;  8.7531516E-03;  0.0000000E+00;  8.4294058E-02;  3.2855560E+02;
  1.2000439E+00;  9.9999998E-03;  2.0001322E-02;2883;  3.5318524E-02;  0.0000000E+00;  1.2959886E-03;  1.0016711E+03;  4.0073299E-01;  1.2320824E+03;3;  2.0045242E+01;  0.0000000E+00;  8.3822018E-01;0;  9.5180489E-02;  9.9990742E+03;  0.0000000E+00; -1.9980327E-03;  1.0000000E+04;  0.0000000E+00;  9.9977061E+03;  9.5818769E-03;  0.0000000E+00;  8.5598610E-02;  3.3975537E+02;
  1.2000445E+00;  9.9999998E-03;  4.0002726E-02;2884;  3.5865340E-02;  0.0000000E+00;  2.6207480E-03;  1.0016562E+03;  4.0073293E-01;  1.2210947E+03;3;  2.0471407E+01;  0.0000000E+00;  1.6697769E+00;0;  1.0109489E-01;  9.9989854E+03;  0.0000000E+00; -1.0793295E-02;  1.0000000E+04;  0.0000000E+00;  9.9974980E+03;  1.1778125E-02;  0.0000000E+00;  8.9316763E-02;  3.7331738E+02;
  1.2000456E+00;  9.9999998E-03;  6.0004313E-02;2885;  3.6877245E-02;  0.0000000E+00;  4.0075956E-03;  1.0016342E+03;  4.0073302E-01;  1.2048326E+03;3;  2.1218834E+01;  0.0000000E+00;  2.4516833E+00;0;  1.0923971E-01;  9.9988760E+03;  0.0000000E+00; -3.4223426E-02;  1.0000000E+04;  0.0000000E+00;  9.9971641E+03;  1.4352083E-02;  0.0000000E+00;  9.4887629E-02;  4.3022437E+02;
  1.2000476E+00;  9.9999998E-03;  8.0006279E-02;2886;  3.8553689E-02;  0.0000000E+00;  5.5131745E-03;  1.0016082E+03;  4.0073293E-01;  1.1857566E+03;3;  2.2430969E+01;  0.0000000E+00;  3.1304128E+00;0;  1.1726470E-01;  9.9987959E+03;  0.0000000E+00; -8.3116643E-02;  1.0000000E+04;  0.0000000E+00;  9.9967285E+03;  1.5672022E-02;  0.0000000E+00;  1.0159267E-01;  5.1762799E+02;
  1.2000506E+00;  9.9999998E-03;  1.0000887E-01;2887;  4.1079044E-02;  0.0000000E+00;  7.1750130E-03;  1.0015831E+03;  4.0073299E-01;  1.1672063E+03;3;  2.4282988E+01;  0.0000000E+00;  3.5825586E+00;0;  1.2223223E-01;  9.9988145E+03;  0.0000000E+00; -1.6738804E-01;  1.0000000E+04;  0.0000000E+00;  9.9962080E+03;  1.3556902E-02;  0.0000000E+00;  1.0867532E-01;  6.5083679E+02;
  1.2000555E+00;  9.9999998E-03;  1.2001270E-01;2888;  4.5012090E-02;  0.0000000E+00;  9.3231900E-03;  1.0015627E+03;  4.0073302E-01;  1.1521686E+03;3;  2.6991076E+01;  0.0000000E+00;  3.9244065E+00;0;  1.2228442E-01;  9.9989902E+03;  0.0000000E+00; -2.9078972E-01;  1.0000000E+04;  0.0000000E+00;  9.9956240E+03;  6.6217962E-03;  0.0000000E+00;  1.1566263E-01;  8.4482733E+02;
  1.2000636E+00;  9.9999998E-03;  1.4001842E-01;2889;  5.1250391E-02;  0.0000000E+00;  1.2184372E-02;  1.0015439E+03;  4.0073299E-01;  1.1383563E+03;3;  3.1126776E+01;  0.0000000E+00;  4.2288332E+00;0;  1.2033083E-01;  9.9992676E+03;  0.0000000E+00; -4.4670036E-01;  1.0000000E+04;  0.0000000E+00;  9.9949736E+03; -2.3692236E-03;  0.0000000E+00;  1.2270005E-01;  1.1000018E+03;
  1.2200426E+00;  9.9999998E-03; -2.1890162E-13;2905;  3.4263328E-02;  0.0000000E+00; -1.0986714E-09;  1.0014906E+03;  4.0069157E-01;  1.0646869E+03;3;  1.9711184E+01;  0.0000000E+00; -3.3476026E-06;0;  1.3130541E-01;  9.9976943E+03;  0.0000000E+00; -1.6076072E-15;  1.0000000E+04;  0.0000000E+00;  9.9975430E+03;  4.3707673E-02;  0.0000000E+00;  8.7597743E-02;  2.7179611E+02;
  1.2200428E+00;  9.9999998E-03;  2.0001322E-02;2906;  3.4465898E-02;  0.0000000E+00;  1.2247954E-03;  1.0014869E+03;  4.0069157E-01;  1.0620470E+03;3;  1.9855814E+01;  0.0000000E+00;  7.7121913E-01;0;  1.3249347E-01;  9.9976924E+03;  0.0000000E+00; -5.2926880E-03;  1.0000000E+04;  0.0000000E+00;  9.9974746E+03;  4.3651044E-02;  0.0000000E+00;  8.8842429E-02;  2.8174075E+02;
  1.2200437E+00;  9.9999998E-03;  4.0002834E-02;2907;  3.5121500E-02;  0.0000000E+00;  2.5077148E-03;  1.0014769E+03;  4.0069163E-01;  1.0548931E+03;3;  2.0336226E+01;  0.0000000E+00;  1.4829077E+00;0;  1.3538489E-01;  9.9976963E+03;  0.0000000E+00; -2.5114618E-02;  1.0000000E+04;  0.0000000E+00;  9.9972725E+03;  4.3099754E-02;  0.0000000E+00;  9.2285126E-02;  3.1222882E+02;
  1.2200452E+00;  9.9999998E-03;  6.0004760E-02;2908;  3.6342829E-02;  0.0000000E+00;  3.9283577E-03;  1.0014638E+03;  4.0069163E-01;  1.0455239E+03;3;  2.1229034E+01;  0.0000000E+00;  2.1081216E+00;0;  1.3799445E-01;  9.9977402E+03;  0.0000000E+00; -6.9134213E-02;  1.0000000E+04;  0.0000000E+00;  9.9969639E+03;  4.0861182E-02;  0.0000000E+00;  9.7133271E-02;  3.6749484E+02;
  1.2200480E+00;  9.9999998E-03;  8.0007479E-02;2909;  3.8461395E-02;  0.0000000E+00;  5.6786733E-03;  1.0014506E+03;  4.0069160E-01;  1.0360676E+03;3;  2.2734648E+01;  0.0000000E+00;  2.6686678E+00;0;  1.3821343E-01;  9.9978721E+03;  0.0000000E+00; -1.4733052E-01;  1.0000000E+04;  0.0000000E+00;  9.9965693E+03;  3.5589710E-02;  0.0000000E+00;  1.0262372E-01;  4.5999081E+02;
  1.2200527E+00;  9.9999998E-03;  1.0001139E-01;2910;  4.2010318E-02;  0.0000000E+00;  7.9632085E-03;  1.0014383E+03;  4.0069169E-01;  1.0272892E+03;3;  2.5156244E+01;  0.0000000E+00;  3.1769023E+00;0;  1.3581586E-01;  9.9980938E+03;  0.0000000E+00; -2.6368833E-01;  1.0000000E+04;  0.0000000E+00;  9.9960986E+03;  2.7240299E-02;  0.0000000E+00;  1.0857555E-01;  6.0363464E+02;
  1.2200605E+00;  9.9999998E-03;  1.2001672E-01;2911;  4.7733516E-02;  0.0000000E+00;  1.0861229E-02;  1.0014207E+03;  4.0069166E-01;  1.0146739E+03;3;  2.9013857E+01;  0.0000000E+00;  3.6813331E+00;0;  1.3559747E-01;  9.9982998E+03;  0.0000000E+00; -4.1305152E-01;  1.0000000E+04;  0.0000000E+00;  9.9955459E+03;  2.0080991E-02;  0.0000000E+00;  1.1551648E-01;  7.9932910E+02;
  1.2200713E+00;  9.9999998E-03;  1.4002299E-01;2912;  5.5468682E-02;  0.0000000E+00;  1.4095752E-02;  1.0013870E+03;  4.0069157E-01;  9.9064417E+02;3;  3.3905537E+01;  0.0000000E+00;  4.6854963E+00;0;  1.4446348E-01;  9.9982666E+03;  0.0000000E+00; -5.7231420E-01;  1.0000000E+04;  0.0000000E+00;  9.9949063E+03;  2.0969812E-02;  0.0000000E+00;  1.2349367E-01;  1.0190415E+03;
  1.2400441E+00;  9.9999998E-03; -1.7335928E-12;2926;  3.4440532E-02;  0.0000000E+00; -2.5429125E-10;  1.0013487E+03;  4.0066183E-01;  9.2790204E+02;3;  1.9912970E+01;  0.0000000E+00; -1.9824365E-06;0;  1.6126315E-01;  9.9966582E+03;  0.0000000E+00;  5.9638857E-15;  1.0000000E+04;  0.0000000E+00;  9.9972314E+03;  6.7427121E-02;  0.0000000E+00;  9.3836032E-02;  2.2613539E+02;
  1.2400445E+00;  9.9999998E-03;  2.0001877E-02;2927;  3.4727287E-02;  0.0000000E+00;  1.4625950E-03;  1.0013467E+03;  4.0066180E-01;  9.2650690E+02;3;  2.0117645E+01;  0.0000000E+00;  7.5896722E-01;0;  1.6124675E-01;  9.9966875E+03;  0.0000000E+00; -8.6289011E-03;  1.0000000E+04;  0.0000000E+00;  9.9971670E+03;  6.6293947E-02;  0.0000000E+00;  9.4952799E-02;  2.3485358E+02;
  1.2400459E+00;  9.9999998E-03;  4.0004171E-02;2928;  3.5673786E-02;  0.0000000E+00;  3.1438852E-03;  1.0013414E+03;  4.0066177E-01;  9.2289569E+02;3;  2.0697664E+01;  0.0000000E+00;  1.5393753E+00;0;  1.6082564E-01;  9.9967715E+03;  0.0000000E+00; -3.8728241E-02;  1.0000000E+04;  0.0000000E+00;  9.9969766E+03;  6.2814571E-02;  0.0000000E+00;  9.8011069E-02;  2.6256845E+02;
  1.2400489E+00;  9.9999998E-03;  6.0007270E-02;2929;  3.7654553E-02;  0.0000000E+00;  5.2463636E-03;  1.0013334E+03;  4.0066174E-01;  9.1739539E+02;3;  2.1949026E+01;  0.0000000E+00;  2.3251934E+00;0;  1.5979327E-01;  9.9969004E+03;  0.0000000E+00; -1.0010104E-01;  1.0000000E+04;  0.0000000E+00;  9.9966885E+03;  5.7388622E-02;  0.0000000E+00;  1.0240465E-01;  3.1590216E+02;
  1.2400540E+00;  9.9999998E-03;  8.0011323E-02;2930;  4.1176360E-02;  0.0000000E+00;  7.8597991E-03;  1.0013198E+03;  4.0066180E-01;  9.0795441E+02;3;  2.4120256E+01;  0.0000000E+00;  3.2206671E+00;0;  1.6004221E-01;  9.9970059E+03;  0.0000000E+00; -2.0175250E-01;  1.0000000E+04;  0.0000000E+00;  9.9963105E+03;  5.2163072E-02;  0.0000000E+00;  1.0787914E-01;  4.0733035E+02;
  1.2400618E+00;  9.9999998E-03;  1.0001609E-01;2931;  4.6558093E-02;  0.0000000E+00;  1.0677336E-02;  1.0012952E+03;  4.0066183E-01;  8.9104620E+02;3;  2.7681475E+01;  0.0000000E+00;  4.0084934E+00;0;  1.6584881E-01;  9.9969697E+03;  0.0000000E+00; -3.4105992E-01;  1.0000000E+04;  0.0000000E+00;  9.9958604E+03;  5.1611125E-02;  0.0000000E+00;  1.1423768E-01;  5.4169208E+02;
  1.2400711E+00;  9.9999998E-03;  1.2002143E-01;2932;  5.3145763E-02;  0.0000000E+00;  1.3426295E-02;  1.0012573E+03;  4.0066186E-01;  8.6495044E+02;3;  3.2251850E+01;  0.0000000E+00;  4.7418346E+00;0;  1.7871007E-01;  9.9967314E+03;  0.0000000E+00; -4.8732331E-01;  1.0000000E+04;  0.0000000E+00;  9.9953389E+03;  5.7746835E-02;  0.0000000E+00;  1.2096325E-01;  6.9526910E+02;
  1.2400805E+00;  9.9999998E-03;  1.4002737E-01;2933;  5.9485108E-02;  0.0000000E+00;  1.6237751E-02;  1.0012131E+03;  4.0066186E-01;  8.3450916E+02;3;  3.6863731E+01;  0.0000000E+00;  5.8325295E+00;0;  1.9208348E-01;  9.9964502E+03;  0.0000000E+00; -5.6161529E-01;  1.0000000E+04;  0.0000000E+00;  9.9947363E+03;  6.3583083E-02;  0.0000000E+00;  1.2850039E-01;  7.9957196E+02;
  1.2600565E+00;  9.9999998E-03; -9.3592788E-13;2944;  4.0831033E-02;  0.0000000E+00; -4.5574911E-10;  1.0011956E+03;  4.0064076E-01;  7.8796106E+02;3;  2.2250683E+01;  0.0000000E+00; -1.2596138E-07;0;  2.1027647E-01;  9.9949941E+03;  0.0000000E+00; -1.3838713E-16;  1.0000000E+04;  0.0000000E+00;  9.9968936E+03;  1.0871249E-01;  0.0000000E+00;  1.0156398E-01;  1.6206650E+02;
  1.2600571E+00;  9.9999998E-03;  2.0002581E-02;2945;  4.1254692E-02;  0.0000000E+00;  1.9128226E-03;  1.0011929E+03;  4.0064070E-01;  7.8623145E+02;3;  2.2526733E+01;  0.0000000E+00;  1.0219240E+00;0;  2.1075228E-01;  9.9950068E+03;  0.0000000E+00; -1.0099156E-02;  1.0000000E+04;  0.0000000E+00;  9.9968320E+03;  1.0815775E-01;  0.0000000E+00;  1.0259452E-01;  1.6870967E+02;
  1.2600590E+00;  9.9999998E-03;  4.0005688E-02;2946;  4.2579759E-02;  0.0000000E+00;  4.1299928E-03;  1.0011853E+03;  4.0064082E-01;  7.8119965E+02;3;  2.3403913E+01;  0.0000000E+00;  2.1582410E+00;0;  2.1225521E-01;  9.9950273E+03;  0.0000000E+00; -4.4810653E-02;  1.0000000E+04;  0.0000000E+00;  9.9966553E+03;  1.0678806E-01;  0.0000000E+00;  1.0546714E-01;  1.9052585E+02;
  1.2600625E+00;  9.9999998E-03;  6.0009707E-02;2947;  4.4890884E-02;  0.0000000E+00;  6.8344483E-03;  1.0011713E+03;  4.0064076E-01;  7.7200128E+02;3;  2.4980673E+01;  0.0000000E+00;  3.4628308E+00;0;  2.1518521E-01;  9.9950293E+03;  0.0000000E+00; -1.1367184E-01;  1.0000000E+04;  0.0000000E+00;  9.9963779E+03;  1.0533497E-01;  0.0000000E+00;  1.0985024E-01;  2.3503706E+02;
  1.2600673E+00;  9.9999998E-03;  8.0014631E-02;2948;  4.8171673E-02;  0.0000000E+00;  9.8983506E-03;  1.0011500E+03;  4.0064070E-01;  7.5792944E+02;3;  2.7401657E+01;  0.0000000E+00;  4.7570629E+00;0;  2.2024500E-01;  9.9949756E+03;  0.0000000E+00; -2.1864173E-01;  1.0000000E+04;  0.0000000E+00;  9.9960059E+03;  1.0453577E-01;  0.0000000E+00;  1.1570923E-01;  3.1137454E+02;
  1.2600731E+00;  9.9999998E-03;  1.0002005E-01;2949;  5.1942080E-02;  0.0000000E+00;  1.2888102E-02;  1.0011247E+03;  4.0064076E-01;  7.4126373E+02;3;  3.0584387E+01;  0.0000000E+00;  5.6222715E+00;0;  2.2374400E-01;  9.9949316E+03;  0.0000000E+00; -3.2855853E-01;  1.0000000E+04;  0.0000000E+00;  9.9955469E+03;  1.0109620E-01;  0.0000000E+00;  1.2264780E-01;  4.0617319E+02;
  1.2600788E+00;  9.9999998E-03;  1.2002556E-01;2950;  5.6093819E-02;  0.0000000E+00;  1.5313710E-02;  1.0011047E+03;  4.0064073E-01;  7.2805524E+02;3;  3.4860386E+01;  0.0000000E+00;  5.9470806E+00;0;  2.2364856E-01;  9.9950488E+03;  0.0000000E+00; -3.6297682E-01;  1.0000000E+04;  0.0000000E+00;  9.9950264E+03;  9.5237762E-02;  0.0000000E+00;  1.2841080E-01;  4.6739911E+02;
  1.2600840E+00;  9.9999998E-03;  1.4003080E-01;2951;  6.0283896E-02;  0.0000000E+00;  1.7112235E-02;  1.0010998E+03;  4.0064073E-01;  7.2482562E+02;3;  3.9942661E+01;  0.0000000E+00;  6.3485656E+00;0;  2.1645522E-01;  9.9954814E+03;  0.0000000E+00; -2.1344675E-01;  1.0000000E+04;  0.0000000E+00;  9.9944980E+03;  8.6076178E-02;  0.0000000E+00;  1.3037905E-01;  4.5378052E+02;
  1.2800701E+00;  9.9999998E-03;  1.7930065E-12;2959;  4.7634579E-02;  0.0000000E+00;  6.7594763E-10;  1.0010144E+03;  4.0062603E-01;  6.3764880E+02;3;  2.6111694E+01;  0.0000000E+00;  1.8367427E-06;0;  2.8406328E-01;  9.9924463E+03;  0.0000000E+00; -7.3967835E-16;  1.0000000E+04;  0.0000000E+00;  9.9965635E+03;  1.7461601E-01;  0.0000000E+00;  1.0944727E-01;  7.0090050E+01;
  1.2800703E+00;  9.9999998E-03;  2.0003129E-02;2960;  4.7836501E-02;  0.0000000E+00;  2.1564912E-03;  1.0010153E+03;  4.0062597E-01;  6.3824786E+02;3;  2.6321321E+01;  0.0000000E+00;  1.1465015E+00;0;  2.8229964E-01;  9.9925186E+03;  0.0000000E+00; -7.0270263E-03;  1.0000000E+04;  0.0000000E+00;  9.9965068E+03;  1.7193921E-01;  0.0000000E+00;  1.1036044E-01;  7.6919853E+01;
  1.2800711E+00;  9.9999998E-03;  4.0006954E-02;2961;  4.8395757E-02;  0.0000000E+00;  4.7078361E-03;  1.0010180E+03;  4.0062600E-01;  6.3997009E+02;3;  2.6836172E+01;  0.0000000E+00;  2.4665310E+00;0;  2.7659690E-01;  9.9927471E+03;  0.0000000E+00; -3.0537412E-02;  1.0000000E+04;  0.0000000E+00;  9.9963369E+03;  1.6355766E-01;  0.0000000E+00;  1.1303924E-01;  9.8928894E+01;
  1.2800726E+00;  9.9999998E-03;  6.0011946E-02;2962;  4.9216993E-02;  0.0000000E+00;  7.8836652E-03;  1.0010235E+03;  4.0062597E-01;  6.4341504E+02;3;  2.7764458E+01;  0.0000000E+00;  4.0630937E+00;0;  2.6549202E-01;  9.9931436E+03;  0.0000000E+00; -7.2192922E-02;  1.0000000E+04;  0.0000000E+00;  9.9960469E+03;  1.4768074E-01;  0.0000000E+00;  1.1781129E-01;  1.3983144E+02;
  1.2800742E+00;  9.9999998E-03;  8.0017947E-02;2963;  5.0306898E-02;  0.0000000E+00;  1.1433128E-02;  1.0010331E+03;  4.0062597E-01;  6.4948230E+02;3;  2.9541349E+01;  0.0000000E+00;  5.6400409E+00;0;  2.4895719E-01;  9.9937725E+03;  0.0000000E+00; -1.1229260E-01;  1.0000000E+04;  0.0000000E+00;  9.9956084E+03;  1.2342120E-01;  0.0000000E+00;  1.2553599E-01;  1.9874490E+02;
  1.2800765E+00;  9.9999998E-03;  1.0002385E-01;2964;  5.2480798E-02;  0.0000000E+00;  1.4211364E-02;  1.0010435E+03;  4.0062603E-01;  6.5599817E+02;3;  3.3174931E+01;  0.0000000E+00;  6.0167198E+00;0;  2.3571211E-01;  9.9945195E+03;  0.0000000E+00; -8.6111702E-02;  1.0000000E+04;  0.0000000E+00;  9.9950693E+03;  1.0294104E-01;  0.0000000E+00;  1.3277107E-01;  2.5617599E+02;
  1.2800788E+00;  9.9999998E-03;  1.2002864E-01;2965;  5.5061396E-02;  0.0000000E+00;  1.5679851E-02;  1.0010717E+03;  4.0062609E-01;  6.7367975E+02;3;  3.7454597E+01;  0.0000000E+00;  6.0363517E+00;0;  2.1324338E-01;  9.9955498E+03;  0.0000000E+00;  8.0042019E-02;  1.0000000E+04;  0.0000000E+00;  9.9946006E+03;  8.1108779E-02;  0.0000000E+00;  1.3213460E-01;  3.2379404E+02;
  1.3000724E+00;  9.9999998E-03;  1.5268871E-12;2970;  4.7090836E-02;  0.0000000E+00;  1.7524631E-11;  1.0010098E+03;  4.0061611E-01;  6.0382111E+02;3;  2.7561152E+01;  0.0000000E+00; -6.9336966E-07;0;  2.5531343E-01;  9.9931357E+03;  0.0000000E+00; -9.4228807E-15;  1.0000000E+04;  0.0000000E+00;  9.9962734E+03;  1.3870271E-01;  0.0000000E+00;  1.1661072E-01;  6.1521317E+01;
  1.3000724E+00;  9.9999998E-03;  2.0003665E-02;2971;  4.7135402E-02;  0.0000000E+00;  2.3880098E-03;  1.0010153E+03;  4.0061611E-01;  6.0710004E+02;3;  2.7730301E+01;  0.0000000E+00;  1.3400034E+00;0;  2.5134844E-01;  9.9933008E+03;  0.0000000E+00;  1.4877347E-03;  1.0000000E+04;  0.0000000E+00;  9.9962188E+03;  1.3386872E-01;  0.0000000E+00;  1.1747973E-01;  7.0030220E+01;
  1.3000724E+00;  9.9999998E-03;  4.0008221E-02;2972;  4.7269616E-02;  0.0000000E+00;  5.2822549E-03;  1.0010317E+03;  4.0061617E-01;  6.1686554E+02;3;  2.8364548E+01;  0.0000000E+00;  2.9439647E+00;0;  2.3930818E-01;  9.9938115E+03;  0.0000000E+00;  1.0844706E-02;  1.0000000E+04;  0.0000000E+00;  9.9960352E+03;  1.1885114E-01;  0.0000000E+00;  1.2045705E-01;  9.6991646E+01;
  1.3000723E+00;  9.9999998E-03;  6.0014229E-02;2973;  4.7490146E-02;  0.0000000E+00;  8.9471061E-03;  1.0010563E+03;  4.0061608E-01;  6.3162097E+02;3;  2.9413099E+01;  0.0000000E+00;  4.9278746E+00;0;  2.2160184E-01;  9.9946699E+03;  0.0000000E+00;  4.8369657E-02;  1.0000000E+04;  0.0000000E+00;  9.9956660E+03;  9.4255030E-02;  0.0000000E+00;  1.2734681E-01;  1.4850195E+02;
  1.3000723E+00;  9.9999998E-03;  8.0021039E-02;2974;  4.8480716E-02;  0.0000000E+00;  1.2273241E-02;  1.0010784E+03;  4.0061602E-01;  6.4480780E+02;3;  3.2133198E+01;  0.0000000E+00;  5.6815825E+00;0;  2.0781891E-01;  9.9957246E+03;  0.0000000E+00;  1.5532945E-01;  1.0000000E+04;  0.0000000E+00;  9.9950488E+03;  7.0692867E-02;  0.0000000E+00;  1.3712604E-01;  2.3443901E+02;
 -1.2108197E-07;  9.9999998E-03;  1.6000001E-01;1053; -1.8549552E-04;  0.0000000E+00;  1.7089835E-05;  1.0000029E+03;  4.0000001E-01;  2.3703029E+00;3; -2.3160264E-01;  0.0000000E+00;  2.0146282E-02;0; -3.6710193E-03;  1.0000061E+04;  0.0000000E+00; -1.2122947E-10;  1.0000000E+04;  0.0000000E+00;  9.9999980E+03; -3.8106791E-03;  0.0000000E+00;  1.3965985E-04;  1.0550419E+00;
 -1.1714922E-07;  9.9999998E-03;  1.8000001E-01;1054; -1.7994287E-04;  0.0000000E+00;  2.1444412E-05;  1.0000028E+03;  4.0000001E-01;  2.3703029E+00;3; -2.2527128E-01;  0.0000000E+00;  2.5891729E-02;0; -3.5495404E-03;  1.0000057E+04;  0.0000000E+00; -7.7133598E-11;  1.0000000E+04;  0.0000000E+00;  9.9999980E+03; -3.6919899E-03;  0.0000000E+00;  1.4244947E-04;  1.0557020E+00;
 -1.1170929E-07;  9.9999998E-03;  2.0000002E-01;1055; -1.7196669E-04;  0.0000000E+00;  2.6128855E-05;  1.0000026E+03;  4.0000001E-01;  2.1727777E+00;3; -2.1597394E-01;  0.0000000E+00;  3.2122839E-02;0; -3.3889851E-03;  1.0000055E+04;  0.0000000E+00;  3.9166909E-11;  1.0000000E+04;  0.0000000E+00;  9.9999990E+03; -3.5168405E-03;  0.0000000E+00;  1.2785547E-04;  9.5001292E-01;
 -1.0435988E-07;  9.9999998E-03;  2.2000001E-01;1056; -1.6088622E-04;  0.0000000E+00;  3.0984505E-05;  1.0000025E+03;  4.0000001E-01;  2.0740151E+00;3; -2.0304048E-01;  0.0000000E+00;  3.8700294E-02;0; -3.1805197E-03;  1.0000053E+04;  0.0000000E+00;  1.7828129E-10;  1.0000000E+04;  0.0000000E+00;  1.0000000E+04; -3.2676281E-03;  0.0000000E+00;  8.7108550E-05;  6.8237936E-01;
 -9.4828323E-08;  9.9999998E-03;  2.4000002E-01;1057; -1.4627560E-04;  0.0000000E+00;  3.5332872E-05;  1.0000023E+03;  4.0000001E-01;  1.8764899E+00;3; -1.8614784E-01;  0.0000000E+00;  4.4803351E-02;0; -2.9126019E-03;  1.0000046E+04;  0.0000000E+00;  1.5910155E-10;  1.0000000E+04;  0.0000000E+00;  1.0000000E+04; -2.9295592E-03;  0.0000000E+00;  1.6957205E-05;  2.3040369E-01;
 -8.2753907E-08;  9.9999998E-03;  2.6000002E-01;1058; -1.2759221E-04;  0.0000000E+00;  3.8823069E-05;  1.0000020E+03;  4.0000001E-01;  1.5802020E+00;3; -1.6457713E-01;  0.0000000E+00;  5.0128959E-02;0; -2.5744543E-03;  1.0000040E+04;  0.0000000E+00; -8.0200291E-11;  1.0000000E+04;  0.0000000E+00;  1.0000000E+04; -2.4994111E-03;  0.0000000E+00; -7.5043223E-05;  3.6063737E-01;
 -6.8447768E-08;  9.9999998E-03;  2.8000003E-01;1059; -1.0544952E-04;  0.0000000E+00;  4.0224622E-05;  1.0000017E+03;  4.0000001E-01;  1.3826767E+00;3; -1.3872460E-01;  0.0000000E+00;  5.3020559E-02;0; -2.1630174E-03;  1.0000030E+04;  0.0000000E+00; -3.9121956E-10;  1.0000000E+04;  0.0000000E+00;  1.0000002E+04; -1.9958224E-03;  0.0000000E+00; -1.6719488E-04;  9.5682025E-01;
  1.9999823E-02;  9.9999998E-03;  1.6000001E-01;1083; -2.7023375E-04;  0.0000000E+00;  2.3967801E-05;  1.0000037E+03;  4.0000001E-01;  3.0616415E+00;3; -3.1929517E-01;  0.0000000E+00;  2.6395801E-02;0; -4.5657987E-03;  1.0000077E+04;  0.0000000E+00; -1.6639430E-10;  1.0000000E+04;  0.0000000E+00;  9.9999971E+03; -4.7613075E-03;  0.0000000E+00;  1.9550860E-04;  1.4811225E+00;
  1.9999826E-02;  9.9999998E-03;  1.8000002E-01;1084; -2.6281737E-04;  0.0000000E+00;  2.9910021E-05;  1.0000035E+03;  4.0000001E-01;  2.8641162E+00;3; -3.1148452E-01;  0.0000000E+00;  3.3790492E-02;0; -4.4277068E-03;  1.0000073E+04;  0.0000000E+00; -6.7244307E-11;  1.0000000E+04;  0.0000000E+00;  9.9999971E+03; -4.6278620E-03;  0.0000000E+00;  2.0015497E-04;  1.4883087E+00;
  1.9999836E-02;  9.9999998E-03;  2.0000002E-01;1085; -2.5172377E-04;  0.0000000E+00;  3.6349011E-05;  1.0000033E+03;  4.0000001E-01;  2.7653534E+00;3; -2.9944244E-01;  0.0000000E+00;  4.1901253E-02;0; -4.2436845E-03;  1.0000070E+04;  0.0000000E+00;  1.0823825E-10;  1.0000000E+04;  0.0000000E+00;  9.9999980E+03; -4.4248574E-03;  0.0000000E+00;  1.8117315E-04;  1.3477721E+00;
  1.9999845E-02;  9.9999998E-03;  2.2000003E-01;1086; -2.3588109E-04;  0.0000000E+00;  4.2777363E-05;  1.0000032E+03;  4.0000001E-01;  2.6665909E+00;3; -2.8229329E-01;  0.0000000E+00;  5.0157636E-02;0; -4.0024286E-03;  1.0000065E+04;  0.0000000E+00;  3.1048633E-10;  1.0000000E+04;  0.0000000E+00;  9.9999990E+03; -4.1287383E-03;  0.0000000E+00;  1.2630968E-04;  9.8006713E-01;
  1.9999860E-02;  9.9999998E-03;  2.4000002E-01;1087; -2.1434879E-04;  0.0000000E+00;  4.8083220E-05;  1.0000029E+03;  4.0000001E-01;  2.3703029E+00;3; -2.5923723E-01;  0.0000000E+00;  5.7400517E-02;0; -3.6883748E-03;  1.0000059E+04;  0.0000000E+00;  4.2228065E-10;  1.0000000E+04;  0.0000000E+00;  1.0000000E+04; -3.7189745E-03;  0.0000000E+00;  3.0599716E-05;  3.5068008E-01;
  1.9999878E-02;  9.9999998E-03;  2.6000002E-01;1088; -1.8602354E-04;  0.0000000E+00;  5.1692426E-05;  1.0000026E+03;  4.0000001E-01;  2.1727777E+00;3; -2.2888461E-01;  0.0000000E+00;  6.3048869E-02;0; -3.2861969E-03;  1.0000051E+04;  0.0000000E+00;  2.5760194E-10;  1.0000000E+04;  0.0000000E+00;  1.0000001E+04; -3.1896611E-03;  0.0000000E+00; -9.6535819E-05;  4.8250699E-01;
  1.9999901E-02;  9.9999998E-03;  2.8000003E-01;1089; -1.5082375E-04;  0.0000000E+00;  5.2416581E-05;  1.0000023E+03;  4.0000001E-01;  1.8764899E+00;3; -1.9018838E-01;  0.0000000E+00;  6.5636456E-02;0; -2.7897728E-03;  1.0000041E+04;  0.0000000E+00; -2.1926083E-10;  1.0000000E+04;  0.0000000E+00;  1.0000003E+04; -2.5630156E-03;  0.0000000E+00; -2.2675727E-04;  1.3400506E+00;
  1.9999927E-02;  9.9999998E-03;  3.0000004E-01;1090; -1.0942928E-04;  0.0000000E+00;  5.5019598E-05;  1.0000018E+03;  4.0000001E-01;  1.4814394E+00;3; -1.4198303E-01;  0.0000000E+00;  7.1615130E-02;0; -2.2140141E-03;  1.0000028E+04;  0.0000000E+00; -4.9198506E-10;  1.0000000E+04;  0.0000000E+00;  1.0000005E+04; -1.8966319E-03;  0.0000000E+00; -3.1738228E-04;  1.9533163E+00;
  3.9999746E-02;  9.9999998E-03;  1.6000003E-01;1114; -3.8225311E-04;  0.0000000E+00;  2.9919085E-05;  1.0000044E+03;  4.0000001E-01;  3.6542170E+00;3; -4.3072191E-01;  0.0000000E+00;  3.0649530E-02;0; -5.5100089E-03;  1.0000094E+04;  0.0000000E+00; -1.3228231E-10;  1.0000000E+04;  0.0000000E+00;  9.9999971E+03; -5.7643726E-03;  0.0000000E+00;  2.5436372E-04;  1.9613529E+00;
  3.9999753E-02;  9.9999998E-03;  1.8000002E-01;1115; -3.7270045E-04;  0.0000000E+00;  3.7151895E-05;  1.0000043E+03;  4.0000001E-01;  3.5554545E+00;3; -4.2137659E-01;  0.0000000E+00;  3.9061952E-02;0; -5.3625763E-03;  1.0000093E+04;  0.0000000E+00;  1.0110025E-10;  1.0000000E+04;  0.0000000E+00;  9.9999971E+03; -5.6242920E-03;  0.0000000E+00;  2.6171573E-04;  1.9806260E+00;
  3.9999761E-02;  9.9999998E-03;  2.0000003E-01;1116; -3.5793261E-04;  0.0000000E+00;  4.4895573E-05;  1.0000042E+03;  4.0000001E-01;  3.4566917E+00;3; -4.0635476E-01;  0.0000000E+00;  4.8222624E-02;0; -5.1621352E-03;  1.0000088E+04;  0.0000000E+00;  1.1670206E-10;  1.0000000E+04;  0.0000000E+00;  9.9999971E+03; -5.4014204E-03;  0.0000000E+00;  2.3928532E-04;  1.8079525E+00;
  3.9999776E-02;  9.9999998E-03;  2.2000004E-01;1117; -3.3618850E-04;  0.0000000E+00;  5.2650965E-05;  1.0000040E+03;  4.0000001E-01;  3.2591665E+00;3; -3.8428715E-01;  0.0000000E+00;  5.7628036E-02;0; -4.8938910E-03;  1.0000083E+04;  0.0000000E+00;  4.9727056E-10;  1.0000000E+04;  0.0000000E+00;  9.9999980E+03; -5.0646644E-03;  0.0000000E+00;  1.7077348E-04;  1.3347660E+00;
  3.9999798E-02;  9.9999998E-03;  2.4000004E-01;1118; -3.0600940E-04;  0.0000000E+00;  5.8850866E-05;  1.0000037E+03;  4.0000001E-01;  3.0616415E+00;3; -3.5411054E-01;  0.0000000E+00;  6.5705337E-02;0; -4.5365714E-03;  1.0000074E+04;  0.0000000E+00;  5.5242516E-10;  1.0000000E+04;  0.0000000E+00;  1.0000000E+04; -4.5854496E-03;  0.0000000E+00;  4.8878050E-05;  5.0970978E-01;
  3.9999824E-02;  9.9999998E-03;  2.6000005E-01;1119; -2.6566989E-04;  0.0000000E+00;  6.3362386E-05;  1.0000033E+03;  4.0000001E-01;  2.7653534E+00;3; -3.1371421E-01;  0.0000000E+00;  7.2648719E-02;0; -4.0681264E-03;  1.0000064E+04;  0.0000000E+00;  3.8422507E-10;  1.0000000E+04;  0.0000000E+00;  1.0000001E+04; -3.9526257E-03;  0.0000000E+00; -1.1550079E-04;  5.9794211E-01;
  3.9999858E-02;  9.9999998E-03;  2.8000003E-01;1120; -2.1573278E-04;  0.0000000E+00;  6.4826570E-05;  1.0000028E+03;  4.0000001E-01;  2.3703029E+00;3; -2.6232690E-01;  0.0000000E+00;  7.6847643E-02;0; -3.4776782E-03;  1.0000052E+04;  0.0000000E+00; -6.4961231E-10;  1.0000000E+04;  0.0000000E+00;  1.0000005E+04; -3.1902606E-03;  0.0000000E+00; -2.8741756E-04;  1.7594222E+00;
  3.9999895E-02;  9.9999998E-03;  3.0000004E-01;1121; -1.5702184E-04;  0.0000000E+00;  6.5924520E-05;  1.0000023E+03;  4.0000001E-01;  1.8764899E+00;3; -1.9771355E-01;  0.0000000E+00;  8.1878036E-02;0; -2.7837448E-03;  1.0000039E+04;  0.0000000E+00; -7.7371920E-10;  1.0000000E+04;  0.0000000E+00;  1.0000007E+04; -2.3694811E-03;  0.0000000E+00; -4.1426369E-04;  2.6322193E+00;
  5.9999648E-02;  9.9999998E-03;  1.6000003E-01;1145; -5.1900174E-04;  0.0000000E+00;  3.5228706E-05;  1.0000056E+03;  4.0000001E-01;  4.6418433E+00;3; -5.6280434E-01;  0.0000000E+00;  3.3450261E-02;0; -6.6065015E-03;  1.0000118E+04;  0.0000000E+00; -3.2872930E-11;  1.0000000E+04;  0.0000000E+00;  9.9999951E+03; -6.9216602E-03;  0.0000000E+00;  3.1515840E-04;  2.5060794E+00;
  5.9999656E-02;  9.9999998E-03;  1.8000004E-01;1146; -5.0736970E-04;  0.0000000E+00;  4.3688098E-05;  1.0000054E+03;  4.0000001E-01;  4.5430808E+00;3; -5.5217874E-01;  0.0000000E+00;  4.2649470E-02;0; -6.4555183E-03;  1.0000113E+04;  0.0000000E+00;  5.6387534E-11;  1.0000000E+04;  0.0000000E+00;  9.9999951E+03; -6.7818188E-03;  0.0000000E+00;  3.2630068E-04;  2.5449548E+00;
  5.9999671E-02;  9.9999998E-03;  2.0000003E-01;1147; -4.8873160E-04;  0.0000000E+00;  5.2842362E-05;  1.0000052E+03;  4.0000001E-01;  4.3455553E+00;3; -5.3422672E-01;  0.0000000E+00;  5.2834570E-02;0; -6.2429369E-03;  1.0000110E+04;  0.0000000E+00;  1.0123245E-10;  1.0000000E+04;  0.0000000E+00;  9.9999951E+03; -6.5447809E-03;  0.0000000E+00;  3.0184409E-04;  2.3451190E+00;
  5.9999689E-02;  9.9999998E-03;  2.2000004E-01;1148; -4.6056375E-04;  0.0000000E+00;  6.2021638E-05;  1.0000049E+03;  4.0000001E-01;  4.0492678E+00;3; -5.0714129E-01;  0.0000000E+00;  6.3347839E-02;0; -5.9490772E-03;  1.0000104E+04;  0.0000000E+00;  3.3918823E-10;  1.0000000E+04;  0.0000000E+00;  9.9999971E+03; -6.1697932E-03;  0.0000000E+00;  2.2071606E-04;  1.7618985E+00;
  5.9999716E-02;  9.9999998E-03;  2.4000005E-01;1149; -4.2066435E-04;  0.0000000E+00;  6.9444955E-05;  1.0000047E+03;  4.0000001E-01;  3.8517423E+00;3; -4.6946242E-01;  0.0000000E+00;  7.2579376E-02;0; -5.5448608E-03;  1.0000094E+04;  0.0000000E+00; -1.5657120E-10;  1.0000000E+04;  0.0000000E+00;  1.0000000E+04; -5.6172404E-03;  0.0000000E+00;  7.2379422E-05;  7.2028536E-01;
  5.9999753E-02;  9.9999998E-03;  2.6000005E-01;1150; -3.6664717E-04;  0.0000000E+00;  7.5020282E-05;  1.0000042E+03;  4.0000001E-01;  3.4566917E+00;3; -4.1855931E-01;  0.0000000E+00;  8.0802128E-02;0; -4.9992320E-03;  1.0000080E+04;  0.0000000E+00; -7.2865508E-10;  1.0000000E+04;  0.0000000E+00;  1.0000002E+04; -4.8678382E-03;  0.0000000E+00; -1.3139375E-04;  7.0136786E-01;
  5.9999797E-02;  9.9999998E-03;  2.8000006E-01;1151; -2.9923048E-04;  0.0000000E+00;  7.6747856E-05;  1.0000037E+03;  4.0000001E-01;  3.0616415E+00;3; -3.5304824E-01;  0.0000000E+00;  8.6041003E-02;0; -4.2956327E-03;  1.0000065E+04;  0.0000000E+00; -1.0163897E-07;  1.0000000E+04;  0.0000000E+00;  1.0000005E+04; -3.9469497E-03;  0.0000000E+00; -3.4868298E-04;  2.2175224E+00;
  5.9999853E-02;  9.9999998E-03;  3.0000004E-01;1152; -2.1852003E-04;  0.0000000E+00;  7.8181023E-05;  1.0000028E+03;  4.0000001E-01;  2.3703029E+00;3; -2.6829672E-01;  0.0000000E+00;  9.2677295E-02;0; -3.4567234E-03;  1.0000049E+04;  0.0000000E+00; -3.8213176E-07;  1.0000000E+04;  0.0000000E+00;  1.0000008E+04; -2.9423267E-03;  0.0000000E+00; -5.1439682E-04;  3.3887510E+00;
  7.9999529E-02;  9.9999998E-03;  1.6000003E-01;1176; -6.8228156E-04;  0.0000000E+00;  4.0271712E-05;  1.0000070E+03;  4.0000001E-01;  5.7282324E+00;3; -7.1767282E-01;  0.0000000E+00;  3.5333399E-02;0; -7.9570748E-03;  1.0000143E+04;  0.0000000E+00;  1.0415112E-11;  1.0000000E+04;  0.0000000E+00;  9.9999932E+03; -8.3371392E-03;  0.0000000E+00;  3.8006422E-04;  3.1468985E+00;
  7.9999536E-02;  9.9999998E-03;  1.8000004E-01;1177; -6.6892215E-04;  0.0000000E+00;  4.9945884E-05;  1.0000067E+03;  4.0000001E-01;  5.5307069E+00;3; -7.0631260E-01;  0.0000000E+00;  4.5169964E-02;0; -7.8077731E-03;  1.0000141E+04;  0.0000000E+00; -2.9467345E-11;  1.0000000E+04;  0.0000000E+00;  9.9999932E+03; -8.2039470E-03;  0.0000000E+00;  3.9617394E-04;  3.2145450E+00;
  7.9999559E-02;  9.9999998E-03;  2.0000005E-01;1178; -6.4659503E-04;  0.0000000E+00;  6.0583632E-05;  1.0000065E+03;  4.0000001E-01;  5.3331819E+00;3; -6.8584549E-01;  0.0000000E+00;  5.6324605E-02;0; -7.5862180E-03;  1.0000136E+04;  0.0000000E+00; -3.5268946E-10;  1.0000000E+04;  0.0000000E+00;  9.9999951E+03; -7.9572527E-03;  0.0000000E+00;  3.7103469E-04;  2.9920363E+00;
  7.9999581E-02;  9.9999998E-03;  2.2000006E-01;1179; -6.1184150E-04;  0.0000000E+00;  7.1347888E-05;  1.0000063E+03;  4.0000001E-01;  5.2344189E+00;3; -6.5396059E-01;  0.0000000E+00;  6.7989975E-02;0; -7.2660055E-03;  1.0000128E+04;  0.0000000E+00; -8.2439516E-10;  1.0000000E+04;  0.0000000E+00;  9.9999951E+03; -7.5439694E-03;  0.0000000E+00;  2.7796399E-04;  2.2899845E+00;
  7.9999618E-02;  9.9999998E-03;  2.4000005E-01;1180; -5.6148291E-04;  0.0000000E+00;  8.0175276E-05;  1.0000059E+03;  4.0000001E-01;  4.8393683E+00;3; -6.0871190E-01;  0.0000000E+00;  7.8465968E-02;0; -6.8079256E-03;  1.0000118E+04;  0.0000000E+00; -9.4987911E-07;  1.0000000E+04;  0.0000000E+00;  9.9999990E+03; -6.9101681E-03;  0.0000000E+00;  1.0224248E-04;  1.0018635E+00;
  7.9999663E-02;  9.9999998E-03;  2.6000005E-01;1181; -4.9203518E-04;  0.0000000E+00;  8.7113993E-05;  1.0000052E+03;  4.0000001E-01;  4.3455553E+00;3; -5.4658794E-01;  0.0000000E+00;  8.8207215E-02;0; -6.1718849E-03;  1.0000103E+04;  0.0000000E+00; -8.5971215E-06;  1.0000000E+04;  0.0000000E+00;  1.0000002E+04; -6.0277740E-03;  0.0000000E+00; -1.4411079E-04;  7.8834510E-01;
  7.9999723E-02;  9.9999998E-03;  2.8000006E-01;1182; -4.0388177E-04;  0.0000000E+00;  8.9783069E-05;  1.0000046E+03;  4.0000001E-01;  3.7529798E+00;3; -4.6493274E-01;  0.0000000E+00;  9.5207721E-02;0; -5.3344285E-03;  1.0000084E+04;  0.0000000E+00; -2.4417361E-05;  1.0000000E+04;  0.0000000E+00;  1.0000007E+04; -4.9227001E-03;  0.0000000E+00; -4.1172822E-04;  2.7282951E+00;
  7.9999797E-02;  9.9999998E-03;  3.0000007E-01;1183; -2.9629850E-04;  0.0000000E+00;  9.3256509E-05;  1.0000037E+03;  4.0000001E-01;  3.0616415E+00;3; -3.5619187E-01;  0.0000000E+00;  1.0576770E-01;0; -4.3188347E-03;  1.0000063E+04;  0.0000000E+00; -4.3155567E-05;  1.0000000E+04;  0.0000000E+00;  1.0000011E+04; -3.6981842E-03;  0.0000000E+00; -6.2065077E-04;  4.2578349E+00;
  9.9999383E-02;  9.9999998E-03;  1.6000004E-01;1207; -8.7736477E-04;  0.0000000E+00;  4.5547757E-05;  1.0000085E+03;  4.0000001E-01;  7.1109090E+00;3; -8.9972532E-01;  0.0000000E+00;  3.6772769E-02;0; -9.6495859E-03;  1.0000179E+04;  0.0000000E+00; -3.7913356E-11;  1.0000000E+04;  0.0000000E+00;  9.9999932E+03; -1.0104144E-02;  0.0000000E+00;  4.5455794E-04;  3.9381549E+00;
  9.9999398E-02;  9.9999998E-03;  1.8000005E-01;1208; -8.6285145E-04;  0.0000000E+00;  5.6504163E-05;  1.0000084E+03;  4.0000001E-01;  6.9133835E+00;3; -8.8840175E-01;  0.0000000E+00;  4.7283079E-02;0; -9.5083453E-03;  1.0000177E+04;  0.0000000E+00; -4.1548703E-10;  1.0000000E+04;  0.0000000E+00;  9.9999922E+03; -9.9851741E-03;  0.0000000E+00;  4.7682913E-04;  4.0463338E+00;
  9.9999413E-02;  9.9999998E-03;  2.0000005E-01;1209; -8.3726703E-04;  0.0000000E+00;  6.8612862E-05;  1.0000082E+03;  4.0000001E-01;  6.8146210E+00;3; -8.6618423E-01;  0.0000000E+00;  5.9160661E-02;0; -9.2823207E-03;  1.0000172E+04;  0.0000000E+00; -1.1914401E-09;  1.0000000E+04;  0.0000000E+00;  9.9999932E+03; -9.7342804E-03;  0.0000000E+00;  4.5195970E-04;  3.8049777E+00;
  9.9999443E-02;  9.9999998E-03;  2.2000006E-01;1210; -7.9596363E-04;  0.0000000E+00;  8.1031154E-05;  1.0000078E+03;  4.0000001E-01;  6.5183330E+00;3; -8.3002502E-01;  0.0000000E+00;  7.1880266E-02;0; -8.9379074E-03;  1.0000161E+04;  0.0000000E+00; -4.0231666E-06;  1.0000000E+04;  0.0000000E+00;  9.9999951E+03; -9.2849145E-03;  0.0000000E+00;  3.4700675E-04;  2.9712939E+00;
  9.9999487E-02;  9.9999998E-03;  2.4000007E-01;1211; -7.3454017E-04;  0.0000000E+00;  9.1360867E-05;  1.0000073E+03;  4.0000001E-01;  6.0245199E+00;3; -7.7738625E-01;  0.0000000E+00;  8.3577231E-02;0; -8.4312726E-03;  1.0000151E+04;  0.0000000E+00; -3.4828929E-05;  1.0000000E+04;  0.0000000E+00;  9.9999980E+03; -8.5732359E-03;  0.0000000E+00;  1.4196320E-04;  1.4064051E+00;
  9.9999547E-02;  9.9999998E-03;  2.6000008E-01;1212; -6.4784888E-04;  0.0000000E+00;  1.0015487E-04;  1.0000068E+03;  4.0000001E-01;  5.6294694E+00;3; -7.0341396E-01;  0.0000000E+00;  9.5300138E-02;0; -7.7141635E-03;  1.0000133E+04;  0.0000000E+00; -1.2323291E-04;  1.0000000E+04;  0.0000000E+00;  1.0000003E+04; -7.5618140E-03;  0.0000000E+00; -1.5234965E-04;  1.0143843E+00;
  9.9999629E-02;  9.9999998E-03;  2.8000009E-01;1213; -5.3554814E-04;  0.0000000E+00;  1.0477800E-04;  1.0000059E+03;  4.0000001E-01;  4.9381313E+00;3; -6.0373354E-01;  0.0000000E+00;  1.0527265E-01;0; -6.7467215E-03;  1.0000108E+04;  0.0000000E+00; -2.6266807E-04;  1.0000000E+04;  0.0000000E+00;  1.0000009E+04; -6.2677558E-03;  0.0000000E+00; -4.7896573E-04;  3.5182722E+00;
  9.9999726E-02;  9.9999998E-03;  3.0000007E-01;1214; -3.9546809E-04;  0.0000000E+00;  1.1209874E-04;  1.0000048E+03;  4.0000001E-01;  3.9505050E+00;3; -4.6666026E-01;  0.0000000E+00;  1.2205571E-01;0; -5.5361032E-03;  1.0000083E+04;  0.0000000E+00; -4.1024163E-04;  1.0000000E+04;  0.0000000E+00;  1.0000013E+04; -4.7967327E-03;  0.0000000E+00; -7.3937047E-04;  5.6098309E+00;
  1.1999920E-01;  9.9999998E-03;  1.6000004E-01;1238; -1.1124432E-03;  0.0000000E+00;  5.1675295E-05;  1.0000107E+03;  4.0000001E-01;  8.8886366E+00;3; -1.1143886E+00;  0.0000000E+00;  3.8338546E-02;0; -1.1754221E-02;  1.0000224E+04;  0.0000000E+00; -4.1072223E-10;  1.0000000E+04;  0.0000000E+00;  9.9999902E+03; -1.2301912E-02;  0.0000000E+00;  5.4768991E-04;  4.9613719E+00;
  1.1999922E-01;  9.9999998E-03;  1.8000005E-01;1239; -1.0975582E-03;  0.0000000E+00;  6.4123327E-05;  1.0000105E+03;  4.0000001E-01;  8.6911106E+00;3; -1.1041776E+00;  0.0000000E+00;  4.9561504E-02;0; -1.1629520E-02;  1.0000220E+04;  0.0000000E+00; -1.3917705E-09;  1.0000000E+04;  0.0000000E+00;  9.9999902E+03; -1.2207706E-02;  0.0000000E+00;  5.7818665E-04;  5.1327939E+00;
  1.1999924E-01;  9.9999998E-03;  2.0000006E-01;1240; -1.0693165E-03;  0.0000000E+00;  7.7753226E-05;  1.0000104E+03;  4.0000001E-01;  8.6911106E+00;3; -1.0812640E+00;  0.0000000E+00;  6.2011123E-02;0; -1.1408299E-02;  1.0000215E+04;  0.0000000E+00; -3.6228005E-06;  1.0000000E+04;  0.0000000E+00;  9.9999902E+03; -1.1963890E-02;  0.0000000E+00;  5.5559102E-04;  4.8889647E+00;
  1.1999927E-01;  9.9999998E-03;  2.2000007E-01;1241; -1.0216107E-03;  0.0000000E+00;  9.1957903E-05;  1.0000099E+03;  4.0000001E-01;  8.1972980E+00;3; -1.0416515E+00;  0.0000000E+00;  7.5773790E-02;0; -1.1059920E-02;  1.0000206E+04;  0.0000000E+00; -4.8807389E-05;  1.0000000E+04;  0.0000000E+00;  9.9999932E+03; -1.1499934E-02;  0.0000000E+00;  4.4001336E-04;  3.9296849E+00;
  1.1999933E-01;  9.9999998E-03;  2.4000008E-01;1242; -9.4862242E-04;  0.0000000E+00;  1.0388718E-04;  1.0000094E+03;  4.0000001E-01;  7.8022475E+00;3; -9.8229384E-01;  0.0000000E+00;  8.8556975E-02;0; -1.0546770E-02;  1.0000191E+04;  0.0000000E+00; -2.3509917E-04;  1.0000000E+04;  0.0000000E+00;  9.9999971E+03; -1.0749678E-02;  0.0000000E+00;  2.0290789E-04;  2.3016782E+00;
  1.1999940E-01;  9.9999998E-03;  2.6000008E-01;1243; -8.4279809E-04;  0.0000000E+00;  1.1529530E-04;  1.0000089E+03;  4.0000001E-01;  7.4071970E+00;3; -8.9620161E-01;  0.0000000E+00;  1.0304648E-01;0; -9.8116463E-03;  1.0000173E+04;  0.0000000E+00; -6.5954489E-04;  1.0000000E+04;  0.0000000E+00;  1.0000003E+04; -9.6623218E-03;  0.0000000E+00; -1.4932433E-04;  3.1922517E+00;
  1.1999950E-01;  9.9999998E-03;  2.8000009E-01;1244; -7.0269569E-04;  0.0000000E+00;  1.2325066E-04;  1.0000078E+03;  4.0000001E-01;  6.5183330E+00;3; -7.7709568E-01;  0.0000000E+00;  1.1742860E-01;0; -8.7794662E-03;  1.0000147E+04;  0.0000000E+00; -1.2896307E-03;  1.0000000E+04;  0.0000000E+00;  1.0000010E+04; -8.2280571E-03;  0.0000000E+00; -5.5140955E-04;  7.2039061E+00;
  1.1999962E-01;  9.9999998E-03;  3.0000010E-01;1245; -5.2349747E-04;  0.0000000E+00;  1.3693506E-04;  1.0000066E+03;  4.0000001E-01;  5.4319444E+00;3; -6.0701823E-01;  0.0000000E+00;  1.4389163E-01;0; -7.3888684E-03;  1.0000114E+04;  0.0000000E+00; -1.8623277E-03;  1.0000000E+04;  0.0000000E+00;  1.0000017E+04; -6.5100244E-03;  0.0000000E+00; -8.7884406E-04;  1.0871034E+01;
  1.3999897E-01;  9.9999998E-03;  1.6000006E-01;1269; -1.3977442E-03;  0.0000000E+00;  5.9679638E-05;  1.0000134E+03;  4.0000001E-01;  1.1061414E+01;3; -1.3675786E+00;  0.0000000E+00;  4.1153796E-02;0; -1.4328218E-02;  1.0000280E+04;  0.0000000E+00; -2.0937760E-10;  1.0000000E+04;  0.0000000E+00;  9.9999873E+03; -1.5001713E-02;  0.0000000E+00;  6.7349547E-04;  6.3387237E+00;
  1.3999899E-01;  9.9999998E-03;  1.8000007E-01;1270; -1.3835385E-03;  0.0000000E+00;  7.4029667E-05;  1.0000132E+03;  4.0000001E-01;  1.0962651E+01;3; -1.3598741E+00;  0.0000000E+00;  5.3162064E-02;0; -1.4229879E-02;  1.0000279E+04;  0.0000000E+00; -7.0574282E-07;  1.0000000E+04;  0.0000000E+00;  9.9999873E+03; -1.4947993E-02;  0.0000000E+00;  7.1811379E-04;  6.6315508E+00;
  1.3999902E-01;  9.9999998E-03;  2.0000008E-01;1271; -1.3534285E-03;  0.0000000E+00;  8.9636589E-05;  1.0000129E+03;  4.0000001E-01;  1.0765126E+01;3; -1.3375914E+00;  0.0000000E+00;  6.6347539E-02;0; -1.4033334E-02;  1.0000272E+04;  0.0000000E+00; -2.9535167E-05;  1.0000000E+04;  0.0000000E+00;  9.9999873E+03; -1.4738484E-02;  0.0000000E+00;  7.0514967E-04;  6.4513512E+00;
  1.3999905E-01;  9.9999998E-03;  2.2000009E-01;1272; -1.2997549E-03;  0.0000000E+00;  1.0584793E-04;  1.0000126E+03;  4.0000001E-01;  1.0468838E+01;3; -1.2959157E+00;  0.0000000E+00;  8.1175715E-02;0; -1.3728461E-02;  1.0000263E+04;  0.0000000E+00; -2.2144364E-04;  1.0000000E+04;  0.0000000E+00;  9.9999902E+03; -1.4312773E-02;  0.0000000E+00;  5.8431184E-04;  5.4925308E+00;
  1.3999912E-01;  9.9999998E-03;  2.4000010E-01;1273; -1.2146026E-03;  0.0000000E+00;  1.1988334E-04;  1.0000122E+03;  4.0000001E-01;  1.0073788E+01;3; -1.2308087E+00;  0.0000000E+00;  9.5235914E-02;0; -1.3301738E-02;  1.0000249E+04;  0.0000000E+00; -8.6164998E-04;  1.0000000E+04;  0.0000000E+00;  9.9999951E+03; -1.3613161E-02;  0.0000000E+00;  3.1142341E-04;  5.1310158E+00;
  1.3999921E-01;  9.9999998E-03;  2.6000011E-01;1274; -1.0881310E-03;  0.0000000E+00;  1.3441731E-04;  1.0000115E+03;  4.0000001E-01;  9.5799742E+00;3; -1.1333445E+00;  0.0000000E+00;  1.1323717E-01;0; -1.2694006E-02;  1.0000229E+04;  0.0000000E+00; -2.2220130E-03;  1.0000000E+04;  0.0000000E+00;  1.0000002E+04; -1.2577058E-02;  0.0000000E+00; -1.1694775E-04;  1.0497692E+01;
  1.3999933E-01;  9.9999998E-03;  2.8000012E-01;1275; -9.1628288E-04;  0.0000000E+00;  1.4767014E-04;  1.0000107E+03;  4.0000001E-01;  8.8886366E+00;3; -9.9409103E-01;  0.0000000E+00;  1.3404363E-01;0; -1.1765775E-02;  1.0000202E+04;  0.0000000E+00; -4.1901227E-03;  1.0000000E+04;  0.0000000E+00;  1.0000012E+04; -1.1140412E-02;  0.0000000E+00; -6.2536355E-04;  2.0239815E+01;
  1.3999949E-01;  9.9999998E-03;  3.0000013E-01;1276; -6.9111196E-04;  0.0000000E+00;  1.7035565E-04;  1.0000093E+03;  4.0000001E-01;  7.7034845E+00;3; -7.8747678E-01;  0.0000000E+00;  1.7349315E-01;0; -1.0292465E-02;  1.0000167E+04;  0.0000000E+00; -5.8917021E-03;  1.0000000E+04;  0.0000000E+00;  1.0000021E+04; -9.2445184E-03;  0.0000000E+00; -1.0479467E-03;  2.8809000E+01;
  1.5999869E-01;  9.9999998E-03;  1.6000007E-01;1300; -1.7447352E-03;  0.0000000E+00;  7.1012386E-05;  1.0000168E+03;  4.0000001E-01;  1.3925530E+01;3; -1.6656669E+00;  0.0000000E+00;  4.6732325E-02;0; -1.7427091E-02;  1.0000351E+04;  0.0000000E+00; -5.5282795E-10;  1.0000000E+04;  0.0000000E+00;  9.9999834E+03; -1.8280948E-02;  0.0000000E+00;  8.5385767E-04;  8.2570362E+00;
  1.5999870E-01;  9.9999998E-03;  1.8000008E-01;1301; -1.7325822E-03;  0.0000000E+00;  8.8086490E-05;  1.0000165E+03;  4.0000001E-01;  1.3629242E+01;3; -1.6621400E+00;  0.0000000E+00;  6.0003150E-02;0; -1.7365839E-02;  1.0000348E+04;  0.0000000E+00; -6.3889684E-06;  1.0000000E+04;  0.0000000E+00;  9.9999824E+03; -1.8293058E-02;  0.0000000E+00;  9.2721981E-04;  8.8060083E+00;
  1.5999873E-01;  9.9999998E-03;  2.0000009E-01;1302; -1.7017401E-03;  0.0000000E+00;  1.0671404E-04;  1.0000164E+03;  4.0000001E-01;  1.3629242E+01;3; -1.6421704E+00;  0.0000000E+00;  7.4665792E-02;0; -1.7220333E-02;  1.0000345E+04;  0.0000000E+00; -1.0484325E-04;  1.0000000E+04;  0.0000000E+00;  9.9999824E+03; -1.8161986E-02;  0.0000000E+00;  9.4165187E-04;  8.8588390E+00;
  1.5999877E-01;  9.9999998E-03;  2.2000012E-01;1303; -1.6425304E-03;  0.0000000E+00;  1.2610387E-04;  1.0000161E+03;  4.0000001E-01;  1.3332954E+01;3; -1.6000483E+00;  0.0000000E+00;  9.1026880E-02;0; -1.7023373E-02;  1.0000338E+04;  0.0000000E+00; -6.2020845E-04;  1.0000000E+04;  0.0000000E+00;  9.9999834E+03; -1.7852239E-02;  0.0000000E+00;  8.2886522E-04;  8.3536997E+00;
  1.5999885E-01;  9.9999998E-03;  2.4000013E-01;1304; -1.5446946E-03;  0.0000000E+00;  1.4304729E-04;  1.0000158E+03;  4.0000001E-01;  1.3135429E+01;3; -1.5304807E+00;  0.0000000E+00;  1.0712419E-01;0; -1.6814729E-02;  1.0000325E+04;  0.0000000E+00; -2.2013218E-03;  1.0000000E+04;  0.0000000E+00;  9.9999902E+03; -1.7331760E-02;  0.0000000E+00;  5.1703164E-04;  1.1669881E+01;
  1.5999897E-01;  9.9999998E-03;  2.6000014E-01;1305; -1.3964492E-03;  0.0000000E+00;  1.6031328E-04;  1.0000154E+03;  4.0000001E-01;  1.2740378E+01;3; -1.4236867E+00;  0.0000000E+00;  1.2779915E-01;0; -1.6561093E-02;  1.0000310E+04;  0.0000000E+00; -5.5190767E-03;  1.0000000E+04;  0.0000000E+00;  1.0000000E+04; -1.6543452E-02;  0.0000000E+00; -1.7640821E-05;  2.6200583E+01;
  1.5999912E-01;  9.9999998E-03;  2.8000015E-01;1306; -1.1896625E-03;  0.0000000E+00;  1.8018295E-04;  1.0000150E+03;  4.0000001E-01;  1.2345328E+01;3; -1.2653768E+00;  0.0000000E+00;  1.5658575E-01;0; -1.6040588E-02;  1.0000284E+04;  0.0000000E+00; -1.0374730E-02;  1.0000000E+04;  0.0000000E+00;  1.0000014E+04; -1.5354314E-02;  0.0000000E+00; -6.8627438E-04;  4.9348240E+01;
  1.5999933E-01;  9.9999998E-03;  3.0000019E-01;1307; -9.1364124E-04;  0.0000000E+00;  2.1257720E-04;  1.0000135E+03;  4.0000001E-01;  1.1258939E+01;3; -1.0226579E+00;  0.0000000E+00;  2.0963812E-01;0; -1.4741221E-02;  1.0000249E+04;  0.0000000E+00; -1.4694380E-02;  1.0000000E+04;  0.0000000E+00;  1.0000024E+04; -1.3485768E-02;  0.0000000E+00; -1.2554525E-03;  7.0067169E+01;
  1.7999832E-01;  9.9999998E-03;  1.6000009E-01;1331; -2.1659371E-03;  0.0000000E+00;  8.7681714E-05;  1.0000208E+03;  4.0000001E-01;  1.7283459E+01;3; -2.0153487E+00;  0.0000000E+00;  5.7268877E-02;0; -2.1117328E-02;  1.0000438E+04;  0.0000000E+00; -6.8167708E-08;  1.0000000E+04;  0.0000000E+00;  9.9999775E+03; -2.2237973E-02;  0.0000000E+00;  1.1206460E-03;  1.0987044E+01;
  1.7999834E-01;  9.9999998E-03;  1.8000010E-01;1332; -2.1575831E-03;  0.0000000E+00;  1.0902247E-04;  1.0000206E+03;  4.0000001E-01;  1.7085934E+01;3; -2.0179758E+00;  0.0000000E+00;  7.2910249E-02;0; -2.1099707E-02;  1.0000438E+04;  0.0000000E+00; -1.9548548E-05;  1.0000000E+04;  0.0000000E+00;  9.9999756E+03; -2.2350434E-02;  0.0000000E+00;  1.2507273E-03;  1.2045959E+01;
  1.7999837E-01;  9.9999998E-03;  2.0000012E-01;1333; -2.1277147E-03;  0.0000000E+00;  1.3197765E-04;  1.0000204E+03;  4.0000001E-01;  1.6888409E+01;3; -2.0025680E+00;  0.0000000E+00;  8.9839324E-02;0; -2.1023709E-02;  1.0000434E+04;  0.0000000E+00; -2.3430704E-04;  1.0000000E+04;  0.0000000E+00;  9.9999746E+03; -2.2348735E-02;  0.0000000E+00;  1.3250264E-03;  1.2651115E+01;
  1.7999843E-01;  9.9999998E-03;  2.2000015E-01;1334; -2.0643296E-03;  0.0000000E+00;  1.5525120E-04;  1.0000203E+03;  4.0000001E-01;  1.6789646E+01;3; -1.9625100E+00;  0.0000000E+00;  1.0788401E-01;0; -2.0983903E-02;  1.0000431E+04;  0.0000000E+00; -1.2494379E-03;  1.0000000E+04;  0.0000000E+00;  9.9999766E+03; -2.2231229E-02;  0.0000000E+00;  1.2473257E-03;  1.3278337E+01;
  1.7999852E-01;  9.9999998E-03;  2.4000016E-01;1335; -1.9534754E-03;  0.0000000E+00;  1.7655971E-04;  1.0000203E+03;  4.0000001E-01;  1.6789646E+01;3; -1.8903716E+00;  0.0000000E+00;  1.2711501E-01;0; -2.1108264E-02;  1.0000423E+04;  0.0000000E+00; -4.2846650E-03;  1.0000000E+04;  0.0000000E+00;  9.9999824E+03; -2.2009276E-02;  0.0000000E+00;  9.0101198E-04;  2.2330984E+01;
  1.7999865E-01;  9.9999998E-03;  2.6000017E-01;1336; -1.7820424E-03;  0.0000000E+00;  1.9679352E-04;  1.0000204E+03;  4.0000001E-01;  1.6888409E+01;3; -1.7766333E+00;  0.0000000E+00;  1.5021986E-01;0; -2.1442864E-02;  1.0000412E+04;  0.0000000E+00; -1.0742587E-02;  1.0000000E+04;  0.0000000E+00;  9.9999971E+03; -2.1662340E-02;  0.0000000E+00;  2.1947554E-04;  5.1361229E+01;
  1.7999883E-01;  9.9999998E-03;  2.8000021E-01;1337; -1.5397161E-03;  0.0000000E+00;  2.2051118E-04;  1.0000204E+03;  4.0000001E-01;  1.6987171E+01;3; -1.6036901E+00;  0.0000000E+00;  1.8400204E-01;0; -2.1717951E-02;  1.0000396E+04;  0.0000000E+00; -2.0527657E-02;  1.0000000E+04;  0.0000000E+00;  1.0000014E+04; -2.1016221E-02;  0.0000000E+00; -7.0172851E-04;  9.7829826E+01;
  1.7999908E-01;  9.9999998E-03;  3.0000022E-01;1338; -1.2128399E-03;  0.0000000E+00;  2.5790432E-04;  1.0000198E+03;  4.0000001E-01;  1.6394596E+01;3; -1.3342812E+00;  0.0000000E+00;  2.4239790E-01;0; -2.1035919E-02;  1.0000363E+04;  0.0000000E+00; -2.9746894E-02;  1.0000000E+04;  0.0000000E+00;  1.0000030E+04; -1.9513128E-02;  0.0000000E+00; -1.5227908E-03;  1.4176549E+02;
  1.9999787E-01;  9.9999998E-03;  1.6000010E-01;1362; -2.6759214E-03;  0.0000000E+00;  1.1152234E-04;  1.0000258E+03;  4.0000001E-01;  2.1431490E+01;3; -2.4240365E+00;  0.0000000E+00;  7.4936159E-02;0; -2.5474576E-02;  1.0000548E+04;  0.0000000E+00; -2.9216363E-07;  1.0000000E+04;  0.0000000E+00;  9.9999697E+03; -2.6988652E-02;  0.0000000E+00;  1.5140761E-03;  1.4875769E+01;
  1.9999789E-01;  9.9999998E-03;  1.8000013E-01;1363; -2.6735258E-03;  0.0000000E+00;  1.3947768E-04;  1.0000256E+03;  4.0000001E-01;  2.1233965E+01;3; -2.4350896E+00;  0.0000000E+00;  9.4617143E-02;0; -2.5496593E-02;  1.0000549E+04;  0.0000000E+00; -3.4696113E-05;  1.0000000E+04;  0.0000000E+00;  9.9999668E+03; -2.7240960E-02;  0.0000000E+00;  1.7443672E-03;  1.6843607E+01;
  1.9999792E-01;  9.9999998E-03;  2.0000017E-01;1364; -2.6471061E-03;  0.0000000E+00;  1.6841159E-04;  1.0000255E+03;  4.0000001E-01;  2.1135202E+01;3; -2.4271822E+00;  0.0000000E+00;  1.1470348E-01;0; -2.5483266E-02;  1.0000546E+04;  0.0000000E+00; -3.7255057E-04;  1.0000000E+04;  0.0000000E+00;  9.9999609E+03; -2.7412204E-02;  0.0000000E+00;  1.9289381E-03;  1.8473951E+01;
  1.9999798E-01;  9.9999998E-03;  2.2000019E-01;1365; -2.5811011E-03;  0.0000000E+00;  1.9813303E-04;  1.0000252E+03;  4.0000001E-01;  2.0838913E+01;3; -2.3920121E+00;  0.0000000E+00;  1.3626195E-01;0; -2.5594030E-02;  1.0000547E+04;  0.0000000E+00; -1.9186308E-03;  1.0000000E+04;  0.0000000E+00;  9.9999600E+03; -2.7529208E-02;  0.0000000E+00;  1.9351785E-03;  2.0574825E+01;
  1.9999808E-01;  9.9999998E-03;  2.4000020E-01;1366; -2.4593242E-03;  0.0000000E+00;  2.2183519E-04;  1.0000255E+03;  4.0000001E-01;  2.1135202E+01;3; -2.3220215E+00;  0.0000000E+00;  1.5586394E-01;0; -2.6070287E-02;  1.0000544E+04;  0.0000000E+00; -6.5595028E-03;  1.0000000E+04;  0.0000000E+00;  9.9999688E+03; -2.7646765E-02;  0.0000000E+00;  1.5764770E-03;  3.5070572E+01;
  1.9999824E-01;  9.9999998E-03;  2.6000023E-01;1367; -2.2646787E-03;  0.0000000E+00;  2.4433265E-04;  1.0000264E+03;  4.0000001E-01;  2.1826540E+01;3; -2.2060161E+00;  0.0000000E+00;  1.7969447E-01;0; -2.7093930E-02;  1.0000543E+04;  0.0000000E+00; -1.6686292E-02;  1.0000000E+04;  0.0000000E+00;  9.9999863E+03; -2.7796544E-02;  0.0000000E+00;  7.0261484E-04;  8.0505814E+01;
  1.9999845E-01;  9.9999998E-03;  2.8000024E-01;1368; -1.9891593E-03;  0.0000000E+00;  2.6846430E-04;  1.0000273E+03;  4.0000001E-01;  2.2616640E+01;3; -2.0284324E+00;  0.0000000E+00;  2.1381867E-01;0; -2.8427154E-02;  1.0000536E+04;  0.0000000E+00; -3.2592613E-02;  1.0000000E+04;  0.0000000E+00;  1.0000013E+04; -2.7808763E-02;  0.0000000E+00; -6.1839115E-04;  1.5617082E+02;
  1.9999875E-01;  9.9999998E-03;  3.0000028E-01;1369; -1.6144831E-03;  0.0000000E+00;  3.0636298E-04;  1.0000275E+03;  4.0000001E-01;  2.2715403E+01;3; -1.7457448E+00;  0.0000000E+00;  2.7125430E-01;0; -2.8763210E-02;  1.0000509E+04;  0.0000000E+00; -4.8201174E-02;  1.0000000E+04;  0.0000000E+00;  1.0000040E+04; -2.6878893E-02;  0.0000000E+00; -1.8843169E-03;  2.3085980E+02;
  2.1999732E-01;  9.9999998E-03;  1.6000013E-01;1393; -3.2917662E-03;  0.0000000E+00;  1.4410354E-04;  1.0000318E+03;  4.0000001E-01;  2.6369621E+01;3; -2.9001322E+00;  0.0000000E+00;  1.0117074E-01;0; -3.0583678E-02;  1.0000680E+04;  0.0000000E+00; -3.2601747E-07;  1.0000000E+04;  0.0000000E+00;  9.9999580E+03; -3.2659896E-02;  0.0000000E+00;  2.0762184E-03;  2.0303120E+01;
  2.1999733E-01;  9.9999998E-03;  1.8000017E-01;1394; -3.2980777E-03;  0.0000000E+00;  1.8168859E-04;  1.0000317E+03;  4.0000001E-01;  2.6270859E+01;3; -2.9220874E+00;  0.0000000E+00;  1.2746531E-01;0; -3.0629255E-02;  1.0000684E+04;  0.0000000E+00; -4.0072420E-05;  1.0000000E+04;  0.0000000E+00;  9.9999512E+03; -3.3093147E-02;  0.0000000E+00;  2.4638923E-03;  2.3720963E+01;
  2.1999736E-01;  9.9999998E-03;  2.0000021E-01;1395; -3.2780541E-03;  0.0000000E+00;  2.1983172E-04;  1.0000314E+03;  4.0000001E-01;  2.5974569E+01;3; -2.9248874E+00;  0.0000000E+00;  1.5273076E-01;0; -3.0641155E-02;  1.0000686E+04;  0.0000000E+00; -4.3775589E-04;  1.0000000E+04;  0.0000000E+00;  9.9999443E+03; -3.3467252E-02;  0.0000000E+00;  2.8260967E-03;  2.6987854E+01;
  2.1999742E-01;  9.9999998E-03;  2.2000025E-01;1396; -3.2128128E-03;  0.0000000E+00;  2.5878960E-04;  1.0000313E+03;  4.0000001E-01;  2.5974569E+01;3; -2.8988147E+00;  0.0000000E+00;  1.7988624E-01;0; -3.0825134E-02;  1.0000688E+04;  0.0000000E+00; -2.2866926E-03;  1.0000000E+04;  0.0000000E+00;  9.9999385E+03; -3.3815343E-02;  0.0000000E+00;  2.9902079E-03;  3.0442612E+01;
  2.1999754E-01;  9.9999998E-03;  2.4000028E-01;1397; -3.0831848E-03;  0.0000000E+00;  2.9045405E-04;  1.0000318E+03;  4.0000001E-01;  2.6369621E+01;3; -2.8375201E+00;  0.0000000E+00;  2.0218605E-01;0; -3.1522978E-02;  1.0000690E+04;  0.0000000E+00; -7.9681892E-03;  1.0000000E+04;  0.0000000E+00;  9.9999463E+03; -3.4204733E-02;  0.0000000E+00;  2.6817559E-03;  4.6382233E+01;
  2.1999772E-01;  9.9999998E-03;  2.6000032E-01;1398; -2.8662693E-03;  0.0000000E+00;  3.2713337E-04;  1.0000330E+03;  4.0000001E-01;  2.7258484E+01;3; -2.7256420E+00;  0.0000000E+00;  2.3634839E-01;0; -3.3053279E-02;  1.0000689E+04;  0.0000000E+00; -2.0750994E-02;  1.0000000E+04;  0.0000000E+00;  9.9999678E+03; -3.4684964E-02;  0.0000000E+00;  1.6316830E-03;  1.0169653E+02;
  2.1999797E-01;  9.9999998E-03;  2.8000036E-01;1399; -2.5557776E-03;  0.0000000E+00;  3.7642010E-04;  1.0000347E+03;  4.0000001E-01;  2.8739923E+01;3; -2.5509193E+00;  0.0000000E+00;  2.9215014E-01;0; -3.5181556E-02;  1.0000688E+04;  0.0000000E+00; -4.1452151E-02;  1.0000000E+04;  0.0000000E+00;  1.0000001E+04; -3.5072576E-02;  0.0000000E+00; -1.0897953E-04;  1.9996803E+02;
  2.1999833E-01;  9.9999998E-03;  3.0000046E-01;1400; -2.1083551E-03;  0.0000000E+00;  4.7757316E-04;  1.0000350E+03;  4.0000001E-01;  2.9036211E+01;3; -2.2385802E+00;  0.0000000E+00;  4.1572142E-01;0; -3.5832539E-02;  1.0000664E+04;  0.0000000E+00; -6.2627845E-02;  1.0000000E+04;  0.0000000E+00;  1.0000032E+04; -3.4284271E-02;  0.0000000E+00; -1.5482686E-03;  3.0164990E+02;
  2.3999663E-01;  9.9999998E-03;  1.6000018E-01;1424; -4.0332363E-03;  0.0000000E+00;  1.8695895E-04;  1.0000391E+03;  4.0000001E-01;  3.2394142E+01;3; -3.4526696E+00;  0.0000000E+00;  1.3817737E-01;0; -3.6547180E-02;  1.0000841E+04;  0.0000000E+00; -9.2582340E-08;  1.0000000E+04;  0.0000000E+00;  9.9999443E+03; -3.9389342E-02;  0.0000000E+00;  2.8421616E-03;  2.7619364E+01;
  2.3999663E-01;  9.9999998E-03;  1.8000023E-01;1425; -4.0519931E-03;  0.0000000E+00;  2.3833306E-04;  1.0000389E+03;  4.0000001E-01;  3.2196617E+01;3; -3.4887288E+00;  0.0000000E+00;  1.7367528E-01;0; -3.6594771E-02;  1.0000850E+04;  0.0000000E+00; -2.9881241E-05;  1.0000000E+04;  0.0000000E+00;  9.9999277E+03; -4.0046431E-02;  0.0000000E+00;  3.4516598E-03;  3.3134007E+01;
  2.3999666E-01;  9.9999998E-03;  2.0000027E-01;1426; -4.0423130E-03;  0.0000000E+00;  2.9263095E-04;  1.0000385E+03;  4.0000001E-01;  3.1900328E+01;3; -3.5058808E+00;  0.0000000E+00;  2.0974207E-01;0; -3.6579650E-02;  1.0000856E+04;  0.0000000E+00; -3.7832884E-04;  1.0000000E+04;  0.0000000E+00;  9.9999160E+03; -4.0647000E-02;  0.0000000E+00;  4.0673492E-03;  3.8784809E+01;
  2.3999672E-01;  9.9999998E-03;  2.2000033E-01;1427; -3.9836694E-03;  0.0000000E+00;  3.5027714E-04;  1.0000384E+03;  4.0000001E-01;  3.1801565E+01;3; -3.4957290E+00;  0.0000000E+00;  2.4948770E-01;0; -3.6717288E-02;  1.0000860E+04;  0.0000000E+00; -2.1085425E-03;  1.0000000E+04;  0.0000000E+00;  9.9999072E+03; -4.1202284E-02;  0.0000000E+00;  4.4849976E-03;  4.3825516E+01;
  2.3999685E-01;  9.9999998E-03;  2.4000040E-01;1428; -3.8533632E-03;  0.0000000E+00;  4.0967995E-04;  1.0000388E+03;  4.0000001E-01;  3.2097855E+01;3; -3.4527276E+00;  0.0000000E+00;  2.9286483E-01;0; -3.7387576E-02;  1.0000865E+04;  0.0000000E+00; -7.6609342E-03;  1.0000000E+04;  0.0000000E+00;  9.9999102E+03; -4.1749492E-02;  0.0000000E+00;  4.3619154E-03;  5.5968082E+01;
  2.3999704E-01;  9.9999998E-03;  2.6000047E-01;1429; -3.6209461E-03;  0.0000000E+00;  5.0246663E-04;  1.0000398E+03;  4.0000001E-01;  3.2986717E+01;3; -3.3577573E+00;  0.0000000E+00;  3.7604749E-01;0; -3.8902879E-02;  1.0000866E+04;  0.0000000E+00; -2.0646166E-02;  1.0000000E+04;  0.0000000E+00;  9.9999297E+03; -4.2302582E-02;  0.0000000E+00;  3.3997034E-03;  1.0585289E+02;
  2.3999733E-01;  9.9999998E-03;  2.8000063E-01;1430; -3.2850925E-03;  0.0000000E+00;  6.5743423E-04;  1.0000413E+03;  4.0000001E-01;  3.4171867E+01;3; -3.2025812E+00;  0.0000000E+00;  5.3855026E-01;0; -4.0720053E-02;  1.0000862E+04;  0.0000000E+00; -4.2358052E-02;  1.0000000E+04;  0.0000000E+00;  9.9999639E+03; -4.2650063E-02;  0.0000000E+00;  1.9300105E-03;  2.0671764E+02;
  2.3999773E-01;  9.9999998E-03;  3.0000085E-01;1431; -2.7932525E-03;  0.0000000E+00;  9.3891280E-04;  1.0000401E+03;  4.0000001E-01;  3.3184242E+01;3; -2.8977556E+00;  0.0000000E+00;  8.6346376E-01;0; -3.9838132E-02;  1.0000832E+04;  0.0000000E+00; -6.5409757E-02;  1.0000000E+04;  0.0000000E+00;  9.9999727E+03; -4.1697111E-02;  0.0000000E+00;  1.8589788E-03;  3.1719565E+02;
  2.5999576E-01;  9.9999998E-03;  1.6000022E-01;1455; -4.9233595E-03;  0.0000000E+00;  2.4042057E-04;  1.0000480E+03;  4.0000001E-01;  3.9702572E+01;3; -4.0922699E+00;  0.0000000E+00;  1.8533133E-01;0; -4.3492407E-02;  1.0001037E+04;  0.0000000E+00; -4.6993165E-10;  1.0000000E+04;  0.0000000E+00;  9.9999219E+03; -4.7325369E-02;  0.0000000E+00;  3.8329614E-03;  3.7091984E+01;
  2.5999576E-01;  9.9999998E-03;  1.8000029E-01;1456; -4.9597137E-03;  0.0000000E+00;  3.1187694E-04;  1.0000477E+03;  4.0000001E-01;  3.9505047E+01;3; -4.1462202E+00;  0.0000000E+00;  2.3568045E-01;0; -4.3525875E-02;  1.0001051E+04;  0.0000000E+00; -1.2634972E-05;  1.0000000E+04;  0.0000000E+00;  9.9999033E+03; -4.8252992E-02;  0.0000000E+00;  4.7271191E-03;  4.5400482E+01;
  2.5999579E-01;  9.9999998E-03;  2.0000036E-01;1457; -4.9659810E-03;  0.0000000E+00;  3.9328553E-04;  1.0000472E+03;  4.0000001E-01;  3.9109997E+01;3; -4.1824126E+00;  0.0000000E+00;  2.9184175E-01;0; -4.3444514E-02;  1.0001063E+04;  0.0000000E+00; -2.2948296E-04;  1.0000000E+04;  0.0000000E+00;  9.9998818E+03; -4.9110238E-02;  0.0000000E+00;  5.6657246E-03;  5.4252544E+01;
  2.5999585E-01;  9.9999998E-03;  2.2000046E-01;1458; -4.9214340E-03;  0.0000000E+00;  4.8745068E-04;  1.0000468E+03;  4.0000001E-01;  3.8714947E+01;3; -4.1958709E+00;  0.0000000E+00;  3.5887289E-01;0; -4.3434355E-02;  1.0001073E+04;  0.0000000E+00; -1.4686226E-03;  1.0000000E+04;  0.0000000E+00;  9.9998652E+03; -4.9868718E-02;  0.0000000E+00;  6.4343633E-03;  6.1992035E+01;
  2.5999597E-01;  9.9999998E-03;  2.4000056E-01;1459; -4.8034685E-03;  0.0000000E+00;  5.9535011E-04;  1.0000467E+03;  4.0000001E-01;  3.8714947E+01;3; -4.1863279E+00;  0.0000000E+00;  4.4076630E-01;0; -4.3840177E-02;  1.0001076E+04;  0.0000000E+00; -5.7457029E-03;  1.0000000E+04;  0.0000000E+00;  9.9998604E+03; -5.0512351E-02;  0.0000000E+00;  6.6721728E-03;  6.9923157E+01;
  2.5999618E-01;  9.9999998E-03;  2.6000074E-01;1460; -4.5774910E-03;  0.0000000E+00;  7.7092124E-04;  1.0000473E+03;  4.0000001E-01;  3.9208759E+01;3; -4.1361156E+00;  0.0000000E+00;  5.9614909E-01;0; -4.4828329E-02;  1.0001075E+04;  0.0000000E+00; -1.6268164E-02;  1.0000000E+04;  0.0000000E+00;  9.9998701E+03; -5.1003259E-02;  0.0000000E+00;  6.1749294E-03;  9.9260773E+01;
  2.5999647E-01;  9.9999998E-03;  2.8000098E-01;1461; -4.2384099E-03;  0.0000000E+00;  1.0602421E-03;  1.0000477E+03;  4.0000001E-01;  3.9505047E+01;3; -4.0322685E+00;  0.0000000E+00;  8.8718110E-01;0; -4.5389615E-02;  1.0001065E+04;  0.0000000E+00; -3.4406099E-02;  1.0000000E+04;  0.0000000E+00;  9.9998857E+03; -5.1137209E-02;  0.0000000E+00;  5.7475958E-03;  1.7645671E+02;
  2.5999689E-01;  9.9999998E-03;  3.0000132E-01;1462; -3.7437484E-03;  0.0000000E+00;  1.4765612E-03;  1.0000448E+03;  4.0000001E-01;  3.7134743E+01;3; -3.7964566E+00;  0.0000000E+00;  1.3499360E+00;0; -4.2729340E-02;  1.0001028E+04;  0.0000000E+00; -5.3794112E-02;  1.0000000E+04;  0.0000000E+00;  9.9998672E+03; -5.0082803E-02;  0.0000000E+00;  7.3534637E-03;  2.6938828E+02;
  2.7999473E-01;  9.9999998E-03;  1.6000028E-01;1486; -5.9883310E-03;  0.0000000E+00;  3.0567421E-04;  1.0000587E+03;  4.0000001E-01;  4.8689968E+01;3; -4.8298497E+00;  0.0000000E+00;  2.4473792E-01;0; -5.1575102E-02;  1.0001276E+04;  0.0000000E+00; -1.3999442E-09;  1.0000000E+04;  0.0000000E+00;  9.9998965E+03; -5.6628913E-02;  0.0000000E+00;  5.0538098E-03;  4.8886711E+01;
  2.7999470E-01;  9.9999998E-03;  1.8000038E-01;1487; -6.0489466E-03;  0.0000000E+00;  4.0455229E-04;  1.0000583E+03;  4.0000001E-01;  4.8294918E+01;3; -4.9060426E+00;  0.0000000E+00;  3.1570739E-01;0; -5.1590536E-02;  1.0001297E+04;  0.0000000E+00; -1.7433808E-06;  1.0000000E+04;  0.0000000E+00;  9.9998682E+03; -5.7878625E-02;  0.0000000E+00;  6.2880875E-03;  6.0701542E+01;
  2.7999470E-01;  9.9999998E-03;  2.0000048E-01;1488; -6.0783927E-03;  0.0000000E+00;  5.2166829E-04;  1.0000577E+03;  4.0000001E-01;  4.7801105E+01;3; -4.9667788E+00;  0.0000000E+00;  3.9781815E-01;0; -5.1435445E-02;  1.0001313E+04;  0.0000000E+00; -8.5868036E-05;  1.0000000E+04;  0.0000000E+00;  9.9998379E+03; -5.9034865E-02;  0.0000000E+00;  7.5994194E-03;  7.3523277E+01;
  2.7999476E-01;  9.9999998E-03;  2.2000062E-01;1489; -6.0559437E-03;  0.0000000E+00;  6.6499534E-04;  1.0000571E+03;  4.0000001E-01;  4.7307293E+01;3; -5.0121360E+00;  0.0000000E+00;  5.0003064E-01;0; -5.1250458E-02;  1.0001326E+04;  0.0000000E+00; -7.2652037E-04;  1.0000000E+04;  0.0000000E+00;  9.9998115E+03; -6.0028203E-02;  0.0000000E+00;  8.7777460E-03;  8.5256981E+01;
  2.7999485E-01;  9.9999998E-03;  2.4000078E-01;1490; -5.9621404E-03;  0.0000000E+00;  8.4028434E-04;  1.0000565E+03;  4.0000001E-01;  4.6813480E+01;3; -5.0484114E+00;  0.0000000E+00;  6.3557428E-01;0; -5.1297516E-02;  1.0001333E+04;  0.0000000E+00; -3.2440044E-03;  1.0000000E+04;  0.0000000E+00;  9.9997959E+03; -6.0795575E-02;  0.0000000E+00;  9.4980616E-03;  9.3622108E+01;
  2.7999505E-01;  9.9999998E-03;  2.6000103E-01;1491; -5.7589444E-03;  0.0000000E+00;  1.0986784E-03;  1.0000565E+03;  4.0000001E-01;  4.6813480E+01;3; -5.0647802E+00;  0.0000000E+00;  8.5513848E-01;0; -5.1604208E-02;  1.0001333E+04;  0.0000000E+00; -9.9211382E-03;  1.0000000E+04;  0.0000000E+00;  9.9997949E+03; -6.1261725E-02;  0.0000000E+00;  9.6575161E-03;  1.0497198E+02;
  2.7999535E-01;  9.9999998E-03;  2.8000140E-01;1492; -5.4349587E-03;  0.0000000E+00;  1.4927109E-03;  1.0000554E+03;  4.0000001E-01;  4.5924618E+01;3; -5.0454512E+00;  0.0000000E+00;  1.2305082E+00;0; -5.0911497E-02;  1.0001321E+04;  0.0000000E+00; -2.1913607E-02;  1.0000000E+04;  0.0000000E+00;  9.9997881E+03; -6.1258830E-02;  0.0000000E+00;  1.0347332E-02;  1.4391956E+02;
  2.7999577E-01;  9.9999998E-03;  3.0000186E-01;1493; -4.9618273E-03;  0.0000000E+00;  1.9809932E-03;  1.0000516E+03;  4.0000001E-01;  4.2764214E+01;3; -4.9213314E+00;  0.0000000E+00;  1.7540435E+00;0; -4.7388606E-02;  1.0001285E+04;  0.0000000E+00; -3.4819659E-02;  1.0000000E+04;  0.0000000E+00;  9.9997480E+03; -6.0268026E-02;  0.0000000E+00;  1.2879422E-02;  2.0419897E+02;
  2.9999343E-01;  9.9999998E-03;  1.6000035E-01;1517; -7.2579705E-03;  0.0000000E+00;  3.8150157E-04;  1.0000713E+03;  4.0000001E-01;  5.9060036E+01;3; -5.6765771E+00;  0.0000000E+00;  3.1530890E-01;0; -6.0979631E-02;  1.0001564E+04;  0.0000000E+00; -1.6547076E-09;  1.0000000E+04;  0.0000000E+00;  9.9998662E+03; -6.7476884E-02;  0.0000000E+00;  6.4972537E-03;  6.3083778E+01;
  2.9999337E-01;  9.9999998E-03;  1.8000047E-01;1518; -7.3512937E-03;  0.0000000E+00;  5.1473832E-04;  1.0000710E+03;  4.0000001E-01;  5.8862511E+01;3; -5.7800741E+00;  0.0000000E+00;  4.1190264E-01;0; -6.0986366E-02;  1.0001592E+04;  0.0000000E+00; -8.2393257E-09;  1.0000000E+04;  0.0000000E+00;  9.9998281E+03; -6.9107987E-02;  0.0000000E+00;  8.1216199E-03;  7.9152710E+01;
  2.9999334E-01;  9.9999998E-03;  2.0000063E-01;1519; -7.4123829E-03;  0.0000000E+00;  6.7586498E-04;  1.0000701E+03;  4.0000001E-01;  5.8072411E+01;3; -5.8708348E+00;  0.0000000E+00;  5.2517837E-01;0; -6.0775474E-02;  1.0001617E+04;  0.0000000E+00; -1.3645293E-05;  1.0000000E+04;  0.0000000E+00;  9.9997891E+03; -7.0614800E-02;  0.0000000E+00;  9.8393243E-03;  9.6670059E+01;
  2.9999340E-01;  9.9999998E-03;  2.2000082E-01;1520; -7.4201436E-03;  0.0000000E+00;  8.7595120E-04;  1.0000693E+03;  4.0000001E-01;  5.7479836E+01;3; -5.9546871E+00;  0.0000000E+00;  6.6450387E-01;0; -6.0454797E-02;  1.0001637E+04;  0.0000000E+00; -2.1891652E-04;  1.0000000E+04;  0.0000000E+00;  9.9997529E+03; -7.1894877E-02;  0.0000000E+00;  1.1440079E-02;  1.1327465E+02;
  2.9999349E-01;  9.9999998E-03;  2.4000105E-01;1521; -7.3523181E-03;  0.0000000E+00;  1.1170456E-03;  1.0000685E+03;  4.0000001E-01;  5.6788494E+01;3; -6.0405035E+00;  0.0000000E+00;  8.4638166E-01;0; -6.0236044E-02;  1.0001648E+04;  0.0000000E+00; -1.2633662E-03;  1.0000000E+04;  0.0000000E+00;  9.9997227E+03; -7.2860286E-02;  0.0000000E+00;  1.2624242E-02;  1.2555079E+02;
  2.9999366E-01;  9.9999998E-03;  2.6000139E-01;1522; -7.1768528E-03;  0.0000000E+00;  1.4550311E-03;  1.0000679E+03;  4.0000001E-01;  5.6294682E+01;3; -6.1347113E+00;  0.0000000E+00;  1.1209674E+00;0; -6.0059775E-02;  1.0001652E+04;  0.0000000E+00; -4.4109905E-03;  1.0000000E+04;  0.0000000E+00;  9.9997080E+03; -7.3429957E-02;  0.0000000E+00;  1.3370181E-02;  1.3337117E+02;
  2.9999396E-01;  9.9999998E-03;  2.8000185E-01;1523; -6.8752291E-03;  0.0000000E+00;  1.9249537E-03;  1.0000663E+03;  4.0000001E-01;  5.4912006E+01;3; -6.2156668E+00;  0.0000000E+00;  1.5434828E+00;0; -5.8733340E-02;  1.0001640E+04;  0.0000000E+00; -1.0537186E-02;  1.0000000E+04;  0.0000000E+00;  9.9996855E+03; -7.3492169E-02;  0.0000000E+00;  1.4758829E-02;  1.4986772E+02;
  2.9999438E-01;  9.9999998E-03;  3.0000240E-01;1524; -6.4192181E-03;  0.0000000E+00;  2.4653520E-03;  1.0000623E+03;  4.0000001E-01;  5.1652840E+01;3; -6.2182474E+00;  0.0000000E+00;  2.1014009E+00;0; -5.5198677E-02;  1.0001610E+04;  0.0000000E+00; -1.7386625E-02;  1.0000000E+04;  0.0000000E+00;  9.9996367E+03; -7.2770208E-02;  0.0000000E+00;  1.7571531E-02;  1.8229539E+02;
  3.1999183E-01;  9.9999998E-03;  1.6000043E-01;1548; -8.7670768E-03;  0.0000000E+00;  4.6743607E-04;  1.0000868E+03;  4.0000001E-01;  7.1899178E+01;3; -6.6446209E+00;  0.0000000E+00;  3.9648622E-01;0; -7.1914576E-02;  1.0001909E+04;  0.0000000E+00; -1.7949241E-10;  1.0000000E+04;  0.0000000E+00;  9.9998291E+03; -8.0063641E-02;  0.0000000E+00;  8.1490679E-03;  7.9716728E+01;
  3.1999174E-01;  9.9999998E-03;  1.8000059E-01;1549; -8.9032268E-03;  0.0000000E+00;  6.4108183E-04;  1.0000864E+03;  4.0000001E-01;  7.1504120E+01;3; -6.7804217E+00;  0.0000000E+00;  5.2216136E-01;0; -7.1937196E-02;  1.0001948E+04;  0.0000000E+00; -1.0607850E-08;  1.0000000E+04;  0.0000000E+00;  9.9997822E+03; -8.2152478E-02;  0.0000000E+00;  1.0215284E-02;  1.0087341E+02;
  3.1999168E-01;  9.9999998E-03;  2.0000079E-01;1550; -9.0044755E-03;  0.0000000E+00;  8.5261697E-04;  1.0000856E+03;  4.0000001E-01;  7.0911545E+01;3; -6.9050651E+00;  0.0000000E+00;  6.6916275E-01;0; -7.1698271E-02;  1.0001983E+04;  0.0000000E+00;  1.1039933E-08;  1.0000000E+04;  0.0000000E+00;  9.9997295E+03; -8.4073894E-02;  0.0000000E+00;  1.2375624E-02;  1.2392850E+02;
  3.1999171E-01;  9.9999998E-03;  2.2000104E-01;1551; -9.0467585E-03;  0.0000000E+00;  1.1103064E-03;  1.0000845E+03;  4.0000001E-01;  7.0022682E+01;3; -7.0299640E+00;  0.0000000E+00;  8.4596592E-01;0; -7.1303576E-02;  1.0002014E+04;  0.0000000E+00; -2.4211129E-05;  1.0000000E+04;  0.0000000E+00;  9.9996787E+03; -8.5696496E-02;  0.0000000E+00;  1.4392924E-02;  1.4604181E+02;
  3.1999177E-01;  9.9999998E-03;  2.4000135E-01;1552; -9.0071764E-03;  0.0000000E+00;  1.4233107E-03;  1.0000834E+03;  4.0000001E-01;  6.9133820E+01;3; -7.1703296E+00;  0.0000000E+00;  1.0723224E+00;0; -7.0947841E-02;  1.0002031E+04;  0.0000000E+00; -2.6499122E-04;  1.0000000E+04;  0.0000000E+00;  9.9996377E+03; -8.6924993E-02;  0.0000000E+00;  1.5977150E-02;  1.6328517E+02;
  3.1999198E-01;  9.9999998E-03;  2.6000178E-01;1553; -8.8513969E-03;  0.0000000E+00;  1.8358114E-03;  1.0000825E+03;  4.0000001E-01;  6.8343719E+01;3; -7.3409834E+00;  0.0000000E+00;  1.3852196E+00;0; -7.0579104E-02;  1.0002039E+04;  0.0000000E+00; -1.2208306E-03;  1.0000000E+04;  0.0000000E+00;  9.9996133E+03; -8.7701298E-02;  0.0000000E+00;  1.7122192E-02;  1.7424594E+02;
  3.1999227E-01;  9.9999998E-03;  2.8000236E-01;1554; -8.5570747E-03;  0.0000000E+00;  2.3717550E-03;  1.0000809E+03;  4.0000001E-01;  6.7059807E+01;3; -7.5234008E+00;  0.0000000E+00;  1.8402187E+00;0; -6.9189832E-02;  1.0002035E+04;  0.0000000E+00; -3.3691423E-03;  1.0000000E+04;  0.0000000E+00;  9.9995820E+03; -8.7986380E-02;  0.0000000E+00;  1.8796546E-02;  1.8821614E+02;
  3.1999272E-01;  9.9999998E-03;  3.0000299E-01;1555; -8.0959192E-03;  0.0000000E+00;  2.9764485E-03;  1.0000771E+03;  4.0000001E-01;  6.3899403E+01;3; -7.6502261E+00;  0.0000000E+00;  2.4417787E+00;0; -6.6020355E-02;  1.0002018E+04;  0.0000000E+00; -6.0825371E-03;  1.0000000E+04;  0.0000000E+00;  9.9995264E+03; -8.7689050E-02;  0.0000000E+00;  2.1668697E-02;  2.1258771E+02;
  3.3998987E-01;  9.9999998E-03;  1.6000052E-01;1579; -1.0554388E-02;  0.0000000E+00;  5.6016963E-04;  1.0001055E+03;  4.0000001E-01;  8.7404900E+01;3; -7.7454543E+00;  0.0000000E+00;  4.8293379E-01;0; -8.4606297E-02;  1.0002321E+04;  0.0000000E+00;  3.0575109E-09;  1.0000000E+04;  0.0000000E+00;  9.9997900E+03; -9.4598070E-02;  0.0000000E+00;  9.9917743E-03;  9.8806305E+01;
  3.3998975E-01;  9.9999998E-03;  1.8000071E-01;1580; -1.0745111E-02;  0.0000000E+00;  7.7848742E-04;  1.0001050E+03;  4.0000001E-01;  8.7009842E+01;3; -7.9184122E+00;  0.0000000E+00;  6.4239895E-01;0; -8.4692374E-02;  1.0002373E+04;  0.0000000E+00; -1.0431765E-08;  1.0000000E+04;  0.0000000E+00;  9.9997266E+03; -9.7250380E-02;  0.0000000E+00;  1.2558009E-02;  1.2598334E+02;
  3.3998966E-01;  9.9999998E-03;  2.0000097E-01;1581; -1.0897337E-02;  0.0000000E+00;  1.0480157E-03;  1.0001041E+03;  4.0000001E-01;  8.6219742E+01;3; -8.0827055E+00;  0.0000000E+00;  8.3114046E-01;0; -8.4465265E-02;  1.0002421E+04;  0.0000000E+00;  5.5867471E-09;  1.0000000E+04;  0.0000000E+00;  9.9996572E+03; -9.9681869E-02;  0.0000000E+00;  1.5216601E-02;  1.5566481E+02;
  3.3998963E-01;  9.9999998E-03;  2.2000130E-01;1582; -1.0981434E-02;  0.0000000E+00;  1.3733758E-03;  1.0001029E+03;  4.0000001E-01;  8.5232117E+01;3; -8.2513542E+00;  0.0000000E+00;  1.0453466E+00;0; -8.4037930E-02;  1.0002462E+04;  0.0000000E+00;  2.7014565E-07;  1.0000000E+04;  0.0000000E+00;  9.9995967E+03; -1.0172082E-01;  0.0000000E+00;  1.7682895E-02;  1.8424770E+02;
  3.3998969E-01;  9.9999998E-03;  2.4000169E-01;1583; -1.0968707E-02;  0.0000000E+00;  1.7606376E-03;  1.0001017E+03;  4.0000001E-01;  8.4244492E+01;3; -8.4467297E+00;  0.0000000E+00;  1.3098149E+00;0; -8.3627596E-02;  1.0002491E+04;  0.0000000E+00; -9.0990770E-06;  1.0000000E+04;  0.0000000E+00;  9.9995459E+03; -1.0326242E-01;  0.0000000E+00;  1.9634819E-02;  2.0704068E+02;
  3.3998990E-01;  9.9999998E-03;  2.6000223E-01;1584; -1.0821807E-02;  0.0000000E+00;  2.2477491E-03;  1.0001008E+03;  4.0000001E-01;  8.3553154E+01;3; -8.6942377E+00;  0.0000000E+00;  1.6521572E+00;0; -8.3259583E-02;  1.0002508E+04;  0.0000000E+00; -1.2313743E-04;  1.0000000E+04;  0.0000000E+00;  9.9995107E+03; -1.0427750E-01;  0.0000000E+00;  2.1017917E-02;  2.2216260E+02;
  3.3999023E-01;  9.9999998E-03;  2.8000292E-01;1585; -1.0511822E-02;  0.0000000E+00;  2.8598576E-03;  1.0000992E+03;  4.0000001E-01;  8.2170479E+01;3; -8.9724121E+00;  0.0000000E+00;  2.1436229E+00;0; -8.2043059E-02;  1.0002511E+04;  0.0000000E+00; -4.8908696E-04;  1.0000000E+04;  0.0000000E+00;  9.9994727E+03; -1.0480119E-01;  0.0000000E+00;  2.2758136E-02;  2.3885204E+02;
  3.3999076E-01;  9.9999998E-03;  3.0000368E-01;1586; -1.0011728E-02;  0.0000000E+00;  3.5411371E-03;  1.0000958E+03;  4.0000001E-01;  7.9306366E+01;3; -9.2110949E+00;  0.0000000E+00;  2.7933202E+00;0; -7.9310790E-02;  1.0002506E+04;  0.0000000E+00; -1.0471771E-03;  1.0000000E+04;  0.0000000E+00;  9.9994082E+03; -1.0489316E-01;  0.0000000E+00;  2.5582364E-02;  2.6488196E+02;
  3.5998750E-01;  9.9999998E-03;  1.6000061E-01;1610; -1.2663341E-02;  0.0000000E+00;  6.5891078E-04;  1.0001276E+03;  4.0000001E-01;  1.0577472E+02;3; -8.9930067E+00;  0.0000000E+00;  5.7587373E-01;0; -9.9291243E-02;  1.0002813E+04;  0.0000000E+00;  8.0618250E-09;  1.0000000E+04;  0.0000000E+00;  9.9997422E+03; -1.1129539E-01;  0.0000000E+00;  1.2004142E-02;  1.2039008E+02;
  3.5998729E-01;  9.9999998E-03;  1.8000086E-01;1611; -1.2923564E-02;  0.0000000E+00;  9.2758681E-04;  1.0001274E+03;  4.0000001E-01;  1.0557719E+02;3; -9.2089911E+00;  0.0000000E+00;  7.7694237E-01;0; -9.9516690E-02;  1.0002884E+04;  0.0000000E+00; -6.1171361E-09;  1.0000000E+04;  0.0000000E+00;  9.9996660E+03; -1.1465356E-01;  0.0000000E+00;  1.5136870E-02;  1.5459123E+02;
  3.5998714E-01;  9.9999998E-03;  2.0000118E-01;1612; -1.3139713E-02;  0.0000000E+00;  1.2624268E-03;  1.0001265E+03;  4.0000001E-01;  1.0478709E+02;3; -9.4147730E+00;  0.0000000E+00;  1.0067383E+00;0; -9.9366888E-02;  1.0002949E+04;  0.0000000E+00;  1.1837029E-09;  1.0000000E+04;  0.0000000E+00;  9.9995811E+03; -1.1773922E-01;  0.0000000E+00;  1.8372338E-02;  1.9221893E+02;
  3.5998708E-01;  9.9999998E-03;  2.2000159E-01;1613; -1.3274775E-02;  0.0000000E+00;  1.6641757E-03;  1.0001252E+03;  4.0000001E-01;  1.0379947E+02;3; -9.6305876E+00;  0.0000000E+00;  1.2614832E+00;0; -9.8961420E-02;  1.0003005E+04;  0.0000000E+00;  3.2111254E-07;  1.0000000E+04;  0.0000000E+00;  9.9995010E+03; -1.2032495E-01;  0.0000000E+00;  2.1363534E-02;  2.2870187E+02;
  3.5998714E-01;  9.9999998E-03;  2.4000210E-01;1614; -1.3291389E-02;  0.0000000E+00;  2.1353194E-03;  1.0001240E+03;  4.0000001E-01;  1.0271308E+02;3; -9.8847847E+00;  0.0000000E+00;  1.5637931E+00;0; -9.8542728E-02;  1.0003047E+04;  0.0000000E+00;  1.5227704E-06;  1.0000000E+04;  0.0000000E+00;  9.9994336E+03; -1.2227302E-01;  0.0000000E+00;  2.3730291E-02;  2.5825735E+02;
  3.5998732E-01;  9.9999998E-03;  2.6000276E-01;1615; -1.3146540E-02;  0.0000000E+00;  2.7082504E-03;  1.0001230E+03;  4.0000001E-01;  1.0192298E+02;3; -1.0214184E+01;  0.0000000E+00;  1.9352198E+00;0; -9.8216362E-02;  1.0003070E+04;  0.0000000E+00;  4.0255636E-06;  1.0000000E+04;  0.0000000E+00;  9.9993896E+03; -1.2356170E-01;  0.0000000E+00;  2.5345331E-02;  2.7831192E+02;
  3.5998774E-01;  9.9999998E-03;  2.8000361E-01;1616; -1.2802903E-02;  0.0000000E+00;  3.4115240E-03;  1.0001212E+03;  4.0000001E-01;  1.0034278E+02;3; -1.0594270E+01;  0.0000000E+00;  2.4628093E+00;0; -9.7142279E-02;  1.0003085E+04;  0.0000000E+00;  3.6060474E-06;  1.0000000E+04;  0.0000000E+00;  9.9993418E+03; -1.2427379E-01;  0.0000000E+00;  2.7131513E-02;  2.9921799E+02;
  3.5998836E-01;  9.9999998E-03;  3.0000454E-01;1617; -1.2228705E-02;  0.0000000E+00;  4.1898754E-03;  1.0001177E+03;  4.0000001E-01;  9.7577431E+01;3; -1.0938868E+01;  0.0000000E+00;  3.1726773E+00;0; -9.4603114E-02;  1.0003086E+04;  0.0000000E+00; -1.0726399E-05;  1.0000000E+04;  0.0000000E+00;  9.9992705E+03; -1.2455676E-01;  0.0000000E+00;  2.9953653E-02;  3.2976804E+02;
  3.7998462E-01;  9.9999998E-03;  1.6000073E-01;1641; -1.5140070E-02;  0.0000000E+00;  7.6790917E-04;  1.0001541E+03;  4.0000001E-01;  1.2770000E+02;3; -1.0400619E+01;  0.0000000E+00;  6.7580450E-01;0; -1.1620759E-01;  1.0003390E+04;  0.0000000E+00;  9.5262420E-09;  1.0000000E+04;  0.0000000E+00;  9.9996934E+03; -1.3036685E-01;  0.0000000E+00;  1.4159254E-02;  1.4458739E+02;
  3.7998432E-01;  9.9999998E-03;  1.8000102E-01;1642; -1.5487923E-02;  0.0000000E+00;  1.0897375E-03;  1.0001542E+03;  4.0000001E-01;  1.2779876E+02;3; -1.0663676E+01;  0.0000000E+00;  9.2032886E-01;0; -1.1668433E-01;  1.0003485E+04;  0.0000000E+00;  1.8959008E-09;  1.0000000E+04;  0.0000000E+00;  9.9995977E+03; -1.3461040E-01;  0.0000000E+00;  1.7926075E-02;  1.8676601E+02;
  3.7998411E-01;  9.9999998E-03;  2.0000140E-01;1643; -1.5784534E-02;  0.0000000E+00;  1.4959609E-03;  1.0001534E+03;  4.0000001E-01;  1.2710742E+02;3; -1.0914350E+01;  0.0000000E+00;  1.1972313E+00;0; -1.1671271E-01;  1.0003578E+04;  0.0000000E+00; -3.1961755E-10;  1.0000000E+04;  0.0000000E+00;  9.9994902E+03; -1.3854717E-01;  0.0000000E+00;  2.1834454E-02;  2.3377509E+02;
  3.7998396E-01;  9.9999998E-03;  2.2000192E-01;1644; -1.5983174E-02;  0.0000000E+00;  1.9841441E-03;  1.0001524E+03;  4.0000001E-01;  1.2621856E+02;3; -1.1179952E+01;  0.0000000E+00;  1.4972289E+00;0; -1.1641950E-01;  1.0003658E+04;  0.0000000E+00;  3.8407092E-07;  1.0000000E+04;  0.0000000E+00;  9.9993906E+03; -1.4187931E-01;  0.0000000E+00;  2.5459806E-02;  2.7986105E+02;
  3.7998399E-01;  9.9999998E-03;  2.4000254E-01;1645; -1.6036181E-02;  0.0000000E+00;  2.5542669E-03;  1.0001512E+03;  4.0000001E-01;  1.2523093E+02;3; -1.1498286E+01;  0.0000000E+00;  1.8422328E+00;0; -1.1606452E-01;  1.0003718E+04;  0.0000000E+00;  1.9750057E-06;  1.0000000E+04;  0.0000000E+00;  9.9993066E+03; -1.4441887E-01;  0.0000000E+00;  2.8354343E-02;  3.1793704E+02;
  3.7998420E-01;  9.9999998E-03;  2.6000336E-01;1646; -1.5893241E-02;  0.0000000E+00;  3.2328658E-03;  1.0001501E+03;  4.0000001E-01;  1.2444083E+02;3; -1.1921379E+01;  0.0000000E+00;  2.2467027E+00;0; -1.1580180E-01;  1.0003760E+04;  0.0000000E+00;  5.4374495E-06;  1.0000000E+04;  0.0000000E+00;  9.9992471E+03; -1.4612597E-01;  0.0000000E+00;  3.0324169E-02;  3.4488870E+02;
  3.7998465E-01;  9.9999998E-03;  2.8000441E-01;1647; -1.5507276E-02;  0.0000000E+00;  4.0509179E-03;  1.0001481E+03;  4.0000001E-01;  1.2276186E+02;3; -1.2420316E+01;  0.0000000E+00;  2.8135693E+00;0; -1.1477622E-01;  1.0003780E+04;  0.0000000E+00;  9.3243398E-06;  1.0000000E+04;  0.0000000E+00;  9.9991836E+03; -1.4709751E-01;  0.0000000E+00;  3.2321289E-02;  3.7319131E+02;
  3.7998542E-01;  9.9999998E-03;  3.0000558E-01;1648; -1.4838910E-02;  0.0000000E+00;  4.9460582E-03;  1.0001442E+03;  4.0000001E-01;  1.1940394E+02;3; -1.2888772E+01;  0.0000000E+00;  3.5878730E+00;0; -1.1227404E-01;  1.0003788E+04;  0.0000000E+00;  8.6571499E-06;  1.0000000E+04;  0.0000000E+00;  9.9990977E+03; -1.4752051E-01;  0.0000000E+00;  3.5246477E-02;  4.1187347E+02;
  3.9998114E-01;  9.9999998E-03;  1.6000086E-01;1672; -1.8031593E-02;  0.0000000E+00;  8.9613767E-04;  1.0001855E+03;  4.0000001E-01;  1.5367451E+02;3; -1.1981199E+01;  0.0000000E+00;  7.8356665E-01;0; -1.3557786E-01;  1.0004072E+04;  0.0000000E+00;  5.9760015E-09;  1.0000000E+04;  0.0000000E+00;  9.9996377E+03; -1.5200573E-01;  0.0000000E+00;  1.6427882E-02;  1.7177034E+02;
  3.9998075E-01;  9.9999998E-03;  1.8000121E-01;1673; -1.8489687E-02;  0.0000000E+00;  1.2709409E-03;  1.0001863E+03;  4.0000001E-01;  1.5436586E+02;3; -1.2295808E+01;  0.0000000E+00;  1.0749342E+00;0; -1.3646685E-01;  1.0004200E+04;  0.0000000E+00;  1.1872638E-08;  1.0000000E+04;  0.0000000E+00;  9.9995225E+03; -1.5734549E-01;  0.0000000E+00;  2.0878643E-02;  2.2259258E+02;
  3.9998040E-01;  9.9999998E-03;  2.0000167E-01;1674; -1.8888580E-02;  0.0000000E+00;  1.7517206E-03;  1.0001859E+03;  4.0000001E-01;  1.5406956E+02;3; -1.2594473E+01;  0.0000000E+00;  1.4046224E+00;0; -1.3682337E-01;  1.0004325E+04;  0.0000000E+00;  1.2424463E-09;  1.0000000E+04;  0.0000000E+00;  9.9993955E+03; -1.6238208E-01;  0.0000000E+00;  2.5558710E-02;  2.8029993E+02;
  3.9998019E-01;  9.9999998E-03;  2.2000229E-01;1675; -1.9169189E-02;  0.0000000E+00;  2.3366446E-03;  1.0001852E+03;  4.0000001E-01;  1.5337823E+02;3; -1.2911612E+01;  0.0000000E+00;  1.7560202E+00;0; -1.3678356E-01;  1.0004438E+04;  0.0000000E+00;  4.6984644E-07;  1.0000000E+04;  0.0000000E+00;  9.9992666E+03; -1.6673069E-01;  0.0000000E+00;  2.9947137E-02;  3.3772580E+02;
  3.9998013E-01;  9.9999998E-03;  2.4000306E-01;1676; -1.9270191E-02;  0.0000000E+00;  3.0233501E-03;  1.0001843E+03;  4.0000001E-01;  1.5268689E+02;3; -1.3299108E+01;  0.0000000E+00;  2.1517556E+00;0; -1.3661587E-01;  1.0004527E+04;  0.0000000E+00;  2.5708230E-06;  1.0000000E+04;  0.0000000E+00;  9.9991592E+03; -1.7013134E-01;  0.0000000E+00;  3.3515468E-02;  3.8619965E+02;
  3.9998034E-01;  9.9999998E-03;  2.6000410E-01;1677; -1.9132832E-02;  0.0000000E+00;  3.8352564E-03;  1.0001835E+03;  4.0000001E-01;  1.5199556E+02;3; -1.3828856E+01;  0.0000000E+00;  2.5976479E+00;0; -1.3646561E-01;  1.0004593E+04;  0.0000000E+00;  7.3001011E-06;  1.0000000E+04;  0.0000000E+00;  9.9990801E+03; -1.7250557E-01;  0.0000000E+00;  3.6039960E-02;  4.2246539E+02;
  3.9998087E-01;  9.9999998E-03;  2.8000540E-01;1678; -1.8699987E-02;  0.0000000E+00;  4.7979979E-03;  1.0001812E+03;  4.0000001E-01;  1.5011906E+02;3; -1.4471107E+01;  0.0000000E+00;  3.2066011E+00;0; -1.3542707E-01;  1.0004631E+04;  0.0000000E+00;  1.2699703E-05;  1.0000000E+04;  0.0000000E+00;  9.9989912E+03; -1.7395067E-01;  0.0000000E+00;  3.8523600E-02;  4.6289581E+02;
  3.9998180E-01;  9.9999998E-03;  3.0000684E-01;1679; -1.7926194E-02;  0.0000000E+00;  5.8328453E-03;  1.0001763E+03;  4.0000001E-01;  1.4606979E+02;3; -1.5096656E+01;  0.0000000E+00;  4.0479593E+00;0; -1.3296349E-01;  1.0004651E+04;  0.0000000E+00;  1.1577589E-05;  1.0000000E+04;  0.0000000E+00;  9.9988750E+03; -1.7468330E-01;  0.0000000E+00;  4.1719813E-02;  5.1525366E+02;
  4.1997701E-01;  9.9999998E-03;  1.6000107E-01;1703; -2.1385768E-02;  0.0000000E+00;  1.0622444E-03;  1.0002224E+03;  4.0000001E-01;  1.8419208E+02;3; -1.3746056E+01;  0.0000000E+00;  9.0468502E-01;0; -1.5756848E-01;  1.0004871E+04;  0.0000000E+00; -1.6569953E-08;  1.0000000E+04;  0.0000000E+00;  9.9995742E+03; -1.7636402E-01;  0.0000000E+00;  1.8795533E-02;  2.0292934E+02;
  4.1997644E-01;  9.9999998E-03;  1.8000145E-01;1704; -2.1982664E-02;  0.0000000E+00;  1.4848950E-03;  1.0002240E+03;  4.0000001E-01;  1.8557477E+02;3; -1.4117828E+01;  0.0000000E+00;  1.2416797E+00;0; -1.5909517E-01;  1.0005038E+04;  0.0000000E+00;  1.6505760E-08;  1.0000000E+04;  0.0000000E+00;  9.9994395E+03; -1.8302667E-01;  0.0000000E+00;  2.3931503E-02;  2.6244934E+02;
  4.1997594E-01;  9.9999998E-03;  2.0000200E-01;1705; -2.2513673E-02;  0.0000000E+00;  2.0396046E-03;  1.0002244E+03;  4.0000001E-01;  1.8596982E+02;3; -1.4467277E+01;  0.0000000E+00;  1.6280452E+00;0; -1.5999892E-01;  1.0005206E+04;  0.0000000E+00;  1.0939794E-08;  1.0000000E+04;  0.0000000E+00;  9.9992861E+03; -1.8945400E-01;  0.0000000E+00;  2.9455077E-02;  3.3168430E+02;
  4.1997558E-01;  9.9999998E-03;  2.2000273E-01;1706; -2.2902675E-02;  0.0000000E+00;  2.7276420E-03;  1.0002245E+03;  4.0000001E-01;  1.8606857E+02;3; -1.4838319E+01;  0.0000000E+00;  2.0394955E+00;0; -1.6043225E-01;  1.0005357E+04;  0.0000000E+00;  6.1085291E-07;  1.0000000E+04;  0.0000000E+00;  9.9991318E+03; -1.9515875E-01;  0.0000000E+00;  3.4726504E-02;  4.0181290E+02;
  4.1997543E-01;  9.9999998E-03;  2.4000366E-01;1707; -2.3070630E-02;  0.0000000E+00;  3.5474987E-03;  1.0002245E+03;  4.0000001E-01;  1.8606857E+02;3; -1.5299636E+01;  0.0000000E+00;  2.4969435E+00;0; -1.6066532E-01;  1.0005494E+04;  0.0000000E+00;  3.3793326E-06;  1.0000000E+04;  0.0000000E+00;  9.9989971E+03; -1.9978045E-01;  0.0000000E+00;  3.9115135E-02;  4.6212921E+02;
  4.1997564E-01;  9.9999998E-03;  2.6000494E-01;1708; -2.2946971E-02;  0.0000000E+00;  4.5257835E-03;  1.0002244E+03;  4.0000001E-01;  1.8596982E+02;3; -1.5948771E+01;  0.0000000E+00;  2.9984083E+00;0; -1.6074745E-01;  1.0005596E+04;  0.0000000E+00;  9.7358870E-06;  1.0000000E+04;  0.0000000E+00;  9.9988936E+03; -2.0317186E-01;  0.0000000E+00;  4.2424407E-02;  5.0970691E+02;
  4.1997623E-01;  9.9999998E-03;  2.8000659E-01;1709; -2.2465186E-02;  0.0000000E+00;  5.6758458E-03;  1.0002217E+03;  4.0000001E-01;  1.8369827E+02;3; -1.6763119E+01;  0.0000000E+00;  3.6597478E+00;0; -1.5960422E-01;  1.0005668E+04;  0.0000000E+00;  1.6953643E-05;  1.0000000E+04;  0.0000000E+00;  9.9987695E+03; -2.0540722E-01;  0.0000000E+00;  4.5802988E-02;  5.6798413E+02;
  4.1997731E-01;  9.9999998E-03;  3.0000839E-01;1710; -2.1574207E-02;  0.0000000E+00;  6.8820561E-03;  1.0002158E+03;  4.0000001E-01;  1.7876015E+02;3; -1.7585499E+01;  0.0000000E+00;  4.5674558E+00;0; -1.5713421E-01;  1.0005711E+04;  0.0000000E+00;  1.4668914E-05;  1.0000000E+04;  0.0000000E+00;  9.9986064E+03; -2.0672075E-01;  0.0000000E+00;  4.9586549E-02;  6.4353265E+02;
  4.3997207E-01;  9.9999998E-03;  1.6000138E-01;1734; -2.5255412E-02;  0.0000000E+00;  1.3001811E-03;  1.0002648E+03;  4.0000001E-01;  2.1945023E+02;3; -1.5702724E+01;  0.0000000E+00;  1.0555171E+00;0; -1.8218781E-01;  1.0005801E+04;  0.0000000E+00; -5.0512948E-08;  1.0000000E+04;  0.0000000E+00;  9.9994980E+03; -2.0348765E-01;  0.0000000E+00;  2.1299837E-02;  2.4028505E+02;
  4.3997130E-01;  9.9999998E-03;  1.8000181E-01;1735; -2.6027324E-02;  0.0000000E+00;  1.7633467E-03;  1.0002677E+03;  4.0000001E-01;  2.2182053E+02;3; -1.6141014E+01;  0.0000000E+00;  1.4252838E+00;0; -1.8465593E-01;  1.0006010E+04;  0.0000000E+00;  3.2446372E-09;  1.0000000E+04;  0.0000000E+00;  9.9993496E+03; -2.1169016E-01;  0.0000000E+00;  2.7034219E-02;  3.0762283E+02;
  4.3997058E-01;  9.9999998E-03;  2.0000240E-01;1736; -2.6728721E-02;  0.0000000E+00;  2.3821287E-03;  1.0002697E+03;  4.0000001E-01;  2.2349948E+02;3; -1.6546705E+01;  0.0000000E+00;  1.8720219E+00;0; -1.8641798E-01;  1.0006229E+04;  0.0000000E+00;  5.2118210E-08;  1.0000000E+04;  0.0000000E+00;  9.9991709E+03; -2.1981898E-01;  0.0000000E+00;  3.3401001E-02;  3.8829935E+02;
  4.3997002E-01;  9.9999998E-03;  2.2000323E-01;1737; -2.7262852E-02;  0.0000000E+00;  3.1696642E-03;  1.0002714E+03;  4.0000001E-01;  2.2478339E+02;3; -1.6973166E+01;  0.0000000E+00;  2.3478894E+00;0; -1.8765652E-01;  1.0006440E+04;  0.0000000E+00;  9.1075026E-07;  1.0000000E+04;  0.0000000E+00;  9.9989854E+03; -2.2727461E-01;  0.0000000E+00;  3.9618086E-02;  4.7154831E+02;
  4.3996972E-01;  9.9999998E-03;  2.4000435E-01;1738; -2.7527222E-02;  0.0000000E+00;  4.1313390E-03;  1.0002729E+03;  4.0000001E-01;  2.2606731E+02;3; -1.7513357E+01;  0.0000000E+00;  2.8804526E+00;0; -1.8865508E-01;  1.0006633E+04;  0.0000000E+00;  4.6509917E-06;  1.0000000E+04;  0.0000000E+00;  9.9988252E+03; -2.3356563E-01;  0.0000000E+00;  4.4910546E-02;  5.4387286E+02;
  4.3996984E-01;  9.9999998E-03;  2.6000589E-01;1739; -2.7433829E-02;  0.0000000E+00;  5.3113736E-03;  1.0002743E+03;  4.0000001E-01;  2.2725246E+02;3; -1.8295284E+01;  0.0000000E+00;  3.4604404E+00;0; -1.8925172E-01;  1.0006790E+04;  0.0000000E+00;  1.3110810E-05;  1.0000000E+04;  0.0000000E+00;  9.9986963E+03; -2.3843594E-01;  0.0000000E+00;  4.9184211E-02;  6.0284515E+02;
  4.3997049E-01;  9.9999998E-03;  2.8000799E-01;1740; -2.6905086E-02;  0.0000000E+00;  6.7104422E-03;  1.0002714E+03;  4.0000001E-01;  2.2488216E+02;3; -1.9313236E+01;  0.0000000E+00;  4.1927147E+00;0; -1.8784994E-01;  1.0006911E+04;  0.0000000E+00;  2.2240240E-05;  1.0000000E+04;  0.0000000E+00;  9.9985176E+03; -2.4190091E-01;  0.0000000E+00;  5.4050960E-02;  6.8514636E+02;
  4.3997177E-01;  9.9999998E-03;  3.0001026E-01;1741; -2.5886111E-02;  0.0000000E+00;  8.1327148E-03;  1.0002637E+03;  4.0000001E-01;  2.1846260E+02;3; -2.0379478E+01;  0.0000000E+00;  5.1665406E+00;0; -1.8519366E-01;  1.0006997E+04;  0.0000000E+00;  1.7103506E-05;  1.0000000E+04;  0.0000000E+00;  9.9982793E+03; -2.4419065E-01;  0.0000000E+00;  5.8996987E-02;  7.9679675E+02;
  4.5996618E-01;  9.9999998E-03;  1.6000187E-01;1765; -2.9703297E-02;  0.0000000E+00;  1.6668701E-03;  1.0003138E+03;  4.0000036E-01;  2.5994269E+02;3; -1.7863504E+01;  0.0000000E+00;  1.2431679E+00;0; -2.0907599E-01;  1.0006854E+04;  0.0000000E+00; -8.1127823E-08;  1.0000000E+04;  0.0000000E+00;  9.9994014E+03; -2.3316646E-01;  0.0000000E+00;  2.4090469E-02;  2.8811768E+02;
  4.5996517E-01;  9.9999998E-03;  1.8000235E-01;1766; -3.0690562E-02;  0.0000000E+00;  2.1608095E-03;  1.0003187E+03;  4.0000039E-01;  2.6409070E+02;3; -1.8374025E+01;  0.0000000E+00;  1.6399634E+00;0; -2.1286798E-01;  1.0007114E+04;  0.0000000E+00;  5.9550551E-09;  1.0000000E+04;  0.0000000E+00;  9.9992373E+03; -2.4307655E-01;  0.0000000E+00;  3.0208573E-02;  3.6132559E+02;
  4.5996416E-01;  9.9999998E-03;  2.0000298E-01;1767; -3.1609774E-02;  0.0000000E+00;  2.8235801E-03;  1.0003226E+03;  4.0000045E-01;  2.6725110E+02;3; -1.8843882E+01;  0.0000000E+00;  2.1379356E+00;0; -2.1590030E-01;  1.0007396E+04;  0.0000000E+00;  2.0619970E-07;  1.0000000E+04;  0.0000000E+00;  9.9990391E+03; -2.5319532E-01;  0.0000000E+00;  3.7295010E-02;  4.5217700E+02;
  4.5996332E-01;  9.9999998E-03;  2.2000389E-01;1768; -3.2337852E-02;  0.0000000E+00;  3.6915974E-03;  1.0003264E+03;  4.0000045E-01;  2.7041150E+02;3; -1.9332150E+01;  0.0000000E+00;  2.6776488E+00;0; -2.1840978E-01;  1.0007682E+04;  0.0000000E+00;  1.6153749E-06;  1.0000000E+04;  0.0000000E+00;  9.9988291E+03; -2.6281235E-01;  0.0000000E+00;  4.4402573E-02;  5.4751990E+02;
  4.5996279E-01;  9.9999998E-03;  2.4000515E-01;1769; -3.2742247E-02;  0.0000000E+00;  4.7876136E-03;  1.0003308E+03;  4.0000036E-01;  2.7406570E+02;3; -1.9956173E+01;  0.0000000E+00;  3.2988281E+00;0; -2.2074667E-01;  1.0007950E+04;  0.0000000E+00;  6.9303010E-06;  1.0000000E+04;  0.0000000E+00;  9.9986455E+03; -2.7127743E-01;  0.0000000E+00;  5.0530761E-02;  6.2989111E+02;
  4.5996276E-01;  9.9999998E-03;  2.6000702E-01;1770; -3.2709695E-02;  0.0000000E+00;  6.1979648E-03;  1.0003350E+03;  4.0000045E-01;  2.7752240E+02;3; -2.0882917E+01;  0.0000000E+00;  3.9865515E+00;0; -2.2241056E-01;  1.0008185E+04;  0.0000000E+00;  1.8273928E-05;  1.0000000E+04;  0.0000000E+00;  9.9984980E+03; -2.7818307E-01;  0.0000000E+00;  5.5772517E-02;  6.9649304E+02;
  4.5996341E-01;  9.9999998E-03;  2.8000966E-01;1771; -3.2145556E-02;  0.0000000E+00;  7.9299482E-03;  1.0003325E+03;  4.0000042E-01;  2.7544836E+02;3; -2.2142002E+01;  0.0000000E+00;  4.8289533E+00;0; -2.2060066E-01;  1.0008373E+04;  0.0000000E+00;  2.9179848E-05;  1.0000000E+04;  0.0000000E+00;  9.9982598E+03; -2.8344050E-01;  0.0000000E+00;  6.2839828E-02;  8.0671332E+02;
  4.5996487E-01;  9.9999998E-03;  3.0001259E-01;1772; -3.0993937E-02;  0.0000000E+00;  9.6398164E-03;  1.0003223E+03;  4.0000039E-01;  2.6695480E+02;3; -2.3508507E+01;  0.0000000E+00;  5.8860602E+00;0; -2.1725647E-01;  1.0008519E+04;  0.0000000E+00;  1.7813172E-05;  1.0000000E+04;  0.0000000E+00;  9.9979082E+03; -2.8723782E-01;  0.0000000E+00;  6.9981351E-02;  9.7276050E+02;
  4.7995919E-01;  9.9999998E-03;  1.6000268E-01;1796; -3.4800395E-02;  0.0000000E+00;  2.2528481E-03;  1.0003676E+03;  4.0000126E-01;  3.0448428E+02;3; -2.0233582E+01;  0.0000000E+00;  1.4975226E+00;0; -2.3717083E-01;  1.0008023E+04;  0.0000000E+00;  3.3435857E-08;  1.0000000E+04;  0.0000000E+00;  9.9992725E+03; -2.6467320E-01;  0.0000000E+00;  2.7502367E-02;  3.5367783E+02;
  4.7995785E-01;  9.9999998E-03;  1.8000320E-01;1797; -3.6046565E-02;  0.0000000E+00;  2.7693387E-03;  1.0003747E+03;  4.0000129E-01;  3.1041003E+02;3; -2.0827299E+01;  0.0000000E+00;  1.9201943E+00;0; -2.4272147E-01;  1.0008339E+04;  0.0000000E+00;  1.9262893E-07;  1.0000000E+04;  0.0000000E+00;  9.9990986E+03; -2.7636012E-01;  0.0000000E+00;  3.3638649E-02;  4.3010538E+02;
  4.7995651E-01;  9.9999998E-03;  2.0000386E-01;1798; -3.7236001E-02;  0.0000000E+00;  3.4438311E-03;  1.0003816E+03;  4.0000111E-01;  3.1613824E+02;3; -2.1364674E+01;  0.0000000E+00;  2.4309299E+00;0; -2.4751088E-01;  1.0008690E+04;  0.0000000E+00;  7.3717791E-07;  1.0000000E+04;  0.0000000E+00;  9.9988828E+03; -2.8866965E-01;  0.0000000E+00;  4.1158766E-02;  5.2894501E+02;
  4.7995529E-01;  9.9999998E-03;  2.2000480E-01;1799; -3.8218804E-02;  0.0000000E+00;  4.3496937E-03;  1.0003885E+03;  4.0000120E-01;  3.2186646E+02;3; -2.1919941E+01;  0.0000000E+00;  3.0565512E+00;0; -2.5188917E-01;  1.0009061E+04;  0.0000000E+00;  3.2771204E-06;  1.0000000E+04;  0.0000000E+00;  9.9986504E+03; -3.0079633E-01;  0.0000000E+00;  4.8907150E-02;  6.3402576E+02;
  4.7995442E-01;  9.9999998E-03;  2.4000618E-01;1800; -3.8823504E-02;  0.0000000E+00;  5.5491356E-03;  1.0003970E+03;  4.0000117E-01;  3.2897736E+02;3; -2.2644518E+01;  0.0000000E+00;  3.7494709E+00;0; -2.5635833E-01;  1.0009425E+04;  0.0000000E+00;  1.1400564E-05;  1.0000000E+04;  0.0000000E+00;  9.9984561E+03; -3.1191617E-01;  0.0000000E+00;  5.5557836E-02;  7.2167236E+02;
  4.7995412E-01;  9.9999998E-03;  2.6000834E-01;1801; -3.8907312E-02;  0.0000000E+00;  7.1994867E-03;  1.0004064E+03;  4.0000123E-01;  3.3668082E+02;3; -2.3735840E+01;  0.0000000E+00;  4.5827522E+00;0; -2.6004857E-01;  1.0009756E+04;  0.0000000E+00;  2.7160804E-05;  1.0000000E+04;  0.0000000E+00;  9.9983174E+03; -3.2143655E-01;  0.0000000E+00;  6.1387978E-02;  7.8537665E+02;
  4.7995469E-01;  9.9999998E-03;  2.8001162E-01;1802; -3.8338978E-02;  0.0000000E+00;  9.3650352E-03;  1.0004059E+03;  4.0000114E-01;  3.3628577E+02;3; -2.5277197E+01;  0.0000000E+00;  5.6058578E+00;0; -2.5782847E-01;  1.0010039E+04;  0.0000000E+00;  3.9651019E-05;  1.0000000E+04;  0.0000000E+00;  9.9980205E+03; -3.2911652E-01;  0.0000000E+00;  7.1288042E-02;  9.1952124E+02;
  4.7995624E-01;  9.9999998E-03;  3.0001542E-01;1803; -3.7071854E-02;  0.0000000E+00;  1.1461254E-02;  1.0003916E+03;  4.0000117E-01;  3.2443430E+02;3; -2.7012421E+01;  0.0000000E+00;  6.7546091E+00;0; -2.5290489E-01;  1.0010271E+04;  0.0000000E+00;  1.6261840E-05;  1.0000000E+04;  0.0000000E+00;  9.9975039E+03; -3.3504713E-01;  0.0000000E+00;  8.2142249E-02;  1.1623289E+03;
  4.9995089E-01;  9.9999998E-03;  1.6000395E-01;1827; -4.0617991E-02;  0.0000000E+00;  3.1867446E-03;  1.0004232E+03;  4.0000281E-01;  3.5060596E+02;3; -2.2815214E+01;  0.0000000E+00;  1.8723289E+00;0; -2.6431522E-01;  1.0009252E+04;  0.0000000E+00;  6.9224990E-07;  1.0000000E+04;  0.0000000E+00;  9.9990781E+03; -2.9643959E-01;  0.0000000E+00;  3.2124370E-02;  4.4806589E+02;
  4.9994919E-01;  9.9999998E-03;  1.8000454E-01;1828; -4.2163625E-02;  0.0000000E+00;  3.7185990E-03;  1.0004333E+03;  4.0000275E-01;  3.5900076E+02;3; -2.3496799E+01;  0.0000000E+00;  2.3069868E+00;0; -2.7204320E-01;  1.0009624E+04;  0.0000000E+00;  1.0263323E-06;  1.0000000E+04;  0.0000000E+00;  9.9989082E+03; -3.0982226E-01;  0.0000000E+00;  3.7779052E-02;  5.2569373E+02;
  4.9994740E-01;  9.9999998E-03;  2.0000525E-01;1829; -4.3679651E-02;  0.0000000E+00;  4.3780175E-03;  1.0004433E+03;  4.0000284E-01;  3.6729678E+02;3; -2.4119457E+01;  0.0000000E+00;  2.8157880E+00;0; -2.7907309E-01;  1.0010051E+04;  0.0000000E+00;  2.2359909E-06;  1.0000000E+04;  0.0000000E+00;  9.9986758E+03; -3.2435137E-01;  0.0000000E+00;  4.5278292E-02;  6.3085571E+02;
  4.9994570E-01;  9.9999998E-03;  2.2000617E-01;1830; -4.4986397E-02;  0.0000000E+00;  5.2530449E-03;  1.0004542E+03;  4.0000281E-01;  3.7628415E+02;3; -2.4749079E+01;  0.0000000E+00;  3.4555573E+00;0; -2.8594255E-01;  1.0010517E+04;  0.0000000E+00;  7.0510423E-06;  1.0000000E+04;  0.0000000E+00;  9.9984297E+03; -3.3915800E-01;  0.0000000E+00;  5.3215444E-02;  7.4336578E+02;
  4.9994439E-01;  9.9999998E-03;  2.4000758E-01;1831; -4.5869436E-02;  0.0000000E+00;  6.4936359E-03;  1.0004683E+03;  4.0000284E-01;  3.8793808E+02;3; -2.5594118E+01;  0.0000000E+00;  4.2248073E+00;0; -2.9351103E-01;  1.0010988E+04;  0.0000000E+00;  2.0636813E-05;  1.0000000E+04;  0.0000000E+00;  9.9982422E+03; -3.5325325E-01;  0.0000000E+00;  5.9742197E-02;  8.2898291E+02;
  4.9994364E-01;  9.9999998E-03;  2.6000991E-01;1832; -4.6157073E-02;  0.0000000E+00;  8.3538415E-03;  1.0004858E+03;  4.0000281E-01;  4.0245615E+02;3; -2.6887550E+01;  0.0000000E+00;  5.2406144E+00;0; -3.0065536E-01;  1.0011432E+04;  0.0000000E+00;  4.4398555E-05;  1.0000000E+04;  0.0000000E+00;  9.9981504E+03; -3.6584699E-01;  0.0000000E+00;  6.5191641E-02;  8.6899451E+02;
  4.9994391E-01;  9.9999998E-03;  2.8001398E-01;1833; -4.5660526E-02;  0.0000000E+00;  1.1051278E-02;  1.0004901E+03;  4.0000287E-01;  4.0601160E+02;3; -2.8753075E+01;  0.0000000E+00;  6.5482402E+00;0; -2.9842907E-01;  1.0011829E+04;  0.0000000E+00;  5.8487229E-05;  1.0000000E+04;  0.0000000E+00;  9.9978350E+03; -3.7650669E-01;  0.0000000E+00;  7.8077629E-02;  1.0074115E+03;
  4.9994540E-01;  9.9999998E-03;  3.0001894E-01;1834; -4.4349864E-02;  0.0000000E+00;  1.3677165E-02;  1.0004708E+03;  4.0000278E-01;  3.9011087E+02;3; -3.0939980E+01;  0.0000000E+00;  7.8073883E+00;0; -2.9037547E-01;  1.0012168E+04;  0.0000000E+00;  1.3545042E-05;  1.0000000E+04;  0.0000000E+00;  9.9971104E+03; -3.8515744E-01;  0.0000000E+00;  9.4781980E-02;  1.3476592E+03;
  5.1994109E-01;  9.9999998E-03;  1.6000587E-01;1858; -4.7207676E-02;  0.0000000E+00;  4.6192929E-03;  1.0004811E+03;  4.0000787E-01;  3.9860388E+02;3; -2.5603189E+01;  0.0000000E+00;  2.4237592E+00;0; -2.8693306E-01;  1.0010445E+04;  0.0000000E+00;  2.4953260E-06;  1.0000000E+04;  0.0000000E+00;  9.9987881E+03; -3.2578373E-01;  0.0000000E+00;  3.8850665E-02;  5.8734406E+02;
  5.1993901E-01;  9.9999998E-03;  1.8000662E-01;1859; -4.9088281E-02;  0.0000000E+00;  5.1815724E-03;  1.0004938E+03;  4.0000775E-01;  4.0907266E+02;3; -2.6380789E+01;  0.0000000E+00;  2.8244023E+00;0; -2.9710585E-01;  1.0010873E+04;  0.0000000E+00;  3.0328749E-06;  1.0000000E+04;  0.0000000E+00;  9.9986152E+03; -3.4057733E-01;  0.0000000E+00;  4.3471485E-02;  6.6766925E+02;
  5.1993674E-01;  9.9999998E-03;  2.0000742E-01;1860; -5.0975323E-02;  0.0000000E+00;  5.8111502E-03;  1.0005067E+03;  4.0000778E-01;  4.1973895E+02;3; -2.7093760E+01;  0.0000000E+00;  3.3211732E+00;0; -3.0670130E-01;  1.0011372E+04;  0.0000000E+00;  5.4680668E-06;  1.0000000E+04;  0.0000000E+00;  9.9983682E+03; -3.5707921E-01;  0.0000000E+00;  5.0377917E-02;  7.8104169E+02;
  5.1993448E-01;  9.9999998E-03;  2.2000833E-01;1861; -5.2681509E-02;  0.0000000E+00;  6.6002142E-03;  1.0005212E+03;  4.0000778E-01;  4.3178793E+02;3; -2.7825283E+01;  0.0000000E+00;  3.9436853E+00;0; -3.1653157E-01;  1.0011929E+04;  0.0000000E+00;  1.5220292E-05;  1.0000000E+04;  0.0000000E+00;  9.9981104E+03; -3.7440634E-01;  0.0000000E+00;  5.7874765E-02;  9.0126837E+02;
  5.1993251E-01;  9.9999998E-03;  2.4000970E-01;1862; -5.3944495E-02;  0.0000000E+00;  7.7912323E-03;  1.0005419E+03;  4.0000775E-01;  4.4897256E+02;3; -2.8808279E+01;  0.0000000E+00;  4.7320199E+00;0; -3.2808864E-01;  1.0012508E+04;  0.0000000E+00;  4.0669165E-05;  1.0000000E+04;  0.0000000E+00;  9.9979463E+03; -3.9145270E-01;  0.0000000E+00;  6.3364059E-02;  9.7652911E+02;
  5.1993114E-01;  9.9999998E-03;  2.6001206E-01;1863; -5.4557942E-02;  0.0000000E+00;  9.7543588E-03;  1.0005713E+03;  4.0000775E-01;  4.7326804E+02;3; -3.0359943E+01;  0.0000000E+00;  6.0153356E+00;0; -3.4068060E-01;  1.0013068E+04;  0.0000000E+00;  8.0869810E-05;  1.0000000E+04;  0.0000000E+00;  9.9979688E+03; -4.0725568E-01;  0.0000000E+00;  6.6575065E-02;  9.6193433E+02;
  5.1993072E-01;  9.9999998E-03;  2.8001690E-01;1864; -5.4287009E-02;  0.0000000E+00;  1.3058759E-02;  1.0005853E+03;  4.0000775E-01;  4.8492197E+02;3; -3.2610249E+01;  0.0000000E+00;  7.6938114E+00;0; -3.3941412E-01;  1.0013591E+04;  0.0000000E+00;  9.7717544E-05;  1.0000000E+04;  0.0000000E+00;  9.9977217E+03; -4.2117026E-01;  0.0000000E+00;  8.1756137E-02;  1.0635586E+03;
  5.1993167E-01;  9.9999998E-03;  3.0002329E-01;1865; -5.3108778E-02;  0.0000000E+00;  1.6392775E-02;  1.0005604E+03;  4.0000772E-01;  4.6428067E+02;3; -3.5400524E+01;  0.0000000E+00;  9.1809988E+00;0; -3.2635713E-01;  1.0014050E+04;  0.0000000E+00;  1.5253730E-05;  1.0000000E+04;  0.0000000E+00;  9.9967705E+03; -4.3288076E-01;  0.0000000E+00;  1.0652363E-01;  1.5055294E+03;
  5.3992981E-01;  9.9999998E-03;  1.6000864E-01;1889; -5.4562025E-02;  0.0000000E+00;  6.7209140E-03;  1.0005422E+03;  4.0002078E-01;  4.4916922E+02;3; -2.8565058E+01;  0.0000000E+00;  3.1904883E+00;0; -2.9988900E-01;  1.0011450E+04;  0.0000000E+00;  5.4798456E-06;  1.0000000E+04;  0.0000000E+00;  9.9983525E+03; -3.4880874E-01;  0.0000000E+00;  4.8919737E-02;  7.9420111E+02;
  5.3992724E-01;  9.9999998E-03;  1.8000972E-01;1890; -5.6793582E-02;  0.0000000E+00;  7.3706186E-03;  1.0005560E+03;  4.0002066E-01;  4.6062561E+02;3; -2.9458853E+01;  0.0000000E+00;  3.5516336E+00;0; -3.1242827E-01;  1.0011922E+04;  0.0000000E+00;  5.8353507E-06;  1.0000000E+04;  0.0000000E+00;  9.9981592E+03; -3.6446559E-01;  0.0000000E+00;  5.2037332E-02;  8.8645361E+02;
  5.3992450E-01;  9.9999998E-03;  2.0001075E-01;1891; -5.9083544E-02;  0.0000000E+00;  8.0004977E-03;  1.0005700E+03;  4.0002081E-01;  4.7227951E+02;3; -3.0267366E+01;  0.0000000E+00;  3.9715488E+00;0; -3.2455492E-01;  1.0012479E+04;  0.0000000E+00;  1.0893340E-05;  1.0000000E+04;  0.0000000E+00;  9.9978809E+03; -3.8231027E-01;  0.0000000E+00;  5.7755366E-02;  1.0173575E+03;
  5.3992164E-01;  9.9999998E-03;  2.2001171E-01;1892; -6.1251290E-02;  0.0000000E+00;  8.6544286E-03;  1.0005873E+03;  4.0002078E-01;  4.8650122E+02;3; -3.1123323E+01;  0.0000000E+00;  4.5393672E+00;0; -3.3747754E-01;  1.0013109E+04;  0.0000000E+00;  3.2424818E-05;  1.0000000E+04;  0.0000000E+00;  9.9975986E+03; -4.0151310E-01;  0.0000000E+00;  6.4035572E-02;  1.1511549E+03;
  5.3991896E-01;  9.9999998E-03;  2.4001297E-01;1893; -6.3013732E-02;  0.0000000E+00;  9.6871592E-03;  1.0006144E+03;  4.0002078E-01;  5.0901895E+02;3; -3.2278000E+01;  0.0000000E+00;  5.3596773E+00;0; -3.5372922E-01;  1.0013775E+04;  0.0000000E+00;  8.5412605E-05;  1.0000000E+04;  0.0000000E+00;  9.9974756E+03; -4.2093807E-01;  0.0000000E+00;  6.7208864E-02;  1.2091145E+03;
  5.3991652E-01;  9.9999998E-03;  2.6001522E-01;1894; -6.4119376E-02;  0.0000000E+00;  1.1590974E-02;  1.0006588E+03;  4.0002072E-01;  5.4575836E+02;3; -3.4108902E+01;  0.0000000E+00;  6.8232474E+00;0; -3.7365291E-01;  1.0014439E+04;  0.0000000E+00;  1.6143839E-04;  1.0000000E+04;  0.0000000E+00;  9.9976953E+03; -4.3952036E-01;  0.0000000E+00;  6.5867461E-02;  1.1025255E+03;
  5.3991497E-01;  9.9999998E-03;  2.8002071E-01;1895; -6.4316861E-02;  0.0000000E+00;  1.5495540E-02;  1.0006890E+03;  4.0002072E-01;  5.7084393E+02;3; -3.6864822E+01;  0.0000000E+00;  9.0473442E+00;0; -3.7541088E-01;  1.0015069E+04;  0.0000000E+00;  1.8242208E-04;  1.0000000E+04;  0.0000000E+00;  9.9976699E+03; -4.5642325E-01;  0.0000000E+00;  8.1012376E-02;  1.0959581E+03;
  5.3991461E-01;  9.9999998E-03;  3.0002880E-01;1896; -6.3583188E-02;  0.0000000E+00;  1.9699184E-02;  1.0006609E+03;  4.0002075E-01;  5.4753613E+02;3; -4.0449165E+01;  0.0000000E+00;  1.0945560E+01;0; -3.5558960E-01;  1.0015637E+04;  0.0000000E+00;  3.4450375E-05;  1.0000000E+04;  0.0000000E+00;  9.9965361E+03; -4.7104141E-01;  0.0000000E+00;  1.1545182E-01;  1.6145592E+03;
  5.5991715E-01;  9.9999998E-03;  1.6001245E-01;1920; -6.2558569E-02;  0.0000000E+00;  9.6619213E-03;  1.0006281E+03;  4.0005577E-01;  5.2037531E+02;3; -3.1642069E+01;  0.0000000E+00;  4.2772431E+00;0; -2.9659325E-01;  1.0012063E+04;  0.0000000E+00;  7.6329134E-06;  1.0000000E+04;  0.0000000E+00;  9.9977021E+03; -3.6048800E-01;  0.0000000E+00;  6.3894749E-02;  1.0987872E+03;
  5.5991423E-01;  9.9999998E-03;  1.8001407E-01;1921; -6.5120302E-02;  0.0000000E+00;  1.0514402E-02;  1.0006401E+03;  4.0005577E-01;  5.3025146E+02;3; -3.2645885E+01;  0.0000000E+00;  4.5341449E+00;0; -3.1093204E-01;  1.0012553E+04;  0.0000000E+00;  6.6220673E-06;  1.0000000E+04;  0.0000000E+00;  9.9974502E+03; -3.7615934E-01;  0.0000000E+00;  6.5227315E-02;  1.2236378E+03;
  5.5991095E-01;  9.9999998E-03;  2.0001554E-01;1922; -6.7817196E-02;  0.0000000E+00;  1.1215880E-02;  1.0006522E+03;  4.0005577E-01;  5.4032520E+02;3; -3.3587132E+01;  0.0000000E+00;  4.8443937E+00;0; -3.2508639E-01;  1.0013141E+04;  0.0000000E+00;  1.7934786E-05;  1.0000000E+04;  0.0000000E+00;  9.9971035E+03; -3.9426017E-01;  0.0000000E+00;  6.9173791E-02;  1.3914830E+03;
  5.5990744E-01;  9.9999998E-03;  2.2001675E-01;1923; -7.0481367E-02;  0.0000000E+00;  1.1763888E-02;  1.0006686E+03;  4.0005592E-01;  5.5395428E+02;3; -3.4575302E+01;  0.0000000E+00;  5.3030939E+00;0; -3.4068173E-01;  1.0013802E+04;  0.0000000E+00;  6.7615263E-05;  1.0000000E+04;  0.0000000E+00;  9.9967734E+03; -4.1407120E-01;  0.0000000E+00;  7.3389463E-02;  1.5514948E+03;
  5.5990386E-01;  9.9999998E-03;  2.4001801E-01;1924; -7.2854377E-02;  0.0000000E+00;  1.2534816E-02;  1.0007003E+03;  4.0005583E-01;  5.8012616E+02;3; -3.5961365E+01;  0.0000000E+00;  6.0915298E+00;0; -3.6171088E-01;  1.0014508E+04;  0.0000000E+00;  1.8263891E-04;  1.0000000E+04;  0.0000000E+00;  9.9966992E+03; -4.3452713E-01;  0.0000000E+00;  7.2816260E-02;  1.5887938E+03;
  5.5990022E-01;  9.9999998E-03;  2.6002014E-01;1925; -7.4658953E-02;  0.0000000E+00;  1.4203432E-02;  1.0007609E+03;  4.0005574E-01;  6.3039581E+02;3; -3.8115139E+01;  0.0000000E+00;  7.7350354E+00;0; -3.9045343E-01;  1.0015221E+04;  0.0000000E+00;  3.3406608E-04;  1.0000000E+04;  0.0000000E+00;  9.9971973E+03; -4.5459086E-01;  0.0000000E+00;  6.4137436E-02;  1.3546512E+03;
  5.5989677E-01;  9.9999998E-03;  2.8002620E-01;1926; -7.5630695E-02;  0.0000000E+00;  1.8585242E-02;  1.0008143E+03;  4.0005577E-01;  6.7464105E+02;3; -4.1467945E+01;  0.0000000E+00;  1.0629442E+01;0; -3.9768469E-01;  1.0015914E+04;  0.0000000E+00;  3.5817397E-04;  1.0000000E+04;  0.0000000E+00;  9.9975713E+03; -4.7334406E-01;  0.0000000E+00;  7.5659350E-02;  1.1536099E+03;
  5.5989403E-01;  9.9999998E-03;  3.0003610E-01;1927; -7.5785354E-02;  0.0000000E+00;  2.3721769E-02;  1.0007874E+03;  4.0005577E-01;  6.5232092E+02;3; -4.6047268E+01;  0.0000000E+00;  1.3112857E+01;0; -3.7041098E-01;  1.0016550E+04;  0.0000000E+00;  9.0233458E-05;  1.0000000E+04;  0.0000000E+00;  9.9963936E+03; -4.8993981E-01;  0.0000000E+00;  1.1952882E-01;  1.6813903E+03;
  5.7990378E-01;  9.9999998E-03;  1.6001725E-01;1951; -7.0897728E-02;  0.0000000E+00;  1.3452169E-02;  1.0008110E+03;  4.0014893E-01;  6.7187354E+02;3; -3.4689625E+01;  0.0000000E+00;  5.7827005E+00;0; -2.6877478E-01;  1.0011997E+04;  0.0000000E+00;  3.9009915E-06;  1.0000000E+04;  0.0000000E+00;  9.9967666E+03; -3.5425964E-01;  0.0000000E+00;  8.5484862E-02;  1.5356584E+03;
  5.7990032E-01;  9.9999998E-03;  1.8001971E-01;1952; -7.3737450E-02;  0.0000000E+00;  1.4765257E-02;  1.0008162E+03;  4.0014896E-01;  6.7612024E+02;3; -3.5751884E+01;  0.0000000E+00;  6.0017953E+00;0; -2.8388855E-01;  1.0012480E+04;  0.0000000E+00; -6.0416608E-07;  1.0000000E+04;  0.0000000E+00;  9.9963877E+03; -3.6880338E-01;  0.0000000E+00;  8.4914833E-02;  1.7257771E+03;
  5.7989657E-01;  9.9999998E-03;  2.0002191E-01;1953; -7.6776817E-02;  0.0000000E+00;  1.5714720E-02;  1.0008206E+03;  4.0014896E-01;  6.7987317E+02;3; -3.6858429E+01;  0.0000000E+00;  6.0035758E+00;0; -2.9908794E-01;  1.0013045E+04;  0.0000000E+00;  2.5272808E-05;  1.0000000E+04;  0.0000000E+00;  9.9959131E+03; -3.8559890E-01;  0.0000000E+00;  8.6510964E-02;  1.9591992E+03;
  5.7989246E-01;  9.9999998E-03;  2.2002386E-01;1954; -7.9907946E-02;  0.0000000E+00;  1.6329337E-02;  1.0008312E+03;  4.0014890E-01;  6.8856421E+02;3; -3.8032341E+01;  0.0000000E+00;  6.2969637E+00;0; -3.1623578E-01;  1.0013671E+04;  0.0000000E+00;  1.3548075E-04;  1.0000000E+04;  0.0000000E+00;  9.9954951E+03; -4.0401608E-01;  0.0000000E+00;  8.7780304E-02;  2.1645867E+03;
  5.7988793E-01;  9.9999998E-03;  2.4002536E-01;1955; -8.2969561E-02;  0.0000000E+00;  1.6740356E-02;  1.0008635E+03;  4.0014893E-01;  7.1542725E+02;3; -3.9701725E+01;  0.0000000E+00;  6.9691539E+00;0; -3.4127223E-01;  1.0014333E+04;  0.0000000E+00;  3.7698407E-04;  1.0000000E+04;  0.0000000E+00;  9.9954814E+03; -4.2318976E-01;  0.0000000E+00;  8.1917517E-02;  2.1800283E+03;
  5.7988286E-01;  9.9999998E-03;  2.6002780E-01;1956; -8.5650891E-02;  0.0000000E+00;  1.8094985E-02;  1.0009382E+03;  4.0014893E-01;  7.7725189E+02;3; -4.2219959E+01;  0.0000000E+00;  8.8429966E+00;0; -3.7850854E-01;  1.0015010E+04;  0.0000000E+00;  6.7436637E-04;  1.0000000E+04;  0.0000000E+00;  9.9962939E+03; -4.4234040E-01;  0.0000000E+00;  6.3831873E-02;  1.8001348E+03;
  5.7987702E-01;  9.9999998E-03;  2.8003460E-01;1957; -8.7709539E-02;  0.0000000E+00;  2.2701595E-02;  1.0010163E+03;  4.0014887E-01;  8.4194055E+02;3; -4.6216763E+01;  0.0000000E+00;  1.2462888E+01;0; -3.9319065E-01;  1.0015679E+04;  0.0000000E+00;  6.9326255E-04;  1.0000000E+04;  0.0000000E+00;  9.9971826E+03; -4.6069038E-01;  0.0000000E+00;  6.7499720E-02;  1.3521124E+03;
  5.7987070E-01;  9.9999998E-03;  3.0004621E-01;1958; -8.9216322E-02;  0.0000000E+00;  2.8651241E-02;  1.0009977E+03;  4.0014887E-01;  8.2663257E+02;3; -5.1957695E+01;  0.0000000E+00;  1.5692765E+01;0; -3.5948664E-01;  1.0016298E+04;  0.0000000E+00;  2.0333298E-04;  1.0000000E+04;  0.0000000E+00;  9.9961885E+03; -4.7731307E-01;  0.0000000E+00;  1.1782642E-01;  1.7781727E+03;
  5.9989035E-01;  9.9999998E-03;  1.6002294E-01;1982; -7.9122514E-02;  0.0000000E+00;  1.8005552E-02;  1.0012830E+03;  4.0038553E-01;  1.0629636E+03;3; -3.7546600E+01;  0.0000000E+00;  7.5718665E+00;0; -2.0569378E-01;  1.0010908E+04;  0.0000000E+00; -1.2280146E-05;  1.0000000E+04;  0.0000000E+00;  9.9954727E+03; -3.2086486E-01;  0.0000000E+00;  1.1517107E-01;  2.1346685E+03;
  5.9988636E-01;  9.9999998E-03;  1.8002632E-01;1983; -8.2282998E-02;  0.0000000E+00;  1.9768665E-02;  1.0012745E+03;  4.0038544E-01;  1.0558529E+03;3; -3.8652664E+01;  0.0000000E+00;  7.6764808E+00;0; -2.2029555E-01;  1.0011330E+04;  0.0000000E+00; -2.2394697E-05;  1.0000000E+04;  0.0000000E+00;  9.9948848E+03; -3.3284640E-01;  0.0000000E+00;  1.1255085E-01;  2.4307700E+03;
  5.9988201E-01;  9.9999998E-03;  2.0002963E-01;1984; -8.5573964E-02;  0.0000000E+00;  2.1294845E-02;  1.0012648E+03;  4.0038550E-01;  1.0478533E+03;3; -3.9780003E+01;  0.0000000E+00;  7.7369175E+00;0; -2.3538399E-01;  1.0011802E+04;  0.0000000E+00;  3.2766708E-05;  1.0000000E+04;  0.0000000E+00;  9.9942197E+03; -3.4629798E-01;  0.0000000E+00;  1.1091399E-01;  2.7629922E+03;
  5.9987730E-01;  9.9999998E-03;  2.2003271E-01;1985; -8.8989608E-02;  0.0000000E+00;  2.2377985E-02;  1.0012633E+03;  4.0038556E-01;  1.0465693E+03;3; -4.1216831E+01;  0.0000000E+00;  7.6821384E+00;0; -2.5266907E-01;  1.0012306E+04;  0.0000000E+00;  2.5365892E-04;  1.0000000E+04;  0.0000000E+00;  9.9936875E+03; -3.6067066E-01;  0.0000000E+00;  1.0800158E-01;  3.0297344E+03;
  5.9987199E-01;  9.9999998E-03;  2.4003562E-01;1986; -9.2644416E-02;  0.0000000E+00;  2.2815624E-02;  1.0012900E+03;  4.0038547E-01;  1.0686918E+03;3; -4.3215954E+01;  0.0000000E+00;  8.1725435E+00;0; -2.7928185E-01;  1.0012821E+04;  0.0000000E+00;  7.1616430E-04;  1.0000000E+04;  0.0000000E+00;  9.9937051E+03; -3.7548965E-01;  0.0000000E+00;  9.6207790E-02;  3.0362285E+03;
  5.9986526E-01;  9.9999998E-03;  2.6003942E-01;1987; -9.6277259E-02;  0.0000000E+00;  2.3958696E-02;  1.0013705E+03;  4.0038541E-01;  1.1353555E+03;3; -4.6142471E+01;  0.0000000E+00;  1.0162600E+01;0; -3.2161871E-01;  1.0013345E+04;  0.0000000E+00;  1.2553488E-03;  1.0000000E+04;  0.0000000E+00;  9.9947861E+03; -3.9050347E-01;  0.0000000E+00;  6.8884768E-02;  2.5353906E+03;
  5.9985697E-01;  9.9999998E-03;  2.8004789E-01;1988; -9.9602319E-02;  0.0000000E+00;  2.8497545E-02;  1.0014613E+03;  4.0038532E-01;  1.2106112E+03;3; -5.0755432E+01;  0.0000000E+00;  1.4547318E+01;0; -3.4292957E-01;  1.0013868E+04;  0.0000000E+00;  1.2487588E-03;  1.0000000E+04;  0.0000000E+00;  9.9960713E+03; -4.0530732E-01;  0.0000000E+00;  6.2377758E-02;  1.8997328E+03;
  5.9984672E-01;  9.9999998E-03;  3.0006072E-01;1989; -1.0272285E-01;  0.0000000E+00;  3.4799881E-02;  1.0014579E+03;  4.0038523E-01;  1.2078459E+03;3; -5.7643242E+01;  0.0000000E+00;  1.8727722E+01;0; -3.0655551E-01;  1.0014362E+04;  0.0000000E+00;  3.8371459E-04;  1.0000000E+04;  0.0000000E+00;  9.9955117E+03; -4.1907725E-01;  0.0000000E+00;  1.1252175E-01;  2.1080532E+03;
  6.1987776E-01;  9.9999998E-03;  1.6002972E-01;2013; -8.6746082E-02;  0.0000000E+00;  2.3382269E-02;  1.0024270E+03;  4.0092716E-01;  2.0106611E+03;3; -4.0044083E+01;  0.0000000E+00;  9.5631189E+00;0; -9.4955340E-02;  1.0008408E+04;  0.0000000E+00; -4.3227796E-05;  1.0000000E+04;  0.0000000E+00;  9.9937930E+03; -2.4862011E-01;  0.0000000E+00;  1.5366477E-01;  2.9069604E+03;
  6.1987317E-01;  9.9999998E-03;  1.8003416E-01;2014; -9.0212673E-02;  0.0000000E+00;  2.5635825E-02;  1.0023980E+03;  4.0092707E-01;  1.9866624E+03;3; -4.1166027E+01;  0.0000000E+00;  9.5400581E+00;0; -1.0770099E-01;  1.0008705E+04;  0.0000000E+00; -5.8478163E-05;  1.0000000E+04;  0.0000000E+00;  9.9929170E+03; -2.5631905E-01;  0.0000000E+00;  1.4861806E-01;  3.3501655E+03;
  6.1986810E-01;  9.9999998E-03;  2.0003869E-01;2015; -9.3845479E-02;  0.0000000E+00;  2.7662832E-02;  1.0023669E+03;  4.0092716E-01;  1.9608859E+03;3; -4.2304989E+01;  0.0000000E+00;  9.5233335E+00;0; -1.2170447E-01;  1.0009006E+04;  0.0000000E+00;  4.5354602E-05;  1.0000000E+04;  0.0000000E+00;  9.9920010E+03; -2.6410782E-01;  0.0000000E+00;  1.4240335E-01;  3.8130347E+03;
  6.1986256E-01;  9.9999998E-03;  2.2004361E-01;2016; -9.7535208E-02;  0.0000000E+00;  2.9477129E-02;  1.0023472E+03;  4.0092710E-01;  1.9444917E+03;3; -4.3714695E+01;  0.0000000E+00;  9.6415367E+00;0; -1.3862325E-01;  1.0009291E+04;  0.0000000E+00;  4.2985231E-04;  1.0000000E+04;  0.0000000E+00;  9.9913262E+03; -2.7162027E-01;  0.0000000E+00;  1.3299702E-01;  4.1585781E+03;
  6.1985618E-01;  9.9999998E-03;  2.4004926E-01;2017; -1.0146725E-01;  0.0000000E+00;  3.0797772E-02;  1.0023610E+03;  4.0092704E-01;  1.9560466E+03;3; -4.6024811E+01;  0.0000000E+00;  1.0053493E+01;0; -1.6425626E-01;  1.0009553E+04;  0.0000000E+00;  1.1946831E-03;  1.0000000E+04;  0.0000000E+00;  9.9913408E+03; -2.7894908E-01;  0.0000000E+00;  1.1469282E-01;  4.1725269E+03;
  6.1984867E-01;  9.9999998E-03;  2.6005751E-01;2018; -1.0581480E-01;  0.0000000E+00;  3.2499760E-02;  1.0024225E+03;  4.0092701E-01;  2.0070070E+03;3; -4.9656982E+01;  0.0000000E+00;  1.1704440E+01;0; -2.0306695E-01;  1.0009813E+04;  0.0000000E+00;  2.0417101E-03;  1.0000000E+04;  0.0000000E+00;  9.9923057E+03; -2.8652123E-01;  0.0000000E+00;  8.3454281E-02;  3.7317139E+03;
  6.1983860E-01;  9.9999998E-03;  2.8006896E-01;2019; -1.1026894E-01;  0.0000000E+00;  3.6700387E-02;  1.0024954E+03;  4.0092680E-01;  2.0673496E+03;3; -5.4745499E+01;  0.0000000E+00;  1.6797316E+01;0; -2.2572696E-01;  1.0010076E+04;  0.0000000E+00;  1.9687549E-03;  1.0000000E+04;  0.0000000E+00;  9.9934912E+03; -2.9444554E-01;  0.0000000E+00;  6.8718575E-02;  3.1535508E+03;
  6.1982518E-01;  9.9999998E-03;  3.0008209E-01;2020; -1.1475334E-01;  0.0000000E+00;  4.2527474E-02;  1.0025103E+03;  4.0092668E-01;  2.0796946E+03;3; -6.2492931E+01;  0.0000000E+00;  2.2315481E+01;0; -1.9258112E-01;  1.0010333E+04;  0.0000000E+00;  5.9790339E-04;  1.0000000E+04;  0.0000000E+00;  9.9935371E+03; -3.0209950E-01;  0.0000000E+00;  1.0951838E-01;  3.0666721E+03;
  6.3986677E-01;  9.9999998E-03;  1.6003747E-01;2044; -9.3347788E-02;  0.0000000E+00;  2.9500093E-02;  1.0045964E+03;  4.0191978E-01;  3.8078699E+03;3; -4.2161057E+01;  0.0000000E+00;  1.1756193E+01;0;  7.3095143E-02;  1.0004229E+04;  0.0000000E+00; -7.9615915E-05;  1.0000000E+04;  0.0000000E+00;  9.9917744E+03; -1.2718354E-01;  0.0000000E+00;  2.0027868E-01;  3.8308638E+03;
  6.3986158E-01;  9.9999998E-03;  1.8004344E-01;2045; -9.7083852E-02;  0.0000000E+00;  3.2484189E-02;  1.0045402E+03;  4.0191972E-01;  3.7613540E+03;3; -4.3272842E+01;  0.0000000E+00;  1.1588425E+01;0;  6.3182637E-02;  1.0004341E+04;  0.0000000E+00; -9.4039751E-05;  1.0000000E+04;  0.0000000E+00;  9.9905479E+03; -1.2889169E-01;  0.0000000E+00;  1.9207433E-01;  4.4524565E+03;
  6.3985568E-01;  9.9999998E-03;  2.0004977E-01;2046; -1.0110261E-01;  0.0000000E+00;  3.5107344E-02;  1.0044820E+03;  4.0191960E-01;  3.7131594E+03;3; -4.4445492E+01;  0.0000000E+00;  1.1299751E+01;0;  5.0700769E-02;  1.0004403E+04;  0.0000000E+00;  7.2162489E-05;  1.0000000E+04;  0.0000000E+00;  9.9893350E+03; -1.2897775E-01;  0.0000000E+00;  1.7967851E-01;  5.0702319E+03;
  6.3984936E-01;  9.9999998E-03;  2.2005813E-01;2047; -1.0520138E-01;  0.0000000E+00;  3.7852433E-02;  1.0044376E+03;  4.0191975E-01;  3.6763223E+03;3; -4.5916592E+01;  0.0000000E+00;  1.1145557E+01;0;  3.4203902E-02;  1.0004392E+04;  0.0000000E+00;  6.3422346E-04;  1.0000000E+04;  0.0000000E+00;  9.9884648E+03; -1.2738384E-01;  0.0000000E+00;  1.6158774E-01;  5.5236421E+03;
  6.3984275E-01;  9.9999998E-03;  2.4007057E-01;2048; -1.0933762E-01;  0.0000000E+00;  4.1008092E-02;  1.0044198E+03;  4.0191960E-01;  3.6616069E+03;3; -4.8381992E+01;  0.0000000E+00;  1.1375628E+01;0;  1.2411430E-02;  1.0004330E+04;  0.0000000E+00;  1.6899660E-03;  1.0000000E+04;  0.0000000E+00;  9.9881729E+03; -1.2484118E-01;  0.0000000E+00;  1.3725261E-01;  5.6961982E+03;
  6.3983512E-01;  9.9999998E-03;  2.6008698E-01;2049; -1.1382254E-01;  0.0000000E+00;  4.4365339E-02;  1.0044150E+03;  4.0191954E-01;  3.6576567E+03;3; -5.2383305E+01;  0.0000000E+00;  1.3210675E+01;0; -1.1173032E-02;  1.0004245E+04;  0.0000000E+00;  2.7848347E-03;  1.0000000E+04;  0.0000000E+00;  9.9881582E+03; -1.2245372E-01;  0.0000000E+00;  1.1128069E-01;  5.7314551E+03;
  6.3982415E-01;  9.9999998E-03;  2.8010076E-01;2050; -1.1891253E-01;  0.0000000E+00;  4.7035299E-02;  1.0044345E+03;  4.0191942E-01;  3.6737544E+03;3; -5.7934250E+01;  0.0000000E+00;  1.8933756E+01;0; -3.6503732E-02;  1.0004168E+04;  0.0000000E+00;  2.5692554E-03;  1.0000000E+04;  0.0000000E+00;  9.9886230E+03; -1.2081899E-01;  0.0000000E+00;  8.4315255E-02;  5.5225254E+03;
  6.3980901E-01;  9.9999998E-03;  3.0011237E-01;2051; -1.2409277E-01;  0.0000000E+00;  5.1862665E-02;  1.0044699E+03;  4.0191907E-01;  3.7030859E+03;3; -6.6082726E+01;  0.0000000E+00;  2.6406528E+01;0; -7.8135580E-03;  1.0004100E+04;  0.0000000E+00;  7.2558405E-04;  1.0000000E+04;  0.0000000E+00;  9.9894082E+03; -1.1955222E-01;  0.0000000E+00;  1.1173867E-01;  5.0763501E+03;
  6.5985852E-01;  9.9999998E-03;  1.6004689E-01;2075; -9.8151177E-02;  0.0000000E+00;  3.6939990E-02;  1.0073102E+03;  4.0316758E-01;  6.0560625E+03;3; -4.3577110E+01;  0.0000000E+00;  1.4526251E+01;0;  2.9828885E-01;  9.9984258E+03;  0.0000000E+00; -1.0078179E-04;  1.0000000E+04;  0.0000000E+00;  9.9895459E+03;  4.5828741E-02;  0.0000000E+00;  2.5246012E-01;  4.8453960E+03;
  6.5985310E-01;  9.9999998E-03;  1.8005499E-01;2076; -1.0193104E-01;  0.0000000E+00;  4.0979210E-02;  1.0072239E+03;  4.0316752E-01;  5.9845615E+03;3; -4.4608292E+01;  0.0000000E+00;  1.4009432E+01;0;  2.9130927E-01;  9.9983135E+03;  0.0000000E+00; -1.0536185E-04;  1.0000000E+04;  0.0000000E+00;  9.9879512E+03;  5.1253621E-02;  0.0000000E+00;  2.4005565E-01;  5.6567964E+03;
  6.5984702E-01;  9.9999998E-03;  2.0006499E-01;2077; -1.0599188E-01;  0.0000000E+00;  4.5150451E-02;  1.0071358E+03;  4.0316769E-01;  5.9115791E+03;3; -4.5861439E+01;  0.0000000E+00;  1.3395219E+01;0;  2.8018019E-01;  9.9980977E+03;  0.0000000E+00;  1.1246874E-04;  1.0000000E+04;  0.0000000E+00;  9.9864141E+03;  5.9868049E-02;  0.0000000E+00;  2.2031213E-01;  6.4429092E+03;
  6.5984064E-01;  9.9999998E-03;  2.2007991E-01;2078; -1.1000203E-01;  0.0000000E+00;  5.0349213E-02;  1.0070601E+03;  4.0316769E-01;  5.8488677E+03;3; -4.7392490E+01;  0.0000000E+00;  1.2798429E+01;0;  2.6633397E-01;  9.9977754E+03;  0.0000000E+00;  7.8424031E-04;  1.0000000E+04;  0.0000000E+00;  9.9852305E+03;  7.1400635E-02;  0.0000000E+00;  1.9493333E-01;  7.0619956E+03;
  6.5983456E-01;  9.9999998E-03;  2.4010240E-01;2079; -1.1387920E-01;  0.0000000E+00;  5.6595944E-02;  1.0069879E+03;  4.0316772E-01;  5.7890200E+03;3; -5.0000572E+01;  0.0000000E+00;  1.2682444E+01;0;  2.5832921E-01;  9.9973721E+03;  0.0000000E+00;  1.9692774E-03;  1.0000000E+04;  0.0000000E+00;  9.9841914E+03;  8.4637158E-02;  0.0000000E+00;  1.7369205E-01;  7.5984331E+03;
  6.5982795E-01;  9.9999998E-03;  2.6012793E-01;2080; -1.1857443E-01;  0.0000000E+00;  5.9788223E-02;  1.0068759E+03;  4.0316781E-01;  5.6962856E+03;3; -5.4650150E+01;  0.0000000E+00;  1.3196079E+01;0;  2.5490016E-01;  9.9969316E+03;  0.0000000E+00;  3.0998262E-03;  1.0000000E+04;  0.0000000E+00;  9.9824033E+03;  9.8017715E-02;  0.0000000E+00;  1.5688244E-01;  8.5041377E+03;
  6.5981621E-01;  9.9999998E-03;  2.8014052E-01;2081; -1.2456267E-01;  0.0000000E+00;  5.8030263E-02;  1.0068367E+03;  4.0316787E-01;  5.6638931E+03;3; -6.0423401E+01;  0.0000000E+00;  1.9574266E+01;0;  2.0707512E-01;  9.9964893E+03;  0.0000000E+00;  2.6457987E-03;  1.0000000E+04;  0.0000000E+00;  9.9820605E+03;  1.1052660E-01;  0.0000000E+00;  9.6548527E-02;  8.7346406E+03;
  6.5980077E-01;  9.9999998E-03;  3.0014798E-01;2082; -1.2971823E-01;  0.0000000E+00;  6.2039461E-02;  1.0069119E+03;  4.0316755E-01;  5.7261108E+03;3; -6.8156494E+01;  0.0000000E+00;  3.1172077E+01;0;  2.3336744E-01;  9.9960713E+03;  0.0000000E+00;  5.8887224E-04;  1.0000000E+04;  0.0000000E+00;  9.9839873E+03;  1.2208791E-01;  0.0000000E+00;  1.1127954E-01;  7.7258369E+03;
  6.7985564E-01;  9.9999998E-03;  1.6005841E-01;2106; -1.0031669E-01;  0.0000000E+00;  4.6610482E-02;  1.0093391E+03;  4.0416327E-01;  7.7368149E+03;3; -4.4032749E+01;  0.0000000E+00;  1.8450397E+01;0;  5.6392092E-01;  9.9915596E+03;  0.0000000E+00; -9.1892514E-05;  1.0000000E+04;  0.0000000E+00;  9.9873076E+03;  2.5807622E-01;  0.0000000E+00;  3.0584469E-01;  5.8586831E+03;
  6.7985016E-01;  9.9999998E-03;  1.8006915E-01;2107; -1.0398108E-01;  0.0000000E+00;  5.2180734E-02;  1.0092242E+03;  4.0416336E-01;  7.6416133E+03;3; -4.4918430E+01;  0.0000000E+00;  1.7972404E+01;0;  5.5888033E-01;  9.9912168E+03;  0.0000000E+00; -8.2532802E-05;  1.0000000E+04;  0.0000000E+00;  9.9853691E+03;  2.7080667E-01;  0.0000000E+00;  2.8807366E-01;  6.8455142E+03;
  6.7984408E-01;  9.9999998E-03;  2.0008326E-01;2108; -1.0781270E-01;  0.0000000E+00;  5.8443777E-02;  1.0091085E+03;  4.0416363E-01;  7.5458188E+03;3; -4.5864689E+01;  0.0000000E+00;  1.7155884E+01;0;  5.4786259E-01;  9.9907441E+03;  0.0000000E+00;  1.4313130E-04;  1.0000000E+04;  0.0000000E+00;  9.9835459E+03;  2.8758904E-01;  0.0000000E+00;  2.6027355E-01;  7.7874009E+03;
  6.7983830E-01;  9.9999998E-03;  2.2010535E-01;2109; -1.1126635E-01;  0.0000000E+00;  6.6731922E-02;  1.0090024E+03;  4.0416375E-01;  7.4578267E+03;3; -4.7169655E+01;  0.0000000E+00;  1.6149481E+01;0;  5.3729123E-01;  9.9901523E+03;  0.0000000E+00;  7.7970244E-04;  1.0000000E+04;  0.0000000E+00;  9.9820264E+03;  3.0790436E-01;  0.0000000E+00;  2.2938688E-01;  8.5782715E+03;
  6.7983389E-01;  9.9999998E-03;  2.4013716E-01;2110; -1.1424201E-01;  0.0000000E+00;  7.4628867E-02;  1.0088762E+03;  4.0416402E-01;  7.3533418E+03;3; -5.0333221E+01;  0.0000000E+00;  1.4123155E+01;0;  5.4299080E-01;  9.9894678E+03;  0.0000000E+00;  1.8279462E-03;  1.0000000E+04;  0.0000000E+00;  9.9802002E+03;  3.3044553E-01;  0.0000000E+00;  2.1254525E-01;  9.5015078E+03;
  6.7982912E-01;  9.9999998E-03;  2.6016790E-01;2111; -1.1892801E-01;  0.0000000E+00;  7.4770272E-02;  1.0086798E+03;  4.0416437E-01;  7.1906890E+03;3; -5.6325127E+01;  0.0000000E+00;  1.2566059E+01;0;  5.4613882E-01;  9.9887334E+03;  0.0000000E+00;  2.7185779E-03;  1.0000000E+04;  0.0000000E+00;  9.9770195E+03;  3.5362849E-01;  0.0000000E+00;  1.9251032E-01;  1.1103353E+04;
  6.7981786E-01;  9.9999998E-03;  2.8017727E-01;2112; -1.2577513E-01;  0.0000000E+00;  6.8479285E-02;  1.0086153E+03;  4.0416479E-01;  7.1371631E+03;3; -6.2115234E+01;  0.0000000E+00;  2.0307098E+01;0;  4.7176191E-01;  9.9879844E+03;  0.0000000E+00;  2.0557498E-03;  1.0000000E+04;  0.0000000E+00;  9.9764697E+03;  3.7610811E-01;  0.0000000E+00;  9.5653802E-02;  1.1480848E+04;
  6.7980647E-01;  9.9999998E-03;  3.0018038E-01;2113; -1.2933934E-01;  0.0000000E+00;  7.1526527E-02;  1.0087437E+03;  4.0416446E-01;  7.2436230E+03;3; -6.9400253E+01;  0.0000000E+00;  3.4956665E+01;0;  4.9726558E-01;  9.9872813E+03;  0.0000000E+00;  3.1032233E-04;  1.0000000E+04;  0.0000000E+00;  9.9797256E+03;  3.9679077E-01;  0.0000000E+00;  1.0047481E-01;  9.8124082E+03;
  6.9986326E-01;  9.9999998E-03;  1.6007048E-01;2137; -9.7688131E-02;  0.0000000E+00;  5.7976305E-02;  1.0102535E+03;  4.0470791E-01;  8.4941084E+03;3; -4.3840717E+01;  0.0000000E+00;  2.4767237E+01;0;  8.3424091E-01;  9.9847451E+03;  0.0000000E+00; -5.8418434E-05;  1.0000000E+04;  0.0000000E+00;  9.9852783E+03;  4.7915816E-01;  0.0000000E+00;  3.5508278E-01;  6.7719800E+03;
  6.9985807E-01;  9.9999998E-03;  1.8008384E-01;2138; -1.0118529E-01;  0.0000000E+00;  6.5395363E-02;  1.0101151E+03;  4.0470830E-01;  8.3795527E+03;3; -4.4550800E+01;  0.0000000E+00;  2.4657682E+01;0;  8.2943833E-01;  9.9841924E+03;  0.0000000E+00; -4.1965759E-05;  1.0000000E+04;  0.0000000E+00;  9.9830820E+03;  4.9844238E-01;  0.0000000E+00;  3.3099592E-01;  7.8971909E+03;
  6.9985259E-01;  9.9999998E-03;  2.0010164E-01;2139; -1.0466969E-01;  0.0000000E+00;  7.3775277E-02;  1.0099784E+03;  4.0470859E-01;  8.2662803E+03;3; -4.5145603E+01;  0.0000000E+00;  2.3969858E+01;0;  8.1651318E-01;  9.9835234E+03;  0.0000000E+00;  1.3662309E-04;  1.0000000E+04;  0.0000000E+00;  9.9810381E+03;  5.2154613E-01;  0.0000000E+00;  2.9496706E-01;  8.9587188E+03;
  6.9984800E-01;  9.9999998E-03;  2.2012888E-01;2140; -1.0704337E-01;  0.0000000E+00;  8.3854251E-02;  1.0098511E+03;  4.0470892E-01;  8.1608105E+03;3; -4.5581184E+01;  0.0000000E+00;  2.1356674E+01;0;  8.0639625E-01;  9.9827490E+03;  0.0000000E+00;  6.0496829E-04;  1.0000000E+04;  0.0000000E+00;  9.9792822E+03;  5.4767734E-01;  0.0000000E+00;  2.5871891E-01;  9.8728125E+03;
  6.9984591E-01;  9.9999998E-03;  2.4016580E-01;2141; -1.0796715E-01;  0.0000000E+00;  9.0956695E-02;  1.0096947E+03;  4.0470934E-01;  8.0312437E+03;3; -4.8175198E+01;  0.0000000E+00;  1.5980849E+01;0;  8.1758273E-01;  9.9819063E+03;  0.0000000E+00;  1.3326354E-03;  1.0000000E+04;  0.0000000E+00;  9.9770098E+03;  5.7574791E-01;  0.0000000E+00;  2.4183480E-01;  1.1018108E+04;
  6.9984353E-01;  9.9999998E-03;  2.6019827E-01;2142; -1.1147841E-01;  0.0000000E+00;  8.7823875E-02;  1.0094626E+03;  4.0470979E-01;  7.8389683E+03;3; -5.5023273E+01;  0.0000000E+00;  1.3335814E+01;0;  8.1846619E-01;  9.9810176E+03;  0.0000000E+00;  1.8895406E-03;  1.0000000E+04;  0.0000000E+00;  9.9732803E+03;  6.0459721E-01;  0.0000000E+00;  2.1386899E-01;  1.2903828E+04;
  6.9983727E-01;  9.9999998E-03;  2.8020355E-01;2143; -1.1558561E-01;  0.0000000E+00;  7.7311821E-02;  1.0094254E+03;  4.0471026E-01;  7.8081567E+03;3; -6.0022945E+01;  0.0000000E+00;  2.2223787E+01;0;  7.1244466E-01;  9.9801191E+03;  0.0000000E+00;  1.3902045E-03;  1.0000000E+04;  0.0000000E+00;  9.9734121E+03;  6.3268304E-01;  0.0000000E+00;  7.9761632E-02;  1.2984331E+04;
  6.9983852E-01;  9.9999998E-03;  3.0020446E-01;2144; -1.1144996E-01;  0.0000000E+00;  8.0234148E-02;  1.0096028E+03;  4.0471008E-01;  7.9551040E+03;3; -6.2236164E+01;  0.0000000E+00;  3.8757725E+01;0;  7.4497563E-01;  9.9792959E+03;  0.0000000E+00;  4.7412494E-04;  1.0000000E+04;  0.0000000E+00;  9.9777412E+03;  6.5765357E-01;  0.0000000E+00;  8.7322071E-02;  1.0773906E+04;
  7.1989506E-01;  9.9999998E-03;  1.6007984E-01;2168; -7.9183951E-02;  0.0000000E+00;  6.7257874E-02;  1.0104939E+03;  4.0494630E-01;  8.6930596E+03;3; -3.9641396E+01;  0.0000000E+00;  3.1090334E+01;0;  1.0607744E+00;  9.9793623E+03;  0.0000000E+00; -2.2344735E-05;  1.0000000E+04;  0.0000000E+00;  9.9836406E+03;  6.6541082E-01;  0.0000000E+00;  3.9536363E-01;  7.5094600E+03;
  7.1989030E-01;  9.9999998E-03;  1.8009497E-01;2169; -8.2789250E-02;  0.0000000E+00;  7.6091066E-02;  1.0103395E+03;  4.0494671E-01;  8.5651758E+03;3; -4.0733109E+01;  0.0000000E+00;  3.1558758E+01;0;  1.0544012E+00;  9.9786543E+03;  0.0000000E+00; -9.0321246E-06;  1.0000000E+04;  0.0000000E+00;  9.9812783E+03;  6.8985599E-01;  0.0000000E+00;  3.6454511E-01;  8.7249688E+03;
  7.1988535E-01;  9.9999998E-03;  2.0011477E-01;2170; -8.6261809E-02;  0.0000000E+00;  8.5844822E-02;  1.0101907E+03;  4.0494710E-01;  8.4419326E+03;3; -4.1604630E+01;  0.0000000E+00;  3.1400478E+01;0;  1.0368102E+00;  9.9778574E+03;  0.0000000E+00;  9.6242038E-05;  1.0000000E+04;  0.0000000E+00;  9.9791191E+03;  7.1682727E-01;  0.0000000E+00;  3.1998283E-01;  9.8536475E+03;
  7.1988112E-01;  9.9999998E-03;  2.2014444E-01;2171; -8.8669389E-02;  0.0000000E+00;  9.6911438E-02;  1.0100569E+03;  4.0494743E-01;  8.3310342E+03;3; -4.1813084E+01;  0.0000000E+00;  2.7932261E+01;0;  1.0218990E+00;  9.9770068E+03;  0.0000000E+00;  3.6842347E-04;  1.0000000E+04;  0.0000000E+00;  9.9773066E+03;  7.4508888E-01;  0.0000000E+00;  2.7681014E-01;  1.0804836E+04;
  7.1987903E-01;  9.9999998E-03;  2.4018325E-01;2172; -8.8715471E-02;  0.0000000E+00;  1.0256286E-01;  1.0098981E+03;  4.0494773E-01;  8.1995947E+03;3; -4.1649841E+01;  0.0000000E+00;  1.8896061E+01;0;  1.0280613E+00;  9.9761387E+03;  0.0000000E+00;  7.9353992E-04;  1.0000000E+04;  0.0000000E+00;  9.9750225E+03;  7.7364677E-01;  0.0000000E+00;  2.5441450E-01;  1.1962204E+04;
  7.1987933E-01;  9.9999998E-03;  2.6021484E-01;2173; -8.7403633E-02;  0.0000000E+00;  9.5754273E-02;  1.0096844E+03;  4.0494838E-01;  8.0225317E+03;3; -4.2978580E+01;  0.0000000E+00;  1.4552207E+01;0;  1.0083892E+00;  9.9752627E+03;  0.0000000E+00;  1.1735258E-03;  1.0000000E+04;  0.0000000E+00;  9.9716455E+03;  8.0180985E-01;  0.0000000E+00;  2.0657936E-01;  1.3698503E+04;
  7.1988147E-01;  9.9999998E-03;  2.8021812E-01;2174; -8.4066041E-02;  0.0000000E+00;  8.3667368E-02;  1.0097049E+03;  4.0494889E-01;  8.0395171E+03;3; -4.3501717E+01;  0.0000000E+00;  2.5122002E+01;0;  8.7718272E-01;  9.9744170E+03;  0.0000000E+00;  1.1459442E-03;  1.0000000E+04;  0.0000000E+00;  9.9728633E+03;  8.2830453E-01;  0.0000000E+00;  4.8878171E-02;  1.3266903E+04;
  7.1988636E-01;  9.9999998E-03;  3.0021986E-01;2175; -7.7981263E-02;  0.0000000E+00;  8.7343387E-02;  1.0099083E+03;  4.0494856E-01;  8.2079883E+03;3; -4.2688839E+01;  0.0000000E+00;  4.3176392E+01;0;  9.2158437E-01;  9.9736611E+03;  0.0000000E+00;  5.4413348E-04;  1.0000000E+04;  0.0000000E+00;  9.9776416E+03;  8.5093093E-01;  0.0000000E+00;  7.0653461E-02;  1.0810802E+04;
  7.3993403E-01;  9.9999998E-03;  1.6008523E-01;2199; -5.0570350E-02;  0.0000000E+00;  7.1687736E-02;  1.0105193E+03;  4.0504017E-01;  8.7137725E+03;3; -2.5950207E+01;  0.0000000E+00;  3.2949371E+01;0;  1.2033827E+00;  9.9764033E+03;  0.0000000E+00; -5.6909397E-07;  1.0000000E+04;  0.0000000E+00;  9.9824678E+03;  7.7938008E-01;  0.0000000E+00;  4.2400259E-01;  8.0372568E+03;
  7.3993075E-01;  9.9999998E-03;  1.8010101E-01;2200; -5.3015072E-02;  0.0000000E+00;  8.0728382E-02;  1.0103565E+03;  4.0504050E-01;  8.5789805E+03;3; -2.6648642E+01;  0.0000000E+00;  3.3175781E+01;0;  1.1938596E+00;  9.9756055E+03;  0.0000000E+00;  5.6965464E-06;  1.0000000E+04;  0.0000000E+00;  9.9800283E+03;  8.0695492E-01;  0.0000000E+00;  3.8690466E-01;  9.2988047E+03;
  7.3992741E-01;  9.9999998E-03;  2.0012121E-01;2201; -5.5276368E-02;  0.0000000E+00;  9.0348288E-02;  1.0102043E+03;  4.0504095E-01;  8.4528779E+03;3; -2.7105906E+01;  0.0000000E+00;  3.2538311E+01;0;  1.1690520E+00;  9.9747617E+03;  0.0000000E+00;  4.9438910E-05;  1.0000000E+04;  0.0000000E+00;  9.9778477E+03;  8.3519483E-01;  0.0000000E+00;  3.3385718E-01;  1.0450267E+04;
  7.3992467E-01;  9.9999998E-03;  2.2015099E-01;2202; -5.6739304E-02;  0.0000000E+00;  1.0092950E-01;  1.0100753E+03;  4.0504131E-01;  8.3460322E+03;3; -2.7008205E+01;  0.0000000E+00;  2.8644011E+01;0;  1.1421525E+00;  9.9739209E+03;  0.0000000E+00;  1.6930560E-04;  1.0000000E+04;  0.0000000E+00;  9.9761270E+03;  8.6236656E-01;  0.0000000E+00;  2.7978599E-01;  1.1370343E+04;
  7.3992342E-01;  9.9999998E-03;  2.4018946E-01;2203; -5.6451850E-02;  0.0000000E+00;  1.0542836E-01;  1.0099376E+03;  4.0504181E-01;  8.2319775E+03;3; -2.6309240E+01;  0.0000000E+00;  1.9061464E+01;0;  1.1280700E+00;  9.9731270E+03;  0.0000000E+00;  3.7732339E-04;  1.0000000E+04;  0.0000000E+00;  9.9741807E+03;  8.8734704E-01;  0.0000000E+00;  2.4072297E-01;  1.2382400E+04;
  7.3992407E-01;  9.9999998E-03;  2.6022100E-01;2204; -5.4843303E-02;  0.0000000E+00;  9.8179191E-02;  1.0097654E+03;  4.0504241E-01;  8.0892861E+03;3; -2.6587185E+01;  0.0000000E+00;  1.5165180E+01;0;  1.0821340E+00;  9.9723877E+03;  0.0000000E+00;  6.0235726E-04;  1.0000000E+04;  0.0000000E+00;  9.9714912E+03;  9.0975791E-01;  0.0000000E+00;  1.7237608E-01;  1.3801849E+04;
  7.3992616E-01;  9.9999998E-03;  2.8022552E-01;2205; -5.2146502E-02;  0.0000000E+00;  8.7096937E-02;  1.0098281E+03;  4.0504265E-01;  8.1412280E+03;3; -2.6593819E+01;  0.0000000E+00;  2.7090647E+01;0;  9.3820894E-01;  9.9717266E+03;  0.0000000E+00;  6.1586034E-04;  1.0000000E+04;  0.0000000E+00;  9.9733750E+03;  9.2926353E-01;  0.0000000E+00;  8.9453971E-03;  1.3046488E+04;
  7.3992985E-01;  9.9999998E-03;  3.0022919E-01;2206; -4.7751952E-02;  0.0000000E+00;  9.2235900E-02;  1.0100448E+03;  4.0504235E-01;  8.3207529E+03;3; -2.5439869E+01;  0.0000000E+00;  4.6507454E+01;0;  9.9675071E-01;  9.9711523E+03;  0.0000000E+00;  1.4336704E-04;  1.0000000E+04;  0.0000000E+00;  9.9782324E+03;  9.4535369E-01;  0.0000000E+00;  5.1397022E-02;  1.0520296E+04;
  7.5996464E-01;  9.9999998E-03;  1.6008866E-01;2230; -2.7872106E-02;  0.0000000E+00;  7.4357599E-02;  1.0105459E+03;  4.0507555E-01;  8.7353564E+03;3; -1.4916313E+01;  0.0000000E+00;  3.3854198E+01;0;  1.2540662E+00;  9.9759072E+03;  0.0000000E+00;  5.4809157E-06;  1.0000000E+04;  0.0000000E+00;  9.9817490E+03;  8.1293660E-01;  0.0000000E+00;  4.4112968E-01;  8.3627100E+03;
  7.5996280E-01;  9.9999998E-03;  1.8010464E-01;2231; -2.9196259E-02;  0.0000000E+00;  8.3297700E-02;  1.0103810E+03;  4.0507591E-01;  8.5987939E+03;3; -1.5176534E+01;  0.0000000E+00;  3.3727261E+01;0;  1.2405889E+00;  9.9750859E+03;  0.0000000E+00;  6.8817326E-06;  1.0000000E+04;  0.0000000E+00;  9.9792900E+03;  8.4130305E-01;  0.0000000E+00;  3.9928579E-01;  9.6395791E+03;
  7.5996095E-01;  9.9999998E-03;  2.0012476E-01;2232; -3.0308500E-02;  0.0000000E+00;  9.2511609E-02;  1.0102302E+03;  4.0507650E-01;  8.4738838E+03;3; -1.5227614E+01;  0.0000000E+00;  3.2568810E+01;0;  1.2088460E+00;  9.9742578E+03;  0.0000000E+00;  1.7077469E-05;  1.0000000E+04;  0.0000000E+00;  9.9771191E+03;  8.6850822E-01;  0.0000000E+00;  3.4033778E-01;  1.0794079E+04;
  7.5995958E-01;  9.9999998E-03;  2.2015415E-01;2233; -3.0848442E-02;  0.0000000E+00;  1.0238148E-01;  1.0101093E+03;  4.0507689E-01;  8.3737578E+03;3; -1.4877143E+01;  0.0000000E+00;  2.8122408E+01;0;  1.1709738E+00;  9.9734883E+03;  0.0000000E+00;  4.8669110E-05;  1.0000000E+04;  0.0000000E+00;  9.9754854E+03;  8.9249378E-01;  0.0000000E+00;  2.7847993E-01;  1.1680967E+04;
  7.5995916E-01;  9.9999998E-03;  2.4019186E-01;2234; -3.0364901E-02;  0.0000000E+00;  1.0592477E-01;  1.0099919E+03;  4.0507725E-01;  8.2764951E+03;3; -1.4175713E+01;  0.0000000E+00;  1.8502445E+01;0;  1.1387086E+00;  9.9728135E+03;  0.0000000E+00;  1.0889934E-04;  1.0000000E+04;  0.0000000E+00;  9.9738252E+03;  9.1207850E-01;  0.0000000E+00;  2.2663009E-01;  1.2567852E+04;
  7.5995988E-01;  9.9999998E-03;  2.6022345E-01;2235; -2.9106112E-02;  0.0000000E+00;  9.9069610E-02;  1.0098546E+03;  4.0507779E-01;  8.1627422E+03;3; -1.4077902E+01;  0.0000000E+00;  1.5492718E+01;0;  1.0731680E+00;  9.9722568E+03;  0.0000000E+00;  1.7275341E-04;  1.0000000E+04;  0.0000000E+00;  9.9716533E+03;  9.2723399E-01;  0.0000000E+00;  1.4593402E-01;  1.3745623E+04;
  7.5996131E-01;  9.9999998E-03;  2.8022942E-01;2236; -2.7452791E-02;  0.0000000E+00;  8.9327730E-02;  1.0099464E+03;  4.0507799E-01;  8.2387754E+03;3; -1.4078880E+01;  0.0000000E+00;  2.8477673E+01;0;  9.2386228E-01;  9.9717988E+03;  0.0000000E+00;  1.3086095E-04;  1.0000000E+04;  0.0000000E+00;  9.9739023E+03;  9.3861604E-01;  0.0000000E+00; -1.4753736E-02;  1.2803742E+04;
  7.5996363E-01;  9.9999998E-03;  3.0023494E-01;2237; -2.4672724E-02;  0.0000000E+00;  9.5712997E-02;  1.0101687E+03;  4.0507764E-01;  8.4229316E+03;3; -1.2945219E+01;  0.0000000E+00;  4.8725456E+01;0;  9.9183971E-01;  9.9714277E+03;  0.0000000E+00; -1.7394485E-04;  1.0000000E+04;  0.0000000E+00;  9.9786777E+03;  9.4727606E-01;  0.0000000E+00;  4.4563655E-02;  1.0297517E+04;
  7.7998751E-01;  9.9999998E-03;  1.6009039E-01;2261; -1.0738716E-02;  0.0000000E+00;  7.5602874E-02;  1.0106224E+03;  4.0508854E-01;  8.7981582E+03;3; -6.4831939E+00;  0.0000000E+00;  3.4123470E+01;0;  1.2352108E+00;  9.9771221E+03;  0.0000000E+00;  3.5444957E-06;  1.0000000E+04;  0.0000000E+00;  9.9814092E+03;  7.8647679E-01;  0.0000000E+00;  4.4873396E-01;  8.5166709E+03;
  7.7998680E-01;  9.9999998E-03;  1.8010634E-01;2262; -1.1166477E-02;  0.0000000E+00;  8.4352627E-02;  1.0104593E+03;  4.0508893E-01;  8.6630859E+03;3; -6.4540319E+00;  0.0000000E+00;  3.3716946E+01;0;  1.2179571E+00;  9.9763271E+03;  0.0000000E+00;  3.3092585E-06;  1.0000000E+04;  0.0000000E+00;  9.9789648E+03;  8.1385773E-01;  0.0000000E+00;  4.0409943E-01;  9.7910107E+03;
  7.7998620E-01;  9.9999998E-03;  2.0012625E-01;2263; -1.1418464E-02;  0.0000000E+00;  9.3192168E-02;  1.0103121E+03;  4.0508941E-01;  8.5411465E+03;3; -6.2887707E+00;  0.0000000E+00;  3.2204025E+01;0;  1.1808590E+00;  9.9755566E+03;  0.0000000E+00;  2.9248106E-06;  1.0000000E+04;  0.0000000E+00;  9.9768076E+03;  8.3870178E-01;  0.0000000E+00;  3.4215719E-01;  1.0940806E+04;
  7.7998590E-01;  9.9999998E-03;  2.2015522E-01;2264; -1.1343777E-02;  0.0000000E+00;  1.0266197E-01;  1.0101984E+03;  4.0508980E-01;  8.4469512E+03;3; -5.8982143E+00;  0.0000000E+00;  2.7683064E+01;0;  1.1354415E+00;  9.9748750E+03;  0.0000000E+00;  3.3870026E-06;  1.0000000E+04;  0.0000000E+00;  9.9752227E+03;  8.5887456E-01;  0.0000000E+00;  2.7656704E-01;  1.1807190E+04;
  7.7998608E-01;  9.9999998E-03;  2.4019247E-01;2265; -1.0800740E-02;  0.0000000E+00;  1.0585921E-01;  1.0100950E+03;  4.0509021E-01;  8.3613457E+03;3; -5.3310814E+00;  0.0000000E+00;  1.8208033E+01;0;  1.0920430E+00;  9.9743291E+03;  0.0000000E+00;  4.2892507E-06;  1.0000000E+04;  0.0000000E+00;  9.9737139E+03;  8.7329125E-01;  0.0000000E+00;  2.1875180E-01;  1.2625742E+04;
  7.7998662E-01;  9.9999998E-03;  2.6022431E-01;2266; -1.0026413E-02;  0.0000000E+00;  9.9550515E-02;  1.0099786E+03;  4.0509069E-01;  8.2649785E+03;3; -5.1620755E+00;  0.0000000E+00;  1.5944021E+01;0;  1.0158758E+00;  9.9739229E+03;  0.0000000E+00; -3.3888680E-06;  1.0000000E+04;  0.0000000E+00;  9.9718008E+03;  8.8222975E-01;  0.0000000E+00;  1.3364607E-01;  1.3680073E+04;
  7.7998739E-01;  9.9999998E-03;  2.8023148E-01;2267; -9.3069682E-03;  0.0000000E+00;  9.0903722E-02;  1.0100837E+03;  4.0509096E-01;  8.3519658E+03;3; -5.0551682E+00;  0.0000000E+00;  2.9742651E+01;0;  8.6564165E-01;  9.9736406E+03;  0.0000000E+00; -4.9762071E-05;  1.0000000E+04;  0.0000000E+00;  9.9741455E+03;  8.8696516E-01;  0.0000000E+00; -2.1323526E-02;  1.2683871E+04;
  7.7998853E-01;  9.9999998E-03;  3.0023819E-01;2268; -8.0382153E-03;  0.0000000E+00;  9.7968280E-02;  1.0103085E+03;  4.0509045E-01;  8.5381846E+03;3; -4.4216919E+00;  0.0000000E+00;  5.0263126E+01;0;  9.3685973E-01;  9.9734395E+03;  0.0000000E+00; -1.7477447E-04;  1.0000000E+04;  0.0000000E+00;  9.9787998E+03;  8.8936949E-01;  0.0000000E+00;  4.7490258E-02;  1.0228135E+04;
  8.0000579E-01;  9.9999998E-03;  1.6009068E-01;2292;  3.1829467E-03;  0.0000000E+00;  7.5702488E-02;  1.0107287E+03;  4.0509212E-01;  8.8854248E+03;3;  5.2958435E-01;  0.0000000E+00;  3.3948193E+01;0;  1.1791492E+00;  9.9790908E+03;  0.0000000E+00;  4.0416808E-07;  1.0000000E+04;  0.0000000E+00;  9.9813652E+03;  7.2989869E-01;  0.0000000E+00;  4.4925040E-01;  8.5337422E+03;
  8.0000609E-01;  9.9999998E-03;  1.8010651E-01;2293;  3.4828330E-03;  0.0000000E+00;  8.4270112E-02;  1.0105694E+03;  4.0509254E-01;  8.7535244E+03;3;  7.5640851E-01;  0.0000000E+00;  3.3385677E+01;0;  1.1591930E+00;  9.9783477E+03;  0.0000000E+00;  1.7467607E-07;  1.0000000E+04;  0.0000000E+00;  9.9789404E+03;  7.5547707E-01;  0.0000000E+00;  4.0371603E-01;  9.7963359E+03;
  8.0000651E-01;  9.9999998E-03;  2.0012617E-01;2294;  3.8867840E-03;  0.0000000E+00;  9.2873231E-02;  1.0104263E+03;  4.0509298E-01;  8.6349521E+03;3;  1.0319748E+00;  0.0000000E+00;  3.1724361E+01;0;  1.1190659E+00;  9.9776436E+03;  0.0000000E+00; -7.3604369E-08;  1.0000000E+04;  0.0000000E+00;  9.9767979E+03;  7.7775997E-01;  0.0000000E+00;  3.4130591E-01;  1.0939087E+04;
  8.0000699E-01;  9.9999998E-03;  2.2015491E-01;2295;  4.3719066E-03;  0.0000000E+00;  1.0231517E-01;  1.0103173E+03;  4.0509346E-01;  8.5447139E+03;3;  1.3720886E+00;  0.0000000E+00;  2.7514944E+01;0;  1.0701410E+00;  9.9770469E+03;  0.0000000E+00; -6.2225774E-07;  1.0000000E+04;  0.0000000E+00;  9.9752246E+03;  7.9470021E-01;  0.0000000E+00;  2.7544078E-01;  1.1799191E+04;
  8.0000752E-01;  9.9999998E-03;  2.4019215E-01;2296;  4.8523722E-03;  0.0000000E+00;  1.0573744E-01;  1.0102202E+03;  4.0509379E-01;  8.4642510E+03;3;  1.7145954E+00;  0.0000000E+00;  1.8355549E+01;0;  1.0229779E+00;  9.9765977E+03;  0.0000000E+00; -3.5866283E-06;  1.0000000E+04;  0.0000000E+00;  9.9737422E+03;  8.0539697E-01;  0.0000000E+00;  2.1758097E-01;  1.2604351E+04;
  8.0000788E-01;  9.9999998E-03;  2.6022425E-01;2297;  5.0971238E-03;  0.0000000E+00;  9.9851839E-02;  1.0101107E+03;  4.0509433E-01;  8.3736182E+03;3;  1.8682075E+00;  0.0000000E+00;  1.6512424E+01;0;  9.4405675E-01;  9.9762979E+03;  0.0000000E+00; -1.3228718E-05;  1.0000000E+04;  0.0000000E+00;  9.9718594E+03;  8.1034309E-01;  0.0000000E+00;  1.3371366E-01;  1.3640600E+04;
  8.0000806E-01;  9.9999998E-03;  2.8023219E-01;2298;  5.0704367E-03;  0.0000000E+00;  9.1705635E-02;  1.0102164E+03;  4.0509453E-01;  8.4610918E+03;3;  2.0198567E+00;  0.0000000E+00;  3.0431719E+01;0;  7.9460663E-01;  9.9761289E+03;  0.0000000E+00; -3.1010521E-05;  1.0000000E+04;  0.0000000E+00;  9.9741055E+03;  8.1103379E-01;  0.0000000E+00; -1.6427184E-02;  1.2687943E+04;
  8.0000812E-01;  9.9999998E-03;  3.0023947E-01;2299;  4.9807173E-03;  0.0000000E+00;  9.9126443E-02;  1.0104406E+03;  4.0509400E-01;  8.6467988E+03;3;  2.1656473E+00;  0.0000000E+00;  5.1185223E+01;0;  8.6595207E-01;  9.9760420E+03;  0.0000000E+00; -4.9805432E-05;  1.0000000E+04;  0.0000000E+00;  9.9786338E+03;  8.0945551E-01;  0.0000000E+00;  5.6496546E-02;  1.0294021E+04;
  8.2002276E-01;  9.9999998E-03;  1.6008979E-01;2323;  1.6228406E-02;  0.0000000E+00;  7.4860901E-02;  1.0108273E+03;  4.0508613E-01;  8.9659736E+03;3;  7.2331581E+00;  0.0000000E+00;  3.3449837E+01;0;  1.1101182E+00;  9.9811426E+03;  0.0000000E+00; -1.3514117E-06;  1.0000000E+04;  0.0000000E+00;  9.9815527E+03;  6.6555876E-01;  0.0000000E+00;  4.4455943E-01;  8.4396055E+03;
  8.2002389E-01;  9.9999998E-03;  1.8010540E-01;2324;  1.7171655E-02;  0.0000000E+00;  8.3281189E-02;  1.0106724E+03;  4.0508661E-01;  8.8376436E+03;3;  7.6351981E+00;  0.0000000E+00;  3.2855858E+01;0;  1.0889852E+00;  9.9804531E+03;  0.0000000E+00; -1.2959800E-06;  1.0000000E+04;  0.0000000E+00;  9.9791582E+03;  6.8935066E-01;  0.0000000E+00;  3.9963454E-01;  9.6841387E+03;
  8.2002521E-01;  9.9999998E-03;  2.0012484E-01;2325;  1.8149421E-02;  0.0000000E+00;  9.1791250E-02;  1.0105327E+03;  4.0508705E-01;  8.7220469E+03;3;  8.0111284E+00;  0.0000000E+00;  3.1229658E+01;0;  1.0483096E+00;  9.9798096E+03;  0.0000000E+00;  2.0511714E-06;  1.0000000E+04;  0.0000000E+00;  9.9770254E+03;  7.0971608E-01;  0.0000000E+00;  3.3859351E-01;  1.0817220E+04;
  8.2002640E-01;  9.9999998E-03;  2.2015354E-01;2326;  1.8976800E-02;  0.0000000E+00;  1.0147043E-01;  1.0104261E+03;  4.0508741E-01;  8.6336963E+03;3;  8.2965288E+00;  0.0000000E+00;  2.7515348E+01;0;  9.9957401E-01;  9.9792705E+03;  0.0000000E+00;  1.2177137E-05;  1.0000000E+04;  0.0000000E+00;  9.9754375E+03;  7.2471046E-01;  0.0000000E+00;  2.7486354E-01;  1.1680222E+04;
  8.2002723E-01;  9.9999998E-03;  2.4019106E-01;2327;  1.9319868E-02;  0.0000000E+00;  1.0546112E-01;  1.0103282E+03;  4.0508786E-01;  8.5527490E+03;3;  8.3876696E+00;  0.0000000E+00;  1.8743931E+01;0;  9.5454681E-01;  9.9788789E+03;  0.0000000E+00;  2.8585715E-05;  1.0000000E+04;  0.0000000E+00;  9.9738887E+03;  7.3359954E-01;  0.0000000E+00;  2.2094728E-01;  1.2512521E+04;
  8.2002735E-01;  9.9999998E-03;  2.6022357E-01;2328;  1.9073935E-02;  0.0000000E+00;  9.9931926E-02;  1.0102131E+03;  4.0508828E-01;  8.4572910E+03;3;  8.6637669E+00;  0.0000000E+00;  1.6955353E+01;0;  8.7976217E-01;  9.9786318E+03;  0.0000000E+00;  4.2574185E-05;  1.0000000E+04;  0.0000000E+00;  9.9718428E+03;  7.3699343E-01;  0.0000000E+00;  1.4276876E-01;  1.3619550E+04;
  8.2002717E-01;  9.9999998E-03;  2.8023171E-01;2329;  1.8634085E-02;  0.0000000E+00;  9.1718450E-02;  1.0103101E+03;  4.0508854E-01;  8.5376455E+03;3;  8.9386148E+00;  0.0000000E+00;  3.0365021E+01;0;  7.3194480E-01;  9.9785088E+03;  0.0000000E+00;  3.8271039E-05;  1.0000000E+04;  0.0000000E+00;  9.9738662E+03;  7.3635024E-01;  0.0000000E+00; -4.4054301E-03;  1.2775870E+04;
  8.2002616E-01;  9.9999998E-03;  3.0023894E-01;2330;  1.7284248E-02;  0.0000000E+00;  9.9148057E-02;  1.0105322E+03;  4.0508807E-01;  8.7215527E+03;3;  8.6650152E+00;  0.0000000E+00;  5.1436588E+01;0;  8.0092025E-01;  9.9784688E+03;  0.0000000E+00;  1.7792721E-05;  1.0000000E+04;  0.0000000E+00;  9.9783027E+03;  7.3338228E-01;  0.0000000E+00;  6.7537978E-02;  1.0432401E+04;
  8.4004003E-01;  9.9999998E-03;  1.6008782E-01;2354;  2.9539786E-02;  0.0000000E+00;  7.3200256E-02;  1.0107396E+03;  4.0500385E-01;  8.8918486E+03;3;  1.4126781E+01;  0.0000000E+00;  3.2678665E+01;0;  1.0366135E+00;  9.9830791E+03;  0.0000000E+00; -1.8757935E-06;  1.0000000E+04;  0.0000000E+00;  9.9819385E+03;  6.0097152E-01;  0.0000000E+00;  4.3564191E-01;  8.2480205E+03;
  8.4004200E-01;  9.9999998E-03;  1.8010311E-01;2355;  3.1102134E-02;  0.0000000E+00;  8.1463896E-02;  1.0105887E+03;  4.0500432E-01;  8.7668936E+03;3;  1.4726361E+01;  0.0000000E+00;  3.2137257E+01;0;  1.0158305E+00;  9.9824336E+03;  0.0000000E+00; -1.4625846E-06;  1.0000000E+04;  0.0000000E+00;  9.9795859E+03;  6.2348181E-01;  0.0000000E+00;  3.9234868E-01;  9.4666670E+03;
  8.4004408E-01;  9.9999998E-03;  2.0012221E-01;2356;  3.2657307E-02;  0.0000000E+00;  8.9872323E-02;  1.0104520E+03;  4.0500468E-01;  8.6537842E+03;3;  1.5253311E+01;  0.0000000E+00;  3.0634529E+01;0;  9.7675848E-01;  9.9818232E+03;  0.0000000E+00;  7.5570197E-06;  1.0000000E+04;  0.0000000E+00;  9.9774746E+03;  6.4297360E-01;  0.0000000E+00;  3.3378485E-01;  1.0583214E+04;
  8.4004599E-01;  9.9999998E-03;  2.2015050E-01;2357;  3.3865169E-02;  0.0000000E+00;  9.9655442E-02;  1.0103462E+03;  4.0500510E-01;  8.5661387E+03;3;  1.5534199E+01;  0.0000000E+00;  2.7447474E+01;0;  9.3070394E-01;  9.9813154E+03;  0.0000000E+00;  3.5996040E-05;  1.0000000E+04;  0.0000000E+00;  9.9758789E+03;  6.5755653E-01;  0.0000000E+00;  2.7314740E-01;  1.1444020E+04;
  8.4004706E-01;  9.9999998E-03;  2.4018779E-01;2358;  3.4050237E-02;  0.0000000E+00;  1.0414102E-01;  1.0102468E+03;  4.0500540E-01;  8.4838232E+03;3;  1.5460998E+01;  0.0000000E+00;  1.9035229E+01;0;  8.9037490E-01;  9.9809395E+03;  0.0000000E+00;  8.6415821E-05;  1.0000000E+04;  0.0000000E+00;  9.9742744E+03;  6.6654068E-01;  0.0000000E+00;  2.2383420E-01;  1.2293572E+04;
  8.4004700E-01;  9.9999998E-03;  2.6022017E-01;2359;  3.3427320E-02;  0.0000000E+00;  9.8903775E-02;  1.0101265E+03;  4.0500590E-01;  8.3842354E+03;3;  1.6030912E+01;  0.0000000E+00;  1.7211128E+01;0;  8.2162941E-01;  9.9806973E+03;  0.0000000E+00;  1.3736122E-04;  1.0000000E+04;  0.0000000E+00;  9.9721221E+03;  6.7052335E-01;  0.0000000E+00;  1.5110604E-01;  1.3443312E+04;
  8.4004664E-01;  9.9999998E-03;  2.8022841E-01;2360;  3.2739703E-02;  0.0000000E+00;  9.0687804E-02;  1.0102144E+03;  4.0500617E-01;  8.4569775E+03;3;  1.6513849E+01;  0.0000000E+00;  3.0068979E+01;0;  6.7791981E-01;  9.9805713E+03;  0.0000000E+00;  1.2997977E-04;  1.0000000E+04;  0.0000000E+00;  9.9739707E+03;  6.7079437E-01;  0.0000000E+00;  7.1254373E-03;  1.2685986E+04;
  8.4004486E-01;  9.9999998E-03;  3.0023542E-01;2361;  3.0332368E-02;  0.0000000E+00;  9.7974613E-02;  1.0104316E+03;  4.0500575E-01;  8.6368076E+03;3;  1.5971278E+01;  0.0000000E+00;  5.1061085E+01;0;  7.4475181E-01;  9.9805234E+03;  0.0000000E+00;  3.9706789E-05;  1.0000000E+04;  0.0000000E+00;  9.9783193E+03;  6.6869253E-01;  0.0000000E+00;  7.6059312E-02;  1.0394883E+04;
  8.6005747E-01;  9.9999998E-03;  1.6008489E-01;2385;  4.2956460E-02;  0.0000000E+00;  7.0776597E-02;  1.0104650E+03;  4.0484190E-01;  8.6626094E+03;3;  2.1083015E+01;  0.0000000E+00;  3.1632610E+01;0;  9.5425808E-01;  9.9850781E+03;  0.0000000E+00; -2.2359209E-06;  1.0000000E+04;  0.0000000E+00;  9.9825068E+03;  5.3147584E-01;  0.0000000E+00;  4.2278221E-01;  7.9649048E+03;
  8.6006021E-01;  9.9999998E-03;  1.8009970E-01;2386;  4.5129627E-02;  0.0000000E+00;  7.8830540E-02;  1.0103186E+03;  4.0484238E-01;  8.5414316E+03;3;  2.1911797E+01;  0.0000000E+00;  3.1186502E+01;0;  9.3508559E-01;  9.9844561E+03;  0.0000000E+00; -1.1923024E-06;  1.0000000E+04;  0.0000000E+00;  9.9802148E+03;  5.5335701E-01;  0.0000000E+00;  3.8172859E-01;  9.1467754E+03;
  8.6006314E-01;  9.9999998E-03;  2.0011821E-01;2387;  4.7286708E-02;  0.0000000E+00;  8.7059267E-02;  1.0101843E+03;  4.0484273E-01;  8.4302217E+03;3;  2.2649475E+01;  0.0000000E+00;  2.9841848E+01;0;  8.9932442E-01;  9.9838574E+03;  0.0000000E+00;  1.6478394E-05;  1.0000000E+04;  0.0000000E+00;  9.9781416E+03;  5.7306385E-01;  0.0000000E+00;  3.2626060E-01;  1.0236046E+04;
  8.6006576E-01;  9.9999998E-03;  2.2014572E-01;2388;  4.8949771E-02;  0.0000000E+00;  9.6697472E-02;  1.0100790E+03;  4.0484309E-01;  8.3430889E+03;3;  2.3075239E+01;  0.0000000E+00;  2.6940914E+01;0;  8.5779852E-01;  9.9833438E+03;  0.0000000E+00;  7.2622999E-05;  1.0000000E+04;  0.0000000E+00;  9.9765596E+03;  5.8870602E-01;  0.0000000E+00;  2.6909250E-01;  1.1083857E+04;
  8.6006707E-01;  9.9999998E-03;  2.4018210E-01;2389;  4.8995063E-02;  0.0000000E+00;  1.0141373E-01;  1.0099781E+03;  4.0484348E-01;  8.2596074E+03;3;  2.2915514E+01;  0.0000000E+00;  1.9027098E+01;0;  8.2311773E-01;  9.9829473E+03;  0.0000000E+00;  1.7445248E-04;  1.0000000E+04;  0.0000000E+00;  9.9749512E+03;  5.9945869E-01;  0.0000000E+00;  2.2365904E-01;  1.1927776E+04;
  8.6006683E-01;  9.9999998E-03;  2.6021370E-01;2390;  4.8108671E-02;  0.0000000E+00;  9.6459538E-02;  1.0098566E+03;  4.0484387E-01;  8.1589565E+03;3;  2.3852432E+01;  0.0000000E+00;  1.7393139E+01;0;  7.6035249E-01;  9.9826699E+03;  0.0000000E+00;  2.8122691E-04;  1.0000000E+04;  0.0000000E+00;  9.9728057E+03;  6.0572553E-01;  0.0000000E+00;  1.5462698E-01;  1.3065245E+04;
  8.6006653E-01;  9.9999998E-03;  2.8022200E-01;2391;  4.7307890E-02;  0.0000000E+00;  8.8492975E-02;  1.0099352E+03;  4.0484414E-01;  8.2240840E+03;3;  2.4622015E+01;  0.0000000E+00;  2.9429054E+01;0;  6.2437654E-01;  9.9825010E+03;  0.0000000E+00;  2.7017781E-04;  1.0000000E+04;  0.0000000E+00;  9.9745137E+03;  6.0852158E-01;  0.0000000E+00;  1.5854955E-02;  1.2373147E+04;
  8.6006403E-01;  9.9999998E-03;  3.0022886E-01;2392;  4.3950859E-02;  0.0000000E+00;  9.5555313E-02;  1.0101448E+03;  4.0484369E-01;  8.3975596E+03;3;  2.3946665E+01;  0.0000000E+00;  4.9967258E+01;0;  6.8879062E-01;  9.9824102E+03;  0.0000000E+00;  9.0778405E-05;  1.0000000E+04;  0.0000000E+00;  9.9787578E+03;  6.0882980E-01;  0.0000000E+00;  7.9960838E-02;  1.0149608E+04;
  8.8007396E-01;  9.9999998E-03;  1.6008106E-01;2416;  5.5622797E-02;  0.0000000E+00;  6.7632958E-02;  1.0100409E+03;  4.0460962E-01;  8.3090107E+03;3;  2.7666586E+01;  0.0000000E+00;  3.0299170E+01;0;  8.5483670E-01;  9.9874131E+03;  0.0000000E+00; -3.5730866E-06;  1.0000000E+04;  0.0000000E+00;  9.9832520E+03;  4.4880661E-01;  0.0000000E+00;  4.0603009E-01;  7.5947114E+03;
  8.8007742E-01;  9.9999998E-03;  1.8009523E-01;2417;  5.8377430E-02;  0.0000000E+00;  7.5392626E-02;  1.0098992E+03;  4.0461001E-01;  8.1917178E+03;3;  2.8737158E+01;  0.0000000E+00;  2.9958967E+01;0;  8.3813632E-01;  9.9868027E+03;  0.0000000E+00; -1.7643839E-06;  1.0000000E+04;  0.0000000E+00;  9.9810469E+03;  4.7058547E-01;  0.0000000E+00;  3.6755085E-01;  8.7266572E+03;
  8.8008112E-01;  9.9999998E-03;  2.0011294E-01;2418;  6.1131489E-02;  0.0000000E+00;  8.3327375E-02;  1.0097675E+03;  4.0461031E-01;  8.0827119E+03;3;  2.9717865E+01;  0.0000000E+00;  2.8775440E+01;0;  8.0695367E-01;  9.9861914E+03;  0.0000000E+00;  2.6934471E-05;  1.0000000E+04;  0.0000000E+00;  9.9790371E+03;  4.9141738E-01;  0.0000000E+00;  3.1553632E-01;  9.7757715E+03;
  8.8008446E-01;  9.9999998E-03;  2.2013921E-01;2419;  6.3272730E-02;  0.0000000E+00;  9.2599168E-02;  1.0096617E+03;  4.0461066E-01;  7.9953096E+03;3;  3.0339640E+01;  0.0000000E+00;  2.6075361E+01;0;  7.7129519E-01;  9.9856357E+03;  0.0000000E+00;  1.1865354E-04;  1.0000000E+04;  0.0000000E+00;  9.9774834E+03;  5.0936484E-01;  0.0000000E+00;  2.6193035E-01;  1.0597763E+04;
  8.8008606E-01;  9.9999998E-03;  2.4017400E-01;2420;  6.3214861E-02;  0.0000000E+00;  9.7269692E-02;  1.0095605E+03;  4.0461102E-01;  7.9114590E+03;3;  3.0084801E+01;  0.0000000E+00;  1.8700710E+01;0;  7.4275947E-01;  9.9851797E+03;  0.0000000E+00;  2.8691409E-04;  1.0000000E+04;  0.0000000E+00;  9.9759277E+03;  5.2328098E-01;  0.0000000E+00;  2.1947847E-01;  1.1410486E+04;
  8.8008565E-01;  9.9999998E-03;  2.6020432E-01;2421;  6.2052805E-02;  0.0000000E+00;  9.2668705E-02;  1.0094403E+03;  4.0461141E-01;  7.8120215E+03;3;  3.1437759E+01;  0.0000000E+00;  1.7308178E+01;0;  6.8674529E-01;  9.9848369E+03;  0.0000000E+00;  4.6833820E-04;  1.0000000E+04;  0.0000000E+00;  9.9738818E+03;  5.3314346E-01;  0.0000000E+00;  1.5360184E-01;  1.2490658E+04;
  8.8008541E-01;  9.9999998E-03;  2.8021282E-01;2422;  6.1314944E-02;  0.0000000E+00;  8.5329480E-02;  1.0095088E+03;  4.0461162E-01;  7.8687441E+03;3;  3.2517540E+01;  0.0000000E+00;  2.8607265E+01;0;  5.6236267E-01;  9.9845889E+03;  0.0000000E+00;  4.5834552E-04;  1.0000000E+04;  0.0000000E+00;  9.9754619E+03;  5.3955680E-01;  0.0000000E+00;  2.2805864E-02;  1.1854136E+04;
  8.8008237E-01;  9.9999998E-03;  3.0021957E-01;2423;  5.7174254E-02;  0.0000000E+00;  9.2061609E-02;  1.0097071E+03;  4.0461129E-01;  8.0327954E+03;3;  3.1871202E+01;  0.0000000E+00;  4.8176052E+01;0;  6.2496704E-01;  9.9844326E+03;  0.0000000E+00;  1.8998478E-04;  1.0000000E+04;  0.0000000E+00;  9.9795469E+03;  5.4317188E-01;  0.0000000E+00;  8.1795178E-02;  9.7275576E+03;
  9.0008819E-01;  9.9999998E-03;  1.6007644E-01;2447;  6.6573448E-02;  0.0000000E+00;  6.3836858E-02;  1.0095029E+03;  4.0431964E-01;  7.8606201E+03;3;  3.3421722E+01;  0.0000000E+00;  2.8683853E+01;0;  7.3579764E-01;  9.9901963E+03;  0.0000000E+00; -6.1045007E-06;  1.0000000E+04;  0.0000000E+00;  9.9841602E+03;  3.5017666E-01;  0.0000000E+00;  3.8562101E-01;  7.1452363E+03;
  9.0009230E-01;  9.9999998E-03;  1.8008980E-01;2448;  6.9848739E-02;  0.0000000E+00;  7.1206503E-02;  1.0093669E+03;  4.0431997E-01;  7.7482065E+03;3;  3.4717323E+01;  0.0000000E+00;  2.8442070E+01;0;  7.2185612E-01;  9.9895918E+03;  0.0000000E+00; -4.2434317E-06;  1.0000000E+04;  0.0000000E+00;  9.9820605E+03;  3.7195551E-01;  0.0000000E+00;  3.4990057E-01;  8.2137285E+03;
  9.0009665E-01;  9.9999998E-03;  2.0010646E-01;2449;  7.3146470E-02;  0.0000000E+00;  7.8725211E-02;  1.0092382E+03;  4.0432027E-01;  7.6416104E+03;3;  3.5932350E+01;  0.0000000E+00;  2.7407595E+01;0;  6.9597268E-01;  9.9889502E+03;  0.0000000E+00;  3.4534263E-05;  1.0000000E+04;  0.0000000E+00;  9.9801396E+03;  3.9440060E-01;  0.0000000E+00;  3.0157205E-01;  9.2097119E+03;
  9.0010059E-01;  9.9999998E-03;  2.2013110E-01;2450;  7.5653486E-02;  0.0000000E+00;  8.7336414E-02;  1.0091318E+03;  4.0432048E-01;  7.5536519E+03;3;  3.6540192E+01;  0.0000000E+00;  2.4588045E+01;0;  6.6705739E-01;  9.9883281E+03;  0.0000000E+00;  1.6155078E-04;  1.0000000E+04;  0.0000000E+00;  9.9786475E+03;  4.1553667E-01;  0.0000000E+00;  2.5152072E-01;  9.9933184E+03;
  9.0010232E-01;  9.9999998E-03;  2.4016361E-01;2451;  7.5262114E-02;  0.0000000E+00;  9.1527671E-02;  1.0090311E+03;  4.0432075E-01;  7.4703276E+03;3;  3.6079754E+01;  0.0000000E+00;  1.7790442E+01;0;  6.4411187E-01;  9.9877783E+03;  0.0000000E+00;  3.9929053E-04;  1.0000000E+04;  0.0000000E+00;  9.9771895E+03;  4.3370953E-01;  0.0000000E+00;  2.1040234E-01;  1.0750769E+04;
  9.0010166E-01;  9.9999998E-03;  2.6019239E-01;2452;  7.3989689E-02;  0.0000000E+00;  8.7671742E-02;  1.0089142E+03;  4.0432119E-01;  7.3736919E+03;3;  3.8048592E+01;  0.0000000E+00;  1.6983240E+01;0;  5.9616661E-01;  9.9873330E+03;  0.0000000E+00;  6.6423474E-04;  1.0000000E+04;  0.0000000E+00;  9.9753105E+03;  4.4818586E-01;  0.0000000E+00;  1.4798072E-01;  1.1738424E+04;
  9.0010178E-01;  9.9999998E-03;  2.8020123E-01;2453;  7.3620498E-02;  0.0000000E+00;  8.1268884E-02;  1.0089705E+03;  4.0432137E-01;  7.4202349E+03;3;  3.9564156E+01;  0.0000000E+00;  2.7404949E+01;0;  4.8721266E-01;  9.9869893E+03;  0.0000000E+00;  6.5705593E-04;  1.0000000E+04;  0.0000000E+00;  9.9767500E+03;  4.5898849E-01;  0.0000000E+00;  2.8224181E-02;  1.1160773E+04;
  9.0009856E-01;  9.9999998E-03;  3.0020803E-01;2454;  6.8980753E-02;  0.0000000E+00;  8.7678827E-02;  1.0091516E+03;  4.0432110E-01;  7.5700205E+03;3;  3.9064163E+01;  0.0000000E+00;  4.5811375E+01;0;  5.4866195E-01;  9.9867383E+03;  0.0000000E+00;  3.0490416E-04;  1.0000000E+04;  0.0000000E+00;  9.9805859E+03;  4.6647906E-01;  0.0000000E+00;  8.2182854E-02;  9.1762490E+03;
  9.2009711E-01;  9.9999998E-03;  1.6007121E-01;2478;  7.3342912E-02;  0.0000000E+00;  5.9502579E-02;  1.0088785E+03;  4.0398681E-01;  7.3400933E+03;3;  3.6996132E+01;  0.0000000E+00;  2.6808716E+01;0;  6.0471821E-01;  9.9932510E+03;  0.0000000E+00; -8.6345735E-06;  1.0000000E+04;  0.0000000E+00;  9.9851992E+03;  2.4254963E-01;  0.0000000E+00;  3.6216858E-01;  6.6294771E+03;
  9.2010230E-01;  9.9999998E-03;  1.8008363E-01;2479;  7.7514321E-02;  0.0000000E+00;  6.6417031E-02;  1.0087499E+03;  4.0398702E-01;  7.2337520E+03;3;  3.8749790E+01;  0.0000000E+00;  2.6673832E+01;0;  5.9314263E-01;  9.9926631E+03;  0.0000000E+00; -7.7504919E-06;  1.0000000E+04;  0.0000000E+00;  9.9832314E+03;  2.6382571E-01;  0.0000000E+00;  3.2931688E-01;  7.6226431E+03;
  9.2010790E-01;  9.9999998E-03;  2.0009902E-01;2480;  8.1836097E-02;  0.0000000E+00;  7.3406316E-02;  1.0086246E+03;  4.0398729E-01;  7.1302700E+03;3;  4.0498245E+01;  0.0000000E+00;  2.5777542E+01;0;  5.7249874E-01;  9.9919932E+03;  0.0000000E+00;  3.5946759E-05;  1.0000000E+04;  0.0000000E+00;  9.9814141E+03;  2.8765795E-01;  0.0000000E+00;  2.8484079E-01;  8.5541230E+03;
  9.2011285E-01;  9.9999998E-03;  2.2012168E-01;2481;  8.5041590E-02;  0.0000000E+00;  8.1033617E-02;  1.0085187E+03;  4.0398750E-01;  7.0426538E+03;3;  4.1052242E+01;  0.0000000E+00;  2.2475101E+01;0;  5.5045319E-01;  9.9912881E+03;  0.0000000E+00;  1.8618014E-04;  1.0000000E+04;  0.0000000E+00;  9.9800020E+03;  3.1219226E-01;  0.0000000E+00;  2.3826095E-01;  9.2882656E+03;
  9.2011470E-01;  9.9999998E-03;  2.4015151E-01;2482;  8.4376656E-02;  0.0000000E+00;  8.4747367E-02;  1.0084183E+03;  4.0398782E-01;  6.9596709E+03;3;  4.0565842E+01;  0.0000000E+00;  1.6668539E+01;0;  5.3320223E-01;  9.9906221E+03;  0.0000000E+00;  4.7734758E-04;  1.0000000E+04;  0.0000000E+00;  9.9786768E+03;  3.3520174E-01;  0.0000000E+00;  1.9800051E-01;  9.9743184E+03;
  9.2011386E-01;  9.9999998E-03;  2.6017851E-01;2483;  8.3148032E-02;  0.0000000E+00;  8.1758484E-02;  1.0083055E+03;  4.0398809E-01;  6.8663413E+03;3;  4.3268261E+01;  0.0000000E+00;  1.6317490E+01;0;  4.9446326E-01;  9.9900371E+03;  0.0000000E+00;  8.1777689E-04;  1.0000000E+04;  0.0000000E+00;  9.9770127E+03;  3.5494390E-01;  0.0000000E+00;  1.3951935E-01;  1.0845911E+04;
  9.2011416E-01;  9.9999998E-03;  2.8018770E-01;2484;  8.3185002E-02;  0.0000000E+00;  7.6498590E-02;  1.0083480E+03;  4.0398824E-01;  6.9015249E+03;3;  4.5325066E+01;  0.0000000E+00;  2.5981222E+01;0;  4.0355003E-01;  9.9895654E+03;  0.0000000E+00;  8.2768599E-04;  1.0000000E+04;  0.0000000E+00;  9.9783086E+03;  3.7066925E-01;  0.0000000E+00;  3.2880798E-02;  1.0325897E+04;
  9.2011142E-01;  9.9999998E-03;  3.0019471E-01;2485;  7.8460611E-02;  0.0000000E+00;  8.2569547E-02;  1.0085072E+03;  4.0398809E-01;  7.0331938E+03;3;  4.4964169E+01;  0.0000000E+00;  4.3224407E+01;0;  4.6242678E-01;  9.9892031E+03;  0.0000000E+00;  3.9620558E-04;  1.0000000E+04;  0.0000000E+00;  9.9818252E+03;  3.8245380E-01;  0.0000000E+00;  7.9972990E-02;  8.5240303E+03;
  9.4009900E-01;  9.9999998E-03;  1.6006564E-01;2509;  7.4585781E-02;  0.0000000E+00;  5.4826155E-02;  1.0081863E+03;  4.0362701E-01;  6.7628032E+03;3;  3.7593239E+01;  0.0000000E+00;  2.4755863E+01;0;  4.7604960E-01;  9.9962119E+03;  0.0000000E+00; -8.9828336E-06;  1.0000000E+04;  0.0000000E+00;  9.9863330E+03;  1.3946921E-01;  0.0000000E+00;  3.3658040E-01;  6.0651611E+03;
  9.4010478E-01;  9.9999998E-03;  1.8007706E-01;2510;  7.9121873E-02;  0.0000000E+00;  6.1261419E-02;  1.0080667E+03;  4.0362722E-01;  6.6640249E+03;3;  3.9437500E+01;  0.0000000E+00;  2.4738594E+01;0;  4.6615309E-01;  9.9956572E+03;  0.0000000E+00; -9.3989374E-06;  1.0000000E+04;  0.0000000E+00;  9.9845107E+03;  1.5947856E-01;  0.0000000E+00;  3.0667454E-01;  6.9744155E+03;
  9.4011158E-01;  9.9999998E-03;  2.0009103E-01;2511;  8.4280454E-02;  0.0000000E+00;  6.7663476E-02;  1.0079467E+03;  4.0362749E-01;  6.5649512E+03;3;  4.1483150E+01;  0.0000000E+00;  2.4006401E+01;0;  4.5008010E-01;  9.9949688E+03;  0.0000000E+00;  3.2189571E-05;  1.0000000E+04;  0.0000000E+00;  9.9828115E+03;  1.8388669E-01;  0.0000000E+00;  2.6619342E-01;  7.8331187E+03;
  9.4011873E-01;  9.9999998E-03;  2.2011150E-01;2512;  8.9250490E-02;  0.0000000E+00;  7.4538201E-02;  1.0078412E+03;  4.0362769E-01;  6.4777930E+03;3;  4.3009415E+01;  0.0000000E+00;  2.1013184E+01;0;  4.3459129E-01;  9.9941885E+03;  0.0000000E+00;  1.8632977E-04;  1.0000000E+04;  0.0000000E+00;  9.9814932E+03;  2.1115345E-01;  0.0000000E+00;  2.2343783E-01;  8.5103232E+03;
  9.4012284E-01;  9.9999998E-03;  2.4013853E-01;2513;  9.0551317E-02;  0.0000000E+00;  7.7755131E-02;  1.0077416E+03;  4.0362784E-01;  6.3954614E+03;3;  4.3769672E+01;  0.0000000E+00;  1.5656465E+01;0;  4.2341810E-01;  9.9933877E+03;  0.0000000E+00;  4.9419131E-04;  1.0000000E+04;  0.0000000E+00;  9.9803057E+03;  2.3867460E-01;  0.0000000E+00;  1.8474351E-01;  9.1194688E+03;
  9.4012213E-01;  9.9999998E-03;  2.6016364E-01;2514;  8.9647621E-02;  0.0000000E+00;  7.5562671E-02;  1.0076315E+03;  4.0362814E-01;  6.3044658E+03;3;  4.7060780E+01;  0.0000000E+00;  1.5627536E+01;0;  3.9458898E-01;  9.9926494E+03;  0.0000000E+00;  8.9910382E-04;  1.0000000E+04;  0.0000000E+00;  9.9788506E+03;  2.6371258E-01;  0.0000000E+00;  1.3087639E-01;  9.8756748E+03;
  9.4012254E-01;  9.9999998E-03;  2.8017306E-01;2515;  8.9977749E-02;  0.0000000E+00;  7.1415827E-02;  1.0076592E+03;  4.0362832E-01;  6.3274121E+03;3;  4.9818001E+01;  0.0000000E+00;  2.4743174E+01;0;  3.2127464E-01;  9.9920215E+03;  0.0000000E+00;  9.9269254E-04;  1.0000000E+04;  0.0000000E+00;  9.9800137E+03;  2.8458810E-01;  0.0000000E+00;  3.6686547E-02;  9.4108477E+03;
  9.4012010E-01;  9.9999998E-03;  3.0018017E-01;2516;  8.5107781E-02;  0.0000000E+00;  7.6936238E-02;  1.0077943E+03;  4.0362811E-01;  6.4389917E+03;3;  4.9210526E+01;  0.0000000E+00;  4.0297848E+01;0;  3.7790871E-01;  9.9915195E+03;  0.0000000E+00;  4.4295265E-04;  1.0000000E+04;  0.0000000E+00;  9.9831924E+03;  3.0096373E-01;  0.0000000E+00;  7.6944962E-02;  7.8011050E+03;
  9.6009815E-01;  9.9999998E-03;  1.6005990E-01;2540;  7.4069291E-02;  0.0000000E+00;  5.0022110E-02;  1.0074458E+03;  4.0325606E-01;  6.1450347E+03;3;  3.7487637E+01;  0.0000000E+00;  2.2661283E+01;0;  3.6309782E-01;  9.9987275E+03;  0.0000000E+00; -6.2238305E-06;  1.0000000E+04;  0.0000000E+00;  9.9875059E+03;  5.3229209E-02;  0.0000000E+00;  3.0986860E-01;  5.4733755E+03;
  9.6010411E-01;  9.9999998E-03;  1.8007030E-01;2541;  7.8722082E-02;  0.0000000E+00;  5.5948891E-02;  1.0073358E+03;  4.0325630E-01;  6.0542246E+03;3;  3.9375137E+01;  0.0000000E+00;  2.2786774E+01;0;  3.5451567E-01;  9.9982129E+03;  0.0000000E+00; -7.1355785E-06;  1.0000000E+04;  0.0000000E+00;  9.9858350E+03;  7.1561672E-02;  0.0000000E+00;  2.8295401E-01;  6.2942554E+03;
  9.6011126E-01;  9.9999998E-03;  2.0008275E-01;2542;  8.4023736E-02;  0.0000000E+00;  6.1709952E-02;  1.0072220E+03;  4.0325648E-01;  5.9602661E+03;3;  4.1468967E+01;  0.0000000E+00;  2.2200979E+01;0;  3.4234995E-01;  9.9975146E+03;  0.0000000E+00;  2.5661337E-05;  1.0000000E+04;  0.0000000E+00;  9.9842695E+03;  9.5809497E-02;  0.0000000E+00;  2.4654044E-01;  7.0750786E+03;
  9.6011925E-01;  9.9999998E-03;  2.2010104E-01;2543;  8.9682385E-02;  0.0000000E+00;  6.8187751E-02;  1.0071181E+03;  4.0325657E-01;  5.8745713E+03;3;  4.3637852E+01;  0.0000000E+00;  2.0434345E+01;0;  3.3282188E-01;  9.9966680E+03;  0.0000000E+00;  2.3977664E-04;  1.0000000E+04;  0.0000000E+00;  9.9830469E+03;  1.2478503E-01;  0.0000000E+00;  2.0803685E-01;  7.6904849E+03;
  9.6012592E-01;  9.9999998E-03;  2.4012549E-01;2544;  9.3414925E-02;  0.0000000E+00;  7.1185715E-02;  1.0070182E+03;  4.0325674E-01;  5.7921240E+03;3;  4.5645546E+01;  0.0000000E+00;  1.4877260E+01;0;  3.2868069E-01;  9.9957461E+03;  0.0000000E+00;  1.2590034E-03;  1.0000000E+04;  0.0000000E+00;  9.9819814E+03;  1.5575640E-01;  0.0000000E+00;  1.7292430E-01;  8.2291289E+03;
  9.6012729E-01;  9.9999998E-03;  2.6014856E-01;2545;  9.3960382E-02;  0.0000000E+00;  6.9292121E-02;  1.0069099E+03;  4.0325701E-01;  5.7027910E+03;3;  4.9504723E+01;  0.0000000E+00;  1.4752257E+01;0;  3.0804285E-01;  9.9948457E+03;  0.0000000E+00;  3.0141445E-03;  1.0000000E+04;  0.0000000E+00;  9.9807227E+03;  1.8540989E-01;  0.0000000E+00;  1.2263296E-01;  8.8770010E+03;
  9.6012813E-01;  9.9999998E-03;  2.8015795E-01;2546;  9.4465956E-02;  0.0000000E+00;  6.5897971E-02;  1.0069236E+03;  4.0325704E-01;  5.7140068E+03;3;  5.2700539E+01;  0.0000000E+00;  2.3164713E+01;0;  2.4873815E-01;  9.9940459E+03;  0.0000000E+00;  3.3014484E-03;  1.0000000E+04;  0.0000000E+00;  9.9817734E+03;  2.1127802E-01;  0.0000000E+00;  3.7460137E-02;  8.4605938E+03;
  9.6012604E-01;  9.9999998E-03;  3.0016509E-01;2547;  8.9805797E-02;  0.0000000E+00;  7.1000561E-02;  1.0070334E+03;  4.0325695E-01;  5.8047168E+03;3;  5.2282593E+01;  0.0000000E+00;  3.7132854E+01;0;  3.0533662E-01;  9.9933848E+03;  0.0000000E+00;  4.1771447E-04;  1.0000000E+04;  0.0000000E+00;  9.9846182E+03;  2.3231526E-01;  0.0000000E+00;  7.3021375E-02;  7.0389185E+03;
  9.8009592E-01;  9.9999998E-03;  1.6005418E-01;2571;  7.2723366E-02;  0.0000000E+00;  4.5296650E-02;  1.0066805E+03;  4.0288827E-01;  5.5060581E+03;3;  3.7128437E+01;  0.0000000E+00;  2.0699684E+01;0;  2.7274263E-01;  1.0000613E+04;  0.0000000E+00; -1.8546453E-06;  1.0000000E+04;  0.0000000E+00;  9.9886738E+03; -1.0260720E-02;  0.0000000E+00;  2.8300336E-01;  4.8770068E+03;
  9.8010200E-01;  9.9999998E-03;  1.8006356E-01;2572;  7.7423334E-02;  0.0000000E+00;  5.0728012E-02;  1.0065798E+03;  4.0288842E-01;  5.4230322E+03;3;  3.9052471E+01;  0.0000000E+00;  2.0929737E+01;0;  2.6571405E-01;  1.0000125E+04;  0.0000000E+00; -2.6344092E-06;  1.0000000E+04;  0.0000000E+00;  9.9871533E+03;  6.6045839E-03;  0.0000000E+00;  2.5910947E-01;  5.6096445E+03;
  9.8010933E-01;  9.9999998E-03;  2.0007454E-01;2573;  8.2862794E-02;  0.0000000E+00;  5.5853963E-02;  1.0064719E+03;  4.0288857E-01;  5.3341113E+03;3;  4.1199326E+01;  0.0000000E+00;  2.0499926E+01;0;  2.5724816E-01;  9.9994209E+03;  0.0000000E+00;  1.5139997E-04;  1.0000000E+04;  0.0000000E+00;  9.9857109E+03;  3.0416295E-02;  0.0000000E+00;  2.2683187E-01;  6.3113394E+03;
  9.8011786E-01;  9.9999998E-03;  2.2009057E-01;2574;  8.8902026E-02;  0.0000000E+00;  6.1666857E-02;  1.0063704E+03;  4.0288869E-01;  5.2503965E+03;3;  4.3655968E+01;  0.0000000E+00;  1.9468927E+01;0;  2.5269133E-01;  9.9985186E+03;  0.0000000E+00;  1.5941766E-03;  1.0000000E+04;  0.0000000E+00;  9.9845918E+03;  6.0137749E-02;  0.0000000E+00;  1.9255358E-01;  6.8637617E+03;
  9.8012608E-01;  9.9999998E-03;  2.4011268E-01;2575;  9.4056487E-02;  0.0000000E+00;  6.5032125E-02;  1.0062707E+03;  4.0288880E-01;  5.1682549E+03;3;  4.6220459E+01;  0.0000000E+00;  1.4617668E+01;0;  2.5571373E-01;  9.9974980E+03;  0.0000000E+00;  5.9788134E-03;  1.0000000E+04;  0.0000000E+00;  9.9836309E+03;  9.3190394E-02;  0.0000000E+00;  1.6252334E-01;  7.3366323E+03;
  9.8013026E-01;  9.9999998E-03;  2.6013368E-01;2576;  9.6728466E-02;  0.0000000E+00;  6.3084349E-02;  1.0061644E+03;  4.0288889E-01;  5.0806123E+03;3;  5.0826160E+01;  0.0000000E+00;  1.3750385E+01;0;  2.4142435E-01;  9.9964561E+03;  0.0000000E+00;  1.1915573E-02;  1.0000000E+04;  0.0000000E+00;  9.9825508E+03;  1.2623180E-01;  0.0000000E+00;  1.1519255E-01;  7.8854453E+03;
  9.8013228E-01;  9.9999998E-03;  2.8014278E-01;2577;  9.7806059E-02;  0.0000000E+00;  6.0152031E-02;  1.0061668E+03;  4.0288901E-01;  5.0826743E+03;3;  5.4682747E+01;  0.0000000E+00;  2.1371574E+01;0;  1.9227400E-01;  9.9954912E+03;  0.0000000E+00;  1.1752467E-02;  1.0000000E+04;  0.0000000E+00;  9.9835518E+03;  1.5641195E-01;  0.0000000E+00;  3.5862055E-02;  7.4950596E+03;
  9.8013103E-01;  9.9999998E-03;  3.0014983E-01;2578;  9.3699984E-02;  0.0000000E+00;  6.4862452E-02;  1.0062554E+03;  4.0288904E-01;  5.1556768E+03;3;  5.4980602E+01;  0.0000000E+00;  3.3942001E+01;0;  2.4685553E-01;  9.9946641E+03;  0.0000000E+00;  2.3887999E-04;  1.0000000E+04;  0.0000000E+00;  9.9861338E+03;  1.8161933E-01;  0.0000000E+00;  6.5236196E-02;  6.2295591E+03;
  1.0000931E+00;  9.9999998E-03;  1.6004878E-01;2602;  7.0951454E-02;  0.0000000E+00;  4.0904250E-02;  1.0059183E+03;  4.0253574E-01;  4.8691929E+03;3;  3.6672157E+01;  0.0000000E+00;  1.8950977E+01;0;  2.0548196E-01;  1.0001857E+04;  0.0000000E+00;  6.2007888E-07;  1.0000000E+04;  0.0000000E+00;  9.9897842E+03; -5.1351085E-02;  0.0000000E+00;  2.5683305E-01;  4.2987075E+03;
  1.0000991E+00;  9.9999998E-03;  1.8005714E-01;2603;  7.5698309E-02;  0.0000000E+00;  4.5804147E-02;  1.0058249E+03;  4.0253577E-01;  4.7922979E+03;3;  3.8679134E+01;  0.0000000E+00;  1.9281685E+01;0;  2.0074335E-01;  1.0001383E+04;  0.0000000E+00; -3.0763406E-06;  1.0000000E+04;  0.0000000E+00;  9.9883975E+03; -3.5310991E-02;  0.0000000E+00;  2.3605433E-01;  4.9481064E+03;
  1.0001065E+00;  9.9999998E-03;  2.0006680E-01;2604;  8.1209518E-02;  0.0000000E+00;  5.0394081E-02;  1.0057222E+03;  4.0253580E-01;  4.7078506E+03;3;  4.0849083E+01;  0.0000000E+00;  1.9019114E+01;0;  1.9608678E-01;  1.0000666E+04;  0.0000000E+00;  4.4585552E-04;  1.0000000E+04;  0.0000000E+00;  9.9870732E+03; -1.2094595E-02;  0.0000000E+00;  2.0818138E-01;  5.5749839E+03;
  1.0001154E+00;  9.9999998E-03;  2.2008058E-01;2605;  8.7457463E-02;  0.0000000E+00;  5.5273585E-02;  1.0056239E+03;  4.0253606E-01;  4.6269336E+03;3;  4.3430977E+01;  0.0000000E+00;  1.8132692E+01;0;  1.9555952E-01;  9.9997383E+03;  0.0000000E+00;  4.2008804E-03;  1.0000000E+04;  0.0000000E+00;  9.9860430E+03;  1.7308911E-02;  0.0000000E+00;  1.7825061E-01;  6.0674238E+03;
  1.0001252E+00;  9.9999998E-03;  2.4010034E-01;2606;  9.3710728E-02;  0.0000000E+00;  5.8950588E-02;  1.0055265E+03;  4.0253603E-01;  4.5468008E+03;3;  4.6368912E+01;  0.0000000E+00;  1.4627116E+01;0;  2.0392565E-01;  9.9986582E+03;  0.0000000E+00;  1.4743608E-02;  1.0000000E+04;  0.0000000E+00;  9.9851836E+03;  5.0879437E-02;  0.0000000E+00;  1.5304622E-01;  6.4764580E+03;
  1.0001321E+00;  9.9999998E-03;  2.6011935E-01;2607;  9.8219730E-02;  0.0000000E+00;  5.7071250E-02;  1.0054241E+03;  4.0253615E-01;  4.4624526E+03;3;  5.0963364E+01;  0.0000000E+00;  1.3170877E+01;0;  1.9423749E-01;  9.9975137E+03;  0.0000000E+00;  2.7604382E-02;  1.0000000E+04;  0.0000000E+00;  9.9842881E+03;  8.5851513E-02;  0.0000000E+00;  1.0838597E-01;  6.9256201E+03;
  1.0001363E+00;  9.9999998E-03;  2.8012788E-01;2608;  1.0052103E-01;  0.0000000E+00;  5.4410249E-02;  1.0054224E+03;  4.0253633E-01;  4.4610771E+03;3;  5.5802277E+01;  0.0000000E+00;  1.9754005E+01;0;  1.5156312E-01;  9.9964072E+03;  0.0000000E+00;  2.5393615E-02;  1.0000000E+04;  0.0000000E+00;  9.9853525E+03;  1.1936148E-01;  0.0000000E+00;  3.2201640E-02;  6.5131348E+03;
  1.0001369E+00;  9.9999998E-03;  3.0013469E-01;2609;  9.7915709E-02;  0.0000000E+00;  5.8624521E-02;  1.0054960E+03;  4.0253621E-01;  4.5216875E+03;3;  5.7923527E+01;  0.0000000E+00;  3.0843208E+01;0;  2.0003670E-01;  9.9954258E+03;  0.0000000E+00; -1.9624524E-03;  1.0000000E+04;  0.0000000E+00;  9.9877891E+03;  1.4785416E-01;  0.0000000E+00;  5.2182537E-02;  5.3579761E+03;
  1.0200897E+00;  9.9999998E-03;  1.6004373E-01;2633;  6.8929851E-02;  0.0000000E+00;  3.6774620E-02;  1.0051859E+03;  4.0220791E-01;  4.2563643E+03;3;  3.6063080E+01;  0.0000000E+00;  1.7318743E+01;0;  1.5797146E-01;  1.0002566E+04;  0.0000000E+00; -1.7801607E-05;  1.0000000E+04;  0.0000000E+00;  9.9907949E+03; -7.4116290E-02;  0.0000000E+00;  2.3208775E-01;  3.7585781E+03;
  1.0200958E+00;  9.9999998E-03;  1.8005113E-01;2634;  7.3786296E-02;  0.0000000E+00;  4.1170765E-02;  1.0050975E+03;  4.0220806E-01;  4.1837632E+03;3;  3.8195278E+01;  0.0000000E+00;  1.7689585E+01;0;  1.5636604E-01;  1.0002083E+04;  0.0000000E+00; -5.6752784E-04;  1.0000000E+04;  0.0000000E+00;  9.9895195E+03; -5.8363870E-02;  0.0000000E+00;  2.1472991E-01;  4.3342622E+03;
  1.0201033E+00;  9.9999998E-03;  2.0005986E-01;2635;  7.9486683E-02;  0.0000000E+00;  4.5388300E-02;  1.0050005E+03;  4.0220809E-01;  4.1041167E+03;3;  4.0601017E+01;  0.0000000E+00;  1.7519674E+01;0;  1.5545386E-01;  1.0001383E+04;  0.0000000E+00; -1.7297898E-03;  1.0000000E+04;  0.0000000E+00;  9.9882881E+03; -3.6245145E-02;  0.0000000E+00;  1.9169901E-01;  4.8945132E+03;
  1.0201126E+00;  9.9999998E-03;  2.2007187E-01;2636;  8.5898541E-02;  0.0000000E+00;  4.9557459E-02;  1.0049067E+03;  4.0220812E-01;  4.0272087E+03;3;  4.3289051E+01;  0.0000000E+00;  1.6729309E+01;0;  1.5819302E-01;  1.0000479E+04;  0.0000000E+00;  2.0175132E-03;  1.0000000E+04;  0.0000000E+00;  9.9873232E+03; -8.5887993E-03;  0.0000000E+00;  1.6678183E-01;  5.3361514E+03;
  1.0201238E+00;  9.9999998E-03;  2.4008916E-01;2637;  9.3114287E-02;  0.0000000E+00;  5.2854281E-02;  1.0048140E+03;  4.0220824E-01;  3.9510825E+03;3;  4.6672394E+01;  0.0000000E+00;  1.4050001E+01;0;  1.6899952E-01;  9.9994053E+03;  0.0000000E+00;  1.7669886E-02;  1.0000000E+04;  0.0000000E+00;  9.9865537E+03;  2.3695819E-02;  0.0000000E+00;  1.4530371E-01;  5.6887158E+03;
  1.0201337E+00;  9.9999998E-03;  2.6010615E-01;2638;  9.8998599E-02;  0.0000000E+00;  5.1474947E-02;  1.0047188E+03;  4.0220839E-01;  3.8729031E+03;3;  5.0562325E+01;  0.0000000E+00;  1.2555753E+01;0;  1.6402072E-01;  9.9982109E+03;  0.0000000E+00;  3.6606535E-02;  1.0000000E+04;  0.0000000E+00;  9.9858467E+03;  5.9018675E-02;  0.0000000E+00;  1.0500204E-01;  6.0358140E+03;
  1.0201410E+00;  9.9999998E-03;  2.8011376E-01;2639;  1.0277935E-01;  0.0000000E+00;  4.9142480E-02;  1.0047204E+03;  4.0220830E-01;  3.8742690E+03;3;  5.6475803E+01;  0.0000000E+00;  1.8651510E+01;0;  1.2541845E-01;  9.9969863E+03;  0.0000000E+00;  3.1387217E-02;  1.0000000E+04;  0.0000000E+00;  9.9871045E+03;  9.4823524E-02;  0.0000000E+00;  3.0594934E-02;  5.5501846E+03;
  1.0201452E+00;  9.9999998E-03;  3.0012012E-01;2640;  1.0334236E-01;  0.0000000E+00;  5.2416205E-02;  1.0047855E+03;  4.0220815E-01;  3.9275894E+03;3;  6.1706944E+01;  0.0000000E+00;  2.7810062E+01;0;  1.6101737E-01;  9.9958408E+03;  0.0000000E+00; -5.6653158E-03;  1.0000000E+04;  0.0000000E+00;  9.9895420E+03;  1.2708834E-01;  0.0000000E+00;  3.3929039E-02;  4.4518359E+03;
  1.0400860E+00;  9.9999998E-03;  1.6003899E-01;2664;  6.6629097E-02;  0.0000000E+00;  3.2883380E-02;  1.0045042E+03;  4.0191159E-01;  3.6849368E+03;3;  3.5390526E+01;  0.0000000E+00;  1.5742432E+01;0;  1.2590119E-01;  1.0002863E+04;  0.0000000E+00; -3.5531083E-04;  1.0000000E+04;  0.0000000E+00;  9.9916680E+03; -8.3558425E-02;  0.0000000E+00;  2.0945962E-01;  3.2717864E+03;
  1.0400923E+00;  9.9999998E-03;  1.8004578E-01;2665;  7.1672067E-02;  0.0000000E+00;  3.6967743E-02;  1.0044200E+03;  4.0191171E-01;  3.6160789E+03;3;  3.7668770E+01;  0.0000000E+00;  1.6219288E+01;0;  1.2789556E-01;  1.0002381E+04;  0.0000000E+00; -4.1510467E-03;  1.0000000E+04;  0.0000000E+00;  9.9904746E+03; -6.8104364E-02;  0.0000000E+00;  1.9599994E-01;  3.7848386E+03;
  1.0401000E+00;  9.9999998E-03;  2.0005350E-01;2666;  7.7509895E-02;  0.0000000E+00;  4.0651433E-02;  1.0043297E+03;  4.0191171E-01;  3.5421492E+03;3;  4.0113106E+01;  0.0000000E+00;  1.6173195E+01;0;  1.2994349E-01;  1.0001737E+04;  0.0000000E+00; -1.3613673E-02;  1.0000000E+04;  0.0000000E+00;  9.9893193E+03; -4.8144579E-02;  0.0000000E+00;  1.7808807E-01;  4.2850791E+03;
  1.0401100E+00;  9.9999998E-03;  2.2006465E-01;2667;  8.4517293E-02;  0.0000000E+00;  4.4526342E-02;  1.0042432E+03;  4.0191177E-01;  3.4714360E+03;3;  4.3320007E+01;  0.0000000E+00;  1.5396846E+01;0;  1.3479438E-01;  1.0000941E+04;  0.0000000E+00; -1.8788964E-02;  1.0000000E+04;  0.0000000E+00;  9.9883936E+03; -2.4087247E-02;  0.0000000E+00;  1.5888163E-01;  4.6865029E+03;
  1.0401227E+00;  9.9999998E-03;  2.4007986E-01;2668;  9.2511371E-02;  0.0000000E+00;  4.7218893E-02;  1.0041577E+03;  4.0191188E-01;  3.4014043E+03;3;  4.7022305E+01;  0.0000000E+00;  1.2951852E+01;0;  1.4575595E-01;  9.9999639E+03;  0.0000000E+00; -6.4565809E-03;  1.0000000E+04;  0.0000000E+00;  9.9876660E+03;  4.8105041E-03;  0.0000000E+00;  1.4094545E-01;  5.0004434E+03;
  1.0401360E+00;  9.9999998E-03;  2.6009461E-01;2669;  9.9803299E-02;  0.0000000E+00;  4.6302944E-02;  1.0040725E+03;  4.0191185E-01;  3.3317629E+03;3;  5.0957066E+01;  0.0000000E+00;  1.2133755E+01;0;  1.4226887E-01;  9.9987783E+03;  0.0000000E+00;  1.0162736E-02;  1.0000000E+04;  0.0000000E+00;  9.9871572E+03;  3.8920712E-02;  0.0000000E+00;  1.0334815E-01;  5.2459072E+03;
  1.0401478E+00;  9.9999998E-03;  2.8010178E-01;2670;  1.0572830E-01;  0.0000000E+00;  4.4592254E-02;  1.0040723E+03;  4.0191180E-01;  3.3315605E+03;3;  5.7698032E+01;  0.0000000E+00;  1.7121441E+01;0;  1.1185141E-01;  9.9974063E+03;  0.0000000E+00;  2.3836349E-03;  1.0000000E+04;  0.0000000E+00;  9.9885283E+03;  7.7235445E-02;  0.0000000E+00;  3.4615964E-02;  4.7263003E+03;
  1.0401576E+00;  9.9999998E-03;  3.0010805E-01;2671;  1.1055748E-01;  0.0000000E+00;  4.7510449E-02;  1.0041157E+03;  4.0191174E-01;  3.3670537E+03;3;  6.6715942E+01;  0.0000000E+00;  2.4890495E+01;0;  1.4791526E-01;  9.9959258E+03;  0.0000000E+00;  8.7153306E-03;  1.0000000E+04;  0.0000000E+00;  9.9908691E+03;  1.1820618E-01;  0.0000000E+00;  2.9709075E-02;  3.7258694E+03;
  1.0600822E+00;  9.9999998E-03;  1.6003464E-01;2695;  6.4207032E-02;  0.0000000E+00;  2.9269159E-02;  1.0038879E+03;  4.0165064E-01;  3.1670989E+03;3;  3.4607113E+01;  0.0000000E+00;  1.4245034E+01;0;  1.0589026E-01;  1.0002864E+04;  0.0000000E+00; -2.2989132E-03;  1.0000000E+04;  0.0000000E+00;  9.9923848E+03; -8.3709717E-02;  0.0000000E+00;  1.8959998E-01;  2.8459382E+03;
  1.0600885E+00;  9.9999998E-03;  1.8004091E-01;2696;  6.9379091E-02;  0.0000000E+00;  3.3025578E-02;  1.0038082E+03;  4.0165067E-01;  3.1021287E+03;3;  3.7023106E+01;  0.0000000E+00;  1.4782135E+01;0;  1.1109836E-01;  1.0002410E+04;  0.0000000E+00; -1.6011426E-02;  1.0000000E+04;  0.0000000E+00;  9.9912471E+03; -6.9341034E-02;  0.0000000E+00;  1.8043940E-01;  3.3050598E+03;
  1.0600966E+00;  9.9999998E-03;  2.0004816E-01;2697;  7.5635612E-02;  0.0000000E+00;  3.6475621E-02;  1.0037272E+03;  4.0165073E-01;  3.0361860E+03;3;  4.0065216E+01;  0.0000000E+00;  1.4673057E+01;0;  1.1470407E-01;  1.0001892E+04;  0.0000000E+00; -4.5886751E-02;  1.0000000E+04;  0.0000000E+00;  9.9901523E+03; -5.3221691E-02;  0.0000000E+00;  1.6792576E-01;  3.7529321E+03;
  1.0601077E+00;  9.9999998E-03;  2.2005884E-01;2698;  8.3534837E-02;  0.0000000E+00;  3.9858222E-02;  1.0036515E+03;  4.0165082E-01;  2.9745137E+03;3;  4.3915604E+01;  0.0000000E+00;  1.3199025E+01;0;  1.1968639E-01;  1.0001287E+04;  0.0000000E+00; -7.4393697E-02;  1.0000000E+04;  0.0000000E+00;  9.9892510E+03; -3.4725368E-02;  0.0000000E+00;  1.5441176E-01;  4.1254834E+03;
  1.0601220E+00;  9.9999998E-03;  2.4007268E-01;2699;  9.2269942E-02;  0.0000000E+00;  4.2231701E-02;  1.0035746E+03;  4.0165076E-01;  2.9118691E+03;3;  4.7667599E+01;  0.0000000E+00;  1.1858381E+01;0;  1.2881327E-01;  1.0000493E+04;  0.0000000E+00; -8.0261938E-02;  1.0000000E+04;  0.0000000E+00;  9.9885156E+03; -1.1056015E-02;  0.0000000E+00;  1.3986929E-01;  4.4244570E+03;
  1.0601388E+00;  9.9999998E-03;  2.6008561E-01;2700;  1.0131103E-01;  0.0000000E+00;  4.2082112E-02;  1.0034960E+03;  4.0165073E-01;  2.8478630E+03;3;  5.2510994E+01;  0.0000000E+00;  1.1877891E+01;0;  1.2940428E-01;  9.9993320E+03;  0.0000000E+00; -8.3067328E-02;  1.0000000E+04;  0.0000000E+00;  9.9881094E+03;  2.1671716E-02;  0.0000000E+00;  1.0773256E-01;  4.6079570E+03;
  1.0601553E+00;  9.9999998E-03;  2.8009269E-01;2701;  1.0964158E-01;  0.0000000E+00;  4.1449953E-02;  1.0034805E+03;  4.0165085E-01;  2.8352278E+03;3;  6.0736034E+01;  0.0000000E+00;  1.5740234E+01;0;  1.1828680E-01;  9.9977100E+03;  0.0000000E+00; -7.9229511E-02;  1.0000000E+04;  0.0000000E+00;  9.9894268E+03;  6.5250374E-02;  0.0000000E+00;  5.3036422E-02;  4.1217529E+03;
  1.0601709E+00;  9.9999998E-03;  3.0009931E-01;2702;  1.1827900E-01;  0.0000000E+00;  4.4538461E-02;  1.0034706E+03;  4.0165070E-01;  2.8270601E+03;3;  7.2304428E+01;  0.0000000E+00;  2.1986870E+01;0;  1.8121886E-01;  9.9955264E+03;  0.0000000E+00;  1.0463591E-01;  1.0000000E+04;  0.0000000E+00;  9.9914229E+03;  1.2571201E-01;  0.0000000E+00;  5.5506863E-02;  3.3113115E+03;
  1.0800782E+00;  9.9999998E-03;  1.6003087E-01;2726;  6.1795831E-02;  0.0000000E+00;  2.6056647E-02;  1.0033438E+03;  4.0142658E-01;  2.7083018E+03;3;  3.3842705E+01;  0.0000000E+00;  1.2805416E+01;0;  9.5797017E-02;  1.0002634E+04;  0.0000000E+00; -9.8750480E-03;  1.0000000E+04;  0.0000000E+00;  9.9929297E+03; -7.7291548E-02;  0.0000000E+00;  1.7308857E-01;  2.4801013E+03;
  1.0800848E+00;  9.9999998E-03;  1.8003656E-01;2727;  6.7203850E-02;  0.0000000E+00;  2.9311553E-02;  1.0032705E+03;  4.0142661E-01;  2.6490105E+03;3;  3.6649757E+01;  0.0000000E+00;  1.3061849E+01;0;  1.0276200E-01;  1.0002258E+04;  0.0000000E+00; -4.4681739E-02;  1.0000000E+04;  0.0000000E+00;  9.9918408E+03; -6.5514416E-02;  0.0000000E+00;  1.6827641E-01;  2.8913228E+03;
  1.0800937E+00;  9.9999998E-03;  2.0004390E-01;2728;  7.4160911E-02;  0.0000000E+00;  3.2517310E-02;  1.0032020E+03;  4.0142661E-01;  2.5935801E+03;3;  4.0221462E+01;  0.0000000E+00;  1.2477375E+01;0;  1.0585672E-01;  1.0001931E+04;  0.0000000E+00; -1.0898172E-01;  1.0000000E+04;  0.0000000E+00;  9.9908076E+03; -5.4973949E-02;  0.0000000E+00;  1.6083066E-01;  3.3017981E+03;
  1.0801061E+00;  9.9999998E-03;  2.2005445E-01;2729;  8.2833320E-02;  0.0000000E+00;  3.5569333E-02;  1.0031401E+03;  4.0142649E-01;  2.5433608E+03;3;  4.4246613E+01;  0.0000000E+00;  1.1263751E+01;0;  1.0861911E-01;  1.0001587E+04;  0.0000000E+00; -1.7424452E-01;  1.0000000E+04;  0.0000000E+00;  9.9899199E+03; -4.3430924E-02;  0.0000000E+00;  1.5205003E-01;  3.6700779E+03;
  1.0801221E+00;  9.9999998E-03;  2.4006720E-01;2730;  9.2475280E-02;  0.0000000E+00;  3.7637986E-02;  1.0030730E+03;  4.0142658E-01;  2.4889871E+03;3;  4.8595184E+01;  0.0000000E+00;  1.0587629E+01;0;  1.1411008E-01;  1.0001012E+04;  0.0000000E+00; -2.1231847E-01;  1.0000000E+04;  0.0000000E+00;  9.9891631E+03; -2.5471391E-02;  0.0000000E+00;  1.3958147E-01;  3.9786626E+03;
  1.0801415E+00;  9.9999998E-03;  2.6007852E-01;2731;  1.0283618E-01;  0.0000000E+00;  3.8151771E-02;  1.0029988E+03;  4.0142649E-01;  2.4289148E+03;3;  5.4625233E+01;  0.0000000E+00;  1.1285349E+01;0;  1.1806928E-01;  9.9998379E+03;  0.0000000E+00; -2.4118982E-01;  1.0000000E+04;  0.0000000E+00;  9.9888643E+03;  7.0860703E-03;  0.0000000E+00;  1.1098322E-01;  4.1253208E+03;
  1.0801610E+00;  9.9999998E-03;  2.8008553E-01;2732;  1.1288743E-01;  0.0000000E+00;  3.8786232E-02;  1.0029622E+03;  4.0142664E-01;  2.3991609E+03;3;  6.4333534E+01;  0.0000000E+00;  1.4961359E+01;0;  1.3076979E-01;  9.9978525E+03;  0.0000000E+00; -1.6790248E-01;  1.0000000E+04;  0.0000000E+00;  9.9901152E+03;  5.9857748E-02;  0.0000000E+00;  7.0912041E-02;  3.6271934E+03;
  1.0801803E+00;  9.9999998E-03;  3.0009201E-01;2733;  1.2347907E-01;  0.0000000E+00;  4.1780006E-02;  1.0028933E+03;  4.0142649E-01;  2.3434346E+03;3;  7.7143768E+01;  0.0000000E+00;  1.9687864E+01;0;  2.2146302E-01;  9.9947080E+03;  0.0000000E+00;  3.7999436E-01;  1.0000000E+04;  0.0000000E+00;  9.9918975E+03;  1.4614448E-01;  0.0000000E+00;  7.5318545E-02;  3.2137527E+03;
  1.1000745E+00;  9.9999998E-03;  1.6002725E-01;2756;  5.9498519E-02;  0.0000000E+00;  2.2840913E-02;  1.0028726E+03;  4.0123853E-01;  2.3092275E+03;3;  3.3153839E+01;  0.0000000E+00;  1.1182063E+01;0;  9.3991123E-02;  1.0002219E+04;  0.0000000E+00; -3.1259105E-02;  1.0000000E+04;  0.0000000E+00;  9.9933242E+03; -6.6200383E-02;  0.0000000E+00;  1.6019151E-01;  2.1661270E+03;
  1.1000817E+00;  9.9999998E-03;  1.8003292E-01;2757;  6.5396145E-02;  0.0000000E+00;  2.5843235E-02;  1.0028093E+03;  4.0123844E-01;  2.2583347E+03;3;  3.6392998E+01;  0.0000000E+00;  1.1133433E+01;0;  1.0041163E-01;  1.0001985E+04;  0.0000000E+00; -1.0034773E-01;  1.0000000E+04;  0.0000000E+00;  9.9922949E+03; -5.8824636E-02;  0.0000000E+00;  1.5923627E-01;  2.5401218E+03;
  1.1000917E+00;  9.9999998E-03;  2.0004065E-01;2758;  7.3097557E-02;  0.0000000E+00;  2.8878743E-02;  1.0027563E+03;  4.0123856E-01;  2.2156807E+03;3;  4.0354179E+01;  0.0000000E+00;  1.0486789E+01;0;  1.0081208E-01;  1.0001896E+04;  0.0000000E+00; -2.0818873E-01;  1.0000000E+04;  0.0000000E+00;  9.9913252E+03; -5.5055998E-02;  0.0000000E+00;  1.5586808E-01;  2.9416523E+03;
  1.1001054E+00;  9.9999998E-03;  2.2005118E-01;2759;  8.2524776E-02;  0.0000000E+00;  3.1641014E-02;  1.0027086E+03;  4.0123865E-01;  2.1773359E+03;3;  4.4836346E+01;  0.0000000E+00;  9.5475912E+00;0;  9.9713475E-02;  1.0001812E+04;  0.0000000E+00; -3.1395382E-01;  1.0000000E+04;  0.0000000E+00;  9.9904600E+03; -5.0384399E-02;  0.0000000E+00;  1.5009788E-01;  3.3370481E+03;
  1.1001230E+00;  9.9999998E-03;  2.4006300E-01;2760;  9.3120083E-02;  0.0000000E+00;  3.3644553E-02;  1.0026494E+03;  4.0123853E-01;  2.1297883E+03;3;  5.0045002E+01;  0.0000000E+00;  9.5270138E+00;0;  1.0224994E-01;  1.0001389E+04;  0.0000000E+00; -3.8671196E-01;  1.0000000E+04;  0.0000000E+00;  9.9897100E+03; -3.5806123E-02;  0.0000000E+00;  1.3805605E-01;  3.6716155E+03;
  1.1001433E+00;  9.9999998E-03;  2.6007259E-01;2761;  1.0379512E-01;  0.0000000E+00;  3.4428898E-02;  1.0025844E+03;  4.0123850E-01;  2.0775437E+03;3;  5.7233330E+01;  0.0000000E+00;  1.0648401E+01;0;  1.0581839E-01;  1.0000144E+04;  0.0000000E+00; -4.0000683E-01;  1.0000000E+04;  0.0000000E+00;  9.9896602E+03; -1.8733934E-03;  0.0000000E+00;  1.0769179E-01;  3.7172463E+03;
  1.1001630E+00;  9.9999998E-03;  2.8007931E-01;2762;  1.1438502E-01;  0.0000000E+00;  3.6222763E-02;  1.0025323E+03;  4.0123856E-01;  2.0356498E+03;3;  6.8255669E+01;  0.0000000E+00;  1.4433763E+01;0;  1.4238364E-01;  9.9978408E+03;  0.0000000E+00; -1.3580965E-01;  1.0000000E+04;  0.0000000E+00;  9.9909326E+03;  6.0924280E-02;  0.0000000E+00;  8.1459358E-02;  3.0325637E+03;
  1.1200715E+00;  9.9999998E-03;  1.6002420E-01;2785;  5.7640936E-02;  0.0000000E+00;  1.9922981E-02;  1.0024742E+03;  4.0108442E-01;  1.9693602E+03;3;  3.2704163E+01;  0.0000000E+00;  9.5175505E+00;0;  9.8033756E-02;  1.0001681E+04;  0.0000000E+00; -8.0024138E-02;  1.0000000E+04;  0.0000000E+00;  9.9935977E+03; -5.2664544E-02;  0.0000000E+00;  1.5069830E-01;  1.8979570E+03;
  1.1200794E+00;  9.9999998E-03;  1.8003017E-01;2786;  6.4118318E-02;  0.0000000E+00;  2.2750499E-02;  1.0024243E+03;  4.0108433E-01;  1.9296892E+03;3;  3.6341652E+01;  0.0000000E+00;  9.2455664E+00;0;  1.0133269E-01;  1.0001639E+04;  0.0000000E+00; -1.9270012E-01;  1.0000000E+04;  0.0000000E+00;  9.9926455E+03; -5.1188417E-02;  0.0000000E+00;  1.5252110E-01;  2.2594260E+03;
  1.1200906E+00;  9.9999998E-03;  2.0003840E-01;2787;  7.2515577E-02;  0.0000000E+00;  2.5616942E-02;  1.0023873E+03;  4.0108436E-01;  1.9001677E+03;3;  4.0775940E+01;  0.0000000E+00;  8.5319605E+00;0;  9.7501740E-02;  1.0001791E+04;  0.0000000E+00; -3.4082189E-01;  1.0000000E+04;  0.0000000E+00;  9.9917588E+03; -5.4081198E-02;  0.0000000E+00;  1.5158294E-01;  2.6810195E+03;
  1.1201060E+00;  9.9999998E-03;  2.2004899E-01;2788;  8.2846917E-02;  0.0000000E+00;  2.8343474E-02;  1.0023494E+03;  4.0108427E-01;  1.8699781E+03;3;  4.5874401E+01;  0.0000000E+00;  8.2528219E+00;0;  9.3746282E-02;  1.0001873E+04;  0.0000000E+00; -4.7645795E-01;  1.0000000E+04;  0.0000000E+00;  9.9909180E+03; -5.3283654E-02;  0.0000000E+00;  1.4702994E-01;  3.1095576E+03;
  1.1201248E+00;  9.9999998E-03;  2.4005975E-01;2789;  9.3913093E-02;  0.0000000E+00;  3.0370394E-02;  1.0022929E+03;  4.0108436E-01;  1.8249836E+03;3;  5.2087929E+01;  0.0000000E+00;  8.6738110E+00;0;  9.6228436E-02;  1.0001412E+04;  0.0000000E+00; -5.5721527E-01;  1.0000000E+04;  0.0000000E+00;  9.9902598E+03; -3.7509818E-02;  0.0000000E+00;  1.3373825E-01;  3.4194089E+03;
  1.1201441E+00;  9.9999998E-03;  2.6006791E-01;2790;  1.0428268E-01;  0.0000000E+00;  3.1799562E-02;  1.0022370E+03;  4.0108433E-01;  1.7804640E+03;3;  6.0581398E+01;  0.0000000E+00;  1.0561905E+01;0;  1.0629658E-01;  1.0000043E+04;  0.0000000E+00; -4.5331496E-01;  1.0000000E+04;  0.0000000E+00;  9.9905176E+03;  2.9987446E-04;  0.0000000E+00;  1.0599671E-01;  3.1937773E+03;
  1.1201619E+00;  9.9999998E-03;  2.8007415E-01;2791;  1.1404925E-01;  0.0000000E+00;  3.4302954E-02;  1.0021776E+03;  4.0108427E-01;  1.7331953E+03;3;  7.1952972E+01;  0.0000000E+00;  1.4267611E+01;0;  1.6050261E-01;  9.9975820E+03;  0.0000000E+00;  1.3019061E-01;  1.0000000E+04;  0.0000000E+00;  9.9917949E+03;  6.8837963E-02;  0.0000000E+00;  9.1664650E-02;  2.4610242E+03;
  1.1400692E+00;  9.9999998E-03;  1.6002204E-01;2813;  5.6338862E-02;  0.0000000E+00;  1.7406575E-02;  1.0021466E+03;  4.0096068E-01;  1.6867340E+03;3;  3.2567638E+01;  0.0000000E+00;  7.7917171E+00;0;  1.0426745E-01;  1.0001104E+04;  0.0000000E+00; -1.7027766E-01;  1.0000000E+04;  0.0000000E+00;  9.9938076E+03; -3.9426193E-02;  0.0000000E+00;  1.4369364E-01;  1.6858148E+03;
  1.1400782E+00;  9.9999998E-03;  1.8002857E-01;2814;  6.3448660E-02;  0.0000000E+00;  2.0169564E-02;  1.0021124E+03;  4.0096074E-01;  1.6598396E+03;3;  3.6672272E+01;  0.0000000E+00;  7.4273863E+00;0;  1.0254282E-01;  1.0001278E+04;  0.0000000E+00; -3.2343227E-01;  1.0000000E+04;  0.0000000E+00;  9.9929502E+03; -4.4321503E-02;  0.0000000E+00;  1.4686432E-01;  2.0630369E+03;
  1.1400911E+00;  9.9999998E-03;  2.0003748E-01;2815;  7.2780706E-02;  0.0000000E+00;  2.3148300E-02;  1.0020866E+03;  4.0096065E-01;  1.6395914E+03;3;  4.1690624E+01;  0.0000000E+00;  7.1581602E+00;0;  9.5942773E-02;  1.0001584E+04;  0.0000000E+00; -4.9418852E-01;  1.0000000E+04;  0.0000000E+00;  9.9921289E+03; -5.1081784E-02;  0.0000000E+00;  1.4702456E-01;  2.5012644E+03;
  1.1401081E+00;  9.9999998E-03;  2.2004811E-01;2816;  8.3939366E-02;  0.0000000E+00;  2.6167585E-02;  1.0020458E+03;  4.0096065E-01;  1.6074426E+03;3;  4.7720219E+01;  0.0000000E+00;  7.5498338E+00;0;  9.6475445E-02;  1.0001604E+04;  0.0000000E+00; -6.3488263E-01;  1.0000000E+04;  0.0000000E+00;  9.9912949E+03; -4.7594793E-02;  0.0000000E+00;  1.4407024E-01;  2.9186267E+03;
  1.1401266E+00;  9.9999998E-03;  2.4005754E-01;2817;  9.4557673E-02;  0.0000000E+00;  2.8221544E-02;  1.0019885E+03;  4.0096062E-01;  1.5623671E+03;3;  5.4845196E+01;  0.0000000E+00;  8.4351788E+00;0;  1.0305651E-01;  1.0000924E+04;  0.0000000E+00; -6.3710892E-01;  1.0000000E+04;  0.0000000E+00;  9.9908379E+03; -2.6239041E-02;  0.0000000E+00;  1.2929554E-01;  3.0269824E+03;
  1.1401436E+00;  9.9999998E-03;  2.6006454E-01;2818;  1.0411809E-01;  0.0000000E+00;  3.0359477E-02;  1.0019386E+03;  4.0096074E-01;  1.5231952E+03;3;  6.4427971E+01;  0.0000000E+00;  1.1153820E+01;0;  1.2663537E-01;  9.9994141E+03;  0.0000000E+00; -2.7270249E-01;  1.0000000E+04;  0.0000000E+00;  9.9913535E+03;  1.7270362E-02;  0.0000000E+00;  1.0936501E-01;  2.4148013E+03;
  1.1600684E+00;  9.9999998E-03;  1.6002114E-01;2840;  5.5802941E-02;  0.0000000E+00;  1.5530915E-02;  1.0018876E+03;  4.0086374E-01;  1.4588948E+03;3;  3.2883465E+01;  0.0000000E+00;  6.2195010E+00;0;  1.0877148E-01;  1.0000579E+04;  0.0000000E+00; -3.0435154E-01;  1.0000000E+04;  0.0000000E+00;  9.9940010E+03; -2.9032404E-02;  0.0000000E+00;  1.3780388E-01;  1.5491405E+03;
  1.1600789E+00;  9.9999998E-03;  1.8002857E-01;2841;  6.3890263E-02;  0.0000000E+00;  1.8509259E-02;  1.0018654E+03;  4.0086371E-01;  1.4416521E+03;3;  3.7632011E+01;  0.0000000E+00;  6.1408920E+00;0;  1.0333553E-01;  1.0000912E+04;  0.0000000E+00; -4.7799379E-01;  1.0000000E+04;  0.0000000E+00;  9.9932236E+03; -3.8066894E-02;  0.0000000E+00;  1.4140242E-01;  1.9345006E+03;
  1.1600939E+00;  9.9999998E-03;  2.0003828E-01;2842;  7.4401014E-02;  0.0000000E+00;  2.1968497E-02;  1.0018347E+03;  4.0086374E-01;  1.4179548E+03;3;  4.3498936E+01;  0.0000000E+00;  6.5932722E+00;0;  1.0272364E-01;  1.0001130E+04;  0.0000000E+00; -6.4474130E-01;  1.0000000E+04;  0.0000000E+00;  9.9923994E+03; -4.0989637E-02;  0.0000000E+00;  1.4371328E-01;  2.3439102E+03;
  1.1601113E+00;  9.9999998E-03;  2.2004826E-01;2843;  8.5406981E-02;  0.0000000E+00;  2.5013864E-02;  1.0017794E+03;  4.0086365E-01;  1.3751846E+03;3;  5.0407089E+01;  0.0000000E+00;  7.4657998E+00;0;  1.1344288E-01;  1.0000817E+04;  0.0000000E+00; -7.2432703E-01;  1.0000000E+04;  0.0000000E+00;  9.9916123E+03; -2.8259372E-02;  0.0000000E+00;  1.4170225E-01;  2.6120093E+03;
  1.1601280E+00;  9.9999998E-03;  2.4005637E-01;2844;  9.5060945E-02;  0.0000000E+00;  2.7437523E-02;  1.0017192E+03;  4.0086368E-01;  1.3286396E+03;3;  5.8549160E+01;  0.0000000E+00;  9.2664576E+00;0;  1.3224474E-01;  9.9998369E+03;  0.0000000E+00; -5.0200939E-01;  1.0000000E+04;  0.0000000E+00;  9.9913896E+03;  1.6007256E-03;  0.0000000E+00;  1.3064401E-01;  2.3264321E+03;
  1.1601419E+00;  9.9999998E-03;  2.6006192E-01;2845;  1.0289084E-01;  0.0000000E+00;  2.9537983E-02;  1.0016821E+03;  4.0086362E-01;  1.2999716E+03;3;  6.8015892E+01;  0.0000000E+00;  1.2064432E+01;0;  1.6015449E-01;  9.9983281E+03;  0.0000000E+00;  2.3655297E-01;  1.0000000E+04;  0.0000000E+00;  9.9921602E+03;  4.5786299E-02;  0.0000000E+00;  1.1436819E-01;  1.8708213E+03;
  1.1800698E+00;  9.9999998E-03;  1.6002224E-01;2866;  5.6705784E-02;  0.0000000E+00;  1.4763636E-02;  1.0016871E+03;  4.0078905E-01;  1.2768235E+03;3;  3.4025028E+01;  0.0000000E+00;  5.1500068E+00;0;  1.1135035E-01;  1.0000118E+04;  0.0000000E+00; -4.6172085E-01;  1.0000000E+04;  0.0000000E+00;  9.9941807E+03; -2.1106606E-02;  0.0000000E+00;  1.3245696E-01;  1.4688619E+03;
  1.1800828E+00;  9.9999998E-03;  1.8003078E-01;2867;  6.6242792E-02;  0.0000000E+00;  1.8397525E-02;  1.0016590E+03;  4.0078911E-01;  1.2555134E+03;3;  3.9685825E+01;  0.0000000E+00;  5.8923755E+00;0;  1.1286376E-01;  1.0000339E+04;  0.0000000E+00; -6.2937146E-01;  1.0000000E+04;  0.0000000E+00;  9.9934014E+03; -2.5353489E-02;  0.0000000E+00;  1.3821726E-01;  1.8175743E+03;
  1.1800985E+00;  9.9999998E-03;  2.0004036E-01;2868;  7.6691091E-02;  0.0000000E+00;  2.1967066E-02;  1.0016072E+03;  4.0078914E-01;  1.2162478E+03;3;  4.6181580E+01;  0.0000000E+00;  6.8059678E+00;0;  1.2656675E-01;  1.0000162E+04;  0.0000000E+00; -7.3190838E-01;  1.0000000E+04;  0.0000000E+00;  9.9925459E+03; -1.6659025E-02;  0.0000000E+00;  1.4322577E-01;  2.0867532E+03;
  1.1801144E+00;  9.9999998E-03;  2.2004904E-01;2869;  8.6563513E-02;  0.0000000E+00;  2.4802959E-02;  1.0015382E+03;  4.0078908E-01;  1.1639929E+03;3;  5.3762817E+01;  0.0000000E+00;  8.1924486E+00;0;  1.4932820E-01;  9.9994395E+03;  0.0000000E+00; -6.0179526E-01;  1.0000000E+04;  0.0000000E+00;  9.9918926E+03;  7.5290417E-03;  0.0000000E+00;  1.4179917E-01;  2.0055834E+03;
  1.1801277E+00;  9.9999998E-03;  2.4005541E-01;2870;  9.4396636E-02;  0.0000000E+00;  2.7047904E-02;  1.0014902E+03;  4.0078908E-01;  1.1277104E+03;3;  6.2273083E+01;  0.0000000E+00;  1.0475801E+01;0;  1.7075036E-01;  9.9983955E+03;  0.0000000E+00; -4.4802139E-03;  1.0000000E+04;  0.0000000E+00;  9.9919785E+03;  3.9155483E-02;  0.0000000E+00;  1.3159488E-01;  1.5550175E+03;
  1.2000753E+00;  9.9999998E-03;  1.6002582E-01;2890;  5.9877805E-02;  0.0000000E+00;  1.5725156E-02;  1.0015145E+03;  4.0073296E-01;  1.1166284E+03;3;  3.6413845E+01;  0.0000000E+00;  5.2263031E+00;0;  1.2522838E-01;  9.9994092E+03;  0.0000000E+00; -6.1086327E-01;  1.0000000E+04;  0.0000000E+00;  9.9942451E+03; -5.2037062E-03;  0.0000000E+00;  1.3043208E-01;  1.3844554E+03;
  1.2000893E+00;  9.9999998E-03;  1.8003419E-01;2891;  6.9424562E-02;  0.0000000E+00;  1.9348798E-02;  1.0014626E+03;  4.0073305E-01;  1.0782870E+03;3;  4.2521465E+01;  0.0000000E+00;  6.3192797E+00;0;  1.4216858E-01;  9.9991748E+03;  0.0000000E+00; -7.1615362E-01;  1.0000000E+04;  0.0000000E+00;  9.9934424E+03;  3.4416937E-03;  0.0000000E+00;  1.3872689E-01;  1.6050812E+03;
  1.2001034E+00;  9.9999998E-03;  2.0004259E-01;2892;  7.8717880E-02;  0.0000000E+00;  2.2501631E-02;  1.0013924E+03;  4.0073299E-01;  1.0265009E+03;3;  4.9747944E+01;  0.0000000E+00;  7.7016063E+00;0;  1.6962305E-01;  9.9985566E+03;  0.0000000E+00; -6.0529900E-01;  1.0000000E+04;  0.0000000E+00;  9.9926592E+03;  2.5526211E-02;  0.0000000E+00;  1.4409684E-01;  1.5645387E+03;
  1.2001157E+00;  9.9999998E-03;  2.2004944E-01;2893;  8.6492173E-02;  0.0000000E+00;  2.4749359E-02;  1.0013330E+03;  4.0073302E-01;  9.8271631E+02;3;  5.7401447E+01;  0.0000000E+00;  9.3686905E+00;0;  1.9165820E-01;  9.9977705E+03;  0.0000000E+00; -8.4524266E-02;  1.0000000E+04;  0.0000000E+00;  9.9922598E+03;  5.1511563E-02;  0.0000000E+00;  1.4014664E-01;  1.2530115E+03;
  1.2200837E+00;  9.9999998E-03;  1.6003008E-01;2913;  6.3806117E-02;  0.0000000E+00;  1.7496122E-02;  1.0013334E+03;  4.0069169E-01;  9.5230927E+02;3;  3.9418674E+01;  0.0000000E+00;  6.0182223E+00;0;  1.6365708E-01;  9.9979189E+03;  0.0000000E+00; -6.7422885E-01;  1.0000000E+04;  0.0000000E+00;  9.9941865E+03;  3.0754117E-02;  0.0000000E+00;  1.3290296E-01;  1.1866520E+03;
  1.2200954E+00;  9.9999998E-03;  1.8003745E-01;2914;  7.1835108E-02;  0.0000000E+00;  2.0458639E-02;  1.0012703E+03;  4.0069166E-01;  9.0725092E+02;3;  4.6063171E+01;  0.0000000E+00;  7.2349243E+00;0;  1.8824860E-01;  9.9974141E+03;  0.0000000E+00; -5.7089192E-01;  1.0000000E+04;  0.0000000E+00;  9.9934297E+03;  4.7759630E-02;  0.0000000E+00;  1.4048897E-01;  1.1538446E+03;
  1.2201059E+00;  9.9999998E-03;  2.0004408E-01;2915;  7.9117313E-02;  0.0000000E+00;  2.2943027E-02;  1.0012121E+03;  4.0069172E-01;  8.6568695E+02;3;  5.3382278E+01;  0.0000000E+00;  8.9489717E+00;0;  2.1419483E-01;  9.9968408E+03;  0.0000000E+00; -8.2022503E-02;  1.0000000E+04;  0.0000000E+00;  9.9928418E+03;  7.0553727E-02;  0.0000000E+00;  1.4364111E-01;  9.3339056E+02;
  1.2201134E+00;  9.9999998E-03;  2.2004853E-01;2916;  8.3637930E-02;  0.0000000E+00;  2.3691269E-02;  1.0012040E+03;  4.0069160E-01;  8.5988635E+02;3;  5.9570892E+01;  0.0000000E+00;  9.8072748E+00;0;  1.9917342E-01;  9.9966934E+03;  0.0000000E+00;  7.9118180E-01;  1.0000000E+04;  0.0000000E+00;  9.9928252E+03;  7.2984241E-02;  0.0000000E+00;  1.2618917E-01;  1.4289594E+03;
  1.2400892E+00;  9.9999998E-03;  1.6003366E-01;2934;  6.5765962E-02;  0.0000000E+00;  1.8671362E-02;  1.0011721E+03;  4.0066180E-01;  8.0628455E+02;3;  4.2774769E+01;  0.0000000E+00;  6.7090664E+00;0;  2.0504765E-01;  9.9962910E+03;  0.0000000E+00; -4.4142285E-01;  1.0000000E+04;  0.0000000E+00;  9.9940752E+03;  7.0444867E-02;  0.0000000E+00;  1.3460279E-01;  7.6437164E+02;
  1.2400967E+00;  9.9999998E-03;  1.8003936E-01;2935;  7.1409993E-02;  0.0000000E+00;  2.0567855E-02;  1.0011451E+03;  4.0066189E-01;  7.8773914E+02;3;  4.9096985E+01;  0.0000000E+00;  7.8772755E+00;0;  2.1088158E-01;  9.9963271E+03;  0.0000000E+00; -3.8908923E-03;  1.0000000E+04;  0.0000000E+00;  9.9935020E+03;  7.5381562E-02;  0.0000000E+00;  1.3550001E-01;  6.6698779E+02;
  1.2600886E+00;  9.9999998E-03;  1.6003546E-01;2952;  6.4321660E-02;  0.0000000E+00;  1.8449184E-02;  1.0011109E+03;  4.0064079E-01;  7.3212439E+02;3;  4.5295990E+01;  0.0000000E+00;  7.1067824E+00;0;  2.0145231E-01;  9.9961680E+03;  0.0000000E+00;  1.7881529E-01;  1.0000000E+04;  0.0000000E+00;  9.9940371E+03;  7.3761165E-02;  0.0000000E+00;  1.2769115E-01;  5.0617432E+02;
