TimeStep;Np;Nbound;Nfixed;Nmoving;Nfloat;Nfluid
0.00513973;2975;1031;1031;0;0;1944

Pos.x;Pos.y;Pos.z;Idp;Vel.x;Vel.y;Vel.z;Rhop;Mass;Press;Type;Acec.x;Acec.y;Acec.z;CellOffSpring;GradVel;Qfxx;Qfxy;Qfxz;Qfyy;Qfyz;Qfzz;StrainDot.x;StrainDot.y;StrainDot.z;VonMises3D;
 -2.2000000E-01;  9.9999998E-03; -3.8000000E-01;0;  0.0000000E+00;  0.0000000E+00;  0.0000000E+00;  1.0000000E+03;  4.0000001E-01;  0.0000000E+00;0;  0.0000000E+00;  0.0000000E+00;  0.0000000E+00;0;  0.0000000E+00;  1.0000000E+04;  0.0000000E+00;  0.0000000E+00;  1.0000000E+04;  0.0000000E+00;  1.0000000E+04;  0.0000000E+00;  0.0000000E+00;  0.0000000E+00;  0.0000000E+00;
 -2.2000000E-01;  9.9999998E-03; -3.6000001E-01;1;  0.0000000E+00;  0.0000000E+00;  0.0000000E+00;  1.0000000E+03;  4.0000001E-01;  0.0000000E+00;0;  0.0000000E+00;  0.0000000E+00;  0.0000000E+00;0;  0.0000000E+00;  1.0000000E+04;  0.0000000E+00;  0.0000000E+00;  1.0000000E+04;  0.0000000E+00;  1.0000000E+04;  0.0000000E+00;  0.0000000E+00;  0.0000000E+00;  0.0000000E+00;
 -2.0000000E-01;  9.9999998E-03; -4.0000001E-01;39;  0.0000000E+00;  0.0000000E+00;  0.0000000E+00;  1.0000000E+03;  4.0000001E-01;  0.0000000E+00;0;  0.0000000E+00;  0.0000000E+00;  0.0000000E+00;0;  0.0000000E+00;  1.0000000E+04;  0.0000000E+00;  0.0000000E+00;  1.0000000E+04;  0.0000000E+00;  1.0000000E+04;  0.0000000E+00;  0.0000000E+00;  0.0000000E+00;  0.0000000E+00;
 -2.0000000E-01;  9.9999998E-03; -3.8000000E-01;40;  0.0000000E+00;  0.0000000E+00;  0.0000000E+00;  1.0000000E+03;  4.0000001E-01;  0.0000000E+00;0;  0.0000000E+00;  0.0000000E+00;  0.0000000E+00;0;  0.0000000E+00;  1.0000000E+04;  0.0000000E+00;  0.0000000E+00;  1.0000000E+04;  0.0000000E+00;  1.0000000E+04;  0.0000000E+00;  0.0000000E+00;  0.0000000E+00;  0.0000000E+00;
 -2.0000000E-01;  9.9999998E-03; -3.6000001E-01;41;  0.0000000E+00;  0.0000000E+00;  0.0000000E+00;  1.0000000E+03;  4.0000001E-01;  0.0000000E+00;0;  0.0000000E+00;  0.0000000E+00;  0.0000000E+00;0;  0.0000000E+00;  1.0000000E+04;  0.0000000E+00;  0.0000000E+00;  1.0000000E+04;  0.0000000E+00;  1.0000000E+04;  0.0000000E+00;  0.0000000E+00;  0.0000000E+00;  0.0000000E+00;
 -1.8000001E-01;  9.9999998E-03; -4.0000001E-01;80;  0.0000000E+00;  0.0000000E+00;  0.0000000E+00;  1.0000000E+03;  4.0000001E-01;  0.0000000E+00;0;  0.0000000E+00;  0.0000000E+00;  0.0000000E+00;0;  0.0000000E+00;  1.0000000E+04;  0.0000000E+00;  0.0000000E+00;  1.0000000E+04;  0.0000000E+00;  1.0000000E+04;  0.0000000E+00;  0.0000000E+00;  0.0000000E+00;  0.0000000E+00;
 -1.8000001E-01;  9.9999998E-03; -3.8000000E-01;81;  0.0000000E+00;  0.0000000E+00;  0.0000000E+00;  1.0000000E+03;  4.0000001E-01;  0.0000000E+00;0;  0.0000000E+00;  0.0000000E+00;  0.0000000E+00;0;  0.0000000E+00;  1.0000000E+04;  0.0000000E+00;  0.0000000E+00;  1.0000000E+04;  0.0000000E+00;  1.0000000E+04;  0.0000000E+00;  0.0000000E+00;  0.0000000E+00;  0.0000000E+00;
 -1.8000001E-01;  9.9999998E-03; -3.6000001E-01;82;  0.0000000E+00;  0.0000000E+00;  0.0000000E+00;  1.0000000E+03;  4.0000001E-01;  0.0000000E+00;0;  0.0000000E+00;  0.0000000E+00;  0.0000000E+00;0;  0.0000000E+00;  1.0000000E+04;  0.0000000E+00;  0.0000000E+00;  1.0000000E+04;  0.0000000E+00;  1.0000000E+04;  0.0000000E+00;  0.0000000E+00;  0.0000000E+00;  0.0000000E+00;
 -1.6000000E-01;  9.9999998E-03; -4.0000001E-01;121;  0.0000000E+00;  0.0000000E+00;  0.0000000E+00;  1.0000000E+03;  4.0000001E-01;  0.0000000E+00;0;  0.0000000E+00;  0.0000000E+00;  0.0000000E+00;0;  0.0000000E+00;  1.0000000E+04;  0.0000000E+00;  0.0000000E+00;  1.0000000E+04;  0.0000000E+00;  1.0000000E+04;  0.0000000E+00;  0.0000000E+00;  0.0000000E+00;  0.0000000E+00;
 -1.6000000E-01;  9.9999998E-03; -3.8000000E-01;122;  0.0000000E+00;  0.0000000E+00;  0.0000000E+00;  1.0000000E+03;  4.0000001E-01;  0.0000000E+00;0;  0.0000000E+00;  0.0000000E+00;  0.0000000E+00;0;  0.0000000E+00;  1.0000000E+04;  0.0000000E+00;  0.0000000E+00;  1.0000000E+04;  0.0000000E+00;  1.0000000E+04;  0.0000000E+00;  0.0000000E+00;  0.0000000E+00;  0.0000000E+00;
 -1.6000000E-01;  9.9999998E-03; -3.6000001E-01;123;  0.0000000E+00;  0.0000000E+00;  0.0000000E+00;  1.0000000E+03;  4.0000001E-01;  0.0000000E+00;0;  0.0000000E+00;  0.0000000E+00;  0.0000000E+00;0;  0.0000000E+00;  1.0000000E+04;  0.0000000E+00;  0.0000000E+00;  1.0000000E+04;  0.0000000E+00;  1.0000000E+04;  0.0000000E+00;  0.0000000E+00;  0.0000000E+00;  0.0000000E+00;
 -1.4000000E-01;  9.9999998E-03; -4.0000001E-01;162;  0.0000000E+00;  0.0000000E+00;  0.0000000E+00;  1.0000000E+03;  4.0000001E-01;  0.0000000E+00;0;  0.0000000E+00;  0.0000000E+00;  0.0000000E+00;0;  0.0000000E+00;  1.0000000E+04;  0.0000000E+00;  0.0000000E+00;  1.0000000E+04;  0.0000000E+00;  1.0000000E+04;  0.0000000E+00;  0.0000000E+00;  0.0000000E+00;  0.0000000E+00;
 -1.4000000E-01;  9.9999998E-03; -3.8000000E-01;163;  0.0000000E+00;  0.0000000E+00;  0.0000000E+00;  1.0000000E+03;  4.0000001E-01;  0.0000000E+00;0;  0.0000000E+00;  0.0000000E+00;  0.0000000E+00;0;  0.0000000E+00;  1.0000000E+04;  0.0000000E+00;  0.0000000E+00;  1.0000000E+04;  0.0000000E+00;  1.0000000E+04;  0.0000000E+00;  0.0000000E+00;  0.0000000E+00;  0.0000000E+00;
 -1.4000000E-01;  9.9999998E-03; -3.6000001E-01;164;  0.0000000E+00;  0.0000000E+00;  0.0000000E+00;  1.0000000E+03;  4.0000001E-01;  0.0000000E+00;0;  0.0000000E+00;  0.0000000E+00;  0.0000000E+00;0; -1.9177045E-07;  1.0000000E+04;  0.0000000E+00;  0.0000000E+00;  1.0000000E+04;  0.0000000E+00;  1.0000000E+04; -1.5144228E-07;  0.0000000E+00; -4.0328178E-08;  3.1779933E-04;
 -1.2000000E-01;  9.9999998E-03; -4.0000001E-01;203;  0.0000000E+00;  0.0000000E+00;  0.0000000E+00;  1.0000000E+03;  4.0000001E-01;  0.0000000E+00;0;  0.0000000E+00;  0.0000000E+00;  0.0000000E+00;0; -5.8632157E-21;  1.0000000E+04;  0.0000000E+00;  0.0000000E+00;  1.0000000E+04;  0.0000000E+00;  1.0000000E+04; -4.1337426E-21;  0.0000000E+00; -1.7294731E-21;  2.4670209E-18;
 -1.2000000E-01;  9.9999998E-03; -3.8000000E-01;204;  0.0000000E+00;  0.0000000E+00;  0.0000000E+00;  1.0000000E+03;  4.0000001E-01;  0.0000000E+00;0;  0.0000000E+00;  0.0000000E+00;  0.0000000E+00;0; -1.0139000E-06;  1.0000000E+04;  0.0000000E+00;  0.0000000E+00;  1.0000000E+04;  0.0000000E+00;  1.0000000E+04; -7.1834302E-07;  0.0000000E+00; -2.9555702E-07;  2.3561122E-03;
 -1.2000000E-01;  9.9999998E-03; -3.6000001E-01;205;  0.0000000E+00;  0.0000000E+00;  0.0000000E+00;  1.0000000E+03;  4.0000001E-01;  0.0000000E+00;0;  0.0000000E+00;  0.0000000E+00;  0.0000000E+00;0; -6.8459804E-06;  1.0000000E+04;  0.0000000E+00;  0.0000000E+00;  1.0000000E+04;  0.0000000E+00;  1.0000000E+04; -5.1770694E-06;  0.0000000E+00; -1.6689112E-06;  1.3235464E-02;
 -1.0000000E-01;  9.9999998E-03; -4.0000001E-01;244;  0.0000000E+00;  0.0000000E+00;  0.0000000E+00;  1.0000000E+03;  4.0000001E-01;  0.0000000E+00;0;  0.0000000E+00;  0.0000000E+00;  0.0000000E+00;0; -1.8694780E-06;  1.0000000E+04;  0.0000000E+00;  0.0000000E+00;  1.0000000E+04;  0.0000000E+00;  1.0000000E+04; -1.2416378E-06;  0.0000000E+00; -6.2784011E-07;  5.0426777E-03;
 -1.0000000E-01;  9.9999998E-03; -3.8000000E-01;245;  0.0000000E+00;  0.0000000E+00;  0.0000000E+00;  1.0000000E+03;  4.0000001E-01;  0.0000000E+00;0;  0.0000000E+00;  0.0000000E+00;  0.0000000E+00;0; -1.3579485E-05;  1.0000000E+04;  0.0000000E+00;  0.0000000E+00;  1.0000000E+04;  0.0000000E+00;  1.0000000E+04; -9.1274223E-06;  0.0000000E+00; -4.4520634E-06;  3.5733510E-02;
 -1.0000000E-01;  9.9999998E-03; -3.6000001E-01;246;  0.0000000E+00;  0.0000000E+00;  0.0000000E+00;  1.0000000E+03;  4.0000001E-01;  0.0000000E+00;0;  0.0000000E+00;  0.0000000E+00;  0.0000000E+00;0; -4.2746713E-05;  1.0000000E+04;  0.0000000E+00;  0.0000000E+00;  1.0000000E+04;  0.0000000E+00;  1.0000000E+04; -3.1104046E-05;  0.0000000E+00; -1.1642666E-05;  9.3136877E-02;
 -7.9999998E-02;  9.9999998E-03; -4.0000001E-01;285;  0.0000000E+00;  0.0000000E+00;  0.0000000E+00;  1.0000000E+03;  4.0000001E-01;  0.0000000E+00;0;  0.0000000E+00;  0.0000000E+00;  0.0000000E+00;0; -1.5789377E-05;  1.0000000E+04;  0.0000000E+00;  0.0000000E+00;  1.0000000E+04;  0.0000000E+00;  1.0000000E+04; -9.9126910E-06;  0.0000000E+00; -5.8766873E-06;  4.7512729E-02;
 -7.9999998E-02;  9.9999998E-03; -3.8000000E-01;286;  0.0000000E+00;  0.0000000E+00;  0.0000000E+00;  1.0000000E+03;  4.0000001E-01;  0.0000000E+00;0;  0.0000000E+00;  0.0000000E+00;  0.0000000E+00;0; -5.9928767E-05;  1.0000000E+04;  0.0000000E+00;  0.0000000E+00;  1.0000000E+04;  0.0000000E+00;  1.0000000E+04; -3.8504168E-05;  0.0000000E+00; -2.1424599E-05;  1.7338425E-01;
 -7.9999998E-02;  9.9999998E-03; -3.6000001E-01;287;  0.0000000E+00;  0.0000000E+00;  0.0000000E+00;  1.0000001E+03;  4.0000001E-01;  9.8762624E-02;0;  0.0000000E+00;  0.0000000E+00;  0.0000000E+00;0; -1.4400018E-04;  1.0000000E+04;  0.0000000E+00;  0.0000000E+00;  1.0000000E+04;  0.0000000E+00;  1.0000000E+04; -1.0123465E-04;  0.0000000E+00; -4.2765532E-05;  3.4506139E-01;
 -5.9999999E-02;  9.9999998E-03; -4.0000001E-01;326;  0.0000000E+00;  0.0000000E+00;  0.0000000E+00;  1.0000000E+03;  4.0000001E-01;  0.0000000E+00;0;  0.0000000E+00;  0.0000000E+00;  0.0000000E+00;0; -5.6520184E-05;  1.0000000E+04;  0.0000000E+00;  0.0000000E+00;  1.0000000E+04;  0.0000000E+00;  1.0000000E+04; -3.3674081E-05;  0.0000000E+00; -2.2846103E-05;  1.8632007E-01;
 -5.9999999E-02;  9.9999998E-03; -3.8000000E-01;327;  0.0000000E+00;  0.0000000E+00;  0.0000000E+00;  1.0000001E+03;  4.0000001E-01;  9.8762624E-02;0;  0.0000000E+00;  0.0000000E+00;  0.0000000E+00;0; -1.6524259E-04;  1.0000000E+04;  0.0000000E+00;  0.0000000E+00;  1.0000000E+04;  0.0000000E+00;  1.0000000E+04; -1.0152309E-04;  0.0000000E+00; -6.3719490E-05;  5.2062786E-01;
 -5.9999999E-02;  9.9999998E-03; -3.6000001E-01;328;  0.0000000E+00;  0.0000000E+00;  0.0000000E+00;  1.0000003E+03;  4.0000001E-01;  2.9628786E-01;0;  0.0000000E+00;  0.0000000E+00;  0.0000000E+00;0; -3.4737794E-04;  1.0000000E+04;  0.0000000E+00;  0.0000000E+00;  1.0000000E+04;  0.0000000E+00;  1.0000000E+04; -2.3584283E-04;  0.0000000E+00; -1.1153510E-04;  9.0945691E-01;
 -3.9999999E-02;  9.9999998E-03; -4.0000001E-01;367;  0.0000000E+00;  0.0000000E+00;  0.0000000E+00;  1.0000001E+03;  4.0000001E-01;  9.8762624E-02;0;  0.0000000E+00;  0.0000000E+00;  0.0000000E+00;0; -1.3453040E-04;  1.0000000E+04;  0.0000000E+00;  0.0000000E+00;  1.0000000E+04;  0.0000000E+00;  1.0000000E+04; -7.5751675E-05;  0.0000000E+00; -5.8778725E-05;  4.8450693E-01;
 -3.9999999E-02;  9.9999998E-03; -3.8000000E-01;368;  0.0000000E+00;  0.0000000E+00;  0.0000000E+00;  1.0000002E+03;  4.0000001E-01;  1.9752525E-01;0;  0.0000000E+00;  0.0000000E+00;  0.0000000E+00;0; -3.4469774E-04;  1.0000000E+04;  0.0000000E+00;  0.0000000E+00;  1.0000000E+04;  0.0000000E+00;  1.0000000E+04; -2.0169296E-04;  0.0000000E+00; -1.4300477E-04;  1.1819344E+00;
 -3.9999999E-02;  9.9999998E-03; -3.6000001E-01;369;  0.0000000E+00;  0.0000000E+00;  0.0000000E+00;  1.0000006E+03;  4.0000001E-01;  4.9381313E-01;0;  0.0000000E+00;  0.0000000E+00;  0.0000000E+00;0; -6.7184167E-04;  1.0000000E+04;  0.0000000E+00;  0.0000000E+00;  1.0000000E+04;  0.0000000E+00;  1.0000000E+04; -4.3885165E-04;  0.0000000E+00; -2.3299002E-04;  1.9234365E+00;
 -2.0000000E-02;  9.9999998E-03; -4.0000001E-01;408;  0.0000000E+00;  0.0000000E+00;  0.0000000E+00;  1.0000002E+03;  4.0000001E-01;  1.9752525E-01;0;  0.0000000E+00;  0.0000000E+00;  0.0000000E+00;0; -2.4948333E-04;  1.0000000E+04;  0.0000000E+00;  0.0000000E+00;  1.0000000E+04;  0.0000000E+00;  1.0000000E+04; -1.3199997E-04;  0.0000000E+00; -1.1748337E-04;  9.8128057E-01;
 -2.0000000E-02;  9.9999998E-03; -3.8000000E-01;409;  0.0000000E+00;  0.0000000E+00;  0.0000000E+00;  1.0000006E+03;  4.0000001E-01;  4.9381313E-01;0;  0.0000000E+00;  0.0000000E+00;  0.0000000E+00;0; -5.9472100E-04;  1.0000000E+04;  0.0000000E+00;  0.0000000E+00;  1.0000000E+04;  0.0000000E+00;  1.0000000E+04; -3.2997242E-04;  0.0000000E+00; -2.6474858E-04;  2.2189467E+00;
 -2.0000000E-02;  9.9999998E-03; -3.6000001E-01;410;  0.0000000E+00;  0.0000000E+00;  0.0000000E+00;  1.0000011E+03;  4.0000001E-01;  8.8886362E-01;0;  0.0000000E+00;  0.0000000E+00;  0.0000000E+00;0; -1.1077509E-03;  1.0000000E+04;  0.0000000E+00;  0.0000000E+00;  1.0000000E+04;  0.0000000E+00;  1.0000000E+04; -6.9372880E-04;  0.0000000E+00; -4.1402213E-04;  3.4687803E+00;
  0.0000000E+00;  9.9999998E-03; -4.0000001E-01;449;  0.0000000E+00;  0.0000000E+00;  0.0000000E+00;  1.0000004E+03;  4.0000001E-01;  2.9628786E-01;0;  0.0000000E+00;  0.0000000E+00;  0.0000000E+00;0; -3.9020824E-04;  1.0000000E+04;  0.0000000E+00;  0.0000000E+00;  1.0000000E+04;  0.0000000E+00;  1.0000000E+04; -1.9336292E-04;  0.0000000E+00; -1.9684531E-04;  1.6714990E+00;
  0.0000000E+00;  9.9999998E-03; -3.8000000E-01;450;  0.0000000E+00;  0.0000000E+00;  0.0000000E+00;  1.0000009E+03;  4.0000001E-01;  6.9133836E-01;0;  0.0000000E+00;  0.0000000E+00;  0.0000000E+00;0; -8.9399132E-04;  1.0000000E+04;  0.0000000E+00;  0.0000000E+00;  1.0000000E+04;  0.0000000E+00;  1.0000000E+04; -4.6970553E-04;  0.0000000E+00; -4.2428583E-04;  3.6179504E+00;
  0.0000000E+00;  9.9999998E-03; -3.6000001E-01;451;  0.0000000E+00;  0.0000000E+00;  0.0000000E+00;  1.0000016E+03;  4.0000001E-01;  1.2839141E+00;0;  0.0000000E+00;  0.0000000E+00;  0.0000000E+00;0; -1.6190980E-03;  1.0000000E+04;  0.0000000E+00;  0.0000000E+00;  1.0000000E+04;  0.0000000E+00;  1.0000000E+04; -9.7138050E-04;  0.0000000E+00; -6.4771745E-04;  5.5251617E+00;
  2.0000000E-02;  9.9999998E-03; -4.0000001E-01;461;  0.0000000E+00;  0.0000000E+00;  0.0000000E+00;  1.0000005E+03;  4.0000001E-01;  3.9505050E-01;0;  0.0000000E+00;  0.0000000E+00;  0.0000000E+00;0; -5.4150703E-04;  1.0000000E+04;  0.0000000E+00;  0.0000000E+00;  1.0000000E+04;  0.0000000E+00;  1.0000000E+04; -2.5219287E-04;  0.0000000E+00; -2.8931414E-04;  2.5080783E+00;
  2.0000000E-02;  9.9999998E-03; -3.8000000E-01;462;  0.0000000E+00;  0.0000000E+00;  0.0000000E+00;  1.0000012E+03;  4.0000001E-01;  9.8762625E-01;0;  0.0000000E+00;  0.0000000E+00;  0.0000000E+00;0; -1.2154009E-03;  1.0000000E+04;  0.0000000E+00;  0.0000000E+00;  1.0000000E+04;  0.0000000E+00;  1.0000000E+04; -6.0781901E-04;  0.0000000E+00; -6.0758181E-04;  5.2933373E+00;
  2.0000000E-02;  9.9999998E-03; -3.6000001E-01;463;  0.0000000E+00;  0.0000000E+00;  0.0000000E+00;  1.0000021E+03;  4.0000001E-01;  1.7777272E+00;0;  0.0000000E+00;  0.0000000E+00;  0.0000000E+00;0; -2.1630090E-03;  1.0000000E+04;  0.0000000E+00;  0.0000000E+00;  1.0000000E+04;  0.0000000E+00;  1.0000000E+04; -1.2495525E-03;  0.0000000E+00; -9.1345661E-04;  7.9668980E+00;
  3.9999999E-02;  9.9999998E-03; -4.0000001E-01;471;  0.0000000E+00;  0.0000000E+00;  0.0000000E+00;  1.0000007E+03;  4.0000001E-01;  5.9257573E-01;0;  0.0000000E+00;  0.0000000E+00;  0.0000000E+00;0; -6.9388328E-04;  1.0000000E+04;  0.0000000E+00;  0.0000000E+00;  1.0000000E+04;  0.0000000E+00;  1.0000000E+04; -3.0810456E-04;  0.0000000E+00; -3.8577869E-04;  3.4316249E+00;
  3.9999999E-02;  9.9999998E-03; -3.8000000E-01;472;  0.0000000E+00;  0.0000000E+00;  0.0000000E+00;  1.0000016E+03;  4.0000001E-01;  1.2839141E+00;0;  0.0000000E+00;  0.0000000E+00;  0.0000000E+00;0; -1.5434215E-03;  1.0000000E+04;  0.0000000E+00;  0.0000000E+00;  1.0000000E+04;  0.0000000E+00;  1.0000000E+04; -7.4533903E-04;  0.0000000E+00; -7.9808244E-04;  7.1400833E+00;
  3.9999999E-02;  9.9999998E-03; -3.6000001E-01;473;  0.0000000E+00;  0.0000000E+00;  0.0000000E+00;  1.0000028E+03;  4.0000001E-01;  2.3703029E+00;0;  0.0000000E+00;  0.0000000E+00;  0.0000000E+00;0; -2.7190091E-03;  1.0000000E+04;  0.0000000E+00;  0.0000000E+00;  1.0000000E+04;  0.0000000E+00;  1.0000000E+04; -1.5322500E-03;  0.0000000E+00; -1.1867591E-03;  1.0638005E+01;
  5.9999999E-02;  9.9999998E-03; -4.0000001E-01;481;  0.0000000E+00;  0.0000000E+00;  0.0000000E+00;  1.0000009E+03;  4.0000001E-01;  6.9133836E-01;0;  0.0000000E+00;  0.0000000E+00;  0.0000000E+00;0; -8.5080357E-04;  1.0000000E+04;  0.0000000E+00;  0.0000000E+00;  1.0000000E+04;  0.0000000E+00;  1.0000000E+04; -3.7022459E-04;  0.0000000E+00; -4.8057895E-04;  4.4104829E+00;
  5.9999999E-02;  9.9999998E-03; -3.8000000E-01;482;  0.0000000E+00;  0.0000000E+00;  0.0000000E+00;  1.0000020E+03;  4.0000001E-01;  1.6789646E+00;0;  0.0000000E+00;  0.0000000E+00;  0.0000000E+00;0; -1.8870202E-03;  1.0000000E+04;  0.0000000E+00;  0.0000000E+00;  1.0000000E+04;  0.0000000E+00;  1.0000000E+04; -9.0126449E-04;  0.0000000E+00; -9.8575570E-04;  9.1067419E+00;
  5.9999999E-02;  9.9999998E-03; -3.6000001E-01;483;  0.0000000E+00;  0.0000000E+00;  0.0000000E+00;  1.0000035E+03;  4.0000001E-01;  2.9628787E+00;0;  0.0000000E+00;  0.0000000E+00;  0.0000000E+00;0; -3.3082953E-03;  1.0000000E+04;  0.0000000E+00;  0.0000000E+00;  1.0000000E+04;  0.0000000E+00;  1.0000000E+04; -1.8546978E-03;  0.0000000E+00; -1.4535976E-03;  1.3468216E+01;
  7.9999998E-02;  9.9999998E-03; -4.0000001E-01;491;  0.0000000E+00;  0.0000000E+00;  0.0000000E+00;  1.0000011E+03;  4.0000001E-01;  8.8886362E-01;0;  0.0000000E+00;  0.0000000E+00;  0.0000000E+00;0; -1.0315733E-03;  1.0000000E+04;  0.0000000E+00;  0.0000000E+00;  1.0000000E+04;  0.0000000E+00;  1.0000000E+04; -4.5717970E-04;  0.0000000E+00; -5.7439361E-04;  5.4694524E+00;
  7.9999998E-02;  9.9999998E-03; -3.8000000E-01;492;  0.0000000E+00;  0.0000000E+00;  0.0000000E+00;  1.0000025E+03;  4.0000001E-01;  2.0740151E+00;0;  0.0000000E+00;  0.0000000E+00;  0.0000000E+00;0; -2.2877930E-03;  1.0000000E+04;  0.0000000E+00;  0.0000000E+00;  1.0000000E+04;  0.0000000E+00;  1.0000000E+04; -1.1155045E-03;  0.0000000E+00; -1.1722884E-03;  1.1242504E+01;
  7.9999998E-02;  9.9999998E-03; -3.6000001E-01;493;  0.0000000E+00;  0.0000000E+00;  0.0000000E+00;  1.0000045E+03;  4.0000001E-01;  3.6542170E+00;0;  0.0000000E+00;  0.0000000E+00;  0.0000000E+00;0; -4.0085716E-03;  1.0000000E+04;  0.0000000E+00;  0.0000000E+00;  1.0000000E+04;  0.0000000E+00;  1.0000000E+04; -2.2902952E-03;  0.0000000E+00; -1.7182765E-03;  1.6567692E+01;
  1.0000000E-01;  9.9999998E-03; -4.0000001E-01;501;  0.0000000E+00;  0.0000000E+00;  0.0000000E+00;  1.0000015E+03;  4.0000001E-01;  1.2839141E+00;0;  0.0000000E+00;  0.0000000E+00;  0.0000000E+00;0; -1.2742484E-03;  1.0000000E+04;  0.0000000E+00;  0.0000000E+00;  1.0000000E+04;  0.0000000E+00;  1.0000000E+04; -5.9902074E-04;  0.0000000E+00; -6.7522761E-04;  6.9395428E+00;
  1.0000000E-01;  9.9999998E-03; -3.8000000E-01;502;  0.0000000E+00;  0.0000000E+00;  0.0000000E+00;  1.0000032E+03;  4.0000001E-01;  2.6665909E+00;0;  0.0000000E+00;  0.0000000E+00;  0.0000000E+00;0; -2.8272865E-03;  1.0000000E+04;  0.0000000E+00;  0.0000000E+00;  1.0000000E+04;  0.0000000E+00;  1.0000000E+04; -1.4533630E-03;  0.0000000E+00; -1.3739235E-03;  1.3736934E+01;
  1.0000000E-01;  9.9999998E-03; -3.6000001E-01;503;  0.0000000E+00;  0.0000000E+00;  0.0000000E+00;  1.0000056E+03;  4.0000001E-01;  4.6418433E+00;0;  0.0000000E+00;  0.0000000E+00;  0.0000000E+00;0; -4.9650259E-03;  1.0000000E+04;  0.0000000E+00;  0.0000000E+00;  1.0000000E+04;  0.0000000E+00;  1.0000000E+04; -2.9579776E-03;  0.0000000E+00; -2.0070486E-03;  2.0413631E+01;
  1.2000000E-01;  9.9999998E-03; -4.0000001E-01;511;  0.0000000E+00;  0.0000000E+00;  0.0000000E+00;  1.0000020E+03;  4.0000001E-01;  1.5802020E+00;0;  0.0000000E+00;  0.0000000E+00;  0.0000000E+00;0; -1.6442256E-03;  1.0000000E+04;  0.0000000E+00;  0.0000000E+00;  1.0000000E+04;  0.0000000E+00;  1.0000000E+04; -8.4173336E-04;  0.0000000E+00; -8.0249214E-04;  1.2279964E+01;
  1.2000000E-01;  9.9999998E-03; -3.8000000E-01;512;  0.0000000E+00;  0.0000000E+00;  0.0000000E+00;  1.0000043E+03;  4.0000001E-01;  3.5554545E+00;0;  0.0000000E+00;  0.0000000E+00;  0.0000000E+00;0; -3.6424450E-03;  1.0000000E+04;  0.0000000E+00;  0.0000000E+00;  1.0000000E+04;  0.0000000E+00;  1.0000000E+04; -2.0119285E-03;  0.0000000E+00; -1.6305165E-03;  1.7989767E+01;
  1.2000000E-01;  9.9999998E-03; -3.6000001E-01;513;  0.0000000E+00;  0.0000000E+00;  0.0000000E+00;  1.0000075E+03;  4.0000001E-01;  6.2220454E+00;0;  0.0000000E+00;  0.0000000E+00;  0.0000000E+00;0; -6.4092744E-03;  1.0000000E+04;  0.0000000E+00;  0.0000000E+00;  1.0000000E+04;  0.0000000E+00;  1.0000000E+04; -4.0298072E-03;  0.0000000E+00; -2.3794672E-03;  2.6263929E+01;
  1.4000000E-01;  9.9999998E-03; -4.0000001E-01;521;  0.0000000E+00;  0.0000000E+00;  0.0000000E+00;  1.0000026E+03;  4.0000001E-01;  2.1727777E+00;0;  0.0000000E+00;  0.0000000E+00;  0.0000000E+00;0; -2.2633381E-03;  1.0000000E+04;  0.0000000E+00;  0.0000000E+00;  1.0000000E+04;  0.0000000E+00;  1.0000000E+04; -1.2584890E-03;  0.0000000E+00; -1.0048491E-03;  3.4381622E+01;
  1.4000000E-01;  9.9999998E-03; -3.8000000E-01;522;  0.0000000E+00;  0.0000000E+00;  0.0000000E+00;  1.0000060E+03;  4.0000001E-01;  5.0368938E+00;0;  0.0000000E+00;  0.0000000E+00;  0.0000000E+00;0; -4.9604233E-03;  1.0000000E+04;  0.0000000E+00;  0.0000000E+00;  1.0000000E+04;  0.0000000E+00;  1.0000000E+04; -2.9329737E-03;  0.0000000E+00; -2.0274499E-03;  3.3559093E+01;
  1.4000000E-01;  9.9999998E-03; -3.6000001E-01;523;  0.0000000E+00;  0.0000000E+00;  0.0000000E+00;  1.0000105E+03;  4.0000001E-01;  8.6911106E+00;0;  0.0000000E+00;  0.0000000E+00;  0.0000000E+00;0; -8.6906888E-03;  1.0000000E+04;  0.0000000E+00;  0.0000000E+00;  1.0000000E+04;  0.0000000E+00;  1.0000000E+04; -5.7411944E-03;  0.0000000E+00; -2.9494946E-03;  3.6324921E+01;
  1.6000000E-01;  9.9999998E-03; -4.0000001E-01;531;  0.0000000E+00;  0.0000000E+00;  0.0000000E+00;  1.0000041E+03;  4.0000001E-01;  3.3579292E+00;0;  0.0000000E+00;  0.0000000E+00;  0.0000000E+00;0; -3.3513578E-03;  1.0000000E+04;  0.0000000E+00;  0.0000000E+00;  1.0000000E+04;  0.0000000E+00;  1.0000000E+04; -1.9521951E-03;  0.0000000E+00; -1.3991628E-03;  9.9256264E+01;
  1.6000000E-01;  9.9999998E-03; -3.8000000E-01;532;  0.0000000E+00;  0.0000000E+00;  0.0000000E+00;  1.0000089E+03;  4.0000001E-01;  7.3084340E+00;0;  0.0000000E+00;  0.0000000E+00;  0.0000000E+00;0; -7.0989258E-03;  1.0000000E+04;  0.0000000E+00;  0.0000000E+00;  1.0000000E+04;  0.0000000E+00;  1.0000000E+04; -4.3684579E-03;  0.0000000E+00; -2.7304678E-03;  8.5724068E+01;
  1.6000000E-01;  9.9999998E-03; -3.6000001E-01;533;  0.0000000E+00;  0.0000000E+00;  0.0000000E+00;  1.0000150E+03;  4.0000001E-01;  1.2345328E+01;0;  0.0000000E+00;  0.0000000E+00;  0.0000000E+00;0; -1.2221713E-02;  1.0000000E+04;  0.0000000E+00;  0.0000000E+00;  1.0000000E+04;  0.0000000E+00;  1.0000000E+04; -8.3078118E-03;  0.0000000E+00; -3.9139008E-03;  5.1942268E+01;
  1.8000001E-01;  9.9999998E-03; -4.0000001E-01;541;  0.0000000E+00;  0.0000000E+00;  0.0000000E+00;  1.0000065E+03;  4.0000001E-01;  5.3331819E+00;0;  0.0000000E+00;  0.0000000E+00;  0.0000000E+00;0; -5.2440856E-03;  1.0000000E+04;  0.0000000E+00;  0.0000000E+00;  1.0000000E+04;  0.0000000E+00;  1.0000000E+04; -2.9968440E-03;  0.0000000E+00; -2.2472413E-03;  2.5120172E+02;
  1.8000001E-01;  9.9999998E-03; -3.8000000E-01;542;  0.0000000E+00;  0.0000000E+00;  0.0000000E+00;  1.0000130E+03;  4.0000001E-01;  1.0765126E+01;0;  0.0000000E+00;  0.0000000E+00;  0.0000000E+00;0; -1.0343937E-02;  1.0000000E+04;  0.0000000E+00;  0.0000000E+00;  1.0000000E+04;  0.0000000E+00;  1.0000000E+04; -6.3057500E-03;  0.0000000E+00; -4.0381872E-03;  2.0703287E+02;
  1.8000001E-01;  9.9999998E-03; -3.6000001E-01;543;  0.0000000E+00;  0.0000000E+00;  0.0000000E+00;  1.0000216E+03;  4.0000001E-01;  1.7876036E+01;0;  0.0000000E+00;  0.0000000E+00;  0.0000000E+00;0; -1.7213132E-02;  1.0000000E+04;  0.0000000E+00;  0.0000000E+00;  1.0000000E+04;  0.0000000E+00;  1.0000000E+04; -1.1626573E-02;  0.0000000E+00; -5.5865580E-03;  7.0645805E+01;
  2.0000000E-01;  9.9999998E-03; -3.8000000E-01;551;  0.0000000E+00;  0.0000000E+00;  0.0000000E+00;  1.0000193E+03;  4.0000001E-01;  1.5999545E+01;0;  0.0000000E+00;  0.0000000E+00;  0.0000000E+00;0; -1.4890815E-02;  1.0000000E+04;  0.0000000E+00;  0.0000000E+00;  1.0000000E+04;  0.0000000E+00;  1.0000000E+04; -8.4665865E-03;  0.0000000E+00; -6.4242287E-03;  4.1246298E+02;
  2.0000000E-01;  9.9999998E-03; -3.6000001E-01;552;  0.0000000E+00;  0.0000000E+00;  0.0000000E+00;  1.0000303E+03;  4.0000001E-01;  2.5085707E+01;0;  0.0000000E+00;  0.0000000E+00;  0.0000000E+00;0; -2.3587929E-02;  1.0000000E+04;  0.0000000E+00;  0.0000000E+00;  1.0000000E+04;  0.0000000E+00;  1.0000000E+04; -1.5172819E-02;  0.0000000E+00; -8.4151104E-03;  9.9209312E+01;
 -2.2000000E-01;  9.9999998E-03; -3.4000000E-01;2;  0.0000000E+00;  0.0000000E+00;  0.0000000E+00;  1.0000000E+03;  4.0000001E-01;  0.0000000E+00;0;  0.0000000E+00;  0.0000000E+00;  0.0000000E+00;0;  0.0000000E+00;  1.0000000E+04;  0.0000000E+00;  0.0000000E+00;  1.0000000E+04;  0.0000000E+00;  1.0000000E+04;  0.0000000E+00;  0.0000000E+00;  0.0000000E+00;  0.0000000E+00;
 -2.2000000E-01;  9.9999998E-03; -3.1999999E-01;3;  0.0000000E+00;  0.0000000E+00;  0.0000000E+00;  1.0000000E+03;  4.0000001E-01;  0.0000000E+00;0;  0.0000000E+00;  0.0000000E+00;  0.0000000E+00;0;  0.0000000E+00;  1.0000000E+04;  0.0000000E+00;  0.0000000E+00;  1.0000000E+04;  0.0000000E+00;  1.0000000E+04;  0.0000000E+00;  0.0000000E+00;  0.0000000E+00;  0.0000000E+00;
 -2.2000000E-01;  9.9999998E-03; -3.0000001E-01;4;  0.0000000E+00;  0.0000000E+00;  0.0000000E+00;  1.0000000E+03;  4.0000001E-01;  0.0000000E+00;0;  0.0000000E+00;  0.0000000E+00;  0.0000000E+00;0;  0.0000000E+00;  1.0000000E+04;  0.0000000E+00;  0.0000000E+00;  1.0000000E+04;  0.0000000E+00;  1.0000000E+04;  0.0000000E+00;  0.0000000E+00;  0.0000000E+00;  0.0000000E+00;
 -2.2000000E-01;  9.9999998E-03; -2.8000000E-01;5;  0.0000000E+00;  0.0000000E+00;  0.0000000E+00;  1.0000000E+03;  4.0000001E-01;  0.0000000E+00;0;  0.0000000E+00;  0.0000000E+00;  0.0000000E+00;0;  0.0000000E+00;  1.0000000E+04;  0.0000000E+00;  0.0000000E+00;  1.0000000E+04;  0.0000000E+00;  1.0000000E+04;  0.0000000E+00;  0.0000000E+00;  0.0000000E+00;  0.0000000E+00;
 -2.2000000E-01;  9.9999998E-03; -2.5999999E-01;6;  0.0000000E+00;  0.0000000E+00;  0.0000000E+00;  1.0000000E+03;  4.0000001E-01;  0.0000000E+00;0;  0.0000000E+00;  0.0000000E+00;  0.0000000E+00;0;  0.0000000E+00;  1.0000000E+04;  0.0000000E+00;  0.0000000E+00;  1.0000000E+04;  0.0000000E+00;  1.0000000E+04;  0.0000000E+00;  0.0000000E+00;  0.0000000E+00;  0.0000000E+00;
 -2.2000000E-01;  9.9999998E-03; -2.3999999E-01;7;  0.0000000E+00;  0.0000000E+00;  0.0000000E+00;  1.0000000E+03;  4.0000001E-01;  0.0000000E+00;0;  0.0000000E+00;  0.0000000E+00;  0.0000000E+00;0;  0.0000000E+00;  1.0000000E+04;  0.0000000E+00;  0.0000000E+00;  1.0000000E+04;  0.0000000E+00;  1.0000000E+04;  0.0000000E+00;  0.0000000E+00;  0.0000000E+00;  0.0000000E+00;
 -2.2000000E-01;  9.9999998E-03; -2.2000000E-01;8;  0.0000000E+00;  0.0000000E+00;  0.0000000E+00;  1.0000000E+03;  4.0000001E-01;  0.0000000E+00;0;  0.0000000E+00;  0.0000000E+00;  0.0000000E+00;0;  0.0000000E+00;  1.0000000E+04;  0.0000000E+00;  0.0000000E+00;  1.0000000E+04;  0.0000000E+00;  1.0000000E+04;  0.0000000E+00;  0.0000000E+00;  0.0000000E+00;  0.0000000E+00;
 -2.2000000E-01;  9.9999998E-03; -2.0000000E-01;9;  0.0000000E+00;  0.0000000E+00;  0.0000000E+00;  1.0000000E+03;  4.0000001E-01;  0.0000000E+00;0;  0.0000000E+00;  0.0000000E+00;  0.0000000E+00;0;  0.0000000E+00;  1.0000000E+04;  0.0000000E+00;  0.0000000E+00;  1.0000000E+04;  0.0000000E+00;  1.0000000E+04;  0.0000000E+00;  0.0000000E+00;  0.0000000E+00;  0.0000000E+00;
 -2.0000000E-01;  9.9999998E-03; -3.4000000E-01;42;  0.0000000E+00;  0.0000000E+00;  0.0000000E+00;  1.0000000E+03;  4.0000001E-01;  0.0000000E+00;0;  0.0000000E+00;  0.0000000E+00;  0.0000000E+00;0;  0.0000000E+00;  1.0000000E+04;  0.0000000E+00;  0.0000000E+00;  1.0000000E+04;  0.0000000E+00;  1.0000000E+04;  0.0000000E+00;  0.0000000E+00;  0.0000000E+00;  0.0000000E+00;
 -2.0000000E-01;  9.9999998E-03; -3.1999999E-01;43;  0.0000000E+00;  0.0000000E+00;  0.0000000E+00;  1.0000000E+03;  4.0000001E-01;  0.0000000E+00;0;  0.0000000E+00;  0.0000000E+00;  0.0000000E+00;0;  0.0000000E+00;  1.0000000E+04;  0.0000000E+00;  0.0000000E+00;  1.0000000E+04;  0.0000000E+00;  1.0000000E+04;  0.0000000E+00;  0.0000000E+00;  0.0000000E+00;  0.0000000E+00;
 -2.0000000E-01;  9.9999998E-03; -3.0000001E-01;44;  0.0000000E+00;  0.0000000E+00;  0.0000000E+00;  1.0000000E+03;  4.0000001E-01;  0.0000000E+00;0;  0.0000000E+00;  0.0000000E+00;  0.0000000E+00;0;  0.0000000E+00;  1.0000000E+04;  0.0000000E+00;  0.0000000E+00;  1.0000000E+04;  0.0000000E+00;  1.0000000E+04;  0.0000000E+00;  0.0000000E+00;  0.0000000E+00;  0.0000000E+00;
 -2.0000000E-01;  9.9999998E-03; -2.8000000E-01;45;  0.0000000E+00;  0.0000000E+00;  0.0000000E+00;  1.0000000E+03;  4.0000001E-01;  0.0000000E+00;0;  0.0000000E+00;  0.0000000E+00;  0.0000000E+00;0;  0.0000000E+00;  1.0000000E+04;  0.0000000E+00;  0.0000000E+00;  1.0000000E+04;  0.0000000E+00;  1.0000000E+04;  0.0000000E+00;  0.0000000E+00;  0.0000000E+00;  0.0000000E+00;
 -2.0000000E-01;  9.9999998E-03; -2.5999999E-01;46;  0.0000000E+00;  0.0000000E+00;  0.0000000E+00;  1.0000000E+03;  4.0000001E-01;  0.0000000E+00;0;  0.0000000E+00;  0.0000000E+00;  0.0000000E+00;0;  0.0000000E+00;  1.0000000E+04;  0.0000000E+00;  0.0000000E+00;  1.0000000E+04;  0.0000000E+00;  1.0000000E+04;  0.0000000E+00;  0.0000000E+00;  0.0000000E+00;  0.0000000E+00;
 -2.0000000E-01;  9.9999998E-03; -2.3999999E-01;47;  0.0000000E+00;  0.0000000E+00;  0.0000000E+00;  1.0000000E+03;  4.0000001E-01;  0.0000000E+00;0;  0.0000000E+00;  0.0000000E+00;  0.0000000E+00;0;  0.0000000E+00;  1.0000000E+04;  0.0000000E+00;  0.0000000E+00;  1.0000000E+04;  0.0000000E+00;  1.0000000E+04;  0.0000000E+00;  0.0000000E+00;  0.0000000E+00;  0.0000000E+00;
 -2.0000000E-01;  9.9999998E-03; -2.2000000E-01;48;  0.0000000E+00;  0.0000000E+00;  0.0000000E+00;  1.0000000E+03;  4.0000001E-01;  0.0000000E+00;0;  0.0000000E+00;  0.0000000E+00;  0.0000000E+00;0;  0.0000000E+00;  1.0000000E+04;  0.0000000E+00;  0.0000000E+00;  1.0000000E+04;  0.0000000E+00;  1.0000000E+04;  0.0000000E+00;  0.0000000E+00;  0.0000000E+00;  0.0000000E+00;
 -2.0000000E-01;  9.9999998E-03; -2.0000000E-01;49;  0.0000000E+00;  0.0000000E+00;  0.0000000E+00;  1.0000000E+03;  4.0000001E-01;  0.0000000E+00;0;  0.0000000E+00;  0.0000000E+00;  0.0000000E+00;0;  0.0000000E+00;  1.0000000E+04;  0.0000000E+00;  0.0000000E+00;  1.0000000E+04;  0.0000000E+00;  1.0000000E+04;  0.0000000E+00;  0.0000000E+00;  0.0000000E+00;  0.0000000E+00;
 -1.8000001E-01;  9.9999998E-03; -3.4000000E-01;83;  0.0000000E+00;  0.0000000E+00;  0.0000000E+00;  1.0000000E+03;  4.0000001E-01;  0.0000000E+00;0;  0.0000000E+00;  0.0000000E+00;  0.0000000E+00;0;  0.0000000E+00;  1.0000000E+04;  0.0000000E+00;  0.0000000E+00;  1.0000000E+04;  0.0000000E+00;  1.0000000E+04;  0.0000000E+00;  0.0000000E+00;  0.0000000E+00;  0.0000000E+00;
 -1.8000001E-01;  9.9999998E-03; -3.1999999E-01;84;  0.0000000E+00;  0.0000000E+00;  0.0000000E+00;  1.0000000E+03;  4.0000001E-01;  0.0000000E+00;0;  0.0000000E+00;  0.0000000E+00;  0.0000000E+00;0;  0.0000000E+00;  1.0000000E+04;  0.0000000E+00;  0.0000000E+00;  1.0000000E+04;  0.0000000E+00;  1.0000000E+04;  0.0000000E+00;  0.0000000E+00;  0.0000000E+00;  0.0000000E+00;
 -1.8000001E-01;  9.9999998E-03; -3.0000001E-01;85;  0.0000000E+00;  0.0000000E+00;  0.0000000E+00;  1.0000000E+03;  4.0000001E-01;  0.0000000E+00;0;  0.0000000E+00;  0.0000000E+00;  0.0000000E+00;0;  0.0000000E+00;  1.0000000E+04;  0.0000000E+00;  0.0000000E+00;  1.0000000E+04;  0.0000000E+00;  1.0000000E+04;  0.0000000E+00;  0.0000000E+00;  0.0000000E+00;  0.0000000E+00;
 -1.8000001E-01;  9.9999998E-03; -2.8000000E-01;86;  0.0000000E+00;  0.0000000E+00;  0.0000000E+00;  1.0000000E+03;  4.0000001E-01;  0.0000000E+00;0;  0.0000000E+00;  0.0000000E+00;  0.0000000E+00;0;  0.0000000E+00;  1.0000000E+04;  0.0000000E+00;  0.0000000E+00;  1.0000000E+04;  0.0000000E+00;  1.0000000E+04;  0.0000000E+00;  0.0000000E+00;  0.0000000E+00;  0.0000000E+00;
 -1.8000001E-01;  9.9999998E-03; -2.5999999E-01;87;  0.0000000E+00;  0.0000000E+00;  0.0000000E+00;  1.0000000E+03;  4.0000001E-01;  0.0000000E+00;0;  0.0000000E+00;  0.0000000E+00;  0.0000000E+00;0;  0.0000000E+00;  1.0000000E+04;  0.0000000E+00;  0.0000000E+00;  1.0000000E+04;  0.0000000E+00;  1.0000000E+04;  0.0000000E+00;  0.0000000E+00;  0.0000000E+00;  0.0000000E+00;
 -1.8000001E-01;  9.9999998E-03; -2.3999999E-01;88;  0.0000000E+00;  0.0000000E+00;  0.0000000E+00;  1.0000000E+03;  4.0000001E-01;  0.0000000E+00;0;  0.0000000E+00;  0.0000000E+00;  0.0000000E+00;0;  0.0000000E+00;  1.0000000E+04;  0.0000000E+00;  0.0000000E+00;  1.0000000E+04;  0.0000000E+00;  1.0000000E+04;  0.0000000E+00;  0.0000000E+00;  0.0000000E+00;  0.0000000E+00;
 -1.8000001E-01;  9.9999998E-03; -2.2000000E-01;89;  0.0000000E+00;  0.0000000E+00;  0.0000000E+00;  1.0000000E+03;  4.0000001E-01;  0.0000000E+00;0;  0.0000000E+00;  0.0000000E+00;  0.0000000E+00;0;  0.0000000E+00;  1.0000000E+04;  0.0000000E+00;  0.0000000E+00;  1.0000000E+04;  0.0000000E+00;  1.0000000E+04;  0.0000000E+00;  0.0000000E+00;  0.0000000E+00;  0.0000000E+00;
 -1.8000001E-01;  9.9999998E-03; -2.0000000E-01;90;  0.0000000E+00;  0.0000000E+00;  0.0000000E+00;  1.0000000E+03;  4.0000001E-01;  0.0000000E+00;0;  0.0000000E+00;  0.0000000E+00;  0.0000000E+00;0;  0.0000000E+00;  1.0000000E+04;  0.0000000E+00;  0.0000000E+00;  1.0000000E+04;  0.0000000E+00;  1.0000000E+04;  0.0000000E+00;  0.0000000E+00;  0.0000000E+00;  0.0000000E+00;
 -1.6000000E-01;  9.9999998E-03; -3.4000000E-01;124;  0.0000000E+00;  0.0000000E+00;  0.0000000E+00;  1.0000000E+03;  4.0000001E-01;  0.0000000E+00;0;  0.0000000E+00;  0.0000000E+00;  0.0000000E+00;0;  0.0000000E+00;  1.0000000E+04;  0.0000000E+00;  0.0000000E+00;  1.0000000E+04;  0.0000000E+00;  1.0000000E+04;  0.0000000E+00;  0.0000000E+00;  0.0000000E+00;  0.0000000E+00;
 -1.6000000E-01;  9.9999998E-03; -3.1999999E-01;125;  0.0000000E+00;  0.0000000E+00;  0.0000000E+00;  1.0000000E+03;  4.0000001E-01;  0.0000000E+00;0;  0.0000000E+00;  0.0000000E+00;  0.0000000E+00;0; -3.4364483E-08;  1.0000000E+04;  0.0000000E+00;  0.0000000E+00;  1.0000000E+04;  0.0000000E+00;  1.0000000E+04; -3.1630716E-08;  0.0000000E+00; -2.7337663E-09;  2.0190282E-05;
 -1.6000000E-01;  9.9999998E-03; -3.0000001E-01;126;  0.0000000E+00;  0.0000000E+00;  0.0000000E+00;  1.0000000E+03;  4.0000001E-01;  0.0000000E+00;0;  0.0000000E+00;  0.0000000E+00;  0.0000000E+00;0; -2.1831822E-07;  1.0000000E+04;  0.0000000E+00;  0.0000000E+00;  1.0000000E+04;  0.0000000E+00;  1.0000000E+04; -2.0908844E-07;  0.0000000E+00; -9.2297796E-09;  6.2839048E-05;
 -1.6000000E-01;  9.9999998E-03; -2.8000000E-01;127;  0.0000000E+00;  0.0000000E+00;  0.0000000E+00;  1.0000000E+03;  4.0000001E-01;  0.0000000E+00;0;  0.0000000E+00;  0.0000000E+00;  0.0000000E+00;0; -5.1459739E-07;  1.0000000E+04;  0.0000000E+00;  0.0000000E+00;  1.0000000E+04;  0.0000000E+00;  1.0000000E+04; -5.0629285E-07;  0.0000000E+00; -8.3045393E-09;  3.5619832E-05;
 -1.6000000E-01;  9.9999998E-03; -2.5999999E-01;128;  0.0000000E+00;  0.0000000E+00;  0.0000000E+00;  1.0000000E+03;  4.0000001E-01;  0.0000000E+00;0;  0.0000000E+00;  0.0000000E+00;  0.0000000E+00;0; -7.6530483E-07;  1.0000000E+04;  0.0000000E+00;  0.0000000E+00;  1.0000000E+04;  0.0000000E+00;  1.0000000E+04; -7.6446054E-07;  0.0000000E+00; -8.4428109E-10;  4.5352554E-05;
 -1.6000000E-01;  9.9999998E-03; -2.3999999E-01;129;  0.0000000E+00;  0.0000000E+00;  0.0000000E+00;  1.0000000E+03;  4.0000001E-01;  0.0000000E+00;0;  0.0000000E+00;  0.0000000E+00;  0.0000000E+00;0; -9.0119255E-07;  1.0000000E+04;  0.0000000E+00;  0.0000000E+00;  1.0000000E+04;  0.0000000E+00;  1.0000000E+04; -9.0346794E-07;  0.0000000E+00;  2.2753650E-09;  7.9795333E-05;
 -1.6000000E-01;  9.9999998E-03; -2.2000000E-01;130;  0.0000000E+00;  0.0000000E+00;  0.0000000E+00;  1.0000000E+03;  4.0000001E-01;  0.0000000E+00;0;  0.0000000E+00;  0.0000000E+00;  0.0000000E+00;0; -9.9295812E-07;  1.0000000E+04;  0.0000000E+00;  0.0000000E+00;  1.0000000E+04;  0.0000000E+00;  1.0000000E+04; -9.9562749E-07;  0.0000000E+00;  2.6693177E-09;  8.9255082E-05;
 -1.6000000E-01;  9.9999998E-03; -2.0000000E-01;131;  0.0000000E+00;  0.0000000E+00;  0.0000000E+00;  1.0000000E+03;  4.0000001E-01;  0.0000000E+00;0;  0.0000000E+00;  0.0000000E+00;  0.0000000E+00;0; -1.0622638E-06;  1.0000000E+04;  0.0000000E+00;  0.0000000E+00;  1.0000000E+04;  0.0000000E+00;  1.0000000E+04; -1.0649940E-06;  0.0000000E+00;  2.7301525E-09;  9.4715280E-05;
 -1.4000000E-01;  9.9999998E-03; -3.4000000E-01;165;  0.0000000E+00;  0.0000000E+00;  0.0000000E+00;  1.0000000E+03;  4.0000001E-01;  0.0000000E+00;0;  0.0000000E+00;  0.0000000E+00;  0.0000000E+00;0; -1.6506840E-06;  1.0000000E+04;  0.0000000E+00;  0.0000000E+00;  1.0000000E+04;  0.0000000E+00;  1.0000000E+04; -1.3953871E-06;  0.0000000E+00; -2.5529681E-07;  1.9823404E-03;
 -1.4000000E-01;  9.9999998E-03; -3.1999999E-01;166;  0.0000000E+00;  0.0000000E+00;  0.0000000E+00;  1.0000000E+03;  4.0000001E-01;  0.0000000E+00;0;  0.0000000E+00;  0.0000000E+00;  0.0000000E+00;0; -5.3542753E-06;  1.0000000E+04;  0.0000000E+00;  0.0000000E+00;  1.0000000E+04;  0.0000000E+00;  1.0000000E+04; -4.8023626E-06;  0.0000000E+00; -5.5191288E-07;  4.2054118E-03;
 -1.4000000E-01;  9.9999998E-03; -3.0000001E-01;167;  0.0000000E+00;  0.0000000E+00;  0.0000000E+00;  1.0000000E+03;  4.0000001E-01;  0.0000000E+00;0;  0.0000000E+00;  0.0000000E+00;  0.0000000E+00;0; -1.1374282E-05;  1.0000000E+04;  0.0000000E+00;  0.0000000E+00;  1.0000000E+04;  0.0000000E+00;  1.0000000E+04; -1.0661410E-05;  0.0000000E+00; -7.1287201E-07;  5.1124217E-03;
 -1.4000000E-01;  9.9999998E-03; -2.8000000E-01;168;  0.0000000E+00;  0.0000000E+00;  0.0000000E+00;  1.0000000E+03;  4.0000001E-01;  0.0000000E+00;0;  0.0000000E+00;  0.0000000E+00;  0.0000000E+00;0; -1.8746199E-05;  1.0000000E+04;  0.0000000E+00;  0.0000000E+00;  1.0000000E+04;  0.0000000E+00;  1.0000000E+04; -1.8133242E-05;  0.0000000E+00; -6.1295782E-07;  3.7687626E-03;
 -1.4000000E-01;  9.9999998E-03; -2.5999999E-01;169;  0.0000000E+00;  0.0000000E+00;  0.0000000E+00;  1.0000000E+03;  4.0000001E-01;  0.0000000E+00;0;  0.0000000E+00;  0.0000000E+00;  0.0000000E+00;0; -2.5941798E-05;  1.0000000E+04;  0.0000000E+00;  0.0000000E+00;  1.0000000E+04;  0.0000000E+00;  1.0000000E+04; -2.5650274E-05;  0.0000000E+00; -2.9152383E-07;  6.6824484E-04;
 -1.4000000E-01;  9.9999998E-03; -2.3999999E-01;170;  0.0000000E+00;  0.0000000E+00;  0.0000000E+00;  1.0000000E+03;  4.0000001E-01;  0.0000000E+00;0;  0.0000000E+00;  0.0000000E+00;  0.0000000E+00;0; -3.1735868E-05;  1.0000000E+04;  0.0000000E+00;  0.0000000E+00;  1.0000000E+04;  0.0000000E+00;  1.0000000E+04; -3.1808657E-05;  0.0000000E+00;  7.2790279E-08;  2.6792441E-03;
 -1.4000000E-01;  9.9999998E-03; -2.2000000E-01;171;  0.0000000E+00;  0.0000000E+00;  0.0000000E+00;  1.0000000E+03;  4.0000001E-01;  0.0000000E+00;0;  0.0000000E+00;  0.0000000E+00;  0.0000000E+00;0; -3.5757901E-05;  1.0000000E+04;  0.0000000E+00;  0.0000000E+00;  1.0000000E+04;  0.0000000E+00;  1.0000000E+04; -3.6043370E-05;  0.0000000E+00;  2.8546845E-07;  4.6825493E-03;
 -1.4000000E-01;  9.9999998E-03; -2.0000000E-01;172;  0.0000000E+00;  0.0000000E+00;  0.0000000E+00;  1.0000000E+03;  4.0000001E-01;  0.0000000E+00;0;  0.0000000E+00;  0.0000000E+00;  0.0000000E+00;0; -3.8447335E-05;  1.0000000E+04;  0.0000000E+00;  0.0000000E+00;  1.0000000E+04;  0.0000000E+00;  1.0000000E+04; -3.8772967E-05;  0.0000000E+00;  3.2563133E-07;  5.2065956E-03;
 -1.2000000E-01;  9.9999998E-03; -3.4000000E-01;206;  0.0000000E+00;  0.0000000E+00;  0.0000000E+00;  1.0000000E+03;  4.0000001E-01;  0.0000000E+00;0;  0.0000000E+00;  0.0000000E+00;  0.0000000E+00;0; -2.0464868E-05;  1.0000000E+04;  0.0000000E+00;  0.0000000E+00;  1.0000000E+04;  0.0000000E+00;  1.0000000E+04; -1.6800421E-05;  0.0000000E+00; -3.6644465E-06;  2.8818235E-02;
 -1.2000000E-01;  9.9999998E-03; -3.1999999E-01;207;  0.0000000E+00;  0.0000000E+00;  0.0000000E+00;  1.0000000E+03;  4.0000001E-01;  0.0000000E+00;0;  0.0000000E+00;  0.0000000E+00;  0.0000000E+00;0; -4.3224609E-05;  1.0000000E+04;  0.0000000E+00;  0.0000000E+00;  1.0000000E+04;  0.0000000E+00;  1.0000000E+04; -3.8017090E-05;  0.0000000E+00; -5.2075202E-06;  3.9997596E-02;
 -1.2000000E-01;  9.9999998E-03; -3.0000001E-01;208;  0.0000000E+00;  0.0000000E+00;  0.0000000E+00;  1.0000000E+03;  4.0000001E-01;  0.0000000E+00;0;  0.0000000E+00;  0.0000000E+00;  0.0000000E+00;0; -7.4216761E-05;  1.0000000E+04;  0.0000000E+00;  0.0000000E+00;  1.0000000E+04;  0.0000000E+00;  1.0000000E+04; -6.8661990E-05;  0.0000000E+00; -5.5547725E-06;  4.0706728E-02;
 -1.2000000E-01;  9.9999998E-03; -2.8000000E-01;209;  0.0000000E+00;  0.0000000E+00;  0.0000000E+00;  1.0000000E+03;  4.0000001E-01;  0.0000000E+00;0;  0.0000000E+00;  0.0000000E+00;  0.0000000E+00;0; -1.0967909E-04;  1.0000000E+04;  0.0000000E+00;  0.0000000E+00;  1.0000000E+04;  0.0000000E+00;  1.0000000E+04; -1.0520472E-04;  0.0000000E+00; -4.4743642E-06;  2.9532200E-02;
 -1.2000000E-01;  9.9999998E-03; -2.5999999E-01;210;  0.0000000E+00;  0.0000000E+00;  0.0000000E+00;  1.0000001E+03;  4.0000001E-01;  9.8762624E-02;0;  0.0000000E+00;  0.0000000E+00;  0.0000000E+00;0; -1.4420340E-04;  1.0000000E+04;  0.0000000E+00;  0.0000000E+00;  1.0000000E+04;  0.0000000E+00;  1.0000000E+04; -1.4191653E-04;  0.0000000E+00; -2.2868567E-06;  9.4517069E-03;
 -1.2000000E-01;  9.9999998E-03; -2.3999999E-01;211;  0.0000000E+00;  0.0000000E+00;  0.0000000E+00;  1.0000001E+03;  4.0000001E-01;  9.8762624E-02;0;  0.0000000E+00;  0.0000000E+00;  0.0000000E+00;0; -1.7343339E-04;  1.0000000E+04;  0.0000000E+00;  0.0000000E+00;  1.0000000E+04;  0.0000000E+00;  1.0000000E+04; -1.7361046E-04;  0.0000000E+00;  1.7706387E-07;  1.2535942E-02;
 -1.2000000E-01;  9.9999998E-03; -2.2000000E-01;212;  0.0000000E+00;  0.0000000E+00;  0.0000000E+00;  1.0000001E+03;  4.0000001E-01;  9.8762624E-02;0;  0.0000000E+00;  0.0000000E+00;  0.0000000E+00;0; -1.9576360E-04;  1.0000000E+04;  0.0000000E+00;  0.0000000E+00;  1.0000000E+04;  0.0000000E+00;  1.0000000E+04; -1.9778407E-04;  0.0000000E+00;  2.0204707E-06;  2.9065978E-02;
 -1.2000000E-01;  9.9999998E-03; -2.0000000E-01;213;  0.0000000E+00;  0.0000000E+00;  0.0000000E+00;  1.0000002E+03;  4.0000001E-01;  1.9752525E-01;0;  0.0000000E+00;  0.0000000E+00;  0.0000000E+00;0; -2.1179467E-04;  1.0000000E+04;  0.0000000E+00;  0.0000000E+00;  1.0000000E+04;  0.0000000E+00;  1.0000000E+04; -2.1467087E-04;  0.0000000E+00;  2.8761992E-06;  3.7240416E-02;
 -1.0000000E-01;  9.9999998E-03; -3.4000000E-01;247;  0.0000000E+00;  0.0000000E+00;  0.0000000E+00;  1.0000000E+03;  4.0000001E-01;  0.0000000E+00;0;  0.0000000E+00;  0.0000000E+00;  0.0000000E+00;0; -9.3375791E-05;  1.0000000E+04;  0.0000000E+00;  0.0000000E+00;  1.0000000E+04;  0.0000000E+00;  1.0000000E+04; -7.4646654E-05;  0.0000000E+00; -1.8729137E-05;  1.4832669E-01;
 -1.0000000E-01;  9.9999998E-03; -3.1999999E-01;248;  0.0000000E+00;  0.0000000E+00;  0.0000000E+00;  1.0000001E+03;  4.0000001E-01;  9.8762624E-02;0;  0.0000000E+00;  0.0000000E+00;  0.0000000E+00;0; -1.6738835E-04;  1.0000000E+04;  0.0000000E+00;  0.0000000E+00;  1.0000000E+04;  0.0000000E+00;  1.0000000E+04; -1.4464762E-04;  0.0000000E+00; -2.2740725E-05;  1.7656280E-01;
 -1.0000000E-01;  9.9999998E-03; -3.0000001E-01;249;  0.0000000E+00;  0.0000000E+00;  0.0000000E+00;  1.0000002E+03;  4.0000001E-01;  1.9752525E-01;0;  0.0000000E+00;  0.0000000E+00;  0.0000000E+00;0; -2.6193363E-04;  1.0000000E+04;  0.0000000E+00;  0.0000000E+00;  1.0000000E+04;  0.0000000E+00;  1.0000000E+04; -2.3960942E-04;  0.0000000E+00; -2.2324222E-05;  1.6705422E-01;
 -1.0000000E-01;  9.9999998E-03; -2.8000000E-01;250;  0.0000000E+00;  0.0000000E+00;  0.0000000E+00;  1.0000003E+03;  4.0000001E-01;  2.9628786E-01;0;  0.0000000E+00;  0.0000000E+00;  0.0000000E+00;0; -3.6694203E-04;  1.0000000E+04;  0.0000000E+00;  0.0000000E+00;  1.0000000E+04;  0.0000000E+00;  1.0000000E+04; -3.4966029E-04;  0.0000000E+00; -1.7281734E-05;  1.1895106E-01;
 -1.0000000E-01;  9.9999998E-03; -2.5999999E-01;251;  0.0000000E+00;  0.0000000E+00;  0.0000000E+00;  1.0000004E+03;  4.0000001E-01;  3.9505050E-01;0;  0.0000000E+00;  0.0000000E+00;  0.0000000E+00;0; -4.6831180E-04;  1.0000000E+04;  0.0000000E+00;  0.0000000E+00;  1.0000000E+04;  0.0000000E+00;  1.0000000E+04; -4.5955612E-04;  0.0000000E+00; -8.7556955E-06;  4.2593624E-02;
 -1.0000000E-01;  9.9999998E-03; -2.3999999E-01;252;  0.0000000E+00;  0.0000000E+00;  0.0000000E+00;  1.0000005E+03;  4.0000001E-01;  3.9505050E-01;0;  0.0000000E+00;  0.0000000E+00;  0.0000000E+00;0; -5.5519544E-04;  1.0000000E+04;  0.0000000E+00;  0.0000000E+00;  1.0000000E+04;  0.0000000E+00;  1.0000000E+04; -5.5581232E-04;  0.0000000E+00;  6.1689792E-07;  3.9745167E-02;
 -1.0000000E-01;  9.9999998E-03; -2.2000000E-01;253;  0.0000000E+00;  0.0000000E+00;  0.0000000E+00;  1.0000006E+03;  4.0000001E-01;  4.9381313E-01;0;  0.0000000E+00;  0.0000000E+00;  0.0000000E+00;0; -6.2366738E-04;  1.0000000E+04;  0.0000000E+00;  0.0000000E+00;  1.0000000E+04;  0.0000000E+00;  1.0000000E+04; -6.3161069E-04;  0.0000000E+00;  7.9433376E-06;  1.0430679E-01;
 -1.0000000E-01;  9.9999998E-03; -2.0000000E-01;254;  0.0000000E+00;  0.0000000E+00;  0.0000000E+00;  1.0000006E+03;  4.0000001E-01;  4.9381313E-01;0;  0.0000000E+00;  0.0000000E+00;  0.0000000E+00;0; -6.7483482E-04;  1.0000000E+04;  0.0000000E+00;  0.0000000E+00;  1.0000000E+04;  0.0000000E+00;  1.0000000E+04; -6.8673928E-04;  0.0000000E+00;  1.1904441E-05;  1.4060512E-01;
 -7.9999998E-02;  9.9999998E-03; -3.4000000E-01;288;  0.0000000E+00;  0.0000000E+00;  0.0000000E+00;  1.0000002E+03;  4.0000001E-01;  1.9752525E-01;0;  0.0000000E+00;  0.0000000E+00;  0.0000000E+00;0; -2.7291139E-04;  1.0000000E+04;  0.0000000E+00;  0.0000000E+00;  1.0000000E+04;  0.0000000E+00;  1.0000000E+04; -2.1296259E-04;  0.0000000E+00; -5.9948783E-05;  4.7959840E-01;
 -7.9999998E-02;  9.9999998E-03; -3.1999999E-01;289;  0.0000000E+00;  0.0000000E+00;  0.0000000E+00;  1.0000004E+03;  4.0000001E-01;  3.9505050E-01;0;  0.0000000E+00;  0.0000000E+00;  0.0000000E+00;0; -4.5051335E-04;  1.0000000E+04;  0.0000000E+00;  0.0000000E+00;  1.0000000E+04;  0.0000000E+00;  1.0000000E+04; -3.8308959E-04;  0.0000000E+00; -6.7423774E-05;  5.3049117E-01;
 -7.9999998E-02;  9.9999998E-03; -3.0000001E-01;290;  0.0000000E+00;  0.0000000E+00;  0.0000000E+00;  1.0000006E+03;  4.0000001E-01;  4.9381313E-01;0;  0.0000000E+00;  0.0000000E+00;  0.0000000E+00;0; -6.7048363E-04;  1.0000000E+04;  0.0000000E+00;  0.0000000E+00;  1.0000000E+04;  0.0000000E+00;  1.0000000E+04; -6.0713815E-04;  0.0000000E+00; -6.3345498E-05;  4.8290002E-01;
 -7.9999998E-02;  9.9999998E-03; -2.8000000E-01;291;  0.0000000E+00;  0.0000000E+00;  0.0000000E+00;  1.0000009E+03;  4.0000001E-01;  6.9133836E-01;0;  0.0000000E+00;  0.0000000E+00;  0.0000000E+00;0; -9.1034337E-04;  1.0000000E+04;  0.0000000E+00;  0.0000000E+00;  1.0000000E+04;  0.0000000E+00;  1.0000000E+04; -8.6256006E-04;  0.0000000E+00; -4.7783280E-05;  3.3915341E-01;
 -7.9999998E-02;  9.9999998E-03; -2.5999999E-01;292;  0.0000000E+00;  0.0000000E+00;  0.0000000E+00;  1.0000011E+03;  4.0000001E-01;  8.8886362E-01;0;  0.0000000E+00;  0.0000000E+00;  0.0000000E+00;0; -1.1398073E-03;  1.0000000E+04;  0.0000000E+00;  0.0000000E+00;  1.0000000E+04;  0.0000000E+00;  1.0000000E+04; -1.1160912E-03;  0.0000000E+00; -2.3716162E-05;  1.2608960E-01;
 -7.9999998E-02;  9.9999998E-03; -2.3999999E-01;293;  0.0000000E+00;  0.0000000E+00;  0.0000000E+00;  1.0000013E+03;  4.0000001E-01;  1.0863888E+00;0;  0.0000000E+00;  0.0000000E+00;  0.0000000E+00;0; -1.3365793E-03;  1.0000000E+04;  0.0000000E+00;  0.0000000E+00;  1.0000000E+04;  0.0000000E+00;  1.0000000E+04; -1.3388420E-03;  0.0000000E+00;  2.2625977E-06;  1.0055783E-01;
 -7.9999998E-02;  9.9999998E-03; -2.2000000E-01;294;  0.0000000E+00;  0.0000000E+00;  0.0000000E+00;  1.0000014E+03;  4.0000001E-01;  1.1851515E+00;0;  0.0000000E+00;  0.0000000E+00;  0.0000000E+00;0; -1.4933738E-03;  1.0000000E+04;  0.0000000E+00;  0.0000000E+00;  1.0000000E+04;  0.0000000E+00;  1.0000000E+04; -1.5162431E-03;  0.0000000E+00;  2.2869313E-05;  2.8077403E-01;
 -7.9999998E-02;  9.9999998E-03; -2.0000000E-01;295;  0.0000000E+00;  0.0000000E+00;  0.0000000E+00;  1.0000015E+03;  4.0000001E-01;  1.2839141E+00;0;  0.0000000E+00;  0.0000000E+00;  0.0000000E+00;0; -1.6127750E-03;  1.0000000E+04;  0.0000000E+00;  0.0000000E+00;  1.0000000E+04;  0.0000000E+00;  1.0000000E+04; -1.6473616E-03;  0.0000000E+00;  3.4586468E-05;  3.8643169E-01;
 -5.9999999E-02;  9.9999998E-03; -3.4000000E-01;329;  0.0000000E+00;  0.0000000E+00;  0.0000000E+00;  1.0000006E+03;  4.0000001E-01;  4.9381313E-01;0;  0.0000000E+00;  0.0000000E+00;  0.0000000E+00;0; -6.0890522E-04;  1.0000000E+04;  0.0000000E+00;  0.0000000E+00;  1.0000000E+04;  0.0000000E+00;  1.0000000E+04; -4.6341552E-04;  0.0000000E+00; -1.4548971E-04;  1.1778563E+00;
 -5.9999999E-02;  9.9999998E-03; -3.1999999E-01;330;  0.0000000E+00;  0.0000000E+00;  0.0000000E+00;  1.0000009E+03;  4.0000001E-01;  6.9133836E-01;0;  0.0000000E+00;  0.0000000E+00;  0.0000000E+00;0; -9.5772045E-04;  1.0000000E+04;  0.0000000E+00;  0.0000000E+00;  1.0000000E+04;  0.0000000E+00;  1.0000000E+04; -8.0076326E-04;  0.0000000E+00; -1.5695719E-04;  1.2524191E+00;
 -5.9999999E-02;  9.9999998E-03; -3.0000001E-01;331;  0.0000000E+00;  0.0000000E+00;  0.0000000E+00;  1.0000014E+03;  4.0000001E-01;  1.1851515E+00;0;  0.0000000E+00;  0.0000000E+00;  0.0000000E+00;0; -1.3818619E-03;  1.0000000E+04;  0.0000000E+00;  0.0000000E+00;  1.0000000E+04;  0.0000000E+00;  1.0000000E+04; -1.2381611E-03;  0.0000000E+00; -1.4370072E-04;  1.1153911E+00;
 -5.9999999E-02;  9.9999998E-03; -2.8000000E-01;332;  0.0000000E+00;  0.0000000E+00;  0.0000000E+00;  1.0000018E+03;  4.0000001E-01;  1.4814394E+00;0;  0.0000000E+00;  0.0000000E+00;  0.0000000E+00;0; -1.8380969E-03;  1.0000000E+04;  0.0000000E+00;  0.0000000E+00;  1.0000000E+04;  0.0000000E+00;  1.0000000E+04; -1.7318095E-03;  0.0000000E+00; -1.0628738E-04;  7.7513605E-01;
 -5.9999999E-02;  9.9999998E-03; -2.5999999E-01;333;  0.0000000E+00;  0.0000000E+00;  0.0000000E+00;  1.0000022E+03;  4.0000001E-01;  1.7777272E+00;0;  0.0000000E+00;  0.0000000E+00;  0.0000000E+00;0; -2.2695654E-03;  1.0000000E+04;  0.0000000E+00;  0.0000000E+00;  1.0000000E+04;  0.0000000E+00;  1.0000000E+04; -2.2182295E-03;  0.0000000E+00; -5.1335934E-05;  2.9107302E-01;
 -5.9999999E-02;  9.9999998E-03; -2.3999999E-01;334;  0.0000000E+00;  0.0000000E+00;  0.0000000E+00;  1.0000026E+03;  4.0000001E-01;  2.1727777E+00;0;  0.0000000E+00;  0.0000000E+00;  0.0000000E+00;0; -2.6371870E-03;  1.0000000E+04;  0.0000000E+00;  0.0000000E+00;  1.0000000E+04;  0.0000000E+00;  1.0000000E+04; -2.6441049E-03;  0.0000000E+00;  6.9178463E-06;  2.1615715E-01;
 -5.9999999E-02;  9.9999998E-03; -2.2000000E-01;335;  0.0000000E+00;  0.0000000E+00;  0.0000000E+00;  1.0000029E+03;  4.0000001E-01;  2.4690657E+00;0;  0.0000000E+00;  0.0000000E+00;  0.0000000E+00;0; -2.9306442E-03;  1.0000000E+04;  0.0000000E+00;  0.0000000E+00;  1.0000000E+04;  0.0000000E+00;  1.0000000E+04; -2.9838106E-03;  0.0000000E+00;  5.3166463E-05;  6.1977518E-01;
 -5.9999999E-02;  9.9999998E-03; -2.0000000E-01;336;  0.0000000E+00;  0.0000000E+00;  0.0000000E+00;  1.0000031E+03;  4.0000001E-01;  2.5678282E+00;0;  0.0000000E+00;  0.0000000E+00;  0.0000000E+00;0; -3.1560995E-03;  1.0000000E+04;  0.0000000E+00;  0.0000000E+00;  1.0000000E+04;  0.0000000E+00;  1.0000000E+04; -3.2361187E-03;  0.0000000E+00;  8.0019345E-05;  8.6029780E-01;
 -3.9999999E-02;  9.9999998E-03; -3.4000000E-01;370;  0.0000000E+00;  0.0000000E+00;  0.0000000E+00;  1.0000011E+03;  4.0000001E-01;  8.8886362E-01;0;  0.0000000E+00;  0.0000000E+00;  0.0000000E+00;0; -1.1228423E-03;  1.0000000E+04;  0.0000000E+00;  0.0000000E+00;  1.0000000E+04;  0.0000000E+00;  1.0000000E+04; -8.3080557E-04;  0.0000000E+00; -2.9203677E-04;  2.3965201E+00;
 -3.9999999E-02;  9.9999998E-03; -3.1999999E-01;371;  0.0000000E+00;  0.0000000E+00;  0.0000000E+00;  1.0000016E+03;  4.0000001E-01;  1.2839141E+00;0;  0.0000000E+00;  0.0000000E+00;  0.0000000E+00;0; -1.7121119E-03;  1.0000000E+04;  0.0000000E+00;  0.0000000E+00;  1.0000000E+04;  0.0000000E+00;  1.0000000E+04; -1.4042824E-03;  0.0000000E+00; -3.0782944E-04;  2.4944415E+00;
 -3.9999999E-02;  9.9999998E-03; -3.0000001E-01;372;  0.0000000E+00;  0.0000000E+00;  0.0000000E+00;  1.0000024E+03;  4.0000001E-01;  1.9752525E+00;0;  0.0000000E+00;  0.0000000E+00;  0.0000000E+00;0; -2.4191325E-03;  1.0000000E+04;  0.0000000E+00;  0.0000000E+00;  1.0000000E+04;  0.0000000E+00;  1.0000000E+04; -2.1418273E-03;  0.0000000E+00; -2.7730528E-04;  2.1933579E+00;
 -3.9999999E-02;  9.9999998E-03; -2.8000000E-01;373;  0.0000000E+00;  0.0000000E+00;  0.0000000E+00;  1.0000031E+03;  4.0000001E-01;  2.5678282E+00;0;  0.0000000E+00;  0.0000000E+00;  0.0000000E+00;0; -3.1688593E-03;  1.0000000E+04;  0.0000000E+00;  0.0000000E+00;  1.0000000E+04;  0.0000000E+00;  1.0000000E+04; -2.9674717E-03;  0.0000000E+00; -2.0138749E-04;  1.5080415E+00;
 -3.9999999E-02;  9.9999998E-03; -2.5999999E-01;374;  0.0000000E+00;  0.0000000E+00;  0.0000000E+00;  1.0000038E+03;  4.0000001E-01;  3.1604040E+00;0;  0.0000000E+00;  0.0000000E+00;  0.0000000E+00;0; -3.8665074E-03;  1.0000000E+04;  0.0000000E+00;  0.0000000E+00;  1.0000000E+04;  0.0000000E+00;  1.0000000E+04; -3.7727987E-03;  0.0000000E+00; -9.3708724E-05;  5.6041789E-01;
 -3.9999999E-02;  9.9999998E-03; -2.3999999E-01;375;  0.0000000E+00;  0.0000000E+00;  0.0000000E+00;  1.0000043E+03;  4.0000001E-01;  3.5554545E+00;0;  0.0000000E+00;  0.0000000E+00;  0.0000000E+00;0; -4.4542649E-03;  1.0000000E+04;  0.0000000E+00;  0.0000000E+00;  1.0000000E+04;  0.0000000E+00;  1.0000000E+04; -4.4721025E-03;  0.0000000E+00;  1.7837749E-05;  4.1242933E-01;
 -3.9999999E-02;  9.9999998E-03; -2.2000000E-01;376;  0.0000000E+00;  0.0000000E+00;  0.0000000E+00;  1.0000048E+03;  4.0000001E-01;  3.9505050E+00;0;  0.0000000E+00;  0.0000000E+00;  0.0000000E+00;0; -4.9221232E-03;  1.0000000E+04;  0.0000000E+00;  0.0000000E+00;  1.0000000E+04;  0.0000000E+00;  1.0000000E+04; -5.0276415E-03;  0.0000000E+00;  1.0551840E-04;  1.1791675E+00;
 -3.9999999E-02;  9.9999998E-03; -2.0000000E-01;377;  0.0000000E+00;  0.0000000E+00;  0.0000000E+00;  1.0000052E+03;  4.0000001E-01;  4.3455553E+00;0;  0.0000000E+00;  0.0000000E+00;  0.0000000E+00;0; -5.2828528E-03;  1.0000000E+04;  0.0000000E+00;  0.0000000E+00;  1.0000000E+04;  0.0000000E+00;  1.0000000E+04; -5.4395054E-03;  0.0000000E+00;  1.5665262E-04;  1.6369039E+00;
 -2.0000000E-02;  9.9999998E-03; -3.4000000E-01;411;  0.0000000E+00;  0.0000000E+00;  0.0000000E+00;  1.0000018E+03;  4.0000001E-01;  1.4814394E+00;0;  0.0000000E+00;  0.0000000E+00;  0.0000000E+00;0; -1.7951198E-03;  1.0000000E+04;  0.0000000E+00;  0.0000000E+00;  1.0000000E+04;  0.0000000E+00;  1.0000000E+04; -1.2875744E-03;  0.0000000E+00; -5.0754548E-04;  4.2312717E+00;
 -2.0000000E-02;  9.9999998E-03; -3.1999999E-01;412;  0.0000000E+00;  0.0000000E+00;  0.0000000E+00;  1.0000027E+03;  4.0000001E-01;  2.2715404E+00;0;  0.0000000E+00;  0.0000000E+00;  0.0000000E+00;0; -2.6781657E-03;  1.0000000E+04;  0.0000000E+00;  0.0000000E+00;  1.0000000E+04;  0.0000000E+00;  1.0000000E+04; -2.1501458E-03;  0.0000000E+00; -5.2801985E-04;  4.3537302E+00;
 -2.0000000E-02;  9.9999998E-03; -3.0000001E-01;413;  0.0000000E+00;  0.0000000E+00;  0.0000000E+00;  1.0000038E+03;  4.0000001E-01;  3.1604040E+00;0;  0.0000000E+00;  0.0000000E+00;  0.0000000E+00;0; -3.7216013E-03;  1.0000000E+04;  0.0000000E+00;  0.0000000E+00;  1.0000000E+04;  0.0000000E+00;  1.0000000E+04; -3.2515693E-03;  0.0000000E+00; -4.7003190E-04;  3.7942092E+00;
 -2.0000000E-02;  9.9999998E-03; -2.8000000E-01;414;  0.0000000E+00;  0.0000000E+00;  0.0000000E+00;  1.0000047E+03;  4.0000001E-01;  3.8517423E+00;0;  0.0000000E+00;  0.0000000E+00;  0.0000000E+00;0; -4.8069572E-03;  1.0000000E+04;  0.0000000E+00;  0.0000000E+00;  1.0000000E+04;  0.0000000E+00;  1.0000000E+04; -4.4727069E-03;  0.0000000E+00; -3.3425051E-04;  2.5711553E+00;
 -2.0000000E-02;  9.9999998E-03; -2.5999999E-01;415;  0.0000000E+00;  0.0000000E+00;  0.0000000E+00;  1.0000058E+03;  4.0000001E-01;  4.8393683E+00;0;  0.0000000E+00;  0.0000000E+00;  0.0000000E+00;0; -5.7950788E-03;  1.0000000E+04;  0.0000000E+00;  0.0000000E+00;  1.0000000E+04;  0.0000000E+00;  1.0000000E+04; -5.6473590E-03;  0.0000000E+00; -1.4771985E-04;  9.2511910E-01;
 -2.0000000E-02;  9.9999998E-03; -2.3999999E-01;416;  0.0000000E+00;  0.0000000E+00;  0.0000000E+00;  1.0000066E+03;  4.0000001E-01;  5.4319444E+00;0;  0.0000000E+00;  0.0000000E+00;  0.0000000E+00;0; -6.6172956E-03;  1.0000000E+04;  0.0000000E+00;  0.0000000E+00;  1.0000000E+04;  0.0000000E+00;  1.0000000E+04; -6.6568288E-03;  0.0000000E+00;  3.9533290E-05;  7.1709490E-01;
 -2.0000000E-02;  9.9999998E-03; -2.2000000E-01;417;  0.0000000E+00;  0.0000000E+00;  0.0000000E+00;  1.0000073E+03;  4.0000001E-01;  6.0245199E+00;0;  0.0000000E+00;  0.0000000E+00;  0.0000000E+00;0; -7.2688391E-03;  1.0000000E+04;  0.0000000E+00;  0.0000000E+00;  1.0000000E+04;  0.0000000E+00;  1.0000000E+04; -7.4530803E-03;  0.0000000E+00;  1.8424111E-04;  1.9906029E+00;
 -2.0000000E-02;  9.9999998E-03; -2.0000000E-01;418;  0.0000000E+00;  0.0000000E+00;  0.0000000E+00;  1.0000077E+03;  4.0000001E-01;  6.4195704E+00;0;  0.0000000E+00;  0.0000000E+00;  0.0000000E+00;0; -7.7711414E-03;  1.0000000E+04;  0.0000000E+00;  0.0000000E+00;  1.0000000E+04;  0.0000000E+00;  1.0000000E+04; -8.0392910E-03;  0.0000000E+00;  2.6814951E-04;  2.7454822E+00;
  0.0000000E+00;  9.9999998E-03; -3.4000000E-01;452;  0.0000000E+00;  0.0000000E+00;  0.0000000E+00;  1.0000026E+03;  4.0000001E-01;  2.1727777E+00;0;  0.0000000E+00;  0.0000000E+00;  0.0000000E+00;0; -2.5683728E-03;  1.0000000E+04;  0.0000000E+00;  0.0000000E+00;  1.0000000E+04;  0.0000000E+00;  1.0000000E+04; -1.7844270E-03;  0.0000000E+00; -7.8394578E-04;  6.6599431E+00;
  0.0000000E+00;  9.9999998E-03; -3.1999999E-01;453;  0.0000000E+00;  0.0000000E+00;  0.0000000E+00;  1.0000038E+03;  4.0000001E-01;  3.1604040E+00;0;  0.0000000E+00;  0.0000000E+00;  0.0000000E+00;0; -3.7665570E-03;  1.0000000E+04;  0.0000000E+00;  0.0000000E+00;  1.0000000E+04;  0.0000000E+00;  1.0000000E+04; -2.9580223E-03;  0.0000000E+00; -8.0853474E-04;  6.8031101E+00;
  0.0000000E+00;  9.9999998E-03; -3.0000001E-01;454;  0.0000000E+00;  0.0000000E+00;  0.0000000E+00;  1.0000051E+03;  4.0000001E-01;  4.1480303E+00;0;  0.0000000E+00;  0.0000000E+00;  0.0000000E+00;0; -5.1472224E-03;  1.0000000E+04;  0.0000000E+00;  0.0000000E+00;  1.0000000E+04;  0.0000000E+00;  1.0000000E+04; -4.4382750E-03;  0.0000000E+00; -7.0894742E-04;  5.8556161E+00;
  2.0000000E-02;  9.9999998E-03; -3.4000000E-01;464;  0.0000000E+00;  0.0000000E+00;  0.0000000E+00;  1.0000035E+03;  4.0000001E-01;  2.9628787E+00;0;  0.0000000E+00;  0.0000000E+00;  0.0000000E+00;0; -3.3780341E-03;  1.0000000E+04;  0.0000000E+00;  0.0000000E+00;  1.0000000E+04;  0.0000000E+00;  1.0000000E+04; -2.2828358E-03;  0.0000000E+00; -1.0951983E-03;  9.5212851E+00;
  2.0000000E-02;  9.9999998E-03; -3.1999999E-01;465;  0.0000000E+00;  0.0000000E+00;  0.0000000E+00;  1.0000051E+03;  4.0000001E-01;  4.1480303E+00;0;  0.0000000E+00;  0.0000000E+00;  0.0000000E+00;0; -4.8818551E-03;  1.0000000E+04;  0.0000000E+00;  0.0000000E+00;  1.0000000E+04;  0.0000000E+00;  1.0000000E+04; -3.7617481E-03;  0.0000000E+00; -1.1201072E-03;  9.6574697E+00;
  3.9999999E-02;  9.9999998E-03; -3.4000000E-01;474;  0.0000000E+00;  0.0000000E+00;  0.0000000E+00;  1.0000043E+03;  4.0000001E-01;  3.5554545E+00;0;  0.0000000E+00;  0.0000000E+00;  0.0000000E+00;0; -4.2019011E-03;  1.0000000E+04;  0.0000000E+00;  0.0000000E+00;  1.0000000E+04;  0.0000000E+00;  1.0000000E+04; -2.7924934E-03;  0.0000000E+00; -1.4094078E-03;  1.2605898E+01;
  3.9999999E-02;  9.9999998E-03; -3.1999999E-01;475;  0.0000000E+00;  0.0000000E+00;  0.0000000E+00;  1.0000063E+03;  4.0000001E-01;  5.2344189E+00;0;  0.0000000E+00;  0.0000000E+00;  0.0000000E+00;0; -6.0074427E-03;  1.0000000E+04;  0.0000000E+00;  0.0000000E+00;  1.0000000E+04;  0.0000000E+00;  1.0000000E+04; -4.5822719E-03;  0.0000000E+00; -1.4251709E-03;  1.2659820E+01;
  5.9999999E-02;  9.9999998E-03; -3.4000000E-01;484;  0.0000000E+00;  0.0000000E+00;  0.0000000E+00;  1.0000055E+03;  4.0000001E-01;  4.5430808E+00;0;  0.0000000E+00;  0.0000000E+00;  0.0000000E+00;0; -5.0846529E-03;  1.0000000E+04;  0.0000000E+00;  0.0000000E+00;  1.0000000E+04;  0.0000000E+00;  1.0000000E+04; -3.3743731E-03;  0.0000000E+00; -1.7102798E-03;  1.5829193E+01;
  5.9999999E-02;  9.9999998E-03; -3.1999999E-01;485;  0.0000000E+00;  0.0000000E+00;  0.0000000E+00;  1.0000077E+03;  4.0000001E-01;  6.4195704E+00;0;  0.0000000E+00;  0.0000000E+00;  0.0000000E+00;0; -7.2299978E-03;  1.0000000E+04;  0.0000000E+00;  0.0000000E+00;  1.0000000E+04;  0.0000000E+00;  1.0000000E+04; -5.5207638E-03;  0.0000000E+00; -1.7092342E-03;  1.5734159E+01;
  7.9999998E-02;  9.9999998E-03; -3.4000000E-01;494;  0.0000000E+00;  0.0000000E+00;  0.0000000E+00;  1.0000068E+03;  4.0000001E-01;  5.6294694E+00;0;  0.0000000E+00;  0.0000000E+00;  0.0000000E+00;0; -6.1508808E-03;  1.0000000E+04;  0.0000000E+00;  0.0000000E+00;  1.0000000E+04;  0.0000000E+00;  1.0000000E+04; -4.1452758E-03;  0.0000000E+00; -2.0056050E-03;  1.9354364E+01;
  7.9999998E-02;  9.9999998E-03; -3.1999999E-01;495;  0.0000000E+00;  0.0000000E+00;  0.0000000E+00;  1.0000096E+03;  4.0000001E-01;  7.9997725E+00;0;  0.0000000E+00;  0.0000000E+00;  0.0000000E+00;0; -8.7191360E-03;  1.0000000E+04;  0.0000000E+00;  0.0000000E+00;  1.0000000E+04;  0.0000000E+00;  1.0000000E+04; -6.7366138E-03;  0.0000000E+00; -1.9825220E-03;  1.9045975E+01;
  1.0000000E-01;  9.9999998E-03; -3.4000000E-01;504;  0.0000000E+00;  0.0000000E+00;  0.0000000E+00;  1.0000086E+03;  4.0000001E-01;  7.1109090E+00;0;  0.0000000E+00;  0.0000000E+00;  0.0000000E+00;0; -7.6205470E-03;  1.0000000E+04;  0.0000000E+00;  0.0000000E+00;  1.0000000E+04;  0.0000000E+00;  1.0000000E+04; -5.2911458E-03;  0.0000000E+00; -2.3294014E-03;  2.4461462E+01;
  1.0000000E-01;  9.9999998E-03; -3.1999999E-01;505;  0.0000000E+00;  0.0000000E+00;  0.0000000E+00;  1.0000122E+03;  4.0000001E-01;  1.0073788E+01;0;  0.0000000E+00;  0.0000000E+00;  0.0000000E+00;0; -1.0759280E-02;  1.0000000E+04;  0.0000000E+00;  0.0000000E+00;  1.0000000E+04;  0.0000000E+00;  1.0000000E+04; -8.4790755E-03;  0.0000000E+00; -2.2802046E-03;  2.4398018E+01;
  1.2000000E-01;  9.9999998E-03; -3.4000000E-01;514;  0.0000000E+00;  0.0000000E+00;  0.0000000E+00;  1.0000115E+03;  4.0000001E-01;  9.5799742E+00;0;  0.0000000E+00;  0.0000000E+00;  0.0000000E+00;0; -9.8257894E-03;  1.0000000E+04;  0.0000000E+00;  0.0000000E+00;  1.0000000E+04;  0.0000000E+00;  1.0000000E+04; -7.0730280E-03;  0.0000000E+00; -2.7527611E-03;  3.8267498E+01;
  1.2000000E-01;  9.9999998E-03; -3.1999999E-01;515;  0.0000000E+00;  0.0000000E+00;  0.0000000E+00;  1.0000160E+03;  4.0000001E-01;  1.3234192E+01;0;  0.0000000E+00;  0.0000000E+00;  0.0000000E+00;0; -1.3757419E-02;  1.0000000E+04;  0.0000000E+00;  0.0000000E+00;  1.0000000E+04;  0.0000000E+00;  1.0000000E+04; -1.1085475E-02;  0.0000000E+00; -2.6719442E-03;  4.4442734E+01;
  1.4000000E-01;  9.9999998E-03; -3.4000000E-01;524;  0.0000000E+00;  0.0000000E+00;  0.0000000E+00;  1.0000159E+03;  4.0000001E-01;  1.3234192E+01;0;  0.0000000E+00;  0.0000000E+00;  0.0000000E+00;0; -1.3236937E-02;  1.0000000E+04;  0.0000000E+00;  0.0000000E+00;  1.0000000E+04;  0.0000000E+00;  1.0000000E+04; -9.8319817E-03;  0.0000000E+00; -3.4049554E-03;  7.9772659E+01;
  1.4000000E-01;  9.9999998E-03; -3.1999999E-01;525;  0.0000000E+00;  0.0000000E+00;  0.0000000E+00;  1.0000217E+03;  4.0000001E-01;  1.7974798E+01;0;  0.0000000E+00;  0.0000000E+00;  0.0000000E+00;0; -1.8251376E-02;  1.0000000E+04;  0.0000000E+00;  0.0000000E+00;  1.0000000E+04;  0.0000000E+00;  1.0000000E+04; -1.4970108E-02;  0.0000000E+00; -3.2812676E-03;  1.0980373E+02;
  1.6000000E-01;  9.9999998E-03; -3.4000000E-01;534;  0.0000000E+00;  0.0000000E+00;  0.0000000E+00;  1.0000225E+03;  4.0000001E-01;  1.8666136E+01;0;  0.0000000E+00;  0.0000000E+00;  0.0000000E+00;0; -1.8377025E-02;  1.0000000E+04;  0.0000000E+00;  0.0000000E+00;  1.0000000E+04;  0.0000000E+00;  1.0000000E+04; -1.3871785E-02;  0.0000000E+00; -4.5052385E-03;  1.7440933E+02;
  1.6000000E-01;  9.9999998E-03; -3.1999999E-01;535;  0.0000000E+00;  0.0000000E+00;  0.0000000E+00;  1.0000303E+03;  4.0000001E-01;  2.5085707E+01;0;  0.0000000E+00;  0.0000000E+00;  0.0000000E+00;0; -2.4812959E-02;  1.0000000E+04;  0.0000000E+00;  0.0000000E+00;  1.0000000E+04;  0.0000000E+00;  1.0000000E+04; -2.0493034E-02;  0.0000000E+00; -4.3199239E-03;  2.6079660E+02;
  1.8000001E-01;  9.9999998E-03; -3.4000000E-01;544;  0.0000000E+00;  0.0000000E+00;  0.0000000E+00;  1.0000320E+03;  4.0000001E-01;  2.6468384E+01;0;  0.0000000E+00;  0.0000000E+00;  0.0000000E+00;0; -2.5470756E-02;  1.0000000E+04;  0.0000000E+00;  0.0000000E+00;  1.0000000E+04;  0.0000000E+00;  1.0000000E+04; -1.9071039E-02;  0.0000000E+00; -6.3997172E-03;  3.3669247E+02;
  1.8000001E-01;  9.9999998E-03; -3.1999999E-01;545;  0.0000000E+00;  0.0000000E+00;  0.0000000E+00;  1.0000422E+03;  4.0000001E-01;  3.4961967E+01;0;  0.0000000E+00;  0.0000000E+00;  0.0000000E+00;0; -3.3713982E-02;  1.0000000E+04;  0.0000000E+00;  0.0000000E+00;  1.0000000E+04;  0.0000000E+00;  1.0000000E+04; -2.7577892E-02;  0.0000000E+00; -6.1360905E-03;  5.3281842E+02;
  2.0000000E-01;  9.9999998E-03; -3.4000000E-01;553;  0.0000000E+00;  0.0000000E+00;  0.0000000E+00;  1.0000440E+03;  4.0000001E-01;  3.6443409E+01;0;  0.0000000E+00;  0.0000000E+00;  0.0000000E+00;0; -3.4241382E-02;  1.0000000E+04;  0.0000000E+00;  0.0000000E+00;  1.0000000E+04;  0.0000000E+00;  1.0000000E+04; -2.4680141E-02;  0.0000000E+00; -9.5612407E-03;  5.3424054E+02;
  2.0000000E-01;  9.9999998E-03; -3.1999999E-01;554;  0.0000000E+00;  0.0000000E+00;  0.0000000E+00;  1.0000572E+03;  4.0000001E-01;  4.7406059E+01;0;  0.0000000E+00;  0.0000000E+00;  0.0000000E+00;0; -4.4671521E-02;  1.0000000E+04;  0.0000000E+00;  0.0000000E+00;  1.0000000E+04;  0.0000000E+00;  1.0000000E+04; -3.5444811E-02;  0.0000000E+00; -9.2267115E-03;  8.9817957E+02;
 -2.2000000E-01;  9.9999998E-03; -1.8000001E-01;10;  0.0000000E+00;  0.0000000E+00;  0.0000000E+00;  1.0000000E+03;  4.0000001E-01;  0.0000000E+00;0;  0.0000000E+00;  0.0000000E+00;  0.0000000E+00;0;  0.0000000E+00;  1.0000000E+04;  0.0000000E+00;  0.0000000E+00;  1.0000000E+04;  0.0000000E+00;  1.0000000E+04;  0.0000000E+00;  0.0000000E+00;  0.0000000E+00;  0.0000000E+00;
 -2.2000000E-01;  9.9999998E-03; -1.6000000E-01;11;  0.0000000E+00;  0.0000000E+00;  0.0000000E+00;  1.0000000E+03;  4.0000001E-01;  0.0000000E+00;0;  0.0000000E+00;  0.0000000E+00;  0.0000000E+00;0;  0.0000000E+00;  1.0000000E+04;  0.0000000E+00;  0.0000000E+00;  1.0000000E+04;  0.0000000E+00;  1.0000000E+04;  0.0000000E+00;  0.0000000E+00;  0.0000000E+00;  0.0000000E+00;
 -2.2000000E-01;  9.9999998E-03; -1.4000000E-01;12;  0.0000000E+00;  0.0000000E+00;  0.0000000E+00;  1.0000000E+03;  4.0000001E-01;  0.0000000E+00;0;  0.0000000E+00;  0.0000000E+00;  0.0000000E+00;0;  0.0000000E+00;  1.0000000E+04;  0.0000000E+00;  0.0000000E+00;  1.0000000E+04;  0.0000000E+00;  1.0000000E+04;  0.0000000E+00;  0.0000000E+00;  0.0000000E+00;  0.0000000E+00;
 -2.2000000E-01;  9.9999998E-03; -1.2000000E-01;13;  0.0000000E+00;  0.0000000E+00;  0.0000000E+00;  1.0000000E+03;  4.0000001E-01;  0.0000000E+00;0;  0.0000000E+00;  0.0000000E+00;  0.0000000E+00;0;  0.0000000E+00;  1.0000000E+04;  0.0000000E+00;  0.0000000E+00;  1.0000000E+04;  0.0000000E+00;  1.0000000E+04;  0.0000000E+00;  0.0000000E+00;  0.0000000E+00;  0.0000000E+00;
 -2.2000000E-01;  9.9999998E-03; -1.0000000E-01;14;  0.0000000E+00;  0.0000000E+00;  0.0000000E+00;  1.0000000E+03;  4.0000001E-01;  0.0000000E+00;0;  0.0000000E+00;  0.0000000E+00;  0.0000000E+00;0;  0.0000000E+00;  1.0000000E+04;  0.0000000E+00;  0.0000000E+00;  1.0000000E+04;  0.0000000E+00;  1.0000000E+04;  0.0000000E+00;  0.0000000E+00;  0.0000000E+00;  0.0000000E+00;
 -2.2000000E-01;  9.9999998E-03; -7.9999998E-02;15;  0.0000000E+00;  0.0000000E+00;  0.0000000E+00;  1.0000000E+03;  4.0000001E-01;  0.0000000E+00;0;  0.0000000E+00;  0.0000000E+00;  0.0000000E+00;0;  0.0000000E+00;  1.0000000E+04;  0.0000000E+00;  0.0000000E+00;  1.0000000E+04;  0.0000000E+00;  1.0000000E+04;  0.0000000E+00;  0.0000000E+00;  0.0000000E+00;  0.0000000E+00;
 -2.2000000E-01;  9.9999998E-03; -5.9999999E-02;16;  0.0000000E+00;  0.0000000E+00;  0.0000000E+00;  1.0000000E+03;  4.0000001E-01;  0.0000000E+00;0;  0.0000000E+00;  0.0000000E+00;  0.0000000E+00;0;  0.0000000E+00;  1.0000000E+04;  0.0000000E+00;  0.0000000E+00;  1.0000000E+04;  0.0000000E+00;  1.0000000E+04;  0.0000000E+00;  0.0000000E+00;  0.0000000E+00;  0.0000000E+00;
 -2.2000000E-01;  9.9999998E-03; -3.9999999E-02;17;  0.0000000E+00;  0.0000000E+00;  0.0000000E+00;  1.0000000E+03;  4.0000001E-01;  0.0000000E+00;0;  0.0000000E+00;  0.0000000E+00;  0.0000000E+00;0;  0.0000000E+00;  1.0000000E+04;  0.0000000E+00;  0.0000000E+00;  1.0000000E+04;  0.0000000E+00;  1.0000000E+04;  0.0000000E+00;  0.0000000E+00;  0.0000000E+00;  0.0000000E+00;
 -2.2000000E-01;  9.9999998E-03; -2.0000000E-02;18;  0.0000000E+00;  0.0000000E+00;  0.0000000E+00;  1.0000000E+03;  4.0000001E-01;  0.0000000E+00;0;  0.0000000E+00;  0.0000000E+00;  0.0000000E+00;0;  0.0000000E+00;  1.0000000E+04;  0.0000000E+00;  0.0000000E+00;  1.0000000E+04;  0.0000000E+00;  1.0000000E+04;  0.0000000E+00;  0.0000000E+00;  0.0000000E+00;  0.0000000E+00;
 -2.0000000E-01;  9.9999998E-03; -1.8000001E-01;50;  0.0000000E+00;  0.0000000E+00;  0.0000000E+00;  1.0000000E+03;  4.0000001E-01;  0.0000000E+00;0;  0.0000000E+00;  0.0000000E+00;  0.0000000E+00;0;  0.0000000E+00;  1.0000000E+04;  0.0000000E+00;  0.0000000E+00;  1.0000000E+04;  0.0000000E+00;  1.0000000E+04;  0.0000000E+00;  0.0000000E+00;  0.0000000E+00;  0.0000000E+00;
 -2.0000000E-01;  9.9999998E-03; -1.6000000E-01;51;  0.0000000E+00;  0.0000000E+00;  0.0000000E+00;  1.0000000E+03;  4.0000001E-01;  0.0000000E+00;0;  0.0000000E+00;  0.0000000E+00;  0.0000000E+00;0;  0.0000000E+00;  1.0000000E+04;  0.0000000E+00;  0.0000000E+00;  1.0000000E+04;  0.0000000E+00;  1.0000000E+04;  0.0000000E+00;  0.0000000E+00;  0.0000000E+00;  0.0000000E+00;
 -2.0000000E-01;  9.9999998E-03; -1.4000000E-01;52;  0.0000000E+00;  0.0000000E+00;  0.0000000E+00;  1.0000000E+03;  4.0000001E-01;  0.0000000E+00;0;  0.0000000E+00;  0.0000000E+00;  0.0000000E+00;0;  0.0000000E+00;  1.0000000E+04;  0.0000000E+00;  0.0000000E+00;  1.0000000E+04;  0.0000000E+00;  1.0000000E+04;  0.0000000E+00;  0.0000000E+00;  0.0000000E+00;  0.0000000E+00;
 -2.0000000E-01;  9.9999998E-03; -1.2000000E-01;53;  0.0000000E+00;  0.0000000E+00;  0.0000000E+00;  1.0000000E+03;  4.0000001E-01;  0.0000000E+00;0;  0.0000000E+00;  0.0000000E+00;  0.0000000E+00;0;  0.0000000E+00;  1.0000000E+04;  0.0000000E+00;  0.0000000E+00;  1.0000000E+04;  0.0000000E+00;  1.0000000E+04;  0.0000000E+00;  0.0000000E+00;  0.0000000E+00;  0.0000000E+00;
 -2.0000000E-01;  9.9999998E-03; -1.0000000E-01;54;  0.0000000E+00;  0.0000000E+00;  0.0000000E+00;  1.0000000E+03;  4.0000001E-01;  0.0000000E+00;0;  0.0000000E+00;  0.0000000E+00;  0.0000000E+00;0;  0.0000000E+00;  1.0000000E+04;  0.0000000E+00;  0.0000000E+00;  1.0000000E+04;  0.0000000E+00;  1.0000000E+04;  0.0000000E+00;  0.0000000E+00;  0.0000000E+00;  0.0000000E+00;
 -2.0000000E-01;  9.9999998E-03; -7.9999998E-02;55;  0.0000000E+00;  0.0000000E+00;  0.0000000E+00;  1.0000000E+03;  4.0000001E-01;  0.0000000E+00;0;  0.0000000E+00;  0.0000000E+00;  0.0000000E+00;0;  0.0000000E+00;  1.0000000E+04;  0.0000000E+00;  0.0000000E+00;  1.0000000E+04;  0.0000000E+00;  1.0000000E+04;  0.0000000E+00;  0.0000000E+00;  0.0000000E+00;  0.0000000E+00;
 -2.0000000E-01;  9.9999998E-03; -5.9999999E-02;56;  0.0000000E+00;  0.0000000E+00;  0.0000000E+00;  1.0000000E+03;  4.0000001E-01;  0.0000000E+00;0;  0.0000000E+00;  0.0000000E+00;  0.0000000E+00;0;  0.0000000E+00;  1.0000000E+04;  0.0000000E+00;  0.0000000E+00;  1.0000000E+04;  0.0000000E+00;  1.0000000E+04;  0.0000000E+00;  0.0000000E+00;  0.0000000E+00;  0.0000000E+00;
 -2.0000000E-01;  9.9999998E-03; -3.9999999E-02;57;  0.0000000E+00;  0.0000000E+00;  0.0000000E+00;  1.0000000E+03;  4.0000001E-01;  0.0000000E+00;0;  0.0000000E+00;  0.0000000E+00;  0.0000000E+00;0;  0.0000000E+00;  1.0000000E+04;  0.0000000E+00;  0.0000000E+00;  1.0000000E+04;  0.0000000E+00;  1.0000000E+04;  0.0000000E+00;  0.0000000E+00;  0.0000000E+00;  0.0000000E+00;
 -2.0000000E-01;  9.9999998E-03; -2.0000000E-02;58;  0.0000000E+00;  0.0000000E+00;  0.0000000E+00;  1.0000000E+03;  4.0000001E-01;  0.0000000E+00;0;  0.0000000E+00;  0.0000000E+00;  0.0000000E+00;0;  0.0000000E+00;  1.0000000E+04;  0.0000000E+00;  0.0000000E+00;  1.0000000E+04;  0.0000000E+00;  1.0000000E+04;  0.0000000E+00;  0.0000000E+00;  0.0000000E+00;  0.0000000E+00;
 -1.8000001E-01;  9.9999998E-03; -1.8000001E-01;91;  0.0000000E+00;  0.0000000E+00;  0.0000000E+00;  1.0000000E+03;  4.0000001E-01;  0.0000000E+00;0;  0.0000000E+00;  0.0000000E+00;  0.0000000E+00;0;  0.0000000E+00;  1.0000000E+04;  0.0000000E+00;  0.0000000E+00;  1.0000000E+04;  0.0000000E+00;  1.0000000E+04;  0.0000000E+00;  0.0000000E+00;  0.0000000E+00;  0.0000000E+00;
 -1.8000001E-01;  9.9999998E-03; -1.6000000E-01;92;  0.0000000E+00;  0.0000000E+00;  0.0000000E+00;  1.0000000E+03;  4.0000001E-01;  0.0000000E+00;0;  0.0000000E+00;  0.0000000E+00;  0.0000000E+00;0;  0.0000000E+00;  1.0000000E+04;  0.0000000E+00;  0.0000000E+00;  1.0000000E+04;  0.0000000E+00;  1.0000000E+04;  0.0000000E+00;  0.0000000E+00;  0.0000000E+00;  0.0000000E+00;
 -1.8000001E-01;  9.9999998E-03; -1.4000000E-01;93;  0.0000000E+00;  0.0000000E+00;  0.0000000E+00;  1.0000000E+03;  4.0000001E-01;  0.0000000E+00;0;  0.0000000E+00;  0.0000000E+00;  0.0000000E+00;0;  0.0000000E+00;  1.0000000E+04;  0.0000000E+00;  0.0000000E+00;  1.0000000E+04;  0.0000000E+00;  1.0000000E+04;  0.0000000E+00;  0.0000000E+00;  0.0000000E+00;  0.0000000E+00;
 -1.8000001E-01;  9.9999998E-03; -1.2000000E-01;94;  0.0000000E+00;  0.0000000E+00;  0.0000000E+00;  1.0000000E+03;  4.0000001E-01;  0.0000000E+00;0;  0.0000000E+00;  0.0000000E+00;  0.0000000E+00;0;  0.0000000E+00;  1.0000000E+04;  0.0000000E+00;  0.0000000E+00;  1.0000000E+04;  0.0000000E+00;  1.0000000E+04;  0.0000000E+00;  0.0000000E+00;  0.0000000E+00;  0.0000000E+00;
 -1.8000001E-01;  9.9999998E-03; -1.0000000E-01;95;  0.0000000E+00;  0.0000000E+00;  0.0000000E+00;  1.0000000E+03;  4.0000001E-01;  0.0000000E+00;0;  0.0000000E+00;  0.0000000E+00;  0.0000000E+00;0;  0.0000000E+00;  1.0000000E+04;  0.0000000E+00;  0.0000000E+00;  1.0000000E+04;  0.0000000E+00;  1.0000000E+04;  0.0000000E+00;  0.0000000E+00;  0.0000000E+00;  0.0000000E+00;
 -1.8000001E-01;  9.9999998E-03; -7.9999998E-02;96;  0.0000000E+00;  0.0000000E+00;  0.0000000E+00;  1.0000000E+03;  4.0000001E-01;  0.0000000E+00;0;  0.0000000E+00;  0.0000000E+00;  0.0000000E+00;0;  0.0000000E+00;  1.0000000E+04;  0.0000000E+00;  0.0000000E+00;  1.0000000E+04;  0.0000000E+00;  1.0000000E+04;  0.0000000E+00;  0.0000000E+00;  0.0000000E+00;  0.0000000E+00;
 -1.8000001E-01;  9.9999998E-03; -5.9999999E-02;97;  0.0000000E+00;  0.0000000E+00;  0.0000000E+00;  1.0000000E+03;  4.0000001E-01;  0.0000000E+00;0;  0.0000000E+00;  0.0000000E+00;  0.0000000E+00;0;  0.0000000E+00;  1.0000000E+04;  0.0000000E+00;  0.0000000E+00;  1.0000000E+04;  0.0000000E+00;  1.0000000E+04;  0.0000000E+00;  0.0000000E+00;  0.0000000E+00;  0.0000000E+00;
 -1.8000001E-01;  9.9999998E-03; -3.9999999E-02;98;  0.0000000E+00;  0.0000000E+00;  0.0000000E+00;  1.0000000E+03;  4.0000001E-01;  0.0000000E+00;0;  0.0000000E+00;  0.0000000E+00;  0.0000000E+00;0;  0.0000000E+00;  1.0000000E+04;  0.0000000E+00;  0.0000000E+00;  1.0000000E+04;  0.0000000E+00;  1.0000000E+04;  0.0000000E+00;  0.0000000E+00;  0.0000000E+00;  0.0000000E+00;
 -1.8000001E-01;  9.9999998E-03; -2.0000000E-02;99;  0.0000000E+00;  0.0000000E+00;  0.0000000E+00;  1.0000000E+03;  4.0000001E-01;  0.0000000E+00;0;  0.0000000E+00;  0.0000000E+00;  0.0000000E+00;0;  0.0000000E+00;  1.0000000E+04;  0.0000000E+00;  0.0000000E+00;  1.0000000E+04;  0.0000000E+00;  1.0000000E+04;  0.0000000E+00;  0.0000000E+00;  0.0000000E+00;  0.0000000E+00;
 -1.6000000E-01;  9.9999998E-03; -1.8000001E-01;132;  0.0000000E+00;  0.0000000E+00;  0.0000000E+00;  1.0000000E+03;  4.0000001E-01;  0.0000000E+00;0;  0.0000000E+00;  0.0000000E+00;  0.0000000E+00;0; -1.1118937E-06;  1.0000000E+04;  0.0000000E+00;  0.0000000E+00;  1.0000000E+04;  0.0000000E+00;  1.0000000E+04; -1.1144506E-06;  0.0000000E+00;  2.5569746E-09;  9.7087650E-05;
 -1.6000000E-01;  9.9999998E-03; -1.6000000E-01;133;  0.0000000E+00;  0.0000000E+00;  0.0000000E+00;  1.0000000E+03;  4.0000001E-01;  0.0000000E+00;0;  0.0000000E+00;  0.0000000E+00;  0.0000000E+00;0; -1.1453307E-06;  1.0000000E+04;  0.0000000E+00;  0.0000000E+00;  1.0000000E+04;  0.0000000E+00;  1.0000000E+04; -1.1475752E-06;  0.0000000E+00;  2.2445485E-09;  9.7315715E-05;
 -1.6000000E-01;  9.9999998E-03; -1.4000000E-01;134;  0.0000000E+00;  0.0000000E+00;  0.0000000E+00;  1.0000000E+03;  4.0000001E-01;  0.0000000E+00;0;  0.0000000E+00;  0.0000000E+00;  0.0000000E+00;0; -1.1662016E-06;  1.0000000E+04;  0.0000000E+00;  0.0000000E+00;  1.0000000E+04;  0.0000000E+00;  1.0000000E+04; -1.1680885E-06;  0.0000000E+00;  1.8869077E-09;  9.6370713E-05;
 -1.6000000E-01;  9.9999998E-03; -1.2000000E-01;135;  0.0000000E+00;  0.0000000E+00;  0.0000000E+00;  1.0000000E+03;  4.0000001E-01;  0.0000000E+00;0;  0.0000000E+00;  0.0000000E+00;  0.0000000E+00;0; -1.1779161E-06;  1.0000000E+04;  0.0000000E+00;  0.0000000E+00;  1.0000000E+04;  0.0000000E+00;  1.0000000E+04; -1.1794601E-06;  0.0000000E+00;  1.5439403E-09;  9.4934527E-05;
 -1.6000000E-01;  9.9999998E-03; -1.0000000E-01;136;  0.0000000E+00;  0.0000000E+00;  0.0000000E+00;  1.0000000E+03;  4.0000001E-01;  0.0000000E+00;0;  0.0000000E+00;  0.0000000E+00;  0.0000000E+00;0; -1.1834422E-06;  1.0000000E+04;  0.0000000E+00;  0.0000000E+00;  1.0000000E+04;  0.0000000E+00;  1.0000000E+04; -1.1846672E-06;  0.0000000E+00;  1.2250236E-09;  9.3249917E-05;
 -1.6000000E-01;  9.9999998E-03; -7.9999998E-02;137;  0.0000000E+00;  0.0000000E+00;  0.0000000E+00;  1.0000000E+03;  4.0000001E-01;  0.0000000E+00;0;  0.0000000E+00;  0.0000000E+00;  0.0000000E+00;0; -1.1851253E-06;  1.0000000E+04;  0.0000000E+00;  0.0000000E+00;  1.0000000E+04;  0.0000000E+00;  1.0000000E+04; -1.1860745E-06;  0.0000000E+00;  9.4932862E-10;  9.1593676E-05;
 -1.6000000E-01;  9.9999998E-03; -5.9999999E-02;138;  0.0000000E+00;  0.0000000E+00;  0.0000000E+00;  1.0000000E+03;  4.0000001E-01;  0.0000000E+00;0;  0.0000000E+00;  0.0000000E+00;  0.0000000E+00;0; -1.1847611E-06;  1.0000000E+04;  0.0000000E+00;  0.0000000E+00;  1.0000000E+04;  0.0000000E+00;  1.0000000E+04; -1.1854885E-06;  0.0000000E+00;  7.2738232E-10;  9.0141832E-05;
 -1.6000000E-01;  9.9999998E-03; -3.9999999E-02;139;  0.0000000E+00;  0.0000000E+00;  0.0000000E+00;  1.0000000E+03;  4.0000001E-01;  0.0000000E+00;0;  0.0000000E+00;  0.0000000E+00;  0.0000000E+00;0; -1.1836501E-06;  1.0000000E+04;  0.0000000E+00;  0.0000000E+00;  1.0000000E+04;  0.0000000E+00;  1.0000000E+04; -1.1842139E-06;  0.0000000E+00;  5.6385968E-10;  8.9000074E-05;
 -1.6000000E-01;  9.9999998E-03; -2.0000000E-02;140;  0.0000000E+00;  0.0000000E+00;  0.0000000E+00;  1.0000000E+03;  4.0000001E-01;  0.0000000E+00;0;  0.0000000E+00;  0.0000000E+00;  0.0000000E+00;0; -1.1826537E-06;  1.0000000E+04;  0.0000000E+00;  0.0000000E+00;  1.0000000E+04;  0.0000000E+00;  1.0000000E+04; -1.1831187E-06;  0.0000000E+00;  4.6502324E-10;  8.8283778E-05;
 -1.4000000E-01;  9.9999998E-03; -1.8000001E-01;173;  0.0000000E+00;  0.0000000E+00;  0.0000000E+00;  1.0000000E+03;  4.0000001E-01;  0.0000000E+00;0;  0.0000000E+00;  0.0000000E+00;  0.0000000E+00;0; -4.0380663E-05;  1.0000000E+04;  0.0000000E+00;  0.0000000E+00;  1.0000000E+04;  0.0000000E+00;  1.0000000E+04; -4.0692095E-05;  0.0000000E+00;  3.1143179E-07;  5.2526547E-03;
 -1.4000000E-01;  9.9999998E-03; -1.6000000E-01;174;  0.0000000E+00;  0.0000000E+00;  0.0000000E+00;  1.0000000E+03;  4.0000001E-01;  0.0000000E+00;0;  0.0000000E+00;  0.0000000E+00;  0.0000000E+00;0; -4.1733208E-05;  1.0000000E+04;  0.0000000E+00;  0.0000000E+00;  1.0000000E+04;  0.0000000E+00;  1.0000000E+04; -4.2012398E-05;  0.0000000E+00;  2.7919037E-07;  5.1226341E-03;
 -1.4000000E-01;  9.9999998E-03; -1.4000000E-01;175;  0.0000000E+00;  0.0000000E+00;  0.0000000E+00;  1.0000000E+03;  4.0000001E-01;  0.0000000E+00;0;  0.0000000E+00;  0.0000000E+00;  0.0000000E+00;0; -4.2622301E-05;  1.0000000E+04;  0.0000000E+00;  0.0000000E+00;  1.0000000E+04;  0.0000000E+00;  1.0000000E+04; -4.2860960E-05;  0.0000000E+00;  2.3865883E-07;  4.8987032E-03;
 -1.4000000E-01;  9.9999998E-03; -1.2000000E-01;176;  0.0000000E+00;  0.0000000E+00;  0.0000000E+00;  1.0000000E+03;  4.0000001E-01;  0.0000000E+00;0;  0.0000000E+00;  0.0000000E+00;  0.0000000E+00;0; -4.3162545E-05;  1.0000000E+04;  0.0000000E+00;  0.0000000E+00;  1.0000000E+04;  0.0000000E+00;  1.0000000E+04; -4.3359418E-05;  0.0000000E+00;  1.9687135E-07;  4.6420796E-03;
 -1.4000000E-01;  9.9999998E-03; -1.0000000E-01;177;  0.0000000E+00;  0.0000000E+00;  0.0000000E+00;  1.0000000E+03;  4.0000001E-01;  0.0000000E+00;0;  0.0000000E+00;  0.0000000E+00;  0.0000000E+00;0; -4.3456799E-05;  1.0000000E+04;  0.0000000E+00;  0.0000000E+00;  1.0000000E+04;  0.0000000E+00;  1.0000000E+04; -4.3614720E-05;  0.0000000E+00;  1.5791986E-07;  4.3897051E-03;
 -1.4000000E-01;  9.9999998E-03; -7.9999998E-02;178;  0.0000000E+00;  0.0000000E+00;  0.0000000E+00;  1.0000000E+03;  4.0000001E-01;  0.0000000E+00;0;  0.0000000E+00;  0.0000000E+00;  0.0000000E+00;0; -4.3590797E-05;  1.0000000E+04;  0.0000000E+00;  0.0000000E+00;  1.0000000E+04;  0.0000000E+00;  1.0000000E+04; -4.3714830E-05;  0.0000000E+00;  1.2403432E-07;  4.1623660E-03;
 -1.4000000E-01;  9.9999998E-03; -5.9999999E-02;179;  0.0000000E+00;  0.0000000E+00;  0.0000000E+00;  1.0000000E+03;  4.0000001E-01;  0.0000000E+00;0;  0.0000000E+00;  0.0000000E+00;  0.0000000E+00;0; -4.3631575E-05;  1.0000000E+04;  0.0000000E+00;  0.0000000E+00;  1.0000000E+04;  0.0000000E+00;  1.0000000E+04; -4.3728065E-05;  0.0000000E+00;  9.6491789E-08;  3.9725443E-03;
 -1.4000000E-01;  9.9999998E-03; -3.9999999E-02;180;  0.0000000E+00;  0.0000000E+00;  0.0000000E+00;  1.0000000E+03;  4.0000001E-01;  0.0000000E+00;0;  0.0000000E+00;  0.0000000E+00;  0.0000000E+00;0; -4.3627977E-05;  1.0000000E+04;  0.0000000E+00;  0.0000000E+00;  1.0000000E+04;  0.0000000E+00;  1.0000000E+04; -4.3704258E-05;  0.0000000E+00;  7.6281083E-08;  3.8302653E-03;
 -1.4000000E-01;  9.9999998E-03; -2.0000000E-02;181;  0.0000000E+00;  0.0000000E+00;  0.0000000E+00;  1.0000000E+03;  4.0000001E-01;  0.0000000E+00;0;  0.0000000E+00;  0.0000000E+00;  0.0000000E+00;0; -4.3613160E-05;  1.0000000E+04;  0.0000000E+00;  0.0000000E+00;  1.0000000E+04;  0.0000000E+00;  1.0000000E+04; -4.3677115E-05;  0.0000000E+00;  6.3955071E-08;  3.7421260E-03;
 -1.2000000E-01;  9.9999998E-03; -1.8000001E-01;214;  0.0000000E+00;  0.0000000E+00;  0.0000000E+00;  1.0000002E+03;  4.0000001E-01;  1.9752525E-01;0;  0.0000000E+00;  0.0000000E+00;  0.0000000E+00;0; -2.2302203E-04;  1.0000000E+04;  0.0000000E+00;  0.0000000E+00;  1.0000000E+04;  0.0000000E+00;  1.0000000E+04; -2.2594600E-04;  0.0000000E+00;  2.9239727E-06;  3.8632620E-02;
 -1.2000000E-01;  9.9999998E-03; -1.6000000E-01;215;  0.0000000E+00;  0.0000000E+00;  0.0000000E+00;  1.0000002E+03;  4.0000001E-01;  1.9752525E-01;0;  0.0000000E+00;  0.0000000E+00;  0.0000000E+00;0; -2.3091090E-04;  1.0000000E+04;  0.0000000E+00;  0.0000000E+00;  1.0000000E+04;  0.0000000E+00;  1.0000000E+04; -2.3357215E-04;  0.0000000E+00;  2.6612506E-06;  3.7364587E-02;
 -1.2000000E-01;  9.9999998E-03; -1.4000000E-01;216;  0.0000000E+00;  0.0000000E+00;  0.0000000E+00;  1.0000002E+03;  4.0000001E-01;  1.9752525E-01;0;  0.0000000E+00;  0.0000000E+00;  0.0000000E+00;0; -2.3623856E-04;  1.0000000E+04;  0.0000000E+00;  0.0000000E+00;  1.0000000E+04;  0.0000000E+00;  1.0000000E+04; -2.3854154E-04;  0.0000000E+00;  2.3029911E-06;  3.5195455E-02;
 -1.2000000E-01;  9.9999998E-03; -1.2000000E-01;217;  0.0000000E+00;  0.0000000E+00;  0.0000000E+00;  1.0000002E+03;  4.0000001E-01;  1.9752525E-01;0;  0.0000000E+00;  0.0000000E+00;  0.0000000E+00;0; -2.3960252E-04;  1.0000000E+04;  0.0000000E+00;  0.0000000E+00;  1.0000000E+04;  0.0000000E+00;  1.0000000E+04; -2.4152097E-04;  0.0000000E+00;  1.9184586E-06;  3.2691553E-02;
 -1.2000000E-01;  9.9999998E-03; -1.0000000E-01;218;  0.0000000E+00;  0.0000000E+00;  0.0000000E+00;  1.0000002E+03;  4.0000001E-01;  1.9752525E-01;0;  0.0000000E+00;  0.0000000E+00;  0.0000000E+00;0; -2.4155081E-04;  1.0000000E+04;  0.0000000E+00;  0.0000000E+00;  1.0000000E+04;  0.0000000E+00;  1.0000000E+04; -2.4310326E-04;  0.0000000E+00;  1.5524525E-06;  3.0223785E-02;
 -1.2000000E-01;  9.9999998E-03; -7.9999998E-02;219;  0.0000000E+00;  0.0000000E+00;  0.0000000E+00;  1.0000002E+03;  4.0000001E-01;  1.9752525E-01;0;  0.0000000E+00;  0.0000000E+00;  0.0000000E+00;0; -2.4254947E-04;  1.0000000E+04;  0.0000000E+00;  0.0000000E+00;  1.0000000E+04;  0.0000000E+00;  1.0000000E+04; -2.4378058E-04;  0.0000000E+00;  1.2311037E-06;  2.8010819E-02;
 -1.2000000E-01;  9.9999998E-03; -5.9999999E-02;220;  0.0000000E+00;  0.0000000E+00;  0.0000000E+00;  1.0000002E+03;  4.0000001E-01;  1.9752525E-01;0;  0.0000000E+00;  0.0000000E+00;  0.0000000E+00;0; -2.4296893E-04;  1.0000000E+04;  0.0000000E+00;  0.0000000E+00;  1.0000000E+04;  0.0000000E+00;  1.0000000E+04; -2.4393847E-04;  0.0000000E+00;  9.6954182E-07;  2.6181230E-02;
 -1.2000000E-01;  9.9999998E-03; -3.9999999E-02;221;  0.0000000E+00;  0.0000000E+00;  0.0000000E+00;  1.0000002E+03;  4.0000001E-01;  1.9752525E-01;0;  0.0000000E+00;  0.0000000E+00;  0.0000000E+00;0; -2.4308384E-04;  1.0000000E+04;  0.0000000E+00;  0.0000000E+00;  1.0000000E+04;  0.0000000E+00;  1.0000000E+04; -2.4386084E-04;  0.0000000E+00;  7.7700543E-07;  2.4817562E-02;
 -1.2000000E-01;  9.9999998E-03; -2.0000000E-02;222;  0.0000000E+00;  0.0000000E+00;  0.0000000E+00;  1.0000002E+03;  4.0000001E-01;  1.9752525E-01;0;  0.0000000E+00;  0.0000000E+00;  0.0000000E+00;0; -2.4308100E-04;  1.0000000E+04;  0.0000000E+00;  0.0000000E+00;  1.0000000E+04;  0.0000000E+00;  1.0000000E+04; -2.4374039E-04;  0.0000000E+00;  6.5939656E-07;  2.3976760E-02;
 -1.0000000E-01;  9.9999998E-03; -1.8000001E-01;255;  0.0000000E+00;  0.0000000E+00;  0.0000000E+00;  1.0000006E+03;  4.0000001E-01;  4.9381313E-01;0;  0.0000000E+00;  0.0000000E+00;  0.0000000E+00;0; -7.1179314E-04;  1.0000000E+04;  0.0000000E+00;  0.0000000E+00;  1.0000000E+04;  0.0000000E+00;  1.0000000E+04; -7.2466669E-04;  0.0000000E+00;  1.2873568E-05;  1.5200384E-01;
 -1.0000000E-01;  9.9999998E-03; -1.6000000E-01;256;  0.0000000E+00;  0.0000000E+00;  0.0000000E+00;  1.0000006E+03;  4.0000001E-01;  4.9381313E-01;0;  0.0000000E+00;  0.0000000E+00;  0.0000000E+00;0; -7.3784392E-04;  1.0000000E+04;  0.0000000E+00;  0.0000000E+00;  1.0000000E+04;  0.0000000E+00;  1.0000000E+04; -7.4984977E-04;  0.0000000E+00;  1.2005842E-05;  1.4808320E-01;
 -1.0000000E-01;  9.9999998E-03; -1.4000000E-01;257;  0.0000000E+00;  0.0000000E+00;  0.0000000E+00;  1.0000007E+03;  4.0000001E-01;  5.9257573E-01;0;  0.0000000E+00;  0.0000000E+00;  0.0000000E+00;0; -7.5567618E-04;  1.0000000E+04;  0.0000000E+00;  0.0000000E+00;  1.0000000E+04;  0.0000000E+00;  1.0000000E+04; -7.6617394E-04;  0.0000000E+00;  1.0497769E-05;  1.3861887E-01;
 -1.0000000E-01;  9.9999998E-03; -1.2000000E-01;258;  0.0000000E+00;  0.0000000E+00;  0.0000000E+00;  1.0000007E+03;  4.0000001E-01;  5.9257573E-01;0;  0.0000000E+00;  0.0000000E+00;  0.0000000E+00;0; -7.6720631E-04;  1.0000000E+04;  0.0000000E+00;  0.0000000E+00;  1.0000000E+04;  0.0000000E+00;  1.0000000E+04; -7.7602552E-04;  0.0000000E+00;  8.8192119E-06;  1.2740162E-01;
 -1.0000000E-01;  9.9999998E-03; -1.0000000E-01;259;  0.0000000E+00;  0.0000000E+00;  0.0000000E+00;  1.0000007E+03;  4.0000001E-01;  5.9257573E-01;0;  0.0000000E+00;  0.0000000E+00;  0.0000000E+00;0; -7.7412481E-04;  1.0000000E+04;  0.0000000E+00;  0.0000000E+00;  1.0000000E+04;  0.0000000E+00;  1.0000000E+04; -7.8131561E-04;  0.0000000E+00;  7.1908207E-06;  1.1620627E-01;
 -1.0000000E-01;  9.9999998E-03; -7.9999998E-02;260;  0.0000000E+00;  0.0000000E+00;  0.0000000E+00;  1.0000007E+03;  4.0000001E-01;  5.9257573E-01;0;  0.0000000E+00;  0.0000000E+00;  0.0000000E+00;0; -7.7788823E-04;  1.0000000E+04;  0.0000000E+00;  0.0000000E+00;  1.0000000E+04;  0.0000000E+00;  1.0000000E+04; -7.8363600E-04;  0.0000000E+00;  5.7477860E-06;  1.0612440E-01;
 -1.0000000E-01;  9.9999998E-03; -5.9999999E-02;261;  0.0000000E+00;  0.0000000E+00;  0.0000000E+00;  1.0000007E+03;  4.0000001E-01;  5.9257573E-01;0;  0.0000000E+00;  0.0000000E+00;  0.0000000E+00;0; -7.7966944E-04;  1.0000000E+04;  0.0000000E+00;  0.0000000E+00;  1.0000000E+04;  0.0000000E+00;  1.0000000E+04; -7.8423781E-04;  0.0000000E+00;  4.5683923E-06;  9.7792342E-02;
 -1.0000000E-01;  9.9999998E-03; -3.9999999E-02;262;  0.0000000E+00;  0.0000000E+00;  0.0000000E+00;  1.0000007E+03;  4.0000001E-01;  5.9257573E-01;0;  0.0000000E+00;  0.0000000E+00;  0.0000000E+00;0; -7.8034721E-04;  1.0000000E+04;  0.0000000E+00;  0.0000000E+00;  1.0000000E+04;  0.0000000E+00;  1.0000000E+04; -7.8404613E-04;  0.0000000E+00;  3.6989070E-06;  9.1596842E-02;
 -1.0000000E-01;  9.9999998E-03; -2.0000000E-02;263;  0.0000000E+00;  0.0000000E+00;  0.0000000E+00;  1.0000007E+03;  4.0000001E-01;  5.9257573E-01;0;  0.0000000E+00;  0.0000000E+00;  0.0000000E+00;0; -7.8052242E-04;  1.0000000E+04;  0.0000000E+00;  0.0000000E+00;  1.0000000E+04;  0.0000000E+00;  1.0000000E+04; -7.8368955E-04;  0.0000000E+00;  3.1671618E-06;  8.7784313E-02;
 -7.9999998E-02;  9.9999998E-03; -1.8000001E-01;296;  0.0000000E+00;  0.0000000E+00;  0.0000000E+00;  1.0000016E+03;  4.0000001E-01;  1.2839141E+00;0;  0.0000000E+00;  0.0000000E+00;  0.0000000E+00;0; -1.7008799E-03;  1.0000000E+04;  0.0000000E+00;  0.0000000E+00;  1.0000000E+04;  0.0000000E+00;  1.0000000E+04; -1.7390634E-03;  0.0000000E+00;  3.8183542E-05;  4.2468089E-01;
 -7.9999998E-02;  9.9999998E-03; -1.6000000E-01;297;  0.0000000E+00;  0.0000000E+00;  0.0000000E+00;  1.0000017E+03;  4.0000001E-01;  1.3826767E+00;0;  0.0000000E+00;  0.0000000E+00;  0.0000000E+00;0; -1.7639600E-03;  1.0000000E+04;  0.0000000E+00;  0.0000000E+00;  1.0000000E+04;  0.0000000E+00;  1.0000000E+04; -1.8004227E-03;  0.0000000E+00;  3.6462687E-05;  4.1886008E-01;
 -7.9999998E-02;  9.9999998E-03; -1.4000000E-01;298;  0.0000000E+00;  0.0000000E+00;  0.0000000E+00;  1.0000017E+03;  4.0000001E-01;  1.3826767E+00;0;  0.0000000E+00;  0.0000000E+00;  0.0000000E+00;0; -1.8075014E-03;  1.0000000E+04;  0.0000000E+00;  0.0000000E+00;  1.0000000E+04;  0.0000000E+00;  1.0000000E+04; -1.8396960E-03;  0.0000000E+00;  3.2194534E-05;  3.9160454E-01;
 -7.9999998E-02;  9.9999998E-03; -1.2000000E-01;299;  0.0000000E+00;  0.0000000E+00;  0.0000000E+00;  1.0000018E+03;  4.0000001E-01;  1.4814394E+00;0;  0.0000000E+00;  0.0000000E+00;  0.0000000E+00;0; -1.8360480E-03;  1.0000000E+04;  0.0000000E+00;  0.0000000E+00;  1.0000000E+04;  0.0000000E+00;  1.0000000E+04; -1.8632871E-03;  0.0000000E+00;  2.7239053E-05;  3.5793847E-01;
 -7.9999998E-02;  9.9999998E-03; -1.0000000E-01;300;  0.0000000E+00;  0.0000000E+00;  0.0000000E+00;  1.0000018E+03;  4.0000001E-01;  1.4814394E+00;0;  0.0000000E+00;  0.0000000E+00;  0.0000000E+00;0; -1.8535242E-03;  1.0000000E+04;  0.0000000E+00;  0.0000000E+00;  1.0000000E+04;  0.0000000E+00;  1.0000000E+04; -1.8758739E-03;  0.0000000E+00;  2.2349635E-05;  3.2386661E-01;
 -7.9999998E-02;  9.9999998E-03; -7.9999998E-02;301;  0.0000000E+00;  0.0000000E+00;  0.0000000E+00;  1.0000018E+03;  4.0000001E-01;  1.4814394E+00;0;  0.0000000E+00;  0.0000000E+00;  0.0000000E+00;0; -1.8633355E-03;  1.0000000E+04;  0.0000000E+00;  0.0000000E+00;  1.0000000E+04;  0.0000000E+00;  1.0000000E+04; -1.8813130E-03;  0.0000000E+00;  1.7977545E-05;  2.9298216E-01;
 -7.9999998E-02;  9.9999998E-03; -5.9999999E-02;302;  0.0000000E+00;  0.0000000E+00;  0.0000000E+00;  1.0000018E+03;  4.0000001E-01;  1.4814394E+00;0;  0.0000000E+00;  0.0000000E+00;  0.0000000E+00;0; -1.8682431E-03;  1.0000000E+04;  0.0000000E+00;  0.0000000E+00;  1.0000000E+04;  0.0000000E+00;  1.0000000E+04; -1.8826321E-03;  0.0000000E+00;  1.4389028E-05;  2.6740867E-01;
 -7.9999998E-02;  9.9999998E-03; -3.9999999E-02;303;  0.0000000E+00;  0.0000000E+00;  0.0000000E+00;  1.0000019E+03;  4.0000001E-01;  1.5802020E+00;0;  0.0000000E+00;  0.0000000E+00;  0.0000000E+00;0; -1.8703311E-03;  1.0000000E+04;  0.0000000E+00;  0.0000000E+00;  1.0000000E+04;  0.0000000E+00;  1.0000000E+04; -1.8820696E-03;  0.0000000E+00;  1.1738516E-05;  2.4839738E-01;
 -7.9999998E-02;  9.9999998E-03; -2.0000000E-02;304;  0.0000000E+00;  0.0000000E+00;  0.0000000E+00;  1.0000019E+03;  4.0000001E-01;  1.5802020E+00;0;  0.0000000E+00;  0.0000000E+00;  0.0000000E+00;0; -1.8710305E-03;  1.0000000E+04;  0.0000000E+00;  0.0000000E+00;  1.0000000E+04;  0.0000000E+00;  1.0000000E+04; -1.8811467E-03;  0.0000000E+00;  1.0116139E-05;  2.3670703E-01;
 -5.9999999E-02;  9.9999998E-03; -1.8000001E-01;337;  0.0000000E+00;  0.0000000E+00;  0.0000000E+00;  1.0000032E+03;  4.0000001E-01;  2.6665909E+00;0;  0.0000000E+00;  0.0000000E+00;  0.0000000E+00;0; -3.3246023E-03;  1.0000000E+04;  0.0000000E+00;  0.0000000E+00;  1.0000000E+04;  0.0000000E+00;  1.0000000E+04; -3.4135154E-03;  0.0000000E+00;  8.8913192E-05;  9.5143402E-01;
 -5.9999999E-02;  9.9999998E-03; -1.6000000E-01;338;  0.0000000E+00;  0.0000000E+00;  0.0000000E+00;  1.0000034E+03;  4.0000001E-01;  2.8641162E+00;0;  0.0000000E+00;  0.0000000E+00;  0.0000000E+00;0; -3.4467729E-03;  1.0000000E+04;  0.0000000E+00;  0.0000000E+00;  1.0000000E+04;  0.0000000E+00;  1.0000000E+04; -3.5325761E-03;  0.0000000E+00;  8.5803164E-05;  9.4317901E-01;
 -5.9999999E-02;  9.9999998E-03; -1.4000000E-01;339;  0.0000000E+00;  0.0000000E+00;  0.0000000E+00;  1.0000035E+03;  4.0000001E-01;  2.8641162E+00;0;  0.0000000E+00;  0.0000000E+00;  0.0000000E+00;0; -3.5318197E-03;  1.0000000E+04;  0.0000000E+00;  0.0000000E+00;  1.0000000E+04;  0.0000000E+00;  1.0000000E+04; -3.6083045E-03;  0.0000000E+00;  7.6484845E-05;  8.8308626E-01;
 -5.9999999E-02;  9.9999998E-03; -1.2000000E-01;340;  0.0000000E+00;  0.0000000E+00;  0.0000000E+00;  1.0000036E+03;  4.0000001E-01;  2.9628787E+00;0;  0.0000000E+00;  0.0000000E+00;  0.0000000E+00;0; -3.5879931E-03;  1.0000000E+04;  0.0000000E+00;  0.0000000E+00;  1.0000000E+04;  0.0000000E+00;  1.0000000E+04; -3.6530697E-03;  0.0000000E+00;  6.5076587E-05;  8.0446327E-01;
 -5.9999999E-02;  9.9999998E-03; -1.0000000E-01;341;  0.0000000E+00;  0.0000000E+00;  0.0000000E+00;  1.0000036E+03;  4.0000001E-01;  2.9628787E+00;0;  0.0000000E+00;  0.0000000E+00;  0.0000000E+00;0; -3.6227289E-03;  1.0000000E+04;  0.0000000E+00;  0.0000000E+00;  1.0000000E+04;  0.0000000E+00;  1.0000000E+04; -3.6763907E-03;  0.0000000E+00;  5.3661868E-05;  7.2394049E-01;
 -5.9999999E-02;  9.9999998E-03; -7.9999998E-02;342;  0.0000000E+00;  0.0000000E+00;  0.0000000E+00;  1.0000036E+03;  4.0000001E-01;  2.9628787E+00;0;  0.0000000E+00;  0.0000000E+00;  0.0000000E+00;0; -3.6425306E-03;  1.0000000E+04;  0.0000000E+00;  0.0000000E+00;  1.0000000E+04;  0.0000000E+00;  1.0000000E+04; -3.6859054E-03;  0.0000000E+00;  4.3374777E-05;  6.5049958E-01;
 -5.9999999E-02;  9.9999998E-03; -5.9999999E-02;343;  0.0000000E+00;  0.0000000E+00;  0.0000000E+00;  1.0000036E+03;  4.0000001E-01;  2.9628787E+00;0;  0.0000000E+00;  0.0000000E+00;  0.0000000E+00;0; -3.6526853E-03;  1.0000000E+04;  0.0000000E+00;  0.0000000E+00;  1.0000000E+04;  0.0000000E+00;  1.0000000E+04; -3.6875829E-03;  0.0000000E+00;  3.4897635E-05;  5.8953595E-01;
 -5.9999999E-02;  9.9999998E-03; -3.9999999E-02;344;  0.0000000E+00;  0.0000000E+00;  0.0000000E+00;  1.0000036E+03;  4.0000001E-01;  2.9628787E+00;0;  0.0000000E+00;  0.0000000E+00;  0.0000000E+00;0; -3.6572039E-03;  1.0000000E+04;  0.0000000E+00;  0.0000000E+00;  1.0000000E+04;  0.0000000E+00;  1.0000000E+04; -3.6858285E-03;  0.0000000E+00;  2.8624732E-05;  5.4419124E-01;
 -5.9999999E-02;  9.9999998E-03; -2.0000000E-02;345;  0.0000000E+00;  0.0000000E+00;  0.0000000E+00;  1.0000036E+03;  4.0000001E-01;  2.9628787E+00;0;  0.0000000E+00;  0.0000000E+00;  0.0000000E+00;0; -3.6588486E-03;  1.0000000E+04;  0.0000000E+00;  0.0000000E+00;  1.0000000E+04;  0.0000000E+00;  1.0000000E+04; -3.6836306E-03;  0.0000000E+00;  2.4781986E-05;  5.1631290E-01;
 -3.9999999E-02;  9.9999998E-03; -1.8000001E-01;378;  0.0000000E+00;  0.0000000E+00;  0.0000000E+00;  1.0000054E+03;  4.0000001E-01;  4.5430808E+00;0;  0.0000000E+00;  0.0000000E+00;  0.0000000E+00;0; -5.5544260E-03;  1.0000000E+04;  0.0000000E+00;  0.0000000E+00;  1.0000000E+04;  0.0000000E+00;  1.0000000E+04; -5.7284362E-03;  0.0000000E+00;  1.7401036E-04;  1.8121171E+00;
 -3.9999999E-02;  9.9999998E-03; -1.6000000E-01;379;  0.0000000E+00;  0.0000000E+00;  0.0000000E+00;  1.0000057E+03;  4.0000001E-01;  4.7406058E+00;0;  0.0000000E+00;  0.0000000E+00;  0.0000000E+00;0; -5.7529528E-03;  1.0000000E+04;  0.0000000E+00;  0.0000000E+00;  1.0000000E+04;  0.0000000E+00;  1.0000000E+04; -5.9214463E-03;  0.0000000E+00;  1.6849370E-04;  1.7972901E+00;
 -3.9999999E-02;  9.9999998E-03; -1.4000000E-01;380;  0.0000000E+00;  0.0000000E+00;  0.0000000E+00;  1.0000059E+03;  4.0000001E-01;  4.8393683E+00;0;  0.0000000E+00;  0.0000000E+00;  0.0000000E+00;0; -5.8919131E-03;  1.0000000E+04;  0.0000000E+00;  0.0000000E+00;  1.0000000E+04;  0.0000000E+00;  1.0000000E+04; -6.0429578E-03;  0.0000000E+00;  1.5104449E-04;  1.6829479E+00;
 -3.9999999E-02;  9.9999998E-03; -1.2000000E-01;381;  0.0000000E+00;  0.0000000E+00;  0.0000000E+00;  1.0000060E+03;  4.0000001E-01;  4.9381313E+00;0;  0.0000000E+00;  0.0000000E+00;  0.0000000E+00;0; -5.9839729E-03;  1.0000000E+04;  0.0000000E+00;  0.0000000E+00;  1.0000000E+04;  0.0000000E+00;  1.0000000E+04; -6.1130086E-03;  0.0000000E+00;  1.2903547E-04;  1.5289674E+00;
 -3.9999999E-02;  9.9999998E-03; -1.0000000E-01;382;  0.0000000E+00;  0.0000000E+00;  0.0000000E+00;  1.0000061E+03;  4.0000001E-01;  5.0368938E+00;0;  0.0000000E+00;  0.0000000E+00;  0.0000000E+00;0; -6.0410309E-03;  1.0000000E+04;  0.0000000E+00;  0.0000000E+00;  1.0000000E+04;  0.0000000E+00;  1.0000000E+04; -6.1478149E-03;  0.0000000E+00;  1.0678390E-04;  1.3699360E+00;
 -3.9999999E-02;  9.9999998E-03; -7.9999998E-02;383;  0.0000000E+00;  0.0000000E+00;  0.0000000E+00;  1.0000062E+03;  4.0000001E-01;  5.1356564E+00;0;  0.0000000E+00;  0.0000000E+00;  0.0000000E+00;0; -6.0736733E-03;  1.0000000E+04;  0.0000000E+00;  0.0000000E+00;  1.0000000E+04;  0.0000000E+00;  1.0000000E+04; -6.1602830E-03;  0.0000000E+00;  8.6609747E-05;  1.2242311E+00;
 -3.9999999E-02;  9.9999998E-03; -5.9999999E-02;384;  0.0000000E+00;  0.0000000E+00;  0.0000000E+00;  1.0000062E+03;  4.0000001E-01;  5.1356564E+00;0;  0.0000000E+00;  0.0000000E+00;  0.0000000E+00;0; -6.0905078E-03;  1.0000000E+04;  0.0000000E+00;  0.0000000E+00;  1.0000000E+04;  0.0000000E+00;  1.0000000E+04; -6.1604390E-03;  0.0000000E+00;  6.9931331E-05;  1.1030316E+00;
 -3.9999999E-02;  9.9999998E-03; -3.9999999E-02;385;  0.0000000E+00;  0.0000000E+00;  0.0000000E+00;  1.0000062E+03;  4.0000001E-01;  5.1356564E+00;0;  0.0000000E+00;  0.0000000E+00;  0.0000000E+00;0; -6.0980716E-03;  1.0000000E+04;  0.0000000E+00;  0.0000000E+00;  1.0000000E+04;  0.0000000E+00;  1.0000000E+04; -6.1556422E-03;  0.0000000E+00;  5.7570454E-05;  1.0128293E+00;
 -3.9999999E-02;  9.9999998E-03; -2.0000000E-02;386;  0.0000000E+00;  0.0000000E+00;  0.0000000E+00;  1.0000062E+03;  4.0000001E-01;  5.1356564E+00;0;  0.0000000E+00;  0.0000000E+00;  0.0000000E+00;0; -6.1008683E-03;  1.0000000E+04;  0.0000000E+00;  0.0000000E+00;  1.0000000E+04;  0.0000000E+00;  1.0000000E+04; -6.1508617E-03;  0.0000000E+00;  4.9993436E-05;  9.5737487E-01;
 -2.0000000E-02;  9.9999998E-03; -1.8000001E-01;419;  0.0000000E+00;  0.0000000E+00;  0.0000000E+00;  1.0000082E+03;  4.0000001E-01;  6.8146210E+00;0;  0.0000000E+00;  0.0000000E+00;  0.0000000E+00;0; -8.1503028E-03;  1.0000000E+04;  0.0000000E+00;  0.0000000E+00;  1.0000000E+04;  0.0000000E+00;  1.0000000E+04; -8.4467949E-03;  0.0000000E+00;  2.9649239E-04;  3.0312479E+00;
 -2.0000000E-02;  9.9999998E-03; -1.6000000E-01;420;  0.0000000E+00;  0.0000000E+00;  0.0000000E+00;  1.0000084E+03;  4.0000001E-01;  7.0121465E+00;0;  0.0000000E+00;  0.0000000E+00;  0.0000000E+00;0; -8.4284972E-03;  1.0000000E+04;  0.0000000E+00;  0.0000000E+00;  1.0000000E+04;  0.0000000E+00;  1.0000000E+04; -8.7154908E-03;  0.0000000E+00;  2.8699310E-04;  3.0002105E+00;
 -2.0000000E-02;  9.9999998E-03; -1.4000000E-01;421;  0.0000000E+00;  0.0000000E+00;  0.0000000E+00;  1.0000085E+03;  4.0000001E-01;  7.1109090E+00;0;  0.0000000E+00;  0.0000000E+00;  0.0000000E+00;0; -8.6234491E-03;  1.0000000E+04;  0.0000000E+00;  0.0000000E+00;  1.0000000E+04;  0.0000000E+00;  1.0000000E+04; -8.8812532E-03;  0.0000000E+00;  2.5780371E-04;  2.8043611E+00;
 -2.0000000E-02;  9.9999998E-03; -1.2000000E-01;422;  0.0000000E+00;  0.0000000E+00;  0.0000000E+00;  1.0000087E+03;  4.0000001E-01;  7.2096715E+00;0;  0.0000000E+00;  0.0000000E+00;  0.0000000E+00;0; -8.7522455E-03;  1.0000000E+04;  0.0000000E+00;  0.0000000E+00;  1.0000000E+04;  0.0000000E+00;  1.0000000E+04; -8.9730686E-03;  0.0000000E+00;  2.2082296E-04;  2.5411532E+00;
 -2.0000000E-02;  9.9999998E-03; -1.0000000E-01;423;  0.0000000E+00;  0.0000000E+00;  0.0000000E+00;  1.0000089E+03;  4.0000001E-01;  7.3084340E+00;0;  0.0000000E+00;  0.0000000E+00;  0.0000000E+00;0; -8.8316444E-03;  1.0000000E+04;  0.0000000E+00;  0.0000000E+00;  1.0000000E+04;  0.0000000E+00;  1.0000000E+04; -9.0148114E-03;  0.0000000E+00;  1.8316686E-04;  2.2679327E+00;
 -2.0000000E-02;  9.9999998E-03; -7.9999998E-02;424;  0.0000000E+00;  0.0000000E+00;  0.0000000E+00;  1.0000090E+03;  4.0000001E-01;  7.4071970E+00;0;  0.0000000E+00;  0.0000000E+00;  0.0000000E+00;0; -8.8767055E-03;  1.0000000E+04;  0.0000000E+00;  0.0000000E+00;  1.0000000E+04;  0.0000000E+00;  1.0000000E+04; -9.0255924E-03;  0.0000000E+00;  1.4888693E-04;  2.0169368E+00;
 -2.0000000E-02;  9.9999998E-03; -5.9999999E-02;425;  0.0000000E+00;  0.0000000E+00;  0.0000000E+00;  1.0000090E+03;  4.0000001E-01;  7.4071970E+00;0;  0.0000000E+00;  0.0000000E+00;  0.0000000E+00;0; -8.8996384E-03;  1.0000000E+04;  0.0000000E+00;  0.0000000E+00;  1.0000000E+04;  0.0000000E+00;  1.0000000E+04; -9.0201190E-03;  0.0000000E+00;  1.2048087E-04;  1.8078829E+00;
 -2.0000000E-02;  9.9999998E-03; -3.9999999E-02;426;  0.0000000E+00;  0.0000000E+00;  0.0000000E+00;  1.0000090E+03;  4.0000001E-01;  7.4071970E+00;0;  0.0000000E+00;  0.0000000E+00;  0.0000000E+00;0; -8.9097042E-03;  1.0000000E+04;  0.0000000E+00;  0.0000000E+00;  1.0000000E+04;  0.0000000E+00;  1.0000000E+04; -9.0091089E-03;  0.0000000E+00;  9.9404555E-05;  1.6522386E+00;
 -2.0000000E-02;  9.9999998E-03; -2.0000000E-02;427;  0.0000000E+00;  0.0000000E+00;  0.0000000E+00;  1.0000090E+03;  4.0000001E-01;  7.5059595E+00;0;  0.0000000E+00;  0.0000000E+00;  0.0000000E+00;0; -8.9132776E-03;  1.0000000E+04;  0.0000000E+00;  0.0000000E+00;  1.0000000E+04;  0.0000000E+00;  1.0000000E+04; -8.9997575E-03;  0.0000000E+00;  8.6479544E-05;  1.5565633E+00;
 -2.2000000E-01;  9.9999998E-03;  0.0000000E+00;19;  0.0000000E+00;  0.0000000E+00;  0.0000000E+00;  1.0000000E+03;  4.0000001E-01;  0.0000000E+00;0;  0.0000000E+00;  0.0000000E+00;  0.0000000E+00;0;  0.0000000E+00;  1.0000000E+04;  0.0000000E+00;  0.0000000E+00;  1.0000000E+04;  0.0000000E+00;  1.0000000E+04;  0.0000000E+00;  0.0000000E+00;  0.0000000E+00;  0.0000000E+00;
 -2.2000000E-01;  9.9999998E-03;  2.0000000E-02;20;  0.0000000E+00;  0.0000000E+00;  0.0000000E+00;  1.0000000E+03;  4.0000001E-01;  0.0000000E+00;0;  0.0000000E+00;  0.0000000E+00;  0.0000000E+00;0;  0.0000000E+00;  1.0000000E+04;  0.0000000E+00;  0.0000000E+00;  1.0000000E+04;  0.0000000E+00;  1.0000000E+04;  0.0000000E+00;  0.0000000E+00;  0.0000000E+00;  0.0000000E+00;
 -2.2000000E-01;  9.9999998E-03;  3.9999999E-02;21;  0.0000000E+00;  0.0000000E+00;  0.0000000E+00;  1.0000000E+03;  4.0000001E-01;  0.0000000E+00;0;  0.0000000E+00;  0.0000000E+00;  0.0000000E+00;0;  0.0000000E+00;  1.0000000E+04;  0.0000000E+00;  0.0000000E+00;  1.0000000E+04;  0.0000000E+00;  1.0000000E+04;  0.0000000E+00;  0.0000000E+00;  0.0000000E+00;  0.0000000E+00;
 -2.2000000E-01;  9.9999998E-03;  5.9999999E-02;22;  0.0000000E+00;  0.0000000E+00;  0.0000000E+00;  1.0000000E+03;  4.0000001E-01;  0.0000000E+00;0;  0.0000000E+00;  0.0000000E+00;  0.0000000E+00;0;  0.0000000E+00;  1.0000000E+04;  0.0000000E+00;  0.0000000E+00;  1.0000000E+04;  0.0000000E+00;  1.0000000E+04;  0.0000000E+00;  0.0000000E+00;  0.0000000E+00;  0.0000000E+00;
 -2.2000000E-01;  9.9999998E-03;  7.9999998E-02;23;  0.0000000E+00;  0.0000000E+00;  0.0000000E+00;  1.0000000E+03;  4.0000001E-01;  0.0000000E+00;0;  0.0000000E+00;  0.0000000E+00;  0.0000000E+00;0;  0.0000000E+00;  1.0000000E+04;  0.0000000E+00;  0.0000000E+00;  1.0000000E+04;  0.0000000E+00;  1.0000000E+04;  0.0000000E+00;  0.0000000E+00;  0.0000000E+00;  0.0000000E+00;
 -2.2000000E-01;  9.9999998E-03;  1.0000000E-01;24;  0.0000000E+00;  0.0000000E+00;  0.0000000E+00;  1.0000000E+03;  4.0000001E-01;  0.0000000E+00;0;  0.0000000E+00;  0.0000000E+00;  0.0000000E+00;0;  0.0000000E+00;  1.0000000E+04;  0.0000000E+00;  0.0000000E+00;  1.0000000E+04;  0.0000000E+00;  1.0000000E+04;  0.0000000E+00;  0.0000000E+00;  0.0000000E+00;  0.0000000E+00;
 -2.2000000E-01;  9.9999998E-03;  1.2000000E-01;25;  0.0000000E+00;  0.0000000E+00;  0.0000000E+00;  1.0000000E+03;  4.0000001E-01;  0.0000000E+00;0;  0.0000000E+00;  0.0000000E+00;  0.0000000E+00;0;  0.0000000E+00;  1.0000000E+04;  0.0000000E+00;  0.0000000E+00;  1.0000000E+04;  0.0000000E+00;  1.0000000E+04;  0.0000000E+00;  0.0000000E+00;  0.0000000E+00;  0.0000000E+00;
 -2.2000000E-01;  9.9999998E-03;  1.4000000E-01;26;  0.0000000E+00;  0.0000000E+00;  0.0000000E+00;  1.0000000E+03;  4.0000001E-01;  0.0000000E+00;0;  0.0000000E+00;  0.0000000E+00;  0.0000000E+00;0;  0.0000000E+00;  1.0000000E+04;  0.0000000E+00;  0.0000000E+00;  1.0000000E+04;  0.0000000E+00;  1.0000000E+04;  0.0000000E+00;  0.0000000E+00;  0.0000000E+00;  0.0000000E+00;
 -2.0000000E-01;  9.9999998E-03;  0.0000000E+00;59;  0.0000000E+00;  0.0000000E+00;  0.0000000E+00;  1.0000000E+03;  4.0000001E-01;  0.0000000E+00;0;  0.0000000E+00;  0.0000000E+00;  0.0000000E+00;0;  0.0000000E+00;  1.0000000E+04;  0.0000000E+00;  0.0000000E+00;  1.0000000E+04;  0.0000000E+00;  1.0000000E+04;  0.0000000E+00;  0.0000000E+00;  0.0000000E+00;  0.0000000E+00;
 -2.0000000E-01;  9.9999998E-03;  2.0000000E-02;60;  0.0000000E+00;  0.0000000E+00;  0.0000000E+00;  1.0000000E+03;  4.0000001E-01;  0.0000000E+00;0;  0.0000000E+00;  0.0000000E+00;  0.0000000E+00;0;  0.0000000E+00;  1.0000000E+04;  0.0000000E+00;  0.0000000E+00;  1.0000000E+04;  0.0000000E+00;  1.0000000E+04;  0.0000000E+00;  0.0000000E+00;  0.0000000E+00;  0.0000000E+00;
 -2.0000000E-01;  9.9999998E-03;  3.9999999E-02;61;  0.0000000E+00;  0.0000000E+00;  0.0000000E+00;  1.0000000E+03;  4.0000001E-01;  0.0000000E+00;0;  0.0000000E+00;  0.0000000E+00;  0.0000000E+00;0;  0.0000000E+00;  1.0000000E+04;  0.0000000E+00;  0.0000000E+00;  1.0000000E+04;  0.0000000E+00;  1.0000000E+04;  0.0000000E+00;  0.0000000E+00;  0.0000000E+00;  0.0000000E+00;
 -2.0000000E-01;  9.9999998E-03;  5.9999999E-02;62;  0.0000000E+00;  0.0000000E+00;  0.0000000E+00;  1.0000000E+03;  4.0000001E-01;  0.0000000E+00;0;  0.0000000E+00;  0.0000000E+00;  0.0000000E+00;0;  0.0000000E+00;  1.0000000E+04;  0.0000000E+00;  0.0000000E+00;  1.0000000E+04;  0.0000000E+00;  1.0000000E+04;  0.0000000E+00;  0.0000000E+00;  0.0000000E+00;  0.0000000E+00;
 -2.0000000E-01;  9.9999998E-03;  7.9999998E-02;63;  0.0000000E+00;  0.0000000E+00;  0.0000000E+00;  1.0000000E+03;  4.0000001E-01;  0.0000000E+00;0;  0.0000000E+00;  0.0000000E+00;  0.0000000E+00;0;  0.0000000E+00;  1.0000000E+04;  0.0000000E+00;  0.0000000E+00;  1.0000000E+04;  0.0000000E+00;  1.0000000E+04;  0.0000000E+00;  0.0000000E+00;  0.0000000E+00;  0.0000000E+00;
 -2.0000000E-01;  9.9999998E-03;  1.0000000E-01;64;  0.0000000E+00;  0.0000000E+00;  0.0000000E+00;  1.0000000E+03;  4.0000001E-01;  0.0000000E+00;0;  0.0000000E+00;  0.0000000E+00;  0.0000000E+00;0;  0.0000000E+00;  1.0000000E+04;  0.0000000E+00;  0.0000000E+00;  1.0000000E+04;  0.0000000E+00;  1.0000000E+04;  0.0000000E+00;  0.0000000E+00;  0.0000000E+00;  0.0000000E+00;
 -2.0000000E-01;  9.9999998E-03;  1.2000000E-01;65;  0.0000000E+00;  0.0000000E+00;  0.0000000E+00;  1.0000000E+03;  4.0000001E-01;  0.0000000E+00;0;  0.0000000E+00;  0.0000000E+00;  0.0000000E+00;0;  0.0000000E+00;  1.0000000E+04;  0.0000000E+00;  0.0000000E+00;  1.0000000E+04;  0.0000000E+00;  1.0000000E+04;  0.0000000E+00;  0.0000000E+00;  0.0000000E+00;  0.0000000E+00;
 -2.0000000E-01;  9.9999998E-03;  1.4000000E-01;66;  0.0000000E+00;  0.0000000E+00;  0.0000000E+00;  1.0000000E+03;  4.0000001E-01;  0.0000000E+00;0;  0.0000000E+00;  0.0000000E+00;  0.0000000E+00;0;  0.0000000E+00;  1.0000000E+04;  0.0000000E+00;  0.0000000E+00;  1.0000000E+04;  0.0000000E+00;  1.0000000E+04;  0.0000000E+00;  0.0000000E+00;  0.0000000E+00;  0.0000000E+00;
 -1.8000001E-01;  9.9999998E-03;  0.0000000E+00;100;  0.0000000E+00;  0.0000000E+00;  0.0000000E+00;  1.0000000E+03;  4.0000001E-01;  0.0000000E+00;0;  0.0000000E+00;  0.0000000E+00;  0.0000000E+00;0;  0.0000000E+00;  1.0000000E+04;  0.0000000E+00;  0.0000000E+00;  1.0000000E+04;  0.0000000E+00;  1.0000000E+04;  0.0000000E+00;  0.0000000E+00;  0.0000000E+00;  0.0000000E+00;
 -1.8000001E-01;  9.9999998E-03;  2.0000000E-02;101;  0.0000000E+00;  0.0000000E+00;  0.0000000E+00;  1.0000000E+03;  4.0000001E-01;  0.0000000E+00;0;  0.0000000E+00;  0.0000000E+00;  0.0000000E+00;0;  0.0000000E+00;  1.0000000E+04;  0.0000000E+00;  0.0000000E+00;  1.0000000E+04;  0.0000000E+00;  1.0000000E+04;  0.0000000E+00;  0.0000000E+00;  0.0000000E+00;  0.0000000E+00;
 -1.8000001E-01;  9.9999998E-03;  3.9999999E-02;102;  0.0000000E+00;  0.0000000E+00;  0.0000000E+00;  1.0000000E+03;  4.0000001E-01;  0.0000000E+00;0;  0.0000000E+00;  0.0000000E+00;  0.0000000E+00;0;  0.0000000E+00;  1.0000000E+04;  0.0000000E+00;  0.0000000E+00;  1.0000000E+04;  0.0000000E+00;  1.0000000E+04;  0.0000000E+00;  0.0000000E+00;  0.0000000E+00;  0.0000000E+00;
 -1.8000001E-01;  9.9999998E-03;  5.9999999E-02;103;  0.0000000E+00;  0.0000000E+00;  0.0000000E+00;  1.0000000E+03;  4.0000001E-01;  0.0000000E+00;0;  0.0000000E+00;  0.0000000E+00;  0.0000000E+00;0;  0.0000000E+00;  1.0000000E+04;  0.0000000E+00;  0.0000000E+00;  1.0000000E+04;  0.0000000E+00;  1.0000000E+04;  0.0000000E+00;  0.0000000E+00;  0.0000000E+00;  0.0000000E+00;
 -1.8000001E-01;  9.9999998E-03;  7.9999998E-02;104;  0.0000000E+00;  0.0000000E+00;  0.0000000E+00;  1.0000000E+03;  4.0000001E-01;  0.0000000E+00;0;  0.0000000E+00;  0.0000000E+00;  0.0000000E+00;0;  0.0000000E+00;  1.0000000E+04;  0.0000000E+00;  0.0000000E+00;  1.0000000E+04;  0.0000000E+00;  1.0000000E+04;  0.0000000E+00;  0.0000000E+00;  0.0000000E+00;  0.0000000E+00;
 -1.8000001E-01;  9.9999998E-03;  1.0000000E-01;105;  0.0000000E+00;  0.0000000E+00;  0.0000000E+00;  1.0000000E+03;  4.0000001E-01;  0.0000000E+00;0;  0.0000000E+00;  0.0000000E+00;  0.0000000E+00;0;  0.0000000E+00;  1.0000000E+04;  0.0000000E+00;  0.0000000E+00;  1.0000000E+04;  0.0000000E+00;  1.0000000E+04;  0.0000000E+00;  0.0000000E+00;  0.0000000E+00;  0.0000000E+00;
 -1.8000001E-01;  9.9999998E-03;  1.2000000E-01;106;  0.0000000E+00;  0.0000000E+00;  0.0000000E+00;  1.0000000E+03;  4.0000001E-01;  0.0000000E+00;0;  0.0000000E+00;  0.0000000E+00;  0.0000000E+00;0;  0.0000000E+00;  1.0000000E+04;  0.0000000E+00;  0.0000000E+00;  1.0000000E+04;  0.0000000E+00;  1.0000000E+04;  0.0000000E+00;  0.0000000E+00;  0.0000000E+00;  0.0000000E+00;
 -1.8000001E-01;  9.9999998E-03;  1.4000000E-01;107;  0.0000000E+00;  0.0000000E+00;  0.0000000E+00;  1.0000000E+03;  4.0000001E-01;  0.0000000E+00;0;  0.0000000E+00;  0.0000000E+00;  0.0000000E+00;0;  0.0000000E+00;  1.0000000E+04;  0.0000000E+00;  0.0000000E+00;  1.0000000E+04;  0.0000000E+00;  1.0000000E+04;  0.0000000E+00;  0.0000000E+00;  0.0000000E+00;  0.0000000E+00;
 -1.6000000E-01;  9.9999998E-03;  0.0000000E+00;141;  0.0000000E+00;  0.0000000E+00;  0.0000000E+00;  1.0000000E+03;  4.0000001E-01;  0.0000000E+00;0;  0.0000000E+00;  0.0000000E+00;  0.0000000E+00;0; -1.1822677E-06;  1.0000000E+04;  0.0000000E+00;  0.0000000E+00;  1.0000000E+04;  0.0000000E+00;  1.0000000E+04; -1.1826995E-06;  0.0000000E+00;  4.3176376E-10;  8.8039684E-05;
 -1.6000000E-01;  9.9999998E-03;  2.0000000E-02;142;  0.0000000E+00;  0.0000000E+00;  0.0000000E+00;  1.0000000E+03;  4.0000001E-01;  0.0000000E+00;0;  0.0000000E+00;  0.0000000E+00;  0.0000000E+00;0; -1.1826536E-06;  1.0000000E+04;  0.0000000E+00;  0.0000000E+00;  1.0000000E+04;  0.0000000E+00;  1.0000000E+04; -1.1831186E-06;  0.0000000E+00;  4.6502030E-10;  8.8283792E-05;
 -1.6000000E-01;  9.9999998E-03;  3.9999999E-02;143;  0.0000000E+00;  0.0000000E+00;  0.0000000E+00;  1.0000000E+03;  4.0000001E-01;  0.0000000E+00;0;  0.0000000E+00;  0.0000000E+00;  0.0000000E+00;0; -1.1836501E-06;  1.0000000E+04;  0.0000000E+00;  0.0000000E+00;  1.0000000E+04;  0.0000000E+00;  1.0000000E+04; -1.1842139E-06;  0.0000000E+00;  5.6386096E-10;  8.9000081E-05;
 -1.6000000E-01;  9.9999998E-03;  5.9999999E-02;144;  0.0000000E+00;  0.0000000E+00;  0.0000000E+00;  1.0000000E+03;  4.0000001E-01;  0.0000000E+00;0;  0.0000000E+00;  0.0000000E+00;  0.0000000E+00;0; -1.1847612E-06;  1.0000000E+04;  0.0000000E+00;  0.0000000E+00;  1.0000000E+04;  0.0000000E+00;  1.0000000E+04; -1.1854886E-06;  0.0000000E+00;  7.2738460E-10;  9.0141839E-05;
 -1.6000000E-01;  9.9999998E-03;  7.9999998E-02;145;  0.0000000E+00;  0.0000000E+00;  0.0000000E+00;  1.0000000E+03;  4.0000001E-01;  0.0000000E+00;0;  0.0000000E+00;  0.0000000E+00;  0.0000000E+00;0; -1.1851254E-06;  1.0000000E+04;  0.0000000E+00;  0.0000000E+00;  1.0000000E+04;  0.0000000E+00;  1.0000000E+04; -1.1860747E-06;  0.0000000E+00;  9.4933128E-10;  9.1593691E-05;
 -1.6000000E-01;  9.9999998E-03;  1.0000000E-01;146;  0.0000000E+00;  0.0000000E+00;  0.0000000E+00;  1.0000000E+03;  4.0000001E-01;  0.0000000E+00;0;  0.0000000E+00;  0.0000000E+00;  0.0000000E+00;0; -1.1834424E-06;  1.0000000E+04;  0.0000000E+00;  0.0000000E+00;  1.0000000E+04;  0.0000000E+00;  1.0000000E+04; -1.1846673E-06;  0.0000000E+00;  1.2250261E-09;  9.3249939E-05;
 -1.6000000E-01;  9.9999998E-03;  1.2000000E-01;147;  0.0000000E+00;  0.0000000E+00;  0.0000000E+00;  1.0000000E+03;  4.0000001E-01;  0.0000000E+00;0;  0.0000000E+00;  0.0000000E+00;  0.0000000E+00;0; -1.1779161E-06;  1.0000000E+04;  0.0000000E+00;  0.0000000E+00;  1.0000000E+04;  0.0000000E+00;  1.0000000E+04; -1.1794601E-06;  0.0000000E+00;  1.5439372E-09;  9.4934527E-05;
 -1.6000000E-01;  9.9999998E-03;  1.4000000E-01;148;  0.0000000E+00;  0.0000000E+00;  0.0000000E+00;  1.0000000E+03;  4.0000001E-01;  0.0000000E+00;0;  0.0000000E+00;  0.0000000E+00;  0.0000000E+00;0; -1.1662016E-06;  1.0000000E+04;  0.0000000E+00;  0.0000000E+00;  1.0000000E+04;  0.0000000E+00;  1.0000000E+04; -1.1680885E-06;  0.0000000E+00;  1.8869029E-09;  9.6370684E-05;
 -1.4000000E-01;  9.9999998E-03;  0.0000000E+00;182;  0.0000000E+00;  0.0000000E+00;  0.0000000E+00;  1.0000000E+03;  4.0000001E-01;  0.0000000E+00;0;  0.0000000E+00;  0.0000000E+00;  0.0000000E+00;0; -4.3606164E-05;  1.0000000E+04;  0.0000000E+00;  0.0000000E+00;  1.0000000E+04;  0.0000000E+00;  1.0000000E+04; -4.3665968E-05;  0.0000000E+00;  5.9805139E-08;  3.7121773E-03;
 -1.4000000E-01;  9.9999998E-03;  2.0000000E-02;183;  0.0000000E+00;  0.0000000E+00;  0.0000000E+00;  1.0000000E+03;  4.0000001E-01;  0.0000000E+00;0;  0.0000000E+00;  0.0000000E+00;  0.0000000E+00;0; -4.3613160E-05;  1.0000000E+04;  0.0000000E+00;  0.0000000E+00;  1.0000000E+04;  0.0000000E+00;  1.0000000E+04; -4.3677115E-05;  0.0000000E+00;  6.3955071E-08;  3.7421265E-03;
 -1.4000000E-01;  9.9999998E-03;  3.9999999E-02;184;  0.0000000E+00;  0.0000000E+00;  0.0000000E+00;  1.0000000E+03;  4.0000001E-01;  0.0000000E+00;0;  0.0000000E+00;  0.0000000E+00;  0.0000000E+00;0; -4.3627970E-05;  1.0000000E+04;  0.0000000E+00;  0.0000000E+00;  1.0000000E+04;  0.0000000E+00;  1.0000000E+04; -4.3704251E-05;  0.0000000E+00;  7.6281133E-08;  3.8302650E-03;
 -1.4000000E-01;  9.9999998E-03;  5.9999999E-02;185;  0.0000000E+00;  0.0000000E+00;  0.0000000E+00;  1.0000000E+03;  4.0000001E-01;  0.0000000E+00;0;  0.0000000E+00;  0.0000000E+00;  0.0000000E+00;0; -4.3631564E-05;  1.0000000E+04;  0.0000000E+00;  0.0000000E+00;  1.0000000E+04;  0.0000000E+00;  1.0000000E+04; -4.3728058E-05;  0.0000000E+00;  9.6491988E-08;  3.9725443E-03;
 -1.4000000E-01;  9.9999998E-03;  7.9999998E-02;186;  0.0000000E+00;  0.0000000E+00;  0.0000000E+00;  1.0000000E+03;  4.0000001E-01;  0.0000000E+00;0;  0.0000000E+00;  0.0000000E+00;  0.0000000E+00;0; -4.3590804E-05;  1.0000000E+04;  0.0000000E+00;  0.0000000E+00;  1.0000000E+04;  0.0000000E+00;  1.0000000E+04; -4.3714837E-05;  0.0000000E+00;  1.2403456E-07;  4.1623670E-03;
 -1.4000000E-01;  9.9999998E-03;  1.0000000E-01;187;  0.0000000E+00;  0.0000000E+00;  0.0000000E+00;  1.0000000E+03;  4.0000001E-01;  0.0000000E+00;0;  0.0000000E+00;  0.0000000E+00;  0.0000000E+00;0; -4.3456806E-05;  1.0000000E+04;  0.0000000E+00;  0.0000000E+00;  1.0000000E+04;  0.0000000E+00;  1.0000000E+04; -4.3614727E-05;  0.0000000E+00;  1.5791989E-07;  4.3897056E-03;
 -1.4000000E-01;  9.9999998E-03;  1.2000000E-01;188;  0.0000000E+00;  0.0000000E+00;  0.0000000E+00;  1.0000000E+03;  4.0000001E-01;  0.0000000E+00;0;  0.0000000E+00;  0.0000000E+00;  0.0000000E+00;0; -4.3162549E-05;  1.0000000E+04;  0.0000000E+00;  0.0000000E+00;  1.0000000E+04;  0.0000000E+00;  1.0000000E+04; -4.3359421E-05;  0.0000000E+00;  1.9687117E-07;  4.6420800E-03;
 -1.4000000E-01;  9.9999998E-03;  1.4000000E-01;189;  0.0000000E+00;  0.0000000E+00;  0.0000000E+00;  1.0000000E+03;  4.0000001E-01;  0.0000000E+00;0;  0.0000000E+00;  0.0000000E+00;  0.0000000E+00;0; -4.2622305E-05;  1.0000000E+04;  0.0000000E+00;  0.0000000E+00;  1.0000000E+04;  0.0000000E+00;  1.0000000E+04; -4.2860964E-05;  0.0000000E+00;  2.3865871E-07;  4.8987032E-03;
 -1.2000000E-01;  9.9999998E-03;  0.0000000E+00;223;  0.0000000E+00;  0.0000000E+00;  0.0000000E+00;  1.0000002E+03;  4.0000001E-01;  1.9752525E-01;0;  0.0000000E+00;  0.0000000E+00;  0.0000000E+00;0; -2.4306827E-04;  1.0000000E+04;  0.0000000E+00;  0.0000000E+00;  1.0000000E+04;  0.0000000E+00;  1.0000000E+04; -2.4368815E-04;  0.0000000E+00;  6.1988658E-07;  2.3692843E-02;
 -1.2000000E-01;  9.9999998E-03;  2.0000000E-02;224;  0.0000000E+00;  0.0000000E+00;  0.0000000E+00;  1.0000002E+03;  4.0000001E-01;  1.9752525E-01;0;  0.0000000E+00;  0.0000000E+00;  0.0000000E+00;0; -2.4308098E-04;  1.0000000E+04;  0.0000000E+00;  0.0000000E+00;  1.0000000E+04;  0.0000000E+00;  1.0000000E+04; -2.4374037E-04;  0.0000000E+00;  6.5939713E-07;  2.3976762E-02;
 -1.2000000E-01;  9.9999998E-03;  3.9999999E-02;225;  0.0000000E+00;  0.0000000E+00;  0.0000000E+00;  1.0000002E+03;  4.0000001E-01;  1.9752525E-01;0;  0.0000000E+00;  0.0000000E+00;  0.0000000E+00;0; -2.4308391E-04;  1.0000000E+04;  0.0000000E+00;  0.0000000E+00;  1.0000000E+04;  0.0000000E+00;  1.0000000E+04; -2.4386091E-04;  0.0000000E+00;  7.7700645E-07;  2.4817564E-02;
 -1.2000000E-01;  9.9999998E-03;  5.9999999E-02;226;  0.0000000E+00;  0.0000000E+00;  0.0000000E+00;  1.0000002E+03;  4.0000001E-01;  1.9752525E-01;0;  0.0000000E+00;  0.0000000E+00;  0.0000000E+00;0; -2.4296890E-04;  1.0000000E+04;  0.0000000E+00;  0.0000000E+00;  1.0000000E+04;  0.0000000E+00;  1.0000000E+04; -2.4393844E-04;  0.0000000E+00;  9.6954273E-07;  2.6181230E-02;
 -1.2000000E-01;  9.9999998E-03;  7.9999998E-02;227;  0.0000000E+00;  0.0000000E+00;  0.0000000E+00;  1.0000002E+03;  4.0000001E-01;  1.9752525E-01;0;  0.0000000E+00;  0.0000000E+00;  0.0000000E+00;0; -2.4254945E-04;  1.0000000E+04;  0.0000000E+00;  0.0000000E+00;  1.0000000E+04;  0.0000000E+00;  1.0000000E+04; -2.4378055E-04;  0.0000000E+00;  1.2311045E-06;  2.8010821E-02;
 -1.2000000E-01;  9.9999998E-03;  1.0000000E-01;228;  0.0000000E+00;  0.0000000E+00;  0.0000000E+00;  1.0000002E+03;  4.0000001E-01;  1.9752525E-01;0;  0.0000000E+00;  0.0000000E+00;  0.0000000E+00;0; -2.4155081E-04;  1.0000000E+04;  0.0000000E+00;  0.0000000E+00;  1.0000000E+04;  0.0000000E+00;  1.0000000E+04; -2.4310326E-04;  0.0000000E+00;  1.5524528E-06;  3.0223789E-02;
 -1.2000000E-01;  9.9999998E-03;  1.2000000E-01;229;  0.0000000E+00;  0.0000000E+00;  0.0000000E+00;  1.0000002E+03;  4.0000001E-01;  1.9752525E-01;0;  0.0000000E+00;  0.0000000E+00;  0.0000000E+00;0; -2.3960254E-04;  1.0000000E+04;  0.0000000E+00;  0.0000000E+00;  1.0000000E+04;  0.0000000E+00;  1.0000000E+04; -2.4152099E-04;  0.0000000E+00;  1.9184579E-06;  3.2691553E-02;
 -1.2000000E-01;  9.9999998E-03;  1.4000000E-01;230;  0.0000000E+00;  0.0000000E+00;  0.0000000E+00;  1.0000002E+03;  4.0000001E-01;  1.9752525E-01;0;  0.0000000E+00;  0.0000000E+00;  0.0000000E+00;0; -2.3623851E-04;  1.0000000E+04;  0.0000000E+00;  0.0000000E+00;  1.0000000E+04;  0.0000000E+00;  1.0000000E+04; -2.3854150E-04;  0.0000000E+00;  2.3029904E-06;  3.5195459E-02;
 -1.0000000E-01;  9.9999998E-03;  0.0000000E+00;264;  0.0000000E+00;  0.0000000E+00;  0.0000000E+00;  1.0000007E+03;  4.0000001E-01;  5.9257573E-01;0;  0.0000000E+00;  0.0000000E+00;  0.0000000E+00;0; -7.8054273E-04;  1.0000000E+04;  0.0000000E+00;  0.0000000E+00;  1.0000000E+04;  0.0000000E+00;  1.0000000E+04; -7.8353111E-04;  0.0000000E+00;  2.9883829E-06;  8.6498238E-02;
 -1.0000000E-01;  9.9999998E-03;  2.0000000E-02;265;  0.0000000E+00;  0.0000000E+00;  0.0000000E+00;  1.0000007E+03;  4.0000001E-01;  5.9257573E-01;0;  0.0000000E+00;  0.0000000E+00;  0.0000000E+00;0; -7.8052253E-04;  1.0000000E+04;  0.0000000E+00;  0.0000000E+00;  1.0000000E+04;  0.0000000E+00;  1.0000000E+04; -7.8368967E-04;  0.0000000E+00;  3.1671641E-06;  8.7784313E-02;
 -1.0000000E-01;  9.9999998E-03;  3.9999999E-02;266;  0.0000000E+00;  0.0000000E+00;  0.0000000E+00;  1.0000007E+03;  4.0000001E-01;  5.9257573E-01;0;  0.0000000E+00;  0.0000000E+00;  0.0000000E+00;0; -7.8034727E-04;  1.0000000E+04;  0.0000000E+00;  0.0000000E+00;  1.0000000E+04;  0.0000000E+00;  1.0000000E+04; -7.8404619E-04;  0.0000000E+00;  3.6989113E-06;  9.1596864E-02;
 -1.0000000E-01;  9.9999998E-03;  5.9999999E-02;267;  0.0000000E+00;  0.0000000E+00;  0.0000000E+00;  1.0000007E+03;  4.0000001E-01;  5.9257573E-01;0;  0.0000000E+00;  0.0000000E+00;  0.0000000E+00;0; -7.7966973E-04;  1.0000000E+04;  0.0000000E+00;  0.0000000E+00;  1.0000000E+04;  0.0000000E+00;  1.0000000E+04; -7.8423810E-04;  0.0000000E+00;  4.5683960E-06;  9.7792365E-02;
 -1.0000000E-01;  9.9999998E-03;  7.9999998E-02;268;  0.0000000E+00;  0.0000000E+00;  0.0000000E+00;  1.0000007E+03;  4.0000001E-01;  5.9257573E-01;0;  0.0000000E+00;  0.0000000E+00;  0.0000000E+00;0; -7.7788817E-04;  1.0000000E+04;  0.0000000E+00;  0.0000000E+00;  1.0000000E+04;  0.0000000E+00;  1.0000000E+04; -7.8363594E-04;  0.0000000E+00;  5.7477896E-06;  1.0612442E-01;
 -1.0000000E-01;  9.9999998E-03;  1.0000000E-01;269;  0.0000000E+00;  0.0000000E+00;  0.0000000E+00;  1.0000007E+03;  4.0000001E-01;  5.9257573E-01;0;  0.0000000E+00;  0.0000000E+00;  0.0000000E+00;0; -7.7412487E-04;  1.0000000E+04;  0.0000000E+00;  0.0000000E+00;  1.0000000E+04;  0.0000000E+00;  1.0000000E+04; -7.8131567E-04;  0.0000000E+00;  7.1908207E-06;  1.1620627E-01;
 -1.0000000E-01;  9.9999998E-03;  1.2000000E-01;270;  0.0000000E+00;  0.0000000E+00;  0.0000000E+00;  1.0000007E+03;  4.0000001E-01;  5.9257573E-01;0;  0.0000000E+00;  0.0000000E+00;  0.0000000E+00;0; -7.6720631E-04;  1.0000000E+04;  0.0000000E+00;  0.0000000E+00;  1.0000000E+04;  0.0000000E+00;  1.0000000E+04; -7.7602552E-04;  0.0000000E+00;  8.8192119E-06;  1.2740162E-01;
 -1.0000000E-01;  9.9999998E-03;  1.4000000E-01;271;  0.0000000E+00;  0.0000000E+00;  0.0000000E+00;  1.0000007E+03;  4.0000001E-01;  5.9257573E-01;0;  0.0000000E+00;  0.0000000E+00;  0.0000000E+00;0; -7.5567618E-04;  1.0000000E+04;  0.0000000E+00;  0.0000000E+00;  1.0000000E+04;  0.0000000E+00;  1.0000000E+04; -7.6617394E-04;  0.0000000E+00;  1.0497769E-05;  1.3861889E-01;
 -7.9999998E-02;  9.9999998E-03;  0.0000000E+00;305;  0.0000000E+00;  0.0000000E+00;  0.0000000E+00;  1.0000019E+03;  4.0000001E-01;  1.5802020E+00;0;  0.0000000E+00;  0.0000000E+00;  0.0000000E+00;0; -1.8711732E-03;  1.0000000E+04;  0.0000000E+00;  0.0000000E+00;  1.0000000E+04;  0.0000000E+00;  1.0000000E+04; -1.8807434E-03;  0.0000000E+00;  9.5702217E-06;  2.3276401E-01;
 -7.9999998E-02;  9.9999998E-03;  2.0000000E-02;306;  0.0000000E+00;  0.0000000E+00;  0.0000000E+00;  1.0000019E+03;  4.0000001E-01;  1.5802020E+00;0;  0.0000000E+00;  0.0000000E+00;  0.0000000E+00;0; -1.8710301E-03;  1.0000000E+04;  0.0000000E+00;  0.0000000E+00;  1.0000000E+04;  0.0000000E+00;  1.0000000E+04; -1.8811462E-03;  0.0000000E+00;  1.0116146E-05;  2.3670706E-01;
 -7.9999998E-02;  9.9999998E-03;  3.9999999E-02;307;  0.0000000E+00;  0.0000000E+00;  0.0000000E+00;  1.0000019E+03;  4.0000001E-01;  1.5802020E+00;0;  0.0000000E+00;  0.0000000E+00;  0.0000000E+00;0; -1.8703304E-03;  1.0000000E+04;  0.0000000E+00;  0.0000000E+00;  1.0000000E+04;  0.0000000E+00;  1.0000000E+04; -1.8820689E-03;  0.0000000E+00;  1.1738526E-05;  2.4839742E-01;
 -7.9999998E-02;  9.9999998E-03;  5.9999999E-02;308;  0.0000000E+00;  0.0000000E+00;  0.0000000E+00;  1.0000018E+03;  4.0000001E-01;  1.4814394E+00;0;  0.0000000E+00;  0.0000000E+00;  0.0000000E+00;0; -1.8682429E-03;  1.0000000E+04;  0.0000000E+00;  0.0000000E+00;  1.0000000E+04;  0.0000000E+00;  1.0000000E+04; -1.8826319E-03;  0.0000000E+00;  1.4389038E-05;  2.6740879E-01;
 -7.9999998E-02;  9.9999998E-03;  7.9999998E-02;309;  0.0000000E+00;  0.0000000E+00;  0.0000000E+00;  1.0000018E+03;  4.0000001E-01;  1.4814394E+00;0;  0.0000000E+00;  0.0000000E+00;  0.0000000E+00;0; -1.8633353E-03;  1.0000000E+04;  0.0000000E+00;  0.0000000E+00;  1.0000000E+04;  0.0000000E+00;  1.0000000E+04; -1.8813128E-03;  0.0000000E+00;  1.7977549E-05;  2.9298228E-01;
 -7.9999998E-02;  9.9999998E-03;  1.0000000E-01;310;  0.0000000E+00;  0.0000000E+00;  0.0000000E+00;  1.0000018E+03;  4.0000001E-01;  1.4814394E+00;0;  0.0000000E+00;  0.0000000E+00;  0.0000000E+00;0; -1.8535246E-03;  1.0000000E+04;  0.0000000E+00;  0.0000000E+00;  1.0000000E+04;  0.0000000E+00;  1.0000000E+04; -1.8758742E-03;  0.0000000E+00;  2.2349637E-05;  3.2386667E-01;
 -7.9999998E-02;  9.9999998E-03;  1.2000000E-01;311;  0.0000000E+00;  0.0000000E+00;  0.0000000E+00;  1.0000018E+03;  4.0000001E-01;  1.4814394E+00;0;  0.0000000E+00;  0.0000000E+00;  0.0000000E+00;0; -1.8360480E-03;  1.0000000E+04;  0.0000000E+00;  0.0000000E+00;  1.0000000E+04;  0.0000000E+00;  1.0000000E+04; -1.8632871E-03;  0.0000000E+00;  2.7239057E-05;  3.5793847E-01;
 -7.9999998E-02;  9.9999998E-03;  1.4000000E-01;312;  0.0000000E+00;  0.0000000E+00;  0.0000000E+00;  1.0000017E+03;  4.0000001E-01;  1.3826767E+00;0;  0.0000000E+00;  0.0000000E+00;  0.0000000E+00;0; -1.8075015E-03;  1.0000000E+04;  0.0000000E+00;  0.0000000E+00;  1.0000000E+04;  0.0000000E+00;  1.0000000E+04; -1.8396961E-03;  0.0000000E+00;  3.2194530E-05;  3.9160460E-01;
 -5.9999999E-02;  9.9999998E-03;  0.0000000E+00;346;  0.0000000E+00;  0.0000000E+00;  0.0000000E+00;  1.0000036E+03;  4.0000001E-01;  2.9628787E+00;0;  0.0000000E+00;  0.0000000E+00;  0.0000000E+00;0; -3.6592223E-03;  1.0000000E+04;  0.0000000E+00;  0.0000000E+00;  1.0000000E+04;  0.0000000E+00;  1.0000000E+04; -3.6827105E-03;  0.0000000E+00;  2.3488286E-05;  5.0690955E-01;
 -5.9999999E-02;  9.9999998E-03;  2.0000000E-02;347;  0.0000000E+00;  0.0000000E+00;  0.0000000E+00;  1.0000036E+03;  4.0000001E-01;  2.9628787E+00;0;  0.0000000E+00;  0.0000000E+00;  0.0000000E+00;0; -3.6588486E-03;  1.0000000E+04;  0.0000000E+00;  0.0000000E+00;  1.0000000E+04;  0.0000000E+00;  1.0000000E+04; -3.6836306E-03;  0.0000000E+00;  2.4782001E-05;  5.1631296E-01;
 -5.9999999E-02;  9.9999998E-03;  3.9999999E-02;348;  0.0000000E+00;  0.0000000E+00;  0.0000000E+00;  1.0000036E+03;  4.0000001E-01;  2.9628787E+00;0;  0.0000000E+00;  0.0000000E+00;  0.0000000E+00;0; -3.6572043E-03;  1.0000000E+04;  0.0000000E+00;  0.0000000E+00;  1.0000000E+04;  0.0000000E+00;  1.0000000E+04; -3.6858290E-03;  0.0000000E+00;  2.8624749E-05;  5.4419130E-01;
 -5.9999999E-02;  9.9999998E-03;  5.9999999E-02;349;  0.0000000E+00;  0.0000000E+00;  0.0000000E+00;  1.0000036E+03;  4.0000001E-01;  2.9628787E+00;0;  0.0000000E+00;  0.0000000E+00;  0.0000000E+00;0; -3.6526856E-03;  1.0000000E+04;  0.0000000E+00;  0.0000000E+00;  1.0000000E+04;  0.0000000E+00;  1.0000000E+04; -3.6875831E-03;  0.0000000E+00;  3.4897657E-05;  5.8953613E-01;
 -5.9999999E-02;  9.9999998E-03;  7.9999998E-02;350;  0.0000000E+00;  0.0000000E+00;  0.0000000E+00;  1.0000036E+03;  4.0000001E-01;  2.9628787E+00;0;  0.0000000E+00;  0.0000000E+00;  0.0000000E+00;0; -3.6425295E-03;  1.0000000E+04;  0.0000000E+00;  0.0000000E+00;  1.0000000E+04;  0.0000000E+00;  1.0000000E+04; -3.6859042E-03;  0.0000000E+00;  4.3374788E-05;  6.5049976E-01;
 -5.9999999E-02;  9.9999998E-03;  1.0000000E-01;351;  0.0000000E+00;  0.0000000E+00;  0.0000000E+00;  1.0000036E+03;  4.0000001E-01;  2.9628787E+00;0;  0.0000000E+00;  0.0000000E+00;  0.0000000E+00;0; -3.6227279E-03;  1.0000000E+04;  0.0000000E+00;  0.0000000E+00;  1.0000000E+04;  0.0000000E+00;  1.0000000E+04; -3.6763898E-03;  0.0000000E+00;  5.3661875E-05;  7.2394067E-01;
 -5.9999999E-02;  9.9999998E-03;  1.2000000E-01;352;  0.0000000E+00;  0.0000000E+00;  0.0000000E+00;  1.0000036E+03;  4.0000001E-01;  2.9628787E+00;0;  0.0000000E+00;  0.0000000E+00;  0.0000000E+00;0; -3.5879924E-03;  1.0000000E+04;  0.0000000E+00;  0.0000000E+00;  1.0000000E+04;  0.0000000E+00;  1.0000000E+04; -3.6530690E-03;  0.0000000E+00;  6.5076587E-05;  8.0446333E-01;
 -5.9999999E-02;  9.9999998E-03;  1.4000000E-01;353;  0.0000000E+00;  0.0000000E+00;  0.0000000E+00;  1.0000035E+03;  4.0000001E-01;  2.8641162E+00;0;  0.0000000E+00;  0.0000000E+00;  0.0000000E+00;0; -3.5318183E-03;  1.0000000E+04;  0.0000000E+00;  0.0000000E+00;  1.0000000E+04;  0.0000000E+00;  1.0000000E+04; -3.6083031E-03;  0.0000000E+00;  7.6484859E-05;  8.8308638E-01;
 -3.9999999E-02;  9.9999998E-03;  0.0000000E+00;387;  0.0000000E+00;  0.0000000E+00;  0.0000000E+00;  1.0000062E+03;  4.0000001E-01;  5.1356564E+00;0;  0.0000000E+00;  0.0000000E+00;  0.0000000E+00;0; -6.1015161E-03;  1.0000000E+04;  0.0000000E+00;  0.0000000E+00;  1.0000000E+04;  0.0000000E+00;  1.0000000E+04; -6.1489581E-03;  0.0000000E+00;  4.7442103E-05;  9.3867254E-01;
 -3.9999999E-02;  9.9999998E-03;  2.0000000E-02;388;  0.0000000E+00;  0.0000000E+00;  0.0000000E+00;  1.0000062E+03;  4.0000001E-01;  5.1356564E+00;0;  0.0000000E+00;  0.0000000E+00;  0.0000000E+00;0; -6.1008665E-03;  1.0000000E+04;  0.0000000E+00;  0.0000000E+00;  1.0000000E+04;  0.0000000E+00;  1.0000000E+04; -6.1508599E-03;  0.0000000E+00;  4.9993465E-05;  9.5737493E-01;
 -3.9999999E-02;  9.9999998E-03;  3.9999999E-02;389;  0.0000000E+00;  0.0000000E+00;  0.0000000E+00;  1.0000062E+03;  4.0000001E-01;  5.1356564E+00;0;  0.0000000E+00;  0.0000000E+00;  0.0000000E+00;0; -6.0980720E-03;  1.0000000E+04;  0.0000000E+00;  0.0000000E+00;  1.0000000E+04;  0.0000000E+00;  1.0000000E+04; -6.1556427E-03;  0.0000000E+00;  5.7570505E-05;  1.0128295E+00;
 -3.9999999E-02;  9.9999998E-03;  5.9999999E-02;390;  0.0000000E+00;  0.0000000E+00;  0.0000000E+00;  1.0000062E+03;  4.0000001E-01;  5.1356564E+00;0;  0.0000000E+00;  0.0000000E+00;  0.0000000E+00;0; -6.0905078E-03;  1.0000000E+04;  0.0000000E+00;  0.0000000E+00;  1.0000000E+04;  0.0000000E+00;  1.0000000E+04; -6.1604390E-03;  0.0000000E+00;  6.9931339E-05;  1.1030320E+00;
 -3.9999999E-02;  9.9999998E-03;  7.9999998E-02;391;  0.0000000E+00;  0.0000000E+00;  0.0000000E+00;  1.0000062E+03;  4.0000001E-01;  5.1356564E+00;0;  0.0000000E+00;  0.0000000E+00;  0.0000000E+00;0; -6.0736728E-03;  1.0000000E+04;  0.0000000E+00;  0.0000000E+00;  1.0000000E+04;  0.0000000E+00;  1.0000000E+04; -6.1602825E-03;  0.0000000E+00;  8.6609754E-05;  1.2242315E+00;
 -3.9999999E-02;  9.9999998E-03;  1.0000000E-01;392;  0.0000000E+00;  0.0000000E+00;  0.0000000E+00;  1.0000061E+03;  4.0000001E-01;  5.0368938E+00;0;  0.0000000E+00;  0.0000000E+00;  0.0000000E+00;0; -6.0410323E-03;  1.0000000E+04;  0.0000000E+00;  0.0000000E+00;  1.0000000E+04;  0.0000000E+00;  1.0000000E+04; -6.1478163E-03;  0.0000000E+00;  1.0678393E-04;  1.3699363E+00;
 -3.9999999E-02;  9.9999998E-03;  1.2000000E-01;393;  0.0000000E+00;  0.0000000E+00;  0.0000000E+00;  1.0000060E+03;  4.0000001E-01;  4.9381313E+00;0;  0.0000000E+00;  0.0000000E+00;  0.0000000E+00;0; -5.9839734E-03;  1.0000000E+04;  0.0000000E+00;  0.0000000E+00;  1.0000000E+04;  0.0000000E+00;  1.0000000E+04; -6.1130091E-03;  0.0000000E+00;  1.2903550E-04;  1.5289677E+00;
 -3.9999999E-02;  9.9999998E-03;  1.4000000E-01;394;  0.0000000E+00;  0.0000000E+00;  0.0000000E+00;  1.0000059E+03;  4.0000001E-01;  4.8393683E+00;0;  0.0000000E+00;  0.0000000E+00;  0.0000000E+00;0; -5.8919149E-03;  1.0000000E+04;  0.0000000E+00;  0.0000000E+00;  1.0000000E+04;  0.0000000E+00;  1.0000000E+04; -6.0429596E-03;  0.0000000E+00;  1.5104453E-04;  1.6829485E+00;
 -2.0000000E-02;  9.9999998E-03;  0.0000000E+00;428;  0.0000000E+00;  0.0000000E+00;  0.0000000E+00;  1.0000090E+03;  4.0000001E-01;  7.5059595E+00;0;  0.0000000E+00;  0.0000000E+00;  0.0000000E+00;0; -8.9140683E-03;  1.0000000E+04;  0.0000000E+00;  0.0000000E+00;  1.0000000E+04;  0.0000000E+00;  1.0000000E+04; -8.9961952E-03;  0.0000000E+00;  8.2127161E-05;  1.5243034E+00;
 -2.0000000E-02;  9.9999998E-03;  2.0000000E-02;429;  0.0000000E+00;  0.0000000E+00;  0.0000000E+00;  1.0000090E+03;  4.0000001E-01;  7.5059595E+00;0;  0.0000000E+00;  0.0000000E+00;  0.0000000E+00;0; -8.9132786E-03;  1.0000000E+04;  0.0000000E+00;  0.0000000E+00;  1.0000000E+04;  0.0000000E+00;  1.0000000E+04; -8.9997584E-03;  0.0000000E+00;  8.6479580E-05;  1.5565633E+00;
 -2.0000000E-02;  9.9999998E-03;  3.9999999E-02;430;  0.0000000E+00;  0.0000000E+00;  0.0000000E+00;  1.0000090E+03;  4.0000001E-01;  7.4071970E+00;0;  0.0000000E+00;  0.0000000E+00;  0.0000000E+00;0; -8.9097060E-03;  1.0000000E+04;  0.0000000E+00;  0.0000000E+00;  1.0000000E+04;  0.0000000E+00;  1.0000000E+04; -9.0091107E-03;  0.0000000E+00;  9.9404628E-05;  1.6522391E+00;
 -2.0000000E-02;  9.9999998E-03;  5.9999999E-02;431;  0.0000000E+00;  0.0000000E+00;  0.0000000E+00;  1.0000090E+03;  4.0000001E-01;  7.4071970E+00;0;  0.0000000E+00;  0.0000000E+00;  0.0000000E+00;0; -8.8996394E-03;  1.0000000E+04;  0.0000000E+00;  0.0000000E+00;  1.0000000E+04;  0.0000000E+00;  1.0000000E+04; -9.0201199E-03;  0.0000000E+00;  1.2048097E-04;  1.8078830E+00;
 -2.0000000E-02;  9.9999998E-03;  7.9999998E-02;432;  0.0000000E+00;  0.0000000E+00;  0.0000000E+00;  1.0000090E+03;  4.0000001E-01;  7.4071970E+00;0;  0.0000000E+00;  0.0000000E+00;  0.0000000E+00;0; -8.8767083E-03;  1.0000000E+04;  0.0000000E+00;  0.0000000E+00;  1.0000000E+04;  0.0000000E+00;  1.0000000E+04; -9.0255952E-03;  0.0000000E+00;  1.4888699E-04;  2.0169373E+00;
 -2.0000000E-02;  9.9999998E-03;  1.0000000E-01;433;  0.0000000E+00;  0.0000000E+00;  0.0000000E+00;  1.0000089E+03;  4.0000001E-01;  7.3084340E+00;0;  0.0000000E+00;  0.0000000E+00;  0.0000000E+00;0; -8.8316510E-03;  1.0000000E+04;  0.0000000E+00;  0.0000000E+00;  1.0000000E+04;  0.0000000E+00;  1.0000000E+04; -9.0148179E-03;  0.0000000E+00;  1.8316694E-04;  2.2679329E+00;
 -2.0000000E-02;  9.9999998E-03;  1.2000000E-01;434;  0.0000000E+00;  0.0000000E+00;  0.0000000E+00;  1.0000087E+03;  4.0000001E-01;  7.2096715E+00;0;  0.0000000E+00;  0.0000000E+00;  0.0000000E+00;0; -8.7522473E-03;  1.0000000E+04;  0.0000000E+00;  0.0000000E+00;  1.0000000E+04;  0.0000000E+00;  1.0000000E+04; -8.9730704E-03;  0.0000000E+00;  2.2082296E-04;  2.5411537E+00;
 -2.0000000E-02;  9.9999998E-03;  1.4000000E-01;435;  0.0000000E+00;  0.0000000E+00;  0.0000000E+00;  1.0000085E+03;  4.0000001E-01;  7.1109090E+00;0;  0.0000000E+00;  0.0000000E+00;  0.0000000E+00;0; -8.6234482E-03;  1.0000000E+04;  0.0000000E+00;  0.0000000E+00;  1.0000000E+04;  0.0000000E+00;  1.0000000E+04; -8.8812523E-03;  0.0000000E+00;  2.5780380E-04;  2.8043616E+00;
 -2.2000000E-01;  9.9999998E-03;  1.6000000E-01;27;  0.0000000E+00;  0.0000000E+00;  0.0000000E+00;  1.0000000E+03;  4.0000001E-01;  0.0000000E+00;0;  0.0000000E+00;  0.0000000E+00;  0.0000000E+00;0;  0.0000000E+00;  1.0000000E+04;  0.0000000E+00;  0.0000000E+00;  1.0000000E+04;  0.0000000E+00;  1.0000000E+04;  0.0000000E+00;  0.0000000E+00;  0.0000000E+00;  0.0000000E+00;
 -2.2000000E-01;  9.9999998E-03;  1.8000001E-01;28;  0.0000000E+00;  0.0000000E+00;  0.0000000E+00;  1.0000000E+03;  4.0000001E-01;  0.0000000E+00;0;  0.0000000E+00;  0.0000000E+00;  0.0000000E+00;0;  0.0000000E+00;  1.0000000E+04;  0.0000000E+00;  0.0000000E+00;  1.0000000E+04;  0.0000000E+00;  1.0000000E+04;  0.0000000E+00;  0.0000000E+00;  0.0000000E+00;  0.0000000E+00;
 -2.2000000E-01;  9.9999998E-03;  2.0000000E-01;29;  0.0000000E+00;  0.0000000E+00;  0.0000000E+00;  1.0000000E+03;  4.0000001E-01;  0.0000000E+00;0;  0.0000000E+00;  0.0000000E+00;  0.0000000E+00;0;  0.0000000E+00;  1.0000000E+04;  0.0000000E+00;  0.0000000E+00;  1.0000000E+04;  0.0000000E+00;  1.0000000E+04;  0.0000000E+00;  0.0000000E+00;  0.0000000E+00;  0.0000000E+00;
 -2.2000000E-01;  9.9999998E-03;  2.2000000E-01;30;  0.0000000E+00;  0.0000000E+00;  0.0000000E+00;  1.0000000E+03;  4.0000001E-01;  0.0000000E+00;0;  0.0000000E+00;  0.0000000E+00;  0.0000000E+00;0;  0.0000000E+00;  1.0000000E+04;  0.0000000E+00;  0.0000000E+00;  1.0000000E+04;  0.0000000E+00;  1.0000000E+04;  0.0000000E+00;  0.0000000E+00;  0.0000000E+00;  0.0000000E+00;
 -2.2000000E-01;  9.9999998E-03;  2.3999999E-01;31;  0.0000000E+00;  0.0000000E+00;  0.0000000E+00;  1.0000000E+03;  4.0000001E-01;  0.0000000E+00;0;  0.0000000E+00;  0.0000000E+00;  0.0000000E+00;0;  0.0000000E+00;  1.0000000E+04;  0.0000000E+00;  0.0000000E+00;  1.0000000E+04;  0.0000000E+00;  1.0000000E+04;  0.0000000E+00;  0.0000000E+00;  0.0000000E+00;  0.0000000E+00;
 -2.2000000E-01;  9.9999998E-03;  2.5999999E-01;32;  0.0000000E+00;  0.0000000E+00;  0.0000000E+00;  1.0000000E+03;  4.0000001E-01;  0.0000000E+00;0;  0.0000000E+00;  0.0000000E+00;  0.0000000E+00;0;  0.0000000E+00;  1.0000000E+04;  0.0000000E+00;  0.0000000E+00;  1.0000000E+04;  0.0000000E+00;  1.0000000E+04;  0.0000000E+00;  0.0000000E+00;  0.0000000E+00;  0.0000000E+00;
 -2.2000000E-01;  9.9999998E-03;  2.8000000E-01;33;  0.0000000E+00;  0.0000000E+00;  0.0000000E+00;  1.0000000E+03;  4.0000001E-01;  0.0000000E+00;0;  0.0000000E+00;  0.0000000E+00;  0.0000000E+00;0;  0.0000000E+00;  1.0000000E+04;  0.0000000E+00;  0.0000000E+00;  1.0000000E+04;  0.0000000E+00;  1.0000000E+04;  0.0000000E+00;  0.0000000E+00;  0.0000000E+00;  0.0000000E+00;
 -2.2000000E-01;  9.9999998E-03;  3.0000001E-01;34;  0.0000000E+00;  0.0000000E+00;  0.0000000E+00;  1.0000000E+03;  4.0000001E-01;  0.0000000E+00;0;  0.0000000E+00;  0.0000000E+00;  0.0000000E+00;0;  0.0000000E+00;  1.0000000E+04;  0.0000000E+00;  0.0000000E+00;  1.0000000E+04;  0.0000000E+00;  1.0000000E+04;  0.0000000E+00;  0.0000000E+00;  0.0000000E+00;  0.0000000E+00;
 -2.2000000E-01;  9.9999998E-03;  3.1999999E-01;35;  0.0000000E+00;  0.0000000E+00;  0.0000000E+00;  1.0000000E+03;  4.0000001E-01;  0.0000000E+00;0;  0.0000000E+00;  0.0000000E+00;  0.0000000E+00;0;  0.0000000E+00;  1.0000000E+04;  0.0000000E+00;  0.0000000E+00;  1.0000000E+04;  0.0000000E+00;  1.0000000E+04;  0.0000000E+00;  0.0000000E+00;  0.0000000E+00;  0.0000000E+00;
 -2.0000000E-01;  9.9999998E-03;  1.6000000E-01;67;  0.0000000E+00;  0.0000000E+00;  0.0000000E+00;  1.0000000E+03;  4.0000001E-01;  0.0000000E+00;0;  0.0000000E+00;  0.0000000E+00;  0.0000000E+00;0;  0.0000000E+00;  1.0000000E+04;  0.0000000E+00;  0.0000000E+00;  1.0000000E+04;  0.0000000E+00;  1.0000000E+04;  0.0000000E+00;  0.0000000E+00;  0.0000000E+00;  0.0000000E+00;
 -2.0000000E-01;  9.9999998E-03;  1.8000001E-01;68;  0.0000000E+00;  0.0000000E+00;  0.0000000E+00;  1.0000000E+03;  4.0000001E-01;  0.0000000E+00;0;  0.0000000E+00;  0.0000000E+00;  0.0000000E+00;0;  0.0000000E+00;  1.0000000E+04;  0.0000000E+00;  0.0000000E+00;  1.0000000E+04;  0.0000000E+00;  1.0000000E+04;  0.0000000E+00;  0.0000000E+00;  0.0000000E+00;  0.0000000E+00;
 -2.0000000E-01;  9.9999998E-03;  2.0000000E-01;69;  0.0000000E+00;  0.0000000E+00;  0.0000000E+00;  1.0000000E+03;  4.0000001E-01;  0.0000000E+00;0;  0.0000000E+00;  0.0000000E+00;  0.0000000E+00;0;  0.0000000E+00;  1.0000000E+04;  0.0000000E+00;  0.0000000E+00;  1.0000000E+04;  0.0000000E+00;  1.0000000E+04;  0.0000000E+00;  0.0000000E+00;  0.0000000E+00;  0.0000000E+00;
 -2.0000000E-01;  9.9999998E-03;  2.2000000E-01;70;  0.0000000E+00;  0.0000000E+00;  0.0000000E+00;  1.0000000E+03;  4.0000001E-01;  0.0000000E+00;0;  0.0000000E+00;  0.0000000E+00;  0.0000000E+00;0;  0.0000000E+00;  1.0000000E+04;  0.0000000E+00;  0.0000000E+00;  1.0000000E+04;  0.0000000E+00;  1.0000000E+04;  0.0000000E+00;  0.0000000E+00;  0.0000000E+00;  0.0000000E+00;
 -2.0000000E-01;  9.9999998E-03;  2.3999999E-01;71;  0.0000000E+00;  0.0000000E+00;  0.0000000E+00;  1.0000000E+03;  4.0000001E-01;  0.0000000E+00;0;  0.0000000E+00;  0.0000000E+00;  0.0000000E+00;0;  0.0000000E+00;  1.0000000E+04;  0.0000000E+00;  0.0000000E+00;  1.0000000E+04;  0.0000000E+00;  1.0000000E+04;  0.0000000E+00;  0.0000000E+00;  0.0000000E+00;  0.0000000E+00;
 -2.0000000E-01;  9.9999998E-03;  2.5999999E-01;72;  0.0000000E+00;  0.0000000E+00;  0.0000000E+00;  1.0000000E+03;  4.0000001E-01;  0.0000000E+00;0;  0.0000000E+00;  0.0000000E+00;  0.0000000E+00;0;  0.0000000E+00;  1.0000000E+04;  0.0000000E+00;  0.0000000E+00;  1.0000000E+04;  0.0000000E+00;  1.0000000E+04;  0.0000000E+00;  0.0000000E+00;  0.0000000E+00;  0.0000000E+00;
 -2.0000000E-01;  9.9999998E-03;  2.8000000E-01;73;  0.0000000E+00;  0.0000000E+00;  0.0000000E+00;  1.0000000E+03;  4.0000001E-01;  0.0000000E+00;0;  0.0000000E+00;  0.0000000E+00;  0.0000000E+00;0;  0.0000000E+00;  1.0000000E+04;  0.0000000E+00;  0.0000000E+00;  1.0000000E+04;  0.0000000E+00;  1.0000000E+04;  0.0000000E+00;  0.0000000E+00;  0.0000000E+00;  0.0000000E+00;
 -2.0000000E-01;  9.9999998E-03;  3.0000001E-01;74;  0.0000000E+00;  0.0000000E+00;  0.0000000E+00;  1.0000000E+03;  4.0000001E-01;  0.0000000E+00;0;  0.0000000E+00;  0.0000000E+00;  0.0000000E+00;0;  0.0000000E+00;  1.0000000E+04;  0.0000000E+00;  0.0000000E+00;  1.0000000E+04;  0.0000000E+00;  1.0000000E+04;  0.0000000E+00;  0.0000000E+00;  0.0000000E+00;  0.0000000E+00;
 -2.0000000E-01;  9.9999998E-03;  3.1999999E-01;75;  0.0000000E+00;  0.0000000E+00;  0.0000000E+00;  1.0000000E+03;  4.0000001E-01;  0.0000000E+00;0;  0.0000000E+00;  0.0000000E+00;  0.0000000E+00;0;  0.0000000E+00;  1.0000000E+04;  0.0000000E+00;  0.0000000E+00;  1.0000000E+04;  0.0000000E+00;  1.0000000E+04;  0.0000000E+00;  0.0000000E+00;  0.0000000E+00;  0.0000000E+00;
 -1.8000001E-01;  9.9999998E-03;  1.6000000E-01;108;  0.0000000E+00;  0.0000000E+00;  0.0000000E+00;  1.0000000E+03;  4.0000001E-01;  0.0000000E+00;0;  0.0000000E+00;  0.0000000E+00;  0.0000000E+00;0;  0.0000000E+00;  1.0000000E+04;  0.0000000E+00;  0.0000000E+00;  1.0000000E+04;  0.0000000E+00;  1.0000000E+04;  0.0000000E+00;  0.0000000E+00;  0.0000000E+00;  0.0000000E+00;
 -1.8000001E-01;  9.9999998E-03;  1.8000001E-01;109;  0.0000000E+00;  0.0000000E+00;  0.0000000E+00;  1.0000000E+03;  4.0000001E-01;  0.0000000E+00;0;  0.0000000E+00;  0.0000000E+00;  0.0000000E+00;0;  0.0000000E+00;  1.0000000E+04;  0.0000000E+00;  0.0000000E+00;  1.0000000E+04;  0.0000000E+00;  1.0000000E+04;  0.0000000E+00;  0.0000000E+00;  0.0000000E+00;  0.0000000E+00;
 -1.8000001E-01;  9.9999998E-03;  2.0000000E-01;110;  0.0000000E+00;  0.0000000E+00;  0.0000000E+00;  1.0000000E+03;  4.0000001E-01;  0.0000000E+00;0;  0.0000000E+00;  0.0000000E+00;  0.0000000E+00;0;  0.0000000E+00;  1.0000000E+04;  0.0000000E+00;  0.0000000E+00;  1.0000000E+04;  0.0000000E+00;  1.0000000E+04;  0.0000000E+00;  0.0000000E+00;  0.0000000E+00;  0.0000000E+00;
 -1.8000001E-01;  9.9999998E-03;  2.2000000E-01;111;  0.0000000E+00;  0.0000000E+00;  0.0000000E+00;  1.0000000E+03;  4.0000001E-01;  0.0000000E+00;0;  0.0000000E+00;  0.0000000E+00;  0.0000000E+00;0;  0.0000000E+00;  1.0000000E+04;  0.0000000E+00;  0.0000000E+00;  1.0000000E+04;  0.0000000E+00;  1.0000000E+04;  0.0000000E+00;  0.0000000E+00;  0.0000000E+00;  0.0000000E+00;
 -1.8000001E-01;  9.9999998E-03;  2.3999999E-01;112;  0.0000000E+00;  0.0000000E+00;  0.0000000E+00;  1.0000000E+03;  4.0000001E-01;  0.0000000E+00;0;  0.0000000E+00;  0.0000000E+00;  0.0000000E+00;0;  0.0000000E+00;  1.0000000E+04;  0.0000000E+00;  0.0000000E+00;  1.0000000E+04;  0.0000000E+00;  1.0000000E+04;  0.0000000E+00;  0.0000000E+00;  0.0000000E+00;  0.0000000E+00;
 -1.8000001E-01;  9.9999998E-03;  2.5999999E-01;113;  0.0000000E+00;  0.0000000E+00;  0.0000000E+00;  1.0000000E+03;  4.0000001E-01;  0.0000000E+00;0;  0.0000000E+00;  0.0000000E+00;  0.0000000E+00;0;  0.0000000E+00;  1.0000000E+04;  0.0000000E+00;  0.0000000E+00;  1.0000000E+04;  0.0000000E+00;  1.0000000E+04;  0.0000000E+00;  0.0000000E+00;  0.0000000E+00;  0.0000000E+00;
 -1.8000001E-01;  9.9999998E-03;  2.8000000E-01;114;  0.0000000E+00;  0.0000000E+00;  0.0000000E+00;  1.0000000E+03;  4.0000001E-01;  0.0000000E+00;0;  0.0000000E+00;  0.0000000E+00;  0.0000000E+00;0;  0.0000000E+00;  1.0000000E+04;  0.0000000E+00;  0.0000000E+00;  1.0000000E+04;  0.0000000E+00;  1.0000000E+04;  0.0000000E+00;  0.0000000E+00;  0.0000000E+00;  0.0000000E+00;
 -1.8000001E-01;  9.9999998E-03;  3.0000001E-01;115;  0.0000000E+00;  0.0000000E+00;  0.0000000E+00;  1.0000000E+03;  4.0000001E-01;  0.0000000E+00;0;  0.0000000E+00;  0.0000000E+00;  0.0000000E+00;0;  0.0000000E+00;  1.0000000E+04;  0.0000000E+00;  0.0000000E+00;  1.0000000E+04;  0.0000000E+00;  1.0000000E+04;  0.0000000E+00;  0.0000000E+00;  0.0000000E+00;  0.0000000E+00;
 -1.8000001E-01;  9.9999998E-03;  3.1999999E-01;116;  0.0000000E+00;  0.0000000E+00;  0.0000000E+00;  1.0000000E+03;  4.0000001E-01;  0.0000000E+00;0;  0.0000000E+00;  0.0000000E+00;  0.0000000E+00;0;  0.0000000E+00;  1.0000000E+04;  0.0000000E+00;  0.0000000E+00;  1.0000000E+04;  0.0000000E+00;  1.0000000E+04;  0.0000000E+00;  0.0000000E+00;  0.0000000E+00;  0.0000000E+00;
 -1.6000000E-01;  9.9999998E-03;  1.6000000E-01;149;  0.0000000E+00;  0.0000000E+00;  0.0000000E+00;  1.0000000E+03;  4.0000001E-01;  0.0000000E+00;0;  0.0000000E+00;  0.0000000E+00;  0.0000000E+00;0; -1.1453305E-06;  1.0000000E+04;  0.0000000E+00;  0.0000000E+00;  1.0000000E+04;  0.0000000E+00;  1.0000000E+04; -1.1475751E-06;  0.0000000E+00;  2.2445485E-09;  9.7315693E-05;
 -1.6000000E-01;  9.9999998E-03;  1.8000001E-01;150;  0.0000000E+00;  0.0000000E+00;  0.0000000E+00;  1.0000000E+03;  4.0000001E-01;  0.0000000E+00;0;  0.0000000E+00;  0.0000000E+00;  0.0000000E+00;0; -1.1118939E-06;  1.0000000E+04;  0.0000000E+00;  0.0000000E+00;  1.0000000E+04;  0.0000000E+00;  1.0000000E+04; -1.1144508E-06;  0.0000000E+00;  2.5569791E-09;  9.7087694E-05;
 -1.6000000E-01;  9.9999998E-03;  2.0000000E-01;151;  0.0000000E+00;  0.0000000E+00;  0.0000000E+00;  1.0000000E+03;  4.0000001E-01;  0.0000000E+00;0;  0.0000000E+00;  0.0000000E+00;  0.0000000E+00;0; -1.0622640E-06;  1.0000000E+04;  0.0000000E+00;  0.0000000E+00;  1.0000000E+04;  0.0000000E+00;  1.0000000E+04; -1.0649942E-06;  0.0000000E+00;  2.7301585E-09;  9.4715331E-05;
 -1.6000000E-01;  9.9999998E-03;  2.2000000E-01;152;  0.0000000E+00;  0.0000000E+00;  0.0000000E+00;  1.0000000E+03;  4.0000001E-01;  0.0000000E+00;0;  0.0000000E+00;  0.0000000E+00;  0.0000000E+00;0; -9.9295846E-07;  1.0000000E+04;  0.0000000E+00;  0.0000000E+00;  1.0000000E+04;  0.0000000E+00;  1.0000000E+04; -9.9562783E-07;  0.0000000E+00;  2.6693223E-09;  8.9255125E-05;
 -1.6000000E-01;  9.9999998E-03;  2.3999999E-01;153;  0.0000000E+00;  0.0000000E+00;  0.0000000E+00;  1.0000000E+03;  4.0000001E-01;  0.0000000E+00;0;  0.0000000E+00;  0.0000000E+00;  0.0000000E+00;0; -9.0119255E-07;  1.0000000E+04;  0.0000000E+00;  0.0000000E+00;  1.0000000E+04;  0.0000000E+00;  1.0000000E+04; -9.0346794E-07;  0.0000000E+00;  2.2753615E-09;  7.9795347E-05;
 -1.6000000E-01;  9.9999998E-03;  2.5999999E-01;154;  0.0000000E+00;  0.0000000E+00;  0.0000000E+00;  1.0000000E+03;  4.0000001E-01;  0.0000000E+00;0;  0.0000000E+00;  0.0000000E+00;  0.0000000E+00;0; -7.6530489E-07;  1.0000000E+04;  0.0000000E+00;  0.0000000E+00;  1.0000000E+04;  0.0000000E+00;  1.0000000E+04; -7.6446059E-07;  0.0000000E+00; -8.4428065E-10;  4.5352575E-05;
 -1.6000000E-01;  9.9999998E-03;  2.8000000E-01;155;  0.0000000E+00;  0.0000000E+00;  0.0000000E+00;  1.0000000E+03;  4.0000001E-01;  0.0000000E+00;0;  0.0000000E+00;  0.0000000E+00;  0.0000000E+00;0; -5.1459750E-07;  1.0000000E+04;  0.0000000E+00;  0.0000000E+00;  1.0000000E+04;  0.0000000E+00;  1.0000000E+04; -5.0629296E-07;  0.0000000E+00; -8.3045384E-09;  3.5619825E-05;
 -1.6000000E-01;  9.9999998E-03;  3.0000001E-01;156;  0.0000000E+00;  0.0000000E+00;  0.0000000E+00;  1.0000000E+03;  4.0000001E-01;  0.0000000E+00;0;  0.0000000E+00;  0.0000000E+00;  0.0000000E+00;0; -2.1831822E-07;  1.0000000E+04;  0.0000000E+00;  0.0000000E+00;  1.0000000E+04;  0.0000000E+00;  1.0000000E+04; -2.0908844E-07;  0.0000000E+00; -9.2297823E-09;  6.2839048E-05;
 -1.6000000E-01;  9.9999998E-03;  3.1999999E-01;157;  0.0000000E+00;  0.0000000E+00;  0.0000000E+00;  1.0000000E+03;  4.0000001E-01;  0.0000000E+00;0;  0.0000000E+00;  0.0000000E+00;  0.0000000E+00;0; -3.4364493E-08;  1.0000000E+04;  0.0000000E+00;  0.0000000E+00;  1.0000000E+04;  0.0000000E+00;  1.0000000E+04; -3.1630726E-08;  0.0000000E+00; -2.7337672E-09;  2.0190277E-05;
 -1.4000000E-01;  9.9999998E-03;  1.6000000E-01;190;  0.0000000E+00;  0.0000000E+00;  0.0000000E+00;  1.0000000E+03;  4.0000001E-01;  0.0000000E+00;0;  0.0000000E+00;  0.0000000E+00;  0.0000000E+00;0; -4.1733198E-05;  1.0000000E+04;  0.0000000E+00;  0.0000000E+00;  1.0000000E+04;  0.0000000E+00;  1.0000000E+04; -4.2012387E-05;  0.0000000E+00;  2.7919040E-07;  5.1226341E-03;
 -1.4000000E-01;  9.9999998E-03;  1.8000001E-01;191;  0.0000000E+00;  0.0000000E+00;  0.0000000E+00;  1.0000000E+03;  4.0000001E-01;  0.0000000E+00;0;  0.0000000E+00;  0.0000000E+00;  0.0000000E+00;0; -4.0380666E-05;  1.0000000E+04;  0.0000000E+00;  0.0000000E+00;  1.0000000E+04;  0.0000000E+00;  1.0000000E+04; -4.0692099E-05;  0.0000000E+00;  3.1143216E-07;  5.2526575E-03;
 -1.4000000E-01;  9.9999998E-03;  2.0000000E-01;192;  0.0000000E+00;  0.0000000E+00;  0.0000000E+00;  1.0000000E+03;  4.0000001E-01;  0.0000000E+00;0;  0.0000000E+00;  0.0000000E+00;  0.0000000E+00;0; -3.8447331E-05;  1.0000000E+04;  0.0000000E+00;  0.0000000E+00;  1.0000000E+04;  0.0000000E+00;  1.0000000E+04; -3.8772963E-05;  0.0000000E+00;  3.2563182E-07;  5.2065980E-03;
 -1.4000000E-01;  9.9999998E-03;  2.2000000E-01;193;  0.0000000E+00;  0.0000000E+00;  0.0000000E+00;  1.0000000E+03;  4.0000001E-01;  0.0000000E+00;0;  0.0000000E+00;  0.0000000E+00;  0.0000000E+00;0; -3.5757890E-05;  1.0000000E+04;  0.0000000E+00;  0.0000000E+00;  1.0000000E+04;  0.0000000E+00;  1.0000000E+04; -3.6043359E-05;  0.0000000E+00;  2.8546881E-07;  4.6825511E-03;
 -1.4000000E-01;  9.9999998E-03;  2.3999999E-01;194;  0.0000000E+00;  0.0000000E+00;  0.0000000E+00;  1.0000000E+03;  4.0000001E-01;  0.0000000E+00;0;  0.0000000E+00;  0.0000000E+00;  0.0000000E+00;0; -3.1735864E-05;  1.0000000E+04;  0.0000000E+00;  0.0000000E+00;  1.0000000E+04;  0.0000000E+00;  1.0000000E+04; -3.1808653E-05;  0.0000000E+00;  7.2790343E-08;  2.6792453E-03;
 -1.4000000E-01;  9.9999998E-03;  2.5999999E-01;195;  0.0000000E+00;  0.0000000E+00;  0.0000000E+00;  1.0000000E+03;  4.0000001E-01;  0.0000000E+00;0;  0.0000000E+00;  0.0000000E+00;  0.0000000E+00;0; -2.5941796E-05;  1.0000000E+04;  0.0000000E+00;  0.0000000E+00;  1.0000000E+04;  0.0000000E+00;  1.0000000E+04; -2.5650272E-05;  0.0000000E+00; -2.9152389E-07;  6.6824455E-04;
 -1.4000000E-01;  9.9999998E-03;  2.8000000E-01;196;  0.0000000E+00;  0.0000000E+00;  0.0000000E+00;  1.0000000E+03;  4.0000001E-01;  0.0000000E+00;0;  0.0000000E+00;  0.0000000E+00;  0.0000000E+00;0; -1.8746201E-05;  1.0000000E+04;  0.0000000E+00;  0.0000000E+00;  1.0000000E+04;  0.0000000E+00;  1.0000000E+04; -1.8133243E-05;  0.0000000E+00; -6.1295810E-07;  3.7687635E-03;
 -1.4000000E-01;  9.9999998E-03;  3.0000001E-01;197;  0.0000000E+00;  0.0000000E+00;  0.0000000E+00;  1.0000000E+03;  4.0000001E-01;  0.0000000E+00;0;  0.0000000E+00;  0.0000000E+00;  0.0000000E+00;0; -1.1374284E-05;  1.0000000E+04;  0.0000000E+00;  0.0000000E+00;  1.0000000E+04;  0.0000000E+00;  1.0000000E+04; -1.0661412E-05;  0.0000000E+00; -7.1287212E-07;  5.1124217E-03;
 -1.4000000E-01;  9.9999998E-03;  3.1999999E-01;198;  0.0000000E+00;  0.0000000E+00;  0.0000000E+00;  1.0000000E+03;  4.0000001E-01;  0.0000000E+00;0;  0.0000000E+00;  0.0000000E+00;  0.0000000E+00;0; -5.3542753E-06;  1.0000000E+04;  0.0000000E+00;  0.0000000E+00;  1.0000000E+04;  0.0000000E+00;  1.0000000E+04; -4.8023626E-06;  0.0000000E+00; -5.5191288E-07;  4.2054099E-03;
 -1.2000000E-01;  9.9999998E-03;  1.6000000E-01;231;  0.0000000E+00;  0.0000000E+00;  0.0000000E+00;  1.0000002E+03;  4.0000001E-01;  1.9752525E-01;0;  0.0000000E+00;  0.0000000E+00;  0.0000000E+00;0; -2.3091093E-04;  1.0000000E+04;  0.0000000E+00;  0.0000000E+00;  1.0000000E+04;  0.0000000E+00;  1.0000000E+04; -2.3357218E-04;  0.0000000E+00;  2.6612520E-06;  3.7364591E-02;
 -1.2000000E-01;  9.9999998E-03;  1.8000001E-01;232;  0.0000000E+00;  0.0000000E+00;  0.0000000E+00;  1.0000002E+03;  4.0000001E-01;  1.9752525E-01;0;  0.0000000E+00;  0.0000000E+00;  0.0000000E+00;0; -2.2302207E-04;  1.0000000E+04;  0.0000000E+00;  0.0000000E+00;  1.0000000E+04;  0.0000000E+00;  1.0000000E+04; -2.2594605E-04;  0.0000000E+00;  2.9239757E-06;  3.8632635E-02;
 -1.2000000E-01;  9.9999998E-03;  2.0000000E-01;233;  0.0000000E+00;  0.0000000E+00;  0.0000000E+00;  1.0000002E+03;  4.0000001E-01;  1.9752525E-01;0;  0.0000000E+00;  0.0000000E+00;  0.0000000E+00;0; -2.1179472E-04;  1.0000000E+04;  0.0000000E+00;  0.0000000E+00;  1.0000000E+04;  0.0000000E+00;  1.0000000E+04; -2.1467092E-04;  0.0000000E+00;  2.8762017E-06;  3.7240434E-02;
 -1.2000000E-01;  9.9999998E-03;  2.2000000E-01;234;  0.0000000E+00;  0.0000000E+00;  0.0000000E+00;  1.0000001E+03;  4.0000001E-01;  9.8762624E-02;0;  0.0000000E+00;  0.0000000E+00;  0.0000000E+00;0; -1.9576363E-04;  1.0000000E+04;  0.0000000E+00;  0.0000000E+00;  1.0000000E+04;  0.0000000E+00;  1.0000000E+04; -1.9778410E-04;  0.0000000E+00;  2.0204736E-06;  2.9065991E-02;
 -1.2000000E-01;  9.9999998E-03;  2.3999999E-01;235;  0.0000000E+00;  0.0000000E+00;  0.0000000E+00;  1.0000001E+03;  4.0000001E-01;  9.8762624E-02;0;  0.0000000E+00;  0.0000000E+00;  0.0000000E+00;0; -1.7343341E-04;  1.0000000E+04;  0.0000000E+00;  0.0000000E+00;  1.0000000E+04;  0.0000000E+00;  1.0000000E+04; -1.7361048E-04;  0.0000000E+00;  1.7706557E-07;  1.2535951E-02;
 -1.2000000E-01;  9.9999998E-03;  2.5999999E-01;236;  0.0000000E+00;  0.0000000E+00;  0.0000000E+00;  1.0000001E+03;  4.0000001E-01;  9.8762624E-02;0;  0.0000000E+00;  0.0000000E+00;  0.0000000E+00;0; -1.4420343E-04;  1.0000000E+04;  0.0000000E+00;  0.0000000E+00;  1.0000000E+04;  0.0000000E+00;  1.0000000E+04; -1.4191656E-04;  0.0000000E+00; -2.2868571E-06;  9.4517041E-03;
 -1.2000000E-01;  9.9999998E-03;  2.8000000E-01;237;  0.0000000E+00;  0.0000000E+00;  0.0000000E+00;  1.0000000E+03;  4.0000001E-01;  0.0000000E+00;0;  0.0000000E+00;  0.0000000E+00;  0.0000000E+00;0; -1.0967912E-04;  1.0000000E+04;  0.0000000E+00;  0.0000000E+00;  1.0000000E+04;  0.0000000E+00;  1.0000000E+04; -1.0520476E-04;  0.0000000E+00; -4.4743651E-06;  2.9532207E-02;
 -1.2000000E-01;  9.9999998E-03;  3.0000001E-01;238;  0.0000000E+00;  0.0000000E+00;  0.0000000E+00;  1.0000000E+03;  4.0000001E-01;  0.0000000E+00;0;  0.0000000E+00;  0.0000000E+00;  0.0000000E+00;0; -7.4216761E-05;  1.0000000E+04;  0.0000000E+00;  0.0000000E+00;  1.0000000E+04;  0.0000000E+00;  1.0000000E+04; -6.8661990E-05;  0.0000000E+00; -5.5547735E-06;  4.0706728E-02;
 -1.2000000E-01;  9.9999998E-03;  3.1999999E-01;239;  0.0000000E+00;  0.0000000E+00;  0.0000000E+00;  1.0000000E+03;  4.0000001E-01;  0.0000000E+00;0;  0.0000000E+00;  0.0000000E+00;  0.0000000E+00;0; -4.3224609E-05;  1.0000000E+04;  0.0000000E+00;  0.0000000E+00;  1.0000000E+04;  0.0000000E+00;  1.0000000E+04; -3.8017086E-05;  0.0000000E+00; -5.2075211E-06;  3.9997593E-02;
 -1.0000000E-01;  9.9999998E-03;  1.6000000E-01;272;  0.0000000E+00;  0.0000000E+00;  0.0000000E+00;  1.0000006E+03;  4.0000001E-01;  4.9381313E-01;0;  0.0000000E+00;  0.0000000E+00;  0.0000000E+00;0; -7.3784380E-04;  1.0000000E+04;  0.0000000E+00;  0.0000000E+00;  1.0000000E+04;  0.0000000E+00;  1.0000000E+04; -7.4984966E-04;  0.0000000E+00;  1.2005850E-05;  1.4808321E-01;
 -1.0000000E-01;  9.9999998E-03;  1.8000001E-01;273;  0.0000000E+00;  0.0000000E+00;  0.0000000E+00;  1.0000006E+03;  4.0000001E-01;  4.9381313E-01;0;  0.0000000E+00;  0.0000000E+00;  0.0000000E+00;0; -7.1179308E-04;  1.0000000E+04;  0.0000000E+00;  0.0000000E+00;  1.0000000E+04;  0.0000000E+00;  1.0000000E+04; -7.2466664E-04;  0.0000000E+00;  1.2873576E-05;  1.5200388E-01;
 -1.0000000E-01;  9.9999998E-03;  2.0000000E-01;274;  0.0000000E+00;  0.0000000E+00;  0.0000000E+00;  1.0000006E+03;  4.0000001E-01;  4.9381313E-01;0;  0.0000000E+00;  0.0000000E+00;  0.0000000E+00;0; -6.7483482E-04;  1.0000000E+04;  0.0000000E+00;  0.0000000E+00;  1.0000000E+04;  0.0000000E+00;  1.0000000E+04; -6.8673928E-04;  0.0000000E+00;  1.1904451E-05;  1.4060520E-01;
 -1.0000000E-01;  9.9999998E-03;  2.2000000E-01;275;  0.0000000E+00;  0.0000000E+00;  0.0000000E+00;  1.0000006E+03;  4.0000001E-01;  4.9381313E-01;0;  0.0000000E+00;  0.0000000E+00;  0.0000000E+00;0; -6.2366750E-04;  1.0000000E+04;  0.0000000E+00;  0.0000000E+00;  1.0000000E+04;  0.0000000E+00;  1.0000000E+04; -6.3161086E-04;  0.0000000E+00;  7.9433457E-06;  1.0430686E-01;
 -1.0000000E-01;  9.9999998E-03;  2.3999999E-01;276;  0.0000000E+00;  0.0000000E+00;  0.0000000E+00;  1.0000005E+03;  4.0000001E-01;  3.9505050E-01;0;  0.0000000E+00;  0.0000000E+00;  0.0000000E+00;0; -5.5519555E-04;  1.0000000E+04;  0.0000000E+00;  0.0000000E+00;  1.0000000E+04;  0.0000000E+00;  1.0000000E+04; -5.5581244E-04;  0.0000000E+00;  6.1690787E-07;  3.9745219E-02;
 -1.0000000E-01;  9.9999998E-03;  2.5999999E-01;277;  0.0000000E+00;  0.0000000E+00;  0.0000000E+00;  1.0000004E+03;  4.0000001E-01;  3.9505050E-01;0;  0.0000000E+00;  0.0000000E+00;  0.0000000E+00;0; -4.6831180E-04;  1.0000000E+04;  0.0000000E+00;  0.0000000E+00;  1.0000000E+04;  0.0000000E+00;  1.0000000E+04; -4.5955612E-04;  0.0000000E+00; -8.7556909E-06;  4.2593602E-02;
 -1.0000000E-01;  9.9999998E-03;  2.8000000E-01;278;  0.0000000E+00;  0.0000000E+00;  0.0000000E+00;  1.0000003E+03;  4.0000001E-01;  2.9628786E-01;0;  0.0000000E+00;  0.0000000E+00;  0.0000000E+00;0; -3.6694194E-04;  1.0000000E+04;  0.0000000E+00;  0.0000000E+00;  1.0000000E+04;  0.0000000E+00;  1.0000000E+04; -3.4966020E-04;  0.0000000E+00; -1.7281742E-05;  1.1895110E-01;
 -1.0000000E-01;  9.9999998E-03;  3.0000001E-01;279;  0.0000000E+00;  0.0000000E+00;  0.0000000E+00;  1.0000002E+03;  4.0000001E-01;  1.9752525E-01;0;  0.0000000E+00;  0.0000000E+00;  0.0000000E+00;0; -2.6193366E-04;  1.0000000E+04;  0.0000000E+00;  0.0000000E+00;  1.0000000E+04;  0.0000000E+00;  1.0000000E+04; -2.3960944E-04;  0.0000000E+00; -2.2324230E-05;  1.6705422E-01;
 -1.0000000E-01;  9.9999998E-03;  3.1999999E-01;280;  0.0000000E+00;  0.0000000E+00;  0.0000000E+00;  1.0000001E+03;  4.0000001E-01;  9.8762624E-02;0;  0.0000000E+00;  0.0000000E+00;  0.0000000E+00;0; -1.6738835E-04;  1.0000000E+04;  0.0000000E+00;  0.0000000E+00;  1.0000000E+04;  0.0000000E+00;  1.0000000E+04; -1.4464762E-04;  0.0000000E+00; -2.2740729E-05;  1.7656283E-01;
 -7.9999998E-02;  9.9999998E-03;  1.6000000E-01;313;  0.0000000E+00;  0.0000000E+00;  0.0000000E+00;  1.0000017E+03;  4.0000001E-01;  1.3826767E+00;0;  0.0000000E+00;  0.0000000E+00;  0.0000000E+00;0; -1.7639595E-03;  1.0000000E+04;  0.0000000E+00;  0.0000000E+00;  1.0000000E+04;  0.0000000E+00;  1.0000000E+04; -1.8004222E-03;  0.0000000E+00;  3.6462690E-05;  4.1886011E-01;
 -7.9999998E-02;  9.9999998E-03;  1.8000001E-01;314;  0.0000000E+00;  0.0000000E+00;  0.0000000E+00;  1.0000016E+03;  4.0000001E-01;  1.2839141E+00;0;  0.0000000E+00;  0.0000000E+00;  0.0000000E+00;0; -1.7008804E-03;  1.0000000E+04;  0.0000000E+00;  0.0000000E+00;  1.0000000E+04;  0.0000000E+00;  1.0000000E+04; -1.7390639E-03;  0.0000000E+00;  3.8183567E-05;  4.2468104E-01;
 -7.9999998E-02;  9.9999998E-03;  2.0000000E-01;315;  0.0000000E+00;  0.0000000E+00;  0.0000000E+00;  1.0000015E+03;  4.0000001E-01;  1.2839141E+00;0;  0.0000000E+00;  0.0000000E+00;  0.0000000E+00;0; -1.6127754E-03;  1.0000000E+04;  0.0000000E+00;  0.0000000E+00;  1.0000000E+04;  0.0000000E+00;  1.0000000E+04; -1.6473619E-03;  0.0000000E+00;  3.4586479E-05;  3.8643181E-01;
 -7.9999998E-02;  9.9999998E-03;  2.2000000E-01;316;  0.0000000E+00;  0.0000000E+00;  0.0000000E+00;  1.0000014E+03;  4.0000001E-01;  1.1851515E+00;0;  0.0000000E+00;  0.0000000E+00;  0.0000000E+00;0; -1.4933740E-03;  1.0000000E+04;  0.0000000E+00;  0.0000000E+00;  1.0000000E+04;  0.0000000E+00;  1.0000000E+04; -1.5162433E-03;  0.0000000E+00;  2.2869348E-05;  2.8077427E-01;
 -7.9999998E-02;  9.9999998E-03;  2.3999999E-01;317;  0.0000000E+00;  0.0000000E+00;  0.0000000E+00;  1.0000013E+03;  4.0000001E-01;  1.0863888E+00;0;  0.0000000E+00;  0.0000000E+00;  0.0000000E+00;0; -1.3365794E-03;  1.0000000E+04;  0.0000000E+00;  0.0000000E+00;  1.0000000E+04;  0.0000000E+00;  1.0000000E+04; -1.3388421E-03;  0.0000000E+00;  2.2626211E-06;  1.0055800E-01;
 -7.9999998E-02;  9.9999998E-03;  2.5999999E-01;318;  0.0000000E+00;  0.0000000E+00;  0.0000000E+00;  1.0000011E+03;  4.0000001E-01;  8.8886362E-01;0;  0.0000000E+00;  0.0000000E+00;  0.0000000E+00;0; -1.1398075E-03;  1.0000000E+04;  0.0000000E+00;  0.0000000E+00;  1.0000000E+04;  0.0000000E+00;  1.0000000E+04; -1.1160914E-03;  0.0000000E+00; -2.3716157E-05;  1.2608953E-01;
 -7.9999998E-02;  9.9999998E-03;  2.8000000E-01;319;  0.0000000E+00;  0.0000000E+00;  0.0000000E+00;  1.0000009E+03;  4.0000001E-01;  6.9133836E-01;0;  0.0000000E+00;  0.0000000E+00;  0.0000000E+00;0; -9.1034331E-04;  1.0000000E+04;  0.0000000E+00;  0.0000000E+00;  1.0000000E+04;  0.0000000E+00;  1.0000000E+04; -8.6256000E-04;  0.0000000E+00; -4.7783291E-05;  3.3915347E-01;
 -7.9999998E-02;  9.9999998E-03;  3.0000001E-01;320;  0.0000000E+00;  0.0000000E+00;  0.0000000E+00;  1.0000006E+03;  4.0000001E-01;  4.9381313E-01;0;  0.0000000E+00;  0.0000000E+00;  0.0000000E+00;0; -6.7048386E-04;  1.0000000E+04;  0.0000000E+00;  0.0000000E+00;  1.0000000E+04;  0.0000000E+00;  1.0000000E+04; -6.0713832E-04;  0.0000000E+00; -6.3345513E-05;  4.8289996E-01;
 -7.9999998E-02;  9.9999998E-03;  3.1999999E-01;321;  0.0000000E+00;  0.0000000E+00;  0.0000000E+00;  1.0000004E+03;  4.0000001E-01;  3.9505050E-01;0;  0.0000000E+00;  0.0000000E+00;  0.0000000E+00;0; -4.5051341E-04;  1.0000000E+04;  0.0000000E+00;  0.0000000E+00;  1.0000000E+04;  0.0000000E+00;  1.0000000E+04; -3.8308962E-04;  0.0000000E+00; -6.7423804E-05;  5.3049123E-01;
 -5.9999999E-02;  9.9999998E-03;  1.6000000E-01;354;  0.0000000E+00;  0.0000000E+00;  0.0000000E+00;  1.0000034E+03;  4.0000001E-01;  2.8641162E+00;0;  0.0000000E+00;  0.0000000E+00;  0.0000000E+00;0; -3.4467722E-03;  1.0000000E+04;  0.0000000E+00;  0.0000000E+00;  1.0000000E+04;  0.0000000E+00;  1.0000000E+04; -3.5325754E-03;  0.0000000E+00;  8.5803185E-05;  9.4317907E-01;
 -5.9999999E-02;  9.9999998E-03;  1.8000001E-01;355;  0.0000000E+00;  0.0000000E+00;  0.0000000E+00;  1.0000032E+03;  4.0000001E-01;  2.6665909E+00;0;  0.0000000E+00;  0.0000000E+00;  0.0000000E+00;0; -3.3246018E-03;  1.0000000E+04;  0.0000000E+00;  0.0000000E+00;  1.0000000E+04;  0.0000000E+00;  1.0000000E+04; -3.4135149E-03;  0.0000000E+00;  8.8913250E-05;  9.5143420E-01;
 -5.9999999E-02;  9.9999998E-03;  2.0000000E-01;356;  0.0000000E+00;  0.0000000E+00;  0.0000000E+00;  1.0000031E+03;  4.0000001E-01;  2.5678282E+00;0;  0.0000000E+00;  0.0000000E+00;  0.0000000E+00;0; -3.1561002E-03;  1.0000000E+04;  0.0000000E+00;  0.0000000E+00;  1.0000000E+04;  0.0000000E+00;  1.0000000E+04; -3.2361196E-03;  0.0000000E+00;  8.0019374E-05;  8.6029828E-01;
 -5.9999999E-02;  9.9999998E-03;  2.2000000E-01;357;  0.0000000E+00;  0.0000000E+00;  0.0000000E+00;  1.0000029E+03;  4.0000001E-01;  2.4690657E+00;0;  0.0000000E+00;  0.0000000E+00;  0.0000000E+00;0; -2.9306444E-03;  1.0000000E+04;  0.0000000E+00;  0.0000000E+00;  1.0000000E+04;  0.0000000E+00;  1.0000000E+04; -2.9838108E-03;  0.0000000E+00;  5.3166517E-05;  6.1977571E-01;
 -5.9999999E-02;  9.9999998E-03;  2.3999999E-01;358;  0.0000000E+00;  0.0000000E+00;  0.0000000E+00;  1.0000026E+03;  4.0000001E-01;  2.1727777E+00;0;  0.0000000E+00;  0.0000000E+00;  0.0000000E+00;0; -2.6371863E-03;  1.0000000E+04;  0.0000000E+00;  0.0000000E+00;  1.0000000E+04;  0.0000000E+00;  1.0000000E+04; -2.6441042E-03;  0.0000000E+00;  6.9179023E-06;  2.1615748E-01;
 -5.9999999E-02;  9.9999998E-03;  2.5999999E-01;359;  0.0000000E+00;  0.0000000E+00;  0.0000000E+00;  1.0000022E+03;  4.0000001E-01;  1.7777272E+00;0;  0.0000000E+00;  0.0000000E+00;  0.0000000E+00;0; -2.2695654E-03;  1.0000000E+04;  0.0000000E+00;  0.0000000E+00;  1.0000000E+04;  0.0000000E+00;  1.0000000E+04; -2.2182295E-03;  0.0000000E+00; -5.1335908E-05;  2.9107282E-01;
 -5.9999999E-02;  9.9999998E-03;  2.8000000E-01;360;  0.0000000E+00;  0.0000000E+00;  0.0000000E+00;  1.0000018E+03;  4.0000001E-01;  1.4814394E+00;0;  0.0000000E+00;  0.0000000E+00;  0.0000000E+00;0; -1.8380971E-03;  1.0000000E+04;  0.0000000E+00;  0.0000000E+00;  1.0000000E+04;  0.0000000E+00;  1.0000000E+04; -1.7318097E-03;  0.0000000E+00; -1.0628738E-04;  7.7513623E-01;
 -5.9999999E-02;  9.9999998E-03;  3.0000001E-01;361;  0.0000000E+00;  0.0000000E+00;  0.0000000E+00;  1.0000014E+03;  4.0000001E-01;  1.1851515E+00;0;  0.0000000E+00;  0.0000000E+00;  0.0000000E+00;0; -1.3818622E-03;  1.0000000E+04;  0.0000000E+00;  0.0000000E+00;  1.0000000E+04;  0.0000000E+00;  1.0000000E+04; -1.2381615E-03;  0.0000000E+00; -1.4370076E-04;  1.1153915E+00;
 -5.9999999E-02;  9.9999998E-03;  3.1999999E-01;362;  0.0000000E+00;  0.0000000E+00;  0.0000000E+00;  1.0000009E+03;  4.0000001E-01;  6.9133836E-01;0;  0.0000000E+00;  0.0000000E+00;  0.0000000E+00;0; -9.5772097E-04;  1.0000000E+04;  0.0000000E+00;  0.0000000E+00;  1.0000000E+04;  0.0000000E+00;  1.0000000E+04; -8.0076372E-04;  0.0000000E+00; -1.5695723E-04;  1.2524194E+00;
 -3.9999999E-02;  9.9999998E-03;  1.6000000E-01;395;  0.0000000E+00;  0.0000000E+00;  0.0000000E+00;  1.0000057E+03;  4.0000001E-01;  4.7406058E+00;0;  0.0000000E+00;  0.0000000E+00;  0.0000000E+00;0; -5.7529514E-03;  1.0000000E+04;  0.0000000E+00;  0.0000000E+00;  1.0000000E+04;  0.0000000E+00;  1.0000000E+04; -5.9214453E-03;  0.0000000E+00;  1.6849383E-04;  1.7972904E+00;
 -3.9999999E-02;  9.9999998E-03;  1.8000001E-01;396;  0.0000000E+00;  0.0000000E+00;  0.0000000E+00;  1.0000054E+03;  4.0000001E-01;  4.5430808E+00;0;  0.0000000E+00;  0.0000000E+00;  0.0000000E+00;0; -5.5544260E-03;  1.0000000E+04;  0.0000000E+00;  0.0000000E+00;  1.0000000E+04;  0.0000000E+00;  1.0000000E+04; -5.7284366E-03;  0.0000000E+00;  1.7401043E-04;  1.8121171E+00;
 -3.9999999E-02;  9.9999998E-03;  2.0000000E-01;397;  0.0000000E+00;  0.0000000E+00;  0.0000000E+00;  1.0000052E+03;  4.0000001E-01;  4.3455553E+00;0;  0.0000000E+00;  0.0000000E+00;  0.0000000E+00;0; -5.2828528E-03;  1.0000000E+04;  0.0000000E+00;  0.0000000E+00;  1.0000000E+04;  0.0000000E+00;  1.0000000E+04; -5.4395054E-03;  0.0000000E+00;  1.5665275E-04;  1.6369046E+00;
 -3.9999999E-02;  9.9999998E-03;  2.2000000E-01;398;  0.0000000E+00;  0.0000000E+00;  0.0000000E+00;  1.0000048E+03;  4.0000001E-01;  3.9505050E+00;0;  0.0000000E+00;  0.0000000E+00;  0.0000000E+00;0; -4.9221264E-03;  1.0000000E+04;  0.0000000E+00;  0.0000000E+00;  1.0000000E+04;  0.0000000E+00;  1.0000000E+04; -5.0276448E-03;  0.0000000E+00;  1.0551855E-04;  1.1791682E+00;
 -3.9999999E-02;  9.9999998E-03;  2.3999999E-01;399;  0.0000000E+00;  0.0000000E+00;  0.0000000E+00;  1.0000043E+03;  4.0000001E-01;  3.5554545E+00;0;  0.0000000E+00;  0.0000000E+00;  0.0000000E+00;0; -4.4542640E-03;  1.0000000E+04;  0.0000000E+00;  0.0000000E+00;  1.0000000E+04;  0.0000000E+00;  1.0000000E+04; -4.4721020E-03;  0.0000000E+00;  1.7837885E-05;  4.1242990E-01;
 -3.9999999E-02;  9.9999998E-03;  2.5999999E-01;400;  0.0000000E+00;  0.0000000E+00;  0.0000000E+00;  1.0000038E+03;  4.0000001E-01;  3.1604040E+00;0;  0.0000000E+00;  0.0000000E+00;  0.0000000E+00;0; -3.8665084E-03;  1.0000000E+04;  0.0000000E+00;  0.0000000E+00;  1.0000000E+04;  0.0000000E+00;  1.0000000E+04; -3.7727996E-03;  0.0000000E+00; -9.3708695E-05;  5.6041753E-01;
 -3.9999999E-02;  9.9999998E-03;  2.8000000E-01;401;  0.0000000E+00;  0.0000000E+00;  0.0000000E+00;  1.0000031E+03;  4.0000001E-01;  2.5678282E+00;0;  0.0000000E+00;  0.0000000E+00;  0.0000000E+00;0; -3.1688605E-03;  1.0000000E+04;  0.0000000E+00;  0.0000000E+00;  1.0000000E+04;  0.0000000E+00;  1.0000000E+04; -2.9674729E-03;  0.0000000E+00; -2.0138749E-04;  1.5080415E+00;
 -3.9999999E-02;  9.9999998E-03;  3.0000001E-01;402;  0.0000000E+00;  0.0000000E+00;  0.0000000E+00;  1.0000024E+03;  4.0000001E-01;  1.9752525E+00;0;  0.0000000E+00;  0.0000000E+00;  0.0000000E+00;0; -2.4191332E-03;  1.0000000E+04;  0.0000000E+00;  0.0000000E+00;  1.0000000E+04;  0.0000000E+00;  1.0000000E+04; -2.1418277E-03;  0.0000000E+00; -2.7730543E-04;  2.1933587E+00;
 -3.9999999E-02;  9.9999998E-03;  3.1999999E-01;403;  0.0000000E+00;  0.0000000E+00;  0.0000000E+00;  1.0000016E+03;  4.0000001E-01;  1.2839141E+00;0;  0.0000000E+00;  0.0000000E+00;  0.0000000E+00;0; -1.7121126E-03;  1.0000000E+04;  0.0000000E+00;  0.0000000E+00;  1.0000000E+04;  0.0000000E+00;  1.0000000E+04; -1.4042829E-03;  0.0000000E+00; -3.0782967E-04;  2.4944425E+00;
 -2.0000000E-02;  9.9999998E-03;  1.6000000E-01;436;  0.0000000E+00;  0.0000000E+00;  0.0000000E+00;  1.0000084E+03;  4.0000001E-01;  7.0121465E+00;0;  0.0000000E+00;  0.0000000E+00;  0.0000000E+00;0; -8.4284991E-03;  1.0000000E+04;  0.0000000E+00;  0.0000000E+00;  1.0000000E+04;  0.0000000E+00;  1.0000000E+04; -8.7154927E-03;  0.0000000E+00;  2.8699313E-04;  3.0002115E+00;
 -2.0000000E-02;  9.9999998E-03;  1.8000001E-01;437;  0.0000000E+00;  0.0000000E+00;  0.0000000E+00;  1.0000082E+03;  4.0000001E-01;  6.8146210E+00;0;  0.0000000E+00;  0.0000000E+00;  0.0000000E+00;0; -8.1503028E-03;  1.0000000E+04;  0.0000000E+00;  0.0000000E+00;  1.0000000E+04;  0.0000000E+00;  1.0000000E+04; -8.4467959E-03;  0.0000000E+00;  2.9649262E-04;  3.0312486E+00;
 -2.0000000E-02;  9.9999998E-03;  2.0000000E-01;438;  0.0000000E+00;  0.0000000E+00;  0.0000000E+00;  1.0000077E+03;  4.0000001E-01;  6.4195704E+00;0;  0.0000000E+00;  0.0000000E+00;  0.0000000E+00;0; -7.7711404E-03;  1.0000000E+04;  0.0000000E+00;  0.0000000E+00;  1.0000000E+04;  0.0000000E+00;  1.0000000E+04; -8.0392901E-03;  0.0000000E+00;  2.6814948E-04;  2.7454834E+00;
 -2.0000000E-02;  9.9999998E-03;  2.2000000E-01;439;  0.0000000E+00;  0.0000000E+00;  0.0000000E+00;  1.0000073E+03;  4.0000001E-01;  6.0245199E+00;0;  0.0000000E+00;  0.0000000E+00;  0.0000000E+00;0; -7.2688400E-03;  1.0000000E+04;  0.0000000E+00;  0.0000000E+00;  1.0000000E+04;  0.0000000E+00;  1.0000000E+04; -7.4530812E-03;  0.0000000E+00;  1.8424141E-04;  1.9906044E+00;
 -2.0000000E-02;  9.9999998E-03;  2.3999999E-01;440;  0.0000000E+00;  0.0000000E+00;  0.0000000E+00;  1.0000066E+03;  4.0000001E-01;  5.4319444E+00;0;  0.0000000E+00;  0.0000000E+00;  0.0000000E+00;0; -6.6172956E-03;  1.0000000E+04;  0.0000000E+00;  0.0000000E+00;  1.0000000E+04;  0.0000000E+00;  1.0000000E+04; -6.6568288E-03;  0.0000000E+00;  3.9533428E-05;  7.1709627E-01;
 -2.0000000E-02;  9.9999998E-03;  2.5999999E-01;441;  0.0000000E+00;  0.0000000E+00;  0.0000000E+00;  1.0000058E+03;  4.0000001E-01;  4.8393683E+00;0;  0.0000000E+00;  0.0000000E+00;  0.0000000E+00;0; -5.7950802E-03;  1.0000000E+04;  0.0000000E+00;  0.0000000E+00;  1.0000000E+04;  0.0000000E+00;  1.0000000E+04; -5.6473603E-03;  0.0000000E+00; -1.4771977E-04;  9.2511845E-01;
 -2.0000000E-02;  9.9999998E-03;  2.8000000E-01;442;  0.0000000E+00;  0.0000000E+00;  0.0000000E+00;  1.0000047E+03;  4.0000001E-01;  3.8517423E+00;0;  0.0000000E+00;  0.0000000E+00;  0.0000000E+00;0; -4.8069577E-03;  1.0000000E+04;  0.0000000E+00;  0.0000000E+00;  1.0000000E+04;  0.0000000E+00;  1.0000000E+04; -4.4727074E-03;  0.0000000E+00; -3.3425048E-04;  2.5711553E+00;
 -2.0000000E-02;  9.9999998E-03;  3.0000001E-01;443;  0.0000000E+00;  0.0000000E+00;  0.0000000E+00;  1.0000038E+03;  4.0000001E-01;  3.1604040E+00;0;  0.0000000E+00;  0.0000000E+00;  0.0000000E+00;0; -3.7216030E-03;  1.0000000E+04;  0.0000000E+00;  0.0000000E+00;  1.0000000E+04;  0.0000000E+00;  1.0000000E+04; -3.2515707E-03;  0.0000000E+00; -4.7003219E-04;  3.7942107E+00;
 -2.0000000E-02;  9.9999998E-03;  3.1999999E-01;444;  0.0000000E+00;  0.0000000E+00;  0.0000000E+00;  1.0000027E+03;  4.0000001E-01;  2.2715404E+00;0;  0.0000000E+00;  0.0000000E+00;  0.0000000E+00;0; -2.6781664E-03;  1.0000000E+04;  0.0000000E+00;  0.0000000E+00;  1.0000000E+04;  0.0000000E+00;  1.0000000E+04; -2.1501463E-03;  0.0000000E+00; -5.2802009E-04;  4.3537316E+00;
  0.0000000E+00;  9.9999998E-03;  3.0000001E-01;455;  0.0000000E+00;  0.0000000E+00;  0.0000000E+00;  1.0000051E+03;  4.0000001E-01;  4.1480303E+00;0;  0.0000000E+00;  0.0000000E+00;  0.0000000E+00;0; -5.1472215E-03;  1.0000000E+04;  0.0000000E+00;  0.0000000E+00;  1.0000000E+04;  0.0000000E+00;  1.0000000E+04; -4.4382741E-03;  0.0000000E+00; -7.0894766E-04;  5.8556185E+00;
  0.0000000E+00;  9.9999998E-03;  3.1999999E-01;456;  0.0000000E+00;  0.0000000E+00;  0.0000000E+00;  1.0000038E+03;  4.0000001E-01;  3.1604040E+00;0;  0.0000000E+00;  0.0000000E+00;  0.0000000E+00;0; -3.7665584E-03;  1.0000000E+04;  0.0000000E+00;  0.0000000E+00;  1.0000000E+04;  0.0000000E+00;  1.0000000E+04; -2.9580232E-03;  0.0000000E+00; -8.0853509E-04;  6.8031125E+00;
  2.0000000E-02;  9.9999998E-03;  3.1999999E-01;466;  0.0000000E+00;  0.0000000E+00;  0.0000000E+00;  1.0000051E+03;  4.0000001E-01;  4.1480303E+00;0;  0.0000000E+00;  0.0000000E+00;  0.0000000E+00;0; -4.8818570E-03;  1.0000000E+04;  0.0000000E+00;  0.0000000E+00;  1.0000000E+04;  0.0000000E+00;  1.0000000E+04; -3.7617492E-03;  0.0000000E+00; -1.1201076E-03;  9.6574717E+00;
  3.9999999E-02;  9.9999998E-03;  3.1999999E-01;476;  0.0000000E+00;  0.0000000E+00;  0.0000000E+00;  1.0000063E+03;  4.0000001E-01;  5.2344189E+00;0;  0.0000000E+00;  0.0000000E+00;  0.0000000E+00;0; -6.0074427E-03;  1.0000000E+04;  0.0000000E+00;  0.0000000E+00;  1.0000000E+04;  0.0000000E+00;  1.0000000E+04; -4.5822714E-03;  0.0000000E+00; -1.4251713E-03;  1.2659822E+01;
  5.9999999E-02;  9.9999998E-03;  3.1999999E-01;486;  0.0000000E+00;  0.0000000E+00;  0.0000000E+00;  1.0000077E+03;  4.0000001E-01;  6.4195704E+00;0;  0.0000000E+00;  0.0000000E+00;  0.0000000E+00;0; -7.2299968E-03;  1.0000000E+04;  0.0000000E+00;  0.0000000E+00;  1.0000000E+04;  0.0000000E+00;  1.0000000E+04; -5.5207629E-03;  0.0000000E+00; -1.7092342E-03;  1.5734159E+01;
  7.9999998E-02;  9.9999998E-03;  3.1999999E-01;496;  0.0000000E+00;  0.0000000E+00;  0.0000000E+00;  1.0000096E+03;  4.0000001E-01;  7.9997725E+00;0;  0.0000000E+00;  0.0000000E+00;  0.0000000E+00;0; -8.7191351E-03;  1.0000000E+04;  0.0000000E+00;  0.0000000E+00;  1.0000000E+04;  0.0000000E+00;  1.0000000E+04; -6.7366143E-03;  0.0000000E+00; -1.9825213E-03;  1.9045977E+01;
  1.0000000E-01;  9.9999998E-03;  3.1999999E-01;506;  0.0000000E+00;  0.0000000E+00;  0.0000000E+00;  1.0000122E+03;  4.0000001E-01;  1.0073788E+01;0;  0.0000000E+00;  0.0000000E+00;  0.0000000E+00;0; -1.0759283E-02;  1.0000000E+04;  0.0000000E+00;  0.0000000E+00;  1.0000000E+04;  0.0000000E+00;  1.0000000E+04; -8.4790774E-03;  0.0000000E+00; -2.2802053E-03;  2.4398022E+01;
  1.2000000E-01;  9.9999998E-03;  3.1999999E-01;516;  0.0000000E+00;  0.0000000E+00;  0.0000000E+00;  1.0000160E+03;  4.0000001E-01;  1.3234192E+01;0;  0.0000000E+00;  0.0000000E+00;  0.0000000E+00;0; -1.3757421E-02;  1.0000000E+04;  0.0000000E+00;  0.0000000E+00;  1.0000000E+04;  0.0000000E+00;  1.0000000E+04; -1.1085477E-02;  0.0000000E+00; -2.6719444E-03;  4.4442745E+01;
  1.4000000E-01;  9.9999998E-03;  3.1999999E-01;526;  0.0000000E+00;  0.0000000E+00;  0.0000000E+00;  1.0000217E+03;  4.0000001E-01;  1.7974798E+01;0;  0.0000000E+00;  0.0000000E+00;  0.0000000E+00;0; -1.8251378E-02;  1.0000000E+04;  0.0000000E+00;  0.0000000E+00;  1.0000000E+04;  0.0000000E+00;  1.0000000E+04; -1.4970111E-02;  0.0000000E+00; -3.2812678E-03;  1.0980373E+02;
  1.6000000E-01;  9.9999998E-03;  3.1999999E-01;536;  0.0000000E+00;  0.0000000E+00;  0.0000000E+00;  1.0000303E+03;  4.0000001E-01;  2.5085707E+01;0;  0.0000000E+00;  0.0000000E+00;  0.0000000E+00;0; -2.4812963E-02;  1.0000000E+04;  0.0000000E+00;  0.0000000E+00;  1.0000000E+04;  0.0000000E+00;  1.0000000E+04; -2.0493038E-02;  0.0000000E+00; -4.3199244E-03;  2.6079660E+02;
  1.8000001E-01;  9.9999998E-03;  3.1999999E-01;546;  0.0000000E+00;  0.0000000E+00;  0.0000000E+00;  1.0000422E+03;  4.0000001E-01;  3.4961967E+01;0;  0.0000000E+00;  0.0000000E+00;  0.0000000E+00;0; -3.3713985E-02;  1.0000000E+04;  0.0000000E+00;  0.0000000E+00;  1.0000000E+04;  0.0000000E+00;  1.0000000E+04; -2.7577894E-02;  0.0000000E+00; -6.1360914E-03;  5.3281842E+02;
  2.0000000E-01;  9.9999998E-03;  3.1999999E-01;555;  0.0000000E+00;  0.0000000E+00;  0.0000000E+00;  1.0000572E+03;  4.0000001E-01;  4.7406059E+01;0;  0.0000000E+00;  0.0000000E+00;  0.0000000E+00;0; -4.4671506E-02;  1.0000000E+04;  0.0000000E+00;  0.0000000E+00;  1.0000000E+04;  0.0000000E+00;  1.0000000E+04; -3.5444796E-02;  0.0000000E+00; -9.2267096E-03;  8.9817944E+02;
 -2.2000000E-01;  9.9999998E-03;  3.4000000E-01;36;  0.0000000E+00;  0.0000000E+00;  0.0000000E+00;  1.0000000E+03;  4.0000001E-01;  0.0000000E+00;0;  0.0000000E+00;  0.0000000E+00;  0.0000000E+00;0;  0.0000000E+00;  1.0000000E+04;  0.0000000E+00;  0.0000000E+00;  1.0000000E+04;  0.0000000E+00;  1.0000000E+04;  0.0000000E+00;  0.0000000E+00;  0.0000000E+00;  0.0000000E+00;
 -2.2000000E-01;  9.9999998E-03;  3.6000001E-01;37;  0.0000000E+00;  0.0000000E+00;  0.0000000E+00;  1.0000000E+03;  4.0000001E-01;  0.0000000E+00;0;  0.0000000E+00;  0.0000000E+00;  0.0000000E+00;0;  0.0000000E+00;  1.0000000E+04;  0.0000000E+00;  0.0000000E+00;  1.0000000E+04;  0.0000000E+00;  1.0000000E+04;  0.0000000E+00;  0.0000000E+00;  0.0000000E+00;  0.0000000E+00;
 -2.2000000E-01;  9.9999998E-03;  3.8000000E-01;38;  0.0000000E+00;  0.0000000E+00;  0.0000000E+00;  1.0000000E+03;  4.0000001E-01;  0.0000000E+00;0;  0.0000000E+00;  0.0000000E+00;  0.0000000E+00;0;  0.0000000E+00;  1.0000000E+04;  0.0000000E+00;  0.0000000E+00;  1.0000000E+04;  0.0000000E+00;  1.0000000E+04;  0.0000000E+00;  0.0000000E+00;  0.0000000E+00;  0.0000000E+00;
 -2.0000000E-01;  9.9999998E-03;  3.4000000E-01;76;  0.0000000E+00;  0.0000000E+00;  0.0000000E+00;  1.0000000E+03;  4.0000001E-01;  0.0000000E+00;0;  0.0000000E+00;  0.0000000E+00;  0.0000000E+00;0;  0.0000000E+00;  1.0000000E+04;  0.0000000E+00;  0.0000000E+00;  1.0000000E+04;  0.0000000E+00;  1.0000000E+04;  0.0000000E+00;  0.0000000E+00;  0.0000000E+00;  0.0000000E+00;
 -2.0000000E-01;  9.9999998E-03;  3.6000001E-01;77;  0.0000000E+00;  0.0000000E+00;  0.0000000E+00;  1.0000000E+03;  4.0000001E-01;  0.0000000E+00;0;  0.0000000E+00;  0.0000000E+00;  0.0000000E+00;0;  0.0000000E+00;  1.0000000E+04;  0.0000000E+00;  0.0000000E+00;  1.0000000E+04;  0.0000000E+00;  1.0000000E+04;  0.0000000E+00;  0.0000000E+00;  0.0000000E+00;  0.0000000E+00;
 -2.0000000E-01;  9.9999998E-03;  3.8000000E-01;78;  0.0000000E+00;  0.0000000E+00;  0.0000000E+00;  1.0000000E+03;  4.0000001E-01;  0.0000000E+00;0;  0.0000000E+00;  0.0000000E+00;  0.0000000E+00;0;  0.0000000E+00;  1.0000000E+04;  0.0000000E+00;  0.0000000E+00;  1.0000000E+04;  0.0000000E+00;  1.0000000E+04;  0.0000000E+00;  0.0000000E+00;  0.0000000E+00;  0.0000000E+00;
 -2.0000000E-01;  9.9999998E-03;  4.0000001E-01;79;  0.0000000E+00;  0.0000000E+00;  0.0000000E+00;  1.0000000E+03;  4.0000001E-01;  0.0000000E+00;0;  0.0000000E+00;  0.0000000E+00;  0.0000000E+00;0;  0.0000000E+00;  1.0000000E+04;  0.0000000E+00;  0.0000000E+00;  1.0000000E+04;  0.0000000E+00;  1.0000000E+04;  0.0000000E+00;  0.0000000E+00;  0.0000000E+00;  0.0000000E+00;
 -1.8000001E-01;  9.9999998E-03;  3.4000000E-01;117;  0.0000000E+00;  0.0000000E+00;  0.0000000E+00;  1.0000000E+03;  4.0000001E-01;  0.0000000E+00;0;  0.0000000E+00;  0.0000000E+00;  0.0000000E+00;0;  0.0000000E+00;  1.0000000E+04;  0.0000000E+00;  0.0000000E+00;  1.0000000E+04;  0.0000000E+00;  1.0000000E+04;  0.0000000E+00;  0.0000000E+00;  0.0000000E+00;  0.0000000E+00;
 -1.8000001E-01;  9.9999998E-03;  3.6000001E-01;118;  0.0000000E+00;  0.0000000E+00;  0.0000000E+00;  1.0000000E+03;  4.0000001E-01;  0.0000000E+00;0;  0.0000000E+00;  0.0000000E+00;  0.0000000E+00;0;  0.0000000E+00;  1.0000000E+04;  0.0000000E+00;  0.0000000E+00;  1.0000000E+04;  0.0000000E+00;  1.0000000E+04;  0.0000000E+00;  0.0000000E+00;  0.0000000E+00;  0.0000000E+00;
 -1.8000001E-01;  9.9999998E-03;  3.8000000E-01;119;  0.0000000E+00;  0.0000000E+00;  0.0000000E+00;  1.0000000E+03;  4.0000001E-01;  0.0000000E+00;0;  0.0000000E+00;  0.0000000E+00;  0.0000000E+00;0;  0.0000000E+00;  1.0000000E+04;  0.0000000E+00;  0.0000000E+00;  1.0000000E+04;  0.0000000E+00;  1.0000000E+04;  0.0000000E+00;  0.0000000E+00;  0.0000000E+00;  0.0000000E+00;
 -1.8000001E-01;  9.9999998E-03;  4.0000001E-01;120;  0.0000000E+00;  0.0000000E+00;  0.0000000E+00;  1.0000000E+03;  4.0000001E-01;  0.0000000E+00;0;  0.0000000E+00;  0.0000000E+00;  0.0000000E+00;0;  0.0000000E+00;  1.0000000E+04;  0.0000000E+00;  0.0000000E+00;  1.0000000E+04;  0.0000000E+00;  1.0000000E+04;  0.0000000E+00;  0.0000000E+00;  0.0000000E+00;  0.0000000E+00;
 -1.6000000E-01;  9.9999998E-03;  3.4000000E-01;158;  0.0000000E+00;  0.0000000E+00;  0.0000000E+00;  1.0000000E+03;  4.0000001E-01;  0.0000000E+00;0;  0.0000000E+00;  0.0000000E+00;  0.0000000E+00;0;  0.0000000E+00;  1.0000000E+04;  0.0000000E+00;  0.0000000E+00;  1.0000000E+04;  0.0000000E+00;  1.0000000E+04;  0.0000000E+00;  0.0000000E+00;  0.0000000E+00;  0.0000000E+00;
 -1.6000000E-01;  9.9999998E-03;  3.6000001E-01;159;  0.0000000E+00;  0.0000000E+00;  0.0000000E+00;  1.0000000E+03;  4.0000001E-01;  0.0000000E+00;0;  0.0000000E+00;  0.0000000E+00;  0.0000000E+00;0;  0.0000000E+00;  1.0000000E+04;  0.0000000E+00;  0.0000000E+00;  1.0000000E+04;  0.0000000E+00;  1.0000000E+04;  0.0000000E+00;  0.0000000E+00;  0.0000000E+00;  0.0000000E+00;
 -1.6000000E-01;  9.9999998E-03;  3.8000000E-01;160;  0.0000000E+00;  0.0000000E+00;  0.0000000E+00;  1.0000000E+03;  4.0000001E-01;  0.0000000E+00;0;  0.0000000E+00;  0.0000000E+00;  0.0000000E+00;0;  0.0000000E+00;  1.0000000E+04;  0.0000000E+00;  0.0000000E+00;  1.0000000E+04;  0.0000000E+00;  1.0000000E+04;  0.0000000E+00;  0.0000000E+00;  0.0000000E+00;  0.0000000E+00;
 -1.6000000E-01;  9.9999998E-03;  4.0000001E-01;161;  0.0000000E+00;  0.0000000E+00;  0.0000000E+00;  1.0000000E+03;  4.0000001E-01;  0.0000000E+00;0;  0.0000000E+00;  0.0000000E+00;  0.0000000E+00;0;  0.0000000E+00;  1.0000000E+04;  0.0000000E+00;  0.0000000E+00;  1.0000000E+04;  0.0000000E+00;  1.0000000E+04;  0.0000000E+00;  0.0000000E+00;  0.0000000E+00;  0.0000000E+00;
 -1.4000000E-01;  9.9999998E-03;  3.4000000E-01;199;  0.0000000E+00;  0.0000000E+00;  0.0000000E+00;  1.0000000E+03;  4.0000001E-01;  0.0000000E+00;0;  0.0000000E+00;  0.0000000E+00;  0.0000000E+00;0; -1.6506841E-06;  1.0000000E+04;  0.0000000E+00;  0.0000000E+00;  1.0000000E+04;  0.0000000E+00;  1.0000000E+04; -1.3953872E-06;  0.0000000E+00; -2.5529684E-07;  1.9823399E-03;
 -1.4000000E-01;  9.9999998E-03;  3.6000001E-01;200;  0.0000000E+00;  0.0000000E+00;  0.0000000E+00;  1.0000000E+03;  4.0000001E-01;  0.0000000E+00;0;  0.0000000E+00;  0.0000000E+00;  0.0000000E+00;0; -1.9177050E-07;  1.0000000E+04;  0.0000000E+00;  0.0000000E+00;  1.0000000E+04;  0.0000000E+00;  1.0000000E+04; -1.5144231E-07;  0.0000000E+00; -4.0328185E-08;  3.1779933E-04;
 -1.4000000E-01;  9.9999998E-03;  3.8000000E-01;201;  0.0000000E+00;  0.0000000E+00;  0.0000000E+00;  1.0000000E+03;  4.0000001E-01;  0.0000000E+00;0;  0.0000000E+00;  0.0000000E+00;  0.0000000E+00;0;  0.0000000E+00;  1.0000000E+04;  0.0000000E+00;  0.0000000E+00;  1.0000000E+04;  0.0000000E+00;  1.0000000E+04;  0.0000000E+00;  0.0000000E+00;  0.0000000E+00;  0.0000000E+00;
 -1.4000000E-01;  9.9999998E-03;  4.0000001E-01;202;  0.0000000E+00;  0.0000000E+00;  0.0000000E+00;  1.0000000E+03;  4.0000001E-01;  0.0000000E+00;0;  0.0000000E+00;  0.0000000E+00;  0.0000000E+00;0;  0.0000000E+00;  1.0000000E+04;  0.0000000E+00;  0.0000000E+00;  1.0000000E+04;  0.0000000E+00;  1.0000000E+04;  0.0000000E+00;  0.0000000E+00;  0.0000000E+00;  0.0000000E+00;
 -1.2000000E-01;  9.9999998E-03;  3.4000000E-01;240;  0.0000000E+00;  0.0000000E+00;  0.0000000E+00;  1.0000000E+03;  4.0000001E-01;  0.0000000E+00;0;  0.0000000E+00;  0.0000000E+00;  0.0000000E+00;0; -2.0464868E-05;  1.0000000E+04;  0.0000000E+00;  0.0000000E+00;  1.0000000E+04;  0.0000000E+00;  1.0000000E+04; -1.6800421E-05;  0.0000000E+00; -3.6644469E-06;  2.8818231E-02;
 -1.2000000E-01;  9.9999998E-03;  3.6000001E-01;241;  0.0000000E+00;  0.0000000E+00;  0.0000000E+00;  1.0000000E+03;  4.0000001E-01;  0.0000000E+00;0;  0.0000000E+00;  0.0000000E+00;  0.0000000E+00;0; -6.8459817E-06;  1.0000000E+04;  0.0000000E+00;  0.0000000E+00;  1.0000000E+04;  0.0000000E+00;  1.0000000E+04; -5.1770703E-06;  0.0000000E+00; -1.6689114E-06;  1.3235463E-02;
 -1.2000000E-01;  9.9999998E-03;  3.8000000E-01;242;  0.0000000E+00;  0.0000000E+00;  0.0000000E+00;  1.0000000E+03;  4.0000001E-01;  0.0000000E+00;0;  0.0000000E+00;  0.0000000E+00;  0.0000000E+00;0; -1.0139001E-06;  1.0000000E+04;  0.0000000E+00;  0.0000000E+00;  1.0000000E+04;  0.0000000E+00;  1.0000000E+04; -7.1834296E-07;  0.0000000E+00; -2.9555713E-07;  2.3561127E-03;
 -1.2000000E-01;  9.9999998E-03;  4.0000001E-01;243;  0.0000000E+00;  0.0000000E+00;  0.0000000E+00;  1.0000000E+03;  4.0000001E-01;  0.0000000E+00;0;  0.0000000E+00;  0.0000000E+00;  0.0000000E+00;0; -5.8632153E-21;  1.0000000E+04;  0.0000000E+00;  0.0000000E+00;  1.0000000E+04;  0.0000000E+00;  1.0000000E+04; -4.1337414E-21;  0.0000000E+00; -1.7294737E-21;  2.4670213E-18;
 -1.0000000E-01;  9.9999998E-03;  3.4000000E-01;281;  0.0000000E+00;  0.0000000E+00;  0.0000000E+00;  1.0000000E+03;  4.0000001E-01;  0.0000000E+00;0;  0.0000000E+00;  0.0000000E+00;  0.0000000E+00;0; -9.3375813E-05;  1.0000000E+04;  0.0000000E+00;  0.0000000E+00;  1.0000000E+04;  0.0000000E+00;  1.0000000E+04; -7.4646676E-05;  0.0000000E+00; -1.8729139E-05;  1.4832669E-01;
 -1.0000000E-01;  9.9999998E-03;  3.6000001E-01;282;  0.0000000E+00;  0.0000000E+00;  0.0000000E+00;  1.0000000E+03;  4.0000001E-01;  0.0000000E+00;0;  0.0000000E+00;  0.0000000E+00;  0.0000000E+00;0; -4.2746717E-05;  1.0000000E+04;  0.0000000E+00;  0.0000000E+00;  1.0000000E+04;  0.0000000E+00;  1.0000000E+04; -3.1104049E-05;  0.0000000E+00; -1.1642665E-05;  9.3136892E-02;
 -1.0000000E-01;  9.9999998E-03;  3.8000000E-01;283;  0.0000000E+00;  0.0000000E+00;  0.0000000E+00;  1.0000000E+03;  4.0000001E-01;  0.0000000E+00;0;  0.0000000E+00;  0.0000000E+00;  0.0000000E+00;0; -1.3579487E-05;  1.0000000E+04;  0.0000000E+00;  0.0000000E+00;  1.0000000E+04;  0.0000000E+00;  1.0000000E+04; -9.1274214E-06;  0.0000000E+00; -4.4520657E-06;  3.5733517E-02;
 -1.0000000E-01;  9.9999998E-03;  4.0000001E-01;284;  0.0000000E+00;  0.0000000E+00;  0.0000000E+00;  1.0000000E+03;  4.0000001E-01;  0.0000000E+00;0;  0.0000000E+00;  0.0000000E+00;  0.0000000E+00;0; -1.8694784E-06;  1.0000000E+04;  0.0000000E+00;  0.0000000E+00;  1.0000000E+04;  0.0000000E+00;  1.0000000E+04; -1.2416380E-06;  0.0000000E+00; -6.2784045E-07;  5.0426791E-03;
 -7.9999998E-02;  9.9999998E-03;  3.4000000E-01;322;  0.0000000E+00;  0.0000000E+00;  0.0000000E+00;  1.0000002E+03;  4.0000001E-01;  1.9752525E-01;0;  0.0000000E+00;  0.0000000E+00;  0.0000000E+00;0; -2.7291145E-04;  1.0000000E+04;  0.0000000E+00;  0.0000000E+00;  1.0000000E+04;  0.0000000E+00;  1.0000000E+04; -2.1296267E-04;  0.0000000E+00; -5.9948790E-05;  4.7959837E-01;
 -7.9999998E-02;  9.9999998E-03;  3.6000001E-01;323;  0.0000000E+00;  0.0000000E+00;  0.0000000E+00;  1.0000001E+03;  4.0000001E-01;  9.8762624E-02;0;  0.0000000E+00;  0.0000000E+00;  0.0000000E+00;0; -1.4400022E-04;  1.0000000E+04;  0.0000000E+00;  0.0000000E+00;  1.0000000E+04;  0.0000000E+00;  1.0000000E+04; -1.0123468E-04;  0.0000000E+00; -4.2765547E-05;  3.4506136E-01;
 -7.9999998E-02;  9.9999998E-03;  3.8000000E-01;324;  0.0000000E+00;  0.0000000E+00;  0.0000000E+00;  1.0000000E+03;  4.0000001E-01;  0.0000000E+00;0;  0.0000000E+00;  0.0000000E+00;  0.0000000E+00;0; -5.9928774E-05;  1.0000000E+04;  0.0000000E+00;  0.0000000E+00;  1.0000000E+04;  0.0000000E+00;  1.0000000E+04; -3.8504168E-05;  0.0000000E+00; -2.1424607E-05;  1.7338425E-01;
 -7.9999998E-02;  9.9999998E-03;  4.0000001E-01;325;  0.0000000E+00;  0.0000000E+00;  0.0000000E+00;  1.0000000E+03;  4.0000001E-01;  0.0000000E+00;0;  0.0000000E+00;  0.0000000E+00;  0.0000000E+00;0; -1.5789379E-05;  1.0000000E+04;  0.0000000E+00;  0.0000000E+00;  1.0000000E+04;  0.0000000E+00;  1.0000000E+04; -9.9126910E-06;  0.0000000E+00; -5.8766886E-06;  4.7512744E-02;
 -5.9999999E-02;  9.9999998E-03;  3.4000000E-01;363;  0.0000000E+00;  0.0000000E+00;  0.0000000E+00;  1.0000006E+03;  4.0000001E-01;  4.9381313E-01;0;  0.0000000E+00;  0.0000000E+00;  0.0000000E+00;0; -6.0890528E-04;  1.0000000E+04;  0.0000000E+00;  0.0000000E+00;  1.0000000E+04;  0.0000000E+00;  1.0000000E+04; -4.6341555E-04;  0.0000000E+00; -1.4548974E-04;  1.1778562E+00;
 -5.9999999E-02;  9.9999998E-03;  3.6000001E-01;364;  0.0000000E+00;  0.0000000E+00;  0.0000000E+00;  1.0000003E+03;  4.0000001E-01;  2.9628786E-01;0;  0.0000000E+00;  0.0000000E+00;  0.0000000E+00;0; -3.4737799E-04;  1.0000000E+04;  0.0000000E+00;  0.0000000E+00;  1.0000000E+04;  0.0000000E+00;  1.0000000E+04; -2.3584288E-04;  0.0000000E+00; -1.1153512E-04;  9.0945691E-01;
 -5.9999999E-02;  9.9999998E-03;  3.8000000E-01;365;  0.0000000E+00;  0.0000000E+00;  0.0000000E+00;  1.0000001E+03;  4.0000001E-01;  9.8762624E-02;0;  0.0000000E+00;  0.0000000E+00;  0.0000000E+00;0; -1.6524256E-04;  1.0000000E+04;  0.0000000E+00;  0.0000000E+00;  1.0000000E+04;  0.0000000E+00;  1.0000000E+04; -1.0152307E-04;  0.0000000E+00; -6.3719483E-05;  5.2062774E-01;
 -5.9999999E-02;  9.9999998E-03;  4.0000001E-01;366;  0.0000000E+00;  0.0000000E+00;  0.0000000E+00;  1.0000000E+03;  4.0000001E-01;  0.0000000E+00;0;  0.0000000E+00;  0.0000000E+00;  0.0000000E+00;0; -5.6520192E-05;  1.0000000E+04;  0.0000000E+00;  0.0000000E+00;  1.0000000E+04;  0.0000000E+00;  1.0000000E+04; -3.3674085E-05;  0.0000000E+00; -2.2846107E-05;  1.8632010E-01;
 -3.9999999E-02;  9.9999998E-03;  3.4000000E-01;404;  0.0000000E+00;  0.0000000E+00;  0.0000000E+00;  1.0000011E+03;  4.0000001E-01;  8.8886362E-01;0;  0.0000000E+00;  0.0000000E+00;  0.0000000E+00;0; -1.1228428E-03;  1.0000000E+04;  0.0000000E+00;  0.0000000E+00;  1.0000000E+04;  0.0000000E+00;  1.0000000E+04; -8.3080574E-04;  0.0000000E+00; -2.9203697E-04;  2.3965206E+00;
 -3.9999999E-02;  9.9999998E-03;  3.6000001E-01;405;  0.0000000E+00;  0.0000000E+00;  0.0000000E+00;  1.0000006E+03;  4.0000001E-01;  4.9381313E-01;0;  0.0000000E+00;  0.0000000E+00;  0.0000000E+00;0; -6.7184167E-04;  1.0000000E+04;  0.0000000E+00;  0.0000000E+00;  1.0000000E+04;  0.0000000E+00;  1.0000000E+04; -4.3885162E-04;  0.0000000E+00; -2.3299006E-04;  1.9234362E+00;
 -3.9999999E-02;  9.9999998E-03;  3.8000000E-01;406;  0.0000000E+00;  0.0000000E+00;  0.0000000E+00;  1.0000002E+03;  4.0000001E-01;  1.9752525E-01;0;  0.0000000E+00;  0.0000000E+00;  0.0000000E+00;0; -3.4469774E-04;  1.0000000E+04;  0.0000000E+00;  0.0000000E+00;  1.0000000E+04;  0.0000000E+00;  1.0000000E+04; -2.0169299E-04;  0.0000000E+00; -1.4300476E-04;  1.1819342E+00;
 -3.9999999E-02;  9.9999998E-03;  4.0000001E-01;407;  0.0000000E+00;  0.0000000E+00;  0.0000000E+00;  1.0000001E+03;  4.0000001E-01;  9.8762624E-02;0;  0.0000000E+00;  0.0000000E+00;  0.0000000E+00;0; -1.3453040E-04;  1.0000000E+04;  0.0000000E+00;  0.0000000E+00;  1.0000000E+04;  0.0000000E+00;  1.0000000E+04; -7.5751675E-05;  0.0000000E+00; -5.8778725E-05;  4.8450702E-01;
 -2.0000000E-02;  9.9999998E-03;  3.4000000E-01;445;  0.0000000E+00;  0.0000000E+00;  0.0000000E+00;  1.0000018E+03;  4.0000001E-01;  1.4814394E+00;0;  0.0000000E+00;  0.0000000E+00;  0.0000000E+00;0; -1.7951203E-03;  1.0000000E+04;  0.0000000E+00;  0.0000000E+00;  1.0000000E+04;  0.0000000E+00;  1.0000000E+04; -1.2875746E-03;  0.0000000E+00; -5.0754566E-04;  4.2312732E+00;
 -2.0000000E-02;  9.9999998E-03;  3.6000001E-01;446;  0.0000000E+00;  0.0000000E+00;  0.0000000E+00;  1.0000011E+03;  4.0000001E-01;  8.8886362E-01;0;  0.0000000E+00;  0.0000000E+00;  0.0000000E+00;0; -1.1077512E-03;  1.0000000E+04;  0.0000000E+00;  0.0000000E+00;  1.0000000E+04;  0.0000000E+00;  1.0000000E+04; -6.9372891E-04;  0.0000000E+00; -4.1402219E-04;  3.4687810E+00;
 -2.0000000E-02;  9.9999998E-03;  3.8000000E-01;447;  0.0000000E+00;  0.0000000E+00;  0.0000000E+00;  1.0000006E+03;  4.0000001E-01;  4.9381313E-01;0;  0.0000000E+00;  0.0000000E+00;  0.0000000E+00;0; -5.9472094E-04;  1.0000000E+04;  0.0000000E+00;  0.0000000E+00;  1.0000000E+04;  0.0000000E+00;  1.0000000E+04; -3.2997233E-04;  0.0000000E+00; -2.6474861E-04;  2.2189465E+00;
 -2.0000000E-02;  9.9999998E-03;  4.0000001E-01;448;  0.0000000E+00;  0.0000000E+00;  0.0000000E+00;  1.0000002E+03;  4.0000001E-01;  1.9752525E-01;0;  0.0000000E+00;  0.0000000E+00;  0.0000000E+00;0; -2.4948339E-04;  1.0000000E+04;  0.0000000E+00;  0.0000000E+00;  1.0000000E+04;  0.0000000E+00;  1.0000000E+04; -1.3199999E-04;  0.0000000E+00; -1.1748341E-04;  9.8128086E-01;
  0.0000000E+00;  9.9999998E-03;  3.4000000E-01;457;  0.0000000E+00;  0.0000000E+00;  0.0000000E+00;  1.0000026E+03;  4.0000001E-01;  2.1727777E+00;0;  0.0000000E+00;  0.0000000E+00;  0.0000000E+00;0; -2.5683730E-03;  1.0000000E+04;  0.0000000E+00;  0.0000000E+00;  1.0000000E+04;  0.0000000E+00;  1.0000000E+04; -1.7844272E-03;  0.0000000E+00; -7.8394584E-04;  6.6599441E+00;
  0.0000000E+00;  9.9999998E-03;  3.6000001E-01;458;  0.0000000E+00;  0.0000000E+00;  0.0000000E+00;  1.0000016E+03;  4.0000001E-01;  1.2839141E+00;0;  0.0000000E+00;  0.0000000E+00;  0.0000000E+00;0; -1.6190987E-03;  1.0000000E+04;  0.0000000E+00;  0.0000000E+00;  1.0000000E+04;  0.0000000E+00;  1.0000000E+04; -9.7138091E-04;  0.0000000E+00; -6.4771774E-04;  5.5251622E+00;
  0.0000000E+00;  9.9999998E-03;  3.8000000E-01;459;  0.0000000E+00;  0.0000000E+00;  0.0000000E+00;  1.0000009E+03;  4.0000001E-01;  6.9133836E-01;0;  0.0000000E+00;  0.0000000E+00;  0.0000000E+00;0; -8.9399132E-04;  1.0000000E+04;  0.0000000E+00;  0.0000000E+00;  1.0000000E+04;  0.0000000E+00;  1.0000000E+04; -4.6970544E-04;  0.0000000E+00; -4.2428588E-04;  3.6179504E+00;
  0.0000000E+00;  9.9999998E-03;  4.0000001E-01;460;  0.0000000E+00;  0.0000000E+00;  0.0000000E+00;  1.0000004E+03;  4.0000001E-01;  2.9628786E-01;0;  0.0000000E+00;  0.0000000E+00;  0.0000000E+00;0; -3.9020827E-04;  1.0000000E+04;  0.0000000E+00;  0.0000000E+00;  1.0000000E+04;  0.0000000E+00;  1.0000000E+04; -1.9336295E-04;  0.0000000E+00; -1.9684531E-04;  1.6714993E+00;
  2.0000000E-02;  9.9999998E-03;  3.4000000E-01;467;  0.0000000E+00;  0.0000000E+00;  0.0000000E+00;  1.0000035E+03;  4.0000001E-01;  2.9628787E+00;0;  0.0000000E+00;  0.0000000E+00;  0.0000000E+00;0; -3.3780346E-03;  1.0000000E+04;  0.0000000E+00;  0.0000000E+00;  1.0000000E+04;  0.0000000E+00;  1.0000000E+04; -2.2828362E-03;  0.0000000E+00; -1.0951984E-03;  9.5212889E+00;
  2.0000000E-02;  9.9999998E-03;  3.6000001E-01;468;  0.0000000E+00;  0.0000000E+00;  0.0000000E+00;  1.0000021E+03;  4.0000001E-01;  1.7777272E+00;0;  0.0000000E+00;  0.0000000E+00;  0.0000000E+00;0; -2.1630095E-03;  1.0000000E+04;  0.0000000E+00;  0.0000000E+00;  1.0000000E+04;  0.0000000E+00;  1.0000000E+04; -1.2495526E-03;  0.0000000E+00; -9.1345684E-04;  7.9669008E+00;
  2.0000000E-02;  9.9999998E-03;  3.8000000E-01;469;  0.0000000E+00;  0.0000000E+00;  0.0000000E+00;  1.0000012E+03;  4.0000001E-01;  9.8762625E-01;0;  0.0000000E+00;  0.0000000E+00;  0.0000000E+00;0; -1.2154006E-03;  1.0000000E+04;  0.0000000E+00;  0.0000000E+00;  1.0000000E+04;  0.0000000E+00;  1.0000000E+04; -6.0781877E-04;  0.0000000E+00; -6.0758193E-04;  5.2933373E+00;
  2.0000000E-02;  9.9999998E-03;  4.0000001E-01;470;  0.0000000E+00;  0.0000000E+00;  0.0000000E+00;  1.0000005E+03;  4.0000001E-01;  3.9505050E-01;0;  0.0000000E+00;  0.0000000E+00;  0.0000000E+00;0; -5.4150703E-04;  1.0000000E+04;  0.0000000E+00;  0.0000000E+00;  1.0000000E+04;  0.0000000E+00;  1.0000000E+04; -2.5219290E-04;  0.0000000E+00; -2.8931416E-04;  2.5080783E+00;
  3.9999999E-02;  9.9999998E-03;  3.4000000E-01;477;  0.0000000E+00;  0.0000000E+00;  0.0000000E+00;  1.0000043E+03;  4.0000001E-01;  3.5554545E+00;0;  0.0000000E+00;  0.0000000E+00;  0.0000000E+00;0; -4.2019030E-03;  1.0000000E+04;  0.0000000E+00;  0.0000000E+00;  1.0000000E+04;  0.0000000E+00;  1.0000000E+04; -2.7924948E-03;  0.0000000E+00; -1.4094083E-03;  1.2605902E+01;
  3.9999999E-02;  9.9999998E-03;  3.6000001E-01;478;  0.0000000E+00;  0.0000000E+00;  0.0000000E+00;  1.0000028E+03;  4.0000001E-01;  2.3703029E+00;0;  0.0000000E+00;  0.0000000E+00;  0.0000000E+00;0; -2.7190084E-03;  1.0000000E+04;  0.0000000E+00;  0.0000000E+00;  1.0000000E+04;  0.0000000E+00;  1.0000000E+04; -1.5322495E-03;  0.0000000E+00; -1.1867590E-03;  1.0638008E+01;
  3.9999999E-02;  9.9999998E-03;  3.8000000E-01;479;  0.0000000E+00;  0.0000000E+00;  0.0000000E+00;  1.0000016E+03;  4.0000001E-01;  1.2839141E+00;0;  0.0000000E+00;  0.0000000E+00;  0.0000000E+00;0; -1.5434215E-03;  1.0000000E+04;  0.0000000E+00;  0.0000000E+00;  1.0000000E+04;  0.0000000E+00;  1.0000000E+04; -7.4533885E-04;  0.0000000E+00; -7.9808268E-04;  7.1400847E+00;
  3.9999999E-02;  9.9999998E-03;  4.0000001E-01;480;  0.0000000E+00;  0.0000000E+00;  0.0000000E+00;  1.0000007E+03;  4.0000001E-01;  5.9257573E-01;0;  0.0000000E+00;  0.0000000E+00;  0.0000000E+00;0; -6.9388328E-04;  1.0000000E+04;  0.0000000E+00;  0.0000000E+00;  1.0000000E+04;  0.0000000E+00;  1.0000000E+04; -3.0810462E-04;  0.0000000E+00; -3.8577869E-04;  3.4316254E+00;
  5.9999999E-02;  9.9999998E-03;  3.4000000E-01;487;  0.0000000E+00;  0.0000000E+00;  0.0000000E+00;  1.0000055E+03;  4.0000001E-01;  4.5430808E+00;0;  0.0000000E+00;  0.0000000E+00;  0.0000000E+00;0; -5.0846543E-03;  1.0000000E+04;  0.0000000E+00;  0.0000000E+00;  1.0000000E+04;  0.0000000E+00;  1.0000000E+04; -3.3743733E-03;  0.0000000E+00; -1.7102808E-03;  1.5829193E+01;
  5.9999999E-02;  9.9999998E-03;  3.6000001E-01;488;  0.0000000E+00;  0.0000000E+00;  0.0000000E+00;  1.0000035E+03;  4.0000001E-01;  2.9628787E+00;0;  0.0000000E+00;  0.0000000E+00;  0.0000000E+00;0; -3.3082955E-03;  1.0000000E+04;  0.0000000E+00;  0.0000000E+00;  1.0000000E+04;  0.0000000E+00;  1.0000000E+04; -1.8546979E-03;  0.0000000E+00; -1.4535976E-03;  1.3468216E+01;
  5.9999999E-02;  9.9999998E-03;  3.8000000E-01;489;  0.0000000E+00;  0.0000000E+00;  0.0000000E+00;  1.0000020E+03;  4.0000001E-01;  1.6789646E+00;0;  0.0000000E+00;  0.0000000E+00;  0.0000000E+00;0; -1.8870202E-03;  1.0000000E+04;  0.0000000E+00;  0.0000000E+00;  1.0000000E+04;  0.0000000E+00;  1.0000000E+04; -9.0126437E-04;  0.0000000E+00; -9.8575582E-04;  9.1067438E+00;
  5.9999999E-02;  9.9999998E-03;  4.0000001E-01;490;  0.0000000E+00;  0.0000000E+00;  0.0000000E+00;  1.0000009E+03;  4.0000001E-01;  6.9133836E-01;0;  0.0000000E+00;  0.0000000E+00;  0.0000000E+00;0; -8.5080368E-04;  1.0000000E+04;  0.0000000E+00;  0.0000000E+00;  1.0000000E+04;  0.0000000E+00;  1.0000000E+04; -3.7022465E-04;  0.0000000E+00; -4.8057907E-04;  4.4104834E+00;
  7.9999998E-02;  9.9999998E-03;  3.4000000E-01;497;  0.0000000E+00;  0.0000000E+00;  0.0000000E+00;  1.0000068E+03;  4.0000001E-01;  5.6294694E+00;0;  0.0000000E+00;  0.0000000E+00;  0.0000000E+00;0; -6.1508799E-03;  1.0000000E+04;  0.0000000E+00;  0.0000000E+00;  1.0000000E+04;  0.0000000E+00;  1.0000000E+04; -4.1452753E-03;  0.0000000E+00; -2.0056046E-03;  1.9354366E+01;
  7.9999998E-02;  9.9999998E-03;  3.6000001E-01;498;  0.0000000E+00;  0.0000000E+00;  0.0000000E+00;  1.0000045E+03;  4.0000001E-01;  3.6542170E+00;0;  0.0000000E+00;  0.0000000E+00;  0.0000000E+00;0; -4.0085725E-03;  1.0000000E+04;  0.0000000E+00;  0.0000000E+00;  1.0000000E+04;  0.0000000E+00;  1.0000000E+04; -2.2902957E-03;  0.0000000E+00; -1.7182771E-03;  1.6567692E+01;
  7.9999998E-02;  9.9999998E-03;  3.8000000E-01;499;  0.0000000E+00;  0.0000000E+00;  0.0000000E+00;  1.0000025E+03;  4.0000001E-01;  2.0740151E+00;0;  0.0000000E+00;  0.0000000E+00;  0.0000000E+00;0; -2.2877939E-03;  1.0000000E+04;  0.0000000E+00;  0.0000000E+00;  1.0000000E+04;  0.0000000E+00;  1.0000000E+04; -1.1155049E-03;  0.0000000E+00; -1.1722889E-03;  1.1242504E+01;
  7.9999998E-02;  9.9999998E-03;  4.0000001E-01;500;  0.0000000E+00;  0.0000000E+00;  0.0000000E+00;  1.0000011E+03;  4.0000001E-01;  8.8886362E-01;0;  0.0000000E+00;  0.0000000E+00;  0.0000000E+00;0; -1.0315735E-03;  1.0000000E+04;  0.0000000E+00;  0.0000000E+00;  1.0000000E+04;  0.0000000E+00;  1.0000000E+04; -4.5717965E-04;  0.0000000E+00; -5.7439390E-04;  5.4694529E+00;
  1.0000000E-01;  9.9999998E-03;  3.4000000E-01;507;  0.0000000E+00;  0.0000000E+00;  0.0000000E+00;  1.0000086E+03;  4.0000001E-01;  7.1109090E+00;0;  0.0000000E+00;  0.0000000E+00;  0.0000000E+00;0; -7.6205479E-03;  1.0000000E+04;  0.0000000E+00;  0.0000000E+00;  1.0000000E+04;  0.0000000E+00;  1.0000000E+04; -5.2911462E-03;  0.0000000E+00; -2.3294017E-03;  2.4461466E+01;
  1.0000000E-01;  9.9999998E-03;  3.6000001E-01;508;  0.0000000E+00;  0.0000000E+00;  0.0000000E+00;  1.0000056E+03;  4.0000001E-01;  4.6418433E+00;0;  0.0000000E+00;  0.0000000E+00;  0.0000000E+00;0; -4.9650259E-03;  1.0000000E+04;  0.0000000E+00;  0.0000000E+00;  1.0000000E+04;  0.0000000E+00;  1.0000000E+04; -2.9579776E-03;  0.0000000E+00; -2.0070486E-03;  2.0413633E+01;
  1.0000000E-01;  9.9999998E-03;  3.8000000E-01;509;  0.0000000E+00;  0.0000000E+00;  0.0000000E+00;  1.0000032E+03;  4.0000001E-01;  2.6665909E+00;0;  0.0000000E+00;  0.0000000E+00;  0.0000000E+00;0; -2.8272867E-03;  1.0000000E+04;  0.0000000E+00;  0.0000000E+00;  1.0000000E+04;  0.0000000E+00;  1.0000000E+04; -1.4533631E-03;  0.0000000E+00; -1.3739237E-03;  1.3736938E+01;
  1.0000000E-01;  9.9999998E-03;  4.0000001E-01;510;  0.0000000E+00;  0.0000000E+00;  0.0000000E+00;  1.0000015E+03;  4.0000001E-01;  1.2839141E+00;0;  0.0000000E+00;  0.0000000E+00;  0.0000000E+00;0; -1.2742486E-03;  1.0000000E+04;  0.0000000E+00;  0.0000000E+00;  1.0000000E+04;  0.0000000E+00;  1.0000000E+04; -5.9902080E-04;  0.0000000E+00; -6.7522778E-04;  6.9395437E+00;
  1.2000000E-01;  9.9999998E-03;  3.4000000E-01;517;  0.0000000E+00;  0.0000000E+00;  0.0000000E+00;  1.0000115E+03;  4.0000001E-01;  9.5799742E+00;0;  0.0000000E+00;  0.0000000E+00;  0.0000000E+00;0; -9.8257922E-03;  1.0000000E+04;  0.0000000E+00;  0.0000000E+00;  1.0000000E+04;  0.0000000E+00;  1.0000000E+04; -7.0730299E-03;  0.0000000E+00; -2.7527618E-03;  3.8267502E+01;
  1.2000000E-01;  9.9999998E-03;  3.6000001E-01;518;  0.0000000E+00;  0.0000000E+00;  0.0000000E+00;  1.0000075E+03;  4.0000001E-01;  6.2220454E+00;0;  0.0000000E+00;  0.0000000E+00;  0.0000000E+00;0; -6.4092753E-03;  1.0000000E+04;  0.0000000E+00;  0.0000000E+00;  1.0000000E+04;  0.0000000E+00;  1.0000000E+04; -4.0298076E-03;  0.0000000E+00; -2.3794675E-03;  2.6263931E+01;
  1.2000000E-01;  9.9999998E-03;  3.8000000E-01;519;  0.0000000E+00;  0.0000000E+00;  0.0000000E+00;  1.0000043E+03;  4.0000001E-01;  3.5554545E+00;0;  0.0000000E+00;  0.0000000E+00;  0.0000000E+00;0; -3.6424457E-03;  1.0000000E+04;  0.0000000E+00;  0.0000000E+00;  1.0000000E+04;  0.0000000E+00;  1.0000000E+04; -2.0119294E-03;  0.0000000E+00; -1.6305163E-03;  1.7989769E+01;
  1.2000000E-01;  9.9999998E-03;  4.0000001E-01;520;  0.0000000E+00;  0.0000000E+00;  0.0000000E+00;  1.0000020E+03;  4.0000001E-01;  1.5802020E+00;0;  0.0000000E+00;  0.0000000E+00;  0.0000000E+00;0; -1.6442258E-03;  1.0000000E+04;  0.0000000E+00;  0.0000000E+00;  1.0000000E+04;  0.0000000E+00;  1.0000000E+04; -8.4173348E-04;  0.0000000E+00; -8.0249226E-04;  1.2279964E+01;
  1.4000000E-01;  9.9999998E-03;  3.4000000E-01;527;  0.0000000E+00;  0.0000000E+00;  0.0000000E+00;  1.0000159E+03;  4.0000001E-01;  1.3234192E+01;0;  0.0000000E+00;  0.0000000E+00;  0.0000000E+00;0; -1.3236940E-02;  1.0000000E+04;  0.0000000E+00;  0.0000000E+00;  1.0000000E+04;  0.0000000E+00;  1.0000000E+04; -9.8319836E-03;  0.0000000E+00; -3.4049558E-03;  7.9772644E+01;
  1.4000000E-01;  9.9999998E-03;  3.6000001E-01;528;  0.0000000E+00;  0.0000000E+00;  0.0000000E+00;  1.0000105E+03;  4.0000001E-01;  8.6911106E+00;0;  0.0000000E+00;  0.0000000E+00;  0.0000000E+00;0; -8.6906897E-03;  1.0000000E+04;  0.0000000E+00;  0.0000000E+00;  1.0000000E+04;  0.0000000E+00;  1.0000000E+04; -5.7411948E-03;  0.0000000E+00; -2.9494946E-03;  3.6324924E+01;
  1.4000000E-01;  9.9999998E-03;  3.8000000E-01;529;  0.0000000E+00;  0.0000000E+00;  0.0000000E+00;  1.0000060E+03;  4.0000001E-01;  5.0368938E+00;0;  0.0000000E+00;  0.0000000E+00;  0.0000000E+00;0; -4.9604243E-03;  1.0000000E+04;  0.0000000E+00;  0.0000000E+00;  1.0000000E+04;  0.0000000E+00;  1.0000000E+04; -2.9329746E-03;  0.0000000E+00; -2.0274499E-03;  3.3559090E+01;
  1.4000000E-01;  9.9999998E-03;  4.0000001E-01;530;  0.0000000E+00;  0.0000000E+00;  0.0000000E+00;  1.0000026E+03;  4.0000001E-01;  2.1727777E+00;0;  0.0000000E+00;  0.0000000E+00;  0.0000000E+00;0; -2.2633383E-03;  1.0000000E+04;  0.0000000E+00;  0.0000000E+00;  1.0000000E+04;  0.0000000E+00;  1.0000000E+04; -1.2584891E-03;  0.0000000E+00; -1.0048491E-03;  3.4381622E+01;
  1.6000000E-01;  9.9999998E-03;  3.4000000E-01;537;  0.0000000E+00;  0.0000000E+00;  0.0000000E+00;  1.0000225E+03;  4.0000001E-01;  1.8666136E+01;0;  0.0000000E+00;  0.0000000E+00;  0.0000000E+00;0; -1.8377025E-02;  1.0000000E+04;  0.0000000E+00;  0.0000000E+00;  1.0000000E+04;  0.0000000E+00;  1.0000000E+04; -1.3871787E-02;  0.0000000E+00; -4.5052385E-03;  1.7440941E+02;
  1.6000000E-01;  9.9999998E-03;  3.6000001E-01;538;  0.0000000E+00;  0.0000000E+00;  0.0000000E+00;  1.0000150E+03;  4.0000001E-01;  1.2345328E+01;0;  0.0000000E+00;  0.0000000E+00;  0.0000000E+00;0; -1.2221714E-02;  1.0000000E+04;  0.0000000E+00;  0.0000000E+00;  1.0000000E+04;  0.0000000E+00;  1.0000000E+04; -8.3078137E-03;  0.0000000E+00; -3.9139008E-03;  5.1942284E+01;
  1.6000000E-01;  9.9999998E-03;  3.8000000E-01;539;  0.0000000E+00;  0.0000000E+00;  0.0000000E+00;  1.0000089E+03;  4.0000001E-01;  7.3084340E+00;0;  0.0000000E+00;  0.0000000E+00;  0.0000000E+00;0; -7.0989248E-03;  1.0000000E+04;  0.0000000E+00;  0.0000000E+00;  1.0000000E+04;  0.0000000E+00;  1.0000000E+04; -4.3684575E-03;  0.0000000E+00; -2.7304674E-03;  8.5724083E+01;
  1.6000000E-01;  9.9999998E-03;  4.0000001E-01;540;  0.0000000E+00;  0.0000000E+00;  0.0000000E+00;  1.0000041E+03;  4.0000001E-01;  3.3579292E+00;0;  0.0000000E+00;  0.0000000E+00;  0.0000000E+00;0; -3.3513573E-03;  1.0000000E+04;  0.0000000E+00;  0.0000000E+00;  1.0000000E+04;  0.0000000E+00;  1.0000000E+04; -1.9521947E-03;  0.0000000E+00; -1.3991626E-03;  9.9256279E+01;
  1.8000001E-01;  9.9999998E-03;  3.4000000E-01;547;  0.0000000E+00;  0.0000000E+00;  0.0000000E+00;  1.0000320E+03;  4.0000001E-01;  2.6468384E+01;0;  0.0000000E+00;  0.0000000E+00;  0.0000000E+00;0; -2.5470762E-02;  1.0000000E+04;  0.0000000E+00;  0.0000000E+00;  1.0000000E+04;  0.0000000E+00;  1.0000000E+04; -1.9071043E-02;  0.0000000E+00; -6.3997186E-03;  3.3669260E+02;
  1.8000001E-01;  9.9999998E-03;  3.6000001E-01;548;  0.0000000E+00;  0.0000000E+00;  0.0000000E+00;  1.0000216E+03;  4.0000001E-01;  1.7876036E+01;0;  0.0000000E+00;  0.0000000E+00;  0.0000000E+00;0; -1.7213132E-02;  1.0000000E+04;  0.0000000E+00;  0.0000000E+00;  1.0000000E+04;  0.0000000E+00;  1.0000000E+04; -1.1626575E-02;  0.0000000E+00; -5.5865562E-03;  7.0645821E+01;
  1.8000001E-01;  9.9999998E-03;  3.8000000E-01;549;  0.0000000E+00;  0.0000000E+00;  0.0000000E+00;  1.0000130E+03;  4.0000001E-01;  1.0765126E+01;0;  0.0000000E+00;  0.0000000E+00;  0.0000000E+00;0; -1.0343938E-02;  1.0000000E+04;  0.0000000E+00;  0.0000000E+00;  1.0000000E+04;  0.0000000E+00;  1.0000000E+04; -6.3057509E-03;  0.0000000E+00; -4.0381872E-03;  2.0703284E+02;
  1.8000001E-01;  9.9999998E-03;  4.0000001E-01;550;  0.0000000E+00;  0.0000000E+00;  0.0000000E+00;  1.0000065E+03;  4.0000001E-01;  5.3331819E+00;0;  0.0000000E+00;  0.0000000E+00;  0.0000000E+00;0; -5.2440846E-03;  1.0000000E+04;  0.0000000E+00;  0.0000000E+00;  1.0000000E+04;  0.0000000E+00;  1.0000000E+04; -2.9968438E-03;  0.0000000E+00; -2.2472406E-03;  2.5120177E+02;
  2.0000000E-01;  9.9999998E-03;  3.4000000E-01;556;  0.0000000E+00;  0.0000000E+00;  0.0000000E+00;  1.0000440E+03;  4.0000001E-01;  3.6443409E+01;0;  0.0000000E+00;  0.0000000E+00;  0.0000000E+00;0; -3.4241378E-02;  1.0000000E+04;  0.0000000E+00;  0.0000000E+00;  1.0000000E+04;  0.0000000E+00;  1.0000000E+04; -2.4680139E-02;  0.0000000E+00; -9.5612388E-03;  5.3424066E+02;
  2.0000000E-01;  9.9999998E-03;  3.6000001E-01;557;  0.0000000E+00;  0.0000000E+00;  0.0000000E+00;  1.0000303E+03;  4.0000001E-01;  2.5085707E+01;0;  0.0000000E+00;  0.0000000E+00;  0.0000000E+00;0; -2.3587931E-02;  1.0000000E+04;  0.0000000E+00;  0.0000000E+00;  1.0000000E+04;  0.0000000E+00;  1.0000000E+04; -1.5172821E-02;  0.0000000E+00; -8.4151104E-03;  9.9209312E+01;
  2.0000000E-01;  9.9999998E-03;  3.8000000E-01;558;  0.0000000E+00;  0.0000000E+00;  0.0000000E+00;  1.0000193E+03;  4.0000001E-01;  1.5999545E+01;0;  0.0000000E+00;  0.0000000E+00;  0.0000000E+00;0; -1.4890816E-02;  1.0000000E+04;  0.0000000E+00;  0.0000000E+00;  1.0000000E+04;  0.0000000E+00;  1.0000000E+04; -8.4665874E-03;  0.0000000E+00; -6.4242287E-03;  4.1246304E+02;
  1.9200000E+00;  9.9999998E-03; -3.6000001E-01;559;  0.0000000E+00;  0.0000000E+00;  0.0000000E+00;  1.0000000E+03;  4.0000001E-01;  0.0000000E+00;0;  0.0000000E+00;  0.0000000E+00;  0.0000000E+00;0;  0.0000000E+00;  1.0000000E+04;  0.0000000E+00;  0.0000000E+00;  1.0000000E+04;  0.0000000E+00;  1.0000000E+04;  0.0000000E+00;  0.0000000E+00;  0.0000000E+00;  0.0000000E+00;
  1.9200000E+00;  9.9999998E-03; -3.4000000E-01;560;  0.0000000E+00;  0.0000000E+00;  0.0000000E+00;  1.0000000E+03;  4.0000001E-01;  0.0000000E+00;0;  0.0000000E+00;  0.0000000E+00;  0.0000000E+00;0;  0.0000000E+00;  1.0000000E+04;  0.0000000E+00;  0.0000000E+00;  1.0000000E+04;  0.0000000E+00;  1.0000000E+04;  0.0000000E+00;  0.0000000E+00;  0.0000000E+00;  0.0000000E+00;
  1.9200000E+00;  9.9999998E-03; -3.1999999E-01;561;  0.0000000E+00;  0.0000000E+00;  0.0000000E+00;  1.0000000E+03;  4.0000001E-01;  0.0000000E+00;0;  0.0000000E+00;  0.0000000E+00;  0.0000000E+00;0;  0.0000000E+00;  1.0000000E+04;  0.0000000E+00;  0.0000000E+00;  1.0000000E+04;  0.0000000E+00;  1.0000000E+04;  0.0000000E+00;  0.0000000E+00;  0.0000000E+00;  0.0000000E+00;
  1.9400001E+00;  9.9999998E-03; -3.8000000E-01;562;  0.0000000E+00;  0.0000000E+00;  0.0000000E+00;  1.0000000E+03;  4.0000001E-01;  0.0000000E+00;0;  0.0000000E+00;  0.0000000E+00;  0.0000000E+00;0;  0.0000000E+00;  1.0000000E+04;  0.0000000E+00;  0.0000000E+00;  1.0000000E+04;  0.0000000E+00;  1.0000000E+04;  0.0000000E+00;  0.0000000E+00;  0.0000000E+00;  0.0000000E+00;
  1.9400001E+00;  9.9999998E-03; -3.6000001E-01;563;  0.0000000E+00;  0.0000000E+00;  0.0000000E+00;  1.0000000E+03;  4.0000001E-01;  0.0000000E+00;0;  0.0000000E+00;  0.0000000E+00;  0.0000000E+00;0;  0.0000000E+00;  1.0000000E+04;  0.0000000E+00;  0.0000000E+00;  1.0000000E+04;  0.0000000E+00;  1.0000000E+04;  0.0000000E+00;  0.0000000E+00;  0.0000000E+00;  0.0000000E+00;
  1.9400001E+00;  9.9999998E-03; -3.4000000E-01;564;  0.0000000E+00;  0.0000000E+00;  0.0000000E+00;  1.0000000E+03;  4.0000001E-01;  0.0000000E+00;0;  0.0000000E+00;  0.0000000E+00;  0.0000000E+00;0;  0.0000000E+00;  1.0000000E+04;  0.0000000E+00;  0.0000000E+00;  1.0000000E+04;  0.0000000E+00;  1.0000000E+04;  0.0000000E+00;  0.0000000E+00;  0.0000000E+00;  0.0000000E+00;
  1.9400001E+00;  9.9999998E-03; -3.1999999E-01;565;  0.0000000E+00;  0.0000000E+00;  0.0000000E+00;  1.0000000E+03;  4.0000001E-01;  0.0000000E+00;0;  0.0000000E+00;  0.0000000E+00;  0.0000000E+00;0;  0.0000000E+00;  1.0000000E+04;  0.0000000E+00;  0.0000000E+00;  1.0000000E+04;  0.0000000E+00;  1.0000000E+04;  0.0000000E+00;  0.0000000E+00;  0.0000000E+00;  0.0000000E+00;
  1.9400001E+00;  9.9999998E-03; -3.0000001E-01;566;  0.0000000E+00;  0.0000000E+00;  0.0000000E+00;  1.0000000E+03;  4.0000001E-01;  0.0000000E+00;0;  0.0000000E+00;  0.0000000E+00;  0.0000000E+00;0;  0.0000000E+00;  1.0000000E+04;  0.0000000E+00;  0.0000000E+00;  1.0000000E+04;  0.0000000E+00;  1.0000000E+04;  0.0000000E+00;  0.0000000E+00;  0.0000000E+00;  0.0000000E+00;
  1.9400001E+00;  9.9999998E-03; -2.8000000E-01;567;  0.0000000E+00;  0.0000000E+00;  0.0000000E+00;  1.0000000E+03;  4.0000001E-01;  0.0000000E+00;0;  0.0000000E+00;  0.0000000E+00;  0.0000000E+00;0;  0.0000000E+00;  1.0000000E+04;  0.0000000E+00;  0.0000000E+00;  1.0000000E+04;  0.0000000E+00;  1.0000000E+04;  0.0000000E+00;  0.0000000E+00;  0.0000000E+00;  0.0000000E+00;
  1.9400001E+00;  9.9999998E-03; -2.5999999E-01;568;  0.0000000E+00;  0.0000000E+00;  0.0000000E+00;  1.0000000E+03;  4.0000001E-01;  0.0000000E+00;0;  0.0000000E+00;  0.0000000E+00;  0.0000000E+00;0;  0.0000000E+00;  1.0000000E+04;  0.0000000E+00;  0.0000000E+00;  1.0000000E+04;  0.0000000E+00;  1.0000000E+04;  0.0000000E+00;  0.0000000E+00;  0.0000000E+00;  0.0000000E+00;
  1.9400001E+00;  9.9999998E-03; -2.3999999E-01;569;  0.0000000E+00;  0.0000000E+00;  0.0000000E+00;  1.0000000E+03;  4.0000001E-01;  0.0000000E+00;0;  0.0000000E+00;  0.0000000E+00;  0.0000000E+00;0;  0.0000000E+00;  1.0000000E+04;  0.0000000E+00;  0.0000000E+00;  1.0000000E+04;  0.0000000E+00;  1.0000000E+04;  0.0000000E+00;  0.0000000E+00;  0.0000000E+00;  0.0000000E+00;
  1.9400001E+00;  9.9999998E-03; -2.2000000E-01;570;  0.0000000E+00;  0.0000000E+00;  0.0000000E+00;  1.0000000E+03;  4.0000001E-01;  0.0000000E+00;0;  0.0000000E+00;  0.0000000E+00;  0.0000000E+00;0;  0.0000000E+00;  1.0000000E+04;  0.0000000E+00;  0.0000000E+00;  1.0000000E+04;  0.0000000E+00;  1.0000000E+04;  0.0000000E+00;  0.0000000E+00;  0.0000000E+00;  0.0000000E+00;
  1.9600000E+00;  9.9999998E-03; -3.8000000E-01;571;  0.0000000E+00;  0.0000000E+00;  0.0000000E+00;  1.0000000E+03;  4.0000001E-01;  0.0000000E+00;0;  0.0000000E+00;  0.0000000E+00;  0.0000000E+00;0;  0.0000000E+00;  1.0000000E+04;  0.0000000E+00;  0.0000000E+00;  1.0000000E+04;  0.0000000E+00;  1.0000000E+04;  0.0000000E+00;  0.0000000E+00;  0.0000000E+00;  0.0000000E+00;
  1.9600000E+00;  9.9999998E-03; -3.6000001E-01;572;  0.0000000E+00;  0.0000000E+00;  0.0000000E+00;  1.0000000E+03;  4.0000001E-01;  0.0000000E+00;0;  0.0000000E+00;  0.0000000E+00;  0.0000000E+00;0;  0.0000000E+00;  1.0000000E+04;  0.0000000E+00;  0.0000000E+00;  1.0000000E+04;  0.0000000E+00;  1.0000000E+04;  0.0000000E+00;  0.0000000E+00;  0.0000000E+00;  0.0000000E+00;
  1.9600000E+00;  9.9999998E-03; -3.4000000E-01;573;  0.0000000E+00;  0.0000000E+00;  0.0000000E+00;  1.0000000E+03;  4.0000001E-01;  0.0000000E+00;0;  0.0000000E+00;  0.0000000E+00;  0.0000000E+00;0;  0.0000000E+00;  1.0000000E+04;  0.0000000E+00;  0.0000000E+00;  1.0000000E+04;  0.0000000E+00;  1.0000000E+04;  0.0000000E+00;  0.0000000E+00;  0.0000000E+00;  0.0000000E+00;
  1.9600000E+00;  9.9999998E-03; -3.1999999E-01;574;  0.0000000E+00;  0.0000000E+00;  0.0000000E+00;  1.0000000E+03;  4.0000001E-01;  0.0000000E+00;0;  0.0000000E+00;  0.0000000E+00;  0.0000000E+00;0;  0.0000000E+00;  1.0000000E+04;  0.0000000E+00;  0.0000000E+00;  1.0000000E+04;  0.0000000E+00;  1.0000000E+04;  0.0000000E+00;  0.0000000E+00;  0.0000000E+00;  0.0000000E+00;
  1.9600000E+00;  9.9999998E-03; -3.0000001E-01;575;  0.0000000E+00;  0.0000000E+00;  0.0000000E+00;  1.0000000E+03;  4.0000001E-01;  0.0000000E+00;0;  0.0000000E+00;  0.0000000E+00;  0.0000000E+00;0;  0.0000000E+00;  1.0000000E+04;  0.0000000E+00;  0.0000000E+00;  1.0000000E+04;  0.0000000E+00;  1.0000000E+04;  0.0000000E+00;  0.0000000E+00;  0.0000000E+00;  0.0000000E+00;
  1.9600000E+00;  9.9999998E-03; -2.8000000E-01;576;  0.0000000E+00;  0.0000000E+00;  0.0000000E+00;  1.0000000E+03;  4.0000001E-01;  0.0000000E+00;0;  0.0000000E+00;  0.0000000E+00;  0.0000000E+00;0;  0.0000000E+00;  1.0000000E+04;  0.0000000E+00;  0.0000000E+00;  1.0000000E+04;  0.0000000E+00;  1.0000000E+04;  0.0000000E+00;  0.0000000E+00;  0.0000000E+00;  0.0000000E+00;
  1.9600000E+00;  9.9999998E-03; -2.5999999E-01;577;  0.0000000E+00;  0.0000000E+00;  0.0000000E+00;  1.0000000E+03;  4.0000001E-01;  0.0000000E+00;0;  0.0000000E+00;  0.0000000E+00;  0.0000000E+00;0;  0.0000000E+00;  1.0000000E+04;  0.0000000E+00;  0.0000000E+00;  1.0000000E+04;  0.0000000E+00;  1.0000000E+04;  0.0000000E+00;  0.0000000E+00;  0.0000000E+00;  0.0000000E+00;
  1.9600000E+00;  9.9999998E-03; -2.3999999E-01;578;  0.0000000E+00;  0.0000000E+00;  0.0000000E+00;  1.0000000E+03;  4.0000001E-01;  0.0000000E+00;0;  0.0000000E+00;  0.0000000E+00;  0.0000000E+00;0;  0.0000000E+00;  1.0000000E+04;  0.0000000E+00;  0.0000000E+00;  1.0000000E+04;  0.0000000E+00;  1.0000000E+04;  0.0000000E+00;  0.0000000E+00;  0.0000000E+00;  0.0000000E+00;
  1.9600000E+00;  9.9999998E-03; -2.2000000E-01;579;  0.0000000E+00;  0.0000000E+00;  0.0000000E+00;  1.0000000E+03;  4.0000001E-01;  0.0000000E+00;0;  0.0000000E+00;  0.0000000E+00;  0.0000000E+00;0;  0.0000000E+00;  1.0000000E+04;  0.0000000E+00;  0.0000000E+00;  1.0000000E+04;  0.0000000E+00;  1.0000000E+04;  0.0000000E+00;  0.0000000E+00;  0.0000000E+00;  0.0000000E+00;
  1.9600000E+00;  9.9999998E-03; -2.0000000E-01;580;  0.0000000E+00;  0.0000000E+00;  0.0000000E+00;  1.0000000E+03;  4.0000001E-01;  0.0000000E+00;0;  0.0000000E+00;  0.0000000E+00;  0.0000000E+00;0;  0.0000000E+00;  1.0000000E+04;  0.0000000E+00;  0.0000000E+00;  1.0000000E+04;  0.0000000E+00;  1.0000000E+04;  0.0000000E+00;  0.0000000E+00;  0.0000000E+00;  0.0000000E+00;
  1.9600000E+00;  9.9999998E-03; -1.8000001E-01;581;  0.0000000E+00;  0.0000000E+00;  0.0000000E+00;  1.0000000E+03;  4.0000001E-01;  0.0000000E+00;0;  0.0000000E+00;  0.0000000E+00;  0.0000000E+00;0;  0.0000000E+00;  1.0000000E+04;  0.0000000E+00;  0.0000000E+00;  1.0000000E+04;  0.0000000E+00;  1.0000000E+04;  0.0000000E+00;  0.0000000E+00;  0.0000000E+00;  0.0000000E+00;
  1.9600000E+00;  9.9999998E-03; -1.6000000E-01;582;  0.0000000E+00;  0.0000000E+00;  0.0000000E+00;  1.0000000E+03;  4.0000001E-01;  0.0000000E+00;0;  0.0000000E+00;  0.0000000E+00;  0.0000000E+00;0;  0.0000000E+00;  1.0000000E+04;  0.0000000E+00;  0.0000000E+00;  1.0000000E+04;  0.0000000E+00;  1.0000000E+04;  0.0000000E+00;  0.0000000E+00;  0.0000000E+00;  0.0000000E+00;
  1.9600000E+00;  9.9999998E-03; -1.4000000E-01;583;  0.0000000E+00;  0.0000000E+00;  0.0000000E+00;  1.0000000E+03;  4.0000001E-01;  0.0000000E+00;0;  0.0000000E+00;  0.0000000E+00;  0.0000000E+00;0;  0.0000000E+00;  1.0000000E+04;  0.0000000E+00;  0.0000000E+00;  1.0000000E+04;  0.0000000E+00;  1.0000000E+04;  0.0000000E+00;  0.0000000E+00;  0.0000000E+00;  0.0000000E+00;
  1.9600000E+00;  9.9999998E-03; -1.2000000E-01;584;  0.0000000E+00;  0.0000000E+00;  0.0000000E+00;  1.0000000E+03;  4.0000001E-01;  0.0000000E+00;0;  0.0000000E+00;  0.0000000E+00;  0.0000000E+00;0;  0.0000000E+00;  1.0000000E+04;  0.0000000E+00;  0.0000000E+00;  1.0000000E+04;  0.0000000E+00;  1.0000000E+04;  0.0000000E+00;  0.0000000E+00;  0.0000000E+00;  0.0000000E+00;
  1.9800000E+00;  9.9999998E-03; -3.8000000E-01;585;  0.0000000E+00;  0.0000000E+00;  0.0000000E+00;  1.0000000E+03;  4.0000001E-01;  0.0000000E+00;0;  0.0000000E+00;  0.0000000E+00;  0.0000000E+00;0;  0.0000000E+00;  1.0000000E+04;  0.0000000E+00;  0.0000000E+00;  1.0000000E+04;  0.0000000E+00;  1.0000000E+04;  0.0000000E+00;  0.0000000E+00;  0.0000000E+00;  0.0000000E+00;
  1.9800000E+00;  9.9999998E-03; -3.6000001E-01;586;  0.0000000E+00;  0.0000000E+00;  0.0000000E+00;  1.0000000E+03;  4.0000001E-01;  0.0000000E+00;0;  0.0000000E+00;  0.0000000E+00;  0.0000000E+00;0;  0.0000000E+00;  1.0000000E+04;  0.0000000E+00;  0.0000000E+00;  1.0000000E+04;  0.0000000E+00;  1.0000000E+04;  0.0000000E+00;  0.0000000E+00;  0.0000000E+00;  0.0000000E+00;
  1.9800000E+00;  9.9999998E-03; -3.4000000E-01;587;  0.0000000E+00;  0.0000000E+00;  0.0000000E+00;  1.0000000E+03;  4.0000001E-01;  0.0000000E+00;0;  0.0000000E+00;  0.0000000E+00;  0.0000000E+00;0;  0.0000000E+00;  1.0000000E+04;  0.0000000E+00;  0.0000000E+00;  1.0000000E+04;  0.0000000E+00;  1.0000000E+04;  0.0000000E+00;  0.0000000E+00;  0.0000000E+00;  0.0000000E+00;
  1.9800000E+00;  9.9999998E-03; -3.1999999E-01;588;  0.0000000E+00;  0.0000000E+00;  0.0000000E+00;  1.0000000E+03;  4.0000001E-01;  0.0000000E+00;0;  0.0000000E+00;  0.0000000E+00;  0.0000000E+00;0;  0.0000000E+00;  1.0000000E+04;  0.0000000E+00;  0.0000000E+00;  1.0000000E+04;  0.0000000E+00;  1.0000000E+04;  0.0000000E+00;  0.0000000E+00;  0.0000000E+00;  0.0000000E+00;
  1.9800000E+00;  9.9999998E-03; -3.0000001E-01;589;  0.0000000E+00;  0.0000000E+00;  0.0000000E+00;  1.0000000E+03;  4.0000001E-01;  0.0000000E+00;0;  0.0000000E+00;  0.0000000E+00;  0.0000000E+00;0;  0.0000000E+00;  1.0000000E+04;  0.0000000E+00;  0.0000000E+00;  1.0000000E+04;  0.0000000E+00;  1.0000000E+04;  0.0000000E+00;  0.0000000E+00;  0.0000000E+00;  0.0000000E+00;
  1.9800000E+00;  9.9999998E-03; -2.8000000E-01;590;  0.0000000E+00;  0.0000000E+00;  0.0000000E+00;  1.0000000E+03;  4.0000001E-01;  0.0000000E+00;0;  0.0000000E+00;  0.0000000E+00;  0.0000000E+00;0;  0.0000000E+00;  1.0000000E+04;  0.0000000E+00;  0.0000000E+00;  1.0000000E+04;  0.0000000E+00;  1.0000000E+04;  0.0000000E+00;  0.0000000E+00;  0.0000000E+00;  0.0000000E+00;
  1.9800000E+00;  9.9999998E-03; -2.5999999E-01;591;  0.0000000E+00;  0.0000000E+00;  0.0000000E+00;  1.0000000E+03;  4.0000001E-01;  0.0000000E+00;0;  0.0000000E+00;  0.0000000E+00;  0.0000000E+00;0;  0.0000000E+00;  1.0000000E+04;  0.0000000E+00;  0.0000000E+00;  1.0000000E+04;  0.0000000E+00;  1.0000000E+04;  0.0000000E+00;  0.0000000E+00;  0.0000000E+00;  0.0000000E+00;
  1.9800000E+00;  9.9999998E-03; -2.3999999E-01;592;  0.0000000E+00;  0.0000000E+00;  0.0000000E+00;  1.0000000E+03;  4.0000001E-01;  0.0000000E+00;0;  0.0000000E+00;  0.0000000E+00;  0.0000000E+00;0;  0.0000000E+00;  1.0000000E+04;  0.0000000E+00;  0.0000000E+00;  1.0000000E+04;  0.0000000E+00;  1.0000000E+04;  0.0000000E+00;  0.0000000E+00;  0.0000000E+00;  0.0000000E+00;
  1.9800000E+00;  9.9999998E-03; -2.2000000E-01;593;  0.0000000E+00;  0.0000000E+00;  0.0000000E+00;  1.0000000E+03;  4.0000001E-01;  0.0000000E+00;0;  0.0000000E+00;  0.0000000E+00;  0.0000000E+00;0;  0.0000000E+00;  1.0000000E+04;  0.0000000E+00;  0.0000000E+00;  1.0000000E+04;  0.0000000E+00;  1.0000000E+04;  0.0000000E+00;  0.0000000E+00;  0.0000000E+00;  0.0000000E+00;
  1.9800000E+00;  9.9999998E-03; -2.0000000E-01;594;  0.0000000E+00;  0.0000000E+00;  0.0000000E+00;  1.0000000E+03;  4.0000001E-01;  0.0000000E+00;0;  0.0000000E+00;  0.0000000E+00;  0.0000000E+00;0;  0.0000000E+00;  1.0000000E+04;  0.0000000E+00;  0.0000000E+00;  1.0000000E+04;  0.0000000E+00;  1.0000000E+04;  0.0000000E+00;  0.0000000E+00;  0.0000000E+00;  0.0000000E+00;
  1.9800000E+00;  9.9999998E-03; -1.8000001E-01;595;  0.0000000E+00;  0.0000000E+00;  0.0000000E+00;  1.0000000E+03;  4.0000001E-01;  0.0000000E+00;0;  0.0000000E+00;  0.0000000E+00;  0.0000000E+00;0;  0.0000000E+00;  1.0000000E+04;  0.0000000E+00;  0.0000000E+00;  1.0000000E+04;  0.0000000E+00;  1.0000000E+04;  0.0000000E+00;  0.0000000E+00;  0.0000000E+00;  0.0000000E+00;
  1.9800000E+00;  9.9999998E-03; -1.6000000E-01;596;  0.0000000E+00;  0.0000000E+00;  0.0000000E+00;  1.0000000E+03;  4.0000001E-01;  0.0000000E+00;0;  0.0000000E+00;  0.0000000E+00;  0.0000000E+00;0;  0.0000000E+00;  1.0000000E+04;  0.0000000E+00;  0.0000000E+00;  1.0000000E+04;  0.0000000E+00;  1.0000000E+04;  0.0000000E+00;  0.0000000E+00;  0.0000000E+00;  0.0000000E+00;
  1.9800000E+00;  9.9999998E-03; -1.4000000E-01;597;  0.0000000E+00;  0.0000000E+00;  0.0000000E+00;  1.0000000E+03;  4.0000001E-01;  0.0000000E+00;0;  0.0000000E+00;  0.0000000E+00;  0.0000000E+00;0;  0.0000000E+00;  1.0000000E+04;  0.0000000E+00;  0.0000000E+00;  1.0000000E+04;  0.0000000E+00;  1.0000000E+04;  0.0000000E+00;  0.0000000E+00;  0.0000000E+00;  0.0000000E+00;
  1.9800000E+00;  9.9999998E-03; -1.2000000E-01;598;  0.0000000E+00;  0.0000000E+00;  0.0000000E+00;  1.0000000E+03;  4.0000001E-01;  0.0000000E+00;0;  0.0000000E+00;  0.0000000E+00;  0.0000000E+00;0;  0.0000000E+00;  1.0000000E+04;  0.0000000E+00;  0.0000000E+00;  1.0000000E+04;  0.0000000E+00;  1.0000000E+04;  0.0000000E+00;  0.0000000E+00;  0.0000000E+00;  0.0000000E+00;
  1.9800000E+00;  9.9999998E-03; -1.0000000E-01;599;  0.0000000E+00;  0.0000000E+00;  0.0000000E+00;  1.0000000E+03;  4.0000001E-01;  0.0000000E+00;0;  0.0000000E+00;  0.0000000E+00;  0.0000000E+00;0;  0.0000000E+00;  1.0000000E+04;  0.0000000E+00;  0.0000000E+00;  1.0000000E+04;  0.0000000E+00;  1.0000000E+04;  0.0000000E+00;  0.0000000E+00;  0.0000000E+00;  0.0000000E+00;
  1.9800000E+00;  9.9999998E-03; -7.9999998E-02;600;  0.0000000E+00;  0.0000000E+00;  0.0000000E+00;  1.0000000E+03;  4.0000001E-01;  0.0000000E+00;0;  0.0000000E+00;  0.0000000E+00;  0.0000000E+00;0;  0.0000000E+00;  1.0000000E+04;  0.0000000E+00;  0.0000000E+00;  1.0000000E+04;  0.0000000E+00;  1.0000000E+04;  0.0000000E+00;  0.0000000E+00;  0.0000000E+00;  0.0000000E+00;
  1.9800000E+00;  9.9999998E-03; -5.9999999E-02;601;  0.0000000E+00;  0.0000000E+00;  0.0000000E+00;  1.0000000E+03;  4.0000001E-01;  0.0000000E+00;0;  0.0000000E+00;  0.0000000E+00;  0.0000000E+00;0;  0.0000000E+00;  1.0000000E+04;  0.0000000E+00;  0.0000000E+00;  1.0000000E+04;  0.0000000E+00;  1.0000000E+04;  0.0000000E+00;  0.0000000E+00;  0.0000000E+00;  0.0000000E+00;
  1.9800000E+00;  9.9999998E-03; -3.9999999E-02;602;  0.0000000E+00;  0.0000000E+00;  0.0000000E+00;  1.0000000E+03;  4.0000001E-01;  0.0000000E+00;0;  0.0000000E+00;  0.0000000E+00;  0.0000000E+00;0;  0.0000000E+00;  1.0000000E+04;  0.0000000E+00;  0.0000000E+00;  1.0000000E+04;  0.0000000E+00;  1.0000000E+04;  0.0000000E+00;  0.0000000E+00;  0.0000000E+00;  0.0000000E+00;
  1.9800000E+00;  9.9999998E-03; -2.0000000E-02;603;  0.0000000E+00;  0.0000000E+00;  0.0000000E+00;  1.0000000E+03;  4.0000001E-01;  0.0000000E+00;0;  0.0000000E+00;  0.0000000E+00;  0.0000000E+00;0;  0.0000000E+00;  1.0000000E+04;  0.0000000E+00;  0.0000000E+00;  1.0000000E+04;  0.0000000E+00;  1.0000000E+04;  0.0000000E+00;  0.0000000E+00;  0.0000000E+00;  0.0000000E+00;
  2.0000000E+00;  9.9999998E-03; -3.8000000E-01;604;  0.0000000E+00;  0.0000000E+00;  0.0000000E+00;  1.0000000E+03;  4.0000001E-01;  0.0000000E+00;0;  0.0000000E+00;  0.0000000E+00;  0.0000000E+00;0;  0.0000000E+00;  1.0000000E+04;  0.0000000E+00;  0.0000000E+00;  1.0000000E+04;  0.0000000E+00;  1.0000000E+04;  0.0000000E+00;  0.0000000E+00;  0.0000000E+00;  0.0000000E+00;
  2.0000000E+00;  9.9999998E-03; -3.6000001E-01;605;  0.0000000E+00;  0.0000000E+00;  0.0000000E+00;  1.0000000E+03;  4.0000001E-01;  0.0000000E+00;0;  0.0000000E+00;  0.0000000E+00;  0.0000000E+00;0;  0.0000000E+00;  1.0000000E+04;  0.0000000E+00;  0.0000000E+00;  1.0000000E+04;  0.0000000E+00;  1.0000000E+04;  0.0000000E+00;  0.0000000E+00;  0.0000000E+00;  0.0000000E+00;
  2.0000000E+00;  9.9999998E-03; -3.4000000E-01;606;  0.0000000E+00;  0.0000000E+00;  0.0000000E+00;  1.0000000E+03;  4.0000001E-01;  0.0000000E+00;0;  0.0000000E+00;  0.0000000E+00;  0.0000000E+00;0;  0.0000000E+00;  1.0000000E+04;  0.0000000E+00;  0.0000000E+00;  1.0000000E+04;  0.0000000E+00;  1.0000000E+04;  0.0000000E+00;  0.0000000E+00;  0.0000000E+00;  0.0000000E+00;
  2.0000000E+00;  9.9999998E-03; -3.1999999E-01;607;  0.0000000E+00;  0.0000000E+00;  0.0000000E+00;  1.0000000E+03;  4.0000001E-01;  0.0000000E+00;0;  0.0000000E+00;  0.0000000E+00;  0.0000000E+00;0;  0.0000000E+00;  1.0000000E+04;  0.0000000E+00;  0.0000000E+00;  1.0000000E+04;  0.0000000E+00;  1.0000000E+04;  0.0000000E+00;  0.0000000E+00;  0.0000000E+00;  0.0000000E+00;
  2.0000000E+00;  9.9999998E-03; -3.0000001E-01;608;  0.0000000E+00;  0.0000000E+00;  0.0000000E+00;  1.0000000E+03;  4.0000001E-01;  0.0000000E+00;0;  0.0000000E+00;  0.0000000E+00;  0.0000000E+00;0;  0.0000000E+00;  1.0000000E+04;  0.0000000E+00;  0.0000000E+00;  1.0000000E+04;  0.0000000E+00;  1.0000000E+04;  0.0000000E+00;  0.0000000E+00;  0.0000000E+00;  0.0000000E+00;
  2.0000000E+00;  9.9999998E-03; -2.8000000E-01;609;  0.0000000E+00;  0.0000000E+00;  0.0000000E+00;  1.0000000E+03;  4.0000001E-01;  0.0000000E+00;0;  0.0000000E+00;  0.0000000E+00;  0.0000000E+00;0;  0.0000000E+00;  1.0000000E+04;  0.0000000E+00;  0.0000000E+00;  1.0000000E+04;  0.0000000E+00;  1.0000000E+04;  0.0000000E+00;  0.0000000E+00;  0.0000000E+00;  0.0000000E+00;
  2.0000000E+00;  9.9999998E-03; -2.5999999E-01;610;  0.0000000E+00;  0.0000000E+00;  0.0000000E+00;  1.0000000E+03;  4.0000001E-01;  0.0000000E+00;0;  0.0000000E+00;  0.0000000E+00;  0.0000000E+00;0;  0.0000000E+00;  1.0000000E+04;  0.0000000E+00;  0.0000000E+00;  1.0000000E+04;  0.0000000E+00;  1.0000000E+04;  0.0000000E+00;  0.0000000E+00;  0.0000000E+00;  0.0000000E+00;
  2.0000000E+00;  9.9999998E-03; -2.3999999E-01;611;  0.0000000E+00;  0.0000000E+00;  0.0000000E+00;  1.0000000E+03;  4.0000001E-01;  0.0000000E+00;0;  0.0000000E+00;  0.0000000E+00;  0.0000000E+00;0;  0.0000000E+00;  1.0000000E+04;  0.0000000E+00;  0.0000000E+00;  1.0000000E+04;  0.0000000E+00;  1.0000000E+04;  0.0000000E+00;  0.0000000E+00;  0.0000000E+00;  0.0000000E+00;
  2.0000000E+00;  9.9999998E-03; -2.2000000E-01;612;  0.0000000E+00;  0.0000000E+00;  0.0000000E+00;  1.0000000E+03;  4.0000001E-01;  0.0000000E+00;0;  0.0000000E+00;  0.0000000E+00;  0.0000000E+00;0;  0.0000000E+00;  1.0000000E+04;  0.0000000E+00;  0.0000000E+00;  1.0000000E+04;  0.0000000E+00;  1.0000000E+04;  0.0000000E+00;  0.0000000E+00;  0.0000000E+00;  0.0000000E+00;
  2.0000000E+00;  9.9999998E-03; -2.0000000E-01;613;  0.0000000E+00;  0.0000000E+00;  0.0000000E+00;  1.0000000E+03;  4.0000001E-01;  0.0000000E+00;0;  0.0000000E+00;  0.0000000E+00;  0.0000000E+00;0;  0.0000000E+00;  1.0000000E+04;  0.0000000E+00;  0.0000000E+00;  1.0000000E+04;  0.0000000E+00;  1.0000000E+04;  0.0000000E+00;  0.0000000E+00;  0.0000000E+00;  0.0000000E+00;
  2.0000000E+00;  9.9999998E-03; -1.8000001E-01;614;  0.0000000E+00;  0.0000000E+00;  0.0000000E+00;  1.0000000E+03;  4.0000001E-01;  0.0000000E+00;0;  0.0000000E+00;  0.0000000E+00;  0.0000000E+00;0;  0.0000000E+00;  1.0000000E+04;  0.0000000E+00;  0.0000000E+00;  1.0000000E+04;  0.0000000E+00;  1.0000000E+04;  0.0000000E+00;  0.0000000E+00;  0.0000000E+00;  0.0000000E+00;
  2.0000000E+00;  9.9999998E-03; -1.6000000E-01;615;  0.0000000E+00;  0.0000000E+00;  0.0000000E+00;  1.0000000E+03;  4.0000001E-01;  0.0000000E+00;0;  0.0000000E+00;  0.0000000E+00;  0.0000000E+00;0;  0.0000000E+00;  1.0000000E+04;  0.0000000E+00;  0.0000000E+00;  1.0000000E+04;  0.0000000E+00;  1.0000000E+04;  0.0000000E+00;  0.0000000E+00;  0.0000000E+00;  0.0000000E+00;
  2.0000000E+00;  9.9999998E-03; -1.4000000E-01;616;  0.0000000E+00;  0.0000000E+00;  0.0000000E+00;  1.0000000E+03;  4.0000001E-01;  0.0000000E+00;0;  0.0000000E+00;  0.0000000E+00;  0.0000000E+00;0;  0.0000000E+00;  1.0000000E+04;  0.0000000E+00;  0.0000000E+00;  1.0000000E+04;  0.0000000E+00;  1.0000000E+04;  0.0000000E+00;  0.0000000E+00;  0.0000000E+00;  0.0000000E+00;
  2.0000000E+00;  9.9999998E-03; -1.2000000E-01;617;  0.0000000E+00;  0.0000000E+00;  0.0000000E+00;  1.0000000E+03;  4.0000001E-01;  0.0000000E+00;0;  0.0000000E+00;  0.0000000E+00;  0.0000000E+00;0;  0.0000000E+00;  1.0000000E+04;  0.0000000E+00;  0.0000000E+00;  1.0000000E+04;  0.0000000E+00;  1.0000000E+04;  0.0000000E+00;  0.0000000E+00;  0.0000000E+00;  0.0000000E+00;
  2.0000000E+00;  9.9999998E-03; -1.0000000E-01;618;  0.0000000E+00;  0.0000000E+00;  0.0000000E+00;  1.0000000E+03;  4.0000001E-01;  0.0000000E+00;0;  0.0000000E+00;  0.0000000E+00;  0.0000000E+00;0;  0.0000000E+00;  1.0000000E+04;  0.0000000E+00;  0.0000000E+00;  1.0000000E+04;  0.0000000E+00;  1.0000000E+04;  0.0000000E+00;  0.0000000E+00;  0.0000000E+00;  0.0000000E+00;
  2.0000000E+00;  9.9999998E-03; -7.9999998E-02;619;  0.0000000E+00;  0.0000000E+00;  0.0000000E+00;  1.0000000E+03;  4.0000001E-01;  0.0000000E+00;0;  0.0000000E+00;  0.0000000E+00;  0.0000000E+00;0;  0.0000000E+00;  1.0000000E+04;  0.0000000E+00;  0.0000000E+00;  1.0000000E+04;  0.0000000E+00;  1.0000000E+04;  0.0000000E+00;  0.0000000E+00;  0.0000000E+00;  0.0000000E+00;
  2.0000000E+00;  9.9999998E-03; -5.9999999E-02;620;  0.0000000E+00;  0.0000000E+00;  0.0000000E+00;  1.0000000E+03;  4.0000001E-01;  0.0000000E+00;0;  0.0000000E+00;  0.0000000E+00;  0.0000000E+00;0;  0.0000000E+00;  1.0000000E+04;  0.0000000E+00;  0.0000000E+00;  1.0000000E+04;  0.0000000E+00;  1.0000000E+04;  0.0000000E+00;  0.0000000E+00;  0.0000000E+00;  0.0000000E+00;
  2.0000000E+00;  9.9999998E-03; -3.9999999E-02;621;  0.0000000E+00;  0.0000000E+00;  0.0000000E+00;  1.0000000E+03;  4.0000001E-01;  0.0000000E+00;0;  0.0000000E+00;  0.0000000E+00;  0.0000000E+00;0;  0.0000000E+00;  1.0000000E+04;  0.0000000E+00;  0.0000000E+00;  1.0000000E+04;  0.0000000E+00;  1.0000000E+04;  0.0000000E+00;  0.0000000E+00;  0.0000000E+00;  0.0000000E+00;
  2.0000000E+00;  9.9999998E-03; -2.0000000E-02;622;  0.0000000E+00;  0.0000000E+00;  0.0000000E+00;  1.0000000E+03;  4.0000001E-01;  0.0000000E+00;0;  0.0000000E+00;  0.0000000E+00;  0.0000000E+00;0;  0.0000000E+00;  1.0000000E+04;  0.0000000E+00;  0.0000000E+00;  1.0000000E+04;  0.0000000E+00;  1.0000000E+04;  0.0000000E+00;  0.0000000E+00;  0.0000000E+00;  0.0000000E+00;
  2.0000000E+00;  9.9999998E-03;  0.0000000E+00;623;  0.0000000E+00;  0.0000000E+00;  0.0000000E+00;  1.0000000E+03;  4.0000001E-01;  0.0000000E+00;0;  0.0000000E+00;  0.0000000E+00;  0.0000000E+00;0;  0.0000000E+00;  1.0000000E+04;  0.0000000E+00;  0.0000000E+00;  1.0000000E+04;  0.0000000E+00;  1.0000000E+04;  0.0000000E+00;  0.0000000E+00;  0.0000000E+00;  0.0000000E+00;
  2.0000000E+00;  9.9999998E-03;  2.0000000E-02;624;  0.0000000E+00;  0.0000000E+00;  0.0000000E+00;  1.0000000E+03;  4.0000001E-01;  0.0000000E+00;0;  0.0000000E+00;  0.0000000E+00;  0.0000000E+00;0;  0.0000000E+00;  1.0000000E+04;  0.0000000E+00;  0.0000000E+00;  1.0000000E+04;  0.0000000E+00;  1.0000000E+04;  0.0000000E+00;  0.0000000E+00;  0.0000000E+00;  0.0000000E+00;
  2.0000000E+00;  9.9999998E-03;  3.9999999E-02;625;  0.0000000E+00;  0.0000000E+00;  0.0000000E+00;  1.0000000E+03;  4.0000001E-01;  0.0000000E+00;0;  0.0000000E+00;  0.0000000E+00;  0.0000000E+00;0;  0.0000000E+00;  1.0000000E+04;  0.0000000E+00;  0.0000000E+00;  1.0000000E+04;  0.0000000E+00;  1.0000000E+04;  0.0000000E+00;  0.0000000E+00;  0.0000000E+00;  0.0000000E+00;
  2.0000000E+00;  9.9999998E-03;  5.9999999E-02;626;  0.0000000E+00;  0.0000000E+00;  0.0000000E+00;  1.0000000E+03;  4.0000001E-01;  0.0000000E+00;0;  0.0000000E+00;  0.0000000E+00;  0.0000000E+00;0;  0.0000000E+00;  1.0000000E+04;  0.0000000E+00;  0.0000000E+00;  1.0000000E+04;  0.0000000E+00;  1.0000000E+04;  0.0000000E+00;  0.0000000E+00;  0.0000000E+00;  0.0000000E+00;
  2.0000000E+00;  9.9999998E-03;  7.9999998E-02;627;  0.0000000E+00;  0.0000000E+00;  0.0000000E+00;  1.0000000E+03;  4.0000001E-01;  0.0000000E+00;0;  0.0000000E+00;  0.0000000E+00;  0.0000000E+00;0;  0.0000000E+00;  1.0000000E+04;  0.0000000E+00;  0.0000000E+00;  1.0000000E+04;  0.0000000E+00;  1.0000000E+04;  0.0000000E+00;  0.0000000E+00;  0.0000000E+00;  0.0000000E+00;
  2.0200000E+00;  9.9999998E-03; -4.0000001E-01;628;  0.0000000E+00;  0.0000000E+00;  0.0000000E+00;  1.0000000E+03;  4.0000001E-01;  0.0000000E+00;0;  0.0000000E+00;  0.0000000E+00;  0.0000000E+00;0;  0.0000000E+00;  1.0000000E+04;  0.0000000E+00;  0.0000000E+00;  1.0000000E+04;  0.0000000E+00;  1.0000000E+04;  0.0000000E+00;  0.0000000E+00;  0.0000000E+00;  0.0000000E+00;
  2.0200000E+00;  9.9999998E-03; -3.8000000E-01;629;  0.0000000E+00;  0.0000000E+00;  0.0000000E+00;  1.0000000E+03;  4.0000001E-01;  0.0000000E+00;0;  0.0000000E+00;  0.0000000E+00;  0.0000000E+00;0;  0.0000000E+00;  1.0000000E+04;  0.0000000E+00;  0.0000000E+00;  1.0000000E+04;  0.0000000E+00;  1.0000000E+04;  0.0000000E+00;  0.0000000E+00;  0.0000000E+00;  0.0000000E+00;
  2.0200000E+00;  9.9999998E-03; -3.6000001E-01;630;  0.0000000E+00;  0.0000000E+00;  0.0000000E+00;  1.0000000E+03;  4.0000001E-01;  0.0000000E+00;0;  0.0000000E+00;  0.0000000E+00;  0.0000000E+00;0;  0.0000000E+00;  1.0000000E+04;  0.0000000E+00;  0.0000000E+00;  1.0000000E+04;  0.0000000E+00;  1.0000000E+04;  0.0000000E+00;  0.0000000E+00;  0.0000000E+00;  0.0000000E+00;
  2.0200000E+00;  9.9999998E-03; -3.4000000E-01;631;  0.0000000E+00;  0.0000000E+00;  0.0000000E+00;  1.0000000E+03;  4.0000001E-01;  0.0000000E+00;0;  0.0000000E+00;  0.0000000E+00;  0.0000000E+00;0;  0.0000000E+00;  1.0000000E+04;  0.0000000E+00;  0.0000000E+00;  1.0000000E+04;  0.0000000E+00;  1.0000000E+04;  0.0000000E+00;  0.0000000E+00;  0.0000000E+00;  0.0000000E+00;
  2.0200000E+00;  9.9999998E-03; -3.1999999E-01;632;  0.0000000E+00;  0.0000000E+00;  0.0000000E+00;  1.0000000E+03;  4.0000001E-01;  0.0000000E+00;0;  0.0000000E+00;  0.0000000E+00;  0.0000000E+00;0;  0.0000000E+00;  1.0000000E+04;  0.0000000E+00;  0.0000000E+00;  1.0000000E+04;  0.0000000E+00;  1.0000000E+04;  0.0000000E+00;  0.0000000E+00;  0.0000000E+00;  0.0000000E+00;
  2.0200000E+00;  9.9999998E-03; -3.0000001E-01;633;  0.0000000E+00;  0.0000000E+00;  0.0000000E+00;  1.0000000E+03;  4.0000001E-01;  0.0000000E+00;0;  0.0000000E+00;  0.0000000E+00;  0.0000000E+00;0;  0.0000000E+00;  1.0000000E+04;  0.0000000E+00;  0.0000000E+00;  1.0000000E+04;  0.0000000E+00;  1.0000000E+04;  0.0000000E+00;  0.0000000E+00;  0.0000000E+00;  0.0000000E+00;
  2.0200000E+00;  9.9999998E-03; -2.8000000E-01;634;  0.0000000E+00;  0.0000000E+00;  0.0000000E+00;  1.0000000E+03;  4.0000001E-01;  0.0000000E+00;0;  0.0000000E+00;  0.0000000E+00;  0.0000000E+00;0;  0.0000000E+00;  1.0000000E+04;  0.0000000E+00;  0.0000000E+00;  1.0000000E+04;  0.0000000E+00;  1.0000000E+04;  0.0000000E+00;  0.0000000E+00;  0.0000000E+00;  0.0000000E+00;
  2.0200000E+00;  9.9999998E-03; -2.5999999E-01;635;  0.0000000E+00;  0.0000000E+00;  0.0000000E+00;  1.0000000E+03;  4.0000001E-01;  0.0000000E+00;0;  0.0000000E+00;  0.0000000E+00;  0.0000000E+00;0;  0.0000000E+00;  1.0000000E+04;  0.0000000E+00;  0.0000000E+00;  1.0000000E+04;  0.0000000E+00;  1.0000000E+04;  0.0000000E+00;  0.0000000E+00;  0.0000000E+00;  0.0000000E+00;
  2.0200000E+00;  9.9999998E-03; -2.3999999E-01;636;  0.0000000E+00;  0.0000000E+00;  0.0000000E+00;  1.0000000E+03;  4.0000001E-01;  0.0000000E+00;0;  0.0000000E+00;  0.0000000E+00;  0.0000000E+00;0;  0.0000000E+00;  1.0000000E+04;  0.0000000E+00;  0.0000000E+00;  1.0000000E+04;  0.0000000E+00;  1.0000000E+04;  0.0000000E+00;  0.0000000E+00;  0.0000000E+00;  0.0000000E+00;
  2.0200000E+00;  9.9999998E-03; -2.2000000E-01;637;  0.0000000E+00;  0.0000000E+00;  0.0000000E+00;  1.0000000E+03;  4.0000001E-01;  0.0000000E+00;0;  0.0000000E+00;  0.0000000E+00;  0.0000000E+00;0;  0.0000000E+00;  1.0000000E+04;  0.0000000E+00;  0.0000000E+00;  1.0000000E+04;  0.0000000E+00;  1.0000000E+04;  0.0000000E+00;  0.0000000E+00;  0.0000000E+00;  0.0000000E+00;
  2.0200000E+00;  9.9999998E-03; -2.0000000E-01;638;  0.0000000E+00;  0.0000000E+00;  0.0000000E+00;  1.0000000E+03;  4.0000001E-01;  0.0000000E+00;0;  0.0000000E+00;  0.0000000E+00;  0.0000000E+00;0;  0.0000000E+00;  1.0000000E+04;  0.0000000E+00;  0.0000000E+00;  1.0000000E+04;  0.0000000E+00;  1.0000000E+04;  0.0000000E+00;  0.0000000E+00;  0.0000000E+00;  0.0000000E+00;
  2.0200000E+00;  9.9999998E-03; -1.8000001E-01;639;  0.0000000E+00;  0.0000000E+00;  0.0000000E+00;  1.0000000E+03;  4.0000001E-01;  0.0000000E+00;0;  0.0000000E+00;  0.0000000E+00;  0.0000000E+00;0;  0.0000000E+00;  1.0000000E+04;  0.0000000E+00;  0.0000000E+00;  1.0000000E+04;  0.0000000E+00;  1.0000000E+04;  0.0000000E+00;  0.0000000E+00;  0.0000000E+00;  0.0000000E+00;
  2.0200000E+00;  9.9999998E-03; -1.6000000E-01;640;  0.0000000E+00;  0.0000000E+00;  0.0000000E+00;  1.0000000E+03;  4.0000001E-01;  0.0000000E+00;0;  0.0000000E+00;  0.0000000E+00;  0.0000000E+00;0;  0.0000000E+00;  1.0000000E+04;  0.0000000E+00;  0.0000000E+00;  1.0000000E+04;  0.0000000E+00;  1.0000000E+04;  0.0000000E+00;  0.0000000E+00;  0.0000000E+00;  0.0000000E+00;
  2.0200000E+00;  9.9999998E-03; -1.4000000E-01;641;  0.0000000E+00;  0.0000000E+00;  0.0000000E+00;  1.0000000E+03;  4.0000001E-01;  0.0000000E+00;0;  0.0000000E+00;  0.0000000E+00;  0.0000000E+00;0;  0.0000000E+00;  1.0000000E+04;  0.0000000E+00;  0.0000000E+00;  1.0000000E+04;  0.0000000E+00;  1.0000000E+04;  0.0000000E+00;  0.0000000E+00;  0.0000000E+00;  0.0000000E+00;
  2.0200000E+00;  9.9999998E-03; -1.2000000E-01;642;  0.0000000E+00;  0.0000000E+00;  0.0000000E+00;  1.0000000E+03;  4.0000001E-01;  0.0000000E+00;0;  0.0000000E+00;  0.0000000E+00;  0.0000000E+00;0;  0.0000000E+00;  1.0000000E+04;  0.0000000E+00;  0.0000000E+00;  1.0000000E+04;  0.0000000E+00;  1.0000000E+04;  0.0000000E+00;  0.0000000E+00;  0.0000000E+00;  0.0000000E+00;
  2.0200000E+00;  9.9999998E-03; -1.0000000E-01;643;  0.0000000E+00;  0.0000000E+00;  0.0000000E+00;  1.0000000E+03;  4.0000001E-01;  0.0000000E+00;0;  0.0000000E+00;  0.0000000E+00;  0.0000000E+00;0;  0.0000000E+00;  1.0000000E+04;  0.0000000E+00;  0.0000000E+00;  1.0000000E+04;  0.0000000E+00;  1.0000000E+04;  0.0000000E+00;  0.0000000E+00;  0.0000000E+00;  0.0000000E+00;
  2.0200000E+00;  9.9999998E-03; -7.9999998E-02;644;  0.0000000E+00;  0.0000000E+00;  0.0000000E+00;  1.0000000E+03;  4.0000001E-01;  0.0000000E+00;0;  0.0000000E+00;  0.0000000E+00;  0.0000000E+00;0;  0.0000000E+00;  1.0000000E+04;  0.0000000E+00;  0.0000000E+00;  1.0000000E+04;  0.0000000E+00;  1.0000000E+04;  0.0000000E+00;  0.0000000E+00;  0.0000000E+00;  0.0000000E+00;
  2.0200000E+00;  9.9999998E-03; -5.9999999E-02;645;  0.0000000E+00;  0.0000000E+00;  0.0000000E+00;  1.0000000E+03;  4.0000001E-01;  0.0000000E+00;0;  0.0000000E+00;  0.0000000E+00;  0.0000000E+00;0;  0.0000000E+00;  1.0000000E+04;  0.0000000E+00;  0.0000000E+00;  1.0000000E+04;  0.0000000E+00;  1.0000000E+04;  0.0000000E+00;  0.0000000E+00;  0.0000000E+00;  0.0000000E+00;
  2.0200000E+00;  9.9999998E-03; -3.9999999E-02;646;  0.0000000E+00;  0.0000000E+00;  0.0000000E+00;  1.0000000E+03;  4.0000001E-01;  0.0000000E+00;0;  0.0000000E+00;  0.0000000E+00;  0.0000000E+00;0;  0.0000000E+00;  1.0000000E+04;  0.0000000E+00;  0.0000000E+00;  1.0000000E+04;  0.0000000E+00;  1.0000000E+04;  0.0000000E+00;  0.0000000E+00;  0.0000000E+00;  0.0000000E+00;
  2.0200000E+00;  9.9999998E-03; -2.0000000E-02;647;  0.0000000E+00;  0.0000000E+00;  0.0000000E+00;  1.0000000E+03;  4.0000001E-01;  0.0000000E+00;0;  0.0000000E+00;  0.0000000E+00;  0.0000000E+00;0;  0.0000000E+00;  1.0000000E+04;  0.0000000E+00;  0.0000000E+00;  1.0000000E+04;  0.0000000E+00;  1.0000000E+04;  0.0000000E+00;  0.0000000E+00;  0.0000000E+00;  0.0000000E+00;
  2.0200000E+00;  9.9999998E-03;  0.0000000E+00;648;  0.0000000E+00;  0.0000000E+00;  0.0000000E+00;  1.0000000E+03;  4.0000001E-01;  0.0000000E+00;0;  0.0000000E+00;  0.0000000E+00;  0.0000000E+00;0;  0.0000000E+00;  1.0000000E+04;  0.0000000E+00;  0.0000000E+00;  1.0000000E+04;  0.0000000E+00;  1.0000000E+04;  0.0000000E+00;  0.0000000E+00;  0.0000000E+00;  0.0000000E+00;
  2.0200000E+00;  9.9999998E-03;  2.0000000E-02;649;  0.0000000E+00;  0.0000000E+00;  0.0000000E+00;  1.0000000E+03;  4.0000001E-01;  0.0000000E+00;0;  0.0000000E+00;  0.0000000E+00;  0.0000000E+00;0;  0.0000000E+00;  1.0000000E+04;  0.0000000E+00;  0.0000000E+00;  1.0000000E+04;  0.0000000E+00;  1.0000000E+04;  0.0000000E+00;  0.0000000E+00;  0.0000000E+00;  0.0000000E+00;
  2.0200000E+00;  9.9999998E-03;  3.9999999E-02;650;  0.0000000E+00;  0.0000000E+00;  0.0000000E+00;  1.0000000E+03;  4.0000001E-01;  0.0000000E+00;0;  0.0000000E+00;  0.0000000E+00;  0.0000000E+00;0;  0.0000000E+00;  1.0000000E+04;  0.0000000E+00;  0.0000000E+00;  1.0000000E+04;  0.0000000E+00;  1.0000000E+04;  0.0000000E+00;  0.0000000E+00;  0.0000000E+00;  0.0000000E+00;
  2.0200000E+00;  9.9999998E-03;  5.9999999E-02;651;  0.0000000E+00;  0.0000000E+00;  0.0000000E+00;  1.0000000E+03;  4.0000001E-01;  0.0000000E+00;0;  0.0000000E+00;  0.0000000E+00;  0.0000000E+00;0;  0.0000000E+00;  1.0000000E+04;  0.0000000E+00;  0.0000000E+00;  1.0000000E+04;  0.0000000E+00;  1.0000000E+04;  0.0000000E+00;  0.0000000E+00;  0.0000000E+00;  0.0000000E+00;
  2.0200000E+00;  9.9999998E-03;  7.9999998E-02;652;  0.0000000E+00;  0.0000000E+00;  0.0000000E+00;  1.0000000E+03;  4.0000001E-01;  0.0000000E+00;0;  0.0000000E+00;  0.0000000E+00;  0.0000000E+00;0;  0.0000000E+00;  1.0000000E+04;  0.0000000E+00;  0.0000000E+00;  1.0000000E+04;  0.0000000E+00;  1.0000000E+04;  0.0000000E+00;  0.0000000E+00;  0.0000000E+00;  0.0000000E+00;
  2.0200000E+00;  9.9999998E-03;  1.0000000E-01;653;  0.0000000E+00;  0.0000000E+00;  0.0000000E+00;  1.0000000E+03;  4.0000001E-01;  0.0000000E+00;0;  0.0000000E+00;  0.0000000E+00;  0.0000000E+00;0;  0.0000000E+00;  1.0000000E+04;  0.0000000E+00;  0.0000000E+00;  1.0000000E+04;  0.0000000E+00;  1.0000000E+04;  0.0000000E+00;  0.0000000E+00;  0.0000000E+00;  0.0000000E+00;
  2.0200000E+00;  9.9999998E-03;  1.2000000E-01;654;  0.0000000E+00;  0.0000000E+00;  0.0000000E+00;  1.0000000E+03;  4.0000001E-01;  0.0000000E+00;0;  0.0000000E+00;  0.0000000E+00;  0.0000000E+00;0;  0.0000000E+00;  1.0000000E+04;  0.0000000E+00;  0.0000000E+00;  1.0000000E+04;  0.0000000E+00;  1.0000000E+04;  0.0000000E+00;  0.0000000E+00;  0.0000000E+00;  0.0000000E+00;
  2.0200000E+00;  9.9999998E-03;  1.4000000E-01;655;  0.0000000E+00;  0.0000000E+00;  0.0000000E+00;  1.0000000E+03;  4.0000001E-01;  0.0000000E+00;0;  0.0000000E+00;  0.0000000E+00;  0.0000000E+00;0;  0.0000000E+00;  1.0000000E+04;  0.0000000E+00;  0.0000000E+00;  1.0000000E+04;  0.0000000E+00;  1.0000000E+04;  0.0000000E+00;  0.0000000E+00;  0.0000000E+00;  0.0000000E+00;
  2.0200000E+00;  9.9999998E-03;  1.6000000E-01;656;  0.0000000E+00;  0.0000000E+00;  0.0000000E+00;  1.0000000E+03;  4.0000001E-01;  0.0000000E+00;0;  0.0000000E+00;  0.0000000E+00;  0.0000000E+00;0;  0.0000000E+00;  1.0000000E+04;  0.0000000E+00;  0.0000000E+00;  1.0000000E+04;  0.0000000E+00;  1.0000000E+04;  0.0000000E+00;  0.0000000E+00;  0.0000000E+00;  0.0000000E+00;
  2.0200000E+00;  9.9999998E-03;  1.8000001E-01;657;  0.0000000E+00;  0.0000000E+00;  0.0000000E+00;  1.0000000E+03;  4.0000001E-01;  0.0000000E+00;0;  0.0000000E+00;  0.0000000E+00;  0.0000000E+00;0;  0.0000000E+00;  1.0000000E+04;  0.0000000E+00;  0.0000000E+00;  1.0000000E+04;  0.0000000E+00;  1.0000000E+04;  0.0000000E+00;  0.0000000E+00;  0.0000000E+00;  0.0000000E+00;
  2.0400000E+00;  9.9999998E-03; -4.0000001E-01;658;  0.0000000E+00;  0.0000000E+00;  0.0000000E+00;  1.0000000E+03;  4.0000001E-01;  0.0000000E+00;0;  0.0000000E+00;  0.0000000E+00;  0.0000000E+00;0;  0.0000000E+00;  1.0000000E+04;  0.0000000E+00;  0.0000000E+00;  1.0000000E+04;  0.0000000E+00;  1.0000000E+04;  0.0000000E+00;  0.0000000E+00;  0.0000000E+00;  0.0000000E+00;
  2.0400000E+00;  9.9999998E-03; -3.8000000E-01;659;  0.0000000E+00;  0.0000000E+00;  0.0000000E+00;  1.0000000E+03;  4.0000001E-01;  0.0000000E+00;0;  0.0000000E+00;  0.0000000E+00;  0.0000000E+00;0;  0.0000000E+00;  1.0000000E+04;  0.0000000E+00;  0.0000000E+00;  1.0000000E+04;  0.0000000E+00;  1.0000000E+04;  0.0000000E+00;  0.0000000E+00;  0.0000000E+00;  0.0000000E+00;
  2.0400000E+00;  9.9999998E-03; -3.6000001E-01;660;  0.0000000E+00;  0.0000000E+00;  0.0000000E+00;  1.0000000E+03;  4.0000001E-01;  0.0000000E+00;0;  0.0000000E+00;  0.0000000E+00;  0.0000000E+00;0;  0.0000000E+00;  1.0000000E+04;  0.0000000E+00;  0.0000000E+00;  1.0000000E+04;  0.0000000E+00;  1.0000000E+04;  0.0000000E+00;  0.0000000E+00;  0.0000000E+00;  0.0000000E+00;
  2.0400000E+00;  9.9999998E-03; -3.4000000E-01;661;  0.0000000E+00;  0.0000000E+00;  0.0000000E+00;  1.0000000E+03;  4.0000001E-01;  0.0000000E+00;0;  0.0000000E+00;  0.0000000E+00;  0.0000000E+00;0;  0.0000000E+00;  1.0000000E+04;  0.0000000E+00;  0.0000000E+00;  1.0000000E+04;  0.0000000E+00;  1.0000000E+04;  0.0000000E+00;  0.0000000E+00;  0.0000000E+00;  0.0000000E+00;
  2.0400000E+00;  9.9999998E-03; -3.1999999E-01;662;  0.0000000E+00;  0.0000000E+00;  0.0000000E+00;  1.0000000E+03;  4.0000001E-01;  0.0000000E+00;0;  0.0000000E+00;  0.0000000E+00;  0.0000000E+00;0;  0.0000000E+00;  1.0000000E+04;  0.0000000E+00;  0.0000000E+00;  1.0000000E+04;  0.0000000E+00;  1.0000000E+04;  0.0000000E+00;  0.0000000E+00;  0.0000000E+00;  0.0000000E+00;
  2.0400000E+00;  9.9999998E-03; -3.0000001E-01;663;  0.0000000E+00;  0.0000000E+00;  0.0000000E+00;  1.0000000E+03;  4.0000001E-01;  0.0000000E+00;0;  0.0000000E+00;  0.0000000E+00;  0.0000000E+00;0;  0.0000000E+00;  1.0000000E+04;  0.0000000E+00;  0.0000000E+00;  1.0000000E+04;  0.0000000E+00;  1.0000000E+04;  0.0000000E+00;  0.0000000E+00;  0.0000000E+00;  0.0000000E+00;
  2.0400000E+00;  9.9999998E-03; -2.8000000E-01;664;  0.0000000E+00;  0.0000000E+00;  0.0000000E+00;  1.0000000E+03;  4.0000001E-01;  0.0000000E+00;0;  0.0000000E+00;  0.0000000E+00;  0.0000000E+00;0;  0.0000000E+00;  1.0000000E+04;  0.0000000E+00;  0.0000000E+00;  1.0000000E+04;  0.0000000E+00;  1.0000000E+04;  0.0000000E+00;  0.0000000E+00;  0.0000000E+00;  0.0000000E+00;
  2.0400000E+00;  9.9999998E-03; -2.5999999E-01;665;  0.0000000E+00;  0.0000000E+00;  0.0000000E+00;  1.0000000E+03;  4.0000001E-01;  0.0000000E+00;0;  0.0000000E+00;  0.0000000E+00;  0.0000000E+00;0;  0.0000000E+00;  1.0000000E+04;  0.0000000E+00;  0.0000000E+00;  1.0000000E+04;  0.0000000E+00;  1.0000000E+04;  0.0000000E+00;  0.0000000E+00;  0.0000000E+00;  0.0000000E+00;
  2.0400000E+00;  9.9999998E-03; -2.3999999E-01;666;  0.0000000E+00;  0.0000000E+00;  0.0000000E+00;  1.0000000E+03;  4.0000001E-01;  0.0000000E+00;0;  0.0000000E+00;  0.0000000E+00;  0.0000000E+00;0;  0.0000000E+00;  1.0000000E+04;  0.0000000E+00;  0.0000000E+00;  1.0000000E+04;  0.0000000E+00;  1.0000000E+04;  0.0000000E+00;  0.0000000E+00;  0.0000000E+00;  0.0000000E+00;
  2.0400000E+00;  9.9999998E-03; -2.2000000E-01;667;  0.0000000E+00;  0.0000000E+00;  0.0000000E+00;  1.0000000E+03;  4.0000001E-01;  0.0000000E+00;0;  0.0000000E+00;  0.0000000E+00;  0.0000000E+00;0;  0.0000000E+00;  1.0000000E+04;  0.0000000E+00;  0.0000000E+00;  1.0000000E+04;  0.0000000E+00;  1.0000000E+04;  0.0000000E+00;  0.0000000E+00;  0.0000000E+00;  0.0000000E+00;
  2.0400000E+00;  9.9999998E-03; -2.0000000E-01;668;  0.0000000E+00;  0.0000000E+00;  0.0000000E+00;  1.0000000E+03;  4.0000001E-01;  0.0000000E+00;0;  0.0000000E+00;  0.0000000E+00;  0.0000000E+00;0;  0.0000000E+00;  1.0000000E+04;  0.0000000E+00;  0.0000000E+00;  1.0000000E+04;  0.0000000E+00;  1.0000000E+04;  0.0000000E+00;  0.0000000E+00;  0.0000000E+00;  0.0000000E+00;
  2.0400000E+00;  9.9999998E-03; -1.8000001E-01;669;  0.0000000E+00;  0.0000000E+00;  0.0000000E+00;  1.0000000E+03;  4.0000001E-01;  0.0000000E+00;0;  0.0000000E+00;  0.0000000E+00;  0.0000000E+00;0;  0.0000000E+00;  1.0000000E+04;  0.0000000E+00;  0.0000000E+00;  1.0000000E+04;  0.0000000E+00;  1.0000000E+04;  0.0000000E+00;  0.0000000E+00;  0.0000000E+00;  0.0000000E+00;
  2.0400000E+00;  9.9999998E-03; -1.6000000E-01;670;  0.0000000E+00;  0.0000000E+00;  0.0000000E+00;  1.0000000E+03;  4.0000001E-01;  0.0000000E+00;0;  0.0000000E+00;  0.0000000E+00;  0.0000000E+00;0;  0.0000000E+00;  1.0000000E+04;  0.0000000E+00;  0.0000000E+00;  1.0000000E+04;  0.0000000E+00;  1.0000000E+04;  0.0000000E+00;  0.0000000E+00;  0.0000000E+00;  0.0000000E+00;
  2.0400000E+00;  9.9999998E-03; -1.4000000E-01;671;  0.0000000E+00;  0.0000000E+00;  0.0000000E+00;  1.0000000E+03;  4.0000001E-01;  0.0000000E+00;0;  0.0000000E+00;  0.0000000E+00;  0.0000000E+00;0;  0.0000000E+00;  1.0000000E+04;  0.0000000E+00;  0.0000000E+00;  1.0000000E+04;  0.0000000E+00;  1.0000000E+04;  0.0000000E+00;  0.0000000E+00;  0.0000000E+00;  0.0000000E+00;
  2.0400000E+00;  9.9999998E-03; -1.2000000E-01;672;  0.0000000E+00;  0.0000000E+00;  0.0000000E+00;  1.0000000E+03;  4.0000001E-01;  0.0000000E+00;0;  0.0000000E+00;  0.0000000E+00;  0.0000000E+00;0;  0.0000000E+00;  1.0000000E+04;  0.0000000E+00;  0.0000000E+00;  1.0000000E+04;  0.0000000E+00;  1.0000000E+04;  0.0000000E+00;  0.0000000E+00;  0.0000000E+00;  0.0000000E+00;
  2.0400000E+00;  9.9999998E-03; -1.0000000E-01;673;  0.0000000E+00;  0.0000000E+00;  0.0000000E+00;  1.0000000E+03;  4.0000001E-01;  0.0000000E+00;0;  0.0000000E+00;  0.0000000E+00;  0.0000000E+00;0;  0.0000000E+00;  1.0000000E+04;  0.0000000E+00;  0.0000000E+00;  1.0000000E+04;  0.0000000E+00;  1.0000000E+04;  0.0000000E+00;  0.0000000E+00;  0.0000000E+00;  0.0000000E+00;
  2.0400000E+00;  9.9999998E-03; -7.9999998E-02;674;  0.0000000E+00;  0.0000000E+00;  0.0000000E+00;  1.0000000E+03;  4.0000001E-01;  0.0000000E+00;0;  0.0000000E+00;  0.0000000E+00;  0.0000000E+00;0;  0.0000000E+00;  1.0000000E+04;  0.0000000E+00;  0.0000000E+00;  1.0000000E+04;  0.0000000E+00;  1.0000000E+04;  0.0000000E+00;  0.0000000E+00;  0.0000000E+00;  0.0000000E+00;
  2.0400000E+00;  9.9999998E-03; -5.9999999E-02;675;  0.0000000E+00;  0.0000000E+00;  0.0000000E+00;  1.0000000E+03;  4.0000001E-01;  0.0000000E+00;0;  0.0000000E+00;  0.0000000E+00;  0.0000000E+00;0;  0.0000000E+00;  1.0000000E+04;  0.0000000E+00;  0.0000000E+00;  1.0000000E+04;  0.0000000E+00;  1.0000000E+04;  0.0000000E+00;  0.0000000E+00;  0.0000000E+00;  0.0000000E+00;
  2.0400000E+00;  9.9999998E-03; -3.9999999E-02;676;  0.0000000E+00;  0.0000000E+00;  0.0000000E+00;  1.0000000E+03;  4.0000001E-01;  0.0000000E+00;0;  0.0000000E+00;  0.0000000E+00;  0.0000000E+00;0;  0.0000000E+00;  1.0000000E+04;  0.0000000E+00;  0.0000000E+00;  1.0000000E+04;  0.0000000E+00;  1.0000000E+04;  0.0000000E+00;  0.0000000E+00;  0.0000000E+00;  0.0000000E+00;
  2.0400000E+00;  9.9999998E-03; -2.0000000E-02;677;  0.0000000E+00;  0.0000000E+00;  0.0000000E+00;  1.0000000E+03;  4.0000001E-01;  0.0000000E+00;0;  0.0000000E+00;  0.0000000E+00;  0.0000000E+00;0;  0.0000000E+00;  1.0000000E+04;  0.0000000E+00;  0.0000000E+00;  1.0000000E+04;  0.0000000E+00;  1.0000000E+04;  0.0000000E+00;  0.0000000E+00;  0.0000000E+00;  0.0000000E+00;
  2.0400000E+00;  9.9999998E-03;  0.0000000E+00;678;  0.0000000E+00;  0.0000000E+00;  0.0000000E+00;  1.0000000E+03;  4.0000001E-01;  0.0000000E+00;0;  0.0000000E+00;  0.0000000E+00;  0.0000000E+00;0;  0.0000000E+00;  1.0000000E+04;  0.0000000E+00;  0.0000000E+00;  1.0000000E+04;  0.0000000E+00;  1.0000000E+04;  0.0000000E+00;  0.0000000E+00;  0.0000000E+00;  0.0000000E+00;
  2.0400000E+00;  9.9999998E-03;  2.0000000E-02;679;  0.0000000E+00;  0.0000000E+00;  0.0000000E+00;  1.0000000E+03;  4.0000001E-01;  0.0000000E+00;0;  0.0000000E+00;  0.0000000E+00;  0.0000000E+00;0;  0.0000000E+00;  1.0000000E+04;  0.0000000E+00;  0.0000000E+00;  1.0000000E+04;  0.0000000E+00;  1.0000000E+04;  0.0000000E+00;  0.0000000E+00;  0.0000000E+00;  0.0000000E+00;
  2.0400000E+00;  9.9999998E-03;  3.9999999E-02;680;  0.0000000E+00;  0.0000000E+00;  0.0000000E+00;  1.0000000E+03;  4.0000001E-01;  0.0000000E+00;0;  0.0000000E+00;  0.0000000E+00;  0.0000000E+00;0;  0.0000000E+00;  1.0000000E+04;  0.0000000E+00;  0.0000000E+00;  1.0000000E+04;  0.0000000E+00;  1.0000000E+04;  0.0000000E+00;  0.0000000E+00;  0.0000000E+00;  0.0000000E+00;
  2.0400000E+00;  9.9999998E-03;  5.9999999E-02;681;  0.0000000E+00;  0.0000000E+00;  0.0000000E+00;  1.0000000E+03;  4.0000001E-01;  0.0000000E+00;0;  0.0000000E+00;  0.0000000E+00;  0.0000000E+00;0;  0.0000000E+00;  1.0000000E+04;  0.0000000E+00;  0.0000000E+00;  1.0000000E+04;  0.0000000E+00;  1.0000000E+04;  0.0000000E+00;  0.0000000E+00;  0.0000000E+00;  0.0000000E+00;
  2.0400000E+00;  9.9999998E-03;  7.9999998E-02;682;  0.0000000E+00;  0.0000000E+00;  0.0000000E+00;  1.0000000E+03;  4.0000001E-01;  0.0000000E+00;0;  0.0000000E+00;  0.0000000E+00;  0.0000000E+00;0;  0.0000000E+00;  1.0000000E+04;  0.0000000E+00;  0.0000000E+00;  1.0000000E+04;  0.0000000E+00;  1.0000000E+04;  0.0000000E+00;  0.0000000E+00;  0.0000000E+00;  0.0000000E+00;
  2.0400000E+00;  9.9999998E-03;  1.0000000E-01;683;  0.0000000E+00;  0.0000000E+00;  0.0000000E+00;  1.0000000E+03;  4.0000001E-01;  0.0000000E+00;0;  0.0000000E+00;  0.0000000E+00;  0.0000000E+00;0;  0.0000000E+00;  1.0000000E+04;  0.0000000E+00;  0.0000000E+00;  1.0000000E+04;  0.0000000E+00;  1.0000000E+04;  0.0000000E+00;  0.0000000E+00;  0.0000000E+00;  0.0000000E+00;
  2.0400000E+00;  9.9999998E-03;  1.2000000E-01;684;  0.0000000E+00;  0.0000000E+00;  0.0000000E+00;  1.0000000E+03;  4.0000001E-01;  0.0000000E+00;0;  0.0000000E+00;  0.0000000E+00;  0.0000000E+00;0;  0.0000000E+00;  1.0000000E+04;  0.0000000E+00;  0.0000000E+00;  1.0000000E+04;  0.0000000E+00;  1.0000000E+04;  0.0000000E+00;  0.0000000E+00;  0.0000000E+00;  0.0000000E+00;
  2.0400000E+00;  9.9999998E-03;  1.4000000E-01;685;  0.0000000E+00;  0.0000000E+00;  0.0000000E+00;  1.0000000E+03;  4.0000001E-01;  0.0000000E+00;0;  0.0000000E+00;  0.0000000E+00;  0.0000000E+00;0;  0.0000000E+00;  1.0000000E+04;  0.0000000E+00;  0.0000000E+00;  1.0000000E+04;  0.0000000E+00;  1.0000000E+04;  0.0000000E+00;  0.0000000E+00;  0.0000000E+00;  0.0000000E+00;
  2.0400000E+00;  9.9999998E-03;  1.6000000E-01;686;  0.0000000E+00;  0.0000000E+00;  0.0000000E+00;  1.0000000E+03;  4.0000001E-01;  0.0000000E+00;0;  0.0000000E+00;  0.0000000E+00;  0.0000000E+00;0;  0.0000000E+00;  1.0000000E+04;  0.0000000E+00;  0.0000000E+00;  1.0000000E+04;  0.0000000E+00;  1.0000000E+04;  0.0000000E+00;  0.0000000E+00;  0.0000000E+00;  0.0000000E+00;
  2.0400000E+00;  9.9999998E-03;  1.8000001E-01;687;  0.0000000E+00;  0.0000000E+00;  0.0000000E+00;  1.0000000E+03;  4.0000001E-01;  0.0000000E+00;0;  0.0000000E+00;  0.0000000E+00;  0.0000000E+00;0;  0.0000000E+00;  1.0000000E+04;  0.0000000E+00;  0.0000000E+00;  1.0000000E+04;  0.0000000E+00;  1.0000000E+04;  0.0000000E+00;  0.0000000E+00;  0.0000000E+00;  0.0000000E+00;
  2.0400000E+00;  9.9999998E-03;  2.0000000E-01;688;  0.0000000E+00;  0.0000000E+00;  0.0000000E+00;  1.0000000E+03;  4.0000001E-01;  0.0000000E+00;0;  0.0000000E+00;  0.0000000E+00;  0.0000000E+00;0;  0.0000000E+00;  1.0000000E+04;  0.0000000E+00;  0.0000000E+00;  1.0000000E+04;  0.0000000E+00;  1.0000000E+04;  0.0000000E+00;  0.0000000E+00;  0.0000000E+00;  0.0000000E+00;
  2.0400000E+00;  9.9999998E-03;  2.2000000E-01;689;  0.0000000E+00;  0.0000000E+00;  0.0000000E+00;  1.0000000E+03;  4.0000001E-01;  0.0000000E+00;0;  0.0000000E+00;  0.0000000E+00;  0.0000000E+00;0;  0.0000000E+00;  1.0000000E+04;  0.0000000E+00;  0.0000000E+00;  1.0000000E+04;  0.0000000E+00;  1.0000000E+04;  0.0000000E+00;  0.0000000E+00;  0.0000000E+00;  0.0000000E+00;
  2.0400000E+00;  9.9999998E-03;  2.3999999E-01;690;  0.0000000E+00;  0.0000000E+00;  0.0000000E+00;  1.0000000E+03;  4.0000001E-01;  0.0000000E+00;0;  0.0000000E+00;  0.0000000E+00;  0.0000000E+00;0;  0.0000000E+00;  1.0000000E+04;  0.0000000E+00;  0.0000000E+00;  1.0000000E+04;  0.0000000E+00;  1.0000000E+04;  0.0000000E+00;  0.0000000E+00;  0.0000000E+00;  0.0000000E+00;
  2.0400000E+00;  9.9999998E-03;  2.5999999E-01;691;  0.0000000E+00;  0.0000000E+00;  0.0000000E+00;  1.0000000E+03;  4.0000001E-01;  0.0000000E+00;0;  0.0000000E+00;  0.0000000E+00;  0.0000000E+00;0;  0.0000000E+00;  1.0000000E+04;  0.0000000E+00;  0.0000000E+00;  1.0000000E+04;  0.0000000E+00;  1.0000000E+04;  0.0000000E+00;  0.0000000E+00;  0.0000000E+00;  0.0000000E+00;
  2.0400000E+00;  9.9999998E-03;  2.8000000E-01;692;  0.0000000E+00;  0.0000000E+00;  0.0000000E+00;  1.0000000E+03;  4.0000001E-01;  0.0000000E+00;0;  0.0000000E+00;  0.0000000E+00;  0.0000000E+00;0;  0.0000000E+00;  1.0000000E+04;  0.0000000E+00;  0.0000000E+00;  1.0000000E+04;  0.0000000E+00;  1.0000000E+04;  0.0000000E+00;  0.0000000E+00;  0.0000000E+00;  0.0000000E+00;
  2.0599999E+00;  9.9999998E-03; -4.0000001E-01;693;  0.0000000E+00;  0.0000000E+00;  0.0000000E+00;  1.0000000E+03;  4.0000001E-01;  0.0000000E+00;0;  0.0000000E+00;  0.0000000E+00;  0.0000000E+00;0;  0.0000000E+00;  1.0000000E+04;  0.0000000E+00;  0.0000000E+00;  1.0000000E+04;  0.0000000E+00;  1.0000000E+04;  0.0000000E+00;  0.0000000E+00;  0.0000000E+00;  0.0000000E+00;
  2.0599999E+00;  9.9999998E-03; -3.8000000E-01;694;  0.0000000E+00;  0.0000000E+00;  0.0000000E+00;  1.0000000E+03;  4.0000001E-01;  0.0000000E+00;0;  0.0000000E+00;  0.0000000E+00;  0.0000000E+00;0;  0.0000000E+00;  1.0000000E+04;  0.0000000E+00;  0.0000000E+00;  1.0000000E+04;  0.0000000E+00;  1.0000000E+04;  0.0000000E+00;  0.0000000E+00;  0.0000000E+00;  0.0000000E+00;
  2.0599999E+00;  9.9999998E-03; -3.6000001E-01;695;  0.0000000E+00;  0.0000000E+00;  0.0000000E+00;  1.0000000E+03;  4.0000001E-01;  0.0000000E+00;0;  0.0000000E+00;  0.0000000E+00;  0.0000000E+00;0;  0.0000000E+00;  1.0000000E+04;  0.0000000E+00;  0.0000000E+00;  1.0000000E+04;  0.0000000E+00;  1.0000000E+04;  0.0000000E+00;  0.0000000E+00;  0.0000000E+00;  0.0000000E+00;
  2.0599999E+00;  9.9999998E-03; -3.4000000E-01;696;  0.0000000E+00;  0.0000000E+00;  0.0000000E+00;  1.0000000E+03;  4.0000001E-01;  0.0000000E+00;0;  0.0000000E+00;  0.0000000E+00;  0.0000000E+00;0;  0.0000000E+00;  1.0000000E+04;  0.0000000E+00;  0.0000000E+00;  1.0000000E+04;  0.0000000E+00;  1.0000000E+04;  0.0000000E+00;  0.0000000E+00;  0.0000000E+00;  0.0000000E+00;
  2.0599999E+00;  9.9999998E-03; -3.1999999E-01;697;  0.0000000E+00;  0.0000000E+00;  0.0000000E+00;  1.0000000E+03;  4.0000001E-01;  0.0000000E+00;0;  0.0000000E+00;  0.0000000E+00;  0.0000000E+00;0;  0.0000000E+00;  1.0000000E+04;  0.0000000E+00;  0.0000000E+00;  1.0000000E+04;  0.0000000E+00;  1.0000000E+04;  0.0000000E+00;  0.0000000E+00;  0.0000000E+00;  0.0000000E+00;
  2.0599999E+00;  9.9999998E-03; -3.0000001E-01;698;  0.0000000E+00;  0.0000000E+00;  0.0000000E+00;  1.0000000E+03;  4.0000001E-01;  0.0000000E+00;0;  0.0000000E+00;  0.0000000E+00;  0.0000000E+00;0;  0.0000000E+00;  1.0000000E+04;  0.0000000E+00;  0.0000000E+00;  1.0000000E+04;  0.0000000E+00;  1.0000000E+04;  0.0000000E+00;  0.0000000E+00;  0.0000000E+00;  0.0000000E+00;
  2.0599999E+00;  9.9999998E-03; -2.8000000E-01;699;  0.0000000E+00;  0.0000000E+00;  0.0000000E+00;  1.0000000E+03;  4.0000001E-01;  0.0000000E+00;0;  0.0000000E+00;  0.0000000E+00;  0.0000000E+00;0;  0.0000000E+00;  1.0000000E+04;  0.0000000E+00;  0.0000000E+00;  1.0000000E+04;  0.0000000E+00;  1.0000000E+04;  0.0000000E+00;  0.0000000E+00;  0.0000000E+00;  0.0000000E+00;
  2.0599999E+00;  9.9999998E-03; -2.5999999E-01;700;  0.0000000E+00;  0.0000000E+00;  0.0000000E+00;  1.0000000E+03;  4.0000001E-01;  0.0000000E+00;0;  0.0000000E+00;  0.0000000E+00;  0.0000000E+00;0;  0.0000000E+00;  1.0000000E+04;  0.0000000E+00;  0.0000000E+00;  1.0000000E+04;  0.0000000E+00;  1.0000000E+04;  0.0000000E+00;  0.0000000E+00;  0.0000000E+00;  0.0000000E+00;
  2.0599999E+00;  9.9999998E-03; -2.3999999E-01;701;  0.0000000E+00;  0.0000000E+00;  0.0000000E+00;  1.0000000E+03;  4.0000001E-01;  0.0000000E+00;0;  0.0000000E+00;  0.0000000E+00;  0.0000000E+00;0;  0.0000000E+00;  1.0000000E+04;  0.0000000E+00;  0.0000000E+00;  1.0000000E+04;  0.0000000E+00;  1.0000000E+04;  0.0000000E+00;  0.0000000E+00;  0.0000000E+00;  0.0000000E+00;
  2.0599999E+00;  9.9999998E-03; -2.2000000E-01;702;  0.0000000E+00;  0.0000000E+00;  0.0000000E+00;  1.0000000E+03;  4.0000001E-01;  0.0000000E+00;0;  0.0000000E+00;  0.0000000E+00;  0.0000000E+00;0;  0.0000000E+00;  1.0000000E+04;  0.0000000E+00;  0.0000000E+00;  1.0000000E+04;  0.0000000E+00;  1.0000000E+04;  0.0000000E+00;  0.0000000E+00;  0.0000000E+00;  0.0000000E+00;
  2.0599999E+00;  9.9999998E-03; -2.0000000E-01;703;  0.0000000E+00;  0.0000000E+00;  0.0000000E+00;  1.0000000E+03;  4.0000001E-01;  0.0000000E+00;0;  0.0000000E+00;  0.0000000E+00;  0.0000000E+00;0;  0.0000000E+00;  1.0000000E+04;  0.0000000E+00;  0.0000000E+00;  1.0000000E+04;  0.0000000E+00;  1.0000000E+04;  0.0000000E+00;  0.0000000E+00;  0.0000000E+00;  0.0000000E+00;
  2.0599999E+00;  9.9999998E-03; -1.8000001E-01;704;  0.0000000E+00;  0.0000000E+00;  0.0000000E+00;  1.0000000E+03;  4.0000001E-01;  0.0000000E+00;0;  0.0000000E+00;  0.0000000E+00;  0.0000000E+00;0;  0.0000000E+00;  1.0000000E+04;  0.0000000E+00;  0.0000000E+00;  1.0000000E+04;  0.0000000E+00;  1.0000000E+04;  0.0000000E+00;  0.0000000E+00;  0.0000000E+00;  0.0000000E+00;
  2.0599999E+00;  9.9999998E-03; -1.6000000E-01;705;  0.0000000E+00;  0.0000000E+00;  0.0000000E+00;  1.0000000E+03;  4.0000001E-01;  0.0000000E+00;0;  0.0000000E+00;  0.0000000E+00;  0.0000000E+00;0;  0.0000000E+00;  1.0000000E+04;  0.0000000E+00;  0.0000000E+00;  1.0000000E+04;  0.0000000E+00;  1.0000000E+04;  0.0000000E+00;  0.0000000E+00;  0.0000000E+00;  0.0000000E+00;
  2.0599999E+00;  9.9999998E-03; -1.4000000E-01;706;  0.0000000E+00;  0.0000000E+00;  0.0000000E+00;  1.0000000E+03;  4.0000001E-01;  0.0000000E+00;0;  0.0000000E+00;  0.0000000E+00;  0.0000000E+00;0;  0.0000000E+00;  1.0000000E+04;  0.0000000E+00;  0.0000000E+00;  1.0000000E+04;  0.0000000E+00;  1.0000000E+04;  0.0000000E+00;  0.0000000E+00;  0.0000000E+00;  0.0000000E+00;
  2.0599999E+00;  9.9999998E-03; -1.2000000E-01;707;  0.0000000E+00;  0.0000000E+00;  0.0000000E+00;  1.0000000E+03;  4.0000001E-01;  0.0000000E+00;0;  0.0000000E+00;  0.0000000E+00;  0.0000000E+00;0;  0.0000000E+00;  1.0000000E+04;  0.0000000E+00;  0.0000000E+00;  1.0000000E+04;  0.0000000E+00;  1.0000000E+04;  0.0000000E+00;  0.0000000E+00;  0.0000000E+00;  0.0000000E+00;
  2.0599999E+00;  9.9999998E-03; -1.0000000E-01;708;  0.0000000E+00;  0.0000000E+00;  0.0000000E+00;  1.0000000E+03;  4.0000001E-01;  0.0000000E+00;0;  0.0000000E+00;  0.0000000E+00;  0.0000000E+00;0;  0.0000000E+00;  1.0000000E+04;  0.0000000E+00;  0.0000000E+00;  1.0000000E+04;  0.0000000E+00;  1.0000000E+04;  0.0000000E+00;  0.0000000E+00;  0.0000000E+00;  0.0000000E+00;
  2.0599999E+00;  9.9999998E-03; -7.9999998E-02;709;  0.0000000E+00;  0.0000000E+00;  0.0000000E+00;  1.0000000E+03;  4.0000001E-01;  0.0000000E+00;0;  0.0000000E+00;  0.0000000E+00;  0.0000000E+00;0;  0.0000000E+00;  1.0000000E+04;  0.0000000E+00;  0.0000000E+00;  1.0000000E+04;  0.0000000E+00;  1.0000000E+04;  0.0000000E+00;  0.0000000E+00;  0.0000000E+00;  0.0000000E+00;
  2.0599999E+00;  9.9999998E-03; -5.9999999E-02;710;  0.0000000E+00;  0.0000000E+00;  0.0000000E+00;  1.0000000E+03;  4.0000001E-01;  0.0000000E+00;0;  0.0000000E+00;  0.0000000E+00;  0.0000000E+00;0;  0.0000000E+00;  1.0000000E+04;  0.0000000E+00;  0.0000000E+00;  1.0000000E+04;  0.0000000E+00;  1.0000000E+04;  0.0000000E+00;  0.0000000E+00;  0.0000000E+00;  0.0000000E+00;
  2.0599999E+00;  9.9999998E-03; -3.9999999E-02;711;  0.0000000E+00;  0.0000000E+00;  0.0000000E+00;  1.0000000E+03;  4.0000001E-01;  0.0000000E+00;0;  0.0000000E+00;  0.0000000E+00;  0.0000000E+00;0;  0.0000000E+00;  1.0000000E+04;  0.0000000E+00;  0.0000000E+00;  1.0000000E+04;  0.0000000E+00;  1.0000000E+04;  0.0000000E+00;  0.0000000E+00;  0.0000000E+00;  0.0000000E+00;
  2.0599999E+00;  9.9999998E-03; -2.0000000E-02;712;  0.0000000E+00;  0.0000000E+00;  0.0000000E+00;  1.0000000E+03;  4.0000001E-01;  0.0000000E+00;0;  0.0000000E+00;  0.0000000E+00;  0.0000000E+00;0;  0.0000000E+00;  1.0000000E+04;  0.0000000E+00;  0.0000000E+00;  1.0000000E+04;  0.0000000E+00;  1.0000000E+04;  0.0000000E+00;  0.0000000E+00;  0.0000000E+00;  0.0000000E+00;
  2.0599999E+00;  9.9999998E-03;  0.0000000E+00;713;  0.0000000E+00;  0.0000000E+00;  0.0000000E+00;  1.0000000E+03;  4.0000001E-01;  0.0000000E+00;0;  0.0000000E+00;  0.0000000E+00;  0.0000000E+00;0;  0.0000000E+00;  1.0000000E+04;  0.0000000E+00;  0.0000000E+00;  1.0000000E+04;  0.0000000E+00;  1.0000000E+04;  0.0000000E+00;  0.0000000E+00;  0.0000000E+00;  0.0000000E+00;
  2.0599999E+00;  9.9999998E-03;  2.0000000E-02;714;  0.0000000E+00;  0.0000000E+00;  0.0000000E+00;  1.0000000E+03;  4.0000001E-01;  0.0000000E+00;0;  0.0000000E+00;  0.0000000E+00;  0.0000000E+00;0;  0.0000000E+00;  1.0000000E+04;  0.0000000E+00;  0.0000000E+00;  1.0000000E+04;  0.0000000E+00;  1.0000000E+04;  0.0000000E+00;  0.0000000E+00;  0.0000000E+00;  0.0000000E+00;
  2.0599999E+00;  9.9999998E-03;  3.9999999E-02;715;  0.0000000E+00;  0.0000000E+00;  0.0000000E+00;  1.0000000E+03;  4.0000001E-01;  0.0000000E+00;0;  0.0000000E+00;  0.0000000E+00;  0.0000000E+00;0;  0.0000000E+00;  1.0000000E+04;  0.0000000E+00;  0.0000000E+00;  1.0000000E+04;  0.0000000E+00;  1.0000000E+04;  0.0000000E+00;  0.0000000E+00;  0.0000000E+00;  0.0000000E+00;
  2.0599999E+00;  9.9999998E-03;  5.9999999E-02;716;  0.0000000E+00;  0.0000000E+00;  0.0000000E+00;  1.0000000E+03;  4.0000001E-01;  0.0000000E+00;0;  0.0000000E+00;  0.0000000E+00;  0.0000000E+00;0;  0.0000000E+00;  1.0000000E+04;  0.0000000E+00;  0.0000000E+00;  1.0000000E+04;  0.0000000E+00;  1.0000000E+04;  0.0000000E+00;  0.0000000E+00;  0.0000000E+00;  0.0000000E+00;
  2.0599999E+00;  9.9999998E-03;  7.9999998E-02;717;  0.0000000E+00;  0.0000000E+00;  0.0000000E+00;  1.0000000E+03;  4.0000001E-01;  0.0000000E+00;0;  0.0000000E+00;  0.0000000E+00;  0.0000000E+00;0;  0.0000000E+00;  1.0000000E+04;  0.0000000E+00;  0.0000000E+00;  1.0000000E+04;  0.0000000E+00;  1.0000000E+04;  0.0000000E+00;  0.0000000E+00;  0.0000000E+00;  0.0000000E+00;
  2.0599999E+00;  9.9999998E-03;  1.0000000E-01;718;  0.0000000E+00;  0.0000000E+00;  0.0000000E+00;  1.0000000E+03;  4.0000001E-01;  0.0000000E+00;0;  0.0000000E+00;  0.0000000E+00;  0.0000000E+00;0;  0.0000000E+00;  1.0000000E+04;  0.0000000E+00;  0.0000000E+00;  1.0000000E+04;  0.0000000E+00;  1.0000000E+04;  0.0000000E+00;  0.0000000E+00;  0.0000000E+00;  0.0000000E+00;
  2.0599999E+00;  9.9999998E-03;  1.2000000E-01;719;  0.0000000E+00;  0.0000000E+00;  0.0000000E+00;  1.0000000E+03;  4.0000001E-01;  0.0000000E+00;0;  0.0000000E+00;  0.0000000E+00;  0.0000000E+00;0;  0.0000000E+00;  1.0000000E+04;  0.0000000E+00;  0.0000000E+00;  1.0000000E+04;  0.0000000E+00;  1.0000000E+04;  0.0000000E+00;  0.0000000E+00;  0.0000000E+00;  0.0000000E+00;
  2.0599999E+00;  9.9999998E-03;  1.4000000E-01;720;  0.0000000E+00;  0.0000000E+00;  0.0000000E+00;  1.0000000E+03;  4.0000001E-01;  0.0000000E+00;0;  0.0000000E+00;  0.0000000E+00;  0.0000000E+00;0;  0.0000000E+00;  1.0000000E+04;  0.0000000E+00;  0.0000000E+00;  1.0000000E+04;  0.0000000E+00;  1.0000000E+04;  0.0000000E+00;  0.0000000E+00;  0.0000000E+00;  0.0000000E+00;
  2.0599999E+00;  9.9999998E-03;  1.6000000E-01;721;  0.0000000E+00;  0.0000000E+00;  0.0000000E+00;  1.0000000E+03;  4.0000001E-01;  0.0000000E+00;0;  0.0000000E+00;  0.0000000E+00;  0.0000000E+00;0;  0.0000000E+00;  1.0000000E+04;  0.0000000E+00;  0.0000000E+00;  1.0000000E+04;  0.0000000E+00;  1.0000000E+04;  0.0000000E+00;  0.0000000E+00;  0.0000000E+00;  0.0000000E+00;
  2.0599999E+00;  9.9999998E-03;  1.8000001E-01;722;  0.0000000E+00;  0.0000000E+00;  0.0000000E+00;  1.0000000E+03;  4.0000001E-01;  0.0000000E+00;0;  0.0000000E+00;  0.0000000E+00;  0.0000000E+00;0;  0.0000000E+00;  1.0000000E+04;  0.0000000E+00;  0.0000000E+00;  1.0000000E+04;  0.0000000E+00;  1.0000000E+04;  0.0000000E+00;  0.0000000E+00;  0.0000000E+00;  0.0000000E+00;
  2.0599999E+00;  9.9999998E-03;  2.0000000E-01;723;  0.0000000E+00;  0.0000000E+00;  0.0000000E+00;  1.0000000E+03;  4.0000001E-01;  0.0000000E+00;0;  0.0000000E+00;  0.0000000E+00;  0.0000000E+00;0;  0.0000000E+00;  1.0000000E+04;  0.0000000E+00;  0.0000000E+00;  1.0000000E+04;  0.0000000E+00;  1.0000000E+04;  0.0000000E+00;  0.0000000E+00;  0.0000000E+00;  0.0000000E+00;
  2.0599999E+00;  9.9999998E-03;  2.2000000E-01;724;  0.0000000E+00;  0.0000000E+00;  0.0000000E+00;  1.0000000E+03;  4.0000001E-01;  0.0000000E+00;0;  0.0000000E+00;  0.0000000E+00;  0.0000000E+00;0;  0.0000000E+00;  1.0000000E+04;  0.0000000E+00;  0.0000000E+00;  1.0000000E+04;  0.0000000E+00;  1.0000000E+04;  0.0000000E+00;  0.0000000E+00;  0.0000000E+00;  0.0000000E+00;
  2.0599999E+00;  9.9999998E-03;  2.3999999E-01;725;  0.0000000E+00;  0.0000000E+00;  0.0000000E+00;  1.0000000E+03;  4.0000001E-01;  0.0000000E+00;0;  0.0000000E+00;  0.0000000E+00;  0.0000000E+00;0;  0.0000000E+00;  1.0000000E+04;  0.0000000E+00;  0.0000000E+00;  1.0000000E+04;  0.0000000E+00;  1.0000000E+04;  0.0000000E+00;  0.0000000E+00;  0.0000000E+00;  0.0000000E+00;
  2.0599999E+00;  9.9999998E-03;  2.5999999E-01;726;  0.0000000E+00;  0.0000000E+00;  0.0000000E+00;  1.0000000E+03;  4.0000001E-01;  0.0000000E+00;0;  0.0000000E+00;  0.0000000E+00;  0.0000000E+00;0;  0.0000000E+00;  1.0000000E+04;  0.0000000E+00;  0.0000000E+00;  1.0000000E+04;  0.0000000E+00;  1.0000000E+04;  0.0000000E+00;  0.0000000E+00;  0.0000000E+00;  0.0000000E+00;
  2.0599999E+00;  9.9999998E-03;  2.8000000E-01;727;  0.0000000E+00;  0.0000000E+00;  0.0000000E+00;  1.0000000E+03;  4.0000001E-01;  0.0000000E+00;0;  0.0000000E+00;  0.0000000E+00;  0.0000000E+00;0;  0.0000000E+00;  1.0000000E+04;  0.0000000E+00;  0.0000000E+00;  1.0000000E+04;  0.0000000E+00;  1.0000000E+04;  0.0000000E+00;  0.0000000E+00;  0.0000000E+00;  0.0000000E+00;
  2.0599999E+00;  9.9999998E-03;  3.0000001E-01;728;  0.0000000E+00;  0.0000000E+00;  0.0000000E+00;  1.0000000E+03;  4.0000001E-01;  0.0000000E+00;0;  0.0000000E+00;  0.0000000E+00;  0.0000000E+00;0;  0.0000000E+00;  1.0000000E+04;  0.0000000E+00;  0.0000000E+00;  1.0000000E+04;  0.0000000E+00;  1.0000000E+04;  0.0000000E+00;  0.0000000E+00;  0.0000000E+00;  0.0000000E+00;
  2.0599999E+00;  9.9999998E-03;  3.1999999E-01;729;  0.0000000E+00;  0.0000000E+00;  0.0000000E+00;  1.0000000E+03;  4.0000001E-01;  0.0000000E+00;0;  0.0000000E+00;  0.0000000E+00;  0.0000000E+00;0;  0.0000000E+00;  1.0000000E+04;  0.0000000E+00;  0.0000000E+00;  1.0000000E+04;  0.0000000E+00;  1.0000000E+04;  0.0000000E+00;  0.0000000E+00;  0.0000000E+00;  0.0000000E+00;
  2.0599999E+00;  9.9999998E-03;  3.4000000E-01;730;  0.0000000E+00;  0.0000000E+00;  0.0000000E+00;  1.0000000E+03;  4.0000001E-01;  0.0000000E+00;0;  0.0000000E+00;  0.0000000E+00;  0.0000000E+00;0;  0.0000000E+00;  1.0000000E+04;  0.0000000E+00;  0.0000000E+00;  1.0000000E+04;  0.0000000E+00;  1.0000000E+04;  0.0000000E+00;  0.0000000E+00;  0.0000000E+00;  0.0000000E+00;
  2.0599999E+00;  9.9999998E-03;  3.6000001E-01;731;  0.0000000E+00;  0.0000000E+00;  0.0000000E+00;  1.0000000E+03;  4.0000001E-01;  0.0000000E+00;0;  0.0000000E+00;  0.0000000E+00;  0.0000000E+00;0;  0.0000000E+00;  1.0000000E+04;  0.0000000E+00;  0.0000000E+00;  1.0000000E+04;  0.0000000E+00;  1.0000000E+04;  0.0000000E+00;  0.0000000E+00;  0.0000000E+00;  0.0000000E+00;
  2.0599999E+00;  9.9999998E-03;  3.8000000E-01;732;  0.0000000E+00;  0.0000000E+00;  0.0000000E+00;  1.0000000E+03;  4.0000001E-01;  0.0000000E+00;0;  0.0000000E+00;  0.0000000E+00;  0.0000000E+00;0;  0.0000000E+00;  1.0000000E+04;  0.0000000E+00;  0.0000000E+00;  1.0000000E+04;  0.0000000E+00;  1.0000000E+04;  0.0000000E+00;  0.0000000E+00;  0.0000000E+00;  0.0000000E+00;
  2.0799999E+00;  9.9999998E-03; -4.0000001E-01;733;  0.0000000E+00;  0.0000000E+00;  0.0000000E+00;  1.0000000E+03;  4.0000001E-01;  0.0000000E+00;0;  0.0000000E+00;  0.0000000E+00;  0.0000000E+00;0;  0.0000000E+00;  1.0000000E+04;  0.0000000E+00;  0.0000000E+00;  1.0000000E+04;  0.0000000E+00;  1.0000000E+04;  0.0000000E+00;  0.0000000E+00;  0.0000000E+00;  0.0000000E+00;
  2.0799999E+00;  9.9999998E-03; -3.8000000E-01;734;  0.0000000E+00;  0.0000000E+00;  0.0000000E+00;  1.0000000E+03;  4.0000001E-01;  0.0000000E+00;0;  0.0000000E+00;  0.0000000E+00;  0.0000000E+00;0;  0.0000000E+00;  1.0000000E+04;  0.0000000E+00;  0.0000000E+00;  1.0000000E+04;  0.0000000E+00;  1.0000000E+04;  0.0000000E+00;  0.0000000E+00;  0.0000000E+00;  0.0000000E+00;
  2.0799999E+00;  9.9999998E-03; -3.6000001E-01;735;  0.0000000E+00;  0.0000000E+00;  0.0000000E+00;  1.0000000E+03;  4.0000001E-01;  0.0000000E+00;0;  0.0000000E+00;  0.0000000E+00;  0.0000000E+00;0;  0.0000000E+00;  1.0000000E+04;  0.0000000E+00;  0.0000000E+00;  1.0000000E+04;  0.0000000E+00;  1.0000000E+04;  0.0000000E+00;  0.0000000E+00;  0.0000000E+00;  0.0000000E+00;
  2.0799999E+00;  9.9999998E-03; -3.4000000E-01;736;  0.0000000E+00;  0.0000000E+00;  0.0000000E+00;  1.0000000E+03;  4.0000001E-01;  0.0000000E+00;0;  0.0000000E+00;  0.0000000E+00;  0.0000000E+00;0;  0.0000000E+00;  1.0000000E+04;  0.0000000E+00;  0.0000000E+00;  1.0000000E+04;  0.0000000E+00;  1.0000000E+04;  0.0000000E+00;  0.0000000E+00;  0.0000000E+00;  0.0000000E+00;
  2.0799999E+00;  9.9999998E-03; -3.1999999E-01;737;  0.0000000E+00;  0.0000000E+00;  0.0000000E+00;  1.0000000E+03;  4.0000001E-01;  0.0000000E+00;0;  0.0000000E+00;  0.0000000E+00;  0.0000000E+00;0;  0.0000000E+00;  1.0000000E+04;  0.0000000E+00;  0.0000000E+00;  1.0000000E+04;  0.0000000E+00;  1.0000000E+04;  0.0000000E+00;  0.0000000E+00;  0.0000000E+00;  0.0000000E+00;
  2.0799999E+00;  9.9999998E-03; -3.0000001E-01;738;  0.0000000E+00;  0.0000000E+00;  0.0000000E+00;  1.0000000E+03;  4.0000001E-01;  0.0000000E+00;0;  0.0000000E+00;  0.0000000E+00;  0.0000000E+00;0;  0.0000000E+00;  1.0000000E+04;  0.0000000E+00;  0.0000000E+00;  1.0000000E+04;  0.0000000E+00;  1.0000000E+04;  0.0000000E+00;  0.0000000E+00;  0.0000000E+00;  0.0000000E+00;
  2.0799999E+00;  9.9999998E-03; -2.8000000E-01;739;  0.0000000E+00;  0.0000000E+00;  0.0000000E+00;  1.0000000E+03;  4.0000001E-01;  0.0000000E+00;0;  0.0000000E+00;  0.0000000E+00;  0.0000000E+00;0;  0.0000000E+00;  1.0000000E+04;  0.0000000E+00;  0.0000000E+00;  1.0000000E+04;  0.0000000E+00;  1.0000000E+04;  0.0000000E+00;  0.0000000E+00;  0.0000000E+00;  0.0000000E+00;
  2.0799999E+00;  9.9999998E-03; -2.5999999E-01;740;  0.0000000E+00;  0.0000000E+00;  0.0000000E+00;  1.0000000E+03;  4.0000001E-01;  0.0000000E+00;0;  0.0000000E+00;  0.0000000E+00;  0.0000000E+00;0;  0.0000000E+00;  1.0000000E+04;  0.0000000E+00;  0.0000000E+00;  1.0000000E+04;  0.0000000E+00;  1.0000000E+04;  0.0000000E+00;  0.0000000E+00;  0.0000000E+00;  0.0000000E+00;
  2.0799999E+00;  9.9999998E-03; -2.3999999E-01;741;  0.0000000E+00;  0.0000000E+00;  0.0000000E+00;  1.0000000E+03;  4.0000001E-01;  0.0000000E+00;0;  0.0000000E+00;  0.0000000E+00;  0.0000000E+00;0;  0.0000000E+00;  1.0000000E+04;  0.0000000E+00;  0.0000000E+00;  1.0000000E+04;  0.0000000E+00;  1.0000000E+04;  0.0000000E+00;  0.0000000E+00;  0.0000000E+00;  0.0000000E+00;
  2.0799999E+00;  9.9999998E-03; -2.2000000E-01;742;  0.0000000E+00;  0.0000000E+00;  0.0000000E+00;  1.0000000E+03;  4.0000001E-01;  0.0000000E+00;0;  0.0000000E+00;  0.0000000E+00;  0.0000000E+00;0;  0.0000000E+00;  1.0000000E+04;  0.0000000E+00;  0.0000000E+00;  1.0000000E+04;  0.0000000E+00;  1.0000000E+04;  0.0000000E+00;  0.0000000E+00;  0.0000000E+00;  0.0000000E+00;
  2.0799999E+00;  9.9999998E-03; -2.0000000E-01;743;  0.0000000E+00;  0.0000000E+00;  0.0000000E+00;  1.0000000E+03;  4.0000001E-01;  0.0000000E+00;0;  0.0000000E+00;  0.0000000E+00;  0.0000000E+00;0;  0.0000000E+00;  1.0000000E+04;  0.0000000E+00;  0.0000000E+00;  1.0000000E+04;  0.0000000E+00;  1.0000000E+04;  0.0000000E+00;  0.0000000E+00;  0.0000000E+00;  0.0000000E+00;
  2.0799999E+00;  9.9999998E-03; -1.8000001E-01;744;  0.0000000E+00;  0.0000000E+00;  0.0000000E+00;  1.0000000E+03;  4.0000001E-01;  0.0000000E+00;0;  0.0000000E+00;  0.0000000E+00;  0.0000000E+00;0;  0.0000000E+00;  1.0000000E+04;  0.0000000E+00;  0.0000000E+00;  1.0000000E+04;  0.0000000E+00;  1.0000000E+04;  0.0000000E+00;  0.0000000E+00;  0.0000000E+00;  0.0000000E+00;
  2.0799999E+00;  9.9999998E-03; -1.6000000E-01;745;  0.0000000E+00;  0.0000000E+00;  0.0000000E+00;  1.0000000E+03;  4.0000001E-01;  0.0000000E+00;0;  0.0000000E+00;  0.0000000E+00;  0.0000000E+00;0;  0.0000000E+00;  1.0000000E+04;  0.0000000E+00;  0.0000000E+00;  1.0000000E+04;  0.0000000E+00;  1.0000000E+04;  0.0000000E+00;  0.0000000E+00;  0.0000000E+00;  0.0000000E+00;
  2.0799999E+00;  9.9999998E-03; -1.4000000E-01;746;  0.0000000E+00;  0.0000000E+00;  0.0000000E+00;  1.0000000E+03;  4.0000001E-01;  0.0000000E+00;0;  0.0000000E+00;  0.0000000E+00;  0.0000000E+00;0;  0.0000000E+00;  1.0000000E+04;  0.0000000E+00;  0.0000000E+00;  1.0000000E+04;  0.0000000E+00;  1.0000000E+04;  0.0000000E+00;  0.0000000E+00;  0.0000000E+00;  0.0000000E+00;
  2.0799999E+00;  9.9999998E-03; -1.2000000E-01;747;  0.0000000E+00;  0.0000000E+00;  0.0000000E+00;  1.0000000E+03;  4.0000001E-01;  0.0000000E+00;0;  0.0000000E+00;  0.0000000E+00;  0.0000000E+00;0;  0.0000000E+00;  1.0000000E+04;  0.0000000E+00;  0.0000000E+00;  1.0000000E+04;  0.0000000E+00;  1.0000000E+04;  0.0000000E+00;  0.0000000E+00;  0.0000000E+00;  0.0000000E+00;
  2.0799999E+00;  9.9999998E-03; -1.0000000E-01;748;  0.0000000E+00;  0.0000000E+00;  0.0000000E+00;  1.0000000E+03;  4.0000001E-01;  0.0000000E+00;0;  0.0000000E+00;  0.0000000E+00;  0.0000000E+00;0;  0.0000000E+00;  1.0000000E+04;  0.0000000E+00;  0.0000000E+00;  1.0000000E+04;  0.0000000E+00;  1.0000000E+04;  0.0000000E+00;  0.0000000E+00;  0.0000000E+00;  0.0000000E+00;
  2.0799999E+00;  9.9999998E-03; -7.9999998E-02;749;  0.0000000E+00;  0.0000000E+00;  0.0000000E+00;  1.0000000E+03;  4.0000001E-01;  0.0000000E+00;0;  0.0000000E+00;  0.0000000E+00;  0.0000000E+00;0;  0.0000000E+00;  1.0000000E+04;  0.0000000E+00;  0.0000000E+00;  1.0000000E+04;  0.0000000E+00;  1.0000000E+04;  0.0000000E+00;  0.0000000E+00;  0.0000000E+00;  0.0000000E+00;
  2.0799999E+00;  9.9999998E-03; -5.9999999E-02;750;  0.0000000E+00;  0.0000000E+00;  0.0000000E+00;  1.0000000E+03;  4.0000001E-01;  0.0000000E+00;0;  0.0000000E+00;  0.0000000E+00;  0.0000000E+00;0;  0.0000000E+00;  1.0000000E+04;  0.0000000E+00;  0.0000000E+00;  1.0000000E+04;  0.0000000E+00;  1.0000000E+04;  0.0000000E+00;  0.0000000E+00;  0.0000000E+00;  0.0000000E+00;
  2.0799999E+00;  9.9999998E-03; -3.9999999E-02;751;  0.0000000E+00;  0.0000000E+00;  0.0000000E+00;  1.0000000E+03;  4.0000001E-01;  0.0000000E+00;0;  0.0000000E+00;  0.0000000E+00;  0.0000000E+00;0;  0.0000000E+00;  1.0000000E+04;  0.0000000E+00;  0.0000000E+00;  1.0000000E+04;  0.0000000E+00;  1.0000000E+04;  0.0000000E+00;  0.0000000E+00;  0.0000000E+00;  0.0000000E+00;
  2.0799999E+00;  9.9999998E-03; -2.0000000E-02;752;  0.0000000E+00;  0.0000000E+00;  0.0000000E+00;  1.0000000E+03;  4.0000001E-01;  0.0000000E+00;0;  0.0000000E+00;  0.0000000E+00;  0.0000000E+00;0;  0.0000000E+00;  1.0000000E+04;  0.0000000E+00;  0.0000000E+00;  1.0000000E+04;  0.0000000E+00;  1.0000000E+04;  0.0000000E+00;  0.0000000E+00;  0.0000000E+00;  0.0000000E+00;
  2.0799999E+00;  9.9999998E-03;  0.0000000E+00;753;  0.0000000E+00;  0.0000000E+00;  0.0000000E+00;  1.0000000E+03;  4.0000001E-01;  0.0000000E+00;0;  0.0000000E+00;  0.0000000E+00;  0.0000000E+00;0;  0.0000000E+00;  1.0000000E+04;  0.0000000E+00;  0.0000000E+00;  1.0000000E+04;  0.0000000E+00;  1.0000000E+04;  0.0000000E+00;  0.0000000E+00;  0.0000000E+00;  0.0000000E+00;
  2.0799999E+00;  9.9999998E-03;  2.0000000E-02;754;  0.0000000E+00;  0.0000000E+00;  0.0000000E+00;  1.0000000E+03;  4.0000001E-01;  0.0000000E+00;0;  0.0000000E+00;  0.0000000E+00;  0.0000000E+00;0;  0.0000000E+00;  1.0000000E+04;  0.0000000E+00;  0.0000000E+00;  1.0000000E+04;  0.0000000E+00;  1.0000000E+04;  0.0000000E+00;  0.0000000E+00;  0.0000000E+00;  0.0000000E+00;
  2.0799999E+00;  9.9999998E-03;  3.9999999E-02;755;  0.0000000E+00;  0.0000000E+00;  0.0000000E+00;  1.0000000E+03;  4.0000001E-01;  0.0000000E+00;0;  0.0000000E+00;  0.0000000E+00;  0.0000000E+00;0;  0.0000000E+00;  1.0000000E+04;  0.0000000E+00;  0.0000000E+00;  1.0000000E+04;  0.0000000E+00;  1.0000000E+04;  0.0000000E+00;  0.0000000E+00;  0.0000000E+00;  0.0000000E+00;
  2.0799999E+00;  9.9999998E-03;  5.9999999E-02;756;  0.0000000E+00;  0.0000000E+00;  0.0000000E+00;  1.0000000E+03;  4.0000001E-01;  0.0000000E+00;0;  0.0000000E+00;  0.0000000E+00;  0.0000000E+00;0;  0.0000000E+00;  1.0000000E+04;  0.0000000E+00;  0.0000000E+00;  1.0000000E+04;  0.0000000E+00;  1.0000000E+04;  0.0000000E+00;  0.0000000E+00;  0.0000000E+00;  0.0000000E+00;
  2.0799999E+00;  9.9999998E-03;  7.9999998E-02;757;  0.0000000E+00;  0.0000000E+00;  0.0000000E+00;  1.0000000E+03;  4.0000001E-01;  0.0000000E+00;0;  0.0000000E+00;  0.0000000E+00;  0.0000000E+00;0;  0.0000000E+00;  1.0000000E+04;  0.0000000E+00;  0.0000000E+00;  1.0000000E+04;  0.0000000E+00;  1.0000000E+04;  0.0000000E+00;  0.0000000E+00;  0.0000000E+00;  0.0000000E+00;
  2.0799999E+00;  9.9999998E-03;  1.0000000E-01;758;  0.0000000E+00;  0.0000000E+00;  0.0000000E+00;  1.0000000E+03;  4.0000001E-01;  0.0000000E+00;0;  0.0000000E+00;  0.0000000E+00;  0.0000000E+00;0;  0.0000000E+00;  1.0000000E+04;  0.0000000E+00;  0.0000000E+00;  1.0000000E+04;  0.0000000E+00;  1.0000000E+04;  0.0000000E+00;  0.0000000E+00;  0.0000000E+00;  0.0000000E+00;
  2.0799999E+00;  9.9999998E-03;  1.2000000E-01;759;  0.0000000E+00;  0.0000000E+00;  0.0000000E+00;  1.0000000E+03;  4.0000001E-01;  0.0000000E+00;0;  0.0000000E+00;  0.0000000E+00;  0.0000000E+00;0;  0.0000000E+00;  1.0000000E+04;  0.0000000E+00;  0.0000000E+00;  1.0000000E+04;  0.0000000E+00;  1.0000000E+04;  0.0000000E+00;  0.0000000E+00;  0.0000000E+00;  0.0000000E+00;
  2.0799999E+00;  9.9999998E-03;  1.4000000E-01;760;  0.0000000E+00;  0.0000000E+00;  0.0000000E+00;  1.0000000E+03;  4.0000001E-01;  0.0000000E+00;0;  0.0000000E+00;  0.0000000E+00;  0.0000000E+00;0;  0.0000000E+00;  1.0000000E+04;  0.0000000E+00;  0.0000000E+00;  1.0000000E+04;  0.0000000E+00;  1.0000000E+04;  0.0000000E+00;  0.0000000E+00;  0.0000000E+00;  0.0000000E+00;
  2.0799999E+00;  9.9999998E-03;  1.6000000E-01;761;  0.0000000E+00;  0.0000000E+00;  0.0000000E+00;  1.0000000E+03;  4.0000001E-01;  0.0000000E+00;0;  0.0000000E+00;  0.0000000E+00;  0.0000000E+00;0;  0.0000000E+00;  1.0000000E+04;  0.0000000E+00;  0.0000000E+00;  1.0000000E+04;  0.0000000E+00;  1.0000000E+04;  0.0000000E+00;  0.0000000E+00;  0.0000000E+00;  0.0000000E+00;
  2.0799999E+00;  9.9999998E-03;  1.8000001E-01;762;  0.0000000E+00;  0.0000000E+00;  0.0000000E+00;  1.0000000E+03;  4.0000001E-01;  0.0000000E+00;0;  0.0000000E+00;  0.0000000E+00;  0.0000000E+00;0;  0.0000000E+00;  1.0000000E+04;  0.0000000E+00;  0.0000000E+00;  1.0000000E+04;  0.0000000E+00;  1.0000000E+04;  0.0000000E+00;  0.0000000E+00;  0.0000000E+00;  0.0000000E+00;
  2.0799999E+00;  9.9999998E-03;  2.0000000E-01;763;  0.0000000E+00;  0.0000000E+00;  0.0000000E+00;  1.0000000E+03;  4.0000001E-01;  0.0000000E+00;0;  0.0000000E+00;  0.0000000E+00;  0.0000000E+00;0;  0.0000000E+00;  1.0000000E+04;  0.0000000E+00;  0.0000000E+00;  1.0000000E+04;  0.0000000E+00;  1.0000000E+04;  0.0000000E+00;  0.0000000E+00;  0.0000000E+00;  0.0000000E+00;
  2.0799999E+00;  9.9999998E-03;  2.2000000E-01;764;  0.0000000E+00;  0.0000000E+00;  0.0000000E+00;  1.0000000E+03;  4.0000001E-01;  0.0000000E+00;0;  0.0000000E+00;  0.0000000E+00;  0.0000000E+00;0;  0.0000000E+00;  1.0000000E+04;  0.0000000E+00;  0.0000000E+00;  1.0000000E+04;  0.0000000E+00;  1.0000000E+04;  0.0000000E+00;  0.0000000E+00;  0.0000000E+00;  0.0000000E+00;
  2.0799999E+00;  9.9999998E-03;  2.3999999E-01;765;  0.0000000E+00;  0.0000000E+00;  0.0000000E+00;  1.0000000E+03;  4.0000001E-01;  0.0000000E+00;0;  0.0000000E+00;  0.0000000E+00;  0.0000000E+00;0;  0.0000000E+00;  1.0000000E+04;  0.0000000E+00;  0.0000000E+00;  1.0000000E+04;  0.0000000E+00;  1.0000000E+04;  0.0000000E+00;  0.0000000E+00;  0.0000000E+00;  0.0000000E+00;
  2.0799999E+00;  9.9999998E-03;  2.5999999E-01;766;  0.0000000E+00;  0.0000000E+00;  0.0000000E+00;  1.0000000E+03;  4.0000001E-01;  0.0000000E+00;0;  0.0000000E+00;  0.0000000E+00;  0.0000000E+00;0;  0.0000000E+00;  1.0000000E+04;  0.0000000E+00;  0.0000000E+00;  1.0000000E+04;  0.0000000E+00;  1.0000000E+04;  0.0000000E+00;  0.0000000E+00;  0.0000000E+00;  0.0000000E+00;
  2.0799999E+00;  9.9999998E-03;  2.8000000E-01;767;  0.0000000E+00;  0.0000000E+00;  0.0000000E+00;  1.0000000E+03;  4.0000001E-01;  0.0000000E+00;0;  0.0000000E+00;  0.0000000E+00;  0.0000000E+00;0;  0.0000000E+00;  1.0000000E+04;  0.0000000E+00;  0.0000000E+00;  1.0000000E+04;  0.0000000E+00;  1.0000000E+04;  0.0000000E+00;  0.0000000E+00;  0.0000000E+00;  0.0000000E+00;
  2.0799999E+00;  9.9999998E-03;  3.0000001E-01;768;  0.0000000E+00;  0.0000000E+00;  0.0000000E+00;  1.0000000E+03;  4.0000001E-01;  0.0000000E+00;0;  0.0000000E+00;  0.0000000E+00;  0.0000000E+00;0;  0.0000000E+00;  1.0000000E+04;  0.0000000E+00;  0.0000000E+00;  1.0000000E+04;  0.0000000E+00;  1.0000000E+04;  0.0000000E+00;  0.0000000E+00;  0.0000000E+00;  0.0000000E+00;
  2.0799999E+00;  9.9999998E-03;  3.1999999E-01;769;  0.0000000E+00;  0.0000000E+00;  0.0000000E+00;  1.0000000E+03;  4.0000001E-01;  0.0000000E+00;0;  0.0000000E+00;  0.0000000E+00;  0.0000000E+00;0;  0.0000000E+00;  1.0000000E+04;  0.0000000E+00;  0.0000000E+00;  1.0000000E+04;  0.0000000E+00;  1.0000000E+04;  0.0000000E+00;  0.0000000E+00;  0.0000000E+00;  0.0000000E+00;
  2.0799999E+00;  9.9999998E-03;  3.4000000E-01;770;  0.0000000E+00;  0.0000000E+00;  0.0000000E+00;  1.0000000E+03;  4.0000001E-01;  0.0000000E+00;0;  0.0000000E+00;  0.0000000E+00;  0.0000000E+00;0;  0.0000000E+00;  1.0000000E+04;  0.0000000E+00;  0.0000000E+00;  1.0000000E+04;  0.0000000E+00;  1.0000000E+04;  0.0000000E+00;  0.0000000E+00;  0.0000000E+00;  0.0000000E+00;
  2.0799999E+00;  9.9999998E-03;  3.6000001E-01;771;  0.0000000E+00;  0.0000000E+00;  0.0000000E+00;  1.0000000E+03;  4.0000001E-01;  0.0000000E+00;0;  0.0000000E+00;  0.0000000E+00;  0.0000000E+00;0;  0.0000000E+00;  1.0000000E+04;  0.0000000E+00;  0.0000000E+00;  1.0000000E+04;  0.0000000E+00;  1.0000000E+04;  0.0000000E+00;  0.0000000E+00;  0.0000000E+00;  0.0000000E+00;
  2.0799999E+00;  9.9999998E-03;  3.8000000E-01;772;  0.0000000E+00;  0.0000000E+00;  0.0000000E+00;  1.0000000E+03;  4.0000001E-01;  0.0000000E+00;0;  0.0000000E+00;  0.0000000E+00;  0.0000000E+00;0;  0.0000000E+00;  1.0000000E+04;  0.0000000E+00;  0.0000000E+00;  1.0000000E+04;  0.0000000E+00;  1.0000000E+04;  0.0000000E+00;  0.0000000E+00;  0.0000000E+00;  0.0000000E+00;
  2.0799999E+00;  9.9999998E-03;  4.0000001E-01;773;  0.0000000E+00;  0.0000000E+00;  0.0000000E+00;  1.0000000E+03;  4.0000001E-01;  0.0000000E+00;0;  0.0000000E+00;  0.0000000E+00;  0.0000000E+00;0;  0.0000000E+00;  1.0000000E+04;  0.0000000E+00;  0.0000000E+00;  1.0000000E+04;  0.0000000E+00;  1.0000000E+04;  0.0000000E+00;  0.0000000E+00;  0.0000000E+00;  0.0000000E+00;
  2.0999999E+00;  9.9999998E-03; -4.0000001E-01;774;  0.0000000E+00;  0.0000000E+00;  0.0000000E+00;  1.0000000E+03;  4.0000001E-01;  0.0000000E+00;0;  0.0000000E+00;  0.0000000E+00;  0.0000000E+00;0;  0.0000000E+00;  1.0000000E+04;  0.0000000E+00;  0.0000000E+00;  1.0000000E+04;  0.0000000E+00;  1.0000000E+04;  0.0000000E+00;  0.0000000E+00;  0.0000000E+00;  0.0000000E+00;
  2.0999999E+00;  9.9999998E-03; -3.8000000E-01;775;  0.0000000E+00;  0.0000000E+00;  0.0000000E+00;  1.0000000E+03;  4.0000001E-01;  0.0000000E+00;0;  0.0000000E+00;  0.0000000E+00;  0.0000000E+00;0;  0.0000000E+00;  1.0000000E+04;  0.0000000E+00;  0.0000000E+00;  1.0000000E+04;  0.0000000E+00;  1.0000000E+04;  0.0000000E+00;  0.0000000E+00;  0.0000000E+00;  0.0000000E+00;
  2.0999999E+00;  9.9999998E-03; -3.6000001E-01;776;  0.0000000E+00;  0.0000000E+00;  0.0000000E+00;  1.0000000E+03;  4.0000001E-01;  0.0000000E+00;0;  0.0000000E+00;  0.0000000E+00;  0.0000000E+00;0;  0.0000000E+00;  1.0000000E+04;  0.0000000E+00;  0.0000000E+00;  1.0000000E+04;  0.0000000E+00;  1.0000000E+04;  0.0000000E+00;  0.0000000E+00;  0.0000000E+00;  0.0000000E+00;
  2.0999999E+00;  9.9999998E-03; -3.4000000E-01;777;  0.0000000E+00;  0.0000000E+00;  0.0000000E+00;  1.0000000E+03;  4.0000001E-01;  0.0000000E+00;0;  0.0000000E+00;  0.0000000E+00;  0.0000000E+00;0;  0.0000000E+00;  1.0000000E+04;  0.0000000E+00;  0.0000000E+00;  1.0000000E+04;  0.0000000E+00;  1.0000000E+04;  0.0000000E+00;  0.0000000E+00;  0.0000000E+00;  0.0000000E+00;
  2.0999999E+00;  9.9999998E-03; -3.1999999E-01;778;  0.0000000E+00;  0.0000000E+00;  0.0000000E+00;  1.0000000E+03;  4.0000001E-01;  0.0000000E+00;0;  0.0000000E+00;  0.0000000E+00;  0.0000000E+00;0;  0.0000000E+00;  1.0000000E+04;  0.0000000E+00;  0.0000000E+00;  1.0000000E+04;  0.0000000E+00;  1.0000000E+04;  0.0000000E+00;  0.0000000E+00;  0.0000000E+00;  0.0000000E+00;
  2.0999999E+00;  9.9999998E-03; -3.0000001E-01;779;  0.0000000E+00;  0.0000000E+00;  0.0000000E+00;  1.0000000E+03;  4.0000001E-01;  0.0000000E+00;0;  0.0000000E+00;  0.0000000E+00;  0.0000000E+00;0;  0.0000000E+00;  1.0000000E+04;  0.0000000E+00;  0.0000000E+00;  1.0000000E+04;  0.0000000E+00;  1.0000000E+04;  0.0000000E+00;  0.0000000E+00;  0.0000000E+00;  0.0000000E+00;
  2.0999999E+00;  9.9999998E-03; -2.8000000E-01;780;  0.0000000E+00;  0.0000000E+00;  0.0000000E+00;  1.0000000E+03;  4.0000001E-01;  0.0000000E+00;0;  0.0000000E+00;  0.0000000E+00;  0.0000000E+00;0;  0.0000000E+00;  1.0000000E+04;  0.0000000E+00;  0.0000000E+00;  1.0000000E+04;  0.0000000E+00;  1.0000000E+04;  0.0000000E+00;  0.0000000E+00;  0.0000000E+00;  0.0000000E+00;
  2.0999999E+00;  9.9999998E-03; -2.5999999E-01;781;  0.0000000E+00;  0.0000000E+00;  0.0000000E+00;  1.0000000E+03;  4.0000001E-01;  0.0000000E+00;0;  0.0000000E+00;  0.0000000E+00;  0.0000000E+00;0;  0.0000000E+00;  1.0000000E+04;  0.0000000E+00;  0.0000000E+00;  1.0000000E+04;  0.0000000E+00;  1.0000000E+04;  0.0000000E+00;  0.0000000E+00;  0.0000000E+00;  0.0000000E+00;
  2.0999999E+00;  9.9999998E-03; -2.3999999E-01;782;  0.0000000E+00;  0.0000000E+00;  0.0000000E+00;  1.0000000E+03;  4.0000001E-01;  0.0000000E+00;0;  0.0000000E+00;  0.0000000E+00;  0.0000000E+00;0;  0.0000000E+00;  1.0000000E+04;  0.0000000E+00;  0.0000000E+00;  1.0000000E+04;  0.0000000E+00;  1.0000000E+04;  0.0000000E+00;  0.0000000E+00;  0.0000000E+00;  0.0000000E+00;
  2.0999999E+00;  9.9999998E-03; -2.2000000E-01;783;  0.0000000E+00;  0.0000000E+00;  0.0000000E+00;  1.0000000E+03;  4.0000001E-01;  0.0000000E+00;0;  0.0000000E+00;  0.0000000E+00;  0.0000000E+00;0;  0.0000000E+00;  1.0000000E+04;  0.0000000E+00;  0.0000000E+00;  1.0000000E+04;  0.0000000E+00;  1.0000000E+04;  0.0000000E+00;  0.0000000E+00;  0.0000000E+00;  0.0000000E+00;
  2.0999999E+00;  9.9999998E-03; -2.0000000E-01;784;  0.0000000E+00;  0.0000000E+00;  0.0000000E+00;  1.0000000E+03;  4.0000001E-01;  0.0000000E+00;0;  0.0000000E+00;  0.0000000E+00;  0.0000000E+00;0;  0.0000000E+00;  1.0000000E+04;  0.0000000E+00;  0.0000000E+00;  1.0000000E+04;  0.0000000E+00;  1.0000000E+04;  0.0000000E+00;  0.0000000E+00;  0.0000000E+00;  0.0000000E+00;
  2.0999999E+00;  9.9999998E-03; -1.8000001E-01;785;  0.0000000E+00;  0.0000000E+00;  0.0000000E+00;  1.0000000E+03;  4.0000001E-01;  0.0000000E+00;0;  0.0000000E+00;  0.0000000E+00;  0.0000000E+00;0;  0.0000000E+00;  1.0000000E+04;  0.0000000E+00;  0.0000000E+00;  1.0000000E+04;  0.0000000E+00;  1.0000000E+04;  0.0000000E+00;  0.0000000E+00;  0.0000000E+00;  0.0000000E+00;
  2.0999999E+00;  9.9999998E-03; -1.6000000E-01;786;  0.0000000E+00;  0.0000000E+00;  0.0000000E+00;  1.0000000E+03;  4.0000001E-01;  0.0000000E+00;0;  0.0000000E+00;  0.0000000E+00;  0.0000000E+00;0;  0.0000000E+00;  1.0000000E+04;  0.0000000E+00;  0.0000000E+00;  1.0000000E+04;  0.0000000E+00;  1.0000000E+04;  0.0000000E+00;  0.0000000E+00;  0.0000000E+00;  0.0000000E+00;
  2.0999999E+00;  9.9999998E-03; -1.4000000E-01;787;  0.0000000E+00;  0.0000000E+00;  0.0000000E+00;  1.0000000E+03;  4.0000001E-01;  0.0000000E+00;0;  0.0000000E+00;  0.0000000E+00;  0.0000000E+00;0;  0.0000000E+00;  1.0000000E+04;  0.0000000E+00;  0.0000000E+00;  1.0000000E+04;  0.0000000E+00;  1.0000000E+04;  0.0000000E+00;  0.0000000E+00;  0.0000000E+00;  0.0000000E+00;
  2.0999999E+00;  9.9999998E-03; -1.2000000E-01;788;  0.0000000E+00;  0.0000000E+00;  0.0000000E+00;  1.0000000E+03;  4.0000001E-01;  0.0000000E+00;0;  0.0000000E+00;  0.0000000E+00;  0.0000000E+00;0;  0.0000000E+00;  1.0000000E+04;  0.0000000E+00;  0.0000000E+00;  1.0000000E+04;  0.0000000E+00;  1.0000000E+04;  0.0000000E+00;  0.0000000E+00;  0.0000000E+00;  0.0000000E+00;
  2.0999999E+00;  9.9999998E-03; -1.0000000E-01;789;  0.0000000E+00;  0.0000000E+00;  0.0000000E+00;  1.0000000E+03;  4.0000001E-01;  0.0000000E+00;0;  0.0000000E+00;  0.0000000E+00;  0.0000000E+00;0;  0.0000000E+00;  1.0000000E+04;  0.0000000E+00;  0.0000000E+00;  1.0000000E+04;  0.0000000E+00;  1.0000000E+04;  0.0000000E+00;  0.0000000E+00;  0.0000000E+00;  0.0000000E+00;
  2.0999999E+00;  9.9999998E-03; -7.9999998E-02;790;  0.0000000E+00;  0.0000000E+00;  0.0000000E+00;  1.0000000E+03;  4.0000001E-01;  0.0000000E+00;0;  0.0000000E+00;  0.0000000E+00;  0.0000000E+00;0;  0.0000000E+00;  1.0000000E+04;  0.0000000E+00;  0.0000000E+00;  1.0000000E+04;  0.0000000E+00;  1.0000000E+04;  0.0000000E+00;  0.0000000E+00;  0.0000000E+00;  0.0000000E+00;
  2.0999999E+00;  9.9999998E-03; -5.9999999E-02;791;  0.0000000E+00;  0.0000000E+00;  0.0000000E+00;  1.0000000E+03;  4.0000001E-01;  0.0000000E+00;0;  0.0000000E+00;  0.0000000E+00;  0.0000000E+00;0;  0.0000000E+00;  1.0000000E+04;  0.0000000E+00;  0.0000000E+00;  1.0000000E+04;  0.0000000E+00;  1.0000000E+04;  0.0000000E+00;  0.0000000E+00;  0.0000000E+00;  0.0000000E+00;
  2.0999999E+00;  9.9999998E-03; -3.9999999E-02;792;  0.0000000E+00;  0.0000000E+00;  0.0000000E+00;  1.0000000E+03;  4.0000001E-01;  0.0000000E+00;0;  0.0000000E+00;  0.0000000E+00;  0.0000000E+00;0;  0.0000000E+00;  1.0000000E+04;  0.0000000E+00;  0.0000000E+00;  1.0000000E+04;  0.0000000E+00;  1.0000000E+04;  0.0000000E+00;  0.0000000E+00;  0.0000000E+00;  0.0000000E+00;
  2.0999999E+00;  9.9999998E-03; -2.0000000E-02;793;  0.0000000E+00;  0.0000000E+00;  0.0000000E+00;  1.0000000E+03;  4.0000001E-01;  0.0000000E+00;0;  0.0000000E+00;  0.0000000E+00;  0.0000000E+00;0;  0.0000000E+00;  1.0000000E+04;  0.0000000E+00;  0.0000000E+00;  1.0000000E+04;  0.0000000E+00;  1.0000000E+04;  0.0000000E+00;  0.0000000E+00;  0.0000000E+00;  0.0000000E+00;
  2.0999999E+00;  9.9999998E-03;  0.0000000E+00;794;  0.0000000E+00;  0.0000000E+00;  0.0000000E+00;  1.0000000E+03;  4.0000001E-01;  0.0000000E+00;0;  0.0000000E+00;  0.0000000E+00;  0.0000000E+00;0;  0.0000000E+00;  1.0000000E+04;  0.0000000E+00;  0.0000000E+00;  1.0000000E+04;  0.0000000E+00;  1.0000000E+04;  0.0000000E+00;  0.0000000E+00;  0.0000000E+00;  0.0000000E+00;
  2.0999999E+00;  9.9999998E-03;  2.0000000E-02;795;  0.0000000E+00;  0.0000000E+00;  0.0000000E+00;  1.0000000E+03;  4.0000001E-01;  0.0000000E+00;0;  0.0000000E+00;  0.0000000E+00;  0.0000000E+00;0;  0.0000000E+00;  1.0000000E+04;  0.0000000E+00;  0.0000000E+00;  1.0000000E+04;  0.0000000E+00;  1.0000000E+04;  0.0000000E+00;  0.0000000E+00;  0.0000000E+00;  0.0000000E+00;
  2.0999999E+00;  9.9999998E-03;  3.9999999E-02;796;  0.0000000E+00;  0.0000000E+00;  0.0000000E+00;  1.0000000E+03;  4.0000001E-01;  0.0000000E+00;0;  0.0000000E+00;  0.0000000E+00;  0.0000000E+00;0;  0.0000000E+00;  1.0000000E+04;  0.0000000E+00;  0.0000000E+00;  1.0000000E+04;  0.0000000E+00;  1.0000000E+04;  0.0000000E+00;  0.0000000E+00;  0.0000000E+00;  0.0000000E+00;
  2.0999999E+00;  9.9999998E-03;  5.9999999E-02;797;  0.0000000E+00;  0.0000000E+00;  0.0000000E+00;  1.0000000E+03;  4.0000001E-01;  0.0000000E+00;0;  0.0000000E+00;  0.0000000E+00;  0.0000000E+00;0;  0.0000000E+00;  1.0000000E+04;  0.0000000E+00;  0.0000000E+00;  1.0000000E+04;  0.0000000E+00;  1.0000000E+04;  0.0000000E+00;  0.0000000E+00;  0.0000000E+00;  0.0000000E+00;
  2.0999999E+00;  9.9999998E-03;  7.9999998E-02;798;  0.0000000E+00;  0.0000000E+00;  0.0000000E+00;  1.0000000E+03;  4.0000001E-01;  0.0000000E+00;0;  0.0000000E+00;  0.0000000E+00;  0.0000000E+00;0;  0.0000000E+00;  1.0000000E+04;  0.0000000E+00;  0.0000000E+00;  1.0000000E+04;  0.0000000E+00;  1.0000000E+04;  0.0000000E+00;  0.0000000E+00;  0.0000000E+00;  0.0000000E+00;
  2.0999999E+00;  9.9999998E-03;  1.0000000E-01;799;  0.0000000E+00;  0.0000000E+00;  0.0000000E+00;  1.0000000E+03;  4.0000001E-01;  0.0000000E+00;0;  0.0000000E+00;  0.0000000E+00;  0.0000000E+00;0;  0.0000000E+00;  1.0000000E+04;  0.0000000E+00;  0.0000000E+00;  1.0000000E+04;  0.0000000E+00;  1.0000000E+04;  0.0000000E+00;  0.0000000E+00;  0.0000000E+00;  0.0000000E+00;
  2.0999999E+00;  9.9999998E-03;  1.2000000E-01;800;  0.0000000E+00;  0.0000000E+00;  0.0000000E+00;  1.0000000E+03;  4.0000001E-01;  0.0000000E+00;0;  0.0000000E+00;  0.0000000E+00;  0.0000000E+00;0;  0.0000000E+00;  1.0000000E+04;  0.0000000E+00;  0.0000000E+00;  1.0000000E+04;  0.0000000E+00;  1.0000000E+04;  0.0000000E+00;  0.0000000E+00;  0.0000000E+00;  0.0000000E+00;
  2.0999999E+00;  9.9999998E-03;  1.4000000E-01;801;  0.0000000E+00;  0.0000000E+00;  0.0000000E+00;  1.0000000E+03;  4.0000001E-01;  0.0000000E+00;0;  0.0000000E+00;  0.0000000E+00;  0.0000000E+00;0;  0.0000000E+00;  1.0000000E+04;  0.0000000E+00;  0.0000000E+00;  1.0000000E+04;  0.0000000E+00;  1.0000000E+04;  0.0000000E+00;  0.0000000E+00;  0.0000000E+00;  0.0000000E+00;
  2.0999999E+00;  9.9999998E-03;  1.6000000E-01;802;  0.0000000E+00;  0.0000000E+00;  0.0000000E+00;  1.0000000E+03;  4.0000001E-01;  0.0000000E+00;0;  0.0000000E+00;  0.0000000E+00;  0.0000000E+00;0;  0.0000000E+00;  1.0000000E+04;  0.0000000E+00;  0.0000000E+00;  1.0000000E+04;  0.0000000E+00;  1.0000000E+04;  0.0000000E+00;  0.0000000E+00;  0.0000000E+00;  0.0000000E+00;
  2.0999999E+00;  9.9999998E-03;  1.8000001E-01;803;  0.0000000E+00;  0.0000000E+00;  0.0000000E+00;  1.0000000E+03;  4.0000001E-01;  0.0000000E+00;0;  0.0000000E+00;  0.0000000E+00;  0.0000000E+00;0;  0.0000000E+00;  1.0000000E+04;  0.0000000E+00;  0.0000000E+00;  1.0000000E+04;  0.0000000E+00;  1.0000000E+04;  0.0000000E+00;  0.0000000E+00;  0.0000000E+00;  0.0000000E+00;
  2.0999999E+00;  9.9999998E-03;  2.0000000E-01;804;  0.0000000E+00;  0.0000000E+00;  0.0000000E+00;  1.0000000E+03;  4.0000001E-01;  0.0000000E+00;0;  0.0000000E+00;  0.0000000E+00;  0.0000000E+00;0;  0.0000000E+00;  1.0000000E+04;  0.0000000E+00;  0.0000000E+00;  1.0000000E+04;  0.0000000E+00;  1.0000000E+04;  0.0000000E+00;  0.0000000E+00;  0.0000000E+00;  0.0000000E+00;
  2.0999999E+00;  9.9999998E-03;  2.2000000E-01;805;  0.0000000E+00;  0.0000000E+00;  0.0000000E+00;  1.0000000E+03;  4.0000001E-01;  0.0000000E+00;0;  0.0000000E+00;  0.0000000E+00;  0.0000000E+00;0;  0.0000000E+00;  1.0000000E+04;  0.0000000E+00;  0.0000000E+00;  1.0000000E+04;  0.0000000E+00;  1.0000000E+04;  0.0000000E+00;  0.0000000E+00;  0.0000000E+00;  0.0000000E+00;
  2.0999999E+00;  9.9999998E-03;  2.3999999E-01;806;  0.0000000E+00;  0.0000000E+00;  0.0000000E+00;  1.0000000E+03;  4.0000001E-01;  0.0000000E+00;0;  0.0000000E+00;  0.0000000E+00;  0.0000000E+00;0;  0.0000000E+00;  1.0000000E+04;  0.0000000E+00;  0.0000000E+00;  1.0000000E+04;  0.0000000E+00;  1.0000000E+04;  0.0000000E+00;  0.0000000E+00;  0.0000000E+00;  0.0000000E+00;
  2.0999999E+00;  9.9999998E-03;  2.5999999E-01;807;  0.0000000E+00;  0.0000000E+00;  0.0000000E+00;  1.0000000E+03;  4.0000001E-01;  0.0000000E+00;0;  0.0000000E+00;  0.0000000E+00;  0.0000000E+00;0;  0.0000000E+00;  1.0000000E+04;  0.0000000E+00;  0.0000000E+00;  1.0000000E+04;  0.0000000E+00;  1.0000000E+04;  0.0000000E+00;  0.0000000E+00;  0.0000000E+00;  0.0000000E+00;
  2.0999999E+00;  9.9999998E-03;  2.8000000E-01;808;  0.0000000E+00;  0.0000000E+00;  0.0000000E+00;  1.0000000E+03;  4.0000001E-01;  0.0000000E+00;0;  0.0000000E+00;  0.0000000E+00;  0.0000000E+00;0;  0.0000000E+00;  1.0000000E+04;  0.0000000E+00;  0.0000000E+00;  1.0000000E+04;  0.0000000E+00;  1.0000000E+04;  0.0000000E+00;  0.0000000E+00;  0.0000000E+00;  0.0000000E+00;
  2.0999999E+00;  9.9999998E-03;  3.0000001E-01;809;  0.0000000E+00;  0.0000000E+00;  0.0000000E+00;  1.0000000E+03;  4.0000001E-01;  0.0000000E+00;0;  0.0000000E+00;  0.0000000E+00;  0.0000000E+00;0;  0.0000000E+00;  1.0000000E+04;  0.0000000E+00;  0.0000000E+00;  1.0000000E+04;  0.0000000E+00;  1.0000000E+04;  0.0000000E+00;  0.0000000E+00;  0.0000000E+00;  0.0000000E+00;
  2.0999999E+00;  9.9999998E-03;  3.1999999E-01;810;  0.0000000E+00;  0.0000000E+00;  0.0000000E+00;  1.0000000E+03;  4.0000001E-01;  0.0000000E+00;0;  0.0000000E+00;  0.0000000E+00;  0.0000000E+00;0;  0.0000000E+00;  1.0000000E+04;  0.0000000E+00;  0.0000000E+00;  1.0000000E+04;  0.0000000E+00;  1.0000000E+04;  0.0000000E+00;  0.0000000E+00;  0.0000000E+00;  0.0000000E+00;
  2.0999999E+00;  9.9999998E-03;  3.4000000E-01;811;  0.0000000E+00;  0.0000000E+00;  0.0000000E+00;  1.0000000E+03;  4.0000001E-01;  0.0000000E+00;0;  0.0000000E+00;  0.0000000E+00;  0.0000000E+00;0;  0.0000000E+00;  1.0000000E+04;  0.0000000E+00;  0.0000000E+00;  1.0000000E+04;  0.0000000E+00;  1.0000000E+04;  0.0000000E+00;  0.0000000E+00;  0.0000000E+00;  0.0000000E+00;
  2.0999999E+00;  9.9999998E-03;  3.6000001E-01;812;  0.0000000E+00;  0.0000000E+00;  0.0000000E+00;  1.0000000E+03;  4.0000001E-01;  0.0000000E+00;0;  0.0000000E+00;  0.0000000E+00;  0.0000000E+00;0;  0.0000000E+00;  1.0000000E+04;  0.0000000E+00;  0.0000000E+00;  1.0000000E+04;  0.0000000E+00;  1.0000000E+04;  0.0000000E+00;  0.0000000E+00;  0.0000000E+00;  0.0000000E+00;
  2.0999999E+00;  9.9999998E-03;  3.8000000E-01;813;  0.0000000E+00;  0.0000000E+00;  0.0000000E+00;  1.0000000E+03;  4.0000001E-01;  0.0000000E+00;0;  0.0000000E+00;  0.0000000E+00;  0.0000000E+00;0;  0.0000000E+00;  1.0000000E+04;  0.0000000E+00;  0.0000000E+00;  1.0000000E+04;  0.0000000E+00;  1.0000000E+04;  0.0000000E+00;  0.0000000E+00;  0.0000000E+00;  0.0000000E+00;
  2.0999999E+00;  9.9999998E-03;  4.0000001E-01;814;  0.0000000E+00;  0.0000000E+00;  0.0000000E+00;  1.0000000E+03;  4.0000001E-01;  0.0000000E+00;0;  0.0000000E+00;  0.0000000E+00;  0.0000000E+00;0;  0.0000000E+00;  1.0000000E+04;  0.0000000E+00;  0.0000000E+00;  1.0000000E+04;  0.0000000E+00;  1.0000000E+04;  0.0000000E+00;  0.0000000E+00;  0.0000000E+00;  0.0000000E+00;
  2.1199999E+00;  9.9999998E-03; -4.1999999E-01;815;  0.0000000E+00;  0.0000000E+00;  0.0000000E+00;  1.0000000E+03;  4.0000001E-01;  0.0000000E+00;0;  0.0000000E+00;  0.0000000E+00;  0.0000000E+00;0;  0.0000000E+00;  1.0000000E+04;  0.0000000E+00;  0.0000000E+00;  1.0000000E+04;  0.0000000E+00;  1.0000000E+04;  0.0000000E+00;  0.0000000E+00;  0.0000000E+00;  0.0000000E+00;
  2.1199999E+00;  9.9999998E-03; -4.0000001E-01;816;  0.0000000E+00;  0.0000000E+00;  0.0000000E+00;  1.0000000E+03;  4.0000001E-01;  0.0000000E+00;0;  0.0000000E+00;  0.0000000E+00;  0.0000000E+00;0;  0.0000000E+00;  1.0000000E+04;  0.0000000E+00;  0.0000000E+00;  1.0000000E+04;  0.0000000E+00;  1.0000000E+04;  0.0000000E+00;  0.0000000E+00;  0.0000000E+00;  0.0000000E+00;
  2.1199999E+00;  9.9999998E-03; -3.8000000E-01;817;  0.0000000E+00;  0.0000000E+00;  0.0000000E+00;  1.0000000E+03;  4.0000001E-01;  0.0000000E+00;0;  0.0000000E+00;  0.0000000E+00;  0.0000000E+00;0;  0.0000000E+00;  1.0000000E+04;  0.0000000E+00;  0.0000000E+00;  1.0000000E+04;  0.0000000E+00;  1.0000000E+04;  0.0000000E+00;  0.0000000E+00;  0.0000000E+00;  0.0000000E+00;
  2.1199999E+00;  9.9999998E-03; -3.6000001E-01;818;  0.0000000E+00;  0.0000000E+00;  0.0000000E+00;  1.0000000E+03;  4.0000001E-01;  0.0000000E+00;0;  0.0000000E+00;  0.0000000E+00;  0.0000000E+00;0;  0.0000000E+00;  1.0000000E+04;  0.0000000E+00;  0.0000000E+00;  1.0000000E+04;  0.0000000E+00;  1.0000000E+04;  0.0000000E+00;  0.0000000E+00;  0.0000000E+00;  0.0000000E+00;
  2.1199999E+00;  9.9999998E-03; -3.4000000E-01;819;  0.0000000E+00;  0.0000000E+00;  0.0000000E+00;  1.0000000E+03;  4.0000001E-01;  0.0000000E+00;0;  0.0000000E+00;  0.0000000E+00;  0.0000000E+00;0;  0.0000000E+00;  1.0000000E+04;  0.0000000E+00;  0.0000000E+00;  1.0000000E+04;  0.0000000E+00;  1.0000000E+04;  0.0000000E+00;  0.0000000E+00;  0.0000000E+00;  0.0000000E+00;
  2.1199999E+00;  9.9999998E-03; -3.1999999E-01;820;  0.0000000E+00;  0.0000000E+00;  0.0000000E+00;  1.0000000E+03;  4.0000001E-01;  0.0000000E+00;0;  0.0000000E+00;  0.0000000E+00;  0.0000000E+00;0;  0.0000000E+00;  1.0000000E+04;  0.0000000E+00;  0.0000000E+00;  1.0000000E+04;  0.0000000E+00;  1.0000000E+04;  0.0000000E+00;  0.0000000E+00;  0.0000000E+00;  0.0000000E+00;
  2.1199999E+00;  9.9999998E-03; -3.0000001E-01;821;  0.0000000E+00;  0.0000000E+00;  0.0000000E+00;  1.0000000E+03;  4.0000001E-01;  0.0000000E+00;0;  0.0000000E+00;  0.0000000E+00;  0.0000000E+00;0;  0.0000000E+00;  1.0000000E+04;  0.0000000E+00;  0.0000000E+00;  1.0000000E+04;  0.0000000E+00;  1.0000000E+04;  0.0000000E+00;  0.0000000E+00;  0.0000000E+00;  0.0000000E+00;
  2.1199999E+00;  9.9999998E-03; -2.8000000E-01;822;  0.0000000E+00;  0.0000000E+00;  0.0000000E+00;  1.0000000E+03;  4.0000001E-01;  0.0000000E+00;0;  0.0000000E+00;  0.0000000E+00;  0.0000000E+00;0;  0.0000000E+00;  1.0000000E+04;  0.0000000E+00;  0.0000000E+00;  1.0000000E+04;  0.0000000E+00;  1.0000000E+04;  0.0000000E+00;  0.0000000E+00;  0.0000000E+00;  0.0000000E+00;
  2.1199999E+00;  9.9999998E-03; -2.5999999E-01;823;  0.0000000E+00;  0.0000000E+00;  0.0000000E+00;  1.0000000E+03;  4.0000001E-01;  0.0000000E+00;0;  0.0000000E+00;  0.0000000E+00;  0.0000000E+00;0;  0.0000000E+00;  1.0000000E+04;  0.0000000E+00;  0.0000000E+00;  1.0000000E+04;  0.0000000E+00;  1.0000000E+04;  0.0000000E+00;  0.0000000E+00;  0.0000000E+00;  0.0000000E+00;
  2.1199999E+00;  9.9999998E-03; -2.3999999E-01;824;  0.0000000E+00;  0.0000000E+00;  0.0000000E+00;  1.0000000E+03;  4.0000001E-01;  0.0000000E+00;0;  0.0000000E+00;  0.0000000E+00;  0.0000000E+00;0;  0.0000000E+00;  1.0000000E+04;  0.0000000E+00;  0.0000000E+00;  1.0000000E+04;  0.0000000E+00;  1.0000000E+04;  0.0000000E+00;  0.0000000E+00;  0.0000000E+00;  0.0000000E+00;
  2.1199999E+00;  9.9999998E-03; -2.2000000E-01;825;  0.0000000E+00;  0.0000000E+00;  0.0000000E+00;  1.0000000E+03;  4.0000001E-01;  0.0000000E+00;0;  0.0000000E+00;  0.0000000E+00;  0.0000000E+00;0;  0.0000000E+00;  1.0000000E+04;  0.0000000E+00;  0.0000000E+00;  1.0000000E+04;  0.0000000E+00;  1.0000000E+04;  0.0000000E+00;  0.0000000E+00;  0.0000000E+00;  0.0000000E+00;
  2.1199999E+00;  9.9999998E-03; -2.0000000E-01;826;  0.0000000E+00;  0.0000000E+00;  0.0000000E+00;  1.0000000E+03;  4.0000001E-01;  0.0000000E+00;0;  0.0000000E+00;  0.0000000E+00;  0.0000000E+00;0;  0.0000000E+00;  1.0000000E+04;  0.0000000E+00;  0.0000000E+00;  1.0000000E+04;  0.0000000E+00;  1.0000000E+04;  0.0000000E+00;  0.0000000E+00;  0.0000000E+00;  0.0000000E+00;
  2.1199999E+00;  9.9999998E-03; -1.8000001E-01;827;  0.0000000E+00;  0.0000000E+00;  0.0000000E+00;  1.0000000E+03;  4.0000001E-01;  0.0000000E+00;0;  0.0000000E+00;  0.0000000E+00;  0.0000000E+00;0;  0.0000000E+00;  1.0000000E+04;  0.0000000E+00;  0.0000000E+00;  1.0000000E+04;  0.0000000E+00;  1.0000000E+04;  0.0000000E+00;  0.0000000E+00;  0.0000000E+00;  0.0000000E+00;
  2.1199999E+00;  9.9999998E-03; -1.6000000E-01;828;  0.0000000E+00;  0.0000000E+00;  0.0000000E+00;  1.0000000E+03;  4.0000001E-01;  0.0000000E+00;0;  0.0000000E+00;  0.0000000E+00;  0.0000000E+00;0;  0.0000000E+00;  1.0000000E+04;  0.0000000E+00;  0.0000000E+00;  1.0000000E+04;  0.0000000E+00;  1.0000000E+04;  0.0000000E+00;  0.0000000E+00;  0.0000000E+00;  0.0000000E+00;
  2.1199999E+00;  9.9999998E-03; -1.4000000E-01;829;  0.0000000E+00;  0.0000000E+00;  0.0000000E+00;  1.0000000E+03;  4.0000001E-01;  0.0000000E+00;0;  0.0000000E+00;  0.0000000E+00;  0.0000000E+00;0;  0.0000000E+00;  1.0000000E+04;  0.0000000E+00;  0.0000000E+00;  1.0000000E+04;  0.0000000E+00;  1.0000000E+04;  0.0000000E+00;  0.0000000E+00;  0.0000000E+00;  0.0000000E+00;
  2.1199999E+00;  9.9999998E-03; -1.2000000E-01;830;  0.0000000E+00;  0.0000000E+00;  0.0000000E+00;  1.0000000E+03;  4.0000001E-01;  0.0000000E+00;0;  0.0000000E+00;  0.0000000E+00;  0.0000000E+00;0;  0.0000000E+00;  1.0000000E+04;  0.0000000E+00;  0.0000000E+00;  1.0000000E+04;  0.0000000E+00;  1.0000000E+04;  0.0000000E+00;  0.0000000E+00;  0.0000000E+00;  0.0000000E+00;
  2.1199999E+00;  9.9999998E-03; -1.0000000E-01;831;  0.0000000E+00;  0.0000000E+00;  0.0000000E+00;  1.0000000E+03;  4.0000001E-01;  0.0000000E+00;0;  0.0000000E+00;  0.0000000E+00;  0.0000000E+00;0;  0.0000000E+00;  1.0000000E+04;  0.0000000E+00;  0.0000000E+00;  1.0000000E+04;  0.0000000E+00;  1.0000000E+04;  0.0000000E+00;  0.0000000E+00;  0.0000000E+00;  0.0000000E+00;
  2.1199999E+00;  9.9999998E-03; -7.9999998E-02;832;  0.0000000E+00;  0.0000000E+00;  0.0000000E+00;  1.0000000E+03;  4.0000001E-01;  0.0000000E+00;0;  0.0000000E+00;  0.0000000E+00;  0.0000000E+00;0;  0.0000000E+00;  1.0000000E+04;  0.0000000E+00;  0.0000000E+00;  1.0000000E+04;  0.0000000E+00;  1.0000000E+04;  0.0000000E+00;  0.0000000E+00;  0.0000000E+00;  0.0000000E+00;
  2.1199999E+00;  9.9999998E-03; -5.9999999E-02;833;  0.0000000E+00;  0.0000000E+00;  0.0000000E+00;  1.0000000E+03;  4.0000001E-01;  0.0000000E+00;0;  0.0000000E+00;  0.0000000E+00;  0.0000000E+00;0;  0.0000000E+00;  1.0000000E+04;  0.0000000E+00;  0.0000000E+00;  1.0000000E+04;  0.0000000E+00;  1.0000000E+04;  0.0000000E+00;  0.0000000E+00;  0.0000000E+00;  0.0000000E+00;
  2.1199999E+00;  9.9999998E-03; -3.9999999E-02;834;  0.0000000E+00;  0.0000000E+00;  0.0000000E+00;  1.0000000E+03;  4.0000001E-01;  0.0000000E+00;0;  0.0000000E+00;  0.0000000E+00;  0.0000000E+00;0;  0.0000000E+00;  1.0000000E+04;  0.0000000E+00;  0.0000000E+00;  1.0000000E+04;  0.0000000E+00;  1.0000000E+04;  0.0000000E+00;  0.0000000E+00;  0.0000000E+00;  0.0000000E+00;
  2.1199999E+00;  9.9999998E-03; -2.0000000E-02;835;  0.0000000E+00;  0.0000000E+00;  0.0000000E+00;  1.0000000E+03;  4.0000001E-01;  0.0000000E+00;0;  0.0000000E+00;  0.0000000E+00;  0.0000000E+00;0;  0.0000000E+00;  1.0000000E+04;  0.0000000E+00;  0.0000000E+00;  1.0000000E+04;  0.0000000E+00;  1.0000000E+04;  0.0000000E+00;  0.0000000E+00;  0.0000000E+00;  0.0000000E+00;
  2.1199999E+00;  9.9999998E-03;  0.0000000E+00;836;  0.0000000E+00;  0.0000000E+00;  0.0000000E+00;  1.0000000E+03;  4.0000001E-01;  0.0000000E+00;0;  0.0000000E+00;  0.0000000E+00;  0.0000000E+00;0;  0.0000000E+00;  1.0000000E+04;  0.0000000E+00;  0.0000000E+00;  1.0000000E+04;  0.0000000E+00;  1.0000000E+04;  0.0000000E+00;  0.0000000E+00;  0.0000000E+00;  0.0000000E+00;
  2.1199999E+00;  9.9999998E-03;  2.0000000E-02;837;  0.0000000E+00;  0.0000000E+00;  0.0000000E+00;  1.0000000E+03;  4.0000001E-01;  0.0000000E+00;0;  0.0000000E+00;  0.0000000E+00;  0.0000000E+00;0;  0.0000000E+00;  1.0000000E+04;  0.0000000E+00;  0.0000000E+00;  1.0000000E+04;  0.0000000E+00;  1.0000000E+04;  0.0000000E+00;  0.0000000E+00;  0.0000000E+00;  0.0000000E+00;
  2.1199999E+00;  9.9999998E-03;  3.9999999E-02;838;  0.0000000E+00;  0.0000000E+00;  0.0000000E+00;  1.0000000E+03;  4.0000001E-01;  0.0000000E+00;0;  0.0000000E+00;  0.0000000E+00;  0.0000000E+00;0;  0.0000000E+00;  1.0000000E+04;  0.0000000E+00;  0.0000000E+00;  1.0000000E+04;  0.0000000E+00;  1.0000000E+04;  0.0000000E+00;  0.0000000E+00;  0.0000000E+00;  0.0000000E+00;
  2.1199999E+00;  9.9999998E-03;  5.9999999E-02;839;  0.0000000E+00;  0.0000000E+00;  0.0000000E+00;  1.0000000E+03;  4.0000001E-01;  0.0000000E+00;0;  0.0000000E+00;  0.0000000E+00;  0.0000000E+00;0;  0.0000000E+00;  1.0000000E+04;  0.0000000E+00;  0.0000000E+00;  1.0000000E+04;  0.0000000E+00;  1.0000000E+04;  0.0000000E+00;  0.0000000E+00;  0.0000000E+00;  0.0000000E+00;
  2.1199999E+00;  9.9999998E-03;  7.9999998E-02;840;  0.0000000E+00;  0.0000000E+00;  0.0000000E+00;  1.0000000E+03;  4.0000001E-01;  0.0000000E+00;0;  0.0000000E+00;  0.0000000E+00;  0.0000000E+00;0;  0.0000000E+00;  1.0000000E+04;  0.0000000E+00;  0.0000000E+00;  1.0000000E+04;  0.0000000E+00;  1.0000000E+04;  0.0000000E+00;  0.0000000E+00;  0.0000000E+00;  0.0000000E+00;
  2.1199999E+00;  9.9999998E-03;  1.0000000E-01;841;  0.0000000E+00;  0.0000000E+00;  0.0000000E+00;  1.0000000E+03;  4.0000001E-01;  0.0000000E+00;0;  0.0000000E+00;  0.0000000E+00;  0.0000000E+00;0;  0.0000000E+00;  1.0000000E+04;  0.0000000E+00;  0.0000000E+00;  1.0000000E+04;  0.0000000E+00;  1.0000000E+04;  0.0000000E+00;  0.0000000E+00;  0.0000000E+00;  0.0000000E+00;
  2.1199999E+00;  9.9999998E-03;  1.2000000E-01;842;  0.0000000E+00;  0.0000000E+00;  0.0000000E+00;  1.0000000E+03;  4.0000001E-01;  0.0000000E+00;0;  0.0000000E+00;  0.0000000E+00;  0.0000000E+00;0;  0.0000000E+00;  1.0000000E+04;  0.0000000E+00;  0.0000000E+00;  1.0000000E+04;  0.0000000E+00;  1.0000000E+04;  0.0000000E+00;  0.0000000E+00;  0.0000000E+00;  0.0000000E+00;
  2.1199999E+00;  9.9999998E-03;  1.4000000E-01;843;  0.0000000E+00;  0.0000000E+00;  0.0000000E+00;  1.0000000E+03;  4.0000001E-01;  0.0000000E+00;0;  0.0000000E+00;  0.0000000E+00;  0.0000000E+00;0;  0.0000000E+00;  1.0000000E+04;  0.0000000E+00;  0.0000000E+00;  1.0000000E+04;  0.0000000E+00;  1.0000000E+04;  0.0000000E+00;  0.0000000E+00;  0.0000000E+00;  0.0000000E+00;
  2.1199999E+00;  9.9999998E-03;  1.6000000E-01;844;  0.0000000E+00;  0.0000000E+00;  0.0000000E+00;  1.0000000E+03;  4.0000001E-01;  0.0000000E+00;0;  0.0000000E+00;  0.0000000E+00;  0.0000000E+00;0;  0.0000000E+00;  1.0000000E+04;  0.0000000E+00;  0.0000000E+00;  1.0000000E+04;  0.0000000E+00;  1.0000000E+04;  0.0000000E+00;  0.0000000E+00;  0.0000000E+00;  0.0000000E+00;
  2.1199999E+00;  9.9999998E-03;  1.8000001E-01;845;  0.0000000E+00;  0.0000000E+00;  0.0000000E+00;  1.0000000E+03;  4.0000001E-01;  0.0000000E+00;0;  0.0000000E+00;  0.0000000E+00;  0.0000000E+00;0;  0.0000000E+00;  1.0000000E+04;  0.0000000E+00;  0.0000000E+00;  1.0000000E+04;  0.0000000E+00;  1.0000000E+04;  0.0000000E+00;  0.0000000E+00;  0.0000000E+00;  0.0000000E+00;
  2.1199999E+00;  9.9999998E-03;  2.0000000E-01;846;  0.0000000E+00;  0.0000000E+00;  0.0000000E+00;  1.0000000E+03;  4.0000001E-01;  0.0000000E+00;0;  0.0000000E+00;  0.0000000E+00;  0.0000000E+00;0;  0.0000000E+00;  1.0000000E+04;  0.0000000E+00;  0.0000000E+00;  1.0000000E+04;  0.0000000E+00;  1.0000000E+04;  0.0000000E+00;  0.0000000E+00;  0.0000000E+00;  0.0000000E+00;
  2.1199999E+00;  9.9999998E-03;  2.2000000E-01;847;  0.0000000E+00;  0.0000000E+00;  0.0000000E+00;  1.0000000E+03;  4.0000001E-01;  0.0000000E+00;0;  0.0000000E+00;  0.0000000E+00;  0.0000000E+00;0;  0.0000000E+00;  1.0000000E+04;  0.0000000E+00;  0.0000000E+00;  1.0000000E+04;  0.0000000E+00;  1.0000000E+04;  0.0000000E+00;  0.0000000E+00;  0.0000000E+00;  0.0000000E+00;
  2.1199999E+00;  9.9999998E-03;  2.3999999E-01;848;  0.0000000E+00;  0.0000000E+00;  0.0000000E+00;  1.0000000E+03;  4.0000001E-01;  0.0000000E+00;0;  0.0000000E+00;  0.0000000E+00;  0.0000000E+00;0;  0.0000000E+00;  1.0000000E+04;  0.0000000E+00;  0.0000000E+00;  1.0000000E+04;  0.0000000E+00;  1.0000000E+04;  0.0000000E+00;  0.0000000E+00;  0.0000000E+00;  0.0000000E+00;
  2.1199999E+00;  9.9999998E-03;  2.5999999E-01;849;  0.0000000E+00;  0.0000000E+00;  0.0000000E+00;  1.0000000E+03;  4.0000001E-01;  0.0000000E+00;0;  0.0000000E+00;  0.0000000E+00;  0.0000000E+00;0;  0.0000000E+00;  1.0000000E+04;  0.0000000E+00;  0.0000000E+00;  1.0000000E+04;  0.0000000E+00;  1.0000000E+04;  0.0000000E+00;  0.0000000E+00;  0.0000000E+00;  0.0000000E+00;
  2.1199999E+00;  9.9999998E-03;  2.8000000E-01;850;  0.0000000E+00;  0.0000000E+00;  0.0000000E+00;  1.0000000E+03;  4.0000001E-01;  0.0000000E+00;0;  0.0000000E+00;  0.0000000E+00;  0.0000000E+00;0;  0.0000000E+00;  1.0000000E+04;  0.0000000E+00;  0.0000000E+00;  1.0000000E+04;  0.0000000E+00;  1.0000000E+04;  0.0000000E+00;  0.0000000E+00;  0.0000000E+00;  0.0000000E+00;
  2.1199999E+00;  9.9999998E-03;  3.0000001E-01;851;  0.0000000E+00;  0.0000000E+00;  0.0000000E+00;  1.0000000E+03;  4.0000001E-01;  0.0000000E+00;0;  0.0000000E+00;  0.0000000E+00;  0.0000000E+00;0;  0.0000000E+00;  1.0000000E+04;  0.0000000E+00;  0.0000000E+00;  1.0000000E+04;  0.0000000E+00;  1.0000000E+04;  0.0000000E+00;  0.0000000E+00;  0.0000000E+00;  0.0000000E+00;
  2.1199999E+00;  9.9999998E-03;  3.1999999E-01;852;  0.0000000E+00;  0.0000000E+00;  0.0000000E+00;  1.0000000E+03;  4.0000001E-01;  0.0000000E+00;0;  0.0000000E+00;  0.0000000E+00;  0.0000000E+00;0;  0.0000000E+00;  1.0000000E+04;  0.0000000E+00;  0.0000000E+00;  1.0000000E+04;  0.0000000E+00;  1.0000000E+04;  0.0000000E+00;  0.0000000E+00;  0.0000000E+00;  0.0000000E+00;
  2.1199999E+00;  9.9999998E-03;  3.4000000E-01;853;  0.0000000E+00;  0.0000000E+00;  0.0000000E+00;  1.0000000E+03;  4.0000001E-01;  0.0000000E+00;0;  0.0000000E+00;  0.0000000E+00;  0.0000000E+00;0;  0.0000000E+00;  1.0000000E+04;  0.0000000E+00;  0.0000000E+00;  1.0000000E+04;  0.0000000E+00;  1.0000000E+04;  0.0000000E+00;  0.0000000E+00;  0.0000000E+00;  0.0000000E+00;
  2.1199999E+00;  9.9999998E-03;  3.6000001E-01;854;  0.0000000E+00;  0.0000000E+00;  0.0000000E+00;  1.0000000E+03;  4.0000001E-01;  0.0000000E+00;0;  0.0000000E+00;  0.0000000E+00;  0.0000000E+00;0;  0.0000000E+00;  1.0000000E+04;  0.0000000E+00;  0.0000000E+00;  1.0000000E+04;  0.0000000E+00;  1.0000000E+04;  0.0000000E+00;  0.0000000E+00;  0.0000000E+00;  0.0000000E+00;
  2.1199999E+00;  9.9999998E-03;  3.8000000E-01;855;  0.0000000E+00;  0.0000000E+00;  0.0000000E+00;  1.0000000E+03;  4.0000001E-01;  0.0000000E+00;0;  0.0000000E+00;  0.0000000E+00;  0.0000000E+00;0;  0.0000000E+00;  1.0000000E+04;  0.0000000E+00;  0.0000000E+00;  1.0000000E+04;  0.0000000E+00;  1.0000000E+04;  0.0000000E+00;  0.0000000E+00;  0.0000000E+00;  0.0000000E+00;
  2.1199999E+00;  9.9999998E-03;  4.0000001E-01;856;  0.0000000E+00;  0.0000000E+00;  0.0000000E+00;  1.0000000E+03;  4.0000001E-01;  0.0000000E+00;0;  0.0000000E+00;  0.0000000E+00;  0.0000000E+00;0;  0.0000000E+00;  1.0000000E+04;  0.0000000E+00;  0.0000000E+00;  1.0000000E+04;  0.0000000E+00;  1.0000000E+04;  0.0000000E+00;  0.0000000E+00;  0.0000000E+00;  0.0000000E+00;
  2.1400001E+00;  9.9999998E-03; -3.8000000E-01;857;  0.0000000E+00;  0.0000000E+00;  0.0000000E+00;  1.0000000E+03;  4.0000001E-01;  0.0000000E+00;0;  0.0000000E+00;  0.0000000E+00;  0.0000000E+00;0;  0.0000000E+00;  1.0000000E+04;  0.0000000E+00;  0.0000000E+00;  1.0000000E+04;  0.0000000E+00;  1.0000000E+04;  0.0000000E+00;  0.0000000E+00;  0.0000000E+00;  0.0000000E+00;
  2.1400001E+00;  9.9999998E-03; -3.6000001E-01;858;  0.0000000E+00;  0.0000000E+00;  0.0000000E+00;  1.0000000E+03;  4.0000001E-01;  0.0000000E+00;0;  0.0000000E+00;  0.0000000E+00;  0.0000000E+00;0;  0.0000000E+00;  1.0000000E+04;  0.0000000E+00;  0.0000000E+00;  1.0000000E+04;  0.0000000E+00;  1.0000000E+04;  0.0000000E+00;  0.0000000E+00;  0.0000000E+00;  0.0000000E+00;
  2.1400001E+00;  9.9999998E-03; -3.4000000E-01;859;  0.0000000E+00;  0.0000000E+00;  0.0000000E+00;  1.0000000E+03;  4.0000001E-01;  0.0000000E+00;0;  0.0000000E+00;  0.0000000E+00;  0.0000000E+00;0;  0.0000000E+00;  1.0000000E+04;  0.0000000E+00;  0.0000000E+00;  1.0000000E+04;  0.0000000E+00;  1.0000000E+04;  0.0000000E+00;  0.0000000E+00;  0.0000000E+00;  0.0000000E+00;
  2.1400001E+00;  9.9999998E-03; -3.1999999E-01;860;  0.0000000E+00;  0.0000000E+00;  0.0000000E+00;  1.0000000E+03;  4.0000001E-01;  0.0000000E+00;0;  0.0000000E+00;  0.0000000E+00;  0.0000000E+00;0;  0.0000000E+00;  1.0000000E+04;  0.0000000E+00;  0.0000000E+00;  1.0000000E+04;  0.0000000E+00;  1.0000000E+04;  0.0000000E+00;  0.0000000E+00;  0.0000000E+00;  0.0000000E+00;
  2.1400001E+00;  9.9999998E-03; -3.0000001E-01;861;  0.0000000E+00;  0.0000000E+00;  0.0000000E+00;  1.0000000E+03;  4.0000001E-01;  0.0000000E+00;0;  0.0000000E+00;  0.0000000E+00;  0.0000000E+00;0;  0.0000000E+00;  1.0000000E+04;  0.0000000E+00;  0.0000000E+00;  1.0000000E+04;  0.0000000E+00;  1.0000000E+04;  0.0000000E+00;  0.0000000E+00;  0.0000000E+00;  0.0000000E+00;
  2.1400001E+00;  9.9999998E-03; -2.8000000E-01;862;  0.0000000E+00;  0.0000000E+00;  0.0000000E+00;  1.0000000E+03;  4.0000001E-01;  0.0000000E+00;0;  0.0000000E+00;  0.0000000E+00;  0.0000000E+00;0;  0.0000000E+00;  1.0000000E+04;  0.0000000E+00;  0.0000000E+00;  1.0000000E+04;  0.0000000E+00;  1.0000000E+04;  0.0000000E+00;  0.0000000E+00;  0.0000000E+00;  0.0000000E+00;
  2.1400001E+00;  9.9999998E-03; -2.5999999E-01;863;  0.0000000E+00;  0.0000000E+00;  0.0000000E+00;  1.0000000E+03;  4.0000001E-01;  0.0000000E+00;0;  0.0000000E+00;  0.0000000E+00;  0.0000000E+00;0;  0.0000000E+00;  1.0000000E+04;  0.0000000E+00;  0.0000000E+00;  1.0000000E+04;  0.0000000E+00;  1.0000000E+04;  0.0000000E+00;  0.0000000E+00;  0.0000000E+00;  0.0000000E+00;
  2.1400001E+00;  9.9999998E-03; -2.3999999E-01;864;  0.0000000E+00;  0.0000000E+00;  0.0000000E+00;  1.0000000E+03;  4.0000001E-01;  0.0000000E+00;0;  0.0000000E+00;  0.0000000E+00;  0.0000000E+00;0;  0.0000000E+00;  1.0000000E+04;  0.0000000E+00;  0.0000000E+00;  1.0000000E+04;  0.0000000E+00;  1.0000000E+04;  0.0000000E+00;  0.0000000E+00;  0.0000000E+00;  0.0000000E+00;
  2.1400001E+00;  9.9999998E-03; -2.2000000E-01;865;  0.0000000E+00;  0.0000000E+00;  0.0000000E+00;  1.0000000E+03;  4.0000001E-01;  0.0000000E+00;0;  0.0000000E+00;  0.0000000E+00;  0.0000000E+00;0;  0.0000000E+00;  1.0000000E+04;  0.0000000E+00;  0.0000000E+00;  1.0000000E+04;  0.0000000E+00;  1.0000000E+04;  0.0000000E+00;  0.0000000E+00;  0.0000000E+00;  0.0000000E+00;
  2.1400001E+00;  9.9999998E-03; -2.0000000E-01;866;  0.0000000E+00;  0.0000000E+00;  0.0000000E+00;  1.0000000E+03;  4.0000001E-01;  0.0000000E+00;0;  0.0000000E+00;  0.0000000E+00;  0.0000000E+00;0;  0.0000000E+00;  1.0000000E+04;  0.0000000E+00;  0.0000000E+00;  1.0000000E+04;  0.0000000E+00;  1.0000000E+04;  0.0000000E+00;  0.0000000E+00;  0.0000000E+00;  0.0000000E+00;
  2.1400001E+00;  9.9999998E-03; -1.8000001E-01;867;  0.0000000E+00;  0.0000000E+00;  0.0000000E+00;  1.0000000E+03;  4.0000001E-01;  0.0000000E+00;0;  0.0000000E+00;  0.0000000E+00;  0.0000000E+00;0;  0.0000000E+00;  1.0000000E+04;  0.0000000E+00;  0.0000000E+00;  1.0000000E+04;  0.0000000E+00;  1.0000000E+04;  0.0000000E+00;  0.0000000E+00;  0.0000000E+00;  0.0000000E+00;
  2.1400001E+00;  9.9999998E-03; -1.6000000E-01;868;  0.0000000E+00;  0.0000000E+00;  0.0000000E+00;  1.0000000E+03;  4.0000001E-01;  0.0000000E+00;0;  0.0000000E+00;  0.0000000E+00;  0.0000000E+00;0;  0.0000000E+00;  1.0000000E+04;  0.0000000E+00;  0.0000000E+00;  1.0000000E+04;  0.0000000E+00;  1.0000000E+04;  0.0000000E+00;  0.0000000E+00;  0.0000000E+00;  0.0000000E+00;
  2.1400001E+00;  9.9999998E-03; -1.4000000E-01;869;  0.0000000E+00;  0.0000000E+00;  0.0000000E+00;  1.0000000E+03;  4.0000001E-01;  0.0000000E+00;0;  0.0000000E+00;  0.0000000E+00;  0.0000000E+00;0;  0.0000000E+00;  1.0000000E+04;  0.0000000E+00;  0.0000000E+00;  1.0000000E+04;  0.0000000E+00;  1.0000000E+04;  0.0000000E+00;  0.0000000E+00;  0.0000000E+00;  0.0000000E+00;
  2.1400001E+00;  9.9999998E-03; -1.2000000E-01;870;  0.0000000E+00;  0.0000000E+00;  0.0000000E+00;  1.0000000E+03;  4.0000001E-01;  0.0000000E+00;0;  0.0000000E+00;  0.0000000E+00;  0.0000000E+00;0;  0.0000000E+00;  1.0000000E+04;  0.0000000E+00;  0.0000000E+00;  1.0000000E+04;  0.0000000E+00;  1.0000000E+04;  0.0000000E+00;  0.0000000E+00;  0.0000000E+00;  0.0000000E+00;
  2.1400001E+00;  9.9999998E-03; -1.0000000E-01;871;  0.0000000E+00;  0.0000000E+00;  0.0000000E+00;  1.0000000E+03;  4.0000001E-01;  0.0000000E+00;0;  0.0000000E+00;  0.0000000E+00;  0.0000000E+00;0;  0.0000000E+00;  1.0000000E+04;  0.0000000E+00;  0.0000000E+00;  1.0000000E+04;  0.0000000E+00;  1.0000000E+04;  0.0000000E+00;  0.0000000E+00;  0.0000000E+00;  0.0000000E+00;
  2.1400001E+00;  9.9999998E-03; -7.9999998E-02;872;  0.0000000E+00;  0.0000000E+00;  0.0000000E+00;  1.0000000E+03;  4.0000001E-01;  0.0000000E+00;0;  0.0000000E+00;  0.0000000E+00;  0.0000000E+00;0;  0.0000000E+00;  1.0000000E+04;  0.0000000E+00;  0.0000000E+00;  1.0000000E+04;  0.0000000E+00;  1.0000000E+04;  0.0000000E+00;  0.0000000E+00;  0.0000000E+00;  0.0000000E+00;
  2.1400001E+00;  9.9999998E-03; -5.9999999E-02;873;  0.0000000E+00;  0.0000000E+00;  0.0000000E+00;  1.0000000E+03;  4.0000001E-01;  0.0000000E+00;0;  0.0000000E+00;  0.0000000E+00;  0.0000000E+00;0;  0.0000000E+00;  1.0000000E+04;  0.0000000E+00;  0.0000000E+00;  1.0000000E+04;  0.0000000E+00;  1.0000000E+04;  0.0000000E+00;  0.0000000E+00;  0.0000000E+00;  0.0000000E+00;
  2.1400001E+00;  9.9999998E-03; -3.9999999E-02;874;  0.0000000E+00;  0.0000000E+00;  0.0000000E+00;  1.0000000E+03;  4.0000001E-01;  0.0000000E+00;0;  0.0000000E+00;  0.0000000E+00;  0.0000000E+00;0;  0.0000000E+00;  1.0000000E+04;  0.0000000E+00;  0.0000000E+00;  1.0000000E+04;  0.0000000E+00;  1.0000000E+04;  0.0000000E+00;  0.0000000E+00;  0.0000000E+00;  0.0000000E+00;
  2.1400001E+00;  9.9999998E-03; -2.0000000E-02;875;  0.0000000E+00;  0.0000000E+00;  0.0000000E+00;  1.0000000E+03;  4.0000001E-01;  0.0000000E+00;0;  0.0000000E+00;  0.0000000E+00;  0.0000000E+00;0;  0.0000000E+00;  1.0000000E+04;  0.0000000E+00;  0.0000000E+00;  1.0000000E+04;  0.0000000E+00;  1.0000000E+04;  0.0000000E+00;  0.0000000E+00;  0.0000000E+00;  0.0000000E+00;
  2.1400001E+00;  9.9999998E-03;  0.0000000E+00;876;  0.0000000E+00;  0.0000000E+00;  0.0000000E+00;  1.0000000E+03;  4.0000001E-01;  0.0000000E+00;0;  0.0000000E+00;  0.0000000E+00;  0.0000000E+00;0;  0.0000000E+00;  1.0000000E+04;  0.0000000E+00;  0.0000000E+00;  1.0000000E+04;  0.0000000E+00;  1.0000000E+04;  0.0000000E+00;  0.0000000E+00;  0.0000000E+00;  0.0000000E+00;
  2.1400001E+00;  9.9999998E-03;  2.0000000E-02;877;  0.0000000E+00;  0.0000000E+00;  0.0000000E+00;  1.0000000E+03;  4.0000001E-01;  0.0000000E+00;0;  0.0000000E+00;  0.0000000E+00;  0.0000000E+00;0;  0.0000000E+00;  1.0000000E+04;  0.0000000E+00;  0.0000000E+00;  1.0000000E+04;  0.0000000E+00;  1.0000000E+04;  0.0000000E+00;  0.0000000E+00;  0.0000000E+00;  0.0000000E+00;
  2.1400001E+00;  9.9999998E-03;  3.9999999E-02;878;  0.0000000E+00;  0.0000000E+00;  0.0000000E+00;  1.0000000E+03;  4.0000001E-01;  0.0000000E+00;0;  0.0000000E+00;  0.0000000E+00;  0.0000000E+00;0;  0.0000000E+00;  1.0000000E+04;  0.0000000E+00;  0.0000000E+00;  1.0000000E+04;  0.0000000E+00;  1.0000000E+04;  0.0000000E+00;  0.0000000E+00;  0.0000000E+00;  0.0000000E+00;
  2.1400001E+00;  9.9999998E-03;  5.9999999E-02;879;  0.0000000E+00;  0.0000000E+00;  0.0000000E+00;  1.0000000E+03;  4.0000001E-01;  0.0000000E+00;0;  0.0000000E+00;  0.0000000E+00;  0.0000000E+00;0;  0.0000000E+00;  1.0000000E+04;  0.0000000E+00;  0.0000000E+00;  1.0000000E+04;  0.0000000E+00;  1.0000000E+04;  0.0000000E+00;  0.0000000E+00;  0.0000000E+00;  0.0000000E+00;
  2.1400001E+00;  9.9999998E-03;  7.9999998E-02;880;  0.0000000E+00;  0.0000000E+00;  0.0000000E+00;  1.0000000E+03;  4.0000001E-01;  0.0000000E+00;0;  0.0000000E+00;  0.0000000E+00;  0.0000000E+00;0;  0.0000000E+00;  1.0000000E+04;  0.0000000E+00;  0.0000000E+00;  1.0000000E+04;  0.0000000E+00;  1.0000000E+04;  0.0000000E+00;  0.0000000E+00;  0.0000000E+00;  0.0000000E+00;
  2.1400001E+00;  9.9999998E-03;  1.0000000E-01;881;  0.0000000E+00;  0.0000000E+00;  0.0000000E+00;  1.0000000E+03;  4.0000001E-01;  0.0000000E+00;0;  0.0000000E+00;  0.0000000E+00;  0.0000000E+00;0;  0.0000000E+00;  1.0000000E+04;  0.0000000E+00;  0.0000000E+00;  1.0000000E+04;  0.0000000E+00;  1.0000000E+04;  0.0000000E+00;  0.0000000E+00;  0.0000000E+00;  0.0000000E+00;
  2.1400001E+00;  9.9999998E-03;  1.2000000E-01;882;  0.0000000E+00;  0.0000000E+00;  0.0000000E+00;  1.0000000E+03;  4.0000001E-01;  0.0000000E+00;0;  0.0000000E+00;  0.0000000E+00;  0.0000000E+00;0;  0.0000000E+00;  1.0000000E+04;  0.0000000E+00;  0.0000000E+00;  1.0000000E+04;  0.0000000E+00;  1.0000000E+04;  0.0000000E+00;  0.0000000E+00;  0.0000000E+00;  0.0000000E+00;
  2.1400001E+00;  9.9999998E-03;  1.4000000E-01;883;  0.0000000E+00;  0.0000000E+00;  0.0000000E+00;  1.0000000E+03;  4.0000001E-01;  0.0000000E+00;0;  0.0000000E+00;  0.0000000E+00;  0.0000000E+00;0;  0.0000000E+00;  1.0000000E+04;  0.0000000E+00;  0.0000000E+00;  1.0000000E+04;  0.0000000E+00;  1.0000000E+04;  0.0000000E+00;  0.0000000E+00;  0.0000000E+00;  0.0000000E+00;
  2.1400001E+00;  9.9999998E-03;  1.6000000E-01;884;  0.0000000E+00;  0.0000000E+00;  0.0000000E+00;  1.0000000E+03;  4.0000001E-01;  0.0000000E+00;0;  0.0000000E+00;  0.0000000E+00;  0.0000000E+00;0;  0.0000000E+00;  1.0000000E+04;  0.0000000E+00;  0.0000000E+00;  1.0000000E+04;  0.0000000E+00;  1.0000000E+04;  0.0000000E+00;  0.0000000E+00;  0.0000000E+00;  0.0000000E+00;
  2.1400001E+00;  9.9999998E-03;  1.8000001E-01;885;  0.0000000E+00;  0.0000000E+00;  0.0000000E+00;  1.0000000E+03;  4.0000001E-01;  0.0000000E+00;0;  0.0000000E+00;  0.0000000E+00;  0.0000000E+00;0;  0.0000000E+00;  1.0000000E+04;  0.0000000E+00;  0.0000000E+00;  1.0000000E+04;  0.0000000E+00;  1.0000000E+04;  0.0000000E+00;  0.0000000E+00;  0.0000000E+00;  0.0000000E+00;
  2.1400001E+00;  9.9999998E-03;  2.0000000E-01;886;  0.0000000E+00;  0.0000000E+00;  0.0000000E+00;  1.0000000E+03;  4.0000001E-01;  0.0000000E+00;0;  0.0000000E+00;  0.0000000E+00;  0.0000000E+00;0;  0.0000000E+00;  1.0000000E+04;  0.0000000E+00;  0.0000000E+00;  1.0000000E+04;  0.0000000E+00;  1.0000000E+04;  0.0000000E+00;  0.0000000E+00;  0.0000000E+00;  0.0000000E+00;
  2.1400001E+00;  9.9999998E-03;  2.2000000E-01;887;  0.0000000E+00;  0.0000000E+00;  0.0000000E+00;  1.0000000E+03;  4.0000001E-01;  0.0000000E+00;0;  0.0000000E+00;  0.0000000E+00;  0.0000000E+00;0;  0.0000000E+00;  1.0000000E+04;  0.0000000E+00;  0.0000000E+00;  1.0000000E+04;  0.0000000E+00;  1.0000000E+04;  0.0000000E+00;  0.0000000E+00;  0.0000000E+00;  0.0000000E+00;
  2.1400001E+00;  9.9999998E-03;  2.3999999E-01;888;  0.0000000E+00;  0.0000000E+00;  0.0000000E+00;  1.0000000E+03;  4.0000001E-01;  0.0000000E+00;0;  0.0000000E+00;  0.0000000E+00;  0.0000000E+00;0;  0.0000000E+00;  1.0000000E+04;  0.0000000E+00;  0.0000000E+00;  1.0000000E+04;  0.0000000E+00;  1.0000000E+04;  0.0000000E+00;  0.0000000E+00;  0.0000000E+00;  0.0000000E+00;
  2.1400001E+00;  9.9999998E-03;  2.5999999E-01;889;  0.0000000E+00;  0.0000000E+00;  0.0000000E+00;  1.0000000E+03;  4.0000001E-01;  0.0000000E+00;0;  0.0000000E+00;  0.0000000E+00;  0.0000000E+00;0;  0.0000000E+00;  1.0000000E+04;  0.0000000E+00;  0.0000000E+00;  1.0000000E+04;  0.0000000E+00;  1.0000000E+04;  0.0000000E+00;  0.0000000E+00;  0.0000000E+00;  0.0000000E+00;
  2.1400001E+00;  9.9999998E-03;  2.8000000E-01;890;  0.0000000E+00;  0.0000000E+00;  0.0000000E+00;  1.0000000E+03;  4.0000001E-01;  0.0000000E+00;0;  0.0000000E+00;  0.0000000E+00;  0.0000000E+00;0;  0.0000000E+00;  1.0000000E+04;  0.0000000E+00;  0.0000000E+00;  1.0000000E+04;  0.0000000E+00;  1.0000000E+04;  0.0000000E+00;  0.0000000E+00;  0.0000000E+00;  0.0000000E+00;
  2.1400001E+00;  9.9999998E-03;  3.0000001E-01;891;  0.0000000E+00;  0.0000000E+00;  0.0000000E+00;  1.0000000E+03;  4.0000001E-01;  0.0000000E+00;0;  0.0000000E+00;  0.0000000E+00;  0.0000000E+00;0;  0.0000000E+00;  1.0000000E+04;  0.0000000E+00;  0.0000000E+00;  1.0000000E+04;  0.0000000E+00;  1.0000000E+04;  0.0000000E+00;  0.0000000E+00;  0.0000000E+00;  0.0000000E+00;
  2.1400001E+00;  9.9999998E-03;  3.1999999E-01;892;  0.0000000E+00;  0.0000000E+00;  0.0000000E+00;  1.0000000E+03;  4.0000001E-01;  0.0000000E+00;0;  0.0000000E+00;  0.0000000E+00;  0.0000000E+00;0;  0.0000000E+00;  1.0000000E+04;  0.0000000E+00;  0.0000000E+00;  1.0000000E+04;  0.0000000E+00;  1.0000000E+04;  0.0000000E+00;  0.0000000E+00;  0.0000000E+00;  0.0000000E+00;
  2.1400001E+00;  9.9999998E-03;  3.4000000E-01;893;  0.0000000E+00;  0.0000000E+00;  0.0000000E+00;  1.0000000E+03;  4.0000001E-01;  0.0000000E+00;0;  0.0000000E+00;  0.0000000E+00;  0.0000000E+00;0;  0.0000000E+00;  1.0000000E+04;  0.0000000E+00;  0.0000000E+00;  1.0000000E+04;  0.0000000E+00;  1.0000000E+04;  0.0000000E+00;  0.0000000E+00;  0.0000000E+00;  0.0000000E+00;
  2.1400001E+00;  9.9999998E-03;  3.6000001E-01;894;  0.0000000E+00;  0.0000000E+00;  0.0000000E+00;  1.0000000E+03;  4.0000001E-01;  0.0000000E+00;0;  0.0000000E+00;  0.0000000E+00;  0.0000000E+00;0;  0.0000000E+00;  1.0000000E+04;  0.0000000E+00;  0.0000000E+00;  1.0000000E+04;  0.0000000E+00;  1.0000000E+04;  0.0000000E+00;  0.0000000E+00;  0.0000000E+00;  0.0000000E+00;
  2.1400001E+00;  9.9999998E-03;  3.8000000E-01;895;  0.0000000E+00;  0.0000000E+00;  0.0000000E+00;  1.0000000E+03;  4.0000001E-01;  0.0000000E+00;0;  0.0000000E+00;  0.0000000E+00;  0.0000000E+00;0;  0.0000000E+00;  1.0000000E+04;  0.0000000E+00;  0.0000000E+00;  1.0000000E+04;  0.0000000E+00;  1.0000000E+04;  0.0000000E+00;  0.0000000E+00;  0.0000000E+00;  0.0000000E+00;
  2.1400001E+00;  9.9999998E-03;  4.0000001E-01;896;  0.0000000E+00;  0.0000000E+00;  0.0000000E+00;  1.0000000E+03;  4.0000001E-01;  0.0000000E+00;0;  0.0000000E+00;  0.0000000E+00;  0.0000000E+00;0;  0.0000000E+00;  1.0000000E+04;  0.0000000E+00;  0.0000000E+00;  1.0000000E+04;  0.0000000E+00;  1.0000000E+04;  0.0000000E+00;  0.0000000E+00;  0.0000000E+00;  0.0000000E+00;
  2.1600001E+00;  9.9999998E-03; -2.8000000E-01;897;  0.0000000E+00;  0.0000000E+00;  0.0000000E+00;  1.0000000E+03;  4.0000001E-01;  0.0000000E+00;0;  0.0000000E+00;  0.0000000E+00;  0.0000000E+00;0;  0.0000000E+00;  1.0000000E+04;  0.0000000E+00;  0.0000000E+00;  1.0000000E+04;  0.0000000E+00;  1.0000000E+04;  0.0000000E+00;  0.0000000E+00;  0.0000000E+00;  0.0000000E+00;
  2.1600001E+00;  9.9999998E-03; -2.5999999E-01;898;  0.0000000E+00;  0.0000000E+00;  0.0000000E+00;  1.0000000E+03;  4.0000001E-01;  0.0000000E+00;0;  0.0000000E+00;  0.0000000E+00;  0.0000000E+00;0;  0.0000000E+00;  1.0000000E+04;  0.0000000E+00;  0.0000000E+00;  1.0000000E+04;  0.0000000E+00;  1.0000000E+04;  0.0000000E+00;  0.0000000E+00;  0.0000000E+00;  0.0000000E+00;
  2.1600001E+00;  9.9999998E-03; -2.3999999E-01;899;  0.0000000E+00;  0.0000000E+00;  0.0000000E+00;  1.0000000E+03;  4.0000001E-01;  0.0000000E+00;0;  0.0000000E+00;  0.0000000E+00;  0.0000000E+00;0;  0.0000000E+00;  1.0000000E+04;  0.0000000E+00;  0.0000000E+00;  1.0000000E+04;  0.0000000E+00;  1.0000000E+04;  0.0000000E+00;  0.0000000E+00;  0.0000000E+00;  0.0000000E+00;
  2.1600001E+00;  9.9999998E-03; -2.2000000E-01;900;  0.0000000E+00;  0.0000000E+00;  0.0000000E+00;  1.0000000E+03;  4.0000001E-01;  0.0000000E+00;0;  0.0000000E+00;  0.0000000E+00;  0.0000000E+00;0;  0.0000000E+00;  1.0000000E+04;  0.0000000E+00;  0.0000000E+00;  1.0000000E+04;  0.0000000E+00;  1.0000000E+04;  0.0000000E+00;  0.0000000E+00;  0.0000000E+00;  0.0000000E+00;
  2.1600001E+00;  9.9999998E-03; -2.0000000E-01;901;  0.0000000E+00;  0.0000000E+00;  0.0000000E+00;  1.0000000E+03;  4.0000001E-01;  0.0000000E+00;0;  0.0000000E+00;  0.0000000E+00;  0.0000000E+00;0;  0.0000000E+00;  1.0000000E+04;  0.0000000E+00;  0.0000000E+00;  1.0000000E+04;  0.0000000E+00;  1.0000000E+04;  0.0000000E+00;  0.0000000E+00;  0.0000000E+00;  0.0000000E+00;
  2.1600001E+00;  9.9999998E-03; -1.8000001E-01;902;  0.0000000E+00;  0.0000000E+00;  0.0000000E+00;  1.0000000E+03;  4.0000001E-01;  0.0000000E+00;0;  0.0000000E+00;  0.0000000E+00;  0.0000000E+00;0;  0.0000000E+00;  1.0000000E+04;  0.0000000E+00;  0.0000000E+00;  1.0000000E+04;  0.0000000E+00;  1.0000000E+04;  0.0000000E+00;  0.0000000E+00;  0.0000000E+00;  0.0000000E+00;
  2.1600001E+00;  9.9999998E-03; -1.6000000E-01;903;  0.0000000E+00;  0.0000000E+00;  0.0000000E+00;  1.0000000E+03;  4.0000001E-01;  0.0000000E+00;0;  0.0000000E+00;  0.0000000E+00;  0.0000000E+00;0;  0.0000000E+00;  1.0000000E+04;  0.0000000E+00;  0.0000000E+00;  1.0000000E+04;  0.0000000E+00;  1.0000000E+04;  0.0000000E+00;  0.0000000E+00;  0.0000000E+00;  0.0000000E+00;
  2.1600001E+00;  9.9999998E-03; -1.4000000E-01;904;  0.0000000E+00;  0.0000000E+00;  0.0000000E+00;  1.0000000E+03;  4.0000001E-01;  0.0000000E+00;0;  0.0000000E+00;  0.0000000E+00;  0.0000000E+00;0;  0.0000000E+00;  1.0000000E+04;  0.0000000E+00;  0.0000000E+00;  1.0000000E+04;  0.0000000E+00;  1.0000000E+04;  0.0000000E+00;  0.0000000E+00;  0.0000000E+00;  0.0000000E+00;
  2.1600001E+00;  9.9999998E-03; -1.2000000E-01;905;  0.0000000E+00;  0.0000000E+00;  0.0000000E+00;  1.0000000E+03;  4.0000001E-01;  0.0000000E+00;0;  0.0000000E+00;  0.0000000E+00;  0.0000000E+00;0;  0.0000000E+00;  1.0000000E+04;  0.0000000E+00;  0.0000000E+00;  1.0000000E+04;  0.0000000E+00;  1.0000000E+04;  0.0000000E+00;  0.0000000E+00;  0.0000000E+00;  0.0000000E+00;
  2.1600001E+00;  9.9999998E-03; -1.0000000E-01;906;  0.0000000E+00;  0.0000000E+00;  0.0000000E+00;  1.0000000E+03;  4.0000001E-01;  0.0000000E+00;0;  0.0000000E+00;  0.0000000E+00;  0.0000000E+00;0;  0.0000000E+00;  1.0000000E+04;  0.0000000E+00;  0.0000000E+00;  1.0000000E+04;  0.0000000E+00;  1.0000000E+04;  0.0000000E+00;  0.0000000E+00;  0.0000000E+00;  0.0000000E+00;
  2.1600001E+00;  9.9999998E-03; -7.9999998E-02;907;  0.0000000E+00;  0.0000000E+00;  0.0000000E+00;  1.0000000E+03;  4.0000001E-01;  0.0000000E+00;0;  0.0000000E+00;  0.0000000E+00;  0.0000000E+00;0;  0.0000000E+00;  1.0000000E+04;  0.0000000E+00;  0.0000000E+00;  1.0000000E+04;  0.0000000E+00;  1.0000000E+04;  0.0000000E+00;  0.0000000E+00;  0.0000000E+00;  0.0000000E+00;
  2.1600001E+00;  9.9999998E-03; -5.9999999E-02;908;  0.0000000E+00;  0.0000000E+00;  0.0000000E+00;  1.0000000E+03;  4.0000001E-01;  0.0000000E+00;0;  0.0000000E+00;  0.0000000E+00;  0.0000000E+00;0;  0.0000000E+00;  1.0000000E+04;  0.0000000E+00;  0.0000000E+00;  1.0000000E+04;  0.0000000E+00;  1.0000000E+04;  0.0000000E+00;  0.0000000E+00;  0.0000000E+00;  0.0000000E+00;
  2.1600001E+00;  9.9999998E-03; -3.9999999E-02;909;  0.0000000E+00;  0.0000000E+00;  0.0000000E+00;  1.0000000E+03;  4.0000001E-01;  0.0000000E+00;0;  0.0000000E+00;  0.0000000E+00;  0.0000000E+00;0;  0.0000000E+00;  1.0000000E+04;  0.0000000E+00;  0.0000000E+00;  1.0000000E+04;  0.0000000E+00;  1.0000000E+04;  0.0000000E+00;  0.0000000E+00;  0.0000000E+00;  0.0000000E+00;
  2.1600001E+00;  9.9999998E-03; -2.0000000E-02;910;  0.0000000E+00;  0.0000000E+00;  0.0000000E+00;  1.0000000E+03;  4.0000001E-01;  0.0000000E+00;0;  0.0000000E+00;  0.0000000E+00;  0.0000000E+00;0;  0.0000000E+00;  1.0000000E+04;  0.0000000E+00;  0.0000000E+00;  1.0000000E+04;  0.0000000E+00;  1.0000000E+04;  0.0000000E+00;  0.0000000E+00;  0.0000000E+00;  0.0000000E+00;
  2.1600001E+00;  9.9999998E-03;  0.0000000E+00;911;  0.0000000E+00;  0.0000000E+00;  0.0000000E+00;  1.0000000E+03;  4.0000001E-01;  0.0000000E+00;0;  0.0000000E+00;  0.0000000E+00;  0.0000000E+00;0;  0.0000000E+00;  1.0000000E+04;  0.0000000E+00;  0.0000000E+00;  1.0000000E+04;  0.0000000E+00;  1.0000000E+04;  0.0000000E+00;  0.0000000E+00;  0.0000000E+00;  0.0000000E+00;
  2.1600001E+00;  9.9999998E-03;  2.0000000E-02;912;  0.0000000E+00;  0.0000000E+00;  0.0000000E+00;  1.0000000E+03;  4.0000001E-01;  0.0000000E+00;0;  0.0000000E+00;  0.0000000E+00;  0.0000000E+00;0;  0.0000000E+00;  1.0000000E+04;  0.0000000E+00;  0.0000000E+00;  1.0000000E+04;  0.0000000E+00;  1.0000000E+04;  0.0000000E+00;  0.0000000E+00;  0.0000000E+00;  0.0000000E+00;
  2.1600001E+00;  9.9999998E-03;  3.9999999E-02;913;  0.0000000E+00;  0.0000000E+00;  0.0000000E+00;  1.0000000E+03;  4.0000001E-01;  0.0000000E+00;0;  0.0000000E+00;  0.0000000E+00;  0.0000000E+00;0;  0.0000000E+00;  1.0000000E+04;  0.0000000E+00;  0.0000000E+00;  1.0000000E+04;  0.0000000E+00;  1.0000000E+04;  0.0000000E+00;  0.0000000E+00;  0.0000000E+00;  0.0000000E+00;
  2.1600001E+00;  9.9999998E-03;  5.9999999E-02;914;  0.0000000E+00;  0.0000000E+00;  0.0000000E+00;  1.0000000E+03;  4.0000001E-01;  0.0000000E+00;0;  0.0000000E+00;  0.0000000E+00;  0.0000000E+00;0;  0.0000000E+00;  1.0000000E+04;  0.0000000E+00;  0.0000000E+00;  1.0000000E+04;  0.0000000E+00;  1.0000000E+04;  0.0000000E+00;  0.0000000E+00;  0.0000000E+00;  0.0000000E+00;
  2.1600001E+00;  9.9999998E-03;  7.9999998E-02;915;  0.0000000E+00;  0.0000000E+00;  0.0000000E+00;  1.0000000E+03;  4.0000001E-01;  0.0000000E+00;0;  0.0000000E+00;  0.0000000E+00;  0.0000000E+00;0;  0.0000000E+00;  1.0000000E+04;  0.0000000E+00;  0.0000000E+00;  1.0000000E+04;  0.0000000E+00;  1.0000000E+04;  0.0000000E+00;  0.0000000E+00;  0.0000000E+00;  0.0000000E+00;
  2.1600001E+00;  9.9999998E-03;  1.0000000E-01;916;  0.0000000E+00;  0.0000000E+00;  0.0000000E+00;  1.0000000E+03;  4.0000001E-01;  0.0000000E+00;0;  0.0000000E+00;  0.0000000E+00;  0.0000000E+00;0;  0.0000000E+00;  1.0000000E+04;  0.0000000E+00;  0.0000000E+00;  1.0000000E+04;  0.0000000E+00;  1.0000000E+04;  0.0000000E+00;  0.0000000E+00;  0.0000000E+00;  0.0000000E+00;
  2.1600001E+00;  9.9999998E-03;  1.2000000E-01;917;  0.0000000E+00;  0.0000000E+00;  0.0000000E+00;  1.0000000E+03;  4.0000001E-01;  0.0000000E+00;0;  0.0000000E+00;  0.0000000E+00;  0.0000000E+00;0;  0.0000000E+00;  1.0000000E+04;  0.0000000E+00;  0.0000000E+00;  1.0000000E+04;  0.0000000E+00;  1.0000000E+04;  0.0000000E+00;  0.0000000E+00;  0.0000000E+00;  0.0000000E+00;
  2.1600001E+00;  9.9999998E-03;  1.4000000E-01;918;  0.0000000E+00;  0.0000000E+00;  0.0000000E+00;  1.0000000E+03;  4.0000001E-01;  0.0000000E+00;0;  0.0000000E+00;  0.0000000E+00;  0.0000000E+00;0;  0.0000000E+00;  1.0000000E+04;  0.0000000E+00;  0.0000000E+00;  1.0000000E+04;  0.0000000E+00;  1.0000000E+04;  0.0000000E+00;  0.0000000E+00;  0.0000000E+00;  0.0000000E+00;
  2.1600001E+00;  9.9999998E-03;  1.6000000E-01;919;  0.0000000E+00;  0.0000000E+00;  0.0000000E+00;  1.0000000E+03;  4.0000001E-01;  0.0000000E+00;0;  0.0000000E+00;  0.0000000E+00;  0.0000000E+00;0;  0.0000000E+00;  1.0000000E+04;  0.0000000E+00;  0.0000000E+00;  1.0000000E+04;  0.0000000E+00;  1.0000000E+04;  0.0000000E+00;  0.0000000E+00;  0.0000000E+00;  0.0000000E+00;
  2.1600001E+00;  9.9999998E-03;  1.8000001E-01;920;  0.0000000E+00;  0.0000000E+00;  0.0000000E+00;  1.0000000E+03;  4.0000001E-01;  0.0000000E+00;0;  0.0000000E+00;  0.0000000E+00;  0.0000000E+00;0;  0.0000000E+00;  1.0000000E+04;  0.0000000E+00;  0.0000000E+00;  1.0000000E+04;  0.0000000E+00;  1.0000000E+04;  0.0000000E+00;  0.0000000E+00;  0.0000000E+00;  0.0000000E+00;
  2.1600001E+00;  9.9999998E-03;  2.0000000E-01;921;  0.0000000E+00;  0.0000000E+00;  0.0000000E+00;  1.0000000E+03;  4.0000001E-01;  0.0000000E+00;0;  0.0000000E+00;  0.0000000E+00;  0.0000000E+00;0;  0.0000000E+00;  1.0000000E+04;  0.0000000E+00;  0.0000000E+00;  1.0000000E+04;  0.0000000E+00;  1.0000000E+04;  0.0000000E+00;  0.0000000E+00;  0.0000000E+00;  0.0000000E+00;
  2.1600001E+00;  9.9999998E-03;  2.2000000E-01;922;  0.0000000E+00;  0.0000000E+00;  0.0000000E+00;  1.0000000E+03;  4.0000001E-01;  0.0000000E+00;0;  0.0000000E+00;  0.0000000E+00;  0.0000000E+00;0;  0.0000000E+00;  1.0000000E+04;  0.0000000E+00;  0.0000000E+00;  1.0000000E+04;  0.0000000E+00;  1.0000000E+04;  0.0000000E+00;  0.0000000E+00;  0.0000000E+00;  0.0000000E+00;
  2.1600001E+00;  9.9999998E-03;  2.3999999E-01;923;  0.0000000E+00;  0.0000000E+00;  0.0000000E+00;  1.0000000E+03;  4.0000001E-01;  0.0000000E+00;0;  0.0000000E+00;  0.0000000E+00;  0.0000000E+00;0;  0.0000000E+00;  1.0000000E+04;  0.0000000E+00;  0.0000000E+00;  1.0000000E+04;  0.0000000E+00;  1.0000000E+04;  0.0000000E+00;  0.0000000E+00;  0.0000000E+00;  0.0000000E+00;
  2.1600001E+00;  9.9999998E-03;  2.5999999E-01;924;  0.0000000E+00;  0.0000000E+00;  0.0000000E+00;  1.0000000E+03;  4.0000001E-01;  0.0000000E+00;0;  0.0000000E+00;  0.0000000E+00;  0.0000000E+00;0;  0.0000000E+00;  1.0000000E+04;  0.0000000E+00;  0.0000000E+00;  1.0000000E+04;  0.0000000E+00;  1.0000000E+04;  0.0000000E+00;  0.0000000E+00;  0.0000000E+00;  0.0000000E+00;
  2.1600001E+00;  9.9999998E-03;  2.8000000E-01;925;  0.0000000E+00;  0.0000000E+00;  0.0000000E+00;  1.0000000E+03;  4.0000001E-01;  0.0000000E+00;0;  0.0000000E+00;  0.0000000E+00;  0.0000000E+00;0;  0.0000000E+00;  1.0000000E+04;  0.0000000E+00;  0.0000000E+00;  1.0000000E+04;  0.0000000E+00;  1.0000000E+04;  0.0000000E+00;  0.0000000E+00;  0.0000000E+00;  0.0000000E+00;
  2.1600001E+00;  9.9999998E-03;  3.0000001E-01;926;  0.0000000E+00;  0.0000000E+00;  0.0000000E+00;  1.0000000E+03;  4.0000001E-01;  0.0000000E+00;0;  0.0000000E+00;  0.0000000E+00;  0.0000000E+00;0;  0.0000000E+00;  1.0000000E+04;  0.0000000E+00;  0.0000000E+00;  1.0000000E+04;  0.0000000E+00;  1.0000000E+04;  0.0000000E+00;  0.0000000E+00;  0.0000000E+00;  0.0000000E+00;
  2.1600001E+00;  9.9999998E-03;  3.1999999E-01;927;  0.0000000E+00;  0.0000000E+00;  0.0000000E+00;  1.0000000E+03;  4.0000001E-01;  0.0000000E+00;0;  0.0000000E+00;  0.0000000E+00;  0.0000000E+00;0;  0.0000000E+00;  1.0000000E+04;  0.0000000E+00;  0.0000000E+00;  1.0000000E+04;  0.0000000E+00;  1.0000000E+04;  0.0000000E+00;  0.0000000E+00;  0.0000000E+00;  0.0000000E+00;
  2.1600001E+00;  9.9999998E-03;  3.4000000E-01;928;  0.0000000E+00;  0.0000000E+00;  0.0000000E+00;  1.0000000E+03;  4.0000001E-01;  0.0000000E+00;0;  0.0000000E+00;  0.0000000E+00;  0.0000000E+00;0;  0.0000000E+00;  1.0000000E+04;  0.0000000E+00;  0.0000000E+00;  1.0000000E+04;  0.0000000E+00;  1.0000000E+04;  0.0000000E+00;  0.0000000E+00;  0.0000000E+00;  0.0000000E+00;
  2.1600001E+00;  9.9999998E-03;  3.6000001E-01;929;  0.0000000E+00;  0.0000000E+00;  0.0000000E+00;  1.0000000E+03;  4.0000001E-01;  0.0000000E+00;0;  0.0000000E+00;  0.0000000E+00;  0.0000000E+00;0;  0.0000000E+00;  1.0000000E+04;  0.0000000E+00;  0.0000000E+00;  1.0000000E+04;  0.0000000E+00;  1.0000000E+04;  0.0000000E+00;  0.0000000E+00;  0.0000000E+00;  0.0000000E+00;
  2.1600001E+00;  9.9999998E-03;  3.8000000E-01;930;  0.0000000E+00;  0.0000000E+00;  0.0000000E+00;  1.0000000E+03;  4.0000001E-01;  0.0000000E+00;0;  0.0000000E+00;  0.0000000E+00;  0.0000000E+00;0;  0.0000000E+00;  1.0000000E+04;  0.0000000E+00;  0.0000000E+00;  1.0000000E+04;  0.0000000E+00;  1.0000000E+04;  0.0000000E+00;  0.0000000E+00;  0.0000000E+00;  0.0000000E+00;
  2.1600001E+00;  9.9999998E-03;  4.0000001E-01;931;  0.0000000E+00;  0.0000000E+00;  0.0000000E+00;  1.0000000E+03;  4.0000001E-01;  0.0000000E+00;0;  0.0000000E+00;  0.0000000E+00;  0.0000000E+00;0;  0.0000000E+00;  1.0000000E+04;  0.0000000E+00;  0.0000000E+00;  1.0000000E+04;  0.0000000E+00;  1.0000000E+04;  0.0000000E+00;  0.0000000E+00;  0.0000000E+00;  0.0000000E+00;
  2.1800001E+00;  9.9999998E-03; -1.8000001E-01;932;  0.0000000E+00;  0.0000000E+00;  0.0000000E+00;  1.0000000E+03;  4.0000001E-01;  0.0000000E+00;0;  0.0000000E+00;  0.0000000E+00;  0.0000000E+00;0;  0.0000000E+00;  1.0000000E+04;  0.0000000E+00;  0.0000000E+00;  1.0000000E+04;  0.0000000E+00;  1.0000000E+04;  0.0000000E+00;  0.0000000E+00;  0.0000000E+00;  0.0000000E+00;
  2.1800001E+00;  9.9999998E-03; -1.6000000E-01;933;  0.0000000E+00;  0.0000000E+00;  0.0000000E+00;  1.0000000E+03;  4.0000001E-01;  0.0000000E+00;0;  0.0000000E+00;  0.0000000E+00;  0.0000000E+00;0;  0.0000000E+00;  1.0000000E+04;  0.0000000E+00;  0.0000000E+00;  1.0000000E+04;  0.0000000E+00;  1.0000000E+04;  0.0000000E+00;  0.0000000E+00;  0.0000000E+00;  0.0000000E+00;
  2.1800001E+00;  9.9999998E-03; -1.4000000E-01;934;  0.0000000E+00;  0.0000000E+00;  0.0000000E+00;  1.0000000E+03;  4.0000001E-01;  0.0000000E+00;0;  0.0000000E+00;  0.0000000E+00;  0.0000000E+00;0;  0.0000000E+00;  1.0000000E+04;  0.0000000E+00;  0.0000000E+00;  1.0000000E+04;  0.0000000E+00;  1.0000000E+04;  0.0000000E+00;  0.0000000E+00;  0.0000000E+00;  0.0000000E+00;
  2.1800001E+00;  9.9999998E-03; -1.2000000E-01;935;  0.0000000E+00;  0.0000000E+00;  0.0000000E+00;  1.0000000E+03;  4.0000001E-01;  0.0000000E+00;0;  0.0000000E+00;  0.0000000E+00;  0.0000000E+00;0;  0.0000000E+00;  1.0000000E+04;  0.0000000E+00;  0.0000000E+00;  1.0000000E+04;  0.0000000E+00;  1.0000000E+04;  0.0000000E+00;  0.0000000E+00;  0.0000000E+00;  0.0000000E+00;
  2.1800001E+00;  9.9999998E-03; -1.0000000E-01;936;  0.0000000E+00;  0.0000000E+00;  0.0000000E+00;  1.0000000E+03;  4.0000001E-01;  0.0000000E+00;0;  0.0000000E+00;  0.0000000E+00;  0.0000000E+00;0;  0.0000000E+00;  1.0000000E+04;  0.0000000E+00;  0.0000000E+00;  1.0000000E+04;  0.0000000E+00;  1.0000000E+04;  0.0000000E+00;  0.0000000E+00;  0.0000000E+00;  0.0000000E+00;
  2.1800001E+00;  9.9999998E-03; -7.9999998E-02;937;  0.0000000E+00;  0.0000000E+00;  0.0000000E+00;  1.0000000E+03;  4.0000001E-01;  0.0000000E+00;0;  0.0000000E+00;  0.0000000E+00;  0.0000000E+00;0;  0.0000000E+00;  1.0000000E+04;  0.0000000E+00;  0.0000000E+00;  1.0000000E+04;  0.0000000E+00;  1.0000000E+04;  0.0000000E+00;  0.0000000E+00;  0.0000000E+00;  0.0000000E+00;
  2.1800001E+00;  9.9999998E-03; -5.9999999E-02;938;  0.0000000E+00;  0.0000000E+00;  0.0000000E+00;  1.0000000E+03;  4.0000001E-01;  0.0000000E+00;0;  0.0000000E+00;  0.0000000E+00;  0.0000000E+00;0;  0.0000000E+00;  1.0000000E+04;  0.0000000E+00;  0.0000000E+00;  1.0000000E+04;  0.0000000E+00;  1.0000000E+04;  0.0000000E+00;  0.0000000E+00;  0.0000000E+00;  0.0000000E+00;
  2.1800001E+00;  9.9999998E-03; -3.9999999E-02;939;  0.0000000E+00;  0.0000000E+00;  0.0000000E+00;  1.0000000E+03;  4.0000001E-01;  0.0000000E+00;0;  0.0000000E+00;  0.0000000E+00;  0.0000000E+00;0;  0.0000000E+00;  1.0000000E+04;  0.0000000E+00;  0.0000000E+00;  1.0000000E+04;  0.0000000E+00;  1.0000000E+04;  0.0000000E+00;  0.0000000E+00;  0.0000000E+00;  0.0000000E+00;
  2.1800001E+00;  9.9999998E-03; -2.0000000E-02;940;  0.0000000E+00;  0.0000000E+00;  0.0000000E+00;  1.0000000E+03;  4.0000001E-01;  0.0000000E+00;0;  0.0000000E+00;  0.0000000E+00;  0.0000000E+00;0;  0.0000000E+00;  1.0000000E+04;  0.0000000E+00;  0.0000000E+00;  1.0000000E+04;  0.0000000E+00;  1.0000000E+04;  0.0000000E+00;  0.0000000E+00;  0.0000000E+00;  0.0000000E+00;
  2.1800001E+00;  9.9999998E-03;  0.0000000E+00;941;  0.0000000E+00;  0.0000000E+00;  0.0000000E+00;  1.0000000E+03;  4.0000001E-01;  0.0000000E+00;0;  0.0000000E+00;  0.0000000E+00;  0.0000000E+00;0;  0.0000000E+00;  1.0000000E+04;  0.0000000E+00;  0.0000000E+00;  1.0000000E+04;  0.0000000E+00;  1.0000000E+04;  0.0000000E+00;  0.0000000E+00;  0.0000000E+00;  0.0000000E+00;
  2.1800001E+00;  9.9999998E-03;  2.0000000E-02;942;  0.0000000E+00;  0.0000000E+00;  0.0000000E+00;  1.0000000E+03;  4.0000001E-01;  0.0000000E+00;0;  0.0000000E+00;  0.0000000E+00;  0.0000000E+00;0;  0.0000000E+00;  1.0000000E+04;  0.0000000E+00;  0.0000000E+00;  1.0000000E+04;  0.0000000E+00;  1.0000000E+04;  0.0000000E+00;  0.0000000E+00;  0.0000000E+00;  0.0000000E+00;
  2.1800001E+00;  9.9999998E-03;  3.9999999E-02;943;  0.0000000E+00;  0.0000000E+00;  0.0000000E+00;  1.0000000E+03;  4.0000001E-01;  0.0000000E+00;0;  0.0000000E+00;  0.0000000E+00;  0.0000000E+00;0;  0.0000000E+00;  1.0000000E+04;  0.0000000E+00;  0.0000000E+00;  1.0000000E+04;  0.0000000E+00;  1.0000000E+04;  0.0000000E+00;  0.0000000E+00;  0.0000000E+00;  0.0000000E+00;
  2.1800001E+00;  9.9999998E-03;  5.9999999E-02;944;  0.0000000E+00;  0.0000000E+00;  0.0000000E+00;  1.0000000E+03;  4.0000001E-01;  0.0000000E+00;0;  0.0000000E+00;  0.0000000E+00;  0.0000000E+00;0;  0.0000000E+00;  1.0000000E+04;  0.0000000E+00;  0.0000000E+00;  1.0000000E+04;  0.0000000E+00;  1.0000000E+04;  0.0000000E+00;  0.0000000E+00;  0.0000000E+00;  0.0000000E+00;
  2.1800001E+00;  9.9999998E-03;  7.9999998E-02;945;  0.0000000E+00;  0.0000000E+00;  0.0000000E+00;  1.0000000E+03;  4.0000001E-01;  0.0000000E+00;0;  0.0000000E+00;  0.0000000E+00;  0.0000000E+00;0;  0.0000000E+00;  1.0000000E+04;  0.0000000E+00;  0.0000000E+00;  1.0000000E+04;  0.0000000E+00;  1.0000000E+04;  0.0000000E+00;  0.0000000E+00;  0.0000000E+00;  0.0000000E+00;
  2.1800001E+00;  9.9999998E-03;  1.0000000E-01;946;  0.0000000E+00;  0.0000000E+00;  0.0000000E+00;  1.0000000E+03;  4.0000001E-01;  0.0000000E+00;0;  0.0000000E+00;  0.0000000E+00;  0.0000000E+00;0;  0.0000000E+00;  1.0000000E+04;  0.0000000E+00;  0.0000000E+00;  1.0000000E+04;  0.0000000E+00;  1.0000000E+04;  0.0000000E+00;  0.0000000E+00;  0.0000000E+00;  0.0000000E+00;
  2.1800001E+00;  9.9999998E-03;  1.2000000E-01;947;  0.0000000E+00;  0.0000000E+00;  0.0000000E+00;  1.0000000E+03;  4.0000001E-01;  0.0000000E+00;0;  0.0000000E+00;  0.0000000E+00;  0.0000000E+00;0;  0.0000000E+00;  1.0000000E+04;  0.0000000E+00;  0.0000000E+00;  1.0000000E+04;  0.0000000E+00;  1.0000000E+04;  0.0000000E+00;  0.0000000E+00;  0.0000000E+00;  0.0000000E+00;
  2.1800001E+00;  9.9999998E-03;  1.4000000E-01;948;  0.0000000E+00;  0.0000000E+00;  0.0000000E+00;  1.0000000E+03;  4.0000001E-01;  0.0000000E+00;0;  0.0000000E+00;  0.0000000E+00;  0.0000000E+00;0;  0.0000000E+00;  1.0000000E+04;  0.0000000E+00;  0.0000000E+00;  1.0000000E+04;  0.0000000E+00;  1.0000000E+04;  0.0000000E+00;  0.0000000E+00;  0.0000000E+00;  0.0000000E+00;
  2.1800001E+00;  9.9999998E-03;  1.6000000E-01;949;  0.0000000E+00;  0.0000000E+00;  0.0000000E+00;  1.0000000E+03;  4.0000001E-01;  0.0000000E+00;0;  0.0000000E+00;  0.0000000E+00;  0.0000000E+00;0;  0.0000000E+00;  1.0000000E+04;  0.0000000E+00;  0.0000000E+00;  1.0000000E+04;  0.0000000E+00;  1.0000000E+04;  0.0000000E+00;  0.0000000E+00;  0.0000000E+00;  0.0000000E+00;
  2.1800001E+00;  9.9999998E-03;  1.8000001E-01;950;  0.0000000E+00;  0.0000000E+00;  0.0000000E+00;  1.0000000E+03;  4.0000001E-01;  0.0000000E+00;0;  0.0000000E+00;  0.0000000E+00;  0.0000000E+00;0;  0.0000000E+00;  1.0000000E+04;  0.0000000E+00;  0.0000000E+00;  1.0000000E+04;  0.0000000E+00;  1.0000000E+04;  0.0000000E+00;  0.0000000E+00;  0.0000000E+00;  0.0000000E+00;
  2.1800001E+00;  9.9999998E-03;  2.0000000E-01;951;  0.0000000E+00;  0.0000000E+00;  0.0000000E+00;  1.0000000E+03;  4.0000001E-01;  0.0000000E+00;0;  0.0000000E+00;  0.0000000E+00;  0.0000000E+00;0;  0.0000000E+00;  1.0000000E+04;  0.0000000E+00;  0.0000000E+00;  1.0000000E+04;  0.0000000E+00;  1.0000000E+04;  0.0000000E+00;  0.0000000E+00;  0.0000000E+00;  0.0000000E+00;
  2.1800001E+00;  9.9999998E-03;  2.2000000E-01;952;  0.0000000E+00;  0.0000000E+00;  0.0000000E+00;  1.0000000E+03;  4.0000001E-01;  0.0000000E+00;0;  0.0000000E+00;  0.0000000E+00;  0.0000000E+00;0;  0.0000000E+00;  1.0000000E+04;  0.0000000E+00;  0.0000000E+00;  1.0000000E+04;  0.0000000E+00;  1.0000000E+04;  0.0000000E+00;  0.0000000E+00;  0.0000000E+00;  0.0000000E+00;
  2.1800001E+00;  9.9999998E-03;  2.3999999E-01;953;  0.0000000E+00;  0.0000000E+00;  0.0000000E+00;  1.0000000E+03;  4.0000001E-01;  0.0000000E+00;0;  0.0000000E+00;  0.0000000E+00;  0.0000000E+00;0;  0.0000000E+00;  1.0000000E+04;  0.0000000E+00;  0.0000000E+00;  1.0000000E+04;  0.0000000E+00;  1.0000000E+04;  0.0000000E+00;  0.0000000E+00;  0.0000000E+00;  0.0000000E+00;
  2.1800001E+00;  9.9999998E-03;  2.5999999E-01;954;  0.0000000E+00;  0.0000000E+00;  0.0000000E+00;  1.0000000E+03;  4.0000001E-01;  0.0000000E+00;0;  0.0000000E+00;  0.0000000E+00;  0.0000000E+00;0;  0.0000000E+00;  1.0000000E+04;  0.0000000E+00;  0.0000000E+00;  1.0000000E+04;  0.0000000E+00;  1.0000000E+04;  0.0000000E+00;  0.0000000E+00;  0.0000000E+00;  0.0000000E+00;
  2.1800001E+00;  9.9999998E-03;  2.8000000E-01;955;  0.0000000E+00;  0.0000000E+00;  0.0000000E+00;  1.0000000E+03;  4.0000001E-01;  0.0000000E+00;0;  0.0000000E+00;  0.0000000E+00;  0.0000000E+00;0;  0.0000000E+00;  1.0000000E+04;  0.0000000E+00;  0.0000000E+00;  1.0000000E+04;  0.0000000E+00;  1.0000000E+04;  0.0000000E+00;  0.0000000E+00;  0.0000000E+00;  0.0000000E+00;
  2.1800001E+00;  9.9999998E-03;  3.0000001E-01;956;  0.0000000E+00;  0.0000000E+00;  0.0000000E+00;  1.0000000E+03;  4.0000001E-01;  0.0000000E+00;0;  0.0000000E+00;  0.0000000E+00;  0.0000000E+00;0;  0.0000000E+00;  1.0000000E+04;  0.0000000E+00;  0.0000000E+00;  1.0000000E+04;  0.0000000E+00;  1.0000000E+04;  0.0000000E+00;  0.0000000E+00;  0.0000000E+00;  0.0000000E+00;
  2.1800001E+00;  9.9999998E-03;  3.1999999E-01;957;  0.0000000E+00;  0.0000000E+00;  0.0000000E+00;  1.0000000E+03;  4.0000001E-01;  0.0000000E+00;0;  0.0000000E+00;  0.0000000E+00;  0.0000000E+00;0;  0.0000000E+00;  1.0000000E+04;  0.0000000E+00;  0.0000000E+00;  1.0000000E+04;  0.0000000E+00;  1.0000000E+04;  0.0000000E+00;  0.0000000E+00;  0.0000000E+00;  0.0000000E+00;
  2.1800001E+00;  9.9999998E-03;  3.4000000E-01;958;  0.0000000E+00;  0.0000000E+00;  0.0000000E+00;  1.0000000E+03;  4.0000001E-01;  0.0000000E+00;0;  0.0000000E+00;  0.0000000E+00;  0.0000000E+00;0;  0.0000000E+00;  1.0000000E+04;  0.0000000E+00;  0.0000000E+00;  1.0000000E+04;  0.0000000E+00;  1.0000000E+04;  0.0000000E+00;  0.0000000E+00;  0.0000000E+00;  0.0000000E+00;
  2.1800001E+00;  9.9999998E-03;  3.6000001E-01;959;  0.0000000E+00;  0.0000000E+00;  0.0000000E+00;  1.0000000E+03;  4.0000001E-01;  0.0000000E+00;0;  0.0000000E+00;  0.0000000E+00;  0.0000000E+00;0;  0.0000000E+00;  1.0000000E+04;  0.0000000E+00;  0.0000000E+00;  1.0000000E+04;  0.0000000E+00;  1.0000000E+04;  0.0000000E+00;  0.0000000E+00;  0.0000000E+00;  0.0000000E+00;
  2.1800001E+00;  9.9999998E-03;  3.8000000E-01;960;  0.0000000E+00;  0.0000000E+00;  0.0000000E+00;  1.0000000E+03;  4.0000001E-01;  0.0000000E+00;0;  0.0000000E+00;  0.0000000E+00;  0.0000000E+00;0;  0.0000000E+00;  1.0000000E+04;  0.0000000E+00;  0.0000000E+00;  1.0000000E+04;  0.0000000E+00;  1.0000000E+04;  0.0000000E+00;  0.0000000E+00;  0.0000000E+00;  0.0000000E+00;
  2.1800001E+00;  9.9999998E-03;  4.0000001E-01;961;  0.0000000E+00;  0.0000000E+00;  0.0000000E+00;  1.0000000E+03;  4.0000001E-01;  0.0000000E+00;0;  0.0000000E+00;  0.0000000E+00;  0.0000000E+00;0;  0.0000000E+00;  1.0000000E+04;  0.0000000E+00;  0.0000000E+00;  1.0000000E+04;  0.0000000E+00;  1.0000000E+04;  0.0000000E+00;  0.0000000E+00;  0.0000000E+00;  0.0000000E+00;
  2.2000000E+00;  9.9999998E-03; -7.9999998E-02;962;  0.0000000E+00;  0.0000000E+00;  0.0000000E+00;  1.0000000E+03;  4.0000001E-01;  0.0000000E+00;0;  0.0000000E+00;  0.0000000E+00;  0.0000000E+00;0;  0.0000000E+00;  1.0000000E+04;  0.0000000E+00;  0.0000000E+00;  1.0000000E+04;  0.0000000E+00;  1.0000000E+04;  0.0000000E+00;  0.0000000E+00;  0.0000000E+00;  0.0000000E+00;
  2.2000000E+00;  9.9999998E-03; -5.9999999E-02;963;  0.0000000E+00;  0.0000000E+00;  0.0000000E+00;  1.0000000E+03;  4.0000001E-01;  0.0000000E+00;0;  0.0000000E+00;  0.0000000E+00;  0.0000000E+00;0;  0.0000000E+00;  1.0000000E+04;  0.0000000E+00;  0.0000000E+00;  1.0000000E+04;  0.0000000E+00;  1.0000000E+04;  0.0000000E+00;  0.0000000E+00;  0.0000000E+00;  0.0000000E+00;
  2.2000000E+00;  9.9999998E-03; -3.9999999E-02;964;  0.0000000E+00;  0.0000000E+00;  0.0000000E+00;  1.0000000E+03;  4.0000001E-01;  0.0000000E+00;0;  0.0000000E+00;  0.0000000E+00;  0.0000000E+00;0;  0.0000000E+00;  1.0000000E+04;  0.0000000E+00;  0.0000000E+00;  1.0000000E+04;  0.0000000E+00;  1.0000000E+04;  0.0000000E+00;  0.0000000E+00;  0.0000000E+00;  0.0000000E+00;
  2.2000000E+00;  9.9999998E-03; -2.0000000E-02;965;  0.0000000E+00;  0.0000000E+00;  0.0000000E+00;  1.0000000E+03;  4.0000001E-01;  0.0000000E+00;0;  0.0000000E+00;  0.0000000E+00;  0.0000000E+00;0;  0.0000000E+00;  1.0000000E+04;  0.0000000E+00;  0.0000000E+00;  1.0000000E+04;  0.0000000E+00;  1.0000000E+04;  0.0000000E+00;  0.0000000E+00;  0.0000000E+00;  0.0000000E+00;
  2.2000000E+00;  9.9999998E-03;  0.0000000E+00;966;  0.0000000E+00;  0.0000000E+00;  0.0000000E+00;  1.0000000E+03;  4.0000001E-01;  0.0000000E+00;0;  0.0000000E+00;  0.0000000E+00;  0.0000000E+00;0;  0.0000000E+00;  1.0000000E+04;  0.0000000E+00;  0.0000000E+00;  1.0000000E+04;  0.0000000E+00;  1.0000000E+04;  0.0000000E+00;  0.0000000E+00;  0.0000000E+00;  0.0000000E+00;
  2.2000000E+00;  9.9999998E-03;  2.0000000E-02;967;  0.0000000E+00;  0.0000000E+00;  0.0000000E+00;  1.0000000E+03;  4.0000001E-01;  0.0000000E+00;0;  0.0000000E+00;  0.0000000E+00;  0.0000000E+00;0;  0.0000000E+00;  1.0000000E+04;  0.0000000E+00;  0.0000000E+00;  1.0000000E+04;  0.0000000E+00;  1.0000000E+04;  0.0000000E+00;  0.0000000E+00;  0.0000000E+00;  0.0000000E+00;
  2.2000000E+00;  9.9999998E-03;  3.9999999E-02;968;  0.0000000E+00;  0.0000000E+00;  0.0000000E+00;  1.0000000E+03;  4.0000001E-01;  0.0000000E+00;0;  0.0000000E+00;  0.0000000E+00;  0.0000000E+00;0;  0.0000000E+00;  1.0000000E+04;  0.0000000E+00;  0.0000000E+00;  1.0000000E+04;  0.0000000E+00;  1.0000000E+04;  0.0000000E+00;  0.0000000E+00;  0.0000000E+00;  0.0000000E+00;
  2.2000000E+00;  9.9999998E-03;  5.9999999E-02;969;  0.0000000E+00;  0.0000000E+00;  0.0000000E+00;  1.0000000E+03;  4.0000001E-01;  0.0000000E+00;0;  0.0000000E+00;  0.0000000E+00;  0.0000000E+00;0;  0.0000000E+00;  1.0000000E+04;  0.0000000E+00;  0.0000000E+00;  1.0000000E+04;  0.0000000E+00;  1.0000000E+04;  0.0000000E+00;  0.0000000E+00;  0.0000000E+00;  0.0000000E+00;
  2.2000000E+00;  9.9999998E-03;  7.9999998E-02;970;  0.0000000E+00;  0.0000000E+00;  0.0000000E+00;  1.0000000E+03;  4.0000001E-01;  0.0000000E+00;0;  0.0000000E+00;  0.0000000E+00;  0.0000000E+00;0;  0.0000000E+00;  1.0000000E+04;  0.0000000E+00;  0.0000000E+00;  1.0000000E+04;  0.0000000E+00;  1.0000000E+04;  0.0000000E+00;  0.0000000E+00;  0.0000000E+00;  0.0000000E+00;
  2.2000000E+00;  9.9999998E-03;  1.0000000E-01;971;  0.0000000E+00;  0.0000000E+00;  0.0000000E+00;  1.0000000E+03;  4.0000001E-01;  0.0000000E+00;0;  0.0000000E+00;  0.0000000E+00;  0.0000000E+00;0;  0.0000000E+00;  1.0000000E+04;  0.0000000E+00;  0.0000000E+00;  1.0000000E+04;  0.0000000E+00;  1.0000000E+04;  0.0000000E+00;  0.0000000E+00;  0.0000000E+00;  0.0000000E+00;
  2.2000000E+00;  9.9999998E-03;  1.2000000E-01;972;  0.0000000E+00;  0.0000000E+00;  0.0000000E+00;  1.0000000E+03;  4.0000001E-01;  0.0000000E+00;0;  0.0000000E+00;  0.0000000E+00;  0.0000000E+00;0;  0.0000000E+00;  1.0000000E+04;  0.0000000E+00;  0.0000000E+00;  1.0000000E+04;  0.0000000E+00;  1.0000000E+04;  0.0000000E+00;  0.0000000E+00;  0.0000000E+00;  0.0000000E+00;
  2.2000000E+00;  9.9999998E-03;  1.4000000E-01;973;  0.0000000E+00;  0.0000000E+00;  0.0000000E+00;  1.0000000E+03;  4.0000001E-01;  0.0000000E+00;0;  0.0000000E+00;  0.0000000E+00;  0.0000000E+00;0;  0.0000000E+00;  1.0000000E+04;  0.0000000E+00;  0.0000000E+00;  1.0000000E+04;  0.0000000E+00;  1.0000000E+04;  0.0000000E+00;  0.0000000E+00;  0.0000000E+00;  0.0000000E+00;
  2.2000000E+00;  9.9999998E-03;  1.6000000E-01;974;  0.0000000E+00;  0.0000000E+00;  0.0000000E+00;  1.0000000E+03;  4.0000001E-01;  0.0000000E+00;0;  0.0000000E+00;  0.0000000E+00;  0.0000000E+00;0;  0.0000000E+00;  1.0000000E+04;  0.0000000E+00;  0.0000000E+00;  1.0000000E+04;  0.0000000E+00;  1.0000000E+04;  0.0000000E+00;  0.0000000E+00;  0.0000000E+00;  0.0000000E+00;
  2.2000000E+00;  9.9999998E-03;  1.8000001E-01;975;  0.0000000E+00;  0.0000000E+00;  0.0000000E+00;  1.0000000E+03;  4.0000001E-01;  0.0000000E+00;0;  0.0000000E+00;  0.0000000E+00;  0.0000000E+00;0;  0.0000000E+00;  1.0000000E+04;  0.0000000E+00;  0.0000000E+00;  1.0000000E+04;  0.0000000E+00;  1.0000000E+04;  0.0000000E+00;  0.0000000E+00;  0.0000000E+00;  0.0000000E+00;
  2.2000000E+00;  9.9999998E-03;  2.0000000E-01;976;  0.0000000E+00;  0.0000000E+00;  0.0000000E+00;  1.0000000E+03;  4.0000001E-01;  0.0000000E+00;0;  0.0000000E+00;  0.0000000E+00;  0.0000000E+00;0;  0.0000000E+00;  1.0000000E+04;  0.0000000E+00;  0.0000000E+00;  1.0000000E+04;  0.0000000E+00;  1.0000000E+04;  0.0000000E+00;  0.0000000E+00;  0.0000000E+00;  0.0000000E+00;
  2.2000000E+00;  9.9999998E-03;  2.2000000E-01;977;  0.0000000E+00;  0.0000000E+00;  0.0000000E+00;  1.0000000E+03;  4.0000001E-01;  0.0000000E+00;0;  0.0000000E+00;  0.0000000E+00;  0.0000000E+00;0;  0.0000000E+00;  1.0000000E+04;  0.0000000E+00;  0.0000000E+00;  1.0000000E+04;  0.0000000E+00;  1.0000000E+04;  0.0000000E+00;  0.0000000E+00;  0.0000000E+00;  0.0000000E+00;
  2.2000000E+00;  9.9999998E-03;  2.3999999E-01;978;  0.0000000E+00;  0.0000000E+00;  0.0000000E+00;  1.0000000E+03;  4.0000001E-01;  0.0000000E+00;0;  0.0000000E+00;  0.0000000E+00;  0.0000000E+00;0;  0.0000000E+00;  1.0000000E+04;  0.0000000E+00;  0.0000000E+00;  1.0000000E+04;  0.0000000E+00;  1.0000000E+04;  0.0000000E+00;  0.0000000E+00;  0.0000000E+00;  0.0000000E+00;
  2.2000000E+00;  9.9999998E-03;  2.5999999E-01;979;  0.0000000E+00;  0.0000000E+00;  0.0000000E+00;  1.0000000E+03;  4.0000001E-01;  0.0000000E+00;0;  0.0000000E+00;  0.0000000E+00;  0.0000000E+00;0;  0.0000000E+00;  1.0000000E+04;  0.0000000E+00;  0.0000000E+00;  1.0000000E+04;  0.0000000E+00;  1.0000000E+04;  0.0000000E+00;  0.0000000E+00;  0.0000000E+00;  0.0000000E+00;
  2.2000000E+00;  9.9999998E-03;  2.8000000E-01;980;  0.0000000E+00;  0.0000000E+00;  0.0000000E+00;  1.0000000E+03;  4.0000001E-01;  0.0000000E+00;0;  0.0000000E+00;  0.0000000E+00;  0.0000000E+00;0;  0.0000000E+00;  1.0000000E+04;  0.0000000E+00;  0.0000000E+00;  1.0000000E+04;  0.0000000E+00;  1.0000000E+04;  0.0000000E+00;  0.0000000E+00;  0.0000000E+00;  0.0000000E+00;
  2.2000000E+00;  9.9999998E-03;  3.0000001E-01;981;  0.0000000E+00;  0.0000000E+00;  0.0000000E+00;  1.0000000E+03;  4.0000001E-01;  0.0000000E+00;0;  0.0000000E+00;  0.0000000E+00;  0.0000000E+00;0;  0.0000000E+00;  1.0000000E+04;  0.0000000E+00;  0.0000000E+00;  1.0000000E+04;  0.0000000E+00;  1.0000000E+04;  0.0000000E+00;  0.0000000E+00;  0.0000000E+00;  0.0000000E+00;
  2.2000000E+00;  9.9999998E-03;  3.1999999E-01;982;  0.0000000E+00;  0.0000000E+00;  0.0000000E+00;  1.0000000E+03;  4.0000001E-01;  0.0000000E+00;0;  0.0000000E+00;  0.0000000E+00;  0.0000000E+00;0;  0.0000000E+00;  1.0000000E+04;  0.0000000E+00;  0.0000000E+00;  1.0000000E+04;  0.0000000E+00;  1.0000000E+04;  0.0000000E+00;  0.0000000E+00;  0.0000000E+00;  0.0000000E+00;
  2.2000000E+00;  9.9999998E-03;  3.4000000E-01;983;  0.0000000E+00;  0.0000000E+00;  0.0000000E+00;  1.0000000E+03;  4.0000001E-01;  0.0000000E+00;0;  0.0000000E+00;  0.0000000E+00;  0.0000000E+00;0;  0.0000000E+00;  1.0000000E+04;  0.0000000E+00;  0.0000000E+00;  1.0000000E+04;  0.0000000E+00;  1.0000000E+04;  0.0000000E+00;  0.0000000E+00;  0.0000000E+00;  0.0000000E+00;
  2.2000000E+00;  9.9999998E-03;  3.6000001E-01;984;  0.0000000E+00;  0.0000000E+00;  0.0000000E+00;  1.0000000E+03;  4.0000001E-01;  0.0000000E+00;0;  0.0000000E+00;  0.0000000E+00;  0.0000000E+00;0;  0.0000000E+00;  1.0000000E+04;  0.0000000E+00;  0.0000000E+00;  1.0000000E+04;  0.0000000E+00;  1.0000000E+04;  0.0000000E+00;  0.0000000E+00;  0.0000000E+00;  0.0000000E+00;
  2.2000000E+00;  9.9999998E-03;  3.8000000E-01;985;  0.0000000E+00;  0.0000000E+00;  0.0000000E+00;  1.0000000E+03;  4.0000001E-01;  0.0000000E+00;0;  0.0000000E+00;  0.0000000E+00;  0.0000000E+00;0;  0.0000000E+00;  1.0000000E+04;  0.0000000E+00;  0.0000000E+00;  1.0000000E+04;  0.0000000E+00;  1.0000000E+04;  0.0000000E+00;  0.0000000E+00;  0.0000000E+00;  0.0000000E+00;
  2.2200000E+00;  9.9999998E-03;  2.0000000E-02;986;  0.0000000E+00;  0.0000000E+00;  0.0000000E+00;  1.0000000E+03;  4.0000001E-01;  0.0000000E+00;0;  0.0000000E+00;  0.0000000E+00;  0.0000000E+00;0;  0.0000000E+00;  1.0000000E+04;  0.0000000E+00;  0.0000000E+00;  1.0000000E+04;  0.0000000E+00;  1.0000000E+04;  0.0000000E+00;  0.0000000E+00;  0.0000000E+00;  0.0000000E+00;
  2.2200000E+00;  9.9999998E-03;  3.9999999E-02;987;  0.0000000E+00;  0.0000000E+00;  0.0000000E+00;  1.0000000E+03;  4.0000001E-01;  0.0000000E+00;0;  0.0000000E+00;  0.0000000E+00;  0.0000000E+00;0;  0.0000000E+00;  1.0000000E+04;  0.0000000E+00;  0.0000000E+00;  1.0000000E+04;  0.0000000E+00;  1.0000000E+04;  0.0000000E+00;  0.0000000E+00;  0.0000000E+00;  0.0000000E+00;
  2.2200000E+00;  9.9999998E-03;  5.9999999E-02;988;  0.0000000E+00;  0.0000000E+00;  0.0000000E+00;  1.0000000E+03;  4.0000001E-01;  0.0000000E+00;0;  0.0000000E+00;  0.0000000E+00;  0.0000000E+00;0;  0.0000000E+00;  1.0000000E+04;  0.0000000E+00;  0.0000000E+00;  1.0000000E+04;  0.0000000E+00;  1.0000000E+04;  0.0000000E+00;  0.0000000E+00;  0.0000000E+00;  0.0000000E+00;
  2.2200000E+00;  9.9999998E-03;  7.9999998E-02;989;  0.0000000E+00;  0.0000000E+00;  0.0000000E+00;  1.0000000E+03;  4.0000001E-01;  0.0000000E+00;0;  0.0000000E+00;  0.0000000E+00;  0.0000000E+00;0;  0.0000000E+00;  1.0000000E+04;  0.0000000E+00;  0.0000000E+00;  1.0000000E+04;  0.0000000E+00;  1.0000000E+04;  0.0000000E+00;  0.0000000E+00;  0.0000000E+00;  0.0000000E+00;
  2.2200000E+00;  9.9999998E-03;  1.0000000E-01;990;  0.0000000E+00;  0.0000000E+00;  0.0000000E+00;  1.0000000E+03;  4.0000001E-01;  0.0000000E+00;0;  0.0000000E+00;  0.0000000E+00;  0.0000000E+00;0;  0.0000000E+00;  1.0000000E+04;  0.0000000E+00;  0.0000000E+00;  1.0000000E+04;  0.0000000E+00;  1.0000000E+04;  0.0000000E+00;  0.0000000E+00;  0.0000000E+00;  0.0000000E+00;
  2.2200000E+00;  9.9999998E-03;  1.2000000E-01;991;  0.0000000E+00;  0.0000000E+00;  0.0000000E+00;  1.0000000E+03;  4.0000001E-01;  0.0000000E+00;0;  0.0000000E+00;  0.0000000E+00;  0.0000000E+00;0;  0.0000000E+00;  1.0000000E+04;  0.0000000E+00;  0.0000000E+00;  1.0000000E+04;  0.0000000E+00;  1.0000000E+04;  0.0000000E+00;  0.0000000E+00;  0.0000000E+00;  0.0000000E+00;
  2.2200000E+00;  9.9999998E-03;  1.4000000E-01;992;  0.0000000E+00;  0.0000000E+00;  0.0000000E+00;  1.0000000E+03;  4.0000001E-01;  0.0000000E+00;0;  0.0000000E+00;  0.0000000E+00;  0.0000000E+00;0;  0.0000000E+00;  1.0000000E+04;  0.0000000E+00;  0.0000000E+00;  1.0000000E+04;  0.0000000E+00;  1.0000000E+04;  0.0000000E+00;  0.0000000E+00;  0.0000000E+00;  0.0000000E+00;
  2.2200000E+00;  9.9999998E-03;  1.6000000E-01;993;  0.0000000E+00;  0.0000000E+00;  0.0000000E+00;  1.0000000E+03;  4.0000001E-01;  0.0000000E+00;0;  0.0000000E+00;  0.0000000E+00;  0.0000000E+00;0;  0.0000000E+00;  1.0000000E+04;  0.0000000E+00;  0.0000000E+00;  1.0000000E+04;  0.0000000E+00;  1.0000000E+04;  0.0000000E+00;  0.0000000E+00;  0.0000000E+00;  0.0000000E+00;
  2.2200000E+00;  9.9999998E-03;  1.8000001E-01;994;  0.0000000E+00;  0.0000000E+00;  0.0000000E+00;  1.0000000E+03;  4.0000001E-01;  0.0000000E+00;0;  0.0000000E+00;  0.0000000E+00;  0.0000000E+00;0;  0.0000000E+00;  1.0000000E+04;  0.0000000E+00;  0.0000000E+00;  1.0000000E+04;  0.0000000E+00;  1.0000000E+04;  0.0000000E+00;  0.0000000E+00;  0.0000000E+00;  0.0000000E+00;
  2.2200000E+00;  9.9999998E-03;  2.0000000E-01;995;  0.0000000E+00;  0.0000000E+00;  0.0000000E+00;  1.0000000E+03;  4.0000001E-01;  0.0000000E+00;0;  0.0000000E+00;  0.0000000E+00;  0.0000000E+00;0;  0.0000000E+00;  1.0000000E+04;  0.0000000E+00;  0.0000000E+00;  1.0000000E+04;  0.0000000E+00;  1.0000000E+04;  0.0000000E+00;  0.0000000E+00;  0.0000000E+00;  0.0000000E+00;
  2.2200000E+00;  9.9999998E-03;  2.2000000E-01;996;  0.0000000E+00;  0.0000000E+00;  0.0000000E+00;  1.0000000E+03;  4.0000001E-01;  0.0000000E+00;0;  0.0000000E+00;  0.0000000E+00;  0.0000000E+00;0;  0.0000000E+00;  1.0000000E+04;  0.0000000E+00;  0.0000000E+00;  1.0000000E+04;  0.0000000E+00;  1.0000000E+04;  0.0000000E+00;  0.0000000E+00;  0.0000000E+00;  0.0000000E+00;
  2.2200000E+00;  9.9999998E-03;  2.3999999E-01;997;  0.0000000E+00;  0.0000000E+00;  0.0000000E+00;  1.0000000E+03;  4.0000001E-01;  0.0000000E+00;0;  0.0000000E+00;  0.0000000E+00;  0.0000000E+00;0;  0.0000000E+00;  1.0000000E+04;  0.0000000E+00;  0.0000000E+00;  1.0000000E+04;  0.0000000E+00;  1.0000000E+04;  0.0000000E+00;  0.0000000E+00;  0.0000000E+00;  0.0000000E+00;
  2.2200000E+00;  9.9999998E-03;  2.5999999E-01;998;  0.0000000E+00;  0.0000000E+00;  0.0000000E+00;  1.0000000E+03;  4.0000001E-01;  0.0000000E+00;0;  0.0000000E+00;  0.0000000E+00;  0.0000000E+00;0;  0.0000000E+00;  1.0000000E+04;  0.0000000E+00;  0.0000000E+00;  1.0000000E+04;  0.0000000E+00;  1.0000000E+04;  0.0000000E+00;  0.0000000E+00;  0.0000000E+00;  0.0000000E+00;
  2.2200000E+00;  9.9999998E-03;  2.8000000E-01;999;  0.0000000E+00;  0.0000000E+00;  0.0000000E+00;  1.0000000E+03;  4.0000001E-01;  0.0000000E+00;0;  0.0000000E+00;  0.0000000E+00;  0.0000000E+00;0;  0.0000000E+00;  1.0000000E+04;  0.0000000E+00;  0.0000000E+00;  1.0000000E+04;  0.0000000E+00;  1.0000000E+04;  0.0000000E+00;  0.0000000E+00;  0.0000000E+00;  0.0000000E+00;
  2.2200000E+00;  9.9999998E-03;  3.0000001E-01;1000;  0.0000000E+00;  0.0000000E+00;  0.0000000E+00;  1.0000000E+03;  4.0000001E-01;  0.0000000E+00;0;  0.0000000E+00;  0.0000000E+00;  0.0000000E+00;0;  0.0000000E+00;  1.0000000E+04;  0.0000000E+00;  0.0000000E+00;  1.0000000E+04;  0.0000000E+00;  1.0000000E+04;  0.0000000E+00;  0.0000000E+00;  0.0000000E+00;  0.0000000E+00;
  2.2200000E+00;  9.9999998E-03;  3.1999999E-01;1001;  0.0000000E+00;  0.0000000E+00;  0.0000000E+00;  1.0000000E+03;  4.0000001E-01;  0.0000000E+00;0;  0.0000000E+00;  0.0000000E+00;  0.0000000E+00;0;  0.0000000E+00;  1.0000000E+04;  0.0000000E+00;  0.0000000E+00;  1.0000000E+04;  0.0000000E+00;  1.0000000E+04;  0.0000000E+00;  0.0000000E+00;  0.0000000E+00;  0.0000000E+00;
  2.2200000E+00;  9.9999998E-03;  3.4000000E-01;1002;  0.0000000E+00;  0.0000000E+00;  0.0000000E+00;  1.0000000E+03;  4.0000001E-01;  0.0000000E+00;0;  0.0000000E+00;  0.0000000E+00;  0.0000000E+00;0;  0.0000000E+00;  1.0000000E+04;  0.0000000E+00;  0.0000000E+00;  1.0000000E+04;  0.0000000E+00;  1.0000000E+04;  0.0000000E+00;  0.0000000E+00;  0.0000000E+00;  0.0000000E+00;
  2.2200000E+00;  9.9999998E-03;  3.6000001E-01;1003;  0.0000000E+00;  0.0000000E+00;  0.0000000E+00;  1.0000000E+03;  4.0000001E-01;  0.0000000E+00;0;  0.0000000E+00;  0.0000000E+00;  0.0000000E+00;0;  0.0000000E+00;  1.0000000E+04;  0.0000000E+00;  0.0000000E+00;  1.0000000E+04;  0.0000000E+00;  1.0000000E+04;  0.0000000E+00;  0.0000000E+00;  0.0000000E+00;  0.0000000E+00;
  2.2200000E+00;  9.9999998E-03;  3.8000000E-01;1004;  0.0000000E+00;  0.0000000E+00;  0.0000000E+00;  1.0000000E+03;  4.0000001E-01;  0.0000000E+00;0;  0.0000000E+00;  0.0000000E+00;  0.0000000E+00;0;  0.0000000E+00;  1.0000000E+04;  0.0000000E+00;  0.0000000E+00;  1.0000000E+04;  0.0000000E+00;  1.0000000E+04;  0.0000000E+00;  0.0000000E+00;  0.0000000E+00;  0.0000000E+00;
  2.2400000E+00;  9.9999998E-03;  1.2000000E-01;1005;  0.0000000E+00;  0.0000000E+00;  0.0000000E+00;  1.0000000E+03;  4.0000001E-01;  0.0000000E+00;0;  0.0000000E+00;  0.0000000E+00;  0.0000000E+00;0;  0.0000000E+00;  1.0000000E+04;  0.0000000E+00;  0.0000000E+00;  1.0000000E+04;  0.0000000E+00;  1.0000000E+04;  0.0000000E+00;  0.0000000E+00;  0.0000000E+00;  0.0000000E+00;
  2.2400000E+00;  9.9999998E-03;  1.4000000E-01;1006;  0.0000000E+00;  0.0000000E+00;  0.0000000E+00;  1.0000000E+03;  4.0000001E-01;  0.0000000E+00;0;  0.0000000E+00;  0.0000000E+00;  0.0000000E+00;0;  0.0000000E+00;  1.0000000E+04;  0.0000000E+00;  0.0000000E+00;  1.0000000E+04;  0.0000000E+00;  1.0000000E+04;  0.0000000E+00;  0.0000000E+00;  0.0000000E+00;  0.0000000E+00;
  2.2400000E+00;  9.9999998E-03;  1.6000000E-01;1007;  0.0000000E+00;  0.0000000E+00;  0.0000000E+00;  1.0000000E+03;  4.0000001E-01;  0.0000000E+00;0;  0.0000000E+00;  0.0000000E+00;  0.0000000E+00;0;  0.0000000E+00;  1.0000000E+04;  0.0000000E+00;  0.0000000E+00;  1.0000000E+04;  0.0000000E+00;  1.0000000E+04;  0.0000000E+00;  0.0000000E+00;  0.0000000E+00;  0.0000000E+00;
  2.2400000E+00;  9.9999998E-03;  1.8000001E-01;1008;  0.0000000E+00;  0.0000000E+00;  0.0000000E+00;  1.0000000E+03;  4.0000001E-01;  0.0000000E+00;0;  0.0000000E+00;  0.0000000E+00;  0.0000000E+00;0;  0.0000000E+00;  1.0000000E+04;  0.0000000E+00;  0.0000000E+00;  1.0000000E+04;  0.0000000E+00;  1.0000000E+04;  0.0000000E+00;  0.0000000E+00;  0.0000000E+00;  0.0000000E+00;
  2.2400000E+00;  9.9999998E-03;  2.0000000E-01;1009;  0.0000000E+00;  0.0000000E+00;  0.0000000E+00;  1.0000000E+03;  4.0000001E-01;  0.0000000E+00;0;  0.0000000E+00;  0.0000000E+00;  0.0000000E+00;0;  0.0000000E+00;  1.0000000E+04;  0.0000000E+00;  0.0000000E+00;  1.0000000E+04;  0.0000000E+00;  1.0000000E+04;  0.0000000E+00;  0.0000000E+00;  0.0000000E+00;  0.0000000E+00;
  2.2400000E+00;  9.9999998E-03;  2.2000000E-01;1010;  0.0000000E+00;  0.0000000E+00;  0.0000000E+00;  1.0000000E+03;  4.0000001E-01;  0.0000000E+00;0;  0.0000000E+00;  0.0000000E+00;  0.0000000E+00;0;  0.0000000E+00;  1.0000000E+04;  0.0000000E+00;  0.0000000E+00;  1.0000000E+04;  0.0000000E+00;  1.0000000E+04;  0.0000000E+00;  0.0000000E+00;  0.0000000E+00;  0.0000000E+00;
  2.2400000E+00;  9.9999998E-03;  2.3999999E-01;1011;  0.0000000E+00;  0.0000000E+00;  0.0000000E+00;  1.0000000E+03;  4.0000001E-01;  0.0000000E+00;0;  0.0000000E+00;  0.0000000E+00;  0.0000000E+00;0;  0.0000000E+00;  1.0000000E+04;  0.0000000E+00;  0.0000000E+00;  1.0000000E+04;  0.0000000E+00;  1.0000000E+04;  0.0000000E+00;  0.0000000E+00;  0.0000000E+00;  0.0000000E+00;
  2.2400000E+00;  9.9999998E-03;  2.5999999E-01;1012;  0.0000000E+00;  0.0000000E+00;  0.0000000E+00;  1.0000000E+03;  4.0000001E-01;  0.0000000E+00;0;  0.0000000E+00;  0.0000000E+00;  0.0000000E+00;0;  0.0000000E+00;  1.0000000E+04;  0.0000000E+00;  0.0000000E+00;  1.0000000E+04;  0.0000000E+00;  1.0000000E+04;  0.0000000E+00;  0.0000000E+00;  0.0000000E+00;  0.0000000E+00;
  2.2400000E+00;  9.9999998E-03;  2.8000000E-01;1013;  0.0000000E+00;  0.0000000E+00;  0.0000000E+00;  1.0000000E+03;  4.0000001E-01;  0.0000000E+00;0;  0.0000000E+00;  0.0000000E+00;  0.0000000E+00;0;  0.0000000E+00;  1.0000000E+04;  0.0000000E+00;  0.0000000E+00;  1.0000000E+04;  0.0000000E+00;  1.0000000E+04;  0.0000000E+00;  0.0000000E+00;  0.0000000E+00;  0.0000000E+00;
  2.2400000E+00;  9.9999998E-03;  3.0000001E-01;1014;  0.0000000E+00;  0.0000000E+00;  0.0000000E+00;  1.0000000E+03;  4.0000001E-01;  0.0000000E+00;0;  0.0000000E+00;  0.0000000E+00;  0.0000000E+00;0;  0.0000000E+00;  1.0000000E+04;  0.0000000E+00;  0.0000000E+00;  1.0000000E+04;  0.0000000E+00;  1.0000000E+04;  0.0000000E+00;  0.0000000E+00;  0.0000000E+00;  0.0000000E+00;
  2.2400000E+00;  9.9999998E-03;  3.1999999E-01;1015;  0.0000000E+00;  0.0000000E+00;  0.0000000E+00;  1.0000000E+03;  4.0000001E-01;  0.0000000E+00;0;  0.0000000E+00;  0.0000000E+00;  0.0000000E+00;0;  0.0000000E+00;  1.0000000E+04;  0.0000000E+00;  0.0000000E+00;  1.0000000E+04;  0.0000000E+00;  1.0000000E+04;  0.0000000E+00;  0.0000000E+00;  0.0000000E+00;  0.0000000E+00;
  2.2400000E+00;  9.9999998E-03;  3.4000000E-01;1016;  0.0000000E+00;  0.0000000E+00;  0.0000000E+00;  1.0000000E+03;  4.0000001E-01;  0.0000000E+00;0;  0.0000000E+00;  0.0000000E+00;  0.0000000E+00;0;  0.0000000E+00;  1.0000000E+04;  0.0000000E+00;  0.0000000E+00;  1.0000000E+04;  0.0000000E+00;  1.0000000E+04;  0.0000000E+00;  0.0000000E+00;  0.0000000E+00;  0.0000000E+00;
  2.2400000E+00;  9.9999998E-03;  3.6000001E-01;1017;  0.0000000E+00;  0.0000000E+00;  0.0000000E+00;  1.0000000E+03;  4.0000001E-01;  0.0000000E+00;0;  0.0000000E+00;  0.0000000E+00;  0.0000000E+00;0;  0.0000000E+00;  1.0000000E+04;  0.0000000E+00;  0.0000000E+00;  1.0000000E+04;  0.0000000E+00;  1.0000000E+04;  0.0000000E+00;  0.0000000E+00;  0.0000000E+00;  0.0000000E+00;
  2.2400000E+00;  9.9999998E-03;  3.8000000E-01;1018;  0.0000000E+00;  0.0000000E+00;  0.0000000E+00;  1.0000000E+03;  4.0000001E-01;  0.0000000E+00;0;  0.0000000E+00;  0.0000000E+00;  0.0000000E+00;0;  0.0000000E+00;  1.0000000E+04;  0.0000000E+00;  0.0000000E+00;  1.0000000E+04;  0.0000000E+00;  1.0000000E+04;  0.0000000E+00;  0.0000000E+00;  0.0000000E+00;  0.0000000E+00;
  2.2600000E+00;  9.9999998E-03;  2.2000000E-01;1019;  0.0000000E+00;  0.0000000E+00;  0.0000000E+00;  1.0000000E+03;  4.0000001E-01;  0.0000000E+00;0;  0.0000000E+00;  0.0000000E+00;  0.0000000E+00;0;  0.0000000E+00;  1.0000000E+04;  0.0000000E+00;  0.0000000E+00;  1.0000000E+04;  0.0000000E+00;  1.0000000E+04;  0.0000000E+00;  0.0000000E+00;  0.0000000E+00;  0.0000000E+00;
  2.2600000E+00;  9.9999998E-03;  2.3999999E-01;1020;  0.0000000E+00;  0.0000000E+00;  0.0000000E+00;  1.0000000E+03;  4.0000001E-01;  0.0000000E+00;0;  0.0000000E+00;  0.0000000E+00;  0.0000000E+00;0;  0.0000000E+00;  1.0000000E+04;  0.0000000E+00;  0.0000000E+00;  1.0000000E+04;  0.0000000E+00;  1.0000000E+04;  0.0000000E+00;  0.0000000E+00;  0.0000000E+00;  0.0000000E+00;
  2.2600000E+00;  9.9999998E-03;  2.5999999E-01;1021;  0.0000000E+00;  0.0000000E+00;  0.0000000E+00;  1.0000000E+03;  4.0000001E-01;  0.0000000E+00;0;  0.0000000E+00;  0.0000000E+00;  0.0000000E+00;0;  0.0000000E+00;  1.0000000E+04;  0.0000000E+00;  0.0000000E+00;  1.0000000E+04;  0.0000000E+00;  1.0000000E+04;  0.0000000E+00;  0.0000000E+00;  0.0000000E+00;  0.0000000E+00;
  2.2600000E+00;  9.9999998E-03;  2.8000000E-01;1022;  0.0000000E+00;  0.0000000E+00;  0.0000000E+00;  1.0000000E+03;  4.0000001E-01;  0.0000000E+00;0;  0.0000000E+00;  0.0000000E+00;  0.0000000E+00;0;  0.0000000E+00;  1.0000000E+04;  0.0000000E+00;  0.0000000E+00;  1.0000000E+04;  0.0000000E+00;  1.0000000E+04;  0.0000000E+00;  0.0000000E+00;  0.0000000E+00;  0.0000000E+00;
  2.2600000E+00;  9.9999998E-03;  3.0000001E-01;1023;  0.0000000E+00;  0.0000000E+00;  0.0000000E+00;  1.0000000E+03;  4.0000001E-01;  0.0000000E+00;0;  0.0000000E+00;  0.0000000E+00;  0.0000000E+00;0;  0.0000000E+00;  1.0000000E+04;  0.0000000E+00;  0.0000000E+00;  1.0000000E+04;  0.0000000E+00;  1.0000000E+04;  0.0000000E+00;  0.0000000E+00;  0.0000000E+00;  0.0000000E+00;
  2.2600000E+00;  9.9999998E-03;  3.1999999E-01;1024;  0.0000000E+00;  0.0000000E+00;  0.0000000E+00;  1.0000000E+03;  4.0000001E-01;  0.0000000E+00;0;  0.0000000E+00;  0.0000000E+00;  0.0000000E+00;0;  0.0000000E+00;  1.0000000E+04;  0.0000000E+00;  0.0000000E+00;  1.0000000E+04;  0.0000000E+00;  1.0000000E+04;  0.0000000E+00;  0.0000000E+00;  0.0000000E+00;  0.0000000E+00;
  2.2600000E+00;  9.9999998E-03;  3.4000000E-01;1025;  0.0000000E+00;  0.0000000E+00;  0.0000000E+00;  1.0000000E+03;  4.0000001E-01;  0.0000000E+00;0;  0.0000000E+00;  0.0000000E+00;  0.0000000E+00;0;  0.0000000E+00;  1.0000000E+04;  0.0000000E+00;  0.0000000E+00;  1.0000000E+04;  0.0000000E+00;  1.0000000E+04;  0.0000000E+00;  0.0000000E+00;  0.0000000E+00;  0.0000000E+00;
  2.2600000E+00;  9.9999998E-03;  3.6000001E-01;1026;  0.0000000E+00;  0.0000000E+00;  0.0000000E+00;  1.0000000E+03;  4.0000001E-01;  0.0000000E+00;0;  0.0000000E+00;  0.0000000E+00;  0.0000000E+00;0;  0.0000000E+00;  1.0000000E+04;  0.0000000E+00;  0.0000000E+00;  1.0000000E+04;  0.0000000E+00;  1.0000000E+04;  0.0000000E+00;  0.0000000E+00;  0.0000000E+00;  0.0000000E+00;
  2.2600000E+00;  9.9999998E-03;  3.8000000E-01;1027;  0.0000000E+00;  0.0000000E+00;  0.0000000E+00;  1.0000000E+03;  4.0000001E-01;  0.0000000E+00;0;  0.0000000E+00;  0.0000000E+00;  0.0000000E+00;0;  0.0000000E+00;  1.0000000E+04;  0.0000000E+00;  0.0000000E+00;  1.0000000E+04;  0.0000000E+00;  1.0000000E+04;  0.0000000E+00;  0.0000000E+00;  0.0000000E+00;  0.0000000E+00;
  2.2800000E+00;  9.9999998E-03;  3.1999999E-01;1028;  0.0000000E+00;  0.0000000E+00;  0.0000000E+00;  1.0000000E+03;  4.0000001E-01;  0.0000000E+00;0;  0.0000000E+00;  0.0000000E+00;  0.0000000E+00;0;  0.0000000E+00;  1.0000000E+04;  0.0000000E+00;  0.0000000E+00;  1.0000000E+04;  0.0000000E+00;  1.0000000E+04;  0.0000000E+00;  0.0000000E+00;  0.0000000E+00;  0.0000000E+00;
  2.2800000E+00;  9.9999998E-03;  3.4000000E-01;1029;  0.0000000E+00;  0.0000000E+00;  0.0000000E+00;  1.0000000E+03;  4.0000001E-01;  0.0000000E+00;0;  0.0000000E+00;  0.0000000E+00;  0.0000000E+00;0;  0.0000000E+00;  1.0000000E+04;  0.0000000E+00;  0.0000000E+00;  1.0000000E+04;  0.0000000E+00;  1.0000000E+04;  0.0000000E+00;  0.0000000E+00;  0.0000000E+00;  0.0000000E+00;
  2.2800000E+00;  9.9999998E-03;  3.6000001E-01;1030;  0.0000000E+00;  0.0000000E+00;  0.0000000E+00;  1.0000000E+03;  4.0000001E-01;  0.0000000E+00;0;  0.0000000E+00;  0.0000000E+00;  0.0000000E+00;0;  0.0000000E+00;  1.0000000E+04;  0.0000000E+00;  0.0000000E+00;  1.0000000E+04;  0.0000000E+00;  1.0000000E+04;  0.0000000E+00;  0.0000000E+00;  0.0000000E+00;  0.0000000E+00;
 -2.8110534E-07;  9.9999998E-03; -2.8000012E-01;1031; -3.2152739E-04;  0.0000000E+00; -1.2283049E-04;  1.0000066E+03;  4.0000001E-01;  5.4319444E+00;3; -3.4246713E-01;  0.0000000E+00; -1.3095063E-01;0; -6.5271258E-03;  1.0000122E+04;  0.0000000E+00; -6.2104681E-09;  1.0000000E+04;  0.0000000E+00;  1.0000010E+04; -6.0451054E-03;  0.0000000E+00; -4.8202052E-04;  3.8142529E+00;
 -3.4039050E-07;  9.9999998E-03; -2.6000011E-01;1032; -3.8994011E-04;  0.0000000E+00; -1.1822875E-04;  1.0000078E+03;  4.0000001E-01;  6.4195704E+00;3; -4.0435994E-01;  0.0000000E+00; -1.2231860E-01;0; -7.7759861E-03;  1.0000154E+04;  0.0000000E+00; -1.1718015E-09;  1.0000000E+04;  0.0000000E+00;  1.0000004E+04; -7.5727412E-03;  0.0000000E+00; -2.0324472E-04;  1.3276767E+00;
 -3.9040947E-07;  9.9999998E-03; -2.4000010E-01;1033; -4.4760638E-04;  0.0000000E+00; -1.0677429E-04;  1.0000089E+03;  4.0000001E-01;  7.4071970E+00;3; -4.5553219E-01;  0.0000000E+00; -1.0798903E-01;0; -8.8001713E-03;  1.0000180E+04;  0.0000000E+00;  4.2247794E-10;  1.0000000E+04;  0.0000000E+00;  1.0000000E+04; -8.8753048E-03;  0.0000000E+00;  7.5133285E-05;  1.1411517E+00;
 -4.2942628E-07;  9.9999998E-03; -2.2000009E-01;1034; -4.9231987E-04;  0.0000000E+00; -9.2398281E-05;  1.0000098E+03;  4.0000001E-01;  8.0985355E+00;3; -4.9564409E-01;  0.0000000E+00; -9.1703430E-02;0; -9.6059861E-03;  1.0000201E+04;  0.0000000E+00;  6.4301126E-10;  1.0000000E+04;  0.0000000E+00;  9.9999951E+03; -9.8928362E-03;  0.0000000E+00;  2.8685038E-04;  3.0267370E+00;
 -4.5883741E-07;  9.9999998E-03; -2.0000006E-01;1035; -5.2552676E-04;  0.0000000E+00; -7.6513315E-05;  1.0000103E+03;  4.0000001E-01;  8.5923481E+00;3; -5.2610469E-01;  0.0000000E+00; -7.4758068E-02;0; -1.0223907E-02;  1.0000215E+04;  0.0000000E+00;  7.5474092E-11;  1.0000000E+04;  0.0000000E+00;  9.9999932E+03; -1.0632218E-02;  0.0000000E+00;  4.0831001E-04;  4.1317320E+00;
  1.9999711E-02;  9.9999998E-03; -3.0000013E-01;1060; -3.2582684E-04;  0.0000000E+00; -1.6473708E-04;  1.0000067E+03;  4.0000001E-01;  5.5307069E+00;3; -3.4240824E-01;  0.0000000E+00; -1.7372316E-01;0; -6.4994656E-03;  1.0000113E+04;  0.0000000E+00; -1.1773866E-08;  1.0000000E+04;  0.0000000E+00;  1.0000019E+04; -5.6037507E-03;  0.0000000E+00; -8.9571462E-04;  7.6183181E+00;
  1.9999599E-02;  9.9999998E-03; -2.8000015E-01;1061; -4.5286011E-04;  0.0000000E+00; -1.5516358E-04;  1.0000085E+03;  4.0000001E-01;  7.0121465E+00;3; -4.5694864E-01;  0.0000000E+00; -1.5520242E-01;0; -8.2038501E-03;  1.0000155E+04;  0.0000000E+00; -3.4802168E-09;  1.0000000E+04;  0.0000000E+00;  1.0000013E+04; -7.5721066E-03;  0.0000000E+00; -6.3174352E-04;  5.1604590E+00;
  1.9999506E-02;  9.9999998E-03; -2.6000014E-01;1062; -5.6094036E-04;  0.0000000E+00; -1.5295969E-04;  1.0000099E+03;  4.0000001E-01;  8.1972980E+00;3; -5.4680192E-01;  0.0000000E+00; -1.4735439E-01;0; -9.6717691E-03;  1.0000193E+04;  0.0000000E+00;  3.4406797E-09;  1.0000000E+04;  0.0000000E+00;  1.0000005E+04; -9.4224270E-03;  0.0000000E+00; -2.4934238E-04;  1.6916744E+00;
  1.9999430E-02;  9.9999998E-03; -2.4000013E-01;1063; -6.4781046E-04;  0.0000000E+00; -1.4142774E-04;  1.0000111E+03;  4.0000001E-01;  9.1849241E+00;3; -6.1661363E-01;  0.0000000E+00; -1.3232134E-01;0; -1.0858393E-02;  1.0000225E+04;  0.0000000E+00;  4.8696740E-09;  1.0000000E+04;  0.0000000E+00;  9.9999980E+03; -1.0981940E-02;  0.0000000E+00;  1.2354684E-04;  1.6789751E+00;
  1.9999372E-02;  9.9999998E-03; -2.2000012E-01;1064; -7.1313273E-04;  0.0000000E+00; -1.2429638E-04;  1.0000121E+03;  4.0000001E-01;  9.9750252E+00;3; -6.6943622E-01;  0.0000000E+00; -1.1376949E-01;0; -1.1777732E-02;  1.0000249E+04;  0.0000000E+00;  3.3517629E-09;  1.0000000E+04;  0.0000000E+00;  9.9999932E+03; -1.2181010E-02;  0.0000000E+00;  4.0327862E-04;  4.2196794E+00;
  1.9999331E-02;  9.9999998E-03; -2.0000009E-01;1065; -7.6001330E-04;  0.0000000E+00; -1.0386558E-04;  1.0000128E+03;  4.0000001E-01;  1.0567601E+01;3; -7.0847678E-01;  0.0000000E+00; -9.3449123E-02;0; -1.2472373E-02;  1.0000269E+04;  0.0000000E+00;  1.5344707E-09;  1.0000000E+04;  0.0000000E+00;  9.9999902E+03; -1.3033794E-02;  0.0000000E+00;  5.6142057E-04;  5.6867499E+00;
  3.9999586E-02;  9.9999998E-03; -3.0000016E-01;1091; -4.6097412E-04;  0.0000000E+00; -1.8924702E-04;  1.0000082E+03;  4.0000001E-01;  6.8146210E+00;3; -4.6665269E-01;  0.0000000E+00; -1.8905777E-01;0; -7.9189735E-03;  1.0000143E+04;  0.0000000E+00; -1.2721611E-08;  1.0000000E+04;  0.0000000E+00;  1.0000024E+04; -6.7943390E-03;  0.0000000E+00; -1.1246343E-03;  9.8762417E+00;
  3.9999429E-02;  9.9999998E-03; -2.8000018E-01;1092; -6.3885050E-04;  0.0000000E+00; -1.8380028E-04;  1.0000104E+03;  4.0000001E-01;  8.5923481E+00;3; -6.1563087E-01;  0.0000000E+00; -1.7205441E-01;0; -9.9101607E-03;  1.0000191E+04;  0.0000000E+00; -7.1938744E-09;  1.0000000E+04;  0.0000000E+00;  1.0000017E+04; -9.1439318E-03;  0.0000000E+00; -7.6622923E-04;  6.4853201E+00;
  3.9999295E-02;  9.9999998E-03; -2.6000017E-01;1093; -7.9043419E-04;  0.0000000E+00; -1.7922051E-04;  1.0000121E+03;  4.0000001E-01;  1.0073788E+01;3; -7.3098457E-01;  0.0000000E+00; -1.5982085E-01;0; -1.1603631E-02;  1.0000237E+04;  0.0000000E+00;  2.6328366E-09;  1.0000000E+04;  0.0000000E+00;  1.0000006E+04; -1.1323590E-02;  0.0000000E+00; -2.8004101E-04;  1.9617029E+00;
  3.9999187E-02;  9.9999998E-03; -2.4000016E-01;1094; -9.1273949E-04;  0.0000000E+00; -1.6547542E-04;  1.0000136E+03;  4.0000001E-01;  1.1258939E+01;3; -8.2050514E-01;  0.0000000E+00; -1.4254645E-01;0; -1.2943754E-02;  1.0000274E+04;  0.0000000E+00;  5.5264811E-09;  1.0000000E+04;  0.0000000E+00;  9.9999971E+03; -1.3126882E-02;  0.0000000E+00;  1.8312735E-04;  2.3428953E+00;
  3.9999109E-02;  9.9999998E-03; -2.2000013E-01;1095; -1.0031268E-03;  0.0000000E+00; -1.4658447E-04;  1.0000146E+03;  4.0000001E-01;  1.2147802E+01;3; -8.8720274E-01;  0.0000000E+00; -1.2331606E-01;0; -1.3956234E-02;  1.0000305E+04;  0.0000000E+00;  5.4444036E-09;  1.0000000E+04;  0.0000000E+00;  9.9999902E+03; -1.4481000E-02;  0.0000000E+00;  5.2476535E-04;  5.5368600E+00;
  3.9999053E-02;  9.9999998E-03; -2.0000012E-01;1096; -1.0665925E-03;  0.0000000E+00; -1.2301549E-04;  1.0000154E+03;  4.0000001E-01;  1.2740378E+01;3; -9.3589187E-01;  0.0000000E+00; -1.0160118E-01;0; -1.4701140E-02;  1.0000323E+04;  0.0000000E+00;  2.8177536E-09;  1.0000000E+04;  0.0000000E+00;  9.9999863E+03; -1.5414691E-02;  0.0000000E+00;  7.1355014E-04;  7.3423796E+00;
  5.9999425E-02;  9.9999998E-03; -3.0000019E-01;1122; -6.3165557E-04;  0.0000000E+00; -2.1331891E-04;  1.0000101E+03;  4.0000001E-01;  8.3948231E+00;3; -6.2095892E-01;  0.0000000E+00; -2.0186460E-01;0; -9.4894823E-03;  1.0000174E+04;  0.0000000E+00; -1.4268724E-06;  1.0000000E+04;  0.0000000E+00;  1.0000029E+04; -8.1585590E-03;  0.0000000E+00; -1.3309233E-03;  1.2133050E+01;
  5.9999213E-02;  9.9999998E-03; -2.8000021E-01;1123; -8.7191974E-04;  0.0000000E+00; -2.0608320E-04;  1.0000128E+03;  4.0000001E-01;  1.0567601E+01;3; -8.1023097E-01;  0.0000000E+00; -1.8035454E-01;0; -1.1816995E-02;  1.0000233E+04;  0.0000000E+00; -3.8836899E-07;  1.0000000E+04;  0.0000000E+00;  1.0000019E+04; -1.0936228E-02;  0.0000000E+00; -8.8076771E-04;  7.7569242E+00;
  5.9999034E-02;  9.9999998E-03; -2.6000020E-01;1124; -1.0731786E-03;  0.0000000E+00; -2.0066465E-04;  1.0000148E+03;  4.0000001E-01;  1.2246566E+01;3; -9.5197433E-01;  0.0000000E+00; -1.6597247E-01;0; -1.3769921E-02;  1.0000287E+04;  0.0000000E+00; -9.8335233E-09;  1.0000000E+04;  0.0000000E+00;  1.0000007E+04; -1.3476447E-02;  0.0000000E+00; -2.9347377E-04;  2.1076839E+00;
  5.9998889E-02;  9.9999998E-03; -2.4000017E-01;1125; -1.2339161E-03;  0.0000000E+00; -1.8488913E-04;  1.0000165E+03;  4.0000001E-01;  1.3629242E+01;3; -1.0604143E+00;  0.0000000E+00; -1.4712375E-01;0; -1.5279995E-02;  1.0000333E+04;  0.0000000E+00; -1.7387844E-09;  1.0000000E+04;  0.0000000E+00;  9.9999961E+03; -1.5533303E-02;  0.0000000E+00;  2.5330775E-04;  3.1614871E+00;
  5.9998784E-02;  9.9999998E-03; -2.2000016E-01;1126; -1.3513721E-03;  0.0000000E+00; -1.6348033E-04;  1.0000176E+03;  4.0000001E-01;  1.4518106E+01;3; -1.1408813E+00;  0.0000000E+00; -1.2668310E-01;0; -1.6385358E-02;  1.0000368E+04;  0.0000000E+00;  1.7496445E-09;  1.0000000E+04;  0.0000000E+00;  9.9999863E+03; -1.7033201E-02;  0.0000000E+00;  6.4784335E-04;  6.9954996E+00;
  5.9998710E-02;  9.9999998E-03; -2.0000014E-01;1127; -1.4320175E-03;  0.0000000E+00; -1.3704100E-04;  1.0000185E+03;  4.0000001E-01;  1.5308207E+01;3; -1.1988480E+00;  0.0000000E+00; -1.0408220E-01;0; -1.7168466E-02;  1.0000388E+04;  0.0000000E+00;  1.9838891E-09;  1.0000000E+04;  0.0000000E+00;  9.9999814E+03; -1.8027108E-02;  0.0000000E+00;  8.5864129E-04;  9.1005878E+00;
  7.9999223E-02;  9.9999998E-03; -3.0000025E-01;1153; -8.4100640E-04;  0.0000000E+00; -2.4083522E-04;  1.0000127E+03;  4.0000001E-01;  1.0468838E+01;3; -8.0788708E-01;  0.0000000E+00; -2.1652293E-01;0; -1.1424542E-02;  1.0000217E+04;  0.0000000E+00; -1.5545574E-04;  1.0000000E+04;  0.0000000E+00;  1.0000034E+04; -9.9061150E-03;  0.0000000E+00; -1.5184273E-03;  1.4460812E+01;
  7.9998940E-02;  9.9999998E-03; -2.8000024E-01;1154; -1.1546606E-03;  0.0000000E+00; -2.2646305E-04;  1.0000156E+03;  4.0000001E-01;  1.2937903E+01;3; -1.0435152E+00;  0.0000000E+00; -1.8552262E-01;0; -1.4147424E-02;  1.0000290E+04;  0.0000000E+00; -8.7327193E-05;  1.0000000E+04;  0.0000000E+00;  1.0000022E+04; -1.3170604E-02;  0.0000000E+00; -9.7682071E-04;  8.9964571E+00;
  7.9998709E-02;  9.9999998E-03; -2.6000023E-01;1155; -1.4121545E-03;  0.0000000E+00; -2.1859037E-04;  1.0000179E+03;  4.0000001E-01;  1.4913157E+01;3; -1.2138517E+00;  0.0000000E+00; -1.6788751E-01;0; -1.6395921E-02;  1.0000353E+04;  0.0000000E+00; -3.0405261E-05;  1.0000000E+04;  0.0000000E+00;  1.0000007E+04; -1.6105579E-02;  0.0000000E+00; -2.9034127E-04;  2.1168597E+00;
  7.9998523E-02;  9.9999998E-03; -2.4000020E-01;1156; -1.6141946E-03;  0.0000000E+00; -2.0021503E-04;  1.0000200E+03;  4.0000001E-01;  1.6493359E+01;3; -1.3413072E+00;  0.0000000E+00; -1.4733183E-01;0; -1.8098477E-02;  1.0000405E+04;  0.0000000E+00; -3.3141896E-06;  1.0000000E+04;  0.0000000E+00;  9.9999941E+03; -1.8432632E-02;  0.0000000E+00;  3.3415540E-04;  4.1770897E+00;
  7.9998396E-02;  9.9999998E-03; -2.2000018E-01;1157; -1.7591817E-03;  0.0000000E+00; -1.7620414E-04;  1.0000214E+03;  4.0000001E-01;  1.7678509E+01;3; -1.4347936E+00;  0.0000000E+00; -1.2583156E-01;0; -1.9306714E-02;  1.0000441E+04;  0.0000000E+00; -1.2217739E-08;  1.0000000E+04;  0.0000000E+00;  9.9999834E+03; -2.0080084E-02;  0.0000000E+00;  7.7336980E-04;  8.6551580E+00;
  7.9998299E-02;  9.9999998E-03; -2.0000015E-01;1158; -1.8562705E-03;  0.0000000E+00; -1.4696232E-04;  1.0000221E+03;  4.0000001E-01;  1.8271086E+01;3; -1.5010567E+00;  0.0000000E+00; -1.0254440E-01;0; -2.0123363E-02;  1.0000465E+04;  0.0000000E+00; -3.8720538E-09;  1.0000000E+04;  0.0000000E+00;  9.9999805E+03; -2.1121657E-02;  0.0000000E+00;  9.9829317E-04;  1.1030812E+01;
  9.9998973E-02;  9.9999998E-03; -3.0000028E-01;1184; -1.0990165E-03;  0.0000000E+00; -2.7494057E-04;  1.0000159E+03;  4.0000001E-01;  1.3135429E+01;3; -1.0358486E+00;  0.0000000E+00; -2.3626149E-01;0; -1.4135672E-02;  1.0000279E+04;  0.0000000E+00; -1.4405190E-03;  1.0000000E+04;  0.0000000E+00;  1.0000040E+04; -1.2434326E-02;  0.0000000E+00; -1.7013457E-03;  1.8339523E+01;
  9.9998601E-02;  9.9999998E-03; -2.8000027E-01;1185; -1.4984782E-03;  0.0000000E+00; -2.4727482E-04;  1.0000195E+03;  4.0000001E-01;  1.6197071E+01;3; -1.3248149E+00;  0.0000000E+00; -1.8941534E-01;0; -1.7273648E-02;  1.0000362E+04;  0.0000000E+00; -9.1516087E-04;  1.0000000E+04;  0.0000000E+00;  1.0000026E+04; -1.6211824E-02;  0.0000000E+00; -1.0618237E-03;  1.1154155E+01;
  9.9998310E-02;  9.9999998E-03; -2.6000026E-01;1186; -1.8185655E-03;  0.0000000E+00; -2.3415632E-04;  1.0000224E+03;  4.0000001E-01;  1.8567373E+01;3; -1.5255207E+00;  0.0000000E+00; -1.6647422E-01;0; -1.9785307E-02;  1.0000440E+04;  0.0000000E+00; -4.2411144E-04;  1.0000000E+04;  0.0000000E+00;  1.0000007E+04; -1.9514220E-02;  0.0000000E+00; -2.7108710E-04;  2.8374481E+00;
  9.9998079E-02;  9.9999998E-03; -2.4000023E-01;1187; -2.0644183E-03;  0.0000000E+00; -2.1221029E-04;  1.0000244E+03;  4.0000001E-01;  2.0147575E+01;3; -1.6717142E+00;  0.0000000E+00; -1.4375511E-01;0; -2.1640936E-02;  1.0000499E+04;  0.0000000E+00; -1.1762785E-04;  1.0000000E+04;  0.0000000E+00;  9.9999922E+03; -2.2070294E-02;  0.0000000E+00;  4.2935763E-04;  5.5186424E+00;
  9.9997923E-02;  9.9999998E-03; -2.2000021E-01;1188; -2.2367369E-03;  0.0000000E+00; -1.8588369E-04;  1.0000259E+03;  4.0000001E-01;  2.1530252E+01;3; -1.7768871E+00;  0.0000000E+00; -1.2179267E-01;0; -2.2928562E-02;  1.0000536E+04;  0.0000000E+00; -1.3216434E-05;  1.0000000E+04;  0.0000000E+00;  9.9999814E+03; -2.3836019E-02;  0.0000000E+00;  9.0745691E-04;  1.0638794E+01;
  9.9997811E-02;  9.9999998E-03; -2.0000017E-01;1189; -2.3488468E-03;  0.0000000E+00; -1.5428079E-04;  1.0000269E+03;  4.0000001E-01;  2.2320353E+01;3; -1.8499200E+00;  0.0000000E+00; -9.8271564E-02;0; -2.3766683E-02;  1.0000564E+04;  0.0000000E+00; -1.5403533E-08;  1.0000000E+04;  0.0000000E+00;  9.9999756E+03; -2.4907826E-02;  0.0000000E+00;  1.1411416E-03;  1.3273849E+01;
  1.1999864E-01;  9.9999998E-03; -3.0000034E-01;1215; -1.4218631E-03;  0.0000000E+00; -3.2043247E-04;  1.0000211E+03;  4.0000001E-01;  1.7480984E+01;3; -1.3173522E+00;  0.0000000E+00; -2.6442277E-01;0; -1.8293476E-02;  1.0000374E+04;  0.0000000E+00; -6.3646175E-03;  1.0000000E+04;  0.0000000E+00;  1.0000048E+04; -1.6393328E-02;  0.0000000E+00; -1.9001471E-03;  3.6993179E+01;
  1.1999818E-01;  9.9999998E-03; -2.8000030E-01;1216; -1.9208901E-03;  0.0000000E+00; -2.7245830E-04;  1.0000251E+03;  4.0000001E-01;  2.0740150E+01;3; -1.6659019E+00;  0.0000000E+00; -1.9524360E-01;0; -2.1778850E-02;  1.0000474E+04;  0.0000000E+00; -4.3717348E-03;  1.0000000E+04;  0.0000000E+00;  1.0000028E+04; -2.0635016E-02;  0.0000000E+00; -1.1438343E-03;  2.4359608E+01;
  1.1999781E-01;  9.9999998E-03; -2.6000029E-01;1217; -2.3099235E-03;  0.0000000E+00; -2.5044740E-04;  1.0000283E+03;  4.0000001E-01;  2.3505505E+01;3; -1.8974004E+00;  0.0000000E+00; -1.6385251E-01;0; -2.4361180E-02;  1.0000556E+04;  0.0000000E+00; -2.2080403E-03;  1.0000000E+04;  0.0000000E+00;  1.0000007E+04; -2.4133576E-02;  0.0000000E+00; -2.2760342E-04;  1.0972116E+01;
  1.1999754E-01;  9.9999998E-03; -2.4000025E-01;1218; -2.6021469E-03;  0.0000000E+00; -2.2325799E-04;  1.0000302E+03;  4.0000001E-01;  2.4986944E+01;3; -2.0611634E+00;  0.0000000E+00; -1.3781703E-01;0; -2.6190933E-02;  1.0000616E+04;  0.0000000E+00; -7.7204534E-04;  1.0000000E+04;  0.0000000E+00;  9.9999893E+03; -2.6748493E-02;  0.0000000E+00;  5.5756042E-04;  8.3131990E+00;
  1.1999734E-01;  9.9999998E-03; -2.2000022E-01;1219; -2.8011510E-03;  0.0000000E+00; -1.9531728E-04;  1.0000317E+03;  4.0000001E-01;  2.6270859E+01;3; -2.1757019E+00;  0.0000000E+00; -1.1630115E-01;0; -2.7438207E-02;  1.0000660E+04;  0.0000000E+00; -1.5559621E-04;  1.0000000E+04;  0.0000000E+00;  9.9999756E+03; -2.8510116E-02;  0.0000000E+00;  1.0719094E-03;  1.3276748E+01;
  1.1999722E-01;  9.9999998E-03; -2.0000020E-01;1220; -2.9266377E-03;  0.0000000E+00; -1.6153978E-04;  1.0000329E+03;  4.0000001E-01;  2.7258484E+01;3; -2.2533376E+00;  0.0000000E+00; -9.3174592E-02;0; -2.8237373E-02;  1.0000685E+04;  0.0000000E+00; -1.1049015E-05;  1.0000000E+04;  0.0000000E+00;  9.9999688E+03; -2.9545693E-02;  0.0000000E+00;  1.3083209E-03;  1.6111164E+01;
  1.3999821E-01;  9.9999998E-03; -3.0000043E-01;1246; -1.8320349E-03;  0.0000000E+00; -3.8343185E-04;  1.0000292E+03;  4.0000001E-01;  2.4196842E+01;3; -1.6683202E+00;  0.0000000E+00; -3.0663729E-01;0; -2.4844727E-02;  1.0000529E+04;  0.0000000E+00; -1.9557871E-02;  1.0000000E+04;  0.0000000E+00;  1.0000057E+04; -2.2708464E-02;  0.0000000E+00; -2.1362624E-03;  9.9162033E+01;
  1.3999763E-01;  9.9999998E-03; -2.8000036E-01;1247; -2.4439115E-03;  0.0000000E+00; -3.0826946E-04;  1.0000334E+03;  4.0000001E-01;  2.7752296E+01;3; -2.0797894E+00;  0.0000000E+00; -2.0790482E-01;0; -2.8407590E-02;  1.0000637E+04;  0.0000000E+00; -1.3791846E-02;  1.0000000E+04;  0.0000000E+00;  1.0000033E+04; -2.7181758E-02;  0.0000000E+00; -1.2258334E-03;  6.9244408E+01;
  1.3999718E-01;  9.9999998E-03; -2.6000032E-01;1248; -2.9073611E-03;  0.0000000E+00; -2.7396629E-04;  1.0000361E+03;  4.0000001E-01;  2.9925076E+01;3; -2.3391964E+00;  0.0000000E+00; -1.6545129E-01;0; -3.0613234E-02;  1.0000718E+04;  0.0000000E+00; -7.2250147E-03;  1.0000000E+04;  0.0000000E+00;  1.0000006E+04; -3.0480221E-02;  0.0000000E+00; -1.3301393E-04;  3.5744141E+01;
  1.3999686E-01;  9.9999998E-03; -2.4000029E-01;1249; -3.2486396E-03;  0.0000000E+00; -2.3908280E-04;  1.0000379E+03;  4.0000001E-01;  3.1406515E+01;3; -2.5186250E+00;  0.0000000E+00; -1.3365906E-01;0; -3.2036010E-02;  1.0000775E+04;  0.0000000E+00; -2.7495562E-03;  1.0000000E+04;  0.0000000E+00;  9.9999834E+03; -3.2801397E-02;  0.0000000E+00;  7.6538662E-04;  1.7221964E+01;
  1.3999663E-01;  9.9999998E-03; -2.2000025E-01;1250; -3.4740972E-03;  0.0000000E+00; -2.0902179E-04;  1.0000391E+03;  4.0000001E-01;  3.2394142E+01;3; -2.6396780E+00;  0.0000000E+00; -1.1265413E-01;0; -3.2996316E-02;  1.0000813E+04;  0.0000000E+00; -6.8630994E-04;  1.0000000E+04;  0.0000000E+00;  9.9999688E+03; -3.4315635E-02;  0.0000000E+00;  1.3193175E-03;  1.7513283E+01;
  1.3999650E-01;  9.9999998E-03; -2.0000021E-01;1251; -3.6105427E-03;  0.0000000E+00; -1.7350918E-04;  1.0000399E+03;  4.0000001E-01;  3.3085480E+01;3; -2.7189262E+00;  0.0000000E+00; -9.0484351E-02;0; -3.3626366E-02;  1.0000838E+04;  0.0000000E+00; -8.7473913E-05;  1.0000000E+04;  0.0000000E+00;  9.9999619E+03; -3.5173479E-02;  0.0000000E+00;  1.5471120E-03;  2.0125854E+01;
  1.5999766E-01;  9.9999998E-03; -3.0000052E-01;1277; -2.3623256E-03;  0.0000000E+00; -4.6080936E-04;  1.0000416E+03;  4.0000001E-01;  3.4468155E+01;3; -2.1132672E+00;  0.0000000E+00; -3.5724545E-01;0; -3.4842566E-02;  1.0000770E+04;  0.0000000E+00; -4.7274139E-02;  1.0000000E+04;  0.0000000E+00;  1.0000065E+04; -3.2407422E-02;  0.0000000E+00; -2.4351436E-03;  2.3553807E+02;
  1.5999694E-01;  9.9999998E-03; -2.8000045E-01;1278; -3.0927837E-03;  0.0000000E+00; -3.5904767E-04;  1.0000455E+03;  4.0000001E-01;  3.7628559E+01;3; -2.5802417E+00;  0.0000000E+00; -2.3008251E-01;0; -3.7832595E-02;  1.0000872E+04;  0.0000000E+00; -3.3076849E-02;  1.0000000E+04;  0.0000000E+00;  1.0000035E+04; -3.6537051E-02;  0.0000000E+00; -1.2955435E-03;  1.6447702E+02;
  1.5999641E-01;  9.9999998E-03; -2.6000038E-01;1279; -3.6363292E-03;  0.0000000E+00; -3.0898704E-04;  1.0000468E+03;  4.0000001E-01;  3.8813713E+01;3; -2.8633914E+00;  0.0000000E+00; -1.7430842E-01;0; -3.8904712E-02;  1.0000938E+04;  0.0000000E+00; -1.7391821E-02;  1.0000000E+04;  0.0000000E+00;  1.0000000E+04; -3.8976256E-02;  0.0000000E+00;  7.1546063E-05;  8.6415680E+01;
  1.5999603E-01;  9.9999998E-03; -2.4000035E-01;1280; -4.0257131E-03;  0.0000000E+00; -2.6950872E-04;  1.0000477E+03;  4.0000001E-01;  3.9505051E+01;3; -3.0520632E+00;  0.0000000E+00; -1.3874733E-01;0; -3.9356548E-02;  1.0000980E+04;  0.0000000E+00; -6.8158628E-03;  1.0000000E+04;  0.0000000E+00;  9.9999717E+03; -4.0498041E-02;  0.0000000E+00;  1.1414939E-03;  3.7541023E+01;
  1.5999578E-01;  9.9999998E-03; -2.2000030E-01;1281; -4.2772521E-03;  0.0000000E+00; -2.3596529E-04;  1.0000482E+03;  4.0000001E-01;  3.9900101E+01;3; -3.1761448E+00;  0.0000000E+00; -1.1758780E-01;0; -3.9695345E-02;  1.0001010E+04;  0.0000000E+00; -1.8682897E-03;  1.0000000E+04;  0.0000000E+00;  9.9999541E+03; -4.1439459E-02;  0.0000000E+00;  1.7441126E-03;  2.5375444E+01;
  1.5999562E-01;  9.9999998E-03; -2.0000026E-01;1282; -4.4222446E-03;  0.0000000E+00; -1.9714833E-04;  1.0000488E+03;  4.0000001E-01;  4.0492676E+01;3; -3.2539399E+00;  0.0000000E+00; -9.5910065E-02;0; -3.9986018E-02;  1.0001025E+04;  0.0000000E+00; -3.0231598E-04;  1.0000000E+04;  0.0000000E+00;  9.9999492E+03; -4.1927386E-02;  0.0000000E+00;  1.9413671E-03;  2.6357794E+01;
  1.7999691E-01;  9.9999998E-03; -3.0000064E-01;1308; -3.0639926E-03;  0.0000000E+00; -5.2503770E-04;  1.0000593E+03;  4.0000001E-01;  4.9183788E+01;3; -2.6945388E+00;  0.0000000E+00; -3.8373280E-01;0; -4.8817340E-02;  1.0001104E+04;  0.0000000E+00; -9.2446893E-02;  1.0000000E+04;  0.0000000E+00;  1.0000081E+04; -4.5916010E-02;  0.0000000E+00; -2.9013306E-03;  4.6063327E+02;
  1.7999606E-01;  9.9999998E-03; -2.8000054E-01;1309; -3.8985831E-03;  0.0000000E+00; -4.2100009E-04;  1.0000611E+03;  4.0000001E-01;  5.0665226E+01;3; -3.1851909E+00;  0.0000000E+00; -2.5633192E-01;0; -5.0117016E-02;  1.0001187E+04;  0.0000000E+00; -6.3226327E-02;  1.0000000E+04;  0.0000000E+00;  1.0000036E+04; -4.8794646E-02;  0.0000000E+00; -1.3223718E-03;  3.1495605E+02;
  1.7999545E-01;  9.9999998E-03; -2.6000047E-01;1310; -4.5193559E-03;  0.0000000E+00; -3.6442999E-04;  1.0000604E+03;  4.0000001E-01;  5.0072651E+01;3; -3.4794862E+00;  0.0000000E+00; -1.9453204E-01;0; -4.9145024E-02;  1.0001221E+04;  0.0000000E+00; -3.2728061E-02;  1.0000000E+04;  0.0000000E+00;  9.9999883E+03; -4.9646202E-02;  0.0000000E+00;  5.0117832E-04;  1.6344951E+02;
  1.7999500E-01;  9.9999998E-03; -2.4000043E-01;1311; -4.9575213E-03;  0.0000000E+00; -3.2261558E-04;  1.0000594E+03;  4.0000001E-01;  4.9282551E+01;3; -3.6707091E+00;  0.0000000E+00; -1.5911204E-01;0; -4.8075058E-02;  1.0001237E+04;  0.0000000E+00; -1.2848583E-02;  1.0000000E+04;  0.0000000E+00;  9.9999512E+03; -4.9906991E-02;  0.0000000E+00;  1.8319326E-03;  6.9257767E+01;
  1.7999472E-01;  9.9999998E-03; -2.2000037E-01;1312; -5.2345414E-03;  0.0000000E+00; -2.8299185E-04;  1.0000590E+03;  4.0000001E-01;  4.8887501E+01;3; -3.7944720E+00;  0.0000000E+00; -1.3596264E-01;0; -4.7512591E-02;  1.0001249E+04;  0.0000000E+00; -3.6549352E-03;  1.0000000E+04;  0.0000000E+00;  9.9999336E+03; -4.9998790E-02;  0.0000000E+00;  2.4861975E-03;  3.8881454E+01;
  1.7999455E-01;  9.9999998E-03; -2.0000032E-01;1313; -5.3832480E-03;  0.0000000E+00; -2.4097944E-04;  1.0000591E+03;  4.0000001E-01;  4.8986263E+01;3; -3.8655505E+00;  0.0000000E+00; -1.1630115E-01;0; -4.7334541E-02;  1.0001251E+04;  0.0000000E+00; -6.5827364E-04;  1.0000000E+04;  0.0000000E+00;  9.9999297E+03; -4.9945954E-02;  0.0000000E+00;  2.6114129E-03;  3.6309719E+01;
  1.9999589E-01;  9.9999998E-03; -3.0000076E-01;1339; -3.9882632E-03;  0.0000000E+00; -5.7516294E-04;  1.0000809E+03;  4.0000001E-01;  6.7059822E+01;3; -3.4508204E+00;  0.0000000E+00; -3.8319874E-01;0; -6.5563425E-02;  1.0001515E+04;  0.0000000E+00; -1.4409983E-01;  1.0000000E+04;  0.0000000E+00;  1.0000103E+04; -6.1823968E-02;  0.0000000E+00; -3.7394562E-03;  7.2088025E+02;
  1.9999494E-01;  9.9999998E-03; -2.8000066E-01;1340; -4.9068867E-03;  0.0000000E+00; -4.8859970E-04;  1.0000798E+03;  4.0000001E-01;  6.6072197E+01;3; -3.9239993E+00;  0.0000000E+00; -2.7992034E-01;0; -6.4163029E-02;  1.0001563E+04;  0.0000000E+00; -9.6677519E-02;  1.0000000E+04;  0.0000000E+00;  1.0000034E+04; -6.2885284E-02;  0.0000000E+00; -1.2777415E-03;  4.8354266E+02;
  1.9999424E-01;  9.9999998E-03; -2.6000059E-01;1341; -5.5915443E-03;  0.0000000E+00; -4.3913594E-04;  1.0000760E+03;  4.0000001E-01;  6.2911793E+01;3; -4.2046452E+00;  0.0000000E+00; -2.2509956E-01;0; -6.0584046E-02;  1.0001559E+04;  0.0000000E+00; -4.9017787E-02;  1.0000000E+04;  0.0000000E+00;  9.9999629E+03; -6.1908852E-02;  0.0000000E+00;  1.3248076E-03;  2.4644211E+02;
  1.9999373E-01;  9.9999998E-03; -2.4000053E-01;1342; -6.0743238E-03;  0.0000000E+00; -4.0095398E-04;  1.0000730E+03;  4.0000001E-01;  6.0442726E+01;3; -4.3862009E+00;  0.0000000E+00; -1.9694394E-01;0; -5.7784706E-02;  1.0001546E+04;  0.0000000E+00; -1.9011389E-02;  1.0000000E+04;  0.0000000E+00;  9.9999180E+03; -6.0821146E-02;  0.0000000E+00;  3.0364413E-03;  1.0460405E+02;
  1.9999342E-01;  9.9999998E-03; -2.2000048E-01;1343; -6.3696029E-03;  0.0000000E+00; -3.6305530E-04;  1.0000715E+03;  4.0000001E-01;  5.9257576E+01;3; -4.5009198E+00;  0.0000000E+00; -1.7840648E-01;0; -5.6279428E-02;  1.0001537E+04;  0.0000000E+00; -5.4430179E-03;  1.0000000E+04;  0.0000000E+00;  9.9998955E+03; -6.0003214E-02;  0.0000000E+00;  3.7237871E-03;  5.8395508E+01;
  1.9999325E-01;  9.9999998E-03; -2.0000041E-01;1344; -6.5174815E-03;  0.0000000E+00; -3.1318079E-04;  1.0000714E+03;  4.0000001E-01;  5.9158813E+01;3; -4.5612288E+00;  0.0000000E+00; -1.5808439E-01;0; -5.5639651E-02;  1.0001527E+04;  0.0000000E+00; -1.0193809E-03;  1.0000000E+04;  0.0000000E+00;  9.9998965E+03; -5.9340611E-02;  0.0000000E+00;  3.7009621E-03;  5.1712215E+01;
  2.1999465E-01;  9.9999998E-03; -3.0000117E-01;1370; -5.0877193E-03;  0.0000000E+00; -8.7954826E-04;  1.0001005E+03;  4.0000001E-01;  8.3256889E+01;3; -4.3266430E+00;  0.0000000E+00; -5.7198763E-01;0; -7.9952151E-02;  1.0001921E+04;  0.0000000E+00; -1.7972013E-01;  1.0000000E+04;  0.0000000E+00;  1.0000086E+04; -7.6645084E-02;  0.0000000E+00; -3.3070694E-03;  9.0306183E+02;
  2.1999352E-01;  9.9999998E-03; -2.8000093E-01;1371; -6.1444305E-03;  0.0000000E+00; -6.7051587E-04;  1.0000984E+03;  4.0000001E-01;  8.1577927E+01;3; -4.8083200E+00;  0.0000000E+00; -3.7488604E-01;0; -7.7551864E-02;  1.0001958E+04;  0.0000000E+00; -1.1799940E-01;  1.0000000E+04;  0.0000000E+00;  1.0000008E+04; -7.6965608E-02;  0.0000000E+00; -5.8625313E-04;  5.9313129E+02;
  2.1999273E-01;  9.9999998E-03; -2.6000080E-01;1372; -6.8884664E-03;  0.0000000E+00; -5.8285927E-04;  1.0000924E+03;  4.0000001E-01;  7.6541031E+01;3; -5.0543647E+00;  0.0000000E+00; -2.9735208E-01;0; -7.2011337E-02;  1.0001930E+04;  0.0000000E+00; -5.8608968E-02;  1.0000000E+04;  0.0000000E+00;  9.9999160E+03; -7.4898727E-02;  0.0000000E+00;  2.8873906E-03;  2.9830582E+02;
  2.1999218E-01;  9.9999998E-03; -2.4000071E-01;1373; -7.4098073E-03;  0.0000000E+00; -5.2715407E-04;  1.0000880E+03;  4.0000001E-01;  7.2886818E+01;3; -5.2135363E+00;  0.0000000E+00; -2.6341105E-01;0; -6.7930825E-02;  1.0001902E+04;  0.0000000E+00; -2.2267606E-02;  1.0000000E+04;  0.0000000E+00;  9.9998584E+03; -7.2924420E-02;  0.0000000E+00;  4.9935970E-03;  1.3240691E+02;
  2.1999183E-01;  9.9999998E-03; -2.2000064E-01;1374; -7.7125193E-03;  0.0000000E+00; -4.8473023E-04;  1.0000860E+03;  4.0000001E-01;  7.1207855E+01;3; -5.3058171E+00;  0.0000000E+00; -2.4896869E-01;0; -6.5784365E-02;  1.0001879E+04;  0.0000000E+00; -6.2798597E-03;  1.0000000E+04;  0.0000000E+00;  9.9998398E+03; -7.1413949E-02;  0.0000000E+00;  5.6295805E-03;  8.4038895E+01;
  2.1999167E-01;  9.9999998E-03; -2.0000054E-01;1375; -7.8511108E-03;  0.0000000E+00; -4.2307444E-04;  1.0000854E+03;  4.0000001E-01;  7.0714035E+01;3; -5.3480129E+00;  0.0000000E+00; -2.2753009E-01;0; -6.4856552E-02;  1.0001857E+04;  0.0000000E+00; -1.1648522E-03;  1.0000000E+04;  0.0000000E+00;  9.9998516E+03; -7.0199251E-02;  0.0000000E+00;  5.3427005E-03;  7.4223434E+01;
  2.3999295E-01;  9.9999998E-03; -3.0000231E-01;1401; -6.5395366E-03;  0.0000000E+00; -1.8675096E-03;  1.0001111E+03;  4.0000001E-01;  9.2046768E+01;3; -5.4297504E+00;  0.0000000E+00; -1.3320885E+00;0; -8.5561149E-02;  1.0002323E+04;  0.0000000E+00; -1.8088941E-01;  1.0000000E+04;  0.0000000E+00;  9.9999014E+03; -8.9934841E-02;  0.0000000E+00;  4.3736906E-03;  9.1419171E+02;
  2.3999169E-01;  9.9999998E-03; -2.8000161E-01;1402; -7.6813879E-03;  0.0000000E+00; -1.2594571E-03;  1.0001135E+03;  4.0000001E-01;  9.4022018E+01;3; -5.8674464E+00;  0.0000000E+00; -7.8483701E-01;0; -8.6943179E-02;  1.0002368E+04;  0.0000000E+00; -1.1557933E-01;  1.0000000E+04;  0.0000000E+00;  9.9999014E+03; -9.0406917E-02;  0.0000000E+00;  3.4637358E-03;  5.8646747E+02;
  2.3999085E-01;  9.9999998E-03; -2.6000124E-01;1403; -8.4655313E-03;  0.0000000E+00; -9.4123051E-04;  1.0001083E+03;  4.0000001E-01;  8.9676460E+01;3; -6.0524502E+00;  0.0000000E+00; -5.2476597E-01;0; -8.2255289E-02;  1.0002345E+04;  0.0000000E+00; -5.5905651E-02;  1.0000000E+04;  0.0000000E+00;  9.9998223E+03; -8.8319823E-02;  0.0000000E+00;  6.0645379E-03;  2.9621027E+02;
  2.3999025E-01;  9.9999998E-03; -2.4000101E-01;1404; -9.0071447E-03;  0.0000000E+00; -7.7059196E-04;  1.0001041E+03;  4.0000001E-01;  8.6219772E+01;3; -6.1664314E+00;  0.0000000E+00; -4.1060638E-01;0; -7.8163013E-02;  1.0002312E+04;  0.0000000E+00; -2.0584553E-02;  1.0000000E+04;  0.0000000E+00;  9.9997715E+03; -8.6135872E-02;  0.0000000E+00;  7.9728588E-03;  1.5270227E+02;
  2.3998991E-01;  9.9999998E-03; -2.2000086E-01;1405; -9.2995120E-03;  0.0000000E+00; -6.7912758E-04;  1.0001021E+03;  4.0000001E-01;  8.4540810E+01;3; -6.2198229E+00;  0.0000000E+00; -3.7004676E-01;0; -7.5958267E-02;  1.0002279E+04;  0.0000000E+00; -5.5915304E-03;  1.0000000E+04;  0.0000000E+00;  9.9997627E+03; -8.4270716E-02;  0.0000000E+00;  8.3124451E-03;  1.1828002E+02;
  2.3998976E-01;  9.9999998E-03; -2.0000073E-01;1406; -9.4154663E-03;  0.0000000E+00; -5.8567215E-04;  1.0001015E+03;  4.0000001E-01;  8.4046989E+01;3; -6.2345810E+00;  0.0000000E+00; -3.3510700E-01;0; -7.5016171E-02;  1.0002250E+04;  0.0000000E+00; -9.7640313E-04;  1.0000000E+04;  0.0000000E+00;  9.9997842E+03; -8.2626432E-02;  0.0000000E+00;  7.6102582E-03;  1.0513467E+02;
  2.5999057E-01;  9.9999998E-03; -3.0000362E-01;1432; -8.5122325E-03;  0.0000000E+00; -2.9197009E-03;  1.0001187E+03;  4.0000001E-01;  9.8367569E+01;3; -6.8996668E+00;  0.0000000E+00; -2.0715218E+00;0; -8.8171780E-02;  1.0002770E+04;  0.0000000E+00; -1.4190988E-01;  1.0000000E+04;  0.0000000E+00;  9.9996045E+03; -1.0378375E-01;  0.0000000E+00;  1.5611969E-02;  7.4357874E+02;
  2.5998932E-01;  9.9999998E-03; -2.8000262E-01;1433; -9.6344342E-03;  0.0000000E+00; -2.0903726E-03;  1.0001260E+03;  4.0000001E-01;  1.0439208E+02;3; -7.1735864E+00;  0.0000000E+00; -1.3506076E+00;0; -9.3218580E-02;  1.0002824E+04;  0.0000000E+00; -8.9453690E-02;  1.0000000E+04;  0.0000000E+00;  9.9996943E+03; -1.0433109E-01;  0.0000000E+00;  1.1112512E-02;  4.7774158E+02;
  2.5998846E-01;  9.9999998E-03; -2.6000190E-01;1434; -1.0410156E-02;  0.0000000E+00; -1.5023282E-03;  1.0001244E+03;  4.0000001E-01;  1.0300941E+02;3; -7.2449760E+00;  0.0000000E+00; -8.8842154E-01;0; -9.1560833E-02;  1.0002813E+04;  0.0000000E+00; -4.2029917E-02;  1.0000000E+04;  0.0000000E+00;  9.9996729E+03; -1.0271723E-01;  0.0000000E+00;  1.1156397E-02;  2.6475906E+02;
  2.5998789E-01;  9.9999998E-03; -2.4000148E-01;1435; -1.0918205E-02;  0.0000000E+00; -1.1682621E-03;  1.0001215E+03;  4.0000001E-01;  1.0063911E+02;3; -7.2640676E+00;  0.0000000E+00; -6.6401374E-01;0; -8.8681512E-02;  1.0002785E+04;  0.0000000E+00; -1.4789723E-02;  1.0000000E+04;  0.0000000E+00;  9.9996484E+03; -1.0072506E-01;  0.0000000E+00;  1.2043549E-02;  1.8442963E+02;
  2.5998756E-01;  9.9999998E-03; -2.2000122E-01;1436; -1.1171310E-02;  0.0000000E+00; -9.7989594E-04;  1.0001204E+03;  4.0000001E-01;  9.9750244E+01;3; -7.2563157E+00;  0.0000000E+00; -5.6260133E-01;0; -8.6993739E-02;  1.0002752E+04;  0.0000000E+00; -3.7485042E-03;  1.0000000E+04;  0.0000000E+00;  9.9996592E+03; -9.8738551E-02;  0.0000000E+00;  1.1744814E-02;  1.6412910E+02;
  2.5998744E-01;  9.9999998E-03; -2.0000099E-01;1437; -1.1248122E-02;  0.0000000E+00; -8.1755558E-04;  1.0001204E+03;  4.0000001E-01;  9.9750244E+01;3; -7.2318082E+00;  0.0000000E+00; -4.9133223E-01;0; -8.6276591E-02;  1.0002710E+04;  0.0000000E+00; -5.7217362E-04;  1.0000000E+04;  0.0000000E+00;  9.9996992E+03; -9.6759379E-02;  0.0000000E+00;  1.0482788E-02;  1.4492511E+02;
  2.7998754E-01;  9.9999998E-03; -3.0000487E-01;1463; -1.0973236E-02;  0.0000000E+00; -3.7819170E-03;  1.0001317E+03;  4.0000001E-01;  1.0913269E+02;3; -8.6866350E+00;  0.0000000E+00; -2.5897899E+00;0; -9.4481155E-02;  1.0003318E+04;  0.0000000E+00; -8.6530827E-02;  1.0000000E+04;  0.0000000E+00;  9.9993164E+03; -1.1957160E-01;  0.0000000E+00;  2.5090443E-02;  5.4351007E+02;
  2.7998635E-01;  9.9999998E-03; -2.8000370E-01;1464; -1.2017947E-02;  0.0000000E+00; -2.9062422E-03;  1.0001409E+03;  4.0000001E-01;  1.1673741E+02;3; -8.7200336E+00;  0.0000000E+00; -1.8541071E+00;0; -1.0057487E-01;  1.0003370E+04;  0.0000000E+00; -5.3831432E-02;  1.0000000E+04;  0.0000000E+00;  9.9994492E+03; -1.2001494E-01;  0.0000000E+00;  1.9440074E-02;  3.7714420E+02;
  2.7998552E-01;  9.9999998E-03; -2.6000273E-01;1465; -1.2735695E-02;  0.0000000E+00; -2.1653597E-03;  1.0001429E+03;  4.0000001E-01;  1.1841637E+02;3; -8.6163826E+00;  0.0000000E+00; -1.3005474E+00;0; -1.0156670E-01;  1.0003368E+04;  0.0000000E+00; -2.4329348E-02;  1.0000000E+04;  0.0000000E+00;  9.9994902E+03; -1.1884531E-01;  0.0000000E+00;  1.7278610E-02;  2.7159308E+02;
  2.7998498E-01;  9.9999998E-03; -2.4000210E-01;1466; -1.3175480E-02;  0.0000000E+00; -1.6870003E-03;  1.0001420E+03;  4.0000001E-01;  1.1762627E+02;3; -8.5077190E+00;  0.0000000E+00; -9.8793608E-01;0; -1.0024701E-01;  1.0003342E+04;  0.0000000E+00; -7.9712309E-03;  1.0000000E+04;  0.0000000E+00;  9.9994990E+03; -1.1709210E-01;  0.0000000E+00;  1.6845081E-02;  2.4132594E+02;
  2.7998474E-01;  9.9999998E-03; -2.2000167E-01;1467; -1.3367482E-02;  0.0000000E+00; -1.3689328E-03;  1.0001420E+03;  4.0000001E-01;  1.1762627E+02;3; -8.4219437E+00;  0.0000000E+00; -8.1205487E-01;0; -9.9321134E-02;  1.0003302E+04;  0.0000000E+00; -1.7787071E-03;  1.0000000E+04;  0.0000000E+00;  9.9995342E+03; -1.1503662E-01;  0.0000000E+00;  1.5715485E-02;  2.2115149E+02;
  2.7998465E-01;  9.9999998E-03; -2.0000133E-01;1468; -1.3389514E-02;  0.0000000E+00; -1.1165332E-03;  1.0001425E+03;  4.0000001E-01;  1.1802132E+02;3; -8.3497324E+00;  0.0000000E+00; -6.9491124E-01;0; -9.8899737E-02;  1.0003249E+04;  0.0000000E+00; -2.0580836E-04;  1.0000000E+04;  0.0000000E+00;  9.9995957E+03; -1.1275298E-01;  0.0000000E+00;  1.3853242E-02;  1.9314294E+02;
  2.9998392E-01;  9.9999998E-03; -3.0000606E-01;1494; -1.3802068E-02;  0.0000000E+00; -4.5505394E-03;  1.0001532E+03;  4.0000001E-01;  1.2690994E+02;3; -1.0662501E+01;  0.0000000E+00; -3.0213788E+00;0; -1.0618213E-01;  1.0003989E+04;  0.0000000E+00; -4.0496413E-02;  1.0000000E+04;  0.0000000E+00;  9.9990771E+03; -1.3797636E-01;  0.0000000E+00;  3.1794235E-02;  4.7582700E+02;
  2.9998276E-01;  9.9999998E-03; -2.8000477E-01;1495; -1.4775527E-02;  0.0000000E+00; -3.6563512E-03;  1.0001625E+03;  4.0000001E-01;  1.3461342E+02;3; -1.0430686E+01;  0.0000000E+00; -2.2702303E+00;0; -1.1183720E-01;  1.0004028E+04;  0.0000000E+00; -2.4378715E-02;  1.0000000E+04;  0.0000000E+00;  9.9992207E+03; -1.3817254E-01;  0.0000000E+00;  2.6335334E-02;  3.8530978E+02;
  2.9998198E-01;  9.9999998E-03; -2.6000363E-01;1496; -1.5425573E-02;  0.0000000E+00; -2.8454533E-03;  1.0001660E+03;  4.0000001E-01;  1.3757631E+02;3; -1.0129768E+01;  0.0000000E+00; -1.6947582E+00;0; -1.1397916E-01;  1.0004028E+04;  0.0000000E+00; -1.0252562E-02;  1.0000000E+04;  0.0000000E+00;  9.9992949E+03; -1.3719593E-01;  0.0000000E+00;  2.3216771E-02;  3.3650824E+02;
  2.9998150E-01;  9.9999998E-03; -2.4000280E-01;1497; -1.5793622E-02;  0.0000000E+00; -2.2561457E-03;  1.0001666E+03;  4.0000001E-01;  1.3797136E+02;3; -9.8855181E+00;  0.0000000E+00; -1.3340950E+00;0; -1.1374368E-01;  1.0003998E+04;  0.0000000E+00; -2.9593108E-03;  1.0000000E+04;  0.0000000E+00;  9.9993340E+03; -1.3553882E-01;  0.0000000E+00;  2.1795137E-02;  3.1533344E+02;
  2.9998133E-01;  9.9999998E-03; -2.2000220E-01;1498; -1.5924305E-02;  0.0000000E+00; -1.8246388E-03;  1.0001673E+03;  4.0000001E-01;  1.3856393E+02;3; -9.7182837E+00;  0.0000000E+00; -1.0972364E+00;0; -1.1338412E-01;  1.0003949E+04;  0.0000000E+00; -5.1259826E-04;  1.0000000E+04;  0.0000000E+00;  9.9993984E+03; -1.3336471E-01;  0.0000000E+00;  1.9980587E-02;  2.8697482E+02;
  2.9998133E-01;  9.9999998E-03; -2.0000173E-01;1499; -1.5881065E-02;  0.0000000E+00; -1.4720460E-03;  1.0001680E+03;  4.0000001E-01;  1.3925526E+02;3; -9.5949287E+00;  0.0000000E+00; -9.3193692E-01;0; -1.1317319E-01;  1.0003886E+04;  0.0000000E+00; -3.1168074E-05;  1.0000000E+04;  0.0000000E+00;  9.9994775E+03; -1.3077158E-01;  0.0000000E+00;  1.7598385E-02;  2.4912056E+02;
  3.1997976E-01;  9.9999998E-03; -3.0000734E-01;1525; -1.6918838E-02;  0.0000000E+00; -5.3169243E-03;  1.0001833E+03;  4.0000001E-01;  1.5189688E+02;3; -1.2743315E+01;  0.0000000E+00; -3.4231608E+00;0; -1.2258035E-01;  1.0004799E+04;  0.0000000E+00; -1.3353812E-02;  1.0000000E+04;  0.0000000E+00;  9.9988701E+03; -1.5911682E-01;  0.0000000E+00;  3.6536474E-02;  5.3143115E+02;
  3.1997856E-01;  9.9999998E-03; -2.8000587E-01;1526; -1.7865470E-02;  0.0000000E+00; -4.3865386E-03;  1.0001915E+03;  4.0000001E-01;  1.5871150E+02;3; -1.2255098E+01;  0.0000000E+00; -2.6480243E+00;0; -1.2732485E-01;  1.0004817E+04;  0.0000000E+00; -7.3792720E-03;  1.0000000E+04;  0.0000000E+00;  9.9990137E+03; -1.5895480E-01;  0.0000000E+00;  3.1629950E-02;  4.6443301E+02;
  3.1997779E-01;  9.9999998E-03; -2.6000458E-01;1527; -1.8483864E-02;  0.0000000E+00; -3.5289603E-03;  1.0001951E+03;  4.0000001E-01;  1.6167438E+02;3; -1.1765081E+01;  0.0000000E+00; -2.0568876E+00;0; -1.2947616E-01;  1.0004807E+04;  0.0000000E+00; -2.6980056E-03;  1.0000000E+04;  0.0000000E+00;  9.9990996E+03; -1.5795286E-01;  0.0000000E+00;  2.8476696E-02;  4.2476175E+02;
  3.1997737E-01;  9.9999998E-03; -2.4000357E-01;1528; -1.8803228E-02;  0.0000000E+00; -2.8561968E-03;  1.0001962E+03;  4.0000001E-01;  1.6256325E+02;3; -1.1390468E+01;  0.0000000E+00; -1.6699715E+00;0; -1.2961528E-01;  1.0004770E+04;  0.0000000E+00; -5.9130444E-04;  1.0000000E+04;  0.0000000E+00;  9.9991572E+03; -1.5625769E-01;  0.0000000E+00;  2.6642419E-02;  3.9805084E+02;
  3.1997722E-01;  9.9999998E-03; -2.2000282E-01;1529; -1.8876068E-02;  0.0000000E+00; -2.3208656E-03;  1.0001974E+03;  4.0000001E-01;  1.6355087E+02;3; -1.1144912E+01;  0.0000000E+00; -1.3981802E+00;0; -1.2950143E-01;  1.0004711E+04;  0.0000000E+00; -5.3491611E-05;  1.0000000E+04;  0.0000000E+00;  9.9992402E+03; -1.5391982E-01;  0.0000000E+00;  2.4418382E-02;  3.6050851E+02;
  3.1997731E-01;  9.9999998E-03; -2.0000219E-01;1530; -1.8766515E-02;  0.0000000E+00; -1.8770855E-03;  1.0001986E+03;  4.0000001E-01;  1.6453850E+02;3; -1.0972399E+01;  0.0000000E+00; -1.1965088E+00;0; -1.2936257E-01;  1.0004629E+04;  0.0000000E+00;  1.7255537E-07;  1.0000000E+04;  0.0000000E+00;  9.9993447E+03; -1.5101378E-01;  0.0000000E+00;  2.1651214E-02;  3.1273773E+02;
  3.3997497E-01;  9.9999998E-03; -3.0000877E-01;1556; -2.0321621E-02;  0.0000000E+00; -6.1345417E-03;  1.0002205E+03;  4.0000001E-01;  1.8261203E+02;3; -1.4905639E+01;  0.0000000E+00; -3.8319786E+00;0; -1.4245465E-01;  1.0005742E+04;  0.0000000E+00; -2.1904814E-03;  1.0000000E+04;  0.0000000E+00;  9.9986670E+03; -1.8277480E-01;  0.0000000E+00;  4.0320136E-02;  6.2508026E+02;
  3.3997369E-01;  9.9999998E-03; -2.8000712E-01;1557; -2.1315947E-02;  0.0000000E+00; -5.1472415E-03;  1.0002276E+03;  4.0000001E-01;  1.8853780E+02;3; -1.4192988E+01;  0.0000000E+00; -3.0145712E+00;0; -1.4628622E-01;  1.0005740E+04;  0.0000000E+00; -1.0173996E-03;  1.0000000E+04;  0.0000000E+00;  9.9988125E+03; -1.8231769E-01;  0.0000000E+00;  3.6031473E-02;  5.6128796E+02;
  3.3997285E-01;  9.9999998E-03; -2.6000562E-01;1558; -2.1951588E-02;  0.0000000E+00; -4.2313887E-03;  1.0002308E+03;  4.0000001E-01;  1.9120438E+02;3; -1.3526033E+01;  0.0000000E+00; -2.4032288E+00;0; -1.4796850E-01;  1.0005719E+04;  0.0000000E+00; -2.5494045E-04;  1.0000000E+04;  0.0000000E+00;  9.9989004E+03; -1.8124779E-01;  0.0000000E+00;  3.3279289E-02;  5.2113666E+02;
  3.3997244E-01;  9.9999998E-03; -2.4000442E-01;1559; -2.2249592E-02;  0.0000000E+00; -3.4909162E-03;  1.0002318E+03;  4.0000001E-01;  1.9209325E+02;3; -1.3026879E+01;  0.0000000E+00; -2.0070336E+00;0; -1.4799006E-01;  1.0005670E+04;  0.0000000E+00; -1.6422058E-05;  1.0000000E+04;  0.0000000E+00;  9.9989707E+03; -1.7948440E-01;  0.0000000E+00;  3.1494334E-02;  4.8916040E+02;
  3.3997235E-01;  9.9999998E-03; -2.2000349E-01;1560; -2.2275183E-02;  0.0000000E+00; -2.8614041E-03;  1.0002332E+03;  4.0000001E-01;  1.9317964E+02;3; -1.2705943E+01;  0.0000000E+00; -1.7104408E+00;0; -1.4789726E-01;  1.0005595E+04;  0.0000000E+00;  1.5591460E-06;  1.0000000E+04;  0.0000000E+00;  9.9990693E+03; -1.7697230E-01;  0.0000000E+00;  2.9075047E-02;  4.4288327E+02;
  3.3997253E-01;  9.9999998E-03; -2.0000270E-01;1561; -2.2093700E-02;  0.0000000E+00; -2.3196621E-03;  1.0002344E+03;  4.0000001E-01;  1.9426602E+02;3; -1.2485119E+01;  0.0000000E+00; -1.4827259E+00;0; -1.4773536E-01;  1.0005493E+04;  0.0000000E+00;  1.3736275E-07;  1.0000000E+04;  0.0000000E+00;  9.9991914E+03; -1.7374307E-01;  0.0000000E+00;  2.6007704E-02;  3.8441635E+02;
  3.5996941E-01;  9.9999998E-03; -3.0001044E-01;1587; -2.4102340E-02;  0.0000000E+00; -7.0377872E-03;  1.0002635E+03;  4.0000001E-01;  2.1836406E+02;3; -1.7198219E+01;  0.0000000E+00; -4.2640486E+00;0; -1.6493455E-01;  1.0006831E+04;  0.0000000E+00; -1.2398713E-05;  1.0000000E+04;  0.0000000E+00;  9.9984434E+03; -2.0902674E-01;  0.0000000E+00;  4.4092197E-02;  7.3617377E+02;
  3.5996792E-01;  9.9999998E-03; -2.8000852E-01;1588; -2.5213074E-02;  0.0000000E+00; -5.9699202E-03;  1.0002701E+03;  4.0000001E-01;  2.2379601E+02;3; -1.6277914E+01;  0.0000000E+00; -3.3845191E+00;0; -1.6818492E-01;  1.0006820E+04;  0.0000000E+00;  1.9777721E-05;  1.0000000E+04;  0.0000000E+00;  9.9985869E+03; -2.0851983E-01;  0.0000000E+00;  4.0334906E-02;  6.7084253E+02;
  3.5996699E-01;  9.9999998E-03; -2.6000679E-01;1589; -2.5902066E-02;  0.0000000E+00; -4.9838629E-03;  1.0002732E+03;  4.0000001E-01;  2.2636383E+02;3; -1.5431752E+01;  0.0000000E+00; -2.7481167E+00;0; -1.6928566E-01;  1.0006785E+04;  0.0000000E+00;  1.6791480E-05;  1.0000000E+04;  0.0000000E+00;  9.9986787E+03; -2.0744911E-01;  0.0000000E+00;  3.8163453E-02;  6.2918475E+02;
  3.5996658E-01;  9.9999998E-03; -2.4000537E-01;1590; -2.6195269E-02;  0.0000000E+00; -4.1740243E-03;  1.0002741E+03;  4.0000001E-01;  2.2705518E+02;3; -1.4802594E+01;  0.0000000E+00; -2.3503098E+00;0; -1.6900849E-01;  1.0006727E+04;  0.0000000E+00;  6.9686594E-06;  1.0000000E+04;  0.0000000E+00;  9.9987568E+03; -2.0561357E-01;  0.0000000E+00;  3.6605079E-02;  5.9195020E+02;
  3.5996655E-01;  9.9999998E-03; -2.2000423E-01;1591; -2.6177000E-02;  0.0000000E+00; -3.4467129E-03;  1.0002754E+03;  4.0000001E-01;  2.2814156E+02;3; -1.4404249E+01;  0.0000000E+00; -2.0372753E+00;0; -1.6882861E-01;  1.0006632E+04;  0.0000000E+00;  1.7236695E-06;  1.0000000E+04;  0.0000000E+00;  9.9988770E+03; -2.0288657E-01;  0.0000000E+00;  3.4057956E-02;  5.3574884E+02;
  3.5996681E-01;  9.9999998E-03; -2.0000327E-01;1592; -2.5918534E-02;  0.0000000E+00; -2.8001075E-03;  1.0002766E+03;  4.0000001E-01;  2.2912918E+02;3; -1.4137468E+01;  0.0000000E+00; -1.7846898E+00;0; -1.6856690E-01;  1.0006507E+04;  0.0000000E+00;  1.0852475E-07;  1.0000000E+04;  0.0000000E+00;  9.9990264E+03; -1.9926681E-01;  0.0000000E+00;  3.0699911E-02;  4.6472427E+02;
  3.7996283E-01;  9.9999998E-03; -3.0001241E-01;1618; -2.8398136E-02;  0.0000000E+00; -8.0493335E-03;  1.0003139E+03;  4.0000001E-01;  2.6004184E+02;3; -1.9696020E+01;  0.0000000E+00; -4.7174644E+00;0; -1.9029894E-01;  1.0008115E+04;  0.0000000E+00;  2.9531497E-05;  1.0000000E+04;  0.0000000E+00;  9.9981680E+03; -2.3872882E-01;  0.0000000E+00;  4.8429880E-02;  8.7282410E+02;
  3.7996107E-01;  9.9999998E-03; -2.8001016E-01;1619; -2.9655535E-02;  0.0000000E+00; -6.8866760E-03;  1.0003207E+03;  4.0000001E-01;  2.6577005E+02;3; -1.8544420E+01;  0.0000000E+00; -3.7693226E+00;0; -1.9307317E-01;  1.0008098E+04;  0.0000000E+00;  3.4654324E-05;  1.0000000E+04;  0.0000000E+00;  9.9983203E+03; -2.3825622E-01;  0.0000000E+00;  4.5183048E-02;  8.0186707E+02;
  3.7996003E-01;  9.9999998E-03; -2.6000810E-01;1620; -3.0412592E-02;  0.0000000E+00; -5.8156783E-03;  1.0003235E+03;  4.0000001E-01;  2.6804160E+02;3; -1.7495842E+01;  0.0000000E+00; -3.1074703E+00;0; -1.9357544E-01;  1.0008054E+04;  0.0000000E+00;  2.1695083E-05;  1.0000000E+04;  0.0000000E+00;  9.9984199E+03; -2.3713616E-01;  0.0000000E+00;  4.3560721E-02;  7.5442737E+02;
  3.7995958E-01;  9.9999998E-03; -2.4000645E-01;1621; -3.0708287E-02;  0.0000000E+00; -4.9190228E-03;  1.0003242E+03;  4.0000001E-01;  2.6863419E+02;3; -1.6730970E+01;  0.0000000E+00; -2.6988161E+00;0; -1.9293043E-01;  1.0007970E+04;  0.0000000E+00;  8.6284908E-06;  1.0000000E+04;  0.0000000E+00;  9.9985156E+03; -2.3511794E-01;  0.0000000E+00;  4.2187516E-02;  7.0901141E+02;
  3.7995964E-01;  9.9999998E-03; -2.2000507E-01;1622; -3.0641956E-02;  0.0000000E+00; -4.0839333E-03;  1.0003253E+03;  4.0000001E-01;  2.6952304E+02;3; -1.6241585E+01;  0.0000000E+00; -2.3844309E+00;0; -1.9257653E-01;  1.0007847E+04;  0.0000000E+00;  1.9649322E-06;  1.0000000E+04;  0.0000000E+00;  9.9986611E+03; -2.3203884E-01;  0.0000000E+00;  3.9462313E-02;  6.4018140E+02;
  3.7996006E-01;  9.9999998E-03; -2.0000388E-01;1623; -3.0299019E-02;  0.0000000E+00; -3.3211114E-03;  1.0003262E+03;  4.0000001E-01;  2.7031314E+02;3; -1.5930761E+01;  0.0000000E+00; -2.1083136E+00;0; -1.9212094E-01;  1.0007684E+04;  0.0000000E+00;  9.4054677E-08;  1.0000000E+04;  0.0000000E+00;  9.9988408E+03; -2.2788233E-01;  0.0000000E+00;  3.5761394E-02;  5.5395447E+02;
  3.9995497E-01;  9.9999998E-03; -3.0001476E-01;1649; -3.3309150E-02;  0.0000000E+00; -9.1944253E-03;  1.0003736E+03;  4.0000001E-01;  3.0952182E+02;3; -2.2434139E+01;  0.0000000E+00; -5.1994600E+00;0; -2.1924031E-01;  1.0009654E+04;  0.0000000E+00;  3.8745216E-05;  1.0000000E+04;  0.0000000E+00;  9.9978223E+03; -2.7279657E-01;  0.0000000E+00;  5.3556256E-02;  1.0417660E+03;
  3.9995292E-01;  9.9999998E-03; -2.8001210E-01;1650; -3.4722906E-02;  0.0000000E+00; -7.9263560E-03;  1.0003808E+03;  4.0000001E-01;  3.1544757E+02;3; -2.1005211E+01;  0.0000000E+00; -4.1764131E+00;0; -2.2129613E-01;  1.0009618E+04;  0.0000000E+00;  4.5918423E-05;  1.0000000E+04;  0.0000000E+00;  9.9979990E+03; -2.7219287E-01;  0.0000000E+00;  5.0896741E-02;  9.5922461E+02;
  3.9995176E-01;  9.9999998E-03; -2.6000965E-01;1651; -3.5553377E-02;  0.0000000E+00; -6.7538926E-03;  1.0003834E+03;  4.0000001E-01;  3.1762033E+02;3; -1.9719946E+01;  0.0000000E+00; -3.4925613E+00;0; -2.2111087E-01;  1.0009550E+04;  0.0000000E+00;  2.8218170E-05;  1.0000000E+04;  0.0000000E+00;  9.9981230E+03; -2.7082610E-01;  0.0000000E+00;  4.9715240E-02;  8.9918304E+02;
  3.9995131E-01;  9.9999998E-03; -2.4000764E-01;1652; -3.5854239E-02;  0.0000000E+00; -5.7459893E-03;  1.0003835E+03;  4.0000001E-01;  3.1771909E+02;3; -1.8798815E+01;  0.0000000E+00; -3.0813885E+00;0; -2.2005068E-01;  1.0009432E+04;  0.0000000E+00;  1.0839056E-05;  1.0000000E+04;  0.0000000E+00;  9.9982422E+03; -2.6840892E-01;  0.0000000E+00;  4.8358250E-02;  8.4112317E+02;
  3.9995149E-01;  9.9999998E-03; -2.2000599E-01;1653; -3.5735656E-02;  0.0000000E+00; -4.7835642E-03;  1.0003842E+03;  4.0000001E-01;  3.1831168E+02;3; -1.8218512E+01;  0.0000000E+00; -2.7610514E+00;0; -2.1941675E-01;  1.0009264E+04;  0.0000000E+00;  2.3024079E-06;  1.0000000E+04;  0.0000000E+00;  9.9984219E+03; -2.6475266E-01;  0.0000000E+00;  4.5335904E-02;  7.5626349E+02;
  3.9995208E-01;  9.9999998E-03; -2.0000458E-01;1654; -3.5298157E-02;  0.0000000E+00; -3.8894466E-03;  1.0003844E+03;  4.0000001E-01;  3.1850919E+02;3; -1.7868082E+01;  0.0000000E+00; -2.4580872E+00;0; -2.1865140E-01;  1.0009048E+04;  0.0000000E+00;  8.2567176E-08;  1.0000000E+04;  0.0000000E+00;  9.9986436E+03; -2.5983849E-01;  0.0000000E+00;  4.1187089E-02;  6.5176306E+02;
  4.1994560E-01;  9.9999998E-03; -3.0001757E-01;1680; -3.8911473E-02;  0.0000000E+00; -1.0511577E-02;  1.0004449E+03;  4.0000001E-01;  3.6858170E+02;3; -2.5413202E+01;  0.0000000E+00; -5.7320914E+00;0; -2.5218287E-01;  1.0011494E+04;  0.0000000E+00;  4.8671409E-05;  1.0000000E+04;  0.0000000E+00;  9.9974072E+03; -3.1183133E-01;  0.0000000E+00;  5.9648443E-02;  1.2488474E+03;
  4.1994321E-01;  9.9999998E-03; -2.8001440E-01;1681; -4.0493421E-02;  0.0000000E+00; -9.1243703E-03;  1.0004521E+03;  4.0000001E-01;  3.7460620E+02;3; -2.3663111E+01;  0.0000000E+00; -4.6201935E+00;0; -2.5313860E-01;  1.0011427E+04;  0.0000000E+00;  6.0173959E-05;  1.0000000E+04;  0.0000000E+00;  9.9976240E+03; -3.1083646E-01;  0.0000000E+00;  5.7697862E-02;  1.1442803E+03;
  4.1994190E-01;  9.9999998E-03; -2.6001143E-01;1682; -4.1400891E-02;  0.0000000E+00; -7.8230174E-03;  1.0004548E+03;  4.0000001E-01;  3.7677899E+02;3; -2.2102013E+01;  0.0000000E+00; -3.9232848E+00;0; -2.5222346E-01;  1.0011309E+04;  0.0000000E+00;  3.6816229E-05;  1.0000000E+04;  0.0000000E+00;  9.9977900E+03; -3.0893114E-01;  0.0000000E+00;  5.6707680E-02;  1.0621758E+03;
  4.1994151E-01;  9.9999998E-03; -2.4000901E-01;1683; -4.1706771E-02;  0.0000000E+00; -6.6705602E-03;  1.0004539E+03;  4.0000001E-01;  3.7608765E+02;3; -2.1005585E+01;  0.0000000E+00; -3.5081806E+00;0; -2.5068057E-01;  1.0011138E+04;  0.0000000E+00;  1.3846724E-05;  1.0000000E+04;  0.0000000E+00;  9.9979434E+03; -3.0580181E-01;  0.0000000E+00;  5.5121258E-02;  9.8678973E+02;
  4.1994184E-01;  9.9999998E-03; -2.2000702E-01;1684; -4.1530196E-02;  0.0000000E+00; -5.5564921E-03;  1.0004531E+03;  4.0000001E-01;  3.7539630E+02;3; -2.0334421E+01;  0.0000000E+00; -3.1728086E+00;0; -2.4961947E-01;  1.0010900E+04;  0.0000000E+00;  2.8320355E-06;  1.0000000E+04;  0.0000000E+00;  9.9981631E+03; -3.0125302E-01;  0.0000000E+00;  5.1633555E-02;  8.8268591E+02;
  4.1994271E-01;  9.9999998E-03; -2.0000537E-01;1685; -4.0983409E-02;  0.0000000E+00; -4.5170016E-03;  1.0004520E+03;  4.0000001E-01;  3.7450745E+02;3; -1.9953196E+01;  0.0000000E+00; -2.8341265E+00;0; -2.4838524E-01;  1.0010620E+04;  0.0000000E+00;  9.5380521E-08;  1.0000000E+04;  0.0000000E+00;  9.9984258E+03; -2.9528707E-01;  0.0000000E+00;  4.6901841E-02;  7.5709283E+02;
  4.3993437E-01;  9.9999998E-03; -3.0002093E-01;1711; -4.5300920E-02;  0.0000000E+00; -1.2043341E-02;  1.0005288E+03;  4.0000001E-01;  4.3811035E+02;3; -2.8655277E+01;  0.0000000E+00; -6.3034511E+00;0; -2.8934732E-01;  1.0013677E+04;  0.0000000E+00;  5.6982051E-05;  1.0000000E+04;  0.0000000E+00;  9.9969043E+03; -3.5629073E-01;  0.0000000E+00;  6.6943400E-02;  1.4962981E+03;
  4.3993166E-01;  9.9999998E-03; -2.8001708E-01;1712; -4.7059704E-02;  0.0000000E+00; -1.0522897E-02;  1.0005370E+03;  4.0000001E-01;  4.4492496E+02;3; -2.6518173E+01;  0.0000000E+00; -5.1181369E+00;0; -2.8883317E-01;  1.0013548E+04;  0.0000000E+00;  7.7868797E-05;  1.0000000E+04;  0.0000000E+00;  9.9971953E+03; -3.5452843E-01;  0.0000000E+00;  6.5695263E-02;  1.3537173E+03;
  4.3993023E-01;  9.9999998E-03; -2.6001346E-01;1713; -4.8046034E-02;  0.0000000E+00; -9.0434402E-03;  1.0005394E+03;  4.0000001E-01;  4.4690021E+02;3; -2.4637537E+01;  0.0000000E+00; -4.4120374E+00;0; -2.8726178E-01;  1.0013359E+04;  0.0000000E+00;  4.8450500E-05;  1.0000000E+04;  0.0000000E+00;  9.9974316E+03; -3.5167417E-01;  0.0000000E+00;  6.4412378E-02;  1.2373376E+03;
  4.3992990E-01;  9.9999998E-03; -2.4001054E-01;1714; -4.8352931E-02;  0.0000000E+00; -7.7015213E-03;  1.0005363E+03;  4.0000001E-01;  4.4433237E+02;3; -2.3346722E+01;  0.0000000E+00; -3.9836419E+00;0; -2.8510469E-01;  1.0013104E+04;  0.0000000E+00;  1.8358327E-05;  1.0000000E+04;  0.0000000E+00;  9.9976279E+03; -3.4740853E-01;  0.0000000E+00;  6.2303856E-02;  1.1418694E+03;
  4.3993050E-01;  9.9999998E-03; -2.2000821E-01;1715; -4.8106842E-02;  0.0000000E+00; -6.4152228E-03;  1.0005334E+03;  4.0000001E-01;  4.4186331E+02;3; -2.2588545E+01;  0.0000000E+00; -3.6196563E+00;0; -2.8336444E-01;  1.0012780E+04;  0.0000000E+00;  3.8885096E-06;  1.0000000E+04;  0.0000000E+00;  9.9978887E+03; -3.4155825E-01;  0.0000000E+00;  5.8193807E-02;  1.0169695E+03;
  4.3993172E-01;  9.9999998E-03; -2.0000632E-01;1716; -4.7429275E-02;  0.0000000E+00; -5.2244440E-03;  1.0005299E+03;  4.0000001E-01;  4.3899921E+02;3; -2.2189276E+01;  0.0000000E+00; -3.2344236E+00;0; -2.8142503E-01;  1.0012406E+04;  0.0000000E+00;  2.2710948E-07;  1.0000000E+04;  0.0000000E+00;  9.9982012E+03; -3.3418146E-01;  0.0000000E+00;  5.2756421E-02;  8.6877704E+02;
  4.5992088E-01;  9.9999998E-03; -3.0002502E-01;1742; -5.2598808E-02;  0.0000000E+00; -1.3856460E-02;  1.0006279E+03;  4.0000048E-01;  5.2018164E+02;3; -3.2170067E+01;  0.0000000E+00; -6.9348502E+00;0; -3.3053035E-01;  1.0016215E+04;  0.0000000E+00;  6.1034996E-05;  1.0000000E+04;  0.0000000E+00;  9.9963242E+03; -4.0618947E-01;  0.0000000E+00;  7.5659126E-02;  1.7837111E+03;
  4.5991781E-01;  9.9999998E-03; -2.8002030E-01;1743; -5.4536365E-02;  0.0000000E+00; -1.2171287E-02;  1.0006377E+03;  4.0000054E-01;  5.2828015E+02;3; -2.9572546E+01;  0.0000000E+00; -5.6923194E+00;0; -3.2836267E-01;  1.0015996E+04;  0.0000000E+00;  1.0063162E-04;  1.0000000E+04;  0.0000000E+00;  9.9967402E+03; -4.0314525E-01;  0.0000000E+00;  7.4782573E-02;  1.5769982E+03;
  4.5991632E-01;  9.9999998E-03; -2.6001579E-01;1744; -5.5597767E-02;  0.0000000E+00; -1.0432187E-02;  1.0006397E+03;  4.0000054E-01;  5.2995911E+02;3; -2.7324217E+01;  0.0000000E+00; -4.9730477E+00;0; -3.2638270E-01;  1.0015706E+04;  0.0000000E+00;  6.5488617E-05;  1.0000000E+04;  0.0000000E+00;  9.9970723E+03; -3.9880329E-01;  0.0000000E+00;  7.2420612E-02;  1.4140253E+03;
  4.5991620E-01;  9.9999998E-03; -2.4001230E-01;1745; -5.5894528E-02;  0.0000000E+00; -8.8514797E-03;  1.0006330E+03;  4.0000045E-01;  5.2442841E+02;3; -2.5820707E+01;  0.0000000E+00; -4.5080838E+00;0; -3.2329816E-01;  1.0015334E+04;  0.0000000E+00;  2.5976877E-05;  1.0000000E+04;  0.0000000E+00;  9.9973047E+03; -3.9286837E-01;  0.0000000E+00;  6.9570199E-02;  1.3009098E+03;
  4.5991713E-01;  9.9999998E-03; -2.2000965E-01;1746; -5.5557556E-02;  0.0000000E+00; -7.3848069E-03;  1.0006257E+03;  4.0000054E-01;  5.1840393E+02;3; -2.4982443E+01;  0.0000000E+00; -4.0991254E+00;0; -3.2046527E-01;  1.0014893E+04;  0.0000000E+00;  6.2278054E-06;  1.0000000E+04;  0.0000000E+00;  9.9976055E+03; -3.8523173E-01;  0.0000000E+00;  6.4766474E-02;  1.1570372E+03;
  4.5991883E-01;  9.9999998E-03; -2.0000757E-01;1747; -5.4718032E-02;  0.0000000E+00; -6.0521080E-03;  1.0006190E+03;  4.0000057E-01;  5.1277448E+02;3; -2.4580851E+01;  0.0000000E+00; -3.6515408E+00;0; -3.1747997E-01;  1.0014401E+04;  0.0000000E+00;  6.9891178E-07;  1.0000000E+04;  0.0000000E+00;  9.9979609E+03; -3.7604806E-01;  0.0000000E+00;  5.8568105E-02;  9.8719952E+02;
  4.7990456E-01;  9.9999998E-03; -3.0002999E-01;1773; -6.0969934E-02;  0.0000000E+00; -1.6032407E-02;  1.0007415E+03;  4.0000147E-01;  6.1430176E+02;3; -3.5982513E+01;  0.0000000E+00; -7.6608295E+00;0; -3.7473911E-01;  1.0019081E+04;  0.0000000E+00;  5.8539965E-05;  1.0000000E+04;  0.0000000E+00;  9.9956826E+03; -4.6047992E-01;  0.0000000E+00;  8.5740805E-02;  2.0992837E+03;
  4.7990125E-01;  9.9999998E-03; -2.8002408E-01;1774; -6.3067228E-02;  0.0000000E+00; -1.4128150E-02;  1.0007549E+03;  4.0000144E-01;  6.2546191E+02;3; -3.2834213E+01;  0.0000000E+00; -6.3681026E+00;0; -3.7100357E-01;  1.0018733E+04;  0.0000000E+00;  1.3268218E-04;  1.0000000E+04;  0.0000000E+00;  9.9962988E+03; -4.5553502E-01;  0.0000000E+00;  8.4531464E-02;  1.7938669E+03;
  4.7989982E-01;  9.9999998E-03; -2.6001847E-01;1775; -6.4185031E-02;  0.0000000E+00; -1.2006969E-02;  1.0007552E+03;  4.0000156E-01;  6.2565942E+02;3; -3.0161606E+01;  0.0000000E+00; -5.6053991E+00;0; -3.6903614E-01;  1.0018301E+04;  0.0000000E+00;  9.2870963E-05;  1.0000000E+04;  0.0000000E+00;  9.9967412E+03; -4.4907853E-01;  0.0000000E+00;  8.0042377E-02;  1.5787441E+03;
  4.7990006E-01;  9.9999998E-03; -2.4001440E-01;1776; -6.4443253E-02;  0.0000000E+00; -1.0143315E-02;  1.0007415E+03;  4.0000144E-01;  6.1430176E+02;3; -2.8430347E+01;  0.0000000E+00; -5.0721221E+00;0; -3.6441386E-01;  1.0017780E+04;  0.0000000E+00;  3.9906114E-05;  1.0000000E+04;  0.0000000E+00;  9.9969814E+03; -4.4088933E-01;  0.0000000E+00;  7.6475471E-02;  1.4605009E+03;
  4.7990149E-01;  9.9999998E-03; -2.2001150E-01;1777; -6.3977487E-02;  0.0000000E+00; -8.5164243E-03;  1.0007281E+03;  4.0000147E-01;  6.0324036E+02;3; -2.7518518E+01;  0.0000000E+00; -4.6008229E+00;0; -3.5986349E-01;  1.0017188E+04;  0.0000000E+00;  1.1444397E-05;  1.0000000E+04;  0.0000000E+00;  9.9973066E+03; -4.3096998E-01;  0.0000000E+00;  7.1106493E-02;  1.3047457E+03;
  4.7990382E-01;  9.9999998E-03; -2.0000932E-01;1778; -6.2933095E-02;  0.0000000E+00; -7.0796921E-03;  1.0007166E+03;  4.0000144E-01;  5.9366040E+02;3; -2.7129219E+01;  0.0000000E+00; -4.0868702E+00;0; -3.5539228E-01;  1.0016563E+04;  0.0000000E+00;  2.2626450E-06;  1.0000000E+04;  0.0000000E+00;  9.9976992E+03; -4.1960964E-01;  0.0000000E+00;  6.4217344E-02;  1.1172577E+03;
  4.9988469E-01;  9.9999998E-03; -3.0003610E-01;1804; -7.0642196E-02;  0.0000000E+00; -1.8672926E-02;  1.0008663E+03;  4.0000346E-01;  7.1770520E+02;3; -4.0140625E+01;  0.0000000E+00; -8.5128546E+00;0; -4.1937360E-01;  1.0022129E+04;  0.0000000E+00;  5.0648276E-05;  1.0000000E+04;  0.0000000E+00;  9.9950313E+03; -5.1623136E-01;  0.0000000E+00;  9.6857764E-02;  2.4193018E+03;
  4.9988139E-01;  9.9999998E-03; -2.8002858E-01;1805; -7.2825760E-02;  0.0000000E+00; -1.6458219E-02;  1.0008854E+03;  4.0000352E-01;  7.3360596E+02;3; -3.6320339E+01;  0.0000000E+00; -7.1749325E+00;0; -4.1472578E-01;  1.0021620E+04;  0.0000000E+00;  1.8474642E-04;  1.0000000E+04;  0.0000000E+00;  9.9959248E+03; -5.0878924E-01;  0.0000000E+00;  9.4063468E-02;  1.9760245E+03;
  4.9988028E-01;  9.9999998E-03; -2.6002163E-01;1806; -7.3943816E-02;  0.0000000E+00; -1.3796618E-02;  1.0008815E+03;  4.0000349E-01;  7.3024805E+02;3; -3.3159271E+01;  0.0000000E+00; -6.3081169E+00;0; -4.1322261E-01;  1.0021012E+04;  0.0000000E+00;  1.4145325E-04;  1.0000000E+04;  0.0000000E+00;  9.9964580E+03; -4.9963644E-01;  0.0000000E+00;  8.6413831E-02;  1.7212272E+03;
  4.9988112E-01;  9.9999998E-03; -2.4001710E-01;1807; -7.4103624E-02;  0.0000000E+00; -1.1636858E-02;  1.0008566E+03;  4.0000352E-01;  7.0960675E+02;3; -3.1181425E+01;  0.0000000E+00; -5.6618280E+00;0; -4.0600720E-01;  1.0020318E+04;  0.0000000E+00;  6.6720429E-05;  1.0000000E+04;  0.0000000E+00;  9.9966514E+03; -4.8869142E-01;  0.0000000E+00;  8.2684219E-02;  1.6267744E+03;
  4.9988329E-01;  9.9999998E-03; -2.2001408E-01;1808; -7.3449463E-02;  0.0000000E+00; -9.9121798E-03;  1.0008348E+03;  4.0000343E-01;  6.9163202E+02;3; -3.0199379E+01;  0.0000000E+00; -5.1211247E+00;0; -3.9895210E-01;  1.0019558E+04;  0.0000000E+00;  2.2673245E-05;  1.0000000E+04;  0.0000000E+00;  9.9969717E+03; -4.7611022E-01;  0.0000000E+00;  7.7158131E-02;  1.4720343E+03;
  4.9988639E-01;  9.9999998E-03; -2.0001191E-01;1809; -7.2146341E-02;  0.0000000E+00; -8.4400699E-03;  1.0008168E+03;  4.0000355E-01;  6.7671887E+02;3; -2.9837957E+01;  0.0000000E+00; -4.5286212E+00;0; -3.9253917E-01;  1.0018782E+04;  0.0000000E+00;  6.5953113E-06;  1.0000000E+04;  0.0000000E+00;  9.9973867E+03; -4.6234149E-01;  0.0000000E+00;  6.9802307E-02;  1.2729518E+03;
  5.1986033E-01;  9.9999998E-03; -3.0004367E-01;1835; -8.1899770E-02;  0.0000000E+00; -2.1911468E-02;  1.0009998E+03;  4.0000960E-01;  8.2831781E+02;3; -4.4714691E+01;  0.0000000E+00; -9.5347347E+00;0; -4.5941964E-01;  1.0025090E+04;  0.0000000E+00;  4.7653746E-05;  1.0000000E+04;  0.0000000E+00;  9.9944326E+03; -5.6791264E-01;  0.0000000E+00;  1.0849299E-01;  2.7114436E+03;
  5.1985770E-01;  9.9999998E-03; -2.8003407E-01;1836; -8.3989903E-02;  0.0000000E+00; -1.9251278E-02;  1.0010272E+03;  4.0000960E-01;  8.5093433E+02;3; -4.0054123E+01;  0.0000000E+00; -8.1395054E+00;0; -4.5525607E-01;  1.0024397E+04;  0.0000000E+00;  2.8080575E-04;  1.0000000E+04;  0.0000000E+00;  9.9956660E+03; -5.5762142E-01;  0.0000000E+00;  1.0236534E-01;  2.1026611E+03;
  5.1985741E-01;  9.9999998E-03; -2.6002562E-01;1837; -8.4983110E-02;  0.0000000E+00; -1.5884578E-02;  1.0010139E+03;  4.0000954E-01;  8.3997174E+02;3; -3.6329376E+01;  0.0000000E+00; -7.0700059E+00;0; -4.5447662E-01;  1.0023597E+04;  0.0000000E+00;  2.3498783E-04;  1.0000000E+04;  0.0000000E+00;  9.9962041E+03; -5.4545480E-01;  0.0000000E+00;  9.0978168E-02;  1.8494957E+03;
  5.1985919E-01;  9.9999998E-03; -2.4002089E-01;1838; -8.4937349E-02;  0.0000000E+00; -1.3482073E-02;  1.0009720E+03;  4.0000966E-01;  8.0530627E+02;3; -3.4072083E+01;  0.0000000E+00; -6.2664232E+00;0; -4.4318771E-01;  1.0022720E+04;  0.0000000E+00;  1.2050362E-04;  1.0000000E+04;  0.0000000E+00;  9.9962520E+03; -5.3154719E-01;  0.0000000E+00;  8.8359490E-02;  1.8259117E+03;
  5.1986235E-01;  9.9999998E-03; -2.2001794E-01;1839; -8.4017083E-02;  0.0000000E+00; -1.1760892E-02;  1.0009401E+03;  4.0000966E-01;  7.7883801E+02;3; -3.3027779E+01;  0.0000000E+00; -5.6338997E+00;0; -4.3290621E-01;  1.0021792E+04;  0.0000000E+00;  4.5754186E-05;  1.0000000E+04;  0.0000000E+00;  9.9965371E+03; -5.1623547E-01;  0.0000000E+00;  8.3329268E-02;  1.6891213E+03;
  5.1986641E-01;  9.9999998E-03; -2.0001586E-01;1840; -8.2390673E-02;  0.0000000E+00; -1.0342966E-02;  1.0009157E+03;  4.0000960E-01;  7.5869055E+02;3; -3.2701389E+01;  0.0000000E+00; -4.9642620E+00;0; -4.2428723E-01;  1.0020873E+04;  0.0000000E+00;  1.5796955E-05;  1.0000000E+04;  0.0000000E+00;  9.9969609E+03; -5.0012296E-01;  0.0000000E+00;  7.5835742E-02;  1.4834955E+03;
  5.3983074E-01;  9.9999998E-03; -3.0005312E-01;1866; -9.4990626E-02;  0.0000000E+00; -2.5902219E-02;  1.0011385E+03;  4.0002584E-01;  9.4327515E+02;3; -4.9764969E+01;  0.0000000E+00; -1.0772789E+01;0; -4.8732227E-01;  1.0027513E+04;  0.0000000E+00;  7.2076495E-05;  1.0000000E+04;  0.0000000E+00;  9.9939600E+03; -6.0715503E-01;  0.0000000E+00;  1.1983275E-01;  2.9399192E+03;
  5.3982979E-01;  9.9999998E-03; -2.8004104E-01;1867; -9.6653871E-02;  0.0000000E+00; -2.2636296E-02;  1.0011741E+03;  4.0002584E-01;  9.7270618E+02;3; -4.4041485E+01;  0.0000000E+00; -9.3003654E+00;0; -4.8565507E-01;  1.0026652E+04;  0.0000000E+00;  4.6675297E-04;  1.0000000E+04;  0.0000000E+00;  9.9955352E+03; -5.9417051E-01;  0.0000000E+00;  1.0851543E-01;  2.1683301E+03;
  5.3983116E-01;  9.9999998E-03; -2.6003113E-01;1868; -9.7302243E-02;  0.0000000E+00; -1.8468700E-02;  1.0011438E+03;  4.0002584E-01;  9.4762067E+02;3; -3.9660748E+01;  0.0000000E+00; -7.9014707E+00;0; -4.8512766E-01;  1.0025684E+04;  0.0000000E+00;  4.2217798E-04;  1.0000000E+04;  0.0000000E+00;  9.9958984E+03; -5.7921141E-01;  0.0000000E+00;  9.4083756E-02;  2.0033492E+03;
  5.3983438E-01;  9.9999998E-03; -2.4002647E-01;1869; -9.6909679E-02;  0.0000000E+00; -1.5943743E-02;  1.0010804E+03;  4.0002590E-01;  8.9507928E+02;3; -3.7099709E+01;  0.0000000E+00; -6.8922749E+00;0; -4.6830329E-01;  1.0024643E+04;  0.0000000E+00;  2.3100433E-04;  1.0000000E+04;  0.0000000E+00;  9.9956758E+03; -5.6267965E-01;  0.0000000E+00;  9.4376363E-02;  2.1103767E+03;
  5.3983879E-01;  9.9999998E-03; -2.2002380E-01;1870; -9.5613383E-02;  0.0000000E+00; -1.4354598E-02;  1.0010375E+03;  4.0002593E-01;  8.5952502E+02;3; -3.5994278E+01;  0.0000000E+00; -6.1678424E+00;0; -4.5445222E-01;  1.0023579E+04;  0.0000000E+00;  9.1887887E-05;  1.0000000E+04;  0.0000000E+00;  9.9958828E+03; -5.4508859E-01;  0.0000000E+00;  9.0636387E-02;  2.0097648E+03;
  5.3984392E-01;  9.9999998E-03; -2.0002180E-01;1871; -9.3608342E-02;  0.0000000E+00; -1.3057077E-02;  1.0010080E+03;  4.0002590E-01;  8.3513080E+02;3; -3.5707897E+01;  0.0000000E+00; -5.4406300E+00;0; -4.4378680E-01;  1.0022546E+04;  0.0000000E+00;  3.1590553E-05;  1.0000000E+04;  0.0000000E+00;  9.9963193E+03; -5.2716154E-01;  0.0000000E+00;  8.3374724E-02;  1.7984591E+03;
  5.5979568E-01;  9.9999998E-03; -3.0006528E-01;1897; -1.0990044E-01;  0.0000000E+00; -3.0838830E-02;  1.0012958E+03;  4.0006953E-01;  1.0735396E+03;3; -5.5254841E+01;  0.0000000E+00; -1.2284721E+01;0; -4.9252421E-01;  1.0028793E+04;  0.0000000E+00;  1.5681722E-04;  1.0000000E+04;  0.0000000E+00;  9.9936260E+03; -6.2280101E-01;  0.0000000E+00;  1.3027681E-01;  3.0958865E+03;
  5.5979812E-01;  9.9999998E-03; -2.8005043E-01;1898; -1.1065986E-01;  0.0000000E+00; -2.6841071E-02;  1.0013373E+03;  4.0006959E-01;  1.1079086E+03;3; -4.8226295E+01;  0.0000000E+00; -1.0710666E+01;0; -4.9554265E-01;  1.0027824E+04;  0.0000000E+00;  8.1607851E-04;  1.0000000E+04;  0.0000000E+00;  9.9954268E+03; -6.0809141E-01;  0.0000000E+00;  1.1254878E-01;  2.2190867E+03;
  5.5980211E-01;  9.9999998E-03; -2.6003927E-01;1899; -1.1067916E-01;  0.0000000E+00; -2.1879621E-02;  1.0012816E+03;  4.0006950E-01;  1.0617869E+03;3; -4.3106247E+01;  0.0000000E+00; -8.8293066E+00;0; -4.9447039E-01;  1.0026754E+04;  0.0000000E+00;  7.8799779E-04;  1.0000000E+04;  0.0000000E+00;  9.9953848E+03; -5.9145445E-01;  0.0000000E+00;  9.6984066E-02;  2.2571663E+03;
  5.5980724E-01;  9.9999998E-03; -2.4003483E-01;1900; -1.0975377E-01;  0.0000000E+00; -1.9341365E-02;  1.0011942E+03;  4.0006962E-01;  9.8939459E+02;3; -4.0220535E+01;  0.0000000E+00; -7.4913106E+00;0; -4.7138718E-01;  1.0025634E+04;  0.0000000E+00;  4.5261157E-04;  1.0000000E+04;  0.0000000E+00;  9.9947617E+03; -5.7350266E-01;  0.0000000E+00;  1.0211549E-01;  2.5559915E+03;
  5.5981308E-01;  9.9999998E-03; -2.2003245E-01;1901; -1.0796304E-01;  0.0000000E+00; -1.8044328E-02;  1.0011427E+03;  4.0006971E-01;  9.4672949E+02;3; -3.9031395E+01;  0.0000000E+00; -6.7195663E+00;0; -4.5425391E-01;  1.0024505E+04;  0.0000000E+00;  1.8151420E-04;  1.0000000E+04;  0.0000000E+00;  9.9948594E+03; -5.5484098E-01;  0.0000000E+00;  1.0058708E-01;  2.5079805E+03;
  5.5981934E-01;  9.9999998E-03; -2.0003036E-01;1902; -1.0555877E-01;  0.0000000E+00; -1.6853604E-02;  1.0011118E+03;  4.0006956E-01;  9.2115021E+02;3; -3.8804497E+01;  0.0000000E+00; -5.9007292E+00;0; -4.4231206E-01;  1.0023428E+04;  0.0000000E+00;  5.4163847E-05;  1.0000000E+04;  0.0000000E+00;  9.9953174E+03; -5.3623772E-01;  0.0000000E+00;  9.3925670E-02;  2.2858162E+03;
  5.7975662E-01;  9.9999998E-03; -3.0008134E-01;1928; -1.2601669E-01;  0.0000000E+00; -3.7012286E-02;  1.0015373E+03;  4.0018556E-01;  1.2736265E+03;3; -6.0944004E+01;  0.0000000E+00; -1.4257842E+01;0; -4.5987141E-01;  1.0028146E+04;  0.0000000E+00;  3.3895639E-04;  1.0000000E+04;  0.0000000E+00;  9.9932822E+03; -6.0039866E-01;  0.0000000E+00;  1.4052723E-01;  3.2442075E+03;
  5.7976407E-01;  9.9999998E-03; -2.8006393E-01;1929; -1.2537056E-01;  0.0000000E+00; -3.2235313E-02;  1.0015787E+03;  4.0018567E-01;  1.3078966E+03;3; -5.2411316E+01;  0.0000000E+00; -1.2423400E+01;0; -4.6975860E-01;  1.0027196E+04;  0.0000000E+00;  1.4339089E-03;  1.0000000E+04;  0.0000000E+00;  9.9950615E+03; -5.8602369E-01;  0.0000000E+00;  1.1626508E-01;  2.3870488E+03;
  5.7977152E-01;  9.9999998E-03; -2.6005149E-01;1930; -1.2446462E-01;  0.0000000E+00; -2.6599826E-02;  1.0014953E+03;  4.0018570E-01;  1.2387637E+03;3; -4.6518929E+01;  0.0000000E+00; -9.9225235E+00;0; -4.6807441E-01;  1.0026161E+04;  0.0000000E+00;  1.4591427E-03;  1.0000000E+04;  0.0000000E+00;  9.9944336E+03; -5.7006860E-01;  0.0000000E+00;  1.0199418E-01;  2.7156514E+03;
  5.7977891E-01;  9.9999998E-03; -2.4004698E-01;1931; -1.2286495E-01;  0.0000000E+00; -2.4124740E-02;  1.0013871E+03;  4.0018567E-01;  1.1491871E+03;3; -4.3310814E+01;  0.0000000E+00; -8.1403036E+00;0; -4.3999556E-01;  1.0025099E+04;  0.0000000E+00;  8.6749956E-04;  1.0000000E+04;  0.0000000E+00;  9.9933389E+03; -5.5315691E-01;  0.0000000E+00;  1.1316136E-01;  3.2424917E+03;
  5.7978642E-01;  9.9999998E-03; -2.2004470E-01;1932; -1.2052399E-01;  0.0000000E+00; -2.3063598E-02;  1.0013320E+03;  4.0018567E-01;  1.1035594E+03;3; -4.2098763E+01;  0.0000000E+00; -7.0012884E+00;0; -4.2130175E-01;  1.0024041E+04;  0.0000000E+00;  3.4576771E-04;  1.0000000E+04;  0.0000000E+00;  9.9932949E+03; -5.3575987E-01;  0.0000000E+00;  1.1445811E-01;  3.2614709E+03;
  5.7979375E-01;  9.9999998E-03; -2.0004188E-01;1933; -1.1769642E-01;  0.0000000E+00; -2.1958150E-02;  1.0013063E+03;  4.0018579E-01;  1.0822269E+03;3; -4.1864925E+01;  0.0000000E+00; -6.3049879E+00;0; -4.0949345E-01;  1.0023029E+04;  0.0000000E+00;  8.3375948E-05;  1.0000000E+04;  0.0000000E+00;  9.9937969E+03; -5.1848966E-01;  0.0000000E+00;  1.0899623E-01;  3.0180034E+03;
  5.9971696E-01;  9.9999998E-03; -3.0010337E-01;1959; -1.4195424E-01;  0.0000000E+00; -4.4839870E-02;  1.0020610E+03;  4.0048024E-01;  1.7074774E+03;3; -6.6420639E+01;  0.0000000E+00; -1.7082605E+01;0; -3.6854494E-01;  1.0024704E+04;  0.0000000E+00;  6.4116548E-04;  1.0000000E+04;  0.0000000E+00;  9.9924639E+03; -5.2218330E-01;  0.0000000E+00;  1.5363835E-01;  3.6125479E+03;
  5.9973013E-01;  9.9999998E-03; -2.8008410E-01;1960; -1.3963954E-01;  0.0000000E+00; -3.9437141E-02;  1.0020951E+03;  4.0048048E-01;  1.7357230E+03;3; -5.6295067E+01;  0.0000000E+00; -1.4535445E+01;0; -3.8646182E-01;  1.0023948E+04;  0.0000000E+00;  2.4227991E-03;  1.0000000E+04;  0.0000000E+00;  9.9938955E+03; -5.1127726E-01;  0.0000000E+00;  1.2481543E-01;  2.9356050E+03;
  5.9974122E-01;  9.9999998E-03; -2.6006979E-01;1961; -1.3769239E-01;  0.0000000E+00; -3.3273559E-02;  1.0019985E+03;  4.0048054E-01;  1.6556279E+03;3; -4.9681068E+01;  0.0000000E+00; -1.1255754E+01;0; -3.8767797E-01;  1.0023142E+04;  0.0000000E+00;  2.5648708E-03;  1.0000000E+04;  0.0000000E+00;  9.9927793E+03; -4.9943978E-01;  0.0000000E+00;  1.1176182E-01;  3.5088728E+03;
  5.9975111E-01;  9.9999998E-03; -2.4006395E-01;1962; -1.3544179E-01;  0.0000000E+00; -3.0586055E-02;  1.0018820E+03;  4.0048069E-01;  1.5592373E+03;3; -4.6322796E+01;  0.0000000E+00; -8.5305843E+00;0; -3.5929412E-01;  1.0022324E+04;  0.0000000E+00;  1.5677291E-03;  1.0000000E+04;  0.0000000E+00;  9.9912754E+03; -4.8710844E-01;  0.0000000E+00;  1.2781431E-01;  4.2336475E+03;
  5.9976000E-01;  9.9999998E-03; -2.2006030E-01;1963; -1.3254847E-01;  0.0000000E+00; -2.9563481E-02;  1.0018328E+03;  4.0048081E-01;  1.5183502E+03;3; -4.4983376E+01;  0.0000000E+00; -7.2878008E+00;0; -3.4180373E-01;  1.0021512E+04;  0.0000000E+00;  6.2368758E-04;  1.0000000E+04;  0.0000000E+00;  9.9911035E+03; -4.7439855E-01;  0.0000000E+00;  1.3259484E-01;  4.3132290E+03;
  5.9976834E-01;  9.9999998E-03; -2.0005602E-01;1964; -1.2935810E-01;  0.0000000E+00; -2.8290140E-02;  1.0018204E+03;  4.0048075E-01;  1.5081779E+03;3; -4.4668835E+01;  0.0000000E+00; -6.6553550E+00;0; -3.3215040E-01;  1.0020712E+04;  0.0000000E+00;  1.2233536E-04;  1.0000000E+04;  0.0000000E+00;  9.9916523E+03; -4.6146125E-01;  0.0000000E+00;  1.2931083E-01;  4.0459922E+03;
  6.1968160E-01;  9.9999998E-03; -3.0013424E-01;1990; -1.5595904E-01;  0.0000000E+00; -5.4857966E-02;  1.0032839E+03;  4.0115541E-01;  2.7205503E+03;3; -7.1109085E+01;  0.0000000E+00; -2.0957632E+01;0; -1.9151112E-01;  1.0017712E+04;  0.0000000E+00;  1.0167531E-03;  1.0000000E+04;  0.0000000E+00;  9.9901914E+03; -3.6991164E-01;  0.0000000E+00;  1.7840052E-01;  4.6682227E+03;
  6.1969918E-01;  9.9999998E-03; -2.8011465E-01;1991; -1.5237230E-01;  0.0000000E+00; -4.9049582E-02;  1.0033087E+03;  4.0115574E-01;  2.7410925E+03;3; -5.9662479E+01;  0.0000000E+00; -1.7196449E+01;0; -2.2209530E-01;  1.0017336E+04;  0.0000000E+00;  3.7019493E-03;  1.0000000E+04;  0.0000000E+00;  9.9910449E+03; -3.6609623E-01;  0.0000000E+00;  1.4400093E-01;  4.2905552E+03;
  6.1971301E-01;  9.9999998E-03; -2.6009715E-01;1992; -1.4985776E-01;  0.0000000E+00; -4.2162869E-02;  1.0032370E+03;  4.0115607E-01;  2.6817375E+03;3; -5.2837460E+01;  0.0000000E+00; -1.2107546E+01;0; -2.3485039E-01;  1.0016947E+04;  0.0000000E+00;  4.0601031E-03;  1.0000000E+04;  0.0000000E+00;  9.9900068E+03; -3.6207724E-01;  0.0000000E+00;  1.2722684E-01;  4.8348179E+03;
  6.1972457E-01;  9.9999998E-03; -2.4008642E-01;1993; -1.4681421E-01;  0.0000000E+00; -3.9060835E-02;  1.0031452E+03;  4.0115625E-01;  2.6056921E+03;3; -4.9071751E+01;  0.0000000E+00; -8.9821634E+00;0; -2.1274248E-01;  1.0016564E+04;  0.0000000E+00;  2.5641066E-03;  1.0000000E+04;  0.0000000E+00;  9.9885596E+03; -3.5807997E-01;  0.0000000E+00;  1.4533749E-01;  5.5335981E+03;
  6.1973494E-01;  9.9999998E-03; -2.2007924E-01;1994; -1.4348821E-01;  0.0000000E+00; -3.7384093E-02;  1.0031124E+03;  4.0115643E-01;  2.5785330E+03;3; -4.7390598E+01;  0.0000000E+00; -7.6757221E+00;0; -2.0027265E-01;  1.0016180E+04;  0.0000000E+00;  1.0414408E-03;  1.0000000E+04;  0.0000000E+00;  9.9882900E+03; -3.5374463E-01;  0.0000000E+00;  1.5347198E-01;  5.6601484E+03;
  6.1974436E-01;  9.9999998E-03; -2.0007241E-01;1995; -1.4003663E-01;  0.0000000E+00; -3.5532109E-02;  1.0031208E+03;  4.0115643E-01;  2.5854463E+03;3; -4.7020119E+01;  0.0000000E+00; -7.1508584E+00;0; -1.9432357E-01;  1.0015757E+04;  0.0000000E+00;  1.8621568E-04;  1.0000000E+04;  0.0000000E+00;  9.9888701E+03; -3.4853888E-01;  0.0000000E+00;  1.5421531E-01;  5.3747124E+03;
  6.3965493E-01;  9.9999998E-03; -3.0017611E-01;2021; -1.6630296E-01;  0.0000000E+00; -6.7479439E-02;  1.0055973E+03;  4.0239418E-01;  4.6370552E+03;3; -7.4194595E+01;  0.0000000E+00; -2.6569292E+01;0;  9.1153428E-02;  1.0006854E+04;  0.0000000E+00;  1.2582261E-03;  1.0000000E+04;  0.0000000E+00;  9.9854951E+03; -1.3177395E-01;  0.0000000E+00;  2.2292738E-01;  6.8787109E+03;
  6.3967466E-01;  9.9999998E-03; -2.8015828E-01;2022; -1.6269152E-01;  0.0000000E+00; -6.1188787E-02;  1.0056174E+03;  4.0239483E-01;  4.6537456E+03;3; -6.2356064E+01;  0.0000000E+00; -2.0790281E+01;0;  3.6221087E-02;  1.0007008E+04;  0.0000000E+00;  4.7808141E-03;  1.0000000E+04;  0.0000000E+00;  9.9857109E+03; -1.3814276E-01;  0.0000000E+00;  1.7436385E-01;  6.8458062E+03;
  6.3968992E-01;  9.9999998E-03; -2.6013950E-01;2023; -1.5977691E-01;  0.0000000E+00; -5.4616254E-02;  1.0056067E+03;  4.0239510E-01;  4.6448574E+03;3; -5.5262535E+01;  0.0000000E+00; -1.3706786E+01;0;  9.7675622E-03;  1.0007180E+04;  0.0000000E+00;  5.5163149E-03;  1.0000000E+04;  0.0000000E+00;  9.9853213E+03; -1.4489220E-01;  0.0000000E+00;  1.5465976E-01;  7.0801846E+03;
  6.3970172E-01;  9.9999998E-03; -2.4011892E-01;2024; -1.5656173E-01;  0.0000000E+00; -4.9879245E-02;  1.0056007E+03;  4.0239534E-01;  4.6399194E+03;3; -5.1142899E+01;  0.0000000E+00; -9.8541193E+00;0;  1.1496276E-02;  1.0007370E+04;  0.0000000E+00;  3.6386554E-03;  1.0000000E+04;  0.0000000E+00;  9.9850117E+03; -1.5207945E-01;  0.0000000E+00;  1.6357572E-01;  7.2310376E+03;
  6.3971257E-01;  9.9999998E-03; -2.2010304E-01;2025; -1.5300588E-01;  0.0000000E+00; -4.6344921E-02;  1.0056066E+03;  4.0239561E-01;  4.6448574E+03;3; -4.9289009E+01;  0.0000000E+00; -8.0877619E+00;0;  1.5164763E-02;  1.0007537E+04;  0.0000000E+00;  1.5524229E-03;  1.0000000E+04;  0.0000000E+00;  9.9849619E+03; -1.5892833E-01;  0.0000000E+00;  1.7409310E-01;  7.2501509E+03;
  6.3972324E-01;  9.9999998E-03; -2.0009190E-01;2026; -1.4913659E-01;  0.0000000E+00; -4.3663535E-02;  1.0056419E+03;  4.0239564E-01;  4.6740898E+03;3; -4.8759575E+01;  0.0000000E+00; -7.3954406E+00;0;  1.7479852E-02;  1.0007626E+04;  0.0000000E+00;  2.9863630E-04;  1.0000000E+04;  0.0000000E+00;  9.9855654E+03; -1.6419907E-01;  0.0000000E+00;  1.8167892E-01;  6.9468340E+03;
  6.5964049E-01;  9.9999998E-03; -3.0022487E-01;2052; -1.7229161E-01;  0.0000000E+00; -8.2203716E-02;  1.0084702E+03;  4.0395498E-01;  7.0170820E+03;3; -7.5753357E+01;  0.0000000E+00; -3.3888794E+01;0;  4.6933037E-01;  9.9926514E+03;  0.0000000E+00;  9.8370726E-04;  1.0000000E+04;  0.0000000E+00;  9.9793525E+03;  1.8777724E-01;  0.0000000E+00;  2.8155312E-01;  9.7762402E+03;
  6.5966010E-01;  9.9999998E-03; -2.8021026E-01;2053; -1.6930547E-01;  0.0000000E+00; -7.3915184E-02;  1.0084885E+03;  4.0395561E-01;  7.0321924E+03;3; -6.3839645E+01;  0.0000000E+00; -2.5469213E+01;0;  3.6225092E-01;  9.9933916E+03;  0.0000000E+00;  4.8831403E-03;  1.0000000E+04;  0.0000000E+00;  9.9789453E+03;  1.6991995E-01;  0.0000000E+00;  1.9233097E-01;  1.0115531E+04;
  6.5967679E-01;  9.9999998E-03; -2.6019666E-01;2054; -1.6610377E-01;  0.0000000E+00; -6.9892168E-02;  1.0085222E+03;  4.0395570E-01;  7.0601406E+03;3; -5.6873787E+01;  0.0000000E+00; -1.5303026E+01;0;  3.3989918E-01;  9.9941748E+03;  0.0000000E+00;  6.1949692E-03;  1.0000000E+04;  0.0000000E+00;  9.9788291E+03;  1.5116963E-01;  0.0000000E+00;  1.8872957E-01;  1.0203586E+04;
  6.5968800E-01;  9.9999998E-03; -2.4016720E-01;2055; -1.6252820E-01;  0.0000000E+00; -6.5224856E-02;  1.0086443E+03;  4.0395573E-01;  7.1613682E+03;3; -5.2610085E+01;  0.0000000E+00; -1.0306333E+01;0;  3.2016987E-01;  9.9949727E+03;  0.0000000E+00;  4.3399432E-03;  1.0000000E+04;  0.0000000E+00;  9.9804580E+03;  1.3180120E-01;  0.0000000E+00;  1.8836865E-01;  9.4064590E+03;
  6.5969801E-01;  9.9999998E-03; -2.2013821E-01;2056; -1.5926409E-01;  0.0000000E+00; -5.8848098E-02;  1.0087207E+03;  4.0395573E-01;  7.2246714E+03;3; -5.0686459E+01;  0.0000000E+00; -7.9786043E+00;0;  3.0745643E-01;  9.9957285E+03;  0.0000000E+00;  1.9839134E-03;  1.0000000E+04;  0.0000000E+00;  9.9812256E+03;  1.1289889E-01;  0.0000000E+00;  1.9455755E-01;  9.0300293E+03;
  6.5970862E-01;  9.9999998E-03; -2.0011809E-01;2057; -1.5544999E-01;  0.0000000E+00; -5.4019369E-02;  1.0087908E+03;  4.0395588E-01;  7.2827412E+03;3; -5.0200790E+01;  0.0000000E+00; -7.2447796E+00;0;  3.0515385E-01;  9.9963623E+03;  0.0000000E+00;  4.5460270E-04;  1.0000000E+04;  0.0000000E+00;  9.9819814E+03;  9.6171930E-02;  0.0000000E+00;  2.0898192E-01;  8.6445654E+03;
  6.7964637E-01;  9.9999998E-03; -3.0026948E-01;2083; -1.7206429E-01;  0.0000000E+00; -9.6369281E-02;  1.0105532E+03;  4.0520364E-01;  8.7426553E+03;3; -7.5184608E+01;  0.0000000E+00; -4.2119762E+01;0;  8.8173437E-01;  9.9767607E+03;  0.0000000E+00;  2.4142415E-04;  1.0000000E+04;  0.0000000E+00;  9.9747793E+03;  5.5824643E-01;  0.0000000E+00;  3.2348794E-01;  1.1910183E+04;
  6.7966002E-01;  9.9999998E-03; -2.8025839E-01;2084; -1.7111064E-01;  0.0000000E+00; -8.5191488E-02;  1.0105527E+03;  4.0520418E-01;  8.7421621E+03;3; -6.4096375E+01;  0.0000000E+00; -2.8733410E+01;0;  7.1639526E-01;  9.9779854E+03;  0.0000000E+00;  3.6359592E-03;  1.0000000E+04;  0.0000000E+00;  9.9735273E+03;  5.3088659E-01;  0.0000000E+00;  1.8550864E-01;  1.2745572E+04;
  6.7967677E-01;  9.9999998E-03; -2.6025215E-01;2085; -1.6774637E-01;  0.0000000E+00; -8.4572881E-02;  1.0105919E+03;  4.0520385E-01;  8.7746523E+03;3; -5.7742168E+01;  0.0000000E+00; -1.7055840E+01;0;  7.0875239E-01;  9.9792959E+03;  0.0000000E+00;  5.5078040E-03;  1.0000000E+04;  0.0000000E+00;  9.9730098E+03;  5.0169867E-01;  0.0000000E+00;  2.0705369E-01;  1.3006566E+04;
  6.7968655E-01;  9.9999998E-03; -2.4022144E-01;2086; -1.6356689E-01;  0.0000000E+00; -8.3897531E-02;  1.0108011E+03;  4.0520334E-01;  8.9479717E+03;3; -5.3194016E+01;  0.0000000E+00; -1.1563321E+01;0;  6.8651944E-01;  9.9806074E+03;  0.0000000E+00;  4.1888217E-03;  1.0000000E+04;  0.0000000E+00;  9.9758672E+03;  4.7188157E-01;  0.0000000E+00;  2.1463788E-01;  1.1593173E+04;
  6.7969424E-01;  9.9999998E-03; -2.2018178E-01;2087; -1.6078632E-01;  0.0000000E+00; -7.6225936E-02;  1.0109473E+03;  4.0520298E-01;  9.0690469E+03;3; -5.1168716E+01;  0.0000000E+00; -8.4584341E+00;0;  6.5677017E-01;  9.9818555E+03;  0.0000000E+00;  2.0768163E-03;  1.0000000E+04;  0.0000000E+00;  9.9775234E+03;  4.4278917E-01;  0.0000000E+00;  2.1398100E-01;  1.0785205E+04;
  6.7970365E-01;  9.9999998E-03; -2.0015155E-01;2088; -1.5750167E-01;  0.0000000E+00; -6.8798482E-02;  1.0110518E+03;  4.0520284E-01;  9.1556572E+03;3; -5.0607334E+01;  0.0000000E+00; -7.7179813E+00;0;  6.4950597E-01;  9.9829629E+03;  0.0000000E+00;  5.7735975E-04;  1.0000000E+04;  0.0000000E+00;  9.9784941E+03;  4.1618752E-01;  0.0000000E+00;  2.3331848E-01;  1.0291574E+04;
  6.9969952E-01;  9.9999998E-03; -3.0030397E-01;2114; -1.4968407E-01;  0.0000000E+00; -1.0707616E-01;  1.0114112E+03;  4.0588814E-01;  9.4532188E+03;3; -6.5331276E+01;  0.0000000E+00; -4.6003498E+01;0;  1.2471762E+00;  9.9619346E+03;  0.0000000E+00;  7.3360070E-04;  1.0000000E+04;  0.0000000E+00;  9.9728086E+03;  9.1819829E-01;  0.0000000E+00;  3.2897782E-01;  1.2807252E+04;
  6.9969034E-01;  9.9999998E-03; -2.8029487E-01;2115; -1.6059351E-01;  0.0000000E+00; -9.5600098E-02;  1.0113793E+03;  4.0588844E-01;  9.4268516E+03;3; -6.1989700E+01;  0.0000000E+00; -3.1294638E+01;0;  1.0652146E+00;  9.9633496E+03;  0.0000000E+00;  2.3308482E-03;  1.0000000E+04;  0.0000000E+00;  9.9707734E+03;  8.8833213E-01;  0.0000000E+00;  1.7688254E-01;  1.4053856E+04;
  6.9969893E-01;  9.9999998E-03; -2.6029637E-01;2116; -1.6075227E-01;  0.0000000E+00; -9.7762302E-02;  1.0113704E+03;  4.0588799E-01;  9.4194443E+03;3; -5.7729416E+01;  0.0000000E+00; -1.8454071E+01;0;  1.0693487E+00;  9.9649160E+03;  0.0000000E+00;  3.8793208E-03;  1.0000000E+04;  0.0000000E+00;  9.9690615E+03;  8.5475862E-01;  0.0000000E+00;  2.1459010E-01;  1.4895791E+04;
  6.9970572E-01;  9.9999998E-03; -2.4026798E-01;2117; -1.5662789E-01;  0.0000000E+00; -1.0148038E-01;  1.0116121E+03;  4.0588734E-01;  9.6196211E+03;3; -5.2724388E+01;  0.0000000E+00; -1.3952063E+01;0;  1.0504044E+00;  9.9664951E+03;  0.0000000E+00;  3.2066326E-03;  1.0000000E+04;  0.0000000E+00;  9.9722910E+03;  8.2003593E-01;  0.0000000E+00;  2.3036851E-01;  1.3287908E+04;
  6.9970936E-01;  9.9999998E-03; -2.2022533E-01;2118; -1.5483804E-01;  0.0000000E+00; -9.6655972E-02;  1.0117933E+03;  4.0588671E-01;  9.7697285E+03;3; -4.9661289E+01;  0.0000000E+00; -1.1772886E+01;0;  1.0153526E+00;  9.9680195E+03;  0.0000000E+00;  1.7154993E-03;  1.0000000E+04;  0.0000000E+00;  9.9743730E+03;  7.8585130E-01;  0.0000000E+00;  2.2950135E-01;  1.2271147E+04;
  6.9971633E-01;  9.9999998E-03; -2.0018885E-01;2119; -1.5267219E-01;  0.0000000E+00; -8.8589214E-02;  1.0119196E+03;  4.0588623E-01;  9.8744082E+03;3; -4.8821072E+01;  0.0000000E+00; -1.1110380E+01;0;  1.0060303E+00;  9.9694336E+03;  0.0000000E+00;  5.6405034E-04;  1.0000000E+04;  0.0000000E+00;  9.9754736E+03;  7.5362396E-01;  0.0000000E+00;  2.5240642E-01;  1.1710857E+04;
  7.1978992E-01;  9.9999998E-03; -3.0032846E-01;2145; -1.0306501E-01;  0.0000000E+00; -1.1674274E-01;  1.0116020E+03;  4.0618768E-01;  9.6110635E+03;3; -4.3590816E+01;  0.0000000E+00; -4.9673515E+01;0;  1.5322396E+00;  9.9511621E+03;  0.0000000E+00;  1.3577554E-03;  1.0000000E+04;  0.0000000E+00;  9.9726094E+03;  1.1902345E+00;  0.0000000E+00;  3.4200504E-01;  1.2834354E+04;
  7.1977490E-01;  9.9999998E-03; -2.8031749E-01;2146; -1.1624973E-01;  0.0000000E+00; -1.0446998E-01;  1.0115655E+03;  4.0618810E-01;  9.5807461E+03;3; -4.4389015E+01;  0.0000000E+00; -3.4952621E+01;0;  1.3328935E+00;  9.9524014E+03;  0.0000000E+00;  2.5390217E-03;  1.0000000E+04;  0.0000000E+00;  9.9706523E+03;  1.1675988E+00;  0.0000000E+00;  1.6529469E-01;  1.4071934E+04;
  7.1976614E-01;  9.9999998E-03; -2.6032180E-01;2147; -1.2575249E-01;  0.0000000E+00; -1.0661287E-01;  1.0114868E+03;  4.0618771E-01;  9.5155693E+03;3; -4.5201900E+01;  0.0000000E+00; -2.0354280E+01;0;  1.3411281E+00;  9.9538291E+03;  0.0000000E+00;  2.6728073E-03;  1.0000000E+04;  0.0000000E+00;  9.9677080E+03;  1.1400245E+00;  0.0000000E+00;  2.0110361E-01;  1.5530825E+04;
  7.1976280E-01;  9.9999998E-03; -2.4029852E-01;2148; -1.3077310E-01;  0.0000000E+00; -1.1455580E-01;  1.0116872E+03;  4.0618676E-01;  9.6815723E+03;3; -4.5595657E+01;  0.0000000E+00; -1.5943785E+01;0;  1.3434292E+00;  9.9553379E+03;  0.0000000E+00;  2.0169897E-03;  1.0000000E+04;  0.0000000E+00;  9.9701943E+03;  1.1097976E+00;  0.0000000E+00;  2.3363158E-01;  1.4272474E+04;
  7.1976388E-01;  9.9999998E-03; -2.2025758E-01;2149; -1.3273673E-01;  0.0000000E+00; -1.1464573E-01;  1.0118631E+03;  4.0618622E-01;  9.8273301E+03;3; -4.5380741E+01;  0.0000000E+00; -1.6012213E+01;0;  1.3160478E+00;  9.9568584E+03;  0.0000000E+00;  1.1069929E-03;  1.0000000E+04;  0.0000000E+00;  9.9721670E+03;  1.0783279E+00;  0.0000000E+00;  2.3771986E-01;  1.3305867E+04;
  7.1977007E-01;  9.9999998E-03; -2.0021902E-01;2150; -1.3154314E-01;  0.0000000E+00; -1.0854296E-01;  1.0119913E+03;  4.0618578E-01;  9.9335879E+03;3; -4.5769707E+01;  0.0000000E+00; -1.8581116E+01;0;  1.3106354E+00;  9.9583652E+03;  0.0000000E+00;  4.0961051E-04;  1.0000000E+04;  0.0000000E+00;  9.9732129E+03;  1.0463991E+00;  0.0000000E+00;  2.6423636E-01;  1.2769389E+04;
  7.3987138E-01;  9.9999998E-03; -3.0034474E-01;2176; -6.2000189E-02;  0.0000000E+00; -1.2510356E-01;  1.0116634E+03;  4.0630543E-01;  9.6615625E+03;3; -2.5470121E+01;  0.0000000E+00; -5.4481556E+01;0;  1.6922998E+00;  9.9461035E+03;  0.0000000E+00;  2.8466890E-04;  1.0000000E+04;  0.0000000E+00;  9.9731162E+03;  1.3256401E+00;  0.0000000E+00;  3.6665982E-01;  1.2510522E+04;
  7.3986059E-01;  9.9999998E-03; -2.8032961E-01;2177; -7.1025707E-02;  0.0000000E+00; -1.1005713E-01;  1.0116398E+03;  4.0630585E-01;  9.6420117E+03;3; -2.6186090E+01;  0.0000000E+00; -3.7819351E+01;0;  1.4592322E+00;  9.9469502E+03;  0.0000000E+00;  1.5396613E-03;  1.0000000E+04;  0.0000000E+00;  9.9718047E+03;  1.3156352E+00;  0.0000000E+00;  1.4359699E-01;  1.3493208E+04;
  7.3985356E-01;  9.9999998E-03; -2.6033074E-01;2178; -7.7882081E-02;  0.0000000E+00; -1.0954618E-01;  1.0115162E+03;  4.0630573E-01;  9.5396094E+03;3; -2.7124823E+01;  0.0000000E+00; -2.1336094E+01;0;  1.4644508E+00;  9.9479619E+03;  0.0000000E+00;  1.5496328E-03;  1.0000000E+04;  0.0000000E+00;  9.9683682E+03;  1.3018076E+00;  0.0000000E+00;  1.6264315E-01;  1.5217710E+04;
  7.3984963E-01;  9.9999998E-03; -2.4030770E-01;2179; -8.2701273E-02;  0.0000000E+00; -1.1693340E-01;  1.0116465E+03;  4.0630496E-01;  9.6475420E+03;3; -2.8160456E+01;  0.0000000E+00; -1.4845292E+01;0;  1.4932339E+00;  9.9491309E+03;  0.0000000E+00;  1.0516372E-03;  1.0000000E+04;  0.0000000E+00;  9.9698047E+03;  1.2839164E+00;  0.0000000E+00;  2.0931754E-01;  1.4463950E+04;
  7.3984951E-01;  9.9999998E-03; -2.2026831E-01;2180; -8.5125044E-02;  0.0000000E+00; -1.1829380E-01;  1.0117773E+03;  4.0630436E-01;  9.7558691E+03;3; -2.9125355E+01;  0.0000000E+00; -1.5233546E+01;0;  1.4898244E+00;  9.9504326E+03;  0.0000000E+00;  5.4975366E-04;  1.0000000E+04;  0.0000000E+00;  9.9711094E+03;  1.2617394E+00;  0.0000000E+00;  2.2808501E-01;  1.3810373E+04;
  7.3985320E-01;  9.9999998E-03; -2.0023049E-01;2181; -8.5001551E-02;  0.0000000E+00; -1.1333744E-01;  1.0118847E+03;  4.0630382E-01;  9.8448418E+03;3; -3.0096203E+01;  0.0000000E+00; -1.8403698E+01;0;  1.5007116E+00;  9.9518535E+03;  0.0000000E+00;  2.1772721E-04;  1.0000000E+04;  0.0000000E+00;  9.9718223E+03;  1.2352482E+00;  0.0000000E+00;  2.6546338E-01;  1.3425068E+04;
  7.5993353E-01;  9.9999998E-03; -3.0035570E-01;2207; -3.1978186E-02;  0.0000000E+00; -1.3151562E-01;  1.0117887E+03;  4.0634957E-01;  9.7648613E+03;3; -1.3363782E+01;  0.0000000E+00; -5.8194649E+01;0;  1.7307173E+00;  9.9462695E+03;  0.0000000E+00; -6.8496919E-04;  1.0000000E+04;  0.0000000E+00;  9.9732734E+03;  1.3320154E+00;  0.0000000E+00;  3.9870188E-01;  1.2371495E+04;
  7.5992680E-01;  9.9999998E-03; -2.8033665E-01;2208; -3.7356351E-02;  0.0000000E+00; -1.1390026E-01;  1.0117816E+03;  4.0635008E-01;  9.7589365E+03;3; -1.3833973E+01;  0.0000000E+00; -4.0551620E+01;0;  1.4672601E+00;  9.9466895E+03;  0.0000000E+00;  2.9138711E-04;  1.0000000E+04;  0.0000000E+00;  9.9727002E+03;  1.3346884E+00;  0.0000000E+00;  1.3257168E-01;  1.3047375E+04;
  7.5992244E-01;  9.9999998E-03; -2.6033422E-01;2209; -4.1335721E-02;  0.0000000E+00; -1.1056736E-01;  1.0116276E+03;  4.0635005E-01;  9.6314580E+03;3; -1.4495050E+01;  0.0000000E+00; -2.1230785E+01;0;  1.4714699E+00;  9.9472480E+03;  0.0000000E+00;  4.7061747E-04;  1.0000000E+04;  0.0000000E+00;  9.9691221E+03;  1.3351282E+00;  0.0000000E+00;  1.3634168E-01;  1.4860922E+04;
  7.5991946E-01;  9.9999998E-03; -2.4031034E-01;2210; -4.4570286E-02;  0.0000000E+00; -1.1679159E-01;  1.0117014E+03;  4.0634939E-01;  9.6924814E+03;3; -1.5306938E+01;  0.0000000E+00; -1.4194489E+01;0;  1.5200806E+00;  9.9480020E+03;  0.0000000E+00;  3.2827124E-04;  1.0000000E+04;  0.0000000E+00;  9.9698438E+03;  1.3308102E+00;  0.0000000E+00;  1.8927042E-01;  1.4453821E+04;
  7.5991863E-01;  9.9999998E-03; -2.2027242E-01;2211; -4.6563651E-02;  0.0000000E+00; -1.1850202E-01;  1.0117897E+03;  4.0634894E-01;  9.7656514E+03;3; -1.6194693E+01;  0.0000000E+00; -1.3803374E+01;0;  1.5386097E+00;  9.9490000E+03;  0.0000000E+00;  1.7113774E-04;  1.0000000E+04;  0.0000000E+00;  9.9706133E+03;  1.3197846E+00;  0.0000000E+00;  2.1882509E-01;  1.4051288E+04;
  7.5992000E-01;  9.9999998E-03; -2.0023596E-01;2212; -4.7124743E-02;  0.0000000E+00; -1.1453503E-01;  1.0118743E+03;  4.0634835E-01;  9.8357588E+03;3; -1.7064285E+01;  0.0000000E+00; -1.7013594E+01;0;  1.5647751E+00;  9.9502256E+03;  0.0000000E+00;  7.6233875E-05;  1.0000000E+04;  0.0000000E+00;  9.9710723E+03;  1.3010761E+00;  0.0000000E+00;  2.6369908E-01;  1.3783193E+04;
  7.7997839E-01;  9.9999998E-03; -3.0036256E-01;2238; -1.1217923E-02;  0.0000000E+00; -1.3594714E-01;  1.0119886E+03;  4.0636551E-01;  9.9297861E+03;3; -5.7325749E+00;  0.0000000E+00; -6.0667110E+01;0;  1.6890867E+00;  9.9497324E+03;  0.0000000E+00; -6.2773074E-04;  1.0000000E+04;  0.0000000E+00;  9.9729668E+03;  1.2565023E+00;  0.0000000E+00;  4.3258438E-01;  1.2474040E+04;
  7.7997535E-01;  9.9999998E-03; -2.8034079E-01;2239; -1.3432106E-02;  0.0000000E+00; -1.1652765E-01;  1.0119921E+03;  4.0636614E-01;  9.9326494E+03;3; -5.8633265E+00;  0.0000000E+00; -4.2451061E+01;0;  1.4069235E+00;  9.9498057E+03;  0.0000000E+00; -1.8391297E-04;  1.0000000E+04;  0.0000000E+00;  9.9729502E+03;  1.2688904E+00;  0.0000000E+00;  1.3803309E-01;  1.2911463E+04;
  7.7997345E-01;  9.9999998E-03; -2.6033568E-01;2240; -1.5014864E-02;  0.0000000E+00; -1.1117590E-01;  1.0118259E+03;  4.0636611E-01;  9.7950107E+03;3; -6.1238079E+00;  0.0000000E+00; -2.1352421E+01;0;  1.4079635E+00;  9.9499990E+03;  0.0000000E+00; -1.5354182E-05;  1.0000000E+04;  0.0000000E+00;  9.9694902E+03;  1.2799619E+00;  0.0000000E+00;  1.2800160E-01;  1.4682087E+04;
  7.7997160E-01;  9.9999998E-03; -2.4031073E-01;2241; -1.6639566E-02;  0.0000000E+00; -1.1641766E-01;  1.0118670E+03;  4.0636548E-01;  9.8290752E+03;3; -6.5358620E+00;  0.0000000E+00; -1.3974198E+01;0;  1.4679533E+00;  9.9504170E+03;  0.0000000E+00;  1.6403166E-05;  1.0000000E+04;  0.0000000E+00;  9.9699072E+03;  1.2860504E+00;  0.0000000E+00;  1.8190289E-01;  1.4423787E+04;
  7.7997047E-01;  9.9999998E-03; -2.2027339E-01;2242; -1.7975498E-02;  0.0000000E+00; -1.1798026E-01;  1.0119283E+03;  4.0636501E-01;  9.8798252E+03;3; -7.0705142E+00;  0.0000000E+00; -1.2908924E+01;0;  1.4993138E+00;  9.9511260E+03;  0.0000000E+00;  1.4307348E-05;  1.0000000E+04;  0.0000000E+00;  9.9704258E+03;  1.2841678E+00;  0.0000000E+00;  2.1514601E-01;  1.4142074E+04;
  7.7997035E-01;  9.9999998E-03; -2.0023775E-01;2243; -1.8761808E-02;  0.0000000E+00; -1.1430553E-01;  1.0119962E+03;  4.0636447E-01;  9.9360068E+03;3; -7.6574206E+00;  0.0000000E+00; -1.5800485E+01;0;  1.5348892E+00;  9.9521436E+03;  0.0000000E+00;  1.1696423E-05;  1.0000000E+04;  0.0000000E+00;  9.9707686E+03;  1.2726191E+00;  0.0000000E+00;  2.6227009E-01;  1.3928164E+04;
  8.0001354E-01;  9.9999998E-03; -3.0036575E-01;2269;  4.9556457E-03;  0.0000000E+00; -1.3832754E-01;  1.0122039E+03;  4.0637013E-01;  1.0107188E+04;3;  2.2756499E-01;  0.0000000E+00; -6.1985928E+01;0;  1.6135241E+00;  9.9543359E+03;  0.0000000E+00; -1.6654104E-04;  1.0000000E+04;  0.0000000E+00;  9.9723779E+03;  1.1535603E+00;  0.0000000E+00;  4.5996377E-01;  1.2727218E+04;
  8.0001378E-01;  9.9999998E-03; -2.8034273E-01;2270;  5.4649953E-03;  0.0000000E+00; -1.1823537E-01;  1.0122124E+03;  4.0637076E-01;  1.0114197E+04;3;  3.7999767E-01;  0.0000000E+00; -4.4005669E+01;0;  1.3260152E+00;  9.9541924E+03;  0.0000000E+00; -1.0335352E-04;  1.0000000E+04;  0.0000000E+00;  9.9726738E+03;  1.1713283E+00;  0.0000000E+00;  1.5468690E-01;  1.3022114E+04;
  8.0001384E-01;  9.9999998E-03; -2.6033613E-01;2271;  5.7940516E-03;  0.0000000E+00; -1.1180625E-01;  1.0120472E+03;  4.0637070E-01;  9.9774590E+03;3;  4.6838945E-01;  0.0000000E+00; -2.1667540E+01;0;  1.3238072E+00;  9.9541670E+03;  0.0000000E+00; -4.8823516E-05;  1.0000000E+04;  0.0000000E+00;  9.9694502E+03;  1.1878974E+00;  0.0000000E+00;  1.3590978E-01;  1.4686329E+04;
  8.0001324E-01;  9.9999998E-03; -2.4031034E-01;2272;  5.6627593E-03;  0.0000000E+00; -1.1636099E-01;  1.0120792E+03;  4.0637007E-01;  1.0003819E+04;3;  4.3968537E-01;  0.0000000E+00; -1.3869113E+01;0;  1.3856764E+00;  9.9543740E+03;  0.0000000E+00; -1.7750574E-05;  1.0000000E+04;  0.0000000E+00;  9.9698975E+03;  1.1995069E+00;  0.0000000E+00;  1.8616951E-01;  1.4417475E+04;
  8.0001211E-01;  9.9999998E-03; -2.2027265E-01;2273;  5.0673475E-03;  0.0000000E+00; -1.1749191E-01;  1.0121307E+03;  4.0636975E-01;  1.0046568E+04;3;  2.8623807E-01;  0.0000000E+00; -1.2722561E+01;0;  1.4200518E+00;  9.9548857E+03;  0.0000000E+00; -5.3637282E-06;  1.0000000E+04;  0.0000000E+00;  9.9704160E+03;  1.2028592E+00;  0.0000000E+00;  2.1719259E-01;  1.4137286E+04;
  8.0001092E-01;  9.9999998E-03; -2.0023702E-01;2274;  4.3049445E-03;  0.0000000E+00; -1.1335798E-01;  1.0121903E+03;  4.0636912E-01;  1.0095933E+04;3;  4.1278783E-02;  0.0000000E+00; -1.5181103E+01;0;  1.4583098E+00;  9.9557305E+03;  0.0000000E+00; -1.1561523E-06;  1.0000000E+04;  0.0000000E+00;  9.9707686E+03;  1.1958840E+00;  0.0000000E+00;  2.6242581E-01;  1.3922061E+04;
  8.2004672E-01;  9.9999998E-03; -3.0036545E-01;2300;  2.0958930E-02;  0.0000000E+00; -1.3870022E-01;  1.0123713E+03;  4.0636221E-01;  1.0244546E+04;3;  6.8886700E+00;  0.0000000E+00; -6.2299538E+01;0;  1.5349339E+00;  9.9586309E+03;  0.0000000E+00;  4.1214109E-05;  1.0000000E+04;  0.0000000E+00;  9.9717510E+03;  1.0593538E+00;  0.0000000E+00;  4.7558013E-01;  1.3008101E+04;
  8.2005000E-01;  9.9999998E-03; -2.8034246E-01;2301;  2.3908412E-02;  0.0000000E+00; -1.1866999E-01;  1.0123795E+03;  4.0636280E-01;  1.0251259E+04;3;  7.1720161E+00;  0.0000000E+00; -4.4587688E+01;0;  1.2512132E+00;  9.9584160E+03;  0.0000000E+00;  7.3533345E-05;  1.0000000E+04;  0.0000000E+00;  9.9721172E+03;  1.0779650E+00;  0.0000000E+00;  1.7324814E-01;  1.3264404E+04;
  8.2005125E-01;  9.9999998E-03; -2.6033571E-01;2302;  2.5685141E-02;  0.0000000E+00; -1.1232549E-01;  1.0122230E+03;  4.0636277E-01;  1.0121743E+04;3;  7.4402914E+00;  0.0000000E+00; -2.2209730E+01;0;  1.2483281E+00;  9.9583242E+03;  0.0000000E+00;  8.3601139E-05;  1.0000000E+04;  0.0000000E+00;  9.9691348E+03;  1.0950660E+00;  0.0000000E+00;  1.5326214E-01;  1.4806795E+04;
  8.2005179E-01;  9.9999998E-03; -2.4030919E-01;2303;  2.6816839E-02;  0.0000000E+00; -1.1656081E-01;  1.0122659E+03;  4.0636230E-01;  1.0157281E+04;3;  7.6350613E+00;  0.0000000E+00; -1.4309176E+01;0;  1.3047469E+00;  9.9584561E+03;  0.0000000E+00;  6.2147104E-05;  1.0000000E+04;  0.0000000E+00;  9.9698711E+03;  1.1073545E+00;  0.0000000E+00;  1.9739236E-01;  1.4403845E+04;
  8.2005084E-01;  9.9999998E-03; -2.2027053E-01;2304;  2.6928578E-02;  0.0000000E+00; -1.1699317E-01;  1.0123220E+03;  4.0636173E-01;  1.0203776E+04;3;  7.7300496E+00;  0.0000000E+00; -1.3158059E+01;0;  1.3343606E+00;  9.9588799E+03;  0.0000000E+00;  3.1847951E-05;  1.0000000E+04;  0.0000000E+00;  9.9705635E+03;  1.1116829E+00;  0.0000000E+00;  2.2267766E-01;  1.4044523E+04;
  8.2004875E-01;  9.9999998E-03; -2.0023432E-01;2305;  2.6184000E-02;  0.0000000E+00; -1.1188676E-01;  1.0123812E+03;  4.0636128E-01;  1.0252739E+04;3;  7.7246819E+00;  0.0000000E+00; -1.4894744E+01;0;  1.3696901E+00;  9.9596338E+03;  0.0000000E+00;  9.2887185E-06;  1.0000000E+04;  0.0000000E+00;  9.9710010E+03;  1.1059209E+00;  0.0000000E+00;  2.6376918E-01;  1.3792568E+04;
  8.4008181E-01;  9.9999998E-03; -3.0036044E-01;2331;  3.8845722E-02;  0.0000000E+00; -1.3707115E-01;  1.0122939E+03;  4.0625915E-01;  1.0178794E+04;3;  1.5188929E+01;  0.0000000E+00; -6.1586895E+01;0;  1.4588304E+00;  9.9622373E+03;  0.0000000E+00;  4.6084991E-05;  1.0000000E+04;  0.0000000E+00;  9.9716738E+03;  9.8247629E-01;  0.0000000E+00;  4.7635412E-01;  1.3027714E+04;
  8.4008759E-01;  9.9999998E-03; -2.8033805E-01;2332;  4.3976407E-02;  0.0000000E+00; -1.1754669E-01;  1.0123002E+03;  4.0625972E-01;  1.0183926E+04;3;  1.5442305E+01;  0.0000000E+00; -4.4152439E+01;0;  1.1838876E+00;  9.9620742E+03;  0.0000000E+00;  2.6516904E-04;  1.0000000E+04;  0.0000000E+00;  9.9719521E+03;  9.9811488E-01;  0.0000000E+00;  1.8577272E-01;  1.3310781E+04;
  8.4008980E-01;  9.9999998E-03; -2.6033139E-01;2333;  4.6953931E-02;  0.0000000E+00; -1.1160858E-01;  1.0121553E+03;  4.0625957E-01;  1.0064006E+04;3;  1.5700893E+01;  0.0000000E+00; -2.2486456E+01;0;  1.1800810E+00;  9.9620361E+03;  0.0000000E+00;  2.9891200E-04;  1.0000000E+04;  0.0000000E+00;  9.9691426E+03;  1.0117930E+00;  0.0000000E+00;  1.6828801E-01;  1.4759287E+04;
  8.4009117E-01;  9.9999998E-03; -2.4030477E-01;2334;  4.9061533E-02;  0.0000000E+00; -1.1575987E-01;  1.0122109E+03;  4.0625900E-01;  1.0110000E+04;3;  1.5914989E+01;  0.0000000E+00; -1.4936799E+01;0;  1.2287054E+00;  9.9622080E+03;  0.0000000E+00;  2.0686739E-04;  1.0000000E+04;  0.0000000E+00;  9.9700898E+03;  1.0207919E+00;  0.0000000E+00;  2.0791349E-01;  1.4258623E+04;
  8.4009033E-01;  9.9999998E-03; -2.2026573E-01;2335;  4.9771097E-02;  0.0000000E+00; -1.1555597E-01;  1.0122758E+03;  4.0625858E-01;  1.0163791E+04;3;  1.6057926E+01;  0.0000000E+00; -1.3620168E+01;0;  1.2503102E+00;  9.9626514E+03;  0.0000000E+00;  1.0126363E-04;  1.0000000E+04;  0.0000000E+00;  9.9709463E+03;  1.0223483E+00;  0.0000000E+00;  2.2796190E-01;  1.3828285E+04;
  8.4008729E-01;  9.9999998E-03; -2.0022947E-01;2336;  4.8851997E-02;  0.0000000E+00; -1.0974873E-01;  1.0123393E+03;  4.0625808E-01;  1.0216397E+04;3;  1.6110619E+01;  0.0000000E+00; -1.4885243E+01;0;  1.2793930E+00;  9.9633936E+03;  0.0000000E+00;  3.2007196E-05;  1.0000000E+04;  0.0000000E+00;  9.9714736E+03;  1.0145583E+00;  0.0000000E+00;  2.6483470E-01;  1.3537653E+04;
  8.6011839E-01;  9.9999998E-03; -3.0035082E-01;2362;  5.8167987E-02;  0.0000000E+00; -1.3375328E-01;  1.0119846E+03;  4.0605634E-01;  9.9204521E+03;3;  2.4701271E+01;  0.0000000E+00; -6.0213844E+01;0;  1.3762800E+00;  9.9655723E+03;  0.0000000E+00;  1.4066775E-04;  1.0000000E+04;  0.0000000E+00;  9.9722061E+03;  9.1045451E-01;  0.0000000E+00;  4.6582547E-01;  1.2753564E+04;
  8.6012650E-01;  9.9999998E-03; -2.8032920E-01;2363;  6.5343715E-02;  0.0000000E+00; -1.1492652E-01;  1.0119901E+03;  4.0605688E-01;  9.9249902E+03;3;  2.4816902E+01;  0.0000000E+00; -4.3136990E+01;0;  1.1111538E+00;  9.9655430E+03;  0.0000000E+00;  5.7391555E-04;  1.0000000E+04;  0.0000000E+00;  9.9723330E+03;  9.2056084E-01;  0.0000000E+00;  1.9059302E-01;  1.3087449E+04;
  8.6012924E-01;  9.9999998E-03; -2.6032245E-01;2364;  6.9316201E-02;  0.0000000E+00; -1.0939061E-01;  1.0118594E+03;  4.0605676E-01;  9.8168389E+03;3;  2.4934332E+01;  0.0000000E+00; -2.2510153E+01;0;  1.1050889E+00;  9.9656465E+03;  0.0000000E+00;  6.3292461E-04;  1.0000000E+04;  0.0000000E+00;  9.9696641E+03;  9.2809707E-01;  0.0000000E+00;  1.7699184E-01;  1.4456783E+04;
  8.6013126E-01;  9.9999998E-03; -2.4029632E-01;2365;  7.2178297E-02;  0.0000000E+00; -1.1341174E-01;  1.0119249E+03;  4.0605626E-01;  9.8710127E+03;3;  2.5011112E+01;  0.0000000E+00; -1.5391222E+01;0;  1.1449435E+00;  9.9659502E+03;  0.0000000E+00;  4.2979061E-04;  1.0000000E+04;  0.0000000E+00;  9.9706787E+03;  9.3089426E-01;  0.0000000E+00;  2.1404918E-01;  1.3927989E+04;
  8.6013049E-01;  9.9999998E-03; -2.2025785E-01;2366;  7.3325388E-02;  0.0000000E+00; -1.1280458E-01;  1.0119995E+03;  4.0605578E-01;  9.9327842E+03;3;  2.5030529E+01;  0.0000000E+00; -1.4041865E+01;0;  1.1573830E+00;  9.9664990E+03;  0.0000000E+00;  2.0639620E-04;  1.0000000E+04;  0.0000000E+00;  9.9716191E+03;  9.2675751E-01;  0.0000000E+00;  2.3062547E-01;  1.3462405E+04;
  8.6012626E-01;  9.9999998E-03; -2.0022231E-01;2367;  7.1999855E-02;  0.0000000E+00; -1.0670844E-01;  1.0120700E+03;  4.0605536E-01;  9.9912021E+03;3;  2.4973726E+01;  0.0000000E+00; -1.4943738E+01;0;  1.1784046E+00;  9.9673135E+03;  0.0000000E+00;  6.5528482E-05;  1.0000000E+04;  0.0000000E+00;  9.9722090E+03;  9.1433495E-01;  0.0000000E+00;  2.6406968E-01;  1.3145072E+04;
  8.8015383E-01;  9.9999998E-03; -3.0033711E-01;2393;  7.7280670E-02;  0.0000000E+00; -1.2900026E-01;  1.0114974E+03;  4.0576556E-01;  9.5142881E+03;3;  3.4382496E+01;  0.0000000E+00; -5.8292061E+01;0;  1.2727565E+00;  9.9692568E+03;  0.0000000E+00;  4.0903338E-04;  1.0000000E+04;  0.0000000E+00;  9.9732109E+03;  8.2516539E-01;  0.0000000E+00;  4.4759110E-01;  1.2247549E+04;
  8.8016385E-01;  9.9999998E-03; -2.8031629E-01;2394;  8.6285882E-02;  0.0000000E+00; -1.1103123E-01;  1.0115048E+03;  4.0576592E-01;  9.5204023E+03;3;  3.4321022E+01;  0.0000000E+00; -4.1763966E+01;0;  1.0183353E+00;  9.9694082E+03;  0.0000000E+00;  1.0120035E-03;  1.0000000E+04;  0.0000000E+00;  9.9732002E+03;  8.2832587E-01;  0.0000000E+00;  1.9000952E-01;  1.2623318E+04;
  8.8016677E-01;  9.9999998E-03; -2.6030916E-01;2395;  9.0990290E-02;  0.0000000E+00; -1.0573831E-01;  1.0113923E+03;  4.0576583E-01;  9.4273770E+03;3;  3.4242786E+01;  0.0000000E+00; -2.2279209E+01;0;  1.0074635E+00;  9.9697217E+03;  0.0000000E+00;  1.0762888E-03;  1.0000000E+04;  0.0000000E+00;  9.9706895E+03;  8.2801610E-01;  0.0000000E+00;  1.7944738E-01;  1.3903991E+04;
  8.8016951E-01;  9.9999998E-03; -2.4028385E-01;2396;  9.4498053E-02;  0.0000000E+00; -1.0943977E-01;  1.0114665E+03;  4.0576535E-01;  9.4887354E+03;3;  3.4106892E+01;  0.0000000E+00; -1.5660055E+01;0;  1.0372084E+00;  9.9702246E+03;  0.0000000E+00;  7.1621733E-04;  1.0000000E+04;  0.0000000E+00;  9.9716680E+03;  8.2260084E-01;  0.0000000E+00;  2.1460755E-01;  1.3397970E+04;
  8.8016862E-01;  9.9999998E-03; -2.2024688E-01;2397;  9.5929518E-02;  0.0000000E+00; -1.0865310E-01;  1.0115504E+03;  4.0576488E-01;  9.5580850E+03;3;  3.3909649E+01;  0.0000000E+00; -1.4279691E+01;0;  1.0402820E+00;  9.9709580E+03;  0.0000000E+00;  3.3677867E-04;  1.0000000E+04;  0.0000000E+00;  9.9726035E+03;  8.1070203E-01;  0.0000000E+00;  2.2958001E-01;  1.2935876E+04;
  8.8016319E-01;  9.9999998E-03; -2.0021276E-01;2398;  9.4110429E-02;  0.0000000E+00; -1.0259242E-01;  1.0116295E+03;  4.0576443E-01;  9.6235879E+03;3;  3.3645420E+01;  0.0000000E+00; -1.4885207E+01;0;  1.0522907E+00;  9.9719131E+03;  0.0000000E+00;  1.0294035E-04;  1.0000000E+04;  0.0000000E+00;  9.9732334E+03;  7.9188299E-01;  0.0000000E+00;  2.6040766E-01;  1.2607469E+04;
  9.0018541E-01;  9.9999998E-03; -3.0032003E-01;2424;  9.4487868E-02;  0.0000000E+00; -1.2300773E-01;  1.0108796E+03;  4.0540239E-01;  8.9994346E+03;3;  4.3218052E+01;  0.0000000E+00; -5.5893570E+01;0;  1.1411953E+00;  9.9735967E+03;  0.0000000E+00;  7.3838187E-04;  1.0000000E+04;  0.0000000E+00;  9.9745566E+03;  7.1772474E-01;  0.0000000E+00;  4.2347053E-01;  1.1573410E+04;
  9.0019667E-01;  9.9999998E-03; -2.8029996E-01;2425;  1.0497423E-01;  0.0000000E+00; -1.0613271E-01;  1.0108945E+03;  4.0540275E-01;  9.0116592E+03;3;  4.2988022E+01;  0.0000000E+00; -4.0269321E+01;0;  8.9960885E-01;  9.9739746E+03;  0.0000000E+00;  1.4724532E-03;  1.0000000E+04;  0.0000000E+00;  9.9744736E+03;  7.1309179E-01;  0.0000000E+00;  1.8651707E-01;  1.1953654E+04;
  9.0019912E-01;  9.9999998E-03; -2.6029196E-01;2426;  1.0998861E-01;  0.0000000E+00; -1.0077927E-01;  1.0108054E+03;  4.0540263E-01;  8.9379990E+03;3;  4.2718456E+01;  0.0000000E+00; -2.1805050E+01;0;  8.8039470E-01;  9.9745332E+03;  0.0000000E+00;  1.5321781E-03;  1.0000000E+04;  0.0000000E+00;  9.9721709E+03;  7.0386982E-01;  0.0000000E+00;  1.7652485E-01;  1.3123810E+04;
  9.0020227E-01;  9.9999998E-03; -2.4026741E-01;2427;  1.1383528E-01;  0.0000000E+00; -1.0388688E-01;  1.0108878E+03;  4.0540212E-01;  9.0061357E+03;3;  4.2366497E+01;  0.0000000E+00; -1.5779572E+01;0;  8.9858919E-01;  9.9752988E+03;  0.0000000E+00;  9.9525659E-04;  1.0000000E+04;  0.0000000E+00;  9.9730537E+03;  6.8893886E-01;  0.0000000E+00;  2.0965034E-01;  1.2670220E+04;
  9.0020162E-01;  9.9999998E-03; -2.2023277E-01;2428;  1.1554017E-01;  0.0000000E+00; -1.0280143E-01;  1.0109796E+03;  4.0540174E-01;  9.0821631E+03;3;  4.1791931E+01;  0.0000000E+00; -1.4034973E+01;0;  8.9224875E-01;  9.9762764E+03;  0.0000000E+00;  4.5192108E-04;  1.0000000E+04;  0.0000000E+00;  9.9739111E+03;  6.6800362E-01;  0.0000000E+00;  2.2424515E-01;  1.2251839E+04;
  9.0019524E-01;  9.9999998E-03; -2.0020099E-01;2429;  1.1350745E-01;  0.0000000E+00; -9.7368486E-02;  1.0110682E+03;  4.0540147E-01;  9.1554297E+03;3;  4.1453007E+01;  0.0000000E+00; -1.4604113E+01;0;  8.9538932E-01;  9.9774160E+03;  0.0000000E+00;  1.2775153E-04;  1.0000000E+04;  0.0000000E+00;  9.9745342E+03;  6.4190370E-01;  0.0000000E+00;  2.5348565E-01;  1.1930394E+04;
  9.2021054E-01;  9.9999998E-03; -3.0030021E-01;2455;  1.0841865E-01;  0.0000000E+00; -1.1603808E-01;  1.0101631E+03;  4.0498576E-01;  8.4021953E+03;3;  5.0499954E+01;  0.0000000E+00; -5.3198376E+01;0;  9.8904097E-01;  9.9783594E+03;  0.0000000E+00;  9.9265319E-04;  1.0000000E+04;  0.0000000E+00;  9.9761729E+03;  5.9407127E-01;  0.0000000E+00;  3.9496970E-01;  1.0763244E+04;
  9.2022187E-01;  9.9999998E-03; -2.8028077E-01;2456;  1.1982050E-01;  0.0000000E+00; -1.0038313E-01;  1.0101901E+03;  4.0498596E-01;  8.4244648E+03;3;  5.0130733E+01;  0.0000000E+00; -3.8706829E+01;0;  7.6076555E-01;  9.9789912E+03;  0.0000000E+00;  1.8412292E-03;  1.0000000E+04;  0.0000000E+00;  9.9760791E+03;  5.8110797E-01;  0.0000000E+00;  1.7965759E-01;  1.1116520E+04;
  9.2022407E-01;  9.9999998E-03; -2.6027191E-01;2457;  1.2509076E-01;  0.0000000E+00; -9.4952807E-02;  1.0101271E+03;  4.0498582E-01;  8.3723291E+03;3;  4.9853722E+01;  0.0000000E+00; -2.1313147E+01;0;  7.3217249E-01;  9.9798408E+03;  0.0000000E+00;  1.8622059E-03;  1.0000000E+04;  0.0000000E+00;  9.9740029E+03;  5.6243032E-01;  0.0000000E+00;  1.6974220E-01;  1.2167774E+04;
  9.2022711E-01;  9.9999998E-03; -2.4024795E-01;2458;  1.2861851E-01;  0.0000000E+00; -9.7001910E-02;  1.0102188E+03;  4.0498549E-01;  8.4481162E+03;3;  4.9115406E+01;  0.0000000E+00; -1.5648492E+01;0;  7.3699218E-01;  9.9809170E+03;  0.0000000E+00;  1.1706408E-03;  1.0000000E+04;  0.0000000E+00;  9.9747627E+03;  5.3750348E-01;  0.0000000E+00;  1.9948868E-01;  1.1781306E+04;
  9.2022669E-01;  9.9999998E-03; -2.2021599E-01;2459;  1.3056797E-01;  0.0000000E+00; -9.5533952E-02;  1.0103180E+03;  4.0498504E-01;  8.5302109E+03;3;  4.8260197E+01;  0.0000000E+00; -1.3557059E+01;0;  7.2219956E-01;  9.9821680E+03;  0.0000000E+00;  5.0430692E-04;  1.0000000E+04;  0.0000000E+00;  9.9754834E+03;  5.0730860E-01;  0.0000000E+00;  2.1489093E-01;  1.1431772E+04;
  9.2021859E-01;  9.9999998E-03; -2.0018736E-01;2460;  1.2790291E-01;  0.0000000E+00; -9.1205440E-02;  1.0104141E+03;  4.0498477E-01;  8.6095498E+03;3;  4.7648186E+01;  0.0000000E+00; -1.4103524E+01;0;  7.1786582E-01;  9.9835088E+03;  0.0000000E+00;  1.2686718E-04;  1.0000000E+04;  0.0000000E+00;  9.9760635E+03;  4.7427347E-01;  0.0000000E+00;  2.4359234E-01;  1.1133559E+04;
  9.4022804E-01;  9.9999998E-03; -3.0027848E-01;2486;  1.1836503E-01;  0.0000000E+00; -1.0825010E-01;  1.0093641E+03;  4.0453541E-01;  7.7358750E+03;3;  5.5857063E+01;  0.0000000E+00; -5.0118557E+01;0;  8.3171964E-01;  9.9829561E+03;  0.0000000E+00;  1.1027997E-03;  1.0000000E+04;  0.0000000E+00;  9.9779932E+03;  4.7028166E-01;  0.0000000E+00;  3.6143801E-01;  9.8493564E+03;
  9.4023943E-01;  9.9999998E-03; -2.8026003E-01;2487;  1.3049723E-01;  0.0000000E+00; -9.3981683E-02;  1.0094027E+03;  4.0453565E-01;  7.7677793E+03;3;  5.5443665E+01;  0.0000000E+00; -3.6749214E+01;0;  6.1889356E-01;  9.9838730E+03;  0.0000000E+00;  2.1152194E-03;  1.0000000E+04;  0.0000000E+00;  9.9778467E+03;  4.4879714E-01;  0.0000000E+00;  1.7009644E-01;  1.0191716E+04;
  9.4024146E-01;  9.9999998E-03; -2.6025042E-01;2488;  1.3588440E-01;  0.0000000E+00; -8.8607110E-02;  1.0093678E+03;  4.0453550E-01;  7.7389229E+03;3;  5.5054653E+01;  0.0000000E+00; -2.0460896E+01;0;  5.8131623E-01;  9.9850400E+03;  0.0000000E+00;  1.9847197E-03;  1.0000000E+04;  0.0000000E+00;  9.9760078E+03;  4.2081198E-01;  0.0000000E+00;  1.6050425E-01;  1.1117488E+04;
  9.4024372E-01;  9.9999998E-03; -2.4022718E-01;2489;  1.3858746E-01;  0.0000000E+00; -8.9356065E-02;  1.0094694E+03;  4.0453511E-01;  7.8228281E+03;3;  5.3610126E+01;  0.0000000E+00; -1.4868401E+01;0;  5.7268620E-01;  9.9864307E+03;  0.0000000E+00;  1.1751330E-03;  1.0000000E+04;  0.0000000E+00;  9.9766484E+03;  3.8663092E-01;  0.0000000E+00;  1.8605530E-01;  1.0798664E+04;
  9.4023830E-01;  9.9999998E-03; -2.2019845E-01;2490;  1.3743149E-01;  0.0000000E+00; -8.8251963E-02;  1.0095743E+03;  4.0453488E-01;  7.9094932E+03;3;  5.1333878E+01;  0.0000000E+00; -1.2869002E+01;0;  5.5253780E-01;  9.9879551E+03;  0.0000000E+00;  4.8284975E-04;  1.0000000E+04;  0.0000000E+00;  9.9772188E+03;  3.4861636E-01;  0.0000000E+00;  2.0392147E-01;  1.0522775E+04;
  9.4022560E-01;  9.9999998E-03; -2.0017269E-01;2491;  1.3174687E-01;  0.0000000E+00; -8.4573381E-02;  1.0096773E+03;  4.0453467E-01;  7.9945850E+03;3;  4.9393684E+01;  0.0000000E+00; -1.3617288E+01;0;  5.4203224E-01;  9.9894570E+03;  0.0000000E+00;  1.0612136E-04;  1.0000000E+04;  0.0000000E+00;  9.9777588E+03;  3.1052983E-01;  0.0000000E+00;  2.3150238E-01;  1.0248155E+04;
  9.6024013E-01;  9.9999998E-03; -3.0025566E-01;2517;  1.2540680E-01;  0.0000000E+00; -9.9758856E-02;  1.0084977E+03;  4.0407127E-01;  7.0131401E+03;3;  5.9698273E+01;  0.0000000E+00; -4.6532463E+01;0;  6.8499810E-01;  9.9867773E+03;  0.0000000E+00;  1.0053016E-03;  1.0000000E+04;  0.0000000E+00;  9.9799502E+03;  3.6340484E-01;  0.0000000E+00;  3.2159325E-01;  8.8633232E+03;
  9.6025127E-01;  9.9999998E-03; -2.8023839E-01;2518;  1.3777369E-01;  0.0000000E+00; -8.7077290E-02;  1.0085479E+03;  4.0407136E-01;  7.0545547E+03;3;  5.9091064E+01;  0.0000000E+00; -3.4205696E+01;0;  4.9134594E-01;  9.9879961E+03;  0.0000000E+00;  5.4653296E-03;  1.0000000E+04;  0.0000000E+00;  9.9797285E+03;  3.3381635E-01;  0.0000000E+00;  1.5752961E-01;  9.2006543E+03;
  9.6025252E-01;  9.9999998E-03; -2.6022840E-01;2519;  1.4288948E-01;  0.0000000E+00; -8.1769697E-02;  1.0085385E+03;  4.0407136E-01;  7.0467817E+03;3;  5.8523872E+01;  0.0000000E+00; -1.9412090E+01;0;  4.4526052E-01;  9.9894805E+03;  0.0000000E+00;  5.0384244E-03;  1.0000000E+04;  0.0000000E+00;  9.9780820E+03;  2.9740965E-01;  0.0000000E+00;  1.4785087E-01;  1.0024007E+04;
  9.6025068E-01;  9.9999998E-03; -2.4020696E-01;2520;  1.4302580E-01;  0.0000000E+00; -8.2375571E-02;  1.0086462E+03;  4.0407097E-01;  7.1357207E+03;3;  5.5194702E+01;  0.0000000E+00; -1.4167320E+01;0;  4.2988175E-01;  9.9911650E+03;  0.0000000E+00;  2.2675723E-03;  1.0000000E+04;  0.0000000E+00;  9.9785498E+03;  2.5582007E-01;  0.0000000E+00;  1.7406169E-01;  9.7913359E+03;
  9.6023959E-01;  9.9999998E-03; -2.2018118E-01;2521;  1.3831443E-01;  0.0000000E+00; -8.1827328E-02;  1.0087576E+03;  4.0407079E-01;  7.2276152E+03;3;  5.1680977E+01;  0.0000000E+00; -1.2694116E+01;0;  4.0520972E-01;  9.9929072E+03;  0.0000000E+00;  5.2128889E-04;  1.0000000E+04;  0.0000000E+00;  9.9790225E+03;  2.1251996E-01;  0.0000000E+00;  1.9268976E-01;  9.5645859E+03;
  9.6022499E-01;  9.9999998E-03; -2.0015752E-01;2522;  1.3167389E-01;  0.0000000E+00; -7.7757999E-02;  1.0088650E+03;  4.0407065E-01;  7.3162646E+03;3;  4.9700096E+01;  0.0000000E+00; -1.3164142E+01;0;  3.8967234E-01;  9.9945244E+03;  0.0000000E+00;  7.7850556E-05;  1.0000000E+04;  0.0000000E+00;  9.9795410E+03;  1.7177302E-01;  0.0000000E+00;  2.1789932E-01;  9.3088379E+03;
  9.8025042E-01;  9.9999998E-03; -3.0023256E-01;2548;  1.3144594E-01;  0.0000000E+00; -9.1145717E-02;  1.0075922E+03;  4.0361118E-01;  6.2574482E+03;3;  6.3071789E+01;  0.0000000E+00; -4.2758282E+01;0;  5.6578028E-01;  9.9895313E+03;  0.0000000E+00;  5.8359455E-04;  1.0000000E+04;  0.0000000E+00;  9.9820107E+03;  2.8244853E-01;  0.0000000E+00;  2.8333175E-01;  7.8116631E+03;
  9.8026007E-01;  9.9999998E-03; -2.8021637E-01;2549;  1.4320114E-01;  0.0000000E+00; -7.9708897E-02;  1.0076529E+03;  4.0361112E-01;  6.3074536E+03;3;  6.1952614E+01;  0.0000000E+00; -3.1445074E+01;0;  3.8617742E-01;  9.9910293E+03;  0.0000000E+00;  1.7583398E-02;  1.0000000E+04;  0.0000000E+00;  9.9817246E+03;  2.4640550E-01;  0.0000000E+00;  1.3977191E-01;  8.1495703E+03;
  9.8025894E-01;  9.9999998E-03; -2.6020664E-01;2550;  1.4668195E-01;  0.0000000E+00; -7.4946724E-02;  1.0076600E+03;  4.0361103E-01;  6.3133491E+03;3;  6.0008492E+01;  0.0000000E+00; -1.8264374E+01;0;  3.3834016E-01;  9.9928008E+03;  0.0000000E+00;  1.7813494E-02;  1.0000000E+04;  0.0000000E+00;  9.9801143E+03;  2.0330459E-01;  0.0000000E+00;  1.3503557E-01;  8.9341982E+03;
  9.8025149E-01;  9.9999998E-03; -2.4018756E-01;2551;  1.4356790E-01;  0.0000000E+00; -7.6046042E-02;  1.0077697E+03;  4.0361086E-01;  6.4037441E+03;3;  5.5061062E+01;  0.0000000E+00; -1.3624504E+01;0;  3.2047755E-01;  9.9947168E+03;  0.0000000E+00;  9.1971075E-03;  1.0000000E+04;  0.0000000E+00;  9.9803877E+03;  1.5669268E-01;  0.0000000E+00;  1.6378488E-01;  8.7934873E+03;
  9.8023736E-01;  9.9999998E-03; -2.2016385E-01;2552;  1.3767044E-01;  0.0000000E+00; -7.5440109E-02;  1.0078873E+03;  4.0361080E-01;  6.5006279E+03;3;  5.1776165E+01;  0.0000000E+00; -1.2617338E+01;0;  2.9122514E-01;  9.9966074E+03;  0.0000000E+00;  2.5036035E-03;  1.0000000E+04;  0.0000000E+00;  9.9808291E+03;  1.1065841E-01;  0.0000000E+00;  1.8056674E-01;  8.5888535E+03;
  9.8022181E-01;  9.9999998E-03; -2.0014259E-01;2553;  1.3049084E-01;  0.0000000E+00; -7.1146905E-02;  1.0079965E+03;  4.0361053E-01;  6.5907319E+03;3;  4.9830410E+01;  0.0000000E+00; -1.2795696E+01;0;  2.7251607E-01;  9.9982969E+03;  0.0000000E+00;  2.4852180E-04;  1.0000000E+04;  0.0000000E+00;  9.9813184E+03;  6.9155239E-02;  0.0000000E+00;  2.0336083E-01;  8.3531943E+03;
  1.0002620E+00;  9.9999998E-03; -3.0020967E-01;2579;  1.3822995E-01;  0.0000000E+00; -8.2943521E-02;  1.0066926E+03;  4.0317005E-01;  5.5060405E+03;3;  6.7270546E+01;  0.0000000E+00; -3.9686573E+01;0;  4.7507602E-01;  9.9912988E+03;  0.0000000E+00; -3.1604066E-03;  1.0000000E+04;  0.0000000E+00;  9.9842412E+03;  2.2666110E-01;  0.0000000E+00;  2.4841493E-01;  6.6706274E+03;
  1.0002676E+00;  9.9999998E-03; -2.8019446E-01;2580;  1.4756528E-01;  0.0000000E+00; -7.2120115E-02;  1.0067565E+03;  4.0317020E-01;  5.5586055E+03;3;  6.4773506E+01;  0.0000000E+00; -2.8537458E+01;0;  3.0458224E-01;  9.9930293E+03;  0.0000000E+00;  3.6524154E-02;  1.0000000E+04;  0.0000000E+00;  9.9837930E+03;  1.8672013E-01;  0.0000000E+00;  1.1786209E-01;  7.0619399E+03;
  1.0002620E+00;  9.9999998E-03; -2.6018575E-01;2581;  1.4781076E-01;  0.0000000E+00; -6.8531185E-02;  1.0067665E+03;  4.0316996E-01;  5.5668472E+03;3;  6.0199356E+01;  0.0000000E+00; -1.7153799E+01;0;  2.6402155E-01;  9.9950264E+03;  0.0000000E+00;  3.9747257E-02;  1.0000000E+04;  0.0000000E+00;  9.9820039E+03;  1.3890179E-01;  0.0000000E+00;  1.2511976E-01;  7.8927236E+03;
  1.0002502E+00;  9.9999998E-03; -2.4016874E-01;2582;  1.4311491E-01;  0.0000000E+00; -6.9858335E-02;  1.0068759E+03;  4.0316984E-01;  5.6568872E+03;3;  5.4925674E+01;  0.0000000E+00; -1.3111510E+01;0;  2.4369565E-01;  9.9970947E+03;  0.0000000E+00;  2.1410935E-02;  1.0000000E+04;  0.0000000E+00;  9.9821143E+03;  8.9718707E-02;  0.0000000E+00;  1.5397693E-01;  7.8293413E+03;
  1.0002334E+00;  9.9999998E-03; -2.2014682E-01;2583;  1.3628262E-01;  0.0000000E+00; -6.8677485E-02;  1.0069958E+03;  4.0316981E-01;  5.7555610E+03;3;  5.1814781E+01;  0.0000000E+00; -1.2426044E+01;0;  2.1113876E-01;  9.9990527E+03;  0.0000000E+00;  5.9239045E-03;  1.0000000E+04;  0.0000000E+00;  9.9825420E+03;  4.3271422E-02;  0.0000000E+00;  1.6786733E-01;  7.6398540E+03;
  1.0002172E+00;  9.9999998E-03; -2.0012861E-01;2584;  1.2879370E-01;  0.0000000E+00; -6.5002538E-02;  1.0071048E+03;  4.0316963E-01;  5.8452114E+03;3;  4.9902264E+01;  0.0000000E+00; -1.2371767E+01;0;  1.9123481E-01;  1.0000753E+04;  0.0000000E+00;  5.1859819E-04;  1.0000000E+04;  0.0000000E+00;  9.9830078E+03;  2.5699278E-03;  0.0000000E+00;  1.8866488E-01;  7.4230703E+03;
  1.0202777E+00;  9.9999998E-03; -3.0018765E-01;2610;  1.4706533E-01;  0.0000000E+00; -7.5323910E-02;  1.0058408E+03;  4.0275985E-01;  4.7937212E+03;3;  7.3241333E+01;  0.0000000E+00; -3.7536175E+01;0;  4.0603116E-01;  9.9923525E+03;  0.0000000E+00; -9.1034072E-03;  1.0000000E+04;  0.0000000E+00;  9.9866143E+03;  1.9047441E-01;  0.0000000E+00;  2.1555676E-01;  5.4695376E+03;
  1.0202754E+00;  9.9999998E-03; -2.8017393E-01;2611;  1.5119185E-01;  0.0000000E+00; -6.4992093E-02;  1.0058954E+03;  4.0276009E-01;  4.8386309E+03;3;  6.7964188E+01;  0.0000000E+00; -2.5572748E+01;0;  2.4677104E-01;  9.9943252E+03;  0.0000000E+00;  4.3618295E-02;  1.0000000E+04;  0.0000000E+00;  9.9857305E+03;  1.4711140E-01;  0.0000000E+00;  9.9659637E-02;  6.0283413E+03;
  1.0202643E+00;  9.9999998E-03; -2.6016623E-01;2612;  1.4823605E-01;  0.0000000E+00; -6.2197614E-02;  1.0059017E+03;  4.0276021E-01;  4.8437261E+03;3;  6.0624275E+01;  0.0000000E+00; -1.5994422E+01;0;  2.1181627E-01;  9.9964961E+03;  0.0000000E+00;  5.0375130E-02;  1.0000000E+04;  0.0000000E+00;  9.9836836E+03;  9.6323267E-02;  0.0000000E+00;  1.1549300E-01;  6.9343813E+03;
  1.0202483E+00;  9.9999998E-03; -2.4015100E-01;2613;  1.4246315E-01;  0.0000000E+00; -6.3536033E-02;  1.0060058E+03;  4.0276006E-01;  4.9291504E+03;3;  5.5116817E+01;  0.0000000E+00; -1.2568473E+01;0;  1.9188544E-01;  9.9986152E+03;  0.0000000E+00;  2.2683594E-02;  1.0000000E+04;  0.0000000E+00;  9.9836396E+03;  4.7126856E-02;  0.0000000E+00;  1.4475858E-01;  6.9401416E+03;
  1.0202290E+00;  9.9999998E-03; -2.2013164E-01;2614;  1.3477829E-01;  0.0000000E+00; -6.2343903E-02;  1.0061225E+03;  4.0275994E-01;  5.0249492E+03;3;  5.1977306E+01;  0.0000000E+00; -1.2023752E+01;0;  1.5934201E-01;  1.0000532E+04;  0.0000000E+00;  6.0158916E-04;  1.0000000E+04;  0.0000000E+00;  9.9840381E+03;  2.5964691E-03;  0.0000000E+00;  1.5674554E-01;  6.7704595E+03;
  1.0202121E+00;  9.9999998E-03; -2.0011590E-01;2615;  1.2689684E-01;  0.0000000E+00; -5.9401844E-02;  1.0062287E+03;  4.0275994E-01;  5.1121357E+03;3;  4.9760036E+01;  0.0000000E+00; -1.2274613E+01;0;  1.3922289E-01;  1.0002160E+04;  0.0000000E+00; -3.6997881E-03;  1.0000000E+04;  0.0000000E+00;  9.9845234E+03; -3.5606347E-02;  0.0000000E+00;  1.7482924E-01;  6.5565825E+03;
  1.0403000E+00;  9.9999998E-03; -3.0016863E-01;2641;  1.5886857E-01;  0.0000000E+00; -6.7145243E-02;  1.0050285E+03;  4.0238932E-01;  4.1137437E+03;3;  8.1607269E+01;  0.0000000E+00; -3.3423618E+01;0;  3.4733361E-01;  9.9927266E+03;  0.0000000E+00;  1.5767395E-02;  1.0000000E+04;  0.0000000E+00;  9.9885010E+03;  1.7354922E-01;  0.0000000E+00;  1.7378440E-01;  4.5079907E+03;
  1.0402857E+00;  9.9999998E-03; -2.8015631E-01;2642;  1.5549904E-01;  0.0000000E+00; -5.8897898E-02;  1.0050922E+03;  4.0238950E-01;  4.1659302E+03;3;  7.1760887E+01;  0.0000000E+00; -2.3343023E+01;0;  2.0903036E-01;  9.9952578E+03;  0.0000000E+00; -1.8637832E-03;  1.0000000E+04;  0.0000000E+00;  9.9872354E+03;  1.1857921E-01;  0.0000000E+00;  9.0451159E-02;  5.1688667E+03;
  1.0402672E+00;  9.9999998E-03; -2.6014882E-01;2643;  1.4896731E-01;  0.0000000E+00; -5.6201544E-02;  1.0051029E+03;  4.0238956E-01;  4.1746240E+03;3;  6.1570225E+01;  0.0000000E+00; -1.4938382E+01;0;  1.7314124E-01;  9.9976309E+03;  0.0000000E+00;  6.2075430E-03;  1.0000000E+04;  0.0000000E+00;  9.9850693E+03;  6.4990960E-02;  0.0000000E+00;  1.0815029E-01;  6.0872935E+03;
  1.0402465E+00;  9.9999998E-03; -2.4013537E-01;2644;  1.4187138E-01;  0.0000000E+00; -5.7300888E-02;  1.0051964E+03;  4.0238962E-01;  4.2510991E+03;3;  5.5615845E+01;  0.0000000E+00; -1.2066151E+01;0;  1.5593588E-01;  9.9996982E+03;  0.0000000E+00; -2.0515405E-02;  1.0000000E+04;  0.0000000E+00;  9.9848594E+03;  1.8317403E-02;  0.0000000E+00;  1.3761848E-01;  6.1658789E+03;
  1.0402249E+00;  9.9999998E-03; -2.2011843E-01;2645;  1.3344909E-01;  0.0000000E+00; -5.6261268E-02;  1.0053040E+03;  4.0238953E-01;  4.3391812E+03;3;  5.2126358E+01;  0.0000000E+00; -1.1361531E+01;0;  1.2652668E-01;  1.0001433E+04;  0.0000000E+00; -3.5809692E-02;  1.0000000E+04;  0.0000000E+00;  9.9852646E+03; -2.1675877E-02;  0.0000000E+00;  1.4820255E-01;  6.0054009E+03;
  1.0402066E+00;  9.9999998E-03; -2.0010406E-01;2646;  1.2484919E-01;  0.0000000E+00; -5.3841464E-02;  1.0054034E+03;  4.0238950E-01;  4.4205327E+03;3;  4.9849995E+01;  0.0000000E+00; -1.1585740E+01;0;  1.0750768E-01;  1.0002863E+04;  0.0000000E+00; -2.4295243E-02;  1.0000000E+04;  0.0000000E+00;  9.9858086E+03; -5.5301320E-02;  0.0000000E+00;  1.6280900E-01;  5.7774399E+03;
  1.0603235E+00;  9.9999998E-03; -3.0015394E-01;2672;  1.7021957E-01;  0.0000000E+00; -5.8624163E-02;  1.0042304E+03;  4.0206307E-01;  3.4459414E+03;3;  9.0148674E+01;  0.0000000E+00; -2.7028830E+01;0;  3.0381587E-01;  9.9921875E+03;  0.0000000E+00;  1.7569496E-01;  1.0000000E+04;  0.0000000E+00;  9.9893945E+03;  1.7881757E-01;  0.0000000E+00;  1.2499829E-01;  4.0407385E+03;
  1.0602980E+00;  9.9999998E-03; -2.8014290E-01;2673;  1.6071364E-01;  0.0000000E+00; -5.3675216E-02;  1.0043453E+03;  4.0206319E-01;  3.5395723E+03;3;  7.5749001E+01;  0.0000000E+00; -2.0911406E+01;0;  1.9087905E-01;  9.9959111E+03;  0.0000000E+00; -1.3139509E-01;  1.0000000E+04;  0.0000000E+00;  9.9879414E+03;  9.8567039E-02;  0.0000000E+00;  9.2312008E-02;  4.6590635E+03;
  1.0602720E+00;  9.9999998E-03; -2.6013494E-01;2674;  1.5089026E-01;  0.0000000E+00; -5.1140741E-02;  1.0043843E+03;  4.0206313E-01;  3.5713484E+03;3;  6.3545925E+01;  0.0000000E+00; -1.4099877E+01;0;  1.4668831E-01;  9.9986611E+03;  0.0000000E+00; -1.4373277E-01;  1.0000000E+04;  0.0000000E+00;  9.9859551E+03;  3.8588509E-02;  0.0000000E+00;  1.0809981E-01;  5.4666270E+03;
  1.0602455E+00;  9.9999998E-03; -2.4012251E-01;2675;  1.4153236E-01;  0.0000000E+00; -5.1658381E-02;  1.0044734E+03;  4.0206325E-01;  3.6440073E+03;3;  5.6376637E+01;  0.0000000E+00; -1.1727471E+01;0;  1.2937920E-01;  1.0000655E+04;  0.0000000E+00; -1.4424308E-01;  1.0000000E+04;  0.0000000E+00;  9.9857354E+03; -5.1146280E-03;  0.0000000E+00;  1.3449383E-01;  5.5487661E+03;
  1.0602216E+00;  9.9999998E-03; -2.2010693E-01;2676;  1.3226913E-01;  0.0000000E+00; -5.0454099E-02;  1.0045692E+03;  4.0206331E-01;  3.7220056E+03;3;  5.2448826E+01;  0.0000000E+00; -1.0861979E+01;0;  1.0449546E-01;  1.0002075E+04;  0.0000000E+00; -1.2952258E-01;  1.0000000E+04;  0.0000000E+00;  9.9862158E+03; -3.8223065E-02;  0.0000000E+00;  1.4271852E-01;  5.3609839E+03;
  1.0602012E+00;  9.9999998E-03; -2.0009348E-01;2677;  1.2285086E-01;  0.0000000E+00; -4.8290070E-02;  1.0046561E+03;  4.0206322E-01;  3.7928157E+03;3;  4.9817631E+01;  0.0000000E+00; -1.0643228E+01;0;  8.8416867E-02;  1.0003181E+04;  0.0000000E+00; -7.8742489E-02;  1.0000000E+04;  0.0000000E+00;  9.9868350E+03; -6.5002225E-02;  0.0000000E+00;  1.5341909E-01;  5.1010425E+03;
  1.0803388E+00;  9.9999998E-03; -3.0014181E-01;2703;  1.7624587E-01;  0.0000000E+00; -5.2152175E-02;  1.0035007E+03;  4.0178284E-01;  2.8352842E+03;3;  9.5562592E+01;  0.0000000E+00; -2.3076805E+01;0;  2.9363304E-01;  9.9909775E+03;  0.0000000E+00;  6.2260211E-01;  1.0000000E+04;  0.0000000E+00;  9.9900137E+03;  1.9436039E-01;  0.0000000E+00;  9.9272639E-02;  4.2776689E+03;
  1.0803075E+00;  9.9999998E-03; -2.8013191E-01;2704;  1.6458017E-01;  0.0000000E+00; -4.8931506E-02;  1.0036857E+03;  4.0178302E-01;  2.9851602E+03;3;  7.9748932E+01;  0.0000000E+00; -1.8865696E+01;0;  1.8071726E-01;  9.9962461E+03;  0.0000000E+00; -2.7233523E-01;  1.0000000E+04;  0.0000000E+00;  9.9884102E+03;  8.6115845E-02;  0.0000000E+00;  9.4601408E-02;  4.2900938E+03;
  1.0802765E+00;  9.9999998E-03; -2.6012319E-01;2705;  1.5264855E-01;  0.0000000E+00; -4.6269778E-02;  1.0037658E+03;  4.0178290E-01;  3.0500732E+03;3;  6.6190338E+01;  0.0000000E+00; -1.3397148E+01;0;  1.2285352E-01;  9.9995742E+03;  0.0000000E+00; -3.9585292E-01;  1.0000000E+04;  0.0000000E+00;  9.9866748E+03;  1.5741285E-02;  0.0000000E+00;  1.0711224E-01;  5.0785942E+03;
  1.0802456E+00;  9.9999998E-03; -2.4011160E-01;2706;  1.4153904E-01;  0.0000000E+00; -4.6073034E-02;  1.0038522E+03;  4.0178302E-01;  3.1201050E+03;3;  5.7745682E+01;  0.0000000E+00; -1.1047611E+01;0;  1.0555711E-01;  1.0001562E+04;  0.0000000E+00; -3.6219406E-01;  1.0000000E+04;  0.0000000E+00;  9.9863994E+03; -2.6402017E-02;  0.0000000E+00;  1.3195913E-01;  5.1348643E+03;
  1.0802191E+00;  9.9999998E-03; -2.2009724E-01;2707;  1.3129492E-01;  0.0000000E+00; -4.4939574E-02;  1.0039322E+03;  4.0178299E-01;  3.1849194E+03;3;  5.2986256E+01;  0.0000000E+00; -1.0243979E+01;0;  8.8128611E-02;  1.0002614E+04;  0.0000000E+00; -2.9687166E-01;  1.0000000E+04;  0.0000000E+00;  9.9869297E+03; -5.1718399E-02;  0.0000000E+00;  1.3984701E-01;  4.8829854E+03;
  1.0801966E+00;  9.9999998E-03; -2.0008411E-01;2708;  1.2103897E-01;  0.0000000E+00; -4.2809870E-02;  1.0040014E+03;  4.0178311E-01;  3.2409443E+03;3;  4.9829086E+01;  0.0000000E+00; -9.7303143E+00;0;  7.6876812E-02;  1.0003295E+04;  0.0000000E+00; -1.8478297E-01;  1.0000000E+04;  0.0000000E+00;  9.9876240E+03; -7.0003100E-02;  0.0000000E+00;  1.4687991E-01;  4.5442700E+03;
  1.1003114E+00;  9.9999998E-03; -2.8012207E-01;2734;  1.6637981E-01;  0.0000000E+00; -4.4564296E-02;  1.0031347E+03;  4.0154797E-01;  2.5197712E+03;3;  8.4332420E+01;  0.0000000E+00; -1.7390062E+01;0;  1.7563051E-01;  9.9962520E+03;  0.0000000E+00; -2.2084551E-01;  1.0000000E+04;  0.0000000E+00;  9.9891328E+03;  8.2757428E-02;  0.0000000E+00;  9.2873082E-02;  3.6621892E+03;
  1.1002793E+00;  9.9999998E-03; -2.6011270E-01;2735;  1.5350893E-01;  0.0000000E+00; -4.1390158E-02;  1.0032536E+03;  4.0154791E-01;  2.6153438E+03;3;  6.9385864E+01;  0.0000000E+00; -1.2719600E+01;0;  9.8494574E-02;  1.0000155E+04;  0.0000000E+00; -6.4720386E-01;  1.0000000E+04;  0.0000000E+00;  9.9875850E+03; -6.8784342E-04;  0.0000000E+00;  9.9182419E-02;  4.7787554E+03;
  1.1002473E+00;  9.9999998E-03; -2.4010241E-01;2736;  1.4186950E-01;  0.0000000E+00; -4.0707134E-02;  1.0033292E+03;  4.0154800E-01;  2.6762292E+03;3;  5.9710655E+01;  0.0000000E+00; -1.0222317E+01;0;  8.3749466E-02;  1.0002232E+04;  0.0000000E+00; -6.4886063E-01;  1.0000000E+04;  0.0000000E+00;  9.9870117E+03; -4.2992242E-02;  0.0000000E+00;  1.2674171E-01;  4.9529448E+03;
  1.1002178E+00;  9.9999998E-03; -2.2008902E-01;2737;  1.3062777E-01;  0.0000000E+00; -3.9638903E-02;  1.0033948E+03;  4.0154806E-01;  2.7289683E+03;3;  5.4070301E+01;  0.0000000E+00; -9.3659201E+00;0;  7.4780934E-02;  1.0003036E+04;  0.0000000E+00; -5.3291655E-01;  1.0000000E+04;  0.0000000E+00;  9.9875049E+03; -6.2776230E-02;  0.0000000E+00;  1.3755716E-01;  4.6116855E+03;
  1.1001931E+00;  9.9999998E-03; -2.0007606E-01;2738;  1.1958588E-01;  0.0000000E+00; -3.7628423E-02;  1.0034442E+03;  4.0154806E-01;  2.7686702E+03;3;  5.0108280E+01;  0.0000000E+00; -8.8185940E+00;0;  7.0121452E-02;  1.0003290E+04;  0.0000000E+00; -3.5324183E-01;  1.0000000E+04;  0.0000000E+00;  9.9882285E+03; -7.2596461E-02;  0.0000000E+00;  1.4271791E-01;  4.1409790E+03;
  1.1203099E+00;  9.9999998E-03; -2.8011402E-01;2763;  1.6581294E-01;  0.0000000E+00; -4.0902015E-02;  1.0026718E+03;  4.0135518E-01;  2.1263774E+03;3;  8.8951706E+01;  0.0000000E+00; -1.6152241E+01;0;  1.7895399E-01;  9.9958428E+03;  0.0000000E+00;  2.1321101E-01;  1.0000000E+04;  0.0000000E+00;  9.9899043E+03;  8.8021487E-02;  0.0000000E+00;  9.0932503E-02;  3.0639846E+03;
  1.1202807E+00;  9.9999998E-03; -2.6010469E-01;2764;  1.5412827E-01;  0.0000000E+00; -3.7586097E-02;  1.0028123E+03;  4.0135521E-01;  2.2382742E+03;3;  7.3860992E+01;  0.0000000E+00; -1.2031933E+01;0;  9.1991842E-02;  1.0000038E+04;  0.0000000E+00; -7.3645532E-01;  1.0000000E+04;  0.0000000E+00;  9.9885039E+03; -1.4333659E-03;  0.0000000E+00;  9.3425207E-02;  4.2390791E+03;
  1.1202496E+00;  9.9999998E-03; -2.4009489E-01;2765;  1.4230312E-01;  0.0000000E+00; -3.5868801E-02;  1.0028885E+03;  4.0135530E-01;  2.2990366E+03;3;  6.2525623E+01;  0.0000000E+00; -9.1090193E+00;0;  6.7433432E-02;  1.0002347E+04;  0.0000000E+00; -9.2787528E-01;  1.0000000E+04;  0.0000000E+00;  9.9877070E+03; -4.9495790E-02;  0.0000000E+00;  1.1692923E-01;  4.8264990E+03;
  1.1202185E+00;  9.9999998E-03; -2.2008246E-01;2766;  1.3048775E-01;  0.0000000E+00; -3.4721091E-02;  1.0029481E+03;  4.0135524E-01;  2.3464229E+03;3;  5.5605232E+01;  0.0000000E+00; -8.2332392E+00;0;  6.4235143E-02;  1.0003199E+04;  0.0000000E+00; -8.1161052E-01;  1.0000000E+04;  0.0000000E+00;  9.9880313E+03; -6.9033034E-02;  0.0000000E+00;  1.3326818E-01;  4.5080283E+03;
  1.1201912E+00;  9.9999998E-03; -2.0006944E-01;2767;  1.1862247E-01;  0.0000000E+00; -3.2769568E-02;  1.0029828E+03;  4.0135533E-01;  2.3741650E+03;3;  5.0837761E+01;  0.0000000E+00; -7.7610478E+00;0;  6.5743521E-02;  1.0003187E+04;  0.0000000E+00; -5.8323872E-01;  1.0000000E+04;  0.0000000E+00;  9.9887363E+03; -7.3593706E-02;  0.0000000E+00;  1.3933723E-01;  3.9155459E+03;
  1.1402802E+00;  9.9999998E-03; -2.6009941E-01;2792;  1.5418750E-01;  0.0000000E+00; -3.5350867E-02;  1.0024109E+03;  4.0120077E-01;  1.8941995E+03;3;  7.9379036E+01;  0.0000000E+00; -1.1989356E+01;0;  1.1634232E-01;  9.9990010E+03;  0.0000000E+00; -4.4944632E-01;  1.0000000E+04;  0.0000000E+00;  9.9892305E+03;  1.8740479E-02;  0.0000000E+00;  9.7601838E-02;  3.1548994E+03;
  1.1402520E+00;  9.9999998E-03; -2.4008982E-01;2793;  1.4273751E-01;  0.0000000E+00; -3.2537982E-02;  1.0025017E+03;  4.0120062E-01;  1.9656100E+03;3;  6.6534378E+01;  0.0000000E+00; -8.5555859E+00;0;  6.9271259E-02;  1.0001633E+04;  0.0000000E+00; -1.0600634E+00;  1.0000000E+04;  0.0000000E+00;  9.9884072E+03; -3.9650254E-02;  0.0000000E+00;  1.0892151E-01;  4.3890938E+03;
  1.1402217E+00;  9.9999998E-03; -2.2007853E-01;2794;  1.3121805E-01;  0.0000000E+00; -3.1088376E-02;  1.0025656E+03;  4.0120074E-01;  2.0157643E+03;3;  5.8069542E+01;  0.0000000E+00; -7.2706432E+00;0;  6.3813284E-02;  1.0002829E+04;  0.0000000E+00; -1.0882772E+00;  1.0000000E+04;  0.0000000E+00;  9.9884766E+03; -6.5135017E-02;  0.0000000E+00;  1.2894830E-01;  4.4293179E+03;
  1.1401918E+00;  9.9999998E-03; -2.0006508E-01;2795;  1.1850745E-01;  0.0000000E+00; -2.8780362E-02;  1.0026065E+03;  4.0120068E-01;  2.0480298E+03;3;  5.2119373E+01;  0.0000000E+00; -6.6835465E+00;0;  6.3698322E-02;  1.0002933E+04;  0.0000000E+00; -8.5689187E-01;  1.0000000E+04;  0.0000000E+00;  9.9891836E+03; -7.2094068E-02;  0.0000000E+00;  1.3579239E-01;  3.8284329E+03;
  1.1602770E+00;  9.9999998E-03; -2.6009560E-01;2819;  1.5260857E-01;  0.0000000E+00; -3.3834528E-02;  1.0020524E+03;  4.0107942E-01;  1.5860060E+03;3;  8.4774399E+01;  0.0000000E+00; -1.2253086E+01;0;  1.5629742E-01;  9.9972354E+03;  0.0000000E+00;  3.9444137E-01;  1.0000000E+04;  0.0000000E+00;  9.9898877E+03;  5.2426010E-02;  0.0000000E+00;  1.0387140E-01;  2.5135002E+03;
  1.1602541E+00;  9.9999998E-03; -2.4008760E-01;2820;  1.4348301E-01;  0.0000000E+00; -3.1315081E-02;  1.0021332E+03;  4.0107945E-01;  1.6484059E+03;3;  7.2138786E+01;  0.0000000E+00; -9.0661469E+00;0;  1.0853849E-01;  9.9998740E+03;  0.0000000E+00; -8.4435332E-01;  1.0000000E+04;  0.0000000E+00;  9.9888584E+03; -5.8058836E-03;  0.0000000E+00;  1.1434437E-01;  3.3475732E+03;
  1.1602263E+00;  9.9999998E-03; -2.2007695E-01;2821;  1.3239780E-01;  0.0000000E+00; -2.8882379E-02;  1.0022190E+03;  4.0107942E-01;  1.7147770E+03;3;  6.1788933E+01;  0.0000000E+00; -6.8817477E+00;0;  8.1586450E-02;  1.0001610E+04;  0.0000000E+00; -1.2468776E+00;  1.0000000E+04;  0.0000000E+00;  9.9888340E+03; -4.4740561E-02;  0.0000000E+00;  1.2632701E-01;  4.0690693E+03;
  1.1601962E+00;  9.9999998E-03; -2.0006402E-01;2822;  1.1975903E-01;  0.0000000E+00; -2.6386356E-02;  1.0022855E+03;  4.0107957E-01;  1.7662314E+03;3;  5.4333199E+01;  0.0000000E+00; -5.9641037E+00;0;  7.1454987E-02;  1.0002267E+04;  0.0000000E+00; -1.1334053E+00;  1.0000000E+04;  0.0000000E+00;  9.9895000E+03; -6.2405605E-02;  0.0000000E+00;  1.3386059E-01;  3.7502146E+03;
  1.1802531E+00;  9.9999998E-03; -2.4008618E-01;2846;  1.4271380E-01;  0.0000000E+00; -3.0758472E-02;  1.0018047E+03;  4.0098628E-01;  1.3655858E+03;3;  7.8187317E+01;  0.0000000E+00; -1.0153426E+01;0;  1.6402219E-01;  9.9975049E+03;  0.0000000E+00; -7.7098887E-03;  1.0000000E+04;  0.0000000E+00;  9.9893174E+03;  4.1503403E-02;  0.0000000E+00;  1.2251879E-01;  2.0921326E+03;
  1.1802306E+00;  9.9999998E-03; -2.2007726E-01;2847;  1.3341150E-01;  0.0000000E+00; -2.8179599E-02;  1.0018861E+03;  4.0098628E-01;  1.4272323E+03;3;  6.7004745E+01;  0.0000000E+00; -7.4295483E+00;0;  1.2692963E-01;  9.9993896E+03;  0.0000000E+00; -1.0392892E+00;  1.0000000E+04;  0.0000000E+00;  9.9890557E+03; -2.9147025E-03;  0.0000000E+00;  1.2984432E-01;  3.0824700E+03;
  1.1802033E+00;  9.9999998E-03; -2.0006570E-01;2848;  1.2188408E-01;  0.0000000E+00; -2.5606610E-02;  1.0019819E+03;  4.0098637E-01;  1.4998057E+03;3;  5.8090942E+01;  0.0000000E+00; -5.9439554E+00;0;  1.0086022E-01;  1.0000737E+04;  0.0000000E+00; -1.2971151E+00;  1.0000000E+04;  0.0000000E+00;  9.9896152E+03; -3.5117470E-02;  0.0000000E+00;  1.3597769E-01;  3.4228850E+03;
  1.2002317E+00;  9.9999998E-03; -2.2007757E-01;2871;  1.3296685E-01;  0.0000000E+00; -2.8034212E-02;  1.0015891E+03;  4.0091622E-01;  1.1714036E+03;3;  7.2926208E+01;  0.0000000E+00; -8.7056913E+00;0;  1.8654422E-01;  9.9966445E+03;  0.0000000E+00; -1.4629124E-01;  1.0000000E+04;  0.0000000E+00;  9.9893643E+03;  5.1620025E-02;  0.0000000E+00;  1.3492420E-01;  1.7490330E+03;
  1.2002102E+00;  9.9999998E-03; -2.0006837E-01;2872;  1.2383099E-01;  0.0000000E+00; -2.5870781E-02;  1.0016761E+03;  4.0091622E-01;  1.2356801E+03;3;  6.3470276E+01;  0.0000000E+00; -6.8474193E+00;0;  1.5859070E-01;  9.9981084E+03;  0.0000000E+00; -1.0742729E+00;  1.0000000E+04;  0.0000000E+00;  9.9896377E+03;  1.6483044E-02;  0.0000000E+00;  1.4210767E-01;  2.5240544E+03;
  1.2202255E+00;  9.9999998E-03; -2.2007509E-01;2894;  1.2836646E-01;  0.0000000E+00; -2.6139250E-02;  1.0014305E+03;  4.0086451E-01;  1.0215630E+03;3;  7.7177177E+01;  0.0000000E+00; -9.0797110E+00;0;  1.8735653E-01;  9.9951348E+03;  0.0000000E+00;  1.3369325E+00;  1.0000000E+04;  0.0000000E+00;  9.9902861E+03;  7.1087420E-02;  0.0000000E+00;  1.1626911E-01;  2.2697905E+03;
  1.2202129E+00;  9.9999998E-03; -2.0007023E-01;2895;  1.2355436E-01;  0.0000000E+00; -2.6088189E-02;  1.0014122E+03;  4.0086463E-01;  1.0084749E+03;3;  6.9274239E+01;  0.0000000E+00; -8.1033115E+00;0;  2.1864045E-01;  9.9952900E+03;  0.0000000E+00; -1.4495738E-01;  1.0000000E+04;  0.0000000E+00;  9.9897656E+03;  7.2227120E-02;  0.0000000E+00;  1.4641333E-01;  1.3575703E+03;
 -4.7979114E-07;  9.9999998E-03; -1.8000005E-01;1036; -5.4858328E-04;  0.0000000E+00; -6.1404724E-05;  1.0000108E+03;  4.0000001E-01;  8.9873991E+00;3; -5.4761922E-01;  0.0000000E+00; -5.9064046E-02;0; -1.0688942E-02;  1.0000223E+04;  0.0000000E+00; -1.1284875E-09;  1.0000000E+04;  0.0000000E+00;  9.9999922E+03; -1.1137246E-02;  0.0000000E+00;  4.4830458E-04;  4.5391307E+00;
 -4.9415718E-07;  9.9999998E-03; -1.6000004E-01;1037; -5.6377612E-04;  0.0000000E+00; -4.7490750E-05;  1.0000112E+03;  4.0000001E-01;  9.2836866E+00;3; -5.6170881E-01;  0.0000000E+00; -4.4814490E-02;0; -1.1029493E-02;  1.0000233E+04;  0.0000000E+00; -7.5356454E-10;  1.0000000E+04;  0.0000000E+00;  9.9999922E+03; -1.1462374E-02;  0.0000000E+00;  4.3288071E-04;  4.4766364E+00;
 -5.0329271E-07;  9.9999998E-03; -1.4000003E-01;1038; -5.7275710E-04;  0.0000000E+00; -3.5958394E-05;  1.0000114E+03;  4.0000001E-01;  9.4812117E+00;3; -5.6957459E-01;  0.0000000E+00; -3.3237647E-02;0; -1.1266949E-02;  1.0000236E+04;  0.0000000E+00; -2.4732932E-10;  1.0000000E+04;  0.0000000E+00;  9.9999932E+03; -1.1655807E-02;  0.0000000E+00;  3.8885928E-04;  4.1725659E+00;
 -5.0872654E-07;  9.9999998E-03; -1.2000003E-01;1039; -5.7740457E-04;  0.0000000E+00; -2.6360851E-05;  1.0000117E+03;  4.0000001E-01;  9.6787367E+00;3; -5.7301629E-01;  0.0000000E+00; -2.3797110E-02;0; -1.1422121E-02;  1.0000239E+04;  0.0000000E+00; -2.7321046E-11;  1.0000000E+04;  0.0000000E+00;  9.9999941E+03; -1.1755683E-02;  0.0000000E+00;  3.3356165E-04;  3.7707334E+00;
 -5.1161953E-07;  9.9999998E-03; -1.0000002E-01;1040; -5.7917199E-04;  0.0000000E+00; -1.8696246E-05;  1.0000117E+03;  4.0000001E-01;  9.6787367E+00;3; -5.7355940E-01;  0.0000000E+00; -1.6453533E-02;0; -1.1516249E-02;  1.0000240E+04;  0.0000000E+00; -2.6319016E-11;  1.0000000E+04;  0.0000000E+00;  9.9999941E+03; -1.1793308E-02;  0.0000000E+00;  2.7705877E-04;  3.3531048E+00;
 -5.1287668E-07;  9.9999998E-03; -8.0000013E-02;1041; -5.7920406E-04;  0.0000000E+00; -1.2826094E-05;  1.0000118E+03;  4.0000001E-01;  9.7775002E+00;3; -5.7245696E-01;  0.0000000E+00; -1.0986468E-02;0; -1.1568361E-02;  1.0000241E+04;  0.0000000E+00; -1.3391938E-11;  1.0000000E+04;  0.0000000E+00;  9.9999961E+03; -1.1793850E-02;  0.0000000E+00;  2.2548861E-04;  2.9689741E+00;
 -5.1323309E-07;  9.9999998E-03; -6.0000010E-02;1042; -5.7843240E-04;  0.0000000E+00; -8.2947281E-06;  1.0000119E+03;  4.0000001E-01;  9.8762627E+00;3; -5.7071364E-01;  0.0000000E+00; -6.9020586E-03;0; -1.1593789E-02;  1.0000242E+04;  0.0000000E+00; -3.6567232E-11;  1.0000000E+04;  0.0000000E+00;  9.9999961E+03; -1.1776475E-02;  0.0000000E+00;  1.8268666E-04;  2.6488214E+00;
 -5.1316067E-07;  9.9999998E-03; -4.0000007E-02;1043; -5.7746028E-04;  0.0000000E+00; -4.9236119E-06;  1.0000119E+03;  4.0000001E-01;  9.8762627E+00;3; -5.6900370E-01;  0.0000000E+00; -3.9791651E-03;0; -1.1604088E-02;  1.0000243E+04;  0.0000000E+00; -1.7790739E-11;  1.0000000E+04;  0.0000000E+00;  9.9999971E+03; -1.1754993E-02;  0.0000000E+00;  1.5090505E-04;  2.4104424E+00;
 -5.1299594E-07;  9.9999998E-03; -2.0000003E-02;1044; -5.7672377E-04;  0.0000000E+00; -2.2659842E-06;  1.0000119E+03;  4.0000001E-01;  9.8762627E+00;3; -5.6780648E-01;  0.0000000E+00; -1.7887144E-03;0; -1.1607205E-02;  1.0000243E+04;  0.0000000E+00;  6.5885058E-12;  1.0000000E+04;  0.0000000E+00;  9.9999980E+03; -1.1738615E-02;  0.0000000E+00;  1.3140979E-04;  2.2639413E+00;
  1.9999301E-02;  9.9999998E-03; -1.8000008E-01;1066; -7.9157279E-04;  0.0000000E+00; -8.3520659E-05;  1.0000132E+03;  4.0000001E-01;  1.0962651E+01;3; -7.3544288E-01;  0.0000000E+00; -7.3832333E-02;0; -1.2988647E-02;  1.0000279E+04;  0.0000000E+00;  7.8171070E-10;  1.0000000E+04;  0.0000000E+00;  9.9999883E+03; -1.3599858E-02;  0.0000000E+00;  6.1121094E-04;  6.2063527E+00;
  1.9999282E-02;  9.9999998E-03; -1.6000006E-01;1067; -8.1124710E-04;  0.0000000E+00; -6.5033491E-05;  1.0000138E+03;  4.0000001E-01;  1.1456465E+01;3; -7.5207889E-01;  0.0000000E+00; -5.6348138E-02;0; -1.3362333E-02;  1.0000289E+04;  0.0000000E+00;  5.4865775E-11;  1.0000000E+04;  0.0000000E+00;  9.9999883E+03; -1.3950269E-02;  0.0000000E+00;  5.8793603E-04;  6.0940099E+00;
  1.9999271E-02;  9.9999998E-03; -1.4000005E-01;1068; -8.2206877E-04;  0.0000000E+00; -4.9552549E-05;  1.0000140E+03;  4.0000001E-01;  1.1653990E+01;3; -7.6045394E-01;  0.0000000E+00; -4.1909251E-02;0; -1.3618508E-02;  1.0000293E+04;  0.0000000E+00;  2.8004109E-11;  1.0000000E+04;  0.0000000E+00;  9.9999902E+03; -1.4146090E-02;  0.0000000E+00;  5.2758108E-04;  5.6630816E+00;
  1.9999264E-02;  9.9999998E-03; -1.2000003E-01;1069; -8.2701782E-04;  0.0000000E+00; -3.6378595E-05;  1.0000143E+03;  4.0000001E-01;  1.1851515E+01;3; -7.6322472E-01;  0.0000000E+00; -2.9870709E-02;0; -1.3781399E-02;  1.0000294E+04;  0.0000000E+00;  4.1468568E-11;  1.0000000E+04;  0.0000000E+00;  9.9999912E+03; -1.4234237E-02;  0.0000000E+00;  4.5283907E-04;  5.1059008E+00;
  1.9999262E-02;  9.9999998E-03; -1.0000002E-01;1070; -8.2806189E-04;  0.0000000E+00; -2.6032005E-05;  1.0000145E+03;  4.0000001E-01;  1.1950277E+01;3; -7.6234686E-01;  0.0000000E+00; -2.0694464E-02;0; -1.3876427E-02;  1.0000295E+04;  0.0000000E+00;  1.1990442E-11;  1.0000000E+04;  0.0000000E+00;  9.9999922E+03; -1.4252828E-02;  0.0000000E+00;  3.7640007E-04;  4.5275130E+00;
  1.9999260E-02;  9.9999998E-03; -8.0000021E-02;1071; -8.2695123E-04;  0.0000000E+00; -1.7946291E-05;  1.0000146E+03;  4.0000001E-01;  1.2049040E+01;3; -7.5959110E-01;  0.0000000E+00; -1.3738300E-02;0; -1.3925779E-02;  1.0000296E+04;  0.0000000E+00; -2.2442893E-11;  1.0000000E+04;  0.0000000E+00;  9.9999941E+03; -1.4232297E-02;  0.0000000E+00;  3.0651881E-04;  3.9952521E+00;
  1.9999260E-02;  9.9999998E-03; -6.0000014E-02;1072; -8.2495844E-04;  0.0000000E+00; -1.1741082E-05;  1.0000146E+03;  4.0000001E-01;  1.2049040E+01;3; -7.5626051E-01;  0.0000000E+00; -8.6423708E-03;0; -1.3947026E-02;  1.0000296E+04;  0.0000000E+00; -1.6215893E-11;  1.0000000E+04;  0.0000000E+00;  9.9999951E+03; -1.4195476E-02;  0.0000000E+00;  2.4845000E-04;  3.5514548E+00;
  1.9999262E-02;  9.9999998E-03; -4.0000007E-02;1073; -8.2295656E-04;  0.0000000E+00; -7.0207961E-06;  1.0000146E+03;  4.0000001E-01;  1.2049040E+01;3; -7.5327766E-01;  0.0000000E+00; -4.9694902E-03;0; -1.3953316E-02;  1.0000296E+04;  0.0000000E+00; -1.7787090E-11;  1.0000000E+04;  0.0000000E+00;  9.9999961E+03; -1.4158625E-02;  0.0000000E+00;  2.0530871E-04;  3.2210190E+00;
  1.9999262E-02;  9.9999998E-03; -2.0000003E-02;1074; -8.2153879E-04;  0.0000000E+00; -3.2577334E-06;  1.0000146E+03;  4.0000001E-01;  1.2049040E+01;3; -7.5125766E-01;  0.0000000E+00; -2.2405572E-03;0; -1.3953644E-02;  1.0000296E+04;  0.0000000E+00;  5.7532489E-13;  1.0000000E+04;  0.0000000E+00;  9.9999961E+03; -1.4132483E-02;  0.0000000E+00;  1.7883863E-04;  3.0179765E+00;
  3.9999012E-02;  9.9999998E-03; -1.8000010E-01;1097; -1.1077703E-03;  0.0000000E+00; -9.9553654E-05;  1.0000160E+03;  4.0000001E-01;  1.3234192E+01;3; -9.6849716E-01;  0.0000000E+00; -8.0713131E-02;0; -1.5240438E-02;  1.0000338E+04;  0.0000000E+00;  9.2890456E-10;  1.0000000E+04;  0.0000000E+00;  9.9999854E+03; -1.6009120E-02;  0.0000000E+00;  7.6868228E-04;  7.9446692E+00;
  3.9998990E-02;  9.9999998E-03; -1.6000007E-01;1098; -1.1322952E-03;  0.0000000E+00; -7.7966644E-05;  1.0000164E+03;  4.0000001E-01;  1.3530479E+01;3; -9.8762465E-01;  0.0000000E+00; -6.1862729E-02;0; -1.5620054E-02;  1.0000344E+04;  0.0000000E+00;  4.9028170E-10;  1.0000000E+04;  0.0000000E+00;  9.9999863E+03; -1.6355479E-02;  0.0000000E+00;  7.3542551E-04;  7.7599049E+00;
  3.9998975E-02;  9.9999998E-03; -1.4000006E-01;1099; -1.1449165E-03;  0.0000000E+00; -5.9412101E-05;  1.0000168E+03;  4.0000001E-01;  1.3925530E+01;3; -9.9629629E-01;  0.0000000E+00; -4.5779191E-02;0; -1.5870342E-02;  1.0000350E+04;  0.0000000E+00;  2.8988059E-10;  1.0000000E+04;  0.0000000E+00;  9.9999863E+03; -1.6528964E-02;  0.0000000E+00;  6.5862242E-04;  7.1903524E+00;
  3.9998967E-02;  9.9999998E-03; -1.2000004E-01;1100; -1.1496264E-03;  0.0000000E+00; -4.3825417E-05;  1.0000170E+03;  4.0000001E-01;  1.4024293E+01;3; -9.9783719E-01;  0.0000000E+00; -3.2590009E-02;0; -1.6020216E-02;  1.0000351E+04;  0.0000000E+00;  2.1955698E-10;  1.0000000E+04;  0.0000000E+00;  9.9999893E+03; -1.6585505E-02;  0.0000000E+00;  5.6528865E-04;  6.4720321E+00;
  3.9998963E-02;  9.9999998E-03; -1.0000003E-01;1101; -1.1493368E-03;  0.0000000E+00; -3.1507068E-05;  1.0000172E+03;  4.0000001E-01;  1.4221818E+01;3; -9.9498081E-01;  0.0000000E+00; -2.2501972E-02;0; -1.6099889E-02;  1.0000353E+04;  0.0000000E+00;  9.6880219E-11;  1.0000000E+04;  0.0000000E+00;  9.9999893E+03; -1.6569823E-02;  0.0000000E+00;  4.6993431E-04;  5.7284269E+00;
  3.9998963E-02;  9.9999998E-03; -8.0000021E-02;1102; -1.1464697E-03;  0.0000000E+00; -2.1722037E-05;  1.0000172E+03;  4.0000001E-01;  1.4221818E+01;3; -9.9007225E-01;  0.0000000E+00; -1.4729375E-02;0; -1.6134279E-02;  1.0000352E+04;  0.0000000E+00;  2.6733785E-11;  1.0000000E+04;  0.0000000E+00;  9.9999922E+03; -1.6516954E-02;  0.0000000E+00;  3.8267547E-04;  5.0440483E+00;
  3.9998963E-02;  9.9999998E-03; -6.0000017E-02;1103; -1.1426925E-03;  0.0000000E+00; -1.4285140E-05;  1.0000172E+03;  4.0000001E-01;  1.4221818E+01;3; -9.8470461E-01;  0.0000000E+00; -9.2041269E-03;0; -1.6142655E-02;  1.0000351E+04;  0.0000000E+00; -1.2949376E-11;  1.0000000E+04;  0.0000000E+00;  9.9999932E+03; -1.6452750E-02;  0.0000000E+00;  3.1009506E-04;  4.4731469E+00;
  3.9998967E-02;  9.9999998E-03; -4.0000010E-02;1104; -1.1392252E-03;  0.0000000E+00; -8.5460924E-06;  1.0000172E+03;  4.0000001E-01;  1.4221818E+01;3; -9.8010457E-01;  0.0000000E+00; -5.2070757E-03;0; -1.6139170E-02;  1.0000351E+04;  0.0000000E+00; -1.6791547E-11;  1.0000000E+04;  0.0000000E+00;  9.9999951E+03; -1.6395308E-02;  0.0000000E+00;  2.5613836E-04;  4.0479698E+00;
  3.9998967E-02;  9.9999998E-03; -2.0000005E-02;1105; -1.1368491E-03;  0.0000000E+00; -3.9888600E-06;  1.0000172E+03;  4.0000001E-01;  1.4221818E+01;3; -9.7704470E-01;  0.0000000E+00; -2.3496447E-03;0; -1.6133426E-02;  1.0000350E+04;  0.0000000E+00; -2.6940919E-12;  1.0000000E+04;  0.0000000E+00;  9.9999951E+03; -1.6356446E-02;  0.0000000E+00;  2.2302080E-04;  3.7866948E+00;
  5.9998661E-02;  9.9999998E-03; -1.8000011E-01;1128; -1.4827404E-03;  0.0000000E+00; -1.1065086E-04;  1.0000191E+03;  4.0000001E-01;  1.5802020E+01;3; -1.2367220E+00;  0.0000000E+00; -8.2285561E-02;0; -1.7711898E-02;  1.0000401E+04;  0.0000000E+00;  6.2597333E-10;  1.0000000E+04;  0.0000000E+00;  9.9999814E+03; -1.8624991E-02;  0.0000000E+00;  9.1309234E-04;  9.7439833E+00;
  5.9998631E-02;  9.9999998E-03; -1.6000009E-01;1129; -1.5114606E-03;  0.0000000E+00; -8.6732631E-05;  1.0000195E+03;  4.0000001E-01;  1.6197071E+01;3; -1.2576604E+00;  0.0000000E+00; -6.2961861E-02;0; -1.8075280E-02;  1.0000411E+04;  0.0000000E+00;  5.1683186E-10;  1.0000000E+04;  0.0000000E+00;  9.9999814E+03; -1.8942719E-02;  0.0000000E+00;  8.6743938E-04;  9.4594326E+00;
  5.9998617E-02;  9.9999998E-03; -1.4000008E-01;1130; -1.5250391E-03;  0.0000000E+00; -6.5846230E-05;  1.0000198E+03;  4.0000001E-01;  1.6394596E+01;3; -1.2658954E+00;  0.0000000E+00; -4.6096947E-02;0; -1.8297104E-02;  1.0000413E+04;  0.0000000E+00;  5.3185045E-10;  1.0000000E+04;  0.0000000E+00;  9.9999834E+03; -1.9071860E-02;  0.0000000E+00;  7.7475578E-04;  8.7409801E+00;
  5.9998609E-02;  9.9999998E-03; -1.2000005E-01;1131; -1.5285593E-03;  0.0000000E+00; -4.8598224E-05;  1.0000200E+03;  4.0000001E-01;  1.6493359E+01;3; -1.2654488E+00;  0.0000000E+00; -3.2529905E-02;0; -1.8413737E-02;  1.0000413E+04;  0.0000000E+00;  2.0309317E-10;  1.0000000E+04;  0.0000000E+00;  9.9999854E+03; -1.9078361E-02;  0.0000000E+00;  6.6462351E-04;  7.8585372E+00;
  5.9998605E-02;  9.9999998E-03; -1.0000004E-01;1132; -1.5260460E-03;  0.0000000E+00; -3.4806741E-05;  1.0000201E+03;  4.0000001E-01;  1.6690884E+01;3; -1.2599809E+00;  0.0000000E+00; -2.1987267E-02;0; -1.8461404E-02;  1.0000412E+04;  0.0000000E+00;  8.7712060E-11;  1.0000000E+04;  0.0000000E+00;  9.9999883E+03; -1.9013805E-02;  0.0000000E+00;  5.5240066E-04;  6.9485788E+00;
  5.9998609E-02;  9.9999998E-03; -8.0000028E-02;1133; -1.5205800E-03;  0.0000000E+00; -2.3978931E-05;  1.0000201E+03;  4.0000001E-01;  1.6690884E+01;3; -1.2522762E+00;  0.0000000E+00; -1.4180887E-02;0; -1.8467812E-02;  1.0000411E+04;  0.0000000E+00;  1.5329495E-12;  1.0000000E+04;  0.0000000E+00;  9.9999902E+03; -1.8917454E-02;  0.0000000E+00;  4.4964219E-04;  6.1110692E+00;
  5.9998609E-02;  9.9999998E-03; -6.0000021E-02;1134; -1.5143519E-03;  0.0000000E+00; -1.5740039E-05;  1.0000201E+03;  4.0000001E-01;  1.6690884E+01;3; -1.2444042E+00;  0.0000000E+00; -8.6200619E-03;0; -1.8453650E-02;  1.0000410E+04;  0.0000000E+00; -2.1473446E-11;  1.0000000E+04;  0.0000000E+00;  9.9999912E+03; -1.8817721E-02;  0.0000000E+00;  3.6407079E-04;  5.4117994E+00;
  5.9998613E-02;  9.9999998E-03; -4.0000010E-02;1135; -1.5089236E-03;  0.0000000E+00; -9.3976796E-06;  1.0000201E+03;  4.0000001E-01;  1.6690884E+01;3; -1.2378373E+00;  0.0000000E+00; -4.7803703E-03;0; -1.8433794E-02;  1.0000410E+04;  0.0000000E+00; -5.0968427E-12;  1.0000000E+04;  0.0000000E+00;  9.9999932E+03; -1.8734181E-02;  0.0000000E+00;  3.0038654E-04;  4.8905621E+00;
  5.9998617E-02;  9.9999998E-03; -2.0000005E-02;1136; -1.5052884E-03;  0.0000000E+00; -4.3819696E-06;  1.0000201E+03;  4.0000001E-01;  1.6690884E+01;3; -1.2335327E+00;  0.0000000E+00; -2.1008167E-03;0; -1.8418146E-02;  1.0000408E+04;  0.0000000E+00; -5.6467079E-12;  1.0000000E+04;  0.0000000E+00;  9.9999941E+03; -1.8679418E-02;  0.0000000E+00;  2.6127047E-04;  4.5700736E+00;
  7.9998247E-02;  9.9999998E-03; -1.8000013E-01;1159; -1.9151738E-03;  0.0000000E+00; -1.1817092E-04;  1.0000228E+03;  4.0000001E-01;  1.8863661E+01;3; -1.5430013E+00;  0.0000000E+00; -8.0510065E-02;0; -2.0656621E-02;  1.0000479E+04;  0.0000000E+00; -1.1904269E-10;  1.0000000E+04;  0.0000000E+00;  9.9999756E+03; -2.1703221E-02;  0.0000000E+00;  1.0465994E-03;  1.1677121E+01;
  7.9998210E-02;  9.9999998E-03; -1.6000010E-01;1160; -1.9465970E-03;  0.0000000E+00; -9.2360715E-05;  1.0000233E+03;  4.0000001E-01;  1.9258711E+01;3; -1.5646230E+00;  0.0000000E+00; -6.1014008E-02;0; -2.0984432E-02;  1.0000484E+04;  0.0000000E+00;  7.0693729E-10;  1.0000000E+04;  0.0000000E+00;  9.9999785E+03; -2.1970946E-02;  0.0000000E+00;  9.8651508E-04;  1.1264701E+01;
  7.9998195E-02;  9.9999998E-03; -1.4000008E-01;1161; -1.9596282E-03;  0.0000000E+00; -6.9608730E-05;  1.0000235E+03;  4.0000001E-01;  1.9456238E+01;3; -1.5711982E+00;  0.0000000E+00; -4.3952197E-02;0; -2.1156855E-02;  1.0000491E+04;  0.0000000E+00;  5.1192234E-10;  1.0000000E+04;  0.0000000E+00;  9.9999814E+03; -2.2035539E-02;  0.0000000E+00;  8.7868486E-04;  1.0383475E+01;
  7.9998188E-02;  9.9999998E-03; -1.2000006E-01;1162; -1.9605332E-03;  0.0000000E+00; -5.1220395E-05;  1.0000235E+03;  4.0000001E-01;  1.9456238E+01;3; -1.5676819E+00;  0.0000000E+00; -3.0538416E-02;0; -2.1221146E-02;  1.0000491E+04;  0.0000000E+00;  1.3502899E-10;  1.0000000E+04;  0.0000000E+00;  9.9999834E+03; -2.1974614E-02;  0.0000000E+00;  7.5346814E-04;  9.3277674E+00;
  7.9998188E-02;  9.9999998E-03; -1.0000005E-01;1163; -1.9545343E-03;  0.0000000E+00; -3.6399182E-05;  1.0000236E+03;  4.0000001E-01;  1.9555000E+01;3; -1.5586474E+00;  0.0000000E+00; -2.0033840E-02;0; -2.1220474E-02;  1.0000491E+04;  0.0000000E+00;  6.9498636E-11;  1.0000000E+04;  0.0000000E+00;  9.9999863E+03; -2.1846795E-02;  0.0000000E+00;  6.2632147E-04;  8.2438278E+00;
  7.9998188E-02;  9.9999998E-03; -8.0000028E-02;1164; -1.9454048E-03;  0.0000000E+00; -2.4973964E-05;  1.0000236E+03;  4.0000001E-01;  1.9555000E+01;3; -1.5473800E+00;  0.0000000E+00; -1.2549605E-02;0; -2.1185793E-02;  1.0000487E+04;  0.0000000E+00; -1.6768338E-11;  1.0000000E+04;  0.0000000E+00;  9.9999873E+03; -2.1695549E-02;  0.0000000E+00;  5.0975563E-04;  7.2454147E+00;
  7.9998195E-02;  9.9999998E-03; -6.0000021E-02;1165; -1.9359022E-03;  0.0000000E+00; -1.6266185E-05;  1.0000236E+03;  4.0000001E-01;  1.9555000E+01;3; -1.5364054E+00;  0.0000000E+00; -7.2828042E-03;0; -2.1139191E-02;  1.0000485E+04;  0.0000000E+00; -3.9616969E-11;  1.0000000E+04;  0.0000000E+00;  9.9999902E+03; -2.1551665E-02;  0.0000000E+00;  4.1247348E-04;  6.4101686E+00;
  7.9998203E-02;  9.9999998E-03; -4.0000014E-02;1166; -1.9279106E-03;  0.0000000E+00; -9.6804097E-06;  1.0000236E+03;  4.0000001E-01;  1.9555000E+01;3; -1.5274312E+00;  0.0000000E+00; -3.8890187E-03;0; -2.1096071E-02;  1.0000483E+04;  0.0000000E+00; -1.4958845E-11;  1.0000000E+04;  0.0000000E+00;  9.9999912E+03; -2.1435995E-02;  0.0000000E+00;  3.3992252E-04;  5.7863946E+00;
  7.9998203E-02;  9.9999998E-03; -2.0000007E-02;1167; -1.9226591E-03;  0.0000000E+00; -4.4878734E-06;  1.0000236E+03;  4.0000001E-01;  1.9555000E+01;3; -1.5216252E+00;  0.0000000E+00; -1.6355895E-03;0; -2.1066459E-02;  1.0000483E+04;  0.0000000E+00; -1.8890287E-11;  1.0000000E+04;  0.0000000E+00;  9.9999922E+03; -2.1361753E-02;  0.0000000E+00;  2.9529448E-04;  5.4023447E+00;
  9.9997744E-02;  9.9999998E-03; -1.8000014E-01;1190; -2.4138810E-03;  0.0000000E+00; -1.2372584E-04;  1.0000275E+03;  4.0000001E-01;  2.2715403E+01;3; -1.8942248E+00;  0.0000000E+00; -7.6628730E-02;0; -2.4272658E-02;  1.0000578E+04;  0.0000000E+00; -2.9929841E-09;  1.0000000E+04;  0.0000000E+00;  9.9999746E+03; -2.5452878E-02;  0.0000000E+00;  1.1802203E-03;  1.3897899E+01;
  9.9997714E-02;  9.9999998E-03; -1.6000012E-01;1191; -2.4459441E-03;  0.0000000E+00; -9.6146199E-05;  1.0000279E+03;  4.0000001E-01;  2.3110455E+01;3; -1.9149250E+00;  0.0000000E+00; -5.7121709E-02;0; -2.4543570E-02;  1.0000583E+04;  0.0000000E+00; -2.1322592E-10;  1.0000000E+04;  0.0000000E+00;  9.9999756E+03; -2.5648486E-02;  0.0000000E+00;  1.1049157E-03;  1.3331874E+01;
  9.9997692E-02;  9.9999998E-03; -1.4000009E-01;1192; -2.4562557E-03;  0.0000000E+00; -7.2152179E-05;  1.0000281E+03;  4.0000001E-01;  2.3307980E+01;3; -1.9181588E+00;  0.0000000E+00; -4.0639184E-02;0; -2.4645632E-02;  1.0000586E+04;  0.0000000E+00;  5.5783744E-10;  1.0000000E+04;  0.0000000E+00;  9.9999775E+03; -2.5628109E-02;  0.0000000E+00;  9.8247558E-04;  1.2264424E+01;
  9.9997692E-02;  9.9999998E-03; -1.2000006E-01;1193; -2.4526790E-03;  0.0000000E+00; -5.2792155E-05;  1.0000282E+03;  4.0000001E-01;  2.3406742E+01;3; -1.9102143E+00;  0.0000000E+00; -2.7481021E-02;0; -2.4638791E-02;  1.0000585E+04;  0.0000000E+00;  1.6374600E-10;  1.0000000E+04;  0.0000000E+00;  9.9999785E+03; -2.5481967E-02;  0.0000000E+00;  8.4317609E-04;  1.1012519E+01;
  9.9997692E-02;  9.9999998E-03; -1.0000005E-01;1194; -2.4415599E-03;  0.0000000E+00; -3.7219099E-05;  1.0000283E+03;  4.0000001E-01;  2.3505505E+01;3; -1.8963590E+00;  0.0000000E+00; -1.7504089E-02;0; -2.4573769E-02;  1.0000581E+04;  0.0000000E+00;  1.1895232E-12;  1.0000000E+04;  0.0000000E+00;  9.9999834E+03; -2.5275737E-02;  0.0000000E+00;  7.0196780E-04;  9.7304602E+00;
  9.9997699E-02;  9.9999998E-03; -8.0000035E-02;1195; -2.4274481E-03;  0.0000000E+00; -2.5351681E-05;  1.0000283E+03;  4.0000001E-01;  2.3406742E+01;3; -1.8805698E+00;  0.0000000E+00; -1.0416862E-02;0; -2.4485108E-02;  1.0000577E+04;  0.0000000E+00; -2.9899912E-11;  1.0000000E+04;  0.0000000E+00;  9.9999863E+03; -2.5057163E-02;  0.0000000E+00;  5.7205569E-04;  8.5464468E+00;
  9.9997707E-02;  9.9999998E-03; -6.0000025E-02;1196; -2.4136424E-03;  0.0000000E+00; -1.6376502E-05;  1.0000281E+03;  4.0000001E-01;  2.3307980E+01;3; -1.8657131E+00;  0.0000000E+00; -5.7240007E-03;0; -2.4396304E-02;  1.0000574E+04;  0.0000000E+00; -4.4233579E-11;  1.0000000E+04;  0.0000000E+00;  9.9999873E+03; -2.4859456E-02;  0.0000000E+00;  4.6315262E-04;  7.5522738E+00;
  9.9997714E-02;  9.9999998E-03; -4.0000014E-02;1197; -2.4023659E-03;  0.0000000E+00; -9.6796812E-06;  1.0000281E+03;  4.0000001E-01;  2.3307980E+01;3; -1.8538091E+00;  0.0000000E+00; -2.8229142E-03;0; -2.4323110E-02;  1.0000572E+04;  0.0000000E+00; -4.1882435E-11;  1.0000000E+04;  0.0000000E+00;  9.9999893E+03; -2.4704734E-02;  0.0000000E+00;  3.8162438E-04;  6.8074317E+00;
  9.9997722E-02;  9.9999998E-03; -2.0000007E-02;1198; -2.3950636E-03;  0.0000000E+00; -4.4643352E-06;  1.0000281E+03;  4.0000001E-01;  2.3307980E+01;3; -1.8461767E+00;  0.0000000E+00; -1.1201357E-03;0; -2.4275575E-02;  1.0000571E+04;  0.0000000E+00; -3.4547720E-13;  1.0000000E+04;  0.0000000E+00;  9.9999912E+03; -2.4606913E-02;  0.0000000E+00;  3.3133887E-04;  6.3478131E+00;
  1.1999715E-01;  9.9999998E-03; -1.8000016E-01;1221; -2.9953232E-03;  0.0000000E+00; -1.2981950E-04;  1.0000333E+03;  4.0000001E-01;  2.7653534E+01;3; -2.2977881E+00;  0.0000000E+00; -7.2630696E-02;0; -2.8686214E-02;  1.0000698E+04;  0.0000000E+00; -9.0495726E-09;  1.0000000E+04;  0.0000000E+00;  9.9999688E+03; -3.0021317E-02;  0.0000000E+00;  1.3351025E-03;  1.6666679E+01;
  1.1999711E-01;  9.9999998E-03; -1.6000013E-01;1222; -3.0253481E-03;  0.0000000E+00; -1.0070729E-04;  1.0000337E+03;  4.0000001E-01;  2.7949823E+01;3; -2.3154445E+00;  0.0000000E+00; -5.3675089E-02;0; -2.8874068E-02;  1.0000704E+04;  0.0000000E+00; -2.0838493E-09;  1.0000000E+04;  0.0000000E+00;  9.9999688E+03; -3.0117970E-02;  0.0000000E+00;  1.2439026E-03;  1.5904244E+01;
  1.1999710E-01;  9.9999998E-03; -1.4000009E-01;1223; -3.0302990E-03;  0.0000000E+00; -7.5605574E-05;  1.0000339E+03;  4.0000001E-01;  2.8048586E+01;3; -2.3134377E+00;  0.0000000E+00; -3.7946172E-02;0; -2.8883059E-02;  1.0000705E+04;  0.0000000E+00;  3.5526562E-10;  1.0000000E+04;  0.0000000E+00;  9.9999727E+03; -2.9989578E-02;  0.0000000E+00;  1.1065200E-03;  1.4605038E+01;
  1.1999710E-01;  9.9999998E-03; -1.2000007E-01;1224; -3.0199313E-03;  0.0000000E+00; -5.5066397E-05;  1.0000339E+03;  4.0000001E-01;  2.8048586E+01;3; -2.2993574E+00;  0.0000000E+00; -2.5174242E-02;0; -2.8785540E-02;  1.0000701E+04;  0.0000000E+00;  1.7075159E-10;  1.0000000E+04;  0.0000000E+00;  9.9999775E+03; -2.9738262E-02;  0.0000000E+00;  9.5272309E-04;  1.3109377E+01;
  1.1999711E-01;  9.9999998E-03; -1.0000005E-01;1225; -3.0016901E-03;  0.0000000E+00; -3.8696668E-05;  1.0000338E+03;  4.0000001E-01;  2.7949823E+01;3; -2.2792518E+00;  0.0000000E+00; -1.5718302E-02;0; -2.8640265E-02;  1.0000695E+04;  0.0000000E+00; -2.8653983E-13;  1.0000000E+04;  0.0000000E+00;  9.9999795E+03; -2.9436586E-02;  0.0000000E+00;  7.9632149E-04;  1.1577209E+01;
  1.1999712E-01;  9.9999998E-03; -8.0000035E-02;1226; -2.9809913E-03;  0.0000000E+00; -2.6179017E-05;  1.0000337E+03;  4.0000001E-01;  2.7949823E+01;3; -2.2577724E+00;  0.0000000E+00; -8.9687863E-03;0; -2.8485211E-02;  1.0000690E+04;  0.0000000E+00; -5.3690732E-11;  1.0000000E+04;  0.0000000E+00;  9.9999824E+03; -2.9136527E-02;  0.0000000E+00;  6.5131689E-04;  1.0155008E+01;
  1.1999713E-01;  9.9999998E-03; -6.0000025E-02;1227; -2.9616344E-03;  0.0000000E+00; -1.6840466E-05;  1.0000335E+03;  4.0000001E-01;  2.7752296E+01;3; -2.2381470E+00;  0.0000000E+00; -4.7064149E-03;0; -2.8344996E-02;  1.0000686E+04;  0.0000000E+00; -6.2661744E-11;  1.0000000E+04;  0.0000000E+00;  9.9999873E+03; -2.8873816E-02;  0.0000000E+00;  5.2882044E-04;  8.9543123E+00;
  1.1999714E-01;  9.9999998E-03; -4.0000018E-02;1228; -2.9461938E-03;  0.0000000E+00; -9.9001909E-06;  1.0000335E+03;  4.0000001E-01;  2.7752296E+01;3; -2.2226799E+00;  0.0000000E+00; -2.1591436E-03;0; -2.8235443E-02;  1.0000683E+04;  0.0000000E+00; -5.1613096E-11;  1.0000000E+04;  0.0000000E+00;  9.9999883E+03; -2.8671999E-02;  0.0000000E+00;  4.3655545E-04;  8.0507889E+00;
  1.1999715E-01;  9.9999998E-03; -2.0000007E-02;1229; -2.9363146E-03;  0.0000000E+00; -4.5471047E-06;  1.0000334E+03;  4.0000001E-01;  2.7752296E+01;3; -2.2128415E+00;  0.0000000E+00; -7.9730334E-04;0; -2.8166259E-02;  1.0000682E+04;  0.0000000E+00; -1.6408546E-11;  1.0000000E+04;  0.0000000E+00;  9.9999893E+03; -2.8545670E-02;  0.0000000E+00;  3.7941139E-04;  7.4916182E+00;
  1.3999642E-01;  9.9999998E-03; -1.8000017E-01;1252; -3.6799712E-03;  0.0000000E+00; -1.4026854E-04;  1.0000405E+03;  4.0000001E-01;  3.3579292E+01;3; -2.7609034E+00;  0.0000000E+00; -7.1338966E-02;0; -3.3960421E-02;  1.0000851E+04;  0.0000000E+00; -1.9594459E-06;  1.0000000E+04;  0.0000000E+00;  9.9999619E+03; -3.5510071E-02;  0.0000000E+00;  1.5496493E-03;  2.0436092E+01;
  1.3999639E-01;  9.9999998E-03; -1.6000015E-01;1253; -3.7046839E-03;  0.0000000E+00; -1.0939634E-04;  1.0000407E+03;  4.0000001E-01;  3.3776817E+01;3; -2.7730422E+00;  0.0000000E+00; -5.3275462E-02;0; -3.4036193E-02;  1.0000853E+04;  0.0000000E+00; -1.8830029E-09;  1.0000000E+04;  0.0000000E+00;  9.9999619E+03; -3.5472050E-02;  0.0000000E+00;  1.4358582E-03;  1.9345928E+01;
  1.3999638E-01;  9.9999998E-03; -1.4000010E-01;1254; -3.7011467E-03;  0.0000000E+00; -8.2793893E-05;  1.0000407E+03;  4.0000001E-01;  3.3776817E+01;3; -2.7635362E+00;  0.0000000E+00; -3.8379222E-02;0; -3.3927478E-02;  1.0000848E+04;  0.0000000E+00;  4.3662599E-10;  1.0000000E+04;  0.0000000E+00;  9.9999678E+03; -3.5207231E-02;  0.0000000E+00;  1.2797539E-03;  1.7712513E+01;
  1.3999639E-01;  9.9999998E-03; -1.2000009E-01;1255; -3.6812050E-03;  0.0000000E+00; -6.0475180E-05;  1.0000406E+03;  4.0000001E-01;  3.3678055E+01;3; -2.7413836E+00;  0.0000000E+00; -2.5757849E-02;0; -3.3719279E-02;  1.0000841E+04;  0.0000000E+00;  1.5694536E-10;  1.0000000E+04;  0.0000000E+00;  9.9999717E+03; -3.4827154E-02;  0.0000000E+00;  1.1078737E-03;  1.5877563E+01;
  1.3999641E-01;  9.9999998E-03; -1.0000006E-01;1256; -3.6534728E-03;  0.0000000E+00; -4.2690135E-05;  1.0000405E+03;  4.0000001E-01;  3.3579292E+01;3; -2.7134099E+00;  0.0000000E+00; -1.6464552E-02;0; -3.3478282E-02;  1.0000835E+04;  0.0000000E+00; -7.1329144E-11;  1.0000000E+04;  0.0000000E+00;  9.9999756E+03; -3.4410134E-02;  0.0000000E+00;  9.3185192E-04;  1.3998583E+01;
  1.3999642E-01;  9.9999998E-03; -8.0000043E-02;1257; -3.6242481E-03;  0.0000000E+00; -2.8903052E-05;  1.0000404E+03;  4.0000001E-01;  3.3480530E+01;3; -2.6849246E+00;  0.0000000E+00; -9.6056089E-03;0; -3.3245463E-02;  1.0000827E+04;  0.0000000E+00; -1.1414401E-10;  1.0000000E+04;  0.0000000E+00;  9.9999795E+03; -3.4012191E-02;  0.0000000E+00;  7.6672900E-04;  1.2244551E+01;
  1.3999644E-01;  9.9999998E-03; -6.0000032E-02;1258; -3.5978416E-03;  0.0000000E+00; -1.8630953E-05;  1.0000403E+03;  4.0000001E-01;  3.3381767E+01;3; -2.6595371E+00;  0.0000000E+00; -5.2378941E-03;0; -3.3045746E-02;  1.0000822E+04;  0.0000000E+00; -5.5472533E-11;  1.0000000E+04;  0.0000000E+00;  9.9999834E+03; -3.3671487E-02;  0.0000000E+00;  6.2574144E-04;  1.0754917E+01;
  1.3999645E-01;  9.9999998E-03; -4.0000018E-02;1259; -3.5771672E-03;  0.0000000E+00; -1.0959034E-05;  1.0000402E+03;  4.0000001E-01;  3.3283005E+01;3; -2.6397893E+00;  0.0000000E+00; -2.5414394E-03;0; -3.2894373E-02;  1.0000816E+04;  0.0000000E+00; -2.2153312E-11;  1.0000000E+04;  0.0000000E+00;  9.9999854E+03; -3.3413060E-02;  0.0000000E+00;  5.1868701E-04;  9.6287518E+00;
  1.3999647E-01;  9.9999998E-03; -2.0000009E-02;1260; -3.5640714E-03;  0.0000000E+00; -5.0379463E-06;  1.0000402E+03;  4.0000001E-01;  3.3283005E+01;3; -2.6273201E+00;  0.0000000E+00; -9.9661644E-04;0; -3.2800443E-02;  1.0000815E+04;  0.0000000E+00;  3.6729540E-11;  1.0000000E+04;  0.0000000E+00;  9.9999873E+03; -3.3252478E-02;  0.0000000E+00;  4.5203403E-04;  8.9297256E+00;
  1.5999554E-01;  9.9999998E-03; -1.8000022E-01;1283; -4.4887564E-03;  0.0000000E+00; -1.6075003E-04;  1.0000490E+03;  4.0000001E-01;  4.0591438E+01;3; -3.2904484E+00;  0.0000000E+00; -7.7563167E-02;0; -4.0131669E-02;  1.0001030E+04;  0.0000000E+00; -1.7213166E-05;  1.0000000E+04;  0.0000000E+00;  9.9999512E+03; -4.2021297E-02;  0.0000000E+00;  1.8896264E-03;  2.5970982E+01;
  1.5999551E-01;  9.9999998E-03; -1.6000018E-01;1284; -4.5042830E-03;  0.0000000E+00; -1.2683129E-04;  1.0000494E+03;  4.0000001E-01;  4.0887726E+01;3; -3.2943332E+00;  0.0000000E+00; -5.9947275E-02;0; -4.0064856E-02;  1.0001030E+04;  0.0000000E+00; -2.6494160E-09;  1.0000000E+04;  0.0000000E+00;  9.9999541E+03; -4.1795336E-02;  0.0000000E+00;  1.7304791E-03;  2.4214584E+01;
  1.5999551E-01;  9.9999998E-03; -1.4000013E-01;1285; -4.4886707E-03;  0.0000000E+00; -9.7421878E-05;  1.0000493E+03;  4.0000001E-01;  4.0788963E+01;3; -3.2749705E+00;  0.0000000E+00; -4.5242172E-02;0; -3.9816659E-02;  1.0001024E+04;  0.0000000E+00;  6.9049388E-10;  1.0000000E+04;  0.0000000E+00;  9.9999600E+03; -4.1358516E-02;  0.0000000E+00;  1.5418559E-03;  2.2011314E+01;
  1.5999553E-01;  9.9999998E-03; -1.2000010E-01;1286; -4.4559217E-03;  0.0000000E+00; -7.1992552E-05;  1.0000491E+03;  4.0000001E-01;  4.0690201E+01;3; -3.2426574E+00;  0.0000000E+00; -3.2069948E-02;0; -3.9479889E-02;  1.0001015E+04;  0.0000000E+00;  2.8686345E-10;  1.0000000E+04;  0.0000000E+00;  9.9999648E+03; -4.0821191E-02;  0.0000000E+00;  1.3413021E-03;  1.9648165E+01;
  1.5999556E-01;  9.9999998E-03; -1.0000008E-01;1287; -4.4159181E-03;  0.0000000E+00; -5.1419396E-05;  1.0000488E+03;  4.0000001E-01;  4.0393913E+01;3; -3.2050822E+00;  0.0000000E+00; -2.1996465E-02;0; -3.9129913E-02;  1.0001005E+04;  0.0000000E+00; -1.7376577E-10;  1.0000000E+04;  0.0000000E+00;  9.9999717E+03; -4.0265530E-02;  0.0000000E+00;  1.1356161E-03;  1.7253036E+01;
  1.5999559E-01;  9.9999998E-03; -8.0000050E-02;1288; -4.3758620E-03;  0.0000000E+00; -3.5159333E-05;  1.0000486E+03;  4.0000001E-01;  4.0295151E+01;3; -3.1681640E+00;  0.0000000E+00; -1.4065401E-02;0; -3.8809985E-02;  1.0000994E+04;  0.0000000E+00; -2.3667360E-10;  1.0000000E+04;  0.0000000E+00;  9.9999746E+03; -3.9750561E-02;  0.0000000E+00;  9.4057602E-04;  1.5014558E+01;
  1.5999562E-01;  9.9999998E-03; -6.0000036E-02;1289; -4.3406044E-03;  0.0000000E+00; -2.2878219E-05;  1.0000482E+03;  4.0000001E-01;  3.9900101E+01;3; -3.1358936E+00;  0.0000000E+00; -8.6148391E-03;0; -3.8544498E-02;  1.0000986E+04;  0.0000000E+00; -7.4077876E-11;  1.0000000E+04;  0.0000000E+00;  9.9999785E+03; -3.9316770E-02;  0.0000000E+00;  7.7227154E-04;  1.3106887E+01;
  1.5999563E-01;  9.9999998E-03; -4.0000021E-02;1290; -4.3134033E-03;  0.0000000E+00; -1.3566687E-05;  1.0000482E+03;  4.0000001E-01;  3.9900101E+01;3; -3.1110690E+00;  0.0000000E+00; -4.7926432E-03;0; -3.8347393E-02;  1.0000979E+04;  0.0000000E+00; -1.3220714E-11;  1.0000000E+04;  0.0000000E+00;  9.9999834E+03; -3.8990825E-02;  0.0000000E+00;  6.4343045E-04;  1.1660173E+01;
  1.5999565E-01;  9.9999998E-03; -2.0000011E-02;1291; -4.2963158E-03;  0.0000000E+00; -6.2767322E-06;  1.0000480E+03;  4.0000001E-01;  3.9801338E+01;3; -3.0954881E+00;  0.0000000E+00; -2.1290258E-03;0; -3.8226474E-02;  1.0000976E+04;  0.0000000E+00;  4.1642870E-11;  1.0000000E+04;  0.0000000E+00;  9.9999844E+03; -3.8789269E-02;  0.0000000E+00;  5.6279282E-04;  1.0760351E+01;
  1.7999448E-01;  9.9999998E-03; -1.8000026E-01;1314; -5.4420824E-03;  0.0000000E+00; -1.9917131E-04;  1.0000593E+03;  4.0000001E-01;  4.9183788E+01;3; -3.8931165E+00;  0.0000000E+00; -9.7429544E-02;0; -4.7238283E-02;  1.0001253E+04;  0.0000000E+00; -5.1441428E-05;  1.0000000E+04;  0.0000000E+00;  9.9999336E+03; -4.9689285E-02;  0.0000000E+00;  2.4510026E-03;  3.4395779E+01;
  1.7999445E-01;  9.9999998E-03; -1.6000022E-01;1315; -5.4439437E-03;  0.0000000E+00; -1.5930954E-04;  1.0000593E+03;  4.0000001E-01;  4.9183788E+01;3; -3.8857548E+00;  0.0000000E+00; -7.9075448E-02;0; -4.7009565E-02;  1.0001245E+04;  0.0000000E+00; -1.6167964E-07;  1.0000000E+04;  0.0000000E+00;  9.9999404E+03; -4.9208775E-02;  0.0000000E+00;  2.1992100E-03;  3.1316759E+01;
  1.7999446E-01;  9.9999998E-03; -1.4000016E-01;1316; -5.4122717E-03;  0.0000000E+00; -1.2400723E-04;  1.0000591E+03;  4.0000001E-01;  4.8986263E+01;3; -3.8541684E+00;  0.0000000E+00; -6.2784247E-02;0; -4.6610709E-02;  1.0001232E+04;  0.0000000E+00;  7.3321937E-10;  1.0000000E+04;  0.0000000E+00;  9.9999482E+03; -4.8556339E-02;  0.0000000E+00;  1.9456288E-03;  2.8075115E+01;
  1.7999449E-01;  9.9999998E-03; -1.2000012E-01;1317; -5.3630457E-03;  0.0000000E+00; -9.2941758E-05;  1.0000587E+03;  4.0000001E-01;  4.8689972E+01;3; -3.8096094E+00;  0.0000000E+00; -4.7366008E-02;0; -4.6134524E-02;  1.0001219E+04;  0.0000000E+00;  2.8238722E-10;  1.0000000E+04;  0.0000000E+00;  9.9999531E+03; -4.7827654E-02;  0.0000000E+00;  1.6931307E-03;  2.4836500E+01;
  1.7999454E-01;  9.9999998E-03; -1.0000009E-01;1318; -5.3075515E-03;  0.0000000E+00; -6.7269124E-05;  1.0000584E+03;  4.0000001E-01;  4.8393684E+01;3; -3.7606175E+00;  0.0000000E+00; -3.4810312E-02;0; -4.5667186E-02;  1.0001205E+04;  0.0000000E+00; -3.5465225E-10;  1.0000000E+04;  0.0000000E+00;  9.9999609E+03; -4.7105834E-02;  0.0000000E+00;  1.4386467E-03;  2.1643600E+01;
  1.7999458E-01;  9.9999998E-03; -8.0000065E-02;1319; -5.2539483E-03;  0.0000000E+00; -4.6654215E-05;  1.0000580E+03;  4.0000001E-01;  4.8097397E+01;3; -3.7137511E+00;  0.0000000E+00; -2.4249978E-02;0; -4.5254424E-02;  1.0001192E+04;  0.0000000E+00; -1.4762634E-10;  1.0000000E+04;  0.0000000E+00;  9.9999658E+03; -4.6451468E-02;  0.0000000E+00;  1.1970433E-03;  1.8685434E+01;
  1.7999461E-01;  9.9999998E-03; -6.0000043E-02;1320; -5.2076979E-03;  0.0000000E+00; -3.0728366E-05;  1.0000577E+03;  4.0000001E-01;  4.7801109E+01;3; -3.6733954E+00;  0.0000000E+00; -1.6194146E-02;0; -4.4919498E-02;  1.0001182E+04;  0.0000000E+00;  4.9754237E-12;  1.0000000E+04;  0.0000000E+00;  9.9999736E+03; -4.5906920E-02;  0.0000000E+00;  9.8742172E-04;  1.6169981E+01;
  1.7999464E-01;  9.9999998E-03; -4.0000029E-02;1321; -5.1724296E-03;  0.0000000E+00; -1.8441204E-05;  1.0000575E+03;  4.0000001E-01;  4.7603584E+01;3; -3.6426351E+00;  0.0000000E+00; -9.7966529E-03;0; -4.4674415E-02;  1.0001172E+04;  0.0000000E+00;  1.7408819E-10;  1.0000000E+04;  0.0000000E+00;  9.9999785E+03; -4.5500547E-02;  0.0000000E+00;  8.2613120E-04;  1.4262908E+01;
  1.7999466E-01;  9.9999998E-03; -2.0000013E-02;1322; -5.1504206E-03;  0.0000000E+00; -8.5979927E-06;  1.0000574E+03;  4.0000001E-01;  4.7603584E+01;3; -3.6234248E+00;  0.0000000E+00; -4.6222028E-03;0; -4.4525448E-02;  1.0001167E+04;  0.0000000E+00;  9.9016108E-11;  1.0000000E+04;  0.0000000E+00;  9.9999805E+03; -4.5250285E-02;  0.0000000E+00;  7.2483718E-04;  1.3076664E+01;
  1.9999318E-01;  9.9999998E-03; -1.8000033E-01;1345; -6.5623745E-03;  0.0000000E+00; -2.6329915E-04;  1.0000713E+03;  4.0000001E-01;  5.9060051E+01;3; -4.5755014E+00;  0.0000000E+00; -1.3776408E-01;0; -5.5309765E-02;  1.0001521E+04;  0.0000000E+00; -8.9264220E-05;  1.0000000E+04;  0.0000000E+00;  9.9999082E+03; -5.8658335E-02;  0.0000000E+00;  3.3485703E-03;  4.7091240E+01;
  1.9999318E-01;  9.9999998E-03; -1.6000028E-01;1346; -6.5455493E-03;  0.0000000E+00; -2.1297080E-04;  1.0000712E+03;  4.0000001E-01;  5.9060051E+01;3; -4.5540857E+00;  0.0000000E+00; -1.1603543E-01;0; -5.4926809E-02;  1.0001507E+04;  0.0000000E+00; -6.7518744E-07;  1.0000000E+04;  0.0000000E+00;  9.9999189E+03; -5.7856809E-02;  0.0000000E+00;  2.9300004E-03;  4.1666039E+01;
  1.9999321E-01;  9.9999998E-03; -1.4000021E-01;1347; -6.4932806E-03;  0.0000000E+00; -1.6726405E-04;  1.0000709E+03;  4.0000001E-01;  5.8664997E+01;3; -4.5079217E+00;  0.0000000E+00; -9.5377080E-02;0; -5.4382458E-02;  1.0001487E+04;  0.0000000E+00;  1.6994546E-09;  1.0000000E+04;  0.0000000E+00;  9.9999307E+03; -5.6937523E-02;  0.0000000E+00;  2.5550630E-03;  3.6612877E+01;
  1.9999325E-01;  9.9999998E-03; -1.2000016E-01;1348; -6.4233947E-03;  0.0000000E+00; -1.2678749E-04;  1.0000706E+03;  4.0000001E-01;  5.8467472E+01;3; -4.4490581E+00;  0.0000000E+00; -7.5038910E-02;0; -5.3767473E-02;  1.0001468E+04;  0.0000000E+00; -4.0152801E-11;  1.0000000E+04;  0.0000000E+00;  9.9999404E+03; -5.5977147E-02;  0.0000000E+00;  2.2096748E-03;  3.1933079E+01;
  1.9999331E-01;  9.9999998E-03; -1.0000012E-01;1349; -6.3487235E-03;  0.0000000E+00; -9.2616945E-05;  1.0000699E+03;  4.0000001E-01;  5.7973660E+01;3; -4.3868537E+00;  0.0000000E+00; -5.7464387E-02;0; -5.3181771E-02;  1.0001448E+04;  0.0000000E+00; -4.7112564E-10;  1.0000000E+04;  0.0000000E+00;  9.9999512E+03; -5.5056367E-02;  0.0000000E+00;  1.8745951E-03;  2.7507246E+01;
  1.9999337E-01;  9.9999998E-03; -8.0000080E-02;1350; -6.2784161E-03;  0.0000000E+00; -6.4999047E-05;  1.0000695E+03;  4.0000001E-01;  5.7578609E+01;3; -4.3284917E+00;  0.0000000E+00; -4.2073004E-02;0; -5.2675251E-02;  1.0001433E+04;  0.0000000E+00; -1.0778731E-10;  1.0000000E+04;  0.0000000E+00;  9.9999600E+03; -5.4235939E-02;  0.0000000E+00;  1.5606878E-03;  2.3486532E+01;
  1.9999342E-01;  9.9999998E-03; -6.0000055E-02;1351; -6.2186625E-03;  0.0000000E+00; -4.3204764E-05;  1.0000692E+03;  4.0000001E-01;  5.7381084E+01;3; -4.2788415E+00;  0.0000000E+00; -2.9264182E-02;0; -5.2270442E-02;  1.0001417E+04;  0.0000000E+00; -3.8182072E-11;  1.0000000E+04;  0.0000000E+00;  9.9999658E+03; -5.3559694E-02;  0.0000000E+00;  1.2892508E-03;  2.0098890E+01;
  1.9999345E-01;  9.9999998E-03; -4.0000033E-02;1352; -6.1734905E-03;  0.0000000E+00; -2.6184505E-05;  1.0000689E+03;  4.0000001E-01;  5.7084797E+01;3; -4.2412524E+00;  0.0000000E+00; -1.8423066E-02;0; -5.1977303E-02;  1.0001404E+04;  0.0000000E+00; -2.0077028E-12;  1.0000000E+04;  0.0000000E+00;  9.9999717E+03; -5.3057753E-02;  0.0000000E+00;  1.0804500E-03;  1.7542490E+01;
  1.9999348E-01;  9.9999998E-03; -2.0000016E-02;1353; -6.1454587E-03;  0.0000000E+00; -1.2289018E-05;  1.0000687E+03;  4.0000001E-01;  5.6986034E+01;3; -4.2178788E+00;  0.0000000E+00; -8.8841422E-03;0; -5.1800247E-02;  1.0001396E+04;  0.0000000E+00;  6.0118376E-11;  1.0000000E+04;  0.0000000E+00;  9.9999766E+03; -5.2749511E-02;  0.0000000E+00;  9.4926520E-04;  1.5956202E+01;
  2.1999161E-01;  9.9999998E-03; -1.8000045E-01;1376; -7.8753782E-03;  0.0000000E+00; -3.5989017E-04;  1.0000854E+03;  4.0000001E-01;  7.0812805E+01;3; -5.3448105E+00;  0.0000000E+00; -2.0449051E-01;0; -6.4375073E-02;  1.0001838E+04;  0.0000000E+00; -1.0064094E-04;  1.0000000E+04;  0.0000000E+00;  9.9998711E+03; -6.9065109E-02;  0.0000000E+00;  4.6900380E-03;  6.5437332E+01;
  2.1999162E-01;  9.9999998E-03; -1.6000037E-01;1377; -7.8344662E-03;  0.0000000E+00; -2.9251922E-04;  1.0000852E+03;  4.0000001E-01;  7.0615273E+01;3; -5.3070283E+00;  0.0000000E+00; -1.7495054E-01;0; -6.3876092E-02;  1.0001815E+04;  0.0000000E+00; -7.3250112E-07;  1.0000000E+04;  0.0000000E+00;  9.9998887E+03; -6.7886345E-02;  0.0000000E+00;  4.0102531E-03;  5.6321236E+01;
  2.1999168E-01;  9.9999998E-03; -1.4000028E-01;1378; -7.7563142E-03;  0.0000000E+00; -2.3096797E-04;  1.0000847E+03;  4.0000001E-01;  7.0121460E+01;3; -5.2440495E+00;  0.0000000E+00; -1.4623867E-01;0; -6.3208774E-02;  1.0001789E+04;  0.0000000E+00;  1.7212872E-09;  1.0000000E+04;  0.0000000E+00;  9.9999082E+03; -6.6645116E-02;  0.0000000E+00;  3.4363414E-03;  4.8385082E+01;
  2.1999176E-01;  9.9999998E-03; -1.2000021E-01;1379; -7.6609482E-03;  0.0000000E+00; -1.7645161E-04;  1.0000840E+03;  4.0000001E-01;  6.9627647E+01;3; -5.1688156E+00;  0.0000000E+00; -1.1814192E-01;0; -6.2468532E-02;  1.0001761E+04;  0.0000000E+00; -4.3263454E-10;  1.0000000E+04;  0.0000000E+00;  9.9999199E+03; -6.5406986E-02;  0.0000000E+00;  2.9384540E-03;  4.1457470E+01;
  2.1999183E-01;  9.9999998E-03; -1.0000015E-01;1380; -7.5628697E-03;  0.0000000E+00; -1.2936718E-04;  1.0000834E+03;  4.0000001E-01;  6.9035072E+01;3; -5.0916195E+00;  0.0000000E+00; -9.2212491E-02;0; -6.1772071E-02;  1.0001734E+04;  0.0000000E+00; -8.3687995E-10;  1.0000000E+04;  0.0000000E+00;  9.9999365E+03; -6.4248644E-02;  0.0000000E+00;  2.4765711E-03;  3.5186729E+01;
  2.1999191E-01;  9.9999998E-03; -8.0000110E-02;1381; -7.4722003E-03;  0.0000000E+00; -9.1355265E-05;  1.0000828E+03;  4.0000001E-01;  6.8640022E+01;3; -5.0202498E+00;  0.0000000E+00; -6.9287896E-02;0; -6.1176293E-02;  1.0001711E+04;  0.0000000E+00; -4.2781048E-10;  1.0000000E+04;  0.0000000E+00;  9.9999482E+03; -6.3230366E-02;  0.0000000E+00;  2.0540718E-03;  2.9636633E+01;
  2.1999198E-01;  9.9999998E-03; -6.0000069E-02;1382; -7.3959851E-03;  0.0000000E+00; -6.1099672E-05;  1.0000825E+03;  4.0000001E-01;  6.8343735E+01;3; -4.9601221E+00;  0.0000000E+00; -4.9068075E-02;0; -6.0704459E-02;  1.0001693E+04;  0.0000000E+00;  1.7677482E-10;  1.0000000E+04;  0.0000000E+00;  9.9999590E+03; -6.2397372E-02;  0.0000000E+00;  1.6929117E-03;  2.5028954E+01;
  2.1999203E-01;  9.9999998E-03; -4.0000044E-02;1383; -7.3387655E-03;  0.0000000E+00; -3.7162699E-05;  1.0000821E+03;  4.0000001E-01;  6.8047447E+01;3; -4.9148278E+00;  0.0000000E+00; -3.1350274E-02;0; -6.0365114E-02;  1.0001679E+04;  0.0000000E+00; -7.0670511E-11;  1.0000000E+04;  0.0000000E+00;  9.9999648E+03; -6.1781749E-02;  0.0000000E+00;  1.4166334E-03;  2.1581312E+01;
  2.1999206E-01;  9.9999998E-03; -2.0000020E-02;1384; -7.3033962E-03;  0.0000000E+00; -1.7530632E-05;  1.0000820E+03;  4.0000001E-01;  6.7948685E+01;3; -4.8867512E+00;  0.0000000E+00; -1.5268818E-02;0; -6.0161009E-02;  1.0001671E+04;  0.0000000E+00;  1.2742347E-10;  1.0000000E+04;  0.0000000E+00;  9.9999707E+03; -6.1404519E-02;  0.0000000E+00;  1.2435104E-03;  1.9452095E+01;
  2.3998973E-01;  9.9999998E-03; -1.8000060E-01;1407; -9.4116414E-03;  0.0000000E+00; -4.9413787E-04;  1.0001016E+03;  4.0000001E-01;  8.4145752E+01;3; -6.2105198E+00;  0.0000000E+00; -2.9919267E-01;0; -7.4502118E-02;  1.0002217E+04;  0.0000000E+00; -7.2965449E-05;  1.0000000E+04;  0.0000000E+00;  9.9998135E+03; -8.1046142E-02;  0.0000000E+00;  6.5440205E-03;  9.0490295E+01;
  2.3998977E-01;  9.9999998E-03; -1.6000047E-01;1408; -9.3393829E-03;  0.0000000E+00; -4.0257559E-04;  1.0001014E+03;  4.0000001E-01;  8.4046989E+01;3; -6.1530833E+00;  0.0000000E+00; -2.5894836E-01;0; -7.3940665E-02;  1.0002183E+04;  0.0000000E+00; -2.0087320E-07;  1.0000000E+04;  0.0000000E+00;  9.9998496E+03; -7.9445846E-02;  0.0000000E+00;  5.5051795E-03;  7.6170303E+01;
  2.3998986E-01;  9.9999998E-03; -1.4000037E-01;1409; -9.2293378E-03;  0.0000000E+00; -3.1771604E-04;  1.0001008E+03;  4.0000001E-01;  8.3553177E+01;3; -6.0711036E+00;  0.0000000E+00; -2.1817365E-01;0; -7.3184110E-02;  1.0002146E+04;  0.0000000E+00;  1.1245440E-09;  1.0000000E+04;  0.0000000E+00;  9.9998750E+03; -7.7828526E-02;  0.0000000E+00;  4.6444149E-03;  6.4072243E+01;
  2.3998997E-01;  9.9999998E-03; -1.2000027E-01;1410; -9.1029480E-03;  0.0000000E+00; -2.4277167E-04;  1.0001001E+03;  4.0000001E-01;  8.2960602E+01;3; -5.9774747E+00;  0.0000000E+00; -1.7853771E-01;0; -7.2342165E-02;  1.0002106E+04;  0.0000000E+00; -1.1638914E-09;  1.0000000E+04;  0.0000000E+00;  9.9998975E+03; -7.6262675E-02;  0.0000000E+00;  3.9205123E-03;  5.3884136E+01;
  2.3999007E-01;  9.9999998E-03; -1.0000020E-01;1411; -8.9763701E-03;  0.0000000E+00; -1.7838799E-04;  1.0000994E+03;  4.0000001E-01;  8.2368027E+01;3; -5.8836627E+00;  0.0000000E+00; -1.4066105E-01;0; -7.1549810E-02;  1.0002073E+04;  0.0000000E+00; -1.7349523E-09;  1.0000000E+04;  0.0000000E+00;  9.9999170E+03; -7.4822493E-02;  0.0000000E+00;  3.2726836E-03;  4.4989746E+01;
  2.3999017E-01;  9.9999998E-03; -8.0000132E-02;1412; -8.8610752E-03;  0.0000000E+00; -1.2597893E-04;  1.0000989E+03;  4.0000001E-01;  8.1874214E+01;3; -5.7978487E+00;  0.0000000E+00; -1.0657734E-01;0; -7.0873857E-02;  1.0002044E+04;  0.0000000E+00; -4.4407752E-10;  1.0000000E+04;  0.0000000E+00;  9.9999326E+03; -7.3568918E-02;  0.0000000E+00;  2.6950641E-03;  3.7322746E+01;
  2.3999026E-01;  9.9999998E-03; -6.0000088E-02;1413; -8.7649543E-03;  0.0000000E+00; -8.4652187E-05;  1.0000983E+03;  4.0000001E-01;  8.1380402E+01;3; -5.7259917E+00;  0.0000000E+00; -7.6379254E-02;0; -7.0340544E-02;  1.0002018E+04;  0.0000000E+00;  1.3122839E-10;  1.0000000E+04;  0.0000000E+00;  9.9999463E+03; -7.2549388E-02;  0.0000000E+00;  2.2088448E-03;  3.1066389E+01;
  2.3999032E-01;  9.9999998E-03; -4.0000051E-02;1414; -8.6932071E-03;  0.0000000E+00; -5.1584724E-05;  1.0000979E+03;  4.0000001E-01;  8.1084114E+01;3; -5.6721554E+00;  0.0000000E+00; -4.9162369E-02;0; -6.9958337E-02;  1.0002003E+04;  0.0000000E+00;  3.1737768E-10;  1.0000000E+04;  0.0000000E+00;  9.9999561E+03; -7.1798518E-02;  0.0000000E+00;  1.8401833E-03;  2.6435738E+01;
  2.3999035E-01;  9.9999998E-03; -2.0000024E-02;1415; -8.6489702E-03;  0.0000000E+00; -2.4346309E-05;  1.0000976E+03;  4.0000001E-01;  8.0886589E+01;3; -5.6388631E+00;  0.0000000E+00; -2.3981119E-02;0; -6.9729000E-02;  1.0001990E+04;  0.0000000E+00;  6.4133067E-11;  1.0000000E+04;  0.0000000E+00;  9.9999629E+03; -7.1339257E-02;  0.0000000E+00;  1.6102537E-03;  2.3593977E+01;
  2.5998744E-01;  9.9999998E-03; -1.8000080E-01;1438; -1.1205696E-02;  0.0000000E+00; -6.7514100E-04;  1.0001207E+03;  4.0000001E-01;  1.0004653E+02;3; -7.1818190E+00;  0.0000000E+00; -4.3004176E-01;0; -8.5822873E-02;  1.0002664E+04;  0.0000000E+00; -2.9787610E-05;  1.0000000E+04;  0.0000000E+00;  9.9997490E+03; -9.4741806E-02;  0.0000000E+00;  8.9189336E-03;  1.2275415E+02;
  2.5998753E-01;  9.9999998E-03; -1.6000062E-01;1439; -1.1093527E-02;  0.0000000E+00; -5.4479798E-04;  1.0001205E+03;  4.0000001E-01;  9.9849007E+01;3; -7.1016912E+00;  0.0000000E+00; -3.7070093E-01;0; -8.5243084E-02;  1.0002616E+04;  0.0000000E+00; -8.2423945E-10;  1.0000000E+04;  0.0000000E+00;  9.9997949E+03; -9.2685275E-02;  0.0000000E+00;  7.4421931E-03;  1.0176198E+02;
  2.5998768E-01;  9.9999998E-03; -1.4000048E-01;1440; -1.0943604E-02;  0.0000000E+00; -4.2881496E-04;  1.0001200E+03;  4.0000001E-01;  9.9453957E+01;3; -6.9982038E+00;  0.0000000E+00; -3.1284091E-01;0; -8.4431566E-02;  1.0002567E+04;  0.0000000E+00; -2.6671521E-11;  1.0000000E+04;  0.0000000E+00;  9.9998320E+03; -9.0642862E-02;  0.0000000E+00;  6.2112948E-03;  8.4150925E+01;
  2.5998780E-01;  9.9999998E-03; -1.2000035E-01;1441; -1.0779483E-02;  0.0000000E+00; -3.2570795E-04;  1.0001193E+03;  4.0000001E-01;  9.8762619E+01;3; -6.8844886E+00;  0.0000000E+00; -2.5631380E-01;0; -8.3514474E-02;  1.0002520E+04;  0.0000000E+00; -1.1900388E-09;  1.0000000E+04;  0.0000000E+00;  9.9998662E+03; -8.8697493E-02;  0.0000000E+00;  5.1830178E-03;  6.9566200E+01;
  2.5998795E-01;  9.9999998E-03; -1.0000025E-01;1442; -1.0618318E-02;  0.0000000E+00; -2.3973154E-04;  1.0001183E+03;  4.0000001E-01;  9.7972519E+01;3; -6.7721148E+00;  0.0000000E+00; -2.0339775E-01;0; -8.2644247E-02;  1.0002478E+04;  0.0000000E+00; -1.6653997E-09;  1.0000000E+04;  0.0000000E+00;  9.9998926E+03; -8.6926095E-02;  0.0000000E+00;  4.2818473E-03;  5.7148731E+01;
  2.5998810E-01;  9.9999998E-03; -8.0000170E-02;1443; -1.0473421E-02;  0.0000000E+00; -1.6890718E-04;  1.0001174E+03;  4.0000001E-01;  9.7281174E+01;3; -6.6704903E+00;  0.0000000E+00; -1.5469313E-01;0; -8.1899203E-02;  1.0002438E+04;  0.0000000E+00;  9.4635090E-12;  1.0000000E+04;  0.0000000E+00;  9.9999150E+03; -8.5393824E-02;  0.0000000E+00;  3.4946208E-03;  4.6684372E+01;
  2.5998822E-01;  9.9999998E-03; -6.0000107E-02;1444; -1.0353387E-02;  0.0000000E+00; -1.1325496E-04;  1.0001169E+03;  4.0000001E-01;  9.6886124E+01;3; -6.5858459E+00;  0.0000000E+00; -1.1112718E-01;0; -8.1310913E-02;  1.0002408E+04;  0.0000000E+00;  4.7259185E-10;  1.0000000E+04;  0.0000000E+00;  9.9999326E+03; -8.4152669E-02;  0.0000000E+00;  2.8417574E-03;  3.8288967E+01;
  2.5998828E-01;  9.9999998E-03; -4.0000062E-02;1445; -1.0264163E-02;  0.0000000E+00; -6.9032787E-05;  1.0001165E+03;  4.0000001E-01;  9.6491074E+01;3; -6.5225201E+00;  0.0000000E+00; -7.1836889E-02;0; -8.0889404E-02;  1.0002385E+04;  0.0000000E+00;  7.2756390E-10;  1.0000000E+04;  0.0000000E+00;  9.9999453E+03; -8.3240904E-02;  0.0000000E+00;  2.3514980E-03;  3.2147125E+01;
  2.5998834E-01;  9.9999998E-03; -2.0000029E-02;1446; -1.0209337E-02;  0.0000000E+00; -3.2567150E-05;  1.0001162E+03;  4.0000001E-01;  9.6293549E+01;3; -6.4835453E+00;  0.0000000E+00; -3.5173289E-02;0; -8.0636650E-02;  1.0002371E+04;  0.0000000E+00;  2.5695968E-10;  1.0000000E+04;  0.0000000E+00;  9.9999551E+03; -8.2684085E-02;  0.0000000E+00;  2.0474310E-03;  2.8404928E+01;
  2.7998471E-01;  9.9999998E-03; -1.8000104E-01;1469; -1.3296159E-02;  0.0000000E+00; -9.0546475E-04;  1.0001429E+03;  4.0000001E-01;  1.1841637E+02;3; -8.2685719E+00;  0.0000000E+00; -5.9725815E-01;0; -9.8528832E-02;  1.0003193E+04;  0.0000000E+00; -3.9178017E-06;  1.0000000E+04;  0.0000000E+00;  9.9996641E+03; -1.1029817E-01;  0.0000000E+00;  1.1769340E-02;  1.6221696E+02;
  2.7998486E-01;  9.9999998E-03; -1.6000080E-01;1470; -1.3133470E-02;  0.0000000E+00; -7.2208128E-04;  1.0001429E+03;  4.0000001E-01;  1.1841637E+02;3; -8.1625261E+00;  0.0000000E+00; -5.1107478E-01;0; -9.7949818E-02;  1.0003129E+04;  0.0000000E+00; -3.6492189E-09;  1.0000000E+04;  0.0000000E+00;  9.9997285E+03; -1.0775997E-01;  0.0000000E+00;  9.8101581E-03;  1.3327061E+02;
  2.7998504E-01;  9.9999998E-03; -1.4000060E-01;1471; -1.2933806E-02;  0.0000000E+00; -5.6417158E-04;  1.0001423E+03;  4.0000001E-01;  1.1782380E+02;3; -8.0348749E+00;  0.0000000E+00; -4.3099219E-01;0; -9.7107463E-02;  1.0003063E+04;  0.0000000E+00; -3.3324316E-10;  1.0000000E+04;  0.0000000E+00;  9.9997832E+03; -1.0524971E-01;  0.0000000E+00;  8.1422459E-03;  1.0883720E+02;
  2.7998525E-01;  9.9999998E-03; -1.2000044E-01;1472; -1.2723534E-02;  0.0000000E+00; -4.2520923E-04;  1.0001414E+03;  4.0000001E-01;  1.1713246E+02;3; -7.8988924E+00;  0.0000000E+00; -3.5190630E-01;0; -9.6135564E-02;  1.0003001E+04;  0.0000000E+00; -1.9369633E-09;  1.0000000E+04;  0.0000000E+00;  9.9998242E+03; -1.0287117E-01;  0.0000000E+00;  6.7356084E-03;  8.8691231E+01;
  2.7998546E-01;  9.9999998E-03; -1.0000031E-01;1473; -1.2520699E-02;  0.0000000E+00; -3.1136442E-04;  1.0001403E+03;  4.0000001E-01;  1.1624360E+02;3; -7.7665391E+00;  0.0000000E+00; -2.7893680E-01;0; -9.5202103E-02;  1.0002943E+04;  0.0000000E+00; -1.1100367E-09;  1.0000000E+04;  0.0000000E+00;  9.9998643E+03; -1.0071372E-01;  0.0000000E+00;  5.5116196E-03;  7.1800629E+01;
  2.7998561E-01;  9.9999998E-03; -8.0000207E-02;1474; -1.2340177E-02;  0.0000000E+00; -2.1916171E-04;  1.0001391E+03;  4.0000001E-01;  1.1525597E+02;3; -7.6476107E+00;  0.0000000E+00; -2.1327861E-01;0; -9.4397061E-02;  1.0002896E+04;  0.0000000E+00;  2.8558977E-10;  1.0000000E+04;  0.0000000E+00;  9.9998926E+03; -9.8853201E-02;  0.0000000E+00;  4.4561378E-03;  5.7816589E+01;
  2.7998576E-01;  9.9999998E-03; -6.0000129E-02;1475; -1.2191560E-02;  0.0000000E+00; -1.4633230E-04;  1.0001385E+03;  4.0000001E-01;  1.1476216E+02;3; -7.5491953E+00;  0.0000000E+00; -1.5361300E-01;0; -9.3758546E-02;  1.0002856E+04;  0.0000000E+00;  1.0709426E-09;  1.0000000E+04;  0.0000000E+00;  9.9999180E+03; -9.7349666E-02;  0.0000000E+00;  3.5911219E-03;  4.6767731E+01;
  2.7998587E-01;  9.9999998E-03; -4.0000077E-02;1476; -1.2081406E-02;  0.0000000E+00; -8.8919973E-05;  1.0001380E+03;  4.0000001E-01;  1.1436711E+02;3; -7.4756355E+00;  0.0000000E+00; -9.9474005E-02;0; -9.3299732E-02;  1.0002828E+04;  0.0000000E+00;  9.6986341E-10;  1.0000000E+04;  0.0000000E+00;  9.9999355E+03; -9.6246921E-02;  0.0000000E+00;  2.9471898E-03;  3.8776756E+01;
  2.7998593E-01;  9.9999998E-03; -2.0000035E-02;1477; -1.2013924E-02;  0.0000000E+00; -4.1859665E-05;  1.0001376E+03;  4.0000001E-01;  1.1407082E+02;3; -7.4304061E+00;  0.0000000E+00; -4.8512235E-02;0; -9.3024269E-02;  1.0002811E+04;  0.0000000E+00;  1.1312976E-09;  1.0000000E+04;  0.0000000E+00;  9.9999463E+03; -9.5574282E-02;  0.0000000E+00;  2.5500113E-03;  3.3944202E+01;
  2.9998145E-01;  9.9999998E-03; -1.8000133E-01;1500; -1.5724376E-02;  0.0000000E+00; -1.1800396E-03;  1.0001688E+03;  4.0000001E-01;  1.3984784E+02;3; -9.4792166E+00;  0.0000000E+00; -7.9734194E-01;0; -1.1284937E-01;  1.0003812E+04;  0.0000000E+00; -1.3669951E-08;  1.0000000E+04;  0.0000000E+00;  9.9995654E+03; -1.2787811E-01;  0.0000000E+00;  1.5028748E-02;  2.0863797E+02;
  2.9998165E-01;  9.9999998E-03; -1.6000101E-01;1501; -1.5498787E-02;  0.0000000E+00; -9.3175372E-04;  1.0001687E+03;  4.0000001E-01;  1.3974908E+02;3; -9.3443766E+00;  0.0000000E+00; -6.7881787E-01;0; -1.1226651E-01;  1.0003729E+04;  0.0000000E+00; -5.7591296E-09;  1.0000000E+04;  0.0000000E+00;  9.9996504E+03; -1.2483981E-01;  0.0000000E+00;  1.2573301E-02;  1.7059431E+02;
  2.9998192E-01;  9.9999998E-03; -1.4000075E-01;1502; -1.5238186E-02;  0.0000000E+00; -7.2173780E-04;  1.0001682E+03;  4.0000001E-01;  1.3935403E+02;3; -9.1900873E+00;  0.0000000E+00; -5.7026768E-01;0; -1.1139727E-01;  1.0003645E+04;  0.0000000E+00;  2.1275606E-09;  1.0000000E+04;  0.0000000E+00;  9.9997197E+03; -1.2181854E-01;  0.0000000E+00;  1.0421273E-02;  1.3811620E+02;
  2.9998219E-01;  9.9999998E-03; -1.2000053E-01;1503; -1.4971683E-02;  0.0000000E+00; -5.3894363E-04;  1.0001672E+03;  4.0000001E-01;  1.3846516E+02;3; -9.0299349E+00;  0.0000000E+00; -4.6380797E-01;0; -1.1037643E-01;  1.0003566E+04;  0.0000000E+00; -1.9350235E-10;  1.0000000E+04;  0.0000000E+00;  9.9997793E+03; -1.1894856E-01;  0.0000000E+00;  8.5721249E-03;  1.1129037E+02;
  2.9998246E-01;  9.9999998E-03; -1.0000037E-01;1504; -1.4718644E-02;  0.0000000E+00; -3.9170933E-04;  1.0001661E+03;  4.0000001E-01;  1.3767506E+02;3; -8.8762980E+00;  0.0000000E+00; -3.6757469E-01;0; -1.0938422E-01;  1.0003494E+04;  0.0000000E+00;  8.2590584E-10;  1.0000000E+04;  0.0000000E+00;  9.9998281E+03; -1.1634356E-01;  0.0000000E+00;  6.9593382E-03;  8.9005478E+01;
  2.9998267E-01;  9.9999998E-03; -8.0000244E-02;1505; -1.4495275E-02;  0.0000000E+00; -2.7429359E-04;  1.0001649E+03;  4.0000001E-01;  1.3658868E+02;3; -8.7388735E+00;  0.0000000E+00; -2.8123611E-01;0; -1.0852069E-01;  1.0003433E+04;  0.0000000E+00;  2.7856168E-09;  1.0000000E+04;  0.0000000E+00;  9.9998691E+03; -1.1409807E-01;  0.0000000E+00;  5.5773845E-03;  7.0808060E+01;
  2.9998288E-01;  9.9999998E-03; -6.0000151E-02;1506; -1.4312608E-02;  0.0000000E+00; -1.8234247E-04;  1.0001641E+03;  4.0000001E-01;  1.3589734E+02;3; -8.6257343E+00;  0.0000000E+00; -2.0202275E-01;0; -1.0783086E-01;  1.0003382E+04;  0.0000000E+00;  3.2845136E-09;  1.0000000E+04;  0.0000000E+00;  9.9999004E+03; -1.1228502E-01;  0.0000000E+00;  4.4541559E-03;  5.6623684E+01;
  2.9998299E-01;  9.9999998E-03; -4.0000089E-02;1507; -1.4177587E-02;  0.0000000E+00; -1.1033054E-04;  1.0001633E+03;  4.0000001E-01;  1.3530476E+02;3; -8.5415659E+00;  0.0000000E+00; -1.3110487E-01;0; -1.0733268E-01;  1.0003345E+04;  0.0000000E+00;  1.6174039E-09;  1.0000000E+04;  0.0000000E+00;  9.9999209E+03; -1.1095662E-01;  0.0000000E+00;  3.6239335E-03;  4.6477253E+01;
  2.9998308E-01;  9.9999998E-03; -2.0000041E-02;1508; -1.4094956E-02;  0.0000000E+00; -5.1643208E-05;  1.0001629E+03;  4.0000001E-01;  1.3500848E+02;3; -8.4896078E+00;  0.0000000E+00; -6.3916743E-02;0; -1.0703253E-01;  1.0003324E+04;  0.0000000E+00;  6.1616917E-10;  1.0000000E+04;  0.0000000E+00;  9.9999355E+03; -1.1014691E-01;  0.0000000E+00;  3.1143795E-03;  4.0387634E+01;
  3.1997752E-01;  9.9999998E-03; -1.8000168E-01;1531; -1.8535573E-02;  0.0000000E+00; -1.4957357E-03;  1.0001993E+03;  4.0000001E-01;  1.6513107E+02;3; -1.0820765E+01;  0.0000000E+00; -1.0250181E+00;0; -1.2903409E-01;  1.0004533E+04;  0.0000000E+00; -2.6468422E-08;  1.0000000E+04;  0.0000000E+00;  9.9994561E+03; -1.4767894E-01;  0.0000000E+00;  1.8644860E-02;  2.6184708E+02;
  3.1997785E-01;  9.9999998E-03; -1.6000125E-01;1532; -1.8233903E-02;  0.0000000E+00; -1.1709968E-03;  1.0001993E+03;  4.0000001E-01;  1.6513107E+02;3; -1.0655116E+01;  0.0000000E+00; -8.6914086E-01;0; -1.2842257E-01;  1.0004431E+04;  0.0000000E+00;  1.3077202E-09;  1.0000000E+04;  0.0000000E+00;  9.9995586E+03; -1.4411438E-01;  0.0000000E+00;  1.5691806E-02;  2.1352058E+02;
  3.1997821E-01;  9.9999998E-03; -1.4000091E-01;1533; -1.7899819E-02;  0.0000000E+00; -8.9955848E-04;  1.0001986E+03;  4.0000001E-01;  1.6453850E+02;3; -1.0473183E+01;  0.0000000E+00; -7.2838145E-01;0; -1.2750573E-01;  1.0004324E+04;  0.0000000E+00;  7.1360731E-09;  1.0000000E+04;  0.0000000E+00;  9.9996504E+03; -1.4052777E-01;  0.0000000E+00;  1.3022036E-02;  1.7183224E+02;
  3.1997856E-01;  9.9999998E-03; -1.2000064E-01;1534; -1.7565414E-02;  0.0000000E+00; -6.6610228E-04;  1.0001973E+03;  4.0000001E-01;  1.6345210E+02;3; -1.0287811E+01;  0.0000000E+00; -5.9350717E-01;0; -1.2642097E-01;  1.0004223E+04;  0.0000000E+00;  3.8572381E-09;  1.0000000E+04;  0.0000000E+00;  9.9997266E+03; -1.3709769E-01;  0.0000000E+00;  1.0676712E-02;  1.3730411E+02;
  3.1997889E-01;  9.9999998E-03; -1.0000043E-01;1535; -1.7251842E-02;  0.0000000E+00; -4.7946858E-04;  1.0001959E+03;  4.0000001E-01;  1.6226695E+02;3; -1.0111470E+01;  0.0000000E+00; -4.6812311E-01;0; -1.2535776E-01;  1.0004132E+04;  0.0000000E+00;  4.7996398E-09;  1.0000000E+04;  0.0000000E+00;  9.9997891E+03; -1.3397455E-01;  0.0000000E+00;  8.6167939E-03;  1.0881761E+02;
  3.1997919E-01;  9.9999998E-03; -8.0000281E-02;1536; -1.6977049E-02;  0.0000000E+00; -3.3302829E-04;  1.0001946E+03;  4.0000001E-01;  1.6118057E+02;3; -9.9545250E+00;  0.0000000E+00; -3.5728937E-01;0; -1.2442388E-01;  1.0004054E+04;  0.0000000E+00;  5.4959255E-09;  1.0000000E+04;  0.0000000E+00;  9.9998379E+03; -1.3127951E-01;  0.0000000E+00;  6.8556359E-03;  8.5830078E+01;
  3.1997943E-01;  9.9999998E-03; -6.0000174E-02;1537; -1.6753538E-02;  0.0000000E+00; -2.1925799E-04;  1.0001934E+03;  4.0000001E-01;  1.6019295E+02;3; -9.8258438E+00;  0.0000000E+00; -2.5543195E-01;0; -1.2367118E-01;  1.0003994E+04;  0.0000000E+00;  4.8729789E-09;  1.0000000E+04;  0.0000000E+00;  9.9998789E+03; -1.2910326E-01;  0.0000000E+00;  5.4320795E-03;  6.8135986E+01;
  3.1997961E-01;  9.9999998E-03; -4.0000100E-02;1538; -1.6588969E-02;  0.0000000E+00; -1.3216570E-04;  1.0001925E+03;  4.0000001E-01;  1.5950160E+02;3; -9.7304993E+00;  0.0000000E+00; -1.6563535E-01;0; -1.2312357E-01;  1.0003950E+04;  0.0000000E+00;  3.3167098E-09;  1.0000000E+04;  0.0000000E+00;  9.9999043E+03; -1.2750936E-01;  0.0000000E+00;  4.3857871E-03;  5.5615704E+01;
  3.1997973E-01;  9.9999998E-03; -2.0000044E-02;1539; -1.6488250E-02;  0.0000000E+00; -6.1483748E-05;  1.0001921E+03;  4.0000001E-01;  1.5910655E+02;3; -9.6713371E+00;  0.0000000E+00; -8.0770463E-02;0; -1.2279175E-01;  1.0003923E+04;  0.0000000E+00;  2.4445745E-09;  1.0000000E+04;  0.0000000E+00;  9.9999219E+03; -1.2653816E-01;  0.0000000E+00;  3.7464083E-03;  4.8160145E+01;
  3.3997285E-01;  9.9999998E-03; -1.8000205E-01;1562; -2.1778494E-02;  0.0000000E+00; -1.8444635E-03;  1.0002352E+03;  4.0000001E-01;  1.9485860E+02;3; -1.2298924E+01;  0.0000000E+00; -1.2771457E+00;0; -1.4734636E-01;  1.0005375E+04;  0.0000000E+00; -2.9249936E-08;  1.0000000E+04;  0.0000000E+00;  9.9993281E+03; -1.6993715E-01;  0.0000000E+00;  2.2590784E-02;  3.2179251E+02;
  3.3997330E-01;  9.9999998E-03; -1.6000152E-01;1563; -2.1387272E-02;  0.0000000E+00; -1.4337987E-03;  1.0002351E+03;  4.0000001E-01;  1.9475984E+02;3; -1.2103465E+01;  0.0000000E+00; -1.0834367E+00;0; -1.4665425E-01;  1.0005246E+04;  0.0000000E+00;  1.7711617E-08;  1.0000000E+04;  0.0000000E+00;  9.9994590E+03; -1.6578928E-01;  0.0000000E+00;  1.9135026E-02;  2.6183801E+02;
  3.3997378E-01;  9.9999998E-03; -1.4000109E-01;1564; -2.0965798E-02;  0.0000000E+00; -1.0928083E-03;  1.0002341E+03;  4.0000001E-01;  1.9396974E+02;3; -1.1892983E+01;  0.0000000E+00; -9.0310651E-01;0; -1.4564306E-01;  1.0005112E+04;  0.0000000E+00;  1.3262474E-08;  1.0000000E+04;  0.0000000E+00;  9.9995713E+03; -1.6156067E-01;  0.0000000E+00;  1.5917610E-02;  2.0979631E+02;
  3.3997425E-01;  9.9999998E-03; -1.2000076E-01;1565; -2.0550430E-02;  0.0000000E+00; -8.0346927E-04;  1.0002327E+03;  4.0000001E-01;  1.9278458E+02;3; -1.1681501E+01;  0.0000000E+00; -7.3475069E-01;0; -1.4445436E-01;  1.0004986E+04;  0.0000000E+00;  7.8707796E-09;  1.0000000E+04;  0.0000000E+00;  9.9996660E+03; -1.5748629E-01;  0.0000000E+00;  1.3031934E-02;  1.6670024E+02;
  3.3997470E-01;  9.9999998E-03; -1.0000051E-01;1566; -2.0164493E-02;  0.0000000E+00; -5.7251507E-04;  1.0002307E+03;  4.0000001E-01;  1.9110562E+02;3; -1.1482214E+01;  0.0000000E+00; -5.7717562E-01;0; -1.4328453E-01;  1.0004871E+04;  0.0000000E+00;  8.7418570E-09;  1.0000000E+04;  0.0000000E+00;  9.9997422E+03; -1.5376273E-01;  0.0000000E+00;  1.0478197E-02;  1.3142197E+02;
  3.3997509E-01;  9.9999998E-03; -8.0000326E-02;1567; -1.9828213E-02;  0.0000000E+00; -3.9372742E-04;  1.0002292E+03;  4.0000001E-01;  1.8992047E+02;3; -1.1305072E+01;  0.0000000E+00; -4.3867147E-01;0; -1.4224823E-01;  1.0004776E+04;  0.0000000E+00;  8.7591419E-09;  1.0000000E+04;  0.0000000E+00;  9.9998066E+03; -1.5054481E-01;  0.0000000E+00;  8.2965735E-03;  1.0329329E+02;
  3.3997539E-01;  9.9999998E-03; -6.0000200E-02;1568; -1.9555809E-02;  0.0000000E+00; -2.5639619E-04;  1.0002276E+03;  4.0000001E-01;  1.8853780E+02;3; -1.1160018E+01;  0.0000000E+00; -3.1188479E-01;0; -1.4140475E-01;  1.0004699E+04;  0.0000000E+00;  7.6808879E-09;  1.0000000E+04;  0.0000000E+00;  9.9998516E+03; -1.4794533E-01;  0.0000000E+00;  6.5405811E-03;  8.1917465E+01;
  3.3997560E-01;  9.9999998E-03; -4.0000111E-02;1569; -1.9355796E-02;  0.0000000E+00; -1.5331614E-04;  1.0002264E+03;  4.0000001E-01;  1.8764893E+02;3; -1.1052287E+01;  0.0000000E+00; -2.0015098E-01;0; -1.4078517E-01;  1.0004644E+04;  0.0000000E+00;  3.8522376E-09;  1.0000000E+04;  0.0000000E+00;  9.9998838E+03; -1.4604130E-01;  0.0000000E+00;  5.2561364E-03;  6.6963036E+01;
  3.3997574E-01;  9.9999998E-03; -2.0000050E-02;1570; -1.9233622E-02;  0.0000000E+00; -7.1002010E-05;  1.0002259E+03;  4.0000001E-01;  1.8715512E+02;3; -1.0986040E+01;  0.0000000E+00; -9.8237410E-02;0; -1.4040706E-01;  1.0004611E+04;  0.0000000E+00;  1.8987585E-09;  1.0000000E+04;  0.0000000E+00;  9.9999063E+03; -1.4488137E-01;  0.0000000E+00;  4.4743102E-03;  5.8133198E+01;
  3.5996732E-01;  9.9999998E-03; -1.8000245E-01;1593; -2.5507053E-02;  0.0000000E+00; -2.2213561E-03;  1.0002772E+03;  4.0000001E-01;  2.2972176E+02;3; -1.3918612E+01;  0.0000000E+00; -1.5464588E+00;0; -1.6804181E-01;  1.0006357E+04;  0.0000000E+00; -1.2969990E-08;  1.0000000E+04;  0.0000000E+00;  9.9991895E+03; -1.9490345E-01;  0.0000000E+00;  2.6861640E-02;  3.8848996E+02;
  3.5996792E-01;  9.9999998E-03; -1.6000180E-01;1594; -2.5012072E-02;  0.0000000E+00; -1.7179005E-03;  1.0002768E+03;  4.0000001E-01;  2.2932671E+02;3; -1.3695656E+01;  0.0000000E+00; -1.3132631E+00;0; -1.6719218E-01;  1.0006193E+04;  0.0000000E+00;  4.0546279E-08;  1.0000000E+04;  0.0000000E+00;  9.9993467E+03; -1.9007269E-01;  0.0000000E+00;  2.2880506E-02;  3.1535281E+02;
  3.5996854E-01;  9.9999998E-03; -1.4000128E-01;1595; -2.4487125E-02;  0.0000000E+00; -1.2974903E-03;  1.0002754E+03;  4.0000001E-01;  2.2814156E+02;3; -1.3457808E+01;  0.0000000E+00; -1.0892711E+00;0; -1.6601214E-01;  1.0006023E+04;  0.0000000E+00;  1.6410754E-08;  1.0000000E+04;  0.0000000E+00;  9.9994834E+03; -1.8509714E-01;  0.0000000E+00;  1.9085001E-02;  2.5189975E+02;
  3.5996917E-01;  9.9999998E-03; -1.2000088E-01;1596; -2.3975611E-02;  0.0000000E+00; -9.4630459E-04;  1.0002732E+03;  4.0000001E-01;  2.2636383E+02;3; -1.3220964E+01;  0.0000000E+00; -8.8297969E-01;0; -1.6464885E-01;  1.0005867E+04;  0.0000000E+00; -4.7830440E-10;  1.0000000E+04;  0.0000000E+00;  9.9995986E+03; -1.8027593E-01;  0.0000000E+00;  1.5627084E-02;  1.9965427E+02;
  3.5996974E-01;  9.9999998E-03; -1.0000059E-01;1597; -2.3504131E-02;  0.0000000E+00; -6.6931976E-04;  1.0002708E+03;  4.0000001E-01;  2.2428981E+02;3; -1.2998365E+01;  0.0000000E+00; -6.8857294E-01;0; -1.6330646E-01;  1.0005727E+04;  0.0000000E+00;  3.8405576E-09;  1.0000000E+04;  0.0000000E+00;  9.9996914E+03; -1.7585784E-01;  0.0000000E+00;  1.2551381E-02;  1.5735608E+02;
  3.5997021E-01;  9.9999998E-03; -8.0000378E-02;1598; -2.3095015E-02;  0.0000000E+00; -4.5673209E-04;  1.0002687E+03;  4.0000001E-01;  2.2261086E+02;3; -1.2801108E+01;  0.0000000E+00; -5.2241814E-01;0; -1.6210757E-01;  1.0005609E+04;  0.0000000E+00;  7.5238429E-09;  1.0000000E+04;  0.0000000E+00;  9.9997646E+03; -1.7203556E-01;  0.0000000E+00;  9.9279881E-03;  1.2409402E+02;
  3.5997060E-01;  9.9999998E-03; -6.0000230E-02;1599; -2.2764232E-02;  0.0000000E+00; -2.9427055E-04;  1.0002667E+03;  4.0000001E-01;  2.2093188E+02;3; -1.2638821E+01;  0.0000000E+00; -3.6883420E-01;0; -1.6112161E-01;  1.0005516E+04;  0.0000000E+00;  6.5021948E-09;  1.0000000E+04;  0.0000000E+00;  9.9998193E+03; -1.6894718E-01;  0.0000000E+00;  7.8255674E-03;  9.9174194E+01;
  3.5997087E-01;  9.9999998E-03; -4.0000126E-02;1600; -2.2521824E-02;  0.0000000E+00; -1.7427545E-04;  1.0002654E+03;  4.0000001E-01;  2.1994426E+02;3; -1.2517993E+01;  0.0000000E+00; -2.3487310E-01;0; -1.6039047E-01;  1.0005450E+04;  0.0000000E+00;  2.5586844E-09;  1.0000000E+04;  0.0000000E+00;  9.9998594E+03; -1.6668548E-01;  0.0000000E+00;  6.2950091E-03;  8.1960426E+01;
  3.5997105E-01;  9.9999998E-03; -2.0000057E-02;1601; -2.2374047E-02;  0.0000000E+00; -8.0463717E-05;  1.0002646E+03;  4.0000001E-01;  2.1925293E+02;3; -1.2443752E+01;  0.0000000E+00; -1.1529277E-01;0; -1.5994075E-01;  1.0005410E+04;  0.0000000E+00;  1.8233393E-09;  1.0000000E+04;  0.0000000E+00;  9.9998818E+03; -1.6530778E-01;  0.0000000E+00;  5.3670225E-03;  7.1893906E+01;
  3.7996075E-01;  9.9999998E-03; -1.8000291E-01;1624; -2.9778888E-02;  0.0000000E+00; -2.6293832E-03;  1.0003265E+03;  4.0000001E-01;  2.7051065E+02;3; -1.5685163E+01;  0.0000000E+00; -1.8352534E+00;0; -1.9136283E-01;  1.0007490E+04;  0.0000000E+00;  1.4983385E-08;  1.0000000E+04;  0.0000000E+00;  9.9990391E+03; -2.2281386E-01;  0.0000000E+00;  3.1451035E-02;  4.6180920E+02;
  3.7996155E-01;  9.9999998E-03; -1.6000213E-01;1625; -2.9164137E-02;  0.0000000E+00; -2.0250797E-03;  1.0003254E+03;  4.0000001E-01;  2.6962180E+02;3; -1.5439846E+01;  0.0000000E+00; -1.5576441E+00;0; -1.9025359E-01;  1.0007282E+04;  0.0000000E+00;  5.5166726E-08;  1.0000000E+04;  0.0000000E+00;  9.9992275E+03; -2.1715696E-01;  0.0000000E+00;  2.6903372E-02;  3.7388675E+02;
  3.7996238E-01;  9.9999998E-03; -1.4000151E-01;1626; -2.8518438E-02;  0.0000000E+00; -1.5199312E-03;  1.0003233E+03;  4.0000001E-01;  2.6784409E+02;3; -1.5179031E+01;  0.0000000E+00; -1.2889102E+00;0; -1.8879689E-01;  1.0007076E+04;  0.0000000E+00; -1.0946057E-08;  1.0000000E+04;  0.0000000E+00;  9.9993896E+03; -2.1130238E-01;  0.0000000E+00;  2.2505490E-02;  2.9828058E+02;
  3.7996316E-01;  9.9999998E-03; -1.2000104E-01;1627; -2.7893072E-02;  0.0000000E+00; -1.1006298E-03;  1.0003201E+03;  4.0000001E-01;  2.6517749E+02;3; -1.4916730E+01;  0.0000000E+00; -1.0360297E+00;0; -1.8714839E-01;  1.0006882E+04;  0.0000000E+00; -3.5904826E-08;  1.0000000E+04;  0.0000000E+00;  9.9995244E+03; -2.0561561E-01;  0.0000000E+00;  1.8467214E-02;  2.3682584E+02;
  3.7996387E-01;  9.9999998E-03; -1.0000069E-01;1628; -2.7319765E-02;  0.0000000E+00; -7.7262981E-04;  1.0003170E+03;  4.0000001E-01;  2.6260965E+02;3; -1.4670816E+01;  0.0000000E+00; -8.0010641E-01;0; -1.8552727E-01;  1.0006709E+04;  0.0000000E+00; -2.5151895E-08;  1.0000000E+04;  0.0000000E+00;  9.9996309E+03; -2.0040032E-01;  0.0000000E+00;  1.4873056E-02;  1.8784341E+02;
  3.7996450E-01;  9.9999998E-03; -8.0000445E-02;1629; -2.6824499E-02;  0.0000000E+00; -5.2520703E-04;  1.0003140E+03;  4.0000001E-01;  2.6014059E+02;3; -1.4452620E+01;  0.0000000E+00; -6.0424292E-01;0; -1.8406905E-01;  1.0006566E+04;  0.0000000E+00; -5.7547025E-09;  1.0000000E+04;  0.0000000E+00;  9.9997158E+03; -1.9588794E-01;  0.0000000E+00;  1.1818885E-02;  1.4996675E+02;
  3.7996498E-01;  9.9999998E-03; -6.0000274E-02;1630; -2.6424408E-02;  0.0000000E+00; -3.3628003E-04;  1.0003116E+03;  4.0000001E-01;  2.5816534E+02;3; -1.4271938E+01;  0.0000000E+00; -4.2322940E-01;0; -1.8285896E-01;  1.0006457E+04;  0.0000000E+00; -1.5406179E-09;  1.0000000E+04;  0.0000000E+00;  9.9997754E+03; -1.9224361E-01;  0.0000000E+00;  9.3846451E-03;  1.2205613E+02;
  3.7996534E-01;  9.9999998E-03; -4.0000156E-02;1631; -2.6131522E-02;  0.0000000E+00; -1.9793586E-04;  1.0003098E+03;  4.0000001E-01;  2.5658514E+02;3; -1.4136687E+01;  0.0000000E+00; -2.6732671E-01;0; -1.8195368E-01;  1.0006374E+04;  0.0000000E+00;  2.5411611E-09;  1.0000000E+04;  0.0000000E+00;  9.9998203E+03; -1.8957578E-01;  0.0000000E+00;  7.6220883E-03;  1.0305997E+02;
  3.7996554E-01;  9.9999998E-03; -2.0000070E-02;1632; -2.5953174E-02;  0.0000000E+00; -9.1280621E-05;  1.0003085E+03;  4.0000001E-01;  2.5559752E+02;3; -1.4053569E+01;  0.0000000E+00; -1.3099001E-01;0; -1.8139336E-01;  1.0006326E+04;  0.0000000E+00;  3.0374525E-09;  1.0000000E+04;  0.0000000E+00;  9.9998428E+03; -1.8795137E-01;  0.0000000E+00;  6.5580145E-03;  9.2076637E+01;
  3.9995301E-01;  9.9999998E-03; -1.8000342E-01;1655; -3.4653746E-02;  0.0000000E+00; -3.0745827E-03;  1.0003839E+03;  4.0000001E-01;  3.1801538E+02;3; -1.7604126E+01;  0.0000000E+00; -2.1437976E+00;0; -2.1753693E-01;  1.0008801E+04;  0.0000000E+00;  3.9242359E-08;  1.0000000E+04;  0.0000000E+00;  9.9988760E+03; -2.5385997E-01;  0.0000000E+00;  3.6323033E-02;  5.4134564E+02;
  3.9995405E-01;  9.9999998E-03; -1.6000250E-01;1656; -3.3899881E-02;  0.0000000E+00; -2.3626464E-03;  1.0003818E+03;  4.0000001E-01;  3.1633643E+02;3; -1.7343554E+01;  0.0000000E+00; -1.8141291E+00;0; -2.1603227E-01;  1.0008538E+04;  0.0000000E+00;  4.7048470E-08;  1.0000000E+04;  0.0000000E+00;  9.9990977E+03; -2.4719778E-01;  0.0000000E+00;  3.1165509E-02;  4.3741583E+02;
  3.9995512E-01;  9.9999998E-03; -1.4000179E-01;1657; -3.3112776E-02;  0.0000000E+00; -1.7681682E-03;  1.0003784E+03;  4.0000001E-01;  3.1347232E+02;3; -1.7063688E+01;  0.0000000E+00; -1.4962485E+00;0; -2.1414520E-01;  1.0008284E+04;  0.0000000E+00; -8.1441904E-08;  1.0000000E+04;  0.0000000E+00;  9.9992852E+03; -2.4031283E-01;  0.0000000E+00;  2.6167633E-02;  3.4965048E+02;
  3.9995614E-01;  9.9999998E-03; -1.2000124E-01;1658; -3.2353349E-02;  0.0000000E+00; -1.2772708E-03;  1.0003741E+03;  4.0000001E-01;  3.0991687E+02;3; -1.6778509E+01;  0.0000000E+00; -1.1895682E+00;0; -2.1204859E-01;  1.0008045E+04;  0.0000000E+00; -1.2297204E-07;  1.0000000E+04;  0.0000000E+00;  9.9994385E+03; -2.3363492E-01;  0.0000000E+00;  2.1586334E-02;  2.7978983E+02;
  3.9995706E-01;  9.9999998E-03; -1.0000085E-01;1659; -3.1659607E-02;  0.0000000E+00; -8.9506526E-04;  1.0003696E+03;  4.0000001E-01;  3.0626263E+02;3; -1.6509155E+01;  0.0000000E+00; -9.0932459E-01;0; -2.0999020E-01;  1.0007836E+04;  0.0000000E+00; -8.6179980E-08;  1.0000000E+04;  0.0000000E+00;  9.9995557E+03; -2.2751912E-01;  0.0000000E+00;  1.7528916E-02;  2.2525998E+02;
  3.9995781E-01;  9.9999998E-03; -8.0000564E-02;1660; -3.1061983E-02;  0.0000000E+00; -6.0863927E-04;  1.0003657E+03;  4.0000001E-01;  3.0300348E+02;3; -1.6267422E+01;  0.0000000E+00; -6.7817551E-01;0; -2.0813085E-01;  1.0007667E+04;  0.0000000E+00; -4.3592209E-08;  1.0000000E+04;  0.0000000E+00;  9.9996475E+03; -2.2223492E-01;  0.0000000E+00;  1.4104067E-02;  1.8394104E+02;
  3.9995840E-01;  9.9999998E-03; -6.0000356E-02;1661; -3.0580183E-02;  0.0000000E+00; -3.9080100E-04;  1.0003623E+03;  4.0000001E-01;  3.0013937E+02;3; -1.6067390E+01;  0.0000000E+00; -4.7208688E-01;0; -2.0657836E-01;  1.0007531E+04;  0.0000000E+00; -1.7773996E-08;  1.0000000E+04;  0.0000000E+00;  9.9997158E+03; -2.1797219E-01;  0.0000000E+00;  1.1393834E-02;  1.5408026E+02;
  3.9995885E-01;  9.9999998E-03; -4.0000211E-02;1662; -3.0227505E-02;  0.0000000E+00; -2.3044072E-04;  1.0003598E+03;  4.0000001E-01;  2.9806534E+02;3; -1.5915946E+01;  0.0000000E+00; -2.9574129E-01;0; -2.0541063E-01;  1.0007439E+04;  0.0000000E+00; -4.5464890E-09;  1.0000000E+04;  0.0000000E+00;  9.9997617E+03; -2.1485478E-01;  0.0000000E+00;  9.4441455E-03;  1.3411032E+02;
  3.9995909E-01;  9.9999998E-03; -2.0000096E-02;1663; -3.0012837E-02;  0.0000000E+00; -1.0662685E-04;  1.0003585E+03;  4.0000001E-01;  2.9697897E+02;3; -1.5822448E+01;  0.0000000E+00; -1.4436939E-01;0; -2.0468470E-01;  1.0007382E+04;  0.0000000E+00; -4.4825654E-10;  1.0000000E+04;  0.0000000E+00;  9.9997871E+03; -2.1295770E-01;  0.0000000E+00;  8.2729887E-03;  1.2272157E+02;
  4.1994393E-01;  9.9999998E-03; -1.8000403E-01;1686; -4.0193655E-02;  0.0000000E+00; -3.5716284E-03;  1.0004502E+03;  4.0000001E-01;  3.7302600E+02;3; -1.9681383E+01;  0.0000000E+00; -2.4712462E+00;0; -2.4674843E-01;  1.0010301E+04;  0.0000000E+00;  6.3022874E-08;  1.0000000E+04;  0.0000000E+00;  9.9987012E+03; -2.8814626E-01;  0.0000000E+00;  4.1397821E-02;  6.2665308E+02;
  4.1994530E-01;  9.9999998E-03; -1.6000299E-01;1687; -3.9276231E-02;  0.0000000E+00; -2.7490524E-03;  1.0004465E+03;  4.0000001E-01;  3.6986560E+02;3; -1.9414370E+01;  0.0000000E+00; -2.0804157E+00;0; -2.4466139E-01;  1.0009972E+04;  0.0000000E+00; -1.7272795E-08;  1.0000000E+04;  0.0000000E+00;  9.9989580E+03; -2.8027833E-01;  0.0000000E+00;  3.5616927E-02;  5.0654108E+02;
  4.1994667E-01;  9.9999998E-03; -1.4000218E-01;1688; -3.8322911E-02;  0.0000000E+00; -2.0638613E-03;  1.0004413E+03;  4.0000001E-01;  3.6561884E+02;3; -1.9119764E+01;  0.0000000E+00; -1.7074174E+00;0; -2.4212812E-01;  1.0009659E+04;  0.0000000E+00; -2.3354693E-07;  1.0000000E+04;  0.0000000E+00;  9.9991680E+03; -2.7220970E-01;  0.0000000E+00;  3.0081579E-02;  4.0790424E+02;
  4.1994795E-01;  9.9999998E-03; -1.2000155E-01;1689; -3.7405849E-02;  0.0000000E+00; -1.4996845E-03;  1.0004353E+03;  4.0000001E-01;  3.6068069E+02;3; -1.8814842E+01;  0.0000000E+00; -1.3415946E+00;0; -2.3935437E-01;  1.0009373E+04;  0.0000000E+00; -2.6240460E-07;  1.0000000E+04;  0.0000000E+00;  9.9993340E+03; -2.6442447E-01;  0.0000000E+00;  2.5070101E-02;  3.3168030E+02;
  4.1994908E-01;  9.9999998E-03; -1.0000110E-01;1690; -3.6570363E-02;  0.0000000E+00; -1.0599893E-03;  1.0004292E+03;  4.0000001E-01;  3.5554504E+02;3; -1.8521666E+01;  0.0000000E+00; -1.0145831E+00;0; -2.3663999E-01;  1.0009126E+04;  0.0000000E+00; -1.8583411E-07;  1.0000000E+04;  0.0000000E+00;  9.9994619E+03; -2.5732091E-01;  0.0000000E+00;  2.0680914E-02;  2.7373920E+02;
  4.1995004E-01;  9.9999998E-03; -8.0000766E-02;1691; -3.5852253E-02;  0.0000000E+00; -7.2893046E-04;  1.0004238E+03;  4.0000001E-01;  3.5110074E+02;3; -1.8254215E+01;  0.0000000E+00; -7.4741048E-01;0; -2.3418705E-01;  1.0008923E+04;  0.0000000E+00; -9.6953222E-08;  1.0000000E+04;  0.0000000E+00;  9.9995537E+03; -2.5119990E-01;  0.0000000E+00;  1.7012848E-02;  2.3086813E+02;
  4.1995078E-01;  9.9999998E-03; -6.0000509E-02;1692; -3.5274118E-02;  0.0000000E+00; -4.7480006E-04;  1.0004194E+03;  4.0000001E-01;  3.4744653E+02;3; -1.8031425E+01;  0.0000000E+00; -5.1656747E-01;0; -2.3213524E-01;  1.0008767E+04;  0.0000000E+00; -4.4842263E-08;  1.0000000E+04;  0.0000000E+00;  9.9996230E+03; -2.4627158E-01;  0.0000000E+00;  1.4136345E-02;  2.0056857E+02;
  4.1995129E-01;  9.9999998E-03; -4.0000312E-02;1693; -3.4851056E-02;  0.0000000E+00; -2.8360554E-04;  1.0004161E+03;  4.0000001E-01;  3.4477994E+02;3; -1.7860764E+01;  0.0000000E+00; -3.2006007E-01;0; -2.3058949E-01;  1.0008655E+04;  0.0000000E+00; -1.7273424E-08;  1.0000000E+04;  0.0000000E+00;  9.9996660E+03; -2.4267264E-01;  0.0000000E+00;  1.2083145E-02;  1.8071758E+02;
  4.1995162E-01;  9.9999998E-03; -2.0000149E-02;1694; -3.4593608E-02;  0.0000000E+00; -1.3280942E-04;  1.0004141E+03;  4.0000001E-01;  3.4300220E+02;3; -1.7754831E+01;  0.0000000E+00; -1.5632281E-01;0; -2.2962734E-01;  1.0008593E+04;  0.0000000E+00; -4.3182058E-09;  1.0000000E+04;  0.0000000E+00;  9.9996934E+03; -2.4048455E-01;  0.0000000E+00;  1.0857202E-02;  1.6958391E+02;
  4.3993333E-01;  9.9999998E-03; -1.8000482E-01;1717; -4.6465870E-02;  0.0000000E+00; -4.1505354E-03;  1.0005256E+03;  4.0000001E-01;  4.3544376E+02;3; -2.1922213E+01;  0.0000000E+00; -2.8153679E+00;0; -2.7903247E-01;  1.0012003E+04;  0.0000000E+00;  1.4712054E-08;  1.0000000E+04;  0.0000000E+00;  9.9985186E+03; -3.2559597E-01;  0.0000000E+00;  4.6563510E-02;  7.1807629E+02;
  4.3993512E-01;  9.9999998E-03; -1.6000366E-01;1718; -4.5354079E-02;  0.0000000E+00; -3.2214667E-03;  1.0005198E+03;  4.0000001E-01;  4.3070316E+02;3; -2.1659264E+01;  0.0000000E+00; -2.3554304E+00;0; -2.7610356E-01;  1.0011601E+04;  0.0000000E+00; -1.8489159E-07;  1.0000000E+04;  0.0000000E+00;  9.9988018E+03; -3.1632340E-01;  0.0000000E+00;  4.0219847E-02;  5.8343604E+02;
  4.3993688E-01;  9.9999998E-03; -1.4000276E-01;1719; -4.4204291E-02;  0.0000000E+00; -2.4481018E-03;  1.0005121E+03;  4.0000001E-01;  4.2428360E+02;3; -2.1353590E+01;  0.0000000E+00; -1.9243301E+00;0; -2.7263063E-01;  1.0011217E+04;  0.0000000E+00; -4.5343867E-07;  1.0000000E+04;  0.0000000E+00;  9.9990283E+03; -3.0694193E-01;  0.0000000E+00;  3.4311287E-02;  4.7706284E+02;
  4.3993849E-01;  9.9999998E-03; -1.2000206E-01;1720; -4.3102782E-02;  0.0000000E+00; -1.8096425E-03;  1.0005038E+03;  4.0000001E-01;  4.1737021E+02;3; -2.1032259E+01;  0.0000000E+00; -1.4925804E+00;0; -2.6887777E-01;  1.0010879E+04;  0.0000000E+00; -4.3564637E-07;  1.0000000E+04;  0.0000000E+00;  9.9992002E+03; -2.9796889E-01;  0.0000000E+00;  2.9091125E-02;  3.9803232E+02;
  4.3993989E-01;  9.9999998E-03; -1.0000153E-01;1721; -4.2101867E-02;  0.0000000E+00; -1.3080139E-03;  1.0004955E+03;  4.0000001E-01;  4.1055560E+02;3; -2.0714544E+01;  0.0000000E+00; -1.1217248E+00;0; -2.6522681E-01;  1.0010587E+04;  0.0000000E+00; -2.8574547E-07;  1.0000000E+04;  0.0000000E+00;  9.9993271E+03; -2.8982773E-01;  0.0000000E+00;  2.4600919E-02;  3.3985416E+02;
  4.3994102E-01;  9.9999998E-03; -8.0001116E-02;1722; -4.1243125E-02;  0.0000000E+00; -9.2054374E-04;  1.0004886E+03;  4.0000001E-01;  4.0482739E+02;3; -2.0418068E+01;  0.0000000E+00; -8.1335503E-01;0; -2.6193997E-01;  1.0010352E+04;  0.0000000E+00; -1.5078768E-07;  1.0000000E+04;  0.0000000E+00;  9.9994219E+03; -2.8283900E-01;  0.0000000E+00;  2.0899024E-02;  2.9792773E+02;
  4.3994194E-01;  9.9999998E-03; -6.0000781E-02;1723; -4.0552333E-02;  0.0000000E+00; -6.1590486E-04;  1.0004828E+03;  4.0000001E-01;  3.9998804E+02;3; -2.0166727E+01;  0.0000000E+00; -5.5806005E-01;0; -2.5919828E-01;  1.0010173E+04;  0.0000000E+00; -7.1011044E-08;  1.0000000E+04;  0.0000000E+00;  9.9994883E+03; -2.7722654E-01;  0.0000000E+00;  1.8028261E-02;  2.6899695E+02;
  4.3994257E-01;  9.9999998E-03; -4.0000498E-02;1724; -4.0047295E-02;  0.0000000E+00; -3.7647461E-04;  1.0004787E+03;  4.0000001E-01;  3.9663010E+02;3; -1.9973051E+01;  0.0000000E+00; -3.4225145E-01;0; -2.5713620E-01;  1.0010048E+04;  0.0000000E+00; -2.9045500E-08;  1.0000000E+04;  0.0000000E+00;  9.9995283E+03; -2.7313459E-01;  0.0000000E+00;  1.5998393E-02;  2.5046951E+02;
  4.3994296E-01;  9.9999998E-03; -2.0000244E-02;1725; -3.9739847E-02;  0.0000000E+00; -1.7966991E-04;  1.0004760E+03;  4.0000001E-01;  3.9435855E+02;3; -1.9851498E+01;  0.0000000E+00; -1.6709094E-01;0; -2.5585434E-01;  1.0009972E+04;  0.0000000E+00; -5.9306493E-09;  1.0000000E+04;  0.0000000E+00;  9.9995518E+03; -2.7064955E-01;  0.0000000E+00;  1.4795227E-02;  2.4027873E+02;
  4.5992097E-01;  9.9999998E-03; -1.8000594E-01;1748; -5.3544354E-02;  0.0000000E+00; -4.8680399E-03;  1.0006116E+03;  4.0000051E-01;  5.0665118E+02;3; -2.4332035E+01;  0.0000000E+00; -3.1725521E+00;0; -3.1401390E-01;  1.0013896E+04;  0.0000000E+00; -2.6788285E-08;  1.0000000E+04;  0.0000000E+00;  9.9983135E+03; -3.6573914E-01;  0.0000000E+00;  5.1725253E-02;  8.1834314E+02;
  4.5992327E-01;  9.9999998E-03; -1.6000468E-01;1749; -5.2201409E-02;  0.0000000E+00; -3.8471010E-03;  1.0006024E+03;  4.0000048E-01;  4.9904648E+02;3; -2.4083403E+01;  0.0000000E+00; -2.6417537E+00;0; -3.0990019E-01;  1.0013405E+04;  0.0000000E+00; -3.9076878E-07;  1.0000000E+04;  0.0000000E+00;  9.9986211E+03; -3.5490164E-01;  0.0000000E+00;  4.5001451E-02;  6.7327594E+02;
  4.5992547E-01;  9.9999998E-03; -1.4000367E-01;1750; -5.0821871E-02;  0.0000000E+00; -2.9890921E-03;  1.0005914E+03;  4.0000060E-01;  4.8996036E+02;3; -2.3772783E+01;  0.0000000E+00; -2.1407378E+00;0; -3.0511385E-01;  1.0012953E+04;  0.0000000E+00; -6.7547876E-07;  1.0000000E+04;  0.0000000E+00;  9.9988535E+03; -3.4413868E-01;  0.0000000E+00;  3.9024834E-02;  5.6445422E+02;
  4.5992747E-01;  9.9999998E-03; -1.2000288E-01;1751; -4.9505211E-02;  0.0000000E+00; -2.2744881E-03;  1.0005798E+03;  4.0000054E-01;  4.8038040E+02;3; -2.3434996E+01;  0.0000000E+00; -1.6493527E+00;0; -3.0001235E-01;  1.0012559E+04;  0.0000000E+00; -5.6979081E-07;  1.0000000E+04;  0.0000000E+00;  9.9990195E+03; -3.3396453E-01;  0.0000000E+00;  3.3952165E-02;  4.8766434E+02;
  4.5992920E-01;  9.9999998E-03; -1.0000224E-01;1752; -4.8313290E-02;  0.0000000E+00; -1.6988793E-03;  1.0005692E+03;  4.0000048E-01;  4.7159055E+02;3; -2.3089361E+01;  0.0000000E+00; -1.2326607E+00;0; -2.9509628E-01;  1.0012225E+04;  0.0000000E+00; -3.4722237E-07;  1.0000000E+04;  0.0000000E+00;  9.9991396E+03; -3.2480034E-01;  0.0000000E+00;  2.9704062E-02;  4.3320029E+02;
  4.5993060E-01;  9.9999998E-03; -8.0001704E-02;1753; -4.7292724E-02;  0.0000000E+00; -1.2354571E-03;  1.0005601E+03;  4.0000048E-01;  4.6398584E+02;3; -2.2760756E+01;  0.0000000E+00; -8.8230348E-01;0; -2.9070559E-01;  1.0011954E+04;  0.0000000E+00; -1.6875261E-07;  1.0000000E+04;  0.0000000E+00;  9.9992256E+03; -3.1696910E-01;  0.0000000E+00;  2.6263492E-02;  3.9493948E+02;
  4.5993167E-01;  9.9999998E-03; -6.0001239E-02;1754; -4.6472497E-02;  0.0000000E+00; -8.5658859E-04;  1.0005529E+03;  4.0000045E-01;  4.5806009E+02;3; -2.2474455E+01;  0.0000000E+00; -6.0539234E-01;0; -2.8706464E-01;  1.0011753E+04;  0.0000000E+00; -7.1767715E-08;  1.0000000E+04;  0.0000000E+00;  9.9992813E+03; -3.1069672E-01;  0.0000000E+00;  2.3632074E-02;  3.6908438E+02;
  4.5993242E-01;  9.9999998E-03; -4.0000811E-02;1755; -4.5873195E-02;  0.0000000E+00; -5.3784758E-04;  1.0005475E+03;  4.0000045E-01;  4.5361578E+02;3; -2.2252151E+01;  0.0000000E+00; -3.6799642E-01;0; -2.8433761E-01;  1.0011612E+04;  0.0000000E+00; -2.9728122E-08;  1.0000000E+04;  0.0000000E+00;  9.9993203E+03; -3.0613101E-01;  0.0000000E+00;  2.1793403E-02;  3.5286295E+02;
  4.5993289E-01;  9.9999998E-03; -2.0000402E-02;1756; -4.5508120E-02;  0.0000000E+00; -2.6037608E-04;  1.0005445E+03;  4.0000048E-01;  4.5114673E+02;3; -2.2110756E+01;  0.0000000E+00; -1.7445530E-01;0; -2.8264683E-01;  1.0011528E+04;  0.0000000E+00; -5.7096461E-09;  1.0000000E+04;  0.0000000E+00;  9.9993389E+03; -3.0336070E-01;  0.0000000E+00;  2.0713877E-02;  3.4410989E+02;
  4.7990662E-01;  9.9999998E-03; -1.8000761E-01;1779; -6.1506297E-02;  0.0000000E+00; -5.8211782E-03;  1.0007045E+03;  4.0000159E-01;  5.8368542E+02;3; -2.6915581E+01;  0.0000000E+00; -3.5414860E+00;0; -3.5046470E-01;  1.0015942E+04;  0.0000000E+00;  3.9931899E-07;  1.0000000E+04;  0.0000000E+00;  9.9980801E+03; -4.0735921E-01;  0.0000000E+00;  5.6894522E-02;  9.3491278E+02;
  4.7990951E-01;  9.9999998E-03; -1.6000625E-01;1780; -5.9892498E-02;  0.0000000E+00; -4.7319233E-03;  1.0006912E+03;  4.0000156E-01;  5.7262402E+02;3; -2.6690304E+01;  0.0000000E+00; -2.9441926E+00;0; -3.4475487E-01;  1.0015359E+04;  0.0000000E+00; -2.6761433E-07;  1.0000000E+04;  0.0000000E+00;  9.9983984E+03; -3.9488328E-01;  0.0000000E+00;  5.0128385E-02;  7.8592584E+02;
  4.7991225E-01;  9.9999998E-03; -1.4000514E-01;1781; -5.8248136E-02;  0.0000000E+00; -3.7921395E-03;  1.0006761E+03;  4.0000153E-01;  5.6017999E+02;3; -2.6379030E+01;  0.0000000E+00; -2.3707633E+00;0; -3.3822241E-01;  1.0014835E+04;  0.0000000E+00; -6.1896651E-07;  1.0000000E+04;  0.0000000E+00;  9.9986182E+03; -3.8277173E-01;  0.0000000E+00;  4.4549324E-02;  6.8179028E+02;
  4.7991470E-01;  9.9999998E-03; -1.2000419E-01;1782; -5.6685612E-02;  0.0000000E+00; -2.9922810E-03;  1.0006609E+03;  4.0000147E-01;  5.4753839E+02;3; -2.6024715E+01;  0.0000000E+00; -1.8316425E+00;0; -3.3136392E-01;  1.0014385E+04;  0.0000000E+00; -5.1828061E-07;  1.0000000E+04;  0.0000000E+00;  9.9987676E+03; -3.7148449E-01;  0.0000000E+00;  4.0120587E-02;  6.1325061E+02;
  4.7991678E-01;  9.9999998E-03; -1.0000338E-01;1783; -5.5276915E-02;  0.0000000E+00; -2.3181548E-03;  1.0006472E+03;  4.0000156E-01;  5.3618073E+02;3; -2.5646315E+01;  0.0000000E+00; -1.3649330E+00;0; -3.2483715E-01;  1.0014011E+04;  0.0000000E+00; -2.9513254E-07;  1.0000000E+04;  0.0000000E+00;  9.9988672E+03; -3.6140275E-01;  0.0000000E+00;  3.6565617E-02;  5.6657080E+02;
  4.7991845E-01;  9.9999998E-03; -8.0002651E-02;1784; -5.4073803E-02;  0.0000000E+00; -1.7472686E-03;  1.0006359E+03;  4.0000147E-01;  5.2679834E+02;3; -2.5279819E+01;  0.0000000E+00; -9.7923148E-01;0; -3.1907037E-01;  1.0013713E+04;  0.0000000E+00; -1.3277889E-07;  1.0000000E+04;  0.0000000E+00;  9.9989346E+03; -3.5282770E-01;  0.0000000E+00;  3.3757340E-02;  5.3423822E+02;
  4.7991973E-01;  9.9999998E-03; -6.0001969E-02;1785; -5.3107880E-02;  0.0000000E+00; -1.2510137E-03;  1.0006271E+03;  4.0000156E-01;  5.1958868E+02;3; -2.4953835E+01;  0.0000000E+00; -6.6283077E-01;0; -3.1432807E-01;  1.0013489E+04;  0.0000000E+00; -5.5931366E-08;  1.0000000E+04;  0.0000000E+00;  9.9989844E+03; -3.4597674E-01;  0.0000000E+00;  3.1648651E-02;  5.1244073E+02;
  4.7992063E-01;  9.9999998E-03; -4.0001310E-02;1786; -5.2401796E-02;  0.0000000E+00; -8.0763188E-04;  1.0006207E+03;  4.0000153E-01;  5.1425549E+02;3; -2.4695105E+01;  0.0000000E+00; -4.0434611E-01;0; -3.1079602E-01;  1.0013332E+04;  0.0000000E+00; -1.8740977E-08;  1.0000000E+04;  0.0000000E+00;  9.9990156E+03; -3.4099564E-01;  0.0000000E+00;  3.0199606E-02;  4.9879056E+02;
  4.7992116E-01;  9.9999998E-03; -2.0000657E-02;1787; -5.1971730E-02;  0.0000000E+00; -3.9627840E-04;  1.0006170E+03;  4.0000147E-01;  5.1119388E+02;3; -2.4529287E+01;  0.0000000E+00; -1.8838046E-01;0; -3.0861354E-01;  1.0013240E+04;  0.0000000E+00; -5.2050586E-09;  1.0000000E+04;  0.0000000E+00;  9.9990332E+03; -3.3797446E-01;  0.0000000E+00;  2.9360915E-02;  4.9146048E+02;
  4.9988994E-01;  9.9999998E-03; -1.8001017E-01;1810; -7.0420943E-02;  0.0000000E+00; -7.1578193E-03;  1.0007996E+03;  4.0000346E-01;  6.6249713E+02;3; -2.9673885E+01;  0.0000000E+00; -3.9215279E+00;0; -3.8576773E-01;  1.0018040E+04;  0.0000000E+00;  2.5153704E-06;  1.0000000E+04;  0.0000000E+00;  9.9977871E+03; -4.4807500E-01;  0.0000000E+00;  6.2307280E-02;  1.0829994E+03;
  4.9989355E-01;  9.9999998E-03; -1.6000870E-01;1811; -6.8499297E-02;  0.0000000E+00; -6.0236449E-03;  1.0007811E+03;  4.0000343E-01;  6.4709021E+02;3; -2.9480515E+01;  0.0000000E+00; -3.2699845E+00;0; -3.7804687E-01;  1.0017366E+04;  0.0000000E+00;  1.2614945E-06;  1.0000000E+04;  0.0000000E+00;  9.9980918E+03; -4.3403122E-01;  0.0000000E+00;  5.5984344E-02;  9.3757562E+02;
  4.9989691E-01;  9.9999998E-03; -1.4000741E-01;1812; -6.6557646E-02;  0.0000000E+00; -5.0008711E-03;  1.0007612E+03;  4.0000346E-01;  6.3069568E+02;3; -2.9172388E+01;  0.0000000E+00; -2.6511075E+00;0; -3.6933386E-01;  1.0016775E+04;  0.0000000E+00;  5.0218273E-07;  1.0000000E+04;  0.0000000E+00;  9.9982832E+03; -4.2074224E-01;  0.0000000E+00;  5.1408391E-02;  8.4574524E+02;
  4.9989989E-01;  9.9999998E-03; -1.2000622E-01;1813; -6.4720824E-02;  0.0000000E+00; -4.0863561E-03;  1.0007421E+03;  4.0000346E-01;  6.1479498E+02;3; -2.8799608E+01;  0.0000000E+00; -2.0586805E+00;0; -3.6032203E-01;  1.0016274E+04;  0.0000000E+00;  1.3926832E-07;  1.0000000E+04;  0.0000000E+00;  9.9983975E+03; -4.0855584E-01;  0.0000000E+00;  4.8233811E-02;  7.9120575E+02;
  4.9990237E-01;  9.9999998E-03; -1.0000512E-01;1814; -6.3071609E-02;  0.0000000E+00; -3.2719746E-03;  1.0007253E+03;  4.0000349E-01;  6.0096826E+02;3; -2.8383881E+01;  0.0000000E+00; -1.5447290E+00;0; -3.5186404E-01;  1.0015863E+04;  0.0000000E+00;  3.4778196E-08;  1.0000000E+04;  0.0000000E+00;  9.9984756E+03; -3.9776805E-01;  0.0000000E+00;  4.5904011E-02;  7.5543158E+02;
  4.9990433E-01;  9.9999998E-03; -8.0004074E-02;1815; -6.1667334E-02;  0.0000000E+00; -2.5404289E-03;  1.0007117E+03;  4.0000337E-01;  5.8961060E+02;3; -2.7971876E+01;  0.0000000E+00; -1.1224777E+00;0; -3.4448326E-01;  1.0015538E+04;  0.0000000E+00;  6.6459491E-09;  1.0000000E+04;  0.0000000E+00;  9.9985283E+03; -3.8863325E-01;  0.0000000E+00;  4.4149980E-02;  7.2990002E+02;
  4.9990585E-01;  9.9999998E-03; -6.0003065E-02;1816; -6.0541101E-02;  0.0000000E+00; -1.8651242E-03;  1.0007017E+03;  4.0000340E-01;  5.8131458E+02;3; -2.7595320E+01;  0.0000000E+00; -7.6368546E-01;0; -3.3847144E-01;  1.0015296E+04;  0.0000000E+00; -7.1818125E-09;  1.0000000E+04;  0.0000000E+00;  9.9985674E+03; -3.8134754E-01;  0.0000000E+00;  4.2876102E-02;  7.1164789E+02;
  4.9990690E-01;  9.9999998E-03; -4.0002052E-02;1817; -5.9718557E-02;  0.0000000E+00; -1.2274304E-03;  1.0006942E+03;  4.0000349E-01;  5.7509253E+02;3; -2.7294113E+01;  0.0000000E+00; -4.7095311E-01;0; -3.3402252E-01;  1.0015127E+04;  0.0000000E+00; -4.0740176E-09;  1.0000000E+04;  0.0000000E+00;  9.9985947E+03; -3.7605181E-01;  0.0000000E+00;  4.2029306E-02;  6.9953113E+02;
  4.9990749E-01;  9.9999998E-03; -2.0001030E-02;1818; -5.9217162E-02;  0.0000000E+00; -6.0937909E-04;  1.0006904E+03;  4.0000352E-01;  5.7193213E+02;3; -2.7099184E+01;  0.0000000E+00; -2.2320293E-01;0; -3.3128464E-01;  1.0015027E+04;  0.0000000E+00; -1.4815144E-09;  1.0000000E+04;  0.0000000E+00;  9.9986084E+03; -3.7283942E-01;  0.0000000E+00;  4.1554786E-02;  6.9273273E+02;
  5.1987082E-01;  9.9999998E-03; -1.8001407E-01;1841; -8.0326885E-02;  0.0000000E+00; -9.0778638E-03;  1.0008932E+03;  4.0000960E-01;  7.4002448E+02;3; -3.2595627E+01;  0.0000000E+00; -4.3073072E+00;0; -4.1546771E-01;  1.0020018E+04;  0.0000000E+00;  7.8255680E-06;  1.0000000E+04;  0.0000000E+00;  9.9973691E+03; -4.8402381E-01;  0.0000000E+00;  6.8556100E-02;  1.2894980E+03;
  5.1987523E-01;  9.9999998E-03; -1.6001239E-01;1842; -7.8067735E-02;  0.0000000E+00; -7.9029268E-03;  1.0008696E+03;  4.0000978E-01;  7.2037085E+02;3; -3.2443993E+01;  0.0000000E+00; -3.6267931E+00;0; -4.0545529E-01;  1.0019259E+04;  0.0000000E+00;  5.7993147E-06;  1.0000000E+04;  0.0000000E+00;  9.9976533E+03; -4.6869001E-01;  0.0000000E+00;  6.3234709E-02;  1.1524304E+03;
  5.1987922E-01;  9.9999998E-03; -1.4001079E-01;1843; -7.5807139E-02;  0.0000000E+00; -6.7770020E-03;  1.0008448E+03;  4.0000966E-01;  6.9992706E+02;3; -3.2157501E+01;  0.0000000E+00; -2.9730837E+00;0; -3.9423159E-01;  1.0018610E+04;  0.0000000E+00;  4.0608770E-06;  1.0000000E+04;  0.0000000E+00;  9.9978066E+03; -4.5456025E-01;  0.0000000E+00;  6.0328666E-02;  1.0779580E+03;
  5.1988274E-01;  9.9999998E-03; -1.2000920E-01;1844; -7.3674150E-02;  0.0000000E+00; -5.7046670E-03;  1.0008215E+03;  4.0000966E-01;  6.8056970E+02;3; -3.1761530E+01;  0.0000000E+00; -2.3526003E+00;0; -3.8275659E-01;  1.0018068E+04;  0.0000000E+00;  2.3060607E-06;  1.0000000E+04;  0.0000000E+00;  9.9978789E+03; -4.4182163E-01;  0.0000000E+00;  5.9065059E-02;  1.0407845E+03;
  5.1988572E-01;  9.9999998E-03; -1.0000765E-01;1845; -7.1765535E-02;  0.0000000E+00; -4.6856534E-03;  1.0008018E+03;  4.0000963E-01;  6.6427393E+02;3; -3.1302938E+01;  0.0000000E+00; -1.7973200E+00;0; -3.7212595E-01;  1.0017628E+04;  0.0000000E+00;  1.0970401E-06;  1.0000000E+04;  0.0000000E+00;  9.9979277E+03; -4.3064800E-01;  0.0000000E+00;  5.8522057E-02;  1.0166416E+03;
  5.1988798E-01;  9.9999998E-03; -8.0006130E-02;1846; -7.0144512E-02;  0.0000000E+00; -3.7171401E-03;  1.0007863E+03;  4.0000960E-01;  6.5143488E+02;3; -3.0834270E+01;  0.0000000E+00; -1.3331082E+00;0; -3.6296478E-01;  1.0017280E+04;  0.0000000E+00;  4.4255219E-07;  1.0000000E+04;  0.0000000E+00;  9.9979697E+03; -4.2122203E-01;  0.0000000E+00;  5.8257259E-02;  9.9635229E+02;
  5.1988971E-01;  9.9999998E-03; -6.0004614E-02;1847; -6.8847418E-02;  0.0000000E+00; -2.7773452E-03;  1.0007750E+03;  4.0000975E-01;  6.4205249E+02;3; -3.0397461E+01;  0.0000000E+00; -9.3112922E-01;0; -3.5557684E-01;  1.0017021E+04;  0.0000000E+00;  1.4855588E-07;  1.0000000E+04;  0.0000000E+00;  9.9980010E+03; -4.1370854E-01;  0.0000000E+00;  5.8131687E-02;  9.7885040E+02;
  5.1989090E-01;  9.9999998E-03; -4.0003091E-02;1848; -6.7900874E-02;  0.0000000E+00; -1.8515406E-03;  1.0007673E+03;  4.0000969E-01;  6.3573169E+02;3; -3.0045261E+01;  0.0000000E+00; -5.8903915E-01;0; -3.5014737E-01;  1.0016841E+04;  0.0000000E+00;  3.9691052E-08;  1.0000000E+04;  0.0000000E+00;  9.9980293E+03; -4.0824279E-01;  0.0000000E+00;  5.8095440E-02;  9.6536267E+02;
  5.1989162E-01;  9.9999998E-03; -2.0001553E-02;1849; -6.7324072E-02;  0.0000000E+00; -9.2683622E-04;  1.0007631E+03;  4.0000960E-01;  6.3227502E+02;3; -2.9816105E+01;  0.0000000E+00; -2.8493062E-01;0; -3.4681934E-01;  1.0016735E+04;  0.0000000E+00;  7.2749726E-09;  1.0000000E+04;  0.0000000E+00;  9.9980430E+03; -4.0492287E-01;  0.0000000E+00;  5.8103543E-02;  9.5698474E+02;
  5.3984922E-01;  9.9999998E-03; -1.8001980E-01;1872; -9.1178536E-02;  0.0000000E+00; -1.1817999E-02;  1.0009818E+03;  4.0002573E-01;  8.1340320E+02;3; -3.5666866E+01;  0.0000000E+00; -4.7636938E+00;0; -4.3309361E-01;  1.0021605E+04;  0.0000000E+00;  1.5688123E-05;  1.0000000E+04;  0.0000000E+00;  9.9967393E+03; -5.0978971E-01;  0.0000000E+00;  7.6696105E-02;  1.5969789E+03;
  5.3985447E-01;  9.9999998E-03; -1.6001774E-01;1873; -8.8568725E-02;  0.0000000E+00; -1.0559868E-02;  1.0009545E+03;  4.0002590E-01;  7.9078674E+02;3; -3.5563114E+01;  0.0000000E+00; -4.0692391E+00;0; -4.2084557E-01;  1.0020783E+04;  0.0000000E+00;  1.3501926E-05;  1.0000000E+04;  0.0000000E+00;  9.9970107E+03; -4.9372244E-01;  0.0000000E+00;  7.2876863E-02;  1.4648074E+03;
  5.3985918E-01;  9.9999998E-03; -1.4001557E-01;1874; -8.5977718E-02;  0.0000000E+00; -9.2823748E-03;  1.0009261E+03;  4.0002573E-01;  7.6728137E+02;3; -3.5288273E+01;  0.0000000E+00; -3.4111273E+00;0; -4.0705892E-01;  1.0020097E+04;  0.0000000E+00;  1.1149868E-05;  1.0000000E+04;  0.0000000E+00;  9.9971289E+03; -4.7928295E-01;  0.0000000E+00;  7.2224014E-02;  1.4051613E+03;
  5.3986329E-01;  9.9999998E-03; -1.2001334E-01;1875; -8.3543010E-02;  0.0000000E+00; -7.9789450E-03;  1.0008995E+03;  4.0002581E-01;  7.4525745E+02;3; -3.4873981E+01;  0.0000000E+00; -2.7729480E+00;0; -3.9301741E-01;  1.0019529E+04;  0.0000000E+00;  7.1320846E-06;  1.0000000E+04;  0.0000000E+00;  9.9971631E+03; -4.6647888E-01;  0.0000000E+00;  7.3461480E-02;  1.3829828E+03;
  5.3986669E-01;  9.9999998E-03; -1.0001110E-01;1876; -8.1368133E-02;  0.0000000E+00; -6.6655260E-03;  1.0008777E+03;  4.0002584E-01;  7.2718402E+02;3; -3.4370800E+01;  0.0000000E+00; -2.1847200E+00;0; -3.8011920E-01;  1.0019068E+04;  0.0000000E+00;  3.6602646E-06;  1.0000000E+04;  0.0000000E+00;  9.9971885E+03; -4.5534357E-01;  0.0000000E+00;  7.5224362E-02;  1.3669733E+03;
  5.3986931E-01;  9.9999998E-03; -8.0008887E-02;1877; -7.9521850E-02;  0.0000000E+00; -5.3545469E-03;  1.0008611E+03;  4.0002587E-01;  7.1345612E+02;3; -3.3836773E+01;  0.0000000E+00; -1.6610868E+00;0; -3.6912173E-01;  1.0018701E+04;  0.0000000E+00;  1.5444894E-06;  1.0000000E+04;  0.0000000E+00;  9.9972246E+03; -4.4597569E-01;  0.0000000E+00;  7.6853953E-02;  1.3469194E+03;
  5.3987128E-01;  9.9999998E-03; -6.0006682E-02;1878; -7.8046858E-02;  0.0000000E+00; -4.0429747E-03;  1.0008496E+03;  4.0002590E-01;  7.0387622E+02;3; -3.3338303E+01;  0.0000000E+00; -1.1955489E+00;0; -3.6033651E-01;  1.0018429E+04;  0.0000000E+00;  5.2837714E-07;  1.0000000E+04;  0.0000000E+00;  9.9972637E+03; -4.3850163E-01;  0.0000000E+00;  7.8165121E-02;  1.3244362E+03;
  5.3987265E-01;  9.9999998E-03; -4.0004473E-02;1879; -7.6970719E-02;  0.0000000E+00; -2.7144831E-03;  1.0008419E+03;  4.0002590E-01;  6.9745673E+02;3; -3.2932419E+01;  0.0000000E+00; -7.7377158E-01;0; -3.5392255E-01;  1.0018241E+04;  0.0000000E+00;  1.5628032E-07;  1.0000000E+04;  0.0000000E+00;  9.9972969E+03; -4.3304968E-01;  0.0000000E+00;  7.9127133E-02;  1.3043607E+03;
  5.3987342E-01;  9.9999998E-03; -2.0002244E-02;1880; -7.6314718E-02;  0.0000000E+00; -1.3644464E-03;  1.0008376E+03;  4.0002584E-01;  6.9390125E+02;3; -3.2666702E+01;  0.0000000E+00; -3.7981346E-01;0; -3.5000613E-01;  1.0018128E+04;  0.0000000E+00;  3.1348499E-08;  1.0000000E+04;  0.0000000E+00;  9.9973232E+03; -4.2972931E-01;  0.0000000E+00;  7.9723172E-02;  1.2908043E+03;
  5.5982566E-01;  9.9999998E-03; -1.8002787E-01;1903; -1.0274511E-01;  0.0000000E+00; -1.5591381E-02;  1.0010859E+03;  4.0006962E-01;  8.9971893E+02;3; -3.8827820E+01;  0.0000000E+00; -5.2207646E+00;0; -4.3042618E-01;  1.0022449E+04;  0.0000000E+00;  1.9785279E-05;  1.0000000E+04;  0.0000000E+00;  9.9957754E+03; -5.1862615E-01;  0.0000000E+00;  8.8199988E-02;  2.0634431E+03;
  5.5983162E-01;  9.9999998E-03; -1.6002509E-01;1904; -9.9801041E-02;  0.0000000E+00; -1.4200555E-02;  1.0010586E+03;  4.0006959E-01;  8.7700378E+02;3; -3.8765900E+01;  0.0000000E+00; -4.5654755E+00;0; -4.1649103E-01;  1.0021612E+04;  0.0000000E+00;  1.9222982E-05;  1.0000000E+04;  0.0000000E+00;  9.9960645E+03; -5.0272530E-01;  0.0000000E+00;  8.6234272E-02;  1.9197936E+03;
  5.5983704E-01;  9.9999998E-03; -1.4002204E-01;1905; -9.6898504E-02;  0.0000000E+00; -1.2685509E-02;  1.0010293E+03;  4.0006959E-01;  8.5270837E+02;3; -3.8508293E+01;  0.0000000E+00; -3.9361730E+00;0; -4.0054655E-01;  1.0020913E+04;  0.0000000E+00;  1.9533813E-05;  1.0000000E+04;  0.0000000E+00;  9.9961777E+03; -4.8874146E-01;  0.0000000E+00;  8.8194892E-02;  1.8597363E+03;
  5.5984175E-01;  9.9999998E-03; -1.2001885E-01;1906; -9.4172701E-02;  0.0000000E+00; -1.1043164E-02;  1.0010015E+03;  4.0006971E-01;  8.2969690E+02;3; -3.8080212E+01;  0.0000000E+00; -3.3276134E+00;0; -3.8419589E-01;  1.0020335E+04;  0.0000000E+00;  1.4373399E-05;  1.0000000E+04;  0.0000000E+00;  9.9962021E+03; -4.7651765E-01;  0.0000000E+00;  9.2321754E-02;  1.8404071E+03;
  5.5984563E-01;  9.9999998E-03; -1.0001566E-01;1907; -9.1733679E-02;  0.0000000E+00; -9.3273520E-03;  1.0009792E+03;  4.0006968E-01;  8.1122845E+02;3; -3.7533169E+01;  0.0000000E+00; -2.7358971E+00;0; -3.6917481E-01;  1.0019866E+04;  0.0000000E+00;  8.0340997E-06;  1.0000000E+04;  0.0000000E+00;  9.9962207E+03; -4.6595472E-01;  0.0000000E+00;  9.6779920E-02;  1.8225219E+03;
  5.5984861E-01;  9.9999998E-03; -8.0012485E-02;1908; -8.9664087E-02;  0.0000000E+00; -7.5471504E-03;  1.0009628E+03;  4.0006959E-01;  7.9769812E+02;3; -3.6942245E+01;  0.0000000E+00; -2.1588368E+00;0; -3.5643664E-01;  1.0019494E+04;  0.0000000E+00;  3.5059213E-06;  1.0000000E+04;  0.0000000E+00;  9.9962656E+03; -4.5707151E-01;  0.0000000E+00;  1.0063487E-01;  1.7931938E+03;
  5.5985087E-01;  9.9999998E-03; -6.0009342E-02;1909; -8.8009059E-02;  0.0000000E+00; -5.7171877E-03;  1.0009520E+03;  4.0006971E-01;  7.8871082E+02;3; -3.6380222E+01;  0.0000000E+00; -1.6094640E+00;0; -3.4633166E-01;  1.0019214E+04;  0.0000000E+00;  1.2161918E-06;  1.0000000E+04;  0.0000000E+00;  9.9963291E+03; -4.4995740E-01;  0.0000000E+00;  1.0362574E-01;  1.7565535E+03;
  5.5985236E-01;  9.9999998E-03; -4.0006220E-02;1910; -8.6801268E-02;  0.0000000E+00; -3.8449229E-03;  1.0009453E+03;  4.0006974E-01;  7.8318018E+02;3; -3.5921448E+01;  0.0000000E+00; -1.0791301E+00;0; -3.3899415E-01;  1.0019020E+04;  0.0000000E+00;  3.3879604E-07;  1.0000000E+04;  0.0000000E+00;  9.9963887E+03; -4.4473955E-01;  0.0000000E+00;  1.0574540E-01;  1.7220752E+03;
  5.5985326E-01;  9.9999998E-03; -2.0003108E-02;1911; -8.6063735E-02;  0.0000000E+00; -1.9334146E-03;  1.0009418E+03;  4.0006974E-01;  7.8021729E+02;3; -3.5618683E+01;  0.0000000E+00; -5.4205704E-01;0; -3.3452666E-01;  1.0018905E+04;  0.0000000E+00;  6.8746267E-08;  1.0000000E+04;  0.0000000E+00;  9.9964365E+03; -4.4154540E-01;  0.0000000E+00;  1.0701875E-01;  1.6981006E+03;
  5.7980096E-01;  9.9999998E-03; -1.8003850E-01;1934; -1.1454811E-01;  0.0000000E+00; -2.0600392E-02;  1.0012875E+03;  4.0018579E-01;  1.0667214E+03;3; -4.1935642E+01;  0.0000000E+00; -5.6854777E+00;0; -3.9758012E-01;  1.0022104E+04;  0.0000000E+00;  7.9980528E-06;  1.0000000E+04;  0.0000000E+00;  9.9943418E+03; -5.0223488E-01;  0.0000000E+00;  1.0465477E-01;  2.7528608E+03;
  5.7980764E-01;  9.9999998E-03; -1.6003449E-01;1935; -1.1131697E-01;  0.0000000E+00; -1.8949719E-02;  1.0012660E+03;  4.0018576E-01;  1.0488456E+03;3; -4.1913589E+01;  0.0000000E+00; -5.1869116E+00;0; -3.8292852E-01;  1.0021303E+04;  0.0000000E+00;  1.0650247E-05;  1.0000000E+04;  0.0000000E+00;  9.9947090E+03; -4.8774365E-01;  0.0000000E+00;  1.0481513E-01;  2.5683870E+03;
  5.7981378E-01;  9.9999998E-03; -1.4003021E-01;1936; -1.0814150E-01;  0.0000000E+00; -1.7026667E-02;  1.0012409E+03;  4.0018576E-01;  1.0280070E+03;3; -4.1685417E+01;  0.0000000E+00; -4.6328759E+00;0; -3.6565730E-01;  1.0020636E+04;  0.0000000E+00;  2.1411597E-05;  1.0000000E+04;  0.0000000E+00;  9.9948740E+03; -4.7519171E-01;  0.0000000E+00;  1.0953442E-01;  2.4784182E+03;
  5.7981908E-01;  9.9999998E-03; -1.2002573E-01;1937; -1.0515138E-01;  0.0000000E+00; -1.4920685E-02;  1.0012162E+03;  4.0018576E-01;  1.0075634E+03;3; -4.1254974E+01;  0.0000000E+00; -4.0693550E+00;0; -3.4764600E-01;  1.0020078E+04;  0.0000000E+00;  2.0278174E-05;  1.0000000E+04;  0.0000000E+00;  9.9949336E+03; -4.6432000E-01;  0.0000000E+00;  1.1667401E-01;  2.4375732E+03;
  5.7982343E-01;  9.9999998E-03; -1.0002123E-01;1938; -1.0247846E-01;  0.0000000E+00; -1.2654534E-02;  1.0011960E+03;  4.0018579E-01;  9.9087268E+02;3; -4.0687042E+01;  0.0000000E+00; -3.4810891E+00;0; -3.3093250E-01;  1.0019623E+04;  0.0000000E+00;  1.2632341E-05;  1.0000000E+04;  0.0000000E+00;  9.9949844E+03; -4.5493734E-01;  0.0000000E+00;  1.2400483E-01;  2.3991780E+03;
  5.7982677E-01;  9.9999998E-03; -8.0016807E-02;1939; -1.0020505E-01;  0.0000000E+00; -1.0264366E-02;  1.0011821E+03;  4.0018576E-01;  9.7931763E+02;3; -4.0050636E+01;  0.0000000E+00; -2.8683593E+00;0; -3.1672561E-01;  1.0019260E+04;  0.0000000E+00;  5.5860860E-06;  1.0000000E+04;  0.0000000E+00;  9.9950703E+03; -4.4700906E-01;  0.0000000E+00;  1.3028346E-01;  2.3453821E+03;
  5.7982928E-01;  9.9999998E-03; -6.0012490E-02;1940; -9.8383732E-02;  0.0000000E+00; -7.7883857E-03;  1.0011740E+03;  4.0018582E-01;  9.7260187E+02;3; -3.9437611E+01;  0.0000000E+00; -2.2218654E+00;0; -3.0548346E-01;  1.0018980E+04;  0.0000000E+00;  1.7432488E-06;  1.0000000E+04;  0.0000000E+00;  9.9951836E+03; -4.4060448E-01;  0.0000000E+00;  1.3512103E-01;  2.2814612E+03;
  5.7983094E-01;  9.9999998E-03; -4.0008277E-02;1941; -9.7051062E-02;  0.0000000E+00; -5.2449903E-03;  1.0011697E+03;  4.0018588E-01;  9.6904645E+02;3; -3.8933243E+01;  0.0000000E+00; -1.5260010E+00;0; -2.9734454E-01;  1.0018786E+04;  0.0000000E+00;  3.6685253E-07;  1.0000000E+04;  0.0000000E+00;  9.9952930E+03; -4.3586069E-01;  0.0000000E+00;  1.3851616E-01;  2.2219844E+03;
  5.7983196E-01;  9.9999998E-03; -2.0004127E-02;1942; -9.6233457E-02;  0.0000000E+00; -2.6416266E-03;  1.0011675E+03;  4.0018579E-01;  9.6726874E+02;3; -3.8602028E+01;  0.0000000E+00; -7.7833575E-01;0; -2.9239678E-01;  1.0018668E+04;  0.0000000E+00;  4.6115456E-08;  1.0000000E+04;  0.0000000E+00;  9.9953691E+03; -4.3293285E-01;  0.0000000E+00;  1.4053607E-01;  2.1806519E+03;
  5.9977639E-01;  9.9999998E-03; -1.8005106E-01;1965; -1.2596075E-01;  0.0000000E+00; -2.6621036E-02;  1.0018163E+03;  4.0048069E-01;  1.5047212E+03;3; -4.4747517E+01;  0.0000000E+00; -6.3054676E+00;0; -3.2166731E-01;  1.0019958E+04;  0.0000000E+00; -3.2182277E-05;  1.0000000E+04;  0.0000000E+00;  9.9923252E+03; -4.4887522E-01;  0.0000000E+00;  1.2720792E-01;  3.7156099E+03;
  5.9978402E-01;  9.9999998E-03; -1.6004573E-01;1966; -1.2244185E-01;  0.0000000E+00; -2.4625793E-02;  1.0018089E+03;  4.0048087E-01;  1.4985980E+03;3; -4.4783360E+01;  0.0000000E+00; -5.8885489E+00;0; -3.0743247E-01;  1.0019281E+04;  0.0000000E+00; -2.7690350E-05;  1.0000000E+04;  0.0000000E+00;  9.9928428E+03; -4.3741605E-01;  0.0000000E+00;  1.2998356E-01;  3.4545398E+03;
  5.9979093E-01;  9.9999998E-03; -1.4004000E-01;1967; -1.1899989E-01;  0.0000000E+00; -2.2313833E-02;  1.0017947E+03;  4.0048087E-01;  1.4868455E+03;3; -4.4611992E+01;  0.0000000E+00; -5.4746237E+00;0; -2.8982523E-01;  1.0018701E+04;  0.0000000E+00;  4.2946212E-06;  1.0000000E+04;  0.0000000E+00;  9.9931396E+03; -4.2743537E-01;  0.0000000E+00;  1.3761014E-01;  3.2952327E+03;
  5.9979683E-01;  9.9999998E-03; -1.2003389E-01;1968; -1.1577998E-01;  0.0000000E+00; -1.9652903E-02;  1.0017783E+03;  4.0048078E-01;  1.4733153E+03;3; -4.4192448E+01;  0.0000000E+00; -5.0198212E+00;0; -2.7102745E-01;  1.0018209E+04;  0.0000000E+00;  1.6880700E-05;  1.0000000E+04;  0.0000000E+00;  9.9933027E+03; -4.1875115E-01;  0.0000000E+00;  1.4772370E-01;  3.1980613E+03;
  5.9980160E-01;  9.9999998E-03; -1.0002775E-01;1969; -1.1291645E-01;  0.0000000E+00; -1.6709670E-02;  1.0017650E+03;  4.0048087E-01;  1.4622540E+03;3; -4.3615707E+01;  0.0000000E+00; -4.4901562E+00;0; -2.5329435E-01;  1.0017797E+04;  0.0000000E+00;  1.3143961E-05;  1.0000000E+04;  0.0000000E+00;  9.9934453E+03; -4.1117024E-01;  0.0000000E+00;  1.5787588E-01;  3.1117732E+03;
  5.9980530E-01;  9.9999998E-03; -8.0021791E-02;1970; -1.1047626E-01;  0.0000000E+00; -1.3568372E-02;  1.0017568E+03;  4.0048096E-01;  1.4554396E+03;3; -4.2952396E+01;  0.0000000E+00; -3.8321204E+00;0; -2.3807199E-01;  1.0017464E+04;  0.0000000E+00;  5.4325783E-06;  1.0000000E+04;  0.0000000E+00;  9.9936162E+03; -4.0465856E-01;  0.0000000E+00;  1.6658656E-01;  3.0121560E+03;
  5.9980804E-01;  9.9999998E-03; -6.0016099E-02;1971; -1.0851819E-01;  0.0000000E+00; -1.0314043E-02;  1.0017537E+03;  4.0048110E-01;  1.4528717E+03;3; -4.2318253E+01;  0.0000000E+00; -3.0692933E+00;0; -2.2599608E-01;  1.0017202E+04;  0.0000000E+00;  8.7948257E-07;  1.0000000E+04;  0.0000000E+00;  9.9938096E+03; -3.9930597E-01;  0.0000000E+00;  1.7330989E-01;  2.9037026E+03;
  5.9980994E-01;  9.9999998E-03; -4.0010639E-02;1972; -1.0707329E-01;  0.0000000E+00; -6.9610127E-03;  1.0017535E+03;  4.0048096E-01;  1.4526742E+03;3; -4.1795048E+01;  0.0000000E+00; -2.1565604E+00;0; -2.1725889E-01;  1.0017015E+04;  0.0000000E+00; -3.3033265E-07;  1.0000000E+04;  0.0000000E+00;  9.9939941E+03; -3.9527842E-01;  0.0000000E+00;  1.7801954E-01;  2.8058611E+03;
  5.9981108E-01;  9.9999998E-03; -2.0005299E-02;1973; -1.0618059E-01;  0.0000000E+00; -3.5072081E-03;  1.0017542E+03;  4.0048105E-01;  1.4532668E+03;3; -4.1456863E+01;  0.0000000E+00; -1.1037164E+00;0; -2.1194932E-01;  1.0016902E+04;  0.0000000E+00; -1.6777646E-07;  1.0000000E+04;  0.0000000E+00;  9.9941201E+03; -3.9276293E-01;  0.0000000E+00;  1.8081361E-01;  2.7385830E+03;
  6.1975342E-01;  9.9999998E-03; -1.8006577E-01;1996; -1.3629118E-01;  0.0000000E+00; -3.3485752E-02;  1.0031400E+03;  4.0115643E-01;  2.6013467E+03;3; -4.7076698E+01;  0.0000000E+00; -6.8342605E+00;0; -1.8642102E-01;  1.0015308E+04;  0.0000000E+00; -9.9289733E-05;  1.0000000E+04;  0.0000000E+00;  9.9896943E+03; -3.4243354E-01;  0.0000000E+00;  1.5601252E-01;  4.9652319E+03;
  6.1976206E-01;  9.9999998E-03; -1.6005893E-01;1997; -1.3246921E-01;  0.0000000E+00; -3.1177687E-02;  1.0031542E+03;  4.0115663E-01;  2.6130991E+03;3; -4.7130276E+01;  0.0000000E+00; -6.6231451E+00;0; -1.7358465E-01;  1.0014859E+04;  0.0000000E+00; -1.0189508E-04;  1.0000000E+04;  0.0000000E+00;  9.9904238E+03; -3.3603454E-01;  0.0000000E+00;  1.6244988E-01;  4.5956802E+03;
  6.1976969E-01;  9.9999998E-03; -1.4005139E-01;1998; -1.2882109E-01;  0.0000000E+00; -2.8413160E-02;  1.0031593E+03;  4.0115684E-01;  2.6173459E+03;3; -4.7006889E+01;  0.0000000E+00; -6.4238439E+00;0; -1.5651301E-01;  1.0014442E+04;  0.0000000E+00; -4.0927000E-05;  1.0000000E+04;  0.0000000E+00;  9.9909326E+03; -3.2997802E-01;  0.0000000E+00;  1.7346501E-01;  4.3273999E+03;
  6.1977613E-01;  9.9999998E-03; -1.2004329E-01;1999; -1.2546811E-01;  0.0000000E+00; -2.5108237E-02;  1.0031583E+03;  4.0115675E-01;  2.6165557E+03;3; -4.6643135E+01;  0.0000000E+00; -6.1145082E+00;0; -1.3781564E-01;  1.0014071E+04;  0.0000000E+00; -4.3863884E-06;  1.0000000E+04;  0.0000000E+00;  9.9912793E+03; -3.2440725E-01;  0.0000000E+00;  1.8659161E-01;  4.1355044E+03;
  6.1978132E-01;  9.9999998E-03; -1.0003518E-01;2000; -1.2248933E-01;  0.0000000E+00; -2.1424951E-02;  1.0031568E+03;  4.0115684E-01;  2.6152717E+03;3; -4.6123692E+01;  0.0000000E+00; -5.7024174E+00;0; -1.1990286E-01;  1.0013742E+04;  0.0000000E+00;  3.3899560E-06;  1.0000000E+04;  0.0000000E+00;  9.9915762E+03; -3.1929442E-01;  0.0000000E+00;  1.9939156E-01;  3.9689399E+03;
  6.1978543E-01;  9.9999998E-03; -8.0027431E-02;2001; -1.1991354E-01;  0.0000000E+00; -1.7467724E-02;  1.0031586E+03;  4.0115678E-01;  2.6168518E+03;3; -4.5518902E+01;  0.0000000E+00; -5.0684347E+00;0; -1.0434715E-01;  1.0013469E+04;  0.0000000E+00; -5.6639374E-07;  1.0000000E+04;  0.0000000E+00;  9.9918848E+03; -3.1469512E-01;  0.0000000E+00;  2.1034797E-01;  3.7977122E+03;
  6.1978853E-01;  9.9999998E-03; -6.0020160E-02;2002; -1.1779758E-01;  0.0000000E+00; -1.3298062E-02;  1.0031641E+03;  4.0115684E-01;  2.6213948E+03;3; -4.4887360E+01;  0.0000000E+00; -4.0940366E+00;0; -9.1944158E-02;  1.0013251E+04;  0.0000000E+00; -3.2427893E-06;  1.0000000E+04;  0.0000000E+00;  9.9922031E+03; -3.1076887E-01;  0.0000000E+00;  2.1882471E-01;  3.6242947E+03;
  6.1979067E-01;  9.9999998E-03; -4.0013269E-02;2003; -1.1624385E-01;  0.0000000E+00; -8.9834910E-03;  1.0031704E+03;  4.0115690E-01;  2.6265303E+03;3; -4.4377895E+01;  0.0000000E+00; -2.9148498E+00;0; -8.2963288E-02;  1.0013091E+04;  0.0000000E+00; -2.4827518E-06;  1.0000000E+04;  0.0000000E+00;  9.9924912E+03; -3.0772886E-01;  0.0000000E+00;  2.2476557E-01;  3.4726218E+03;
  6.1979192E-01;  9.9999998E-03; -2.0006595E-02;2004; -1.1528252E-01;  0.0000000E+00; -4.5357724E-03;  1.0031753E+03;  4.0115684E-01;  2.6305796E+03;3; -4.4031635E+01;  0.0000000E+00; -1.5185326E+00;0; -7.7503517E-02;  1.0012993E+04;  0.0000000E+00; -7.6804884E-07;  1.0000000E+04;  0.0000000E+00;  9.9926836E+03; -3.0579323E-01;  0.0000000E+00;  2.2828971E-01;  3.3695691E+03;
  6.3973355E-01;  9.9999998E-03; -1.8008289E-01;2027; -1.4504115E-01;  0.0000000E+00; -4.1157782E-02;  1.0056902E+03;  4.0239584E-01;  4.7140879E+03;3; -4.8875267E+01;  0.0000000E+00; -7.1850553E+00;0;  2.2710860E-02;  1.0007599E+04;  0.0000000E+00; -1.5973467E-04;  1.0000000E+04;  0.0000000E+00;  9.9865400E+03; -1.6709775E-01;  0.0000000E+00;  1.8980861E-01;  6.4571689E+03;
  6.3974297E-01;  9.9999998E-03; -1.6007394E-01;2028; -1.4100029E-01;  0.0000000E+00; -3.8433880E-02;  1.0057333E+03;  4.0239593E-01;  4.7498384E+03;3; -4.8963097E+01;  0.0000000E+00; -7.1552606E+00;0;  3.3897534E-02;  1.0007481E+04;  0.0000000E+00; -1.9036751E-04;  1.0000000E+04;  0.0000000E+00;  9.9875078E+03; -1.6780965E-01;  0.0000000E+00;  2.0170718E-01;  5.9627778E+03;
  6.3975114E-01;  9.9999998E-03; -1.4006406E-01;2029; -1.3723847E-01;  0.0000000E+00; -3.5065535E-02;  1.0057640E+03;  4.0239602E-01;  4.7752197E+03;3; -4.8905266E+01;  0.0000000E+00; -7.2451105E+00;0;  5.0033346E-02;  1.0007308E+04;  0.0000000E+00; -1.0634915E-04;  1.0000000E+04;  0.0000000E+00;  9.9882852E+03; -1.6714825E-01;  0.0000000E+00;  2.1718159E-01;  5.5581914E+03;
  6.3975805E-01;  9.9999998E-03; -1.2005346E-01;2030; -1.3380224E-01;  0.0000000E+00; -3.1003471E-02;  1.0057846E+03;  4.0239605E-01;  4.7923052E+03;3; -4.8642735E+01;  0.0000000E+00; -7.2712250E+00;0;  6.7962527E-02;  1.0007119E+04;  0.0000000E+00; -4.3850490E-05;  1.0000000E+04;  0.0000000E+00;  9.9888730E+03; -1.6573609E-01;  0.0000000E+00;  2.3369862E-01;  5.2403354E+03;
  6.3976377E-01;  9.9999998E-03; -1.0004300E-01;2031; -1.3069566E-01;  0.0000000E+00; -2.6390150E-02;  1.0058012E+03;  4.0239620E-01;  4.8060327E+03;3; -4.8225616E+01;  0.0000000E+00; -7.0138745E+00;0;  8.5167289E-02;  1.0006932E+04;  0.0000000E+00; -1.9451551E-05;  1.0000000E+04;  0.0000000E+00;  9.9893809E+03; -1.6387700E-01;  0.0000000E+00;  2.4904428E-01;  4.9637334E+03;
  6.3976836E-01;  9.9999998E-03; -8.0033273E-02;2032; -1.2796268E-01;  0.0000000E+00; -2.1483021E-02;  1.0058181E+03;  4.0239626E-01;  4.8199580E+03;3; -4.7657158E+01;  0.0000000E+00; -6.3147812E+00;0;  1.0014640E-01;  1.0006764E+04;  0.0000000E+00; -1.4643867E-05;  1.0000000E+04;  0.0000000E+00;  9.9898818E+03; -1.6180767E-01;  0.0000000E+00;  2.6195407E-01;  4.6953154E+03;
  6.3977176E-01;  9.9999998E-03; -6.0024347E-02;2033; -1.2575701E-01;  0.0000000E+00; -1.6378548E-02;  1.0058354E+03;  4.0239617E-01;  4.8343760E+03;3; -4.7070755E+01;  0.0000000E+00; -5.1490445E+00;0;  1.1210383E-01;  1.0006621E+04;  0.0000000E+00; -1.1702581E-05;  1.0000000E+04;  0.0000000E+00;  9.9903701E+03; -1.5979074E-01;  0.0000000E+00;  2.7189457E-01;  4.4361113E+03;
  6.3977420E-01;  9.9999998E-03; -4.0016003E-02;2034; -1.2413153E-01;  0.0000000E+00; -1.1105552E-02;  1.0058515E+03;  4.0239626E-01;  4.8477085E+03;3; -4.6610775E+01;  0.0000000E+00; -3.6811125E+00;0;  1.2075594E-01;  1.0006513E+04;  0.0000000E+00; -6.5392101E-06;  1.0000000E+04;  0.0000000E+00;  9.9907930E+03; -1.5809333E-01;  0.0000000E+00;  2.7884927E-01;  4.2148208E+03;
  6.3977563E-01;  9.9999998E-03; -2.0007951E-02;2035; -1.2312531E-01;  0.0000000E+00; -5.6186551E-03;  1.0058625E+03;  4.0239623E-01;  4.8568931E+03;3; -4.6310303E+01;  0.0000000E+00; -1.9181007E+00;0;  1.2601593E-01;  1.0006448E+04;  0.0000000E+00; -1.8187011E-06;  1.0000000E+04;  0.0000000E+00;  9.9910781E+03; -1.5695786E-01;  0.0000000E+00;  2.8297380E-01;  4.0660071E+03;
  6.5971923E-01;  9.9999998E-03; -1.8010406E-01;2058; -1.5128238E-01;  0.0000000E+00; -5.0384264E-02;  1.0088698E+03;  4.0395570E-01;  7.3481191E+03;3; -5.0295616E+01;  0.0000000E+00; -7.1266289E+00;0;  3.0894226E-01;  9.9968203E+03;  0.0000000E+00; -1.6120035E-04;  1.0000000E+04;  0.0000000E+00;  9.9830898E+03;  8.3058961E-02;  0.0000000E+00;  2.2588329E-01;  8.0815342E+03;
  6.5972894E-01;  9.9999998E-03; -1.6009206E-01;2059; -1.4716640E-01;  0.0000000E+00; -4.7008410E-02;  1.0089442E+03;  4.0395585E-01;  7.4098433E+03;3; -5.0357941E+01;  0.0000000E+00; -7.4415808E+00;0;  3.1954268E-01;  9.9970977E+03;  0.0000000E+00; -2.4281644E-04;  1.0000000E+04;  0.0000000E+00;  9.9842754E+03;  7.3906012E-02;  0.0000000E+00;  2.4563666E-01;  7.4699741E+03;
  6.5973729E-01;  9.9999998E-03; -1.4007930E-01;2060; -1.4337555E-01;  0.0000000E+00; -4.2910051E-02;  1.0090040E+03;  4.0395585E-01;  7.4593213E+03;3; -5.0288033E+01;  0.0000000E+00; -7.9559178E+00;0;  3.3520505E-01;  9.9972373E+03;  0.0000000E+00; -1.6030722E-04;  1.0000000E+04;  0.0000000E+00;  9.9853164E+03;  6.7948461E-02;  0.0000000E+00;  2.6725659E-01;  6.9252427E+03;
  6.5974432E-01;  9.9999998E-03; -1.2006572E-01;2061; -1.3996910E-01;  0.0000000E+00; -3.7857573E-02;  1.0090503E+03;  4.0395579E-01;  7.4976396E+03;3; -5.0069721E+01;  0.0000000E+00; -8.3507233E+00;0;  3.5216573E-01;  9.9972939E+03;  0.0000000E+00; -8.5729233E-05;  1.0000000E+04;  0.0000000E+00;  9.9861797E+03;  6.4163364E-02;  0.0000000E+00;  2.8800237E-01;  6.4682349E+03;
  6.5975034E-01;  9.9999998E-03; -1.0005251E-01;2062; -1.3687354E-01;  0.0000000E+00; -3.2216817E-02;  1.0090892E+03;  4.0395579E-01;  7.5299336E+03;3; -4.9735435E+01;  0.0000000E+00; -8.2754688E+00;0;  3.6791337E-01;  9.9973027E+03;  0.0000000E+00; -4.8341863E-05;  1.0000000E+04;  0.0000000E+00;  9.9869375E+03;  6.1880231E-02;  0.0000000E+00;  3.0603313E-01;  6.0634980E+03;
  6.5975523E-01;  9.9999998E-03; -8.0040388E-02;2063; -1.3412033E-01;  0.0000000E+00; -2.6300361E-02;  1.0091253E+03;  4.0395582E-01;  7.5598574E+03;3; -4.9221123E+01;  0.0000000E+00; -7.6305728E+00;0;  3.8129982E-01;  9.9972881E+03;  0.0000000E+00; -3.3240092E-05;  1.0000000E+04;  0.0000000E+00;  9.9876660E+03;  6.0654171E-02;  0.0000000E+00;  3.2064566E-01;  5.6791006E+03;
  6.5975899E-01;  9.9999998E-03; -6.0029417E-02;2064; -1.3187353E-01;  0.0000000E+00; -2.0134469E-02;  1.0091592E+03;  4.0395582E-01;  7.5879048E+03;3; -4.8726162E+01;  0.0000000E+00; -6.4563375E+00;0;  3.9181858E-01;  9.9972637E+03;  0.0000000E+00; -2.2455695E-05;  1.0000000E+04;  0.0000000E+00;  9.9883535E+03;  6.0128085E-02;  0.0000000E+00;  3.3169049E-01;  5.3173682E+03;
  6.5976167E-01;  9.9999998E-03; -4.0019277E-02;2065; -1.3021974E-01;  0.0000000E+00; -1.3675765E-02;  1.0091876E+03;  4.0395585E-01;  7.6114092E+03;3; -4.8353306E+01;  0.0000000E+00; -4.6969051E+00;0;  3.9935312E-01;  9.9972393E+03;  0.0000000E+00; -1.1446725E-05;  1.0000000E+04;  0.0000000E+00;  9.9889414E+03;  6.0002416E-02;  0.0000000E+00;  3.3935070E-01;  5.0133853E+03;
  6.5976322E-01;  9.9999998E-03; -2.0009561E-02;2066; -1.2921651E-01;  0.0000000E+00; -6.9266194E-03;  1.0092064E+03;  4.0395585E-01;  7.6270132E+03;3; -4.8116085E+01;  0.0000000E+00; -2.4787018E+00;0;  4.0391400E-01;  9.9972207E+03;  0.0000000E+00; -3.0372962E-06;  1.0000000E+04;  0.0000000E+00;  9.9893311E+03;  6.0036402E-02;  0.0000000E+00;  3.4387761E-01;  4.8104810E+03;
  6.7971396E-01;  9.9999998E-03; -1.8013136E-01;2089; -1.5355699E-01;  0.0000000E+00; -6.3448533E-02;  1.0111571E+03;  4.0520254E-01;  9.2429580E+03;3; -5.0582253E+01;  0.0000000E+00; -7.8838539E+00;0;  6.5422761E-01;  9.9838701E+03;  0.0000000E+00; -8.7872548E-05;  1.0000000E+04;  0.0000000E+00;  9.9796719E+03;  3.9372316E-01;  0.0000000E+00;  2.6050442E-01;  9.6793623E+03;
  6.7972356E-01;  9.9999998E-03; -1.6011529E-01;2090; -1.4958985E-01;  0.0000000E+00; -5.8910731E-02;  1.0112586E+03;  4.0520242E-01;  9.3270000E+03;3; -5.0659420E+01;  0.0000000E+00; -8.6246567E+00;0;  6.6667724E-01;  9.9845479E+03;  0.0000000E+00; -2.1949700E-04;  1.0000000E+04;  0.0000000E+00;  9.9810078E+03;  3.7615988E-01;  0.0000000E+00;  2.9051736E-01;  8.9838643E+03;
  6.7973179E-01;  9.9999998E-03; -1.4009890E-01;2091; -1.4599597E-01;  0.0000000E+00; -5.3779069E-02;  1.0113465E+03;  4.0520227E-01;  9.3997842E+03;3; -5.0500900E+01;  0.0000000E+00; -9.5336142E+00;0;  6.8333030E-01;  9.9850371E+03;  0.0000000E+00; -1.6727629E-04;  1.0000000E+04;  0.0000000E+00;  9.9822646E+03;  3.6304677E-01;  0.0000000E+00;  3.2028353E-01;  8.3230918E+03;
  6.7973882E-01;  9.9999998E-03; -1.2008161E-01;2092; -1.4280996E-01;  0.0000000E+00; -4.7613837E-02;  1.0114197E+03;  4.0520206E-01;  9.4604199E+03;3; -5.0453854E+01;  0.0000000E+00; -1.0477459E+01;0;  6.9971442E-01;  9.9853857E+03;  0.0000000E+00; -1.0462979E-04;  1.0000000E+04;  0.0000000E+00;  9.9833701E+03;  3.5327873E-01;  0.0000000E+00;  3.4643573E-01;  7.7376484E+03;
  6.7974478E-01;  9.9999998E-03; -1.0006484E-01;2093; -1.3986607E-01;  0.0000000E+00; -4.0667720E-02;  1.0114835E+03;  4.0520197E-01;  9.5133535E+03;3; -5.0272018E+01;  0.0000000E+00; -1.0837463E+01;0;  7.1354532E-01;  9.9856387E+03;  0.0000000E+00; -6.6821805E-05;  1.0000000E+04;  0.0000000E+00;  9.9843779E+03;  3.4598258E-01;  0.0000000E+00;  3.6756277E-01;  7.2047769E+03;
  6.7974979E-01;  9.9999998E-03; -8.0049552E-02;2094; -1.3720824E-01;  0.0000000E+00; -3.3242971E-02;  1.0115414E+03;  4.0520182E-01;  9.5613496E+03;3; -4.9995541E+01;  0.0000000E+00; -1.0346515E+01;0;  7.2437268E-01;  9.9858203E+03;  0.0000000E+00; -4.6114197E-05;  1.0000000E+04;  0.0000000E+00;  9.9853457E+03;  3.4059656E-01;  0.0000000E+00;  3.8377613E-01;  6.6984087E+03;
  6.7975366E-01;  9.9999998E-03; -6.0035914E-02;2095; -1.3497820E-01;  0.0000000E+00; -2.5489150E-02;  1.0115939E+03;  4.0520182E-01;  9.6048027E+03;3; -4.9694130E+01;  0.0000000E+00; -8.9210625E+00;0;  7.3236084E-01;  9.9859502E+03;  0.0000000E+00; -2.9585448E-05;  1.0000000E+04;  0.0000000E+00;  9.9862559E+03;  3.3674663E-01;  0.0000000E+00;  3.9561424E-01;  6.2265386E+03;
  6.7975640E-01;  9.9999998E-03; -4.0023472E-02;2096; -1.3329066E-01;  0.0000000E+00; -1.7357202E-02;  1.0116367E+03;  4.0520164E-01;  9.6401582E+03;3; -4.9365364E+01;  0.0000000E+00; -6.5596118E+00;0;  7.3785460E-01;  9.9860371E+03;  0.0000000E+00; -1.4441785E-05;  1.0000000E+04;  0.0000000E+00;  9.9870176E+03;  3.3417839E-01;  0.0000000E+00;  4.0367618E-01;  5.8332866E+03;
  6.7975807E-01;  9.9999998E-03; -2.0011622E-02;2097; -1.3224158E-01;  0.0000000E+00; -8.8012842E-03;  1.0116646E+03;  4.0520161E-01;  9.6632666E+03;3; -4.9147785E+01;  0.0000000E+00; -3.4790349E+00;0;  7.4112219E-01;  9.9860840E+03;  0.0000000E+00; -3.7838081E-06;  1.0000000E+04;  0.0000000E+00;  9.9875254E+03;  3.3271369E-01;  0.0000000E+00;  4.0840849E-01;  5.5720068E+03;
  6.9972551E-01;  9.9999998E-03; -1.8016297E-01;2120; -1.4938629E-01;  0.0000000E+00; -8.1571698E-02;  1.0120419E+03;  4.0588588E-01;  9.9757314E+03;3; -4.8944687E+01;  0.0000000E+00; -1.1582268E+01;0;  1.0145262E+00;  9.9706729E+03;  0.0000000E+00;  7.7650629E-06;  1.0000000E+04;  0.0000000E+00;  9.9766592E+03;  7.2472215E-01;  0.0000000E+00;  2.8980413E-01;  1.1085370E+04;
  6.9973445E-01;  9.9999998E-03; -1.6014239E-01;2121; -1.4591406E-01;  0.0000000E+00; -7.5418584E-02;  1.0121632E+03;  4.0588531E-01;  1.0076164E+04;3; -4.9173668E+01;  0.0000000E+00; -1.2557211E+01;0;  1.0318205E+00;  9.9717080E+03;  0.0000000E+00; -1.3378328E-04;  1.0000000E+04;  0.0000000E+00;  9.9780322E+03;  7.0020658E-01;  0.0000000E+00;  3.3161393E-01;  1.0355102E+04;
  6.9974196E-01;  9.9999998E-03; -1.4012119E-01;2122; -1.4303419E-01;  0.0000000E+00; -6.8285584E-02;  1.0122736E+03;  4.0588507E-01;  1.0167710E+04;3; -4.9550262E+01;  0.0000000E+00; -1.3816783E+01;0;  1.0514196E+00;  9.9725332E+03;  0.0000000E+00; -1.2096756E-04;  1.0000000E+04;  0.0000000E+00;  9.9794063E+03;  6.8023920E-01;  0.0000000E+00;  3.7118044E-01;  9.6232422E+03;
  6.9974840E-01;  9.9999998E-03; -1.2009887E-01;2123; -1.4050801E-01;  0.0000000E+00; -5.9773624E-02;  1.0123713E+03;  4.0588477E-01;  1.0248591E+04;3; -5.0076469E+01;  0.0000000E+00; -1.4965938E+01;0;  1.0679711E+00;  9.9731885E+03;  0.0000000E+00; -8.6728083E-05;  1.0000000E+04;  0.0000000E+00;  9.9806914E+03;  6.6409415E-01;  0.0000000E+00;  4.0387696E-01;  8.9413574E+03;
  6.9975400E-01;  9.9999998E-03; -1.0007760E-01;2124; -1.3790685E-01;  0.0000000E+00; -5.0464798E-02;  1.0124589E+03;  4.0588447E-01;  1.0321176E+04;3; -5.0292507E+01;  0.0000000E+00; -1.5155555E+01;0;  1.0796936E+00;  9.9737070E+03;  0.0000000E+00; -6.1508195E-05;  1.0000000E+04;  0.0000000E+00;  9.9819072E+03;  6.5103716E-01;  0.0000000E+00;  4.2865646E-01;  8.2996309E+03;
  6.9975877E-01;  9.9999998E-03; -8.0058634E-02;2125; -1.3532919E-01;  0.0000000E+00; -4.0878445E-02;  1.0125391E+03;  4.0588439E-01;  1.0387638E+04;3; -5.0172604E+01;  0.0000000E+00; -1.4195252E+01;0;  1.0872052E+00;  9.9741143E+03;  0.0000000E+00; -4.3879008E-05;  1.0000000E+04;  0.0000000E+00;  9.9830957E+03;  6.4061886E-01;  0.0000000E+00;  4.4658628E-01;  7.6815977E+03;
  6.9976252E-01;  9.9999998E-03; -6.0042094E-02;2126; -1.3310814E-01;  0.0000000E+00; -3.1135380E-02;  1.0126108E+03;  4.0588421E-01;  1.0446989E+04;3; -4.9921131E+01;  0.0000000E+00; -1.2041654E+01;0;  1.0917362E+00;  9.9744180E+03;  0.0000000E+00; -2.7799077E-05;  1.0000000E+04;  0.0000000E+00;  9.9842129E+03;  6.3261563E-01;  0.0000000E+00;  4.5912057E-01;  7.1051104E+03;
  6.9976521E-01;  9.9999998E-03; -4.0027332E-02;2127; -1.3140495E-01;  0.0000000E+00; -2.1120798E-02;  1.0126686E+03;  4.0588418E-01;  1.0494885E+04;3; -4.9660656E+01;  0.0000000E+00; -8.7894144E+00;0;  1.0943844E+00;  9.9746289E+03;  0.0000000E+00; -1.3344937E-05;  1.0000000E+04;  0.0000000E+00;  9.9851484E+03;  6.2693566E-01;  0.0000000E+00;  4.6744883E-01;  6.6258574E+03;
  6.9976681E-01;  9.9999998E-03; -2.0013502E-02;2128; -1.3034526E-01;  0.0000000E+00; -1.0711434E-02;  1.0127063E+03;  4.0588400E-01;  1.0526092E+04;3; -4.9448650E+01;  0.0000000E+00; -4.6502500E+00;0;  1.0958323E+00;  9.9747559E+03;  0.0000000E+00; -3.4380214E-06;  1.0000000E+04;  0.0000000E+00;  9.9857686E+03;  6.2353992E-01;  0.0000000E+00;  4.7229245E-01;  6.3081064E+03;
  7.1977866E-01;  9.9999998E-03; -1.8018974E-01;2151; -1.2851664E-01;  0.0000000E+00; -1.0048785E-01;  1.0121187E+03;  4.0618521E-01;  1.0039056E+04;3; -4.6476421E+01;  0.0000000E+00; -1.9741686E+01;0;  1.3259630E+00;  9.9597988E+03;  0.0000000E+00;  6.1403553E-05;  1.0000000E+04;  0.0000000E+00;  9.9743086E+03;  1.0150962E+00;  0.0000000E+00;  3.1086689E-01;  1.2178730E+04;
  7.1978742E-01;  9.9999998E-03; -1.6016571E-01;2152; -1.2487058E-01;  0.0000000E+00; -9.2759706E-02;  1.0122501E+03;  4.0618461E-01;  1.0147880E+04;3; -4.6987251E+01;  0.0000000E+00; -2.0903208E+01;0;  1.3503478E+00;  9.9610967E+03;  0.0000000E+00; -4.2335847E-05;  1.0000000E+04;  0.0000000E+00;  9.9756289E+03;  9.8591965E-01;  0.0000000E+00;  3.6442804E-01;  1.1462359E+04;
  7.1979541E-01;  9.9999998E-03; -1.4014034E-01;2153; -1.2120156E-01;  0.0000000E+00; -8.3077319E-02;  1.0123763E+03;  4.0618432E-01;  1.0252458E+04;3; -4.7255604E+01;  0.0000000E+00; -2.1596512E+01;0;  1.3742676E+00;  9.9622139E+03;  0.0000000E+00; -5.2590192E-05;  1.0000000E+04;  0.0000000E+00;  9.9770156E+03;  9.5997655E-01;  0.0000000E+00;  4.1429102E-01;  1.0709069E+04;
  7.1980226E-01;  9.9999998E-03; -1.2011375E-01;2154; -1.1762963E-01;  0.0000000E+00; -7.1581334E-02;  1.0124930E+03;  4.0618384E-01;  1.0349137E+04;3; -4.7114487E+01;  0.0000000E+00; -2.1402449E+01;0;  1.3915803E+00;  9.9631563E+03;  0.0000000E+00; -4.4927947E-05;  1.0000000E+04;  0.0000000E+00;  9.9783867E+03;  9.3741977E-01;  0.0000000E+00;  4.5416057E-01;  9.9739805E+03;
  7.1980798E-01;  9.9999998E-03; -1.0008880E-01;2155; -1.1429326E-01;  0.0000000E+00; -5.9675209E-02;  1.0126008E+03;  4.0618348E-01;  1.0438408E+04;3; -4.6572731E+01;  0.0000000E+00; -2.0346550E+01;0;  1.4012601E+00;  9.9639346E+03;  0.0000000E+00; -3.6547495E-05;  1.0000000E+04;  0.0000000E+00;  9.9797461E+03;  9.1811574E-01;  0.0000000E+00;  4.8314434E-01;  9.2572549E+03;
  7.1981251E-01;  9.9999998E-03; -8.0066822E-02;2156; -1.1136011E-01;  0.0000000E+00; -4.7927901E-02;  1.0127007E+03;  4.0618333E-01;  1.0521262E+04;3; -4.5815933E+01;  0.0000000E+00; -1.8317663E+01;0;  1.4052361E+00;  9.9645625E+03;  0.0000000E+00; -2.7990060E-05;  1.0000000E+04;  0.0000000E+00;  9.9811035E+03;  9.0204453E-01;  0.0000000E+00;  5.0319159E-01;  8.5529512E+03;
  7.1981591E-01;  9.9999998E-03; -6.0047828E-02;2157; -1.0893525E-01;  0.0000000E+00; -3.6320228E-02;  1.0127899E+03;  4.0618303E-01;  1.0595128E+04;3; -4.5032307E+01;  0.0000000E+00; -1.5187133E+01;0;  1.4059979E+00;  9.9650391E+03;  0.0000000E+00; -1.8079891E-05;  1.0000000E+04;  0.0000000E+00;  9.9823896E+03;  8.8931024E-01;  0.0000000E+00;  5.1668763E-01;  7.8908896E+03;
  7.1981835E-01;  9.9999998E-03; -4.0031001E-02;2158; -1.0710512E-01;  0.0000000E+00; -2.4566185E-02;  1.0128612E+03;  4.0618289E-01;  1.0654183E+04;3; -4.4341389E+01;  0.0000000E+00; -1.0928544E+01;0;  1.4055221E+00;  9.9653760E+03;  0.0000000E+00; -8.6481305E-06;  1.0000000E+04;  0.0000000E+00;  9.9834697E+03;  8.8006610E-01;  0.0000000E+00;  5.2545595E-01;  7.3394712E+03;
  7.1981978E-01;  9.9999998E-03; -2.0015303E-02;2159; -1.0595911E-01;  0.0000000E+00; -1.2439159E-02;  1.0129075E+03;  4.0618286E-01;  1.0692498E+04;3; -4.3859997E+01;  0.0000000E+00; -5.7315254E+00;0;  1.4049685E+00;  9.9655762E+03;  0.0000000E+00; -2.2053173E-06;  1.0000000E+04;  0.0000000E+00;  9.9841846E+03;  8.7445515E-01;  0.0000000E+00;  5.3051329E-01;  6.9738442E+03;
  7.3985881E-01;  9.9999998E-03; -1.8020126E-01;2182; -8.3231293E-02;  0.0000000E+00; -1.0599691E-01;  1.0120043E+03;  4.0630314E-01;  9.9439854E+03;3; -3.0834154E+01;  0.0000000E+00; -2.0216965E+01;0;  1.5278897E+00;  9.9533291E+03;  0.0000000E+00;  6.1518280E-05;  1.0000000E+04;  0.0000000E+00;  9.9727256E+03;  1.2054269E+00;  0.0000000E+00;  3.2246277E-01;  1.2916968E+04;
  7.3986477E-01;  9.9999998E-03; -1.6017658E-01;2183; -8.0863789E-02;  0.0000000E+00; -9.8451644E-02;  1.0121370E+03;  4.0630269E-01;  1.0053793E+04;3; -3.1321083E+01;  0.0000000E+00; -2.1785700E+01;0;  1.5606718E+00;  9.9547705E+03;  0.0000000E+00;  1.1498147E-05;  1.0000000E+04;  0.0000000E+00;  9.9739268E+03;  1.1743219E+00;  0.0000000E+00;  3.8634986E-01;  1.2246926E+04;
  7.3987037E-01;  9.9999998E-03; -1.4015001E-01;2184; -7.8305751E-02;  0.0000000E+00; -8.8545270E-02;  1.0122707E+03;  4.0630203E-01;  1.0164588E+04;3; -3.1507248E+01;  0.0000000E+00; -2.2698191E+01;0;  1.5894922E+00;  9.9560957E+03;  0.0000000E+00; -1.3629772E-06;  1.0000000E+04;  0.0000000E+00;  9.9752598E+03;  1.1440766E+00;  0.0000000E+00;  4.4541559E-01;  1.1510418E+04;
  7.3987526E-01;  9.9999998E-03; -1.2012194E-01;2185; -7.5771175E-02;  0.0000000E+00; -7.6625161E-02;  1.0123989E+03;  4.0630171E-01;  1.0270842E+04;3; -3.1402777E+01;  0.0000000E+00; -2.2707674E+01;0;  1.6082561E+00;  9.9572637E+03;  0.0000000E+00; -7.0500287E-06;  1.0000000E+04;  0.0000000E+00;  9.9766396E+03;  1.1160411E+00;  0.0000000E+00;  4.9221510E-01;  1.0763049E+04;
  7.3987937E-01;  9.9999998E-03; -1.0009547E-01;2186; -7.3399283E-02;  0.0000000E+00; -6.4168230E-02;  1.0125207E+03;  4.0630138E-01;  1.0371664E+04;3; -3.1060966E+01;  0.0000000E+00; -2.1805191E+01;0;  1.6167424E+00;  9.9582529E+03;  0.0000000E+00; -1.0056623E-05;  1.0000000E+04;  0.0000000E+00;  9.9780586E+03;  1.0910486E+00;  0.0000000E+00;  5.2569377E-01;  1.0009411E+04;
  7.3988271E-01;  9.9999998E-03; -8.0072030E-02;2187; -7.1285918E-02;  0.0000000E+00; -5.1745072E-02;  1.0126347E+03;  4.0630102E-01;  1.0466166E+04;3; -3.0563370E+01;  0.0000000E+00; -1.9798191E+01;0;  1.6180861E+00;  9.9590557E+03;  0.0000000E+00; -9.9141844E-06;  1.0000000E+04;  0.0000000E+00;  9.9795146E+03;  1.0697194E+00;  0.0000000E+00;  5.4836667E-01;  9.2518838E+03;
  7.3988521E-01;  9.9999998E-03; -6.0051683E-02;2188; -6.9510698E-02;  0.0000000E+00; -3.9340489E-02;  1.0127368E+03;  4.0630075E-01;  1.0550695E+04;3; -3.0011940E+01;  0.0000000E+00; -1.6504332E+01;0;  1.6159041E+00;  9.9596777E+03;  0.0000000E+00; -7.0609917E-06;  1.0000000E+04;  0.0000000E+00;  9.9809170E+03;  1.0525620E+00;  0.0000000E+00;  5.6334209E-01;  8.5316338E+03;
  7.3988700E-01;  9.9999998E-03; -4.0033560E-02;2189; -6.8154819E-02;  0.0000000E+00; -2.6671436E-02;  1.0128183E+03;  4.0630057E-01;  1.0618239E+04;3; -2.9515617E+01;  0.0000000E+00; -1.1916877E+01;0;  1.6129513E+00;  9.9601143E+03;  0.0000000E+00; -3.4460031E-06;  1.0000000E+04;  0.0000000E+00;  9.9820967E+03;  1.0399851E+00;  0.0000000E+00;  5.7296628E-01;  7.9289658E+03;
  7.3988813E-01;  9.9999998E-03; -2.0016586E-02;2190; -6.7299083E-02;  0.0000000E+00; -1.3524026E-02;  1.0128712E+03;  4.0630054E-01;  1.0661984E+04;3; -2.9172297E+01;  0.0000000E+00; -6.2624483E+00;0;  1.6108047E+00;  9.9603750E+03;  0.0000000E+00; -8.7670179E-07;  1.0000000E+04;  0.0000000E+00;  9.9828799E+03;  1.0323036E+00;  0.0000000E+00;  5.7850111E-01;  7.5287056E+03;
  7.5992280E-01;  9.9999998E-03; -1.8020755E-01;2213; -4.6602894E-02;  0.0000000E+00; -1.0819313E-01;  1.0119825E+03;  4.0634763E-01;  9.9253193E+03;3; -1.7826973E+01;  0.0000000E+00; -1.9355824E+01;0;  1.6025487E+00;  9.9516270E+03;  0.0000000E+00;  3.5826812E-05;  1.0000000E+04;  0.0000000E+00;  9.9718252E+03;  1.2754041E+00;  0.0000000E+00;  3.2714465E-01;  1.3340895E+04;
  7.5992596E-01;  9.9999998E-03; -1.6018303E-01;2214; -4.5576010E-02;  0.0000000E+00; -1.0127116E-01;  1.0121104E+03;  4.0634710E-01;  1.0031271E+04;3; -1.8405109E+01;  0.0000000E+00; -2.1463587E+01;0;  1.6429929E+00;  9.9530918E+03;  0.0000000E+00;  2.2860693E-05;  1.0000000E+04;  0.0000000E+00;  9.9729121E+03;  1.2451105E+00;  0.0000000E+00;  3.9788231E-01;  1.2719850E+04;
  7.5992918E-01;  9.9999998E-03; -1.4015608E-01;2215; -4.4290613E-02;  0.0000000E+00; -9.1639027E-02;  1.0122443E+03;  4.0634659E-01;  1.0142260E+04;3; -1.8753740E+01;  0.0000000E+00; -2.2848118E+01;0;  1.6768806E+00;  9.9545068E+03;  0.0000000E+00;  1.6275622E-05;  1.0000000E+04;  0.0000000E+00;  9.9741582E+03;  1.2131096E+00;  0.0000000E+00;  4.6377105E-01;  1.2018634E+04;
  7.5993210E-01;  9.9999998E-03; -1.2012727E-01;2216; -4.2910881E-02;  0.0000000E+00; -7.9713315E-02;  1.0123765E+03;  4.0634617E-01;  1.0251766E+04;3; -1.8874908E+01;  0.0000000E+00; -2.3233561E+01;0;  1.6981686E+00;  9.9557949E+03;  0.0000000E+00;  9.3719973E-06;  1.0000000E+04;  0.0000000E+00;  9.9754902E+03;  1.1818547E+00;  0.0000000E+00;  5.1631391E-01;  1.1286740E+04;
  7.5993460E-01;  9.9999998E-03; -1.0009991E-01;2217; -4.1551396E-02;  0.0000000E+00; -6.7050949E-02;  1.0125046E+03;  4.0634573E-01;  1.0357816E+04;3; -1.8802086E+01;  0.0000000E+00; -2.2579979E+01;0;  1.7071272E+00;  9.9569121E+03;  0.0000000E+00;  3.6701761E-06;  1.0000000E+04;  0.0000000E+00;  9.9769131E+03;  1.1531312E+00;  0.0000000E+00;  5.5399597E-01;  1.0527287E+04;
  7.5993663E-01;  9.9999998E-03; -8.0075569E-02;2218; -4.0291499E-02;  0.0000000E+00; -5.4275744E-02;  1.0126261E+03;  4.0634549E-01;  1.0458437E+04;3; -1.8589020E+01;  0.0000000E+00; -2.0677240E+01;0;  1.7077196E+00;  9.9578262E+03;  0.0000000E+00;  5.1474836E-07;  1.0000000E+04;  0.0000000E+00;  9.9784082E+03;  1.1282073E+00;  0.0000000E+00;  5.7951224E-01;  9.7472422E+03;
  7.5993824E-01;  9.9999998E-03; -6.0054347E-02;2219; -3.9197676E-02;  0.0000000E+00; -4.1393518E-02;  1.0127355E+03;  4.0634516E-01;  1.0549083E+04;3; -1.8304991E+01;  0.0000000E+00; -1.7337488E+01;0;  1.7043507E+00;  9.9585352E+03;  0.0000000E+00; -4.1806845E-07;  1.0000000E+04;  0.0000000E+00;  9.9798662E+03;  1.1079749E+00;  0.0000000E+00;  5.9637582E-01;  8.9964502E+03;
  7.5993943E-01;  9.9999998E-03; -4.0035356E-02;2220; -3.8339954E-02;  0.0000000E+00; -2.8127681E-02;  1.0128231E+03;  4.0634504E-01;  1.0621660E+04;3; -1.8026871E+01;  0.0000000E+00; -1.2564554E+01;0;  1.7003143E+00;  9.9590352E+03;  0.0000000E+00; -3.1712597E-07;  1.0000000E+04;  0.0000000E+00;  9.9811025E+03;  1.0930685E+00;  0.0000000E+00;  6.0724580E-01;  8.3646318E+03;
  7.5994015E-01;  9.9999998E-03; -2.0017495E-02;2221; -3.7788708E-02;  0.0000000E+00; -1.4281899E-02;  1.0128798E+03;  4.0634498E-01;  1.0668662E+04;3; -1.7826195E+01;  0.0000000E+00; -6.6159372E+00;0;  1.6974578E+00;  9.9593350E+03;  0.0000000E+00; -7.5043516E-08;  1.0000000E+04;  0.0000000E+00;  9.9819258E+03;  1.0839370E+00;  0.0000000E+00;  6.1352074E-01;  7.9440449E+03;
  7.7997094E-01;  9.9999998E-03; -1.8021011E-01;2244; -1.8994777E-02;  0.0000000E+00; -1.0860398E-01;  1.0120936E+03;  4.0636382E-01;  1.0016675E+04;3; -8.2200804E+00;  0.0000000E+00; -1.8400209E+01;0;  1.5795921E+00;  9.9534063E+03;  0.0000000E+00;  1.2209744E-05;  1.0000000E+04;  0.0000000E+00;  9.9714502E+03;  1.2517377E+00;  0.0000000E+00;  3.2785442E-01;  1.3519674E+04;
  7.7997196E-01;  9.9999998E-03; -1.6018601E-01;2245; -1.8902915E-02;  0.0000000E+00; -1.0224154E-01;  1.0122145E+03;  4.0636331E-01;  1.0116795E+04;3; -8.6968279E+00;  0.0000000E+00; -2.0873180E+01;0;  1.6254734E+00;  9.9548066E+03;  0.0000000E+00;  1.3002350E-05;  1.0000000E+04;  0.0000000E+00;  9.9724570E+03;  1.2238308E+00;  0.0000000E+00;  4.0164256E-01;  1.2933654E+04;
  7.7997315E-01;  9.9999998E-03; -1.4015909E-01;2246; -1.8597065E-02;  0.0000000E+00; -9.2946440E-02;  1.0123439E+03;  4.0636277E-01;  1.0224022E+04;3; -9.0531998E+00;  0.0000000E+00; -2.2601574E+01;0;  1.6636124E+00;  9.9562148E+03;  0.0000000E+00;  1.1512780E-05;  1.0000000E+04;  0.0000000E+00;  9.9736211E+03;  1.1922102E+00;  0.0000000E+00;  4.7140223E-01;  1.2268140E+04;
  7.7997434E-01;  9.9999998E-03; -1.2013002E-01;2247; -1.8168395E-02;  0.0000000E+00; -8.1161149E-02;  1.0124741E+03;  4.0636230E-01;  1.0331942E+04;3; -9.2789354E+00;  0.0000000E+00; -2.3275768E+01;0;  1.6878912E+00;  9.9575283E+03;  0.0000000E+00;  8.1642938E-06;  1.0000000E+04;  0.0000000E+00;  9.9748916E+03;  1.1600906E+00;  0.0000000E+00;  5.2780074E-01;  1.1563168E+04;
  7.7997535E-01;  9.9999998E-03; -1.0010228E-01;2248; -1.7680727E-02;  0.0000000E+00; -6.8495974E-02;  1.0126024E+03;  4.0636200E-01;  1.0438184E+04;3; -9.3821125E+00;  0.0000000E+00; -2.2833082E+01;0;  1.6986849E+00;  9.9586846E+03;  0.0000000E+00;  4.8312650E-06;  1.0000000E+04;  0.0000000E+00;  9.9762803E+03;  1.1299524E+00;  0.0000000E+00;  5.6873244E-01;  1.0816428E+04;
  7.7997625E-01;  9.9999998E-03; -8.0077514E-02;2249; -1.7179152E-02;  0.0000000E+00; -5.5610064E-02;  1.0127255E+03;  4.0636161E-01;  1.0540080E+04;3; -9.3839788E+00;  0.0000000E+00; -2.1050802E+01;0;  1.7003033E+00;  9.9596348E+03;  0.0000000E+00;  2.5216448E-06;  1.0000000E+04;  0.0000000E+00;  9.9777705E+03;  1.1035235E+00;  0.0000000E+00;  5.9677976E-01;  1.0035949E+04;
  7.7997702E-01;  9.9999998E-03; -6.0055852E-02;2250; -1.6706010E-02;  0.0000000E+00; -4.2519543E-02;  1.0128369E+03;  4.0636137E-01;  1.0632399E+04;3; -9.3177929E+00;  0.0000000E+00; -1.7734722E+01;0;  1.6975126E+00;  9.9603701E+03;  0.0000000E+00;  1.2196813E-06;  1.0000000E+04;  0.0000000E+00;  9.9792412E+03;  1.0819584E+00;  0.0000000E+00;  6.1555421E-01;  9.2767500E+03;
  7.7997756E-01;  9.9999998E-03; -4.0036399E-02;2251; -1.6311316E-02;  0.0000000E+00; -2.8949345E-02;  1.0129267E+03;  4.0636125E-01;  1.0706748E+04;3; -9.2259007E+00;  0.0000000E+00; -1.2892422E+01;0;  1.6938269E+00;  9.9608906E+03;  0.0000000E+00;  5.1240875E-07;  1.0000000E+04;  0.0000000E+00;  9.9804961E+03;  1.0660250E+00;  0.0000000E+00;  6.2780190E-01;  8.6345195E+03;
  7.7997792E-01;  9.9999998E-03; -2.0018028E-02;2252; -1.6047267E-02;  0.0000000E+00; -1.4716905E-02;  1.0129847E+03;  4.0636110E-01;  1.0754733E+04;3; -9.1500950E+00;  0.0000000E+00; -6.8004136E+00;0;  1.6911831E+00;  9.9612031E+03;  0.0000000E+00;  1.3460135E-07;  1.0000000E+04;  0.0000000E+00;  9.9813350E+03;  1.0562494E+00;  0.0000000E+00;  6.3493365E-01;  8.2060869E+03;
  8.0000997E-01;  9.9999998E-03; -1.8020989E-01;2275;  3.6009995E-03;  0.0000000E+00; -1.0789166E-01;  1.0122806E+03;  4.0636852E-01;  1.0170669E+04;3; -2.5057259E-01;  0.0000000E+00; -1.7649496E+01;0;  1.5054543E+00;  9.9568613E+03;  0.0000000E+00;  8.0473484E-07;  1.0000000E+04;  0.0000000E+00;  9.9714434E+03;  1.1785814E+00;  0.0000000E+00;  3.2687300E-01;  1.3517460E+04;
  8.0000919E-01;  9.9999998E-03; -1.6018622E-01;2276;  3.0092020E-03;  0.0000000E+00; -1.0187943E-01;  1.0123950E+03;  4.0636796E-01;  1.0265448E+04;3; -5.5407029E-01;  0.0000000E+00; -2.0270157E+01;0;  1.5536097E+00;  9.9581631E+03;  0.0000000E+00;  1.9773054E-06;  1.0000000E+04;  0.0000000E+00;  9.9724219E+03;  1.1530900E+00;  0.0000000E+00;  4.0051973E-01;  1.2947484E+04;
  8.0000865E-01;  9.9999998E-03; -1.4015952E-01;2277;  2.5438459E-03;  0.0000000E+00; -9.2856690E-02;  1.0125184E+03;  4.0636739E-01;  1.0367632E+04;3; -8.4503222E-01;  0.0000000E+00; -2.2166958E+01;0;  1.5941864E+00;  9.9595098E+03;  0.0000000E+00;  2.2649554E-06;  1.0000000E+04;  0.0000000E+00;  9.9735322E+03;  1.1228647E+00;  0.0000000E+00;  4.7132167E-01;  1.2307799E+04;
  8.0000830E-01;  9.9999998E-03; -1.2013055E-01;2278;  2.1932046E-03;  0.0000000E+00; -8.1258461E-02;  1.0126438E+03;  4.0636694E-01;  1.0471494E+04;3; -1.1030619E+00;  0.0000000E+00; -2.3001183E+01;0;  1.6209121E+00;  9.9607822E+03;  0.0000000E+00;  1.8718597E-06;  1.0000000E+04;  0.0000000E+00;  9.9747471E+03;  1.0914806E+00;  0.0000000E+00;  5.2943146E-01;  1.1629000E+04;
  8.0000806E-01;  9.9999998E-03; -1.0010283E-01;2279;  1.9483464E-03;  0.0000000E+00; -6.8716273E-02;  1.0127683E+03;  4.0636659E-01;  1.0574566E+04;3; -1.3132223E+00;  0.0000000E+00; -2.2696167E+01;0;  1.6339537E+00;  9.9619043E+03;  0.0000000E+00;  1.2862725E-06;  1.0000000E+04;  0.0000000E+00;  9.9760938E+03;  1.0617416E+00;  0.0000000E+00;  5.7221210E-01;  1.0902019E+04;
  8.0000794E-01;  9.9999998E-03; -8.0078036E-02;2280;  1.8006550E-03;  0.0000000E+00; -5.5899523E-02;  1.0128890E+03;  4.0636635E-01;  1.0674577E+04;3; -1.4677474E+00;  0.0000000E+00; -2.1019632E+01;0;  1.6375535E+00;  9.9628340E+03;  0.0000000E+00;  7.9044253E-07;  1.0000000E+04;  0.0000000E+00;  9.9775566E+03;  1.0355617E+00;  0.0000000E+00;  6.0199183E-01;  1.0133694E+04;
  8.0000794E-01;  9.9999998E-03; -6.0056310E-02;2281;  1.7334763E-03;  0.0000000E+00; -4.2819917E-02;  1.0129987E+03;  4.0636611E-01;  1.0765407E+04;3; -1.5680290E+00;  0.0000000E+00; -1.7768454E+01;0;  1.6364396E+00;  9.9635518E+03;  0.0000000E+00;  4.4242071E-07;  1.0000000E+04;  0.0000000E+00;  9.9790127E+03;  1.0141726E+00;  0.0000000E+00;  6.2226695E-01;  9.3809219E+03;
  8.0000794E-01;  9.9999998E-03; -4.0036742E-02;2282;  1.7189591E-03;  0.0000000E+00; -2.9197393E-02;  1.0130873E+03;  4.0636587E-01;  1.0838861E+04;3; -1.6242911E+00;  0.0000000E+00; -1.2946944E+01;0;  1.6340582E+00;  9.9640625E+03;  0.0000000E+00;  2.0264672E-07;  1.0000000E+04;  0.0000000E+00;  9.9802568E+03;  9.9836463E-01;  0.0000000E+00;  6.3569355E-01;  8.7418086E+03;
  8.0000794E-01;  9.9999998E-03; -2.0018214E-02;2283;  1.7264467E-03;  0.0000000E+00; -1.4857181E-02;  1.0131448E+03;  4.0636566E-01;  1.0886350E+04;3; -1.6503091E+00;  0.0000000E+00; -6.8383126E+00;0;  1.6322567E+00;  9.9643672E+03;  0.0000000E+00;  5.3487561E-08;  1.0000000E+04;  0.0000000E+00;  9.9810908E+03;  9.8866528E-01;  0.0000000E+00;  6.4359140E-01;  8.3148447E+03;
  8.2004631E-01;  9.9999998E-03; -1.8020745E-01;2306;  2.5045630E-02;  0.0000000E+00; -1.0639384E-01;  1.0124689E+03;  4.0636072E-01;  1.0325395E+04;3;  7.6290960E+00;  0.0000000E+00; -1.7194798E+01;0;  1.4150760E+00;  9.9606680E+03;  0.0000000E+00; -8.0597988E-07;  1.0000000E+04;  0.0000000E+00;  9.9717178E+03;  1.0899290E+00;  0.0000000E+00;  3.2514697E-01;  1.3373086E+04;
  8.2004404E-01;  9.9999998E-03; -1.6018414E-01;2307;  2.3835920E-02;  0.0000000E+00; -1.0051057E-01;  1.0125789E+03;  4.0636003E-01;  1.0416509E+04;3;  7.4544325E+00;  0.0000000E+00; -1.9767706E+01;0;  1.4622521E+00;  9.9618828E+03;  0.0000000E+00; -2.9994051E-06;  1.0000000E+04;  0.0000000E+00;  9.9727002E+03;  1.0657694E+00;  0.0000000E+00;  3.9648274E-01;  1.2804711E+04;
  8.2004195E-01;  9.9999998E-03; -1.4015782E-01;2308;  2.2689622E-02;  0.0000000E+00; -9.1665551E-02;  1.0126971E+03;  4.0635958E-01;  1.0514337E+04;3;  7.2162580E+00;  0.0000000E+00; -2.1665756E+01;0;  1.5029997E+00;  9.9631455E+03;  0.0000000E+00; -2.4610458E-06;  1.0000000E+04;  0.0000000E+00;  9.9737891E+03;  1.0369159E+00;  0.0000000E+00;  4.6608377E-01;  1.2179896E+04;
  8.2004029E-01;  9.9999998E-03; -1.2012921E-01;2309;  2.1663295E-02;  0.0000000E+00; -8.0264114E-02;  1.0128168E+03;  4.0635914E-01;  1.0613447E+04;3;  6.9405508E+00;  0.0000000E+00; -2.2532314E+01;0;  1.5308819E+00;  9.9643447E+03;  0.0000000E+00; -1.6086275E-06;  1.0000000E+04;  0.0000000E+00;  9.9749619E+03;  1.0069468E+00;  0.0000000E+00;  5.2393508E-01;  1.1521661E+04;
  8.2003897E-01;  9.9999998E-03; -1.0010182E-01;2310;  2.0789351E-02;  0.0000000E+00; -6.7928538E-02;  1.0129359E+03;  4.0635872E-01;  1.0712065E+04;3;  6.6555262E+00;  0.0000000E+00; -2.2285379E+01;0;  1.5456696E+00;  9.9654023E+03;  0.0000000E+00; -1.0204066E-06;  1.0000000E+04;  0.0000000E+00;  9.9762705E+03;  9.7861671E-01;  0.0000000E+00;  5.6705290E-01;  1.0815023E+04;
  8.2003796E-01;  9.9999998E-03; -8.0077328E-02;2311;  2.0085063E-02;  0.0000000E+00; -5.5315595E-02;  1.0130521E+03;  4.0635845E-01;  1.0808313E+04;3;  6.3886833E+00;  0.0000000E+00; -2.0685839E+01;0;  1.5512562E+00;  9.9662764E+03;  0.0000000E+00; -6.5129376E-07;  1.0000000E+04;  0.0000000E+00;  9.9776973E+03;  9.5376199E-01;  0.0000000E+00;  5.9749424E-01;  1.0064707E+04;
  8.2003725E-01;  9.9999998E-03; -6.0055848E-02;2312;  1.9552756E-02;  0.0000000E+00; -4.2420529E-02;  1.0131581E+03;  4.0635824E-01;  1.0896072E+04;3;  6.1619101E+00;  0.0000000E+00; -1.7520428E+01;0;  1.5520654E+00;  9.9669531E+03;  0.0000000E+00; -3.8882339E-07;  1.0000000E+04;  0.0000000E+00;  9.9791201E+03;  9.3351883E-01;  0.0000000E+00;  6.1854649E-01;  9.3271260E+03;
  8.2003677E-01;  9.9999998E-03; -4.0036473E-02;2313;  1.9184172E-02;  0.0000000E+00; -2.8953947E-02;  1.0132440E+03;  4.0635803E-01;  1.0967246E+04;3;  5.9905715E+00;  0.0000000E+00; -1.2784872E+01;0;  1.5512795E+00;  9.9674346E+03;  0.0000000E+00; -1.8546505E-07;  1.0000000E+04;  0.0000000E+00;  9.9803428E+03;  9.1859514E-01;  0.0000000E+00;  6.3268435E-01;  8.6998770E+03;
  8.2003647E-01;  9.9999998E-03; -2.0018095E-02;2314;  1.8968288E-02;  0.0000000E+00; -1.4743202E-02;  1.0132996E+03;  4.0635791E-01;  1.1013248E+04;3;  5.8843131E+00;  0.0000000E+00; -6.7587399E+00;0;  1.5505338E+00;  9.9677197E+03;  0.0000000E+00; -4.9101288E-08;  1.0000000E+04;  0.0000000E+00;  9.9811611E+03;  9.0945488E-01;  0.0000000E+00;  6.4107889E-01;  8.2806182E+03;
  8.4008342E-01;  9.9999998E-03; -1.8020296E-01;2337;  4.7160175E-02;  0.0000000E+00; -1.0413899E-01;  1.0124279E+03;  4.0625763E-01;  1.0289732E+04;3;  1.6061380E+01;  0.0000000E+00; -1.6949450E+01;0;  1.3198488E+00;  9.9643994E+03;  0.0000000E+00;  3.2333278E-06;  1.0000000E+04;  0.0000000E+00;  9.9722422E+03;  9.9743879E-01;  0.0000000E+00;  3.2240993E-01;  1.3099000E+04;
  8.4007961E-01;  9.9999998E-03; -1.6018008E-01;2338;  4.5278795E-02;  0.0000000E+00; -9.8269284E-02;  1.0125365E+03;  4.0625700E-01;  1.0379647E+04;3;  1.5906451E+01;  0.0000000E+00; -1.9349556E+01;0;  1.3634053E+00;  9.9655576E+03;  0.0000000E+00; -3.0508240E-06;  1.0000000E+04;  0.0000000E+00;  9.9732422E+03;  9.7314864E-01;  0.0000000E+00;  3.9025673E-01;  1.2527167E+04;
  8.4007615E-01;  9.9999998E-03; -1.4015429E-01;2339;  4.3457214E-02;  0.0000000E+00; -8.9549780E-02;  1.0126506E+03;  4.0625647E-01;  1.0474104E+04;3;  1.5656265E+01;  0.0000000E+00; -2.1127745E+01;0;  1.4022460E+00;  9.9667529E+03;  0.0000000E+00; -2.5417576E-06;  1.0000000E+04;  0.0000000E+00;  9.9743193E+03;  9.4509703E-01;  0.0000000E+00;  4.5714891E-01;  1.1911581E+04;
  8.4007329E-01;  9.9999998E-03; -1.2012628E-01;2340;  4.1800350E-02;  0.0000000E+00; -7.8367300E-02;  1.0127648E+03;  4.0625614E-01;  1.0568659E+04;3;  1.5335678E+01;  0.0000000E+00; -2.1930744E+01;0;  1.4297888E+00;  9.9678740E+03;  0.0000000E+00; -1.5093083E-06;  1.0000000E+04;  0.0000000E+00;  9.9754717E+03;  9.1657829E-01;  0.0000000E+00;  5.1321048E-01;  1.1269966E+04;
  8.4007090E-01;  9.9999998E-03; -1.0009950E-01;2341;  4.0361147E-02;  0.0000000E+00; -6.6311590E-02;  1.0128785E+03;  4.0625572E-01;  1.0662818E+04;3;  1.4976557E+01;  0.0000000E+00; -2.1678795E+01;0;  1.4453267E+00;  9.9688545E+03;  0.0000000E+00; -9.9559441E-07;  1.0000000E+04;  0.0000000E+00;  9.9767441E+03;  8.9000410E-01;  0.0000000E+00;  5.5532259E-01;  1.0583146E+04;
  8.4006912E-01;  9.9999998E-03; -8.0075577E-02;2342;  3.9166965E-02;  0.0000000E+00; -5.4011632E-02;  1.0129893E+03;  4.0625551E-01;  1.0754511E+04;3;  1.4614343E+01;  0.0000000E+00; -2.0129536E+01;0;  1.4522638E+00;  9.9696641E+03;  0.0000000E+00; -7.7527545E-07;  1.0000000E+04;  0.0000000E+00;  9.9781328E+03;  8.6692971E-01;  0.0000000E+00;  5.8533412E-01;  9.8538740E+03;
  8.4006780E-01;  9.9999998E-03; -6.0054611E-02;2343;  3.8229428E-02;  0.0000000E+00; -4.1441370E-02;  1.0130908E+03;  4.0625519E-01;  1.0838504E+04;3;  1.4284950E+01;  0.0000000E+00; -1.7061054E+01;0;  1.4545996E+00;  9.9702881E+03;  0.0000000E+00; -5.6523766E-07;  1.0000000E+04;  0.0000000E+00;  9.9795176E+03;  8.4827840E-01;  0.0000000E+00;  6.0632122E-01;  9.1368311E+03;
  8.4006691E-01;  9.9999998E-03; -4.0035684E-02;2344;  3.7553396E-02;  0.0000000E+00; -2.8301027E-02;  1.0131730E+03;  4.0625504E-01;  1.0906606E+04;3;  1.4021472E+01;  0.0000000E+00; -1.2458161E+01;0;  1.4551681E+00;  9.9707305E+03;  0.0000000E+00; -3.0238763E-07;  1.0000000E+04;  0.0000000E+00;  9.9807080E+03;  8.3460027E-01;  0.0000000E+00;  6.2056786E-01;  8.5271221E+03;
  8.4006637E-01;  9.9999998E-03; -2.0017710E-02;2345;  3.7143853E-02;  0.0000000E+00; -1.4416433E-02;  1.0132264E+03;  4.0625489E-01;  1.0950824E+04;3;  1.3851072E+01;  0.0000000E+00; -6.5890379E+00;0;  1.4553409E+00;  9.9709912E+03;  0.0000000E+00; -8.1795086E-08;  1.0000000E+04;  0.0000000E+00;  9.9815059E+03;  8.2624900E-01;  0.0000000E+00;  6.2909180E-01;  8.1197231E+03;
  8.6012089E-01;  9.9999998E-03; -1.8019642E-01;2368;  6.9612443E-02;  0.0000000E+00; -1.0102192E-01;  1.0121621E+03;  4.0605488E-01;  1.0067383E+04;3;  2.4825310E+01;  0.0000000E+00; -1.6753468E+01;0;  1.2119021E+00;  9.9683467E+03;  0.0000000E+00;  9.3169483E-06;  1.0000000E+04;  0.0000000E+00;  9.9730186E+03;  8.9411253E-01;  0.0000000E+00;  3.1778955E-01;  1.2693164E+04;
  8.6011553E-01;  9.9999998E-03; -1.6017415E-01;2369;  6.6984229E-02;  0.0000000E+00; -9.5153220E-02;  1.0122703E+03;  4.0605423E-01;  1.0156982E+04;3;  2.4579330E+01;  0.0000000E+00; -1.8920528E+01;0;  1.2501235E+00;  9.9694922E+03;  0.0000000E+00; -2.1962308E-06;  1.0000000E+04;  0.0000000E+00;  9.9740322E+03;  8.6846435E-01;  0.0000000E+00;  3.8165912E-01;  1.2121806E+04;
  8.6011076E-01;  9.9999998E-03; -1.4014909E-01;2370;  6.4470276E-02;  0.0000000E+00; -8.6575665E-02;  1.0123814E+03;  4.0605378E-01;  1.0248950E+04;3;  2.4243757E+01;  0.0000000E+00; -2.0513819E+01;0;  1.2855899E+00;  9.9706348E+03;  0.0000000E+00; -1.6995390E-06;  1.0000000E+04;  0.0000000E+00;  9.9751025E+03;  8.4061664E-01;  0.0000000E+00;  4.4497329E-01;  1.1517117E+04;
  8.6010677E-01;  9.9999998E-03; -1.2012193E-01;2371;  6.2204413E-02;  0.0000000E+00; -7.5669982E-02;  1.0124913E+03;  4.0605348E-01;  1.0339833E+04;3;  2.3838026E+01;  0.0000000E+00; -2.1199961E+01;0;  1.3115706E+00;  9.9716816E+03;  0.0000000E+00; -5.5760933E-07;  1.0000000E+04;  0.0000000E+00;  9.9762275E+03;  8.1336194E-01;  0.0000000E+00;  4.9820870E-01;  1.0893029E+04;
  8.6010349E-01;  9.9999998E-03; -1.0009602E-01;2372;  6.0241446E-02;  0.0000000E+00; -6.3977145E-02;  1.0125993E+03;  4.0605322E-01;  1.0429334E+04;3;  2.3389727E+01;  0.0000000E+00; -2.0906815E+01;0;  1.3268776E+00;  9.9725898E+03;  0.0000000E+00; -2.9053976E-07;  1.0000000E+04;  0.0000000E+00;  9.9774678E+03;  7.8858638E-01;  0.0000000E+00;  5.3829122E-01;  1.0227863E+04;
  8.6010098E-01;  9.9999998E-03; -8.0072924E-02;2373;  5.8605373E-02;  0.0000000E+00; -5.2092038E-02;  1.0127048E+03;  4.0605289E-01;  1.0516565E+04;3;  2.2933960E+01;  0.0000000E+00; -1.9393507E+01;0;  1.3343749E+00;  9.9733330E+03;  0.0000000E+00; -4.6005252E-07;  1.0000000E+04;  0.0000000E+00;  9.9788164E+03;  7.6742560E-01;  0.0000000E+00;  5.6694925E-01;  9.5230068E+03;
  8.6009914E-01;  9.9999998E-03; -6.0052693E-02;2374;  5.7308499E-02;  0.0000000E+00; -3.9968841E-02;  1.0128011E+03;  4.0605271E-01;  1.0596396E+04;3;  2.2512711E+01;  0.0000000E+00; -1.6433514E+01;0;  1.3376060E+00;  9.9739004E+03;  0.0000000E+00; -5.2062921E-07;  1.0000000E+04;  0.0000000E+00;  9.9801572E+03;  7.5051087E-01;  0.0000000E+00;  5.8709514E-01;  8.8309951E+03;
  8.6009789E-01;  9.9999998E-03; -4.0034436E-02;2375;  5.6362618E-02;  0.0000000E+00; -2.7300190E-02;  1.0128795E+03;  4.0605253E-01;  1.0661228E+04;3;  2.2170010E+01;  0.0000000E+00; -1.2000941E+01;0;  1.3390574E+00;  9.9743027E+03;  0.0000000E+00; -3.2885109E-07;  1.0000000E+04;  0.0000000E+00;  9.9813086E+03;  7.3819619E-01;  0.0000000E+00;  6.0086131E-01;  8.2433555E+03;
  8.6009711E-01;  9.9999998E-03; -2.0017093E-02;2376;  5.5784125E-02;  0.0000000E+00; -1.3908993E-02;  1.0129303E+03;  4.0605244E-01;  1.0703264E+04;3;  2.1945669E+01;  0.0000000E+00; -6.3480773E+00;0;  1.3398565E+00;  9.9745410E+03;  0.0000000E+00; -9.8589538E-08;  1.0000000E+04;  0.0000000E+00;  9.9820771E+03;  7.3070997E-01;  0.0000000E+00;  6.0914654E-01;  7.8511226E+03;
  8.8015634E-01;  9.9999998E-03; -1.8018788E-01;2399;  9.0959504E-02;  0.0000000E+00; -9.6940488E-02;  1.0117266E+03;  4.0576404E-01;  9.7039883E+03;3;  3.3310139E+01;  0.0000000E+00; -1.6454756E+01;0;  1.0778003E+00;  9.9730215E+03;  0.0000000E+00;  1.2437025E-05;  1.0000000E+04;  0.0000000E+00;  9.9740615E+03;  7.6733565E-01;  0.0000000E+00;  3.1046459E-01;  1.2153171E+04;
  8.8014954E-01;  9.9999998E-03; -1.6016644E-01;2400;  8.7563887E-02;  0.0000000E+00; -9.1136009E-02;  1.0118353E+03;  4.0576348E-01;  9.7938574E+03;3;  3.2904167E+01;  0.0000000E+00; -1.8375546E+01;0;  1.1098989E+00;  9.9741768E+03;  0.0000000E+00; -4.8868219E-06;  1.0000000E+04;  0.0000000E+00;  9.9750684E+03;  7.3967975E-01;  0.0000000E+00;  3.7021914E-01;  1.1591862E+04;
  8.8014352E-01;  9.9999998E-03; -1.4014237E-01;2401;  8.4371090E-02;  0.0000000E+00; -8.2772620E-02;  1.0119434E+03;  4.0576324E-01;  9.8833311E+03;3;  3.2434917E+01;  0.0000000E+00; -1.9764332E+01;0;  1.1413194E+00;  9.9752803E+03;  0.0000000E+00; -3.4477891E-06;  1.0000000E+04;  0.0000000E+00;  9.9761182E+03;  7.1180779E-01;  0.0000000E+00;  4.2951158E-01;  1.1005463E+04;
  8.8013846E-01;  9.9999998E-03; -1.2011633E-01;2402;  8.1529580E-02;  0.0000000E+00; -7.2232947E-02;  1.0120480E+03;  4.0576288E-01;  9.9699453E+03;3;  3.1914648E+01;  0.0000000E+00; -2.0316734E+01;0;  1.1651433E+00;  9.9762607E+03;  0.0000000E+00; -1.3898359E-06;  1.0000000E+04;  0.0000000E+00;  9.9772119E+03;  6.8584210E-01;  0.0000000E+00;  4.7930118E-01;  1.0404587E+04;
  8.8013440E-01;  9.9999998E-03; -1.0009154E-01;2403;  7.9084694E-02;  0.0000000E+00; -6.0998023E-02;  1.0121501E+03;  4.0576252E-01;  1.0054487E+04;3;  3.1362642E+01;  0.0000000E+00; -1.9971420E+01;0;  1.1796850E+00;  9.9770898E+03;  0.0000000E+00; -7.3868244E-07;  1.0000000E+04;  0.0000000E+00;  9.9784092E+03;  6.6300303E-01;  0.0000000E+00;  5.1668197E-01;  9.7661514E+03;
  8.8013130E-01;  9.9999998E-03; -8.0069475E-02;2404;  7.7050149E-02;  0.0000000E+00; -4.9628764E-02;  1.0122494E+03;  4.0576240E-01;  1.0136563E+04;3;  3.0809631E+01;  0.0000000E+00; -1.8494299E+01;0;  1.1872401E+00;  9.9777598E+03;  0.0000000E+00; -8.5384659E-07;  1.0000000E+04;  0.0000000E+00;  9.9797119E+03;  6.4391488E-01;  0.0000000E+00;  5.4332525E-01;  9.0908125E+03;
  8.8012898E-01;  9.9999998E-03; -6.0050186E-02;2405;  7.5433895E-02;  0.0000000E+00; -3.8065147E-02;  1.0123403E+03;  4.0576223E-01;  1.0211832E+04;3;  3.0299797E+01;  0.0000000E+00; -1.5659655E+01;0;  1.1909057E+00;  9.9782676E+03;  0.0000000E+00; -8.5577852E-07;  1.0000000E+04;  0.0000000E+00;  9.9810039E+03;  6.2887043E-01;  0.0000000E+00;  5.6203526E-01;  8.4290049E+03;
  8.8012737E-01;  9.9999998E-03; -4.0032793E-02;2406;  7.4250773E-02;  0.0000000E+00; -2.5997227E-02;  1.0124139E+03;  4.0576208E-01;  1.0272697E+04;3;  2.9884380E+01;  0.0000000E+00; -1.1432675E+01;0;  1.1928668E+00;  9.9786289E+03;  0.0000000E+00; -5.2631651E-07;  1.0000000E+04;  0.0000000E+00;  9.9821055E+03;  6.1801630E-01;  0.0000000E+00;  5.7485044E-01;  7.8680918E+03;
  8.8012642E-01;  9.9999998E-03; -2.0016277E-02;2407;  7.3524699E-02;  0.0000000E+00; -1.3245255E-02;  1.0124618E+03;  4.0576190E-01;  1.0312354E+04;3;  2.9611662E+01;  0.0000000E+00; -6.0470600E+00;0;  1.1940496E+00;  9.9788398E+03;  0.0000000E+00; -1.5053054E-07;  1.0000000E+04;  0.0000000E+00;  9.9828428E+03;  6.1145282E-01;  0.0000000E+00;  5.8259684E-01;  7.4942910E+03;
  9.0018702E-01;  9.9999998E-03; -1.8017747E-01;2430;  1.0963290E-01;  0.0000000E+00; -9.1886334E-02;  1.0111700E+03;  4.0540105E-01;  9.2396426E+03;3;  4.0915440E+01;  0.0000000E+00; -1.5960214E+01;0;  9.1283500E-01;  9.9786260E+03;  0.0000000E+00;  7.3691485E-06;  1.0000000E+04;  0.0000000E+00;  9.9753525E+03;  6.1273664E-01;  0.0000000E+00;  3.0009839E-01;  1.1485609E+04;
  9.0017891E-01;  9.9999998E-03; -1.6015711E-01;2431;  1.0552780E-01;  0.0000000E+00; -8.6245261E-02;  1.0112782E+03;  4.0540057E-01;  9.3290811E+03;3;  4.0337067E+01;  0.0000000E+00; -1.7647017E+01;0;  9.3901402E-01;  9.9797979E+03;  0.0000000E+00; -1.2528551E-05;  1.0000000E+04;  0.0000000E+00;  9.9763359E+03;  5.8328122E-01;  0.0000000E+00;  3.5573280E-01;  1.0945835E+04;
  9.0017182E-01;  9.9999998E-03; -1.4013429E-01;2432;  1.0171267E-01;  0.0000000E+00; -7.8194357E-02;  1.0113821E+03;  4.0540037E-01;  9.4150693E+03;3;  3.9724045E+01;  0.0000000E+00; -1.8837820E+01;0;  9.6666336E-01;  9.9808496E+03;  0.0000000E+00; -8.5447964E-06;  1.0000000E+04;  0.0000000E+00;  9.9773477E+03;  5.5586118E-01;  0.0000000E+00;  4.1080216E-01;  1.0387717E+04;
  9.0016586E-01;  9.9999998E-03; -1.2010962E-01;2433;  9.8341696E-02;  0.0000000E+00; -6.8122208E-02;  1.0114798E+03;  4.0540010E-01;  9.4959287E+03;3;  3.9081043E+01;  0.0000000E+00; -1.9261133E+01;0;  9.8855627E-01;  9.9817451E+03;  0.0000000E+00; -4.4452854E-06;  1.0000000E+04;  0.0000000E+00;  9.9783926E+03;  5.3173327E-01;  0.0000000E+00;  4.5682299E-01;  9.8183506E+03;
  9.0016109E-01;  9.9999998E-03; -1.0008616E-01;2434;  9.5450237E-02;  0.0000000E+00; -5.7442930E-02;  1.0115747E+03;  4.0539971E-01;  9.5744219E+03;3;  3.8418385E+01;  0.0000000E+00; -1.8868853E+01;0;  1.0024633E+00;  9.9824795E+03;  0.0000000E+00; -2.7016199E-06;  1.0000000E+04;  0.0000000E+00;  9.9795410E+03;  5.1134366E-01;  0.0000000E+00;  4.9111968E-01;  9.2138076E+03;
  9.0015739E-01;  9.9999998E-03; -8.0065340E-02;2435;  9.3042821E-02;  0.0000000E+00; -4.6686616E-02;  1.0116664E+03;  4.0539956E-01;  9.6502520E+03;3;  3.7763535E+01;  0.0000000E+00; -1.7438713E+01;0;  1.0100992E+00;  9.9830615E+03;  0.0000000E+00; -2.1820817E-06;  1.0000000E+04;  0.0000000E+00;  9.9807813E+03;  4.9475381E-01;  0.0000000E+00;  5.1534539E-01;  8.5745176E+03;
  9.0015459E-01;  9.9999998E-03; -6.0047168E-02;2436;  9.1127187E-02;  0.0000000E+00; -3.5785921E-02;  1.0117505E+03;  4.0539950E-01;  9.7197705E+03;3;  3.7163906E+01;  0.0000000E+00; -1.4751136E+01;0;  1.0141337E+00;  9.9835010E+03;  0.0000000E+00; -1.7037485E-06;  1.0000000E+04;  0.0000000E+00;  9.9820127E+03;  4.8190123E-01;  0.0000000E+00;  5.3223252E-01;  7.9489087E+03;
  9.0015268E-01;  9.9999998E-03; -4.0030811E-02;2437;  8.9722596E-02;  0.0000000E+00; -2.4433365E-02;  1.0118188E+03;  4.0539929E-01;  9.7763721E+03;3;  3.6676620E+01;  0.0000000E+00; -1.0764726E+01;0;  1.0165038E+00;  9.9838066E+03;  0.0000000E+00; -9.5081487E-07;  1.0000000E+04;  0.0000000E+00;  9.9830586E+03;  4.7272953E-01;  0.0000000E+00;  5.4377425E-01;  7.4197598E+03;
  9.0015155E-01;  9.9999998E-03; -2.0015292E-02;2438;  8.8859417E-02;  0.0000000E+00; -1.2447035E-02;  1.0118632E+03;  4.0539932E-01;  9.8130547E+03;3;  3.6357212E+01;  0.0000000E+00; -5.6928444E+00;0;  1.0179901E+00;  9.9839883E+03;  0.0000000E+00; -2.6052638E-07;  1.0000000E+04;  0.0000000E+00;  9.9837598E+03;  4.6722037E-01;  0.0000000E+00;  5.5076969E-01;  7.0677861E+03;
  9.2020774E-01;  9.9999998E-03; -1.8016554E-01;2461;  1.2248821E-01;  0.0000000E+00; -8.6022884E-02;  1.0105194E+03;  4.0498438E-01;  8.6966748E+03;3;  4.6615379E+01;  0.0000000E+00; -1.5277177E+01;0;  7.2839642E-01;  9.9848057E+03;  0.0000000E+00; -4.2842685E-06;  1.0000000E+04;  0.0000000E+00;  9.9768604E+03;  4.4143429E-01;  0.0000000E+00;  2.8696212E-01;  1.0708880E+04;
  9.2019737E-01;  9.9999998E-03; -1.6014650E-01;2462;  1.1703898E-01;  0.0000000E+00; -8.0594853E-02;  1.0106249E+03;  4.0498421E-01;  8.7838975E+03;3;  4.5641933E+01;  0.0000000E+00; -1.6727491E+01;0;  7.4993253E-01;  9.9859619E+03;  0.0000000E+00; -2.1032327E-05;  1.0000000E+04;  0.0000000E+00;  9.9777959E+03;  4.1141555E-01;  0.0000000E+00;  3.3851698E-01;  1.0201048E+04;
  9.2018861E-01;  9.9999998E-03; -1.4012511E-01;2463;  1.1219355E-01;  0.0000000E+00; -7.2930403E-02;  1.0107213E+03;  4.0498388E-01;  8.8635303E+03;3;  4.4643139E+01;  0.0000000E+00; -1.7711979E+01;0;  7.7494502E-01;  9.9869287E+03;  0.0000000E+00; -1.3588243E-05;  1.0000000E+04;  0.0000000E+00;  9.9787500E+03;  3.8564831E-01;  0.0000000E+00;  3.8929674E-01;  9.6806865E+03;
  9.2018133E-01;  9.9999998E-03; -1.2010205E-01;2464;  1.0799370E-01;  0.0000000E+00; -6.3430287E-02;  1.0108098E+03;  4.0498361E-01;  8.9367588E+03;3;  4.3688416E+01;  0.0000000E+00; -1.8007315E+01;0;  7.9578853E-01;  9.9877080E+03;  0.0000000E+00; -7.6201759E-06;  1.0000000E+04;  0.0000000E+00;  9.9797344E+03;  3.6437556E-01;  0.0000000E+00;  4.3141297E-01;  9.1510586E+03;
  9.2017537E-01;  9.9999998E-03; -1.0008020E-01;2465;  1.0439456E-01;  0.0000000E+00; -5.3421527E-02;  1.0108953E+03;  4.0498343E-01;  9.0074238E+03;3;  4.2781078E+01;  0.0000000E+00; -1.7575417E+01;0;  8.0969203E-01;  9.9883184E+03;  0.0000000E+00; -4.8142574E-06;  1.0000000E+04;  0.0000000E+00;  9.9808125E+03;  3.4724489E-01;  0.0000000E+00;  4.6244711E-01;  8.5877441E+03;
  9.2017061E-01;  9.9999998E-03; -8.0060855E-02;2466;  1.0138863E-01;  0.0000000E+00; -4.3391280E-02;  1.0109775E+03;  4.0498328E-01;  9.0754268E+03;3;  4.1945065E+01;  0.0000000E+00; -1.6205017E+01;0;  8.1781602E-01;  9.9887852E+03;  0.0000000E+00; -3.5944840E-06;  1.0000000E+04;  0.0000000E+00;  9.9819814E+03;  3.3377025E-01;  0.0000000E+00;  4.8404580E-01;  7.9912705E+03;
  9.2016703E-01;  9.9999998E-03; -6.0043979E-02;2467;  9.9003837E-02;  0.0000000E+00; -3.3255327E-02;  1.0110535E+03;  4.0498313E-01;  9.1383047E+03;3;  4.1218155E+01;  0.0000000E+00; -1.3688673E+01;0;  8.2245302E-01;  9.9891309E+03;  0.0000000E+00; -2.5419881E-06;  1.0000000E+04;  0.0000000E+00;  9.9831445E+03;  3.2356143E-01;  0.0000000E+00;  4.9889162E-01;  7.4079478E+03;
  9.2016453E-01;  9.9999998E-03; -4.0028762E-02;2468;  9.7266912E-02;  0.0000000E+00; -2.2706250E-02;  1.0111151E+03;  4.0498307E-01;  9.1891592E+03;3;  4.0652798E+01;  0.0000000E+00; -9.9822712E+00;0;  8.2534242E-01;  9.9893701E+03;  0.0000000E+00; -1.3343097E-06;  1.0000000E+04;  0.0000000E+00;  9.9841279E+03;  3.1637868E-01;  0.0000000E+00;  5.0896376E-01;  6.9154785E+03;
  9.2016304E-01;  9.9999998E-03; -2.0014288E-02;2469;  9.6214488E-02;  0.0000000E+00; -1.1568150E-02;  1.0111552E+03;  4.0498295E-01;  9.2222744E+03;3;  4.0293888E+01;  0.0000000E+00; -5.2786784E+00;0;  8.2716775E-01;  9.9895078E+03;  0.0000000E+00; -3.6744444E-07;  1.0000000E+04;  0.0000000E+00;  9.9847832E+03;  3.1210050E-01;  0.0000000E+00;  5.1506728E-01;  6.5885156E+03;
  9.4021249E-01;  9.9999998E-03; -1.8015277E-01;2492;  1.2519474E-01;  0.0000000E+00; -7.9684243E-02;  1.0097828E+03;  4.0453431E-01;  8.0817451E+03;3;  4.8027534E+01;  0.0000000E+00; -1.4536039E+01;0;  5.4765505E-01;  9.9907988E+03;  0.0000000E+00; -1.2811126E-05;  1.0000000E+04;  0.0000000E+00;  9.9785186E+03;  2.7592483E-01;  0.0000000E+00;  2.7173021E-01;  9.8505977E+03;
  9.4020104E-01;  9.9999998E-03; -1.6013509E-01;2493;  1.1925161E-01;  0.0000000E+00; -7.4453719E-02;  1.0098823E+03;  4.0453413E-01;  8.1639805E+03;3;  4.6870090E+01;  0.0000000E+00; -1.5681490E+01;0;  5.6622094E-01;  9.9918984E+03;  0.0000000E+00; -2.2874161E-05;  1.0000000E+04;  0.0000000E+00;  9.9793926E+03;  2.4695913E-01;  0.0000000E+00;  3.1926179E-01;  9.3821064E+03;
  9.4019157E-01;  9.9999998E-03; -1.4011528E-01;2494;  1.1407892E-01;  0.0000000E+00; -6.7218326E-02;  1.0099691E+03;  4.0453389E-01;  8.2356777E+03;3;  4.5760754E+01;  0.0000000E+00; -1.6442766E+01;0;  5.8981681E-01;  9.9927432E+03;  0.0000000E+00; -1.4011694E-05;  1.0000000E+04;  0.0000000E+00;  9.9802744E+03;  2.2404069E-01;  0.0000000E+00;  3.6577609E-01;  8.9063779E+03;
  9.4018376E-01;  9.9999998E-03; -1.2009400E-01;2495;  1.0963100E-01;  0.0000000E+00; -5.8372390E-02;  1.0100467E+03;  4.0453374E-01;  8.2997920E+03;3;  4.4734604E+01;  0.0000000E+00; -1.6619921E+01;0;  6.1040956E-01;  9.9933770E+03;  0.0000000E+00; -8.0546679E-06;  1.0000000E+04;  0.0000000E+00;  9.9811826E+03;  2.0642675E-01;  0.0000000E+00;  4.0398279E-01;  8.4227344E+03;
  9.4017738E-01;  9.9999998E-03; -1.0007392E-01;2496;  1.0583757E-01;  0.0000000E+00; -4.9109247E-02;  1.0101204E+03;  4.0453357E-01;  8.3606553E+03;3;  4.3772919E+01;  0.0000000E+00; -1.6152443E+01;0;  6.2478614E-01;  9.9938389E+03;  0.0000000E+00; -5.2876767E-06;  1.0000000E+04;  0.0000000E+00;  9.9821865E+03;  1.9306791E-01;  0.0000000E+00;  4.3171826E-01;  7.9066548E+03;
  9.4017231E-01;  9.9999998E-03; -8.0056161E-02;2497;  1.0268692E-01;  0.0000000E+00; -3.9865579E-02;  1.0101923E+03;  4.0453351E-01;  8.4200420E+03;3;  4.2894123E+01;  0.0000000E+00; -1.4846293E+01;0;  6.3365608E-01;  9.9941777E+03;  0.0000000E+00; -3.9223014E-06;  1.0000000E+04;  0.0000000E+00;  9.9832725E+03;  1.8303457E-01;  0.0000000E+00;  4.5062152E-01;  7.3588359E+03;
  9.4016850E-01;  9.9999998E-03; -6.0040656E-02;2498;  1.0019619E-01;  0.0000000E+00; -3.0539379E-02;  1.0102587E+03;  4.0453342E-01;  8.4748965E+03;3;  4.2146717E+01;  0.0000000E+00; -1.2513927E+01;0;  6.3900530E-01;  9.9944150E+03;  0.0000000E+00; -2.7208459E-06;  1.0000000E+04;  0.0000000E+00;  9.9843535E+03;  1.7567602E-01;  0.0000000E+00;  4.6332926E-01;  6.8230435E+03;
  9.4016582E-01;  9.9999998E-03; -4.0026631E-02;2499;  9.8398082E-02;  0.0000000E+00; -2.0844849E-02;  1.0103132E+03;  4.0453333E-01;  8.5199043E+03;3;  4.1572102E+01;  0.0000000E+00; -9.1146078E+00;0;  6.4243233E-01;  9.9945762E+03;  0.0000000E+00; -1.3978832E-06;  1.0000000E+04;  0.0000000E+00;  9.9852686E+03;  1.7060933E-01;  0.0000000E+00;  4.7182301E-01;  6.3713301E+03;
  9.4016421E-01;  9.9999998E-03; -2.0013237E-02;2500;  9.7312674E-02;  0.0000000E+00; -1.0616039E-02;  1.0103483E+03;  4.0453333E-01;  8.5489570E+03;3;  4.1206024E+01;  0.0000000E+00; -4.8168435E+00;0;  6.4457476E-01;  9.9946699E+03;  0.0000000E+00; -3.7277306E-07;  1.0000000E+04;  0.0000000E+00;  9.9858760E+03;  1.6763194E-01;  0.0000000E+00;  4.7694281E-01;  6.0718828E+03;
  9.6021140E-01;  9.9999998E-03; -1.8013965E-01;2523;  1.2493967E-01;  0.0000000E+00; -7.3239252E-02;  1.0089686E+03;  4.0407047E-01;  7.4017651E+03;3;  4.8327770E+01;  0.0000000E+00; -1.3855900E+01;0;  3.9223737E-01;  9.9958750E+03;  0.0000000E+00; -1.0658675E-05;  1.0000000E+04;  0.0000000E+00;  9.9802471E+03;  1.3713883E-01;  0.0000000E+00;  2.5509852E-01;  8.9428760E+03;
  9.6019971E-01;  9.9999998E-03; -1.6012338E-01;2524;  1.1885992E-01;  0.0000000E+00; -6.8180509E-02;  1.0090604E+03;  4.0407014E-01;  7.4775249E+03;3;  4.7122398E+01;  0.0000000E+00; -1.4666205E+01;0;  4.0893584E-01;  9.9968926E+03;  0.0000000E+00; -1.5012901E-05;  1.0000000E+04;  0.0000000E+00;  9.9810547E+03;  1.1022823E-01;  0.0000000E+00;  2.9870763E-01;  8.5175840E+03;
  9.6019000E-01;  9.9999998E-03; -1.4010517E-01;2525;  1.1358918E-01;  0.0000000E+00; -6.1408531E-02;  1.0091368E+03;  4.0407008E-01;  7.5405933E+03;3;  4.5987808E+01;  0.0000000E+00; -1.5200974E+01;0;  4.3163916E-01;  9.9976064E+03;  0.0000000E+00; -8.6898517E-06;  1.0000000E+04;  0.0000000E+00;  9.9818564E+03;  9.0563037E-02;  0.0000000E+00;  3.4107614E-01;  8.0898408E+03;
  9.6018201E-01;  9.9999998E-03; -1.2008575E-01;2526;  1.0906854E-01;  0.0000000E+00; -5.3227536E-02;  1.0092026E+03;  4.0406990E-01;  7.5949043E+03;3;  4.4904350E+01;  0.0000000E+00; -1.5239765E+01;0;  4.5209584E-01;  9.9980879E+03;  0.0000000E+00; -5.2342652E-06;  1.0000000E+04;  0.0000000E+00;  9.9826895E+03;  7.6599725E-02;  0.0000000E+00;  3.7549612E-01;  7.6555620E+03;
  9.6017557E-01;  9.9999998E-03; -1.0006744E-01;2527;  1.0522866E-01;  0.0000000E+00; -4.4697903E-02;  1.0092650E+03;  4.0406984E-01;  7.6464600E+03;3;  4.3902023E+01;  0.0000000E+00; -1.4715936E+01;0;  4.6681875E-01;  9.9984063E+03;  0.0000000E+00; -3.7582608E-06;  1.0000000E+04;  0.0000000E+00;  9.9836045E+03;  6.6784240E-02;  0.0000000E+00;  4.0003452E-01;  7.1906367E+03;
  9.6017045E-01;  9.9999998E-03; -8.0051228E-02;2528;  1.0204614E-01;  0.0000000E+00; -3.6210805E-02;  1.0093260E+03;  4.0406972E-01;  7.6967363E+03;3;  4.2999485E+01;  0.0000000E+00; -1.3456911E+01;0;  4.7619617E-01;  9.9986162E+03;  0.0000000E+00; -2.9799621E-06;  1.0000000E+04;  0.0000000E+00;  9.9846035E+03;  5.9893806E-02;  0.0000000E+00;  4.1630235E-01;  6.6957583E+03;
  9.6016663E-01;  9.9999998E-03; -6.0037080E-02;2529;  9.9538513E-02;  0.0000000E+00; -2.7686127E-02;  1.0093827E+03;  4.0406969E-01;  7.7435679E+03;3;  4.2233360E+01;  0.0000000E+00; -1.1300380E+01;0;  4.8199108E-01;  9.9987549E+03;  0.0000000E+00; -2.1010026E-06;  1.0000000E+04;  0.0000000E+00;  9.9855957E+03;  5.5107761E-02;  0.0000000E+00;  4.2688331E-01;  6.2114297E+03;
  9.6016395E-01;  9.9999998E-03; -4.0024277E-02;2530;  9.7732432E-02;  0.0000000E+00; -1.8866125E-02;  1.0094297E+03;  4.0406972E-01;  7.7823325E+03;3;  4.1645100E+01;  0.0000000E+00; -8.2101898E+00;0;  4.8570976E-01;  9.9988418E+03;  0.0000000E+00; -1.0803979E-06;  1.0000000E+04;  0.0000000E+00;  9.9864395E+03;  5.1943000E-02;  0.0000000E+00;  4.3376675E-01;  5.8033931E+03;
  9.6016240E-01;  9.9999998E-03; -2.0012066E-02;2531;  9.6647277E-02;  0.0000000E+00; -9.5994473E-03;  1.0094600E+03;  4.0406951E-01;  7.8073228E+03;3;  4.1283642E+01;  0.0000000E+00; -4.3378711E+00;0;  4.8799023E-01;  9.9988867E+03;  0.0000000E+00; -2.8994006E-07;  1.0000000E+04;  0.0000000E+00;  9.9869941E+03;  5.0133239E-02;  0.0000000E+00;  4.3785700E-01;  5.5331455E+03;
  9.8020780E-01;  9.9999998E-03; -1.8012671E-01;2554;  1.2356757E-01;  0.0000000E+00; -6.7012206E-02;  1.0080977E+03;  4.0361044E-01;  6.6740566E+03;3;  4.8374672E+01;  0.0000000E+00; -1.3319872E+01;0;  2.7292252E-01;  9.9996377E+03;  0.0000000E+00; -2.7478791E-06;  1.0000000E+04;  0.0000000E+00;  9.9819824E+03;  3.5336547E-02;  0.0000000E+00;  2.3758596E-01;  8.0194609E+03;
  9.8019594E-01;  9.9999998E-03; -1.6011186E-01;2555;  1.1735960E-01;  0.0000000E+00; -6.2197294E-02;  1.0081826E+03;  4.0361026E-01;  6.7440186E+03;3;  4.7096264E+01;  0.0000000E+00; -1.3857093E+01;0;  2.8790459E-01;  1.0000592E+04;  0.0000000E+00; -3.4413756E-06;  1.0000000E+04;  0.0000000E+00;  9.9827197E+03;  1.0469696E-02;  0.0000000E+00;  2.7743489E-01;  7.6373701E+03;
  9.8018616E-01;  9.9999998E-03; -1.4009528E-01;2556;  1.1199766E-01;  0.0000000E+00; -5.5838998E-02;  1.0082498E+03;  4.0361020E-01;  6.7994380E+03;3;  4.5874851E+01;  0.0000000E+00; -1.4157518E+01;0;  3.0939057E-01;  1.0001196E+04;  0.0000000E+00; -1.6840942E-06;  1.0000000E+04;  0.0000000E+00;  9.9834492E+03; -6.4832927E-03;  0.0000000E+00;  3.1587386E-01;  7.2569800E+03;
  9.8017818E-01;  9.9999998E-03; -1.2007765E-01;2557;  1.0742553E-01;  0.0000000E+00; -4.8265185E-02;  1.0083056E+03;  4.0361011E-01;  6.8454238E+03;3;  4.4735874E+01;  0.0000000E+00; -1.4020296E+01;0;  3.2914650E-01;  1.0001560E+04;  0.0000000E+00; -1.4066561E-06;  1.0000000E+04;  0.0000000E+00;  9.9842002E+03; -1.7611191E-02;  0.0000000E+00;  3.4675768E-01;  6.8721152E+03;
  9.8017174E-01;  9.9999998E-03; -1.0006105E-01;2558;  1.0356322E-01;  0.0000000E+00; -4.0419560E-02;  1.0083574E+03;  4.0361002E-01;  6.8881670E+03;3;  4.3685848E+01;  0.0000000E+00; -1.3404145E+01;0;  3.4357637E-01;  1.0001765E+04;  0.0000000E+00; -1.4700555E-06;  1.0000000E+04;  0.0000000E+00;  9.9850244E+03; -2.4769614E-02;  0.0000000E+00;  3.6834598E-01;  6.4598296E+03;
  9.8016673E-01;  9.9999998E-03; -8.0046393E-02;2559;  1.0038285E-01;  0.0000000E+00; -3.2668591E-02;  1.0084089E+03;  4.0361005E-01;  6.9306147E+03;3;  4.2739914E+01;  0.0000000E+00; -1.2166945E+01;0;  3.5285926E-01;  1.0001876E+04;  0.0000000E+00; -1.4537198E-06;  1.0000000E+04;  0.0000000E+00;  9.9859326E+03; -2.9327476E-02;  0.0000000E+00;  3.8218674E-01;  6.0204502E+03;
  9.8016298E-01;  9.9999998E-03; -6.0033582E-02;2560;  9.7885117E-02;  0.0000000E+00; -2.4929449E-02;  1.0084572E+03;  4.0360987E-01;  6.9704087E+03;3;  4.1929691E+01;  0.0000000E+00; -1.0161840E+01;0;  3.5858315E-01;  1.0001933E+04;  0.0000000E+00; -1.1202687E-06;  1.0000000E+04;  0.0000000E+00;  9.9868320E+03; -3.2194737E-02;  0.0000000E+00;  3.9077789E-01;  5.5902344E+03;
  9.8016042E-01;  9.9999998E-03; -4.0021982E-02;2561;  9.6081950E-02;  0.0000000E+00; -1.6956085E-02;  1.0084969E+03;  4.0360981E-01;  7.0032266E+03;3;  4.1305092E+01;  0.0000000E+00; -7.3535261E+00;0;  3.6218506E-01;  1.0001958E+04;  0.0000000E+00; -5.9919631E-07;  1.0000000E+04;  0.0000000E+00;  9.9875967E+03; -3.3925775E-02;  0.0000000E+00;  3.9611083E-01;  5.2277988E+03;
  9.8015893E-01;  9.9999998E-03; -2.0010917E-02;2562;  9.4989948E-02;  0.0000000E+00; -8.6124800E-03;  1.0085230E+03;  4.0360987E-01;  7.0246460E+03;3;  4.0911480E+01;  0.0000000E+00; -3.8703132E+00;0;  3.6433554E-01;  1.0001972E+04;  0.0000000E+00; -1.5909018E-07;  1.0000000E+04;  0.0000000E+00;  9.9881016E+03; -3.4847122E-02;  0.0000000E+00;  3.9918265E-01;  4.9877969E+03;
  1.0002030E+00;  9.9999998E-03; -1.8011452E-01;2585;  1.2173356E-01;  0.0000000E+00; -6.1223231E-02;  1.0072039E+03;  4.0316951E-01;  5.9267217E+03;3;  4.8344490E+01;  0.0000000E+00; -1.2823797E+01;0;  1.8955900E-01;  1.0002088E+04;  0.0000000E+00; -2.3683400E-05;  1.0000000E+04;  0.0000000E+00;  9.9836416E+03; -3.0085932E-02;  0.0000000E+00;  2.1964493E-01;  7.1143022E+03;
  1.0001910E+00;  9.9999998E-03; -1.6010116E-01;2586;  1.1535808E-01;  0.0000000E+00; -5.6766108E-02;  1.0072844E+03;  4.0316951E-01;  5.9930278E+03;3;  4.6963806E+01;  0.0000000E+00; -1.3251417E+01;0;  2.0217471E-01;  1.0003004E+04;  0.0000000E+00;  1.1576215E-06;  1.0000000E+04;  0.0000000E+00;  9.9843281E+03; -5.3652953E-02;  0.0000000E+00;  2.5582767E-01;  6.7702817E+03;
  1.0001811E+00;  9.9999998E-03; -1.4008613E-01;2587;  1.0979544E-01;  0.0000000E+00; -5.0841041E-02;  1.0073455E+03;  4.0316927E-01;  6.0433472E+03;3;  4.5641064E+01;  0.0000000E+00; -1.3381057E+01;0;  2.2149114E-01;  1.0003555E+04;  0.0000000E+00;  7.4887930E-07;  1.0000000E+04;  0.0000000E+00;  9.9849932E+03; -6.9093540E-02;  0.0000000E+00;  2.9058468E-01;  6.4322393E+03;
  1.0001731E+00;  9.9999998E-03; -1.2007029E-01;2588;  1.0514039E-01;  0.0000000E+00; -4.3874491E-02;  1.0073942E+03;  4.0316924E-01;  6.0833677E+03;3;  4.4397083E+01;  0.0000000E+00; -1.3090540E+01;0;  2.3957554E-01;  1.0003852E+04;  0.0000000E+00;  3.1400845E-07;  1.0000000E+04;  0.0000000E+00;  9.9856709E+03; -7.8694202E-02;  0.0000000E+00;  3.1826973E-01;  6.0932329E+03;
  1.0001668E+00;  9.9999998E-03; -1.0005531E-01;2589;  1.0127019E-01;  0.0000000E+00; -3.6660269E-02;  1.0074388E+03;  4.0316930E-01;  6.1200518E+03;3;  4.3266190E+01;  0.0000000E+00; -1.2357215E+01;0;  2.5286371E-01;  1.0003988E+04;  0.0000000E+00;  1.2485370E-07;  1.0000000E+04;  0.0000000E+00;  9.9864141E+03; -8.4426820E-02;  0.0000000E+00;  3.3729053E-01;  5.7324419E+03;
  1.0001620E+00;  9.9999998E-03; -8.0042027E-02;2590;  9.8111339E-02;  0.0000000E+00; -2.9541729E-02;  1.0074822E+03;  4.0316921E-01;  6.1558525E+03;3;  4.2238033E+01;  0.0000000E+00; -1.1095698E+01;0;  2.6137286E-01;  1.0004040E+04;  0.0000000E+00; -1.0741979E-07;  1.0000000E+04;  0.0000000E+00;  9.9872236E+03; -8.7692901E-02;  0.0000000E+00;  3.4906575E-01;  5.3493457E+03;
  1.0001584E+00;  9.9999998E-03; -6.0030404E-02;2591;  9.5620587E-02;  0.0000000E+00; -2.2444228E-02;  1.0075231E+03;  4.0316918E-01;  6.1894946E+03;3;  4.1343285E+01;  0.0000000E+00; -9.1752234E+00;0;  2.6650754E-01;  1.0004048E+04;  0.0000000E+00; -2.1620816E-07;  1.0000000E+04;  0.0000000E+00;  9.9880264E+03; -8.9441337E-02;  0.0000000E+00;  3.5594887E-01;  4.9747271E+03;
  1.0001559E+00;  9.9999998E-03; -4.0019885E-02;2592;  9.3809105E-02;  0.0000000E+00; -1.5207862E-02;  1.0075571E+03;  4.0316918E-01;  6.2173501E+03;3;  4.0645760E+01;  0.0000000E+00; -6.5836020E+00;0;  2.6960853E-01;  1.0004040E+04;  0.0000000E+00; -1.3329398E-07;  1.0000000E+04;  0.0000000E+00;  9.9887090E+03; -9.0295821E-02;  0.0000000E+00;  3.5990435E-01;  4.6590737E+03;
  1.0001544E+00;  9.9999998E-03; -2.0009864E-02;2593;  9.2707098E-02;  0.0000000E+00; -7.7034892E-03;  1.0075792E+03;  4.0316921E-01;  6.2355928E+03;3;  4.0220680E+01;  0.0000000E+00; -3.4479170E+00;0;  2.7138701E-01;  1.0004029E+04;  0.0000000E+00; -4.3777248E-08;  1.0000000E+04;  0.0000000E+00;  9.9891650E+03; -9.0656430E-02;  0.0000000E+00;  3.6204344E-01;  4.4499282E+03;
  1.0201976E+00;  9.9999998E-03; -1.8010305E-01;2616;  1.1955947E-01;  0.0000000E+00; -5.5741630E-02;  1.0063255E+03;  4.0275991E-01;  5.1915928E+03;3;  4.8181873E+01;  0.0000000E+00; -1.2351982E+01;0;  1.3537385E-01;  1.0003448E+04;  0.0000000E+00; -1.0962625E-03;  1.0000000E+04;  0.0000000E+00;  9.9851621E+03; -6.6542685E-02;  0.0000000E+00;  2.0191653E-01;  6.2600493E+03;
  1.0201854E+00;  9.9999998E-03; -1.6009110E-01;2617;  1.1297119E-01;  0.0000000E+00; -5.1633280E-02;  1.0064047E+03;  4.0275970E-01;  5.2566650E+03;3;  4.6742771E+01;  0.0000000E+00; -1.2607918E+01;0;  1.4467227E-01;  1.0004361E+04;  0.0000000E+00; -3.9205173E-05;  1.0000000E+04;  0.0000000E+00;  9.9858242E+03; -8.9531936E-02;  0.0000000E+00;  2.3420422E-01;  5.9424307E+03;
  1.0201752E+00;  9.9999998E-03; -1.4007765E-01;2618;  1.0721460E-01;  0.0000000E+00; -4.6201441E-02;  1.0064637E+03;  4.0275967E-01;  5.3050059E+03;3;  4.5270977E+01;  0.0000000E+00; -1.2619510E+01;0;  1.6055563E-01;  1.0004915E+04;  0.0000000E+00; -6.2116137E-06;  1.0000000E+04;  0.0000000E+00;  9.9864463E+03; -1.0487326E-01;  0.0000000E+00;  2.6542890E-01;  5.6373252E+03;
  1.0201672E+00;  9.9999998E-03; -1.2006346E-01;2619;  1.0245107E-01;  0.0000000E+00; -3.9822340E-02;  1.0065095E+03;  4.0275964E-01;  5.3426802E+03;3;  4.3925098E+01;  0.0000000E+00; -1.2215496E+01;0;  1.7587456E-01;  1.0005202E+04;  0.0000000E+00; -2.2257063E-06;  1.0000000E+04;  0.0000000E+00;  9.9870674E+03; -1.1437508E-01;  0.0000000E+00;  2.9024965E-01;  5.3369805E+03;
  1.0201610E+00;  9.9999998E-03; -1.0004998E-01;2620;  9.8549701E-02;  0.0000000E+00; -3.3155240E-02;  1.0065496E+03;  4.0275958E-01;  5.3755591E+03;3;  4.2702824E+01;  0.0000000E+00; -1.1374629E+01;0;  1.8722051E-01;  1.0005331E+04;  0.0000000E+00;  3.3145838E-07;  1.0000000E+04;  0.0000000E+00;  9.9877383E+03; -1.1993432E-01;  0.0000000E+00;  3.0715483E-01;  5.0236865E+03;
  1.0201563E+00;  9.9999998E-03; -8.0038026E-02;2621;  9.5396526E-02;  0.0000000E+00; -2.6601413E-02;  1.0065875E+03;  4.0275967E-01;  5.4066763E+03;3;  4.1595192E+01;  0.0000000E+00; -1.0077053E+01;0;  1.9443101E-01;  1.0005370E+04;  0.0000000E+00;  9.2385096E-07;  1.0000000E+04;  0.0000000E+00;  9.9884551E+03; -1.2291399E-01;  0.0000000E+00;  3.1734499E-01;  4.6955991E+03;
  1.0201528E+00;  9.9999998E-03; -6.0027529E-02;2622;  9.2926383E-02;  0.0000000E+00; -2.0138444E-02;  1.0066229E+03;  4.0275958E-01;  5.4357373E+03;3;  4.0645073E+01;  0.0000000E+00; -8.2516375E+00;0;  1.9864251E-01;  1.0005361E+04;  0.0000000E+00;  6.3148195E-07;  1.0000000E+04;  0.0000000E+00;  9.9891621E+03; -1.2429510E-01;  0.0000000E+00;  3.2293761E-01;  4.3767334E+03;
  1.0201504E+00;  9.9999998E-03; -4.0017981E-02;2623;  9.1129996E-02;  0.0000000E+00; -1.3594072E-02;  1.0066517E+03;  4.0275955E-01;  5.4593188E+03;3;  3.9912109E+01;  0.0000000E+00; -5.8913975E+00;0;  2.0102584E-01;  1.0005337E+04;  0.0000000E+00;  2.6737081E-07;  1.0000000E+04;  0.0000000E+00;  9.9897627E+03; -1.2479068E-01;  0.0000000E+00;  3.2581651E-01;  4.1083477E+03;
  1.0201491E+00;  9.9999998E-03; -2.0008907E-02;2624;  9.0029344E-02;  0.0000000E+00; -6.8677338E-03;  1.0066708E+03;  4.0275955E-01;  5.4750723E+03;3;  3.9440033E+01;  0.0000000E+00; -3.0744576E+00;0;  2.0230398E-01;  1.0005315E+04;  0.0000000E+00;  5.8056166E-08;  1.0000000E+04;  0.0000000E+00;  9.9901631E+03; -1.2489418E-01;  0.0000000E+00;  3.2719815E-01;  3.9303623E+03;
  1.0401917E+00;  9.9999998E-03; -1.8009271E-01;2647;  1.1711132E-01;  0.0000000E+00; -5.0739184E-02;  1.0054963E+03;  4.0238947E-01;  4.4966147E+03;3;  4.8013268E+01;  0.0000000E+00; -1.1887626E+01;0;  1.0194343E-01;  1.0004040E+04;  0.0000000E+00; -7.4075949E-03;  1.0000000E+04;  0.0000000E+00;  9.9864805E+03; -8.3357453E-02;  0.0000000E+00;  1.8530089E-01;  5.4824312E+03;
  1.0401789E+00;  9.9999998E-03; -1.6008160E-01;2648;  1.1018603E-01;  0.0000000E+00; -4.6707992E-02;  1.0055759E+03;  4.0238935E-01;  4.5616748E+03;3;  4.6338505E+01;  0.0000000E+00; -1.1944898E+01;0;  1.0723106E-01;  1.0004945E+04;  0.0000000E+00; -6.6009263E-04;  1.0000000E+04;  0.0000000E+00;  9.9871592E+03; -1.0582147E-01;  0.0000000E+00;  2.1305253E-01;  5.1761553E+03;
  1.0401686E+00;  9.9999998E-03; -1.4006981E-01;2649;  1.0425840E-01;  0.0000000E+00; -4.1878879E-02;  1.0056373E+03;  4.0238920E-01;  4.6119097E+03;3;  4.4769981E+01;  0.0000000E+00; -1.1853745E+01;0;  1.1845560E-01;  1.0005552E+04;  0.0000000E+00; -2.5019994E-05;  1.0000000E+04;  0.0000000E+00;  9.9877783E+03; -1.2214862E-01;  0.0000000E+00;  2.4060422E-01;  4.8907871E+03;
  1.0401605E+00;  9.9999998E-03; -1.2005722E-01;2650;  9.9331729E-02;  0.0000000E+00; -3.6094531E-02;  1.0056843E+03;  4.0238923E-01;  4.6503423E+03;3;  4.3288136E+01;  0.0000000E+00; -1.1395612E+01;0;  1.2997161E-01;  1.0005893E+04;  0.0000000E+00; -1.0349087E-05;  1.0000000E+04;  0.0000000E+00;  9.9883701E+03; -1.3280247E-01;  0.0000000E+00;  2.6277408E-01;  4.6188970E+03;
  1.0401543E+00;  9.9999998E-03; -1.0004522E-01;2651;  9.5378064E-02;  0.0000000E+00; -3.0001355E-02;  1.0057230E+03;  4.0238920E-01;  4.6820430E+03;3;  4.1951183E+01;  0.0000000E+00; -1.0488080E+01;0;  1.3873689E-01;  1.0006059E+04;  0.0000000E+00; -1.1793883E-06;  1.0000000E+04;  0.0000000E+00;  9.9889785E+03; -1.3924591E-01;  0.0000000E+00;  2.7798280E-01;  4.3461660E+03;
  1.0401498E+00;  9.9999998E-03; -8.0034472E-02;2652;  9.2228197E-02;  0.0000000E+00; -2.3978190E-02;  1.0057575E+03;  4.0238917E-01;  4.7102324E+03;3;  4.0771595E+01;  0.0000000E+00; -9.1642323E+00;0;  1.4434774E-01;  1.0006116E+04;  0.0000000E+00;  1.8159780E-06;  1.0000000E+04;  0.0000000E+00;  9.9896094E+03; -1.4275901E-01;  0.0000000E+00;  2.8710675E-01;  4.0692559E+03;
  1.0401465E+00;  9.9999998E-03; -6.0024954E-02;2653;  8.9782327E-02;  0.0000000E+00; -1.8066222E-02;  1.0057885E+03;  4.0238920E-01;  4.7356899E+03;3;  3.9760254E+01;  0.0000000E+00; -7.4175248E+00;0;  1.4753029E-01;  1.0006118E+04;  0.0000000E+00;  1.6687990E-06;  1.0000000E+04;  0.0000000E+00;  9.9902227E+03; -1.4438063E-01;  0.0000000E+00;  2.9191092E-01;  3.8044133E+03;
  1.0401442E+00;  9.9999998E-03; -4.0016271E-02;2654;  8.8004254E-02;  0.0000000E+00; -1.2133389E-02;  1.0058138E+03;  4.0238911E-01;  4.7563672E+03;3;  3.8969231E+01;  0.0000000E+00; -5.2411084E+00;0;  1.4918402E-01;  1.0006100E+04;  0.0000000E+00;  8.0679820E-07;  1.0000000E+04;  0.0000000E+00;  9.9907451E+03; -1.4493793E-01;  0.0000000E+00;  2.9412195E-01;  3.5826987E+03;
  1.0401428E+00;  9.9999998E-03; -2.0008046E-02;2655;  8.6915933E-02;  0.0000000E+00; -6.1101918E-03;  1.0058300E+03;  4.0238920E-01;  4.7696318E+03;3;  3.8466045E+01;  0.0000000E+00; -2.7209322E+00;0;  1.4997517E-01;  1.0006083E+04;  0.0000000E+00;  1.9384406E-07;  1.0000000E+04;  0.0000000E+00;  9.9910879E+03; -1.4503188E-01;  0.0000000E+00;  2.9500705E-01;  3.4357170E+03;
  1.0601852E+00;  9.9999998E-03; -1.8008302E-01;2678;  1.1448968E-01;  0.0000000E+00; -4.5695253E-02;  1.0047408E+03;  4.0206316E-01;  3.8618740E+03;3;  4.7769897E+01;  0.0000000E+00; -1.1053048E+01;0;  8.2431942E-02;  1.0004139E+04;  0.0000000E+00; -2.7737815E-02;  1.0000000E+04;  0.0000000E+00;  9.9875654E+03; -8.8294521E-02;  0.0000000E+00;  1.7072646E-01;  4.7945293E+03;
  1.0601721E+00;  9.9999998E-03; -1.6007282E-01;2679;  1.0715061E-01;  0.0000000E+00; -4.2097501E-02;  1.0048203E+03;  4.0206316E-01;  3.9266580E+03;3;  4.5846703E+01;  0.0000000E+00; -1.1225226E+01;0;  8.3883934E-02;  1.0004987E+04;  0.0000000E+00; -4.1010384E-03;  1.0000000E+04;  0.0000000E+00;  9.9882998E+03; -1.0927268E-01;  0.0000000E+00;  1.9315661E-01;  4.4873511E+03;
  1.0601616E+00;  9.9999998E-03; -1.4006241E-01;2680;  1.0095454E-01;  0.0000000E+00; -3.7732340E-02;  1.0048868E+03;  4.0206310E-01;  3.9808542E+03;3;  4.4058369E+01;  0.0000000E+00; -1.1145786E+01;0;  8.9680836E-02;  1.0005658E+04;  0.0000000E+00; -1.1640209E-04;  1.0000000E+04;  0.0000000E+00;  9.9889551E+03; -1.2684821E-01;  0.0000000E+00;  2.1652904E-01;  4.2082437E+03;
  1.0601534E+00;  9.9999998E-03; -1.2005153E-01;2681;  9.5910922E-02;  0.0000000E+00; -3.2624569E-02;  1.0049388E+03;  4.0206310E-01;  4.0232017E+03;3;  4.2503502E+01;  0.0000000E+00; -1.0541887E+01;0;  9.6492156E-02;  1.0006097E+04;  0.0000000E+00; -2.6569762E-05;  1.0000000E+04;  0.0000000E+00;  9.9895518E+03; -1.3954096E-01;  0.0000000E+00;  2.3603311E-01;  3.9531729E+03;
  1.0601472E+00;  9.9999998E-03; -1.0004096E-01;2682;  9.1868080E-02;  0.0000000E+00; -2.7140154E-02;  1.0049797E+03;  4.0206301E-01;  4.0565159E+03;3;  4.1053921E+01;  0.0000000E+00; -9.6118069E+00;0;  1.0211487E-01;  1.0006338E+04;  0.0000000E+00; -6.2423796E-06;  1.0000000E+04;  0.0000000E+00;  9.9901250E+03; -1.4767779E-01;  0.0000000E+00;  2.4979267E-01;  3.7114373E+03;
  1.0601426E+00;  9.9999998E-03; -8.0031328E-02;2683;  8.8707343E-02;  0.0000000E+00; -2.1649275E-02;  1.0050135E+03;  4.0206307E-01;  4.0840994E+03;3;  3.9788082E+01;  0.0000000E+00; -8.2970390E+00;0;  1.0589285E-01;  1.0006453E+04;  0.0000000E+00;  1.8150432E-06;  1.0000000E+04;  0.0000000E+00;  9.9906846E+03; -1.5237285E-01;  0.0000000E+00;  2.5826570E-01;  3.4786824E+03;
  1.0601394E+00;  9.9999998E-03; -6.0022671E-02;2684;  8.6275071E-02;  0.0000000E+00; -1.6219012E-02;  1.0050417E+03;  4.0206310E-01;  4.1070205E+03;3;  3.8715073E+01;  0.0000000E+00; -6.6220613E+00;0;  1.0804789E-01;  1.0006492E+04;  0.0000000E+00;  2.7639596E-06;  1.0000000E+04;  0.0000000E+00;  9.9912080E+03; -1.5472002E-01;  0.0000000E+00;  2.6276791E-01;  3.2633931E+03;
  1.0601372E+00;  9.9999998E-03; -4.0014759E-02;2685;  8.4522568E-02;  0.0000000E+00; -1.0835714E-02;  1.0050638E+03;  4.0206301E-01;  4.1250850E+03;3;  3.7882683E+01;  0.0000000E+00; -4.6281114E+00;0;  1.0908552E-01;  1.0006495E+04;  0.0000000E+00;  1.5145349E-06;  1.0000000E+04;  0.0000000E+00;  9.9916455E+03; -1.5567555E-01;  0.0000000E+00;  2.6476106E-01;  3.0859072E+03;
  1.0601360E+00;  9.9999998E-03; -2.0007279E-02;2686;  8.3451681E-02;  0.0000000E+00; -5.4304660E-03;  1.0050779E+03;  4.0206298E-01;  4.1365449E+03;3;  3.7352303E+01;  0.0000000E+00; -2.3825901E+00;0;  1.0950626E-01;  1.0006485E+04;  0.0000000E+00;  3.8852480E-07;  1.0000000E+04;  0.0000000E+00;  9.9919346E+03; -1.5595739E-01;  0.0000000E+00;  2.6546365E-01;  2.9688152E+03;
  1.0801790E+00;  9.9999998E-03; -1.8007387E-01;2709;  1.1187222E-01;  0.0000000E+00; -4.0476412E-02;  1.0040729E+03;  4.0178311E-01;  3.2988965E+03;3;  4.7421734E+01;  0.0000000E+00; -9.9363079E+00;0;  7.2498076E-02;  1.0003926E+04;  0.0000000E+00; -7.6496132E-02;  1.0000000E+04;  0.0000000E+00;  9.9884092E+03; -8.6497568E-02;  0.0000000E+00;  1.5899564E-01;  4.2003901E+03;
  1.0801654E+00;  9.9999998E-03; -1.6006495E-01;2710;  1.0414259E-01;  0.0000000E+00; -3.7679262E-02;  1.0041483E+03;  4.0178311E-01;  3.3600308E+03;3;  4.5338753E+01;  0.0000000E+00; -1.0278078E+01;0;  7.1532525E-02;  1.0004631E+04;  0.0000000E+00; -1.7315833E-02;  1.0000000E+04;  0.0000000E+00;  9.9892129E+03; -1.0410481E-01;  0.0000000E+00;  1.7563733E-01;  3.8838257E+03;
  1.0801544E+00;  9.9999998E-03; -1.4005557E-01;2711;  9.7585969E-02;  0.0000000E+00; -3.3824503E-02;  1.0042200E+03;  4.0178314E-01;  3.4180730E+03;3;  4.3351585E+01;  0.0000000E+00; -1.0220336E+01;0;  7.2181404E-02;  1.0005330E+04;  0.0000000E+00; -1.3492206E-03;  1.0000000E+04;  0.0000000E+00;  9.9899404E+03; -1.2190914E-01;  0.0000000E+00;  1.9409055E-01;  3.6019697E+03;
  1.0801461E+00;  9.9999998E-03; -1.2004633E-01;2712;  9.2344567E-02;  0.0000000E+00; -2.9472420E-02;  1.0042799E+03;  4.0178311E-01;  3.4665530E+03;3;  4.1586834E+01;  0.0000000E+00; -9.8236876E+00;0;  7.3676705E-02;  1.0005887E+04;  0.0000000E+00; -5.5021697E-05;  1.0000000E+04;  0.0000000E+00;  9.9905811E+03; -1.3688843E-01;  0.0000000E+00;  2.1056513E-01;  3.3531382E+03;
  1.0801399E+00;  9.9999998E-03; -1.0003710E-01;2713;  8.8213123E-02;  0.0000000E+00; -2.4553675E-02;  1.0043267E+03;  4.0178296E-01;  3.5045066E+03;3;  4.0012001E+01;  0.0000000E+00; -8.8240337E+00;0;  7.5463891E-02;  1.0006248E+04;  0.0000000E+00; -1.9382300E-05;  1.0000000E+04;  0.0000000E+00;  9.9911494E+03; -1.4735794E-01;  0.0000000E+00;  2.2282183E-01;  3.1314524E+03;
  1.0801353E+00;  9.9999998E-03; -8.0028534E-02;2714;  8.5011899E-02;  0.0000000E+00; -1.9566666E-02;  1.0043623E+03;  4.0178302E-01;  3.5333821E+03;3;  3.8690689E+01;  0.0000000E+00; -7.5127997E+00;0;  7.6943994E-02;  1.0006449E+04;  0.0000000E+00; -2.0073846E-06;  1.0000000E+04;  0.0000000E+00;  9.9916631E+03; -1.5385342E-01;  0.0000000E+00;  2.3079741E-01;  2.9327100E+03;
  1.0801321E+00;  9.9999998E-03; -6.0020678E-02;2715;  8.2588829E-02;  0.0000000E+00; -1.4615338E-02;  1.0043900E+03;  4.0178296E-01;  3.5557871E+03;3;  3.7575981E+01;  0.0000000E+00; -5.9263735E+00;0;  7.7892169E-02;  1.0006544E+04;  0.0000000E+00;  2.5658824E-06;  1.0000000E+04;  0.0000000E+00;  9.9921162E+03; -1.5742205E-01;  0.0000000E+00;  2.3531422E-01;  2.7590066E+03;
  1.0801299E+00;  9.9999998E-03; -4.0013444E-02;2716;  8.0860496E-02;  0.0000000E+00; -9.7117601E-03;  1.0044103E+03;  4.0178305E-01;  3.5723008E+03;3;  3.6722343E+01;  0.0000000E+00; -4.0930252E+00;0;  7.8351572E-02;  1.0006585E+04;  0.0000000E+00;  1.9408685E-06;  1.0000000E+04;  0.0000000E+00;  9.9924795E+03; -1.5911375E-01;  0.0000000E+00;  2.3746532E-01;  2.6204888E+03;
  1.0801287E+00;  9.9999998E-03; -2.0006619E-02;2717;  7.9817772E-02;  0.0000000E+00; -4.8505254E-03;  1.0044229E+03;  4.0178293E-01;  3.5824407E+03;3;  3.6184986E+01;  0.0000000E+00; -2.0963161E+00;0;  7.8507230E-02;  1.0006597E+04;  0.0000000E+00;  5.5885738E-07;  1.0000000E+04;  0.0000000E+00;  9.9927188E+03; -1.5977578E-01;  0.0000000E+00;  2.3828301E-01;  2.5304841E+03;
  1.1001736E+00;  9.9999998E-03; -1.8006560E-01;2739;  1.0959792E-01;  0.0000000E+00; -3.5373680E-02;  1.0034968E+03;  4.0154797E-01;  2.8109543E+03;3;  4.7192585E+01;  0.0000000E+00; -8.7631636E+00;0;  6.9520041E-02;  1.0003521E+04;  0.0000000E+00; -1.7158061E-01;  1.0000000E+04;  0.0000000E+00;  9.9890459E+03; -8.0934197E-02;  0.0000000E+00;  1.5045424E-01;  3.7083884E+03;
  1.1001588E+00;  9.9999998E-03; -1.6005707E-01;2740;  1.0120452E-01;  0.0000000E+00; -3.2954779E-02;  1.0035624E+03;  4.0154809E-01;  2.8637744E+03;3;  4.4777233E+01;  0.0000000E+00; -9.0290909E+00;0;  6.8588547E-02;  1.0003973E+04;  0.0000000E+00; -5.4471295E-02;  1.0000000E+04;  0.0000000E+00;  9.9898984E+03; -9.2942469E-02;  0.0000000E+00;  1.6153102E-01;  3.3647297E+03;
  1.1001477E+00;  9.9999998E-03; -1.4004932E-01;2741;  9.4417736E-02;  0.0000000E+00; -3.0092398E-02;  1.0036350E+03;  4.0154809E-01;  2.9221487E+03;3;  4.2618629E+01;  0.0000000E+00; -9.2217979E+00;0;  6.5783061E-02;  1.0004608E+04;  0.0000000E+00; -9.2947911E-03;  1.0000000E+04;  0.0000000E+00;  9.9907080E+03; -1.0883806E-01;  0.0000000E+00;  1.7462112E-01;  3.0779521E+03;
  1.1001390E+00;  9.9999998E-03; -1.2004133E-01;2742;  8.8872924E-02;  0.0000000E+00; -2.6319990E-02;  1.0037032E+03;  4.0154794E-01;  2.9769744E+03;3;  4.0644592E+01;  0.0000000E+00; -8.8328810E+00;0;  6.2212855E-02;  1.0005261E+04;  0.0000000E+00; -5.3945574E-04;  1.0000000E+04;  0.0000000E+00;  9.9914199E+03; -1.2514544E-01;  0.0000000E+00;  1.8735829E-01;  2.8294668E+03;
  1.1001327E+00;  9.9999998E-03; -1.0003360E-01;2743;  8.4607147E-02;  0.0000000E+00; -2.2233063E-02;  1.0037587E+03;  4.0154788E-01;  3.0215439E+03;3;  3.8977356E+01;  0.0000000E+00; -8.0553131E+00;0;  5.9369937E-02;  1.0005765E+04;  0.0000000E+00; -4.6186593E-05;  1.0000000E+04;  0.0000000E+00;  9.9920244E+03; -1.3832547E-01;  0.0000000E+00;  1.9769540E-01;  2.6181370E+03;
  1.1001281E+00;  9.9999998E-03; -8.0025978E-02;2744;  8.1320234E-02;  0.0000000E+00; -1.7729109E-02;  1.0038005E+03;  4.0154794E-01;  3.0551868E+03;3;  3.7507359E+01;  0.0000000E+00; -6.8425870E+00;0;  5.7671085E-02;  1.0006092E+04;  0.0000000E+00; -1.4636799E-05;  1.0000000E+04;  0.0000000E+00;  9.9925283E+03; -1.4729953E-01;  0.0000000E+00;  2.0497061E-01;  2.4418064E+03;
  1.1001248E+00;  9.9999998E-03; -6.0018908E-02;2745;  7.8891493E-02;  0.0000000E+00; -1.3214617E-02;  1.0038306E+03;  4.0154794E-01;  3.0793403E+03;3;  3.6367157E+01;  0.0000000E+00; -5.3124442E+00;0;  5.6768104E-02;  1.0006284E+04;  0.0000000E+00; -1.8575550E-06;  1.0000000E+04;  0.0000000E+00;  9.9929346E+03; -1.5273865E-01;  0.0000000E+00;  2.0950675E-01;  2.2986367E+03;
  1.1001227E+00;  9.9999998E-03; -4.0012293E-02;2746;  7.7180497E-02;  0.0000000E+00; -8.7523079E-03;  1.0038510E+03;  4.0154794E-01;  3.0957307E+03;3;  3.5498226E+01;  0.0000000E+00; -3.6364558E+00;0;  5.6313261E-02;  1.0006381E+04;  0.0000000E+00;  8.6004638E-07;  1.0000000E+04;  0.0000000E+00;  9.9932461E+03; -1.5565385E-01;  0.0000000E+00;  2.1196711E-01;  2.1905679E+03;
  1.1001215E+00;  9.9999998E-03; -2.0006049E-02;2747;  7.6157466E-02;  0.0000000E+00; -4.3535372E-03;  1.0038629E+03;  4.0154794E-01;  3.1053152E+03;3;  3.4957172E+01;  0.0000000E+00; -1.8416954E+00;0;  5.6096703E-02;  1.0006425E+04;  0.0000000E+00;  4.1832303E-07;  1.0000000E+04;  0.0000000E+00;  9.9934414E+03; -1.5697847E-01;  0.0000000E+00;  2.1307518E-01;  2.1225503E+03;
  1.1201698E+00;  9.9999998E-03; -1.8005861E-01;2768;  1.0787773E-01;  0.0000000E+00; -3.0600142E-02;  1.0030142E+03;  4.0135533E-01;  2.3991484E+03;3;  4.7199593E+01;  0.0000000E+00; -7.5299888E+00;0;  7.0642948E-02;  1.0003018E+04;  0.0000000E+00; -3.3168948E-01;  1.0000000E+04;  0.0000000E+00;  9.9895244E+03; -7.4044317E-02;  0.0000000E+00;  1.4468727E-01;  3.3498396E+03;
  1.1201535E+00;  9.9999998E-03; -1.6005000E-01;2769;  9.8755851E-02;  0.0000000E+00; -2.8368840E-02;  1.0030633E+03;  4.0135545E-01;  2.4382632E+03;3;  4.4327610E+01;  0.0000000E+00; -7.6514220E+00;0;  7.2600432E-02;  1.0003133E+04;  0.0000000E+00; -1.3963532E-01;  1.0000000E+04;  0.0000000E+00;  9.9903857E+03; -7.8735314E-02;  0.0000000E+00;  1.5133575E-01;  2.9343967E+03;
  1.1201415E+00;  9.9999998E-03; -1.4004292E-01;2770;  9.1433398E-02;  0.0000000E+00; -2.6020274E-02;  1.0031296E+03;  4.0135536E-01;  2.4910361E+03;3;  4.1905617E+01;  0.0000000E+00; -7.9216733E+00;0;  6.9372237E-02;  1.0003588E+04;  0.0000000E+00; -4.0057786E-02;  1.0000000E+04;  0.0000000E+00;  9.9912510E+03; -8.9950562E-02;  0.0000000E+00;  1.5932280E-01;  2.6332969E+03;
  1.1201327E+00;  9.9999998E-03; -1.2003650E-01;2771;  8.5710779E-02;  0.0000000E+00; -2.3246728E-02;  1.0032014E+03;  4.0135542E-01;  2.5481702E+03;3;  3.9737289E+01;  0.0000000E+00; -7.8600068E+00;0;  6.2624641E-02;  1.0004227E+04;  0.0000000E+00; -6.6217887E-03;  1.0000000E+04;  0.0000000E+00;  9.9920469E+03; -1.0513074E-01;  0.0000000E+00;  1.6775538E-01;  2.3859023E+03;
  1.1201260E+00;  9.9999998E-03; -1.0002991E-01;2772;  8.1219457E-02;  0.0000000E+00; -1.9739490E-02;  1.0032661E+03;  4.0135536E-01;  2.5997029E+03;3;  3.7906757E+01;  0.0000000E+00; -7.1764598E+00;0;  5.5294976E-02;  1.0004851E+04;  0.0000000E+00; -4.8352926E-04;  1.0000000E+04;  0.0000000E+00;  9.9927129E+03; -1.2013486E-01;  0.0000000E+00;  1.7542984E-01;  2.1800476E+03;
  1.1201214E+00;  9.9999998E-03; -8.0023549E-02;2773;  7.7860251E-02;  0.0000000E+00; -1.5986813E-02;  1.0033169E+03;  4.0135533E-01;  2.6401313E+03;3;  3.6398148E+01;  0.0000000E+00; -6.1340714E+00;0;  4.9481750E-02;  1.0005333E+04;  0.0000000E+00; -4.0121537E-05;  1.0000000E+04;  0.0000000E+00;  9.9932432E+03; -1.3198493E-01;  0.0000000E+00;  1.8146668E-01;  2.0161602E+03;
  1.1201180E+00;  9.9999998E-03; -6.0017228E-02;2774;  7.5361729E-02;  0.0000000E+00; -1.1942634E-02;  1.0033531E+03;  4.0135545E-01;  2.6689822E+03;3;  3.5165710E+01;  0.0000000E+00; -4.7807717E+00;0;  4.5700297E-02;  1.0005653E+04;  0.0000000E+00; -1.4183915E-05;  1.0000000E+04;  0.0000000E+00;  9.9936475E+03; -1.3997684E-01;  0.0000000E+00;  1.8567714E-01;  1.8916705E+03;
  1.1201159E+00;  9.9999998E-03; -4.0011264E-02;2775;  7.3644981E-02;  0.0000000E+00; -7.9223653E-03;  1.0033768E+03;  4.0135533E-01;  2.6877732E+03;3;  3.4268597E+01;  0.0000000E+00; -3.2643552E+00;0;  4.3538824E-02;  1.0005840E+04;  0.0000000E+00; -3.5921730E-06;  1.0000000E+04;  0.0000000E+00;  9.9939307E+03; -1.4474362E-01;  0.0000000E+00;  1.8828245E-01;  1.8034989E+03;
  1.1201147E+00;  9.9999998E-03; -2.0005547E-02;2776;  7.2636999E-02;  0.0000000E+00; -3.9373664E-03;  1.0033900E+03;  4.0135530E-01;  2.6983074E+03;3;  3.3728867E+01;  0.0000000E+00; -1.6492863E+00;0;  4.2485386E-02;  1.0005937E+04;  0.0000000E+00; -5.2214267E-07;  1.0000000E+04;  0.0000000E+00;  9.9941016E+03; -1.4715433E-01;  0.0000000E+00;  1.8963972E-01;  1.7504575E+03;
  1.1401677E+00;  9.9999998E-03; -1.8005334E-01;2796;  1.0682151E-01;  0.0000000E+00; -2.6365571E-02;  1.0026233E+03;  4.0120086E-01;  2.0612729E+03;3;  4.7715679E+01;  0.0000000E+00; -6.3677850E+00;0;  7.2272293E-02;  1.0002520E+04;  0.0000000E+00; -5.6372947E-01;  1.0000000E+04;  0.0000000E+00;  9.9899316E+03; -6.8029918E-02;  0.0000000E+00;  1.4030221E-01;  3.1602534E+03;
  1.1401497E+00;  9.9999998E-03; -1.6004421E-01;2797;  9.6971050E-02;  0.0000000E+00; -2.4149461E-02;  1.0026514E+03;  4.0120077E-01;  2.0833130E+03;3;  4.4202850E+01;  0.0000000E+00; -6.3382668E+00;0;  7.9261400E-02;  1.0002265E+04;  0.0000000E+00; -2.9941052E-01;  1.0000000E+04;  0.0000000E+00;  9.9907432E+03; -6.5160222E-02;  0.0000000E+00;  1.4442162E-01;  2.6263584E+03;
  1.1401365E+00;  9.9999998E-03; -1.4003725E-01;2798;  8.9061417E-02;  0.0000000E+00; -2.2086607E-02;  1.0027028E+03;  4.0120086E-01;  2.1237048E+03;3;  4.1393951E+01;  0.0000000E+00; -6.4535551E+00;0;  7.9212464E-02;  1.0002416E+04;  0.0000000E+00; -1.2327752E-01;  1.0000000E+04;  0.0000000E+00;  9.9916113E+03; -6.9292240E-02;  0.0000000E+00;  1.4850470E-01;  2.2693572E+03;
  1.1401269E+00;  9.9999998E-03; -1.2003151E-01;2799;  8.2893923E-02;  0.0000000E+00; -1.9887984E-02;  1.0027690E+03;  4.0120080E-01;  2.1758010E+03;3;  3.8999710E+01;  0.0000000E+00; -6.5866780E+00;0;  7.2725564E-02;  1.0002899E+04;  0.0000000E+00; -3.7354507E-02;  1.0000000E+04;  0.0000000E+00;  9.9924551E+03; -8.0076918E-02;  0.0000000E+00;  1.5280248E-01;  2.0164330E+03;
  1.1401203E+00;  9.9999998E-03; -1.0002628E-01;2800;  7.8237601E-02;  0.0000000E+00; -1.7286619E-02;  1.0028368E+03;  4.0120068E-01;  2.2291111E+03;3;  3.6945518E+01;  0.0000000E+00; -6.2680926E+00;0;  6.3155852E-02;  1.0003518E+04;  0.0000000E+00; -7.8154188E-03;  1.0000000E+04;  0.0000000E+00;  9.9931924E+03; -9.4074152E-02;  0.0000000E+00;  1.5723000E-01;  1.8170404E+03;
  1.1401154E+00;  9.9999998E-03; -8.0020815E-02;2801;  7.4699201E-02;  0.0000000E+00; -1.4056453E-02;  1.0028956E+03;  4.0120077E-01;  2.2752993E+03;3;  3.5294212E+01;  0.0000000E+00; -5.3776436E+00;0;  5.3817026E-02;  1.0004103E+04;  0.0000000E+00; -9.9699327E-04;  1.0000000E+04;  0.0000000E+00;  9.9937773E+03; -1.0749043E-01;  0.0000000E+00;  1.6130745E-01;  1.6609343E+03;
  1.1401119E+00;  9.9999998E-03; -6.0015492E-02;2802;  7.2168946E-02;  0.0000000E+00; -1.0658905E-02;  1.0029398E+03;  4.0120080E-01;  2.3100576E+03;3;  3.4039341E+01;  0.0000000E+00; -4.2293496E+00;0;  4.6594933E-02;  1.0004558E+04;  0.0000000E+00; -7.3532326E-05;  1.0000000E+04;  0.0000000E+00;  9.9942080E+03; -1.1801335E-01;  0.0000000E+00;  1.6460828E-01;  1.5459222E+03;
  1.1401098E+00;  9.9999998E-03; -4.0010192E-02;2803;  7.0429362E-02;  0.0000000E+00; -7.1080662E-03;  1.0029696E+03;  4.0120074E-01;  2.3334795E+03;3;  3.3114506E+01;  0.0000000E+00; -2.9085598E+00;0;  4.1931123E-02;  1.0004862E+04;  0.0000000E+00; -1.2724704E-05;  1.0000000E+04;  0.0000000E+00;  9.9945010E+03; -1.2501197E-01;  0.0000000E+00;  1.6694309E-01;  1.4677875E+03;
  1.1401085E+00;  9.9999998E-03; -2.0005057E-02;2804;  6.9417283E-02;  0.0000000E+00; -3.5517297E-03;  1.0029862E+03;  4.0120065E-01;  2.3465020E+03;3;  3.2557915E+01;  0.0000000E+00; -1.4793949E+00;0;  3.9456159E-02;  1.0005026E+04;  0.0000000E+00; -2.7062642E-06;  1.0000000E+04;  0.0000000E+00;  9.9946699E+03; -1.2884726E-01;  0.0000000E+00;  1.6830342E-01;  1.4224756E+03;
  1.1601686E+00;  9.9999998E-03; -1.8005082E-01;2823;  1.0694683E-01;  0.0000000E+00; -2.3287904E-02;  1.0023143E+03;  4.0107954E-01;  1.7885719E+03;3;  4.8844139E+01;  0.0000000E+00; -5.3666797E+00;0;  7.3485687E-02;  1.0002033E+04;  0.0000000E+00; -8.4696239E-01;  1.0000000E+04;  0.0000000E+00;  9.9902988E+03; -6.2911421E-02;  0.0000000E+00;  1.3639711E-01;  3.1013245E+03;
  1.1601480E+00;  9.9999998E-03; -1.6004044E-01;2824;  9.6031845E-02;  0.0000000E+00; -2.0671127E-02;  1.0023272E+03;  4.0107960E-01;  1.7985564E+03;3;  4.4551327E+01;  0.0000000E+00; -5.1162324E+00;0;  8.3555870E-02;  1.0001528E+04;  0.0000000E+00; -5.4222232E-01;  1.0000000E+04;  0.0000000E+00;  9.9910566E+03; -5.5614837E-02;  0.0000000E+00;  1.3917071E-01;  2.4850684E+03;
  1.1601331E+00;  9.9999998E-03; -1.4003283E-01;2825;  8.7383531E-02;  0.0000000E+00; -1.8516632E-02;  1.0023564E+03;  4.0107971E-01;  1.8211534E+03;3;  4.1192780E+01;  0.0000000E+00; -5.0585823E+00;0;  8.9336425E-02;  1.0001301E+04;  0.0000000E+00; -2.8898618E-01;  1.0000000E+04;  0.0000000E+00;  9.9918662E+03; -5.1706728E-02;  0.0000000E+00;  1.4104316E-01;  2.0217500E+03;
  1.1601226E+00;  9.9999998E-03; -1.2002719E-01;2826;  8.0726013E-02;  0.0000000E+00; -1.6629620E-02;  1.0024064E+03;  4.0107954E-01;  1.8598666E+03;3;  3.8502968E+01;  0.0000000E+00; -5.1055746E+00;0;  8.7227747E-02;  1.0001472E+04;  0.0000000E+00; -1.2635259E-01;  1.0000000E+04;  0.0000000E+00;  9.9926953E+03; -5.5151206E-02;  0.0000000E+00;  1.4237896E-01;  1.7221942E+03;
  1.1601152E+00;  9.9999998E-03; -1.0002244E-01;2827;  7.5662628E-02;  0.0000000E+00; -1.4562756E-02;  1.0024670E+03;  4.0107945E-01;  1.9066827E+03;3;  3.6190189E+01;  0.0000000E+00; -5.0855575E+00;0;  7.9325028E-02;  1.0001916E+04;  0.0000000E+00; -4.4879001E-02;  1.0000000E+04;  0.0000000E+00;  9.9934609E+03; -6.4466529E-02;  0.0000000E+00;  1.4379156E-01;  1.5201105E+03;
  1.1601102E+00;  9.9999998E-03; -8.0018058E-02;2828;  7.2003454E-02;  0.0000000E+00; -1.2132033E-02;  1.0025259E+03;  4.0107954E-01;  1.9522056E+03;3;  3.4410007E+01;  0.0000000E+00; -4.5888186E+00;0;  6.9391496E-02;  1.0002458E+04;  0.0000000E+00; -1.2715217E-02;  1.0000000E+04;  0.0000000E+00;  9.9940957E+03; -7.6155715E-02;  0.0000000E+00;  1.4554721E-01;  1.3714373E+03;
  1.1601067E+00;  9.9999998E-03; -6.0013484E-02;2829;  6.9342583E-02;  0.0000000E+00; -9.2318347E-03;  1.0025750E+03;  4.0107945E-01;  1.9900787E+03;3;  3.3026985E+01;  0.0000000E+00; -3.6183476E+00;0;  6.0312897E-02;  1.0002953E+04;  0.0000000E+00; -2.6560093E-03;  1.0000000E+04;  0.0000000E+00;  9.9945771E+03; -8.7086782E-02;  0.0000000E+00;  1.4739968E-01;  1.2625172E+03;
  1.1601044E+00;  9.9999998E-03; -4.0008973E-02;2830;  6.7579456E-02;  0.0000000E+00; -6.2212883E-03;  1.0026102E+03;  4.0107951E-01;  2.0173545E+03;3;  3.2081112E+01;  0.0000000E+00; -2.5031025E+00;0;  5.3559311E-02;  1.0003328E+04;  0.0000000E+00; -3.7424729E-04;  1.0000000E+04;  0.0000000E+00;  9.9949063E+03; -9.5439233E-02;  0.0000000E+00;  1.4899854E-01;  1.1883997E+03;
  1.1601031E+00;  9.9999998E-03; -2.0004496E-02;2831;  6.6571027E-02;  0.0000000E+00; -3.1566718E-03;  1.0026311E+03;  4.0107948E-01;  2.0334802E+03;3;  3.1522770E+01;  0.0000000E+00; -1.3103058E+00;0;  4.9574092E-02;  1.0003558E+04;  0.0000000E+00; -1.9359508E-05;  1.0000000E+04;  0.0000000E+00;  9.9950947E+03; -1.0047941E-01;  0.0000000E+00;  1.5005350E-01;  1.1455098E+03;
  1.1801752E+00;  9.9999998E-03; -1.8005247E-01;2849;  1.0914187E-01;  0.0000000E+00; -2.2322774E-02;  1.0020491E+03;  4.0098637E-01;  1.5506442E+03;3;  5.1122799E+01;  0.0000000E+00; -5.0100517E+00;0;  8.5832134E-02;  1.0001185E+04;  0.0000000E+00; -1.1341807E+00;  1.0000000E+04;  0.0000000E+00;  9.9905059E+03; -5.0179619E-02;  0.0000000E+00;  1.3601175E-01;  3.0434219E+03;
  1.1801503E+00;  9.9999998E-03; -1.6004008E-01;2850;  9.6647955E-02;  0.0000000E+00; -1.8676335E-02;  1.0020780E+03;  4.0098622E-01;  1.5726113E+03;3;  4.5691456E+01;  0.0000000E+00; -4.2366638E+00;0;  8.5081846E-02;  1.0000923E+04;  0.0000000E+00; -8.3656943E-01;  1.0000000E+04;  0.0000000E+00;  9.9913398E+03; -4.9701437E-02;  0.0000000E+00;  1.3478328E-01;  2.4609243E+03;
  1.1801323E+00;  9.9999998E-03; -1.4003073E-01;2851;  8.6709708E-02;  0.0000000E+00; -1.5859211E-02;  1.0020912E+03;  4.0098640E-01;  1.5826587E+03;3;  4.1598766E+01;  0.0000000E+00; -3.8900981E+00;0;  9.3843155E-02;  1.0000429E+04;  0.0000000E+00; -5.3901041E-01;  1.0000000E+04;  0.0000000E+00;  9.9920957E+03; -4.1168593E-02;  0.0000000E+00;  1.3501175E-01;  1.9294955E+03;
  1.1801200E+00;  9.9999998E-03; -1.2002421E-01;2852;  7.9316579E-02;  0.0000000E+00; -1.3774474E-02;  1.0021171E+03;  4.0098637E-01;  1.6021683E+03;3;  3.8440674E+01;  0.0000000E+00; -3.7087312E+00;0;  9.9103466E-02;  1.0000185E+04;  0.0000000E+00; -3.0056569E-01;  1.0000000E+04;  0.0000000E+00;  9.9928535E+03; -3.5816029E-02;  0.0000000E+00;  1.3491949E-01;  1.5403740E+03;
  1.1801116E+00;  9.9999998E-03; -1.0001943E-01;2853;  7.3807053E-02;  0.0000000E+00; -1.2037049E-02;  1.0021583E+03;  4.0098625E-01;  1.6333994E+03;3;  3.5825859E+01;  0.0000000E+00; -3.7288504E+00;0;  9.7453356E-02;  1.0000281E+04;  0.0000000E+00; -1.4406486E-01;  1.0000000E+04;  0.0000000E+00;  9.9935830E+03; -3.7132863E-02;  0.0000000E+00;  1.3458622E-01;  1.2938392E+03;
  1.1801059E+00;  9.9999998E-03; -8.0015279E-02;2854;  6.9738835E-02;  0.0000000E+00; -1.0052905E-02;  1.0022062E+03;  4.0098631E-01;  1.6696785E+03;3;  3.3724655E+01;  0.0000000E+00; -3.5660875E+00;0;  9.1198109E-02;  1.0000597E+04;  0.0000000E+00; -5.8611941E-02;  1.0000000E+04;  0.0000000E+00;  9.9942236E+03; -4.3338038E-02;  0.0000000E+00;  1.3453615E-01;  1.1385504E+03;
  1.1801021E+00;  9.9999998E-03; -6.0011439E-02;2855;  6.6947579E-02;  0.0000000E+00; -7.7751460E-03;  1.0022510E+03;  4.0098625E-01;  1.7036082E+03;3;  3.2189590E+01;  0.0000000E+00; -2.9728022E+00;0;  8.3666585E-02;  1.0000980E+04;  0.0000000E+00; -1.9372862E-02;  1.0000000E+04;  0.0000000E+00;  9.9947344E+03; -5.1323675E-02;  0.0000000E+00;  1.3499026E-01;  1.0340430E+03;
  1.1800998E+00;  9.9999998E-03; -4.0007662E-02;2856;  6.5133922E-02;  0.0000000E+00; -5.3015146E-03;  1.0022863E+03;  4.0098628E-01;  1.7303177E+03;3;  3.1189697E+01;  0.0000000E+00; -2.0911539E+00;0;  7.7068612E-02;  1.0001319E+04;  0.0000000E+00; -4.7526811E-03;  1.0000000E+04;  0.0000000E+00;  9.9950996E+03; -5.8623645E-02;  0.0000000E+00;  1.3569225E-01;  9.6326508E+02;
  1.1800984E+00;  9.9999998E-03; -2.0003822E-02;2857;  6.4092368E-02;  0.0000000E+00; -2.6778653E-03;  1.0023088E+03;  4.0098628E-01;  1.7473721E+03;3;  3.0589804E+01;  0.0000000E+00; -1.0792904E+00;0;  7.2721265E-02;  1.0001546E+04;  0.0000000E+00; -6.3544785E-04;  1.0000000E+04;  0.0000000E+00;  9.9953203E+03; -6.3560806E-02;  0.0000000E+00;  1.3628207E-01;  9.2139783E+02;
  1.2001851E+00;  9.9999998E-03; -1.8005662E-01;2873;  1.1220869E-01;  0.0000000E+00; -2.2689657E-02;  1.0017816E+03;  4.0091622E-01;  1.3134137E+03;3;  5.5082592E+01;  0.0000000E+00; -5.2572856E+00;0;  1.2195697E-01;  9.9993555E+03;  0.0000000E+00; -1.2988845E+00;  1.0000000E+04;  0.0000000E+00;  9.9904951E+03; -1.7621944E-02;  0.0000000E+00;  1.3957891E-01;  2.7452344E+03;
  1.2001593E+00;  9.9999998E-03; -1.6004439E-01;2874;  9.9906012E-02;  0.0000000E+00; -1.9078877E-02;  1.0018539E+03;  4.0091622E-01;  1.3668097E+03;3;  4.8308372E+01;  0.0000000E+00; -4.2421498E+00;0;  1.0117604E-01;  9.9998711E+03;  0.0000000E+00; -1.1247849E+00;  1.0000000E+04;  0.0000000E+00;  9.9914189E+03; -3.3864018E-02;  0.0000000E+00;  1.3504006E-01;  2.4118625E+03;
  1.2001367E+00;  9.9999998E-03; -1.4003301E-01;2875;  8.8178754E-02;  0.0000000E+00; -1.5147094E-02;  1.0018884E+03;  4.0091625E-01;  1.3922544E+03;3;  4.2940022E+01;  0.0000000E+00; -3.2415581E+00;0;  9.5924452E-02;  9.9997129E+03;  0.0000000E+00; -8.2609540E-01;  1.0000000E+04;  0.0000000E+00;  9.9922627E+03; -3.4647603E-02;  0.0000000E+00;  1.3057205E-01;  1.9186234E+03;
  1.2001204E+00;  9.9999998E-03; -1.2002416E-01;2876;  7.9111829E-02;  0.0000000E+00; -1.2050896E-02;  1.0019012E+03;  4.0091625E-01;  1.4017793E+03;3;  3.8949005E+01;  0.0000000E+00; -2.6101129E+00;0;  1.0294561E-01;  9.9992441E+03;  0.0000000E+00; -5.3912681E-01;  1.0000000E+04;  0.0000000E+00;  9.9929854E+03; -2.5727239E-02;  0.0000000E+00;  1.2867285E-01;  1.4794985E+03;
  1.2001100E+00;  9.9999998E-03; -1.0001810E-01;2877;  7.2738782E-02;  0.0000000E+00; -9.9900207E-03;  1.0019166E+03;  4.0091625E-01;  1.4130507E+03;3;  3.5932285E+01;  0.0000000E+00; -2.3652141E+00;0;  1.1004396E-01;  9.9989053E+03;  0.0000000E+00; -3.1095886E-01;  1.0000000E+04;  0.0000000E+00;  9.9936279E+03; -1.7943520E-02;  0.0000000E+00;  1.2798747E-01;  1.1631256E+03;
  1.2001033E+00;  9.9999998E-03; -8.0013715E-02;2878;  6.8241186E-02;  0.0000000E+00; -8.3434517E-03;  1.0019420E+03;  4.0091619E-01;  1.4317856E+03;3;  3.3500843E+01;  0.0000000E+00; -2.4526696E+00;0;  1.1209198E-01;  9.9988340E+03;  0.0000000E+00; -1.5464364E-01;  1.0000000E+04;  0.0000000E+00;  9.9942070E+03; -1.5517658E-02;  0.0000000E+00;  1.2760964E-01;  9.6699261E+02;
  1.2000989E+00;  9.9999998E-03; -6.0009897E-02;2879;  6.5123633E-02;  0.0000000E+00; -6.4512831E-03;  1.0019722E+03;  4.0091628E-01;  1.4541199E+03;3;  3.1746046E+01;  0.0000000E+00; -2.2134230E+00;0;  1.1025081E-01;  9.9989473E+03;  0.0000000E+00; -6.3751116E-02;  1.0000000E+04;  0.0000000E+00;  9.9946973E+03; -1.7282225E-02;  0.0000000E+00;  1.2753303E-01;  8.5283752E+02;
  1.2000961E+00;  9.9999998E-03; -4.0006451E-02;2880;  6.3136198E-02;  0.0000000E+00; -4.3722992E-03;  1.0019996E+03;  4.0091619E-01;  1.4743413E+03;3;  3.0554993E+01;  0.0000000E+00; -1.6228876E+00;0;  1.0700881E-01;  9.9991221E+03;  0.0000000E+00; -2.0127460E-02;  1.0000000E+04;  0.0000000E+00;  9.9950732E+03; -2.0773502E-02;  0.0000000E+00;  1.2778232E-01;  7.8419592E+02;
  1.2000947E+00;  9.9999998E-03; -2.0003188E-02;2881;  6.2034007E-02;  0.0000000E+00; -2.2184926E-03;  1.0020188E+03;  4.0091622E-01;  1.4884955E+03;3;  2.9899443E+01;  0.0000000E+00; -8.7664634E-01;0;  1.0430365E-01;  9.9992676E+03;  0.0000000E+00; -3.7291977E-03;  1.0000000E+04;  0.0000000E+00;  9.9953096E+03; -2.3790350E-02;  0.0000000E+00;  1.2809400E-01;  7.4474390E+02;
  1.2201935E+00;  9.9999998E-03; -1.8006085E-01;2896;  1.1417391E-01;  0.0000000E+00; -2.3389764E-02;  1.0015071E+03;  4.0086460E-01;  1.0763615E+03;3;  6.0209892E+01;  0.0000000E+00; -6.1082401E+00;0;  1.7877519E-01;  9.9965430E+03;  0.0000000E+00; -1.0279698E+00;  1.0000000E+04;  0.0000000E+00;  9.9904063E+03;  3.4618195E-02;  0.0000000E+00;  1.4415699E-01;  1.9232422E+03;
  1.2201718E+00;  9.9999998E-03; -1.6005032E-01;2897;  1.0360131E-01;  0.0000000E+00; -2.0381080E-02;  1.0016025E+03;  4.0086457E-01;  1.1445125E+03;3;  5.2487240E+01;  0.0000000E+00; -4.6689925E+00;0;  1.4469433E-01;  9.9975693E+03;  0.0000000E+00; -1.2420796E+00;  1.0000000E+04;  0.0000000E+00;  9.9912832E+03;  5.3797280E-03;  0.0000000E+00;  1.3931461E-01;  2.0935896E+03;
  1.2201490E+00;  9.9999998E-03; -1.4003950E-01;2898;  9.2362709E-02;  0.0000000E+00; -1.6811153E-02;  1.0016794E+03;  4.0086448E-01;  1.1994739E+03;3;  4.5781410E+01;  0.0000000E+00; -3.5774100E+00;0;  1.2024797E-01;  9.9982158E+03;  0.0000000E+00; -1.0710485E+00;  1.0000000E+04;  0.0000000E+00;  9.9921699E+03; -1.1925228E-02;  0.0000000E+00;  1.3217320E-01;  1.8304686E+03;
  1.2201284E+00;  9.9999998E-03; -1.2002945E-01;2899;  8.1890270E-02;  0.0000000E+00; -1.2932858E-02;  1.0017224E+03;  4.0086454E-01;  1.2301687E+03;3;  4.0679382E+01;  0.0000000E+00; -2.4016812E+00;0;  1.1110784E-01;  9.9982959E+03;  0.0000000E+00; -7.7811557E-01;  1.0000000E+04;  0.0000000E+00;  9.9929453E+03; -1.5040040E-02;  0.0000000E+00;  1.2614788E-01;  1.4405071E+03;
  1.2201130E+00;  9.9999998E-03; -1.0002091E-01;2900;  7.3505662E-02;  0.0000000E+00; -9.6772639E-03;  1.0017366E+03;  4.0086463E-01;  1.2403337E+03;3;  3.6963531E+01;  0.0000000E+00; -1.4248536E+00;0;  1.1537886E-01;  9.9979443E+03;  0.0000000E+00; -4.9829021E-01;  1.0000000E+04;  0.0000000E+00;  9.9935762E+03; -8.3396491E-03;  0.0000000E+00;  1.2371852E-01;  1.0956326E+03;
  1.2201034E+00;  9.9999998E-03; -8.0014594E-02;2901;  6.7801006E-02;  0.0000000E+00; -7.4584987E-03;  1.0017410E+03;  4.0086451E-01;  1.2435902E+03;3;  3.4033012E+01;  0.0000000E+00; -1.3186628E+00;0;  1.2498049E-01;  9.9975234E+03;  0.0000000E+00; -2.7879918E-01;  1.0000000E+04;  0.0000000E+00;  9.9940879E+03;  1.2374774E-03;  0.0000000E+00;  1.2374301E-01;  8.5568939E+02;
  1.2200975E+00;  9.9999998E-03; -6.0009915E-02;2902;  6.4100474E-02;  0.0000000E+00; -5.6356038E-03;  1.0017493E+03;  4.0086451E-01;  1.2494781E+03;3;  3.1876898E+01;  0.0000000E+00; -1.3941283E+00;0;  1.3204047E-01;  9.9972607E+03;  0.0000000E+00; -1.3073094E-01;  1.0000000E+04;  0.0000000E+00;  9.9945146E+03;  7.6250224E-03;  0.0000000E+00;  1.2441545E-01;  7.1680273E+02;
  1.2200942E+00;  9.9999998E-03; -4.0006254E-02;2903;  6.1834339E-02;  0.0000000E+00; -3.8674199E-03;  1.0017610E+03;  4.0086451E-01;  1.2579150E+03;3;  3.0479664E+01;  0.0000000E+00; -1.1815962E+00;0;  1.3551207E-01;  9.9971592E+03;  0.0000000E+00; -4.7427129E-02;  1.0000000E+04;  0.0000000E+00;  9.9948545E+03;  1.0373558E-02;  0.0000000E+00;  1.2513851E-01;  6.4386920E+02;
  1.2200924E+00;  9.9999998E-03; -2.0003036E-02;2904;  6.0586940E-02;  0.0000000E+00; -1.9804982E-03;  1.0017714E+03;  4.0086448E-01;  1.2653271E+03;3;  2.9685312E+01;  0.0000000E+00; -6.8346322E-01;0;  1.3662495E-01;  9.9971396E+03;  0.0000000E+00; -9.9833654E-03;  1.0000000E+04;  0.0000000E+00;  9.9950771E+03;  1.0989903E-02;  0.0000000E+00;  1.2563504E-01;  6.0668359E+02;
  1.2401936E+00;  9.9999998E-03; -1.8006246E-01;2917;  1.1245176E-01;  0.0000000E+00; -2.2702415E-02;  1.0013382E+03;  4.0082735E-01;  9.2052692E+02;3;  6.5289909E+01;  0.0000000E+00; -6.7030125E+00;0;  2.0281187E-01;  9.9948047E+03;  0.0000000E+00; -7.0951204E-03;  1.0000000E+04;  0.0000000E+00;  9.9906318E+03;  6.6927038E-02;  0.0000000E+00;  1.3588482E-01;  9.8193365E+02;
  1.2401789E+00;  9.9999998E-03; -1.6005473E-01;2918;  1.0464904E-01;  0.0000000E+00; -2.0746954E-02;  1.0013762E+03;  4.0082720E-01;  9.4663080E+02;3;  5.7144127E+01;  0.0000000E+00; -5.1185484E+00;0;  1.8891527E-01;  9.9950205E+03;  0.0000000E+00; -7.9760832E-01;  1.0000000E+04;  0.0000000E+00;  9.9911719E+03;  5.0544009E-02;  0.0000000E+00;  1.3837126E-01;  1.2800044E+03;
  1.2401623E+00;  9.9999998E-03; -1.4004602E-01;2919;  9.5898829E-02;  0.0000000E+00; -1.8536633E-02;  1.0014341E+03;  4.0082729E-01;  9.8651703E+02;3;  5.0019688E+01;  0.0000000E+00; -4.0644665E+00;0;  1.7056775E-01;  9.9954541E+03;  0.0000000E+00; -1.0423303E+00;  1.0000000E+04;  0.0000000E+00;  9.9918975E+03;  3.3785630E-02;  0.0000000E+00;  1.3678212E-01;  1.4331683E+03;
  1.2401447E+00;  9.9999998E-03; -1.2003703E-01;2920;  8.6964399E-02;  0.0000000E+00; -1.5707325E-02;  1.0014936E+03;  4.0082729E-01;  1.0274736E+03;3;  4.3801270E+01;  0.0000000E+00; -3.2383139E+00;0;  1.5416829E-01;  9.9959131E+03;  0.0000000E+00; -9.2366707E-01;  1.0000000E+04;  0.0000000E+00;  9.9926230E+03;  2.2516066E-02;  0.0000000E+00;  1.3165222E-01;  1.2790979E+03;
  1.2401271E+00;  9.9999998E-03; -1.0002848E-01;2921;  7.8263491E-02;  0.0000000E+00; -1.2302238E-02;  1.0015440E+03;  4.0082732E-01;  1.0622004E+03;3;  3.9332737E+01;  0.0000000E+00; -1.8563384E+00;0;  1.4271691E-01;  9.9962969E+03;  0.0000000E+00; -6.5370256E-01;  1.0000000E+04;  0.0000000E+00;  9.9932490E+03;  1.5932785E-02;  0.0000000E+00;  1.2678413E-01;  1.0058965E+03;
  1.2401124E+00;  9.9999998E-03; -8.0020577E-02;2922;  7.0489116E-02;  0.0000000E+00; -9.1844723E-03;  1.0015726E+03;  4.0082726E-01;  1.0819152E+03;3;  3.5805618E+01;  0.0000000E+00; -9.7896057E-01;0;  1.3975132E-01;  9.9963467E+03;  0.0000000E+00; -3.8852492E-01;  1.0000000E+04;  0.0000000E+00;  9.9937627E+03;  1.4532335E-02;  0.0000000E+00;  1.2521897E-01;  7.6700781E+02;
  1.2401025E+00;  9.9999998E-03; -6.0013641E-02;2923;  6.5076903E-02;  0.0000000E+00; -6.4572152E-03;  1.0015818E+03;  4.0082717E-01;  1.0882520E+03;3;  3.2946251E+01;  0.0000000E+00; -7.7679098E-01;0;  1.4590257E-01;  9.9961182E+03;  0.0000000E+00; -1.9308043E-01;  1.0000000E+04;  0.0000000E+00;  9.9941738E+03;  2.0139590E-02;  0.0000000E+00;  1.2576298E-01;  6.1622766E+02;
  1.2400968E+00;  9.9999998E-03; -4.0008157E-02;2924;  6.1861474E-02;  0.0000000E+00; -4.2056195E-03;  1.0015838E+03;  4.0082717E-01;  1.0896586E+03;3;  3.1148056E+01;  0.0000000E+00; -7.9614830E-01;0;  1.5386800E-01;  9.9958525E+03;  0.0000000E+00; -7.4715585E-02;  1.0000000E+04;  0.0000000E+00;  9.9944795E+03;  2.6795728E-02;  0.0000000E+00;  1.2707227E-01;  5.3908032E+02;
  1.2400941E+00;  9.9999998E-03; -2.0003781E-02;2925;  6.0206674E-02;  0.0000000E+00; -2.0766754E-03;  1.0015853E+03;  4.0082723E-01;  1.0907310E+03;3;  3.0047983E+01;  0.0000000E+00; -5.4092783E-01;0;  1.5919505E-01;  9.9956777E+03;  0.0000000E+00; -1.6625373E-02;  1.0000000E+04;  0.0000000E+00;  9.9946826E+03;  3.1194204E-02;  0.0000000E+00;  1.2800084E-01;  5.0317184E+02;
  1.2601759E+00;  9.9999998E-03; -1.6005580E-01;2936;  1.0162809E-01;  0.0000000E+00; -1.9576292E-02;  1.0013099E+03;  4.0080100E-01;  8.6320044E+02;3;  6.1506702E+01;  0.0000000E+00; -5.4334340E+00;0;  1.7938279E-01;  9.9948066E+03;  0.0000000E+00;  3.1150365E-01;  1.0000000E+04;  0.0000000E+00;  9.9913848E+03;  5.5545382E-02;  0.0000000E+00;  1.2383740E-01;  7.7073877E+02;
  1.2601659E+00;  9.9999998E-03; -1.4004982E-01;2937;  9.5548406E-02;  0.0000000E+00; -1.8323513E-02;  1.0012837E+03;  4.0080091E-01;  8.4593677E+02;3;  5.4514816E+01;  0.0000000E+00; -4.2405996E+00;0;  1.9169417E-01;  9.9939502E+03;  0.0000000E+00; -3.8268793E-01;  1.0000000E+04;  0.0000000E+00;  9.9917129E+03;  6.0276080E-02;  0.0000000E+00;  1.3141809E-01;  7.4129016E+02;
  1.2601551E+00;  9.9999998E-03; -1.2004283E-01;2938;  8.8947386E-02;  0.0000000E+00; -1.6778026E-02;  1.0012824E+03;  4.0080085E-01;  8.4517206E+02;3;  4.7977852E+01;  0.0000000E+00; -3.2988560E+00;0;  1.9515686E-01;  9.9934375E+03;  0.0000000E+00; -6.6957951E-01;  1.0000000E+04;  0.0000000E+00;  9.9921982E+03;  6.0337767E-02;  0.0000000E+00;  1.3481909E-01;  8.3665918E+02;
  1.2601436E+00;  9.9999998E-03; -1.0003508E-01;2939;  8.2525425E-02;  0.0000000E+00; -1.4922138E-02;  1.0013003E+03;  4.0080091E-01;  8.5697852E+02;3;  4.2539894E+01;  0.0000000E+00; -2.8802109E+00;0;  1.9677700E-01;  9.9932510E+03;  0.0000000E+00; -6.2500751E-01;  1.0000000E+04;  0.0000000E+00;  9.9927461E+03;  6.1324611E-02;  0.0000000E+00;  1.3545239E-01;  7.6370764E+02;
  1.2601329E+00;  9.9999998E-03; -8.0026686E-02;2940;  7.6718234E-02;  0.0000000E+00; -1.2356259E-02;  1.0013260E+03;  4.0080082E-01;  8.7389130E+02;3;  3.8258595E+01;  0.0000000E+00; -2.5887032E+00;0;  1.9713160E-01;  9.9932354E+03;  0.0000000E+00; -4.2627311E-01;  1.0000000E+04;  0.0000000E+00;  9.9932734E+03;  6.3128531E-02;  0.0000000E+00;  1.3400307E-01;  6.0525079E+02;
  1.2601235E+00;  9.9999998E-03; -6.0018398E-02;2941;  7.1484268E-02;  0.0000000E+00; -9.3023153E-03;  1.0013495E+03;  4.0080091E-01;  8.8946613E+02;3;  3.4575100E+01;  0.0000000E+00; -2.5811431E+00;0;  1.9590001E-01;  9.9932715E+03;  0.0000000E+00; -2.2468290E-01;  1.0000000E+04;  0.0000000E+00;  9.9937051E+03;  6.2893137E-02;  0.0000000E+00;  1.3300687E-01;  4.7585745E+02;
  1.2601171E+00;  9.9999998E-03; -4.0011078E-02;2942;  6.7808539E-02;  0.0000000E+00; -5.9691668E-03;  1.0013625E+03;  4.0080091E-01;  8.9804327E+02;3;  3.1953159E+01;  0.0000000E+00; -2.0704284E+00;0;  1.9810542E-01;  9.9932178E+03;  0.0000000E+00; -8.8920690E-02;  1.0000000E+04;  0.0000000E+00;  9.9940156E+03;  6.5018110E-02;  0.0000000E+00;  1.3308731E-01;  4.0758868E+02;
  1.2601134E+00;  9.9999998E-03; -2.0005103E-02;2943;  6.5817207E-02;  0.0000000E+00; -2.8278094E-03;  1.0013683E+03;  4.0080085E-01;  9.0190070E+02;3;  3.0736412E+01;  0.0000000E+00; -1.0487583E+00;0;  2.0169085E-01;  9.9931455E+03;  0.0000000E+00; -2.0029215E-02;  1.0000000E+04;  0.0000000E+00;  9.9942061E+03;  6.7993276E-02;  0.0000000E+00;  1.3369757E-01;  3.7857404E+02;
  1.2801533E+00;  9.9999998E-03; -1.2004565E-01;2953;  8.6603791E-02;  0.0000000E+00; -1.5919635E-02;  1.0012568E+03;  4.0078264E-01;  7.9003687E+02;3;  5.2040699E+01;  0.0000000E+00; -3.2509727E+00;0;  1.7692010E-01;  9.9942002E+03;  0.0000000E+00;  1.3902004E-01;  1.0000000E+04;  0.0000000E+00;  9.9918369E+03;  4.9296085E-02;  0.0000000E+00;  1.2762402E-01;  5.3034253E+02;
  1.2801472E+00;  9.9999998E-03; -1.0003963E-01;2954;  8.1859119E-02;  0.0000000E+00; -1.4943244E-02;  1.0012026E+03;  4.0078259E-01;  7.5595276E+02;3;  4.6458908E+01;  0.0000000E+00; -2.6504617E+00;0;  2.0107347E-01;  9.9928057E+03;  0.0000000E+00; -1.5504971E-01;  1.0000000E+04;  0.0000000E+00;  9.9921504E+03;  6.3670583E-02;  0.0000000E+00;  1.3740288E-01;  4.6484354E+02;
  1.2801412E+00;  9.9999998E-03; -8.0031320E-02;2955;  7.7173069E-02;  0.0000000E+00; -1.3157474E-02;  1.0011789E+03;  4.0078250E-01;  7.4105133E+02;3;  4.1314594E+01;  0.0000000E+00; -2.6644769E+00;0;  2.1181647E-01;  9.9917910E+03;  0.0000000E+00; -2.0969027E-01;  1.0000000E+04;  0.0000000E+00;  9.9926924E+03;  7.0915699E-02;  0.0000000E+00;  1.4090078E-01;  4.0170560E+02;
  1.2801374E+00;  9.9999998E-03; -6.0021728E-02;2956;  7.3992476E-02;  0.0000000E+00; -1.0302711E-02;  1.0011481E+03;  4.0078256E-01;  7.2172430E+02;3;  3.6940384E+01;  0.0000000E+00; -3.2322366E+00;0;  2.3015383E-01;  9.9906641E+03;  0.0000000E+00; -1.3924679E-01;  1.0000000E+04;  0.0000000E+00;  9.9932080E+03;  8.9761093E-02;  0.0000000E+00;  1.4039274E-01;  3.1346277E+02;
  1.2801349E+00;  9.9999998E-03; -4.0012911E-02;2957;  7.2429761E-02;  0.0000000E+00; -6.4619565E-03;  1.0011215E+03;  4.0078256E-01;  7.0494269E+02;3;  3.4595215E+01;  0.0000000E+00; -2.4450393E+00;0;  2.5374699E-01;  9.9897998E+03;  0.0000000E+00; -5.9876800E-02;  1.0000000E+04;  0.0000000E+00;  9.9935430E+03;  1.1404576E-01;  0.0000000E+00;  1.3970122E-01;  2.4972203E+02;
  1.2801334E+00;  9.9999998E-03; -2.0005880E-02;2958;  7.1633294E-02;  0.0000000E+00; -3.0028166E-03;  1.0011057E+03;  4.0078253E-01;  6.9505353E+02;3;  3.3721245E+01;  0.0000000E+00; -1.1518452E+00;0;  2.6985943E-01;  9.9892998E+03;  0.0000000E+00; -1.3888119E-02;  1.0000000E+04;  0.0000000E+00;  9.9937236E+03;  1.2938747E-01;  0.0000000E+00;  1.4047195E-01;  2.1749466E+02;
  1.3001369E+00;  9.9999998E-03; -8.0034524E-02;2966;  7.4491017E-02;  0.0000000E+00; -1.2525003E-02;  1.0012633E+03;  4.0077001E-01;  7.5536444E+02;3;  4.5342369E+01;  0.0000000E+00; -2.3022804E+00;0;  1.6876896E-01;  9.9947861E+03;  0.0000000E+00;  2.6783660E-01;  1.0000000E+04;  0.0000000E+00;  9.9919971E+03;  2.5208859E-02;  0.0000000E+00;  1.4356010E-01;  4.3994724E+02;
  1.3001347E+00;  9.9999998E-03; -6.0024735E-02;2967;  7.1303427E-02;  0.0000000E+00; -1.0282004E-02;  1.0012282E+03;  4.0077010E-01;  7.3441199E+02;3;  4.1195484E+01;  0.0000000E+00; -2.4811046E+00;0;  1.7960691E-01;  9.9934385E+03;  0.0000000E+00;  8.8516861E-02;  1.0000000E+04;  0.0000000E+00;  9.9926484E+03;  3.2729253E-02;  0.0000000E+00;  1.4687766E-01;  3.3015323E+02;
  1.3001339E+00;  9.9999998E-03; -4.0014740E-02;2968;  6.9422640E-02;  0.0000000E+00; -6.8895561E-03;  1.0011829E+03;  4.0077016E-01;  7.0732654E+02;3;  3.7607986E+01;  0.0000000E+00; -2.7238927E+00;0;  1.9625774E-01;  9.9920977E+03;  0.0000000E+00;  2.0578764E-02;  1.0000000E+04;  0.0000000E+00;  9.9930850E+03;  4.9596664E-02;  0.0000000E+00;  1.4666107E-01;  2.5562759E+02;
  1.3001336E+00;  9.9999998E-03; -2.0006634E-02;2969;  6.8859458E-02;  0.0000000E+00; -3.1769511E-03;  1.0011489E+03;  4.0077010E-01;  6.8694049E+02;3;  3.6483303E+01;  0.0000000E+00; -1.3458955E+00;0;  2.1548942E-01;  9.9912158E+03;  0.0000000E+00;  2.8633887E-03;  1.0000000E+04;  0.0000000E+00;  9.9932861E+03;  6.8350881E-02;  0.0000000E+00;  1.4713854E-01;  2.1587521E+02;
 -5.1292119E-07;  9.9999998E-03; -1.1443483E-14;1045; -5.7645125E-04;  0.0000000E+00; -1.7402876E-11;  1.0000119E+03;  4.0000001E-01;  9.8762627E+00;3; -5.6737769E-01;  0.0000000E+00; -1.8440335E-07;0; -1.1607744E-02;  1.0000243E+04;  0.0000000E+00;  1.9162413E-16;  1.0000000E+04;  0.0000000E+00;  9.9999980E+03; -1.1732589E-02;  0.0000000E+00;  1.2484487E-04;  2.2145560E+00;
 -5.1299594E-07;  9.9999998E-03;  2.0000003E-02;1046; -5.7672348E-04;  0.0000000E+00;  2.2659740E-06;  1.0000119E+03;  4.0000001E-01;  9.8762627E+00;3; -5.6780577E-01;  0.0000000E+00;  1.7887338E-03;0; -1.1607205E-02;  1.0000243E+04;  0.0000000E+00;  9.2726055E-13;  1.0000000E+04;  0.0000000E+00;  9.9999980E+03; -1.1738615E-02;  0.0000000E+00;  1.3140983E-04;  2.2639413E+00;
 -5.1316067E-07;  9.9999998E-03;  4.0000007E-02;1047; -5.7746010E-04;  0.0000000E+00;  4.9236746E-06;  1.0000119E+03;  4.0000001E-01;  9.8762627E+00;3; -5.6900346E-01;  0.0000000E+00;  3.9795227E-03;0; -1.1604088E-02;  1.0000243E+04;  0.0000000E+00; -1.1789065E-11;  1.0000000E+04;  0.0000000E+00;  9.9999971E+03; -1.1754993E-02;  0.0000000E+00;  1.5090514E-04;  2.4104433E+00;
 -5.1323315E-07;  9.9999998E-03;  6.0000010E-02;1048; -5.7843275E-04;  0.0000000E+00;  8.2947154E-06;  1.0000119E+03;  4.0000001E-01;  9.8762627E+00;3; -5.7071519E-01;  0.0000000E+00;  6.9020484E-03;0; -1.1593786E-02;  1.0000242E+04;  0.0000000E+00; -3.3141004E-11;  1.0000000E+04;  0.0000000E+00;  9.9999961E+03; -1.1776472E-02;  0.0000000E+00;  1.8268671E-04;  2.6488218E+00;
 -5.1287697E-07;  9.9999998E-03;  8.0000013E-02;1049; -5.7920418E-04;  0.0000000E+00;  1.2826046E-05;  1.0000118E+03;  4.0000001E-01;  9.7775002E+00;3; -5.7245529E-01;  0.0000000E+00;  1.0986410E-02;0; -1.1568360E-02;  1.0000241E+04;  0.0000000E+00; -2.7398984E-11;  1.0000000E+04;  0.0000000E+00;  9.9999961E+03; -1.1793849E-02;  0.0000000E+00;  2.2548868E-04;  2.9689751E+00;
 -5.1161953E-07;  9.9999998E-03;  1.0000002E-01;1050; -5.7917211E-04;  0.0000000E+00;  1.8696230E-05;  1.0000117E+03;  4.0000001E-01;  9.6787367E+00;3; -5.7356036E-01;  0.0000000E+00;  1.6453467E-02;0; -1.1516249E-02;  1.0000240E+04;  0.0000000E+00; -1.7845373E-11;  1.0000000E+04;  0.0000000E+00;  9.9999941E+03; -1.1793308E-02;  0.0000000E+00;  2.7705892E-04;  3.3531053E+00;
 -5.0872666E-07;  9.9999998E-03;  1.2000003E-01;1051; -5.7740486E-04;  0.0000000E+00;  2.6360829E-05;  1.0000117E+03;  4.0000001E-01;  9.6787367E+00;3; -5.7301688E-01;  0.0000000E+00;  2.3796976E-02;0; -1.1422118E-02;  1.0000239E+04;  0.0000000E+00; -6.3897533E-11;  1.0000000E+04;  0.0000000E+00;  9.9999941E+03; -1.1755680E-02;  0.0000000E+00;  3.3356179E-04;  3.7707338E+00;
 -5.0329282E-07;  9.9999998E-03;  1.4000003E-01;1052; -5.7275733E-04;  0.0000000E+00;  3.5958397E-05;  1.0000114E+03;  4.0000001E-01;  9.4812117E+00;3; -5.6957531E-01;  0.0000000E+00;  3.3237714E-02;0; -1.1266950E-02;  1.0000236E+04;  0.0000000E+00; -4.2777434E-10;  1.0000000E+04;  0.0000000E+00;  9.9999932E+03; -1.1655809E-02;  0.0000000E+00;  3.8885939E-04;  4.1725669E+00;
  1.9999262E-02;  9.9999998E-03; -3.0026285E-14;1075; -8.2102889E-04;  0.0000000E+00;  1.0305663E-11;  1.0000146E+03;  4.0000001E-01;  1.2049040E+01;3; -7.5054657E-01;  0.0000000E+00;  2.6750911E-08;0; -1.3953190E-02;  1.0000296E+04;  0.0000000E+00; -4.7755906E-17;  1.0000000E+04;  0.0000000E+00;  9.9999961E+03; -1.4123116E-02;  0.0000000E+00;  1.6992522E-04;  2.9495459E+00;
  1.9999262E-02;  9.9999998E-03;  2.0000003E-02;1076; -8.2153850E-04;  0.0000000E+00;  3.2577550E-06;  1.0000146E+03;  4.0000001E-01;  1.2049040E+01;3; -7.5125766E-01;  0.0000000E+00;  2.2409954E-03;0; -1.3953648E-02;  1.0000296E+04;  0.0000000E+00; -9.7266821E-12;  1.0000000E+04;  0.0000000E+00;  9.9999961E+03; -1.4132487E-02;  0.0000000E+00;  1.7883867E-04;  3.0179768E+00;
  1.9999262E-02;  9.9999998E-03;  4.0000007E-02;1077; -8.2295627E-04;  0.0000000E+00;  7.0207184E-06;  1.0000146E+03;  4.0000001E-01;  1.2049040E+01;3; -7.5327694E-01;  0.0000000E+00;  4.9694772E-03;0; -1.3953325E-02;  1.0000296E+04;  0.0000000E+00; -2.0272900E-11;  1.0000000E+04;  0.0000000E+00;  9.9999961E+03; -1.4158634E-02;  0.0000000E+00;  2.0530891E-04;  3.2210193E+00;
  1.9999260E-02;  9.9999998E-03;  6.0000014E-02;1078; -8.2495809E-04;  0.0000000E+00;  1.1741015E-05;  1.0000146E+03;  4.0000001E-01;  1.2049040E+01;3; -7.5625932E-01;  0.0000000E+00;  8.6423382E-03;0; -1.3947028E-02;  1.0000296E+04;  0.0000000E+00; -1.4384095E-11;  1.0000000E+04;  0.0000000E+00;  9.9999951E+03; -1.4195478E-02;  0.0000000E+00;  2.4845029E-04;  3.5514555E+00;
  1.9999260E-02;  9.9999998E-03;  8.0000021E-02;1079; -8.2695129E-04;  0.0000000E+00;  1.7946255E-05;  1.0000146E+03;  4.0000001E-01;  1.2049040E+01;3; -7.5959158E-01;  0.0000000E+00;  1.3738280E-02;0; -1.3925775E-02;  1.0000296E+04;  0.0000000E+00; -2.5440774E-11;  1.0000000E+04;  0.0000000E+00;  9.9999941E+03; -1.4232294E-02;  0.0000000E+00;  3.0651898E-04;  3.9952536E+00;
  1.9999262E-02;  9.9999998E-03;  1.0000002E-01;1080; -8.2806195E-04;  0.0000000E+00;  2.6031970E-05;  1.0000145E+03;  4.0000001E-01;  1.1950277E+01;3; -7.6234639E-01;  0.0000000E+00;  2.0694403E-02;0; -1.3876430E-02;  1.0000295E+04;  0.0000000E+00;  2.0088360E-11;  1.0000000E+04;  0.0000000E+00;  9.9999922E+03; -1.4252830E-02;  0.0000000E+00;  3.7640039E-04;  4.5275135E+00;
  1.9999264E-02;  9.9999998E-03;  1.2000003E-01;1081; -8.2701753E-04;  0.0000000E+00;  3.6378562E-05;  1.0000143E+03;  4.0000001E-01;  1.1851515E+01;3; -7.6322389E-01;  0.0000000E+00;  2.9870607E-02;0; -1.3781400E-02;  1.0000294E+04;  0.0000000E+00; -2.0246377E-11;  1.0000000E+04;  0.0000000E+00;  9.9999912E+03; -1.4234239E-02;  0.0000000E+00;  4.5283916E-04;  5.1059017E+00;
  1.9999271E-02;  9.9999998E-03;  1.4000005E-01;1082; -8.2206848E-04;  0.0000000E+00;  4.9552480E-05;  1.0000140E+03;  4.0000001E-01;  1.1653990E+01;3; -7.6045310E-01;  0.0000000E+00;  4.1908842E-02;0; -1.3618510E-02;  1.0000293E+04;  0.0000000E+00;  1.5190106E-10;  1.0000000E+04;  0.0000000E+00;  9.9999902E+03; -1.4146091E-02;  0.0000000E+00;  5.2758120E-04;  5.6630826E+00;
  3.9998967E-02;  9.9999998E-03;  9.1850415E-15;1106; -1.1360089E-03;  0.0000000E+00;  2.0565502E-11;  1.0000172E+03;  4.0000001E-01;  1.4221818E+01;3; -9.7597885E-01;  0.0000000E+00;  5.9738909E-08;0; -1.6130913E-02;  1.0000350E+04;  0.0000000E+00;  3.7937967E-17;  1.0000000E+04;  0.0000000E+00;  9.9999951E+03; -1.6342781E-02;  0.0000000E+00;  2.1186798E-04;  3.6986456E+00;
  3.9998967E-02;  9.9999998E-03;  2.0000005E-02;1107; -1.1368498E-03;  0.0000000E+00;  3.9887450E-06;  1.0000172E+03;  4.0000001E-01;  1.4221818E+01;3; -9.7704649E-01;  0.0000000E+00;  2.3494875E-03;0; -1.6133424E-02;  1.0000350E+04;  0.0000000E+00; -2.2731237E-12;  1.0000000E+04;  0.0000000E+00;  9.9999951E+03; -1.6356444E-02;  0.0000000E+00;  2.2302080E-04;  3.7866957E+00;
  3.9998967E-02;  9.9999998E-03;  4.0000010E-02;1108; -1.1392254E-03;  0.0000000E+00;  8.5460943E-06;  1.0000172E+03;  4.0000001E-01;  1.4221818E+01;3; -9.8010480E-01;  0.0000000E+00;  5.2075274E-03;0; -1.6139178E-02;  1.0000351E+04;  0.0000000E+00; -6.4641070E-12;  1.0000000E+04;  0.0000000E+00;  9.9999951E+03; -1.6395316E-02;  0.0000000E+00;  2.5613865E-04;  4.0479712E+00;
  3.9998963E-02;  9.9999998E-03;  6.0000017E-02;1109; -1.1426926E-03;  0.0000000E+00;  1.4285055E-05;  1.0000172E+03;  4.0000001E-01;  1.4221818E+01;3; -9.8470390E-01;  0.0000000E+00;  9.2040095E-03;0; -1.6142659E-02;  1.0000351E+04;  0.0000000E+00; -1.0178810E-11;  1.0000000E+04;  0.0000000E+00;  9.9999932E+03; -1.6452754E-02;  0.0000000E+00;  3.1009535E-04;  4.4731488E+00;
  3.9998963E-02;  9.9999998E-03;  8.0000021E-02;1110; -1.1464702E-03;  0.0000000E+00;  2.1722020E-05;  1.0000172E+03;  4.0000001E-01;  1.4221818E+01;3; -9.9007368E-01;  0.0000000E+00;  1.4729267E-02;0; -1.6134279E-02;  1.0000352E+04;  0.0000000E+00;  7.2946553E-12;  1.0000000E+04;  0.0000000E+00;  9.9999922E+03; -1.6516954E-02;  0.0000000E+00;  3.8267559E-04;  5.0440507E+00;
  3.9998963E-02;  9.9999998E-03;  1.0000003E-01;1111; -1.1493370E-03;  0.0000000E+00;  3.1507028E-05;  1.0000172E+03;  4.0000001E-01;  1.4221818E+01;3; -9.9498129E-01;  0.0000000E+00;  2.2501945E-02;0; -1.6099887E-02;  1.0000353E+04;  0.0000000E+00;  8.8795006E-11;  1.0000000E+04;  0.0000000E+00;  9.9999893E+03; -1.6569821E-02;  0.0000000E+00;  4.6993472E-04;  5.7284274E+00;
  3.9998967E-02;  9.9999998E-03;  1.2000004E-01;1112; -1.1496261E-03;  0.0000000E+00;  4.3825308E-05;  1.0000170E+03;  4.0000001E-01;  1.4024293E+01;3; -9.9783492E-01;  0.0000000E+00;  3.2589912E-02;0; -1.6020214E-02;  1.0000351E+04;  0.0000000E+00;  2.3861341E-10;  1.0000000E+04;  0.0000000E+00;  9.9999893E+03; -1.6585503E-02;  0.0000000E+00;  5.6528882E-04;  6.4720325E+00;
  3.9998975E-02;  9.9999998E-03;  1.4000006E-01;1113; -1.1449159E-03;  0.0000000E+00;  5.9412174E-05;  1.0000168E+03;  4.0000001E-01;  1.3925530E+01;3; -9.9629557E-01;  0.0000000E+00;  4.5779273E-02;0; -1.5870346E-02;  1.0000350E+04;  0.0000000E+00;  4.0499787E-10;  1.0000000E+04;  0.0000000E+00;  9.9999863E+03; -1.6528968E-02;  0.0000000E+00;  6.5862248E-04;  7.1903524E+00;
  5.9998617E-02;  9.9999998E-03; -6.5814487E-14;1137; -1.5040139E-03;  0.0000000E+00; -3.2272279E-11;  1.0000201E+03;  4.0000001E-01;  1.6690884E+01;3; -1.2320333E+00;  0.0000000E+00; -1.4702425E-07;0; -1.8412318E-02;  1.0000408E+04;  0.0000000E+00;  6.8646437E-18;  1.0000000E+04;  0.0000000E+00;  9.9999941E+03; -1.8660411E-02;  0.0000000E+00;  2.4809330E-04;  4.4620476E+00;
  5.9998617E-02;  9.9999998E-03;  2.0000005E-02;1138; -1.5052885E-03;  0.0000000E+00;  4.3819773E-06;  1.0000201E+03;  4.0000001E-01;  1.6690884E+01;3; -1.2335327E+00;  0.0000000E+00;  2.1005739E-03;0; -1.8418144E-02;  1.0000408E+04;  0.0000000E+00; -7.7646622E-12;  1.0000000E+04;  0.0000000E+00;  9.9999941E+03; -1.8679416E-02;  0.0000000E+00;  2.6127059E-04;  4.5700750E+00;
  5.9998613E-02;  9.9999998E-03;  4.0000010E-02;1139; -1.5089237E-03;  0.0000000E+00;  9.3975996E-06;  1.0000201E+03;  4.0000001E-01;  1.6690884E+01;3; -1.2378383E+00;  0.0000000E+00;  4.7805784E-03;0; -1.8433800E-02;  1.0000410E+04;  0.0000000E+00; -9.4829179E-12;  1.0000000E+04;  0.0000000E+00;  9.9999932E+03; -1.8734187E-02;  0.0000000E+00;  3.0038678E-04;  4.8905640E+00;
  5.9998609E-02;  9.9999998E-03;  6.0000021E-02;1140; -1.5143519E-03;  0.0000000E+00;  1.5740015E-05;  1.0000201E+03;  4.0000001E-01;  1.6690884E+01;3; -1.2444052E+00;  0.0000000E+00;  8.6201970E-03;0; -1.8453656E-02;  1.0000410E+04;  0.0000000E+00; -8.5312200E-12;  1.0000000E+04;  0.0000000E+00;  9.9999912E+03; -1.8817727E-02;  0.0000000E+00;  3.6407111E-04;  5.4118009E+00;
  5.9998609E-02;  9.9999998E-03;  8.0000028E-02;1141; -1.5205794E-03;  0.0000000E+00;  2.3978931E-05;  1.0000201E+03;  4.0000001E-01;  1.6690884E+01;3; -1.2522748E+00;  0.0000000E+00;  1.4180942E-02;0; -1.8467810E-02;  1.0000411E+04;  0.0000000E+00;  8.8756624E-12;  1.0000000E+04;  0.0000000E+00;  9.9999902E+03; -1.8917453E-02;  0.0000000E+00;  4.4964248E-04;  6.1110721E+00;
  5.9998605E-02;  9.9999998E-03;  1.0000004E-01;1142; -1.5260448E-03;  0.0000000E+00;  3.4806737E-05;  1.0000201E+03;  4.0000001E-01;  1.6690884E+01;3; -1.2599776E+00;  0.0000000E+00;  2.1987552E-02;0; -1.8461399E-02;  1.0000412E+04;  0.0000000E+00;  8.1724828E-11;  1.0000000E+04;  0.0000000E+00;  9.9999883E+03; -1.9013800E-02;  0.0000000E+00;  5.5240106E-04;  6.9485803E+00;
  5.9998609E-02;  9.9999998E-03;  1.2000005E-01;1143; -1.5285588E-03;  0.0000000E+00;  4.8598104E-05;  1.0000200E+03;  4.0000001E-01;  1.6493359E+01;3; -1.2654471E+00;  0.0000000E+00;  3.2529656E-02;0; -1.8413728E-02;  1.0000413E+04;  0.0000000E+00;  2.0514140E-10;  1.0000000E+04;  0.0000000E+00;  9.9999854E+03; -1.9078352E-02;  0.0000000E+00;  6.6462363E-04;  7.8585396E+00;
  5.9998617E-02;  9.9999998E-03;  1.4000008E-01;1144; -1.5250394E-03;  0.0000000E+00;  6.5846245E-05;  1.0000198E+03;  4.0000001E-01;  1.6394596E+01;3; -1.2658972E+00;  0.0000000E+00;  4.6096642E-02;0; -1.8297099E-02;  1.0000413E+04;  0.0000000E+00;  5.4878546E-10;  1.0000000E+04;  0.0000000E+00;  9.9999834E+03; -1.9071855E-02;  0.0000000E+00;  7.7475584E-04;  8.7409821E+00;
  7.9998203E-02;  9.9999998E-03; -5.1760954E-14;1168; -1.9208330E-03;  0.0000000E+00;  1.6196243E-10;  1.0000236E+03;  4.0000001E-01;  1.9555000E+01;3; -1.5196180E+00;  0.0000000E+00;  8.6498756E-07;0; -2.1055989E-02;  1.0000483E+04;  0.0000000E+00;  4.1482919E-17;  1.0000000E+04;  0.0000000E+00;  9.9999922E+03; -2.1336239E-02;  0.0000000E+00;  2.8024896E-04;  5.2728105E+00;
  7.9998203E-02;  9.9999998E-03;  2.0000007E-02;1169; -1.9226593E-03;  0.0000000E+00;  4.4878025E-06;  1.0000236E+03;  4.0000001E-01;  1.9555000E+01;3; -1.5216259E+00;  0.0000000E+00;  1.6342616E-03;0; -2.1066459E-02;  1.0000483E+04;  0.0000000E+00; -9.3599373E-12;  1.0000000E+04;  0.0000000E+00;  9.9999922E+03; -2.1361753E-02;  0.0000000E+00;  2.9529471E-04;  5.4023466E+00;
  7.9998203E-02;  9.9999998E-03;  4.0000014E-02;1170; -1.9279106E-03;  0.0000000E+00;  9.6801505E-06;  1.0000236E+03;  4.0000001E-01;  1.9555000E+01;3; -1.5274330E+00;  0.0000000E+00;  3.8880366E-03;0; -2.1096073E-02;  1.0000483E+04;  0.0000000E+00; -2.1796174E-11;  1.0000000E+04;  0.0000000E+00;  9.9999912E+03; -2.1435997E-02;  0.0000000E+00;  3.3992293E-04;  5.7863970E+00;
  7.9998195E-02;  9.9999998E-03;  6.0000021E-02;1171; -1.9359019E-03;  0.0000000E+00;  1.6266047E-05;  1.0000236E+03;  4.0000001E-01;  1.9555000E+01;3; -1.5364051E+00;  0.0000000E+00;  7.2823795E-03;0; -2.1139197E-02;  1.0000485E+04;  0.0000000E+00; -2.6979944E-11;  1.0000000E+04;  0.0000000E+00;  9.9999902E+03; -2.1551671E-02;  0.0000000E+00;  4.1247421E-04;  6.4101710E+00;
  7.9998188E-02;  9.9999998E-03;  8.0000028E-02;1172; -1.9454050E-03;  0.0000000E+00;  2.4973884E-05;  1.0000236E+03;  4.0000001E-01;  1.9555000E+01;3; -1.5473795E+00;  0.0000000E+00;  1.2549714E-02;0; -2.1185789E-02;  1.0000487E+04;  0.0000000E+00; -3.2640998E-11;  1.0000000E+04;  0.0000000E+00;  9.9999873E+03; -2.1695545E-02;  0.0000000E+00;  5.0975644E-04;  7.2454181E+00;
  7.9998188E-02;  9.9999998E-03;  1.0000005E-01;1173; -1.9545348E-03;  0.0000000E+00;  3.6399098E-05;  1.0000236E+03;  4.0000001E-01;  1.9555000E+01;3; -1.5586483E+00;  0.0000000E+00;  2.0033944E-02;0; -2.1220481E-02;  1.0000491E+04;  0.0000000E+00;  2.6680489E-11;  1.0000000E+04;  0.0000000E+00;  9.9999863E+03; -2.1846803E-02;  0.0000000E+00;  6.2632217E-04;  8.2438307E+00;
  7.9998188E-02;  9.9999998E-03;  1.2000006E-01;1174; -1.9605330E-03;  0.0000000E+00;  5.1220268E-05;  1.0000235E+03;  4.0000001E-01;  1.9456238E+01;3; -1.5676813E+00;  0.0000000E+00;  3.0538427E-02;0; -2.1221152E-02;  1.0000491E+04;  0.0000000E+00;  2.5593397E-10;  1.0000000E+04;  0.0000000E+00;  9.9999834E+03; -2.1974619E-02;  0.0000000E+00;  7.5346843E-04;  9.3277693E+00;
  7.9998195E-02;  9.9999998E-03;  1.4000008E-01;1175; -1.9596287E-03;  0.0000000E+00;  6.9608788E-05;  1.0000235E+03;  4.0000001E-01;  1.9456238E+01;3; -1.5711976E+00;  0.0000000E+00;  4.3952189E-02;0; -2.1156853E-02;  1.0000491E+04;  0.0000000E+00;  5.6629229E-10;  1.0000000E+04;  0.0000000E+00;  9.9999814E+03; -2.2035537E-02;  0.0000000E+00;  8.7868475E-04;  1.0383476E+01;
  9.9997722E-02;  9.9999998E-03; -3.7582330E-14;1199; -2.3925414E-03;  0.0000000E+00; -1.7738047E-10;  1.0000281E+03;  4.0000001E-01;  2.3307980E+01;3; -1.8435508E+00;  0.0000000E+00; -3.5144944E-07;0; -2.4259133E-02;  1.0000570E+04;  0.0000000E+00;  1.3874854E-16;  1.0000000E+04;  0.0000000E+00;  9.9999912E+03; -2.4573496E-02;  0.0000000E+00;  3.1436319E-04;  6.1926193E+00;
  9.9997722E-02;  9.9999998E-03;  2.0000007E-02;1200; -2.3950632E-03;  0.0000000E+00;  4.4638873E-06;  1.0000281E+03;  4.0000001E-01;  2.3307980E+01;3; -1.8461746E+00;  0.0000000E+00;  1.1197365E-03;0; -2.4275571E-02;  1.0000571E+04;  0.0000000E+00; -7.1471058E-12;  1.0000000E+04;  0.0000000E+00;  9.9999912E+03; -2.4606910E-02;  0.0000000E+00;  3.3133928E-04;  6.3478150E+00;
  9.9997714E-02;  9.9999998E-03;  4.0000014E-02;1201; -2.4023659E-03;  0.0000000E+00;  9.6793892E-06;  1.0000281E+03;  4.0000001E-01;  2.3307980E+01;3; -1.8538085E+00;  0.0000000E+00;  2.8217828E-03;0; -2.4323123E-02;  1.0000572E+04;  0.0000000E+00; -3.7889913E-11;  1.0000000E+04;  0.0000000E+00;  9.9999893E+03; -2.4704747E-02;  0.0000000E+00;  3.8162517E-04;  6.8074341E+00;
  9.9997707E-02;  9.9999998E-03;  6.0000025E-02;1202; -2.4136428E-03;  0.0000000E+00;  1.6376387E-05;  1.0000281E+03;  4.0000001E-01;  2.3307980E+01;3; -1.8657136E+00;  0.0000000E+00;  5.7237200E-03;0; -2.4396311E-02;  1.0000574E+04;  0.0000000E+00; -3.5344522E-11;  1.0000000E+04;  0.0000000E+00;  9.9999873E+03; -2.4859466E-02;  0.0000000E+00;  4.6315344E-04;  7.5522780E+00;
  9.9997699E-02;  9.9999998E-03;  8.0000035E-02;1203; -2.4274483E-03;  0.0000000E+00;  2.5351605E-05;  1.0000283E+03;  4.0000001E-01;  2.3406742E+01;3; -1.8805712E+00;  0.0000000E+00;  1.0417155E-02;0; -2.4485113E-02;  1.0000577E+04;  0.0000000E+00; -5.1836074E-11;  1.0000000E+04;  0.0000000E+00;  9.9999863E+03; -2.5057171E-02;  0.0000000E+00;  5.7205657E-04;  8.5464487E+00;
  9.9997692E-02;  9.9999998E-03;  1.0000005E-01;1204; -2.4415606E-03;  0.0000000E+00;  3.7218921E-05;  1.0000283E+03;  4.0000001E-01;  2.3505505E+01;3; -1.8963616E+00;  0.0000000E+00;  1.7503735E-02;0; -2.4573782E-02;  1.0000581E+04;  0.0000000E+00; -1.1506965E-11;  1.0000000E+04;  0.0000000E+00;  9.9999834E+03; -2.5275752E-02;  0.0000000E+00;  7.0196897E-04;  9.7304621E+00;
  9.9997692E-02;  9.9999998E-03;  1.2000006E-01;1205; -2.4526785E-03;  0.0000000E+00;  5.2792140E-05;  1.0000282E+03;  4.0000001E-01;  2.3406742E+01;3; -1.9102114E+00;  0.0000000E+00;  2.7480910E-02;0; -2.4638796E-02;  1.0000585E+04;  0.0000000E+00;  1.2008405E-10;  1.0000000E+04;  0.0000000E+00;  9.9999785E+03; -2.5481973E-02;  0.0000000E+00;  8.4317644E-04;  1.1012523E+01;
  9.9997692E-02;  9.9999998E-03;  1.4000009E-01;1206; -2.4562557E-03;  0.0000000E+00;  7.2152201E-05;  1.0000281E+03;  4.0000001E-01;  2.3307980E+01;3; -1.9181583E+00;  0.0000000E+00;  4.0639572E-02;0; -2.4645632E-02;  1.0000586E+04;  0.0000000E+00;  4.5706006E-10;  1.0000000E+04;  0.0000000E+00;  9.9999775E+03; -2.5628109E-02;  0.0000000E+00;  9.8247570E-04;  1.2264427E+01;
  1.1999715E-01;  9.9999998E-03; -6.0812276E-14;1230; -2.9329222E-03;  0.0000000E+00; -1.7289678E-10;  1.0000334E+03;  4.0000001E-01;  2.7653534E+01;3; -2.2094736E+00;  0.0000000E+00; -9.6560439E-07;0; -2.8142622E-02;  1.0000680E+04;  0.0000000E+00; -3.8089153E-17;  1.0000000E+04;  0.0000000E+00;  9.9999893E+03; -2.8502701E-02;  0.0000000E+00;  3.6007984E-04;  7.3025336E+00;
  1.1999715E-01;  9.9999998E-03;  2.0000007E-02;1231; -2.9363143E-03;  0.0000000E+00;  4.5471484E-06;  1.0000334E+03;  4.0000001E-01;  2.7752296E+01;3; -2.2128415E+00;  0.0000000E+00;  7.9793873E-04;0; -2.8166246E-02;  1.0000682E+04;  0.0000000E+00; -2.6337420E-11;  1.0000000E+04;  0.0000000E+00;  9.9999893E+03; -2.8545657E-02;  0.0000000E+00;  3.7941188E-04;  7.4916191E+00;
  1.1999714E-01;  9.9999998E-03;  4.0000018E-02;1232; -2.9461945E-03;  0.0000000E+00;  9.8999144E-06;  1.0000335E+03;  4.0000001E-01;  2.7752296E+01;3; -2.2226813E+00;  0.0000000E+00;  2.1595047E-03;0; -2.8235449E-02;  1.0000683E+04;  0.0000000E+00;  4.6494297E-13;  1.0000000E+04;  0.0000000E+00;  9.9999883E+03; -2.8672004E-02;  0.0000000E+00;  4.3655612E-04;  8.0507889E+00;
  1.1999713E-01;  9.9999998E-03;  6.0000025E-02;1233; -2.9616347E-03;  0.0000000E+00;  1.6840286E-05;  1.0000335E+03;  4.0000001E-01;  2.7752296E+01;3; -2.2381468E+00;  0.0000000E+00;  4.7065415E-03;0; -2.8344991E-02;  1.0000686E+04;  0.0000000E+00; -7.6017199E-11;  1.0000000E+04;  0.0000000E+00;  9.9999873E+03; -2.8873812E-02;  0.0000000E+00;  5.2882131E-04;  8.9543142E+00;
  1.1999712E-01;  9.9999998E-03;  8.0000035E-02;1234; -2.9809913E-03;  0.0000000E+00;  2.6178825E-05;  1.0000337E+03;  4.0000001E-01;  2.7949823E+01;3; -2.2577720E+00;  0.0000000E+00;  8.9686345E-03;0; -2.8485207E-02;  1.0000690E+04;  0.0000000E+00; -5.4115885E-11;  1.0000000E+04;  0.0000000E+00;  9.9999824E+03; -2.9136525E-02;  0.0000000E+00;  6.5131794E-04;  1.0155010E+01;
  1.1999711E-01;  9.9999998E-03;  1.0000005E-01;1235; -3.0016901E-03;  0.0000000E+00;  3.8696577E-05;  1.0000338E+03;  4.0000001E-01;  2.7949823E+01;3; -2.2792528E+00;  0.0000000E+00;  1.5718542E-02;0; -2.8640263E-02;  1.0000695E+04;  0.0000000E+00; -1.5439549E-11;  1.0000000E+04;  0.0000000E+00;  9.9999795E+03; -2.9436585E-02;  0.0000000E+00;  7.9632254E-04;  1.1577211E+01;
  1.1999710E-01;  9.9999998E-03;  1.2000007E-01;1236; -3.0199320E-03;  0.0000000E+00;  5.5066441E-05;  1.0000339E+03;  4.0000001E-01;  2.8048586E+01;3; -2.2993562E+00;  0.0000000E+00;  2.5174294E-02;0; -2.8785525E-02;  1.0000701E+04;  0.0000000E+00;  1.3382168E-10;  1.0000000E+04;  0.0000000E+00;  9.9999775E+03; -2.9738249E-02;  0.0000000E+00;  9.5272390E-04;  1.3109379E+01;
  1.1999710E-01;  9.9999998E-03;  1.4000009E-01;1237; -3.0302983E-03;  0.0000000E+00;  7.5605749E-05;  1.0000339E+03;  4.0000001E-01;  2.8048586E+01;3; -2.3134358E+00;  0.0000000E+00;  3.7946373E-02;0; -2.8883066E-02;  1.0000705E+04;  0.0000000E+00;  4.3441806E-10;  1.0000000E+04;  0.0000000E+00;  9.9999727E+03; -2.9989587E-02;  0.0000000E+00;  1.1065206E-03;  1.4605039E+01;
  1.3999647E-01;  9.9999998E-03; -7.1953267E-14;1261; -3.5595966E-03;  0.0000000E+00;  2.0916938E-10;  1.0000400E+03;  4.0000001E-01;  3.3184242E+01;3; -2.6230643E+00;  0.0000000E+00;  1.7531800E-06;0; -3.2768644E-02;  1.0000813E+04;  0.0000000E+00;  3.9164507E-17;  1.0000000E+04;  0.0000000E+00;  9.9999873E+03; -3.3198070E-02;  0.0000000E+00;  4.2942620E-04;  8.6930056E+00;
  1.3999647E-01;  9.9999998E-03;  2.0000009E-02;1262; -3.5640718E-03;  0.0000000E+00;  5.0376048E-06;  1.0000402E+03;  4.0000001E-01;  3.3283005E+01;3; -2.6273201E+00;  0.0000000E+00;  9.9544961E-04;0; -3.2800440E-02;  1.0000815E+04;  0.0000000E+00;  1.0452701E-11;  1.0000000E+04;  0.0000000E+00;  9.9999873E+03; -3.3252474E-02;  0.0000000E+00;  4.5203484E-04;  8.9297266E+00;
  1.3999645E-01;  9.9999998E-03;  4.0000018E-02;1263; -3.5771669E-03;  0.0000000E+00;  1.0959105E-05;  1.0000402E+03;  4.0000001E-01;  3.3283005E+01;3; -2.6397893E+00;  0.0000000E+00;  2.5419618E-03;0; -3.2894388E-02;  1.0000816E+04;  0.0000000E+00; -5.8821052E-11;  1.0000000E+04;  0.0000000E+00;  9.9999854E+03; -3.3413075E-02;  0.0000000E+00;  5.1868841E-04;  9.6287527E+00;
  1.3999644E-01;  9.9999998E-03;  6.0000032E-02;1264; -3.5978416E-03;  0.0000000E+00;  1.8630806E-05;  1.0000403E+03;  4.0000001E-01;  3.3381767E+01;3; -2.6595354E+00;  0.0000000E+00;  5.2376832E-03;0; -3.3045739E-02;  1.0000822E+04;  0.0000000E+00; -5.4270081E-11;  1.0000000E+04;  0.0000000E+00;  9.9999834E+03; -3.3671483E-02;  0.0000000E+00;  6.2574324E-04;  1.0754921E+01;
  1.3999642E-01;  9.9999998E-03;  8.0000043E-02;1265; -3.6242479E-03;  0.0000000E+00;  2.8902950E-05;  1.0000404E+03;  4.0000001E-01;  3.3480530E+01;3; -2.6849229E+00;  0.0000000E+00;  9.6057309E-03;0; -3.3245452E-02;  1.0000827E+04;  0.0000000E+00; -1.0247650E-10;  1.0000000E+04;  0.0000000E+00;  9.9999795E+03; -3.4012184E-02;  0.0000000E+00;  7.6673046E-04;  1.2244556E+01;
  1.3999641E-01;  9.9999998E-03;  1.0000006E-01;1266; -3.6534728E-03;  0.0000000E+00;  4.2690041E-05;  1.0000405E+03;  4.0000001E-01;  3.3579292E+01;3; -2.7134113E+00;  0.0000000E+00;  1.6464213E-02;0; -3.3478282E-02;  1.0000835E+04;  0.0000000E+00; -1.5848046E-10;  1.0000000E+04;  0.0000000E+00;  9.9999756E+03; -3.4410138E-02;  0.0000000E+00;  9.3185360E-04;  1.3998588E+01;
  1.3999639E-01;  9.9999998E-03;  1.2000009E-01;1267; -3.6812052E-03;  0.0000000E+00;  6.0475108E-05;  1.0000406E+03;  4.0000001E-01;  3.3678055E+01;3; -2.7413852E+00;  0.0000000E+00;  2.5757648E-02;0; -3.3719275E-02;  1.0000841E+04;  0.0000000E+00;  1.4865235E-10;  1.0000000E+04;  0.0000000E+00;  9.9999717E+03; -3.4827150E-02;  0.0000000E+00;  1.1078754E-03;  1.5877569E+01;
  1.3999638E-01;  9.9999998E-03;  1.4000010E-01;1268; -3.7011465E-03;  0.0000000E+00;  8.2793675E-05;  1.0000407E+03;  4.0000001E-01;  3.3776817E+01;3; -2.7635374E+00;  0.0000000E+00;  3.8378470E-02;0; -3.3927489E-02;  1.0000848E+04;  0.0000000E+00;  2.7237226E-10;  1.0000000E+04;  0.0000000E+00;  9.9999678E+03; -3.5207245E-02;  0.0000000E+00;  1.2797548E-03;  1.7712519E+01;
  1.5999565E-01;  9.9999998E-03; -1.0573392E-13;1292; -4.2904974E-03;  0.0000000E+00;  2.0773575E-10;  1.0000480E+03;  4.0000001E-01;  3.9801338E+01;3; -3.0901814E+00;  0.0000000E+00;  2.7853980E-07;0; -3.8185779E-02;  1.0000975E+04;  0.0000000E+00;  6.0016989E-17;  1.0000000E+04;  0.0000000E+00;  9.9999854E+03; -3.8721152E-02;  0.0000000E+00;  5.3537381E-04;  1.0455351E+01;
  1.5999565E-01;  9.9999998E-03;  2.0000011E-02;1293; -4.2963163E-03;  0.0000000E+00;  6.2764825E-06;  1.0000480E+03;  4.0000001E-01;  3.9801338E+01;3; -3.0954874E+00;  0.0000000E+00;  2.1291780E-03;0; -3.8226459E-02;  1.0000976E+04;  0.0000000E+00;  3.2639818E-11;  1.0000000E+04;  0.0000000E+00;  9.9999844E+03; -3.8789254E-02;  0.0000000E+00;  5.6279369E-04;  1.0760352E+01;
  1.5999563E-01;  9.9999998E-03;  4.0000021E-02;1294; -4.3134033E-03;  0.0000000E+00;  1.3566298E-05;  1.0000482E+03;  4.0000001E-01;  3.9900101E+01;3; -3.1110680E+00;  0.0000000E+00;  4.7921301E-03;0; -3.8347371E-02;  1.0000979E+04;  0.0000000E+00;  5.3661121E-11;  1.0000000E+04;  0.0000000E+00;  9.9999834E+03; -3.8990803E-02;  0.0000000E+00;  6.4343191E-04;  1.1660174E+01;
  1.5999562E-01;  9.9999998E-03;  6.0000036E-02;1295; -4.3406030E-03;  0.0000000E+00;  2.2877934E-05;  1.0000482E+03;  4.0000001E-01;  3.9900101E+01;3; -3.1358910E+00;  0.0000000E+00;  8.6147413E-03;0; -3.8544483E-02;  1.0000986E+04;  0.0000000E+00; -1.3400167E-10;  1.0000000E+04;  0.0000000E+00;  9.9999785E+03; -3.9316755E-02;  0.0000000E+00;  7.7227305E-04;  1.3106891E+01;
  1.5999559E-01;  9.9999998E-03;  8.0000050E-02;1296; -4.3758624E-03;  0.0000000E+00;  3.5159304E-05;  1.0000486E+03;  4.0000001E-01;  4.0295151E+01;3; -3.1681631E+00;  0.0000000E+00;  1.4065557E-02;0; -3.8809970E-02;  1.0000994E+04;  0.0000000E+00; -1.5929880E-10;  1.0000000E+04;  0.0000000E+00;  9.9999746E+03; -3.9750546E-02;  0.0000000E+00;  9.4057806E-04;  1.5014561E+01;
  1.5999556E-01;  9.9999998E-03;  1.0000008E-01;1297; -4.4159186E-03;  0.0000000E+00;  5.1419291E-05;  1.0000488E+03;  4.0000001E-01;  4.0393913E+01;3; -3.2050781E+00;  0.0000000E+00;  2.1996563E-02;0; -3.9129913E-02;  1.0001005E+04;  0.0000000E+00; -1.9839647E-10;  1.0000000E+04;  0.0000000E+00;  9.9999717E+03; -4.0265530E-02;  0.0000000E+00;  1.1356178E-03;  1.7253038E+01;
  1.5999553E-01;  9.9999998E-03;  1.2000010E-01;1298; -4.4559222E-03;  0.0000000E+00;  7.1992603E-05;  1.0000491E+03;  4.0000001E-01;  4.0690201E+01;3; -3.2426591E+00;  0.0000000E+00;  3.2070477E-02;0; -3.9479867E-02;  1.0001015E+04;  0.0000000E+00;  6.2641052E-11;  1.0000000E+04;  0.0000000E+00;  9.9999648E+03; -4.0821172E-02;  0.0000000E+00;  1.3413039E-03;  1.9648172E+01;
  1.5999551E-01;  9.9999998E-03;  1.4000013E-01;1299; -4.4886717E-03;  0.0000000E+00;  9.7421740E-05;  1.0000493E+03;  4.0000001E-01;  4.0788963E+01;3; -3.2749763E+00;  0.0000000E+00;  4.5241702E-02;0; -3.9816678E-02;  1.0001024E+04;  0.0000000E+00;  8.8342800E-10;  1.0000000E+04;  0.0000000E+00;  9.9999600E+03; -4.1358534E-02;  0.0000000E+00;  1.5418568E-03;  2.2011322E+01;
  1.7999466E-01;  9.9999998E-03;  1.1765626E-14;1323; -5.1429477E-03;  0.0000000E+00; -1.9164913E-10;  1.0000573E+03;  4.0000001E-01;  4.7504822E+01;3; -3.6168966E+00;  0.0000000E+00; -9.0579169E-07;0; -4.4475485E-02;  1.0001163E+04;  0.0000000E+00;  2.1054405E-16;  1.0000000E+04;  0.0000000E+00;  9.9999805E+03; -4.5165822E-02;  0.0000000E+00;  6.9033878E-04;  1.2674564E+01;
  1.7999466E-01;  9.9999998E-03;  2.0000013E-02;1324; -5.1504215E-03;  0.0000000E+00;  8.5975234E-06;  1.0000574E+03;  4.0000001E-01;  4.7603584E+01;3; -3.6234231E+00;  0.0000000E+00;  4.6224762E-03;0; -4.4525448E-02;  1.0001167E+04;  0.0000000E+00;  7.0505213E-11;  1.0000000E+04;  0.0000000E+00;  9.9999805E+03; -4.5250285E-02;  0.0000000E+00;  7.2483777E-04;  1.3076662E+01;
  1.7999464E-01;  9.9999998E-03;  4.0000029E-02;1325; -5.1724291E-03;  0.0000000E+00;  1.8441184E-05;  1.0000575E+03;  4.0000001E-01;  4.7603584E+01;3; -3.6426334E+00;  0.0000000E+00;  9.7968634E-03;0; -4.4674434E-02;  1.0001172E+04;  0.0000000E+00;  1.9965751E-10;  1.0000000E+04;  0.0000000E+00;  9.9999785E+03; -4.5500565E-02;  0.0000000E+00;  8.2613289E-04;  1.4262908E+01;
  1.7999461E-01;  9.9999998E-03;  6.0000043E-02;1326; -5.2076993E-03;  0.0000000E+00;  3.0728050E-05;  1.0000577E+03;  4.0000001E-01;  4.7801109E+01;3; -3.6733949E+00;  0.0000000E+00;  1.6192893E-02;0; -4.4919513E-02;  1.0001182E+04;  0.0000000E+00; -4.9208013E-11;  1.0000000E+04;  0.0000000E+00;  9.9999736E+03; -4.5906939E-02;  0.0000000E+00;  9.8742405E-04;  1.6169983E+01;
  1.7999458E-01;  9.9999998E-03;  8.0000065E-02;1327; -5.2539487E-03;  0.0000000E+00;  4.6653917E-05;  1.0000580E+03;  4.0000001E-01;  4.8097397E+01;3; -3.7137527E+00;  0.0000000E+00;  2.4248891E-02;0; -4.5254409E-02;  1.0001192E+04;  0.0000000E+00; -1.6131201E-10;  1.0000000E+04;  0.0000000E+00;  9.9999658E+03; -4.6451453E-02;  0.0000000E+00;  1.1970453E-03;  1.8685438E+01;
  1.7999454E-01;  9.9999998E-03;  1.0000009E-01;1328; -5.3075529E-03;  0.0000000E+00;  6.7269204E-05;  1.0000584E+03;  4.0000001E-01;  4.8393684E+01;3; -3.7606192E+00;  0.0000000E+00;  3.4810841E-02;0; -4.5667175E-02;  1.0001205E+04;  0.0000000E+00; -3.5787026E-10;  1.0000000E+04;  0.0000000E+00;  9.9999609E+03; -4.7105823E-02;  0.0000000E+00;  1.4386491E-03;  2.1643610E+01;
  1.7999449E-01;  9.9999998E-03;  1.2000012E-01;1329; -5.3630471E-03;  0.0000000E+00;  9.2941635E-05;  1.0000587E+03;  4.0000001E-01;  4.8689972E+01;3; -3.8096099E+00;  0.0000000E+00;  4.7366578E-02;0; -4.6134513E-02;  1.0001219E+04;  0.0000000E+00;  1.6547494E-10;  1.0000000E+04;  0.0000000E+00;  9.9999531E+03; -4.7827646E-02;  0.0000000E+00;  1.6931336E-03;  2.4836510E+01;
  1.7999446E-01;  9.9999998E-03;  1.4000016E-01;1330; -5.4122722E-03;  0.0000000E+00;  1.2400723E-04;  1.0000591E+03;  4.0000001E-01;  4.8986263E+01;3; -3.8541677E+00;  0.0000000E+00;  6.2784031E-02;0; -4.6610739E-02;  1.0001232E+04;  0.0000000E+00;  1.4984370E-09;  1.0000000E+04;  0.0000000E+00;  9.9999482E+03; -4.8556369E-02;  0.0000000E+00;  1.9456305E-03;  2.8075121E+01;
  1.9999348E-01;  9.9999998E-03;  2.6820638E-13;1354; -6.1359606E-03;  0.0000000E+00;  2.6007022E-10;  1.0000687E+03;  4.0000001E-01;  5.6887272E+01;3; -4.2099557E+00;  0.0000000E+00; -1.7902053E-06;0; -5.1741041E-02;  1.0001396E+04;  0.0000000E+00;  5.2596729E-17;  1.0000000E+04;  0.0000000E+00;  9.9999775E+03; -5.2645616E-02;  0.0000000E+00;  9.0457569E-04;  1.5419080E+01;
  1.9999348E-01;  9.9999998E-03;  2.0000016E-02;1355; -6.1454587E-03;  0.0000000E+00;  1.2288805E-05;  1.0000687E+03;  4.0000001E-01;  5.6986034E+01;3; -4.2178798E+00;  0.0000000E+00;  8.8837082E-03;0; -5.1800270E-02;  1.0001396E+04;  0.0000000E+00; -1.9391740E-11;  1.0000000E+04;  0.0000000E+00;  9.9999766E+03; -5.2749537E-02;  0.0000000E+00;  9.4926683E-04;  1.5956205E+01;
  1.9999345E-01;  9.9999998E-03;  4.0000033E-02;1356; -6.1734910E-03;  0.0000000E+00;  2.6184081E-05;  1.0000689E+03;  4.0000001E-01;  5.7084797E+01;3; -4.2412548E+00;  0.0000000E+00;  1.8423166E-02;0; -5.1977314E-02;  1.0001404E+04;  0.0000000E+00;  1.5654034E-10;  1.0000000E+04;  0.0000000E+00;  9.9999717E+03; -5.3057767E-02;  0.0000000E+00;  1.0804520E-03;  1.7542492E+01;
  1.9999342E-01;  9.9999998E-03;  6.0000055E-02;1357; -6.2186620E-03;  0.0000000E+00;  4.3204287E-05;  1.0000692E+03;  4.0000001E-01;  5.7381084E+01;3; -4.2788386E+00;  0.0000000E+00;  2.9263673E-02;0; -5.2270461E-02;  1.0001417E+04;  0.0000000E+00; -2.7647119E-11;  1.0000000E+04;  0.0000000E+00;  9.9999658E+03; -5.3559713E-02;  0.0000000E+00;  1.2892535E-03;  2.0098890E+01;
  1.9999337E-01;  9.9999998E-03;  8.0000080E-02;1358; -6.2784166E-03;  0.0000000E+00;  6.4998821E-05;  1.0000695E+03;  4.0000001E-01;  5.7578609E+01;3; -4.3284907E+00;  0.0000000E+00;  4.2072579E-02;0; -5.2675251E-02;  1.0001433E+04;  0.0000000E+00; -3.3503231E-10;  1.0000000E+04;  0.0000000E+00;  9.9999600E+03; -5.4235943E-02;  0.0000000E+00;  1.5606908E-03;  2.3486538E+01;
  1.9999331E-01;  9.9999998E-03;  1.0000012E-01;1359; -6.3487240E-03;  0.0000000E+00;  9.2617018E-05;  1.0000699E+03;  4.0000001E-01;  5.7973660E+01;3; -4.3868537E+00;  0.0000000E+00;  5.7464819E-02;0; -5.3181782E-02;  1.0001448E+04;  0.0000000E+00; -5.1858901E-10;  1.0000000E+04;  0.0000000E+00;  9.9999512E+03; -5.5056382E-02;  0.0000000E+00;  1.8745980E-03;  2.7507257E+01;
  1.9999325E-01;  9.9999998E-03;  1.2000016E-01;1360; -6.4233956E-03;  0.0000000E+00;  1.2678702E-04;  1.0000706E+03;  4.0000001E-01;  5.8467472E+01;3; -4.4490628E+00;  0.0000000E+00;  7.5038128E-02;0; -5.3767521E-02;  1.0001468E+04;  0.0000000E+00; -2.0662702E-11;  1.0000000E+04;  0.0000000E+00;  9.9999404E+03; -5.5977196E-02;  0.0000000E+00;  2.2096755E-03;  3.1933081E+01;
  1.9999321E-01;  9.9999998E-03;  1.4000021E-01;1361; -6.4932811E-03;  0.0000000E+00;  1.6726463E-04;  1.0000709E+03;  4.0000001E-01;  5.8664997E+01;3; -4.5079260E+00;  0.0000000E+00;  9.5379181E-02;0; -5.4382477E-02;  1.0001487E+04;  0.0000000E+00;  1.6281135E-09;  1.0000000E+04;  0.0000000E+00;  9.9999307E+03; -5.6937542E-02;  0.0000000E+00;  2.5550646E-03;  3.6612888E+01;
  2.1999207E-01;  9.9999998E-03; -4.2614287E-13;1385; -7.2914427E-03;  0.0000000E+00; -3.8831272E-10;  1.0000820E+03;  4.0000001E-01;  6.7948685E+01;3; -4.8772502E+00;  0.0000000E+00;  4.7722688E-07;0; -6.0092948E-02;  1.0001668E+04;  0.0000000E+00; -3.1456858E-16;  1.0000000E+04;  0.0000000E+00;  9.9999717E+03; -6.1277546E-02;  0.0000000E+00;  1.1845957E-03;  1.8732670E+01;
  2.1999206E-01;  9.9999998E-03;  2.0000020E-02;1386; -7.3033967E-03;  0.0000000E+00;  1.7530345E-05;  1.0000820E+03;  4.0000001E-01;  6.7948685E+01;3; -4.8867497E+00;  0.0000000E+00;  1.5269837E-02;0; -6.0161013E-02;  1.0001671E+04;  0.0000000E+00;  1.0505941E-10;  1.0000000E+04;  0.0000000E+00;  9.9999707E+03; -6.1404526E-02;  0.0000000E+00;  1.2435116E-03;  1.9452101E+01;
  2.1999203E-01;  9.9999998E-03;  4.0000044E-02;1387; -7.3387665E-03;  0.0000000E+00;  3.7162430E-05;  1.0000821E+03;  4.0000001E-01;  6.8047447E+01;3; -4.9148297E+00;  0.0000000E+00;  3.1350430E-02;0; -6.0365126E-02;  1.0001679E+04;  0.0000000E+00;  1.9783691E-10;  1.0000000E+04;  0.0000000E+00;  9.9999648E+03; -6.1781760E-02;  0.0000000E+00;  1.4166357E-03;  2.1581316E+01;
  2.1999198E-01;  9.9999998E-03;  6.0000069E-02;1388; -7.3959846E-03;  0.0000000E+00;  6.1099367E-05;  1.0000825E+03;  4.0000001E-01;  6.8343735E+01;3; -4.9601159E+00;  0.0000000E+00;  4.9067274E-02;0; -6.0704459E-02;  1.0001693E+04;  0.0000000E+00;  1.1891763E-10;  1.0000000E+04;  0.0000000E+00;  9.9999590E+03; -6.2397372E-02;  0.0000000E+00;  1.6929142E-03;  2.5028959E+01;
  2.1999191E-01;  9.9999998E-03;  8.0000110E-02;1389; -7.4721999E-03;  0.0000000E+00;  9.1355214E-05;  1.0000828E+03;  4.0000001E-01;  6.8640022E+01;3; -5.0202489E+00;  0.0000000E+00;  6.9287576E-02;0; -6.1176304E-02;  1.0001711E+04;  0.0000000E+00; -3.5446335E-10;  1.0000000E+04;  0.0000000E+00;  9.9999482E+03; -6.3230380E-02;  0.0000000E+00;  2.0540759E-03;  2.9636646E+01;
  2.1999183E-01;  9.9999998E-03;  1.0000015E-01;1390; -7.5628669E-03;  0.0000000E+00;  1.2936699E-04;  1.0000834E+03;  4.0000001E-01;  6.9035072E+01;3; -5.0916133E+00;  0.0000000E+00;  9.2212878E-02;0; -6.1772063E-02;  1.0001734E+04;  0.0000000E+00; -8.6448776E-10;  1.0000000E+04;  0.0000000E+00;  9.9999365E+03; -6.4248636E-02;  0.0000000E+00;  2.4765739E-03;  3.5186741E+01;
  2.1999176E-01;  9.9999998E-03;  1.2000021E-01;1391; -7.6609491E-03;  0.0000000E+00;  1.7645113E-04;  1.0000840E+03;  4.0000001E-01;  6.9627647E+01;3; -5.1688204E+00;  0.0000000E+00;  1.1814363E-01;0; -6.2468573E-02;  1.0001761E+04;  0.0000000E+00; -3.4190681E-10;  1.0000000E+04;  0.0000000E+00;  9.9999199E+03; -6.5407030E-02;  0.0000000E+00;  2.9384552E-03;  4.1457478E+01;
  2.1999168E-01;  9.9999998E-03;  1.4000028E-01;1392; -7.7563138E-03;  0.0000000E+00;  2.3096791E-04;  1.0000847E+03;  4.0000001E-01;  7.0121460E+01;3; -5.2440515E+00;  0.0000000E+00;  1.4624028E-01;0; -6.3208826E-02;  1.0001789E+04;  0.0000000E+00;  2.0251825E-09;  1.0000000E+04;  0.0000000E+00;  9.9999082E+03; -6.6645168E-02;  0.0000000E+00;  3.4363435E-03;  4.8385101E+01;
  2.3999037E-01;  9.9999998E-03; -7.0056195E-13;1416; -8.6340476E-03;  0.0000000E+00;  4.4349989E-11;  1.0000976E+03;  4.0000001E-01;  8.0886589E+01;3; -5.6275783E+00;  0.0000000E+00;  4.1817002E-06;0; -6.9652610E-02;  1.0001988E+04;  0.0000000E+00; -6.8423644E-16;  1.0000000E+04;  0.0000000E+00;  9.9999658E+03; -7.1184769E-02;  0.0000000E+00;  1.5321587E-03;  2.2636545E+01;
  2.3999035E-01;  9.9999998E-03;  2.0000024E-02;1417; -8.6489702E-03;  0.0000000E+00;  2.4346236E-05;  1.0000976E+03;  4.0000001E-01;  8.0886589E+01;3; -5.6388559E+00;  0.0000000E+00;  2.3982514E-02;0; -6.9728971E-02;  1.0001990E+04;  0.0000000E+00;  7.3687077E-11;  1.0000000E+04;  0.0000000E+00;  9.9999629E+03; -7.1339227E-02;  0.0000000E+00;  1.6102546E-03;  2.3593975E+01;
  2.3999032E-01;  9.9999998E-03;  4.0000051E-02;1418; -8.6932071E-03;  0.0000000E+00;  5.1584208E-05;  1.0000979E+03;  4.0000001E-01;  8.1084114E+01;3; -5.6721520E+00;  0.0000000E+00;  4.9162790E-02;0; -6.9958284E-02;  1.0002003E+04;  0.0000000E+00;  4.0295051E-10;  1.0000000E+04;  0.0000000E+00;  9.9999561E+03; -7.1798474E-02;  0.0000000E+00;  1.8401860E-03;  2.6435743E+01;
  2.3999026E-01;  9.9999998E-03;  6.0000088E-02;1419; -8.7649552E-03;  0.0000000E+00;  8.4652056E-05;  1.0000983E+03;  4.0000001E-01;  8.1380402E+01;3; -5.7259974E+00;  0.0000000E+00;  7.6379649E-02;0; -7.0340551E-02;  1.0002018E+04;  0.0000000E+00;  1.0862820E-10;  1.0000000E+04;  0.0000000E+00;  9.9999463E+03; -7.2549403E-02;  0.0000000E+00;  2.2088480E-03;  3.1066395E+01;
  2.3999017E-01;  9.9999998E-03;  8.0000132E-02;1420; -8.8610742E-03;  0.0000000E+00;  1.2597848E-04;  1.0000989E+03;  4.0000001E-01;  8.1874214E+01;3; -5.7978477E+00;  0.0000000E+00;  1.0657603E-01;0; -7.0873894E-02;  1.0002044E+04;  0.0000000E+00; -4.3271128E-10;  1.0000000E+04;  0.0000000E+00;  9.9999326E+03; -7.3568963E-02;  0.0000000E+00;  2.6950680E-03;  3.7322754E+01;
  2.3999007E-01;  9.9999998E-03;  1.0000020E-01;1421; -8.9763710E-03;  0.0000000E+00;  1.7838848E-04;  1.0000994E+03;  4.0000001E-01;  8.2368027E+01;3; -5.8836656E+00;  0.0000000E+00;  1.4066257E-01;0; -7.1549818E-02;  1.0002073E+04;  0.0000000E+00; -1.3387912E-09;  1.0000000E+04;  0.0000000E+00;  9.9999170E+03; -7.4822508E-02;  0.0000000E+00;  3.2726882E-03;  4.4989765E+01;
  2.3998997E-01;  9.9999998E-03;  1.2000027E-01;1422; -9.1029489E-03;  0.0000000E+00;  2.4277200E-04;  1.0001001E+03;  4.0000001E-01;  8.2960602E+01;3; -5.9774837E+00;  0.0000000E+00;  1.7853794E-01;0; -7.2342165E-02;  1.0002106E+04;  0.0000000E+00; -1.3465866E-09;  1.0000000E+04;  0.0000000E+00;  9.9998975E+03; -7.6262683E-02;  0.0000000E+00;  3.9205155E-03;  5.3884144E+01;
  2.3998986E-01;  9.9999998E-03;  1.4000037E-01;1423; -9.2293378E-03;  0.0000000E+00;  3.1771715E-04;  1.0001008E+03;  4.0000001E-01;  8.3553177E+01;3; -6.0711045E+00;  0.0000000E+00;  2.1817413E-01;0; -7.3184088E-02;  1.0002146E+04;  0.0000000E+00;  8.6405172E-10;  1.0000000E+04;  0.0000000E+00;  9.9998750E+03; -7.7828504E-02;  0.0000000E+00;  4.6444153E-03;  6.4072258E+01;
  2.5998837E-01;  9.9999998E-03; -9.4256153E-14;1447; -1.0190827E-02;  0.0000000E+00; -2.6586303E-10;  1.0001161E+03;  4.0000001E-01;  9.6194786E+01;3; -6.4703093E+00;  0.0000000E+00; -1.4875873E-06;0; -8.0552533E-02;  1.0002365E+04;  0.0000000E+00; -9.2605351E-17;  1.0000000E+04;  0.0000000E+00;  9.9999580E+03; -8.2496941E-02;  0.0000000E+00;  1.9444065E-03;  2.7148365E+01;
  2.5998834E-01;  9.9999998E-03;  2.0000029E-02;1448; -1.0209337E-02;  0.0000000E+00;  3.2566444E-05;  1.0001162E+03;  4.0000001E-01;  9.6293549E+01;3; -6.4835391E+00;  0.0000000E+00;  3.5172846E-02;0; -8.0636650E-02;  1.0002371E+04;  0.0000000E+00;  2.7027608E-10;  1.0000000E+04;  0.0000000E+00;  9.9999551E+03; -8.2684085E-02;  0.0000000E+00;  2.0474331E-03;  2.8404936E+01;
  2.5998828E-01;  9.9999998E-03;  4.0000062E-02;1449; -1.0264161E-02;  0.0000000E+00;  6.9033180E-05;  1.0001165E+03;  4.0000001E-01;  9.6491074E+01;3; -6.5225153E+00;  0.0000000E+00;  7.1839020E-02;0; -8.0889389E-02;  1.0002385E+04;  0.0000000E+00;  8.3636786E-10;  1.0000000E+04;  0.0000000E+00;  9.9999453E+03; -8.3240889E-02;  0.0000000E+00;  2.3515008E-03;  3.2147141E+01;
  2.5998822E-01;  9.9999998E-03;  6.0000107E-02;1450; -1.0353385E-02;  0.0000000E+00;  1.1325505E-04;  1.0001169E+03;  4.0000001E-01;  9.6886124E+01;3; -6.5858388E+00;  0.0000000E+00;  1.1112751E-01;0; -8.1310958E-02;  1.0002408E+04;  0.0000000E+00;  8.5062052E-10;  1.0000000E+04;  0.0000000E+00;  9.9999326E+03; -8.4152721E-02;  0.0000000E+00;  2.8417602E-03;  3.8288982E+01;
  2.5998810E-01;  9.9999998E-03;  8.0000170E-02;1451; -1.0473420E-02;  0.0000000E+00;  1.6890687E-04;  1.0001174E+03;  4.0000001E-01;  9.7281174E+01;3; -6.6704888E+00;  0.0000000E+00;  1.5469179E-01;0; -8.1899241E-02;  1.0002438E+04;  0.0000000E+00; -1.2552884E-10;  1.0000000E+04;  0.0000000E+00;  9.9999150E+03; -8.5393868E-02;  0.0000000E+00;  3.4946250E-03;  4.6684387E+01;
  2.5998795E-01;  9.9999998E-03;  1.0000025E-01;1452; -1.0618318E-02;  0.0000000E+00;  2.3973057E-04;  1.0001183E+03;  4.0000001E-01;  9.7972519E+01;3; -6.7721190E+00;  0.0000000E+00;  2.0339561E-01;0; -8.2644232E-02;  1.0002478E+04;  0.0000000E+00; -2.1999875E-09;  1.0000000E+04;  0.0000000E+00;  9.9998926E+03; -8.6926080E-02;  0.0000000E+00;  4.2818510E-03;  5.7148758E+01;
  2.5998780E-01;  9.9999998E-03;  1.2000035E-01;1453; -1.0779485E-02;  0.0000000E+00;  3.2570792E-04;  1.0001193E+03;  4.0000001E-01;  9.8762619E+01;3; -6.8844957E+00;  0.0000000E+00;  2.5631312E-01;0; -8.3514504E-02;  1.0002520E+04;  0.0000000E+00; -2.2679232E-09;  1.0000000E+04;  0.0000000E+00;  9.9998662E+03; -8.8697523E-02;  0.0000000E+00;  5.1830192E-03;  6.9566216E+01;
  2.5998768E-01;  9.9999998E-03;  1.4000048E-01;1454; -1.0943605E-02;  0.0000000E+00;  4.2881494E-04;  1.0001200E+03;  4.0000001E-01;  9.9453957E+01;3; -6.9982004E+00;  0.0000000E+00;  3.1283963E-01;0; -8.4431559E-02;  1.0002567E+04;  0.0000000E+00;  2.3710306E-10;  1.0000000E+04;  0.0000000E+00;  9.9998320E+03; -9.0642855E-02;  0.0000000E+00;  6.2112962E-03;  8.4150963E+01;
  2.7998596E-01;  9.9999998E-03;  1.0965760E-13;1478; -1.1991183E-02;  0.0000000E+00;  4.6444648E-10;  1.0001376E+03;  4.0000001E-01;  1.1397206E+02;3; -7.4152331E+00;  0.0000000E+00;  2.3342086E-06;0; -9.2932530E-02;  1.0002804E+04;  0.0000000E+00; -1.0797758E-15;  1.0000000E+04;  0.0000000E+00;  9.9999502E+03; -9.5348313E-02;  0.0000000E+00;  2.4157804E-03;  3.2327412E+01;
  2.7998593E-01;  9.9999998E-03;  2.0000035E-02;1479; -1.2013924E-02;  0.0000000E+00;  4.1858963E-05;  1.0001376E+03;  4.0000001E-01;  1.1407082E+02;3; -7.4304109E+00;  0.0000000E+00;  4.8508205E-02;0; -9.3024284E-02;  1.0002811E+04;  0.0000000E+00;  6.1233746E-10;  1.0000000E+04;  0.0000000E+00;  9.9999463E+03; -9.5574297E-02;  0.0000000E+00;  2.5500113E-03;  3.3944214E+01;
  2.7998587E-01;  9.9999998E-03;  4.0000077E-02;1480; -1.2081407E-02;  0.0000000E+00;  8.8920824E-05;  1.0001380E+03;  4.0000001E-01;  1.1436711E+02;3; -7.4756427E+00;  0.0000000E+00;  9.9474348E-02;0; -9.3299739E-02;  1.0002828E+04;  0.0000000E+00;  1.0561162E-09;  1.0000000E+04;  0.0000000E+00;  9.9999355E+03; -9.6246935E-02;  0.0000000E+00;  2.9471931E-03;  3.8776768E+01;
  2.7998576E-01;  9.9999998E-03;  6.0000129E-02;1481; -1.2191562E-02;  0.0000000E+00;  1.4633218E-04;  1.0001385E+03;  4.0000001E-01;  1.1476216E+02;3; -7.5492015E+00;  0.0000000E+00;  1.5361229E-01;0; -9.3758553E-02;  1.0002856E+04;  0.0000000E+00;  1.0993964E-09;  1.0000000E+04;  0.0000000E+00;  9.9999180E+03; -9.7349681E-02;  0.0000000E+00;  3.5911268E-03;  4.6767746E+01;
  2.7998561E-01;  9.9999998E-03;  8.0000207E-02;1482; -1.2340178E-02;  0.0000000E+00;  2.1916124E-04;  1.0001391E+03;  4.0000001E-01;  1.1525597E+02;3; -7.6476097E+00;  0.0000000E+00;  2.1327724E-01;0; -9.4397046E-02;  1.0002896E+04;  0.0000000E+00;  4.2398537E-10;  1.0000000E+04;  0.0000000E+00;  9.9998926E+03; -9.8853186E-02;  0.0000000E+00;  4.4561420E-03;  5.7816616E+01;
  2.7998546E-01;  9.9999998E-03;  1.0000031E-01;1483; -1.2520698E-02;  0.0000000E+00;  3.1136398E-04;  1.0001403E+03;  4.0000001E-01;  1.1624360E+02;3; -7.7665334E+00;  0.0000000E+00;  2.7893537E-01;0; -9.5202066E-02;  1.0002943E+04;  0.0000000E+00; -1.4738815E-09;  1.0000000E+04;  0.0000000E+00;  9.9998643E+03; -1.0071369E-01;  0.0000000E+00;  5.5116247E-03;  7.1800652E+01;
  2.7998525E-01;  9.9999998E-03;  1.2000044E-01;1484; -1.2723533E-02;  0.0000000E+00;  4.2520979E-04;  1.0001414E+03;  4.0000001E-01;  1.1713246E+02;3; -7.8988881E+00;  0.0000000E+00;  3.5190970E-01;0; -9.6135601E-02;  1.0003001E+04;  0.0000000E+00; -1.7952491E-09;  1.0000000E+04;  0.0000000E+00;  9.9998242E+03; -1.0287121E-01;  0.0000000E+00;  6.7356089E-03;  8.8691246E+01;
  2.7998504E-01;  9.9999998E-03;  1.4000060E-01;1485; -1.2933804E-02;  0.0000000E+00;  5.6417170E-04;  1.0001423E+03;  4.0000001E-01;  1.1782380E+02;3; -8.0348730E+00;  0.0000000E+00;  4.3098864E-01;0; -9.7107448E-02;  1.0003063E+04;  0.0000000E+00; -7.6113821E-10;  1.0000000E+04;  0.0000000E+00;  9.9997832E+03; -1.0524970E-01;  0.0000000E+00;  8.1422469E-03;  1.0883721E+02;
  2.9998311E-01;  9.9999998E-03; -1.3510097E-13;1509; -1.4067204E-02;  0.0000000E+00; -7.0815742E-10;  1.0001628E+03;  4.0000001E-01;  1.3490971E+02;3; -8.4723091E+00;  0.0000000E+00; -5.0386670E-06;0; -1.0693236E-01;  1.0003315E+04;  0.0000000E+00; -2.0536316E-16;  1.0000000E+04;  0.0000000E+00;  9.9999414E+03; -1.0987496E-01;  0.0000000E+00;  2.9425896E-03;  3.8358112E+01;
  2.9998308E-01;  9.9999998E-03;  2.0000041E-02;1510; -1.4094954E-02;  0.0000000E+00;  5.1642710E-05;  1.0001629E+03;  4.0000001E-01;  1.3500848E+02;3; -8.4895992E+00;  0.0000000E+00;  6.3917592E-02;0; -1.0703254E-01;  1.0003324E+04;  0.0000000E+00;  1.3021080E-09;  1.0000000E+04;  0.0000000E+00;  9.9999355E+03; -1.1014692E-01;  0.0000000E+00;  3.1143792E-03;  4.0387642E+01;
  2.9998299E-01;  9.9999998E-03;  4.0000089E-02;1511; -1.4177587E-02;  0.0000000E+00;  1.1032906E-04;  1.0001633E+03;  4.0000001E-01;  1.3530476E+02;3; -8.5415649E+00;  0.0000000E+00;  1.3110484E-01;0; -1.0733270E-01;  1.0003345E+04;  0.0000000E+00;  1.9357300E-09;  1.0000000E+04;  0.0000000E+00;  9.9999209E+03; -1.1095663E-01;  0.0000000E+00;  3.6239342E-03;  4.6477276E+01;
  2.9998288E-01;  9.9999998E-03;  6.0000151E-02;1512; -1.4312607E-02;  0.0000000E+00;  1.8234224E-04;  1.0001641E+03;  4.0000001E-01;  1.3589734E+02;3; -8.6257343E+00;  0.0000000E+00;  2.0202233E-01;0; -1.0783091E-01;  1.0003382E+04;  0.0000000E+00;  3.0579368E-09;  1.0000000E+04;  0.0000000E+00;  9.9999004E+03; -1.1228507E-01;  0.0000000E+00;  4.4541592E-03;  5.6623714E+01;
  2.9998267E-01;  9.9999998E-03;  8.0000244E-02;1513; -1.4495280E-02;  0.0000000E+00;  2.7429295E-04;  1.0001649E+03;  4.0000001E-01;  1.3658868E+02;3; -8.7388821E+00;  0.0000000E+00;  2.8123444E-01;0; -1.0852073E-01;  1.0003433E+04;  0.0000000E+00;  2.7423568E-09;  1.0000000E+04;  0.0000000E+00;  9.9998691E+03; -1.1409812E-01;  0.0000000E+00;  5.5773901E-03;  7.0808090E+01;
  2.9998246E-01;  9.9999998E-03;  1.0000037E-01;1514; -1.4718646E-02;  0.0000000E+00;  3.9170892E-04;  1.0001661E+03;  4.0000001E-01;  1.3767506E+02;3; -8.8762913E+00;  0.0000000E+00;  3.6757308E-01;0; -1.0938418E-01;  1.0003494E+04;  0.0000000E+00;  2.2558000E-09;  1.0000000E+04;  0.0000000E+00;  9.9998281E+03; -1.1634352E-01;  0.0000000E+00;  6.9593433E-03;  8.9005524E+01;
  2.9998219E-01;  9.9999998E-03;  1.2000053E-01;1515; -1.4971684E-02;  0.0000000E+00;  5.3894339E-04;  1.0001672E+03;  4.0000001E-01;  1.3846516E+02;3; -9.0299320E+00;  0.0000000E+00;  4.6380839E-01;0; -1.1037641E-01;  1.0003566E+04;  0.0000000E+00; -1.3564359E-09;  1.0000000E+04;  0.0000000E+00;  9.9997793E+03; -1.1894854E-01;  0.0000000E+00;  8.5721286E-03;  1.1129040E+02;
  2.9998192E-01;  9.9999998E-03;  1.4000075E-01;1516; -1.5238187E-02;  0.0000000E+00;  7.2173733E-04;  1.0001682E+03;  4.0000001E-01;  1.3935403E+02;3; -9.1900969E+00;  0.0000000E+00;  5.7026660E-01;0; -1.1139734E-01;  1.0003645E+04;  0.0000000E+00;  1.0923995E-09;  1.0000000E+04;  0.0000000E+00;  9.9997197E+03; -1.2181862E-01;  0.0000000E+00;  1.0421278E-02;  1.3811621E+02;
  3.1997976E-01;  9.9999998E-03; -2.1079480E-13;1540; -1.6454464E-02;  0.0000000E+00;  5.1805182E-10;  1.0001919E+03;  4.0000001E-01;  1.5900778E+02;3; -9.6516132E+00;  0.0000000E+00;  1.9928475E-06;0; -1.2268068E-01;  1.0003913E+04;  0.0000000E+00; -1.1972376E-15;  1.0000000E+04;  0.0000000E+00;  9.9999268E+03; -1.2621202E-01;  0.0000000E+00;  3.5313349E-03;  4.5685570E+01;
  3.1997973E-01;  9.9999998E-03;  2.0000044E-02;1541; -1.6488250E-02;  0.0000000E+00;  6.1484214E-05;  1.0001921E+03;  4.0000001E-01;  1.5910655E+02;3; -9.6713343E+00;  0.0000000E+00;  8.0768183E-02;0; -1.2279170E-01;  1.0003923E+04;  0.0000000E+00;  9.2754709E-10;  1.0000000E+04;  0.0000000E+00;  9.9999219E+03; -1.2653811E-01;  0.0000000E+00;  3.7464101E-03;  4.8160160E+01;
  3.1997961E-01;  9.9999998E-03;  4.0000100E-02;1542; -1.6588967E-02;  0.0000000E+00;  1.3216391E-04;  1.0001925E+03;  4.0000001E-01;  1.5950160E+02;3; -9.7304926E+00;  0.0000000E+00;  1.6563553E-01;0; -1.2312347E-01;  1.0003950E+04;  0.0000000E+00;  2.7858844E-09;  1.0000000E+04;  0.0000000E+00;  9.9999043E+03; -1.2750927E-01;  0.0000000E+00;  4.3857894E-03;  5.5615726E+01;
  3.1997943E-01;  9.9999998E-03;  6.0000174E-02;1543; -1.6753539E-02;  0.0000000E+00;  2.1925713E-04;  1.0001934E+03;  4.0000001E-01;  1.6019295E+02;3; -9.8258476E+00;  0.0000000E+00;  2.5543150E-01;0; -1.2367119E-01;  1.0003994E+04;  0.0000000E+00;  4.5529776E-09;  1.0000000E+04;  0.0000000E+00;  9.9998789E+03; -1.2910327E-01;  0.0000000E+00;  5.4320837E-03;  6.8136040E+01;
  3.1997919E-01;  9.9999998E-03;  8.0000281E-02;1544; -1.6977048E-02;  0.0000000E+00;  3.3302797E-04;  1.0001946E+03;  4.0000001E-01;  1.6118057E+02;3; -9.9545193E+00;  0.0000000E+00;  3.5728970E-01;0; -1.2442389E-01;  1.0004054E+04;  0.0000000E+00;  6.0041074E-09;  1.0000000E+04;  0.0000000E+00;  9.9998379E+03; -1.3127953E-01;  0.0000000E+00;  6.8556401E-03;  8.5830101E+01;
  3.1997889E-01;  9.9999998E-03;  1.0000043E-01;1545; -1.7251842E-02;  0.0000000E+00;  4.7946794E-04;  1.0001959E+03;  4.0000001E-01;  1.6226695E+02;3; -1.0111477E+01;  0.0000000E+00;  4.6812293E-01;0; -1.2535772E-01;  1.0004132E+04;  0.0000000E+00;  4.5402411E-09;  1.0000000E+04;  0.0000000E+00;  9.9997891E+03; -1.3397452E-01;  0.0000000E+00;  8.6167976E-03;  1.0881765E+02;
  3.1997856E-01;  9.9999998E-03;  1.2000064E-01;1546; -1.7565411E-02;  0.0000000E+00;  6.6610187E-04;  1.0001973E+03;  4.0000001E-01;  1.6345210E+02;3; -1.0287801E+01;  0.0000000E+00;  5.9350532E-01;0; -1.2642086E-01;  1.0004223E+04;  0.0000000E+00;  3.0135703E-09;  1.0000000E+04;  0.0000000E+00;  9.9997266E+03; -1.3709757E-01;  0.0000000E+00;  1.0676714E-02;  1.3730414E+02;
  3.1997821E-01;  9.9999998E-03;  1.4000091E-01;1547; -1.7899817E-02;  0.0000000E+00;  8.9955784E-04;  1.0001986E+03;  4.0000001E-01;  1.6453850E+02;3; -1.0473174E+01;  0.0000000E+00;  7.2837907E-01;0; -1.2750576E-01;  1.0004324E+04;  0.0000000E+00;  5.2247153E-09;  1.0000000E+04;  0.0000000E+00;  9.9996504E+03; -1.4052780E-01;  0.0000000E+00;  1.3022036E-02;  1.7183224E+02;
  3.3997577E-01;  9.9999998E-03;  3.5008923E-13;1571; -1.9192584E-02;  0.0000000E+00;  1.6659760E-09;  1.0002256E+03;  4.0000001E-01;  1.8695760E+02;3; -1.0963528E+01;  0.0000000E+00;  4.4413646E-06;0; -1.4028016E-01;  1.0004602E+04;  0.0000000E+00; -1.3410770E-15;  1.0000000E+04;  0.0000000E+00;  9.9999131E+03; -1.4449205E-01;  0.0000000E+00;  4.2118924E-03;  5.5215702E+01;
  3.3997574E-01;  9.9999998E-03;  2.0000050E-02;1572; -1.9233622E-02;  0.0000000E+00;  7.0997929E-05;  1.0002259E+03;  4.0000001E-01;  1.8715512E+02;3; -1.0986032E+01;  0.0000000E+00;  9.8229103E-02;0; -1.4040715E-01;  1.0004611E+04;  0.0000000E+00;  5.8452448E-10;  1.0000000E+04;  0.0000000E+00;  9.9999063E+03; -1.4488146E-01;  0.0000000E+00;  4.4743139E-03;  5.8133209E+01;
  3.3997560E-01;  9.9999998E-03;  4.0000111E-02;1573; -1.9355800E-02;  0.0000000E+00;  1.5331464E-04;  1.0002264E+03;  4.0000001E-01;  1.8764893E+02;3; -1.1052294E+01;  0.0000000E+00;  2.0015055E-01;0; -1.4078522E-01;  1.0004644E+04;  0.0000000E+00;  4.0348871E-09;  1.0000000E+04;  0.0000000E+00;  9.9998838E+03; -1.4604136E-01;  0.0000000E+00;  5.2561406E-03;  6.6963066E+01;
  3.3997539E-01;  9.9999998E-03;  6.0000200E-02;1574; -1.9555813E-02;  0.0000000E+00;  2.5639523E-04;  1.0002276E+03;  4.0000001E-01;  1.8853780E+02;3; -1.1160020E+01;  0.0000000E+00;  3.1188324E-01;0; -1.4140475E-01;  1.0004699E+04;  0.0000000E+00;  7.7555224E-09;  1.0000000E+04;  0.0000000E+00;  9.9998516E+03; -1.4794533E-01;  0.0000000E+00;  6.5405881E-03;  8.1917511E+01;
  3.3997509E-01;  9.9999998E-03;  8.0000326E-02;1575; -1.9828212E-02;  0.0000000E+00;  3.9372718E-04;  1.0002292E+03;  4.0000001E-01;  1.8992047E+02;3; -1.1305074E+01;  0.0000000E+00;  4.3867201E-01;0; -1.4224815E-01;  1.0004776E+04;  0.0000000E+00;  9.0632319E-09;  1.0000000E+04;  0.0000000E+00;  9.9998066E+03; -1.5054473E-01;  0.0000000E+00;  8.2965838E-03;  1.0329333E+02;
  3.3997470E-01;  9.9999998E-03;  1.0000051E-01;1576; -2.0164497E-02;  0.0000000E+00;  5.7251379E-04;  1.0002307E+03;  4.0000001E-01;  1.9110562E+02;3; -1.1482216E+01;  0.0000000E+00;  5.7717210E-01;0; -1.4328456E-01;  1.0004871E+04;  0.0000000E+00;  9.3587911E-09;  1.0000000E+04;  0.0000000E+00;  9.9997422E+03; -1.5376276E-01;  0.0000000E+00;  1.0478198E-02;  1.3142203E+02;
  3.3997425E-01;  9.9999998E-03;  1.2000076E-01;1577; -2.0550434E-02;  0.0000000E+00;  8.0346811E-04;  1.0002327E+03;  4.0000001E-01;  1.9278458E+02;3; -1.1681490E+01;  0.0000000E+00;  7.3474991E-01;0; -1.4445429E-01;  1.0004986E+04;  0.0000000E+00;  8.5262135E-09;  1.0000000E+04;  0.0000000E+00;  9.9996660E+03; -1.5748622E-01;  0.0000000E+00;  1.3031933E-02;  1.6670032E+02;
  3.3997378E-01;  9.9999998E-03;  1.4000109E-01;1578; -2.0965802E-02;  0.0000000E+00;  1.0928076E-03;  1.0002341E+03;  4.0000001E-01;  1.9396974E+02;3; -1.1892986E+01;  0.0000000E+00;  9.0310061E-01;0; -1.4564306E-01;  1.0005112E+04;  0.0000000E+00;  1.2381163E-08;  1.0000000E+04;  0.0000000E+00;  9.9995713E+03; -1.6156067E-01;  0.0000000E+00;  1.5917612E-02;  2.0979634E+02;
  3.5997111E-01;  9.9999998E-03; -1.6589587E-12;1602; -2.2324376E-02;  0.0000000E+00; -1.6268721E-09;  1.0002642E+03;  4.0000001E-01;  2.1885788E+02;3; -1.2418354E+01;  0.0000000E+00; -5.0412737E-06;0; -1.5978914E-01;  1.0005397E+04;  0.0000000E+00; -5.9181170E-16;  1.0000000E+04;  0.0000000E+00;  9.9998887E+03; -1.6484538E-01;  0.0000000E+00;  5.0562331E-03;  6.8585075E+01;
  3.5997105E-01;  9.9999998E-03;  2.0000057E-02;1603; -2.2374045E-02;  0.0000000E+00;  8.0465135E-05;  1.0002646E+03;  4.0000001E-01;  2.1925293E+02;3; -1.2443756E+01;  0.0000000E+00;  1.1529563E-01;0; -1.5994076E-01;  1.0005410E+04;  0.0000000E+00;  2.3666828E-09;  1.0000000E+04;  0.0000000E+00;  9.9998818E+03; -1.6530779E-01;  0.0000000E+00;  5.3670211E-03;  7.1893921E+01;
  3.5997087E-01;  9.9999998E-03;  4.0000126E-02;1604; -2.2521826E-02;  0.0000000E+00;  1.7427627E-04;  1.0002654E+03;  4.0000001E-01;  2.1994426E+02;3; -1.2517983E+01;  0.0000000E+00;  2.3487532E-01;0; -1.6039044E-01;  1.0005450E+04;  0.0000000E+00;  3.7007717E-09;  1.0000000E+04;  0.0000000E+00;  9.9998594E+03; -1.6668545E-01;  0.0000000E+00;  6.2950104E-03;  8.1960457E+01;
  3.5997060E-01;  9.9999998E-03;  6.0000230E-02;1605; -2.2764232E-02;  0.0000000E+00;  2.9427031E-04;  1.0002667E+03;  4.0000001E-01;  2.2093188E+02;3; -1.2638823E+01;  0.0000000E+00;  3.6883870E-01;0; -1.6112164E-01;  1.0005516E+04;  0.0000000E+00;  7.3862201E-09;  1.0000000E+04;  0.0000000E+00;  9.9998193E+03; -1.6894720E-01;  0.0000000E+00;  7.8255665E-03;  9.9174240E+01;
  3.5997021E-01;  9.9999998E-03;  8.0000378E-02;1606; -2.3095014E-02;  0.0000000E+00;  4.5673162E-04;  1.0002687E+03;  4.0000001E-01;  2.2261086E+02;3; -1.2801102E+01;  0.0000000E+00;  5.2241880E-01;0; -1.6210757E-01;  1.0005609E+04;  0.0000000E+00;  8.5362739E-09;  1.0000000E+04;  0.0000000E+00;  9.9997646E+03; -1.7203556E-01;  0.0000000E+00;  9.9279890E-03;  1.2409407E+02;
  3.5996974E-01;  9.9999998E-03;  1.0000059E-01;1607; -2.3504132E-02;  0.0000000E+00;  6.6932017E-04;  1.0002708E+03;  4.0000001E-01;  2.2428981E+02;3; -1.2998362E+01;  0.0000000E+00;  6.8857521E-01;0; -1.6330636E-01;  1.0005727E+04;  0.0000000E+00;  3.2702554E-09;  1.0000000E+04;  0.0000000E+00;  9.9996914E+03; -1.7585774E-01;  0.0000000E+00;  1.2551383E-02;  1.5735616E+02;
  3.5996917E-01;  9.9999998E-03;  1.2000088E-01;1608; -2.3975611E-02;  0.0000000E+00;  9.4630424E-04;  1.0002732E+03;  4.0000001E-01;  2.2636383E+02;3; -1.3220959E+01;  0.0000000E+00;  8.8297999E-01;0; -1.6464885E-01;  1.0005867E+04;  0.0000000E+00;  6.0790822E-10;  1.0000000E+04;  0.0000000E+00;  9.9995986E+03; -1.8027593E-01;  0.0000000E+00;  1.5627092E-02;  1.9965431E+02;
  3.5996854E-01;  9.9999998E-03;  1.4000128E-01;1609; -2.4487127E-02;  0.0000000E+00;  1.2974900E-03;  1.0002754E+03;  4.0000001E-01;  2.2814156E+02;3; -1.3457800E+01;  0.0000000E+00;  1.0892624E+00;0; -1.6601220E-01;  1.0006023E+04;  0.0000000E+00;  1.2622047E-08;  1.0000000E+04;  0.0000000E+00;  9.9994834E+03; -1.8509720E-01;  0.0000000E+00;  1.9085001E-02;  2.5189980E+02;
  3.7996560E-01;  9.9999998E-03;  5.9249020E-13;1633; -2.5893182E-02;  0.0000000E+00;  4.1476367E-11;  1.0003082E+03;  4.0000001E-01;  2.5530122E+02;3; -1.4024958E+01;  0.0000000E+00; -4.9212849E-07;0; -1.8120357E-01;  1.0006311E+04;  0.0000000E+00;  2.7291874E-15;  1.0000000E+04;  0.0000000E+00;  9.9998525E+03; -1.8740609E-01;  0.0000000E+00;  6.2025152E-03;  8.8488884E+01;
  3.7996554E-01;  9.9999998E-03;  2.0000070E-02;1634; -2.5953170E-02;  0.0000000E+00;  9.1280366E-05;  1.0003085E+03;  4.0000001E-01;  2.5559752E+02;3; -1.4053569E+01;  0.0000000E+00;  1.3099135E-01;0; -1.8139321E-01;  1.0006326E+04;  0.0000000E+00;  1.7208951E-09;  1.0000000E+04;  0.0000000E+00;  9.9998428E+03; -1.8795122E-01;  0.0000000E+00;  6.5580159E-03;  9.2076637E+01;
  3.7996534E-01;  9.9999998E-03;  4.0000156E-02;1635; -2.6131524E-02;  0.0000000E+00;  1.9793477E-04;  1.0003098E+03;  4.0000001E-01;  2.5658514E+02;3; -1.4136683E+01;  0.0000000E+00;  2.6732126E-01;0; -1.8195367E-01;  1.0006374E+04;  0.0000000E+00;  6.0383076E-10;  1.0000000E+04;  0.0000000E+00;  9.9998203E+03; -1.8957576E-01;  0.0000000E+00;  7.6220916E-03;  1.0306001E+02;
  3.7996498E-01;  9.9999998E-03;  6.0000274E-02;1636; -2.6424410E-02;  0.0000000E+00;  3.3627913E-04;  1.0003116E+03;  4.0000001E-01;  2.5816534E+02;3; -1.4271933E+01;  0.0000000E+00;  4.2322490E-01;0; -1.8285894E-01;  1.0006457E+04;  0.0000000E+00; -1.4598521E-09;  1.0000000E+04;  0.0000000E+00;  9.9997754E+03; -1.9224359E-01;  0.0000000E+00;  9.3846498E-03;  1.2205618E+02;
  3.7996450E-01;  9.9999998E-03;  8.0000445E-02;1637; -2.6824499E-02;  0.0000000E+00;  5.2520703E-04;  1.0003140E+03;  4.0000001E-01;  2.6014059E+02;3; -1.4452611E+01;  0.0000000E+00;  6.0424167E-01;0; -1.8406904E-01;  1.0006566E+04;  0.0000000E+00; -5.7486682E-09;  1.0000000E+04;  0.0000000E+00;  9.9997158E+03; -1.9588792E-01;  0.0000000E+00;  1.1818890E-02;  1.4996681E+02;
  3.7996387E-01;  9.9999998E-03;  1.0000069E-01;1638; -2.7319768E-02;  0.0000000E+00;  7.7262969E-04;  1.0003170E+03;  4.0000001E-01;  2.6260965E+02;3; -1.4670820E+01;  0.0000000E+00;  8.0010468E-01;0; -1.8552727E-01;  1.0006709E+04;  0.0000000E+00; -2.3299959E-08;  1.0000000E+04;  0.0000000E+00;  9.9996309E+03; -2.0040032E-01;  0.0000000E+00;  1.4873059E-02;  1.8784344E+02;
  3.7996316E-01;  9.9999998E-03;  1.2000104E-01;1639; -2.7893066E-02;  0.0000000E+00;  1.1006292E-03;  1.0003201E+03;  4.0000001E-01;  2.6517749E+02;3; -1.4916733E+01;  0.0000000E+00;  1.0360284E+00;0; -1.8714854E-01;  1.0006882E+04;  0.0000000E+00; -3.8663689E-08;  1.0000000E+04;  0.0000000E+00;  9.9995244E+03; -2.0561577E-01;  0.0000000E+00;  1.8467227E-02;  2.3682596E+02;
  3.7996238E-01;  9.9999998E-03;  1.4000151E-01;1640; -2.8518436E-02;  0.0000000E+00;  1.5199292E-03;  1.0003233E+03;  4.0000001E-01;  2.6784409E+02;3; -1.5179032E+01;  0.0000000E+00;  1.2889041E+00;0; -1.8879706E-01;  1.0007076E+04;  0.0000000E+00; -5.3735114E-09;  1.0000000E+04;  0.0000000E+00;  9.9993896E+03; -2.1130253E-01;  0.0000000E+00;  2.2505483E-02;  2.9828058E+02;
  3.9995918E-01;  9.9999998E-03; -6.3751559E-13;1664; -2.9940579E-02;  0.0000000E+00; -1.5621335E-09;  1.0003579E+03;  4.0000001E-01;  2.9648514E+02;3; -1.5790215E+01;  0.0000000E+00;  2.7949072E-06;0; -2.0443851E-01;  1.0007363E+04;  0.0000000E+00;  1.3557378E-16;  1.0000000E+04;  0.0000000E+00;  9.9997939E+03; -2.1232134E-01;  0.0000000E+00;  7.8828270E-03;  1.1902989E+02;
  3.9995909E-01;  9.9999998E-03;  2.0000096E-02;1665; -3.0012839E-02;  0.0000000E+00;  1.0662652E-04;  1.0003585E+03;  4.0000001E-01;  2.9697897E+02;3; -1.5822455E+01;  0.0000000E+00;  1.4436044E-01;0; -2.0468487E-01;  1.0007382E+04;  0.0000000E+00; -2.0867624E-10;  1.0000000E+04;  0.0000000E+00;  9.9997871E+03; -2.1295786E-01;  0.0000000E+00;  8.2729952E-03;  1.2272159E+02;
  3.9995885E-01;  9.9999998E-03;  4.0000211E-02;1666; -3.0227507E-02;  0.0000000E+00;  2.3044065E-04;  1.0003598E+03;  4.0000001E-01;  2.9806534E+02;3; -1.5915936E+01;  0.0000000E+00;  2.9573750E-01;0; -2.0541064E-01;  1.0007439E+04;  0.0000000E+00; -5.3789844E-09;  1.0000000E+04;  0.0000000E+00;  9.9997617E+03; -2.1485479E-01;  0.0000000E+00;  9.4441455E-03;  1.3411037E+02;
  3.9995840E-01;  9.9999998E-03;  6.0000356E-02;1667; -3.0580183E-02;  0.0000000E+00;  3.9080225E-04;  1.0003623E+03;  4.0000001E-01;  3.0013937E+02;3; -1.6067383E+01;  0.0000000E+00;  4.7209042E-01;0; -2.0657854E-01;  1.0007531E+04;  0.0000000E+00; -1.8136143E-08;  1.0000000E+04;  0.0000000E+00;  9.9997158E+03; -2.1797238E-01;  0.0000000E+00;  1.1393847E-02;  1.5408029E+02;
  3.9995781E-01;  9.9999998E-03;  8.0000564E-02;1668; -3.1061983E-02;  0.0000000E+00;  6.0863898E-04;  1.0003657E+03;  4.0000001E-01;  3.0300348E+02;3; -1.6267416E+01;  0.0000000E+00;  6.7817259E-01;0; -2.0813100E-01;  1.0007667E+04;  0.0000000E+00; -4.3251802E-08;  1.0000000E+04;  0.0000000E+00;  9.9996475E+03; -2.2223507E-01;  0.0000000E+00;  1.4104067E-02;  1.8394112E+02;
  3.9995706E-01;  9.9999998E-03;  1.0000085E-01;1669; -3.1659603E-02;  0.0000000E+00;  8.9506508E-04;  1.0003696E+03;  4.0000001E-01;  3.0626263E+02;3; -1.6509151E+01;  0.0000000E+00;  9.0932643E-01;0; -2.0999010E-01;  1.0007836E+04;  0.0000000E+00; -8.6857121E-08;  1.0000000E+04;  0.0000000E+00;  9.9995557E+03; -2.2751902E-01;  0.0000000E+00;  1.7528921E-02;  2.2526006E+02;
  3.9995614E-01;  9.9999998E-03;  1.2000124E-01;1670; -3.2353349E-02;  0.0000000E+00;  1.2772704E-03;  1.0003741E+03;  4.0000001E-01;  3.0991687E+02;3; -1.6778494E+01;  0.0000000E+00;  1.1895739E+00;0; -2.1204862E-01;  1.0008045E+04;  0.0000000E+00; -1.1671280E-07;  1.0000000E+04;  0.0000000E+00;  9.9994385E+03; -2.3363496E-01;  0.0000000E+00;  2.1586338E-02;  2.7978992E+02;
  3.9995512E-01;  9.9999998E-03;  1.4000179E-01;1671; -3.3112779E-02;  0.0000000E+00;  1.7681693E-03;  1.0003784E+03;  4.0000001E-01;  3.1347232E+02;3; -1.7063686E+01;  0.0000000E+00;  1.4962456E+00;0; -2.1414508E-01;  1.0008284E+04;  0.0000000E+00; -8.6486764E-08;  1.0000000E+04;  0.0000000E+00;  9.9992852E+03; -2.4031274E-01;  0.0000000E+00;  2.6167659E-02;  3.4965054E+02;
  4.1995174E-01;  9.9999998E-03; -3.8133919E-12;1695; -3.4506865E-02;  0.0000000E+00; -3.0335880E-09;  1.0004135E+03;  4.0000001E-01;  3.4260715E+02;3; -1.7718056E+01;  0.0000000E+00; -7.3882893E-07;0; -2.2930066E-01;  1.0008568E+04;  0.0000000E+00;  1.2790569E-15;  1.0000000E+04;  0.0000000E+00;  9.9997021E+03; -2.3975085E-01;  0.0000000E+00;  1.0450182E-02;  1.6600935E+02;
  4.1995162E-01;  9.9999998E-03;  2.0000149E-02;1696; -3.4593605E-02;  0.0000000E+00;  1.3280640E-04;  1.0004141E+03;  4.0000001E-01;  3.4300220E+02;3; -1.7754833E+01;  0.0000000E+00;  1.5632960E-01;0; -2.2962733E-01;  1.0008593E+04;  0.0000000E+00; -6.0893153E-09;  1.0000000E+04;  0.0000000E+00;  9.9996934E+03; -2.4048454E-01;  0.0000000E+00;  1.0857205E-02;  1.6958394E+02;
  4.1995129E-01;  9.9999998E-03;  4.0000312E-02;1697; -3.4851048E-02;  0.0000000E+00;  2.8360312E-04;  1.0004161E+03;  4.0000001E-01;  3.4477994E+02;3; -1.7860750E+01;  0.0000000E+00;  3.2005975E-01;0; -2.3058948E-01;  1.0008655E+04;  0.0000000E+00; -1.7850514E-08;  1.0000000E+04;  0.0000000E+00;  9.9996660E+03; -2.4267262E-01;  0.0000000E+00;  1.2083147E-02;  1.8071761E+02;
  4.1995078E-01;  9.9999998E-03;  6.0000509E-02;1698; -3.5274118E-02;  0.0000000E+00;  4.7480114E-04;  1.0004194E+03;  4.0000001E-01;  3.4744653E+02;3; -1.8031410E+01;  0.0000000E+00;  5.1657104E-01;0; -2.3213530E-01;  1.0008767E+04;  0.0000000E+00; -4.5265569E-08;  1.0000000E+04;  0.0000000E+00;  9.9996230E+03; -2.4627165E-01;  0.0000000E+00;  1.4136362E-02;  2.0056860E+02;
  4.1995004E-01;  9.9999998E-03;  8.0000766E-02;1699; -3.5852261E-02;  0.0000000E+00;  7.2893058E-04;  1.0004238E+03;  4.0000001E-01;  3.5110074E+02;3; -1.8254234E+01;  0.0000000E+00;  7.4741018E-01;0; -2.3418696E-01;  1.0008923E+04;  0.0000000E+00; -9.6057875E-08;  1.0000000E+04;  0.0000000E+00;  9.9995537E+03; -2.5119981E-01;  0.0000000E+00;  1.7012844E-02;  2.3086816E+02;
  4.1994908E-01;  9.9999998E-03;  1.0000110E-01;1700; -3.6570366E-02;  0.0000000E+00;  1.0599878E-03;  1.0004292E+03;  4.0000001E-01;  3.5554504E+02;3; -1.8521685E+01;  0.0000000E+00;  1.0145798E+00;0; -2.3664004E-01;  1.0009126E+04;  0.0000000E+00; -1.8094815E-07;  1.0000000E+04;  0.0000000E+00;  9.9994619E+03; -2.5732094E-01;  0.0000000E+00;  2.0680910E-02;  2.7373923E+02;
  4.1994795E-01;  9.9999998E-03;  1.2000155E-01;1701; -3.7405852E-02;  0.0000000E+00;  1.4996834E-03;  1.0004353E+03;  4.0000001E-01;  3.6068069E+02;3; -1.8814854E+01;  0.0000000E+00;  1.3415878E+00;0; -2.3935434E-01;  1.0009373E+04;  0.0000000E+00; -2.6255947E-07;  1.0000000E+04;  0.0000000E+00;  9.9993340E+03; -2.6442444E-01;  0.0000000E+00;  2.5070101E-02;  3.3168030E+02;
  4.1994667E-01;  9.9999998E-03;  1.4000218E-01;1702; -3.8322911E-02;  0.0000000E+00;  2.0638625E-03;  1.0004413E+03;  4.0000001E-01;  3.6561884E+02;3; -1.9119749E+01;  0.0000000E+00;  1.7074248E+00;0; -2.4212801E-01;  1.0009659E+04;  0.0000000E+00; -2.3488708E-07;  1.0000000E+04;  0.0000000E+00;  9.9991680E+03; -2.7220961E-01;  0.0000000E+00;  3.0081604E-02;  4.0790430E+02;
  4.3994308E-01;  9.9999998E-03; -3.0016523E-12;1726; -3.9636292E-02;  0.0000000E+00;  2.9069525E-09;  1.0004752E+03;  4.0000001E-01;  3.9366724E+02;3; -1.9809502E+01;  0.0000000E+00;  1.1961104E-05;0; -2.5541884E-01;  1.0009949E+04;  0.0000000E+00; -7.8723390E-16;  1.0000000E+04;  0.0000000E+00;  9.9995596E+03; -2.6981628E-01;  0.0000000E+00;  1.4397450E-02;  2.3704500E+02;
  4.3994296E-01;  9.9999998E-03;  2.0000244E-02;1727; -3.9739843E-02;  0.0000000E+00;  1.7966673E-04;  1.0004760E+03;  4.0000001E-01;  3.9435855E+02;3; -1.9851500E+01;  0.0000000E+00;  1.6709195E-01;0; -2.5585437E-01;  1.0009972E+04;  0.0000000E+00; -7.3177766E-09;  1.0000000E+04;  0.0000000E+00;  9.9995518E+03; -2.7064958E-01;  0.0000000E+00;  1.4795224E-02;  2.4027873E+02;
  4.3994257E-01;  9.9999998E-03;  4.0000498E-02;1728; -4.0047299E-02;  0.0000000E+00;  3.7647571E-04;  1.0004787E+03;  4.0000001E-01;  3.9663010E+02;3; -1.9973043E+01;  0.0000000E+00;  3.4225771E-01;0; -2.5713620E-01;  1.0010048E+04;  0.0000000E+00; -2.8772652E-08;  1.0000000E+04;  0.0000000E+00;  9.9995283E+03; -2.7313459E-01;  0.0000000E+00;  1.5998391E-02;  2.5046957E+02;
  4.3994194E-01;  9.9999998E-03;  6.0000781E-02;1729; -4.0552340E-02;  0.0000000E+00;  6.1590312E-04;  1.0004828E+03;  4.0000001E-01;  3.9998804E+02;3; -2.0166771E+01;  0.0000000E+00;  5.5805826E-01;0; -2.5919846E-01;  1.0010173E+04;  0.0000000E+00; -7.0599214E-08;  1.0000000E+04;  0.0000000E+00;  9.9994883E+03; -2.7722672E-01;  0.0000000E+00;  1.8028263E-02;  2.6899695E+02;
  4.3994102E-01;  9.9999998E-03;  8.0001116E-02;1730; -4.1243136E-02;  0.0000000E+00;  9.2054415E-04;  1.0004886E+03;  4.0000001E-01;  4.0482739E+02;3; -2.0418083E+01;  0.0000000E+00;  8.1335914E-01;0; -2.6194015E-01;  1.0010352E+04;  0.0000000E+00; -1.5106252E-07;  1.0000000E+04;  0.0000000E+00;  9.9994219E+03; -2.8283918E-01;  0.0000000E+00;  2.0899029E-02;  2.9792776E+02;
  4.3993989E-01;  9.9999998E-03;  1.0000153E-01;1731; -4.2101867E-02;  0.0000000E+00;  1.3080139E-03;  1.0004955E+03;  4.0000001E-01;  4.1055560E+02;3; -2.0714529E+01;  0.0000000E+00;  1.1217266E+00;0; -2.6522681E-01;  1.0010587E+04;  0.0000000E+00; -2.8364866E-07;  1.0000000E+04;  0.0000000E+00;  9.9993271E+03; -2.8982773E-01;  0.0000000E+00;  2.4600934E-02;  3.3985428E+02;
  4.3993849E-01;  9.9999998E-03;  1.2000206E-01;1732; -4.3102778E-02;  0.0000000E+00;  1.8096424E-03;  1.0005038E+03;  4.0000001E-01;  4.1737021E+02;3; -2.1032217E+01;  0.0000000E+00;  1.4925832E+00;0; -2.6887774E-01;  1.0010879E+04;  0.0000000E+00; -4.4279977E-07;  1.0000000E+04;  0.0000000E+00;  9.9992002E+03; -2.9796886E-01;  0.0000000E+00;  2.9091129E-02;  3.9803238E+02;
  4.3993688E-01;  9.9999998E-03;  1.4000276E-01;1733; -4.4204298E-02;  0.0000000E+00;  2.4481015E-03;  1.0005121E+03;  4.0000001E-01;  4.2428360E+02;3; -2.1353586E+01;  0.0000000E+00;  1.9243441E+00;0; -2.7263057E-01;  1.0011217E+04;  0.0000000E+00; -4.6177684E-07;  1.0000000E+04;  0.0000000E+00;  9.9990283E+03; -3.0694187E-01;  0.0000000E+00;  3.4311291E-02;  4.7706284E+02;
  4.5993304E-01;  9.9999998E-03;  2.3582425E-12;1757; -4.5385513E-02;  0.0000000E+00;  4.3338209E-09;  1.0005434E+03;  4.0000054E-01;  4.5015909E+02;3; -2.2063576E+01;  0.0000000E+00;  1.3652108E-05;0; -2.8207341E-01;  1.0011502E+04;  0.0000000E+00; -1.9293214E-16;  1.0000000E+04;  0.0000000E+00;  9.9993438E+03; -3.0243236E-01;  0.0000000E+00;  2.0358946E-02;  3.4136664E+02;
  4.5993289E-01;  9.9999998E-03;  2.0000402E-02;1758; -4.5508120E-02;  0.0000000E+00;  2.6037436E-04;  1.0005445E+03;  4.0000048E-01;  4.5114673E+02;3; -2.2110756E+01;  0.0000000E+00;  1.7445132E-01;0; -2.8264683E-01;  1.0011528E+04;  0.0000000E+00; -6.7284818E-09;  1.0000000E+04;  0.0000000E+00;  9.9993389E+03; -3.0336070E-01;  0.0000000E+00;  2.0713869E-02;  3.4410989E+02;
  4.5993242E-01;  9.9999998E-03;  4.0000811E-02;1759; -4.5873187E-02;  0.0000000E+00;  5.3784752E-04;  1.0005475E+03;  4.0000045E-01;  4.5361578E+02;3; -2.2252110E+01;  0.0000000E+00;  3.6799753E-01;0; -2.8433764E-01;  1.0011612E+04;  0.0000000E+00; -2.7938784E-08;  1.0000000E+04;  0.0000000E+00;  9.9993203E+03; -3.0613104E-01;  0.0000000E+00;  2.1793403E-02;  3.5286301E+02;
  4.5993167E-01;  9.9999998E-03;  6.0001239E-02;1760; -4.6472497E-02;  0.0000000E+00;  8.5658778E-04;  1.0005529E+03;  4.0000045E-01;  4.5806009E+02;3; -2.2474457E+01;  0.0000000E+00;  6.0539538E-01;0; -2.8706467E-01;  1.0011753E+04;  0.0000000E+00; -7.5035622E-08;  1.0000000E+04;  0.0000000E+00;  9.9992813E+03; -3.1069675E-01;  0.0000000E+00;  2.3632074E-02;  3.6908438E+02;
  4.5993060E-01;  9.9999998E-03;  8.0001704E-02;1761; -4.7292732E-02;  0.0000000E+00;  1.2354570E-03;  1.0005601E+03;  4.0000048E-01;  4.6398584E+02;3; -2.2760761E+01;  0.0000000E+00;  8.8230497E-01;0; -2.9070562E-01;  1.0011954E+04;  0.0000000E+00; -1.7073523E-07;  1.0000000E+04;  0.0000000E+00;  9.9992256E+03; -3.1696910E-01;  0.0000000E+00;  2.6263490E-02;  3.9493948E+02;
  4.5992920E-01;  9.9999998E-03;  1.0000224E-01;1762; -4.8313301E-02;  0.0000000E+00;  1.6988789E-03;  1.0005692E+03;  4.0000048E-01;  4.7159055E+02;3; -2.3089355E+01;  0.0000000E+00;  1.2326609E+00;0; -2.9509631E-01;  1.0012225E+04;  0.0000000E+00; -3.4210865E-07;  1.0000000E+04;  0.0000000E+00;  9.9991396E+03; -3.2480037E-01;  0.0000000E+00;  2.9704068E-02;  4.3320032E+02;
  4.5992747E-01;  9.9999998E-03;  1.2000288E-01;1763; -4.9505211E-02;  0.0000000E+00;  2.2744893E-03;  1.0005798E+03;  4.0000054E-01;  4.8038040E+02;3; -2.3434990E+01;  0.0000000E+00;  1.6493584E+00;0; -3.0001226E-01;  1.0012559E+04;  0.0000000E+00; -5.7429725E-07;  1.0000000E+04;  0.0000000E+00;  9.9990195E+03; -3.3396441E-01;  0.0000000E+00;  3.3952150E-02;  4.8766434E+02;
  4.5992547E-01;  9.9999998E-03;  1.4000367E-01;1764; -5.0821871E-02;  0.0000000E+00;  2.9890917E-03;  1.0005914E+03;  4.0000060E-01;  4.8996036E+02;3; -2.3772791E+01;  0.0000000E+00;  2.1407480E+00;0; -3.0511379E-01;  1.0012953E+04;  0.0000000E+00; -6.7305155E-07;  1.0000000E+04;  0.0000000E+00;  9.9988535E+03; -3.4413865E-01;  0.0000000E+00;  3.9024863E-02;  5.6445435E+02;
  4.7992134E-01;  9.9999998E-03; -1.1631069E-12;1788; -5.1827420E-02;  0.0000000E+00; -1.0081781E-09;  1.0006158E+03;  4.0000153E-01;  5.1020624E+02;3; -2.4472919E+01;  0.0000000E+00;  6.7346191E-06;0; -3.0787492E-01;  1.0013212E+04;  0.0000000E+00; -1.5878683E-16;  1.0000000E+04;  0.0000000E+00;  9.9990381E+03; -3.3696243E-01;  0.0000000E+00;  2.9087519E-02;  4.8917404E+02;
  4.7992116E-01;  9.9999998E-03;  2.0000657E-02;1789; -5.1971734E-02;  0.0000000E+00;  3.9627976E-04;  1.0006170E+03;  4.0000147E-01;  5.1119388E+02;3; -2.4529299E+01;  0.0000000E+00;  1.8837988E-01;0; -3.0861366E-01;  1.0013240E+04;  0.0000000E+00; -5.1080118E-09;  1.0000000E+04;  0.0000000E+00;  9.9990332E+03; -3.3797458E-01;  0.0000000E+00;  2.9360920E-02;  4.9146048E+02;
  4.7992063E-01;  9.9999998E-03;  4.0001310E-02;1790; -5.2401800E-02;  0.0000000E+00;  8.0762926E-04;  1.0006207E+03;  4.0000153E-01;  5.1425549E+02;3; -2.4695084E+01;  0.0000000E+00;  4.0433985E-01;0; -3.1079590E-01;  1.0013332E+04;  0.0000000E+00; -2.2171209E-08;  1.0000000E+04;  0.0000000E+00;  9.9990156E+03; -3.4099549E-01;  0.0000000E+00;  3.0199600E-02;  4.9879062E+02;
  4.7991973E-01;  9.9999998E-03;  6.0001969E-02;1791; -5.3107873E-02;  0.0000000E+00;  1.2510134E-03;  1.0006271E+03;  4.0000156E-01;  5.1958868E+02;3; -2.4953840E+01;  0.0000000E+00;  6.6282755E-01;0; -3.1432787E-01;  1.0013489E+04;  0.0000000E+00; -5.4116988E-08;  1.0000000E+04;  0.0000000E+00;  9.9989844E+03; -3.4597650E-01;  0.0000000E+00;  3.1648625E-02;  5.1244080E+02;
  4.7991845E-01;  9.9999998E-03;  8.0002651E-02;1792; -5.4073811E-02;  0.0000000E+00;  1.7472681E-03;  1.0006359E+03;  4.0000147E-01;  5.2679834E+02;3; -2.5279854E+01;  0.0000000E+00;  9.7923106E-01;0; -3.1907034E-01;  1.0013713E+04;  0.0000000E+00; -1.3360315E-07;  1.0000000E+04;  0.0000000E+00;  9.9989346E+03; -3.5282767E-01;  0.0000000E+00;  3.3757322E-02;  5.3423822E+02;
  4.7991678E-01;  9.9999998E-03;  1.0000338E-01;1793; -5.5276908E-02;  0.0000000E+00;  2.3181557E-03;  1.0006472E+03;  4.0000156E-01;  5.3618073E+02;3; -2.5646313E+01;  0.0000000E+00;  1.3649353E+00;0; -3.2483706E-01;  1.0014011E+04;  0.0000000E+00; -3.0237089E-07;  1.0000000E+04;  0.0000000E+00;  9.9988672E+03; -3.6140266E-01;  0.0000000E+00;  3.6565613E-02;  5.6657080E+02;
  4.7991470E-01;  9.9999998E-03;  1.2000419E-01;1794; -5.6685615E-02;  0.0000000E+00;  2.9922808E-03;  1.0006609E+03;  4.0000147E-01;  5.4753839E+02;3; -2.6024748E+01;  0.0000000E+00;  1.8316356E+00;0; -3.3136395E-01;  1.0014385E+04;  0.0000000E+00; -5.2129076E-07;  1.0000000E+04;  0.0000000E+00;  9.9987676E+03; -3.7148452E-01;  0.0000000E+00;  4.0120564E-02;  6.1325079E+02;
  4.7991225E-01;  9.9999998E-03;  1.4000514E-01;1795; -5.8248136E-02;  0.0000000E+00;  3.7921413E-03;  1.0006761E+03;  4.0000153E-01;  5.6017999E+02;3; -2.6379028E+01;  0.0000000E+00;  2.3707604E+00;0; -3.3822232E-01;  1.0014835E+04;  0.0000000E+00; -6.1378034E-07;  1.0000000E+04;  0.0000000E+00;  9.9986182E+03; -3.8277164E-01;  0.0000000E+00;  4.4549324E-02;  6.8179034E+02;
  4.9990770E-01;  9.9999998E-03;  1.8595813E-12;1819; -5.9048682E-02;  0.0000000E+00;  1.6828613E-09;  1.0006889E+03;  4.0000355E-01;  5.7074701E+02;3; -2.7031727E+01;  0.0000000E+00;  4.7135145E-06;0; -3.3035937E-01;  1.0014999E+04;  0.0000000E+00;  2.0117382E-15;  1.0000000E+04;  0.0000000E+00;  9.9986113E+03; -3.7176275E-01;  0.0000000E+00;  4.1403379E-02;  6.9056165E+02;
  4.9990749E-01;  9.9999998E-03;  2.0001030E-02;1820; -5.9217162E-02;  0.0000000E+00;  6.0937490E-04;  1.0006904E+03;  4.0000352E-01;  5.7193213E+02;3; -2.7099192E+01;  0.0000000E+00;  2.2319812E-01;0; -3.3128449E-01;  1.0015027E+04;  0.0000000E+00;  5.8944655E-10;  1.0000000E+04;  0.0000000E+00;  9.9986084E+03; -3.7283930E-01;  0.0000000E+00;  4.1554812E-02;  6.9273279E+02;
  4.9990690E-01;  9.9999998E-03;  4.0002052E-02;1821; -5.9718553E-02;  0.0000000E+00;  1.2274315E-03;  1.0006942E+03;  4.0000349E-01;  5.7509253E+02;3; -2.7294107E+01;  0.0000000E+00;  4.7094679E-01;0; -3.3402246E-01;  1.0015127E+04;  0.0000000E+00; -7.5506434E-10;  1.0000000E+04;  0.0000000E+00;  9.9985947E+03; -3.7605178E-01;  0.0000000E+00;  4.2029332E-02;  6.9953113E+02;
  4.9990585E-01;  9.9999998E-03;  6.0003065E-02;1822; -6.0541093E-02;  0.0000000E+00;  1.8651236E-03;  1.0007017E+03;  4.0000340E-01;  5.8131458E+02;3; -2.7595327E+01;  0.0000000E+00;  7.6368469E-01;0; -3.3847135E-01;  1.0015296E+04;  0.0000000E+00; -2.0465718E-09;  1.0000000E+04;  0.0000000E+00;  9.9985674E+03; -3.8134748E-01;  0.0000000E+00;  4.2876117E-02;  7.1164795E+02;
  4.9990433E-01;  9.9999998E-03;  8.0004074E-02;1823; -6.1667327E-02;  0.0000000E+00;  2.5404289E-03;  1.0007117E+03;  4.0000337E-01;  5.8961060E+02;3; -2.7971891E+01;  0.0000000E+00;  1.1224775E+00;0; -3.4448323E-01;  1.0015538E+04;  0.0000000E+00;  3.8146428E-09;  1.0000000E+04;  0.0000000E+00;  9.9985283E+03; -3.8863319E-01;  0.0000000E+00;  4.4149954E-02;  7.2990002E+02;
  4.9990237E-01;  9.9999998E-03;  1.0000512E-01;1824; -6.3071601E-02;  0.0000000E+00;  3.2719737E-03;  1.0007253E+03;  4.0000349E-01;  6.0096826E+02;3; -2.8383919E+01;  0.0000000E+00;  1.5447273E+00;0; -3.5186407E-01;  1.0015863E+04;  0.0000000E+00;  3.1408870E-08;  1.0000000E+04;  0.0000000E+00;  9.9984756E+03; -3.9776808E-01;  0.0000000E+00;  4.5904022E-02;  7.5543164E+02;
  4.9989989E-01;  9.9999998E-03;  1.2000622E-01;1825; -6.4720817E-02;  0.0000000E+00;  4.0863557E-03;  1.0007421E+03;  4.0000346E-01;  6.1479498E+02;3; -2.8799582E+01;  0.0000000E+00;  2.0586798E+00;0; -3.6032191E-01;  1.0016274E+04;  0.0000000E+00;  1.4804247E-07;  1.0000000E+04;  0.0000000E+00;  9.9983975E+03; -4.0855575E-01;  0.0000000E+00;  4.8233829E-02;  7.9120575E+02;
  4.9989691E-01;  9.9999998E-03;  1.4000741E-01;1826; -6.6557646E-02;  0.0000000E+00;  5.0008688E-03;  1.0007612E+03;  4.0000346E-01;  6.3069568E+02;3; -2.9172379E+01;  0.0000000E+00;  2.6511140E+00;0; -3.6933371E-01;  1.0016775E+04;  0.0000000E+00;  5.1103177E-07;  1.0000000E+04;  0.0000000E+00;  9.9982832E+03; -4.2074209E-01;  0.0000000E+00;  5.1408373E-02;  8.4574506E+02;
  5.1989186E-01;  9.9999998E-03; -2.6357551E-12;1850; -6.7130223E-02;  0.0000000E+00;  7.6757900E-10;  1.0007615E+03;  4.0000963E-01;  6.3089233E+02;3; -2.9736580E+01;  0.0000000E+00;  5.7577272E-06;0; -3.4569693E-01;  1.0016700E+04;  0.0000000E+00; -6.6548298E-16;  1.0000000E+04;  0.0000000E+00;  9.9980488E+03; -4.0380952E-01;  0.0000000E+00;  5.8112577E-02;  9.5416418E+02;
  5.1989162E-01;  9.9999998E-03;  2.0001553E-02;1851; -6.7324080E-02;  0.0000000E+00;  9.2683540E-04;  1.0007631E+03;  4.0000960E-01;  6.3227502E+02;3; -2.9816095E+01;  0.0000000E+00;  2.8492865E-01;0; -3.4681934E-01;  1.0016735E+04;  0.0000000E+00;  3.9915857E-09;  1.0000000E+04;  0.0000000E+00;  9.9980430E+03; -4.0492287E-01;  0.0000000E+00;  5.8103535E-02;  9.5698462E+02;
  5.1989090E-01;  9.9999998E-03;  4.0003091E-02;1852; -6.7900866E-02;  0.0000000E+00;  1.8515411E-03;  1.0007673E+03;  4.0000969E-01;  6.3573169E+02;3; -3.0045250E+01;  0.0000000E+00;  5.8904022E-01;0; -3.5014746E-01;  1.0016841E+04;  0.0000000E+00;  3.7388752E-08;  1.0000000E+04;  0.0000000E+00;  9.9980293E+03; -4.0824285E-01;  0.0000000E+00;  5.8095399E-02;  9.6536249E+02;
  5.1988971E-01;  9.9999998E-03;  6.0004614E-02;1853; -6.8847418E-02;  0.0000000E+00;  2.7773448E-03;  1.0007750E+03;  4.0000975E-01;  6.4205249E+02;3; -3.0397457E+01;  0.0000000E+00;  9.3112695E-01;0; -3.5557678E-01;  1.0017021E+04;  0.0000000E+00;  1.4396647E-07;  1.0000000E+04;  0.0000000E+00;  9.9980010E+03; -4.1370851E-01;  0.0000000E+00;  5.8131717E-02;  9.7885040E+02;
  5.1988798E-01;  9.9999998E-03;  8.0006130E-02;1854; -7.0144527E-02;  0.0000000E+00;  3.7171396E-03;  1.0007863E+03;  4.0000960E-01;  6.5143488E+02;3; -3.0834272E+01;  0.0000000E+00;  1.3331126E+00;0; -3.6296460E-01;  1.0017280E+04;  0.0000000E+00;  4.3581454E-07;  1.0000000E+04;  0.0000000E+00;  9.9979697E+03; -4.2122185E-01;  0.0000000E+00;  5.8257256E-02;  9.9635242E+02;
  5.1988572E-01;  9.9999998E-03;  1.0000765E-01;1855; -7.1765527E-02;  0.0000000E+00;  4.6856534E-03;  1.0008018E+03;  4.0000963E-01;  6.6427393E+02;3; -3.1302931E+01;  0.0000000E+00;  1.7973239E+00;0; -3.7212592E-01;  1.0017628E+04;  0.0000000E+00;  1.1005923E-06;  1.0000000E+04;  0.0000000E+00;  9.9979277E+03; -4.3064797E-01;  0.0000000E+00;  5.8522061E-02;  1.0166417E+03;
  5.1988274E-01;  9.9999998E-03;  1.2000920E-01;1856; -7.3674157E-02;  0.0000000E+00;  5.7046679E-03;  1.0008215E+03;  4.0000966E-01;  6.8056970E+02;3; -3.1761526E+01;  0.0000000E+00;  2.3525999E+00;0; -3.8275677E-01;  1.0018068E+04;  0.0000000E+00;  2.3093919E-06;  1.0000000E+04;  0.0000000E+00;  9.9978789E+03; -4.4182181E-01;  0.0000000E+00;  5.9065059E-02;  1.0407845E+03;
  5.1987922E-01;  9.9999998E-03;  1.4001079E-01;1857; -7.5807147E-02;  0.0000000E+00;  6.7770057E-03;  1.0008448E+03;  4.0000966E-01;  6.9992706E+02;3; -3.2157471E+01;  0.0000000E+00;  2.9730902E+00;0; -3.9423159E-01;  1.0018610E+04;  0.0000000E+00;  4.0536415E-06;  1.0000000E+04;  0.0000000E+00;  9.9978066E+03; -4.5456028E-01;  0.0000000E+00;  6.0328692E-02;  1.0779580E+03;
  5.3987372E-01;  9.9999998E-03;  1.9505072E-12;1881; -7.6094002E-02;  0.0000000E+00;  1.5369211E-09;  1.0008362E+03;  4.0002596E-01;  6.9271613E+02;3; -3.2574333E+01;  0.0000000E+00;  1.0572279E-05;0; -3.4868705E-01;  1.0018091E+04;  0.0000000E+00;  4.2562932E-16;  1.0000000E+04;  0.0000000E+00;  9.9973330E+03; -4.2861363E-01;  0.0000000E+00;  7.9926580E-02;  1.2860575E+03;
  5.3987342E-01;  9.9999998E-03;  2.0002244E-02;1882; -7.6314718E-02;  0.0000000E+00;  1.3644490E-03;  1.0008376E+03;  4.0002584E-01;  6.9390125E+02;3; -3.2666695E+01;  0.0000000E+00;  3.7981364E-01;0; -3.5000631E-01;  1.0018128E+04;  0.0000000E+00;  3.1971418E-08;  1.0000000E+04;  0.0000000E+00;  9.9973232E+03; -4.2972949E-01;  0.0000000E+00;  7.9723187E-02;  1.2908043E+03;
  5.3987265E-01;  9.9999998E-03;  4.0004473E-02;1883; -7.6970719E-02;  0.0000000E+00;  2.7144833E-03;  1.0008419E+03;  4.0002590E-01;  6.9745673E+02;3; -3.2932457E+01;  0.0000000E+00;  7.7377242E-01;0; -3.5392261E-01;  1.0018241E+04;  0.0000000E+00;  1.5436673E-07;  1.0000000E+04;  0.0000000E+00;  9.9972969E+03; -4.3304974E-01;  0.0000000E+00;  7.9127133E-02;  1.3043606E+03;
  5.3987128E-01;  9.9999998E-03;  6.0006682E-02;1884; -7.8046858E-02;  0.0000000E+00;  4.0429737E-03;  1.0008496E+03;  4.0002590E-01;  7.0387622E+02;3; -3.3338291E+01;  0.0000000E+00;  1.1955492E+00;0; -3.6033660E-01;  1.0018429E+04;  0.0000000E+00;  5.3337055E-07;  1.0000000E+04;  0.0000000E+00;  9.9972637E+03; -4.3850178E-01;  0.0000000E+00;  7.8165174E-02;  1.3244359E+03;
  5.3986931E-01;  9.9999998E-03;  8.0008887E-02;1885; -7.9521827E-02;  0.0000000E+00;  5.3545474E-03;  1.0008611E+03;  4.0002587E-01;  7.1345612E+02;3; -3.3836720E+01;  0.0000000E+00;  1.6610889E+00;0; -3.6912173E-01;  1.0018701E+04;  0.0000000E+00;  1.5417028E-06;  1.0000000E+04;  0.0000000E+00;  9.9972246E+03; -4.4597569E-01;  0.0000000E+00;  7.6853961E-02;  1.3469193E+03;
  5.3986669E-01;  9.9999998E-03;  1.0001110E-01;1886; -8.1368126E-02;  0.0000000E+00;  6.6655274E-03;  1.0008777E+03;  4.0002584E-01;  7.2718402E+02;3; -3.4370842E+01;  0.0000000E+00;  2.1847267E+00;0; -3.8011926E-01;  1.0019068E+04;  0.0000000E+00;  3.6657023E-06;  1.0000000E+04;  0.0000000E+00;  9.9971885E+03; -4.5534360E-01;  0.0000000E+00;  7.5224355E-02;  1.3669730E+03;
  5.3986329E-01;  9.9999998E-03;  1.2001334E-01;1887; -8.3543010E-02;  0.0000000E+00;  7.9789469E-03;  1.0008995E+03;  4.0002581E-01;  7.4525745E+02;3; -3.4874020E+01;  0.0000000E+00;  2.7729523E+00;0; -3.9301735E-01;  1.0019529E+04;  0.0000000E+00;  7.1387963E-06;  1.0000000E+04;  0.0000000E+00;  9.9971631E+03; -4.6647877E-01;  0.0000000E+00;  7.3461421E-02;  1.3829828E+03;
  5.3985918E-01;  9.9999998E-03;  1.4001557E-01;1888; -8.5977711E-02;  0.0000000E+00;  9.2823757E-03;  1.0009261E+03;  4.0002573E-01;  7.6728137E+02;3; -3.5288273E+01;  0.0000000E+00;  3.4111407E+00;0; -4.0705860E-01;  1.0020097E+04;  0.0000000E+00;  1.1128820E-05;  1.0000000E+04;  0.0000000E+00;  9.9971289E+03; -4.7928259E-01;  0.0000000E+00;  7.2223976E-02;  1.4051617E+03;
  5.5985355E-01;  9.9999998E-03; -2.8530351E-12;1912; -8.5815310E-02;  0.0000000E+00; -1.2584459E-09;  1.0009406E+03;  4.0006965E-01;  7.7922968E+02;3; -3.5513157E+01;  0.0000000E+00; -3.9092629E-06;0; -3.3302391E-01;  1.0018865E+04;  0.0000000E+00; -3.5376185E-15;  1.0000000E+04;  0.0000000E+00;  9.9964502E+03; -4.4046918E-01;  0.0000000E+00;  1.0744528E-01;  1.6895897E+03;
  5.5985326E-01;  9.9999998E-03;  2.0003108E-02;1913; -8.6063728E-02;  0.0000000E+00;  1.9334146E-03;  1.0009418E+03;  4.0006974E-01;  7.8021729E+02;3; -3.5618725E+01;  0.0000000E+00;  5.4205716E-01;0; -3.3452675E-01;  1.0018905E+04;  0.0000000E+00;  6.4758531E-08;  1.0000000E+04;  0.0000000E+00;  9.9964365E+03; -4.4154549E-01;  0.0000000E+00;  1.0701874E-01;  1.6981008E+03;
  5.5985236E-01;  9.9999998E-03;  4.0006220E-02;1914; -8.6801276E-02;  0.0000000E+00;  3.8449219E-03;  1.0009453E+03;  4.0006974E-01;  7.8318018E+02;3; -3.5921459E+01;  0.0000000E+00;  1.0791264E+00;0; -3.3899438E-01;  1.0019020E+04;  0.0000000E+00;  3.3661658E-07;  1.0000000E+04;  0.0000000E+00;  9.9963887E+03; -4.4473979E-01;  0.0000000E+00;  1.0574540E-01;  1.7220751E+03;
  5.5985087E-01;  9.9999998E-03;  6.0009342E-02;1915; -8.8009059E-02;  0.0000000E+00;  5.7171881E-03;  1.0009520E+03;  4.0006971E-01;  7.8871082E+02;3; -3.6380219E+01;  0.0000000E+00;  1.6094633E+00;0; -3.4633160E-01;  1.0019214E+04;  0.0000000E+00;  1.2138256E-06;  1.0000000E+04;  0.0000000E+00;  9.9963291E+03; -4.4995737E-01;  0.0000000E+00;  1.0362576E-01;  1.7565532E+03;
  5.5984861E-01;  9.9999998E-03;  8.0012485E-02;1916; -8.9664094E-02;  0.0000000E+00;  7.5471508E-03;  1.0009628E+03;  4.0006959E-01;  7.9769812E+02;3; -3.6942253E+01;  0.0000000E+00;  2.1588349E+00;0; -3.5643646E-01;  1.0019494E+04;  0.0000000E+00;  3.5036016E-06;  1.0000000E+04;  0.0000000E+00;  9.9962656E+03; -4.5707136E-01;  0.0000000E+00;  1.0063490E-01;  1.7931936E+03;
  5.5984563E-01;  9.9999998E-03;  1.0001566E-01;1917; -9.1733672E-02;  0.0000000E+00;  9.3273539E-03;  1.0009792E+03;  4.0006968E-01;  8.1122845E+02;3; -3.7533222E+01;  0.0000000E+00;  2.7359016E+00;0; -3.6917469E-01;  1.0019866E+04;  0.0000000E+00;  8.0345108E-06;  1.0000000E+04;  0.0000000E+00;  9.9962207E+03; -4.6595466E-01;  0.0000000E+00;  9.6779972E-02;  1.8225221E+03;
  5.5984175E-01;  9.9999998E-03;  1.2001885E-01;1918; -9.4172709E-02;  0.0000000E+00;  1.1043165E-02;  1.0010015E+03;  4.0006971E-01;  8.2969690E+02;3; -3.8080238E+01;  0.0000000E+00;  3.3276098E+00;0; -3.8419589E-01;  1.0020335E+04;  0.0000000E+00;  1.4380306E-05;  1.0000000E+04;  0.0000000E+00;  9.9962021E+03; -4.7651768E-01;  0.0000000E+00;  9.2321776E-02;  1.8404070E+03;
  5.5983704E-01;  9.9999998E-03;  1.4002204E-01;1919; -9.6898489E-02;  0.0000000E+00;  1.2685507E-02;  1.0010293E+03;  4.0006959E-01;  8.5270837E+02;3; -3.8508308E+01;  0.0000000E+00;  3.9361739E+00;0; -4.0054661E-01;  1.0020913E+04;  0.0000000E+00;  1.9563475E-05;  1.0000000E+04;  0.0000000E+00;  9.9961777E+03; -4.8874155E-01;  0.0000000E+00;  8.8194922E-02;  1.8597365E+03;
  5.7983232E-01;  9.9999998E-03; -2.0211733E-13;1943; -9.5957339E-02;  0.0000000E+00; -1.1448509E-09;  1.0011669E+03;  4.0018588E-01;  9.6667615E+02;3; -3.8487606E+01;  0.0000000E+00; -2.3708599E-06;0; -2.9073331E-01;  1.0018630E+04;  0.0000000E+00; -1.6671372E-15;  1.0000000E+04;  0.0000000E+00;  9.9953955E+03; -4.3194199E-01;  0.0000000E+00;  1.4120868E-01;  2.1659626E+03;
  5.7983196E-01;  9.9999998E-03;  2.0004127E-02;1944; -9.6233450E-02;  0.0000000E+00;  2.6416283E-03;  1.0011675E+03;  4.0018579E-01;  9.6726874E+02;3; -3.8602013E+01;  0.0000000E+00;  7.7833968E-01;0; -2.9239732E-01;  1.0018668E+04;  0.0000000E+00;  4.4257330E-08;  1.0000000E+04;  0.0000000E+00;  9.9953691E+03; -4.3293327E-01;  0.0000000E+00;  1.4053597E-01;  2.1806516E+03;
  5.7983094E-01;  9.9999998E-03;  4.0008277E-02;1945; -9.7051069E-02;  0.0000000E+00;  5.2449894E-03;  1.0011697E+03;  4.0018588E-01;  9.6904645E+02;3; -3.8933277E+01;  0.0000000E+00;  1.5260031E+00;0; -2.9734460E-01;  1.0018786E+04;  0.0000000E+00;  3.7059530E-07;  1.0000000E+04;  0.0000000E+00;  9.9952930E+03; -4.3586078E-01;  0.0000000E+00;  1.3851619E-01;  2.2219841E+03;
  5.7982928E-01;  9.9999998E-03;  6.0012490E-02;1946; -9.8383754E-02;  0.0000000E+00;  7.7883871E-03;  1.0011740E+03;  4.0018582E-01;  9.7260187E+02;3; -3.9437618E+01;  0.0000000E+00;  2.2218635E+00;0; -3.0548352E-01;  1.0018980E+04;  0.0000000E+00;  1.7490662E-06;  1.0000000E+04;  0.0000000E+00;  9.9951836E+03; -4.4060454E-01;  0.0000000E+00;  1.3512102E-01;  2.2814614E+03;
  5.7982677E-01;  9.9999998E-03;  8.0016807E-02;1947; -1.0020504E-01;  0.0000000E+00;  1.0264368E-02;  1.0011821E+03;  4.0018576E-01;  9.7931763E+02;3; -4.0050671E+01;  0.0000000E+00;  2.8683605E+00;0; -3.1672567E-01;  1.0019260E+04;  0.0000000E+00;  5.5886594E-06;  1.0000000E+04;  0.0000000E+00;  9.9950703E+03; -4.4700918E-01;  0.0000000E+00;  1.3028350E-01;  2.3453821E+03;
  5.7982343E-01;  9.9999998E-03;  1.0002123E-01;1948; -1.0247847E-01;  0.0000000E+00;  1.2654536E-02;  1.0011960E+03;  4.0018579E-01;  9.9087268E+02;3; -4.0687016E+01;  0.0000000E+00;  3.4810920E+00;0; -3.3093271E-01;  1.0019623E+04;  0.0000000E+00;  1.2628509E-05;  1.0000000E+04;  0.0000000E+00;  9.9949844E+03; -4.5493758E-01;  0.0000000E+00;  1.2400486E-01;  2.3991780E+03;
  5.7981908E-01;  9.9999998E-03;  1.2002573E-01;1949; -1.0515138E-01;  0.0000000E+00;  1.4920685E-02;  1.0012162E+03;  4.0018576E-01;  1.0075634E+03;3; -4.1254971E+01;  0.0000000E+00;  4.0693560E+00;0; -3.4764588E-01;  1.0020078E+04;  0.0000000E+00;  2.0261961E-05;  1.0000000E+04;  0.0000000E+00;  9.9949336E+03; -4.6431991E-01;  0.0000000E+00;  1.1667403E-01;  2.4375732E+03;
  5.7981378E-01;  9.9999998E-03;  1.4003021E-01;1950; -1.0814150E-01;  0.0000000E+00;  1.7026667E-02;  1.0012409E+03;  4.0018576E-01;  1.0280070E+03;3; -4.1685432E+01;  0.0000000E+00;  4.6328802E+00;0; -3.6565754E-01;  1.0020636E+04;  0.0000000E+00;  2.1444564E-05;  1.0000000E+04;  0.0000000E+00;  9.9948740E+03; -4.7519192E-01;  0.0000000E+00;  1.0953438E-01;  2.4784185E+03;
  5.9981143E-01;  9.9999998E-03;  6.2757937E-12;1974; -1.0587695E-01;  0.0000000E+00;  3.4745824E-09;  1.0017545E+03;  4.0048099E-01;  1.4534644E+03;3; -4.1336033E+01;  0.0000000E+00; -9.3244307E-07;0; -2.1016295E-01;  1.0016865E+04;  0.0000000E+00; -3.5742652E-15;  1.0000000E+04;  0.0000000E+00;  9.9941641E+03; -3.9190525E-01;  0.0000000E+00;  1.8174230E-01;  2.7147495E+03;
  5.9981108E-01;  9.9999998E-03;  2.0005299E-02;1975; -1.0618059E-01;  0.0000000E+00;  3.5072099E-03;  1.0017542E+03;  4.0048105E-01;  1.4532668E+03;3; -4.1456825E+01;  0.0000000E+00;  1.1037211E+00;0; -2.1194904E-01;  1.0016902E+04;  0.0000000E+00; -1.7073316E-07;  1.0000000E+04;  0.0000000E+00;  9.9941201E+03; -3.9276260E-01;  0.0000000E+00;  1.8081357E-01;  2.7385835E+03;
  5.9980994E-01;  9.9999998E-03;  4.0010639E-02;1976; -1.0707328E-01;  0.0000000E+00;  6.9610137E-03;  1.0017535E+03;  4.0048096E-01;  1.4526742E+03;3; -4.1795021E+01;  0.0000000E+00;  2.1565652E+00;0; -2.1725883E-01;  1.0017015E+04;  0.0000000E+00; -3.2170067E-07;  1.0000000E+04;  0.0000000E+00;  9.9939941E+03; -3.9527845E-01;  0.0000000E+00;  1.7801963E-01;  2.8058611E+03;
  5.9980804E-01;  9.9999998E-03;  6.0016099E-02;1977; -1.0851820E-01;  0.0000000E+00;  1.0314042E-02;  1.0017537E+03;  4.0048110E-01;  1.4528717E+03;3; -4.2318188E+01;  0.0000000E+00;  3.0692849E+00;0; -2.2599618E-01;  1.0017202E+04;  0.0000000E+00;  8.8867768E-07;  1.0000000E+04;  0.0000000E+00;  9.9938096E+03; -3.9930600E-01;  0.0000000E+00;  1.7330982E-01;  2.9037031E+03;
  5.9980530E-01;  9.9999998E-03;  8.0021791E-02;1978; -1.1047625E-01;  0.0000000E+00;  1.3568372E-02;  1.0017568E+03;  4.0048096E-01;  1.4554396E+03;3; -4.2952393E+01;  0.0000000E+00;  3.8321135E+00;0; -2.3807183E-01;  1.0017464E+04;  0.0000000E+00;  5.4162510E-06;  1.0000000E+04;  0.0000000E+00;  9.9936162E+03; -4.0465841E-01;  0.0000000E+00;  1.6658658E-01;  3.0121560E+03;
  5.9980160E-01;  9.9999998E-03;  1.0002775E-01;1979; -1.1291645E-01;  0.0000000E+00;  1.6709674E-02;  1.0017650E+03;  4.0048087E-01;  1.4622540E+03;3; -4.3615707E+01;  0.0000000E+00;  4.4901590E+00;0; -2.5329444E-01;  1.0017797E+04;  0.0000000E+00;  1.3134801E-05;  1.0000000E+04;  0.0000000E+00;  9.9934453E+03; -4.1117039E-01;  0.0000000E+00;  1.5787596E-01;  3.1117727E+03;
  5.9979683E-01;  9.9999998E-03;  1.2003389E-01;1980; -1.1577997E-01;  0.0000000E+00;  1.9652905E-02;  1.0017783E+03;  4.0048078E-01;  1.4733153E+03;3; -4.4192436E+01;  0.0000000E+00;  5.0198183E+00;0; -2.7102768E-01;  1.0018209E+04;  0.0000000E+00;  1.6844662E-05;  1.0000000E+04;  0.0000000E+00;  9.9933027E+03; -4.1875124E-01;  0.0000000E+00;  1.4772354E-01;  3.1980605E+03;
  5.9979093E-01;  9.9999998E-03;  1.4004000E-01;1981; -1.1899991E-01;  0.0000000E+00;  2.2313833E-02;  1.0017947E+03;  4.0048087E-01;  1.4868455E+03;3; -4.4611988E+01;  0.0000000E+00;  5.4746132E+00;0; -2.8982553E-01;  1.0018701E+04;  0.0000000E+00;  4.3256164E-06;  1.0000000E+04;  0.0000000E+00;  9.9931396E+03; -4.2743567E-01;  0.0000000E+00;  1.3761014E-01;  3.2952319E+03;
  6.1979234E-01;  9.9999998E-03; -4.7277594E-12;2005; -1.1495562E-01;  0.0000000E+00; -1.6142687E-09;  1.0031771E+03;  4.0115681E-01;  2.6320610E+03;3; -4.3910213E+01;  0.0000000E+00; -7.7120203E-06;0; -7.5665683E-02;  1.0012962E+04;  0.0000000E+00; -5.2597930E-15;  1.0000000E+04;  0.0000000E+00;  9.9927539E+03; -3.0512729E-01;  0.0000000E+00;  2.2946161E-01;  3.3332100E+03;
  6.1979192E-01;  9.9999998E-03;  2.0006595E-02;2006; -1.1528250E-01;  0.0000000E+00;  4.5357770E-03;  1.0031753E+03;  4.0115684E-01;  2.6305796E+03;3; -4.4031624E+01;  0.0000000E+00;  1.5185286E+00;0; -7.7503294E-02;  1.0012993E+04;  0.0000000E+00; -7.6031682E-07;  1.0000000E+04;  0.0000000E+00;  9.9926836E+03; -3.0579311E-01;  0.0000000E+00;  2.2828981E-01;  3.3695688E+03;
  6.1979067E-01;  9.9999998E-03;  4.0013269E-02;2007; -1.1624388E-01;  0.0000000E+00;  8.9834891E-03;  1.0031704E+03;  4.0115690E-01;  2.6265303E+03;3; -4.4377834E+01;  0.0000000E+00;  2.9148405E+00;0; -8.2963213E-02;  1.0013091E+04;  0.0000000E+00; -2.4813778E-06;  1.0000000E+04;  0.0000000E+00;  9.9924912E+03; -3.0772874E-01;  0.0000000E+00;  2.2476552E-01;  3.4726211E+03;
  6.1978853E-01;  9.9999998E-03;  6.0020160E-02;2008; -1.1779758E-01;  0.0000000E+00;  1.3298062E-02;  1.0031641E+03;  4.0115684E-01;  2.6213948E+03;3; -4.4887291E+01;  0.0000000E+00;  4.0940361E+00;0; -9.1943949E-02;  1.0013251E+04;  0.0000000E+00; -3.2412424E-06;  1.0000000E+04;  0.0000000E+00;  9.9922031E+03; -3.1076878E-01;  0.0000000E+00;  2.1882483E-01;  3.6242952E+03;
  6.1978543E-01;  9.9999998E-03;  8.0027431E-02;2009; -1.1991356E-01;  0.0000000E+00;  1.7467724E-02;  1.0031586E+03;  4.0115678E-01;  2.6168518E+03;3; -4.5518917E+01;  0.0000000E+00;  5.0684328E+00;0; -1.0434714E-01;  1.0013469E+04;  0.0000000E+00; -5.6112310E-07;  1.0000000E+04;  0.0000000E+00;  9.9918848E+03; -3.1469521E-01;  0.0000000E+00;  2.1034807E-01;  3.7977122E+03;
  6.1978132E-01;  9.9999998E-03;  1.0003518E-01;2010; -1.2248933E-01;  0.0000000E+00;  2.1424955E-02;  1.0031568E+03;  4.0115684E-01;  2.6152717E+03;3; -4.6123657E+01;  0.0000000E+00;  5.7024002E+00;0; -1.1990280E-01;  1.0013742E+04;  0.0000000E+00;  3.3796134E-06;  1.0000000E+04;  0.0000000E+00;  9.9915762E+03; -3.1929430E-01;  0.0000000E+00;  1.9939150E-01;  3.9689407E+03;
  6.1977613E-01;  9.9999998E-03;  1.2004329E-01;2011; -1.2546811E-01;  0.0000000E+00;  2.5108239E-02;  1.0031583E+03;  4.0115675E-01;  2.6165557E+03;3; -4.6643162E+01;  0.0000000E+00;  6.1145086E+00;0; -1.3781574E-01;  1.0014071E+04;  0.0000000E+00; -4.3463656E-06;  1.0000000E+04;  0.0000000E+00;  9.9912793E+03; -3.2440719E-01;  0.0000000E+00;  1.8659145E-01;  4.1355049E+03;
  6.1976969E-01;  9.9999998E-03;  1.4005139E-01;2012; -1.2882109E-01;  0.0000000E+00;  2.8413167E-02;  1.0031593E+03;  4.0115684E-01;  2.6173459E+03;3; -4.7006905E+01;  0.0000000E+00;  6.4238458E+00;0; -1.5651305E-01;  1.0014442E+04;  0.0000000E+00; -4.0950708E-05;  1.0000000E+04;  0.0000000E+00;  9.9909326E+03; -3.2997805E-01;  0.0000000E+00;  1.7346500E-01;  4.3274004E+03;
  6.3977605E-01;  9.9999998E-03;  6.7666844E-12;2036; -1.2279503E-01;  0.0000000E+00;  6.6518067E-09;  1.0058665E+03;  4.0239635E-01;  4.8600537E+03;3; -4.6226048E+01;  0.0000000E+00;  9.2582195E-07;0;  1.2778743E-01;  1.0006424E+04;  0.0000000E+00; -7.1439089E-15;  1.0000000E+04;  0.0000000E+00;  9.9911768E+03; -1.5655826E-01;  0.0000000E+00;  2.8434569E-01;  4.0136921E+03;
  6.3977563E-01;  9.9999998E-03;  2.0007951E-02;2037; -1.2312532E-01;  0.0000000E+00;  5.6186537E-03;  1.0058625E+03;  4.0239623E-01;  4.8568931E+03;3; -4.6310326E+01;  0.0000000E+00;  1.9180999E+00;0;  1.2601571E-01;  1.0006448E+04;  0.0000000E+00; -1.8175815E-06;  1.0000000E+04;  0.0000000E+00;  9.9910781E+03; -1.5695788E-01;  0.0000000E+00;  2.8297359E-01;  4.0660073E+03;
  6.3977420E-01;  9.9999998E-03;  4.0016003E-02;2038; -1.2413152E-01;  0.0000000E+00;  1.1105545E-02;  1.0058515E+03;  4.0239626E-01;  4.8477085E+03;3; -4.6610802E+01;  0.0000000E+00;  3.6811104E+00;0;  1.2075602E-01;  1.0006513E+04;  0.0000000E+00; -6.5308295E-06;  1.0000000E+04;  0.0000000E+00;  9.9907930E+03; -1.5809335E-01;  0.0000000E+00;  2.7884936E-01;  4.2148203E+03;
  6.3977176E-01;  9.9999998E-03;  6.0024347E-02;2039; -1.2575701E-01;  0.0000000E+00;  1.6378554E-02;  1.0058354E+03;  4.0239617E-01;  4.8343760E+03;3; -4.7070770E+01;  0.0000000E+00;  5.1490507E+00;0;  1.1210398E-01;  1.0006621E+04;  0.0000000E+00; -1.1708275E-05;  1.0000000E+04;  0.0000000E+00;  9.9903701E+03; -1.5979059E-01;  0.0000000E+00;  2.7189457E-01;  4.4361108E+03;
  6.3976836E-01;  9.9999998E-03;  8.0033273E-02;2040; -1.2796269E-01;  0.0000000E+00;  2.1483025E-02;  1.0058181E+03;  4.0239626E-01;  4.8199580E+03;3; -4.7657215E+01;  0.0000000E+00;  6.3147807E+00;0;  1.0014644E-01;  1.0006764E+04;  0.0000000E+00; -1.4622325E-05;  1.0000000E+04;  0.0000000E+00;  9.9898818E+03; -1.6180763E-01;  0.0000000E+00;  2.6195407E-01;  4.6953154E+03;
  6.3976377E-01;  9.9999998E-03;  1.0004300E-01;2041; -1.3069566E-01;  0.0000000E+00;  2.6390152E-02;  1.0058012E+03;  4.0239620E-01;  4.8060327E+03;3; -4.8225574E+01;  0.0000000E+00;  7.0138588E+00;0;  8.5167512E-02;  1.0006932E+04;  0.0000000E+00; -1.9454121E-05;  1.0000000E+04;  0.0000000E+00;  9.9893809E+03; -1.6387689E-01;  0.0000000E+00;  2.4904440E-01;  4.9637339E+03;
  6.3975805E-01;  9.9999998E-03;  1.2005346E-01;2042; -1.3380222E-01;  0.0000000E+00;  3.1003470E-02;  1.0057846E+03;  4.0239605E-01;  4.7923052E+03;3; -4.8642624E+01;  0.0000000E+00;  7.2712126E+00;0;  6.7962497E-02;  1.0007119E+04;  0.0000000E+00; -4.3798293E-05;  1.0000000E+04;  0.0000000E+00;  9.9888730E+03; -1.6573600E-01;  0.0000000E+00;  2.3369850E-01;  5.2403354E+03;
  6.3975114E-01;  9.9999998E-03;  1.4006406E-01;2043; -1.3723846E-01;  0.0000000E+00;  3.5065532E-02;  1.0057640E+03;  4.0239602E-01;  4.7752197E+03;3; -4.8905239E+01;  0.0000000E+00;  7.2451119E+00;0;  5.0033420E-02;  1.0007308E+04;  0.0000000E+00; -1.0627220E-04;  1.0000000E+04;  0.0000000E+00;  9.9882852E+03; -1.6714814E-01;  0.0000000E+00;  2.1718156E-01;  5.5581909E+03;
  6.5976375E-01;  9.9999998E-03; -4.2565786E-12;2067; -1.2889679E-01;  0.0000000E+00;  6.8430395E-09;  1.0092131E+03;  4.0395585E-01;  7.6325435E+03;3; -4.8070427E+01;  0.0000000E+00;  1.1460739E-05;0;  4.0544987E-01;  9.9972158E+03;  0.0000000E+00;  5.0048365E-15;  1.0000000E+04;  0.0000000E+00;  9.9894697E+03;  6.0067054E-02;  0.0000000E+00;  3.4538281E-01;  4.7393477E+03;
  6.5976322E-01;  9.9999998E-03;  2.0009561E-02;2068; -1.2921651E-01;  0.0000000E+00;  6.9266157E-03;  1.0092064E+03;  4.0395585E-01;  7.6270132E+03;3; -4.8116093E+01;  0.0000000E+00;  2.4787357E+00;0;  4.0391412E-01;  9.9972207E+03;  0.0000000E+00; -3.0467943E-06;  1.0000000E+04;  0.0000000E+00;  9.9893311E+03;  6.0036425E-02;  0.0000000E+00;  3.4387770E-01;  4.8104819E+03;
  6.5976167E-01;  9.9999998E-03;  4.0019277E-02;2069; -1.3021973E-01;  0.0000000E+00;  1.3675772E-02;  1.0091876E+03;  4.0395585E-01;  7.6114092E+03;3; -4.8353302E+01;  0.0000000E+00;  4.6969171E+00;0;  3.9935309E-01;  9.9972393E+03;  0.0000000E+00; -1.1414198E-05;  1.0000000E+04;  0.0000000E+00;  9.9889414E+03;  6.0002420E-02;  0.0000000E+00;  3.3935067E-01;  5.0133872E+03;
  6.5975899E-01;  9.9999998E-03;  6.0029417E-02;2070; -1.3187352E-01;  0.0000000E+00;  2.0134479E-02;  1.0091592E+03;  4.0395582E-01;  7.5879048E+03;3; -4.8726089E+01;  0.0000000E+00;  6.4563446E+00;0;  3.9181900E-01;  9.9972637E+03;  0.0000000E+00; -2.2437222E-05;  1.0000000E+04;  0.0000000E+00;  9.9883535E+03;  6.0128134E-02;  0.0000000E+00;  3.3169088E-01;  5.3173691E+03;
  6.5975523E-01;  9.9999998E-03;  8.0040388E-02;2071; -1.3412033E-01;  0.0000000E+00;  2.6300354E-02;  1.0091253E+03;  4.0395582E-01;  7.5598574E+03;3; -4.9221073E+01;  0.0000000E+00;  7.6305652E+00;0;  3.8129988E-01;  9.9972881E+03;  0.0000000E+00; -3.3245353E-05;  1.0000000E+04;  0.0000000E+00;  9.9876660E+03;  6.0654245E-02;  0.0000000E+00;  3.2064563E-01;  5.6791011E+03;
  6.5975034E-01;  9.9999998E-03;  1.0005251E-01;2072; -1.3687356E-01;  0.0000000E+00;  3.2216832E-02;  1.0090892E+03;  4.0395579E-01;  7.5299336E+03;3; -4.9735497E+01;  0.0000000E+00;  8.2754679E+00;0;  3.6791354E-01;  9.9973027E+03;  0.0000000E+00; -4.8343136E-05;  1.0000000E+04;  0.0000000E+00;  9.9869375E+03;  6.1880287E-02;  0.0000000E+00;  3.0603325E-01;  6.0634995E+03;
  6.5974432E-01;  9.9999998E-03;  1.2006572E-01;2073; -1.3996910E-01;  0.0000000E+00;  3.7857570E-02;  1.0090503E+03;  4.0395579E-01;  7.4976396E+03;3; -5.0069756E+01;  0.0000000E+00;  8.3507309E+00;0;  3.5216594E-01;  9.9972939E+03;  0.0000000E+00; -8.5778127E-05;  1.0000000E+04;  0.0000000E+00;  9.9861797E+03;  6.4163379E-02;  0.0000000E+00;  2.8800255E-01;  6.4682354E+03;
  6.5973729E-01;  9.9999998E-03;  1.4007930E-01;2074; -1.4337553E-01;  0.0000000E+00;  4.2910032E-02;  1.0090040E+03;  4.0395585E-01;  7.4593213E+03;3; -5.0288010E+01;  0.0000000E+00;  7.9558835E+00;0;  3.3520505E-01;  9.9972373E+03;  0.0000000E+00; -1.6025847E-04;  1.0000000E+04;  0.0000000E+00;  9.9853164E+03;  6.7948483E-02;  0.0000000E+00;  2.6725656E-01;  6.9252422E+03;
  6.7975861E-01;  9.9999998E-03;  1.1773537E-12;2098; -1.3189535E-01;  0.0000000E+00; -7.5217166E-09;  1.0116746E+03;  4.0520176E-01;  9.6715625E+03;3; -4.9084217E+01;  0.0000000E+00;  9.7881421E-06;0;  7.4221873E-01;  9.9860986E+03;  0.0000000E+00;  5.0933298E-15;  1.0000000E+04;  0.0000000E+00;  9.9877041E+03;  3.3223921E-01;  0.0000000E+00;  4.0997952E-01;  5.4805845E+03;
  6.7975807E-01;  9.9999998E-03;  2.0011622E-02;2099; -1.3224158E-01;  0.0000000E+00;  8.8012740E-03;  1.0116646E+03;  4.0520161E-01;  9.6632666E+03;3; -4.9147774E+01;  0.0000000E+00;  3.4790335E+00;0;  7.4112231E-01;  9.9860840E+03;  0.0000000E+00; -3.7737300E-06;  1.0000000E+04;  0.0000000E+00;  9.9875254E+03;  3.3271369E-01;  0.0000000E+00;  4.0840861E-01;  5.5720068E+03;
  6.7975640E-01;  9.9999998E-03;  4.0023472E-02;2100; -1.3329065E-01;  0.0000000E+00;  1.7357206E-02;  1.0116367E+03;  4.0520164E-01;  9.6401582E+03;3; -4.9365337E+01;  0.0000000E+00;  6.5596094E+00;0;  7.3785484E-01;  9.9860371E+03;  0.0000000E+00; -1.4448620E-05;  1.0000000E+04;  0.0000000E+00;  9.9870176E+03;  3.3417848E-01;  0.0000000E+00;  4.0367639E-01;  5.8332861E+03;
  6.7975366E-01;  9.9999998E-03;  6.0035914E-02;2101; -1.3497820E-01;  0.0000000E+00;  2.5489153E-02;  1.0115939E+03;  4.0520182E-01;  9.6048027E+03;3; -4.9694134E+01;  0.0000000E+00;  8.9210386E+00;0;  7.3236084E-01;  9.9859502E+03;  0.0000000E+00; -2.9589195E-05;  1.0000000E+04;  0.0000000E+00;  9.9862559E+03;  3.3674663E-01;  0.0000000E+00;  3.9561421E-01;  6.2265391E+03;
  6.7974979E-01;  9.9999998E-03;  8.0049552E-02;2102; -1.3720825E-01;  0.0000000E+00;  3.3242978E-02;  1.0115414E+03;  4.0520182E-01;  9.5613496E+03;3; -4.9995586E+01;  0.0000000E+00;  1.0346520E+01;0;  7.2437274E-01;  9.9858203E+03;  0.0000000E+00; -4.6131143E-05;  1.0000000E+04;  0.0000000E+00;  9.9853457E+03;  3.4059662E-01;  0.0000000E+00;  3.8377616E-01;  6.6984092E+03;
  6.7974478E-01;  9.9999998E-03;  1.0006484E-01;2103; -1.3986607E-01;  0.0000000E+00;  4.0667713E-02;  1.0114835E+03;  4.0520197E-01;  9.5133535E+03;3; -5.0271976E+01;  0.0000000E+00;  1.0837463E+01;0;  7.1354550E-01;  9.9856387E+03;  0.0000000E+00; -6.6833345E-05;  1.0000000E+04;  0.0000000E+00;  9.9843779E+03;  3.4598261E-01;  0.0000000E+00;  3.6756289E-01;  7.2047773E+03;
  6.7973882E-01;  9.9999998E-03;  1.2008161E-01;2104; -1.4280996E-01;  0.0000000E+00;  4.7613818E-02;  1.0114197E+03;  4.0520206E-01;  9.4604199E+03;3; -5.0453831E+01;  0.0000000E+00;  1.0477449E+01;0;  6.9971442E-01;  9.9853857E+03;  0.0000000E+00; -1.0467933E-04;  1.0000000E+04;  0.0000000E+00;  9.9833701E+03;  3.5327861E-01;  0.0000000E+00;  3.4643584E-01;  7.7376494E+03;
  6.7973179E-01;  9.9999998E-03;  1.4009890E-01;2105; -1.4599596E-01;  0.0000000E+00;  5.3779081E-02;  1.0113465E+03;  4.0520227E-01;  9.3997842E+03;3; -5.0500874E+01;  0.0000000E+00;  9.5336313E+00;0;  6.8333042E-01;  9.9850371E+03;  0.0000000E+00; -1.6732527E-04;  1.0000000E+04;  0.0000000E+00;  9.9822646E+03;  3.6304674E-01;  0.0000000E+00;  3.2028371E-01;  8.3230918E+03;
  6.9976735E-01;  9.9999998E-03;  2.7764308E-11;2129; -1.2997152E-01;  0.0000000E+00; -2.5528875E-09;  1.0127192E+03;  4.0588400E-01;  1.0536758E+04;3; -4.9363007E+01;  0.0000000E+00; -1.8723775E-05;0;  1.0963084E+00;  9.9747969E+03;  0.0000000E+00;  7.2550481E-15;  1.0000000E+04;  0.0000000E+00;  9.9859893E+03;  6.2241018E-01;  0.0000000E+00;  4.7389817E-01;  6.1970396E+03;
  6.9976681E-01;  9.9999998E-03;  2.0013502E-02;2130; -1.3034527E-01;  0.0000000E+00;  1.0711433E-02;  1.0127063E+03;  4.0588400E-01;  1.0526092E+04;3; -4.9448666E+01;  0.0000000E+00;  4.6502752E+00;0;  1.0958321E+00;  9.9747559E+03;  0.0000000E+00; -3.4359914E-06;  1.0000000E+04;  0.0000000E+00;  9.9857686E+03;  6.2353975E-01;  0.0000000E+00;  4.7229230E-01;  6.3081074E+03;
  6.9976521E-01;  9.9999998E-03;  4.0027332E-02;2131; -1.3140495E-01;  0.0000000E+00;  2.1120783E-02;  1.0126686E+03;  4.0588418E-01;  1.0494885E+04;3; -4.9660645E+01;  0.0000000E+00;  8.7894192E+00;0;  1.0943844E+00;  9.9746289E+03;  0.0000000E+00; -1.3328260E-05;  1.0000000E+04;  0.0000000E+00;  9.9851484E+03;  6.2693554E-01;  0.0000000E+00;  4.6744892E-01;  6.6258589E+03;
  6.9976252E-01;  9.9999998E-03;  6.0042094E-02;2132; -1.3310814E-01;  0.0000000E+00;  3.1135380E-02;  1.0126108E+03;  4.0588421E-01;  1.0446989E+04;3; -4.9921158E+01;  0.0000000E+00;  1.2041677E+01;0;  1.0917363E+00;  9.9744180E+03;  0.0000000E+00; -2.7803075E-05;  1.0000000E+04;  0.0000000E+00;  9.9842129E+03;  6.3261580E-01;  0.0000000E+00;  4.5912045E-01;  7.1051118E+03;
  6.9975877E-01;  9.9999998E-03;  8.0058634E-02;2133; -1.3532920E-01;  0.0000000E+00;  4.0878460E-02;  1.0125391E+03;  4.0588439E-01;  1.0387638E+04;3; -5.0172657E+01;  0.0000000E+00;  1.4195271E+01;0;  1.0872054E+00;  9.9741143E+03;  0.0000000E+00; -4.3878757E-05;  1.0000000E+04;  0.0000000E+00;  9.9830957E+03;  6.4061904E-01;  0.0000000E+00;  4.4658640E-01;  7.6815996E+03;
  6.9975400E-01;  9.9999998E-03;  1.0007760E-01;2134; -1.3790686E-01;  0.0000000E+00;  5.0464772E-02;  1.0124589E+03;  4.0588447E-01;  1.0321176E+04;3; -5.0292519E+01;  0.0000000E+00;  1.5155551E+01;0;  1.0796936E+00;  9.9737070E+03;  0.0000000E+00; -6.1510334E-05;  1.0000000E+04;  0.0000000E+00;  9.9819072E+03;  6.5103734E-01;  0.0000000E+00;  4.2865622E-01;  8.2996289E+03;
  6.9974840E-01;  9.9999998E-03;  1.2009887E-01;2135; -1.4050800E-01;  0.0000000E+00;  5.9773628E-02;  1.0123713E+03;  4.0588477E-01;  1.0248591E+04;3; -5.0076473E+01;  0.0000000E+00;  1.4965928E+01;0;  1.0679710E+00;  9.9731885E+03;  0.0000000E+00; -8.6746390E-05;  1.0000000E+04;  0.0000000E+00;  9.9806914E+03;  6.6409409E-01;  0.0000000E+00;  4.0387684E-01;  8.9413564E+03;
  6.9974196E-01;  9.9999998E-03;  1.4012119E-01;2136; -1.4303422E-01;  0.0000000E+00;  6.8285577E-02;  1.0122736E+03;  4.0588507E-01;  1.0167710E+04;3; -4.9550346E+01;  0.0000000E+00;  1.3816731E+01;0;  1.0514203E+00;  9.9725332E+03;  0.0000000E+00; -1.2096766E-04;  1.0000000E+04;  0.0000000E+00;  9.9794063E+03;  6.8023962E-01;  0.0000000E+00;  3.7118068E-01;  9.6232422E+03;
  7.1982026E-01;  9.9999998E-03; -5.3092457E-12;2160; -1.0556853E-01;  0.0000000E+00; -6.9913355E-09;  1.0129235E+03;  4.0618280E-01;  1.0705730E+04;3; -4.3688694E+01;  0.0000000E+00;  1.1721859E-05;0;  1.4047608E+00;  9.9656416E+03;  0.0000000E+00;  6.0356747E-15;  1.0000000E+04;  0.0000000E+00;  9.9844365E+03;  8.7257308E-01;  0.0000000E+00;  5.3218770E-01;  6.8460640E+03;
  7.1981978E-01;  9.9999998E-03;  2.0015303E-02;2161; -1.0595910E-01;  0.0000000E+00;  1.2439161E-02;  1.0129075E+03;  4.0618286E-01;  1.0692498E+04;3; -4.3859974E+01;  0.0000000E+00;  5.7315850E+00;0;  1.4049678E+00;  9.9655762E+03;  0.0000000E+00; -2.2045647E-06;  1.0000000E+04;  0.0000000E+00;  9.9841846E+03;  8.7445462E-01;  0.0000000E+00;  5.3051317E-01;  6.9738462E+03;
  7.1981835E-01;  9.9999998E-03;  4.0031001E-02;2162; -1.0710511E-01;  0.0000000E+00;  2.4566207E-02;  1.0128612E+03;  4.0618289E-01;  1.0654183E+04;3; -4.4341442E+01;  0.0000000E+00;  1.0928588E+01;0;  1.4055221E+00;  9.9653760E+03;  0.0000000E+00; -8.6268183E-06;  1.0000000E+04;  0.0000000E+00;  9.9834697E+03;  8.8006651E-01;  0.0000000E+00;  5.2545565E-01;  7.3394727E+03;
  7.1981591E-01;  9.9999998E-03;  6.0047828E-02;2163; -1.0893527E-01;  0.0000000E+00;  3.6320191E-02;  1.0127899E+03;  4.0618303E-01;  1.0595128E+04;3; -4.5032291E+01;  0.0000000E+00;  1.5187127E+01;0;  1.4059976E+00;  9.9650391E+03;  0.0000000E+00; -1.8067896E-05;  1.0000000E+04;  0.0000000E+00;  9.9823896E+03;  8.8931006E-01;  0.0000000E+00;  5.1668757E-01;  7.8908896E+03;
  7.1981251E-01;  9.9999998E-03;  8.0066822E-02;2164; -1.1136007E-01;  0.0000000E+00;  4.7927897E-02;  1.0127007E+03;  4.0618333E-01;  1.0521262E+04;3; -4.5815983E+01;  0.0000000E+00;  1.8317656E+01;0;  1.4052359E+00;  9.9645625E+03;  0.0000000E+00; -2.7984555E-05;  1.0000000E+04;  0.0000000E+00;  9.9811035E+03;  9.0204436E-01;  0.0000000E+00;  5.0319153E-01;  8.5529512E+03;
  7.1980798E-01;  9.9999998E-03;  1.0008880E-01;2165; -1.1429325E-01;  0.0000000E+00;  5.9675213E-02;  1.0126008E+03;  4.0618348E-01;  1.0438408E+04;3; -4.6572704E+01;  0.0000000E+00;  2.0346537E+01;0;  1.4012601E+00;  9.9639346E+03;  0.0000000E+00; -3.6531546E-05;  1.0000000E+04;  0.0000000E+00;  9.9797461E+03;  9.1811579E-01;  0.0000000E+00;  4.8314431E-01;  9.2572559E+03;
  7.1980226E-01;  9.9999998E-03;  1.2011375E-01;2166; -1.1762966E-01;  0.0000000E+00;  7.1581349E-02;  1.0124930E+03;  4.0618384E-01;  1.0349137E+04;3; -4.7114521E+01;  0.0000000E+00;  2.1402428E+01;0;  1.3915801E+00;  9.9631563E+03;  0.0000000E+00; -4.4947104E-05;  1.0000000E+04;  0.0000000E+00;  9.9783867E+03;  9.3741953E-01;  0.0000000E+00;  4.5416063E-01;  9.9739805E+03;
  7.1979541E-01;  9.9999998E-03;  1.4014034E-01;2167; -1.2120157E-01;  0.0000000E+00;  8.3077252E-02;  1.0123763E+03;  4.0618432E-01;  1.0252458E+04;3; -4.7255592E+01;  0.0000000E+00;  2.1596497E+01;0;  1.3742672E+00;  9.9622139E+03;  0.0000000E+00; -5.2606181E-05;  1.0000000E+04;  0.0000000E+00;  9.9770156E+03;  9.5997608E-01;  0.0000000E+00;  4.1429114E-01;  1.0709071E+04;
  7.3988849E-01;  9.9999998E-03;  2.8033333E-11;2191; -6.7005910E-02;  0.0000000E+00;  1.9148063E-08;  1.0128895E+03;  4.0630040E-01;  1.0677191E+04;3; -2.9049774E+01;  0.0000000E+00; -1.9393628E-06;0;  1.6100543E+00;  9.9604619E+03;  0.0000000E+00; -9.7237735E-17;  1.0000000E+04;  0.0000000E+00;  9.9831572E+03;  1.0297198E+00;  0.0000000E+00;  5.8033442E-01;  7.3887568E+03;
  7.3988813E-01;  9.9999998E-03;  2.0016586E-02;2192; -6.7299083E-02;  0.0000000E+00;  1.3523987E-02;  1.0128712E+03;  4.0630054E-01;  1.0661984E+04;3; -2.9172302E+01;  0.0000000E+00;  6.2623830E+00;0;  1.6108048E+00;  9.9603750E+03;  0.0000000E+00; -8.7610721E-07;  1.0000000E+04;  0.0000000E+00;  9.9828799E+03;  1.0323037E+00;  0.0000000E+00;  5.7850116E-01;  7.5287046E+03;
  7.3988700E-01;  9.9999998E-03;  4.0033560E-02;2193; -6.8154797E-02;  0.0000000E+00;  2.6671454E-02;  1.0128183E+03;  4.0630057E-01;  1.0618239E+04;3; -2.9515619E+01;  0.0000000E+00;  1.1916929E+01;0;  1.6129522E+00;  9.9601143E+03;  0.0000000E+00; -3.4483974E-06;  1.0000000E+04;  0.0000000E+00;  9.9820967E+03;  1.0399855E+00;  0.0000000E+00;  5.7296675E-01;  7.9289668E+03;
  7.3988521E-01;  9.9999998E-03;  6.0051683E-02;2194; -6.9510669E-02;  0.0000000E+00;  3.9340489E-02;  1.0127368E+03;  4.0630075E-01;  1.0550695E+04;3; -3.0011921E+01;  0.0000000E+00;  1.6504345E+01;0;  1.6159036E+00;  9.9596777E+03;  0.0000000E+00; -7.0507276E-06;  1.0000000E+04;  0.0000000E+00;  9.9809170E+03;  1.0525615E+00;  0.0000000E+00;  5.6334203E-01;  8.5316328E+03;
  7.3988271E-01;  9.9999998E-03;  8.0072030E-02;2195; -7.1285926E-02;  0.0000000E+00;  5.1745068E-02;  1.0126347E+03;  4.0630102E-01;  1.0466166E+04;3; -3.0563314E+01;  0.0000000E+00;  1.9798166E+01;0;  1.6180859E+00;  9.9590557E+03;  0.0000000E+00; -9.9141989E-06;  1.0000000E+04;  0.0000000E+00;  9.9795146E+03;  1.0697194E+00;  0.0000000E+00;  5.4836637E-01;  9.2518857E+03;
  7.3987937E-01;  9.9999998E-03;  1.0009547E-01;2196; -7.3399246E-02;  0.0000000E+00;  6.4168192E-02;  1.0125207E+03;  4.0630138E-01;  1.0371664E+04;3; -3.1060936E+01;  0.0000000E+00;  2.1805187E+01;0;  1.6167431E+00;  9.9582529E+03;  0.0000000E+00; -1.0053230E-05;  1.0000000E+04;  0.0000000E+00;  9.9780586E+03;  1.0910492E+00;  0.0000000E+00;  5.2569395E-01;  1.0009409E+04;
  7.3987526E-01;  9.9999998E-03;  1.2012194E-01;2197; -7.5771168E-02;  0.0000000E+00;  7.6625198E-02;  1.0123989E+03;  4.0630171E-01;  1.0270842E+04;3; -3.1402826E+01;  0.0000000E+00;  2.2707676E+01;0;  1.6082571E+00;  9.9572637E+03;  0.0000000E+00; -7.0618198E-06;  1.0000000E+04;  0.0000000E+00;  9.9766396E+03;  1.1160421E+00;  0.0000000E+00;  4.9221498E-01;  1.0763050E+04;
  7.3987037E-01;  9.9999998E-03;  1.4015001E-01;2198; -7.8305788E-02;  0.0000000E+00;  8.8545270E-02;  1.0122707E+03;  4.0630203E-01;  1.0164588E+04;3; -3.1507332E+01;  0.0000000E+00;  2.2698181E+01;0;  1.5894918E+00;  9.9560957E+03;  0.0000000E+00; -1.4041453E-06;  1.0000000E+04;  0.0000000E+00;  9.9752598E+03;  1.1440761E+00;  0.0000000E+00;  4.4541574E-01;  1.1510419E+04;
  7.5994039E-01;  9.9999998E-03;  5.5538612E-11;2222; -3.7598148E-02;  0.0000000E+00;  3.4595978E-08;  1.0128995E+03;  4.0634474E-01;  1.0684954E+04;3; -1.7753189E+01;  0.0000000E+00;  3.1820382E-06;0;  1.6964650E+00;  9.9594326E+03;  0.0000000E+00; -2.4453288E-15;  1.0000000E+04;  0.0000000E+00;  9.9822139E+03;  1.0808599E+00;  0.0000000E+00;  6.1560512E-01;  7.7968877E+03;
  7.5994015E-01;  9.9999998E-03;  2.0017495E-02;2223; -3.7788726E-02;  0.0000000E+00;  1.4281949E-02;  1.0128798E+03;  4.0634498E-01;  1.0668662E+04;3; -1.7826181E+01;  0.0000000E+00;  6.6160116E+00;0;  1.6974581E+00;  9.9593350E+03;  0.0000000E+00; -8.0141476E-08;  1.0000000E+04;  0.0000000E+00;  9.9819258E+03;  1.0839372E+00;  0.0000000E+00;  6.1352098E-01;  7.9440444E+03;
  7.5993943E-01;  9.9999998E-03;  4.0035356E-02;2224; -3.8339972E-02;  0.0000000E+00;  2.8127698E-02;  1.0128231E+03;  4.0634504E-01;  1.0621660E+04;3; -1.8026926E+01;  0.0000000E+00;  1.2564567E+01;0;  1.7003143E+00;  9.9590352E+03;  0.0000000E+00; -3.0852280E-07;  1.0000000E+04;  0.0000000E+00;  9.9811025E+03;  1.0930690E+00;  0.0000000E+00;  6.0724533E-01;  8.3646299E+03;
  7.5993824E-01;  9.9999998E-03;  6.0054347E-02;2225; -3.9197665E-02;  0.0000000E+00;  4.1393511E-02;  1.0127355E+03;  4.0634516E-01;  1.0549083E+04;3; -1.8304945E+01;  0.0000000E+00;  1.7337471E+01;0;  1.7043507E+00;  9.9585352E+03;  0.0000000E+00; -4.1934442E-07;  1.0000000E+04;  0.0000000E+00;  9.9798662E+03;  1.1079749E+00;  0.0000000E+00;  5.9637576E-01;  8.9964502E+03;
  7.5993663E-01;  9.9999998E-03;  8.0075569E-02;2226; -4.0291477E-02;  0.0000000E+00;  5.4275718E-02;  1.0126261E+03;  4.0634549E-01;  1.0458437E+04;3; -1.8589048E+01;  0.0000000E+00;  2.0677231E+01;0;  1.7077191E+00;  9.9578262E+03;  0.0000000E+00;  5.1415685E-07;  1.0000000E+04;  0.0000000E+00;  9.9784082E+03;  1.1282071E+00;  0.0000000E+00;  5.7951206E-01;  9.7472422E+03;
  7.5993460E-01;  9.9999998E-03;  1.0009991E-01;2227; -4.1551426E-02;  0.0000000E+00;  6.7050941E-02;  1.0125046E+03;  4.0634573E-01;  1.0357816E+04;3; -1.8802094E+01;  0.0000000E+00;  2.2579975E+01;0;  1.7071273E+00;  9.9569121E+03;  0.0000000E+00;  3.6875638E-06;  1.0000000E+04;  0.0000000E+00;  9.9769131E+03;  1.1531311E+00;  0.0000000E+00;  5.5399615E-01;  1.0527287E+04;
  7.5993210E-01;  9.9999998E-03;  1.2012727E-01;2228; -4.2910893E-02;  0.0000000E+00;  7.9713292E-02;  1.0123765E+03;  4.0634617E-01;  1.0251766E+04;3; -1.8874989E+01;  0.0000000E+00;  2.3233530E+01;0;  1.6981685E+00;  9.9557949E+03;  0.0000000E+00;  9.3805947E-06;  1.0000000E+04;  0.0000000E+00;  9.9754902E+03;  1.1818547E+00;  0.0000000E+00;  5.1631373E-01;  1.1286739E+04;
  7.5992918E-01;  9.9999998E-03;  1.4015608E-01;2229; -4.4290621E-02;  0.0000000E+00;  9.1639027E-02;  1.0122443E+03;  4.0634659E-01;  1.0142260E+04;3; -1.8753748E+01;  0.0000000E+00;  2.2848082E+01;0;  1.6768816E+00;  9.9545068E+03;  0.0000000E+00;  1.6288952E-05;  1.0000000E+04;  0.0000000E+00;  9.9741582E+03;  1.2131106E+00;  0.0000000E+00;  4.6377102E-01;  1.2018636E+04;
  7.7997804E-01;  9.9999998E-03; -6.3075036E-12;2253; -1.5954163E-02;  0.0000000E+00; -3.7319384E-12;  1.0130046E+03;  4.0636104E-01;  1.0771321E+04;3; -9.1210918E+00;  0.0000000E+00; -2.7858070E-05;0;  1.6902664E+00;  9.9613057E+03;  0.0000000E+00; -4.8069831E-15;  1.0000000E+04;  0.0000000E+00;  9.9816279E+03;  1.0529534E+00;  0.0000000E+00;  6.3731295E-01;  8.0560908E+03;
  7.7997792E-01;  9.9999998E-03;  2.0018028E-02;2254; -1.6047264E-02;  0.0000000E+00;  1.4716908E-02;  1.0129847E+03;  4.0636110E-01;  1.0754733E+04;3; -9.1500874E+00;  0.0000000E+00;  6.8003659E+00;0;  1.6911819E+00;  9.9612031E+03;  0.0000000E+00;  1.3295416E-07;  1.0000000E+04;  0.0000000E+00;  9.9813350E+03;  1.0562483E+00;  0.0000000E+00;  6.3493359E-01;  8.2060869E+03;
  7.7997756E-01;  9.9999998E-03;  4.0036399E-02;2255; -1.6311329E-02;  0.0000000E+00;  2.8949343E-02;  1.0129267E+03;  4.0636125E-01;  1.0706748E+04;3; -9.2259264E+00;  0.0000000E+00;  1.2892424E+01;0;  1.6938276E+00;  9.9608906E+03;  0.0000000E+00;  5.1728006E-07;  1.0000000E+04;  0.0000000E+00;  9.9804961E+03;  1.0660256E+00;  0.0000000E+00;  6.2780201E-01;  8.6345195E+03;
  7.7997702E-01;  9.9999998E-03;  6.0055852E-02;2256; -1.6706012E-02;  0.0000000E+00;  4.2519521E-02;  1.0128369E+03;  4.0636137E-01;  1.0632399E+04;3; -9.3178244E+00;  0.0000000E+00;  1.7734707E+01;0;  1.6975120E+00;  9.9603701E+03;  0.0000000E+00;  1.2208097E-06;  1.0000000E+04;  0.0000000E+00;  9.9792412E+03;  1.0819579E+00;  0.0000000E+00;  6.1555409E-01;  9.2767500E+03;
  7.7997625E-01;  9.9999998E-03;  8.0077514E-02;2257; -1.7179152E-02;  0.0000000E+00;  5.5610038E-02;  1.0127255E+03;  4.0636161E-01;  1.0540080E+04;3; -9.3839693E+00;  0.0000000E+00;  2.1050802E+01;0;  1.7003028E+00;  9.9596348E+03;  0.0000000E+00;  2.5229604E-06;  1.0000000E+04;  0.0000000E+00;  9.9777705E+03;  1.1035230E+00;  0.0000000E+00;  5.9677988E-01;  1.0035949E+04;
  7.7997535E-01;  9.9999998E-03;  1.0010228E-01;2258; -1.7680746E-02;  0.0000000E+00;  6.8495937E-02;  1.0126024E+03;  4.0636200E-01;  1.0438184E+04;3; -9.3820810E+00;  0.0000000E+00;  2.2833042E+01;0;  1.6986851E+00;  9.9586846E+03;  0.0000000E+00;  4.8290522E-06;  1.0000000E+04;  0.0000000E+00;  9.9762803E+03;  1.1299525E+00;  0.0000000E+00;  5.6873250E-01;  1.0816427E+04;
  7.7997434E-01;  9.9999998E-03;  1.2013002E-01;2259; -1.8168399E-02;  0.0000000E+00;  8.1161164E-02;  1.0124741E+03;  4.0636230E-01;  1.0331942E+04;3; -9.2789717E+00;  0.0000000E+00;  2.3275721E+01;0;  1.6878920E+00;  9.9575283E+03;  0.0000000E+00;  8.1727203E-06;  1.0000000E+04;  0.0000000E+00;  9.9748916E+03;  1.1600912E+00;  0.0000000E+00;  5.2780074E-01;  1.1563170E+04;
  7.7997315E-01;  9.9999998E-03;  1.4015909E-01;2260; -1.8597126E-02;  0.0000000E+00;  9.2946395E-02;  1.0123439E+03;  4.0636277E-01;  1.0224022E+04;3; -9.0530930E+00;  0.0000000E+00;  2.2601545E+01;0;  1.6636126E+00;  9.9562148E+03;  0.0000000E+00;  1.1525643E-05;  1.0000000E+04;  0.0000000E+00;  9.9736211E+03;  1.1922104E+00;  0.0000000E+00;  4.7140217E-01;  1.2268140E+04;
  8.0000800E-01;  9.9999998E-03; -6.7565328E-11;2284;  1.7318933E-03;  0.0000000E+00; -3.4837122E-08;  1.0131649E+03;  4.0636563E-01;  1.0903034E+04;3; -1.6575419E+00;  0.0000000E+00; -1.2472388E-05;0;  1.6316338E+00;  9.9644668E+03;  0.0000000E+00; -9.6443815E-15;  1.0000000E+04;  0.0000000E+00;  9.9813818E+03;  9.8539531E-01;  0.0000000E+00;  6.4623839E-01;  8.1653032E+03;
  8.0000794E-01;  9.9999998E-03;  2.0018214E-02;2285;  1.7264599E-03;  0.0000000E+00;  1.4857191E-02;  1.0131448E+03;  4.0636566E-01;  1.0886350E+04;3; -1.6503273E+00;  0.0000000E+00;  6.8383307E+00;0;  1.6322560E+00;  9.9643672E+03;  0.0000000E+00;  5.2856912E-08;  1.0000000E+04;  0.0000000E+00;  9.9810908E+03;  9.8866504E-01;  0.0000000E+00;  6.4359105E-01;  8.3148408E+03;
  8.0000794E-01;  9.9999998E-03;  4.0036742E-02;2286;  1.7189962E-03;  0.0000000E+00;  2.9197389E-02;  1.0130873E+03;  4.0636587E-01;  1.0838861E+04;3; -1.6243352E+00;  0.0000000E+00;  1.2946941E+01;0;  1.6340582E+00;  9.9640625E+03;  0.0000000E+00;  2.0248964E-07;  1.0000000E+04;  0.0000000E+00;  9.9802568E+03;  9.9836463E-01;  0.0000000E+00;  6.3569361E-01;  8.7418047E+03;
  8.0000794E-01;  9.9999998E-03;  6.0056310E-02;2287;  1.7334250E-03;  0.0000000E+00;  4.2819899E-02;  1.0129987E+03;  4.0636611E-01;  1.0765407E+04;3; -1.5680822E+00;  0.0000000E+00;  1.7768421E+01;0;  1.6364388E+00;  9.9635518E+03;  0.0000000E+00;  4.4267145E-07;  1.0000000E+04;  0.0000000E+00;  9.9790127E+03;  1.0141721E+00;  0.0000000E+00;  6.2226677E-01;  9.3809219E+03;
  8.0000794E-01;  9.9999998E-03;  8.0078036E-02;2288;  1.8007051E-03;  0.0000000E+00;  5.5899516E-02;  1.0128890E+03;  4.0636635E-01;  1.0674577E+04;3; -1.4676778E+00;  0.0000000E+00;  2.1019640E+01;0;  1.6375532E+00;  9.9628340E+03;  0.0000000E+00;  7.9174390E-07;  1.0000000E+04;  0.0000000E+00;  9.9775566E+03;  1.0355618E+00;  0.0000000E+00;  6.0199147E-01;  1.0133693E+04;
  8.0000806E-01;  9.9999998E-03;  1.0010283E-01;2289;  1.9483505E-03;  0.0000000E+00;  6.8716250E-02;  1.0127683E+03;  4.0636659E-01;  1.0574566E+04;3; -1.3131843E+00;  0.0000000E+00;  2.2696146E+01;0;  1.6339535E+00;  9.9619053E+03;  0.0000000E+00;  1.2856452E-06;  1.0000000E+04;  0.0000000E+00;  9.9760938E+03;  1.0617409E+00;  0.0000000E+00;  5.7221258E-01;  1.0902018E+04;
  8.0000830E-01;  9.9999998E-03;  1.2013055E-01;2290;  2.1932325E-03;  0.0000000E+00;  8.1258439E-02;  1.0126438E+03;  4.0636694E-01;  1.0471494E+04;3; -1.1031389E+00;  0.0000000E+00;  2.3001163E+01;0;  1.6209122E+00;  9.9607822E+03;  0.0000000E+00;  1.8718753E-06;  1.0000000E+04;  0.0000000E+00;  9.9747471E+03;  1.0914805E+00;  0.0000000E+00;  5.2943170E-01;  1.1629002E+04;
  8.0000865E-01;  9.9999998E-03;  1.4015952E-01;2291;  2.5438545E-03;  0.0000000E+00;  9.2856683E-02;  1.0125184E+03;  4.0636739E-01;  1.0367632E+04;3; -8.4503186E-01;  0.0000000E+00;  2.2166916E+01;0;  1.5941864E+00;  9.9595098E+03;  0.0000000E+00;  2.2628503E-06;  1.0000000E+04;  0.0000000E+00;  9.9735322E+03;  1.1228647E+00;  0.0000000E+00;  4.7132173E-01;  1.2307801E+04;
  8.2003641E-01;  9.9999998E-03;  1.6245954E-11;2315;  1.8897258E-02;  0.0000000E+00;  4.7923034E-09;  1.0133190E+03;  4.0635780E-01;  1.1029339E+04;3;  5.8483176E+00;  0.0000000E+00; -1.8127903E-05;0;  1.5502820E+00;  9.9678154E+03;  0.0000000E+00; -4.0887526E-15;  1.0000000E+04;  0.0000000E+00;  9.9814482E+03;  9.0637618E-01;  0.0000000E+00;  6.4390582E-01;  8.1337661E+03;
  8.2003647E-01;  9.9999998E-03;  2.0018095E-02;2316;  1.8968295E-02;  0.0000000E+00;  1.4743157E-02;  1.0132996E+03;  4.0635791E-01;  1.1013248E+04;3;  5.8842854E+00;  0.0000000E+00;  6.7587290E+00;0;  1.5505338E+00;  9.9677197E+03;  0.0000000E+00; -4.8268607E-08;  1.0000000E+04;  0.0000000E+00;  9.9811611E+03;  9.0945476E-01;  0.0000000E+00;  6.4107901E-01;  8.2806182E+03;
  8.2003677E-01;  9.9999998E-03;  4.0036473E-02;2317;  1.9184163E-02;  0.0000000E+00;  2.8953929E-02;  1.0132440E+03;  4.0635803E-01;  1.0967246E+04;3;  5.9905858E+00;  0.0000000E+00;  1.2784891E+01;0;  1.5512798E+00;  9.9674346E+03;  0.0000000E+00; -1.8508165E-07;  1.0000000E+04;  0.0000000E+00;  9.9803428E+03;  9.1859537E-01;  0.0000000E+00;  6.3268441E-01;  8.6998770E+03;
  8.2003725E-01;  9.9999998E-03;  6.0055848E-02;2318;  1.9552739E-02;  0.0000000E+00;  4.2420540E-02;  1.0131581E+03;  4.0635824E-01;  1.0896072E+04;3;  6.1619053E+00;  0.0000000E+00;  1.7520414E+01;0;  1.5520653E+00;  9.9669531E+03;  0.0000000E+00; -3.8787033E-07;  1.0000000E+04;  0.0000000E+00;  9.9791201E+03;  9.3351895E-01;  0.0000000E+00;  6.1854631E-01;  9.3271260E+03;
  8.2003796E-01;  9.9999998E-03;  8.0077328E-02;2319;  2.0085068E-02;  0.0000000E+00;  5.5315562E-02;  1.0130521E+03;  4.0635845E-01;  1.0808313E+04;3;  6.3886523E+00;  0.0000000E+00;  2.0685860E+01;0;  1.5512561E+00;  9.9662764E+03;  0.0000000E+00; -6.5237634E-07;  1.0000000E+04;  0.0000000E+00;  9.9776973E+03;  9.5376176E-01;  0.0000000E+00;  5.9749430E-01;  1.0064709E+04;
  8.2003897E-01;  9.9999998E-03;  1.0010182E-01;2320;  2.0789385E-02;  0.0000000E+00;  6.7928538E-02;  1.0129359E+03;  4.0635872E-01;  1.0712065E+04;3;  6.6556115E+00;  0.0000000E+00;  2.2285389E+01;0;  1.5456696E+00;  9.9654023E+03;  0.0000000E+00; -1.0224333E-06;  1.0000000E+04;  0.0000000E+00;  9.9762705E+03;  9.7861695E-01;  0.0000000E+00;  5.6705254E-01;  1.0815021E+04;
  8.2004029E-01;  9.9999998E-03;  1.2012921E-01;2321;  2.1663262E-02;  0.0000000E+00;  8.0264054E-02;  1.0128168E+03;  4.0635914E-01;  1.0613447E+04;3;  6.9405036E+00;  0.0000000E+00;  2.2532280E+01;0;  1.5308825E+00;  9.9643447E+03;  0.0000000E+00; -1.6065674E-06;  1.0000000E+04;  0.0000000E+00;  9.9749619E+03;  1.0069472E+00;  0.0000000E+00;  5.2393532E-01;  1.1521660E+04;
  8.2004195E-01;  9.9999998E-03;  1.4015782E-01;2322;  2.2689633E-02;  0.0000000E+00;  9.1665536E-02;  1.0126971E+03;  4.0635958E-01;  1.0514337E+04;3;  7.2163024E+00;  0.0000000E+00;  2.1665754E+01;0;  1.5029993E+00;  9.9631455E+03;  0.0000000E+00; -2.4625954E-06;  1.0000000E+04;  0.0000000E+00;  9.9737891E+03;  1.0369155E+00;  0.0000000E+00;  4.6608377E-01;  1.2179896E+04;
  8.4006619E-01;  9.9999998E-03;  6.1210259E-11;2346;  3.7006516E-02;  0.0000000E+00;  4.4196092E-08;  1.0132450E+03;  4.0625480E-01;  1.0966223E+04;3;  1.3792122E+01;  0.0000000E+00; -1.2130185E-05;0;  1.4554138E+00;  9.9710791E+03;  0.0000000E+00;  1.5447824E-14;  1.0000000E+04;  0.0000000E+00;  9.9817813E+03;  8.2344091E-01;  0.0000000E+00;  6.3197297E-01;  7.9770684E+03;
  8.4006637E-01;  9.9999998E-03;  2.0017710E-02;2347;  3.7143845E-02;  0.0000000E+00;  1.4416425E-02;  1.0132264E+03;  4.0625489E-01;  1.0950824E+04;3;  1.3851048E+01;  0.0000000E+00;  6.5890570E+00;0;  1.4553409E+00;  9.9709912E+03;  0.0000000E+00; -8.4133383E-08;  1.0000000E+04;  0.0000000E+00;  9.9815059E+03;  8.2624918E-01;  0.0000000E+00;  6.2909168E-01;  8.1197236E+03;
  8.4006691E-01;  9.9999998E-03;  4.0035684E-02;2348;  3.7553377E-02;  0.0000000E+00;  2.8301017E-02;  1.0131730E+03;  4.0625504E-01;  1.0906606E+04;3;  1.4021508E+01;  0.0000000E+00;  1.2458138E+01;0;  1.4551680E+00;  9.9707305E+03;  0.0000000E+00; -3.0701179E-07;  1.0000000E+04;  0.0000000E+00;  9.9807080E+03;  8.3460039E-01;  0.0000000E+00;  6.2056762E-01;  8.5271240E+03;
  8.4006780E-01;  9.9999998E-03;  6.0054611E-02;2349;  3.8229451E-02;  0.0000000E+00;  4.1441362E-02;  1.0130908E+03;  4.0625519E-01;  1.0838504E+04;3;  1.4284980E+01;  0.0000000E+00;  1.7061060E+01;0;  1.4545994E+00;  9.9702881E+03;  0.0000000E+00; -5.6518292E-07;  1.0000000E+04;  0.0000000E+00;  9.9795176E+03;  8.4827822E-01;  0.0000000E+00;  6.0632116E-01;  9.1368291E+03;
  8.4006912E-01;  9.9999998E-03;  8.0075577E-02;2350;  3.9166957E-02;  0.0000000E+00;  5.4011609E-02;  1.0129893E+03;  4.0625551E-01;  1.0754511E+04;3;  1.4614323E+01;  0.0000000E+00;  2.0129530E+01;0;  1.4522636E+00;  9.9696641E+03;  0.0000000E+00; -7.7447095E-07;  1.0000000E+04;  0.0000000E+00;  9.9781328E+03;  8.6692971E-01;  0.0000000E+00;  5.8533394E-01;  9.8538740E+03;
  8.4007090E-01;  9.9999998E-03;  1.0009950E-01;2351;  4.0361110E-02;  0.0000000E+00;  6.6311561E-02;  1.0128785E+03;  4.0625572E-01;  1.0662818E+04;3;  1.4976555E+01;  0.0000000E+00;  2.1678778E+01;0;  1.4453262E+00;  9.9688545E+03;  0.0000000E+00; -9.8836654E-07;  1.0000000E+04;  0.0000000E+00;  9.9767441E+03;  8.9000392E-01;  0.0000000E+00;  5.5532229E-01;  1.0583146E+04;
  8.4007329E-01;  9.9999998E-03;  1.2012628E-01;2352;  4.1800372E-02;  0.0000000E+00;  7.8367256E-02;  1.0127648E+03;  4.0625614E-01;  1.0568659E+04;3;  1.5335669E+01;  0.0000000E+00;  2.1930717E+01;0;  1.4297893E+00;  9.9678740E+03;  0.0000000E+00; -1.5194364E-06;  1.0000000E+04;  0.0000000E+00;  9.9754717E+03;  9.1657823E-01;  0.0000000E+00;  5.1321113E-01;  1.1269963E+04;
  8.4007615E-01;  9.9999998E-03;  1.4015429E-01;2353;  4.3457218E-02;  0.0000000E+00;  8.9549839E-02;  1.0126506E+03;  4.0625647E-01;  1.0474104E+04;3;  1.5656286E+01;  0.0000000E+00;  2.1127756E+01;0;  1.4022470E+00;  9.9667529E+03;  0.0000000E+00; -2.5433890E-06;  1.0000000E+04;  0.0000000E+00;  9.9743193E+03;  9.4509774E-01;  0.0000000E+00;  4.5714918E-01;  1.1911582E+04;
  8.6009687E-01;  9.9999998E-03;  3.5139322E-11;2377;  5.5588979E-02;  0.0000000E+00;  1.9014108E-08;  1.0129480E+03;  4.0605250E-01;  1.0717967E+04;3;  2.1867458E+01;  0.0000000E+00; -6.9109956E-07;0;  1.3401538E+00;  9.9746211E+03;  0.0000000E+00;  7.2602667E-15;  1.0000000E+04;  0.0000000E+00;  9.9823467E+03;  7.2819769E-01;  0.0000000E+00;  6.1195612E-01;  7.7138618E+03;
  8.6009711E-01;  9.9999998E-03;  2.0017093E-02;2378;  5.5784069E-02;  0.0000000E+00;  1.3908966E-02;  1.0129303E+03;  4.0605244E-01;  1.0703264E+04;3;  2.1945568E+01;  0.0000000E+00;  6.3480296E+00;0;  1.3398571E+00;  9.9745410E+03;  0.0000000E+00; -9.7177264E-08;  1.0000000E+04;  0.0000000E+00;  9.9820771E+03;  7.3071039E-01;  0.0000000E+00;  6.0914665E-01;  7.8511211E+03;
  8.6009789E-01;  9.9999998E-03;  4.0034436E-02;2379;  5.6362610E-02;  0.0000000E+00;  2.7300186E-02;  1.0128795E+03;  4.0605253E-01;  1.0661228E+04;3;  2.2169991E+01;  0.0000000E+00;  1.2000937E+01;0;  1.3390572E+00;  9.9743027E+03;  0.0000000E+00; -3.3105553E-07;  1.0000000E+04;  0.0000000E+00;  9.9813086E+03;  7.3819643E-01;  0.0000000E+00;  6.0086083E-01;  8.2433574E+03;
  8.6009914E-01;  9.9999998E-03;  6.0052693E-02;2380;  5.7308506E-02;  0.0000000E+00;  3.9968830E-02;  1.0128011E+03;  4.0605271E-01;  1.0596396E+04;3;  2.2512703E+01;  0.0000000E+00;  1.6433533E+01;0;  1.3376062E+00;  9.9739004E+03;  0.0000000E+00; -5.1626256E-07;  1.0000000E+04;  0.0000000E+00;  9.9801572E+03;  7.5051087E-01;  0.0000000E+00;  5.8709532E-01;  8.8309951E+03;
  8.6010098E-01;  9.9999998E-03;  8.0072924E-02;2381;  5.8605403E-02;  0.0000000E+00;  5.2092031E-02;  1.0127048E+03;  4.0605289E-01;  1.0516565E+04;3;  2.2933987E+01;  0.0000000E+00;  1.9393494E+01;0;  1.3343750E+00;  9.9733330E+03;  0.0000000E+00; -4.6085358E-07;  1.0000000E+04;  0.0000000E+00;  9.9788164E+03;  7.6742566E-01;  0.0000000E+00;  5.6694937E-01;  9.5230059E+03;
  8.6010349E-01;  9.9999998E-03;  1.0009602E-01;2382;  6.0241438E-02;  0.0000000E+00;  6.3977137E-02;  1.0125993E+03;  4.0605322E-01;  1.0429334E+04;3;  2.3389791E+01;  0.0000000E+00;  2.0906790E+01;0;  1.3268778E+00;  9.9725898E+03;  0.0000000E+00; -2.8702985E-07;  1.0000000E+04;  0.0000000E+00;  9.9774678E+03;  7.8858662E-01;  0.0000000E+00;  5.3829128E-01;  1.0227862E+04;
  8.6010677E-01;  9.9999998E-03;  1.2012193E-01;2383;  6.2204447E-02;  0.0000000E+00;  7.5669937E-02;  1.0124913E+03;  4.0605348E-01;  1.0339833E+04;3;  2.3838034E+01;  0.0000000E+00;  2.1199949E+01;0;  1.3115705E+00;  9.9716816E+03;  0.0000000E+00; -5.6731267E-07;  1.0000000E+04;  0.0000000E+00;  9.9762275E+03;  8.1336170E-01;  0.0000000E+00;  4.9820882E-01;  1.0893028E+04;
  8.6011076E-01;  9.9999998E-03;  1.4014909E-01;2384;  6.4470269E-02;  0.0000000E+00;  8.6575642E-02;  1.0123814E+03;  4.0605378E-01;  1.0248950E+04;3;  2.4243763E+01;  0.0000000E+00;  2.0513811E+01;0;  1.2855897E+00;  9.9706348E+03;  0.0000000E+00; -1.6700277E-06;  1.0000000E+04;  0.0000000E+00;  9.9751025E+03;  8.4061617E-01;  0.0000000E+00;  4.4497350E-01;  1.1517118E+04;
  8.8012612E-01;  9.9999998E-03; -5.5894560E-11;2408;  7.3279321E-02;  0.0000000E+00; -3.6872265E-08;  1.0124785E+03;  4.0576190E-01;  1.0326165E+04;3;  2.9516430E+01;  0.0000000E+00;  8.6723594E-06;0;  1.1944878E+00;  9.9789141E+03;  0.0000000E+00;  2.6033910E-14;  1.0000000E+04;  0.0000000E+00;  9.9831006E+03;  6.0925579E-01;  0.0000000E+00;  5.8523196E-01;  7.3635986E+03;
  8.8012642E-01;  9.9999998E-03;  2.0016277E-02;2409;  7.3524743E-02;  0.0000000E+00;  1.3245231E-02;  1.0124617E+03;  4.0576190E-01;  1.0312354E+04;3;  2.9611666E+01;  0.0000000E+00;  6.0470390E+00;0;  1.1940501E+00;  9.9788398E+03;  0.0000000E+00; -1.5473753E-07;  1.0000000E+04;  0.0000000E+00;  9.9828428E+03;  6.1145294E-01;  0.0000000E+00;  5.8259714E-01;  7.4942920E+03;
  8.8012737E-01;  9.9999998E-03;  4.0032793E-02;2410;  7.4250802E-02;  0.0000000E+00;  2.5997208E-02;  1.0124139E+03;  4.0576208E-01;  1.0272697E+04;3;  2.9884396E+01;  0.0000000E+00;  1.1432673E+01;0;  1.1928666E+00;  9.9786289E+03;  0.0000000E+00; -5.3762443E-07;  1.0000000E+04;  0.0000000E+00;  9.9821055E+03;  6.1801624E-01;  0.0000000E+00;  5.7485026E-01;  7.8680947E+03;
  8.8012898E-01;  9.9999998E-03;  6.0050186E-02;2411;  7.5433940E-02;  0.0000000E+00;  3.8065139E-02;  1.0123403E+03;  4.0576223E-01;  1.0211832E+04;3;  3.0299797E+01;  0.0000000E+00;  1.5659639E+01;0;  1.1909053E+00;  9.9782676E+03;  0.0000000E+00; -8.5264310E-07;  1.0000000E+04;  0.0000000E+00;  9.9810039E+03;  6.2887025E-01;  0.0000000E+00;  5.6203508E-01;  8.4290049E+03;
  8.8013130E-01;  9.9999998E-03;  8.0069475E-02;2412;  7.7050172E-02;  0.0000000E+00;  4.9628768E-02;  1.0122494E+03;  4.0576240E-01;  1.0136563E+04;3;  3.0809681E+01;  0.0000000E+00;  1.8494295E+01;0;  1.1872404E+00;  9.9777598E+03;  0.0000000E+00; -8.5063914E-07;  1.0000000E+04;  0.0000000E+00;  9.9797119E+03;  6.4391488E-01;  0.0000000E+00;  5.4332548E-01;  9.0908125E+03;
  8.8013440E-01;  9.9999998E-03;  1.0009154E-01;2413;  7.9084724E-02;  0.0000000E+00;  6.0998037E-02;  1.0121501E+03;  4.0576252E-01;  1.0054487E+04;3;  3.1362701E+01;  0.0000000E+00;  1.9971432E+01;0;  1.1796849E+00;  9.9770898E+03;  0.0000000E+00; -7.4646255E-07;  1.0000000E+04;  0.0000000E+00;  9.9784092E+03;  6.6300315E-01;  0.0000000E+00;  5.1668179E-01;  9.7661504E+03;
  8.8013846E-01;  9.9999998E-03;  1.2011633E-01;2414;  8.1529595E-02;  0.0000000E+00;  7.2232924E-02;  1.0120480E+03;  4.0576288E-01;  9.9699453E+03;3;  3.1914774E+01;  0.0000000E+00;  2.0316740E+01;0;  1.1651435E+00;  9.9762607E+03;  0.0000000E+00; -1.3714460E-06;  1.0000000E+04;  0.0000000E+00;  9.9772119E+03;  6.8584204E-01;  0.0000000E+00;  4.7930145E-01;  1.0404586E+04;
  8.8014352E-01;  9.9999998E-03;  1.4014237E-01;2415;  8.4371150E-02;  0.0000000E+00;  8.2772627E-02;  1.0119434E+03;  4.0576324E-01;  9.8833311E+03;3;  3.2435001E+01;  0.0000000E+00;  1.9764366E+01;0;  1.1413198E+00;  9.9752803E+03;  0.0000000E+00; -3.4879879E-06;  1.0000000E+04;  0.0000000E+00;  9.9761182E+03;  7.1180809E-01;  0.0000000E+00;  4.2951173E-01;  1.1005463E+04;
  9.0015113E-01;  9.9999998E-03; -8.7849505E-11;2439;  8.8567577E-02;  0.0000000E+00; -2.6435089E-08;  1.0118784E+03;  4.0539935E-01;  9.8255781E+03;3;  3.6245899E+01;  0.0000000E+00;  1.8693099E-05;0;  1.0185366E+00;  9.9840439E+03;  0.0000000E+00; -2.2141155E-15;  1.0000000E+04;  0.0000000E+00;  9.9840039E+03;  4.6538121E-01;  0.0000000E+00;  5.5315530E-01;  6.9448516E+03;
  9.0015155E-01;  9.9999998E-03;  2.0015292E-02;2440;  8.8859424E-02;  0.0000000E+00;  1.2447054E-02;  1.0118632E+03;  4.0539932E-01;  9.8130547E+03;3;  3.6357273E+01;  0.0000000E+00;  5.6928401E+00;0;  1.0179898E+00;  9.9839883E+03;  0.0000000E+00; -2.6483681E-07;  1.0000000E+04;  0.0000000E+00;  9.9837598E+03;  4.6722007E-01;  0.0000000E+00;  5.5076969E-01;  7.0677856E+03;
  9.0015268E-01;  9.9999998E-03;  4.0030811E-02;2441;  8.9722589E-02;  0.0000000E+00;  2.4433393E-02;  1.0118188E+03;  4.0539929E-01;  9.7763721E+03;3;  3.6676678E+01;  0.0000000E+00;  1.0764711E+01;0;  1.0165033E+00;  9.9838066E+03;  0.0000000E+00; -9.4891772E-07;  1.0000000E+04;  0.0000000E+00;  9.9830586E+03;  4.7272944E-01;  0.0000000E+00;  5.4377395E-01;  7.4197607E+03;
  9.0015459E-01;  9.9999998E-03;  6.0047168E-02;2442;  9.1127194E-02;  0.0000000E+00;  3.5785925E-02;  1.0117505E+03;  4.0539950E-01;  9.7197705E+03;3;  3.7163944E+01;  0.0000000E+00;  1.4751120E+01;0;  1.0141337E+00;  9.9835010E+03;  0.0000000E+00; -1.7028894E-06;  1.0000000E+04;  0.0000000E+00;  9.9820127E+03;  4.8190141E-01;  0.0000000E+00;  5.3223234E-01;  7.9489102E+03;
  9.0015739E-01;  9.9999998E-03;  8.0065340E-02;2443;  9.3042843E-02;  0.0000000E+00;  4.6686605E-02;  1.0116664E+03;  4.0539956E-01;  9.6502520E+03;3;  3.7763527E+01;  0.0000000E+00;  1.7438728E+01;0;  1.0100992E+00;  9.9830615E+03;  0.0000000E+00; -2.1878429E-06;  1.0000000E+04;  0.0000000E+00;  9.9807813E+03;  4.9475363E-01;  0.0000000E+00;  5.1534551E-01;  8.5745176E+03;
  9.0016109E-01;  9.9999998E-03;  1.0008616E-01;2444;  9.5450193E-02;  0.0000000E+00;  5.7442937E-02;  1.0115747E+03;  4.0539971E-01;  9.5744219E+03;3;  3.8418362E+01;  0.0000000E+00;  1.8868843E+01;0;  1.0024633E+00;  9.9824795E+03;  0.0000000E+00; -2.6996661E-06;  1.0000000E+04;  0.0000000E+00;  9.9795410E+03;  5.1134372E-01;  0.0000000E+00;  4.9111959E-01;  9.2138076E+03;
  9.0016586E-01;  9.9999998E-03;  1.2010962E-01;2445;  9.8341726E-02;  0.0000000E+00;  6.8122201E-02;  1.0114798E+03;  4.0540010E-01;  9.4959287E+03;3;  3.9081081E+01;  0.0000000E+00;  1.9261131E+01;0;  9.8855603E-01;  9.9817451E+03;  0.0000000E+00; -4.4384929E-06;  1.0000000E+04;  0.0000000E+00;  9.9783926E+03;  5.3173321E-01;  0.0000000E+00;  4.5682281E-01;  9.8183506E+03;
  9.0017182E-01;  9.9999998E-03;  1.4013429E-01;2446;  1.0171270E-01;  0.0000000E+00;  7.8194357E-02;  1.0113821E+03;  4.0540037E-01;  9.4150693E+03;3;  3.9724079E+01;  0.0000000E+00;  1.8837812E+01;0;  9.6666312E-01;  9.9808496E+03;  0.0000000E+00; -8.5230004E-06;  1.0000000E+04;  0.0000000E+00;  9.9773477E+03;  5.5586088E-01;  0.0000000E+00;  4.1080225E-01;  1.0387717E+04;
  9.2016256E-01;  9.9999998E-03; -6.8823176E-12;2470;  9.5861167E-02;  0.0000000E+00; -1.2920682E-08;  1.0111691E+03;  4.0498298E-01;  9.2338057E+03;3;  4.0167721E+01;  0.0000000E+00; -2.0947075E-05;0;  8.2783079E-01;  9.9895547E+03;  0.0000000E+00; -5.2091014E-15;  1.0000000E+04;  0.0000000E+00;  9.9850127E+03;  3.1067851E-01;  0.0000000E+00;  5.1715231E-01;  6.4744409E+03;
  9.2016304E-01;  9.9999998E-03;  2.0014288E-02;2471;  9.6214496E-02;  0.0000000E+00;  1.1568154E-02;  1.0111552E+03;  4.0498295E-01;  9.2222744E+03;3;  4.0293945E+01;  0.0000000E+00;  5.2786460E+00;0;  8.2716739E-01;  9.9895078E+03;  0.0000000E+00; -3.6813449E-07;  1.0000000E+04;  0.0000000E+00;  9.9847832E+03;  3.1210062E-01;  0.0000000E+00;  5.1506680E-01;  6.5885151E+03;
  9.2016453E-01;  9.9999998E-03;  4.0028762E-02;2472;  9.7266905E-02;  0.0000000E+00;  2.2706220E-02;  1.0111151E+03;  4.0498307E-01;  9.1891592E+03;3;  4.0652725E+01;  0.0000000E+00;  9.9822636E+00;0;  8.2534182E-01;  9.9893701E+03;  0.0000000E+00; -1.3392192E-06;  1.0000000E+04;  0.0000000E+00;  9.9841279E+03;  3.1637838E-01;  0.0000000E+00;  5.0896341E-01;  6.9154795E+03;
  9.2016703E-01;  9.9999998E-03;  6.0043979E-02;2473;  9.9003814E-02;  0.0000000E+00;  3.3255339E-02;  1.0110535E+03;  4.0498313E-01;  9.1383047E+03;3;  4.1218132E+01;  0.0000000E+00;  1.3688681E+01;0;  8.2245332E-01;  9.9891309E+03;  0.0000000E+00; -2.5387149E-06;  1.0000000E+04;  0.0000000E+00;  9.9831445E+03;  3.2356152E-01;  0.0000000E+00;  4.9889180E-01;  7.4079482E+03;
  9.2017061E-01;  9.9999998E-03;  8.0060855E-02;2474;  1.0138863E-01;  0.0000000E+00;  4.3391261E-02;  1.0109775E+03;  4.0498328E-01;  9.0754268E+03;3;  4.1945156E+01;  0.0000000E+00;  1.6205019E+01;0;  8.1781614E-01;  9.9887852E+03;  0.0000000E+00; -3.5912240E-06;  1.0000000E+04;  0.0000000E+00;  9.9819814E+03;  3.3377036E-01;  0.0000000E+00;  4.8404577E-01;  7.9912710E+03;
  9.2017537E-01;  9.9999998E-03;  1.0008020E-01;2475;  1.0439456E-01;  0.0000000E+00;  5.3421520E-02;  1.0108953E+03;  4.0498343E-01;  9.0074238E+03;3;  4.2781105E+01;  0.0000000E+00;  1.7575415E+01;0;  8.0969167E-01;  9.9883184E+03;  0.0000000E+00; -4.8234156E-06;  1.0000000E+04;  0.0000000E+00;  9.9808125E+03;  3.4724465E-01;  0.0000000E+00;  4.6244702E-01;  8.5877441E+03;
  9.2018133E-01;  9.9999998E-03;  1.2010205E-01;2476;  1.0799372E-01;  0.0000000E+00;  6.3430324E-02;  1.0108098E+03;  4.0498361E-01;  8.9367588E+03;3;  4.3688423E+01;  0.0000000E+00;  1.8007334E+01;0;  7.9578865E-01;  9.9877080E+03;  0.0000000E+00; -7.5918433E-06;  1.0000000E+04;  0.0000000E+00;  9.9797344E+03;  3.6437556E-01;  0.0000000E+00;  4.3141311E-01;  9.1510566E+03;
  9.2018861E-01;  9.9999998E-03;  1.4012511E-01;2477;  1.1219355E-01;  0.0000000E+00;  7.2930440E-02;  1.0107213E+03;  4.0498388E-01;  8.8635303E+03;3;  4.4643166E+01;  0.0000000E+00;  1.7711979E+01;0;  7.7494496E-01;  9.9869287E+03;  0.0000000E+00; -1.3578170E-05;  1.0000000E+04;  0.0000000E+00;  9.9787500E+03;  3.8564834E-01;  0.0000000E+00;  3.8929662E-01;  9.6806885E+03;
  9.4016373E-01;  9.9999998E-03;  2.3596618E-11;2501;  9.6948072E-02;  0.0000000E+00;  1.6203744E-08;  1.0103605E+03;  4.0453324E-01;  8.5590020E+03;3;  4.1079781E+01;  0.0000000E+00;  2.3090892E-05;0;  6.4534038E-01;  9.9946973E+03;  0.0000000E+00;  1.9272375E-14;  1.0000000E+04;  0.0000000E+00;  9.9860879E+03;  1.6664878E-01;  0.0000000E+00;  4.7869161E-01;  5.9675073E+03;
  9.4016421E-01;  9.9999998E-03;  2.0013237E-02;2502;  9.7312704E-02;  0.0000000E+00;  1.0616056E-02;  1.0103483E+03;  4.0453333E-01;  8.5489570E+03;3;  4.1205963E+01;  0.0000000E+00;  4.8168607E+00;0;  6.4457494E-01;  9.9946699E+03;  0.0000000E+00; -3.7319234E-07;  1.0000000E+04;  0.0000000E+00;  9.9858760E+03;  1.6763192E-01;  0.0000000E+00;  4.7694302E-01;  6.0718828E+03;
  9.4016582E-01;  9.9999998E-03;  4.0026631E-02;2503;  9.8398097E-02;  0.0000000E+00;  2.0844853E-02;  1.0103132E+03;  4.0453333E-01;  8.5199043E+03;3;  4.1572109E+01;  0.0000000E+00;  9.1146078E+00;0;  6.4243251E-01;  9.9945762E+03;  0.0000000E+00; -1.3975965E-06;  1.0000000E+04;  0.0000000E+00;  9.9852686E+03;  1.7060922E-01;  0.0000000E+00;  4.7182328E-01;  6.3713296E+03;
  9.4016850E-01;  9.9999998E-03;  6.0040656E-02;2504;  1.0019619E-01;  0.0000000E+00;  3.0539382E-02;  1.0102587E+03;  4.0453342E-01;  8.4748965E+03;3;  4.2146717E+01;  0.0000000E+00;  1.2513932E+01;0;  6.3900536E-01;  9.9944150E+03;  0.0000000E+00; -2.7159497E-06;  1.0000000E+04;  0.0000000E+00;  9.9843535E+03;  1.7567594E-01;  0.0000000E+00;  4.6332943E-01;  6.8230415E+03;
  9.4017231E-01;  9.9999998E-03;  8.0056161E-02;2505;  1.0268691E-01;  0.0000000E+00;  3.9865598E-02;  1.0101923E+03;  4.0453351E-01;  8.4200420E+03;3;  4.2894119E+01;  0.0000000E+00;  1.4846294E+01;0;  6.3365597E-01;  9.9941777E+03;  0.0000000E+00; -3.9199667E-06;  1.0000000E+04;  0.0000000E+00;  9.9832725E+03;  1.8303451E-01;  0.0000000E+00;  4.5062146E-01;  7.3588354E+03;
  9.4017738E-01;  9.9999998E-03;  1.0007392E-01;2506;  1.0583759E-01;  0.0000000E+00;  4.9109239E-02;  1.0101204E+03;  4.0453357E-01;  8.3606553E+03;3;  4.3773010E+01;  0.0000000E+00;  1.6152477E+01;0;  6.2478620E-01;  9.9938389E+03;  0.0000000E+00; -5.2862315E-06;  1.0000000E+04;  0.0000000E+00;  9.9821865E+03;  1.9306786E-01;  0.0000000E+00;  4.3171832E-01;  7.9066538E+03;
  9.4018376E-01;  9.9999998E-03;  1.2009400E-01;2507;  1.0963101E-01;  0.0000000E+00;  5.8372360E-02;  1.0100467E+03;  4.0453374E-01;  8.2997920E+03;3;  4.4734684E+01;  0.0000000E+00;  1.6619938E+01;0;  6.1040944E-01;  9.9933770E+03;  0.0000000E+00; -8.0561358E-06;  1.0000000E+04;  0.0000000E+00;  9.9811826E+03;  2.0642672E-01;  0.0000000E+00;  4.0398273E-01;  8.4227363E+03;
  9.4019157E-01;  9.9999998E-03;  1.4011528E-01;2508;  1.1407894E-01;  0.0000000E+00;  6.7218333E-02;  1.0099691E+03;  4.0453389E-01;  8.2356777E+03;3;  4.5760761E+01;  0.0000000E+00;  1.6442770E+01;0;  5.8981723E-01;  9.9927432E+03;  0.0000000E+00; -1.4034470E-05;  1.0000000E+04;  0.0000000E+00;  9.9802744E+03;  2.2404094E-01;  0.0000000E+00;  3.6577630E-01;  8.9063770E+03;
  9.6016186E-01;  9.9999998E-03; -4.4182382E-13;2532;  9.6285611E-02;  0.0000000E+00;  4.0682306E-09;  1.0094706E+03;  4.0406960E-01;  7.8160791E+03;3;  4.1151302E+01;  0.0000000E+00;  4.3601613E-06;0;  4.8879197E-01;  9.9989043E+03;  0.0000000E+00; -5.5305005E-15;  1.0000000E+04;  0.0000000E+00;  9.9871895E+03;  4.9543861E-02;  0.0000000E+00;  4.3924811E-01;  5.4390020E+03;
  9.6016240E-01;  9.9999998E-03;  2.0012066E-02;2533;  9.6647292E-02;  0.0000000E+00;  9.5994705E-03;  1.0094600E+03;  4.0406951E-01;  7.8073228E+03;3;  4.1283726E+01;  0.0000000E+00;  4.3378978E+00;0;  4.8798999E-01;  9.9988867E+03;  0.0000000E+00; -2.8917634E-07;  1.0000000E+04;  0.0000000E+00;  9.9869941E+03;  5.0133232E-02;  0.0000000E+00;  4.3785676E-01;  5.5331455E+03;
  9.6016395E-01;  9.9999998E-03;  4.0024277E-02;2534;  9.7732447E-02;  0.0000000E+00;  1.8866142E-02;  1.0094297E+03;  4.0406972E-01;  7.7823325E+03;3;  4.1645096E+01;  0.0000000E+00;  8.2101974E+00;0;  4.8570997E-01;  9.9988418E+03;  0.0000000E+00; -1.0812630E-06;  1.0000000E+04;  0.0000000E+00;  9.9864395E+03;  5.1942959E-02;  0.0000000E+00;  4.3376702E-01;  5.8033926E+03;
  9.6016663E-01;  9.9999998E-03;  6.0037080E-02;2535;  9.9538498E-02;  0.0000000E+00;  2.7686110E-02;  1.0093827E+03;  4.0406969E-01;  7.7435679E+03;3;  4.2233395E+01;  0.0000000E+00;  1.1300378E+01;0;  4.8199132E-01;  9.9987549E+03;  0.0000000E+00; -2.1028502E-06;  1.0000000E+04;  0.0000000E+00;  9.9855957E+03;  5.5107735E-02;  0.0000000E+00;  4.2688358E-01;  6.2114282E+03;
  9.6017045E-01;  9.9999998E-03;  8.0051228E-02;2536;  1.0204615E-01;  0.0000000E+00;  3.6210809E-02;  1.0093260E+03;  4.0406972E-01;  7.6967363E+03;3;  4.2999500E+01;  0.0000000E+00;  1.3456907E+01;0;  4.7619623E-01;  9.9986162E+03;  0.0000000E+00; -2.9768348E-06;  1.0000000E+04;  0.0000000E+00;  9.9846035E+03;  5.9893835E-02;  0.0000000E+00;  4.1630238E-01;  6.6957593E+03;
  9.6017557E-01;  9.9999998E-03;  1.0006744E-01;2537;  1.0522864E-01;  0.0000000E+00;  4.4697922E-02;  1.0092650E+03;  4.0406984E-01;  7.6464600E+03;3;  4.3902046E+01;  0.0000000E+00;  1.4715940E+01;0;  4.6681878E-01;  9.9984063E+03;  0.0000000E+00; -3.7659754E-06;  1.0000000E+04;  0.0000000E+00;  9.9836045E+03;  6.6784255E-02;  0.0000000E+00;  4.0003452E-01;  7.1906377E+03;
  9.6018201E-01;  9.9999998E-03;  1.2008575E-01;2538;  1.0906854E-01;  0.0000000E+00;  5.3227540E-02;  1.0092026E+03;  4.0406990E-01;  7.5949043E+03;3;  4.4904259E+01;  0.0000000E+00;  1.5239767E+01;0;  4.5209605E-01;  9.9980879E+03;  0.0000000E+00; -5.2098189E-06;  1.0000000E+04;  0.0000000E+00;  9.9826895E+03;  7.6599665E-02;  0.0000000E+00;  3.7549639E-01;  7.6555615E+03;
  9.6019000E-01;  9.9999998E-03;  1.4010517E-01;2539;  1.1358918E-01;  0.0000000E+00;  6.1408550E-02;  1.0091368E+03;  4.0407008E-01;  7.5405933E+03;3;  4.5987839E+01;  0.0000000E+00;  1.5200941E+01;0;  4.3163905E-01;  9.9976064E+03;  0.0000000E+00; -8.6985547E-06;  1.0000000E+04;  0.0000000E+00;  9.9818564E+03;  9.0562932E-02;  0.0000000E+00;  3.4107611E-01;  8.0898423E+03;
  9.8015839E-01;  9.9999998E-03; -9.6711614E-12;2563;  9.4624154E-02;  0.0000000E+00; -1.5663172E-08;  1.0085322E+03;  4.0360984E-01;  7.0322119E+03;3;  4.0778656E+01;  0.0000000E+00;  6.5645727E-06;0;  3.6507860E-01;  1.0001976E+04;  0.0000000E+00;  3.6546152E-16;  1.0000000E+04;  0.0000000E+00;  9.9882813E+03; -3.5135448E-02;  0.0000000E+00;  4.0021405E-01;  4.9041880E+03;
  9.8015893E-01;  9.9999998E-03;  2.0010917E-02;2564;  9.4989933E-02;  0.0000000E+00;  8.6124493E-03;  1.0085230E+03;  4.0360987E-01;  7.0246460E+03;3;  4.0911449E+01;  0.0000000E+00;  3.8703244E+00;0;  3.6433533E-01;  1.0001972E+04;  0.0000000E+00; -1.5928843E-07;  1.0000000E+04;  0.0000000E+00;  9.9881016E+03; -3.4847103E-02;  0.0000000E+00;  3.9918244E-01;  4.9877964E+03;
  9.8016042E-01;  9.9999998E-03;  4.0021982E-02;2565;  9.6081957E-02;  0.0000000E+00;  1.6956093E-02;  1.0084969E+03;  4.0360981E-01;  7.0032266E+03;3;  4.1305161E+01;  0.0000000E+00;  7.3535361E+00;0;  3.6218482E-01;  1.0001958E+04;  0.0000000E+00; -5.9554407E-07;  1.0000000E+04;  0.0000000E+00;  9.9875967E+03; -3.3925787E-02;  0.0000000E+00;  3.9611062E-01;  5.2277983E+03;
  9.8016298E-01;  9.9999998E-03;  6.0033582E-02;2566;  9.7885124E-02;  0.0000000E+00;  2.4929443E-02;  1.0084572E+03;  4.0360987E-01;  6.9704087E+03;3;  4.1929718E+01;  0.0000000E+00;  1.0161845E+01;0;  3.5858321E-01;  1.0001933E+04;  0.0000000E+00; -1.1230533E-06;  1.0000000E+04;  0.0000000E+00;  9.9868320E+03; -3.2194715E-02;  0.0000000E+00;  3.9077792E-01;  5.5902349E+03;
  9.8016673E-01;  9.9999998E-03;  8.0046393E-02;2567;  1.0038283E-01;  0.0000000E+00;  3.2668609E-02;  1.0084089E+03;  4.0361005E-01;  6.9306147E+03;3;  4.2739895E+01;  0.0000000E+00;  1.2166957E+01;0;  3.5285944E-01;  1.0001876E+04;  0.0000000E+00; -1.4456942E-06;  1.0000000E+04;  0.0000000E+00;  9.9859326E+03; -2.9327432E-02;  0.0000000E+00;  3.8218686E-01;  6.0204507E+03;
  9.8017174E-01;  9.9999998E-03;  1.0006105E-01;2568;  1.0356322E-01;  0.0000000E+00;  4.0419567E-02;  1.0083574E+03;  4.0361002E-01;  6.8881670E+03;3;  4.3685837E+01;  0.0000000E+00;  1.3404147E+01;0;  3.4357664E-01;  1.0001765E+04;  0.0000000E+00; -1.4637102E-06;  1.0000000E+04;  0.0000000E+00;  9.9850244E+03; -2.4769571E-02;  0.0000000E+00;  3.6834621E-01;  6.4598291E+03;
  9.8017818E-01;  9.9999998E-03;  1.2007765E-01;2569;  1.0742555E-01;  0.0000000E+00;  4.8265204E-02;  1.0083056E+03;  4.0361011E-01;  6.8454238E+03;3;  4.4735882E+01;  0.0000000E+00;  1.4020271E+01;0;  3.2914633E-01;  1.0001560E+04;  0.0000000E+00; -1.3918326E-06;  1.0000000E+04;  0.0000000E+00;  9.9842002E+03; -1.7611142E-02;  0.0000000E+00;  3.4675747E-01;  6.8721147E+03;
  9.8018616E-01;  9.9999998E-03;  1.4009528E-01;2570;  1.1199769E-01;  0.0000000E+00;  5.5838998E-02;  1.0082498E+03;  4.0361020E-01;  6.7994380E+03;3;  4.5874947E+01;  0.0000000E+00;  1.4157513E+01;0;  3.0939037E-01;  1.0001196E+04;  0.0000000E+00; -1.7223335E-06;  1.0000000E+04;  0.0000000E+00;  9.9834492E+03; -6.4832638E-03;  0.0000000E+00;  3.1587362E-01;  7.2569800E+03;
  1.0001539E+00;  9.9999998E-03; -5.0164469E-12;2594;  9.2337891E-02;  0.0000000E+00; -9.5154815E-11;  1.0075869E+03;  4.0316921E-01;  6.2419683E+03;3;  4.0074585E+01;  0.0000000E+00;  5.1232346E-06;0;  2.7198926E-01;  1.0004024E+04;  0.0000000E+00; -1.5895417E-15;  1.0000000E+04;  0.0000000E+00;  9.9893242E+03; -9.0751581E-02;  0.0000000E+00;  3.6274084E-01;  4.3770366E+03;
  1.0001544E+00;  9.9999998E-03;  2.0009866E-02;2595;  9.2707112E-02;  0.0000000E+00;  7.7034854E-03;  1.0075792E+03;  4.0316921E-01;  6.2355928E+03;3;  4.0220772E+01;  0.0000000E+00;  3.4478805E+00;0;  2.7138695E-01;  1.0004029E+04;  0.0000000E+00; -4.0480071E-08;  1.0000000E+04;  0.0000000E+00;  9.9891650E+03; -9.0656392E-02;  0.0000000E+00;  3.6204335E-01;  4.4499287E+03;
  1.0001559E+00;  9.9999998E-03;  4.0019885E-02;2596;  9.3809128E-02;  0.0000000E+00;  1.5207862E-02;  1.0075571E+03;  4.0316918E-01;  6.2173501E+03;3;  4.0645844E+01;  0.0000000E+00;  6.5836029E+00;0;  2.6960865E-01;  1.0004040E+04;  0.0000000E+00; -1.4731023E-07;  1.0000000E+04;  0.0000000E+00;  9.9887090E+03; -9.0295829E-02;  0.0000000E+00;  3.5990447E-01;  4.6590747E+03;
  1.0001584E+00;  9.9999998E-03;  6.0030404E-02;2597;  9.5620587E-02;  0.0000000E+00;  2.2444235E-02;  1.0075231E+03;  4.0316918E-01;  6.1894946E+03;3;  4.1343311E+01;  0.0000000E+00;  9.1752214E+00;0;  2.6650757E-01;  1.0004048E+04;  0.0000000E+00; -2.1753563E-07;  1.0000000E+04;  0.0000000E+00;  9.9880264E+03; -8.9441285E-02;  0.0000000E+00;  3.5594884E-01;  4.9747271E+03;
  1.0001620E+00;  9.9999998E-03;  8.0042027E-02;2598;  9.8111324E-02;  0.0000000E+00;  2.9541742E-02;  1.0074822E+03;  4.0316921E-01;  6.1558525E+03;3;  4.2237926E+01;  0.0000000E+00;  1.1095700E+01;0;  2.6137289E-01;  1.0004040E+04;  0.0000000E+00; -1.1039923E-07;  1.0000000E+04;  0.0000000E+00;  9.9872236E+03; -8.7692857E-02;  0.0000000E+00;  3.4906575E-01;  5.3493452E+03;
  1.0001668E+00;  9.9999998E-03;  1.0005531E-01;2599;  1.0127020E-01;  0.0000000E+00;  3.6660280E-02;  1.0074388E+03;  4.0316930E-01;  6.1200518E+03;3;  4.3266193E+01;  0.0000000E+00;  1.2357203E+01;0;  2.5286359E-01;  1.0003988E+04;  0.0000000E+00;  1.0137332E-07;  1.0000000E+04;  0.0000000E+00;  9.9864141E+03; -8.4426813E-02;  0.0000000E+00;  3.3729041E-01;  5.7324429E+03;
  1.0001731E+00;  9.9999998E-03;  1.2007029E-01;2600;  1.0514037E-01;  0.0000000E+00;  4.3874487E-02;  1.0073942E+03;  4.0316924E-01;  6.0833677E+03;3;  4.4397045E+01;  0.0000000E+00;  1.3090518E+01;0;  2.3957573E-01;  1.0003851E+04;  0.0000000E+00;  3.2713837E-07;  1.0000000E+04;  0.0000000E+00;  9.9856709E+03; -7.8694120E-02;  0.0000000E+00;  3.1826985E-01;  6.0932324E+03;
  1.0001811E+00;  9.9999998E-03;  1.4008613E-01;2601;  1.0979546E-01;  0.0000000E+00;  5.0841056E-02;  1.0073455E+03;  4.0316927E-01;  6.0433472E+03;3;  4.5641026E+01;  0.0000000E+00;  1.3381062E+01;0;  2.2149113E-01;  1.0003555E+04;  0.0000000E+00;  7.6481962E-07;  1.0000000E+04;  0.0000000E+00;  9.9849932E+03; -6.9093563E-02;  0.0000000E+00;  2.9058468E-01;  6.4322402E+03;
  1.0201486E+00;  9.9999998E-03;  7.0775673E-12;2625;  8.9658193E-02;  0.0000000E+00;  1.2169759E-08;  1.0066776E+03;  4.0275949E-01;  5.4805522E+03;3;  3.9275131E+01;  0.0000000E+00;  1.1498109E-05;0;  2.0272163E-01;  1.0005309E+04;  0.0000000E+00; -4.0934630E-16;  1.0000000E+04;  0.0000000E+00;  9.9903047E+03; -1.2489674E-01;  0.0000000E+00;  3.2761836E-01;  3.8682747E+03;
  1.0201491E+00;  9.9999998E-03;  2.0008907E-02;2626;  9.0029344E-02;  0.0000000E+00;  6.8677338E-03;  1.0066708E+03;  4.0275955E-01;  5.4750723E+03;3;  3.9440010E+01;  0.0000000E+00;  3.0744631E+00;0;  2.0230386E-01;  1.0005315E+04;  0.0000000E+00;  5.7485433E-08;  1.0000000E+04;  0.0000000E+00;  9.9901631E+03; -1.2489417E-01;  0.0000000E+00;  3.2719803E-01;  3.9303616E+03;
  1.0201504E+00;  9.9999998E-03;  4.0017981E-02;2627;  9.1129988E-02;  0.0000000E+00;  1.3594065E-02;  1.0066517E+03;  4.0275955E-01;  5.4593188E+03;3;  3.9912052E+01;  0.0000000E+00;  5.8913970E+00;0;  2.0102605E-01;  1.0005337E+04;  0.0000000E+00;  2.6999538E-07;  1.0000000E+04;  0.0000000E+00;  9.9897627E+03; -1.2479061E-01;  0.0000000E+00;  3.2581666E-01;  4.1083481E+03;
  1.0201528E+00;  9.9999998E-03;  6.0027529E-02;2628;  9.2926383E-02;  0.0000000E+00;  2.0138446E-02;  1.0066229E+03;  4.0275958E-01;  5.4357373E+03;3;  4.0645157E+01;  0.0000000E+00;  8.2516394E+00;0;  1.9864261E-01;  1.0005361E+04;  0.0000000E+00;  6.3370754E-07;  1.0000000E+04;  0.0000000E+00;  9.9891621E+03; -1.2429506E-01;  0.0000000E+00;  3.2293767E-01;  4.3767339E+03;
  1.0201563E+00;  9.9999998E-03;  8.0038026E-02;2629;  9.5396526E-02;  0.0000000E+00;  2.6601434E-02;  1.0065875E+03;  4.0275967E-01;  5.4066763E+03;3;  4.1595284E+01;  0.0000000E+00;  1.0077058E+01;0;  1.9443125E-01;  1.0005370E+04;  0.0000000E+00;  9.2657325E-07;  1.0000000E+04;  0.0000000E+00;  9.9884551E+03; -1.2291392E-01;  0.0000000E+00;  3.1734517E-01;  4.6956001E+03;
  1.0201610E+00;  9.9999998E-03;  1.0004998E-01;2630;  9.8549716E-02;  0.0000000E+00;  3.3155248E-02;  1.0065496E+03;  4.0275958E-01;  5.3755591E+03;3;  4.2702766E+01;  0.0000000E+00;  1.1374618E+01;0;  1.8722069E-01;  1.0005331E+04;  0.0000000E+00;  2.9929032E-07;  1.0000000E+04;  0.0000000E+00;  9.9877383E+03; -1.1993429E-01;  0.0000000E+00;  3.0715498E-01;  5.0236865E+03;
  1.0201672E+00;  9.9999998E-03;  1.2006346E-01;2631;  1.0245107E-01;  0.0000000E+00;  3.9822351E-02;  1.0065095E+03;  4.0275964E-01;  5.3426802E+03;3;  4.3925079E+01;  0.0000000E+00;  1.2215498E+01;0;  1.7587456E-01;  1.0005202E+04;  0.0000000E+00; -2.2108757E-06;  1.0000000E+04;  0.0000000E+00;  9.9870674E+03; -1.1437494E-01;  0.0000000E+00;  2.9024950E-01;  5.3369795E+03;
  1.0201752E+00;  9.9999998E-03;  1.4007765E-01;2632;  1.0721458E-01;  0.0000000E+00;  4.6201445E-02;  1.0064637E+03;  4.0275967E-01;  5.3050059E+03;3;  4.5270878E+01;  0.0000000E+00;  1.2619512E+01;0;  1.6055578E-01;  1.0004915E+04;  0.0000000E+00; -6.2770682E-06;  1.0000000E+04;  0.0000000E+00;  9.9864463E+03; -1.0487320E-01;  0.0000000E+00;  2.6542899E-01;  5.6373252E+03;
  1.0401424E+00;  9.9999998E-03;  1.4196376E-11;2656;  8.6547881E-02;  0.0000000E+00;  2.9368941E-10;  1.0058357E+03;  4.0238917E-01;  4.7742163E+03;3;  3.8291634E+01;  0.0000000E+00; -3.1742675E-06;0;  1.5021543E-01;  1.0006076E+04;  0.0000000E+00; -3.7206210E-15;  1.0000000E+04;  0.0000000E+00;  9.9912090E+03; -1.4502324E-01;  0.0000000E+00;  2.9523867E-01;  3.3844014E+03;
  1.0401428E+00;  9.9999998E-03;  2.0008046E-02;2657;  8.6915910E-02;  0.0000000E+00;  6.1102016E-03;  1.0058300E+03;  4.0238920E-01;  4.7696318E+03;3;  3.8465977E+01;  0.0000000E+00;  2.7209494E+00;0;  1.4997518E-01;  1.0006083E+04;  0.0000000E+00;  1.9498512E-07;  1.0000000E+04;  0.0000000E+00;  9.9910879E+03; -1.4503190E-01;  0.0000000E+00;  2.9500708E-01;  3.4357163E+03;
  1.0401442E+00;  9.9999998E-03;  4.0016271E-02;2658;  8.8004254E-02;  0.0000000E+00;  1.2133373E-02;  1.0058138E+03;  4.0238911E-01;  4.7563672E+03;3;  3.8969219E+01;  0.0000000E+00;  5.2411151E+00;0;  1.4918387E-01;  1.0006100E+04;  0.0000000E+00;  8.0433875E-07;  1.0000000E+04;  0.0000000E+00;  9.9907451E+03; -1.4493793E-01;  0.0000000E+00;  2.9412180E-01;  3.5826987E+03;
  1.0401465E+00;  9.9999998E-03;  6.0024954E-02;2659;  8.9782327E-02;  0.0000000E+00;  1.8066226E-02;  1.0057885E+03;  4.0238920E-01;  4.7356899E+03;3;  3.9760220E+01;  0.0000000E+00;  7.4175329E+00;0;  1.4753047E-01;  1.0006118E+04;  0.0000000E+00;  1.6803187E-06;  1.0000000E+04;  0.0000000E+00;  9.9902227E+03; -1.4438051E-01;  0.0000000E+00;  2.9191098E-01;  3.8044133E+03;
  1.0401498E+00;  9.9999998E-03;  8.0034472E-02;2660;  9.2228197E-02;  0.0000000E+00;  2.3978189E-02;  1.0057575E+03;  4.0238917E-01;  4.7102324E+03;3;  4.0771530E+01;  0.0000000E+00;  9.1642303E+00;0;  1.4434779E-01;  1.0006116E+04;  0.0000000E+00;  1.8127764E-06;  1.0000000E+04;  0.0000000E+00;  9.9896094E+03; -1.4275891E-01;  0.0000000E+00;  2.8710669E-01;  4.0692559E+03;
  1.0401543E+00;  9.9999998E-03;  1.0004522E-01;2661;  9.5378049E-02;  0.0000000E+00;  3.0001367E-02;  1.0057230E+03;  4.0238920E-01;  4.6820430E+03;3;  4.1951168E+01;  0.0000000E+00;  1.0488078E+01;0;  1.3873686E-01;  1.0006059E+04;  0.0000000E+00; -1.1847389E-06;  1.0000000E+04;  0.0000000E+00;  9.9889785E+03; -1.3924588E-01;  0.0000000E+00;  2.7798274E-01;  4.3461670E+03;
  1.0401605E+00;  9.9999998E-03;  1.2005722E-01;2662;  9.9331737E-02;  0.0000000E+00;  3.6094539E-02;  1.0056843E+03;  4.0238923E-01;  4.6503423E+03;3;  4.3288231E+01;  0.0000000E+00;  1.1395624E+01;0;  1.2997161E-01;  1.0005893E+04;  0.0000000E+00; -1.0381135E-05;  1.0000000E+04;  0.0000000E+00;  9.9883701E+03; -1.3280232E-01;  0.0000000E+00;  2.6277393E-01;  4.6188965E+03;
  1.0401686E+00;  9.9999998E-03;  1.4006981E-01;2663;  1.0425840E-01;  0.0000000E+00;  4.1878879E-02;  1.0056373E+03;  4.0238920E-01;  4.6119097E+03;3;  4.4769932E+01;  0.0000000E+00;  1.1853734E+01;0;  1.1845557E-01;  1.0005552E+04;  0.0000000E+00; -2.5014453E-05;  1.0000000E+04;  0.0000000E+00;  9.9877783E+03; -1.2214857E-01;  0.0000000E+00;  2.4060413E-01;  4.8907866E+03;
  1.0601355E+00;  9.9999998E-03;  1.5157644E-11;2687;  8.3090901E-02;  0.0000000E+00;  5.2060436E-09;  1.0050829E+03;  4.0206295E-01;  4.1405269E+03;3;  3.7168468E+01;  0.0000000E+00; -5.4984994E-06;0;  1.0961543E-01;  1.0006480E+04;  0.0000000E+00;  4.5671822E-15;  1.0000000E+04;  0.0000000E+00;  9.9920361E+03; -1.5600277E-01;  0.0000000E+00;  2.6561821E-01;  2.9279675E+03;
  1.0601360E+00;  9.9999998E-03;  2.0007279E-02;2688;  8.3451673E-02;  0.0000000E+00;  5.4304530E-03;  1.0050779E+03;  4.0206298E-01;  4.1365449E+03;3;  3.7352333E+01;  0.0000000E+00;  2.3825986E+00;0;  1.0950617E-01;  1.0006485E+04;  0.0000000E+00;  3.9072168E-07;  1.0000000E+04;  0.0000000E+00;  9.9919346E+03; -1.5595745E-01;  0.0000000E+00;  2.6546362E-01;  2.9688154E+03;
  1.0601372E+00;  9.9999998E-03;  4.0014759E-02;2689;  8.4522568E-02;  0.0000000E+00;  1.0835717E-02;  1.0050638E+03;  4.0206301E-01;  4.1250850E+03;3;  3.7882668E+01;  0.0000000E+00;  4.6281095E+00;0;  1.0908578E-01;  1.0006495E+04;  0.0000000E+00;  1.5219046E-06;  1.0000000E+04;  0.0000000E+00;  9.9916455E+03; -1.5567546E-01;  0.0000000E+00;  2.6476124E-01;  3.0859072E+03;
  1.0601394E+00;  9.9999998E-03;  6.0022671E-02;2690;  8.6275071E-02;  0.0000000E+00;  1.6219022E-02;  1.0050417E+03;  4.0206310E-01;  4.1070205E+03;3;  3.8715122E+01;  0.0000000E+00;  6.6220613E+00;0;  1.0804786E-01;  1.0006492E+04;  0.0000000E+00;  2.7606904E-06;  1.0000000E+04;  0.0000000E+00;  9.9912080E+03; -1.5472002E-01;  0.0000000E+00;  2.6276788E-01;  3.2633931E+03;
  1.0601426E+00;  9.9999998E-03;  8.0031328E-02;2691;  8.8707358E-02;  0.0000000E+00;  2.1649281E-02;  1.0050135E+03;  4.0206307E-01;  4.0840994E+03;3;  3.9788033E+01;  0.0000000E+00;  8.2970381E+00;0;  1.0589282E-01;  1.0006453E+04;  0.0000000E+00;  1.8145516E-06;  1.0000000E+04;  0.0000000E+00;  9.9906846E+03; -1.5237279E-01;  0.0000000E+00;  2.5826561E-01;  3.4786829E+03;
  1.0601472E+00;  9.9999998E-03;  1.0004096E-01;2692;  9.1868103E-02;  0.0000000E+00;  2.7140168E-02;  1.0049797E+03;  4.0206301E-01;  4.0565159E+03;3;  4.1053898E+01;  0.0000000E+00;  9.6118059E+00;0;  1.0211495E-01;  1.0006338E+04;  0.0000000E+00; -6.2422528E-06;  1.0000000E+04;  0.0000000E+00;  9.9901250E+03; -1.4767769E-01;  0.0000000E+00;  2.4979264E-01;  3.7114365E+03;
  1.0601534E+00;  9.9999998E-03;  1.2005153E-01;2693;  9.5910937E-02;  0.0000000E+00;  3.2624580E-02;  1.0049388E+03;  4.0206310E-01;  4.0232017E+03;3;  4.2503510E+01;  0.0000000E+00;  1.0541889E+01;0;  9.6491963E-02;  1.0006097E+04;  0.0000000E+00; -2.6580463E-05;  1.0000000E+04;  0.0000000E+00;  9.9895518E+03; -1.3954102E-01;  0.0000000E+00;  2.3603298E-01;  3.9531729E+03;
  1.0601616E+00;  9.9999998E-03;  1.4006241E-01;2694;  1.0095454E-01;  0.0000000E+00;  3.7732344E-02;  1.0048868E+03;  4.0206310E-01;  3.9808542E+03;3;  4.4058357E+01;  0.0000000E+00;  1.1145790E+01;0;  8.9680776E-02;  1.0005658E+04;  0.0000000E+00; -1.1637913E-04;  1.0000000E+04;  0.0000000E+00;  9.9889551E+03; -1.2684821E-01;  0.0000000E+00;  2.1652898E-01;  4.2082437E+03;
  1.0801282E+00;  9.9999998E-03;  3.1009143E-12;2718;  7.9466149E-02;  0.0000000E+00;  3.0746086E-10;  1.0044270E+03;  4.0178302E-01;  3.5857244E+03;3;  3.6001984E+01;  0.0000000E+00; -3.4215627E-06;0;  7.8535959E-02;  1.0006599E+04;  0.0000000E+00; -2.9572161E-15;  1.0000000E+04;  0.0000000E+00;  9.9927998E+03; -1.5993740E-01;  0.0000000E+00;  2.3847336E-01;  2.4992500E+03;
  1.0801287E+00;  9.9999998E-03;  2.0006619E-02;2719;  7.9817779E-02;  0.0000000E+00;  4.8505212E-03;  1.0044229E+03;  4.0178293E-01;  3.5824407E+03;3;  3.6185013E+01;  0.0000000E+00;  2.0963326E+00;0;  7.8507155E-02;  1.0006597E+04;  0.0000000E+00;  5.5997594E-07;  1.0000000E+04;  0.0000000E+00;  9.9927188E+03; -1.5977584E-01;  0.0000000E+00;  2.3828299E-01;  2.5304846E+03;
  1.0801299E+00;  9.9999998E-03;  4.0013444E-02;2720;  8.0860496E-02;  0.0000000E+00;  9.7117694E-03;  1.0044103E+03;  4.0178305E-01;  3.5723008E+03;3;  3.6722382E+01;  0.0000000E+00;  4.0930281E+00;0;  7.8351974E-02;  1.0006585E+04;  0.0000000E+00;  1.9429110E-06;  1.0000000E+04;  0.0000000E+00;  9.9924795E+03; -1.5911365E-01;  0.0000000E+00;  2.3746562E-01;  2.6204888E+03;
  1.0801321E+00;  9.9999998E-03;  6.0020678E-02;2721;  8.2588814E-02;  0.0000000E+00;  1.4615339E-02;  1.0043900E+03;  4.0178296E-01;  3.5557871E+03;3;  3.7575935E+01;  0.0000000E+00;  5.9263783E+00;0;  7.7892274E-02;  1.0006544E+04;  0.0000000E+00;  2.5552599E-06;  1.0000000E+04;  0.0000000E+00;  9.9921162E+03; -1.5742199E-01;  0.0000000E+00;  2.3531426E-01;  2.7590068E+03;
  1.0801353E+00;  9.9999998E-03;  8.0028534E-02;2722;  8.5011892E-02;  0.0000000E+00;  1.9566672E-02;  1.0043623E+03;  4.0178302E-01;  3.5333821E+03;3;  3.8690659E+01;  0.0000000E+00;  7.5127988E+00;0;  7.6943934E-02;  1.0006449E+04;  0.0000000E+00; -1.9977638E-06;  1.0000000E+04;  0.0000000E+00;  9.9916631E+03; -1.5385345E-01;  0.0000000E+00;  2.3079738E-01;  2.9327102E+03;
  1.0801399E+00;  9.9999998E-03;  1.0003710E-01;2723;  8.8213138E-02;  0.0000000E+00;  2.4553685E-02;  1.0043267E+03;  4.0178296E-01;  3.5045066E+03;3;  4.0011990E+01;  0.0000000E+00;  8.8240385E+00;0;  7.5463757E-02;  1.0006248E+04;  0.0000000E+00; -1.9380430E-05;  1.0000000E+04;  0.0000000E+00;  9.9911494E+03; -1.4735800E-01;  0.0000000E+00;  2.2282176E-01;  3.1314524E+03;
  1.0801461E+00;  9.9999998E-03;  1.2004633E-01;2724;  9.2344575E-02;  0.0000000E+00;  2.9472426E-02;  1.0042799E+03;  4.0178311E-01;  3.4665530E+03;3;  4.1586853E+01;  0.0000000E+00;  9.8236752E+00;0;  7.3676705E-02;  1.0005887E+04;  0.0000000E+00; -5.5001346E-05;  1.0000000E+04;  0.0000000E+00;  9.9905811E+03; -1.3688844E-01;  0.0000000E+00;  2.1056515E-01;  3.3531384E+03;
  1.0801544E+00;  9.9999998E-03;  1.4005557E-01;2725;  9.7585984E-02;  0.0000000E+00;  3.3824503E-02;  1.0042200E+03;  4.0178314E-01;  3.4180730E+03;3;  4.3351578E+01;  0.0000000E+00;  1.0220335E+01;0;  7.2181381E-02;  1.0005330E+04;  0.0000000E+00; -1.3492494E-03;  1.0000000E+04;  0.0000000E+00;  9.9899404E+03; -1.2190913E-01;  0.0000000E+00;  1.9409052E-01;  3.6019697E+03;
  1.1001210E+00;  9.9999998E-03; -3.0220253E-12;2748;  7.5817555E-02;  0.0000000E+00; -6.0401222E-09;  1.0038668E+03;  4.0154782E-01;  3.1084780E+03;3;  3.4774387E+01;  0.0000000E+00;  9.3410636E-06;0;  5.6031331E-02;  1.0006436E+04;  0.0000000E+00;  4.2543822E-15;  1.0000000E+04;  0.0000000E+00;  9.9935088E+03; -1.5734614E-01;  0.0000000E+00;  2.1337748E-01;  2.0992661E+03;
  1.1001215E+00;  9.9999998E-03;  2.0006049E-02;2749;  7.6157451E-02;  0.0000000E+00;  4.3535386E-03;  1.0038629E+03;  4.0154794E-01;  3.1053152E+03;3;  3.4957188E+01;  0.0000000E+00;  1.8416975E+00;0;  5.6096777E-02;  1.0006425E+04;  0.0000000E+00;  4.1729956E-07;  1.0000000E+04;  0.0000000E+00;  9.9934414E+03; -1.5697847E-01;  0.0000000E+00;  2.1307525E-01;  2.1225503E+03;
  1.1001227E+00;  9.9999998E-03;  4.0012293E-02;2750;  7.7180512E-02;  0.0000000E+00;  8.7523097E-03;  1.0038510E+03;  4.0154794E-01;  3.0957307E+03;3;  3.5498211E+01;  0.0000000E+00;  3.6364477E+00;0;  5.6313321E-02;  1.0006381E+04;  0.0000000E+00;  8.5922767E-07;  1.0000000E+04;  0.0000000E+00;  9.9932461E+03; -1.5565389E-01;  0.0000000E+00;  2.1196721E-01;  2.1905679E+03;
  1.1001248E+00;  9.9999998E-03;  6.0018908E-02;2751;  7.8891508E-02;  0.0000000E+00;  1.3214621E-02;  1.0038306E+03;  4.0154794E-01;  3.0793403E+03;3;  3.6367203E+01;  0.0000000E+00;  5.3124504E+00;0;  5.6768060E-02;  1.0006284E+04;  0.0000000E+00; -1.8731259E-06;  1.0000000E+04;  0.0000000E+00;  9.9929346E+03; -1.5273871E-01;  0.0000000E+00;  2.0950677E-01;  2.2986365E+03;
  1.1001281E+00;  9.9999998E-03;  8.0025978E-02;2752;  8.1320234E-02;  0.0000000E+00;  1.7729111E-02;  1.0038005E+03;  4.0154794E-01;  3.0551868E+03;3;  3.7507381E+01;  0.0000000E+00;  6.8425856E+00;0;  5.7671204E-02;  1.0006092E+04;  0.0000000E+00; -1.4639355E-05;  1.0000000E+04;  0.0000000E+00;  9.9925283E+03; -1.4729959E-01;  0.0000000E+00;  2.0497079E-01;  2.4418062E+03;
  1.1001327E+00;  9.9999998E-03;  1.0003360E-01;2753;  8.4607132E-02;  0.0000000E+00;  2.2233069E-02;  1.0037587E+03;  4.0154788E-01;  3.0215439E+03;3;  3.8977356E+01;  0.0000000E+00;  8.0553150E+00;0;  5.9369996E-02;  1.0005765E+04;  0.0000000E+00; -4.6176177E-05;  1.0000000E+04;  0.0000000E+00;  9.9920244E+03; -1.3832542E-01;  0.0000000E+00;  1.9769542E-01;  2.6181372E+03;
  1.1001390E+00;  9.9999998E-03;  1.2004133E-01;2754;  8.8872954E-02;  0.0000000E+00;  2.6319999E-02;  1.0037032E+03;  4.0154794E-01;  2.9769744E+03;3;  4.0644596E+01;  0.0000000E+00;  8.8328886E+00;0;  6.2212989E-02;  1.0005261E+04;  0.0000000E+00; -5.3942995E-04;  1.0000000E+04;  0.0000000E+00;  9.9914199E+03; -1.2514539E-01;  0.0000000E+00;  1.8735838E-01;  2.8294668E+03;
  1.1001477E+00;  9.9999998E-03;  1.4004932E-01;2755;  9.4417758E-02;  0.0000000E+00;  3.0092398E-02;  1.0036350E+03;  4.0154809E-01;  2.9221487E+03;3;  4.2618656E+01;  0.0000000E+00;  9.2217903E+00;0;  6.5783069E-02;  1.0004608E+04;  0.0000000E+00; -9.2948889E-03;  1.0000000E+04;  0.0000000E+00;  9.9907080E+03; -1.0883807E-01;  0.0000000E+00;  1.7462113E-01;  3.0779519E+03;
  1.1201142E+00;  9.9999998E-03; -4.9024955E-12;2777;  7.2302252E-02;  0.0000000E+00; -4.4858437E-09;  1.0033942E+03;  4.0135527E-01;  2.7017241E+03;3;  3.3546780E+01;  0.0000000E+00; -6.9610542E-06;0;  4.2177200E-02;  1.0005965E+04;  0.0000000E+00; -4.1991095E-16;  1.0000000E+04;  0.0000000E+00;  9.9941572E+03; -1.4787576E-01;  0.0000000E+00;  1.9005296E-01;  1.7326989E+03;
  1.1201147E+00;  9.9999998E-03;  2.0005547E-02;2778;  7.2637022E-02;  0.0000000E+00;  3.9373678E-03;  1.0033900E+03;  4.0135530E-01;  2.6983074E+03;3;  3.3728889E+01;  0.0000000E+00;  1.6492951E+00;0;  4.2485207E-02;  1.0005937E+04;  0.0000000E+00; -5.1924695E-07;  1.0000000E+04;  0.0000000E+00;  9.9941016E+03; -1.4715450E-01;  0.0000000E+00;  1.8963970E-01;  1.7504570E+03;
  1.1201159E+00;  9.9999998E-03;  4.0011264E-02;2779;  7.3644981E-02;  0.0000000E+00;  7.9223718E-03;  1.0033768E+03;  4.0135533E-01;  2.6877732E+03;3;  3.4268574E+01;  0.0000000E+00;  3.2643614E+00;0;  4.3538883E-02;  1.0005840E+04;  0.0000000E+00; -3.5996968E-06;  1.0000000E+04;  0.0000000E+00;  9.9939307E+03; -1.4474362E-01;  0.0000000E+00;  1.8828250E-01;  1.8034988E+03;
  1.1201180E+00;  9.9999998E-03;  6.0017228E-02;2780;  7.5361729E-02;  0.0000000E+00;  1.1942637E-02;  1.0033531E+03;  4.0135545E-01;  2.6689822E+03;3;  3.5165695E+01;  0.0000000E+00;  4.7807760E+00;0;  4.5700356E-02;  1.0005653E+04;  0.0000000E+00; -1.4188577E-05;  1.0000000E+04;  0.0000000E+00;  9.9936475E+03; -1.3997686E-01;  0.0000000E+00;  1.8567722E-01;  1.8916708E+03;
  1.1201214E+00;  9.9999998E-03;  8.0023549E-02;2781;  7.7860244E-02;  0.0000000E+00;  1.5986815E-02;  1.0033169E+03;  4.0135533E-01;  2.6401313E+03;3;  3.6398079E+01;  0.0000000E+00;  6.1340737E+00;0;  4.9481809E-02;  1.0005333E+04;  0.0000000E+00; -4.0129922E-05;  1.0000000E+04;  0.0000000E+00;  9.9932432E+03; -1.3198487E-01;  0.0000000E+00;  1.8146668E-01;  2.0161598E+03;
  1.1201260E+00;  9.9999998E-03;  1.0002991E-01;2782;  8.1219465E-02;  0.0000000E+00;  1.9739492E-02;  1.0032661E+03;  4.0135536E-01;  2.5997029E+03;3;  3.7906754E+01;  0.0000000E+00;  7.1764607E+00;0;  5.5294894E-02;  1.0004851E+04;  0.0000000E+00; -4.8351302E-04;  1.0000000E+04;  0.0000000E+00;  9.9927129E+03; -1.2013488E-01;  0.0000000E+00;  1.7542978E-01;  2.1800476E+03;
  1.1201327E+00;  9.9999998E-03;  1.2003650E-01;2783;  8.5710771E-02;  0.0000000E+00;  2.3246728E-02;  1.0032014E+03;  4.0135542E-01;  2.5481702E+03;3;  3.9737270E+01;  0.0000000E+00;  7.8600087E+00;0;  6.2624678E-02;  1.0004227E+04;  0.0000000E+00; -6.6217603E-03;  1.0000000E+04;  0.0000000E+00;  9.9920469E+03; -1.0513072E-01;  0.0000000E+00;  1.6775540E-01;  2.3859023E+03;
  1.1201415E+00;  9.9999998E-03;  1.4004292E-01;2784;  9.1433406E-02;  0.0000000E+00;  2.6020274E-02;  1.0031296E+03;  4.0135536E-01;  2.4910361E+03;3;  4.1905590E+01;  0.0000000E+00;  7.9216766E+00;0;  6.9372408E-02;  1.0003588E+04;  0.0000000E+00; -4.0057763E-02;  1.0000000E+04;  0.0000000E+00;  9.9912510E+03; -8.9950509E-02;  0.0000000E+00;  1.5932292E-01;  2.6332969E+03;
  1.1401081E+00;  9.9999998E-03;  4.3390075E-13;2805;  6.9092959E-02;  0.0000000E+00;  3.2004484E-09;  1.0029919E+03;  4.0120077E-01;  2.3509993E+03;3;  3.2377682E+01;  0.0000000E+00;  9.9921308E-06;0;  3.8695440E-02;  1.0005080E+04;  0.0000000E+00; -1.3507975E-15;  1.0000000E+04;  0.0000000E+00;  9.9947236E+03; -1.3005233E-01;  0.0000000E+00;  1.6874777E-01;  1.4076168E+03;
  1.1401085E+00;  9.9999998E-03;  2.0005057E-02;2806;  6.9417283E-02;  0.0000000E+00;  3.5517276E-03;  1.0029862E+03;  4.0120065E-01;  2.3465020E+03;3;  3.2557911E+01;  0.0000000E+00;  1.4794120E+00;0;  3.9456189E-02;  1.0005026E+04;  0.0000000E+00; -2.7042813E-06;  1.0000000E+04;  0.0000000E+00;  9.9946699E+03; -1.2884727E-01;  0.0000000E+00;  1.6830346E-01;  1.4224756E+03;
  1.1401098E+00;  9.9999998E-03;  4.0010192E-02;2807;  7.0429370E-02;  0.0000000E+00;  7.1080741E-03;  1.0029696E+03;  4.0120074E-01;  2.3334795E+03;3;  3.3114529E+01;  0.0000000E+00;  2.9085739E+00;0;  4.1931182E-02;  1.0004862E+04;  0.0000000E+00; -1.2716608E-05;  1.0000000E+04;  0.0000000E+00;  9.9945010E+03; -1.2501198E-01;  0.0000000E+00;  1.6694316E-01;  1.4677872E+03;
  1.1401119E+00;  9.9999998E-03;  6.0015492E-02;2808;  7.2168946E-02;  0.0000000E+00;  1.0658906E-02;  1.0029398E+03;  4.0120080E-01;  2.3100576E+03;3;  3.4039368E+01;  0.0000000E+00;  4.2293439E+00;0;  4.6594985E-02;  1.0004558E+04;  0.0000000E+00; -7.3538555E-05;  1.0000000E+04;  0.0000000E+00;  9.9942080E+03; -1.1801334E-01;  0.0000000E+00;  1.6460833E-01;  1.5459225E+03;
  1.1401154E+00;  9.9999998E-03;  8.0020815E-02;2809;  7.4699193E-02;  0.0000000E+00;  1.4056453E-02;  1.0028956E+03;  4.0120077E-01;  2.2752993E+03;3;  3.5294186E+01;  0.0000000E+00;  5.3776369E+00;0;  5.3817056E-02;  1.0004103E+04;  0.0000000E+00; -9.9698885E-04;  1.0000000E+04;  0.0000000E+00;  9.9937773E+03; -1.0749043E-01;  0.0000000E+00;  1.6130748E-01;  1.6609346E+03;
  1.1401203E+00;  9.9999998E-03;  1.0002628E-01;2810;  7.8237616E-02;  0.0000000E+00;  1.7286617E-02;  1.0028368E+03;  4.0120068E-01;  2.2291111E+03;3;  3.6945572E+01;  0.0000000E+00;  6.2680864E+00;0;  6.3155763E-02;  1.0003518E+04;  0.0000000E+00; -7.8154104E-03;  1.0000000E+04;  0.0000000E+00;  9.9931924E+03; -9.4074138E-02;  0.0000000E+00;  1.5722990E-01;  1.8170404E+03;
  1.1401269E+00;  9.9999998E-03;  1.2003151E-01;2811;  8.2893915E-02;  0.0000000E+00;  1.9887988E-02;  1.0027690E+03;  4.0120080E-01;  2.1758010E+03;3;  3.8999722E+01;  0.0000000E+00;  6.5866642E+00;0;  7.2725572E-02;  1.0002899E+04;  0.0000000E+00; -3.7354518E-02;  1.0000000E+04;  0.0000000E+00;  9.9924551E+03; -8.0076851E-02;  0.0000000E+00;  1.5280242E-01;  2.0164331E+03;
  1.1401365E+00;  9.9999998E-03;  1.4003725E-01;2812;  8.9061424E-02;  0.0000000E+00;  2.2086613E-02;  1.0027028E+03;  4.0120086E-01;  2.1237048E+03;3;  4.1393982E+01;  0.0000000E+00;  6.4535680E+00;0;  7.9212457E-02;  1.0002416E+04;  0.0000000E+00; -1.2327760E-01;  1.0000000E+04;  0.0000000E+00;  9.9916113E+03; -6.9292232E-02;  0.0000000E+00;  1.4850469E-01;  2.2693572E+03;
  1.1601027E+00;  9.9999998E-03;  2.7919492E-12;2832;  6.6243351E-02;  0.0000000E+00;  2.7575457E-09;  1.0026379E+03;  4.0107951E-01;  2.0388248E+03;3;  3.1335918E+01;  0.0000000E+00;  5.6550198E-07;0;  4.8269562E-02;  1.0003631E+04;  0.0000000E+00; -1.4237673E-15;  1.0000000E+04;  0.0000000E+00;  9.9951582E+03; -1.0214978E-01;  0.0000000E+00;  1.5041934E-01;  1.1314619E+03;
  1.1601031E+00;  9.9999998E-03;  2.0004496E-02;2833;  6.6571020E-02;  0.0000000E+00;  3.1566746E-03;  1.0026311E+03;  4.0107948E-01;  2.0334802E+03;3;  3.1522753E+01;  0.0000000E+00;  1.3102953E+00;0;  4.9574062E-02;  1.0003558E+04;  0.0000000E+00; -1.9357289E-05;  1.0000000E+04;  0.0000000E+00;  9.9950947E+03; -1.0047935E-01;  0.0000000E+00;  1.5005341E-01;  1.1455095E+03;
  1.1601044E+00;  9.9999998E-03;  4.0008973E-02;2834;  6.7579441E-02;  0.0000000E+00;  6.2212870E-03;  1.0026102E+03;  4.0107951E-01;  2.0173545E+03;3;  3.2081055E+01;  0.0000000E+00;  2.5030982E+00;0;  5.3559303E-02;  1.0003328E+04;  0.0000000E+00; -3.7426018E-04;  1.0000000E+04;  0.0000000E+00;  9.9949063E+03; -9.5439225E-02;  0.0000000E+00;  1.4899853E-01;  1.1883999E+03;
  1.1601067E+00;  9.9999998E-03;  6.0013484E-02;2835;  6.9342606E-02;  0.0000000E+00;  9.2318347E-03;  1.0025750E+03;  4.0107945E-01;  1.9900787E+03;3;  3.3027016E+01;  0.0000000E+00;  3.6183412E+00;0;  6.0312919E-02;  1.0002953E+04;  0.0000000E+00; -2.6559986E-03;  1.0000000E+04;  0.0000000E+00;  9.9945771E+03; -8.7086760E-02;  0.0000000E+00;  1.4739968E-01;  1.2625172E+03;
  1.1601102E+00;  9.9999998E-03;  8.0018058E-02;2836;  7.2003469E-02;  0.0000000E+00;  1.2132030E-02;  1.0025259E+03;  4.0107954E-01;  1.9522056E+03;3;  3.4410034E+01;  0.0000000E+00;  4.5888124E+00;0;  6.9391459E-02;  1.0002458E+04;  0.0000000E+00; -1.2715233E-02;  1.0000000E+04;  0.0000000E+00;  9.9940957E+03; -7.6155737E-02;  0.0000000E+00;  1.4554720E-01;  1.3714371E+03;
  1.1601152E+00;  9.9999998E-03;  1.0002244E-01;2837;  7.5662650E-02;  0.0000000E+00;  1.4562755E-02;  1.0024670E+03;  4.0107945E-01;  1.9066827E+03;3;  3.6190258E+01;  0.0000000E+00;  5.0855508E+00;0;  7.9325050E-02;  1.0001916E+04;  0.0000000E+00; -4.4878993E-02;  1.0000000E+04;  0.0000000E+00;  9.9934609E+03; -6.4466536E-02;  0.0000000E+00;  1.4379159E-01;  1.5201108E+03;
  1.1601226E+00;  9.9999998E-03;  1.2002719E-01;2838;  8.0726013E-02;  0.0000000E+00;  1.6629623E-02;  1.0024064E+03;  4.0107954E-01;  1.8598666E+03;3;  3.8502968E+01;  0.0000000E+00;  5.1055679E+00;0;  8.7227799E-02;  1.0001472E+04;  0.0000000E+00; -1.2635259E-01;  1.0000000E+04;  0.0000000E+00;  9.9926953E+03; -5.5151187E-02;  0.0000000E+00;  1.4237899E-01;  1.7221943E+03;
  1.1601331E+00;  9.9999998E-03;  1.4003283E-01;2839;  8.7383538E-02;  0.0000000E+00;  1.8516636E-02;  1.0023564E+03;  4.0107971E-01;  1.8211534E+03;3;  4.1192734E+01;  0.0000000E+00;  5.0585904E+00;0;  8.9336380E-02;  1.0001301E+04;  0.0000000E+00; -2.8898621E-01;  1.0000000E+04;  0.0000000E+00;  9.9918662E+03; -5.1706731E-02;  0.0000000E+00;  1.4104311E-01;  2.0217501E+03;
  1.1800981E+00;  9.9999998E-03;  3.5797888E-12;2858;  6.3746467E-02;  0.0000000E+00;  1.7768826E-09;  1.0023163E+03;  4.0098622E-01;  1.7530566E+03;3;  3.0398932E+01;  0.0000000E+00; -4.9977243E-06;0;  7.1214922E-02;  1.0001625E+04;  0.0000000E+00; -2.2780468E-15;  1.0000000E+04;  0.0000000E+00;  9.9953945E+03; -6.5291651E-02;  0.0000000E+00;  1.3650657E-01;  9.0748090E+02;
  1.1800984E+00;  9.9999998E-03;  2.0003822E-02;2859;  6.4092375E-02;  0.0000000E+00;  2.6778725E-03;  1.0023088E+03;  4.0098628E-01;  1.7473721E+03;3;  3.0589796E+01;  0.0000000E+00;  1.0792965E+00;0;  7.2721295E-02;  1.0001546E+04;  0.0000000E+00; -6.3544774E-04;  1.0000000E+04;  0.0000000E+00;  9.9953203E+03; -6.3560776E-02;  0.0000000E+00;  1.3628207E-01;  9.2139777E+02;
  1.1800998E+00;  9.9999998E-03;  4.0007662E-02;2860;  6.5133922E-02;  0.0000000E+00;  5.3015114E-03;  1.0022863E+03;  4.0098628E-01;  1.7303177E+03;3;  3.1189688E+01;  0.0000000E+00;  2.0911443E+00;0;  7.7068560E-02;  1.0001319E+04;  0.0000000E+00; -4.7526802E-03;  1.0000000E+04;  0.0000000E+00;  9.9950996E+03; -5.8623724E-02;  0.0000000E+00;  1.3569228E-01;  9.6326508E+02;
  1.1801021E+00;  9.9999998E-03;  6.0011439E-02;2861;  6.6947579E-02;  0.0000000E+00;  7.7751460E-03;  1.0022510E+03;  4.0098625E-01;  1.7036082E+03;3;  3.2189575E+01;  0.0000000E+00;  2.9728055E+00;0;  8.3666489E-02;  1.0000980E+04;  0.0000000E+00; -1.9372873E-02;  1.0000000E+04;  0.0000000E+00;  9.9947344E+03; -5.1323708E-02;  0.0000000E+00;  1.3499020E-01;  1.0340427E+03;
  1.1801059E+00;  9.9999998E-03;  8.0015279E-02;2862;  6.9738843E-02;  0.0000000E+00;  1.0052905E-02;  1.0022062E+03;  4.0098631E-01;  1.6696785E+03;3;  3.3724667E+01;  0.0000000E+00;  3.5660872E+00;0;  9.1198161E-02;  1.0000597E+04;  0.0000000E+00; -5.8611963E-02;  1.0000000E+04;  0.0000000E+00;  9.9942236E+03; -4.3338045E-02;  0.0000000E+00;  1.3453621E-01;  1.1385505E+03;
  1.1801116E+00;  9.9999998E-03;  1.0001943E-01;2863;  7.3807061E-02;  0.0000000E+00;  1.2037049E-02;  1.0021583E+03;  4.0098625E-01;  1.6333994E+03;3;  3.5825871E+01;  0.0000000E+00;  3.7288547E+00;0;  9.7453341E-02;  1.0000281E+04;  0.0000000E+00; -1.4406486E-01;  1.0000000E+04;  0.0000000E+00;  9.9935830E+03; -3.7132856E-02;  0.0000000E+00;  1.3458620E-01;  1.2938394E+03;
  1.1801200E+00;  9.9999998E-03;  1.2002421E-01;2864;  7.9316586E-02;  0.0000000E+00;  1.3774478E-02;  1.0021171E+03;  4.0098637E-01;  1.6021683E+03;3;  3.8440670E+01;  0.0000000E+00;  3.7087319E+00;0;  9.9103436E-02;  1.0000185E+04;  0.0000000E+00; -3.0056581E-01;  1.0000000E+04;  0.0000000E+00;  9.9928535E+03; -3.5816032E-02;  0.0000000E+00;  1.3491946E-01;  1.5403744E+03;
  1.1801323E+00;  9.9999998E-03;  1.4003073E-01;2865;  8.6709723E-02;  0.0000000E+00;  1.5859211E-02;  1.0020912E+03;  4.0098640E-01;  1.5826587E+03;3;  4.1598782E+01;  0.0000000E+00;  3.8900890E+00;0;  9.3843028E-02;  1.0000429E+04;  0.0000000E+00; -5.3901070E-01;  1.0000000E+04;  0.0000000E+00;  9.9920957E+03; -4.1168645E-02;  0.0000000E+00;  1.3501167E-01;  1.9294956E+03;
  1.2000942E+00;  9.9999998E-03; -1.2320286E-12;2882;  6.1711926E-02;  0.0000000E+00;  1.7637412E-09;  1.0020255E+03;  4.0091616E-01;  1.4934186E+03;3;  2.9751759E+01;  0.0000000E+00; -2.6763882E-07;0;  1.0329631E-01;  9.9993203E+03;  0.0000000E+00; -7.4826365E-15;  1.0000000E+04;  0.0000000E+00;  9.9953867E+03; -2.4928687E-02;  0.0000000E+00;  1.2822500E-01;  7.3160645E+02;
  1.2000947E+00;  9.9999998E-03;  2.0003188E-02;2883;  6.2034003E-02;  0.0000000E+00;  2.2184900E-03;  1.0020188E+03;  4.0091622E-01;  1.4884955E+03;3;  2.9899439E+01;  0.0000000E+00;  8.7663919E-01;0;  1.0430361E-01;  9.9992676E+03;  0.0000000E+00; -3.7292005E-03;  1.0000000E+04;  0.0000000E+00;  9.9953096E+03; -2.3790358E-02;  0.0000000E+00;  1.2809397E-01;  7.4474377E+02;
  1.2000961E+00;  9.9999998E-03;  4.0006451E-02;2884;  6.3136190E-02;  0.0000000E+00;  4.3722950E-03;  1.0019996E+03;  4.0091619E-01;  1.4743413E+03;3;  3.0555025E+01;  0.0000000E+00;  1.6228899E+00;0;  1.0700872E-01;  9.9991221E+03;  0.0000000E+00; -2.0127458E-02;  1.0000000E+04;  0.0000000E+00;  9.9950732E+03; -2.0773521E-02;  0.0000000E+00;  1.2778224E-01;  7.8419604E+02;
  1.2000989E+00;  9.9999998E-03;  6.0009897E-02;2885;  6.5123640E-02;  0.0000000E+00;  6.4512817E-03;  1.0019722E+03;  4.0091628E-01;  1.4541199E+03;3;  3.1746077E+01;  0.0000000E+00;  2.2134204E+00;0;  1.1025078E-01;  9.9989473E+03;  0.0000000E+00; -6.3751139E-02;  1.0000000E+04;  0.0000000E+00;  9.9946973E+03; -1.7282255E-02;  0.0000000E+00;  1.2753303E-01;  8.5283759E+02;
  1.2001033E+00;  9.9999998E-03;  8.0013715E-02;2886;  6.8241194E-02;  0.0000000E+00;  8.3434507E-03;  1.0019420E+03;  4.0091619E-01;  1.4317856E+03;3;  3.3500854E+01;  0.0000000E+00;  2.4526711E+00;0;  1.1209197E-01;  9.9988340E+03;  0.0000000E+00; -1.5464371E-01;  1.0000000E+04;  0.0000000E+00;  9.9942070E+03; -1.5517659E-02;  0.0000000E+00;  1.2760963E-01;  9.6699261E+02;
  1.2001100E+00;  9.9999998E-03;  1.0001810E-01;2887;  7.2738796E-02;  0.0000000E+00;  9.9900197E-03;  1.0019166E+03;  4.0091625E-01;  1.4130507E+03;3;  3.5932293E+01;  0.0000000E+00;  2.3652179E+00;0;  1.1004400E-01;  9.9989053E+03;  0.0000000E+00; -3.1095886E-01;  1.0000000E+04;  0.0000000E+00;  9.9936279E+03; -1.7943531E-02;  0.0000000E+00;  1.2798753E-01;  1.1631256E+03;
  1.2001204E+00;  9.9999998E-03;  1.2002416E-01;2888;  7.9111837E-02;  0.0000000E+00;  1.2050896E-02;  1.0019012E+03;  4.0091625E-01;  1.4017793E+03;3;  3.8949001E+01;  0.0000000E+00;  2.6101127E+00;0;  1.0294560E-01;  9.9992441E+03;  0.0000000E+00; -5.3912681E-01;  1.0000000E+04;  0.0000000E+00;  9.9929854E+03; -2.5727255E-02;  0.0000000E+00;  1.2867285E-01;  1.4794985E+03;
  1.2001367E+00;  9.9999998E-03;  1.4003301E-01;2889;  8.8178769E-02;  0.0000000E+00;  1.5147098E-02;  1.0018884E+03;  4.0091625E-01;  1.3922544E+03;3;  4.2939991E+01;  0.0000000E+00;  3.2415695E+00;0;  9.5924541E-02;  9.9997129E+03;  0.0000000E+00; -8.2609570E-01;  1.0000000E+04;  0.0000000E+00;  9.9922627E+03; -3.4647528E-02;  0.0000000E+00;  1.3057207E-01;  1.9186243E+03;
  1.2200918E+00;  9.9999998E-03; -9.5437696E-14;2905;  6.0199317E-02;  0.0000000E+00; -1.7156072E-10;  1.0017754E+03;  4.0086445E-01;  1.2681382E+03;3;  2.9421232E+01;  0.0000000E+00; -2.9324437E-06;0;  1.3684614E-01;  9.9971406E+03;  0.0000000E+00; -2.9952603E-15;  1.0000000E+04;  0.0000000E+00;  9.9951533E+03;  1.1037790E-02;  0.0000000E+00;  1.2580834E-01;  5.9480872E+02;
  1.2200924E+00;  9.9999998E-03;  2.0003036E-02;2906;  6.0586940E-02;  0.0000000E+00;  1.9804989E-03;  1.0017714E+03;  4.0086448E-01;  1.2653271E+03;3;  2.9685318E+01;  0.0000000E+00;  6.8346524E-01;0;  1.3662495E-01;  9.9971396E+03;  0.0000000E+00; -9.9833794E-03;  1.0000000E+04;  0.0000000E+00;  9.9950771E+03;  1.0989903E-02;  0.0000000E+00;  1.2563504E-01;  6.0668359E+02;
  1.2200942E+00;  9.9999998E-03;  4.0006254E-02;2907;  6.1834343E-02;  0.0000000E+00;  3.8674236E-03;  1.0017610E+03;  4.0086451E-01;  1.2579150E+03;3;  3.0479675E+01;  0.0000000E+00;  1.1816018E+00;0;  1.3551201E-01;  9.9971592E+03;  0.0000000E+00; -4.7427163E-02;  1.0000000E+04;  0.0000000E+00;  9.9948545E+03;  1.0373538E-02;  0.0000000E+00;  1.2513848E-01;  6.4386914E+02;
  1.2200975E+00;  9.9999998E-03;  6.0009915E-02;2908;  6.4100467E-02;  0.0000000E+00;  5.6356038E-03;  1.0017493E+03;  4.0086451E-01;  1.2494781E+03;3;  3.1876904E+01;  0.0000000E+00;  1.3941244E+00;0;  1.3204049E-01;  9.9972607E+03;  0.0000000E+00; -1.3073102E-01;  1.0000000E+04;  0.0000000E+00;  9.9945146E+03;  7.6250131E-03;  0.0000000E+00;  1.2441548E-01;  7.1680286E+02;
  1.2201034E+00;  9.9999998E-03;  8.0014594E-02;2909;  6.7801021E-02;  0.0000000E+00;  7.4585020E-03;  1.0017410E+03;  4.0086451E-01;  1.2435902E+03;3;  3.4032997E+01;  0.0000000E+00;  1.3186725E+00;0;  1.2498053E-01;  9.9975234E+03;  0.0000000E+00; -2.7879930E-01;  1.0000000E+04;  0.0000000E+00;  9.9940879E+03;  1.2374872E-03;  0.0000000E+00;  1.2374304E-01;  8.5568951E+02;
  1.2201130E+00;  9.9999998E-03;  1.0002091E-01;2910;  7.3505677E-02;  0.0000000E+00;  9.6772695E-03;  1.0017366E+03;  4.0086463E-01;  1.2403337E+03;3;  3.6963516E+01;  0.0000000E+00;  1.4248581E+00;0;  1.1537892E-01;  9.9979443E+03;  0.0000000E+00; -4.9829030E-01;  1.0000000E+04;  0.0000000E+00;  9.9935762E+03; -8.3396025E-03;  0.0000000E+00;  1.2371852E-01;  1.0956327E+03;
  1.2201284E+00;  9.9999998E-03;  1.2002945E-01;2911;  8.1890285E-02;  0.0000000E+00;  1.2932857E-02;  1.0017224E+03;  4.0086454E-01;  1.2301687E+03;3;  4.0679382E+01;  0.0000000E+00;  2.4016860E+00;0;  1.1110786E-01;  9.9982959E+03;  0.0000000E+00; -7.7811605E-01;  1.0000000E+04;  0.0000000E+00;  9.9929453E+03; -1.5040033E-02;  0.0000000E+00;  1.2614790E-01;  1.4405073E+03;
  1.2201490E+00;  9.9999998E-03;  1.4003950E-01;2912;  9.2362709E-02;  0.0000000E+00;  1.6811153E-02;  1.0016794E+03;  4.0086448E-01;  1.1994739E+03;3;  4.5781414E+01;  0.0000000E+00;  3.5773985E+00;0;  1.2024803E-01;  9.9982158E+03;  0.0000000E+00; -1.0710491E+00;  1.0000000E+04;  0.0000000E+00;  9.9921699E+03; -1.1925251E-02;  0.0000000E+00;  1.3217328E-01;  1.8304694E+03;
  1.2400932E+00;  9.9999998E-03; -2.4867432E-12;2926;  5.9752468E-02;  0.0000000E+00;  5.2300642E-10;  1.0015859E+03;  4.0082729E-01;  1.0911428E+03;3;  2.9817394E+01;  0.0000000E+00;  4.1130115E-06;0;  1.6108865E-01;  9.9956162E+03;  0.0000000E+00;  1.1483454E-14;  1.0000000E+04;  0.0000000E+00;  9.9947539E+03;  3.2773279E-02;  0.0000000E+00;  1.2831536E-01;  4.9236774E+02;
  1.2400941E+00;  9.9999998E-03;  2.0003781E-02;2927;  6.0206674E-02;  0.0000000E+00;  2.0766777E-03;  1.0015853E+03;  4.0082723E-01;  1.0907310E+03;3;  3.0047949E+01;  0.0000000E+00;  5.4093015E-01;0;  1.5919507E-01;  9.9956777E+03;  0.0000000E+00; -1.6625389E-02;  1.0000000E+04;  0.0000000E+00;  9.9946826E+03;  3.1194193E-02;  0.0000000E+00;  1.2800087E-01;  5.0317166E+02;
  1.2400968E+00;  9.9999998E-03;  4.0008157E-02;2928;  6.1861478E-02;  0.0000000E+00;  4.2056176E-03;  1.0015838E+03;  4.0082717E-01;  1.0896586E+03;3;  3.1148058E+01;  0.0000000E+00;  7.9615265E-01;0;  1.5386799E-01;  9.9958525E+03;  0.0000000E+00; -7.4715674E-02;  1.0000000E+04;  0.0000000E+00;  9.9944795E+03;  2.6795721E-02;  0.0000000E+00;  1.2707227E-01;  5.3908032E+02;
  1.2401025E+00;  9.9999998E-03;  6.0013641E-02;2929;  6.5076910E-02;  0.0000000E+00;  6.4572128E-03;  1.0015818E+03;  4.0082717E-01;  1.0882520E+03;3;  3.2946251E+01;  0.0000000E+00;  7.7678710E-01;0;  1.4590254E-01;  9.9961182E+03;  0.0000000E+00; -1.9308044E-01;  1.0000000E+04;  0.0000000E+00;  9.9941738E+03;  2.0139556E-02;  0.0000000E+00;  1.2576298E-01;  6.1622772E+02;
  1.2401124E+00;  9.9999998E-03;  8.0020577E-02;2930;  7.0489123E-02;  0.0000000E+00;  9.1844685E-03;  1.0015726E+03;  4.0082726E-01;  1.0819152E+03;3;  3.5805641E+01;  0.0000000E+00;  9.7895861E-01;0;  1.3975126E-01;  9.9963467E+03;  0.0000000E+00; -3.8852498E-01;  1.0000000E+04;  0.0000000E+00;  9.9937627E+03;  1.4532276E-02;  0.0000000E+00;  1.2521897E-01;  7.6700793E+02;
  1.2401271E+00;  9.9999998E-03;  1.0002848E-01;2931;  7.8263491E-02;  0.0000000E+00;  1.2302235E-02;  1.0015440E+03;  4.0082732E-01;  1.0622004E+03;3;  3.9332737E+01;  0.0000000E+00;  1.8563362E+00;0;  1.4271683E-01;  9.9962969E+03;  0.0000000E+00; -6.5370280E-01;  1.0000000E+04;  0.0000000E+00;  9.9932490E+03;  1.5932685E-02;  0.0000000E+00;  1.2678415E-01;  1.0058967E+03;
  1.2401447E+00;  9.9999998E-03;  1.2003703E-01;2932;  8.6964421E-02;  0.0000000E+00;  1.5707327E-02;  1.0014936E+03;  4.0082729E-01;  1.0274736E+03;3;  4.3801273E+01;  0.0000000E+00;  3.2383168E+00;0;  1.5416822E-01;  9.9959131E+03;  0.0000000E+00; -9.2366749E-01;  1.0000000E+04;  0.0000000E+00;  9.9926230E+03;  2.2516087E-02;  0.0000000E+00;  1.3165213E-01;  1.2790988E+03;
  1.2401623E+00;  9.9999998E-03;  1.4004602E-01;2933;  9.5898859E-02;  0.0000000E+00;  1.8536631E-02;  1.0014341E+03;  4.0082729E-01;  9.8651703E+02;3;  5.0019726E+01;  0.0000000E+00;  4.0644784E+00;0;  1.7056772E-01;  9.9954541E+03;  0.0000000E+00; -1.0423301E+00;  1.0000000E+04;  0.0000000E+00;  9.9918975E+03;  3.3785619E-02;  0.0000000E+00;  1.3678211E-01;  1.4331682E+03;
  1.2601122E+00;  9.9999998E-03; -8.1414687E-13;2944;  6.5190770E-02;  0.0000000E+00;  1.4675461E-10;  1.0013701E+03;  4.0080088E-01;  9.0300299E+02;3;  3.0389147E+01;  0.0000000E+00; -9.4261486E-07;0;  2.0318647E-01;  9.9931123E+03;  0.0000000E+00; -5.2597443E-15;  1.0000000E+04;  0.0000000E+00;  9.9942725E+03;  6.9192722E-02;  0.0000000E+00;  1.3399374E-01;  3.7037094E+02;
  1.2601134E+00;  9.9999998E-03;  2.0005103E-02;2945;  6.5817207E-02;  0.0000000E+00;  2.8278099E-03;  1.0013683E+03;  4.0080085E-01;  9.0190070E+02;3;  3.0736408E+01;  0.0000000E+00;  1.0487597E+00;0;  2.0169094E-01;  9.9931455E+03;  0.0000000E+00; -2.0029262E-02;  1.0000000E+04;  0.0000000E+00;  9.9942061E+03;  6.7993343E-02;  0.0000000E+00;  1.3369760E-01;  3.7857401E+02;
  1.2601171E+00;  9.9999998E-03;  4.0011078E-02;2946;  6.7808531E-02;  0.0000000E+00;  5.9691663E-03;  1.0013625E+03;  4.0080091E-01;  8.9804327E+02;3;  3.1953159E+01;  0.0000000E+00;  2.0704284E+00;0;  1.9810525E-01;  9.9932178E+03;  0.0000000E+00; -8.8920735E-02;  1.0000000E+04;  0.0000000E+00;  9.9940156E+03;  6.5017961E-02;  0.0000000E+00;  1.3308729E-01;  4.0758875E+02;
  1.2601235E+00;  9.9999998E-03;  6.0018398E-02;2947;  7.1484290E-02;  0.0000000E+00;  9.3023162E-03;  1.0013495E+03;  4.0080091E-01;  8.8946613E+02;3;  3.4575115E+01;  0.0000000E+00;  2.5811422E+00;0;  1.9590014E-01;  9.9932715E+03;  0.0000000E+00; -2.2468308E-01;  1.0000000E+04;  0.0000000E+00;  9.9937051E+03;  6.2893309E-02;  0.0000000E+00;  1.3300683E-01;  4.7585745E+02;
  1.2601329E+00;  9.9999998E-03;  8.0026686E-02;2948;  7.6718241E-02;  0.0000000E+00;  1.2356255E-02;  1.0013260E+03;  4.0080082E-01;  8.7389130E+02;3;  3.8258625E+01;  0.0000000E+00;  2.5886989E+00;0;  1.9713143E-01;  9.9932354E+03;  0.0000000E+00; -4.2627332E-01;  1.0000000E+04;  0.0000000E+00;  9.9932734E+03;  6.3128479E-02;  0.0000000E+00;  1.3400295E-01;  6.0525085E+02;
  1.2601436E+00;  9.9999998E-03;  1.0003508E-01;2949;  8.2525425E-02;  0.0000000E+00;  1.4922138E-02;  1.0013003E+03;  4.0080091E-01;  8.5697852E+02;3;  4.2539909E+01;  0.0000000E+00;  2.8802016E+00;0;  1.9677696E-01;  9.9932510E+03;  0.0000000E+00; -6.2500799E-01;  1.0000000E+04;  0.0000000E+00;  9.9927461E+03;  6.1324563E-02;  0.0000000E+00;  1.3545239E-01;  7.6370801E+02;
  1.2601551E+00;  9.9999998E-03;  1.2004283E-01;2950;  8.8947400E-02;  0.0000000E+00;  1.6778033E-02;  1.0012824E+03;  4.0080085E-01;  8.4517206E+02;3;  4.7977848E+01;  0.0000000E+00;  3.2988496E+00;0;  1.9515696E-01;  9.9934375E+03;  0.0000000E+00; -6.6957986E-01;  1.0000000E+04;  0.0000000E+00;  9.9921982E+03;  6.0337804E-02;  0.0000000E+00;  1.3481916E-01;  8.3665948E+02;
  1.2601659E+00;  9.9999998E-03;  1.4004982E-01;2951;  9.5548414E-02;  0.0000000E+00;  1.8323516E-02;  1.0012837E+03;  4.0080091E-01;  8.4593677E+02;3;  5.4514843E+01;  0.0000000E+00;  4.2405982E+00;0;  1.9169402E-01;  9.9939502E+03;  0.0000000E+00; -3.8268808E-01;  1.0000000E+04;  0.0000000E+00;  9.9917129E+03;  6.0275961E-02;  0.0000000E+00;  1.3141806E-01;  7.4129010E+02;
  1.2801328E+00;  9.9999998E-03;  2.7110608E-12;2959;  7.1357183E-02;  0.0000000E+00;  7.9365570E-10;  1.0011006E+03;  4.0078259E-01;  6.9190692E+02;3;  3.3450653E+01;  0.0000000E+00; -1.3649696E-07;0;  2.7516907E-01;  9.9891426E+03;  0.0000000E+00; -3.7267870E-15;  1.0000000E+04;  0.0000000E+00;  9.9937832E+03;  1.3426624E-01;  0.0000000E+00;  1.4090282E-01;  2.0783153E+02;
  1.2801334E+00;  9.9999998E-03;  2.0005880E-02;2960;  7.1633294E-02;  0.0000000E+00;  3.0028208E-03;  1.0011057E+03;  4.0078253E-01;  6.9505353E+02;3;  3.3721275E+01;  0.0000000E+00;  1.1518465E+00;0;  2.6985911E-01;  9.9892998E+03;  0.0000000E+00; -1.3888132E-02;  1.0000000E+04;  0.0000000E+00;  9.9937236E+03;  1.2938723E-01;  0.0000000E+00;  1.4047188E-01;  2.1749480E+02;
  1.2801349E+00;  9.9999998E-03;  4.0012911E-02;2961;  7.2429769E-02;  0.0000000E+00;  6.4619579E-03;  1.0011215E+03;  4.0078256E-01;  7.0494269E+02;3;  3.4595230E+01;  0.0000000E+00;  2.4450386E+00;0;  2.5374705E-01;  9.9897998E+03;  0.0000000E+00; -5.9876878E-02;  1.0000000E+04;  0.0000000E+00;  9.9935430E+03;  1.1404587E-01;  0.0000000E+00;  1.3970119E-01;  2.4972192E+02;
  1.2801374E+00;  9.9999998E-03;  6.0021728E-02;2962;  7.3992468E-02;  0.0000000E+00;  1.0302711E-02;  1.0011481E+03;  4.0078256E-01;  7.2172430E+02;3;  3.6940376E+01;  0.0000000E+00;  3.2322316E+00;0;  2.3015365E-01;  9.9906641E+03;  0.0000000E+00; -1.3924690E-01;  1.0000000E+04;  0.0000000E+00;  9.9932080E+03;  8.9760877E-02;  0.0000000E+00;  1.4039277E-01;  3.1346286E+02;
  1.2801412E+00;  9.9999998E-03;  8.0031320E-02;2963;  7.7173062E-02;  0.0000000E+00;  1.3157474E-02;  1.0011789E+03;  4.0078250E-01;  7.4105133E+02;3;  4.1314590E+01;  0.0000000E+00;  2.6644721E+00;0;  2.1181643E-01;  9.9917910E+03;  0.0000000E+00; -2.0969038E-01;  1.0000000E+04;  0.0000000E+00;  9.9926924E+03;  7.0915617E-02;  0.0000000E+00;  1.4090082E-01;  4.0170566E+02;
  1.2801472E+00;  9.9999998E-03;  1.0003963E-01;2964;  8.1859134E-02;  0.0000000E+00;  1.4943242E-02;  1.0012026E+03;  4.0078259E-01;  7.5595276E+02;3;  4.6458916E+01;  0.0000000E+00;  2.6504607E+00;0;  2.0107347E-01;  9.9928057E+03;  0.0000000E+00; -1.5504976E-01;  1.0000000E+04;  0.0000000E+00;  9.9921504E+03;  6.3670613E-02;  0.0000000E+00;  1.3740285E-01;  4.6484341E+02;
  1.2801533E+00;  9.9999998E-03;  1.2004565E-01;2965;  8.6603798E-02;  0.0000000E+00;  1.5919628E-02;  1.0012568E+03;  4.0078264E-01;  7.9003687E+02;3;  5.2040718E+01;  0.0000000E+00;  3.2509701E+00;0;  1.7691991E-01;  9.9942002E+03;  0.0000000E+00;  1.3901980E-01;  1.0000000E+04;  0.0000000E+00;  9.9918369E+03;  4.9295958E-02;  0.0000000E+00;  1.2762395E-01;  5.3034235E+02;
  1.3001335E+00;  9.9999998E-03;  1.7534737E-12;2970;  6.8679683E-02;  0.0000000E+00;  2.0324697E-10;  1.0011371E+03;  4.0077010E-01;  6.7995514E+02;3;  3.6170460E+01;  0.0000000E+00; -1.3487006E-06;0;  2.2232890E-01;  9.9909287E+03;  0.0000000E+00; -6.0976221E-15;  1.0000000E+04;  0.0000000E+00;  9.9933418E+03;  7.4692287E-02;  0.0000000E+00;  1.4763661E-01;  2.0350545E+02;
  1.3001336E+00;  9.9999998E-03;  2.0006634E-02;2971;  6.8859443E-02;  0.0000000E+00;  3.1769481E-03;  1.0011489E+03;  4.0077010E-01;  6.8694049E+02;3;  3.6483299E+01;  0.0000000E+00;  1.3458940E+00;0;  2.1548946E-01;  9.9912158E+03;  0.0000000E+00;  2.8633629E-03;  1.0000000E+04;  0.0000000E+00;  9.9932861E+03;  6.8350881E-02;  0.0000000E+00;  1.4713858E-01;  2.1587529E+02;
  1.3001339E+00;  9.9999998E-03;  4.0014740E-02;2972;  6.9422655E-02;  0.0000000E+00;  6.8895570E-03;  1.0011829E+03;  4.0077016E-01;  7.0732654E+02;3;  3.7608002E+01;  0.0000000E+00;  2.7238920E+00;0;  1.9625768E-01;  9.9920977E+03;  0.0000000E+00;  2.0578774E-02;  1.0000000E+04;  0.0000000E+00;  9.9930850E+03;  4.9596641E-02;  0.0000000E+00;  1.4666104E-01;  2.5562762E+02;
  1.3001347E+00;  9.9999998E-03;  6.0024735E-02;2973;  7.1303435E-02;  0.0000000E+00;  1.0282002E-02;  1.0012282E+03;  4.0077010E-01;  7.3441199E+02;3;  4.1195484E+01;  0.0000000E+00;  2.4811108E+00;0;  1.7960703E-01;  9.9934385E+03;  0.0000000E+00;  8.8516854E-02;  1.0000000E+04;  0.0000000E+00;  9.9926484E+03;  3.2729309E-02;  0.0000000E+00;  1.4687772E-01;  3.3015323E+02;
  1.3001369E+00;  9.9999998E-03;  8.0034524E-02;2974;  7.4491024E-02;  0.0000000E+00;  1.2525002E-02;  1.0012633E+03;  4.0077001E-01;  7.5536444E+02;3;  4.5342365E+01;  0.0000000E+00;  2.3022730E+00;0;  1.6876882E-01;  9.9947861E+03;  0.0000000E+00;  2.6783663E-01;  1.0000000E+04;  0.0000000E+00;  9.9919971E+03;  2.5208790E-02;  0.0000000E+00;  1.4356004E-01;  4.3994724E+02;
 -4.9415723E-07;  9.9999998E-03;  1.6000004E-01;1053; -5.6377624E-04;  0.0000000E+00;  4.7490783E-05;  1.0000112E+03;  4.0000001E-01;  9.2836866E+00;3; -5.6170893E-01;  0.0000000E+00;  4.4814885E-02;0; -1.1029493E-02;  1.0000233E+04;  0.0000000E+00; -7.8331758E-10;  1.0000000E+04;  0.0000000E+00;  9.9999922E+03; -1.1462374E-02;  0.0000000E+00;  4.3288100E-04;  4.4766364E+00;
 -4.7979137E-07;  9.9999998E-03;  1.8000005E-01;1054; -5.4858346E-04;  0.0000000E+00;  6.1404746E-05;  1.0000108E+03;  4.0000001E-01;  8.9873991E+00;3; -5.4761899E-01;  0.0000000E+00;  5.9064128E-02;0; -1.0688941E-02;  1.0000223E+04;  0.0000000E+00; -6.8165362E-10;  1.0000000E+04;  0.0000000E+00;  9.9999922E+03; -1.1137245E-02;  0.0000000E+00;  4.4830467E-04;  4.5391326E+00;
 -4.5883752E-07;  9.9999998E-03;  2.0000006E-01;1055; -5.2552705E-04;  0.0000000E+00;  7.6513330E-05;  1.0000103E+03;  4.0000001E-01;  8.5923481E+00;3; -5.2610540E-01;  0.0000000E+00;  7.4757978E-02;0; -1.0223910E-02;  1.0000215E+04;  0.0000000E+00;  4.7569765E-10;  1.0000000E+04;  0.0000000E+00;  9.9999932E+03; -1.0632221E-02;  0.0000000E+00;  4.0830998E-04;  4.1317339E+00;
 -4.2942648E-07;  9.9999998E-03;  2.2000009E-01;1056; -4.9232016E-04;  0.0000000E+00;  9.2398266E-05;  1.0000098E+03;  4.0000001E-01;  8.0985355E+00;3; -4.9564457E-01;  0.0000000E+00;  9.1703326E-02;0; -9.6059870E-03;  1.0000201E+04;  0.0000000E+00;  5.4119254E-10;  1.0000000E+04;  0.0000000E+00;  9.9999951E+03; -9.8928381E-03;  0.0000000E+00;  2.8685064E-04;  3.0267386E+00;
 -3.9040955E-07;  9.9999998E-03;  2.4000010E-01;1057; -4.4760635E-04;  0.0000000E+00;  1.0677432E-04;  1.0000089E+03;  4.0000001E-01;  7.4071970E+00;3; -4.5553172E-01;  0.0000000E+00;  1.0798906E-01;0; -8.8001704E-03;  1.0000180E+04;  0.0000000E+00;  5.7543520E-10;  1.0000000E+04;  0.0000000E+00;  1.0000000E+04; -8.8753039E-03;  0.0000000E+00;  7.5133634E-05;  1.1411533E+00;
 -3.4039056E-07;  9.9999998E-03;  2.6000011E-01;1058; -3.8994019E-04;  0.0000000E+00;  1.1822875E-04;  1.0000078E+03;  4.0000001E-01;  6.4195704E+00;3; -4.0436029E-01;  0.0000000E+00;  1.2231880E-01;0; -7.7759856E-03;  1.0000154E+04;  0.0000000E+00; -1.7007922E-09;  1.0000000E+04;  0.0000000E+00;  1.0000004E+04; -7.5727412E-03;  0.0000000E+00; -2.0324450E-04;  1.3276751E+00;
 -2.8110537E-07;  9.9999998E-03;  2.8000012E-01;1059; -3.2152736E-04;  0.0000000E+00;  1.2283045E-04;  1.0000066E+03;  4.0000001E-01;  5.4319444E+00;3; -3.4246713E-01;  0.0000000E+00;  1.3095039E-01;0; -6.5271277E-03;  1.0000122E+04;  0.0000000E+00; -7.0112600E-09;  1.0000000E+04;  0.0000000E+00;  1.0000010E+04; -6.0451068E-03;  0.0000000E+00; -4.8202067E-04;  3.8142529E+00;
  1.9999282E-02;  9.9999998E-03;  1.6000006E-01;1083; -8.1124692E-04;  0.0000000E+00;  6.5033571E-05;  1.0000138E+03;  4.0000001E-01;  1.1456465E+01;3; -7.5207853E-01;  0.0000000E+00;  5.6348335E-02;0; -1.3362337E-02;  1.0000289E+04;  0.0000000E+00; -2.5591109E-11;  1.0000000E+04;  0.0000000E+00;  9.9999883E+03; -1.3950273E-02;  0.0000000E+00;  5.8793649E-04;  6.0940127E+00;
  1.9999301E-02;  9.9999998E-03;  1.8000008E-01;1084; -7.9157244E-04;  0.0000000E+00;  8.3520579E-05;  1.0000132E+03;  4.0000001E-01;  1.0962651E+01;3; -7.3544168E-01;  0.0000000E+00;  7.3832266E-02;0; -1.2988647E-02;  1.0000279E+04;  0.0000000E+00;  7.3630801E-10;  1.0000000E+04;  0.0000000E+00;  9.9999883E+03; -1.3599858E-02;  0.0000000E+00;  6.1121129E-04;  6.2063556E+00;
  1.9999331E-02;  9.9999998E-03;  2.0000009E-01;1085; -7.6001324E-04;  0.0000000E+00;  1.0386550E-04;  1.0000128E+03;  4.0000001E-01;  1.0567601E+01;3; -7.0847595E-01;  0.0000000E+00;  9.3448982E-02;0; -1.2472379E-02;  1.0000269E+04;  0.0000000E+00;  2.2827933E-09;  1.0000000E+04;  0.0000000E+00;  9.9999902E+03; -1.3033800E-02;  0.0000000E+00;  5.6142092E-04;  5.6867533E+00;
  1.9999372E-02;  9.9999998E-03;  2.2000012E-01;1086; -7.1313285E-04;  0.0000000E+00;  1.2429642E-04;  1.0000121E+03;  4.0000001E-01;  9.9750252E+00;3; -6.6943526E-01;  0.0000000E+00;  1.1376974E-01;0; -1.1777734E-02;  1.0000249E+04;  0.0000000E+00;  4.1866355E-09;  1.0000000E+04;  0.0000000E+00;  9.9999932E+03; -1.2181014E-02;  0.0000000E+00;  4.0327918E-04;  4.2196813E+00;
  1.9999430E-02;  9.9999998E-03;  2.4000013E-01;1087; -6.4781064E-04;  0.0000000E+00;  1.4142781E-04;  1.0000111E+03;  4.0000001E-01;  9.1849241E+00;3; -6.1661434E-01;  0.0000000E+00;  1.3232152E-01;0; -1.0858392E-02;  1.0000225E+04;  0.0000000E+00;  5.1268616E-09;  1.0000000E+04;  0.0000000E+00;  9.9999980E+03; -1.0981940E-02;  0.0000000E+00;  1.2354710E-04;  1.6789787E+00;
  1.9999506E-02;  9.9999998E-03;  2.6000014E-01;1088; -5.6094048E-04;  0.0000000E+00;  1.5295978E-04;  1.0000099E+03;  4.0000001E-01;  8.1972980E+00;3; -5.4680169E-01;  0.0000000E+00;  1.4735472E-01;0; -9.6717710E-03;  1.0000193E+04;  0.0000000E+00;  2.7243592E-09;  1.0000000E+04;  0.0000000E+00;  1.0000005E+04; -9.4224289E-03;  0.0000000E+00; -2.4934200E-04;  1.6916730E+00;
  1.9999599E-02;  9.9999998E-03;  2.8000015E-01;1089; -4.5286008E-04;  0.0000000E+00;  1.5516355E-04;  1.0000085E+03;  4.0000001E-01;  7.0121465E+00;3; -4.5694870E-01;  0.0000000E+00;  1.5520224E-01;0; -8.2038511E-03;  1.0000155E+04;  0.0000000E+00; -2.0909743E-09;  1.0000000E+04;  0.0000000E+00;  1.0000013E+04; -7.5721079E-03;  0.0000000E+00; -6.3174346E-04;  5.1604581E+00;
  1.9999711E-02;  9.9999998E-03;  3.0000013E-01;1090; -3.2582704E-04;  0.0000000E+00;  1.6473720E-04;  1.0000067E+03;  4.0000001E-01;  5.5307069E+00;3; -3.4240890E-01;  0.0000000E+00;  1.7372334E-01;0; -6.4994660E-03;  1.0000113E+04;  0.0000000E+00; -1.1048675E-08;  1.0000000E+04;  0.0000000E+00;  1.0000019E+04; -5.6037516E-03;  0.0000000E+00; -8.9571456E-04;  7.6183195E+00;
  3.9998990E-02;  9.9999998E-03;  1.6000007E-01;1114; -1.1322956E-03;  0.0000000E+00;  7.7966528E-05;  1.0000164E+03;  4.0000001E-01;  1.3530479E+01;3; -9.8762584E-01;  0.0000000E+00;  6.1862536E-02;0; -1.5620051E-02;  1.0000344E+04;  0.0000000E+00;  1.1389043E-10;  1.0000000E+04;  0.0000000E+00;  9.9999863E+03; -1.6355477E-02;  0.0000000E+00;  7.3542586E-04;  7.7599053E+00;
  3.9999012E-02;  9.9999998E-03;  1.8000010E-01;1115; -1.1077698E-03;  0.0000000E+00;  9.9553501E-05;  1.0000160E+03;  4.0000001E-01;  1.3234192E+01;3; -9.6849465E-01;  0.0000000E+00;  8.0712870E-02;0; -1.5240437E-02;  1.0000338E+04;  0.0000000E+00;  1.6676418E-09;  1.0000000E+04;  0.0000000E+00;  9.9999854E+03; -1.6009120E-02;  0.0000000E+00;  7.6868298E-04;  7.9446707E+00;
  3.9999053E-02;  9.9999998E-03;  2.0000012E-01;1116; -1.0665926E-03;  0.0000000E+00;  1.2301530E-04;  1.0000154E+03;  4.0000001E-01;  1.2740378E+01;3; -9.3589151E-01;  0.0000000E+00;  1.0160062E-01;0; -1.4701146E-02;  1.0000323E+04;  0.0000000E+00;  3.1166212E-09;  1.0000000E+04;  0.0000000E+00;  9.9999863E+03; -1.5414696E-02;  0.0000000E+00;  7.1355078E-04;  7.3423829E+00;
  3.9999109E-02;  9.9999998E-03;  2.2000013E-01;1117; -1.0031268E-03;  0.0000000E+00;  1.4658448E-04;  1.0000146E+03;  4.0000001E-01;  1.2147802E+01;3; -8.8720214E-01;  0.0000000E+00;  1.2331624E-01;0; -1.3956239E-02;  1.0000305E+04;  0.0000000E+00;  5.3288436E-09;  1.0000000E+04;  0.0000000E+00;  9.9999902E+03; -1.4481004E-02;  0.0000000E+00;  5.2476558E-04;  5.5368629E+00;
  3.9999187E-02;  9.9999998E-03;  2.4000016E-01;1118; -9.1273990E-04;  0.0000000E+00;  1.6547543E-04;  1.0000136E+03;  4.0000001E-01;  1.1258939E+01;3; -8.2050622E-01;  0.0000000E+00;  1.4254633E-01;0; -1.2943757E-02;  1.0000274E+04;  0.0000000E+00;  5.9409087E-09;  1.0000000E+04;  0.0000000E+00;  9.9999971E+03; -1.3126885E-02;  0.0000000E+00;  1.8312785E-04;  2.3428986E+00;
  3.9999295E-02;  9.9999998E-03;  2.6000017E-01;1119; -7.9043402E-04;  0.0000000E+00;  1.7922063E-04;  1.0000121E+03;  4.0000001E-01;  1.0073788E+01;3; -7.3098433E-01;  0.0000000E+00;  1.5982133E-01;0; -1.1603630E-02;  1.0000237E+04;  0.0000000E+00;  1.6740134E-09;  1.0000000E+04;  0.0000000E+00;  1.0000006E+04; -1.1323590E-02;  0.0000000E+00; -2.8004061E-04;  1.9617010E+00;
  3.9999429E-02;  9.9999998E-03;  2.8000018E-01;1120; -6.3885085E-04;  0.0000000E+00;  1.8380022E-04;  1.0000104E+03;  4.0000001E-01;  8.5923481E+00;3; -6.1563206E-01;  0.0000000E+00;  1.7205429E-01;0; -9.9101597E-03;  1.0000191E+04;  0.0000000E+00; -6.0352554E-09;  1.0000000E+04;  0.0000000E+00;  1.0000017E+04; -9.1439309E-03;  0.0000000E+00; -7.6622906E-04;  6.4853210E+00;
  3.9999586E-02;  9.9999998E-03;  3.0000016E-01;1121; -4.6097414E-04;  0.0000000E+00;  1.8924690E-04;  1.0000082E+03;  4.0000001E-01;  6.8146210E+00;3; -4.6665269E-01;  0.0000000E+00;  1.8905747E-01;0; -7.9189716E-03;  1.0000143E+04;  0.0000000E+00; -1.2887195E-08;  1.0000000E+04;  0.0000000E+00;  1.0000024E+04; -6.7943381E-03;  0.0000000E+00; -1.1246338E-03;  9.8762426E+00;
  5.9998631E-02;  9.9999998E-03;  1.6000009E-01;1145; -1.5114613E-03;  0.0000000E+00;  8.6732805E-05;  1.0000195E+03;  4.0000001E-01;  1.6197071E+01;3; -1.2576610E+00;  0.0000000E+00;  6.2962063E-02;0; -1.8075278E-02;  1.0000411E+04;  0.0000000E+00;  7.5974699E-10;  1.0000000E+04;  0.0000000E+00;  9.9999814E+03; -1.8942717E-02;  0.0000000E+00;  8.6743955E-04;  9.4594355E+00;
  5.9998661E-02;  9.9999998E-03;  1.8000011E-01;1146; -1.4827407E-03;  0.0000000E+00;  1.1065069E-04;  1.0000191E+03;  4.0000001E-01;  1.5802020E+01;3; -1.2367220E+00;  0.0000000E+00;  8.2284898E-02;0; -1.7711904E-02;  1.0000401E+04;  0.0000000E+00;  9.7284669E-10;  1.0000000E+04;  0.0000000E+00;  9.9999814E+03; -1.8624997E-02;  0.0000000E+00;  9.1309269E-04;  9.7439852E+00;
  5.9998710E-02;  9.9999998E-03;  2.0000014E-01;1147; -1.4320182E-03;  0.0000000E+00;  1.3704096E-04;  1.0000185E+03;  4.0000001E-01;  1.5308207E+01;3; -1.1988487E+00;  0.0000000E+00;  1.0408258E-01;0; -1.7168472E-02;  1.0000388E+04;  0.0000000E+00;  2.1812827E-09;  1.0000000E+04;  0.0000000E+00;  9.9999814E+03; -1.8027114E-02;  0.0000000E+00;  8.5864199E-04;  9.1005926E+00;
  5.9998784E-02;  9.9999998E-03;  2.2000016E-01;1148; -1.3513722E-03;  0.0000000E+00;  1.6348029E-04;  1.0000176E+03;  4.0000001E-01;  1.4518106E+01;3; -1.1408817E+00;  0.0000000E+00;  1.2668328E-01;0; -1.6385358E-02;  1.0000368E+04;  0.0000000E+00;  1.5113371E-09;  1.0000000E+04;  0.0000000E+00;  9.9999863E+03; -1.7033201E-02;  0.0000000E+00;  6.4784370E-04;  6.9955034E+00;
  5.9998889E-02;  9.9999998E-03;  2.4000017E-01;1149; -1.2339163E-03;  0.0000000E+00;  1.8488918E-04;  1.0000165E+03;  4.0000001E-01;  1.3629242E+01;3; -1.0604144E+00;  0.0000000E+00;  1.4712372E-01;0; -1.5279998E-02;  1.0000333E+04;  0.0000000E+00; -2.4269093E-09;  1.0000000E+04;  0.0000000E+00;  9.9999961E+03; -1.5533306E-02;  0.0000000E+00;  2.5330792E-04;  3.1614902E+00;
  5.9999034E-02;  9.9999998E-03;  2.6000020E-01;1150; -1.0731790E-03;  0.0000000E+00;  2.0066470E-04;  1.0000148E+03;  4.0000001E-01;  1.2246566E+01;3; -9.5197421E-01;  0.0000000E+00;  1.6597223E-01;0; -1.3769925E-02;  1.0000287E+04;  0.0000000E+00; -9.9280131E-09;  1.0000000E+04;  0.0000000E+00;  1.0000007E+04; -1.3476452E-02;  0.0000000E+00; -2.9347325E-04;  2.1076803E+00;
  5.9999213E-02;  9.9999998E-03;  2.8000021E-01;1151; -8.7191985E-04;  0.0000000E+00;  2.0608334E-04;  1.0000128E+03;  4.0000001E-01;  1.0567601E+01;3; -8.1023115E-01;  0.0000000E+00;  1.8035460E-01;0; -1.1816995E-02;  1.0000233E+04;  0.0000000E+00; -3.8852221E-07;  1.0000000E+04;  0.0000000E+00;  1.0000019E+04; -1.0936227E-02;  0.0000000E+00; -8.8076817E-04;  7.7569218E+00;
  5.9999425E-02;  9.9999998E-03;  3.0000019E-01;1152; -6.3165562E-04;  0.0000000E+00;  2.1331906E-04;  1.0000101E+03;  4.0000001E-01;  8.3948231E+00;3; -6.2095857E-01;  0.0000000E+00;  2.0186490E-01;0; -9.4894823E-03;  1.0000174E+04;  0.0000000E+00; -1.4299375E-06;  1.0000000E+04;  0.0000000E+00;  1.0000029E+04; -8.1585590E-03;  0.0000000E+00; -1.3309229E-03;  1.2133050E+01;
  7.9998210E-02;  9.9999998E-03;  1.6000010E-01;1176; -1.9465970E-03;  0.0000000E+00;  9.2360504E-05;  1.0000233E+03;  4.0000001E-01;  1.9258711E+01;3; -1.5646211E+00;  0.0000000E+00;  6.1013885E-02;0; -2.0984439E-02;  1.0000484E+04;  0.0000000E+00;  2.0656646E-10;  1.0000000E+04;  0.0000000E+00;  9.9999785E+03; -2.1970954E-02;  0.0000000E+00;  9.8651508E-04;  1.1264703E+01;
  7.9998247E-02;  9.9999998E-03;  1.8000013E-01;1177; -1.9151742E-03;  0.0000000E+00;  1.1817087E-04;  1.0000228E+03;  4.0000001E-01;  1.8863661E+01;3; -1.5430005E+00;  0.0000000E+00;  8.0509782E-02;0; -2.0656640E-02;  1.0000479E+04;  0.0000000E+00; -3.9558140E-10;  1.0000000E+04;  0.0000000E+00;  9.9999756E+03; -2.1703240E-02;  0.0000000E+00;  1.0465998E-03;  1.1677123E+01;
  7.9998299E-02;  9.9999998E-03;  2.0000015E-01;1178; -1.8562707E-03;  0.0000000E+00;  1.4696222E-04;  1.0000221E+03;  4.0000001E-01;  1.8271086E+01;3; -1.5010555E+00;  0.0000000E+00;  1.0254444E-01;0; -2.0123376E-02;  1.0000465E+04;  0.0000000E+00; -3.6621723E-09;  1.0000000E+04;  0.0000000E+00;  9.9999805E+03; -2.1121670E-02;  0.0000000E+00;  9.9829340E-04;  1.1030816E+01;
  7.9998396E-02;  9.9999998E-03;  2.2000018E-01;1179; -1.7591821E-03;  0.0000000E+00;  1.7620396E-04;  1.0000214E+03;  4.0000001E-01;  1.7678509E+01;3; -1.4347932E+00;  0.0000000E+00;  1.2583120E-01;0; -1.9306716E-02;  1.0000441E+04;  0.0000000E+00; -1.1485862E-08;  1.0000000E+04;  0.0000000E+00;  9.9999834E+03; -2.0080086E-02;  0.0000000E+00;  7.7336957E-04;  8.6551619E+00;
  7.9998523E-02;  9.9999998E-03;  2.4000020E-01;1180; -1.6141948E-03;  0.0000000E+00;  2.0021498E-04;  1.0000200E+03;  4.0000001E-01;  1.6493359E+01;3; -1.3413067E+00;  0.0000000E+00;  1.4733189E-01;0; -1.8098487E-02;  1.0000405E+04;  0.0000000E+00; -3.3143554E-06;  1.0000000E+04;  0.0000000E+00;  9.9999941E+03; -1.8432641E-02;  0.0000000E+00;  3.3415551E-04;  4.1770954E+00;
  7.9998709E-02;  9.9999998E-03;  2.6000023E-01;1181; -1.4121545E-03;  0.0000000E+00;  2.1859026E-04;  1.0000179E+03;  4.0000001E-01;  1.4913157E+01;3; -1.2138518E+00;  0.0000000E+00;  1.6788757E-01;0; -1.6395923E-02;  1.0000353E+04;  0.0000000E+00; -3.0405066E-05;  1.0000000E+04;  0.0000000E+00;  1.0000007E+04; -1.6105581E-02;  0.0000000E+00; -2.9034115E-04;  2.1168544E+00;
  7.9998940E-02;  9.9999998E-03;  2.8000024E-01;1182; -1.1546606E-03;  0.0000000E+00;  2.2646305E-04;  1.0000156E+03;  4.0000001E-01;  1.2937903E+01;3; -1.0435147E+00;  0.0000000E+00;  1.8552250E-01;0; -1.4147422E-02;  1.0000290E+04;  0.0000000E+00; -8.7328852E-05;  1.0000000E+04;  0.0000000E+00;  1.0000022E+04; -1.3170602E-02;  0.0000000E+00; -9.7682024E-04;  8.9964542E+00;
  7.9999223E-02;  9.9999998E-03;  3.0000025E-01;1183; -8.4100652E-04;  0.0000000E+00;  2.4083533E-04;  1.0000127E+03;  4.0000001E-01;  1.0468838E+01;3; -8.0788815E-01;  0.0000000E+00;  2.1652317E-01;0; -1.1424541E-02;  1.0000217E+04;  0.0000000E+00; -1.5545568E-04;  1.0000000E+04;  0.0000000E+00;  1.0000034E+04; -9.9061150E-03;  0.0000000E+00; -1.5184268E-03;  1.4460808E+01;
  9.9997714E-02;  9.9999998E-03;  1.6000012E-01;1207; -2.4459446E-03;  0.0000000E+00;  9.6146185E-05;  1.0000279E+03;  4.0000001E-01;  2.3110455E+01;3; -1.9149246E+00;  0.0000000E+00;  5.7121739E-02;0; -2.4543572E-02;  1.0000583E+04;  0.0000000E+00; -5.8767061E-11;  1.0000000E+04;  0.0000000E+00;  9.9999756E+03; -2.5648488E-02;  0.0000000E+00;  1.1049155E-03;  1.3331875E+01;
  9.9997744E-02;  9.9999998E-03;  1.8000014E-01;1208; -2.4138812E-03;  0.0000000E+00;  1.2372575E-04;  1.0000275E+03;  4.0000001E-01;  2.2715403E+01;3; -1.8942242E+00;  0.0000000E+00;  7.6628350E-02;0; -2.4272667E-02;  1.0000578E+04;  0.0000000E+00; -2.5699465E-09;  1.0000000E+04;  0.0000000E+00;  9.9999746E+03; -2.5452888E-02;  0.0000000E+00;  1.1802203E-03;  1.3897902E+01;
  9.9997811E-02;  9.9999998E-03;  2.0000017E-01;1209; -2.3488468E-03;  0.0000000E+00;  1.5428070E-04;  1.0000269E+03;  4.0000001E-01;  2.2320353E+01;3; -1.8499191E+00;  0.0000000E+00;  9.8271668E-02;0; -2.3766680E-02;  1.0000564E+04;  0.0000000E+00; -1.3023690E-08;  1.0000000E+04;  0.0000000E+00;  9.9999756E+03; -2.4907822E-02;  0.0000000E+00;  1.1411420E-03;  1.3273854E+01;
  9.9997923E-02;  9.9999998E-03;  2.2000021E-01;1210; -2.2367369E-03;  0.0000000E+00;  1.8588363E-04;  1.0000259E+03;  4.0000001E-01;  2.1530252E+01;3; -1.7768871E+00;  0.0000000E+00;  1.2179245E-01;0; -2.2928568E-02;  1.0000536E+04;  0.0000000E+00; -1.3216547E-05;  1.0000000E+04;  0.0000000E+00;  9.9999814E+03; -2.3836024E-02;  0.0000000E+00;  9.0745714E-04;  1.0638799E+01;
  9.9998079E-02;  9.9999998E-03;  2.4000023E-01;1211; -2.0644180E-03;  0.0000000E+00;  2.1221032E-04;  1.0000244E+03;  4.0000001E-01;  2.0147575E+01;3; -1.6717136E+00;  0.0000000E+00;  1.4375490E-01;0; -2.1640942E-02;  1.0000499E+04;  0.0000000E+00; -1.1762811E-04;  1.0000000E+04;  0.0000000E+00;  9.9999922E+03; -2.2070300E-02;  0.0000000E+00;  4.2935839E-04;  5.5186462E+00;
  9.9998310E-02;  9.9999998E-03;  2.6000026E-01;1212; -1.8185655E-03;  0.0000000E+00;  2.3415631E-04;  1.0000224E+03;  4.0000001E-01;  1.8567373E+01;3; -1.5255206E+00;  0.0000000E+00;  1.6647416E-01;0; -1.9785305E-02;  1.0000440E+04;  0.0000000E+00; -4.2410946E-04;  1.0000000E+04;  0.0000000E+00;  1.0000007E+04; -1.9514220E-02;  0.0000000E+00; -2.7108617E-04;  2.8374372E+00;
  9.9998601E-02;  9.9999998E-03;  2.8000027E-01;1213; -1.4984782E-03;  0.0000000E+00;  2.4727485E-04;  1.0000195E+03;  4.0000001E-01;  1.6197071E+01;3; -1.3248150E+00;  0.0000000E+00;  1.8941557E-01;0; -1.7273644E-02;  1.0000362E+04;  0.0000000E+00; -9.1515965E-04;  1.0000000E+04;  0.0000000E+00;  1.0000026E+04; -1.6211821E-02;  0.0000000E+00; -1.0618230E-03;  1.1154152E+01;
  9.9998973E-02;  9.9999998E-03;  3.0000028E-01;1214; -1.0990166E-03;  0.0000000E+00;  2.7494074E-04;  1.0000159E+03;  4.0000001E-01;  1.3135429E+01;3; -1.0358486E+00;  0.0000000E+00;  2.3626125E-01;0; -1.4135673E-02;  1.0000279E+04;  0.0000000E+00; -1.4405180E-03;  1.0000000E+04;  0.0000000E+00;  1.0000040E+04; -1.2434328E-02;  0.0000000E+00; -1.7013447E-03;  1.8339521E+01;
  1.1999711E-01;  9.9999998E-03;  1.6000013E-01;1238; -3.0253483E-03;  0.0000000E+00;  1.0070732E-04;  1.0000337E+03;  4.0000001E-01;  2.7949823E+01;3; -2.3154459E+00;  0.0000000E+00;  5.3674899E-02;0; -2.8874068E-02;  1.0000704E+04;  0.0000000E+00; -1.6054698E-09;  1.0000000E+04;  0.0000000E+00;  9.9999688E+03; -3.0117970E-02;  0.0000000E+00;  1.2439030E-03;  1.5904243E+01;
  1.1999715E-01;  9.9999998E-03;  1.8000016E-01;1239; -2.9953229E-03;  0.0000000E+00;  1.2981906E-04;  1.0000333E+03;  4.0000001E-01;  2.7653534E+01;3; -2.2977865E+00;  0.0000000E+00;  7.2629377E-02;0; -2.8686229E-02;  1.0000698E+04;  0.0000000E+00; -9.0528811E-09;  1.0000000E+04;  0.0000000E+00;  9.9999688E+03; -3.0021332E-02;  0.0000000E+00;  1.3351029E-03;  1.6666681E+01;
  1.1999722E-01;  9.9999998E-03;  2.0000020E-01;1240; -2.9266381E-03;  0.0000000E+00;  1.6153963E-04;  1.0000329E+03;  4.0000001E-01;  2.7258484E+01;3; -2.2533371E+00;  0.0000000E+00;  9.3173772E-02;0; -2.8237363E-02;  1.0000685E+04;  0.0000000E+00; -1.1048905E-05;  1.0000000E+04;  0.0000000E+00;  9.9999688E+03; -2.9545683E-02;  0.0000000E+00;  1.3083206E-03;  1.6111166E+01;
  1.1999734E-01;  9.9999998E-03;  2.2000022E-01;1241; -2.8011515E-03;  0.0000000E+00;  1.9531733E-04;  1.0000317E+03;  4.0000001E-01;  2.6270859E+01;3; -2.1757021E+00;  0.0000000E+00;  1.1630163E-01;0; -2.7438210E-02;  1.0000660E+04;  0.0000000E+00; -1.5559589E-04;  1.0000000E+04;  0.0000000E+00;  9.9999756E+03; -2.8510120E-02;  0.0000000E+00;  1.0719101E-03;  1.3276755E+01;
  1.1999754E-01;  9.9999998E-03;  2.4000025E-01;1242; -2.6021479E-03;  0.0000000E+00;  2.2325790E-04;  1.0000302E+03;  4.0000001E-01;  2.4986944E+01;3; -2.0611637E+00;  0.0000000E+00;  1.3781694E-01;0; -2.6190948E-02;  1.0000616E+04;  0.0000000E+00; -7.7204587E-04;  1.0000000E+04;  0.0000000E+00;  9.9999893E+03; -2.6748508E-02;  0.0000000E+00;  5.5756094E-04;  8.3132067E+00;
  1.1999781E-01;  9.9999998E-03;  2.6000029E-01;1243; -2.3099235E-03;  0.0000000E+00;  2.5044757E-04;  1.0000283E+03;  4.0000001E-01;  2.3505505E+01;3; -1.8973992E+00;  0.0000000E+00;  1.6385323E-01;0; -2.4361180E-02;  1.0000556E+04;  0.0000000E+00; -2.2080399E-03;  1.0000000E+04;  0.0000000E+00;  1.0000007E+04; -2.4133578E-02;  0.0000000E+00; -2.2760307E-04;  1.0972107E+01;
  1.1999818E-01;  9.9999998E-03;  2.8000030E-01;1244; -1.9208905E-03;  0.0000000E+00;  2.7245833E-04;  1.0000251E+03;  4.0000001E-01;  2.0740150E+01;3; -1.6659030E+00;  0.0000000E+00;  1.9524384E-01;0; -2.1778850E-02;  1.0000474E+04;  0.0000000E+00; -4.3717367E-03;  1.0000000E+04;  0.0000000E+00;  1.0000028E+04; -2.0635016E-02;  0.0000000E+00; -1.1438334E-03;  2.4359608E+01;
  1.1999864E-01;  9.9999998E-03;  3.0000034E-01;1245; -1.4218634E-03;  0.0000000E+00;  3.2043250E-04;  1.0000211E+03;  4.0000001E-01;  1.7480984E+01;3; -1.3173534E+00;  0.0000000E+00;  2.6442254E-01;0; -1.8293478E-02;  1.0000374E+04;  0.0000000E+00; -6.3646170E-03;  1.0000000E+04;  0.0000000E+00;  1.0000048E+04; -1.6393332E-02;  0.0000000E+00; -1.9001465E-03;  3.6993183E+01;
  1.3999639E-01;  9.9999998E-03;  1.6000015E-01;1269; -3.7046839E-03;  0.0000000E+00;  1.0939610E-04;  1.0000407E+03;  4.0000001E-01;  3.3776817E+01;3; -2.7730417E+00;  0.0000000E+00;  5.3274717E-02;0; -3.4036212E-02;  1.0000853E+04;  0.0000000E+00; -1.5747093E-09;  1.0000000E+04;  0.0000000E+00;  9.9999619E+03; -3.5472069E-02;  0.0000000E+00;  1.4358577E-03;  1.9345932E+01;
  1.3999642E-01;  9.9999998E-03;  1.8000017E-01;1270; -3.6799712E-03;  0.0000000E+00;  1.4026834E-04;  1.0000405E+03;  4.0000001E-01;  3.3579292E+01;3; -2.7609024E+00;  0.0000000E+00;  7.1339980E-02;0; -3.3960424E-02;  1.0000851E+04;  0.0000000E+00; -1.9591703E-06;  1.0000000E+04;  0.0000000E+00;  9.9999619E+03; -3.5510074E-02;  0.0000000E+00;  1.5496502E-03;  2.0436098E+01;
  1.3999650E-01;  9.9999998E-03;  2.0000021E-01;1271; -3.6105430E-03;  0.0000000E+00;  1.7350919E-04;  1.0000399E+03;  4.0000001E-01;  3.3085480E+01;3; -2.7189267E+00;  0.0000000E+00;  9.0483442E-02;0; -3.3626374E-02;  1.0000838E+04;  0.0000000E+00; -8.7472654E-05;  1.0000000E+04;  0.0000000E+00;  9.9999619E+03; -3.5173487E-02;  0.0000000E+00;  1.5471121E-03;  2.0125860E+01;
  1.3999663E-01;  9.9999998E-03;  2.2000025E-01;1272; -3.4740975E-03;  0.0000000E+00;  2.0902173E-04;  1.0000391E+03;  4.0000001E-01;  3.2394142E+01;3; -2.6396778E+00;  0.0000000E+00;  1.1265422E-01;0; -3.2996319E-02;  1.0000813E+04;  0.0000000E+00; -6.8631023E-04;  1.0000000E+04;  0.0000000E+00;  9.9999688E+03; -3.4315638E-02;  0.0000000E+00;  1.3193181E-03;  1.7513292E+01;
  1.3999686E-01;  9.9999998E-03;  2.4000029E-01;1273; -3.2486401E-03;  0.0000000E+00;  2.3908280E-04;  1.0000379E+03;  4.0000001E-01;  3.1406515E+01;3; -2.5186255E+00;  0.0000000E+00;  1.3365936E-01;0; -3.2036021E-02;  1.0000775E+04;  0.0000000E+00; -2.7495581E-03;  1.0000000E+04;  0.0000000E+00;  9.9999834E+03; -3.2801408E-02;  0.0000000E+00;  7.6538610E-04;  1.7221977E+01;
  1.3999718E-01;  9.9999998E-03;  2.6000032E-01;1274; -2.9073621E-03;  0.0000000E+00;  2.7396606E-04;  1.0000361E+03;  4.0000001E-01;  2.9925076E+01;3; -2.3391967E+00;  0.0000000E+00;  1.6545141E-01;0; -3.0613244E-02;  1.0000718E+04;  0.0000000E+00; -7.2250175E-03;  1.0000000E+04;  0.0000000E+00;  1.0000006E+04; -3.0480230E-02;  0.0000000E+00; -1.3301382E-04;  3.5744156E+01;
  1.3999763E-01;  9.9999998E-03;  2.8000036E-01;1275; -2.4439117E-03;  0.0000000E+00;  3.0826961E-04;  1.0000334E+03;  4.0000001E-01;  2.7752296E+01;3; -2.0797901E+00;  0.0000000E+00;  2.0790553E-01;0; -2.8407598E-02;  1.0000637E+04;  0.0000000E+00; -1.3791847E-02;  1.0000000E+04;  0.0000000E+00;  1.0000033E+04; -2.7181765E-02;  0.0000000E+00; -1.2258328E-03;  6.9244408E+01;
  1.3999821E-01;  9.9999998E-03;  3.0000043E-01;1276; -1.8320351E-03;  0.0000000E+00;  3.8343153E-04;  1.0000292E+03;  4.0000001E-01;  2.4196842E+01;3; -1.6683198E+00;  0.0000000E+00;  3.0663633E-01;0; -2.4844741E-02;  1.0000529E+04;  0.0000000E+00; -1.9557871E-02;  1.0000000E+04;  0.0000000E+00;  1.0000057E+04; -2.2708479E-02;  0.0000000E+00; -2.1362619E-03;  9.9162041E+01;
  1.5999551E-01;  9.9999998E-03;  1.6000018E-01;1300; -4.5042834E-03;  0.0000000E+00;  1.2683126E-04;  1.0000494E+03;  4.0000001E-01;  4.0887726E+01;3; -3.2943349E+00;  0.0000000E+00;  5.9947446E-02;0; -4.0064845E-02;  1.0001030E+04;  0.0000000E+00; -2.5275846E-09;  1.0000000E+04;  0.0000000E+00;  9.9999541E+03; -4.1795325E-02;  0.0000000E+00;  1.7304795E-03;  2.4214592E+01;
  1.5999554E-01;  9.9999998E-03;  1.8000022E-01;1301; -4.4887573E-03;  0.0000000E+00;  1.6075038E-04;  1.0000490E+03;  4.0000001E-01;  4.0591438E+01;3; -3.2904477E+00;  0.0000000E+00;  7.7564180E-02;0; -4.0131677E-02;  1.0001030E+04;  0.0000000E+00; -1.7212491E-05;  1.0000000E+04;  0.0000000E+00;  9.9999512E+03; -4.2021304E-02;  0.0000000E+00;  1.8896263E-03;  2.5970991E+01;
  1.5999562E-01;  9.9999998E-03;  2.0000026E-01;1302; -4.4222455E-03;  0.0000000E+00;  1.9714770E-04;  1.0000488E+03;  4.0000001E-01;  4.0492676E+01;3; -3.2539401E+00;  0.0000000E+00;  9.5907234E-02;0; -3.9986003E-02;  1.0001025E+04;  0.0000000E+00; -3.0231787E-04;  1.0000000E+04;  0.0000000E+00;  9.9999492E+03; -4.1927371E-02;  0.0000000E+00;  1.9413675E-03;  2.6357798E+01;
  1.5999578E-01;  9.9999998E-03;  2.2000030E-01;1303; -4.2772535E-03;  0.0000000E+00;  2.3596533E-04;  1.0000482E+03;  4.0000001E-01;  3.9900101E+01;3; -3.1761467E+00;  0.0000000E+00;  1.1758825E-01;0; -3.9695363E-02;  1.0001010E+04;  0.0000000E+00; -1.8682887E-03;  1.0000000E+04;  0.0000000E+00;  9.9999541E+03; -4.1439474E-02;  0.0000000E+00;  1.7441117E-03;  2.5375452E+01;
  1.5999603E-01;  9.9999998E-03;  2.4000035E-01;1304; -4.0257140E-03;  0.0000000E+00;  2.6950866E-04;  1.0000477E+03;  4.0000001E-01;  3.9505051E+01;3; -3.0520620E+00;  0.0000000E+00;  1.3874692E-01;0; -3.9356548E-02;  1.0000980E+04;  0.0000000E+00; -6.8158647E-03;  1.0000000E+04;  0.0000000E+00;  9.9999717E+03; -4.0498041E-02;  0.0000000E+00;  1.1414929E-03;  3.7541039E+01;
  1.5999641E-01;  9.9999998E-03;  2.6000038E-01;1305; -3.6363299E-03;  0.0000000E+00;  3.0898713E-04;  1.0000468E+03;  4.0000001E-01;  3.8813713E+01;3; -2.8633928E+00;  0.0000000E+00;  1.7430902E-01;0; -3.8904727E-02;  1.0000938E+04;  0.0000000E+00; -1.7391825E-02;  1.0000000E+04;  0.0000000E+00;  1.0000000E+04; -3.8976271E-02;  0.0000000E+00;  7.1546063E-05;  8.6415703E+01;
  1.5999694E-01;  9.9999998E-03;  2.8000045E-01;1306; -3.0927840E-03;  0.0000000E+00;  3.5904741E-04;  1.0000455E+03;  4.0000001E-01;  3.7628559E+01;3; -2.5802400E+00;  0.0000000E+00;  2.3008156E-01;0; -3.7832610E-02;  1.0000872E+04;  0.0000000E+00; -3.3076849E-02;  1.0000000E+04;  0.0000000E+00;  1.0000035E+04; -3.6537066E-02;  0.0000000E+00; -1.2955430E-03;  1.6447704E+02;
  1.5999766E-01;  9.9999998E-03;  3.0000052E-01;1307; -2.3623258E-03;  0.0000000E+00;  4.6080953E-04;  1.0000416E+03;  4.0000001E-01;  3.4468155E+01;3; -2.1132677E+00;  0.0000000E+00;  3.5724568E-01;0; -3.4842569E-02;  1.0000770E+04;  0.0000000E+00; -4.7274139E-02;  1.0000000E+04;  0.0000000E+00;  1.0000065E+04; -3.2407425E-02;  0.0000000E+00; -2.4351426E-03;  2.3553807E+02;
  1.7999445E-01;  9.9999998E-03;  1.6000022E-01;1331; -5.4439432E-03;  0.0000000E+00;  1.5930952E-04;  1.0000593E+03;  4.0000001E-01;  4.9183788E+01;3; -3.8857548E+00;  0.0000000E+00;  7.9075322E-02;0; -4.7009572E-02;  1.0001245E+04;  0.0000000E+00; -1.6156983E-07;  1.0000000E+04;  0.0000000E+00;  9.9999404E+03; -4.9208783E-02;  0.0000000E+00;  2.1992100E-03;  3.1316765E+01;
  1.7999448E-01;  9.9999998E-03;  1.8000026E-01;1332; -5.4420829E-03;  0.0000000E+00;  1.9917193E-04;  1.0000593E+03;  4.0000001E-01;  4.9183788E+01;3; -3.8931177E+00;  0.0000000E+00;  9.7430699E-02;0; -4.7238290E-02;  1.0001253E+04;  0.0000000E+00; -5.1440980E-05;  1.0000000E+04;  0.0000000E+00;  9.9999336E+03; -4.9689293E-02;  0.0000000E+00;  2.4510010E-03;  3.4395782E+01;
  1.7999455E-01;  9.9999998E-03;  2.0000032E-01;1333; -5.3832489E-03;  0.0000000E+00;  2.4097960E-04;  1.0000591E+03;  4.0000001E-01;  4.8986263E+01;3; -3.8655546E+00;  0.0000000E+00;  1.1630040E-01;0; -4.7334522E-02;  1.0001251E+04;  0.0000000E+00; -6.5827550E-04;  1.0000000E+04;  0.0000000E+00;  9.9999297E+03; -4.9945932E-02;  0.0000000E+00;  2.6114115E-03;  3.6309727E+01;
  1.7999472E-01;  9.9999998E-03;  2.2000037E-01;1334; -5.2345418E-03;  0.0000000E+00;  2.8299208E-04;  1.0000590E+03;  4.0000001E-01;  4.8887501E+01;3; -3.7944705E+00;  0.0000000E+00;  1.3596398E-01;0; -4.7512602E-02;  1.0001249E+04;  0.0000000E+00; -3.6549331E-03;  1.0000000E+04;  0.0000000E+00;  9.9999336E+03; -4.9998797E-02;  0.0000000E+00;  2.4861966E-03;  3.8881447E+01;
  1.7999500E-01;  9.9999998E-03;  2.4000043E-01;1335; -4.9575213E-03;  0.0000000E+00;  3.2261561E-04;  1.0000594E+03;  4.0000001E-01;  4.9282551E+01;3; -3.6707091E+00;  0.0000000E+00;  1.5911293E-01;0; -4.8075054E-02;  1.0001237E+04;  0.0000000E+00; -1.2848582E-02;  1.0000000E+04;  0.0000000E+00;  9.9999512E+03; -4.9906984E-02;  0.0000000E+00;  1.8319318E-03;  6.9257782E+01;
  1.7999545E-01;  9.9999998E-03;  2.6000047E-01;1336; -4.5193564E-03;  0.0000000E+00;  3.6442972E-04;  1.0000604E+03;  4.0000001E-01;  5.0072651E+01;3; -3.4794841E+00;  0.0000000E+00;  1.9453192E-01;0; -4.9145035E-02;  1.0001221E+04;  0.0000000E+00; -3.2728061E-02;  1.0000000E+04;  0.0000000E+00;  9.9999883E+03; -4.9646214E-02;  0.0000000E+00;  5.0117681E-04;  1.6344952E+02;
  1.7999606E-01;  9.9999998E-03;  2.8000054E-01;1337; -3.8985836E-03;  0.0000000E+00;  4.2100047E-04;  1.0000611E+03;  4.0000001E-01;  5.0665226E+01;3; -3.1851890E+00;  0.0000000E+00;  2.5633311E-01;0; -5.0117031E-02;  1.0001187E+04;  0.0000000E+00; -6.3226342E-02;  1.0000000E+04;  0.0000000E+00;  1.0000036E+04; -4.8794661E-02;  0.0000000E+00; -1.3223713E-03;  3.1495615E+02;
  1.7999691E-01;  9.9999998E-03;  3.0000064E-01;1338; -3.0639931E-03;  0.0000000E+00;  5.2503758E-04;  1.0000593E+03;  4.0000001E-01;  4.9183788E+01;3; -2.6945376E+00;  0.0000000E+00;  3.8373184E-01;0; -4.8817359E-02;  1.0001104E+04;  0.0000000E+00; -9.2446916E-02;  1.0000000E+04;  0.0000000E+00;  1.0000081E+04; -4.5916028E-02;  0.0000000E+00; -2.9013294E-03;  4.6063336E+02;
  1.9999318E-01;  9.9999998E-03;  1.6000028E-01;1362; -6.5455493E-03;  0.0000000E+00;  2.1297114E-04;  1.0000712E+03;  4.0000001E-01;  5.9060051E+01;3; -4.5540810E+00;  0.0000000E+00;  1.1603516E-01;0; -5.4926820E-02;  1.0001507E+04;  0.0000000E+00; -6.7465788E-07;  1.0000000E+04;  0.0000000E+00;  9.9999189E+03; -5.7856821E-02;  0.0000000E+00;  2.9300023E-03;  4.1666050E+01;
  1.9999318E-01;  9.9999998E-03;  1.8000033E-01;1363; -6.5623750E-03;  0.0000000E+00;  2.6329904E-04;  1.0000713E+03;  4.0000001E-01;  5.9060051E+01;3; -4.5755019E+00;  0.0000000E+00;  1.3776328E-01;0; -5.5309780E-02;  1.0001521E+04;  0.0000000E+00; -8.9263267E-05;  1.0000000E+04;  0.0000000E+00;  9.9999082E+03; -5.8658350E-02;  0.0000000E+00;  3.3485712E-03;  4.7091255E+01;
  1.9999325E-01;  9.9999998E-03;  2.0000041E-01;1364; -6.5174815E-03;  0.0000000E+00;  3.1318117E-04;  1.0000714E+03;  4.0000001E-01;  5.9158813E+01;3; -4.5612283E+00;  0.0000000E+00;  1.5808481E-01;0; -5.5639654E-02;  1.0001527E+04;  0.0000000E+00; -1.0193839E-03;  1.0000000E+04;  0.0000000E+00;  9.9998965E+03; -5.9340615E-02;  0.0000000E+00;  3.7009609E-03;  5.1712219E+01;
  1.9999342E-01;  9.9999998E-03;  2.2000048E-01;1365; -6.3696029E-03;  0.0000000E+00;  3.6305550E-04;  1.0000715E+03;  4.0000001E-01;  5.9257576E+01;3; -4.5009189E+00;  0.0000000E+00;  1.7840779E-01;0; -5.6279439E-02;  1.0001537E+04;  0.0000000E+00; -5.4430184E-03;  1.0000000E+04;  0.0000000E+00;  9.9998955E+03; -6.0003225E-02;  0.0000000E+00;  3.7237857E-03;  5.8395504E+01;
  1.9999373E-01;  9.9999998E-03;  2.4000053E-01;1366; -6.0743238E-03;  0.0000000E+00;  4.0095381E-04;  1.0000730E+03;  4.0000001E-01;  6.0442726E+01;3; -4.3861995E+00;  0.0000000E+00;  1.9694364E-01;0; -5.7784718E-02;  1.0001546E+04;  0.0000000E+00; -1.9011389E-02;  1.0000000E+04;  0.0000000E+00;  9.9999180E+03; -6.0821157E-02;  0.0000000E+00;  3.0364399E-03;  1.0460407E+02;
  1.9999424E-01;  9.9999998E-03;  2.6000059E-01;1367; -5.5915462E-03;  0.0000000E+00;  4.3913582E-04;  1.0000760E+03;  4.0000001E-01;  6.2911793E+01;3; -4.2046447E+00;  0.0000000E+00;  2.2509861E-01;0; -6.0584072E-02;  1.0001559E+04;  0.0000000E+00; -4.9017787E-02;  1.0000000E+04;  0.0000000E+00;  9.9999629E+03; -6.1908878E-02;  0.0000000E+00;  1.3248072E-03;  2.4644212E+02;
  1.9999494E-01;  9.9999998E-03;  2.8000066E-01;1368; -4.9068872E-03;  0.0000000E+00;  4.8859941E-04;  1.0000798E+03;  4.0000001E-01;  6.6072197E+01;3; -3.9239957E+00;  0.0000000E+00;  2.7991939E-01;0; -6.4163029E-02;  1.0001563E+04;  0.0000000E+00; -9.6677549E-02;  1.0000000E+04;  0.0000000E+00;  1.0000034E+04; -6.2885284E-02;  0.0000000E+00; -1.2777430E-03;  4.8354285E+02;
  1.9999589E-01;  9.9999998E-03;  3.0000076E-01;1369; -3.9882627E-03;  0.0000000E+00;  5.7516276E-04;  1.0000809E+03;  4.0000001E-01;  6.7059822E+01;3; -3.4508171E+00;  0.0000000E+00;  3.8320017E-01;0; -6.5563433E-02;  1.0001515E+04;  0.0000000E+00; -1.4409985E-01;  1.0000000E+04;  0.0000000E+00;  1.0000103E+04; -6.1823972E-02;  0.0000000E+00; -3.7394583E-03;  7.2088043E+02;
  2.1999162E-01;  9.9999998E-03;  1.6000037E-01;1393; -7.8344662E-03;  0.0000000E+00;  2.9251864E-04;  1.0000852E+03;  4.0000001E-01;  7.0615273E+01;3; -5.3070283E+00;  0.0000000E+00;  1.7494872E-01;0; -6.3876107E-02;  1.0001815E+04;  0.0000000E+00; -7.3172708E-07;  1.0000000E+04;  0.0000000E+00;  9.9998887E+03; -6.7886360E-02;  0.0000000E+00;  4.0102541E-03;  5.6321243E+01;
  2.1999161E-01;  9.9999998E-03;  1.8000045E-01;1394; -7.8753801E-03;  0.0000000E+00;  3.5989081E-04;  1.0000854E+03;  4.0000001E-01;  7.0812805E+01;3; -5.3448148E+00;  0.0000000E+00;  2.0448951E-01;0; -6.4375095E-02;  1.0001838E+04;  0.0000000E+00; -1.0064172E-04;  1.0000000E+04;  0.0000000E+00;  9.9998711E+03; -6.9065139E-02;  0.0000000E+00;  4.6900408E-03;  6.5437355E+01;
  2.1999167E-01;  9.9999998E-03;  2.0000054E-01;1395; -7.8511108E-03;  0.0000000E+00;  4.2307450E-04;  1.0000854E+03;  4.0000001E-01;  7.0714035E+01;3; -5.3480101E+00;  0.0000000E+00;  2.2752860E-01;0; -6.4856596E-02;  1.0001857E+04;  0.0000000E+00; -1.1648551E-03;  1.0000000E+04;  0.0000000E+00;  9.9998516E+03; -7.0199296E-02;  0.0000000E+00;  5.3427014E-03;  7.4223427E+01;
  2.1999183E-01;  9.9999998E-03;  2.2000064E-01;1396; -7.7125211E-03;  0.0000000E+00;  4.8473076E-04;  1.0000860E+03;  4.0000001E-01;  7.1207855E+01;3; -5.3058209E+00;  0.0000000E+00;  2.4897048E-01;0; -6.5784387E-02;  1.0001879E+04;  0.0000000E+00; -6.2798574E-03;  1.0000000E+04;  0.0000000E+00;  9.9998398E+03; -7.1413964E-02;  0.0000000E+00;  5.6295795E-03;  8.4038887E+01;
  2.1999218E-01;  9.9999998E-03;  2.4000071E-01;1397; -7.4098082E-03;  0.0000000E+00;  5.2715425E-04;  1.0000880E+03;  4.0000001E-01;  7.2886818E+01;3; -5.2135415E+00;  0.0000000E+00;  2.6341182E-01;0; -6.7930847E-02;  1.0001902E+04;  0.0000000E+00; -2.2267610E-02;  1.0000000E+04;  0.0000000E+00;  9.9998584E+03; -7.2924443E-02;  0.0000000E+00;  4.9935975E-03;  1.3240691E+02;
  2.1999273E-01;  9.9999998E-03;  2.6000080E-01;1398; -6.8884646E-03;  0.0000000E+00;  5.8285892E-04;  1.0000924E+03;  4.0000001E-01;  7.6541031E+01;3; -5.0543613E+00;  0.0000000E+00;  2.9735088E-01;0; -7.2011344E-02;  1.0001930E+04;  0.0000000E+00; -5.8608964E-02;  1.0000000E+04;  0.0000000E+00;  9.9999160E+03; -7.4898735E-02;  0.0000000E+00;  2.8873899E-03;  2.9830585E+02;
  2.1999352E-01;  9.9999998E-03;  2.8000093E-01;1399; -6.1444314E-03;  0.0000000E+00;  6.7051535E-04;  1.0000984E+03;  4.0000001E-01;  8.1577927E+01;3; -4.8083229E+00;  0.0000000E+00;  3.7488532E-01;0; -7.7551894E-02;  1.0001958E+04;  0.0000000E+00; -1.1799943E-01;  1.0000000E+04;  0.0000000E+00;  1.0000008E+04; -7.6965638E-02;  0.0000000E+00; -5.8625569E-04;  5.9313147E+02;
  2.1999465E-01;  9.9999998E-03;  3.0000117E-01;1400; -5.0877193E-03;  0.0000000E+00;  8.7954744E-04;  1.0001005E+03;  4.0000001E-01;  8.3256889E+01;3; -4.3266420E+00;  0.0000000E+00;  5.7198763E-01;0; -7.9952165E-02;  1.0001921E+04;  0.0000000E+00; -1.7972015E-01;  1.0000000E+04;  0.0000000E+00;  1.0000086E+04; -7.6645091E-02;  0.0000000E+00; -3.3070766E-03;  9.0306195E+02;
  2.3998977E-01;  9.9999998E-03;  1.6000047E-01;1424; -9.3393847E-03;  0.0000000E+00;  4.0257507E-04;  1.0001014E+03;  4.0000001E-01;  8.4046989E+01;3; -6.1530838E+00;  0.0000000E+00;  2.5894606E-01;0; -7.3940687E-02;  1.0002183E+04;  0.0000000E+00; -2.0075593E-07;  1.0000000E+04;  0.0000000E+00;  9.9998496E+03; -7.9445869E-02;  0.0000000E+00;  5.5051786E-03;  7.6170319E+01;
  2.3998973E-01;  9.9999998E-03;  1.8000060E-01;1425; -9.4116423E-03;  0.0000000E+00;  4.9413840E-04;  1.0001016E+03;  4.0000001E-01;  8.4145752E+01;3; -6.2105241E+00;  0.0000000E+00;  2.9919159E-01;0; -7.4502125E-02;  1.0002217E+04;  0.0000000E+00; -7.2964496E-05;  1.0000000E+04;  0.0000000E+00;  9.9998135E+03; -8.1046142E-02;  0.0000000E+00;  6.5440191E-03;  9.0490318E+01;
  2.3998976E-01;  9.9999998E-03;  2.0000073E-01;1426; -9.4154673E-03;  0.0000000E+00;  5.8567279E-04;  1.0001015E+03;  4.0000001E-01;  8.4046989E+01;3; -6.2345805E+00;  0.0000000E+00;  3.3510908E-01;0; -7.5016171E-02;  1.0002250E+04;  0.0000000E+00; -9.7640906E-04;  1.0000000E+04;  0.0000000E+00;  9.9997842E+03; -8.2626425E-02;  0.0000000E+00;  7.6102540E-03;  1.0513468E+02;
  2.3998991E-01;  9.9999998E-03;  2.2000086E-01;1427; -9.2995130E-03;  0.0000000E+00;  6.7912787E-04;  1.0001021E+03;  4.0000001E-01;  8.4540810E+01;3; -6.2198281E+00;  0.0000000E+00;  3.7004694E-01;0; -7.5958274E-02;  1.0002279E+04;  0.0000000E+00; -5.5915313E-03;  1.0000000E+04;  0.0000000E+00;  9.9997627E+03; -8.4270716E-02;  0.0000000E+00;  8.3124414E-03;  1.1828003E+02;
  2.3999025E-01;  9.9999998E-03;  2.4000101E-01;1428; -9.0071447E-03;  0.0000000E+00;  7.7059190E-04;  1.0001041E+03;  4.0000001E-01;  8.6219772E+01;3; -6.1664276E+00;  0.0000000E+00;  4.1060591E-01;0; -7.8163013E-02;  1.0002312E+04;  0.0000000E+00; -2.0584553E-02;  1.0000000E+04;  0.0000000E+00;  9.9997715E+03; -8.6135872E-02;  0.0000000E+00;  7.9728607E-03;  1.5270226E+02;
  2.3999085E-01;  9.9999998E-03;  2.6000124E-01;1429; -8.4655331E-03;  0.0000000E+00;  9.4123080E-04;  1.0001083E+03;  4.0000001E-01;  8.9676460E+01;3; -6.0524540E+00;  0.0000000E+00;  5.2476656E-01;0; -8.2255311E-02;  1.0002345E+04;  0.0000000E+00; -5.5905648E-02;  1.0000000E+04;  0.0000000E+00;  9.9998223E+03; -8.8319853E-02;  0.0000000E+00;  6.0645384E-03;  2.9621024E+02;
  2.3999169E-01;  9.9999998E-03;  2.8000161E-01;1430; -7.6813875E-03;  0.0000000E+00;  1.2594567E-03;  1.0001135E+03;  4.0000001E-01;  9.4022018E+01;3; -5.8674383E+00;  0.0000000E+00;  7.8483486E-01;0; -8.6943194E-02;  1.0002368E+04;  0.0000000E+00; -1.1557933E-01;  1.0000000E+04;  0.0000000E+00;  9.9999014E+03; -9.0406932E-02;  0.0000000E+00;  3.4637402E-03;  5.8646747E+02;
  2.3999295E-01;  9.9999998E-03;  3.0000231E-01;1431; -6.5395371E-03;  0.0000000E+00;  1.8675099E-03;  1.0001111E+03;  4.0000001E-01;  9.2046768E+01;3; -5.4297528E+00;  0.0000000E+00;  1.3320913E+00;0; -8.5561141E-02;  1.0002323E+04;  0.0000000E+00; -1.8088944E-01;  1.0000000E+04;  0.0000000E+00;  9.9999014E+03; -8.9934826E-02;  0.0000000E+00;  4.3736873E-03;  9.1419183E+02;
  2.5998753E-01;  9.9999998E-03;  1.6000062E-01;1455; -1.1093529E-02;  0.0000000E+00;  5.4479908E-04;  1.0001205E+03;  4.0000001E-01;  9.9849007E+01;3; -7.1016898E+00;  0.0000000E+00;  3.7070182E-01;0; -8.5243061E-02;  1.0002616E+04;  0.0000000E+00; -2.1152040E-10;  1.0000000E+04;  0.0000000E+00;  9.9997949E+03; -9.2685252E-02;  0.0000000E+00;  7.4421936E-03;  1.0176199E+02;
  2.5998744E-01;  9.9999998E-03;  1.8000080E-01;1456; -1.1205697E-02;  0.0000000E+00;  6.7514105E-04;  1.0001207E+03;  4.0000001E-01;  1.0004653E+02;3; -7.1818209E+00;  0.0000000E+00;  4.3004134E-01;0; -8.5822895E-02;  1.0002664E+04;  0.0000000E+00; -2.9786353E-05;  1.0000000E+04;  0.0000000E+00;  9.9997490E+03; -9.4741829E-02;  0.0000000E+00;  8.9189326E-03;  1.2275420E+02;
  2.5998744E-01;  9.9999998E-03;  2.0000099E-01;1457; -1.1248124E-02;  0.0000000E+00;  8.1755529E-04;  1.0001204E+03;  4.0000001E-01;  9.9750244E+01;3; -7.2318101E+00;  0.0000000E+00;  4.9133319E-01;0; -8.6276554E-02;  1.0002710E+04;  0.0000000E+00; -5.7217811E-04;  1.0000000E+04;  0.0000000E+00;  9.9996992E+03; -9.6759334E-02;  0.0000000E+00;  1.0482782E-02;  1.4492514E+02;
  2.5998756E-01;  9.9999998E-03;  2.2000122E-01;1458; -1.1171312E-02;  0.0000000E+00;  9.7989617E-04;  1.0001204E+03;  4.0000001E-01;  9.9750244E+01;3; -7.2563119E+00;  0.0000000E+00;  5.6260264E-01;0; -8.6993739E-02;  1.0002752E+04;  0.0000000E+00; -3.7485019E-03;  1.0000000E+04;  0.0000000E+00;  9.9996592E+03; -9.8738544E-02;  0.0000000E+00;  1.1744806E-02;  1.6412910E+02;
  2.5998789E-01;  9.9999998E-03;  2.4000148E-01;1459; -1.0918207E-02;  0.0000000E+00;  1.1682622E-03;  1.0001215E+03;  4.0000001E-01;  1.0063911E+02;3; -7.2640700E+00;  0.0000000E+00;  6.6401422E-01;0; -8.8681489E-02;  1.0002785E+04;  0.0000000E+00; -1.4789721E-02;  1.0000000E+04;  0.0000000E+00;  9.9996484E+03; -1.0072503E-01;  0.0000000E+00;  1.2043547E-02;  1.8442966E+02;
  2.5998846E-01;  9.9999998E-03;  2.6000190E-01;1460; -1.0410157E-02;  0.0000000E+00;  1.5023276E-03;  1.0001244E+03;  4.0000001E-01;  1.0300941E+02;3; -7.2449732E+00;  0.0000000E+00;  8.8842070E-01;0; -9.1560841E-02;  1.0002813E+04;  0.0000000E+00; -4.2029917E-02;  1.0000000E+04;  0.0000000E+00;  9.9996729E+03; -1.0271724E-01;  0.0000000E+00;  1.1156395E-02;  2.6475909E+02;
  2.5998932E-01;  9.9999998E-03;  2.8000262E-01;1461; -9.6344370E-03;  0.0000000E+00;  2.0903728E-03;  1.0001260E+03;  4.0000001E-01;  1.0439208E+02;3; -7.1735816E+00;  0.0000000E+00;  1.3506074E+00;0; -9.3218587E-02;  1.0002824E+04;  0.0000000E+00; -8.9453697E-02;  1.0000000E+04;  0.0000000E+00;  9.9996943E+03; -1.0433110E-01;  0.0000000E+00;  1.1112513E-02;  4.7774173E+02;
  2.5999057E-01;  9.9999998E-03;  3.0000362E-01;1462; -8.5122334E-03;  0.0000000E+00;  2.9197002E-03;  1.0001187E+03;  4.0000001E-01;  9.8367569E+01;3; -6.8996687E+00;  0.0000000E+00;  2.0715206E+00;0; -8.8171795E-02;  1.0002770E+04;  0.0000000E+00; -1.4190991E-01;  1.0000000E+04;  0.0000000E+00;  9.9996045E+03; -1.0378376E-01;  0.0000000E+00;  1.5611961E-02;  7.4357892E+02;
  2.7998486E-01;  9.9999998E-03;  1.6000080E-01;1486; -1.3133470E-02;  0.0000000E+00;  7.2208134E-04;  1.0001429E+03;  4.0000001E-01;  1.1841637E+02;3; -8.1625261E+00;  0.0000000E+00;  5.1107478E-01;0; -9.7949833E-02;  1.0003129E+04;  0.0000000E+00; -2.8444478E-09;  1.0000000E+04;  0.0000000E+00;  9.9997285E+03; -1.0776000E-01;  0.0000000E+00;  9.8101608E-03;  1.3327065E+02;
  2.7998471E-01;  9.9999998E-03;  1.8000104E-01;1487; -1.3296160E-02;  0.0000000E+00;  9.0546568E-04;  1.0001429E+03;  4.0000001E-01;  1.1841637E+02;3; -8.2685738E+00;  0.0000000E+00;  5.9726006E-01;0; -9.8528847E-02;  1.0003193E+04;  0.0000000E+00; -3.9199349E-06;  1.0000000E+04;  0.0000000E+00;  9.9996641E+03; -1.1029819E-01;  0.0000000E+00;  1.1769343E-02;  1.6221700E+02;
  2.7998465E-01;  9.9999998E-03;  2.0000133E-01;1488; -1.3389514E-02;  0.0000000E+00;  1.1165342E-03;  1.0001425E+03;  4.0000001E-01;  1.1802132E+02;3; -8.3497276E+00;  0.0000000E+00;  6.9491267E-01;0; -9.8899737E-02;  1.0003249E+04;  0.0000000E+00; -2.0580248E-04;  1.0000000E+04;  0.0000000E+00;  9.9995957E+03; -1.1275298E-01;  0.0000000E+00;  1.3853246E-02;  1.9314296E+02;
  2.7998474E-01;  9.9999998E-03;  2.2000167E-01;1489; -1.3367482E-02;  0.0000000E+00;  1.3689325E-03;  1.0001420E+03;  4.0000001E-01;  1.1762627E+02;3; -8.4219360E+00;  0.0000000E+00;  8.1205380E-01;0; -9.9321172E-02;  1.0003302E+04;  0.0000000E+00; -1.7787105E-03;  1.0000000E+04;  0.0000000E+00;  9.9995342E+03; -1.1503665E-01;  0.0000000E+00;  1.5715478E-02;  2.2115149E+02;
  2.7998498E-01;  9.9999998E-03;  2.4000210E-01;1490; -1.3175483E-02;  0.0000000E+00;  1.6870004E-03;  1.0001420E+03;  4.0000001E-01;  1.1762627E+02;3; -8.5077257E+00;  0.0000000E+00;  9.8793674E-01;0; -1.0024700E-01;  1.0003342E+04;  0.0000000E+00; -7.9712300E-03;  1.0000000E+04;  0.0000000E+00;  9.9994990E+03; -1.1709207E-01;  0.0000000E+00;  1.6845079E-02;  2.4132591E+02;
  2.7998552E-01;  9.9999998E-03;  2.6000273E-01;1491; -1.2735695E-02;  0.0000000E+00;  2.1653597E-03;  1.0001429E+03;  4.0000001E-01;  1.1841637E+02;3; -8.6163864E+00;  0.0000000E+00;  1.3005471E+00;0; -1.0156667E-01;  1.0003368E+04;  0.0000000E+00; -2.4329344E-02;  1.0000000E+04;  0.0000000E+00;  9.9994902E+03; -1.1884528E-01;  0.0000000E+00;  1.7278612E-02;  2.7159302E+02;
  2.7998635E-01;  9.9999998E-03;  2.8000370E-01;1492; -1.2017948E-02;  0.0000000E+00;  2.9062424E-03;  1.0001409E+03;  4.0000001E-01;  1.1673741E+02;3; -8.7200336E+00;  0.0000000E+00;  1.8541079E+00;0; -1.0057484E-01;  1.0003370E+04;  0.0000000E+00; -5.3831425E-02;  1.0000000E+04;  0.0000000E+00;  9.9994492E+03; -1.2001492E-01;  0.0000000E+00;  1.9440081E-02;  3.7714420E+02;
  2.7998754E-01;  9.9999998E-03;  3.0000487E-01;1493; -1.0973236E-02;  0.0000000E+00;  3.7819173E-03;  1.0001317E+03;  4.0000001E-01;  1.0913269E+02;3; -8.6866322E+00;  0.0000000E+00;  2.5897906E+00;0; -9.4481155E-02;  1.0003318E+04;  0.0000000E+00; -8.6530820E-02;  1.0000000E+04;  0.0000000E+00;  9.9993164E+03; -1.1957159E-01;  0.0000000E+00;  2.5090430E-02;  5.4351007E+02;
  2.9998165E-01;  9.9999998E-03;  1.6000101E-01;1517; -1.5498787E-02;  0.0000000E+00;  9.3175343E-04;  1.0001687E+03;  4.0000001E-01;  1.3974908E+02;3; -9.3443766E+00;  0.0000000E+00;  6.7881948E-01;0; -1.1226656E-01;  1.0003729E+04;  0.0000000E+00; -3.8318611E-09;  1.0000000E+04;  0.0000000E+00;  9.9996504E+03; -1.2483985E-01;  0.0000000E+00;  1.2573295E-02;  1.7059431E+02;
  2.9998145E-01;  9.9999998E-03;  1.8000133E-01;1518; -1.5724378E-02;  0.0000000E+00;  1.1800388E-03;  1.0001688E+03;  4.0000001E-01;  1.3984784E+02;3; -9.4792156E+00;  0.0000000E+00;  7.9734170E-01;0; -1.1284937E-01;  1.0003812E+04;  0.0000000E+00; -1.5226650E-08;  1.0000000E+04;  0.0000000E+00;  9.9995654E+03; -1.2787811E-01;  0.0000000E+00;  1.5028747E-02;  2.0863806E+02;
  2.9998133E-01;  9.9999998E-03;  2.0000173E-01;1519; -1.5881063E-02;  0.0000000E+00;  1.4720459E-03;  1.0001680E+03;  4.0000001E-01;  1.3925526E+02;3; -9.5949316E+00;  0.0000000E+00;  9.3193817E-01;0; -1.1317319E-01;  1.0003886E+04;  0.0000000E+00; -3.1166441E-05;  1.0000000E+04;  0.0000000E+00;  9.9994775E+03; -1.3077159E-01;  0.0000000E+00;  1.7598396E-02;  2.4912056E+02;
  2.9998133E-01;  9.9999998E-03;  2.2000220E-01;1520; -1.5924305E-02;  0.0000000E+00;  1.8246386E-03;  1.0001673E+03;  4.0000001E-01;  1.3856393E+02;3; -9.7182827E+00;  0.0000000E+00;  1.0972368E+00;0; -1.1338416E-01;  1.0003949E+04;  0.0000000E+00; -5.1260443E-04;  1.0000000E+04;  0.0000000E+00;  9.9993984E+03; -1.3336474E-01;  0.0000000E+00;  1.9980583E-02;  2.8697485E+02;
  2.9998150E-01;  9.9999998E-03;  2.4000280E-01;1521; -1.5793622E-02;  0.0000000E+00;  2.2561457E-03;  1.0001666E+03;  4.0000001E-01;  1.3797136E+02;3; -9.8855114E+00;  0.0000000E+00;  1.3340950E+00;0; -1.1374371E-01;  1.0003998E+04;  0.0000000E+00; -2.9593145E-03;  1.0000000E+04;  0.0000000E+00;  9.9993340E+03; -1.3553885E-01;  0.0000000E+00;  2.1795133E-02;  3.1533344E+02;
  2.9998198E-01;  9.9999998E-03;  2.6000363E-01;1522; -1.5425576E-02;  0.0000000E+00;  2.8454533E-03;  1.0001660E+03;  4.0000001E-01;  1.3757631E+02;3; -1.0129765E+01;  0.0000000E+00;  1.6947589E+00;0; -1.1397918E-01;  1.0004028E+04;  0.0000000E+00; -1.0252557E-02;  1.0000000E+04;  0.0000000E+00;  9.9992949E+03; -1.3719596E-01;  0.0000000E+00;  2.3216778E-02;  3.3650821E+02;
  2.9998276E-01;  9.9999998E-03;  2.8000477E-01;1523; -1.4775528E-02;  0.0000000E+00;  3.6563510E-03;  1.0001625E+03;  4.0000001E-01;  1.3461342E+02;3; -1.0430684E+01;  0.0000000E+00;  2.2702296E+00;0; -1.1183717E-01;  1.0004028E+04;  0.0000000E+00; -2.4378719E-02;  1.0000000E+04;  0.0000000E+00;  9.9992207E+03; -1.3817251E-01;  0.0000000E+00;  2.6335336E-02;  3.8530978E+02;
  2.9998392E-01;  9.9999998E-03;  3.0000606E-01;1524; -1.3802069E-02;  0.0000000E+00;  4.5505394E-03;  1.0001532E+03;  4.0000001E-01;  1.2690994E+02;3; -1.0662502E+01;  0.0000000E+00;  3.0213785E+00;0; -1.0618219E-01;  1.0003989E+04;  0.0000000E+00; -4.0496424E-02;  1.0000000E+04;  0.0000000E+00;  9.9990771E+03; -1.3797644E-01;  0.0000000E+00;  3.1794254E-02;  4.7582700E+02;
  3.1997785E-01;  9.9999998E-03;  1.6000125E-01;1548; -1.8233903E-02;  0.0000000E+00;  1.1709959E-03;  1.0001993E+03;  4.0000001E-01;  1.6513107E+02;3; -1.0655119E+01;  0.0000000E+00;  8.6913377E-01;0; -1.2842259E-01;  1.0004431E+04;  0.0000000E+00;  9.4208696E-10;  1.0000000E+04;  0.0000000E+00;  9.9995586E+03; -1.4411440E-01;  0.0000000E+00;  1.5691813E-02;  2.1352060E+02;
  3.1997752E-01;  9.9999998E-03;  1.8000168E-01;1549; -1.8535573E-02;  0.0000000E+00;  1.4957354E-03;  1.0001993E+03;  4.0000001E-01;  1.6513107E+02;3; -1.0820755E+01;  0.0000000E+00;  1.0250196E+00;0; -1.2903407E-01;  1.0004533E+04;  0.0000000E+00; -2.6584070E-08;  1.0000000E+04;  0.0000000E+00;  9.9994561E+03; -1.4767894E-01;  0.0000000E+00;  1.8644871E-02;  2.6184708E+02;
  3.1997731E-01;  9.9999998E-03;  2.0000219E-01;1550; -1.8766511E-02;  0.0000000E+00;  1.8770858E-03;  1.0001986E+03;  4.0000001E-01;  1.6453850E+02;3; -1.0972389E+01;  0.0000000E+00;  1.1965058E+00;0; -1.2936260E-01;  1.0004629E+04;  0.0000000E+00;  1.7771222E-07;  1.0000000E+04;  0.0000000E+00;  9.9993447E+03; -1.5101381E-01;  0.0000000E+00;  2.1651212E-02;  3.1273776E+02;
  3.1997722E-01;  9.9999998E-03;  2.2000282E-01;1551; -1.8876072E-02;  0.0000000E+00;  2.3208654E-03;  1.0001974E+03;  4.0000001E-01;  1.6355087E+02;3; -1.1144922E+01;  0.0000000E+00;  1.3981800E+00;0; -1.2950145E-01;  1.0004711E+04;  0.0000000E+00; -5.3493593E-05;  1.0000000E+04;  0.0000000E+00;  9.9992402E+03; -1.5391983E-01;  0.0000000E+00;  2.4418382E-02;  3.6050851E+02;
  3.1997737E-01;  9.9999998E-03;  2.4000357E-01;1552; -1.8803231E-02;  0.0000000E+00;  2.8561964E-03;  1.0001962E+03;  4.0000001E-01;  1.6256325E+02;3; -1.1390469E+01;  0.0000000E+00;  1.6699703E+00;0; -1.2961529E-01;  1.0004770E+04;  0.0000000E+00; -5.9130898E-04;  1.0000000E+04;  0.0000000E+00;  9.9991572E+03; -1.5625772E-01;  0.0000000E+00;  2.6642425E-02;  3.9805090E+02;
  3.1997779E-01;  9.9999998E-03;  2.6000458E-01;1553; -1.8483866E-02;  0.0000000E+00;  3.5289605E-03;  1.0001951E+03;  4.0000001E-01;  1.6167438E+02;3; -1.1765089E+01;  0.0000000E+00;  2.0568886E+00;0; -1.2947616E-01;  1.0004807E+04;  0.0000000E+00; -2.6980042E-03;  1.0000000E+04;  0.0000000E+00;  9.9990996E+03; -1.5795286E-01;  0.0000000E+00;  2.8476695E-02;  4.2476184E+02;
  3.1997856E-01;  9.9999998E-03;  2.8000587E-01;1554; -1.7865473E-02;  0.0000000E+00;  4.3865386E-03;  1.0001915E+03;  4.0000001E-01;  1.5871150E+02;3; -1.2255099E+01;  0.0000000E+00;  2.6480236E+00;0; -1.2732486E-01;  1.0004817E+04;  0.0000000E+00; -7.3792771E-03;  1.0000000E+04;  0.0000000E+00;  9.9990137E+03; -1.5895480E-01;  0.0000000E+00;  3.1629931E-02;  4.6443301E+02;
  3.1997976E-01;  9.9999998E-03;  3.0000734E-01;1555; -1.6918844E-02;  0.0000000E+00;  5.3169238E-03;  1.0001833E+03;  4.0000001E-01;  1.5189688E+02;3; -1.2743320E+01;  0.0000000E+00;  3.4231603E+00;0; -1.2258038E-01;  1.0004799E+04;  0.0000000E+00; -1.3353813E-02;  1.0000000E+04;  0.0000000E+00;  9.9988701E+03; -1.5911685E-01;  0.0000000E+00;  3.6536470E-02;  5.3143109E+02;
  3.3997330E-01;  9.9999998E-03;  1.6000152E-01;1579; -2.1387277E-02;  0.0000000E+00;  1.4337976E-03;  1.0002351E+03;  4.0000001E-01;  1.9475984E+02;3; -1.2103477E+01;  0.0000000E+00;  1.0834326E+00;0; -1.4665429E-01;  1.0005246E+04;  0.0000000E+00;  1.9274584E-08;  1.0000000E+04;  0.0000000E+00;  9.9994590E+03; -1.6578931E-01;  0.0000000E+00;  1.9135019E-02;  2.6183807E+02;
  3.3997285E-01;  9.9999998E-03;  1.8000205E-01;1580; -2.1778494E-02;  0.0000000E+00;  1.8444638E-03;  1.0002352E+03;  4.0000001E-01;  1.9485860E+02;3; -1.2298928E+01;  0.0000000E+00;  1.2771477E+00;0; -1.4734644E-01;  1.0005375E+04;  0.0000000E+00; -2.7130685E-08;  1.0000000E+04;  0.0000000E+00;  9.9993281E+03; -1.6993722E-01;  0.0000000E+00;  2.2590779E-02;  3.2179251E+02;
  3.3997253E-01;  9.9999998E-03;  2.0000270E-01;1581; -2.2093708E-02;  0.0000000E+00;  2.3196614E-03;  1.0002344E+03;  4.0000001E-01;  1.9426602E+02;3; -1.2485136E+01;  0.0000000E+00;  1.4827255E+00;0; -1.4773527E-01;  1.0005493E+04;  0.0000000E+00;  1.4329291E-07;  1.0000000E+04;  0.0000000E+00;  9.9991914E+03; -1.7374296E-01;  0.0000000E+00;  2.6007701E-02;  3.8441632E+02;
  3.3997235E-01;  9.9999998E-03;  2.2000349E-01;1582; -2.2275187E-02;  0.0000000E+00;  2.8614046E-03;  1.0002332E+03;  4.0000001E-01;  1.9317964E+02;3; -1.2705947E+01;  0.0000000E+00;  1.7104417E+00;0; -1.4789727E-01;  1.0005595E+04;  0.0000000E+00;  1.5512204E-06;  1.0000000E+04;  0.0000000E+00;  9.9990693E+03; -1.7697233E-01;  0.0000000E+00;  2.9075051E-02;  4.4288339E+02;
  3.3997244E-01;  9.9999998E-03;  2.4000442E-01;1583; -2.2249594E-02;  0.0000000E+00;  3.4909169E-03;  1.0002318E+03;  4.0000001E-01;  1.9209325E+02;3; -1.3026863E+01;  0.0000000E+00;  2.0070338E+00;0; -1.4799005E-01;  1.0005670E+04;  0.0000000E+00; -1.6421793E-05;  1.0000000E+04;  0.0000000E+00;  9.9989707E+03; -1.7948438E-01;  0.0000000E+00;  3.1494331E-02;  4.8916046E+02;
  3.3997285E-01;  9.9999998E-03;  2.6000562E-01;1584; -2.1951588E-02;  0.0000000E+00;  4.2313887E-03;  1.0002308E+03;  4.0000001E-01;  1.9120438E+02;3; -1.3526039E+01;  0.0000000E+00;  2.4032278E+00;0; -1.4796850E-01;  1.0005719E+04;  0.0000000E+00; -2.5494432E-04;  1.0000000E+04;  0.0000000E+00;  9.9989004E+03; -1.8124779E-01;  0.0000000E+00;  3.3279285E-02;  5.2113672E+02;
  3.3997369E-01;  9.9999998E-03;  2.8000712E-01;1585; -2.1315947E-02;  0.0000000E+00;  5.1472415E-03;  1.0002276E+03;  4.0000001E-01;  1.8853780E+02;3; -1.4192992E+01;  0.0000000E+00;  3.0145707E+00;0; -1.4628623E-01;  1.0005740E+04;  0.0000000E+00; -1.0173859E-03;  1.0000000E+04;  0.0000000E+00;  9.9988125E+03; -1.8231769E-01;  0.0000000E+00;  3.6031451E-02;  5.6128796E+02;
  3.3997497E-01;  9.9999998E-03;  3.0000877E-01;1586; -2.0321622E-02;  0.0000000E+00;  6.1345422E-03;  1.0002205E+03;  4.0000001E-01;  1.8261203E+02;3; -1.4905640E+01;  0.0000000E+00;  3.8319778E+00;0; -1.4245471E-01;  1.0005742E+04;  0.0000000E+00; -2.1904809E-03;  1.0000000E+04;  0.0000000E+00;  9.9986670E+03; -1.8277486E-01;  0.0000000E+00;  4.0320139E-02;  6.2508020E+02;
  3.5996792E-01;  9.9999998E-03;  1.6000180E-01;1610; -2.5012072E-02;  0.0000000E+00;  1.7178998E-03;  1.0002768E+03;  4.0000001E-01;  2.2932671E+02;3; -1.3695651E+01;  0.0000000E+00;  1.3132607E+00;0; -1.6719222E-01;  1.0006193E+04;  0.0000000E+00;  4.2463697E-08;  1.0000000E+04;  0.0000000E+00;  9.9993467E+03; -1.9007273E-01;  0.0000000E+00;  2.2880509E-02;  3.1535281E+02;
  3.5996732E-01;  9.9999998E-03;  1.8000245E-01;1611; -2.5507051E-02;  0.0000000E+00;  2.2213550E-03;  1.0002772E+03;  4.0000001E-01;  2.2972176E+02;3; -1.3918596E+01;  0.0000000E+00;  1.5464590E+00;0; -1.6804194E-01;  1.0006357E+04;  0.0000000E+00; -1.2647186E-08;  1.0000000E+04;  0.0000000E+00;  9.9991895E+03; -1.9490358E-01;  0.0000000E+00;  2.6861632E-02;  3.8849005E+02;
  3.5996681E-01;  9.9999998E-03;  2.0000327E-01;1612; -2.5918534E-02;  0.0000000E+00;  2.8001068E-03;  1.0002766E+03;  4.0000001E-01;  2.2912918E+02;3; -1.4137476E+01;  0.0000000E+00;  1.7846868E+00;0; -1.6856693E-01;  1.0006507E+04;  0.0000000E+00;  1.1662198E-07;  1.0000000E+04;  0.0000000E+00;  9.9990264E+03; -1.9926684E-01;  0.0000000E+00;  3.0699905E-02;  4.6472446E+02;
  3.5996655E-01;  9.9999998E-03;  2.2000423E-01;1613; -2.6176998E-02;  0.0000000E+00;  3.4467122E-03;  1.0002754E+03;  4.0000001E-01;  2.2814156E+02;3; -1.4404243E+01;  0.0000000E+00;  2.0372758E+00;0; -1.6882855E-01;  1.0006632E+04;  0.0000000E+00;  1.7275853E-06;  1.0000000E+04;  0.0000000E+00;  9.9988770E+03; -2.0288649E-01;  0.0000000E+00;  3.4057949E-02;  5.3574884E+02;
  3.5996658E-01;  9.9999998E-03;  2.4000537E-01;1614; -2.6195267E-02;  0.0000000E+00;  4.1740253E-03;  1.0002741E+03;  4.0000001E-01;  2.2705518E+02;3; -1.4802588E+01;  0.0000000E+00;  2.3503120E+00;0; -1.6900846E-01;  1.0006727E+04;  0.0000000E+00;  6.9695611E-06;  1.0000000E+04;  0.0000000E+00;  9.9987568E+03; -2.0561355E-01;  0.0000000E+00;  3.6605090E-02;  5.9195026E+02;
  3.5996699E-01;  9.9999998E-03;  2.6000679E-01;1615; -2.5902068E-02;  0.0000000E+00;  4.9838624E-03;  1.0002732E+03;  4.0000001E-01;  2.2636383E+02;3; -1.5431755E+01;  0.0000000E+00;  2.7481184E+00;0; -1.6928566E-01;  1.0006785E+04;  0.0000000E+00;  1.6797754E-05;  1.0000000E+04;  0.0000000E+00;  9.9986787E+03; -2.0744909E-01;  0.0000000E+00;  3.8163435E-02;  6.2918488E+02;
  3.5996792E-01;  9.9999998E-03;  2.8000852E-01;1616; -2.5213076E-02;  0.0000000E+00;  5.9699188E-03;  1.0002701E+03;  4.0000001E-01;  2.2379601E+02;3; -1.6277912E+01;  0.0000000E+00;  3.3845181E+00;0; -1.6818498E-01;  1.0006820E+04;  0.0000000E+00;  1.9780282E-05;  1.0000000E+04;  0.0000000E+00;  9.9985869E+03; -2.0851988E-01;  0.0000000E+00;  4.0334899E-02;  6.7084265E+02;
  3.5996941E-01;  9.9999998E-03;  3.0001044E-01;1617; -2.4102340E-02;  0.0000000E+00;  7.0377877E-03;  1.0002635E+03;  4.0000001E-01;  2.1836406E+02;3; -1.7198229E+01;  0.0000000E+00;  4.2640476E+00;0; -1.6493461E-01;  1.0006831E+04;  0.0000000E+00; -1.2411031E-05;  1.0000000E+04;  0.0000000E+00;  9.9984434E+03; -2.0902681E-01;  0.0000000E+00;  4.4092216E-02;  7.3617383E+02;
  3.7996155E-01;  9.9999998E-03;  1.6000213E-01;1641; -2.9164145E-02;  0.0000000E+00;  2.0250799E-03;  1.0003254E+03;  4.0000001E-01;  2.6962180E+02;3; -1.5439865E+01;  0.0000000E+00;  1.5576463E+00;0; -1.9025367E-01;  1.0007282E+04;  0.0000000E+00;  5.7860600E-08;  1.0000000E+04;  0.0000000E+00;  9.9992275E+03; -2.1715707E-01;  0.0000000E+00;  2.6903389E-02;  3.7388690E+02;
  3.7996075E-01;  9.9999998E-03;  1.8000291E-01;1642; -2.9778892E-02;  0.0000000E+00;  2.6293828E-03;  1.0003265E+03;  4.0000001E-01;  2.7051065E+02;3; -1.5685163E+01;  0.0000000E+00;  1.8352568E+00;0; -1.9136286E-01;  1.0007490E+04;  0.0000000E+00;  1.1763317E-08;  1.0000000E+04;  0.0000000E+00;  9.9990391E+03; -2.2281390E-01;  0.0000000E+00;  3.1451050E-02;  4.6180927E+02;
  3.7996006E-01;  9.9999998E-03;  2.0000388E-01;1643; -3.0299019E-02;  0.0000000E+00;  3.3211105E-03;  1.0003262E+03;  4.0000001E-01;  2.7031314E+02;3; -1.5930746E+01;  0.0000000E+00;  2.1083114E+00;0; -1.9212109E-01;  1.0007684E+04;  0.0000000E+00;  9.5068430E-08;  1.0000000E+04;  0.0000000E+00;  9.9988408E+03; -2.2788246E-01;  0.0000000E+00;  3.5761364E-02;  5.5395447E+02;
  3.7995964E-01;  9.9999998E-03;  2.2000507E-01;1644; -3.0641953E-02;  0.0000000E+00;  4.0839333E-03;  1.0003253E+03;  4.0000001E-01;  2.6952304E+02;3; -1.6241575E+01;  0.0000000E+00;  2.3844316E+00;0; -1.9257645E-01;  1.0007847E+04;  0.0000000E+00;  1.9700310E-06;  1.0000000E+04;  0.0000000E+00;  9.9986611E+03; -2.3203877E-01;  0.0000000E+00;  3.9462309E-02;  6.4018140E+02;
  3.7995958E-01;  9.9999998E-03;  2.4000645E-01;1645; -3.0708287E-02;  0.0000000E+00;  4.9190223E-03;  1.0003242E+03;  4.0000001E-01;  2.6863419E+02;3; -1.6730965E+01;  0.0000000E+00;  2.6988165E+00;0; -1.9293046E-01;  1.0007970E+04;  0.0000000E+00;  8.6246755E-06;  1.0000000E+04;  0.0000000E+00;  9.9985156E+03; -2.3511799E-01;  0.0000000E+00;  4.2187519E-02;  7.0901135E+02;
  3.7996003E-01;  9.9999998E-03;  2.6000810E-01;1646; -3.0412588E-02;  0.0000000E+00;  5.8156778E-03;  1.0003235E+03;  4.0000001E-01;  2.6804160E+02;3; -1.7495836E+01;  0.0000000E+00;  3.1074686E+00;0; -1.9357549E-01;  1.0008054E+04;  0.0000000E+00;  2.1687747E-05;  1.0000000E+04;  0.0000000E+00;  9.9984199E+03; -2.3713621E-01;  0.0000000E+00;  4.3560725E-02;  7.5442749E+02;
  3.7996107E-01;  9.9999998E-03;  2.8001016E-01;1647; -2.9655542E-02;  0.0000000E+00;  6.8866750E-03;  1.0003207E+03;  4.0000001E-01;  2.6577005E+02;3; -1.8544437E+01;  0.0000000E+00;  3.7693214E+00;0; -1.9307321E-01;  1.0008098E+04;  0.0000000E+00;  3.4664874E-05;  1.0000000E+04;  0.0000000E+00;  9.9983203E+03; -2.3825626E-01;  0.0000000E+00;  4.5183044E-02;  8.0186719E+02;
  3.7996283E-01;  9.9999998E-03;  3.0001241E-01;1648; -2.8398141E-02;  0.0000000E+00;  8.0493335E-03;  1.0003139E+03;  4.0000001E-01;  2.6004184E+02;3; -1.9696020E+01;  0.0000000E+00;  4.7174625E+00;0; -1.9029894E-01;  1.0008115E+04;  0.0000000E+00;  2.9540195E-05;  1.0000000E+04;  0.0000000E+00;  9.9981680E+03; -2.3872882E-01;  0.0000000E+00;  4.8429880E-02;  8.7282416E+02;
  3.9995405E-01;  9.9999998E-03;  1.6000250E-01;1672; -3.3899881E-02;  0.0000000E+00;  2.3626441E-03;  1.0003818E+03;  4.0000001E-01;  3.1633643E+02;3; -1.7343538E+01;  0.0000000E+00;  1.8141260E+00;0; -2.1603221E-01;  1.0008538E+04;  0.0000000E+00;  4.5968868E-08;  1.0000000E+04;  0.0000000E+00;  9.9990977E+03; -2.4719772E-01;  0.0000000E+00;  3.1165514E-02;  4.3741589E+02;
  3.9995301E-01;  9.9999998E-03;  1.8000342E-01;1673; -3.4653742E-02;  0.0000000E+00;  3.0745815E-03;  1.0003839E+03;  4.0000001E-01;  3.1801538E+02;3; -1.7604107E+01;  0.0000000E+00;  2.1437917E+00;0; -2.1753667E-01;  1.0008801E+04;  0.0000000E+00;  4.3810022E-08;  1.0000000E+04;  0.0000000E+00;  9.9988760E+03; -2.5385973E-01;  0.0000000E+00;  3.6323059E-02;  5.4134564E+02;
  3.9995208E-01;  9.9999998E-03;  2.0000458E-01;1674; -3.5298157E-02;  0.0000000E+00;  3.8894452E-03;  1.0003844E+03;  4.0000001E-01;  3.1850919E+02;3; -1.7868071E+01;  0.0000000E+00;  2.4580870E+00;0; -2.1865149E-01;  1.0009048E+04;  0.0000000E+00;  8.5203325E-08;  1.0000000E+04;  0.0000000E+00;  9.9986436E+03; -2.5983855E-01;  0.0000000E+00;  4.1187067E-02;  6.5176300E+02;
  3.9995149E-01;  9.9999998E-03;  2.2000599E-01;1675; -3.5735659E-02;  0.0000000E+00;  4.7835638E-03;  1.0003842E+03;  4.0000001E-01;  3.1831168E+02;3; -1.8218504E+01;  0.0000000E+00;  2.7610507E+00;0; -2.1941657E-01;  1.0009264E+04;  0.0000000E+00;  2.2968200E-06;  1.0000000E+04;  0.0000000E+00;  9.9984219E+03; -2.6475248E-01;  0.0000000E+00;  4.5335904E-02;  7.5626355E+02;
  3.9995131E-01;  9.9999998E-03;  2.4000764E-01;1676; -3.5854246E-02;  0.0000000E+00;  5.7459893E-03;  1.0003835E+03;  4.0000001E-01;  3.1771909E+02;3; -1.8798820E+01;  0.0000000E+00;  3.0813875E+00;0; -2.2005069E-01;  1.0009432E+04;  0.0000000E+00;  1.0840372E-05;  1.0000000E+04;  0.0000000E+00;  9.9982422E+03; -2.6840892E-01;  0.0000000E+00;  4.8358232E-02;  8.4112323E+02;
  3.9995176E-01;  9.9999998E-03;  2.6000965E-01;1677; -3.5553373E-02;  0.0000000E+00;  6.7538912E-03;  1.0003834E+03;  4.0000001E-01;  3.1762033E+02;3; -1.9719946E+01;  0.0000000E+00;  3.4925621E+00;0; -2.2111085E-01;  1.0009550E+04;  0.0000000E+00;  2.8223465E-05;  1.0000000E+04;  0.0000000E+00;  9.9981230E+03; -2.7082607E-01;  0.0000000E+00;  4.9715221E-02;  8.9918311E+02;
  3.9995292E-01;  9.9999998E-03;  2.8001210E-01;1678; -3.4722917E-02;  0.0000000E+00;  7.9263542E-03;  1.0003808E+03;  4.0000001E-01;  3.1544757E+02;3; -2.1005220E+01;  0.0000000E+00;  4.1764116E+00;0; -2.2129621E-01;  1.0009618E+04;  0.0000000E+00;  4.5915531E-05;  1.0000000E+04;  0.0000000E+00;  9.9979990E+03; -2.7219293E-01;  0.0000000E+00;  5.0896723E-02;  9.5922479E+02;
  3.9995497E-01;  9.9999998E-03;  3.0001476E-01;1679; -3.3309154E-02;  0.0000000E+00;  9.1944234E-03;  1.0003736E+03;  4.0000001E-01;  3.0952182E+02;3; -2.2434130E+01;  0.0000000E+00;  5.1994586E+00;0; -2.1924040E-01;  1.0009654E+04;  0.0000000E+00;  3.8751834E-05;  1.0000000E+04;  0.0000000E+00;  9.9978223E+03; -2.7279663E-01;  0.0000000E+00;  5.3556237E-02;  1.0417661E+03;
  4.1994530E-01;  9.9999998E-03;  1.6000299E-01;1703; -3.9276235E-02;  0.0000000E+00;  2.7490505E-03;  1.0004465E+03;  4.0000001E-01;  3.6986560E+02;3; -1.9414354E+01;  0.0000000E+00;  2.0804110E+00;0; -2.4466124E-01;  1.0009972E+04;  0.0000000E+00; -2.6343077E-08;  1.0000000E+04;  0.0000000E+00;  9.9989580E+03; -2.8027818E-01;  0.0000000E+00;  3.5616931E-02;  5.0654123E+02;
  4.1994393E-01;  9.9999998E-03;  1.8000403E-01;1704; -4.0193655E-02;  0.0000000E+00;  3.5716274E-03;  1.0004502E+03;  4.0000001E-01;  3.7302600E+02;3; -1.9681387E+01;  0.0000000E+00;  2.4712355E+00;0; -2.4674833E-01;  1.0010301E+04;  0.0000000E+00;  6.2495253E-08;  1.0000000E+04;  0.0000000E+00;  9.9987012E+03; -2.8814617E-01;  0.0000000E+00;  4.1397844E-02;  6.2665314E+02;
  4.1994271E-01;  9.9999998E-03;  2.0000537E-01;1705; -4.0983416E-02;  0.0000000E+00;  4.5170011E-03;  1.0004520E+03;  4.0000001E-01;  3.7450745E+02;3; -1.9953215E+01;  0.0000000E+00;  2.8341322E+00;0; -2.4838549E-01;  1.0010620E+04;  0.0000000E+00;  1.0439388E-07;  1.0000000E+04;  0.0000000E+00;  9.9984258E+03; -2.9528734E-01;  0.0000000E+00;  4.6901852E-02;  7.5709277E+02;
  4.1994184E-01;  9.9999998E-03;  2.2000702E-01;1706; -4.1530188E-02;  0.0000000E+00;  5.5564917E-03;  1.0004531E+03;  4.0000001E-01;  3.7539630E+02;3; -2.0334406E+01;  0.0000000E+00;  3.1728041E+00;0; -2.4961945E-01;  1.0010900E+04;  0.0000000E+00;  2.8310396E-06;  1.0000000E+04;  0.0000000E+00;  9.9981631E+03; -3.0125302E-01;  0.0000000E+00;  5.1633563E-02;  8.8268597E+02;
  4.1994151E-01;  9.9999998E-03;  2.4000901E-01;1707; -4.1706771E-02;  0.0000000E+00;  6.6705598E-03;  1.0004539E+03;  4.0000001E-01;  3.7608765E+02;3; -2.1005592E+01;  0.0000000E+00;  3.5081787E+00;0; -2.5068057E-01;  1.0011138E+04;  0.0000000E+00;  1.3838986E-05;  1.0000000E+04;  0.0000000E+00;  9.9979434E+03; -3.0580184E-01;  0.0000000E+00;  5.5121258E-02;  9.8678986E+02;
  4.1994190E-01;  9.9999998E-03;  2.6001143E-01;1708; -4.1400891E-02;  0.0000000E+00;  7.8230165E-03;  1.0004548E+03;  4.0000001E-01;  3.7677899E+02;3; -2.2102016E+01;  0.0000000E+00;  3.9232850E+00;0; -2.5222340E-01;  1.0011309E+04;  0.0000000E+00;  3.6812595E-05;  1.0000000E+04;  0.0000000E+00;  9.9977900E+03; -3.0893105E-01;  0.0000000E+00;  5.6707643E-02;  1.0621757E+03;
  4.1994321E-01;  9.9999998E-03;  2.8001440E-01;1709; -4.0493421E-02;  0.0000000E+00;  9.1243694E-03;  1.0004521E+03;  4.0000001E-01;  3.7460620E+02;3; -2.3663097E+01;  0.0000000E+00;  4.6201925E+00;0; -2.5313860E-01;  1.0011427E+04;  0.0000000E+00;  6.0160128E-05;  1.0000000E+04;  0.0000000E+00;  9.9976240E+03; -3.1083646E-01;  0.0000000E+00;  5.7697870E-02;  1.1442804E+03;
  4.1994560E-01;  9.9999998E-03;  3.0001757E-01;1710; -3.8911480E-02;  0.0000000E+00;  1.0511577E-02;  1.0004449E+03;  4.0000001E-01;  3.6858170E+02;3; -2.5413200E+01;  0.0000000E+00;  5.7320910E+00;0; -2.5218278E-01;  1.0011494E+04;  0.0000000E+00;  4.8666698E-05;  1.0000000E+04;  0.0000000E+00;  9.9974072E+03; -3.1183121E-01;  0.0000000E+00;  5.9648428E-02;  1.2488475E+03;
  4.3993512E-01;  9.9999998E-03;  1.6000366E-01;1734; -4.5354083E-02;  0.0000000E+00;  3.2214667E-03;  1.0005198E+03;  4.0000001E-01;  4.3070316E+02;3; -2.1659273E+01;  0.0000000E+00;  2.3554199E+00;0; -2.7610356E-01;  1.0011601E+04;  0.0000000E+00; -1.8215191E-07;  1.0000000E+04;  0.0000000E+00;  9.9988018E+03; -3.1632340E-01;  0.0000000E+00;  4.0219836E-02;  5.8343616E+02;
  4.3993333E-01;  9.9999998E-03;  1.8000482E-01;1735; -4.6465874E-02;  0.0000000E+00;  4.1505359E-03;  1.0005256E+03;  4.0000001E-01;  4.3544376E+02;3; -2.1922226E+01;  0.0000000E+00;  2.8153675E+00;0; -2.7903253E-01;  1.0012003E+04;  0.0000000E+00;  1.4029974E-08;  1.0000000E+04;  0.0000000E+00;  9.9985186E+03; -3.2559603E-01;  0.0000000E+00;  4.6563521E-02;  7.1807635E+02;
  4.3993172E-01;  9.9999998E-03;  2.0000632E-01;1736; -4.7429278E-02;  0.0000000E+00;  5.2244426E-03;  1.0005299E+03;  4.0000001E-01;  4.3899921E+02;3; -2.2189255E+01;  0.0000000E+00;  3.2344182E+00;0; -2.8142512E-01;  1.0012406E+04;  0.0000000E+00;  2.2868306E-07;  1.0000000E+04;  0.0000000E+00;  9.9982012E+03; -3.3418152E-01;  0.0000000E+00;  5.2756414E-02;  8.6877698E+02;
  4.3993050E-01;  9.9999998E-03;  2.2000821E-01;1737; -4.8106845E-02;  0.0000000E+00;  6.4152223E-03;  1.0005334E+03;  4.0000001E-01;  4.4186331E+02;3; -2.2588535E+01;  0.0000000E+00;  3.6196532E+00;0; -2.8336442E-01;  1.0012780E+04;  0.0000000E+00;  3.8886719E-06;  1.0000000E+04;  0.0000000E+00;  9.9978887E+03; -3.4155822E-01;  0.0000000E+00;  5.8193803E-02;  1.0169697E+03;
  4.3992990E-01;  9.9999998E-03;  2.4001054E-01;1738; -4.8352934E-02;  0.0000000E+00;  7.7015194E-03;  1.0005363E+03;  4.0000001E-01;  4.4433237E+02;3; -2.3346739E+01;  0.0000000E+00;  3.9836369E+00;0; -2.8510475E-01;  1.0013104E+04;  0.0000000E+00;  1.8361647E-05;  1.0000000E+04;  0.0000000E+00;  9.9976279E+03; -3.4740856E-01;  0.0000000E+00;  6.2303826E-02;  1.1418696E+03;
  4.3993023E-01;  9.9999998E-03;  2.6001346E-01;1739; -4.8046038E-02;  0.0000000E+00;  9.0434393E-03;  1.0005394E+03;  4.0000001E-01;  4.4690021E+02;3; -2.4637562E+01;  0.0000000E+00;  4.4120359E+00;0; -2.8726178E-01;  1.0013359E+04;  0.0000000E+00;  4.8454549E-05;  1.0000000E+04;  0.0000000E+00;  9.9974316E+03; -3.5167420E-01;  0.0000000E+00;  6.4412422E-02;  1.2373376E+03;
  4.3993166E-01;  9.9999998E-03;  2.8001708E-01;1740; -4.7059700E-02;  0.0000000E+00;  1.0522896E-02;  1.0005370E+03;  4.0000001E-01;  4.4492496E+02;3; -2.6518156E+01;  0.0000000E+00;  5.1181340E+00;0; -2.8883308E-01;  1.0013548E+04;  0.0000000E+00;  7.7861383E-05;  1.0000000E+04;  0.0000000E+00;  9.9971953E+03; -3.5452837E-01;  0.0000000E+00;  6.5695271E-02;  1.3537175E+03;
  4.3993437E-01;  9.9999998E-03;  3.0002093E-01;1741; -4.5300920E-02;  0.0000000E+00;  1.2043342E-02;  1.0005288E+03;  4.0000001E-01;  4.3811035E+02;3; -2.8655270E+01;  0.0000000E+00;  6.3034511E+00;0; -2.8934735E-01;  1.0013677E+04;  0.0000000E+00;  5.7010049E-05;  1.0000000E+04;  0.0000000E+00;  9.9969043E+03; -3.5629079E-01;  0.0000000E+00;  6.6943422E-02;  1.4962977E+03;
  4.5992327E-01;  9.9999998E-03;  1.6000468E-01;1765; -5.2201401E-02;  0.0000000E+00;  3.8471001E-03;  1.0006024E+03;  4.0000048E-01;  4.9904648E+02;3; -2.4083382E+01;  0.0000000E+00;  2.6417627E+00;0; -3.0990034E-01;  1.0013405E+04;  0.0000000E+00; -3.9015325E-07;  1.0000000E+04;  0.0000000E+00;  9.9986211E+03; -3.5490179E-01;  0.0000000E+00;  4.5001455E-02;  6.7327606E+02;
  4.5992097E-01;  9.9999998E-03;  1.8000594E-01;1766; -5.3544357E-02;  0.0000000E+00;  4.8680399E-03;  1.0006116E+03;  4.0000051E-01;  5.0665118E+02;3; -2.4332033E+01;  0.0000000E+00;  3.1725540E+00;0; -3.1401423E-01;  1.0013896E+04;  0.0000000E+00; -2.4361256E-08;  1.0000000E+04;  0.0000000E+00;  9.9983135E+03; -3.6573949E-01;  0.0000000E+00;  5.1725280E-02;  8.1834320E+02;
  4.5991883E-01;  9.9999998E-03;  2.0000757E-01;1767; -5.4718047E-02;  0.0000000E+00;  6.0521076E-03;  1.0006190E+03;  4.0000057E-01;  5.1277448E+02;3; -2.4580854E+01;  0.0000000E+00;  3.6515422E+00;0; -3.1748000E-01;  1.0014401E+04;  0.0000000E+00;  7.0239332E-07;  1.0000000E+04;  0.0000000E+00;  9.9979609E+03; -3.7604812E-01;  0.0000000E+00;  5.8568127E-02;  9.8719971E+02;
  4.5991713E-01;  9.9999998E-03;  2.2000965E-01;1768; -5.5557568E-02;  0.0000000E+00;  7.3848055E-03;  1.0006257E+03;  4.0000054E-01;  5.1840393E+02;3; -2.4982443E+01;  0.0000000E+00;  4.0991192E+00;0; -3.2046524E-01;  1.0014893E+04;  0.0000000E+00;  6.2278873E-06;  1.0000000E+04;  0.0000000E+00;  9.9976055E+03; -3.8523173E-01;  0.0000000E+00;  6.4766496E-02;  1.1570372E+03;
  4.5991620E-01;  9.9999998E-03;  2.4001230E-01;1769; -5.5894535E-02;  0.0000000E+00;  8.8514788E-03;  1.0006330E+03;  4.0000045E-01;  5.2442841E+02;3; -2.5820726E+01;  0.0000000E+00;  4.5080829E+00;0; -3.2329804E-01;  1.0015334E+04;  0.0000000E+00;  2.5969095E-05;  1.0000000E+04;  0.0000000E+00;  9.9973047E+03; -3.9286822E-01;  0.0000000E+00;  6.9570191E-02;  1.3009097E+03;
  4.5991632E-01;  9.9999998E-03;  2.6001579E-01;1770; -5.5597775E-02;  0.0000000E+00;  1.0432187E-02;  1.0006397E+03;  4.0000054E-01;  5.2995911E+02;3; -2.7324234E+01;  0.0000000E+00;  4.9730477E+00;0; -3.2638282E-01;  1.0015706E+04;  0.0000000E+00;  6.5484244E-05;  1.0000000E+04;  0.0000000E+00;  9.9970723E+03; -3.9880344E-01;  0.0000000E+00;  7.2420619E-02;  1.4140253E+03;
  4.5991781E-01;  9.9999998E-03;  2.8002030E-01;1771; -5.4536376E-02;  0.0000000E+00;  1.2171288E-02;  1.0006377E+03;  4.0000054E-01;  5.2828015E+02;3; -2.9572577E+01;  0.0000000E+00;  5.6923184E+00;0; -3.2836279E-01;  1.0015996E+04;  0.0000000E+00;  1.0066552E-04;  1.0000000E+04;  0.0000000E+00;  9.9967402E+03; -4.0314537E-01;  0.0000000E+00;  7.4782588E-02;  1.5769983E+03;
  4.5992088E-01;  9.9999998E-03;  3.0002502E-01;1772; -5.2598815E-02;  0.0000000E+00;  1.3856461E-02;  1.0006279E+03;  4.0000048E-01;  5.2018164E+02;3; -3.2170071E+01;  0.0000000E+00;  6.9348464E+00;0; -3.3053035E-01;  1.0016215E+04;  0.0000000E+00;  6.1020961E-05;  1.0000000E+04;  0.0000000E+00;  9.9963242E+03; -4.0618953E-01;  0.0000000E+00;  7.5659171E-02;  1.7837111E+03;
  4.7990951E-01;  9.9999998E-03;  1.6000625E-01;1796; -5.9892498E-02;  0.0000000E+00;  4.7319224E-03;  1.0006912E+03;  4.0000156E-01;  5.7262402E+02;3; -2.6690300E+01;  0.0000000E+00;  2.9441977E+00;0; -3.4475508E-01;  1.0015359E+04;  0.0000000E+00; -2.5663007E-07;  1.0000000E+04;  0.0000000E+00;  9.9983984E+03; -3.9488345E-01;  0.0000000E+00;  5.0128378E-02;  7.8592590E+02;
  4.7990662E-01;  9.9999998E-03;  1.8000761E-01;1797; -6.1506305E-02;  0.0000000E+00;  5.8211740E-03;  1.0007045E+03;  4.0000159E-01;  5.8368542E+02;3; -2.6915604E+01;  0.0000000E+00;  3.5414791E+00;0; -3.5046461E-01;  1.0015942E+04;  0.0000000E+00;  4.0686419E-07;  1.0000000E+04;  0.0000000E+00;  9.9980801E+03; -4.0735915E-01;  0.0000000E+00;  5.6894537E-02;  9.3491272E+02;
  4.7990382E-01;  9.9999998E-03;  2.0000932E-01;1798; -6.2933102E-02;  0.0000000E+00;  7.0796893E-03;  1.0007166E+03;  4.0000144E-01;  5.9366040E+02;3; -2.7129234E+01;  0.0000000E+00;  4.0868669E+00;0; -3.5539246E-01;  1.0016563E+04;  0.0000000E+00;  2.2730546E-06;  1.0000000E+04;  0.0000000E+00;  9.9976992E+03; -4.1960979E-01;  0.0000000E+00;  6.4217329E-02;  1.1172577E+03;
  4.7990149E-01;  9.9999998E-03;  2.2001150E-01;1799; -6.3977487E-02;  0.0000000E+00;  8.5164253E-03;  1.0007281E+03;  4.0000147E-01;  6.0324036E+02;3; -2.7518509E+01;  0.0000000E+00;  4.6008234E+00;0; -3.5986361E-01;  1.0017188E+04;  0.0000000E+00;  1.1437009E-05;  1.0000000E+04;  0.0000000E+00;  9.9973066E+03; -4.3097007E-01;  0.0000000E+00;  7.1106471E-02;  1.3047460E+03;
  4.7990006E-01;  9.9999998E-03;  2.4001440E-01;1800; -6.4443253E-02;  0.0000000E+00;  1.0143314E-02;  1.0007415E+03;  4.0000144E-01;  6.1430176E+02;3; -2.8430347E+01;  0.0000000E+00;  5.0721178E+00;0; -3.6441401E-01;  1.0017780E+04;  0.0000000E+00;  3.9915743E-05;  1.0000000E+04;  0.0000000E+00;  9.9969814E+03; -4.4088951E-01;  0.0000000E+00;  7.6475509E-02;  1.4605009E+03;
  4.7989982E-01;  9.9999998E-03;  2.6001847E-01;1801; -6.4185038E-02;  0.0000000E+00;  1.2006970E-02;  1.0007552E+03;  4.0000156E-01;  6.2565942E+02;3; -3.0161602E+01;  0.0000000E+00;  5.6053963E+00;0; -3.6903614E-01;  1.0018301E+04;  0.0000000E+00;  9.2868169E-05;  1.0000000E+04;  0.0000000E+00;  9.9967412E+03; -4.4907853E-01;  0.0000000E+00;  8.0042392E-02;  1.5787444E+03;
  4.7990125E-01;  9.9999998E-03;  2.8002408E-01;1802; -6.3067235E-02;  0.0000000E+00;  1.4128149E-02;  1.0007549E+03;  4.0000144E-01;  6.2546191E+02;3; -3.2834240E+01;  0.0000000E+00;  6.3681059E+00;0; -3.7100354E-01;  1.0018733E+04;  0.0000000E+00;  1.3267729E-04;  1.0000000E+04;  0.0000000E+00;  9.9962988E+03; -4.5553499E-01;  0.0000000E+00;  8.4531464E-02;  1.7938671E+03;
  4.7990456E-01;  9.9999998E-03;  3.0002999E-01;1803; -6.0969941E-02;  0.0000000E+00;  1.6032411E-02;  1.0007415E+03;  4.0000147E-01;  6.1430176E+02;3; -3.5982529E+01;  0.0000000E+00;  7.6608262E+00;0; -3.7473920E-01;  1.0019081E+04;  0.0000000E+00;  5.8505542E-05;  1.0000000E+04;  0.0000000E+00;  9.9956826E+03; -4.6048006E-01;  0.0000000E+00;  8.5740857E-02;  2.0992839E+03;
  4.9989355E-01;  9.9999998E-03;  1.6000870E-01;1827; -6.8499304E-02;  0.0000000E+00;  6.0236468E-03;  1.0007811E+03;  4.0000343E-01;  6.4709021E+02;3; -2.9480547E+01;  0.0000000E+00;  3.2699752E+00;0; -3.7804684E-01;  1.0017366E+04;  0.0000000E+00;  1.2667344E-06;  1.0000000E+04;  0.0000000E+00;  9.9980918E+03; -4.3403119E-01;  0.0000000E+00;  5.5984344E-02;  9.3757544E+02;
  4.9988994E-01;  9.9999998E-03;  1.8001017E-01;1828; -7.0420943E-02;  0.0000000E+00;  7.1578161E-03;  1.0007996E+03;  4.0000346E-01;  6.6249713E+02;3; -2.9673878E+01;  0.0000000E+00;  3.9215205E+00;0; -3.8576770E-01;  1.0018040E+04;  0.0000000E+00;  2.5012328E-06;  1.0000000E+04;  0.0000000E+00;  9.9977871E+03; -4.4807494E-01;  0.0000000E+00;  6.2307253E-02;  1.0829991E+03;
  4.9988639E-01;  9.9999998E-03;  2.0001191E-01;1829; -7.2146334E-02;  0.0000000E+00;  8.4400708E-03;  1.0008168E+03;  4.0000355E-01;  6.7671887E+02;3; -2.9837957E+01;  0.0000000E+00;  4.5286260E+00;0; -3.9253914E-01;  1.0018782E+04;  0.0000000E+00;  6.5946306E-06;  1.0000000E+04;  0.0000000E+00;  9.9973867E+03; -4.6234149E-01;  0.0000000E+00;  6.9802351E-02;  1.2729518E+03;
  4.9988329E-01;  9.9999998E-03;  2.2001408E-01;1830; -7.3449463E-02;  0.0000000E+00;  9.9121798E-03;  1.0008348E+03;  4.0000343E-01;  6.9163202E+02;3; -3.0199417E+01;  0.0000000E+00;  5.1211352E+00;0; -3.9895222E-01;  1.0019558E+04;  0.0000000E+00;  2.2670316E-05;  1.0000000E+04;  0.0000000E+00;  9.9969717E+03; -4.7611031E-01;  0.0000000E+00;  7.7158101E-02;  1.4720344E+03;
  4.9988112E-01;  9.9999998E-03;  2.4001710E-01;1831; -7.4103646E-02;  0.0000000E+00;  1.1636859E-02;  1.0008566E+03;  4.0000352E-01;  7.0960675E+02;3; -3.1181454E+01;  0.0000000E+00;  5.6618285E+00;0; -4.0600717E-01;  1.0020318E+04;  0.0000000E+00;  6.6727443E-05;  1.0000000E+04;  0.0000000E+00;  9.9966514E+03; -4.8869142E-01;  0.0000000E+00;  8.2684256E-02;  1.6267744E+03;
  4.9988028E-01;  9.9999998E-03;  2.6002163E-01;1832; -7.3943816E-02;  0.0000000E+00;  1.3796618E-02;  1.0008815E+03;  4.0000349E-01;  7.3024805E+02;3; -3.3159286E+01;  0.0000000E+00;  6.3081160E+00;0; -4.1322243E-01;  1.0021012E+04;  0.0000000E+00;  1.4145853E-04;  1.0000000E+04;  0.0000000E+00;  9.9964580E+03; -4.9963629E-01;  0.0000000E+00;  8.6413868E-02;  1.7212271E+03;
  4.9988139E-01;  9.9999998E-03;  2.8002858E-01;1833; -7.2825767E-02;  0.0000000E+00;  1.6458221E-02;  1.0008854E+03;  4.0000352E-01;  7.3360596E+02;3; -3.6320347E+01;  0.0000000E+00;  7.1749296E+00;0; -4.1472575E-01;  1.0021620E+04;  0.0000000E+00;  1.8476271E-04;  1.0000000E+04;  0.0000000E+00;  9.9959248E+03; -5.0878930E-01;  0.0000000E+00;  9.4063543E-02;  1.9760245E+03;
  4.9988469E-01;  9.9999998E-03;  3.0003610E-01;1834; -7.0642196E-02;  0.0000000E+00;  1.8672924E-02;  1.0008663E+03;  4.0000346E-01;  7.1770520E+02;3; -4.0140621E+01;  0.0000000E+00;  8.5128555E+00;0; -4.1937363E-01;  1.0022129E+04;  0.0000000E+00;  5.0668241E-05;  1.0000000E+04;  0.0000000E+00;  9.9950313E+03; -5.1623136E-01;  0.0000000E+00;  9.6857712E-02;  2.4193020E+03;
  5.1987523E-01;  9.9999998E-03;  1.6001239E-01;1858; -7.8067727E-02;  0.0000000E+00;  7.9029230E-03;  1.0008696E+03;  4.0000978E-01;  7.2037085E+02;3; -3.2443993E+01;  0.0000000E+00;  3.6267896E+00;0; -4.0545529E-01;  1.0019259E+04;  0.0000000E+00;  5.8013052E-06;  1.0000000E+04;  0.0000000E+00;  9.9976533E+03; -4.6869001E-01;  0.0000000E+00;  6.3234709E-02;  1.1524305E+03;
  5.1987082E-01;  9.9999998E-03;  1.8001407E-01;1859; -8.0326892E-02;  0.0000000E+00;  9.0778628E-03;  1.0008932E+03;  4.0000960E-01;  7.4002448E+02;3; -3.2595657E+01;  0.0000000E+00;  4.3073182E+00;0; -4.1546786E-01;  1.0020018E+04;  0.0000000E+00;  7.8286812E-06;  1.0000000E+04;  0.0000000E+00;  9.9973691E+03; -4.8402393E-01;  0.0000000E+00;  6.8556085E-02;  1.2894979E+03;
  5.1986641E-01;  9.9999998E-03;  2.0001586E-01;1860; -8.2390673E-02;  0.0000000E+00;  1.0342967E-02;  1.0009157E+03;  4.0000960E-01;  7.5869055E+02;3; -3.2701412E+01;  0.0000000E+00;  4.9642649E+00;0; -4.2428732E-01;  1.0020873E+04;  0.0000000E+00;  1.5807305E-05;  1.0000000E+04;  0.0000000E+00;  9.9969609E+03; -5.0012308E-01;  0.0000000E+00;  7.5835750E-02;  1.4834954E+03;
  5.1986235E-01;  9.9999998E-03;  2.2001794E-01;1861; -8.4017068E-02;  0.0000000E+00;  1.1760892E-02;  1.0009401E+03;  4.0000966E-01;  7.7883801E+02;3; -3.3027824E+01;  0.0000000E+00;  5.6339054E+00;0; -4.3290609E-01;  1.0021792E+04;  0.0000000E+00;  4.5755300E-05;  1.0000000E+04;  0.0000000E+00;  9.9965371E+03; -5.1623529E-01;  0.0000000E+00;  8.3329216E-02;  1.6891212E+03;
  5.1985919E-01;  9.9999998E-03;  2.4002089E-01;1862; -8.4937356E-02;  0.0000000E+00;  1.3482074E-02;  1.0009720E+03;  4.0000966E-01;  8.0530627E+02;3; -3.4072079E+01;  0.0000000E+00;  6.2664261E+00;0; -4.4318771E-01;  1.0022720E+04;  0.0000000E+00;  1.2051036E-04;  1.0000000E+04;  0.0000000E+00;  9.9962520E+03; -5.3154719E-01;  0.0000000E+00;  8.8359490E-02;  1.8259119E+03;
  5.1985741E-01;  9.9999998E-03;  2.6002562E-01;1863; -8.4983118E-02;  0.0000000E+00;  1.5884578E-02;  1.0010139E+03;  4.0000954E-01;  8.3997174E+02;3; -3.6329357E+01;  0.0000000E+00;  7.0700021E+00;0; -4.5447636E-01;  1.0023597E+04;  0.0000000E+00;  2.3498015E-04;  1.0000000E+04;  0.0000000E+00;  9.9962041E+03; -5.4545456E-01;  0.0000000E+00;  9.0978205E-02;  1.8494955E+03;
  5.1985770E-01;  9.9999998E-03;  2.8003407E-01;1864; -8.3989874E-02;  0.0000000E+00;  1.9251276E-02;  1.0010272E+03;  4.0000960E-01;  8.5093433E+02;3; -4.0054100E+01;  0.0000000E+00;  8.1395016E+00;0; -4.5525610E-01;  1.0024397E+04;  0.0000000E+00;  2.8082391E-04;  1.0000000E+04;  0.0000000E+00;  9.9956660E+03; -5.5762148E-01;  0.0000000E+00;  1.0236537E-01;  2.1026611E+03;
  5.1986033E-01;  9.9999998E-03;  3.0004367E-01;1865; -8.1899770E-02;  0.0000000E+00;  2.1911472E-02;  1.0009998E+03;  4.0000960E-01;  8.2831781E+02;3; -4.4714699E+01;  0.0000000E+00;  9.5347319E+00;0; -4.5941967E-01;  1.0025090E+04;  0.0000000E+00;  4.7569625E-05;  1.0000000E+04;  0.0000000E+00;  9.9944326E+03; -5.6791276E-01;  0.0000000E+00;  1.0849310E-01;  2.7114436E+03;
  5.3985447E-01;  9.9999998E-03;  1.6001774E-01;1889; -8.8568732E-02;  0.0000000E+00;  1.0559872E-02;  1.0009545E+03;  4.0002590E-01;  7.9078674E+02;3; -3.5563107E+01;  0.0000000E+00;  4.0692401E+00;0; -4.2084560E-01;  1.0020783E+04;  0.0000000E+00;  1.3506141E-05;  1.0000000E+04;  0.0000000E+00;  9.9970107E+03; -4.9372241E-01;  0.0000000E+00;  7.2876811E-02;  1.4648079E+03;
  5.3984922E-01;  9.9999998E-03;  1.8001980E-01;1890; -9.1178536E-02;  0.0000000E+00;  1.1817999E-02;  1.0009818E+03;  4.0002573E-01;  8.1340320E+02;3; -3.5666843E+01;  0.0000000E+00;  4.7636995E+00;0; -4.3309376E-01;  1.0021605E+04;  0.0000000E+00;  1.5661526E-05;  1.0000000E+04;  0.0000000E+00;  9.9967393E+03; -5.0978982E-01;  0.0000000E+00;  7.6696075E-02;  1.5969789E+03;
  5.3984392E-01;  9.9999998E-03;  2.0002180E-01;1891; -9.3608364E-02;  0.0000000E+00;  1.3057078E-02;  1.0010080E+03;  4.0002590E-01;  8.3513080E+02;3; -3.5707912E+01;  0.0000000E+00;  5.4406171E+00;0; -4.4378713E-01;  1.0022546E+04;  0.0000000E+00;  3.1596937E-05;  1.0000000E+04;  0.0000000E+00;  9.9963193E+03; -5.2716184E-01;  0.0000000E+00;  8.3374709E-02;  1.7984596E+03;
  5.3983879E-01;  9.9999998E-03;  2.2002380E-01;1892; -9.5613390E-02;  0.0000000E+00;  1.4354596E-02;  1.0010375E+03;  4.0002593E-01;  8.5952502E+02;3; -3.5994259E+01;  0.0000000E+00;  6.1678367E+00;0; -4.5445216E-01;  1.0023579E+04;  0.0000000E+00;  9.1896312E-05;  1.0000000E+04;  0.0000000E+00;  9.9958828E+03; -5.4508853E-01;  0.0000000E+00;  9.0636358E-02;  2.0097648E+03;
  5.3983438E-01;  9.9999998E-03;  2.4002647E-01;1893; -9.6909687E-02;  0.0000000E+00;  1.5943743E-02;  1.0010804E+03;  4.0002590E-01;  8.9507928E+02;3; -3.7099731E+01;  0.0000000E+00;  6.8922801E+00;0; -4.6830362E-01;  1.0024643E+04;  0.0000000E+00;  2.3100927E-04;  1.0000000E+04;  0.0000000E+00;  9.9956758E+03; -5.6268001E-01;  0.0000000E+00;  9.4376385E-02;  2.1103767E+03;
  5.3983116E-01;  9.9999998E-03;  2.6003113E-01;1894; -9.7302243E-02;  0.0000000E+00;  1.8468698E-02;  1.0011438E+03;  4.0002584E-01;  9.4762067E+02;3; -3.9660797E+01;  0.0000000E+00;  7.9014702E+00;0; -4.8512781E-01;  1.0025684E+04;  0.0000000E+00;  4.2216913E-04;  1.0000000E+04;  0.0000000E+00;  9.9958984E+03; -5.7921159E-01;  0.0000000E+00;  9.4083779E-02;  2.0033492E+03;
  5.3982979E-01;  9.9999998E-03;  2.8004104E-01;1895; -9.6653894E-02;  0.0000000E+00;  2.2636298E-02;  1.0011741E+03;  4.0002584E-01;  9.7270618E+02;3; -4.4041466E+01;  0.0000000E+00;  9.3003693E+00;0; -4.8565510E-01;  1.0026652E+04;  0.0000000E+00;  4.6666450E-04;  1.0000000E+04;  0.0000000E+00;  9.9955352E+03; -5.9417063E-01;  0.0000000E+00;  1.0851552E-01;  2.1683301E+03;
  5.3983074E-01;  9.9999998E-03;  3.0005312E-01;1896; -9.4990626E-02;  0.0000000E+00;  2.5902221E-02;  1.0011385E+03;  4.0002584E-01;  9.4327515E+02;3; -4.9764950E+01;  0.0000000E+00;  1.0772792E+01;0; -4.8732227E-01;  1.0027513E+04;  0.0000000E+00;  7.1977614E-05;  1.0000000E+04;  0.0000000E+00;  9.9939600E+03; -6.0715503E-01;  0.0000000E+00;  1.1983274E-01;  2.9399194E+03;
  5.5983162E-01;  9.9999998E-03;  1.6002509E-01;1920; -9.9801064E-02;  0.0000000E+00;  1.4200557E-02;  1.0010586E+03;  4.0006959E-01;  8.7700378E+02;3; -3.8765862E+01;  0.0000000E+00;  4.5654664E+00;0; -4.1649082E-01;  1.0021612E+04;  0.0000000E+00;  1.9242701E-05;  1.0000000E+04;  0.0000000E+00;  9.9960645E+03; -5.0272512E-01;  0.0000000E+00;  8.6234309E-02;  1.9197937E+03;
  5.5982566E-01;  9.9999998E-03;  1.8002787E-01;1921; -1.0274509E-01;  0.0000000E+00;  1.5591375E-02;  1.0010859E+03;  4.0006962E-01;  8.9971893E+02;3; -3.8827751E+01;  0.0000000E+00;  5.2207398E+00;0; -4.3042609E-01;  1.0022449E+04;  0.0000000E+00;  1.9759924E-05;  1.0000000E+04;  0.0000000E+00;  9.9957754E+03; -5.1862603E-01;  0.0000000E+00;  8.8199943E-02;  2.0634431E+03;
  5.5981934E-01;  9.9999998E-03;  2.0003036E-01;1922; -1.0555875E-01;  0.0000000E+00;  1.6853599E-02;  1.0011118E+03;  4.0006956E-01;  9.2115021E+02;3; -3.8804516E+01;  0.0000000E+00;  5.9007120E+00;0; -4.4231200E-01;  1.0023428E+04;  0.0000000E+00;  5.4165597E-05;  1.0000000E+04;  0.0000000E+00;  9.9953174E+03; -5.3623772E-01;  0.0000000E+00;  9.3925700E-02;  2.2858164E+03;
  5.5981308E-01;  9.9999998E-03;  2.2003245E-01;1923; -1.0796306E-01;  0.0000000E+00;  1.8044326E-02;  1.0011427E+03;  4.0006971E-01;  9.4672949E+02;3; -3.9031414E+01;  0.0000000E+00;  6.7195697E+00;0; -4.5425367E-01;  1.0024505E+04;  0.0000000E+00;  1.8152449E-04;  1.0000000E+04;  0.0000000E+00;  9.9948594E+03; -5.5484074E-01;  0.0000000E+00;  1.0058706E-01;  2.5079805E+03;
  5.5980724E-01;  9.9999998E-03;  2.4003483E-01;1924; -1.0975380E-01;  0.0000000E+00;  1.9341365E-02;  1.0011942E+03;  4.0006962E-01;  9.8939459E+02;3; -4.0220608E+01;  0.0000000E+00;  7.4913163E+00;0; -4.7138754E-01;  1.0025634E+04;  0.0000000E+00;  4.5260400E-04;  1.0000000E+04;  0.0000000E+00;  9.9947617E+03; -5.7350302E-01;  0.0000000E+00;  1.0211548E-01;  2.5559915E+03;
  5.5980211E-01;  9.9999998E-03;  2.6003927E-01;1925; -1.1067918E-01;  0.0000000E+00;  2.1879619E-02;  1.0012816E+03;  4.0006950E-01;  1.0617869E+03;3; -4.3106289E+01;  0.0000000E+00;  8.8293018E+00;0; -4.9447045E-01;  1.0026754E+04;  0.0000000E+00;  7.8799814E-04;  1.0000000E+04;  0.0000000E+00;  9.9953848E+03; -5.9145451E-01;  0.0000000E+00;  9.6984059E-02;  2.2571665E+03;
  5.5979812E-01;  9.9999998E-03;  2.8005043E-01;1926; -1.1065987E-01;  0.0000000E+00;  2.6841072E-02;  1.0013373E+03;  4.0006959E-01;  1.1079086E+03;3; -4.8226242E+01;  0.0000000E+00;  1.0710681E+01;0; -4.9554300E-01;  1.0027824E+04;  0.0000000E+00;  8.1601093E-04;  1.0000000E+04;  0.0000000E+00;  9.9954268E+03; -6.0809177E-01;  0.0000000E+00;  1.1254877E-01;  2.2190859E+03;
  5.5979568E-01;  9.9999998E-03;  3.0006528E-01;1927; -1.0990047E-01;  0.0000000E+00;  3.0838832E-02;  1.0012958E+03;  4.0006953E-01;  1.0735396E+03;3; -5.5254887E+01;  0.0000000E+00;  1.2284716E+01;0; -4.9252415E-01;  1.0028793E+04;  0.0000000E+00;  1.5678881E-04;  1.0000000E+04;  0.0000000E+00;  9.9936260E+03; -6.2280101E-01;  0.0000000E+00;  1.3027686E-01;  3.0958872E+03;
  5.7980764E-01;  9.9999998E-03;  1.6003449E-01;1951; -1.1131699E-01;  0.0000000E+00;  1.8949721E-02;  1.0012660E+03;  4.0018576E-01;  1.0488456E+03;3; -4.1913658E+01;  0.0000000E+00;  5.1869178E+00;0; -3.8292834E-01;  1.0021303E+04;  0.0000000E+00;  1.0642070E-05;  1.0000000E+04;  0.0000000E+00;  9.9947090E+03; -4.8774347E-01;  0.0000000E+00;  1.0481513E-01;  2.5683875E+03;
  5.7980096E-01;  9.9999998E-03;  1.8003850E-01;1952; -1.1454812E-01;  0.0000000E+00;  2.0600388E-02;  1.0012875E+03;  4.0018579E-01;  1.0667214E+03;3; -4.1935680E+01;  0.0000000E+00;  5.6854725E+00;0; -3.9758039E-01;  1.0022104E+04;  0.0000000E+00;  7.9704687E-06;  1.0000000E+04;  0.0000000E+00;  9.9943418E+03; -5.0223511E-01;  0.0000000E+00;  1.0465474E-01;  2.7528608E+03;
  5.7979375E-01;  9.9999998E-03;  2.0004188E-01;1953; -1.1769642E-01;  0.0000000E+00;  2.1958144E-02;  1.0013063E+03;  4.0018579E-01;  1.0822269E+03;3; -4.1864960E+01;  0.0000000E+00;  6.3049698E+00;0; -4.0949333E-01;  1.0023029E+04;  0.0000000E+00;  8.3394734E-05;  1.0000000E+04;  0.0000000E+00;  9.9937969E+03; -5.1848954E-01;  0.0000000E+00;  1.0899621E-01;  3.0180027E+03;
  5.7978642E-01;  9.9999998E-03;  2.2004470E-01;1954; -1.2052400E-01;  0.0000000E+00;  2.3063594E-02;  1.0013320E+03;  4.0018567E-01;  1.1035594E+03;3; -4.2098713E+01;  0.0000000E+00;  7.0012832E+00;0; -4.2130166E-01;  1.0024041E+04;  0.0000000E+00;  3.4573959E-04;  1.0000000E+04;  0.0000000E+00;  9.9932949E+03; -5.3575975E-01;  0.0000000E+00;  1.1445809E-01;  3.2614712E+03;
  5.7977891E-01;  9.9999998E-03;  2.4004698E-01;1955; -1.2286495E-01;  0.0000000E+00;  2.4124740E-02;  1.0013871E+03;  4.0018567E-01;  1.1491871E+03;3; -4.3310837E+01;  0.0000000E+00;  8.1403008E+00;0; -4.3999574E-01;  1.0025099E+04;  0.0000000E+00;  8.6747017E-04;  1.0000000E+04;  0.0000000E+00;  9.9933389E+03; -5.5315709E-01;  0.0000000E+00;  1.1316136E-01;  3.2424912E+03;
  5.7977152E-01;  9.9999998E-03;  2.6005149E-01;1956; -1.2446463E-01;  0.0000000E+00;  2.6599826E-02;  1.0014953E+03;  4.0018570E-01;  1.2387637E+03;3; -4.6518925E+01;  0.0000000E+00;  9.9225378E+00;0; -4.6807462E-01;  1.0026161E+04;  0.0000000E+00;  1.4592079E-03;  1.0000000E+04;  0.0000000E+00;  9.9944336E+03; -5.7006878E-01;  0.0000000E+00;  1.0199415E-01;  2.7156514E+03;
  5.7976407E-01;  9.9999998E-03;  2.8006393E-01;1957; -1.2537056E-01;  0.0000000E+00;  3.2235313E-02;  1.0015787E+03;  4.0018567E-01;  1.3078966E+03;3; -5.2411339E+01;  0.0000000E+00;  1.2423404E+01;0; -4.6975875E-01;  1.0027196E+04;  0.0000000E+00;  1.4338458E-03;  1.0000000E+04;  0.0000000E+00;  9.9950615E+03; -5.8602375E-01;  0.0000000E+00;  1.1626501E-01;  2.3870491E+03;
  5.7975662E-01;  9.9999998E-03;  3.0008134E-01;1958; -1.2601669E-01;  0.0000000E+00;  3.7012286E-02;  1.0015373E+03;  4.0018556E-01;  1.2736265E+03;3; -6.0943977E+01;  0.0000000E+00;  1.4257850E+01;0; -4.5987141E-01;  1.0028146E+04;  0.0000000E+00;  3.3890724E-04;  1.0000000E+04;  0.0000000E+00;  9.9932822E+03; -6.0039860E-01;  0.0000000E+00;  1.4052717E-01;  3.2442073E+03;
  5.9978402E-01;  9.9999998E-03;  1.6004573E-01;1982; -1.2244187E-01;  0.0000000E+00;  2.4625791E-02;  1.0018089E+03;  4.0048087E-01;  1.4985980E+03;3; -4.4783295E+01;  0.0000000E+00;  5.8885427E+00;0; -3.0743229E-01;  1.0019281E+04;  0.0000000E+00; -2.7655155E-05;  1.0000000E+04;  0.0000000E+00;  9.9928428E+03; -4.3741584E-01;  0.0000000E+00;  1.2998353E-01;  3.4545400E+03;
  5.9977639E-01;  9.9999998E-03;  1.8005106E-01;1983; -1.2596077E-01;  0.0000000E+00;  2.6621034E-02;  1.0018163E+03;  4.0048069E-01;  1.5047212E+03;3; -4.4747585E+01;  0.0000000E+00;  6.3054562E+00;0; -3.2166773E-01;  1.0019958E+04;  0.0000000E+00; -3.2269945E-05;  1.0000000E+04;  0.0000000E+00;  9.9923252E+03; -4.4887561E-01;  0.0000000E+00;  1.2720786E-01;  3.7156091E+03;
  5.9976834E-01;  9.9999998E-03;  2.0005602E-01;1984; -1.2935811E-01;  0.0000000E+00;  2.8290138E-02;  1.0018204E+03;  4.0048075E-01;  1.5081779E+03;3; -4.4668877E+01;  0.0000000E+00;  6.6553607E+00;0; -3.3215055E-01;  1.0020712E+04;  0.0000000E+00;  1.2233903E-04;  1.0000000E+04;  0.0000000E+00;  9.9916523E+03; -4.6146137E-01;  0.0000000E+00;  1.2931082E-01;  4.0459917E+03;
  5.9976000E-01;  9.9999998E-03;  2.2006030E-01;1985; -1.3254848E-01;  0.0000000E+00;  2.9563477E-02;  1.0018328E+03;  4.0048081E-01;  1.5183502E+03;3; -4.4983429E+01;  0.0000000E+00;  7.2877998E+00;0; -3.4180385E-01;  1.0021512E+04;  0.0000000E+00;  6.2364922E-04;  1.0000000E+04;  0.0000000E+00;  9.9911035E+03; -4.7439873E-01;  0.0000000E+00;  1.3259490E-01;  4.3132285E+03;
  5.9975111E-01;  9.9999998E-03;  2.4006395E-01;1986; -1.3544181E-01;  0.0000000E+00;  3.0586051E-02;  1.0018820E+03;  4.0048069E-01;  1.5592373E+03;3; -4.6322796E+01;  0.0000000E+00;  8.5305862E+00;0; -3.5929441E-01;  1.0022324E+04;  0.0000000E+00;  1.5677096E-03;  1.0000000E+04;  0.0000000E+00;  9.9912754E+03; -4.8710868E-01;  0.0000000E+00;  1.2781425E-01;  4.2336484E+03;
  5.9974122E-01;  9.9999998E-03;  2.6006979E-01;1987; -1.3769239E-01;  0.0000000E+00;  3.3273559E-02;  1.0019985E+03;  4.0048054E-01;  1.6556279E+03;3; -4.9681030E+01;  0.0000000E+00;  1.1255766E+01;0; -3.8767809E-01;  1.0023142E+04;  0.0000000E+00;  2.5648286E-03;  1.0000000E+04;  0.0000000E+00;  9.9927793E+03; -4.9943990E-01;  0.0000000E+00;  1.1176182E-01;  3.5088726E+03;
  5.9973013E-01;  9.9999998E-03;  2.8008410E-01;1988; -1.3963953E-01;  0.0000000E+00;  3.9437141E-02;  1.0020951E+03;  4.0048048E-01;  1.7357230E+03;3; -5.6295017E+01;  0.0000000E+00;  1.4535452E+01;0; -3.8646173E-01;  1.0023948E+04;  0.0000000E+00;  2.4226543E-03;  1.0000000E+04;  0.0000000E+00;  9.9938955E+03; -5.1127714E-01;  0.0000000E+00;  1.2481539E-01;  2.9356045E+03;
  5.9971696E-01;  9.9999998E-03;  3.0010337E-01;1989; -1.4195423E-01;  0.0000000E+00;  4.4839874E-02;  1.0020610E+03;  4.0048024E-01;  1.7074774E+03;3; -6.6420593E+01;  0.0000000E+00;  1.7082613E+01;0; -3.6854476E-01;  1.0024704E+04;  0.0000000E+00;  6.4122170E-04;  1.0000000E+04;  0.0000000E+00;  9.9924639E+03; -5.2218312E-01;  0.0000000E+00;  1.5363838E-01;  3.6125479E+03;
  6.1976206E-01;  9.9999998E-03;  1.6005893E-01;2013; -1.3246922E-01;  0.0000000E+00;  3.1177692E-02;  1.0031542E+03;  4.0115663E-01;  2.6130991E+03;3; -4.7130314E+01;  0.0000000E+00;  6.6231403E+00;0; -1.7358473E-01;  1.0014859E+04;  0.0000000E+00; -1.0181880E-04;  1.0000000E+04;  0.0000000E+00;  9.9904238E+03; -3.3603457E-01;  0.0000000E+00;  1.6244984E-01;  4.5956812E+03;
  6.1975342E-01;  9.9999998E-03;  1.8006577E-01;2014; -1.3629116E-01;  0.0000000E+00;  3.3485748E-02;  1.0031400E+03;  4.0115643E-01;  2.6013467E+03;3; -4.7076641E+01;  0.0000000E+00;  6.8342609E+00;0; -1.8642107E-01;  1.0015308E+04;  0.0000000E+00; -9.9287601E-05;  1.0000000E+04;  0.0000000E+00;  9.9896943E+03; -3.4243360E-01;  0.0000000E+00;  1.5601254E-01;  4.9652319E+03;
  6.1974436E-01;  9.9999998E-03;  2.0007241E-01;2015; -1.4003663E-01;  0.0000000E+00;  3.5532106E-02;  1.0031208E+03;  4.0115643E-01;  2.5854463E+03;3; -4.7020039E+01;  0.0000000E+00;  7.1508493E+00;0; -1.9432363E-01;  1.0015757E+04;  0.0000000E+00;  1.8607994E-04;  1.0000000E+04;  0.0000000E+00;  9.9888701E+03; -3.4853888E-01;  0.0000000E+00;  1.5421525E-01;  5.3747129E+03;
  6.1973494E-01;  9.9999998E-03;  2.2007924E-01;2016; -1.4348821E-01;  0.0000000E+00;  3.7384089E-02;  1.0031124E+03;  4.0115643E-01;  2.5785330E+03;3; -4.7390549E+01;  0.0000000E+00;  7.6757112E+00;0; -2.0027278E-01;  1.0016180E+04;  0.0000000E+00;  1.0413602E-03;  1.0000000E+04;  0.0000000E+00;  9.9882900E+03; -3.5374469E-01;  0.0000000E+00;  1.5347190E-01;  5.6601484E+03;
  6.1972457E-01;  9.9999998E-03;  2.4008642E-01;2017; -1.4681421E-01;  0.0000000E+00;  3.9060835E-02;  1.0031452E+03;  4.0115625E-01;  2.6056921E+03;3; -4.9071651E+01;  0.0000000E+00;  8.9821568E+00;0; -2.1274251E-01;  1.0016564E+04;  0.0000000E+00;  2.5640384E-03;  1.0000000E+04;  0.0000000E+00;  9.9885596E+03; -3.5807994E-01;  0.0000000E+00;  1.4533743E-01;  5.5335981E+03;
  6.1971301E-01;  9.9999998E-03;  2.6009715E-01;2018; -1.4985776E-01;  0.0000000E+00;  4.2162865E-02;  1.0032370E+03;  4.0115607E-01;  2.6817375E+03;3; -5.2837414E+01;  0.0000000E+00;  1.2107553E+01;0; -2.3485044E-01;  1.0016947E+04;  0.0000000E+00;  4.0600509E-03;  1.0000000E+04;  0.0000000E+00;  9.9900068E+03; -3.6207724E-01;  0.0000000E+00;  1.2722680E-01;  4.8348184E+03;
  6.1969918E-01;  9.9999998E-03;  2.8011465E-01;2019; -1.5237229E-01;  0.0000000E+00;  4.9049586E-02;  1.0033087E+03;  4.0115574E-01;  2.7410925E+03;3; -5.9662514E+01;  0.0000000E+00;  1.7196455E+01;0; -2.2209515E-01;  1.0017336E+04;  0.0000000E+00;  3.7018836E-03;  1.0000000E+04;  0.0000000E+00;  9.9910449E+03; -3.6609611E-01;  0.0000000E+00;  1.4400096E-01;  4.2905542E+03;
  6.1968160E-01;  9.9999998E-03;  3.0013424E-01;2020; -1.5595905E-01;  0.0000000E+00;  5.4857969E-02;  1.0032839E+03;  4.0115541E-01;  2.7205503E+03;3; -7.1109116E+01;  0.0000000E+00;  2.0957636E+01;0; -1.9151102E-01;  1.0017712E+04;  0.0000000E+00;  1.0167732E-03;  1.0000000E+04;  0.0000000E+00;  9.9901924E+03; -3.6991158E-01;  0.0000000E+00;  1.7840056E-01;  4.6682222E+03;
  6.3974297E-01;  9.9999998E-03;  1.6007394E-01;2044; -1.4100032E-01;  0.0000000E+00;  3.8433895E-02;  1.0057333E+03;  4.0239593E-01;  4.7498384E+03;3; -4.8963173E+01;  0.0000000E+00;  7.1552811E+00;0;  3.3897579E-02;  1.0007481E+04;  0.0000000E+00; -1.9043167E-04;  1.0000000E+04;  0.0000000E+00;  9.9875078E+03; -1.6780967E-01;  0.0000000E+00;  2.0170724E-01;  5.9627773E+03;
  6.3973355E-01;  9.9999998E-03;  1.8008289E-01;2045; -1.4504117E-01;  0.0000000E+00;  4.1157782E-02;  1.0056902E+03;  4.0239584E-01;  4.7140879E+03;3; -4.8875336E+01;  0.0000000E+00;  7.1850500E+00;0;  2.2710845E-02;  1.0007599E+04;  0.0000000E+00; -1.5973300E-04;  1.0000000E+04;  0.0000000E+00;  9.9865400E+03; -1.6709772E-01;  0.0000000E+00;  1.8980856E-01;  6.4571685E+03;
  6.3972324E-01;  9.9999998E-03;  2.0009190E-01;2046; -1.4913660E-01;  0.0000000E+00;  4.3663535E-02;  1.0056419E+03;  4.0239564E-01;  4.6740898E+03;3; -4.8759666E+01;  0.0000000E+00;  7.3954635E+00;0;  1.7480016E-02;  1.0007626E+04;  0.0000000E+00;  2.9864410E-04;  1.0000000E+04;  0.0000000E+00;  9.9855654E+03; -1.6419895E-01;  0.0000000E+00;  1.8167897E-01;  6.9468330E+03;
  6.3971257E-01;  9.9999998E-03;  2.2010304E-01;2047; -1.5300588E-01;  0.0000000E+00;  4.6344921E-02;  1.0056066E+03;  4.0239561E-01;  4.6448574E+03;3; -4.9289032E+01;  0.0000000E+00;  8.0877495E+00;0;  1.5164867E-02;  1.0007537E+04;  0.0000000E+00;  1.5524109E-03;  1.0000000E+04;  0.0000000E+00;  9.9849619E+03; -1.5892832E-01;  0.0000000E+00;  1.7409319E-01;  7.2501509E+03;
  6.3970172E-01;  9.9999998E-03;  2.4011892E-01;2048; -1.5656173E-01;  0.0000000E+00;  4.9879242E-02;  1.0056007E+03;  4.0239534E-01;  4.6399194E+03;3; -5.1142899E+01;  0.0000000E+00;  9.8541231E+00;0;  1.1496380E-02;  1.0007370E+04;  0.0000000E+00;  3.6385856E-03;  1.0000000E+04;  0.0000000E+00;  9.9850117E+03; -1.5207943E-01;  0.0000000E+00;  1.6357581E-01;  7.2310386E+03;
  6.3968992E-01;  9.9999998E-03;  2.6013950E-01;2049; -1.5977693E-01;  0.0000000E+00;  5.4616254E-02;  1.0056067E+03;  4.0239510E-01;  4.6448574E+03;3; -5.5262501E+01;  0.0000000E+00;  1.3706785E+01;0;  9.7675025E-03;  1.0007180E+04;  0.0000000E+00;  5.5163200E-03;  1.0000000E+04;  0.0000000E+00;  9.9853213E+03; -1.4489225E-01;  0.0000000E+00;  1.5465975E-01;  7.0801841E+03;
  6.3967466E-01;  9.9999998E-03;  2.8015828E-01;2050; -1.6269153E-01;  0.0000000E+00;  6.1188795E-02;  1.0056174E+03;  4.0239483E-01;  4.6537456E+03;3; -6.2356071E+01;  0.0000000E+00;  2.0790297E+01;0;  3.6221206E-02;  1.0007008E+04;  0.0000000E+00;  4.7807042E-03;  1.0000000E+04;  0.0000000E+00;  9.9857109E+03; -1.3814272E-01;  0.0000000E+00;  1.7436393E-01;  6.8458057E+03;
  6.3965493E-01;  9.9999998E-03;  3.0017611E-01;2051; -1.6630295E-01;  0.0000000E+00;  6.7479454E-02;  1.0055973E+03;  4.0239418E-01;  4.6370552E+03;3; -7.4194534E+01;  0.0000000E+00;  2.6569296E+01;0;  9.1153651E-02;  1.0006854E+04;  0.0000000E+00;  1.2583879E-03;  1.0000000E+04;  0.0000000E+00;  9.9854951E+03; -1.3177383E-01;  0.0000000E+00;  2.2292748E-01;  6.8787100E+03;
  6.5972894E-01;  9.9999998E-03;  1.6009206E-01;2075; -1.4716642E-01;  0.0000000E+00;  4.7008418E-02;  1.0089442E+03;  4.0395585E-01;  7.4098433E+03;3; -5.0357903E+01;  0.0000000E+00;  7.4415746E+00;0;  3.1954271E-01;  9.9970977E+03;  0.0000000E+00; -2.4270143E-04;  1.0000000E+04;  0.0000000E+00;  9.9842754E+03;  7.3905990E-02;  0.0000000E+00;  2.4563670E-01;  7.4699731E+03;
  6.5971923E-01;  9.9999998E-03;  1.8010406E-01;2076; -1.5128238E-01;  0.0000000E+00;  5.0384272E-02;  1.0088698E+03;  4.0395570E-01;  7.3481191E+03;3; -5.0295609E+01;  0.0000000E+00;  7.1266499E+00;0;  3.0894226E-01;  9.9968203E+03;  0.0000000E+00; -1.6116818E-04;  1.0000000E+04;  0.0000000E+00;  9.9830898E+03;  8.3058938E-02;  0.0000000E+00;  2.2588331E-01;  8.0815361E+03;
  6.5970862E-01;  9.9999998E-03;  2.0011809E-01;2077; -1.5544999E-01;  0.0000000E+00;  5.4019365E-02;  1.0087908E+03;  4.0395588E-01;  7.2827412E+03;3; -5.0200760E+01;  0.0000000E+00;  7.2447906E+00;0;  3.0515373E-01;  9.9963623E+03;  0.0000000E+00;  4.5464028E-04;  1.0000000E+04;  0.0000000E+00;  9.9819814E+03;  9.6171826E-02;  0.0000000E+00;  2.0898190E-01;  8.6445654E+03;
  6.5969801E-01;  9.9999998E-03;  2.2013821E-01;2078; -1.5926410E-01;  0.0000000E+00;  5.8848102E-02;  1.0087207E+03;  4.0395573E-01;  7.2246714E+03;3; -5.0686417E+01;  0.0000000E+00;  7.9786143E+00;0;  3.0745655E-01;  9.9957285E+03;  0.0000000E+00;  1.9838819E-03;  1.0000000E+04;  0.0000000E+00;  9.9812256E+03;  1.1289892E-01;  0.0000000E+00;  1.9455762E-01;  9.0300293E+03;
  6.5968800E-01;  9.9999998E-03;  2.4016720E-01;2079; -1.6252823E-01;  0.0000000E+00;  6.5224856E-02;  1.0086443E+03;  4.0395573E-01;  7.1613682E+03;3; -5.2610096E+01;  0.0000000E+00;  1.0306339E+01;0;  3.2016978E-01;  9.9949727E+03;  0.0000000E+00;  4.3398524E-03;  1.0000000E+04;  0.0000000E+00;  9.9804580E+03;  1.3180126E-01;  0.0000000E+00;  1.8836851E-01;  9.4064600E+03;
  6.5967679E-01;  9.9999998E-03;  2.6019666E-01;2080; -1.6610378E-01;  0.0000000E+00;  6.9892168E-02;  1.0085222E+03;  4.0395570E-01;  7.0601406E+03;3; -5.6873692E+01;  0.0000000E+00;  1.5303026E+01;0;  3.3989933E-01;  9.9941748E+03;  0.0000000E+00;  6.1948369E-03;  1.0000000E+04;  0.0000000E+00;  9.9788291E+03;  1.5116976E-01;  0.0000000E+00;  1.8872957E-01;  1.0203585E+04;
  6.5966010E-01;  9.9999998E-03;  2.8021026E-01;2081; -1.6930549E-01;  0.0000000E+00;  7.3915191E-02;  1.0084885E+03;  4.0395561E-01;  7.0321924E+03;3; -6.3839664E+01;  0.0000000E+00;  2.5469227E+01;0;  3.6225078E-01;  9.9933916E+03;  0.0000000E+00;  4.8829038E-03;  1.0000000E+04;  0.0000000E+00;  9.9789453E+03;  1.6991995E-01;  0.0000000E+00;  1.9233082E-01;  1.0115529E+04;
  6.5964049E-01;  9.9999998E-03;  3.0022487E-01;2082; -1.7229159E-01;  0.0000000E+00;  8.2203723E-02;  1.0084702E+03;  4.0395498E-01;  7.0170820E+03;3; -7.5753304E+01;  0.0000000E+00;  3.3888790E+01;0;  4.6933046E-01;  9.9926514E+03;  0.0000000E+00;  9.8342972E-04;  1.0000000E+04;  0.0000000E+00;  9.9793525E+03;  1.8777716E-01;  0.0000000E+00;  2.8155330E-01;  9.7762402E+03;
  6.7972356E-01;  9.9999998E-03;  1.6011529E-01;2106; -1.4958982E-01;  0.0000000E+00;  5.8910768E-02;  1.0112586E+03;  4.0520242E-01;  9.3270000E+03;3; -5.0659477E+01;  0.0000000E+00;  8.6246729E+00;0;  6.6667712E-01;  9.9845479E+03;  0.0000000E+00; -2.1937955E-04;  1.0000000E+04;  0.0000000E+00;  9.9810078E+03;  3.7615973E-01;  0.0000000E+00;  2.9051736E-01;  8.9838643E+03;
  6.7971396E-01;  9.9999998E-03;  1.8013136E-01;2107; -1.5355699E-01;  0.0000000E+00;  6.3448541E-02;  1.0111571E+03;  4.0520254E-01;  9.2429580E+03;3; -5.0582237E+01;  0.0000000E+00;  7.8838553E+00;0;  6.5422726E-01;  9.9838701E+03;  0.0000000E+00; -8.8036126E-05;  1.0000000E+04;  0.0000000E+00;  9.9796719E+03;  3.9372295E-01;  0.0000000E+00;  2.6050434E-01;  9.6793623E+03;
  6.7970365E-01;  9.9999998E-03;  2.0015155E-01;2108; -1.5750167E-01;  0.0000000E+00;  6.8798482E-02;  1.0110518E+03;  4.0520284E-01;  9.1556572E+03;3; -5.0607334E+01;  0.0000000E+00;  7.7179575E+00;0;  6.4950609E-01;  9.9829629E+03;  0.0000000E+00;  5.7738047E-04;  1.0000000E+04;  0.0000000E+00;  9.9784941E+03;  4.1618744E-01;  0.0000000E+00;  2.3331867E-01;  1.0291572E+04;
  6.7969424E-01;  9.9999998E-03;  2.2018178E-01;2109; -1.6078635E-01;  0.0000000E+00;  7.6225944E-02;  1.0109473E+03;  4.0520298E-01;  9.0690469E+03;3; -5.1168743E+01;  0.0000000E+00;  8.4584312E+00;0;  6.5677029E-01;  9.9818555E+03;  0.0000000E+00;  2.0767371E-03;  1.0000000E+04;  0.0000000E+00;  9.9775234E+03;  4.4278926E-01;  0.0000000E+00;  2.1398102E-01;  1.0785205E+04;
  6.7968655E-01;  9.9999998E-03;  2.4022144E-01;2110; -1.6356692E-01;  0.0000000E+00;  8.3897531E-02;  1.0108011E+03;  4.0520334E-01;  8.9479717E+03;3; -5.3194023E+01;  0.0000000E+00;  1.1563316E+01;0;  6.8651962E-01;  9.9806074E+03;  0.0000000E+00;  4.1888650E-03;  1.0000000E+04;  0.0000000E+00;  9.9758672E+03;  4.7188178E-01;  0.0000000E+00;  2.1463785E-01;  1.1593175E+04;
  6.7967677E-01;  9.9999998E-03;  2.6025215E-01;2111; -1.6774639E-01;  0.0000000E+00;  8.4572881E-02;  1.0105919E+03;  4.0520385E-01;  8.7746523E+03;3; -5.7742268E+01;  0.0000000E+00;  1.7055830E+01;0;  7.0875233E-01;  9.9792959E+03;  0.0000000E+00;  5.5077756E-03;  1.0000000E+04;  0.0000000E+00;  9.9730098E+03;  5.0169867E-01;  0.0000000E+00;  2.0705368E-01;  1.3006568E+04;
  6.7966002E-01;  9.9999998E-03;  2.8025839E-01;2112; -1.7111064E-01;  0.0000000E+00;  8.5191481E-02;  1.0105527E+03;  4.0520418E-01;  8.7421621E+03;3; -6.4096466E+01;  0.0000000E+00;  2.8733412E+01;0;  7.1639508E-01;  9.9779854E+03;  0.0000000E+00;  3.6360137E-03;  1.0000000E+04;  0.0000000E+00;  9.9735273E+03;  5.3088659E-01;  0.0000000E+00;  1.8550849E-01;  1.2745572E+04;
  6.7964637E-01;  9.9999998E-03;  3.0026948E-01;2113; -1.7206429E-01;  0.0000000E+00;  9.6369267E-02;  1.0105532E+03;  4.0520364E-01;  8.7426553E+03;3; -7.5184624E+01;  0.0000000E+00;  4.2119766E+01;0;  8.8173413E-01;  9.9767607E+03;  0.0000000E+00;  2.4156165E-04;  1.0000000E+04;  0.0000000E+00;  9.9747793E+03;  5.5824655E-01;  0.0000000E+00;  3.2348761E-01;  1.1910182E+04;
  6.9973445E-01;  9.9999998E-03;  1.6014239E-01;2137; -1.4591408E-01;  0.0000000E+00;  7.5418577E-02;  1.0121632E+03;  4.0588531E-01;  1.0076164E+04;3; -4.9173702E+01;  0.0000000E+00;  1.2557232E+01;0;  1.0318207E+00;  9.9717080E+03;  0.0000000E+00; -1.3377758E-04;  1.0000000E+04;  0.0000000E+00;  9.9780322E+03;  7.0020664E-01;  0.0000000E+00;  3.3161405E-01;  1.0355104E+04;
  6.9972551E-01;  9.9999998E-03;  1.8016297E-01;2138; -1.4938629E-01;  0.0000000E+00;  8.1571691E-02;  1.0120419E+03;  4.0588588E-01;  9.9757314E+03;3; -4.8944744E+01;  0.0000000E+00;  1.1582284E+01;0;  1.0145264E+00;  9.9706729E+03;  0.0000000E+00;  7.7627865E-06;  1.0000000E+04;  0.0000000E+00;  9.9766592E+03;  7.2472221E-01;  0.0000000E+00;  2.8980416E-01;  1.1085370E+04;
  6.9971633E-01;  9.9999998E-03;  2.0018885E-01;2139; -1.5267222E-01;  0.0000000E+00;  8.8589221E-02;  1.0119196E+03;  4.0588623E-01;  9.8744082E+03;3; -4.8821117E+01;  0.0000000E+00;  1.1110385E+01;0;  1.0060307E+00;  9.9694336E+03;  0.0000000E+00;  5.6401116E-04;  1.0000000E+04;  0.0000000E+00;  9.9754736E+03;  7.5362426E-01;  0.0000000E+00;  2.5240642E-01;  1.1710862E+04;
  6.9970936E-01;  9.9999998E-03;  2.2022533E-01;2140; -1.5483806E-01;  0.0000000E+00;  9.6655995E-02;  1.0117933E+03;  4.0588671E-01;  9.7697285E+03;3; -4.9661350E+01;  0.0000000E+00;  1.1772912E+01;0;  1.0153526E+00;  9.9680195E+03;  0.0000000E+00;  1.7154292E-03;  1.0000000E+04;  0.0000000E+00;  9.9743730E+03;  7.8585118E-01;  0.0000000E+00;  2.2950147E-01;  1.2271148E+04;
  6.9970572E-01;  9.9999998E-03;  2.4026798E-01;2141; -1.5662791E-01;  0.0000000E+00;  1.0148039E-01;  1.0116121E+03;  4.0588734E-01;  9.6196211E+03;3; -5.2724422E+01;  0.0000000E+00;  1.3952065E+01;0;  1.0504045E+00;  9.9664951E+03;  0.0000000E+00;  3.2065683E-03;  1.0000000E+04;  0.0000000E+00;  9.9722910E+03;  8.2003605E-01;  0.0000000E+00;  2.3036852E-01;  1.3287909E+04;
  6.9969893E-01;  9.9999998E-03;  2.6029637E-01;2142; -1.6075227E-01;  0.0000000E+00;  9.7762309E-02;  1.0113704E+03;  4.0588799E-01;  9.4194443E+03;3; -5.7729427E+01;  0.0000000E+00;  1.8454071E+01;0;  1.0693486E+00;  9.9649160E+03;  0.0000000E+00;  3.8793390E-03;  1.0000000E+04;  0.0000000E+00;  9.9690615E+03;  8.5475850E-01;  0.0000000E+00;  2.1459001E-01;  1.4895793E+04;
  6.9969034E-01;  9.9999998E-03;  2.8029487E-01;2143; -1.6059349E-01;  0.0000000E+00;  9.5600098E-02;  1.0113793E+03;  4.0588844E-01;  9.4268516E+03;3; -6.1989685E+01;  0.0000000E+00;  3.1294659E+01;0;  1.0652144E+00;  9.9633496E+03;  0.0000000E+00;  2.3308301E-03;  1.0000000E+04;  0.0000000E+00;  9.9707734E+03;  8.8833183E-01;  0.0000000E+00;  1.7688251E-01;  1.4053856E+04;
  6.9969952E-01;  9.9999998E-03;  3.0030397E-01;2144; -1.4968410E-01;  0.0000000E+00;  1.0707616E-01;  1.0114112E+03;  4.0588814E-01;  9.4532188E+03;3; -6.5331253E+01;  0.0000000E+00;  4.6003475E+01;0;  1.2471759E+00;  9.9619346E+03;  0.0000000E+00;  7.3359843E-04;  1.0000000E+04;  0.0000000E+00;  9.9728086E+03;  9.1819805E-01;  0.0000000E+00;  3.2897785E-01;  1.2807251E+04;
  7.1978742E-01;  9.9999998E-03;  1.6016571E-01;2168; -1.2487061E-01;  0.0000000E+00;  9.2759684E-02;  1.0122501E+03;  4.0618461E-01;  1.0147880E+04;3; -4.6987274E+01;  0.0000000E+00;  2.0903196E+01;0;  1.3503487E+00;  9.9610967E+03;  0.0000000E+00; -4.2397234E-05;  1.0000000E+04;  0.0000000E+00;  9.9756289E+03;  9.8592049E-01;  0.0000000E+00;  3.6442819E-01;  1.1462359E+04;
  7.1977866E-01;  9.9999998E-03;  1.8018974E-01;2169; -1.2851669E-01;  0.0000000E+00;  1.0048782E-01;  1.0121187E+03;  4.0618521E-01;  1.0039056E+04;3; -4.6476425E+01;  0.0000000E+00;  1.9741676E+01;0;  1.3259636E+00;  9.9597988E+03;  0.0000000E+00;  6.1222985E-05;  1.0000000E+04;  0.0000000E+00;  9.9743086E+03;  1.0150967E+00;  0.0000000E+00;  3.1086692E-01;  1.2178727E+04;
  7.1977007E-01;  9.9999998E-03;  2.0021902E-01;2170; -1.3154314E-01;  0.0000000E+00;  1.0854297E-01;  1.0119913E+03;  4.0618578E-01;  9.9335879E+03;3; -4.5769760E+01;  0.0000000E+00;  1.8581129E+01;0;  1.3106360E+00;  9.9583652E+03;  0.0000000E+00;  4.0970166E-04;  1.0000000E+04;  0.0000000E+00;  9.9732129E+03;  1.0463996E+00;  0.0000000E+00;  2.6423642E-01;  1.2769389E+04;
  7.1976388E-01;  9.9999998E-03;  2.2025758E-01;2171; -1.3273674E-01;  0.0000000E+00;  1.1464575E-01;  1.0118631E+03;  4.0618622E-01;  9.8273301E+03;3; -4.5380768E+01;  0.0000000E+00;  1.6012220E+01;0;  1.3160465E+00;  9.9568584E+03;  0.0000000E+00;  1.1070134E-03;  1.0000000E+04;  0.0000000E+00;  9.9721670E+03;  1.0783266E+00;  0.0000000E+00;  2.3771995E-01;  1.3305869E+04;
  7.1976280E-01;  9.9999998E-03;  2.4029852E-01;2172; -1.3077310E-01;  0.0000000E+00;  1.1455580E-01;  1.0116872E+03;  4.0618676E-01;  9.6815723E+03;3; -4.5595657E+01;  0.0000000E+00;  1.5943804E+01;0;  1.3434290E+00;  9.9553379E+03;  0.0000000E+00;  2.0169285E-03;  1.0000000E+04;  0.0000000E+00;  9.9701943E+03;  1.1097975E+00;  0.0000000E+00;  2.3363151E-01;  1.4272475E+04;
  7.1976614E-01;  9.9999998E-03;  2.6032180E-01;2173; -1.2575251E-01;  0.0000000E+00;  1.0661288E-01;  1.0114868E+03;  4.0618771E-01;  9.5155693E+03;3; -4.5201912E+01;  0.0000000E+00;  2.0354277E+01;0;  1.3411289E+00;  9.9538291E+03;  0.0000000E+00;  2.6727421E-03;  1.0000000E+04;  0.0000000E+00;  9.9677080E+03;  1.1400251E+00;  0.0000000E+00;  2.0110376E-01;  1.5530829E+04;
  7.1977490E-01;  9.9999998E-03;  2.8031749E-01;2174; -1.1624977E-01;  0.0000000E+00;  1.0446998E-01;  1.0115655E+03;  4.0618810E-01;  9.5807461E+03;3; -4.4389061E+01;  0.0000000E+00;  3.4952599E+01;0;  1.3328937E+00;  9.9524014E+03;  0.0000000E+00;  2.5390186E-03;  1.0000000E+04;  0.0000000E+00;  9.9706523E+03;  1.1675992E+00;  0.0000000E+00;  1.6529456E-01;  1.4071935E+04;
  7.1978992E-01;  9.9999998E-03;  3.0032846E-01;2175; -1.0306502E-01;  0.0000000E+00;  1.1674274E-01;  1.0116020E+03;  4.0618768E-01;  9.6110635E+03;3; -4.3590839E+01;  0.0000000E+00;  4.9673512E+01;0;  1.5322397E+00;  9.9511621E+03;  0.0000000E+00;  1.3578837E-03;  1.0000000E+04;  0.0000000E+00;  9.9726094E+03;  1.1902345E+00;  0.0000000E+00;  3.4200507E-01;  1.2834354E+04;
  7.3986477E-01;  9.9999998E-03;  1.6017658E-01;2199; -8.0863833E-02;  0.0000000E+00;  9.8451644E-02;  1.0121370E+03;  4.0630269E-01;  1.0053793E+04;3; -3.1321131E+01;  0.0000000E+00;  2.1785677E+01;0;  1.5606716E+00;  9.9547705E+03;  0.0000000E+00;  1.1549364E-05;  1.0000000E+04;  0.0000000E+00;  9.9739268E+03;  1.1743215E+00;  0.0000000E+00;  3.8635007E-01;  1.2246926E+04;
  7.3985881E-01;  9.9999998E-03;  1.8020126E-01;2200; -8.3231322E-02;  0.0000000E+00;  1.0599693E-01;  1.0120043E+03;  4.0630314E-01;  9.9439854E+03;3; -3.0834190E+01;  0.0000000E+00;  2.0216969E+01;0;  1.5278901E+00;  9.9533291E+03;  0.0000000E+00;  6.1435494E-05;  1.0000000E+04;  0.0000000E+00;  9.9727256E+03;  1.2054269E+00;  0.0000000E+00;  3.2246315E-01;  1.2916971E+04;
  7.3985320E-01;  9.9999998E-03;  2.0023049E-01;2201; -8.5001573E-02;  0.0000000E+00;  1.1333743E-01;  1.0118847E+03;  4.0630382E-01;  9.8448418E+03;3; -3.0096273E+01;  0.0000000E+00;  1.8403736E+01;0;  1.5007126E+00;  9.9518535E+03;  0.0000000E+00;  2.1774498E-04;  1.0000000E+04;  0.0000000E+00;  9.9718223E+03;  1.2352490E+00;  0.0000000E+00;  2.6546362E-01;  1.3425069E+04;
  7.3984951E-01;  9.9999998E-03;  2.2026831E-01;2202; -8.5125059E-02;  0.0000000E+00;  1.1829381E-01;  1.0117773E+03;  4.0630436E-01;  9.7558691E+03;3; -2.9125326E+01;  0.0000000E+00;  1.5233569E+01;0;  1.4898248E+00;  9.9504326E+03;  0.0000000E+00;  5.4968888E-04;  1.0000000E+04;  0.0000000E+00;  9.9711094E+03;  1.2617397E+00;  0.0000000E+00;  2.2808507E-01;  1.3810370E+04;
  7.3984963E-01;  9.9999998E-03;  2.4030770E-01;2203; -8.2701281E-02;  0.0000000E+00;  1.1693344E-01;  1.0116465E+03;  4.0630496E-01;  9.6475420E+03;3; -2.8160454E+01;  0.0000000E+00;  1.4845291E+01;0;  1.4932340E+00;  9.9491309E+03;  0.0000000E+00;  1.0516320E-03;  1.0000000E+04;  0.0000000E+00;  9.9698047E+03;  1.2839164E+00;  0.0000000E+00;  2.0931764E-01;  1.4463951E+04;
  7.3985356E-01;  9.9999998E-03;  2.6033074E-01;2204; -7.7882148E-02;  0.0000000E+00;  1.0954619E-01;  1.0115162E+03;  4.0630573E-01;  9.5396094E+03;3; -2.7124908E+01;  0.0000000E+00;  2.1336100E+01;0;  1.4644506E+00;  9.9479619E+03;  0.0000000E+00;  1.5497030E-03;  1.0000000E+04;  0.0000000E+00;  9.9683682E+03;  1.3018076E+00;  0.0000000E+00;  1.6264294E-01;  1.5217716E+04;
  7.3986059E-01;  9.9999998E-03;  2.8032961E-01;2205; -7.1025692E-02;  0.0000000E+00;  1.1005712E-01;  1.0116398E+03;  4.0630585E-01;  9.6420117E+03;3; -2.6186075E+01;  0.0000000E+00;  3.7819359E+01;0;  1.4592321E+00;  9.9469502E+03;  0.0000000E+00;  1.5395266E-03;  1.0000000E+04;  0.0000000E+00;  9.9718047E+03;  1.3156353E+00;  0.0000000E+00;  1.4359671E-01;  1.3493208E+04;
  7.3987138E-01;  9.9999998E-03;  3.0034474E-01;2206; -6.2000234E-02;  0.0000000E+00;  1.2510355E-01;  1.0116634E+03;  4.0630543E-01;  9.6615625E+03;3; -2.5470118E+01;  0.0000000E+00;  5.4481544E+01;0;  1.6922996E+00;  9.9461035E+03;  0.0000000E+00;  2.8486431E-04;  1.0000000E+04;  0.0000000E+00;  9.9731162E+03;  1.3256402E+00;  0.0000000E+00;  3.6665940E-01;  1.2510522E+04;
  7.5992596E-01;  9.9999998E-03;  1.6018303E-01;2230; -4.5575984E-02;  0.0000000E+00;  1.0127110E-01;  1.0121104E+03;  4.0634710E-01;  1.0031271E+04;3; -1.8405064E+01;  0.0000000E+00;  2.1463554E+01;0;  1.6429925E+00;  9.9530918E+03;  0.0000000E+00;  2.2822676E-05;  1.0000000E+04;  0.0000000E+00;  9.9729121E+03;  1.2451103E+00;  0.0000000E+00;  3.9788219E-01;  1.2719849E+04;
  7.5992280E-01;  9.9999998E-03;  1.8020755E-01;2231; -4.6602946E-02;  0.0000000E+00;  1.0819315E-01;  1.0119825E+03;  4.0634763E-01;  9.9253193E+03;3; -1.7826988E+01;  0.0000000E+00;  1.9355825E+01;0;  1.6025499E+00;  9.9516270E+03;  0.0000000E+00;  3.5815916E-05;  1.0000000E+04;  0.0000000E+00;  9.9718252E+03;  1.2754049E+00;  0.0000000E+00;  3.2714501E-01;  1.3340895E+04;
  7.5992000E-01;  9.9999998E-03;  2.0023596E-01;2232; -4.7124736E-02;  0.0000000E+00;  1.1453508E-01;  1.0118743E+03;  4.0634835E-01;  9.8357588E+03;3; -1.7064285E+01;  0.0000000E+00;  1.7013624E+01;0;  1.5647762E+00;  9.9502256E+03;  0.0000000E+00;  7.6235359E-05;  1.0000000E+04;  0.0000000E+00;  9.9710723E+03;  1.3010770E+00;  0.0000000E+00;  2.6369917E-01;  1.3783193E+04;
  7.5991863E-01;  9.9999998E-03;  2.2027242E-01;2233; -4.6563640E-02;  0.0000000E+00;  1.1850204E-01;  1.0117897E+03;  4.0634894E-01;  9.7656514E+03;3; -1.6194677E+01;  0.0000000E+00;  1.3803418E+01;0;  1.5386101E+00;  9.9490000E+03;  0.0000000E+00;  1.7114329E-04;  1.0000000E+04;  0.0000000E+00;  9.9706133E+03;  1.3197849E+00;  0.0000000E+00;  2.1882524E-01;  1.4051292E+04;
  7.5991946E-01;  9.9999998E-03;  2.4031034E-01;2234; -4.4570319E-02;  0.0000000E+00;  1.1679161E-01;  1.0117014E+03;  4.0634939E-01;  9.6924814E+03;3; -1.5306993E+01;  0.0000000E+00;  1.4194517E+01;0;  1.5200806E+00;  9.9480020E+03;  0.0000000E+00;  3.2830655E-04;  1.0000000E+04;  0.0000000E+00;  9.9698438E+03;  1.3308101E+00;  0.0000000E+00;  1.8927053E-01;  1.4453825E+04;
  7.5992244E-01;  9.9999998E-03;  2.6033422E-01;2235; -4.1335735E-02;  0.0000000E+00;  1.1056737E-01;  1.0116276E+03;  4.0635005E-01;  9.6314580E+03;3; -1.4495095E+01;  0.0000000E+00;  2.1230799E+01;0;  1.4714695E+00;  9.9472480E+03;  0.0000000E+00;  4.7064605E-04;  1.0000000E+04;  0.0000000E+00;  9.9691221E+03;  1.3351279E+00;  0.0000000E+00;  1.3634157E-01;  1.4860923E+04;
  7.5992680E-01;  9.9999998E-03;  2.8033665E-01;2236; -3.7356343E-02;  0.0000000E+00;  1.1390027E-01;  1.0117816E+03;  4.0635008E-01;  9.7589365E+03;3; -1.3833941E+01;  0.0000000E+00;  4.0551643E+01;0;  1.4672601E+00;  9.9466895E+03;  0.0000000E+00;  2.9141823E-04;  1.0000000E+04;  0.0000000E+00;  9.9727002E+03;  1.3346885E+00;  0.0000000E+00;  1.3257159E-01;  1.3047375E+04;
  7.5993353E-01;  9.9999998E-03;  3.0035570E-01;2237; -3.1978231E-02;  0.0000000E+00;  1.3151559E-01;  1.0117887E+03;  4.0634957E-01;  9.7648613E+03;3; -1.3363830E+01;  0.0000000E+00;  5.8194618E+01;0;  1.7307168E+00;  9.9462695E+03;  0.0000000E+00; -6.8502995E-04;  1.0000000E+04;  0.0000000E+00;  9.9732734E+03;  1.3320153E+00;  0.0000000E+00;  3.9870152E-01;  1.2371496E+04;
  7.7997196E-01;  9.9999998E-03;  1.6018601E-01;2261; -1.8902926E-02;  0.0000000E+00;  1.0224148E-01;  1.0122145E+03;  4.0636331E-01;  1.0116795E+04;3; -8.6968517E+00;  0.0000000E+00;  2.0873148E+01;0;  1.6254737E+00;  9.9548066E+03;  0.0000000E+00;  1.3015874E-05;  1.0000000E+04;  0.0000000E+00;  9.9724570E+03;  1.2238309E+00;  0.0000000E+00;  4.0164286E-01;  1.2933656E+04;
  7.7997094E-01;  9.9999998E-03;  1.8021011E-01;2262; -1.8994803E-02;  0.0000000E+00;  1.0860402E-01;  1.0120936E+03;  4.0636387E-01;  1.0016773E+04;3; -8.2200785E+00;  0.0000000E+00;  1.8400219E+01;0;  1.5795914E+00;  9.9534063E+03;  0.0000000E+00;  1.2231415E-05;  1.0000000E+04;  0.0000000E+00;  9.9714502E+03;  1.2517368E+00;  0.0000000E+00;  3.2785463E-01;  1.3519672E+04;
  7.7997035E-01;  9.9999998E-03;  2.0023775E-01;2263; -1.8761823E-02;  0.0000000E+00;  1.1430556E-01;  1.0119962E+03;  4.0636447E-01;  9.9360068E+03;3; -7.6574364E+00;  0.0000000E+00;  1.5800510E+01;0;  1.5348901E+00;  9.9521436E+03;  0.0000000E+00;  1.1719034E-05;  1.0000000E+04;  0.0000000E+00;  9.9707686E+03;  1.2726197E+00;  0.0000000E+00;  2.6227030E-01;  1.3928163E+04;
  7.7997047E-01;  9.9999998E-03;  2.2027339E-01;2264; -1.7975494E-02;  0.0000000E+00;  1.1798029E-01;  1.0119283E+03;  4.0636501E-01;  9.8798252E+03;3; -7.0704370E+00;  0.0000000E+00;  1.2908964E+01;0;  1.4993141E+00;  9.9511260E+03;  0.0000000E+00;  1.4291216E-05;  1.0000000E+04;  0.0000000E+00;  9.9704258E+03;  1.2841679E+00;  0.0000000E+00;  2.1514615E-01;  1.4142074E+04;
  7.7997160E-01;  9.9999998E-03;  2.4031073E-01;2265; -1.6639585E-02;  0.0000000E+00;  1.1641769E-01;  1.0118670E+03;  4.0636548E-01;  9.8290752E+03;3; -6.5358644E+00;  0.0000000E+00;  1.3974228E+01;0;  1.4679536E+00;  9.9504170E+03;  0.0000000E+00;  1.6391034E-05;  1.0000000E+04;  0.0000000E+00;  9.9699072E+03;  1.2860506E+00;  0.0000000E+00;  1.8190297E-01;  1.4423789E+04;
  7.7997345E-01;  9.9999998E-03;  2.6033568E-01;2266; -1.5014863E-02;  0.0000000E+00;  1.1117593E-01;  1.0118259E+03;  4.0636611E-01;  9.7950107E+03;3; -6.1237454E+00;  0.0000000E+00;  2.1352461E+01;0;  1.4079638E+00;  9.9499990E+03;  0.0000000E+00; -1.5371443E-05;  1.0000000E+04;  0.0000000E+00;  9.9694902E+03;  1.2799621E+00;  0.0000000E+00;  1.2800163E-01;  1.4682087E+04;
  7.7997535E-01;  9.9999998E-03;  2.8034079E-01;2267; -1.3432104E-02;  0.0000000E+00;  1.1652766E-01;  1.0119921E+03;  4.0636614E-01;  9.9326494E+03;3; -5.8633175E+00;  0.0000000E+00;  4.2451065E+01;0;  1.4069233E+00;  9.9498057E+03;  0.0000000E+00; -1.8392983E-04;  1.0000000E+04;  0.0000000E+00;  9.9729502E+03;  1.2688903E+00;  0.0000000E+00;  1.3803308E-01;  1.2911465E+04;
  7.7997839E-01;  9.9999998E-03;  3.0036256E-01;2268; -1.1217913E-02;  0.0000000E+00;  1.3594711E-01;  1.0119886E+03;  4.0636551E-01;  9.9297861E+03;3; -5.7325563E+00;  0.0000000E+00;  6.0667122E+01;0;  1.6890857E+00;  9.9497324E+03;  0.0000000E+00; -6.2775169E-04;  1.0000000E+04;  0.0000000E+00;  9.9729658E+03;  1.2565022E+00;  0.0000000E+00;  4.3258363E-01;  1.2474040E+04;
  8.0000919E-01;  9.9999998E-03;  1.6018622E-01;2292;  3.0092385E-03;  0.0000000E+00;  1.0187941E-01;  1.0123950E+03;  4.0636796E-01;  1.0265448E+04;3; -5.5402410E-01;  0.0000000E+00;  2.0270134E+01;0;  1.5536097E+00;  9.9581631E+03;  0.0000000E+00;  1.9798424E-06;  1.0000000E+04;  0.0000000E+00;  9.9724219E+03;  1.1530899E+00;  0.0000000E+00;  4.0051988E-01;  1.2947484E+04;
  8.0000997E-01;  9.9999998E-03;  1.8020989E-01;2293;  3.6010265E-03;  0.0000000E+00;  1.0789163E-01;  1.0122806E+03;  4.0636852E-01;  1.0170669E+04;3; -2.5054142E-01;  0.0000000E+00;  1.7649515E+01;0;  1.5054550E+00;  9.9568613E+03;  0.0000000E+00;  8.0628320E-07;  1.0000000E+04;  0.0000000E+00;  9.9714434E+03;  1.1785817E+00;  0.0000000E+00;  3.2687336E-01;  1.3517461E+04;
  8.0001092E-01;  9.9999998E-03;  2.0023702E-01;2294;  4.3049473E-03;  0.0000000E+00;  1.1335800E-01;  1.0121903E+03;  4.0636912E-01;  1.0095933E+04;3;  4.1363657E-02;  0.0000000E+00;  1.5181137E+01;0;  1.4583104E+00;  9.9557305E+03;  0.0000000E+00; -1.1548348E-06;  1.0000000E+04;  0.0000000E+00;  9.9707686E+03;  1.1958843E+00;  0.0000000E+00;  2.6242608E-01;  1.3922063E+04;
  8.0001211E-01;  9.9999998E-03;  2.2027265E-01;2295;  5.0674072E-03;  0.0000000E+00;  1.1749195E-01;  1.0121307E+03;  4.0636975E-01;  1.0046568E+04;3;  2.8632751E-01;  0.0000000E+00;  1.2722599E+01;0;  1.4200524E+00;  9.9548857E+03;  0.0000000E+00; -5.3633953E-06;  1.0000000E+04;  0.0000000E+00;  9.9704160E+03;  1.2028596E+00;  0.0000000E+00;  2.1719274E-01;  1.4137287E+04;
  8.0001324E-01;  9.9999998E-03;  2.4031034E-01;2296;  5.6627537E-03;  0.0000000E+00;  1.1636101E-01;  1.0120792E+03;  4.0637007E-01;  1.0003819E+04;3;  4.3960440E-01;  0.0000000E+00;  1.3869153E+01;0;  1.3856773E+00;  9.9543740E+03;  0.0000000E+00; -1.7742002E-05;  1.0000000E+04;  0.0000000E+00;  9.9698975E+03;  1.1995077E+00;  0.0000000E+00;  1.8616965E-01;  1.4417478E+04;
  8.0001384E-01;  9.9999998E-03;  2.6033613E-01;2297;  5.7940679E-03;  0.0000000E+00;  1.1180629E-01;  1.0120472E+03;  4.0637070E-01;  9.9774590E+03;3;  4.6831208E-01;  0.0000000E+00;  2.1667574E+01;0;  1.3238071E+00;  9.9541670E+03;  0.0000000E+00; -4.8825681E-05;  1.0000000E+04;  0.0000000E+00;  9.9694502E+03;  1.1878973E+00;  0.0000000E+00;  1.3590978E-01;  1.4686328E+04;
  8.0001378E-01;  9.9999998E-03;  2.8034273E-01;2298;  5.4649943E-03;  0.0000000E+00;  1.1823538E-01;  1.0122124E+03;  4.0637076E-01;  1.0114197E+04;3;  3.7999511E-01;  0.0000000E+00;  4.4005695E+01;0;  1.3260148E+00;  9.9541924E+03;  0.0000000E+00; -1.0333403E-04;  1.0000000E+04;  0.0000000E+00;  9.9726738E+03;  1.1713279E+00;  0.0000000E+00;  1.5468676E-01;  1.3022113E+04;
  8.0001354E-01;  9.9999998E-03;  3.0036575E-01;2299;  4.9556601E-03;  0.0000000E+00;  1.3832754E-01;  1.0122039E+03;  4.0637013E-01;  1.0107188E+04;3;  2.2764720E-01;  0.0000000E+00;  6.1985928E+01;0;  1.6135243E+00;  9.9543359E+03;  0.0000000E+00; -1.6654503E-04;  1.0000000E+04;  0.0000000E+00;  9.9723779E+03;  1.1535608E+00;  0.0000000E+00;  4.5996359E-01;  1.2727218E+04;
  8.2004404E-01;  9.9999998E-03;  1.6018414E-01;2323;  2.3835881E-02;  0.0000000E+00;  1.0051056E-01;  1.0125789E+03;  4.0636003E-01;  1.0416509E+04;3;  7.4544067E+00;  0.0000000E+00;  1.9767687E+01;0;  1.4622531E+00;  9.9618828E+03;  0.0000000E+00; -3.0008312E-06;  1.0000000E+04;  0.0000000E+00;  9.9727002E+03;  1.0657699E+00;  0.0000000E+00;  3.9648318E-01;  1.2804712E+04;
  8.2004631E-01;  9.9999998E-03;  1.8020745E-01;2324;  2.5045674E-02;  0.0000000E+00;  1.0639384E-01;  1.0124689E+03;  4.0636072E-01;  1.0325395E+04;3;  7.6291394E+00;  0.0000000E+00;  1.7194809E+01;0;  1.4150765E+00;  9.9606680E+03;  0.0000000E+00; -8.0100045E-07;  1.0000000E+04;  0.0000000E+00;  9.9717178E+03;  1.0899293E+00;  0.0000000E+00;  3.2514709E-01;  1.3373084E+04;
  8.2004875E-01;  9.9999998E-03;  2.0023432E-01;2325;  2.6184009E-02;  0.0000000E+00;  1.1188676E-01;  1.0123812E+03;  4.0636128E-01;  1.0252739E+04;3;  7.7246728E+00;  0.0000000E+00;  1.4894764E+01;0;  1.3696902E+00;  9.9596338E+03;  0.0000000E+00;  9.2962691E-06;  1.0000000E+04;  0.0000000E+00;  9.9710010E+03;  1.1059209E+00;  0.0000000E+00;  2.6376927E-01;  1.3792567E+04;
  8.2005084E-01;  9.9999998E-03;  2.2027053E-01;2326;  2.6928592E-02;  0.0000000E+00;  1.1699317E-01;  1.0123220E+03;  4.0636173E-01;  1.0203776E+04;3;  7.7300935E+00;  0.0000000E+00;  1.3158084E+01;0;  1.3343610E+00;  9.9588799E+03;  0.0000000E+00;  3.1859912E-05;  1.0000000E+04;  0.0000000E+00;  9.9705635E+03;  1.1116832E+00;  0.0000000E+00;  2.2267774E-01;  1.4044524E+04;
  8.2005179E-01;  9.9999998E-03;  2.4030919E-01;2327;  2.6816856E-02;  0.0000000E+00;  1.1656084E-01;  1.0122659E+03;  4.0636230E-01;  1.0157281E+04;3;  7.6350803E+00;  0.0000000E+00;  1.4309205E+01;0;  1.3047469E+00;  9.9584561E+03;  0.0000000E+00;  6.2155174E-05;  1.0000000E+04;  0.0000000E+00;  9.9698711E+03;  1.1073543E+00;  0.0000000E+00;  1.9739255E-01;  1.4403841E+04;
  8.2005125E-01;  9.9999998E-03;  2.6033571E-01;2328;  2.5685146E-02;  0.0000000E+00;  1.1232550E-01;  1.0122230E+03;  4.0636277E-01;  1.0121743E+04;3;  7.4402828E+00;  0.0000000E+00;  2.2209753E+01;0;  1.2483273E+00;  9.9583242E+03;  0.0000000E+00;  8.3624953E-05;  1.0000000E+04;  0.0000000E+00;  9.9691348E+03;  1.0950652E+00;  0.0000000E+00;  1.5326203E-01;  1.4806795E+04;
  8.2005000E-01;  9.9999998E-03;  2.8034246E-01;2329;  2.3908412E-02;  0.0000000E+00;  1.1866999E-01;  1.0123795E+03;  4.0636280E-01;  1.0251259E+04;3;  7.1720648E+00;  0.0000000E+00;  4.4587696E+01;0;  1.2512133E+00;  9.9584160E+03;  0.0000000E+00;  7.3538118E-05;  1.0000000E+04;  0.0000000E+00;  9.9721172E+03;  1.0779654E+00;  0.0000000E+00;  1.7324792E-01;  1.3264404E+04;
  8.2004672E-01;  9.9999998E-03;  3.0036545E-01;2330;  2.0958915E-02;  0.0000000E+00;  1.3870019E-01;  1.0123713E+03;  4.0636221E-01;  1.0244546E+04;3;  6.8886623E+00;  0.0000000E+00;  6.2299530E+01;0;  1.5349338E+00;  9.9586309E+03;  0.0000000E+00;  4.1223950E-05;  1.0000000E+04;  0.0000000E+00;  9.9717510E+03;  1.0593538E+00;  0.0000000E+00;  4.7557995E-01;  1.3008102E+04;
  8.4007961E-01;  9.9999998E-03;  1.6018008E-01;2354;  4.5278840E-02;  0.0000000E+00;  9.8269269E-02;  1.0125365E+03;  4.0625700E-01;  1.0379647E+04;3;  1.5906494E+01;  0.0000000E+00;  1.9349546E+01;0;  1.3634053E+00;  9.9655576E+03;  0.0000000E+00; -3.0614617E-06;  1.0000000E+04;  0.0000000E+00;  9.9732422E+03;  9.7314864E-01;  0.0000000E+00;  3.9025667E-01;  1.2527166E+04;
  8.4008342E-01;  9.9999998E-03;  1.8020296E-01;2355;  4.7160219E-02;  0.0000000E+00;  1.0413895E-01;  1.0124279E+03;  4.0625763E-01;  1.0289732E+04;3;  1.6061380E+01;  0.0000000E+00;  1.6949448E+01;0;  1.3198485E+00;  9.9643994E+03;  0.0000000E+00;  3.1948575E-06;  1.0000000E+04;  0.0000000E+00;  9.9722422E+03;  9.9743837E-01;  0.0000000E+00;  3.2241014E-01;  1.3098998E+04;
  8.4008729E-01;  9.9999998E-03;  2.0022947E-01;2356;  4.8851997E-02;  0.0000000E+00;  1.0974876E-01;  1.0123393E+03;  4.0625808E-01;  1.0216397E+04;3;  1.6110607E+01;  0.0000000E+00;  1.4885247E+01;0;  1.2793939E+00;  9.9633936E+03;  0.0000000E+00;  3.1977848E-05;  1.0000000E+04;  0.0000000E+00;  9.9714736E+03;  1.0145589E+00;  0.0000000E+00;  2.6483497E-01;  1.3537653E+04;
  8.4009033E-01;  9.9999998E-03;  2.2026573E-01;2357;  4.9771145E-02;  0.0000000E+00;  1.1555598E-01;  1.0122758E+03;  4.0625858E-01;  1.0163791E+04;3;  1.6057940E+01;  0.0000000E+00;  1.3620192E+01;0;  1.2503102E+00;  9.9626514E+03;  0.0000000E+00;  1.0124971E-04;  1.0000000E+04;  0.0000000E+00;  9.9709463E+03;  1.0223483E+00;  0.0000000E+00;  2.2796194E-01;  1.3828284E+04;
  8.4009117E-01;  9.9999998E-03;  2.4030477E-01;2358;  4.9061496E-02;  0.0000000E+00;  1.1575988E-01;  1.0122109E+03;  4.0625900E-01;  1.0110000E+04;3;  1.5915050E+01;  0.0000000E+00;  1.4936822E+01;0;  1.2287058E+00;  9.9622080E+03;  0.0000000E+00;  2.0687182E-04;  1.0000000E+04;  0.0000000E+00;  9.9700898E+03;  1.0207924E+00;  0.0000000E+00;  2.0791337E-01;  1.4258621E+04;
  8.4008980E-01;  9.9999998E-03;  2.6033139E-01;2359;  4.6953958E-02;  0.0000000E+00;  1.1160859E-01;  1.0121553E+03;  4.0625957E-01;  1.0064006E+04;3;  1.5700927E+01;  0.0000000E+00;  2.2486492E+01;0;  1.1800814E+00;  9.9620361E+03;  0.0000000E+00;  2.9889378E-04;  1.0000000E+04;  0.0000000E+00;  9.9691426E+03;  1.0117933E+00;  0.0000000E+00;  1.6828810E-01;  1.4759285E+04;
  8.4008759E-01;  9.9999998E-03;  2.8033805E-01;2360;  4.3976404E-02;  0.0000000E+00;  1.1754667E-01;  1.0123002E+03;  4.0625972E-01;  1.0183926E+04;3;  1.5442356E+01;  0.0000000E+00;  4.4152424E+01;0;  1.1838875E+00;  9.9620742E+03;  0.0000000E+00;  2.6513447E-04;  1.0000000E+04;  0.0000000E+00;  9.9719521E+03;  9.9811500E-01;  0.0000000E+00;  1.8577246E-01;  1.3310782E+04;
  8.4008181E-01;  9.9999998E-03;  3.0036044E-01;2361;  3.8845744E-02;  0.0000000E+00;  1.3707116E-01;  1.0122939E+03;  4.0625915E-01;  1.0178794E+04;3;  1.5188964E+01;  0.0000000E+00;  6.1586884E+01;0;  1.4588307E+00;  9.9622373E+03;  0.0000000E+00;  4.6143752E-05;  1.0000000E+04;  0.0000000E+00;  9.9716738E+03;  9.8247635E-01;  0.0000000E+00;  4.7635436E-01;  1.3027717E+04;
  8.6011553E-01;  9.9999998E-03;  1.6017415E-01;2385;  6.6984288E-02;  0.0000000E+00;  9.5153220E-02;  1.0122703E+03;  4.0605423E-01;  1.0156982E+04;3;  2.4579346E+01;  0.0000000E+00;  1.8920513E+01;0;  1.2501230E+00;  9.9694922E+03;  0.0000000E+00; -2.1751514E-06;  1.0000000E+04;  0.0000000E+00;  9.9740322E+03;  8.6846399E-01;  0.0000000E+00;  3.8165897E-01;  1.2121807E+04;
  8.6012089E-01;  9.9999998E-03;  1.8019642E-01;2386;  6.9612466E-02;  0.0000000E+00;  1.0102189E-01;  1.0121621E+03;  4.0605488E-01;  1.0067383E+04;3;  2.4825314E+01;  0.0000000E+00;  1.6753473E+01;0;  1.2119024E+00;  9.9683467E+03;  0.0000000E+00;  9.3049039E-06;  1.0000000E+04;  0.0000000E+00;  9.9730186E+03;  8.9411253E-01;  0.0000000E+00;  3.1778985E-01;  1.2693163E+04;
  8.6012626E-01;  9.9999998E-03;  2.0022231E-01;2387;  7.1999870E-02;  0.0000000E+00;  1.0670845E-01;  1.0120699E+03;  4.0605536E-01;  9.9911035E+03;3;  2.4973701E+01;  0.0000000E+00;  1.4943735E+01;0;  1.1784049E+00;  9.9673135E+03;  0.0000000E+00;  6.5484906E-05;  1.0000000E+04;  0.0000000E+00;  9.9722090E+03;  9.1433507E-01;  0.0000000E+00;  2.6406986E-01;  1.3145076E+04;
  8.6013049E-01;  9.9999998E-03;  2.2025785E-01;2388;  7.3325410E-02;  0.0000000E+00;  1.1280458E-01;  1.0119995E+03;  4.0605578E-01;  9.9327842E+03;3;  2.5030544E+01;  0.0000000E+00;  1.4041874E+01;0;  1.1573825E+00;  9.9664990E+03;  0.0000000E+00;  2.0638929E-04;  1.0000000E+04;  0.0000000E+00;  9.9716191E+03;  9.2675710E-01;  0.0000000E+00;  2.3062544E-01;  1.3462406E+04;
  8.6013126E-01;  9.9999998E-03;  2.4029632E-01;2389;  7.2178297E-02;  0.0000000E+00;  1.1341176E-01;  1.0119249E+03;  4.0605626E-01;  9.8710127E+03;3;  2.5011122E+01;  0.0000000E+00;  1.5391236E+01;0;  1.1449437E+00;  9.9659502E+03;  0.0000000E+00;  4.2978552E-04;  1.0000000E+04;  0.0000000E+00;  9.9706787E+03;  9.3089455E-01;  0.0000000E+00;  2.1404919E-01;  1.3927990E+04;
  8.6012924E-01;  9.9999998E-03;  2.6032245E-01;2390;  6.9316171E-02;  0.0000000E+00;  1.0939062E-01;  1.0118594E+03;  4.0605676E-01;  9.8168389E+03;3;  2.4934296E+01;  0.0000000E+00;  2.2510141E+01;0;  1.1050888E+00;  9.9656465E+03;  0.0000000E+00;  6.3295552E-04;  1.0000000E+04;  0.0000000E+00;  9.9696641E+03;  9.2809701E-01;  0.0000000E+00;  1.7699181E-01;  1.4456787E+04;
  8.6012650E-01;  9.9999998E-03;  2.8032920E-01;2391;  6.5343760E-02;  0.0000000E+00;  1.1492656E-01;  1.0119901E+03;  4.0605688E-01;  9.9249902E+03;3;  2.4816963E+01;  0.0000000E+00;  4.3137012E+01;0;  1.1111538E+00;  9.9655430E+03;  0.0000000E+00;  5.7394797E-04;  1.0000000E+04;  0.0000000E+00;  9.9723330E+03;  9.2056072E-01;  0.0000000E+00;  1.9059318E-01;  1.3087448E+04;
  8.6011839E-01;  9.9999998E-03;  3.0035082E-01;2392;  5.8167920E-02;  0.0000000E+00;  1.3375327E-01;  1.0119846E+03;  4.0605634E-01;  9.9204521E+03;3;  2.4701183E+01;  0.0000000E+00;  6.0213844E+01;0;  1.3762794E+00;  9.9655723E+03;  0.0000000E+00;  1.4076909E-04;  1.0000000E+04;  0.0000000E+00;  9.9722061E+03;  9.1045439E-01;  0.0000000E+00;  4.6582490E-01;  1.2753564E+04;
  8.8014954E-01;  9.9999998E-03;  1.6016644E-01;2416;  8.7563872E-02;  0.0000000E+00;  9.1136001E-02;  1.0118353E+03;  4.0576348E-01;  9.7938574E+03;3;  3.2904171E+01;  0.0000000E+00;  1.8375544E+01;0;  1.1098984E+00;  9.9741768E+03;  0.0000000E+00; -4.8942716E-06;  1.0000000E+04;  0.0000000E+00;  9.9750684E+03;  7.3967940E-01;  0.0000000E+00;  3.7021905E-01;  1.1591863E+04;
  8.8015634E-01;  9.9999998E-03;  1.8018788E-01;2417;  9.0959512E-02;  0.0000000E+00;  9.6940465E-02;  1.0117266E+03;  4.0576404E-01;  9.7039883E+03;3;  3.3310139E+01;  0.0000000E+00;  1.6454754E+01;0;  1.0778002E+00;  9.9730215E+03;  0.0000000E+00;  1.2440328E-05;  1.0000000E+04;  0.0000000E+00;  9.9740615E+03;  7.6733536E-01;  0.0000000E+00;  3.1046483E-01;  1.2153171E+04;
  8.8016319E-01;  9.9999998E-03;  2.0021276E-01;2418;  9.4110489E-02;  0.0000000E+00;  1.0259243E-01;  1.0116295E+03;  4.0576443E-01;  9.6235879E+03;3;  3.3645481E+01;  0.0000000E+00;  1.4885215E+01;0;  1.0522908E+00;  9.9719131E+03;  0.0000000E+00;  1.0299074E-04;  1.0000000E+04;  0.0000000E+00;  9.9732334E+03;  7.9188299E-01;  0.0000000E+00;  2.6040784E-01;  1.2607470E+04;
  8.8016862E-01;  9.9999998E-03;  2.2024688E-01;2419;  9.5929556E-02;  0.0000000E+00;  1.0865311E-01;  1.0115504E+03;  4.0576488E-01;  9.5580850E+03;3;  3.3909649E+01;  0.0000000E+00;  1.4279694E+01;0;  1.0402824E+00;  9.9709580E+03;  0.0000000E+00;  3.3678403E-04;  1.0000000E+04;  0.0000000E+00;  9.9726035E+03;  8.1070226E-01;  0.0000000E+00;  2.2958012E-01;  1.2935879E+04;
  8.8016951E-01;  9.9999998E-03;  2.4028385E-01;2420;  9.4498113E-02;  0.0000000E+00;  1.0943977E-01;  1.0114665E+03;  4.0576535E-01;  9.4887354E+03;3;  3.4106964E+01;  0.0000000E+00;  1.5660062E+01;0;  1.0372087E+00;  9.9702246E+03;  0.0000000E+00;  7.1619306E-04;  1.0000000E+04;  0.0000000E+00;  9.9716680E+03;  8.2260108E-01;  0.0000000E+00;  2.1460761E-01;  1.3397971E+04;
  8.8016677E-01;  9.9999998E-03;  2.6030916E-01;2421;  9.0990312E-02;  0.0000000E+00;  1.0573832E-01;  1.0113923E+03;  4.0576583E-01;  9.4273770E+03;3;  3.4242859E+01;  0.0000000E+00;  2.2279221E+01;0;  1.0074635E+00;  9.9697217E+03;  0.0000000E+00;  1.0762538E-03;  1.0000000E+04;  0.0000000E+00;  9.9706895E+03;  8.2801616E-01;  0.0000000E+00;  1.7944731E-01;  1.3903989E+04;
  8.8016385E-01;  9.9999998E-03;  2.8031629E-01;2422;  8.6285934E-02;  0.0000000E+00;  1.1103123E-01;  1.0115048E+03;  4.0576592E-01;  9.5204023E+03;3;  3.4321037E+01;  0.0000000E+00;  4.1764000E+01;0;  1.0183351E+00;  9.9694082E+03;  0.0000000E+00;  1.0120724E-03;  1.0000000E+04;  0.0000000E+00;  9.9732002E+03;  8.2832569E-01;  0.0000000E+00;  1.9000944E-01;  1.2623318E+04;
  8.8015383E-01;  9.9999998E-03;  3.0033711E-01;2423;  7.7280723E-02;  0.0000000E+00;  1.2900025E-01;  1.0114974E+03;  4.0576556E-01;  9.5142881E+03;3;  3.4382481E+01;  0.0000000E+00;  5.8292034E+01;0;  1.2727559E+00;  9.9692568E+03;  0.0000000E+00;  4.0905451E-04;  1.0000000E+04;  0.0000000E+00;  9.9732109E+03;  8.2516515E-01;  0.0000000E+00;  4.4759077E-01;  1.2247549E+04;
  9.0017891E-01;  9.9999998E-03;  1.6015711E-01;2447;  1.0552789E-01;  0.0000000E+00;  8.6245254E-02;  1.0112782E+03;  4.0540057E-01;  9.3290811E+03;3;  4.0337090E+01;  0.0000000E+00;  1.7647034E+01;0;  9.3901372E-01;  9.9797979E+03;  0.0000000E+00; -1.2558093E-05;  1.0000000E+04;  0.0000000E+00;  9.9763359E+03;  5.8328092E-01;  0.0000000E+00;  3.5573277E-01;  1.0945833E+04;
  9.0018702E-01;  9.9999998E-03;  1.8017747E-01;2448;  1.0963295E-01;  0.0000000E+00;  9.1886304E-02;  1.0111700E+03;  4.0540105E-01;  9.2396426E+03;3;  4.0915527E+01;  0.0000000E+00;  1.5960198E+01;0;  9.1283518E-01;  9.9786260E+03;  0.0000000E+00;  7.3476094E-06;  1.0000000E+04;  0.0000000E+00;  9.9753525E+03;  6.1273688E-01;  0.0000000E+00;  3.0009830E-01;  1.1485605E+04;
  9.0019524E-01;  9.9999998E-03;  2.0020099E-01;2449;  1.1350747E-01;  0.0000000E+00;  9.7368509E-02;  1.0110682E+03;  4.0540147E-01;  9.1554297E+03;3;  4.1452999E+01;  0.0000000E+00;  1.4604113E+01;0;  8.9538980E-01;  9.9774160E+03;  0.0000000E+00;  1.2769223E-04;  1.0000000E+04;  0.0000000E+00;  9.9745342E+03;  6.4190400E-01;  0.0000000E+00;  2.5348580E-01;  1.1930395E+04;
  9.0020162E-01;  9.9999998E-03;  2.2023277E-01;2450;  1.1554018E-01;  0.0000000E+00;  1.0280144E-01;  1.0109796E+03;  4.0540174E-01;  9.0821631E+03;3;  4.1791939E+01;  0.0000000E+00;  1.4034965E+01;0;  8.9224863E-01;  9.9762764E+03;  0.0000000E+00;  4.5194456E-04;  1.0000000E+04;  0.0000000E+00;  9.9739111E+03;  6.6800362E-01;  0.0000000E+00;  2.2424504E-01;  1.2251843E+04;
  9.0020227E-01;  9.9999998E-03;  2.4026741E-01;2451;  1.1383534E-01;  0.0000000E+00;  1.0388691E-01;  1.0108878E+03;  4.0540212E-01;  9.0061357E+03;3;  4.2366535E+01;  0.0000000E+00;  1.5779590E+01;0;  8.9858902E-01;  9.9752988E+03;  0.0000000E+00;  9.9519745E-04;  1.0000000E+04;  0.0000000E+00;  9.9730547E+03;  6.8893874E-01;  0.0000000E+00;  2.0965029E-01;  1.2670219E+04;
  9.0019912E-01;  9.9999998E-03;  2.6029196E-01;2452;  1.0998861E-01;  0.0000000E+00;  1.0077929E-01;  1.0108054E+03;  4.0540263E-01;  8.9379990E+03;3;  4.2718445E+01;  0.0000000E+00;  2.1805050E+01;0;  8.8039446E-01;  9.9745332E+03;  0.0000000E+00;  1.5321752E-03;  1.0000000E+04;  0.0000000E+00;  9.9721709E+03;  7.0386952E-01;  0.0000000E+00;  1.7652495E-01;  1.3123808E+04;
  9.0019667E-01;  9.9999998E-03;  2.8029996E-01;2453;  1.0497422E-01;  0.0000000E+00;  1.0613272E-01;  1.0108945E+03;  4.0540275E-01;  9.0116592E+03;3;  4.2987946E+01;  0.0000000E+00;  4.0269341E+01;0;  8.9960933E-01;  9.9739746E+03;  0.0000000E+00;  1.4723691E-03;  1.0000000E+04;  0.0000000E+00;  9.9744736E+03;  7.1309227E-01;  0.0000000E+00;  1.8651706E-01;  1.1953655E+04;
  9.0018541E-01;  9.9999998E-03;  3.0032003E-01;2454;  9.4487838E-02;  0.0000000E+00;  1.2300771E-01;  1.0108796E+03;  4.0540239E-01;  8.9994346E+03;3;  4.3217987E+01;  0.0000000E+00;  5.5893555E+01;0;  1.1411953E+00;  9.9735967E+03;  0.0000000E+00;  7.3837652E-04;  1.0000000E+04;  0.0000000E+00;  9.9745566E+03;  7.1772492E-01;  0.0000000E+00;  4.2347044E-01;  1.1573411E+04;
  9.2019737E-01;  9.9999998E-03;  1.6014650E-01;2478;  1.1703897E-01;  0.0000000E+00;  8.0594823E-02;  1.0106249E+03;  4.0498421E-01;  8.7838975E+03;3;  4.5641895E+01;  0.0000000E+00;  1.6727484E+01;0;  7.4993205E-01;  9.9859619E+03;  0.0000000E+00; -2.1027388E-05;  1.0000000E+04;  0.0000000E+00;  9.9777959E+03;  4.1141525E-01;  0.0000000E+00;  3.3851683E-01;  1.0201048E+04;
  9.2020774E-01;  9.9999998E-03;  1.8016554E-01;2479;  1.2248826E-01;  0.0000000E+00;  8.6022906E-02;  1.0105194E+03;  4.0498438E-01;  8.6966748E+03;3;  4.6615326E+01;  0.0000000E+00;  1.5277175E+01;0;  7.2839653E-01;  9.9848057E+03;  0.0000000E+00; -4.3738733E-06;  1.0000000E+04;  0.0000000E+00;  9.9768604E+03;  4.4143426E-01;  0.0000000E+00;  2.8696230E-01;  1.0708881E+04;
  9.2021859E-01;  9.9999998E-03;  2.0018736E-01;2480;  1.2790291E-01;  0.0000000E+00;  9.1205440E-02;  1.0104141E+03;  4.0498477E-01;  8.6095498E+03;3;  4.7648212E+01;  0.0000000E+00;  1.4103537E+01;0;  7.1786571E-01;  9.9835088E+03;  0.0000000E+00;  1.2685770E-04;  1.0000000E+04;  0.0000000E+00;  9.9760635E+03;  4.7427338E-01;  0.0000000E+00;  2.4359229E-01;  1.1133559E+04;
  9.2022669E-01;  9.9999998E-03;  2.2021599E-01;2481;  1.3056798E-01;  0.0000000E+00;  9.5533952E-02;  1.0103180E+03;  4.0498504E-01;  8.5302109E+03;3;  4.8260231E+01;  0.0000000E+00;  1.3557057E+01;0;  7.2219986E-01;  9.9821680E+03;  0.0000000E+00;  5.0432223E-04;  1.0000000E+04;  0.0000000E+00;  9.9754834E+03;  5.0730890E-01;  0.0000000E+00;  2.1489097E-01;  1.1431772E+04;
  9.2022711E-01;  9.9999998E-03;  2.4024795E-01;2482;  1.2861854E-01;  0.0000000E+00;  9.7001925E-02;  1.0102188E+03;  4.0498549E-01;  8.4481162E+03;3;  4.9115425E+01;  0.0000000E+00;  1.5648494E+01;0;  7.3699200E-01;  9.9809170E+03;  0.0000000E+00;  1.1706550E-03;  1.0000000E+04;  0.0000000E+00;  9.9747627E+03;  5.3750336E-01;  0.0000000E+00;  1.9948867E-01;  1.1781308E+04;
  9.2022407E-01;  9.9999998E-03;  2.6027191E-01;2483;  1.2509078E-01;  0.0000000E+00;  9.4952822E-02;  1.0101271E+03;  4.0498582E-01;  8.3723291E+03;3;  4.9853737E+01;  0.0000000E+00;  2.1313145E+01;0;  7.3217231E-01;  9.9798408E+03;  0.0000000E+00;  1.8622464E-03;  1.0000000E+04;  0.0000000E+00;  9.9740029E+03;  5.6243002E-01;  0.0000000E+00;  1.6974227E-01;  1.2167775E+04;
  9.2022187E-01;  9.9999998E-03;  2.8028077E-01;2484;  1.1982051E-01;  0.0000000E+00;  1.0038314E-01;  1.0101901E+03;  4.0498596E-01;  8.4244648E+03;3;  5.0130764E+01;  0.0000000E+00;  3.8706856E+01;0;  7.6076579E-01;  9.9789912E+03;  0.0000000E+00;  1.8412647E-03;  1.0000000E+04;  0.0000000E+00;  9.9760791E+03;  5.8110815E-01;  0.0000000E+00;  1.7965765E-01;  1.1116520E+04;
  9.2021054E-01;  9.9999998E-03;  3.0030021E-01;2485;  1.0841867E-01;  0.0000000E+00;  1.1603808E-01;  1.0101631E+03;  4.0498576E-01;  8.4021953E+03;3;  5.0499969E+01;  0.0000000E+00;  5.3198376E+01;0;  9.8904085E-01;  9.9783594E+03;  0.0000000E+00;  9.9270779E-04;  1.0000000E+04;  0.0000000E+00;  9.9761729E+03;  5.9407127E-01;  0.0000000E+00;  3.9496961E-01;  1.0763244E+04;
  9.4020104E-01;  9.9999998E-03;  1.6013509E-01;2509;  1.1925163E-01;  0.0000000E+00;  7.4453719E-02;  1.0098823E+03;  4.0453413E-01;  8.1639805E+03;3;  4.6870152E+01;  0.0000000E+00;  1.5681494E+01;0;  5.6622064E-01;  9.9918984E+03;  0.0000000E+00; -2.2802074E-05;  1.0000000E+04;  0.0000000E+00;  9.9793926E+03;  2.4695894E-01;  0.0000000E+00;  3.1926173E-01;  9.3821074E+03;
  9.4021249E-01;  9.9999998E-03;  1.8015277E-01;2510;  1.2519477E-01;  0.0000000E+00;  7.9684250E-02;  1.0097828E+03;  4.0453431E-01;  8.0817451E+03;3;  4.8027565E+01;  0.0000000E+00;  1.4536025E+01;0;  5.4765475E-01;  9.9907988E+03;  0.0000000E+00; -1.2854099E-05;  1.0000000E+04;  0.0000000E+00;  9.9785186E+03;  2.7592453E-01;  0.0000000E+00;  2.7173021E-01;  9.8505996E+03;
  9.4022560E-01;  9.9999998E-03;  2.0017269E-01;2511;  1.3174689E-01;  0.0000000E+00;  8.4573396E-02;  1.0096773E+03;  4.0453467E-01;  7.9945850E+03;3;  4.9393635E+01;  0.0000000E+00;  1.3617290E+01;0;  5.4203224E-01;  9.9894570E+03;  0.0000000E+00;  1.0611042E-04;  1.0000000E+04;  0.0000000E+00;  9.9777588E+03;  3.1052995E-01;  0.0000000E+00;  2.3150231E-01;  1.0248153E+04;
  9.4023830E-01;  9.9999998E-03;  2.2019845E-01;2512;  1.3743155E-01;  0.0000000E+00;  8.8251963E-02;  1.0095743E+03;  4.0453488E-01;  7.9094932E+03;3;  5.1333908E+01;  0.0000000E+00;  1.2868995E+01;0;  5.5253768E-01;  9.9879551E+03;  0.0000000E+00;  4.8282606E-04;  1.0000000E+04;  0.0000000E+00;  9.9772188E+03;  3.4861633E-01;  0.0000000E+00;  2.0392135E-01;  1.0522776E+04;
  9.4024372E-01;  9.9999998E-03;  2.4022718E-01;2513;  1.3858750E-01;  0.0000000E+00;  8.9356057E-02;  1.0094694E+03;  4.0453511E-01;  7.8228281E+03;3;  5.3610172E+01;  0.0000000E+00;  1.4868388E+01;0;  5.7268608E-01;  9.9864307E+03;  0.0000000E+00;  1.1751108E-03;  1.0000000E+04;  0.0000000E+00;  9.9766484E+03;  3.8663086E-01;  0.0000000E+00;  1.8605521E-01;  1.0798667E+04;
  9.4024146E-01;  9.9999998E-03;  2.6025042E-01;2514;  1.3588443E-01;  0.0000000E+00;  8.8607095E-02;  1.0093678E+03;  4.0453550E-01;  7.7389229E+03;3;  5.5054684E+01;  0.0000000E+00;  2.0460909E+01;0;  5.8131576E-01;  9.9850400E+03;  0.0000000E+00;  1.9846964E-03;  1.0000000E+04;  0.0000000E+00;  9.9760078E+03;  4.2081177E-01;  0.0000000E+00;  1.6050401E-01;  1.1117487E+04;
  9.4023943E-01;  9.9999998E-03;  2.8026003E-01;2515;  1.3049728E-01;  0.0000000E+00;  9.3981683E-02;  1.0094027E+03;  4.0453565E-01;  7.7677793E+03;3;  5.5443687E+01;  0.0000000E+00;  3.6749210E+01;0;  6.1889350E-01;  9.9838730E+03;  0.0000000E+00;  2.1152815E-03;  1.0000000E+04;  0.0000000E+00;  9.9778467E+03;  4.4879702E-01;  0.0000000E+00;  1.7009652E-01;  1.0191714E+04;
  9.4022804E-01;  9.9999998E-03;  3.0027848E-01;2516;  1.1836501E-01;  0.0000000E+00;  1.0825011E-01;  1.0093641E+03;  4.0453541E-01;  7.7358750E+03;3;  5.5857033E+01;  0.0000000E+00;  5.0118553E+01;0;  8.3171999E-01;  9.9829561E+03;  0.0000000E+00;  1.1028200E-03;  1.0000000E+04;  0.0000000E+00;  9.9779932E+03;  4.7028160E-01;  0.0000000E+00;  3.6143842E-01;  9.8493574E+03;
  9.6019971E-01;  9.9999998E-03;  1.6012338E-01;2540;  1.1885991E-01;  0.0000000E+00;  6.8180516E-02;  1.0090604E+03;  4.0407014E-01;  7.4775249E+03;3;  4.7122345E+01;  0.0000000E+00;  1.4666234E+01;0;  4.0893579E-01;  9.9968926E+03;  0.0000000E+00; -1.5038026E-05;  1.0000000E+04;  0.0000000E+00;  9.9810547E+03;  1.1022826E-01;  0.0000000E+00;  2.9870752E-01;  8.5175840E+03;
  9.6021140E-01;  9.9999998E-03;  1.8013965E-01;2541;  1.2493965E-01;  0.0000000E+00;  7.3239267E-02;  1.0089686E+03;  4.0407047E-01;  7.4017651E+03;3;  4.8327721E+01;  0.0000000E+00;  1.3855910E+01;0;  3.9223748E-01;  9.9958750E+03;  0.0000000E+00; -1.0632417E-05;  1.0000000E+04;  0.0000000E+00;  9.9802471E+03;  1.3713884E-01;  0.0000000E+00;  2.5509864E-01;  8.9428750E+03;
  9.6022499E-01;  9.9999998E-03;  2.0015752E-01;2542;  1.3167390E-01;  0.0000000E+00;  7.7758014E-02;  1.0088650E+03;  4.0407065E-01;  7.3162646E+03;3;  4.9700012E+01;  0.0000000E+00;  1.3164132E+01;0;  3.8967222E-01;  9.9945244E+03;  0.0000000E+00;  7.7859986E-05;  1.0000000E+04;  0.0000000E+00;  9.9795410E+03;  1.7177291E-01;  0.0000000E+00;  2.1789929E-01;  9.3088369E+03;
  9.6023959E-01;  9.9999998E-03;  2.2018118E-01;2543;  1.3831440E-01;  0.0000000E+00;  8.1827335E-02;  1.0087576E+03;  4.0407079E-01;  7.2276152E+03;3;  5.1680901E+01;  0.0000000E+00;  1.2694124E+01;0;  4.0520969E-01;  9.9929072E+03;  0.0000000E+00;  5.2124122E-04;  1.0000000E+04;  0.0000000E+00;  9.9790225E+03;  2.1251997E-01;  0.0000000E+00;  1.9268972E-01;  9.5645859E+03;
  9.6025068E-01;  9.9999998E-03;  2.4020696E-01;2544;  1.4302580E-01;  0.0000000E+00;  8.2375564E-02;  1.0086462E+03;  4.0407097E-01;  7.1357207E+03;3;  5.5194729E+01;  0.0000000E+00;  1.4167340E+01;0;  4.2988169E-01;  9.9911650E+03;  0.0000000E+00;  2.2676014E-03;  1.0000000E+04;  0.0000000E+00;  9.9785498E+03;  2.5582013E-01;  0.0000000E+00;  1.7406158E-01;  9.7913350E+03;
  9.6025252E-01;  9.9999998E-03;  2.6022840E-01;2545;  1.4288951E-01;  0.0000000E+00;  8.1769705E-02;  1.0085385E+03;  4.0407136E-01;  7.0467817E+03;3;  5.8523891E+01;  0.0000000E+00;  1.9412086E+01;0;  4.4526055E-01;  9.9894805E+03;  0.0000000E+00;  5.0384183E-03;  1.0000000E+04;  0.0000000E+00;  9.9780820E+03;  2.9740968E-01;  0.0000000E+00;  1.4785087E-01;  1.0024007E+04;
  9.6025127E-01;  9.9999998E-03;  2.8023839E-01;2546;  1.3777368E-01;  0.0000000E+00;  8.7077282E-02;  1.0085479E+03;  4.0407136E-01;  7.0545547E+03;3;  5.9091038E+01;  0.0000000E+00;  3.4205700E+01;0;  4.9134564E-01;  9.9879961E+03;  0.0000000E+00;  5.4652104E-03;  1.0000000E+04;  0.0000000E+00;  9.9797285E+03;  3.3381620E-01;  0.0000000E+00;  1.5752944E-01;  9.2006543E+03;
  9.6024013E-01;  9.9999998E-03;  3.0025566E-01;2547;  1.2540680E-01;  0.0000000E+00;  9.9758856E-02;  1.0084977E+03;  4.0407127E-01;  7.0131401E+03;3;  5.9698231E+01;  0.0000000E+00;  4.6532478E+01;0;  6.8499786E-01;  9.9867773E+03;  0.0000000E+00;  1.0052072E-03;  1.0000000E+04;  0.0000000E+00;  9.9799502E+03;  3.6340475E-01;  0.0000000E+00;  3.2159311E-01;  8.8633223E+03;
  9.8019594E-01;  9.9999998E-03;  1.6011186E-01;2571;  1.1735961E-01;  0.0000000E+00;  6.2197316E-02;  1.0081826E+03;  4.0361026E-01;  6.7440186E+03;3;  4.7096210E+01;  0.0000000E+00;  1.3857087E+01;0;  2.8790444E-01;  1.0000592E+04;  0.0000000E+00; -3.4372356E-06;  1.0000000E+04;  0.0000000E+00;  9.9827197E+03;  1.0469701E-02;  0.0000000E+00;  2.7743474E-01;  7.6373701E+03;
  9.8020780E-01;  9.9999998E-03;  1.8012671E-01;2572;  1.2356758E-01;  0.0000000E+00;  6.7012228E-02;  1.0080977E+03;  4.0361044E-01;  6.6740566E+03;3;  4.8374645E+01;  0.0000000E+00;  1.3319864E+01;0;  2.7292237E-01;  9.9996377E+03;  0.0000000E+00; -2.7195913E-06;  1.0000000E+04;  0.0000000E+00;  9.9819824E+03;  3.5336517E-02;  0.0000000E+00;  2.3758586E-01;  8.0194604E+03;
  9.8022181E-01;  9.9999998E-03;  2.0014259E-01;2573;  1.3049085E-01;  0.0000000E+00;  7.1146913E-02;  1.0079965E+03;  4.0361053E-01;  6.5907319E+03;3;  4.9830509E+01;  0.0000000E+00;  1.2795693E+01;0;  2.7251589E-01;  9.9982969E+03;  0.0000000E+00;  2.4852526E-04;  1.0000000E+04;  0.0000000E+00;  9.9813184E+03;  6.9155194E-02;  0.0000000E+00;  2.0336071E-01;  8.3531953E+03;
  9.8023736E-01;  9.9999998E-03;  2.2016385E-01;2574;  1.3767043E-01;  0.0000000E+00;  7.5440094E-02;  1.0078873E+03;  4.0361080E-01;  6.5006279E+03;3;  5.1776230E+01;  0.0000000E+00;  1.2617336E+01;0;  2.9122508E-01;  9.9966074E+03;  0.0000000E+00;  2.5036074E-03;  1.0000000E+04;  0.0000000E+00;  9.9808291E+03;  1.1065833E-01;  0.0000000E+00;  1.8056676E-01;  8.5888525E+03;
  9.8025149E-01;  9.9999998E-03;  2.4018756E-01;2575;  1.4356792E-01;  0.0000000E+00;  7.6046050E-02;  1.0077697E+03;  4.0361086E-01;  6.4037441E+03;3;  5.5061096E+01;  0.0000000E+00;  1.3624505E+01;0;  3.2047746E-01;  9.9947168E+03;  0.0000000E+00;  9.1971066E-03;  1.0000000E+04;  0.0000000E+00;  9.9803877E+03;  1.5669256E-01;  0.0000000E+00;  1.6378489E-01;  8.7934854E+03;
  9.8025894E-01;  9.9999998E-03;  2.6020664E-01;2576;  1.4668195E-01;  0.0000000E+00;  7.4946731E-02;  1.0076600E+03;  4.0361103E-01;  6.3133491E+03;3;  6.0008472E+01;  0.0000000E+00;  1.8264370E+01;0;  3.3834013E-01;  9.9928008E+03;  0.0000000E+00;  1.7813481E-02;  1.0000000E+04;  0.0000000E+00;  9.9801143E+03;  2.0330453E-01;  0.0000000E+00;  1.3503560E-01;  8.9341973E+03;
  9.8026007E-01;  9.9999998E-03;  2.8021637E-01;2577;  1.4320114E-01;  0.0000000E+00;  7.9708904E-02;  1.0076529E+03;  4.0361112E-01;  6.3074536E+03;3;  6.1952602E+01;  0.0000000E+00;  3.1445057E+01;0;  3.8617730E-01;  9.9910293E+03;  0.0000000E+00;  1.7583383E-02;  1.0000000E+04;  0.0000000E+00;  9.9817246E+03;  2.4640544E-01;  0.0000000E+00;  1.3977188E-01;  8.1495703E+03;
  9.8025042E-01;  9.9999998E-03;  3.0023256E-01;2578;  1.3144594E-01;  0.0000000E+00;  9.1145724E-02;  1.0075922E+03;  4.0361118E-01;  6.2574482E+03;3;  6.3071743E+01;  0.0000000E+00;  4.2758278E+01;0;  5.6578028E-01;  9.9895313E+03;  0.0000000E+00;  5.8359967E-04;  1.0000000E+04;  0.0000000E+00;  9.9820107E+03;  2.8244838E-01;  0.0000000E+00;  2.8333187E-01;  7.8116636E+03;
  1.0001910E+00;  9.9999998E-03;  1.6010116E-01;2602;  1.1535808E-01;  0.0000000E+00;  5.6766115E-02;  1.0072844E+03;  4.0316951E-01;  5.9930278E+03;3;  4.6963882E+01;  0.0000000E+00;  1.3251424E+01;0;  2.0217484E-01;  1.0003004E+04;  0.0000000E+00;  1.1469368E-06;  1.0000000E+04;  0.0000000E+00;  9.9843281E+03; -5.3652965E-02;  0.0000000E+00;  2.5582781E-01;  6.7702832E+03;
  1.0002030E+00;  9.9999998E-03;  1.8011452E-01;2603;  1.2173359E-01;  0.0000000E+00;  6.1223239E-02;  1.0072039E+03;  4.0316951E-01;  5.9267217E+03;3;  4.8344547E+01;  0.0000000E+00;  1.2823804E+01;0;  1.8955883E-01;  1.0002088E+04;  0.0000000E+00; -2.3670626E-05;  1.0000000E+04;  0.0000000E+00;  9.9836416E+03; -3.0085953E-02;  0.0000000E+00;  2.1964478E-01;  7.1143022E+03;
  1.0002172E+00;  9.9999998E-03;  2.0012861E-01;2604;  1.2879370E-01;  0.0000000E+00;  6.5002523E-02;  1.0071048E+03;  4.0316963E-01;  5.8452114E+03;3;  4.9902245E+01;  0.0000000E+00;  1.2371758E+01;0;  1.9123472E-01;  1.0000753E+04;  0.0000000E+00;  5.1861070E-04;  1.0000000E+04;  0.0000000E+00;  9.9830078E+03;  2.5698920E-03;  0.0000000E+00;  1.8866482E-01;  7.4230693E+03;
  1.0002334E+00;  9.9999998E-03;  2.2014682E-01;2605;  1.3628261E-01;  0.0000000E+00;  6.8677470E-02;  1.0069958E+03;  4.0316981E-01;  5.7555610E+03;3;  5.1814789E+01;  0.0000000E+00;  1.2426044E+01;0;  2.1113874E-01;  9.9990527E+03;  0.0000000E+00;  5.9239580E-03;  1.0000000E+04;  0.0000000E+00;  9.9825420E+03;  4.3271434E-02;  0.0000000E+00;  1.6786730E-01;  7.6398540E+03;
  1.0002502E+00;  9.9999998E-03;  2.4016874E-01;2606;  1.4311492E-01;  0.0000000E+00;  6.9858342E-02;  1.0068759E+03;  4.0316984E-01;  5.6568872E+03;3;  5.4925613E+01;  0.0000000E+00;  1.3111521E+01;0;  2.4369562E-01;  9.9970947E+03;  0.0000000E+00;  2.1410957E-02;  1.0000000E+04;  0.0000000E+00;  9.9821143E+03;  8.9718610E-02;  0.0000000E+00;  1.5397701E-01;  7.8293408E+03;
  1.0002620E+00;  9.9999998E-03;  2.6018575E-01;2607;  1.4781076E-01;  0.0000000E+00;  6.8531185E-02;  1.0067665E+03;  4.0316996E-01;  5.5668472E+03;3;  6.0199387E+01;  0.0000000E+00;  1.7153801E+01;0;  2.6402158E-01;  9.9950264E+03;  0.0000000E+00;  3.9747301E-02;  1.0000000E+04;  0.0000000E+00;  9.9820039E+03;  1.3890180E-01;  0.0000000E+00;  1.2511978E-01;  7.8927236E+03;
  1.0002676E+00;  9.9999998E-03;  2.8019446E-01;2608;  1.4756526E-01;  0.0000000E+00;  7.2120123E-02;  1.0067565E+03;  4.0317020E-01;  5.5586055E+03;3;  6.4773514E+01;  0.0000000E+00;  2.8537462E+01;0;  3.0458212E-01;  9.9930293E+03;  0.0000000E+00;  3.6524188E-02;  1.0000000E+04;  0.0000000E+00;  9.9837930E+03;  1.8671998E-01;  0.0000000E+00;  1.1786214E-01;  7.0619404E+03;
  1.0002620E+00;  9.9999998E-03;  3.0020967E-01;2609;  1.3822994E-01;  0.0000000E+00;  8.2943514E-02;  1.0066926E+03;  4.0317005E-01;  5.5060405E+03;3;  6.7270554E+01;  0.0000000E+00;  3.9686569E+01;0;  4.7507578E-01;  9.9912988E+03;  0.0000000E+00; -3.1603468E-03;  1.0000000E+04;  0.0000000E+00;  9.9842412E+03;  2.2666095E-01;  0.0000000E+00;  2.4841481E-01;  6.6706289E+03;
  1.0201854E+00;  9.9999998E-03;  1.6009110E-01;2633;  1.1297116E-01;  0.0000000E+00;  5.1633269E-02;  1.0064047E+03;  4.0275970E-01;  5.2566650E+03;3;  4.6742683E+01;  0.0000000E+00;  1.2607904E+01;0;  1.4467238E-01;  1.0004361E+04;  0.0000000E+00; -3.9218507E-05;  1.0000000E+04;  0.0000000E+00;  9.9858242E+03; -8.9531884E-02;  0.0000000E+00;  2.3420426E-01;  5.9424297E+03;
  1.0201976E+00;  9.9999998E-03;  1.8010305E-01;2634;  1.1955947E-01;  0.0000000E+00;  5.5741642E-02;  1.0063255E+03;  4.0275991E-01;  5.1915928E+03;3;  4.8181870E+01;  0.0000000E+00;  1.2351976E+01;0;  1.3537386E-01;  1.0003448E+04;  0.0000000E+00; -1.0961869E-03;  1.0000000E+04;  0.0000000E+00;  9.9851621E+03; -6.6542670E-02;  0.0000000E+00;  2.0191653E-01;  6.2600488E+03;
  1.0202121E+00;  9.9999998E-03;  2.0011590E-01;2635;  1.2689686E-01;  0.0000000E+00;  5.9401836E-02;  1.0062287E+03;  4.0275994E-01;  5.1121357E+03;3;  4.9760063E+01;  0.0000000E+00;  1.2274622E+01;0;  1.3922283E-01;  1.0002160E+04;  0.0000000E+00; -3.6997572E-03;  1.0000000E+04;  0.0000000E+00;  9.9845234E+03; -3.5606351E-02;  0.0000000E+00;  1.7482919E-01;  6.5565825E+03;
  1.0202290E+00;  9.9999998E-03;  2.2013164E-01;2636;  1.3477832E-01;  0.0000000E+00;  6.2343903E-02;  1.0061225E+03;  4.0275994E-01;  5.0249492E+03;3;  5.1977386E+01;  0.0000000E+00;  1.2023740E+01;0;  1.5934205E-01;  1.0000532E+04;  0.0000000E+00;  6.0157542E-04;  1.0000000E+04;  0.0000000E+00;  9.9840381E+03;  2.5964612E-03;  0.0000000E+00;  1.5674558E-01;  6.7704595E+03;
  1.0202483E+00;  9.9999998E-03;  2.4015100E-01;2637;  1.4246313E-01;  0.0000000E+00;  6.3536033E-02;  1.0060058E+03;  4.0276006E-01;  4.9291504E+03;3;  5.5116772E+01;  0.0000000E+00;  1.2568469E+01;0;  1.9188546E-01;  9.9986152E+03;  0.0000000E+00;  2.2683566E-02;  1.0000000E+04;  0.0000000E+00;  9.9836396E+03;  4.7126841E-02;  0.0000000E+00;  1.4475861E-01;  6.9401401E+03;
  1.0202643E+00;  9.9999998E-03;  2.6016623E-01;2638;  1.4823608E-01;  0.0000000E+00;  6.2197614E-02;  1.0059017E+03;  4.0276021E-01;  4.8437261E+03;3;  6.0624321E+01;  0.0000000E+00;  1.5994426E+01;0;  2.1181631E-01;  9.9964961E+03;  0.0000000E+00;  5.0375111E-02;  1.0000000E+04;  0.0000000E+00;  9.9836836E+03;  9.6323274E-02;  0.0000000E+00;  1.1549304E-01;  6.9343828E+03;
  1.0202754E+00;  9.9999998E-03;  2.8017393E-01;2639;  1.5119186E-01;  0.0000000E+00;  6.4992107E-02;  1.0058954E+03;  4.0276009E-01;  4.8386309E+03;3;  6.7964233E+01;  0.0000000E+00;  2.5572763E+01;0;  2.4677098E-01;  9.9943252E+03;  0.0000000E+00;  4.3618299E-02;  1.0000000E+04;  0.0000000E+00;  9.9857305E+03;  1.4711125E-01;  0.0000000E+00;  9.9659719E-02;  6.0283408E+03;
  1.0202777E+00;  9.9999998E-03;  3.0018765E-01;2640;  1.4706533E-01;  0.0000000E+00;  7.5323902E-02;  1.0058408E+03;  4.0275985E-01;  4.7937212E+03;3;  7.3241394E+01;  0.0000000E+00;  3.7536182E+01;0;  4.0603098E-01;  9.9923525E+03;  0.0000000E+00; -9.1034183E-03;  1.0000000E+04;  0.0000000E+00;  9.9866143E+03;  1.9047438E-01;  0.0000000E+00;  2.1555661E-01;  5.4695371E+03;
  1.0401789E+00;  9.9999998E-03;  1.6008160E-01;2664;  1.1018603E-01;  0.0000000E+00;  4.6707999E-02;  1.0055759E+03;  4.0238935E-01;  4.5616748E+03;3;  4.6338459E+01;  0.0000000E+00;  1.1944874E+01;0;  1.0723104E-01;  1.0004945E+04;  0.0000000E+00; -6.6013995E-04;  1.0000000E+04;  0.0000000E+00;  9.9871592E+03; -1.0582142E-01;  0.0000000E+00;  2.1305245E-01;  5.1761553E+03;
  1.0401917E+00;  9.9999998E-03;  1.8009271E-01;2665;  1.1711133E-01;  0.0000000E+00;  5.0739188E-02;  1.0054963E+03;  4.0238947E-01;  4.4966147E+03;3;  4.8013260E+01;  0.0000000E+00;  1.1887631E+01;0;  1.0194336E-01;  1.0004040E+04;  0.0000000E+00; -7.4076378E-03;  1.0000000E+04;  0.0000000E+00;  9.9864805E+03; -8.3357438E-02;  0.0000000E+00;  1.8530080E-01;  5.4824312E+03;
  1.0402066E+00;  9.9999998E-03;  2.0010406E-01;2666;  1.2484920E-01;  0.0000000E+00;  5.3841457E-02;  1.0054034E+03;  4.0238950E-01;  4.4205327E+03;3;  4.9849949E+01;  0.0000000E+00;  1.1585752E+01;0;  1.0750753E-01;  1.0002863E+04;  0.0000000E+00; -2.4295203E-02;  1.0000000E+04;  0.0000000E+00;  9.9858086E+03; -5.5301320E-02;  0.0000000E+00;  1.6280885E-01;  5.7774390E+03;
  1.0402249E+00;  9.9999998E-03;  2.2011843E-01;2667;  1.3344908E-01;  0.0000000E+00;  5.6261271E-02;  1.0053040E+03;  4.0238953E-01;  4.3391812E+03;3;  5.2126366E+01;  0.0000000E+00;  1.1361523E+01;0;  1.2652664E-01;  1.0001433E+04;  0.0000000E+00; -3.5809752E-02;  1.0000000E+04;  0.0000000E+00;  9.9852646E+03; -2.1675872E-02;  0.0000000E+00;  1.4820251E-01;  6.0053999E+03;
  1.0402465E+00;  9.9999998E-03;  2.4013537E-01;2668;  1.4187141E-01;  0.0000000E+00;  5.7300888E-02;  1.0051964E+03;  4.0238962E-01;  4.2510991E+03;3;  5.5615871E+01;  0.0000000E+00;  1.2066159E+01;0;  1.5593594E-01;  9.9996982E+03;  0.0000000E+00; -2.0515449E-02;  1.0000000E+04;  0.0000000E+00;  9.9848594E+03;  1.8317426E-02;  0.0000000E+00;  1.3761851E-01;  6.1658799E+03;
  1.0402672E+00;  9.9999998E-03;  2.6014882E-01;2669;  1.4896733E-01;  0.0000000E+00;  5.6201555E-02;  1.0051029E+03;  4.0238956E-01;  4.1746240E+03;3;  6.1570229E+01;  0.0000000E+00;  1.4938392E+01;0;  1.7314136E-01;  9.9976309E+03;  0.0000000E+00;  6.2074764E-03;  1.0000000E+04;  0.0000000E+00;  9.9850693E+03;  6.4991005E-02;  0.0000000E+00;  1.0815035E-01;  6.0872935E+03;
  1.0402857E+00;  9.9999998E-03;  2.8015631E-01;2670;  1.5549906E-01;  0.0000000E+00;  5.8897901E-02;  1.0050922E+03;  4.0238950E-01;  4.1659302E+03;3;  7.1760902E+01;  0.0000000E+00;  2.3343018E+01;0;  2.0903054E-01;  9.9952578E+03;  0.0000000E+00; -1.8638493E-03;  1.0000000E+04;  0.0000000E+00;  9.9872354E+03;  1.1857925E-01;  0.0000000E+00;  9.0451285E-02;  5.1688662E+03;
  1.0403000E+00;  9.9999998E-03;  3.0016863E-01;2671;  1.5886855E-01;  0.0000000E+00;  6.7145251E-02;  1.0050285E+03;  4.0238932E-01;  4.1137437E+03;3;  8.1607239E+01;  0.0000000E+00;  3.3423637E+01;0;  3.4733361E-01;  9.9927266E+03;  0.0000000E+00;  1.5767423E-02;  1.0000000E+04;  0.0000000E+00;  9.9885010E+03;  1.7354918E-01;  0.0000000E+00;  1.7378442E-01;  4.5079897E+03;
  1.0601721E+00;  9.9999998E-03;  1.6007282E-01;2695;  1.0715060E-01;  0.0000000E+00;  4.2097505E-02;  1.0048203E+03;  4.0206316E-01;  3.9266580E+03;3;  4.5846588E+01;  0.0000000E+00;  1.1225224E+01;0;  8.3883904E-02;  1.0004987E+04;  0.0000000E+00; -4.1009933E-03;  1.0000000E+04;  0.0000000E+00;  9.9882998E+03; -1.0927267E-01;  0.0000000E+00;  1.9315657E-01;  4.4873511E+03;
  1.0601852E+00;  9.9999998E-03;  1.8008302E-01;2696;  1.1448970E-01;  0.0000000E+00;  4.5695253E-02;  1.0047408E+03;  4.0206316E-01;  3.8618740E+03;3;  4.7769897E+01;  0.0000000E+00;  1.1053060E+01;0;  8.2431763E-02;  1.0004139E+04;  0.0000000E+00; -2.7737800E-02;  1.0000000E+04;  0.0000000E+00;  9.9875654E+03; -8.8294551E-02;  0.0000000E+00;  1.7072631E-01;  4.7945293E+03;
  1.0602012E+00;  9.9999998E-03;  2.0009348E-01;2697;  1.2285088E-01;  0.0000000E+00;  4.8290074E-02;  1.0046561E+03;  4.0206322E-01;  3.7928157E+03;3;  4.9817627E+01;  0.0000000E+00;  1.0643231E+01;0;  8.8416807E-02;  1.0003181E+04;  0.0000000E+00; -7.8742445E-02;  1.0000000E+04;  0.0000000E+00;  9.9868350E+03; -6.5002225E-02;  0.0000000E+00;  1.5341903E-01;  5.1010444E+03;
  1.0602216E+00;  9.9999998E-03;  2.2010693E-01;2698;  1.3226916E-01;  0.0000000E+00;  5.0454099E-02;  1.0045692E+03;  4.0206331E-01;  3.7220056E+03;3;  5.2448864E+01;  0.0000000E+00;  1.0861971E+01;0;  1.0449541E-01;  1.0002075E+04;  0.0000000E+00; -1.2952261E-01;  1.0000000E+04;  0.0000000E+00;  9.9862158E+03; -3.8223069E-02;  0.0000000E+00;  1.4271848E-01;  5.3609834E+03;
  1.0602455E+00;  9.9999998E-03;  2.4012251E-01;2699;  1.4153236E-01;  0.0000000E+00;  5.1658377E-02;  1.0044734E+03;  4.0206325E-01;  3.6440073E+03;3;  5.6376675E+01;  0.0000000E+00;  1.1727463E+01;0;  1.2937915E-01;  1.0000655E+04;  0.0000000E+00; -1.4424306E-01;  1.0000000E+04;  0.0000000E+00;  9.9857354E+03; -5.1146420E-03;  0.0000000E+00;  1.3449380E-01;  5.5487661E+03;
  1.0602720E+00;  9.9999998E-03;  2.6013494E-01;2700;  1.5089025E-01;  0.0000000E+00;  5.1140741E-02;  1.0043843E+03;  4.0206313E-01;  3.5713484E+03;3;  6.3545853E+01;  0.0000000E+00;  1.4099872E+01;0;  1.4668840E-01;  9.9986611E+03;  0.0000000E+00; -1.4373286E-01;  1.0000000E+04;  0.0000000E+00;  9.9859551E+03;  3.8588524E-02;  0.0000000E+00;  1.0809988E-01;  5.4666274E+03;
  1.0602980E+00;  9.9999998E-03;  2.8014290E-01;2701;  1.6071364E-01;  0.0000000E+00;  5.3675223E-02;  1.0043453E+03;  4.0206319E-01;  3.5395723E+03;3;  7.5748955E+01;  0.0000000E+00;  2.0911419E+01;0;  1.9087920E-01;  9.9959111E+03;  0.0000000E+00; -1.3139507E-01;  1.0000000E+04;  0.0000000E+00;  9.9879414E+03;  9.8567173E-02;  0.0000000E+00;  9.2312030E-02;  4.6590630E+03;
  1.0603235E+00;  9.9999998E-03;  3.0015394E-01;2702;  1.7021956E-01;  0.0000000E+00;  5.8624160E-02;  1.0042304E+03;  4.0206307E-01;  3.4459414E+03;3;  9.0148697E+01;  0.0000000E+00;  2.7028820E+01;0;  3.0381596E-01;  9.9921875E+03;  0.0000000E+00;  1.7569478E-01;  1.0000000E+04;  0.0000000E+00;  9.9893945E+03;  1.7881769E-01;  0.0000000E+00;  1.2499829E-01;  4.0407385E+03;
  1.0801654E+00;  9.9999998E-03;  1.6006495E-01;2726;  1.0414263E-01;  0.0000000E+00;  3.7679262E-02;  1.0041483E+03;  4.0178311E-01;  3.3600308E+03;3;  4.5338802E+01;  0.0000000E+00;  1.0278077E+01;0;  7.1532503E-02;  1.0004631E+04;  0.0000000E+00; -1.7315799E-02;  1.0000000E+04;  0.0000000E+00;  9.9892129E+03; -1.0410485E-01;  0.0000000E+00;  1.7563735E-01;  3.8838252E+03;
  1.0801790E+00;  9.9999998E-03;  1.8007387E-01;2727;  1.1187220E-01;  0.0000000E+00;  4.0476412E-02;  1.0040729E+03;  4.0178311E-01;  3.2988965E+03;3;  4.7421688E+01;  0.0000000E+00;  9.9363213E+00;0;  7.2498031E-02;  1.0003926E+04;  0.0000000E+00; -7.6496176E-02;  1.0000000E+04;  0.0000000E+00;  9.9884092E+03; -8.6497627E-02;  0.0000000E+00;  1.5899566E-01;  4.2003896E+03;
  1.0801966E+00;  9.9999998E-03;  2.0008411E-01;2728;  1.2103896E-01;  0.0000000E+00;  4.2809863E-02;  1.0040014E+03;  4.0178311E-01;  3.2409443E+03;3;  4.9829071E+01;  0.0000000E+00;  9.7303295E+00;0;  7.6876715E-02;  1.0003295E+04;  0.0000000E+00; -1.8478300E-01;  1.0000000E+04;  0.0000000E+00;  9.9876240E+03; -7.0003137E-02;  0.0000000E+00;  1.4687985E-01;  4.5442695E+03;
  1.0802191E+00;  9.9999998E-03;  2.2009724E-01;2729;  1.3129494E-01;  0.0000000E+00;  4.4939574E-02;  1.0039322E+03;  4.0178299E-01;  3.1849194E+03;3;  5.2986309E+01;  0.0000000E+00;  1.0243979E+01;0;  8.8128537E-02;  1.0002614E+04;  0.0000000E+00; -2.9687169E-01;  1.0000000E+04;  0.0000000E+00;  9.9869297E+03; -5.1718425E-02;  0.0000000E+00;  1.3984697E-01;  4.8829854E+03;
  1.0802456E+00;  9.9999998E-03;  2.4011160E-01;2730;  1.4153907E-01;  0.0000000E+00;  4.6073031E-02;  1.0038522E+03;  4.0178302E-01;  3.1201050E+03;3;  5.7745724E+01;  0.0000000E+00;  1.1047608E+01;0;  1.0555711E-01;  1.0001562E+04;  0.0000000E+00; -3.6219409E-01;  1.0000000E+04;  0.0000000E+00;  9.9863994E+03; -2.6402017E-02;  0.0000000E+00;  1.3195913E-01;  5.1348643E+03;
  1.0802765E+00;  9.9999998E-03;  2.6012319E-01;2731;  1.5264855E-01;  0.0000000E+00;  4.6269782E-02;  1.0037658E+03;  4.0178290E-01;  3.0500732E+03;3;  6.6190346E+01;  0.0000000E+00;  1.3397132E+01;0;  1.2285359E-01;  9.9995742E+03;  0.0000000E+00; -3.9585280E-01;  1.0000000E+04;  0.0000000E+00;  9.9866748E+03;  1.5741277E-02;  0.0000000E+00;  1.0711231E-01;  5.0785933E+03;
  1.0803075E+00;  9.9999998E-03;  2.8013191E-01;2732;  1.6458014E-01;  0.0000000E+00;  4.8931498E-02;  1.0036857E+03;  4.0178302E-01;  2.9851602E+03;3;  7.9748901E+01;  0.0000000E+00;  1.8865686E+01;0;  1.8071711E-01;  9.9962461E+03;  0.0000000E+00; -2.7233523E-01;  1.0000000E+04;  0.0000000E+00;  9.9884102E+03;  8.6115718E-02;  0.0000000E+00;  9.4601400E-02;  4.2900928E+03;
  1.0803388E+00;  9.9999998E-03;  3.0014181E-01;2733;  1.7624585E-01;  0.0000000E+00;  5.2152187E-02;  1.0035007E+03;  4.0178284E-01;  2.8352842E+03;3;  9.5562561E+01;  0.0000000E+00;  2.3076818E+01;0;  2.9363328E-01;  9.9909775E+03;  0.0000000E+00;  6.2260211E-01;  1.0000000E+04;  0.0000000E+00;  9.9900137E+03;  1.9436051E-01;  0.0000000E+00;  9.9272758E-02;  4.2776689E+03;
  1.1001588E+00;  9.9999998E-03;  1.6005707E-01;2756;  1.0120452E-01;  0.0000000E+00;  3.2954779E-02;  1.0035624E+03;  4.0154809E-01;  2.8637744E+03;3;  4.4777210E+01;  0.0000000E+00;  9.0290928E+00;0;  6.8588480E-02;  1.0003973E+04;  0.0000000E+00; -5.4471370E-02;  1.0000000E+04;  0.0000000E+00;  9.9898984E+03; -9.2942476E-02;  0.0000000E+00;  1.6153096E-01;  3.3647297E+03;
  1.1001736E+00;  9.9999998E-03;  1.8006560E-01;2757;  1.0959793E-01;  0.0000000E+00;  3.5373677E-02;  1.0034968E+03;  4.0154797E-01;  2.8109543E+03;3;  4.7192604E+01;  0.0000000E+00;  8.7631731E+00;0;  6.9519967E-02;  1.0003521E+04;  0.0000000E+00; -1.7158067E-01;  1.0000000E+04;  0.0000000E+00;  9.9890459E+03; -8.0934212E-02;  0.0000000E+00;  1.5045418E-01;  3.7083884E+03;
  1.1001931E+00;  9.9999998E-03;  2.0007606E-01;2758;  1.1958590E-01;  0.0000000E+00;  3.7628423E-02;  1.0034442E+03;  4.0154806E-01;  2.7686702E+03;3;  5.0108276E+01;  0.0000000E+00;  8.8185959E+00;0;  7.0121393E-02;  1.0003290E+04;  0.0000000E+00; -3.5324177E-01;  1.0000000E+04;  0.0000000E+00;  9.9882285E+03; -7.2596475E-02;  0.0000000E+00;  1.4271787E-01;  4.1409785E+03;
  1.1002178E+00;  9.9999998E-03;  2.2008902E-01;2759;  1.3062777E-01;  0.0000000E+00;  3.9638907E-02;  1.0033948E+03;  4.0154806E-01;  2.7289683E+03;3;  5.4070274E+01;  0.0000000E+00;  9.3659363E+00;0;  7.4780911E-02;  1.0003036E+04;  0.0000000E+00; -5.3291655E-01;  1.0000000E+04;  0.0000000E+00;  9.9875049E+03; -6.2776223E-02;  0.0000000E+00;  1.3755713E-01;  4.6116860E+03;
  1.1002473E+00;  9.9999998E-03;  2.4010241E-01;2760;  1.4186952E-01;  0.0000000E+00;  4.0707137E-02;  1.0033292E+03;  4.0154800E-01;  2.6762292E+03;3;  5.9710663E+01;  0.0000000E+00;  1.0222320E+01;0;  8.3749473E-02;  1.0002232E+04;  0.0000000E+00; -6.4886099E-01;  1.0000000E+04;  0.0000000E+00;  9.9870117E+03; -4.2992234E-02;  0.0000000E+00;  1.2674171E-01;  4.9529468E+03;
  1.1002793E+00;  9.9999998E-03;  2.6011270E-01;2761;  1.5350895E-01;  0.0000000E+00;  4.1390166E-02;  1.0032536E+03;  4.0154791E-01;  2.6153438E+03;3;  6.9385857E+01;  0.0000000E+00;  1.2719595E+01;0;  9.8494701E-02;  1.0000155E+04;  0.0000000E+00; -6.4720398E-01;  1.0000000E+04;  0.0000000E+00;  9.9875850E+03; -6.8779808E-04;  0.0000000E+00;  9.9182501E-02;  4.7787563E+03;
  1.1003114E+00;  9.9999998E-03;  2.8012207E-01;2762;  1.6637981E-01;  0.0000000E+00;  4.4564284E-02;  1.0031347E+03;  4.0154797E-01;  2.5197712E+03;3;  8.4332397E+01;  0.0000000E+00;  1.7390049E+01;0;  1.7563038E-01;  9.9962520E+03;  0.0000000E+00; -2.2084546E-01;  1.0000000E+04;  0.0000000E+00;  9.9891328E+03;  8.2757398E-02;  0.0000000E+00;  9.2872977E-02;  3.6621895E+03;
  1.1201535E+00;  9.9999998E-03;  1.6005000E-01;2785;  9.8755859E-02;  0.0000000E+00;  2.8368838E-02;  1.0030633E+03;  4.0135545E-01;  2.4382632E+03;3;  4.4327591E+01;  0.0000000E+00;  7.6514087E+00;0;  7.2600335E-02;  1.0003133E+04;  0.0000000E+00; -1.3963550E-01;  1.0000000E+04;  0.0000000E+00;  9.9903857E+03; -7.8735337E-02;  0.0000000E+00;  1.5133567E-01;  2.9343967E+03;
  1.1201698E+00;  9.9999998E-03;  1.8005861E-01;2786;  1.0787775E-01;  0.0000000E+00;  3.0600149E-02;  1.0030142E+03;  4.0135533E-01;  2.3991484E+03;3;  4.7199509E+01;  0.0000000E+00;  7.5299954E+00;0;  7.0643015E-02;  1.0003018E+04;  0.0000000E+00; -3.3168948E-01;  1.0000000E+04;  0.0000000E+00;  9.9895244E+03; -7.4044250E-02;  0.0000000E+00;  1.4468727E-01;  3.3498401E+03;
  1.1201912E+00;  9.9999998E-03;  2.0006944E-01;2787;  1.1862247E-01;  0.0000000E+00;  3.2769561E-02;  1.0029828E+03;  4.0135533E-01;  2.3741650E+03;3;  5.0837784E+01;  0.0000000E+00;  7.7610497E+00;0;  6.5743484E-02;  1.0003187E+04;  0.0000000E+00; -5.8323860E-01;  1.0000000E+04;  0.0000000E+00;  9.9887363E+03; -7.3593788E-02;  0.0000000E+00;  1.3933727E-01;  3.9155442E+03;
  1.1202185E+00;  9.9999998E-03;  2.2008246E-01;2788;  1.3048775E-01;  0.0000000E+00;  3.4721088E-02;  1.0029481E+03;  4.0135524E-01;  2.3464229E+03;3;  5.5605251E+01;  0.0000000E+00;  8.2332411E+00;0;  6.4235151E-02;  1.0003199E+04;  0.0000000E+00; -8.1161034E-01;  1.0000000E+04;  0.0000000E+00;  9.9880313E+03; -6.9033071E-02;  0.0000000E+00;  1.3326822E-01;  4.5080283E+03;
  1.1202496E+00;  9.9999998E-03;  2.4009489E-01;2789;  1.4230314E-01;  0.0000000E+00;  3.5868794E-02;  1.0028885E+03;  4.0135530E-01;  2.2990366E+03;3;  6.2525688E+01;  0.0000000E+00;  9.1090202E+00;0;  6.7433350E-02;  1.0002347E+04;  0.0000000E+00; -9.2787564E-01;  1.0000000E+04;  0.0000000E+00;  9.9877070E+03; -4.9495831E-02;  0.0000000E+00;  1.1692918E-01;  4.8265000E+03;
  1.1202807E+00;  9.9999998E-03;  2.6010469E-01;2790;  1.5412825E-01;  0.0000000E+00;  3.7586089E-02;  1.0028123E+03;  4.0135521E-01;  2.2382742E+03;3;  7.3861000E+01;  0.0000000E+00;  1.2031916E+01;0;  9.1991693E-02;  1.0000038E+04;  0.0000000E+00; -7.3645526E-01;  1.0000000E+04;  0.0000000E+00;  9.9885039E+03; -1.4334342E-03;  0.0000000E+00;  9.3425125E-02;  4.2390801E+03;
  1.1203099E+00;  9.9999998E-03;  2.8011402E-01;2791;  1.6581292E-01;  0.0000000E+00;  4.0902007E-02;  1.0026718E+03;  4.0135518E-01;  2.1263774E+03;3;  8.8951706E+01;  0.0000000E+00;  1.6152224E+01;0;  1.7895383E-01;  9.9958428E+03;  0.0000000E+00;  2.1321091E-01;  1.0000000E+04;  0.0000000E+00;  9.9899043E+03;  8.8021405E-02;  0.0000000E+00;  9.0932429E-02;  3.0639839E+03;
  1.1401497E+00;  9.9999998E-03;  1.6004421E-01;2813;  9.6971050E-02;  0.0000000E+00;  2.4149463E-02;  1.0026514E+03;  4.0120077E-01;  2.0833130E+03;3;  4.4202911E+01;  0.0000000E+00;  6.3382506E+00;0;  7.9261288E-02;  1.0002265E+04;  0.0000000E+00; -2.9941058E-01;  1.0000000E+04;  0.0000000E+00;  9.9907432E+03; -6.5160260E-02;  0.0000000E+00;  1.4442155E-01;  2.6263584E+03;
  1.1401677E+00;  9.9999998E-03;  1.8005334E-01;2814;  1.0682152E-01;  0.0000000E+00;  2.6365573E-02;  1.0026233E+03;  4.0120086E-01;  2.0612729E+03;3;  4.7715691E+01;  0.0000000E+00;  6.3677845E+00;0;  7.2272278E-02;  1.0002520E+04;  0.0000000E+00; -5.6372970E-01;  1.0000000E+04;  0.0000000E+00;  9.9899316E+03; -6.8029933E-02;  0.0000000E+00;  1.4030221E-01;  3.1602534E+03;
  1.1401918E+00;  9.9999998E-03;  2.0006508E-01;2815;  1.1850744E-01;  0.0000000E+00;  2.8780354E-02;  1.0026065E+03;  4.0120068E-01;  2.0480298E+03;3;  5.2119392E+01;  0.0000000E+00;  6.6835241E+00;0;  6.3698165E-02;  1.0002933E+04;  0.0000000E+00; -8.5689163E-01;  1.0000000E+04;  0.0000000E+00;  9.9891836E+03; -7.2094150E-02;  0.0000000E+00;  1.3579232E-01;  3.8284326E+03;
  1.1402217E+00;  9.9999998E-03;  2.2007853E-01;2816;  1.3121803E-01;  0.0000000E+00;  3.1088373E-02;  1.0025656E+03;  4.0120074E-01;  2.0157643E+03;3;  5.8069557E+01;  0.0000000E+00;  7.2706480E+00;0;  6.3813150E-02;  1.0002829E+04;  0.0000000E+00; -1.0882771E+00;  1.0000000E+04;  0.0000000E+00;  9.9884766E+03; -6.5135032E-02;  0.0000000E+00;  1.2894818E-01;  4.4293179E+03;
  1.1402520E+00;  9.9999998E-03;  2.4008982E-01;2817;  1.4273752E-01;  0.0000000E+00;  3.2537993E-02;  1.0025017E+03;  4.0120062E-01;  1.9656100E+03;3;  6.6534355E+01;  0.0000000E+00;  8.5555906E+00;0;  6.9271415E-02;  1.0001633E+04;  0.0000000E+00; -1.0600638E+00;  1.0000000E+04;  0.0000000E+00;  9.9884072E+03; -3.9650183E-02;  0.0000000E+00;  1.0892160E-01;  4.3890942E+03;
  1.1402802E+00;  9.9999998E-03;  2.6009941E-01;2818;  1.5418749E-01;  0.0000000E+00;  3.5350870E-02;  1.0024109E+03;  4.0120077E-01;  1.8941995E+03;3;  7.9378967E+01;  0.0000000E+00;  1.1989371E+01;0;  1.1634236E-01;  9.9990010E+03;  0.0000000E+00; -4.4944641E-01;  1.0000000E+04;  0.0000000E+00;  9.9892305E+03;  1.8740566E-02;  0.0000000E+00;  9.7601794E-02;  3.1548999E+03;
  1.1601480E+00;  9.9999998E-03;  1.6004044E-01;2840;  9.6031852E-02;  0.0000000E+00;  2.0671129E-02;  1.0023272E+03;  4.0107960E-01;  1.7985564E+03;3;  4.4551376E+01;  0.0000000E+00;  5.1162219E+00;0;  8.3555758E-02;  1.0001528E+04;  0.0000000E+00; -5.4222238E-01;  1.0000000E+04;  0.0000000E+00;  9.9910566E+03; -5.5614855E-02;  0.0000000E+00;  1.3917062E-01;  2.4850684E+03;
  1.1601686E+00;  9.9999998E-03;  1.8005082E-01;2841;  1.0694686E-01;  0.0000000E+00;  2.3287913E-02;  1.0023143E+03;  4.0107954E-01;  1.7885719E+03;3;  4.8844166E+01;  0.0000000E+00;  5.3666749E+00;0;  7.3485576E-02;  1.0002033E+04;  0.0000000E+00; -8.4696263E-01;  1.0000000E+04;  0.0000000E+00;  9.9902988E+03; -6.2911414E-02;  0.0000000E+00;  1.3639699E-01;  3.1013254E+03;
  1.1601962E+00;  9.9999998E-03;  2.0006402E-01;2842;  1.1975905E-01;  0.0000000E+00;  2.6386363E-02;  1.0022855E+03;  4.0107957E-01;  1.7662314E+03;3;  5.4333199E+01;  0.0000000E+00;  5.9640970E+00;0;  7.1455047E-02;  1.0002267E+04;  0.0000000E+00; -1.1334057E+00;  1.0000000E+04;  0.0000000E+00;  9.9895000E+03; -6.2405523E-02;  0.0000000E+00;  1.3386057E-01;  3.7502156E+03;
  1.1602263E+00;  9.9999998E-03;  2.2007695E-01;2843;  1.3239782E-01;  0.0000000E+00;  2.8882384E-02;  1.0022190E+03;  4.0107942E-01;  1.7147770E+03;3;  6.1788895E+01;  0.0000000E+00;  6.8817697E+00;0;  8.1586480E-02;  1.0001610E+04;  0.0000000E+00; -1.2468777E+00;  1.0000000E+04;  0.0000000E+00;  9.9888340E+03; -4.4740479E-02;  0.0000000E+00;  1.2632696E-01;  4.0690691E+03;
  1.1602541E+00;  9.9999998E-03;  2.4008760E-01;2844;  1.4348300E-01;  0.0000000E+00;  3.1315073E-02;  1.0021332E+03;  4.0107945E-01;  1.6484059E+03;3;  7.2138817E+01;  0.0000000E+00;  9.0661297E+00;0;  1.0853826E-01;  9.9998740E+03;  0.0000000E+00; -8.4435314E-01;  1.0000000E+04;  0.0000000E+00;  9.9888584E+03; -5.8060298E-03;  0.0000000E+00;  1.1434428E-01;  3.3475730E+03;
  1.1602770E+00;  9.9999998E-03;  2.6009560E-01;2845;  1.5260857E-01;  0.0000000E+00;  3.3834532E-02;  1.0020524E+03;  4.0107942E-01;  1.5860060E+03;3;  8.4774384E+01;  0.0000000E+00;  1.2253108E+01;0;  1.5629750E-01;  9.9972354E+03;  0.0000000E+00;  3.9444125E-01;  1.0000000E+04;  0.0000000E+00;  9.9898877E+03;  5.2426137E-02;  0.0000000E+00;  1.0387136E-01;  2.5134993E+03;
  1.1801503E+00;  9.9999998E-03;  1.6004008E-01;2866;  9.6647970E-02;  0.0000000E+00;  1.8676342E-02;  1.0020780E+03;  4.0098622E-01;  1.5726113E+03;3;  4.5691437E+01;  0.0000000E+00;  4.2366681E+00;0;  8.5081905E-02;  1.0000923E+04;  0.0000000E+00; -8.3656985E-01;  1.0000000E+04;  0.0000000E+00;  9.9913398E+03; -4.9701426E-02;  0.0000000E+00;  1.3478333E-01;  2.4609250E+03;
  1.1801752E+00;  9.9999998E-03;  1.8005247E-01;2867;  1.0914189E-01;  0.0000000E+00;  2.2322780E-02;  1.0020491E+03;  4.0098637E-01;  1.5506442E+03;3;  5.1122746E+01;  0.0000000E+00;  5.0100698E+00;0;  8.5832283E-02;  1.0001185E+04;  0.0000000E+00; -1.1341809E+00;  1.0000000E+04;  0.0000000E+00;  9.9905059E+03; -5.0179508E-02;  0.0000000E+00;  1.3601179E-01;  3.0434216E+03;
  1.1802033E+00;  9.9999998E-03;  2.0006570E-01;2868;  1.2188406E-01;  0.0000000E+00;  2.5606604E-02;  1.0019819E+03;  4.0098637E-01;  1.4998057E+03;3;  5.8090969E+01;  0.0000000E+00;  5.9439549E+00;0;  1.0086001E-01;  1.0000737E+04;  0.0000000E+00; -1.2971151E+00;  1.0000000E+04;  0.0000000E+00;  9.9896152E+03; -3.5117574E-02;  0.0000000E+00;  1.3597758E-01;  3.4228845E+03;
  1.1802306E+00;  9.9999998E-03;  2.2007726E-01;2869;  1.3341151E-01;  0.0000000E+00;  2.8179601E-02;  1.0018861E+03;  4.0098628E-01;  1.4272323E+03;3;  6.7004723E+01;  0.0000000E+00;  7.4295549E+00;0;  1.2692970E-01;  9.9993896E+03;  0.0000000E+00; -1.0392892E+00;  1.0000000E+04;  0.0000000E+00;  9.9890557E+03; -2.9146299E-03;  0.0000000E+00;  1.2984432E-01;  3.0824705E+03;
  1.1802531E+00;  9.9999998E-03;  2.4008618E-01;2870;  1.4271381E-01;  0.0000000E+00;  3.0758483E-02;  1.0018047E+03;  4.0098628E-01;  1.3655858E+03;3;  7.8187317E+01;  0.0000000E+00;  1.0153425E+01;0;  1.6402240E-01;  9.9975049E+03;  0.0000000E+00; -7.7097234E-03;  1.0000000E+04;  0.0000000E+00;  9.9893174E+03;  4.1503515E-02;  0.0000000E+00;  1.2251889E-01;  2.0921328E+03;
  1.2001593E+00;  9.9999998E-03;  1.6004439E-01;2890;  9.9906012E-02;  0.0000000E+00;  1.9078875E-02;  1.0018539E+03;  4.0091622E-01;  1.3668097E+03;3;  4.8308353E+01;  0.0000000E+00;  4.2421384E+00;0;  1.0117598E-01;  9.9998711E+03;  0.0000000E+00; -1.1247854E+00;  1.0000000E+04;  0.0000000E+00;  9.9914189E+03; -3.3864066E-02;  0.0000000E+00;  1.3504004E-01;  2.4118630E+03;
  1.2001851E+00;  9.9999998E-03;  1.8005662E-01;2891;  1.1220869E-01;  0.0000000E+00;  2.2689650E-02;  1.0017816E+03;  4.0091622E-01;  1.3134137E+03;3;  5.5082630E+01;  0.0000000E+00;  5.2572536E+00;0;  1.2195671E-01;  9.9993555E+03;  0.0000000E+00; -1.2988839E+00;  1.0000000E+04;  0.0000000E+00;  9.9904951E+03; -1.7622158E-02;  0.0000000E+00;  1.3957886E-01;  2.7452341E+03;
  1.2002102E+00;  9.9999998E-03;  2.0006837E-01;2892;  1.2383102E-01;  0.0000000E+00;  2.5870783E-02;  1.0016761E+03;  4.0091622E-01;  1.2356801E+03;3;  6.3470295E+01;  0.0000000E+00;  6.8474069E+00;0;  1.5859081E-01;  9.9981084E+03;  0.0000000E+00; -1.0742728E+00;  1.0000000E+04;  0.0000000E+00;  9.9896377E+03;  1.6483044E-02;  0.0000000E+00;  1.4210777E-01;  2.5240542E+03;
  1.2002317E+00;  9.9999998E-03;  2.2007757E-01;2893;  1.3296685E-01;  0.0000000E+00;  2.8034212E-02;  1.0015891E+03;  4.0091622E-01;  1.1714036E+03;3;  7.2926178E+01;  0.0000000E+00;  8.7056799E+00;0;  1.8654409E-01;  9.9966445E+03;  0.0000000E+00; -1.4629130E-01;  1.0000000E+04;  0.0000000E+00;  9.9893643E+03;  5.1619913E-02;  0.0000000E+00;  1.3492417E-01;  1.7490336E+03;
  1.2201718E+00;  9.9999998E-03;  1.6005032E-01;2913;  1.0360132E-01;  0.0000000E+00;  2.0381087E-02;  1.0016025E+03;  4.0086457E-01;  1.1445125E+03;3;  5.2487236E+01;  0.0000000E+00;  4.6690044E+00;0;  1.4469439E-01;  9.9975693E+03;  0.0000000E+00; -1.2420795E+00;  1.0000000E+04;  0.0000000E+00;  9.9912832E+03;  5.3797639E-03;  0.0000000E+00;  1.3931462E-01;  2.0935896E+03;
  1.2201935E+00;  9.9999998E-03;  1.8006085E-01;2914;  1.1417392E-01;  0.0000000E+00;  2.3389764E-02;  1.0015071E+03;  4.0086460E-01;  1.0763615E+03;3;  6.0209862E+01;  0.0000000E+00;  6.1082506E+00;0;  1.7877519E-01;  9.9965430E+03;  0.0000000E+00; -1.0279701E+00;  1.0000000E+04;  0.0000000E+00;  9.9904063E+03;  3.4618266E-02;  0.0000000E+00;  1.4415693E-01;  1.9232426E+03;
  1.2202129E+00;  9.9999998E-03;  2.0007023E-01;2915;  1.2355438E-01;  0.0000000E+00;  2.6088186E-02;  1.0014122E+03;  4.0086463E-01;  1.0084749E+03;3;  6.9274239E+01;  0.0000000E+00;  8.1033182E+00;0;  2.1864037E-01;  9.9952900E+03;  0.0000000E+00; -1.4495739E-01;  1.0000000E+04;  0.0000000E+00;  9.9897656E+03;  7.2227091E-02;  0.0000000E+00;  1.4641328E-01;  1.3575704E+03;
  1.2202255E+00;  9.9999998E-03;  2.2007509E-01;2916;  1.2836646E-01;  0.0000000E+00;  2.6139241E-02;  1.0014305E+03;  4.0086451E-01;  1.0215630E+03;3;  7.7177193E+01;  0.0000000E+00;  9.0797024E+00;0;  1.8735616E-01;  9.9951348E+03;  0.0000000E+00;  1.3369319E+00;  1.0000000E+04;  0.0000000E+00;  9.9902861E+03;  7.1087092E-02;  0.0000000E+00;  1.1626907E-01;  2.2697900E+03;
  1.2401789E+00;  9.9999998E-03;  1.6005473E-01;2934;  1.0464903E-01;  0.0000000E+00;  2.0746954E-02;  1.0013762E+03;  4.0082720E-01;  9.4663080E+02;3;  5.7144096E+01;  0.0000000E+00;  5.1185431E+00;0;  1.8891512E-01;  9.9950205E+03;  0.0000000E+00; -7.9760873E-01;  1.0000000E+04;  0.0000000E+00;  9.9911719E+03;  5.0543845E-02;  0.0000000E+00;  1.3837127E-01;  1.2800048E+03;
  1.2401936E+00;  9.9999998E-03;  1.8006246E-01;2935;  1.1245177E-01;  0.0000000E+00;  2.2702416E-02;  1.0013382E+03;  4.0082735E-01;  9.2052692E+02;3;  6.5289909E+01;  0.0000000E+00;  6.7030120E+00;0;  2.0281175E-01;  9.9948047E+03;  0.0000000E+00; -7.0950799E-03;  1.0000000E+04;  0.0000000E+00;  9.9906318E+03;  6.6926874E-02;  0.0000000E+00;  1.3588487E-01;  9.8193347E+02;
  1.2601759E+00;  9.9999998E-03;  1.6005580E-01;2952;  1.0162809E-01;  0.0000000E+00;  1.9576291E-02;  1.0013099E+03;  4.0080100E-01;  8.6320044E+02;3;  6.1506680E+01;  0.0000000E+00;  5.4334326E+00;0;  1.7938261E-01;  9.9948066E+03;  0.0000000E+00;  3.1150362E-01;  1.0000000E+04;  0.0000000E+00;  9.9913848E+03;  5.5545244E-02;  0.0000000E+00;  1.2383736E-01;  7.7073871E+02;
