TimeStep;Np;Nbound;Nfixed;Nmoving;Nfloat;Nfluid
0;2975;1031;1031;0;0;1944

Pos.x;Pos.y;Pos.z;Idp;Vel.x;Vel.y;Vel.z;Rhop;Mass;Press;Type;Acec.x;Acec.y;Acec.z;CellOffSpring;GradVel;Qfxx;Qfxy;Qfxz;Qfyy;Qfyz;Qfzz;StrainDot.x;StrainDot.y;StrainDot.z;VonMises3D;
 -2.2000000E-01;  9.9999998E-03; -3.8000000E-01;0;  0.0000000E+00;  0.0000000E+00;  0.0000000E+00;  1.0000000E+03;  4.0000001E-01;  0.0000000E+00;0;  0.0000000E+00;  0.0000000E+00;  0.0000000E+00;0;  0.0000000E+00;  1.0000000E+04;  0.0000000E+00;  0.0000000E+00;  1.0000000E+04;  0.0000000E+00;  1.0000000E+04;  0.0000000E+00;  0.0000000E+00;  0.0000000E+00;  0.0000000E+00;
 -2.2000000E-01;  9.9999998E-03; -3.6000001E-01;1;  0.0000000E+00;  0.0000000E+00;  0.0000000E+00;  1.0000000E+03;  4.0000001E-01;  0.0000000E+00;0;  0.0000000E+00;  0.0000000E+00;  0.0000000E+00;0;  0.0000000E+00;  1.0000000E+04;  0.0000000E+00;  0.0000000E+00;  1.0000000E+04;  0.0000000E+00;  1.0000000E+04;  0.0000000E+00;  0.0000000E+00;  0.0000000E+00;  0.0000000E+00;
 -2.0000000E-01;  9.9999998E-03; -4.0000001E-01;39;  0.0000000E+00;  0.0000000E+00;  0.0000000E+00;  1.0000000E+03;  4.0000001E-01;  0.0000000E+00;0;  0.0000000E+00;  0.0000000E+00;  0.0000000E+00;0;  0.0000000E+00;  1.0000000E+04;  0.0000000E+00;  0.0000000E+00;  1.0000000E+04;  0.0000000E+00;  1.0000000E+04;  0.0000000E+00;  0.0000000E+00;  0.0000000E+00;  0.0000000E+00;
 -2.0000000E-01;  9.9999998E-03; -3.8000000E-01;40;  0.0000000E+00;  0.0000000E+00;  0.0000000E+00;  1.0000000E+03;  4.0000001E-01;  0.0000000E+00;0;  0.0000000E+00;  0.0000000E+00;  0.0000000E+00;0;  0.0000000E+00;  1.0000000E+04;  0.0000000E+00;  0.0000000E+00;  1.0000000E+04;  0.0000000E+00;  1.0000000E+04;  0.0000000E+00;  0.0000000E+00;  0.0000000E+00;  0.0000000E+00;
 -2.0000000E-01;  9.9999998E-03; -3.6000001E-01;41;  0.0000000E+00;  0.0000000E+00;  0.0000000E+00;  1.0000000E+03;  4.0000001E-01;  0.0000000E+00;0;  0.0000000E+00;  0.0000000E+00;  0.0000000E+00;0;  0.0000000E+00;  1.0000000E+04;  0.0000000E+00;  0.0000000E+00;  1.0000000E+04;  0.0000000E+00;  1.0000000E+04;  0.0000000E+00;  0.0000000E+00;  0.0000000E+00;  0.0000000E+00;
 -1.8000001E-01;  9.9999998E-03; -4.0000001E-01;80;  0.0000000E+00;  0.0000000E+00;  0.0000000E+00;  1.0000000E+03;  4.0000001E-01;  0.0000000E+00;0;  0.0000000E+00;  0.0000000E+00;  0.0000000E+00;0;  0.0000000E+00;  1.0000000E+04;  0.0000000E+00;  0.0000000E+00;  1.0000000E+04;  0.0000000E+00;  1.0000000E+04;  0.0000000E+00;  0.0000000E+00;  0.0000000E+00;  0.0000000E+00;
 -1.8000001E-01;  9.9999998E-03; -3.8000000E-01;81;  0.0000000E+00;  0.0000000E+00;  0.0000000E+00;  1.0000000E+03;  4.0000001E-01;  0.0000000E+00;0;  0.0000000E+00;  0.0000000E+00;  0.0000000E+00;0;  0.0000000E+00;  1.0000000E+04;  0.0000000E+00;  0.0000000E+00;  1.0000000E+04;  0.0000000E+00;  1.0000000E+04;  0.0000000E+00;  0.0000000E+00;  0.0000000E+00;  0.0000000E+00;
 -1.8000001E-01;  9.9999998E-03; -3.6000001E-01;82;  0.0000000E+00;  0.0000000E+00;  0.0000000E+00;  1.0000000E+03;  4.0000001E-01;  0.0000000E+00;0;  0.0000000E+00;  0.0000000E+00;  0.0000000E+00;0;  0.0000000E+00;  1.0000000E+04;  0.0000000E+00;  0.0000000E+00;  1.0000000E+04;  0.0000000E+00;  1.0000000E+04;  0.0000000E+00;  0.0000000E+00;  0.0000000E+00;  0.0000000E+00;
 -1.6000000E-01;  9.9999998E-03; -4.0000001E-01;121;  0.0000000E+00;  0.0000000E+00;  0.0000000E+00;  1.0000000E+03;  4.0000001E-01;  0.0000000E+00;0;  0.0000000E+00;  0.0000000E+00;  0.0000000E+00;0;  0.0000000E+00;  1.0000000E+04;  0.0000000E+00;  0.0000000E+00;  1.0000000E+04;  0.0000000E+00;  1.0000000E+04;  0.0000000E+00;  0.0000000E+00;  0.0000000E+00;  0.0000000E+00;
 -1.6000000E-01;  9.9999998E-03; -3.8000000E-01;122;  0.0000000E+00;  0.0000000E+00;  0.0000000E+00;  1.0000000E+03;  4.0000001E-01;  0.0000000E+00;0;  0.0000000E+00;  0.0000000E+00;  0.0000000E+00;0;  0.0000000E+00;  1.0000000E+04;  0.0000000E+00;  0.0000000E+00;  1.0000000E+04;  0.0000000E+00;  1.0000000E+04;  0.0000000E+00;  0.0000000E+00;  0.0000000E+00;  0.0000000E+00;
 -1.6000000E-01;  9.9999998E-03; -3.6000001E-01;123;  0.0000000E+00;  0.0000000E+00;  0.0000000E+00;  1.0000000E+03;  4.0000001E-01;  0.0000000E+00;0;  0.0000000E+00;  0.0000000E+00;  0.0000000E+00;0;  0.0000000E+00;  1.0000000E+04;  0.0000000E+00;  0.0000000E+00;  1.0000000E+04;  0.0000000E+00;  1.0000000E+04;  0.0000000E+00;  0.0000000E+00;  0.0000000E+00;  0.0000000E+00;
 -1.4000000E-01;  9.9999998E-03; -4.0000001E-01;162;  0.0000000E+00;  0.0000000E+00;  0.0000000E+00;  1.0000000E+03;  4.0000001E-01;  0.0000000E+00;0;  0.0000000E+00;  0.0000000E+00;  0.0000000E+00;0;  0.0000000E+00;  1.0000000E+04;  0.0000000E+00;  0.0000000E+00;  1.0000000E+04;  0.0000000E+00;  1.0000000E+04;  0.0000000E+00;  0.0000000E+00;  0.0000000E+00;  0.0000000E+00;
 -1.4000000E-01;  9.9999998E-03; -3.8000000E-01;163;  0.0000000E+00;  0.0000000E+00;  0.0000000E+00;  1.0000000E+03;  4.0000001E-01;  0.0000000E+00;0;  0.0000000E+00;  0.0000000E+00;  0.0000000E+00;0;  0.0000000E+00;  1.0000000E+04;  0.0000000E+00;  0.0000000E+00;  1.0000000E+04;  0.0000000E+00;  1.0000000E+04;  0.0000000E+00;  0.0000000E+00;  0.0000000E+00;  0.0000000E+00;
 -1.4000000E-01;  9.9999998E-03; -3.6000001E-01;164;  0.0000000E+00;  0.0000000E+00;  0.0000000E+00;  1.0000000E+03;  4.0000001E-01;  0.0000000E+00;0;  0.0000000E+00;  0.0000000E+00;  0.0000000E+00;0;  0.0000000E+00;  1.0000000E+04;  0.0000000E+00;  0.0000000E+00;  1.0000000E+04;  0.0000000E+00;  1.0000000E+04;  0.0000000E+00;  0.0000000E+00;  0.0000000E+00;  0.0000000E+00;
 -1.2000000E-01;  9.9999998E-03; -4.0000001E-01;203;  0.0000000E+00;  0.0000000E+00;  0.0000000E+00;  1.0000000E+03;  4.0000001E-01;  0.0000000E+00;0;  0.0000000E+00;  0.0000000E+00;  0.0000000E+00;0;  0.0000000E+00;  1.0000000E+04;  0.0000000E+00;  0.0000000E+00;  1.0000000E+04;  0.0000000E+00;  1.0000000E+04;  0.0000000E+00;  0.0000000E+00;  0.0000000E+00;  0.0000000E+00;
 -1.2000000E-01;  9.9999998E-03; -3.8000000E-01;204;  0.0000000E+00;  0.0000000E+00;  0.0000000E+00;  1.0000000E+03;  4.0000001E-01;  0.0000000E+00;0;  0.0000000E+00;  0.0000000E+00;  0.0000000E+00;0;  0.0000000E+00;  1.0000000E+04;  0.0000000E+00;  0.0000000E+00;  1.0000000E+04;  0.0000000E+00;  1.0000000E+04;  0.0000000E+00;  0.0000000E+00;  0.0000000E+00;  0.0000000E+00;
 -1.2000000E-01;  9.9999998E-03; -3.6000001E-01;205;  0.0000000E+00;  0.0000000E+00;  0.0000000E+00;  1.0000000E+03;  4.0000001E-01;  0.0000000E+00;0;  0.0000000E+00;  0.0000000E+00;  0.0000000E+00;0;  0.0000000E+00;  1.0000000E+04;  0.0000000E+00;  0.0000000E+00;  1.0000000E+04;  0.0000000E+00;  1.0000000E+04;  0.0000000E+00;  0.0000000E+00;  0.0000000E+00;  0.0000000E+00;
 -1.0000000E-01;  9.9999998E-03; -4.0000001E-01;244;  0.0000000E+00;  0.0000000E+00;  0.0000000E+00;  1.0000000E+03;  4.0000001E-01;  0.0000000E+00;0;  0.0000000E+00;  0.0000000E+00;  0.0000000E+00;0;  0.0000000E+00;  1.0000000E+04;  0.0000000E+00;  0.0000000E+00;  1.0000000E+04;  0.0000000E+00;  1.0000000E+04;  0.0000000E+00;  0.0000000E+00;  0.0000000E+00;  0.0000000E+00;
 -1.0000000E-01;  9.9999998E-03; -3.8000000E-01;245;  0.0000000E+00;  0.0000000E+00;  0.0000000E+00;  1.0000000E+03;  4.0000001E-01;  0.0000000E+00;0;  0.0000000E+00;  0.0000000E+00;  0.0000000E+00;0;  0.0000000E+00;  1.0000000E+04;  0.0000000E+00;  0.0000000E+00;  1.0000000E+04;  0.0000000E+00;  1.0000000E+04;  0.0000000E+00;  0.0000000E+00;  0.0000000E+00;  0.0000000E+00;
 -1.0000000E-01;  9.9999998E-03; -3.6000001E-01;246;  0.0000000E+00;  0.0000000E+00;  0.0000000E+00;  1.0000000E+03;  4.0000001E-01;  0.0000000E+00;0;  0.0000000E+00;  0.0000000E+00;  0.0000000E+00;0;  0.0000000E+00;  1.0000000E+04;  0.0000000E+00;  0.0000000E+00;  1.0000000E+04;  0.0000000E+00;  1.0000000E+04;  0.0000000E+00;  0.0000000E+00;  0.0000000E+00;  0.0000000E+00;
 -7.9999998E-02;  9.9999998E-03; -4.0000001E-01;285;  0.0000000E+00;  0.0000000E+00;  0.0000000E+00;  1.0000000E+03;  4.0000001E-01;  0.0000000E+00;0;  0.0000000E+00;  0.0000000E+00;  0.0000000E+00;0;  0.0000000E+00;  1.0000000E+04;  0.0000000E+00;  0.0000000E+00;  1.0000000E+04;  0.0000000E+00;  1.0000000E+04;  0.0000000E+00;  0.0000000E+00;  0.0000000E+00;  0.0000000E+00;
 -7.9999998E-02;  9.9999998E-03; -3.8000000E-01;286;  0.0000000E+00;  0.0000000E+00;  0.0000000E+00;  1.0000000E+03;  4.0000001E-01;  0.0000000E+00;0;  0.0000000E+00;  0.0000000E+00;  0.0000000E+00;0;  0.0000000E+00;  1.0000000E+04;  0.0000000E+00;  0.0000000E+00;  1.0000000E+04;  0.0000000E+00;  1.0000000E+04;  0.0000000E+00;  0.0000000E+00;  0.0000000E+00;  0.0000000E+00;
 -7.9999998E-02;  9.9999998E-03; -3.6000001E-01;287;  0.0000000E+00;  0.0000000E+00;  0.0000000E+00;  1.0000000E+03;  4.0000001E-01;  0.0000000E+00;0;  0.0000000E+00;  0.0000000E+00;  0.0000000E+00;0;  0.0000000E+00;  1.0000000E+04;  0.0000000E+00;  0.0000000E+00;  1.0000000E+04;  0.0000000E+00;  1.0000000E+04;  0.0000000E+00;  0.0000000E+00;  0.0000000E+00;  0.0000000E+00;
 -5.9999999E-02;  9.9999998E-03; -4.0000001E-01;326;  0.0000000E+00;  0.0000000E+00;  0.0000000E+00;  1.0000000E+03;  4.0000001E-01;  0.0000000E+00;0;  0.0000000E+00;  0.0000000E+00;  0.0000000E+00;0;  0.0000000E+00;  1.0000000E+04;  0.0000000E+00;  0.0000000E+00;  1.0000000E+04;  0.0000000E+00;  1.0000000E+04;  0.0000000E+00;  0.0000000E+00;  0.0000000E+00;  0.0000000E+00;
 -5.9999999E-02;  9.9999998E-03; -3.8000000E-01;327;  0.0000000E+00;  0.0000000E+00;  0.0000000E+00;  1.0000000E+03;  4.0000001E-01;  0.0000000E+00;0;  0.0000000E+00;  0.0000000E+00;  0.0000000E+00;0;  0.0000000E+00;  1.0000000E+04;  0.0000000E+00;  0.0000000E+00;  1.0000000E+04;  0.0000000E+00;  1.0000000E+04;  0.0000000E+00;  0.0000000E+00;  0.0000000E+00;  0.0000000E+00;
 -5.9999999E-02;  9.9999998E-03; -3.6000001E-01;328;  0.0000000E+00;  0.0000000E+00;  0.0000000E+00;  1.0000000E+03;  4.0000001E-01;  0.0000000E+00;0;  0.0000000E+00;  0.0000000E+00;  0.0000000E+00;0;  0.0000000E+00;  1.0000000E+04;  0.0000000E+00;  0.0000000E+00;  1.0000000E+04;  0.0000000E+00;  1.0000000E+04;  0.0000000E+00;  0.0000000E+00;  0.0000000E+00;  0.0000000E+00;
 -3.9999999E-02;  9.9999998E-03; -4.0000001E-01;367;  0.0000000E+00;  0.0000000E+00;  0.0000000E+00;  1.0000000E+03;  4.0000001E-01;  0.0000000E+00;0;  0.0000000E+00;  0.0000000E+00;  0.0000000E+00;0;  0.0000000E+00;  1.0000000E+04;  0.0000000E+00;  0.0000000E+00;  1.0000000E+04;  0.0000000E+00;  1.0000000E+04;  0.0000000E+00;  0.0000000E+00;  0.0000000E+00;  0.0000000E+00;
 -3.9999999E-02;  9.9999998E-03; -3.8000000E-01;368;  0.0000000E+00;  0.0000000E+00;  0.0000000E+00;  1.0000000E+03;  4.0000001E-01;  0.0000000E+00;0;  0.0000000E+00;  0.0000000E+00;  0.0000000E+00;0;  0.0000000E+00;  1.0000000E+04;  0.0000000E+00;  0.0000000E+00;  1.0000000E+04;  0.0000000E+00;  1.0000000E+04;  0.0000000E+00;  0.0000000E+00;  0.0000000E+00;  0.0000000E+00;
 -3.9999999E-02;  9.9999998E-03; -3.6000001E-01;369;  0.0000000E+00;  0.0000000E+00;  0.0000000E+00;  1.0000000E+03;  4.0000001E-01;  0.0000000E+00;0;  0.0000000E+00;  0.0000000E+00;  0.0000000E+00;0;  0.0000000E+00;  1.0000000E+04;  0.0000000E+00;  0.0000000E+00;  1.0000000E+04;  0.0000000E+00;  1.0000000E+04;  0.0000000E+00;  0.0000000E+00;  0.0000000E+00;  0.0000000E+00;
 -2.0000000E-02;  9.9999998E-03; -4.0000001E-01;408;  0.0000000E+00;  0.0000000E+00;  0.0000000E+00;  1.0000000E+03;  4.0000001E-01;  0.0000000E+00;0;  0.0000000E+00;  0.0000000E+00;  0.0000000E+00;0;  0.0000000E+00;  1.0000000E+04;  0.0000000E+00;  0.0000000E+00;  1.0000000E+04;  0.0000000E+00;  1.0000000E+04;  0.0000000E+00;  0.0000000E+00;  0.0000000E+00;  0.0000000E+00;
 -2.0000000E-02;  9.9999998E-03; -3.8000000E-01;409;  0.0000000E+00;  0.0000000E+00;  0.0000000E+00;  1.0000000E+03;  4.0000001E-01;  0.0000000E+00;0;  0.0000000E+00;  0.0000000E+00;  0.0000000E+00;0;  0.0000000E+00;  1.0000000E+04;  0.0000000E+00;  0.0000000E+00;  1.0000000E+04;  0.0000000E+00;  1.0000000E+04;  0.0000000E+00;  0.0000000E+00;  0.0000000E+00;  0.0000000E+00;
 -2.0000000E-02;  9.9999998E-03; -3.6000001E-01;410;  0.0000000E+00;  0.0000000E+00;  0.0000000E+00;  1.0000000E+03;  4.0000001E-01;  0.0000000E+00;0;  0.0000000E+00;  0.0000000E+00;  0.0000000E+00;0;  0.0000000E+00;  1.0000000E+04;  0.0000000E+00;  0.0000000E+00;  1.0000000E+04;  0.0000000E+00;  1.0000000E+04;  0.0000000E+00;  0.0000000E+00;  0.0000000E+00;  0.0000000E+00;
  0.0000000E+00;  9.9999998E-03; -4.0000001E-01;449;  0.0000000E+00;  0.0000000E+00;  0.0000000E+00;  1.0000000E+03;  4.0000001E-01;  0.0000000E+00;0;  0.0000000E+00;  0.0000000E+00;  0.0000000E+00;0;  0.0000000E+00;  1.0000000E+04;  0.0000000E+00;  0.0000000E+00;  1.0000000E+04;  0.0000000E+00;  1.0000000E+04;  0.0000000E+00;  0.0000000E+00;  0.0000000E+00;  0.0000000E+00;
  0.0000000E+00;  9.9999998E-03; -3.8000000E-01;450;  0.0000000E+00;  0.0000000E+00;  0.0000000E+00;  1.0000000E+03;  4.0000001E-01;  0.0000000E+00;0;  0.0000000E+00;  0.0000000E+00;  0.0000000E+00;0;  0.0000000E+00;  1.0000000E+04;  0.0000000E+00;  0.0000000E+00;  1.0000000E+04;  0.0000000E+00;  1.0000000E+04;  0.0000000E+00;  0.0000000E+00;  0.0000000E+00;  0.0000000E+00;
  0.0000000E+00;  9.9999998E-03; -3.6000001E-01;451;  0.0000000E+00;  0.0000000E+00;  0.0000000E+00;  1.0000000E+03;  4.0000001E-01;  0.0000000E+00;0;  0.0000000E+00;  0.0000000E+00;  0.0000000E+00;0;  0.0000000E+00;  1.0000000E+04;  0.0000000E+00;  0.0000000E+00;  1.0000000E+04;  0.0000000E+00;  1.0000000E+04;  0.0000000E+00;  0.0000000E+00;  0.0000000E+00;  0.0000000E+00;
  2.0000000E-02;  9.9999998E-03; -4.0000001E-01;461;  0.0000000E+00;  0.0000000E+00;  0.0000000E+00;  1.0000000E+03;  4.0000001E-01;  0.0000000E+00;0;  0.0000000E+00;  0.0000000E+00;  0.0000000E+00;0;  0.0000000E+00;  1.0000000E+04;  0.0000000E+00;  0.0000000E+00;  1.0000000E+04;  0.0000000E+00;  1.0000000E+04;  0.0000000E+00;  0.0000000E+00;  0.0000000E+00;  0.0000000E+00;
  2.0000000E-02;  9.9999998E-03; -3.8000000E-01;462;  0.0000000E+00;  0.0000000E+00;  0.0000000E+00;  1.0000000E+03;  4.0000001E-01;  0.0000000E+00;0;  0.0000000E+00;  0.0000000E+00;  0.0000000E+00;0;  0.0000000E+00;  1.0000000E+04;  0.0000000E+00;  0.0000000E+00;  1.0000000E+04;  0.0000000E+00;  1.0000000E+04;  0.0000000E+00;  0.0000000E+00;  0.0000000E+00;  0.0000000E+00;
  2.0000000E-02;  9.9999998E-03; -3.6000001E-01;463;  0.0000000E+00;  0.0000000E+00;  0.0000000E+00;  1.0000000E+03;  4.0000001E-01;  0.0000000E+00;0;  0.0000000E+00;  0.0000000E+00;  0.0000000E+00;0;  0.0000000E+00;  1.0000000E+04;  0.0000000E+00;  0.0000000E+00;  1.0000000E+04;  0.0000000E+00;  1.0000000E+04;  0.0000000E+00;  0.0000000E+00;  0.0000000E+00;  0.0000000E+00;
  3.9999999E-02;  9.9999998E-03; -4.0000001E-01;471;  0.0000000E+00;  0.0000000E+00;  0.0000000E+00;  1.0000000E+03;  4.0000001E-01;  0.0000000E+00;0;  0.0000000E+00;  0.0000000E+00;  0.0000000E+00;0;  0.0000000E+00;  1.0000000E+04;  0.0000000E+00;  0.0000000E+00;  1.0000000E+04;  0.0000000E+00;  1.0000000E+04;  0.0000000E+00;  0.0000000E+00;  0.0000000E+00;  0.0000000E+00;
  3.9999999E-02;  9.9999998E-03; -3.8000000E-01;472;  0.0000000E+00;  0.0000000E+00;  0.0000000E+00;  1.0000000E+03;  4.0000001E-01;  0.0000000E+00;0;  0.0000000E+00;  0.0000000E+00;  0.0000000E+00;0;  0.0000000E+00;  1.0000000E+04;  0.0000000E+00;  0.0000000E+00;  1.0000000E+04;  0.0000000E+00;  1.0000000E+04;  0.0000000E+00;  0.0000000E+00;  0.0000000E+00;  0.0000000E+00;
  3.9999999E-02;  9.9999998E-03; -3.6000001E-01;473;  0.0000000E+00;  0.0000000E+00;  0.0000000E+00;  1.0000000E+03;  4.0000001E-01;  0.0000000E+00;0;  0.0000000E+00;  0.0000000E+00;  0.0000000E+00;0;  0.0000000E+00;  1.0000000E+04;  0.0000000E+00;  0.0000000E+00;  1.0000000E+04;  0.0000000E+00;  1.0000000E+04;  0.0000000E+00;  0.0000000E+00;  0.0000000E+00;  0.0000000E+00;
  5.9999999E-02;  9.9999998E-03; -4.0000001E-01;481;  0.0000000E+00;  0.0000000E+00;  0.0000000E+00;  1.0000000E+03;  4.0000001E-01;  0.0000000E+00;0;  0.0000000E+00;  0.0000000E+00;  0.0000000E+00;0;  0.0000000E+00;  1.0000000E+04;  0.0000000E+00;  0.0000000E+00;  1.0000000E+04;  0.0000000E+00;  1.0000000E+04;  0.0000000E+00;  0.0000000E+00;  0.0000000E+00;  0.0000000E+00;
  5.9999999E-02;  9.9999998E-03; -3.8000000E-01;482;  0.0000000E+00;  0.0000000E+00;  0.0000000E+00;  1.0000000E+03;  4.0000001E-01;  0.0000000E+00;0;  0.0000000E+00;  0.0000000E+00;  0.0000000E+00;0;  0.0000000E+00;  1.0000000E+04;  0.0000000E+00;  0.0000000E+00;  1.0000000E+04;  0.0000000E+00;  1.0000000E+04;  0.0000000E+00;  0.0000000E+00;  0.0000000E+00;  0.0000000E+00;
  5.9999999E-02;  9.9999998E-03; -3.6000001E-01;483;  0.0000000E+00;  0.0000000E+00;  0.0000000E+00;  1.0000000E+03;  4.0000001E-01;  0.0000000E+00;0;  0.0000000E+00;  0.0000000E+00;  0.0000000E+00;0;  0.0000000E+00;  1.0000000E+04;  0.0000000E+00;  0.0000000E+00;  1.0000000E+04;  0.0000000E+00;  1.0000000E+04;  0.0000000E+00;  0.0000000E+00;  0.0000000E+00;  0.0000000E+00;
  7.9999998E-02;  9.9999998E-03; -4.0000001E-01;491;  0.0000000E+00;  0.0000000E+00;  0.0000000E+00;  1.0000000E+03;  4.0000001E-01;  0.0000000E+00;0;  0.0000000E+00;  0.0000000E+00;  0.0000000E+00;0;  0.0000000E+00;  1.0000000E+04;  0.0000000E+00;  0.0000000E+00;  1.0000000E+04;  0.0000000E+00;  1.0000000E+04;  0.0000000E+00;  0.0000000E+00;  0.0000000E+00;  0.0000000E+00;
  7.9999998E-02;  9.9999998E-03; -3.8000000E-01;492;  0.0000000E+00;  0.0000000E+00;  0.0000000E+00;  1.0000000E+03;  4.0000001E-01;  0.0000000E+00;0;  0.0000000E+00;  0.0000000E+00;  0.0000000E+00;0;  0.0000000E+00;  1.0000000E+04;  0.0000000E+00;  0.0000000E+00;  1.0000000E+04;  0.0000000E+00;  1.0000000E+04;  0.0000000E+00;  0.0000000E+00;  0.0000000E+00;  0.0000000E+00;
  7.9999998E-02;  9.9999998E-03; -3.6000001E-01;493;  0.0000000E+00;  0.0000000E+00;  0.0000000E+00;  1.0000000E+03;  4.0000001E-01;  0.0000000E+00;0;  0.0000000E+00;  0.0000000E+00;  0.0000000E+00;0;  0.0000000E+00;  1.0000000E+04;  0.0000000E+00;  0.0000000E+00;  1.0000000E+04;  0.0000000E+00;  1.0000000E+04;  0.0000000E+00;  0.0000000E+00;  0.0000000E+00;  0.0000000E+00;
  1.0000000E-01;  9.9999998E-03; -4.0000001E-01;501;  0.0000000E+00;  0.0000000E+00;  0.0000000E+00;  1.0000000E+03;  4.0000001E-01;  0.0000000E+00;0;  0.0000000E+00;  0.0000000E+00;  0.0000000E+00;0;  0.0000000E+00;  1.0000000E+04;  0.0000000E+00;  0.0000000E+00;  1.0000000E+04;  0.0000000E+00;  1.0000000E+04;  0.0000000E+00;  0.0000000E+00;  0.0000000E+00;  0.0000000E+00;
  1.0000000E-01;  9.9999998E-03; -3.8000000E-01;502;  0.0000000E+00;  0.0000000E+00;  0.0000000E+00;  1.0000000E+03;  4.0000001E-01;  0.0000000E+00;0;  0.0000000E+00;  0.0000000E+00;  0.0000000E+00;0;  0.0000000E+00;  1.0000000E+04;  0.0000000E+00;  0.0000000E+00;  1.0000000E+04;  0.0000000E+00;  1.0000000E+04;  0.0000000E+00;  0.0000000E+00;  0.0000000E+00;  0.0000000E+00;
  1.0000000E-01;  9.9999998E-03; -3.6000001E-01;503;  0.0000000E+00;  0.0000000E+00;  0.0000000E+00;  1.0000000E+03;  4.0000001E-01;  0.0000000E+00;0;  0.0000000E+00;  0.0000000E+00;  0.0000000E+00;0;  0.0000000E+00;  1.0000000E+04;  0.0000000E+00;  0.0000000E+00;  1.0000000E+04;  0.0000000E+00;  1.0000000E+04;  0.0000000E+00;  0.0000000E+00;  0.0000000E+00;  0.0000000E+00;
  1.2000000E-01;  9.9999998E-03; -4.0000001E-01;511;  0.0000000E+00;  0.0000000E+00;  0.0000000E+00;  1.0000000E+03;  4.0000001E-01;  0.0000000E+00;0;  0.0000000E+00;  0.0000000E+00;  0.0000000E+00;0;  0.0000000E+00;  1.0000000E+04;  0.0000000E+00;  0.0000000E+00;  1.0000000E+04;  0.0000000E+00;  1.0000000E+04;  0.0000000E+00;  0.0000000E+00;  0.0000000E+00;  0.0000000E+00;
  1.2000000E-01;  9.9999998E-03; -3.8000000E-01;512;  0.0000000E+00;  0.0000000E+00;  0.0000000E+00;  1.0000000E+03;  4.0000001E-01;  0.0000000E+00;0;  0.0000000E+00;  0.0000000E+00;  0.0000000E+00;0;  0.0000000E+00;  1.0000000E+04;  0.0000000E+00;  0.0000000E+00;  1.0000000E+04;  0.0000000E+00;  1.0000000E+04;  0.0000000E+00;  0.0000000E+00;  0.0000000E+00;  0.0000000E+00;
  1.2000000E-01;  9.9999998E-03; -3.6000001E-01;513;  0.0000000E+00;  0.0000000E+00;  0.0000000E+00;  1.0000000E+03;  4.0000001E-01;  0.0000000E+00;0;  0.0000000E+00;  0.0000000E+00;  0.0000000E+00;0;  0.0000000E+00;  1.0000000E+04;  0.0000000E+00;  0.0000000E+00;  1.0000000E+04;  0.0000000E+00;  1.0000000E+04;  0.0000000E+00;  0.0000000E+00;  0.0000000E+00;  0.0000000E+00;
  1.4000000E-01;  9.9999998E-03; -4.0000001E-01;521;  0.0000000E+00;  0.0000000E+00;  0.0000000E+00;  1.0000000E+03;  4.0000001E-01;  0.0000000E+00;0;  0.0000000E+00;  0.0000000E+00;  0.0000000E+00;0;  0.0000000E+00;  1.0000000E+04;  0.0000000E+00;  0.0000000E+00;  1.0000000E+04;  0.0000000E+00;  1.0000000E+04;  0.0000000E+00;  0.0000000E+00;  0.0000000E+00;  0.0000000E+00;
  1.4000000E-01;  9.9999998E-03; -3.8000000E-01;522;  0.0000000E+00;  0.0000000E+00;  0.0000000E+00;  1.0000000E+03;  4.0000001E-01;  0.0000000E+00;0;  0.0000000E+00;  0.0000000E+00;  0.0000000E+00;0;  0.0000000E+00;  1.0000000E+04;  0.0000000E+00;  0.0000000E+00;  1.0000000E+04;  0.0000000E+00;  1.0000000E+04;  0.0000000E+00;  0.0000000E+00;  0.0000000E+00;  0.0000000E+00;
  1.4000000E-01;  9.9999998E-03; -3.6000001E-01;523;  0.0000000E+00;  0.0000000E+00;  0.0000000E+00;  1.0000000E+03;  4.0000001E-01;  0.0000000E+00;0;  0.0000000E+00;  0.0000000E+00;  0.0000000E+00;0;  0.0000000E+00;  1.0000000E+04;  0.0000000E+00;  0.0000000E+00;  1.0000000E+04;  0.0000000E+00;  1.0000000E+04;  0.0000000E+00;  0.0000000E+00;  0.0000000E+00;  0.0000000E+00;
  1.6000000E-01;  9.9999998E-03; -4.0000001E-01;531;  0.0000000E+00;  0.0000000E+00;  0.0000000E+00;  1.0000000E+03;  4.0000001E-01;  0.0000000E+00;0;  0.0000000E+00;  0.0000000E+00;  0.0000000E+00;0;  0.0000000E+00;  1.0000000E+04;  0.0000000E+00;  0.0000000E+00;  1.0000000E+04;  0.0000000E+00;  1.0000000E+04;  0.0000000E+00;  0.0000000E+00;  0.0000000E+00;  0.0000000E+00;
  1.6000000E-01;  9.9999998E-03; -3.8000000E-01;532;  0.0000000E+00;  0.0000000E+00;  0.0000000E+00;  1.0000000E+03;  4.0000001E-01;  0.0000000E+00;0;  0.0000000E+00;  0.0000000E+00;  0.0000000E+00;0;  0.0000000E+00;  1.0000000E+04;  0.0000000E+00;  0.0000000E+00;  1.0000000E+04;  0.0000000E+00;  1.0000000E+04;  0.0000000E+00;  0.0000000E+00;  0.0000000E+00;  0.0000000E+00;
  1.6000000E-01;  9.9999998E-03; -3.6000001E-01;533;  0.0000000E+00;  0.0000000E+00;  0.0000000E+00;  1.0000000E+03;  4.0000001E-01;  0.0000000E+00;0;  0.0000000E+00;  0.0000000E+00;  0.0000000E+00;0;  0.0000000E+00;  1.0000000E+04;  0.0000000E+00;  0.0000000E+00;  1.0000000E+04;  0.0000000E+00;  1.0000000E+04;  0.0000000E+00;  0.0000000E+00;  0.0000000E+00;  0.0000000E+00;
  1.8000001E-01;  9.9999998E-03; -4.0000001E-01;541;  0.0000000E+00;  0.0000000E+00;  0.0000000E+00;  1.0000000E+03;  4.0000001E-01;  0.0000000E+00;0;  0.0000000E+00;  0.0000000E+00;  0.0000000E+00;0;  0.0000000E+00;  1.0000000E+04;  0.0000000E+00;  0.0000000E+00;  1.0000000E+04;  0.0000000E+00;  1.0000000E+04;  0.0000000E+00;  0.0000000E+00;  0.0000000E+00;  0.0000000E+00;
  1.8000001E-01;  9.9999998E-03; -3.8000000E-01;542;  0.0000000E+00;  0.0000000E+00;  0.0000000E+00;  1.0000000E+03;  4.0000001E-01;  0.0000000E+00;0;  0.0000000E+00;  0.0000000E+00;  0.0000000E+00;0;  0.0000000E+00;  1.0000000E+04;  0.0000000E+00;  0.0000000E+00;  1.0000000E+04;  0.0000000E+00;  1.0000000E+04;  0.0000000E+00;  0.0000000E+00;  0.0000000E+00;  0.0000000E+00;
  1.8000001E-01;  9.9999998E-03; -3.6000001E-01;543;  0.0000000E+00;  0.0000000E+00;  0.0000000E+00;  1.0000000E+03;  4.0000001E-01;  0.0000000E+00;0;  0.0000000E+00;  0.0000000E+00;  0.0000000E+00;0;  0.0000000E+00;  1.0000000E+04;  0.0000000E+00;  0.0000000E+00;  1.0000000E+04;  0.0000000E+00;  1.0000000E+04;  0.0000000E+00;  0.0000000E+00;  0.0000000E+00;  0.0000000E+00;
  2.0000000E-01;  9.9999998E-03; -3.8000000E-01;551;  0.0000000E+00;  0.0000000E+00;  0.0000000E+00;  1.0000000E+03;  4.0000001E-01;  0.0000000E+00;0;  0.0000000E+00;  0.0000000E+00;  0.0000000E+00;0;  0.0000000E+00;  1.0000000E+04;  0.0000000E+00;  0.0000000E+00;  1.0000000E+04;  0.0000000E+00;  1.0000000E+04;  0.0000000E+00;  0.0000000E+00;  0.0000000E+00;  0.0000000E+00;
  2.0000000E-01;  9.9999998E-03; -3.6000001E-01;552;  0.0000000E+00;  0.0000000E+00;  0.0000000E+00;  1.0000000E+03;  4.0000001E-01;  0.0000000E+00;0;  0.0000000E+00;  0.0000000E+00;  0.0000000E+00;0;  0.0000000E+00;  1.0000000E+04;  0.0000000E+00;  0.0000000E+00;  1.0000000E+04;  0.0000000E+00;  1.0000000E+04;  0.0000000E+00;  0.0000000E+00;  0.0000000E+00;  0.0000000E+00;
 -2.2000000E-01;  9.9999998E-03; -3.4000000E-01;2;  0.0000000E+00;  0.0000000E+00;  0.0000000E+00;  1.0000000E+03;  4.0000001E-01;  0.0000000E+00;0;  0.0000000E+00;  0.0000000E+00;  0.0000000E+00;0;  0.0000000E+00;  1.0000000E+04;  0.0000000E+00;  0.0000000E+00;  1.0000000E+04;  0.0000000E+00;  1.0000000E+04;  0.0000000E+00;  0.0000000E+00;  0.0000000E+00;  0.0000000E+00;
 -2.2000000E-01;  9.9999998E-03; -3.1999999E-01;3;  0.0000000E+00;  0.0000000E+00;  0.0000000E+00;  1.0000000E+03;  4.0000001E-01;  0.0000000E+00;0;  0.0000000E+00;  0.0000000E+00;  0.0000000E+00;0;  0.0000000E+00;  1.0000000E+04;  0.0000000E+00;  0.0000000E+00;  1.0000000E+04;  0.0000000E+00;  1.0000000E+04;  0.0000000E+00;  0.0000000E+00;  0.0000000E+00;  0.0000000E+00;
 -2.2000000E-01;  9.9999998E-03; -3.0000001E-01;4;  0.0000000E+00;  0.0000000E+00;  0.0000000E+00;  1.0000000E+03;  4.0000001E-01;  0.0000000E+00;0;  0.0000000E+00;  0.0000000E+00;  0.0000000E+00;0;  0.0000000E+00;  1.0000000E+04;  0.0000000E+00;  0.0000000E+00;  1.0000000E+04;  0.0000000E+00;  1.0000000E+04;  0.0000000E+00;  0.0000000E+00;  0.0000000E+00;  0.0000000E+00;
 -2.2000000E-01;  9.9999998E-03; -2.8000000E-01;5;  0.0000000E+00;  0.0000000E+00;  0.0000000E+00;  1.0000000E+03;  4.0000001E-01;  0.0000000E+00;0;  0.0000000E+00;  0.0000000E+00;  0.0000000E+00;0;  0.0000000E+00;  1.0000000E+04;  0.0000000E+00;  0.0000000E+00;  1.0000000E+04;  0.0000000E+00;  1.0000000E+04;  0.0000000E+00;  0.0000000E+00;  0.0000000E+00;  0.0000000E+00;
 -2.2000000E-01;  9.9999998E-03; -2.5999999E-01;6;  0.0000000E+00;  0.0000000E+00;  0.0000000E+00;  1.0000000E+03;  4.0000001E-01;  0.0000000E+00;0;  0.0000000E+00;  0.0000000E+00;  0.0000000E+00;0;  0.0000000E+00;  1.0000000E+04;  0.0000000E+00;  0.0000000E+00;  1.0000000E+04;  0.0000000E+00;  1.0000000E+04;  0.0000000E+00;  0.0000000E+00;  0.0000000E+00;  0.0000000E+00;
 -2.2000000E-01;  9.9999998E-03; -2.3999999E-01;7;  0.0000000E+00;  0.0000000E+00;  0.0000000E+00;  1.0000000E+03;  4.0000001E-01;  0.0000000E+00;0;  0.0000000E+00;  0.0000000E+00;  0.0000000E+00;0;  0.0000000E+00;  1.0000000E+04;  0.0000000E+00;  0.0000000E+00;  1.0000000E+04;  0.0000000E+00;  1.0000000E+04;  0.0000000E+00;  0.0000000E+00;  0.0000000E+00;  0.0000000E+00;
 -2.2000000E-01;  9.9999998E-03; -2.2000000E-01;8;  0.0000000E+00;  0.0000000E+00;  0.0000000E+00;  1.0000000E+03;  4.0000001E-01;  0.0000000E+00;0;  0.0000000E+00;  0.0000000E+00;  0.0000000E+00;0;  0.0000000E+00;  1.0000000E+04;  0.0000000E+00;  0.0000000E+00;  1.0000000E+04;  0.0000000E+00;  1.0000000E+04;  0.0000000E+00;  0.0000000E+00;  0.0000000E+00;  0.0000000E+00;
 -2.2000000E-01;  9.9999998E-03; -2.0000000E-01;9;  0.0000000E+00;  0.0000000E+00;  0.0000000E+00;  1.0000000E+03;  4.0000001E-01;  0.0000000E+00;0;  0.0000000E+00;  0.0000000E+00;  0.0000000E+00;0;  0.0000000E+00;  1.0000000E+04;  0.0000000E+00;  0.0000000E+00;  1.0000000E+04;  0.0000000E+00;  1.0000000E+04;  0.0000000E+00;  0.0000000E+00;  0.0000000E+00;  0.0000000E+00;
 -2.0000000E-01;  9.9999998E-03; -3.4000000E-01;42;  0.0000000E+00;  0.0000000E+00;  0.0000000E+00;  1.0000000E+03;  4.0000001E-01;  0.0000000E+00;0;  0.0000000E+00;  0.0000000E+00;  0.0000000E+00;0;  0.0000000E+00;  1.0000000E+04;  0.0000000E+00;  0.0000000E+00;  1.0000000E+04;  0.0000000E+00;  1.0000000E+04;  0.0000000E+00;  0.0000000E+00;  0.0000000E+00;  0.0000000E+00;
 -2.0000000E-01;  9.9999998E-03; -3.1999999E-01;43;  0.0000000E+00;  0.0000000E+00;  0.0000000E+00;  1.0000000E+03;  4.0000001E-01;  0.0000000E+00;0;  0.0000000E+00;  0.0000000E+00;  0.0000000E+00;0;  0.0000000E+00;  1.0000000E+04;  0.0000000E+00;  0.0000000E+00;  1.0000000E+04;  0.0000000E+00;  1.0000000E+04;  0.0000000E+00;  0.0000000E+00;  0.0000000E+00;  0.0000000E+00;
 -2.0000000E-01;  9.9999998E-03; -3.0000001E-01;44;  0.0000000E+00;  0.0000000E+00;  0.0000000E+00;  1.0000000E+03;  4.0000001E-01;  0.0000000E+00;0;  0.0000000E+00;  0.0000000E+00;  0.0000000E+00;0;  0.0000000E+00;  1.0000000E+04;  0.0000000E+00;  0.0000000E+00;  1.0000000E+04;  0.0000000E+00;  1.0000000E+04;  0.0000000E+00;  0.0000000E+00;  0.0000000E+00;  0.0000000E+00;
 -2.0000000E-01;  9.9999998E-03; -2.8000000E-01;45;  0.0000000E+00;  0.0000000E+00;  0.0000000E+00;  1.0000000E+03;  4.0000001E-01;  0.0000000E+00;0;  0.0000000E+00;  0.0000000E+00;  0.0000000E+00;0;  0.0000000E+00;  1.0000000E+04;  0.0000000E+00;  0.0000000E+00;  1.0000000E+04;  0.0000000E+00;  1.0000000E+04;  0.0000000E+00;  0.0000000E+00;  0.0000000E+00;  0.0000000E+00;
 -2.0000000E-01;  9.9999998E-03; -2.5999999E-01;46;  0.0000000E+00;  0.0000000E+00;  0.0000000E+00;  1.0000000E+03;  4.0000001E-01;  0.0000000E+00;0;  0.0000000E+00;  0.0000000E+00;  0.0000000E+00;0;  0.0000000E+00;  1.0000000E+04;  0.0000000E+00;  0.0000000E+00;  1.0000000E+04;  0.0000000E+00;  1.0000000E+04;  0.0000000E+00;  0.0000000E+00;  0.0000000E+00;  0.0000000E+00;
 -2.0000000E-01;  9.9999998E-03; -2.3999999E-01;47;  0.0000000E+00;  0.0000000E+00;  0.0000000E+00;  1.0000000E+03;  4.0000001E-01;  0.0000000E+00;0;  0.0000000E+00;  0.0000000E+00;  0.0000000E+00;0;  0.0000000E+00;  1.0000000E+04;  0.0000000E+00;  0.0000000E+00;  1.0000000E+04;  0.0000000E+00;  1.0000000E+04;  0.0000000E+00;  0.0000000E+00;  0.0000000E+00;  0.0000000E+00;
 -2.0000000E-01;  9.9999998E-03; -2.2000000E-01;48;  0.0000000E+00;  0.0000000E+00;  0.0000000E+00;  1.0000000E+03;  4.0000001E-01;  0.0000000E+00;0;  0.0000000E+00;  0.0000000E+00;  0.0000000E+00;0;  0.0000000E+00;  1.0000000E+04;  0.0000000E+00;  0.0000000E+00;  1.0000000E+04;  0.0000000E+00;  1.0000000E+04;  0.0000000E+00;  0.0000000E+00;  0.0000000E+00;  0.0000000E+00;
 -2.0000000E-01;  9.9999998E-03; -2.0000000E-01;49;  0.0000000E+00;  0.0000000E+00;  0.0000000E+00;  1.0000000E+03;  4.0000001E-01;  0.0000000E+00;0;  0.0000000E+00;  0.0000000E+00;  0.0000000E+00;0;  0.0000000E+00;  1.0000000E+04;  0.0000000E+00;  0.0000000E+00;  1.0000000E+04;  0.0000000E+00;  1.0000000E+04;  0.0000000E+00;  0.0000000E+00;  0.0000000E+00;  0.0000000E+00;
 -1.8000001E-01;  9.9999998E-03; -3.4000000E-01;83;  0.0000000E+00;  0.0000000E+00;  0.0000000E+00;  1.0000000E+03;  4.0000001E-01;  0.0000000E+00;0;  0.0000000E+00;  0.0000000E+00;  0.0000000E+00;0;  0.0000000E+00;  1.0000000E+04;  0.0000000E+00;  0.0000000E+00;  1.0000000E+04;  0.0000000E+00;  1.0000000E+04;  0.0000000E+00;  0.0000000E+00;  0.0000000E+00;  0.0000000E+00;
 -1.8000001E-01;  9.9999998E-03; -3.1999999E-01;84;  0.0000000E+00;  0.0000000E+00;  0.0000000E+00;  1.0000000E+03;  4.0000001E-01;  0.0000000E+00;0;  0.0000000E+00;  0.0000000E+00;  0.0000000E+00;0;  0.0000000E+00;  1.0000000E+04;  0.0000000E+00;  0.0000000E+00;  1.0000000E+04;  0.0000000E+00;  1.0000000E+04;  0.0000000E+00;  0.0000000E+00;  0.0000000E+00;  0.0000000E+00;
 -1.8000001E-01;  9.9999998E-03; -3.0000001E-01;85;  0.0000000E+00;  0.0000000E+00;  0.0000000E+00;  1.0000000E+03;  4.0000001E-01;  0.0000000E+00;0;  0.0000000E+00;  0.0000000E+00;  0.0000000E+00;0;  0.0000000E+00;  1.0000000E+04;  0.0000000E+00;  0.0000000E+00;  1.0000000E+04;  0.0000000E+00;  1.0000000E+04;  0.0000000E+00;  0.0000000E+00;  0.0000000E+00;  0.0000000E+00;
 -1.8000001E-01;  9.9999998E-03; -2.8000000E-01;86;  0.0000000E+00;  0.0000000E+00;  0.0000000E+00;  1.0000000E+03;  4.0000001E-01;  0.0000000E+00;0;  0.0000000E+00;  0.0000000E+00;  0.0000000E+00;0;  0.0000000E+00;  1.0000000E+04;  0.0000000E+00;  0.0000000E+00;  1.0000000E+04;  0.0000000E+00;  1.0000000E+04;  0.0000000E+00;  0.0000000E+00;  0.0000000E+00;  0.0000000E+00;
 -1.8000001E-01;  9.9999998E-03; -2.5999999E-01;87;  0.0000000E+00;  0.0000000E+00;  0.0000000E+00;  1.0000000E+03;  4.0000001E-01;  0.0000000E+00;0;  0.0000000E+00;  0.0000000E+00;  0.0000000E+00;0;  0.0000000E+00;  1.0000000E+04;  0.0000000E+00;  0.0000000E+00;  1.0000000E+04;  0.0000000E+00;  1.0000000E+04;  0.0000000E+00;  0.0000000E+00;  0.0000000E+00;  0.0000000E+00;
 -1.8000001E-01;  9.9999998E-03; -2.3999999E-01;88;  0.0000000E+00;  0.0000000E+00;  0.0000000E+00;  1.0000000E+03;  4.0000001E-01;  0.0000000E+00;0;  0.0000000E+00;  0.0000000E+00;  0.0000000E+00;0;  0.0000000E+00;  1.0000000E+04;  0.0000000E+00;  0.0000000E+00;  1.0000000E+04;  0.0000000E+00;  1.0000000E+04;  0.0000000E+00;  0.0000000E+00;  0.0000000E+00;  0.0000000E+00;
 -1.8000001E-01;  9.9999998E-03; -2.2000000E-01;89;  0.0000000E+00;  0.0000000E+00;  0.0000000E+00;  1.0000000E+03;  4.0000001E-01;  0.0000000E+00;0;  0.0000000E+00;  0.0000000E+00;  0.0000000E+00;0;  0.0000000E+00;  1.0000000E+04;  0.0000000E+00;  0.0000000E+00;  1.0000000E+04;  0.0000000E+00;  1.0000000E+04;  0.0000000E+00;  0.0000000E+00;  0.0000000E+00;  0.0000000E+00;
 -1.8000001E-01;  9.9999998E-03; -2.0000000E-01;90;  0.0000000E+00;  0.0000000E+00;  0.0000000E+00;  1.0000000E+03;  4.0000001E-01;  0.0000000E+00;0;  0.0000000E+00;  0.0000000E+00;  0.0000000E+00;0;  0.0000000E+00;  1.0000000E+04;  0.0000000E+00;  0.0000000E+00;  1.0000000E+04;  0.0000000E+00;  1.0000000E+04;  0.0000000E+00;  0.0000000E+00;  0.0000000E+00;  0.0000000E+00;
 -1.6000000E-01;  9.9999998E-03; -3.4000000E-01;124;  0.0000000E+00;  0.0000000E+00;  0.0000000E+00;  1.0000000E+03;  4.0000001E-01;  0.0000000E+00;0;  0.0000000E+00;  0.0000000E+00;  0.0000000E+00;0;  0.0000000E+00;  1.0000000E+04;  0.0000000E+00;  0.0000000E+00;  1.0000000E+04;  0.0000000E+00;  1.0000000E+04;  0.0000000E+00;  0.0000000E+00;  0.0000000E+00;  0.0000000E+00;
 -1.6000000E-01;  9.9999998E-03; -3.1999999E-01;125;  0.0000000E+00;  0.0000000E+00;  0.0000000E+00;  1.0000000E+03;  4.0000001E-01;  0.0000000E+00;0;  0.0000000E+00;  0.0000000E+00;  0.0000000E+00;0;  0.0000000E+00;  1.0000000E+04;  0.0000000E+00;  0.0000000E+00;  1.0000000E+04;  0.0000000E+00;  1.0000000E+04;  0.0000000E+00;  0.0000000E+00;  0.0000000E+00;  0.0000000E+00;
 -1.6000000E-01;  9.9999998E-03; -3.0000001E-01;126;  0.0000000E+00;  0.0000000E+00;  0.0000000E+00;  1.0000000E+03;  4.0000001E-01;  0.0000000E+00;0;  0.0000000E+00;  0.0000000E+00;  0.0000000E+00;0;  0.0000000E+00;  1.0000000E+04;  0.0000000E+00;  0.0000000E+00;  1.0000000E+04;  0.0000000E+00;  1.0000000E+04;  0.0000000E+00;  0.0000000E+00;  0.0000000E+00;  0.0000000E+00;
 -1.6000000E-01;  9.9999998E-03; -2.8000000E-01;127;  0.0000000E+00;  0.0000000E+00;  0.0000000E+00;  1.0000000E+03;  4.0000001E-01;  0.0000000E+00;0;  0.0000000E+00;  0.0000000E+00;  0.0000000E+00;0;  0.0000000E+00;  1.0000000E+04;  0.0000000E+00;  0.0000000E+00;  1.0000000E+04;  0.0000000E+00;  1.0000000E+04;  0.0000000E+00;  0.0000000E+00;  0.0000000E+00;  0.0000000E+00;
 -1.6000000E-01;  9.9999998E-03; -2.5999999E-01;128;  0.0000000E+00;  0.0000000E+00;  0.0000000E+00;  1.0000000E+03;  4.0000001E-01;  0.0000000E+00;0;  0.0000000E+00;  0.0000000E+00;  0.0000000E+00;0;  0.0000000E+00;  1.0000000E+04;  0.0000000E+00;  0.0000000E+00;  1.0000000E+04;  0.0000000E+00;  1.0000000E+04;  0.0000000E+00;  0.0000000E+00;  0.0000000E+00;  0.0000000E+00;
 -1.6000000E-01;  9.9999998E-03; -2.3999999E-01;129;  0.0000000E+00;  0.0000000E+00;  0.0000000E+00;  1.0000000E+03;  4.0000001E-01;  0.0000000E+00;0;  0.0000000E+00;  0.0000000E+00;  0.0000000E+00;0;  0.0000000E+00;  1.0000000E+04;  0.0000000E+00;  0.0000000E+00;  1.0000000E+04;  0.0000000E+00;  1.0000000E+04;  0.0000000E+00;  0.0000000E+00;  0.0000000E+00;  0.0000000E+00;
 -1.6000000E-01;  9.9999998E-03; -2.2000000E-01;130;  0.0000000E+00;  0.0000000E+00;  0.0000000E+00;  1.0000000E+03;  4.0000001E-01;  0.0000000E+00;0;  0.0000000E+00;  0.0000000E+00;  0.0000000E+00;0;  0.0000000E+00;  1.0000000E+04;  0.0000000E+00;  0.0000000E+00;  1.0000000E+04;  0.0000000E+00;  1.0000000E+04;  0.0000000E+00;  0.0000000E+00;  0.0000000E+00;  0.0000000E+00;
 -1.6000000E-01;  9.9999998E-03; -2.0000000E-01;131;  0.0000000E+00;  0.0000000E+00;  0.0000000E+00;  1.0000000E+03;  4.0000001E-01;  0.0000000E+00;0;  0.0000000E+00;  0.0000000E+00;  0.0000000E+00;0;  0.0000000E+00;  1.0000000E+04;  0.0000000E+00;  0.0000000E+00;  1.0000000E+04;  0.0000000E+00;  1.0000000E+04;  0.0000000E+00;  0.0000000E+00;  0.0000000E+00;  0.0000000E+00;
 -1.4000000E-01;  9.9999998E-03; -3.4000000E-01;165;  0.0000000E+00;  0.0000000E+00;  0.0000000E+00;  1.0000000E+03;  4.0000001E-01;  0.0000000E+00;0;  0.0000000E+00;  0.0000000E+00;  0.0000000E+00;0;  0.0000000E+00;  1.0000000E+04;  0.0000000E+00;  0.0000000E+00;  1.0000000E+04;  0.0000000E+00;  1.0000000E+04;  0.0000000E+00;  0.0000000E+00;  0.0000000E+00;  0.0000000E+00;
 -1.4000000E-01;  9.9999998E-03; -3.1999999E-01;166;  0.0000000E+00;  0.0000000E+00;  0.0000000E+00;  1.0000000E+03;  4.0000001E-01;  0.0000000E+00;0;  0.0000000E+00;  0.0000000E+00;  0.0000000E+00;0;  0.0000000E+00;  1.0000000E+04;  0.0000000E+00;  0.0000000E+00;  1.0000000E+04;  0.0000000E+00;  1.0000000E+04;  0.0000000E+00;  0.0000000E+00;  0.0000000E+00;  0.0000000E+00;
 -1.4000000E-01;  9.9999998E-03; -3.0000001E-01;167;  0.0000000E+00;  0.0000000E+00;  0.0000000E+00;  1.0000000E+03;  4.0000001E-01;  0.0000000E+00;0;  0.0000000E+00;  0.0000000E+00;  0.0000000E+00;0;  0.0000000E+00;  1.0000000E+04;  0.0000000E+00;  0.0000000E+00;  1.0000000E+04;  0.0000000E+00;  1.0000000E+04;  0.0000000E+00;  0.0000000E+00;  0.0000000E+00;  0.0000000E+00;
 -1.4000000E-01;  9.9999998E-03; -2.8000000E-01;168;  0.0000000E+00;  0.0000000E+00;  0.0000000E+00;  1.0000000E+03;  4.0000001E-01;  0.0000000E+00;0;  0.0000000E+00;  0.0000000E+00;  0.0000000E+00;0;  0.0000000E+00;  1.0000000E+04;  0.0000000E+00;  0.0000000E+00;  1.0000000E+04;  0.0000000E+00;  1.0000000E+04;  0.0000000E+00;  0.0000000E+00;  0.0000000E+00;  0.0000000E+00;
 -1.4000000E-01;  9.9999998E-03; -2.5999999E-01;169;  0.0000000E+00;  0.0000000E+00;  0.0000000E+00;  1.0000000E+03;  4.0000001E-01;  0.0000000E+00;0;  0.0000000E+00;  0.0000000E+00;  0.0000000E+00;0;  0.0000000E+00;  1.0000000E+04;  0.0000000E+00;  0.0000000E+00;  1.0000000E+04;  0.0000000E+00;  1.0000000E+04;  0.0000000E+00;  0.0000000E+00;  0.0000000E+00;  0.0000000E+00;
 -1.4000000E-01;  9.9999998E-03; -2.3999999E-01;170;  0.0000000E+00;  0.0000000E+00;  0.0000000E+00;  1.0000000E+03;  4.0000001E-01;  0.0000000E+00;0;  0.0000000E+00;  0.0000000E+00;  0.0000000E+00;0;  0.0000000E+00;  1.0000000E+04;  0.0000000E+00;  0.0000000E+00;  1.0000000E+04;  0.0000000E+00;  1.0000000E+04;  0.0000000E+00;  0.0000000E+00;  0.0000000E+00;  0.0000000E+00;
 -1.4000000E-01;  9.9999998E-03; -2.2000000E-01;171;  0.0000000E+00;  0.0000000E+00;  0.0000000E+00;  1.0000000E+03;  4.0000001E-01;  0.0000000E+00;0;  0.0000000E+00;  0.0000000E+00;  0.0000000E+00;0;  0.0000000E+00;  1.0000000E+04;  0.0000000E+00;  0.0000000E+00;  1.0000000E+04;  0.0000000E+00;  1.0000000E+04;  0.0000000E+00;  0.0000000E+00;  0.0000000E+00;  0.0000000E+00;
 -1.4000000E-01;  9.9999998E-03; -2.0000000E-01;172;  0.0000000E+00;  0.0000000E+00;  0.0000000E+00;  1.0000000E+03;  4.0000001E-01;  0.0000000E+00;0;  0.0000000E+00;  0.0000000E+00;  0.0000000E+00;0;  0.0000000E+00;  1.0000000E+04;  0.0000000E+00;  0.0000000E+00;  1.0000000E+04;  0.0000000E+00;  1.0000000E+04;  0.0000000E+00;  0.0000000E+00;  0.0000000E+00;  0.0000000E+00;
 -1.2000000E-01;  9.9999998E-03; -3.4000000E-01;206;  0.0000000E+00;  0.0000000E+00;  0.0000000E+00;  1.0000000E+03;  4.0000001E-01;  0.0000000E+00;0;  0.0000000E+00;  0.0000000E+00;  0.0000000E+00;0;  0.0000000E+00;  1.0000000E+04;  0.0000000E+00;  0.0000000E+00;  1.0000000E+04;  0.0000000E+00;  1.0000000E+04;  0.0000000E+00;  0.0000000E+00;  0.0000000E+00;  0.0000000E+00;
 -1.2000000E-01;  9.9999998E-03; -3.1999999E-01;207;  0.0000000E+00;  0.0000000E+00;  0.0000000E+00;  1.0000000E+03;  4.0000001E-01;  0.0000000E+00;0;  0.0000000E+00;  0.0000000E+00;  0.0000000E+00;0;  0.0000000E+00;  1.0000000E+04;  0.0000000E+00;  0.0000000E+00;  1.0000000E+04;  0.0000000E+00;  1.0000000E+04;  0.0000000E+00;  0.0000000E+00;  0.0000000E+00;  0.0000000E+00;
 -1.2000000E-01;  9.9999998E-03; -3.0000001E-01;208;  0.0000000E+00;  0.0000000E+00;  0.0000000E+00;  1.0000000E+03;  4.0000001E-01;  0.0000000E+00;0;  0.0000000E+00;  0.0000000E+00;  0.0000000E+00;0;  0.0000000E+00;  1.0000000E+04;  0.0000000E+00;  0.0000000E+00;  1.0000000E+04;  0.0000000E+00;  1.0000000E+04;  0.0000000E+00;  0.0000000E+00;  0.0000000E+00;  0.0000000E+00;
 -1.2000000E-01;  9.9999998E-03; -2.8000000E-01;209;  0.0000000E+00;  0.0000000E+00;  0.0000000E+00;  1.0000000E+03;  4.0000001E-01;  0.0000000E+00;0;  0.0000000E+00;  0.0000000E+00;  0.0000000E+00;0;  0.0000000E+00;  1.0000000E+04;  0.0000000E+00;  0.0000000E+00;  1.0000000E+04;  0.0000000E+00;  1.0000000E+04;  0.0000000E+00;  0.0000000E+00;  0.0000000E+00;  0.0000000E+00;
 -1.2000000E-01;  9.9999998E-03; -2.5999999E-01;210;  0.0000000E+00;  0.0000000E+00;  0.0000000E+00;  1.0000000E+03;  4.0000001E-01;  0.0000000E+00;0;  0.0000000E+00;  0.0000000E+00;  0.0000000E+00;0;  0.0000000E+00;  1.0000000E+04;  0.0000000E+00;  0.0000000E+00;  1.0000000E+04;  0.0000000E+00;  1.0000000E+04;  0.0000000E+00;  0.0000000E+00;  0.0000000E+00;  0.0000000E+00;
 -1.2000000E-01;  9.9999998E-03; -2.3999999E-01;211;  0.0000000E+00;  0.0000000E+00;  0.0000000E+00;  1.0000000E+03;  4.0000001E-01;  0.0000000E+00;0;  0.0000000E+00;  0.0000000E+00;  0.0000000E+00;0;  0.0000000E+00;  1.0000000E+04;  0.0000000E+00;  0.0000000E+00;  1.0000000E+04;  0.0000000E+00;  1.0000000E+04;  0.0000000E+00;  0.0000000E+00;  0.0000000E+00;  0.0000000E+00;
 -1.2000000E-01;  9.9999998E-03; -2.2000000E-01;212;  0.0000000E+00;  0.0000000E+00;  0.0000000E+00;  1.0000000E+03;  4.0000001E-01;  0.0000000E+00;0;  0.0000000E+00;  0.0000000E+00;  0.0000000E+00;0;  0.0000000E+00;  1.0000000E+04;  0.0000000E+00;  0.0000000E+00;  1.0000000E+04;  0.0000000E+00;  1.0000000E+04;  0.0000000E+00;  0.0000000E+00;  0.0000000E+00;  0.0000000E+00;
 -1.2000000E-01;  9.9999998E-03; -2.0000000E-01;213;  0.0000000E+00;  0.0000000E+00;  0.0000000E+00;  1.0000000E+03;  4.0000001E-01;  0.0000000E+00;0;  0.0000000E+00;  0.0000000E+00;  0.0000000E+00;0;  0.0000000E+00;  1.0000000E+04;  0.0000000E+00;  0.0000000E+00;  1.0000000E+04;  0.0000000E+00;  1.0000000E+04;  0.0000000E+00;  0.0000000E+00;  0.0000000E+00;  0.0000000E+00;
 -1.0000000E-01;  9.9999998E-03; -3.4000000E-01;247;  0.0000000E+00;  0.0000000E+00;  0.0000000E+00;  1.0000000E+03;  4.0000001E-01;  0.0000000E+00;0;  0.0000000E+00;  0.0000000E+00;  0.0000000E+00;0;  0.0000000E+00;  1.0000000E+04;  0.0000000E+00;  0.0000000E+00;  1.0000000E+04;  0.0000000E+00;  1.0000000E+04;  0.0000000E+00;  0.0000000E+00;  0.0000000E+00;  0.0000000E+00;
 -1.0000000E-01;  9.9999998E-03; -3.1999999E-01;248;  0.0000000E+00;  0.0000000E+00;  0.0000000E+00;  1.0000000E+03;  4.0000001E-01;  0.0000000E+00;0;  0.0000000E+00;  0.0000000E+00;  0.0000000E+00;0;  0.0000000E+00;  1.0000000E+04;  0.0000000E+00;  0.0000000E+00;  1.0000000E+04;  0.0000000E+00;  1.0000000E+04;  0.0000000E+00;  0.0000000E+00;  0.0000000E+00;  0.0000000E+00;
 -1.0000000E-01;  9.9999998E-03; -3.0000001E-01;249;  0.0000000E+00;  0.0000000E+00;  0.0000000E+00;  1.0000000E+03;  4.0000001E-01;  0.0000000E+00;0;  0.0000000E+00;  0.0000000E+00;  0.0000000E+00;0;  0.0000000E+00;  1.0000000E+04;  0.0000000E+00;  0.0000000E+00;  1.0000000E+04;  0.0000000E+00;  1.0000000E+04;  0.0000000E+00;  0.0000000E+00;  0.0000000E+00;  0.0000000E+00;
 -1.0000000E-01;  9.9999998E-03; -2.8000000E-01;250;  0.0000000E+00;  0.0000000E+00;  0.0000000E+00;  1.0000000E+03;  4.0000001E-01;  0.0000000E+00;0;  0.0000000E+00;  0.0000000E+00;  0.0000000E+00;0;  0.0000000E+00;  1.0000000E+04;  0.0000000E+00;  0.0000000E+00;  1.0000000E+04;  0.0000000E+00;  1.0000000E+04;  0.0000000E+00;  0.0000000E+00;  0.0000000E+00;  0.0000000E+00;
 -1.0000000E-01;  9.9999998E-03; -2.5999999E-01;251;  0.0000000E+00;  0.0000000E+00;  0.0000000E+00;  1.0000000E+03;  4.0000001E-01;  0.0000000E+00;0;  0.0000000E+00;  0.0000000E+00;  0.0000000E+00;0;  0.0000000E+00;  1.0000000E+04;  0.0000000E+00;  0.0000000E+00;  1.0000000E+04;  0.0000000E+00;  1.0000000E+04;  0.0000000E+00;  0.0000000E+00;  0.0000000E+00;  0.0000000E+00;
 -1.0000000E-01;  9.9999998E-03; -2.3999999E-01;252;  0.0000000E+00;  0.0000000E+00;  0.0000000E+00;  1.0000000E+03;  4.0000001E-01;  0.0000000E+00;0;  0.0000000E+00;  0.0000000E+00;  0.0000000E+00;0;  0.0000000E+00;  1.0000000E+04;  0.0000000E+00;  0.0000000E+00;  1.0000000E+04;  0.0000000E+00;  1.0000000E+04;  0.0000000E+00;  0.0000000E+00;  0.0000000E+00;  0.0000000E+00;
 -1.0000000E-01;  9.9999998E-03; -2.2000000E-01;253;  0.0000000E+00;  0.0000000E+00;  0.0000000E+00;  1.0000000E+03;  4.0000001E-01;  0.0000000E+00;0;  0.0000000E+00;  0.0000000E+00;  0.0000000E+00;0;  0.0000000E+00;  1.0000000E+04;  0.0000000E+00;  0.0000000E+00;  1.0000000E+04;  0.0000000E+00;  1.0000000E+04;  0.0000000E+00;  0.0000000E+00;  0.0000000E+00;  0.0000000E+00;
 -1.0000000E-01;  9.9999998E-03; -2.0000000E-01;254;  0.0000000E+00;  0.0000000E+00;  0.0000000E+00;  1.0000000E+03;  4.0000001E-01;  0.0000000E+00;0;  0.0000000E+00;  0.0000000E+00;  0.0000000E+00;0;  0.0000000E+00;  1.0000000E+04;  0.0000000E+00;  0.0000000E+00;  1.0000000E+04;  0.0000000E+00;  1.0000000E+04;  0.0000000E+00;  0.0000000E+00;  0.0000000E+00;  0.0000000E+00;
 -7.9999998E-02;  9.9999998E-03; -3.4000000E-01;288;  0.0000000E+00;  0.0000000E+00;  0.0000000E+00;  1.0000000E+03;  4.0000001E-01;  0.0000000E+00;0;  0.0000000E+00;  0.0000000E+00;  0.0000000E+00;0;  0.0000000E+00;  1.0000000E+04;  0.0000000E+00;  0.0000000E+00;  1.0000000E+04;  0.0000000E+00;  1.0000000E+04;  0.0000000E+00;  0.0000000E+00;  0.0000000E+00;  0.0000000E+00;
 -7.9999998E-02;  9.9999998E-03; -3.1999999E-01;289;  0.0000000E+00;  0.0000000E+00;  0.0000000E+00;  1.0000000E+03;  4.0000001E-01;  0.0000000E+00;0;  0.0000000E+00;  0.0000000E+00;  0.0000000E+00;0;  0.0000000E+00;  1.0000000E+04;  0.0000000E+00;  0.0000000E+00;  1.0000000E+04;  0.0000000E+00;  1.0000000E+04;  0.0000000E+00;  0.0000000E+00;  0.0000000E+00;  0.0000000E+00;
 -7.9999998E-02;  9.9999998E-03; -3.0000001E-01;290;  0.0000000E+00;  0.0000000E+00;  0.0000000E+00;  1.0000000E+03;  4.0000001E-01;  0.0000000E+00;0;  0.0000000E+00;  0.0000000E+00;  0.0000000E+00;0;  0.0000000E+00;  1.0000000E+04;  0.0000000E+00;  0.0000000E+00;  1.0000000E+04;  0.0000000E+00;  1.0000000E+04;  0.0000000E+00;  0.0000000E+00;  0.0000000E+00;  0.0000000E+00;
 -7.9999998E-02;  9.9999998E-03; -2.8000000E-01;291;  0.0000000E+00;  0.0000000E+00;  0.0000000E+00;  1.0000000E+03;  4.0000001E-01;  0.0000000E+00;0;  0.0000000E+00;  0.0000000E+00;  0.0000000E+00;0;  0.0000000E+00;  1.0000000E+04;  0.0000000E+00;  0.0000000E+00;  1.0000000E+04;  0.0000000E+00;  1.0000000E+04;  0.0000000E+00;  0.0000000E+00;  0.0000000E+00;  0.0000000E+00;
 -7.9999998E-02;  9.9999998E-03; -2.5999999E-01;292;  0.0000000E+00;  0.0000000E+00;  0.0000000E+00;  1.0000000E+03;  4.0000001E-01;  0.0000000E+00;0;  0.0000000E+00;  0.0000000E+00;  0.0000000E+00;0;  0.0000000E+00;  1.0000000E+04;  0.0000000E+00;  0.0000000E+00;  1.0000000E+04;  0.0000000E+00;  1.0000000E+04;  0.0000000E+00;  0.0000000E+00;  0.0000000E+00;  0.0000000E+00;
 -7.9999998E-02;  9.9999998E-03; -2.3999999E-01;293;  0.0000000E+00;  0.0000000E+00;  0.0000000E+00;  1.0000000E+03;  4.0000001E-01;  0.0000000E+00;0;  0.0000000E+00;  0.0000000E+00;  0.0000000E+00;0;  0.0000000E+00;  1.0000000E+04;  0.0000000E+00;  0.0000000E+00;  1.0000000E+04;  0.0000000E+00;  1.0000000E+04;  0.0000000E+00;  0.0000000E+00;  0.0000000E+00;  0.0000000E+00;
 -7.9999998E-02;  9.9999998E-03; -2.2000000E-01;294;  0.0000000E+00;  0.0000000E+00;  0.0000000E+00;  1.0000000E+03;  4.0000001E-01;  0.0000000E+00;0;  0.0000000E+00;  0.0000000E+00;  0.0000000E+00;0;  0.0000000E+00;  1.0000000E+04;  0.0000000E+00;  0.0000000E+00;  1.0000000E+04;  0.0000000E+00;  1.0000000E+04;  0.0000000E+00;  0.0000000E+00;  0.0000000E+00;  0.0000000E+00;
 -7.9999998E-02;  9.9999998E-03; -2.0000000E-01;295;  0.0000000E+00;  0.0000000E+00;  0.0000000E+00;  1.0000000E+03;  4.0000001E-01;  0.0000000E+00;0;  0.0000000E+00;  0.0000000E+00;  0.0000000E+00;0;  0.0000000E+00;  1.0000000E+04;  0.0000000E+00;  0.0000000E+00;  1.0000000E+04;  0.0000000E+00;  1.0000000E+04;  0.0000000E+00;  0.0000000E+00;  0.0000000E+00;  0.0000000E+00;
 -5.9999999E-02;  9.9999998E-03; -3.4000000E-01;329;  0.0000000E+00;  0.0000000E+00;  0.0000000E+00;  1.0000000E+03;  4.0000001E-01;  0.0000000E+00;0;  0.0000000E+00;  0.0000000E+00;  0.0000000E+00;0;  0.0000000E+00;  1.0000000E+04;  0.0000000E+00;  0.0000000E+00;  1.0000000E+04;  0.0000000E+00;  1.0000000E+04;  0.0000000E+00;  0.0000000E+00;  0.0000000E+00;  0.0000000E+00;
 -5.9999999E-02;  9.9999998E-03; -3.1999999E-01;330;  0.0000000E+00;  0.0000000E+00;  0.0000000E+00;  1.0000000E+03;  4.0000001E-01;  0.0000000E+00;0;  0.0000000E+00;  0.0000000E+00;  0.0000000E+00;0;  0.0000000E+00;  1.0000000E+04;  0.0000000E+00;  0.0000000E+00;  1.0000000E+04;  0.0000000E+00;  1.0000000E+04;  0.0000000E+00;  0.0000000E+00;  0.0000000E+00;  0.0000000E+00;
 -5.9999999E-02;  9.9999998E-03; -3.0000001E-01;331;  0.0000000E+00;  0.0000000E+00;  0.0000000E+00;  1.0000000E+03;  4.0000001E-01;  0.0000000E+00;0;  0.0000000E+00;  0.0000000E+00;  0.0000000E+00;0;  0.0000000E+00;  1.0000000E+04;  0.0000000E+00;  0.0000000E+00;  1.0000000E+04;  0.0000000E+00;  1.0000000E+04;  0.0000000E+00;  0.0000000E+00;  0.0000000E+00;  0.0000000E+00;
 -5.9999999E-02;  9.9999998E-03; -2.8000000E-01;332;  0.0000000E+00;  0.0000000E+00;  0.0000000E+00;  1.0000000E+03;  4.0000001E-01;  0.0000000E+00;0;  0.0000000E+00;  0.0000000E+00;  0.0000000E+00;0;  0.0000000E+00;  1.0000000E+04;  0.0000000E+00;  0.0000000E+00;  1.0000000E+04;  0.0000000E+00;  1.0000000E+04;  0.0000000E+00;  0.0000000E+00;  0.0000000E+00;  0.0000000E+00;
 -5.9999999E-02;  9.9999998E-03; -2.5999999E-01;333;  0.0000000E+00;  0.0000000E+00;  0.0000000E+00;  1.0000000E+03;  4.0000001E-01;  0.0000000E+00;0;  0.0000000E+00;  0.0000000E+00;  0.0000000E+00;0;  0.0000000E+00;  1.0000000E+04;  0.0000000E+00;  0.0000000E+00;  1.0000000E+04;  0.0000000E+00;  1.0000000E+04;  0.0000000E+00;  0.0000000E+00;  0.0000000E+00;  0.0000000E+00;
 -5.9999999E-02;  9.9999998E-03; -2.3999999E-01;334;  0.0000000E+00;  0.0000000E+00;  0.0000000E+00;  1.0000000E+03;  4.0000001E-01;  0.0000000E+00;0;  0.0000000E+00;  0.0000000E+00;  0.0000000E+00;0;  0.0000000E+00;  1.0000000E+04;  0.0000000E+00;  0.0000000E+00;  1.0000000E+04;  0.0000000E+00;  1.0000000E+04;  0.0000000E+00;  0.0000000E+00;  0.0000000E+00;  0.0000000E+00;
 -5.9999999E-02;  9.9999998E-03; -2.2000000E-01;335;  0.0000000E+00;  0.0000000E+00;  0.0000000E+00;  1.0000000E+03;  4.0000001E-01;  0.0000000E+00;0;  0.0000000E+00;  0.0000000E+00;  0.0000000E+00;0;  0.0000000E+00;  1.0000000E+04;  0.0000000E+00;  0.0000000E+00;  1.0000000E+04;  0.0000000E+00;  1.0000000E+04;  0.0000000E+00;  0.0000000E+00;  0.0000000E+00;  0.0000000E+00;
 -5.9999999E-02;  9.9999998E-03; -2.0000000E-01;336;  0.0000000E+00;  0.0000000E+00;  0.0000000E+00;  1.0000000E+03;  4.0000001E-01;  0.0000000E+00;0;  0.0000000E+00;  0.0000000E+00;  0.0000000E+00;0;  0.0000000E+00;  1.0000000E+04;  0.0000000E+00;  0.0000000E+00;  1.0000000E+04;  0.0000000E+00;  1.0000000E+04;  0.0000000E+00;  0.0000000E+00;  0.0000000E+00;  0.0000000E+00;
 -3.9999999E-02;  9.9999998E-03; -3.4000000E-01;370;  0.0000000E+00;  0.0000000E+00;  0.0000000E+00;  1.0000000E+03;  4.0000001E-01;  0.0000000E+00;0;  0.0000000E+00;  0.0000000E+00;  0.0000000E+00;0;  0.0000000E+00;  1.0000000E+04;  0.0000000E+00;  0.0000000E+00;  1.0000000E+04;  0.0000000E+00;  1.0000000E+04;  0.0000000E+00;  0.0000000E+00;  0.0000000E+00;  0.0000000E+00;
 -3.9999999E-02;  9.9999998E-03; -3.1999999E-01;371;  0.0000000E+00;  0.0000000E+00;  0.0000000E+00;  1.0000000E+03;  4.0000001E-01;  0.0000000E+00;0;  0.0000000E+00;  0.0000000E+00;  0.0000000E+00;0;  0.0000000E+00;  1.0000000E+04;  0.0000000E+00;  0.0000000E+00;  1.0000000E+04;  0.0000000E+00;  1.0000000E+04;  0.0000000E+00;  0.0000000E+00;  0.0000000E+00;  0.0000000E+00;
 -3.9999999E-02;  9.9999998E-03; -3.0000001E-01;372;  0.0000000E+00;  0.0000000E+00;  0.0000000E+00;  1.0000000E+03;  4.0000001E-01;  0.0000000E+00;0;  0.0000000E+00;  0.0000000E+00;  0.0000000E+00;0;  0.0000000E+00;  1.0000000E+04;  0.0000000E+00;  0.0000000E+00;  1.0000000E+04;  0.0000000E+00;  1.0000000E+04;  0.0000000E+00;  0.0000000E+00;  0.0000000E+00;  0.0000000E+00;
 -3.9999999E-02;  9.9999998E-03; -2.8000000E-01;373;  0.0000000E+00;  0.0000000E+00;  0.0000000E+00;  1.0000000E+03;  4.0000001E-01;  0.0000000E+00;0;  0.0000000E+00;  0.0000000E+00;  0.0000000E+00;0;  0.0000000E+00;  1.0000000E+04;  0.0000000E+00;  0.0000000E+00;  1.0000000E+04;  0.0000000E+00;  1.0000000E+04;  0.0000000E+00;  0.0000000E+00;  0.0000000E+00;  0.0000000E+00;
 -3.9999999E-02;  9.9999998E-03; -2.5999999E-01;374;  0.0000000E+00;  0.0000000E+00;  0.0000000E+00;  1.0000000E+03;  4.0000001E-01;  0.0000000E+00;0;  0.0000000E+00;  0.0000000E+00;  0.0000000E+00;0;  0.0000000E+00;  1.0000000E+04;  0.0000000E+00;  0.0000000E+00;  1.0000000E+04;  0.0000000E+00;  1.0000000E+04;  0.0000000E+00;  0.0000000E+00;  0.0000000E+00;  0.0000000E+00;
 -3.9999999E-02;  9.9999998E-03; -2.3999999E-01;375;  0.0000000E+00;  0.0000000E+00;  0.0000000E+00;  1.0000000E+03;  4.0000001E-01;  0.0000000E+00;0;  0.0000000E+00;  0.0000000E+00;  0.0000000E+00;0;  0.0000000E+00;  1.0000000E+04;  0.0000000E+00;  0.0000000E+00;  1.0000000E+04;  0.0000000E+00;  1.0000000E+04;  0.0000000E+00;  0.0000000E+00;  0.0000000E+00;  0.0000000E+00;
 -3.9999999E-02;  9.9999998E-03; -2.2000000E-01;376;  0.0000000E+00;  0.0000000E+00;  0.0000000E+00;  1.0000000E+03;  4.0000001E-01;  0.0000000E+00;0;  0.0000000E+00;  0.0000000E+00;  0.0000000E+00;0;  0.0000000E+00;  1.0000000E+04;  0.0000000E+00;  0.0000000E+00;  1.0000000E+04;  0.0000000E+00;  1.0000000E+04;  0.0000000E+00;  0.0000000E+00;  0.0000000E+00;  0.0000000E+00;
 -3.9999999E-02;  9.9999998E-03; -2.0000000E-01;377;  0.0000000E+00;  0.0000000E+00;  0.0000000E+00;  1.0000000E+03;  4.0000001E-01;  0.0000000E+00;0;  0.0000000E+00;  0.0000000E+00;  0.0000000E+00;0;  0.0000000E+00;  1.0000000E+04;  0.0000000E+00;  0.0000000E+00;  1.0000000E+04;  0.0000000E+00;  1.0000000E+04;  0.0000000E+00;  0.0000000E+00;  0.0000000E+00;  0.0000000E+00;
 -2.0000000E-02;  9.9999998E-03; -3.4000000E-01;411;  0.0000000E+00;  0.0000000E+00;  0.0000000E+00;  1.0000000E+03;  4.0000001E-01;  0.0000000E+00;0;  0.0000000E+00;  0.0000000E+00;  0.0000000E+00;0;  0.0000000E+00;  1.0000000E+04;  0.0000000E+00;  0.0000000E+00;  1.0000000E+04;  0.0000000E+00;  1.0000000E+04;  0.0000000E+00;  0.0000000E+00;  0.0000000E+00;  0.0000000E+00;
 -2.0000000E-02;  9.9999998E-03; -3.1999999E-01;412;  0.0000000E+00;  0.0000000E+00;  0.0000000E+00;  1.0000000E+03;  4.0000001E-01;  0.0000000E+00;0;  0.0000000E+00;  0.0000000E+00;  0.0000000E+00;0;  0.0000000E+00;  1.0000000E+04;  0.0000000E+00;  0.0000000E+00;  1.0000000E+04;  0.0000000E+00;  1.0000000E+04;  0.0000000E+00;  0.0000000E+00;  0.0000000E+00;  0.0000000E+00;
 -2.0000000E-02;  9.9999998E-03; -3.0000001E-01;413;  0.0000000E+00;  0.0000000E+00;  0.0000000E+00;  1.0000000E+03;  4.0000001E-01;  0.0000000E+00;0;  0.0000000E+00;  0.0000000E+00;  0.0000000E+00;0;  0.0000000E+00;  1.0000000E+04;  0.0000000E+00;  0.0000000E+00;  1.0000000E+04;  0.0000000E+00;  1.0000000E+04;  0.0000000E+00;  0.0000000E+00;  0.0000000E+00;  0.0000000E+00;
 -2.0000000E-02;  9.9999998E-03; -2.8000000E-01;414;  0.0000000E+00;  0.0000000E+00;  0.0000000E+00;  1.0000000E+03;  4.0000001E-01;  0.0000000E+00;0;  0.0000000E+00;  0.0000000E+00;  0.0000000E+00;0;  0.0000000E+00;  1.0000000E+04;  0.0000000E+00;  0.0000000E+00;  1.0000000E+04;  0.0000000E+00;  1.0000000E+04;  0.0000000E+00;  0.0000000E+00;  0.0000000E+00;  0.0000000E+00;
 -2.0000000E-02;  9.9999998E-03; -2.5999999E-01;415;  0.0000000E+00;  0.0000000E+00;  0.0000000E+00;  1.0000000E+03;  4.0000001E-01;  0.0000000E+00;0;  0.0000000E+00;  0.0000000E+00;  0.0000000E+00;0;  0.0000000E+00;  1.0000000E+04;  0.0000000E+00;  0.0000000E+00;  1.0000000E+04;  0.0000000E+00;  1.0000000E+04;  0.0000000E+00;  0.0000000E+00;  0.0000000E+00;  0.0000000E+00;
 -2.0000000E-02;  9.9999998E-03; -2.3999999E-01;416;  0.0000000E+00;  0.0000000E+00;  0.0000000E+00;  1.0000000E+03;  4.0000001E-01;  0.0000000E+00;0;  0.0000000E+00;  0.0000000E+00;  0.0000000E+00;0;  0.0000000E+00;  1.0000000E+04;  0.0000000E+00;  0.0000000E+00;  1.0000000E+04;  0.0000000E+00;  1.0000000E+04;  0.0000000E+00;  0.0000000E+00;  0.0000000E+00;  0.0000000E+00;
 -2.0000000E-02;  9.9999998E-03; -2.2000000E-01;417;  0.0000000E+00;  0.0000000E+00;  0.0000000E+00;  1.0000000E+03;  4.0000001E-01;  0.0000000E+00;0;  0.0000000E+00;  0.0000000E+00;  0.0000000E+00;0;  0.0000000E+00;  1.0000000E+04;  0.0000000E+00;  0.0000000E+00;  1.0000000E+04;  0.0000000E+00;  1.0000000E+04;  0.0000000E+00;  0.0000000E+00;  0.0000000E+00;  0.0000000E+00;
 -2.0000000E-02;  9.9999998E-03; -2.0000000E-01;418;  0.0000000E+00;  0.0000000E+00;  0.0000000E+00;  1.0000000E+03;  4.0000001E-01;  0.0000000E+00;0;  0.0000000E+00;  0.0000000E+00;  0.0000000E+00;0;  0.0000000E+00;  1.0000000E+04;  0.0000000E+00;  0.0000000E+00;  1.0000000E+04;  0.0000000E+00;  1.0000000E+04;  0.0000000E+00;  0.0000000E+00;  0.0000000E+00;  0.0000000E+00;
  0.0000000E+00;  9.9999998E-03; -3.4000000E-01;452;  0.0000000E+00;  0.0000000E+00;  0.0000000E+00;  1.0000000E+03;  4.0000001E-01;  0.0000000E+00;0;  0.0000000E+00;  0.0000000E+00;  0.0000000E+00;0;  0.0000000E+00;  1.0000000E+04;  0.0000000E+00;  0.0000000E+00;  1.0000000E+04;  0.0000000E+00;  1.0000000E+04;  0.0000000E+00;  0.0000000E+00;  0.0000000E+00;  0.0000000E+00;
  0.0000000E+00;  9.9999998E-03; -3.1999999E-01;453;  0.0000000E+00;  0.0000000E+00;  0.0000000E+00;  1.0000000E+03;  4.0000001E-01;  0.0000000E+00;0;  0.0000000E+00;  0.0000000E+00;  0.0000000E+00;0;  0.0000000E+00;  1.0000000E+04;  0.0000000E+00;  0.0000000E+00;  1.0000000E+04;  0.0000000E+00;  1.0000000E+04;  0.0000000E+00;  0.0000000E+00;  0.0000000E+00;  0.0000000E+00;
  0.0000000E+00;  9.9999998E-03; -3.0000001E-01;454;  0.0000000E+00;  0.0000000E+00;  0.0000000E+00;  1.0000000E+03;  4.0000001E-01;  0.0000000E+00;0;  0.0000000E+00;  0.0000000E+00;  0.0000000E+00;0;  0.0000000E+00;  1.0000000E+04;  0.0000000E+00;  0.0000000E+00;  1.0000000E+04;  0.0000000E+00;  1.0000000E+04;  0.0000000E+00;  0.0000000E+00;  0.0000000E+00;  0.0000000E+00;
  2.0000000E-02;  9.9999998E-03; -3.4000000E-01;464;  0.0000000E+00;  0.0000000E+00;  0.0000000E+00;  1.0000000E+03;  4.0000001E-01;  0.0000000E+00;0;  0.0000000E+00;  0.0000000E+00;  0.0000000E+00;0;  0.0000000E+00;  1.0000000E+04;  0.0000000E+00;  0.0000000E+00;  1.0000000E+04;  0.0000000E+00;  1.0000000E+04;  0.0000000E+00;  0.0000000E+00;  0.0000000E+00;  0.0000000E+00;
  2.0000000E-02;  9.9999998E-03; -3.1999999E-01;465;  0.0000000E+00;  0.0000000E+00;  0.0000000E+00;  1.0000000E+03;  4.0000001E-01;  0.0000000E+00;0;  0.0000000E+00;  0.0000000E+00;  0.0000000E+00;0;  0.0000000E+00;  1.0000000E+04;  0.0000000E+00;  0.0000000E+00;  1.0000000E+04;  0.0000000E+00;  1.0000000E+04;  0.0000000E+00;  0.0000000E+00;  0.0000000E+00;  0.0000000E+00;
  3.9999999E-02;  9.9999998E-03; -3.4000000E-01;474;  0.0000000E+00;  0.0000000E+00;  0.0000000E+00;  1.0000000E+03;  4.0000001E-01;  0.0000000E+00;0;  0.0000000E+00;  0.0000000E+00;  0.0000000E+00;0;  0.0000000E+00;  1.0000000E+04;  0.0000000E+00;  0.0000000E+00;  1.0000000E+04;  0.0000000E+00;  1.0000000E+04;  0.0000000E+00;  0.0000000E+00;  0.0000000E+00;  0.0000000E+00;
  3.9999999E-02;  9.9999998E-03; -3.1999999E-01;475;  0.0000000E+00;  0.0000000E+00;  0.0000000E+00;  1.0000000E+03;  4.0000001E-01;  0.0000000E+00;0;  0.0000000E+00;  0.0000000E+00;  0.0000000E+00;0;  0.0000000E+00;  1.0000000E+04;  0.0000000E+00;  0.0000000E+00;  1.0000000E+04;  0.0000000E+00;  1.0000000E+04;  0.0000000E+00;  0.0000000E+00;  0.0000000E+00;  0.0000000E+00;
  5.9999999E-02;  9.9999998E-03; -3.4000000E-01;484;  0.0000000E+00;  0.0000000E+00;  0.0000000E+00;  1.0000000E+03;  4.0000001E-01;  0.0000000E+00;0;  0.0000000E+00;  0.0000000E+00;  0.0000000E+00;0;  0.0000000E+00;  1.0000000E+04;  0.0000000E+00;  0.0000000E+00;  1.0000000E+04;  0.0000000E+00;  1.0000000E+04;  0.0000000E+00;  0.0000000E+00;  0.0000000E+00;  0.0000000E+00;
  5.9999999E-02;  9.9999998E-03; -3.1999999E-01;485;  0.0000000E+00;  0.0000000E+00;  0.0000000E+00;  1.0000000E+03;  4.0000001E-01;  0.0000000E+00;0;  0.0000000E+00;  0.0000000E+00;  0.0000000E+00;0;  0.0000000E+00;  1.0000000E+04;  0.0000000E+00;  0.0000000E+00;  1.0000000E+04;  0.0000000E+00;  1.0000000E+04;  0.0000000E+00;  0.0000000E+00;  0.0000000E+00;  0.0000000E+00;
  7.9999998E-02;  9.9999998E-03; -3.4000000E-01;494;  0.0000000E+00;  0.0000000E+00;  0.0000000E+00;  1.0000000E+03;  4.0000001E-01;  0.0000000E+00;0;  0.0000000E+00;  0.0000000E+00;  0.0000000E+00;0;  0.0000000E+00;  1.0000000E+04;  0.0000000E+00;  0.0000000E+00;  1.0000000E+04;  0.0000000E+00;  1.0000000E+04;  0.0000000E+00;  0.0000000E+00;  0.0000000E+00;  0.0000000E+00;
  7.9999998E-02;  9.9999998E-03; -3.1999999E-01;495;  0.0000000E+00;  0.0000000E+00;  0.0000000E+00;  1.0000000E+03;  4.0000001E-01;  0.0000000E+00;0;  0.0000000E+00;  0.0000000E+00;  0.0000000E+00;0;  0.0000000E+00;  1.0000000E+04;  0.0000000E+00;  0.0000000E+00;  1.0000000E+04;  0.0000000E+00;  1.0000000E+04;  0.0000000E+00;  0.0000000E+00;  0.0000000E+00;  0.0000000E+00;
  1.0000000E-01;  9.9999998E-03; -3.4000000E-01;504;  0.0000000E+00;  0.0000000E+00;  0.0000000E+00;  1.0000000E+03;  4.0000001E-01;  0.0000000E+00;0;  0.0000000E+00;  0.0000000E+00;  0.0000000E+00;0;  0.0000000E+00;  1.0000000E+04;  0.0000000E+00;  0.0000000E+00;  1.0000000E+04;  0.0000000E+00;  1.0000000E+04;  0.0000000E+00;  0.0000000E+00;  0.0000000E+00;  0.0000000E+00;
  1.0000000E-01;  9.9999998E-03; -3.1999999E-01;505;  0.0000000E+00;  0.0000000E+00;  0.0000000E+00;  1.0000000E+03;  4.0000001E-01;  0.0000000E+00;0;  0.0000000E+00;  0.0000000E+00;  0.0000000E+00;0;  0.0000000E+00;  1.0000000E+04;  0.0000000E+00;  0.0000000E+00;  1.0000000E+04;  0.0000000E+00;  1.0000000E+04;  0.0000000E+00;  0.0000000E+00;  0.0000000E+00;  0.0000000E+00;
  1.2000000E-01;  9.9999998E-03; -3.4000000E-01;514;  0.0000000E+00;  0.0000000E+00;  0.0000000E+00;  1.0000000E+03;  4.0000001E-01;  0.0000000E+00;0;  0.0000000E+00;  0.0000000E+00;  0.0000000E+00;0;  0.0000000E+00;  1.0000000E+04;  0.0000000E+00;  0.0000000E+00;  1.0000000E+04;  0.0000000E+00;  1.0000000E+04;  0.0000000E+00;  0.0000000E+00;  0.0000000E+00;  0.0000000E+00;
  1.2000000E-01;  9.9999998E-03; -3.1999999E-01;515;  0.0000000E+00;  0.0000000E+00;  0.0000000E+00;  1.0000000E+03;  4.0000001E-01;  0.0000000E+00;0;  0.0000000E+00;  0.0000000E+00;  0.0000000E+00;0;  0.0000000E+00;  1.0000000E+04;  0.0000000E+00;  0.0000000E+00;  1.0000000E+04;  0.0000000E+00;  1.0000000E+04;  0.0000000E+00;  0.0000000E+00;  0.0000000E+00;  0.0000000E+00;
  1.4000000E-01;  9.9999998E-03; -3.4000000E-01;524;  0.0000000E+00;  0.0000000E+00;  0.0000000E+00;  1.0000000E+03;  4.0000001E-01;  0.0000000E+00;0;  0.0000000E+00;  0.0000000E+00;  0.0000000E+00;0;  0.0000000E+00;  1.0000000E+04;  0.0000000E+00;  0.0000000E+00;  1.0000000E+04;  0.0000000E+00;  1.0000000E+04;  0.0000000E+00;  0.0000000E+00;  0.0000000E+00;  0.0000000E+00;
  1.4000000E-01;  9.9999998E-03; -3.1999999E-01;525;  0.0000000E+00;  0.0000000E+00;  0.0000000E+00;  1.0000000E+03;  4.0000001E-01;  0.0000000E+00;0;  0.0000000E+00;  0.0000000E+00;  0.0000000E+00;0;  0.0000000E+00;  1.0000000E+04;  0.0000000E+00;  0.0000000E+00;  1.0000000E+04;  0.0000000E+00;  1.0000000E+04;  0.0000000E+00;  0.0000000E+00;  0.0000000E+00;  0.0000000E+00;
  1.6000000E-01;  9.9999998E-03; -3.4000000E-01;534;  0.0000000E+00;  0.0000000E+00;  0.0000000E+00;  1.0000000E+03;  4.0000001E-01;  0.0000000E+00;0;  0.0000000E+00;  0.0000000E+00;  0.0000000E+00;0;  0.0000000E+00;  1.0000000E+04;  0.0000000E+00;  0.0000000E+00;  1.0000000E+04;  0.0000000E+00;  1.0000000E+04;  0.0000000E+00;  0.0000000E+00;  0.0000000E+00;  0.0000000E+00;
  1.6000000E-01;  9.9999998E-03; -3.1999999E-01;535;  0.0000000E+00;  0.0000000E+00;  0.0000000E+00;  1.0000000E+03;  4.0000001E-01;  0.0000000E+00;0;  0.0000000E+00;  0.0000000E+00;  0.0000000E+00;0;  0.0000000E+00;  1.0000000E+04;  0.0000000E+00;  0.0000000E+00;  1.0000000E+04;  0.0000000E+00;  1.0000000E+04;  0.0000000E+00;  0.0000000E+00;  0.0000000E+00;  0.0000000E+00;
  1.8000001E-01;  9.9999998E-03; -3.4000000E-01;544;  0.0000000E+00;  0.0000000E+00;  0.0000000E+00;  1.0000000E+03;  4.0000001E-01;  0.0000000E+00;0;  0.0000000E+00;  0.0000000E+00;  0.0000000E+00;0;  0.0000000E+00;  1.0000000E+04;  0.0000000E+00;  0.0000000E+00;  1.0000000E+04;  0.0000000E+00;  1.0000000E+04;  0.0000000E+00;  0.0000000E+00;  0.0000000E+00;  0.0000000E+00;
  1.8000001E-01;  9.9999998E-03; -3.1999999E-01;545;  0.0000000E+00;  0.0000000E+00;  0.0000000E+00;  1.0000000E+03;  4.0000001E-01;  0.0000000E+00;0;  0.0000000E+00;  0.0000000E+00;  0.0000000E+00;0;  0.0000000E+00;  1.0000000E+04;  0.0000000E+00;  0.0000000E+00;  1.0000000E+04;  0.0000000E+00;  1.0000000E+04;  0.0000000E+00;  0.0000000E+00;  0.0000000E+00;  0.0000000E+00;
  2.0000000E-01;  9.9999998E-03; -3.4000000E-01;553;  0.0000000E+00;  0.0000000E+00;  0.0000000E+00;  1.0000000E+03;  4.0000001E-01;  0.0000000E+00;0;  0.0000000E+00;  0.0000000E+00;  0.0000000E+00;0;  0.0000000E+00;  1.0000000E+04;  0.0000000E+00;  0.0000000E+00;  1.0000000E+04;  0.0000000E+00;  1.0000000E+04;  0.0000000E+00;  0.0000000E+00;  0.0000000E+00;  0.0000000E+00;
  2.0000000E-01;  9.9999998E-03; -3.1999999E-01;554;  0.0000000E+00;  0.0000000E+00;  0.0000000E+00;  1.0000000E+03;  4.0000001E-01;  0.0000000E+00;0;  0.0000000E+00;  0.0000000E+00;  0.0000000E+00;0;  0.0000000E+00;  1.0000000E+04;  0.0000000E+00;  0.0000000E+00;  1.0000000E+04;  0.0000000E+00;  1.0000000E+04;  0.0000000E+00;  0.0000000E+00;  0.0000000E+00;  0.0000000E+00;
 -2.2000000E-01;  9.9999998E-03; -1.8000001E-01;10;  0.0000000E+00;  0.0000000E+00;  0.0000000E+00;  1.0000000E+03;  4.0000001E-01;  0.0000000E+00;0;  0.0000000E+00;  0.0000000E+00;  0.0000000E+00;0;  0.0000000E+00;  1.0000000E+04;  0.0000000E+00;  0.0000000E+00;  1.0000000E+04;  0.0000000E+00;  1.0000000E+04;  0.0000000E+00;  0.0000000E+00;  0.0000000E+00;  0.0000000E+00;
 -2.2000000E-01;  9.9999998E-03; -1.6000000E-01;11;  0.0000000E+00;  0.0000000E+00;  0.0000000E+00;  1.0000000E+03;  4.0000001E-01;  0.0000000E+00;0;  0.0000000E+00;  0.0000000E+00;  0.0000000E+00;0;  0.0000000E+00;  1.0000000E+04;  0.0000000E+00;  0.0000000E+00;  1.0000000E+04;  0.0000000E+00;  1.0000000E+04;  0.0000000E+00;  0.0000000E+00;  0.0000000E+00;  0.0000000E+00;
 -2.2000000E-01;  9.9999998E-03; -1.4000000E-01;12;  0.0000000E+00;  0.0000000E+00;  0.0000000E+00;  1.0000000E+03;  4.0000001E-01;  0.0000000E+00;0;  0.0000000E+00;  0.0000000E+00;  0.0000000E+00;0;  0.0000000E+00;  1.0000000E+04;  0.0000000E+00;  0.0000000E+00;  1.0000000E+04;  0.0000000E+00;  1.0000000E+04;  0.0000000E+00;  0.0000000E+00;  0.0000000E+00;  0.0000000E+00;
 -2.2000000E-01;  9.9999998E-03; -1.2000000E-01;13;  0.0000000E+00;  0.0000000E+00;  0.0000000E+00;  1.0000000E+03;  4.0000001E-01;  0.0000000E+00;0;  0.0000000E+00;  0.0000000E+00;  0.0000000E+00;0;  0.0000000E+00;  1.0000000E+04;  0.0000000E+00;  0.0000000E+00;  1.0000000E+04;  0.0000000E+00;  1.0000000E+04;  0.0000000E+00;  0.0000000E+00;  0.0000000E+00;  0.0000000E+00;
 -2.2000000E-01;  9.9999998E-03; -1.0000000E-01;14;  0.0000000E+00;  0.0000000E+00;  0.0000000E+00;  1.0000000E+03;  4.0000001E-01;  0.0000000E+00;0;  0.0000000E+00;  0.0000000E+00;  0.0000000E+00;0;  0.0000000E+00;  1.0000000E+04;  0.0000000E+00;  0.0000000E+00;  1.0000000E+04;  0.0000000E+00;  1.0000000E+04;  0.0000000E+00;  0.0000000E+00;  0.0000000E+00;  0.0000000E+00;
 -2.2000000E-01;  9.9999998E-03; -7.9999998E-02;15;  0.0000000E+00;  0.0000000E+00;  0.0000000E+00;  1.0000000E+03;  4.0000001E-01;  0.0000000E+00;0;  0.0000000E+00;  0.0000000E+00;  0.0000000E+00;0;  0.0000000E+00;  1.0000000E+04;  0.0000000E+00;  0.0000000E+00;  1.0000000E+04;  0.0000000E+00;  1.0000000E+04;  0.0000000E+00;  0.0000000E+00;  0.0000000E+00;  0.0000000E+00;
 -2.2000000E-01;  9.9999998E-03; -5.9999999E-02;16;  0.0000000E+00;  0.0000000E+00;  0.0000000E+00;  1.0000000E+03;  4.0000001E-01;  0.0000000E+00;0;  0.0000000E+00;  0.0000000E+00;  0.0000000E+00;0;  0.0000000E+00;  1.0000000E+04;  0.0000000E+00;  0.0000000E+00;  1.0000000E+04;  0.0000000E+00;  1.0000000E+04;  0.0000000E+00;  0.0000000E+00;  0.0000000E+00;  0.0000000E+00;
 -2.2000000E-01;  9.9999998E-03; -3.9999999E-02;17;  0.0000000E+00;  0.0000000E+00;  0.0000000E+00;  1.0000000E+03;  4.0000001E-01;  0.0000000E+00;0;  0.0000000E+00;  0.0000000E+00;  0.0000000E+00;0;  0.0000000E+00;  1.0000000E+04;  0.0000000E+00;  0.0000000E+00;  1.0000000E+04;  0.0000000E+00;  1.0000000E+04;  0.0000000E+00;  0.0000000E+00;  0.0000000E+00;  0.0000000E+00;
 -2.2000000E-01;  9.9999998E-03; -2.0000000E-02;18;  0.0000000E+00;  0.0000000E+00;  0.0000000E+00;  1.0000000E+03;  4.0000001E-01;  0.0000000E+00;0;  0.0000000E+00;  0.0000000E+00;  0.0000000E+00;0;  0.0000000E+00;  1.0000000E+04;  0.0000000E+00;  0.0000000E+00;  1.0000000E+04;  0.0000000E+00;  1.0000000E+04;  0.0000000E+00;  0.0000000E+00;  0.0000000E+00;  0.0000000E+00;
 -2.0000000E-01;  9.9999998E-03; -1.8000001E-01;50;  0.0000000E+00;  0.0000000E+00;  0.0000000E+00;  1.0000000E+03;  4.0000001E-01;  0.0000000E+00;0;  0.0000000E+00;  0.0000000E+00;  0.0000000E+00;0;  0.0000000E+00;  1.0000000E+04;  0.0000000E+00;  0.0000000E+00;  1.0000000E+04;  0.0000000E+00;  1.0000000E+04;  0.0000000E+00;  0.0000000E+00;  0.0000000E+00;  0.0000000E+00;
 -2.0000000E-01;  9.9999998E-03; -1.6000000E-01;51;  0.0000000E+00;  0.0000000E+00;  0.0000000E+00;  1.0000000E+03;  4.0000001E-01;  0.0000000E+00;0;  0.0000000E+00;  0.0000000E+00;  0.0000000E+00;0;  0.0000000E+00;  1.0000000E+04;  0.0000000E+00;  0.0000000E+00;  1.0000000E+04;  0.0000000E+00;  1.0000000E+04;  0.0000000E+00;  0.0000000E+00;  0.0000000E+00;  0.0000000E+00;
 -2.0000000E-01;  9.9999998E-03; -1.4000000E-01;52;  0.0000000E+00;  0.0000000E+00;  0.0000000E+00;  1.0000000E+03;  4.0000001E-01;  0.0000000E+00;0;  0.0000000E+00;  0.0000000E+00;  0.0000000E+00;0;  0.0000000E+00;  1.0000000E+04;  0.0000000E+00;  0.0000000E+00;  1.0000000E+04;  0.0000000E+00;  1.0000000E+04;  0.0000000E+00;  0.0000000E+00;  0.0000000E+00;  0.0000000E+00;
 -2.0000000E-01;  9.9999998E-03; -1.2000000E-01;53;  0.0000000E+00;  0.0000000E+00;  0.0000000E+00;  1.0000000E+03;  4.0000001E-01;  0.0000000E+00;0;  0.0000000E+00;  0.0000000E+00;  0.0000000E+00;0;  0.0000000E+00;  1.0000000E+04;  0.0000000E+00;  0.0000000E+00;  1.0000000E+04;  0.0000000E+00;  1.0000000E+04;  0.0000000E+00;  0.0000000E+00;  0.0000000E+00;  0.0000000E+00;
 -2.0000000E-01;  9.9999998E-03; -1.0000000E-01;54;  0.0000000E+00;  0.0000000E+00;  0.0000000E+00;  1.0000000E+03;  4.0000001E-01;  0.0000000E+00;0;  0.0000000E+00;  0.0000000E+00;  0.0000000E+00;0;  0.0000000E+00;  1.0000000E+04;  0.0000000E+00;  0.0000000E+00;  1.0000000E+04;  0.0000000E+00;  1.0000000E+04;  0.0000000E+00;  0.0000000E+00;  0.0000000E+00;  0.0000000E+00;
 -2.0000000E-01;  9.9999998E-03; -7.9999998E-02;55;  0.0000000E+00;  0.0000000E+00;  0.0000000E+00;  1.0000000E+03;  4.0000001E-01;  0.0000000E+00;0;  0.0000000E+00;  0.0000000E+00;  0.0000000E+00;0;  0.0000000E+00;  1.0000000E+04;  0.0000000E+00;  0.0000000E+00;  1.0000000E+04;  0.0000000E+00;  1.0000000E+04;  0.0000000E+00;  0.0000000E+00;  0.0000000E+00;  0.0000000E+00;
 -2.0000000E-01;  9.9999998E-03; -5.9999999E-02;56;  0.0000000E+00;  0.0000000E+00;  0.0000000E+00;  1.0000000E+03;  4.0000001E-01;  0.0000000E+00;0;  0.0000000E+00;  0.0000000E+00;  0.0000000E+00;0;  0.0000000E+00;  1.0000000E+04;  0.0000000E+00;  0.0000000E+00;  1.0000000E+04;  0.0000000E+00;  1.0000000E+04;  0.0000000E+00;  0.0000000E+00;  0.0000000E+00;  0.0000000E+00;
 -2.0000000E-01;  9.9999998E-03; -3.9999999E-02;57;  0.0000000E+00;  0.0000000E+00;  0.0000000E+00;  1.0000000E+03;  4.0000001E-01;  0.0000000E+00;0;  0.0000000E+00;  0.0000000E+00;  0.0000000E+00;0;  0.0000000E+00;  1.0000000E+04;  0.0000000E+00;  0.0000000E+00;  1.0000000E+04;  0.0000000E+00;  1.0000000E+04;  0.0000000E+00;  0.0000000E+00;  0.0000000E+00;  0.0000000E+00;
 -2.0000000E-01;  9.9999998E-03; -2.0000000E-02;58;  0.0000000E+00;  0.0000000E+00;  0.0000000E+00;  1.0000000E+03;  4.0000001E-01;  0.0000000E+00;0;  0.0000000E+00;  0.0000000E+00;  0.0000000E+00;0;  0.0000000E+00;  1.0000000E+04;  0.0000000E+00;  0.0000000E+00;  1.0000000E+04;  0.0000000E+00;  1.0000000E+04;  0.0000000E+00;  0.0000000E+00;  0.0000000E+00;  0.0000000E+00;
 -1.8000001E-01;  9.9999998E-03; -1.8000001E-01;91;  0.0000000E+00;  0.0000000E+00;  0.0000000E+00;  1.0000000E+03;  4.0000001E-01;  0.0000000E+00;0;  0.0000000E+00;  0.0000000E+00;  0.0000000E+00;0;  0.0000000E+00;  1.0000000E+04;  0.0000000E+00;  0.0000000E+00;  1.0000000E+04;  0.0000000E+00;  1.0000000E+04;  0.0000000E+00;  0.0000000E+00;  0.0000000E+00;  0.0000000E+00;
 -1.8000001E-01;  9.9999998E-03; -1.6000000E-01;92;  0.0000000E+00;  0.0000000E+00;  0.0000000E+00;  1.0000000E+03;  4.0000001E-01;  0.0000000E+00;0;  0.0000000E+00;  0.0000000E+00;  0.0000000E+00;0;  0.0000000E+00;  1.0000000E+04;  0.0000000E+00;  0.0000000E+00;  1.0000000E+04;  0.0000000E+00;  1.0000000E+04;  0.0000000E+00;  0.0000000E+00;  0.0000000E+00;  0.0000000E+00;
 -1.8000001E-01;  9.9999998E-03; -1.4000000E-01;93;  0.0000000E+00;  0.0000000E+00;  0.0000000E+00;  1.0000000E+03;  4.0000001E-01;  0.0000000E+00;0;  0.0000000E+00;  0.0000000E+00;  0.0000000E+00;0;  0.0000000E+00;  1.0000000E+04;  0.0000000E+00;  0.0000000E+00;  1.0000000E+04;  0.0000000E+00;  1.0000000E+04;  0.0000000E+00;  0.0000000E+00;  0.0000000E+00;  0.0000000E+00;
 -1.8000001E-01;  9.9999998E-03; -1.2000000E-01;94;  0.0000000E+00;  0.0000000E+00;  0.0000000E+00;  1.0000000E+03;  4.0000001E-01;  0.0000000E+00;0;  0.0000000E+00;  0.0000000E+00;  0.0000000E+00;0;  0.0000000E+00;  1.0000000E+04;  0.0000000E+00;  0.0000000E+00;  1.0000000E+04;  0.0000000E+00;  1.0000000E+04;  0.0000000E+00;  0.0000000E+00;  0.0000000E+00;  0.0000000E+00;
 -1.8000001E-01;  9.9999998E-03; -1.0000000E-01;95;  0.0000000E+00;  0.0000000E+00;  0.0000000E+00;  1.0000000E+03;  4.0000001E-01;  0.0000000E+00;0;  0.0000000E+00;  0.0000000E+00;  0.0000000E+00;0;  0.0000000E+00;  1.0000000E+04;  0.0000000E+00;  0.0000000E+00;  1.0000000E+04;  0.0000000E+00;  1.0000000E+04;  0.0000000E+00;  0.0000000E+00;  0.0000000E+00;  0.0000000E+00;
 -1.8000001E-01;  9.9999998E-03; -7.9999998E-02;96;  0.0000000E+00;  0.0000000E+00;  0.0000000E+00;  1.0000000E+03;  4.0000001E-01;  0.0000000E+00;0;  0.0000000E+00;  0.0000000E+00;  0.0000000E+00;0;  0.0000000E+00;  1.0000000E+04;  0.0000000E+00;  0.0000000E+00;  1.0000000E+04;  0.0000000E+00;  1.0000000E+04;  0.0000000E+00;  0.0000000E+00;  0.0000000E+00;  0.0000000E+00;
 -1.8000001E-01;  9.9999998E-03; -5.9999999E-02;97;  0.0000000E+00;  0.0000000E+00;  0.0000000E+00;  1.0000000E+03;  4.0000001E-01;  0.0000000E+00;0;  0.0000000E+00;  0.0000000E+00;  0.0000000E+00;0;  0.0000000E+00;  1.0000000E+04;  0.0000000E+00;  0.0000000E+00;  1.0000000E+04;  0.0000000E+00;  1.0000000E+04;  0.0000000E+00;  0.0000000E+00;  0.0000000E+00;  0.0000000E+00;
 -1.8000001E-01;  9.9999998E-03; -3.9999999E-02;98;  0.0000000E+00;  0.0000000E+00;  0.0000000E+00;  1.0000000E+03;  4.0000001E-01;  0.0000000E+00;0;  0.0000000E+00;  0.0000000E+00;  0.0000000E+00;0;  0.0000000E+00;  1.0000000E+04;  0.0000000E+00;  0.0000000E+00;  1.0000000E+04;  0.0000000E+00;  1.0000000E+04;  0.0000000E+00;  0.0000000E+00;  0.0000000E+00;  0.0000000E+00;
 -1.8000001E-01;  9.9999998E-03; -2.0000000E-02;99;  0.0000000E+00;  0.0000000E+00;  0.0000000E+00;  1.0000000E+03;  4.0000001E-01;  0.0000000E+00;0;  0.0000000E+00;  0.0000000E+00;  0.0000000E+00;0;  0.0000000E+00;  1.0000000E+04;  0.0000000E+00;  0.0000000E+00;  1.0000000E+04;  0.0000000E+00;  1.0000000E+04;  0.0000000E+00;  0.0000000E+00;  0.0000000E+00;  0.0000000E+00;
 -1.6000000E-01;  9.9999998E-03; -1.8000001E-01;132;  0.0000000E+00;  0.0000000E+00;  0.0000000E+00;  1.0000000E+03;  4.0000001E-01;  0.0000000E+00;0;  0.0000000E+00;  0.0000000E+00;  0.0000000E+00;0;  0.0000000E+00;  1.0000000E+04;  0.0000000E+00;  0.0000000E+00;  1.0000000E+04;  0.0000000E+00;  1.0000000E+04;  0.0000000E+00;  0.0000000E+00;  0.0000000E+00;  0.0000000E+00;
 -1.6000000E-01;  9.9999998E-03; -1.6000000E-01;133;  0.0000000E+00;  0.0000000E+00;  0.0000000E+00;  1.0000000E+03;  4.0000001E-01;  0.0000000E+00;0;  0.0000000E+00;  0.0000000E+00;  0.0000000E+00;0;  0.0000000E+00;  1.0000000E+04;  0.0000000E+00;  0.0000000E+00;  1.0000000E+04;  0.0000000E+00;  1.0000000E+04;  0.0000000E+00;  0.0000000E+00;  0.0000000E+00;  0.0000000E+00;
 -1.6000000E-01;  9.9999998E-03; -1.4000000E-01;134;  0.0000000E+00;  0.0000000E+00;  0.0000000E+00;  1.0000000E+03;  4.0000001E-01;  0.0000000E+00;0;  0.0000000E+00;  0.0000000E+00;  0.0000000E+00;0;  0.0000000E+00;  1.0000000E+04;  0.0000000E+00;  0.0000000E+00;  1.0000000E+04;  0.0000000E+00;  1.0000000E+04;  0.0000000E+00;  0.0000000E+00;  0.0000000E+00;  0.0000000E+00;
 -1.6000000E-01;  9.9999998E-03; -1.2000000E-01;135;  0.0000000E+00;  0.0000000E+00;  0.0000000E+00;  1.0000000E+03;  4.0000001E-01;  0.0000000E+00;0;  0.0000000E+00;  0.0000000E+00;  0.0000000E+00;0;  0.0000000E+00;  1.0000000E+04;  0.0000000E+00;  0.0000000E+00;  1.0000000E+04;  0.0000000E+00;  1.0000000E+04;  0.0000000E+00;  0.0000000E+00;  0.0000000E+00;  0.0000000E+00;
 -1.6000000E-01;  9.9999998E-03; -1.0000000E-01;136;  0.0000000E+00;  0.0000000E+00;  0.0000000E+00;  1.0000000E+03;  4.0000001E-01;  0.0000000E+00;0;  0.0000000E+00;  0.0000000E+00;  0.0000000E+00;0;  0.0000000E+00;  1.0000000E+04;  0.0000000E+00;  0.0000000E+00;  1.0000000E+04;  0.0000000E+00;  1.0000000E+04;  0.0000000E+00;  0.0000000E+00;  0.0000000E+00;  0.0000000E+00;
 -1.6000000E-01;  9.9999998E-03; -7.9999998E-02;137;  0.0000000E+00;  0.0000000E+00;  0.0000000E+00;  1.0000000E+03;  4.0000001E-01;  0.0000000E+00;0;  0.0000000E+00;  0.0000000E+00;  0.0000000E+00;0;  0.0000000E+00;  1.0000000E+04;  0.0000000E+00;  0.0000000E+00;  1.0000000E+04;  0.0000000E+00;  1.0000000E+04;  0.0000000E+00;  0.0000000E+00;  0.0000000E+00;  0.0000000E+00;
 -1.6000000E-01;  9.9999998E-03; -5.9999999E-02;138;  0.0000000E+00;  0.0000000E+00;  0.0000000E+00;  1.0000000E+03;  4.0000001E-01;  0.0000000E+00;0;  0.0000000E+00;  0.0000000E+00;  0.0000000E+00;0;  0.0000000E+00;  1.0000000E+04;  0.0000000E+00;  0.0000000E+00;  1.0000000E+04;  0.0000000E+00;  1.0000000E+04;  0.0000000E+00;  0.0000000E+00;  0.0000000E+00;  0.0000000E+00;
 -1.6000000E-01;  9.9999998E-03; -3.9999999E-02;139;  0.0000000E+00;  0.0000000E+00;  0.0000000E+00;  1.0000000E+03;  4.0000001E-01;  0.0000000E+00;0;  0.0000000E+00;  0.0000000E+00;  0.0000000E+00;0;  0.0000000E+00;  1.0000000E+04;  0.0000000E+00;  0.0000000E+00;  1.0000000E+04;  0.0000000E+00;  1.0000000E+04;  0.0000000E+00;  0.0000000E+00;  0.0000000E+00;  0.0000000E+00;
 -1.6000000E-01;  9.9999998E-03; -2.0000000E-02;140;  0.0000000E+00;  0.0000000E+00;  0.0000000E+00;  1.0000000E+03;  4.0000001E-01;  0.0000000E+00;0;  0.0000000E+00;  0.0000000E+00;  0.0000000E+00;0;  0.0000000E+00;  1.0000000E+04;  0.0000000E+00;  0.0000000E+00;  1.0000000E+04;  0.0000000E+00;  1.0000000E+04;  0.0000000E+00;  0.0000000E+00;  0.0000000E+00;  0.0000000E+00;
 -1.4000000E-01;  9.9999998E-03; -1.8000001E-01;173;  0.0000000E+00;  0.0000000E+00;  0.0000000E+00;  1.0000000E+03;  4.0000001E-01;  0.0000000E+00;0;  0.0000000E+00;  0.0000000E+00;  0.0000000E+00;0;  0.0000000E+00;  1.0000000E+04;  0.0000000E+00;  0.0000000E+00;  1.0000000E+04;  0.0000000E+00;  1.0000000E+04;  0.0000000E+00;  0.0000000E+00;  0.0000000E+00;  0.0000000E+00;
 -1.4000000E-01;  9.9999998E-03; -1.6000000E-01;174;  0.0000000E+00;  0.0000000E+00;  0.0000000E+00;  1.0000000E+03;  4.0000001E-01;  0.0000000E+00;0;  0.0000000E+00;  0.0000000E+00;  0.0000000E+00;0;  0.0000000E+00;  1.0000000E+04;  0.0000000E+00;  0.0000000E+00;  1.0000000E+04;  0.0000000E+00;  1.0000000E+04;  0.0000000E+00;  0.0000000E+00;  0.0000000E+00;  0.0000000E+00;
 -1.4000000E-01;  9.9999998E-03; -1.4000000E-01;175;  0.0000000E+00;  0.0000000E+00;  0.0000000E+00;  1.0000000E+03;  4.0000001E-01;  0.0000000E+00;0;  0.0000000E+00;  0.0000000E+00;  0.0000000E+00;0;  0.0000000E+00;  1.0000000E+04;  0.0000000E+00;  0.0000000E+00;  1.0000000E+04;  0.0000000E+00;  1.0000000E+04;  0.0000000E+00;  0.0000000E+00;  0.0000000E+00;  0.0000000E+00;
 -1.4000000E-01;  9.9999998E-03; -1.2000000E-01;176;  0.0000000E+00;  0.0000000E+00;  0.0000000E+00;  1.0000000E+03;  4.0000001E-01;  0.0000000E+00;0;  0.0000000E+00;  0.0000000E+00;  0.0000000E+00;0;  0.0000000E+00;  1.0000000E+04;  0.0000000E+00;  0.0000000E+00;  1.0000000E+04;  0.0000000E+00;  1.0000000E+04;  0.0000000E+00;  0.0000000E+00;  0.0000000E+00;  0.0000000E+00;
 -1.4000000E-01;  9.9999998E-03; -1.0000000E-01;177;  0.0000000E+00;  0.0000000E+00;  0.0000000E+00;  1.0000000E+03;  4.0000001E-01;  0.0000000E+00;0;  0.0000000E+00;  0.0000000E+00;  0.0000000E+00;0;  0.0000000E+00;  1.0000000E+04;  0.0000000E+00;  0.0000000E+00;  1.0000000E+04;  0.0000000E+00;  1.0000000E+04;  0.0000000E+00;  0.0000000E+00;  0.0000000E+00;  0.0000000E+00;
 -1.4000000E-01;  9.9999998E-03; -7.9999998E-02;178;  0.0000000E+00;  0.0000000E+00;  0.0000000E+00;  1.0000000E+03;  4.0000001E-01;  0.0000000E+00;0;  0.0000000E+00;  0.0000000E+00;  0.0000000E+00;0;  0.0000000E+00;  1.0000000E+04;  0.0000000E+00;  0.0000000E+00;  1.0000000E+04;  0.0000000E+00;  1.0000000E+04;  0.0000000E+00;  0.0000000E+00;  0.0000000E+00;  0.0000000E+00;
 -1.4000000E-01;  9.9999998E-03; -5.9999999E-02;179;  0.0000000E+00;  0.0000000E+00;  0.0000000E+00;  1.0000000E+03;  4.0000001E-01;  0.0000000E+00;0;  0.0000000E+00;  0.0000000E+00;  0.0000000E+00;0;  0.0000000E+00;  1.0000000E+04;  0.0000000E+00;  0.0000000E+00;  1.0000000E+04;  0.0000000E+00;  1.0000000E+04;  0.0000000E+00;  0.0000000E+00;  0.0000000E+00;  0.0000000E+00;
 -1.4000000E-01;  9.9999998E-03; -3.9999999E-02;180;  0.0000000E+00;  0.0000000E+00;  0.0000000E+00;  1.0000000E+03;  4.0000001E-01;  0.0000000E+00;0;  0.0000000E+00;  0.0000000E+00;  0.0000000E+00;0;  0.0000000E+00;  1.0000000E+04;  0.0000000E+00;  0.0000000E+00;  1.0000000E+04;  0.0000000E+00;  1.0000000E+04;  0.0000000E+00;  0.0000000E+00;  0.0000000E+00;  0.0000000E+00;
 -1.4000000E-01;  9.9999998E-03; -2.0000000E-02;181;  0.0000000E+00;  0.0000000E+00;  0.0000000E+00;  1.0000000E+03;  4.0000001E-01;  0.0000000E+00;0;  0.0000000E+00;  0.0000000E+00;  0.0000000E+00;0;  0.0000000E+00;  1.0000000E+04;  0.0000000E+00;  0.0000000E+00;  1.0000000E+04;  0.0000000E+00;  1.0000000E+04;  0.0000000E+00;  0.0000000E+00;  0.0000000E+00;  0.0000000E+00;
 -1.2000000E-01;  9.9999998E-03; -1.8000001E-01;214;  0.0000000E+00;  0.0000000E+00;  0.0000000E+00;  1.0000000E+03;  4.0000001E-01;  0.0000000E+00;0;  0.0000000E+00;  0.0000000E+00;  0.0000000E+00;0;  0.0000000E+00;  1.0000000E+04;  0.0000000E+00;  0.0000000E+00;  1.0000000E+04;  0.0000000E+00;  1.0000000E+04;  0.0000000E+00;  0.0000000E+00;  0.0000000E+00;  0.0000000E+00;
 -1.2000000E-01;  9.9999998E-03; -1.6000000E-01;215;  0.0000000E+00;  0.0000000E+00;  0.0000000E+00;  1.0000000E+03;  4.0000001E-01;  0.0000000E+00;0;  0.0000000E+00;  0.0000000E+00;  0.0000000E+00;0;  0.0000000E+00;  1.0000000E+04;  0.0000000E+00;  0.0000000E+00;  1.0000000E+04;  0.0000000E+00;  1.0000000E+04;  0.0000000E+00;  0.0000000E+00;  0.0000000E+00;  0.0000000E+00;
 -1.2000000E-01;  9.9999998E-03; -1.4000000E-01;216;  0.0000000E+00;  0.0000000E+00;  0.0000000E+00;  1.0000000E+03;  4.0000001E-01;  0.0000000E+00;0;  0.0000000E+00;  0.0000000E+00;  0.0000000E+00;0;  0.0000000E+00;  1.0000000E+04;  0.0000000E+00;  0.0000000E+00;  1.0000000E+04;  0.0000000E+00;  1.0000000E+04;  0.0000000E+00;  0.0000000E+00;  0.0000000E+00;  0.0000000E+00;
 -1.2000000E-01;  9.9999998E-03; -1.2000000E-01;217;  0.0000000E+00;  0.0000000E+00;  0.0000000E+00;  1.0000000E+03;  4.0000001E-01;  0.0000000E+00;0;  0.0000000E+00;  0.0000000E+00;  0.0000000E+00;0;  0.0000000E+00;  1.0000000E+04;  0.0000000E+00;  0.0000000E+00;  1.0000000E+04;  0.0000000E+00;  1.0000000E+04;  0.0000000E+00;  0.0000000E+00;  0.0000000E+00;  0.0000000E+00;
 -1.2000000E-01;  9.9999998E-03; -1.0000000E-01;218;  0.0000000E+00;  0.0000000E+00;  0.0000000E+00;  1.0000000E+03;  4.0000001E-01;  0.0000000E+00;0;  0.0000000E+00;  0.0000000E+00;  0.0000000E+00;0;  0.0000000E+00;  1.0000000E+04;  0.0000000E+00;  0.0000000E+00;  1.0000000E+04;  0.0000000E+00;  1.0000000E+04;  0.0000000E+00;  0.0000000E+00;  0.0000000E+00;  0.0000000E+00;
 -1.2000000E-01;  9.9999998E-03; -7.9999998E-02;219;  0.0000000E+00;  0.0000000E+00;  0.0000000E+00;  1.0000000E+03;  4.0000001E-01;  0.0000000E+00;0;  0.0000000E+00;  0.0000000E+00;  0.0000000E+00;0;  0.0000000E+00;  1.0000000E+04;  0.0000000E+00;  0.0000000E+00;  1.0000000E+04;  0.0000000E+00;  1.0000000E+04;  0.0000000E+00;  0.0000000E+00;  0.0000000E+00;  0.0000000E+00;
 -1.2000000E-01;  9.9999998E-03; -5.9999999E-02;220;  0.0000000E+00;  0.0000000E+00;  0.0000000E+00;  1.0000000E+03;  4.0000001E-01;  0.0000000E+00;0;  0.0000000E+00;  0.0000000E+00;  0.0000000E+00;0;  0.0000000E+00;  1.0000000E+04;  0.0000000E+00;  0.0000000E+00;  1.0000000E+04;  0.0000000E+00;  1.0000000E+04;  0.0000000E+00;  0.0000000E+00;  0.0000000E+00;  0.0000000E+00;
 -1.2000000E-01;  9.9999998E-03; -3.9999999E-02;221;  0.0000000E+00;  0.0000000E+00;  0.0000000E+00;  1.0000000E+03;  4.0000001E-01;  0.0000000E+00;0;  0.0000000E+00;  0.0000000E+00;  0.0000000E+00;0;  0.0000000E+00;  1.0000000E+04;  0.0000000E+00;  0.0000000E+00;  1.0000000E+04;  0.0000000E+00;  1.0000000E+04;  0.0000000E+00;  0.0000000E+00;  0.0000000E+00;  0.0000000E+00;
 -1.2000000E-01;  9.9999998E-03; -2.0000000E-02;222;  0.0000000E+00;  0.0000000E+00;  0.0000000E+00;  1.0000000E+03;  4.0000001E-01;  0.0000000E+00;0;  0.0000000E+00;  0.0000000E+00;  0.0000000E+00;0;  0.0000000E+00;  1.0000000E+04;  0.0000000E+00;  0.0000000E+00;  1.0000000E+04;  0.0000000E+00;  1.0000000E+04;  0.0000000E+00;  0.0000000E+00;  0.0000000E+00;  0.0000000E+00;
 -1.0000000E-01;  9.9999998E-03; -1.8000001E-01;255;  0.0000000E+00;  0.0000000E+00;  0.0000000E+00;  1.0000000E+03;  4.0000001E-01;  0.0000000E+00;0;  0.0000000E+00;  0.0000000E+00;  0.0000000E+00;0;  0.0000000E+00;  1.0000000E+04;  0.0000000E+00;  0.0000000E+00;  1.0000000E+04;  0.0000000E+00;  1.0000000E+04;  0.0000000E+00;  0.0000000E+00;  0.0000000E+00;  0.0000000E+00;
 -1.0000000E-01;  9.9999998E-03; -1.6000000E-01;256;  0.0000000E+00;  0.0000000E+00;  0.0000000E+00;  1.0000000E+03;  4.0000001E-01;  0.0000000E+00;0;  0.0000000E+00;  0.0000000E+00;  0.0000000E+00;0;  0.0000000E+00;  1.0000000E+04;  0.0000000E+00;  0.0000000E+00;  1.0000000E+04;  0.0000000E+00;  1.0000000E+04;  0.0000000E+00;  0.0000000E+00;  0.0000000E+00;  0.0000000E+00;
 -1.0000000E-01;  9.9999998E-03; -1.4000000E-01;257;  0.0000000E+00;  0.0000000E+00;  0.0000000E+00;  1.0000000E+03;  4.0000001E-01;  0.0000000E+00;0;  0.0000000E+00;  0.0000000E+00;  0.0000000E+00;0;  0.0000000E+00;  1.0000000E+04;  0.0000000E+00;  0.0000000E+00;  1.0000000E+04;  0.0000000E+00;  1.0000000E+04;  0.0000000E+00;  0.0000000E+00;  0.0000000E+00;  0.0000000E+00;
 -1.0000000E-01;  9.9999998E-03; -1.2000000E-01;258;  0.0000000E+00;  0.0000000E+00;  0.0000000E+00;  1.0000000E+03;  4.0000001E-01;  0.0000000E+00;0;  0.0000000E+00;  0.0000000E+00;  0.0000000E+00;0;  0.0000000E+00;  1.0000000E+04;  0.0000000E+00;  0.0000000E+00;  1.0000000E+04;  0.0000000E+00;  1.0000000E+04;  0.0000000E+00;  0.0000000E+00;  0.0000000E+00;  0.0000000E+00;
 -1.0000000E-01;  9.9999998E-03; -1.0000000E-01;259;  0.0000000E+00;  0.0000000E+00;  0.0000000E+00;  1.0000000E+03;  4.0000001E-01;  0.0000000E+00;0;  0.0000000E+00;  0.0000000E+00;  0.0000000E+00;0;  0.0000000E+00;  1.0000000E+04;  0.0000000E+00;  0.0000000E+00;  1.0000000E+04;  0.0000000E+00;  1.0000000E+04;  0.0000000E+00;  0.0000000E+00;  0.0000000E+00;  0.0000000E+00;
 -1.0000000E-01;  9.9999998E-03; -7.9999998E-02;260;  0.0000000E+00;  0.0000000E+00;  0.0000000E+00;  1.0000000E+03;  4.0000001E-01;  0.0000000E+00;0;  0.0000000E+00;  0.0000000E+00;  0.0000000E+00;0;  0.0000000E+00;  1.0000000E+04;  0.0000000E+00;  0.0000000E+00;  1.0000000E+04;  0.0000000E+00;  1.0000000E+04;  0.0000000E+00;  0.0000000E+00;  0.0000000E+00;  0.0000000E+00;
 -1.0000000E-01;  9.9999998E-03; -5.9999999E-02;261;  0.0000000E+00;  0.0000000E+00;  0.0000000E+00;  1.0000000E+03;  4.0000001E-01;  0.0000000E+00;0;  0.0000000E+00;  0.0000000E+00;  0.0000000E+00;0;  0.0000000E+00;  1.0000000E+04;  0.0000000E+00;  0.0000000E+00;  1.0000000E+04;  0.0000000E+00;  1.0000000E+04;  0.0000000E+00;  0.0000000E+00;  0.0000000E+00;  0.0000000E+00;
 -1.0000000E-01;  9.9999998E-03; -3.9999999E-02;262;  0.0000000E+00;  0.0000000E+00;  0.0000000E+00;  1.0000000E+03;  4.0000001E-01;  0.0000000E+00;0;  0.0000000E+00;  0.0000000E+00;  0.0000000E+00;0;  0.0000000E+00;  1.0000000E+04;  0.0000000E+00;  0.0000000E+00;  1.0000000E+04;  0.0000000E+00;  1.0000000E+04;  0.0000000E+00;  0.0000000E+00;  0.0000000E+00;  0.0000000E+00;
 -1.0000000E-01;  9.9999998E-03; -2.0000000E-02;263;  0.0000000E+00;  0.0000000E+00;  0.0000000E+00;  1.0000000E+03;  4.0000001E-01;  0.0000000E+00;0;  0.0000000E+00;  0.0000000E+00;  0.0000000E+00;0;  0.0000000E+00;  1.0000000E+04;  0.0000000E+00;  0.0000000E+00;  1.0000000E+04;  0.0000000E+00;  1.0000000E+04;  0.0000000E+00;  0.0000000E+00;  0.0000000E+00;  0.0000000E+00;
 -7.9999998E-02;  9.9999998E-03; -1.8000001E-01;296;  0.0000000E+00;  0.0000000E+00;  0.0000000E+00;  1.0000000E+03;  4.0000001E-01;  0.0000000E+00;0;  0.0000000E+00;  0.0000000E+00;  0.0000000E+00;0;  0.0000000E+00;  1.0000000E+04;  0.0000000E+00;  0.0000000E+00;  1.0000000E+04;  0.0000000E+00;  1.0000000E+04;  0.0000000E+00;  0.0000000E+00;  0.0000000E+00;  0.0000000E+00;
 -7.9999998E-02;  9.9999998E-03; -1.6000000E-01;297;  0.0000000E+00;  0.0000000E+00;  0.0000000E+00;  1.0000000E+03;  4.0000001E-01;  0.0000000E+00;0;  0.0000000E+00;  0.0000000E+00;  0.0000000E+00;0;  0.0000000E+00;  1.0000000E+04;  0.0000000E+00;  0.0000000E+00;  1.0000000E+04;  0.0000000E+00;  1.0000000E+04;  0.0000000E+00;  0.0000000E+00;  0.0000000E+00;  0.0000000E+00;
 -7.9999998E-02;  9.9999998E-03; -1.4000000E-01;298;  0.0000000E+00;  0.0000000E+00;  0.0000000E+00;  1.0000000E+03;  4.0000001E-01;  0.0000000E+00;0;  0.0000000E+00;  0.0000000E+00;  0.0000000E+00;0;  0.0000000E+00;  1.0000000E+04;  0.0000000E+00;  0.0000000E+00;  1.0000000E+04;  0.0000000E+00;  1.0000000E+04;  0.0000000E+00;  0.0000000E+00;  0.0000000E+00;  0.0000000E+00;
 -7.9999998E-02;  9.9999998E-03; -1.2000000E-01;299;  0.0000000E+00;  0.0000000E+00;  0.0000000E+00;  1.0000000E+03;  4.0000001E-01;  0.0000000E+00;0;  0.0000000E+00;  0.0000000E+00;  0.0000000E+00;0;  0.0000000E+00;  1.0000000E+04;  0.0000000E+00;  0.0000000E+00;  1.0000000E+04;  0.0000000E+00;  1.0000000E+04;  0.0000000E+00;  0.0000000E+00;  0.0000000E+00;  0.0000000E+00;
 -7.9999998E-02;  9.9999998E-03; -1.0000000E-01;300;  0.0000000E+00;  0.0000000E+00;  0.0000000E+00;  1.0000000E+03;  4.0000001E-01;  0.0000000E+00;0;  0.0000000E+00;  0.0000000E+00;  0.0000000E+00;0;  0.0000000E+00;  1.0000000E+04;  0.0000000E+00;  0.0000000E+00;  1.0000000E+04;  0.0000000E+00;  1.0000000E+04;  0.0000000E+00;  0.0000000E+00;  0.0000000E+00;  0.0000000E+00;
 -7.9999998E-02;  9.9999998E-03; -7.9999998E-02;301;  0.0000000E+00;  0.0000000E+00;  0.0000000E+00;  1.0000000E+03;  4.0000001E-01;  0.0000000E+00;0;  0.0000000E+00;  0.0000000E+00;  0.0000000E+00;0;  0.0000000E+00;  1.0000000E+04;  0.0000000E+00;  0.0000000E+00;  1.0000000E+04;  0.0000000E+00;  1.0000000E+04;  0.0000000E+00;  0.0000000E+00;  0.0000000E+00;  0.0000000E+00;
 -7.9999998E-02;  9.9999998E-03; -5.9999999E-02;302;  0.0000000E+00;  0.0000000E+00;  0.0000000E+00;  1.0000000E+03;  4.0000001E-01;  0.0000000E+00;0;  0.0000000E+00;  0.0000000E+00;  0.0000000E+00;0;  0.0000000E+00;  1.0000000E+04;  0.0000000E+00;  0.0000000E+00;  1.0000000E+04;  0.0000000E+00;  1.0000000E+04;  0.0000000E+00;  0.0000000E+00;  0.0000000E+00;  0.0000000E+00;
 -7.9999998E-02;  9.9999998E-03; -3.9999999E-02;303;  0.0000000E+00;  0.0000000E+00;  0.0000000E+00;  1.0000000E+03;  4.0000001E-01;  0.0000000E+00;0;  0.0000000E+00;  0.0000000E+00;  0.0000000E+00;0;  0.0000000E+00;  1.0000000E+04;  0.0000000E+00;  0.0000000E+00;  1.0000000E+04;  0.0000000E+00;  1.0000000E+04;  0.0000000E+00;  0.0000000E+00;  0.0000000E+00;  0.0000000E+00;
 -7.9999998E-02;  9.9999998E-03; -2.0000000E-02;304;  0.0000000E+00;  0.0000000E+00;  0.0000000E+00;  1.0000000E+03;  4.0000001E-01;  0.0000000E+00;0;  0.0000000E+00;  0.0000000E+00;  0.0000000E+00;0;  0.0000000E+00;  1.0000000E+04;  0.0000000E+00;  0.0000000E+00;  1.0000000E+04;  0.0000000E+00;  1.0000000E+04;  0.0000000E+00;  0.0000000E+00;  0.0000000E+00;  0.0000000E+00;
 -5.9999999E-02;  9.9999998E-03; -1.8000001E-01;337;  0.0000000E+00;  0.0000000E+00;  0.0000000E+00;  1.0000000E+03;  4.0000001E-01;  0.0000000E+00;0;  0.0000000E+00;  0.0000000E+00;  0.0000000E+00;0;  0.0000000E+00;  1.0000000E+04;  0.0000000E+00;  0.0000000E+00;  1.0000000E+04;  0.0000000E+00;  1.0000000E+04;  0.0000000E+00;  0.0000000E+00;  0.0000000E+00;  0.0000000E+00;
 -5.9999999E-02;  9.9999998E-03; -1.6000000E-01;338;  0.0000000E+00;  0.0000000E+00;  0.0000000E+00;  1.0000000E+03;  4.0000001E-01;  0.0000000E+00;0;  0.0000000E+00;  0.0000000E+00;  0.0000000E+00;0;  0.0000000E+00;  1.0000000E+04;  0.0000000E+00;  0.0000000E+00;  1.0000000E+04;  0.0000000E+00;  1.0000000E+04;  0.0000000E+00;  0.0000000E+00;  0.0000000E+00;  0.0000000E+00;
 -5.9999999E-02;  9.9999998E-03; -1.4000000E-01;339;  0.0000000E+00;  0.0000000E+00;  0.0000000E+00;  1.0000000E+03;  4.0000001E-01;  0.0000000E+00;0;  0.0000000E+00;  0.0000000E+00;  0.0000000E+00;0;  0.0000000E+00;  1.0000000E+04;  0.0000000E+00;  0.0000000E+00;  1.0000000E+04;  0.0000000E+00;  1.0000000E+04;  0.0000000E+00;  0.0000000E+00;  0.0000000E+00;  0.0000000E+00;
 -5.9999999E-02;  9.9999998E-03; -1.2000000E-01;340;  0.0000000E+00;  0.0000000E+00;  0.0000000E+00;  1.0000000E+03;  4.0000001E-01;  0.0000000E+00;0;  0.0000000E+00;  0.0000000E+00;  0.0000000E+00;0;  0.0000000E+00;  1.0000000E+04;  0.0000000E+00;  0.0000000E+00;  1.0000000E+04;  0.0000000E+00;  1.0000000E+04;  0.0000000E+00;  0.0000000E+00;  0.0000000E+00;  0.0000000E+00;
 -5.9999999E-02;  9.9999998E-03; -1.0000000E-01;341;  0.0000000E+00;  0.0000000E+00;  0.0000000E+00;  1.0000000E+03;  4.0000001E-01;  0.0000000E+00;0;  0.0000000E+00;  0.0000000E+00;  0.0000000E+00;0;  0.0000000E+00;  1.0000000E+04;  0.0000000E+00;  0.0000000E+00;  1.0000000E+04;  0.0000000E+00;  1.0000000E+04;  0.0000000E+00;  0.0000000E+00;  0.0000000E+00;  0.0000000E+00;
 -5.9999999E-02;  9.9999998E-03; -7.9999998E-02;342;  0.0000000E+00;  0.0000000E+00;  0.0000000E+00;  1.0000000E+03;  4.0000001E-01;  0.0000000E+00;0;  0.0000000E+00;  0.0000000E+00;  0.0000000E+00;0;  0.0000000E+00;  1.0000000E+04;  0.0000000E+00;  0.0000000E+00;  1.0000000E+04;  0.0000000E+00;  1.0000000E+04;  0.0000000E+00;  0.0000000E+00;  0.0000000E+00;  0.0000000E+00;
 -5.9999999E-02;  9.9999998E-03; -5.9999999E-02;343;  0.0000000E+00;  0.0000000E+00;  0.0000000E+00;  1.0000000E+03;  4.0000001E-01;  0.0000000E+00;0;  0.0000000E+00;  0.0000000E+00;  0.0000000E+00;0;  0.0000000E+00;  1.0000000E+04;  0.0000000E+00;  0.0000000E+00;  1.0000000E+04;  0.0000000E+00;  1.0000000E+04;  0.0000000E+00;  0.0000000E+00;  0.0000000E+00;  0.0000000E+00;
 -5.9999999E-02;  9.9999998E-03; -3.9999999E-02;344;  0.0000000E+00;  0.0000000E+00;  0.0000000E+00;  1.0000000E+03;  4.0000001E-01;  0.0000000E+00;0;  0.0000000E+00;  0.0000000E+00;  0.0000000E+00;0;  0.0000000E+00;  1.0000000E+04;  0.0000000E+00;  0.0000000E+00;  1.0000000E+04;  0.0000000E+00;  1.0000000E+04;  0.0000000E+00;  0.0000000E+00;  0.0000000E+00;  0.0000000E+00;
 -5.9999999E-02;  9.9999998E-03; -2.0000000E-02;345;  0.0000000E+00;  0.0000000E+00;  0.0000000E+00;  1.0000000E+03;  4.0000001E-01;  0.0000000E+00;0;  0.0000000E+00;  0.0000000E+00;  0.0000000E+00;0;  0.0000000E+00;  1.0000000E+04;  0.0000000E+00;  0.0000000E+00;  1.0000000E+04;  0.0000000E+00;  1.0000000E+04;  0.0000000E+00;  0.0000000E+00;  0.0000000E+00;  0.0000000E+00;
 -3.9999999E-02;  9.9999998E-03; -1.8000001E-01;378;  0.0000000E+00;  0.0000000E+00;  0.0000000E+00;  1.0000000E+03;  4.0000001E-01;  0.0000000E+00;0;  0.0000000E+00;  0.0000000E+00;  0.0000000E+00;0;  0.0000000E+00;  1.0000000E+04;  0.0000000E+00;  0.0000000E+00;  1.0000000E+04;  0.0000000E+00;  1.0000000E+04;  0.0000000E+00;  0.0000000E+00;  0.0000000E+00;  0.0000000E+00;
 -3.9999999E-02;  9.9999998E-03; -1.6000000E-01;379;  0.0000000E+00;  0.0000000E+00;  0.0000000E+00;  1.0000000E+03;  4.0000001E-01;  0.0000000E+00;0;  0.0000000E+00;  0.0000000E+00;  0.0000000E+00;0;  0.0000000E+00;  1.0000000E+04;  0.0000000E+00;  0.0000000E+00;  1.0000000E+04;  0.0000000E+00;  1.0000000E+04;  0.0000000E+00;  0.0000000E+00;  0.0000000E+00;  0.0000000E+00;
 -3.9999999E-02;  9.9999998E-03; -1.4000000E-01;380;  0.0000000E+00;  0.0000000E+00;  0.0000000E+00;  1.0000000E+03;  4.0000001E-01;  0.0000000E+00;0;  0.0000000E+00;  0.0000000E+00;  0.0000000E+00;0;  0.0000000E+00;  1.0000000E+04;  0.0000000E+00;  0.0000000E+00;  1.0000000E+04;  0.0000000E+00;  1.0000000E+04;  0.0000000E+00;  0.0000000E+00;  0.0000000E+00;  0.0000000E+00;
 -3.9999999E-02;  9.9999998E-03; -1.2000000E-01;381;  0.0000000E+00;  0.0000000E+00;  0.0000000E+00;  1.0000000E+03;  4.0000001E-01;  0.0000000E+00;0;  0.0000000E+00;  0.0000000E+00;  0.0000000E+00;0;  0.0000000E+00;  1.0000000E+04;  0.0000000E+00;  0.0000000E+00;  1.0000000E+04;  0.0000000E+00;  1.0000000E+04;  0.0000000E+00;  0.0000000E+00;  0.0000000E+00;  0.0000000E+00;
 -3.9999999E-02;  9.9999998E-03; -1.0000000E-01;382;  0.0000000E+00;  0.0000000E+00;  0.0000000E+00;  1.0000000E+03;  4.0000001E-01;  0.0000000E+00;0;  0.0000000E+00;  0.0000000E+00;  0.0000000E+00;0;  0.0000000E+00;  1.0000000E+04;  0.0000000E+00;  0.0000000E+00;  1.0000000E+04;  0.0000000E+00;  1.0000000E+04;  0.0000000E+00;  0.0000000E+00;  0.0000000E+00;  0.0000000E+00;
 -3.9999999E-02;  9.9999998E-03; -7.9999998E-02;383;  0.0000000E+00;  0.0000000E+00;  0.0000000E+00;  1.0000000E+03;  4.0000001E-01;  0.0000000E+00;0;  0.0000000E+00;  0.0000000E+00;  0.0000000E+00;0;  0.0000000E+00;  1.0000000E+04;  0.0000000E+00;  0.0000000E+00;  1.0000000E+04;  0.0000000E+00;  1.0000000E+04;  0.0000000E+00;  0.0000000E+00;  0.0000000E+00;  0.0000000E+00;
 -3.9999999E-02;  9.9999998E-03; -5.9999999E-02;384;  0.0000000E+00;  0.0000000E+00;  0.0000000E+00;  1.0000000E+03;  4.0000001E-01;  0.0000000E+00;0;  0.0000000E+00;  0.0000000E+00;  0.0000000E+00;0;  0.0000000E+00;  1.0000000E+04;  0.0000000E+00;  0.0000000E+00;  1.0000000E+04;  0.0000000E+00;  1.0000000E+04;  0.0000000E+00;  0.0000000E+00;  0.0000000E+00;  0.0000000E+00;
 -3.9999999E-02;  9.9999998E-03; -3.9999999E-02;385;  0.0000000E+00;  0.0000000E+00;  0.0000000E+00;  1.0000000E+03;  4.0000001E-01;  0.0000000E+00;0;  0.0000000E+00;  0.0000000E+00;  0.0000000E+00;0;  0.0000000E+00;  1.0000000E+04;  0.0000000E+00;  0.0000000E+00;  1.0000000E+04;  0.0000000E+00;  1.0000000E+04;  0.0000000E+00;  0.0000000E+00;  0.0000000E+00;  0.0000000E+00;
 -3.9999999E-02;  9.9999998E-03; -2.0000000E-02;386;  0.0000000E+00;  0.0000000E+00;  0.0000000E+00;  1.0000000E+03;  4.0000001E-01;  0.0000000E+00;0;  0.0000000E+00;  0.0000000E+00;  0.0000000E+00;0;  0.0000000E+00;  1.0000000E+04;  0.0000000E+00;  0.0000000E+00;  1.0000000E+04;  0.0000000E+00;  1.0000000E+04;  0.0000000E+00;  0.0000000E+00;  0.0000000E+00;  0.0000000E+00;
 -2.0000000E-02;  9.9999998E-03; -1.8000001E-01;419;  0.0000000E+00;  0.0000000E+00;  0.0000000E+00;  1.0000000E+03;  4.0000001E-01;  0.0000000E+00;0;  0.0000000E+00;  0.0000000E+00;  0.0000000E+00;0;  0.0000000E+00;  1.0000000E+04;  0.0000000E+00;  0.0000000E+00;  1.0000000E+04;  0.0000000E+00;  1.0000000E+04;  0.0000000E+00;  0.0000000E+00;  0.0000000E+00;  0.0000000E+00;
 -2.0000000E-02;  9.9999998E-03; -1.6000000E-01;420;  0.0000000E+00;  0.0000000E+00;  0.0000000E+00;  1.0000000E+03;  4.0000001E-01;  0.0000000E+00;0;  0.0000000E+00;  0.0000000E+00;  0.0000000E+00;0;  0.0000000E+00;  1.0000000E+04;  0.0000000E+00;  0.0000000E+00;  1.0000000E+04;  0.0000000E+00;  1.0000000E+04;  0.0000000E+00;  0.0000000E+00;  0.0000000E+00;  0.0000000E+00;
 -2.0000000E-02;  9.9999998E-03; -1.4000000E-01;421;  0.0000000E+00;  0.0000000E+00;  0.0000000E+00;  1.0000000E+03;  4.0000001E-01;  0.0000000E+00;0;  0.0000000E+00;  0.0000000E+00;  0.0000000E+00;0;  0.0000000E+00;  1.0000000E+04;  0.0000000E+00;  0.0000000E+00;  1.0000000E+04;  0.0000000E+00;  1.0000000E+04;  0.0000000E+00;  0.0000000E+00;  0.0000000E+00;  0.0000000E+00;
 -2.0000000E-02;  9.9999998E-03; -1.2000000E-01;422;  0.0000000E+00;  0.0000000E+00;  0.0000000E+00;  1.0000000E+03;  4.0000001E-01;  0.0000000E+00;0;  0.0000000E+00;  0.0000000E+00;  0.0000000E+00;0;  0.0000000E+00;  1.0000000E+04;  0.0000000E+00;  0.0000000E+00;  1.0000000E+04;  0.0000000E+00;  1.0000000E+04;  0.0000000E+00;  0.0000000E+00;  0.0000000E+00;  0.0000000E+00;
 -2.0000000E-02;  9.9999998E-03; -1.0000000E-01;423;  0.0000000E+00;  0.0000000E+00;  0.0000000E+00;  1.0000000E+03;  4.0000001E-01;  0.0000000E+00;0;  0.0000000E+00;  0.0000000E+00;  0.0000000E+00;0;  0.0000000E+00;  1.0000000E+04;  0.0000000E+00;  0.0000000E+00;  1.0000000E+04;  0.0000000E+00;  1.0000000E+04;  0.0000000E+00;  0.0000000E+00;  0.0000000E+00;  0.0000000E+00;
 -2.0000000E-02;  9.9999998E-03; -7.9999998E-02;424;  0.0000000E+00;  0.0000000E+00;  0.0000000E+00;  1.0000000E+03;  4.0000001E-01;  0.0000000E+00;0;  0.0000000E+00;  0.0000000E+00;  0.0000000E+00;0;  0.0000000E+00;  1.0000000E+04;  0.0000000E+00;  0.0000000E+00;  1.0000000E+04;  0.0000000E+00;  1.0000000E+04;  0.0000000E+00;  0.0000000E+00;  0.0000000E+00;  0.0000000E+00;
 -2.0000000E-02;  9.9999998E-03; -5.9999999E-02;425;  0.0000000E+00;  0.0000000E+00;  0.0000000E+00;  1.0000000E+03;  4.0000001E-01;  0.0000000E+00;0;  0.0000000E+00;  0.0000000E+00;  0.0000000E+00;0;  0.0000000E+00;  1.0000000E+04;  0.0000000E+00;  0.0000000E+00;  1.0000000E+04;  0.0000000E+00;  1.0000000E+04;  0.0000000E+00;  0.0000000E+00;  0.0000000E+00;  0.0000000E+00;
 -2.0000000E-02;  9.9999998E-03; -3.9999999E-02;426;  0.0000000E+00;  0.0000000E+00;  0.0000000E+00;  1.0000000E+03;  4.0000001E-01;  0.0000000E+00;0;  0.0000000E+00;  0.0000000E+00;  0.0000000E+00;0;  0.0000000E+00;  1.0000000E+04;  0.0000000E+00;  0.0000000E+00;  1.0000000E+04;  0.0000000E+00;  1.0000000E+04;  0.0000000E+00;  0.0000000E+00;  0.0000000E+00;  0.0000000E+00;
 -2.0000000E-02;  9.9999998E-03; -2.0000000E-02;427;  0.0000000E+00;  0.0000000E+00;  0.0000000E+00;  1.0000000E+03;  4.0000001E-01;  0.0000000E+00;0;  0.0000000E+00;  0.0000000E+00;  0.0000000E+00;0;  0.0000000E+00;  1.0000000E+04;  0.0000000E+00;  0.0000000E+00;  1.0000000E+04;  0.0000000E+00;  1.0000000E+04;  0.0000000E+00;  0.0000000E+00;  0.0000000E+00;  0.0000000E+00;
 -2.2000000E-01;  9.9999998E-03;  0.0000000E+00;19;  0.0000000E+00;  0.0000000E+00;  0.0000000E+00;  1.0000000E+03;  4.0000001E-01;  0.0000000E+00;0;  0.0000000E+00;  0.0000000E+00;  0.0000000E+00;0;  0.0000000E+00;  1.0000000E+04;  0.0000000E+00;  0.0000000E+00;  1.0000000E+04;  0.0000000E+00;  1.0000000E+04;  0.0000000E+00;  0.0000000E+00;  0.0000000E+00;  0.0000000E+00;
 -2.2000000E-01;  9.9999998E-03;  2.0000000E-02;20;  0.0000000E+00;  0.0000000E+00;  0.0000000E+00;  1.0000000E+03;  4.0000001E-01;  0.0000000E+00;0;  0.0000000E+00;  0.0000000E+00;  0.0000000E+00;0;  0.0000000E+00;  1.0000000E+04;  0.0000000E+00;  0.0000000E+00;  1.0000000E+04;  0.0000000E+00;  1.0000000E+04;  0.0000000E+00;  0.0000000E+00;  0.0000000E+00;  0.0000000E+00;
 -2.2000000E-01;  9.9999998E-03;  3.9999999E-02;21;  0.0000000E+00;  0.0000000E+00;  0.0000000E+00;  1.0000000E+03;  4.0000001E-01;  0.0000000E+00;0;  0.0000000E+00;  0.0000000E+00;  0.0000000E+00;0;  0.0000000E+00;  1.0000000E+04;  0.0000000E+00;  0.0000000E+00;  1.0000000E+04;  0.0000000E+00;  1.0000000E+04;  0.0000000E+00;  0.0000000E+00;  0.0000000E+00;  0.0000000E+00;
 -2.2000000E-01;  9.9999998E-03;  5.9999999E-02;22;  0.0000000E+00;  0.0000000E+00;  0.0000000E+00;  1.0000000E+03;  4.0000001E-01;  0.0000000E+00;0;  0.0000000E+00;  0.0000000E+00;  0.0000000E+00;0;  0.0000000E+00;  1.0000000E+04;  0.0000000E+00;  0.0000000E+00;  1.0000000E+04;  0.0000000E+00;  1.0000000E+04;  0.0000000E+00;  0.0000000E+00;  0.0000000E+00;  0.0000000E+00;
 -2.2000000E-01;  9.9999998E-03;  7.9999998E-02;23;  0.0000000E+00;  0.0000000E+00;  0.0000000E+00;  1.0000000E+03;  4.0000001E-01;  0.0000000E+00;0;  0.0000000E+00;  0.0000000E+00;  0.0000000E+00;0;  0.0000000E+00;  1.0000000E+04;  0.0000000E+00;  0.0000000E+00;  1.0000000E+04;  0.0000000E+00;  1.0000000E+04;  0.0000000E+00;  0.0000000E+00;  0.0000000E+00;  0.0000000E+00;
 -2.2000000E-01;  9.9999998E-03;  1.0000000E-01;24;  0.0000000E+00;  0.0000000E+00;  0.0000000E+00;  1.0000000E+03;  4.0000001E-01;  0.0000000E+00;0;  0.0000000E+00;  0.0000000E+00;  0.0000000E+00;0;  0.0000000E+00;  1.0000000E+04;  0.0000000E+00;  0.0000000E+00;  1.0000000E+04;  0.0000000E+00;  1.0000000E+04;  0.0000000E+00;  0.0000000E+00;  0.0000000E+00;  0.0000000E+00;
 -2.2000000E-01;  9.9999998E-03;  1.2000000E-01;25;  0.0000000E+00;  0.0000000E+00;  0.0000000E+00;  1.0000000E+03;  4.0000001E-01;  0.0000000E+00;0;  0.0000000E+00;  0.0000000E+00;  0.0000000E+00;0;  0.0000000E+00;  1.0000000E+04;  0.0000000E+00;  0.0000000E+00;  1.0000000E+04;  0.0000000E+00;  1.0000000E+04;  0.0000000E+00;  0.0000000E+00;  0.0000000E+00;  0.0000000E+00;
 -2.2000000E-01;  9.9999998E-03;  1.4000000E-01;26;  0.0000000E+00;  0.0000000E+00;  0.0000000E+00;  1.0000000E+03;  4.0000001E-01;  0.0000000E+00;0;  0.0000000E+00;  0.0000000E+00;  0.0000000E+00;0;  0.0000000E+00;  1.0000000E+04;  0.0000000E+00;  0.0000000E+00;  1.0000000E+04;  0.0000000E+00;  1.0000000E+04;  0.0000000E+00;  0.0000000E+00;  0.0000000E+00;  0.0000000E+00;
 -2.0000000E-01;  9.9999998E-03;  0.0000000E+00;59;  0.0000000E+00;  0.0000000E+00;  0.0000000E+00;  1.0000000E+03;  4.0000001E-01;  0.0000000E+00;0;  0.0000000E+00;  0.0000000E+00;  0.0000000E+00;0;  0.0000000E+00;  1.0000000E+04;  0.0000000E+00;  0.0000000E+00;  1.0000000E+04;  0.0000000E+00;  1.0000000E+04;  0.0000000E+00;  0.0000000E+00;  0.0000000E+00;  0.0000000E+00;
 -2.0000000E-01;  9.9999998E-03;  2.0000000E-02;60;  0.0000000E+00;  0.0000000E+00;  0.0000000E+00;  1.0000000E+03;  4.0000001E-01;  0.0000000E+00;0;  0.0000000E+00;  0.0000000E+00;  0.0000000E+00;0;  0.0000000E+00;  1.0000000E+04;  0.0000000E+00;  0.0000000E+00;  1.0000000E+04;  0.0000000E+00;  1.0000000E+04;  0.0000000E+00;  0.0000000E+00;  0.0000000E+00;  0.0000000E+00;
 -2.0000000E-01;  9.9999998E-03;  3.9999999E-02;61;  0.0000000E+00;  0.0000000E+00;  0.0000000E+00;  1.0000000E+03;  4.0000001E-01;  0.0000000E+00;0;  0.0000000E+00;  0.0000000E+00;  0.0000000E+00;0;  0.0000000E+00;  1.0000000E+04;  0.0000000E+00;  0.0000000E+00;  1.0000000E+04;  0.0000000E+00;  1.0000000E+04;  0.0000000E+00;  0.0000000E+00;  0.0000000E+00;  0.0000000E+00;
 -2.0000000E-01;  9.9999998E-03;  5.9999999E-02;62;  0.0000000E+00;  0.0000000E+00;  0.0000000E+00;  1.0000000E+03;  4.0000001E-01;  0.0000000E+00;0;  0.0000000E+00;  0.0000000E+00;  0.0000000E+00;0;  0.0000000E+00;  1.0000000E+04;  0.0000000E+00;  0.0000000E+00;  1.0000000E+04;  0.0000000E+00;  1.0000000E+04;  0.0000000E+00;  0.0000000E+00;  0.0000000E+00;  0.0000000E+00;
 -2.0000000E-01;  9.9999998E-03;  7.9999998E-02;63;  0.0000000E+00;  0.0000000E+00;  0.0000000E+00;  1.0000000E+03;  4.0000001E-01;  0.0000000E+00;0;  0.0000000E+00;  0.0000000E+00;  0.0000000E+00;0;  0.0000000E+00;  1.0000000E+04;  0.0000000E+00;  0.0000000E+00;  1.0000000E+04;  0.0000000E+00;  1.0000000E+04;  0.0000000E+00;  0.0000000E+00;  0.0000000E+00;  0.0000000E+00;
 -2.0000000E-01;  9.9999998E-03;  1.0000000E-01;64;  0.0000000E+00;  0.0000000E+00;  0.0000000E+00;  1.0000000E+03;  4.0000001E-01;  0.0000000E+00;0;  0.0000000E+00;  0.0000000E+00;  0.0000000E+00;0;  0.0000000E+00;  1.0000000E+04;  0.0000000E+00;  0.0000000E+00;  1.0000000E+04;  0.0000000E+00;  1.0000000E+04;  0.0000000E+00;  0.0000000E+00;  0.0000000E+00;  0.0000000E+00;
 -2.0000000E-01;  9.9999998E-03;  1.2000000E-01;65;  0.0000000E+00;  0.0000000E+00;  0.0000000E+00;  1.0000000E+03;  4.0000001E-01;  0.0000000E+00;0;  0.0000000E+00;  0.0000000E+00;  0.0000000E+00;0;  0.0000000E+00;  1.0000000E+04;  0.0000000E+00;  0.0000000E+00;  1.0000000E+04;  0.0000000E+00;  1.0000000E+04;  0.0000000E+00;  0.0000000E+00;  0.0000000E+00;  0.0000000E+00;
 -2.0000000E-01;  9.9999998E-03;  1.4000000E-01;66;  0.0000000E+00;  0.0000000E+00;  0.0000000E+00;  1.0000000E+03;  4.0000001E-01;  0.0000000E+00;0;  0.0000000E+00;  0.0000000E+00;  0.0000000E+00;0;  0.0000000E+00;  1.0000000E+04;  0.0000000E+00;  0.0000000E+00;  1.0000000E+04;  0.0000000E+00;  1.0000000E+04;  0.0000000E+00;  0.0000000E+00;  0.0000000E+00;  0.0000000E+00;
 -1.8000001E-01;  9.9999998E-03;  0.0000000E+00;100;  0.0000000E+00;  0.0000000E+00;  0.0000000E+00;  1.0000000E+03;  4.0000001E-01;  0.0000000E+00;0;  0.0000000E+00;  0.0000000E+00;  0.0000000E+00;0;  0.0000000E+00;  1.0000000E+04;  0.0000000E+00;  0.0000000E+00;  1.0000000E+04;  0.0000000E+00;  1.0000000E+04;  0.0000000E+00;  0.0000000E+00;  0.0000000E+00;  0.0000000E+00;
 -1.8000001E-01;  9.9999998E-03;  2.0000000E-02;101;  0.0000000E+00;  0.0000000E+00;  0.0000000E+00;  1.0000000E+03;  4.0000001E-01;  0.0000000E+00;0;  0.0000000E+00;  0.0000000E+00;  0.0000000E+00;0;  0.0000000E+00;  1.0000000E+04;  0.0000000E+00;  0.0000000E+00;  1.0000000E+04;  0.0000000E+00;  1.0000000E+04;  0.0000000E+00;  0.0000000E+00;  0.0000000E+00;  0.0000000E+00;
 -1.8000001E-01;  9.9999998E-03;  3.9999999E-02;102;  0.0000000E+00;  0.0000000E+00;  0.0000000E+00;  1.0000000E+03;  4.0000001E-01;  0.0000000E+00;0;  0.0000000E+00;  0.0000000E+00;  0.0000000E+00;0;  0.0000000E+00;  1.0000000E+04;  0.0000000E+00;  0.0000000E+00;  1.0000000E+04;  0.0000000E+00;  1.0000000E+04;  0.0000000E+00;  0.0000000E+00;  0.0000000E+00;  0.0000000E+00;
 -1.8000001E-01;  9.9999998E-03;  5.9999999E-02;103;  0.0000000E+00;  0.0000000E+00;  0.0000000E+00;  1.0000000E+03;  4.0000001E-01;  0.0000000E+00;0;  0.0000000E+00;  0.0000000E+00;  0.0000000E+00;0;  0.0000000E+00;  1.0000000E+04;  0.0000000E+00;  0.0000000E+00;  1.0000000E+04;  0.0000000E+00;  1.0000000E+04;  0.0000000E+00;  0.0000000E+00;  0.0000000E+00;  0.0000000E+00;
 -1.8000001E-01;  9.9999998E-03;  7.9999998E-02;104;  0.0000000E+00;  0.0000000E+00;  0.0000000E+00;  1.0000000E+03;  4.0000001E-01;  0.0000000E+00;0;  0.0000000E+00;  0.0000000E+00;  0.0000000E+00;0;  0.0000000E+00;  1.0000000E+04;  0.0000000E+00;  0.0000000E+00;  1.0000000E+04;  0.0000000E+00;  1.0000000E+04;  0.0000000E+00;  0.0000000E+00;  0.0000000E+00;  0.0000000E+00;
 -1.8000001E-01;  9.9999998E-03;  1.0000000E-01;105;  0.0000000E+00;  0.0000000E+00;  0.0000000E+00;  1.0000000E+03;  4.0000001E-01;  0.0000000E+00;0;  0.0000000E+00;  0.0000000E+00;  0.0000000E+00;0;  0.0000000E+00;  1.0000000E+04;  0.0000000E+00;  0.0000000E+00;  1.0000000E+04;  0.0000000E+00;  1.0000000E+04;  0.0000000E+00;  0.0000000E+00;  0.0000000E+00;  0.0000000E+00;
 -1.8000001E-01;  9.9999998E-03;  1.2000000E-01;106;  0.0000000E+00;  0.0000000E+00;  0.0000000E+00;  1.0000000E+03;  4.0000001E-01;  0.0000000E+00;0;  0.0000000E+00;  0.0000000E+00;  0.0000000E+00;0;  0.0000000E+00;  1.0000000E+04;  0.0000000E+00;  0.0000000E+00;  1.0000000E+04;  0.0000000E+00;  1.0000000E+04;  0.0000000E+00;  0.0000000E+00;  0.0000000E+00;  0.0000000E+00;
 -1.8000001E-01;  9.9999998E-03;  1.4000000E-01;107;  0.0000000E+00;  0.0000000E+00;  0.0000000E+00;  1.0000000E+03;  4.0000001E-01;  0.0000000E+00;0;  0.0000000E+00;  0.0000000E+00;  0.0000000E+00;0;  0.0000000E+00;  1.0000000E+04;  0.0000000E+00;  0.0000000E+00;  1.0000000E+04;  0.0000000E+00;  1.0000000E+04;  0.0000000E+00;  0.0000000E+00;  0.0000000E+00;  0.0000000E+00;
 -1.6000000E-01;  9.9999998E-03;  0.0000000E+00;141;  0.0000000E+00;  0.0000000E+00;  0.0000000E+00;  1.0000000E+03;  4.0000001E-01;  0.0000000E+00;0;  0.0000000E+00;  0.0000000E+00;  0.0000000E+00;0;  0.0000000E+00;  1.0000000E+04;  0.0000000E+00;  0.0000000E+00;  1.0000000E+04;  0.0000000E+00;  1.0000000E+04;  0.0000000E+00;  0.0000000E+00;  0.0000000E+00;  0.0000000E+00;
 -1.6000000E-01;  9.9999998E-03;  2.0000000E-02;142;  0.0000000E+00;  0.0000000E+00;  0.0000000E+00;  1.0000000E+03;  4.0000001E-01;  0.0000000E+00;0;  0.0000000E+00;  0.0000000E+00;  0.0000000E+00;0;  0.0000000E+00;  1.0000000E+04;  0.0000000E+00;  0.0000000E+00;  1.0000000E+04;  0.0000000E+00;  1.0000000E+04;  0.0000000E+00;  0.0000000E+00;  0.0000000E+00;  0.0000000E+00;
 -1.6000000E-01;  9.9999998E-03;  3.9999999E-02;143;  0.0000000E+00;  0.0000000E+00;  0.0000000E+00;  1.0000000E+03;  4.0000001E-01;  0.0000000E+00;0;  0.0000000E+00;  0.0000000E+00;  0.0000000E+00;0;  0.0000000E+00;  1.0000000E+04;  0.0000000E+00;  0.0000000E+00;  1.0000000E+04;  0.0000000E+00;  1.0000000E+04;  0.0000000E+00;  0.0000000E+00;  0.0000000E+00;  0.0000000E+00;
 -1.6000000E-01;  9.9999998E-03;  5.9999999E-02;144;  0.0000000E+00;  0.0000000E+00;  0.0000000E+00;  1.0000000E+03;  4.0000001E-01;  0.0000000E+00;0;  0.0000000E+00;  0.0000000E+00;  0.0000000E+00;0;  0.0000000E+00;  1.0000000E+04;  0.0000000E+00;  0.0000000E+00;  1.0000000E+04;  0.0000000E+00;  1.0000000E+04;  0.0000000E+00;  0.0000000E+00;  0.0000000E+00;  0.0000000E+00;
 -1.6000000E-01;  9.9999998E-03;  7.9999998E-02;145;  0.0000000E+00;  0.0000000E+00;  0.0000000E+00;  1.0000000E+03;  4.0000001E-01;  0.0000000E+00;0;  0.0000000E+00;  0.0000000E+00;  0.0000000E+00;0;  0.0000000E+00;  1.0000000E+04;  0.0000000E+00;  0.0000000E+00;  1.0000000E+04;  0.0000000E+00;  1.0000000E+04;  0.0000000E+00;  0.0000000E+00;  0.0000000E+00;  0.0000000E+00;
 -1.6000000E-01;  9.9999998E-03;  1.0000000E-01;146;  0.0000000E+00;  0.0000000E+00;  0.0000000E+00;  1.0000000E+03;  4.0000001E-01;  0.0000000E+00;0;  0.0000000E+00;  0.0000000E+00;  0.0000000E+00;0;  0.0000000E+00;  1.0000000E+04;  0.0000000E+00;  0.0000000E+00;  1.0000000E+04;  0.0000000E+00;  1.0000000E+04;  0.0000000E+00;  0.0000000E+00;  0.0000000E+00;  0.0000000E+00;
 -1.6000000E-01;  9.9999998E-03;  1.2000000E-01;147;  0.0000000E+00;  0.0000000E+00;  0.0000000E+00;  1.0000000E+03;  4.0000001E-01;  0.0000000E+00;0;  0.0000000E+00;  0.0000000E+00;  0.0000000E+00;0;  0.0000000E+00;  1.0000000E+04;  0.0000000E+00;  0.0000000E+00;  1.0000000E+04;  0.0000000E+00;  1.0000000E+04;  0.0000000E+00;  0.0000000E+00;  0.0000000E+00;  0.0000000E+00;
 -1.6000000E-01;  9.9999998E-03;  1.4000000E-01;148;  0.0000000E+00;  0.0000000E+00;  0.0000000E+00;  1.0000000E+03;  4.0000001E-01;  0.0000000E+00;0;  0.0000000E+00;  0.0000000E+00;  0.0000000E+00;0;  0.0000000E+00;  1.0000000E+04;  0.0000000E+00;  0.0000000E+00;  1.0000000E+04;  0.0000000E+00;  1.0000000E+04;  0.0000000E+00;  0.0000000E+00;  0.0000000E+00;  0.0000000E+00;
 -1.4000000E-01;  9.9999998E-03;  0.0000000E+00;182;  0.0000000E+00;  0.0000000E+00;  0.0000000E+00;  1.0000000E+03;  4.0000001E-01;  0.0000000E+00;0;  0.0000000E+00;  0.0000000E+00;  0.0000000E+00;0;  0.0000000E+00;  1.0000000E+04;  0.0000000E+00;  0.0000000E+00;  1.0000000E+04;  0.0000000E+00;  1.0000000E+04;  0.0000000E+00;  0.0000000E+00;  0.0000000E+00;  0.0000000E+00;
 -1.4000000E-01;  9.9999998E-03;  2.0000000E-02;183;  0.0000000E+00;  0.0000000E+00;  0.0000000E+00;  1.0000000E+03;  4.0000001E-01;  0.0000000E+00;0;  0.0000000E+00;  0.0000000E+00;  0.0000000E+00;0;  0.0000000E+00;  1.0000000E+04;  0.0000000E+00;  0.0000000E+00;  1.0000000E+04;  0.0000000E+00;  1.0000000E+04;  0.0000000E+00;  0.0000000E+00;  0.0000000E+00;  0.0000000E+00;
 -1.4000000E-01;  9.9999998E-03;  3.9999999E-02;184;  0.0000000E+00;  0.0000000E+00;  0.0000000E+00;  1.0000000E+03;  4.0000001E-01;  0.0000000E+00;0;  0.0000000E+00;  0.0000000E+00;  0.0000000E+00;0;  0.0000000E+00;  1.0000000E+04;  0.0000000E+00;  0.0000000E+00;  1.0000000E+04;  0.0000000E+00;  1.0000000E+04;  0.0000000E+00;  0.0000000E+00;  0.0000000E+00;  0.0000000E+00;
 -1.4000000E-01;  9.9999998E-03;  5.9999999E-02;185;  0.0000000E+00;  0.0000000E+00;  0.0000000E+00;  1.0000000E+03;  4.0000001E-01;  0.0000000E+00;0;  0.0000000E+00;  0.0000000E+00;  0.0000000E+00;0;  0.0000000E+00;  1.0000000E+04;  0.0000000E+00;  0.0000000E+00;  1.0000000E+04;  0.0000000E+00;  1.0000000E+04;  0.0000000E+00;  0.0000000E+00;  0.0000000E+00;  0.0000000E+00;
 -1.4000000E-01;  9.9999998E-03;  7.9999998E-02;186;  0.0000000E+00;  0.0000000E+00;  0.0000000E+00;  1.0000000E+03;  4.0000001E-01;  0.0000000E+00;0;  0.0000000E+00;  0.0000000E+00;  0.0000000E+00;0;  0.0000000E+00;  1.0000000E+04;  0.0000000E+00;  0.0000000E+00;  1.0000000E+04;  0.0000000E+00;  1.0000000E+04;  0.0000000E+00;  0.0000000E+00;  0.0000000E+00;  0.0000000E+00;
 -1.4000000E-01;  9.9999998E-03;  1.0000000E-01;187;  0.0000000E+00;  0.0000000E+00;  0.0000000E+00;  1.0000000E+03;  4.0000001E-01;  0.0000000E+00;0;  0.0000000E+00;  0.0000000E+00;  0.0000000E+00;0;  0.0000000E+00;  1.0000000E+04;  0.0000000E+00;  0.0000000E+00;  1.0000000E+04;  0.0000000E+00;  1.0000000E+04;  0.0000000E+00;  0.0000000E+00;  0.0000000E+00;  0.0000000E+00;
 -1.4000000E-01;  9.9999998E-03;  1.2000000E-01;188;  0.0000000E+00;  0.0000000E+00;  0.0000000E+00;  1.0000000E+03;  4.0000001E-01;  0.0000000E+00;0;  0.0000000E+00;  0.0000000E+00;  0.0000000E+00;0;  0.0000000E+00;  1.0000000E+04;  0.0000000E+00;  0.0000000E+00;  1.0000000E+04;  0.0000000E+00;  1.0000000E+04;  0.0000000E+00;  0.0000000E+00;  0.0000000E+00;  0.0000000E+00;
 -1.4000000E-01;  9.9999998E-03;  1.4000000E-01;189;  0.0000000E+00;  0.0000000E+00;  0.0000000E+00;  1.0000000E+03;  4.0000001E-01;  0.0000000E+00;0;  0.0000000E+00;  0.0000000E+00;  0.0000000E+00;0;  0.0000000E+00;  1.0000000E+04;  0.0000000E+00;  0.0000000E+00;  1.0000000E+04;  0.0000000E+00;  1.0000000E+04;  0.0000000E+00;  0.0000000E+00;  0.0000000E+00;  0.0000000E+00;
 -1.2000000E-01;  9.9999998E-03;  0.0000000E+00;223;  0.0000000E+00;  0.0000000E+00;  0.0000000E+00;  1.0000000E+03;  4.0000001E-01;  0.0000000E+00;0;  0.0000000E+00;  0.0000000E+00;  0.0000000E+00;0;  0.0000000E+00;  1.0000000E+04;  0.0000000E+00;  0.0000000E+00;  1.0000000E+04;  0.0000000E+00;  1.0000000E+04;  0.0000000E+00;  0.0000000E+00;  0.0000000E+00;  0.0000000E+00;
 -1.2000000E-01;  9.9999998E-03;  2.0000000E-02;224;  0.0000000E+00;  0.0000000E+00;  0.0000000E+00;  1.0000000E+03;  4.0000001E-01;  0.0000000E+00;0;  0.0000000E+00;  0.0000000E+00;  0.0000000E+00;0;  0.0000000E+00;  1.0000000E+04;  0.0000000E+00;  0.0000000E+00;  1.0000000E+04;  0.0000000E+00;  1.0000000E+04;  0.0000000E+00;  0.0000000E+00;  0.0000000E+00;  0.0000000E+00;
 -1.2000000E-01;  9.9999998E-03;  3.9999999E-02;225;  0.0000000E+00;  0.0000000E+00;  0.0000000E+00;  1.0000000E+03;  4.0000001E-01;  0.0000000E+00;0;  0.0000000E+00;  0.0000000E+00;  0.0000000E+00;0;  0.0000000E+00;  1.0000000E+04;  0.0000000E+00;  0.0000000E+00;  1.0000000E+04;  0.0000000E+00;  1.0000000E+04;  0.0000000E+00;  0.0000000E+00;  0.0000000E+00;  0.0000000E+00;
 -1.2000000E-01;  9.9999998E-03;  5.9999999E-02;226;  0.0000000E+00;  0.0000000E+00;  0.0000000E+00;  1.0000000E+03;  4.0000001E-01;  0.0000000E+00;0;  0.0000000E+00;  0.0000000E+00;  0.0000000E+00;0;  0.0000000E+00;  1.0000000E+04;  0.0000000E+00;  0.0000000E+00;  1.0000000E+04;  0.0000000E+00;  1.0000000E+04;  0.0000000E+00;  0.0000000E+00;  0.0000000E+00;  0.0000000E+00;
 -1.2000000E-01;  9.9999998E-03;  7.9999998E-02;227;  0.0000000E+00;  0.0000000E+00;  0.0000000E+00;  1.0000000E+03;  4.0000001E-01;  0.0000000E+00;0;  0.0000000E+00;  0.0000000E+00;  0.0000000E+00;0;  0.0000000E+00;  1.0000000E+04;  0.0000000E+00;  0.0000000E+00;  1.0000000E+04;  0.0000000E+00;  1.0000000E+04;  0.0000000E+00;  0.0000000E+00;  0.0000000E+00;  0.0000000E+00;
 -1.2000000E-01;  9.9999998E-03;  1.0000000E-01;228;  0.0000000E+00;  0.0000000E+00;  0.0000000E+00;  1.0000000E+03;  4.0000001E-01;  0.0000000E+00;0;  0.0000000E+00;  0.0000000E+00;  0.0000000E+00;0;  0.0000000E+00;  1.0000000E+04;  0.0000000E+00;  0.0000000E+00;  1.0000000E+04;  0.0000000E+00;  1.0000000E+04;  0.0000000E+00;  0.0000000E+00;  0.0000000E+00;  0.0000000E+00;
 -1.2000000E-01;  9.9999998E-03;  1.2000000E-01;229;  0.0000000E+00;  0.0000000E+00;  0.0000000E+00;  1.0000000E+03;  4.0000001E-01;  0.0000000E+00;0;  0.0000000E+00;  0.0000000E+00;  0.0000000E+00;0;  0.0000000E+00;  1.0000000E+04;  0.0000000E+00;  0.0000000E+00;  1.0000000E+04;  0.0000000E+00;  1.0000000E+04;  0.0000000E+00;  0.0000000E+00;  0.0000000E+00;  0.0000000E+00;
 -1.2000000E-01;  9.9999998E-03;  1.4000000E-01;230;  0.0000000E+00;  0.0000000E+00;  0.0000000E+00;  1.0000000E+03;  4.0000001E-01;  0.0000000E+00;0;  0.0000000E+00;  0.0000000E+00;  0.0000000E+00;0;  0.0000000E+00;  1.0000000E+04;  0.0000000E+00;  0.0000000E+00;  1.0000000E+04;  0.0000000E+00;  1.0000000E+04;  0.0000000E+00;  0.0000000E+00;  0.0000000E+00;  0.0000000E+00;
 -1.0000000E-01;  9.9999998E-03;  0.0000000E+00;264;  0.0000000E+00;  0.0000000E+00;  0.0000000E+00;  1.0000000E+03;  4.0000001E-01;  0.0000000E+00;0;  0.0000000E+00;  0.0000000E+00;  0.0000000E+00;0;  0.0000000E+00;  1.0000000E+04;  0.0000000E+00;  0.0000000E+00;  1.0000000E+04;  0.0000000E+00;  1.0000000E+04;  0.0000000E+00;  0.0000000E+00;  0.0000000E+00;  0.0000000E+00;
 -1.0000000E-01;  9.9999998E-03;  2.0000000E-02;265;  0.0000000E+00;  0.0000000E+00;  0.0000000E+00;  1.0000000E+03;  4.0000001E-01;  0.0000000E+00;0;  0.0000000E+00;  0.0000000E+00;  0.0000000E+00;0;  0.0000000E+00;  1.0000000E+04;  0.0000000E+00;  0.0000000E+00;  1.0000000E+04;  0.0000000E+00;  1.0000000E+04;  0.0000000E+00;  0.0000000E+00;  0.0000000E+00;  0.0000000E+00;
 -1.0000000E-01;  9.9999998E-03;  3.9999999E-02;266;  0.0000000E+00;  0.0000000E+00;  0.0000000E+00;  1.0000000E+03;  4.0000001E-01;  0.0000000E+00;0;  0.0000000E+00;  0.0000000E+00;  0.0000000E+00;0;  0.0000000E+00;  1.0000000E+04;  0.0000000E+00;  0.0000000E+00;  1.0000000E+04;  0.0000000E+00;  1.0000000E+04;  0.0000000E+00;  0.0000000E+00;  0.0000000E+00;  0.0000000E+00;
 -1.0000000E-01;  9.9999998E-03;  5.9999999E-02;267;  0.0000000E+00;  0.0000000E+00;  0.0000000E+00;  1.0000000E+03;  4.0000001E-01;  0.0000000E+00;0;  0.0000000E+00;  0.0000000E+00;  0.0000000E+00;0;  0.0000000E+00;  1.0000000E+04;  0.0000000E+00;  0.0000000E+00;  1.0000000E+04;  0.0000000E+00;  1.0000000E+04;  0.0000000E+00;  0.0000000E+00;  0.0000000E+00;  0.0000000E+00;
 -1.0000000E-01;  9.9999998E-03;  7.9999998E-02;268;  0.0000000E+00;  0.0000000E+00;  0.0000000E+00;  1.0000000E+03;  4.0000001E-01;  0.0000000E+00;0;  0.0000000E+00;  0.0000000E+00;  0.0000000E+00;0;  0.0000000E+00;  1.0000000E+04;  0.0000000E+00;  0.0000000E+00;  1.0000000E+04;  0.0000000E+00;  1.0000000E+04;  0.0000000E+00;  0.0000000E+00;  0.0000000E+00;  0.0000000E+00;
 -1.0000000E-01;  9.9999998E-03;  1.0000000E-01;269;  0.0000000E+00;  0.0000000E+00;  0.0000000E+00;  1.0000000E+03;  4.0000001E-01;  0.0000000E+00;0;  0.0000000E+00;  0.0000000E+00;  0.0000000E+00;0;  0.0000000E+00;  1.0000000E+04;  0.0000000E+00;  0.0000000E+00;  1.0000000E+04;  0.0000000E+00;  1.0000000E+04;  0.0000000E+00;  0.0000000E+00;  0.0000000E+00;  0.0000000E+00;
 -1.0000000E-01;  9.9999998E-03;  1.2000000E-01;270;  0.0000000E+00;  0.0000000E+00;  0.0000000E+00;  1.0000000E+03;  4.0000001E-01;  0.0000000E+00;0;  0.0000000E+00;  0.0000000E+00;  0.0000000E+00;0;  0.0000000E+00;  1.0000000E+04;  0.0000000E+00;  0.0000000E+00;  1.0000000E+04;  0.0000000E+00;  1.0000000E+04;  0.0000000E+00;  0.0000000E+00;  0.0000000E+00;  0.0000000E+00;
 -1.0000000E-01;  9.9999998E-03;  1.4000000E-01;271;  0.0000000E+00;  0.0000000E+00;  0.0000000E+00;  1.0000000E+03;  4.0000001E-01;  0.0000000E+00;0;  0.0000000E+00;  0.0000000E+00;  0.0000000E+00;0;  0.0000000E+00;  1.0000000E+04;  0.0000000E+00;  0.0000000E+00;  1.0000000E+04;  0.0000000E+00;  1.0000000E+04;  0.0000000E+00;  0.0000000E+00;  0.0000000E+00;  0.0000000E+00;
 -7.9999998E-02;  9.9999998E-03;  0.0000000E+00;305;  0.0000000E+00;  0.0000000E+00;  0.0000000E+00;  1.0000000E+03;  4.0000001E-01;  0.0000000E+00;0;  0.0000000E+00;  0.0000000E+00;  0.0000000E+00;0;  0.0000000E+00;  1.0000000E+04;  0.0000000E+00;  0.0000000E+00;  1.0000000E+04;  0.0000000E+00;  1.0000000E+04;  0.0000000E+00;  0.0000000E+00;  0.0000000E+00;  0.0000000E+00;
 -7.9999998E-02;  9.9999998E-03;  2.0000000E-02;306;  0.0000000E+00;  0.0000000E+00;  0.0000000E+00;  1.0000000E+03;  4.0000001E-01;  0.0000000E+00;0;  0.0000000E+00;  0.0000000E+00;  0.0000000E+00;0;  0.0000000E+00;  1.0000000E+04;  0.0000000E+00;  0.0000000E+00;  1.0000000E+04;  0.0000000E+00;  1.0000000E+04;  0.0000000E+00;  0.0000000E+00;  0.0000000E+00;  0.0000000E+00;
 -7.9999998E-02;  9.9999998E-03;  3.9999999E-02;307;  0.0000000E+00;  0.0000000E+00;  0.0000000E+00;  1.0000000E+03;  4.0000001E-01;  0.0000000E+00;0;  0.0000000E+00;  0.0000000E+00;  0.0000000E+00;0;  0.0000000E+00;  1.0000000E+04;  0.0000000E+00;  0.0000000E+00;  1.0000000E+04;  0.0000000E+00;  1.0000000E+04;  0.0000000E+00;  0.0000000E+00;  0.0000000E+00;  0.0000000E+00;
 -7.9999998E-02;  9.9999998E-03;  5.9999999E-02;308;  0.0000000E+00;  0.0000000E+00;  0.0000000E+00;  1.0000000E+03;  4.0000001E-01;  0.0000000E+00;0;  0.0000000E+00;  0.0000000E+00;  0.0000000E+00;0;  0.0000000E+00;  1.0000000E+04;  0.0000000E+00;  0.0000000E+00;  1.0000000E+04;  0.0000000E+00;  1.0000000E+04;  0.0000000E+00;  0.0000000E+00;  0.0000000E+00;  0.0000000E+00;
 -7.9999998E-02;  9.9999998E-03;  7.9999998E-02;309;  0.0000000E+00;  0.0000000E+00;  0.0000000E+00;  1.0000000E+03;  4.0000001E-01;  0.0000000E+00;0;  0.0000000E+00;  0.0000000E+00;  0.0000000E+00;0;  0.0000000E+00;  1.0000000E+04;  0.0000000E+00;  0.0000000E+00;  1.0000000E+04;  0.0000000E+00;  1.0000000E+04;  0.0000000E+00;  0.0000000E+00;  0.0000000E+00;  0.0000000E+00;
 -7.9999998E-02;  9.9999998E-03;  1.0000000E-01;310;  0.0000000E+00;  0.0000000E+00;  0.0000000E+00;  1.0000000E+03;  4.0000001E-01;  0.0000000E+00;0;  0.0000000E+00;  0.0000000E+00;  0.0000000E+00;0;  0.0000000E+00;  1.0000000E+04;  0.0000000E+00;  0.0000000E+00;  1.0000000E+04;  0.0000000E+00;  1.0000000E+04;  0.0000000E+00;  0.0000000E+00;  0.0000000E+00;  0.0000000E+00;
 -7.9999998E-02;  9.9999998E-03;  1.2000000E-01;311;  0.0000000E+00;  0.0000000E+00;  0.0000000E+00;  1.0000000E+03;  4.0000001E-01;  0.0000000E+00;0;  0.0000000E+00;  0.0000000E+00;  0.0000000E+00;0;  0.0000000E+00;  1.0000000E+04;  0.0000000E+00;  0.0000000E+00;  1.0000000E+04;  0.0000000E+00;  1.0000000E+04;  0.0000000E+00;  0.0000000E+00;  0.0000000E+00;  0.0000000E+00;
 -7.9999998E-02;  9.9999998E-03;  1.4000000E-01;312;  0.0000000E+00;  0.0000000E+00;  0.0000000E+00;  1.0000000E+03;  4.0000001E-01;  0.0000000E+00;0;  0.0000000E+00;  0.0000000E+00;  0.0000000E+00;0;  0.0000000E+00;  1.0000000E+04;  0.0000000E+00;  0.0000000E+00;  1.0000000E+04;  0.0000000E+00;  1.0000000E+04;  0.0000000E+00;  0.0000000E+00;  0.0000000E+00;  0.0000000E+00;
 -5.9999999E-02;  9.9999998E-03;  0.0000000E+00;346;  0.0000000E+00;  0.0000000E+00;  0.0000000E+00;  1.0000000E+03;  4.0000001E-01;  0.0000000E+00;0;  0.0000000E+00;  0.0000000E+00;  0.0000000E+00;0;  0.0000000E+00;  1.0000000E+04;  0.0000000E+00;  0.0000000E+00;  1.0000000E+04;  0.0000000E+00;  1.0000000E+04;  0.0000000E+00;  0.0000000E+00;  0.0000000E+00;  0.0000000E+00;
 -5.9999999E-02;  9.9999998E-03;  2.0000000E-02;347;  0.0000000E+00;  0.0000000E+00;  0.0000000E+00;  1.0000000E+03;  4.0000001E-01;  0.0000000E+00;0;  0.0000000E+00;  0.0000000E+00;  0.0000000E+00;0;  0.0000000E+00;  1.0000000E+04;  0.0000000E+00;  0.0000000E+00;  1.0000000E+04;  0.0000000E+00;  1.0000000E+04;  0.0000000E+00;  0.0000000E+00;  0.0000000E+00;  0.0000000E+00;
 -5.9999999E-02;  9.9999998E-03;  3.9999999E-02;348;  0.0000000E+00;  0.0000000E+00;  0.0000000E+00;  1.0000000E+03;  4.0000001E-01;  0.0000000E+00;0;  0.0000000E+00;  0.0000000E+00;  0.0000000E+00;0;  0.0000000E+00;  1.0000000E+04;  0.0000000E+00;  0.0000000E+00;  1.0000000E+04;  0.0000000E+00;  1.0000000E+04;  0.0000000E+00;  0.0000000E+00;  0.0000000E+00;  0.0000000E+00;
 -5.9999999E-02;  9.9999998E-03;  5.9999999E-02;349;  0.0000000E+00;  0.0000000E+00;  0.0000000E+00;  1.0000000E+03;  4.0000001E-01;  0.0000000E+00;0;  0.0000000E+00;  0.0000000E+00;  0.0000000E+00;0;  0.0000000E+00;  1.0000000E+04;  0.0000000E+00;  0.0000000E+00;  1.0000000E+04;  0.0000000E+00;  1.0000000E+04;  0.0000000E+00;  0.0000000E+00;  0.0000000E+00;  0.0000000E+00;
 -5.9999999E-02;  9.9999998E-03;  7.9999998E-02;350;  0.0000000E+00;  0.0000000E+00;  0.0000000E+00;  1.0000000E+03;  4.0000001E-01;  0.0000000E+00;0;  0.0000000E+00;  0.0000000E+00;  0.0000000E+00;0;  0.0000000E+00;  1.0000000E+04;  0.0000000E+00;  0.0000000E+00;  1.0000000E+04;  0.0000000E+00;  1.0000000E+04;  0.0000000E+00;  0.0000000E+00;  0.0000000E+00;  0.0000000E+00;
 -5.9999999E-02;  9.9999998E-03;  1.0000000E-01;351;  0.0000000E+00;  0.0000000E+00;  0.0000000E+00;  1.0000000E+03;  4.0000001E-01;  0.0000000E+00;0;  0.0000000E+00;  0.0000000E+00;  0.0000000E+00;0;  0.0000000E+00;  1.0000000E+04;  0.0000000E+00;  0.0000000E+00;  1.0000000E+04;  0.0000000E+00;  1.0000000E+04;  0.0000000E+00;  0.0000000E+00;  0.0000000E+00;  0.0000000E+00;
 -5.9999999E-02;  9.9999998E-03;  1.2000000E-01;352;  0.0000000E+00;  0.0000000E+00;  0.0000000E+00;  1.0000000E+03;  4.0000001E-01;  0.0000000E+00;0;  0.0000000E+00;  0.0000000E+00;  0.0000000E+00;0;  0.0000000E+00;  1.0000000E+04;  0.0000000E+00;  0.0000000E+00;  1.0000000E+04;  0.0000000E+00;  1.0000000E+04;  0.0000000E+00;  0.0000000E+00;  0.0000000E+00;  0.0000000E+00;
 -5.9999999E-02;  9.9999998E-03;  1.4000000E-01;353;  0.0000000E+00;  0.0000000E+00;  0.0000000E+00;  1.0000000E+03;  4.0000001E-01;  0.0000000E+00;0;  0.0000000E+00;  0.0000000E+00;  0.0000000E+00;0;  0.0000000E+00;  1.0000000E+04;  0.0000000E+00;  0.0000000E+00;  1.0000000E+04;  0.0000000E+00;  1.0000000E+04;  0.0000000E+00;  0.0000000E+00;  0.0000000E+00;  0.0000000E+00;
 -3.9999999E-02;  9.9999998E-03;  0.0000000E+00;387;  0.0000000E+00;  0.0000000E+00;  0.0000000E+00;  1.0000000E+03;  4.0000001E-01;  0.0000000E+00;0;  0.0000000E+00;  0.0000000E+00;  0.0000000E+00;0;  0.0000000E+00;  1.0000000E+04;  0.0000000E+00;  0.0000000E+00;  1.0000000E+04;  0.0000000E+00;  1.0000000E+04;  0.0000000E+00;  0.0000000E+00;  0.0000000E+00;  0.0000000E+00;
 -3.9999999E-02;  9.9999998E-03;  2.0000000E-02;388;  0.0000000E+00;  0.0000000E+00;  0.0000000E+00;  1.0000000E+03;  4.0000001E-01;  0.0000000E+00;0;  0.0000000E+00;  0.0000000E+00;  0.0000000E+00;0;  0.0000000E+00;  1.0000000E+04;  0.0000000E+00;  0.0000000E+00;  1.0000000E+04;  0.0000000E+00;  1.0000000E+04;  0.0000000E+00;  0.0000000E+00;  0.0000000E+00;  0.0000000E+00;
 -3.9999999E-02;  9.9999998E-03;  3.9999999E-02;389;  0.0000000E+00;  0.0000000E+00;  0.0000000E+00;  1.0000000E+03;  4.0000001E-01;  0.0000000E+00;0;  0.0000000E+00;  0.0000000E+00;  0.0000000E+00;0;  0.0000000E+00;  1.0000000E+04;  0.0000000E+00;  0.0000000E+00;  1.0000000E+04;  0.0000000E+00;  1.0000000E+04;  0.0000000E+00;  0.0000000E+00;  0.0000000E+00;  0.0000000E+00;
 -3.9999999E-02;  9.9999998E-03;  5.9999999E-02;390;  0.0000000E+00;  0.0000000E+00;  0.0000000E+00;  1.0000000E+03;  4.0000001E-01;  0.0000000E+00;0;  0.0000000E+00;  0.0000000E+00;  0.0000000E+00;0;  0.0000000E+00;  1.0000000E+04;  0.0000000E+00;  0.0000000E+00;  1.0000000E+04;  0.0000000E+00;  1.0000000E+04;  0.0000000E+00;  0.0000000E+00;  0.0000000E+00;  0.0000000E+00;
 -3.9999999E-02;  9.9999998E-03;  7.9999998E-02;391;  0.0000000E+00;  0.0000000E+00;  0.0000000E+00;  1.0000000E+03;  4.0000001E-01;  0.0000000E+00;0;  0.0000000E+00;  0.0000000E+00;  0.0000000E+00;0;  0.0000000E+00;  1.0000000E+04;  0.0000000E+00;  0.0000000E+00;  1.0000000E+04;  0.0000000E+00;  1.0000000E+04;  0.0000000E+00;  0.0000000E+00;  0.0000000E+00;  0.0000000E+00;
 -3.9999999E-02;  9.9999998E-03;  1.0000000E-01;392;  0.0000000E+00;  0.0000000E+00;  0.0000000E+00;  1.0000000E+03;  4.0000001E-01;  0.0000000E+00;0;  0.0000000E+00;  0.0000000E+00;  0.0000000E+00;0;  0.0000000E+00;  1.0000000E+04;  0.0000000E+00;  0.0000000E+00;  1.0000000E+04;  0.0000000E+00;  1.0000000E+04;  0.0000000E+00;  0.0000000E+00;  0.0000000E+00;  0.0000000E+00;
 -3.9999999E-02;  9.9999998E-03;  1.2000000E-01;393;  0.0000000E+00;  0.0000000E+00;  0.0000000E+00;  1.0000000E+03;  4.0000001E-01;  0.0000000E+00;0;  0.0000000E+00;  0.0000000E+00;  0.0000000E+00;0;  0.0000000E+00;  1.0000000E+04;  0.0000000E+00;  0.0000000E+00;  1.0000000E+04;  0.0000000E+00;  1.0000000E+04;  0.0000000E+00;  0.0000000E+00;  0.0000000E+00;  0.0000000E+00;
 -3.9999999E-02;  9.9999998E-03;  1.4000000E-01;394;  0.0000000E+00;  0.0000000E+00;  0.0000000E+00;  1.0000000E+03;  4.0000001E-01;  0.0000000E+00;0;  0.0000000E+00;  0.0000000E+00;  0.0000000E+00;0;  0.0000000E+00;  1.0000000E+04;  0.0000000E+00;  0.0000000E+00;  1.0000000E+04;  0.0000000E+00;  1.0000000E+04;  0.0000000E+00;  0.0000000E+00;  0.0000000E+00;  0.0000000E+00;
 -2.0000000E-02;  9.9999998E-03;  0.0000000E+00;428;  0.0000000E+00;  0.0000000E+00;  0.0000000E+00;  1.0000000E+03;  4.0000001E-01;  0.0000000E+00;0;  0.0000000E+00;  0.0000000E+00;  0.0000000E+00;0;  0.0000000E+00;  1.0000000E+04;  0.0000000E+00;  0.0000000E+00;  1.0000000E+04;  0.0000000E+00;  1.0000000E+04;  0.0000000E+00;  0.0000000E+00;  0.0000000E+00;  0.0000000E+00;
 -2.0000000E-02;  9.9999998E-03;  2.0000000E-02;429;  0.0000000E+00;  0.0000000E+00;  0.0000000E+00;  1.0000000E+03;  4.0000001E-01;  0.0000000E+00;0;  0.0000000E+00;  0.0000000E+00;  0.0000000E+00;0;  0.0000000E+00;  1.0000000E+04;  0.0000000E+00;  0.0000000E+00;  1.0000000E+04;  0.0000000E+00;  1.0000000E+04;  0.0000000E+00;  0.0000000E+00;  0.0000000E+00;  0.0000000E+00;
 -2.0000000E-02;  9.9999998E-03;  3.9999999E-02;430;  0.0000000E+00;  0.0000000E+00;  0.0000000E+00;  1.0000000E+03;  4.0000001E-01;  0.0000000E+00;0;  0.0000000E+00;  0.0000000E+00;  0.0000000E+00;0;  0.0000000E+00;  1.0000000E+04;  0.0000000E+00;  0.0000000E+00;  1.0000000E+04;  0.0000000E+00;  1.0000000E+04;  0.0000000E+00;  0.0000000E+00;  0.0000000E+00;  0.0000000E+00;
 -2.0000000E-02;  9.9999998E-03;  5.9999999E-02;431;  0.0000000E+00;  0.0000000E+00;  0.0000000E+00;  1.0000000E+03;  4.0000001E-01;  0.0000000E+00;0;  0.0000000E+00;  0.0000000E+00;  0.0000000E+00;0;  0.0000000E+00;  1.0000000E+04;  0.0000000E+00;  0.0000000E+00;  1.0000000E+04;  0.0000000E+00;  1.0000000E+04;  0.0000000E+00;  0.0000000E+00;  0.0000000E+00;  0.0000000E+00;
 -2.0000000E-02;  9.9999998E-03;  7.9999998E-02;432;  0.0000000E+00;  0.0000000E+00;  0.0000000E+00;  1.0000000E+03;  4.0000001E-01;  0.0000000E+00;0;  0.0000000E+00;  0.0000000E+00;  0.0000000E+00;0;  0.0000000E+00;  1.0000000E+04;  0.0000000E+00;  0.0000000E+00;  1.0000000E+04;  0.0000000E+00;  1.0000000E+04;  0.0000000E+00;  0.0000000E+00;  0.0000000E+00;  0.0000000E+00;
 -2.0000000E-02;  9.9999998E-03;  1.0000000E-01;433;  0.0000000E+00;  0.0000000E+00;  0.0000000E+00;  1.0000000E+03;  4.0000001E-01;  0.0000000E+00;0;  0.0000000E+00;  0.0000000E+00;  0.0000000E+00;0;  0.0000000E+00;  1.0000000E+04;  0.0000000E+00;  0.0000000E+00;  1.0000000E+04;  0.0000000E+00;  1.0000000E+04;  0.0000000E+00;  0.0000000E+00;  0.0000000E+00;  0.0000000E+00;
 -2.0000000E-02;  9.9999998E-03;  1.2000000E-01;434;  0.0000000E+00;  0.0000000E+00;  0.0000000E+00;  1.0000000E+03;  4.0000001E-01;  0.0000000E+00;0;  0.0000000E+00;  0.0000000E+00;  0.0000000E+00;0;  0.0000000E+00;  1.0000000E+04;  0.0000000E+00;  0.0000000E+00;  1.0000000E+04;  0.0000000E+00;  1.0000000E+04;  0.0000000E+00;  0.0000000E+00;  0.0000000E+00;  0.0000000E+00;
 -2.0000000E-02;  9.9999998E-03;  1.4000000E-01;435;  0.0000000E+00;  0.0000000E+00;  0.0000000E+00;  1.0000000E+03;  4.0000001E-01;  0.0000000E+00;0;  0.0000000E+00;  0.0000000E+00;  0.0000000E+00;0;  0.0000000E+00;  1.0000000E+04;  0.0000000E+00;  0.0000000E+00;  1.0000000E+04;  0.0000000E+00;  1.0000000E+04;  0.0000000E+00;  0.0000000E+00;  0.0000000E+00;  0.0000000E+00;
 -2.2000000E-01;  9.9999998E-03;  1.6000000E-01;27;  0.0000000E+00;  0.0000000E+00;  0.0000000E+00;  1.0000000E+03;  4.0000001E-01;  0.0000000E+00;0;  0.0000000E+00;  0.0000000E+00;  0.0000000E+00;0;  0.0000000E+00;  1.0000000E+04;  0.0000000E+00;  0.0000000E+00;  1.0000000E+04;  0.0000000E+00;  1.0000000E+04;  0.0000000E+00;  0.0000000E+00;  0.0000000E+00;  0.0000000E+00;
 -2.2000000E-01;  9.9999998E-03;  1.8000001E-01;28;  0.0000000E+00;  0.0000000E+00;  0.0000000E+00;  1.0000000E+03;  4.0000001E-01;  0.0000000E+00;0;  0.0000000E+00;  0.0000000E+00;  0.0000000E+00;0;  0.0000000E+00;  1.0000000E+04;  0.0000000E+00;  0.0000000E+00;  1.0000000E+04;  0.0000000E+00;  1.0000000E+04;  0.0000000E+00;  0.0000000E+00;  0.0000000E+00;  0.0000000E+00;
 -2.2000000E-01;  9.9999998E-03;  2.0000000E-01;29;  0.0000000E+00;  0.0000000E+00;  0.0000000E+00;  1.0000000E+03;  4.0000001E-01;  0.0000000E+00;0;  0.0000000E+00;  0.0000000E+00;  0.0000000E+00;0;  0.0000000E+00;  1.0000000E+04;  0.0000000E+00;  0.0000000E+00;  1.0000000E+04;  0.0000000E+00;  1.0000000E+04;  0.0000000E+00;  0.0000000E+00;  0.0000000E+00;  0.0000000E+00;
 -2.2000000E-01;  9.9999998E-03;  2.2000000E-01;30;  0.0000000E+00;  0.0000000E+00;  0.0000000E+00;  1.0000000E+03;  4.0000001E-01;  0.0000000E+00;0;  0.0000000E+00;  0.0000000E+00;  0.0000000E+00;0;  0.0000000E+00;  1.0000000E+04;  0.0000000E+00;  0.0000000E+00;  1.0000000E+04;  0.0000000E+00;  1.0000000E+04;  0.0000000E+00;  0.0000000E+00;  0.0000000E+00;  0.0000000E+00;
 -2.2000000E-01;  9.9999998E-03;  2.3999999E-01;31;  0.0000000E+00;  0.0000000E+00;  0.0000000E+00;  1.0000000E+03;  4.0000001E-01;  0.0000000E+00;0;  0.0000000E+00;  0.0000000E+00;  0.0000000E+00;0;  0.0000000E+00;  1.0000000E+04;  0.0000000E+00;  0.0000000E+00;  1.0000000E+04;  0.0000000E+00;  1.0000000E+04;  0.0000000E+00;  0.0000000E+00;  0.0000000E+00;  0.0000000E+00;
 -2.2000000E-01;  9.9999998E-03;  2.5999999E-01;32;  0.0000000E+00;  0.0000000E+00;  0.0000000E+00;  1.0000000E+03;  4.0000001E-01;  0.0000000E+00;0;  0.0000000E+00;  0.0000000E+00;  0.0000000E+00;0;  0.0000000E+00;  1.0000000E+04;  0.0000000E+00;  0.0000000E+00;  1.0000000E+04;  0.0000000E+00;  1.0000000E+04;  0.0000000E+00;  0.0000000E+00;  0.0000000E+00;  0.0000000E+00;
 -2.2000000E-01;  9.9999998E-03;  2.8000000E-01;33;  0.0000000E+00;  0.0000000E+00;  0.0000000E+00;  1.0000000E+03;  4.0000001E-01;  0.0000000E+00;0;  0.0000000E+00;  0.0000000E+00;  0.0000000E+00;0;  0.0000000E+00;  1.0000000E+04;  0.0000000E+00;  0.0000000E+00;  1.0000000E+04;  0.0000000E+00;  1.0000000E+04;  0.0000000E+00;  0.0000000E+00;  0.0000000E+00;  0.0000000E+00;
 -2.2000000E-01;  9.9999998E-03;  3.0000001E-01;34;  0.0000000E+00;  0.0000000E+00;  0.0000000E+00;  1.0000000E+03;  4.0000001E-01;  0.0000000E+00;0;  0.0000000E+00;  0.0000000E+00;  0.0000000E+00;0;  0.0000000E+00;  1.0000000E+04;  0.0000000E+00;  0.0000000E+00;  1.0000000E+04;  0.0000000E+00;  1.0000000E+04;  0.0000000E+00;  0.0000000E+00;  0.0000000E+00;  0.0000000E+00;
 -2.2000000E-01;  9.9999998E-03;  3.1999999E-01;35;  0.0000000E+00;  0.0000000E+00;  0.0000000E+00;  1.0000000E+03;  4.0000001E-01;  0.0000000E+00;0;  0.0000000E+00;  0.0000000E+00;  0.0000000E+00;0;  0.0000000E+00;  1.0000000E+04;  0.0000000E+00;  0.0000000E+00;  1.0000000E+04;  0.0000000E+00;  1.0000000E+04;  0.0000000E+00;  0.0000000E+00;  0.0000000E+00;  0.0000000E+00;
 -2.0000000E-01;  9.9999998E-03;  1.6000000E-01;67;  0.0000000E+00;  0.0000000E+00;  0.0000000E+00;  1.0000000E+03;  4.0000001E-01;  0.0000000E+00;0;  0.0000000E+00;  0.0000000E+00;  0.0000000E+00;0;  0.0000000E+00;  1.0000000E+04;  0.0000000E+00;  0.0000000E+00;  1.0000000E+04;  0.0000000E+00;  1.0000000E+04;  0.0000000E+00;  0.0000000E+00;  0.0000000E+00;  0.0000000E+00;
 -2.0000000E-01;  9.9999998E-03;  1.8000001E-01;68;  0.0000000E+00;  0.0000000E+00;  0.0000000E+00;  1.0000000E+03;  4.0000001E-01;  0.0000000E+00;0;  0.0000000E+00;  0.0000000E+00;  0.0000000E+00;0;  0.0000000E+00;  1.0000000E+04;  0.0000000E+00;  0.0000000E+00;  1.0000000E+04;  0.0000000E+00;  1.0000000E+04;  0.0000000E+00;  0.0000000E+00;  0.0000000E+00;  0.0000000E+00;
 -2.0000000E-01;  9.9999998E-03;  2.0000000E-01;69;  0.0000000E+00;  0.0000000E+00;  0.0000000E+00;  1.0000000E+03;  4.0000001E-01;  0.0000000E+00;0;  0.0000000E+00;  0.0000000E+00;  0.0000000E+00;0;  0.0000000E+00;  1.0000000E+04;  0.0000000E+00;  0.0000000E+00;  1.0000000E+04;  0.0000000E+00;  1.0000000E+04;  0.0000000E+00;  0.0000000E+00;  0.0000000E+00;  0.0000000E+00;
 -2.0000000E-01;  9.9999998E-03;  2.2000000E-01;70;  0.0000000E+00;  0.0000000E+00;  0.0000000E+00;  1.0000000E+03;  4.0000001E-01;  0.0000000E+00;0;  0.0000000E+00;  0.0000000E+00;  0.0000000E+00;0;  0.0000000E+00;  1.0000000E+04;  0.0000000E+00;  0.0000000E+00;  1.0000000E+04;  0.0000000E+00;  1.0000000E+04;  0.0000000E+00;  0.0000000E+00;  0.0000000E+00;  0.0000000E+00;
 -2.0000000E-01;  9.9999998E-03;  2.3999999E-01;71;  0.0000000E+00;  0.0000000E+00;  0.0000000E+00;  1.0000000E+03;  4.0000001E-01;  0.0000000E+00;0;  0.0000000E+00;  0.0000000E+00;  0.0000000E+00;0;  0.0000000E+00;  1.0000000E+04;  0.0000000E+00;  0.0000000E+00;  1.0000000E+04;  0.0000000E+00;  1.0000000E+04;  0.0000000E+00;  0.0000000E+00;  0.0000000E+00;  0.0000000E+00;
 -2.0000000E-01;  9.9999998E-03;  2.5999999E-01;72;  0.0000000E+00;  0.0000000E+00;  0.0000000E+00;  1.0000000E+03;  4.0000001E-01;  0.0000000E+00;0;  0.0000000E+00;  0.0000000E+00;  0.0000000E+00;0;  0.0000000E+00;  1.0000000E+04;  0.0000000E+00;  0.0000000E+00;  1.0000000E+04;  0.0000000E+00;  1.0000000E+04;  0.0000000E+00;  0.0000000E+00;  0.0000000E+00;  0.0000000E+00;
 -2.0000000E-01;  9.9999998E-03;  2.8000000E-01;73;  0.0000000E+00;  0.0000000E+00;  0.0000000E+00;  1.0000000E+03;  4.0000001E-01;  0.0000000E+00;0;  0.0000000E+00;  0.0000000E+00;  0.0000000E+00;0;  0.0000000E+00;  1.0000000E+04;  0.0000000E+00;  0.0000000E+00;  1.0000000E+04;  0.0000000E+00;  1.0000000E+04;  0.0000000E+00;  0.0000000E+00;  0.0000000E+00;  0.0000000E+00;
 -2.0000000E-01;  9.9999998E-03;  3.0000001E-01;74;  0.0000000E+00;  0.0000000E+00;  0.0000000E+00;  1.0000000E+03;  4.0000001E-01;  0.0000000E+00;0;  0.0000000E+00;  0.0000000E+00;  0.0000000E+00;0;  0.0000000E+00;  1.0000000E+04;  0.0000000E+00;  0.0000000E+00;  1.0000000E+04;  0.0000000E+00;  1.0000000E+04;  0.0000000E+00;  0.0000000E+00;  0.0000000E+00;  0.0000000E+00;
 -2.0000000E-01;  9.9999998E-03;  3.1999999E-01;75;  0.0000000E+00;  0.0000000E+00;  0.0000000E+00;  1.0000000E+03;  4.0000001E-01;  0.0000000E+00;0;  0.0000000E+00;  0.0000000E+00;  0.0000000E+00;0;  0.0000000E+00;  1.0000000E+04;  0.0000000E+00;  0.0000000E+00;  1.0000000E+04;  0.0000000E+00;  1.0000000E+04;  0.0000000E+00;  0.0000000E+00;  0.0000000E+00;  0.0000000E+00;
 -1.8000001E-01;  9.9999998E-03;  1.6000000E-01;108;  0.0000000E+00;  0.0000000E+00;  0.0000000E+00;  1.0000000E+03;  4.0000001E-01;  0.0000000E+00;0;  0.0000000E+00;  0.0000000E+00;  0.0000000E+00;0;  0.0000000E+00;  1.0000000E+04;  0.0000000E+00;  0.0000000E+00;  1.0000000E+04;  0.0000000E+00;  1.0000000E+04;  0.0000000E+00;  0.0000000E+00;  0.0000000E+00;  0.0000000E+00;
 -1.8000001E-01;  9.9999998E-03;  1.8000001E-01;109;  0.0000000E+00;  0.0000000E+00;  0.0000000E+00;  1.0000000E+03;  4.0000001E-01;  0.0000000E+00;0;  0.0000000E+00;  0.0000000E+00;  0.0000000E+00;0;  0.0000000E+00;  1.0000000E+04;  0.0000000E+00;  0.0000000E+00;  1.0000000E+04;  0.0000000E+00;  1.0000000E+04;  0.0000000E+00;  0.0000000E+00;  0.0000000E+00;  0.0000000E+00;
 -1.8000001E-01;  9.9999998E-03;  2.0000000E-01;110;  0.0000000E+00;  0.0000000E+00;  0.0000000E+00;  1.0000000E+03;  4.0000001E-01;  0.0000000E+00;0;  0.0000000E+00;  0.0000000E+00;  0.0000000E+00;0;  0.0000000E+00;  1.0000000E+04;  0.0000000E+00;  0.0000000E+00;  1.0000000E+04;  0.0000000E+00;  1.0000000E+04;  0.0000000E+00;  0.0000000E+00;  0.0000000E+00;  0.0000000E+00;
 -1.8000001E-01;  9.9999998E-03;  2.2000000E-01;111;  0.0000000E+00;  0.0000000E+00;  0.0000000E+00;  1.0000000E+03;  4.0000001E-01;  0.0000000E+00;0;  0.0000000E+00;  0.0000000E+00;  0.0000000E+00;0;  0.0000000E+00;  1.0000000E+04;  0.0000000E+00;  0.0000000E+00;  1.0000000E+04;  0.0000000E+00;  1.0000000E+04;  0.0000000E+00;  0.0000000E+00;  0.0000000E+00;  0.0000000E+00;
 -1.8000001E-01;  9.9999998E-03;  2.3999999E-01;112;  0.0000000E+00;  0.0000000E+00;  0.0000000E+00;  1.0000000E+03;  4.0000001E-01;  0.0000000E+00;0;  0.0000000E+00;  0.0000000E+00;  0.0000000E+00;0;  0.0000000E+00;  1.0000000E+04;  0.0000000E+00;  0.0000000E+00;  1.0000000E+04;  0.0000000E+00;  1.0000000E+04;  0.0000000E+00;  0.0000000E+00;  0.0000000E+00;  0.0000000E+00;
 -1.8000001E-01;  9.9999998E-03;  2.5999999E-01;113;  0.0000000E+00;  0.0000000E+00;  0.0000000E+00;  1.0000000E+03;  4.0000001E-01;  0.0000000E+00;0;  0.0000000E+00;  0.0000000E+00;  0.0000000E+00;0;  0.0000000E+00;  1.0000000E+04;  0.0000000E+00;  0.0000000E+00;  1.0000000E+04;  0.0000000E+00;  1.0000000E+04;  0.0000000E+00;  0.0000000E+00;  0.0000000E+00;  0.0000000E+00;
 -1.8000001E-01;  9.9999998E-03;  2.8000000E-01;114;  0.0000000E+00;  0.0000000E+00;  0.0000000E+00;  1.0000000E+03;  4.0000001E-01;  0.0000000E+00;0;  0.0000000E+00;  0.0000000E+00;  0.0000000E+00;0;  0.0000000E+00;  1.0000000E+04;  0.0000000E+00;  0.0000000E+00;  1.0000000E+04;  0.0000000E+00;  1.0000000E+04;  0.0000000E+00;  0.0000000E+00;  0.0000000E+00;  0.0000000E+00;
 -1.8000001E-01;  9.9999998E-03;  3.0000001E-01;115;  0.0000000E+00;  0.0000000E+00;  0.0000000E+00;  1.0000000E+03;  4.0000001E-01;  0.0000000E+00;0;  0.0000000E+00;  0.0000000E+00;  0.0000000E+00;0;  0.0000000E+00;  1.0000000E+04;  0.0000000E+00;  0.0000000E+00;  1.0000000E+04;  0.0000000E+00;  1.0000000E+04;  0.0000000E+00;  0.0000000E+00;  0.0000000E+00;  0.0000000E+00;
 -1.8000001E-01;  9.9999998E-03;  3.1999999E-01;116;  0.0000000E+00;  0.0000000E+00;  0.0000000E+00;  1.0000000E+03;  4.0000001E-01;  0.0000000E+00;0;  0.0000000E+00;  0.0000000E+00;  0.0000000E+00;0;  0.0000000E+00;  1.0000000E+04;  0.0000000E+00;  0.0000000E+00;  1.0000000E+04;  0.0000000E+00;  1.0000000E+04;  0.0000000E+00;  0.0000000E+00;  0.0000000E+00;  0.0000000E+00;
 -1.6000000E-01;  9.9999998E-03;  1.6000000E-01;149;  0.0000000E+00;  0.0000000E+00;  0.0000000E+00;  1.0000000E+03;  4.0000001E-01;  0.0000000E+00;0;  0.0000000E+00;  0.0000000E+00;  0.0000000E+00;0;  0.0000000E+00;  1.0000000E+04;  0.0000000E+00;  0.0000000E+00;  1.0000000E+04;  0.0000000E+00;  1.0000000E+04;  0.0000000E+00;  0.0000000E+00;  0.0000000E+00;  0.0000000E+00;
 -1.6000000E-01;  9.9999998E-03;  1.8000001E-01;150;  0.0000000E+00;  0.0000000E+00;  0.0000000E+00;  1.0000000E+03;  4.0000001E-01;  0.0000000E+00;0;  0.0000000E+00;  0.0000000E+00;  0.0000000E+00;0;  0.0000000E+00;  1.0000000E+04;  0.0000000E+00;  0.0000000E+00;  1.0000000E+04;  0.0000000E+00;  1.0000000E+04;  0.0000000E+00;  0.0000000E+00;  0.0000000E+00;  0.0000000E+00;
 -1.6000000E-01;  9.9999998E-03;  2.0000000E-01;151;  0.0000000E+00;  0.0000000E+00;  0.0000000E+00;  1.0000000E+03;  4.0000001E-01;  0.0000000E+00;0;  0.0000000E+00;  0.0000000E+00;  0.0000000E+00;0;  0.0000000E+00;  1.0000000E+04;  0.0000000E+00;  0.0000000E+00;  1.0000000E+04;  0.0000000E+00;  1.0000000E+04;  0.0000000E+00;  0.0000000E+00;  0.0000000E+00;  0.0000000E+00;
 -1.6000000E-01;  9.9999998E-03;  2.2000000E-01;152;  0.0000000E+00;  0.0000000E+00;  0.0000000E+00;  1.0000000E+03;  4.0000001E-01;  0.0000000E+00;0;  0.0000000E+00;  0.0000000E+00;  0.0000000E+00;0;  0.0000000E+00;  1.0000000E+04;  0.0000000E+00;  0.0000000E+00;  1.0000000E+04;  0.0000000E+00;  1.0000000E+04;  0.0000000E+00;  0.0000000E+00;  0.0000000E+00;  0.0000000E+00;
 -1.6000000E-01;  9.9999998E-03;  2.3999999E-01;153;  0.0000000E+00;  0.0000000E+00;  0.0000000E+00;  1.0000000E+03;  4.0000001E-01;  0.0000000E+00;0;  0.0000000E+00;  0.0000000E+00;  0.0000000E+00;0;  0.0000000E+00;  1.0000000E+04;  0.0000000E+00;  0.0000000E+00;  1.0000000E+04;  0.0000000E+00;  1.0000000E+04;  0.0000000E+00;  0.0000000E+00;  0.0000000E+00;  0.0000000E+00;
 -1.6000000E-01;  9.9999998E-03;  2.5999999E-01;154;  0.0000000E+00;  0.0000000E+00;  0.0000000E+00;  1.0000000E+03;  4.0000001E-01;  0.0000000E+00;0;  0.0000000E+00;  0.0000000E+00;  0.0000000E+00;0;  0.0000000E+00;  1.0000000E+04;  0.0000000E+00;  0.0000000E+00;  1.0000000E+04;  0.0000000E+00;  1.0000000E+04;  0.0000000E+00;  0.0000000E+00;  0.0000000E+00;  0.0000000E+00;
 -1.6000000E-01;  9.9999998E-03;  2.8000000E-01;155;  0.0000000E+00;  0.0000000E+00;  0.0000000E+00;  1.0000000E+03;  4.0000001E-01;  0.0000000E+00;0;  0.0000000E+00;  0.0000000E+00;  0.0000000E+00;0;  0.0000000E+00;  1.0000000E+04;  0.0000000E+00;  0.0000000E+00;  1.0000000E+04;  0.0000000E+00;  1.0000000E+04;  0.0000000E+00;  0.0000000E+00;  0.0000000E+00;  0.0000000E+00;
 -1.6000000E-01;  9.9999998E-03;  3.0000001E-01;156;  0.0000000E+00;  0.0000000E+00;  0.0000000E+00;  1.0000000E+03;  4.0000001E-01;  0.0000000E+00;0;  0.0000000E+00;  0.0000000E+00;  0.0000000E+00;0;  0.0000000E+00;  1.0000000E+04;  0.0000000E+00;  0.0000000E+00;  1.0000000E+04;  0.0000000E+00;  1.0000000E+04;  0.0000000E+00;  0.0000000E+00;  0.0000000E+00;  0.0000000E+00;
 -1.6000000E-01;  9.9999998E-03;  3.1999999E-01;157;  0.0000000E+00;  0.0000000E+00;  0.0000000E+00;  1.0000000E+03;  4.0000001E-01;  0.0000000E+00;0;  0.0000000E+00;  0.0000000E+00;  0.0000000E+00;0;  0.0000000E+00;  1.0000000E+04;  0.0000000E+00;  0.0000000E+00;  1.0000000E+04;  0.0000000E+00;  1.0000000E+04;  0.0000000E+00;  0.0000000E+00;  0.0000000E+00;  0.0000000E+00;
 -1.4000000E-01;  9.9999998E-03;  1.6000000E-01;190;  0.0000000E+00;  0.0000000E+00;  0.0000000E+00;  1.0000000E+03;  4.0000001E-01;  0.0000000E+00;0;  0.0000000E+00;  0.0000000E+00;  0.0000000E+00;0;  0.0000000E+00;  1.0000000E+04;  0.0000000E+00;  0.0000000E+00;  1.0000000E+04;  0.0000000E+00;  1.0000000E+04;  0.0000000E+00;  0.0000000E+00;  0.0000000E+00;  0.0000000E+00;
 -1.4000000E-01;  9.9999998E-03;  1.8000001E-01;191;  0.0000000E+00;  0.0000000E+00;  0.0000000E+00;  1.0000000E+03;  4.0000001E-01;  0.0000000E+00;0;  0.0000000E+00;  0.0000000E+00;  0.0000000E+00;0;  0.0000000E+00;  1.0000000E+04;  0.0000000E+00;  0.0000000E+00;  1.0000000E+04;  0.0000000E+00;  1.0000000E+04;  0.0000000E+00;  0.0000000E+00;  0.0000000E+00;  0.0000000E+00;
 -1.4000000E-01;  9.9999998E-03;  2.0000000E-01;192;  0.0000000E+00;  0.0000000E+00;  0.0000000E+00;  1.0000000E+03;  4.0000001E-01;  0.0000000E+00;0;  0.0000000E+00;  0.0000000E+00;  0.0000000E+00;0;  0.0000000E+00;  1.0000000E+04;  0.0000000E+00;  0.0000000E+00;  1.0000000E+04;  0.0000000E+00;  1.0000000E+04;  0.0000000E+00;  0.0000000E+00;  0.0000000E+00;  0.0000000E+00;
 -1.4000000E-01;  9.9999998E-03;  2.2000000E-01;193;  0.0000000E+00;  0.0000000E+00;  0.0000000E+00;  1.0000000E+03;  4.0000001E-01;  0.0000000E+00;0;  0.0000000E+00;  0.0000000E+00;  0.0000000E+00;0;  0.0000000E+00;  1.0000000E+04;  0.0000000E+00;  0.0000000E+00;  1.0000000E+04;  0.0000000E+00;  1.0000000E+04;  0.0000000E+00;  0.0000000E+00;  0.0000000E+00;  0.0000000E+00;
 -1.4000000E-01;  9.9999998E-03;  2.3999999E-01;194;  0.0000000E+00;  0.0000000E+00;  0.0000000E+00;  1.0000000E+03;  4.0000001E-01;  0.0000000E+00;0;  0.0000000E+00;  0.0000000E+00;  0.0000000E+00;0;  0.0000000E+00;  1.0000000E+04;  0.0000000E+00;  0.0000000E+00;  1.0000000E+04;  0.0000000E+00;  1.0000000E+04;  0.0000000E+00;  0.0000000E+00;  0.0000000E+00;  0.0000000E+00;
 -1.4000000E-01;  9.9999998E-03;  2.5999999E-01;195;  0.0000000E+00;  0.0000000E+00;  0.0000000E+00;  1.0000000E+03;  4.0000001E-01;  0.0000000E+00;0;  0.0000000E+00;  0.0000000E+00;  0.0000000E+00;0;  0.0000000E+00;  1.0000000E+04;  0.0000000E+00;  0.0000000E+00;  1.0000000E+04;  0.0000000E+00;  1.0000000E+04;  0.0000000E+00;  0.0000000E+00;  0.0000000E+00;  0.0000000E+00;
 -1.4000000E-01;  9.9999998E-03;  2.8000000E-01;196;  0.0000000E+00;  0.0000000E+00;  0.0000000E+00;  1.0000000E+03;  4.0000001E-01;  0.0000000E+00;0;  0.0000000E+00;  0.0000000E+00;  0.0000000E+00;0;  0.0000000E+00;  1.0000000E+04;  0.0000000E+00;  0.0000000E+00;  1.0000000E+04;  0.0000000E+00;  1.0000000E+04;  0.0000000E+00;  0.0000000E+00;  0.0000000E+00;  0.0000000E+00;
 -1.4000000E-01;  9.9999998E-03;  3.0000001E-01;197;  0.0000000E+00;  0.0000000E+00;  0.0000000E+00;  1.0000000E+03;  4.0000001E-01;  0.0000000E+00;0;  0.0000000E+00;  0.0000000E+00;  0.0000000E+00;0;  0.0000000E+00;  1.0000000E+04;  0.0000000E+00;  0.0000000E+00;  1.0000000E+04;  0.0000000E+00;  1.0000000E+04;  0.0000000E+00;  0.0000000E+00;  0.0000000E+00;  0.0000000E+00;
 -1.4000000E-01;  9.9999998E-03;  3.1999999E-01;198;  0.0000000E+00;  0.0000000E+00;  0.0000000E+00;  1.0000000E+03;  4.0000001E-01;  0.0000000E+00;0;  0.0000000E+00;  0.0000000E+00;  0.0000000E+00;0;  0.0000000E+00;  1.0000000E+04;  0.0000000E+00;  0.0000000E+00;  1.0000000E+04;  0.0000000E+00;  1.0000000E+04;  0.0000000E+00;  0.0000000E+00;  0.0000000E+00;  0.0000000E+00;
 -1.2000000E-01;  9.9999998E-03;  1.6000000E-01;231;  0.0000000E+00;  0.0000000E+00;  0.0000000E+00;  1.0000000E+03;  4.0000001E-01;  0.0000000E+00;0;  0.0000000E+00;  0.0000000E+00;  0.0000000E+00;0;  0.0000000E+00;  1.0000000E+04;  0.0000000E+00;  0.0000000E+00;  1.0000000E+04;  0.0000000E+00;  1.0000000E+04;  0.0000000E+00;  0.0000000E+00;  0.0000000E+00;  0.0000000E+00;
 -1.2000000E-01;  9.9999998E-03;  1.8000001E-01;232;  0.0000000E+00;  0.0000000E+00;  0.0000000E+00;  1.0000000E+03;  4.0000001E-01;  0.0000000E+00;0;  0.0000000E+00;  0.0000000E+00;  0.0000000E+00;0;  0.0000000E+00;  1.0000000E+04;  0.0000000E+00;  0.0000000E+00;  1.0000000E+04;  0.0000000E+00;  1.0000000E+04;  0.0000000E+00;  0.0000000E+00;  0.0000000E+00;  0.0000000E+00;
 -1.2000000E-01;  9.9999998E-03;  2.0000000E-01;233;  0.0000000E+00;  0.0000000E+00;  0.0000000E+00;  1.0000000E+03;  4.0000001E-01;  0.0000000E+00;0;  0.0000000E+00;  0.0000000E+00;  0.0000000E+00;0;  0.0000000E+00;  1.0000000E+04;  0.0000000E+00;  0.0000000E+00;  1.0000000E+04;  0.0000000E+00;  1.0000000E+04;  0.0000000E+00;  0.0000000E+00;  0.0000000E+00;  0.0000000E+00;
 -1.2000000E-01;  9.9999998E-03;  2.2000000E-01;234;  0.0000000E+00;  0.0000000E+00;  0.0000000E+00;  1.0000000E+03;  4.0000001E-01;  0.0000000E+00;0;  0.0000000E+00;  0.0000000E+00;  0.0000000E+00;0;  0.0000000E+00;  1.0000000E+04;  0.0000000E+00;  0.0000000E+00;  1.0000000E+04;  0.0000000E+00;  1.0000000E+04;  0.0000000E+00;  0.0000000E+00;  0.0000000E+00;  0.0000000E+00;
 -1.2000000E-01;  9.9999998E-03;  2.3999999E-01;235;  0.0000000E+00;  0.0000000E+00;  0.0000000E+00;  1.0000000E+03;  4.0000001E-01;  0.0000000E+00;0;  0.0000000E+00;  0.0000000E+00;  0.0000000E+00;0;  0.0000000E+00;  1.0000000E+04;  0.0000000E+00;  0.0000000E+00;  1.0000000E+04;  0.0000000E+00;  1.0000000E+04;  0.0000000E+00;  0.0000000E+00;  0.0000000E+00;  0.0000000E+00;
 -1.2000000E-01;  9.9999998E-03;  2.5999999E-01;236;  0.0000000E+00;  0.0000000E+00;  0.0000000E+00;  1.0000000E+03;  4.0000001E-01;  0.0000000E+00;0;  0.0000000E+00;  0.0000000E+00;  0.0000000E+00;0;  0.0000000E+00;  1.0000000E+04;  0.0000000E+00;  0.0000000E+00;  1.0000000E+04;  0.0000000E+00;  1.0000000E+04;  0.0000000E+00;  0.0000000E+00;  0.0000000E+00;  0.0000000E+00;
 -1.2000000E-01;  9.9999998E-03;  2.8000000E-01;237;  0.0000000E+00;  0.0000000E+00;  0.0000000E+00;  1.0000000E+03;  4.0000001E-01;  0.0000000E+00;0;  0.0000000E+00;  0.0000000E+00;  0.0000000E+00;0;  0.0000000E+00;  1.0000000E+04;  0.0000000E+00;  0.0000000E+00;  1.0000000E+04;  0.0000000E+00;  1.0000000E+04;  0.0000000E+00;  0.0000000E+00;  0.0000000E+00;  0.0000000E+00;
 -1.2000000E-01;  9.9999998E-03;  3.0000001E-01;238;  0.0000000E+00;  0.0000000E+00;  0.0000000E+00;  1.0000000E+03;  4.0000001E-01;  0.0000000E+00;0;  0.0000000E+00;  0.0000000E+00;  0.0000000E+00;0;  0.0000000E+00;  1.0000000E+04;  0.0000000E+00;  0.0000000E+00;  1.0000000E+04;  0.0000000E+00;  1.0000000E+04;  0.0000000E+00;  0.0000000E+00;  0.0000000E+00;  0.0000000E+00;
 -1.2000000E-01;  9.9999998E-03;  3.1999999E-01;239;  0.0000000E+00;  0.0000000E+00;  0.0000000E+00;  1.0000000E+03;  4.0000001E-01;  0.0000000E+00;0;  0.0000000E+00;  0.0000000E+00;  0.0000000E+00;0;  0.0000000E+00;  1.0000000E+04;  0.0000000E+00;  0.0000000E+00;  1.0000000E+04;  0.0000000E+00;  1.0000000E+04;  0.0000000E+00;  0.0000000E+00;  0.0000000E+00;  0.0000000E+00;
 -1.0000000E-01;  9.9999998E-03;  1.6000000E-01;272;  0.0000000E+00;  0.0000000E+00;  0.0000000E+00;  1.0000000E+03;  4.0000001E-01;  0.0000000E+00;0;  0.0000000E+00;  0.0000000E+00;  0.0000000E+00;0;  0.0000000E+00;  1.0000000E+04;  0.0000000E+00;  0.0000000E+00;  1.0000000E+04;  0.0000000E+00;  1.0000000E+04;  0.0000000E+00;  0.0000000E+00;  0.0000000E+00;  0.0000000E+00;
 -1.0000000E-01;  9.9999998E-03;  1.8000001E-01;273;  0.0000000E+00;  0.0000000E+00;  0.0000000E+00;  1.0000000E+03;  4.0000001E-01;  0.0000000E+00;0;  0.0000000E+00;  0.0000000E+00;  0.0000000E+00;0;  0.0000000E+00;  1.0000000E+04;  0.0000000E+00;  0.0000000E+00;  1.0000000E+04;  0.0000000E+00;  1.0000000E+04;  0.0000000E+00;  0.0000000E+00;  0.0000000E+00;  0.0000000E+00;
 -1.0000000E-01;  9.9999998E-03;  2.0000000E-01;274;  0.0000000E+00;  0.0000000E+00;  0.0000000E+00;  1.0000000E+03;  4.0000001E-01;  0.0000000E+00;0;  0.0000000E+00;  0.0000000E+00;  0.0000000E+00;0;  0.0000000E+00;  1.0000000E+04;  0.0000000E+00;  0.0000000E+00;  1.0000000E+04;  0.0000000E+00;  1.0000000E+04;  0.0000000E+00;  0.0000000E+00;  0.0000000E+00;  0.0000000E+00;
 -1.0000000E-01;  9.9999998E-03;  2.2000000E-01;275;  0.0000000E+00;  0.0000000E+00;  0.0000000E+00;  1.0000000E+03;  4.0000001E-01;  0.0000000E+00;0;  0.0000000E+00;  0.0000000E+00;  0.0000000E+00;0;  0.0000000E+00;  1.0000000E+04;  0.0000000E+00;  0.0000000E+00;  1.0000000E+04;  0.0000000E+00;  1.0000000E+04;  0.0000000E+00;  0.0000000E+00;  0.0000000E+00;  0.0000000E+00;
 -1.0000000E-01;  9.9999998E-03;  2.3999999E-01;276;  0.0000000E+00;  0.0000000E+00;  0.0000000E+00;  1.0000000E+03;  4.0000001E-01;  0.0000000E+00;0;  0.0000000E+00;  0.0000000E+00;  0.0000000E+00;0;  0.0000000E+00;  1.0000000E+04;  0.0000000E+00;  0.0000000E+00;  1.0000000E+04;  0.0000000E+00;  1.0000000E+04;  0.0000000E+00;  0.0000000E+00;  0.0000000E+00;  0.0000000E+00;
 -1.0000000E-01;  9.9999998E-03;  2.5999999E-01;277;  0.0000000E+00;  0.0000000E+00;  0.0000000E+00;  1.0000000E+03;  4.0000001E-01;  0.0000000E+00;0;  0.0000000E+00;  0.0000000E+00;  0.0000000E+00;0;  0.0000000E+00;  1.0000000E+04;  0.0000000E+00;  0.0000000E+00;  1.0000000E+04;  0.0000000E+00;  1.0000000E+04;  0.0000000E+00;  0.0000000E+00;  0.0000000E+00;  0.0000000E+00;
 -1.0000000E-01;  9.9999998E-03;  2.8000000E-01;278;  0.0000000E+00;  0.0000000E+00;  0.0000000E+00;  1.0000000E+03;  4.0000001E-01;  0.0000000E+00;0;  0.0000000E+00;  0.0000000E+00;  0.0000000E+00;0;  0.0000000E+00;  1.0000000E+04;  0.0000000E+00;  0.0000000E+00;  1.0000000E+04;  0.0000000E+00;  1.0000000E+04;  0.0000000E+00;  0.0000000E+00;  0.0000000E+00;  0.0000000E+00;
 -1.0000000E-01;  9.9999998E-03;  3.0000001E-01;279;  0.0000000E+00;  0.0000000E+00;  0.0000000E+00;  1.0000000E+03;  4.0000001E-01;  0.0000000E+00;0;  0.0000000E+00;  0.0000000E+00;  0.0000000E+00;0;  0.0000000E+00;  1.0000000E+04;  0.0000000E+00;  0.0000000E+00;  1.0000000E+04;  0.0000000E+00;  1.0000000E+04;  0.0000000E+00;  0.0000000E+00;  0.0000000E+00;  0.0000000E+00;
 -1.0000000E-01;  9.9999998E-03;  3.1999999E-01;280;  0.0000000E+00;  0.0000000E+00;  0.0000000E+00;  1.0000000E+03;  4.0000001E-01;  0.0000000E+00;0;  0.0000000E+00;  0.0000000E+00;  0.0000000E+00;0;  0.0000000E+00;  1.0000000E+04;  0.0000000E+00;  0.0000000E+00;  1.0000000E+04;  0.0000000E+00;  1.0000000E+04;  0.0000000E+00;  0.0000000E+00;  0.0000000E+00;  0.0000000E+00;
 -7.9999998E-02;  9.9999998E-03;  1.6000000E-01;313;  0.0000000E+00;  0.0000000E+00;  0.0000000E+00;  1.0000000E+03;  4.0000001E-01;  0.0000000E+00;0;  0.0000000E+00;  0.0000000E+00;  0.0000000E+00;0;  0.0000000E+00;  1.0000000E+04;  0.0000000E+00;  0.0000000E+00;  1.0000000E+04;  0.0000000E+00;  1.0000000E+04;  0.0000000E+00;  0.0000000E+00;  0.0000000E+00;  0.0000000E+00;
 -7.9999998E-02;  9.9999998E-03;  1.8000001E-01;314;  0.0000000E+00;  0.0000000E+00;  0.0000000E+00;  1.0000000E+03;  4.0000001E-01;  0.0000000E+00;0;  0.0000000E+00;  0.0000000E+00;  0.0000000E+00;0;  0.0000000E+00;  1.0000000E+04;  0.0000000E+00;  0.0000000E+00;  1.0000000E+04;  0.0000000E+00;  1.0000000E+04;  0.0000000E+00;  0.0000000E+00;  0.0000000E+00;  0.0000000E+00;
 -7.9999998E-02;  9.9999998E-03;  2.0000000E-01;315;  0.0000000E+00;  0.0000000E+00;  0.0000000E+00;  1.0000000E+03;  4.0000001E-01;  0.0000000E+00;0;  0.0000000E+00;  0.0000000E+00;  0.0000000E+00;0;  0.0000000E+00;  1.0000000E+04;  0.0000000E+00;  0.0000000E+00;  1.0000000E+04;  0.0000000E+00;  1.0000000E+04;  0.0000000E+00;  0.0000000E+00;  0.0000000E+00;  0.0000000E+00;
 -7.9999998E-02;  9.9999998E-03;  2.2000000E-01;316;  0.0000000E+00;  0.0000000E+00;  0.0000000E+00;  1.0000000E+03;  4.0000001E-01;  0.0000000E+00;0;  0.0000000E+00;  0.0000000E+00;  0.0000000E+00;0;  0.0000000E+00;  1.0000000E+04;  0.0000000E+00;  0.0000000E+00;  1.0000000E+04;  0.0000000E+00;  1.0000000E+04;  0.0000000E+00;  0.0000000E+00;  0.0000000E+00;  0.0000000E+00;
 -7.9999998E-02;  9.9999998E-03;  2.3999999E-01;317;  0.0000000E+00;  0.0000000E+00;  0.0000000E+00;  1.0000000E+03;  4.0000001E-01;  0.0000000E+00;0;  0.0000000E+00;  0.0000000E+00;  0.0000000E+00;0;  0.0000000E+00;  1.0000000E+04;  0.0000000E+00;  0.0000000E+00;  1.0000000E+04;  0.0000000E+00;  1.0000000E+04;  0.0000000E+00;  0.0000000E+00;  0.0000000E+00;  0.0000000E+00;
 -7.9999998E-02;  9.9999998E-03;  2.5999999E-01;318;  0.0000000E+00;  0.0000000E+00;  0.0000000E+00;  1.0000000E+03;  4.0000001E-01;  0.0000000E+00;0;  0.0000000E+00;  0.0000000E+00;  0.0000000E+00;0;  0.0000000E+00;  1.0000000E+04;  0.0000000E+00;  0.0000000E+00;  1.0000000E+04;  0.0000000E+00;  1.0000000E+04;  0.0000000E+00;  0.0000000E+00;  0.0000000E+00;  0.0000000E+00;
 -7.9999998E-02;  9.9999998E-03;  2.8000000E-01;319;  0.0000000E+00;  0.0000000E+00;  0.0000000E+00;  1.0000000E+03;  4.0000001E-01;  0.0000000E+00;0;  0.0000000E+00;  0.0000000E+00;  0.0000000E+00;0;  0.0000000E+00;  1.0000000E+04;  0.0000000E+00;  0.0000000E+00;  1.0000000E+04;  0.0000000E+00;  1.0000000E+04;  0.0000000E+00;  0.0000000E+00;  0.0000000E+00;  0.0000000E+00;
 -7.9999998E-02;  9.9999998E-03;  3.0000001E-01;320;  0.0000000E+00;  0.0000000E+00;  0.0000000E+00;  1.0000000E+03;  4.0000001E-01;  0.0000000E+00;0;  0.0000000E+00;  0.0000000E+00;  0.0000000E+00;0;  0.0000000E+00;  1.0000000E+04;  0.0000000E+00;  0.0000000E+00;  1.0000000E+04;  0.0000000E+00;  1.0000000E+04;  0.0000000E+00;  0.0000000E+00;  0.0000000E+00;  0.0000000E+00;
 -7.9999998E-02;  9.9999998E-03;  3.1999999E-01;321;  0.0000000E+00;  0.0000000E+00;  0.0000000E+00;  1.0000000E+03;  4.0000001E-01;  0.0000000E+00;0;  0.0000000E+00;  0.0000000E+00;  0.0000000E+00;0;  0.0000000E+00;  1.0000000E+04;  0.0000000E+00;  0.0000000E+00;  1.0000000E+04;  0.0000000E+00;  1.0000000E+04;  0.0000000E+00;  0.0000000E+00;  0.0000000E+00;  0.0000000E+00;
 -5.9999999E-02;  9.9999998E-03;  1.6000000E-01;354;  0.0000000E+00;  0.0000000E+00;  0.0000000E+00;  1.0000000E+03;  4.0000001E-01;  0.0000000E+00;0;  0.0000000E+00;  0.0000000E+00;  0.0000000E+00;0;  0.0000000E+00;  1.0000000E+04;  0.0000000E+00;  0.0000000E+00;  1.0000000E+04;  0.0000000E+00;  1.0000000E+04;  0.0000000E+00;  0.0000000E+00;  0.0000000E+00;  0.0000000E+00;
 -5.9999999E-02;  9.9999998E-03;  1.8000001E-01;355;  0.0000000E+00;  0.0000000E+00;  0.0000000E+00;  1.0000000E+03;  4.0000001E-01;  0.0000000E+00;0;  0.0000000E+00;  0.0000000E+00;  0.0000000E+00;0;  0.0000000E+00;  1.0000000E+04;  0.0000000E+00;  0.0000000E+00;  1.0000000E+04;  0.0000000E+00;  1.0000000E+04;  0.0000000E+00;  0.0000000E+00;  0.0000000E+00;  0.0000000E+00;
 -5.9999999E-02;  9.9999998E-03;  2.0000000E-01;356;  0.0000000E+00;  0.0000000E+00;  0.0000000E+00;  1.0000000E+03;  4.0000001E-01;  0.0000000E+00;0;  0.0000000E+00;  0.0000000E+00;  0.0000000E+00;0;  0.0000000E+00;  1.0000000E+04;  0.0000000E+00;  0.0000000E+00;  1.0000000E+04;  0.0000000E+00;  1.0000000E+04;  0.0000000E+00;  0.0000000E+00;  0.0000000E+00;  0.0000000E+00;
 -5.9999999E-02;  9.9999998E-03;  2.2000000E-01;357;  0.0000000E+00;  0.0000000E+00;  0.0000000E+00;  1.0000000E+03;  4.0000001E-01;  0.0000000E+00;0;  0.0000000E+00;  0.0000000E+00;  0.0000000E+00;0;  0.0000000E+00;  1.0000000E+04;  0.0000000E+00;  0.0000000E+00;  1.0000000E+04;  0.0000000E+00;  1.0000000E+04;  0.0000000E+00;  0.0000000E+00;  0.0000000E+00;  0.0000000E+00;
 -5.9999999E-02;  9.9999998E-03;  2.3999999E-01;358;  0.0000000E+00;  0.0000000E+00;  0.0000000E+00;  1.0000000E+03;  4.0000001E-01;  0.0000000E+00;0;  0.0000000E+00;  0.0000000E+00;  0.0000000E+00;0;  0.0000000E+00;  1.0000000E+04;  0.0000000E+00;  0.0000000E+00;  1.0000000E+04;  0.0000000E+00;  1.0000000E+04;  0.0000000E+00;  0.0000000E+00;  0.0000000E+00;  0.0000000E+00;
 -5.9999999E-02;  9.9999998E-03;  2.5999999E-01;359;  0.0000000E+00;  0.0000000E+00;  0.0000000E+00;  1.0000000E+03;  4.0000001E-01;  0.0000000E+00;0;  0.0000000E+00;  0.0000000E+00;  0.0000000E+00;0;  0.0000000E+00;  1.0000000E+04;  0.0000000E+00;  0.0000000E+00;  1.0000000E+04;  0.0000000E+00;  1.0000000E+04;  0.0000000E+00;  0.0000000E+00;  0.0000000E+00;  0.0000000E+00;
 -5.9999999E-02;  9.9999998E-03;  2.8000000E-01;360;  0.0000000E+00;  0.0000000E+00;  0.0000000E+00;  1.0000000E+03;  4.0000001E-01;  0.0000000E+00;0;  0.0000000E+00;  0.0000000E+00;  0.0000000E+00;0;  0.0000000E+00;  1.0000000E+04;  0.0000000E+00;  0.0000000E+00;  1.0000000E+04;  0.0000000E+00;  1.0000000E+04;  0.0000000E+00;  0.0000000E+00;  0.0000000E+00;  0.0000000E+00;
 -5.9999999E-02;  9.9999998E-03;  3.0000001E-01;361;  0.0000000E+00;  0.0000000E+00;  0.0000000E+00;  1.0000000E+03;  4.0000001E-01;  0.0000000E+00;0;  0.0000000E+00;  0.0000000E+00;  0.0000000E+00;0;  0.0000000E+00;  1.0000000E+04;  0.0000000E+00;  0.0000000E+00;  1.0000000E+04;  0.0000000E+00;  1.0000000E+04;  0.0000000E+00;  0.0000000E+00;  0.0000000E+00;  0.0000000E+00;
 -5.9999999E-02;  9.9999998E-03;  3.1999999E-01;362;  0.0000000E+00;  0.0000000E+00;  0.0000000E+00;  1.0000000E+03;  4.0000001E-01;  0.0000000E+00;0;  0.0000000E+00;  0.0000000E+00;  0.0000000E+00;0;  0.0000000E+00;  1.0000000E+04;  0.0000000E+00;  0.0000000E+00;  1.0000000E+04;  0.0000000E+00;  1.0000000E+04;  0.0000000E+00;  0.0000000E+00;  0.0000000E+00;  0.0000000E+00;
 -3.9999999E-02;  9.9999998E-03;  1.6000000E-01;395;  0.0000000E+00;  0.0000000E+00;  0.0000000E+00;  1.0000000E+03;  4.0000001E-01;  0.0000000E+00;0;  0.0000000E+00;  0.0000000E+00;  0.0000000E+00;0;  0.0000000E+00;  1.0000000E+04;  0.0000000E+00;  0.0000000E+00;  1.0000000E+04;  0.0000000E+00;  1.0000000E+04;  0.0000000E+00;  0.0000000E+00;  0.0000000E+00;  0.0000000E+00;
 -3.9999999E-02;  9.9999998E-03;  1.8000001E-01;396;  0.0000000E+00;  0.0000000E+00;  0.0000000E+00;  1.0000000E+03;  4.0000001E-01;  0.0000000E+00;0;  0.0000000E+00;  0.0000000E+00;  0.0000000E+00;0;  0.0000000E+00;  1.0000000E+04;  0.0000000E+00;  0.0000000E+00;  1.0000000E+04;  0.0000000E+00;  1.0000000E+04;  0.0000000E+00;  0.0000000E+00;  0.0000000E+00;  0.0000000E+00;
 -3.9999999E-02;  9.9999998E-03;  2.0000000E-01;397;  0.0000000E+00;  0.0000000E+00;  0.0000000E+00;  1.0000000E+03;  4.0000001E-01;  0.0000000E+00;0;  0.0000000E+00;  0.0000000E+00;  0.0000000E+00;0;  0.0000000E+00;  1.0000000E+04;  0.0000000E+00;  0.0000000E+00;  1.0000000E+04;  0.0000000E+00;  1.0000000E+04;  0.0000000E+00;  0.0000000E+00;  0.0000000E+00;  0.0000000E+00;
 -3.9999999E-02;  9.9999998E-03;  2.2000000E-01;398;  0.0000000E+00;  0.0000000E+00;  0.0000000E+00;  1.0000000E+03;  4.0000001E-01;  0.0000000E+00;0;  0.0000000E+00;  0.0000000E+00;  0.0000000E+00;0;  0.0000000E+00;  1.0000000E+04;  0.0000000E+00;  0.0000000E+00;  1.0000000E+04;  0.0000000E+00;  1.0000000E+04;  0.0000000E+00;  0.0000000E+00;  0.0000000E+00;  0.0000000E+00;
 -3.9999999E-02;  9.9999998E-03;  2.3999999E-01;399;  0.0000000E+00;  0.0000000E+00;  0.0000000E+00;  1.0000000E+03;  4.0000001E-01;  0.0000000E+00;0;  0.0000000E+00;  0.0000000E+00;  0.0000000E+00;0;  0.0000000E+00;  1.0000000E+04;  0.0000000E+00;  0.0000000E+00;  1.0000000E+04;  0.0000000E+00;  1.0000000E+04;  0.0000000E+00;  0.0000000E+00;  0.0000000E+00;  0.0000000E+00;
 -3.9999999E-02;  9.9999998E-03;  2.5999999E-01;400;  0.0000000E+00;  0.0000000E+00;  0.0000000E+00;  1.0000000E+03;  4.0000001E-01;  0.0000000E+00;0;  0.0000000E+00;  0.0000000E+00;  0.0000000E+00;0;  0.0000000E+00;  1.0000000E+04;  0.0000000E+00;  0.0000000E+00;  1.0000000E+04;  0.0000000E+00;  1.0000000E+04;  0.0000000E+00;  0.0000000E+00;  0.0000000E+00;  0.0000000E+00;
 -3.9999999E-02;  9.9999998E-03;  2.8000000E-01;401;  0.0000000E+00;  0.0000000E+00;  0.0000000E+00;  1.0000000E+03;  4.0000001E-01;  0.0000000E+00;0;  0.0000000E+00;  0.0000000E+00;  0.0000000E+00;0;  0.0000000E+00;  1.0000000E+04;  0.0000000E+00;  0.0000000E+00;  1.0000000E+04;  0.0000000E+00;  1.0000000E+04;  0.0000000E+00;  0.0000000E+00;  0.0000000E+00;  0.0000000E+00;
 -3.9999999E-02;  9.9999998E-03;  3.0000001E-01;402;  0.0000000E+00;  0.0000000E+00;  0.0000000E+00;  1.0000000E+03;  4.0000001E-01;  0.0000000E+00;0;  0.0000000E+00;  0.0000000E+00;  0.0000000E+00;0;  0.0000000E+00;  1.0000000E+04;  0.0000000E+00;  0.0000000E+00;  1.0000000E+04;  0.0000000E+00;  1.0000000E+04;  0.0000000E+00;  0.0000000E+00;  0.0000000E+00;  0.0000000E+00;
 -3.9999999E-02;  9.9999998E-03;  3.1999999E-01;403;  0.0000000E+00;  0.0000000E+00;  0.0000000E+00;  1.0000000E+03;  4.0000001E-01;  0.0000000E+00;0;  0.0000000E+00;  0.0000000E+00;  0.0000000E+00;0;  0.0000000E+00;  1.0000000E+04;  0.0000000E+00;  0.0000000E+00;  1.0000000E+04;  0.0000000E+00;  1.0000000E+04;  0.0000000E+00;  0.0000000E+00;  0.0000000E+00;  0.0000000E+00;
 -2.0000000E-02;  9.9999998E-03;  1.6000000E-01;436;  0.0000000E+00;  0.0000000E+00;  0.0000000E+00;  1.0000000E+03;  4.0000001E-01;  0.0000000E+00;0;  0.0000000E+00;  0.0000000E+00;  0.0000000E+00;0;  0.0000000E+00;  1.0000000E+04;  0.0000000E+00;  0.0000000E+00;  1.0000000E+04;  0.0000000E+00;  1.0000000E+04;  0.0000000E+00;  0.0000000E+00;  0.0000000E+00;  0.0000000E+00;
 -2.0000000E-02;  9.9999998E-03;  1.8000001E-01;437;  0.0000000E+00;  0.0000000E+00;  0.0000000E+00;  1.0000000E+03;  4.0000001E-01;  0.0000000E+00;0;  0.0000000E+00;  0.0000000E+00;  0.0000000E+00;0;  0.0000000E+00;  1.0000000E+04;  0.0000000E+00;  0.0000000E+00;  1.0000000E+04;  0.0000000E+00;  1.0000000E+04;  0.0000000E+00;  0.0000000E+00;  0.0000000E+00;  0.0000000E+00;
 -2.0000000E-02;  9.9999998E-03;  2.0000000E-01;438;  0.0000000E+00;  0.0000000E+00;  0.0000000E+00;  1.0000000E+03;  4.0000001E-01;  0.0000000E+00;0;  0.0000000E+00;  0.0000000E+00;  0.0000000E+00;0;  0.0000000E+00;  1.0000000E+04;  0.0000000E+00;  0.0000000E+00;  1.0000000E+04;  0.0000000E+00;  1.0000000E+04;  0.0000000E+00;  0.0000000E+00;  0.0000000E+00;  0.0000000E+00;
 -2.0000000E-02;  9.9999998E-03;  2.2000000E-01;439;  0.0000000E+00;  0.0000000E+00;  0.0000000E+00;  1.0000000E+03;  4.0000001E-01;  0.0000000E+00;0;  0.0000000E+00;  0.0000000E+00;  0.0000000E+00;0;  0.0000000E+00;  1.0000000E+04;  0.0000000E+00;  0.0000000E+00;  1.0000000E+04;  0.0000000E+00;  1.0000000E+04;  0.0000000E+00;  0.0000000E+00;  0.0000000E+00;  0.0000000E+00;
 -2.0000000E-02;  9.9999998E-03;  2.3999999E-01;440;  0.0000000E+00;  0.0000000E+00;  0.0000000E+00;  1.0000000E+03;  4.0000001E-01;  0.0000000E+00;0;  0.0000000E+00;  0.0000000E+00;  0.0000000E+00;0;  0.0000000E+00;  1.0000000E+04;  0.0000000E+00;  0.0000000E+00;  1.0000000E+04;  0.0000000E+00;  1.0000000E+04;  0.0000000E+00;  0.0000000E+00;  0.0000000E+00;  0.0000000E+00;
 -2.0000000E-02;  9.9999998E-03;  2.5999999E-01;441;  0.0000000E+00;  0.0000000E+00;  0.0000000E+00;  1.0000000E+03;  4.0000001E-01;  0.0000000E+00;0;  0.0000000E+00;  0.0000000E+00;  0.0000000E+00;0;  0.0000000E+00;  1.0000000E+04;  0.0000000E+00;  0.0000000E+00;  1.0000000E+04;  0.0000000E+00;  1.0000000E+04;  0.0000000E+00;  0.0000000E+00;  0.0000000E+00;  0.0000000E+00;
 -2.0000000E-02;  9.9999998E-03;  2.8000000E-01;442;  0.0000000E+00;  0.0000000E+00;  0.0000000E+00;  1.0000000E+03;  4.0000001E-01;  0.0000000E+00;0;  0.0000000E+00;  0.0000000E+00;  0.0000000E+00;0;  0.0000000E+00;  1.0000000E+04;  0.0000000E+00;  0.0000000E+00;  1.0000000E+04;  0.0000000E+00;  1.0000000E+04;  0.0000000E+00;  0.0000000E+00;  0.0000000E+00;  0.0000000E+00;
 -2.0000000E-02;  9.9999998E-03;  3.0000001E-01;443;  0.0000000E+00;  0.0000000E+00;  0.0000000E+00;  1.0000000E+03;  4.0000001E-01;  0.0000000E+00;0;  0.0000000E+00;  0.0000000E+00;  0.0000000E+00;0;  0.0000000E+00;  1.0000000E+04;  0.0000000E+00;  0.0000000E+00;  1.0000000E+04;  0.0000000E+00;  1.0000000E+04;  0.0000000E+00;  0.0000000E+00;  0.0000000E+00;  0.0000000E+00;
 -2.0000000E-02;  9.9999998E-03;  3.1999999E-01;444;  0.0000000E+00;  0.0000000E+00;  0.0000000E+00;  1.0000000E+03;  4.0000001E-01;  0.0000000E+00;0;  0.0000000E+00;  0.0000000E+00;  0.0000000E+00;0;  0.0000000E+00;  1.0000000E+04;  0.0000000E+00;  0.0000000E+00;  1.0000000E+04;  0.0000000E+00;  1.0000000E+04;  0.0000000E+00;  0.0000000E+00;  0.0000000E+00;  0.0000000E+00;
  0.0000000E+00;  9.9999998E-03;  3.0000001E-01;455;  0.0000000E+00;  0.0000000E+00;  0.0000000E+00;  1.0000000E+03;  4.0000001E-01;  0.0000000E+00;0;  0.0000000E+00;  0.0000000E+00;  0.0000000E+00;0;  0.0000000E+00;  1.0000000E+04;  0.0000000E+00;  0.0000000E+00;  1.0000000E+04;  0.0000000E+00;  1.0000000E+04;  0.0000000E+00;  0.0000000E+00;  0.0000000E+00;  0.0000000E+00;
  0.0000000E+00;  9.9999998E-03;  3.1999999E-01;456;  0.0000000E+00;  0.0000000E+00;  0.0000000E+00;  1.0000000E+03;  4.0000001E-01;  0.0000000E+00;0;  0.0000000E+00;  0.0000000E+00;  0.0000000E+00;0;  0.0000000E+00;  1.0000000E+04;  0.0000000E+00;  0.0000000E+00;  1.0000000E+04;  0.0000000E+00;  1.0000000E+04;  0.0000000E+00;  0.0000000E+00;  0.0000000E+00;  0.0000000E+00;
  2.0000000E-02;  9.9999998E-03;  3.1999999E-01;466;  0.0000000E+00;  0.0000000E+00;  0.0000000E+00;  1.0000000E+03;  4.0000001E-01;  0.0000000E+00;0;  0.0000000E+00;  0.0000000E+00;  0.0000000E+00;0;  0.0000000E+00;  1.0000000E+04;  0.0000000E+00;  0.0000000E+00;  1.0000000E+04;  0.0000000E+00;  1.0000000E+04;  0.0000000E+00;  0.0000000E+00;  0.0000000E+00;  0.0000000E+00;
  3.9999999E-02;  9.9999998E-03;  3.1999999E-01;476;  0.0000000E+00;  0.0000000E+00;  0.0000000E+00;  1.0000000E+03;  4.0000001E-01;  0.0000000E+00;0;  0.0000000E+00;  0.0000000E+00;  0.0000000E+00;0;  0.0000000E+00;  1.0000000E+04;  0.0000000E+00;  0.0000000E+00;  1.0000000E+04;  0.0000000E+00;  1.0000000E+04;  0.0000000E+00;  0.0000000E+00;  0.0000000E+00;  0.0000000E+00;
  5.9999999E-02;  9.9999998E-03;  3.1999999E-01;486;  0.0000000E+00;  0.0000000E+00;  0.0000000E+00;  1.0000000E+03;  4.0000001E-01;  0.0000000E+00;0;  0.0000000E+00;  0.0000000E+00;  0.0000000E+00;0;  0.0000000E+00;  1.0000000E+04;  0.0000000E+00;  0.0000000E+00;  1.0000000E+04;  0.0000000E+00;  1.0000000E+04;  0.0000000E+00;  0.0000000E+00;  0.0000000E+00;  0.0000000E+00;
  7.9999998E-02;  9.9999998E-03;  3.1999999E-01;496;  0.0000000E+00;  0.0000000E+00;  0.0000000E+00;  1.0000000E+03;  4.0000001E-01;  0.0000000E+00;0;  0.0000000E+00;  0.0000000E+00;  0.0000000E+00;0;  0.0000000E+00;  1.0000000E+04;  0.0000000E+00;  0.0000000E+00;  1.0000000E+04;  0.0000000E+00;  1.0000000E+04;  0.0000000E+00;  0.0000000E+00;  0.0000000E+00;  0.0000000E+00;
  1.0000000E-01;  9.9999998E-03;  3.1999999E-01;506;  0.0000000E+00;  0.0000000E+00;  0.0000000E+00;  1.0000000E+03;  4.0000001E-01;  0.0000000E+00;0;  0.0000000E+00;  0.0000000E+00;  0.0000000E+00;0;  0.0000000E+00;  1.0000000E+04;  0.0000000E+00;  0.0000000E+00;  1.0000000E+04;  0.0000000E+00;  1.0000000E+04;  0.0000000E+00;  0.0000000E+00;  0.0000000E+00;  0.0000000E+00;
  1.2000000E-01;  9.9999998E-03;  3.1999999E-01;516;  0.0000000E+00;  0.0000000E+00;  0.0000000E+00;  1.0000000E+03;  4.0000001E-01;  0.0000000E+00;0;  0.0000000E+00;  0.0000000E+00;  0.0000000E+00;0;  0.0000000E+00;  1.0000000E+04;  0.0000000E+00;  0.0000000E+00;  1.0000000E+04;  0.0000000E+00;  1.0000000E+04;  0.0000000E+00;  0.0000000E+00;  0.0000000E+00;  0.0000000E+00;
  1.4000000E-01;  9.9999998E-03;  3.1999999E-01;526;  0.0000000E+00;  0.0000000E+00;  0.0000000E+00;  1.0000000E+03;  4.0000001E-01;  0.0000000E+00;0;  0.0000000E+00;  0.0000000E+00;  0.0000000E+00;0;  0.0000000E+00;  1.0000000E+04;  0.0000000E+00;  0.0000000E+00;  1.0000000E+04;  0.0000000E+00;  1.0000000E+04;  0.0000000E+00;  0.0000000E+00;  0.0000000E+00;  0.0000000E+00;
  1.6000000E-01;  9.9999998E-03;  3.1999999E-01;536;  0.0000000E+00;  0.0000000E+00;  0.0000000E+00;  1.0000000E+03;  4.0000001E-01;  0.0000000E+00;0;  0.0000000E+00;  0.0000000E+00;  0.0000000E+00;0;  0.0000000E+00;  1.0000000E+04;  0.0000000E+00;  0.0000000E+00;  1.0000000E+04;  0.0000000E+00;  1.0000000E+04;  0.0000000E+00;  0.0000000E+00;  0.0000000E+00;  0.0000000E+00;
  1.8000001E-01;  9.9999998E-03;  3.1999999E-01;546;  0.0000000E+00;  0.0000000E+00;  0.0000000E+00;  1.0000000E+03;  4.0000001E-01;  0.0000000E+00;0;  0.0000000E+00;  0.0000000E+00;  0.0000000E+00;0;  0.0000000E+00;  1.0000000E+04;  0.0000000E+00;  0.0000000E+00;  1.0000000E+04;  0.0000000E+00;  1.0000000E+04;  0.0000000E+00;  0.0000000E+00;  0.0000000E+00;  0.0000000E+00;
  2.0000000E-01;  9.9999998E-03;  3.1999999E-01;555;  0.0000000E+00;  0.0000000E+00;  0.0000000E+00;  1.0000000E+03;  4.0000001E-01;  0.0000000E+00;0;  0.0000000E+00;  0.0000000E+00;  0.0000000E+00;0;  0.0000000E+00;  1.0000000E+04;  0.0000000E+00;  0.0000000E+00;  1.0000000E+04;  0.0000000E+00;  1.0000000E+04;  0.0000000E+00;  0.0000000E+00;  0.0000000E+00;  0.0000000E+00;
 -2.2000000E-01;  9.9999998E-03;  3.4000000E-01;36;  0.0000000E+00;  0.0000000E+00;  0.0000000E+00;  1.0000000E+03;  4.0000001E-01;  0.0000000E+00;0;  0.0000000E+00;  0.0000000E+00;  0.0000000E+00;0;  0.0000000E+00;  1.0000000E+04;  0.0000000E+00;  0.0000000E+00;  1.0000000E+04;  0.0000000E+00;  1.0000000E+04;  0.0000000E+00;  0.0000000E+00;  0.0000000E+00;  0.0000000E+00;
 -2.2000000E-01;  9.9999998E-03;  3.6000001E-01;37;  0.0000000E+00;  0.0000000E+00;  0.0000000E+00;  1.0000000E+03;  4.0000001E-01;  0.0000000E+00;0;  0.0000000E+00;  0.0000000E+00;  0.0000000E+00;0;  0.0000000E+00;  1.0000000E+04;  0.0000000E+00;  0.0000000E+00;  1.0000000E+04;  0.0000000E+00;  1.0000000E+04;  0.0000000E+00;  0.0000000E+00;  0.0000000E+00;  0.0000000E+00;
 -2.2000000E-01;  9.9999998E-03;  3.8000000E-01;38;  0.0000000E+00;  0.0000000E+00;  0.0000000E+00;  1.0000000E+03;  4.0000001E-01;  0.0000000E+00;0;  0.0000000E+00;  0.0000000E+00;  0.0000000E+00;0;  0.0000000E+00;  1.0000000E+04;  0.0000000E+00;  0.0000000E+00;  1.0000000E+04;  0.0000000E+00;  1.0000000E+04;  0.0000000E+00;  0.0000000E+00;  0.0000000E+00;  0.0000000E+00;
 -2.0000000E-01;  9.9999998E-03;  3.4000000E-01;76;  0.0000000E+00;  0.0000000E+00;  0.0000000E+00;  1.0000000E+03;  4.0000001E-01;  0.0000000E+00;0;  0.0000000E+00;  0.0000000E+00;  0.0000000E+00;0;  0.0000000E+00;  1.0000000E+04;  0.0000000E+00;  0.0000000E+00;  1.0000000E+04;  0.0000000E+00;  1.0000000E+04;  0.0000000E+00;  0.0000000E+00;  0.0000000E+00;  0.0000000E+00;
 -2.0000000E-01;  9.9999998E-03;  3.6000001E-01;77;  0.0000000E+00;  0.0000000E+00;  0.0000000E+00;  1.0000000E+03;  4.0000001E-01;  0.0000000E+00;0;  0.0000000E+00;  0.0000000E+00;  0.0000000E+00;0;  0.0000000E+00;  1.0000000E+04;  0.0000000E+00;  0.0000000E+00;  1.0000000E+04;  0.0000000E+00;  1.0000000E+04;  0.0000000E+00;  0.0000000E+00;  0.0000000E+00;  0.0000000E+00;
 -2.0000000E-01;  9.9999998E-03;  3.8000000E-01;78;  0.0000000E+00;  0.0000000E+00;  0.0000000E+00;  1.0000000E+03;  4.0000001E-01;  0.0000000E+00;0;  0.0000000E+00;  0.0000000E+00;  0.0000000E+00;0;  0.0000000E+00;  1.0000000E+04;  0.0000000E+00;  0.0000000E+00;  1.0000000E+04;  0.0000000E+00;  1.0000000E+04;  0.0000000E+00;  0.0000000E+00;  0.0000000E+00;  0.0000000E+00;
 -2.0000000E-01;  9.9999998E-03;  4.0000001E-01;79;  0.0000000E+00;  0.0000000E+00;  0.0000000E+00;  1.0000000E+03;  4.0000001E-01;  0.0000000E+00;0;  0.0000000E+00;  0.0000000E+00;  0.0000000E+00;0;  0.0000000E+00;  1.0000000E+04;  0.0000000E+00;  0.0000000E+00;  1.0000000E+04;  0.0000000E+00;  1.0000000E+04;  0.0000000E+00;  0.0000000E+00;  0.0000000E+00;  0.0000000E+00;
 -1.8000001E-01;  9.9999998E-03;  3.4000000E-01;117;  0.0000000E+00;  0.0000000E+00;  0.0000000E+00;  1.0000000E+03;  4.0000001E-01;  0.0000000E+00;0;  0.0000000E+00;  0.0000000E+00;  0.0000000E+00;0;  0.0000000E+00;  1.0000000E+04;  0.0000000E+00;  0.0000000E+00;  1.0000000E+04;  0.0000000E+00;  1.0000000E+04;  0.0000000E+00;  0.0000000E+00;  0.0000000E+00;  0.0000000E+00;
 -1.8000001E-01;  9.9999998E-03;  3.6000001E-01;118;  0.0000000E+00;  0.0000000E+00;  0.0000000E+00;  1.0000000E+03;  4.0000001E-01;  0.0000000E+00;0;  0.0000000E+00;  0.0000000E+00;  0.0000000E+00;0;  0.0000000E+00;  1.0000000E+04;  0.0000000E+00;  0.0000000E+00;  1.0000000E+04;  0.0000000E+00;  1.0000000E+04;  0.0000000E+00;  0.0000000E+00;  0.0000000E+00;  0.0000000E+00;
 -1.8000001E-01;  9.9999998E-03;  3.8000000E-01;119;  0.0000000E+00;  0.0000000E+00;  0.0000000E+00;  1.0000000E+03;  4.0000001E-01;  0.0000000E+00;0;  0.0000000E+00;  0.0000000E+00;  0.0000000E+00;0;  0.0000000E+00;  1.0000000E+04;  0.0000000E+00;  0.0000000E+00;  1.0000000E+04;  0.0000000E+00;  1.0000000E+04;  0.0000000E+00;  0.0000000E+00;  0.0000000E+00;  0.0000000E+00;
 -1.8000001E-01;  9.9999998E-03;  4.0000001E-01;120;  0.0000000E+00;  0.0000000E+00;  0.0000000E+00;  1.0000000E+03;  4.0000001E-01;  0.0000000E+00;0;  0.0000000E+00;  0.0000000E+00;  0.0000000E+00;0;  0.0000000E+00;  1.0000000E+04;  0.0000000E+00;  0.0000000E+00;  1.0000000E+04;  0.0000000E+00;  1.0000000E+04;  0.0000000E+00;  0.0000000E+00;  0.0000000E+00;  0.0000000E+00;
 -1.6000000E-01;  9.9999998E-03;  3.4000000E-01;158;  0.0000000E+00;  0.0000000E+00;  0.0000000E+00;  1.0000000E+03;  4.0000001E-01;  0.0000000E+00;0;  0.0000000E+00;  0.0000000E+00;  0.0000000E+00;0;  0.0000000E+00;  1.0000000E+04;  0.0000000E+00;  0.0000000E+00;  1.0000000E+04;  0.0000000E+00;  1.0000000E+04;  0.0000000E+00;  0.0000000E+00;  0.0000000E+00;  0.0000000E+00;
 -1.6000000E-01;  9.9999998E-03;  3.6000001E-01;159;  0.0000000E+00;  0.0000000E+00;  0.0000000E+00;  1.0000000E+03;  4.0000001E-01;  0.0000000E+00;0;  0.0000000E+00;  0.0000000E+00;  0.0000000E+00;0;  0.0000000E+00;  1.0000000E+04;  0.0000000E+00;  0.0000000E+00;  1.0000000E+04;  0.0000000E+00;  1.0000000E+04;  0.0000000E+00;  0.0000000E+00;  0.0000000E+00;  0.0000000E+00;
 -1.6000000E-01;  9.9999998E-03;  3.8000000E-01;160;  0.0000000E+00;  0.0000000E+00;  0.0000000E+00;  1.0000000E+03;  4.0000001E-01;  0.0000000E+00;0;  0.0000000E+00;  0.0000000E+00;  0.0000000E+00;0;  0.0000000E+00;  1.0000000E+04;  0.0000000E+00;  0.0000000E+00;  1.0000000E+04;  0.0000000E+00;  1.0000000E+04;  0.0000000E+00;  0.0000000E+00;  0.0000000E+00;  0.0000000E+00;
 -1.6000000E-01;  9.9999998E-03;  4.0000001E-01;161;  0.0000000E+00;  0.0000000E+00;  0.0000000E+00;  1.0000000E+03;  4.0000001E-01;  0.0000000E+00;0;  0.0000000E+00;  0.0000000E+00;  0.0000000E+00;0;  0.0000000E+00;  1.0000000E+04;  0.0000000E+00;  0.0000000E+00;  1.0000000E+04;  0.0000000E+00;  1.0000000E+04;  0.0000000E+00;  0.0000000E+00;  0.0000000E+00;  0.0000000E+00;
 -1.4000000E-01;  9.9999998E-03;  3.4000000E-01;199;  0.0000000E+00;  0.0000000E+00;  0.0000000E+00;  1.0000000E+03;  4.0000001E-01;  0.0000000E+00;0;  0.0000000E+00;  0.0000000E+00;  0.0000000E+00;0;  0.0000000E+00;  1.0000000E+04;  0.0000000E+00;  0.0000000E+00;  1.0000000E+04;  0.0000000E+00;  1.0000000E+04;  0.0000000E+00;  0.0000000E+00;  0.0000000E+00;  0.0000000E+00;
 -1.4000000E-01;  9.9999998E-03;  3.6000001E-01;200;  0.0000000E+00;  0.0000000E+00;  0.0000000E+00;  1.0000000E+03;  4.0000001E-01;  0.0000000E+00;0;  0.0000000E+00;  0.0000000E+00;  0.0000000E+00;0;  0.0000000E+00;  1.0000000E+04;  0.0000000E+00;  0.0000000E+00;  1.0000000E+04;  0.0000000E+00;  1.0000000E+04;  0.0000000E+00;  0.0000000E+00;  0.0000000E+00;  0.0000000E+00;
 -1.4000000E-01;  9.9999998E-03;  3.8000000E-01;201;  0.0000000E+00;  0.0000000E+00;  0.0000000E+00;  1.0000000E+03;  4.0000001E-01;  0.0000000E+00;0;  0.0000000E+00;  0.0000000E+00;  0.0000000E+00;0;  0.0000000E+00;  1.0000000E+04;  0.0000000E+00;  0.0000000E+00;  1.0000000E+04;  0.0000000E+00;  1.0000000E+04;  0.0000000E+00;  0.0000000E+00;  0.0000000E+00;  0.0000000E+00;
 -1.4000000E-01;  9.9999998E-03;  4.0000001E-01;202;  0.0000000E+00;  0.0000000E+00;  0.0000000E+00;  1.0000000E+03;  4.0000001E-01;  0.0000000E+00;0;  0.0000000E+00;  0.0000000E+00;  0.0000000E+00;0;  0.0000000E+00;  1.0000000E+04;  0.0000000E+00;  0.0000000E+00;  1.0000000E+04;  0.0000000E+00;  1.0000000E+04;  0.0000000E+00;  0.0000000E+00;  0.0000000E+00;  0.0000000E+00;
 -1.2000000E-01;  9.9999998E-03;  3.4000000E-01;240;  0.0000000E+00;  0.0000000E+00;  0.0000000E+00;  1.0000000E+03;  4.0000001E-01;  0.0000000E+00;0;  0.0000000E+00;  0.0000000E+00;  0.0000000E+00;0;  0.0000000E+00;  1.0000000E+04;  0.0000000E+00;  0.0000000E+00;  1.0000000E+04;  0.0000000E+00;  1.0000000E+04;  0.0000000E+00;  0.0000000E+00;  0.0000000E+00;  0.0000000E+00;
 -1.2000000E-01;  9.9999998E-03;  3.6000001E-01;241;  0.0000000E+00;  0.0000000E+00;  0.0000000E+00;  1.0000000E+03;  4.0000001E-01;  0.0000000E+00;0;  0.0000000E+00;  0.0000000E+00;  0.0000000E+00;0;  0.0000000E+00;  1.0000000E+04;  0.0000000E+00;  0.0000000E+00;  1.0000000E+04;  0.0000000E+00;  1.0000000E+04;  0.0000000E+00;  0.0000000E+00;  0.0000000E+00;  0.0000000E+00;
 -1.2000000E-01;  9.9999998E-03;  3.8000000E-01;242;  0.0000000E+00;  0.0000000E+00;  0.0000000E+00;  1.0000000E+03;  4.0000001E-01;  0.0000000E+00;0;  0.0000000E+00;  0.0000000E+00;  0.0000000E+00;0;  0.0000000E+00;  1.0000000E+04;  0.0000000E+00;  0.0000000E+00;  1.0000000E+04;  0.0000000E+00;  1.0000000E+04;  0.0000000E+00;  0.0000000E+00;  0.0000000E+00;  0.0000000E+00;
 -1.2000000E-01;  9.9999998E-03;  4.0000001E-01;243;  0.0000000E+00;  0.0000000E+00;  0.0000000E+00;  1.0000000E+03;  4.0000001E-01;  0.0000000E+00;0;  0.0000000E+00;  0.0000000E+00;  0.0000000E+00;0;  0.0000000E+00;  1.0000000E+04;  0.0000000E+00;  0.0000000E+00;  1.0000000E+04;  0.0000000E+00;  1.0000000E+04;  0.0000000E+00;  0.0000000E+00;  0.0000000E+00;  0.0000000E+00;
 -1.0000000E-01;  9.9999998E-03;  3.4000000E-01;281;  0.0000000E+00;  0.0000000E+00;  0.0000000E+00;  1.0000000E+03;  4.0000001E-01;  0.0000000E+00;0;  0.0000000E+00;  0.0000000E+00;  0.0000000E+00;0;  0.0000000E+00;  1.0000000E+04;  0.0000000E+00;  0.0000000E+00;  1.0000000E+04;  0.0000000E+00;  1.0000000E+04;  0.0000000E+00;  0.0000000E+00;  0.0000000E+00;  0.0000000E+00;
 -1.0000000E-01;  9.9999998E-03;  3.6000001E-01;282;  0.0000000E+00;  0.0000000E+00;  0.0000000E+00;  1.0000000E+03;  4.0000001E-01;  0.0000000E+00;0;  0.0000000E+00;  0.0000000E+00;  0.0000000E+00;0;  0.0000000E+00;  1.0000000E+04;  0.0000000E+00;  0.0000000E+00;  1.0000000E+04;  0.0000000E+00;  1.0000000E+04;  0.0000000E+00;  0.0000000E+00;  0.0000000E+00;  0.0000000E+00;
 -1.0000000E-01;  9.9999998E-03;  3.8000000E-01;283;  0.0000000E+00;  0.0000000E+00;  0.0000000E+00;  1.0000000E+03;  4.0000001E-01;  0.0000000E+00;0;  0.0000000E+00;  0.0000000E+00;  0.0000000E+00;0;  0.0000000E+00;  1.0000000E+04;  0.0000000E+00;  0.0000000E+00;  1.0000000E+04;  0.0000000E+00;  1.0000000E+04;  0.0000000E+00;  0.0000000E+00;  0.0000000E+00;  0.0000000E+00;
 -1.0000000E-01;  9.9999998E-03;  4.0000001E-01;284;  0.0000000E+00;  0.0000000E+00;  0.0000000E+00;  1.0000000E+03;  4.0000001E-01;  0.0000000E+00;0;  0.0000000E+00;  0.0000000E+00;  0.0000000E+00;0;  0.0000000E+00;  1.0000000E+04;  0.0000000E+00;  0.0000000E+00;  1.0000000E+04;  0.0000000E+00;  1.0000000E+04;  0.0000000E+00;  0.0000000E+00;  0.0000000E+00;  0.0000000E+00;
 -7.9999998E-02;  9.9999998E-03;  3.4000000E-01;322;  0.0000000E+00;  0.0000000E+00;  0.0000000E+00;  1.0000000E+03;  4.0000001E-01;  0.0000000E+00;0;  0.0000000E+00;  0.0000000E+00;  0.0000000E+00;0;  0.0000000E+00;  1.0000000E+04;  0.0000000E+00;  0.0000000E+00;  1.0000000E+04;  0.0000000E+00;  1.0000000E+04;  0.0000000E+00;  0.0000000E+00;  0.0000000E+00;  0.0000000E+00;
 -7.9999998E-02;  9.9999998E-03;  3.6000001E-01;323;  0.0000000E+00;  0.0000000E+00;  0.0000000E+00;  1.0000000E+03;  4.0000001E-01;  0.0000000E+00;0;  0.0000000E+00;  0.0000000E+00;  0.0000000E+00;0;  0.0000000E+00;  1.0000000E+04;  0.0000000E+00;  0.0000000E+00;  1.0000000E+04;  0.0000000E+00;  1.0000000E+04;  0.0000000E+00;  0.0000000E+00;  0.0000000E+00;  0.0000000E+00;
 -7.9999998E-02;  9.9999998E-03;  3.8000000E-01;324;  0.0000000E+00;  0.0000000E+00;  0.0000000E+00;  1.0000000E+03;  4.0000001E-01;  0.0000000E+00;0;  0.0000000E+00;  0.0000000E+00;  0.0000000E+00;0;  0.0000000E+00;  1.0000000E+04;  0.0000000E+00;  0.0000000E+00;  1.0000000E+04;  0.0000000E+00;  1.0000000E+04;  0.0000000E+00;  0.0000000E+00;  0.0000000E+00;  0.0000000E+00;
 -7.9999998E-02;  9.9999998E-03;  4.0000001E-01;325;  0.0000000E+00;  0.0000000E+00;  0.0000000E+00;  1.0000000E+03;  4.0000001E-01;  0.0000000E+00;0;  0.0000000E+00;  0.0000000E+00;  0.0000000E+00;0;  0.0000000E+00;  1.0000000E+04;  0.0000000E+00;  0.0000000E+00;  1.0000000E+04;  0.0000000E+00;  1.0000000E+04;  0.0000000E+00;  0.0000000E+00;  0.0000000E+00;  0.0000000E+00;
 -5.9999999E-02;  9.9999998E-03;  3.4000000E-01;363;  0.0000000E+00;  0.0000000E+00;  0.0000000E+00;  1.0000000E+03;  4.0000001E-01;  0.0000000E+00;0;  0.0000000E+00;  0.0000000E+00;  0.0000000E+00;0;  0.0000000E+00;  1.0000000E+04;  0.0000000E+00;  0.0000000E+00;  1.0000000E+04;  0.0000000E+00;  1.0000000E+04;  0.0000000E+00;  0.0000000E+00;  0.0000000E+00;  0.0000000E+00;
 -5.9999999E-02;  9.9999998E-03;  3.6000001E-01;364;  0.0000000E+00;  0.0000000E+00;  0.0000000E+00;  1.0000000E+03;  4.0000001E-01;  0.0000000E+00;0;  0.0000000E+00;  0.0000000E+00;  0.0000000E+00;0;  0.0000000E+00;  1.0000000E+04;  0.0000000E+00;  0.0000000E+00;  1.0000000E+04;  0.0000000E+00;  1.0000000E+04;  0.0000000E+00;  0.0000000E+00;  0.0000000E+00;  0.0000000E+00;
 -5.9999999E-02;  9.9999998E-03;  3.8000000E-01;365;  0.0000000E+00;  0.0000000E+00;  0.0000000E+00;  1.0000000E+03;  4.0000001E-01;  0.0000000E+00;0;  0.0000000E+00;  0.0000000E+00;  0.0000000E+00;0;  0.0000000E+00;  1.0000000E+04;  0.0000000E+00;  0.0000000E+00;  1.0000000E+04;  0.0000000E+00;  1.0000000E+04;  0.0000000E+00;  0.0000000E+00;  0.0000000E+00;  0.0000000E+00;
 -5.9999999E-02;  9.9999998E-03;  4.0000001E-01;366;  0.0000000E+00;  0.0000000E+00;  0.0000000E+00;  1.0000000E+03;  4.0000001E-01;  0.0000000E+00;0;  0.0000000E+00;  0.0000000E+00;  0.0000000E+00;0;  0.0000000E+00;  1.0000000E+04;  0.0000000E+00;  0.0000000E+00;  1.0000000E+04;  0.0000000E+00;  1.0000000E+04;  0.0000000E+00;  0.0000000E+00;  0.0000000E+00;  0.0000000E+00;
 -3.9999999E-02;  9.9999998E-03;  3.4000000E-01;404;  0.0000000E+00;  0.0000000E+00;  0.0000000E+00;  1.0000000E+03;  4.0000001E-01;  0.0000000E+00;0;  0.0000000E+00;  0.0000000E+00;  0.0000000E+00;0;  0.0000000E+00;  1.0000000E+04;  0.0000000E+00;  0.0000000E+00;  1.0000000E+04;  0.0000000E+00;  1.0000000E+04;  0.0000000E+00;  0.0000000E+00;  0.0000000E+00;  0.0000000E+00;
 -3.9999999E-02;  9.9999998E-03;  3.6000001E-01;405;  0.0000000E+00;  0.0000000E+00;  0.0000000E+00;  1.0000000E+03;  4.0000001E-01;  0.0000000E+00;0;  0.0000000E+00;  0.0000000E+00;  0.0000000E+00;0;  0.0000000E+00;  1.0000000E+04;  0.0000000E+00;  0.0000000E+00;  1.0000000E+04;  0.0000000E+00;  1.0000000E+04;  0.0000000E+00;  0.0000000E+00;  0.0000000E+00;  0.0000000E+00;
 -3.9999999E-02;  9.9999998E-03;  3.8000000E-01;406;  0.0000000E+00;  0.0000000E+00;  0.0000000E+00;  1.0000000E+03;  4.0000001E-01;  0.0000000E+00;0;  0.0000000E+00;  0.0000000E+00;  0.0000000E+00;0;  0.0000000E+00;  1.0000000E+04;  0.0000000E+00;  0.0000000E+00;  1.0000000E+04;  0.0000000E+00;  1.0000000E+04;  0.0000000E+00;  0.0000000E+00;  0.0000000E+00;  0.0000000E+00;
 -3.9999999E-02;  9.9999998E-03;  4.0000001E-01;407;  0.0000000E+00;  0.0000000E+00;  0.0000000E+00;  1.0000000E+03;  4.0000001E-01;  0.0000000E+00;0;  0.0000000E+00;  0.0000000E+00;  0.0000000E+00;0;  0.0000000E+00;  1.0000000E+04;  0.0000000E+00;  0.0000000E+00;  1.0000000E+04;  0.0000000E+00;  1.0000000E+04;  0.0000000E+00;  0.0000000E+00;  0.0000000E+00;  0.0000000E+00;
 -2.0000000E-02;  9.9999998E-03;  3.4000000E-01;445;  0.0000000E+00;  0.0000000E+00;  0.0000000E+00;  1.0000000E+03;  4.0000001E-01;  0.0000000E+00;0;  0.0000000E+00;  0.0000000E+00;  0.0000000E+00;0;  0.0000000E+00;  1.0000000E+04;  0.0000000E+00;  0.0000000E+00;  1.0000000E+04;  0.0000000E+00;  1.0000000E+04;  0.0000000E+00;  0.0000000E+00;  0.0000000E+00;  0.0000000E+00;
 -2.0000000E-02;  9.9999998E-03;  3.6000001E-01;446;  0.0000000E+00;  0.0000000E+00;  0.0000000E+00;  1.0000000E+03;  4.0000001E-01;  0.0000000E+00;0;  0.0000000E+00;  0.0000000E+00;  0.0000000E+00;0;  0.0000000E+00;  1.0000000E+04;  0.0000000E+00;  0.0000000E+00;  1.0000000E+04;  0.0000000E+00;  1.0000000E+04;  0.0000000E+00;  0.0000000E+00;  0.0000000E+00;  0.0000000E+00;
 -2.0000000E-02;  9.9999998E-03;  3.8000000E-01;447;  0.0000000E+00;  0.0000000E+00;  0.0000000E+00;  1.0000000E+03;  4.0000001E-01;  0.0000000E+00;0;  0.0000000E+00;  0.0000000E+00;  0.0000000E+00;0;  0.0000000E+00;  1.0000000E+04;  0.0000000E+00;  0.0000000E+00;  1.0000000E+04;  0.0000000E+00;  1.0000000E+04;  0.0000000E+00;  0.0000000E+00;  0.0000000E+00;  0.0000000E+00;
 -2.0000000E-02;  9.9999998E-03;  4.0000001E-01;448;  0.0000000E+00;  0.0000000E+00;  0.0000000E+00;  1.0000000E+03;  4.0000001E-01;  0.0000000E+00;0;  0.0000000E+00;  0.0000000E+00;  0.0000000E+00;0;  0.0000000E+00;  1.0000000E+04;  0.0000000E+00;  0.0000000E+00;  1.0000000E+04;  0.0000000E+00;  1.0000000E+04;  0.0000000E+00;  0.0000000E+00;  0.0000000E+00;  0.0000000E+00;
  0.0000000E+00;  9.9999998E-03;  3.4000000E-01;457;  0.0000000E+00;  0.0000000E+00;  0.0000000E+00;  1.0000000E+03;  4.0000001E-01;  0.0000000E+00;0;  0.0000000E+00;  0.0000000E+00;  0.0000000E+00;0;  0.0000000E+00;  1.0000000E+04;  0.0000000E+00;  0.0000000E+00;  1.0000000E+04;  0.0000000E+00;  1.0000000E+04;  0.0000000E+00;  0.0000000E+00;  0.0000000E+00;  0.0000000E+00;
  0.0000000E+00;  9.9999998E-03;  3.6000001E-01;458;  0.0000000E+00;  0.0000000E+00;  0.0000000E+00;  1.0000000E+03;  4.0000001E-01;  0.0000000E+00;0;  0.0000000E+00;  0.0000000E+00;  0.0000000E+00;0;  0.0000000E+00;  1.0000000E+04;  0.0000000E+00;  0.0000000E+00;  1.0000000E+04;  0.0000000E+00;  1.0000000E+04;  0.0000000E+00;  0.0000000E+00;  0.0000000E+00;  0.0000000E+00;
  0.0000000E+00;  9.9999998E-03;  3.8000000E-01;459;  0.0000000E+00;  0.0000000E+00;  0.0000000E+00;  1.0000000E+03;  4.0000001E-01;  0.0000000E+00;0;  0.0000000E+00;  0.0000000E+00;  0.0000000E+00;0;  0.0000000E+00;  1.0000000E+04;  0.0000000E+00;  0.0000000E+00;  1.0000000E+04;  0.0000000E+00;  1.0000000E+04;  0.0000000E+00;  0.0000000E+00;  0.0000000E+00;  0.0000000E+00;
  0.0000000E+00;  9.9999998E-03;  4.0000001E-01;460;  0.0000000E+00;  0.0000000E+00;  0.0000000E+00;  1.0000000E+03;  4.0000001E-01;  0.0000000E+00;0;  0.0000000E+00;  0.0000000E+00;  0.0000000E+00;0;  0.0000000E+00;  1.0000000E+04;  0.0000000E+00;  0.0000000E+00;  1.0000000E+04;  0.0000000E+00;  1.0000000E+04;  0.0000000E+00;  0.0000000E+00;  0.0000000E+00;  0.0000000E+00;
  2.0000000E-02;  9.9999998E-03;  3.4000000E-01;467;  0.0000000E+00;  0.0000000E+00;  0.0000000E+00;  1.0000000E+03;  4.0000001E-01;  0.0000000E+00;0;  0.0000000E+00;  0.0000000E+00;  0.0000000E+00;0;  0.0000000E+00;  1.0000000E+04;  0.0000000E+00;  0.0000000E+00;  1.0000000E+04;  0.0000000E+00;  1.0000000E+04;  0.0000000E+00;  0.0000000E+00;  0.0000000E+00;  0.0000000E+00;
  2.0000000E-02;  9.9999998E-03;  3.6000001E-01;468;  0.0000000E+00;  0.0000000E+00;  0.0000000E+00;  1.0000000E+03;  4.0000001E-01;  0.0000000E+00;0;  0.0000000E+00;  0.0000000E+00;  0.0000000E+00;0;  0.0000000E+00;  1.0000000E+04;  0.0000000E+00;  0.0000000E+00;  1.0000000E+04;  0.0000000E+00;  1.0000000E+04;  0.0000000E+00;  0.0000000E+00;  0.0000000E+00;  0.0000000E+00;
  2.0000000E-02;  9.9999998E-03;  3.8000000E-01;469;  0.0000000E+00;  0.0000000E+00;  0.0000000E+00;  1.0000000E+03;  4.0000001E-01;  0.0000000E+00;0;  0.0000000E+00;  0.0000000E+00;  0.0000000E+00;0;  0.0000000E+00;  1.0000000E+04;  0.0000000E+00;  0.0000000E+00;  1.0000000E+04;  0.0000000E+00;  1.0000000E+04;  0.0000000E+00;  0.0000000E+00;  0.0000000E+00;  0.0000000E+00;
  2.0000000E-02;  9.9999998E-03;  4.0000001E-01;470;  0.0000000E+00;  0.0000000E+00;  0.0000000E+00;  1.0000000E+03;  4.0000001E-01;  0.0000000E+00;0;  0.0000000E+00;  0.0000000E+00;  0.0000000E+00;0;  0.0000000E+00;  1.0000000E+04;  0.0000000E+00;  0.0000000E+00;  1.0000000E+04;  0.0000000E+00;  1.0000000E+04;  0.0000000E+00;  0.0000000E+00;  0.0000000E+00;  0.0000000E+00;
  3.9999999E-02;  9.9999998E-03;  3.4000000E-01;477;  0.0000000E+00;  0.0000000E+00;  0.0000000E+00;  1.0000000E+03;  4.0000001E-01;  0.0000000E+00;0;  0.0000000E+00;  0.0000000E+00;  0.0000000E+00;0;  0.0000000E+00;  1.0000000E+04;  0.0000000E+00;  0.0000000E+00;  1.0000000E+04;  0.0000000E+00;  1.0000000E+04;  0.0000000E+00;  0.0000000E+00;  0.0000000E+00;  0.0000000E+00;
  3.9999999E-02;  9.9999998E-03;  3.6000001E-01;478;  0.0000000E+00;  0.0000000E+00;  0.0000000E+00;  1.0000000E+03;  4.0000001E-01;  0.0000000E+00;0;  0.0000000E+00;  0.0000000E+00;  0.0000000E+00;0;  0.0000000E+00;  1.0000000E+04;  0.0000000E+00;  0.0000000E+00;  1.0000000E+04;  0.0000000E+00;  1.0000000E+04;  0.0000000E+00;  0.0000000E+00;  0.0000000E+00;  0.0000000E+00;
  3.9999999E-02;  9.9999998E-03;  3.8000000E-01;479;  0.0000000E+00;  0.0000000E+00;  0.0000000E+00;  1.0000000E+03;  4.0000001E-01;  0.0000000E+00;0;  0.0000000E+00;  0.0000000E+00;  0.0000000E+00;0;  0.0000000E+00;  1.0000000E+04;  0.0000000E+00;  0.0000000E+00;  1.0000000E+04;  0.0000000E+00;  1.0000000E+04;  0.0000000E+00;  0.0000000E+00;  0.0000000E+00;  0.0000000E+00;
  3.9999999E-02;  9.9999998E-03;  4.0000001E-01;480;  0.0000000E+00;  0.0000000E+00;  0.0000000E+00;  1.0000000E+03;  4.0000001E-01;  0.0000000E+00;0;  0.0000000E+00;  0.0000000E+00;  0.0000000E+00;0;  0.0000000E+00;  1.0000000E+04;  0.0000000E+00;  0.0000000E+00;  1.0000000E+04;  0.0000000E+00;  1.0000000E+04;  0.0000000E+00;  0.0000000E+00;  0.0000000E+00;  0.0000000E+00;
  5.9999999E-02;  9.9999998E-03;  3.4000000E-01;487;  0.0000000E+00;  0.0000000E+00;  0.0000000E+00;  1.0000000E+03;  4.0000001E-01;  0.0000000E+00;0;  0.0000000E+00;  0.0000000E+00;  0.0000000E+00;0;  0.0000000E+00;  1.0000000E+04;  0.0000000E+00;  0.0000000E+00;  1.0000000E+04;  0.0000000E+00;  1.0000000E+04;  0.0000000E+00;  0.0000000E+00;  0.0000000E+00;  0.0000000E+00;
  5.9999999E-02;  9.9999998E-03;  3.6000001E-01;488;  0.0000000E+00;  0.0000000E+00;  0.0000000E+00;  1.0000000E+03;  4.0000001E-01;  0.0000000E+00;0;  0.0000000E+00;  0.0000000E+00;  0.0000000E+00;0;  0.0000000E+00;  1.0000000E+04;  0.0000000E+00;  0.0000000E+00;  1.0000000E+04;  0.0000000E+00;  1.0000000E+04;  0.0000000E+00;  0.0000000E+00;  0.0000000E+00;  0.0000000E+00;
  5.9999999E-02;  9.9999998E-03;  3.8000000E-01;489;  0.0000000E+00;  0.0000000E+00;  0.0000000E+00;  1.0000000E+03;  4.0000001E-01;  0.0000000E+00;0;  0.0000000E+00;  0.0000000E+00;  0.0000000E+00;0;  0.0000000E+00;  1.0000000E+04;  0.0000000E+00;  0.0000000E+00;  1.0000000E+04;  0.0000000E+00;  1.0000000E+04;  0.0000000E+00;  0.0000000E+00;  0.0000000E+00;  0.0000000E+00;
  5.9999999E-02;  9.9999998E-03;  4.0000001E-01;490;  0.0000000E+00;  0.0000000E+00;  0.0000000E+00;  1.0000000E+03;  4.0000001E-01;  0.0000000E+00;0;  0.0000000E+00;  0.0000000E+00;  0.0000000E+00;0;  0.0000000E+00;  1.0000000E+04;  0.0000000E+00;  0.0000000E+00;  1.0000000E+04;  0.0000000E+00;  1.0000000E+04;  0.0000000E+00;  0.0000000E+00;  0.0000000E+00;  0.0000000E+00;
  7.9999998E-02;  9.9999998E-03;  3.4000000E-01;497;  0.0000000E+00;  0.0000000E+00;  0.0000000E+00;  1.0000000E+03;  4.0000001E-01;  0.0000000E+00;0;  0.0000000E+00;  0.0000000E+00;  0.0000000E+00;0;  0.0000000E+00;  1.0000000E+04;  0.0000000E+00;  0.0000000E+00;  1.0000000E+04;  0.0000000E+00;  1.0000000E+04;  0.0000000E+00;  0.0000000E+00;  0.0000000E+00;  0.0000000E+00;
  7.9999998E-02;  9.9999998E-03;  3.6000001E-01;498;  0.0000000E+00;  0.0000000E+00;  0.0000000E+00;  1.0000000E+03;  4.0000001E-01;  0.0000000E+00;0;  0.0000000E+00;  0.0000000E+00;  0.0000000E+00;0;  0.0000000E+00;  1.0000000E+04;  0.0000000E+00;  0.0000000E+00;  1.0000000E+04;  0.0000000E+00;  1.0000000E+04;  0.0000000E+00;  0.0000000E+00;  0.0000000E+00;  0.0000000E+00;
  7.9999998E-02;  9.9999998E-03;  3.8000000E-01;499;  0.0000000E+00;  0.0000000E+00;  0.0000000E+00;  1.0000000E+03;  4.0000001E-01;  0.0000000E+00;0;  0.0000000E+00;  0.0000000E+00;  0.0000000E+00;0;  0.0000000E+00;  1.0000000E+04;  0.0000000E+00;  0.0000000E+00;  1.0000000E+04;  0.0000000E+00;  1.0000000E+04;  0.0000000E+00;  0.0000000E+00;  0.0000000E+00;  0.0000000E+00;
  7.9999998E-02;  9.9999998E-03;  4.0000001E-01;500;  0.0000000E+00;  0.0000000E+00;  0.0000000E+00;  1.0000000E+03;  4.0000001E-01;  0.0000000E+00;0;  0.0000000E+00;  0.0000000E+00;  0.0000000E+00;0;  0.0000000E+00;  1.0000000E+04;  0.0000000E+00;  0.0000000E+00;  1.0000000E+04;  0.0000000E+00;  1.0000000E+04;  0.0000000E+00;  0.0000000E+00;  0.0000000E+00;  0.0000000E+00;
  1.0000000E-01;  9.9999998E-03;  3.4000000E-01;507;  0.0000000E+00;  0.0000000E+00;  0.0000000E+00;  1.0000000E+03;  4.0000001E-01;  0.0000000E+00;0;  0.0000000E+00;  0.0000000E+00;  0.0000000E+00;0;  0.0000000E+00;  1.0000000E+04;  0.0000000E+00;  0.0000000E+00;  1.0000000E+04;  0.0000000E+00;  1.0000000E+04;  0.0000000E+00;  0.0000000E+00;  0.0000000E+00;  0.0000000E+00;
  1.0000000E-01;  9.9999998E-03;  3.6000001E-01;508;  0.0000000E+00;  0.0000000E+00;  0.0000000E+00;  1.0000000E+03;  4.0000001E-01;  0.0000000E+00;0;  0.0000000E+00;  0.0000000E+00;  0.0000000E+00;0;  0.0000000E+00;  1.0000000E+04;  0.0000000E+00;  0.0000000E+00;  1.0000000E+04;  0.0000000E+00;  1.0000000E+04;  0.0000000E+00;  0.0000000E+00;  0.0000000E+00;  0.0000000E+00;
  1.0000000E-01;  9.9999998E-03;  3.8000000E-01;509;  0.0000000E+00;  0.0000000E+00;  0.0000000E+00;  1.0000000E+03;  4.0000001E-01;  0.0000000E+00;0;  0.0000000E+00;  0.0000000E+00;  0.0000000E+00;0;  0.0000000E+00;  1.0000000E+04;  0.0000000E+00;  0.0000000E+00;  1.0000000E+04;  0.0000000E+00;  1.0000000E+04;  0.0000000E+00;  0.0000000E+00;  0.0000000E+00;  0.0000000E+00;
  1.0000000E-01;  9.9999998E-03;  4.0000001E-01;510;  0.0000000E+00;  0.0000000E+00;  0.0000000E+00;  1.0000000E+03;  4.0000001E-01;  0.0000000E+00;0;  0.0000000E+00;  0.0000000E+00;  0.0000000E+00;0;  0.0000000E+00;  1.0000000E+04;  0.0000000E+00;  0.0000000E+00;  1.0000000E+04;  0.0000000E+00;  1.0000000E+04;  0.0000000E+00;  0.0000000E+00;  0.0000000E+00;  0.0000000E+00;
  1.2000000E-01;  9.9999998E-03;  3.4000000E-01;517;  0.0000000E+00;  0.0000000E+00;  0.0000000E+00;  1.0000000E+03;  4.0000001E-01;  0.0000000E+00;0;  0.0000000E+00;  0.0000000E+00;  0.0000000E+00;0;  0.0000000E+00;  1.0000000E+04;  0.0000000E+00;  0.0000000E+00;  1.0000000E+04;  0.0000000E+00;  1.0000000E+04;  0.0000000E+00;  0.0000000E+00;  0.0000000E+00;  0.0000000E+00;
  1.2000000E-01;  9.9999998E-03;  3.6000001E-01;518;  0.0000000E+00;  0.0000000E+00;  0.0000000E+00;  1.0000000E+03;  4.0000001E-01;  0.0000000E+00;0;  0.0000000E+00;  0.0000000E+00;  0.0000000E+00;0;  0.0000000E+00;  1.0000000E+04;  0.0000000E+00;  0.0000000E+00;  1.0000000E+04;  0.0000000E+00;  1.0000000E+04;  0.0000000E+00;  0.0000000E+00;  0.0000000E+00;  0.0000000E+00;
  1.2000000E-01;  9.9999998E-03;  3.8000000E-01;519;  0.0000000E+00;  0.0000000E+00;  0.0000000E+00;  1.0000000E+03;  4.0000001E-01;  0.0000000E+00;0;  0.0000000E+00;  0.0000000E+00;  0.0000000E+00;0;  0.0000000E+00;  1.0000000E+04;  0.0000000E+00;  0.0000000E+00;  1.0000000E+04;  0.0000000E+00;  1.0000000E+04;  0.0000000E+00;  0.0000000E+00;  0.0000000E+00;  0.0000000E+00;
  1.2000000E-01;  9.9999998E-03;  4.0000001E-01;520;  0.0000000E+00;  0.0000000E+00;  0.0000000E+00;  1.0000000E+03;  4.0000001E-01;  0.0000000E+00;0;  0.0000000E+00;  0.0000000E+00;  0.0000000E+00;0;  0.0000000E+00;  1.0000000E+04;  0.0000000E+00;  0.0000000E+00;  1.0000000E+04;  0.0000000E+00;  1.0000000E+04;  0.0000000E+00;  0.0000000E+00;  0.0000000E+00;  0.0000000E+00;
  1.4000000E-01;  9.9999998E-03;  3.4000000E-01;527;  0.0000000E+00;  0.0000000E+00;  0.0000000E+00;  1.0000000E+03;  4.0000001E-01;  0.0000000E+00;0;  0.0000000E+00;  0.0000000E+00;  0.0000000E+00;0;  0.0000000E+00;  1.0000000E+04;  0.0000000E+00;  0.0000000E+00;  1.0000000E+04;  0.0000000E+00;  1.0000000E+04;  0.0000000E+00;  0.0000000E+00;  0.0000000E+00;  0.0000000E+00;
  1.4000000E-01;  9.9999998E-03;  3.6000001E-01;528;  0.0000000E+00;  0.0000000E+00;  0.0000000E+00;  1.0000000E+03;  4.0000001E-01;  0.0000000E+00;0;  0.0000000E+00;  0.0000000E+00;  0.0000000E+00;0;  0.0000000E+00;  1.0000000E+04;  0.0000000E+00;  0.0000000E+00;  1.0000000E+04;  0.0000000E+00;  1.0000000E+04;  0.0000000E+00;  0.0000000E+00;  0.0000000E+00;  0.0000000E+00;
  1.4000000E-01;  9.9999998E-03;  3.8000000E-01;529;  0.0000000E+00;  0.0000000E+00;  0.0000000E+00;  1.0000000E+03;  4.0000001E-01;  0.0000000E+00;0;  0.0000000E+00;  0.0000000E+00;  0.0000000E+00;0;  0.0000000E+00;  1.0000000E+04;  0.0000000E+00;  0.0000000E+00;  1.0000000E+04;  0.0000000E+00;  1.0000000E+04;  0.0000000E+00;  0.0000000E+00;  0.0000000E+00;  0.0000000E+00;
  1.4000000E-01;  9.9999998E-03;  4.0000001E-01;530;  0.0000000E+00;  0.0000000E+00;  0.0000000E+00;  1.0000000E+03;  4.0000001E-01;  0.0000000E+00;0;  0.0000000E+00;  0.0000000E+00;  0.0000000E+00;0;  0.0000000E+00;  1.0000000E+04;  0.0000000E+00;  0.0000000E+00;  1.0000000E+04;  0.0000000E+00;  1.0000000E+04;  0.0000000E+00;  0.0000000E+00;  0.0000000E+00;  0.0000000E+00;
  1.6000000E-01;  9.9999998E-03;  3.4000000E-01;537;  0.0000000E+00;  0.0000000E+00;  0.0000000E+00;  1.0000000E+03;  4.0000001E-01;  0.0000000E+00;0;  0.0000000E+00;  0.0000000E+00;  0.0000000E+00;0;  0.0000000E+00;  1.0000000E+04;  0.0000000E+00;  0.0000000E+00;  1.0000000E+04;  0.0000000E+00;  1.0000000E+04;  0.0000000E+00;  0.0000000E+00;  0.0000000E+00;  0.0000000E+00;
  1.6000000E-01;  9.9999998E-03;  3.6000001E-01;538;  0.0000000E+00;  0.0000000E+00;  0.0000000E+00;  1.0000000E+03;  4.0000001E-01;  0.0000000E+00;0;  0.0000000E+00;  0.0000000E+00;  0.0000000E+00;0;  0.0000000E+00;  1.0000000E+04;  0.0000000E+00;  0.0000000E+00;  1.0000000E+04;  0.0000000E+00;  1.0000000E+04;  0.0000000E+00;  0.0000000E+00;  0.0000000E+00;  0.0000000E+00;
  1.6000000E-01;  9.9999998E-03;  3.8000000E-01;539;  0.0000000E+00;  0.0000000E+00;  0.0000000E+00;  1.0000000E+03;  4.0000001E-01;  0.0000000E+00;0;  0.0000000E+00;  0.0000000E+00;  0.0000000E+00;0;  0.0000000E+00;  1.0000000E+04;  0.0000000E+00;  0.0000000E+00;  1.0000000E+04;  0.0000000E+00;  1.0000000E+04;  0.0000000E+00;  0.0000000E+00;  0.0000000E+00;  0.0000000E+00;
  1.6000000E-01;  9.9999998E-03;  4.0000001E-01;540;  0.0000000E+00;  0.0000000E+00;  0.0000000E+00;  1.0000000E+03;  4.0000001E-01;  0.0000000E+00;0;  0.0000000E+00;  0.0000000E+00;  0.0000000E+00;0;  0.0000000E+00;  1.0000000E+04;  0.0000000E+00;  0.0000000E+00;  1.0000000E+04;  0.0000000E+00;  1.0000000E+04;  0.0000000E+00;  0.0000000E+00;  0.0000000E+00;  0.0000000E+00;
  1.8000001E-01;  9.9999998E-03;  3.4000000E-01;547;  0.0000000E+00;  0.0000000E+00;  0.0000000E+00;  1.0000000E+03;  4.0000001E-01;  0.0000000E+00;0;  0.0000000E+00;  0.0000000E+00;  0.0000000E+00;0;  0.0000000E+00;  1.0000000E+04;  0.0000000E+00;  0.0000000E+00;  1.0000000E+04;  0.0000000E+00;  1.0000000E+04;  0.0000000E+00;  0.0000000E+00;  0.0000000E+00;  0.0000000E+00;
  1.8000001E-01;  9.9999998E-03;  3.6000001E-01;548;  0.0000000E+00;  0.0000000E+00;  0.0000000E+00;  1.0000000E+03;  4.0000001E-01;  0.0000000E+00;0;  0.0000000E+00;  0.0000000E+00;  0.0000000E+00;0;  0.0000000E+00;  1.0000000E+04;  0.0000000E+00;  0.0000000E+00;  1.0000000E+04;  0.0000000E+00;  1.0000000E+04;  0.0000000E+00;  0.0000000E+00;  0.0000000E+00;  0.0000000E+00;
  1.8000001E-01;  9.9999998E-03;  3.8000000E-01;549;  0.0000000E+00;  0.0000000E+00;  0.0000000E+00;  1.0000000E+03;  4.0000001E-01;  0.0000000E+00;0;  0.0000000E+00;  0.0000000E+00;  0.0000000E+00;0;  0.0000000E+00;  1.0000000E+04;  0.0000000E+00;  0.0000000E+00;  1.0000000E+04;  0.0000000E+00;  1.0000000E+04;  0.0000000E+00;  0.0000000E+00;  0.0000000E+00;  0.0000000E+00;
  1.8000001E-01;  9.9999998E-03;  4.0000001E-01;550;  0.0000000E+00;  0.0000000E+00;  0.0000000E+00;  1.0000000E+03;  4.0000001E-01;  0.0000000E+00;0;  0.0000000E+00;  0.0000000E+00;  0.0000000E+00;0;  0.0000000E+00;  1.0000000E+04;  0.0000000E+00;  0.0000000E+00;  1.0000000E+04;  0.0000000E+00;  1.0000000E+04;  0.0000000E+00;  0.0000000E+00;  0.0000000E+00;  0.0000000E+00;
  2.0000000E-01;  9.9999998E-03;  3.4000000E-01;556;  0.0000000E+00;  0.0000000E+00;  0.0000000E+00;  1.0000000E+03;  4.0000001E-01;  0.0000000E+00;0;  0.0000000E+00;  0.0000000E+00;  0.0000000E+00;0;  0.0000000E+00;  1.0000000E+04;  0.0000000E+00;  0.0000000E+00;  1.0000000E+04;  0.0000000E+00;  1.0000000E+04;  0.0000000E+00;  0.0000000E+00;  0.0000000E+00;  0.0000000E+00;
  2.0000000E-01;  9.9999998E-03;  3.6000001E-01;557;  0.0000000E+00;  0.0000000E+00;  0.0000000E+00;  1.0000000E+03;  4.0000001E-01;  0.0000000E+00;0;  0.0000000E+00;  0.0000000E+00;  0.0000000E+00;0;  0.0000000E+00;  1.0000000E+04;  0.0000000E+00;  0.0000000E+00;  1.0000000E+04;  0.0000000E+00;  1.0000000E+04;  0.0000000E+00;  0.0000000E+00;  0.0000000E+00;  0.0000000E+00;
  2.0000000E-01;  9.9999998E-03;  3.8000000E-01;558;  0.0000000E+00;  0.0000000E+00;  0.0000000E+00;  1.0000000E+03;  4.0000001E-01;  0.0000000E+00;0;  0.0000000E+00;  0.0000000E+00;  0.0000000E+00;0;  0.0000000E+00;  1.0000000E+04;  0.0000000E+00;  0.0000000E+00;  1.0000000E+04;  0.0000000E+00;  1.0000000E+04;  0.0000000E+00;  0.0000000E+00;  0.0000000E+00;  0.0000000E+00;
  1.9200000E+00;  9.9999998E-03; -3.6000001E-01;559;  0.0000000E+00;  0.0000000E+00;  0.0000000E+00;  1.0000000E+03;  4.0000001E-01;  0.0000000E+00;0;  0.0000000E+00;  0.0000000E+00;  0.0000000E+00;0;  0.0000000E+00;  1.0000000E+04;  0.0000000E+00;  0.0000000E+00;  1.0000000E+04;  0.0000000E+00;  1.0000000E+04;  0.0000000E+00;  0.0000000E+00;  0.0000000E+00;  0.0000000E+00;
  1.9200000E+00;  9.9999998E-03; -3.4000000E-01;560;  0.0000000E+00;  0.0000000E+00;  0.0000000E+00;  1.0000000E+03;  4.0000001E-01;  0.0000000E+00;0;  0.0000000E+00;  0.0000000E+00;  0.0000000E+00;0;  0.0000000E+00;  1.0000000E+04;  0.0000000E+00;  0.0000000E+00;  1.0000000E+04;  0.0000000E+00;  1.0000000E+04;  0.0000000E+00;  0.0000000E+00;  0.0000000E+00;  0.0000000E+00;
  1.9200000E+00;  9.9999998E-03; -3.1999999E-01;561;  0.0000000E+00;  0.0000000E+00;  0.0000000E+00;  1.0000000E+03;  4.0000001E-01;  0.0000000E+00;0;  0.0000000E+00;  0.0000000E+00;  0.0000000E+00;0;  0.0000000E+00;  1.0000000E+04;  0.0000000E+00;  0.0000000E+00;  1.0000000E+04;  0.0000000E+00;  1.0000000E+04;  0.0000000E+00;  0.0000000E+00;  0.0000000E+00;  0.0000000E+00;
  1.9400001E+00;  9.9999998E-03; -3.8000000E-01;562;  0.0000000E+00;  0.0000000E+00;  0.0000000E+00;  1.0000000E+03;  4.0000001E-01;  0.0000000E+00;0;  0.0000000E+00;  0.0000000E+00;  0.0000000E+00;0;  0.0000000E+00;  1.0000000E+04;  0.0000000E+00;  0.0000000E+00;  1.0000000E+04;  0.0000000E+00;  1.0000000E+04;  0.0000000E+00;  0.0000000E+00;  0.0000000E+00;  0.0000000E+00;
  1.9400001E+00;  9.9999998E-03; -3.6000001E-01;563;  0.0000000E+00;  0.0000000E+00;  0.0000000E+00;  1.0000000E+03;  4.0000001E-01;  0.0000000E+00;0;  0.0000000E+00;  0.0000000E+00;  0.0000000E+00;0;  0.0000000E+00;  1.0000000E+04;  0.0000000E+00;  0.0000000E+00;  1.0000000E+04;  0.0000000E+00;  1.0000000E+04;  0.0000000E+00;  0.0000000E+00;  0.0000000E+00;  0.0000000E+00;
  1.9400001E+00;  9.9999998E-03; -3.4000000E-01;564;  0.0000000E+00;  0.0000000E+00;  0.0000000E+00;  1.0000000E+03;  4.0000001E-01;  0.0000000E+00;0;  0.0000000E+00;  0.0000000E+00;  0.0000000E+00;0;  0.0000000E+00;  1.0000000E+04;  0.0000000E+00;  0.0000000E+00;  1.0000000E+04;  0.0000000E+00;  1.0000000E+04;  0.0000000E+00;  0.0000000E+00;  0.0000000E+00;  0.0000000E+00;
  1.9400001E+00;  9.9999998E-03; -3.1999999E-01;565;  0.0000000E+00;  0.0000000E+00;  0.0000000E+00;  1.0000000E+03;  4.0000001E-01;  0.0000000E+00;0;  0.0000000E+00;  0.0000000E+00;  0.0000000E+00;0;  0.0000000E+00;  1.0000000E+04;  0.0000000E+00;  0.0000000E+00;  1.0000000E+04;  0.0000000E+00;  1.0000000E+04;  0.0000000E+00;  0.0000000E+00;  0.0000000E+00;  0.0000000E+00;
  1.9400001E+00;  9.9999998E-03; -3.0000001E-01;566;  0.0000000E+00;  0.0000000E+00;  0.0000000E+00;  1.0000000E+03;  4.0000001E-01;  0.0000000E+00;0;  0.0000000E+00;  0.0000000E+00;  0.0000000E+00;0;  0.0000000E+00;  1.0000000E+04;  0.0000000E+00;  0.0000000E+00;  1.0000000E+04;  0.0000000E+00;  1.0000000E+04;  0.0000000E+00;  0.0000000E+00;  0.0000000E+00;  0.0000000E+00;
  1.9400001E+00;  9.9999998E-03; -2.8000000E-01;567;  0.0000000E+00;  0.0000000E+00;  0.0000000E+00;  1.0000000E+03;  4.0000001E-01;  0.0000000E+00;0;  0.0000000E+00;  0.0000000E+00;  0.0000000E+00;0;  0.0000000E+00;  1.0000000E+04;  0.0000000E+00;  0.0000000E+00;  1.0000000E+04;  0.0000000E+00;  1.0000000E+04;  0.0000000E+00;  0.0000000E+00;  0.0000000E+00;  0.0000000E+00;
  1.9400001E+00;  9.9999998E-03; -2.5999999E-01;568;  0.0000000E+00;  0.0000000E+00;  0.0000000E+00;  1.0000000E+03;  4.0000001E-01;  0.0000000E+00;0;  0.0000000E+00;  0.0000000E+00;  0.0000000E+00;0;  0.0000000E+00;  1.0000000E+04;  0.0000000E+00;  0.0000000E+00;  1.0000000E+04;  0.0000000E+00;  1.0000000E+04;  0.0000000E+00;  0.0000000E+00;  0.0000000E+00;  0.0000000E+00;
  1.9400001E+00;  9.9999998E-03; -2.3999999E-01;569;  0.0000000E+00;  0.0000000E+00;  0.0000000E+00;  1.0000000E+03;  4.0000001E-01;  0.0000000E+00;0;  0.0000000E+00;  0.0000000E+00;  0.0000000E+00;0;  0.0000000E+00;  1.0000000E+04;  0.0000000E+00;  0.0000000E+00;  1.0000000E+04;  0.0000000E+00;  1.0000000E+04;  0.0000000E+00;  0.0000000E+00;  0.0000000E+00;  0.0000000E+00;
  1.9400001E+00;  9.9999998E-03; -2.2000000E-01;570;  0.0000000E+00;  0.0000000E+00;  0.0000000E+00;  1.0000000E+03;  4.0000001E-01;  0.0000000E+00;0;  0.0000000E+00;  0.0000000E+00;  0.0000000E+00;0;  0.0000000E+00;  1.0000000E+04;  0.0000000E+00;  0.0000000E+00;  1.0000000E+04;  0.0000000E+00;  1.0000000E+04;  0.0000000E+00;  0.0000000E+00;  0.0000000E+00;  0.0000000E+00;
  1.9600000E+00;  9.9999998E-03; -3.8000000E-01;571;  0.0000000E+00;  0.0000000E+00;  0.0000000E+00;  1.0000000E+03;  4.0000001E-01;  0.0000000E+00;0;  0.0000000E+00;  0.0000000E+00;  0.0000000E+00;0;  0.0000000E+00;  1.0000000E+04;  0.0000000E+00;  0.0000000E+00;  1.0000000E+04;  0.0000000E+00;  1.0000000E+04;  0.0000000E+00;  0.0000000E+00;  0.0000000E+00;  0.0000000E+00;
  1.9600000E+00;  9.9999998E-03; -3.6000001E-01;572;  0.0000000E+00;  0.0000000E+00;  0.0000000E+00;  1.0000000E+03;  4.0000001E-01;  0.0000000E+00;0;  0.0000000E+00;  0.0000000E+00;  0.0000000E+00;0;  0.0000000E+00;  1.0000000E+04;  0.0000000E+00;  0.0000000E+00;  1.0000000E+04;  0.0000000E+00;  1.0000000E+04;  0.0000000E+00;  0.0000000E+00;  0.0000000E+00;  0.0000000E+00;
  1.9600000E+00;  9.9999998E-03; -3.4000000E-01;573;  0.0000000E+00;  0.0000000E+00;  0.0000000E+00;  1.0000000E+03;  4.0000001E-01;  0.0000000E+00;0;  0.0000000E+00;  0.0000000E+00;  0.0000000E+00;0;  0.0000000E+00;  1.0000000E+04;  0.0000000E+00;  0.0000000E+00;  1.0000000E+04;  0.0000000E+00;  1.0000000E+04;  0.0000000E+00;  0.0000000E+00;  0.0000000E+00;  0.0000000E+00;
  1.9600000E+00;  9.9999998E-03; -3.1999999E-01;574;  0.0000000E+00;  0.0000000E+00;  0.0000000E+00;  1.0000000E+03;  4.0000001E-01;  0.0000000E+00;0;  0.0000000E+00;  0.0000000E+00;  0.0000000E+00;0;  0.0000000E+00;  1.0000000E+04;  0.0000000E+00;  0.0000000E+00;  1.0000000E+04;  0.0000000E+00;  1.0000000E+04;  0.0000000E+00;  0.0000000E+00;  0.0000000E+00;  0.0000000E+00;
  1.9600000E+00;  9.9999998E-03; -3.0000001E-01;575;  0.0000000E+00;  0.0000000E+00;  0.0000000E+00;  1.0000000E+03;  4.0000001E-01;  0.0000000E+00;0;  0.0000000E+00;  0.0000000E+00;  0.0000000E+00;0;  0.0000000E+00;  1.0000000E+04;  0.0000000E+00;  0.0000000E+00;  1.0000000E+04;  0.0000000E+00;  1.0000000E+04;  0.0000000E+00;  0.0000000E+00;  0.0000000E+00;  0.0000000E+00;
  1.9600000E+00;  9.9999998E-03; -2.8000000E-01;576;  0.0000000E+00;  0.0000000E+00;  0.0000000E+00;  1.0000000E+03;  4.0000001E-01;  0.0000000E+00;0;  0.0000000E+00;  0.0000000E+00;  0.0000000E+00;0;  0.0000000E+00;  1.0000000E+04;  0.0000000E+00;  0.0000000E+00;  1.0000000E+04;  0.0000000E+00;  1.0000000E+04;  0.0000000E+00;  0.0000000E+00;  0.0000000E+00;  0.0000000E+00;
  1.9600000E+00;  9.9999998E-03; -2.5999999E-01;577;  0.0000000E+00;  0.0000000E+00;  0.0000000E+00;  1.0000000E+03;  4.0000001E-01;  0.0000000E+00;0;  0.0000000E+00;  0.0000000E+00;  0.0000000E+00;0;  0.0000000E+00;  1.0000000E+04;  0.0000000E+00;  0.0000000E+00;  1.0000000E+04;  0.0000000E+00;  1.0000000E+04;  0.0000000E+00;  0.0000000E+00;  0.0000000E+00;  0.0000000E+00;
  1.9600000E+00;  9.9999998E-03; -2.3999999E-01;578;  0.0000000E+00;  0.0000000E+00;  0.0000000E+00;  1.0000000E+03;  4.0000001E-01;  0.0000000E+00;0;  0.0000000E+00;  0.0000000E+00;  0.0000000E+00;0;  0.0000000E+00;  1.0000000E+04;  0.0000000E+00;  0.0000000E+00;  1.0000000E+04;  0.0000000E+00;  1.0000000E+04;  0.0000000E+00;  0.0000000E+00;  0.0000000E+00;  0.0000000E+00;
  1.9600000E+00;  9.9999998E-03; -2.2000000E-01;579;  0.0000000E+00;  0.0000000E+00;  0.0000000E+00;  1.0000000E+03;  4.0000001E-01;  0.0000000E+00;0;  0.0000000E+00;  0.0000000E+00;  0.0000000E+00;0;  0.0000000E+00;  1.0000000E+04;  0.0000000E+00;  0.0000000E+00;  1.0000000E+04;  0.0000000E+00;  1.0000000E+04;  0.0000000E+00;  0.0000000E+00;  0.0000000E+00;  0.0000000E+00;
  1.9600000E+00;  9.9999998E-03; -2.0000000E-01;580;  0.0000000E+00;  0.0000000E+00;  0.0000000E+00;  1.0000000E+03;  4.0000001E-01;  0.0000000E+00;0;  0.0000000E+00;  0.0000000E+00;  0.0000000E+00;0;  0.0000000E+00;  1.0000000E+04;  0.0000000E+00;  0.0000000E+00;  1.0000000E+04;  0.0000000E+00;  1.0000000E+04;  0.0000000E+00;  0.0000000E+00;  0.0000000E+00;  0.0000000E+00;
  1.9600000E+00;  9.9999998E-03; -1.8000001E-01;581;  0.0000000E+00;  0.0000000E+00;  0.0000000E+00;  1.0000000E+03;  4.0000001E-01;  0.0000000E+00;0;  0.0000000E+00;  0.0000000E+00;  0.0000000E+00;0;  0.0000000E+00;  1.0000000E+04;  0.0000000E+00;  0.0000000E+00;  1.0000000E+04;  0.0000000E+00;  1.0000000E+04;  0.0000000E+00;  0.0000000E+00;  0.0000000E+00;  0.0000000E+00;
  1.9600000E+00;  9.9999998E-03; -1.6000000E-01;582;  0.0000000E+00;  0.0000000E+00;  0.0000000E+00;  1.0000000E+03;  4.0000001E-01;  0.0000000E+00;0;  0.0000000E+00;  0.0000000E+00;  0.0000000E+00;0;  0.0000000E+00;  1.0000000E+04;  0.0000000E+00;  0.0000000E+00;  1.0000000E+04;  0.0000000E+00;  1.0000000E+04;  0.0000000E+00;  0.0000000E+00;  0.0000000E+00;  0.0000000E+00;
  1.9600000E+00;  9.9999998E-03; -1.4000000E-01;583;  0.0000000E+00;  0.0000000E+00;  0.0000000E+00;  1.0000000E+03;  4.0000001E-01;  0.0000000E+00;0;  0.0000000E+00;  0.0000000E+00;  0.0000000E+00;0;  0.0000000E+00;  1.0000000E+04;  0.0000000E+00;  0.0000000E+00;  1.0000000E+04;  0.0000000E+00;  1.0000000E+04;  0.0000000E+00;  0.0000000E+00;  0.0000000E+00;  0.0000000E+00;
  1.9600000E+00;  9.9999998E-03; -1.2000000E-01;584;  0.0000000E+00;  0.0000000E+00;  0.0000000E+00;  1.0000000E+03;  4.0000001E-01;  0.0000000E+00;0;  0.0000000E+00;  0.0000000E+00;  0.0000000E+00;0;  0.0000000E+00;  1.0000000E+04;  0.0000000E+00;  0.0000000E+00;  1.0000000E+04;  0.0000000E+00;  1.0000000E+04;  0.0000000E+00;  0.0000000E+00;  0.0000000E+00;  0.0000000E+00;
  1.9800000E+00;  9.9999998E-03; -3.8000000E-01;585;  0.0000000E+00;  0.0000000E+00;  0.0000000E+00;  1.0000000E+03;  4.0000001E-01;  0.0000000E+00;0;  0.0000000E+00;  0.0000000E+00;  0.0000000E+00;0;  0.0000000E+00;  1.0000000E+04;  0.0000000E+00;  0.0000000E+00;  1.0000000E+04;  0.0000000E+00;  1.0000000E+04;  0.0000000E+00;  0.0000000E+00;  0.0000000E+00;  0.0000000E+00;
  1.9800000E+00;  9.9999998E-03; -3.6000001E-01;586;  0.0000000E+00;  0.0000000E+00;  0.0000000E+00;  1.0000000E+03;  4.0000001E-01;  0.0000000E+00;0;  0.0000000E+00;  0.0000000E+00;  0.0000000E+00;0;  0.0000000E+00;  1.0000000E+04;  0.0000000E+00;  0.0000000E+00;  1.0000000E+04;  0.0000000E+00;  1.0000000E+04;  0.0000000E+00;  0.0000000E+00;  0.0000000E+00;  0.0000000E+00;
  1.9800000E+00;  9.9999998E-03; -3.4000000E-01;587;  0.0000000E+00;  0.0000000E+00;  0.0000000E+00;  1.0000000E+03;  4.0000001E-01;  0.0000000E+00;0;  0.0000000E+00;  0.0000000E+00;  0.0000000E+00;0;  0.0000000E+00;  1.0000000E+04;  0.0000000E+00;  0.0000000E+00;  1.0000000E+04;  0.0000000E+00;  1.0000000E+04;  0.0000000E+00;  0.0000000E+00;  0.0000000E+00;  0.0000000E+00;
  1.9800000E+00;  9.9999998E-03; -3.1999999E-01;588;  0.0000000E+00;  0.0000000E+00;  0.0000000E+00;  1.0000000E+03;  4.0000001E-01;  0.0000000E+00;0;  0.0000000E+00;  0.0000000E+00;  0.0000000E+00;0;  0.0000000E+00;  1.0000000E+04;  0.0000000E+00;  0.0000000E+00;  1.0000000E+04;  0.0000000E+00;  1.0000000E+04;  0.0000000E+00;  0.0000000E+00;  0.0000000E+00;  0.0000000E+00;
  1.9800000E+00;  9.9999998E-03; -3.0000001E-01;589;  0.0000000E+00;  0.0000000E+00;  0.0000000E+00;  1.0000000E+03;  4.0000001E-01;  0.0000000E+00;0;  0.0000000E+00;  0.0000000E+00;  0.0000000E+00;0;  0.0000000E+00;  1.0000000E+04;  0.0000000E+00;  0.0000000E+00;  1.0000000E+04;  0.0000000E+00;  1.0000000E+04;  0.0000000E+00;  0.0000000E+00;  0.0000000E+00;  0.0000000E+00;
  1.9800000E+00;  9.9999998E-03; -2.8000000E-01;590;  0.0000000E+00;  0.0000000E+00;  0.0000000E+00;  1.0000000E+03;  4.0000001E-01;  0.0000000E+00;0;  0.0000000E+00;  0.0000000E+00;  0.0000000E+00;0;  0.0000000E+00;  1.0000000E+04;  0.0000000E+00;  0.0000000E+00;  1.0000000E+04;  0.0000000E+00;  1.0000000E+04;  0.0000000E+00;  0.0000000E+00;  0.0000000E+00;  0.0000000E+00;
  1.9800000E+00;  9.9999998E-03; -2.5999999E-01;591;  0.0000000E+00;  0.0000000E+00;  0.0000000E+00;  1.0000000E+03;  4.0000001E-01;  0.0000000E+00;0;  0.0000000E+00;  0.0000000E+00;  0.0000000E+00;0;  0.0000000E+00;  1.0000000E+04;  0.0000000E+00;  0.0000000E+00;  1.0000000E+04;  0.0000000E+00;  1.0000000E+04;  0.0000000E+00;  0.0000000E+00;  0.0000000E+00;  0.0000000E+00;
  1.9800000E+00;  9.9999998E-03; -2.3999999E-01;592;  0.0000000E+00;  0.0000000E+00;  0.0000000E+00;  1.0000000E+03;  4.0000001E-01;  0.0000000E+00;0;  0.0000000E+00;  0.0000000E+00;  0.0000000E+00;0;  0.0000000E+00;  1.0000000E+04;  0.0000000E+00;  0.0000000E+00;  1.0000000E+04;  0.0000000E+00;  1.0000000E+04;  0.0000000E+00;  0.0000000E+00;  0.0000000E+00;  0.0000000E+00;
  1.9800000E+00;  9.9999998E-03; -2.2000000E-01;593;  0.0000000E+00;  0.0000000E+00;  0.0000000E+00;  1.0000000E+03;  4.0000001E-01;  0.0000000E+00;0;  0.0000000E+00;  0.0000000E+00;  0.0000000E+00;0;  0.0000000E+00;  1.0000000E+04;  0.0000000E+00;  0.0000000E+00;  1.0000000E+04;  0.0000000E+00;  1.0000000E+04;  0.0000000E+00;  0.0000000E+00;  0.0000000E+00;  0.0000000E+00;
  1.9800000E+00;  9.9999998E-03; -2.0000000E-01;594;  0.0000000E+00;  0.0000000E+00;  0.0000000E+00;  1.0000000E+03;  4.0000001E-01;  0.0000000E+00;0;  0.0000000E+00;  0.0000000E+00;  0.0000000E+00;0;  0.0000000E+00;  1.0000000E+04;  0.0000000E+00;  0.0000000E+00;  1.0000000E+04;  0.0000000E+00;  1.0000000E+04;  0.0000000E+00;  0.0000000E+00;  0.0000000E+00;  0.0000000E+00;
  1.9800000E+00;  9.9999998E-03; -1.8000001E-01;595;  0.0000000E+00;  0.0000000E+00;  0.0000000E+00;  1.0000000E+03;  4.0000001E-01;  0.0000000E+00;0;  0.0000000E+00;  0.0000000E+00;  0.0000000E+00;0;  0.0000000E+00;  1.0000000E+04;  0.0000000E+00;  0.0000000E+00;  1.0000000E+04;  0.0000000E+00;  1.0000000E+04;  0.0000000E+00;  0.0000000E+00;  0.0000000E+00;  0.0000000E+00;
  1.9800000E+00;  9.9999998E-03; -1.6000000E-01;596;  0.0000000E+00;  0.0000000E+00;  0.0000000E+00;  1.0000000E+03;  4.0000001E-01;  0.0000000E+00;0;  0.0000000E+00;  0.0000000E+00;  0.0000000E+00;0;  0.0000000E+00;  1.0000000E+04;  0.0000000E+00;  0.0000000E+00;  1.0000000E+04;  0.0000000E+00;  1.0000000E+04;  0.0000000E+00;  0.0000000E+00;  0.0000000E+00;  0.0000000E+00;
  1.9800000E+00;  9.9999998E-03; -1.4000000E-01;597;  0.0000000E+00;  0.0000000E+00;  0.0000000E+00;  1.0000000E+03;  4.0000001E-01;  0.0000000E+00;0;  0.0000000E+00;  0.0000000E+00;  0.0000000E+00;0;  0.0000000E+00;  1.0000000E+04;  0.0000000E+00;  0.0000000E+00;  1.0000000E+04;  0.0000000E+00;  1.0000000E+04;  0.0000000E+00;  0.0000000E+00;  0.0000000E+00;  0.0000000E+00;
  1.9800000E+00;  9.9999998E-03; -1.2000000E-01;598;  0.0000000E+00;  0.0000000E+00;  0.0000000E+00;  1.0000000E+03;  4.0000001E-01;  0.0000000E+00;0;  0.0000000E+00;  0.0000000E+00;  0.0000000E+00;0;  0.0000000E+00;  1.0000000E+04;  0.0000000E+00;  0.0000000E+00;  1.0000000E+04;  0.0000000E+00;  1.0000000E+04;  0.0000000E+00;  0.0000000E+00;  0.0000000E+00;  0.0000000E+00;
  1.9800000E+00;  9.9999998E-03; -1.0000000E-01;599;  0.0000000E+00;  0.0000000E+00;  0.0000000E+00;  1.0000000E+03;  4.0000001E-01;  0.0000000E+00;0;  0.0000000E+00;  0.0000000E+00;  0.0000000E+00;0;  0.0000000E+00;  1.0000000E+04;  0.0000000E+00;  0.0000000E+00;  1.0000000E+04;  0.0000000E+00;  1.0000000E+04;  0.0000000E+00;  0.0000000E+00;  0.0000000E+00;  0.0000000E+00;
  1.9800000E+00;  9.9999998E-03; -7.9999998E-02;600;  0.0000000E+00;  0.0000000E+00;  0.0000000E+00;  1.0000000E+03;  4.0000001E-01;  0.0000000E+00;0;  0.0000000E+00;  0.0000000E+00;  0.0000000E+00;0;  0.0000000E+00;  1.0000000E+04;  0.0000000E+00;  0.0000000E+00;  1.0000000E+04;  0.0000000E+00;  1.0000000E+04;  0.0000000E+00;  0.0000000E+00;  0.0000000E+00;  0.0000000E+00;
  1.9800000E+00;  9.9999998E-03; -5.9999999E-02;601;  0.0000000E+00;  0.0000000E+00;  0.0000000E+00;  1.0000000E+03;  4.0000001E-01;  0.0000000E+00;0;  0.0000000E+00;  0.0000000E+00;  0.0000000E+00;0;  0.0000000E+00;  1.0000000E+04;  0.0000000E+00;  0.0000000E+00;  1.0000000E+04;  0.0000000E+00;  1.0000000E+04;  0.0000000E+00;  0.0000000E+00;  0.0000000E+00;  0.0000000E+00;
  1.9800000E+00;  9.9999998E-03; -3.9999999E-02;602;  0.0000000E+00;  0.0000000E+00;  0.0000000E+00;  1.0000000E+03;  4.0000001E-01;  0.0000000E+00;0;  0.0000000E+00;  0.0000000E+00;  0.0000000E+00;0;  0.0000000E+00;  1.0000000E+04;  0.0000000E+00;  0.0000000E+00;  1.0000000E+04;  0.0000000E+00;  1.0000000E+04;  0.0000000E+00;  0.0000000E+00;  0.0000000E+00;  0.0000000E+00;
  1.9800000E+00;  9.9999998E-03; -2.0000000E-02;603;  0.0000000E+00;  0.0000000E+00;  0.0000000E+00;  1.0000000E+03;  4.0000001E-01;  0.0000000E+00;0;  0.0000000E+00;  0.0000000E+00;  0.0000000E+00;0;  0.0000000E+00;  1.0000000E+04;  0.0000000E+00;  0.0000000E+00;  1.0000000E+04;  0.0000000E+00;  1.0000000E+04;  0.0000000E+00;  0.0000000E+00;  0.0000000E+00;  0.0000000E+00;
  2.0000000E+00;  9.9999998E-03; -3.8000000E-01;604;  0.0000000E+00;  0.0000000E+00;  0.0000000E+00;  1.0000000E+03;  4.0000001E-01;  0.0000000E+00;0;  0.0000000E+00;  0.0000000E+00;  0.0000000E+00;0;  0.0000000E+00;  1.0000000E+04;  0.0000000E+00;  0.0000000E+00;  1.0000000E+04;  0.0000000E+00;  1.0000000E+04;  0.0000000E+00;  0.0000000E+00;  0.0000000E+00;  0.0000000E+00;
  2.0000000E+00;  9.9999998E-03; -3.6000001E-01;605;  0.0000000E+00;  0.0000000E+00;  0.0000000E+00;  1.0000000E+03;  4.0000001E-01;  0.0000000E+00;0;  0.0000000E+00;  0.0000000E+00;  0.0000000E+00;0;  0.0000000E+00;  1.0000000E+04;  0.0000000E+00;  0.0000000E+00;  1.0000000E+04;  0.0000000E+00;  1.0000000E+04;  0.0000000E+00;  0.0000000E+00;  0.0000000E+00;  0.0000000E+00;
  2.0000000E+00;  9.9999998E-03; -3.4000000E-01;606;  0.0000000E+00;  0.0000000E+00;  0.0000000E+00;  1.0000000E+03;  4.0000001E-01;  0.0000000E+00;0;  0.0000000E+00;  0.0000000E+00;  0.0000000E+00;0;  0.0000000E+00;  1.0000000E+04;  0.0000000E+00;  0.0000000E+00;  1.0000000E+04;  0.0000000E+00;  1.0000000E+04;  0.0000000E+00;  0.0000000E+00;  0.0000000E+00;  0.0000000E+00;
  2.0000000E+00;  9.9999998E-03; -3.1999999E-01;607;  0.0000000E+00;  0.0000000E+00;  0.0000000E+00;  1.0000000E+03;  4.0000001E-01;  0.0000000E+00;0;  0.0000000E+00;  0.0000000E+00;  0.0000000E+00;0;  0.0000000E+00;  1.0000000E+04;  0.0000000E+00;  0.0000000E+00;  1.0000000E+04;  0.0000000E+00;  1.0000000E+04;  0.0000000E+00;  0.0000000E+00;  0.0000000E+00;  0.0000000E+00;
  2.0000000E+00;  9.9999998E-03; -3.0000001E-01;608;  0.0000000E+00;  0.0000000E+00;  0.0000000E+00;  1.0000000E+03;  4.0000001E-01;  0.0000000E+00;0;  0.0000000E+00;  0.0000000E+00;  0.0000000E+00;0;  0.0000000E+00;  1.0000000E+04;  0.0000000E+00;  0.0000000E+00;  1.0000000E+04;  0.0000000E+00;  1.0000000E+04;  0.0000000E+00;  0.0000000E+00;  0.0000000E+00;  0.0000000E+00;
  2.0000000E+00;  9.9999998E-03; -2.8000000E-01;609;  0.0000000E+00;  0.0000000E+00;  0.0000000E+00;  1.0000000E+03;  4.0000001E-01;  0.0000000E+00;0;  0.0000000E+00;  0.0000000E+00;  0.0000000E+00;0;  0.0000000E+00;  1.0000000E+04;  0.0000000E+00;  0.0000000E+00;  1.0000000E+04;  0.0000000E+00;  1.0000000E+04;  0.0000000E+00;  0.0000000E+00;  0.0000000E+00;  0.0000000E+00;
  2.0000000E+00;  9.9999998E-03; -2.5999999E-01;610;  0.0000000E+00;  0.0000000E+00;  0.0000000E+00;  1.0000000E+03;  4.0000001E-01;  0.0000000E+00;0;  0.0000000E+00;  0.0000000E+00;  0.0000000E+00;0;  0.0000000E+00;  1.0000000E+04;  0.0000000E+00;  0.0000000E+00;  1.0000000E+04;  0.0000000E+00;  1.0000000E+04;  0.0000000E+00;  0.0000000E+00;  0.0000000E+00;  0.0000000E+00;
  2.0000000E+00;  9.9999998E-03; -2.3999999E-01;611;  0.0000000E+00;  0.0000000E+00;  0.0000000E+00;  1.0000000E+03;  4.0000001E-01;  0.0000000E+00;0;  0.0000000E+00;  0.0000000E+00;  0.0000000E+00;0;  0.0000000E+00;  1.0000000E+04;  0.0000000E+00;  0.0000000E+00;  1.0000000E+04;  0.0000000E+00;  1.0000000E+04;  0.0000000E+00;  0.0000000E+00;  0.0000000E+00;  0.0000000E+00;
  2.0000000E+00;  9.9999998E-03; -2.2000000E-01;612;  0.0000000E+00;  0.0000000E+00;  0.0000000E+00;  1.0000000E+03;  4.0000001E-01;  0.0000000E+00;0;  0.0000000E+00;  0.0000000E+00;  0.0000000E+00;0;  0.0000000E+00;  1.0000000E+04;  0.0000000E+00;  0.0000000E+00;  1.0000000E+04;  0.0000000E+00;  1.0000000E+04;  0.0000000E+00;  0.0000000E+00;  0.0000000E+00;  0.0000000E+00;
  2.0000000E+00;  9.9999998E-03; -2.0000000E-01;613;  0.0000000E+00;  0.0000000E+00;  0.0000000E+00;  1.0000000E+03;  4.0000001E-01;  0.0000000E+00;0;  0.0000000E+00;  0.0000000E+00;  0.0000000E+00;0;  0.0000000E+00;  1.0000000E+04;  0.0000000E+00;  0.0000000E+00;  1.0000000E+04;  0.0000000E+00;  1.0000000E+04;  0.0000000E+00;  0.0000000E+00;  0.0000000E+00;  0.0000000E+00;
  2.0000000E+00;  9.9999998E-03; -1.8000001E-01;614;  0.0000000E+00;  0.0000000E+00;  0.0000000E+00;  1.0000000E+03;  4.0000001E-01;  0.0000000E+00;0;  0.0000000E+00;  0.0000000E+00;  0.0000000E+00;0;  0.0000000E+00;  1.0000000E+04;  0.0000000E+00;  0.0000000E+00;  1.0000000E+04;  0.0000000E+00;  1.0000000E+04;  0.0000000E+00;  0.0000000E+00;  0.0000000E+00;  0.0000000E+00;
  2.0000000E+00;  9.9999998E-03; -1.6000000E-01;615;  0.0000000E+00;  0.0000000E+00;  0.0000000E+00;  1.0000000E+03;  4.0000001E-01;  0.0000000E+00;0;  0.0000000E+00;  0.0000000E+00;  0.0000000E+00;0;  0.0000000E+00;  1.0000000E+04;  0.0000000E+00;  0.0000000E+00;  1.0000000E+04;  0.0000000E+00;  1.0000000E+04;  0.0000000E+00;  0.0000000E+00;  0.0000000E+00;  0.0000000E+00;
  2.0000000E+00;  9.9999998E-03; -1.4000000E-01;616;  0.0000000E+00;  0.0000000E+00;  0.0000000E+00;  1.0000000E+03;  4.0000001E-01;  0.0000000E+00;0;  0.0000000E+00;  0.0000000E+00;  0.0000000E+00;0;  0.0000000E+00;  1.0000000E+04;  0.0000000E+00;  0.0000000E+00;  1.0000000E+04;  0.0000000E+00;  1.0000000E+04;  0.0000000E+00;  0.0000000E+00;  0.0000000E+00;  0.0000000E+00;
  2.0000000E+00;  9.9999998E-03; -1.2000000E-01;617;  0.0000000E+00;  0.0000000E+00;  0.0000000E+00;  1.0000000E+03;  4.0000001E-01;  0.0000000E+00;0;  0.0000000E+00;  0.0000000E+00;  0.0000000E+00;0;  0.0000000E+00;  1.0000000E+04;  0.0000000E+00;  0.0000000E+00;  1.0000000E+04;  0.0000000E+00;  1.0000000E+04;  0.0000000E+00;  0.0000000E+00;  0.0000000E+00;  0.0000000E+00;
  2.0000000E+00;  9.9999998E-03; -1.0000000E-01;618;  0.0000000E+00;  0.0000000E+00;  0.0000000E+00;  1.0000000E+03;  4.0000001E-01;  0.0000000E+00;0;  0.0000000E+00;  0.0000000E+00;  0.0000000E+00;0;  0.0000000E+00;  1.0000000E+04;  0.0000000E+00;  0.0000000E+00;  1.0000000E+04;  0.0000000E+00;  1.0000000E+04;  0.0000000E+00;  0.0000000E+00;  0.0000000E+00;  0.0000000E+00;
  2.0000000E+00;  9.9999998E-03; -7.9999998E-02;619;  0.0000000E+00;  0.0000000E+00;  0.0000000E+00;  1.0000000E+03;  4.0000001E-01;  0.0000000E+00;0;  0.0000000E+00;  0.0000000E+00;  0.0000000E+00;0;  0.0000000E+00;  1.0000000E+04;  0.0000000E+00;  0.0000000E+00;  1.0000000E+04;  0.0000000E+00;  1.0000000E+04;  0.0000000E+00;  0.0000000E+00;  0.0000000E+00;  0.0000000E+00;
  2.0000000E+00;  9.9999998E-03; -5.9999999E-02;620;  0.0000000E+00;  0.0000000E+00;  0.0000000E+00;  1.0000000E+03;  4.0000001E-01;  0.0000000E+00;0;  0.0000000E+00;  0.0000000E+00;  0.0000000E+00;0;  0.0000000E+00;  1.0000000E+04;  0.0000000E+00;  0.0000000E+00;  1.0000000E+04;  0.0000000E+00;  1.0000000E+04;  0.0000000E+00;  0.0000000E+00;  0.0000000E+00;  0.0000000E+00;
  2.0000000E+00;  9.9999998E-03; -3.9999999E-02;621;  0.0000000E+00;  0.0000000E+00;  0.0000000E+00;  1.0000000E+03;  4.0000001E-01;  0.0000000E+00;0;  0.0000000E+00;  0.0000000E+00;  0.0000000E+00;0;  0.0000000E+00;  1.0000000E+04;  0.0000000E+00;  0.0000000E+00;  1.0000000E+04;  0.0000000E+00;  1.0000000E+04;  0.0000000E+00;  0.0000000E+00;  0.0000000E+00;  0.0000000E+00;
  2.0000000E+00;  9.9999998E-03; -2.0000000E-02;622;  0.0000000E+00;  0.0000000E+00;  0.0000000E+00;  1.0000000E+03;  4.0000001E-01;  0.0000000E+00;0;  0.0000000E+00;  0.0000000E+00;  0.0000000E+00;0;  0.0000000E+00;  1.0000000E+04;  0.0000000E+00;  0.0000000E+00;  1.0000000E+04;  0.0000000E+00;  1.0000000E+04;  0.0000000E+00;  0.0000000E+00;  0.0000000E+00;  0.0000000E+00;
  2.0000000E+00;  9.9999998E-03;  0.0000000E+00;623;  0.0000000E+00;  0.0000000E+00;  0.0000000E+00;  1.0000000E+03;  4.0000001E-01;  0.0000000E+00;0;  0.0000000E+00;  0.0000000E+00;  0.0000000E+00;0;  0.0000000E+00;  1.0000000E+04;  0.0000000E+00;  0.0000000E+00;  1.0000000E+04;  0.0000000E+00;  1.0000000E+04;  0.0000000E+00;  0.0000000E+00;  0.0000000E+00;  0.0000000E+00;
  2.0000000E+00;  9.9999998E-03;  2.0000000E-02;624;  0.0000000E+00;  0.0000000E+00;  0.0000000E+00;  1.0000000E+03;  4.0000001E-01;  0.0000000E+00;0;  0.0000000E+00;  0.0000000E+00;  0.0000000E+00;0;  0.0000000E+00;  1.0000000E+04;  0.0000000E+00;  0.0000000E+00;  1.0000000E+04;  0.0000000E+00;  1.0000000E+04;  0.0000000E+00;  0.0000000E+00;  0.0000000E+00;  0.0000000E+00;
  2.0000000E+00;  9.9999998E-03;  3.9999999E-02;625;  0.0000000E+00;  0.0000000E+00;  0.0000000E+00;  1.0000000E+03;  4.0000001E-01;  0.0000000E+00;0;  0.0000000E+00;  0.0000000E+00;  0.0000000E+00;0;  0.0000000E+00;  1.0000000E+04;  0.0000000E+00;  0.0000000E+00;  1.0000000E+04;  0.0000000E+00;  1.0000000E+04;  0.0000000E+00;  0.0000000E+00;  0.0000000E+00;  0.0000000E+00;
  2.0000000E+00;  9.9999998E-03;  5.9999999E-02;626;  0.0000000E+00;  0.0000000E+00;  0.0000000E+00;  1.0000000E+03;  4.0000001E-01;  0.0000000E+00;0;  0.0000000E+00;  0.0000000E+00;  0.0000000E+00;0;  0.0000000E+00;  1.0000000E+04;  0.0000000E+00;  0.0000000E+00;  1.0000000E+04;  0.0000000E+00;  1.0000000E+04;  0.0000000E+00;  0.0000000E+00;  0.0000000E+00;  0.0000000E+00;
  2.0000000E+00;  9.9999998E-03;  7.9999998E-02;627;  0.0000000E+00;  0.0000000E+00;  0.0000000E+00;  1.0000000E+03;  4.0000001E-01;  0.0000000E+00;0;  0.0000000E+00;  0.0000000E+00;  0.0000000E+00;0;  0.0000000E+00;  1.0000000E+04;  0.0000000E+00;  0.0000000E+00;  1.0000000E+04;  0.0000000E+00;  1.0000000E+04;  0.0000000E+00;  0.0000000E+00;  0.0000000E+00;  0.0000000E+00;
  2.0200000E+00;  9.9999998E-03; -4.0000001E-01;628;  0.0000000E+00;  0.0000000E+00;  0.0000000E+00;  1.0000000E+03;  4.0000001E-01;  0.0000000E+00;0;  0.0000000E+00;  0.0000000E+00;  0.0000000E+00;0;  0.0000000E+00;  1.0000000E+04;  0.0000000E+00;  0.0000000E+00;  1.0000000E+04;  0.0000000E+00;  1.0000000E+04;  0.0000000E+00;  0.0000000E+00;  0.0000000E+00;  0.0000000E+00;
  2.0200000E+00;  9.9999998E-03; -3.8000000E-01;629;  0.0000000E+00;  0.0000000E+00;  0.0000000E+00;  1.0000000E+03;  4.0000001E-01;  0.0000000E+00;0;  0.0000000E+00;  0.0000000E+00;  0.0000000E+00;0;  0.0000000E+00;  1.0000000E+04;  0.0000000E+00;  0.0000000E+00;  1.0000000E+04;  0.0000000E+00;  1.0000000E+04;  0.0000000E+00;  0.0000000E+00;  0.0000000E+00;  0.0000000E+00;
  2.0200000E+00;  9.9999998E-03; -3.6000001E-01;630;  0.0000000E+00;  0.0000000E+00;  0.0000000E+00;  1.0000000E+03;  4.0000001E-01;  0.0000000E+00;0;  0.0000000E+00;  0.0000000E+00;  0.0000000E+00;0;  0.0000000E+00;  1.0000000E+04;  0.0000000E+00;  0.0000000E+00;  1.0000000E+04;  0.0000000E+00;  1.0000000E+04;  0.0000000E+00;  0.0000000E+00;  0.0000000E+00;  0.0000000E+00;
  2.0200000E+00;  9.9999998E-03; -3.4000000E-01;631;  0.0000000E+00;  0.0000000E+00;  0.0000000E+00;  1.0000000E+03;  4.0000001E-01;  0.0000000E+00;0;  0.0000000E+00;  0.0000000E+00;  0.0000000E+00;0;  0.0000000E+00;  1.0000000E+04;  0.0000000E+00;  0.0000000E+00;  1.0000000E+04;  0.0000000E+00;  1.0000000E+04;  0.0000000E+00;  0.0000000E+00;  0.0000000E+00;  0.0000000E+00;
  2.0200000E+00;  9.9999998E-03; -3.1999999E-01;632;  0.0000000E+00;  0.0000000E+00;  0.0000000E+00;  1.0000000E+03;  4.0000001E-01;  0.0000000E+00;0;  0.0000000E+00;  0.0000000E+00;  0.0000000E+00;0;  0.0000000E+00;  1.0000000E+04;  0.0000000E+00;  0.0000000E+00;  1.0000000E+04;  0.0000000E+00;  1.0000000E+04;  0.0000000E+00;  0.0000000E+00;  0.0000000E+00;  0.0000000E+00;
  2.0200000E+00;  9.9999998E-03; -3.0000001E-01;633;  0.0000000E+00;  0.0000000E+00;  0.0000000E+00;  1.0000000E+03;  4.0000001E-01;  0.0000000E+00;0;  0.0000000E+00;  0.0000000E+00;  0.0000000E+00;0;  0.0000000E+00;  1.0000000E+04;  0.0000000E+00;  0.0000000E+00;  1.0000000E+04;  0.0000000E+00;  1.0000000E+04;  0.0000000E+00;  0.0000000E+00;  0.0000000E+00;  0.0000000E+00;
  2.0200000E+00;  9.9999998E-03; -2.8000000E-01;634;  0.0000000E+00;  0.0000000E+00;  0.0000000E+00;  1.0000000E+03;  4.0000001E-01;  0.0000000E+00;0;  0.0000000E+00;  0.0000000E+00;  0.0000000E+00;0;  0.0000000E+00;  1.0000000E+04;  0.0000000E+00;  0.0000000E+00;  1.0000000E+04;  0.0000000E+00;  1.0000000E+04;  0.0000000E+00;  0.0000000E+00;  0.0000000E+00;  0.0000000E+00;
  2.0200000E+00;  9.9999998E-03; -2.5999999E-01;635;  0.0000000E+00;  0.0000000E+00;  0.0000000E+00;  1.0000000E+03;  4.0000001E-01;  0.0000000E+00;0;  0.0000000E+00;  0.0000000E+00;  0.0000000E+00;0;  0.0000000E+00;  1.0000000E+04;  0.0000000E+00;  0.0000000E+00;  1.0000000E+04;  0.0000000E+00;  1.0000000E+04;  0.0000000E+00;  0.0000000E+00;  0.0000000E+00;  0.0000000E+00;
  2.0200000E+00;  9.9999998E-03; -2.3999999E-01;636;  0.0000000E+00;  0.0000000E+00;  0.0000000E+00;  1.0000000E+03;  4.0000001E-01;  0.0000000E+00;0;  0.0000000E+00;  0.0000000E+00;  0.0000000E+00;0;  0.0000000E+00;  1.0000000E+04;  0.0000000E+00;  0.0000000E+00;  1.0000000E+04;  0.0000000E+00;  1.0000000E+04;  0.0000000E+00;  0.0000000E+00;  0.0000000E+00;  0.0000000E+00;
  2.0200000E+00;  9.9999998E-03; -2.2000000E-01;637;  0.0000000E+00;  0.0000000E+00;  0.0000000E+00;  1.0000000E+03;  4.0000001E-01;  0.0000000E+00;0;  0.0000000E+00;  0.0000000E+00;  0.0000000E+00;0;  0.0000000E+00;  1.0000000E+04;  0.0000000E+00;  0.0000000E+00;  1.0000000E+04;  0.0000000E+00;  1.0000000E+04;  0.0000000E+00;  0.0000000E+00;  0.0000000E+00;  0.0000000E+00;
  2.0200000E+00;  9.9999998E-03; -2.0000000E-01;638;  0.0000000E+00;  0.0000000E+00;  0.0000000E+00;  1.0000000E+03;  4.0000001E-01;  0.0000000E+00;0;  0.0000000E+00;  0.0000000E+00;  0.0000000E+00;0;  0.0000000E+00;  1.0000000E+04;  0.0000000E+00;  0.0000000E+00;  1.0000000E+04;  0.0000000E+00;  1.0000000E+04;  0.0000000E+00;  0.0000000E+00;  0.0000000E+00;  0.0000000E+00;
  2.0200000E+00;  9.9999998E-03; -1.8000001E-01;639;  0.0000000E+00;  0.0000000E+00;  0.0000000E+00;  1.0000000E+03;  4.0000001E-01;  0.0000000E+00;0;  0.0000000E+00;  0.0000000E+00;  0.0000000E+00;0;  0.0000000E+00;  1.0000000E+04;  0.0000000E+00;  0.0000000E+00;  1.0000000E+04;  0.0000000E+00;  1.0000000E+04;  0.0000000E+00;  0.0000000E+00;  0.0000000E+00;  0.0000000E+00;
  2.0200000E+00;  9.9999998E-03; -1.6000000E-01;640;  0.0000000E+00;  0.0000000E+00;  0.0000000E+00;  1.0000000E+03;  4.0000001E-01;  0.0000000E+00;0;  0.0000000E+00;  0.0000000E+00;  0.0000000E+00;0;  0.0000000E+00;  1.0000000E+04;  0.0000000E+00;  0.0000000E+00;  1.0000000E+04;  0.0000000E+00;  1.0000000E+04;  0.0000000E+00;  0.0000000E+00;  0.0000000E+00;  0.0000000E+00;
  2.0200000E+00;  9.9999998E-03; -1.4000000E-01;641;  0.0000000E+00;  0.0000000E+00;  0.0000000E+00;  1.0000000E+03;  4.0000001E-01;  0.0000000E+00;0;  0.0000000E+00;  0.0000000E+00;  0.0000000E+00;0;  0.0000000E+00;  1.0000000E+04;  0.0000000E+00;  0.0000000E+00;  1.0000000E+04;  0.0000000E+00;  1.0000000E+04;  0.0000000E+00;  0.0000000E+00;  0.0000000E+00;  0.0000000E+00;
  2.0200000E+00;  9.9999998E-03; -1.2000000E-01;642;  0.0000000E+00;  0.0000000E+00;  0.0000000E+00;  1.0000000E+03;  4.0000001E-01;  0.0000000E+00;0;  0.0000000E+00;  0.0000000E+00;  0.0000000E+00;0;  0.0000000E+00;  1.0000000E+04;  0.0000000E+00;  0.0000000E+00;  1.0000000E+04;  0.0000000E+00;  1.0000000E+04;  0.0000000E+00;  0.0000000E+00;  0.0000000E+00;  0.0000000E+00;
  2.0200000E+00;  9.9999998E-03; -1.0000000E-01;643;  0.0000000E+00;  0.0000000E+00;  0.0000000E+00;  1.0000000E+03;  4.0000001E-01;  0.0000000E+00;0;  0.0000000E+00;  0.0000000E+00;  0.0000000E+00;0;  0.0000000E+00;  1.0000000E+04;  0.0000000E+00;  0.0000000E+00;  1.0000000E+04;  0.0000000E+00;  1.0000000E+04;  0.0000000E+00;  0.0000000E+00;  0.0000000E+00;  0.0000000E+00;
  2.0200000E+00;  9.9999998E-03; -7.9999998E-02;644;  0.0000000E+00;  0.0000000E+00;  0.0000000E+00;  1.0000000E+03;  4.0000001E-01;  0.0000000E+00;0;  0.0000000E+00;  0.0000000E+00;  0.0000000E+00;0;  0.0000000E+00;  1.0000000E+04;  0.0000000E+00;  0.0000000E+00;  1.0000000E+04;  0.0000000E+00;  1.0000000E+04;  0.0000000E+00;  0.0000000E+00;  0.0000000E+00;  0.0000000E+00;
  2.0200000E+00;  9.9999998E-03; -5.9999999E-02;645;  0.0000000E+00;  0.0000000E+00;  0.0000000E+00;  1.0000000E+03;  4.0000001E-01;  0.0000000E+00;0;  0.0000000E+00;  0.0000000E+00;  0.0000000E+00;0;  0.0000000E+00;  1.0000000E+04;  0.0000000E+00;  0.0000000E+00;  1.0000000E+04;  0.0000000E+00;  1.0000000E+04;  0.0000000E+00;  0.0000000E+00;  0.0000000E+00;  0.0000000E+00;
  2.0200000E+00;  9.9999998E-03; -3.9999999E-02;646;  0.0000000E+00;  0.0000000E+00;  0.0000000E+00;  1.0000000E+03;  4.0000001E-01;  0.0000000E+00;0;  0.0000000E+00;  0.0000000E+00;  0.0000000E+00;0;  0.0000000E+00;  1.0000000E+04;  0.0000000E+00;  0.0000000E+00;  1.0000000E+04;  0.0000000E+00;  1.0000000E+04;  0.0000000E+00;  0.0000000E+00;  0.0000000E+00;  0.0000000E+00;
  2.0200000E+00;  9.9999998E-03; -2.0000000E-02;647;  0.0000000E+00;  0.0000000E+00;  0.0000000E+00;  1.0000000E+03;  4.0000001E-01;  0.0000000E+00;0;  0.0000000E+00;  0.0000000E+00;  0.0000000E+00;0;  0.0000000E+00;  1.0000000E+04;  0.0000000E+00;  0.0000000E+00;  1.0000000E+04;  0.0000000E+00;  1.0000000E+04;  0.0000000E+00;  0.0000000E+00;  0.0000000E+00;  0.0000000E+00;
  2.0200000E+00;  9.9999998E-03;  0.0000000E+00;648;  0.0000000E+00;  0.0000000E+00;  0.0000000E+00;  1.0000000E+03;  4.0000001E-01;  0.0000000E+00;0;  0.0000000E+00;  0.0000000E+00;  0.0000000E+00;0;  0.0000000E+00;  1.0000000E+04;  0.0000000E+00;  0.0000000E+00;  1.0000000E+04;  0.0000000E+00;  1.0000000E+04;  0.0000000E+00;  0.0000000E+00;  0.0000000E+00;  0.0000000E+00;
  2.0200000E+00;  9.9999998E-03;  2.0000000E-02;649;  0.0000000E+00;  0.0000000E+00;  0.0000000E+00;  1.0000000E+03;  4.0000001E-01;  0.0000000E+00;0;  0.0000000E+00;  0.0000000E+00;  0.0000000E+00;0;  0.0000000E+00;  1.0000000E+04;  0.0000000E+00;  0.0000000E+00;  1.0000000E+04;  0.0000000E+00;  1.0000000E+04;  0.0000000E+00;  0.0000000E+00;  0.0000000E+00;  0.0000000E+00;
  2.0200000E+00;  9.9999998E-03;  3.9999999E-02;650;  0.0000000E+00;  0.0000000E+00;  0.0000000E+00;  1.0000000E+03;  4.0000001E-01;  0.0000000E+00;0;  0.0000000E+00;  0.0000000E+00;  0.0000000E+00;0;  0.0000000E+00;  1.0000000E+04;  0.0000000E+00;  0.0000000E+00;  1.0000000E+04;  0.0000000E+00;  1.0000000E+04;  0.0000000E+00;  0.0000000E+00;  0.0000000E+00;  0.0000000E+00;
  2.0200000E+00;  9.9999998E-03;  5.9999999E-02;651;  0.0000000E+00;  0.0000000E+00;  0.0000000E+00;  1.0000000E+03;  4.0000001E-01;  0.0000000E+00;0;  0.0000000E+00;  0.0000000E+00;  0.0000000E+00;0;  0.0000000E+00;  1.0000000E+04;  0.0000000E+00;  0.0000000E+00;  1.0000000E+04;  0.0000000E+00;  1.0000000E+04;  0.0000000E+00;  0.0000000E+00;  0.0000000E+00;  0.0000000E+00;
  2.0200000E+00;  9.9999998E-03;  7.9999998E-02;652;  0.0000000E+00;  0.0000000E+00;  0.0000000E+00;  1.0000000E+03;  4.0000001E-01;  0.0000000E+00;0;  0.0000000E+00;  0.0000000E+00;  0.0000000E+00;0;  0.0000000E+00;  1.0000000E+04;  0.0000000E+00;  0.0000000E+00;  1.0000000E+04;  0.0000000E+00;  1.0000000E+04;  0.0000000E+00;  0.0000000E+00;  0.0000000E+00;  0.0000000E+00;
  2.0200000E+00;  9.9999998E-03;  1.0000000E-01;653;  0.0000000E+00;  0.0000000E+00;  0.0000000E+00;  1.0000000E+03;  4.0000001E-01;  0.0000000E+00;0;  0.0000000E+00;  0.0000000E+00;  0.0000000E+00;0;  0.0000000E+00;  1.0000000E+04;  0.0000000E+00;  0.0000000E+00;  1.0000000E+04;  0.0000000E+00;  1.0000000E+04;  0.0000000E+00;  0.0000000E+00;  0.0000000E+00;  0.0000000E+00;
  2.0200000E+00;  9.9999998E-03;  1.2000000E-01;654;  0.0000000E+00;  0.0000000E+00;  0.0000000E+00;  1.0000000E+03;  4.0000001E-01;  0.0000000E+00;0;  0.0000000E+00;  0.0000000E+00;  0.0000000E+00;0;  0.0000000E+00;  1.0000000E+04;  0.0000000E+00;  0.0000000E+00;  1.0000000E+04;  0.0000000E+00;  1.0000000E+04;  0.0000000E+00;  0.0000000E+00;  0.0000000E+00;  0.0000000E+00;
  2.0200000E+00;  9.9999998E-03;  1.4000000E-01;655;  0.0000000E+00;  0.0000000E+00;  0.0000000E+00;  1.0000000E+03;  4.0000001E-01;  0.0000000E+00;0;  0.0000000E+00;  0.0000000E+00;  0.0000000E+00;0;  0.0000000E+00;  1.0000000E+04;  0.0000000E+00;  0.0000000E+00;  1.0000000E+04;  0.0000000E+00;  1.0000000E+04;  0.0000000E+00;  0.0000000E+00;  0.0000000E+00;  0.0000000E+00;
  2.0200000E+00;  9.9999998E-03;  1.6000000E-01;656;  0.0000000E+00;  0.0000000E+00;  0.0000000E+00;  1.0000000E+03;  4.0000001E-01;  0.0000000E+00;0;  0.0000000E+00;  0.0000000E+00;  0.0000000E+00;0;  0.0000000E+00;  1.0000000E+04;  0.0000000E+00;  0.0000000E+00;  1.0000000E+04;  0.0000000E+00;  1.0000000E+04;  0.0000000E+00;  0.0000000E+00;  0.0000000E+00;  0.0000000E+00;
  2.0200000E+00;  9.9999998E-03;  1.8000001E-01;657;  0.0000000E+00;  0.0000000E+00;  0.0000000E+00;  1.0000000E+03;  4.0000001E-01;  0.0000000E+00;0;  0.0000000E+00;  0.0000000E+00;  0.0000000E+00;0;  0.0000000E+00;  1.0000000E+04;  0.0000000E+00;  0.0000000E+00;  1.0000000E+04;  0.0000000E+00;  1.0000000E+04;  0.0000000E+00;  0.0000000E+00;  0.0000000E+00;  0.0000000E+00;
  2.0400000E+00;  9.9999998E-03; -4.0000001E-01;658;  0.0000000E+00;  0.0000000E+00;  0.0000000E+00;  1.0000000E+03;  4.0000001E-01;  0.0000000E+00;0;  0.0000000E+00;  0.0000000E+00;  0.0000000E+00;0;  0.0000000E+00;  1.0000000E+04;  0.0000000E+00;  0.0000000E+00;  1.0000000E+04;  0.0000000E+00;  1.0000000E+04;  0.0000000E+00;  0.0000000E+00;  0.0000000E+00;  0.0000000E+00;
  2.0400000E+00;  9.9999998E-03; -3.8000000E-01;659;  0.0000000E+00;  0.0000000E+00;  0.0000000E+00;  1.0000000E+03;  4.0000001E-01;  0.0000000E+00;0;  0.0000000E+00;  0.0000000E+00;  0.0000000E+00;0;  0.0000000E+00;  1.0000000E+04;  0.0000000E+00;  0.0000000E+00;  1.0000000E+04;  0.0000000E+00;  1.0000000E+04;  0.0000000E+00;  0.0000000E+00;  0.0000000E+00;  0.0000000E+00;
  2.0400000E+00;  9.9999998E-03; -3.6000001E-01;660;  0.0000000E+00;  0.0000000E+00;  0.0000000E+00;  1.0000000E+03;  4.0000001E-01;  0.0000000E+00;0;  0.0000000E+00;  0.0000000E+00;  0.0000000E+00;0;  0.0000000E+00;  1.0000000E+04;  0.0000000E+00;  0.0000000E+00;  1.0000000E+04;  0.0000000E+00;  1.0000000E+04;  0.0000000E+00;  0.0000000E+00;  0.0000000E+00;  0.0000000E+00;
  2.0400000E+00;  9.9999998E-03; -3.4000000E-01;661;  0.0000000E+00;  0.0000000E+00;  0.0000000E+00;  1.0000000E+03;  4.0000001E-01;  0.0000000E+00;0;  0.0000000E+00;  0.0000000E+00;  0.0000000E+00;0;  0.0000000E+00;  1.0000000E+04;  0.0000000E+00;  0.0000000E+00;  1.0000000E+04;  0.0000000E+00;  1.0000000E+04;  0.0000000E+00;  0.0000000E+00;  0.0000000E+00;  0.0000000E+00;
  2.0400000E+00;  9.9999998E-03; -3.1999999E-01;662;  0.0000000E+00;  0.0000000E+00;  0.0000000E+00;  1.0000000E+03;  4.0000001E-01;  0.0000000E+00;0;  0.0000000E+00;  0.0000000E+00;  0.0000000E+00;0;  0.0000000E+00;  1.0000000E+04;  0.0000000E+00;  0.0000000E+00;  1.0000000E+04;  0.0000000E+00;  1.0000000E+04;  0.0000000E+00;  0.0000000E+00;  0.0000000E+00;  0.0000000E+00;
  2.0400000E+00;  9.9999998E-03; -3.0000001E-01;663;  0.0000000E+00;  0.0000000E+00;  0.0000000E+00;  1.0000000E+03;  4.0000001E-01;  0.0000000E+00;0;  0.0000000E+00;  0.0000000E+00;  0.0000000E+00;0;  0.0000000E+00;  1.0000000E+04;  0.0000000E+00;  0.0000000E+00;  1.0000000E+04;  0.0000000E+00;  1.0000000E+04;  0.0000000E+00;  0.0000000E+00;  0.0000000E+00;  0.0000000E+00;
  2.0400000E+00;  9.9999998E-03; -2.8000000E-01;664;  0.0000000E+00;  0.0000000E+00;  0.0000000E+00;  1.0000000E+03;  4.0000001E-01;  0.0000000E+00;0;  0.0000000E+00;  0.0000000E+00;  0.0000000E+00;0;  0.0000000E+00;  1.0000000E+04;  0.0000000E+00;  0.0000000E+00;  1.0000000E+04;  0.0000000E+00;  1.0000000E+04;  0.0000000E+00;  0.0000000E+00;  0.0000000E+00;  0.0000000E+00;
  2.0400000E+00;  9.9999998E-03; -2.5999999E-01;665;  0.0000000E+00;  0.0000000E+00;  0.0000000E+00;  1.0000000E+03;  4.0000001E-01;  0.0000000E+00;0;  0.0000000E+00;  0.0000000E+00;  0.0000000E+00;0;  0.0000000E+00;  1.0000000E+04;  0.0000000E+00;  0.0000000E+00;  1.0000000E+04;  0.0000000E+00;  1.0000000E+04;  0.0000000E+00;  0.0000000E+00;  0.0000000E+00;  0.0000000E+00;
  2.0400000E+00;  9.9999998E-03; -2.3999999E-01;666;  0.0000000E+00;  0.0000000E+00;  0.0000000E+00;  1.0000000E+03;  4.0000001E-01;  0.0000000E+00;0;  0.0000000E+00;  0.0000000E+00;  0.0000000E+00;0;  0.0000000E+00;  1.0000000E+04;  0.0000000E+00;  0.0000000E+00;  1.0000000E+04;  0.0000000E+00;  1.0000000E+04;  0.0000000E+00;  0.0000000E+00;  0.0000000E+00;  0.0000000E+00;
  2.0400000E+00;  9.9999998E-03; -2.2000000E-01;667;  0.0000000E+00;  0.0000000E+00;  0.0000000E+00;  1.0000000E+03;  4.0000001E-01;  0.0000000E+00;0;  0.0000000E+00;  0.0000000E+00;  0.0000000E+00;0;  0.0000000E+00;  1.0000000E+04;  0.0000000E+00;  0.0000000E+00;  1.0000000E+04;  0.0000000E+00;  1.0000000E+04;  0.0000000E+00;  0.0000000E+00;  0.0000000E+00;  0.0000000E+00;
  2.0400000E+00;  9.9999998E-03; -2.0000000E-01;668;  0.0000000E+00;  0.0000000E+00;  0.0000000E+00;  1.0000000E+03;  4.0000001E-01;  0.0000000E+00;0;  0.0000000E+00;  0.0000000E+00;  0.0000000E+00;0;  0.0000000E+00;  1.0000000E+04;  0.0000000E+00;  0.0000000E+00;  1.0000000E+04;  0.0000000E+00;  1.0000000E+04;  0.0000000E+00;  0.0000000E+00;  0.0000000E+00;  0.0000000E+00;
  2.0400000E+00;  9.9999998E-03; -1.8000001E-01;669;  0.0000000E+00;  0.0000000E+00;  0.0000000E+00;  1.0000000E+03;  4.0000001E-01;  0.0000000E+00;0;  0.0000000E+00;  0.0000000E+00;  0.0000000E+00;0;  0.0000000E+00;  1.0000000E+04;  0.0000000E+00;  0.0000000E+00;  1.0000000E+04;  0.0000000E+00;  1.0000000E+04;  0.0000000E+00;  0.0000000E+00;  0.0000000E+00;  0.0000000E+00;
  2.0400000E+00;  9.9999998E-03; -1.6000000E-01;670;  0.0000000E+00;  0.0000000E+00;  0.0000000E+00;  1.0000000E+03;  4.0000001E-01;  0.0000000E+00;0;  0.0000000E+00;  0.0000000E+00;  0.0000000E+00;0;  0.0000000E+00;  1.0000000E+04;  0.0000000E+00;  0.0000000E+00;  1.0000000E+04;  0.0000000E+00;  1.0000000E+04;  0.0000000E+00;  0.0000000E+00;  0.0000000E+00;  0.0000000E+00;
  2.0400000E+00;  9.9999998E-03; -1.4000000E-01;671;  0.0000000E+00;  0.0000000E+00;  0.0000000E+00;  1.0000000E+03;  4.0000001E-01;  0.0000000E+00;0;  0.0000000E+00;  0.0000000E+00;  0.0000000E+00;0;  0.0000000E+00;  1.0000000E+04;  0.0000000E+00;  0.0000000E+00;  1.0000000E+04;  0.0000000E+00;  1.0000000E+04;  0.0000000E+00;  0.0000000E+00;  0.0000000E+00;  0.0000000E+00;
  2.0400000E+00;  9.9999998E-03; -1.2000000E-01;672;  0.0000000E+00;  0.0000000E+00;  0.0000000E+00;  1.0000000E+03;  4.0000001E-01;  0.0000000E+00;0;  0.0000000E+00;  0.0000000E+00;  0.0000000E+00;0;  0.0000000E+00;  1.0000000E+04;  0.0000000E+00;  0.0000000E+00;  1.0000000E+04;  0.0000000E+00;  1.0000000E+04;  0.0000000E+00;  0.0000000E+00;  0.0000000E+00;  0.0000000E+00;
  2.0400000E+00;  9.9999998E-03; -1.0000000E-01;673;  0.0000000E+00;  0.0000000E+00;  0.0000000E+00;  1.0000000E+03;  4.0000001E-01;  0.0000000E+00;0;  0.0000000E+00;  0.0000000E+00;  0.0000000E+00;0;  0.0000000E+00;  1.0000000E+04;  0.0000000E+00;  0.0000000E+00;  1.0000000E+04;  0.0000000E+00;  1.0000000E+04;  0.0000000E+00;  0.0000000E+00;  0.0000000E+00;  0.0000000E+00;
  2.0400000E+00;  9.9999998E-03; -7.9999998E-02;674;  0.0000000E+00;  0.0000000E+00;  0.0000000E+00;  1.0000000E+03;  4.0000001E-01;  0.0000000E+00;0;  0.0000000E+00;  0.0000000E+00;  0.0000000E+00;0;  0.0000000E+00;  1.0000000E+04;  0.0000000E+00;  0.0000000E+00;  1.0000000E+04;  0.0000000E+00;  1.0000000E+04;  0.0000000E+00;  0.0000000E+00;  0.0000000E+00;  0.0000000E+00;
  2.0400000E+00;  9.9999998E-03; -5.9999999E-02;675;  0.0000000E+00;  0.0000000E+00;  0.0000000E+00;  1.0000000E+03;  4.0000001E-01;  0.0000000E+00;0;  0.0000000E+00;  0.0000000E+00;  0.0000000E+00;0;  0.0000000E+00;  1.0000000E+04;  0.0000000E+00;  0.0000000E+00;  1.0000000E+04;  0.0000000E+00;  1.0000000E+04;  0.0000000E+00;  0.0000000E+00;  0.0000000E+00;  0.0000000E+00;
  2.0400000E+00;  9.9999998E-03; -3.9999999E-02;676;  0.0000000E+00;  0.0000000E+00;  0.0000000E+00;  1.0000000E+03;  4.0000001E-01;  0.0000000E+00;0;  0.0000000E+00;  0.0000000E+00;  0.0000000E+00;0;  0.0000000E+00;  1.0000000E+04;  0.0000000E+00;  0.0000000E+00;  1.0000000E+04;  0.0000000E+00;  1.0000000E+04;  0.0000000E+00;  0.0000000E+00;  0.0000000E+00;  0.0000000E+00;
  2.0400000E+00;  9.9999998E-03; -2.0000000E-02;677;  0.0000000E+00;  0.0000000E+00;  0.0000000E+00;  1.0000000E+03;  4.0000001E-01;  0.0000000E+00;0;  0.0000000E+00;  0.0000000E+00;  0.0000000E+00;0;  0.0000000E+00;  1.0000000E+04;  0.0000000E+00;  0.0000000E+00;  1.0000000E+04;  0.0000000E+00;  1.0000000E+04;  0.0000000E+00;  0.0000000E+00;  0.0000000E+00;  0.0000000E+00;
  2.0400000E+00;  9.9999998E-03;  0.0000000E+00;678;  0.0000000E+00;  0.0000000E+00;  0.0000000E+00;  1.0000000E+03;  4.0000001E-01;  0.0000000E+00;0;  0.0000000E+00;  0.0000000E+00;  0.0000000E+00;0;  0.0000000E+00;  1.0000000E+04;  0.0000000E+00;  0.0000000E+00;  1.0000000E+04;  0.0000000E+00;  1.0000000E+04;  0.0000000E+00;  0.0000000E+00;  0.0000000E+00;  0.0000000E+00;
  2.0400000E+00;  9.9999998E-03;  2.0000000E-02;679;  0.0000000E+00;  0.0000000E+00;  0.0000000E+00;  1.0000000E+03;  4.0000001E-01;  0.0000000E+00;0;  0.0000000E+00;  0.0000000E+00;  0.0000000E+00;0;  0.0000000E+00;  1.0000000E+04;  0.0000000E+00;  0.0000000E+00;  1.0000000E+04;  0.0000000E+00;  1.0000000E+04;  0.0000000E+00;  0.0000000E+00;  0.0000000E+00;  0.0000000E+00;
  2.0400000E+00;  9.9999998E-03;  3.9999999E-02;680;  0.0000000E+00;  0.0000000E+00;  0.0000000E+00;  1.0000000E+03;  4.0000001E-01;  0.0000000E+00;0;  0.0000000E+00;  0.0000000E+00;  0.0000000E+00;0;  0.0000000E+00;  1.0000000E+04;  0.0000000E+00;  0.0000000E+00;  1.0000000E+04;  0.0000000E+00;  1.0000000E+04;  0.0000000E+00;  0.0000000E+00;  0.0000000E+00;  0.0000000E+00;
  2.0400000E+00;  9.9999998E-03;  5.9999999E-02;681;  0.0000000E+00;  0.0000000E+00;  0.0000000E+00;  1.0000000E+03;  4.0000001E-01;  0.0000000E+00;0;  0.0000000E+00;  0.0000000E+00;  0.0000000E+00;0;  0.0000000E+00;  1.0000000E+04;  0.0000000E+00;  0.0000000E+00;  1.0000000E+04;  0.0000000E+00;  1.0000000E+04;  0.0000000E+00;  0.0000000E+00;  0.0000000E+00;  0.0000000E+00;
  2.0400000E+00;  9.9999998E-03;  7.9999998E-02;682;  0.0000000E+00;  0.0000000E+00;  0.0000000E+00;  1.0000000E+03;  4.0000001E-01;  0.0000000E+00;0;  0.0000000E+00;  0.0000000E+00;  0.0000000E+00;0;  0.0000000E+00;  1.0000000E+04;  0.0000000E+00;  0.0000000E+00;  1.0000000E+04;  0.0000000E+00;  1.0000000E+04;  0.0000000E+00;  0.0000000E+00;  0.0000000E+00;  0.0000000E+00;
  2.0400000E+00;  9.9999998E-03;  1.0000000E-01;683;  0.0000000E+00;  0.0000000E+00;  0.0000000E+00;  1.0000000E+03;  4.0000001E-01;  0.0000000E+00;0;  0.0000000E+00;  0.0000000E+00;  0.0000000E+00;0;  0.0000000E+00;  1.0000000E+04;  0.0000000E+00;  0.0000000E+00;  1.0000000E+04;  0.0000000E+00;  1.0000000E+04;  0.0000000E+00;  0.0000000E+00;  0.0000000E+00;  0.0000000E+00;
  2.0400000E+00;  9.9999998E-03;  1.2000000E-01;684;  0.0000000E+00;  0.0000000E+00;  0.0000000E+00;  1.0000000E+03;  4.0000001E-01;  0.0000000E+00;0;  0.0000000E+00;  0.0000000E+00;  0.0000000E+00;0;  0.0000000E+00;  1.0000000E+04;  0.0000000E+00;  0.0000000E+00;  1.0000000E+04;  0.0000000E+00;  1.0000000E+04;  0.0000000E+00;  0.0000000E+00;  0.0000000E+00;  0.0000000E+00;
  2.0400000E+00;  9.9999998E-03;  1.4000000E-01;685;  0.0000000E+00;  0.0000000E+00;  0.0000000E+00;  1.0000000E+03;  4.0000001E-01;  0.0000000E+00;0;  0.0000000E+00;  0.0000000E+00;  0.0000000E+00;0;  0.0000000E+00;  1.0000000E+04;  0.0000000E+00;  0.0000000E+00;  1.0000000E+04;  0.0000000E+00;  1.0000000E+04;  0.0000000E+00;  0.0000000E+00;  0.0000000E+00;  0.0000000E+00;
  2.0400000E+00;  9.9999998E-03;  1.6000000E-01;686;  0.0000000E+00;  0.0000000E+00;  0.0000000E+00;  1.0000000E+03;  4.0000001E-01;  0.0000000E+00;0;  0.0000000E+00;  0.0000000E+00;  0.0000000E+00;0;  0.0000000E+00;  1.0000000E+04;  0.0000000E+00;  0.0000000E+00;  1.0000000E+04;  0.0000000E+00;  1.0000000E+04;  0.0000000E+00;  0.0000000E+00;  0.0000000E+00;  0.0000000E+00;
  2.0400000E+00;  9.9999998E-03;  1.8000001E-01;687;  0.0000000E+00;  0.0000000E+00;  0.0000000E+00;  1.0000000E+03;  4.0000001E-01;  0.0000000E+00;0;  0.0000000E+00;  0.0000000E+00;  0.0000000E+00;0;  0.0000000E+00;  1.0000000E+04;  0.0000000E+00;  0.0000000E+00;  1.0000000E+04;  0.0000000E+00;  1.0000000E+04;  0.0000000E+00;  0.0000000E+00;  0.0000000E+00;  0.0000000E+00;
  2.0400000E+00;  9.9999998E-03;  2.0000000E-01;688;  0.0000000E+00;  0.0000000E+00;  0.0000000E+00;  1.0000000E+03;  4.0000001E-01;  0.0000000E+00;0;  0.0000000E+00;  0.0000000E+00;  0.0000000E+00;0;  0.0000000E+00;  1.0000000E+04;  0.0000000E+00;  0.0000000E+00;  1.0000000E+04;  0.0000000E+00;  1.0000000E+04;  0.0000000E+00;  0.0000000E+00;  0.0000000E+00;  0.0000000E+00;
  2.0400000E+00;  9.9999998E-03;  2.2000000E-01;689;  0.0000000E+00;  0.0000000E+00;  0.0000000E+00;  1.0000000E+03;  4.0000001E-01;  0.0000000E+00;0;  0.0000000E+00;  0.0000000E+00;  0.0000000E+00;0;  0.0000000E+00;  1.0000000E+04;  0.0000000E+00;  0.0000000E+00;  1.0000000E+04;  0.0000000E+00;  1.0000000E+04;  0.0000000E+00;  0.0000000E+00;  0.0000000E+00;  0.0000000E+00;
  2.0400000E+00;  9.9999998E-03;  2.3999999E-01;690;  0.0000000E+00;  0.0000000E+00;  0.0000000E+00;  1.0000000E+03;  4.0000001E-01;  0.0000000E+00;0;  0.0000000E+00;  0.0000000E+00;  0.0000000E+00;0;  0.0000000E+00;  1.0000000E+04;  0.0000000E+00;  0.0000000E+00;  1.0000000E+04;  0.0000000E+00;  1.0000000E+04;  0.0000000E+00;  0.0000000E+00;  0.0000000E+00;  0.0000000E+00;
  2.0400000E+00;  9.9999998E-03;  2.5999999E-01;691;  0.0000000E+00;  0.0000000E+00;  0.0000000E+00;  1.0000000E+03;  4.0000001E-01;  0.0000000E+00;0;  0.0000000E+00;  0.0000000E+00;  0.0000000E+00;0;  0.0000000E+00;  1.0000000E+04;  0.0000000E+00;  0.0000000E+00;  1.0000000E+04;  0.0000000E+00;  1.0000000E+04;  0.0000000E+00;  0.0000000E+00;  0.0000000E+00;  0.0000000E+00;
  2.0400000E+00;  9.9999998E-03;  2.8000000E-01;692;  0.0000000E+00;  0.0000000E+00;  0.0000000E+00;  1.0000000E+03;  4.0000001E-01;  0.0000000E+00;0;  0.0000000E+00;  0.0000000E+00;  0.0000000E+00;0;  0.0000000E+00;  1.0000000E+04;  0.0000000E+00;  0.0000000E+00;  1.0000000E+04;  0.0000000E+00;  1.0000000E+04;  0.0000000E+00;  0.0000000E+00;  0.0000000E+00;  0.0000000E+00;
  2.0599999E+00;  9.9999998E-03; -4.0000001E-01;693;  0.0000000E+00;  0.0000000E+00;  0.0000000E+00;  1.0000000E+03;  4.0000001E-01;  0.0000000E+00;0;  0.0000000E+00;  0.0000000E+00;  0.0000000E+00;0;  0.0000000E+00;  1.0000000E+04;  0.0000000E+00;  0.0000000E+00;  1.0000000E+04;  0.0000000E+00;  1.0000000E+04;  0.0000000E+00;  0.0000000E+00;  0.0000000E+00;  0.0000000E+00;
  2.0599999E+00;  9.9999998E-03; -3.8000000E-01;694;  0.0000000E+00;  0.0000000E+00;  0.0000000E+00;  1.0000000E+03;  4.0000001E-01;  0.0000000E+00;0;  0.0000000E+00;  0.0000000E+00;  0.0000000E+00;0;  0.0000000E+00;  1.0000000E+04;  0.0000000E+00;  0.0000000E+00;  1.0000000E+04;  0.0000000E+00;  1.0000000E+04;  0.0000000E+00;  0.0000000E+00;  0.0000000E+00;  0.0000000E+00;
  2.0599999E+00;  9.9999998E-03; -3.6000001E-01;695;  0.0000000E+00;  0.0000000E+00;  0.0000000E+00;  1.0000000E+03;  4.0000001E-01;  0.0000000E+00;0;  0.0000000E+00;  0.0000000E+00;  0.0000000E+00;0;  0.0000000E+00;  1.0000000E+04;  0.0000000E+00;  0.0000000E+00;  1.0000000E+04;  0.0000000E+00;  1.0000000E+04;  0.0000000E+00;  0.0000000E+00;  0.0000000E+00;  0.0000000E+00;
  2.0599999E+00;  9.9999998E-03; -3.4000000E-01;696;  0.0000000E+00;  0.0000000E+00;  0.0000000E+00;  1.0000000E+03;  4.0000001E-01;  0.0000000E+00;0;  0.0000000E+00;  0.0000000E+00;  0.0000000E+00;0;  0.0000000E+00;  1.0000000E+04;  0.0000000E+00;  0.0000000E+00;  1.0000000E+04;  0.0000000E+00;  1.0000000E+04;  0.0000000E+00;  0.0000000E+00;  0.0000000E+00;  0.0000000E+00;
  2.0599999E+00;  9.9999998E-03; -3.1999999E-01;697;  0.0000000E+00;  0.0000000E+00;  0.0000000E+00;  1.0000000E+03;  4.0000001E-01;  0.0000000E+00;0;  0.0000000E+00;  0.0000000E+00;  0.0000000E+00;0;  0.0000000E+00;  1.0000000E+04;  0.0000000E+00;  0.0000000E+00;  1.0000000E+04;  0.0000000E+00;  1.0000000E+04;  0.0000000E+00;  0.0000000E+00;  0.0000000E+00;  0.0000000E+00;
  2.0599999E+00;  9.9999998E-03; -3.0000001E-01;698;  0.0000000E+00;  0.0000000E+00;  0.0000000E+00;  1.0000000E+03;  4.0000001E-01;  0.0000000E+00;0;  0.0000000E+00;  0.0000000E+00;  0.0000000E+00;0;  0.0000000E+00;  1.0000000E+04;  0.0000000E+00;  0.0000000E+00;  1.0000000E+04;  0.0000000E+00;  1.0000000E+04;  0.0000000E+00;  0.0000000E+00;  0.0000000E+00;  0.0000000E+00;
  2.0599999E+00;  9.9999998E-03; -2.8000000E-01;699;  0.0000000E+00;  0.0000000E+00;  0.0000000E+00;  1.0000000E+03;  4.0000001E-01;  0.0000000E+00;0;  0.0000000E+00;  0.0000000E+00;  0.0000000E+00;0;  0.0000000E+00;  1.0000000E+04;  0.0000000E+00;  0.0000000E+00;  1.0000000E+04;  0.0000000E+00;  1.0000000E+04;  0.0000000E+00;  0.0000000E+00;  0.0000000E+00;  0.0000000E+00;
  2.0599999E+00;  9.9999998E-03; -2.5999999E-01;700;  0.0000000E+00;  0.0000000E+00;  0.0000000E+00;  1.0000000E+03;  4.0000001E-01;  0.0000000E+00;0;  0.0000000E+00;  0.0000000E+00;  0.0000000E+00;0;  0.0000000E+00;  1.0000000E+04;  0.0000000E+00;  0.0000000E+00;  1.0000000E+04;  0.0000000E+00;  1.0000000E+04;  0.0000000E+00;  0.0000000E+00;  0.0000000E+00;  0.0000000E+00;
  2.0599999E+00;  9.9999998E-03; -2.3999999E-01;701;  0.0000000E+00;  0.0000000E+00;  0.0000000E+00;  1.0000000E+03;  4.0000001E-01;  0.0000000E+00;0;  0.0000000E+00;  0.0000000E+00;  0.0000000E+00;0;  0.0000000E+00;  1.0000000E+04;  0.0000000E+00;  0.0000000E+00;  1.0000000E+04;  0.0000000E+00;  1.0000000E+04;  0.0000000E+00;  0.0000000E+00;  0.0000000E+00;  0.0000000E+00;
  2.0599999E+00;  9.9999998E-03; -2.2000000E-01;702;  0.0000000E+00;  0.0000000E+00;  0.0000000E+00;  1.0000000E+03;  4.0000001E-01;  0.0000000E+00;0;  0.0000000E+00;  0.0000000E+00;  0.0000000E+00;0;  0.0000000E+00;  1.0000000E+04;  0.0000000E+00;  0.0000000E+00;  1.0000000E+04;  0.0000000E+00;  1.0000000E+04;  0.0000000E+00;  0.0000000E+00;  0.0000000E+00;  0.0000000E+00;
  2.0599999E+00;  9.9999998E-03; -2.0000000E-01;703;  0.0000000E+00;  0.0000000E+00;  0.0000000E+00;  1.0000000E+03;  4.0000001E-01;  0.0000000E+00;0;  0.0000000E+00;  0.0000000E+00;  0.0000000E+00;0;  0.0000000E+00;  1.0000000E+04;  0.0000000E+00;  0.0000000E+00;  1.0000000E+04;  0.0000000E+00;  1.0000000E+04;  0.0000000E+00;  0.0000000E+00;  0.0000000E+00;  0.0000000E+00;
  2.0599999E+00;  9.9999998E-03; -1.8000001E-01;704;  0.0000000E+00;  0.0000000E+00;  0.0000000E+00;  1.0000000E+03;  4.0000001E-01;  0.0000000E+00;0;  0.0000000E+00;  0.0000000E+00;  0.0000000E+00;0;  0.0000000E+00;  1.0000000E+04;  0.0000000E+00;  0.0000000E+00;  1.0000000E+04;  0.0000000E+00;  1.0000000E+04;  0.0000000E+00;  0.0000000E+00;  0.0000000E+00;  0.0000000E+00;
  2.0599999E+00;  9.9999998E-03; -1.6000000E-01;705;  0.0000000E+00;  0.0000000E+00;  0.0000000E+00;  1.0000000E+03;  4.0000001E-01;  0.0000000E+00;0;  0.0000000E+00;  0.0000000E+00;  0.0000000E+00;0;  0.0000000E+00;  1.0000000E+04;  0.0000000E+00;  0.0000000E+00;  1.0000000E+04;  0.0000000E+00;  1.0000000E+04;  0.0000000E+00;  0.0000000E+00;  0.0000000E+00;  0.0000000E+00;
  2.0599999E+00;  9.9999998E-03; -1.4000000E-01;706;  0.0000000E+00;  0.0000000E+00;  0.0000000E+00;  1.0000000E+03;  4.0000001E-01;  0.0000000E+00;0;  0.0000000E+00;  0.0000000E+00;  0.0000000E+00;0;  0.0000000E+00;  1.0000000E+04;  0.0000000E+00;  0.0000000E+00;  1.0000000E+04;  0.0000000E+00;  1.0000000E+04;  0.0000000E+00;  0.0000000E+00;  0.0000000E+00;  0.0000000E+00;
  2.0599999E+00;  9.9999998E-03; -1.2000000E-01;707;  0.0000000E+00;  0.0000000E+00;  0.0000000E+00;  1.0000000E+03;  4.0000001E-01;  0.0000000E+00;0;  0.0000000E+00;  0.0000000E+00;  0.0000000E+00;0;  0.0000000E+00;  1.0000000E+04;  0.0000000E+00;  0.0000000E+00;  1.0000000E+04;  0.0000000E+00;  1.0000000E+04;  0.0000000E+00;  0.0000000E+00;  0.0000000E+00;  0.0000000E+00;
  2.0599999E+00;  9.9999998E-03; -1.0000000E-01;708;  0.0000000E+00;  0.0000000E+00;  0.0000000E+00;  1.0000000E+03;  4.0000001E-01;  0.0000000E+00;0;  0.0000000E+00;  0.0000000E+00;  0.0000000E+00;0;  0.0000000E+00;  1.0000000E+04;  0.0000000E+00;  0.0000000E+00;  1.0000000E+04;  0.0000000E+00;  1.0000000E+04;  0.0000000E+00;  0.0000000E+00;  0.0000000E+00;  0.0000000E+00;
  2.0599999E+00;  9.9999998E-03; -7.9999998E-02;709;  0.0000000E+00;  0.0000000E+00;  0.0000000E+00;  1.0000000E+03;  4.0000001E-01;  0.0000000E+00;0;  0.0000000E+00;  0.0000000E+00;  0.0000000E+00;0;  0.0000000E+00;  1.0000000E+04;  0.0000000E+00;  0.0000000E+00;  1.0000000E+04;  0.0000000E+00;  1.0000000E+04;  0.0000000E+00;  0.0000000E+00;  0.0000000E+00;  0.0000000E+00;
  2.0599999E+00;  9.9999998E-03; -5.9999999E-02;710;  0.0000000E+00;  0.0000000E+00;  0.0000000E+00;  1.0000000E+03;  4.0000001E-01;  0.0000000E+00;0;  0.0000000E+00;  0.0000000E+00;  0.0000000E+00;0;  0.0000000E+00;  1.0000000E+04;  0.0000000E+00;  0.0000000E+00;  1.0000000E+04;  0.0000000E+00;  1.0000000E+04;  0.0000000E+00;  0.0000000E+00;  0.0000000E+00;  0.0000000E+00;
  2.0599999E+00;  9.9999998E-03; -3.9999999E-02;711;  0.0000000E+00;  0.0000000E+00;  0.0000000E+00;  1.0000000E+03;  4.0000001E-01;  0.0000000E+00;0;  0.0000000E+00;  0.0000000E+00;  0.0000000E+00;0;  0.0000000E+00;  1.0000000E+04;  0.0000000E+00;  0.0000000E+00;  1.0000000E+04;  0.0000000E+00;  1.0000000E+04;  0.0000000E+00;  0.0000000E+00;  0.0000000E+00;  0.0000000E+00;
  2.0599999E+00;  9.9999998E-03; -2.0000000E-02;712;  0.0000000E+00;  0.0000000E+00;  0.0000000E+00;  1.0000000E+03;  4.0000001E-01;  0.0000000E+00;0;  0.0000000E+00;  0.0000000E+00;  0.0000000E+00;0;  0.0000000E+00;  1.0000000E+04;  0.0000000E+00;  0.0000000E+00;  1.0000000E+04;  0.0000000E+00;  1.0000000E+04;  0.0000000E+00;  0.0000000E+00;  0.0000000E+00;  0.0000000E+00;
  2.0599999E+00;  9.9999998E-03;  0.0000000E+00;713;  0.0000000E+00;  0.0000000E+00;  0.0000000E+00;  1.0000000E+03;  4.0000001E-01;  0.0000000E+00;0;  0.0000000E+00;  0.0000000E+00;  0.0000000E+00;0;  0.0000000E+00;  1.0000000E+04;  0.0000000E+00;  0.0000000E+00;  1.0000000E+04;  0.0000000E+00;  1.0000000E+04;  0.0000000E+00;  0.0000000E+00;  0.0000000E+00;  0.0000000E+00;
  2.0599999E+00;  9.9999998E-03;  2.0000000E-02;714;  0.0000000E+00;  0.0000000E+00;  0.0000000E+00;  1.0000000E+03;  4.0000001E-01;  0.0000000E+00;0;  0.0000000E+00;  0.0000000E+00;  0.0000000E+00;0;  0.0000000E+00;  1.0000000E+04;  0.0000000E+00;  0.0000000E+00;  1.0000000E+04;  0.0000000E+00;  1.0000000E+04;  0.0000000E+00;  0.0000000E+00;  0.0000000E+00;  0.0000000E+00;
  2.0599999E+00;  9.9999998E-03;  3.9999999E-02;715;  0.0000000E+00;  0.0000000E+00;  0.0000000E+00;  1.0000000E+03;  4.0000001E-01;  0.0000000E+00;0;  0.0000000E+00;  0.0000000E+00;  0.0000000E+00;0;  0.0000000E+00;  1.0000000E+04;  0.0000000E+00;  0.0000000E+00;  1.0000000E+04;  0.0000000E+00;  1.0000000E+04;  0.0000000E+00;  0.0000000E+00;  0.0000000E+00;  0.0000000E+00;
  2.0599999E+00;  9.9999998E-03;  5.9999999E-02;716;  0.0000000E+00;  0.0000000E+00;  0.0000000E+00;  1.0000000E+03;  4.0000001E-01;  0.0000000E+00;0;  0.0000000E+00;  0.0000000E+00;  0.0000000E+00;0;  0.0000000E+00;  1.0000000E+04;  0.0000000E+00;  0.0000000E+00;  1.0000000E+04;  0.0000000E+00;  1.0000000E+04;  0.0000000E+00;  0.0000000E+00;  0.0000000E+00;  0.0000000E+00;
  2.0599999E+00;  9.9999998E-03;  7.9999998E-02;717;  0.0000000E+00;  0.0000000E+00;  0.0000000E+00;  1.0000000E+03;  4.0000001E-01;  0.0000000E+00;0;  0.0000000E+00;  0.0000000E+00;  0.0000000E+00;0;  0.0000000E+00;  1.0000000E+04;  0.0000000E+00;  0.0000000E+00;  1.0000000E+04;  0.0000000E+00;  1.0000000E+04;  0.0000000E+00;  0.0000000E+00;  0.0000000E+00;  0.0000000E+00;
  2.0599999E+00;  9.9999998E-03;  1.0000000E-01;718;  0.0000000E+00;  0.0000000E+00;  0.0000000E+00;  1.0000000E+03;  4.0000001E-01;  0.0000000E+00;0;  0.0000000E+00;  0.0000000E+00;  0.0000000E+00;0;  0.0000000E+00;  1.0000000E+04;  0.0000000E+00;  0.0000000E+00;  1.0000000E+04;  0.0000000E+00;  1.0000000E+04;  0.0000000E+00;  0.0000000E+00;  0.0000000E+00;  0.0000000E+00;
  2.0599999E+00;  9.9999998E-03;  1.2000000E-01;719;  0.0000000E+00;  0.0000000E+00;  0.0000000E+00;  1.0000000E+03;  4.0000001E-01;  0.0000000E+00;0;  0.0000000E+00;  0.0000000E+00;  0.0000000E+00;0;  0.0000000E+00;  1.0000000E+04;  0.0000000E+00;  0.0000000E+00;  1.0000000E+04;  0.0000000E+00;  1.0000000E+04;  0.0000000E+00;  0.0000000E+00;  0.0000000E+00;  0.0000000E+00;
  2.0599999E+00;  9.9999998E-03;  1.4000000E-01;720;  0.0000000E+00;  0.0000000E+00;  0.0000000E+00;  1.0000000E+03;  4.0000001E-01;  0.0000000E+00;0;  0.0000000E+00;  0.0000000E+00;  0.0000000E+00;0;  0.0000000E+00;  1.0000000E+04;  0.0000000E+00;  0.0000000E+00;  1.0000000E+04;  0.0000000E+00;  1.0000000E+04;  0.0000000E+00;  0.0000000E+00;  0.0000000E+00;  0.0000000E+00;
  2.0599999E+00;  9.9999998E-03;  1.6000000E-01;721;  0.0000000E+00;  0.0000000E+00;  0.0000000E+00;  1.0000000E+03;  4.0000001E-01;  0.0000000E+00;0;  0.0000000E+00;  0.0000000E+00;  0.0000000E+00;0;  0.0000000E+00;  1.0000000E+04;  0.0000000E+00;  0.0000000E+00;  1.0000000E+04;  0.0000000E+00;  1.0000000E+04;  0.0000000E+00;  0.0000000E+00;  0.0000000E+00;  0.0000000E+00;
  2.0599999E+00;  9.9999998E-03;  1.8000001E-01;722;  0.0000000E+00;  0.0000000E+00;  0.0000000E+00;  1.0000000E+03;  4.0000001E-01;  0.0000000E+00;0;  0.0000000E+00;  0.0000000E+00;  0.0000000E+00;0;  0.0000000E+00;  1.0000000E+04;  0.0000000E+00;  0.0000000E+00;  1.0000000E+04;  0.0000000E+00;  1.0000000E+04;  0.0000000E+00;  0.0000000E+00;  0.0000000E+00;  0.0000000E+00;
  2.0599999E+00;  9.9999998E-03;  2.0000000E-01;723;  0.0000000E+00;  0.0000000E+00;  0.0000000E+00;  1.0000000E+03;  4.0000001E-01;  0.0000000E+00;0;  0.0000000E+00;  0.0000000E+00;  0.0000000E+00;0;  0.0000000E+00;  1.0000000E+04;  0.0000000E+00;  0.0000000E+00;  1.0000000E+04;  0.0000000E+00;  1.0000000E+04;  0.0000000E+00;  0.0000000E+00;  0.0000000E+00;  0.0000000E+00;
  2.0599999E+00;  9.9999998E-03;  2.2000000E-01;724;  0.0000000E+00;  0.0000000E+00;  0.0000000E+00;  1.0000000E+03;  4.0000001E-01;  0.0000000E+00;0;  0.0000000E+00;  0.0000000E+00;  0.0000000E+00;0;  0.0000000E+00;  1.0000000E+04;  0.0000000E+00;  0.0000000E+00;  1.0000000E+04;  0.0000000E+00;  1.0000000E+04;  0.0000000E+00;  0.0000000E+00;  0.0000000E+00;  0.0000000E+00;
  2.0599999E+00;  9.9999998E-03;  2.3999999E-01;725;  0.0000000E+00;  0.0000000E+00;  0.0000000E+00;  1.0000000E+03;  4.0000001E-01;  0.0000000E+00;0;  0.0000000E+00;  0.0000000E+00;  0.0000000E+00;0;  0.0000000E+00;  1.0000000E+04;  0.0000000E+00;  0.0000000E+00;  1.0000000E+04;  0.0000000E+00;  1.0000000E+04;  0.0000000E+00;  0.0000000E+00;  0.0000000E+00;  0.0000000E+00;
  2.0599999E+00;  9.9999998E-03;  2.5999999E-01;726;  0.0000000E+00;  0.0000000E+00;  0.0000000E+00;  1.0000000E+03;  4.0000001E-01;  0.0000000E+00;0;  0.0000000E+00;  0.0000000E+00;  0.0000000E+00;0;  0.0000000E+00;  1.0000000E+04;  0.0000000E+00;  0.0000000E+00;  1.0000000E+04;  0.0000000E+00;  1.0000000E+04;  0.0000000E+00;  0.0000000E+00;  0.0000000E+00;  0.0000000E+00;
  2.0599999E+00;  9.9999998E-03;  2.8000000E-01;727;  0.0000000E+00;  0.0000000E+00;  0.0000000E+00;  1.0000000E+03;  4.0000001E-01;  0.0000000E+00;0;  0.0000000E+00;  0.0000000E+00;  0.0000000E+00;0;  0.0000000E+00;  1.0000000E+04;  0.0000000E+00;  0.0000000E+00;  1.0000000E+04;  0.0000000E+00;  1.0000000E+04;  0.0000000E+00;  0.0000000E+00;  0.0000000E+00;  0.0000000E+00;
  2.0599999E+00;  9.9999998E-03;  3.0000001E-01;728;  0.0000000E+00;  0.0000000E+00;  0.0000000E+00;  1.0000000E+03;  4.0000001E-01;  0.0000000E+00;0;  0.0000000E+00;  0.0000000E+00;  0.0000000E+00;0;  0.0000000E+00;  1.0000000E+04;  0.0000000E+00;  0.0000000E+00;  1.0000000E+04;  0.0000000E+00;  1.0000000E+04;  0.0000000E+00;  0.0000000E+00;  0.0000000E+00;  0.0000000E+00;
  2.0599999E+00;  9.9999998E-03;  3.1999999E-01;729;  0.0000000E+00;  0.0000000E+00;  0.0000000E+00;  1.0000000E+03;  4.0000001E-01;  0.0000000E+00;0;  0.0000000E+00;  0.0000000E+00;  0.0000000E+00;0;  0.0000000E+00;  1.0000000E+04;  0.0000000E+00;  0.0000000E+00;  1.0000000E+04;  0.0000000E+00;  1.0000000E+04;  0.0000000E+00;  0.0000000E+00;  0.0000000E+00;  0.0000000E+00;
  2.0599999E+00;  9.9999998E-03;  3.4000000E-01;730;  0.0000000E+00;  0.0000000E+00;  0.0000000E+00;  1.0000000E+03;  4.0000001E-01;  0.0000000E+00;0;  0.0000000E+00;  0.0000000E+00;  0.0000000E+00;0;  0.0000000E+00;  1.0000000E+04;  0.0000000E+00;  0.0000000E+00;  1.0000000E+04;  0.0000000E+00;  1.0000000E+04;  0.0000000E+00;  0.0000000E+00;  0.0000000E+00;  0.0000000E+00;
  2.0599999E+00;  9.9999998E-03;  3.6000001E-01;731;  0.0000000E+00;  0.0000000E+00;  0.0000000E+00;  1.0000000E+03;  4.0000001E-01;  0.0000000E+00;0;  0.0000000E+00;  0.0000000E+00;  0.0000000E+00;0;  0.0000000E+00;  1.0000000E+04;  0.0000000E+00;  0.0000000E+00;  1.0000000E+04;  0.0000000E+00;  1.0000000E+04;  0.0000000E+00;  0.0000000E+00;  0.0000000E+00;  0.0000000E+00;
  2.0599999E+00;  9.9999998E-03;  3.8000000E-01;732;  0.0000000E+00;  0.0000000E+00;  0.0000000E+00;  1.0000000E+03;  4.0000001E-01;  0.0000000E+00;0;  0.0000000E+00;  0.0000000E+00;  0.0000000E+00;0;  0.0000000E+00;  1.0000000E+04;  0.0000000E+00;  0.0000000E+00;  1.0000000E+04;  0.0000000E+00;  1.0000000E+04;  0.0000000E+00;  0.0000000E+00;  0.0000000E+00;  0.0000000E+00;
  2.0799999E+00;  9.9999998E-03; -4.0000001E-01;733;  0.0000000E+00;  0.0000000E+00;  0.0000000E+00;  1.0000000E+03;  4.0000001E-01;  0.0000000E+00;0;  0.0000000E+00;  0.0000000E+00;  0.0000000E+00;0;  0.0000000E+00;  1.0000000E+04;  0.0000000E+00;  0.0000000E+00;  1.0000000E+04;  0.0000000E+00;  1.0000000E+04;  0.0000000E+00;  0.0000000E+00;  0.0000000E+00;  0.0000000E+00;
  2.0799999E+00;  9.9999998E-03; -3.8000000E-01;734;  0.0000000E+00;  0.0000000E+00;  0.0000000E+00;  1.0000000E+03;  4.0000001E-01;  0.0000000E+00;0;  0.0000000E+00;  0.0000000E+00;  0.0000000E+00;0;  0.0000000E+00;  1.0000000E+04;  0.0000000E+00;  0.0000000E+00;  1.0000000E+04;  0.0000000E+00;  1.0000000E+04;  0.0000000E+00;  0.0000000E+00;  0.0000000E+00;  0.0000000E+00;
  2.0799999E+00;  9.9999998E-03; -3.6000001E-01;735;  0.0000000E+00;  0.0000000E+00;  0.0000000E+00;  1.0000000E+03;  4.0000001E-01;  0.0000000E+00;0;  0.0000000E+00;  0.0000000E+00;  0.0000000E+00;0;  0.0000000E+00;  1.0000000E+04;  0.0000000E+00;  0.0000000E+00;  1.0000000E+04;  0.0000000E+00;  1.0000000E+04;  0.0000000E+00;  0.0000000E+00;  0.0000000E+00;  0.0000000E+00;
  2.0799999E+00;  9.9999998E-03; -3.4000000E-01;736;  0.0000000E+00;  0.0000000E+00;  0.0000000E+00;  1.0000000E+03;  4.0000001E-01;  0.0000000E+00;0;  0.0000000E+00;  0.0000000E+00;  0.0000000E+00;0;  0.0000000E+00;  1.0000000E+04;  0.0000000E+00;  0.0000000E+00;  1.0000000E+04;  0.0000000E+00;  1.0000000E+04;  0.0000000E+00;  0.0000000E+00;  0.0000000E+00;  0.0000000E+00;
  2.0799999E+00;  9.9999998E-03; -3.1999999E-01;737;  0.0000000E+00;  0.0000000E+00;  0.0000000E+00;  1.0000000E+03;  4.0000001E-01;  0.0000000E+00;0;  0.0000000E+00;  0.0000000E+00;  0.0000000E+00;0;  0.0000000E+00;  1.0000000E+04;  0.0000000E+00;  0.0000000E+00;  1.0000000E+04;  0.0000000E+00;  1.0000000E+04;  0.0000000E+00;  0.0000000E+00;  0.0000000E+00;  0.0000000E+00;
  2.0799999E+00;  9.9999998E-03; -3.0000001E-01;738;  0.0000000E+00;  0.0000000E+00;  0.0000000E+00;  1.0000000E+03;  4.0000001E-01;  0.0000000E+00;0;  0.0000000E+00;  0.0000000E+00;  0.0000000E+00;0;  0.0000000E+00;  1.0000000E+04;  0.0000000E+00;  0.0000000E+00;  1.0000000E+04;  0.0000000E+00;  1.0000000E+04;  0.0000000E+00;  0.0000000E+00;  0.0000000E+00;  0.0000000E+00;
  2.0799999E+00;  9.9999998E-03; -2.8000000E-01;739;  0.0000000E+00;  0.0000000E+00;  0.0000000E+00;  1.0000000E+03;  4.0000001E-01;  0.0000000E+00;0;  0.0000000E+00;  0.0000000E+00;  0.0000000E+00;0;  0.0000000E+00;  1.0000000E+04;  0.0000000E+00;  0.0000000E+00;  1.0000000E+04;  0.0000000E+00;  1.0000000E+04;  0.0000000E+00;  0.0000000E+00;  0.0000000E+00;  0.0000000E+00;
  2.0799999E+00;  9.9999998E-03; -2.5999999E-01;740;  0.0000000E+00;  0.0000000E+00;  0.0000000E+00;  1.0000000E+03;  4.0000001E-01;  0.0000000E+00;0;  0.0000000E+00;  0.0000000E+00;  0.0000000E+00;0;  0.0000000E+00;  1.0000000E+04;  0.0000000E+00;  0.0000000E+00;  1.0000000E+04;  0.0000000E+00;  1.0000000E+04;  0.0000000E+00;  0.0000000E+00;  0.0000000E+00;  0.0000000E+00;
  2.0799999E+00;  9.9999998E-03; -2.3999999E-01;741;  0.0000000E+00;  0.0000000E+00;  0.0000000E+00;  1.0000000E+03;  4.0000001E-01;  0.0000000E+00;0;  0.0000000E+00;  0.0000000E+00;  0.0000000E+00;0;  0.0000000E+00;  1.0000000E+04;  0.0000000E+00;  0.0000000E+00;  1.0000000E+04;  0.0000000E+00;  1.0000000E+04;  0.0000000E+00;  0.0000000E+00;  0.0000000E+00;  0.0000000E+00;
  2.0799999E+00;  9.9999998E-03; -2.2000000E-01;742;  0.0000000E+00;  0.0000000E+00;  0.0000000E+00;  1.0000000E+03;  4.0000001E-01;  0.0000000E+00;0;  0.0000000E+00;  0.0000000E+00;  0.0000000E+00;0;  0.0000000E+00;  1.0000000E+04;  0.0000000E+00;  0.0000000E+00;  1.0000000E+04;  0.0000000E+00;  1.0000000E+04;  0.0000000E+00;  0.0000000E+00;  0.0000000E+00;  0.0000000E+00;
  2.0799999E+00;  9.9999998E-03; -2.0000000E-01;743;  0.0000000E+00;  0.0000000E+00;  0.0000000E+00;  1.0000000E+03;  4.0000001E-01;  0.0000000E+00;0;  0.0000000E+00;  0.0000000E+00;  0.0000000E+00;0;  0.0000000E+00;  1.0000000E+04;  0.0000000E+00;  0.0000000E+00;  1.0000000E+04;  0.0000000E+00;  1.0000000E+04;  0.0000000E+00;  0.0000000E+00;  0.0000000E+00;  0.0000000E+00;
  2.0799999E+00;  9.9999998E-03; -1.8000001E-01;744;  0.0000000E+00;  0.0000000E+00;  0.0000000E+00;  1.0000000E+03;  4.0000001E-01;  0.0000000E+00;0;  0.0000000E+00;  0.0000000E+00;  0.0000000E+00;0;  0.0000000E+00;  1.0000000E+04;  0.0000000E+00;  0.0000000E+00;  1.0000000E+04;  0.0000000E+00;  1.0000000E+04;  0.0000000E+00;  0.0000000E+00;  0.0000000E+00;  0.0000000E+00;
  2.0799999E+00;  9.9999998E-03; -1.6000000E-01;745;  0.0000000E+00;  0.0000000E+00;  0.0000000E+00;  1.0000000E+03;  4.0000001E-01;  0.0000000E+00;0;  0.0000000E+00;  0.0000000E+00;  0.0000000E+00;0;  0.0000000E+00;  1.0000000E+04;  0.0000000E+00;  0.0000000E+00;  1.0000000E+04;  0.0000000E+00;  1.0000000E+04;  0.0000000E+00;  0.0000000E+00;  0.0000000E+00;  0.0000000E+00;
  2.0799999E+00;  9.9999998E-03; -1.4000000E-01;746;  0.0000000E+00;  0.0000000E+00;  0.0000000E+00;  1.0000000E+03;  4.0000001E-01;  0.0000000E+00;0;  0.0000000E+00;  0.0000000E+00;  0.0000000E+00;0;  0.0000000E+00;  1.0000000E+04;  0.0000000E+00;  0.0000000E+00;  1.0000000E+04;  0.0000000E+00;  1.0000000E+04;  0.0000000E+00;  0.0000000E+00;  0.0000000E+00;  0.0000000E+00;
  2.0799999E+00;  9.9999998E-03; -1.2000000E-01;747;  0.0000000E+00;  0.0000000E+00;  0.0000000E+00;  1.0000000E+03;  4.0000001E-01;  0.0000000E+00;0;  0.0000000E+00;  0.0000000E+00;  0.0000000E+00;0;  0.0000000E+00;  1.0000000E+04;  0.0000000E+00;  0.0000000E+00;  1.0000000E+04;  0.0000000E+00;  1.0000000E+04;  0.0000000E+00;  0.0000000E+00;  0.0000000E+00;  0.0000000E+00;
  2.0799999E+00;  9.9999998E-03; -1.0000000E-01;748;  0.0000000E+00;  0.0000000E+00;  0.0000000E+00;  1.0000000E+03;  4.0000001E-01;  0.0000000E+00;0;  0.0000000E+00;  0.0000000E+00;  0.0000000E+00;0;  0.0000000E+00;  1.0000000E+04;  0.0000000E+00;  0.0000000E+00;  1.0000000E+04;  0.0000000E+00;  1.0000000E+04;  0.0000000E+00;  0.0000000E+00;  0.0000000E+00;  0.0000000E+00;
  2.0799999E+00;  9.9999998E-03; -7.9999998E-02;749;  0.0000000E+00;  0.0000000E+00;  0.0000000E+00;  1.0000000E+03;  4.0000001E-01;  0.0000000E+00;0;  0.0000000E+00;  0.0000000E+00;  0.0000000E+00;0;  0.0000000E+00;  1.0000000E+04;  0.0000000E+00;  0.0000000E+00;  1.0000000E+04;  0.0000000E+00;  1.0000000E+04;  0.0000000E+00;  0.0000000E+00;  0.0000000E+00;  0.0000000E+00;
  2.0799999E+00;  9.9999998E-03; -5.9999999E-02;750;  0.0000000E+00;  0.0000000E+00;  0.0000000E+00;  1.0000000E+03;  4.0000001E-01;  0.0000000E+00;0;  0.0000000E+00;  0.0000000E+00;  0.0000000E+00;0;  0.0000000E+00;  1.0000000E+04;  0.0000000E+00;  0.0000000E+00;  1.0000000E+04;  0.0000000E+00;  1.0000000E+04;  0.0000000E+00;  0.0000000E+00;  0.0000000E+00;  0.0000000E+00;
  2.0799999E+00;  9.9999998E-03; -3.9999999E-02;751;  0.0000000E+00;  0.0000000E+00;  0.0000000E+00;  1.0000000E+03;  4.0000001E-01;  0.0000000E+00;0;  0.0000000E+00;  0.0000000E+00;  0.0000000E+00;0;  0.0000000E+00;  1.0000000E+04;  0.0000000E+00;  0.0000000E+00;  1.0000000E+04;  0.0000000E+00;  1.0000000E+04;  0.0000000E+00;  0.0000000E+00;  0.0000000E+00;  0.0000000E+00;
  2.0799999E+00;  9.9999998E-03; -2.0000000E-02;752;  0.0000000E+00;  0.0000000E+00;  0.0000000E+00;  1.0000000E+03;  4.0000001E-01;  0.0000000E+00;0;  0.0000000E+00;  0.0000000E+00;  0.0000000E+00;0;  0.0000000E+00;  1.0000000E+04;  0.0000000E+00;  0.0000000E+00;  1.0000000E+04;  0.0000000E+00;  1.0000000E+04;  0.0000000E+00;  0.0000000E+00;  0.0000000E+00;  0.0000000E+00;
  2.0799999E+00;  9.9999998E-03;  0.0000000E+00;753;  0.0000000E+00;  0.0000000E+00;  0.0000000E+00;  1.0000000E+03;  4.0000001E-01;  0.0000000E+00;0;  0.0000000E+00;  0.0000000E+00;  0.0000000E+00;0;  0.0000000E+00;  1.0000000E+04;  0.0000000E+00;  0.0000000E+00;  1.0000000E+04;  0.0000000E+00;  1.0000000E+04;  0.0000000E+00;  0.0000000E+00;  0.0000000E+00;  0.0000000E+00;
  2.0799999E+00;  9.9999998E-03;  2.0000000E-02;754;  0.0000000E+00;  0.0000000E+00;  0.0000000E+00;  1.0000000E+03;  4.0000001E-01;  0.0000000E+00;0;  0.0000000E+00;  0.0000000E+00;  0.0000000E+00;0;  0.0000000E+00;  1.0000000E+04;  0.0000000E+00;  0.0000000E+00;  1.0000000E+04;  0.0000000E+00;  1.0000000E+04;  0.0000000E+00;  0.0000000E+00;  0.0000000E+00;  0.0000000E+00;
  2.0799999E+00;  9.9999998E-03;  3.9999999E-02;755;  0.0000000E+00;  0.0000000E+00;  0.0000000E+00;  1.0000000E+03;  4.0000001E-01;  0.0000000E+00;0;  0.0000000E+00;  0.0000000E+00;  0.0000000E+00;0;  0.0000000E+00;  1.0000000E+04;  0.0000000E+00;  0.0000000E+00;  1.0000000E+04;  0.0000000E+00;  1.0000000E+04;  0.0000000E+00;  0.0000000E+00;  0.0000000E+00;  0.0000000E+00;
  2.0799999E+00;  9.9999998E-03;  5.9999999E-02;756;  0.0000000E+00;  0.0000000E+00;  0.0000000E+00;  1.0000000E+03;  4.0000001E-01;  0.0000000E+00;0;  0.0000000E+00;  0.0000000E+00;  0.0000000E+00;0;  0.0000000E+00;  1.0000000E+04;  0.0000000E+00;  0.0000000E+00;  1.0000000E+04;  0.0000000E+00;  1.0000000E+04;  0.0000000E+00;  0.0000000E+00;  0.0000000E+00;  0.0000000E+00;
  2.0799999E+00;  9.9999998E-03;  7.9999998E-02;757;  0.0000000E+00;  0.0000000E+00;  0.0000000E+00;  1.0000000E+03;  4.0000001E-01;  0.0000000E+00;0;  0.0000000E+00;  0.0000000E+00;  0.0000000E+00;0;  0.0000000E+00;  1.0000000E+04;  0.0000000E+00;  0.0000000E+00;  1.0000000E+04;  0.0000000E+00;  1.0000000E+04;  0.0000000E+00;  0.0000000E+00;  0.0000000E+00;  0.0000000E+00;
  2.0799999E+00;  9.9999998E-03;  1.0000000E-01;758;  0.0000000E+00;  0.0000000E+00;  0.0000000E+00;  1.0000000E+03;  4.0000001E-01;  0.0000000E+00;0;  0.0000000E+00;  0.0000000E+00;  0.0000000E+00;0;  0.0000000E+00;  1.0000000E+04;  0.0000000E+00;  0.0000000E+00;  1.0000000E+04;  0.0000000E+00;  1.0000000E+04;  0.0000000E+00;  0.0000000E+00;  0.0000000E+00;  0.0000000E+00;
  2.0799999E+00;  9.9999998E-03;  1.2000000E-01;759;  0.0000000E+00;  0.0000000E+00;  0.0000000E+00;  1.0000000E+03;  4.0000001E-01;  0.0000000E+00;0;  0.0000000E+00;  0.0000000E+00;  0.0000000E+00;0;  0.0000000E+00;  1.0000000E+04;  0.0000000E+00;  0.0000000E+00;  1.0000000E+04;  0.0000000E+00;  1.0000000E+04;  0.0000000E+00;  0.0000000E+00;  0.0000000E+00;  0.0000000E+00;
  2.0799999E+00;  9.9999998E-03;  1.4000000E-01;760;  0.0000000E+00;  0.0000000E+00;  0.0000000E+00;  1.0000000E+03;  4.0000001E-01;  0.0000000E+00;0;  0.0000000E+00;  0.0000000E+00;  0.0000000E+00;0;  0.0000000E+00;  1.0000000E+04;  0.0000000E+00;  0.0000000E+00;  1.0000000E+04;  0.0000000E+00;  1.0000000E+04;  0.0000000E+00;  0.0000000E+00;  0.0000000E+00;  0.0000000E+00;
  2.0799999E+00;  9.9999998E-03;  1.6000000E-01;761;  0.0000000E+00;  0.0000000E+00;  0.0000000E+00;  1.0000000E+03;  4.0000001E-01;  0.0000000E+00;0;  0.0000000E+00;  0.0000000E+00;  0.0000000E+00;0;  0.0000000E+00;  1.0000000E+04;  0.0000000E+00;  0.0000000E+00;  1.0000000E+04;  0.0000000E+00;  1.0000000E+04;  0.0000000E+00;  0.0000000E+00;  0.0000000E+00;  0.0000000E+00;
  2.0799999E+00;  9.9999998E-03;  1.8000001E-01;762;  0.0000000E+00;  0.0000000E+00;  0.0000000E+00;  1.0000000E+03;  4.0000001E-01;  0.0000000E+00;0;  0.0000000E+00;  0.0000000E+00;  0.0000000E+00;0;  0.0000000E+00;  1.0000000E+04;  0.0000000E+00;  0.0000000E+00;  1.0000000E+04;  0.0000000E+00;  1.0000000E+04;  0.0000000E+00;  0.0000000E+00;  0.0000000E+00;  0.0000000E+00;
  2.0799999E+00;  9.9999998E-03;  2.0000000E-01;763;  0.0000000E+00;  0.0000000E+00;  0.0000000E+00;  1.0000000E+03;  4.0000001E-01;  0.0000000E+00;0;  0.0000000E+00;  0.0000000E+00;  0.0000000E+00;0;  0.0000000E+00;  1.0000000E+04;  0.0000000E+00;  0.0000000E+00;  1.0000000E+04;  0.0000000E+00;  1.0000000E+04;  0.0000000E+00;  0.0000000E+00;  0.0000000E+00;  0.0000000E+00;
  2.0799999E+00;  9.9999998E-03;  2.2000000E-01;764;  0.0000000E+00;  0.0000000E+00;  0.0000000E+00;  1.0000000E+03;  4.0000001E-01;  0.0000000E+00;0;  0.0000000E+00;  0.0000000E+00;  0.0000000E+00;0;  0.0000000E+00;  1.0000000E+04;  0.0000000E+00;  0.0000000E+00;  1.0000000E+04;  0.0000000E+00;  1.0000000E+04;  0.0000000E+00;  0.0000000E+00;  0.0000000E+00;  0.0000000E+00;
  2.0799999E+00;  9.9999998E-03;  2.3999999E-01;765;  0.0000000E+00;  0.0000000E+00;  0.0000000E+00;  1.0000000E+03;  4.0000001E-01;  0.0000000E+00;0;  0.0000000E+00;  0.0000000E+00;  0.0000000E+00;0;  0.0000000E+00;  1.0000000E+04;  0.0000000E+00;  0.0000000E+00;  1.0000000E+04;  0.0000000E+00;  1.0000000E+04;  0.0000000E+00;  0.0000000E+00;  0.0000000E+00;  0.0000000E+00;
  2.0799999E+00;  9.9999998E-03;  2.5999999E-01;766;  0.0000000E+00;  0.0000000E+00;  0.0000000E+00;  1.0000000E+03;  4.0000001E-01;  0.0000000E+00;0;  0.0000000E+00;  0.0000000E+00;  0.0000000E+00;0;  0.0000000E+00;  1.0000000E+04;  0.0000000E+00;  0.0000000E+00;  1.0000000E+04;  0.0000000E+00;  1.0000000E+04;  0.0000000E+00;  0.0000000E+00;  0.0000000E+00;  0.0000000E+00;
  2.0799999E+00;  9.9999998E-03;  2.8000000E-01;767;  0.0000000E+00;  0.0000000E+00;  0.0000000E+00;  1.0000000E+03;  4.0000001E-01;  0.0000000E+00;0;  0.0000000E+00;  0.0000000E+00;  0.0000000E+00;0;  0.0000000E+00;  1.0000000E+04;  0.0000000E+00;  0.0000000E+00;  1.0000000E+04;  0.0000000E+00;  1.0000000E+04;  0.0000000E+00;  0.0000000E+00;  0.0000000E+00;  0.0000000E+00;
  2.0799999E+00;  9.9999998E-03;  3.0000001E-01;768;  0.0000000E+00;  0.0000000E+00;  0.0000000E+00;  1.0000000E+03;  4.0000001E-01;  0.0000000E+00;0;  0.0000000E+00;  0.0000000E+00;  0.0000000E+00;0;  0.0000000E+00;  1.0000000E+04;  0.0000000E+00;  0.0000000E+00;  1.0000000E+04;  0.0000000E+00;  1.0000000E+04;  0.0000000E+00;  0.0000000E+00;  0.0000000E+00;  0.0000000E+00;
  2.0799999E+00;  9.9999998E-03;  3.1999999E-01;769;  0.0000000E+00;  0.0000000E+00;  0.0000000E+00;  1.0000000E+03;  4.0000001E-01;  0.0000000E+00;0;  0.0000000E+00;  0.0000000E+00;  0.0000000E+00;0;  0.0000000E+00;  1.0000000E+04;  0.0000000E+00;  0.0000000E+00;  1.0000000E+04;  0.0000000E+00;  1.0000000E+04;  0.0000000E+00;  0.0000000E+00;  0.0000000E+00;  0.0000000E+00;
  2.0799999E+00;  9.9999998E-03;  3.4000000E-01;770;  0.0000000E+00;  0.0000000E+00;  0.0000000E+00;  1.0000000E+03;  4.0000001E-01;  0.0000000E+00;0;  0.0000000E+00;  0.0000000E+00;  0.0000000E+00;0;  0.0000000E+00;  1.0000000E+04;  0.0000000E+00;  0.0000000E+00;  1.0000000E+04;  0.0000000E+00;  1.0000000E+04;  0.0000000E+00;  0.0000000E+00;  0.0000000E+00;  0.0000000E+00;
  2.0799999E+00;  9.9999998E-03;  3.6000001E-01;771;  0.0000000E+00;  0.0000000E+00;  0.0000000E+00;  1.0000000E+03;  4.0000001E-01;  0.0000000E+00;0;  0.0000000E+00;  0.0000000E+00;  0.0000000E+00;0;  0.0000000E+00;  1.0000000E+04;  0.0000000E+00;  0.0000000E+00;  1.0000000E+04;  0.0000000E+00;  1.0000000E+04;  0.0000000E+00;  0.0000000E+00;  0.0000000E+00;  0.0000000E+00;
  2.0799999E+00;  9.9999998E-03;  3.8000000E-01;772;  0.0000000E+00;  0.0000000E+00;  0.0000000E+00;  1.0000000E+03;  4.0000001E-01;  0.0000000E+00;0;  0.0000000E+00;  0.0000000E+00;  0.0000000E+00;0;  0.0000000E+00;  1.0000000E+04;  0.0000000E+00;  0.0000000E+00;  1.0000000E+04;  0.0000000E+00;  1.0000000E+04;  0.0000000E+00;  0.0000000E+00;  0.0000000E+00;  0.0000000E+00;
  2.0799999E+00;  9.9999998E-03;  4.0000001E-01;773;  0.0000000E+00;  0.0000000E+00;  0.0000000E+00;  1.0000000E+03;  4.0000001E-01;  0.0000000E+00;0;  0.0000000E+00;  0.0000000E+00;  0.0000000E+00;0;  0.0000000E+00;  1.0000000E+04;  0.0000000E+00;  0.0000000E+00;  1.0000000E+04;  0.0000000E+00;  1.0000000E+04;  0.0000000E+00;  0.0000000E+00;  0.0000000E+00;  0.0000000E+00;
  2.0999999E+00;  9.9999998E-03; -4.0000001E-01;774;  0.0000000E+00;  0.0000000E+00;  0.0000000E+00;  1.0000000E+03;  4.0000001E-01;  0.0000000E+00;0;  0.0000000E+00;  0.0000000E+00;  0.0000000E+00;0;  0.0000000E+00;  1.0000000E+04;  0.0000000E+00;  0.0000000E+00;  1.0000000E+04;  0.0000000E+00;  1.0000000E+04;  0.0000000E+00;  0.0000000E+00;  0.0000000E+00;  0.0000000E+00;
  2.0999999E+00;  9.9999998E-03; -3.8000000E-01;775;  0.0000000E+00;  0.0000000E+00;  0.0000000E+00;  1.0000000E+03;  4.0000001E-01;  0.0000000E+00;0;  0.0000000E+00;  0.0000000E+00;  0.0000000E+00;0;  0.0000000E+00;  1.0000000E+04;  0.0000000E+00;  0.0000000E+00;  1.0000000E+04;  0.0000000E+00;  1.0000000E+04;  0.0000000E+00;  0.0000000E+00;  0.0000000E+00;  0.0000000E+00;
  2.0999999E+00;  9.9999998E-03; -3.6000001E-01;776;  0.0000000E+00;  0.0000000E+00;  0.0000000E+00;  1.0000000E+03;  4.0000001E-01;  0.0000000E+00;0;  0.0000000E+00;  0.0000000E+00;  0.0000000E+00;0;  0.0000000E+00;  1.0000000E+04;  0.0000000E+00;  0.0000000E+00;  1.0000000E+04;  0.0000000E+00;  1.0000000E+04;  0.0000000E+00;  0.0000000E+00;  0.0000000E+00;  0.0000000E+00;
  2.0999999E+00;  9.9999998E-03; -3.4000000E-01;777;  0.0000000E+00;  0.0000000E+00;  0.0000000E+00;  1.0000000E+03;  4.0000001E-01;  0.0000000E+00;0;  0.0000000E+00;  0.0000000E+00;  0.0000000E+00;0;  0.0000000E+00;  1.0000000E+04;  0.0000000E+00;  0.0000000E+00;  1.0000000E+04;  0.0000000E+00;  1.0000000E+04;  0.0000000E+00;  0.0000000E+00;  0.0000000E+00;  0.0000000E+00;
  2.0999999E+00;  9.9999998E-03; -3.1999999E-01;778;  0.0000000E+00;  0.0000000E+00;  0.0000000E+00;  1.0000000E+03;  4.0000001E-01;  0.0000000E+00;0;  0.0000000E+00;  0.0000000E+00;  0.0000000E+00;0;  0.0000000E+00;  1.0000000E+04;  0.0000000E+00;  0.0000000E+00;  1.0000000E+04;  0.0000000E+00;  1.0000000E+04;  0.0000000E+00;  0.0000000E+00;  0.0000000E+00;  0.0000000E+00;
  2.0999999E+00;  9.9999998E-03; -3.0000001E-01;779;  0.0000000E+00;  0.0000000E+00;  0.0000000E+00;  1.0000000E+03;  4.0000001E-01;  0.0000000E+00;0;  0.0000000E+00;  0.0000000E+00;  0.0000000E+00;0;  0.0000000E+00;  1.0000000E+04;  0.0000000E+00;  0.0000000E+00;  1.0000000E+04;  0.0000000E+00;  1.0000000E+04;  0.0000000E+00;  0.0000000E+00;  0.0000000E+00;  0.0000000E+00;
  2.0999999E+00;  9.9999998E-03; -2.8000000E-01;780;  0.0000000E+00;  0.0000000E+00;  0.0000000E+00;  1.0000000E+03;  4.0000001E-01;  0.0000000E+00;0;  0.0000000E+00;  0.0000000E+00;  0.0000000E+00;0;  0.0000000E+00;  1.0000000E+04;  0.0000000E+00;  0.0000000E+00;  1.0000000E+04;  0.0000000E+00;  1.0000000E+04;  0.0000000E+00;  0.0000000E+00;  0.0000000E+00;  0.0000000E+00;
  2.0999999E+00;  9.9999998E-03; -2.5999999E-01;781;  0.0000000E+00;  0.0000000E+00;  0.0000000E+00;  1.0000000E+03;  4.0000001E-01;  0.0000000E+00;0;  0.0000000E+00;  0.0000000E+00;  0.0000000E+00;0;  0.0000000E+00;  1.0000000E+04;  0.0000000E+00;  0.0000000E+00;  1.0000000E+04;  0.0000000E+00;  1.0000000E+04;  0.0000000E+00;  0.0000000E+00;  0.0000000E+00;  0.0000000E+00;
  2.0999999E+00;  9.9999998E-03; -2.3999999E-01;782;  0.0000000E+00;  0.0000000E+00;  0.0000000E+00;  1.0000000E+03;  4.0000001E-01;  0.0000000E+00;0;  0.0000000E+00;  0.0000000E+00;  0.0000000E+00;0;  0.0000000E+00;  1.0000000E+04;  0.0000000E+00;  0.0000000E+00;  1.0000000E+04;  0.0000000E+00;  1.0000000E+04;  0.0000000E+00;  0.0000000E+00;  0.0000000E+00;  0.0000000E+00;
  2.0999999E+00;  9.9999998E-03; -2.2000000E-01;783;  0.0000000E+00;  0.0000000E+00;  0.0000000E+00;  1.0000000E+03;  4.0000001E-01;  0.0000000E+00;0;  0.0000000E+00;  0.0000000E+00;  0.0000000E+00;0;  0.0000000E+00;  1.0000000E+04;  0.0000000E+00;  0.0000000E+00;  1.0000000E+04;  0.0000000E+00;  1.0000000E+04;  0.0000000E+00;  0.0000000E+00;  0.0000000E+00;  0.0000000E+00;
  2.0999999E+00;  9.9999998E-03; -2.0000000E-01;784;  0.0000000E+00;  0.0000000E+00;  0.0000000E+00;  1.0000000E+03;  4.0000001E-01;  0.0000000E+00;0;  0.0000000E+00;  0.0000000E+00;  0.0000000E+00;0;  0.0000000E+00;  1.0000000E+04;  0.0000000E+00;  0.0000000E+00;  1.0000000E+04;  0.0000000E+00;  1.0000000E+04;  0.0000000E+00;  0.0000000E+00;  0.0000000E+00;  0.0000000E+00;
  2.0999999E+00;  9.9999998E-03; -1.8000001E-01;785;  0.0000000E+00;  0.0000000E+00;  0.0000000E+00;  1.0000000E+03;  4.0000001E-01;  0.0000000E+00;0;  0.0000000E+00;  0.0000000E+00;  0.0000000E+00;0;  0.0000000E+00;  1.0000000E+04;  0.0000000E+00;  0.0000000E+00;  1.0000000E+04;  0.0000000E+00;  1.0000000E+04;  0.0000000E+00;  0.0000000E+00;  0.0000000E+00;  0.0000000E+00;
  2.0999999E+00;  9.9999998E-03; -1.6000000E-01;786;  0.0000000E+00;  0.0000000E+00;  0.0000000E+00;  1.0000000E+03;  4.0000001E-01;  0.0000000E+00;0;  0.0000000E+00;  0.0000000E+00;  0.0000000E+00;0;  0.0000000E+00;  1.0000000E+04;  0.0000000E+00;  0.0000000E+00;  1.0000000E+04;  0.0000000E+00;  1.0000000E+04;  0.0000000E+00;  0.0000000E+00;  0.0000000E+00;  0.0000000E+00;
  2.0999999E+00;  9.9999998E-03; -1.4000000E-01;787;  0.0000000E+00;  0.0000000E+00;  0.0000000E+00;  1.0000000E+03;  4.0000001E-01;  0.0000000E+00;0;  0.0000000E+00;  0.0000000E+00;  0.0000000E+00;0;  0.0000000E+00;  1.0000000E+04;  0.0000000E+00;  0.0000000E+00;  1.0000000E+04;  0.0000000E+00;  1.0000000E+04;  0.0000000E+00;  0.0000000E+00;  0.0000000E+00;  0.0000000E+00;
  2.0999999E+00;  9.9999998E-03; -1.2000000E-01;788;  0.0000000E+00;  0.0000000E+00;  0.0000000E+00;  1.0000000E+03;  4.0000001E-01;  0.0000000E+00;0;  0.0000000E+00;  0.0000000E+00;  0.0000000E+00;0;  0.0000000E+00;  1.0000000E+04;  0.0000000E+00;  0.0000000E+00;  1.0000000E+04;  0.0000000E+00;  1.0000000E+04;  0.0000000E+00;  0.0000000E+00;  0.0000000E+00;  0.0000000E+00;
  2.0999999E+00;  9.9999998E-03; -1.0000000E-01;789;  0.0000000E+00;  0.0000000E+00;  0.0000000E+00;  1.0000000E+03;  4.0000001E-01;  0.0000000E+00;0;  0.0000000E+00;  0.0000000E+00;  0.0000000E+00;0;  0.0000000E+00;  1.0000000E+04;  0.0000000E+00;  0.0000000E+00;  1.0000000E+04;  0.0000000E+00;  1.0000000E+04;  0.0000000E+00;  0.0000000E+00;  0.0000000E+00;  0.0000000E+00;
  2.0999999E+00;  9.9999998E-03; -7.9999998E-02;790;  0.0000000E+00;  0.0000000E+00;  0.0000000E+00;  1.0000000E+03;  4.0000001E-01;  0.0000000E+00;0;  0.0000000E+00;  0.0000000E+00;  0.0000000E+00;0;  0.0000000E+00;  1.0000000E+04;  0.0000000E+00;  0.0000000E+00;  1.0000000E+04;  0.0000000E+00;  1.0000000E+04;  0.0000000E+00;  0.0000000E+00;  0.0000000E+00;  0.0000000E+00;
  2.0999999E+00;  9.9999998E-03; -5.9999999E-02;791;  0.0000000E+00;  0.0000000E+00;  0.0000000E+00;  1.0000000E+03;  4.0000001E-01;  0.0000000E+00;0;  0.0000000E+00;  0.0000000E+00;  0.0000000E+00;0;  0.0000000E+00;  1.0000000E+04;  0.0000000E+00;  0.0000000E+00;  1.0000000E+04;  0.0000000E+00;  1.0000000E+04;  0.0000000E+00;  0.0000000E+00;  0.0000000E+00;  0.0000000E+00;
  2.0999999E+00;  9.9999998E-03; -3.9999999E-02;792;  0.0000000E+00;  0.0000000E+00;  0.0000000E+00;  1.0000000E+03;  4.0000001E-01;  0.0000000E+00;0;  0.0000000E+00;  0.0000000E+00;  0.0000000E+00;0;  0.0000000E+00;  1.0000000E+04;  0.0000000E+00;  0.0000000E+00;  1.0000000E+04;  0.0000000E+00;  1.0000000E+04;  0.0000000E+00;  0.0000000E+00;  0.0000000E+00;  0.0000000E+00;
  2.0999999E+00;  9.9999998E-03; -2.0000000E-02;793;  0.0000000E+00;  0.0000000E+00;  0.0000000E+00;  1.0000000E+03;  4.0000001E-01;  0.0000000E+00;0;  0.0000000E+00;  0.0000000E+00;  0.0000000E+00;0;  0.0000000E+00;  1.0000000E+04;  0.0000000E+00;  0.0000000E+00;  1.0000000E+04;  0.0000000E+00;  1.0000000E+04;  0.0000000E+00;  0.0000000E+00;  0.0000000E+00;  0.0000000E+00;
  2.0999999E+00;  9.9999998E-03;  0.0000000E+00;794;  0.0000000E+00;  0.0000000E+00;  0.0000000E+00;  1.0000000E+03;  4.0000001E-01;  0.0000000E+00;0;  0.0000000E+00;  0.0000000E+00;  0.0000000E+00;0;  0.0000000E+00;  1.0000000E+04;  0.0000000E+00;  0.0000000E+00;  1.0000000E+04;  0.0000000E+00;  1.0000000E+04;  0.0000000E+00;  0.0000000E+00;  0.0000000E+00;  0.0000000E+00;
  2.0999999E+00;  9.9999998E-03;  2.0000000E-02;795;  0.0000000E+00;  0.0000000E+00;  0.0000000E+00;  1.0000000E+03;  4.0000001E-01;  0.0000000E+00;0;  0.0000000E+00;  0.0000000E+00;  0.0000000E+00;0;  0.0000000E+00;  1.0000000E+04;  0.0000000E+00;  0.0000000E+00;  1.0000000E+04;  0.0000000E+00;  1.0000000E+04;  0.0000000E+00;  0.0000000E+00;  0.0000000E+00;  0.0000000E+00;
  2.0999999E+00;  9.9999998E-03;  3.9999999E-02;796;  0.0000000E+00;  0.0000000E+00;  0.0000000E+00;  1.0000000E+03;  4.0000001E-01;  0.0000000E+00;0;  0.0000000E+00;  0.0000000E+00;  0.0000000E+00;0;  0.0000000E+00;  1.0000000E+04;  0.0000000E+00;  0.0000000E+00;  1.0000000E+04;  0.0000000E+00;  1.0000000E+04;  0.0000000E+00;  0.0000000E+00;  0.0000000E+00;  0.0000000E+00;
  2.0999999E+00;  9.9999998E-03;  5.9999999E-02;797;  0.0000000E+00;  0.0000000E+00;  0.0000000E+00;  1.0000000E+03;  4.0000001E-01;  0.0000000E+00;0;  0.0000000E+00;  0.0000000E+00;  0.0000000E+00;0;  0.0000000E+00;  1.0000000E+04;  0.0000000E+00;  0.0000000E+00;  1.0000000E+04;  0.0000000E+00;  1.0000000E+04;  0.0000000E+00;  0.0000000E+00;  0.0000000E+00;  0.0000000E+00;
  2.0999999E+00;  9.9999998E-03;  7.9999998E-02;798;  0.0000000E+00;  0.0000000E+00;  0.0000000E+00;  1.0000000E+03;  4.0000001E-01;  0.0000000E+00;0;  0.0000000E+00;  0.0000000E+00;  0.0000000E+00;0;  0.0000000E+00;  1.0000000E+04;  0.0000000E+00;  0.0000000E+00;  1.0000000E+04;  0.0000000E+00;  1.0000000E+04;  0.0000000E+00;  0.0000000E+00;  0.0000000E+00;  0.0000000E+00;
  2.0999999E+00;  9.9999998E-03;  1.0000000E-01;799;  0.0000000E+00;  0.0000000E+00;  0.0000000E+00;  1.0000000E+03;  4.0000001E-01;  0.0000000E+00;0;  0.0000000E+00;  0.0000000E+00;  0.0000000E+00;0;  0.0000000E+00;  1.0000000E+04;  0.0000000E+00;  0.0000000E+00;  1.0000000E+04;  0.0000000E+00;  1.0000000E+04;  0.0000000E+00;  0.0000000E+00;  0.0000000E+00;  0.0000000E+00;
  2.0999999E+00;  9.9999998E-03;  1.2000000E-01;800;  0.0000000E+00;  0.0000000E+00;  0.0000000E+00;  1.0000000E+03;  4.0000001E-01;  0.0000000E+00;0;  0.0000000E+00;  0.0000000E+00;  0.0000000E+00;0;  0.0000000E+00;  1.0000000E+04;  0.0000000E+00;  0.0000000E+00;  1.0000000E+04;  0.0000000E+00;  1.0000000E+04;  0.0000000E+00;  0.0000000E+00;  0.0000000E+00;  0.0000000E+00;
  2.0999999E+00;  9.9999998E-03;  1.4000000E-01;801;  0.0000000E+00;  0.0000000E+00;  0.0000000E+00;  1.0000000E+03;  4.0000001E-01;  0.0000000E+00;0;  0.0000000E+00;  0.0000000E+00;  0.0000000E+00;0;  0.0000000E+00;  1.0000000E+04;  0.0000000E+00;  0.0000000E+00;  1.0000000E+04;  0.0000000E+00;  1.0000000E+04;  0.0000000E+00;  0.0000000E+00;  0.0000000E+00;  0.0000000E+00;
  2.0999999E+00;  9.9999998E-03;  1.6000000E-01;802;  0.0000000E+00;  0.0000000E+00;  0.0000000E+00;  1.0000000E+03;  4.0000001E-01;  0.0000000E+00;0;  0.0000000E+00;  0.0000000E+00;  0.0000000E+00;0;  0.0000000E+00;  1.0000000E+04;  0.0000000E+00;  0.0000000E+00;  1.0000000E+04;  0.0000000E+00;  1.0000000E+04;  0.0000000E+00;  0.0000000E+00;  0.0000000E+00;  0.0000000E+00;
  2.0999999E+00;  9.9999998E-03;  1.8000001E-01;803;  0.0000000E+00;  0.0000000E+00;  0.0000000E+00;  1.0000000E+03;  4.0000001E-01;  0.0000000E+00;0;  0.0000000E+00;  0.0000000E+00;  0.0000000E+00;0;  0.0000000E+00;  1.0000000E+04;  0.0000000E+00;  0.0000000E+00;  1.0000000E+04;  0.0000000E+00;  1.0000000E+04;  0.0000000E+00;  0.0000000E+00;  0.0000000E+00;  0.0000000E+00;
  2.0999999E+00;  9.9999998E-03;  2.0000000E-01;804;  0.0000000E+00;  0.0000000E+00;  0.0000000E+00;  1.0000000E+03;  4.0000001E-01;  0.0000000E+00;0;  0.0000000E+00;  0.0000000E+00;  0.0000000E+00;0;  0.0000000E+00;  1.0000000E+04;  0.0000000E+00;  0.0000000E+00;  1.0000000E+04;  0.0000000E+00;  1.0000000E+04;  0.0000000E+00;  0.0000000E+00;  0.0000000E+00;  0.0000000E+00;
  2.0999999E+00;  9.9999998E-03;  2.2000000E-01;805;  0.0000000E+00;  0.0000000E+00;  0.0000000E+00;  1.0000000E+03;  4.0000001E-01;  0.0000000E+00;0;  0.0000000E+00;  0.0000000E+00;  0.0000000E+00;0;  0.0000000E+00;  1.0000000E+04;  0.0000000E+00;  0.0000000E+00;  1.0000000E+04;  0.0000000E+00;  1.0000000E+04;  0.0000000E+00;  0.0000000E+00;  0.0000000E+00;  0.0000000E+00;
  2.0999999E+00;  9.9999998E-03;  2.3999999E-01;806;  0.0000000E+00;  0.0000000E+00;  0.0000000E+00;  1.0000000E+03;  4.0000001E-01;  0.0000000E+00;0;  0.0000000E+00;  0.0000000E+00;  0.0000000E+00;0;  0.0000000E+00;  1.0000000E+04;  0.0000000E+00;  0.0000000E+00;  1.0000000E+04;  0.0000000E+00;  1.0000000E+04;  0.0000000E+00;  0.0000000E+00;  0.0000000E+00;  0.0000000E+00;
  2.0999999E+00;  9.9999998E-03;  2.5999999E-01;807;  0.0000000E+00;  0.0000000E+00;  0.0000000E+00;  1.0000000E+03;  4.0000001E-01;  0.0000000E+00;0;  0.0000000E+00;  0.0000000E+00;  0.0000000E+00;0;  0.0000000E+00;  1.0000000E+04;  0.0000000E+00;  0.0000000E+00;  1.0000000E+04;  0.0000000E+00;  1.0000000E+04;  0.0000000E+00;  0.0000000E+00;  0.0000000E+00;  0.0000000E+00;
  2.0999999E+00;  9.9999998E-03;  2.8000000E-01;808;  0.0000000E+00;  0.0000000E+00;  0.0000000E+00;  1.0000000E+03;  4.0000001E-01;  0.0000000E+00;0;  0.0000000E+00;  0.0000000E+00;  0.0000000E+00;0;  0.0000000E+00;  1.0000000E+04;  0.0000000E+00;  0.0000000E+00;  1.0000000E+04;  0.0000000E+00;  1.0000000E+04;  0.0000000E+00;  0.0000000E+00;  0.0000000E+00;  0.0000000E+00;
  2.0999999E+00;  9.9999998E-03;  3.0000001E-01;809;  0.0000000E+00;  0.0000000E+00;  0.0000000E+00;  1.0000000E+03;  4.0000001E-01;  0.0000000E+00;0;  0.0000000E+00;  0.0000000E+00;  0.0000000E+00;0;  0.0000000E+00;  1.0000000E+04;  0.0000000E+00;  0.0000000E+00;  1.0000000E+04;  0.0000000E+00;  1.0000000E+04;  0.0000000E+00;  0.0000000E+00;  0.0000000E+00;  0.0000000E+00;
  2.0999999E+00;  9.9999998E-03;  3.1999999E-01;810;  0.0000000E+00;  0.0000000E+00;  0.0000000E+00;  1.0000000E+03;  4.0000001E-01;  0.0000000E+00;0;  0.0000000E+00;  0.0000000E+00;  0.0000000E+00;0;  0.0000000E+00;  1.0000000E+04;  0.0000000E+00;  0.0000000E+00;  1.0000000E+04;  0.0000000E+00;  1.0000000E+04;  0.0000000E+00;  0.0000000E+00;  0.0000000E+00;  0.0000000E+00;
  2.0999999E+00;  9.9999998E-03;  3.4000000E-01;811;  0.0000000E+00;  0.0000000E+00;  0.0000000E+00;  1.0000000E+03;  4.0000001E-01;  0.0000000E+00;0;  0.0000000E+00;  0.0000000E+00;  0.0000000E+00;0;  0.0000000E+00;  1.0000000E+04;  0.0000000E+00;  0.0000000E+00;  1.0000000E+04;  0.0000000E+00;  1.0000000E+04;  0.0000000E+00;  0.0000000E+00;  0.0000000E+00;  0.0000000E+00;
  2.0999999E+00;  9.9999998E-03;  3.6000001E-01;812;  0.0000000E+00;  0.0000000E+00;  0.0000000E+00;  1.0000000E+03;  4.0000001E-01;  0.0000000E+00;0;  0.0000000E+00;  0.0000000E+00;  0.0000000E+00;0;  0.0000000E+00;  1.0000000E+04;  0.0000000E+00;  0.0000000E+00;  1.0000000E+04;  0.0000000E+00;  1.0000000E+04;  0.0000000E+00;  0.0000000E+00;  0.0000000E+00;  0.0000000E+00;
  2.0999999E+00;  9.9999998E-03;  3.8000000E-01;813;  0.0000000E+00;  0.0000000E+00;  0.0000000E+00;  1.0000000E+03;  4.0000001E-01;  0.0000000E+00;0;  0.0000000E+00;  0.0000000E+00;  0.0000000E+00;0;  0.0000000E+00;  1.0000000E+04;  0.0000000E+00;  0.0000000E+00;  1.0000000E+04;  0.0000000E+00;  1.0000000E+04;  0.0000000E+00;  0.0000000E+00;  0.0000000E+00;  0.0000000E+00;
  2.0999999E+00;  9.9999998E-03;  4.0000001E-01;814;  0.0000000E+00;  0.0000000E+00;  0.0000000E+00;  1.0000000E+03;  4.0000001E-01;  0.0000000E+00;0;  0.0000000E+00;  0.0000000E+00;  0.0000000E+00;0;  0.0000000E+00;  1.0000000E+04;  0.0000000E+00;  0.0000000E+00;  1.0000000E+04;  0.0000000E+00;  1.0000000E+04;  0.0000000E+00;  0.0000000E+00;  0.0000000E+00;  0.0000000E+00;
  2.1199999E+00;  9.9999998E-03; -4.1999999E-01;815;  0.0000000E+00;  0.0000000E+00;  0.0000000E+00;  1.0000000E+03;  4.0000001E-01;  0.0000000E+00;0;  0.0000000E+00;  0.0000000E+00;  0.0000000E+00;0;  0.0000000E+00;  1.0000000E+04;  0.0000000E+00;  0.0000000E+00;  1.0000000E+04;  0.0000000E+00;  1.0000000E+04;  0.0000000E+00;  0.0000000E+00;  0.0000000E+00;  0.0000000E+00;
  2.1199999E+00;  9.9999998E-03; -4.0000001E-01;816;  0.0000000E+00;  0.0000000E+00;  0.0000000E+00;  1.0000000E+03;  4.0000001E-01;  0.0000000E+00;0;  0.0000000E+00;  0.0000000E+00;  0.0000000E+00;0;  0.0000000E+00;  1.0000000E+04;  0.0000000E+00;  0.0000000E+00;  1.0000000E+04;  0.0000000E+00;  1.0000000E+04;  0.0000000E+00;  0.0000000E+00;  0.0000000E+00;  0.0000000E+00;
  2.1199999E+00;  9.9999998E-03; -3.8000000E-01;817;  0.0000000E+00;  0.0000000E+00;  0.0000000E+00;  1.0000000E+03;  4.0000001E-01;  0.0000000E+00;0;  0.0000000E+00;  0.0000000E+00;  0.0000000E+00;0;  0.0000000E+00;  1.0000000E+04;  0.0000000E+00;  0.0000000E+00;  1.0000000E+04;  0.0000000E+00;  1.0000000E+04;  0.0000000E+00;  0.0000000E+00;  0.0000000E+00;  0.0000000E+00;
  2.1199999E+00;  9.9999998E-03; -3.6000001E-01;818;  0.0000000E+00;  0.0000000E+00;  0.0000000E+00;  1.0000000E+03;  4.0000001E-01;  0.0000000E+00;0;  0.0000000E+00;  0.0000000E+00;  0.0000000E+00;0;  0.0000000E+00;  1.0000000E+04;  0.0000000E+00;  0.0000000E+00;  1.0000000E+04;  0.0000000E+00;  1.0000000E+04;  0.0000000E+00;  0.0000000E+00;  0.0000000E+00;  0.0000000E+00;
  2.1199999E+00;  9.9999998E-03; -3.4000000E-01;819;  0.0000000E+00;  0.0000000E+00;  0.0000000E+00;  1.0000000E+03;  4.0000001E-01;  0.0000000E+00;0;  0.0000000E+00;  0.0000000E+00;  0.0000000E+00;0;  0.0000000E+00;  1.0000000E+04;  0.0000000E+00;  0.0000000E+00;  1.0000000E+04;  0.0000000E+00;  1.0000000E+04;  0.0000000E+00;  0.0000000E+00;  0.0000000E+00;  0.0000000E+00;
  2.1199999E+00;  9.9999998E-03; -3.1999999E-01;820;  0.0000000E+00;  0.0000000E+00;  0.0000000E+00;  1.0000000E+03;  4.0000001E-01;  0.0000000E+00;0;  0.0000000E+00;  0.0000000E+00;  0.0000000E+00;0;  0.0000000E+00;  1.0000000E+04;  0.0000000E+00;  0.0000000E+00;  1.0000000E+04;  0.0000000E+00;  1.0000000E+04;  0.0000000E+00;  0.0000000E+00;  0.0000000E+00;  0.0000000E+00;
  2.1199999E+00;  9.9999998E-03; -3.0000001E-01;821;  0.0000000E+00;  0.0000000E+00;  0.0000000E+00;  1.0000000E+03;  4.0000001E-01;  0.0000000E+00;0;  0.0000000E+00;  0.0000000E+00;  0.0000000E+00;0;  0.0000000E+00;  1.0000000E+04;  0.0000000E+00;  0.0000000E+00;  1.0000000E+04;  0.0000000E+00;  1.0000000E+04;  0.0000000E+00;  0.0000000E+00;  0.0000000E+00;  0.0000000E+00;
  2.1199999E+00;  9.9999998E-03; -2.8000000E-01;822;  0.0000000E+00;  0.0000000E+00;  0.0000000E+00;  1.0000000E+03;  4.0000001E-01;  0.0000000E+00;0;  0.0000000E+00;  0.0000000E+00;  0.0000000E+00;0;  0.0000000E+00;  1.0000000E+04;  0.0000000E+00;  0.0000000E+00;  1.0000000E+04;  0.0000000E+00;  1.0000000E+04;  0.0000000E+00;  0.0000000E+00;  0.0000000E+00;  0.0000000E+00;
  2.1199999E+00;  9.9999998E-03; -2.5999999E-01;823;  0.0000000E+00;  0.0000000E+00;  0.0000000E+00;  1.0000000E+03;  4.0000001E-01;  0.0000000E+00;0;  0.0000000E+00;  0.0000000E+00;  0.0000000E+00;0;  0.0000000E+00;  1.0000000E+04;  0.0000000E+00;  0.0000000E+00;  1.0000000E+04;  0.0000000E+00;  1.0000000E+04;  0.0000000E+00;  0.0000000E+00;  0.0000000E+00;  0.0000000E+00;
  2.1199999E+00;  9.9999998E-03; -2.3999999E-01;824;  0.0000000E+00;  0.0000000E+00;  0.0000000E+00;  1.0000000E+03;  4.0000001E-01;  0.0000000E+00;0;  0.0000000E+00;  0.0000000E+00;  0.0000000E+00;0;  0.0000000E+00;  1.0000000E+04;  0.0000000E+00;  0.0000000E+00;  1.0000000E+04;  0.0000000E+00;  1.0000000E+04;  0.0000000E+00;  0.0000000E+00;  0.0000000E+00;  0.0000000E+00;
  2.1199999E+00;  9.9999998E-03; -2.2000000E-01;825;  0.0000000E+00;  0.0000000E+00;  0.0000000E+00;  1.0000000E+03;  4.0000001E-01;  0.0000000E+00;0;  0.0000000E+00;  0.0000000E+00;  0.0000000E+00;0;  0.0000000E+00;  1.0000000E+04;  0.0000000E+00;  0.0000000E+00;  1.0000000E+04;  0.0000000E+00;  1.0000000E+04;  0.0000000E+00;  0.0000000E+00;  0.0000000E+00;  0.0000000E+00;
  2.1199999E+00;  9.9999998E-03; -2.0000000E-01;826;  0.0000000E+00;  0.0000000E+00;  0.0000000E+00;  1.0000000E+03;  4.0000001E-01;  0.0000000E+00;0;  0.0000000E+00;  0.0000000E+00;  0.0000000E+00;0;  0.0000000E+00;  1.0000000E+04;  0.0000000E+00;  0.0000000E+00;  1.0000000E+04;  0.0000000E+00;  1.0000000E+04;  0.0000000E+00;  0.0000000E+00;  0.0000000E+00;  0.0000000E+00;
  2.1199999E+00;  9.9999998E-03; -1.8000001E-01;827;  0.0000000E+00;  0.0000000E+00;  0.0000000E+00;  1.0000000E+03;  4.0000001E-01;  0.0000000E+00;0;  0.0000000E+00;  0.0000000E+00;  0.0000000E+00;0;  0.0000000E+00;  1.0000000E+04;  0.0000000E+00;  0.0000000E+00;  1.0000000E+04;  0.0000000E+00;  1.0000000E+04;  0.0000000E+00;  0.0000000E+00;  0.0000000E+00;  0.0000000E+00;
  2.1199999E+00;  9.9999998E-03; -1.6000000E-01;828;  0.0000000E+00;  0.0000000E+00;  0.0000000E+00;  1.0000000E+03;  4.0000001E-01;  0.0000000E+00;0;  0.0000000E+00;  0.0000000E+00;  0.0000000E+00;0;  0.0000000E+00;  1.0000000E+04;  0.0000000E+00;  0.0000000E+00;  1.0000000E+04;  0.0000000E+00;  1.0000000E+04;  0.0000000E+00;  0.0000000E+00;  0.0000000E+00;  0.0000000E+00;
  2.1199999E+00;  9.9999998E-03; -1.4000000E-01;829;  0.0000000E+00;  0.0000000E+00;  0.0000000E+00;  1.0000000E+03;  4.0000001E-01;  0.0000000E+00;0;  0.0000000E+00;  0.0000000E+00;  0.0000000E+00;0;  0.0000000E+00;  1.0000000E+04;  0.0000000E+00;  0.0000000E+00;  1.0000000E+04;  0.0000000E+00;  1.0000000E+04;  0.0000000E+00;  0.0000000E+00;  0.0000000E+00;  0.0000000E+00;
  2.1199999E+00;  9.9999998E-03; -1.2000000E-01;830;  0.0000000E+00;  0.0000000E+00;  0.0000000E+00;  1.0000000E+03;  4.0000001E-01;  0.0000000E+00;0;  0.0000000E+00;  0.0000000E+00;  0.0000000E+00;0;  0.0000000E+00;  1.0000000E+04;  0.0000000E+00;  0.0000000E+00;  1.0000000E+04;  0.0000000E+00;  1.0000000E+04;  0.0000000E+00;  0.0000000E+00;  0.0000000E+00;  0.0000000E+00;
  2.1199999E+00;  9.9999998E-03; -1.0000000E-01;831;  0.0000000E+00;  0.0000000E+00;  0.0000000E+00;  1.0000000E+03;  4.0000001E-01;  0.0000000E+00;0;  0.0000000E+00;  0.0000000E+00;  0.0000000E+00;0;  0.0000000E+00;  1.0000000E+04;  0.0000000E+00;  0.0000000E+00;  1.0000000E+04;  0.0000000E+00;  1.0000000E+04;  0.0000000E+00;  0.0000000E+00;  0.0000000E+00;  0.0000000E+00;
  2.1199999E+00;  9.9999998E-03; -7.9999998E-02;832;  0.0000000E+00;  0.0000000E+00;  0.0000000E+00;  1.0000000E+03;  4.0000001E-01;  0.0000000E+00;0;  0.0000000E+00;  0.0000000E+00;  0.0000000E+00;0;  0.0000000E+00;  1.0000000E+04;  0.0000000E+00;  0.0000000E+00;  1.0000000E+04;  0.0000000E+00;  1.0000000E+04;  0.0000000E+00;  0.0000000E+00;  0.0000000E+00;  0.0000000E+00;
  2.1199999E+00;  9.9999998E-03; -5.9999999E-02;833;  0.0000000E+00;  0.0000000E+00;  0.0000000E+00;  1.0000000E+03;  4.0000001E-01;  0.0000000E+00;0;  0.0000000E+00;  0.0000000E+00;  0.0000000E+00;0;  0.0000000E+00;  1.0000000E+04;  0.0000000E+00;  0.0000000E+00;  1.0000000E+04;  0.0000000E+00;  1.0000000E+04;  0.0000000E+00;  0.0000000E+00;  0.0000000E+00;  0.0000000E+00;
  2.1199999E+00;  9.9999998E-03; -3.9999999E-02;834;  0.0000000E+00;  0.0000000E+00;  0.0000000E+00;  1.0000000E+03;  4.0000001E-01;  0.0000000E+00;0;  0.0000000E+00;  0.0000000E+00;  0.0000000E+00;0;  0.0000000E+00;  1.0000000E+04;  0.0000000E+00;  0.0000000E+00;  1.0000000E+04;  0.0000000E+00;  1.0000000E+04;  0.0000000E+00;  0.0000000E+00;  0.0000000E+00;  0.0000000E+00;
  2.1199999E+00;  9.9999998E-03; -2.0000000E-02;835;  0.0000000E+00;  0.0000000E+00;  0.0000000E+00;  1.0000000E+03;  4.0000001E-01;  0.0000000E+00;0;  0.0000000E+00;  0.0000000E+00;  0.0000000E+00;0;  0.0000000E+00;  1.0000000E+04;  0.0000000E+00;  0.0000000E+00;  1.0000000E+04;  0.0000000E+00;  1.0000000E+04;  0.0000000E+00;  0.0000000E+00;  0.0000000E+00;  0.0000000E+00;
  2.1199999E+00;  9.9999998E-03;  0.0000000E+00;836;  0.0000000E+00;  0.0000000E+00;  0.0000000E+00;  1.0000000E+03;  4.0000001E-01;  0.0000000E+00;0;  0.0000000E+00;  0.0000000E+00;  0.0000000E+00;0;  0.0000000E+00;  1.0000000E+04;  0.0000000E+00;  0.0000000E+00;  1.0000000E+04;  0.0000000E+00;  1.0000000E+04;  0.0000000E+00;  0.0000000E+00;  0.0000000E+00;  0.0000000E+00;
  2.1199999E+00;  9.9999998E-03;  2.0000000E-02;837;  0.0000000E+00;  0.0000000E+00;  0.0000000E+00;  1.0000000E+03;  4.0000001E-01;  0.0000000E+00;0;  0.0000000E+00;  0.0000000E+00;  0.0000000E+00;0;  0.0000000E+00;  1.0000000E+04;  0.0000000E+00;  0.0000000E+00;  1.0000000E+04;  0.0000000E+00;  1.0000000E+04;  0.0000000E+00;  0.0000000E+00;  0.0000000E+00;  0.0000000E+00;
  2.1199999E+00;  9.9999998E-03;  3.9999999E-02;838;  0.0000000E+00;  0.0000000E+00;  0.0000000E+00;  1.0000000E+03;  4.0000001E-01;  0.0000000E+00;0;  0.0000000E+00;  0.0000000E+00;  0.0000000E+00;0;  0.0000000E+00;  1.0000000E+04;  0.0000000E+00;  0.0000000E+00;  1.0000000E+04;  0.0000000E+00;  1.0000000E+04;  0.0000000E+00;  0.0000000E+00;  0.0000000E+00;  0.0000000E+00;
  2.1199999E+00;  9.9999998E-03;  5.9999999E-02;839;  0.0000000E+00;  0.0000000E+00;  0.0000000E+00;  1.0000000E+03;  4.0000001E-01;  0.0000000E+00;0;  0.0000000E+00;  0.0000000E+00;  0.0000000E+00;0;  0.0000000E+00;  1.0000000E+04;  0.0000000E+00;  0.0000000E+00;  1.0000000E+04;  0.0000000E+00;  1.0000000E+04;  0.0000000E+00;  0.0000000E+00;  0.0000000E+00;  0.0000000E+00;
  2.1199999E+00;  9.9999998E-03;  7.9999998E-02;840;  0.0000000E+00;  0.0000000E+00;  0.0000000E+00;  1.0000000E+03;  4.0000001E-01;  0.0000000E+00;0;  0.0000000E+00;  0.0000000E+00;  0.0000000E+00;0;  0.0000000E+00;  1.0000000E+04;  0.0000000E+00;  0.0000000E+00;  1.0000000E+04;  0.0000000E+00;  1.0000000E+04;  0.0000000E+00;  0.0000000E+00;  0.0000000E+00;  0.0000000E+00;
  2.1199999E+00;  9.9999998E-03;  1.0000000E-01;841;  0.0000000E+00;  0.0000000E+00;  0.0000000E+00;  1.0000000E+03;  4.0000001E-01;  0.0000000E+00;0;  0.0000000E+00;  0.0000000E+00;  0.0000000E+00;0;  0.0000000E+00;  1.0000000E+04;  0.0000000E+00;  0.0000000E+00;  1.0000000E+04;  0.0000000E+00;  1.0000000E+04;  0.0000000E+00;  0.0000000E+00;  0.0000000E+00;  0.0000000E+00;
  2.1199999E+00;  9.9999998E-03;  1.2000000E-01;842;  0.0000000E+00;  0.0000000E+00;  0.0000000E+00;  1.0000000E+03;  4.0000001E-01;  0.0000000E+00;0;  0.0000000E+00;  0.0000000E+00;  0.0000000E+00;0;  0.0000000E+00;  1.0000000E+04;  0.0000000E+00;  0.0000000E+00;  1.0000000E+04;  0.0000000E+00;  1.0000000E+04;  0.0000000E+00;  0.0000000E+00;  0.0000000E+00;  0.0000000E+00;
  2.1199999E+00;  9.9999998E-03;  1.4000000E-01;843;  0.0000000E+00;  0.0000000E+00;  0.0000000E+00;  1.0000000E+03;  4.0000001E-01;  0.0000000E+00;0;  0.0000000E+00;  0.0000000E+00;  0.0000000E+00;0;  0.0000000E+00;  1.0000000E+04;  0.0000000E+00;  0.0000000E+00;  1.0000000E+04;  0.0000000E+00;  1.0000000E+04;  0.0000000E+00;  0.0000000E+00;  0.0000000E+00;  0.0000000E+00;
  2.1199999E+00;  9.9999998E-03;  1.6000000E-01;844;  0.0000000E+00;  0.0000000E+00;  0.0000000E+00;  1.0000000E+03;  4.0000001E-01;  0.0000000E+00;0;  0.0000000E+00;  0.0000000E+00;  0.0000000E+00;0;  0.0000000E+00;  1.0000000E+04;  0.0000000E+00;  0.0000000E+00;  1.0000000E+04;  0.0000000E+00;  1.0000000E+04;  0.0000000E+00;  0.0000000E+00;  0.0000000E+00;  0.0000000E+00;
  2.1199999E+00;  9.9999998E-03;  1.8000001E-01;845;  0.0000000E+00;  0.0000000E+00;  0.0000000E+00;  1.0000000E+03;  4.0000001E-01;  0.0000000E+00;0;  0.0000000E+00;  0.0000000E+00;  0.0000000E+00;0;  0.0000000E+00;  1.0000000E+04;  0.0000000E+00;  0.0000000E+00;  1.0000000E+04;  0.0000000E+00;  1.0000000E+04;  0.0000000E+00;  0.0000000E+00;  0.0000000E+00;  0.0000000E+00;
  2.1199999E+00;  9.9999998E-03;  2.0000000E-01;846;  0.0000000E+00;  0.0000000E+00;  0.0000000E+00;  1.0000000E+03;  4.0000001E-01;  0.0000000E+00;0;  0.0000000E+00;  0.0000000E+00;  0.0000000E+00;0;  0.0000000E+00;  1.0000000E+04;  0.0000000E+00;  0.0000000E+00;  1.0000000E+04;  0.0000000E+00;  1.0000000E+04;  0.0000000E+00;  0.0000000E+00;  0.0000000E+00;  0.0000000E+00;
  2.1199999E+00;  9.9999998E-03;  2.2000000E-01;847;  0.0000000E+00;  0.0000000E+00;  0.0000000E+00;  1.0000000E+03;  4.0000001E-01;  0.0000000E+00;0;  0.0000000E+00;  0.0000000E+00;  0.0000000E+00;0;  0.0000000E+00;  1.0000000E+04;  0.0000000E+00;  0.0000000E+00;  1.0000000E+04;  0.0000000E+00;  1.0000000E+04;  0.0000000E+00;  0.0000000E+00;  0.0000000E+00;  0.0000000E+00;
  2.1199999E+00;  9.9999998E-03;  2.3999999E-01;848;  0.0000000E+00;  0.0000000E+00;  0.0000000E+00;  1.0000000E+03;  4.0000001E-01;  0.0000000E+00;0;  0.0000000E+00;  0.0000000E+00;  0.0000000E+00;0;  0.0000000E+00;  1.0000000E+04;  0.0000000E+00;  0.0000000E+00;  1.0000000E+04;  0.0000000E+00;  1.0000000E+04;  0.0000000E+00;  0.0000000E+00;  0.0000000E+00;  0.0000000E+00;
  2.1199999E+00;  9.9999998E-03;  2.5999999E-01;849;  0.0000000E+00;  0.0000000E+00;  0.0000000E+00;  1.0000000E+03;  4.0000001E-01;  0.0000000E+00;0;  0.0000000E+00;  0.0000000E+00;  0.0000000E+00;0;  0.0000000E+00;  1.0000000E+04;  0.0000000E+00;  0.0000000E+00;  1.0000000E+04;  0.0000000E+00;  1.0000000E+04;  0.0000000E+00;  0.0000000E+00;  0.0000000E+00;  0.0000000E+00;
  2.1199999E+00;  9.9999998E-03;  2.8000000E-01;850;  0.0000000E+00;  0.0000000E+00;  0.0000000E+00;  1.0000000E+03;  4.0000001E-01;  0.0000000E+00;0;  0.0000000E+00;  0.0000000E+00;  0.0000000E+00;0;  0.0000000E+00;  1.0000000E+04;  0.0000000E+00;  0.0000000E+00;  1.0000000E+04;  0.0000000E+00;  1.0000000E+04;  0.0000000E+00;  0.0000000E+00;  0.0000000E+00;  0.0000000E+00;
  2.1199999E+00;  9.9999998E-03;  3.0000001E-01;851;  0.0000000E+00;  0.0000000E+00;  0.0000000E+00;  1.0000000E+03;  4.0000001E-01;  0.0000000E+00;0;  0.0000000E+00;  0.0000000E+00;  0.0000000E+00;0;  0.0000000E+00;  1.0000000E+04;  0.0000000E+00;  0.0000000E+00;  1.0000000E+04;  0.0000000E+00;  1.0000000E+04;  0.0000000E+00;  0.0000000E+00;  0.0000000E+00;  0.0000000E+00;
  2.1199999E+00;  9.9999998E-03;  3.1999999E-01;852;  0.0000000E+00;  0.0000000E+00;  0.0000000E+00;  1.0000000E+03;  4.0000001E-01;  0.0000000E+00;0;  0.0000000E+00;  0.0000000E+00;  0.0000000E+00;0;  0.0000000E+00;  1.0000000E+04;  0.0000000E+00;  0.0000000E+00;  1.0000000E+04;  0.0000000E+00;  1.0000000E+04;  0.0000000E+00;  0.0000000E+00;  0.0000000E+00;  0.0000000E+00;
  2.1199999E+00;  9.9999998E-03;  3.4000000E-01;853;  0.0000000E+00;  0.0000000E+00;  0.0000000E+00;  1.0000000E+03;  4.0000001E-01;  0.0000000E+00;0;  0.0000000E+00;  0.0000000E+00;  0.0000000E+00;0;  0.0000000E+00;  1.0000000E+04;  0.0000000E+00;  0.0000000E+00;  1.0000000E+04;  0.0000000E+00;  1.0000000E+04;  0.0000000E+00;  0.0000000E+00;  0.0000000E+00;  0.0000000E+00;
  2.1199999E+00;  9.9999998E-03;  3.6000001E-01;854;  0.0000000E+00;  0.0000000E+00;  0.0000000E+00;  1.0000000E+03;  4.0000001E-01;  0.0000000E+00;0;  0.0000000E+00;  0.0000000E+00;  0.0000000E+00;0;  0.0000000E+00;  1.0000000E+04;  0.0000000E+00;  0.0000000E+00;  1.0000000E+04;  0.0000000E+00;  1.0000000E+04;  0.0000000E+00;  0.0000000E+00;  0.0000000E+00;  0.0000000E+00;
  2.1199999E+00;  9.9999998E-03;  3.8000000E-01;855;  0.0000000E+00;  0.0000000E+00;  0.0000000E+00;  1.0000000E+03;  4.0000001E-01;  0.0000000E+00;0;  0.0000000E+00;  0.0000000E+00;  0.0000000E+00;0;  0.0000000E+00;  1.0000000E+04;  0.0000000E+00;  0.0000000E+00;  1.0000000E+04;  0.0000000E+00;  1.0000000E+04;  0.0000000E+00;  0.0000000E+00;  0.0000000E+00;  0.0000000E+00;
  2.1199999E+00;  9.9999998E-03;  4.0000001E-01;856;  0.0000000E+00;  0.0000000E+00;  0.0000000E+00;  1.0000000E+03;  4.0000001E-01;  0.0000000E+00;0;  0.0000000E+00;  0.0000000E+00;  0.0000000E+00;0;  0.0000000E+00;  1.0000000E+04;  0.0000000E+00;  0.0000000E+00;  1.0000000E+04;  0.0000000E+00;  1.0000000E+04;  0.0000000E+00;  0.0000000E+00;  0.0000000E+00;  0.0000000E+00;
  2.1400001E+00;  9.9999998E-03; -3.8000000E-01;857;  0.0000000E+00;  0.0000000E+00;  0.0000000E+00;  1.0000000E+03;  4.0000001E-01;  0.0000000E+00;0;  0.0000000E+00;  0.0000000E+00;  0.0000000E+00;0;  0.0000000E+00;  1.0000000E+04;  0.0000000E+00;  0.0000000E+00;  1.0000000E+04;  0.0000000E+00;  1.0000000E+04;  0.0000000E+00;  0.0000000E+00;  0.0000000E+00;  0.0000000E+00;
  2.1400001E+00;  9.9999998E-03; -3.6000001E-01;858;  0.0000000E+00;  0.0000000E+00;  0.0000000E+00;  1.0000000E+03;  4.0000001E-01;  0.0000000E+00;0;  0.0000000E+00;  0.0000000E+00;  0.0000000E+00;0;  0.0000000E+00;  1.0000000E+04;  0.0000000E+00;  0.0000000E+00;  1.0000000E+04;  0.0000000E+00;  1.0000000E+04;  0.0000000E+00;  0.0000000E+00;  0.0000000E+00;  0.0000000E+00;
  2.1400001E+00;  9.9999998E-03; -3.4000000E-01;859;  0.0000000E+00;  0.0000000E+00;  0.0000000E+00;  1.0000000E+03;  4.0000001E-01;  0.0000000E+00;0;  0.0000000E+00;  0.0000000E+00;  0.0000000E+00;0;  0.0000000E+00;  1.0000000E+04;  0.0000000E+00;  0.0000000E+00;  1.0000000E+04;  0.0000000E+00;  1.0000000E+04;  0.0000000E+00;  0.0000000E+00;  0.0000000E+00;  0.0000000E+00;
  2.1400001E+00;  9.9999998E-03; -3.1999999E-01;860;  0.0000000E+00;  0.0000000E+00;  0.0000000E+00;  1.0000000E+03;  4.0000001E-01;  0.0000000E+00;0;  0.0000000E+00;  0.0000000E+00;  0.0000000E+00;0;  0.0000000E+00;  1.0000000E+04;  0.0000000E+00;  0.0000000E+00;  1.0000000E+04;  0.0000000E+00;  1.0000000E+04;  0.0000000E+00;  0.0000000E+00;  0.0000000E+00;  0.0000000E+00;
  2.1400001E+00;  9.9999998E-03; -3.0000001E-01;861;  0.0000000E+00;  0.0000000E+00;  0.0000000E+00;  1.0000000E+03;  4.0000001E-01;  0.0000000E+00;0;  0.0000000E+00;  0.0000000E+00;  0.0000000E+00;0;  0.0000000E+00;  1.0000000E+04;  0.0000000E+00;  0.0000000E+00;  1.0000000E+04;  0.0000000E+00;  1.0000000E+04;  0.0000000E+00;  0.0000000E+00;  0.0000000E+00;  0.0000000E+00;
  2.1400001E+00;  9.9999998E-03; -2.8000000E-01;862;  0.0000000E+00;  0.0000000E+00;  0.0000000E+00;  1.0000000E+03;  4.0000001E-01;  0.0000000E+00;0;  0.0000000E+00;  0.0000000E+00;  0.0000000E+00;0;  0.0000000E+00;  1.0000000E+04;  0.0000000E+00;  0.0000000E+00;  1.0000000E+04;  0.0000000E+00;  1.0000000E+04;  0.0000000E+00;  0.0000000E+00;  0.0000000E+00;  0.0000000E+00;
  2.1400001E+00;  9.9999998E-03; -2.5999999E-01;863;  0.0000000E+00;  0.0000000E+00;  0.0000000E+00;  1.0000000E+03;  4.0000001E-01;  0.0000000E+00;0;  0.0000000E+00;  0.0000000E+00;  0.0000000E+00;0;  0.0000000E+00;  1.0000000E+04;  0.0000000E+00;  0.0000000E+00;  1.0000000E+04;  0.0000000E+00;  1.0000000E+04;  0.0000000E+00;  0.0000000E+00;  0.0000000E+00;  0.0000000E+00;
  2.1400001E+00;  9.9999998E-03; -2.3999999E-01;864;  0.0000000E+00;  0.0000000E+00;  0.0000000E+00;  1.0000000E+03;  4.0000001E-01;  0.0000000E+00;0;  0.0000000E+00;  0.0000000E+00;  0.0000000E+00;0;  0.0000000E+00;  1.0000000E+04;  0.0000000E+00;  0.0000000E+00;  1.0000000E+04;  0.0000000E+00;  1.0000000E+04;  0.0000000E+00;  0.0000000E+00;  0.0000000E+00;  0.0000000E+00;
  2.1400001E+00;  9.9999998E-03; -2.2000000E-01;865;  0.0000000E+00;  0.0000000E+00;  0.0000000E+00;  1.0000000E+03;  4.0000001E-01;  0.0000000E+00;0;  0.0000000E+00;  0.0000000E+00;  0.0000000E+00;0;  0.0000000E+00;  1.0000000E+04;  0.0000000E+00;  0.0000000E+00;  1.0000000E+04;  0.0000000E+00;  1.0000000E+04;  0.0000000E+00;  0.0000000E+00;  0.0000000E+00;  0.0000000E+00;
  2.1400001E+00;  9.9999998E-03; -2.0000000E-01;866;  0.0000000E+00;  0.0000000E+00;  0.0000000E+00;  1.0000000E+03;  4.0000001E-01;  0.0000000E+00;0;  0.0000000E+00;  0.0000000E+00;  0.0000000E+00;0;  0.0000000E+00;  1.0000000E+04;  0.0000000E+00;  0.0000000E+00;  1.0000000E+04;  0.0000000E+00;  1.0000000E+04;  0.0000000E+00;  0.0000000E+00;  0.0000000E+00;  0.0000000E+00;
  2.1400001E+00;  9.9999998E-03; -1.8000001E-01;867;  0.0000000E+00;  0.0000000E+00;  0.0000000E+00;  1.0000000E+03;  4.0000001E-01;  0.0000000E+00;0;  0.0000000E+00;  0.0000000E+00;  0.0000000E+00;0;  0.0000000E+00;  1.0000000E+04;  0.0000000E+00;  0.0000000E+00;  1.0000000E+04;  0.0000000E+00;  1.0000000E+04;  0.0000000E+00;  0.0000000E+00;  0.0000000E+00;  0.0000000E+00;
  2.1400001E+00;  9.9999998E-03; -1.6000000E-01;868;  0.0000000E+00;  0.0000000E+00;  0.0000000E+00;  1.0000000E+03;  4.0000001E-01;  0.0000000E+00;0;  0.0000000E+00;  0.0000000E+00;  0.0000000E+00;0;  0.0000000E+00;  1.0000000E+04;  0.0000000E+00;  0.0000000E+00;  1.0000000E+04;  0.0000000E+00;  1.0000000E+04;  0.0000000E+00;  0.0000000E+00;  0.0000000E+00;  0.0000000E+00;
  2.1400001E+00;  9.9999998E-03; -1.4000000E-01;869;  0.0000000E+00;  0.0000000E+00;  0.0000000E+00;  1.0000000E+03;  4.0000001E-01;  0.0000000E+00;0;  0.0000000E+00;  0.0000000E+00;  0.0000000E+00;0;  0.0000000E+00;  1.0000000E+04;  0.0000000E+00;  0.0000000E+00;  1.0000000E+04;  0.0000000E+00;  1.0000000E+04;  0.0000000E+00;  0.0000000E+00;  0.0000000E+00;  0.0000000E+00;
  2.1400001E+00;  9.9999998E-03; -1.2000000E-01;870;  0.0000000E+00;  0.0000000E+00;  0.0000000E+00;  1.0000000E+03;  4.0000001E-01;  0.0000000E+00;0;  0.0000000E+00;  0.0000000E+00;  0.0000000E+00;0;  0.0000000E+00;  1.0000000E+04;  0.0000000E+00;  0.0000000E+00;  1.0000000E+04;  0.0000000E+00;  1.0000000E+04;  0.0000000E+00;  0.0000000E+00;  0.0000000E+00;  0.0000000E+00;
  2.1400001E+00;  9.9999998E-03; -1.0000000E-01;871;  0.0000000E+00;  0.0000000E+00;  0.0000000E+00;  1.0000000E+03;  4.0000001E-01;  0.0000000E+00;0;  0.0000000E+00;  0.0000000E+00;  0.0000000E+00;0;  0.0000000E+00;  1.0000000E+04;  0.0000000E+00;  0.0000000E+00;  1.0000000E+04;  0.0000000E+00;  1.0000000E+04;  0.0000000E+00;  0.0000000E+00;  0.0000000E+00;  0.0000000E+00;
  2.1400001E+00;  9.9999998E-03; -7.9999998E-02;872;  0.0000000E+00;  0.0000000E+00;  0.0000000E+00;  1.0000000E+03;  4.0000001E-01;  0.0000000E+00;0;  0.0000000E+00;  0.0000000E+00;  0.0000000E+00;0;  0.0000000E+00;  1.0000000E+04;  0.0000000E+00;  0.0000000E+00;  1.0000000E+04;  0.0000000E+00;  1.0000000E+04;  0.0000000E+00;  0.0000000E+00;  0.0000000E+00;  0.0000000E+00;
  2.1400001E+00;  9.9999998E-03; -5.9999999E-02;873;  0.0000000E+00;  0.0000000E+00;  0.0000000E+00;  1.0000000E+03;  4.0000001E-01;  0.0000000E+00;0;  0.0000000E+00;  0.0000000E+00;  0.0000000E+00;0;  0.0000000E+00;  1.0000000E+04;  0.0000000E+00;  0.0000000E+00;  1.0000000E+04;  0.0000000E+00;  1.0000000E+04;  0.0000000E+00;  0.0000000E+00;  0.0000000E+00;  0.0000000E+00;
  2.1400001E+00;  9.9999998E-03; -3.9999999E-02;874;  0.0000000E+00;  0.0000000E+00;  0.0000000E+00;  1.0000000E+03;  4.0000001E-01;  0.0000000E+00;0;  0.0000000E+00;  0.0000000E+00;  0.0000000E+00;0;  0.0000000E+00;  1.0000000E+04;  0.0000000E+00;  0.0000000E+00;  1.0000000E+04;  0.0000000E+00;  1.0000000E+04;  0.0000000E+00;  0.0000000E+00;  0.0000000E+00;  0.0000000E+00;
  2.1400001E+00;  9.9999998E-03; -2.0000000E-02;875;  0.0000000E+00;  0.0000000E+00;  0.0000000E+00;  1.0000000E+03;  4.0000001E-01;  0.0000000E+00;0;  0.0000000E+00;  0.0000000E+00;  0.0000000E+00;0;  0.0000000E+00;  1.0000000E+04;  0.0000000E+00;  0.0000000E+00;  1.0000000E+04;  0.0000000E+00;  1.0000000E+04;  0.0000000E+00;  0.0000000E+00;  0.0000000E+00;  0.0000000E+00;
  2.1400001E+00;  9.9999998E-03;  0.0000000E+00;876;  0.0000000E+00;  0.0000000E+00;  0.0000000E+00;  1.0000000E+03;  4.0000001E-01;  0.0000000E+00;0;  0.0000000E+00;  0.0000000E+00;  0.0000000E+00;0;  0.0000000E+00;  1.0000000E+04;  0.0000000E+00;  0.0000000E+00;  1.0000000E+04;  0.0000000E+00;  1.0000000E+04;  0.0000000E+00;  0.0000000E+00;  0.0000000E+00;  0.0000000E+00;
  2.1400001E+00;  9.9999998E-03;  2.0000000E-02;877;  0.0000000E+00;  0.0000000E+00;  0.0000000E+00;  1.0000000E+03;  4.0000001E-01;  0.0000000E+00;0;  0.0000000E+00;  0.0000000E+00;  0.0000000E+00;0;  0.0000000E+00;  1.0000000E+04;  0.0000000E+00;  0.0000000E+00;  1.0000000E+04;  0.0000000E+00;  1.0000000E+04;  0.0000000E+00;  0.0000000E+00;  0.0000000E+00;  0.0000000E+00;
  2.1400001E+00;  9.9999998E-03;  3.9999999E-02;878;  0.0000000E+00;  0.0000000E+00;  0.0000000E+00;  1.0000000E+03;  4.0000001E-01;  0.0000000E+00;0;  0.0000000E+00;  0.0000000E+00;  0.0000000E+00;0;  0.0000000E+00;  1.0000000E+04;  0.0000000E+00;  0.0000000E+00;  1.0000000E+04;  0.0000000E+00;  1.0000000E+04;  0.0000000E+00;  0.0000000E+00;  0.0000000E+00;  0.0000000E+00;
  2.1400001E+00;  9.9999998E-03;  5.9999999E-02;879;  0.0000000E+00;  0.0000000E+00;  0.0000000E+00;  1.0000000E+03;  4.0000001E-01;  0.0000000E+00;0;  0.0000000E+00;  0.0000000E+00;  0.0000000E+00;0;  0.0000000E+00;  1.0000000E+04;  0.0000000E+00;  0.0000000E+00;  1.0000000E+04;  0.0000000E+00;  1.0000000E+04;  0.0000000E+00;  0.0000000E+00;  0.0000000E+00;  0.0000000E+00;
  2.1400001E+00;  9.9999998E-03;  7.9999998E-02;880;  0.0000000E+00;  0.0000000E+00;  0.0000000E+00;  1.0000000E+03;  4.0000001E-01;  0.0000000E+00;0;  0.0000000E+00;  0.0000000E+00;  0.0000000E+00;0;  0.0000000E+00;  1.0000000E+04;  0.0000000E+00;  0.0000000E+00;  1.0000000E+04;  0.0000000E+00;  1.0000000E+04;  0.0000000E+00;  0.0000000E+00;  0.0000000E+00;  0.0000000E+00;
  2.1400001E+00;  9.9999998E-03;  1.0000000E-01;881;  0.0000000E+00;  0.0000000E+00;  0.0000000E+00;  1.0000000E+03;  4.0000001E-01;  0.0000000E+00;0;  0.0000000E+00;  0.0000000E+00;  0.0000000E+00;0;  0.0000000E+00;  1.0000000E+04;  0.0000000E+00;  0.0000000E+00;  1.0000000E+04;  0.0000000E+00;  1.0000000E+04;  0.0000000E+00;  0.0000000E+00;  0.0000000E+00;  0.0000000E+00;
  2.1400001E+00;  9.9999998E-03;  1.2000000E-01;882;  0.0000000E+00;  0.0000000E+00;  0.0000000E+00;  1.0000000E+03;  4.0000001E-01;  0.0000000E+00;0;  0.0000000E+00;  0.0000000E+00;  0.0000000E+00;0;  0.0000000E+00;  1.0000000E+04;  0.0000000E+00;  0.0000000E+00;  1.0000000E+04;  0.0000000E+00;  1.0000000E+04;  0.0000000E+00;  0.0000000E+00;  0.0000000E+00;  0.0000000E+00;
  2.1400001E+00;  9.9999998E-03;  1.4000000E-01;883;  0.0000000E+00;  0.0000000E+00;  0.0000000E+00;  1.0000000E+03;  4.0000001E-01;  0.0000000E+00;0;  0.0000000E+00;  0.0000000E+00;  0.0000000E+00;0;  0.0000000E+00;  1.0000000E+04;  0.0000000E+00;  0.0000000E+00;  1.0000000E+04;  0.0000000E+00;  1.0000000E+04;  0.0000000E+00;  0.0000000E+00;  0.0000000E+00;  0.0000000E+00;
  2.1400001E+00;  9.9999998E-03;  1.6000000E-01;884;  0.0000000E+00;  0.0000000E+00;  0.0000000E+00;  1.0000000E+03;  4.0000001E-01;  0.0000000E+00;0;  0.0000000E+00;  0.0000000E+00;  0.0000000E+00;0;  0.0000000E+00;  1.0000000E+04;  0.0000000E+00;  0.0000000E+00;  1.0000000E+04;  0.0000000E+00;  1.0000000E+04;  0.0000000E+00;  0.0000000E+00;  0.0000000E+00;  0.0000000E+00;
  2.1400001E+00;  9.9999998E-03;  1.8000001E-01;885;  0.0000000E+00;  0.0000000E+00;  0.0000000E+00;  1.0000000E+03;  4.0000001E-01;  0.0000000E+00;0;  0.0000000E+00;  0.0000000E+00;  0.0000000E+00;0;  0.0000000E+00;  1.0000000E+04;  0.0000000E+00;  0.0000000E+00;  1.0000000E+04;  0.0000000E+00;  1.0000000E+04;  0.0000000E+00;  0.0000000E+00;  0.0000000E+00;  0.0000000E+00;
  2.1400001E+00;  9.9999998E-03;  2.0000000E-01;886;  0.0000000E+00;  0.0000000E+00;  0.0000000E+00;  1.0000000E+03;  4.0000001E-01;  0.0000000E+00;0;  0.0000000E+00;  0.0000000E+00;  0.0000000E+00;0;  0.0000000E+00;  1.0000000E+04;  0.0000000E+00;  0.0000000E+00;  1.0000000E+04;  0.0000000E+00;  1.0000000E+04;  0.0000000E+00;  0.0000000E+00;  0.0000000E+00;  0.0000000E+00;
  2.1400001E+00;  9.9999998E-03;  2.2000000E-01;887;  0.0000000E+00;  0.0000000E+00;  0.0000000E+00;  1.0000000E+03;  4.0000001E-01;  0.0000000E+00;0;  0.0000000E+00;  0.0000000E+00;  0.0000000E+00;0;  0.0000000E+00;  1.0000000E+04;  0.0000000E+00;  0.0000000E+00;  1.0000000E+04;  0.0000000E+00;  1.0000000E+04;  0.0000000E+00;  0.0000000E+00;  0.0000000E+00;  0.0000000E+00;
  2.1400001E+00;  9.9999998E-03;  2.3999999E-01;888;  0.0000000E+00;  0.0000000E+00;  0.0000000E+00;  1.0000000E+03;  4.0000001E-01;  0.0000000E+00;0;  0.0000000E+00;  0.0000000E+00;  0.0000000E+00;0;  0.0000000E+00;  1.0000000E+04;  0.0000000E+00;  0.0000000E+00;  1.0000000E+04;  0.0000000E+00;  1.0000000E+04;  0.0000000E+00;  0.0000000E+00;  0.0000000E+00;  0.0000000E+00;
  2.1400001E+00;  9.9999998E-03;  2.5999999E-01;889;  0.0000000E+00;  0.0000000E+00;  0.0000000E+00;  1.0000000E+03;  4.0000001E-01;  0.0000000E+00;0;  0.0000000E+00;  0.0000000E+00;  0.0000000E+00;0;  0.0000000E+00;  1.0000000E+04;  0.0000000E+00;  0.0000000E+00;  1.0000000E+04;  0.0000000E+00;  1.0000000E+04;  0.0000000E+00;  0.0000000E+00;  0.0000000E+00;  0.0000000E+00;
  2.1400001E+00;  9.9999998E-03;  2.8000000E-01;890;  0.0000000E+00;  0.0000000E+00;  0.0000000E+00;  1.0000000E+03;  4.0000001E-01;  0.0000000E+00;0;  0.0000000E+00;  0.0000000E+00;  0.0000000E+00;0;  0.0000000E+00;  1.0000000E+04;  0.0000000E+00;  0.0000000E+00;  1.0000000E+04;  0.0000000E+00;  1.0000000E+04;  0.0000000E+00;  0.0000000E+00;  0.0000000E+00;  0.0000000E+00;
  2.1400001E+00;  9.9999998E-03;  3.0000001E-01;891;  0.0000000E+00;  0.0000000E+00;  0.0000000E+00;  1.0000000E+03;  4.0000001E-01;  0.0000000E+00;0;  0.0000000E+00;  0.0000000E+00;  0.0000000E+00;0;  0.0000000E+00;  1.0000000E+04;  0.0000000E+00;  0.0000000E+00;  1.0000000E+04;  0.0000000E+00;  1.0000000E+04;  0.0000000E+00;  0.0000000E+00;  0.0000000E+00;  0.0000000E+00;
  2.1400001E+00;  9.9999998E-03;  3.1999999E-01;892;  0.0000000E+00;  0.0000000E+00;  0.0000000E+00;  1.0000000E+03;  4.0000001E-01;  0.0000000E+00;0;  0.0000000E+00;  0.0000000E+00;  0.0000000E+00;0;  0.0000000E+00;  1.0000000E+04;  0.0000000E+00;  0.0000000E+00;  1.0000000E+04;  0.0000000E+00;  1.0000000E+04;  0.0000000E+00;  0.0000000E+00;  0.0000000E+00;  0.0000000E+00;
  2.1400001E+00;  9.9999998E-03;  3.4000000E-01;893;  0.0000000E+00;  0.0000000E+00;  0.0000000E+00;  1.0000000E+03;  4.0000001E-01;  0.0000000E+00;0;  0.0000000E+00;  0.0000000E+00;  0.0000000E+00;0;  0.0000000E+00;  1.0000000E+04;  0.0000000E+00;  0.0000000E+00;  1.0000000E+04;  0.0000000E+00;  1.0000000E+04;  0.0000000E+00;  0.0000000E+00;  0.0000000E+00;  0.0000000E+00;
  2.1400001E+00;  9.9999998E-03;  3.6000001E-01;894;  0.0000000E+00;  0.0000000E+00;  0.0000000E+00;  1.0000000E+03;  4.0000001E-01;  0.0000000E+00;0;  0.0000000E+00;  0.0000000E+00;  0.0000000E+00;0;  0.0000000E+00;  1.0000000E+04;  0.0000000E+00;  0.0000000E+00;  1.0000000E+04;  0.0000000E+00;  1.0000000E+04;  0.0000000E+00;  0.0000000E+00;  0.0000000E+00;  0.0000000E+00;
  2.1400001E+00;  9.9999998E-03;  3.8000000E-01;895;  0.0000000E+00;  0.0000000E+00;  0.0000000E+00;  1.0000000E+03;  4.0000001E-01;  0.0000000E+00;0;  0.0000000E+00;  0.0000000E+00;  0.0000000E+00;0;  0.0000000E+00;  1.0000000E+04;  0.0000000E+00;  0.0000000E+00;  1.0000000E+04;  0.0000000E+00;  1.0000000E+04;  0.0000000E+00;  0.0000000E+00;  0.0000000E+00;  0.0000000E+00;
  2.1400001E+00;  9.9999998E-03;  4.0000001E-01;896;  0.0000000E+00;  0.0000000E+00;  0.0000000E+00;  1.0000000E+03;  4.0000001E-01;  0.0000000E+00;0;  0.0000000E+00;  0.0000000E+00;  0.0000000E+00;0;  0.0000000E+00;  1.0000000E+04;  0.0000000E+00;  0.0000000E+00;  1.0000000E+04;  0.0000000E+00;  1.0000000E+04;  0.0000000E+00;  0.0000000E+00;  0.0000000E+00;  0.0000000E+00;
  2.1600001E+00;  9.9999998E-03; -2.8000000E-01;897;  0.0000000E+00;  0.0000000E+00;  0.0000000E+00;  1.0000000E+03;  4.0000001E-01;  0.0000000E+00;0;  0.0000000E+00;  0.0000000E+00;  0.0000000E+00;0;  0.0000000E+00;  1.0000000E+04;  0.0000000E+00;  0.0000000E+00;  1.0000000E+04;  0.0000000E+00;  1.0000000E+04;  0.0000000E+00;  0.0000000E+00;  0.0000000E+00;  0.0000000E+00;
  2.1600001E+00;  9.9999998E-03; -2.5999999E-01;898;  0.0000000E+00;  0.0000000E+00;  0.0000000E+00;  1.0000000E+03;  4.0000001E-01;  0.0000000E+00;0;  0.0000000E+00;  0.0000000E+00;  0.0000000E+00;0;  0.0000000E+00;  1.0000000E+04;  0.0000000E+00;  0.0000000E+00;  1.0000000E+04;  0.0000000E+00;  1.0000000E+04;  0.0000000E+00;  0.0000000E+00;  0.0000000E+00;  0.0000000E+00;
  2.1600001E+00;  9.9999998E-03; -2.3999999E-01;899;  0.0000000E+00;  0.0000000E+00;  0.0000000E+00;  1.0000000E+03;  4.0000001E-01;  0.0000000E+00;0;  0.0000000E+00;  0.0000000E+00;  0.0000000E+00;0;  0.0000000E+00;  1.0000000E+04;  0.0000000E+00;  0.0000000E+00;  1.0000000E+04;  0.0000000E+00;  1.0000000E+04;  0.0000000E+00;  0.0000000E+00;  0.0000000E+00;  0.0000000E+00;
  2.1600001E+00;  9.9999998E-03; -2.2000000E-01;900;  0.0000000E+00;  0.0000000E+00;  0.0000000E+00;  1.0000000E+03;  4.0000001E-01;  0.0000000E+00;0;  0.0000000E+00;  0.0000000E+00;  0.0000000E+00;0;  0.0000000E+00;  1.0000000E+04;  0.0000000E+00;  0.0000000E+00;  1.0000000E+04;  0.0000000E+00;  1.0000000E+04;  0.0000000E+00;  0.0000000E+00;  0.0000000E+00;  0.0000000E+00;
  2.1600001E+00;  9.9999998E-03; -2.0000000E-01;901;  0.0000000E+00;  0.0000000E+00;  0.0000000E+00;  1.0000000E+03;  4.0000001E-01;  0.0000000E+00;0;  0.0000000E+00;  0.0000000E+00;  0.0000000E+00;0;  0.0000000E+00;  1.0000000E+04;  0.0000000E+00;  0.0000000E+00;  1.0000000E+04;  0.0000000E+00;  1.0000000E+04;  0.0000000E+00;  0.0000000E+00;  0.0000000E+00;  0.0000000E+00;
  2.1600001E+00;  9.9999998E-03; -1.8000001E-01;902;  0.0000000E+00;  0.0000000E+00;  0.0000000E+00;  1.0000000E+03;  4.0000001E-01;  0.0000000E+00;0;  0.0000000E+00;  0.0000000E+00;  0.0000000E+00;0;  0.0000000E+00;  1.0000000E+04;  0.0000000E+00;  0.0000000E+00;  1.0000000E+04;  0.0000000E+00;  1.0000000E+04;  0.0000000E+00;  0.0000000E+00;  0.0000000E+00;  0.0000000E+00;
  2.1600001E+00;  9.9999998E-03; -1.6000000E-01;903;  0.0000000E+00;  0.0000000E+00;  0.0000000E+00;  1.0000000E+03;  4.0000001E-01;  0.0000000E+00;0;  0.0000000E+00;  0.0000000E+00;  0.0000000E+00;0;  0.0000000E+00;  1.0000000E+04;  0.0000000E+00;  0.0000000E+00;  1.0000000E+04;  0.0000000E+00;  1.0000000E+04;  0.0000000E+00;  0.0000000E+00;  0.0000000E+00;  0.0000000E+00;
  2.1600001E+00;  9.9999998E-03; -1.4000000E-01;904;  0.0000000E+00;  0.0000000E+00;  0.0000000E+00;  1.0000000E+03;  4.0000001E-01;  0.0000000E+00;0;  0.0000000E+00;  0.0000000E+00;  0.0000000E+00;0;  0.0000000E+00;  1.0000000E+04;  0.0000000E+00;  0.0000000E+00;  1.0000000E+04;  0.0000000E+00;  1.0000000E+04;  0.0000000E+00;  0.0000000E+00;  0.0000000E+00;  0.0000000E+00;
  2.1600001E+00;  9.9999998E-03; -1.2000000E-01;905;  0.0000000E+00;  0.0000000E+00;  0.0000000E+00;  1.0000000E+03;  4.0000001E-01;  0.0000000E+00;0;  0.0000000E+00;  0.0000000E+00;  0.0000000E+00;0;  0.0000000E+00;  1.0000000E+04;  0.0000000E+00;  0.0000000E+00;  1.0000000E+04;  0.0000000E+00;  1.0000000E+04;  0.0000000E+00;  0.0000000E+00;  0.0000000E+00;  0.0000000E+00;
  2.1600001E+00;  9.9999998E-03; -1.0000000E-01;906;  0.0000000E+00;  0.0000000E+00;  0.0000000E+00;  1.0000000E+03;  4.0000001E-01;  0.0000000E+00;0;  0.0000000E+00;  0.0000000E+00;  0.0000000E+00;0;  0.0000000E+00;  1.0000000E+04;  0.0000000E+00;  0.0000000E+00;  1.0000000E+04;  0.0000000E+00;  1.0000000E+04;  0.0000000E+00;  0.0000000E+00;  0.0000000E+00;  0.0000000E+00;
  2.1600001E+00;  9.9999998E-03; -7.9999998E-02;907;  0.0000000E+00;  0.0000000E+00;  0.0000000E+00;  1.0000000E+03;  4.0000001E-01;  0.0000000E+00;0;  0.0000000E+00;  0.0000000E+00;  0.0000000E+00;0;  0.0000000E+00;  1.0000000E+04;  0.0000000E+00;  0.0000000E+00;  1.0000000E+04;  0.0000000E+00;  1.0000000E+04;  0.0000000E+00;  0.0000000E+00;  0.0000000E+00;  0.0000000E+00;
  2.1600001E+00;  9.9999998E-03; -5.9999999E-02;908;  0.0000000E+00;  0.0000000E+00;  0.0000000E+00;  1.0000000E+03;  4.0000001E-01;  0.0000000E+00;0;  0.0000000E+00;  0.0000000E+00;  0.0000000E+00;0;  0.0000000E+00;  1.0000000E+04;  0.0000000E+00;  0.0000000E+00;  1.0000000E+04;  0.0000000E+00;  1.0000000E+04;  0.0000000E+00;  0.0000000E+00;  0.0000000E+00;  0.0000000E+00;
  2.1600001E+00;  9.9999998E-03; -3.9999999E-02;909;  0.0000000E+00;  0.0000000E+00;  0.0000000E+00;  1.0000000E+03;  4.0000001E-01;  0.0000000E+00;0;  0.0000000E+00;  0.0000000E+00;  0.0000000E+00;0;  0.0000000E+00;  1.0000000E+04;  0.0000000E+00;  0.0000000E+00;  1.0000000E+04;  0.0000000E+00;  1.0000000E+04;  0.0000000E+00;  0.0000000E+00;  0.0000000E+00;  0.0000000E+00;
  2.1600001E+00;  9.9999998E-03; -2.0000000E-02;910;  0.0000000E+00;  0.0000000E+00;  0.0000000E+00;  1.0000000E+03;  4.0000001E-01;  0.0000000E+00;0;  0.0000000E+00;  0.0000000E+00;  0.0000000E+00;0;  0.0000000E+00;  1.0000000E+04;  0.0000000E+00;  0.0000000E+00;  1.0000000E+04;  0.0000000E+00;  1.0000000E+04;  0.0000000E+00;  0.0000000E+00;  0.0000000E+00;  0.0000000E+00;
  2.1600001E+00;  9.9999998E-03;  0.0000000E+00;911;  0.0000000E+00;  0.0000000E+00;  0.0000000E+00;  1.0000000E+03;  4.0000001E-01;  0.0000000E+00;0;  0.0000000E+00;  0.0000000E+00;  0.0000000E+00;0;  0.0000000E+00;  1.0000000E+04;  0.0000000E+00;  0.0000000E+00;  1.0000000E+04;  0.0000000E+00;  1.0000000E+04;  0.0000000E+00;  0.0000000E+00;  0.0000000E+00;  0.0000000E+00;
  2.1600001E+00;  9.9999998E-03;  2.0000000E-02;912;  0.0000000E+00;  0.0000000E+00;  0.0000000E+00;  1.0000000E+03;  4.0000001E-01;  0.0000000E+00;0;  0.0000000E+00;  0.0000000E+00;  0.0000000E+00;0;  0.0000000E+00;  1.0000000E+04;  0.0000000E+00;  0.0000000E+00;  1.0000000E+04;  0.0000000E+00;  1.0000000E+04;  0.0000000E+00;  0.0000000E+00;  0.0000000E+00;  0.0000000E+00;
  2.1600001E+00;  9.9999998E-03;  3.9999999E-02;913;  0.0000000E+00;  0.0000000E+00;  0.0000000E+00;  1.0000000E+03;  4.0000001E-01;  0.0000000E+00;0;  0.0000000E+00;  0.0000000E+00;  0.0000000E+00;0;  0.0000000E+00;  1.0000000E+04;  0.0000000E+00;  0.0000000E+00;  1.0000000E+04;  0.0000000E+00;  1.0000000E+04;  0.0000000E+00;  0.0000000E+00;  0.0000000E+00;  0.0000000E+00;
  2.1600001E+00;  9.9999998E-03;  5.9999999E-02;914;  0.0000000E+00;  0.0000000E+00;  0.0000000E+00;  1.0000000E+03;  4.0000001E-01;  0.0000000E+00;0;  0.0000000E+00;  0.0000000E+00;  0.0000000E+00;0;  0.0000000E+00;  1.0000000E+04;  0.0000000E+00;  0.0000000E+00;  1.0000000E+04;  0.0000000E+00;  1.0000000E+04;  0.0000000E+00;  0.0000000E+00;  0.0000000E+00;  0.0000000E+00;
  2.1600001E+00;  9.9999998E-03;  7.9999998E-02;915;  0.0000000E+00;  0.0000000E+00;  0.0000000E+00;  1.0000000E+03;  4.0000001E-01;  0.0000000E+00;0;  0.0000000E+00;  0.0000000E+00;  0.0000000E+00;0;  0.0000000E+00;  1.0000000E+04;  0.0000000E+00;  0.0000000E+00;  1.0000000E+04;  0.0000000E+00;  1.0000000E+04;  0.0000000E+00;  0.0000000E+00;  0.0000000E+00;  0.0000000E+00;
  2.1600001E+00;  9.9999998E-03;  1.0000000E-01;916;  0.0000000E+00;  0.0000000E+00;  0.0000000E+00;  1.0000000E+03;  4.0000001E-01;  0.0000000E+00;0;  0.0000000E+00;  0.0000000E+00;  0.0000000E+00;0;  0.0000000E+00;  1.0000000E+04;  0.0000000E+00;  0.0000000E+00;  1.0000000E+04;  0.0000000E+00;  1.0000000E+04;  0.0000000E+00;  0.0000000E+00;  0.0000000E+00;  0.0000000E+00;
  2.1600001E+00;  9.9999998E-03;  1.2000000E-01;917;  0.0000000E+00;  0.0000000E+00;  0.0000000E+00;  1.0000000E+03;  4.0000001E-01;  0.0000000E+00;0;  0.0000000E+00;  0.0000000E+00;  0.0000000E+00;0;  0.0000000E+00;  1.0000000E+04;  0.0000000E+00;  0.0000000E+00;  1.0000000E+04;  0.0000000E+00;  1.0000000E+04;  0.0000000E+00;  0.0000000E+00;  0.0000000E+00;  0.0000000E+00;
  2.1600001E+00;  9.9999998E-03;  1.4000000E-01;918;  0.0000000E+00;  0.0000000E+00;  0.0000000E+00;  1.0000000E+03;  4.0000001E-01;  0.0000000E+00;0;  0.0000000E+00;  0.0000000E+00;  0.0000000E+00;0;  0.0000000E+00;  1.0000000E+04;  0.0000000E+00;  0.0000000E+00;  1.0000000E+04;  0.0000000E+00;  1.0000000E+04;  0.0000000E+00;  0.0000000E+00;  0.0000000E+00;  0.0000000E+00;
  2.1600001E+00;  9.9999998E-03;  1.6000000E-01;919;  0.0000000E+00;  0.0000000E+00;  0.0000000E+00;  1.0000000E+03;  4.0000001E-01;  0.0000000E+00;0;  0.0000000E+00;  0.0000000E+00;  0.0000000E+00;0;  0.0000000E+00;  1.0000000E+04;  0.0000000E+00;  0.0000000E+00;  1.0000000E+04;  0.0000000E+00;  1.0000000E+04;  0.0000000E+00;  0.0000000E+00;  0.0000000E+00;  0.0000000E+00;
  2.1600001E+00;  9.9999998E-03;  1.8000001E-01;920;  0.0000000E+00;  0.0000000E+00;  0.0000000E+00;  1.0000000E+03;  4.0000001E-01;  0.0000000E+00;0;  0.0000000E+00;  0.0000000E+00;  0.0000000E+00;0;  0.0000000E+00;  1.0000000E+04;  0.0000000E+00;  0.0000000E+00;  1.0000000E+04;  0.0000000E+00;  1.0000000E+04;  0.0000000E+00;  0.0000000E+00;  0.0000000E+00;  0.0000000E+00;
  2.1600001E+00;  9.9999998E-03;  2.0000000E-01;921;  0.0000000E+00;  0.0000000E+00;  0.0000000E+00;  1.0000000E+03;  4.0000001E-01;  0.0000000E+00;0;  0.0000000E+00;  0.0000000E+00;  0.0000000E+00;0;  0.0000000E+00;  1.0000000E+04;  0.0000000E+00;  0.0000000E+00;  1.0000000E+04;  0.0000000E+00;  1.0000000E+04;  0.0000000E+00;  0.0000000E+00;  0.0000000E+00;  0.0000000E+00;
  2.1600001E+00;  9.9999998E-03;  2.2000000E-01;922;  0.0000000E+00;  0.0000000E+00;  0.0000000E+00;  1.0000000E+03;  4.0000001E-01;  0.0000000E+00;0;  0.0000000E+00;  0.0000000E+00;  0.0000000E+00;0;  0.0000000E+00;  1.0000000E+04;  0.0000000E+00;  0.0000000E+00;  1.0000000E+04;  0.0000000E+00;  1.0000000E+04;  0.0000000E+00;  0.0000000E+00;  0.0000000E+00;  0.0000000E+00;
  2.1600001E+00;  9.9999998E-03;  2.3999999E-01;923;  0.0000000E+00;  0.0000000E+00;  0.0000000E+00;  1.0000000E+03;  4.0000001E-01;  0.0000000E+00;0;  0.0000000E+00;  0.0000000E+00;  0.0000000E+00;0;  0.0000000E+00;  1.0000000E+04;  0.0000000E+00;  0.0000000E+00;  1.0000000E+04;  0.0000000E+00;  1.0000000E+04;  0.0000000E+00;  0.0000000E+00;  0.0000000E+00;  0.0000000E+00;
  2.1600001E+00;  9.9999998E-03;  2.5999999E-01;924;  0.0000000E+00;  0.0000000E+00;  0.0000000E+00;  1.0000000E+03;  4.0000001E-01;  0.0000000E+00;0;  0.0000000E+00;  0.0000000E+00;  0.0000000E+00;0;  0.0000000E+00;  1.0000000E+04;  0.0000000E+00;  0.0000000E+00;  1.0000000E+04;  0.0000000E+00;  1.0000000E+04;  0.0000000E+00;  0.0000000E+00;  0.0000000E+00;  0.0000000E+00;
  2.1600001E+00;  9.9999998E-03;  2.8000000E-01;925;  0.0000000E+00;  0.0000000E+00;  0.0000000E+00;  1.0000000E+03;  4.0000001E-01;  0.0000000E+00;0;  0.0000000E+00;  0.0000000E+00;  0.0000000E+00;0;  0.0000000E+00;  1.0000000E+04;  0.0000000E+00;  0.0000000E+00;  1.0000000E+04;  0.0000000E+00;  1.0000000E+04;  0.0000000E+00;  0.0000000E+00;  0.0000000E+00;  0.0000000E+00;
  2.1600001E+00;  9.9999998E-03;  3.0000001E-01;926;  0.0000000E+00;  0.0000000E+00;  0.0000000E+00;  1.0000000E+03;  4.0000001E-01;  0.0000000E+00;0;  0.0000000E+00;  0.0000000E+00;  0.0000000E+00;0;  0.0000000E+00;  1.0000000E+04;  0.0000000E+00;  0.0000000E+00;  1.0000000E+04;  0.0000000E+00;  1.0000000E+04;  0.0000000E+00;  0.0000000E+00;  0.0000000E+00;  0.0000000E+00;
  2.1600001E+00;  9.9999998E-03;  3.1999999E-01;927;  0.0000000E+00;  0.0000000E+00;  0.0000000E+00;  1.0000000E+03;  4.0000001E-01;  0.0000000E+00;0;  0.0000000E+00;  0.0000000E+00;  0.0000000E+00;0;  0.0000000E+00;  1.0000000E+04;  0.0000000E+00;  0.0000000E+00;  1.0000000E+04;  0.0000000E+00;  1.0000000E+04;  0.0000000E+00;  0.0000000E+00;  0.0000000E+00;  0.0000000E+00;
  2.1600001E+00;  9.9999998E-03;  3.4000000E-01;928;  0.0000000E+00;  0.0000000E+00;  0.0000000E+00;  1.0000000E+03;  4.0000001E-01;  0.0000000E+00;0;  0.0000000E+00;  0.0000000E+00;  0.0000000E+00;0;  0.0000000E+00;  1.0000000E+04;  0.0000000E+00;  0.0000000E+00;  1.0000000E+04;  0.0000000E+00;  1.0000000E+04;  0.0000000E+00;  0.0000000E+00;  0.0000000E+00;  0.0000000E+00;
  2.1600001E+00;  9.9999998E-03;  3.6000001E-01;929;  0.0000000E+00;  0.0000000E+00;  0.0000000E+00;  1.0000000E+03;  4.0000001E-01;  0.0000000E+00;0;  0.0000000E+00;  0.0000000E+00;  0.0000000E+00;0;  0.0000000E+00;  1.0000000E+04;  0.0000000E+00;  0.0000000E+00;  1.0000000E+04;  0.0000000E+00;  1.0000000E+04;  0.0000000E+00;  0.0000000E+00;  0.0000000E+00;  0.0000000E+00;
  2.1600001E+00;  9.9999998E-03;  3.8000000E-01;930;  0.0000000E+00;  0.0000000E+00;  0.0000000E+00;  1.0000000E+03;  4.0000001E-01;  0.0000000E+00;0;  0.0000000E+00;  0.0000000E+00;  0.0000000E+00;0;  0.0000000E+00;  1.0000000E+04;  0.0000000E+00;  0.0000000E+00;  1.0000000E+04;  0.0000000E+00;  1.0000000E+04;  0.0000000E+00;  0.0000000E+00;  0.0000000E+00;  0.0000000E+00;
  2.1600001E+00;  9.9999998E-03;  4.0000001E-01;931;  0.0000000E+00;  0.0000000E+00;  0.0000000E+00;  1.0000000E+03;  4.0000001E-01;  0.0000000E+00;0;  0.0000000E+00;  0.0000000E+00;  0.0000000E+00;0;  0.0000000E+00;  1.0000000E+04;  0.0000000E+00;  0.0000000E+00;  1.0000000E+04;  0.0000000E+00;  1.0000000E+04;  0.0000000E+00;  0.0000000E+00;  0.0000000E+00;  0.0000000E+00;
  2.1800001E+00;  9.9999998E-03; -1.8000001E-01;932;  0.0000000E+00;  0.0000000E+00;  0.0000000E+00;  1.0000000E+03;  4.0000001E-01;  0.0000000E+00;0;  0.0000000E+00;  0.0000000E+00;  0.0000000E+00;0;  0.0000000E+00;  1.0000000E+04;  0.0000000E+00;  0.0000000E+00;  1.0000000E+04;  0.0000000E+00;  1.0000000E+04;  0.0000000E+00;  0.0000000E+00;  0.0000000E+00;  0.0000000E+00;
  2.1800001E+00;  9.9999998E-03; -1.6000000E-01;933;  0.0000000E+00;  0.0000000E+00;  0.0000000E+00;  1.0000000E+03;  4.0000001E-01;  0.0000000E+00;0;  0.0000000E+00;  0.0000000E+00;  0.0000000E+00;0;  0.0000000E+00;  1.0000000E+04;  0.0000000E+00;  0.0000000E+00;  1.0000000E+04;  0.0000000E+00;  1.0000000E+04;  0.0000000E+00;  0.0000000E+00;  0.0000000E+00;  0.0000000E+00;
  2.1800001E+00;  9.9999998E-03; -1.4000000E-01;934;  0.0000000E+00;  0.0000000E+00;  0.0000000E+00;  1.0000000E+03;  4.0000001E-01;  0.0000000E+00;0;  0.0000000E+00;  0.0000000E+00;  0.0000000E+00;0;  0.0000000E+00;  1.0000000E+04;  0.0000000E+00;  0.0000000E+00;  1.0000000E+04;  0.0000000E+00;  1.0000000E+04;  0.0000000E+00;  0.0000000E+00;  0.0000000E+00;  0.0000000E+00;
  2.1800001E+00;  9.9999998E-03; -1.2000000E-01;935;  0.0000000E+00;  0.0000000E+00;  0.0000000E+00;  1.0000000E+03;  4.0000001E-01;  0.0000000E+00;0;  0.0000000E+00;  0.0000000E+00;  0.0000000E+00;0;  0.0000000E+00;  1.0000000E+04;  0.0000000E+00;  0.0000000E+00;  1.0000000E+04;  0.0000000E+00;  1.0000000E+04;  0.0000000E+00;  0.0000000E+00;  0.0000000E+00;  0.0000000E+00;
  2.1800001E+00;  9.9999998E-03; -1.0000000E-01;936;  0.0000000E+00;  0.0000000E+00;  0.0000000E+00;  1.0000000E+03;  4.0000001E-01;  0.0000000E+00;0;  0.0000000E+00;  0.0000000E+00;  0.0000000E+00;0;  0.0000000E+00;  1.0000000E+04;  0.0000000E+00;  0.0000000E+00;  1.0000000E+04;  0.0000000E+00;  1.0000000E+04;  0.0000000E+00;  0.0000000E+00;  0.0000000E+00;  0.0000000E+00;
  2.1800001E+00;  9.9999998E-03; -7.9999998E-02;937;  0.0000000E+00;  0.0000000E+00;  0.0000000E+00;  1.0000000E+03;  4.0000001E-01;  0.0000000E+00;0;  0.0000000E+00;  0.0000000E+00;  0.0000000E+00;0;  0.0000000E+00;  1.0000000E+04;  0.0000000E+00;  0.0000000E+00;  1.0000000E+04;  0.0000000E+00;  1.0000000E+04;  0.0000000E+00;  0.0000000E+00;  0.0000000E+00;  0.0000000E+00;
  2.1800001E+00;  9.9999998E-03; -5.9999999E-02;938;  0.0000000E+00;  0.0000000E+00;  0.0000000E+00;  1.0000000E+03;  4.0000001E-01;  0.0000000E+00;0;  0.0000000E+00;  0.0000000E+00;  0.0000000E+00;0;  0.0000000E+00;  1.0000000E+04;  0.0000000E+00;  0.0000000E+00;  1.0000000E+04;  0.0000000E+00;  1.0000000E+04;  0.0000000E+00;  0.0000000E+00;  0.0000000E+00;  0.0000000E+00;
  2.1800001E+00;  9.9999998E-03; -3.9999999E-02;939;  0.0000000E+00;  0.0000000E+00;  0.0000000E+00;  1.0000000E+03;  4.0000001E-01;  0.0000000E+00;0;  0.0000000E+00;  0.0000000E+00;  0.0000000E+00;0;  0.0000000E+00;  1.0000000E+04;  0.0000000E+00;  0.0000000E+00;  1.0000000E+04;  0.0000000E+00;  1.0000000E+04;  0.0000000E+00;  0.0000000E+00;  0.0000000E+00;  0.0000000E+00;
  2.1800001E+00;  9.9999998E-03; -2.0000000E-02;940;  0.0000000E+00;  0.0000000E+00;  0.0000000E+00;  1.0000000E+03;  4.0000001E-01;  0.0000000E+00;0;  0.0000000E+00;  0.0000000E+00;  0.0000000E+00;0;  0.0000000E+00;  1.0000000E+04;  0.0000000E+00;  0.0000000E+00;  1.0000000E+04;  0.0000000E+00;  1.0000000E+04;  0.0000000E+00;  0.0000000E+00;  0.0000000E+00;  0.0000000E+00;
  2.1800001E+00;  9.9999998E-03;  0.0000000E+00;941;  0.0000000E+00;  0.0000000E+00;  0.0000000E+00;  1.0000000E+03;  4.0000001E-01;  0.0000000E+00;0;  0.0000000E+00;  0.0000000E+00;  0.0000000E+00;0;  0.0000000E+00;  1.0000000E+04;  0.0000000E+00;  0.0000000E+00;  1.0000000E+04;  0.0000000E+00;  1.0000000E+04;  0.0000000E+00;  0.0000000E+00;  0.0000000E+00;  0.0000000E+00;
  2.1800001E+00;  9.9999998E-03;  2.0000000E-02;942;  0.0000000E+00;  0.0000000E+00;  0.0000000E+00;  1.0000000E+03;  4.0000001E-01;  0.0000000E+00;0;  0.0000000E+00;  0.0000000E+00;  0.0000000E+00;0;  0.0000000E+00;  1.0000000E+04;  0.0000000E+00;  0.0000000E+00;  1.0000000E+04;  0.0000000E+00;  1.0000000E+04;  0.0000000E+00;  0.0000000E+00;  0.0000000E+00;  0.0000000E+00;
  2.1800001E+00;  9.9999998E-03;  3.9999999E-02;943;  0.0000000E+00;  0.0000000E+00;  0.0000000E+00;  1.0000000E+03;  4.0000001E-01;  0.0000000E+00;0;  0.0000000E+00;  0.0000000E+00;  0.0000000E+00;0;  0.0000000E+00;  1.0000000E+04;  0.0000000E+00;  0.0000000E+00;  1.0000000E+04;  0.0000000E+00;  1.0000000E+04;  0.0000000E+00;  0.0000000E+00;  0.0000000E+00;  0.0000000E+00;
  2.1800001E+00;  9.9999998E-03;  5.9999999E-02;944;  0.0000000E+00;  0.0000000E+00;  0.0000000E+00;  1.0000000E+03;  4.0000001E-01;  0.0000000E+00;0;  0.0000000E+00;  0.0000000E+00;  0.0000000E+00;0;  0.0000000E+00;  1.0000000E+04;  0.0000000E+00;  0.0000000E+00;  1.0000000E+04;  0.0000000E+00;  1.0000000E+04;  0.0000000E+00;  0.0000000E+00;  0.0000000E+00;  0.0000000E+00;
  2.1800001E+00;  9.9999998E-03;  7.9999998E-02;945;  0.0000000E+00;  0.0000000E+00;  0.0000000E+00;  1.0000000E+03;  4.0000001E-01;  0.0000000E+00;0;  0.0000000E+00;  0.0000000E+00;  0.0000000E+00;0;  0.0000000E+00;  1.0000000E+04;  0.0000000E+00;  0.0000000E+00;  1.0000000E+04;  0.0000000E+00;  1.0000000E+04;  0.0000000E+00;  0.0000000E+00;  0.0000000E+00;  0.0000000E+00;
  2.1800001E+00;  9.9999998E-03;  1.0000000E-01;946;  0.0000000E+00;  0.0000000E+00;  0.0000000E+00;  1.0000000E+03;  4.0000001E-01;  0.0000000E+00;0;  0.0000000E+00;  0.0000000E+00;  0.0000000E+00;0;  0.0000000E+00;  1.0000000E+04;  0.0000000E+00;  0.0000000E+00;  1.0000000E+04;  0.0000000E+00;  1.0000000E+04;  0.0000000E+00;  0.0000000E+00;  0.0000000E+00;  0.0000000E+00;
  2.1800001E+00;  9.9999998E-03;  1.2000000E-01;947;  0.0000000E+00;  0.0000000E+00;  0.0000000E+00;  1.0000000E+03;  4.0000001E-01;  0.0000000E+00;0;  0.0000000E+00;  0.0000000E+00;  0.0000000E+00;0;  0.0000000E+00;  1.0000000E+04;  0.0000000E+00;  0.0000000E+00;  1.0000000E+04;  0.0000000E+00;  1.0000000E+04;  0.0000000E+00;  0.0000000E+00;  0.0000000E+00;  0.0000000E+00;
  2.1800001E+00;  9.9999998E-03;  1.4000000E-01;948;  0.0000000E+00;  0.0000000E+00;  0.0000000E+00;  1.0000000E+03;  4.0000001E-01;  0.0000000E+00;0;  0.0000000E+00;  0.0000000E+00;  0.0000000E+00;0;  0.0000000E+00;  1.0000000E+04;  0.0000000E+00;  0.0000000E+00;  1.0000000E+04;  0.0000000E+00;  1.0000000E+04;  0.0000000E+00;  0.0000000E+00;  0.0000000E+00;  0.0000000E+00;
  2.1800001E+00;  9.9999998E-03;  1.6000000E-01;949;  0.0000000E+00;  0.0000000E+00;  0.0000000E+00;  1.0000000E+03;  4.0000001E-01;  0.0000000E+00;0;  0.0000000E+00;  0.0000000E+00;  0.0000000E+00;0;  0.0000000E+00;  1.0000000E+04;  0.0000000E+00;  0.0000000E+00;  1.0000000E+04;  0.0000000E+00;  1.0000000E+04;  0.0000000E+00;  0.0000000E+00;  0.0000000E+00;  0.0000000E+00;
  2.1800001E+00;  9.9999998E-03;  1.8000001E-01;950;  0.0000000E+00;  0.0000000E+00;  0.0000000E+00;  1.0000000E+03;  4.0000001E-01;  0.0000000E+00;0;  0.0000000E+00;  0.0000000E+00;  0.0000000E+00;0;  0.0000000E+00;  1.0000000E+04;  0.0000000E+00;  0.0000000E+00;  1.0000000E+04;  0.0000000E+00;  1.0000000E+04;  0.0000000E+00;  0.0000000E+00;  0.0000000E+00;  0.0000000E+00;
  2.1800001E+00;  9.9999998E-03;  2.0000000E-01;951;  0.0000000E+00;  0.0000000E+00;  0.0000000E+00;  1.0000000E+03;  4.0000001E-01;  0.0000000E+00;0;  0.0000000E+00;  0.0000000E+00;  0.0000000E+00;0;  0.0000000E+00;  1.0000000E+04;  0.0000000E+00;  0.0000000E+00;  1.0000000E+04;  0.0000000E+00;  1.0000000E+04;  0.0000000E+00;  0.0000000E+00;  0.0000000E+00;  0.0000000E+00;
  2.1800001E+00;  9.9999998E-03;  2.2000000E-01;952;  0.0000000E+00;  0.0000000E+00;  0.0000000E+00;  1.0000000E+03;  4.0000001E-01;  0.0000000E+00;0;  0.0000000E+00;  0.0000000E+00;  0.0000000E+00;0;  0.0000000E+00;  1.0000000E+04;  0.0000000E+00;  0.0000000E+00;  1.0000000E+04;  0.0000000E+00;  1.0000000E+04;  0.0000000E+00;  0.0000000E+00;  0.0000000E+00;  0.0000000E+00;
  2.1800001E+00;  9.9999998E-03;  2.3999999E-01;953;  0.0000000E+00;  0.0000000E+00;  0.0000000E+00;  1.0000000E+03;  4.0000001E-01;  0.0000000E+00;0;  0.0000000E+00;  0.0000000E+00;  0.0000000E+00;0;  0.0000000E+00;  1.0000000E+04;  0.0000000E+00;  0.0000000E+00;  1.0000000E+04;  0.0000000E+00;  1.0000000E+04;  0.0000000E+00;  0.0000000E+00;  0.0000000E+00;  0.0000000E+00;
  2.1800001E+00;  9.9999998E-03;  2.5999999E-01;954;  0.0000000E+00;  0.0000000E+00;  0.0000000E+00;  1.0000000E+03;  4.0000001E-01;  0.0000000E+00;0;  0.0000000E+00;  0.0000000E+00;  0.0000000E+00;0;  0.0000000E+00;  1.0000000E+04;  0.0000000E+00;  0.0000000E+00;  1.0000000E+04;  0.0000000E+00;  1.0000000E+04;  0.0000000E+00;  0.0000000E+00;  0.0000000E+00;  0.0000000E+00;
  2.1800001E+00;  9.9999998E-03;  2.8000000E-01;955;  0.0000000E+00;  0.0000000E+00;  0.0000000E+00;  1.0000000E+03;  4.0000001E-01;  0.0000000E+00;0;  0.0000000E+00;  0.0000000E+00;  0.0000000E+00;0;  0.0000000E+00;  1.0000000E+04;  0.0000000E+00;  0.0000000E+00;  1.0000000E+04;  0.0000000E+00;  1.0000000E+04;  0.0000000E+00;  0.0000000E+00;  0.0000000E+00;  0.0000000E+00;
  2.1800001E+00;  9.9999998E-03;  3.0000001E-01;956;  0.0000000E+00;  0.0000000E+00;  0.0000000E+00;  1.0000000E+03;  4.0000001E-01;  0.0000000E+00;0;  0.0000000E+00;  0.0000000E+00;  0.0000000E+00;0;  0.0000000E+00;  1.0000000E+04;  0.0000000E+00;  0.0000000E+00;  1.0000000E+04;  0.0000000E+00;  1.0000000E+04;  0.0000000E+00;  0.0000000E+00;  0.0000000E+00;  0.0000000E+00;
  2.1800001E+00;  9.9999998E-03;  3.1999999E-01;957;  0.0000000E+00;  0.0000000E+00;  0.0000000E+00;  1.0000000E+03;  4.0000001E-01;  0.0000000E+00;0;  0.0000000E+00;  0.0000000E+00;  0.0000000E+00;0;  0.0000000E+00;  1.0000000E+04;  0.0000000E+00;  0.0000000E+00;  1.0000000E+04;  0.0000000E+00;  1.0000000E+04;  0.0000000E+00;  0.0000000E+00;  0.0000000E+00;  0.0000000E+00;
  2.1800001E+00;  9.9999998E-03;  3.4000000E-01;958;  0.0000000E+00;  0.0000000E+00;  0.0000000E+00;  1.0000000E+03;  4.0000001E-01;  0.0000000E+00;0;  0.0000000E+00;  0.0000000E+00;  0.0000000E+00;0;  0.0000000E+00;  1.0000000E+04;  0.0000000E+00;  0.0000000E+00;  1.0000000E+04;  0.0000000E+00;  1.0000000E+04;  0.0000000E+00;  0.0000000E+00;  0.0000000E+00;  0.0000000E+00;
  2.1800001E+00;  9.9999998E-03;  3.6000001E-01;959;  0.0000000E+00;  0.0000000E+00;  0.0000000E+00;  1.0000000E+03;  4.0000001E-01;  0.0000000E+00;0;  0.0000000E+00;  0.0000000E+00;  0.0000000E+00;0;  0.0000000E+00;  1.0000000E+04;  0.0000000E+00;  0.0000000E+00;  1.0000000E+04;  0.0000000E+00;  1.0000000E+04;  0.0000000E+00;  0.0000000E+00;  0.0000000E+00;  0.0000000E+00;
  2.1800001E+00;  9.9999998E-03;  3.8000000E-01;960;  0.0000000E+00;  0.0000000E+00;  0.0000000E+00;  1.0000000E+03;  4.0000001E-01;  0.0000000E+00;0;  0.0000000E+00;  0.0000000E+00;  0.0000000E+00;0;  0.0000000E+00;  1.0000000E+04;  0.0000000E+00;  0.0000000E+00;  1.0000000E+04;  0.0000000E+00;  1.0000000E+04;  0.0000000E+00;  0.0000000E+00;  0.0000000E+00;  0.0000000E+00;
  2.1800001E+00;  9.9999998E-03;  4.0000001E-01;961;  0.0000000E+00;  0.0000000E+00;  0.0000000E+00;  1.0000000E+03;  4.0000001E-01;  0.0000000E+00;0;  0.0000000E+00;  0.0000000E+00;  0.0000000E+00;0;  0.0000000E+00;  1.0000000E+04;  0.0000000E+00;  0.0000000E+00;  1.0000000E+04;  0.0000000E+00;  1.0000000E+04;  0.0000000E+00;  0.0000000E+00;  0.0000000E+00;  0.0000000E+00;
  2.2000000E+00;  9.9999998E-03; -7.9999998E-02;962;  0.0000000E+00;  0.0000000E+00;  0.0000000E+00;  1.0000000E+03;  4.0000001E-01;  0.0000000E+00;0;  0.0000000E+00;  0.0000000E+00;  0.0000000E+00;0;  0.0000000E+00;  1.0000000E+04;  0.0000000E+00;  0.0000000E+00;  1.0000000E+04;  0.0000000E+00;  1.0000000E+04;  0.0000000E+00;  0.0000000E+00;  0.0000000E+00;  0.0000000E+00;
  2.2000000E+00;  9.9999998E-03; -5.9999999E-02;963;  0.0000000E+00;  0.0000000E+00;  0.0000000E+00;  1.0000000E+03;  4.0000001E-01;  0.0000000E+00;0;  0.0000000E+00;  0.0000000E+00;  0.0000000E+00;0;  0.0000000E+00;  1.0000000E+04;  0.0000000E+00;  0.0000000E+00;  1.0000000E+04;  0.0000000E+00;  1.0000000E+04;  0.0000000E+00;  0.0000000E+00;  0.0000000E+00;  0.0000000E+00;
  2.2000000E+00;  9.9999998E-03; -3.9999999E-02;964;  0.0000000E+00;  0.0000000E+00;  0.0000000E+00;  1.0000000E+03;  4.0000001E-01;  0.0000000E+00;0;  0.0000000E+00;  0.0000000E+00;  0.0000000E+00;0;  0.0000000E+00;  1.0000000E+04;  0.0000000E+00;  0.0000000E+00;  1.0000000E+04;  0.0000000E+00;  1.0000000E+04;  0.0000000E+00;  0.0000000E+00;  0.0000000E+00;  0.0000000E+00;
  2.2000000E+00;  9.9999998E-03; -2.0000000E-02;965;  0.0000000E+00;  0.0000000E+00;  0.0000000E+00;  1.0000000E+03;  4.0000001E-01;  0.0000000E+00;0;  0.0000000E+00;  0.0000000E+00;  0.0000000E+00;0;  0.0000000E+00;  1.0000000E+04;  0.0000000E+00;  0.0000000E+00;  1.0000000E+04;  0.0000000E+00;  1.0000000E+04;  0.0000000E+00;  0.0000000E+00;  0.0000000E+00;  0.0000000E+00;
  2.2000000E+00;  9.9999998E-03;  0.0000000E+00;966;  0.0000000E+00;  0.0000000E+00;  0.0000000E+00;  1.0000000E+03;  4.0000001E-01;  0.0000000E+00;0;  0.0000000E+00;  0.0000000E+00;  0.0000000E+00;0;  0.0000000E+00;  1.0000000E+04;  0.0000000E+00;  0.0000000E+00;  1.0000000E+04;  0.0000000E+00;  1.0000000E+04;  0.0000000E+00;  0.0000000E+00;  0.0000000E+00;  0.0000000E+00;
  2.2000000E+00;  9.9999998E-03;  2.0000000E-02;967;  0.0000000E+00;  0.0000000E+00;  0.0000000E+00;  1.0000000E+03;  4.0000001E-01;  0.0000000E+00;0;  0.0000000E+00;  0.0000000E+00;  0.0000000E+00;0;  0.0000000E+00;  1.0000000E+04;  0.0000000E+00;  0.0000000E+00;  1.0000000E+04;  0.0000000E+00;  1.0000000E+04;  0.0000000E+00;  0.0000000E+00;  0.0000000E+00;  0.0000000E+00;
  2.2000000E+00;  9.9999998E-03;  3.9999999E-02;968;  0.0000000E+00;  0.0000000E+00;  0.0000000E+00;  1.0000000E+03;  4.0000001E-01;  0.0000000E+00;0;  0.0000000E+00;  0.0000000E+00;  0.0000000E+00;0;  0.0000000E+00;  1.0000000E+04;  0.0000000E+00;  0.0000000E+00;  1.0000000E+04;  0.0000000E+00;  1.0000000E+04;  0.0000000E+00;  0.0000000E+00;  0.0000000E+00;  0.0000000E+00;
  2.2000000E+00;  9.9999998E-03;  5.9999999E-02;969;  0.0000000E+00;  0.0000000E+00;  0.0000000E+00;  1.0000000E+03;  4.0000001E-01;  0.0000000E+00;0;  0.0000000E+00;  0.0000000E+00;  0.0000000E+00;0;  0.0000000E+00;  1.0000000E+04;  0.0000000E+00;  0.0000000E+00;  1.0000000E+04;  0.0000000E+00;  1.0000000E+04;  0.0000000E+00;  0.0000000E+00;  0.0000000E+00;  0.0000000E+00;
  2.2000000E+00;  9.9999998E-03;  7.9999998E-02;970;  0.0000000E+00;  0.0000000E+00;  0.0000000E+00;  1.0000000E+03;  4.0000001E-01;  0.0000000E+00;0;  0.0000000E+00;  0.0000000E+00;  0.0000000E+00;0;  0.0000000E+00;  1.0000000E+04;  0.0000000E+00;  0.0000000E+00;  1.0000000E+04;  0.0000000E+00;  1.0000000E+04;  0.0000000E+00;  0.0000000E+00;  0.0000000E+00;  0.0000000E+00;
  2.2000000E+00;  9.9999998E-03;  1.0000000E-01;971;  0.0000000E+00;  0.0000000E+00;  0.0000000E+00;  1.0000000E+03;  4.0000001E-01;  0.0000000E+00;0;  0.0000000E+00;  0.0000000E+00;  0.0000000E+00;0;  0.0000000E+00;  1.0000000E+04;  0.0000000E+00;  0.0000000E+00;  1.0000000E+04;  0.0000000E+00;  1.0000000E+04;  0.0000000E+00;  0.0000000E+00;  0.0000000E+00;  0.0000000E+00;
  2.2000000E+00;  9.9999998E-03;  1.2000000E-01;972;  0.0000000E+00;  0.0000000E+00;  0.0000000E+00;  1.0000000E+03;  4.0000001E-01;  0.0000000E+00;0;  0.0000000E+00;  0.0000000E+00;  0.0000000E+00;0;  0.0000000E+00;  1.0000000E+04;  0.0000000E+00;  0.0000000E+00;  1.0000000E+04;  0.0000000E+00;  1.0000000E+04;  0.0000000E+00;  0.0000000E+00;  0.0000000E+00;  0.0000000E+00;
  2.2000000E+00;  9.9999998E-03;  1.4000000E-01;973;  0.0000000E+00;  0.0000000E+00;  0.0000000E+00;  1.0000000E+03;  4.0000001E-01;  0.0000000E+00;0;  0.0000000E+00;  0.0000000E+00;  0.0000000E+00;0;  0.0000000E+00;  1.0000000E+04;  0.0000000E+00;  0.0000000E+00;  1.0000000E+04;  0.0000000E+00;  1.0000000E+04;  0.0000000E+00;  0.0000000E+00;  0.0000000E+00;  0.0000000E+00;
  2.2000000E+00;  9.9999998E-03;  1.6000000E-01;974;  0.0000000E+00;  0.0000000E+00;  0.0000000E+00;  1.0000000E+03;  4.0000001E-01;  0.0000000E+00;0;  0.0000000E+00;  0.0000000E+00;  0.0000000E+00;0;  0.0000000E+00;  1.0000000E+04;  0.0000000E+00;  0.0000000E+00;  1.0000000E+04;  0.0000000E+00;  1.0000000E+04;  0.0000000E+00;  0.0000000E+00;  0.0000000E+00;  0.0000000E+00;
  2.2000000E+00;  9.9999998E-03;  1.8000001E-01;975;  0.0000000E+00;  0.0000000E+00;  0.0000000E+00;  1.0000000E+03;  4.0000001E-01;  0.0000000E+00;0;  0.0000000E+00;  0.0000000E+00;  0.0000000E+00;0;  0.0000000E+00;  1.0000000E+04;  0.0000000E+00;  0.0000000E+00;  1.0000000E+04;  0.0000000E+00;  1.0000000E+04;  0.0000000E+00;  0.0000000E+00;  0.0000000E+00;  0.0000000E+00;
  2.2000000E+00;  9.9999998E-03;  2.0000000E-01;976;  0.0000000E+00;  0.0000000E+00;  0.0000000E+00;  1.0000000E+03;  4.0000001E-01;  0.0000000E+00;0;  0.0000000E+00;  0.0000000E+00;  0.0000000E+00;0;  0.0000000E+00;  1.0000000E+04;  0.0000000E+00;  0.0000000E+00;  1.0000000E+04;  0.0000000E+00;  1.0000000E+04;  0.0000000E+00;  0.0000000E+00;  0.0000000E+00;  0.0000000E+00;
  2.2000000E+00;  9.9999998E-03;  2.2000000E-01;977;  0.0000000E+00;  0.0000000E+00;  0.0000000E+00;  1.0000000E+03;  4.0000001E-01;  0.0000000E+00;0;  0.0000000E+00;  0.0000000E+00;  0.0000000E+00;0;  0.0000000E+00;  1.0000000E+04;  0.0000000E+00;  0.0000000E+00;  1.0000000E+04;  0.0000000E+00;  1.0000000E+04;  0.0000000E+00;  0.0000000E+00;  0.0000000E+00;  0.0000000E+00;
  2.2000000E+00;  9.9999998E-03;  2.3999999E-01;978;  0.0000000E+00;  0.0000000E+00;  0.0000000E+00;  1.0000000E+03;  4.0000001E-01;  0.0000000E+00;0;  0.0000000E+00;  0.0000000E+00;  0.0000000E+00;0;  0.0000000E+00;  1.0000000E+04;  0.0000000E+00;  0.0000000E+00;  1.0000000E+04;  0.0000000E+00;  1.0000000E+04;  0.0000000E+00;  0.0000000E+00;  0.0000000E+00;  0.0000000E+00;
  2.2000000E+00;  9.9999998E-03;  2.5999999E-01;979;  0.0000000E+00;  0.0000000E+00;  0.0000000E+00;  1.0000000E+03;  4.0000001E-01;  0.0000000E+00;0;  0.0000000E+00;  0.0000000E+00;  0.0000000E+00;0;  0.0000000E+00;  1.0000000E+04;  0.0000000E+00;  0.0000000E+00;  1.0000000E+04;  0.0000000E+00;  1.0000000E+04;  0.0000000E+00;  0.0000000E+00;  0.0000000E+00;  0.0000000E+00;
  2.2000000E+00;  9.9999998E-03;  2.8000000E-01;980;  0.0000000E+00;  0.0000000E+00;  0.0000000E+00;  1.0000000E+03;  4.0000001E-01;  0.0000000E+00;0;  0.0000000E+00;  0.0000000E+00;  0.0000000E+00;0;  0.0000000E+00;  1.0000000E+04;  0.0000000E+00;  0.0000000E+00;  1.0000000E+04;  0.0000000E+00;  1.0000000E+04;  0.0000000E+00;  0.0000000E+00;  0.0000000E+00;  0.0000000E+00;
  2.2000000E+00;  9.9999998E-03;  3.0000001E-01;981;  0.0000000E+00;  0.0000000E+00;  0.0000000E+00;  1.0000000E+03;  4.0000001E-01;  0.0000000E+00;0;  0.0000000E+00;  0.0000000E+00;  0.0000000E+00;0;  0.0000000E+00;  1.0000000E+04;  0.0000000E+00;  0.0000000E+00;  1.0000000E+04;  0.0000000E+00;  1.0000000E+04;  0.0000000E+00;  0.0000000E+00;  0.0000000E+00;  0.0000000E+00;
  2.2000000E+00;  9.9999998E-03;  3.1999999E-01;982;  0.0000000E+00;  0.0000000E+00;  0.0000000E+00;  1.0000000E+03;  4.0000001E-01;  0.0000000E+00;0;  0.0000000E+00;  0.0000000E+00;  0.0000000E+00;0;  0.0000000E+00;  1.0000000E+04;  0.0000000E+00;  0.0000000E+00;  1.0000000E+04;  0.0000000E+00;  1.0000000E+04;  0.0000000E+00;  0.0000000E+00;  0.0000000E+00;  0.0000000E+00;
  2.2000000E+00;  9.9999998E-03;  3.4000000E-01;983;  0.0000000E+00;  0.0000000E+00;  0.0000000E+00;  1.0000000E+03;  4.0000001E-01;  0.0000000E+00;0;  0.0000000E+00;  0.0000000E+00;  0.0000000E+00;0;  0.0000000E+00;  1.0000000E+04;  0.0000000E+00;  0.0000000E+00;  1.0000000E+04;  0.0000000E+00;  1.0000000E+04;  0.0000000E+00;  0.0000000E+00;  0.0000000E+00;  0.0000000E+00;
  2.2000000E+00;  9.9999998E-03;  3.6000001E-01;984;  0.0000000E+00;  0.0000000E+00;  0.0000000E+00;  1.0000000E+03;  4.0000001E-01;  0.0000000E+00;0;  0.0000000E+00;  0.0000000E+00;  0.0000000E+00;0;  0.0000000E+00;  1.0000000E+04;  0.0000000E+00;  0.0000000E+00;  1.0000000E+04;  0.0000000E+00;  1.0000000E+04;  0.0000000E+00;  0.0000000E+00;  0.0000000E+00;  0.0000000E+00;
  2.2000000E+00;  9.9999998E-03;  3.8000000E-01;985;  0.0000000E+00;  0.0000000E+00;  0.0000000E+00;  1.0000000E+03;  4.0000001E-01;  0.0000000E+00;0;  0.0000000E+00;  0.0000000E+00;  0.0000000E+00;0;  0.0000000E+00;  1.0000000E+04;  0.0000000E+00;  0.0000000E+00;  1.0000000E+04;  0.0000000E+00;  1.0000000E+04;  0.0000000E+00;  0.0000000E+00;  0.0000000E+00;  0.0000000E+00;
  2.2200000E+00;  9.9999998E-03;  2.0000000E-02;986;  0.0000000E+00;  0.0000000E+00;  0.0000000E+00;  1.0000000E+03;  4.0000001E-01;  0.0000000E+00;0;  0.0000000E+00;  0.0000000E+00;  0.0000000E+00;0;  0.0000000E+00;  1.0000000E+04;  0.0000000E+00;  0.0000000E+00;  1.0000000E+04;  0.0000000E+00;  1.0000000E+04;  0.0000000E+00;  0.0000000E+00;  0.0000000E+00;  0.0000000E+00;
  2.2200000E+00;  9.9999998E-03;  3.9999999E-02;987;  0.0000000E+00;  0.0000000E+00;  0.0000000E+00;  1.0000000E+03;  4.0000001E-01;  0.0000000E+00;0;  0.0000000E+00;  0.0000000E+00;  0.0000000E+00;0;  0.0000000E+00;  1.0000000E+04;  0.0000000E+00;  0.0000000E+00;  1.0000000E+04;  0.0000000E+00;  1.0000000E+04;  0.0000000E+00;  0.0000000E+00;  0.0000000E+00;  0.0000000E+00;
  2.2200000E+00;  9.9999998E-03;  5.9999999E-02;988;  0.0000000E+00;  0.0000000E+00;  0.0000000E+00;  1.0000000E+03;  4.0000001E-01;  0.0000000E+00;0;  0.0000000E+00;  0.0000000E+00;  0.0000000E+00;0;  0.0000000E+00;  1.0000000E+04;  0.0000000E+00;  0.0000000E+00;  1.0000000E+04;  0.0000000E+00;  1.0000000E+04;  0.0000000E+00;  0.0000000E+00;  0.0000000E+00;  0.0000000E+00;
  2.2200000E+00;  9.9999998E-03;  7.9999998E-02;989;  0.0000000E+00;  0.0000000E+00;  0.0000000E+00;  1.0000000E+03;  4.0000001E-01;  0.0000000E+00;0;  0.0000000E+00;  0.0000000E+00;  0.0000000E+00;0;  0.0000000E+00;  1.0000000E+04;  0.0000000E+00;  0.0000000E+00;  1.0000000E+04;  0.0000000E+00;  1.0000000E+04;  0.0000000E+00;  0.0000000E+00;  0.0000000E+00;  0.0000000E+00;
  2.2200000E+00;  9.9999998E-03;  1.0000000E-01;990;  0.0000000E+00;  0.0000000E+00;  0.0000000E+00;  1.0000000E+03;  4.0000001E-01;  0.0000000E+00;0;  0.0000000E+00;  0.0000000E+00;  0.0000000E+00;0;  0.0000000E+00;  1.0000000E+04;  0.0000000E+00;  0.0000000E+00;  1.0000000E+04;  0.0000000E+00;  1.0000000E+04;  0.0000000E+00;  0.0000000E+00;  0.0000000E+00;  0.0000000E+00;
  2.2200000E+00;  9.9999998E-03;  1.2000000E-01;991;  0.0000000E+00;  0.0000000E+00;  0.0000000E+00;  1.0000000E+03;  4.0000001E-01;  0.0000000E+00;0;  0.0000000E+00;  0.0000000E+00;  0.0000000E+00;0;  0.0000000E+00;  1.0000000E+04;  0.0000000E+00;  0.0000000E+00;  1.0000000E+04;  0.0000000E+00;  1.0000000E+04;  0.0000000E+00;  0.0000000E+00;  0.0000000E+00;  0.0000000E+00;
  2.2200000E+00;  9.9999998E-03;  1.4000000E-01;992;  0.0000000E+00;  0.0000000E+00;  0.0000000E+00;  1.0000000E+03;  4.0000001E-01;  0.0000000E+00;0;  0.0000000E+00;  0.0000000E+00;  0.0000000E+00;0;  0.0000000E+00;  1.0000000E+04;  0.0000000E+00;  0.0000000E+00;  1.0000000E+04;  0.0000000E+00;  1.0000000E+04;  0.0000000E+00;  0.0000000E+00;  0.0000000E+00;  0.0000000E+00;
  2.2200000E+00;  9.9999998E-03;  1.6000000E-01;993;  0.0000000E+00;  0.0000000E+00;  0.0000000E+00;  1.0000000E+03;  4.0000001E-01;  0.0000000E+00;0;  0.0000000E+00;  0.0000000E+00;  0.0000000E+00;0;  0.0000000E+00;  1.0000000E+04;  0.0000000E+00;  0.0000000E+00;  1.0000000E+04;  0.0000000E+00;  1.0000000E+04;  0.0000000E+00;  0.0000000E+00;  0.0000000E+00;  0.0000000E+00;
  2.2200000E+00;  9.9999998E-03;  1.8000001E-01;994;  0.0000000E+00;  0.0000000E+00;  0.0000000E+00;  1.0000000E+03;  4.0000001E-01;  0.0000000E+00;0;  0.0000000E+00;  0.0000000E+00;  0.0000000E+00;0;  0.0000000E+00;  1.0000000E+04;  0.0000000E+00;  0.0000000E+00;  1.0000000E+04;  0.0000000E+00;  1.0000000E+04;  0.0000000E+00;  0.0000000E+00;  0.0000000E+00;  0.0000000E+00;
  2.2200000E+00;  9.9999998E-03;  2.0000000E-01;995;  0.0000000E+00;  0.0000000E+00;  0.0000000E+00;  1.0000000E+03;  4.0000001E-01;  0.0000000E+00;0;  0.0000000E+00;  0.0000000E+00;  0.0000000E+00;0;  0.0000000E+00;  1.0000000E+04;  0.0000000E+00;  0.0000000E+00;  1.0000000E+04;  0.0000000E+00;  1.0000000E+04;  0.0000000E+00;  0.0000000E+00;  0.0000000E+00;  0.0000000E+00;
  2.2200000E+00;  9.9999998E-03;  2.2000000E-01;996;  0.0000000E+00;  0.0000000E+00;  0.0000000E+00;  1.0000000E+03;  4.0000001E-01;  0.0000000E+00;0;  0.0000000E+00;  0.0000000E+00;  0.0000000E+00;0;  0.0000000E+00;  1.0000000E+04;  0.0000000E+00;  0.0000000E+00;  1.0000000E+04;  0.0000000E+00;  1.0000000E+04;  0.0000000E+00;  0.0000000E+00;  0.0000000E+00;  0.0000000E+00;
  2.2200000E+00;  9.9999998E-03;  2.3999999E-01;997;  0.0000000E+00;  0.0000000E+00;  0.0000000E+00;  1.0000000E+03;  4.0000001E-01;  0.0000000E+00;0;  0.0000000E+00;  0.0000000E+00;  0.0000000E+00;0;  0.0000000E+00;  1.0000000E+04;  0.0000000E+00;  0.0000000E+00;  1.0000000E+04;  0.0000000E+00;  1.0000000E+04;  0.0000000E+00;  0.0000000E+00;  0.0000000E+00;  0.0000000E+00;
  2.2200000E+00;  9.9999998E-03;  2.5999999E-01;998;  0.0000000E+00;  0.0000000E+00;  0.0000000E+00;  1.0000000E+03;  4.0000001E-01;  0.0000000E+00;0;  0.0000000E+00;  0.0000000E+00;  0.0000000E+00;0;  0.0000000E+00;  1.0000000E+04;  0.0000000E+00;  0.0000000E+00;  1.0000000E+04;  0.0000000E+00;  1.0000000E+04;  0.0000000E+00;  0.0000000E+00;  0.0000000E+00;  0.0000000E+00;
  2.2200000E+00;  9.9999998E-03;  2.8000000E-01;999;  0.0000000E+00;  0.0000000E+00;  0.0000000E+00;  1.0000000E+03;  4.0000001E-01;  0.0000000E+00;0;  0.0000000E+00;  0.0000000E+00;  0.0000000E+00;0;  0.0000000E+00;  1.0000000E+04;  0.0000000E+00;  0.0000000E+00;  1.0000000E+04;  0.0000000E+00;  1.0000000E+04;  0.0000000E+00;  0.0000000E+00;  0.0000000E+00;  0.0000000E+00;
  2.2200000E+00;  9.9999998E-03;  3.0000001E-01;1000;  0.0000000E+00;  0.0000000E+00;  0.0000000E+00;  1.0000000E+03;  4.0000001E-01;  0.0000000E+00;0;  0.0000000E+00;  0.0000000E+00;  0.0000000E+00;0;  0.0000000E+00;  1.0000000E+04;  0.0000000E+00;  0.0000000E+00;  1.0000000E+04;  0.0000000E+00;  1.0000000E+04;  0.0000000E+00;  0.0000000E+00;  0.0000000E+00;  0.0000000E+00;
  2.2200000E+00;  9.9999998E-03;  3.1999999E-01;1001;  0.0000000E+00;  0.0000000E+00;  0.0000000E+00;  1.0000000E+03;  4.0000001E-01;  0.0000000E+00;0;  0.0000000E+00;  0.0000000E+00;  0.0000000E+00;0;  0.0000000E+00;  1.0000000E+04;  0.0000000E+00;  0.0000000E+00;  1.0000000E+04;  0.0000000E+00;  1.0000000E+04;  0.0000000E+00;  0.0000000E+00;  0.0000000E+00;  0.0000000E+00;
  2.2200000E+00;  9.9999998E-03;  3.4000000E-01;1002;  0.0000000E+00;  0.0000000E+00;  0.0000000E+00;  1.0000000E+03;  4.0000001E-01;  0.0000000E+00;0;  0.0000000E+00;  0.0000000E+00;  0.0000000E+00;0;  0.0000000E+00;  1.0000000E+04;  0.0000000E+00;  0.0000000E+00;  1.0000000E+04;  0.0000000E+00;  1.0000000E+04;  0.0000000E+00;  0.0000000E+00;  0.0000000E+00;  0.0000000E+00;
  2.2200000E+00;  9.9999998E-03;  3.6000001E-01;1003;  0.0000000E+00;  0.0000000E+00;  0.0000000E+00;  1.0000000E+03;  4.0000001E-01;  0.0000000E+00;0;  0.0000000E+00;  0.0000000E+00;  0.0000000E+00;0;  0.0000000E+00;  1.0000000E+04;  0.0000000E+00;  0.0000000E+00;  1.0000000E+04;  0.0000000E+00;  1.0000000E+04;  0.0000000E+00;  0.0000000E+00;  0.0000000E+00;  0.0000000E+00;
  2.2200000E+00;  9.9999998E-03;  3.8000000E-01;1004;  0.0000000E+00;  0.0000000E+00;  0.0000000E+00;  1.0000000E+03;  4.0000001E-01;  0.0000000E+00;0;  0.0000000E+00;  0.0000000E+00;  0.0000000E+00;0;  0.0000000E+00;  1.0000000E+04;  0.0000000E+00;  0.0000000E+00;  1.0000000E+04;  0.0000000E+00;  1.0000000E+04;  0.0000000E+00;  0.0000000E+00;  0.0000000E+00;  0.0000000E+00;
  2.2400000E+00;  9.9999998E-03;  1.2000000E-01;1005;  0.0000000E+00;  0.0000000E+00;  0.0000000E+00;  1.0000000E+03;  4.0000001E-01;  0.0000000E+00;0;  0.0000000E+00;  0.0000000E+00;  0.0000000E+00;0;  0.0000000E+00;  1.0000000E+04;  0.0000000E+00;  0.0000000E+00;  1.0000000E+04;  0.0000000E+00;  1.0000000E+04;  0.0000000E+00;  0.0000000E+00;  0.0000000E+00;  0.0000000E+00;
  2.2400000E+00;  9.9999998E-03;  1.4000000E-01;1006;  0.0000000E+00;  0.0000000E+00;  0.0000000E+00;  1.0000000E+03;  4.0000001E-01;  0.0000000E+00;0;  0.0000000E+00;  0.0000000E+00;  0.0000000E+00;0;  0.0000000E+00;  1.0000000E+04;  0.0000000E+00;  0.0000000E+00;  1.0000000E+04;  0.0000000E+00;  1.0000000E+04;  0.0000000E+00;  0.0000000E+00;  0.0000000E+00;  0.0000000E+00;
  2.2400000E+00;  9.9999998E-03;  1.6000000E-01;1007;  0.0000000E+00;  0.0000000E+00;  0.0000000E+00;  1.0000000E+03;  4.0000001E-01;  0.0000000E+00;0;  0.0000000E+00;  0.0000000E+00;  0.0000000E+00;0;  0.0000000E+00;  1.0000000E+04;  0.0000000E+00;  0.0000000E+00;  1.0000000E+04;  0.0000000E+00;  1.0000000E+04;  0.0000000E+00;  0.0000000E+00;  0.0000000E+00;  0.0000000E+00;
  2.2400000E+00;  9.9999998E-03;  1.8000001E-01;1008;  0.0000000E+00;  0.0000000E+00;  0.0000000E+00;  1.0000000E+03;  4.0000001E-01;  0.0000000E+00;0;  0.0000000E+00;  0.0000000E+00;  0.0000000E+00;0;  0.0000000E+00;  1.0000000E+04;  0.0000000E+00;  0.0000000E+00;  1.0000000E+04;  0.0000000E+00;  1.0000000E+04;  0.0000000E+00;  0.0000000E+00;  0.0000000E+00;  0.0000000E+00;
  2.2400000E+00;  9.9999998E-03;  2.0000000E-01;1009;  0.0000000E+00;  0.0000000E+00;  0.0000000E+00;  1.0000000E+03;  4.0000001E-01;  0.0000000E+00;0;  0.0000000E+00;  0.0000000E+00;  0.0000000E+00;0;  0.0000000E+00;  1.0000000E+04;  0.0000000E+00;  0.0000000E+00;  1.0000000E+04;  0.0000000E+00;  1.0000000E+04;  0.0000000E+00;  0.0000000E+00;  0.0000000E+00;  0.0000000E+00;
  2.2400000E+00;  9.9999998E-03;  2.2000000E-01;1010;  0.0000000E+00;  0.0000000E+00;  0.0000000E+00;  1.0000000E+03;  4.0000001E-01;  0.0000000E+00;0;  0.0000000E+00;  0.0000000E+00;  0.0000000E+00;0;  0.0000000E+00;  1.0000000E+04;  0.0000000E+00;  0.0000000E+00;  1.0000000E+04;  0.0000000E+00;  1.0000000E+04;  0.0000000E+00;  0.0000000E+00;  0.0000000E+00;  0.0000000E+00;
  2.2400000E+00;  9.9999998E-03;  2.3999999E-01;1011;  0.0000000E+00;  0.0000000E+00;  0.0000000E+00;  1.0000000E+03;  4.0000001E-01;  0.0000000E+00;0;  0.0000000E+00;  0.0000000E+00;  0.0000000E+00;0;  0.0000000E+00;  1.0000000E+04;  0.0000000E+00;  0.0000000E+00;  1.0000000E+04;  0.0000000E+00;  1.0000000E+04;  0.0000000E+00;  0.0000000E+00;  0.0000000E+00;  0.0000000E+00;
  2.2400000E+00;  9.9999998E-03;  2.5999999E-01;1012;  0.0000000E+00;  0.0000000E+00;  0.0000000E+00;  1.0000000E+03;  4.0000001E-01;  0.0000000E+00;0;  0.0000000E+00;  0.0000000E+00;  0.0000000E+00;0;  0.0000000E+00;  1.0000000E+04;  0.0000000E+00;  0.0000000E+00;  1.0000000E+04;  0.0000000E+00;  1.0000000E+04;  0.0000000E+00;  0.0000000E+00;  0.0000000E+00;  0.0000000E+00;
  2.2400000E+00;  9.9999998E-03;  2.8000000E-01;1013;  0.0000000E+00;  0.0000000E+00;  0.0000000E+00;  1.0000000E+03;  4.0000001E-01;  0.0000000E+00;0;  0.0000000E+00;  0.0000000E+00;  0.0000000E+00;0;  0.0000000E+00;  1.0000000E+04;  0.0000000E+00;  0.0000000E+00;  1.0000000E+04;  0.0000000E+00;  1.0000000E+04;  0.0000000E+00;  0.0000000E+00;  0.0000000E+00;  0.0000000E+00;
  2.2400000E+00;  9.9999998E-03;  3.0000001E-01;1014;  0.0000000E+00;  0.0000000E+00;  0.0000000E+00;  1.0000000E+03;  4.0000001E-01;  0.0000000E+00;0;  0.0000000E+00;  0.0000000E+00;  0.0000000E+00;0;  0.0000000E+00;  1.0000000E+04;  0.0000000E+00;  0.0000000E+00;  1.0000000E+04;  0.0000000E+00;  1.0000000E+04;  0.0000000E+00;  0.0000000E+00;  0.0000000E+00;  0.0000000E+00;
  2.2400000E+00;  9.9999998E-03;  3.1999999E-01;1015;  0.0000000E+00;  0.0000000E+00;  0.0000000E+00;  1.0000000E+03;  4.0000001E-01;  0.0000000E+00;0;  0.0000000E+00;  0.0000000E+00;  0.0000000E+00;0;  0.0000000E+00;  1.0000000E+04;  0.0000000E+00;  0.0000000E+00;  1.0000000E+04;  0.0000000E+00;  1.0000000E+04;  0.0000000E+00;  0.0000000E+00;  0.0000000E+00;  0.0000000E+00;
  2.2400000E+00;  9.9999998E-03;  3.4000000E-01;1016;  0.0000000E+00;  0.0000000E+00;  0.0000000E+00;  1.0000000E+03;  4.0000001E-01;  0.0000000E+00;0;  0.0000000E+00;  0.0000000E+00;  0.0000000E+00;0;  0.0000000E+00;  1.0000000E+04;  0.0000000E+00;  0.0000000E+00;  1.0000000E+04;  0.0000000E+00;  1.0000000E+04;  0.0000000E+00;  0.0000000E+00;  0.0000000E+00;  0.0000000E+00;
  2.2400000E+00;  9.9999998E-03;  3.6000001E-01;1017;  0.0000000E+00;  0.0000000E+00;  0.0000000E+00;  1.0000000E+03;  4.0000001E-01;  0.0000000E+00;0;  0.0000000E+00;  0.0000000E+00;  0.0000000E+00;0;  0.0000000E+00;  1.0000000E+04;  0.0000000E+00;  0.0000000E+00;  1.0000000E+04;  0.0000000E+00;  1.0000000E+04;  0.0000000E+00;  0.0000000E+00;  0.0000000E+00;  0.0000000E+00;
  2.2400000E+00;  9.9999998E-03;  3.8000000E-01;1018;  0.0000000E+00;  0.0000000E+00;  0.0000000E+00;  1.0000000E+03;  4.0000001E-01;  0.0000000E+00;0;  0.0000000E+00;  0.0000000E+00;  0.0000000E+00;0;  0.0000000E+00;  1.0000000E+04;  0.0000000E+00;  0.0000000E+00;  1.0000000E+04;  0.0000000E+00;  1.0000000E+04;  0.0000000E+00;  0.0000000E+00;  0.0000000E+00;  0.0000000E+00;
  2.2600000E+00;  9.9999998E-03;  2.2000000E-01;1019;  0.0000000E+00;  0.0000000E+00;  0.0000000E+00;  1.0000000E+03;  4.0000001E-01;  0.0000000E+00;0;  0.0000000E+00;  0.0000000E+00;  0.0000000E+00;0;  0.0000000E+00;  1.0000000E+04;  0.0000000E+00;  0.0000000E+00;  1.0000000E+04;  0.0000000E+00;  1.0000000E+04;  0.0000000E+00;  0.0000000E+00;  0.0000000E+00;  0.0000000E+00;
  2.2600000E+00;  9.9999998E-03;  2.3999999E-01;1020;  0.0000000E+00;  0.0000000E+00;  0.0000000E+00;  1.0000000E+03;  4.0000001E-01;  0.0000000E+00;0;  0.0000000E+00;  0.0000000E+00;  0.0000000E+00;0;  0.0000000E+00;  1.0000000E+04;  0.0000000E+00;  0.0000000E+00;  1.0000000E+04;  0.0000000E+00;  1.0000000E+04;  0.0000000E+00;  0.0000000E+00;  0.0000000E+00;  0.0000000E+00;
  2.2600000E+00;  9.9999998E-03;  2.5999999E-01;1021;  0.0000000E+00;  0.0000000E+00;  0.0000000E+00;  1.0000000E+03;  4.0000001E-01;  0.0000000E+00;0;  0.0000000E+00;  0.0000000E+00;  0.0000000E+00;0;  0.0000000E+00;  1.0000000E+04;  0.0000000E+00;  0.0000000E+00;  1.0000000E+04;  0.0000000E+00;  1.0000000E+04;  0.0000000E+00;  0.0000000E+00;  0.0000000E+00;  0.0000000E+00;
  2.2600000E+00;  9.9999998E-03;  2.8000000E-01;1022;  0.0000000E+00;  0.0000000E+00;  0.0000000E+00;  1.0000000E+03;  4.0000001E-01;  0.0000000E+00;0;  0.0000000E+00;  0.0000000E+00;  0.0000000E+00;0;  0.0000000E+00;  1.0000000E+04;  0.0000000E+00;  0.0000000E+00;  1.0000000E+04;  0.0000000E+00;  1.0000000E+04;  0.0000000E+00;  0.0000000E+00;  0.0000000E+00;  0.0000000E+00;
  2.2600000E+00;  9.9999998E-03;  3.0000001E-01;1023;  0.0000000E+00;  0.0000000E+00;  0.0000000E+00;  1.0000000E+03;  4.0000001E-01;  0.0000000E+00;0;  0.0000000E+00;  0.0000000E+00;  0.0000000E+00;0;  0.0000000E+00;  1.0000000E+04;  0.0000000E+00;  0.0000000E+00;  1.0000000E+04;  0.0000000E+00;  1.0000000E+04;  0.0000000E+00;  0.0000000E+00;  0.0000000E+00;  0.0000000E+00;
  2.2600000E+00;  9.9999998E-03;  3.1999999E-01;1024;  0.0000000E+00;  0.0000000E+00;  0.0000000E+00;  1.0000000E+03;  4.0000001E-01;  0.0000000E+00;0;  0.0000000E+00;  0.0000000E+00;  0.0000000E+00;0;  0.0000000E+00;  1.0000000E+04;  0.0000000E+00;  0.0000000E+00;  1.0000000E+04;  0.0000000E+00;  1.0000000E+04;  0.0000000E+00;  0.0000000E+00;  0.0000000E+00;  0.0000000E+00;
  2.2600000E+00;  9.9999998E-03;  3.4000000E-01;1025;  0.0000000E+00;  0.0000000E+00;  0.0000000E+00;  1.0000000E+03;  4.0000001E-01;  0.0000000E+00;0;  0.0000000E+00;  0.0000000E+00;  0.0000000E+00;0;  0.0000000E+00;  1.0000000E+04;  0.0000000E+00;  0.0000000E+00;  1.0000000E+04;  0.0000000E+00;  1.0000000E+04;  0.0000000E+00;  0.0000000E+00;  0.0000000E+00;  0.0000000E+00;
  2.2600000E+00;  9.9999998E-03;  3.6000001E-01;1026;  0.0000000E+00;  0.0000000E+00;  0.0000000E+00;  1.0000000E+03;  4.0000001E-01;  0.0000000E+00;0;  0.0000000E+00;  0.0000000E+00;  0.0000000E+00;0;  0.0000000E+00;  1.0000000E+04;  0.0000000E+00;  0.0000000E+00;  1.0000000E+04;  0.0000000E+00;  1.0000000E+04;  0.0000000E+00;  0.0000000E+00;  0.0000000E+00;  0.0000000E+00;
  2.2600000E+00;  9.9999998E-03;  3.8000000E-01;1027;  0.0000000E+00;  0.0000000E+00;  0.0000000E+00;  1.0000000E+03;  4.0000001E-01;  0.0000000E+00;0;  0.0000000E+00;  0.0000000E+00;  0.0000000E+00;0;  0.0000000E+00;  1.0000000E+04;  0.0000000E+00;  0.0000000E+00;  1.0000000E+04;  0.0000000E+00;  1.0000000E+04;  0.0000000E+00;  0.0000000E+00;  0.0000000E+00;  0.0000000E+00;
  2.2800000E+00;  9.9999998E-03;  3.1999999E-01;1028;  0.0000000E+00;  0.0000000E+00;  0.0000000E+00;  1.0000000E+03;  4.0000001E-01;  0.0000000E+00;0;  0.0000000E+00;  0.0000000E+00;  0.0000000E+00;0;  0.0000000E+00;  1.0000000E+04;  0.0000000E+00;  0.0000000E+00;  1.0000000E+04;  0.0000000E+00;  1.0000000E+04;  0.0000000E+00;  0.0000000E+00;  0.0000000E+00;  0.0000000E+00;
  2.2800000E+00;  9.9999998E-03;  3.4000000E-01;1029;  0.0000000E+00;  0.0000000E+00;  0.0000000E+00;  1.0000000E+03;  4.0000001E-01;  0.0000000E+00;0;  0.0000000E+00;  0.0000000E+00;  0.0000000E+00;0;  0.0000000E+00;  1.0000000E+04;  0.0000000E+00;  0.0000000E+00;  1.0000000E+04;  0.0000000E+00;  1.0000000E+04;  0.0000000E+00;  0.0000000E+00;  0.0000000E+00;  0.0000000E+00;
  2.2800000E+00;  9.9999998E-03;  3.6000001E-01;1030;  0.0000000E+00;  0.0000000E+00;  0.0000000E+00;  1.0000000E+03;  4.0000001E-01;  0.0000000E+00;0;  0.0000000E+00;  0.0000000E+00;  0.0000000E+00;0;  0.0000000E+00;  1.0000000E+04;  0.0000000E+00;  0.0000000E+00;  1.0000000E+04;  0.0000000E+00;  1.0000000E+04;  0.0000000E+00;  0.0000000E+00;  0.0000000E+00;  0.0000000E+00;
  0.0000000E+00;  9.9999998E-03; -2.8000000E-01;1031;  0.0000000E+00;  0.0000000E+00;  0.0000000E+00;  1.0000000E+03;  4.0000001E-01;  0.0000000E+00;3;  0.0000000E+00;  0.0000000E+00;  0.0000000E+00;0;  0.0000000E+00;  1.0000000E+04;  0.0000000E+00;  0.0000000E+00;  1.0000000E+04;  0.0000000E+00;  1.0000000E+04;  0.0000000E+00;  0.0000000E+00;  0.0000000E+00;  0.0000000E+00;
  0.0000000E+00;  9.9999998E-03; -2.5999999E-01;1032;  0.0000000E+00;  0.0000000E+00;  0.0000000E+00;  1.0000000E+03;  4.0000001E-01;  0.0000000E+00;3;  0.0000000E+00;  0.0000000E+00;  0.0000000E+00;0;  0.0000000E+00;  1.0000000E+04;  0.0000000E+00;  0.0000000E+00;  1.0000000E+04;  0.0000000E+00;  1.0000000E+04;  0.0000000E+00;  0.0000000E+00;  0.0000000E+00;  0.0000000E+00;
  0.0000000E+00;  9.9999998E-03; -2.3999999E-01;1033;  0.0000000E+00;  0.0000000E+00;  0.0000000E+00;  1.0000000E+03;  4.0000001E-01;  0.0000000E+00;3;  0.0000000E+00;  0.0000000E+00;  0.0000000E+00;0;  0.0000000E+00;  1.0000000E+04;  0.0000000E+00;  0.0000000E+00;  1.0000000E+04;  0.0000000E+00;  1.0000000E+04;  0.0000000E+00;  0.0000000E+00;  0.0000000E+00;  0.0000000E+00;
  0.0000000E+00;  9.9999998E-03; -2.2000000E-01;1034;  0.0000000E+00;  0.0000000E+00;  0.0000000E+00;  1.0000000E+03;  4.0000001E-01;  0.0000000E+00;3;  0.0000000E+00;  0.0000000E+00;  0.0000000E+00;0;  0.0000000E+00;  1.0000000E+04;  0.0000000E+00;  0.0000000E+00;  1.0000000E+04;  0.0000000E+00;  1.0000000E+04;  0.0000000E+00;  0.0000000E+00;  0.0000000E+00;  0.0000000E+00;
  0.0000000E+00;  9.9999998E-03; -2.0000000E-01;1035;  0.0000000E+00;  0.0000000E+00;  0.0000000E+00;  1.0000000E+03;  4.0000001E-01;  0.0000000E+00;3;  0.0000000E+00;  0.0000000E+00;  0.0000000E+00;0;  0.0000000E+00;  1.0000000E+04;  0.0000000E+00;  0.0000000E+00;  1.0000000E+04;  0.0000000E+00;  1.0000000E+04;  0.0000000E+00;  0.0000000E+00;  0.0000000E+00;  0.0000000E+00;
  2.0000000E-02;  9.9999998E-03; -3.0000001E-01;1060;  0.0000000E+00;  0.0000000E+00;  0.0000000E+00;  1.0000000E+03;  4.0000001E-01;  0.0000000E+00;3;  0.0000000E+00;  0.0000000E+00;  0.0000000E+00;0;  0.0000000E+00;  1.0000000E+04;  0.0000000E+00;  0.0000000E+00;  1.0000000E+04;  0.0000000E+00;  1.0000000E+04;  0.0000000E+00;  0.0000000E+00;  0.0000000E+00;  0.0000000E+00;
  2.0000000E-02;  9.9999998E-03; -2.8000000E-01;1061;  0.0000000E+00;  0.0000000E+00;  0.0000000E+00;  1.0000000E+03;  4.0000001E-01;  0.0000000E+00;3;  0.0000000E+00;  0.0000000E+00;  0.0000000E+00;0;  0.0000000E+00;  1.0000000E+04;  0.0000000E+00;  0.0000000E+00;  1.0000000E+04;  0.0000000E+00;  1.0000000E+04;  0.0000000E+00;  0.0000000E+00;  0.0000000E+00;  0.0000000E+00;
  2.0000000E-02;  9.9999998E-03; -2.5999999E-01;1062;  0.0000000E+00;  0.0000000E+00;  0.0000000E+00;  1.0000000E+03;  4.0000001E-01;  0.0000000E+00;3;  0.0000000E+00;  0.0000000E+00;  0.0000000E+00;0;  0.0000000E+00;  1.0000000E+04;  0.0000000E+00;  0.0000000E+00;  1.0000000E+04;  0.0000000E+00;  1.0000000E+04;  0.0000000E+00;  0.0000000E+00;  0.0000000E+00;  0.0000000E+00;
  2.0000000E-02;  9.9999998E-03; -2.3999999E-01;1063;  0.0000000E+00;  0.0000000E+00;  0.0000000E+00;  1.0000000E+03;  4.0000001E-01;  0.0000000E+00;3;  0.0000000E+00;  0.0000000E+00;  0.0000000E+00;0;  0.0000000E+00;  1.0000000E+04;  0.0000000E+00;  0.0000000E+00;  1.0000000E+04;  0.0000000E+00;  1.0000000E+04;  0.0000000E+00;  0.0000000E+00;  0.0000000E+00;  0.0000000E+00;
  2.0000000E-02;  9.9999998E-03; -2.2000000E-01;1064;  0.0000000E+00;  0.0000000E+00;  0.0000000E+00;  1.0000000E+03;  4.0000001E-01;  0.0000000E+00;3;  0.0000000E+00;  0.0000000E+00;  0.0000000E+00;0;  0.0000000E+00;  1.0000000E+04;  0.0000000E+00;  0.0000000E+00;  1.0000000E+04;  0.0000000E+00;  1.0000000E+04;  0.0000000E+00;  0.0000000E+00;  0.0000000E+00;  0.0000000E+00;
  2.0000000E-02;  9.9999998E-03; -2.0000000E-01;1065;  0.0000000E+00;  0.0000000E+00;  0.0000000E+00;  1.0000000E+03;  4.0000001E-01;  0.0000000E+00;3;  0.0000000E+00;  0.0000000E+00;  0.0000000E+00;0;  0.0000000E+00;  1.0000000E+04;  0.0000000E+00;  0.0000000E+00;  1.0000000E+04;  0.0000000E+00;  1.0000000E+04;  0.0000000E+00;  0.0000000E+00;  0.0000000E+00;  0.0000000E+00;
  3.9999999E-02;  9.9999998E-03; -3.0000001E-01;1091;  0.0000000E+00;  0.0000000E+00;  0.0000000E+00;  1.0000000E+03;  4.0000001E-01;  0.0000000E+00;3;  0.0000000E+00;  0.0000000E+00;  0.0000000E+00;0;  0.0000000E+00;  1.0000000E+04;  0.0000000E+00;  0.0000000E+00;  1.0000000E+04;  0.0000000E+00;  1.0000000E+04;  0.0000000E+00;  0.0000000E+00;  0.0000000E+00;  0.0000000E+00;
  3.9999999E-02;  9.9999998E-03; -2.8000000E-01;1092;  0.0000000E+00;  0.0000000E+00;  0.0000000E+00;  1.0000000E+03;  4.0000001E-01;  0.0000000E+00;3;  0.0000000E+00;  0.0000000E+00;  0.0000000E+00;0;  0.0000000E+00;  1.0000000E+04;  0.0000000E+00;  0.0000000E+00;  1.0000000E+04;  0.0000000E+00;  1.0000000E+04;  0.0000000E+00;  0.0000000E+00;  0.0000000E+00;  0.0000000E+00;
  3.9999999E-02;  9.9999998E-03; -2.5999999E-01;1093;  0.0000000E+00;  0.0000000E+00;  0.0000000E+00;  1.0000000E+03;  4.0000001E-01;  0.0000000E+00;3;  0.0000000E+00;  0.0000000E+00;  0.0000000E+00;0;  0.0000000E+00;  1.0000000E+04;  0.0000000E+00;  0.0000000E+00;  1.0000000E+04;  0.0000000E+00;  1.0000000E+04;  0.0000000E+00;  0.0000000E+00;  0.0000000E+00;  0.0000000E+00;
  3.9999999E-02;  9.9999998E-03; -2.3999999E-01;1094;  0.0000000E+00;  0.0000000E+00;  0.0000000E+00;  1.0000000E+03;  4.0000001E-01;  0.0000000E+00;3;  0.0000000E+00;  0.0000000E+00;  0.0000000E+00;0;  0.0000000E+00;  1.0000000E+04;  0.0000000E+00;  0.0000000E+00;  1.0000000E+04;  0.0000000E+00;  1.0000000E+04;  0.0000000E+00;  0.0000000E+00;  0.0000000E+00;  0.0000000E+00;
  3.9999999E-02;  9.9999998E-03; -2.2000000E-01;1095;  0.0000000E+00;  0.0000000E+00;  0.0000000E+00;  1.0000000E+03;  4.0000001E-01;  0.0000000E+00;3;  0.0000000E+00;  0.0000000E+00;  0.0000000E+00;0;  0.0000000E+00;  1.0000000E+04;  0.0000000E+00;  0.0000000E+00;  1.0000000E+04;  0.0000000E+00;  1.0000000E+04;  0.0000000E+00;  0.0000000E+00;  0.0000000E+00;  0.0000000E+00;
  3.9999999E-02;  9.9999998E-03; -2.0000000E-01;1096;  0.0000000E+00;  0.0000000E+00;  0.0000000E+00;  1.0000000E+03;  4.0000001E-01;  0.0000000E+00;3;  0.0000000E+00;  0.0000000E+00;  0.0000000E+00;0;  0.0000000E+00;  1.0000000E+04;  0.0000000E+00;  0.0000000E+00;  1.0000000E+04;  0.0000000E+00;  1.0000000E+04;  0.0000000E+00;  0.0000000E+00;  0.0000000E+00;  0.0000000E+00;
  5.9999999E-02;  9.9999998E-03; -3.0000001E-01;1122;  0.0000000E+00;  0.0000000E+00;  0.0000000E+00;  1.0000000E+03;  4.0000001E-01;  0.0000000E+00;3;  0.0000000E+00;  0.0000000E+00;  0.0000000E+00;0;  0.0000000E+00;  1.0000000E+04;  0.0000000E+00;  0.0000000E+00;  1.0000000E+04;  0.0000000E+00;  1.0000000E+04;  0.0000000E+00;  0.0000000E+00;  0.0000000E+00;  0.0000000E+00;
  5.9999999E-02;  9.9999998E-03; -2.8000000E-01;1123;  0.0000000E+00;  0.0000000E+00;  0.0000000E+00;  1.0000000E+03;  4.0000001E-01;  0.0000000E+00;3;  0.0000000E+00;  0.0000000E+00;  0.0000000E+00;0;  0.0000000E+00;  1.0000000E+04;  0.0000000E+00;  0.0000000E+00;  1.0000000E+04;  0.0000000E+00;  1.0000000E+04;  0.0000000E+00;  0.0000000E+00;  0.0000000E+00;  0.0000000E+00;
  5.9999999E-02;  9.9999998E-03; -2.5999999E-01;1124;  0.0000000E+00;  0.0000000E+00;  0.0000000E+00;  1.0000000E+03;  4.0000001E-01;  0.0000000E+00;3;  0.0000000E+00;  0.0000000E+00;  0.0000000E+00;0;  0.0000000E+00;  1.0000000E+04;  0.0000000E+00;  0.0000000E+00;  1.0000000E+04;  0.0000000E+00;  1.0000000E+04;  0.0000000E+00;  0.0000000E+00;  0.0000000E+00;  0.0000000E+00;
  5.9999999E-02;  9.9999998E-03; -2.3999999E-01;1125;  0.0000000E+00;  0.0000000E+00;  0.0000000E+00;  1.0000000E+03;  4.0000001E-01;  0.0000000E+00;3;  0.0000000E+00;  0.0000000E+00;  0.0000000E+00;0;  0.0000000E+00;  1.0000000E+04;  0.0000000E+00;  0.0000000E+00;  1.0000000E+04;  0.0000000E+00;  1.0000000E+04;  0.0000000E+00;  0.0000000E+00;  0.0000000E+00;  0.0000000E+00;
  5.9999999E-02;  9.9999998E-03; -2.2000000E-01;1126;  0.0000000E+00;  0.0000000E+00;  0.0000000E+00;  1.0000000E+03;  4.0000001E-01;  0.0000000E+00;3;  0.0000000E+00;  0.0000000E+00;  0.0000000E+00;0;  0.0000000E+00;  1.0000000E+04;  0.0000000E+00;  0.0000000E+00;  1.0000000E+04;  0.0000000E+00;  1.0000000E+04;  0.0000000E+00;  0.0000000E+00;  0.0000000E+00;  0.0000000E+00;
  5.9999999E-02;  9.9999998E-03; -2.0000000E-01;1127;  0.0000000E+00;  0.0000000E+00;  0.0000000E+00;  1.0000000E+03;  4.0000001E-01;  0.0000000E+00;3;  0.0000000E+00;  0.0000000E+00;  0.0000000E+00;0;  0.0000000E+00;  1.0000000E+04;  0.0000000E+00;  0.0000000E+00;  1.0000000E+04;  0.0000000E+00;  1.0000000E+04;  0.0000000E+00;  0.0000000E+00;  0.0000000E+00;  0.0000000E+00;
  7.9999998E-02;  9.9999998E-03; -3.0000001E-01;1153;  0.0000000E+00;  0.0000000E+00;  0.0000000E+00;  1.0000000E+03;  4.0000001E-01;  0.0000000E+00;3;  0.0000000E+00;  0.0000000E+00;  0.0000000E+00;0;  0.0000000E+00;  1.0000000E+04;  0.0000000E+00;  0.0000000E+00;  1.0000000E+04;  0.0000000E+00;  1.0000000E+04;  0.0000000E+00;  0.0000000E+00;  0.0000000E+00;  0.0000000E+00;
  7.9999998E-02;  9.9999998E-03; -2.8000000E-01;1154;  0.0000000E+00;  0.0000000E+00;  0.0000000E+00;  1.0000000E+03;  4.0000001E-01;  0.0000000E+00;3;  0.0000000E+00;  0.0000000E+00;  0.0000000E+00;0;  0.0000000E+00;  1.0000000E+04;  0.0000000E+00;  0.0000000E+00;  1.0000000E+04;  0.0000000E+00;  1.0000000E+04;  0.0000000E+00;  0.0000000E+00;  0.0000000E+00;  0.0000000E+00;
  7.9999998E-02;  9.9999998E-03; -2.5999999E-01;1155;  0.0000000E+00;  0.0000000E+00;  0.0000000E+00;  1.0000000E+03;  4.0000001E-01;  0.0000000E+00;3;  0.0000000E+00;  0.0000000E+00;  0.0000000E+00;0;  0.0000000E+00;  1.0000000E+04;  0.0000000E+00;  0.0000000E+00;  1.0000000E+04;  0.0000000E+00;  1.0000000E+04;  0.0000000E+00;  0.0000000E+00;  0.0000000E+00;  0.0000000E+00;
  7.9999998E-02;  9.9999998E-03; -2.3999999E-01;1156;  0.0000000E+00;  0.0000000E+00;  0.0000000E+00;  1.0000000E+03;  4.0000001E-01;  0.0000000E+00;3;  0.0000000E+00;  0.0000000E+00;  0.0000000E+00;0;  0.0000000E+00;  1.0000000E+04;  0.0000000E+00;  0.0000000E+00;  1.0000000E+04;  0.0000000E+00;  1.0000000E+04;  0.0000000E+00;  0.0000000E+00;  0.0000000E+00;  0.0000000E+00;
  7.9999998E-02;  9.9999998E-03; -2.2000000E-01;1157;  0.0000000E+00;  0.0000000E+00;  0.0000000E+00;  1.0000000E+03;  4.0000001E-01;  0.0000000E+00;3;  0.0000000E+00;  0.0000000E+00;  0.0000000E+00;0;  0.0000000E+00;  1.0000000E+04;  0.0000000E+00;  0.0000000E+00;  1.0000000E+04;  0.0000000E+00;  1.0000000E+04;  0.0000000E+00;  0.0000000E+00;  0.0000000E+00;  0.0000000E+00;
  7.9999998E-02;  9.9999998E-03; -2.0000000E-01;1158;  0.0000000E+00;  0.0000000E+00;  0.0000000E+00;  1.0000000E+03;  4.0000001E-01;  0.0000000E+00;3;  0.0000000E+00;  0.0000000E+00;  0.0000000E+00;0;  0.0000000E+00;  1.0000000E+04;  0.0000000E+00;  0.0000000E+00;  1.0000000E+04;  0.0000000E+00;  1.0000000E+04;  0.0000000E+00;  0.0000000E+00;  0.0000000E+00;  0.0000000E+00;
  1.0000000E-01;  9.9999998E-03; -3.0000001E-01;1184;  0.0000000E+00;  0.0000000E+00;  0.0000000E+00;  1.0000000E+03;  4.0000001E-01;  0.0000000E+00;3;  0.0000000E+00;  0.0000000E+00;  0.0000000E+00;0;  0.0000000E+00;  1.0000000E+04;  0.0000000E+00;  0.0000000E+00;  1.0000000E+04;  0.0000000E+00;  1.0000000E+04;  0.0000000E+00;  0.0000000E+00;  0.0000000E+00;  0.0000000E+00;
  1.0000000E-01;  9.9999998E-03; -2.8000000E-01;1185;  0.0000000E+00;  0.0000000E+00;  0.0000000E+00;  1.0000000E+03;  4.0000001E-01;  0.0000000E+00;3;  0.0000000E+00;  0.0000000E+00;  0.0000000E+00;0;  0.0000000E+00;  1.0000000E+04;  0.0000000E+00;  0.0000000E+00;  1.0000000E+04;  0.0000000E+00;  1.0000000E+04;  0.0000000E+00;  0.0000000E+00;  0.0000000E+00;  0.0000000E+00;
  1.0000000E-01;  9.9999998E-03; -2.5999999E-01;1186;  0.0000000E+00;  0.0000000E+00;  0.0000000E+00;  1.0000000E+03;  4.0000001E-01;  0.0000000E+00;3;  0.0000000E+00;  0.0000000E+00;  0.0000000E+00;0;  0.0000000E+00;  1.0000000E+04;  0.0000000E+00;  0.0000000E+00;  1.0000000E+04;  0.0000000E+00;  1.0000000E+04;  0.0000000E+00;  0.0000000E+00;  0.0000000E+00;  0.0000000E+00;
  1.0000000E-01;  9.9999998E-03; -2.3999999E-01;1187;  0.0000000E+00;  0.0000000E+00;  0.0000000E+00;  1.0000000E+03;  4.0000001E-01;  0.0000000E+00;3;  0.0000000E+00;  0.0000000E+00;  0.0000000E+00;0;  0.0000000E+00;  1.0000000E+04;  0.0000000E+00;  0.0000000E+00;  1.0000000E+04;  0.0000000E+00;  1.0000000E+04;  0.0000000E+00;  0.0000000E+00;  0.0000000E+00;  0.0000000E+00;
  1.0000000E-01;  9.9999998E-03; -2.2000000E-01;1188;  0.0000000E+00;  0.0000000E+00;  0.0000000E+00;  1.0000000E+03;  4.0000001E-01;  0.0000000E+00;3;  0.0000000E+00;  0.0000000E+00;  0.0000000E+00;0;  0.0000000E+00;  1.0000000E+04;  0.0000000E+00;  0.0000000E+00;  1.0000000E+04;  0.0000000E+00;  1.0000000E+04;  0.0000000E+00;  0.0000000E+00;  0.0000000E+00;  0.0000000E+00;
  1.0000000E-01;  9.9999998E-03; -2.0000000E-01;1189;  0.0000000E+00;  0.0000000E+00;  0.0000000E+00;  1.0000000E+03;  4.0000001E-01;  0.0000000E+00;3;  0.0000000E+00;  0.0000000E+00;  0.0000000E+00;0;  0.0000000E+00;  1.0000000E+04;  0.0000000E+00;  0.0000000E+00;  1.0000000E+04;  0.0000000E+00;  1.0000000E+04;  0.0000000E+00;  0.0000000E+00;  0.0000000E+00;  0.0000000E+00;
  1.2000000E-01;  9.9999998E-03; -3.0000001E-01;1215;  0.0000000E+00;  0.0000000E+00;  0.0000000E+00;  1.0000000E+03;  4.0000001E-01;  0.0000000E+00;3;  0.0000000E+00;  0.0000000E+00;  0.0000000E+00;0;  0.0000000E+00;  1.0000000E+04;  0.0000000E+00;  0.0000000E+00;  1.0000000E+04;  0.0000000E+00;  1.0000000E+04;  0.0000000E+00;  0.0000000E+00;  0.0000000E+00;  0.0000000E+00;
  1.2000000E-01;  9.9999998E-03; -2.8000000E-01;1216;  0.0000000E+00;  0.0000000E+00;  0.0000000E+00;  1.0000000E+03;  4.0000001E-01;  0.0000000E+00;3;  0.0000000E+00;  0.0000000E+00;  0.0000000E+00;0;  0.0000000E+00;  1.0000000E+04;  0.0000000E+00;  0.0000000E+00;  1.0000000E+04;  0.0000000E+00;  1.0000000E+04;  0.0000000E+00;  0.0000000E+00;  0.0000000E+00;  0.0000000E+00;
  1.2000000E-01;  9.9999998E-03; -2.5999999E-01;1217;  0.0000000E+00;  0.0000000E+00;  0.0000000E+00;  1.0000000E+03;  4.0000001E-01;  0.0000000E+00;3;  0.0000000E+00;  0.0000000E+00;  0.0000000E+00;0;  0.0000000E+00;  1.0000000E+04;  0.0000000E+00;  0.0000000E+00;  1.0000000E+04;  0.0000000E+00;  1.0000000E+04;  0.0000000E+00;  0.0000000E+00;  0.0000000E+00;  0.0000000E+00;
  1.2000000E-01;  9.9999998E-03; -2.3999999E-01;1218;  0.0000000E+00;  0.0000000E+00;  0.0000000E+00;  1.0000000E+03;  4.0000001E-01;  0.0000000E+00;3;  0.0000000E+00;  0.0000000E+00;  0.0000000E+00;0;  0.0000000E+00;  1.0000000E+04;  0.0000000E+00;  0.0000000E+00;  1.0000000E+04;  0.0000000E+00;  1.0000000E+04;  0.0000000E+00;  0.0000000E+00;  0.0000000E+00;  0.0000000E+00;
  1.2000000E-01;  9.9999998E-03; -2.2000000E-01;1219;  0.0000000E+00;  0.0000000E+00;  0.0000000E+00;  1.0000000E+03;  4.0000001E-01;  0.0000000E+00;3;  0.0000000E+00;  0.0000000E+00;  0.0000000E+00;0;  0.0000000E+00;  1.0000000E+04;  0.0000000E+00;  0.0000000E+00;  1.0000000E+04;  0.0000000E+00;  1.0000000E+04;  0.0000000E+00;  0.0000000E+00;  0.0000000E+00;  0.0000000E+00;
  1.2000000E-01;  9.9999998E-03; -2.0000000E-01;1220;  0.0000000E+00;  0.0000000E+00;  0.0000000E+00;  1.0000000E+03;  4.0000001E-01;  0.0000000E+00;3;  0.0000000E+00;  0.0000000E+00;  0.0000000E+00;0;  0.0000000E+00;  1.0000000E+04;  0.0000000E+00;  0.0000000E+00;  1.0000000E+04;  0.0000000E+00;  1.0000000E+04;  0.0000000E+00;  0.0000000E+00;  0.0000000E+00;  0.0000000E+00;
  1.4000000E-01;  9.9999998E-03; -3.0000001E-01;1246;  0.0000000E+00;  0.0000000E+00;  0.0000000E+00;  1.0000000E+03;  4.0000001E-01;  0.0000000E+00;3;  0.0000000E+00;  0.0000000E+00;  0.0000000E+00;0;  0.0000000E+00;  1.0000000E+04;  0.0000000E+00;  0.0000000E+00;  1.0000000E+04;  0.0000000E+00;  1.0000000E+04;  0.0000000E+00;  0.0000000E+00;  0.0000000E+00;  0.0000000E+00;
  1.4000000E-01;  9.9999998E-03; -2.8000000E-01;1247;  0.0000000E+00;  0.0000000E+00;  0.0000000E+00;  1.0000000E+03;  4.0000001E-01;  0.0000000E+00;3;  0.0000000E+00;  0.0000000E+00;  0.0000000E+00;0;  0.0000000E+00;  1.0000000E+04;  0.0000000E+00;  0.0000000E+00;  1.0000000E+04;  0.0000000E+00;  1.0000000E+04;  0.0000000E+00;  0.0000000E+00;  0.0000000E+00;  0.0000000E+00;
  1.4000000E-01;  9.9999998E-03; -2.5999999E-01;1248;  0.0000000E+00;  0.0000000E+00;  0.0000000E+00;  1.0000000E+03;  4.0000001E-01;  0.0000000E+00;3;  0.0000000E+00;  0.0000000E+00;  0.0000000E+00;0;  0.0000000E+00;  1.0000000E+04;  0.0000000E+00;  0.0000000E+00;  1.0000000E+04;  0.0000000E+00;  1.0000000E+04;  0.0000000E+00;  0.0000000E+00;  0.0000000E+00;  0.0000000E+00;
  1.4000000E-01;  9.9999998E-03; -2.3999999E-01;1249;  0.0000000E+00;  0.0000000E+00;  0.0000000E+00;  1.0000000E+03;  4.0000001E-01;  0.0000000E+00;3;  0.0000000E+00;  0.0000000E+00;  0.0000000E+00;0;  0.0000000E+00;  1.0000000E+04;  0.0000000E+00;  0.0000000E+00;  1.0000000E+04;  0.0000000E+00;  1.0000000E+04;  0.0000000E+00;  0.0000000E+00;  0.0000000E+00;  0.0000000E+00;
  1.4000000E-01;  9.9999998E-03; -2.2000000E-01;1250;  0.0000000E+00;  0.0000000E+00;  0.0000000E+00;  1.0000000E+03;  4.0000001E-01;  0.0000000E+00;3;  0.0000000E+00;  0.0000000E+00;  0.0000000E+00;0;  0.0000000E+00;  1.0000000E+04;  0.0000000E+00;  0.0000000E+00;  1.0000000E+04;  0.0000000E+00;  1.0000000E+04;  0.0000000E+00;  0.0000000E+00;  0.0000000E+00;  0.0000000E+00;
  1.4000000E-01;  9.9999998E-03; -2.0000000E-01;1251;  0.0000000E+00;  0.0000000E+00;  0.0000000E+00;  1.0000000E+03;  4.0000001E-01;  0.0000000E+00;3;  0.0000000E+00;  0.0000000E+00;  0.0000000E+00;0;  0.0000000E+00;  1.0000000E+04;  0.0000000E+00;  0.0000000E+00;  1.0000000E+04;  0.0000000E+00;  1.0000000E+04;  0.0000000E+00;  0.0000000E+00;  0.0000000E+00;  0.0000000E+00;
  1.6000000E-01;  9.9999998E-03; -3.0000001E-01;1277;  0.0000000E+00;  0.0000000E+00;  0.0000000E+00;  1.0000000E+03;  4.0000001E-01;  0.0000000E+00;3;  0.0000000E+00;  0.0000000E+00;  0.0000000E+00;0;  0.0000000E+00;  1.0000000E+04;  0.0000000E+00;  0.0000000E+00;  1.0000000E+04;  0.0000000E+00;  1.0000000E+04;  0.0000000E+00;  0.0000000E+00;  0.0000000E+00;  0.0000000E+00;
  1.6000000E-01;  9.9999998E-03; -2.8000000E-01;1278;  0.0000000E+00;  0.0000000E+00;  0.0000000E+00;  1.0000000E+03;  4.0000001E-01;  0.0000000E+00;3;  0.0000000E+00;  0.0000000E+00;  0.0000000E+00;0;  0.0000000E+00;  1.0000000E+04;  0.0000000E+00;  0.0000000E+00;  1.0000000E+04;  0.0000000E+00;  1.0000000E+04;  0.0000000E+00;  0.0000000E+00;  0.0000000E+00;  0.0000000E+00;
  1.6000000E-01;  9.9999998E-03; -2.5999999E-01;1279;  0.0000000E+00;  0.0000000E+00;  0.0000000E+00;  1.0000000E+03;  4.0000001E-01;  0.0000000E+00;3;  0.0000000E+00;  0.0000000E+00;  0.0000000E+00;0;  0.0000000E+00;  1.0000000E+04;  0.0000000E+00;  0.0000000E+00;  1.0000000E+04;  0.0000000E+00;  1.0000000E+04;  0.0000000E+00;  0.0000000E+00;  0.0000000E+00;  0.0000000E+00;
  1.6000000E-01;  9.9999998E-03; -2.3999999E-01;1280;  0.0000000E+00;  0.0000000E+00;  0.0000000E+00;  1.0000000E+03;  4.0000001E-01;  0.0000000E+00;3;  0.0000000E+00;  0.0000000E+00;  0.0000000E+00;0;  0.0000000E+00;  1.0000000E+04;  0.0000000E+00;  0.0000000E+00;  1.0000000E+04;  0.0000000E+00;  1.0000000E+04;  0.0000000E+00;  0.0000000E+00;  0.0000000E+00;  0.0000000E+00;
  1.6000000E-01;  9.9999998E-03; -2.2000000E-01;1281;  0.0000000E+00;  0.0000000E+00;  0.0000000E+00;  1.0000000E+03;  4.0000001E-01;  0.0000000E+00;3;  0.0000000E+00;  0.0000000E+00;  0.0000000E+00;0;  0.0000000E+00;  1.0000000E+04;  0.0000000E+00;  0.0000000E+00;  1.0000000E+04;  0.0000000E+00;  1.0000000E+04;  0.0000000E+00;  0.0000000E+00;  0.0000000E+00;  0.0000000E+00;
  1.6000000E-01;  9.9999998E-03; -2.0000000E-01;1282;  0.0000000E+00;  0.0000000E+00;  0.0000000E+00;  1.0000000E+03;  4.0000001E-01;  0.0000000E+00;3;  0.0000000E+00;  0.0000000E+00;  0.0000000E+00;0;  0.0000000E+00;  1.0000000E+04;  0.0000000E+00;  0.0000000E+00;  1.0000000E+04;  0.0000000E+00;  1.0000000E+04;  0.0000000E+00;  0.0000000E+00;  0.0000000E+00;  0.0000000E+00;
  1.8000001E-01;  9.9999998E-03; -3.0000001E-01;1308;  0.0000000E+00;  0.0000000E+00;  0.0000000E+00;  1.0000000E+03;  4.0000001E-01;  0.0000000E+00;3;  0.0000000E+00;  0.0000000E+00;  0.0000000E+00;0;  0.0000000E+00;  1.0000000E+04;  0.0000000E+00;  0.0000000E+00;  1.0000000E+04;  0.0000000E+00;  1.0000000E+04;  0.0000000E+00;  0.0000000E+00;  0.0000000E+00;  0.0000000E+00;
  1.8000001E-01;  9.9999998E-03; -2.8000000E-01;1309;  0.0000000E+00;  0.0000000E+00;  0.0000000E+00;  1.0000000E+03;  4.0000001E-01;  0.0000000E+00;3;  0.0000000E+00;  0.0000000E+00;  0.0000000E+00;0;  0.0000000E+00;  1.0000000E+04;  0.0000000E+00;  0.0000000E+00;  1.0000000E+04;  0.0000000E+00;  1.0000000E+04;  0.0000000E+00;  0.0000000E+00;  0.0000000E+00;  0.0000000E+00;
  1.8000001E-01;  9.9999998E-03; -2.5999999E-01;1310;  0.0000000E+00;  0.0000000E+00;  0.0000000E+00;  1.0000000E+03;  4.0000001E-01;  0.0000000E+00;3;  0.0000000E+00;  0.0000000E+00;  0.0000000E+00;0;  0.0000000E+00;  1.0000000E+04;  0.0000000E+00;  0.0000000E+00;  1.0000000E+04;  0.0000000E+00;  1.0000000E+04;  0.0000000E+00;  0.0000000E+00;  0.0000000E+00;  0.0000000E+00;
  1.8000001E-01;  9.9999998E-03; -2.3999999E-01;1311;  0.0000000E+00;  0.0000000E+00;  0.0000000E+00;  1.0000000E+03;  4.0000001E-01;  0.0000000E+00;3;  0.0000000E+00;  0.0000000E+00;  0.0000000E+00;0;  0.0000000E+00;  1.0000000E+04;  0.0000000E+00;  0.0000000E+00;  1.0000000E+04;  0.0000000E+00;  1.0000000E+04;  0.0000000E+00;  0.0000000E+00;  0.0000000E+00;  0.0000000E+00;
  1.8000001E-01;  9.9999998E-03; -2.2000000E-01;1312;  0.0000000E+00;  0.0000000E+00;  0.0000000E+00;  1.0000000E+03;  4.0000001E-01;  0.0000000E+00;3;  0.0000000E+00;  0.0000000E+00;  0.0000000E+00;0;  0.0000000E+00;  1.0000000E+04;  0.0000000E+00;  0.0000000E+00;  1.0000000E+04;  0.0000000E+00;  1.0000000E+04;  0.0000000E+00;  0.0000000E+00;  0.0000000E+00;  0.0000000E+00;
  1.8000001E-01;  9.9999998E-03; -2.0000000E-01;1313;  0.0000000E+00;  0.0000000E+00;  0.0000000E+00;  1.0000000E+03;  4.0000001E-01;  0.0000000E+00;3;  0.0000000E+00;  0.0000000E+00;  0.0000000E+00;0;  0.0000000E+00;  1.0000000E+04;  0.0000000E+00;  0.0000000E+00;  1.0000000E+04;  0.0000000E+00;  1.0000000E+04;  0.0000000E+00;  0.0000000E+00;  0.0000000E+00;  0.0000000E+00;
  2.0000000E-01;  9.9999998E-03; -3.0000001E-01;1339;  0.0000000E+00;  0.0000000E+00;  0.0000000E+00;  1.0000000E+03;  4.0000001E-01;  0.0000000E+00;3;  0.0000000E+00;  0.0000000E+00;  0.0000000E+00;0;  0.0000000E+00;  1.0000000E+04;  0.0000000E+00;  0.0000000E+00;  1.0000000E+04;  0.0000000E+00;  1.0000000E+04;  0.0000000E+00;  0.0000000E+00;  0.0000000E+00;  0.0000000E+00;
  2.0000000E-01;  9.9999998E-03; -2.8000000E-01;1340;  0.0000000E+00;  0.0000000E+00;  0.0000000E+00;  1.0000000E+03;  4.0000001E-01;  0.0000000E+00;3;  0.0000000E+00;  0.0000000E+00;  0.0000000E+00;0;  0.0000000E+00;  1.0000000E+04;  0.0000000E+00;  0.0000000E+00;  1.0000000E+04;  0.0000000E+00;  1.0000000E+04;  0.0000000E+00;  0.0000000E+00;  0.0000000E+00;  0.0000000E+00;
  2.0000000E-01;  9.9999998E-03; -2.5999999E-01;1341;  0.0000000E+00;  0.0000000E+00;  0.0000000E+00;  1.0000000E+03;  4.0000001E-01;  0.0000000E+00;3;  0.0000000E+00;  0.0000000E+00;  0.0000000E+00;0;  0.0000000E+00;  1.0000000E+04;  0.0000000E+00;  0.0000000E+00;  1.0000000E+04;  0.0000000E+00;  1.0000000E+04;  0.0000000E+00;  0.0000000E+00;  0.0000000E+00;  0.0000000E+00;
  2.0000000E-01;  9.9999998E-03; -2.3999999E-01;1342;  0.0000000E+00;  0.0000000E+00;  0.0000000E+00;  1.0000000E+03;  4.0000001E-01;  0.0000000E+00;3;  0.0000000E+00;  0.0000000E+00;  0.0000000E+00;0;  0.0000000E+00;  1.0000000E+04;  0.0000000E+00;  0.0000000E+00;  1.0000000E+04;  0.0000000E+00;  1.0000000E+04;  0.0000000E+00;  0.0000000E+00;  0.0000000E+00;  0.0000000E+00;
  2.0000000E-01;  9.9999998E-03; -2.2000000E-01;1343;  0.0000000E+00;  0.0000000E+00;  0.0000000E+00;  1.0000000E+03;  4.0000001E-01;  0.0000000E+00;3;  0.0000000E+00;  0.0000000E+00;  0.0000000E+00;0;  0.0000000E+00;  1.0000000E+04;  0.0000000E+00;  0.0000000E+00;  1.0000000E+04;  0.0000000E+00;  1.0000000E+04;  0.0000000E+00;  0.0000000E+00;  0.0000000E+00;  0.0000000E+00;
  2.0000000E-01;  9.9999998E-03; -2.0000000E-01;1344;  0.0000000E+00;  0.0000000E+00;  0.0000000E+00;  1.0000000E+03;  4.0000001E-01;  0.0000000E+00;3;  0.0000000E+00;  0.0000000E+00;  0.0000000E+00;0;  0.0000000E+00;  1.0000000E+04;  0.0000000E+00;  0.0000000E+00;  1.0000000E+04;  0.0000000E+00;  1.0000000E+04;  0.0000000E+00;  0.0000000E+00;  0.0000000E+00;  0.0000000E+00;
  2.2000000E-01;  9.9999998E-03; -3.0000001E-01;1370;  0.0000000E+00;  0.0000000E+00;  0.0000000E+00;  1.0000000E+03;  4.0000001E-01;  0.0000000E+00;3;  0.0000000E+00;  0.0000000E+00;  0.0000000E+00;0;  0.0000000E+00;  1.0000000E+04;  0.0000000E+00;  0.0000000E+00;  1.0000000E+04;  0.0000000E+00;  1.0000000E+04;  0.0000000E+00;  0.0000000E+00;  0.0000000E+00;  0.0000000E+00;
  2.2000000E-01;  9.9999998E-03; -2.8000000E-01;1371;  0.0000000E+00;  0.0000000E+00;  0.0000000E+00;  1.0000000E+03;  4.0000001E-01;  0.0000000E+00;3;  0.0000000E+00;  0.0000000E+00;  0.0000000E+00;0;  0.0000000E+00;  1.0000000E+04;  0.0000000E+00;  0.0000000E+00;  1.0000000E+04;  0.0000000E+00;  1.0000000E+04;  0.0000000E+00;  0.0000000E+00;  0.0000000E+00;  0.0000000E+00;
  2.2000000E-01;  9.9999998E-03; -2.5999999E-01;1372;  0.0000000E+00;  0.0000000E+00;  0.0000000E+00;  1.0000000E+03;  4.0000001E-01;  0.0000000E+00;3;  0.0000000E+00;  0.0000000E+00;  0.0000000E+00;0;  0.0000000E+00;  1.0000000E+04;  0.0000000E+00;  0.0000000E+00;  1.0000000E+04;  0.0000000E+00;  1.0000000E+04;  0.0000000E+00;  0.0000000E+00;  0.0000000E+00;  0.0000000E+00;
  2.2000000E-01;  9.9999998E-03; -2.3999999E-01;1373;  0.0000000E+00;  0.0000000E+00;  0.0000000E+00;  1.0000000E+03;  4.0000001E-01;  0.0000000E+00;3;  0.0000000E+00;  0.0000000E+00;  0.0000000E+00;0;  0.0000000E+00;  1.0000000E+04;  0.0000000E+00;  0.0000000E+00;  1.0000000E+04;  0.0000000E+00;  1.0000000E+04;  0.0000000E+00;  0.0000000E+00;  0.0000000E+00;  0.0000000E+00;
  2.2000000E-01;  9.9999998E-03; -2.2000000E-01;1374;  0.0000000E+00;  0.0000000E+00;  0.0000000E+00;  1.0000000E+03;  4.0000001E-01;  0.0000000E+00;3;  0.0000000E+00;  0.0000000E+00;  0.0000000E+00;0;  0.0000000E+00;  1.0000000E+04;  0.0000000E+00;  0.0000000E+00;  1.0000000E+04;  0.0000000E+00;  1.0000000E+04;  0.0000000E+00;  0.0000000E+00;  0.0000000E+00;  0.0000000E+00;
  2.2000000E-01;  9.9999998E-03; -2.0000000E-01;1375;  0.0000000E+00;  0.0000000E+00;  0.0000000E+00;  1.0000000E+03;  4.0000001E-01;  0.0000000E+00;3;  0.0000000E+00;  0.0000000E+00;  0.0000000E+00;0;  0.0000000E+00;  1.0000000E+04;  0.0000000E+00;  0.0000000E+00;  1.0000000E+04;  0.0000000E+00;  1.0000000E+04;  0.0000000E+00;  0.0000000E+00;  0.0000000E+00;  0.0000000E+00;
  2.3999999E-01;  9.9999998E-03; -3.0000001E-01;1401;  0.0000000E+00;  0.0000000E+00;  0.0000000E+00;  1.0000000E+03;  4.0000001E-01;  0.0000000E+00;3;  0.0000000E+00;  0.0000000E+00;  0.0000000E+00;0;  0.0000000E+00;  1.0000000E+04;  0.0000000E+00;  0.0000000E+00;  1.0000000E+04;  0.0000000E+00;  1.0000000E+04;  0.0000000E+00;  0.0000000E+00;  0.0000000E+00;  0.0000000E+00;
  2.3999999E-01;  9.9999998E-03; -2.8000000E-01;1402;  0.0000000E+00;  0.0000000E+00;  0.0000000E+00;  1.0000000E+03;  4.0000001E-01;  0.0000000E+00;3;  0.0000000E+00;  0.0000000E+00;  0.0000000E+00;0;  0.0000000E+00;  1.0000000E+04;  0.0000000E+00;  0.0000000E+00;  1.0000000E+04;  0.0000000E+00;  1.0000000E+04;  0.0000000E+00;  0.0000000E+00;  0.0000000E+00;  0.0000000E+00;
  2.3999999E-01;  9.9999998E-03; -2.5999999E-01;1403;  0.0000000E+00;  0.0000000E+00;  0.0000000E+00;  1.0000000E+03;  4.0000001E-01;  0.0000000E+00;3;  0.0000000E+00;  0.0000000E+00;  0.0000000E+00;0;  0.0000000E+00;  1.0000000E+04;  0.0000000E+00;  0.0000000E+00;  1.0000000E+04;  0.0000000E+00;  1.0000000E+04;  0.0000000E+00;  0.0000000E+00;  0.0000000E+00;  0.0000000E+00;
  2.3999999E-01;  9.9999998E-03; -2.3999999E-01;1404;  0.0000000E+00;  0.0000000E+00;  0.0000000E+00;  1.0000000E+03;  4.0000001E-01;  0.0000000E+00;3;  0.0000000E+00;  0.0000000E+00;  0.0000000E+00;0;  0.0000000E+00;  1.0000000E+04;  0.0000000E+00;  0.0000000E+00;  1.0000000E+04;  0.0000000E+00;  1.0000000E+04;  0.0000000E+00;  0.0000000E+00;  0.0000000E+00;  0.0000000E+00;
  2.3999999E-01;  9.9999998E-03; -2.2000000E-01;1405;  0.0000000E+00;  0.0000000E+00;  0.0000000E+00;  1.0000000E+03;  4.0000001E-01;  0.0000000E+00;3;  0.0000000E+00;  0.0000000E+00;  0.0000000E+00;0;  0.0000000E+00;  1.0000000E+04;  0.0000000E+00;  0.0000000E+00;  1.0000000E+04;  0.0000000E+00;  1.0000000E+04;  0.0000000E+00;  0.0000000E+00;  0.0000000E+00;  0.0000000E+00;
  2.3999999E-01;  9.9999998E-03; -2.0000000E-01;1406;  0.0000000E+00;  0.0000000E+00;  0.0000000E+00;  1.0000000E+03;  4.0000001E-01;  0.0000000E+00;3;  0.0000000E+00;  0.0000000E+00;  0.0000000E+00;0;  0.0000000E+00;  1.0000000E+04;  0.0000000E+00;  0.0000000E+00;  1.0000000E+04;  0.0000000E+00;  1.0000000E+04;  0.0000000E+00;  0.0000000E+00;  0.0000000E+00;  0.0000000E+00;
  2.5999999E-01;  9.9999998E-03; -3.0000001E-01;1432;  0.0000000E+00;  0.0000000E+00;  0.0000000E+00;  1.0000000E+03;  4.0000001E-01;  0.0000000E+00;3;  0.0000000E+00;  0.0000000E+00;  0.0000000E+00;0;  0.0000000E+00;  1.0000000E+04;  0.0000000E+00;  0.0000000E+00;  1.0000000E+04;  0.0000000E+00;  1.0000000E+04;  0.0000000E+00;  0.0000000E+00;  0.0000000E+00;  0.0000000E+00;
  2.5999999E-01;  9.9999998E-03; -2.8000000E-01;1433;  0.0000000E+00;  0.0000000E+00;  0.0000000E+00;  1.0000000E+03;  4.0000001E-01;  0.0000000E+00;3;  0.0000000E+00;  0.0000000E+00;  0.0000000E+00;0;  0.0000000E+00;  1.0000000E+04;  0.0000000E+00;  0.0000000E+00;  1.0000000E+04;  0.0000000E+00;  1.0000000E+04;  0.0000000E+00;  0.0000000E+00;  0.0000000E+00;  0.0000000E+00;
  2.5999999E-01;  9.9999998E-03; -2.5999999E-01;1434;  0.0000000E+00;  0.0000000E+00;  0.0000000E+00;  1.0000000E+03;  4.0000001E-01;  0.0000000E+00;3;  0.0000000E+00;  0.0000000E+00;  0.0000000E+00;0;  0.0000000E+00;  1.0000000E+04;  0.0000000E+00;  0.0000000E+00;  1.0000000E+04;  0.0000000E+00;  1.0000000E+04;  0.0000000E+00;  0.0000000E+00;  0.0000000E+00;  0.0000000E+00;
  2.5999999E-01;  9.9999998E-03; -2.3999999E-01;1435;  0.0000000E+00;  0.0000000E+00;  0.0000000E+00;  1.0000000E+03;  4.0000001E-01;  0.0000000E+00;3;  0.0000000E+00;  0.0000000E+00;  0.0000000E+00;0;  0.0000000E+00;  1.0000000E+04;  0.0000000E+00;  0.0000000E+00;  1.0000000E+04;  0.0000000E+00;  1.0000000E+04;  0.0000000E+00;  0.0000000E+00;  0.0000000E+00;  0.0000000E+00;
  2.5999999E-01;  9.9999998E-03; -2.2000000E-01;1436;  0.0000000E+00;  0.0000000E+00;  0.0000000E+00;  1.0000000E+03;  4.0000001E-01;  0.0000000E+00;3;  0.0000000E+00;  0.0000000E+00;  0.0000000E+00;0;  0.0000000E+00;  1.0000000E+04;  0.0000000E+00;  0.0000000E+00;  1.0000000E+04;  0.0000000E+00;  1.0000000E+04;  0.0000000E+00;  0.0000000E+00;  0.0000000E+00;  0.0000000E+00;
  2.5999999E-01;  9.9999998E-03; -2.0000000E-01;1437;  0.0000000E+00;  0.0000000E+00;  0.0000000E+00;  1.0000000E+03;  4.0000001E-01;  0.0000000E+00;3;  0.0000000E+00;  0.0000000E+00;  0.0000000E+00;0;  0.0000000E+00;  1.0000000E+04;  0.0000000E+00;  0.0000000E+00;  1.0000000E+04;  0.0000000E+00;  1.0000000E+04;  0.0000000E+00;  0.0000000E+00;  0.0000000E+00;  0.0000000E+00;
  2.8000000E-01;  9.9999998E-03; -3.0000001E-01;1463;  0.0000000E+00;  0.0000000E+00;  0.0000000E+00;  1.0000000E+03;  4.0000001E-01;  0.0000000E+00;3;  0.0000000E+00;  0.0000000E+00;  0.0000000E+00;0;  0.0000000E+00;  1.0000000E+04;  0.0000000E+00;  0.0000000E+00;  1.0000000E+04;  0.0000000E+00;  1.0000000E+04;  0.0000000E+00;  0.0000000E+00;  0.0000000E+00;  0.0000000E+00;
  2.8000000E-01;  9.9999998E-03; -2.8000000E-01;1464;  0.0000000E+00;  0.0000000E+00;  0.0000000E+00;  1.0000000E+03;  4.0000001E-01;  0.0000000E+00;3;  0.0000000E+00;  0.0000000E+00;  0.0000000E+00;0;  0.0000000E+00;  1.0000000E+04;  0.0000000E+00;  0.0000000E+00;  1.0000000E+04;  0.0000000E+00;  1.0000000E+04;  0.0000000E+00;  0.0000000E+00;  0.0000000E+00;  0.0000000E+00;
  2.8000000E-01;  9.9999998E-03; -2.5999999E-01;1465;  0.0000000E+00;  0.0000000E+00;  0.0000000E+00;  1.0000000E+03;  4.0000001E-01;  0.0000000E+00;3;  0.0000000E+00;  0.0000000E+00;  0.0000000E+00;0;  0.0000000E+00;  1.0000000E+04;  0.0000000E+00;  0.0000000E+00;  1.0000000E+04;  0.0000000E+00;  1.0000000E+04;  0.0000000E+00;  0.0000000E+00;  0.0000000E+00;  0.0000000E+00;
  2.8000000E-01;  9.9999998E-03; -2.3999999E-01;1466;  0.0000000E+00;  0.0000000E+00;  0.0000000E+00;  1.0000000E+03;  4.0000001E-01;  0.0000000E+00;3;  0.0000000E+00;  0.0000000E+00;  0.0000000E+00;0;  0.0000000E+00;  1.0000000E+04;  0.0000000E+00;  0.0000000E+00;  1.0000000E+04;  0.0000000E+00;  1.0000000E+04;  0.0000000E+00;  0.0000000E+00;  0.0000000E+00;  0.0000000E+00;
  2.8000000E-01;  9.9999998E-03; -2.2000000E-01;1467;  0.0000000E+00;  0.0000000E+00;  0.0000000E+00;  1.0000000E+03;  4.0000001E-01;  0.0000000E+00;3;  0.0000000E+00;  0.0000000E+00;  0.0000000E+00;0;  0.0000000E+00;  1.0000000E+04;  0.0000000E+00;  0.0000000E+00;  1.0000000E+04;  0.0000000E+00;  1.0000000E+04;  0.0000000E+00;  0.0000000E+00;  0.0000000E+00;  0.0000000E+00;
  2.8000000E-01;  9.9999998E-03; -2.0000000E-01;1468;  0.0000000E+00;  0.0000000E+00;  0.0000000E+00;  1.0000000E+03;  4.0000001E-01;  0.0000000E+00;3;  0.0000000E+00;  0.0000000E+00;  0.0000000E+00;0;  0.0000000E+00;  1.0000000E+04;  0.0000000E+00;  0.0000000E+00;  1.0000000E+04;  0.0000000E+00;  1.0000000E+04;  0.0000000E+00;  0.0000000E+00;  0.0000000E+00;  0.0000000E+00;
  3.0000001E-01;  9.9999998E-03; -3.0000001E-01;1494;  0.0000000E+00;  0.0000000E+00;  0.0000000E+00;  1.0000000E+03;  4.0000001E-01;  0.0000000E+00;3;  0.0000000E+00;  0.0000000E+00;  0.0000000E+00;0;  0.0000000E+00;  1.0000000E+04;  0.0000000E+00;  0.0000000E+00;  1.0000000E+04;  0.0000000E+00;  1.0000000E+04;  0.0000000E+00;  0.0000000E+00;  0.0000000E+00;  0.0000000E+00;
  3.0000001E-01;  9.9999998E-03; -2.8000000E-01;1495;  0.0000000E+00;  0.0000000E+00;  0.0000000E+00;  1.0000000E+03;  4.0000001E-01;  0.0000000E+00;3;  0.0000000E+00;  0.0000000E+00;  0.0000000E+00;0;  0.0000000E+00;  1.0000000E+04;  0.0000000E+00;  0.0000000E+00;  1.0000000E+04;  0.0000000E+00;  1.0000000E+04;  0.0000000E+00;  0.0000000E+00;  0.0000000E+00;  0.0000000E+00;
  3.0000001E-01;  9.9999998E-03; -2.5999999E-01;1496;  0.0000000E+00;  0.0000000E+00;  0.0000000E+00;  1.0000000E+03;  4.0000001E-01;  0.0000000E+00;3;  0.0000000E+00;  0.0000000E+00;  0.0000000E+00;0;  0.0000000E+00;  1.0000000E+04;  0.0000000E+00;  0.0000000E+00;  1.0000000E+04;  0.0000000E+00;  1.0000000E+04;  0.0000000E+00;  0.0000000E+00;  0.0000000E+00;  0.0000000E+00;
  3.0000001E-01;  9.9999998E-03; -2.3999999E-01;1497;  0.0000000E+00;  0.0000000E+00;  0.0000000E+00;  1.0000000E+03;  4.0000001E-01;  0.0000000E+00;3;  0.0000000E+00;  0.0000000E+00;  0.0000000E+00;0;  0.0000000E+00;  1.0000000E+04;  0.0000000E+00;  0.0000000E+00;  1.0000000E+04;  0.0000000E+00;  1.0000000E+04;  0.0000000E+00;  0.0000000E+00;  0.0000000E+00;  0.0000000E+00;
  3.0000001E-01;  9.9999998E-03; -2.2000000E-01;1498;  0.0000000E+00;  0.0000000E+00;  0.0000000E+00;  1.0000000E+03;  4.0000001E-01;  0.0000000E+00;3;  0.0000000E+00;  0.0000000E+00;  0.0000000E+00;0;  0.0000000E+00;  1.0000000E+04;  0.0000000E+00;  0.0000000E+00;  1.0000000E+04;  0.0000000E+00;  1.0000000E+04;  0.0000000E+00;  0.0000000E+00;  0.0000000E+00;  0.0000000E+00;
  3.0000001E-01;  9.9999998E-03; -2.0000000E-01;1499;  0.0000000E+00;  0.0000000E+00;  0.0000000E+00;  1.0000000E+03;  4.0000001E-01;  0.0000000E+00;3;  0.0000000E+00;  0.0000000E+00;  0.0000000E+00;0;  0.0000000E+00;  1.0000000E+04;  0.0000000E+00;  0.0000000E+00;  1.0000000E+04;  0.0000000E+00;  1.0000000E+04;  0.0000000E+00;  0.0000000E+00;  0.0000000E+00;  0.0000000E+00;
  3.1999999E-01;  9.9999998E-03; -3.0000001E-01;1525;  0.0000000E+00;  0.0000000E+00;  0.0000000E+00;  1.0000000E+03;  4.0000001E-01;  0.0000000E+00;3;  0.0000000E+00;  0.0000000E+00;  0.0000000E+00;0;  0.0000000E+00;  1.0000000E+04;  0.0000000E+00;  0.0000000E+00;  1.0000000E+04;  0.0000000E+00;  1.0000000E+04;  0.0000000E+00;  0.0000000E+00;  0.0000000E+00;  0.0000000E+00;
  3.1999999E-01;  9.9999998E-03; -2.8000000E-01;1526;  0.0000000E+00;  0.0000000E+00;  0.0000000E+00;  1.0000000E+03;  4.0000001E-01;  0.0000000E+00;3;  0.0000000E+00;  0.0000000E+00;  0.0000000E+00;0;  0.0000000E+00;  1.0000000E+04;  0.0000000E+00;  0.0000000E+00;  1.0000000E+04;  0.0000000E+00;  1.0000000E+04;  0.0000000E+00;  0.0000000E+00;  0.0000000E+00;  0.0000000E+00;
  3.1999999E-01;  9.9999998E-03; -2.5999999E-01;1527;  0.0000000E+00;  0.0000000E+00;  0.0000000E+00;  1.0000000E+03;  4.0000001E-01;  0.0000000E+00;3;  0.0000000E+00;  0.0000000E+00;  0.0000000E+00;0;  0.0000000E+00;  1.0000000E+04;  0.0000000E+00;  0.0000000E+00;  1.0000000E+04;  0.0000000E+00;  1.0000000E+04;  0.0000000E+00;  0.0000000E+00;  0.0000000E+00;  0.0000000E+00;
  3.1999999E-01;  9.9999998E-03; -2.3999999E-01;1528;  0.0000000E+00;  0.0000000E+00;  0.0000000E+00;  1.0000000E+03;  4.0000001E-01;  0.0000000E+00;3;  0.0000000E+00;  0.0000000E+00;  0.0000000E+00;0;  0.0000000E+00;  1.0000000E+04;  0.0000000E+00;  0.0000000E+00;  1.0000000E+04;  0.0000000E+00;  1.0000000E+04;  0.0000000E+00;  0.0000000E+00;  0.0000000E+00;  0.0000000E+00;
  3.1999999E-01;  9.9999998E-03; -2.2000000E-01;1529;  0.0000000E+00;  0.0000000E+00;  0.0000000E+00;  1.0000000E+03;  4.0000001E-01;  0.0000000E+00;3;  0.0000000E+00;  0.0000000E+00;  0.0000000E+00;0;  0.0000000E+00;  1.0000000E+04;  0.0000000E+00;  0.0000000E+00;  1.0000000E+04;  0.0000000E+00;  1.0000000E+04;  0.0000000E+00;  0.0000000E+00;  0.0000000E+00;  0.0000000E+00;
  3.1999999E-01;  9.9999998E-03; -2.0000000E-01;1530;  0.0000000E+00;  0.0000000E+00;  0.0000000E+00;  1.0000000E+03;  4.0000001E-01;  0.0000000E+00;3;  0.0000000E+00;  0.0000000E+00;  0.0000000E+00;0;  0.0000000E+00;  1.0000000E+04;  0.0000000E+00;  0.0000000E+00;  1.0000000E+04;  0.0000000E+00;  1.0000000E+04;  0.0000000E+00;  0.0000000E+00;  0.0000000E+00;  0.0000000E+00;
  3.4000000E-01;  9.9999998E-03; -3.0000001E-01;1556;  0.0000000E+00;  0.0000000E+00;  0.0000000E+00;  1.0000000E+03;  4.0000001E-01;  0.0000000E+00;3;  0.0000000E+00;  0.0000000E+00;  0.0000000E+00;0;  0.0000000E+00;  1.0000000E+04;  0.0000000E+00;  0.0000000E+00;  1.0000000E+04;  0.0000000E+00;  1.0000000E+04;  0.0000000E+00;  0.0000000E+00;  0.0000000E+00;  0.0000000E+00;
  3.4000000E-01;  9.9999998E-03; -2.8000000E-01;1557;  0.0000000E+00;  0.0000000E+00;  0.0000000E+00;  1.0000000E+03;  4.0000001E-01;  0.0000000E+00;3;  0.0000000E+00;  0.0000000E+00;  0.0000000E+00;0;  0.0000000E+00;  1.0000000E+04;  0.0000000E+00;  0.0000000E+00;  1.0000000E+04;  0.0000000E+00;  1.0000000E+04;  0.0000000E+00;  0.0000000E+00;  0.0000000E+00;  0.0000000E+00;
  3.4000000E-01;  9.9999998E-03; -2.5999999E-01;1558;  0.0000000E+00;  0.0000000E+00;  0.0000000E+00;  1.0000000E+03;  4.0000001E-01;  0.0000000E+00;3;  0.0000000E+00;  0.0000000E+00;  0.0000000E+00;0;  0.0000000E+00;  1.0000000E+04;  0.0000000E+00;  0.0000000E+00;  1.0000000E+04;  0.0000000E+00;  1.0000000E+04;  0.0000000E+00;  0.0000000E+00;  0.0000000E+00;  0.0000000E+00;
  3.4000000E-01;  9.9999998E-03; -2.3999999E-01;1559;  0.0000000E+00;  0.0000000E+00;  0.0000000E+00;  1.0000000E+03;  4.0000001E-01;  0.0000000E+00;3;  0.0000000E+00;  0.0000000E+00;  0.0000000E+00;0;  0.0000000E+00;  1.0000000E+04;  0.0000000E+00;  0.0000000E+00;  1.0000000E+04;  0.0000000E+00;  1.0000000E+04;  0.0000000E+00;  0.0000000E+00;  0.0000000E+00;  0.0000000E+00;
  3.4000000E-01;  9.9999998E-03; -2.2000000E-01;1560;  0.0000000E+00;  0.0000000E+00;  0.0000000E+00;  1.0000000E+03;  4.0000001E-01;  0.0000000E+00;3;  0.0000000E+00;  0.0000000E+00;  0.0000000E+00;0;  0.0000000E+00;  1.0000000E+04;  0.0000000E+00;  0.0000000E+00;  1.0000000E+04;  0.0000000E+00;  1.0000000E+04;  0.0000000E+00;  0.0000000E+00;  0.0000000E+00;  0.0000000E+00;
  3.4000000E-01;  9.9999998E-03; -2.0000000E-01;1561;  0.0000000E+00;  0.0000000E+00;  0.0000000E+00;  1.0000000E+03;  4.0000001E-01;  0.0000000E+00;3;  0.0000000E+00;  0.0000000E+00;  0.0000000E+00;0;  0.0000000E+00;  1.0000000E+04;  0.0000000E+00;  0.0000000E+00;  1.0000000E+04;  0.0000000E+00;  1.0000000E+04;  0.0000000E+00;  0.0000000E+00;  0.0000000E+00;  0.0000000E+00;
  3.6000001E-01;  9.9999998E-03; -3.0000001E-01;1587;  0.0000000E+00;  0.0000000E+00;  0.0000000E+00;  1.0000000E+03;  4.0000001E-01;  0.0000000E+00;3;  0.0000000E+00;  0.0000000E+00;  0.0000000E+00;0;  0.0000000E+00;  1.0000000E+04;  0.0000000E+00;  0.0000000E+00;  1.0000000E+04;  0.0000000E+00;  1.0000000E+04;  0.0000000E+00;  0.0000000E+00;  0.0000000E+00;  0.0000000E+00;
  3.6000001E-01;  9.9999998E-03; -2.8000000E-01;1588;  0.0000000E+00;  0.0000000E+00;  0.0000000E+00;  1.0000000E+03;  4.0000001E-01;  0.0000000E+00;3;  0.0000000E+00;  0.0000000E+00;  0.0000000E+00;0;  0.0000000E+00;  1.0000000E+04;  0.0000000E+00;  0.0000000E+00;  1.0000000E+04;  0.0000000E+00;  1.0000000E+04;  0.0000000E+00;  0.0000000E+00;  0.0000000E+00;  0.0000000E+00;
  3.6000001E-01;  9.9999998E-03; -2.5999999E-01;1589;  0.0000000E+00;  0.0000000E+00;  0.0000000E+00;  1.0000000E+03;  4.0000001E-01;  0.0000000E+00;3;  0.0000000E+00;  0.0000000E+00;  0.0000000E+00;0;  0.0000000E+00;  1.0000000E+04;  0.0000000E+00;  0.0000000E+00;  1.0000000E+04;  0.0000000E+00;  1.0000000E+04;  0.0000000E+00;  0.0000000E+00;  0.0000000E+00;  0.0000000E+00;
  3.6000001E-01;  9.9999998E-03; -2.3999999E-01;1590;  0.0000000E+00;  0.0000000E+00;  0.0000000E+00;  1.0000000E+03;  4.0000001E-01;  0.0000000E+00;3;  0.0000000E+00;  0.0000000E+00;  0.0000000E+00;0;  0.0000000E+00;  1.0000000E+04;  0.0000000E+00;  0.0000000E+00;  1.0000000E+04;  0.0000000E+00;  1.0000000E+04;  0.0000000E+00;  0.0000000E+00;  0.0000000E+00;  0.0000000E+00;
  3.6000001E-01;  9.9999998E-03; -2.2000000E-01;1591;  0.0000000E+00;  0.0000000E+00;  0.0000000E+00;  1.0000000E+03;  4.0000001E-01;  0.0000000E+00;3;  0.0000000E+00;  0.0000000E+00;  0.0000000E+00;0;  0.0000000E+00;  1.0000000E+04;  0.0000000E+00;  0.0000000E+00;  1.0000000E+04;  0.0000000E+00;  1.0000000E+04;  0.0000000E+00;  0.0000000E+00;  0.0000000E+00;  0.0000000E+00;
  3.6000001E-01;  9.9999998E-03; -2.0000000E-01;1592;  0.0000000E+00;  0.0000000E+00;  0.0000000E+00;  1.0000000E+03;  4.0000001E-01;  0.0000000E+00;3;  0.0000000E+00;  0.0000000E+00;  0.0000000E+00;0;  0.0000000E+00;  1.0000000E+04;  0.0000000E+00;  0.0000000E+00;  1.0000000E+04;  0.0000000E+00;  1.0000000E+04;  0.0000000E+00;  0.0000000E+00;  0.0000000E+00;  0.0000000E+00;
  3.8000000E-01;  9.9999998E-03; -3.0000001E-01;1618;  0.0000000E+00;  0.0000000E+00;  0.0000000E+00;  1.0000000E+03;  4.0000001E-01;  0.0000000E+00;3;  0.0000000E+00;  0.0000000E+00;  0.0000000E+00;0;  0.0000000E+00;  1.0000000E+04;  0.0000000E+00;  0.0000000E+00;  1.0000000E+04;  0.0000000E+00;  1.0000000E+04;  0.0000000E+00;  0.0000000E+00;  0.0000000E+00;  0.0000000E+00;
  3.8000000E-01;  9.9999998E-03; -2.8000000E-01;1619;  0.0000000E+00;  0.0000000E+00;  0.0000000E+00;  1.0000000E+03;  4.0000001E-01;  0.0000000E+00;3;  0.0000000E+00;  0.0000000E+00;  0.0000000E+00;0;  0.0000000E+00;  1.0000000E+04;  0.0000000E+00;  0.0000000E+00;  1.0000000E+04;  0.0000000E+00;  1.0000000E+04;  0.0000000E+00;  0.0000000E+00;  0.0000000E+00;  0.0000000E+00;
  3.8000000E-01;  9.9999998E-03; -2.5999999E-01;1620;  0.0000000E+00;  0.0000000E+00;  0.0000000E+00;  1.0000000E+03;  4.0000001E-01;  0.0000000E+00;3;  0.0000000E+00;  0.0000000E+00;  0.0000000E+00;0;  0.0000000E+00;  1.0000000E+04;  0.0000000E+00;  0.0000000E+00;  1.0000000E+04;  0.0000000E+00;  1.0000000E+04;  0.0000000E+00;  0.0000000E+00;  0.0000000E+00;  0.0000000E+00;
  3.8000000E-01;  9.9999998E-03; -2.3999999E-01;1621;  0.0000000E+00;  0.0000000E+00;  0.0000000E+00;  1.0000000E+03;  4.0000001E-01;  0.0000000E+00;3;  0.0000000E+00;  0.0000000E+00;  0.0000000E+00;0;  0.0000000E+00;  1.0000000E+04;  0.0000000E+00;  0.0000000E+00;  1.0000000E+04;  0.0000000E+00;  1.0000000E+04;  0.0000000E+00;  0.0000000E+00;  0.0000000E+00;  0.0000000E+00;
  3.8000000E-01;  9.9999998E-03; -2.2000000E-01;1622;  0.0000000E+00;  0.0000000E+00;  0.0000000E+00;  1.0000000E+03;  4.0000001E-01;  0.0000000E+00;3;  0.0000000E+00;  0.0000000E+00;  0.0000000E+00;0;  0.0000000E+00;  1.0000000E+04;  0.0000000E+00;  0.0000000E+00;  1.0000000E+04;  0.0000000E+00;  1.0000000E+04;  0.0000000E+00;  0.0000000E+00;  0.0000000E+00;  0.0000000E+00;
  3.8000000E-01;  9.9999998E-03; -2.0000000E-01;1623;  0.0000000E+00;  0.0000000E+00;  0.0000000E+00;  1.0000000E+03;  4.0000001E-01;  0.0000000E+00;3;  0.0000000E+00;  0.0000000E+00;  0.0000000E+00;0;  0.0000000E+00;  1.0000000E+04;  0.0000000E+00;  0.0000000E+00;  1.0000000E+04;  0.0000000E+00;  1.0000000E+04;  0.0000000E+00;  0.0000000E+00;  0.0000000E+00;  0.0000000E+00;
  4.0000001E-01;  9.9999998E-03; -3.0000001E-01;1649;  0.0000000E+00;  0.0000000E+00;  0.0000000E+00;  1.0000000E+03;  4.0000001E-01;  0.0000000E+00;3;  0.0000000E+00;  0.0000000E+00;  0.0000000E+00;0;  0.0000000E+00;  1.0000000E+04;  0.0000000E+00;  0.0000000E+00;  1.0000000E+04;  0.0000000E+00;  1.0000000E+04;  0.0000000E+00;  0.0000000E+00;  0.0000000E+00;  0.0000000E+00;
  4.0000001E-01;  9.9999998E-03; -2.8000000E-01;1650;  0.0000000E+00;  0.0000000E+00;  0.0000000E+00;  1.0000000E+03;  4.0000001E-01;  0.0000000E+00;3;  0.0000000E+00;  0.0000000E+00;  0.0000000E+00;0;  0.0000000E+00;  1.0000000E+04;  0.0000000E+00;  0.0000000E+00;  1.0000000E+04;  0.0000000E+00;  1.0000000E+04;  0.0000000E+00;  0.0000000E+00;  0.0000000E+00;  0.0000000E+00;
  4.0000001E-01;  9.9999998E-03; -2.5999999E-01;1651;  0.0000000E+00;  0.0000000E+00;  0.0000000E+00;  1.0000000E+03;  4.0000001E-01;  0.0000000E+00;3;  0.0000000E+00;  0.0000000E+00;  0.0000000E+00;0;  0.0000000E+00;  1.0000000E+04;  0.0000000E+00;  0.0000000E+00;  1.0000000E+04;  0.0000000E+00;  1.0000000E+04;  0.0000000E+00;  0.0000000E+00;  0.0000000E+00;  0.0000000E+00;
  4.0000001E-01;  9.9999998E-03; -2.3999999E-01;1652;  0.0000000E+00;  0.0000000E+00;  0.0000000E+00;  1.0000000E+03;  4.0000001E-01;  0.0000000E+00;3;  0.0000000E+00;  0.0000000E+00;  0.0000000E+00;0;  0.0000000E+00;  1.0000000E+04;  0.0000000E+00;  0.0000000E+00;  1.0000000E+04;  0.0000000E+00;  1.0000000E+04;  0.0000000E+00;  0.0000000E+00;  0.0000000E+00;  0.0000000E+00;
  4.0000001E-01;  9.9999998E-03; -2.2000000E-01;1653;  0.0000000E+00;  0.0000000E+00;  0.0000000E+00;  1.0000000E+03;  4.0000001E-01;  0.0000000E+00;3;  0.0000000E+00;  0.0000000E+00;  0.0000000E+00;0;  0.0000000E+00;  1.0000000E+04;  0.0000000E+00;  0.0000000E+00;  1.0000000E+04;  0.0000000E+00;  1.0000000E+04;  0.0000000E+00;  0.0000000E+00;  0.0000000E+00;  0.0000000E+00;
  4.0000001E-01;  9.9999998E-03; -2.0000000E-01;1654;  0.0000000E+00;  0.0000000E+00;  0.0000000E+00;  1.0000000E+03;  4.0000001E-01;  0.0000000E+00;3;  0.0000000E+00;  0.0000000E+00;  0.0000000E+00;0;  0.0000000E+00;  1.0000000E+04;  0.0000000E+00;  0.0000000E+00;  1.0000000E+04;  0.0000000E+00;  1.0000000E+04;  0.0000000E+00;  0.0000000E+00;  0.0000000E+00;  0.0000000E+00;
  4.1999999E-01;  9.9999998E-03; -3.0000001E-01;1680;  0.0000000E+00;  0.0000000E+00;  0.0000000E+00;  1.0000000E+03;  4.0000001E-01;  0.0000000E+00;3;  0.0000000E+00;  0.0000000E+00;  0.0000000E+00;0;  0.0000000E+00;  1.0000000E+04;  0.0000000E+00;  0.0000000E+00;  1.0000000E+04;  0.0000000E+00;  1.0000000E+04;  0.0000000E+00;  0.0000000E+00;  0.0000000E+00;  0.0000000E+00;
  4.1999999E-01;  9.9999998E-03; -2.8000000E-01;1681;  0.0000000E+00;  0.0000000E+00;  0.0000000E+00;  1.0000000E+03;  4.0000001E-01;  0.0000000E+00;3;  0.0000000E+00;  0.0000000E+00;  0.0000000E+00;0;  0.0000000E+00;  1.0000000E+04;  0.0000000E+00;  0.0000000E+00;  1.0000000E+04;  0.0000000E+00;  1.0000000E+04;  0.0000000E+00;  0.0000000E+00;  0.0000000E+00;  0.0000000E+00;
  4.1999999E-01;  9.9999998E-03; -2.5999999E-01;1682;  0.0000000E+00;  0.0000000E+00;  0.0000000E+00;  1.0000000E+03;  4.0000001E-01;  0.0000000E+00;3;  0.0000000E+00;  0.0000000E+00;  0.0000000E+00;0;  0.0000000E+00;  1.0000000E+04;  0.0000000E+00;  0.0000000E+00;  1.0000000E+04;  0.0000000E+00;  1.0000000E+04;  0.0000000E+00;  0.0000000E+00;  0.0000000E+00;  0.0000000E+00;
  4.1999999E-01;  9.9999998E-03; -2.3999999E-01;1683;  0.0000000E+00;  0.0000000E+00;  0.0000000E+00;  1.0000000E+03;  4.0000001E-01;  0.0000000E+00;3;  0.0000000E+00;  0.0000000E+00;  0.0000000E+00;0;  0.0000000E+00;  1.0000000E+04;  0.0000000E+00;  0.0000000E+00;  1.0000000E+04;  0.0000000E+00;  1.0000000E+04;  0.0000000E+00;  0.0000000E+00;  0.0000000E+00;  0.0000000E+00;
  4.1999999E-01;  9.9999998E-03; -2.2000000E-01;1684;  0.0000000E+00;  0.0000000E+00;  0.0000000E+00;  1.0000000E+03;  4.0000001E-01;  0.0000000E+00;3;  0.0000000E+00;  0.0000000E+00;  0.0000000E+00;0;  0.0000000E+00;  1.0000000E+04;  0.0000000E+00;  0.0000000E+00;  1.0000000E+04;  0.0000000E+00;  1.0000000E+04;  0.0000000E+00;  0.0000000E+00;  0.0000000E+00;  0.0000000E+00;
  4.1999999E-01;  9.9999998E-03; -2.0000000E-01;1685;  0.0000000E+00;  0.0000000E+00;  0.0000000E+00;  1.0000000E+03;  4.0000001E-01;  0.0000000E+00;3;  0.0000000E+00;  0.0000000E+00;  0.0000000E+00;0;  0.0000000E+00;  1.0000000E+04;  0.0000000E+00;  0.0000000E+00;  1.0000000E+04;  0.0000000E+00;  1.0000000E+04;  0.0000000E+00;  0.0000000E+00;  0.0000000E+00;  0.0000000E+00;
  4.4000000E-01;  9.9999998E-03; -3.0000001E-01;1711;  0.0000000E+00;  0.0000000E+00;  0.0000000E+00;  1.0000000E+03;  4.0000001E-01;  0.0000000E+00;3;  0.0000000E+00;  0.0000000E+00;  0.0000000E+00;0;  0.0000000E+00;  1.0000000E+04;  0.0000000E+00;  0.0000000E+00;  1.0000000E+04;  0.0000000E+00;  1.0000000E+04;  0.0000000E+00;  0.0000000E+00;  0.0000000E+00;  0.0000000E+00;
  4.4000000E-01;  9.9999998E-03; -2.8000000E-01;1712;  0.0000000E+00;  0.0000000E+00;  0.0000000E+00;  1.0000000E+03;  4.0000001E-01;  0.0000000E+00;3;  0.0000000E+00;  0.0000000E+00;  0.0000000E+00;0;  0.0000000E+00;  1.0000000E+04;  0.0000000E+00;  0.0000000E+00;  1.0000000E+04;  0.0000000E+00;  1.0000000E+04;  0.0000000E+00;  0.0000000E+00;  0.0000000E+00;  0.0000000E+00;
  4.4000000E-01;  9.9999998E-03; -2.5999999E-01;1713;  0.0000000E+00;  0.0000000E+00;  0.0000000E+00;  1.0000000E+03;  4.0000001E-01;  0.0000000E+00;3;  0.0000000E+00;  0.0000000E+00;  0.0000000E+00;0;  0.0000000E+00;  1.0000000E+04;  0.0000000E+00;  0.0000000E+00;  1.0000000E+04;  0.0000000E+00;  1.0000000E+04;  0.0000000E+00;  0.0000000E+00;  0.0000000E+00;  0.0000000E+00;
  4.4000000E-01;  9.9999998E-03; -2.3999999E-01;1714;  0.0000000E+00;  0.0000000E+00;  0.0000000E+00;  1.0000000E+03;  4.0000001E-01;  0.0000000E+00;3;  0.0000000E+00;  0.0000000E+00;  0.0000000E+00;0;  0.0000000E+00;  1.0000000E+04;  0.0000000E+00;  0.0000000E+00;  1.0000000E+04;  0.0000000E+00;  1.0000000E+04;  0.0000000E+00;  0.0000000E+00;  0.0000000E+00;  0.0000000E+00;
  4.4000000E-01;  9.9999998E-03; -2.2000000E-01;1715;  0.0000000E+00;  0.0000000E+00;  0.0000000E+00;  1.0000000E+03;  4.0000001E-01;  0.0000000E+00;3;  0.0000000E+00;  0.0000000E+00;  0.0000000E+00;0;  0.0000000E+00;  1.0000000E+04;  0.0000000E+00;  0.0000000E+00;  1.0000000E+04;  0.0000000E+00;  1.0000000E+04;  0.0000000E+00;  0.0000000E+00;  0.0000000E+00;  0.0000000E+00;
  4.4000000E-01;  9.9999998E-03; -2.0000000E-01;1716;  0.0000000E+00;  0.0000000E+00;  0.0000000E+00;  1.0000000E+03;  4.0000001E-01;  0.0000000E+00;3;  0.0000000E+00;  0.0000000E+00;  0.0000000E+00;0;  0.0000000E+00;  1.0000000E+04;  0.0000000E+00;  0.0000000E+00;  1.0000000E+04;  0.0000000E+00;  1.0000000E+04;  0.0000000E+00;  0.0000000E+00;  0.0000000E+00;  0.0000000E+00;
  4.6000001E-01;  9.9999998E-03; -3.0000001E-01;1742;  0.0000000E+00;  0.0000000E+00;  0.0000000E+00;  1.0000000E+03;  4.0000001E-01;  0.0000000E+00;3;  0.0000000E+00;  0.0000000E+00;  0.0000000E+00;0;  0.0000000E+00;  1.0000000E+04;  0.0000000E+00;  0.0000000E+00;  1.0000000E+04;  0.0000000E+00;  1.0000000E+04;  0.0000000E+00;  0.0000000E+00;  0.0000000E+00;  0.0000000E+00;
  4.6000001E-01;  9.9999998E-03; -2.8000000E-01;1743;  0.0000000E+00;  0.0000000E+00;  0.0000000E+00;  1.0000000E+03;  4.0000001E-01;  0.0000000E+00;3;  0.0000000E+00;  0.0000000E+00;  0.0000000E+00;0;  0.0000000E+00;  1.0000000E+04;  0.0000000E+00;  0.0000000E+00;  1.0000000E+04;  0.0000000E+00;  1.0000000E+04;  0.0000000E+00;  0.0000000E+00;  0.0000000E+00;  0.0000000E+00;
  4.6000001E-01;  9.9999998E-03; -2.5999999E-01;1744;  0.0000000E+00;  0.0000000E+00;  0.0000000E+00;  1.0000000E+03;  4.0000001E-01;  0.0000000E+00;3;  0.0000000E+00;  0.0000000E+00;  0.0000000E+00;0;  0.0000000E+00;  1.0000000E+04;  0.0000000E+00;  0.0000000E+00;  1.0000000E+04;  0.0000000E+00;  1.0000000E+04;  0.0000000E+00;  0.0000000E+00;  0.0000000E+00;  0.0000000E+00;
  4.6000001E-01;  9.9999998E-03; -2.3999999E-01;1745;  0.0000000E+00;  0.0000000E+00;  0.0000000E+00;  1.0000000E+03;  4.0000001E-01;  0.0000000E+00;3;  0.0000000E+00;  0.0000000E+00;  0.0000000E+00;0;  0.0000000E+00;  1.0000000E+04;  0.0000000E+00;  0.0000000E+00;  1.0000000E+04;  0.0000000E+00;  1.0000000E+04;  0.0000000E+00;  0.0000000E+00;  0.0000000E+00;  0.0000000E+00;
  4.6000001E-01;  9.9999998E-03; -2.2000000E-01;1746;  0.0000000E+00;  0.0000000E+00;  0.0000000E+00;  1.0000000E+03;  4.0000001E-01;  0.0000000E+00;3;  0.0000000E+00;  0.0000000E+00;  0.0000000E+00;0;  0.0000000E+00;  1.0000000E+04;  0.0000000E+00;  0.0000000E+00;  1.0000000E+04;  0.0000000E+00;  1.0000000E+04;  0.0000000E+00;  0.0000000E+00;  0.0000000E+00;  0.0000000E+00;
  4.6000001E-01;  9.9999998E-03; -2.0000000E-01;1747;  0.0000000E+00;  0.0000000E+00;  0.0000000E+00;  1.0000000E+03;  4.0000001E-01;  0.0000000E+00;3;  0.0000000E+00;  0.0000000E+00;  0.0000000E+00;0;  0.0000000E+00;  1.0000000E+04;  0.0000000E+00;  0.0000000E+00;  1.0000000E+04;  0.0000000E+00;  1.0000000E+04;  0.0000000E+00;  0.0000000E+00;  0.0000000E+00;  0.0000000E+00;
  4.7999999E-01;  9.9999998E-03; -3.0000001E-01;1773;  0.0000000E+00;  0.0000000E+00;  0.0000000E+00;  1.0000000E+03;  4.0000001E-01;  0.0000000E+00;3;  0.0000000E+00;  0.0000000E+00;  0.0000000E+00;0;  0.0000000E+00;  1.0000000E+04;  0.0000000E+00;  0.0000000E+00;  1.0000000E+04;  0.0000000E+00;  1.0000000E+04;  0.0000000E+00;  0.0000000E+00;  0.0000000E+00;  0.0000000E+00;
  4.7999999E-01;  9.9999998E-03; -2.8000000E-01;1774;  0.0000000E+00;  0.0000000E+00;  0.0000000E+00;  1.0000000E+03;  4.0000001E-01;  0.0000000E+00;3;  0.0000000E+00;  0.0000000E+00;  0.0000000E+00;0;  0.0000000E+00;  1.0000000E+04;  0.0000000E+00;  0.0000000E+00;  1.0000000E+04;  0.0000000E+00;  1.0000000E+04;  0.0000000E+00;  0.0000000E+00;  0.0000000E+00;  0.0000000E+00;
  4.7999999E-01;  9.9999998E-03; -2.5999999E-01;1775;  0.0000000E+00;  0.0000000E+00;  0.0000000E+00;  1.0000000E+03;  4.0000001E-01;  0.0000000E+00;3;  0.0000000E+00;  0.0000000E+00;  0.0000000E+00;0;  0.0000000E+00;  1.0000000E+04;  0.0000000E+00;  0.0000000E+00;  1.0000000E+04;  0.0000000E+00;  1.0000000E+04;  0.0000000E+00;  0.0000000E+00;  0.0000000E+00;  0.0000000E+00;
  4.7999999E-01;  9.9999998E-03; -2.3999999E-01;1776;  0.0000000E+00;  0.0000000E+00;  0.0000000E+00;  1.0000000E+03;  4.0000001E-01;  0.0000000E+00;3;  0.0000000E+00;  0.0000000E+00;  0.0000000E+00;0;  0.0000000E+00;  1.0000000E+04;  0.0000000E+00;  0.0000000E+00;  1.0000000E+04;  0.0000000E+00;  1.0000000E+04;  0.0000000E+00;  0.0000000E+00;  0.0000000E+00;  0.0000000E+00;
  4.7999999E-01;  9.9999998E-03; -2.2000000E-01;1777;  0.0000000E+00;  0.0000000E+00;  0.0000000E+00;  1.0000000E+03;  4.0000001E-01;  0.0000000E+00;3;  0.0000000E+00;  0.0000000E+00;  0.0000000E+00;0;  0.0000000E+00;  1.0000000E+04;  0.0000000E+00;  0.0000000E+00;  1.0000000E+04;  0.0000000E+00;  1.0000000E+04;  0.0000000E+00;  0.0000000E+00;  0.0000000E+00;  0.0000000E+00;
  4.7999999E-01;  9.9999998E-03; -2.0000000E-01;1778;  0.0000000E+00;  0.0000000E+00;  0.0000000E+00;  1.0000000E+03;  4.0000001E-01;  0.0000000E+00;3;  0.0000000E+00;  0.0000000E+00;  0.0000000E+00;0;  0.0000000E+00;  1.0000000E+04;  0.0000000E+00;  0.0000000E+00;  1.0000000E+04;  0.0000000E+00;  1.0000000E+04;  0.0000000E+00;  0.0000000E+00;  0.0000000E+00;  0.0000000E+00;
  5.0000000E-01;  9.9999998E-03; -3.0000001E-01;1804;  0.0000000E+00;  0.0000000E+00;  0.0000000E+00;  1.0000000E+03;  4.0000001E-01;  0.0000000E+00;3;  0.0000000E+00;  0.0000000E+00;  0.0000000E+00;0;  0.0000000E+00;  1.0000000E+04;  0.0000000E+00;  0.0000000E+00;  1.0000000E+04;  0.0000000E+00;  1.0000000E+04;  0.0000000E+00;  0.0000000E+00;  0.0000000E+00;  0.0000000E+00;
  5.0000000E-01;  9.9999998E-03; -2.8000000E-01;1805;  0.0000000E+00;  0.0000000E+00;  0.0000000E+00;  1.0000000E+03;  4.0000001E-01;  0.0000000E+00;3;  0.0000000E+00;  0.0000000E+00;  0.0000000E+00;0;  0.0000000E+00;  1.0000000E+04;  0.0000000E+00;  0.0000000E+00;  1.0000000E+04;  0.0000000E+00;  1.0000000E+04;  0.0000000E+00;  0.0000000E+00;  0.0000000E+00;  0.0000000E+00;
  5.0000000E-01;  9.9999998E-03; -2.5999999E-01;1806;  0.0000000E+00;  0.0000000E+00;  0.0000000E+00;  1.0000000E+03;  4.0000001E-01;  0.0000000E+00;3;  0.0000000E+00;  0.0000000E+00;  0.0000000E+00;0;  0.0000000E+00;  1.0000000E+04;  0.0000000E+00;  0.0000000E+00;  1.0000000E+04;  0.0000000E+00;  1.0000000E+04;  0.0000000E+00;  0.0000000E+00;  0.0000000E+00;  0.0000000E+00;
  5.0000000E-01;  9.9999998E-03; -2.3999999E-01;1807;  0.0000000E+00;  0.0000000E+00;  0.0000000E+00;  1.0000000E+03;  4.0000001E-01;  0.0000000E+00;3;  0.0000000E+00;  0.0000000E+00;  0.0000000E+00;0;  0.0000000E+00;  1.0000000E+04;  0.0000000E+00;  0.0000000E+00;  1.0000000E+04;  0.0000000E+00;  1.0000000E+04;  0.0000000E+00;  0.0000000E+00;  0.0000000E+00;  0.0000000E+00;
  5.0000000E-01;  9.9999998E-03; -2.2000000E-01;1808;  0.0000000E+00;  0.0000000E+00;  0.0000000E+00;  1.0000000E+03;  4.0000001E-01;  0.0000000E+00;3;  0.0000000E+00;  0.0000000E+00;  0.0000000E+00;0;  0.0000000E+00;  1.0000000E+04;  0.0000000E+00;  0.0000000E+00;  1.0000000E+04;  0.0000000E+00;  1.0000000E+04;  0.0000000E+00;  0.0000000E+00;  0.0000000E+00;  0.0000000E+00;
  5.0000000E-01;  9.9999998E-03; -2.0000000E-01;1809;  0.0000000E+00;  0.0000000E+00;  0.0000000E+00;  1.0000000E+03;  4.0000001E-01;  0.0000000E+00;3;  0.0000000E+00;  0.0000000E+00;  0.0000000E+00;0;  0.0000000E+00;  1.0000000E+04;  0.0000000E+00;  0.0000000E+00;  1.0000000E+04;  0.0000000E+00;  1.0000000E+04;  0.0000000E+00;  0.0000000E+00;  0.0000000E+00;  0.0000000E+00;
  5.1999998E-01;  9.9999998E-03; -3.0000001E-01;1835;  0.0000000E+00;  0.0000000E+00;  0.0000000E+00;  1.0000000E+03;  4.0000001E-01;  0.0000000E+00;3;  0.0000000E+00;  0.0000000E+00;  0.0000000E+00;0;  0.0000000E+00;  1.0000000E+04;  0.0000000E+00;  0.0000000E+00;  1.0000000E+04;  0.0000000E+00;  1.0000000E+04;  0.0000000E+00;  0.0000000E+00;  0.0000000E+00;  0.0000000E+00;
  5.1999998E-01;  9.9999998E-03; -2.8000000E-01;1836;  0.0000000E+00;  0.0000000E+00;  0.0000000E+00;  1.0000000E+03;  4.0000001E-01;  0.0000000E+00;3;  0.0000000E+00;  0.0000000E+00;  0.0000000E+00;0;  0.0000000E+00;  1.0000000E+04;  0.0000000E+00;  0.0000000E+00;  1.0000000E+04;  0.0000000E+00;  1.0000000E+04;  0.0000000E+00;  0.0000000E+00;  0.0000000E+00;  0.0000000E+00;
  5.1999998E-01;  9.9999998E-03; -2.5999999E-01;1837;  0.0000000E+00;  0.0000000E+00;  0.0000000E+00;  1.0000000E+03;  4.0000001E-01;  0.0000000E+00;3;  0.0000000E+00;  0.0000000E+00;  0.0000000E+00;0;  0.0000000E+00;  1.0000000E+04;  0.0000000E+00;  0.0000000E+00;  1.0000000E+04;  0.0000000E+00;  1.0000000E+04;  0.0000000E+00;  0.0000000E+00;  0.0000000E+00;  0.0000000E+00;
  5.1999998E-01;  9.9999998E-03; -2.3999999E-01;1838;  0.0000000E+00;  0.0000000E+00;  0.0000000E+00;  1.0000000E+03;  4.0000001E-01;  0.0000000E+00;3;  0.0000000E+00;  0.0000000E+00;  0.0000000E+00;0;  0.0000000E+00;  1.0000000E+04;  0.0000000E+00;  0.0000000E+00;  1.0000000E+04;  0.0000000E+00;  1.0000000E+04;  0.0000000E+00;  0.0000000E+00;  0.0000000E+00;  0.0000000E+00;
  5.1999998E-01;  9.9999998E-03; -2.2000000E-01;1839;  0.0000000E+00;  0.0000000E+00;  0.0000000E+00;  1.0000000E+03;  4.0000001E-01;  0.0000000E+00;3;  0.0000000E+00;  0.0000000E+00;  0.0000000E+00;0;  0.0000000E+00;  1.0000000E+04;  0.0000000E+00;  0.0000000E+00;  1.0000000E+04;  0.0000000E+00;  1.0000000E+04;  0.0000000E+00;  0.0000000E+00;  0.0000000E+00;  0.0000000E+00;
  5.1999998E-01;  9.9999998E-03; -2.0000000E-01;1840;  0.0000000E+00;  0.0000000E+00;  0.0000000E+00;  1.0000000E+03;  4.0000001E-01;  0.0000000E+00;3;  0.0000000E+00;  0.0000000E+00;  0.0000000E+00;0;  0.0000000E+00;  1.0000000E+04;  0.0000000E+00;  0.0000000E+00;  1.0000000E+04;  0.0000000E+00;  1.0000000E+04;  0.0000000E+00;  0.0000000E+00;  0.0000000E+00;  0.0000000E+00;
  5.4000002E-01;  9.9999998E-03; -3.0000001E-01;1866;  0.0000000E+00;  0.0000000E+00;  0.0000000E+00;  1.0000000E+03;  4.0000001E-01;  0.0000000E+00;3;  0.0000000E+00;  0.0000000E+00;  0.0000000E+00;0;  0.0000000E+00;  1.0000000E+04;  0.0000000E+00;  0.0000000E+00;  1.0000000E+04;  0.0000000E+00;  1.0000000E+04;  0.0000000E+00;  0.0000000E+00;  0.0000000E+00;  0.0000000E+00;
  5.4000002E-01;  9.9999998E-03; -2.8000000E-01;1867;  0.0000000E+00;  0.0000000E+00;  0.0000000E+00;  1.0000000E+03;  4.0000001E-01;  0.0000000E+00;3;  0.0000000E+00;  0.0000000E+00;  0.0000000E+00;0;  0.0000000E+00;  1.0000000E+04;  0.0000000E+00;  0.0000000E+00;  1.0000000E+04;  0.0000000E+00;  1.0000000E+04;  0.0000000E+00;  0.0000000E+00;  0.0000000E+00;  0.0000000E+00;
  5.4000002E-01;  9.9999998E-03; -2.5999999E-01;1868;  0.0000000E+00;  0.0000000E+00;  0.0000000E+00;  1.0000000E+03;  4.0000001E-01;  0.0000000E+00;3;  0.0000000E+00;  0.0000000E+00;  0.0000000E+00;0;  0.0000000E+00;  1.0000000E+04;  0.0000000E+00;  0.0000000E+00;  1.0000000E+04;  0.0000000E+00;  1.0000000E+04;  0.0000000E+00;  0.0000000E+00;  0.0000000E+00;  0.0000000E+00;
  5.4000002E-01;  9.9999998E-03; -2.3999999E-01;1869;  0.0000000E+00;  0.0000000E+00;  0.0000000E+00;  1.0000000E+03;  4.0000001E-01;  0.0000000E+00;3;  0.0000000E+00;  0.0000000E+00;  0.0000000E+00;0;  0.0000000E+00;  1.0000000E+04;  0.0000000E+00;  0.0000000E+00;  1.0000000E+04;  0.0000000E+00;  1.0000000E+04;  0.0000000E+00;  0.0000000E+00;  0.0000000E+00;  0.0000000E+00;
  5.4000002E-01;  9.9999998E-03; -2.2000000E-01;1870;  0.0000000E+00;  0.0000000E+00;  0.0000000E+00;  1.0000000E+03;  4.0000001E-01;  0.0000000E+00;3;  0.0000000E+00;  0.0000000E+00;  0.0000000E+00;0;  0.0000000E+00;  1.0000000E+04;  0.0000000E+00;  0.0000000E+00;  1.0000000E+04;  0.0000000E+00;  1.0000000E+04;  0.0000000E+00;  0.0000000E+00;  0.0000000E+00;  0.0000000E+00;
  5.4000002E-01;  9.9999998E-03; -2.0000000E-01;1871;  0.0000000E+00;  0.0000000E+00;  0.0000000E+00;  1.0000000E+03;  4.0000001E-01;  0.0000000E+00;3;  0.0000000E+00;  0.0000000E+00;  0.0000000E+00;0;  0.0000000E+00;  1.0000000E+04;  0.0000000E+00;  0.0000000E+00;  1.0000000E+04;  0.0000000E+00;  1.0000000E+04;  0.0000000E+00;  0.0000000E+00;  0.0000000E+00;  0.0000000E+00;
  5.6000000E-01;  9.9999998E-03; -3.0000001E-01;1897;  0.0000000E+00;  0.0000000E+00;  0.0000000E+00;  1.0000000E+03;  4.0000001E-01;  0.0000000E+00;3;  0.0000000E+00;  0.0000000E+00;  0.0000000E+00;0;  0.0000000E+00;  1.0000000E+04;  0.0000000E+00;  0.0000000E+00;  1.0000000E+04;  0.0000000E+00;  1.0000000E+04;  0.0000000E+00;  0.0000000E+00;  0.0000000E+00;  0.0000000E+00;
  5.6000000E-01;  9.9999998E-03; -2.8000000E-01;1898;  0.0000000E+00;  0.0000000E+00;  0.0000000E+00;  1.0000000E+03;  4.0000001E-01;  0.0000000E+00;3;  0.0000000E+00;  0.0000000E+00;  0.0000000E+00;0;  0.0000000E+00;  1.0000000E+04;  0.0000000E+00;  0.0000000E+00;  1.0000000E+04;  0.0000000E+00;  1.0000000E+04;  0.0000000E+00;  0.0000000E+00;  0.0000000E+00;  0.0000000E+00;
  5.6000000E-01;  9.9999998E-03; -2.5999999E-01;1899;  0.0000000E+00;  0.0000000E+00;  0.0000000E+00;  1.0000000E+03;  4.0000001E-01;  0.0000000E+00;3;  0.0000000E+00;  0.0000000E+00;  0.0000000E+00;0;  0.0000000E+00;  1.0000000E+04;  0.0000000E+00;  0.0000000E+00;  1.0000000E+04;  0.0000000E+00;  1.0000000E+04;  0.0000000E+00;  0.0000000E+00;  0.0000000E+00;  0.0000000E+00;
  5.6000000E-01;  9.9999998E-03; -2.3999999E-01;1900;  0.0000000E+00;  0.0000000E+00;  0.0000000E+00;  1.0000000E+03;  4.0000001E-01;  0.0000000E+00;3;  0.0000000E+00;  0.0000000E+00;  0.0000000E+00;0;  0.0000000E+00;  1.0000000E+04;  0.0000000E+00;  0.0000000E+00;  1.0000000E+04;  0.0000000E+00;  1.0000000E+04;  0.0000000E+00;  0.0000000E+00;  0.0000000E+00;  0.0000000E+00;
  5.6000000E-01;  9.9999998E-03; -2.2000000E-01;1901;  0.0000000E+00;  0.0000000E+00;  0.0000000E+00;  1.0000000E+03;  4.0000001E-01;  0.0000000E+00;3;  0.0000000E+00;  0.0000000E+00;  0.0000000E+00;0;  0.0000000E+00;  1.0000000E+04;  0.0000000E+00;  0.0000000E+00;  1.0000000E+04;  0.0000000E+00;  1.0000000E+04;  0.0000000E+00;  0.0000000E+00;  0.0000000E+00;  0.0000000E+00;
  5.6000000E-01;  9.9999998E-03; -2.0000000E-01;1902;  0.0000000E+00;  0.0000000E+00;  0.0000000E+00;  1.0000000E+03;  4.0000001E-01;  0.0000000E+00;3;  0.0000000E+00;  0.0000000E+00;  0.0000000E+00;0;  0.0000000E+00;  1.0000000E+04;  0.0000000E+00;  0.0000000E+00;  1.0000000E+04;  0.0000000E+00;  1.0000000E+04;  0.0000000E+00;  0.0000000E+00;  0.0000000E+00;  0.0000000E+00;
  5.7999998E-01;  9.9999998E-03; -3.0000001E-01;1928;  0.0000000E+00;  0.0000000E+00;  0.0000000E+00;  1.0000000E+03;  4.0000001E-01;  0.0000000E+00;3;  0.0000000E+00;  0.0000000E+00;  0.0000000E+00;0;  0.0000000E+00;  1.0000000E+04;  0.0000000E+00;  0.0000000E+00;  1.0000000E+04;  0.0000000E+00;  1.0000000E+04;  0.0000000E+00;  0.0000000E+00;  0.0000000E+00;  0.0000000E+00;
  5.7999998E-01;  9.9999998E-03; -2.8000000E-01;1929;  0.0000000E+00;  0.0000000E+00;  0.0000000E+00;  1.0000000E+03;  4.0000001E-01;  0.0000000E+00;3;  0.0000000E+00;  0.0000000E+00;  0.0000000E+00;0;  0.0000000E+00;  1.0000000E+04;  0.0000000E+00;  0.0000000E+00;  1.0000000E+04;  0.0000000E+00;  1.0000000E+04;  0.0000000E+00;  0.0000000E+00;  0.0000000E+00;  0.0000000E+00;
  5.7999998E-01;  9.9999998E-03; -2.5999999E-01;1930;  0.0000000E+00;  0.0000000E+00;  0.0000000E+00;  1.0000000E+03;  4.0000001E-01;  0.0000000E+00;3;  0.0000000E+00;  0.0000000E+00;  0.0000000E+00;0;  0.0000000E+00;  1.0000000E+04;  0.0000000E+00;  0.0000000E+00;  1.0000000E+04;  0.0000000E+00;  1.0000000E+04;  0.0000000E+00;  0.0000000E+00;  0.0000000E+00;  0.0000000E+00;
  5.7999998E-01;  9.9999998E-03; -2.3999999E-01;1931;  0.0000000E+00;  0.0000000E+00;  0.0000000E+00;  1.0000000E+03;  4.0000001E-01;  0.0000000E+00;3;  0.0000000E+00;  0.0000000E+00;  0.0000000E+00;0;  0.0000000E+00;  1.0000000E+04;  0.0000000E+00;  0.0000000E+00;  1.0000000E+04;  0.0000000E+00;  1.0000000E+04;  0.0000000E+00;  0.0000000E+00;  0.0000000E+00;  0.0000000E+00;
  5.7999998E-01;  9.9999998E-03; -2.2000000E-01;1932;  0.0000000E+00;  0.0000000E+00;  0.0000000E+00;  1.0000000E+03;  4.0000001E-01;  0.0000000E+00;3;  0.0000000E+00;  0.0000000E+00;  0.0000000E+00;0;  0.0000000E+00;  1.0000000E+04;  0.0000000E+00;  0.0000000E+00;  1.0000000E+04;  0.0000000E+00;  1.0000000E+04;  0.0000000E+00;  0.0000000E+00;  0.0000000E+00;  0.0000000E+00;
  5.7999998E-01;  9.9999998E-03; -2.0000000E-01;1933;  0.0000000E+00;  0.0000000E+00;  0.0000000E+00;  1.0000000E+03;  4.0000001E-01;  0.0000000E+00;3;  0.0000000E+00;  0.0000000E+00;  0.0000000E+00;0;  0.0000000E+00;  1.0000000E+04;  0.0000000E+00;  0.0000000E+00;  1.0000000E+04;  0.0000000E+00;  1.0000000E+04;  0.0000000E+00;  0.0000000E+00;  0.0000000E+00;  0.0000000E+00;
  6.0000002E-01;  9.9999998E-03; -3.0000001E-01;1959;  0.0000000E+00;  0.0000000E+00;  0.0000000E+00;  1.0000000E+03;  4.0000001E-01;  0.0000000E+00;3;  0.0000000E+00;  0.0000000E+00;  0.0000000E+00;0;  0.0000000E+00;  1.0000000E+04;  0.0000000E+00;  0.0000000E+00;  1.0000000E+04;  0.0000000E+00;  1.0000000E+04;  0.0000000E+00;  0.0000000E+00;  0.0000000E+00;  0.0000000E+00;
  6.0000002E-01;  9.9999998E-03; -2.8000000E-01;1960;  0.0000000E+00;  0.0000000E+00;  0.0000000E+00;  1.0000000E+03;  4.0000001E-01;  0.0000000E+00;3;  0.0000000E+00;  0.0000000E+00;  0.0000000E+00;0;  0.0000000E+00;  1.0000000E+04;  0.0000000E+00;  0.0000000E+00;  1.0000000E+04;  0.0000000E+00;  1.0000000E+04;  0.0000000E+00;  0.0000000E+00;  0.0000000E+00;  0.0000000E+00;
  6.0000002E-01;  9.9999998E-03; -2.5999999E-01;1961;  0.0000000E+00;  0.0000000E+00;  0.0000000E+00;  1.0000000E+03;  4.0000001E-01;  0.0000000E+00;3;  0.0000000E+00;  0.0000000E+00;  0.0000000E+00;0;  0.0000000E+00;  1.0000000E+04;  0.0000000E+00;  0.0000000E+00;  1.0000000E+04;  0.0000000E+00;  1.0000000E+04;  0.0000000E+00;  0.0000000E+00;  0.0000000E+00;  0.0000000E+00;
  6.0000002E-01;  9.9999998E-03; -2.3999999E-01;1962;  0.0000000E+00;  0.0000000E+00;  0.0000000E+00;  1.0000000E+03;  4.0000001E-01;  0.0000000E+00;3;  0.0000000E+00;  0.0000000E+00;  0.0000000E+00;0;  0.0000000E+00;  1.0000000E+04;  0.0000000E+00;  0.0000000E+00;  1.0000000E+04;  0.0000000E+00;  1.0000000E+04;  0.0000000E+00;  0.0000000E+00;  0.0000000E+00;  0.0000000E+00;
  6.0000002E-01;  9.9999998E-03; -2.2000000E-01;1963;  0.0000000E+00;  0.0000000E+00;  0.0000000E+00;  1.0000000E+03;  4.0000001E-01;  0.0000000E+00;3;  0.0000000E+00;  0.0000000E+00;  0.0000000E+00;0;  0.0000000E+00;  1.0000000E+04;  0.0000000E+00;  0.0000000E+00;  1.0000000E+04;  0.0000000E+00;  1.0000000E+04;  0.0000000E+00;  0.0000000E+00;  0.0000000E+00;  0.0000000E+00;
  6.0000002E-01;  9.9999998E-03; -2.0000000E-01;1964;  0.0000000E+00;  0.0000000E+00;  0.0000000E+00;  1.0000000E+03;  4.0000001E-01;  0.0000000E+00;3;  0.0000000E+00;  0.0000000E+00;  0.0000000E+00;0;  0.0000000E+00;  1.0000000E+04;  0.0000000E+00;  0.0000000E+00;  1.0000000E+04;  0.0000000E+00;  1.0000000E+04;  0.0000000E+00;  0.0000000E+00;  0.0000000E+00;  0.0000000E+00;
  6.2000000E-01;  9.9999998E-03; -3.0000001E-01;1990;  0.0000000E+00;  0.0000000E+00;  0.0000000E+00;  1.0000000E+03;  4.0000001E-01;  0.0000000E+00;3;  0.0000000E+00;  0.0000000E+00;  0.0000000E+00;0;  0.0000000E+00;  1.0000000E+04;  0.0000000E+00;  0.0000000E+00;  1.0000000E+04;  0.0000000E+00;  1.0000000E+04;  0.0000000E+00;  0.0000000E+00;  0.0000000E+00;  0.0000000E+00;
  6.2000000E-01;  9.9999998E-03; -2.8000000E-01;1991;  0.0000000E+00;  0.0000000E+00;  0.0000000E+00;  1.0000000E+03;  4.0000001E-01;  0.0000000E+00;3;  0.0000000E+00;  0.0000000E+00;  0.0000000E+00;0;  0.0000000E+00;  1.0000000E+04;  0.0000000E+00;  0.0000000E+00;  1.0000000E+04;  0.0000000E+00;  1.0000000E+04;  0.0000000E+00;  0.0000000E+00;  0.0000000E+00;  0.0000000E+00;
  6.2000000E-01;  9.9999998E-03; -2.5999999E-01;1992;  0.0000000E+00;  0.0000000E+00;  0.0000000E+00;  1.0000000E+03;  4.0000001E-01;  0.0000000E+00;3;  0.0000000E+00;  0.0000000E+00;  0.0000000E+00;0;  0.0000000E+00;  1.0000000E+04;  0.0000000E+00;  0.0000000E+00;  1.0000000E+04;  0.0000000E+00;  1.0000000E+04;  0.0000000E+00;  0.0000000E+00;  0.0000000E+00;  0.0000000E+00;
  6.2000000E-01;  9.9999998E-03; -2.3999999E-01;1993;  0.0000000E+00;  0.0000000E+00;  0.0000000E+00;  1.0000000E+03;  4.0000001E-01;  0.0000000E+00;3;  0.0000000E+00;  0.0000000E+00;  0.0000000E+00;0;  0.0000000E+00;  1.0000000E+04;  0.0000000E+00;  0.0000000E+00;  1.0000000E+04;  0.0000000E+00;  1.0000000E+04;  0.0000000E+00;  0.0000000E+00;  0.0000000E+00;  0.0000000E+00;
  6.2000000E-01;  9.9999998E-03; -2.2000000E-01;1994;  0.0000000E+00;  0.0000000E+00;  0.0000000E+00;  1.0000000E+03;  4.0000001E-01;  0.0000000E+00;3;  0.0000000E+00;  0.0000000E+00;  0.0000000E+00;0;  0.0000000E+00;  1.0000000E+04;  0.0000000E+00;  0.0000000E+00;  1.0000000E+04;  0.0000000E+00;  1.0000000E+04;  0.0000000E+00;  0.0000000E+00;  0.0000000E+00;  0.0000000E+00;
  6.2000000E-01;  9.9999998E-03; -2.0000000E-01;1995;  0.0000000E+00;  0.0000000E+00;  0.0000000E+00;  1.0000000E+03;  4.0000001E-01;  0.0000000E+00;3;  0.0000000E+00;  0.0000000E+00;  0.0000000E+00;0;  0.0000000E+00;  1.0000000E+04;  0.0000000E+00;  0.0000000E+00;  1.0000000E+04;  0.0000000E+00;  1.0000000E+04;  0.0000000E+00;  0.0000000E+00;  0.0000000E+00;  0.0000000E+00;
  6.3999999E-01;  9.9999998E-03; -3.0000001E-01;2021;  0.0000000E+00;  0.0000000E+00;  0.0000000E+00;  1.0000000E+03;  4.0000001E-01;  0.0000000E+00;3;  0.0000000E+00;  0.0000000E+00;  0.0000000E+00;0;  0.0000000E+00;  1.0000000E+04;  0.0000000E+00;  0.0000000E+00;  1.0000000E+04;  0.0000000E+00;  1.0000000E+04;  0.0000000E+00;  0.0000000E+00;  0.0000000E+00;  0.0000000E+00;
  6.3999999E-01;  9.9999998E-03; -2.8000000E-01;2022;  0.0000000E+00;  0.0000000E+00;  0.0000000E+00;  1.0000000E+03;  4.0000001E-01;  0.0000000E+00;3;  0.0000000E+00;  0.0000000E+00;  0.0000000E+00;0;  0.0000000E+00;  1.0000000E+04;  0.0000000E+00;  0.0000000E+00;  1.0000000E+04;  0.0000000E+00;  1.0000000E+04;  0.0000000E+00;  0.0000000E+00;  0.0000000E+00;  0.0000000E+00;
  6.3999999E-01;  9.9999998E-03; -2.5999999E-01;2023;  0.0000000E+00;  0.0000000E+00;  0.0000000E+00;  1.0000000E+03;  4.0000001E-01;  0.0000000E+00;3;  0.0000000E+00;  0.0000000E+00;  0.0000000E+00;0;  0.0000000E+00;  1.0000000E+04;  0.0000000E+00;  0.0000000E+00;  1.0000000E+04;  0.0000000E+00;  1.0000000E+04;  0.0000000E+00;  0.0000000E+00;  0.0000000E+00;  0.0000000E+00;
  6.3999999E-01;  9.9999998E-03; -2.3999999E-01;2024;  0.0000000E+00;  0.0000000E+00;  0.0000000E+00;  1.0000000E+03;  4.0000001E-01;  0.0000000E+00;3;  0.0000000E+00;  0.0000000E+00;  0.0000000E+00;0;  0.0000000E+00;  1.0000000E+04;  0.0000000E+00;  0.0000000E+00;  1.0000000E+04;  0.0000000E+00;  1.0000000E+04;  0.0000000E+00;  0.0000000E+00;  0.0000000E+00;  0.0000000E+00;
  6.3999999E-01;  9.9999998E-03; -2.2000000E-01;2025;  0.0000000E+00;  0.0000000E+00;  0.0000000E+00;  1.0000000E+03;  4.0000001E-01;  0.0000000E+00;3;  0.0000000E+00;  0.0000000E+00;  0.0000000E+00;0;  0.0000000E+00;  1.0000000E+04;  0.0000000E+00;  0.0000000E+00;  1.0000000E+04;  0.0000000E+00;  1.0000000E+04;  0.0000000E+00;  0.0000000E+00;  0.0000000E+00;  0.0000000E+00;
  6.3999999E-01;  9.9999998E-03; -2.0000000E-01;2026;  0.0000000E+00;  0.0000000E+00;  0.0000000E+00;  1.0000000E+03;  4.0000001E-01;  0.0000000E+00;3;  0.0000000E+00;  0.0000000E+00;  0.0000000E+00;0;  0.0000000E+00;  1.0000000E+04;  0.0000000E+00;  0.0000000E+00;  1.0000000E+04;  0.0000000E+00;  1.0000000E+04;  0.0000000E+00;  0.0000000E+00;  0.0000000E+00;  0.0000000E+00;
  6.6000003E-01;  9.9999998E-03; -3.0000001E-01;2052;  0.0000000E+00;  0.0000000E+00;  0.0000000E+00;  1.0000000E+03;  4.0000001E-01;  0.0000000E+00;3;  0.0000000E+00;  0.0000000E+00;  0.0000000E+00;0;  0.0000000E+00;  1.0000000E+04;  0.0000000E+00;  0.0000000E+00;  1.0000000E+04;  0.0000000E+00;  1.0000000E+04;  0.0000000E+00;  0.0000000E+00;  0.0000000E+00;  0.0000000E+00;
  6.6000003E-01;  9.9999998E-03; -2.8000000E-01;2053;  0.0000000E+00;  0.0000000E+00;  0.0000000E+00;  1.0000000E+03;  4.0000001E-01;  0.0000000E+00;3;  0.0000000E+00;  0.0000000E+00;  0.0000000E+00;0;  0.0000000E+00;  1.0000000E+04;  0.0000000E+00;  0.0000000E+00;  1.0000000E+04;  0.0000000E+00;  1.0000000E+04;  0.0000000E+00;  0.0000000E+00;  0.0000000E+00;  0.0000000E+00;
  6.6000003E-01;  9.9999998E-03; -2.5999999E-01;2054;  0.0000000E+00;  0.0000000E+00;  0.0000000E+00;  1.0000000E+03;  4.0000001E-01;  0.0000000E+00;3;  0.0000000E+00;  0.0000000E+00;  0.0000000E+00;0;  0.0000000E+00;  1.0000000E+04;  0.0000000E+00;  0.0000000E+00;  1.0000000E+04;  0.0000000E+00;  1.0000000E+04;  0.0000000E+00;  0.0000000E+00;  0.0000000E+00;  0.0000000E+00;
  6.6000003E-01;  9.9999998E-03; -2.3999999E-01;2055;  0.0000000E+00;  0.0000000E+00;  0.0000000E+00;  1.0000000E+03;  4.0000001E-01;  0.0000000E+00;3;  0.0000000E+00;  0.0000000E+00;  0.0000000E+00;0;  0.0000000E+00;  1.0000000E+04;  0.0000000E+00;  0.0000000E+00;  1.0000000E+04;  0.0000000E+00;  1.0000000E+04;  0.0000000E+00;  0.0000000E+00;  0.0000000E+00;  0.0000000E+00;
  6.6000003E-01;  9.9999998E-03; -2.2000000E-01;2056;  0.0000000E+00;  0.0000000E+00;  0.0000000E+00;  1.0000000E+03;  4.0000001E-01;  0.0000000E+00;3;  0.0000000E+00;  0.0000000E+00;  0.0000000E+00;0;  0.0000000E+00;  1.0000000E+04;  0.0000000E+00;  0.0000000E+00;  1.0000000E+04;  0.0000000E+00;  1.0000000E+04;  0.0000000E+00;  0.0000000E+00;  0.0000000E+00;  0.0000000E+00;
  6.6000003E-01;  9.9999998E-03; -2.0000000E-01;2057;  0.0000000E+00;  0.0000000E+00;  0.0000000E+00;  1.0000000E+03;  4.0000001E-01;  0.0000000E+00;3;  0.0000000E+00;  0.0000000E+00;  0.0000000E+00;0;  0.0000000E+00;  1.0000000E+04;  0.0000000E+00;  0.0000000E+00;  1.0000000E+04;  0.0000000E+00;  1.0000000E+04;  0.0000000E+00;  0.0000000E+00;  0.0000000E+00;  0.0000000E+00;
  6.8000001E-01;  9.9999998E-03; -3.0000001E-01;2083;  0.0000000E+00;  0.0000000E+00;  0.0000000E+00;  1.0000000E+03;  4.0000001E-01;  0.0000000E+00;3;  0.0000000E+00;  0.0000000E+00;  0.0000000E+00;0;  0.0000000E+00;  1.0000000E+04;  0.0000000E+00;  0.0000000E+00;  1.0000000E+04;  0.0000000E+00;  1.0000000E+04;  0.0000000E+00;  0.0000000E+00;  0.0000000E+00;  0.0000000E+00;
  6.8000001E-01;  9.9999998E-03; -2.8000000E-01;2084;  0.0000000E+00;  0.0000000E+00;  0.0000000E+00;  1.0000000E+03;  4.0000001E-01;  0.0000000E+00;3;  0.0000000E+00;  0.0000000E+00;  0.0000000E+00;0;  0.0000000E+00;  1.0000000E+04;  0.0000000E+00;  0.0000000E+00;  1.0000000E+04;  0.0000000E+00;  1.0000000E+04;  0.0000000E+00;  0.0000000E+00;  0.0000000E+00;  0.0000000E+00;
  6.8000001E-01;  9.9999998E-03; -2.5999999E-01;2085;  0.0000000E+00;  0.0000000E+00;  0.0000000E+00;  1.0000000E+03;  4.0000001E-01;  0.0000000E+00;3;  0.0000000E+00;  0.0000000E+00;  0.0000000E+00;0;  0.0000000E+00;  1.0000000E+04;  0.0000000E+00;  0.0000000E+00;  1.0000000E+04;  0.0000000E+00;  1.0000000E+04;  0.0000000E+00;  0.0000000E+00;  0.0000000E+00;  0.0000000E+00;
  6.8000001E-01;  9.9999998E-03; -2.3999999E-01;2086;  0.0000000E+00;  0.0000000E+00;  0.0000000E+00;  1.0000000E+03;  4.0000001E-01;  0.0000000E+00;3;  0.0000000E+00;  0.0000000E+00;  0.0000000E+00;0;  0.0000000E+00;  1.0000000E+04;  0.0000000E+00;  0.0000000E+00;  1.0000000E+04;  0.0000000E+00;  1.0000000E+04;  0.0000000E+00;  0.0000000E+00;  0.0000000E+00;  0.0000000E+00;
  6.8000001E-01;  9.9999998E-03; -2.2000000E-01;2087;  0.0000000E+00;  0.0000000E+00;  0.0000000E+00;  1.0000000E+03;  4.0000001E-01;  0.0000000E+00;3;  0.0000000E+00;  0.0000000E+00;  0.0000000E+00;0;  0.0000000E+00;  1.0000000E+04;  0.0000000E+00;  0.0000000E+00;  1.0000000E+04;  0.0000000E+00;  1.0000000E+04;  0.0000000E+00;  0.0000000E+00;  0.0000000E+00;  0.0000000E+00;
  6.8000001E-01;  9.9999998E-03; -2.0000000E-01;2088;  0.0000000E+00;  0.0000000E+00;  0.0000000E+00;  1.0000000E+03;  4.0000001E-01;  0.0000000E+00;3;  0.0000000E+00;  0.0000000E+00;  0.0000000E+00;0;  0.0000000E+00;  1.0000000E+04;  0.0000000E+00;  0.0000000E+00;  1.0000000E+04;  0.0000000E+00;  1.0000000E+04;  0.0000000E+00;  0.0000000E+00;  0.0000000E+00;  0.0000000E+00;
  6.9999999E-01;  9.9999998E-03; -3.0000001E-01;2114;  0.0000000E+00;  0.0000000E+00;  0.0000000E+00;  1.0000000E+03;  4.0000001E-01;  0.0000000E+00;3;  0.0000000E+00;  0.0000000E+00;  0.0000000E+00;0;  0.0000000E+00;  1.0000000E+04;  0.0000000E+00;  0.0000000E+00;  1.0000000E+04;  0.0000000E+00;  1.0000000E+04;  0.0000000E+00;  0.0000000E+00;  0.0000000E+00;  0.0000000E+00;
  6.9999999E-01;  9.9999998E-03; -2.8000000E-01;2115;  0.0000000E+00;  0.0000000E+00;  0.0000000E+00;  1.0000000E+03;  4.0000001E-01;  0.0000000E+00;3;  0.0000000E+00;  0.0000000E+00;  0.0000000E+00;0;  0.0000000E+00;  1.0000000E+04;  0.0000000E+00;  0.0000000E+00;  1.0000000E+04;  0.0000000E+00;  1.0000000E+04;  0.0000000E+00;  0.0000000E+00;  0.0000000E+00;  0.0000000E+00;
  6.9999999E-01;  9.9999998E-03; -2.5999999E-01;2116;  0.0000000E+00;  0.0000000E+00;  0.0000000E+00;  1.0000000E+03;  4.0000001E-01;  0.0000000E+00;3;  0.0000000E+00;  0.0000000E+00;  0.0000000E+00;0;  0.0000000E+00;  1.0000000E+04;  0.0000000E+00;  0.0000000E+00;  1.0000000E+04;  0.0000000E+00;  1.0000000E+04;  0.0000000E+00;  0.0000000E+00;  0.0000000E+00;  0.0000000E+00;
  6.9999999E-01;  9.9999998E-03; -2.3999999E-01;2117;  0.0000000E+00;  0.0000000E+00;  0.0000000E+00;  1.0000000E+03;  4.0000001E-01;  0.0000000E+00;3;  0.0000000E+00;  0.0000000E+00;  0.0000000E+00;0;  0.0000000E+00;  1.0000000E+04;  0.0000000E+00;  0.0000000E+00;  1.0000000E+04;  0.0000000E+00;  1.0000000E+04;  0.0000000E+00;  0.0000000E+00;  0.0000000E+00;  0.0000000E+00;
  6.9999999E-01;  9.9999998E-03; -2.2000000E-01;2118;  0.0000000E+00;  0.0000000E+00;  0.0000000E+00;  1.0000000E+03;  4.0000001E-01;  0.0000000E+00;3;  0.0000000E+00;  0.0000000E+00;  0.0000000E+00;0;  0.0000000E+00;  1.0000000E+04;  0.0000000E+00;  0.0000000E+00;  1.0000000E+04;  0.0000000E+00;  1.0000000E+04;  0.0000000E+00;  0.0000000E+00;  0.0000000E+00;  0.0000000E+00;
  6.9999999E-01;  9.9999998E-03; -2.0000000E-01;2119;  0.0000000E+00;  0.0000000E+00;  0.0000000E+00;  1.0000000E+03;  4.0000001E-01;  0.0000000E+00;3;  0.0000000E+00;  0.0000000E+00;  0.0000000E+00;0;  0.0000000E+00;  1.0000000E+04;  0.0000000E+00;  0.0000000E+00;  1.0000000E+04;  0.0000000E+00;  1.0000000E+04;  0.0000000E+00;  0.0000000E+00;  0.0000000E+00;  0.0000000E+00;
  7.2000003E-01;  9.9999998E-03; -3.0000001E-01;2145;  0.0000000E+00;  0.0000000E+00;  0.0000000E+00;  1.0000000E+03;  4.0000001E-01;  0.0000000E+00;3;  0.0000000E+00;  0.0000000E+00;  0.0000000E+00;0;  0.0000000E+00;  1.0000000E+04;  0.0000000E+00;  0.0000000E+00;  1.0000000E+04;  0.0000000E+00;  1.0000000E+04;  0.0000000E+00;  0.0000000E+00;  0.0000000E+00;  0.0000000E+00;
  7.2000003E-01;  9.9999998E-03; -2.8000000E-01;2146;  0.0000000E+00;  0.0000000E+00;  0.0000000E+00;  1.0000000E+03;  4.0000001E-01;  0.0000000E+00;3;  0.0000000E+00;  0.0000000E+00;  0.0000000E+00;0;  0.0000000E+00;  1.0000000E+04;  0.0000000E+00;  0.0000000E+00;  1.0000000E+04;  0.0000000E+00;  1.0000000E+04;  0.0000000E+00;  0.0000000E+00;  0.0000000E+00;  0.0000000E+00;
  7.2000003E-01;  9.9999998E-03; -2.5999999E-01;2147;  0.0000000E+00;  0.0000000E+00;  0.0000000E+00;  1.0000000E+03;  4.0000001E-01;  0.0000000E+00;3;  0.0000000E+00;  0.0000000E+00;  0.0000000E+00;0;  0.0000000E+00;  1.0000000E+04;  0.0000000E+00;  0.0000000E+00;  1.0000000E+04;  0.0000000E+00;  1.0000000E+04;  0.0000000E+00;  0.0000000E+00;  0.0000000E+00;  0.0000000E+00;
  7.2000003E-01;  9.9999998E-03; -2.3999999E-01;2148;  0.0000000E+00;  0.0000000E+00;  0.0000000E+00;  1.0000000E+03;  4.0000001E-01;  0.0000000E+00;3;  0.0000000E+00;  0.0000000E+00;  0.0000000E+00;0;  0.0000000E+00;  1.0000000E+04;  0.0000000E+00;  0.0000000E+00;  1.0000000E+04;  0.0000000E+00;  1.0000000E+04;  0.0000000E+00;  0.0000000E+00;  0.0000000E+00;  0.0000000E+00;
  7.2000003E-01;  9.9999998E-03; -2.2000000E-01;2149;  0.0000000E+00;  0.0000000E+00;  0.0000000E+00;  1.0000000E+03;  4.0000001E-01;  0.0000000E+00;3;  0.0000000E+00;  0.0000000E+00;  0.0000000E+00;0;  0.0000000E+00;  1.0000000E+04;  0.0000000E+00;  0.0000000E+00;  1.0000000E+04;  0.0000000E+00;  1.0000000E+04;  0.0000000E+00;  0.0000000E+00;  0.0000000E+00;  0.0000000E+00;
  7.2000003E-01;  9.9999998E-03; -2.0000000E-01;2150;  0.0000000E+00;  0.0000000E+00;  0.0000000E+00;  1.0000000E+03;  4.0000001E-01;  0.0000000E+00;3;  0.0000000E+00;  0.0000000E+00;  0.0000000E+00;0;  0.0000000E+00;  1.0000000E+04;  0.0000000E+00;  0.0000000E+00;  1.0000000E+04;  0.0000000E+00;  1.0000000E+04;  0.0000000E+00;  0.0000000E+00;  0.0000000E+00;  0.0000000E+00;
  7.4000001E-01;  9.9999998E-03; -3.0000001E-01;2176;  0.0000000E+00;  0.0000000E+00;  0.0000000E+00;  1.0000000E+03;  4.0000001E-01;  0.0000000E+00;3;  0.0000000E+00;  0.0000000E+00;  0.0000000E+00;0;  0.0000000E+00;  1.0000000E+04;  0.0000000E+00;  0.0000000E+00;  1.0000000E+04;  0.0000000E+00;  1.0000000E+04;  0.0000000E+00;  0.0000000E+00;  0.0000000E+00;  0.0000000E+00;
  7.4000001E-01;  9.9999998E-03; -2.8000000E-01;2177;  0.0000000E+00;  0.0000000E+00;  0.0000000E+00;  1.0000000E+03;  4.0000001E-01;  0.0000000E+00;3;  0.0000000E+00;  0.0000000E+00;  0.0000000E+00;0;  0.0000000E+00;  1.0000000E+04;  0.0000000E+00;  0.0000000E+00;  1.0000000E+04;  0.0000000E+00;  1.0000000E+04;  0.0000000E+00;  0.0000000E+00;  0.0000000E+00;  0.0000000E+00;
  7.4000001E-01;  9.9999998E-03; -2.5999999E-01;2178;  0.0000000E+00;  0.0000000E+00;  0.0000000E+00;  1.0000000E+03;  4.0000001E-01;  0.0000000E+00;3;  0.0000000E+00;  0.0000000E+00;  0.0000000E+00;0;  0.0000000E+00;  1.0000000E+04;  0.0000000E+00;  0.0000000E+00;  1.0000000E+04;  0.0000000E+00;  1.0000000E+04;  0.0000000E+00;  0.0000000E+00;  0.0000000E+00;  0.0000000E+00;
  7.4000001E-01;  9.9999998E-03; -2.3999999E-01;2179;  0.0000000E+00;  0.0000000E+00;  0.0000000E+00;  1.0000000E+03;  4.0000001E-01;  0.0000000E+00;3;  0.0000000E+00;  0.0000000E+00;  0.0000000E+00;0;  0.0000000E+00;  1.0000000E+04;  0.0000000E+00;  0.0000000E+00;  1.0000000E+04;  0.0000000E+00;  1.0000000E+04;  0.0000000E+00;  0.0000000E+00;  0.0000000E+00;  0.0000000E+00;
  7.4000001E-01;  9.9999998E-03; -2.2000000E-01;2180;  0.0000000E+00;  0.0000000E+00;  0.0000000E+00;  1.0000000E+03;  4.0000001E-01;  0.0000000E+00;3;  0.0000000E+00;  0.0000000E+00;  0.0000000E+00;0;  0.0000000E+00;  1.0000000E+04;  0.0000000E+00;  0.0000000E+00;  1.0000000E+04;  0.0000000E+00;  1.0000000E+04;  0.0000000E+00;  0.0000000E+00;  0.0000000E+00;  0.0000000E+00;
  7.4000001E-01;  9.9999998E-03; -2.0000000E-01;2181;  0.0000000E+00;  0.0000000E+00;  0.0000000E+00;  1.0000000E+03;  4.0000001E-01;  0.0000000E+00;3;  0.0000000E+00;  0.0000000E+00;  0.0000000E+00;0;  0.0000000E+00;  1.0000000E+04;  0.0000000E+00;  0.0000000E+00;  1.0000000E+04;  0.0000000E+00;  1.0000000E+04;  0.0000000E+00;  0.0000000E+00;  0.0000000E+00;  0.0000000E+00;
  7.5999999E-01;  9.9999998E-03; -3.0000001E-01;2207;  0.0000000E+00;  0.0000000E+00;  0.0000000E+00;  1.0000000E+03;  4.0000001E-01;  0.0000000E+00;3;  0.0000000E+00;  0.0000000E+00;  0.0000000E+00;0;  0.0000000E+00;  1.0000000E+04;  0.0000000E+00;  0.0000000E+00;  1.0000000E+04;  0.0000000E+00;  1.0000000E+04;  0.0000000E+00;  0.0000000E+00;  0.0000000E+00;  0.0000000E+00;
  7.5999999E-01;  9.9999998E-03; -2.8000000E-01;2208;  0.0000000E+00;  0.0000000E+00;  0.0000000E+00;  1.0000000E+03;  4.0000001E-01;  0.0000000E+00;3;  0.0000000E+00;  0.0000000E+00;  0.0000000E+00;0;  0.0000000E+00;  1.0000000E+04;  0.0000000E+00;  0.0000000E+00;  1.0000000E+04;  0.0000000E+00;  1.0000000E+04;  0.0000000E+00;  0.0000000E+00;  0.0000000E+00;  0.0000000E+00;
  7.5999999E-01;  9.9999998E-03; -2.5999999E-01;2209;  0.0000000E+00;  0.0000000E+00;  0.0000000E+00;  1.0000000E+03;  4.0000001E-01;  0.0000000E+00;3;  0.0000000E+00;  0.0000000E+00;  0.0000000E+00;0;  0.0000000E+00;  1.0000000E+04;  0.0000000E+00;  0.0000000E+00;  1.0000000E+04;  0.0000000E+00;  1.0000000E+04;  0.0000000E+00;  0.0000000E+00;  0.0000000E+00;  0.0000000E+00;
  7.5999999E-01;  9.9999998E-03; -2.3999999E-01;2210;  0.0000000E+00;  0.0000000E+00;  0.0000000E+00;  1.0000000E+03;  4.0000001E-01;  0.0000000E+00;3;  0.0000000E+00;  0.0000000E+00;  0.0000000E+00;0;  0.0000000E+00;  1.0000000E+04;  0.0000000E+00;  0.0000000E+00;  1.0000000E+04;  0.0000000E+00;  1.0000000E+04;  0.0000000E+00;  0.0000000E+00;  0.0000000E+00;  0.0000000E+00;
  7.5999999E-01;  9.9999998E-03; -2.2000000E-01;2211;  0.0000000E+00;  0.0000000E+00;  0.0000000E+00;  1.0000000E+03;  4.0000001E-01;  0.0000000E+00;3;  0.0000000E+00;  0.0000000E+00;  0.0000000E+00;0;  0.0000000E+00;  1.0000000E+04;  0.0000000E+00;  0.0000000E+00;  1.0000000E+04;  0.0000000E+00;  1.0000000E+04;  0.0000000E+00;  0.0000000E+00;  0.0000000E+00;  0.0000000E+00;
  7.5999999E-01;  9.9999998E-03; -2.0000000E-01;2212;  0.0000000E+00;  0.0000000E+00;  0.0000000E+00;  1.0000000E+03;  4.0000001E-01;  0.0000000E+00;3;  0.0000000E+00;  0.0000000E+00;  0.0000000E+00;0;  0.0000000E+00;  1.0000000E+04;  0.0000000E+00;  0.0000000E+00;  1.0000000E+04;  0.0000000E+00;  1.0000000E+04;  0.0000000E+00;  0.0000000E+00;  0.0000000E+00;  0.0000000E+00;
  7.7999997E-01;  9.9999998E-03; -3.0000001E-01;2238;  0.0000000E+00;  0.0000000E+00;  0.0000000E+00;  1.0000000E+03;  4.0000001E-01;  0.0000000E+00;3;  0.0000000E+00;  0.0000000E+00;  0.0000000E+00;0;  0.0000000E+00;  1.0000000E+04;  0.0000000E+00;  0.0000000E+00;  1.0000000E+04;  0.0000000E+00;  1.0000000E+04;  0.0000000E+00;  0.0000000E+00;  0.0000000E+00;  0.0000000E+00;
  7.7999997E-01;  9.9999998E-03; -2.8000000E-01;2239;  0.0000000E+00;  0.0000000E+00;  0.0000000E+00;  1.0000000E+03;  4.0000001E-01;  0.0000000E+00;3;  0.0000000E+00;  0.0000000E+00;  0.0000000E+00;0;  0.0000000E+00;  1.0000000E+04;  0.0000000E+00;  0.0000000E+00;  1.0000000E+04;  0.0000000E+00;  1.0000000E+04;  0.0000000E+00;  0.0000000E+00;  0.0000000E+00;  0.0000000E+00;
  7.7999997E-01;  9.9999998E-03; -2.5999999E-01;2240;  0.0000000E+00;  0.0000000E+00;  0.0000000E+00;  1.0000000E+03;  4.0000001E-01;  0.0000000E+00;3;  0.0000000E+00;  0.0000000E+00;  0.0000000E+00;0;  0.0000000E+00;  1.0000000E+04;  0.0000000E+00;  0.0000000E+00;  1.0000000E+04;  0.0000000E+00;  1.0000000E+04;  0.0000000E+00;  0.0000000E+00;  0.0000000E+00;  0.0000000E+00;
  7.7999997E-01;  9.9999998E-03; -2.3999999E-01;2241;  0.0000000E+00;  0.0000000E+00;  0.0000000E+00;  1.0000000E+03;  4.0000001E-01;  0.0000000E+00;3;  0.0000000E+00;  0.0000000E+00;  0.0000000E+00;0;  0.0000000E+00;  1.0000000E+04;  0.0000000E+00;  0.0000000E+00;  1.0000000E+04;  0.0000000E+00;  1.0000000E+04;  0.0000000E+00;  0.0000000E+00;  0.0000000E+00;  0.0000000E+00;
  7.7999997E-01;  9.9999998E-03; -2.2000000E-01;2242;  0.0000000E+00;  0.0000000E+00;  0.0000000E+00;  1.0000000E+03;  4.0000001E-01;  0.0000000E+00;3;  0.0000000E+00;  0.0000000E+00;  0.0000000E+00;0;  0.0000000E+00;  1.0000000E+04;  0.0000000E+00;  0.0000000E+00;  1.0000000E+04;  0.0000000E+00;  1.0000000E+04;  0.0000000E+00;  0.0000000E+00;  0.0000000E+00;  0.0000000E+00;
  7.7999997E-01;  9.9999998E-03; -2.0000000E-01;2243;  0.0000000E+00;  0.0000000E+00;  0.0000000E+00;  1.0000000E+03;  4.0000001E-01;  0.0000000E+00;3;  0.0000000E+00;  0.0000000E+00;  0.0000000E+00;0;  0.0000000E+00;  1.0000000E+04;  0.0000000E+00;  0.0000000E+00;  1.0000000E+04;  0.0000000E+00;  1.0000000E+04;  0.0000000E+00;  0.0000000E+00;  0.0000000E+00;  0.0000000E+00;
  8.0000001E-01;  9.9999998E-03; -3.0000001E-01;2269;  0.0000000E+00;  0.0000000E+00;  0.0000000E+00;  1.0000000E+03;  4.0000001E-01;  0.0000000E+00;3;  0.0000000E+00;  0.0000000E+00;  0.0000000E+00;0;  0.0000000E+00;  1.0000000E+04;  0.0000000E+00;  0.0000000E+00;  1.0000000E+04;  0.0000000E+00;  1.0000000E+04;  0.0000000E+00;  0.0000000E+00;  0.0000000E+00;  0.0000000E+00;
  8.0000001E-01;  9.9999998E-03; -2.8000000E-01;2270;  0.0000000E+00;  0.0000000E+00;  0.0000000E+00;  1.0000000E+03;  4.0000001E-01;  0.0000000E+00;3;  0.0000000E+00;  0.0000000E+00;  0.0000000E+00;0;  0.0000000E+00;  1.0000000E+04;  0.0000000E+00;  0.0000000E+00;  1.0000000E+04;  0.0000000E+00;  1.0000000E+04;  0.0000000E+00;  0.0000000E+00;  0.0000000E+00;  0.0000000E+00;
  8.0000001E-01;  9.9999998E-03; -2.5999999E-01;2271;  0.0000000E+00;  0.0000000E+00;  0.0000000E+00;  1.0000000E+03;  4.0000001E-01;  0.0000000E+00;3;  0.0000000E+00;  0.0000000E+00;  0.0000000E+00;0;  0.0000000E+00;  1.0000000E+04;  0.0000000E+00;  0.0000000E+00;  1.0000000E+04;  0.0000000E+00;  1.0000000E+04;  0.0000000E+00;  0.0000000E+00;  0.0000000E+00;  0.0000000E+00;
  8.0000001E-01;  9.9999998E-03; -2.3999999E-01;2272;  0.0000000E+00;  0.0000000E+00;  0.0000000E+00;  1.0000000E+03;  4.0000001E-01;  0.0000000E+00;3;  0.0000000E+00;  0.0000000E+00;  0.0000000E+00;0;  0.0000000E+00;  1.0000000E+04;  0.0000000E+00;  0.0000000E+00;  1.0000000E+04;  0.0000000E+00;  1.0000000E+04;  0.0000000E+00;  0.0000000E+00;  0.0000000E+00;  0.0000000E+00;
  8.0000001E-01;  9.9999998E-03; -2.2000000E-01;2273;  0.0000000E+00;  0.0000000E+00;  0.0000000E+00;  1.0000000E+03;  4.0000001E-01;  0.0000000E+00;3;  0.0000000E+00;  0.0000000E+00;  0.0000000E+00;0;  0.0000000E+00;  1.0000000E+04;  0.0000000E+00;  0.0000000E+00;  1.0000000E+04;  0.0000000E+00;  1.0000000E+04;  0.0000000E+00;  0.0000000E+00;  0.0000000E+00;  0.0000000E+00;
  8.0000001E-01;  9.9999998E-03; -2.0000000E-01;2274;  0.0000000E+00;  0.0000000E+00;  0.0000000E+00;  1.0000000E+03;  4.0000001E-01;  0.0000000E+00;3;  0.0000000E+00;  0.0000000E+00;  0.0000000E+00;0;  0.0000000E+00;  1.0000000E+04;  0.0000000E+00;  0.0000000E+00;  1.0000000E+04;  0.0000000E+00;  1.0000000E+04;  0.0000000E+00;  0.0000000E+00;  0.0000000E+00;  0.0000000E+00;
  8.1999999E-01;  9.9999998E-03; -3.0000001E-01;2300;  0.0000000E+00;  0.0000000E+00;  0.0000000E+00;  1.0000000E+03;  4.0000001E-01;  0.0000000E+00;3;  0.0000000E+00;  0.0000000E+00;  0.0000000E+00;0;  0.0000000E+00;  1.0000000E+04;  0.0000000E+00;  0.0000000E+00;  1.0000000E+04;  0.0000000E+00;  1.0000000E+04;  0.0000000E+00;  0.0000000E+00;  0.0000000E+00;  0.0000000E+00;
  8.1999999E-01;  9.9999998E-03; -2.8000000E-01;2301;  0.0000000E+00;  0.0000000E+00;  0.0000000E+00;  1.0000000E+03;  4.0000001E-01;  0.0000000E+00;3;  0.0000000E+00;  0.0000000E+00;  0.0000000E+00;0;  0.0000000E+00;  1.0000000E+04;  0.0000000E+00;  0.0000000E+00;  1.0000000E+04;  0.0000000E+00;  1.0000000E+04;  0.0000000E+00;  0.0000000E+00;  0.0000000E+00;  0.0000000E+00;
  8.1999999E-01;  9.9999998E-03; -2.5999999E-01;2302;  0.0000000E+00;  0.0000000E+00;  0.0000000E+00;  1.0000000E+03;  4.0000001E-01;  0.0000000E+00;3;  0.0000000E+00;  0.0000000E+00;  0.0000000E+00;0;  0.0000000E+00;  1.0000000E+04;  0.0000000E+00;  0.0000000E+00;  1.0000000E+04;  0.0000000E+00;  1.0000000E+04;  0.0000000E+00;  0.0000000E+00;  0.0000000E+00;  0.0000000E+00;
  8.1999999E-01;  9.9999998E-03; -2.3999999E-01;2303;  0.0000000E+00;  0.0000000E+00;  0.0000000E+00;  1.0000000E+03;  4.0000001E-01;  0.0000000E+00;3;  0.0000000E+00;  0.0000000E+00;  0.0000000E+00;0;  0.0000000E+00;  1.0000000E+04;  0.0000000E+00;  0.0000000E+00;  1.0000000E+04;  0.0000000E+00;  1.0000000E+04;  0.0000000E+00;  0.0000000E+00;  0.0000000E+00;  0.0000000E+00;
  8.1999999E-01;  9.9999998E-03; -2.2000000E-01;2304;  0.0000000E+00;  0.0000000E+00;  0.0000000E+00;  1.0000000E+03;  4.0000001E-01;  0.0000000E+00;3;  0.0000000E+00;  0.0000000E+00;  0.0000000E+00;0;  0.0000000E+00;  1.0000000E+04;  0.0000000E+00;  0.0000000E+00;  1.0000000E+04;  0.0000000E+00;  1.0000000E+04;  0.0000000E+00;  0.0000000E+00;  0.0000000E+00;  0.0000000E+00;
  8.1999999E-01;  9.9999998E-03; -2.0000000E-01;2305;  0.0000000E+00;  0.0000000E+00;  0.0000000E+00;  1.0000000E+03;  4.0000001E-01;  0.0000000E+00;3;  0.0000000E+00;  0.0000000E+00;  0.0000000E+00;0;  0.0000000E+00;  1.0000000E+04;  0.0000000E+00;  0.0000000E+00;  1.0000000E+04;  0.0000000E+00;  1.0000000E+04;  0.0000000E+00;  0.0000000E+00;  0.0000000E+00;  0.0000000E+00;
  8.3999997E-01;  9.9999998E-03; -3.0000001E-01;2331;  0.0000000E+00;  0.0000000E+00;  0.0000000E+00;  1.0000000E+03;  4.0000001E-01;  0.0000000E+00;3;  0.0000000E+00;  0.0000000E+00;  0.0000000E+00;0;  0.0000000E+00;  1.0000000E+04;  0.0000000E+00;  0.0000000E+00;  1.0000000E+04;  0.0000000E+00;  1.0000000E+04;  0.0000000E+00;  0.0000000E+00;  0.0000000E+00;  0.0000000E+00;
  8.3999997E-01;  9.9999998E-03; -2.8000000E-01;2332;  0.0000000E+00;  0.0000000E+00;  0.0000000E+00;  1.0000000E+03;  4.0000001E-01;  0.0000000E+00;3;  0.0000000E+00;  0.0000000E+00;  0.0000000E+00;0;  0.0000000E+00;  1.0000000E+04;  0.0000000E+00;  0.0000000E+00;  1.0000000E+04;  0.0000000E+00;  1.0000000E+04;  0.0000000E+00;  0.0000000E+00;  0.0000000E+00;  0.0000000E+00;
  8.3999997E-01;  9.9999998E-03; -2.5999999E-01;2333;  0.0000000E+00;  0.0000000E+00;  0.0000000E+00;  1.0000000E+03;  4.0000001E-01;  0.0000000E+00;3;  0.0000000E+00;  0.0000000E+00;  0.0000000E+00;0;  0.0000000E+00;  1.0000000E+04;  0.0000000E+00;  0.0000000E+00;  1.0000000E+04;  0.0000000E+00;  1.0000000E+04;  0.0000000E+00;  0.0000000E+00;  0.0000000E+00;  0.0000000E+00;
  8.3999997E-01;  9.9999998E-03; -2.3999999E-01;2334;  0.0000000E+00;  0.0000000E+00;  0.0000000E+00;  1.0000000E+03;  4.0000001E-01;  0.0000000E+00;3;  0.0000000E+00;  0.0000000E+00;  0.0000000E+00;0;  0.0000000E+00;  1.0000000E+04;  0.0000000E+00;  0.0000000E+00;  1.0000000E+04;  0.0000000E+00;  1.0000000E+04;  0.0000000E+00;  0.0000000E+00;  0.0000000E+00;  0.0000000E+00;
  8.3999997E-01;  9.9999998E-03; -2.2000000E-01;2335;  0.0000000E+00;  0.0000000E+00;  0.0000000E+00;  1.0000000E+03;  4.0000001E-01;  0.0000000E+00;3;  0.0000000E+00;  0.0000000E+00;  0.0000000E+00;0;  0.0000000E+00;  1.0000000E+04;  0.0000000E+00;  0.0000000E+00;  1.0000000E+04;  0.0000000E+00;  1.0000000E+04;  0.0000000E+00;  0.0000000E+00;  0.0000000E+00;  0.0000000E+00;
  8.3999997E-01;  9.9999998E-03; -2.0000000E-01;2336;  0.0000000E+00;  0.0000000E+00;  0.0000000E+00;  1.0000000E+03;  4.0000001E-01;  0.0000000E+00;3;  0.0000000E+00;  0.0000000E+00;  0.0000000E+00;0;  0.0000000E+00;  1.0000000E+04;  0.0000000E+00;  0.0000000E+00;  1.0000000E+04;  0.0000000E+00;  1.0000000E+04;  0.0000000E+00;  0.0000000E+00;  0.0000000E+00;  0.0000000E+00;
  8.6000001E-01;  9.9999998E-03; -3.0000001E-01;2362;  0.0000000E+00;  0.0000000E+00;  0.0000000E+00;  1.0000000E+03;  4.0000001E-01;  0.0000000E+00;3;  0.0000000E+00;  0.0000000E+00;  0.0000000E+00;0;  0.0000000E+00;  1.0000000E+04;  0.0000000E+00;  0.0000000E+00;  1.0000000E+04;  0.0000000E+00;  1.0000000E+04;  0.0000000E+00;  0.0000000E+00;  0.0000000E+00;  0.0000000E+00;
  8.6000001E-01;  9.9999998E-03; -2.8000000E-01;2363;  0.0000000E+00;  0.0000000E+00;  0.0000000E+00;  1.0000000E+03;  4.0000001E-01;  0.0000000E+00;3;  0.0000000E+00;  0.0000000E+00;  0.0000000E+00;0;  0.0000000E+00;  1.0000000E+04;  0.0000000E+00;  0.0000000E+00;  1.0000000E+04;  0.0000000E+00;  1.0000000E+04;  0.0000000E+00;  0.0000000E+00;  0.0000000E+00;  0.0000000E+00;
  8.6000001E-01;  9.9999998E-03; -2.5999999E-01;2364;  0.0000000E+00;  0.0000000E+00;  0.0000000E+00;  1.0000000E+03;  4.0000001E-01;  0.0000000E+00;3;  0.0000000E+00;  0.0000000E+00;  0.0000000E+00;0;  0.0000000E+00;  1.0000000E+04;  0.0000000E+00;  0.0000000E+00;  1.0000000E+04;  0.0000000E+00;  1.0000000E+04;  0.0000000E+00;  0.0000000E+00;  0.0000000E+00;  0.0000000E+00;
  8.6000001E-01;  9.9999998E-03; -2.3999999E-01;2365;  0.0000000E+00;  0.0000000E+00;  0.0000000E+00;  1.0000000E+03;  4.0000001E-01;  0.0000000E+00;3;  0.0000000E+00;  0.0000000E+00;  0.0000000E+00;0;  0.0000000E+00;  1.0000000E+04;  0.0000000E+00;  0.0000000E+00;  1.0000000E+04;  0.0000000E+00;  1.0000000E+04;  0.0000000E+00;  0.0000000E+00;  0.0000000E+00;  0.0000000E+00;
  8.6000001E-01;  9.9999998E-03; -2.2000000E-01;2366;  0.0000000E+00;  0.0000000E+00;  0.0000000E+00;  1.0000000E+03;  4.0000001E-01;  0.0000000E+00;3;  0.0000000E+00;  0.0000000E+00;  0.0000000E+00;0;  0.0000000E+00;  1.0000000E+04;  0.0000000E+00;  0.0000000E+00;  1.0000000E+04;  0.0000000E+00;  1.0000000E+04;  0.0000000E+00;  0.0000000E+00;  0.0000000E+00;  0.0000000E+00;
  8.6000001E-01;  9.9999998E-03; -2.0000000E-01;2367;  0.0000000E+00;  0.0000000E+00;  0.0000000E+00;  1.0000000E+03;  4.0000001E-01;  0.0000000E+00;3;  0.0000000E+00;  0.0000000E+00;  0.0000000E+00;0;  0.0000000E+00;  1.0000000E+04;  0.0000000E+00;  0.0000000E+00;  1.0000000E+04;  0.0000000E+00;  1.0000000E+04;  0.0000000E+00;  0.0000000E+00;  0.0000000E+00;  0.0000000E+00;
  8.8000000E-01;  9.9999998E-03; -3.0000001E-01;2393;  0.0000000E+00;  0.0000000E+00;  0.0000000E+00;  1.0000000E+03;  4.0000001E-01;  0.0000000E+00;3;  0.0000000E+00;  0.0000000E+00;  0.0000000E+00;0;  0.0000000E+00;  1.0000000E+04;  0.0000000E+00;  0.0000000E+00;  1.0000000E+04;  0.0000000E+00;  1.0000000E+04;  0.0000000E+00;  0.0000000E+00;  0.0000000E+00;  0.0000000E+00;
  8.8000000E-01;  9.9999998E-03; -2.8000000E-01;2394;  0.0000000E+00;  0.0000000E+00;  0.0000000E+00;  1.0000000E+03;  4.0000001E-01;  0.0000000E+00;3;  0.0000000E+00;  0.0000000E+00;  0.0000000E+00;0;  0.0000000E+00;  1.0000000E+04;  0.0000000E+00;  0.0000000E+00;  1.0000000E+04;  0.0000000E+00;  1.0000000E+04;  0.0000000E+00;  0.0000000E+00;  0.0000000E+00;  0.0000000E+00;
  8.8000000E-01;  9.9999998E-03; -2.5999999E-01;2395;  0.0000000E+00;  0.0000000E+00;  0.0000000E+00;  1.0000000E+03;  4.0000001E-01;  0.0000000E+00;3;  0.0000000E+00;  0.0000000E+00;  0.0000000E+00;0;  0.0000000E+00;  1.0000000E+04;  0.0000000E+00;  0.0000000E+00;  1.0000000E+04;  0.0000000E+00;  1.0000000E+04;  0.0000000E+00;  0.0000000E+00;  0.0000000E+00;  0.0000000E+00;
  8.8000000E-01;  9.9999998E-03; -2.3999999E-01;2396;  0.0000000E+00;  0.0000000E+00;  0.0000000E+00;  1.0000000E+03;  4.0000001E-01;  0.0000000E+00;3;  0.0000000E+00;  0.0000000E+00;  0.0000000E+00;0;  0.0000000E+00;  1.0000000E+04;  0.0000000E+00;  0.0000000E+00;  1.0000000E+04;  0.0000000E+00;  1.0000000E+04;  0.0000000E+00;  0.0000000E+00;  0.0000000E+00;  0.0000000E+00;
  8.8000000E-01;  9.9999998E-03; -2.2000000E-01;2397;  0.0000000E+00;  0.0000000E+00;  0.0000000E+00;  1.0000000E+03;  4.0000001E-01;  0.0000000E+00;3;  0.0000000E+00;  0.0000000E+00;  0.0000000E+00;0;  0.0000000E+00;  1.0000000E+04;  0.0000000E+00;  0.0000000E+00;  1.0000000E+04;  0.0000000E+00;  1.0000000E+04;  0.0000000E+00;  0.0000000E+00;  0.0000000E+00;  0.0000000E+00;
  8.8000000E-01;  9.9999998E-03; -2.0000000E-01;2398;  0.0000000E+00;  0.0000000E+00;  0.0000000E+00;  1.0000000E+03;  4.0000001E-01;  0.0000000E+00;3;  0.0000000E+00;  0.0000000E+00;  0.0000000E+00;0;  0.0000000E+00;  1.0000000E+04;  0.0000000E+00;  0.0000000E+00;  1.0000000E+04;  0.0000000E+00;  1.0000000E+04;  0.0000000E+00;  0.0000000E+00;  0.0000000E+00;  0.0000000E+00;
  8.9999998E-01;  9.9999998E-03; -3.0000001E-01;2424;  0.0000000E+00;  0.0000000E+00;  0.0000000E+00;  1.0000000E+03;  4.0000001E-01;  0.0000000E+00;3;  0.0000000E+00;  0.0000000E+00;  0.0000000E+00;0;  0.0000000E+00;  1.0000000E+04;  0.0000000E+00;  0.0000000E+00;  1.0000000E+04;  0.0000000E+00;  1.0000000E+04;  0.0000000E+00;  0.0000000E+00;  0.0000000E+00;  0.0000000E+00;
  8.9999998E-01;  9.9999998E-03; -2.8000000E-01;2425;  0.0000000E+00;  0.0000000E+00;  0.0000000E+00;  1.0000000E+03;  4.0000001E-01;  0.0000000E+00;3;  0.0000000E+00;  0.0000000E+00;  0.0000000E+00;0;  0.0000000E+00;  1.0000000E+04;  0.0000000E+00;  0.0000000E+00;  1.0000000E+04;  0.0000000E+00;  1.0000000E+04;  0.0000000E+00;  0.0000000E+00;  0.0000000E+00;  0.0000000E+00;
  8.9999998E-01;  9.9999998E-03; -2.5999999E-01;2426;  0.0000000E+00;  0.0000000E+00;  0.0000000E+00;  1.0000000E+03;  4.0000001E-01;  0.0000000E+00;3;  0.0000000E+00;  0.0000000E+00;  0.0000000E+00;0;  0.0000000E+00;  1.0000000E+04;  0.0000000E+00;  0.0000000E+00;  1.0000000E+04;  0.0000000E+00;  1.0000000E+04;  0.0000000E+00;  0.0000000E+00;  0.0000000E+00;  0.0000000E+00;
  8.9999998E-01;  9.9999998E-03; -2.3999999E-01;2427;  0.0000000E+00;  0.0000000E+00;  0.0000000E+00;  1.0000000E+03;  4.0000001E-01;  0.0000000E+00;3;  0.0000000E+00;  0.0000000E+00;  0.0000000E+00;0;  0.0000000E+00;  1.0000000E+04;  0.0000000E+00;  0.0000000E+00;  1.0000000E+04;  0.0000000E+00;  1.0000000E+04;  0.0000000E+00;  0.0000000E+00;  0.0000000E+00;  0.0000000E+00;
  8.9999998E-01;  9.9999998E-03; -2.2000000E-01;2428;  0.0000000E+00;  0.0000000E+00;  0.0000000E+00;  1.0000000E+03;  4.0000001E-01;  0.0000000E+00;3;  0.0000000E+00;  0.0000000E+00;  0.0000000E+00;0;  0.0000000E+00;  1.0000000E+04;  0.0000000E+00;  0.0000000E+00;  1.0000000E+04;  0.0000000E+00;  1.0000000E+04;  0.0000000E+00;  0.0000000E+00;  0.0000000E+00;  0.0000000E+00;
  8.9999998E-01;  9.9999998E-03; -2.0000000E-01;2429;  0.0000000E+00;  0.0000000E+00;  0.0000000E+00;  1.0000000E+03;  4.0000001E-01;  0.0000000E+00;3;  0.0000000E+00;  0.0000000E+00;  0.0000000E+00;0;  0.0000000E+00;  1.0000000E+04;  0.0000000E+00;  0.0000000E+00;  1.0000000E+04;  0.0000000E+00;  1.0000000E+04;  0.0000000E+00;  0.0000000E+00;  0.0000000E+00;  0.0000000E+00;
  9.2000002E-01;  9.9999998E-03; -3.0000001E-01;2455;  0.0000000E+00;  0.0000000E+00;  0.0000000E+00;  1.0000000E+03;  4.0000001E-01;  0.0000000E+00;3;  0.0000000E+00;  0.0000000E+00;  0.0000000E+00;0;  0.0000000E+00;  1.0000000E+04;  0.0000000E+00;  0.0000000E+00;  1.0000000E+04;  0.0000000E+00;  1.0000000E+04;  0.0000000E+00;  0.0000000E+00;  0.0000000E+00;  0.0000000E+00;
  9.2000002E-01;  9.9999998E-03; -2.8000000E-01;2456;  0.0000000E+00;  0.0000000E+00;  0.0000000E+00;  1.0000000E+03;  4.0000001E-01;  0.0000000E+00;3;  0.0000000E+00;  0.0000000E+00;  0.0000000E+00;0;  0.0000000E+00;  1.0000000E+04;  0.0000000E+00;  0.0000000E+00;  1.0000000E+04;  0.0000000E+00;  1.0000000E+04;  0.0000000E+00;  0.0000000E+00;  0.0000000E+00;  0.0000000E+00;
  9.2000002E-01;  9.9999998E-03; -2.5999999E-01;2457;  0.0000000E+00;  0.0000000E+00;  0.0000000E+00;  1.0000000E+03;  4.0000001E-01;  0.0000000E+00;3;  0.0000000E+00;  0.0000000E+00;  0.0000000E+00;0;  0.0000000E+00;  1.0000000E+04;  0.0000000E+00;  0.0000000E+00;  1.0000000E+04;  0.0000000E+00;  1.0000000E+04;  0.0000000E+00;  0.0000000E+00;  0.0000000E+00;  0.0000000E+00;
  9.2000002E-01;  9.9999998E-03; -2.3999999E-01;2458;  0.0000000E+00;  0.0000000E+00;  0.0000000E+00;  1.0000000E+03;  4.0000001E-01;  0.0000000E+00;3;  0.0000000E+00;  0.0000000E+00;  0.0000000E+00;0;  0.0000000E+00;  1.0000000E+04;  0.0000000E+00;  0.0000000E+00;  1.0000000E+04;  0.0000000E+00;  1.0000000E+04;  0.0000000E+00;  0.0000000E+00;  0.0000000E+00;  0.0000000E+00;
  9.2000002E-01;  9.9999998E-03; -2.2000000E-01;2459;  0.0000000E+00;  0.0000000E+00;  0.0000000E+00;  1.0000000E+03;  4.0000001E-01;  0.0000000E+00;3;  0.0000000E+00;  0.0000000E+00;  0.0000000E+00;0;  0.0000000E+00;  1.0000000E+04;  0.0000000E+00;  0.0000000E+00;  1.0000000E+04;  0.0000000E+00;  1.0000000E+04;  0.0000000E+00;  0.0000000E+00;  0.0000000E+00;  0.0000000E+00;
  9.2000002E-01;  9.9999998E-03; -2.0000000E-01;2460;  0.0000000E+00;  0.0000000E+00;  0.0000000E+00;  1.0000000E+03;  4.0000001E-01;  0.0000000E+00;3;  0.0000000E+00;  0.0000000E+00;  0.0000000E+00;0;  0.0000000E+00;  1.0000000E+04;  0.0000000E+00;  0.0000000E+00;  1.0000000E+04;  0.0000000E+00;  1.0000000E+04;  0.0000000E+00;  0.0000000E+00;  0.0000000E+00;  0.0000000E+00;
  9.4000000E-01;  9.9999998E-03; -3.0000001E-01;2486;  0.0000000E+00;  0.0000000E+00;  0.0000000E+00;  1.0000000E+03;  4.0000001E-01;  0.0000000E+00;3;  0.0000000E+00;  0.0000000E+00;  0.0000000E+00;0;  0.0000000E+00;  1.0000000E+04;  0.0000000E+00;  0.0000000E+00;  1.0000000E+04;  0.0000000E+00;  1.0000000E+04;  0.0000000E+00;  0.0000000E+00;  0.0000000E+00;  0.0000000E+00;
  9.4000000E-01;  9.9999998E-03; -2.8000000E-01;2487;  0.0000000E+00;  0.0000000E+00;  0.0000000E+00;  1.0000000E+03;  4.0000001E-01;  0.0000000E+00;3;  0.0000000E+00;  0.0000000E+00;  0.0000000E+00;0;  0.0000000E+00;  1.0000000E+04;  0.0000000E+00;  0.0000000E+00;  1.0000000E+04;  0.0000000E+00;  1.0000000E+04;  0.0000000E+00;  0.0000000E+00;  0.0000000E+00;  0.0000000E+00;
  9.4000000E-01;  9.9999998E-03; -2.5999999E-01;2488;  0.0000000E+00;  0.0000000E+00;  0.0000000E+00;  1.0000000E+03;  4.0000001E-01;  0.0000000E+00;3;  0.0000000E+00;  0.0000000E+00;  0.0000000E+00;0;  0.0000000E+00;  1.0000000E+04;  0.0000000E+00;  0.0000000E+00;  1.0000000E+04;  0.0000000E+00;  1.0000000E+04;  0.0000000E+00;  0.0000000E+00;  0.0000000E+00;  0.0000000E+00;
  9.4000000E-01;  9.9999998E-03; -2.3999999E-01;2489;  0.0000000E+00;  0.0000000E+00;  0.0000000E+00;  1.0000000E+03;  4.0000001E-01;  0.0000000E+00;3;  0.0000000E+00;  0.0000000E+00;  0.0000000E+00;0;  0.0000000E+00;  1.0000000E+04;  0.0000000E+00;  0.0000000E+00;  1.0000000E+04;  0.0000000E+00;  1.0000000E+04;  0.0000000E+00;  0.0000000E+00;  0.0000000E+00;  0.0000000E+00;
  9.4000000E-01;  9.9999998E-03; -2.2000000E-01;2490;  0.0000000E+00;  0.0000000E+00;  0.0000000E+00;  1.0000000E+03;  4.0000001E-01;  0.0000000E+00;3;  0.0000000E+00;  0.0000000E+00;  0.0000000E+00;0;  0.0000000E+00;  1.0000000E+04;  0.0000000E+00;  0.0000000E+00;  1.0000000E+04;  0.0000000E+00;  1.0000000E+04;  0.0000000E+00;  0.0000000E+00;  0.0000000E+00;  0.0000000E+00;
  9.4000000E-01;  9.9999998E-03; -2.0000000E-01;2491;  0.0000000E+00;  0.0000000E+00;  0.0000000E+00;  1.0000000E+03;  4.0000001E-01;  0.0000000E+00;3;  0.0000000E+00;  0.0000000E+00;  0.0000000E+00;0;  0.0000000E+00;  1.0000000E+04;  0.0000000E+00;  0.0000000E+00;  1.0000000E+04;  0.0000000E+00;  1.0000000E+04;  0.0000000E+00;  0.0000000E+00;  0.0000000E+00;  0.0000000E+00;
  9.5999998E-01;  9.9999998E-03; -3.0000001E-01;2517;  0.0000000E+00;  0.0000000E+00;  0.0000000E+00;  1.0000000E+03;  4.0000001E-01;  0.0000000E+00;3;  0.0000000E+00;  0.0000000E+00;  0.0000000E+00;0;  0.0000000E+00;  1.0000000E+04;  0.0000000E+00;  0.0000000E+00;  1.0000000E+04;  0.0000000E+00;  1.0000000E+04;  0.0000000E+00;  0.0000000E+00;  0.0000000E+00;  0.0000000E+00;
  9.5999998E-01;  9.9999998E-03; -2.8000000E-01;2518;  0.0000000E+00;  0.0000000E+00;  0.0000000E+00;  1.0000000E+03;  4.0000001E-01;  0.0000000E+00;3;  0.0000000E+00;  0.0000000E+00;  0.0000000E+00;0;  0.0000000E+00;  1.0000000E+04;  0.0000000E+00;  0.0000000E+00;  1.0000000E+04;  0.0000000E+00;  1.0000000E+04;  0.0000000E+00;  0.0000000E+00;  0.0000000E+00;  0.0000000E+00;
  9.5999998E-01;  9.9999998E-03; -2.5999999E-01;2519;  0.0000000E+00;  0.0000000E+00;  0.0000000E+00;  1.0000000E+03;  4.0000001E-01;  0.0000000E+00;3;  0.0000000E+00;  0.0000000E+00;  0.0000000E+00;0;  0.0000000E+00;  1.0000000E+04;  0.0000000E+00;  0.0000000E+00;  1.0000000E+04;  0.0000000E+00;  1.0000000E+04;  0.0000000E+00;  0.0000000E+00;  0.0000000E+00;  0.0000000E+00;
  9.5999998E-01;  9.9999998E-03; -2.3999999E-01;2520;  0.0000000E+00;  0.0000000E+00;  0.0000000E+00;  1.0000000E+03;  4.0000001E-01;  0.0000000E+00;3;  0.0000000E+00;  0.0000000E+00;  0.0000000E+00;0;  0.0000000E+00;  1.0000000E+04;  0.0000000E+00;  0.0000000E+00;  1.0000000E+04;  0.0000000E+00;  1.0000000E+04;  0.0000000E+00;  0.0000000E+00;  0.0000000E+00;  0.0000000E+00;
  9.5999998E-01;  9.9999998E-03; -2.2000000E-01;2521;  0.0000000E+00;  0.0000000E+00;  0.0000000E+00;  1.0000000E+03;  4.0000001E-01;  0.0000000E+00;3;  0.0000000E+00;  0.0000000E+00;  0.0000000E+00;0;  0.0000000E+00;  1.0000000E+04;  0.0000000E+00;  0.0000000E+00;  1.0000000E+04;  0.0000000E+00;  1.0000000E+04;  0.0000000E+00;  0.0000000E+00;  0.0000000E+00;  0.0000000E+00;
  9.5999998E-01;  9.9999998E-03; -2.0000000E-01;2522;  0.0000000E+00;  0.0000000E+00;  0.0000000E+00;  1.0000000E+03;  4.0000001E-01;  0.0000000E+00;3;  0.0000000E+00;  0.0000000E+00;  0.0000000E+00;0;  0.0000000E+00;  1.0000000E+04;  0.0000000E+00;  0.0000000E+00;  1.0000000E+04;  0.0000000E+00;  1.0000000E+04;  0.0000000E+00;  0.0000000E+00;  0.0000000E+00;  0.0000000E+00;
  9.8000002E-01;  9.9999998E-03; -3.0000001E-01;2548;  0.0000000E+00;  0.0000000E+00;  0.0000000E+00;  1.0000000E+03;  4.0000001E-01;  0.0000000E+00;3;  0.0000000E+00;  0.0000000E+00;  0.0000000E+00;0;  0.0000000E+00;  1.0000000E+04;  0.0000000E+00;  0.0000000E+00;  1.0000000E+04;  0.0000000E+00;  1.0000000E+04;  0.0000000E+00;  0.0000000E+00;  0.0000000E+00;  0.0000000E+00;
  9.8000002E-01;  9.9999998E-03; -2.8000000E-01;2549;  0.0000000E+00;  0.0000000E+00;  0.0000000E+00;  1.0000000E+03;  4.0000001E-01;  0.0000000E+00;3;  0.0000000E+00;  0.0000000E+00;  0.0000000E+00;0;  0.0000000E+00;  1.0000000E+04;  0.0000000E+00;  0.0000000E+00;  1.0000000E+04;  0.0000000E+00;  1.0000000E+04;  0.0000000E+00;  0.0000000E+00;  0.0000000E+00;  0.0000000E+00;
  9.8000002E-01;  9.9999998E-03; -2.5999999E-01;2550;  0.0000000E+00;  0.0000000E+00;  0.0000000E+00;  1.0000000E+03;  4.0000001E-01;  0.0000000E+00;3;  0.0000000E+00;  0.0000000E+00;  0.0000000E+00;0;  0.0000000E+00;  1.0000000E+04;  0.0000000E+00;  0.0000000E+00;  1.0000000E+04;  0.0000000E+00;  1.0000000E+04;  0.0000000E+00;  0.0000000E+00;  0.0000000E+00;  0.0000000E+00;
  9.8000002E-01;  9.9999998E-03; -2.3999999E-01;2551;  0.0000000E+00;  0.0000000E+00;  0.0000000E+00;  1.0000000E+03;  4.0000001E-01;  0.0000000E+00;3;  0.0000000E+00;  0.0000000E+00;  0.0000000E+00;0;  0.0000000E+00;  1.0000000E+04;  0.0000000E+00;  0.0000000E+00;  1.0000000E+04;  0.0000000E+00;  1.0000000E+04;  0.0000000E+00;  0.0000000E+00;  0.0000000E+00;  0.0000000E+00;
  9.8000002E-01;  9.9999998E-03; -2.2000000E-01;2552;  0.0000000E+00;  0.0000000E+00;  0.0000000E+00;  1.0000000E+03;  4.0000001E-01;  0.0000000E+00;3;  0.0000000E+00;  0.0000000E+00;  0.0000000E+00;0;  0.0000000E+00;  1.0000000E+04;  0.0000000E+00;  0.0000000E+00;  1.0000000E+04;  0.0000000E+00;  1.0000000E+04;  0.0000000E+00;  0.0000000E+00;  0.0000000E+00;  0.0000000E+00;
  9.8000002E-01;  9.9999998E-03; -2.0000000E-01;2553;  0.0000000E+00;  0.0000000E+00;  0.0000000E+00;  1.0000000E+03;  4.0000001E-01;  0.0000000E+00;3;  0.0000000E+00;  0.0000000E+00;  0.0000000E+00;0;  0.0000000E+00;  1.0000000E+04;  0.0000000E+00;  0.0000000E+00;  1.0000000E+04;  0.0000000E+00;  1.0000000E+04;  0.0000000E+00;  0.0000000E+00;  0.0000000E+00;  0.0000000E+00;
  1.0000000E+00;  9.9999998E-03; -3.0000001E-01;2579;  0.0000000E+00;  0.0000000E+00;  0.0000000E+00;  1.0000000E+03;  4.0000001E-01;  0.0000000E+00;3;  0.0000000E+00;  0.0000000E+00;  0.0000000E+00;0;  0.0000000E+00;  1.0000000E+04;  0.0000000E+00;  0.0000000E+00;  1.0000000E+04;  0.0000000E+00;  1.0000000E+04;  0.0000000E+00;  0.0000000E+00;  0.0000000E+00;  0.0000000E+00;
  1.0000000E+00;  9.9999998E-03; -2.8000000E-01;2580;  0.0000000E+00;  0.0000000E+00;  0.0000000E+00;  1.0000000E+03;  4.0000001E-01;  0.0000000E+00;3;  0.0000000E+00;  0.0000000E+00;  0.0000000E+00;0;  0.0000000E+00;  1.0000000E+04;  0.0000000E+00;  0.0000000E+00;  1.0000000E+04;  0.0000000E+00;  1.0000000E+04;  0.0000000E+00;  0.0000000E+00;  0.0000000E+00;  0.0000000E+00;
  1.0000000E+00;  9.9999998E-03; -2.5999999E-01;2581;  0.0000000E+00;  0.0000000E+00;  0.0000000E+00;  1.0000000E+03;  4.0000001E-01;  0.0000000E+00;3;  0.0000000E+00;  0.0000000E+00;  0.0000000E+00;0;  0.0000000E+00;  1.0000000E+04;  0.0000000E+00;  0.0000000E+00;  1.0000000E+04;  0.0000000E+00;  1.0000000E+04;  0.0000000E+00;  0.0000000E+00;  0.0000000E+00;  0.0000000E+00;
  1.0000000E+00;  9.9999998E-03; -2.3999999E-01;2582;  0.0000000E+00;  0.0000000E+00;  0.0000000E+00;  1.0000000E+03;  4.0000001E-01;  0.0000000E+00;3;  0.0000000E+00;  0.0000000E+00;  0.0000000E+00;0;  0.0000000E+00;  1.0000000E+04;  0.0000000E+00;  0.0000000E+00;  1.0000000E+04;  0.0000000E+00;  1.0000000E+04;  0.0000000E+00;  0.0000000E+00;  0.0000000E+00;  0.0000000E+00;
  1.0000000E+00;  9.9999998E-03; -2.2000000E-01;2583;  0.0000000E+00;  0.0000000E+00;  0.0000000E+00;  1.0000000E+03;  4.0000001E-01;  0.0000000E+00;3;  0.0000000E+00;  0.0000000E+00;  0.0000000E+00;0;  0.0000000E+00;  1.0000000E+04;  0.0000000E+00;  0.0000000E+00;  1.0000000E+04;  0.0000000E+00;  1.0000000E+04;  0.0000000E+00;  0.0000000E+00;  0.0000000E+00;  0.0000000E+00;
  1.0000000E+00;  9.9999998E-03; -2.0000000E-01;2584;  0.0000000E+00;  0.0000000E+00;  0.0000000E+00;  1.0000000E+03;  4.0000001E-01;  0.0000000E+00;3;  0.0000000E+00;  0.0000000E+00;  0.0000000E+00;0;  0.0000000E+00;  1.0000000E+04;  0.0000000E+00;  0.0000000E+00;  1.0000000E+04;  0.0000000E+00;  1.0000000E+04;  0.0000000E+00;  0.0000000E+00;  0.0000000E+00;  0.0000000E+00;
  1.0200000E+00;  9.9999998E-03; -3.0000001E-01;2610;  0.0000000E+00;  0.0000000E+00;  0.0000000E+00;  1.0000000E+03;  4.0000001E-01;  0.0000000E+00;3;  0.0000000E+00;  0.0000000E+00;  0.0000000E+00;0;  0.0000000E+00;  1.0000000E+04;  0.0000000E+00;  0.0000000E+00;  1.0000000E+04;  0.0000000E+00;  1.0000000E+04;  0.0000000E+00;  0.0000000E+00;  0.0000000E+00;  0.0000000E+00;
  1.0200000E+00;  9.9999998E-03; -2.8000000E-01;2611;  0.0000000E+00;  0.0000000E+00;  0.0000000E+00;  1.0000000E+03;  4.0000001E-01;  0.0000000E+00;3;  0.0000000E+00;  0.0000000E+00;  0.0000000E+00;0;  0.0000000E+00;  1.0000000E+04;  0.0000000E+00;  0.0000000E+00;  1.0000000E+04;  0.0000000E+00;  1.0000000E+04;  0.0000000E+00;  0.0000000E+00;  0.0000000E+00;  0.0000000E+00;
  1.0200000E+00;  9.9999998E-03; -2.5999999E-01;2612;  0.0000000E+00;  0.0000000E+00;  0.0000000E+00;  1.0000000E+03;  4.0000001E-01;  0.0000000E+00;3;  0.0000000E+00;  0.0000000E+00;  0.0000000E+00;0;  0.0000000E+00;  1.0000000E+04;  0.0000000E+00;  0.0000000E+00;  1.0000000E+04;  0.0000000E+00;  1.0000000E+04;  0.0000000E+00;  0.0000000E+00;  0.0000000E+00;  0.0000000E+00;
  1.0200000E+00;  9.9999998E-03; -2.3999999E-01;2613;  0.0000000E+00;  0.0000000E+00;  0.0000000E+00;  1.0000000E+03;  4.0000001E-01;  0.0000000E+00;3;  0.0000000E+00;  0.0000000E+00;  0.0000000E+00;0;  0.0000000E+00;  1.0000000E+04;  0.0000000E+00;  0.0000000E+00;  1.0000000E+04;  0.0000000E+00;  1.0000000E+04;  0.0000000E+00;  0.0000000E+00;  0.0000000E+00;  0.0000000E+00;
  1.0200000E+00;  9.9999998E-03; -2.2000000E-01;2614;  0.0000000E+00;  0.0000000E+00;  0.0000000E+00;  1.0000000E+03;  4.0000001E-01;  0.0000000E+00;3;  0.0000000E+00;  0.0000000E+00;  0.0000000E+00;0;  0.0000000E+00;  1.0000000E+04;  0.0000000E+00;  0.0000000E+00;  1.0000000E+04;  0.0000000E+00;  1.0000000E+04;  0.0000000E+00;  0.0000000E+00;  0.0000000E+00;  0.0000000E+00;
  1.0200000E+00;  9.9999998E-03; -2.0000000E-01;2615;  0.0000000E+00;  0.0000000E+00;  0.0000000E+00;  1.0000000E+03;  4.0000001E-01;  0.0000000E+00;3;  0.0000000E+00;  0.0000000E+00;  0.0000000E+00;0;  0.0000000E+00;  1.0000000E+04;  0.0000000E+00;  0.0000000E+00;  1.0000000E+04;  0.0000000E+00;  1.0000000E+04;  0.0000000E+00;  0.0000000E+00;  0.0000000E+00;  0.0000000E+00;
  1.0400000E+00;  9.9999998E-03; -3.0000001E-01;2641;  0.0000000E+00;  0.0000000E+00;  0.0000000E+00;  1.0000000E+03;  4.0000001E-01;  0.0000000E+00;3;  0.0000000E+00;  0.0000000E+00;  0.0000000E+00;0;  0.0000000E+00;  1.0000000E+04;  0.0000000E+00;  0.0000000E+00;  1.0000000E+04;  0.0000000E+00;  1.0000000E+04;  0.0000000E+00;  0.0000000E+00;  0.0000000E+00;  0.0000000E+00;
  1.0400000E+00;  9.9999998E-03; -2.8000000E-01;2642;  0.0000000E+00;  0.0000000E+00;  0.0000000E+00;  1.0000000E+03;  4.0000001E-01;  0.0000000E+00;3;  0.0000000E+00;  0.0000000E+00;  0.0000000E+00;0;  0.0000000E+00;  1.0000000E+04;  0.0000000E+00;  0.0000000E+00;  1.0000000E+04;  0.0000000E+00;  1.0000000E+04;  0.0000000E+00;  0.0000000E+00;  0.0000000E+00;  0.0000000E+00;
  1.0400000E+00;  9.9999998E-03; -2.5999999E-01;2643;  0.0000000E+00;  0.0000000E+00;  0.0000000E+00;  1.0000000E+03;  4.0000001E-01;  0.0000000E+00;3;  0.0000000E+00;  0.0000000E+00;  0.0000000E+00;0;  0.0000000E+00;  1.0000000E+04;  0.0000000E+00;  0.0000000E+00;  1.0000000E+04;  0.0000000E+00;  1.0000000E+04;  0.0000000E+00;  0.0000000E+00;  0.0000000E+00;  0.0000000E+00;
  1.0400000E+00;  9.9999998E-03; -2.3999999E-01;2644;  0.0000000E+00;  0.0000000E+00;  0.0000000E+00;  1.0000000E+03;  4.0000001E-01;  0.0000000E+00;3;  0.0000000E+00;  0.0000000E+00;  0.0000000E+00;0;  0.0000000E+00;  1.0000000E+04;  0.0000000E+00;  0.0000000E+00;  1.0000000E+04;  0.0000000E+00;  1.0000000E+04;  0.0000000E+00;  0.0000000E+00;  0.0000000E+00;  0.0000000E+00;
  1.0400000E+00;  9.9999998E-03; -2.2000000E-01;2645;  0.0000000E+00;  0.0000000E+00;  0.0000000E+00;  1.0000000E+03;  4.0000001E-01;  0.0000000E+00;3;  0.0000000E+00;  0.0000000E+00;  0.0000000E+00;0;  0.0000000E+00;  1.0000000E+04;  0.0000000E+00;  0.0000000E+00;  1.0000000E+04;  0.0000000E+00;  1.0000000E+04;  0.0000000E+00;  0.0000000E+00;  0.0000000E+00;  0.0000000E+00;
  1.0400000E+00;  9.9999998E-03; -2.0000000E-01;2646;  0.0000000E+00;  0.0000000E+00;  0.0000000E+00;  1.0000000E+03;  4.0000001E-01;  0.0000000E+00;3;  0.0000000E+00;  0.0000000E+00;  0.0000000E+00;0;  0.0000000E+00;  1.0000000E+04;  0.0000000E+00;  0.0000000E+00;  1.0000000E+04;  0.0000000E+00;  1.0000000E+04;  0.0000000E+00;  0.0000000E+00;  0.0000000E+00;  0.0000000E+00;
  1.0599999E+00;  9.9999998E-03; -3.0000001E-01;2672;  0.0000000E+00;  0.0000000E+00;  0.0000000E+00;  1.0000000E+03;  4.0000001E-01;  0.0000000E+00;3;  0.0000000E+00;  0.0000000E+00;  0.0000000E+00;0;  0.0000000E+00;  1.0000000E+04;  0.0000000E+00;  0.0000000E+00;  1.0000000E+04;  0.0000000E+00;  1.0000000E+04;  0.0000000E+00;  0.0000000E+00;  0.0000000E+00;  0.0000000E+00;
  1.0599999E+00;  9.9999998E-03; -2.8000000E-01;2673;  0.0000000E+00;  0.0000000E+00;  0.0000000E+00;  1.0000000E+03;  4.0000001E-01;  0.0000000E+00;3;  0.0000000E+00;  0.0000000E+00;  0.0000000E+00;0;  0.0000000E+00;  1.0000000E+04;  0.0000000E+00;  0.0000000E+00;  1.0000000E+04;  0.0000000E+00;  1.0000000E+04;  0.0000000E+00;  0.0000000E+00;  0.0000000E+00;  0.0000000E+00;
  1.0599999E+00;  9.9999998E-03; -2.5999999E-01;2674;  0.0000000E+00;  0.0000000E+00;  0.0000000E+00;  1.0000000E+03;  4.0000001E-01;  0.0000000E+00;3;  0.0000000E+00;  0.0000000E+00;  0.0000000E+00;0;  0.0000000E+00;  1.0000000E+04;  0.0000000E+00;  0.0000000E+00;  1.0000000E+04;  0.0000000E+00;  1.0000000E+04;  0.0000000E+00;  0.0000000E+00;  0.0000000E+00;  0.0000000E+00;
  1.0599999E+00;  9.9999998E-03; -2.3999999E-01;2675;  0.0000000E+00;  0.0000000E+00;  0.0000000E+00;  1.0000000E+03;  4.0000001E-01;  0.0000000E+00;3;  0.0000000E+00;  0.0000000E+00;  0.0000000E+00;0;  0.0000000E+00;  1.0000000E+04;  0.0000000E+00;  0.0000000E+00;  1.0000000E+04;  0.0000000E+00;  1.0000000E+04;  0.0000000E+00;  0.0000000E+00;  0.0000000E+00;  0.0000000E+00;
  1.0599999E+00;  9.9999998E-03; -2.2000000E-01;2676;  0.0000000E+00;  0.0000000E+00;  0.0000000E+00;  1.0000000E+03;  4.0000001E-01;  0.0000000E+00;3;  0.0000000E+00;  0.0000000E+00;  0.0000000E+00;0;  0.0000000E+00;  1.0000000E+04;  0.0000000E+00;  0.0000000E+00;  1.0000000E+04;  0.0000000E+00;  1.0000000E+04;  0.0000000E+00;  0.0000000E+00;  0.0000000E+00;  0.0000000E+00;
  1.0599999E+00;  9.9999998E-03; -2.0000000E-01;2677;  0.0000000E+00;  0.0000000E+00;  0.0000000E+00;  1.0000000E+03;  4.0000001E-01;  0.0000000E+00;3;  0.0000000E+00;  0.0000000E+00;  0.0000000E+00;0;  0.0000000E+00;  1.0000000E+04;  0.0000000E+00;  0.0000000E+00;  1.0000000E+04;  0.0000000E+00;  1.0000000E+04;  0.0000000E+00;  0.0000000E+00;  0.0000000E+00;  0.0000000E+00;
  1.0800000E+00;  9.9999998E-03; -3.0000001E-01;2703;  0.0000000E+00;  0.0000000E+00;  0.0000000E+00;  1.0000000E+03;  4.0000001E-01;  0.0000000E+00;3;  0.0000000E+00;  0.0000000E+00;  0.0000000E+00;0;  0.0000000E+00;  1.0000000E+04;  0.0000000E+00;  0.0000000E+00;  1.0000000E+04;  0.0000000E+00;  1.0000000E+04;  0.0000000E+00;  0.0000000E+00;  0.0000000E+00;  0.0000000E+00;
  1.0800000E+00;  9.9999998E-03; -2.8000000E-01;2704;  0.0000000E+00;  0.0000000E+00;  0.0000000E+00;  1.0000000E+03;  4.0000001E-01;  0.0000000E+00;3;  0.0000000E+00;  0.0000000E+00;  0.0000000E+00;0;  0.0000000E+00;  1.0000000E+04;  0.0000000E+00;  0.0000000E+00;  1.0000000E+04;  0.0000000E+00;  1.0000000E+04;  0.0000000E+00;  0.0000000E+00;  0.0000000E+00;  0.0000000E+00;
  1.0800000E+00;  9.9999998E-03; -2.5999999E-01;2705;  0.0000000E+00;  0.0000000E+00;  0.0000000E+00;  1.0000000E+03;  4.0000001E-01;  0.0000000E+00;3;  0.0000000E+00;  0.0000000E+00;  0.0000000E+00;0;  0.0000000E+00;  1.0000000E+04;  0.0000000E+00;  0.0000000E+00;  1.0000000E+04;  0.0000000E+00;  1.0000000E+04;  0.0000000E+00;  0.0000000E+00;  0.0000000E+00;  0.0000000E+00;
  1.0800000E+00;  9.9999998E-03; -2.3999999E-01;2706;  0.0000000E+00;  0.0000000E+00;  0.0000000E+00;  1.0000000E+03;  4.0000001E-01;  0.0000000E+00;3;  0.0000000E+00;  0.0000000E+00;  0.0000000E+00;0;  0.0000000E+00;  1.0000000E+04;  0.0000000E+00;  0.0000000E+00;  1.0000000E+04;  0.0000000E+00;  1.0000000E+04;  0.0000000E+00;  0.0000000E+00;  0.0000000E+00;  0.0000000E+00;
  1.0800000E+00;  9.9999998E-03; -2.2000000E-01;2707;  0.0000000E+00;  0.0000000E+00;  0.0000000E+00;  1.0000000E+03;  4.0000001E-01;  0.0000000E+00;3;  0.0000000E+00;  0.0000000E+00;  0.0000000E+00;0;  0.0000000E+00;  1.0000000E+04;  0.0000000E+00;  0.0000000E+00;  1.0000000E+04;  0.0000000E+00;  1.0000000E+04;  0.0000000E+00;  0.0000000E+00;  0.0000000E+00;  0.0000000E+00;
  1.0800000E+00;  9.9999998E-03; -2.0000000E-01;2708;  0.0000000E+00;  0.0000000E+00;  0.0000000E+00;  1.0000000E+03;  4.0000001E-01;  0.0000000E+00;3;  0.0000000E+00;  0.0000000E+00;  0.0000000E+00;0;  0.0000000E+00;  1.0000000E+04;  0.0000000E+00;  0.0000000E+00;  1.0000000E+04;  0.0000000E+00;  1.0000000E+04;  0.0000000E+00;  0.0000000E+00;  0.0000000E+00;  0.0000000E+00;
  1.1000000E+00;  9.9999998E-03; -2.8000000E-01;2734;  0.0000000E+00;  0.0000000E+00;  0.0000000E+00;  1.0000000E+03;  4.0000001E-01;  0.0000000E+00;3;  0.0000000E+00;  0.0000000E+00;  0.0000000E+00;0;  0.0000000E+00;  1.0000000E+04;  0.0000000E+00;  0.0000000E+00;  1.0000000E+04;  0.0000000E+00;  1.0000000E+04;  0.0000000E+00;  0.0000000E+00;  0.0000000E+00;  0.0000000E+00;
  1.1000000E+00;  9.9999998E-03; -2.5999999E-01;2735;  0.0000000E+00;  0.0000000E+00;  0.0000000E+00;  1.0000000E+03;  4.0000001E-01;  0.0000000E+00;3;  0.0000000E+00;  0.0000000E+00;  0.0000000E+00;0;  0.0000000E+00;  1.0000000E+04;  0.0000000E+00;  0.0000000E+00;  1.0000000E+04;  0.0000000E+00;  1.0000000E+04;  0.0000000E+00;  0.0000000E+00;  0.0000000E+00;  0.0000000E+00;
  1.1000000E+00;  9.9999998E-03; -2.3999999E-01;2736;  0.0000000E+00;  0.0000000E+00;  0.0000000E+00;  1.0000000E+03;  4.0000001E-01;  0.0000000E+00;3;  0.0000000E+00;  0.0000000E+00;  0.0000000E+00;0;  0.0000000E+00;  1.0000000E+04;  0.0000000E+00;  0.0000000E+00;  1.0000000E+04;  0.0000000E+00;  1.0000000E+04;  0.0000000E+00;  0.0000000E+00;  0.0000000E+00;  0.0000000E+00;
  1.1000000E+00;  9.9999998E-03; -2.2000000E-01;2737;  0.0000000E+00;  0.0000000E+00;  0.0000000E+00;  1.0000000E+03;  4.0000001E-01;  0.0000000E+00;3;  0.0000000E+00;  0.0000000E+00;  0.0000000E+00;0;  0.0000000E+00;  1.0000000E+04;  0.0000000E+00;  0.0000000E+00;  1.0000000E+04;  0.0000000E+00;  1.0000000E+04;  0.0000000E+00;  0.0000000E+00;  0.0000000E+00;  0.0000000E+00;
  1.1000000E+00;  9.9999998E-03; -2.0000000E-01;2738;  0.0000000E+00;  0.0000000E+00;  0.0000000E+00;  1.0000000E+03;  4.0000001E-01;  0.0000000E+00;3;  0.0000000E+00;  0.0000000E+00;  0.0000000E+00;0;  0.0000000E+00;  1.0000000E+04;  0.0000000E+00;  0.0000000E+00;  1.0000000E+04;  0.0000000E+00;  1.0000000E+04;  0.0000000E+00;  0.0000000E+00;  0.0000000E+00;  0.0000000E+00;
  1.1200000E+00;  9.9999998E-03; -2.8000000E-01;2763;  0.0000000E+00;  0.0000000E+00;  0.0000000E+00;  1.0000000E+03;  4.0000001E-01;  0.0000000E+00;3;  0.0000000E+00;  0.0000000E+00;  0.0000000E+00;0;  0.0000000E+00;  1.0000000E+04;  0.0000000E+00;  0.0000000E+00;  1.0000000E+04;  0.0000000E+00;  1.0000000E+04;  0.0000000E+00;  0.0000000E+00;  0.0000000E+00;  0.0000000E+00;
  1.1200000E+00;  9.9999998E-03; -2.5999999E-01;2764;  0.0000000E+00;  0.0000000E+00;  0.0000000E+00;  1.0000000E+03;  4.0000001E-01;  0.0000000E+00;3;  0.0000000E+00;  0.0000000E+00;  0.0000000E+00;0;  0.0000000E+00;  1.0000000E+04;  0.0000000E+00;  0.0000000E+00;  1.0000000E+04;  0.0000000E+00;  1.0000000E+04;  0.0000000E+00;  0.0000000E+00;  0.0000000E+00;  0.0000000E+00;
  1.1200000E+00;  9.9999998E-03; -2.3999999E-01;2765;  0.0000000E+00;  0.0000000E+00;  0.0000000E+00;  1.0000000E+03;  4.0000001E-01;  0.0000000E+00;3;  0.0000000E+00;  0.0000000E+00;  0.0000000E+00;0;  0.0000000E+00;  1.0000000E+04;  0.0000000E+00;  0.0000000E+00;  1.0000000E+04;  0.0000000E+00;  1.0000000E+04;  0.0000000E+00;  0.0000000E+00;  0.0000000E+00;  0.0000000E+00;
  1.1200000E+00;  9.9999998E-03; -2.2000000E-01;2766;  0.0000000E+00;  0.0000000E+00;  0.0000000E+00;  1.0000000E+03;  4.0000001E-01;  0.0000000E+00;3;  0.0000000E+00;  0.0000000E+00;  0.0000000E+00;0;  0.0000000E+00;  1.0000000E+04;  0.0000000E+00;  0.0000000E+00;  1.0000000E+04;  0.0000000E+00;  1.0000000E+04;  0.0000000E+00;  0.0000000E+00;  0.0000000E+00;  0.0000000E+00;
  1.1200000E+00;  9.9999998E-03; -2.0000000E-01;2767;  0.0000000E+00;  0.0000000E+00;  0.0000000E+00;  1.0000000E+03;  4.0000001E-01;  0.0000000E+00;3;  0.0000000E+00;  0.0000000E+00;  0.0000000E+00;0;  0.0000000E+00;  1.0000000E+04;  0.0000000E+00;  0.0000000E+00;  1.0000000E+04;  0.0000000E+00;  1.0000000E+04;  0.0000000E+00;  0.0000000E+00;  0.0000000E+00;  0.0000000E+00;
  1.1400000E+00;  9.9999998E-03; -2.5999999E-01;2792;  0.0000000E+00;  0.0000000E+00;  0.0000000E+00;  1.0000000E+03;  4.0000001E-01;  0.0000000E+00;3;  0.0000000E+00;  0.0000000E+00;  0.0000000E+00;0;  0.0000000E+00;  1.0000000E+04;  0.0000000E+00;  0.0000000E+00;  1.0000000E+04;  0.0000000E+00;  1.0000000E+04;  0.0000000E+00;  0.0000000E+00;  0.0000000E+00;  0.0000000E+00;
  1.1400000E+00;  9.9999998E-03; -2.3999999E-01;2793;  0.0000000E+00;  0.0000000E+00;  0.0000000E+00;  1.0000000E+03;  4.0000001E-01;  0.0000000E+00;3;  0.0000000E+00;  0.0000000E+00;  0.0000000E+00;0;  0.0000000E+00;  1.0000000E+04;  0.0000000E+00;  0.0000000E+00;  1.0000000E+04;  0.0000000E+00;  1.0000000E+04;  0.0000000E+00;  0.0000000E+00;  0.0000000E+00;  0.0000000E+00;
  1.1400000E+00;  9.9999998E-03; -2.2000000E-01;2794;  0.0000000E+00;  0.0000000E+00;  0.0000000E+00;  1.0000000E+03;  4.0000001E-01;  0.0000000E+00;3;  0.0000000E+00;  0.0000000E+00;  0.0000000E+00;0;  0.0000000E+00;  1.0000000E+04;  0.0000000E+00;  0.0000000E+00;  1.0000000E+04;  0.0000000E+00;  1.0000000E+04;  0.0000000E+00;  0.0000000E+00;  0.0000000E+00;  0.0000000E+00;
  1.1400000E+00;  9.9999998E-03; -2.0000000E-01;2795;  0.0000000E+00;  0.0000000E+00;  0.0000000E+00;  1.0000000E+03;  4.0000001E-01;  0.0000000E+00;3;  0.0000000E+00;  0.0000000E+00;  0.0000000E+00;0;  0.0000000E+00;  1.0000000E+04;  0.0000000E+00;  0.0000000E+00;  1.0000000E+04;  0.0000000E+00;  1.0000000E+04;  0.0000000E+00;  0.0000000E+00;  0.0000000E+00;  0.0000000E+00;
  1.1600000E+00;  9.9999998E-03; -2.5999999E-01;2819;  0.0000000E+00;  0.0000000E+00;  0.0000000E+00;  1.0000000E+03;  4.0000001E-01;  0.0000000E+00;3;  0.0000000E+00;  0.0000000E+00;  0.0000000E+00;0;  0.0000000E+00;  1.0000000E+04;  0.0000000E+00;  0.0000000E+00;  1.0000000E+04;  0.0000000E+00;  1.0000000E+04;  0.0000000E+00;  0.0000000E+00;  0.0000000E+00;  0.0000000E+00;
  1.1600000E+00;  9.9999998E-03; -2.3999999E-01;2820;  0.0000000E+00;  0.0000000E+00;  0.0000000E+00;  1.0000000E+03;  4.0000001E-01;  0.0000000E+00;3;  0.0000000E+00;  0.0000000E+00;  0.0000000E+00;0;  0.0000000E+00;  1.0000000E+04;  0.0000000E+00;  0.0000000E+00;  1.0000000E+04;  0.0000000E+00;  1.0000000E+04;  0.0000000E+00;  0.0000000E+00;  0.0000000E+00;  0.0000000E+00;
  1.1600000E+00;  9.9999998E-03; -2.2000000E-01;2821;  0.0000000E+00;  0.0000000E+00;  0.0000000E+00;  1.0000000E+03;  4.0000001E-01;  0.0000000E+00;3;  0.0000000E+00;  0.0000000E+00;  0.0000000E+00;0;  0.0000000E+00;  1.0000000E+04;  0.0000000E+00;  0.0000000E+00;  1.0000000E+04;  0.0000000E+00;  1.0000000E+04;  0.0000000E+00;  0.0000000E+00;  0.0000000E+00;  0.0000000E+00;
  1.1600000E+00;  9.9999998E-03; -2.0000000E-01;2822;  0.0000000E+00;  0.0000000E+00;  0.0000000E+00;  1.0000000E+03;  4.0000001E-01;  0.0000000E+00;3;  0.0000000E+00;  0.0000000E+00;  0.0000000E+00;0;  0.0000000E+00;  1.0000000E+04;  0.0000000E+00;  0.0000000E+00;  1.0000000E+04;  0.0000000E+00;  1.0000000E+04;  0.0000000E+00;  0.0000000E+00;  0.0000000E+00;  0.0000000E+00;
  1.1799999E+00;  9.9999998E-03; -2.3999999E-01;2846;  0.0000000E+00;  0.0000000E+00;  0.0000000E+00;  1.0000000E+03;  4.0000001E-01;  0.0000000E+00;3;  0.0000000E+00;  0.0000000E+00;  0.0000000E+00;0;  0.0000000E+00;  1.0000000E+04;  0.0000000E+00;  0.0000000E+00;  1.0000000E+04;  0.0000000E+00;  1.0000000E+04;  0.0000000E+00;  0.0000000E+00;  0.0000000E+00;  0.0000000E+00;
  1.1799999E+00;  9.9999998E-03; -2.2000000E-01;2847;  0.0000000E+00;  0.0000000E+00;  0.0000000E+00;  1.0000000E+03;  4.0000001E-01;  0.0000000E+00;3;  0.0000000E+00;  0.0000000E+00;  0.0000000E+00;0;  0.0000000E+00;  1.0000000E+04;  0.0000000E+00;  0.0000000E+00;  1.0000000E+04;  0.0000000E+00;  1.0000000E+04;  0.0000000E+00;  0.0000000E+00;  0.0000000E+00;  0.0000000E+00;
  1.1799999E+00;  9.9999998E-03; -2.0000000E-01;2848;  0.0000000E+00;  0.0000000E+00;  0.0000000E+00;  1.0000000E+03;  4.0000001E-01;  0.0000000E+00;3;  0.0000000E+00;  0.0000000E+00;  0.0000000E+00;0;  0.0000000E+00;  1.0000000E+04;  0.0000000E+00;  0.0000000E+00;  1.0000000E+04;  0.0000000E+00;  1.0000000E+04;  0.0000000E+00;  0.0000000E+00;  0.0000000E+00;  0.0000000E+00;
  1.2000000E+00;  9.9999998E-03; -2.2000000E-01;2871;  0.0000000E+00;  0.0000000E+00;  0.0000000E+00;  1.0000000E+03;  4.0000001E-01;  0.0000000E+00;3;  0.0000000E+00;  0.0000000E+00;  0.0000000E+00;0;  0.0000000E+00;  1.0000000E+04;  0.0000000E+00;  0.0000000E+00;  1.0000000E+04;  0.0000000E+00;  1.0000000E+04;  0.0000000E+00;  0.0000000E+00;  0.0000000E+00;  0.0000000E+00;
  1.2000000E+00;  9.9999998E-03; -2.0000000E-01;2872;  0.0000000E+00;  0.0000000E+00;  0.0000000E+00;  1.0000000E+03;  4.0000001E-01;  0.0000000E+00;3;  0.0000000E+00;  0.0000000E+00;  0.0000000E+00;0;  0.0000000E+00;  1.0000000E+04;  0.0000000E+00;  0.0000000E+00;  1.0000000E+04;  0.0000000E+00;  1.0000000E+04;  0.0000000E+00;  0.0000000E+00;  0.0000000E+00;  0.0000000E+00;
  1.2200000E+00;  9.9999998E-03; -2.2000000E-01;2894;  0.0000000E+00;  0.0000000E+00;  0.0000000E+00;  1.0000000E+03;  4.0000001E-01;  0.0000000E+00;3;  0.0000000E+00;  0.0000000E+00;  0.0000000E+00;0;  0.0000000E+00;  1.0000000E+04;  0.0000000E+00;  0.0000000E+00;  1.0000000E+04;  0.0000000E+00;  1.0000000E+04;  0.0000000E+00;  0.0000000E+00;  0.0000000E+00;  0.0000000E+00;
  1.2200000E+00;  9.9999998E-03; -2.0000000E-01;2895;  0.0000000E+00;  0.0000000E+00;  0.0000000E+00;  1.0000000E+03;  4.0000001E-01;  0.0000000E+00;3;  0.0000000E+00;  0.0000000E+00;  0.0000000E+00;0;  0.0000000E+00;  1.0000000E+04;  0.0000000E+00;  0.0000000E+00;  1.0000000E+04;  0.0000000E+00;  1.0000000E+04;  0.0000000E+00;  0.0000000E+00;  0.0000000E+00;  0.0000000E+00;
  0.0000000E+00;  9.9999998E-03; -1.8000001E-01;1036;  0.0000000E+00;  0.0000000E+00;  0.0000000E+00;  1.0000000E+03;  4.0000001E-01;  0.0000000E+00;3;  0.0000000E+00;  0.0000000E+00;  0.0000000E+00;0;  0.0000000E+00;  1.0000000E+04;  0.0000000E+00;  0.0000000E+00;  1.0000000E+04;  0.0000000E+00;  1.0000000E+04;  0.0000000E+00;  0.0000000E+00;  0.0000000E+00;  0.0000000E+00;
  0.0000000E+00;  9.9999998E-03; -1.6000000E-01;1037;  0.0000000E+00;  0.0000000E+00;  0.0000000E+00;  1.0000000E+03;  4.0000001E-01;  0.0000000E+00;3;  0.0000000E+00;  0.0000000E+00;  0.0000000E+00;0;  0.0000000E+00;  1.0000000E+04;  0.0000000E+00;  0.0000000E+00;  1.0000000E+04;  0.0000000E+00;  1.0000000E+04;  0.0000000E+00;  0.0000000E+00;  0.0000000E+00;  0.0000000E+00;
  0.0000000E+00;  9.9999998E-03; -1.4000000E-01;1038;  0.0000000E+00;  0.0000000E+00;  0.0000000E+00;  1.0000000E+03;  4.0000001E-01;  0.0000000E+00;3;  0.0000000E+00;  0.0000000E+00;  0.0000000E+00;0;  0.0000000E+00;  1.0000000E+04;  0.0000000E+00;  0.0000000E+00;  1.0000000E+04;  0.0000000E+00;  1.0000000E+04;  0.0000000E+00;  0.0000000E+00;  0.0000000E+00;  0.0000000E+00;
  0.0000000E+00;  9.9999998E-03; -1.2000000E-01;1039;  0.0000000E+00;  0.0000000E+00;  0.0000000E+00;  1.0000000E+03;  4.0000001E-01;  0.0000000E+00;3;  0.0000000E+00;  0.0000000E+00;  0.0000000E+00;0;  0.0000000E+00;  1.0000000E+04;  0.0000000E+00;  0.0000000E+00;  1.0000000E+04;  0.0000000E+00;  1.0000000E+04;  0.0000000E+00;  0.0000000E+00;  0.0000000E+00;  0.0000000E+00;
  0.0000000E+00;  9.9999998E-03; -1.0000000E-01;1040;  0.0000000E+00;  0.0000000E+00;  0.0000000E+00;  1.0000000E+03;  4.0000001E-01;  0.0000000E+00;3;  0.0000000E+00;  0.0000000E+00;  0.0000000E+00;0;  0.0000000E+00;  1.0000000E+04;  0.0000000E+00;  0.0000000E+00;  1.0000000E+04;  0.0000000E+00;  1.0000000E+04;  0.0000000E+00;  0.0000000E+00;  0.0000000E+00;  0.0000000E+00;
  0.0000000E+00;  9.9999998E-03; -7.9999998E-02;1041;  0.0000000E+00;  0.0000000E+00;  0.0000000E+00;  1.0000000E+03;  4.0000001E-01;  0.0000000E+00;3;  0.0000000E+00;  0.0000000E+00;  0.0000000E+00;0;  0.0000000E+00;  1.0000000E+04;  0.0000000E+00;  0.0000000E+00;  1.0000000E+04;  0.0000000E+00;  1.0000000E+04;  0.0000000E+00;  0.0000000E+00;  0.0000000E+00;  0.0000000E+00;
  0.0000000E+00;  9.9999998E-03; -5.9999999E-02;1042;  0.0000000E+00;  0.0000000E+00;  0.0000000E+00;  1.0000000E+03;  4.0000001E-01;  0.0000000E+00;3;  0.0000000E+00;  0.0000000E+00;  0.0000000E+00;0;  0.0000000E+00;  1.0000000E+04;  0.0000000E+00;  0.0000000E+00;  1.0000000E+04;  0.0000000E+00;  1.0000000E+04;  0.0000000E+00;  0.0000000E+00;  0.0000000E+00;  0.0000000E+00;
  0.0000000E+00;  9.9999998E-03; -3.9999999E-02;1043;  0.0000000E+00;  0.0000000E+00;  0.0000000E+00;  1.0000000E+03;  4.0000001E-01;  0.0000000E+00;3;  0.0000000E+00;  0.0000000E+00;  0.0000000E+00;0;  0.0000000E+00;  1.0000000E+04;  0.0000000E+00;  0.0000000E+00;  1.0000000E+04;  0.0000000E+00;  1.0000000E+04;  0.0000000E+00;  0.0000000E+00;  0.0000000E+00;  0.0000000E+00;
  0.0000000E+00;  9.9999998E-03; -2.0000000E-02;1044;  0.0000000E+00;  0.0000000E+00;  0.0000000E+00;  1.0000000E+03;  4.0000001E-01;  0.0000000E+00;3;  0.0000000E+00;  0.0000000E+00;  0.0000000E+00;0;  0.0000000E+00;  1.0000000E+04;  0.0000000E+00;  0.0000000E+00;  1.0000000E+04;  0.0000000E+00;  1.0000000E+04;  0.0000000E+00;  0.0000000E+00;  0.0000000E+00;  0.0000000E+00;
  2.0000000E-02;  9.9999998E-03; -1.8000001E-01;1066;  0.0000000E+00;  0.0000000E+00;  0.0000000E+00;  1.0000000E+03;  4.0000001E-01;  0.0000000E+00;3;  0.0000000E+00;  0.0000000E+00;  0.0000000E+00;0;  0.0000000E+00;  1.0000000E+04;  0.0000000E+00;  0.0000000E+00;  1.0000000E+04;  0.0000000E+00;  1.0000000E+04;  0.0000000E+00;  0.0000000E+00;  0.0000000E+00;  0.0000000E+00;
  2.0000000E-02;  9.9999998E-03; -1.6000000E-01;1067;  0.0000000E+00;  0.0000000E+00;  0.0000000E+00;  1.0000000E+03;  4.0000001E-01;  0.0000000E+00;3;  0.0000000E+00;  0.0000000E+00;  0.0000000E+00;0;  0.0000000E+00;  1.0000000E+04;  0.0000000E+00;  0.0000000E+00;  1.0000000E+04;  0.0000000E+00;  1.0000000E+04;  0.0000000E+00;  0.0000000E+00;  0.0000000E+00;  0.0000000E+00;
  2.0000000E-02;  9.9999998E-03; -1.4000000E-01;1068;  0.0000000E+00;  0.0000000E+00;  0.0000000E+00;  1.0000000E+03;  4.0000001E-01;  0.0000000E+00;3;  0.0000000E+00;  0.0000000E+00;  0.0000000E+00;0;  0.0000000E+00;  1.0000000E+04;  0.0000000E+00;  0.0000000E+00;  1.0000000E+04;  0.0000000E+00;  1.0000000E+04;  0.0000000E+00;  0.0000000E+00;  0.0000000E+00;  0.0000000E+00;
  2.0000000E-02;  9.9999998E-03; -1.2000000E-01;1069;  0.0000000E+00;  0.0000000E+00;  0.0000000E+00;  1.0000000E+03;  4.0000001E-01;  0.0000000E+00;3;  0.0000000E+00;  0.0000000E+00;  0.0000000E+00;0;  0.0000000E+00;  1.0000000E+04;  0.0000000E+00;  0.0000000E+00;  1.0000000E+04;  0.0000000E+00;  1.0000000E+04;  0.0000000E+00;  0.0000000E+00;  0.0000000E+00;  0.0000000E+00;
  2.0000000E-02;  9.9999998E-03; -1.0000000E-01;1070;  0.0000000E+00;  0.0000000E+00;  0.0000000E+00;  1.0000000E+03;  4.0000001E-01;  0.0000000E+00;3;  0.0000000E+00;  0.0000000E+00;  0.0000000E+00;0;  0.0000000E+00;  1.0000000E+04;  0.0000000E+00;  0.0000000E+00;  1.0000000E+04;  0.0000000E+00;  1.0000000E+04;  0.0000000E+00;  0.0000000E+00;  0.0000000E+00;  0.0000000E+00;
  2.0000000E-02;  9.9999998E-03; -7.9999998E-02;1071;  0.0000000E+00;  0.0000000E+00;  0.0000000E+00;  1.0000000E+03;  4.0000001E-01;  0.0000000E+00;3;  0.0000000E+00;  0.0000000E+00;  0.0000000E+00;0;  0.0000000E+00;  1.0000000E+04;  0.0000000E+00;  0.0000000E+00;  1.0000000E+04;  0.0000000E+00;  1.0000000E+04;  0.0000000E+00;  0.0000000E+00;  0.0000000E+00;  0.0000000E+00;
  2.0000000E-02;  9.9999998E-03; -5.9999999E-02;1072;  0.0000000E+00;  0.0000000E+00;  0.0000000E+00;  1.0000000E+03;  4.0000001E-01;  0.0000000E+00;3;  0.0000000E+00;  0.0000000E+00;  0.0000000E+00;0;  0.0000000E+00;  1.0000000E+04;  0.0000000E+00;  0.0000000E+00;  1.0000000E+04;  0.0000000E+00;  1.0000000E+04;  0.0000000E+00;  0.0000000E+00;  0.0000000E+00;  0.0000000E+00;
  2.0000000E-02;  9.9999998E-03; -3.9999999E-02;1073;  0.0000000E+00;  0.0000000E+00;  0.0000000E+00;  1.0000000E+03;  4.0000001E-01;  0.0000000E+00;3;  0.0000000E+00;  0.0000000E+00;  0.0000000E+00;0;  0.0000000E+00;  1.0000000E+04;  0.0000000E+00;  0.0000000E+00;  1.0000000E+04;  0.0000000E+00;  1.0000000E+04;  0.0000000E+00;  0.0000000E+00;  0.0000000E+00;  0.0000000E+00;
  2.0000000E-02;  9.9999998E-03; -2.0000000E-02;1074;  0.0000000E+00;  0.0000000E+00;  0.0000000E+00;  1.0000000E+03;  4.0000001E-01;  0.0000000E+00;3;  0.0000000E+00;  0.0000000E+00;  0.0000000E+00;0;  0.0000000E+00;  1.0000000E+04;  0.0000000E+00;  0.0000000E+00;  1.0000000E+04;  0.0000000E+00;  1.0000000E+04;  0.0000000E+00;  0.0000000E+00;  0.0000000E+00;  0.0000000E+00;
  3.9999999E-02;  9.9999998E-03; -1.8000001E-01;1097;  0.0000000E+00;  0.0000000E+00;  0.0000000E+00;  1.0000000E+03;  4.0000001E-01;  0.0000000E+00;3;  0.0000000E+00;  0.0000000E+00;  0.0000000E+00;0;  0.0000000E+00;  1.0000000E+04;  0.0000000E+00;  0.0000000E+00;  1.0000000E+04;  0.0000000E+00;  1.0000000E+04;  0.0000000E+00;  0.0000000E+00;  0.0000000E+00;  0.0000000E+00;
  3.9999999E-02;  9.9999998E-03; -1.6000000E-01;1098;  0.0000000E+00;  0.0000000E+00;  0.0000000E+00;  1.0000000E+03;  4.0000001E-01;  0.0000000E+00;3;  0.0000000E+00;  0.0000000E+00;  0.0000000E+00;0;  0.0000000E+00;  1.0000000E+04;  0.0000000E+00;  0.0000000E+00;  1.0000000E+04;  0.0000000E+00;  1.0000000E+04;  0.0000000E+00;  0.0000000E+00;  0.0000000E+00;  0.0000000E+00;
  3.9999999E-02;  9.9999998E-03; -1.4000000E-01;1099;  0.0000000E+00;  0.0000000E+00;  0.0000000E+00;  1.0000000E+03;  4.0000001E-01;  0.0000000E+00;3;  0.0000000E+00;  0.0000000E+00;  0.0000000E+00;0;  0.0000000E+00;  1.0000000E+04;  0.0000000E+00;  0.0000000E+00;  1.0000000E+04;  0.0000000E+00;  1.0000000E+04;  0.0000000E+00;  0.0000000E+00;  0.0000000E+00;  0.0000000E+00;
  3.9999999E-02;  9.9999998E-03; -1.2000000E-01;1100;  0.0000000E+00;  0.0000000E+00;  0.0000000E+00;  1.0000000E+03;  4.0000001E-01;  0.0000000E+00;3;  0.0000000E+00;  0.0000000E+00;  0.0000000E+00;0;  0.0000000E+00;  1.0000000E+04;  0.0000000E+00;  0.0000000E+00;  1.0000000E+04;  0.0000000E+00;  1.0000000E+04;  0.0000000E+00;  0.0000000E+00;  0.0000000E+00;  0.0000000E+00;
  3.9999999E-02;  9.9999998E-03; -1.0000000E-01;1101;  0.0000000E+00;  0.0000000E+00;  0.0000000E+00;  1.0000000E+03;  4.0000001E-01;  0.0000000E+00;3;  0.0000000E+00;  0.0000000E+00;  0.0000000E+00;0;  0.0000000E+00;  1.0000000E+04;  0.0000000E+00;  0.0000000E+00;  1.0000000E+04;  0.0000000E+00;  1.0000000E+04;  0.0000000E+00;  0.0000000E+00;  0.0000000E+00;  0.0000000E+00;
  3.9999999E-02;  9.9999998E-03; -7.9999998E-02;1102;  0.0000000E+00;  0.0000000E+00;  0.0000000E+00;  1.0000000E+03;  4.0000001E-01;  0.0000000E+00;3;  0.0000000E+00;  0.0000000E+00;  0.0000000E+00;0;  0.0000000E+00;  1.0000000E+04;  0.0000000E+00;  0.0000000E+00;  1.0000000E+04;  0.0000000E+00;  1.0000000E+04;  0.0000000E+00;  0.0000000E+00;  0.0000000E+00;  0.0000000E+00;
  3.9999999E-02;  9.9999998E-03; -5.9999999E-02;1103;  0.0000000E+00;  0.0000000E+00;  0.0000000E+00;  1.0000000E+03;  4.0000001E-01;  0.0000000E+00;3;  0.0000000E+00;  0.0000000E+00;  0.0000000E+00;0;  0.0000000E+00;  1.0000000E+04;  0.0000000E+00;  0.0000000E+00;  1.0000000E+04;  0.0000000E+00;  1.0000000E+04;  0.0000000E+00;  0.0000000E+00;  0.0000000E+00;  0.0000000E+00;
  3.9999999E-02;  9.9999998E-03; -3.9999999E-02;1104;  0.0000000E+00;  0.0000000E+00;  0.0000000E+00;  1.0000000E+03;  4.0000001E-01;  0.0000000E+00;3;  0.0000000E+00;  0.0000000E+00;  0.0000000E+00;0;  0.0000000E+00;  1.0000000E+04;  0.0000000E+00;  0.0000000E+00;  1.0000000E+04;  0.0000000E+00;  1.0000000E+04;  0.0000000E+00;  0.0000000E+00;  0.0000000E+00;  0.0000000E+00;
  3.9999999E-02;  9.9999998E-03; -2.0000000E-02;1105;  0.0000000E+00;  0.0000000E+00;  0.0000000E+00;  1.0000000E+03;  4.0000001E-01;  0.0000000E+00;3;  0.0000000E+00;  0.0000000E+00;  0.0000000E+00;0;  0.0000000E+00;  1.0000000E+04;  0.0000000E+00;  0.0000000E+00;  1.0000000E+04;  0.0000000E+00;  1.0000000E+04;  0.0000000E+00;  0.0000000E+00;  0.0000000E+00;  0.0000000E+00;
  5.9999999E-02;  9.9999998E-03; -1.8000001E-01;1128;  0.0000000E+00;  0.0000000E+00;  0.0000000E+00;  1.0000000E+03;  4.0000001E-01;  0.0000000E+00;3;  0.0000000E+00;  0.0000000E+00;  0.0000000E+00;0;  0.0000000E+00;  1.0000000E+04;  0.0000000E+00;  0.0000000E+00;  1.0000000E+04;  0.0000000E+00;  1.0000000E+04;  0.0000000E+00;  0.0000000E+00;  0.0000000E+00;  0.0000000E+00;
  5.9999999E-02;  9.9999998E-03; -1.6000000E-01;1129;  0.0000000E+00;  0.0000000E+00;  0.0000000E+00;  1.0000000E+03;  4.0000001E-01;  0.0000000E+00;3;  0.0000000E+00;  0.0000000E+00;  0.0000000E+00;0;  0.0000000E+00;  1.0000000E+04;  0.0000000E+00;  0.0000000E+00;  1.0000000E+04;  0.0000000E+00;  1.0000000E+04;  0.0000000E+00;  0.0000000E+00;  0.0000000E+00;  0.0000000E+00;
  5.9999999E-02;  9.9999998E-03; -1.4000000E-01;1130;  0.0000000E+00;  0.0000000E+00;  0.0000000E+00;  1.0000000E+03;  4.0000001E-01;  0.0000000E+00;3;  0.0000000E+00;  0.0000000E+00;  0.0000000E+00;0;  0.0000000E+00;  1.0000000E+04;  0.0000000E+00;  0.0000000E+00;  1.0000000E+04;  0.0000000E+00;  1.0000000E+04;  0.0000000E+00;  0.0000000E+00;  0.0000000E+00;  0.0000000E+00;
  5.9999999E-02;  9.9999998E-03; -1.2000000E-01;1131;  0.0000000E+00;  0.0000000E+00;  0.0000000E+00;  1.0000000E+03;  4.0000001E-01;  0.0000000E+00;3;  0.0000000E+00;  0.0000000E+00;  0.0000000E+00;0;  0.0000000E+00;  1.0000000E+04;  0.0000000E+00;  0.0000000E+00;  1.0000000E+04;  0.0000000E+00;  1.0000000E+04;  0.0000000E+00;  0.0000000E+00;  0.0000000E+00;  0.0000000E+00;
  5.9999999E-02;  9.9999998E-03; -1.0000000E-01;1132;  0.0000000E+00;  0.0000000E+00;  0.0000000E+00;  1.0000000E+03;  4.0000001E-01;  0.0000000E+00;3;  0.0000000E+00;  0.0000000E+00;  0.0000000E+00;0;  0.0000000E+00;  1.0000000E+04;  0.0000000E+00;  0.0000000E+00;  1.0000000E+04;  0.0000000E+00;  1.0000000E+04;  0.0000000E+00;  0.0000000E+00;  0.0000000E+00;  0.0000000E+00;
  5.9999999E-02;  9.9999998E-03; -7.9999998E-02;1133;  0.0000000E+00;  0.0000000E+00;  0.0000000E+00;  1.0000000E+03;  4.0000001E-01;  0.0000000E+00;3;  0.0000000E+00;  0.0000000E+00;  0.0000000E+00;0;  0.0000000E+00;  1.0000000E+04;  0.0000000E+00;  0.0000000E+00;  1.0000000E+04;  0.0000000E+00;  1.0000000E+04;  0.0000000E+00;  0.0000000E+00;  0.0000000E+00;  0.0000000E+00;
  5.9999999E-02;  9.9999998E-03; -5.9999999E-02;1134;  0.0000000E+00;  0.0000000E+00;  0.0000000E+00;  1.0000000E+03;  4.0000001E-01;  0.0000000E+00;3;  0.0000000E+00;  0.0000000E+00;  0.0000000E+00;0;  0.0000000E+00;  1.0000000E+04;  0.0000000E+00;  0.0000000E+00;  1.0000000E+04;  0.0000000E+00;  1.0000000E+04;  0.0000000E+00;  0.0000000E+00;  0.0000000E+00;  0.0000000E+00;
  5.9999999E-02;  9.9999998E-03; -3.9999999E-02;1135;  0.0000000E+00;  0.0000000E+00;  0.0000000E+00;  1.0000000E+03;  4.0000001E-01;  0.0000000E+00;3;  0.0000000E+00;  0.0000000E+00;  0.0000000E+00;0;  0.0000000E+00;  1.0000000E+04;  0.0000000E+00;  0.0000000E+00;  1.0000000E+04;  0.0000000E+00;  1.0000000E+04;  0.0000000E+00;  0.0000000E+00;  0.0000000E+00;  0.0000000E+00;
  5.9999999E-02;  9.9999998E-03; -2.0000000E-02;1136;  0.0000000E+00;  0.0000000E+00;  0.0000000E+00;  1.0000000E+03;  4.0000001E-01;  0.0000000E+00;3;  0.0000000E+00;  0.0000000E+00;  0.0000000E+00;0;  0.0000000E+00;  1.0000000E+04;  0.0000000E+00;  0.0000000E+00;  1.0000000E+04;  0.0000000E+00;  1.0000000E+04;  0.0000000E+00;  0.0000000E+00;  0.0000000E+00;  0.0000000E+00;
  7.9999998E-02;  9.9999998E-03; -1.8000001E-01;1159;  0.0000000E+00;  0.0000000E+00;  0.0000000E+00;  1.0000000E+03;  4.0000001E-01;  0.0000000E+00;3;  0.0000000E+00;  0.0000000E+00;  0.0000000E+00;0;  0.0000000E+00;  1.0000000E+04;  0.0000000E+00;  0.0000000E+00;  1.0000000E+04;  0.0000000E+00;  1.0000000E+04;  0.0000000E+00;  0.0000000E+00;  0.0000000E+00;  0.0000000E+00;
  7.9999998E-02;  9.9999998E-03; -1.6000000E-01;1160;  0.0000000E+00;  0.0000000E+00;  0.0000000E+00;  1.0000000E+03;  4.0000001E-01;  0.0000000E+00;3;  0.0000000E+00;  0.0000000E+00;  0.0000000E+00;0;  0.0000000E+00;  1.0000000E+04;  0.0000000E+00;  0.0000000E+00;  1.0000000E+04;  0.0000000E+00;  1.0000000E+04;  0.0000000E+00;  0.0000000E+00;  0.0000000E+00;  0.0000000E+00;
  7.9999998E-02;  9.9999998E-03; -1.4000000E-01;1161;  0.0000000E+00;  0.0000000E+00;  0.0000000E+00;  1.0000000E+03;  4.0000001E-01;  0.0000000E+00;3;  0.0000000E+00;  0.0000000E+00;  0.0000000E+00;0;  0.0000000E+00;  1.0000000E+04;  0.0000000E+00;  0.0000000E+00;  1.0000000E+04;  0.0000000E+00;  1.0000000E+04;  0.0000000E+00;  0.0000000E+00;  0.0000000E+00;  0.0000000E+00;
  7.9999998E-02;  9.9999998E-03; -1.2000000E-01;1162;  0.0000000E+00;  0.0000000E+00;  0.0000000E+00;  1.0000000E+03;  4.0000001E-01;  0.0000000E+00;3;  0.0000000E+00;  0.0000000E+00;  0.0000000E+00;0;  0.0000000E+00;  1.0000000E+04;  0.0000000E+00;  0.0000000E+00;  1.0000000E+04;  0.0000000E+00;  1.0000000E+04;  0.0000000E+00;  0.0000000E+00;  0.0000000E+00;  0.0000000E+00;
  7.9999998E-02;  9.9999998E-03; -1.0000000E-01;1163;  0.0000000E+00;  0.0000000E+00;  0.0000000E+00;  1.0000000E+03;  4.0000001E-01;  0.0000000E+00;3;  0.0000000E+00;  0.0000000E+00;  0.0000000E+00;0;  0.0000000E+00;  1.0000000E+04;  0.0000000E+00;  0.0000000E+00;  1.0000000E+04;  0.0000000E+00;  1.0000000E+04;  0.0000000E+00;  0.0000000E+00;  0.0000000E+00;  0.0000000E+00;
  7.9999998E-02;  9.9999998E-03; -7.9999998E-02;1164;  0.0000000E+00;  0.0000000E+00;  0.0000000E+00;  1.0000000E+03;  4.0000001E-01;  0.0000000E+00;3;  0.0000000E+00;  0.0000000E+00;  0.0000000E+00;0;  0.0000000E+00;  1.0000000E+04;  0.0000000E+00;  0.0000000E+00;  1.0000000E+04;  0.0000000E+00;  1.0000000E+04;  0.0000000E+00;  0.0000000E+00;  0.0000000E+00;  0.0000000E+00;
  7.9999998E-02;  9.9999998E-03; -5.9999999E-02;1165;  0.0000000E+00;  0.0000000E+00;  0.0000000E+00;  1.0000000E+03;  4.0000001E-01;  0.0000000E+00;3;  0.0000000E+00;  0.0000000E+00;  0.0000000E+00;0;  0.0000000E+00;  1.0000000E+04;  0.0000000E+00;  0.0000000E+00;  1.0000000E+04;  0.0000000E+00;  1.0000000E+04;  0.0000000E+00;  0.0000000E+00;  0.0000000E+00;  0.0000000E+00;
  7.9999998E-02;  9.9999998E-03; -3.9999999E-02;1166;  0.0000000E+00;  0.0000000E+00;  0.0000000E+00;  1.0000000E+03;  4.0000001E-01;  0.0000000E+00;3;  0.0000000E+00;  0.0000000E+00;  0.0000000E+00;0;  0.0000000E+00;  1.0000000E+04;  0.0000000E+00;  0.0000000E+00;  1.0000000E+04;  0.0000000E+00;  1.0000000E+04;  0.0000000E+00;  0.0000000E+00;  0.0000000E+00;  0.0000000E+00;
  7.9999998E-02;  9.9999998E-03; -2.0000000E-02;1167;  0.0000000E+00;  0.0000000E+00;  0.0000000E+00;  1.0000000E+03;  4.0000001E-01;  0.0000000E+00;3;  0.0000000E+00;  0.0000000E+00;  0.0000000E+00;0;  0.0000000E+00;  1.0000000E+04;  0.0000000E+00;  0.0000000E+00;  1.0000000E+04;  0.0000000E+00;  1.0000000E+04;  0.0000000E+00;  0.0000000E+00;  0.0000000E+00;  0.0000000E+00;
  1.0000000E-01;  9.9999998E-03; -1.8000001E-01;1190;  0.0000000E+00;  0.0000000E+00;  0.0000000E+00;  1.0000000E+03;  4.0000001E-01;  0.0000000E+00;3;  0.0000000E+00;  0.0000000E+00;  0.0000000E+00;0;  0.0000000E+00;  1.0000000E+04;  0.0000000E+00;  0.0000000E+00;  1.0000000E+04;  0.0000000E+00;  1.0000000E+04;  0.0000000E+00;  0.0000000E+00;  0.0000000E+00;  0.0000000E+00;
  1.0000000E-01;  9.9999998E-03; -1.6000000E-01;1191;  0.0000000E+00;  0.0000000E+00;  0.0000000E+00;  1.0000000E+03;  4.0000001E-01;  0.0000000E+00;3;  0.0000000E+00;  0.0000000E+00;  0.0000000E+00;0;  0.0000000E+00;  1.0000000E+04;  0.0000000E+00;  0.0000000E+00;  1.0000000E+04;  0.0000000E+00;  1.0000000E+04;  0.0000000E+00;  0.0000000E+00;  0.0000000E+00;  0.0000000E+00;
  1.0000000E-01;  9.9999998E-03; -1.4000000E-01;1192;  0.0000000E+00;  0.0000000E+00;  0.0000000E+00;  1.0000000E+03;  4.0000001E-01;  0.0000000E+00;3;  0.0000000E+00;  0.0000000E+00;  0.0000000E+00;0;  0.0000000E+00;  1.0000000E+04;  0.0000000E+00;  0.0000000E+00;  1.0000000E+04;  0.0000000E+00;  1.0000000E+04;  0.0000000E+00;  0.0000000E+00;  0.0000000E+00;  0.0000000E+00;
  1.0000000E-01;  9.9999998E-03; -1.2000000E-01;1193;  0.0000000E+00;  0.0000000E+00;  0.0000000E+00;  1.0000000E+03;  4.0000001E-01;  0.0000000E+00;3;  0.0000000E+00;  0.0000000E+00;  0.0000000E+00;0;  0.0000000E+00;  1.0000000E+04;  0.0000000E+00;  0.0000000E+00;  1.0000000E+04;  0.0000000E+00;  1.0000000E+04;  0.0000000E+00;  0.0000000E+00;  0.0000000E+00;  0.0000000E+00;
  1.0000000E-01;  9.9999998E-03; -1.0000000E-01;1194;  0.0000000E+00;  0.0000000E+00;  0.0000000E+00;  1.0000000E+03;  4.0000001E-01;  0.0000000E+00;3;  0.0000000E+00;  0.0000000E+00;  0.0000000E+00;0;  0.0000000E+00;  1.0000000E+04;  0.0000000E+00;  0.0000000E+00;  1.0000000E+04;  0.0000000E+00;  1.0000000E+04;  0.0000000E+00;  0.0000000E+00;  0.0000000E+00;  0.0000000E+00;
  1.0000000E-01;  9.9999998E-03; -7.9999998E-02;1195;  0.0000000E+00;  0.0000000E+00;  0.0000000E+00;  1.0000000E+03;  4.0000001E-01;  0.0000000E+00;3;  0.0000000E+00;  0.0000000E+00;  0.0000000E+00;0;  0.0000000E+00;  1.0000000E+04;  0.0000000E+00;  0.0000000E+00;  1.0000000E+04;  0.0000000E+00;  1.0000000E+04;  0.0000000E+00;  0.0000000E+00;  0.0000000E+00;  0.0000000E+00;
  1.0000000E-01;  9.9999998E-03; -5.9999999E-02;1196;  0.0000000E+00;  0.0000000E+00;  0.0000000E+00;  1.0000000E+03;  4.0000001E-01;  0.0000000E+00;3;  0.0000000E+00;  0.0000000E+00;  0.0000000E+00;0;  0.0000000E+00;  1.0000000E+04;  0.0000000E+00;  0.0000000E+00;  1.0000000E+04;  0.0000000E+00;  1.0000000E+04;  0.0000000E+00;  0.0000000E+00;  0.0000000E+00;  0.0000000E+00;
  1.0000000E-01;  9.9999998E-03; -3.9999999E-02;1197;  0.0000000E+00;  0.0000000E+00;  0.0000000E+00;  1.0000000E+03;  4.0000001E-01;  0.0000000E+00;3;  0.0000000E+00;  0.0000000E+00;  0.0000000E+00;0;  0.0000000E+00;  1.0000000E+04;  0.0000000E+00;  0.0000000E+00;  1.0000000E+04;  0.0000000E+00;  1.0000000E+04;  0.0000000E+00;  0.0000000E+00;  0.0000000E+00;  0.0000000E+00;
  1.0000000E-01;  9.9999998E-03; -2.0000000E-02;1198;  0.0000000E+00;  0.0000000E+00;  0.0000000E+00;  1.0000000E+03;  4.0000001E-01;  0.0000000E+00;3;  0.0000000E+00;  0.0000000E+00;  0.0000000E+00;0;  0.0000000E+00;  1.0000000E+04;  0.0000000E+00;  0.0000000E+00;  1.0000000E+04;  0.0000000E+00;  1.0000000E+04;  0.0000000E+00;  0.0000000E+00;  0.0000000E+00;  0.0000000E+00;
  1.2000000E-01;  9.9999998E-03; -1.8000001E-01;1221;  0.0000000E+00;  0.0000000E+00;  0.0000000E+00;  1.0000000E+03;  4.0000001E-01;  0.0000000E+00;3;  0.0000000E+00;  0.0000000E+00;  0.0000000E+00;0;  0.0000000E+00;  1.0000000E+04;  0.0000000E+00;  0.0000000E+00;  1.0000000E+04;  0.0000000E+00;  1.0000000E+04;  0.0000000E+00;  0.0000000E+00;  0.0000000E+00;  0.0000000E+00;
  1.2000000E-01;  9.9999998E-03; -1.6000000E-01;1222;  0.0000000E+00;  0.0000000E+00;  0.0000000E+00;  1.0000000E+03;  4.0000001E-01;  0.0000000E+00;3;  0.0000000E+00;  0.0000000E+00;  0.0000000E+00;0;  0.0000000E+00;  1.0000000E+04;  0.0000000E+00;  0.0000000E+00;  1.0000000E+04;  0.0000000E+00;  1.0000000E+04;  0.0000000E+00;  0.0000000E+00;  0.0000000E+00;  0.0000000E+00;
  1.2000000E-01;  9.9999998E-03; -1.4000000E-01;1223;  0.0000000E+00;  0.0000000E+00;  0.0000000E+00;  1.0000000E+03;  4.0000001E-01;  0.0000000E+00;3;  0.0000000E+00;  0.0000000E+00;  0.0000000E+00;0;  0.0000000E+00;  1.0000000E+04;  0.0000000E+00;  0.0000000E+00;  1.0000000E+04;  0.0000000E+00;  1.0000000E+04;  0.0000000E+00;  0.0000000E+00;  0.0000000E+00;  0.0000000E+00;
  1.2000000E-01;  9.9999998E-03; -1.2000000E-01;1224;  0.0000000E+00;  0.0000000E+00;  0.0000000E+00;  1.0000000E+03;  4.0000001E-01;  0.0000000E+00;3;  0.0000000E+00;  0.0000000E+00;  0.0000000E+00;0;  0.0000000E+00;  1.0000000E+04;  0.0000000E+00;  0.0000000E+00;  1.0000000E+04;  0.0000000E+00;  1.0000000E+04;  0.0000000E+00;  0.0000000E+00;  0.0000000E+00;  0.0000000E+00;
  1.2000000E-01;  9.9999998E-03; -1.0000000E-01;1225;  0.0000000E+00;  0.0000000E+00;  0.0000000E+00;  1.0000000E+03;  4.0000001E-01;  0.0000000E+00;3;  0.0000000E+00;  0.0000000E+00;  0.0000000E+00;0;  0.0000000E+00;  1.0000000E+04;  0.0000000E+00;  0.0000000E+00;  1.0000000E+04;  0.0000000E+00;  1.0000000E+04;  0.0000000E+00;  0.0000000E+00;  0.0000000E+00;  0.0000000E+00;
  1.2000000E-01;  9.9999998E-03; -7.9999998E-02;1226;  0.0000000E+00;  0.0000000E+00;  0.0000000E+00;  1.0000000E+03;  4.0000001E-01;  0.0000000E+00;3;  0.0000000E+00;  0.0000000E+00;  0.0000000E+00;0;  0.0000000E+00;  1.0000000E+04;  0.0000000E+00;  0.0000000E+00;  1.0000000E+04;  0.0000000E+00;  1.0000000E+04;  0.0000000E+00;  0.0000000E+00;  0.0000000E+00;  0.0000000E+00;
  1.2000000E-01;  9.9999998E-03; -5.9999999E-02;1227;  0.0000000E+00;  0.0000000E+00;  0.0000000E+00;  1.0000000E+03;  4.0000001E-01;  0.0000000E+00;3;  0.0000000E+00;  0.0000000E+00;  0.0000000E+00;0;  0.0000000E+00;  1.0000000E+04;  0.0000000E+00;  0.0000000E+00;  1.0000000E+04;  0.0000000E+00;  1.0000000E+04;  0.0000000E+00;  0.0000000E+00;  0.0000000E+00;  0.0000000E+00;
  1.2000000E-01;  9.9999998E-03; -3.9999999E-02;1228;  0.0000000E+00;  0.0000000E+00;  0.0000000E+00;  1.0000000E+03;  4.0000001E-01;  0.0000000E+00;3;  0.0000000E+00;  0.0000000E+00;  0.0000000E+00;0;  0.0000000E+00;  1.0000000E+04;  0.0000000E+00;  0.0000000E+00;  1.0000000E+04;  0.0000000E+00;  1.0000000E+04;  0.0000000E+00;  0.0000000E+00;  0.0000000E+00;  0.0000000E+00;
  1.2000000E-01;  9.9999998E-03; -2.0000000E-02;1229;  0.0000000E+00;  0.0000000E+00;  0.0000000E+00;  1.0000000E+03;  4.0000001E-01;  0.0000000E+00;3;  0.0000000E+00;  0.0000000E+00;  0.0000000E+00;0;  0.0000000E+00;  1.0000000E+04;  0.0000000E+00;  0.0000000E+00;  1.0000000E+04;  0.0000000E+00;  1.0000000E+04;  0.0000000E+00;  0.0000000E+00;  0.0000000E+00;  0.0000000E+00;
  1.4000000E-01;  9.9999998E-03; -1.8000001E-01;1252;  0.0000000E+00;  0.0000000E+00;  0.0000000E+00;  1.0000000E+03;  4.0000001E-01;  0.0000000E+00;3;  0.0000000E+00;  0.0000000E+00;  0.0000000E+00;0;  0.0000000E+00;  1.0000000E+04;  0.0000000E+00;  0.0000000E+00;  1.0000000E+04;  0.0000000E+00;  1.0000000E+04;  0.0000000E+00;  0.0000000E+00;  0.0000000E+00;  0.0000000E+00;
  1.4000000E-01;  9.9999998E-03; -1.6000000E-01;1253;  0.0000000E+00;  0.0000000E+00;  0.0000000E+00;  1.0000000E+03;  4.0000001E-01;  0.0000000E+00;3;  0.0000000E+00;  0.0000000E+00;  0.0000000E+00;0;  0.0000000E+00;  1.0000000E+04;  0.0000000E+00;  0.0000000E+00;  1.0000000E+04;  0.0000000E+00;  1.0000000E+04;  0.0000000E+00;  0.0000000E+00;  0.0000000E+00;  0.0000000E+00;
  1.4000000E-01;  9.9999998E-03; -1.4000000E-01;1254;  0.0000000E+00;  0.0000000E+00;  0.0000000E+00;  1.0000000E+03;  4.0000001E-01;  0.0000000E+00;3;  0.0000000E+00;  0.0000000E+00;  0.0000000E+00;0;  0.0000000E+00;  1.0000000E+04;  0.0000000E+00;  0.0000000E+00;  1.0000000E+04;  0.0000000E+00;  1.0000000E+04;  0.0000000E+00;  0.0000000E+00;  0.0000000E+00;  0.0000000E+00;
  1.4000000E-01;  9.9999998E-03; -1.2000000E-01;1255;  0.0000000E+00;  0.0000000E+00;  0.0000000E+00;  1.0000000E+03;  4.0000001E-01;  0.0000000E+00;3;  0.0000000E+00;  0.0000000E+00;  0.0000000E+00;0;  0.0000000E+00;  1.0000000E+04;  0.0000000E+00;  0.0000000E+00;  1.0000000E+04;  0.0000000E+00;  1.0000000E+04;  0.0000000E+00;  0.0000000E+00;  0.0000000E+00;  0.0000000E+00;
  1.4000000E-01;  9.9999998E-03; -1.0000000E-01;1256;  0.0000000E+00;  0.0000000E+00;  0.0000000E+00;  1.0000000E+03;  4.0000001E-01;  0.0000000E+00;3;  0.0000000E+00;  0.0000000E+00;  0.0000000E+00;0;  0.0000000E+00;  1.0000000E+04;  0.0000000E+00;  0.0000000E+00;  1.0000000E+04;  0.0000000E+00;  1.0000000E+04;  0.0000000E+00;  0.0000000E+00;  0.0000000E+00;  0.0000000E+00;
  1.4000000E-01;  9.9999998E-03; -7.9999998E-02;1257;  0.0000000E+00;  0.0000000E+00;  0.0000000E+00;  1.0000000E+03;  4.0000001E-01;  0.0000000E+00;3;  0.0000000E+00;  0.0000000E+00;  0.0000000E+00;0;  0.0000000E+00;  1.0000000E+04;  0.0000000E+00;  0.0000000E+00;  1.0000000E+04;  0.0000000E+00;  1.0000000E+04;  0.0000000E+00;  0.0000000E+00;  0.0000000E+00;  0.0000000E+00;
  1.4000000E-01;  9.9999998E-03; -5.9999999E-02;1258;  0.0000000E+00;  0.0000000E+00;  0.0000000E+00;  1.0000000E+03;  4.0000001E-01;  0.0000000E+00;3;  0.0000000E+00;  0.0000000E+00;  0.0000000E+00;0;  0.0000000E+00;  1.0000000E+04;  0.0000000E+00;  0.0000000E+00;  1.0000000E+04;  0.0000000E+00;  1.0000000E+04;  0.0000000E+00;  0.0000000E+00;  0.0000000E+00;  0.0000000E+00;
  1.4000000E-01;  9.9999998E-03; -3.9999999E-02;1259;  0.0000000E+00;  0.0000000E+00;  0.0000000E+00;  1.0000000E+03;  4.0000001E-01;  0.0000000E+00;3;  0.0000000E+00;  0.0000000E+00;  0.0000000E+00;0;  0.0000000E+00;  1.0000000E+04;  0.0000000E+00;  0.0000000E+00;  1.0000000E+04;  0.0000000E+00;  1.0000000E+04;  0.0000000E+00;  0.0000000E+00;  0.0000000E+00;  0.0000000E+00;
  1.4000000E-01;  9.9999998E-03; -2.0000000E-02;1260;  0.0000000E+00;  0.0000000E+00;  0.0000000E+00;  1.0000000E+03;  4.0000001E-01;  0.0000000E+00;3;  0.0000000E+00;  0.0000000E+00;  0.0000000E+00;0;  0.0000000E+00;  1.0000000E+04;  0.0000000E+00;  0.0000000E+00;  1.0000000E+04;  0.0000000E+00;  1.0000000E+04;  0.0000000E+00;  0.0000000E+00;  0.0000000E+00;  0.0000000E+00;
  1.6000000E-01;  9.9999998E-03; -1.8000001E-01;1283;  0.0000000E+00;  0.0000000E+00;  0.0000000E+00;  1.0000000E+03;  4.0000001E-01;  0.0000000E+00;3;  0.0000000E+00;  0.0000000E+00;  0.0000000E+00;0;  0.0000000E+00;  1.0000000E+04;  0.0000000E+00;  0.0000000E+00;  1.0000000E+04;  0.0000000E+00;  1.0000000E+04;  0.0000000E+00;  0.0000000E+00;  0.0000000E+00;  0.0000000E+00;
  1.6000000E-01;  9.9999998E-03; -1.6000000E-01;1284;  0.0000000E+00;  0.0000000E+00;  0.0000000E+00;  1.0000000E+03;  4.0000001E-01;  0.0000000E+00;3;  0.0000000E+00;  0.0000000E+00;  0.0000000E+00;0;  0.0000000E+00;  1.0000000E+04;  0.0000000E+00;  0.0000000E+00;  1.0000000E+04;  0.0000000E+00;  1.0000000E+04;  0.0000000E+00;  0.0000000E+00;  0.0000000E+00;  0.0000000E+00;
  1.6000000E-01;  9.9999998E-03; -1.4000000E-01;1285;  0.0000000E+00;  0.0000000E+00;  0.0000000E+00;  1.0000000E+03;  4.0000001E-01;  0.0000000E+00;3;  0.0000000E+00;  0.0000000E+00;  0.0000000E+00;0;  0.0000000E+00;  1.0000000E+04;  0.0000000E+00;  0.0000000E+00;  1.0000000E+04;  0.0000000E+00;  1.0000000E+04;  0.0000000E+00;  0.0000000E+00;  0.0000000E+00;  0.0000000E+00;
  1.6000000E-01;  9.9999998E-03; -1.2000000E-01;1286;  0.0000000E+00;  0.0000000E+00;  0.0000000E+00;  1.0000000E+03;  4.0000001E-01;  0.0000000E+00;3;  0.0000000E+00;  0.0000000E+00;  0.0000000E+00;0;  0.0000000E+00;  1.0000000E+04;  0.0000000E+00;  0.0000000E+00;  1.0000000E+04;  0.0000000E+00;  1.0000000E+04;  0.0000000E+00;  0.0000000E+00;  0.0000000E+00;  0.0000000E+00;
  1.6000000E-01;  9.9999998E-03; -1.0000000E-01;1287;  0.0000000E+00;  0.0000000E+00;  0.0000000E+00;  1.0000000E+03;  4.0000001E-01;  0.0000000E+00;3;  0.0000000E+00;  0.0000000E+00;  0.0000000E+00;0;  0.0000000E+00;  1.0000000E+04;  0.0000000E+00;  0.0000000E+00;  1.0000000E+04;  0.0000000E+00;  1.0000000E+04;  0.0000000E+00;  0.0000000E+00;  0.0000000E+00;  0.0000000E+00;
  1.6000000E-01;  9.9999998E-03; -7.9999998E-02;1288;  0.0000000E+00;  0.0000000E+00;  0.0000000E+00;  1.0000000E+03;  4.0000001E-01;  0.0000000E+00;3;  0.0000000E+00;  0.0000000E+00;  0.0000000E+00;0;  0.0000000E+00;  1.0000000E+04;  0.0000000E+00;  0.0000000E+00;  1.0000000E+04;  0.0000000E+00;  1.0000000E+04;  0.0000000E+00;  0.0000000E+00;  0.0000000E+00;  0.0000000E+00;
  1.6000000E-01;  9.9999998E-03; -5.9999999E-02;1289;  0.0000000E+00;  0.0000000E+00;  0.0000000E+00;  1.0000000E+03;  4.0000001E-01;  0.0000000E+00;3;  0.0000000E+00;  0.0000000E+00;  0.0000000E+00;0;  0.0000000E+00;  1.0000000E+04;  0.0000000E+00;  0.0000000E+00;  1.0000000E+04;  0.0000000E+00;  1.0000000E+04;  0.0000000E+00;  0.0000000E+00;  0.0000000E+00;  0.0000000E+00;
  1.6000000E-01;  9.9999998E-03; -3.9999999E-02;1290;  0.0000000E+00;  0.0000000E+00;  0.0000000E+00;  1.0000000E+03;  4.0000001E-01;  0.0000000E+00;3;  0.0000000E+00;  0.0000000E+00;  0.0000000E+00;0;  0.0000000E+00;  1.0000000E+04;  0.0000000E+00;  0.0000000E+00;  1.0000000E+04;  0.0000000E+00;  1.0000000E+04;  0.0000000E+00;  0.0000000E+00;  0.0000000E+00;  0.0000000E+00;
  1.6000000E-01;  9.9999998E-03; -2.0000000E-02;1291;  0.0000000E+00;  0.0000000E+00;  0.0000000E+00;  1.0000000E+03;  4.0000001E-01;  0.0000000E+00;3;  0.0000000E+00;  0.0000000E+00;  0.0000000E+00;0;  0.0000000E+00;  1.0000000E+04;  0.0000000E+00;  0.0000000E+00;  1.0000000E+04;  0.0000000E+00;  1.0000000E+04;  0.0000000E+00;  0.0000000E+00;  0.0000000E+00;  0.0000000E+00;
  1.8000001E-01;  9.9999998E-03; -1.8000001E-01;1314;  0.0000000E+00;  0.0000000E+00;  0.0000000E+00;  1.0000000E+03;  4.0000001E-01;  0.0000000E+00;3;  0.0000000E+00;  0.0000000E+00;  0.0000000E+00;0;  0.0000000E+00;  1.0000000E+04;  0.0000000E+00;  0.0000000E+00;  1.0000000E+04;  0.0000000E+00;  1.0000000E+04;  0.0000000E+00;  0.0000000E+00;  0.0000000E+00;  0.0000000E+00;
  1.8000001E-01;  9.9999998E-03; -1.6000000E-01;1315;  0.0000000E+00;  0.0000000E+00;  0.0000000E+00;  1.0000000E+03;  4.0000001E-01;  0.0000000E+00;3;  0.0000000E+00;  0.0000000E+00;  0.0000000E+00;0;  0.0000000E+00;  1.0000000E+04;  0.0000000E+00;  0.0000000E+00;  1.0000000E+04;  0.0000000E+00;  1.0000000E+04;  0.0000000E+00;  0.0000000E+00;  0.0000000E+00;  0.0000000E+00;
  1.8000001E-01;  9.9999998E-03; -1.4000000E-01;1316;  0.0000000E+00;  0.0000000E+00;  0.0000000E+00;  1.0000000E+03;  4.0000001E-01;  0.0000000E+00;3;  0.0000000E+00;  0.0000000E+00;  0.0000000E+00;0;  0.0000000E+00;  1.0000000E+04;  0.0000000E+00;  0.0000000E+00;  1.0000000E+04;  0.0000000E+00;  1.0000000E+04;  0.0000000E+00;  0.0000000E+00;  0.0000000E+00;  0.0000000E+00;
  1.8000001E-01;  9.9999998E-03; -1.2000000E-01;1317;  0.0000000E+00;  0.0000000E+00;  0.0000000E+00;  1.0000000E+03;  4.0000001E-01;  0.0000000E+00;3;  0.0000000E+00;  0.0000000E+00;  0.0000000E+00;0;  0.0000000E+00;  1.0000000E+04;  0.0000000E+00;  0.0000000E+00;  1.0000000E+04;  0.0000000E+00;  1.0000000E+04;  0.0000000E+00;  0.0000000E+00;  0.0000000E+00;  0.0000000E+00;
  1.8000001E-01;  9.9999998E-03; -1.0000000E-01;1318;  0.0000000E+00;  0.0000000E+00;  0.0000000E+00;  1.0000000E+03;  4.0000001E-01;  0.0000000E+00;3;  0.0000000E+00;  0.0000000E+00;  0.0000000E+00;0;  0.0000000E+00;  1.0000000E+04;  0.0000000E+00;  0.0000000E+00;  1.0000000E+04;  0.0000000E+00;  1.0000000E+04;  0.0000000E+00;  0.0000000E+00;  0.0000000E+00;  0.0000000E+00;
  1.8000001E-01;  9.9999998E-03; -7.9999998E-02;1319;  0.0000000E+00;  0.0000000E+00;  0.0000000E+00;  1.0000000E+03;  4.0000001E-01;  0.0000000E+00;3;  0.0000000E+00;  0.0000000E+00;  0.0000000E+00;0;  0.0000000E+00;  1.0000000E+04;  0.0000000E+00;  0.0000000E+00;  1.0000000E+04;  0.0000000E+00;  1.0000000E+04;  0.0000000E+00;  0.0000000E+00;  0.0000000E+00;  0.0000000E+00;
  1.8000001E-01;  9.9999998E-03; -5.9999999E-02;1320;  0.0000000E+00;  0.0000000E+00;  0.0000000E+00;  1.0000000E+03;  4.0000001E-01;  0.0000000E+00;3;  0.0000000E+00;  0.0000000E+00;  0.0000000E+00;0;  0.0000000E+00;  1.0000000E+04;  0.0000000E+00;  0.0000000E+00;  1.0000000E+04;  0.0000000E+00;  1.0000000E+04;  0.0000000E+00;  0.0000000E+00;  0.0000000E+00;  0.0000000E+00;
  1.8000001E-01;  9.9999998E-03; -3.9999999E-02;1321;  0.0000000E+00;  0.0000000E+00;  0.0000000E+00;  1.0000000E+03;  4.0000001E-01;  0.0000000E+00;3;  0.0000000E+00;  0.0000000E+00;  0.0000000E+00;0;  0.0000000E+00;  1.0000000E+04;  0.0000000E+00;  0.0000000E+00;  1.0000000E+04;  0.0000000E+00;  1.0000000E+04;  0.0000000E+00;  0.0000000E+00;  0.0000000E+00;  0.0000000E+00;
  1.8000001E-01;  9.9999998E-03; -2.0000000E-02;1322;  0.0000000E+00;  0.0000000E+00;  0.0000000E+00;  1.0000000E+03;  4.0000001E-01;  0.0000000E+00;3;  0.0000000E+00;  0.0000000E+00;  0.0000000E+00;0;  0.0000000E+00;  1.0000000E+04;  0.0000000E+00;  0.0000000E+00;  1.0000000E+04;  0.0000000E+00;  1.0000000E+04;  0.0000000E+00;  0.0000000E+00;  0.0000000E+00;  0.0000000E+00;
  2.0000000E-01;  9.9999998E-03; -1.8000001E-01;1345;  0.0000000E+00;  0.0000000E+00;  0.0000000E+00;  1.0000000E+03;  4.0000001E-01;  0.0000000E+00;3;  0.0000000E+00;  0.0000000E+00;  0.0000000E+00;0;  0.0000000E+00;  1.0000000E+04;  0.0000000E+00;  0.0000000E+00;  1.0000000E+04;  0.0000000E+00;  1.0000000E+04;  0.0000000E+00;  0.0000000E+00;  0.0000000E+00;  0.0000000E+00;
  2.0000000E-01;  9.9999998E-03; -1.6000000E-01;1346;  0.0000000E+00;  0.0000000E+00;  0.0000000E+00;  1.0000000E+03;  4.0000001E-01;  0.0000000E+00;3;  0.0000000E+00;  0.0000000E+00;  0.0000000E+00;0;  0.0000000E+00;  1.0000000E+04;  0.0000000E+00;  0.0000000E+00;  1.0000000E+04;  0.0000000E+00;  1.0000000E+04;  0.0000000E+00;  0.0000000E+00;  0.0000000E+00;  0.0000000E+00;
  2.0000000E-01;  9.9999998E-03; -1.4000000E-01;1347;  0.0000000E+00;  0.0000000E+00;  0.0000000E+00;  1.0000000E+03;  4.0000001E-01;  0.0000000E+00;3;  0.0000000E+00;  0.0000000E+00;  0.0000000E+00;0;  0.0000000E+00;  1.0000000E+04;  0.0000000E+00;  0.0000000E+00;  1.0000000E+04;  0.0000000E+00;  1.0000000E+04;  0.0000000E+00;  0.0000000E+00;  0.0000000E+00;  0.0000000E+00;
  2.0000000E-01;  9.9999998E-03; -1.2000000E-01;1348;  0.0000000E+00;  0.0000000E+00;  0.0000000E+00;  1.0000000E+03;  4.0000001E-01;  0.0000000E+00;3;  0.0000000E+00;  0.0000000E+00;  0.0000000E+00;0;  0.0000000E+00;  1.0000000E+04;  0.0000000E+00;  0.0000000E+00;  1.0000000E+04;  0.0000000E+00;  1.0000000E+04;  0.0000000E+00;  0.0000000E+00;  0.0000000E+00;  0.0000000E+00;
  2.0000000E-01;  9.9999998E-03; -1.0000000E-01;1349;  0.0000000E+00;  0.0000000E+00;  0.0000000E+00;  1.0000000E+03;  4.0000001E-01;  0.0000000E+00;3;  0.0000000E+00;  0.0000000E+00;  0.0000000E+00;0;  0.0000000E+00;  1.0000000E+04;  0.0000000E+00;  0.0000000E+00;  1.0000000E+04;  0.0000000E+00;  1.0000000E+04;  0.0000000E+00;  0.0000000E+00;  0.0000000E+00;  0.0000000E+00;
  2.0000000E-01;  9.9999998E-03; -7.9999998E-02;1350;  0.0000000E+00;  0.0000000E+00;  0.0000000E+00;  1.0000000E+03;  4.0000001E-01;  0.0000000E+00;3;  0.0000000E+00;  0.0000000E+00;  0.0000000E+00;0;  0.0000000E+00;  1.0000000E+04;  0.0000000E+00;  0.0000000E+00;  1.0000000E+04;  0.0000000E+00;  1.0000000E+04;  0.0000000E+00;  0.0000000E+00;  0.0000000E+00;  0.0000000E+00;
  2.0000000E-01;  9.9999998E-03; -5.9999999E-02;1351;  0.0000000E+00;  0.0000000E+00;  0.0000000E+00;  1.0000000E+03;  4.0000001E-01;  0.0000000E+00;3;  0.0000000E+00;  0.0000000E+00;  0.0000000E+00;0;  0.0000000E+00;  1.0000000E+04;  0.0000000E+00;  0.0000000E+00;  1.0000000E+04;  0.0000000E+00;  1.0000000E+04;  0.0000000E+00;  0.0000000E+00;  0.0000000E+00;  0.0000000E+00;
  2.0000000E-01;  9.9999998E-03; -3.9999999E-02;1352;  0.0000000E+00;  0.0000000E+00;  0.0000000E+00;  1.0000000E+03;  4.0000001E-01;  0.0000000E+00;3;  0.0000000E+00;  0.0000000E+00;  0.0000000E+00;0;  0.0000000E+00;  1.0000000E+04;  0.0000000E+00;  0.0000000E+00;  1.0000000E+04;  0.0000000E+00;  1.0000000E+04;  0.0000000E+00;  0.0000000E+00;  0.0000000E+00;  0.0000000E+00;
  2.0000000E-01;  9.9999998E-03; -2.0000000E-02;1353;  0.0000000E+00;  0.0000000E+00;  0.0000000E+00;  1.0000000E+03;  4.0000001E-01;  0.0000000E+00;3;  0.0000000E+00;  0.0000000E+00;  0.0000000E+00;0;  0.0000000E+00;  1.0000000E+04;  0.0000000E+00;  0.0000000E+00;  1.0000000E+04;  0.0000000E+00;  1.0000000E+04;  0.0000000E+00;  0.0000000E+00;  0.0000000E+00;  0.0000000E+00;
  2.2000000E-01;  9.9999998E-03; -1.8000001E-01;1376;  0.0000000E+00;  0.0000000E+00;  0.0000000E+00;  1.0000000E+03;  4.0000001E-01;  0.0000000E+00;3;  0.0000000E+00;  0.0000000E+00;  0.0000000E+00;0;  0.0000000E+00;  1.0000000E+04;  0.0000000E+00;  0.0000000E+00;  1.0000000E+04;  0.0000000E+00;  1.0000000E+04;  0.0000000E+00;  0.0000000E+00;  0.0000000E+00;  0.0000000E+00;
  2.2000000E-01;  9.9999998E-03; -1.6000000E-01;1377;  0.0000000E+00;  0.0000000E+00;  0.0000000E+00;  1.0000000E+03;  4.0000001E-01;  0.0000000E+00;3;  0.0000000E+00;  0.0000000E+00;  0.0000000E+00;0;  0.0000000E+00;  1.0000000E+04;  0.0000000E+00;  0.0000000E+00;  1.0000000E+04;  0.0000000E+00;  1.0000000E+04;  0.0000000E+00;  0.0000000E+00;  0.0000000E+00;  0.0000000E+00;
  2.2000000E-01;  9.9999998E-03; -1.4000000E-01;1378;  0.0000000E+00;  0.0000000E+00;  0.0000000E+00;  1.0000000E+03;  4.0000001E-01;  0.0000000E+00;3;  0.0000000E+00;  0.0000000E+00;  0.0000000E+00;0;  0.0000000E+00;  1.0000000E+04;  0.0000000E+00;  0.0000000E+00;  1.0000000E+04;  0.0000000E+00;  1.0000000E+04;  0.0000000E+00;  0.0000000E+00;  0.0000000E+00;  0.0000000E+00;
  2.2000000E-01;  9.9999998E-03; -1.2000000E-01;1379;  0.0000000E+00;  0.0000000E+00;  0.0000000E+00;  1.0000000E+03;  4.0000001E-01;  0.0000000E+00;3;  0.0000000E+00;  0.0000000E+00;  0.0000000E+00;0;  0.0000000E+00;  1.0000000E+04;  0.0000000E+00;  0.0000000E+00;  1.0000000E+04;  0.0000000E+00;  1.0000000E+04;  0.0000000E+00;  0.0000000E+00;  0.0000000E+00;  0.0000000E+00;
  2.2000000E-01;  9.9999998E-03; -1.0000000E-01;1380;  0.0000000E+00;  0.0000000E+00;  0.0000000E+00;  1.0000000E+03;  4.0000001E-01;  0.0000000E+00;3;  0.0000000E+00;  0.0000000E+00;  0.0000000E+00;0;  0.0000000E+00;  1.0000000E+04;  0.0000000E+00;  0.0000000E+00;  1.0000000E+04;  0.0000000E+00;  1.0000000E+04;  0.0000000E+00;  0.0000000E+00;  0.0000000E+00;  0.0000000E+00;
  2.2000000E-01;  9.9999998E-03; -7.9999998E-02;1381;  0.0000000E+00;  0.0000000E+00;  0.0000000E+00;  1.0000000E+03;  4.0000001E-01;  0.0000000E+00;3;  0.0000000E+00;  0.0000000E+00;  0.0000000E+00;0;  0.0000000E+00;  1.0000000E+04;  0.0000000E+00;  0.0000000E+00;  1.0000000E+04;  0.0000000E+00;  1.0000000E+04;  0.0000000E+00;  0.0000000E+00;  0.0000000E+00;  0.0000000E+00;
  2.2000000E-01;  9.9999998E-03; -5.9999999E-02;1382;  0.0000000E+00;  0.0000000E+00;  0.0000000E+00;  1.0000000E+03;  4.0000001E-01;  0.0000000E+00;3;  0.0000000E+00;  0.0000000E+00;  0.0000000E+00;0;  0.0000000E+00;  1.0000000E+04;  0.0000000E+00;  0.0000000E+00;  1.0000000E+04;  0.0000000E+00;  1.0000000E+04;  0.0000000E+00;  0.0000000E+00;  0.0000000E+00;  0.0000000E+00;
  2.2000000E-01;  9.9999998E-03; -3.9999999E-02;1383;  0.0000000E+00;  0.0000000E+00;  0.0000000E+00;  1.0000000E+03;  4.0000001E-01;  0.0000000E+00;3;  0.0000000E+00;  0.0000000E+00;  0.0000000E+00;0;  0.0000000E+00;  1.0000000E+04;  0.0000000E+00;  0.0000000E+00;  1.0000000E+04;  0.0000000E+00;  1.0000000E+04;  0.0000000E+00;  0.0000000E+00;  0.0000000E+00;  0.0000000E+00;
  2.2000000E-01;  9.9999998E-03; -2.0000000E-02;1384;  0.0000000E+00;  0.0000000E+00;  0.0000000E+00;  1.0000000E+03;  4.0000001E-01;  0.0000000E+00;3;  0.0000000E+00;  0.0000000E+00;  0.0000000E+00;0;  0.0000000E+00;  1.0000000E+04;  0.0000000E+00;  0.0000000E+00;  1.0000000E+04;  0.0000000E+00;  1.0000000E+04;  0.0000000E+00;  0.0000000E+00;  0.0000000E+00;  0.0000000E+00;
  2.3999999E-01;  9.9999998E-03; -1.8000001E-01;1407;  0.0000000E+00;  0.0000000E+00;  0.0000000E+00;  1.0000000E+03;  4.0000001E-01;  0.0000000E+00;3;  0.0000000E+00;  0.0000000E+00;  0.0000000E+00;0;  0.0000000E+00;  1.0000000E+04;  0.0000000E+00;  0.0000000E+00;  1.0000000E+04;  0.0000000E+00;  1.0000000E+04;  0.0000000E+00;  0.0000000E+00;  0.0000000E+00;  0.0000000E+00;
  2.3999999E-01;  9.9999998E-03; -1.6000000E-01;1408;  0.0000000E+00;  0.0000000E+00;  0.0000000E+00;  1.0000000E+03;  4.0000001E-01;  0.0000000E+00;3;  0.0000000E+00;  0.0000000E+00;  0.0000000E+00;0;  0.0000000E+00;  1.0000000E+04;  0.0000000E+00;  0.0000000E+00;  1.0000000E+04;  0.0000000E+00;  1.0000000E+04;  0.0000000E+00;  0.0000000E+00;  0.0000000E+00;  0.0000000E+00;
  2.3999999E-01;  9.9999998E-03; -1.4000000E-01;1409;  0.0000000E+00;  0.0000000E+00;  0.0000000E+00;  1.0000000E+03;  4.0000001E-01;  0.0000000E+00;3;  0.0000000E+00;  0.0000000E+00;  0.0000000E+00;0;  0.0000000E+00;  1.0000000E+04;  0.0000000E+00;  0.0000000E+00;  1.0000000E+04;  0.0000000E+00;  1.0000000E+04;  0.0000000E+00;  0.0000000E+00;  0.0000000E+00;  0.0000000E+00;
  2.3999999E-01;  9.9999998E-03; -1.2000000E-01;1410;  0.0000000E+00;  0.0000000E+00;  0.0000000E+00;  1.0000000E+03;  4.0000001E-01;  0.0000000E+00;3;  0.0000000E+00;  0.0000000E+00;  0.0000000E+00;0;  0.0000000E+00;  1.0000000E+04;  0.0000000E+00;  0.0000000E+00;  1.0000000E+04;  0.0000000E+00;  1.0000000E+04;  0.0000000E+00;  0.0000000E+00;  0.0000000E+00;  0.0000000E+00;
  2.3999999E-01;  9.9999998E-03; -1.0000000E-01;1411;  0.0000000E+00;  0.0000000E+00;  0.0000000E+00;  1.0000000E+03;  4.0000001E-01;  0.0000000E+00;3;  0.0000000E+00;  0.0000000E+00;  0.0000000E+00;0;  0.0000000E+00;  1.0000000E+04;  0.0000000E+00;  0.0000000E+00;  1.0000000E+04;  0.0000000E+00;  1.0000000E+04;  0.0000000E+00;  0.0000000E+00;  0.0000000E+00;  0.0000000E+00;
  2.3999999E-01;  9.9999998E-03; -7.9999998E-02;1412;  0.0000000E+00;  0.0000000E+00;  0.0000000E+00;  1.0000000E+03;  4.0000001E-01;  0.0000000E+00;3;  0.0000000E+00;  0.0000000E+00;  0.0000000E+00;0;  0.0000000E+00;  1.0000000E+04;  0.0000000E+00;  0.0000000E+00;  1.0000000E+04;  0.0000000E+00;  1.0000000E+04;  0.0000000E+00;  0.0000000E+00;  0.0000000E+00;  0.0000000E+00;
  2.3999999E-01;  9.9999998E-03; -5.9999999E-02;1413;  0.0000000E+00;  0.0000000E+00;  0.0000000E+00;  1.0000000E+03;  4.0000001E-01;  0.0000000E+00;3;  0.0000000E+00;  0.0000000E+00;  0.0000000E+00;0;  0.0000000E+00;  1.0000000E+04;  0.0000000E+00;  0.0000000E+00;  1.0000000E+04;  0.0000000E+00;  1.0000000E+04;  0.0000000E+00;  0.0000000E+00;  0.0000000E+00;  0.0000000E+00;
  2.3999999E-01;  9.9999998E-03; -3.9999999E-02;1414;  0.0000000E+00;  0.0000000E+00;  0.0000000E+00;  1.0000000E+03;  4.0000001E-01;  0.0000000E+00;3;  0.0000000E+00;  0.0000000E+00;  0.0000000E+00;0;  0.0000000E+00;  1.0000000E+04;  0.0000000E+00;  0.0000000E+00;  1.0000000E+04;  0.0000000E+00;  1.0000000E+04;  0.0000000E+00;  0.0000000E+00;  0.0000000E+00;  0.0000000E+00;
  2.3999999E-01;  9.9999998E-03; -2.0000000E-02;1415;  0.0000000E+00;  0.0000000E+00;  0.0000000E+00;  1.0000000E+03;  4.0000001E-01;  0.0000000E+00;3;  0.0000000E+00;  0.0000000E+00;  0.0000000E+00;0;  0.0000000E+00;  1.0000000E+04;  0.0000000E+00;  0.0000000E+00;  1.0000000E+04;  0.0000000E+00;  1.0000000E+04;  0.0000000E+00;  0.0000000E+00;  0.0000000E+00;  0.0000000E+00;
  2.5999999E-01;  9.9999998E-03; -1.8000001E-01;1438;  0.0000000E+00;  0.0000000E+00;  0.0000000E+00;  1.0000000E+03;  4.0000001E-01;  0.0000000E+00;3;  0.0000000E+00;  0.0000000E+00;  0.0000000E+00;0;  0.0000000E+00;  1.0000000E+04;  0.0000000E+00;  0.0000000E+00;  1.0000000E+04;  0.0000000E+00;  1.0000000E+04;  0.0000000E+00;  0.0000000E+00;  0.0000000E+00;  0.0000000E+00;
  2.5999999E-01;  9.9999998E-03; -1.6000000E-01;1439;  0.0000000E+00;  0.0000000E+00;  0.0000000E+00;  1.0000000E+03;  4.0000001E-01;  0.0000000E+00;3;  0.0000000E+00;  0.0000000E+00;  0.0000000E+00;0;  0.0000000E+00;  1.0000000E+04;  0.0000000E+00;  0.0000000E+00;  1.0000000E+04;  0.0000000E+00;  1.0000000E+04;  0.0000000E+00;  0.0000000E+00;  0.0000000E+00;  0.0000000E+00;
  2.5999999E-01;  9.9999998E-03; -1.4000000E-01;1440;  0.0000000E+00;  0.0000000E+00;  0.0000000E+00;  1.0000000E+03;  4.0000001E-01;  0.0000000E+00;3;  0.0000000E+00;  0.0000000E+00;  0.0000000E+00;0;  0.0000000E+00;  1.0000000E+04;  0.0000000E+00;  0.0000000E+00;  1.0000000E+04;  0.0000000E+00;  1.0000000E+04;  0.0000000E+00;  0.0000000E+00;  0.0000000E+00;  0.0000000E+00;
  2.5999999E-01;  9.9999998E-03; -1.2000000E-01;1441;  0.0000000E+00;  0.0000000E+00;  0.0000000E+00;  1.0000000E+03;  4.0000001E-01;  0.0000000E+00;3;  0.0000000E+00;  0.0000000E+00;  0.0000000E+00;0;  0.0000000E+00;  1.0000000E+04;  0.0000000E+00;  0.0000000E+00;  1.0000000E+04;  0.0000000E+00;  1.0000000E+04;  0.0000000E+00;  0.0000000E+00;  0.0000000E+00;  0.0000000E+00;
  2.5999999E-01;  9.9999998E-03; -1.0000000E-01;1442;  0.0000000E+00;  0.0000000E+00;  0.0000000E+00;  1.0000000E+03;  4.0000001E-01;  0.0000000E+00;3;  0.0000000E+00;  0.0000000E+00;  0.0000000E+00;0;  0.0000000E+00;  1.0000000E+04;  0.0000000E+00;  0.0000000E+00;  1.0000000E+04;  0.0000000E+00;  1.0000000E+04;  0.0000000E+00;  0.0000000E+00;  0.0000000E+00;  0.0000000E+00;
  2.5999999E-01;  9.9999998E-03; -7.9999998E-02;1443;  0.0000000E+00;  0.0000000E+00;  0.0000000E+00;  1.0000000E+03;  4.0000001E-01;  0.0000000E+00;3;  0.0000000E+00;  0.0000000E+00;  0.0000000E+00;0;  0.0000000E+00;  1.0000000E+04;  0.0000000E+00;  0.0000000E+00;  1.0000000E+04;  0.0000000E+00;  1.0000000E+04;  0.0000000E+00;  0.0000000E+00;  0.0000000E+00;  0.0000000E+00;
  2.5999999E-01;  9.9999998E-03; -5.9999999E-02;1444;  0.0000000E+00;  0.0000000E+00;  0.0000000E+00;  1.0000000E+03;  4.0000001E-01;  0.0000000E+00;3;  0.0000000E+00;  0.0000000E+00;  0.0000000E+00;0;  0.0000000E+00;  1.0000000E+04;  0.0000000E+00;  0.0000000E+00;  1.0000000E+04;  0.0000000E+00;  1.0000000E+04;  0.0000000E+00;  0.0000000E+00;  0.0000000E+00;  0.0000000E+00;
  2.5999999E-01;  9.9999998E-03; -3.9999999E-02;1445;  0.0000000E+00;  0.0000000E+00;  0.0000000E+00;  1.0000000E+03;  4.0000001E-01;  0.0000000E+00;3;  0.0000000E+00;  0.0000000E+00;  0.0000000E+00;0;  0.0000000E+00;  1.0000000E+04;  0.0000000E+00;  0.0000000E+00;  1.0000000E+04;  0.0000000E+00;  1.0000000E+04;  0.0000000E+00;  0.0000000E+00;  0.0000000E+00;  0.0000000E+00;
  2.5999999E-01;  9.9999998E-03; -2.0000000E-02;1446;  0.0000000E+00;  0.0000000E+00;  0.0000000E+00;  1.0000000E+03;  4.0000001E-01;  0.0000000E+00;3;  0.0000000E+00;  0.0000000E+00;  0.0000000E+00;0;  0.0000000E+00;  1.0000000E+04;  0.0000000E+00;  0.0000000E+00;  1.0000000E+04;  0.0000000E+00;  1.0000000E+04;  0.0000000E+00;  0.0000000E+00;  0.0000000E+00;  0.0000000E+00;
  2.8000000E-01;  9.9999998E-03; -1.8000001E-01;1469;  0.0000000E+00;  0.0000000E+00;  0.0000000E+00;  1.0000000E+03;  4.0000001E-01;  0.0000000E+00;3;  0.0000000E+00;  0.0000000E+00;  0.0000000E+00;0;  0.0000000E+00;  1.0000000E+04;  0.0000000E+00;  0.0000000E+00;  1.0000000E+04;  0.0000000E+00;  1.0000000E+04;  0.0000000E+00;  0.0000000E+00;  0.0000000E+00;  0.0000000E+00;
  2.8000000E-01;  9.9999998E-03; -1.6000000E-01;1470;  0.0000000E+00;  0.0000000E+00;  0.0000000E+00;  1.0000000E+03;  4.0000001E-01;  0.0000000E+00;3;  0.0000000E+00;  0.0000000E+00;  0.0000000E+00;0;  0.0000000E+00;  1.0000000E+04;  0.0000000E+00;  0.0000000E+00;  1.0000000E+04;  0.0000000E+00;  1.0000000E+04;  0.0000000E+00;  0.0000000E+00;  0.0000000E+00;  0.0000000E+00;
  2.8000000E-01;  9.9999998E-03; -1.4000000E-01;1471;  0.0000000E+00;  0.0000000E+00;  0.0000000E+00;  1.0000000E+03;  4.0000001E-01;  0.0000000E+00;3;  0.0000000E+00;  0.0000000E+00;  0.0000000E+00;0;  0.0000000E+00;  1.0000000E+04;  0.0000000E+00;  0.0000000E+00;  1.0000000E+04;  0.0000000E+00;  1.0000000E+04;  0.0000000E+00;  0.0000000E+00;  0.0000000E+00;  0.0000000E+00;
  2.8000000E-01;  9.9999998E-03; -1.2000000E-01;1472;  0.0000000E+00;  0.0000000E+00;  0.0000000E+00;  1.0000000E+03;  4.0000001E-01;  0.0000000E+00;3;  0.0000000E+00;  0.0000000E+00;  0.0000000E+00;0;  0.0000000E+00;  1.0000000E+04;  0.0000000E+00;  0.0000000E+00;  1.0000000E+04;  0.0000000E+00;  1.0000000E+04;  0.0000000E+00;  0.0000000E+00;  0.0000000E+00;  0.0000000E+00;
  2.8000000E-01;  9.9999998E-03; -1.0000000E-01;1473;  0.0000000E+00;  0.0000000E+00;  0.0000000E+00;  1.0000000E+03;  4.0000001E-01;  0.0000000E+00;3;  0.0000000E+00;  0.0000000E+00;  0.0000000E+00;0;  0.0000000E+00;  1.0000000E+04;  0.0000000E+00;  0.0000000E+00;  1.0000000E+04;  0.0000000E+00;  1.0000000E+04;  0.0000000E+00;  0.0000000E+00;  0.0000000E+00;  0.0000000E+00;
  2.8000000E-01;  9.9999998E-03; -7.9999998E-02;1474;  0.0000000E+00;  0.0000000E+00;  0.0000000E+00;  1.0000000E+03;  4.0000001E-01;  0.0000000E+00;3;  0.0000000E+00;  0.0000000E+00;  0.0000000E+00;0;  0.0000000E+00;  1.0000000E+04;  0.0000000E+00;  0.0000000E+00;  1.0000000E+04;  0.0000000E+00;  1.0000000E+04;  0.0000000E+00;  0.0000000E+00;  0.0000000E+00;  0.0000000E+00;
  2.8000000E-01;  9.9999998E-03; -5.9999999E-02;1475;  0.0000000E+00;  0.0000000E+00;  0.0000000E+00;  1.0000000E+03;  4.0000001E-01;  0.0000000E+00;3;  0.0000000E+00;  0.0000000E+00;  0.0000000E+00;0;  0.0000000E+00;  1.0000000E+04;  0.0000000E+00;  0.0000000E+00;  1.0000000E+04;  0.0000000E+00;  1.0000000E+04;  0.0000000E+00;  0.0000000E+00;  0.0000000E+00;  0.0000000E+00;
  2.8000000E-01;  9.9999998E-03; -3.9999999E-02;1476;  0.0000000E+00;  0.0000000E+00;  0.0000000E+00;  1.0000000E+03;  4.0000001E-01;  0.0000000E+00;3;  0.0000000E+00;  0.0000000E+00;  0.0000000E+00;0;  0.0000000E+00;  1.0000000E+04;  0.0000000E+00;  0.0000000E+00;  1.0000000E+04;  0.0000000E+00;  1.0000000E+04;  0.0000000E+00;  0.0000000E+00;  0.0000000E+00;  0.0000000E+00;
  2.8000000E-01;  9.9999998E-03; -2.0000000E-02;1477;  0.0000000E+00;  0.0000000E+00;  0.0000000E+00;  1.0000000E+03;  4.0000001E-01;  0.0000000E+00;3;  0.0000000E+00;  0.0000000E+00;  0.0000000E+00;0;  0.0000000E+00;  1.0000000E+04;  0.0000000E+00;  0.0000000E+00;  1.0000000E+04;  0.0000000E+00;  1.0000000E+04;  0.0000000E+00;  0.0000000E+00;  0.0000000E+00;  0.0000000E+00;
  3.0000001E-01;  9.9999998E-03; -1.8000001E-01;1500;  0.0000000E+00;  0.0000000E+00;  0.0000000E+00;  1.0000000E+03;  4.0000001E-01;  0.0000000E+00;3;  0.0000000E+00;  0.0000000E+00;  0.0000000E+00;0;  0.0000000E+00;  1.0000000E+04;  0.0000000E+00;  0.0000000E+00;  1.0000000E+04;  0.0000000E+00;  1.0000000E+04;  0.0000000E+00;  0.0000000E+00;  0.0000000E+00;  0.0000000E+00;
  3.0000001E-01;  9.9999998E-03; -1.6000000E-01;1501;  0.0000000E+00;  0.0000000E+00;  0.0000000E+00;  1.0000000E+03;  4.0000001E-01;  0.0000000E+00;3;  0.0000000E+00;  0.0000000E+00;  0.0000000E+00;0;  0.0000000E+00;  1.0000000E+04;  0.0000000E+00;  0.0000000E+00;  1.0000000E+04;  0.0000000E+00;  1.0000000E+04;  0.0000000E+00;  0.0000000E+00;  0.0000000E+00;  0.0000000E+00;
  3.0000001E-01;  9.9999998E-03; -1.4000000E-01;1502;  0.0000000E+00;  0.0000000E+00;  0.0000000E+00;  1.0000000E+03;  4.0000001E-01;  0.0000000E+00;3;  0.0000000E+00;  0.0000000E+00;  0.0000000E+00;0;  0.0000000E+00;  1.0000000E+04;  0.0000000E+00;  0.0000000E+00;  1.0000000E+04;  0.0000000E+00;  1.0000000E+04;  0.0000000E+00;  0.0000000E+00;  0.0000000E+00;  0.0000000E+00;
  3.0000001E-01;  9.9999998E-03; -1.2000000E-01;1503;  0.0000000E+00;  0.0000000E+00;  0.0000000E+00;  1.0000000E+03;  4.0000001E-01;  0.0000000E+00;3;  0.0000000E+00;  0.0000000E+00;  0.0000000E+00;0;  0.0000000E+00;  1.0000000E+04;  0.0000000E+00;  0.0000000E+00;  1.0000000E+04;  0.0000000E+00;  1.0000000E+04;  0.0000000E+00;  0.0000000E+00;  0.0000000E+00;  0.0000000E+00;
  3.0000001E-01;  9.9999998E-03; -1.0000000E-01;1504;  0.0000000E+00;  0.0000000E+00;  0.0000000E+00;  1.0000000E+03;  4.0000001E-01;  0.0000000E+00;3;  0.0000000E+00;  0.0000000E+00;  0.0000000E+00;0;  0.0000000E+00;  1.0000000E+04;  0.0000000E+00;  0.0000000E+00;  1.0000000E+04;  0.0000000E+00;  1.0000000E+04;  0.0000000E+00;  0.0000000E+00;  0.0000000E+00;  0.0000000E+00;
  3.0000001E-01;  9.9999998E-03; -7.9999998E-02;1505;  0.0000000E+00;  0.0000000E+00;  0.0000000E+00;  1.0000000E+03;  4.0000001E-01;  0.0000000E+00;3;  0.0000000E+00;  0.0000000E+00;  0.0000000E+00;0;  0.0000000E+00;  1.0000000E+04;  0.0000000E+00;  0.0000000E+00;  1.0000000E+04;  0.0000000E+00;  1.0000000E+04;  0.0000000E+00;  0.0000000E+00;  0.0000000E+00;  0.0000000E+00;
  3.0000001E-01;  9.9999998E-03; -5.9999999E-02;1506;  0.0000000E+00;  0.0000000E+00;  0.0000000E+00;  1.0000000E+03;  4.0000001E-01;  0.0000000E+00;3;  0.0000000E+00;  0.0000000E+00;  0.0000000E+00;0;  0.0000000E+00;  1.0000000E+04;  0.0000000E+00;  0.0000000E+00;  1.0000000E+04;  0.0000000E+00;  1.0000000E+04;  0.0000000E+00;  0.0000000E+00;  0.0000000E+00;  0.0000000E+00;
  3.0000001E-01;  9.9999998E-03; -3.9999999E-02;1507;  0.0000000E+00;  0.0000000E+00;  0.0000000E+00;  1.0000000E+03;  4.0000001E-01;  0.0000000E+00;3;  0.0000000E+00;  0.0000000E+00;  0.0000000E+00;0;  0.0000000E+00;  1.0000000E+04;  0.0000000E+00;  0.0000000E+00;  1.0000000E+04;  0.0000000E+00;  1.0000000E+04;  0.0000000E+00;  0.0000000E+00;  0.0000000E+00;  0.0000000E+00;
  3.0000001E-01;  9.9999998E-03; -2.0000000E-02;1508;  0.0000000E+00;  0.0000000E+00;  0.0000000E+00;  1.0000000E+03;  4.0000001E-01;  0.0000000E+00;3;  0.0000000E+00;  0.0000000E+00;  0.0000000E+00;0;  0.0000000E+00;  1.0000000E+04;  0.0000000E+00;  0.0000000E+00;  1.0000000E+04;  0.0000000E+00;  1.0000000E+04;  0.0000000E+00;  0.0000000E+00;  0.0000000E+00;  0.0000000E+00;
  3.1999999E-01;  9.9999998E-03; -1.8000001E-01;1531;  0.0000000E+00;  0.0000000E+00;  0.0000000E+00;  1.0000000E+03;  4.0000001E-01;  0.0000000E+00;3;  0.0000000E+00;  0.0000000E+00;  0.0000000E+00;0;  0.0000000E+00;  1.0000000E+04;  0.0000000E+00;  0.0000000E+00;  1.0000000E+04;  0.0000000E+00;  1.0000000E+04;  0.0000000E+00;  0.0000000E+00;  0.0000000E+00;  0.0000000E+00;
  3.1999999E-01;  9.9999998E-03; -1.6000000E-01;1532;  0.0000000E+00;  0.0000000E+00;  0.0000000E+00;  1.0000000E+03;  4.0000001E-01;  0.0000000E+00;3;  0.0000000E+00;  0.0000000E+00;  0.0000000E+00;0;  0.0000000E+00;  1.0000000E+04;  0.0000000E+00;  0.0000000E+00;  1.0000000E+04;  0.0000000E+00;  1.0000000E+04;  0.0000000E+00;  0.0000000E+00;  0.0000000E+00;  0.0000000E+00;
  3.1999999E-01;  9.9999998E-03; -1.4000000E-01;1533;  0.0000000E+00;  0.0000000E+00;  0.0000000E+00;  1.0000000E+03;  4.0000001E-01;  0.0000000E+00;3;  0.0000000E+00;  0.0000000E+00;  0.0000000E+00;0;  0.0000000E+00;  1.0000000E+04;  0.0000000E+00;  0.0000000E+00;  1.0000000E+04;  0.0000000E+00;  1.0000000E+04;  0.0000000E+00;  0.0000000E+00;  0.0000000E+00;  0.0000000E+00;
  3.1999999E-01;  9.9999998E-03; -1.2000000E-01;1534;  0.0000000E+00;  0.0000000E+00;  0.0000000E+00;  1.0000000E+03;  4.0000001E-01;  0.0000000E+00;3;  0.0000000E+00;  0.0000000E+00;  0.0000000E+00;0;  0.0000000E+00;  1.0000000E+04;  0.0000000E+00;  0.0000000E+00;  1.0000000E+04;  0.0000000E+00;  1.0000000E+04;  0.0000000E+00;  0.0000000E+00;  0.0000000E+00;  0.0000000E+00;
  3.1999999E-01;  9.9999998E-03; -1.0000000E-01;1535;  0.0000000E+00;  0.0000000E+00;  0.0000000E+00;  1.0000000E+03;  4.0000001E-01;  0.0000000E+00;3;  0.0000000E+00;  0.0000000E+00;  0.0000000E+00;0;  0.0000000E+00;  1.0000000E+04;  0.0000000E+00;  0.0000000E+00;  1.0000000E+04;  0.0000000E+00;  1.0000000E+04;  0.0000000E+00;  0.0000000E+00;  0.0000000E+00;  0.0000000E+00;
  3.1999999E-01;  9.9999998E-03; -7.9999998E-02;1536;  0.0000000E+00;  0.0000000E+00;  0.0000000E+00;  1.0000000E+03;  4.0000001E-01;  0.0000000E+00;3;  0.0000000E+00;  0.0000000E+00;  0.0000000E+00;0;  0.0000000E+00;  1.0000000E+04;  0.0000000E+00;  0.0000000E+00;  1.0000000E+04;  0.0000000E+00;  1.0000000E+04;  0.0000000E+00;  0.0000000E+00;  0.0000000E+00;  0.0000000E+00;
  3.1999999E-01;  9.9999998E-03; -5.9999999E-02;1537;  0.0000000E+00;  0.0000000E+00;  0.0000000E+00;  1.0000000E+03;  4.0000001E-01;  0.0000000E+00;3;  0.0000000E+00;  0.0000000E+00;  0.0000000E+00;0;  0.0000000E+00;  1.0000000E+04;  0.0000000E+00;  0.0000000E+00;  1.0000000E+04;  0.0000000E+00;  1.0000000E+04;  0.0000000E+00;  0.0000000E+00;  0.0000000E+00;  0.0000000E+00;
  3.1999999E-01;  9.9999998E-03; -3.9999999E-02;1538;  0.0000000E+00;  0.0000000E+00;  0.0000000E+00;  1.0000000E+03;  4.0000001E-01;  0.0000000E+00;3;  0.0000000E+00;  0.0000000E+00;  0.0000000E+00;0;  0.0000000E+00;  1.0000000E+04;  0.0000000E+00;  0.0000000E+00;  1.0000000E+04;  0.0000000E+00;  1.0000000E+04;  0.0000000E+00;  0.0000000E+00;  0.0000000E+00;  0.0000000E+00;
  3.1999999E-01;  9.9999998E-03; -2.0000000E-02;1539;  0.0000000E+00;  0.0000000E+00;  0.0000000E+00;  1.0000000E+03;  4.0000001E-01;  0.0000000E+00;3;  0.0000000E+00;  0.0000000E+00;  0.0000000E+00;0;  0.0000000E+00;  1.0000000E+04;  0.0000000E+00;  0.0000000E+00;  1.0000000E+04;  0.0000000E+00;  1.0000000E+04;  0.0000000E+00;  0.0000000E+00;  0.0000000E+00;  0.0000000E+00;
  3.4000000E-01;  9.9999998E-03; -1.8000001E-01;1562;  0.0000000E+00;  0.0000000E+00;  0.0000000E+00;  1.0000000E+03;  4.0000001E-01;  0.0000000E+00;3;  0.0000000E+00;  0.0000000E+00;  0.0000000E+00;0;  0.0000000E+00;  1.0000000E+04;  0.0000000E+00;  0.0000000E+00;  1.0000000E+04;  0.0000000E+00;  1.0000000E+04;  0.0000000E+00;  0.0000000E+00;  0.0000000E+00;  0.0000000E+00;
  3.4000000E-01;  9.9999998E-03; -1.6000000E-01;1563;  0.0000000E+00;  0.0000000E+00;  0.0000000E+00;  1.0000000E+03;  4.0000001E-01;  0.0000000E+00;3;  0.0000000E+00;  0.0000000E+00;  0.0000000E+00;0;  0.0000000E+00;  1.0000000E+04;  0.0000000E+00;  0.0000000E+00;  1.0000000E+04;  0.0000000E+00;  1.0000000E+04;  0.0000000E+00;  0.0000000E+00;  0.0000000E+00;  0.0000000E+00;
  3.4000000E-01;  9.9999998E-03; -1.4000000E-01;1564;  0.0000000E+00;  0.0000000E+00;  0.0000000E+00;  1.0000000E+03;  4.0000001E-01;  0.0000000E+00;3;  0.0000000E+00;  0.0000000E+00;  0.0000000E+00;0;  0.0000000E+00;  1.0000000E+04;  0.0000000E+00;  0.0000000E+00;  1.0000000E+04;  0.0000000E+00;  1.0000000E+04;  0.0000000E+00;  0.0000000E+00;  0.0000000E+00;  0.0000000E+00;
  3.4000000E-01;  9.9999998E-03; -1.2000000E-01;1565;  0.0000000E+00;  0.0000000E+00;  0.0000000E+00;  1.0000000E+03;  4.0000001E-01;  0.0000000E+00;3;  0.0000000E+00;  0.0000000E+00;  0.0000000E+00;0;  0.0000000E+00;  1.0000000E+04;  0.0000000E+00;  0.0000000E+00;  1.0000000E+04;  0.0000000E+00;  1.0000000E+04;  0.0000000E+00;  0.0000000E+00;  0.0000000E+00;  0.0000000E+00;
  3.4000000E-01;  9.9999998E-03; -1.0000000E-01;1566;  0.0000000E+00;  0.0000000E+00;  0.0000000E+00;  1.0000000E+03;  4.0000001E-01;  0.0000000E+00;3;  0.0000000E+00;  0.0000000E+00;  0.0000000E+00;0;  0.0000000E+00;  1.0000000E+04;  0.0000000E+00;  0.0000000E+00;  1.0000000E+04;  0.0000000E+00;  1.0000000E+04;  0.0000000E+00;  0.0000000E+00;  0.0000000E+00;  0.0000000E+00;
  3.4000000E-01;  9.9999998E-03; -7.9999998E-02;1567;  0.0000000E+00;  0.0000000E+00;  0.0000000E+00;  1.0000000E+03;  4.0000001E-01;  0.0000000E+00;3;  0.0000000E+00;  0.0000000E+00;  0.0000000E+00;0;  0.0000000E+00;  1.0000000E+04;  0.0000000E+00;  0.0000000E+00;  1.0000000E+04;  0.0000000E+00;  1.0000000E+04;  0.0000000E+00;  0.0000000E+00;  0.0000000E+00;  0.0000000E+00;
  3.4000000E-01;  9.9999998E-03; -5.9999999E-02;1568;  0.0000000E+00;  0.0000000E+00;  0.0000000E+00;  1.0000000E+03;  4.0000001E-01;  0.0000000E+00;3;  0.0000000E+00;  0.0000000E+00;  0.0000000E+00;0;  0.0000000E+00;  1.0000000E+04;  0.0000000E+00;  0.0000000E+00;  1.0000000E+04;  0.0000000E+00;  1.0000000E+04;  0.0000000E+00;  0.0000000E+00;  0.0000000E+00;  0.0000000E+00;
  3.4000000E-01;  9.9999998E-03; -3.9999999E-02;1569;  0.0000000E+00;  0.0000000E+00;  0.0000000E+00;  1.0000000E+03;  4.0000001E-01;  0.0000000E+00;3;  0.0000000E+00;  0.0000000E+00;  0.0000000E+00;0;  0.0000000E+00;  1.0000000E+04;  0.0000000E+00;  0.0000000E+00;  1.0000000E+04;  0.0000000E+00;  1.0000000E+04;  0.0000000E+00;  0.0000000E+00;  0.0000000E+00;  0.0000000E+00;
  3.4000000E-01;  9.9999998E-03; -2.0000000E-02;1570;  0.0000000E+00;  0.0000000E+00;  0.0000000E+00;  1.0000000E+03;  4.0000001E-01;  0.0000000E+00;3;  0.0000000E+00;  0.0000000E+00;  0.0000000E+00;0;  0.0000000E+00;  1.0000000E+04;  0.0000000E+00;  0.0000000E+00;  1.0000000E+04;  0.0000000E+00;  1.0000000E+04;  0.0000000E+00;  0.0000000E+00;  0.0000000E+00;  0.0000000E+00;
  3.6000001E-01;  9.9999998E-03; -1.8000001E-01;1593;  0.0000000E+00;  0.0000000E+00;  0.0000000E+00;  1.0000000E+03;  4.0000001E-01;  0.0000000E+00;3;  0.0000000E+00;  0.0000000E+00;  0.0000000E+00;0;  0.0000000E+00;  1.0000000E+04;  0.0000000E+00;  0.0000000E+00;  1.0000000E+04;  0.0000000E+00;  1.0000000E+04;  0.0000000E+00;  0.0000000E+00;  0.0000000E+00;  0.0000000E+00;
  3.6000001E-01;  9.9999998E-03; -1.6000000E-01;1594;  0.0000000E+00;  0.0000000E+00;  0.0000000E+00;  1.0000000E+03;  4.0000001E-01;  0.0000000E+00;3;  0.0000000E+00;  0.0000000E+00;  0.0000000E+00;0;  0.0000000E+00;  1.0000000E+04;  0.0000000E+00;  0.0000000E+00;  1.0000000E+04;  0.0000000E+00;  1.0000000E+04;  0.0000000E+00;  0.0000000E+00;  0.0000000E+00;  0.0000000E+00;
  3.6000001E-01;  9.9999998E-03; -1.4000000E-01;1595;  0.0000000E+00;  0.0000000E+00;  0.0000000E+00;  1.0000000E+03;  4.0000001E-01;  0.0000000E+00;3;  0.0000000E+00;  0.0000000E+00;  0.0000000E+00;0;  0.0000000E+00;  1.0000000E+04;  0.0000000E+00;  0.0000000E+00;  1.0000000E+04;  0.0000000E+00;  1.0000000E+04;  0.0000000E+00;  0.0000000E+00;  0.0000000E+00;  0.0000000E+00;
  3.6000001E-01;  9.9999998E-03; -1.2000000E-01;1596;  0.0000000E+00;  0.0000000E+00;  0.0000000E+00;  1.0000000E+03;  4.0000001E-01;  0.0000000E+00;3;  0.0000000E+00;  0.0000000E+00;  0.0000000E+00;0;  0.0000000E+00;  1.0000000E+04;  0.0000000E+00;  0.0000000E+00;  1.0000000E+04;  0.0000000E+00;  1.0000000E+04;  0.0000000E+00;  0.0000000E+00;  0.0000000E+00;  0.0000000E+00;
  3.6000001E-01;  9.9999998E-03; -1.0000000E-01;1597;  0.0000000E+00;  0.0000000E+00;  0.0000000E+00;  1.0000000E+03;  4.0000001E-01;  0.0000000E+00;3;  0.0000000E+00;  0.0000000E+00;  0.0000000E+00;0;  0.0000000E+00;  1.0000000E+04;  0.0000000E+00;  0.0000000E+00;  1.0000000E+04;  0.0000000E+00;  1.0000000E+04;  0.0000000E+00;  0.0000000E+00;  0.0000000E+00;  0.0000000E+00;
  3.6000001E-01;  9.9999998E-03; -7.9999998E-02;1598;  0.0000000E+00;  0.0000000E+00;  0.0000000E+00;  1.0000000E+03;  4.0000001E-01;  0.0000000E+00;3;  0.0000000E+00;  0.0000000E+00;  0.0000000E+00;0;  0.0000000E+00;  1.0000000E+04;  0.0000000E+00;  0.0000000E+00;  1.0000000E+04;  0.0000000E+00;  1.0000000E+04;  0.0000000E+00;  0.0000000E+00;  0.0000000E+00;  0.0000000E+00;
  3.6000001E-01;  9.9999998E-03; -5.9999999E-02;1599;  0.0000000E+00;  0.0000000E+00;  0.0000000E+00;  1.0000000E+03;  4.0000001E-01;  0.0000000E+00;3;  0.0000000E+00;  0.0000000E+00;  0.0000000E+00;0;  0.0000000E+00;  1.0000000E+04;  0.0000000E+00;  0.0000000E+00;  1.0000000E+04;  0.0000000E+00;  1.0000000E+04;  0.0000000E+00;  0.0000000E+00;  0.0000000E+00;  0.0000000E+00;
  3.6000001E-01;  9.9999998E-03; -3.9999999E-02;1600;  0.0000000E+00;  0.0000000E+00;  0.0000000E+00;  1.0000000E+03;  4.0000001E-01;  0.0000000E+00;3;  0.0000000E+00;  0.0000000E+00;  0.0000000E+00;0;  0.0000000E+00;  1.0000000E+04;  0.0000000E+00;  0.0000000E+00;  1.0000000E+04;  0.0000000E+00;  1.0000000E+04;  0.0000000E+00;  0.0000000E+00;  0.0000000E+00;  0.0000000E+00;
  3.6000001E-01;  9.9999998E-03; -2.0000000E-02;1601;  0.0000000E+00;  0.0000000E+00;  0.0000000E+00;  1.0000000E+03;  4.0000001E-01;  0.0000000E+00;3;  0.0000000E+00;  0.0000000E+00;  0.0000000E+00;0;  0.0000000E+00;  1.0000000E+04;  0.0000000E+00;  0.0000000E+00;  1.0000000E+04;  0.0000000E+00;  1.0000000E+04;  0.0000000E+00;  0.0000000E+00;  0.0000000E+00;  0.0000000E+00;
  3.8000000E-01;  9.9999998E-03; -1.8000001E-01;1624;  0.0000000E+00;  0.0000000E+00;  0.0000000E+00;  1.0000000E+03;  4.0000001E-01;  0.0000000E+00;3;  0.0000000E+00;  0.0000000E+00;  0.0000000E+00;0;  0.0000000E+00;  1.0000000E+04;  0.0000000E+00;  0.0000000E+00;  1.0000000E+04;  0.0000000E+00;  1.0000000E+04;  0.0000000E+00;  0.0000000E+00;  0.0000000E+00;  0.0000000E+00;
  3.8000000E-01;  9.9999998E-03; -1.6000000E-01;1625;  0.0000000E+00;  0.0000000E+00;  0.0000000E+00;  1.0000000E+03;  4.0000001E-01;  0.0000000E+00;3;  0.0000000E+00;  0.0000000E+00;  0.0000000E+00;0;  0.0000000E+00;  1.0000000E+04;  0.0000000E+00;  0.0000000E+00;  1.0000000E+04;  0.0000000E+00;  1.0000000E+04;  0.0000000E+00;  0.0000000E+00;  0.0000000E+00;  0.0000000E+00;
  3.8000000E-01;  9.9999998E-03; -1.4000000E-01;1626;  0.0000000E+00;  0.0000000E+00;  0.0000000E+00;  1.0000000E+03;  4.0000001E-01;  0.0000000E+00;3;  0.0000000E+00;  0.0000000E+00;  0.0000000E+00;0;  0.0000000E+00;  1.0000000E+04;  0.0000000E+00;  0.0000000E+00;  1.0000000E+04;  0.0000000E+00;  1.0000000E+04;  0.0000000E+00;  0.0000000E+00;  0.0000000E+00;  0.0000000E+00;
  3.8000000E-01;  9.9999998E-03; -1.2000000E-01;1627;  0.0000000E+00;  0.0000000E+00;  0.0000000E+00;  1.0000000E+03;  4.0000001E-01;  0.0000000E+00;3;  0.0000000E+00;  0.0000000E+00;  0.0000000E+00;0;  0.0000000E+00;  1.0000000E+04;  0.0000000E+00;  0.0000000E+00;  1.0000000E+04;  0.0000000E+00;  1.0000000E+04;  0.0000000E+00;  0.0000000E+00;  0.0000000E+00;  0.0000000E+00;
  3.8000000E-01;  9.9999998E-03; -1.0000000E-01;1628;  0.0000000E+00;  0.0000000E+00;  0.0000000E+00;  1.0000000E+03;  4.0000001E-01;  0.0000000E+00;3;  0.0000000E+00;  0.0000000E+00;  0.0000000E+00;0;  0.0000000E+00;  1.0000000E+04;  0.0000000E+00;  0.0000000E+00;  1.0000000E+04;  0.0000000E+00;  1.0000000E+04;  0.0000000E+00;  0.0000000E+00;  0.0000000E+00;  0.0000000E+00;
  3.8000000E-01;  9.9999998E-03; -7.9999998E-02;1629;  0.0000000E+00;  0.0000000E+00;  0.0000000E+00;  1.0000000E+03;  4.0000001E-01;  0.0000000E+00;3;  0.0000000E+00;  0.0000000E+00;  0.0000000E+00;0;  0.0000000E+00;  1.0000000E+04;  0.0000000E+00;  0.0000000E+00;  1.0000000E+04;  0.0000000E+00;  1.0000000E+04;  0.0000000E+00;  0.0000000E+00;  0.0000000E+00;  0.0000000E+00;
  3.8000000E-01;  9.9999998E-03; -5.9999999E-02;1630;  0.0000000E+00;  0.0000000E+00;  0.0000000E+00;  1.0000000E+03;  4.0000001E-01;  0.0000000E+00;3;  0.0000000E+00;  0.0000000E+00;  0.0000000E+00;0;  0.0000000E+00;  1.0000000E+04;  0.0000000E+00;  0.0000000E+00;  1.0000000E+04;  0.0000000E+00;  1.0000000E+04;  0.0000000E+00;  0.0000000E+00;  0.0000000E+00;  0.0000000E+00;
  3.8000000E-01;  9.9999998E-03; -3.9999999E-02;1631;  0.0000000E+00;  0.0000000E+00;  0.0000000E+00;  1.0000000E+03;  4.0000001E-01;  0.0000000E+00;3;  0.0000000E+00;  0.0000000E+00;  0.0000000E+00;0;  0.0000000E+00;  1.0000000E+04;  0.0000000E+00;  0.0000000E+00;  1.0000000E+04;  0.0000000E+00;  1.0000000E+04;  0.0000000E+00;  0.0000000E+00;  0.0000000E+00;  0.0000000E+00;
  3.8000000E-01;  9.9999998E-03; -2.0000000E-02;1632;  0.0000000E+00;  0.0000000E+00;  0.0000000E+00;  1.0000000E+03;  4.0000001E-01;  0.0000000E+00;3;  0.0000000E+00;  0.0000000E+00;  0.0000000E+00;0;  0.0000000E+00;  1.0000000E+04;  0.0000000E+00;  0.0000000E+00;  1.0000000E+04;  0.0000000E+00;  1.0000000E+04;  0.0000000E+00;  0.0000000E+00;  0.0000000E+00;  0.0000000E+00;
  4.0000001E-01;  9.9999998E-03; -1.8000001E-01;1655;  0.0000000E+00;  0.0000000E+00;  0.0000000E+00;  1.0000000E+03;  4.0000001E-01;  0.0000000E+00;3;  0.0000000E+00;  0.0000000E+00;  0.0000000E+00;0;  0.0000000E+00;  1.0000000E+04;  0.0000000E+00;  0.0000000E+00;  1.0000000E+04;  0.0000000E+00;  1.0000000E+04;  0.0000000E+00;  0.0000000E+00;  0.0000000E+00;  0.0000000E+00;
  4.0000001E-01;  9.9999998E-03; -1.6000000E-01;1656;  0.0000000E+00;  0.0000000E+00;  0.0000000E+00;  1.0000000E+03;  4.0000001E-01;  0.0000000E+00;3;  0.0000000E+00;  0.0000000E+00;  0.0000000E+00;0;  0.0000000E+00;  1.0000000E+04;  0.0000000E+00;  0.0000000E+00;  1.0000000E+04;  0.0000000E+00;  1.0000000E+04;  0.0000000E+00;  0.0000000E+00;  0.0000000E+00;  0.0000000E+00;
  4.0000001E-01;  9.9999998E-03; -1.4000000E-01;1657;  0.0000000E+00;  0.0000000E+00;  0.0000000E+00;  1.0000000E+03;  4.0000001E-01;  0.0000000E+00;3;  0.0000000E+00;  0.0000000E+00;  0.0000000E+00;0;  0.0000000E+00;  1.0000000E+04;  0.0000000E+00;  0.0000000E+00;  1.0000000E+04;  0.0000000E+00;  1.0000000E+04;  0.0000000E+00;  0.0000000E+00;  0.0000000E+00;  0.0000000E+00;
  4.0000001E-01;  9.9999998E-03; -1.2000000E-01;1658;  0.0000000E+00;  0.0000000E+00;  0.0000000E+00;  1.0000000E+03;  4.0000001E-01;  0.0000000E+00;3;  0.0000000E+00;  0.0000000E+00;  0.0000000E+00;0;  0.0000000E+00;  1.0000000E+04;  0.0000000E+00;  0.0000000E+00;  1.0000000E+04;  0.0000000E+00;  1.0000000E+04;  0.0000000E+00;  0.0000000E+00;  0.0000000E+00;  0.0000000E+00;
  4.0000001E-01;  9.9999998E-03; -1.0000000E-01;1659;  0.0000000E+00;  0.0000000E+00;  0.0000000E+00;  1.0000000E+03;  4.0000001E-01;  0.0000000E+00;3;  0.0000000E+00;  0.0000000E+00;  0.0000000E+00;0;  0.0000000E+00;  1.0000000E+04;  0.0000000E+00;  0.0000000E+00;  1.0000000E+04;  0.0000000E+00;  1.0000000E+04;  0.0000000E+00;  0.0000000E+00;  0.0000000E+00;  0.0000000E+00;
  4.0000001E-01;  9.9999998E-03; -7.9999998E-02;1660;  0.0000000E+00;  0.0000000E+00;  0.0000000E+00;  1.0000000E+03;  4.0000001E-01;  0.0000000E+00;3;  0.0000000E+00;  0.0000000E+00;  0.0000000E+00;0;  0.0000000E+00;  1.0000000E+04;  0.0000000E+00;  0.0000000E+00;  1.0000000E+04;  0.0000000E+00;  1.0000000E+04;  0.0000000E+00;  0.0000000E+00;  0.0000000E+00;  0.0000000E+00;
  4.0000001E-01;  9.9999998E-03; -5.9999999E-02;1661;  0.0000000E+00;  0.0000000E+00;  0.0000000E+00;  1.0000000E+03;  4.0000001E-01;  0.0000000E+00;3;  0.0000000E+00;  0.0000000E+00;  0.0000000E+00;0;  0.0000000E+00;  1.0000000E+04;  0.0000000E+00;  0.0000000E+00;  1.0000000E+04;  0.0000000E+00;  1.0000000E+04;  0.0000000E+00;  0.0000000E+00;  0.0000000E+00;  0.0000000E+00;
  4.0000001E-01;  9.9999998E-03; -3.9999999E-02;1662;  0.0000000E+00;  0.0000000E+00;  0.0000000E+00;  1.0000000E+03;  4.0000001E-01;  0.0000000E+00;3;  0.0000000E+00;  0.0000000E+00;  0.0000000E+00;0;  0.0000000E+00;  1.0000000E+04;  0.0000000E+00;  0.0000000E+00;  1.0000000E+04;  0.0000000E+00;  1.0000000E+04;  0.0000000E+00;  0.0000000E+00;  0.0000000E+00;  0.0000000E+00;
  4.0000001E-01;  9.9999998E-03; -2.0000000E-02;1663;  0.0000000E+00;  0.0000000E+00;  0.0000000E+00;  1.0000000E+03;  4.0000001E-01;  0.0000000E+00;3;  0.0000000E+00;  0.0000000E+00;  0.0000000E+00;0;  0.0000000E+00;  1.0000000E+04;  0.0000000E+00;  0.0000000E+00;  1.0000000E+04;  0.0000000E+00;  1.0000000E+04;  0.0000000E+00;  0.0000000E+00;  0.0000000E+00;  0.0000000E+00;
  4.1999999E-01;  9.9999998E-03; -1.8000001E-01;1686;  0.0000000E+00;  0.0000000E+00;  0.0000000E+00;  1.0000000E+03;  4.0000001E-01;  0.0000000E+00;3;  0.0000000E+00;  0.0000000E+00;  0.0000000E+00;0;  0.0000000E+00;  1.0000000E+04;  0.0000000E+00;  0.0000000E+00;  1.0000000E+04;  0.0000000E+00;  1.0000000E+04;  0.0000000E+00;  0.0000000E+00;  0.0000000E+00;  0.0000000E+00;
  4.1999999E-01;  9.9999998E-03; -1.6000000E-01;1687;  0.0000000E+00;  0.0000000E+00;  0.0000000E+00;  1.0000000E+03;  4.0000001E-01;  0.0000000E+00;3;  0.0000000E+00;  0.0000000E+00;  0.0000000E+00;0;  0.0000000E+00;  1.0000000E+04;  0.0000000E+00;  0.0000000E+00;  1.0000000E+04;  0.0000000E+00;  1.0000000E+04;  0.0000000E+00;  0.0000000E+00;  0.0000000E+00;  0.0000000E+00;
  4.1999999E-01;  9.9999998E-03; -1.4000000E-01;1688;  0.0000000E+00;  0.0000000E+00;  0.0000000E+00;  1.0000000E+03;  4.0000001E-01;  0.0000000E+00;3;  0.0000000E+00;  0.0000000E+00;  0.0000000E+00;0;  0.0000000E+00;  1.0000000E+04;  0.0000000E+00;  0.0000000E+00;  1.0000000E+04;  0.0000000E+00;  1.0000000E+04;  0.0000000E+00;  0.0000000E+00;  0.0000000E+00;  0.0000000E+00;
  4.1999999E-01;  9.9999998E-03; -1.2000000E-01;1689;  0.0000000E+00;  0.0000000E+00;  0.0000000E+00;  1.0000000E+03;  4.0000001E-01;  0.0000000E+00;3;  0.0000000E+00;  0.0000000E+00;  0.0000000E+00;0;  0.0000000E+00;  1.0000000E+04;  0.0000000E+00;  0.0000000E+00;  1.0000000E+04;  0.0000000E+00;  1.0000000E+04;  0.0000000E+00;  0.0000000E+00;  0.0000000E+00;  0.0000000E+00;
  4.1999999E-01;  9.9999998E-03; -1.0000000E-01;1690;  0.0000000E+00;  0.0000000E+00;  0.0000000E+00;  1.0000000E+03;  4.0000001E-01;  0.0000000E+00;3;  0.0000000E+00;  0.0000000E+00;  0.0000000E+00;0;  0.0000000E+00;  1.0000000E+04;  0.0000000E+00;  0.0000000E+00;  1.0000000E+04;  0.0000000E+00;  1.0000000E+04;  0.0000000E+00;  0.0000000E+00;  0.0000000E+00;  0.0000000E+00;
  4.1999999E-01;  9.9999998E-03; -7.9999998E-02;1691;  0.0000000E+00;  0.0000000E+00;  0.0000000E+00;  1.0000000E+03;  4.0000001E-01;  0.0000000E+00;3;  0.0000000E+00;  0.0000000E+00;  0.0000000E+00;0;  0.0000000E+00;  1.0000000E+04;  0.0000000E+00;  0.0000000E+00;  1.0000000E+04;  0.0000000E+00;  1.0000000E+04;  0.0000000E+00;  0.0000000E+00;  0.0000000E+00;  0.0000000E+00;
  4.1999999E-01;  9.9999998E-03; -5.9999999E-02;1692;  0.0000000E+00;  0.0000000E+00;  0.0000000E+00;  1.0000000E+03;  4.0000001E-01;  0.0000000E+00;3;  0.0000000E+00;  0.0000000E+00;  0.0000000E+00;0;  0.0000000E+00;  1.0000000E+04;  0.0000000E+00;  0.0000000E+00;  1.0000000E+04;  0.0000000E+00;  1.0000000E+04;  0.0000000E+00;  0.0000000E+00;  0.0000000E+00;  0.0000000E+00;
  4.1999999E-01;  9.9999998E-03; -3.9999999E-02;1693;  0.0000000E+00;  0.0000000E+00;  0.0000000E+00;  1.0000000E+03;  4.0000001E-01;  0.0000000E+00;3;  0.0000000E+00;  0.0000000E+00;  0.0000000E+00;0;  0.0000000E+00;  1.0000000E+04;  0.0000000E+00;  0.0000000E+00;  1.0000000E+04;  0.0000000E+00;  1.0000000E+04;  0.0000000E+00;  0.0000000E+00;  0.0000000E+00;  0.0000000E+00;
  4.1999999E-01;  9.9999998E-03; -2.0000000E-02;1694;  0.0000000E+00;  0.0000000E+00;  0.0000000E+00;  1.0000000E+03;  4.0000001E-01;  0.0000000E+00;3;  0.0000000E+00;  0.0000000E+00;  0.0000000E+00;0;  0.0000000E+00;  1.0000000E+04;  0.0000000E+00;  0.0000000E+00;  1.0000000E+04;  0.0000000E+00;  1.0000000E+04;  0.0000000E+00;  0.0000000E+00;  0.0000000E+00;  0.0000000E+00;
  4.4000000E-01;  9.9999998E-03; -1.8000001E-01;1717;  0.0000000E+00;  0.0000000E+00;  0.0000000E+00;  1.0000000E+03;  4.0000001E-01;  0.0000000E+00;3;  0.0000000E+00;  0.0000000E+00;  0.0000000E+00;0;  0.0000000E+00;  1.0000000E+04;  0.0000000E+00;  0.0000000E+00;  1.0000000E+04;  0.0000000E+00;  1.0000000E+04;  0.0000000E+00;  0.0000000E+00;  0.0000000E+00;  0.0000000E+00;
  4.4000000E-01;  9.9999998E-03; -1.6000000E-01;1718;  0.0000000E+00;  0.0000000E+00;  0.0000000E+00;  1.0000000E+03;  4.0000001E-01;  0.0000000E+00;3;  0.0000000E+00;  0.0000000E+00;  0.0000000E+00;0;  0.0000000E+00;  1.0000000E+04;  0.0000000E+00;  0.0000000E+00;  1.0000000E+04;  0.0000000E+00;  1.0000000E+04;  0.0000000E+00;  0.0000000E+00;  0.0000000E+00;  0.0000000E+00;
  4.4000000E-01;  9.9999998E-03; -1.4000000E-01;1719;  0.0000000E+00;  0.0000000E+00;  0.0000000E+00;  1.0000000E+03;  4.0000001E-01;  0.0000000E+00;3;  0.0000000E+00;  0.0000000E+00;  0.0000000E+00;0;  0.0000000E+00;  1.0000000E+04;  0.0000000E+00;  0.0000000E+00;  1.0000000E+04;  0.0000000E+00;  1.0000000E+04;  0.0000000E+00;  0.0000000E+00;  0.0000000E+00;  0.0000000E+00;
  4.4000000E-01;  9.9999998E-03; -1.2000000E-01;1720;  0.0000000E+00;  0.0000000E+00;  0.0000000E+00;  1.0000000E+03;  4.0000001E-01;  0.0000000E+00;3;  0.0000000E+00;  0.0000000E+00;  0.0000000E+00;0;  0.0000000E+00;  1.0000000E+04;  0.0000000E+00;  0.0000000E+00;  1.0000000E+04;  0.0000000E+00;  1.0000000E+04;  0.0000000E+00;  0.0000000E+00;  0.0000000E+00;  0.0000000E+00;
  4.4000000E-01;  9.9999998E-03; -1.0000000E-01;1721;  0.0000000E+00;  0.0000000E+00;  0.0000000E+00;  1.0000000E+03;  4.0000001E-01;  0.0000000E+00;3;  0.0000000E+00;  0.0000000E+00;  0.0000000E+00;0;  0.0000000E+00;  1.0000000E+04;  0.0000000E+00;  0.0000000E+00;  1.0000000E+04;  0.0000000E+00;  1.0000000E+04;  0.0000000E+00;  0.0000000E+00;  0.0000000E+00;  0.0000000E+00;
  4.4000000E-01;  9.9999998E-03; -7.9999998E-02;1722;  0.0000000E+00;  0.0000000E+00;  0.0000000E+00;  1.0000000E+03;  4.0000001E-01;  0.0000000E+00;3;  0.0000000E+00;  0.0000000E+00;  0.0000000E+00;0;  0.0000000E+00;  1.0000000E+04;  0.0000000E+00;  0.0000000E+00;  1.0000000E+04;  0.0000000E+00;  1.0000000E+04;  0.0000000E+00;  0.0000000E+00;  0.0000000E+00;  0.0000000E+00;
  4.4000000E-01;  9.9999998E-03; -5.9999999E-02;1723;  0.0000000E+00;  0.0000000E+00;  0.0000000E+00;  1.0000000E+03;  4.0000001E-01;  0.0000000E+00;3;  0.0000000E+00;  0.0000000E+00;  0.0000000E+00;0;  0.0000000E+00;  1.0000000E+04;  0.0000000E+00;  0.0000000E+00;  1.0000000E+04;  0.0000000E+00;  1.0000000E+04;  0.0000000E+00;  0.0000000E+00;  0.0000000E+00;  0.0000000E+00;
  4.4000000E-01;  9.9999998E-03; -3.9999999E-02;1724;  0.0000000E+00;  0.0000000E+00;  0.0000000E+00;  1.0000000E+03;  4.0000001E-01;  0.0000000E+00;3;  0.0000000E+00;  0.0000000E+00;  0.0000000E+00;0;  0.0000000E+00;  1.0000000E+04;  0.0000000E+00;  0.0000000E+00;  1.0000000E+04;  0.0000000E+00;  1.0000000E+04;  0.0000000E+00;  0.0000000E+00;  0.0000000E+00;  0.0000000E+00;
  4.4000000E-01;  9.9999998E-03; -2.0000000E-02;1725;  0.0000000E+00;  0.0000000E+00;  0.0000000E+00;  1.0000000E+03;  4.0000001E-01;  0.0000000E+00;3;  0.0000000E+00;  0.0000000E+00;  0.0000000E+00;0;  0.0000000E+00;  1.0000000E+04;  0.0000000E+00;  0.0000000E+00;  1.0000000E+04;  0.0000000E+00;  1.0000000E+04;  0.0000000E+00;  0.0000000E+00;  0.0000000E+00;  0.0000000E+00;
  4.6000001E-01;  9.9999998E-03; -1.8000001E-01;1748;  0.0000000E+00;  0.0000000E+00;  0.0000000E+00;  1.0000000E+03;  4.0000001E-01;  0.0000000E+00;3;  0.0000000E+00;  0.0000000E+00;  0.0000000E+00;0;  0.0000000E+00;  1.0000000E+04;  0.0000000E+00;  0.0000000E+00;  1.0000000E+04;  0.0000000E+00;  1.0000000E+04;  0.0000000E+00;  0.0000000E+00;  0.0000000E+00;  0.0000000E+00;
  4.6000001E-01;  9.9999998E-03; -1.6000000E-01;1749;  0.0000000E+00;  0.0000000E+00;  0.0000000E+00;  1.0000000E+03;  4.0000001E-01;  0.0000000E+00;3;  0.0000000E+00;  0.0000000E+00;  0.0000000E+00;0;  0.0000000E+00;  1.0000000E+04;  0.0000000E+00;  0.0000000E+00;  1.0000000E+04;  0.0000000E+00;  1.0000000E+04;  0.0000000E+00;  0.0000000E+00;  0.0000000E+00;  0.0000000E+00;
  4.6000001E-01;  9.9999998E-03; -1.4000000E-01;1750;  0.0000000E+00;  0.0000000E+00;  0.0000000E+00;  1.0000000E+03;  4.0000001E-01;  0.0000000E+00;3;  0.0000000E+00;  0.0000000E+00;  0.0000000E+00;0;  0.0000000E+00;  1.0000000E+04;  0.0000000E+00;  0.0000000E+00;  1.0000000E+04;  0.0000000E+00;  1.0000000E+04;  0.0000000E+00;  0.0000000E+00;  0.0000000E+00;  0.0000000E+00;
  4.6000001E-01;  9.9999998E-03; -1.2000000E-01;1751;  0.0000000E+00;  0.0000000E+00;  0.0000000E+00;  1.0000000E+03;  4.0000001E-01;  0.0000000E+00;3;  0.0000000E+00;  0.0000000E+00;  0.0000000E+00;0;  0.0000000E+00;  1.0000000E+04;  0.0000000E+00;  0.0000000E+00;  1.0000000E+04;  0.0000000E+00;  1.0000000E+04;  0.0000000E+00;  0.0000000E+00;  0.0000000E+00;  0.0000000E+00;
  4.6000001E-01;  9.9999998E-03; -1.0000000E-01;1752;  0.0000000E+00;  0.0000000E+00;  0.0000000E+00;  1.0000000E+03;  4.0000001E-01;  0.0000000E+00;3;  0.0000000E+00;  0.0000000E+00;  0.0000000E+00;0;  0.0000000E+00;  1.0000000E+04;  0.0000000E+00;  0.0000000E+00;  1.0000000E+04;  0.0000000E+00;  1.0000000E+04;  0.0000000E+00;  0.0000000E+00;  0.0000000E+00;  0.0000000E+00;
  4.6000001E-01;  9.9999998E-03; -7.9999998E-02;1753;  0.0000000E+00;  0.0000000E+00;  0.0000000E+00;  1.0000000E+03;  4.0000001E-01;  0.0000000E+00;3;  0.0000000E+00;  0.0000000E+00;  0.0000000E+00;0;  0.0000000E+00;  1.0000000E+04;  0.0000000E+00;  0.0000000E+00;  1.0000000E+04;  0.0000000E+00;  1.0000000E+04;  0.0000000E+00;  0.0000000E+00;  0.0000000E+00;  0.0000000E+00;
  4.6000001E-01;  9.9999998E-03; -5.9999999E-02;1754;  0.0000000E+00;  0.0000000E+00;  0.0000000E+00;  1.0000000E+03;  4.0000001E-01;  0.0000000E+00;3;  0.0000000E+00;  0.0000000E+00;  0.0000000E+00;0;  0.0000000E+00;  1.0000000E+04;  0.0000000E+00;  0.0000000E+00;  1.0000000E+04;  0.0000000E+00;  1.0000000E+04;  0.0000000E+00;  0.0000000E+00;  0.0000000E+00;  0.0000000E+00;
  4.6000001E-01;  9.9999998E-03; -3.9999999E-02;1755;  0.0000000E+00;  0.0000000E+00;  0.0000000E+00;  1.0000000E+03;  4.0000001E-01;  0.0000000E+00;3;  0.0000000E+00;  0.0000000E+00;  0.0000000E+00;0;  0.0000000E+00;  1.0000000E+04;  0.0000000E+00;  0.0000000E+00;  1.0000000E+04;  0.0000000E+00;  1.0000000E+04;  0.0000000E+00;  0.0000000E+00;  0.0000000E+00;  0.0000000E+00;
  4.6000001E-01;  9.9999998E-03; -2.0000000E-02;1756;  0.0000000E+00;  0.0000000E+00;  0.0000000E+00;  1.0000000E+03;  4.0000001E-01;  0.0000000E+00;3;  0.0000000E+00;  0.0000000E+00;  0.0000000E+00;0;  0.0000000E+00;  1.0000000E+04;  0.0000000E+00;  0.0000000E+00;  1.0000000E+04;  0.0000000E+00;  1.0000000E+04;  0.0000000E+00;  0.0000000E+00;  0.0000000E+00;  0.0000000E+00;
  4.7999999E-01;  9.9999998E-03; -1.8000001E-01;1779;  0.0000000E+00;  0.0000000E+00;  0.0000000E+00;  1.0000000E+03;  4.0000001E-01;  0.0000000E+00;3;  0.0000000E+00;  0.0000000E+00;  0.0000000E+00;0;  0.0000000E+00;  1.0000000E+04;  0.0000000E+00;  0.0000000E+00;  1.0000000E+04;  0.0000000E+00;  1.0000000E+04;  0.0000000E+00;  0.0000000E+00;  0.0000000E+00;  0.0000000E+00;
  4.7999999E-01;  9.9999998E-03; -1.6000000E-01;1780;  0.0000000E+00;  0.0000000E+00;  0.0000000E+00;  1.0000000E+03;  4.0000001E-01;  0.0000000E+00;3;  0.0000000E+00;  0.0000000E+00;  0.0000000E+00;0;  0.0000000E+00;  1.0000000E+04;  0.0000000E+00;  0.0000000E+00;  1.0000000E+04;  0.0000000E+00;  1.0000000E+04;  0.0000000E+00;  0.0000000E+00;  0.0000000E+00;  0.0000000E+00;
  4.7999999E-01;  9.9999998E-03; -1.4000000E-01;1781;  0.0000000E+00;  0.0000000E+00;  0.0000000E+00;  1.0000000E+03;  4.0000001E-01;  0.0000000E+00;3;  0.0000000E+00;  0.0000000E+00;  0.0000000E+00;0;  0.0000000E+00;  1.0000000E+04;  0.0000000E+00;  0.0000000E+00;  1.0000000E+04;  0.0000000E+00;  1.0000000E+04;  0.0000000E+00;  0.0000000E+00;  0.0000000E+00;  0.0000000E+00;
  4.7999999E-01;  9.9999998E-03; -1.2000000E-01;1782;  0.0000000E+00;  0.0000000E+00;  0.0000000E+00;  1.0000000E+03;  4.0000001E-01;  0.0000000E+00;3;  0.0000000E+00;  0.0000000E+00;  0.0000000E+00;0;  0.0000000E+00;  1.0000000E+04;  0.0000000E+00;  0.0000000E+00;  1.0000000E+04;  0.0000000E+00;  1.0000000E+04;  0.0000000E+00;  0.0000000E+00;  0.0000000E+00;  0.0000000E+00;
  4.7999999E-01;  9.9999998E-03; -1.0000000E-01;1783;  0.0000000E+00;  0.0000000E+00;  0.0000000E+00;  1.0000000E+03;  4.0000001E-01;  0.0000000E+00;3;  0.0000000E+00;  0.0000000E+00;  0.0000000E+00;0;  0.0000000E+00;  1.0000000E+04;  0.0000000E+00;  0.0000000E+00;  1.0000000E+04;  0.0000000E+00;  1.0000000E+04;  0.0000000E+00;  0.0000000E+00;  0.0000000E+00;  0.0000000E+00;
  4.7999999E-01;  9.9999998E-03; -7.9999998E-02;1784;  0.0000000E+00;  0.0000000E+00;  0.0000000E+00;  1.0000000E+03;  4.0000001E-01;  0.0000000E+00;3;  0.0000000E+00;  0.0000000E+00;  0.0000000E+00;0;  0.0000000E+00;  1.0000000E+04;  0.0000000E+00;  0.0000000E+00;  1.0000000E+04;  0.0000000E+00;  1.0000000E+04;  0.0000000E+00;  0.0000000E+00;  0.0000000E+00;  0.0000000E+00;
  4.7999999E-01;  9.9999998E-03; -5.9999999E-02;1785;  0.0000000E+00;  0.0000000E+00;  0.0000000E+00;  1.0000000E+03;  4.0000001E-01;  0.0000000E+00;3;  0.0000000E+00;  0.0000000E+00;  0.0000000E+00;0;  0.0000000E+00;  1.0000000E+04;  0.0000000E+00;  0.0000000E+00;  1.0000000E+04;  0.0000000E+00;  1.0000000E+04;  0.0000000E+00;  0.0000000E+00;  0.0000000E+00;  0.0000000E+00;
  4.7999999E-01;  9.9999998E-03; -3.9999999E-02;1786;  0.0000000E+00;  0.0000000E+00;  0.0000000E+00;  1.0000000E+03;  4.0000001E-01;  0.0000000E+00;3;  0.0000000E+00;  0.0000000E+00;  0.0000000E+00;0;  0.0000000E+00;  1.0000000E+04;  0.0000000E+00;  0.0000000E+00;  1.0000000E+04;  0.0000000E+00;  1.0000000E+04;  0.0000000E+00;  0.0000000E+00;  0.0000000E+00;  0.0000000E+00;
  4.7999999E-01;  9.9999998E-03; -2.0000000E-02;1787;  0.0000000E+00;  0.0000000E+00;  0.0000000E+00;  1.0000000E+03;  4.0000001E-01;  0.0000000E+00;3;  0.0000000E+00;  0.0000000E+00;  0.0000000E+00;0;  0.0000000E+00;  1.0000000E+04;  0.0000000E+00;  0.0000000E+00;  1.0000000E+04;  0.0000000E+00;  1.0000000E+04;  0.0000000E+00;  0.0000000E+00;  0.0000000E+00;  0.0000000E+00;
  5.0000000E-01;  9.9999998E-03; -1.8000001E-01;1810;  0.0000000E+00;  0.0000000E+00;  0.0000000E+00;  1.0000000E+03;  4.0000001E-01;  0.0000000E+00;3;  0.0000000E+00;  0.0000000E+00;  0.0000000E+00;0;  0.0000000E+00;  1.0000000E+04;  0.0000000E+00;  0.0000000E+00;  1.0000000E+04;  0.0000000E+00;  1.0000000E+04;  0.0000000E+00;  0.0000000E+00;  0.0000000E+00;  0.0000000E+00;
  5.0000000E-01;  9.9999998E-03; -1.6000000E-01;1811;  0.0000000E+00;  0.0000000E+00;  0.0000000E+00;  1.0000000E+03;  4.0000001E-01;  0.0000000E+00;3;  0.0000000E+00;  0.0000000E+00;  0.0000000E+00;0;  0.0000000E+00;  1.0000000E+04;  0.0000000E+00;  0.0000000E+00;  1.0000000E+04;  0.0000000E+00;  1.0000000E+04;  0.0000000E+00;  0.0000000E+00;  0.0000000E+00;  0.0000000E+00;
  5.0000000E-01;  9.9999998E-03; -1.4000000E-01;1812;  0.0000000E+00;  0.0000000E+00;  0.0000000E+00;  1.0000000E+03;  4.0000001E-01;  0.0000000E+00;3;  0.0000000E+00;  0.0000000E+00;  0.0000000E+00;0;  0.0000000E+00;  1.0000000E+04;  0.0000000E+00;  0.0000000E+00;  1.0000000E+04;  0.0000000E+00;  1.0000000E+04;  0.0000000E+00;  0.0000000E+00;  0.0000000E+00;  0.0000000E+00;
  5.0000000E-01;  9.9999998E-03; -1.2000000E-01;1813;  0.0000000E+00;  0.0000000E+00;  0.0000000E+00;  1.0000000E+03;  4.0000001E-01;  0.0000000E+00;3;  0.0000000E+00;  0.0000000E+00;  0.0000000E+00;0;  0.0000000E+00;  1.0000000E+04;  0.0000000E+00;  0.0000000E+00;  1.0000000E+04;  0.0000000E+00;  1.0000000E+04;  0.0000000E+00;  0.0000000E+00;  0.0000000E+00;  0.0000000E+00;
  5.0000000E-01;  9.9999998E-03; -1.0000000E-01;1814;  0.0000000E+00;  0.0000000E+00;  0.0000000E+00;  1.0000000E+03;  4.0000001E-01;  0.0000000E+00;3;  0.0000000E+00;  0.0000000E+00;  0.0000000E+00;0;  0.0000000E+00;  1.0000000E+04;  0.0000000E+00;  0.0000000E+00;  1.0000000E+04;  0.0000000E+00;  1.0000000E+04;  0.0000000E+00;  0.0000000E+00;  0.0000000E+00;  0.0000000E+00;
  5.0000000E-01;  9.9999998E-03; -7.9999998E-02;1815;  0.0000000E+00;  0.0000000E+00;  0.0000000E+00;  1.0000000E+03;  4.0000001E-01;  0.0000000E+00;3;  0.0000000E+00;  0.0000000E+00;  0.0000000E+00;0;  0.0000000E+00;  1.0000000E+04;  0.0000000E+00;  0.0000000E+00;  1.0000000E+04;  0.0000000E+00;  1.0000000E+04;  0.0000000E+00;  0.0000000E+00;  0.0000000E+00;  0.0000000E+00;
  5.0000000E-01;  9.9999998E-03; -5.9999999E-02;1816;  0.0000000E+00;  0.0000000E+00;  0.0000000E+00;  1.0000000E+03;  4.0000001E-01;  0.0000000E+00;3;  0.0000000E+00;  0.0000000E+00;  0.0000000E+00;0;  0.0000000E+00;  1.0000000E+04;  0.0000000E+00;  0.0000000E+00;  1.0000000E+04;  0.0000000E+00;  1.0000000E+04;  0.0000000E+00;  0.0000000E+00;  0.0000000E+00;  0.0000000E+00;
  5.0000000E-01;  9.9999998E-03; -3.9999999E-02;1817;  0.0000000E+00;  0.0000000E+00;  0.0000000E+00;  1.0000000E+03;  4.0000001E-01;  0.0000000E+00;3;  0.0000000E+00;  0.0000000E+00;  0.0000000E+00;0;  0.0000000E+00;  1.0000000E+04;  0.0000000E+00;  0.0000000E+00;  1.0000000E+04;  0.0000000E+00;  1.0000000E+04;  0.0000000E+00;  0.0000000E+00;  0.0000000E+00;  0.0000000E+00;
  5.0000000E-01;  9.9999998E-03; -2.0000000E-02;1818;  0.0000000E+00;  0.0000000E+00;  0.0000000E+00;  1.0000000E+03;  4.0000001E-01;  0.0000000E+00;3;  0.0000000E+00;  0.0000000E+00;  0.0000000E+00;0;  0.0000000E+00;  1.0000000E+04;  0.0000000E+00;  0.0000000E+00;  1.0000000E+04;  0.0000000E+00;  1.0000000E+04;  0.0000000E+00;  0.0000000E+00;  0.0000000E+00;  0.0000000E+00;
  5.1999998E-01;  9.9999998E-03; -1.8000001E-01;1841;  0.0000000E+00;  0.0000000E+00;  0.0000000E+00;  1.0000000E+03;  4.0000001E-01;  0.0000000E+00;3;  0.0000000E+00;  0.0000000E+00;  0.0000000E+00;0;  0.0000000E+00;  1.0000000E+04;  0.0000000E+00;  0.0000000E+00;  1.0000000E+04;  0.0000000E+00;  1.0000000E+04;  0.0000000E+00;  0.0000000E+00;  0.0000000E+00;  0.0000000E+00;
  5.1999998E-01;  9.9999998E-03; -1.6000000E-01;1842;  0.0000000E+00;  0.0000000E+00;  0.0000000E+00;  1.0000000E+03;  4.0000001E-01;  0.0000000E+00;3;  0.0000000E+00;  0.0000000E+00;  0.0000000E+00;0;  0.0000000E+00;  1.0000000E+04;  0.0000000E+00;  0.0000000E+00;  1.0000000E+04;  0.0000000E+00;  1.0000000E+04;  0.0000000E+00;  0.0000000E+00;  0.0000000E+00;  0.0000000E+00;
  5.1999998E-01;  9.9999998E-03; -1.4000000E-01;1843;  0.0000000E+00;  0.0000000E+00;  0.0000000E+00;  1.0000000E+03;  4.0000001E-01;  0.0000000E+00;3;  0.0000000E+00;  0.0000000E+00;  0.0000000E+00;0;  0.0000000E+00;  1.0000000E+04;  0.0000000E+00;  0.0000000E+00;  1.0000000E+04;  0.0000000E+00;  1.0000000E+04;  0.0000000E+00;  0.0000000E+00;  0.0000000E+00;  0.0000000E+00;
  5.1999998E-01;  9.9999998E-03; -1.2000000E-01;1844;  0.0000000E+00;  0.0000000E+00;  0.0000000E+00;  1.0000000E+03;  4.0000001E-01;  0.0000000E+00;3;  0.0000000E+00;  0.0000000E+00;  0.0000000E+00;0;  0.0000000E+00;  1.0000000E+04;  0.0000000E+00;  0.0000000E+00;  1.0000000E+04;  0.0000000E+00;  1.0000000E+04;  0.0000000E+00;  0.0000000E+00;  0.0000000E+00;  0.0000000E+00;
  5.1999998E-01;  9.9999998E-03; -1.0000000E-01;1845;  0.0000000E+00;  0.0000000E+00;  0.0000000E+00;  1.0000000E+03;  4.0000001E-01;  0.0000000E+00;3;  0.0000000E+00;  0.0000000E+00;  0.0000000E+00;0;  0.0000000E+00;  1.0000000E+04;  0.0000000E+00;  0.0000000E+00;  1.0000000E+04;  0.0000000E+00;  1.0000000E+04;  0.0000000E+00;  0.0000000E+00;  0.0000000E+00;  0.0000000E+00;
  5.1999998E-01;  9.9999998E-03; -7.9999998E-02;1846;  0.0000000E+00;  0.0000000E+00;  0.0000000E+00;  1.0000000E+03;  4.0000001E-01;  0.0000000E+00;3;  0.0000000E+00;  0.0000000E+00;  0.0000000E+00;0;  0.0000000E+00;  1.0000000E+04;  0.0000000E+00;  0.0000000E+00;  1.0000000E+04;  0.0000000E+00;  1.0000000E+04;  0.0000000E+00;  0.0000000E+00;  0.0000000E+00;  0.0000000E+00;
  5.1999998E-01;  9.9999998E-03; -5.9999999E-02;1847;  0.0000000E+00;  0.0000000E+00;  0.0000000E+00;  1.0000000E+03;  4.0000001E-01;  0.0000000E+00;3;  0.0000000E+00;  0.0000000E+00;  0.0000000E+00;0;  0.0000000E+00;  1.0000000E+04;  0.0000000E+00;  0.0000000E+00;  1.0000000E+04;  0.0000000E+00;  1.0000000E+04;  0.0000000E+00;  0.0000000E+00;  0.0000000E+00;  0.0000000E+00;
  5.1999998E-01;  9.9999998E-03; -3.9999999E-02;1848;  0.0000000E+00;  0.0000000E+00;  0.0000000E+00;  1.0000000E+03;  4.0000001E-01;  0.0000000E+00;3;  0.0000000E+00;  0.0000000E+00;  0.0000000E+00;0;  0.0000000E+00;  1.0000000E+04;  0.0000000E+00;  0.0000000E+00;  1.0000000E+04;  0.0000000E+00;  1.0000000E+04;  0.0000000E+00;  0.0000000E+00;  0.0000000E+00;  0.0000000E+00;
  5.1999998E-01;  9.9999998E-03; -2.0000000E-02;1849;  0.0000000E+00;  0.0000000E+00;  0.0000000E+00;  1.0000000E+03;  4.0000001E-01;  0.0000000E+00;3;  0.0000000E+00;  0.0000000E+00;  0.0000000E+00;0;  0.0000000E+00;  1.0000000E+04;  0.0000000E+00;  0.0000000E+00;  1.0000000E+04;  0.0000000E+00;  1.0000000E+04;  0.0000000E+00;  0.0000000E+00;  0.0000000E+00;  0.0000000E+00;
  5.4000002E-01;  9.9999998E-03; -1.8000001E-01;1872;  0.0000000E+00;  0.0000000E+00;  0.0000000E+00;  1.0000000E+03;  4.0000001E-01;  0.0000000E+00;3;  0.0000000E+00;  0.0000000E+00;  0.0000000E+00;0;  0.0000000E+00;  1.0000000E+04;  0.0000000E+00;  0.0000000E+00;  1.0000000E+04;  0.0000000E+00;  1.0000000E+04;  0.0000000E+00;  0.0000000E+00;  0.0000000E+00;  0.0000000E+00;
  5.4000002E-01;  9.9999998E-03; -1.6000000E-01;1873;  0.0000000E+00;  0.0000000E+00;  0.0000000E+00;  1.0000000E+03;  4.0000001E-01;  0.0000000E+00;3;  0.0000000E+00;  0.0000000E+00;  0.0000000E+00;0;  0.0000000E+00;  1.0000000E+04;  0.0000000E+00;  0.0000000E+00;  1.0000000E+04;  0.0000000E+00;  1.0000000E+04;  0.0000000E+00;  0.0000000E+00;  0.0000000E+00;  0.0000000E+00;
  5.4000002E-01;  9.9999998E-03; -1.4000000E-01;1874;  0.0000000E+00;  0.0000000E+00;  0.0000000E+00;  1.0000000E+03;  4.0000001E-01;  0.0000000E+00;3;  0.0000000E+00;  0.0000000E+00;  0.0000000E+00;0;  0.0000000E+00;  1.0000000E+04;  0.0000000E+00;  0.0000000E+00;  1.0000000E+04;  0.0000000E+00;  1.0000000E+04;  0.0000000E+00;  0.0000000E+00;  0.0000000E+00;  0.0000000E+00;
  5.4000002E-01;  9.9999998E-03; -1.2000000E-01;1875;  0.0000000E+00;  0.0000000E+00;  0.0000000E+00;  1.0000000E+03;  4.0000001E-01;  0.0000000E+00;3;  0.0000000E+00;  0.0000000E+00;  0.0000000E+00;0;  0.0000000E+00;  1.0000000E+04;  0.0000000E+00;  0.0000000E+00;  1.0000000E+04;  0.0000000E+00;  1.0000000E+04;  0.0000000E+00;  0.0000000E+00;  0.0000000E+00;  0.0000000E+00;
  5.4000002E-01;  9.9999998E-03; -1.0000000E-01;1876;  0.0000000E+00;  0.0000000E+00;  0.0000000E+00;  1.0000000E+03;  4.0000001E-01;  0.0000000E+00;3;  0.0000000E+00;  0.0000000E+00;  0.0000000E+00;0;  0.0000000E+00;  1.0000000E+04;  0.0000000E+00;  0.0000000E+00;  1.0000000E+04;  0.0000000E+00;  1.0000000E+04;  0.0000000E+00;  0.0000000E+00;  0.0000000E+00;  0.0000000E+00;
  5.4000002E-01;  9.9999998E-03; -7.9999998E-02;1877;  0.0000000E+00;  0.0000000E+00;  0.0000000E+00;  1.0000000E+03;  4.0000001E-01;  0.0000000E+00;3;  0.0000000E+00;  0.0000000E+00;  0.0000000E+00;0;  0.0000000E+00;  1.0000000E+04;  0.0000000E+00;  0.0000000E+00;  1.0000000E+04;  0.0000000E+00;  1.0000000E+04;  0.0000000E+00;  0.0000000E+00;  0.0000000E+00;  0.0000000E+00;
  5.4000002E-01;  9.9999998E-03; -5.9999999E-02;1878;  0.0000000E+00;  0.0000000E+00;  0.0000000E+00;  1.0000000E+03;  4.0000001E-01;  0.0000000E+00;3;  0.0000000E+00;  0.0000000E+00;  0.0000000E+00;0;  0.0000000E+00;  1.0000000E+04;  0.0000000E+00;  0.0000000E+00;  1.0000000E+04;  0.0000000E+00;  1.0000000E+04;  0.0000000E+00;  0.0000000E+00;  0.0000000E+00;  0.0000000E+00;
  5.4000002E-01;  9.9999998E-03; -3.9999999E-02;1879;  0.0000000E+00;  0.0000000E+00;  0.0000000E+00;  1.0000000E+03;  4.0000001E-01;  0.0000000E+00;3;  0.0000000E+00;  0.0000000E+00;  0.0000000E+00;0;  0.0000000E+00;  1.0000000E+04;  0.0000000E+00;  0.0000000E+00;  1.0000000E+04;  0.0000000E+00;  1.0000000E+04;  0.0000000E+00;  0.0000000E+00;  0.0000000E+00;  0.0000000E+00;
  5.4000002E-01;  9.9999998E-03; -2.0000000E-02;1880;  0.0000000E+00;  0.0000000E+00;  0.0000000E+00;  1.0000000E+03;  4.0000001E-01;  0.0000000E+00;3;  0.0000000E+00;  0.0000000E+00;  0.0000000E+00;0;  0.0000000E+00;  1.0000000E+04;  0.0000000E+00;  0.0000000E+00;  1.0000000E+04;  0.0000000E+00;  1.0000000E+04;  0.0000000E+00;  0.0000000E+00;  0.0000000E+00;  0.0000000E+00;
  5.6000000E-01;  9.9999998E-03; -1.8000001E-01;1903;  0.0000000E+00;  0.0000000E+00;  0.0000000E+00;  1.0000000E+03;  4.0000001E-01;  0.0000000E+00;3;  0.0000000E+00;  0.0000000E+00;  0.0000000E+00;0;  0.0000000E+00;  1.0000000E+04;  0.0000000E+00;  0.0000000E+00;  1.0000000E+04;  0.0000000E+00;  1.0000000E+04;  0.0000000E+00;  0.0000000E+00;  0.0000000E+00;  0.0000000E+00;
  5.6000000E-01;  9.9999998E-03; -1.6000000E-01;1904;  0.0000000E+00;  0.0000000E+00;  0.0000000E+00;  1.0000000E+03;  4.0000001E-01;  0.0000000E+00;3;  0.0000000E+00;  0.0000000E+00;  0.0000000E+00;0;  0.0000000E+00;  1.0000000E+04;  0.0000000E+00;  0.0000000E+00;  1.0000000E+04;  0.0000000E+00;  1.0000000E+04;  0.0000000E+00;  0.0000000E+00;  0.0000000E+00;  0.0000000E+00;
  5.6000000E-01;  9.9999998E-03; -1.4000000E-01;1905;  0.0000000E+00;  0.0000000E+00;  0.0000000E+00;  1.0000000E+03;  4.0000001E-01;  0.0000000E+00;3;  0.0000000E+00;  0.0000000E+00;  0.0000000E+00;0;  0.0000000E+00;  1.0000000E+04;  0.0000000E+00;  0.0000000E+00;  1.0000000E+04;  0.0000000E+00;  1.0000000E+04;  0.0000000E+00;  0.0000000E+00;  0.0000000E+00;  0.0000000E+00;
  5.6000000E-01;  9.9999998E-03; -1.2000000E-01;1906;  0.0000000E+00;  0.0000000E+00;  0.0000000E+00;  1.0000000E+03;  4.0000001E-01;  0.0000000E+00;3;  0.0000000E+00;  0.0000000E+00;  0.0000000E+00;0;  0.0000000E+00;  1.0000000E+04;  0.0000000E+00;  0.0000000E+00;  1.0000000E+04;  0.0000000E+00;  1.0000000E+04;  0.0000000E+00;  0.0000000E+00;  0.0000000E+00;  0.0000000E+00;
  5.6000000E-01;  9.9999998E-03; -1.0000000E-01;1907;  0.0000000E+00;  0.0000000E+00;  0.0000000E+00;  1.0000000E+03;  4.0000001E-01;  0.0000000E+00;3;  0.0000000E+00;  0.0000000E+00;  0.0000000E+00;0;  0.0000000E+00;  1.0000000E+04;  0.0000000E+00;  0.0000000E+00;  1.0000000E+04;  0.0000000E+00;  1.0000000E+04;  0.0000000E+00;  0.0000000E+00;  0.0000000E+00;  0.0000000E+00;
  5.6000000E-01;  9.9999998E-03; -7.9999998E-02;1908;  0.0000000E+00;  0.0000000E+00;  0.0000000E+00;  1.0000000E+03;  4.0000001E-01;  0.0000000E+00;3;  0.0000000E+00;  0.0000000E+00;  0.0000000E+00;0;  0.0000000E+00;  1.0000000E+04;  0.0000000E+00;  0.0000000E+00;  1.0000000E+04;  0.0000000E+00;  1.0000000E+04;  0.0000000E+00;  0.0000000E+00;  0.0000000E+00;  0.0000000E+00;
  5.6000000E-01;  9.9999998E-03; -5.9999999E-02;1909;  0.0000000E+00;  0.0000000E+00;  0.0000000E+00;  1.0000000E+03;  4.0000001E-01;  0.0000000E+00;3;  0.0000000E+00;  0.0000000E+00;  0.0000000E+00;0;  0.0000000E+00;  1.0000000E+04;  0.0000000E+00;  0.0000000E+00;  1.0000000E+04;  0.0000000E+00;  1.0000000E+04;  0.0000000E+00;  0.0000000E+00;  0.0000000E+00;  0.0000000E+00;
  5.6000000E-01;  9.9999998E-03; -3.9999999E-02;1910;  0.0000000E+00;  0.0000000E+00;  0.0000000E+00;  1.0000000E+03;  4.0000001E-01;  0.0000000E+00;3;  0.0000000E+00;  0.0000000E+00;  0.0000000E+00;0;  0.0000000E+00;  1.0000000E+04;  0.0000000E+00;  0.0000000E+00;  1.0000000E+04;  0.0000000E+00;  1.0000000E+04;  0.0000000E+00;  0.0000000E+00;  0.0000000E+00;  0.0000000E+00;
  5.6000000E-01;  9.9999998E-03; -2.0000000E-02;1911;  0.0000000E+00;  0.0000000E+00;  0.0000000E+00;  1.0000000E+03;  4.0000001E-01;  0.0000000E+00;3;  0.0000000E+00;  0.0000000E+00;  0.0000000E+00;0;  0.0000000E+00;  1.0000000E+04;  0.0000000E+00;  0.0000000E+00;  1.0000000E+04;  0.0000000E+00;  1.0000000E+04;  0.0000000E+00;  0.0000000E+00;  0.0000000E+00;  0.0000000E+00;
  5.7999998E-01;  9.9999998E-03; -1.8000001E-01;1934;  0.0000000E+00;  0.0000000E+00;  0.0000000E+00;  1.0000000E+03;  4.0000001E-01;  0.0000000E+00;3;  0.0000000E+00;  0.0000000E+00;  0.0000000E+00;0;  0.0000000E+00;  1.0000000E+04;  0.0000000E+00;  0.0000000E+00;  1.0000000E+04;  0.0000000E+00;  1.0000000E+04;  0.0000000E+00;  0.0000000E+00;  0.0000000E+00;  0.0000000E+00;
  5.7999998E-01;  9.9999998E-03; -1.6000000E-01;1935;  0.0000000E+00;  0.0000000E+00;  0.0000000E+00;  1.0000000E+03;  4.0000001E-01;  0.0000000E+00;3;  0.0000000E+00;  0.0000000E+00;  0.0000000E+00;0;  0.0000000E+00;  1.0000000E+04;  0.0000000E+00;  0.0000000E+00;  1.0000000E+04;  0.0000000E+00;  1.0000000E+04;  0.0000000E+00;  0.0000000E+00;  0.0000000E+00;  0.0000000E+00;
  5.7999998E-01;  9.9999998E-03; -1.4000000E-01;1936;  0.0000000E+00;  0.0000000E+00;  0.0000000E+00;  1.0000000E+03;  4.0000001E-01;  0.0000000E+00;3;  0.0000000E+00;  0.0000000E+00;  0.0000000E+00;0;  0.0000000E+00;  1.0000000E+04;  0.0000000E+00;  0.0000000E+00;  1.0000000E+04;  0.0000000E+00;  1.0000000E+04;  0.0000000E+00;  0.0000000E+00;  0.0000000E+00;  0.0000000E+00;
  5.7999998E-01;  9.9999998E-03; -1.2000000E-01;1937;  0.0000000E+00;  0.0000000E+00;  0.0000000E+00;  1.0000000E+03;  4.0000001E-01;  0.0000000E+00;3;  0.0000000E+00;  0.0000000E+00;  0.0000000E+00;0;  0.0000000E+00;  1.0000000E+04;  0.0000000E+00;  0.0000000E+00;  1.0000000E+04;  0.0000000E+00;  1.0000000E+04;  0.0000000E+00;  0.0000000E+00;  0.0000000E+00;  0.0000000E+00;
  5.7999998E-01;  9.9999998E-03; -1.0000000E-01;1938;  0.0000000E+00;  0.0000000E+00;  0.0000000E+00;  1.0000000E+03;  4.0000001E-01;  0.0000000E+00;3;  0.0000000E+00;  0.0000000E+00;  0.0000000E+00;0;  0.0000000E+00;  1.0000000E+04;  0.0000000E+00;  0.0000000E+00;  1.0000000E+04;  0.0000000E+00;  1.0000000E+04;  0.0000000E+00;  0.0000000E+00;  0.0000000E+00;  0.0000000E+00;
  5.7999998E-01;  9.9999998E-03; -7.9999998E-02;1939;  0.0000000E+00;  0.0000000E+00;  0.0000000E+00;  1.0000000E+03;  4.0000001E-01;  0.0000000E+00;3;  0.0000000E+00;  0.0000000E+00;  0.0000000E+00;0;  0.0000000E+00;  1.0000000E+04;  0.0000000E+00;  0.0000000E+00;  1.0000000E+04;  0.0000000E+00;  1.0000000E+04;  0.0000000E+00;  0.0000000E+00;  0.0000000E+00;  0.0000000E+00;
  5.7999998E-01;  9.9999998E-03; -5.9999999E-02;1940;  0.0000000E+00;  0.0000000E+00;  0.0000000E+00;  1.0000000E+03;  4.0000001E-01;  0.0000000E+00;3;  0.0000000E+00;  0.0000000E+00;  0.0000000E+00;0;  0.0000000E+00;  1.0000000E+04;  0.0000000E+00;  0.0000000E+00;  1.0000000E+04;  0.0000000E+00;  1.0000000E+04;  0.0000000E+00;  0.0000000E+00;  0.0000000E+00;  0.0000000E+00;
  5.7999998E-01;  9.9999998E-03; -3.9999999E-02;1941;  0.0000000E+00;  0.0000000E+00;  0.0000000E+00;  1.0000000E+03;  4.0000001E-01;  0.0000000E+00;3;  0.0000000E+00;  0.0000000E+00;  0.0000000E+00;0;  0.0000000E+00;  1.0000000E+04;  0.0000000E+00;  0.0000000E+00;  1.0000000E+04;  0.0000000E+00;  1.0000000E+04;  0.0000000E+00;  0.0000000E+00;  0.0000000E+00;  0.0000000E+00;
  5.7999998E-01;  9.9999998E-03; -2.0000000E-02;1942;  0.0000000E+00;  0.0000000E+00;  0.0000000E+00;  1.0000000E+03;  4.0000001E-01;  0.0000000E+00;3;  0.0000000E+00;  0.0000000E+00;  0.0000000E+00;0;  0.0000000E+00;  1.0000000E+04;  0.0000000E+00;  0.0000000E+00;  1.0000000E+04;  0.0000000E+00;  1.0000000E+04;  0.0000000E+00;  0.0000000E+00;  0.0000000E+00;  0.0000000E+00;
  6.0000002E-01;  9.9999998E-03; -1.8000001E-01;1965;  0.0000000E+00;  0.0000000E+00;  0.0000000E+00;  1.0000000E+03;  4.0000001E-01;  0.0000000E+00;3;  0.0000000E+00;  0.0000000E+00;  0.0000000E+00;0;  0.0000000E+00;  1.0000000E+04;  0.0000000E+00;  0.0000000E+00;  1.0000000E+04;  0.0000000E+00;  1.0000000E+04;  0.0000000E+00;  0.0000000E+00;  0.0000000E+00;  0.0000000E+00;
  6.0000002E-01;  9.9999998E-03; -1.6000000E-01;1966;  0.0000000E+00;  0.0000000E+00;  0.0000000E+00;  1.0000000E+03;  4.0000001E-01;  0.0000000E+00;3;  0.0000000E+00;  0.0000000E+00;  0.0000000E+00;0;  0.0000000E+00;  1.0000000E+04;  0.0000000E+00;  0.0000000E+00;  1.0000000E+04;  0.0000000E+00;  1.0000000E+04;  0.0000000E+00;  0.0000000E+00;  0.0000000E+00;  0.0000000E+00;
  6.0000002E-01;  9.9999998E-03; -1.4000000E-01;1967;  0.0000000E+00;  0.0000000E+00;  0.0000000E+00;  1.0000000E+03;  4.0000001E-01;  0.0000000E+00;3;  0.0000000E+00;  0.0000000E+00;  0.0000000E+00;0;  0.0000000E+00;  1.0000000E+04;  0.0000000E+00;  0.0000000E+00;  1.0000000E+04;  0.0000000E+00;  1.0000000E+04;  0.0000000E+00;  0.0000000E+00;  0.0000000E+00;  0.0000000E+00;
  6.0000002E-01;  9.9999998E-03; -1.2000000E-01;1968;  0.0000000E+00;  0.0000000E+00;  0.0000000E+00;  1.0000000E+03;  4.0000001E-01;  0.0000000E+00;3;  0.0000000E+00;  0.0000000E+00;  0.0000000E+00;0;  0.0000000E+00;  1.0000000E+04;  0.0000000E+00;  0.0000000E+00;  1.0000000E+04;  0.0000000E+00;  1.0000000E+04;  0.0000000E+00;  0.0000000E+00;  0.0000000E+00;  0.0000000E+00;
  6.0000002E-01;  9.9999998E-03; -1.0000000E-01;1969;  0.0000000E+00;  0.0000000E+00;  0.0000000E+00;  1.0000000E+03;  4.0000001E-01;  0.0000000E+00;3;  0.0000000E+00;  0.0000000E+00;  0.0000000E+00;0;  0.0000000E+00;  1.0000000E+04;  0.0000000E+00;  0.0000000E+00;  1.0000000E+04;  0.0000000E+00;  1.0000000E+04;  0.0000000E+00;  0.0000000E+00;  0.0000000E+00;  0.0000000E+00;
  6.0000002E-01;  9.9999998E-03; -7.9999998E-02;1970;  0.0000000E+00;  0.0000000E+00;  0.0000000E+00;  1.0000000E+03;  4.0000001E-01;  0.0000000E+00;3;  0.0000000E+00;  0.0000000E+00;  0.0000000E+00;0;  0.0000000E+00;  1.0000000E+04;  0.0000000E+00;  0.0000000E+00;  1.0000000E+04;  0.0000000E+00;  1.0000000E+04;  0.0000000E+00;  0.0000000E+00;  0.0000000E+00;  0.0000000E+00;
  6.0000002E-01;  9.9999998E-03; -5.9999999E-02;1971;  0.0000000E+00;  0.0000000E+00;  0.0000000E+00;  1.0000000E+03;  4.0000001E-01;  0.0000000E+00;3;  0.0000000E+00;  0.0000000E+00;  0.0000000E+00;0;  0.0000000E+00;  1.0000000E+04;  0.0000000E+00;  0.0000000E+00;  1.0000000E+04;  0.0000000E+00;  1.0000000E+04;  0.0000000E+00;  0.0000000E+00;  0.0000000E+00;  0.0000000E+00;
  6.0000002E-01;  9.9999998E-03; -3.9999999E-02;1972;  0.0000000E+00;  0.0000000E+00;  0.0000000E+00;  1.0000000E+03;  4.0000001E-01;  0.0000000E+00;3;  0.0000000E+00;  0.0000000E+00;  0.0000000E+00;0;  0.0000000E+00;  1.0000000E+04;  0.0000000E+00;  0.0000000E+00;  1.0000000E+04;  0.0000000E+00;  1.0000000E+04;  0.0000000E+00;  0.0000000E+00;  0.0000000E+00;  0.0000000E+00;
  6.0000002E-01;  9.9999998E-03; -2.0000000E-02;1973;  0.0000000E+00;  0.0000000E+00;  0.0000000E+00;  1.0000000E+03;  4.0000001E-01;  0.0000000E+00;3;  0.0000000E+00;  0.0000000E+00;  0.0000000E+00;0;  0.0000000E+00;  1.0000000E+04;  0.0000000E+00;  0.0000000E+00;  1.0000000E+04;  0.0000000E+00;  1.0000000E+04;  0.0000000E+00;  0.0000000E+00;  0.0000000E+00;  0.0000000E+00;
  6.2000000E-01;  9.9999998E-03; -1.8000001E-01;1996;  0.0000000E+00;  0.0000000E+00;  0.0000000E+00;  1.0000000E+03;  4.0000001E-01;  0.0000000E+00;3;  0.0000000E+00;  0.0000000E+00;  0.0000000E+00;0;  0.0000000E+00;  1.0000000E+04;  0.0000000E+00;  0.0000000E+00;  1.0000000E+04;  0.0000000E+00;  1.0000000E+04;  0.0000000E+00;  0.0000000E+00;  0.0000000E+00;  0.0000000E+00;
  6.2000000E-01;  9.9999998E-03; -1.6000000E-01;1997;  0.0000000E+00;  0.0000000E+00;  0.0000000E+00;  1.0000000E+03;  4.0000001E-01;  0.0000000E+00;3;  0.0000000E+00;  0.0000000E+00;  0.0000000E+00;0;  0.0000000E+00;  1.0000000E+04;  0.0000000E+00;  0.0000000E+00;  1.0000000E+04;  0.0000000E+00;  1.0000000E+04;  0.0000000E+00;  0.0000000E+00;  0.0000000E+00;  0.0000000E+00;
  6.2000000E-01;  9.9999998E-03; -1.4000000E-01;1998;  0.0000000E+00;  0.0000000E+00;  0.0000000E+00;  1.0000000E+03;  4.0000001E-01;  0.0000000E+00;3;  0.0000000E+00;  0.0000000E+00;  0.0000000E+00;0;  0.0000000E+00;  1.0000000E+04;  0.0000000E+00;  0.0000000E+00;  1.0000000E+04;  0.0000000E+00;  1.0000000E+04;  0.0000000E+00;  0.0000000E+00;  0.0000000E+00;  0.0000000E+00;
  6.2000000E-01;  9.9999998E-03; -1.2000000E-01;1999;  0.0000000E+00;  0.0000000E+00;  0.0000000E+00;  1.0000000E+03;  4.0000001E-01;  0.0000000E+00;3;  0.0000000E+00;  0.0000000E+00;  0.0000000E+00;0;  0.0000000E+00;  1.0000000E+04;  0.0000000E+00;  0.0000000E+00;  1.0000000E+04;  0.0000000E+00;  1.0000000E+04;  0.0000000E+00;  0.0000000E+00;  0.0000000E+00;  0.0000000E+00;
  6.2000000E-01;  9.9999998E-03; -1.0000000E-01;2000;  0.0000000E+00;  0.0000000E+00;  0.0000000E+00;  1.0000000E+03;  4.0000001E-01;  0.0000000E+00;3;  0.0000000E+00;  0.0000000E+00;  0.0000000E+00;0;  0.0000000E+00;  1.0000000E+04;  0.0000000E+00;  0.0000000E+00;  1.0000000E+04;  0.0000000E+00;  1.0000000E+04;  0.0000000E+00;  0.0000000E+00;  0.0000000E+00;  0.0000000E+00;
  6.2000000E-01;  9.9999998E-03; -7.9999998E-02;2001;  0.0000000E+00;  0.0000000E+00;  0.0000000E+00;  1.0000000E+03;  4.0000001E-01;  0.0000000E+00;3;  0.0000000E+00;  0.0000000E+00;  0.0000000E+00;0;  0.0000000E+00;  1.0000000E+04;  0.0000000E+00;  0.0000000E+00;  1.0000000E+04;  0.0000000E+00;  1.0000000E+04;  0.0000000E+00;  0.0000000E+00;  0.0000000E+00;  0.0000000E+00;
  6.2000000E-01;  9.9999998E-03; -5.9999999E-02;2002;  0.0000000E+00;  0.0000000E+00;  0.0000000E+00;  1.0000000E+03;  4.0000001E-01;  0.0000000E+00;3;  0.0000000E+00;  0.0000000E+00;  0.0000000E+00;0;  0.0000000E+00;  1.0000000E+04;  0.0000000E+00;  0.0000000E+00;  1.0000000E+04;  0.0000000E+00;  1.0000000E+04;  0.0000000E+00;  0.0000000E+00;  0.0000000E+00;  0.0000000E+00;
  6.2000000E-01;  9.9999998E-03; -3.9999999E-02;2003;  0.0000000E+00;  0.0000000E+00;  0.0000000E+00;  1.0000000E+03;  4.0000001E-01;  0.0000000E+00;3;  0.0000000E+00;  0.0000000E+00;  0.0000000E+00;0;  0.0000000E+00;  1.0000000E+04;  0.0000000E+00;  0.0000000E+00;  1.0000000E+04;  0.0000000E+00;  1.0000000E+04;  0.0000000E+00;  0.0000000E+00;  0.0000000E+00;  0.0000000E+00;
  6.2000000E-01;  9.9999998E-03; -2.0000000E-02;2004;  0.0000000E+00;  0.0000000E+00;  0.0000000E+00;  1.0000000E+03;  4.0000001E-01;  0.0000000E+00;3;  0.0000000E+00;  0.0000000E+00;  0.0000000E+00;0;  0.0000000E+00;  1.0000000E+04;  0.0000000E+00;  0.0000000E+00;  1.0000000E+04;  0.0000000E+00;  1.0000000E+04;  0.0000000E+00;  0.0000000E+00;  0.0000000E+00;  0.0000000E+00;
  6.3999999E-01;  9.9999998E-03; -1.8000001E-01;2027;  0.0000000E+00;  0.0000000E+00;  0.0000000E+00;  1.0000000E+03;  4.0000001E-01;  0.0000000E+00;3;  0.0000000E+00;  0.0000000E+00;  0.0000000E+00;0;  0.0000000E+00;  1.0000000E+04;  0.0000000E+00;  0.0000000E+00;  1.0000000E+04;  0.0000000E+00;  1.0000000E+04;  0.0000000E+00;  0.0000000E+00;  0.0000000E+00;  0.0000000E+00;
  6.3999999E-01;  9.9999998E-03; -1.6000000E-01;2028;  0.0000000E+00;  0.0000000E+00;  0.0000000E+00;  1.0000000E+03;  4.0000001E-01;  0.0000000E+00;3;  0.0000000E+00;  0.0000000E+00;  0.0000000E+00;0;  0.0000000E+00;  1.0000000E+04;  0.0000000E+00;  0.0000000E+00;  1.0000000E+04;  0.0000000E+00;  1.0000000E+04;  0.0000000E+00;  0.0000000E+00;  0.0000000E+00;  0.0000000E+00;
  6.3999999E-01;  9.9999998E-03; -1.4000000E-01;2029;  0.0000000E+00;  0.0000000E+00;  0.0000000E+00;  1.0000000E+03;  4.0000001E-01;  0.0000000E+00;3;  0.0000000E+00;  0.0000000E+00;  0.0000000E+00;0;  0.0000000E+00;  1.0000000E+04;  0.0000000E+00;  0.0000000E+00;  1.0000000E+04;  0.0000000E+00;  1.0000000E+04;  0.0000000E+00;  0.0000000E+00;  0.0000000E+00;  0.0000000E+00;
  6.3999999E-01;  9.9999998E-03; -1.2000000E-01;2030;  0.0000000E+00;  0.0000000E+00;  0.0000000E+00;  1.0000000E+03;  4.0000001E-01;  0.0000000E+00;3;  0.0000000E+00;  0.0000000E+00;  0.0000000E+00;0;  0.0000000E+00;  1.0000000E+04;  0.0000000E+00;  0.0000000E+00;  1.0000000E+04;  0.0000000E+00;  1.0000000E+04;  0.0000000E+00;  0.0000000E+00;  0.0000000E+00;  0.0000000E+00;
  6.3999999E-01;  9.9999998E-03; -1.0000000E-01;2031;  0.0000000E+00;  0.0000000E+00;  0.0000000E+00;  1.0000000E+03;  4.0000001E-01;  0.0000000E+00;3;  0.0000000E+00;  0.0000000E+00;  0.0000000E+00;0;  0.0000000E+00;  1.0000000E+04;  0.0000000E+00;  0.0000000E+00;  1.0000000E+04;  0.0000000E+00;  1.0000000E+04;  0.0000000E+00;  0.0000000E+00;  0.0000000E+00;  0.0000000E+00;
  6.3999999E-01;  9.9999998E-03; -7.9999998E-02;2032;  0.0000000E+00;  0.0000000E+00;  0.0000000E+00;  1.0000000E+03;  4.0000001E-01;  0.0000000E+00;3;  0.0000000E+00;  0.0000000E+00;  0.0000000E+00;0;  0.0000000E+00;  1.0000000E+04;  0.0000000E+00;  0.0000000E+00;  1.0000000E+04;  0.0000000E+00;  1.0000000E+04;  0.0000000E+00;  0.0000000E+00;  0.0000000E+00;  0.0000000E+00;
  6.3999999E-01;  9.9999998E-03; -5.9999999E-02;2033;  0.0000000E+00;  0.0000000E+00;  0.0000000E+00;  1.0000000E+03;  4.0000001E-01;  0.0000000E+00;3;  0.0000000E+00;  0.0000000E+00;  0.0000000E+00;0;  0.0000000E+00;  1.0000000E+04;  0.0000000E+00;  0.0000000E+00;  1.0000000E+04;  0.0000000E+00;  1.0000000E+04;  0.0000000E+00;  0.0000000E+00;  0.0000000E+00;  0.0000000E+00;
  6.3999999E-01;  9.9999998E-03; -3.9999999E-02;2034;  0.0000000E+00;  0.0000000E+00;  0.0000000E+00;  1.0000000E+03;  4.0000001E-01;  0.0000000E+00;3;  0.0000000E+00;  0.0000000E+00;  0.0000000E+00;0;  0.0000000E+00;  1.0000000E+04;  0.0000000E+00;  0.0000000E+00;  1.0000000E+04;  0.0000000E+00;  1.0000000E+04;  0.0000000E+00;  0.0000000E+00;  0.0000000E+00;  0.0000000E+00;
  6.3999999E-01;  9.9999998E-03; -2.0000000E-02;2035;  0.0000000E+00;  0.0000000E+00;  0.0000000E+00;  1.0000000E+03;  4.0000001E-01;  0.0000000E+00;3;  0.0000000E+00;  0.0000000E+00;  0.0000000E+00;0;  0.0000000E+00;  1.0000000E+04;  0.0000000E+00;  0.0000000E+00;  1.0000000E+04;  0.0000000E+00;  1.0000000E+04;  0.0000000E+00;  0.0000000E+00;  0.0000000E+00;  0.0000000E+00;
  6.6000003E-01;  9.9999998E-03; -1.8000001E-01;2058;  0.0000000E+00;  0.0000000E+00;  0.0000000E+00;  1.0000000E+03;  4.0000001E-01;  0.0000000E+00;3;  0.0000000E+00;  0.0000000E+00;  0.0000000E+00;0;  0.0000000E+00;  1.0000000E+04;  0.0000000E+00;  0.0000000E+00;  1.0000000E+04;  0.0000000E+00;  1.0000000E+04;  0.0000000E+00;  0.0000000E+00;  0.0000000E+00;  0.0000000E+00;
  6.6000003E-01;  9.9999998E-03; -1.6000000E-01;2059;  0.0000000E+00;  0.0000000E+00;  0.0000000E+00;  1.0000000E+03;  4.0000001E-01;  0.0000000E+00;3;  0.0000000E+00;  0.0000000E+00;  0.0000000E+00;0;  0.0000000E+00;  1.0000000E+04;  0.0000000E+00;  0.0000000E+00;  1.0000000E+04;  0.0000000E+00;  1.0000000E+04;  0.0000000E+00;  0.0000000E+00;  0.0000000E+00;  0.0000000E+00;
  6.6000003E-01;  9.9999998E-03; -1.4000000E-01;2060;  0.0000000E+00;  0.0000000E+00;  0.0000000E+00;  1.0000000E+03;  4.0000001E-01;  0.0000000E+00;3;  0.0000000E+00;  0.0000000E+00;  0.0000000E+00;0;  0.0000000E+00;  1.0000000E+04;  0.0000000E+00;  0.0000000E+00;  1.0000000E+04;  0.0000000E+00;  1.0000000E+04;  0.0000000E+00;  0.0000000E+00;  0.0000000E+00;  0.0000000E+00;
  6.6000003E-01;  9.9999998E-03; -1.2000000E-01;2061;  0.0000000E+00;  0.0000000E+00;  0.0000000E+00;  1.0000000E+03;  4.0000001E-01;  0.0000000E+00;3;  0.0000000E+00;  0.0000000E+00;  0.0000000E+00;0;  0.0000000E+00;  1.0000000E+04;  0.0000000E+00;  0.0000000E+00;  1.0000000E+04;  0.0000000E+00;  1.0000000E+04;  0.0000000E+00;  0.0000000E+00;  0.0000000E+00;  0.0000000E+00;
  6.6000003E-01;  9.9999998E-03; -1.0000000E-01;2062;  0.0000000E+00;  0.0000000E+00;  0.0000000E+00;  1.0000000E+03;  4.0000001E-01;  0.0000000E+00;3;  0.0000000E+00;  0.0000000E+00;  0.0000000E+00;0;  0.0000000E+00;  1.0000000E+04;  0.0000000E+00;  0.0000000E+00;  1.0000000E+04;  0.0000000E+00;  1.0000000E+04;  0.0000000E+00;  0.0000000E+00;  0.0000000E+00;  0.0000000E+00;
  6.6000003E-01;  9.9999998E-03; -7.9999998E-02;2063;  0.0000000E+00;  0.0000000E+00;  0.0000000E+00;  1.0000000E+03;  4.0000001E-01;  0.0000000E+00;3;  0.0000000E+00;  0.0000000E+00;  0.0000000E+00;0;  0.0000000E+00;  1.0000000E+04;  0.0000000E+00;  0.0000000E+00;  1.0000000E+04;  0.0000000E+00;  1.0000000E+04;  0.0000000E+00;  0.0000000E+00;  0.0000000E+00;  0.0000000E+00;
  6.6000003E-01;  9.9999998E-03; -5.9999999E-02;2064;  0.0000000E+00;  0.0000000E+00;  0.0000000E+00;  1.0000000E+03;  4.0000001E-01;  0.0000000E+00;3;  0.0000000E+00;  0.0000000E+00;  0.0000000E+00;0;  0.0000000E+00;  1.0000000E+04;  0.0000000E+00;  0.0000000E+00;  1.0000000E+04;  0.0000000E+00;  1.0000000E+04;  0.0000000E+00;  0.0000000E+00;  0.0000000E+00;  0.0000000E+00;
  6.6000003E-01;  9.9999998E-03; -3.9999999E-02;2065;  0.0000000E+00;  0.0000000E+00;  0.0000000E+00;  1.0000000E+03;  4.0000001E-01;  0.0000000E+00;3;  0.0000000E+00;  0.0000000E+00;  0.0000000E+00;0;  0.0000000E+00;  1.0000000E+04;  0.0000000E+00;  0.0000000E+00;  1.0000000E+04;  0.0000000E+00;  1.0000000E+04;  0.0000000E+00;  0.0000000E+00;  0.0000000E+00;  0.0000000E+00;
  6.6000003E-01;  9.9999998E-03; -2.0000000E-02;2066;  0.0000000E+00;  0.0000000E+00;  0.0000000E+00;  1.0000000E+03;  4.0000001E-01;  0.0000000E+00;3;  0.0000000E+00;  0.0000000E+00;  0.0000000E+00;0;  0.0000000E+00;  1.0000000E+04;  0.0000000E+00;  0.0000000E+00;  1.0000000E+04;  0.0000000E+00;  1.0000000E+04;  0.0000000E+00;  0.0000000E+00;  0.0000000E+00;  0.0000000E+00;
  6.8000001E-01;  9.9999998E-03; -1.8000001E-01;2089;  0.0000000E+00;  0.0000000E+00;  0.0000000E+00;  1.0000000E+03;  4.0000001E-01;  0.0000000E+00;3;  0.0000000E+00;  0.0000000E+00;  0.0000000E+00;0;  0.0000000E+00;  1.0000000E+04;  0.0000000E+00;  0.0000000E+00;  1.0000000E+04;  0.0000000E+00;  1.0000000E+04;  0.0000000E+00;  0.0000000E+00;  0.0000000E+00;  0.0000000E+00;
  6.8000001E-01;  9.9999998E-03; -1.6000000E-01;2090;  0.0000000E+00;  0.0000000E+00;  0.0000000E+00;  1.0000000E+03;  4.0000001E-01;  0.0000000E+00;3;  0.0000000E+00;  0.0000000E+00;  0.0000000E+00;0;  0.0000000E+00;  1.0000000E+04;  0.0000000E+00;  0.0000000E+00;  1.0000000E+04;  0.0000000E+00;  1.0000000E+04;  0.0000000E+00;  0.0000000E+00;  0.0000000E+00;  0.0000000E+00;
  6.8000001E-01;  9.9999998E-03; -1.4000000E-01;2091;  0.0000000E+00;  0.0000000E+00;  0.0000000E+00;  1.0000000E+03;  4.0000001E-01;  0.0000000E+00;3;  0.0000000E+00;  0.0000000E+00;  0.0000000E+00;0;  0.0000000E+00;  1.0000000E+04;  0.0000000E+00;  0.0000000E+00;  1.0000000E+04;  0.0000000E+00;  1.0000000E+04;  0.0000000E+00;  0.0000000E+00;  0.0000000E+00;  0.0000000E+00;
  6.8000001E-01;  9.9999998E-03; -1.2000000E-01;2092;  0.0000000E+00;  0.0000000E+00;  0.0000000E+00;  1.0000000E+03;  4.0000001E-01;  0.0000000E+00;3;  0.0000000E+00;  0.0000000E+00;  0.0000000E+00;0;  0.0000000E+00;  1.0000000E+04;  0.0000000E+00;  0.0000000E+00;  1.0000000E+04;  0.0000000E+00;  1.0000000E+04;  0.0000000E+00;  0.0000000E+00;  0.0000000E+00;  0.0000000E+00;
  6.8000001E-01;  9.9999998E-03; -1.0000000E-01;2093;  0.0000000E+00;  0.0000000E+00;  0.0000000E+00;  1.0000000E+03;  4.0000001E-01;  0.0000000E+00;3;  0.0000000E+00;  0.0000000E+00;  0.0000000E+00;0;  0.0000000E+00;  1.0000000E+04;  0.0000000E+00;  0.0000000E+00;  1.0000000E+04;  0.0000000E+00;  1.0000000E+04;  0.0000000E+00;  0.0000000E+00;  0.0000000E+00;  0.0000000E+00;
  6.8000001E-01;  9.9999998E-03; -7.9999998E-02;2094;  0.0000000E+00;  0.0000000E+00;  0.0000000E+00;  1.0000000E+03;  4.0000001E-01;  0.0000000E+00;3;  0.0000000E+00;  0.0000000E+00;  0.0000000E+00;0;  0.0000000E+00;  1.0000000E+04;  0.0000000E+00;  0.0000000E+00;  1.0000000E+04;  0.0000000E+00;  1.0000000E+04;  0.0000000E+00;  0.0000000E+00;  0.0000000E+00;  0.0000000E+00;
  6.8000001E-01;  9.9999998E-03; -5.9999999E-02;2095;  0.0000000E+00;  0.0000000E+00;  0.0000000E+00;  1.0000000E+03;  4.0000001E-01;  0.0000000E+00;3;  0.0000000E+00;  0.0000000E+00;  0.0000000E+00;0;  0.0000000E+00;  1.0000000E+04;  0.0000000E+00;  0.0000000E+00;  1.0000000E+04;  0.0000000E+00;  1.0000000E+04;  0.0000000E+00;  0.0000000E+00;  0.0000000E+00;  0.0000000E+00;
  6.8000001E-01;  9.9999998E-03; -3.9999999E-02;2096;  0.0000000E+00;  0.0000000E+00;  0.0000000E+00;  1.0000000E+03;  4.0000001E-01;  0.0000000E+00;3;  0.0000000E+00;  0.0000000E+00;  0.0000000E+00;0;  0.0000000E+00;  1.0000000E+04;  0.0000000E+00;  0.0000000E+00;  1.0000000E+04;  0.0000000E+00;  1.0000000E+04;  0.0000000E+00;  0.0000000E+00;  0.0000000E+00;  0.0000000E+00;
  6.8000001E-01;  9.9999998E-03; -2.0000000E-02;2097;  0.0000000E+00;  0.0000000E+00;  0.0000000E+00;  1.0000000E+03;  4.0000001E-01;  0.0000000E+00;3;  0.0000000E+00;  0.0000000E+00;  0.0000000E+00;0;  0.0000000E+00;  1.0000000E+04;  0.0000000E+00;  0.0000000E+00;  1.0000000E+04;  0.0000000E+00;  1.0000000E+04;  0.0000000E+00;  0.0000000E+00;  0.0000000E+00;  0.0000000E+00;
  6.9999999E-01;  9.9999998E-03; -1.8000001E-01;2120;  0.0000000E+00;  0.0000000E+00;  0.0000000E+00;  1.0000000E+03;  4.0000001E-01;  0.0000000E+00;3;  0.0000000E+00;  0.0000000E+00;  0.0000000E+00;0;  0.0000000E+00;  1.0000000E+04;  0.0000000E+00;  0.0000000E+00;  1.0000000E+04;  0.0000000E+00;  1.0000000E+04;  0.0000000E+00;  0.0000000E+00;  0.0000000E+00;  0.0000000E+00;
  6.9999999E-01;  9.9999998E-03; -1.6000000E-01;2121;  0.0000000E+00;  0.0000000E+00;  0.0000000E+00;  1.0000000E+03;  4.0000001E-01;  0.0000000E+00;3;  0.0000000E+00;  0.0000000E+00;  0.0000000E+00;0;  0.0000000E+00;  1.0000000E+04;  0.0000000E+00;  0.0000000E+00;  1.0000000E+04;  0.0000000E+00;  1.0000000E+04;  0.0000000E+00;  0.0000000E+00;  0.0000000E+00;  0.0000000E+00;
  6.9999999E-01;  9.9999998E-03; -1.4000000E-01;2122;  0.0000000E+00;  0.0000000E+00;  0.0000000E+00;  1.0000000E+03;  4.0000001E-01;  0.0000000E+00;3;  0.0000000E+00;  0.0000000E+00;  0.0000000E+00;0;  0.0000000E+00;  1.0000000E+04;  0.0000000E+00;  0.0000000E+00;  1.0000000E+04;  0.0000000E+00;  1.0000000E+04;  0.0000000E+00;  0.0000000E+00;  0.0000000E+00;  0.0000000E+00;
  6.9999999E-01;  9.9999998E-03; -1.2000000E-01;2123;  0.0000000E+00;  0.0000000E+00;  0.0000000E+00;  1.0000000E+03;  4.0000001E-01;  0.0000000E+00;3;  0.0000000E+00;  0.0000000E+00;  0.0000000E+00;0;  0.0000000E+00;  1.0000000E+04;  0.0000000E+00;  0.0000000E+00;  1.0000000E+04;  0.0000000E+00;  1.0000000E+04;  0.0000000E+00;  0.0000000E+00;  0.0000000E+00;  0.0000000E+00;
  6.9999999E-01;  9.9999998E-03; -1.0000000E-01;2124;  0.0000000E+00;  0.0000000E+00;  0.0000000E+00;  1.0000000E+03;  4.0000001E-01;  0.0000000E+00;3;  0.0000000E+00;  0.0000000E+00;  0.0000000E+00;0;  0.0000000E+00;  1.0000000E+04;  0.0000000E+00;  0.0000000E+00;  1.0000000E+04;  0.0000000E+00;  1.0000000E+04;  0.0000000E+00;  0.0000000E+00;  0.0000000E+00;  0.0000000E+00;
  6.9999999E-01;  9.9999998E-03; -7.9999998E-02;2125;  0.0000000E+00;  0.0000000E+00;  0.0000000E+00;  1.0000000E+03;  4.0000001E-01;  0.0000000E+00;3;  0.0000000E+00;  0.0000000E+00;  0.0000000E+00;0;  0.0000000E+00;  1.0000000E+04;  0.0000000E+00;  0.0000000E+00;  1.0000000E+04;  0.0000000E+00;  1.0000000E+04;  0.0000000E+00;  0.0000000E+00;  0.0000000E+00;  0.0000000E+00;
  6.9999999E-01;  9.9999998E-03; -5.9999999E-02;2126;  0.0000000E+00;  0.0000000E+00;  0.0000000E+00;  1.0000000E+03;  4.0000001E-01;  0.0000000E+00;3;  0.0000000E+00;  0.0000000E+00;  0.0000000E+00;0;  0.0000000E+00;  1.0000000E+04;  0.0000000E+00;  0.0000000E+00;  1.0000000E+04;  0.0000000E+00;  1.0000000E+04;  0.0000000E+00;  0.0000000E+00;  0.0000000E+00;  0.0000000E+00;
  6.9999999E-01;  9.9999998E-03; -3.9999999E-02;2127;  0.0000000E+00;  0.0000000E+00;  0.0000000E+00;  1.0000000E+03;  4.0000001E-01;  0.0000000E+00;3;  0.0000000E+00;  0.0000000E+00;  0.0000000E+00;0;  0.0000000E+00;  1.0000000E+04;  0.0000000E+00;  0.0000000E+00;  1.0000000E+04;  0.0000000E+00;  1.0000000E+04;  0.0000000E+00;  0.0000000E+00;  0.0000000E+00;  0.0000000E+00;
  6.9999999E-01;  9.9999998E-03; -2.0000000E-02;2128;  0.0000000E+00;  0.0000000E+00;  0.0000000E+00;  1.0000000E+03;  4.0000001E-01;  0.0000000E+00;3;  0.0000000E+00;  0.0000000E+00;  0.0000000E+00;0;  0.0000000E+00;  1.0000000E+04;  0.0000000E+00;  0.0000000E+00;  1.0000000E+04;  0.0000000E+00;  1.0000000E+04;  0.0000000E+00;  0.0000000E+00;  0.0000000E+00;  0.0000000E+00;
  7.2000003E-01;  9.9999998E-03; -1.8000001E-01;2151;  0.0000000E+00;  0.0000000E+00;  0.0000000E+00;  1.0000000E+03;  4.0000001E-01;  0.0000000E+00;3;  0.0000000E+00;  0.0000000E+00;  0.0000000E+00;0;  0.0000000E+00;  1.0000000E+04;  0.0000000E+00;  0.0000000E+00;  1.0000000E+04;  0.0000000E+00;  1.0000000E+04;  0.0000000E+00;  0.0000000E+00;  0.0000000E+00;  0.0000000E+00;
  7.2000003E-01;  9.9999998E-03; -1.6000000E-01;2152;  0.0000000E+00;  0.0000000E+00;  0.0000000E+00;  1.0000000E+03;  4.0000001E-01;  0.0000000E+00;3;  0.0000000E+00;  0.0000000E+00;  0.0000000E+00;0;  0.0000000E+00;  1.0000000E+04;  0.0000000E+00;  0.0000000E+00;  1.0000000E+04;  0.0000000E+00;  1.0000000E+04;  0.0000000E+00;  0.0000000E+00;  0.0000000E+00;  0.0000000E+00;
  7.2000003E-01;  9.9999998E-03; -1.4000000E-01;2153;  0.0000000E+00;  0.0000000E+00;  0.0000000E+00;  1.0000000E+03;  4.0000001E-01;  0.0000000E+00;3;  0.0000000E+00;  0.0000000E+00;  0.0000000E+00;0;  0.0000000E+00;  1.0000000E+04;  0.0000000E+00;  0.0000000E+00;  1.0000000E+04;  0.0000000E+00;  1.0000000E+04;  0.0000000E+00;  0.0000000E+00;  0.0000000E+00;  0.0000000E+00;
  7.2000003E-01;  9.9999998E-03; -1.2000000E-01;2154;  0.0000000E+00;  0.0000000E+00;  0.0000000E+00;  1.0000000E+03;  4.0000001E-01;  0.0000000E+00;3;  0.0000000E+00;  0.0000000E+00;  0.0000000E+00;0;  0.0000000E+00;  1.0000000E+04;  0.0000000E+00;  0.0000000E+00;  1.0000000E+04;  0.0000000E+00;  1.0000000E+04;  0.0000000E+00;  0.0000000E+00;  0.0000000E+00;  0.0000000E+00;
  7.2000003E-01;  9.9999998E-03; -1.0000000E-01;2155;  0.0000000E+00;  0.0000000E+00;  0.0000000E+00;  1.0000000E+03;  4.0000001E-01;  0.0000000E+00;3;  0.0000000E+00;  0.0000000E+00;  0.0000000E+00;0;  0.0000000E+00;  1.0000000E+04;  0.0000000E+00;  0.0000000E+00;  1.0000000E+04;  0.0000000E+00;  1.0000000E+04;  0.0000000E+00;  0.0000000E+00;  0.0000000E+00;  0.0000000E+00;
  7.2000003E-01;  9.9999998E-03; -7.9999998E-02;2156;  0.0000000E+00;  0.0000000E+00;  0.0000000E+00;  1.0000000E+03;  4.0000001E-01;  0.0000000E+00;3;  0.0000000E+00;  0.0000000E+00;  0.0000000E+00;0;  0.0000000E+00;  1.0000000E+04;  0.0000000E+00;  0.0000000E+00;  1.0000000E+04;  0.0000000E+00;  1.0000000E+04;  0.0000000E+00;  0.0000000E+00;  0.0000000E+00;  0.0000000E+00;
  7.2000003E-01;  9.9999998E-03; -5.9999999E-02;2157;  0.0000000E+00;  0.0000000E+00;  0.0000000E+00;  1.0000000E+03;  4.0000001E-01;  0.0000000E+00;3;  0.0000000E+00;  0.0000000E+00;  0.0000000E+00;0;  0.0000000E+00;  1.0000000E+04;  0.0000000E+00;  0.0000000E+00;  1.0000000E+04;  0.0000000E+00;  1.0000000E+04;  0.0000000E+00;  0.0000000E+00;  0.0000000E+00;  0.0000000E+00;
  7.2000003E-01;  9.9999998E-03; -3.9999999E-02;2158;  0.0000000E+00;  0.0000000E+00;  0.0000000E+00;  1.0000000E+03;  4.0000001E-01;  0.0000000E+00;3;  0.0000000E+00;  0.0000000E+00;  0.0000000E+00;0;  0.0000000E+00;  1.0000000E+04;  0.0000000E+00;  0.0000000E+00;  1.0000000E+04;  0.0000000E+00;  1.0000000E+04;  0.0000000E+00;  0.0000000E+00;  0.0000000E+00;  0.0000000E+00;
  7.2000003E-01;  9.9999998E-03; -2.0000000E-02;2159;  0.0000000E+00;  0.0000000E+00;  0.0000000E+00;  1.0000000E+03;  4.0000001E-01;  0.0000000E+00;3;  0.0000000E+00;  0.0000000E+00;  0.0000000E+00;0;  0.0000000E+00;  1.0000000E+04;  0.0000000E+00;  0.0000000E+00;  1.0000000E+04;  0.0000000E+00;  1.0000000E+04;  0.0000000E+00;  0.0000000E+00;  0.0000000E+00;  0.0000000E+00;
  7.4000001E-01;  9.9999998E-03; -1.8000001E-01;2182;  0.0000000E+00;  0.0000000E+00;  0.0000000E+00;  1.0000000E+03;  4.0000001E-01;  0.0000000E+00;3;  0.0000000E+00;  0.0000000E+00;  0.0000000E+00;0;  0.0000000E+00;  1.0000000E+04;  0.0000000E+00;  0.0000000E+00;  1.0000000E+04;  0.0000000E+00;  1.0000000E+04;  0.0000000E+00;  0.0000000E+00;  0.0000000E+00;  0.0000000E+00;
  7.4000001E-01;  9.9999998E-03; -1.6000000E-01;2183;  0.0000000E+00;  0.0000000E+00;  0.0000000E+00;  1.0000000E+03;  4.0000001E-01;  0.0000000E+00;3;  0.0000000E+00;  0.0000000E+00;  0.0000000E+00;0;  0.0000000E+00;  1.0000000E+04;  0.0000000E+00;  0.0000000E+00;  1.0000000E+04;  0.0000000E+00;  1.0000000E+04;  0.0000000E+00;  0.0000000E+00;  0.0000000E+00;  0.0000000E+00;
  7.4000001E-01;  9.9999998E-03; -1.4000000E-01;2184;  0.0000000E+00;  0.0000000E+00;  0.0000000E+00;  1.0000000E+03;  4.0000001E-01;  0.0000000E+00;3;  0.0000000E+00;  0.0000000E+00;  0.0000000E+00;0;  0.0000000E+00;  1.0000000E+04;  0.0000000E+00;  0.0000000E+00;  1.0000000E+04;  0.0000000E+00;  1.0000000E+04;  0.0000000E+00;  0.0000000E+00;  0.0000000E+00;  0.0000000E+00;
  7.4000001E-01;  9.9999998E-03; -1.2000000E-01;2185;  0.0000000E+00;  0.0000000E+00;  0.0000000E+00;  1.0000000E+03;  4.0000001E-01;  0.0000000E+00;3;  0.0000000E+00;  0.0000000E+00;  0.0000000E+00;0;  0.0000000E+00;  1.0000000E+04;  0.0000000E+00;  0.0000000E+00;  1.0000000E+04;  0.0000000E+00;  1.0000000E+04;  0.0000000E+00;  0.0000000E+00;  0.0000000E+00;  0.0000000E+00;
  7.4000001E-01;  9.9999998E-03; -1.0000000E-01;2186;  0.0000000E+00;  0.0000000E+00;  0.0000000E+00;  1.0000000E+03;  4.0000001E-01;  0.0000000E+00;3;  0.0000000E+00;  0.0000000E+00;  0.0000000E+00;0;  0.0000000E+00;  1.0000000E+04;  0.0000000E+00;  0.0000000E+00;  1.0000000E+04;  0.0000000E+00;  1.0000000E+04;  0.0000000E+00;  0.0000000E+00;  0.0000000E+00;  0.0000000E+00;
  7.4000001E-01;  9.9999998E-03; -7.9999998E-02;2187;  0.0000000E+00;  0.0000000E+00;  0.0000000E+00;  1.0000000E+03;  4.0000001E-01;  0.0000000E+00;3;  0.0000000E+00;  0.0000000E+00;  0.0000000E+00;0;  0.0000000E+00;  1.0000000E+04;  0.0000000E+00;  0.0000000E+00;  1.0000000E+04;  0.0000000E+00;  1.0000000E+04;  0.0000000E+00;  0.0000000E+00;  0.0000000E+00;  0.0000000E+00;
  7.4000001E-01;  9.9999998E-03; -5.9999999E-02;2188;  0.0000000E+00;  0.0000000E+00;  0.0000000E+00;  1.0000000E+03;  4.0000001E-01;  0.0000000E+00;3;  0.0000000E+00;  0.0000000E+00;  0.0000000E+00;0;  0.0000000E+00;  1.0000000E+04;  0.0000000E+00;  0.0000000E+00;  1.0000000E+04;  0.0000000E+00;  1.0000000E+04;  0.0000000E+00;  0.0000000E+00;  0.0000000E+00;  0.0000000E+00;
  7.4000001E-01;  9.9999998E-03; -3.9999999E-02;2189;  0.0000000E+00;  0.0000000E+00;  0.0000000E+00;  1.0000000E+03;  4.0000001E-01;  0.0000000E+00;3;  0.0000000E+00;  0.0000000E+00;  0.0000000E+00;0;  0.0000000E+00;  1.0000000E+04;  0.0000000E+00;  0.0000000E+00;  1.0000000E+04;  0.0000000E+00;  1.0000000E+04;  0.0000000E+00;  0.0000000E+00;  0.0000000E+00;  0.0000000E+00;
  7.4000001E-01;  9.9999998E-03; -2.0000000E-02;2190;  0.0000000E+00;  0.0000000E+00;  0.0000000E+00;  1.0000000E+03;  4.0000001E-01;  0.0000000E+00;3;  0.0000000E+00;  0.0000000E+00;  0.0000000E+00;0;  0.0000000E+00;  1.0000000E+04;  0.0000000E+00;  0.0000000E+00;  1.0000000E+04;  0.0000000E+00;  1.0000000E+04;  0.0000000E+00;  0.0000000E+00;  0.0000000E+00;  0.0000000E+00;
  7.5999999E-01;  9.9999998E-03; -1.8000001E-01;2213;  0.0000000E+00;  0.0000000E+00;  0.0000000E+00;  1.0000000E+03;  4.0000001E-01;  0.0000000E+00;3;  0.0000000E+00;  0.0000000E+00;  0.0000000E+00;0;  0.0000000E+00;  1.0000000E+04;  0.0000000E+00;  0.0000000E+00;  1.0000000E+04;  0.0000000E+00;  1.0000000E+04;  0.0000000E+00;  0.0000000E+00;  0.0000000E+00;  0.0000000E+00;
  7.5999999E-01;  9.9999998E-03; -1.6000000E-01;2214;  0.0000000E+00;  0.0000000E+00;  0.0000000E+00;  1.0000000E+03;  4.0000001E-01;  0.0000000E+00;3;  0.0000000E+00;  0.0000000E+00;  0.0000000E+00;0;  0.0000000E+00;  1.0000000E+04;  0.0000000E+00;  0.0000000E+00;  1.0000000E+04;  0.0000000E+00;  1.0000000E+04;  0.0000000E+00;  0.0000000E+00;  0.0000000E+00;  0.0000000E+00;
  7.5999999E-01;  9.9999998E-03; -1.4000000E-01;2215;  0.0000000E+00;  0.0000000E+00;  0.0000000E+00;  1.0000000E+03;  4.0000001E-01;  0.0000000E+00;3;  0.0000000E+00;  0.0000000E+00;  0.0000000E+00;0;  0.0000000E+00;  1.0000000E+04;  0.0000000E+00;  0.0000000E+00;  1.0000000E+04;  0.0000000E+00;  1.0000000E+04;  0.0000000E+00;  0.0000000E+00;  0.0000000E+00;  0.0000000E+00;
  7.5999999E-01;  9.9999998E-03; -1.2000000E-01;2216;  0.0000000E+00;  0.0000000E+00;  0.0000000E+00;  1.0000000E+03;  4.0000001E-01;  0.0000000E+00;3;  0.0000000E+00;  0.0000000E+00;  0.0000000E+00;0;  0.0000000E+00;  1.0000000E+04;  0.0000000E+00;  0.0000000E+00;  1.0000000E+04;  0.0000000E+00;  1.0000000E+04;  0.0000000E+00;  0.0000000E+00;  0.0000000E+00;  0.0000000E+00;
  7.5999999E-01;  9.9999998E-03; -1.0000000E-01;2217;  0.0000000E+00;  0.0000000E+00;  0.0000000E+00;  1.0000000E+03;  4.0000001E-01;  0.0000000E+00;3;  0.0000000E+00;  0.0000000E+00;  0.0000000E+00;0;  0.0000000E+00;  1.0000000E+04;  0.0000000E+00;  0.0000000E+00;  1.0000000E+04;  0.0000000E+00;  1.0000000E+04;  0.0000000E+00;  0.0000000E+00;  0.0000000E+00;  0.0000000E+00;
  7.5999999E-01;  9.9999998E-03; -7.9999998E-02;2218;  0.0000000E+00;  0.0000000E+00;  0.0000000E+00;  1.0000000E+03;  4.0000001E-01;  0.0000000E+00;3;  0.0000000E+00;  0.0000000E+00;  0.0000000E+00;0;  0.0000000E+00;  1.0000000E+04;  0.0000000E+00;  0.0000000E+00;  1.0000000E+04;  0.0000000E+00;  1.0000000E+04;  0.0000000E+00;  0.0000000E+00;  0.0000000E+00;  0.0000000E+00;
  7.5999999E-01;  9.9999998E-03; -5.9999999E-02;2219;  0.0000000E+00;  0.0000000E+00;  0.0000000E+00;  1.0000000E+03;  4.0000001E-01;  0.0000000E+00;3;  0.0000000E+00;  0.0000000E+00;  0.0000000E+00;0;  0.0000000E+00;  1.0000000E+04;  0.0000000E+00;  0.0000000E+00;  1.0000000E+04;  0.0000000E+00;  1.0000000E+04;  0.0000000E+00;  0.0000000E+00;  0.0000000E+00;  0.0000000E+00;
  7.5999999E-01;  9.9999998E-03; -3.9999999E-02;2220;  0.0000000E+00;  0.0000000E+00;  0.0000000E+00;  1.0000000E+03;  4.0000001E-01;  0.0000000E+00;3;  0.0000000E+00;  0.0000000E+00;  0.0000000E+00;0;  0.0000000E+00;  1.0000000E+04;  0.0000000E+00;  0.0000000E+00;  1.0000000E+04;  0.0000000E+00;  1.0000000E+04;  0.0000000E+00;  0.0000000E+00;  0.0000000E+00;  0.0000000E+00;
  7.5999999E-01;  9.9999998E-03; -2.0000000E-02;2221;  0.0000000E+00;  0.0000000E+00;  0.0000000E+00;  1.0000000E+03;  4.0000001E-01;  0.0000000E+00;3;  0.0000000E+00;  0.0000000E+00;  0.0000000E+00;0;  0.0000000E+00;  1.0000000E+04;  0.0000000E+00;  0.0000000E+00;  1.0000000E+04;  0.0000000E+00;  1.0000000E+04;  0.0000000E+00;  0.0000000E+00;  0.0000000E+00;  0.0000000E+00;
  7.7999997E-01;  9.9999998E-03; -1.8000001E-01;2244;  0.0000000E+00;  0.0000000E+00;  0.0000000E+00;  1.0000000E+03;  4.0000001E-01;  0.0000000E+00;3;  0.0000000E+00;  0.0000000E+00;  0.0000000E+00;0;  0.0000000E+00;  1.0000000E+04;  0.0000000E+00;  0.0000000E+00;  1.0000000E+04;  0.0000000E+00;  1.0000000E+04;  0.0000000E+00;  0.0000000E+00;  0.0000000E+00;  0.0000000E+00;
  7.7999997E-01;  9.9999998E-03; -1.6000000E-01;2245;  0.0000000E+00;  0.0000000E+00;  0.0000000E+00;  1.0000000E+03;  4.0000001E-01;  0.0000000E+00;3;  0.0000000E+00;  0.0000000E+00;  0.0000000E+00;0;  0.0000000E+00;  1.0000000E+04;  0.0000000E+00;  0.0000000E+00;  1.0000000E+04;  0.0000000E+00;  1.0000000E+04;  0.0000000E+00;  0.0000000E+00;  0.0000000E+00;  0.0000000E+00;
  7.7999997E-01;  9.9999998E-03; -1.4000000E-01;2246;  0.0000000E+00;  0.0000000E+00;  0.0000000E+00;  1.0000000E+03;  4.0000001E-01;  0.0000000E+00;3;  0.0000000E+00;  0.0000000E+00;  0.0000000E+00;0;  0.0000000E+00;  1.0000000E+04;  0.0000000E+00;  0.0000000E+00;  1.0000000E+04;  0.0000000E+00;  1.0000000E+04;  0.0000000E+00;  0.0000000E+00;  0.0000000E+00;  0.0000000E+00;
  7.7999997E-01;  9.9999998E-03; -1.2000000E-01;2247;  0.0000000E+00;  0.0000000E+00;  0.0000000E+00;  1.0000000E+03;  4.0000001E-01;  0.0000000E+00;3;  0.0000000E+00;  0.0000000E+00;  0.0000000E+00;0;  0.0000000E+00;  1.0000000E+04;  0.0000000E+00;  0.0000000E+00;  1.0000000E+04;  0.0000000E+00;  1.0000000E+04;  0.0000000E+00;  0.0000000E+00;  0.0000000E+00;  0.0000000E+00;
  7.7999997E-01;  9.9999998E-03; -1.0000000E-01;2248;  0.0000000E+00;  0.0000000E+00;  0.0000000E+00;  1.0000000E+03;  4.0000001E-01;  0.0000000E+00;3;  0.0000000E+00;  0.0000000E+00;  0.0000000E+00;0;  0.0000000E+00;  1.0000000E+04;  0.0000000E+00;  0.0000000E+00;  1.0000000E+04;  0.0000000E+00;  1.0000000E+04;  0.0000000E+00;  0.0000000E+00;  0.0000000E+00;  0.0000000E+00;
  7.7999997E-01;  9.9999998E-03; -7.9999998E-02;2249;  0.0000000E+00;  0.0000000E+00;  0.0000000E+00;  1.0000000E+03;  4.0000001E-01;  0.0000000E+00;3;  0.0000000E+00;  0.0000000E+00;  0.0000000E+00;0;  0.0000000E+00;  1.0000000E+04;  0.0000000E+00;  0.0000000E+00;  1.0000000E+04;  0.0000000E+00;  1.0000000E+04;  0.0000000E+00;  0.0000000E+00;  0.0000000E+00;  0.0000000E+00;
  7.7999997E-01;  9.9999998E-03; -5.9999999E-02;2250;  0.0000000E+00;  0.0000000E+00;  0.0000000E+00;  1.0000000E+03;  4.0000001E-01;  0.0000000E+00;3;  0.0000000E+00;  0.0000000E+00;  0.0000000E+00;0;  0.0000000E+00;  1.0000000E+04;  0.0000000E+00;  0.0000000E+00;  1.0000000E+04;  0.0000000E+00;  1.0000000E+04;  0.0000000E+00;  0.0000000E+00;  0.0000000E+00;  0.0000000E+00;
  7.7999997E-01;  9.9999998E-03; -3.9999999E-02;2251;  0.0000000E+00;  0.0000000E+00;  0.0000000E+00;  1.0000000E+03;  4.0000001E-01;  0.0000000E+00;3;  0.0000000E+00;  0.0000000E+00;  0.0000000E+00;0;  0.0000000E+00;  1.0000000E+04;  0.0000000E+00;  0.0000000E+00;  1.0000000E+04;  0.0000000E+00;  1.0000000E+04;  0.0000000E+00;  0.0000000E+00;  0.0000000E+00;  0.0000000E+00;
  7.7999997E-01;  9.9999998E-03; -2.0000000E-02;2252;  0.0000000E+00;  0.0000000E+00;  0.0000000E+00;  1.0000000E+03;  4.0000001E-01;  0.0000000E+00;3;  0.0000000E+00;  0.0000000E+00;  0.0000000E+00;0;  0.0000000E+00;  1.0000000E+04;  0.0000000E+00;  0.0000000E+00;  1.0000000E+04;  0.0000000E+00;  1.0000000E+04;  0.0000000E+00;  0.0000000E+00;  0.0000000E+00;  0.0000000E+00;
  8.0000001E-01;  9.9999998E-03; -1.8000001E-01;2275;  0.0000000E+00;  0.0000000E+00;  0.0000000E+00;  1.0000000E+03;  4.0000001E-01;  0.0000000E+00;3;  0.0000000E+00;  0.0000000E+00;  0.0000000E+00;0;  0.0000000E+00;  1.0000000E+04;  0.0000000E+00;  0.0000000E+00;  1.0000000E+04;  0.0000000E+00;  1.0000000E+04;  0.0000000E+00;  0.0000000E+00;  0.0000000E+00;  0.0000000E+00;
  8.0000001E-01;  9.9999998E-03; -1.6000000E-01;2276;  0.0000000E+00;  0.0000000E+00;  0.0000000E+00;  1.0000000E+03;  4.0000001E-01;  0.0000000E+00;3;  0.0000000E+00;  0.0000000E+00;  0.0000000E+00;0;  0.0000000E+00;  1.0000000E+04;  0.0000000E+00;  0.0000000E+00;  1.0000000E+04;  0.0000000E+00;  1.0000000E+04;  0.0000000E+00;  0.0000000E+00;  0.0000000E+00;  0.0000000E+00;
  8.0000001E-01;  9.9999998E-03; -1.4000000E-01;2277;  0.0000000E+00;  0.0000000E+00;  0.0000000E+00;  1.0000000E+03;  4.0000001E-01;  0.0000000E+00;3;  0.0000000E+00;  0.0000000E+00;  0.0000000E+00;0;  0.0000000E+00;  1.0000000E+04;  0.0000000E+00;  0.0000000E+00;  1.0000000E+04;  0.0000000E+00;  1.0000000E+04;  0.0000000E+00;  0.0000000E+00;  0.0000000E+00;  0.0000000E+00;
  8.0000001E-01;  9.9999998E-03; -1.2000000E-01;2278;  0.0000000E+00;  0.0000000E+00;  0.0000000E+00;  1.0000000E+03;  4.0000001E-01;  0.0000000E+00;3;  0.0000000E+00;  0.0000000E+00;  0.0000000E+00;0;  0.0000000E+00;  1.0000000E+04;  0.0000000E+00;  0.0000000E+00;  1.0000000E+04;  0.0000000E+00;  1.0000000E+04;  0.0000000E+00;  0.0000000E+00;  0.0000000E+00;  0.0000000E+00;
  8.0000001E-01;  9.9999998E-03; -1.0000000E-01;2279;  0.0000000E+00;  0.0000000E+00;  0.0000000E+00;  1.0000000E+03;  4.0000001E-01;  0.0000000E+00;3;  0.0000000E+00;  0.0000000E+00;  0.0000000E+00;0;  0.0000000E+00;  1.0000000E+04;  0.0000000E+00;  0.0000000E+00;  1.0000000E+04;  0.0000000E+00;  1.0000000E+04;  0.0000000E+00;  0.0000000E+00;  0.0000000E+00;  0.0000000E+00;
  8.0000001E-01;  9.9999998E-03; -7.9999998E-02;2280;  0.0000000E+00;  0.0000000E+00;  0.0000000E+00;  1.0000000E+03;  4.0000001E-01;  0.0000000E+00;3;  0.0000000E+00;  0.0000000E+00;  0.0000000E+00;0;  0.0000000E+00;  1.0000000E+04;  0.0000000E+00;  0.0000000E+00;  1.0000000E+04;  0.0000000E+00;  1.0000000E+04;  0.0000000E+00;  0.0000000E+00;  0.0000000E+00;  0.0000000E+00;
  8.0000001E-01;  9.9999998E-03; -5.9999999E-02;2281;  0.0000000E+00;  0.0000000E+00;  0.0000000E+00;  1.0000000E+03;  4.0000001E-01;  0.0000000E+00;3;  0.0000000E+00;  0.0000000E+00;  0.0000000E+00;0;  0.0000000E+00;  1.0000000E+04;  0.0000000E+00;  0.0000000E+00;  1.0000000E+04;  0.0000000E+00;  1.0000000E+04;  0.0000000E+00;  0.0000000E+00;  0.0000000E+00;  0.0000000E+00;
  8.0000001E-01;  9.9999998E-03; -3.9999999E-02;2282;  0.0000000E+00;  0.0000000E+00;  0.0000000E+00;  1.0000000E+03;  4.0000001E-01;  0.0000000E+00;3;  0.0000000E+00;  0.0000000E+00;  0.0000000E+00;0;  0.0000000E+00;  1.0000000E+04;  0.0000000E+00;  0.0000000E+00;  1.0000000E+04;  0.0000000E+00;  1.0000000E+04;  0.0000000E+00;  0.0000000E+00;  0.0000000E+00;  0.0000000E+00;
  8.0000001E-01;  9.9999998E-03; -2.0000000E-02;2283;  0.0000000E+00;  0.0000000E+00;  0.0000000E+00;  1.0000000E+03;  4.0000001E-01;  0.0000000E+00;3;  0.0000000E+00;  0.0000000E+00;  0.0000000E+00;0;  0.0000000E+00;  1.0000000E+04;  0.0000000E+00;  0.0000000E+00;  1.0000000E+04;  0.0000000E+00;  1.0000000E+04;  0.0000000E+00;  0.0000000E+00;  0.0000000E+00;  0.0000000E+00;
  8.1999999E-01;  9.9999998E-03; -1.8000001E-01;2306;  0.0000000E+00;  0.0000000E+00;  0.0000000E+00;  1.0000000E+03;  4.0000001E-01;  0.0000000E+00;3;  0.0000000E+00;  0.0000000E+00;  0.0000000E+00;0;  0.0000000E+00;  1.0000000E+04;  0.0000000E+00;  0.0000000E+00;  1.0000000E+04;  0.0000000E+00;  1.0000000E+04;  0.0000000E+00;  0.0000000E+00;  0.0000000E+00;  0.0000000E+00;
  8.1999999E-01;  9.9999998E-03; -1.6000000E-01;2307;  0.0000000E+00;  0.0000000E+00;  0.0000000E+00;  1.0000000E+03;  4.0000001E-01;  0.0000000E+00;3;  0.0000000E+00;  0.0000000E+00;  0.0000000E+00;0;  0.0000000E+00;  1.0000000E+04;  0.0000000E+00;  0.0000000E+00;  1.0000000E+04;  0.0000000E+00;  1.0000000E+04;  0.0000000E+00;  0.0000000E+00;  0.0000000E+00;  0.0000000E+00;
  8.1999999E-01;  9.9999998E-03; -1.4000000E-01;2308;  0.0000000E+00;  0.0000000E+00;  0.0000000E+00;  1.0000000E+03;  4.0000001E-01;  0.0000000E+00;3;  0.0000000E+00;  0.0000000E+00;  0.0000000E+00;0;  0.0000000E+00;  1.0000000E+04;  0.0000000E+00;  0.0000000E+00;  1.0000000E+04;  0.0000000E+00;  1.0000000E+04;  0.0000000E+00;  0.0000000E+00;  0.0000000E+00;  0.0000000E+00;
  8.1999999E-01;  9.9999998E-03; -1.2000000E-01;2309;  0.0000000E+00;  0.0000000E+00;  0.0000000E+00;  1.0000000E+03;  4.0000001E-01;  0.0000000E+00;3;  0.0000000E+00;  0.0000000E+00;  0.0000000E+00;0;  0.0000000E+00;  1.0000000E+04;  0.0000000E+00;  0.0000000E+00;  1.0000000E+04;  0.0000000E+00;  1.0000000E+04;  0.0000000E+00;  0.0000000E+00;  0.0000000E+00;  0.0000000E+00;
  8.1999999E-01;  9.9999998E-03; -1.0000000E-01;2310;  0.0000000E+00;  0.0000000E+00;  0.0000000E+00;  1.0000000E+03;  4.0000001E-01;  0.0000000E+00;3;  0.0000000E+00;  0.0000000E+00;  0.0000000E+00;0;  0.0000000E+00;  1.0000000E+04;  0.0000000E+00;  0.0000000E+00;  1.0000000E+04;  0.0000000E+00;  1.0000000E+04;  0.0000000E+00;  0.0000000E+00;  0.0000000E+00;  0.0000000E+00;
  8.1999999E-01;  9.9999998E-03; -7.9999998E-02;2311;  0.0000000E+00;  0.0000000E+00;  0.0000000E+00;  1.0000000E+03;  4.0000001E-01;  0.0000000E+00;3;  0.0000000E+00;  0.0000000E+00;  0.0000000E+00;0;  0.0000000E+00;  1.0000000E+04;  0.0000000E+00;  0.0000000E+00;  1.0000000E+04;  0.0000000E+00;  1.0000000E+04;  0.0000000E+00;  0.0000000E+00;  0.0000000E+00;  0.0000000E+00;
  8.1999999E-01;  9.9999998E-03; -5.9999999E-02;2312;  0.0000000E+00;  0.0000000E+00;  0.0000000E+00;  1.0000000E+03;  4.0000001E-01;  0.0000000E+00;3;  0.0000000E+00;  0.0000000E+00;  0.0000000E+00;0;  0.0000000E+00;  1.0000000E+04;  0.0000000E+00;  0.0000000E+00;  1.0000000E+04;  0.0000000E+00;  1.0000000E+04;  0.0000000E+00;  0.0000000E+00;  0.0000000E+00;  0.0000000E+00;
  8.1999999E-01;  9.9999998E-03; -3.9999999E-02;2313;  0.0000000E+00;  0.0000000E+00;  0.0000000E+00;  1.0000000E+03;  4.0000001E-01;  0.0000000E+00;3;  0.0000000E+00;  0.0000000E+00;  0.0000000E+00;0;  0.0000000E+00;  1.0000000E+04;  0.0000000E+00;  0.0000000E+00;  1.0000000E+04;  0.0000000E+00;  1.0000000E+04;  0.0000000E+00;  0.0000000E+00;  0.0000000E+00;  0.0000000E+00;
  8.1999999E-01;  9.9999998E-03; -2.0000000E-02;2314;  0.0000000E+00;  0.0000000E+00;  0.0000000E+00;  1.0000000E+03;  4.0000001E-01;  0.0000000E+00;3;  0.0000000E+00;  0.0000000E+00;  0.0000000E+00;0;  0.0000000E+00;  1.0000000E+04;  0.0000000E+00;  0.0000000E+00;  1.0000000E+04;  0.0000000E+00;  1.0000000E+04;  0.0000000E+00;  0.0000000E+00;  0.0000000E+00;  0.0000000E+00;
  8.3999997E-01;  9.9999998E-03; -1.8000001E-01;2337;  0.0000000E+00;  0.0000000E+00;  0.0000000E+00;  1.0000000E+03;  4.0000001E-01;  0.0000000E+00;3;  0.0000000E+00;  0.0000000E+00;  0.0000000E+00;0;  0.0000000E+00;  1.0000000E+04;  0.0000000E+00;  0.0000000E+00;  1.0000000E+04;  0.0000000E+00;  1.0000000E+04;  0.0000000E+00;  0.0000000E+00;  0.0000000E+00;  0.0000000E+00;
  8.3999997E-01;  9.9999998E-03; -1.6000000E-01;2338;  0.0000000E+00;  0.0000000E+00;  0.0000000E+00;  1.0000000E+03;  4.0000001E-01;  0.0000000E+00;3;  0.0000000E+00;  0.0000000E+00;  0.0000000E+00;0;  0.0000000E+00;  1.0000000E+04;  0.0000000E+00;  0.0000000E+00;  1.0000000E+04;  0.0000000E+00;  1.0000000E+04;  0.0000000E+00;  0.0000000E+00;  0.0000000E+00;  0.0000000E+00;
  8.3999997E-01;  9.9999998E-03; -1.4000000E-01;2339;  0.0000000E+00;  0.0000000E+00;  0.0000000E+00;  1.0000000E+03;  4.0000001E-01;  0.0000000E+00;3;  0.0000000E+00;  0.0000000E+00;  0.0000000E+00;0;  0.0000000E+00;  1.0000000E+04;  0.0000000E+00;  0.0000000E+00;  1.0000000E+04;  0.0000000E+00;  1.0000000E+04;  0.0000000E+00;  0.0000000E+00;  0.0000000E+00;  0.0000000E+00;
  8.3999997E-01;  9.9999998E-03; -1.2000000E-01;2340;  0.0000000E+00;  0.0000000E+00;  0.0000000E+00;  1.0000000E+03;  4.0000001E-01;  0.0000000E+00;3;  0.0000000E+00;  0.0000000E+00;  0.0000000E+00;0;  0.0000000E+00;  1.0000000E+04;  0.0000000E+00;  0.0000000E+00;  1.0000000E+04;  0.0000000E+00;  1.0000000E+04;  0.0000000E+00;  0.0000000E+00;  0.0000000E+00;  0.0000000E+00;
  8.3999997E-01;  9.9999998E-03; -1.0000000E-01;2341;  0.0000000E+00;  0.0000000E+00;  0.0000000E+00;  1.0000000E+03;  4.0000001E-01;  0.0000000E+00;3;  0.0000000E+00;  0.0000000E+00;  0.0000000E+00;0;  0.0000000E+00;  1.0000000E+04;  0.0000000E+00;  0.0000000E+00;  1.0000000E+04;  0.0000000E+00;  1.0000000E+04;  0.0000000E+00;  0.0000000E+00;  0.0000000E+00;  0.0000000E+00;
  8.3999997E-01;  9.9999998E-03; -7.9999998E-02;2342;  0.0000000E+00;  0.0000000E+00;  0.0000000E+00;  1.0000000E+03;  4.0000001E-01;  0.0000000E+00;3;  0.0000000E+00;  0.0000000E+00;  0.0000000E+00;0;  0.0000000E+00;  1.0000000E+04;  0.0000000E+00;  0.0000000E+00;  1.0000000E+04;  0.0000000E+00;  1.0000000E+04;  0.0000000E+00;  0.0000000E+00;  0.0000000E+00;  0.0000000E+00;
  8.3999997E-01;  9.9999998E-03; -5.9999999E-02;2343;  0.0000000E+00;  0.0000000E+00;  0.0000000E+00;  1.0000000E+03;  4.0000001E-01;  0.0000000E+00;3;  0.0000000E+00;  0.0000000E+00;  0.0000000E+00;0;  0.0000000E+00;  1.0000000E+04;  0.0000000E+00;  0.0000000E+00;  1.0000000E+04;  0.0000000E+00;  1.0000000E+04;  0.0000000E+00;  0.0000000E+00;  0.0000000E+00;  0.0000000E+00;
  8.3999997E-01;  9.9999998E-03; -3.9999999E-02;2344;  0.0000000E+00;  0.0000000E+00;  0.0000000E+00;  1.0000000E+03;  4.0000001E-01;  0.0000000E+00;3;  0.0000000E+00;  0.0000000E+00;  0.0000000E+00;0;  0.0000000E+00;  1.0000000E+04;  0.0000000E+00;  0.0000000E+00;  1.0000000E+04;  0.0000000E+00;  1.0000000E+04;  0.0000000E+00;  0.0000000E+00;  0.0000000E+00;  0.0000000E+00;
  8.3999997E-01;  9.9999998E-03; -2.0000000E-02;2345;  0.0000000E+00;  0.0000000E+00;  0.0000000E+00;  1.0000000E+03;  4.0000001E-01;  0.0000000E+00;3;  0.0000000E+00;  0.0000000E+00;  0.0000000E+00;0;  0.0000000E+00;  1.0000000E+04;  0.0000000E+00;  0.0000000E+00;  1.0000000E+04;  0.0000000E+00;  1.0000000E+04;  0.0000000E+00;  0.0000000E+00;  0.0000000E+00;  0.0000000E+00;
  8.6000001E-01;  9.9999998E-03; -1.8000001E-01;2368;  0.0000000E+00;  0.0000000E+00;  0.0000000E+00;  1.0000000E+03;  4.0000001E-01;  0.0000000E+00;3;  0.0000000E+00;  0.0000000E+00;  0.0000000E+00;0;  0.0000000E+00;  1.0000000E+04;  0.0000000E+00;  0.0000000E+00;  1.0000000E+04;  0.0000000E+00;  1.0000000E+04;  0.0000000E+00;  0.0000000E+00;  0.0000000E+00;  0.0000000E+00;
  8.6000001E-01;  9.9999998E-03; -1.6000000E-01;2369;  0.0000000E+00;  0.0000000E+00;  0.0000000E+00;  1.0000000E+03;  4.0000001E-01;  0.0000000E+00;3;  0.0000000E+00;  0.0000000E+00;  0.0000000E+00;0;  0.0000000E+00;  1.0000000E+04;  0.0000000E+00;  0.0000000E+00;  1.0000000E+04;  0.0000000E+00;  1.0000000E+04;  0.0000000E+00;  0.0000000E+00;  0.0000000E+00;  0.0000000E+00;
  8.6000001E-01;  9.9999998E-03; -1.4000000E-01;2370;  0.0000000E+00;  0.0000000E+00;  0.0000000E+00;  1.0000000E+03;  4.0000001E-01;  0.0000000E+00;3;  0.0000000E+00;  0.0000000E+00;  0.0000000E+00;0;  0.0000000E+00;  1.0000000E+04;  0.0000000E+00;  0.0000000E+00;  1.0000000E+04;  0.0000000E+00;  1.0000000E+04;  0.0000000E+00;  0.0000000E+00;  0.0000000E+00;  0.0000000E+00;
  8.6000001E-01;  9.9999998E-03; -1.2000000E-01;2371;  0.0000000E+00;  0.0000000E+00;  0.0000000E+00;  1.0000000E+03;  4.0000001E-01;  0.0000000E+00;3;  0.0000000E+00;  0.0000000E+00;  0.0000000E+00;0;  0.0000000E+00;  1.0000000E+04;  0.0000000E+00;  0.0000000E+00;  1.0000000E+04;  0.0000000E+00;  1.0000000E+04;  0.0000000E+00;  0.0000000E+00;  0.0000000E+00;  0.0000000E+00;
  8.6000001E-01;  9.9999998E-03; -1.0000000E-01;2372;  0.0000000E+00;  0.0000000E+00;  0.0000000E+00;  1.0000000E+03;  4.0000001E-01;  0.0000000E+00;3;  0.0000000E+00;  0.0000000E+00;  0.0000000E+00;0;  0.0000000E+00;  1.0000000E+04;  0.0000000E+00;  0.0000000E+00;  1.0000000E+04;  0.0000000E+00;  1.0000000E+04;  0.0000000E+00;  0.0000000E+00;  0.0000000E+00;  0.0000000E+00;
  8.6000001E-01;  9.9999998E-03; -7.9999998E-02;2373;  0.0000000E+00;  0.0000000E+00;  0.0000000E+00;  1.0000000E+03;  4.0000001E-01;  0.0000000E+00;3;  0.0000000E+00;  0.0000000E+00;  0.0000000E+00;0;  0.0000000E+00;  1.0000000E+04;  0.0000000E+00;  0.0000000E+00;  1.0000000E+04;  0.0000000E+00;  1.0000000E+04;  0.0000000E+00;  0.0000000E+00;  0.0000000E+00;  0.0000000E+00;
  8.6000001E-01;  9.9999998E-03; -5.9999999E-02;2374;  0.0000000E+00;  0.0000000E+00;  0.0000000E+00;  1.0000000E+03;  4.0000001E-01;  0.0000000E+00;3;  0.0000000E+00;  0.0000000E+00;  0.0000000E+00;0;  0.0000000E+00;  1.0000000E+04;  0.0000000E+00;  0.0000000E+00;  1.0000000E+04;  0.0000000E+00;  1.0000000E+04;  0.0000000E+00;  0.0000000E+00;  0.0000000E+00;  0.0000000E+00;
  8.6000001E-01;  9.9999998E-03; -3.9999999E-02;2375;  0.0000000E+00;  0.0000000E+00;  0.0000000E+00;  1.0000000E+03;  4.0000001E-01;  0.0000000E+00;3;  0.0000000E+00;  0.0000000E+00;  0.0000000E+00;0;  0.0000000E+00;  1.0000000E+04;  0.0000000E+00;  0.0000000E+00;  1.0000000E+04;  0.0000000E+00;  1.0000000E+04;  0.0000000E+00;  0.0000000E+00;  0.0000000E+00;  0.0000000E+00;
  8.6000001E-01;  9.9999998E-03; -2.0000000E-02;2376;  0.0000000E+00;  0.0000000E+00;  0.0000000E+00;  1.0000000E+03;  4.0000001E-01;  0.0000000E+00;3;  0.0000000E+00;  0.0000000E+00;  0.0000000E+00;0;  0.0000000E+00;  1.0000000E+04;  0.0000000E+00;  0.0000000E+00;  1.0000000E+04;  0.0000000E+00;  1.0000000E+04;  0.0000000E+00;  0.0000000E+00;  0.0000000E+00;  0.0000000E+00;
  8.8000000E-01;  9.9999998E-03; -1.8000001E-01;2399;  0.0000000E+00;  0.0000000E+00;  0.0000000E+00;  1.0000000E+03;  4.0000001E-01;  0.0000000E+00;3;  0.0000000E+00;  0.0000000E+00;  0.0000000E+00;0;  0.0000000E+00;  1.0000000E+04;  0.0000000E+00;  0.0000000E+00;  1.0000000E+04;  0.0000000E+00;  1.0000000E+04;  0.0000000E+00;  0.0000000E+00;  0.0000000E+00;  0.0000000E+00;
  8.8000000E-01;  9.9999998E-03; -1.6000000E-01;2400;  0.0000000E+00;  0.0000000E+00;  0.0000000E+00;  1.0000000E+03;  4.0000001E-01;  0.0000000E+00;3;  0.0000000E+00;  0.0000000E+00;  0.0000000E+00;0;  0.0000000E+00;  1.0000000E+04;  0.0000000E+00;  0.0000000E+00;  1.0000000E+04;  0.0000000E+00;  1.0000000E+04;  0.0000000E+00;  0.0000000E+00;  0.0000000E+00;  0.0000000E+00;
  8.8000000E-01;  9.9999998E-03; -1.4000000E-01;2401;  0.0000000E+00;  0.0000000E+00;  0.0000000E+00;  1.0000000E+03;  4.0000001E-01;  0.0000000E+00;3;  0.0000000E+00;  0.0000000E+00;  0.0000000E+00;0;  0.0000000E+00;  1.0000000E+04;  0.0000000E+00;  0.0000000E+00;  1.0000000E+04;  0.0000000E+00;  1.0000000E+04;  0.0000000E+00;  0.0000000E+00;  0.0000000E+00;  0.0000000E+00;
  8.8000000E-01;  9.9999998E-03; -1.2000000E-01;2402;  0.0000000E+00;  0.0000000E+00;  0.0000000E+00;  1.0000000E+03;  4.0000001E-01;  0.0000000E+00;3;  0.0000000E+00;  0.0000000E+00;  0.0000000E+00;0;  0.0000000E+00;  1.0000000E+04;  0.0000000E+00;  0.0000000E+00;  1.0000000E+04;  0.0000000E+00;  1.0000000E+04;  0.0000000E+00;  0.0000000E+00;  0.0000000E+00;  0.0000000E+00;
  8.8000000E-01;  9.9999998E-03; -1.0000000E-01;2403;  0.0000000E+00;  0.0000000E+00;  0.0000000E+00;  1.0000000E+03;  4.0000001E-01;  0.0000000E+00;3;  0.0000000E+00;  0.0000000E+00;  0.0000000E+00;0;  0.0000000E+00;  1.0000000E+04;  0.0000000E+00;  0.0000000E+00;  1.0000000E+04;  0.0000000E+00;  1.0000000E+04;  0.0000000E+00;  0.0000000E+00;  0.0000000E+00;  0.0000000E+00;
  8.8000000E-01;  9.9999998E-03; -7.9999998E-02;2404;  0.0000000E+00;  0.0000000E+00;  0.0000000E+00;  1.0000000E+03;  4.0000001E-01;  0.0000000E+00;3;  0.0000000E+00;  0.0000000E+00;  0.0000000E+00;0;  0.0000000E+00;  1.0000000E+04;  0.0000000E+00;  0.0000000E+00;  1.0000000E+04;  0.0000000E+00;  1.0000000E+04;  0.0000000E+00;  0.0000000E+00;  0.0000000E+00;  0.0000000E+00;
  8.8000000E-01;  9.9999998E-03; -5.9999999E-02;2405;  0.0000000E+00;  0.0000000E+00;  0.0000000E+00;  1.0000000E+03;  4.0000001E-01;  0.0000000E+00;3;  0.0000000E+00;  0.0000000E+00;  0.0000000E+00;0;  0.0000000E+00;  1.0000000E+04;  0.0000000E+00;  0.0000000E+00;  1.0000000E+04;  0.0000000E+00;  1.0000000E+04;  0.0000000E+00;  0.0000000E+00;  0.0000000E+00;  0.0000000E+00;
  8.8000000E-01;  9.9999998E-03; -3.9999999E-02;2406;  0.0000000E+00;  0.0000000E+00;  0.0000000E+00;  1.0000000E+03;  4.0000001E-01;  0.0000000E+00;3;  0.0000000E+00;  0.0000000E+00;  0.0000000E+00;0;  0.0000000E+00;  1.0000000E+04;  0.0000000E+00;  0.0000000E+00;  1.0000000E+04;  0.0000000E+00;  1.0000000E+04;  0.0000000E+00;  0.0000000E+00;  0.0000000E+00;  0.0000000E+00;
  8.8000000E-01;  9.9999998E-03; -2.0000000E-02;2407;  0.0000000E+00;  0.0000000E+00;  0.0000000E+00;  1.0000000E+03;  4.0000001E-01;  0.0000000E+00;3;  0.0000000E+00;  0.0000000E+00;  0.0000000E+00;0;  0.0000000E+00;  1.0000000E+04;  0.0000000E+00;  0.0000000E+00;  1.0000000E+04;  0.0000000E+00;  1.0000000E+04;  0.0000000E+00;  0.0000000E+00;  0.0000000E+00;  0.0000000E+00;
  8.9999998E-01;  9.9999998E-03; -1.8000001E-01;2430;  0.0000000E+00;  0.0000000E+00;  0.0000000E+00;  1.0000000E+03;  4.0000001E-01;  0.0000000E+00;3;  0.0000000E+00;  0.0000000E+00;  0.0000000E+00;0;  0.0000000E+00;  1.0000000E+04;  0.0000000E+00;  0.0000000E+00;  1.0000000E+04;  0.0000000E+00;  1.0000000E+04;  0.0000000E+00;  0.0000000E+00;  0.0000000E+00;  0.0000000E+00;
  8.9999998E-01;  9.9999998E-03; -1.6000000E-01;2431;  0.0000000E+00;  0.0000000E+00;  0.0000000E+00;  1.0000000E+03;  4.0000001E-01;  0.0000000E+00;3;  0.0000000E+00;  0.0000000E+00;  0.0000000E+00;0;  0.0000000E+00;  1.0000000E+04;  0.0000000E+00;  0.0000000E+00;  1.0000000E+04;  0.0000000E+00;  1.0000000E+04;  0.0000000E+00;  0.0000000E+00;  0.0000000E+00;  0.0000000E+00;
  8.9999998E-01;  9.9999998E-03; -1.4000000E-01;2432;  0.0000000E+00;  0.0000000E+00;  0.0000000E+00;  1.0000000E+03;  4.0000001E-01;  0.0000000E+00;3;  0.0000000E+00;  0.0000000E+00;  0.0000000E+00;0;  0.0000000E+00;  1.0000000E+04;  0.0000000E+00;  0.0000000E+00;  1.0000000E+04;  0.0000000E+00;  1.0000000E+04;  0.0000000E+00;  0.0000000E+00;  0.0000000E+00;  0.0000000E+00;
  8.9999998E-01;  9.9999998E-03; -1.2000000E-01;2433;  0.0000000E+00;  0.0000000E+00;  0.0000000E+00;  1.0000000E+03;  4.0000001E-01;  0.0000000E+00;3;  0.0000000E+00;  0.0000000E+00;  0.0000000E+00;0;  0.0000000E+00;  1.0000000E+04;  0.0000000E+00;  0.0000000E+00;  1.0000000E+04;  0.0000000E+00;  1.0000000E+04;  0.0000000E+00;  0.0000000E+00;  0.0000000E+00;  0.0000000E+00;
  8.9999998E-01;  9.9999998E-03; -1.0000000E-01;2434;  0.0000000E+00;  0.0000000E+00;  0.0000000E+00;  1.0000000E+03;  4.0000001E-01;  0.0000000E+00;3;  0.0000000E+00;  0.0000000E+00;  0.0000000E+00;0;  0.0000000E+00;  1.0000000E+04;  0.0000000E+00;  0.0000000E+00;  1.0000000E+04;  0.0000000E+00;  1.0000000E+04;  0.0000000E+00;  0.0000000E+00;  0.0000000E+00;  0.0000000E+00;
  8.9999998E-01;  9.9999998E-03; -7.9999998E-02;2435;  0.0000000E+00;  0.0000000E+00;  0.0000000E+00;  1.0000000E+03;  4.0000001E-01;  0.0000000E+00;3;  0.0000000E+00;  0.0000000E+00;  0.0000000E+00;0;  0.0000000E+00;  1.0000000E+04;  0.0000000E+00;  0.0000000E+00;  1.0000000E+04;  0.0000000E+00;  1.0000000E+04;  0.0000000E+00;  0.0000000E+00;  0.0000000E+00;  0.0000000E+00;
  8.9999998E-01;  9.9999998E-03; -5.9999999E-02;2436;  0.0000000E+00;  0.0000000E+00;  0.0000000E+00;  1.0000000E+03;  4.0000001E-01;  0.0000000E+00;3;  0.0000000E+00;  0.0000000E+00;  0.0000000E+00;0;  0.0000000E+00;  1.0000000E+04;  0.0000000E+00;  0.0000000E+00;  1.0000000E+04;  0.0000000E+00;  1.0000000E+04;  0.0000000E+00;  0.0000000E+00;  0.0000000E+00;  0.0000000E+00;
  8.9999998E-01;  9.9999998E-03; -3.9999999E-02;2437;  0.0000000E+00;  0.0000000E+00;  0.0000000E+00;  1.0000000E+03;  4.0000001E-01;  0.0000000E+00;3;  0.0000000E+00;  0.0000000E+00;  0.0000000E+00;0;  0.0000000E+00;  1.0000000E+04;  0.0000000E+00;  0.0000000E+00;  1.0000000E+04;  0.0000000E+00;  1.0000000E+04;  0.0000000E+00;  0.0000000E+00;  0.0000000E+00;  0.0000000E+00;
  8.9999998E-01;  9.9999998E-03; -2.0000000E-02;2438;  0.0000000E+00;  0.0000000E+00;  0.0000000E+00;  1.0000000E+03;  4.0000001E-01;  0.0000000E+00;3;  0.0000000E+00;  0.0000000E+00;  0.0000000E+00;0;  0.0000000E+00;  1.0000000E+04;  0.0000000E+00;  0.0000000E+00;  1.0000000E+04;  0.0000000E+00;  1.0000000E+04;  0.0000000E+00;  0.0000000E+00;  0.0000000E+00;  0.0000000E+00;
  9.2000002E-01;  9.9999998E-03; -1.8000001E-01;2461;  0.0000000E+00;  0.0000000E+00;  0.0000000E+00;  1.0000000E+03;  4.0000001E-01;  0.0000000E+00;3;  0.0000000E+00;  0.0000000E+00;  0.0000000E+00;0;  0.0000000E+00;  1.0000000E+04;  0.0000000E+00;  0.0000000E+00;  1.0000000E+04;  0.0000000E+00;  1.0000000E+04;  0.0000000E+00;  0.0000000E+00;  0.0000000E+00;  0.0000000E+00;
  9.2000002E-01;  9.9999998E-03; -1.6000000E-01;2462;  0.0000000E+00;  0.0000000E+00;  0.0000000E+00;  1.0000000E+03;  4.0000001E-01;  0.0000000E+00;3;  0.0000000E+00;  0.0000000E+00;  0.0000000E+00;0;  0.0000000E+00;  1.0000000E+04;  0.0000000E+00;  0.0000000E+00;  1.0000000E+04;  0.0000000E+00;  1.0000000E+04;  0.0000000E+00;  0.0000000E+00;  0.0000000E+00;  0.0000000E+00;
  9.2000002E-01;  9.9999998E-03; -1.4000000E-01;2463;  0.0000000E+00;  0.0000000E+00;  0.0000000E+00;  1.0000000E+03;  4.0000001E-01;  0.0000000E+00;3;  0.0000000E+00;  0.0000000E+00;  0.0000000E+00;0;  0.0000000E+00;  1.0000000E+04;  0.0000000E+00;  0.0000000E+00;  1.0000000E+04;  0.0000000E+00;  1.0000000E+04;  0.0000000E+00;  0.0000000E+00;  0.0000000E+00;  0.0000000E+00;
  9.2000002E-01;  9.9999998E-03; -1.2000000E-01;2464;  0.0000000E+00;  0.0000000E+00;  0.0000000E+00;  1.0000000E+03;  4.0000001E-01;  0.0000000E+00;3;  0.0000000E+00;  0.0000000E+00;  0.0000000E+00;0;  0.0000000E+00;  1.0000000E+04;  0.0000000E+00;  0.0000000E+00;  1.0000000E+04;  0.0000000E+00;  1.0000000E+04;  0.0000000E+00;  0.0000000E+00;  0.0000000E+00;  0.0000000E+00;
  9.2000002E-01;  9.9999998E-03; -1.0000000E-01;2465;  0.0000000E+00;  0.0000000E+00;  0.0000000E+00;  1.0000000E+03;  4.0000001E-01;  0.0000000E+00;3;  0.0000000E+00;  0.0000000E+00;  0.0000000E+00;0;  0.0000000E+00;  1.0000000E+04;  0.0000000E+00;  0.0000000E+00;  1.0000000E+04;  0.0000000E+00;  1.0000000E+04;  0.0000000E+00;  0.0000000E+00;  0.0000000E+00;  0.0000000E+00;
  9.2000002E-01;  9.9999998E-03; -7.9999998E-02;2466;  0.0000000E+00;  0.0000000E+00;  0.0000000E+00;  1.0000000E+03;  4.0000001E-01;  0.0000000E+00;3;  0.0000000E+00;  0.0000000E+00;  0.0000000E+00;0;  0.0000000E+00;  1.0000000E+04;  0.0000000E+00;  0.0000000E+00;  1.0000000E+04;  0.0000000E+00;  1.0000000E+04;  0.0000000E+00;  0.0000000E+00;  0.0000000E+00;  0.0000000E+00;
  9.2000002E-01;  9.9999998E-03; -5.9999999E-02;2467;  0.0000000E+00;  0.0000000E+00;  0.0000000E+00;  1.0000000E+03;  4.0000001E-01;  0.0000000E+00;3;  0.0000000E+00;  0.0000000E+00;  0.0000000E+00;0;  0.0000000E+00;  1.0000000E+04;  0.0000000E+00;  0.0000000E+00;  1.0000000E+04;  0.0000000E+00;  1.0000000E+04;  0.0000000E+00;  0.0000000E+00;  0.0000000E+00;  0.0000000E+00;
  9.2000002E-01;  9.9999998E-03; -3.9999999E-02;2468;  0.0000000E+00;  0.0000000E+00;  0.0000000E+00;  1.0000000E+03;  4.0000001E-01;  0.0000000E+00;3;  0.0000000E+00;  0.0000000E+00;  0.0000000E+00;0;  0.0000000E+00;  1.0000000E+04;  0.0000000E+00;  0.0000000E+00;  1.0000000E+04;  0.0000000E+00;  1.0000000E+04;  0.0000000E+00;  0.0000000E+00;  0.0000000E+00;  0.0000000E+00;
  9.2000002E-01;  9.9999998E-03; -2.0000000E-02;2469;  0.0000000E+00;  0.0000000E+00;  0.0000000E+00;  1.0000000E+03;  4.0000001E-01;  0.0000000E+00;3;  0.0000000E+00;  0.0000000E+00;  0.0000000E+00;0;  0.0000000E+00;  1.0000000E+04;  0.0000000E+00;  0.0000000E+00;  1.0000000E+04;  0.0000000E+00;  1.0000000E+04;  0.0000000E+00;  0.0000000E+00;  0.0000000E+00;  0.0000000E+00;
  9.4000000E-01;  9.9999998E-03; -1.8000001E-01;2492;  0.0000000E+00;  0.0000000E+00;  0.0000000E+00;  1.0000000E+03;  4.0000001E-01;  0.0000000E+00;3;  0.0000000E+00;  0.0000000E+00;  0.0000000E+00;0;  0.0000000E+00;  1.0000000E+04;  0.0000000E+00;  0.0000000E+00;  1.0000000E+04;  0.0000000E+00;  1.0000000E+04;  0.0000000E+00;  0.0000000E+00;  0.0000000E+00;  0.0000000E+00;
  9.4000000E-01;  9.9999998E-03; -1.6000000E-01;2493;  0.0000000E+00;  0.0000000E+00;  0.0000000E+00;  1.0000000E+03;  4.0000001E-01;  0.0000000E+00;3;  0.0000000E+00;  0.0000000E+00;  0.0000000E+00;0;  0.0000000E+00;  1.0000000E+04;  0.0000000E+00;  0.0000000E+00;  1.0000000E+04;  0.0000000E+00;  1.0000000E+04;  0.0000000E+00;  0.0000000E+00;  0.0000000E+00;  0.0000000E+00;
  9.4000000E-01;  9.9999998E-03; -1.4000000E-01;2494;  0.0000000E+00;  0.0000000E+00;  0.0000000E+00;  1.0000000E+03;  4.0000001E-01;  0.0000000E+00;3;  0.0000000E+00;  0.0000000E+00;  0.0000000E+00;0;  0.0000000E+00;  1.0000000E+04;  0.0000000E+00;  0.0000000E+00;  1.0000000E+04;  0.0000000E+00;  1.0000000E+04;  0.0000000E+00;  0.0000000E+00;  0.0000000E+00;  0.0000000E+00;
  9.4000000E-01;  9.9999998E-03; -1.2000000E-01;2495;  0.0000000E+00;  0.0000000E+00;  0.0000000E+00;  1.0000000E+03;  4.0000001E-01;  0.0000000E+00;3;  0.0000000E+00;  0.0000000E+00;  0.0000000E+00;0;  0.0000000E+00;  1.0000000E+04;  0.0000000E+00;  0.0000000E+00;  1.0000000E+04;  0.0000000E+00;  1.0000000E+04;  0.0000000E+00;  0.0000000E+00;  0.0000000E+00;  0.0000000E+00;
  9.4000000E-01;  9.9999998E-03; -1.0000000E-01;2496;  0.0000000E+00;  0.0000000E+00;  0.0000000E+00;  1.0000000E+03;  4.0000001E-01;  0.0000000E+00;3;  0.0000000E+00;  0.0000000E+00;  0.0000000E+00;0;  0.0000000E+00;  1.0000000E+04;  0.0000000E+00;  0.0000000E+00;  1.0000000E+04;  0.0000000E+00;  1.0000000E+04;  0.0000000E+00;  0.0000000E+00;  0.0000000E+00;  0.0000000E+00;
  9.4000000E-01;  9.9999998E-03; -7.9999998E-02;2497;  0.0000000E+00;  0.0000000E+00;  0.0000000E+00;  1.0000000E+03;  4.0000001E-01;  0.0000000E+00;3;  0.0000000E+00;  0.0000000E+00;  0.0000000E+00;0;  0.0000000E+00;  1.0000000E+04;  0.0000000E+00;  0.0000000E+00;  1.0000000E+04;  0.0000000E+00;  1.0000000E+04;  0.0000000E+00;  0.0000000E+00;  0.0000000E+00;  0.0000000E+00;
  9.4000000E-01;  9.9999998E-03; -5.9999999E-02;2498;  0.0000000E+00;  0.0000000E+00;  0.0000000E+00;  1.0000000E+03;  4.0000001E-01;  0.0000000E+00;3;  0.0000000E+00;  0.0000000E+00;  0.0000000E+00;0;  0.0000000E+00;  1.0000000E+04;  0.0000000E+00;  0.0000000E+00;  1.0000000E+04;  0.0000000E+00;  1.0000000E+04;  0.0000000E+00;  0.0000000E+00;  0.0000000E+00;  0.0000000E+00;
  9.4000000E-01;  9.9999998E-03; -3.9999999E-02;2499;  0.0000000E+00;  0.0000000E+00;  0.0000000E+00;  1.0000000E+03;  4.0000001E-01;  0.0000000E+00;3;  0.0000000E+00;  0.0000000E+00;  0.0000000E+00;0;  0.0000000E+00;  1.0000000E+04;  0.0000000E+00;  0.0000000E+00;  1.0000000E+04;  0.0000000E+00;  1.0000000E+04;  0.0000000E+00;  0.0000000E+00;  0.0000000E+00;  0.0000000E+00;
  9.4000000E-01;  9.9999998E-03; -2.0000000E-02;2500;  0.0000000E+00;  0.0000000E+00;  0.0000000E+00;  1.0000000E+03;  4.0000001E-01;  0.0000000E+00;3;  0.0000000E+00;  0.0000000E+00;  0.0000000E+00;0;  0.0000000E+00;  1.0000000E+04;  0.0000000E+00;  0.0000000E+00;  1.0000000E+04;  0.0000000E+00;  1.0000000E+04;  0.0000000E+00;  0.0000000E+00;  0.0000000E+00;  0.0000000E+00;
  9.5999998E-01;  9.9999998E-03; -1.8000001E-01;2523;  0.0000000E+00;  0.0000000E+00;  0.0000000E+00;  1.0000000E+03;  4.0000001E-01;  0.0000000E+00;3;  0.0000000E+00;  0.0000000E+00;  0.0000000E+00;0;  0.0000000E+00;  1.0000000E+04;  0.0000000E+00;  0.0000000E+00;  1.0000000E+04;  0.0000000E+00;  1.0000000E+04;  0.0000000E+00;  0.0000000E+00;  0.0000000E+00;  0.0000000E+00;
  9.5999998E-01;  9.9999998E-03; -1.6000000E-01;2524;  0.0000000E+00;  0.0000000E+00;  0.0000000E+00;  1.0000000E+03;  4.0000001E-01;  0.0000000E+00;3;  0.0000000E+00;  0.0000000E+00;  0.0000000E+00;0;  0.0000000E+00;  1.0000000E+04;  0.0000000E+00;  0.0000000E+00;  1.0000000E+04;  0.0000000E+00;  1.0000000E+04;  0.0000000E+00;  0.0000000E+00;  0.0000000E+00;  0.0000000E+00;
  9.5999998E-01;  9.9999998E-03; -1.4000000E-01;2525;  0.0000000E+00;  0.0000000E+00;  0.0000000E+00;  1.0000000E+03;  4.0000001E-01;  0.0000000E+00;3;  0.0000000E+00;  0.0000000E+00;  0.0000000E+00;0;  0.0000000E+00;  1.0000000E+04;  0.0000000E+00;  0.0000000E+00;  1.0000000E+04;  0.0000000E+00;  1.0000000E+04;  0.0000000E+00;  0.0000000E+00;  0.0000000E+00;  0.0000000E+00;
  9.5999998E-01;  9.9999998E-03; -1.2000000E-01;2526;  0.0000000E+00;  0.0000000E+00;  0.0000000E+00;  1.0000000E+03;  4.0000001E-01;  0.0000000E+00;3;  0.0000000E+00;  0.0000000E+00;  0.0000000E+00;0;  0.0000000E+00;  1.0000000E+04;  0.0000000E+00;  0.0000000E+00;  1.0000000E+04;  0.0000000E+00;  1.0000000E+04;  0.0000000E+00;  0.0000000E+00;  0.0000000E+00;  0.0000000E+00;
  9.5999998E-01;  9.9999998E-03; -1.0000000E-01;2527;  0.0000000E+00;  0.0000000E+00;  0.0000000E+00;  1.0000000E+03;  4.0000001E-01;  0.0000000E+00;3;  0.0000000E+00;  0.0000000E+00;  0.0000000E+00;0;  0.0000000E+00;  1.0000000E+04;  0.0000000E+00;  0.0000000E+00;  1.0000000E+04;  0.0000000E+00;  1.0000000E+04;  0.0000000E+00;  0.0000000E+00;  0.0000000E+00;  0.0000000E+00;
  9.5999998E-01;  9.9999998E-03; -7.9999998E-02;2528;  0.0000000E+00;  0.0000000E+00;  0.0000000E+00;  1.0000000E+03;  4.0000001E-01;  0.0000000E+00;3;  0.0000000E+00;  0.0000000E+00;  0.0000000E+00;0;  0.0000000E+00;  1.0000000E+04;  0.0000000E+00;  0.0000000E+00;  1.0000000E+04;  0.0000000E+00;  1.0000000E+04;  0.0000000E+00;  0.0000000E+00;  0.0000000E+00;  0.0000000E+00;
  9.5999998E-01;  9.9999998E-03; -5.9999999E-02;2529;  0.0000000E+00;  0.0000000E+00;  0.0000000E+00;  1.0000000E+03;  4.0000001E-01;  0.0000000E+00;3;  0.0000000E+00;  0.0000000E+00;  0.0000000E+00;0;  0.0000000E+00;  1.0000000E+04;  0.0000000E+00;  0.0000000E+00;  1.0000000E+04;  0.0000000E+00;  1.0000000E+04;  0.0000000E+00;  0.0000000E+00;  0.0000000E+00;  0.0000000E+00;
  9.5999998E-01;  9.9999998E-03; -3.9999999E-02;2530;  0.0000000E+00;  0.0000000E+00;  0.0000000E+00;  1.0000000E+03;  4.0000001E-01;  0.0000000E+00;3;  0.0000000E+00;  0.0000000E+00;  0.0000000E+00;0;  0.0000000E+00;  1.0000000E+04;  0.0000000E+00;  0.0000000E+00;  1.0000000E+04;  0.0000000E+00;  1.0000000E+04;  0.0000000E+00;  0.0000000E+00;  0.0000000E+00;  0.0000000E+00;
  9.5999998E-01;  9.9999998E-03; -2.0000000E-02;2531;  0.0000000E+00;  0.0000000E+00;  0.0000000E+00;  1.0000000E+03;  4.0000001E-01;  0.0000000E+00;3;  0.0000000E+00;  0.0000000E+00;  0.0000000E+00;0;  0.0000000E+00;  1.0000000E+04;  0.0000000E+00;  0.0000000E+00;  1.0000000E+04;  0.0000000E+00;  1.0000000E+04;  0.0000000E+00;  0.0000000E+00;  0.0000000E+00;  0.0000000E+00;
  9.8000002E-01;  9.9999998E-03; -1.8000001E-01;2554;  0.0000000E+00;  0.0000000E+00;  0.0000000E+00;  1.0000000E+03;  4.0000001E-01;  0.0000000E+00;3;  0.0000000E+00;  0.0000000E+00;  0.0000000E+00;0;  0.0000000E+00;  1.0000000E+04;  0.0000000E+00;  0.0000000E+00;  1.0000000E+04;  0.0000000E+00;  1.0000000E+04;  0.0000000E+00;  0.0000000E+00;  0.0000000E+00;  0.0000000E+00;
  9.8000002E-01;  9.9999998E-03; -1.6000000E-01;2555;  0.0000000E+00;  0.0000000E+00;  0.0000000E+00;  1.0000000E+03;  4.0000001E-01;  0.0000000E+00;3;  0.0000000E+00;  0.0000000E+00;  0.0000000E+00;0;  0.0000000E+00;  1.0000000E+04;  0.0000000E+00;  0.0000000E+00;  1.0000000E+04;  0.0000000E+00;  1.0000000E+04;  0.0000000E+00;  0.0000000E+00;  0.0000000E+00;  0.0000000E+00;
  9.8000002E-01;  9.9999998E-03; -1.4000000E-01;2556;  0.0000000E+00;  0.0000000E+00;  0.0000000E+00;  1.0000000E+03;  4.0000001E-01;  0.0000000E+00;3;  0.0000000E+00;  0.0000000E+00;  0.0000000E+00;0;  0.0000000E+00;  1.0000000E+04;  0.0000000E+00;  0.0000000E+00;  1.0000000E+04;  0.0000000E+00;  1.0000000E+04;  0.0000000E+00;  0.0000000E+00;  0.0000000E+00;  0.0000000E+00;
  9.8000002E-01;  9.9999998E-03; -1.2000000E-01;2557;  0.0000000E+00;  0.0000000E+00;  0.0000000E+00;  1.0000000E+03;  4.0000001E-01;  0.0000000E+00;3;  0.0000000E+00;  0.0000000E+00;  0.0000000E+00;0;  0.0000000E+00;  1.0000000E+04;  0.0000000E+00;  0.0000000E+00;  1.0000000E+04;  0.0000000E+00;  1.0000000E+04;  0.0000000E+00;  0.0000000E+00;  0.0000000E+00;  0.0000000E+00;
  9.8000002E-01;  9.9999998E-03; -1.0000000E-01;2558;  0.0000000E+00;  0.0000000E+00;  0.0000000E+00;  1.0000000E+03;  4.0000001E-01;  0.0000000E+00;3;  0.0000000E+00;  0.0000000E+00;  0.0000000E+00;0;  0.0000000E+00;  1.0000000E+04;  0.0000000E+00;  0.0000000E+00;  1.0000000E+04;  0.0000000E+00;  1.0000000E+04;  0.0000000E+00;  0.0000000E+00;  0.0000000E+00;  0.0000000E+00;
  9.8000002E-01;  9.9999998E-03; -7.9999998E-02;2559;  0.0000000E+00;  0.0000000E+00;  0.0000000E+00;  1.0000000E+03;  4.0000001E-01;  0.0000000E+00;3;  0.0000000E+00;  0.0000000E+00;  0.0000000E+00;0;  0.0000000E+00;  1.0000000E+04;  0.0000000E+00;  0.0000000E+00;  1.0000000E+04;  0.0000000E+00;  1.0000000E+04;  0.0000000E+00;  0.0000000E+00;  0.0000000E+00;  0.0000000E+00;
  9.8000002E-01;  9.9999998E-03; -5.9999999E-02;2560;  0.0000000E+00;  0.0000000E+00;  0.0000000E+00;  1.0000000E+03;  4.0000001E-01;  0.0000000E+00;3;  0.0000000E+00;  0.0000000E+00;  0.0000000E+00;0;  0.0000000E+00;  1.0000000E+04;  0.0000000E+00;  0.0000000E+00;  1.0000000E+04;  0.0000000E+00;  1.0000000E+04;  0.0000000E+00;  0.0000000E+00;  0.0000000E+00;  0.0000000E+00;
  9.8000002E-01;  9.9999998E-03; -3.9999999E-02;2561;  0.0000000E+00;  0.0000000E+00;  0.0000000E+00;  1.0000000E+03;  4.0000001E-01;  0.0000000E+00;3;  0.0000000E+00;  0.0000000E+00;  0.0000000E+00;0;  0.0000000E+00;  1.0000000E+04;  0.0000000E+00;  0.0000000E+00;  1.0000000E+04;  0.0000000E+00;  1.0000000E+04;  0.0000000E+00;  0.0000000E+00;  0.0000000E+00;  0.0000000E+00;
  9.8000002E-01;  9.9999998E-03; -2.0000000E-02;2562;  0.0000000E+00;  0.0000000E+00;  0.0000000E+00;  1.0000000E+03;  4.0000001E-01;  0.0000000E+00;3;  0.0000000E+00;  0.0000000E+00;  0.0000000E+00;0;  0.0000000E+00;  1.0000000E+04;  0.0000000E+00;  0.0000000E+00;  1.0000000E+04;  0.0000000E+00;  1.0000000E+04;  0.0000000E+00;  0.0000000E+00;  0.0000000E+00;  0.0000000E+00;
  1.0000000E+00;  9.9999998E-03; -1.8000001E-01;2585;  0.0000000E+00;  0.0000000E+00;  0.0000000E+00;  1.0000000E+03;  4.0000001E-01;  0.0000000E+00;3;  0.0000000E+00;  0.0000000E+00;  0.0000000E+00;0;  0.0000000E+00;  1.0000000E+04;  0.0000000E+00;  0.0000000E+00;  1.0000000E+04;  0.0000000E+00;  1.0000000E+04;  0.0000000E+00;  0.0000000E+00;  0.0000000E+00;  0.0000000E+00;
  1.0000000E+00;  9.9999998E-03; -1.6000000E-01;2586;  0.0000000E+00;  0.0000000E+00;  0.0000000E+00;  1.0000000E+03;  4.0000001E-01;  0.0000000E+00;3;  0.0000000E+00;  0.0000000E+00;  0.0000000E+00;0;  0.0000000E+00;  1.0000000E+04;  0.0000000E+00;  0.0000000E+00;  1.0000000E+04;  0.0000000E+00;  1.0000000E+04;  0.0000000E+00;  0.0000000E+00;  0.0000000E+00;  0.0000000E+00;
  1.0000000E+00;  9.9999998E-03; -1.4000000E-01;2587;  0.0000000E+00;  0.0000000E+00;  0.0000000E+00;  1.0000000E+03;  4.0000001E-01;  0.0000000E+00;3;  0.0000000E+00;  0.0000000E+00;  0.0000000E+00;0;  0.0000000E+00;  1.0000000E+04;  0.0000000E+00;  0.0000000E+00;  1.0000000E+04;  0.0000000E+00;  1.0000000E+04;  0.0000000E+00;  0.0000000E+00;  0.0000000E+00;  0.0000000E+00;
  1.0000000E+00;  9.9999998E-03; -1.2000000E-01;2588;  0.0000000E+00;  0.0000000E+00;  0.0000000E+00;  1.0000000E+03;  4.0000001E-01;  0.0000000E+00;3;  0.0000000E+00;  0.0000000E+00;  0.0000000E+00;0;  0.0000000E+00;  1.0000000E+04;  0.0000000E+00;  0.0000000E+00;  1.0000000E+04;  0.0000000E+00;  1.0000000E+04;  0.0000000E+00;  0.0000000E+00;  0.0000000E+00;  0.0000000E+00;
  1.0000000E+00;  9.9999998E-03; -1.0000000E-01;2589;  0.0000000E+00;  0.0000000E+00;  0.0000000E+00;  1.0000000E+03;  4.0000001E-01;  0.0000000E+00;3;  0.0000000E+00;  0.0000000E+00;  0.0000000E+00;0;  0.0000000E+00;  1.0000000E+04;  0.0000000E+00;  0.0000000E+00;  1.0000000E+04;  0.0000000E+00;  1.0000000E+04;  0.0000000E+00;  0.0000000E+00;  0.0000000E+00;  0.0000000E+00;
  1.0000000E+00;  9.9999998E-03; -7.9999998E-02;2590;  0.0000000E+00;  0.0000000E+00;  0.0000000E+00;  1.0000000E+03;  4.0000001E-01;  0.0000000E+00;3;  0.0000000E+00;  0.0000000E+00;  0.0000000E+00;0;  0.0000000E+00;  1.0000000E+04;  0.0000000E+00;  0.0000000E+00;  1.0000000E+04;  0.0000000E+00;  1.0000000E+04;  0.0000000E+00;  0.0000000E+00;  0.0000000E+00;  0.0000000E+00;
  1.0000000E+00;  9.9999998E-03; -5.9999999E-02;2591;  0.0000000E+00;  0.0000000E+00;  0.0000000E+00;  1.0000000E+03;  4.0000001E-01;  0.0000000E+00;3;  0.0000000E+00;  0.0000000E+00;  0.0000000E+00;0;  0.0000000E+00;  1.0000000E+04;  0.0000000E+00;  0.0000000E+00;  1.0000000E+04;  0.0000000E+00;  1.0000000E+04;  0.0000000E+00;  0.0000000E+00;  0.0000000E+00;  0.0000000E+00;
  1.0000000E+00;  9.9999998E-03; -3.9999999E-02;2592;  0.0000000E+00;  0.0000000E+00;  0.0000000E+00;  1.0000000E+03;  4.0000001E-01;  0.0000000E+00;3;  0.0000000E+00;  0.0000000E+00;  0.0000000E+00;0;  0.0000000E+00;  1.0000000E+04;  0.0000000E+00;  0.0000000E+00;  1.0000000E+04;  0.0000000E+00;  1.0000000E+04;  0.0000000E+00;  0.0000000E+00;  0.0000000E+00;  0.0000000E+00;
  1.0000000E+00;  9.9999998E-03; -2.0000000E-02;2593;  0.0000000E+00;  0.0000000E+00;  0.0000000E+00;  1.0000000E+03;  4.0000001E-01;  0.0000000E+00;3;  0.0000000E+00;  0.0000000E+00;  0.0000000E+00;0;  0.0000000E+00;  1.0000000E+04;  0.0000000E+00;  0.0000000E+00;  1.0000000E+04;  0.0000000E+00;  1.0000000E+04;  0.0000000E+00;  0.0000000E+00;  0.0000000E+00;  0.0000000E+00;
  1.0200000E+00;  9.9999998E-03; -1.8000001E-01;2616;  0.0000000E+00;  0.0000000E+00;  0.0000000E+00;  1.0000000E+03;  4.0000001E-01;  0.0000000E+00;3;  0.0000000E+00;  0.0000000E+00;  0.0000000E+00;0;  0.0000000E+00;  1.0000000E+04;  0.0000000E+00;  0.0000000E+00;  1.0000000E+04;  0.0000000E+00;  1.0000000E+04;  0.0000000E+00;  0.0000000E+00;  0.0000000E+00;  0.0000000E+00;
  1.0200000E+00;  9.9999998E-03; -1.6000000E-01;2617;  0.0000000E+00;  0.0000000E+00;  0.0000000E+00;  1.0000000E+03;  4.0000001E-01;  0.0000000E+00;3;  0.0000000E+00;  0.0000000E+00;  0.0000000E+00;0;  0.0000000E+00;  1.0000000E+04;  0.0000000E+00;  0.0000000E+00;  1.0000000E+04;  0.0000000E+00;  1.0000000E+04;  0.0000000E+00;  0.0000000E+00;  0.0000000E+00;  0.0000000E+00;
  1.0200000E+00;  9.9999998E-03; -1.4000000E-01;2618;  0.0000000E+00;  0.0000000E+00;  0.0000000E+00;  1.0000000E+03;  4.0000001E-01;  0.0000000E+00;3;  0.0000000E+00;  0.0000000E+00;  0.0000000E+00;0;  0.0000000E+00;  1.0000000E+04;  0.0000000E+00;  0.0000000E+00;  1.0000000E+04;  0.0000000E+00;  1.0000000E+04;  0.0000000E+00;  0.0000000E+00;  0.0000000E+00;  0.0000000E+00;
  1.0200000E+00;  9.9999998E-03; -1.2000000E-01;2619;  0.0000000E+00;  0.0000000E+00;  0.0000000E+00;  1.0000000E+03;  4.0000001E-01;  0.0000000E+00;3;  0.0000000E+00;  0.0000000E+00;  0.0000000E+00;0;  0.0000000E+00;  1.0000000E+04;  0.0000000E+00;  0.0000000E+00;  1.0000000E+04;  0.0000000E+00;  1.0000000E+04;  0.0000000E+00;  0.0000000E+00;  0.0000000E+00;  0.0000000E+00;
  1.0200000E+00;  9.9999998E-03; -1.0000000E-01;2620;  0.0000000E+00;  0.0000000E+00;  0.0000000E+00;  1.0000000E+03;  4.0000001E-01;  0.0000000E+00;3;  0.0000000E+00;  0.0000000E+00;  0.0000000E+00;0;  0.0000000E+00;  1.0000000E+04;  0.0000000E+00;  0.0000000E+00;  1.0000000E+04;  0.0000000E+00;  1.0000000E+04;  0.0000000E+00;  0.0000000E+00;  0.0000000E+00;  0.0000000E+00;
  1.0200000E+00;  9.9999998E-03; -7.9999998E-02;2621;  0.0000000E+00;  0.0000000E+00;  0.0000000E+00;  1.0000000E+03;  4.0000001E-01;  0.0000000E+00;3;  0.0000000E+00;  0.0000000E+00;  0.0000000E+00;0;  0.0000000E+00;  1.0000000E+04;  0.0000000E+00;  0.0000000E+00;  1.0000000E+04;  0.0000000E+00;  1.0000000E+04;  0.0000000E+00;  0.0000000E+00;  0.0000000E+00;  0.0000000E+00;
  1.0200000E+00;  9.9999998E-03; -5.9999999E-02;2622;  0.0000000E+00;  0.0000000E+00;  0.0000000E+00;  1.0000000E+03;  4.0000001E-01;  0.0000000E+00;3;  0.0000000E+00;  0.0000000E+00;  0.0000000E+00;0;  0.0000000E+00;  1.0000000E+04;  0.0000000E+00;  0.0000000E+00;  1.0000000E+04;  0.0000000E+00;  1.0000000E+04;  0.0000000E+00;  0.0000000E+00;  0.0000000E+00;  0.0000000E+00;
  1.0200000E+00;  9.9999998E-03; -3.9999999E-02;2623;  0.0000000E+00;  0.0000000E+00;  0.0000000E+00;  1.0000000E+03;  4.0000001E-01;  0.0000000E+00;3;  0.0000000E+00;  0.0000000E+00;  0.0000000E+00;0;  0.0000000E+00;  1.0000000E+04;  0.0000000E+00;  0.0000000E+00;  1.0000000E+04;  0.0000000E+00;  1.0000000E+04;  0.0000000E+00;  0.0000000E+00;  0.0000000E+00;  0.0000000E+00;
  1.0200000E+00;  9.9999998E-03; -2.0000000E-02;2624;  0.0000000E+00;  0.0000000E+00;  0.0000000E+00;  1.0000000E+03;  4.0000001E-01;  0.0000000E+00;3;  0.0000000E+00;  0.0000000E+00;  0.0000000E+00;0;  0.0000000E+00;  1.0000000E+04;  0.0000000E+00;  0.0000000E+00;  1.0000000E+04;  0.0000000E+00;  1.0000000E+04;  0.0000000E+00;  0.0000000E+00;  0.0000000E+00;  0.0000000E+00;
  1.0400000E+00;  9.9999998E-03; -1.8000001E-01;2647;  0.0000000E+00;  0.0000000E+00;  0.0000000E+00;  1.0000000E+03;  4.0000001E-01;  0.0000000E+00;3;  0.0000000E+00;  0.0000000E+00;  0.0000000E+00;0;  0.0000000E+00;  1.0000000E+04;  0.0000000E+00;  0.0000000E+00;  1.0000000E+04;  0.0000000E+00;  1.0000000E+04;  0.0000000E+00;  0.0000000E+00;  0.0000000E+00;  0.0000000E+00;
  1.0400000E+00;  9.9999998E-03; -1.6000000E-01;2648;  0.0000000E+00;  0.0000000E+00;  0.0000000E+00;  1.0000000E+03;  4.0000001E-01;  0.0000000E+00;3;  0.0000000E+00;  0.0000000E+00;  0.0000000E+00;0;  0.0000000E+00;  1.0000000E+04;  0.0000000E+00;  0.0000000E+00;  1.0000000E+04;  0.0000000E+00;  1.0000000E+04;  0.0000000E+00;  0.0000000E+00;  0.0000000E+00;  0.0000000E+00;
  1.0400000E+00;  9.9999998E-03; -1.4000000E-01;2649;  0.0000000E+00;  0.0000000E+00;  0.0000000E+00;  1.0000000E+03;  4.0000001E-01;  0.0000000E+00;3;  0.0000000E+00;  0.0000000E+00;  0.0000000E+00;0;  0.0000000E+00;  1.0000000E+04;  0.0000000E+00;  0.0000000E+00;  1.0000000E+04;  0.0000000E+00;  1.0000000E+04;  0.0000000E+00;  0.0000000E+00;  0.0000000E+00;  0.0000000E+00;
  1.0400000E+00;  9.9999998E-03; -1.2000000E-01;2650;  0.0000000E+00;  0.0000000E+00;  0.0000000E+00;  1.0000000E+03;  4.0000001E-01;  0.0000000E+00;3;  0.0000000E+00;  0.0000000E+00;  0.0000000E+00;0;  0.0000000E+00;  1.0000000E+04;  0.0000000E+00;  0.0000000E+00;  1.0000000E+04;  0.0000000E+00;  1.0000000E+04;  0.0000000E+00;  0.0000000E+00;  0.0000000E+00;  0.0000000E+00;
  1.0400000E+00;  9.9999998E-03; -1.0000000E-01;2651;  0.0000000E+00;  0.0000000E+00;  0.0000000E+00;  1.0000000E+03;  4.0000001E-01;  0.0000000E+00;3;  0.0000000E+00;  0.0000000E+00;  0.0000000E+00;0;  0.0000000E+00;  1.0000000E+04;  0.0000000E+00;  0.0000000E+00;  1.0000000E+04;  0.0000000E+00;  1.0000000E+04;  0.0000000E+00;  0.0000000E+00;  0.0000000E+00;  0.0000000E+00;
  1.0400000E+00;  9.9999998E-03; -7.9999998E-02;2652;  0.0000000E+00;  0.0000000E+00;  0.0000000E+00;  1.0000000E+03;  4.0000001E-01;  0.0000000E+00;3;  0.0000000E+00;  0.0000000E+00;  0.0000000E+00;0;  0.0000000E+00;  1.0000000E+04;  0.0000000E+00;  0.0000000E+00;  1.0000000E+04;  0.0000000E+00;  1.0000000E+04;  0.0000000E+00;  0.0000000E+00;  0.0000000E+00;  0.0000000E+00;
  1.0400000E+00;  9.9999998E-03; -5.9999999E-02;2653;  0.0000000E+00;  0.0000000E+00;  0.0000000E+00;  1.0000000E+03;  4.0000001E-01;  0.0000000E+00;3;  0.0000000E+00;  0.0000000E+00;  0.0000000E+00;0;  0.0000000E+00;  1.0000000E+04;  0.0000000E+00;  0.0000000E+00;  1.0000000E+04;  0.0000000E+00;  1.0000000E+04;  0.0000000E+00;  0.0000000E+00;  0.0000000E+00;  0.0000000E+00;
  1.0400000E+00;  9.9999998E-03; -3.9999999E-02;2654;  0.0000000E+00;  0.0000000E+00;  0.0000000E+00;  1.0000000E+03;  4.0000001E-01;  0.0000000E+00;3;  0.0000000E+00;  0.0000000E+00;  0.0000000E+00;0;  0.0000000E+00;  1.0000000E+04;  0.0000000E+00;  0.0000000E+00;  1.0000000E+04;  0.0000000E+00;  1.0000000E+04;  0.0000000E+00;  0.0000000E+00;  0.0000000E+00;  0.0000000E+00;
  1.0400000E+00;  9.9999998E-03; -2.0000000E-02;2655;  0.0000000E+00;  0.0000000E+00;  0.0000000E+00;  1.0000000E+03;  4.0000001E-01;  0.0000000E+00;3;  0.0000000E+00;  0.0000000E+00;  0.0000000E+00;0;  0.0000000E+00;  1.0000000E+04;  0.0000000E+00;  0.0000000E+00;  1.0000000E+04;  0.0000000E+00;  1.0000000E+04;  0.0000000E+00;  0.0000000E+00;  0.0000000E+00;  0.0000000E+00;
  1.0599999E+00;  9.9999998E-03; -1.8000001E-01;2678;  0.0000000E+00;  0.0000000E+00;  0.0000000E+00;  1.0000000E+03;  4.0000001E-01;  0.0000000E+00;3;  0.0000000E+00;  0.0000000E+00;  0.0000000E+00;0;  0.0000000E+00;  1.0000000E+04;  0.0000000E+00;  0.0000000E+00;  1.0000000E+04;  0.0000000E+00;  1.0000000E+04;  0.0000000E+00;  0.0000000E+00;  0.0000000E+00;  0.0000000E+00;
  1.0599999E+00;  9.9999998E-03; -1.6000000E-01;2679;  0.0000000E+00;  0.0000000E+00;  0.0000000E+00;  1.0000000E+03;  4.0000001E-01;  0.0000000E+00;3;  0.0000000E+00;  0.0000000E+00;  0.0000000E+00;0;  0.0000000E+00;  1.0000000E+04;  0.0000000E+00;  0.0000000E+00;  1.0000000E+04;  0.0000000E+00;  1.0000000E+04;  0.0000000E+00;  0.0000000E+00;  0.0000000E+00;  0.0000000E+00;
  1.0599999E+00;  9.9999998E-03; -1.4000000E-01;2680;  0.0000000E+00;  0.0000000E+00;  0.0000000E+00;  1.0000000E+03;  4.0000001E-01;  0.0000000E+00;3;  0.0000000E+00;  0.0000000E+00;  0.0000000E+00;0;  0.0000000E+00;  1.0000000E+04;  0.0000000E+00;  0.0000000E+00;  1.0000000E+04;  0.0000000E+00;  1.0000000E+04;  0.0000000E+00;  0.0000000E+00;  0.0000000E+00;  0.0000000E+00;
  1.0599999E+00;  9.9999998E-03; -1.2000000E-01;2681;  0.0000000E+00;  0.0000000E+00;  0.0000000E+00;  1.0000000E+03;  4.0000001E-01;  0.0000000E+00;3;  0.0000000E+00;  0.0000000E+00;  0.0000000E+00;0;  0.0000000E+00;  1.0000000E+04;  0.0000000E+00;  0.0000000E+00;  1.0000000E+04;  0.0000000E+00;  1.0000000E+04;  0.0000000E+00;  0.0000000E+00;  0.0000000E+00;  0.0000000E+00;
  1.0599999E+00;  9.9999998E-03; -1.0000000E-01;2682;  0.0000000E+00;  0.0000000E+00;  0.0000000E+00;  1.0000000E+03;  4.0000001E-01;  0.0000000E+00;3;  0.0000000E+00;  0.0000000E+00;  0.0000000E+00;0;  0.0000000E+00;  1.0000000E+04;  0.0000000E+00;  0.0000000E+00;  1.0000000E+04;  0.0000000E+00;  1.0000000E+04;  0.0000000E+00;  0.0000000E+00;  0.0000000E+00;  0.0000000E+00;
  1.0599999E+00;  9.9999998E-03; -7.9999998E-02;2683;  0.0000000E+00;  0.0000000E+00;  0.0000000E+00;  1.0000000E+03;  4.0000001E-01;  0.0000000E+00;3;  0.0000000E+00;  0.0000000E+00;  0.0000000E+00;0;  0.0000000E+00;  1.0000000E+04;  0.0000000E+00;  0.0000000E+00;  1.0000000E+04;  0.0000000E+00;  1.0000000E+04;  0.0000000E+00;  0.0000000E+00;  0.0000000E+00;  0.0000000E+00;
  1.0599999E+00;  9.9999998E-03; -5.9999999E-02;2684;  0.0000000E+00;  0.0000000E+00;  0.0000000E+00;  1.0000000E+03;  4.0000001E-01;  0.0000000E+00;3;  0.0000000E+00;  0.0000000E+00;  0.0000000E+00;0;  0.0000000E+00;  1.0000000E+04;  0.0000000E+00;  0.0000000E+00;  1.0000000E+04;  0.0000000E+00;  1.0000000E+04;  0.0000000E+00;  0.0000000E+00;  0.0000000E+00;  0.0000000E+00;
  1.0599999E+00;  9.9999998E-03; -3.9999999E-02;2685;  0.0000000E+00;  0.0000000E+00;  0.0000000E+00;  1.0000000E+03;  4.0000001E-01;  0.0000000E+00;3;  0.0000000E+00;  0.0000000E+00;  0.0000000E+00;0;  0.0000000E+00;  1.0000000E+04;  0.0000000E+00;  0.0000000E+00;  1.0000000E+04;  0.0000000E+00;  1.0000000E+04;  0.0000000E+00;  0.0000000E+00;  0.0000000E+00;  0.0000000E+00;
  1.0599999E+00;  9.9999998E-03; -2.0000000E-02;2686;  0.0000000E+00;  0.0000000E+00;  0.0000000E+00;  1.0000000E+03;  4.0000001E-01;  0.0000000E+00;3;  0.0000000E+00;  0.0000000E+00;  0.0000000E+00;0;  0.0000000E+00;  1.0000000E+04;  0.0000000E+00;  0.0000000E+00;  1.0000000E+04;  0.0000000E+00;  1.0000000E+04;  0.0000000E+00;  0.0000000E+00;  0.0000000E+00;  0.0000000E+00;
  1.0800000E+00;  9.9999998E-03; -1.8000001E-01;2709;  0.0000000E+00;  0.0000000E+00;  0.0000000E+00;  1.0000000E+03;  4.0000001E-01;  0.0000000E+00;3;  0.0000000E+00;  0.0000000E+00;  0.0000000E+00;0;  0.0000000E+00;  1.0000000E+04;  0.0000000E+00;  0.0000000E+00;  1.0000000E+04;  0.0000000E+00;  1.0000000E+04;  0.0000000E+00;  0.0000000E+00;  0.0000000E+00;  0.0000000E+00;
  1.0800000E+00;  9.9999998E-03; -1.6000000E-01;2710;  0.0000000E+00;  0.0000000E+00;  0.0000000E+00;  1.0000000E+03;  4.0000001E-01;  0.0000000E+00;3;  0.0000000E+00;  0.0000000E+00;  0.0000000E+00;0;  0.0000000E+00;  1.0000000E+04;  0.0000000E+00;  0.0000000E+00;  1.0000000E+04;  0.0000000E+00;  1.0000000E+04;  0.0000000E+00;  0.0000000E+00;  0.0000000E+00;  0.0000000E+00;
  1.0800000E+00;  9.9999998E-03; -1.4000000E-01;2711;  0.0000000E+00;  0.0000000E+00;  0.0000000E+00;  1.0000000E+03;  4.0000001E-01;  0.0000000E+00;3;  0.0000000E+00;  0.0000000E+00;  0.0000000E+00;0;  0.0000000E+00;  1.0000000E+04;  0.0000000E+00;  0.0000000E+00;  1.0000000E+04;  0.0000000E+00;  1.0000000E+04;  0.0000000E+00;  0.0000000E+00;  0.0000000E+00;  0.0000000E+00;
  1.0800000E+00;  9.9999998E-03; -1.2000000E-01;2712;  0.0000000E+00;  0.0000000E+00;  0.0000000E+00;  1.0000000E+03;  4.0000001E-01;  0.0000000E+00;3;  0.0000000E+00;  0.0000000E+00;  0.0000000E+00;0;  0.0000000E+00;  1.0000000E+04;  0.0000000E+00;  0.0000000E+00;  1.0000000E+04;  0.0000000E+00;  1.0000000E+04;  0.0000000E+00;  0.0000000E+00;  0.0000000E+00;  0.0000000E+00;
  1.0800000E+00;  9.9999998E-03; -1.0000000E-01;2713;  0.0000000E+00;  0.0000000E+00;  0.0000000E+00;  1.0000000E+03;  4.0000001E-01;  0.0000000E+00;3;  0.0000000E+00;  0.0000000E+00;  0.0000000E+00;0;  0.0000000E+00;  1.0000000E+04;  0.0000000E+00;  0.0000000E+00;  1.0000000E+04;  0.0000000E+00;  1.0000000E+04;  0.0000000E+00;  0.0000000E+00;  0.0000000E+00;  0.0000000E+00;
  1.0800000E+00;  9.9999998E-03; -7.9999998E-02;2714;  0.0000000E+00;  0.0000000E+00;  0.0000000E+00;  1.0000000E+03;  4.0000001E-01;  0.0000000E+00;3;  0.0000000E+00;  0.0000000E+00;  0.0000000E+00;0;  0.0000000E+00;  1.0000000E+04;  0.0000000E+00;  0.0000000E+00;  1.0000000E+04;  0.0000000E+00;  1.0000000E+04;  0.0000000E+00;  0.0000000E+00;  0.0000000E+00;  0.0000000E+00;
  1.0800000E+00;  9.9999998E-03; -5.9999999E-02;2715;  0.0000000E+00;  0.0000000E+00;  0.0000000E+00;  1.0000000E+03;  4.0000001E-01;  0.0000000E+00;3;  0.0000000E+00;  0.0000000E+00;  0.0000000E+00;0;  0.0000000E+00;  1.0000000E+04;  0.0000000E+00;  0.0000000E+00;  1.0000000E+04;  0.0000000E+00;  1.0000000E+04;  0.0000000E+00;  0.0000000E+00;  0.0000000E+00;  0.0000000E+00;
  1.0800000E+00;  9.9999998E-03; -3.9999999E-02;2716;  0.0000000E+00;  0.0000000E+00;  0.0000000E+00;  1.0000000E+03;  4.0000001E-01;  0.0000000E+00;3;  0.0000000E+00;  0.0000000E+00;  0.0000000E+00;0;  0.0000000E+00;  1.0000000E+04;  0.0000000E+00;  0.0000000E+00;  1.0000000E+04;  0.0000000E+00;  1.0000000E+04;  0.0000000E+00;  0.0000000E+00;  0.0000000E+00;  0.0000000E+00;
  1.0800000E+00;  9.9999998E-03; -2.0000000E-02;2717;  0.0000000E+00;  0.0000000E+00;  0.0000000E+00;  1.0000000E+03;  4.0000001E-01;  0.0000000E+00;3;  0.0000000E+00;  0.0000000E+00;  0.0000000E+00;0;  0.0000000E+00;  1.0000000E+04;  0.0000000E+00;  0.0000000E+00;  1.0000000E+04;  0.0000000E+00;  1.0000000E+04;  0.0000000E+00;  0.0000000E+00;  0.0000000E+00;  0.0000000E+00;
  1.1000000E+00;  9.9999998E-03; -1.8000001E-01;2739;  0.0000000E+00;  0.0000000E+00;  0.0000000E+00;  1.0000000E+03;  4.0000001E-01;  0.0000000E+00;3;  0.0000000E+00;  0.0000000E+00;  0.0000000E+00;0;  0.0000000E+00;  1.0000000E+04;  0.0000000E+00;  0.0000000E+00;  1.0000000E+04;  0.0000000E+00;  1.0000000E+04;  0.0000000E+00;  0.0000000E+00;  0.0000000E+00;  0.0000000E+00;
  1.1000000E+00;  9.9999998E-03; -1.6000000E-01;2740;  0.0000000E+00;  0.0000000E+00;  0.0000000E+00;  1.0000000E+03;  4.0000001E-01;  0.0000000E+00;3;  0.0000000E+00;  0.0000000E+00;  0.0000000E+00;0;  0.0000000E+00;  1.0000000E+04;  0.0000000E+00;  0.0000000E+00;  1.0000000E+04;  0.0000000E+00;  1.0000000E+04;  0.0000000E+00;  0.0000000E+00;  0.0000000E+00;  0.0000000E+00;
  1.1000000E+00;  9.9999998E-03; -1.4000000E-01;2741;  0.0000000E+00;  0.0000000E+00;  0.0000000E+00;  1.0000000E+03;  4.0000001E-01;  0.0000000E+00;3;  0.0000000E+00;  0.0000000E+00;  0.0000000E+00;0;  0.0000000E+00;  1.0000000E+04;  0.0000000E+00;  0.0000000E+00;  1.0000000E+04;  0.0000000E+00;  1.0000000E+04;  0.0000000E+00;  0.0000000E+00;  0.0000000E+00;  0.0000000E+00;
  1.1000000E+00;  9.9999998E-03; -1.2000000E-01;2742;  0.0000000E+00;  0.0000000E+00;  0.0000000E+00;  1.0000000E+03;  4.0000001E-01;  0.0000000E+00;3;  0.0000000E+00;  0.0000000E+00;  0.0000000E+00;0;  0.0000000E+00;  1.0000000E+04;  0.0000000E+00;  0.0000000E+00;  1.0000000E+04;  0.0000000E+00;  1.0000000E+04;  0.0000000E+00;  0.0000000E+00;  0.0000000E+00;  0.0000000E+00;
  1.1000000E+00;  9.9999998E-03; -1.0000000E-01;2743;  0.0000000E+00;  0.0000000E+00;  0.0000000E+00;  1.0000000E+03;  4.0000001E-01;  0.0000000E+00;3;  0.0000000E+00;  0.0000000E+00;  0.0000000E+00;0;  0.0000000E+00;  1.0000000E+04;  0.0000000E+00;  0.0000000E+00;  1.0000000E+04;  0.0000000E+00;  1.0000000E+04;  0.0000000E+00;  0.0000000E+00;  0.0000000E+00;  0.0000000E+00;
  1.1000000E+00;  9.9999998E-03; -7.9999998E-02;2744;  0.0000000E+00;  0.0000000E+00;  0.0000000E+00;  1.0000000E+03;  4.0000001E-01;  0.0000000E+00;3;  0.0000000E+00;  0.0000000E+00;  0.0000000E+00;0;  0.0000000E+00;  1.0000000E+04;  0.0000000E+00;  0.0000000E+00;  1.0000000E+04;  0.0000000E+00;  1.0000000E+04;  0.0000000E+00;  0.0000000E+00;  0.0000000E+00;  0.0000000E+00;
  1.1000000E+00;  9.9999998E-03; -5.9999999E-02;2745;  0.0000000E+00;  0.0000000E+00;  0.0000000E+00;  1.0000000E+03;  4.0000001E-01;  0.0000000E+00;3;  0.0000000E+00;  0.0000000E+00;  0.0000000E+00;0;  0.0000000E+00;  1.0000000E+04;  0.0000000E+00;  0.0000000E+00;  1.0000000E+04;  0.0000000E+00;  1.0000000E+04;  0.0000000E+00;  0.0000000E+00;  0.0000000E+00;  0.0000000E+00;
  1.1000000E+00;  9.9999998E-03; -3.9999999E-02;2746;  0.0000000E+00;  0.0000000E+00;  0.0000000E+00;  1.0000000E+03;  4.0000001E-01;  0.0000000E+00;3;  0.0000000E+00;  0.0000000E+00;  0.0000000E+00;0;  0.0000000E+00;  1.0000000E+04;  0.0000000E+00;  0.0000000E+00;  1.0000000E+04;  0.0000000E+00;  1.0000000E+04;  0.0000000E+00;  0.0000000E+00;  0.0000000E+00;  0.0000000E+00;
  1.1000000E+00;  9.9999998E-03; -2.0000000E-02;2747;  0.0000000E+00;  0.0000000E+00;  0.0000000E+00;  1.0000000E+03;  4.0000001E-01;  0.0000000E+00;3;  0.0000000E+00;  0.0000000E+00;  0.0000000E+00;0;  0.0000000E+00;  1.0000000E+04;  0.0000000E+00;  0.0000000E+00;  1.0000000E+04;  0.0000000E+00;  1.0000000E+04;  0.0000000E+00;  0.0000000E+00;  0.0000000E+00;  0.0000000E+00;
  1.1200000E+00;  9.9999998E-03; -1.8000001E-01;2768;  0.0000000E+00;  0.0000000E+00;  0.0000000E+00;  1.0000000E+03;  4.0000001E-01;  0.0000000E+00;3;  0.0000000E+00;  0.0000000E+00;  0.0000000E+00;0;  0.0000000E+00;  1.0000000E+04;  0.0000000E+00;  0.0000000E+00;  1.0000000E+04;  0.0000000E+00;  1.0000000E+04;  0.0000000E+00;  0.0000000E+00;  0.0000000E+00;  0.0000000E+00;
  1.1200000E+00;  9.9999998E-03; -1.6000000E-01;2769;  0.0000000E+00;  0.0000000E+00;  0.0000000E+00;  1.0000000E+03;  4.0000001E-01;  0.0000000E+00;3;  0.0000000E+00;  0.0000000E+00;  0.0000000E+00;0;  0.0000000E+00;  1.0000000E+04;  0.0000000E+00;  0.0000000E+00;  1.0000000E+04;  0.0000000E+00;  1.0000000E+04;  0.0000000E+00;  0.0000000E+00;  0.0000000E+00;  0.0000000E+00;
  1.1200000E+00;  9.9999998E-03; -1.4000000E-01;2770;  0.0000000E+00;  0.0000000E+00;  0.0000000E+00;  1.0000000E+03;  4.0000001E-01;  0.0000000E+00;3;  0.0000000E+00;  0.0000000E+00;  0.0000000E+00;0;  0.0000000E+00;  1.0000000E+04;  0.0000000E+00;  0.0000000E+00;  1.0000000E+04;  0.0000000E+00;  1.0000000E+04;  0.0000000E+00;  0.0000000E+00;  0.0000000E+00;  0.0000000E+00;
  1.1200000E+00;  9.9999998E-03; -1.2000000E-01;2771;  0.0000000E+00;  0.0000000E+00;  0.0000000E+00;  1.0000000E+03;  4.0000001E-01;  0.0000000E+00;3;  0.0000000E+00;  0.0000000E+00;  0.0000000E+00;0;  0.0000000E+00;  1.0000000E+04;  0.0000000E+00;  0.0000000E+00;  1.0000000E+04;  0.0000000E+00;  1.0000000E+04;  0.0000000E+00;  0.0000000E+00;  0.0000000E+00;  0.0000000E+00;
  1.1200000E+00;  9.9999998E-03; -1.0000000E-01;2772;  0.0000000E+00;  0.0000000E+00;  0.0000000E+00;  1.0000000E+03;  4.0000001E-01;  0.0000000E+00;3;  0.0000000E+00;  0.0000000E+00;  0.0000000E+00;0;  0.0000000E+00;  1.0000000E+04;  0.0000000E+00;  0.0000000E+00;  1.0000000E+04;  0.0000000E+00;  1.0000000E+04;  0.0000000E+00;  0.0000000E+00;  0.0000000E+00;  0.0000000E+00;
  1.1200000E+00;  9.9999998E-03; -7.9999998E-02;2773;  0.0000000E+00;  0.0000000E+00;  0.0000000E+00;  1.0000000E+03;  4.0000001E-01;  0.0000000E+00;3;  0.0000000E+00;  0.0000000E+00;  0.0000000E+00;0;  0.0000000E+00;  1.0000000E+04;  0.0000000E+00;  0.0000000E+00;  1.0000000E+04;  0.0000000E+00;  1.0000000E+04;  0.0000000E+00;  0.0000000E+00;  0.0000000E+00;  0.0000000E+00;
  1.1200000E+00;  9.9999998E-03; -5.9999999E-02;2774;  0.0000000E+00;  0.0000000E+00;  0.0000000E+00;  1.0000000E+03;  4.0000001E-01;  0.0000000E+00;3;  0.0000000E+00;  0.0000000E+00;  0.0000000E+00;0;  0.0000000E+00;  1.0000000E+04;  0.0000000E+00;  0.0000000E+00;  1.0000000E+04;  0.0000000E+00;  1.0000000E+04;  0.0000000E+00;  0.0000000E+00;  0.0000000E+00;  0.0000000E+00;
  1.1200000E+00;  9.9999998E-03; -3.9999999E-02;2775;  0.0000000E+00;  0.0000000E+00;  0.0000000E+00;  1.0000000E+03;  4.0000001E-01;  0.0000000E+00;3;  0.0000000E+00;  0.0000000E+00;  0.0000000E+00;0;  0.0000000E+00;  1.0000000E+04;  0.0000000E+00;  0.0000000E+00;  1.0000000E+04;  0.0000000E+00;  1.0000000E+04;  0.0000000E+00;  0.0000000E+00;  0.0000000E+00;  0.0000000E+00;
  1.1200000E+00;  9.9999998E-03; -2.0000000E-02;2776;  0.0000000E+00;  0.0000000E+00;  0.0000000E+00;  1.0000000E+03;  4.0000001E-01;  0.0000000E+00;3;  0.0000000E+00;  0.0000000E+00;  0.0000000E+00;0;  0.0000000E+00;  1.0000000E+04;  0.0000000E+00;  0.0000000E+00;  1.0000000E+04;  0.0000000E+00;  1.0000000E+04;  0.0000000E+00;  0.0000000E+00;  0.0000000E+00;  0.0000000E+00;
  1.1400000E+00;  9.9999998E-03; -1.8000001E-01;2796;  0.0000000E+00;  0.0000000E+00;  0.0000000E+00;  1.0000000E+03;  4.0000001E-01;  0.0000000E+00;3;  0.0000000E+00;  0.0000000E+00;  0.0000000E+00;0;  0.0000000E+00;  1.0000000E+04;  0.0000000E+00;  0.0000000E+00;  1.0000000E+04;  0.0000000E+00;  1.0000000E+04;  0.0000000E+00;  0.0000000E+00;  0.0000000E+00;  0.0000000E+00;
  1.1400000E+00;  9.9999998E-03; -1.6000000E-01;2797;  0.0000000E+00;  0.0000000E+00;  0.0000000E+00;  1.0000000E+03;  4.0000001E-01;  0.0000000E+00;3;  0.0000000E+00;  0.0000000E+00;  0.0000000E+00;0;  0.0000000E+00;  1.0000000E+04;  0.0000000E+00;  0.0000000E+00;  1.0000000E+04;  0.0000000E+00;  1.0000000E+04;  0.0000000E+00;  0.0000000E+00;  0.0000000E+00;  0.0000000E+00;
  1.1400000E+00;  9.9999998E-03; -1.4000000E-01;2798;  0.0000000E+00;  0.0000000E+00;  0.0000000E+00;  1.0000000E+03;  4.0000001E-01;  0.0000000E+00;3;  0.0000000E+00;  0.0000000E+00;  0.0000000E+00;0;  0.0000000E+00;  1.0000000E+04;  0.0000000E+00;  0.0000000E+00;  1.0000000E+04;  0.0000000E+00;  1.0000000E+04;  0.0000000E+00;  0.0000000E+00;  0.0000000E+00;  0.0000000E+00;
  1.1400000E+00;  9.9999998E-03; -1.2000000E-01;2799;  0.0000000E+00;  0.0000000E+00;  0.0000000E+00;  1.0000000E+03;  4.0000001E-01;  0.0000000E+00;3;  0.0000000E+00;  0.0000000E+00;  0.0000000E+00;0;  0.0000000E+00;  1.0000000E+04;  0.0000000E+00;  0.0000000E+00;  1.0000000E+04;  0.0000000E+00;  1.0000000E+04;  0.0000000E+00;  0.0000000E+00;  0.0000000E+00;  0.0000000E+00;
  1.1400000E+00;  9.9999998E-03; -1.0000000E-01;2800;  0.0000000E+00;  0.0000000E+00;  0.0000000E+00;  1.0000000E+03;  4.0000001E-01;  0.0000000E+00;3;  0.0000000E+00;  0.0000000E+00;  0.0000000E+00;0;  0.0000000E+00;  1.0000000E+04;  0.0000000E+00;  0.0000000E+00;  1.0000000E+04;  0.0000000E+00;  1.0000000E+04;  0.0000000E+00;  0.0000000E+00;  0.0000000E+00;  0.0000000E+00;
  1.1400000E+00;  9.9999998E-03; -7.9999998E-02;2801;  0.0000000E+00;  0.0000000E+00;  0.0000000E+00;  1.0000000E+03;  4.0000001E-01;  0.0000000E+00;3;  0.0000000E+00;  0.0000000E+00;  0.0000000E+00;0;  0.0000000E+00;  1.0000000E+04;  0.0000000E+00;  0.0000000E+00;  1.0000000E+04;  0.0000000E+00;  1.0000000E+04;  0.0000000E+00;  0.0000000E+00;  0.0000000E+00;  0.0000000E+00;
  1.1400000E+00;  9.9999998E-03; -5.9999999E-02;2802;  0.0000000E+00;  0.0000000E+00;  0.0000000E+00;  1.0000000E+03;  4.0000001E-01;  0.0000000E+00;3;  0.0000000E+00;  0.0000000E+00;  0.0000000E+00;0;  0.0000000E+00;  1.0000000E+04;  0.0000000E+00;  0.0000000E+00;  1.0000000E+04;  0.0000000E+00;  1.0000000E+04;  0.0000000E+00;  0.0000000E+00;  0.0000000E+00;  0.0000000E+00;
  1.1400000E+00;  9.9999998E-03; -3.9999999E-02;2803;  0.0000000E+00;  0.0000000E+00;  0.0000000E+00;  1.0000000E+03;  4.0000001E-01;  0.0000000E+00;3;  0.0000000E+00;  0.0000000E+00;  0.0000000E+00;0;  0.0000000E+00;  1.0000000E+04;  0.0000000E+00;  0.0000000E+00;  1.0000000E+04;  0.0000000E+00;  1.0000000E+04;  0.0000000E+00;  0.0000000E+00;  0.0000000E+00;  0.0000000E+00;
  1.1400000E+00;  9.9999998E-03; -2.0000000E-02;2804;  0.0000000E+00;  0.0000000E+00;  0.0000000E+00;  1.0000000E+03;  4.0000001E-01;  0.0000000E+00;3;  0.0000000E+00;  0.0000000E+00;  0.0000000E+00;0;  0.0000000E+00;  1.0000000E+04;  0.0000000E+00;  0.0000000E+00;  1.0000000E+04;  0.0000000E+00;  1.0000000E+04;  0.0000000E+00;  0.0000000E+00;  0.0000000E+00;  0.0000000E+00;
  1.1600000E+00;  9.9999998E-03; -1.8000001E-01;2823;  0.0000000E+00;  0.0000000E+00;  0.0000000E+00;  1.0000000E+03;  4.0000001E-01;  0.0000000E+00;3;  0.0000000E+00;  0.0000000E+00;  0.0000000E+00;0;  0.0000000E+00;  1.0000000E+04;  0.0000000E+00;  0.0000000E+00;  1.0000000E+04;  0.0000000E+00;  1.0000000E+04;  0.0000000E+00;  0.0000000E+00;  0.0000000E+00;  0.0000000E+00;
  1.1600000E+00;  9.9999998E-03; -1.6000000E-01;2824;  0.0000000E+00;  0.0000000E+00;  0.0000000E+00;  1.0000000E+03;  4.0000001E-01;  0.0000000E+00;3;  0.0000000E+00;  0.0000000E+00;  0.0000000E+00;0;  0.0000000E+00;  1.0000000E+04;  0.0000000E+00;  0.0000000E+00;  1.0000000E+04;  0.0000000E+00;  1.0000000E+04;  0.0000000E+00;  0.0000000E+00;  0.0000000E+00;  0.0000000E+00;
  1.1600000E+00;  9.9999998E-03; -1.4000000E-01;2825;  0.0000000E+00;  0.0000000E+00;  0.0000000E+00;  1.0000000E+03;  4.0000001E-01;  0.0000000E+00;3;  0.0000000E+00;  0.0000000E+00;  0.0000000E+00;0;  0.0000000E+00;  1.0000000E+04;  0.0000000E+00;  0.0000000E+00;  1.0000000E+04;  0.0000000E+00;  1.0000000E+04;  0.0000000E+00;  0.0000000E+00;  0.0000000E+00;  0.0000000E+00;
  1.1600000E+00;  9.9999998E-03; -1.2000000E-01;2826;  0.0000000E+00;  0.0000000E+00;  0.0000000E+00;  1.0000000E+03;  4.0000001E-01;  0.0000000E+00;3;  0.0000000E+00;  0.0000000E+00;  0.0000000E+00;0;  0.0000000E+00;  1.0000000E+04;  0.0000000E+00;  0.0000000E+00;  1.0000000E+04;  0.0000000E+00;  1.0000000E+04;  0.0000000E+00;  0.0000000E+00;  0.0000000E+00;  0.0000000E+00;
  1.1600000E+00;  9.9999998E-03; -1.0000000E-01;2827;  0.0000000E+00;  0.0000000E+00;  0.0000000E+00;  1.0000000E+03;  4.0000001E-01;  0.0000000E+00;3;  0.0000000E+00;  0.0000000E+00;  0.0000000E+00;0;  0.0000000E+00;  1.0000000E+04;  0.0000000E+00;  0.0000000E+00;  1.0000000E+04;  0.0000000E+00;  1.0000000E+04;  0.0000000E+00;  0.0000000E+00;  0.0000000E+00;  0.0000000E+00;
  1.1600000E+00;  9.9999998E-03; -7.9999998E-02;2828;  0.0000000E+00;  0.0000000E+00;  0.0000000E+00;  1.0000000E+03;  4.0000001E-01;  0.0000000E+00;3;  0.0000000E+00;  0.0000000E+00;  0.0000000E+00;0;  0.0000000E+00;  1.0000000E+04;  0.0000000E+00;  0.0000000E+00;  1.0000000E+04;  0.0000000E+00;  1.0000000E+04;  0.0000000E+00;  0.0000000E+00;  0.0000000E+00;  0.0000000E+00;
  1.1600000E+00;  9.9999998E-03; -5.9999999E-02;2829;  0.0000000E+00;  0.0000000E+00;  0.0000000E+00;  1.0000000E+03;  4.0000001E-01;  0.0000000E+00;3;  0.0000000E+00;  0.0000000E+00;  0.0000000E+00;0;  0.0000000E+00;  1.0000000E+04;  0.0000000E+00;  0.0000000E+00;  1.0000000E+04;  0.0000000E+00;  1.0000000E+04;  0.0000000E+00;  0.0000000E+00;  0.0000000E+00;  0.0000000E+00;
  1.1600000E+00;  9.9999998E-03; -3.9999999E-02;2830;  0.0000000E+00;  0.0000000E+00;  0.0000000E+00;  1.0000000E+03;  4.0000001E-01;  0.0000000E+00;3;  0.0000000E+00;  0.0000000E+00;  0.0000000E+00;0;  0.0000000E+00;  1.0000000E+04;  0.0000000E+00;  0.0000000E+00;  1.0000000E+04;  0.0000000E+00;  1.0000000E+04;  0.0000000E+00;  0.0000000E+00;  0.0000000E+00;  0.0000000E+00;
  1.1600000E+00;  9.9999998E-03; -2.0000000E-02;2831;  0.0000000E+00;  0.0000000E+00;  0.0000000E+00;  1.0000000E+03;  4.0000001E-01;  0.0000000E+00;3;  0.0000000E+00;  0.0000000E+00;  0.0000000E+00;0;  0.0000000E+00;  1.0000000E+04;  0.0000000E+00;  0.0000000E+00;  1.0000000E+04;  0.0000000E+00;  1.0000000E+04;  0.0000000E+00;  0.0000000E+00;  0.0000000E+00;  0.0000000E+00;
  1.1799999E+00;  9.9999998E-03; -1.8000001E-01;2849;  0.0000000E+00;  0.0000000E+00;  0.0000000E+00;  1.0000000E+03;  4.0000001E-01;  0.0000000E+00;3;  0.0000000E+00;  0.0000000E+00;  0.0000000E+00;0;  0.0000000E+00;  1.0000000E+04;  0.0000000E+00;  0.0000000E+00;  1.0000000E+04;  0.0000000E+00;  1.0000000E+04;  0.0000000E+00;  0.0000000E+00;  0.0000000E+00;  0.0000000E+00;
  1.1799999E+00;  9.9999998E-03; -1.6000000E-01;2850;  0.0000000E+00;  0.0000000E+00;  0.0000000E+00;  1.0000000E+03;  4.0000001E-01;  0.0000000E+00;3;  0.0000000E+00;  0.0000000E+00;  0.0000000E+00;0;  0.0000000E+00;  1.0000000E+04;  0.0000000E+00;  0.0000000E+00;  1.0000000E+04;  0.0000000E+00;  1.0000000E+04;  0.0000000E+00;  0.0000000E+00;  0.0000000E+00;  0.0000000E+00;
  1.1799999E+00;  9.9999998E-03; -1.4000000E-01;2851;  0.0000000E+00;  0.0000000E+00;  0.0000000E+00;  1.0000000E+03;  4.0000001E-01;  0.0000000E+00;3;  0.0000000E+00;  0.0000000E+00;  0.0000000E+00;0;  0.0000000E+00;  1.0000000E+04;  0.0000000E+00;  0.0000000E+00;  1.0000000E+04;  0.0000000E+00;  1.0000000E+04;  0.0000000E+00;  0.0000000E+00;  0.0000000E+00;  0.0000000E+00;
  1.1799999E+00;  9.9999998E-03; -1.2000000E-01;2852;  0.0000000E+00;  0.0000000E+00;  0.0000000E+00;  1.0000000E+03;  4.0000001E-01;  0.0000000E+00;3;  0.0000000E+00;  0.0000000E+00;  0.0000000E+00;0;  0.0000000E+00;  1.0000000E+04;  0.0000000E+00;  0.0000000E+00;  1.0000000E+04;  0.0000000E+00;  1.0000000E+04;  0.0000000E+00;  0.0000000E+00;  0.0000000E+00;  0.0000000E+00;
  1.1799999E+00;  9.9999998E-03; -1.0000000E-01;2853;  0.0000000E+00;  0.0000000E+00;  0.0000000E+00;  1.0000000E+03;  4.0000001E-01;  0.0000000E+00;3;  0.0000000E+00;  0.0000000E+00;  0.0000000E+00;0;  0.0000000E+00;  1.0000000E+04;  0.0000000E+00;  0.0000000E+00;  1.0000000E+04;  0.0000000E+00;  1.0000000E+04;  0.0000000E+00;  0.0000000E+00;  0.0000000E+00;  0.0000000E+00;
  1.1799999E+00;  9.9999998E-03; -7.9999998E-02;2854;  0.0000000E+00;  0.0000000E+00;  0.0000000E+00;  1.0000000E+03;  4.0000001E-01;  0.0000000E+00;3;  0.0000000E+00;  0.0000000E+00;  0.0000000E+00;0;  0.0000000E+00;  1.0000000E+04;  0.0000000E+00;  0.0000000E+00;  1.0000000E+04;  0.0000000E+00;  1.0000000E+04;  0.0000000E+00;  0.0000000E+00;  0.0000000E+00;  0.0000000E+00;
  1.1799999E+00;  9.9999998E-03; -5.9999999E-02;2855;  0.0000000E+00;  0.0000000E+00;  0.0000000E+00;  1.0000000E+03;  4.0000001E-01;  0.0000000E+00;3;  0.0000000E+00;  0.0000000E+00;  0.0000000E+00;0;  0.0000000E+00;  1.0000000E+04;  0.0000000E+00;  0.0000000E+00;  1.0000000E+04;  0.0000000E+00;  1.0000000E+04;  0.0000000E+00;  0.0000000E+00;  0.0000000E+00;  0.0000000E+00;
  1.1799999E+00;  9.9999998E-03; -3.9999999E-02;2856;  0.0000000E+00;  0.0000000E+00;  0.0000000E+00;  1.0000000E+03;  4.0000001E-01;  0.0000000E+00;3;  0.0000000E+00;  0.0000000E+00;  0.0000000E+00;0;  0.0000000E+00;  1.0000000E+04;  0.0000000E+00;  0.0000000E+00;  1.0000000E+04;  0.0000000E+00;  1.0000000E+04;  0.0000000E+00;  0.0000000E+00;  0.0000000E+00;  0.0000000E+00;
  1.1799999E+00;  9.9999998E-03; -2.0000000E-02;2857;  0.0000000E+00;  0.0000000E+00;  0.0000000E+00;  1.0000000E+03;  4.0000001E-01;  0.0000000E+00;3;  0.0000000E+00;  0.0000000E+00;  0.0000000E+00;0;  0.0000000E+00;  1.0000000E+04;  0.0000000E+00;  0.0000000E+00;  1.0000000E+04;  0.0000000E+00;  1.0000000E+04;  0.0000000E+00;  0.0000000E+00;  0.0000000E+00;  0.0000000E+00;
  1.2000000E+00;  9.9999998E-03; -1.8000001E-01;2873;  0.0000000E+00;  0.0000000E+00;  0.0000000E+00;  1.0000000E+03;  4.0000001E-01;  0.0000000E+00;3;  0.0000000E+00;  0.0000000E+00;  0.0000000E+00;0;  0.0000000E+00;  1.0000000E+04;  0.0000000E+00;  0.0000000E+00;  1.0000000E+04;  0.0000000E+00;  1.0000000E+04;  0.0000000E+00;  0.0000000E+00;  0.0000000E+00;  0.0000000E+00;
  1.2000000E+00;  9.9999998E-03; -1.6000000E-01;2874;  0.0000000E+00;  0.0000000E+00;  0.0000000E+00;  1.0000000E+03;  4.0000001E-01;  0.0000000E+00;3;  0.0000000E+00;  0.0000000E+00;  0.0000000E+00;0;  0.0000000E+00;  1.0000000E+04;  0.0000000E+00;  0.0000000E+00;  1.0000000E+04;  0.0000000E+00;  1.0000000E+04;  0.0000000E+00;  0.0000000E+00;  0.0000000E+00;  0.0000000E+00;
  1.2000000E+00;  9.9999998E-03; -1.4000000E-01;2875;  0.0000000E+00;  0.0000000E+00;  0.0000000E+00;  1.0000000E+03;  4.0000001E-01;  0.0000000E+00;3;  0.0000000E+00;  0.0000000E+00;  0.0000000E+00;0;  0.0000000E+00;  1.0000000E+04;  0.0000000E+00;  0.0000000E+00;  1.0000000E+04;  0.0000000E+00;  1.0000000E+04;  0.0000000E+00;  0.0000000E+00;  0.0000000E+00;  0.0000000E+00;
  1.2000000E+00;  9.9999998E-03; -1.2000000E-01;2876;  0.0000000E+00;  0.0000000E+00;  0.0000000E+00;  1.0000000E+03;  4.0000001E-01;  0.0000000E+00;3;  0.0000000E+00;  0.0000000E+00;  0.0000000E+00;0;  0.0000000E+00;  1.0000000E+04;  0.0000000E+00;  0.0000000E+00;  1.0000000E+04;  0.0000000E+00;  1.0000000E+04;  0.0000000E+00;  0.0000000E+00;  0.0000000E+00;  0.0000000E+00;
  1.2000000E+00;  9.9999998E-03; -1.0000000E-01;2877;  0.0000000E+00;  0.0000000E+00;  0.0000000E+00;  1.0000000E+03;  4.0000001E-01;  0.0000000E+00;3;  0.0000000E+00;  0.0000000E+00;  0.0000000E+00;0;  0.0000000E+00;  1.0000000E+04;  0.0000000E+00;  0.0000000E+00;  1.0000000E+04;  0.0000000E+00;  1.0000000E+04;  0.0000000E+00;  0.0000000E+00;  0.0000000E+00;  0.0000000E+00;
  1.2000000E+00;  9.9999998E-03; -7.9999998E-02;2878;  0.0000000E+00;  0.0000000E+00;  0.0000000E+00;  1.0000000E+03;  4.0000001E-01;  0.0000000E+00;3;  0.0000000E+00;  0.0000000E+00;  0.0000000E+00;0;  0.0000000E+00;  1.0000000E+04;  0.0000000E+00;  0.0000000E+00;  1.0000000E+04;  0.0000000E+00;  1.0000000E+04;  0.0000000E+00;  0.0000000E+00;  0.0000000E+00;  0.0000000E+00;
  1.2000000E+00;  9.9999998E-03; -5.9999999E-02;2879;  0.0000000E+00;  0.0000000E+00;  0.0000000E+00;  1.0000000E+03;  4.0000001E-01;  0.0000000E+00;3;  0.0000000E+00;  0.0000000E+00;  0.0000000E+00;0;  0.0000000E+00;  1.0000000E+04;  0.0000000E+00;  0.0000000E+00;  1.0000000E+04;  0.0000000E+00;  1.0000000E+04;  0.0000000E+00;  0.0000000E+00;  0.0000000E+00;  0.0000000E+00;
  1.2000000E+00;  9.9999998E-03; -3.9999999E-02;2880;  0.0000000E+00;  0.0000000E+00;  0.0000000E+00;  1.0000000E+03;  4.0000001E-01;  0.0000000E+00;3;  0.0000000E+00;  0.0000000E+00;  0.0000000E+00;0;  0.0000000E+00;  1.0000000E+04;  0.0000000E+00;  0.0000000E+00;  1.0000000E+04;  0.0000000E+00;  1.0000000E+04;  0.0000000E+00;  0.0000000E+00;  0.0000000E+00;  0.0000000E+00;
  1.2000000E+00;  9.9999998E-03; -2.0000000E-02;2881;  0.0000000E+00;  0.0000000E+00;  0.0000000E+00;  1.0000000E+03;  4.0000001E-01;  0.0000000E+00;3;  0.0000000E+00;  0.0000000E+00;  0.0000000E+00;0;  0.0000000E+00;  1.0000000E+04;  0.0000000E+00;  0.0000000E+00;  1.0000000E+04;  0.0000000E+00;  1.0000000E+04;  0.0000000E+00;  0.0000000E+00;  0.0000000E+00;  0.0000000E+00;
  1.2200000E+00;  9.9999998E-03; -1.8000001E-01;2896;  0.0000000E+00;  0.0000000E+00;  0.0000000E+00;  1.0000000E+03;  4.0000001E-01;  0.0000000E+00;3;  0.0000000E+00;  0.0000000E+00;  0.0000000E+00;0;  0.0000000E+00;  1.0000000E+04;  0.0000000E+00;  0.0000000E+00;  1.0000000E+04;  0.0000000E+00;  1.0000000E+04;  0.0000000E+00;  0.0000000E+00;  0.0000000E+00;  0.0000000E+00;
  1.2200000E+00;  9.9999998E-03; -1.6000000E-01;2897;  0.0000000E+00;  0.0000000E+00;  0.0000000E+00;  1.0000000E+03;  4.0000001E-01;  0.0000000E+00;3;  0.0000000E+00;  0.0000000E+00;  0.0000000E+00;0;  0.0000000E+00;  1.0000000E+04;  0.0000000E+00;  0.0000000E+00;  1.0000000E+04;  0.0000000E+00;  1.0000000E+04;  0.0000000E+00;  0.0000000E+00;  0.0000000E+00;  0.0000000E+00;
  1.2200000E+00;  9.9999998E-03; -1.4000000E-01;2898;  0.0000000E+00;  0.0000000E+00;  0.0000000E+00;  1.0000000E+03;  4.0000001E-01;  0.0000000E+00;3;  0.0000000E+00;  0.0000000E+00;  0.0000000E+00;0;  0.0000000E+00;  1.0000000E+04;  0.0000000E+00;  0.0000000E+00;  1.0000000E+04;  0.0000000E+00;  1.0000000E+04;  0.0000000E+00;  0.0000000E+00;  0.0000000E+00;  0.0000000E+00;
  1.2200000E+00;  9.9999998E-03; -1.2000000E-01;2899;  0.0000000E+00;  0.0000000E+00;  0.0000000E+00;  1.0000000E+03;  4.0000001E-01;  0.0000000E+00;3;  0.0000000E+00;  0.0000000E+00;  0.0000000E+00;0;  0.0000000E+00;  1.0000000E+04;  0.0000000E+00;  0.0000000E+00;  1.0000000E+04;  0.0000000E+00;  1.0000000E+04;  0.0000000E+00;  0.0000000E+00;  0.0000000E+00;  0.0000000E+00;
  1.2200000E+00;  9.9999998E-03; -1.0000000E-01;2900;  0.0000000E+00;  0.0000000E+00;  0.0000000E+00;  1.0000000E+03;  4.0000001E-01;  0.0000000E+00;3;  0.0000000E+00;  0.0000000E+00;  0.0000000E+00;0;  0.0000000E+00;  1.0000000E+04;  0.0000000E+00;  0.0000000E+00;  1.0000000E+04;  0.0000000E+00;  1.0000000E+04;  0.0000000E+00;  0.0000000E+00;  0.0000000E+00;  0.0000000E+00;
  1.2200000E+00;  9.9999998E-03; -7.9999998E-02;2901;  0.0000000E+00;  0.0000000E+00;  0.0000000E+00;  1.0000000E+03;  4.0000001E-01;  0.0000000E+00;3;  0.0000000E+00;  0.0000000E+00;  0.0000000E+00;0;  0.0000000E+00;  1.0000000E+04;  0.0000000E+00;  0.0000000E+00;  1.0000000E+04;  0.0000000E+00;  1.0000000E+04;  0.0000000E+00;  0.0000000E+00;  0.0000000E+00;  0.0000000E+00;
  1.2200000E+00;  9.9999998E-03; -5.9999999E-02;2902;  0.0000000E+00;  0.0000000E+00;  0.0000000E+00;  1.0000000E+03;  4.0000001E-01;  0.0000000E+00;3;  0.0000000E+00;  0.0000000E+00;  0.0000000E+00;0;  0.0000000E+00;  1.0000000E+04;  0.0000000E+00;  0.0000000E+00;  1.0000000E+04;  0.0000000E+00;  1.0000000E+04;  0.0000000E+00;  0.0000000E+00;  0.0000000E+00;  0.0000000E+00;
  1.2200000E+00;  9.9999998E-03; -3.9999999E-02;2903;  0.0000000E+00;  0.0000000E+00;  0.0000000E+00;  1.0000000E+03;  4.0000001E-01;  0.0000000E+00;3;  0.0000000E+00;  0.0000000E+00;  0.0000000E+00;0;  0.0000000E+00;  1.0000000E+04;  0.0000000E+00;  0.0000000E+00;  1.0000000E+04;  0.0000000E+00;  1.0000000E+04;  0.0000000E+00;  0.0000000E+00;  0.0000000E+00;  0.0000000E+00;
  1.2200000E+00;  9.9999998E-03; -2.0000000E-02;2904;  0.0000000E+00;  0.0000000E+00;  0.0000000E+00;  1.0000000E+03;  4.0000001E-01;  0.0000000E+00;3;  0.0000000E+00;  0.0000000E+00;  0.0000000E+00;0;  0.0000000E+00;  1.0000000E+04;  0.0000000E+00;  0.0000000E+00;  1.0000000E+04;  0.0000000E+00;  1.0000000E+04;  0.0000000E+00;  0.0000000E+00;  0.0000000E+00;  0.0000000E+00;
  1.2400000E+00;  9.9999998E-03; -1.8000001E-01;2917;  0.0000000E+00;  0.0000000E+00;  0.0000000E+00;  1.0000000E+03;  4.0000001E-01;  0.0000000E+00;3;  0.0000000E+00;  0.0000000E+00;  0.0000000E+00;0;  0.0000000E+00;  1.0000000E+04;  0.0000000E+00;  0.0000000E+00;  1.0000000E+04;  0.0000000E+00;  1.0000000E+04;  0.0000000E+00;  0.0000000E+00;  0.0000000E+00;  0.0000000E+00;
  1.2400000E+00;  9.9999998E-03; -1.6000000E-01;2918;  0.0000000E+00;  0.0000000E+00;  0.0000000E+00;  1.0000000E+03;  4.0000001E-01;  0.0000000E+00;3;  0.0000000E+00;  0.0000000E+00;  0.0000000E+00;0;  0.0000000E+00;  1.0000000E+04;  0.0000000E+00;  0.0000000E+00;  1.0000000E+04;  0.0000000E+00;  1.0000000E+04;  0.0000000E+00;  0.0000000E+00;  0.0000000E+00;  0.0000000E+00;
  1.2400000E+00;  9.9999998E-03; -1.4000000E-01;2919;  0.0000000E+00;  0.0000000E+00;  0.0000000E+00;  1.0000000E+03;  4.0000001E-01;  0.0000000E+00;3;  0.0000000E+00;  0.0000000E+00;  0.0000000E+00;0;  0.0000000E+00;  1.0000000E+04;  0.0000000E+00;  0.0000000E+00;  1.0000000E+04;  0.0000000E+00;  1.0000000E+04;  0.0000000E+00;  0.0000000E+00;  0.0000000E+00;  0.0000000E+00;
  1.2400000E+00;  9.9999998E-03; -1.2000000E-01;2920;  0.0000000E+00;  0.0000000E+00;  0.0000000E+00;  1.0000000E+03;  4.0000001E-01;  0.0000000E+00;3;  0.0000000E+00;  0.0000000E+00;  0.0000000E+00;0;  0.0000000E+00;  1.0000000E+04;  0.0000000E+00;  0.0000000E+00;  1.0000000E+04;  0.0000000E+00;  1.0000000E+04;  0.0000000E+00;  0.0000000E+00;  0.0000000E+00;  0.0000000E+00;
  1.2400000E+00;  9.9999998E-03; -1.0000000E-01;2921;  0.0000000E+00;  0.0000000E+00;  0.0000000E+00;  1.0000000E+03;  4.0000001E-01;  0.0000000E+00;3;  0.0000000E+00;  0.0000000E+00;  0.0000000E+00;0;  0.0000000E+00;  1.0000000E+04;  0.0000000E+00;  0.0000000E+00;  1.0000000E+04;  0.0000000E+00;  1.0000000E+04;  0.0000000E+00;  0.0000000E+00;  0.0000000E+00;  0.0000000E+00;
  1.2400000E+00;  9.9999998E-03; -7.9999998E-02;2922;  0.0000000E+00;  0.0000000E+00;  0.0000000E+00;  1.0000000E+03;  4.0000001E-01;  0.0000000E+00;3;  0.0000000E+00;  0.0000000E+00;  0.0000000E+00;0;  0.0000000E+00;  1.0000000E+04;  0.0000000E+00;  0.0000000E+00;  1.0000000E+04;  0.0000000E+00;  1.0000000E+04;  0.0000000E+00;  0.0000000E+00;  0.0000000E+00;  0.0000000E+00;
  1.2400000E+00;  9.9999998E-03; -5.9999999E-02;2923;  0.0000000E+00;  0.0000000E+00;  0.0000000E+00;  1.0000000E+03;  4.0000001E-01;  0.0000000E+00;3;  0.0000000E+00;  0.0000000E+00;  0.0000000E+00;0;  0.0000000E+00;  1.0000000E+04;  0.0000000E+00;  0.0000000E+00;  1.0000000E+04;  0.0000000E+00;  1.0000000E+04;  0.0000000E+00;  0.0000000E+00;  0.0000000E+00;  0.0000000E+00;
  1.2400000E+00;  9.9999998E-03; -3.9999999E-02;2924;  0.0000000E+00;  0.0000000E+00;  0.0000000E+00;  1.0000000E+03;  4.0000001E-01;  0.0000000E+00;3;  0.0000000E+00;  0.0000000E+00;  0.0000000E+00;0;  0.0000000E+00;  1.0000000E+04;  0.0000000E+00;  0.0000000E+00;  1.0000000E+04;  0.0000000E+00;  1.0000000E+04;  0.0000000E+00;  0.0000000E+00;  0.0000000E+00;  0.0000000E+00;
  1.2400000E+00;  9.9999998E-03; -2.0000000E-02;2925;  0.0000000E+00;  0.0000000E+00;  0.0000000E+00;  1.0000000E+03;  4.0000001E-01;  0.0000000E+00;3;  0.0000000E+00;  0.0000000E+00;  0.0000000E+00;0;  0.0000000E+00;  1.0000000E+04;  0.0000000E+00;  0.0000000E+00;  1.0000000E+04;  0.0000000E+00;  1.0000000E+04;  0.0000000E+00;  0.0000000E+00;  0.0000000E+00;  0.0000000E+00;
  1.2600000E+00;  9.9999998E-03; -1.6000000E-01;2936;  0.0000000E+00;  0.0000000E+00;  0.0000000E+00;  1.0000000E+03;  4.0000001E-01;  0.0000000E+00;3;  0.0000000E+00;  0.0000000E+00;  0.0000000E+00;0;  0.0000000E+00;  1.0000000E+04;  0.0000000E+00;  0.0000000E+00;  1.0000000E+04;  0.0000000E+00;  1.0000000E+04;  0.0000000E+00;  0.0000000E+00;  0.0000000E+00;  0.0000000E+00;
  1.2600000E+00;  9.9999998E-03; -1.4000000E-01;2937;  0.0000000E+00;  0.0000000E+00;  0.0000000E+00;  1.0000000E+03;  4.0000001E-01;  0.0000000E+00;3;  0.0000000E+00;  0.0000000E+00;  0.0000000E+00;0;  0.0000000E+00;  1.0000000E+04;  0.0000000E+00;  0.0000000E+00;  1.0000000E+04;  0.0000000E+00;  1.0000000E+04;  0.0000000E+00;  0.0000000E+00;  0.0000000E+00;  0.0000000E+00;
  1.2600000E+00;  9.9999998E-03; -1.2000000E-01;2938;  0.0000000E+00;  0.0000000E+00;  0.0000000E+00;  1.0000000E+03;  4.0000001E-01;  0.0000000E+00;3;  0.0000000E+00;  0.0000000E+00;  0.0000000E+00;0;  0.0000000E+00;  1.0000000E+04;  0.0000000E+00;  0.0000000E+00;  1.0000000E+04;  0.0000000E+00;  1.0000000E+04;  0.0000000E+00;  0.0000000E+00;  0.0000000E+00;  0.0000000E+00;
  1.2600000E+00;  9.9999998E-03; -1.0000000E-01;2939;  0.0000000E+00;  0.0000000E+00;  0.0000000E+00;  1.0000000E+03;  4.0000001E-01;  0.0000000E+00;3;  0.0000000E+00;  0.0000000E+00;  0.0000000E+00;0;  0.0000000E+00;  1.0000000E+04;  0.0000000E+00;  0.0000000E+00;  1.0000000E+04;  0.0000000E+00;  1.0000000E+04;  0.0000000E+00;  0.0000000E+00;  0.0000000E+00;  0.0000000E+00;
  1.2600000E+00;  9.9999998E-03; -7.9999998E-02;2940;  0.0000000E+00;  0.0000000E+00;  0.0000000E+00;  1.0000000E+03;  4.0000001E-01;  0.0000000E+00;3;  0.0000000E+00;  0.0000000E+00;  0.0000000E+00;0;  0.0000000E+00;  1.0000000E+04;  0.0000000E+00;  0.0000000E+00;  1.0000000E+04;  0.0000000E+00;  1.0000000E+04;  0.0000000E+00;  0.0000000E+00;  0.0000000E+00;  0.0000000E+00;
  1.2600000E+00;  9.9999998E-03; -5.9999999E-02;2941;  0.0000000E+00;  0.0000000E+00;  0.0000000E+00;  1.0000000E+03;  4.0000001E-01;  0.0000000E+00;3;  0.0000000E+00;  0.0000000E+00;  0.0000000E+00;0;  0.0000000E+00;  1.0000000E+04;  0.0000000E+00;  0.0000000E+00;  1.0000000E+04;  0.0000000E+00;  1.0000000E+04;  0.0000000E+00;  0.0000000E+00;  0.0000000E+00;  0.0000000E+00;
  1.2600000E+00;  9.9999998E-03; -3.9999999E-02;2942;  0.0000000E+00;  0.0000000E+00;  0.0000000E+00;  1.0000000E+03;  4.0000001E-01;  0.0000000E+00;3;  0.0000000E+00;  0.0000000E+00;  0.0000000E+00;0;  0.0000000E+00;  1.0000000E+04;  0.0000000E+00;  0.0000000E+00;  1.0000000E+04;  0.0000000E+00;  1.0000000E+04;  0.0000000E+00;  0.0000000E+00;  0.0000000E+00;  0.0000000E+00;
  1.2600000E+00;  9.9999998E-03; -2.0000000E-02;2943;  0.0000000E+00;  0.0000000E+00;  0.0000000E+00;  1.0000000E+03;  4.0000001E-01;  0.0000000E+00;3;  0.0000000E+00;  0.0000000E+00;  0.0000000E+00;0;  0.0000000E+00;  1.0000000E+04;  0.0000000E+00;  0.0000000E+00;  1.0000000E+04;  0.0000000E+00;  1.0000000E+04;  0.0000000E+00;  0.0000000E+00;  0.0000000E+00;  0.0000000E+00;
  1.2800000E+00;  9.9999998E-03; -1.2000000E-01;2953;  0.0000000E+00;  0.0000000E+00;  0.0000000E+00;  1.0000000E+03;  4.0000001E-01;  0.0000000E+00;3;  0.0000000E+00;  0.0000000E+00;  0.0000000E+00;0;  0.0000000E+00;  1.0000000E+04;  0.0000000E+00;  0.0000000E+00;  1.0000000E+04;  0.0000000E+00;  1.0000000E+04;  0.0000000E+00;  0.0000000E+00;  0.0000000E+00;  0.0000000E+00;
  1.2800000E+00;  9.9999998E-03; -1.0000000E-01;2954;  0.0000000E+00;  0.0000000E+00;  0.0000000E+00;  1.0000000E+03;  4.0000001E-01;  0.0000000E+00;3;  0.0000000E+00;  0.0000000E+00;  0.0000000E+00;0;  0.0000000E+00;  1.0000000E+04;  0.0000000E+00;  0.0000000E+00;  1.0000000E+04;  0.0000000E+00;  1.0000000E+04;  0.0000000E+00;  0.0000000E+00;  0.0000000E+00;  0.0000000E+00;
  1.2800000E+00;  9.9999998E-03; -7.9999998E-02;2955;  0.0000000E+00;  0.0000000E+00;  0.0000000E+00;  1.0000000E+03;  4.0000001E-01;  0.0000000E+00;3;  0.0000000E+00;  0.0000000E+00;  0.0000000E+00;0;  0.0000000E+00;  1.0000000E+04;  0.0000000E+00;  0.0000000E+00;  1.0000000E+04;  0.0000000E+00;  1.0000000E+04;  0.0000000E+00;  0.0000000E+00;  0.0000000E+00;  0.0000000E+00;
  1.2800000E+00;  9.9999998E-03; -5.9999999E-02;2956;  0.0000000E+00;  0.0000000E+00;  0.0000000E+00;  1.0000000E+03;  4.0000001E-01;  0.0000000E+00;3;  0.0000000E+00;  0.0000000E+00;  0.0000000E+00;0;  0.0000000E+00;  1.0000000E+04;  0.0000000E+00;  0.0000000E+00;  1.0000000E+04;  0.0000000E+00;  1.0000000E+04;  0.0000000E+00;  0.0000000E+00;  0.0000000E+00;  0.0000000E+00;
  1.2800000E+00;  9.9999998E-03; -3.9999999E-02;2957;  0.0000000E+00;  0.0000000E+00;  0.0000000E+00;  1.0000000E+03;  4.0000001E-01;  0.0000000E+00;3;  0.0000000E+00;  0.0000000E+00;  0.0000000E+00;0;  0.0000000E+00;  1.0000000E+04;  0.0000000E+00;  0.0000000E+00;  1.0000000E+04;  0.0000000E+00;  1.0000000E+04;  0.0000000E+00;  0.0000000E+00;  0.0000000E+00;  0.0000000E+00;
  1.2800000E+00;  9.9999998E-03; -2.0000000E-02;2958;  0.0000000E+00;  0.0000000E+00;  0.0000000E+00;  1.0000000E+03;  4.0000001E-01;  0.0000000E+00;3;  0.0000000E+00;  0.0000000E+00;  0.0000000E+00;0;  0.0000000E+00;  1.0000000E+04;  0.0000000E+00;  0.0000000E+00;  1.0000000E+04;  0.0000000E+00;  1.0000000E+04;  0.0000000E+00;  0.0000000E+00;  0.0000000E+00;  0.0000000E+00;
  1.3000000E+00;  9.9999998E-03; -7.9999998E-02;2966;  0.0000000E+00;  0.0000000E+00;  0.0000000E+00;  1.0000000E+03;  4.0000001E-01;  0.0000000E+00;3;  0.0000000E+00;  0.0000000E+00;  0.0000000E+00;0;  0.0000000E+00;  1.0000000E+04;  0.0000000E+00;  0.0000000E+00;  1.0000000E+04;  0.0000000E+00;  1.0000000E+04;  0.0000000E+00;  0.0000000E+00;  0.0000000E+00;  0.0000000E+00;
  1.3000000E+00;  9.9999998E-03; -5.9999999E-02;2967;  0.0000000E+00;  0.0000000E+00;  0.0000000E+00;  1.0000000E+03;  4.0000001E-01;  0.0000000E+00;3;  0.0000000E+00;  0.0000000E+00;  0.0000000E+00;0;  0.0000000E+00;  1.0000000E+04;  0.0000000E+00;  0.0000000E+00;  1.0000000E+04;  0.0000000E+00;  1.0000000E+04;  0.0000000E+00;  0.0000000E+00;  0.0000000E+00;  0.0000000E+00;
  1.3000000E+00;  9.9999998E-03; -3.9999999E-02;2968;  0.0000000E+00;  0.0000000E+00;  0.0000000E+00;  1.0000000E+03;  4.0000001E-01;  0.0000000E+00;3;  0.0000000E+00;  0.0000000E+00;  0.0000000E+00;0;  0.0000000E+00;  1.0000000E+04;  0.0000000E+00;  0.0000000E+00;  1.0000000E+04;  0.0000000E+00;  1.0000000E+04;  0.0000000E+00;  0.0000000E+00;  0.0000000E+00;  0.0000000E+00;
  1.3000000E+00;  9.9999998E-03; -2.0000000E-02;2969;  0.0000000E+00;  0.0000000E+00;  0.0000000E+00;  1.0000000E+03;  4.0000001E-01;  0.0000000E+00;3;  0.0000000E+00;  0.0000000E+00;  0.0000000E+00;0;  0.0000000E+00;  1.0000000E+04;  0.0000000E+00;  0.0000000E+00;  1.0000000E+04;  0.0000000E+00;  1.0000000E+04;  0.0000000E+00;  0.0000000E+00;  0.0000000E+00;  0.0000000E+00;
  0.0000000E+00;  9.9999998E-03;  0.0000000E+00;1045;  0.0000000E+00;  0.0000000E+00;  0.0000000E+00;  1.0000000E+03;  4.0000001E-01;  0.0000000E+00;3;  0.0000000E+00;  0.0000000E+00;  0.0000000E+00;0;  0.0000000E+00;  1.0000000E+04;  0.0000000E+00;  0.0000000E+00;  1.0000000E+04;  0.0000000E+00;  1.0000000E+04;  0.0000000E+00;  0.0000000E+00;  0.0000000E+00;  0.0000000E+00;
  0.0000000E+00;  9.9999998E-03;  2.0000000E-02;1046;  0.0000000E+00;  0.0000000E+00;  0.0000000E+00;  1.0000000E+03;  4.0000001E-01;  0.0000000E+00;3;  0.0000000E+00;  0.0000000E+00;  0.0000000E+00;0;  0.0000000E+00;  1.0000000E+04;  0.0000000E+00;  0.0000000E+00;  1.0000000E+04;  0.0000000E+00;  1.0000000E+04;  0.0000000E+00;  0.0000000E+00;  0.0000000E+00;  0.0000000E+00;
  0.0000000E+00;  9.9999998E-03;  3.9999999E-02;1047;  0.0000000E+00;  0.0000000E+00;  0.0000000E+00;  1.0000000E+03;  4.0000001E-01;  0.0000000E+00;3;  0.0000000E+00;  0.0000000E+00;  0.0000000E+00;0;  0.0000000E+00;  1.0000000E+04;  0.0000000E+00;  0.0000000E+00;  1.0000000E+04;  0.0000000E+00;  1.0000000E+04;  0.0000000E+00;  0.0000000E+00;  0.0000000E+00;  0.0000000E+00;
  0.0000000E+00;  9.9999998E-03;  5.9999999E-02;1048;  0.0000000E+00;  0.0000000E+00;  0.0000000E+00;  1.0000000E+03;  4.0000001E-01;  0.0000000E+00;3;  0.0000000E+00;  0.0000000E+00;  0.0000000E+00;0;  0.0000000E+00;  1.0000000E+04;  0.0000000E+00;  0.0000000E+00;  1.0000000E+04;  0.0000000E+00;  1.0000000E+04;  0.0000000E+00;  0.0000000E+00;  0.0000000E+00;  0.0000000E+00;
  0.0000000E+00;  9.9999998E-03;  7.9999998E-02;1049;  0.0000000E+00;  0.0000000E+00;  0.0000000E+00;  1.0000000E+03;  4.0000001E-01;  0.0000000E+00;3;  0.0000000E+00;  0.0000000E+00;  0.0000000E+00;0;  0.0000000E+00;  1.0000000E+04;  0.0000000E+00;  0.0000000E+00;  1.0000000E+04;  0.0000000E+00;  1.0000000E+04;  0.0000000E+00;  0.0000000E+00;  0.0000000E+00;  0.0000000E+00;
  0.0000000E+00;  9.9999998E-03;  1.0000000E-01;1050;  0.0000000E+00;  0.0000000E+00;  0.0000000E+00;  1.0000000E+03;  4.0000001E-01;  0.0000000E+00;3;  0.0000000E+00;  0.0000000E+00;  0.0000000E+00;0;  0.0000000E+00;  1.0000000E+04;  0.0000000E+00;  0.0000000E+00;  1.0000000E+04;  0.0000000E+00;  1.0000000E+04;  0.0000000E+00;  0.0000000E+00;  0.0000000E+00;  0.0000000E+00;
  0.0000000E+00;  9.9999998E-03;  1.2000000E-01;1051;  0.0000000E+00;  0.0000000E+00;  0.0000000E+00;  1.0000000E+03;  4.0000001E-01;  0.0000000E+00;3;  0.0000000E+00;  0.0000000E+00;  0.0000000E+00;0;  0.0000000E+00;  1.0000000E+04;  0.0000000E+00;  0.0000000E+00;  1.0000000E+04;  0.0000000E+00;  1.0000000E+04;  0.0000000E+00;  0.0000000E+00;  0.0000000E+00;  0.0000000E+00;
  0.0000000E+00;  9.9999998E-03;  1.4000000E-01;1052;  0.0000000E+00;  0.0000000E+00;  0.0000000E+00;  1.0000000E+03;  4.0000001E-01;  0.0000000E+00;3;  0.0000000E+00;  0.0000000E+00;  0.0000000E+00;0;  0.0000000E+00;  1.0000000E+04;  0.0000000E+00;  0.0000000E+00;  1.0000000E+04;  0.0000000E+00;  1.0000000E+04;  0.0000000E+00;  0.0000000E+00;  0.0000000E+00;  0.0000000E+00;
  2.0000000E-02;  9.9999998E-03;  0.0000000E+00;1075;  0.0000000E+00;  0.0000000E+00;  0.0000000E+00;  1.0000000E+03;  4.0000001E-01;  0.0000000E+00;3;  0.0000000E+00;  0.0000000E+00;  0.0000000E+00;0;  0.0000000E+00;  1.0000000E+04;  0.0000000E+00;  0.0000000E+00;  1.0000000E+04;  0.0000000E+00;  1.0000000E+04;  0.0000000E+00;  0.0000000E+00;  0.0000000E+00;  0.0000000E+00;
  2.0000000E-02;  9.9999998E-03;  2.0000000E-02;1076;  0.0000000E+00;  0.0000000E+00;  0.0000000E+00;  1.0000000E+03;  4.0000001E-01;  0.0000000E+00;3;  0.0000000E+00;  0.0000000E+00;  0.0000000E+00;0;  0.0000000E+00;  1.0000000E+04;  0.0000000E+00;  0.0000000E+00;  1.0000000E+04;  0.0000000E+00;  1.0000000E+04;  0.0000000E+00;  0.0000000E+00;  0.0000000E+00;  0.0000000E+00;
  2.0000000E-02;  9.9999998E-03;  3.9999999E-02;1077;  0.0000000E+00;  0.0000000E+00;  0.0000000E+00;  1.0000000E+03;  4.0000001E-01;  0.0000000E+00;3;  0.0000000E+00;  0.0000000E+00;  0.0000000E+00;0;  0.0000000E+00;  1.0000000E+04;  0.0000000E+00;  0.0000000E+00;  1.0000000E+04;  0.0000000E+00;  1.0000000E+04;  0.0000000E+00;  0.0000000E+00;  0.0000000E+00;  0.0000000E+00;
  2.0000000E-02;  9.9999998E-03;  5.9999999E-02;1078;  0.0000000E+00;  0.0000000E+00;  0.0000000E+00;  1.0000000E+03;  4.0000001E-01;  0.0000000E+00;3;  0.0000000E+00;  0.0000000E+00;  0.0000000E+00;0;  0.0000000E+00;  1.0000000E+04;  0.0000000E+00;  0.0000000E+00;  1.0000000E+04;  0.0000000E+00;  1.0000000E+04;  0.0000000E+00;  0.0000000E+00;  0.0000000E+00;  0.0000000E+00;
  2.0000000E-02;  9.9999998E-03;  7.9999998E-02;1079;  0.0000000E+00;  0.0000000E+00;  0.0000000E+00;  1.0000000E+03;  4.0000001E-01;  0.0000000E+00;3;  0.0000000E+00;  0.0000000E+00;  0.0000000E+00;0;  0.0000000E+00;  1.0000000E+04;  0.0000000E+00;  0.0000000E+00;  1.0000000E+04;  0.0000000E+00;  1.0000000E+04;  0.0000000E+00;  0.0000000E+00;  0.0000000E+00;  0.0000000E+00;
  2.0000000E-02;  9.9999998E-03;  1.0000000E-01;1080;  0.0000000E+00;  0.0000000E+00;  0.0000000E+00;  1.0000000E+03;  4.0000001E-01;  0.0000000E+00;3;  0.0000000E+00;  0.0000000E+00;  0.0000000E+00;0;  0.0000000E+00;  1.0000000E+04;  0.0000000E+00;  0.0000000E+00;  1.0000000E+04;  0.0000000E+00;  1.0000000E+04;  0.0000000E+00;  0.0000000E+00;  0.0000000E+00;  0.0000000E+00;
  2.0000000E-02;  9.9999998E-03;  1.2000000E-01;1081;  0.0000000E+00;  0.0000000E+00;  0.0000000E+00;  1.0000000E+03;  4.0000001E-01;  0.0000000E+00;3;  0.0000000E+00;  0.0000000E+00;  0.0000000E+00;0;  0.0000000E+00;  1.0000000E+04;  0.0000000E+00;  0.0000000E+00;  1.0000000E+04;  0.0000000E+00;  1.0000000E+04;  0.0000000E+00;  0.0000000E+00;  0.0000000E+00;  0.0000000E+00;
  2.0000000E-02;  9.9999998E-03;  1.4000000E-01;1082;  0.0000000E+00;  0.0000000E+00;  0.0000000E+00;  1.0000000E+03;  4.0000001E-01;  0.0000000E+00;3;  0.0000000E+00;  0.0000000E+00;  0.0000000E+00;0;  0.0000000E+00;  1.0000000E+04;  0.0000000E+00;  0.0000000E+00;  1.0000000E+04;  0.0000000E+00;  1.0000000E+04;  0.0000000E+00;  0.0000000E+00;  0.0000000E+00;  0.0000000E+00;
  3.9999999E-02;  9.9999998E-03;  0.0000000E+00;1106;  0.0000000E+00;  0.0000000E+00;  0.0000000E+00;  1.0000000E+03;  4.0000001E-01;  0.0000000E+00;3;  0.0000000E+00;  0.0000000E+00;  0.0000000E+00;0;  0.0000000E+00;  1.0000000E+04;  0.0000000E+00;  0.0000000E+00;  1.0000000E+04;  0.0000000E+00;  1.0000000E+04;  0.0000000E+00;  0.0000000E+00;  0.0000000E+00;  0.0000000E+00;
  3.9999999E-02;  9.9999998E-03;  2.0000000E-02;1107;  0.0000000E+00;  0.0000000E+00;  0.0000000E+00;  1.0000000E+03;  4.0000001E-01;  0.0000000E+00;3;  0.0000000E+00;  0.0000000E+00;  0.0000000E+00;0;  0.0000000E+00;  1.0000000E+04;  0.0000000E+00;  0.0000000E+00;  1.0000000E+04;  0.0000000E+00;  1.0000000E+04;  0.0000000E+00;  0.0000000E+00;  0.0000000E+00;  0.0000000E+00;
  3.9999999E-02;  9.9999998E-03;  3.9999999E-02;1108;  0.0000000E+00;  0.0000000E+00;  0.0000000E+00;  1.0000000E+03;  4.0000001E-01;  0.0000000E+00;3;  0.0000000E+00;  0.0000000E+00;  0.0000000E+00;0;  0.0000000E+00;  1.0000000E+04;  0.0000000E+00;  0.0000000E+00;  1.0000000E+04;  0.0000000E+00;  1.0000000E+04;  0.0000000E+00;  0.0000000E+00;  0.0000000E+00;  0.0000000E+00;
  3.9999999E-02;  9.9999998E-03;  5.9999999E-02;1109;  0.0000000E+00;  0.0000000E+00;  0.0000000E+00;  1.0000000E+03;  4.0000001E-01;  0.0000000E+00;3;  0.0000000E+00;  0.0000000E+00;  0.0000000E+00;0;  0.0000000E+00;  1.0000000E+04;  0.0000000E+00;  0.0000000E+00;  1.0000000E+04;  0.0000000E+00;  1.0000000E+04;  0.0000000E+00;  0.0000000E+00;  0.0000000E+00;  0.0000000E+00;
  3.9999999E-02;  9.9999998E-03;  7.9999998E-02;1110;  0.0000000E+00;  0.0000000E+00;  0.0000000E+00;  1.0000000E+03;  4.0000001E-01;  0.0000000E+00;3;  0.0000000E+00;  0.0000000E+00;  0.0000000E+00;0;  0.0000000E+00;  1.0000000E+04;  0.0000000E+00;  0.0000000E+00;  1.0000000E+04;  0.0000000E+00;  1.0000000E+04;  0.0000000E+00;  0.0000000E+00;  0.0000000E+00;  0.0000000E+00;
  3.9999999E-02;  9.9999998E-03;  1.0000000E-01;1111;  0.0000000E+00;  0.0000000E+00;  0.0000000E+00;  1.0000000E+03;  4.0000001E-01;  0.0000000E+00;3;  0.0000000E+00;  0.0000000E+00;  0.0000000E+00;0;  0.0000000E+00;  1.0000000E+04;  0.0000000E+00;  0.0000000E+00;  1.0000000E+04;  0.0000000E+00;  1.0000000E+04;  0.0000000E+00;  0.0000000E+00;  0.0000000E+00;  0.0000000E+00;
  3.9999999E-02;  9.9999998E-03;  1.2000000E-01;1112;  0.0000000E+00;  0.0000000E+00;  0.0000000E+00;  1.0000000E+03;  4.0000001E-01;  0.0000000E+00;3;  0.0000000E+00;  0.0000000E+00;  0.0000000E+00;0;  0.0000000E+00;  1.0000000E+04;  0.0000000E+00;  0.0000000E+00;  1.0000000E+04;  0.0000000E+00;  1.0000000E+04;  0.0000000E+00;  0.0000000E+00;  0.0000000E+00;  0.0000000E+00;
  3.9999999E-02;  9.9999998E-03;  1.4000000E-01;1113;  0.0000000E+00;  0.0000000E+00;  0.0000000E+00;  1.0000000E+03;  4.0000001E-01;  0.0000000E+00;3;  0.0000000E+00;  0.0000000E+00;  0.0000000E+00;0;  0.0000000E+00;  1.0000000E+04;  0.0000000E+00;  0.0000000E+00;  1.0000000E+04;  0.0000000E+00;  1.0000000E+04;  0.0000000E+00;  0.0000000E+00;  0.0000000E+00;  0.0000000E+00;
  5.9999999E-02;  9.9999998E-03;  0.0000000E+00;1137;  0.0000000E+00;  0.0000000E+00;  0.0000000E+00;  1.0000000E+03;  4.0000001E-01;  0.0000000E+00;3;  0.0000000E+00;  0.0000000E+00;  0.0000000E+00;0;  0.0000000E+00;  1.0000000E+04;  0.0000000E+00;  0.0000000E+00;  1.0000000E+04;  0.0000000E+00;  1.0000000E+04;  0.0000000E+00;  0.0000000E+00;  0.0000000E+00;  0.0000000E+00;
  5.9999999E-02;  9.9999998E-03;  2.0000000E-02;1138;  0.0000000E+00;  0.0000000E+00;  0.0000000E+00;  1.0000000E+03;  4.0000001E-01;  0.0000000E+00;3;  0.0000000E+00;  0.0000000E+00;  0.0000000E+00;0;  0.0000000E+00;  1.0000000E+04;  0.0000000E+00;  0.0000000E+00;  1.0000000E+04;  0.0000000E+00;  1.0000000E+04;  0.0000000E+00;  0.0000000E+00;  0.0000000E+00;  0.0000000E+00;
  5.9999999E-02;  9.9999998E-03;  3.9999999E-02;1139;  0.0000000E+00;  0.0000000E+00;  0.0000000E+00;  1.0000000E+03;  4.0000001E-01;  0.0000000E+00;3;  0.0000000E+00;  0.0000000E+00;  0.0000000E+00;0;  0.0000000E+00;  1.0000000E+04;  0.0000000E+00;  0.0000000E+00;  1.0000000E+04;  0.0000000E+00;  1.0000000E+04;  0.0000000E+00;  0.0000000E+00;  0.0000000E+00;  0.0000000E+00;
  5.9999999E-02;  9.9999998E-03;  5.9999999E-02;1140;  0.0000000E+00;  0.0000000E+00;  0.0000000E+00;  1.0000000E+03;  4.0000001E-01;  0.0000000E+00;3;  0.0000000E+00;  0.0000000E+00;  0.0000000E+00;0;  0.0000000E+00;  1.0000000E+04;  0.0000000E+00;  0.0000000E+00;  1.0000000E+04;  0.0000000E+00;  1.0000000E+04;  0.0000000E+00;  0.0000000E+00;  0.0000000E+00;  0.0000000E+00;
  5.9999999E-02;  9.9999998E-03;  7.9999998E-02;1141;  0.0000000E+00;  0.0000000E+00;  0.0000000E+00;  1.0000000E+03;  4.0000001E-01;  0.0000000E+00;3;  0.0000000E+00;  0.0000000E+00;  0.0000000E+00;0;  0.0000000E+00;  1.0000000E+04;  0.0000000E+00;  0.0000000E+00;  1.0000000E+04;  0.0000000E+00;  1.0000000E+04;  0.0000000E+00;  0.0000000E+00;  0.0000000E+00;  0.0000000E+00;
  5.9999999E-02;  9.9999998E-03;  1.0000000E-01;1142;  0.0000000E+00;  0.0000000E+00;  0.0000000E+00;  1.0000000E+03;  4.0000001E-01;  0.0000000E+00;3;  0.0000000E+00;  0.0000000E+00;  0.0000000E+00;0;  0.0000000E+00;  1.0000000E+04;  0.0000000E+00;  0.0000000E+00;  1.0000000E+04;  0.0000000E+00;  1.0000000E+04;  0.0000000E+00;  0.0000000E+00;  0.0000000E+00;  0.0000000E+00;
  5.9999999E-02;  9.9999998E-03;  1.2000000E-01;1143;  0.0000000E+00;  0.0000000E+00;  0.0000000E+00;  1.0000000E+03;  4.0000001E-01;  0.0000000E+00;3;  0.0000000E+00;  0.0000000E+00;  0.0000000E+00;0;  0.0000000E+00;  1.0000000E+04;  0.0000000E+00;  0.0000000E+00;  1.0000000E+04;  0.0000000E+00;  1.0000000E+04;  0.0000000E+00;  0.0000000E+00;  0.0000000E+00;  0.0000000E+00;
  5.9999999E-02;  9.9999998E-03;  1.4000000E-01;1144;  0.0000000E+00;  0.0000000E+00;  0.0000000E+00;  1.0000000E+03;  4.0000001E-01;  0.0000000E+00;3;  0.0000000E+00;  0.0000000E+00;  0.0000000E+00;0;  0.0000000E+00;  1.0000000E+04;  0.0000000E+00;  0.0000000E+00;  1.0000000E+04;  0.0000000E+00;  1.0000000E+04;  0.0000000E+00;  0.0000000E+00;  0.0000000E+00;  0.0000000E+00;
  7.9999998E-02;  9.9999998E-03;  0.0000000E+00;1168;  0.0000000E+00;  0.0000000E+00;  0.0000000E+00;  1.0000000E+03;  4.0000001E-01;  0.0000000E+00;3;  0.0000000E+00;  0.0000000E+00;  0.0000000E+00;0;  0.0000000E+00;  1.0000000E+04;  0.0000000E+00;  0.0000000E+00;  1.0000000E+04;  0.0000000E+00;  1.0000000E+04;  0.0000000E+00;  0.0000000E+00;  0.0000000E+00;  0.0000000E+00;
  7.9999998E-02;  9.9999998E-03;  2.0000000E-02;1169;  0.0000000E+00;  0.0000000E+00;  0.0000000E+00;  1.0000000E+03;  4.0000001E-01;  0.0000000E+00;3;  0.0000000E+00;  0.0000000E+00;  0.0000000E+00;0;  0.0000000E+00;  1.0000000E+04;  0.0000000E+00;  0.0000000E+00;  1.0000000E+04;  0.0000000E+00;  1.0000000E+04;  0.0000000E+00;  0.0000000E+00;  0.0000000E+00;  0.0000000E+00;
  7.9999998E-02;  9.9999998E-03;  3.9999999E-02;1170;  0.0000000E+00;  0.0000000E+00;  0.0000000E+00;  1.0000000E+03;  4.0000001E-01;  0.0000000E+00;3;  0.0000000E+00;  0.0000000E+00;  0.0000000E+00;0;  0.0000000E+00;  1.0000000E+04;  0.0000000E+00;  0.0000000E+00;  1.0000000E+04;  0.0000000E+00;  1.0000000E+04;  0.0000000E+00;  0.0000000E+00;  0.0000000E+00;  0.0000000E+00;
  7.9999998E-02;  9.9999998E-03;  5.9999999E-02;1171;  0.0000000E+00;  0.0000000E+00;  0.0000000E+00;  1.0000000E+03;  4.0000001E-01;  0.0000000E+00;3;  0.0000000E+00;  0.0000000E+00;  0.0000000E+00;0;  0.0000000E+00;  1.0000000E+04;  0.0000000E+00;  0.0000000E+00;  1.0000000E+04;  0.0000000E+00;  1.0000000E+04;  0.0000000E+00;  0.0000000E+00;  0.0000000E+00;  0.0000000E+00;
  7.9999998E-02;  9.9999998E-03;  7.9999998E-02;1172;  0.0000000E+00;  0.0000000E+00;  0.0000000E+00;  1.0000000E+03;  4.0000001E-01;  0.0000000E+00;3;  0.0000000E+00;  0.0000000E+00;  0.0000000E+00;0;  0.0000000E+00;  1.0000000E+04;  0.0000000E+00;  0.0000000E+00;  1.0000000E+04;  0.0000000E+00;  1.0000000E+04;  0.0000000E+00;  0.0000000E+00;  0.0000000E+00;  0.0000000E+00;
  7.9999998E-02;  9.9999998E-03;  1.0000000E-01;1173;  0.0000000E+00;  0.0000000E+00;  0.0000000E+00;  1.0000000E+03;  4.0000001E-01;  0.0000000E+00;3;  0.0000000E+00;  0.0000000E+00;  0.0000000E+00;0;  0.0000000E+00;  1.0000000E+04;  0.0000000E+00;  0.0000000E+00;  1.0000000E+04;  0.0000000E+00;  1.0000000E+04;  0.0000000E+00;  0.0000000E+00;  0.0000000E+00;  0.0000000E+00;
  7.9999998E-02;  9.9999998E-03;  1.2000000E-01;1174;  0.0000000E+00;  0.0000000E+00;  0.0000000E+00;  1.0000000E+03;  4.0000001E-01;  0.0000000E+00;3;  0.0000000E+00;  0.0000000E+00;  0.0000000E+00;0;  0.0000000E+00;  1.0000000E+04;  0.0000000E+00;  0.0000000E+00;  1.0000000E+04;  0.0000000E+00;  1.0000000E+04;  0.0000000E+00;  0.0000000E+00;  0.0000000E+00;  0.0000000E+00;
  7.9999998E-02;  9.9999998E-03;  1.4000000E-01;1175;  0.0000000E+00;  0.0000000E+00;  0.0000000E+00;  1.0000000E+03;  4.0000001E-01;  0.0000000E+00;3;  0.0000000E+00;  0.0000000E+00;  0.0000000E+00;0;  0.0000000E+00;  1.0000000E+04;  0.0000000E+00;  0.0000000E+00;  1.0000000E+04;  0.0000000E+00;  1.0000000E+04;  0.0000000E+00;  0.0000000E+00;  0.0000000E+00;  0.0000000E+00;
  1.0000000E-01;  9.9999998E-03;  0.0000000E+00;1199;  0.0000000E+00;  0.0000000E+00;  0.0000000E+00;  1.0000000E+03;  4.0000001E-01;  0.0000000E+00;3;  0.0000000E+00;  0.0000000E+00;  0.0000000E+00;0;  0.0000000E+00;  1.0000000E+04;  0.0000000E+00;  0.0000000E+00;  1.0000000E+04;  0.0000000E+00;  1.0000000E+04;  0.0000000E+00;  0.0000000E+00;  0.0000000E+00;  0.0000000E+00;
  1.0000000E-01;  9.9999998E-03;  2.0000000E-02;1200;  0.0000000E+00;  0.0000000E+00;  0.0000000E+00;  1.0000000E+03;  4.0000001E-01;  0.0000000E+00;3;  0.0000000E+00;  0.0000000E+00;  0.0000000E+00;0;  0.0000000E+00;  1.0000000E+04;  0.0000000E+00;  0.0000000E+00;  1.0000000E+04;  0.0000000E+00;  1.0000000E+04;  0.0000000E+00;  0.0000000E+00;  0.0000000E+00;  0.0000000E+00;
  1.0000000E-01;  9.9999998E-03;  3.9999999E-02;1201;  0.0000000E+00;  0.0000000E+00;  0.0000000E+00;  1.0000000E+03;  4.0000001E-01;  0.0000000E+00;3;  0.0000000E+00;  0.0000000E+00;  0.0000000E+00;0;  0.0000000E+00;  1.0000000E+04;  0.0000000E+00;  0.0000000E+00;  1.0000000E+04;  0.0000000E+00;  1.0000000E+04;  0.0000000E+00;  0.0000000E+00;  0.0000000E+00;  0.0000000E+00;
  1.0000000E-01;  9.9999998E-03;  5.9999999E-02;1202;  0.0000000E+00;  0.0000000E+00;  0.0000000E+00;  1.0000000E+03;  4.0000001E-01;  0.0000000E+00;3;  0.0000000E+00;  0.0000000E+00;  0.0000000E+00;0;  0.0000000E+00;  1.0000000E+04;  0.0000000E+00;  0.0000000E+00;  1.0000000E+04;  0.0000000E+00;  1.0000000E+04;  0.0000000E+00;  0.0000000E+00;  0.0000000E+00;  0.0000000E+00;
  1.0000000E-01;  9.9999998E-03;  7.9999998E-02;1203;  0.0000000E+00;  0.0000000E+00;  0.0000000E+00;  1.0000000E+03;  4.0000001E-01;  0.0000000E+00;3;  0.0000000E+00;  0.0000000E+00;  0.0000000E+00;0;  0.0000000E+00;  1.0000000E+04;  0.0000000E+00;  0.0000000E+00;  1.0000000E+04;  0.0000000E+00;  1.0000000E+04;  0.0000000E+00;  0.0000000E+00;  0.0000000E+00;  0.0000000E+00;
  1.0000000E-01;  9.9999998E-03;  1.0000000E-01;1204;  0.0000000E+00;  0.0000000E+00;  0.0000000E+00;  1.0000000E+03;  4.0000001E-01;  0.0000000E+00;3;  0.0000000E+00;  0.0000000E+00;  0.0000000E+00;0;  0.0000000E+00;  1.0000000E+04;  0.0000000E+00;  0.0000000E+00;  1.0000000E+04;  0.0000000E+00;  1.0000000E+04;  0.0000000E+00;  0.0000000E+00;  0.0000000E+00;  0.0000000E+00;
  1.0000000E-01;  9.9999998E-03;  1.2000000E-01;1205;  0.0000000E+00;  0.0000000E+00;  0.0000000E+00;  1.0000000E+03;  4.0000001E-01;  0.0000000E+00;3;  0.0000000E+00;  0.0000000E+00;  0.0000000E+00;0;  0.0000000E+00;  1.0000000E+04;  0.0000000E+00;  0.0000000E+00;  1.0000000E+04;  0.0000000E+00;  1.0000000E+04;  0.0000000E+00;  0.0000000E+00;  0.0000000E+00;  0.0000000E+00;
  1.0000000E-01;  9.9999998E-03;  1.4000000E-01;1206;  0.0000000E+00;  0.0000000E+00;  0.0000000E+00;  1.0000000E+03;  4.0000001E-01;  0.0000000E+00;3;  0.0000000E+00;  0.0000000E+00;  0.0000000E+00;0;  0.0000000E+00;  1.0000000E+04;  0.0000000E+00;  0.0000000E+00;  1.0000000E+04;  0.0000000E+00;  1.0000000E+04;  0.0000000E+00;  0.0000000E+00;  0.0000000E+00;  0.0000000E+00;
  1.2000000E-01;  9.9999998E-03;  0.0000000E+00;1230;  0.0000000E+00;  0.0000000E+00;  0.0000000E+00;  1.0000000E+03;  4.0000001E-01;  0.0000000E+00;3;  0.0000000E+00;  0.0000000E+00;  0.0000000E+00;0;  0.0000000E+00;  1.0000000E+04;  0.0000000E+00;  0.0000000E+00;  1.0000000E+04;  0.0000000E+00;  1.0000000E+04;  0.0000000E+00;  0.0000000E+00;  0.0000000E+00;  0.0000000E+00;
  1.2000000E-01;  9.9999998E-03;  2.0000000E-02;1231;  0.0000000E+00;  0.0000000E+00;  0.0000000E+00;  1.0000000E+03;  4.0000001E-01;  0.0000000E+00;3;  0.0000000E+00;  0.0000000E+00;  0.0000000E+00;0;  0.0000000E+00;  1.0000000E+04;  0.0000000E+00;  0.0000000E+00;  1.0000000E+04;  0.0000000E+00;  1.0000000E+04;  0.0000000E+00;  0.0000000E+00;  0.0000000E+00;  0.0000000E+00;
  1.2000000E-01;  9.9999998E-03;  3.9999999E-02;1232;  0.0000000E+00;  0.0000000E+00;  0.0000000E+00;  1.0000000E+03;  4.0000001E-01;  0.0000000E+00;3;  0.0000000E+00;  0.0000000E+00;  0.0000000E+00;0;  0.0000000E+00;  1.0000000E+04;  0.0000000E+00;  0.0000000E+00;  1.0000000E+04;  0.0000000E+00;  1.0000000E+04;  0.0000000E+00;  0.0000000E+00;  0.0000000E+00;  0.0000000E+00;
  1.2000000E-01;  9.9999998E-03;  5.9999999E-02;1233;  0.0000000E+00;  0.0000000E+00;  0.0000000E+00;  1.0000000E+03;  4.0000001E-01;  0.0000000E+00;3;  0.0000000E+00;  0.0000000E+00;  0.0000000E+00;0;  0.0000000E+00;  1.0000000E+04;  0.0000000E+00;  0.0000000E+00;  1.0000000E+04;  0.0000000E+00;  1.0000000E+04;  0.0000000E+00;  0.0000000E+00;  0.0000000E+00;  0.0000000E+00;
  1.2000000E-01;  9.9999998E-03;  7.9999998E-02;1234;  0.0000000E+00;  0.0000000E+00;  0.0000000E+00;  1.0000000E+03;  4.0000001E-01;  0.0000000E+00;3;  0.0000000E+00;  0.0000000E+00;  0.0000000E+00;0;  0.0000000E+00;  1.0000000E+04;  0.0000000E+00;  0.0000000E+00;  1.0000000E+04;  0.0000000E+00;  1.0000000E+04;  0.0000000E+00;  0.0000000E+00;  0.0000000E+00;  0.0000000E+00;
  1.2000000E-01;  9.9999998E-03;  1.0000000E-01;1235;  0.0000000E+00;  0.0000000E+00;  0.0000000E+00;  1.0000000E+03;  4.0000001E-01;  0.0000000E+00;3;  0.0000000E+00;  0.0000000E+00;  0.0000000E+00;0;  0.0000000E+00;  1.0000000E+04;  0.0000000E+00;  0.0000000E+00;  1.0000000E+04;  0.0000000E+00;  1.0000000E+04;  0.0000000E+00;  0.0000000E+00;  0.0000000E+00;  0.0000000E+00;
  1.2000000E-01;  9.9999998E-03;  1.2000000E-01;1236;  0.0000000E+00;  0.0000000E+00;  0.0000000E+00;  1.0000000E+03;  4.0000001E-01;  0.0000000E+00;3;  0.0000000E+00;  0.0000000E+00;  0.0000000E+00;0;  0.0000000E+00;  1.0000000E+04;  0.0000000E+00;  0.0000000E+00;  1.0000000E+04;  0.0000000E+00;  1.0000000E+04;  0.0000000E+00;  0.0000000E+00;  0.0000000E+00;  0.0000000E+00;
  1.2000000E-01;  9.9999998E-03;  1.4000000E-01;1237;  0.0000000E+00;  0.0000000E+00;  0.0000000E+00;  1.0000000E+03;  4.0000001E-01;  0.0000000E+00;3;  0.0000000E+00;  0.0000000E+00;  0.0000000E+00;0;  0.0000000E+00;  1.0000000E+04;  0.0000000E+00;  0.0000000E+00;  1.0000000E+04;  0.0000000E+00;  1.0000000E+04;  0.0000000E+00;  0.0000000E+00;  0.0000000E+00;  0.0000000E+00;
  1.4000000E-01;  9.9999998E-03;  0.0000000E+00;1261;  0.0000000E+00;  0.0000000E+00;  0.0000000E+00;  1.0000000E+03;  4.0000001E-01;  0.0000000E+00;3;  0.0000000E+00;  0.0000000E+00;  0.0000000E+00;0;  0.0000000E+00;  1.0000000E+04;  0.0000000E+00;  0.0000000E+00;  1.0000000E+04;  0.0000000E+00;  1.0000000E+04;  0.0000000E+00;  0.0000000E+00;  0.0000000E+00;  0.0000000E+00;
  1.4000000E-01;  9.9999998E-03;  2.0000000E-02;1262;  0.0000000E+00;  0.0000000E+00;  0.0000000E+00;  1.0000000E+03;  4.0000001E-01;  0.0000000E+00;3;  0.0000000E+00;  0.0000000E+00;  0.0000000E+00;0;  0.0000000E+00;  1.0000000E+04;  0.0000000E+00;  0.0000000E+00;  1.0000000E+04;  0.0000000E+00;  1.0000000E+04;  0.0000000E+00;  0.0000000E+00;  0.0000000E+00;  0.0000000E+00;
  1.4000000E-01;  9.9999998E-03;  3.9999999E-02;1263;  0.0000000E+00;  0.0000000E+00;  0.0000000E+00;  1.0000000E+03;  4.0000001E-01;  0.0000000E+00;3;  0.0000000E+00;  0.0000000E+00;  0.0000000E+00;0;  0.0000000E+00;  1.0000000E+04;  0.0000000E+00;  0.0000000E+00;  1.0000000E+04;  0.0000000E+00;  1.0000000E+04;  0.0000000E+00;  0.0000000E+00;  0.0000000E+00;  0.0000000E+00;
  1.4000000E-01;  9.9999998E-03;  5.9999999E-02;1264;  0.0000000E+00;  0.0000000E+00;  0.0000000E+00;  1.0000000E+03;  4.0000001E-01;  0.0000000E+00;3;  0.0000000E+00;  0.0000000E+00;  0.0000000E+00;0;  0.0000000E+00;  1.0000000E+04;  0.0000000E+00;  0.0000000E+00;  1.0000000E+04;  0.0000000E+00;  1.0000000E+04;  0.0000000E+00;  0.0000000E+00;  0.0000000E+00;  0.0000000E+00;
  1.4000000E-01;  9.9999998E-03;  7.9999998E-02;1265;  0.0000000E+00;  0.0000000E+00;  0.0000000E+00;  1.0000000E+03;  4.0000001E-01;  0.0000000E+00;3;  0.0000000E+00;  0.0000000E+00;  0.0000000E+00;0;  0.0000000E+00;  1.0000000E+04;  0.0000000E+00;  0.0000000E+00;  1.0000000E+04;  0.0000000E+00;  1.0000000E+04;  0.0000000E+00;  0.0000000E+00;  0.0000000E+00;  0.0000000E+00;
  1.4000000E-01;  9.9999998E-03;  1.0000000E-01;1266;  0.0000000E+00;  0.0000000E+00;  0.0000000E+00;  1.0000000E+03;  4.0000001E-01;  0.0000000E+00;3;  0.0000000E+00;  0.0000000E+00;  0.0000000E+00;0;  0.0000000E+00;  1.0000000E+04;  0.0000000E+00;  0.0000000E+00;  1.0000000E+04;  0.0000000E+00;  1.0000000E+04;  0.0000000E+00;  0.0000000E+00;  0.0000000E+00;  0.0000000E+00;
  1.4000000E-01;  9.9999998E-03;  1.2000000E-01;1267;  0.0000000E+00;  0.0000000E+00;  0.0000000E+00;  1.0000000E+03;  4.0000001E-01;  0.0000000E+00;3;  0.0000000E+00;  0.0000000E+00;  0.0000000E+00;0;  0.0000000E+00;  1.0000000E+04;  0.0000000E+00;  0.0000000E+00;  1.0000000E+04;  0.0000000E+00;  1.0000000E+04;  0.0000000E+00;  0.0000000E+00;  0.0000000E+00;  0.0000000E+00;
  1.4000000E-01;  9.9999998E-03;  1.4000000E-01;1268;  0.0000000E+00;  0.0000000E+00;  0.0000000E+00;  1.0000000E+03;  4.0000001E-01;  0.0000000E+00;3;  0.0000000E+00;  0.0000000E+00;  0.0000000E+00;0;  0.0000000E+00;  1.0000000E+04;  0.0000000E+00;  0.0000000E+00;  1.0000000E+04;  0.0000000E+00;  1.0000000E+04;  0.0000000E+00;  0.0000000E+00;  0.0000000E+00;  0.0000000E+00;
  1.6000000E-01;  9.9999998E-03;  0.0000000E+00;1292;  0.0000000E+00;  0.0000000E+00;  0.0000000E+00;  1.0000000E+03;  4.0000001E-01;  0.0000000E+00;3;  0.0000000E+00;  0.0000000E+00;  0.0000000E+00;0;  0.0000000E+00;  1.0000000E+04;  0.0000000E+00;  0.0000000E+00;  1.0000000E+04;  0.0000000E+00;  1.0000000E+04;  0.0000000E+00;  0.0000000E+00;  0.0000000E+00;  0.0000000E+00;
  1.6000000E-01;  9.9999998E-03;  2.0000000E-02;1293;  0.0000000E+00;  0.0000000E+00;  0.0000000E+00;  1.0000000E+03;  4.0000001E-01;  0.0000000E+00;3;  0.0000000E+00;  0.0000000E+00;  0.0000000E+00;0;  0.0000000E+00;  1.0000000E+04;  0.0000000E+00;  0.0000000E+00;  1.0000000E+04;  0.0000000E+00;  1.0000000E+04;  0.0000000E+00;  0.0000000E+00;  0.0000000E+00;  0.0000000E+00;
  1.6000000E-01;  9.9999998E-03;  3.9999999E-02;1294;  0.0000000E+00;  0.0000000E+00;  0.0000000E+00;  1.0000000E+03;  4.0000001E-01;  0.0000000E+00;3;  0.0000000E+00;  0.0000000E+00;  0.0000000E+00;0;  0.0000000E+00;  1.0000000E+04;  0.0000000E+00;  0.0000000E+00;  1.0000000E+04;  0.0000000E+00;  1.0000000E+04;  0.0000000E+00;  0.0000000E+00;  0.0000000E+00;  0.0000000E+00;
  1.6000000E-01;  9.9999998E-03;  5.9999999E-02;1295;  0.0000000E+00;  0.0000000E+00;  0.0000000E+00;  1.0000000E+03;  4.0000001E-01;  0.0000000E+00;3;  0.0000000E+00;  0.0000000E+00;  0.0000000E+00;0;  0.0000000E+00;  1.0000000E+04;  0.0000000E+00;  0.0000000E+00;  1.0000000E+04;  0.0000000E+00;  1.0000000E+04;  0.0000000E+00;  0.0000000E+00;  0.0000000E+00;  0.0000000E+00;
  1.6000000E-01;  9.9999998E-03;  7.9999998E-02;1296;  0.0000000E+00;  0.0000000E+00;  0.0000000E+00;  1.0000000E+03;  4.0000001E-01;  0.0000000E+00;3;  0.0000000E+00;  0.0000000E+00;  0.0000000E+00;0;  0.0000000E+00;  1.0000000E+04;  0.0000000E+00;  0.0000000E+00;  1.0000000E+04;  0.0000000E+00;  1.0000000E+04;  0.0000000E+00;  0.0000000E+00;  0.0000000E+00;  0.0000000E+00;
  1.6000000E-01;  9.9999998E-03;  1.0000000E-01;1297;  0.0000000E+00;  0.0000000E+00;  0.0000000E+00;  1.0000000E+03;  4.0000001E-01;  0.0000000E+00;3;  0.0000000E+00;  0.0000000E+00;  0.0000000E+00;0;  0.0000000E+00;  1.0000000E+04;  0.0000000E+00;  0.0000000E+00;  1.0000000E+04;  0.0000000E+00;  1.0000000E+04;  0.0000000E+00;  0.0000000E+00;  0.0000000E+00;  0.0000000E+00;
  1.6000000E-01;  9.9999998E-03;  1.2000000E-01;1298;  0.0000000E+00;  0.0000000E+00;  0.0000000E+00;  1.0000000E+03;  4.0000001E-01;  0.0000000E+00;3;  0.0000000E+00;  0.0000000E+00;  0.0000000E+00;0;  0.0000000E+00;  1.0000000E+04;  0.0000000E+00;  0.0000000E+00;  1.0000000E+04;  0.0000000E+00;  1.0000000E+04;  0.0000000E+00;  0.0000000E+00;  0.0000000E+00;  0.0000000E+00;
  1.6000000E-01;  9.9999998E-03;  1.4000000E-01;1299;  0.0000000E+00;  0.0000000E+00;  0.0000000E+00;  1.0000000E+03;  4.0000001E-01;  0.0000000E+00;3;  0.0000000E+00;  0.0000000E+00;  0.0000000E+00;0;  0.0000000E+00;  1.0000000E+04;  0.0000000E+00;  0.0000000E+00;  1.0000000E+04;  0.0000000E+00;  1.0000000E+04;  0.0000000E+00;  0.0000000E+00;  0.0000000E+00;  0.0000000E+00;
  1.8000001E-01;  9.9999998E-03;  0.0000000E+00;1323;  0.0000000E+00;  0.0000000E+00;  0.0000000E+00;  1.0000000E+03;  4.0000001E-01;  0.0000000E+00;3;  0.0000000E+00;  0.0000000E+00;  0.0000000E+00;0;  0.0000000E+00;  1.0000000E+04;  0.0000000E+00;  0.0000000E+00;  1.0000000E+04;  0.0000000E+00;  1.0000000E+04;  0.0000000E+00;  0.0000000E+00;  0.0000000E+00;  0.0000000E+00;
  1.8000001E-01;  9.9999998E-03;  2.0000000E-02;1324;  0.0000000E+00;  0.0000000E+00;  0.0000000E+00;  1.0000000E+03;  4.0000001E-01;  0.0000000E+00;3;  0.0000000E+00;  0.0000000E+00;  0.0000000E+00;0;  0.0000000E+00;  1.0000000E+04;  0.0000000E+00;  0.0000000E+00;  1.0000000E+04;  0.0000000E+00;  1.0000000E+04;  0.0000000E+00;  0.0000000E+00;  0.0000000E+00;  0.0000000E+00;
  1.8000001E-01;  9.9999998E-03;  3.9999999E-02;1325;  0.0000000E+00;  0.0000000E+00;  0.0000000E+00;  1.0000000E+03;  4.0000001E-01;  0.0000000E+00;3;  0.0000000E+00;  0.0000000E+00;  0.0000000E+00;0;  0.0000000E+00;  1.0000000E+04;  0.0000000E+00;  0.0000000E+00;  1.0000000E+04;  0.0000000E+00;  1.0000000E+04;  0.0000000E+00;  0.0000000E+00;  0.0000000E+00;  0.0000000E+00;
  1.8000001E-01;  9.9999998E-03;  5.9999999E-02;1326;  0.0000000E+00;  0.0000000E+00;  0.0000000E+00;  1.0000000E+03;  4.0000001E-01;  0.0000000E+00;3;  0.0000000E+00;  0.0000000E+00;  0.0000000E+00;0;  0.0000000E+00;  1.0000000E+04;  0.0000000E+00;  0.0000000E+00;  1.0000000E+04;  0.0000000E+00;  1.0000000E+04;  0.0000000E+00;  0.0000000E+00;  0.0000000E+00;  0.0000000E+00;
  1.8000001E-01;  9.9999998E-03;  7.9999998E-02;1327;  0.0000000E+00;  0.0000000E+00;  0.0000000E+00;  1.0000000E+03;  4.0000001E-01;  0.0000000E+00;3;  0.0000000E+00;  0.0000000E+00;  0.0000000E+00;0;  0.0000000E+00;  1.0000000E+04;  0.0000000E+00;  0.0000000E+00;  1.0000000E+04;  0.0000000E+00;  1.0000000E+04;  0.0000000E+00;  0.0000000E+00;  0.0000000E+00;  0.0000000E+00;
  1.8000001E-01;  9.9999998E-03;  1.0000000E-01;1328;  0.0000000E+00;  0.0000000E+00;  0.0000000E+00;  1.0000000E+03;  4.0000001E-01;  0.0000000E+00;3;  0.0000000E+00;  0.0000000E+00;  0.0000000E+00;0;  0.0000000E+00;  1.0000000E+04;  0.0000000E+00;  0.0000000E+00;  1.0000000E+04;  0.0000000E+00;  1.0000000E+04;  0.0000000E+00;  0.0000000E+00;  0.0000000E+00;  0.0000000E+00;
  1.8000001E-01;  9.9999998E-03;  1.2000000E-01;1329;  0.0000000E+00;  0.0000000E+00;  0.0000000E+00;  1.0000000E+03;  4.0000001E-01;  0.0000000E+00;3;  0.0000000E+00;  0.0000000E+00;  0.0000000E+00;0;  0.0000000E+00;  1.0000000E+04;  0.0000000E+00;  0.0000000E+00;  1.0000000E+04;  0.0000000E+00;  1.0000000E+04;  0.0000000E+00;  0.0000000E+00;  0.0000000E+00;  0.0000000E+00;
  1.8000001E-01;  9.9999998E-03;  1.4000000E-01;1330;  0.0000000E+00;  0.0000000E+00;  0.0000000E+00;  1.0000000E+03;  4.0000001E-01;  0.0000000E+00;3;  0.0000000E+00;  0.0000000E+00;  0.0000000E+00;0;  0.0000000E+00;  1.0000000E+04;  0.0000000E+00;  0.0000000E+00;  1.0000000E+04;  0.0000000E+00;  1.0000000E+04;  0.0000000E+00;  0.0000000E+00;  0.0000000E+00;  0.0000000E+00;
  2.0000000E-01;  9.9999998E-03;  0.0000000E+00;1354;  0.0000000E+00;  0.0000000E+00;  0.0000000E+00;  1.0000000E+03;  4.0000001E-01;  0.0000000E+00;3;  0.0000000E+00;  0.0000000E+00;  0.0000000E+00;0;  0.0000000E+00;  1.0000000E+04;  0.0000000E+00;  0.0000000E+00;  1.0000000E+04;  0.0000000E+00;  1.0000000E+04;  0.0000000E+00;  0.0000000E+00;  0.0000000E+00;  0.0000000E+00;
  2.0000000E-01;  9.9999998E-03;  2.0000000E-02;1355;  0.0000000E+00;  0.0000000E+00;  0.0000000E+00;  1.0000000E+03;  4.0000001E-01;  0.0000000E+00;3;  0.0000000E+00;  0.0000000E+00;  0.0000000E+00;0;  0.0000000E+00;  1.0000000E+04;  0.0000000E+00;  0.0000000E+00;  1.0000000E+04;  0.0000000E+00;  1.0000000E+04;  0.0000000E+00;  0.0000000E+00;  0.0000000E+00;  0.0000000E+00;
  2.0000000E-01;  9.9999998E-03;  3.9999999E-02;1356;  0.0000000E+00;  0.0000000E+00;  0.0000000E+00;  1.0000000E+03;  4.0000001E-01;  0.0000000E+00;3;  0.0000000E+00;  0.0000000E+00;  0.0000000E+00;0;  0.0000000E+00;  1.0000000E+04;  0.0000000E+00;  0.0000000E+00;  1.0000000E+04;  0.0000000E+00;  1.0000000E+04;  0.0000000E+00;  0.0000000E+00;  0.0000000E+00;  0.0000000E+00;
  2.0000000E-01;  9.9999998E-03;  5.9999999E-02;1357;  0.0000000E+00;  0.0000000E+00;  0.0000000E+00;  1.0000000E+03;  4.0000001E-01;  0.0000000E+00;3;  0.0000000E+00;  0.0000000E+00;  0.0000000E+00;0;  0.0000000E+00;  1.0000000E+04;  0.0000000E+00;  0.0000000E+00;  1.0000000E+04;  0.0000000E+00;  1.0000000E+04;  0.0000000E+00;  0.0000000E+00;  0.0000000E+00;  0.0000000E+00;
  2.0000000E-01;  9.9999998E-03;  7.9999998E-02;1358;  0.0000000E+00;  0.0000000E+00;  0.0000000E+00;  1.0000000E+03;  4.0000001E-01;  0.0000000E+00;3;  0.0000000E+00;  0.0000000E+00;  0.0000000E+00;0;  0.0000000E+00;  1.0000000E+04;  0.0000000E+00;  0.0000000E+00;  1.0000000E+04;  0.0000000E+00;  1.0000000E+04;  0.0000000E+00;  0.0000000E+00;  0.0000000E+00;  0.0000000E+00;
  2.0000000E-01;  9.9999998E-03;  1.0000000E-01;1359;  0.0000000E+00;  0.0000000E+00;  0.0000000E+00;  1.0000000E+03;  4.0000001E-01;  0.0000000E+00;3;  0.0000000E+00;  0.0000000E+00;  0.0000000E+00;0;  0.0000000E+00;  1.0000000E+04;  0.0000000E+00;  0.0000000E+00;  1.0000000E+04;  0.0000000E+00;  1.0000000E+04;  0.0000000E+00;  0.0000000E+00;  0.0000000E+00;  0.0000000E+00;
  2.0000000E-01;  9.9999998E-03;  1.2000000E-01;1360;  0.0000000E+00;  0.0000000E+00;  0.0000000E+00;  1.0000000E+03;  4.0000001E-01;  0.0000000E+00;3;  0.0000000E+00;  0.0000000E+00;  0.0000000E+00;0;  0.0000000E+00;  1.0000000E+04;  0.0000000E+00;  0.0000000E+00;  1.0000000E+04;  0.0000000E+00;  1.0000000E+04;  0.0000000E+00;  0.0000000E+00;  0.0000000E+00;  0.0000000E+00;
  2.0000000E-01;  9.9999998E-03;  1.4000000E-01;1361;  0.0000000E+00;  0.0000000E+00;  0.0000000E+00;  1.0000000E+03;  4.0000001E-01;  0.0000000E+00;3;  0.0000000E+00;  0.0000000E+00;  0.0000000E+00;0;  0.0000000E+00;  1.0000000E+04;  0.0000000E+00;  0.0000000E+00;  1.0000000E+04;  0.0000000E+00;  1.0000000E+04;  0.0000000E+00;  0.0000000E+00;  0.0000000E+00;  0.0000000E+00;
  2.2000000E-01;  9.9999998E-03;  0.0000000E+00;1385;  0.0000000E+00;  0.0000000E+00;  0.0000000E+00;  1.0000000E+03;  4.0000001E-01;  0.0000000E+00;3;  0.0000000E+00;  0.0000000E+00;  0.0000000E+00;0;  0.0000000E+00;  1.0000000E+04;  0.0000000E+00;  0.0000000E+00;  1.0000000E+04;  0.0000000E+00;  1.0000000E+04;  0.0000000E+00;  0.0000000E+00;  0.0000000E+00;  0.0000000E+00;
  2.2000000E-01;  9.9999998E-03;  2.0000000E-02;1386;  0.0000000E+00;  0.0000000E+00;  0.0000000E+00;  1.0000000E+03;  4.0000001E-01;  0.0000000E+00;3;  0.0000000E+00;  0.0000000E+00;  0.0000000E+00;0;  0.0000000E+00;  1.0000000E+04;  0.0000000E+00;  0.0000000E+00;  1.0000000E+04;  0.0000000E+00;  1.0000000E+04;  0.0000000E+00;  0.0000000E+00;  0.0000000E+00;  0.0000000E+00;
  2.2000000E-01;  9.9999998E-03;  3.9999999E-02;1387;  0.0000000E+00;  0.0000000E+00;  0.0000000E+00;  1.0000000E+03;  4.0000001E-01;  0.0000000E+00;3;  0.0000000E+00;  0.0000000E+00;  0.0000000E+00;0;  0.0000000E+00;  1.0000000E+04;  0.0000000E+00;  0.0000000E+00;  1.0000000E+04;  0.0000000E+00;  1.0000000E+04;  0.0000000E+00;  0.0000000E+00;  0.0000000E+00;  0.0000000E+00;
  2.2000000E-01;  9.9999998E-03;  5.9999999E-02;1388;  0.0000000E+00;  0.0000000E+00;  0.0000000E+00;  1.0000000E+03;  4.0000001E-01;  0.0000000E+00;3;  0.0000000E+00;  0.0000000E+00;  0.0000000E+00;0;  0.0000000E+00;  1.0000000E+04;  0.0000000E+00;  0.0000000E+00;  1.0000000E+04;  0.0000000E+00;  1.0000000E+04;  0.0000000E+00;  0.0000000E+00;  0.0000000E+00;  0.0000000E+00;
  2.2000000E-01;  9.9999998E-03;  7.9999998E-02;1389;  0.0000000E+00;  0.0000000E+00;  0.0000000E+00;  1.0000000E+03;  4.0000001E-01;  0.0000000E+00;3;  0.0000000E+00;  0.0000000E+00;  0.0000000E+00;0;  0.0000000E+00;  1.0000000E+04;  0.0000000E+00;  0.0000000E+00;  1.0000000E+04;  0.0000000E+00;  1.0000000E+04;  0.0000000E+00;  0.0000000E+00;  0.0000000E+00;  0.0000000E+00;
  2.2000000E-01;  9.9999998E-03;  1.0000000E-01;1390;  0.0000000E+00;  0.0000000E+00;  0.0000000E+00;  1.0000000E+03;  4.0000001E-01;  0.0000000E+00;3;  0.0000000E+00;  0.0000000E+00;  0.0000000E+00;0;  0.0000000E+00;  1.0000000E+04;  0.0000000E+00;  0.0000000E+00;  1.0000000E+04;  0.0000000E+00;  1.0000000E+04;  0.0000000E+00;  0.0000000E+00;  0.0000000E+00;  0.0000000E+00;
  2.2000000E-01;  9.9999998E-03;  1.2000000E-01;1391;  0.0000000E+00;  0.0000000E+00;  0.0000000E+00;  1.0000000E+03;  4.0000001E-01;  0.0000000E+00;3;  0.0000000E+00;  0.0000000E+00;  0.0000000E+00;0;  0.0000000E+00;  1.0000000E+04;  0.0000000E+00;  0.0000000E+00;  1.0000000E+04;  0.0000000E+00;  1.0000000E+04;  0.0000000E+00;  0.0000000E+00;  0.0000000E+00;  0.0000000E+00;
  2.2000000E-01;  9.9999998E-03;  1.4000000E-01;1392;  0.0000000E+00;  0.0000000E+00;  0.0000000E+00;  1.0000000E+03;  4.0000001E-01;  0.0000000E+00;3;  0.0000000E+00;  0.0000000E+00;  0.0000000E+00;0;  0.0000000E+00;  1.0000000E+04;  0.0000000E+00;  0.0000000E+00;  1.0000000E+04;  0.0000000E+00;  1.0000000E+04;  0.0000000E+00;  0.0000000E+00;  0.0000000E+00;  0.0000000E+00;
  2.3999999E-01;  9.9999998E-03;  0.0000000E+00;1416;  0.0000000E+00;  0.0000000E+00;  0.0000000E+00;  1.0000000E+03;  4.0000001E-01;  0.0000000E+00;3;  0.0000000E+00;  0.0000000E+00;  0.0000000E+00;0;  0.0000000E+00;  1.0000000E+04;  0.0000000E+00;  0.0000000E+00;  1.0000000E+04;  0.0000000E+00;  1.0000000E+04;  0.0000000E+00;  0.0000000E+00;  0.0000000E+00;  0.0000000E+00;
  2.3999999E-01;  9.9999998E-03;  2.0000000E-02;1417;  0.0000000E+00;  0.0000000E+00;  0.0000000E+00;  1.0000000E+03;  4.0000001E-01;  0.0000000E+00;3;  0.0000000E+00;  0.0000000E+00;  0.0000000E+00;0;  0.0000000E+00;  1.0000000E+04;  0.0000000E+00;  0.0000000E+00;  1.0000000E+04;  0.0000000E+00;  1.0000000E+04;  0.0000000E+00;  0.0000000E+00;  0.0000000E+00;  0.0000000E+00;
  2.3999999E-01;  9.9999998E-03;  3.9999999E-02;1418;  0.0000000E+00;  0.0000000E+00;  0.0000000E+00;  1.0000000E+03;  4.0000001E-01;  0.0000000E+00;3;  0.0000000E+00;  0.0000000E+00;  0.0000000E+00;0;  0.0000000E+00;  1.0000000E+04;  0.0000000E+00;  0.0000000E+00;  1.0000000E+04;  0.0000000E+00;  1.0000000E+04;  0.0000000E+00;  0.0000000E+00;  0.0000000E+00;  0.0000000E+00;
  2.3999999E-01;  9.9999998E-03;  5.9999999E-02;1419;  0.0000000E+00;  0.0000000E+00;  0.0000000E+00;  1.0000000E+03;  4.0000001E-01;  0.0000000E+00;3;  0.0000000E+00;  0.0000000E+00;  0.0000000E+00;0;  0.0000000E+00;  1.0000000E+04;  0.0000000E+00;  0.0000000E+00;  1.0000000E+04;  0.0000000E+00;  1.0000000E+04;  0.0000000E+00;  0.0000000E+00;  0.0000000E+00;  0.0000000E+00;
  2.3999999E-01;  9.9999998E-03;  7.9999998E-02;1420;  0.0000000E+00;  0.0000000E+00;  0.0000000E+00;  1.0000000E+03;  4.0000001E-01;  0.0000000E+00;3;  0.0000000E+00;  0.0000000E+00;  0.0000000E+00;0;  0.0000000E+00;  1.0000000E+04;  0.0000000E+00;  0.0000000E+00;  1.0000000E+04;  0.0000000E+00;  1.0000000E+04;  0.0000000E+00;  0.0000000E+00;  0.0000000E+00;  0.0000000E+00;
  2.3999999E-01;  9.9999998E-03;  1.0000000E-01;1421;  0.0000000E+00;  0.0000000E+00;  0.0000000E+00;  1.0000000E+03;  4.0000001E-01;  0.0000000E+00;3;  0.0000000E+00;  0.0000000E+00;  0.0000000E+00;0;  0.0000000E+00;  1.0000000E+04;  0.0000000E+00;  0.0000000E+00;  1.0000000E+04;  0.0000000E+00;  1.0000000E+04;  0.0000000E+00;  0.0000000E+00;  0.0000000E+00;  0.0000000E+00;
  2.3999999E-01;  9.9999998E-03;  1.2000000E-01;1422;  0.0000000E+00;  0.0000000E+00;  0.0000000E+00;  1.0000000E+03;  4.0000001E-01;  0.0000000E+00;3;  0.0000000E+00;  0.0000000E+00;  0.0000000E+00;0;  0.0000000E+00;  1.0000000E+04;  0.0000000E+00;  0.0000000E+00;  1.0000000E+04;  0.0000000E+00;  1.0000000E+04;  0.0000000E+00;  0.0000000E+00;  0.0000000E+00;  0.0000000E+00;
  2.3999999E-01;  9.9999998E-03;  1.4000000E-01;1423;  0.0000000E+00;  0.0000000E+00;  0.0000000E+00;  1.0000000E+03;  4.0000001E-01;  0.0000000E+00;3;  0.0000000E+00;  0.0000000E+00;  0.0000000E+00;0;  0.0000000E+00;  1.0000000E+04;  0.0000000E+00;  0.0000000E+00;  1.0000000E+04;  0.0000000E+00;  1.0000000E+04;  0.0000000E+00;  0.0000000E+00;  0.0000000E+00;  0.0000000E+00;
  2.5999999E-01;  9.9999998E-03;  0.0000000E+00;1447;  0.0000000E+00;  0.0000000E+00;  0.0000000E+00;  1.0000000E+03;  4.0000001E-01;  0.0000000E+00;3;  0.0000000E+00;  0.0000000E+00;  0.0000000E+00;0;  0.0000000E+00;  1.0000000E+04;  0.0000000E+00;  0.0000000E+00;  1.0000000E+04;  0.0000000E+00;  1.0000000E+04;  0.0000000E+00;  0.0000000E+00;  0.0000000E+00;  0.0000000E+00;
  2.5999999E-01;  9.9999998E-03;  2.0000000E-02;1448;  0.0000000E+00;  0.0000000E+00;  0.0000000E+00;  1.0000000E+03;  4.0000001E-01;  0.0000000E+00;3;  0.0000000E+00;  0.0000000E+00;  0.0000000E+00;0;  0.0000000E+00;  1.0000000E+04;  0.0000000E+00;  0.0000000E+00;  1.0000000E+04;  0.0000000E+00;  1.0000000E+04;  0.0000000E+00;  0.0000000E+00;  0.0000000E+00;  0.0000000E+00;
  2.5999999E-01;  9.9999998E-03;  3.9999999E-02;1449;  0.0000000E+00;  0.0000000E+00;  0.0000000E+00;  1.0000000E+03;  4.0000001E-01;  0.0000000E+00;3;  0.0000000E+00;  0.0000000E+00;  0.0000000E+00;0;  0.0000000E+00;  1.0000000E+04;  0.0000000E+00;  0.0000000E+00;  1.0000000E+04;  0.0000000E+00;  1.0000000E+04;  0.0000000E+00;  0.0000000E+00;  0.0000000E+00;  0.0000000E+00;
  2.5999999E-01;  9.9999998E-03;  5.9999999E-02;1450;  0.0000000E+00;  0.0000000E+00;  0.0000000E+00;  1.0000000E+03;  4.0000001E-01;  0.0000000E+00;3;  0.0000000E+00;  0.0000000E+00;  0.0000000E+00;0;  0.0000000E+00;  1.0000000E+04;  0.0000000E+00;  0.0000000E+00;  1.0000000E+04;  0.0000000E+00;  1.0000000E+04;  0.0000000E+00;  0.0000000E+00;  0.0000000E+00;  0.0000000E+00;
  2.5999999E-01;  9.9999998E-03;  7.9999998E-02;1451;  0.0000000E+00;  0.0000000E+00;  0.0000000E+00;  1.0000000E+03;  4.0000001E-01;  0.0000000E+00;3;  0.0000000E+00;  0.0000000E+00;  0.0000000E+00;0;  0.0000000E+00;  1.0000000E+04;  0.0000000E+00;  0.0000000E+00;  1.0000000E+04;  0.0000000E+00;  1.0000000E+04;  0.0000000E+00;  0.0000000E+00;  0.0000000E+00;  0.0000000E+00;
  2.5999999E-01;  9.9999998E-03;  1.0000000E-01;1452;  0.0000000E+00;  0.0000000E+00;  0.0000000E+00;  1.0000000E+03;  4.0000001E-01;  0.0000000E+00;3;  0.0000000E+00;  0.0000000E+00;  0.0000000E+00;0;  0.0000000E+00;  1.0000000E+04;  0.0000000E+00;  0.0000000E+00;  1.0000000E+04;  0.0000000E+00;  1.0000000E+04;  0.0000000E+00;  0.0000000E+00;  0.0000000E+00;  0.0000000E+00;
  2.5999999E-01;  9.9999998E-03;  1.2000000E-01;1453;  0.0000000E+00;  0.0000000E+00;  0.0000000E+00;  1.0000000E+03;  4.0000001E-01;  0.0000000E+00;3;  0.0000000E+00;  0.0000000E+00;  0.0000000E+00;0;  0.0000000E+00;  1.0000000E+04;  0.0000000E+00;  0.0000000E+00;  1.0000000E+04;  0.0000000E+00;  1.0000000E+04;  0.0000000E+00;  0.0000000E+00;  0.0000000E+00;  0.0000000E+00;
  2.5999999E-01;  9.9999998E-03;  1.4000000E-01;1454;  0.0000000E+00;  0.0000000E+00;  0.0000000E+00;  1.0000000E+03;  4.0000001E-01;  0.0000000E+00;3;  0.0000000E+00;  0.0000000E+00;  0.0000000E+00;0;  0.0000000E+00;  1.0000000E+04;  0.0000000E+00;  0.0000000E+00;  1.0000000E+04;  0.0000000E+00;  1.0000000E+04;  0.0000000E+00;  0.0000000E+00;  0.0000000E+00;  0.0000000E+00;
  2.8000000E-01;  9.9999998E-03;  0.0000000E+00;1478;  0.0000000E+00;  0.0000000E+00;  0.0000000E+00;  1.0000000E+03;  4.0000001E-01;  0.0000000E+00;3;  0.0000000E+00;  0.0000000E+00;  0.0000000E+00;0;  0.0000000E+00;  1.0000000E+04;  0.0000000E+00;  0.0000000E+00;  1.0000000E+04;  0.0000000E+00;  1.0000000E+04;  0.0000000E+00;  0.0000000E+00;  0.0000000E+00;  0.0000000E+00;
  2.8000000E-01;  9.9999998E-03;  2.0000000E-02;1479;  0.0000000E+00;  0.0000000E+00;  0.0000000E+00;  1.0000000E+03;  4.0000001E-01;  0.0000000E+00;3;  0.0000000E+00;  0.0000000E+00;  0.0000000E+00;0;  0.0000000E+00;  1.0000000E+04;  0.0000000E+00;  0.0000000E+00;  1.0000000E+04;  0.0000000E+00;  1.0000000E+04;  0.0000000E+00;  0.0000000E+00;  0.0000000E+00;  0.0000000E+00;
  2.8000000E-01;  9.9999998E-03;  3.9999999E-02;1480;  0.0000000E+00;  0.0000000E+00;  0.0000000E+00;  1.0000000E+03;  4.0000001E-01;  0.0000000E+00;3;  0.0000000E+00;  0.0000000E+00;  0.0000000E+00;0;  0.0000000E+00;  1.0000000E+04;  0.0000000E+00;  0.0000000E+00;  1.0000000E+04;  0.0000000E+00;  1.0000000E+04;  0.0000000E+00;  0.0000000E+00;  0.0000000E+00;  0.0000000E+00;
  2.8000000E-01;  9.9999998E-03;  5.9999999E-02;1481;  0.0000000E+00;  0.0000000E+00;  0.0000000E+00;  1.0000000E+03;  4.0000001E-01;  0.0000000E+00;3;  0.0000000E+00;  0.0000000E+00;  0.0000000E+00;0;  0.0000000E+00;  1.0000000E+04;  0.0000000E+00;  0.0000000E+00;  1.0000000E+04;  0.0000000E+00;  1.0000000E+04;  0.0000000E+00;  0.0000000E+00;  0.0000000E+00;  0.0000000E+00;
  2.8000000E-01;  9.9999998E-03;  7.9999998E-02;1482;  0.0000000E+00;  0.0000000E+00;  0.0000000E+00;  1.0000000E+03;  4.0000001E-01;  0.0000000E+00;3;  0.0000000E+00;  0.0000000E+00;  0.0000000E+00;0;  0.0000000E+00;  1.0000000E+04;  0.0000000E+00;  0.0000000E+00;  1.0000000E+04;  0.0000000E+00;  1.0000000E+04;  0.0000000E+00;  0.0000000E+00;  0.0000000E+00;  0.0000000E+00;
  2.8000000E-01;  9.9999998E-03;  1.0000000E-01;1483;  0.0000000E+00;  0.0000000E+00;  0.0000000E+00;  1.0000000E+03;  4.0000001E-01;  0.0000000E+00;3;  0.0000000E+00;  0.0000000E+00;  0.0000000E+00;0;  0.0000000E+00;  1.0000000E+04;  0.0000000E+00;  0.0000000E+00;  1.0000000E+04;  0.0000000E+00;  1.0000000E+04;  0.0000000E+00;  0.0000000E+00;  0.0000000E+00;  0.0000000E+00;
  2.8000000E-01;  9.9999998E-03;  1.2000000E-01;1484;  0.0000000E+00;  0.0000000E+00;  0.0000000E+00;  1.0000000E+03;  4.0000001E-01;  0.0000000E+00;3;  0.0000000E+00;  0.0000000E+00;  0.0000000E+00;0;  0.0000000E+00;  1.0000000E+04;  0.0000000E+00;  0.0000000E+00;  1.0000000E+04;  0.0000000E+00;  1.0000000E+04;  0.0000000E+00;  0.0000000E+00;  0.0000000E+00;  0.0000000E+00;
  2.8000000E-01;  9.9999998E-03;  1.4000000E-01;1485;  0.0000000E+00;  0.0000000E+00;  0.0000000E+00;  1.0000000E+03;  4.0000001E-01;  0.0000000E+00;3;  0.0000000E+00;  0.0000000E+00;  0.0000000E+00;0;  0.0000000E+00;  1.0000000E+04;  0.0000000E+00;  0.0000000E+00;  1.0000000E+04;  0.0000000E+00;  1.0000000E+04;  0.0000000E+00;  0.0000000E+00;  0.0000000E+00;  0.0000000E+00;
  3.0000001E-01;  9.9999998E-03;  0.0000000E+00;1509;  0.0000000E+00;  0.0000000E+00;  0.0000000E+00;  1.0000000E+03;  4.0000001E-01;  0.0000000E+00;3;  0.0000000E+00;  0.0000000E+00;  0.0000000E+00;0;  0.0000000E+00;  1.0000000E+04;  0.0000000E+00;  0.0000000E+00;  1.0000000E+04;  0.0000000E+00;  1.0000000E+04;  0.0000000E+00;  0.0000000E+00;  0.0000000E+00;  0.0000000E+00;
  3.0000001E-01;  9.9999998E-03;  2.0000000E-02;1510;  0.0000000E+00;  0.0000000E+00;  0.0000000E+00;  1.0000000E+03;  4.0000001E-01;  0.0000000E+00;3;  0.0000000E+00;  0.0000000E+00;  0.0000000E+00;0;  0.0000000E+00;  1.0000000E+04;  0.0000000E+00;  0.0000000E+00;  1.0000000E+04;  0.0000000E+00;  1.0000000E+04;  0.0000000E+00;  0.0000000E+00;  0.0000000E+00;  0.0000000E+00;
  3.0000001E-01;  9.9999998E-03;  3.9999999E-02;1511;  0.0000000E+00;  0.0000000E+00;  0.0000000E+00;  1.0000000E+03;  4.0000001E-01;  0.0000000E+00;3;  0.0000000E+00;  0.0000000E+00;  0.0000000E+00;0;  0.0000000E+00;  1.0000000E+04;  0.0000000E+00;  0.0000000E+00;  1.0000000E+04;  0.0000000E+00;  1.0000000E+04;  0.0000000E+00;  0.0000000E+00;  0.0000000E+00;  0.0000000E+00;
  3.0000001E-01;  9.9999998E-03;  5.9999999E-02;1512;  0.0000000E+00;  0.0000000E+00;  0.0000000E+00;  1.0000000E+03;  4.0000001E-01;  0.0000000E+00;3;  0.0000000E+00;  0.0000000E+00;  0.0000000E+00;0;  0.0000000E+00;  1.0000000E+04;  0.0000000E+00;  0.0000000E+00;  1.0000000E+04;  0.0000000E+00;  1.0000000E+04;  0.0000000E+00;  0.0000000E+00;  0.0000000E+00;  0.0000000E+00;
  3.0000001E-01;  9.9999998E-03;  7.9999998E-02;1513;  0.0000000E+00;  0.0000000E+00;  0.0000000E+00;  1.0000000E+03;  4.0000001E-01;  0.0000000E+00;3;  0.0000000E+00;  0.0000000E+00;  0.0000000E+00;0;  0.0000000E+00;  1.0000000E+04;  0.0000000E+00;  0.0000000E+00;  1.0000000E+04;  0.0000000E+00;  1.0000000E+04;  0.0000000E+00;  0.0000000E+00;  0.0000000E+00;  0.0000000E+00;
  3.0000001E-01;  9.9999998E-03;  1.0000000E-01;1514;  0.0000000E+00;  0.0000000E+00;  0.0000000E+00;  1.0000000E+03;  4.0000001E-01;  0.0000000E+00;3;  0.0000000E+00;  0.0000000E+00;  0.0000000E+00;0;  0.0000000E+00;  1.0000000E+04;  0.0000000E+00;  0.0000000E+00;  1.0000000E+04;  0.0000000E+00;  1.0000000E+04;  0.0000000E+00;  0.0000000E+00;  0.0000000E+00;  0.0000000E+00;
  3.0000001E-01;  9.9999998E-03;  1.2000000E-01;1515;  0.0000000E+00;  0.0000000E+00;  0.0000000E+00;  1.0000000E+03;  4.0000001E-01;  0.0000000E+00;3;  0.0000000E+00;  0.0000000E+00;  0.0000000E+00;0;  0.0000000E+00;  1.0000000E+04;  0.0000000E+00;  0.0000000E+00;  1.0000000E+04;  0.0000000E+00;  1.0000000E+04;  0.0000000E+00;  0.0000000E+00;  0.0000000E+00;  0.0000000E+00;
  3.0000001E-01;  9.9999998E-03;  1.4000000E-01;1516;  0.0000000E+00;  0.0000000E+00;  0.0000000E+00;  1.0000000E+03;  4.0000001E-01;  0.0000000E+00;3;  0.0000000E+00;  0.0000000E+00;  0.0000000E+00;0;  0.0000000E+00;  1.0000000E+04;  0.0000000E+00;  0.0000000E+00;  1.0000000E+04;  0.0000000E+00;  1.0000000E+04;  0.0000000E+00;  0.0000000E+00;  0.0000000E+00;  0.0000000E+00;
  3.1999999E-01;  9.9999998E-03;  0.0000000E+00;1540;  0.0000000E+00;  0.0000000E+00;  0.0000000E+00;  1.0000000E+03;  4.0000001E-01;  0.0000000E+00;3;  0.0000000E+00;  0.0000000E+00;  0.0000000E+00;0;  0.0000000E+00;  1.0000000E+04;  0.0000000E+00;  0.0000000E+00;  1.0000000E+04;  0.0000000E+00;  1.0000000E+04;  0.0000000E+00;  0.0000000E+00;  0.0000000E+00;  0.0000000E+00;
  3.1999999E-01;  9.9999998E-03;  2.0000000E-02;1541;  0.0000000E+00;  0.0000000E+00;  0.0000000E+00;  1.0000000E+03;  4.0000001E-01;  0.0000000E+00;3;  0.0000000E+00;  0.0000000E+00;  0.0000000E+00;0;  0.0000000E+00;  1.0000000E+04;  0.0000000E+00;  0.0000000E+00;  1.0000000E+04;  0.0000000E+00;  1.0000000E+04;  0.0000000E+00;  0.0000000E+00;  0.0000000E+00;  0.0000000E+00;
  3.1999999E-01;  9.9999998E-03;  3.9999999E-02;1542;  0.0000000E+00;  0.0000000E+00;  0.0000000E+00;  1.0000000E+03;  4.0000001E-01;  0.0000000E+00;3;  0.0000000E+00;  0.0000000E+00;  0.0000000E+00;0;  0.0000000E+00;  1.0000000E+04;  0.0000000E+00;  0.0000000E+00;  1.0000000E+04;  0.0000000E+00;  1.0000000E+04;  0.0000000E+00;  0.0000000E+00;  0.0000000E+00;  0.0000000E+00;
  3.1999999E-01;  9.9999998E-03;  5.9999999E-02;1543;  0.0000000E+00;  0.0000000E+00;  0.0000000E+00;  1.0000000E+03;  4.0000001E-01;  0.0000000E+00;3;  0.0000000E+00;  0.0000000E+00;  0.0000000E+00;0;  0.0000000E+00;  1.0000000E+04;  0.0000000E+00;  0.0000000E+00;  1.0000000E+04;  0.0000000E+00;  1.0000000E+04;  0.0000000E+00;  0.0000000E+00;  0.0000000E+00;  0.0000000E+00;
  3.1999999E-01;  9.9999998E-03;  7.9999998E-02;1544;  0.0000000E+00;  0.0000000E+00;  0.0000000E+00;  1.0000000E+03;  4.0000001E-01;  0.0000000E+00;3;  0.0000000E+00;  0.0000000E+00;  0.0000000E+00;0;  0.0000000E+00;  1.0000000E+04;  0.0000000E+00;  0.0000000E+00;  1.0000000E+04;  0.0000000E+00;  1.0000000E+04;  0.0000000E+00;  0.0000000E+00;  0.0000000E+00;  0.0000000E+00;
  3.1999999E-01;  9.9999998E-03;  1.0000000E-01;1545;  0.0000000E+00;  0.0000000E+00;  0.0000000E+00;  1.0000000E+03;  4.0000001E-01;  0.0000000E+00;3;  0.0000000E+00;  0.0000000E+00;  0.0000000E+00;0;  0.0000000E+00;  1.0000000E+04;  0.0000000E+00;  0.0000000E+00;  1.0000000E+04;  0.0000000E+00;  1.0000000E+04;  0.0000000E+00;  0.0000000E+00;  0.0000000E+00;  0.0000000E+00;
  3.1999999E-01;  9.9999998E-03;  1.2000000E-01;1546;  0.0000000E+00;  0.0000000E+00;  0.0000000E+00;  1.0000000E+03;  4.0000001E-01;  0.0000000E+00;3;  0.0000000E+00;  0.0000000E+00;  0.0000000E+00;0;  0.0000000E+00;  1.0000000E+04;  0.0000000E+00;  0.0000000E+00;  1.0000000E+04;  0.0000000E+00;  1.0000000E+04;  0.0000000E+00;  0.0000000E+00;  0.0000000E+00;  0.0000000E+00;
  3.1999999E-01;  9.9999998E-03;  1.4000000E-01;1547;  0.0000000E+00;  0.0000000E+00;  0.0000000E+00;  1.0000000E+03;  4.0000001E-01;  0.0000000E+00;3;  0.0000000E+00;  0.0000000E+00;  0.0000000E+00;0;  0.0000000E+00;  1.0000000E+04;  0.0000000E+00;  0.0000000E+00;  1.0000000E+04;  0.0000000E+00;  1.0000000E+04;  0.0000000E+00;  0.0000000E+00;  0.0000000E+00;  0.0000000E+00;
  3.4000000E-01;  9.9999998E-03;  0.0000000E+00;1571;  0.0000000E+00;  0.0000000E+00;  0.0000000E+00;  1.0000000E+03;  4.0000001E-01;  0.0000000E+00;3;  0.0000000E+00;  0.0000000E+00;  0.0000000E+00;0;  0.0000000E+00;  1.0000000E+04;  0.0000000E+00;  0.0000000E+00;  1.0000000E+04;  0.0000000E+00;  1.0000000E+04;  0.0000000E+00;  0.0000000E+00;  0.0000000E+00;  0.0000000E+00;
  3.4000000E-01;  9.9999998E-03;  2.0000000E-02;1572;  0.0000000E+00;  0.0000000E+00;  0.0000000E+00;  1.0000000E+03;  4.0000001E-01;  0.0000000E+00;3;  0.0000000E+00;  0.0000000E+00;  0.0000000E+00;0;  0.0000000E+00;  1.0000000E+04;  0.0000000E+00;  0.0000000E+00;  1.0000000E+04;  0.0000000E+00;  1.0000000E+04;  0.0000000E+00;  0.0000000E+00;  0.0000000E+00;  0.0000000E+00;
  3.4000000E-01;  9.9999998E-03;  3.9999999E-02;1573;  0.0000000E+00;  0.0000000E+00;  0.0000000E+00;  1.0000000E+03;  4.0000001E-01;  0.0000000E+00;3;  0.0000000E+00;  0.0000000E+00;  0.0000000E+00;0;  0.0000000E+00;  1.0000000E+04;  0.0000000E+00;  0.0000000E+00;  1.0000000E+04;  0.0000000E+00;  1.0000000E+04;  0.0000000E+00;  0.0000000E+00;  0.0000000E+00;  0.0000000E+00;
  3.4000000E-01;  9.9999998E-03;  5.9999999E-02;1574;  0.0000000E+00;  0.0000000E+00;  0.0000000E+00;  1.0000000E+03;  4.0000001E-01;  0.0000000E+00;3;  0.0000000E+00;  0.0000000E+00;  0.0000000E+00;0;  0.0000000E+00;  1.0000000E+04;  0.0000000E+00;  0.0000000E+00;  1.0000000E+04;  0.0000000E+00;  1.0000000E+04;  0.0000000E+00;  0.0000000E+00;  0.0000000E+00;  0.0000000E+00;
  3.4000000E-01;  9.9999998E-03;  7.9999998E-02;1575;  0.0000000E+00;  0.0000000E+00;  0.0000000E+00;  1.0000000E+03;  4.0000001E-01;  0.0000000E+00;3;  0.0000000E+00;  0.0000000E+00;  0.0000000E+00;0;  0.0000000E+00;  1.0000000E+04;  0.0000000E+00;  0.0000000E+00;  1.0000000E+04;  0.0000000E+00;  1.0000000E+04;  0.0000000E+00;  0.0000000E+00;  0.0000000E+00;  0.0000000E+00;
  3.4000000E-01;  9.9999998E-03;  1.0000000E-01;1576;  0.0000000E+00;  0.0000000E+00;  0.0000000E+00;  1.0000000E+03;  4.0000001E-01;  0.0000000E+00;3;  0.0000000E+00;  0.0000000E+00;  0.0000000E+00;0;  0.0000000E+00;  1.0000000E+04;  0.0000000E+00;  0.0000000E+00;  1.0000000E+04;  0.0000000E+00;  1.0000000E+04;  0.0000000E+00;  0.0000000E+00;  0.0000000E+00;  0.0000000E+00;
  3.4000000E-01;  9.9999998E-03;  1.2000000E-01;1577;  0.0000000E+00;  0.0000000E+00;  0.0000000E+00;  1.0000000E+03;  4.0000001E-01;  0.0000000E+00;3;  0.0000000E+00;  0.0000000E+00;  0.0000000E+00;0;  0.0000000E+00;  1.0000000E+04;  0.0000000E+00;  0.0000000E+00;  1.0000000E+04;  0.0000000E+00;  1.0000000E+04;  0.0000000E+00;  0.0000000E+00;  0.0000000E+00;  0.0000000E+00;
  3.4000000E-01;  9.9999998E-03;  1.4000000E-01;1578;  0.0000000E+00;  0.0000000E+00;  0.0000000E+00;  1.0000000E+03;  4.0000001E-01;  0.0000000E+00;3;  0.0000000E+00;  0.0000000E+00;  0.0000000E+00;0;  0.0000000E+00;  1.0000000E+04;  0.0000000E+00;  0.0000000E+00;  1.0000000E+04;  0.0000000E+00;  1.0000000E+04;  0.0000000E+00;  0.0000000E+00;  0.0000000E+00;  0.0000000E+00;
  3.6000001E-01;  9.9999998E-03;  0.0000000E+00;1602;  0.0000000E+00;  0.0000000E+00;  0.0000000E+00;  1.0000000E+03;  4.0000001E-01;  0.0000000E+00;3;  0.0000000E+00;  0.0000000E+00;  0.0000000E+00;0;  0.0000000E+00;  1.0000000E+04;  0.0000000E+00;  0.0000000E+00;  1.0000000E+04;  0.0000000E+00;  1.0000000E+04;  0.0000000E+00;  0.0000000E+00;  0.0000000E+00;  0.0000000E+00;
  3.6000001E-01;  9.9999998E-03;  2.0000000E-02;1603;  0.0000000E+00;  0.0000000E+00;  0.0000000E+00;  1.0000000E+03;  4.0000001E-01;  0.0000000E+00;3;  0.0000000E+00;  0.0000000E+00;  0.0000000E+00;0;  0.0000000E+00;  1.0000000E+04;  0.0000000E+00;  0.0000000E+00;  1.0000000E+04;  0.0000000E+00;  1.0000000E+04;  0.0000000E+00;  0.0000000E+00;  0.0000000E+00;  0.0000000E+00;
  3.6000001E-01;  9.9999998E-03;  3.9999999E-02;1604;  0.0000000E+00;  0.0000000E+00;  0.0000000E+00;  1.0000000E+03;  4.0000001E-01;  0.0000000E+00;3;  0.0000000E+00;  0.0000000E+00;  0.0000000E+00;0;  0.0000000E+00;  1.0000000E+04;  0.0000000E+00;  0.0000000E+00;  1.0000000E+04;  0.0000000E+00;  1.0000000E+04;  0.0000000E+00;  0.0000000E+00;  0.0000000E+00;  0.0000000E+00;
  3.6000001E-01;  9.9999998E-03;  5.9999999E-02;1605;  0.0000000E+00;  0.0000000E+00;  0.0000000E+00;  1.0000000E+03;  4.0000001E-01;  0.0000000E+00;3;  0.0000000E+00;  0.0000000E+00;  0.0000000E+00;0;  0.0000000E+00;  1.0000000E+04;  0.0000000E+00;  0.0000000E+00;  1.0000000E+04;  0.0000000E+00;  1.0000000E+04;  0.0000000E+00;  0.0000000E+00;  0.0000000E+00;  0.0000000E+00;
  3.6000001E-01;  9.9999998E-03;  7.9999998E-02;1606;  0.0000000E+00;  0.0000000E+00;  0.0000000E+00;  1.0000000E+03;  4.0000001E-01;  0.0000000E+00;3;  0.0000000E+00;  0.0000000E+00;  0.0000000E+00;0;  0.0000000E+00;  1.0000000E+04;  0.0000000E+00;  0.0000000E+00;  1.0000000E+04;  0.0000000E+00;  1.0000000E+04;  0.0000000E+00;  0.0000000E+00;  0.0000000E+00;  0.0000000E+00;
  3.6000001E-01;  9.9999998E-03;  1.0000000E-01;1607;  0.0000000E+00;  0.0000000E+00;  0.0000000E+00;  1.0000000E+03;  4.0000001E-01;  0.0000000E+00;3;  0.0000000E+00;  0.0000000E+00;  0.0000000E+00;0;  0.0000000E+00;  1.0000000E+04;  0.0000000E+00;  0.0000000E+00;  1.0000000E+04;  0.0000000E+00;  1.0000000E+04;  0.0000000E+00;  0.0000000E+00;  0.0000000E+00;  0.0000000E+00;
  3.6000001E-01;  9.9999998E-03;  1.2000000E-01;1608;  0.0000000E+00;  0.0000000E+00;  0.0000000E+00;  1.0000000E+03;  4.0000001E-01;  0.0000000E+00;3;  0.0000000E+00;  0.0000000E+00;  0.0000000E+00;0;  0.0000000E+00;  1.0000000E+04;  0.0000000E+00;  0.0000000E+00;  1.0000000E+04;  0.0000000E+00;  1.0000000E+04;  0.0000000E+00;  0.0000000E+00;  0.0000000E+00;  0.0000000E+00;
  3.6000001E-01;  9.9999998E-03;  1.4000000E-01;1609;  0.0000000E+00;  0.0000000E+00;  0.0000000E+00;  1.0000000E+03;  4.0000001E-01;  0.0000000E+00;3;  0.0000000E+00;  0.0000000E+00;  0.0000000E+00;0;  0.0000000E+00;  1.0000000E+04;  0.0000000E+00;  0.0000000E+00;  1.0000000E+04;  0.0000000E+00;  1.0000000E+04;  0.0000000E+00;  0.0000000E+00;  0.0000000E+00;  0.0000000E+00;
  3.8000000E-01;  9.9999998E-03;  0.0000000E+00;1633;  0.0000000E+00;  0.0000000E+00;  0.0000000E+00;  1.0000000E+03;  4.0000001E-01;  0.0000000E+00;3;  0.0000000E+00;  0.0000000E+00;  0.0000000E+00;0;  0.0000000E+00;  1.0000000E+04;  0.0000000E+00;  0.0000000E+00;  1.0000000E+04;  0.0000000E+00;  1.0000000E+04;  0.0000000E+00;  0.0000000E+00;  0.0000000E+00;  0.0000000E+00;
  3.8000000E-01;  9.9999998E-03;  2.0000000E-02;1634;  0.0000000E+00;  0.0000000E+00;  0.0000000E+00;  1.0000000E+03;  4.0000001E-01;  0.0000000E+00;3;  0.0000000E+00;  0.0000000E+00;  0.0000000E+00;0;  0.0000000E+00;  1.0000000E+04;  0.0000000E+00;  0.0000000E+00;  1.0000000E+04;  0.0000000E+00;  1.0000000E+04;  0.0000000E+00;  0.0000000E+00;  0.0000000E+00;  0.0000000E+00;
  3.8000000E-01;  9.9999998E-03;  3.9999999E-02;1635;  0.0000000E+00;  0.0000000E+00;  0.0000000E+00;  1.0000000E+03;  4.0000001E-01;  0.0000000E+00;3;  0.0000000E+00;  0.0000000E+00;  0.0000000E+00;0;  0.0000000E+00;  1.0000000E+04;  0.0000000E+00;  0.0000000E+00;  1.0000000E+04;  0.0000000E+00;  1.0000000E+04;  0.0000000E+00;  0.0000000E+00;  0.0000000E+00;  0.0000000E+00;
  3.8000000E-01;  9.9999998E-03;  5.9999999E-02;1636;  0.0000000E+00;  0.0000000E+00;  0.0000000E+00;  1.0000000E+03;  4.0000001E-01;  0.0000000E+00;3;  0.0000000E+00;  0.0000000E+00;  0.0000000E+00;0;  0.0000000E+00;  1.0000000E+04;  0.0000000E+00;  0.0000000E+00;  1.0000000E+04;  0.0000000E+00;  1.0000000E+04;  0.0000000E+00;  0.0000000E+00;  0.0000000E+00;  0.0000000E+00;
  3.8000000E-01;  9.9999998E-03;  7.9999998E-02;1637;  0.0000000E+00;  0.0000000E+00;  0.0000000E+00;  1.0000000E+03;  4.0000001E-01;  0.0000000E+00;3;  0.0000000E+00;  0.0000000E+00;  0.0000000E+00;0;  0.0000000E+00;  1.0000000E+04;  0.0000000E+00;  0.0000000E+00;  1.0000000E+04;  0.0000000E+00;  1.0000000E+04;  0.0000000E+00;  0.0000000E+00;  0.0000000E+00;  0.0000000E+00;
  3.8000000E-01;  9.9999998E-03;  1.0000000E-01;1638;  0.0000000E+00;  0.0000000E+00;  0.0000000E+00;  1.0000000E+03;  4.0000001E-01;  0.0000000E+00;3;  0.0000000E+00;  0.0000000E+00;  0.0000000E+00;0;  0.0000000E+00;  1.0000000E+04;  0.0000000E+00;  0.0000000E+00;  1.0000000E+04;  0.0000000E+00;  1.0000000E+04;  0.0000000E+00;  0.0000000E+00;  0.0000000E+00;  0.0000000E+00;
  3.8000000E-01;  9.9999998E-03;  1.2000000E-01;1639;  0.0000000E+00;  0.0000000E+00;  0.0000000E+00;  1.0000000E+03;  4.0000001E-01;  0.0000000E+00;3;  0.0000000E+00;  0.0000000E+00;  0.0000000E+00;0;  0.0000000E+00;  1.0000000E+04;  0.0000000E+00;  0.0000000E+00;  1.0000000E+04;  0.0000000E+00;  1.0000000E+04;  0.0000000E+00;  0.0000000E+00;  0.0000000E+00;  0.0000000E+00;
  3.8000000E-01;  9.9999998E-03;  1.4000000E-01;1640;  0.0000000E+00;  0.0000000E+00;  0.0000000E+00;  1.0000000E+03;  4.0000001E-01;  0.0000000E+00;3;  0.0000000E+00;  0.0000000E+00;  0.0000000E+00;0;  0.0000000E+00;  1.0000000E+04;  0.0000000E+00;  0.0000000E+00;  1.0000000E+04;  0.0000000E+00;  1.0000000E+04;  0.0000000E+00;  0.0000000E+00;  0.0000000E+00;  0.0000000E+00;
  4.0000001E-01;  9.9999998E-03;  0.0000000E+00;1664;  0.0000000E+00;  0.0000000E+00;  0.0000000E+00;  1.0000000E+03;  4.0000001E-01;  0.0000000E+00;3;  0.0000000E+00;  0.0000000E+00;  0.0000000E+00;0;  0.0000000E+00;  1.0000000E+04;  0.0000000E+00;  0.0000000E+00;  1.0000000E+04;  0.0000000E+00;  1.0000000E+04;  0.0000000E+00;  0.0000000E+00;  0.0000000E+00;  0.0000000E+00;
  4.0000001E-01;  9.9999998E-03;  2.0000000E-02;1665;  0.0000000E+00;  0.0000000E+00;  0.0000000E+00;  1.0000000E+03;  4.0000001E-01;  0.0000000E+00;3;  0.0000000E+00;  0.0000000E+00;  0.0000000E+00;0;  0.0000000E+00;  1.0000000E+04;  0.0000000E+00;  0.0000000E+00;  1.0000000E+04;  0.0000000E+00;  1.0000000E+04;  0.0000000E+00;  0.0000000E+00;  0.0000000E+00;  0.0000000E+00;
  4.0000001E-01;  9.9999998E-03;  3.9999999E-02;1666;  0.0000000E+00;  0.0000000E+00;  0.0000000E+00;  1.0000000E+03;  4.0000001E-01;  0.0000000E+00;3;  0.0000000E+00;  0.0000000E+00;  0.0000000E+00;0;  0.0000000E+00;  1.0000000E+04;  0.0000000E+00;  0.0000000E+00;  1.0000000E+04;  0.0000000E+00;  1.0000000E+04;  0.0000000E+00;  0.0000000E+00;  0.0000000E+00;  0.0000000E+00;
  4.0000001E-01;  9.9999998E-03;  5.9999999E-02;1667;  0.0000000E+00;  0.0000000E+00;  0.0000000E+00;  1.0000000E+03;  4.0000001E-01;  0.0000000E+00;3;  0.0000000E+00;  0.0000000E+00;  0.0000000E+00;0;  0.0000000E+00;  1.0000000E+04;  0.0000000E+00;  0.0000000E+00;  1.0000000E+04;  0.0000000E+00;  1.0000000E+04;  0.0000000E+00;  0.0000000E+00;  0.0000000E+00;  0.0000000E+00;
  4.0000001E-01;  9.9999998E-03;  7.9999998E-02;1668;  0.0000000E+00;  0.0000000E+00;  0.0000000E+00;  1.0000000E+03;  4.0000001E-01;  0.0000000E+00;3;  0.0000000E+00;  0.0000000E+00;  0.0000000E+00;0;  0.0000000E+00;  1.0000000E+04;  0.0000000E+00;  0.0000000E+00;  1.0000000E+04;  0.0000000E+00;  1.0000000E+04;  0.0000000E+00;  0.0000000E+00;  0.0000000E+00;  0.0000000E+00;
  4.0000001E-01;  9.9999998E-03;  1.0000000E-01;1669;  0.0000000E+00;  0.0000000E+00;  0.0000000E+00;  1.0000000E+03;  4.0000001E-01;  0.0000000E+00;3;  0.0000000E+00;  0.0000000E+00;  0.0000000E+00;0;  0.0000000E+00;  1.0000000E+04;  0.0000000E+00;  0.0000000E+00;  1.0000000E+04;  0.0000000E+00;  1.0000000E+04;  0.0000000E+00;  0.0000000E+00;  0.0000000E+00;  0.0000000E+00;
  4.0000001E-01;  9.9999998E-03;  1.2000000E-01;1670;  0.0000000E+00;  0.0000000E+00;  0.0000000E+00;  1.0000000E+03;  4.0000001E-01;  0.0000000E+00;3;  0.0000000E+00;  0.0000000E+00;  0.0000000E+00;0;  0.0000000E+00;  1.0000000E+04;  0.0000000E+00;  0.0000000E+00;  1.0000000E+04;  0.0000000E+00;  1.0000000E+04;  0.0000000E+00;  0.0000000E+00;  0.0000000E+00;  0.0000000E+00;
  4.0000001E-01;  9.9999998E-03;  1.4000000E-01;1671;  0.0000000E+00;  0.0000000E+00;  0.0000000E+00;  1.0000000E+03;  4.0000001E-01;  0.0000000E+00;3;  0.0000000E+00;  0.0000000E+00;  0.0000000E+00;0;  0.0000000E+00;  1.0000000E+04;  0.0000000E+00;  0.0000000E+00;  1.0000000E+04;  0.0000000E+00;  1.0000000E+04;  0.0000000E+00;  0.0000000E+00;  0.0000000E+00;  0.0000000E+00;
  4.1999999E-01;  9.9999998E-03;  0.0000000E+00;1695;  0.0000000E+00;  0.0000000E+00;  0.0000000E+00;  1.0000000E+03;  4.0000001E-01;  0.0000000E+00;3;  0.0000000E+00;  0.0000000E+00;  0.0000000E+00;0;  0.0000000E+00;  1.0000000E+04;  0.0000000E+00;  0.0000000E+00;  1.0000000E+04;  0.0000000E+00;  1.0000000E+04;  0.0000000E+00;  0.0000000E+00;  0.0000000E+00;  0.0000000E+00;
  4.1999999E-01;  9.9999998E-03;  2.0000000E-02;1696;  0.0000000E+00;  0.0000000E+00;  0.0000000E+00;  1.0000000E+03;  4.0000001E-01;  0.0000000E+00;3;  0.0000000E+00;  0.0000000E+00;  0.0000000E+00;0;  0.0000000E+00;  1.0000000E+04;  0.0000000E+00;  0.0000000E+00;  1.0000000E+04;  0.0000000E+00;  1.0000000E+04;  0.0000000E+00;  0.0000000E+00;  0.0000000E+00;  0.0000000E+00;
  4.1999999E-01;  9.9999998E-03;  3.9999999E-02;1697;  0.0000000E+00;  0.0000000E+00;  0.0000000E+00;  1.0000000E+03;  4.0000001E-01;  0.0000000E+00;3;  0.0000000E+00;  0.0000000E+00;  0.0000000E+00;0;  0.0000000E+00;  1.0000000E+04;  0.0000000E+00;  0.0000000E+00;  1.0000000E+04;  0.0000000E+00;  1.0000000E+04;  0.0000000E+00;  0.0000000E+00;  0.0000000E+00;  0.0000000E+00;
  4.1999999E-01;  9.9999998E-03;  5.9999999E-02;1698;  0.0000000E+00;  0.0000000E+00;  0.0000000E+00;  1.0000000E+03;  4.0000001E-01;  0.0000000E+00;3;  0.0000000E+00;  0.0000000E+00;  0.0000000E+00;0;  0.0000000E+00;  1.0000000E+04;  0.0000000E+00;  0.0000000E+00;  1.0000000E+04;  0.0000000E+00;  1.0000000E+04;  0.0000000E+00;  0.0000000E+00;  0.0000000E+00;  0.0000000E+00;
  4.1999999E-01;  9.9999998E-03;  7.9999998E-02;1699;  0.0000000E+00;  0.0000000E+00;  0.0000000E+00;  1.0000000E+03;  4.0000001E-01;  0.0000000E+00;3;  0.0000000E+00;  0.0000000E+00;  0.0000000E+00;0;  0.0000000E+00;  1.0000000E+04;  0.0000000E+00;  0.0000000E+00;  1.0000000E+04;  0.0000000E+00;  1.0000000E+04;  0.0000000E+00;  0.0000000E+00;  0.0000000E+00;  0.0000000E+00;
  4.1999999E-01;  9.9999998E-03;  1.0000000E-01;1700;  0.0000000E+00;  0.0000000E+00;  0.0000000E+00;  1.0000000E+03;  4.0000001E-01;  0.0000000E+00;3;  0.0000000E+00;  0.0000000E+00;  0.0000000E+00;0;  0.0000000E+00;  1.0000000E+04;  0.0000000E+00;  0.0000000E+00;  1.0000000E+04;  0.0000000E+00;  1.0000000E+04;  0.0000000E+00;  0.0000000E+00;  0.0000000E+00;  0.0000000E+00;
  4.1999999E-01;  9.9999998E-03;  1.2000000E-01;1701;  0.0000000E+00;  0.0000000E+00;  0.0000000E+00;  1.0000000E+03;  4.0000001E-01;  0.0000000E+00;3;  0.0000000E+00;  0.0000000E+00;  0.0000000E+00;0;  0.0000000E+00;  1.0000000E+04;  0.0000000E+00;  0.0000000E+00;  1.0000000E+04;  0.0000000E+00;  1.0000000E+04;  0.0000000E+00;  0.0000000E+00;  0.0000000E+00;  0.0000000E+00;
  4.1999999E-01;  9.9999998E-03;  1.4000000E-01;1702;  0.0000000E+00;  0.0000000E+00;  0.0000000E+00;  1.0000000E+03;  4.0000001E-01;  0.0000000E+00;3;  0.0000000E+00;  0.0000000E+00;  0.0000000E+00;0;  0.0000000E+00;  1.0000000E+04;  0.0000000E+00;  0.0000000E+00;  1.0000000E+04;  0.0000000E+00;  1.0000000E+04;  0.0000000E+00;  0.0000000E+00;  0.0000000E+00;  0.0000000E+00;
  4.4000000E-01;  9.9999998E-03;  0.0000000E+00;1726;  0.0000000E+00;  0.0000000E+00;  0.0000000E+00;  1.0000000E+03;  4.0000001E-01;  0.0000000E+00;3;  0.0000000E+00;  0.0000000E+00;  0.0000000E+00;0;  0.0000000E+00;  1.0000000E+04;  0.0000000E+00;  0.0000000E+00;  1.0000000E+04;  0.0000000E+00;  1.0000000E+04;  0.0000000E+00;  0.0000000E+00;  0.0000000E+00;  0.0000000E+00;
  4.4000000E-01;  9.9999998E-03;  2.0000000E-02;1727;  0.0000000E+00;  0.0000000E+00;  0.0000000E+00;  1.0000000E+03;  4.0000001E-01;  0.0000000E+00;3;  0.0000000E+00;  0.0000000E+00;  0.0000000E+00;0;  0.0000000E+00;  1.0000000E+04;  0.0000000E+00;  0.0000000E+00;  1.0000000E+04;  0.0000000E+00;  1.0000000E+04;  0.0000000E+00;  0.0000000E+00;  0.0000000E+00;  0.0000000E+00;
  4.4000000E-01;  9.9999998E-03;  3.9999999E-02;1728;  0.0000000E+00;  0.0000000E+00;  0.0000000E+00;  1.0000000E+03;  4.0000001E-01;  0.0000000E+00;3;  0.0000000E+00;  0.0000000E+00;  0.0000000E+00;0;  0.0000000E+00;  1.0000000E+04;  0.0000000E+00;  0.0000000E+00;  1.0000000E+04;  0.0000000E+00;  1.0000000E+04;  0.0000000E+00;  0.0000000E+00;  0.0000000E+00;  0.0000000E+00;
  4.4000000E-01;  9.9999998E-03;  5.9999999E-02;1729;  0.0000000E+00;  0.0000000E+00;  0.0000000E+00;  1.0000000E+03;  4.0000001E-01;  0.0000000E+00;3;  0.0000000E+00;  0.0000000E+00;  0.0000000E+00;0;  0.0000000E+00;  1.0000000E+04;  0.0000000E+00;  0.0000000E+00;  1.0000000E+04;  0.0000000E+00;  1.0000000E+04;  0.0000000E+00;  0.0000000E+00;  0.0000000E+00;  0.0000000E+00;
  4.4000000E-01;  9.9999998E-03;  7.9999998E-02;1730;  0.0000000E+00;  0.0000000E+00;  0.0000000E+00;  1.0000000E+03;  4.0000001E-01;  0.0000000E+00;3;  0.0000000E+00;  0.0000000E+00;  0.0000000E+00;0;  0.0000000E+00;  1.0000000E+04;  0.0000000E+00;  0.0000000E+00;  1.0000000E+04;  0.0000000E+00;  1.0000000E+04;  0.0000000E+00;  0.0000000E+00;  0.0000000E+00;  0.0000000E+00;
  4.4000000E-01;  9.9999998E-03;  1.0000000E-01;1731;  0.0000000E+00;  0.0000000E+00;  0.0000000E+00;  1.0000000E+03;  4.0000001E-01;  0.0000000E+00;3;  0.0000000E+00;  0.0000000E+00;  0.0000000E+00;0;  0.0000000E+00;  1.0000000E+04;  0.0000000E+00;  0.0000000E+00;  1.0000000E+04;  0.0000000E+00;  1.0000000E+04;  0.0000000E+00;  0.0000000E+00;  0.0000000E+00;  0.0000000E+00;
  4.4000000E-01;  9.9999998E-03;  1.2000000E-01;1732;  0.0000000E+00;  0.0000000E+00;  0.0000000E+00;  1.0000000E+03;  4.0000001E-01;  0.0000000E+00;3;  0.0000000E+00;  0.0000000E+00;  0.0000000E+00;0;  0.0000000E+00;  1.0000000E+04;  0.0000000E+00;  0.0000000E+00;  1.0000000E+04;  0.0000000E+00;  1.0000000E+04;  0.0000000E+00;  0.0000000E+00;  0.0000000E+00;  0.0000000E+00;
  4.4000000E-01;  9.9999998E-03;  1.4000000E-01;1733;  0.0000000E+00;  0.0000000E+00;  0.0000000E+00;  1.0000000E+03;  4.0000001E-01;  0.0000000E+00;3;  0.0000000E+00;  0.0000000E+00;  0.0000000E+00;0;  0.0000000E+00;  1.0000000E+04;  0.0000000E+00;  0.0000000E+00;  1.0000000E+04;  0.0000000E+00;  1.0000000E+04;  0.0000000E+00;  0.0000000E+00;  0.0000000E+00;  0.0000000E+00;
  4.6000001E-01;  9.9999998E-03;  0.0000000E+00;1757;  0.0000000E+00;  0.0000000E+00;  0.0000000E+00;  1.0000000E+03;  4.0000001E-01;  0.0000000E+00;3;  0.0000000E+00;  0.0000000E+00;  0.0000000E+00;0;  0.0000000E+00;  1.0000000E+04;  0.0000000E+00;  0.0000000E+00;  1.0000000E+04;  0.0000000E+00;  1.0000000E+04;  0.0000000E+00;  0.0000000E+00;  0.0000000E+00;  0.0000000E+00;
  4.6000001E-01;  9.9999998E-03;  2.0000000E-02;1758;  0.0000000E+00;  0.0000000E+00;  0.0000000E+00;  1.0000000E+03;  4.0000001E-01;  0.0000000E+00;3;  0.0000000E+00;  0.0000000E+00;  0.0000000E+00;0;  0.0000000E+00;  1.0000000E+04;  0.0000000E+00;  0.0000000E+00;  1.0000000E+04;  0.0000000E+00;  1.0000000E+04;  0.0000000E+00;  0.0000000E+00;  0.0000000E+00;  0.0000000E+00;
  4.6000001E-01;  9.9999998E-03;  3.9999999E-02;1759;  0.0000000E+00;  0.0000000E+00;  0.0000000E+00;  1.0000000E+03;  4.0000001E-01;  0.0000000E+00;3;  0.0000000E+00;  0.0000000E+00;  0.0000000E+00;0;  0.0000000E+00;  1.0000000E+04;  0.0000000E+00;  0.0000000E+00;  1.0000000E+04;  0.0000000E+00;  1.0000000E+04;  0.0000000E+00;  0.0000000E+00;  0.0000000E+00;  0.0000000E+00;
  4.6000001E-01;  9.9999998E-03;  5.9999999E-02;1760;  0.0000000E+00;  0.0000000E+00;  0.0000000E+00;  1.0000000E+03;  4.0000001E-01;  0.0000000E+00;3;  0.0000000E+00;  0.0000000E+00;  0.0000000E+00;0;  0.0000000E+00;  1.0000000E+04;  0.0000000E+00;  0.0000000E+00;  1.0000000E+04;  0.0000000E+00;  1.0000000E+04;  0.0000000E+00;  0.0000000E+00;  0.0000000E+00;  0.0000000E+00;
  4.6000001E-01;  9.9999998E-03;  7.9999998E-02;1761;  0.0000000E+00;  0.0000000E+00;  0.0000000E+00;  1.0000000E+03;  4.0000001E-01;  0.0000000E+00;3;  0.0000000E+00;  0.0000000E+00;  0.0000000E+00;0;  0.0000000E+00;  1.0000000E+04;  0.0000000E+00;  0.0000000E+00;  1.0000000E+04;  0.0000000E+00;  1.0000000E+04;  0.0000000E+00;  0.0000000E+00;  0.0000000E+00;  0.0000000E+00;
  4.6000001E-01;  9.9999998E-03;  1.0000000E-01;1762;  0.0000000E+00;  0.0000000E+00;  0.0000000E+00;  1.0000000E+03;  4.0000001E-01;  0.0000000E+00;3;  0.0000000E+00;  0.0000000E+00;  0.0000000E+00;0;  0.0000000E+00;  1.0000000E+04;  0.0000000E+00;  0.0000000E+00;  1.0000000E+04;  0.0000000E+00;  1.0000000E+04;  0.0000000E+00;  0.0000000E+00;  0.0000000E+00;  0.0000000E+00;
  4.6000001E-01;  9.9999998E-03;  1.2000000E-01;1763;  0.0000000E+00;  0.0000000E+00;  0.0000000E+00;  1.0000000E+03;  4.0000001E-01;  0.0000000E+00;3;  0.0000000E+00;  0.0000000E+00;  0.0000000E+00;0;  0.0000000E+00;  1.0000000E+04;  0.0000000E+00;  0.0000000E+00;  1.0000000E+04;  0.0000000E+00;  1.0000000E+04;  0.0000000E+00;  0.0000000E+00;  0.0000000E+00;  0.0000000E+00;
  4.6000001E-01;  9.9999998E-03;  1.4000000E-01;1764;  0.0000000E+00;  0.0000000E+00;  0.0000000E+00;  1.0000000E+03;  4.0000001E-01;  0.0000000E+00;3;  0.0000000E+00;  0.0000000E+00;  0.0000000E+00;0;  0.0000000E+00;  1.0000000E+04;  0.0000000E+00;  0.0000000E+00;  1.0000000E+04;  0.0000000E+00;  1.0000000E+04;  0.0000000E+00;  0.0000000E+00;  0.0000000E+00;  0.0000000E+00;
  4.7999999E-01;  9.9999998E-03;  0.0000000E+00;1788;  0.0000000E+00;  0.0000000E+00;  0.0000000E+00;  1.0000000E+03;  4.0000001E-01;  0.0000000E+00;3;  0.0000000E+00;  0.0000000E+00;  0.0000000E+00;0;  0.0000000E+00;  1.0000000E+04;  0.0000000E+00;  0.0000000E+00;  1.0000000E+04;  0.0000000E+00;  1.0000000E+04;  0.0000000E+00;  0.0000000E+00;  0.0000000E+00;  0.0000000E+00;
  4.7999999E-01;  9.9999998E-03;  2.0000000E-02;1789;  0.0000000E+00;  0.0000000E+00;  0.0000000E+00;  1.0000000E+03;  4.0000001E-01;  0.0000000E+00;3;  0.0000000E+00;  0.0000000E+00;  0.0000000E+00;0;  0.0000000E+00;  1.0000000E+04;  0.0000000E+00;  0.0000000E+00;  1.0000000E+04;  0.0000000E+00;  1.0000000E+04;  0.0000000E+00;  0.0000000E+00;  0.0000000E+00;  0.0000000E+00;
  4.7999999E-01;  9.9999998E-03;  3.9999999E-02;1790;  0.0000000E+00;  0.0000000E+00;  0.0000000E+00;  1.0000000E+03;  4.0000001E-01;  0.0000000E+00;3;  0.0000000E+00;  0.0000000E+00;  0.0000000E+00;0;  0.0000000E+00;  1.0000000E+04;  0.0000000E+00;  0.0000000E+00;  1.0000000E+04;  0.0000000E+00;  1.0000000E+04;  0.0000000E+00;  0.0000000E+00;  0.0000000E+00;  0.0000000E+00;
  4.7999999E-01;  9.9999998E-03;  5.9999999E-02;1791;  0.0000000E+00;  0.0000000E+00;  0.0000000E+00;  1.0000000E+03;  4.0000001E-01;  0.0000000E+00;3;  0.0000000E+00;  0.0000000E+00;  0.0000000E+00;0;  0.0000000E+00;  1.0000000E+04;  0.0000000E+00;  0.0000000E+00;  1.0000000E+04;  0.0000000E+00;  1.0000000E+04;  0.0000000E+00;  0.0000000E+00;  0.0000000E+00;  0.0000000E+00;
  4.7999999E-01;  9.9999998E-03;  7.9999998E-02;1792;  0.0000000E+00;  0.0000000E+00;  0.0000000E+00;  1.0000000E+03;  4.0000001E-01;  0.0000000E+00;3;  0.0000000E+00;  0.0000000E+00;  0.0000000E+00;0;  0.0000000E+00;  1.0000000E+04;  0.0000000E+00;  0.0000000E+00;  1.0000000E+04;  0.0000000E+00;  1.0000000E+04;  0.0000000E+00;  0.0000000E+00;  0.0000000E+00;  0.0000000E+00;
  4.7999999E-01;  9.9999998E-03;  1.0000000E-01;1793;  0.0000000E+00;  0.0000000E+00;  0.0000000E+00;  1.0000000E+03;  4.0000001E-01;  0.0000000E+00;3;  0.0000000E+00;  0.0000000E+00;  0.0000000E+00;0;  0.0000000E+00;  1.0000000E+04;  0.0000000E+00;  0.0000000E+00;  1.0000000E+04;  0.0000000E+00;  1.0000000E+04;  0.0000000E+00;  0.0000000E+00;  0.0000000E+00;  0.0000000E+00;
  4.7999999E-01;  9.9999998E-03;  1.2000000E-01;1794;  0.0000000E+00;  0.0000000E+00;  0.0000000E+00;  1.0000000E+03;  4.0000001E-01;  0.0000000E+00;3;  0.0000000E+00;  0.0000000E+00;  0.0000000E+00;0;  0.0000000E+00;  1.0000000E+04;  0.0000000E+00;  0.0000000E+00;  1.0000000E+04;  0.0000000E+00;  1.0000000E+04;  0.0000000E+00;  0.0000000E+00;  0.0000000E+00;  0.0000000E+00;
  4.7999999E-01;  9.9999998E-03;  1.4000000E-01;1795;  0.0000000E+00;  0.0000000E+00;  0.0000000E+00;  1.0000000E+03;  4.0000001E-01;  0.0000000E+00;3;  0.0000000E+00;  0.0000000E+00;  0.0000000E+00;0;  0.0000000E+00;  1.0000000E+04;  0.0000000E+00;  0.0000000E+00;  1.0000000E+04;  0.0000000E+00;  1.0000000E+04;  0.0000000E+00;  0.0000000E+00;  0.0000000E+00;  0.0000000E+00;
  5.0000000E-01;  9.9999998E-03;  0.0000000E+00;1819;  0.0000000E+00;  0.0000000E+00;  0.0000000E+00;  1.0000000E+03;  4.0000001E-01;  0.0000000E+00;3;  0.0000000E+00;  0.0000000E+00;  0.0000000E+00;0;  0.0000000E+00;  1.0000000E+04;  0.0000000E+00;  0.0000000E+00;  1.0000000E+04;  0.0000000E+00;  1.0000000E+04;  0.0000000E+00;  0.0000000E+00;  0.0000000E+00;  0.0000000E+00;
  5.0000000E-01;  9.9999998E-03;  2.0000000E-02;1820;  0.0000000E+00;  0.0000000E+00;  0.0000000E+00;  1.0000000E+03;  4.0000001E-01;  0.0000000E+00;3;  0.0000000E+00;  0.0000000E+00;  0.0000000E+00;0;  0.0000000E+00;  1.0000000E+04;  0.0000000E+00;  0.0000000E+00;  1.0000000E+04;  0.0000000E+00;  1.0000000E+04;  0.0000000E+00;  0.0000000E+00;  0.0000000E+00;  0.0000000E+00;
  5.0000000E-01;  9.9999998E-03;  3.9999999E-02;1821;  0.0000000E+00;  0.0000000E+00;  0.0000000E+00;  1.0000000E+03;  4.0000001E-01;  0.0000000E+00;3;  0.0000000E+00;  0.0000000E+00;  0.0000000E+00;0;  0.0000000E+00;  1.0000000E+04;  0.0000000E+00;  0.0000000E+00;  1.0000000E+04;  0.0000000E+00;  1.0000000E+04;  0.0000000E+00;  0.0000000E+00;  0.0000000E+00;  0.0000000E+00;
  5.0000000E-01;  9.9999998E-03;  5.9999999E-02;1822;  0.0000000E+00;  0.0000000E+00;  0.0000000E+00;  1.0000000E+03;  4.0000001E-01;  0.0000000E+00;3;  0.0000000E+00;  0.0000000E+00;  0.0000000E+00;0;  0.0000000E+00;  1.0000000E+04;  0.0000000E+00;  0.0000000E+00;  1.0000000E+04;  0.0000000E+00;  1.0000000E+04;  0.0000000E+00;  0.0000000E+00;  0.0000000E+00;  0.0000000E+00;
  5.0000000E-01;  9.9999998E-03;  7.9999998E-02;1823;  0.0000000E+00;  0.0000000E+00;  0.0000000E+00;  1.0000000E+03;  4.0000001E-01;  0.0000000E+00;3;  0.0000000E+00;  0.0000000E+00;  0.0000000E+00;0;  0.0000000E+00;  1.0000000E+04;  0.0000000E+00;  0.0000000E+00;  1.0000000E+04;  0.0000000E+00;  1.0000000E+04;  0.0000000E+00;  0.0000000E+00;  0.0000000E+00;  0.0000000E+00;
  5.0000000E-01;  9.9999998E-03;  1.0000000E-01;1824;  0.0000000E+00;  0.0000000E+00;  0.0000000E+00;  1.0000000E+03;  4.0000001E-01;  0.0000000E+00;3;  0.0000000E+00;  0.0000000E+00;  0.0000000E+00;0;  0.0000000E+00;  1.0000000E+04;  0.0000000E+00;  0.0000000E+00;  1.0000000E+04;  0.0000000E+00;  1.0000000E+04;  0.0000000E+00;  0.0000000E+00;  0.0000000E+00;  0.0000000E+00;
  5.0000000E-01;  9.9999998E-03;  1.2000000E-01;1825;  0.0000000E+00;  0.0000000E+00;  0.0000000E+00;  1.0000000E+03;  4.0000001E-01;  0.0000000E+00;3;  0.0000000E+00;  0.0000000E+00;  0.0000000E+00;0;  0.0000000E+00;  1.0000000E+04;  0.0000000E+00;  0.0000000E+00;  1.0000000E+04;  0.0000000E+00;  1.0000000E+04;  0.0000000E+00;  0.0000000E+00;  0.0000000E+00;  0.0000000E+00;
  5.0000000E-01;  9.9999998E-03;  1.4000000E-01;1826;  0.0000000E+00;  0.0000000E+00;  0.0000000E+00;  1.0000000E+03;  4.0000001E-01;  0.0000000E+00;3;  0.0000000E+00;  0.0000000E+00;  0.0000000E+00;0;  0.0000000E+00;  1.0000000E+04;  0.0000000E+00;  0.0000000E+00;  1.0000000E+04;  0.0000000E+00;  1.0000000E+04;  0.0000000E+00;  0.0000000E+00;  0.0000000E+00;  0.0000000E+00;
  5.1999998E-01;  9.9999998E-03;  0.0000000E+00;1850;  0.0000000E+00;  0.0000000E+00;  0.0000000E+00;  1.0000000E+03;  4.0000001E-01;  0.0000000E+00;3;  0.0000000E+00;  0.0000000E+00;  0.0000000E+00;0;  0.0000000E+00;  1.0000000E+04;  0.0000000E+00;  0.0000000E+00;  1.0000000E+04;  0.0000000E+00;  1.0000000E+04;  0.0000000E+00;  0.0000000E+00;  0.0000000E+00;  0.0000000E+00;
  5.1999998E-01;  9.9999998E-03;  2.0000000E-02;1851;  0.0000000E+00;  0.0000000E+00;  0.0000000E+00;  1.0000000E+03;  4.0000001E-01;  0.0000000E+00;3;  0.0000000E+00;  0.0000000E+00;  0.0000000E+00;0;  0.0000000E+00;  1.0000000E+04;  0.0000000E+00;  0.0000000E+00;  1.0000000E+04;  0.0000000E+00;  1.0000000E+04;  0.0000000E+00;  0.0000000E+00;  0.0000000E+00;  0.0000000E+00;
  5.1999998E-01;  9.9999998E-03;  3.9999999E-02;1852;  0.0000000E+00;  0.0000000E+00;  0.0000000E+00;  1.0000000E+03;  4.0000001E-01;  0.0000000E+00;3;  0.0000000E+00;  0.0000000E+00;  0.0000000E+00;0;  0.0000000E+00;  1.0000000E+04;  0.0000000E+00;  0.0000000E+00;  1.0000000E+04;  0.0000000E+00;  1.0000000E+04;  0.0000000E+00;  0.0000000E+00;  0.0000000E+00;  0.0000000E+00;
  5.1999998E-01;  9.9999998E-03;  5.9999999E-02;1853;  0.0000000E+00;  0.0000000E+00;  0.0000000E+00;  1.0000000E+03;  4.0000001E-01;  0.0000000E+00;3;  0.0000000E+00;  0.0000000E+00;  0.0000000E+00;0;  0.0000000E+00;  1.0000000E+04;  0.0000000E+00;  0.0000000E+00;  1.0000000E+04;  0.0000000E+00;  1.0000000E+04;  0.0000000E+00;  0.0000000E+00;  0.0000000E+00;  0.0000000E+00;
  5.1999998E-01;  9.9999998E-03;  7.9999998E-02;1854;  0.0000000E+00;  0.0000000E+00;  0.0000000E+00;  1.0000000E+03;  4.0000001E-01;  0.0000000E+00;3;  0.0000000E+00;  0.0000000E+00;  0.0000000E+00;0;  0.0000000E+00;  1.0000000E+04;  0.0000000E+00;  0.0000000E+00;  1.0000000E+04;  0.0000000E+00;  1.0000000E+04;  0.0000000E+00;  0.0000000E+00;  0.0000000E+00;  0.0000000E+00;
  5.1999998E-01;  9.9999998E-03;  1.0000000E-01;1855;  0.0000000E+00;  0.0000000E+00;  0.0000000E+00;  1.0000000E+03;  4.0000001E-01;  0.0000000E+00;3;  0.0000000E+00;  0.0000000E+00;  0.0000000E+00;0;  0.0000000E+00;  1.0000000E+04;  0.0000000E+00;  0.0000000E+00;  1.0000000E+04;  0.0000000E+00;  1.0000000E+04;  0.0000000E+00;  0.0000000E+00;  0.0000000E+00;  0.0000000E+00;
  5.1999998E-01;  9.9999998E-03;  1.2000000E-01;1856;  0.0000000E+00;  0.0000000E+00;  0.0000000E+00;  1.0000000E+03;  4.0000001E-01;  0.0000000E+00;3;  0.0000000E+00;  0.0000000E+00;  0.0000000E+00;0;  0.0000000E+00;  1.0000000E+04;  0.0000000E+00;  0.0000000E+00;  1.0000000E+04;  0.0000000E+00;  1.0000000E+04;  0.0000000E+00;  0.0000000E+00;  0.0000000E+00;  0.0000000E+00;
  5.1999998E-01;  9.9999998E-03;  1.4000000E-01;1857;  0.0000000E+00;  0.0000000E+00;  0.0000000E+00;  1.0000000E+03;  4.0000001E-01;  0.0000000E+00;3;  0.0000000E+00;  0.0000000E+00;  0.0000000E+00;0;  0.0000000E+00;  1.0000000E+04;  0.0000000E+00;  0.0000000E+00;  1.0000000E+04;  0.0000000E+00;  1.0000000E+04;  0.0000000E+00;  0.0000000E+00;  0.0000000E+00;  0.0000000E+00;
  5.4000002E-01;  9.9999998E-03;  0.0000000E+00;1881;  0.0000000E+00;  0.0000000E+00;  0.0000000E+00;  1.0000000E+03;  4.0000001E-01;  0.0000000E+00;3;  0.0000000E+00;  0.0000000E+00;  0.0000000E+00;0;  0.0000000E+00;  1.0000000E+04;  0.0000000E+00;  0.0000000E+00;  1.0000000E+04;  0.0000000E+00;  1.0000000E+04;  0.0000000E+00;  0.0000000E+00;  0.0000000E+00;  0.0000000E+00;
  5.4000002E-01;  9.9999998E-03;  2.0000000E-02;1882;  0.0000000E+00;  0.0000000E+00;  0.0000000E+00;  1.0000000E+03;  4.0000001E-01;  0.0000000E+00;3;  0.0000000E+00;  0.0000000E+00;  0.0000000E+00;0;  0.0000000E+00;  1.0000000E+04;  0.0000000E+00;  0.0000000E+00;  1.0000000E+04;  0.0000000E+00;  1.0000000E+04;  0.0000000E+00;  0.0000000E+00;  0.0000000E+00;  0.0000000E+00;
  5.4000002E-01;  9.9999998E-03;  3.9999999E-02;1883;  0.0000000E+00;  0.0000000E+00;  0.0000000E+00;  1.0000000E+03;  4.0000001E-01;  0.0000000E+00;3;  0.0000000E+00;  0.0000000E+00;  0.0000000E+00;0;  0.0000000E+00;  1.0000000E+04;  0.0000000E+00;  0.0000000E+00;  1.0000000E+04;  0.0000000E+00;  1.0000000E+04;  0.0000000E+00;  0.0000000E+00;  0.0000000E+00;  0.0000000E+00;
  5.4000002E-01;  9.9999998E-03;  5.9999999E-02;1884;  0.0000000E+00;  0.0000000E+00;  0.0000000E+00;  1.0000000E+03;  4.0000001E-01;  0.0000000E+00;3;  0.0000000E+00;  0.0000000E+00;  0.0000000E+00;0;  0.0000000E+00;  1.0000000E+04;  0.0000000E+00;  0.0000000E+00;  1.0000000E+04;  0.0000000E+00;  1.0000000E+04;  0.0000000E+00;  0.0000000E+00;  0.0000000E+00;  0.0000000E+00;
  5.4000002E-01;  9.9999998E-03;  7.9999998E-02;1885;  0.0000000E+00;  0.0000000E+00;  0.0000000E+00;  1.0000000E+03;  4.0000001E-01;  0.0000000E+00;3;  0.0000000E+00;  0.0000000E+00;  0.0000000E+00;0;  0.0000000E+00;  1.0000000E+04;  0.0000000E+00;  0.0000000E+00;  1.0000000E+04;  0.0000000E+00;  1.0000000E+04;  0.0000000E+00;  0.0000000E+00;  0.0000000E+00;  0.0000000E+00;
  5.4000002E-01;  9.9999998E-03;  1.0000000E-01;1886;  0.0000000E+00;  0.0000000E+00;  0.0000000E+00;  1.0000000E+03;  4.0000001E-01;  0.0000000E+00;3;  0.0000000E+00;  0.0000000E+00;  0.0000000E+00;0;  0.0000000E+00;  1.0000000E+04;  0.0000000E+00;  0.0000000E+00;  1.0000000E+04;  0.0000000E+00;  1.0000000E+04;  0.0000000E+00;  0.0000000E+00;  0.0000000E+00;  0.0000000E+00;
  5.4000002E-01;  9.9999998E-03;  1.2000000E-01;1887;  0.0000000E+00;  0.0000000E+00;  0.0000000E+00;  1.0000000E+03;  4.0000001E-01;  0.0000000E+00;3;  0.0000000E+00;  0.0000000E+00;  0.0000000E+00;0;  0.0000000E+00;  1.0000000E+04;  0.0000000E+00;  0.0000000E+00;  1.0000000E+04;  0.0000000E+00;  1.0000000E+04;  0.0000000E+00;  0.0000000E+00;  0.0000000E+00;  0.0000000E+00;
  5.4000002E-01;  9.9999998E-03;  1.4000000E-01;1888;  0.0000000E+00;  0.0000000E+00;  0.0000000E+00;  1.0000000E+03;  4.0000001E-01;  0.0000000E+00;3;  0.0000000E+00;  0.0000000E+00;  0.0000000E+00;0;  0.0000000E+00;  1.0000000E+04;  0.0000000E+00;  0.0000000E+00;  1.0000000E+04;  0.0000000E+00;  1.0000000E+04;  0.0000000E+00;  0.0000000E+00;  0.0000000E+00;  0.0000000E+00;
  5.6000000E-01;  9.9999998E-03;  0.0000000E+00;1912;  0.0000000E+00;  0.0000000E+00;  0.0000000E+00;  1.0000000E+03;  4.0000001E-01;  0.0000000E+00;3;  0.0000000E+00;  0.0000000E+00;  0.0000000E+00;0;  0.0000000E+00;  1.0000000E+04;  0.0000000E+00;  0.0000000E+00;  1.0000000E+04;  0.0000000E+00;  1.0000000E+04;  0.0000000E+00;  0.0000000E+00;  0.0000000E+00;  0.0000000E+00;
  5.6000000E-01;  9.9999998E-03;  2.0000000E-02;1913;  0.0000000E+00;  0.0000000E+00;  0.0000000E+00;  1.0000000E+03;  4.0000001E-01;  0.0000000E+00;3;  0.0000000E+00;  0.0000000E+00;  0.0000000E+00;0;  0.0000000E+00;  1.0000000E+04;  0.0000000E+00;  0.0000000E+00;  1.0000000E+04;  0.0000000E+00;  1.0000000E+04;  0.0000000E+00;  0.0000000E+00;  0.0000000E+00;  0.0000000E+00;
  5.6000000E-01;  9.9999998E-03;  3.9999999E-02;1914;  0.0000000E+00;  0.0000000E+00;  0.0000000E+00;  1.0000000E+03;  4.0000001E-01;  0.0000000E+00;3;  0.0000000E+00;  0.0000000E+00;  0.0000000E+00;0;  0.0000000E+00;  1.0000000E+04;  0.0000000E+00;  0.0000000E+00;  1.0000000E+04;  0.0000000E+00;  1.0000000E+04;  0.0000000E+00;  0.0000000E+00;  0.0000000E+00;  0.0000000E+00;
  5.6000000E-01;  9.9999998E-03;  5.9999999E-02;1915;  0.0000000E+00;  0.0000000E+00;  0.0000000E+00;  1.0000000E+03;  4.0000001E-01;  0.0000000E+00;3;  0.0000000E+00;  0.0000000E+00;  0.0000000E+00;0;  0.0000000E+00;  1.0000000E+04;  0.0000000E+00;  0.0000000E+00;  1.0000000E+04;  0.0000000E+00;  1.0000000E+04;  0.0000000E+00;  0.0000000E+00;  0.0000000E+00;  0.0000000E+00;
  5.6000000E-01;  9.9999998E-03;  7.9999998E-02;1916;  0.0000000E+00;  0.0000000E+00;  0.0000000E+00;  1.0000000E+03;  4.0000001E-01;  0.0000000E+00;3;  0.0000000E+00;  0.0000000E+00;  0.0000000E+00;0;  0.0000000E+00;  1.0000000E+04;  0.0000000E+00;  0.0000000E+00;  1.0000000E+04;  0.0000000E+00;  1.0000000E+04;  0.0000000E+00;  0.0000000E+00;  0.0000000E+00;  0.0000000E+00;
  5.6000000E-01;  9.9999998E-03;  1.0000000E-01;1917;  0.0000000E+00;  0.0000000E+00;  0.0000000E+00;  1.0000000E+03;  4.0000001E-01;  0.0000000E+00;3;  0.0000000E+00;  0.0000000E+00;  0.0000000E+00;0;  0.0000000E+00;  1.0000000E+04;  0.0000000E+00;  0.0000000E+00;  1.0000000E+04;  0.0000000E+00;  1.0000000E+04;  0.0000000E+00;  0.0000000E+00;  0.0000000E+00;  0.0000000E+00;
  5.6000000E-01;  9.9999998E-03;  1.2000000E-01;1918;  0.0000000E+00;  0.0000000E+00;  0.0000000E+00;  1.0000000E+03;  4.0000001E-01;  0.0000000E+00;3;  0.0000000E+00;  0.0000000E+00;  0.0000000E+00;0;  0.0000000E+00;  1.0000000E+04;  0.0000000E+00;  0.0000000E+00;  1.0000000E+04;  0.0000000E+00;  1.0000000E+04;  0.0000000E+00;  0.0000000E+00;  0.0000000E+00;  0.0000000E+00;
  5.6000000E-01;  9.9999998E-03;  1.4000000E-01;1919;  0.0000000E+00;  0.0000000E+00;  0.0000000E+00;  1.0000000E+03;  4.0000001E-01;  0.0000000E+00;3;  0.0000000E+00;  0.0000000E+00;  0.0000000E+00;0;  0.0000000E+00;  1.0000000E+04;  0.0000000E+00;  0.0000000E+00;  1.0000000E+04;  0.0000000E+00;  1.0000000E+04;  0.0000000E+00;  0.0000000E+00;  0.0000000E+00;  0.0000000E+00;
  5.7999998E-01;  9.9999998E-03;  0.0000000E+00;1943;  0.0000000E+00;  0.0000000E+00;  0.0000000E+00;  1.0000000E+03;  4.0000001E-01;  0.0000000E+00;3;  0.0000000E+00;  0.0000000E+00;  0.0000000E+00;0;  0.0000000E+00;  1.0000000E+04;  0.0000000E+00;  0.0000000E+00;  1.0000000E+04;  0.0000000E+00;  1.0000000E+04;  0.0000000E+00;  0.0000000E+00;  0.0000000E+00;  0.0000000E+00;
  5.7999998E-01;  9.9999998E-03;  2.0000000E-02;1944;  0.0000000E+00;  0.0000000E+00;  0.0000000E+00;  1.0000000E+03;  4.0000001E-01;  0.0000000E+00;3;  0.0000000E+00;  0.0000000E+00;  0.0000000E+00;0;  0.0000000E+00;  1.0000000E+04;  0.0000000E+00;  0.0000000E+00;  1.0000000E+04;  0.0000000E+00;  1.0000000E+04;  0.0000000E+00;  0.0000000E+00;  0.0000000E+00;  0.0000000E+00;
  5.7999998E-01;  9.9999998E-03;  3.9999999E-02;1945;  0.0000000E+00;  0.0000000E+00;  0.0000000E+00;  1.0000000E+03;  4.0000001E-01;  0.0000000E+00;3;  0.0000000E+00;  0.0000000E+00;  0.0000000E+00;0;  0.0000000E+00;  1.0000000E+04;  0.0000000E+00;  0.0000000E+00;  1.0000000E+04;  0.0000000E+00;  1.0000000E+04;  0.0000000E+00;  0.0000000E+00;  0.0000000E+00;  0.0000000E+00;
  5.7999998E-01;  9.9999998E-03;  5.9999999E-02;1946;  0.0000000E+00;  0.0000000E+00;  0.0000000E+00;  1.0000000E+03;  4.0000001E-01;  0.0000000E+00;3;  0.0000000E+00;  0.0000000E+00;  0.0000000E+00;0;  0.0000000E+00;  1.0000000E+04;  0.0000000E+00;  0.0000000E+00;  1.0000000E+04;  0.0000000E+00;  1.0000000E+04;  0.0000000E+00;  0.0000000E+00;  0.0000000E+00;  0.0000000E+00;
  5.7999998E-01;  9.9999998E-03;  7.9999998E-02;1947;  0.0000000E+00;  0.0000000E+00;  0.0000000E+00;  1.0000000E+03;  4.0000001E-01;  0.0000000E+00;3;  0.0000000E+00;  0.0000000E+00;  0.0000000E+00;0;  0.0000000E+00;  1.0000000E+04;  0.0000000E+00;  0.0000000E+00;  1.0000000E+04;  0.0000000E+00;  1.0000000E+04;  0.0000000E+00;  0.0000000E+00;  0.0000000E+00;  0.0000000E+00;
  5.7999998E-01;  9.9999998E-03;  1.0000000E-01;1948;  0.0000000E+00;  0.0000000E+00;  0.0000000E+00;  1.0000000E+03;  4.0000001E-01;  0.0000000E+00;3;  0.0000000E+00;  0.0000000E+00;  0.0000000E+00;0;  0.0000000E+00;  1.0000000E+04;  0.0000000E+00;  0.0000000E+00;  1.0000000E+04;  0.0000000E+00;  1.0000000E+04;  0.0000000E+00;  0.0000000E+00;  0.0000000E+00;  0.0000000E+00;
  5.7999998E-01;  9.9999998E-03;  1.2000000E-01;1949;  0.0000000E+00;  0.0000000E+00;  0.0000000E+00;  1.0000000E+03;  4.0000001E-01;  0.0000000E+00;3;  0.0000000E+00;  0.0000000E+00;  0.0000000E+00;0;  0.0000000E+00;  1.0000000E+04;  0.0000000E+00;  0.0000000E+00;  1.0000000E+04;  0.0000000E+00;  1.0000000E+04;  0.0000000E+00;  0.0000000E+00;  0.0000000E+00;  0.0000000E+00;
  5.7999998E-01;  9.9999998E-03;  1.4000000E-01;1950;  0.0000000E+00;  0.0000000E+00;  0.0000000E+00;  1.0000000E+03;  4.0000001E-01;  0.0000000E+00;3;  0.0000000E+00;  0.0000000E+00;  0.0000000E+00;0;  0.0000000E+00;  1.0000000E+04;  0.0000000E+00;  0.0000000E+00;  1.0000000E+04;  0.0000000E+00;  1.0000000E+04;  0.0000000E+00;  0.0000000E+00;  0.0000000E+00;  0.0000000E+00;
  6.0000002E-01;  9.9999998E-03;  0.0000000E+00;1974;  0.0000000E+00;  0.0000000E+00;  0.0000000E+00;  1.0000000E+03;  4.0000001E-01;  0.0000000E+00;3;  0.0000000E+00;  0.0000000E+00;  0.0000000E+00;0;  0.0000000E+00;  1.0000000E+04;  0.0000000E+00;  0.0000000E+00;  1.0000000E+04;  0.0000000E+00;  1.0000000E+04;  0.0000000E+00;  0.0000000E+00;  0.0000000E+00;  0.0000000E+00;
  6.0000002E-01;  9.9999998E-03;  2.0000000E-02;1975;  0.0000000E+00;  0.0000000E+00;  0.0000000E+00;  1.0000000E+03;  4.0000001E-01;  0.0000000E+00;3;  0.0000000E+00;  0.0000000E+00;  0.0000000E+00;0;  0.0000000E+00;  1.0000000E+04;  0.0000000E+00;  0.0000000E+00;  1.0000000E+04;  0.0000000E+00;  1.0000000E+04;  0.0000000E+00;  0.0000000E+00;  0.0000000E+00;  0.0000000E+00;
  6.0000002E-01;  9.9999998E-03;  3.9999999E-02;1976;  0.0000000E+00;  0.0000000E+00;  0.0000000E+00;  1.0000000E+03;  4.0000001E-01;  0.0000000E+00;3;  0.0000000E+00;  0.0000000E+00;  0.0000000E+00;0;  0.0000000E+00;  1.0000000E+04;  0.0000000E+00;  0.0000000E+00;  1.0000000E+04;  0.0000000E+00;  1.0000000E+04;  0.0000000E+00;  0.0000000E+00;  0.0000000E+00;  0.0000000E+00;
  6.0000002E-01;  9.9999998E-03;  5.9999999E-02;1977;  0.0000000E+00;  0.0000000E+00;  0.0000000E+00;  1.0000000E+03;  4.0000001E-01;  0.0000000E+00;3;  0.0000000E+00;  0.0000000E+00;  0.0000000E+00;0;  0.0000000E+00;  1.0000000E+04;  0.0000000E+00;  0.0000000E+00;  1.0000000E+04;  0.0000000E+00;  1.0000000E+04;  0.0000000E+00;  0.0000000E+00;  0.0000000E+00;  0.0000000E+00;
  6.0000002E-01;  9.9999998E-03;  7.9999998E-02;1978;  0.0000000E+00;  0.0000000E+00;  0.0000000E+00;  1.0000000E+03;  4.0000001E-01;  0.0000000E+00;3;  0.0000000E+00;  0.0000000E+00;  0.0000000E+00;0;  0.0000000E+00;  1.0000000E+04;  0.0000000E+00;  0.0000000E+00;  1.0000000E+04;  0.0000000E+00;  1.0000000E+04;  0.0000000E+00;  0.0000000E+00;  0.0000000E+00;  0.0000000E+00;
  6.0000002E-01;  9.9999998E-03;  1.0000000E-01;1979;  0.0000000E+00;  0.0000000E+00;  0.0000000E+00;  1.0000000E+03;  4.0000001E-01;  0.0000000E+00;3;  0.0000000E+00;  0.0000000E+00;  0.0000000E+00;0;  0.0000000E+00;  1.0000000E+04;  0.0000000E+00;  0.0000000E+00;  1.0000000E+04;  0.0000000E+00;  1.0000000E+04;  0.0000000E+00;  0.0000000E+00;  0.0000000E+00;  0.0000000E+00;
  6.0000002E-01;  9.9999998E-03;  1.2000000E-01;1980;  0.0000000E+00;  0.0000000E+00;  0.0000000E+00;  1.0000000E+03;  4.0000001E-01;  0.0000000E+00;3;  0.0000000E+00;  0.0000000E+00;  0.0000000E+00;0;  0.0000000E+00;  1.0000000E+04;  0.0000000E+00;  0.0000000E+00;  1.0000000E+04;  0.0000000E+00;  1.0000000E+04;  0.0000000E+00;  0.0000000E+00;  0.0000000E+00;  0.0000000E+00;
  6.0000002E-01;  9.9999998E-03;  1.4000000E-01;1981;  0.0000000E+00;  0.0000000E+00;  0.0000000E+00;  1.0000000E+03;  4.0000001E-01;  0.0000000E+00;3;  0.0000000E+00;  0.0000000E+00;  0.0000000E+00;0;  0.0000000E+00;  1.0000000E+04;  0.0000000E+00;  0.0000000E+00;  1.0000000E+04;  0.0000000E+00;  1.0000000E+04;  0.0000000E+00;  0.0000000E+00;  0.0000000E+00;  0.0000000E+00;
  6.2000000E-01;  9.9999998E-03;  0.0000000E+00;2005;  0.0000000E+00;  0.0000000E+00;  0.0000000E+00;  1.0000000E+03;  4.0000001E-01;  0.0000000E+00;3;  0.0000000E+00;  0.0000000E+00;  0.0000000E+00;0;  0.0000000E+00;  1.0000000E+04;  0.0000000E+00;  0.0000000E+00;  1.0000000E+04;  0.0000000E+00;  1.0000000E+04;  0.0000000E+00;  0.0000000E+00;  0.0000000E+00;  0.0000000E+00;
  6.2000000E-01;  9.9999998E-03;  2.0000000E-02;2006;  0.0000000E+00;  0.0000000E+00;  0.0000000E+00;  1.0000000E+03;  4.0000001E-01;  0.0000000E+00;3;  0.0000000E+00;  0.0000000E+00;  0.0000000E+00;0;  0.0000000E+00;  1.0000000E+04;  0.0000000E+00;  0.0000000E+00;  1.0000000E+04;  0.0000000E+00;  1.0000000E+04;  0.0000000E+00;  0.0000000E+00;  0.0000000E+00;  0.0000000E+00;
  6.2000000E-01;  9.9999998E-03;  3.9999999E-02;2007;  0.0000000E+00;  0.0000000E+00;  0.0000000E+00;  1.0000000E+03;  4.0000001E-01;  0.0000000E+00;3;  0.0000000E+00;  0.0000000E+00;  0.0000000E+00;0;  0.0000000E+00;  1.0000000E+04;  0.0000000E+00;  0.0000000E+00;  1.0000000E+04;  0.0000000E+00;  1.0000000E+04;  0.0000000E+00;  0.0000000E+00;  0.0000000E+00;  0.0000000E+00;
  6.2000000E-01;  9.9999998E-03;  5.9999999E-02;2008;  0.0000000E+00;  0.0000000E+00;  0.0000000E+00;  1.0000000E+03;  4.0000001E-01;  0.0000000E+00;3;  0.0000000E+00;  0.0000000E+00;  0.0000000E+00;0;  0.0000000E+00;  1.0000000E+04;  0.0000000E+00;  0.0000000E+00;  1.0000000E+04;  0.0000000E+00;  1.0000000E+04;  0.0000000E+00;  0.0000000E+00;  0.0000000E+00;  0.0000000E+00;
  6.2000000E-01;  9.9999998E-03;  7.9999998E-02;2009;  0.0000000E+00;  0.0000000E+00;  0.0000000E+00;  1.0000000E+03;  4.0000001E-01;  0.0000000E+00;3;  0.0000000E+00;  0.0000000E+00;  0.0000000E+00;0;  0.0000000E+00;  1.0000000E+04;  0.0000000E+00;  0.0000000E+00;  1.0000000E+04;  0.0000000E+00;  1.0000000E+04;  0.0000000E+00;  0.0000000E+00;  0.0000000E+00;  0.0000000E+00;
  6.2000000E-01;  9.9999998E-03;  1.0000000E-01;2010;  0.0000000E+00;  0.0000000E+00;  0.0000000E+00;  1.0000000E+03;  4.0000001E-01;  0.0000000E+00;3;  0.0000000E+00;  0.0000000E+00;  0.0000000E+00;0;  0.0000000E+00;  1.0000000E+04;  0.0000000E+00;  0.0000000E+00;  1.0000000E+04;  0.0000000E+00;  1.0000000E+04;  0.0000000E+00;  0.0000000E+00;  0.0000000E+00;  0.0000000E+00;
  6.2000000E-01;  9.9999998E-03;  1.2000000E-01;2011;  0.0000000E+00;  0.0000000E+00;  0.0000000E+00;  1.0000000E+03;  4.0000001E-01;  0.0000000E+00;3;  0.0000000E+00;  0.0000000E+00;  0.0000000E+00;0;  0.0000000E+00;  1.0000000E+04;  0.0000000E+00;  0.0000000E+00;  1.0000000E+04;  0.0000000E+00;  1.0000000E+04;  0.0000000E+00;  0.0000000E+00;  0.0000000E+00;  0.0000000E+00;
  6.2000000E-01;  9.9999998E-03;  1.4000000E-01;2012;  0.0000000E+00;  0.0000000E+00;  0.0000000E+00;  1.0000000E+03;  4.0000001E-01;  0.0000000E+00;3;  0.0000000E+00;  0.0000000E+00;  0.0000000E+00;0;  0.0000000E+00;  1.0000000E+04;  0.0000000E+00;  0.0000000E+00;  1.0000000E+04;  0.0000000E+00;  1.0000000E+04;  0.0000000E+00;  0.0000000E+00;  0.0000000E+00;  0.0000000E+00;
  6.3999999E-01;  9.9999998E-03;  0.0000000E+00;2036;  0.0000000E+00;  0.0000000E+00;  0.0000000E+00;  1.0000000E+03;  4.0000001E-01;  0.0000000E+00;3;  0.0000000E+00;  0.0000000E+00;  0.0000000E+00;0;  0.0000000E+00;  1.0000000E+04;  0.0000000E+00;  0.0000000E+00;  1.0000000E+04;  0.0000000E+00;  1.0000000E+04;  0.0000000E+00;  0.0000000E+00;  0.0000000E+00;  0.0000000E+00;
  6.3999999E-01;  9.9999998E-03;  2.0000000E-02;2037;  0.0000000E+00;  0.0000000E+00;  0.0000000E+00;  1.0000000E+03;  4.0000001E-01;  0.0000000E+00;3;  0.0000000E+00;  0.0000000E+00;  0.0000000E+00;0;  0.0000000E+00;  1.0000000E+04;  0.0000000E+00;  0.0000000E+00;  1.0000000E+04;  0.0000000E+00;  1.0000000E+04;  0.0000000E+00;  0.0000000E+00;  0.0000000E+00;  0.0000000E+00;
  6.3999999E-01;  9.9999998E-03;  3.9999999E-02;2038;  0.0000000E+00;  0.0000000E+00;  0.0000000E+00;  1.0000000E+03;  4.0000001E-01;  0.0000000E+00;3;  0.0000000E+00;  0.0000000E+00;  0.0000000E+00;0;  0.0000000E+00;  1.0000000E+04;  0.0000000E+00;  0.0000000E+00;  1.0000000E+04;  0.0000000E+00;  1.0000000E+04;  0.0000000E+00;  0.0000000E+00;  0.0000000E+00;  0.0000000E+00;
  6.3999999E-01;  9.9999998E-03;  5.9999999E-02;2039;  0.0000000E+00;  0.0000000E+00;  0.0000000E+00;  1.0000000E+03;  4.0000001E-01;  0.0000000E+00;3;  0.0000000E+00;  0.0000000E+00;  0.0000000E+00;0;  0.0000000E+00;  1.0000000E+04;  0.0000000E+00;  0.0000000E+00;  1.0000000E+04;  0.0000000E+00;  1.0000000E+04;  0.0000000E+00;  0.0000000E+00;  0.0000000E+00;  0.0000000E+00;
  6.3999999E-01;  9.9999998E-03;  7.9999998E-02;2040;  0.0000000E+00;  0.0000000E+00;  0.0000000E+00;  1.0000000E+03;  4.0000001E-01;  0.0000000E+00;3;  0.0000000E+00;  0.0000000E+00;  0.0000000E+00;0;  0.0000000E+00;  1.0000000E+04;  0.0000000E+00;  0.0000000E+00;  1.0000000E+04;  0.0000000E+00;  1.0000000E+04;  0.0000000E+00;  0.0000000E+00;  0.0000000E+00;  0.0000000E+00;
  6.3999999E-01;  9.9999998E-03;  1.0000000E-01;2041;  0.0000000E+00;  0.0000000E+00;  0.0000000E+00;  1.0000000E+03;  4.0000001E-01;  0.0000000E+00;3;  0.0000000E+00;  0.0000000E+00;  0.0000000E+00;0;  0.0000000E+00;  1.0000000E+04;  0.0000000E+00;  0.0000000E+00;  1.0000000E+04;  0.0000000E+00;  1.0000000E+04;  0.0000000E+00;  0.0000000E+00;  0.0000000E+00;  0.0000000E+00;
  6.3999999E-01;  9.9999998E-03;  1.2000000E-01;2042;  0.0000000E+00;  0.0000000E+00;  0.0000000E+00;  1.0000000E+03;  4.0000001E-01;  0.0000000E+00;3;  0.0000000E+00;  0.0000000E+00;  0.0000000E+00;0;  0.0000000E+00;  1.0000000E+04;  0.0000000E+00;  0.0000000E+00;  1.0000000E+04;  0.0000000E+00;  1.0000000E+04;  0.0000000E+00;  0.0000000E+00;  0.0000000E+00;  0.0000000E+00;
  6.3999999E-01;  9.9999998E-03;  1.4000000E-01;2043;  0.0000000E+00;  0.0000000E+00;  0.0000000E+00;  1.0000000E+03;  4.0000001E-01;  0.0000000E+00;3;  0.0000000E+00;  0.0000000E+00;  0.0000000E+00;0;  0.0000000E+00;  1.0000000E+04;  0.0000000E+00;  0.0000000E+00;  1.0000000E+04;  0.0000000E+00;  1.0000000E+04;  0.0000000E+00;  0.0000000E+00;  0.0000000E+00;  0.0000000E+00;
  6.6000003E-01;  9.9999998E-03;  0.0000000E+00;2067;  0.0000000E+00;  0.0000000E+00;  0.0000000E+00;  1.0000000E+03;  4.0000001E-01;  0.0000000E+00;3;  0.0000000E+00;  0.0000000E+00;  0.0000000E+00;0;  0.0000000E+00;  1.0000000E+04;  0.0000000E+00;  0.0000000E+00;  1.0000000E+04;  0.0000000E+00;  1.0000000E+04;  0.0000000E+00;  0.0000000E+00;  0.0000000E+00;  0.0000000E+00;
  6.6000003E-01;  9.9999998E-03;  2.0000000E-02;2068;  0.0000000E+00;  0.0000000E+00;  0.0000000E+00;  1.0000000E+03;  4.0000001E-01;  0.0000000E+00;3;  0.0000000E+00;  0.0000000E+00;  0.0000000E+00;0;  0.0000000E+00;  1.0000000E+04;  0.0000000E+00;  0.0000000E+00;  1.0000000E+04;  0.0000000E+00;  1.0000000E+04;  0.0000000E+00;  0.0000000E+00;  0.0000000E+00;  0.0000000E+00;
  6.6000003E-01;  9.9999998E-03;  3.9999999E-02;2069;  0.0000000E+00;  0.0000000E+00;  0.0000000E+00;  1.0000000E+03;  4.0000001E-01;  0.0000000E+00;3;  0.0000000E+00;  0.0000000E+00;  0.0000000E+00;0;  0.0000000E+00;  1.0000000E+04;  0.0000000E+00;  0.0000000E+00;  1.0000000E+04;  0.0000000E+00;  1.0000000E+04;  0.0000000E+00;  0.0000000E+00;  0.0000000E+00;  0.0000000E+00;
  6.6000003E-01;  9.9999998E-03;  5.9999999E-02;2070;  0.0000000E+00;  0.0000000E+00;  0.0000000E+00;  1.0000000E+03;  4.0000001E-01;  0.0000000E+00;3;  0.0000000E+00;  0.0000000E+00;  0.0000000E+00;0;  0.0000000E+00;  1.0000000E+04;  0.0000000E+00;  0.0000000E+00;  1.0000000E+04;  0.0000000E+00;  1.0000000E+04;  0.0000000E+00;  0.0000000E+00;  0.0000000E+00;  0.0000000E+00;
  6.6000003E-01;  9.9999998E-03;  7.9999998E-02;2071;  0.0000000E+00;  0.0000000E+00;  0.0000000E+00;  1.0000000E+03;  4.0000001E-01;  0.0000000E+00;3;  0.0000000E+00;  0.0000000E+00;  0.0000000E+00;0;  0.0000000E+00;  1.0000000E+04;  0.0000000E+00;  0.0000000E+00;  1.0000000E+04;  0.0000000E+00;  1.0000000E+04;  0.0000000E+00;  0.0000000E+00;  0.0000000E+00;  0.0000000E+00;
  6.6000003E-01;  9.9999998E-03;  1.0000000E-01;2072;  0.0000000E+00;  0.0000000E+00;  0.0000000E+00;  1.0000000E+03;  4.0000001E-01;  0.0000000E+00;3;  0.0000000E+00;  0.0000000E+00;  0.0000000E+00;0;  0.0000000E+00;  1.0000000E+04;  0.0000000E+00;  0.0000000E+00;  1.0000000E+04;  0.0000000E+00;  1.0000000E+04;  0.0000000E+00;  0.0000000E+00;  0.0000000E+00;  0.0000000E+00;
  6.6000003E-01;  9.9999998E-03;  1.2000000E-01;2073;  0.0000000E+00;  0.0000000E+00;  0.0000000E+00;  1.0000000E+03;  4.0000001E-01;  0.0000000E+00;3;  0.0000000E+00;  0.0000000E+00;  0.0000000E+00;0;  0.0000000E+00;  1.0000000E+04;  0.0000000E+00;  0.0000000E+00;  1.0000000E+04;  0.0000000E+00;  1.0000000E+04;  0.0000000E+00;  0.0000000E+00;  0.0000000E+00;  0.0000000E+00;
  6.6000003E-01;  9.9999998E-03;  1.4000000E-01;2074;  0.0000000E+00;  0.0000000E+00;  0.0000000E+00;  1.0000000E+03;  4.0000001E-01;  0.0000000E+00;3;  0.0000000E+00;  0.0000000E+00;  0.0000000E+00;0;  0.0000000E+00;  1.0000000E+04;  0.0000000E+00;  0.0000000E+00;  1.0000000E+04;  0.0000000E+00;  1.0000000E+04;  0.0000000E+00;  0.0000000E+00;  0.0000000E+00;  0.0000000E+00;
  6.8000001E-01;  9.9999998E-03;  0.0000000E+00;2098;  0.0000000E+00;  0.0000000E+00;  0.0000000E+00;  1.0000000E+03;  4.0000001E-01;  0.0000000E+00;3;  0.0000000E+00;  0.0000000E+00;  0.0000000E+00;0;  0.0000000E+00;  1.0000000E+04;  0.0000000E+00;  0.0000000E+00;  1.0000000E+04;  0.0000000E+00;  1.0000000E+04;  0.0000000E+00;  0.0000000E+00;  0.0000000E+00;  0.0000000E+00;
  6.8000001E-01;  9.9999998E-03;  2.0000000E-02;2099;  0.0000000E+00;  0.0000000E+00;  0.0000000E+00;  1.0000000E+03;  4.0000001E-01;  0.0000000E+00;3;  0.0000000E+00;  0.0000000E+00;  0.0000000E+00;0;  0.0000000E+00;  1.0000000E+04;  0.0000000E+00;  0.0000000E+00;  1.0000000E+04;  0.0000000E+00;  1.0000000E+04;  0.0000000E+00;  0.0000000E+00;  0.0000000E+00;  0.0000000E+00;
  6.8000001E-01;  9.9999998E-03;  3.9999999E-02;2100;  0.0000000E+00;  0.0000000E+00;  0.0000000E+00;  1.0000000E+03;  4.0000001E-01;  0.0000000E+00;3;  0.0000000E+00;  0.0000000E+00;  0.0000000E+00;0;  0.0000000E+00;  1.0000000E+04;  0.0000000E+00;  0.0000000E+00;  1.0000000E+04;  0.0000000E+00;  1.0000000E+04;  0.0000000E+00;  0.0000000E+00;  0.0000000E+00;  0.0000000E+00;
  6.8000001E-01;  9.9999998E-03;  5.9999999E-02;2101;  0.0000000E+00;  0.0000000E+00;  0.0000000E+00;  1.0000000E+03;  4.0000001E-01;  0.0000000E+00;3;  0.0000000E+00;  0.0000000E+00;  0.0000000E+00;0;  0.0000000E+00;  1.0000000E+04;  0.0000000E+00;  0.0000000E+00;  1.0000000E+04;  0.0000000E+00;  1.0000000E+04;  0.0000000E+00;  0.0000000E+00;  0.0000000E+00;  0.0000000E+00;
  6.8000001E-01;  9.9999998E-03;  7.9999998E-02;2102;  0.0000000E+00;  0.0000000E+00;  0.0000000E+00;  1.0000000E+03;  4.0000001E-01;  0.0000000E+00;3;  0.0000000E+00;  0.0000000E+00;  0.0000000E+00;0;  0.0000000E+00;  1.0000000E+04;  0.0000000E+00;  0.0000000E+00;  1.0000000E+04;  0.0000000E+00;  1.0000000E+04;  0.0000000E+00;  0.0000000E+00;  0.0000000E+00;  0.0000000E+00;
  6.8000001E-01;  9.9999998E-03;  1.0000000E-01;2103;  0.0000000E+00;  0.0000000E+00;  0.0000000E+00;  1.0000000E+03;  4.0000001E-01;  0.0000000E+00;3;  0.0000000E+00;  0.0000000E+00;  0.0000000E+00;0;  0.0000000E+00;  1.0000000E+04;  0.0000000E+00;  0.0000000E+00;  1.0000000E+04;  0.0000000E+00;  1.0000000E+04;  0.0000000E+00;  0.0000000E+00;  0.0000000E+00;  0.0000000E+00;
  6.8000001E-01;  9.9999998E-03;  1.2000000E-01;2104;  0.0000000E+00;  0.0000000E+00;  0.0000000E+00;  1.0000000E+03;  4.0000001E-01;  0.0000000E+00;3;  0.0000000E+00;  0.0000000E+00;  0.0000000E+00;0;  0.0000000E+00;  1.0000000E+04;  0.0000000E+00;  0.0000000E+00;  1.0000000E+04;  0.0000000E+00;  1.0000000E+04;  0.0000000E+00;  0.0000000E+00;  0.0000000E+00;  0.0000000E+00;
  6.8000001E-01;  9.9999998E-03;  1.4000000E-01;2105;  0.0000000E+00;  0.0000000E+00;  0.0000000E+00;  1.0000000E+03;  4.0000001E-01;  0.0000000E+00;3;  0.0000000E+00;  0.0000000E+00;  0.0000000E+00;0;  0.0000000E+00;  1.0000000E+04;  0.0000000E+00;  0.0000000E+00;  1.0000000E+04;  0.0000000E+00;  1.0000000E+04;  0.0000000E+00;  0.0000000E+00;  0.0000000E+00;  0.0000000E+00;
  6.9999999E-01;  9.9999998E-03;  0.0000000E+00;2129;  0.0000000E+00;  0.0000000E+00;  0.0000000E+00;  1.0000000E+03;  4.0000001E-01;  0.0000000E+00;3;  0.0000000E+00;  0.0000000E+00;  0.0000000E+00;0;  0.0000000E+00;  1.0000000E+04;  0.0000000E+00;  0.0000000E+00;  1.0000000E+04;  0.0000000E+00;  1.0000000E+04;  0.0000000E+00;  0.0000000E+00;  0.0000000E+00;  0.0000000E+00;
  6.9999999E-01;  9.9999998E-03;  2.0000000E-02;2130;  0.0000000E+00;  0.0000000E+00;  0.0000000E+00;  1.0000000E+03;  4.0000001E-01;  0.0000000E+00;3;  0.0000000E+00;  0.0000000E+00;  0.0000000E+00;0;  0.0000000E+00;  1.0000000E+04;  0.0000000E+00;  0.0000000E+00;  1.0000000E+04;  0.0000000E+00;  1.0000000E+04;  0.0000000E+00;  0.0000000E+00;  0.0000000E+00;  0.0000000E+00;
  6.9999999E-01;  9.9999998E-03;  3.9999999E-02;2131;  0.0000000E+00;  0.0000000E+00;  0.0000000E+00;  1.0000000E+03;  4.0000001E-01;  0.0000000E+00;3;  0.0000000E+00;  0.0000000E+00;  0.0000000E+00;0;  0.0000000E+00;  1.0000000E+04;  0.0000000E+00;  0.0000000E+00;  1.0000000E+04;  0.0000000E+00;  1.0000000E+04;  0.0000000E+00;  0.0000000E+00;  0.0000000E+00;  0.0000000E+00;
  6.9999999E-01;  9.9999998E-03;  5.9999999E-02;2132;  0.0000000E+00;  0.0000000E+00;  0.0000000E+00;  1.0000000E+03;  4.0000001E-01;  0.0000000E+00;3;  0.0000000E+00;  0.0000000E+00;  0.0000000E+00;0;  0.0000000E+00;  1.0000000E+04;  0.0000000E+00;  0.0000000E+00;  1.0000000E+04;  0.0000000E+00;  1.0000000E+04;  0.0000000E+00;  0.0000000E+00;  0.0000000E+00;  0.0000000E+00;
  6.9999999E-01;  9.9999998E-03;  7.9999998E-02;2133;  0.0000000E+00;  0.0000000E+00;  0.0000000E+00;  1.0000000E+03;  4.0000001E-01;  0.0000000E+00;3;  0.0000000E+00;  0.0000000E+00;  0.0000000E+00;0;  0.0000000E+00;  1.0000000E+04;  0.0000000E+00;  0.0000000E+00;  1.0000000E+04;  0.0000000E+00;  1.0000000E+04;  0.0000000E+00;  0.0000000E+00;  0.0000000E+00;  0.0000000E+00;
  6.9999999E-01;  9.9999998E-03;  1.0000000E-01;2134;  0.0000000E+00;  0.0000000E+00;  0.0000000E+00;  1.0000000E+03;  4.0000001E-01;  0.0000000E+00;3;  0.0000000E+00;  0.0000000E+00;  0.0000000E+00;0;  0.0000000E+00;  1.0000000E+04;  0.0000000E+00;  0.0000000E+00;  1.0000000E+04;  0.0000000E+00;  1.0000000E+04;  0.0000000E+00;  0.0000000E+00;  0.0000000E+00;  0.0000000E+00;
  6.9999999E-01;  9.9999998E-03;  1.2000000E-01;2135;  0.0000000E+00;  0.0000000E+00;  0.0000000E+00;  1.0000000E+03;  4.0000001E-01;  0.0000000E+00;3;  0.0000000E+00;  0.0000000E+00;  0.0000000E+00;0;  0.0000000E+00;  1.0000000E+04;  0.0000000E+00;  0.0000000E+00;  1.0000000E+04;  0.0000000E+00;  1.0000000E+04;  0.0000000E+00;  0.0000000E+00;  0.0000000E+00;  0.0000000E+00;
  6.9999999E-01;  9.9999998E-03;  1.4000000E-01;2136;  0.0000000E+00;  0.0000000E+00;  0.0000000E+00;  1.0000000E+03;  4.0000001E-01;  0.0000000E+00;3;  0.0000000E+00;  0.0000000E+00;  0.0000000E+00;0;  0.0000000E+00;  1.0000000E+04;  0.0000000E+00;  0.0000000E+00;  1.0000000E+04;  0.0000000E+00;  1.0000000E+04;  0.0000000E+00;  0.0000000E+00;  0.0000000E+00;  0.0000000E+00;
  7.2000003E-01;  9.9999998E-03;  0.0000000E+00;2160;  0.0000000E+00;  0.0000000E+00;  0.0000000E+00;  1.0000000E+03;  4.0000001E-01;  0.0000000E+00;3;  0.0000000E+00;  0.0000000E+00;  0.0000000E+00;0;  0.0000000E+00;  1.0000000E+04;  0.0000000E+00;  0.0000000E+00;  1.0000000E+04;  0.0000000E+00;  1.0000000E+04;  0.0000000E+00;  0.0000000E+00;  0.0000000E+00;  0.0000000E+00;
  7.2000003E-01;  9.9999998E-03;  2.0000000E-02;2161;  0.0000000E+00;  0.0000000E+00;  0.0000000E+00;  1.0000000E+03;  4.0000001E-01;  0.0000000E+00;3;  0.0000000E+00;  0.0000000E+00;  0.0000000E+00;0;  0.0000000E+00;  1.0000000E+04;  0.0000000E+00;  0.0000000E+00;  1.0000000E+04;  0.0000000E+00;  1.0000000E+04;  0.0000000E+00;  0.0000000E+00;  0.0000000E+00;  0.0000000E+00;
  7.2000003E-01;  9.9999998E-03;  3.9999999E-02;2162;  0.0000000E+00;  0.0000000E+00;  0.0000000E+00;  1.0000000E+03;  4.0000001E-01;  0.0000000E+00;3;  0.0000000E+00;  0.0000000E+00;  0.0000000E+00;0;  0.0000000E+00;  1.0000000E+04;  0.0000000E+00;  0.0000000E+00;  1.0000000E+04;  0.0000000E+00;  1.0000000E+04;  0.0000000E+00;  0.0000000E+00;  0.0000000E+00;  0.0000000E+00;
  7.2000003E-01;  9.9999998E-03;  5.9999999E-02;2163;  0.0000000E+00;  0.0000000E+00;  0.0000000E+00;  1.0000000E+03;  4.0000001E-01;  0.0000000E+00;3;  0.0000000E+00;  0.0000000E+00;  0.0000000E+00;0;  0.0000000E+00;  1.0000000E+04;  0.0000000E+00;  0.0000000E+00;  1.0000000E+04;  0.0000000E+00;  1.0000000E+04;  0.0000000E+00;  0.0000000E+00;  0.0000000E+00;  0.0000000E+00;
  7.2000003E-01;  9.9999998E-03;  7.9999998E-02;2164;  0.0000000E+00;  0.0000000E+00;  0.0000000E+00;  1.0000000E+03;  4.0000001E-01;  0.0000000E+00;3;  0.0000000E+00;  0.0000000E+00;  0.0000000E+00;0;  0.0000000E+00;  1.0000000E+04;  0.0000000E+00;  0.0000000E+00;  1.0000000E+04;  0.0000000E+00;  1.0000000E+04;  0.0000000E+00;  0.0000000E+00;  0.0000000E+00;  0.0000000E+00;
  7.2000003E-01;  9.9999998E-03;  1.0000000E-01;2165;  0.0000000E+00;  0.0000000E+00;  0.0000000E+00;  1.0000000E+03;  4.0000001E-01;  0.0000000E+00;3;  0.0000000E+00;  0.0000000E+00;  0.0000000E+00;0;  0.0000000E+00;  1.0000000E+04;  0.0000000E+00;  0.0000000E+00;  1.0000000E+04;  0.0000000E+00;  1.0000000E+04;  0.0000000E+00;  0.0000000E+00;  0.0000000E+00;  0.0000000E+00;
  7.2000003E-01;  9.9999998E-03;  1.2000000E-01;2166;  0.0000000E+00;  0.0000000E+00;  0.0000000E+00;  1.0000000E+03;  4.0000001E-01;  0.0000000E+00;3;  0.0000000E+00;  0.0000000E+00;  0.0000000E+00;0;  0.0000000E+00;  1.0000000E+04;  0.0000000E+00;  0.0000000E+00;  1.0000000E+04;  0.0000000E+00;  1.0000000E+04;  0.0000000E+00;  0.0000000E+00;  0.0000000E+00;  0.0000000E+00;
  7.2000003E-01;  9.9999998E-03;  1.4000000E-01;2167;  0.0000000E+00;  0.0000000E+00;  0.0000000E+00;  1.0000000E+03;  4.0000001E-01;  0.0000000E+00;3;  0.0000000E+00;  0.0000000E+00;  0.0000000E+00;0;  0.0000000E+00;  1.0000000E+04;  0.0000000E+00;  0.0000000E+00;  1.0000000E+04;  0.0000000E+00;  1.0000000E+04;  0.0000000E+00;  0.0000000E+00;  0.0000000E+00;  0.0000000E+00;
  7.4000001E-01;  9.9999998E-03;  0.0000000E+00;2191;  0.0000000E+00;  0.0000000E+00;  0.0000000E+00;  1.0000000E+03;  4.0000001E-01;  0.0000000E+00;3;  0.0000000E+00;  0.0000000E+00;  0.0000000E+00;0;  0.0000000E+00;  1.0000000E+04;  0.0000000E+00;  0.0000000E+00;  1.0000000E+04;  0.0000000E+00;  1.0000000E+04;  0.0000000E+00;  0.0000000E+00;  0.0000000E+00;  0.0000000E+00;
  7.4000001E-01;  9.9999998E-03;  2.0000000E-02;2192;  0.0000000E+00;  0.0000000E+00;  0.0000000E+00;  1.0000000E+03;  4.0000001E-01;  0.0000000E+00;3;  0.0000000E+00;  0.0000000E+00;  0.0000000E+00;0;  0.0000000E+00;  1.0000000E+04;  0.0000000E+00;  0.0000000E+00;  1.0000000E+04;  0.0000000E+00;  1.0000000E+04;  0.0000000E+00;  0.0000000E+00;  0.0000000E+00;  0.0000000E+00;
  7.4000001E-01;  9.9999998E-03;  3.9999999E-02;2193;  0.0000000E+00;  0.0000000E+00;  0.0000000E+00;  1.0000000E+03;  4.0000001E-01;  0.0000000E+00;3;  0.0000000E+00;  0.0000000E+00;  0.0000000E+00;0;  0.0000000E+00;  1.0000000E+04;  0.0000000E+00;  0.0000000E+00;  1.0000000E+04;  0.0000000E+00;  1.0000000E+04;  0.0000000E+00;  0.0000000E+00;  0.0000000E+00;  0.0000000E+00;
  7.4000001E-01;  9.9999998E-03;  5.9999999E-02;2194;  0.0000000E+00;  0.0000000E+00;  0.0000000E+00;  1.0000000E+03;  4.0000001E-01;  0.0000000E+00;3;  0.0000000E+00;  0.0000000E+00;  0.0000000E+00;0;  0.0000000E+00;  1.0000000E+04;  0.0000000E+00;  0.0000000E+00;  1.0000000E+04;  0.0000000E+00;  1.0000000E+04;  0.0000000E+00;  0.0000000E+00;  0.0000000E+00;  0.0000000E+00;
  7.4000001E-01;  9.9999998E-03;  7.9999998E-02;2195;  0.0000000E+00;  0.0000000E+00;  0.0000000E+00;  1.0000000E+03;  4.0000001E-01;  0.0000000E+00;3;  0.0000000E+00;  0.0000000E+00;  0.0000000E+00;0;  0.0000000E+00;  1.0000000E+04;  0.0000000E+00;  0.0000000E+00;  1.0000000E+04;  0.0000000E+00;  1.0000000E+04;  0.0000000E+00;  0.0000000E+00;  0.0000000E+00;  0.0000000E+00;
  7.4000001E-01;  9.9999998E-03;  1.0000000E-01;2196;  0.0000000E+00;  0.0000000E+00;  0.0000000E+00;  1.0000000E+03;  4.0000001E-01;  0.0000000E+00;3;  0.0000000E+00;  0.0000000E+00;  0.0000000E+00;0;  0.0000000E+00;  1.0000000E+04;  0.0000000E+00;  0.0000000E+00;  1.0000000E+04;  0.0000000E+00;  1.0000000E+04;  0.0000000E+00;  0.0000000E+00;  0.0000000E+00;  0.0000000E+00;
  7.4000001E-01;  9.9999998E-03;  1.2000000E-01;2197;  0.0000000E+00;  0.0000000E+00;  0.0000000E+00;  1.0000000E+03;  4.0000001E-01;  0.0000000E+00;3;  0.0000000E+00;  0.0000000E+00;  0.0000000E+00;0;  0.0000000E+00;  1.0000000E+04;  0.0000000E+00;  0.0000000E+00;  1.0000000E+04;  0.0000000E+00;  1.0000000E+04;  0.0000000E+00;  0.0000000E+00;  0.0000000E+00;  0.0000000E+00;
  7.4000001E-01;  9.9999998E-03;  1.4000000E-01;2198;  0.0000000E+00;  0.0000000E+00;  0.0000000E+00;  1.0000000E+03;  4.0000001E-01;  0.0000000E+00;3;  0.0000000E+00;  0.0000000E+00;  0.0000000E+00;0;  0.0000000E+00;  1.0000000E+04;  0.0000000E+00;  0.0000000E+00;  1.0000000E+04;  0.0000000E+00;  1.0000000E+04;  0.0000000E+00;  0.0000000E+00;  0.0000000E+00;  0.0000000E+00;
  7.5999999E-01;  9.9999998E-03;  0.0000000E+00;2222;  0.0000000E+00;  0.0000000E+00;  0.0000000E+00;  1.0000000E+03;  4.0000001E-01;  0.0000000E+00;3;  0.0000000E+00;  0.0000000E+00;  0.0000000E+00;0;  0.0000000E+00;  1.0000000E+04;  0.0000000E+00;  0.0000000E+00;  1.0000000E+04;  0.0000000E+00;  1.0000000E+04;  0.0000000E+00;  0.0000000E+00;  0.0000000E+00;  0.0000000E+00;
  7.5999999E-01;  9.9999998E-03;  2.0000000E-02;2223;  0.0000000E+00;  0.0000000E+00;  0.0000000E+00;  1.0000000E+03;  4.0000001E-01;  0.0000000E+00;3;  0.0000000E+00;  0.0000000E+00;  0.0000000E+00;0;  0.0000000E+00;  1.0000000E+04;  0.0000000E+00;  0.0000000E+00;  1.0000000E+04;  0.0000000E+00;  1.0000000E+04;  0.0000000E+00;  0.0000000E+00;  0.0000000E+00;  0.0000000E+00;
  7.5999999E-01;  9.9999998E-03;  3.9999999E-02;2224;  0.0000000E+00;  0.0000000E+00;  0.0000000E+00;  1.0000000E+03;  4.0000001E-01;  0.0000000E+00;3;  0.0000000E+00;  0.0000000E+00;  0.0000000E+00;0;  0.0000000E+00;  1.0000000E+04;  0.0000000E+00;  0.0000000E+00;  1.0000000E+04;  0.0000000E+00;  1.0000000E+04;  0.0000000E+00;  0.0000000E+00;  0.0000000E+00;  0.0000000E+00;
  7.5999999E-01;  9.9999998E-03;  5.9999999E-02;2225;  0.0000000E+00;  0.0000000E+00;  0.0000000E+00;  1.0000000E+03;  4.0000001E-01;  0.0000000E+00;3;  0.0000000E+00;  0.0000000E+00;  0.0000000E+00;0;  0.0000000E+00;  1.0000000E+04;  0.0000000E+00;  0.0000000E+00;  1.0000000E+04;  0.0000000E+00;  1.0000000E+04;  0.0000000E+00;  0.0000000E+00;  0.0000000E+00;  0.0000000E+00;
  7.5999999E-01;  9.9999998E-03;  7.9999998E-02;2226;  0.0000000E+00;  0.0000000E+00;  0.0000000E+00;  1.0000000E+03;  4.0000001E-01;  0.0000000E+00;3;  0.0000000E+00;  0.0000000E+00;  0.0000000E+00;0;  0.0000000E+00;  1.0000000E+04;  0.0000000E+00;  0.0000000E+00;  1.0000000E+04;  0.0000000E+00;  1.0000000E+04;  0.0000000E+00;  0.0000000E+00;  0.0000000E+00;  0.0000000E+00;
  7.5999999E-01;  9.9999998E-03;  1.0000000E-01;2227;  0.0000000E+00;  0.0000000E+00;  0.0000000E+00;  1.0000000E+03;  4.0000001E-01;  0.0000000E+00;3;  0.0000000E+00;  0.0000000E+00;  0.0000000E+00;0;  0.0000000E+00;  1.0000000E+04;  0.0000000E+00;  0.0000000E+00;  1.0000000E+04;  0.0000000E+00;  1.0000000E+04;  0.0000000E+00;  0.0000000E+00;  0.0000000E+00;  0.0000000E+00;
  7.5999999E-01;  9.9999998E-03;  1.2000000E-01;2228;  0.0000000E+00;  0.0000000E+00;  0.0000000E+00;  1.0000000E+03;  4.0000001E-01;  0.0000000E+00;3;  0.0000000E+00;  0.0000000E+00;  0.0000000E+00;0;  0.0000000E+00;  1.0000000E+04;  0.0000000E+00;  0.0000000E+00;  1.0000000E+04;  0.0000000E+00;  1.0000000E+04;  0.0000000E+00;  0.0000000E+00;  0.0000000E+00;  0.0000000E+00;
  7.5999999E-01;  9.9999998E-03;  1.4000000E-01;2229;  0.0000000E+00;  0.0000000E+00;  0.0000000E+00;  1.0000000E+03;  4.0000001E-01;  0.0000000E+00;3;  0.0000000E+00;  0.0000000E+00;  0.0000000E+00;0;  0.0000000E+00;  1.0000000E+04;  0.0000000E+00;  0.0000000E+00;  1.0000000E+04;  0.0000000E+00;  1.0000000E+04;  0.0000000E+00;  0.0000000E+00;  0.0000000E+00;  0.0000000E+00;
  7.7999997E-01;  9.9999998E-03;  0.0000000E+00;2253;  0.0000000E+00;  0.0000000E+00;  0.0000000E+00;  1.0000000E+03;  4.0000001E-01;  0.0000000E+00;3;  0.0000000E+00;  0.0000000E+00;  0.0000000E+00;0;  0.0000000E+00;  1.0000000E+04;  0.0000000E+00;  0.0000000E+00;  1.0000000E+04;  0.0000000E+00;  1.0000000E+04;  0.0000000E+00;  0.0000000E+00;  0.0000000E+00;  0.0000000E+00;
  7.7999997E-01;  9.9999998E-03;  2.0000000E-02;2254;  0.0000000E+00;  0.0000000E+00;  0.0000000E+00;  1.0000000E+03;  4.0000001E-01;  0.0000000E+00;3;  0.0000000E+00;  0.0000000E+00;  0.0000000E+00;0;  0.0000000E+00;  1.0000000E+04;  0.0000000E+00;  0.0000000E+00;  1.0000000E+04;  0.0000000E+00;  1.0000000E+04;  0.0000000E+00;  0.0000000E+00;  0.0000000E+00;  0.0000000E+00;
  7.7999997E-01;  9.9999998E-03;  3.9999999E-02;2255;  0.0000000E+00;  0.0000000E+00;  0.0000000E+00;  1.0000000E+03;  4.0000001E-01;  0.0000000E+00;3;  0.0000000E+00;  0.0000000E+00;  0.0000000E+00;0;  0.0000000E+00;  1.0000000E+04;  0.0000000E+00;  0.0000000E+00;  1.0000000E+04;  0.0000000E+00;  1.0000000E+04;  0.0000000E+00;  0.0000000E+00;  0.0000000E+00;  0.0000000E+00;
  7.7999997E-01;  9.9999998E-03;  5.9999999E-02;2256;  0.0000000E+00;  0.0000000E+00;  0.0000000E+00;  1.0000000E+03;  4.0000001E-01;  0.0000000E+00;3;  0.0000000E+00;  0.0000000E+00;  0.0000000E+00;0;  0.0000000E+00;  1.0000000E+04;  0.0000000E+00;  0.0000000E+00;  1.0000000E+04;  0.0000000E+00;  1.0000000E+04;  0.0000000E+00;  0.0000000E+00;  0.0000000E+00;  0.0000000E+00;
  7.7999997E-01;  9.9999998E-03;  7.9999998E-02;2257;  0.0000000E+00;  0.0000000E+00;  0.0000000E+00;  1.0000000E+03;  4.0000001E-01;  0.0000000E+00;3;  0.0000000E+00;  0.0000000E+00;  0.0000000E+00;0;  0.0000000E+00;  1.0000000E+04;  0.0000000E+00;  0.0000000E+00;  1.0000000E+04;  0.0000000E+00;  1.0000000E+04;  0.0000000E+00;  0.0000000E+00;  0.0000000E+00;  0.0000000E+00;
  7.7999997E-01;  9.9999998E-03;  1.0000000E-01;2258;  0.0000000E+00;  0.0000000E+00;  0.0000000E+00;  1.0000000E+03;  4.0000001E-01;  0.0000000E+00;3;  0.0000000E+00;  0.0000000E+00;  0.0000000E+00;0;  0.0000000E+00;  1.0000000E+04;  0.0000000E+00;  0.0000000E+00;  1.0000000E+04;  0.0000000E+00;  1.0000000E+04;  0.0000000E+00;  0.0000000E+00;  0.0000000E+00;  0.0000000E+00;
  7.7999997E-01;  9.9999998E-03;  1.2000000E-01;2259;  0.0000000E+00;  0.0000000E+00;  0.0000000E+00;  1.0000000E+03;  4.0000001E-01;  0.0000000E+00;3;  0.0000000E+00;  0.0000000E+00;  0.0000000E+00;0;  0.0000000E+00;  1.0000000E+04;  0.0000000E+00;  0.0000000E+00;  1.0000000E+04;  0.0000000E+00;  1.0000000E+04;  0.0000000E+00;  0.0000000E+00;  0.0000000E+00;  0.0000000E+00;
  7.7999997E-01;  9.9999998E-03;  1.4000000E-01;2260;  0.0000000E+00;  0.0000000E+00;  0.0000000E+00;  1.0000000E+03;  4.0000001E-01;  0.0000000E+00;3;  0.0000000E+00;  0.0000000E+00;  0.0000000E+00;0;  0.0000000E+00;  1.0000000E+04;  0.0000000E+00;  0.0000000E+00;  1.0000000E+04;  0.0000000E+00;  1.0000000E+04;  0.0000000E+00;  0.0000000E+00;  0.0000000E+00;  0.0000000E+00;
  8.0000001E-01;  9.9999998E-03;  0.0000000E+00;2284;  0.0000000E+00;  0.0000000E+00;  0.0000000E+00;  1.0000000E+03;  4.0000001E-01;  0.0000000E+00;3;  0.0000000E+00;  0.0000000E+00;  0.0000000E+00;0;  0.0000000E+00;  1.0000000E+04;  0.0000000E+00;  0.0000000E+00;  1.0000000E+04;  0.0000000E+00;  1.0000000E+04;  0.0000000E+00;  0.0000000E+00;  0.0000000E+00;  0.0000000E+00;
  8.0000001E-01;  9.9999998E-03;  2.0000000E-02;2285;  0.0000000E+00;  0.0000000E+00;  0.0000000E+00;  1.0000000E+03;  4.0000001E-01;  0.0000000E+00;3;  0.0000000E+00;  0.0000000E+00;  0.0000000E+00;0;  0.0000000E+00;  1.0000000E+04;  0.0000000E+00;  0.0000000E+00;  1.0000000E+04;  0.0000000E+00;  1.0000000E+04;  0.0000000E+00;  0.0000000E+00;  0.0000000E+00;  0.0000000E+00;
  8.0000001E-01;  9.9999998E-03;  3.9999999E-02;2286;  0.0000000E+00;  0.0000000E+00;  0.0000000E+00;  1.0000000E+03;  4.0000001E-01;  0.0000000E+00;3;  0.0000000E+00;  0.0000000E+00;  0.0000000E+00;0;  0.0000000E+00;  1.0000000E+04;  0.0000000E+00;  0.0000000E+00;  1.0000000E+04;  0.0000000E+00;  1.0000000E+04;  0.0000000E+00;  0.0000000E+00;  0.0000000E+00;  0.0000000E+00;
  8.0000001E-01;  9.9999998E-03;  5.9999999E-02;2287;  0.0000000E+00;  0.0000000E+00;  0.0000000E+00;  1.0000000E+03;  4.0000001E-01;  0.0000000E+00;3;  0.0000000E+00;  0.0000000E+00;  0.0000000E+00;0;  0.0000000E+00;  1.0000000E+04;  0.0000000E+00;  0.0000000E+00;  1.0000000E+04;  0.0000000E+00;  1.0000000E+04;  0.0000000E+00;  0.0000000E+00;  0.0000000E+00;  0.0000000E+00;
  8.0000001E-01;  9.9999998E-03;  7.9999998E-02;2288;  0.0000000E+00;  0.0000000E+00;  0.0000000E+00;  1.0000000E+03;  4.0000001E-01;  0.0000000E+00;3;  0.0000000E+00;  0.0000000E+00;  0.0000000E+00;0;  0.0000000E+00;  1.0000000E+04;  0.0000000E+00;  0.0000000E+00;  1.0000000E+04;  0.0000000E+00;  1.0000000E+04;  0.0000000E+00;  0.0000000E+00;  0.0000000E+00;  0.0000000E+00;
  8.0000001E-01;  9.9999998E-03;  1.0000000E-01;2289;  0.0000000E+00;  0.0000000E+00;  0.0000000E+00;  1.0000000E+03;  4.0000001E-01;  0.0000000E+00;3;  0.0000000E+00;  0.0000000E+00;  0.0000000E+00;0;  0.0000000E+00;  1.0000000E+04;  0.0000000E+00;  0.0000000E+00;  1.0000000E+04;  0.0000000E+00;  1.0000000E+04;  0.0000000E+00;  0.0000000E+00;  0.0000000E+00;  0.0000000E+00;
  8.0000001E-01;  9.9999998E-03;  1.2000000E-01;2290;  0.0000000E+00;  0.0000000E+00;  0.0000000E+00;  1.0000000E+03;  4.0000001E-01;  0.0000000E+00;3;  0.0000000E+00;  0.0000000E+00;  0.0000000E+00;0;  0.0000000E+00;  1.0000000E+04;  0.0000000E+00;  0.0000000E+00;  1.0000000E+04;  0.0000000E+00;  1.0000000E+04;  0.0000000E+00;  0.0000000E+00;  0.0000000E+00;  0.0000000E+00;
  8.0000001E-01;  9.9999998E-03;  1.4000000E-01;2291;  0.0000000E+00;  0.0000000E+00;  0.0000000E+00;  1.0000000E+03;  4.0000001E-01;  0.0000000E+00;3;  0.0000000E+00;  0.0000000E+00;  0.0000000E+00;0;  0.0000000E+00;  1.0000000E+04;  0.0000000E+00;  0.0000000E+00;  1.0000000E+04;  0.0000000E+00;  1.0000000E+04;  0.0000000E+00;  0.0000000E+00;  0.0000000E+00;  0.0000000E+00;
  8.1999999E-01;  9.9999998E-03;  0.0000000E+00;2315;  0.0000000E+00;  0.0000000E+00;  0.0000000E+00;  1.0000000E+03;  4.0000001E-01;  0.0000000E+00;3;  0.0000000E+00;  0.0000000E+00;  0.0000000E+00;0;  0.0000000E+00;  1.0000000E+04;  0.0000000E+00;  0.0000000E+00;  1.0000000E+04;  0.0000000E+00;  1.0000000E+04;  0.0000000E+00;  0.0000000E+00;  0.0000000E+00;  0.0000000E+00;
  8.1999999E-01;  9.9999998E-03;  2.0000000E-02;2316;  0.0000000E+00;  0.0000000E+00;  0.0000000E+00;  1.0000000E+03;  4.0000001E-01;  0.0000000E+00;3;  0.0000000E+00;  0.0000000E+00;  0.0000000E+00;0;  0.0000000E+00;  1.0000000E+04;  0.0000000E+00;  0.0000000E+00;  1.0000000E+04;  0.0000000E+00;  1.0000000E+04;  0.0000000E+00;  0.0000000E+00;  0.0000000E+00;  0.0000000E+00;
  8.1999999E-01;  9.9999998E-03;  3.9999999E-02;2317;  0.0000000E+00;  0.0000000E+00;  0.0000000E+00;  1.0000000E+03;  4.0000001E-01;  0.0000000E+00;3;  0.0000000E+00;  0.0000000E+00;  0.0000000E+00;0;  0.0000000E+00;  1.0000000E+04;  0.0000000E+00;  0.0000000E+00;  1.0000000E+04;  0.0000000E+00;  1.0000000E+04;  0.0000000E+00;  0.0000000E+00;  0.0000000E+00;  0.0000000E+00;
  8.1999999E-01;  9.9999998E-03;  5.9999999E-02;2318;  0.0000000E+00;  0.0000000E+00;  0.0000000E+00;  1.0000000E+03;  4.0000001E-01;  0.0000000E+00;3;  0.0000000E+00;  0.0000000E+00;  0.0000000E+00;0;  0.0000000E+00;  1.0000000E+04;  0.0000000E+00;  0.0000000E+00;  1.0000000E+04;  0.0000000E+00;  1.0000000E+04;  0.0000000E+00;  0.0000000E+00;  0.0000000E+00;  0.0000000E+00;
  8.1999999E-01;  9.9999998E-03;  7.9999998E-02;2319;  0.0000000E+00;  0.0000000E+00;  0.0000000E+00;  1.0000000E+03;  4.0000001E-01;  0.0000000E+00;3;  0.0000000E+00;  0.0000000E+00;  0.0000000E+00;0;  0.0000000E+00;  1.0000000E+04;  0.0000000E+00;  0.0000000E+00;  1.0000000E+04;  0.0000000E+00;  1.0000000E+04;  0.0000000E+00;  0.0000000E+00;  0.0000000E+00;  0.0000000E+00;
  8.1999999E-01;  9.9999998E-03;  1.0000000E-01;2320;  0.0000000E+00;  0.0000000E+00;  0.0000000E+00;  1.0000000E+03;  4.0000001E-01;  0.0000000E+00;3;  0.0000000E+00;  0.0000000E+00;  0.0000000E+00;0;  0.0000000E+00;  1.0000000E+04;  0.0000000E+00;  0.0000000E+00;  1.0000000E+04;  0.0000000E+00;  1.0000000E+04;  0.0000000E+00;  0.0000000E+00;  0.0000000E+00;  0.0000000E+00;
  8.1999999E-01;  9.9999998E-03;  1.2000000E-01;2321;  0.0000000E+00;  0.0000000E+00;  0.0000000E+00;  1.0000000E+03;  4.0000001E-01;  0.0000000E+00;3;  0.0000000E+00;  0.0000000E+00;  0.0000000E+00;0;  0.0000000E+00;  1.0000000E+04;  0.0000000E+00;  0.0000000E+00;  1.0000000E+04;  0.0000000E+00;  1.0000000E+04;  0.0000000E+00;  0.0000000E+00;  0.0000000E+00;  0.0000000E+00;
  8.1999999E-01;  9.9999998E-03;  1.4000000E-01;2322;  0.0000000E+00;  0.0000000E+00;  0.0000000E+00;  1.0000000E+03;  4.0000001E-01;  0.0000000E+00;3;  0.0000000E+00;  0.0000000E+00;  0.0000000E+00;0;  0.0000000E+00;  1.0000000E+04;  0.0000000E+00;  0.0000000E+00;  1.0000000E+04;  0.0000000E+00;  1.0000000E+04;  0.0000000E+00;  0.0000000E+00;  0.0000000E+00;  0.0000000E+00;
  8.3999997E-01;  9.9999998E-03;  0.0000000E+00;2346;  0.0000000E+00;  0.0000000E+00;  0.0000000E+00;  1.0000000E+03;  4.0000001E-01;  0.0000000E+00;3;  0.0000000E+00;  0.0000000E+00;  0.0000000E+00;0;  0.0000000E+00;  1.0000000E+04;  0.0000000E+00;  0.0000000E+00;  1.0000000E+04;  0.0000000E+00;  1.0000000E+04;  0.0000000E+00;  0.0000000E+00;  0.0000000E+00;  0.0000000E+00;
  8.3999997E-01;  9.9999998E-03;  2.0000000E-02;2347;  0.0000000E+00;  0.0000000E+00;  0.0000000E+00;  1.0000000E+03;  4.0000001E-01;  0.0000000E+00;3;  0.0000000E+00;  0.0000000E+00;  0.0000000E+00;0;  0.0000000E+00;  1.0000000E+04;  0.0000000E+00;  0.0000000E+00;  1.0000000E+04;  0.0000000E+00;  1.0000000E+04;  0.0000000E+00;  0.0000000E+00;  0.0000000E+00;  0.0000000E+00;
  8.3999997E-01;  9.9999998E-03;  3.9999999E-02;2348;  0.0000000E+00;  0.0000000E+00;  0.0000000E+00;  1.0000000E+03;  4.0000001E-01;  0.0000000E+00;3;  0.0000000E+00;  0.0000000E+00;  0.0000000E+00;0;  0.0000000E+00;  1.0000000E+04;  0.0000000E+00;  0.0000000E+00;  1.0000000E+04;  0.0000000E+00;  1.0000000E+04;  0.0000000E+00;  0.0000000E+00;  0.0000000E+00;  0.0000000E+00;
  8.3999997E-01;  9.9999998E-03;  5.9999999E-02;2349;  0.0000000E+00;  0.0000000E+00;  0.0000000E+00;  1.0000000E+03;  4.0000001E-01;  0.0000000E+00;3;  0.0000000E+00;  0.0000000E+00;  0.0000000E+00;0;  0.0000000E+00;  1.0000000E+04;  0.0000000E+00;  0.0000000E+00;  1.0000000E+04;  0.0000000E+00;  1.0000000E+04;  0.0000000E+00;  0.0000000E+00;  0.0000000E+00;  0.0000000E+00;
  8.3999997E-01;  9.9999998E-03;  7.9999998E-02;2350;  0.0000000E+00;  0.0000000E+00;  0.0000000E+00;  1.0000000E+03;  4.0000001E-01;  0.0000000E+00;3;  0.0000000E+00;  0.0000000E+00;  0.0000000E+00;0;  0.0000000E+00;  1.0000000E+04;  0.0000000E+00;  0.0000000E+00;  1.0000000E+04;  0.0000000E+00;  1.0000000E+04;  0.0000000E+00;  0.0000000E+00;  0.0000000E+00;  0.0000000E+00;
  8.3999997E-01;  9.9999998E-03;  1.0000000E-01;2351;  0.0000000E+00;  0.0000000E+00;  0.0000000E+00;  1.0000000E+03;  4.0000001E-01;  0.0000000E+00;3;  0.0000000E+00;  0.0000000E+00;  0.0000000E+00;0;  0.0000000E+00;  1.0000000E+04;  0.0000000E+00;  0.0000000E+00;  1.0000000E+04;  0.0000000E+00;  1.0000000E+04;  0.0000000E+00;  0.0000000E+00;  0.0000000E+00;  0.0000000E+00;
  8.3999997E-01;  9.9999998E-03;  1.2000000E-01;2352;  0.0000000E+00;  0.0000000E+00;  0.0000000E+00;  1.0000000E+03;  4.0000001E-01;  0.0000000E+00;3;  0.0000000E+00;  0.0000000E+00;  0.0000000E+00;0;  0.0000000E+00;  1.0000000E+04;  0.0000000E+00;  0.0000000E+00;  1.0000000E+04;  0.0000000E+00;  1.0000000E+04;  0.0000000E+00;  0.0000000E+00;  0.0000000E+00;  0.0000000E+00;
  8.3999997E-01;  9.9999998E-03;  1.4000000E-01;2353;  0.0000000E+00;  0.0000000E+00;  0.0000000E+00;  1.0000000E+03;  4.0000001E-01;  0.0000000E+00;3;  0.0000000E+00;  0.0000000E+00;  0.0000000E+00;0;  0.0000000E+00;  1.0000000E+04;  0.0000000E+00;  0.0000000E+00;  1.0000000E+04;  0.0000000E+00;  1.0000000E+04;  0.0000000E+00;  0.0000000E+00;  0.0000000E+00;  0.0000000E+00;
  8.6000001E-01;  9.9999998E-03;  0.0000000E+00;2377;  0.0000000E+00;  0.0000000E+00;  0.0000000E+00;  1.0000000E+03;  4.0000001E-01;  0.0000000E+00;3;  0.0000000E+00;  0.0000000E+00;  0.0000000E+00;0;  0.0000000E+00;  1.0000000E+04;  0.0000000E+00;  0.0000000E+00;  1.0000000E+04;  0.0000000E+00;  1.0000000E+04;  0.0000000E+00;  0.0000000E+00;  0.0000000E+00;  0.0000000E+00;
  8.6000001E-01;  9.9999998E-03;  2.0000000E-02;2378;  0.0000000E+00;  0.0000000E+00;  0.0000000E+00;  1.0000000E+03;  4.0000001E-01;  0.0000000E+00;3;  0.0000000E+00;  0.0000000E+00;  0.0000000E+00;0;  0.0000000E+00;  1.0000000E+04;  0.0000000E+00;  0.0000000E+00;  1.0000000E+04;  0.0000000E+00;  1.0000000E+04;  0.0000000E+00;  0.0000000E+00;  0.0000000E+00;  0.0000000E+00;
  8.6000001E-01;  9.9999998E-03;  3.9999999E-02;2379;  0.0000000E+00;  0.0000000E+00;  0.0000000E+00;  1.0000000E+03;  4.0000001E-01;  0.0000000E+00;3;  0.0000000E+00;  0.0000000E+00;  0.0000000E+00;0;  0.0000000E+00;  1.0000000E+04;  0.0000000E+00;  0.0000000E+00;  1.0000000E+04;  0.0000000E+00;  1.0000000E+04;  0.0000000E+00;  0.0000000E+00;  0.0000000E+00;  0.0000000E+00;
  8.6000001E-01;  9.9999998E-03;  5.9999999E-02;2380;  0.0000000E+00;  0.0000000E+00;  0.0000000E+00;  1.0000000E+03;  4.0000001E-01;  0.0000000E+00;3;  0.0000000E+00;  0.0000000E+00;  0.0000000E+00;0;  0.0000000E+00;  1.0000000E+04;  0.0000000E+00;  0.0000000E+00;  1.0000000E+04;  0.0000000E+00;  1.0000000E+04;  0.0000000E+00;  0.0000000E+00;  0.0000000E+00;  0.0000000E+00;
  8.6000001E-01;  9.9999998E-03;  7.9999998E-02;2381;  0.0000000E+00;  0.0000000E+00;  0.0000000E+00;  1.0000000E+03;  4.0000001E-01;  0.0000000E+00;3;  0.0000000E+00;  0.0000000E+00;  0.0000000E+00;0;  0.0000000E+00;  1.0000000E+04;  0.0000000E+00;  0.0000000E+00;  1.0000000E+04;  0.0000000E+00;  1.0000000E+04;  0.0000000E+00;  0.0000000E+00;  0.0000000E+00;  0.0000000E+00;
  8.6000001E-01;  9.9999998E-03;  1.0000000E-01;2382;  0.0000000E+00;  0.0000000E+00;  0.0000000E+00;  1.0000000E+03;  4.0000001E-01;  0.0000000E+00;3;  0.0000000E+00;  0.0000000E+00;  0.0000000E+00;0;  0.0000000E+00;  1.0000000E+04;  0.0000000E+00;  0.0000000E+00;  1.0000000E+04;  0.0000000E+00;  1.0000000E+04;  0.0000000E+00;  0.0000000E+00;  0.0000000E+00;  0.0000000E+00;
  8.6000001E-01;  9.9999998E-03;  1.2000000E-01;2383;  0.0000000E+00;  0.0000000E+00;  0.0000000E+00;  1.0000000E+03;  4.0000001E-01;  0.0000000E+00;3;  0.0000000E+00;  0.0000000E+00;  0.0000000E+00;0;  0.0000000E+00;  1.0000000E+04;  0.0000000E+00;  0.0000000E+00;  1.0000000E+04;  0.0000000E+00;  1.0000000E+04;  0.0000000E+00;  0.0000000E+00;  0.0000000E+00;  0.0000000E+00;
  8.6000001E-01;  9.9999998E-03;  1.4000000E-01;2384;  0.0000000E+00;  0.0000000E+00;  0.0000000E+00;  1.0000000E+03;  4.0000001E-01;  0.0000000E+00;3;  0.0000000E+00;  0.0000000E+00;  0.0000000E+00;0;  0.0000000E+00;  1.0000000E+04;  0.0000000E+00;  0.0000000E+00;  1.0000000E+04;  0.0000000E+00;  1.0000000E+04;  0.0000000E+00;  0.0000000E+00;  0.0000000E+00;  0.0000000E+00;
  8.8000000E-01;  9.9999998E-03;  0.0000000E+00;2408;  0.0000000E+00;  0.0000000E+00;  0.0000000E+00;  1.0000000E+03;  4.0000001E-01;  0.0000000E+00;3;  0.0000000E+00;  0.0000000E+00;  0.0000000E+00;0;  0.0000000E+00;  1.0000000E+04;  0.0000000E+00;  0.0000000E+00;  1.0000000E+04;  0.0000000E+00;  1.0000000E+04;  0.0000000E+00;  0.0000000E+00;  0.0000000E+00;  0.0000000E+00;
  8.8000000E-01;  9.9999998E-03;  2.0000000E-02;2409;  0.0000000E+00;  0.0000000E+00;  0.0000000E+00;  1.0000000E+03;  4.0000001E-01;  0.0000000E+00;3;  0.0000000E+00;  0.0000000E+00;  0.0000000E+00;0;  0.0000000E+00;  1.0000000E+04;  0.0000000E+00;  0.0000000E+00;  1.0000000E+04;  0.0000000E+00;  1.0000000E+04;  0.0000000E+00;  0.0000000E+00;  0.0000000E+00;  0.0000000E+00;
  8.8000000E-01;  9.9999998E-03;  3.9999999E-02;2410;  0.0000000E+00;  0.0000000E+00;  0.0000000E+00;  1.0000000E+03;  4.0000001E-01;  0.0000000E+00;3;  0.0000000E+00;  0.0000000E+00;  0.0000000E+00;0;  0.0000000E+00;  1.0000000E+04;  0.0000000E+00;  0.0000000E+00;  1.0000000E+04;  0.0000000E+00;  1.0000000E+04;  0.0000000E+00;  0.0000000E+00;  0.0000000E+00;  0.0000000E+00;
  8.8000000E-01;  9.9999998E-03;  5.9999999E-02;2411;  0.0000000E+00;  0.0000000E+00;  0.0000000E+00;  1.0000000E+03;  4.0000001E-01;  0.0000000E+00;3;  0.0000000E+00;  0.0000000E+00;  0.0000000E+00;0;  0.0000000E+00;  1.0000000E+04;  0.0000000E+00;  0.0000000E+00;  1.0000000E+04;  0.0000000E+00;  1.0000000E+04;  0.0000000E+00;  0.0000000E+00;  0.0000000E+00;  0.0000000E+00;
  8.8000000E-01;  9.9999998E-03;  7.9999998E-02;2412;  0.0000000E+00;  0.0000000E+00;  0.0000000E+00;  1.0000000E+03;  4.0000001E-01;  0.0000000E+00;3;  0.0000000E+00;  0.0000000E+00;  0.0000000E+00;0;  0.0000000E+00;  1.0000000E+04;  0.0000000E+00;  0.0000000E+00;  1.0000000E+04;  0.0000000E+00;  1.0000000E+04;  0.0000000E+00;  0.0000000E+00;  0.0000000E+00;  0.0000000E+00;
  8.8000000E-01;  9.9999998E-03;  1.0000000E-01;2413;  0.0000000E+00;  0.0000000E+00;  0.0000000E+00;  1.0000000E+03;  4.0000001E-01;  0.0000000E+00;3;  0.0000000E+00;  0.0000000E+00;  0.0000000E+00;0;  0.0000000E+00;  1.0000000E+04;  0.0000000E+00;  0.0000000E+00;  1.0000000E+04;  0.0000000E+00;  1.0000000E+04;  0.0000000E+00;  0.0000000E+00;  0.0000000E+00;  0.0000000E+00;
  8.8000000E-01;  9.9999998E-03;  1.2000000E-01;2414;  0.0000000E+00;  0.0000000E+00;  0.0000000E+00;  1.0000000E+03;  4.0000001E-01;  0.0000000E+00;3;  0.0000000E+00;  0.0000000E+00;  0.0000000E+00;0;  0.0000000E+00;  1.0000000E+04;  0.0000000E+00;  0.0000000E+00;  1.0000000E+04;  0.0000000E+00;  1.0000000E+04;  0.0000000E+00;  0.0000000E+00;  0.0000000E+00;  0.0000000E+00;
  8.8000000E-01;  9.9999998E-03;  1.4000000E-01;2415;  0.0000000E+00;  0.0000000E+00;  0.0000000E+00;  1.0000000E+03;  4.0000001E-01;  0.0000000E+00;3;  0.0000000E+00;  0.0000000E+00;  0.0000000E+00;0;  0.0000000E+00;  1.0000000E+04;  0.0000000E+00;  0.0000000E+00;  1.0000000E+04;  0.0000000E+00;  1.0000000E+04;  0.0000000E+00;  0.0000000E+00;  0.0000000E+00;  0.0000000E+00;
  8.9999998E-01;  9.9999998E-03;  0.0000000E+00;2439;  0.0000000E+00;  0.0000000E+00;  0.0000000E+00;  1.0000000E+03;  4.0000001E-01;  0.0000000E+00;3;  0.0000000E+00;  0.0000000E+00;  0.0000000E+00;0;  0.0000000E+00;  1.0000000E+04;  0.0000000E+00;  0.0000000E+00;  1.0000000E+04;  0.0000000E+00;  1.0000000E+04;  0.0000000E+00;  0.0000000E+00;  0.0000000E+00;  0.0000000E+00;
  8.9999998E-01;  9.9999998E-03;  2.0000000E-02;2440;  0.0000000E+00;  0.0000000E+00;  0.0000000E+00;  1.0000000E+03;  4.0000001E-01;  0.0000000E+00;3;  0.0000000E+00;  0.0000000E+00;  0.0000000E+00;0;  0.0000000E+00;  1.0000000E+04;  0.0000000E+00;  0.0000000E+00;  1.0000000E+04;  0.0000000E+00;  1.0000000E+04;  0.0000000E+00;  0.0000000E+00;  0.0000000E+00;  0.0000000E+00;
  8.9999998E-01;  9.9999998E-03;  3.9999999E-02;2441;  0.0000000E+00;  0.0000000E+00;  0.0000000E+00;  1.0000000E+03;  4.0000001E-01;  0.0000000E+00;3;  0.0000000E+00;  0.0000000E+00;  0.0000000E+00;0;  0.0000000E+00;  1.0000000E+04;  0.0000000E+00;  0.0000000E+00;  1.0000000E+04;  0.0000000E+00;  1.0000000E+04;  0.0000000E+00;  0.0000000E+00;  0.0000000E+00;  0.0000000E+00;
  8.9999998E-01;  9.9999998E-03;  5.9999999E-02;2442;  0.0000000E+00;  0.0000000E+00;  0.0000000E+00;  1.0000000E+03;  4.0000001E-01;  0.0000000E+00;3;  0.0000000E+00;  0.0000000E+00;  0.0000000E+00;0;  0.0000000E+00;  1.0000000E+04;  0.0000000E+00;  0.0000000E+00;  1.0000000E+04;  0.0000000E+00;  1.0000000E+04;  0.0000000E+00;  0.0000000E+00;  0.0000000E+00;  0.0000000E+00;
  8.9999998E-01;  9.9999998E-03;  7.9999998E-02;2443;  0.0000000E+00;  0.0000000E+00;  0.0000000E+00;  1.0000000E+03;  4.0000001E-01;  0.0000000E+00;3;  0.0000000E+00;  0.0000000E+00;  0.0000000E+00;0;  0.0000000E+00;  1.0000000E+04;  0.0000000E+00;  0.0000000E+00;  1.0000000E+04;  0.0000000E+00;  1.0000000E+04;  0.0000000E+00;  0.0000000E+00;  0.0000000E+00;  0.0000000E+00;
  8.9999998E-01;  9.9999998E-03;  1.0000000E-01;2444;  0.0000000E+00;  0.0000000E+00;  0.0000000E+00;  1.0000000E+03;  4.0000001E-01;  0.0000000E+00;3;  0.0000000E+00;  0.0000000E+00;  0.0000000E+00;0;  0.0000000E+00;  1.0000000E+04;  0.0000000E+00;  0.0000000E+00;  1.0000000E+04;  0.0000000E+00;  1.0000000E+04;  0.0000000E+00;  0.0000000E+00;  0.0000000E+00;  0.0000000E+00;
  8.9999998E-01;  9.9999998E-03;  1.2000000E-01;2445;  0.0000000E+00;  0.0000000E+00;  0.0000000E+00;  1.0000000E+03;  4.0000001E-01;  0.0000000E+00;3;  0.0000000E+00;  0.0000000E+00;  0.0000000E+00;0;  0.0000000E+00;  1.0000000E+04;  0.0000000E+00;  0.0000000E+00;  1.0000000E+04;  0.0000000E+00;  1.0000000E+04;  0.0000000E+00;  0.0000000E+00;  0.0000000E+00;  0.0000000E+00;
  8.9999998E-01;  9.9999998E-03;  1.4000000E-01;2446;  0.0000000E+00;  0.0000000E+00;  0.0000000E+00;  1.0000000E+03;  4.0000001E-01;  0.0000000E+00;3;  0.0000000E+00;  0.0000000E+00;  0.0000000E+00;0;  0.0000000E+00;  1.0000000E+04;  0.0000000E+00;  0.0000000E+00;  1.0000000E+04;  0.0000000E+00;  1.0000000E+04;  0.0000000E+00;  0.0000000E+00;  0.0000000E+00;  0.0000000E+00;
  9.2000002E-01;  9.9999998E-03;  0.0000000E+00;2470;  0.0000000E+00;  0.0000000E+00;  0.0000000E+00;  1.0000000E+03;  4.0000001E-01;  0.0000000E+00;3;  0.0000000E+00;  0.0000000E+00;  0.0000000E+00;0;  0.0000000E+00;  1.0000000E+04;  0.0000000E+00;  0.0000000E+00;  1.0000000E+04;  0.0000000E+00;  1.0000000E+04;  0.0000000E+00;  0.0000000E+00;  0.0000000E+00;  0.0000000E+00;
  9.2000002E-01;  9.9999998E-03;  2.0000000E-02;2471;  0.0000000E+00;  0.0000000E+00;  0.0000000E+00;  1.0000000E+03;  4.0000001E-01;  0.0000000E+00;3;  0.0000000E+00;  0.0000000E+00;  0.0000000E+00;0;  0.0000000E+00;  1.0000000E+04;  0.0000000E+00;  0.0000000E+00;  1.0000000E+04;  0.0000000E+00;  1.0000000E+04;  0.0000000E+00;  0.0000000E+00;  0.0000000E+00;  0.0000000E+00;
  9.2000002E-01;  9.9999998E-03;  3.9999999E-02;2472;  0.0000000E+00;  0.0000000E+00;  0.0000000E+00;  1.0000000E+03;  4.0000001E-01;  0.0000000E+00;3;  0.0000000E+00;  0.0000000E+00;  0.0000000E+00;0;  0.0000000E+00;  1.0000000E+04;  0.0000000E+00;  0.0000000E+00;  1.0000000E+04;  0.0000000E+00;  1.0000000E+04;  0.0000000E+00;  0.0000000E+00;  0.0000000E+00;  0.0000000E+00;
  9.2000002E-01;  9.9999998E-03;  5.9999999E-02;2473;  0.0000000E+00;  0.0000000E+00;  0.0000000E+00;  1.0000000E+03;  4.0000001E-01;  0.0000000E+00;3;  0.0000000E+00;  0.0000000E+00;  0.0000000E+00;0;  0.0000000E+00;  1.0000000E+04;  0.0000000E+00;  0.0000000E+00;  1.0000000E+04;  0.0000000E+00;  1.0000000E+04;  0.0000000E+00;  0.0000000E+00;  0.0000000E+00;  0.0000000E+00;
  9.2000002E-01;  9.9999998E-03;  7.9999998E-02;2474;  0.0000000E+00;  0.0000000E+00;  0.0000000E+00;  1.0000000E+03;  4.0000001E-01;  0.0000000E+00;3;  0.0000000E+00;  0.0000000E+00;  0.0000000E+00;0;  0.0000000E+00;  1.0000000E+04;  0.0000000E+00;  0.0000000E+00;  1.0000000E+04;  0.0000000E+00;  1.0000000E+04;  0.0000000E+00;  0.0000000E+00;  0.0000000E+00;  0.0000000E+00;
  9.2000002E-01;  9.9999998E-03;  1.0000000E-01;2475;  0.0000000E+00;  0.0000000E+00;  0.0000000E+00;  1.0000000E+03;  4.0000001E-01;  0.0000000E+00;3;  0.0000000E+00;  0.0000000E+00;  0.0000000E+00;0;  0.0000000E+00;  1.0000000E+04;  0.0000000E+00;  0.0000000E+00;  1.0000000E+04;  0.0000000E+00;  1.0000000E+04;  0.0000000E+00;  0.0000000E+00;  0.0000000E+00;  0.0000000E+00;
  9.2000002E-01;  9.9999998E-03;  1.2000000E-01;2476;  0.0000000E+00;  0.0000000E+00;  0.0000000E+00;  1.0000000E+03;  4.0000001E-01;  0.0000000E+00;3;  0.0000000E+00;  0.0000000E+00;  0.0000000E+00;0;  0.0000000E+00;  1.0000000E+04;  0.0000000E+00;  0.0000000E+00;  1.0000000E+04;  0.0000000E+00;  1.0000000E+04;  0.0000000E+00;  0.0000000E+00;  0.0000000E+00;  0.0000000E+00;
  9.2000002E-01;  9.9999998E-03;  1.4000000E-01;2477;  0.0000000E+00;  0.0000000E+00;  0.0000000E+00;  1.0000000E+03;  4.0000001E-01;  0.0000000E+00;3;  0.0000000E+00;  0.0000000E+00;  0.0000000E+00;0;  0.0000000E+00;  1.0000000E+04;  0.0000000E+00;  0.0000000E+00;  1.0000000E+04;  0.0000000E+00;  1.0000000E+04;  0.0000000E+00;  0.0000000E+00;  0.0000000E+00;  0.0000000E+00;
  9.4000000E-01;  9.9999998E-03;  0.0000000E+00;2501;  0.0000000E+00;  0.0000000E+00;  0.0000000E+00;  1.0000000E+03;  4.0000001E-01;  0.0000000E+00;3;  0.0000000E+00;  0.0000000E+00;  0.0000000E+00;0;  0.0000000E+00;  1.0000000E+04;  0.0000000E+00;  0.0000000E+00;  1.0000000E+04;  0.0000000E+00;  1.0000000E+04;  0.0000000E+00;  0.0000000E+00;  0.0000000E+00;  0.0000000E+00;
  9.4000000E-01;  9.9999998E-03;  2.0000000E-02;2502;  0.0000000E+00;  0.0000000E+00;  0.0000000E+00;  1.0000000E+03;  4.0000001E-01;  0.0000000E+00;3;  0.0000000E+00;  0.0000000E+00;  0.0000000E+00;0;  0.0000000E+00;  1.0000000E+04;  0.0000000E+00;  0.0000000E+00;  1.0000000E+04;  0.0000000E+00;  1.0000000E+04;  0.0000000E+00;  0.0000000E+00;  0.0000000E+00;  0.0000000E+00;
  9.4000000E-01;  9.9999998E-03;  3.9999999E-02;2503;  0.0000000E+00;  0.0000000E+00;  0.0000000E+00;  1.0000000E+03;  4.0000001E-01;  0.0000000E+00;3;  0.0000000E+00;  0.0000000E+00;  0.0000000E+00;0;  0.0000000E+00;  1.0000000E+04;  0.0000000E+00;  0.0000000E+00;  1.0000000E+04;  0.0000000E+00;  1.0000000E+04;  0.0000000E+00;  0.0000000E+00;  0.0000000E+00;  0.0000000E+00;
  9.4000000E-01;  9.9999998E-03;  5.9999999E-02;2504;  0.0000000E+00;  0.0000000E+00;  0.0000000E+00;  1.0000000E+03;  4.0000001E-01;  0.0000000E+00;3;  0.0000000E+00;  0.0000000E+00;  0.0000000E+00;0;  0.0000000E+00;  1.0000000E+04;  0.0000000E+00;  0.0000000E+00;  1.0000000E+04;  0.0000000E+00;  1.0000000E+04;  0.0000000E+00;  0.0000000E+00;  0.0000000E+00;  0.0000000E+00;
  9.4000000E-01;  9.9999998E-03;  7.9999998E-02;2505;  0.0000000E+00;  0.0000000E+00;  0.0000000E+00;  1.0000000E+03;  4.0000001E-01;  0.0000000E+00;3;  0.0000000E+00;  0.0000000E+00;  0.0000000E+00;0;  0.0000000E+00;  1.0000000E+04;  0.0000000E+00;  0.0000000E+00;  1.0000000E+04;  0.0000000E+00;  1.0000000E+04;  0.0000000E+00;  0.0000000E+00;  0.0000000E+00;  0.0000000E+00;
  9.4000000E-01;  9.9999998E-03;  1.0000000E-01;2506;  0.0000000E+00;  0.0000000E+00;  0.0000000E+00;  1.0000000E+03;  4.0000001E-01;  0.0000000E+00;3;  0.0000000E+00;  0.0000000E+00;  0.0000000E+00;0;  0.0000000E+00;  1.0000000E+04;  0.0000000E+00;  0.0000000E+00;  1.0000000E+04;  0.0000000E+00;  1.0000000E+04;  0.0000000E+00;  0.0000000E+00;  0.0000000E+00;  0.0000000E+00;
  9.4000000E-01;  9.9999998E-03;  1.2000000E-01;2507;  0.0000000E+00;  0.0000000E+00;  0.0000000E+00;  1.0000000E+03;  4.0000001E-01;  0.0000000E+00;3;  0.0000000E+00;  0.0000000E+00;  0.0000000E+00;0;  0.0000000E+00;  1.0000000E+04;  0.0000000E+00;  0.0000000E+00;  1.0000000E+04;  0.0000000E+00;  1.0000000E+04;  0.0000000E+00;  0.0000000E+00;  0.0000000E+00;  0.0000000E+00;
  9.4000000E-01;  9.9999998E-03;  1.4000000E-01;2508;  0.0000000E+00;  0.0000000E+00;  0.0000000E+00;  1.0000000E+03;  4.0000001E-01;  0.0000000E+00;3;  0.0000000E+00;  0.0000000E+00;  0.0000000E+00;0;  0.0000000E+00;  1.0000000E+04;  0.0000000E+00;  0.0000000E+00;  1.0000000E+04;  0.0000000E+00;  1.0000000E+04;  0.0000000E+00;  0.0000000E+00;  0.0000000E+00;  0.0000000E+00;
  9.5999998E-01;  9.9999998E-03;  0.0000000E+00;2532;  0.0000000E+00;  0.0000000E+00;  0.0000000E+00;  1.0000000E+03;  4.0000001E-01;  0.0000000E+00;3;  0.0000000E+00;  0.0000000E+00;  0.0000000E+00;0;  0.0000000E+00;  1.0000000E+04;  0.0000000E+00;  0.0000000E+00;  1.0000000E+04;  0.0000000E+00;  1.0000000E+04;  0.0000000E+00;  0.0000000E+00;  0.0000000E+00;  0.0000000E+00;
  9.5999998E-01;  9.9999998E-03;  2.0000000E-02;2533;  0.0000000E+00;  0.0000000E+00;  0.0000000E+00;  1.0000000E+03;  4.0000001E-01;  0.0000000E+00;3;  0.0000000E+00;  0.0000000E+00;  0.0000000E+00;0;  0.0000000E+00;  1.0000000E+04;  0.0000000E+00;  0.0000000E+00;  1.0000000E+04;  0.0000000E+00;  1.0000000E+04;  0.0000000E+00;  0.0000000E+00;  0.0000000E+00;  0.0000000E+00;
  9.5999998E-01;  9.9999998E-03;  3.9999999E-02;2534;  0.0000000E+00;  0.0000000E+00;  0.0000000E+00;  1.0000000E+03;  4.0000001E-01;  0.0000000E+00;3;  0.0000000E+00;  0.0000000E+00;  0.0000000E+00;0;  0.0000000E+00;  1.0000000E+04;  0.0000000E+00;  0.0000000E+00;  1.0000000E+04;  0.0000000E+00;  1.0000000E+04;  0.0000000E+00;  0.0000000E+00;  0.0000000E+00;  0.0000000E+00;
  9.5999998E-01;  9.9999998E-03;  5.9999999E-02;2535;  0.0000000E+00;  0.0000000E+00;  0.0000000E+00;  1.0000000E+03;  4.0000001E-01;  0.0000000E+00;3;  0.0000000E+00;  0.0000000E+00;  0.0000000E+00;0;  0.0000000E+00;  1.0000000E+04;  0.0000000E+00;  0.0000000E+00;  1.0000000E+04;  0.0000000E+00;  1.0000000E+04;  0.0000000E+00;  0.0000000E+00;  0.0000000E+00;  0.0000000E+00;
  9.5999998E-01;  9.9999998E-03;  7.9999998E-02;2536;  0.0000000E+00;  0.0000000E+00;  0.0000000E+00;  1.0000000E+03;  4.0000001E-01;  0.0000000E+00;3;  0.0000000E+00;  0.0000000E+00;  0.0000000E+00;0;  0.0000000E+00;  1.0000000E+04;  0.0000000E+00;  0.0000000E+00;  1.0000000E+04;  0.0000000E+00;  1.0000000E+04;  0.0000000E+00;  0.0000000E+00;  0.0000000E+00;  0.0000000E+00;
  9.5999998E-01;  9.9999998E-03;  1.0000000E-01;2537;  0.0000000E+00;  0.0000000E+00;  0.0000000E+00;  1.0000000E+03;  4.0000001E-01;  0.0000000E+00;3;  0.0000000E+00;  0.0000000E+00;  0.0000000E+00;0;  0.0000000E+00;  1.0000000E+04;  0.0000000E+00;  0.0000000E+00;  1.0000000E+04;  0.0000000E+00;  1.0000000E+04;  0.0000000E+00;  0.0000000E+00;  0.0000000E+00;  0.0000000E+00;
  9.5999998E-01;  9.9999998E-03;  1.2000000E-01;2538;  0.0000000E+00;  0.0000000E+00;  0.0000000E+00;  1.0000000E+03;  4.0000001E-01;  0.0000000E+00;3;  0.0000000E+00;  0.0000000E+00;  0.0000000E+00;0;  0.0000000E+00;  1.0000000E+04;  0.0000000E+00;  0.0000000E+00;  1.0000000E+04;  0.0000000E+00;  1.0000000E+04;  0.0000000E+00;  0.0000000E+00;  0.0000000E+00;  0.0000000E+00;
  9.5999998E-01;  9.9999998E-03;  1.4000000E-01;2539;  0.0000000E+00;  0.0000000E+00;  0.0000000E+00;  1.0000000E+03;  4.0000001E-01;  0.0000000E+00;3;  0.0000000E+00;  0.0000000E+00;  0.0000000E+00;0;  0.0000000E+00;  1.0000000E+04;  0.0000000E+00;  0.0000000E+00;  1.0000000E+04;  0.0000000E+00;  1.0000000E+04;  0.0000000E+00;  0.0000000E+00;  0.0000000E+00;  0.0000000E+00;
  9.8000002E-01;  9.9999998E-03;  0.0000000E+00;2563;  0.0000000E+00;  0.0000000E+00;  0.0000000E+00;  1.0000000E+03;  4.0000001E-01;  0.0000000E+00;3;  0.0000000E+00;  0.0000000E+00;  0.0000000E+00;0;  0.0000000E+00;  1.0000000E+04;  0.0000000E+00;  0.0000000E+00;  1.0000000E+04;  0.0000000E+00;  1.0000000E+04;  0.0000000E+00;  0.0000000E+00;  0.0000000E+00;  0.0000000E+00;
  9.8000002E-01;  9.9999998E-03;  2.0000000E-02;2564;  0.0000000E+00;  0.0000000E+00;  0.0000000E+00;  1.0000000E+03;  4.0000001E-01;  0.0000000E+00;3;  0.0000000E+00;  0.0000000E+00;  0.0000000E+00;0;  0.0000000E+00;  1.0000000E+04;  0.0000000E+00;  0.0000000E+00;  1.0000000E+04;  0.0000000E+00;  1.0000000E+04;  0.0000000E+00;  0.0000000E+00;  0.0000000E+00;  0.0000000E+00;
  9.8000002E-01;  9.9999998E-03;  3.9999999E-02;2565;  0.0000000E+00;  0.0000000E+00;  0.0000000E+00;  1.0000000E+03;  4.0000001E-01;  0.0000000E+00;3;  0.0000000E+00;  0.0000000E+00;  0.0000000E+00;0;  0.0000000E+00;  1.0000000E+04;  0.0000000E+00;  0.0000000E+00;  1.0000000E+04;  0.0000000E+00;  1.0000000E+04;  0.0000000E+00;  0.0000000E+00;  0.0000000E+00;  0.0000000E+00;
  9.8000002E-01;  9.9999998E-03;  5.9999999E-02;2566;  0.0000000E+00;  0.0000000E+00;  0.0000000E+00;  1.0000000E+03;  4.0000001E-01;  0.0000000E+00;3;  0.0000000E+00;  0.0000000E+00;  0.0000000E+00;0;  0.0000000E+00;  1.0000000E+04;  0.0000000E+00;  0.0000000E+00;  1.0000000E+04;  0.0000000E+00;  1.0000000E+04;  0.0000000E+00;  0.0000000E+00;  0.0000000E+00;  0.0000000E+00;
  9.8000002E-01;  9.9999998E-03;  7.9999998E-02;2567;  0.0000000E+00;  0.0000000E+00;  0.0000000E+00;  1.0000000E+03;  4.0000001E-01;  0.0000000E+00;3;  0.0000000E+00;  0.0000000E+00;  0.0000000E+00;0;  0.0000000E+00;  1.0000000E+04;  0.0000000E+00;  0.0000000E+00;  1.0000000E+04;  0.0000000E+00;  1.0000000E+04;  0.0000000E+00;  0.0000000E+00;  0.0000000E+00;  0.0000000E+00;
  9.8000002E-01;  9.9999998E-03;  1.0000000E-01;2568;  0.0000000E+00;  0.0000000E+00;  0.0000000E+00;  1.0000000E+03;  4.0000001E-01;  0.0000000E+00;3;  0.0000000E+00;  0.0000000E+00;  0.0000000E+00;0;  0.0000000E+00;  1.0000000E+04;  0.0000000E+00;  0.0000000E+00;  1.0000000E+04;  0.0000000E+00;  1.0000000E+04;  0.0000000E+00;  0.0000000E+00;  0.0000000E+00;  0.0000000E+00;
  9.8000002E-01;  9.9999998E-03;  1.2000000E-01;2569;  0.0000000E+00;  0.0000000E+00;  0.0000000E+00;  1.0000000E+03;  4.0000001E-01;  0.0000000E+00;3;  0.0000000E+00;  0.0000000E+00;  0.0000000E+00;0;  0.0000000E+00;  1.0000000E+04;  0.0000000E+00;  0.0000000E+00;  1.0000000E+04;  0.0000000E+00;  1.0000000E+04;  0.0000000E+00;  0.0000000E+00;  0.0000000E+00;  0.0000000E+00;
  9.8000002E-01;  9.9999998E-03;  1.4000000E-01;2570;  0.0000000E+00;  0.0000000E+00;  0.0000000E+00;  1.0000000E+03;  4.0000001E-01;  0.0000000E+00;3;  0.0000000E+00;  0.0000000E+00;  0.0000000E+00;0;  0.0000000E+00;  1.0000000E+04;  0.0000000E+00;  0.0000000E+00;  1.0000000E+04;  0.0000000E+00;  1.0000000E+04;  0.0000000E+00;  0.0000000E+00;  0.0000000E+00;  0.0000000E+00;
  1.0000000E+00;  9.9999998E-03;  0.0000000E+00;2594;  0.0000000E+00;  0.0000000E+00;  0.0000000E+00;  1.0000000E+03;  4.0000001E-01;  0.0000000E+00;3;  0.0000000E+00;  0.0000000E+00;  0.0000000E+00;0;  0.0000000E+00;  1.0000000E+04;  0.0000000E+00;  0.0000000E+00;  1.0000000E+04;  0.0000000E+00;  1.0000000E+04;  0.0000000E+00;  0.0000000E+00;  0.0000000E+00;  0.0000000E+00;
  1.0000000E+00;  9.9999998E-03;  2.0000000E-02;2595;  0.0000000E+00;  0.0000000E+00;  0.0000000E+00;  1.0000000E+03;  4.0000001E-01;  0.0000000E+00;3;  0.0000000E+00;  0.0000000E+00;  0.0000000E+00;0;  0.0000000E+00;  1.0000000E+04;  0.0000000E+00;  0.0000000E+00;  1.0000000E+04;  0.0000000E+00;  1.0000000E+04;  0.0000000E+00;  0.0000000E+00;  0.0000000E+00;  0.0000000E+00;
  1.0000000E+00;  9.9999998E-03;  3.9999999E-02;2596;  0.0000000E+00;  0.0000000E+00;  0.0000000E+00;  1.0000000E+03;  4.0000001E-01;  0.0000000E+00;3;  0.0000000E+00;  0.0000000E+00;  0.0000000E+00;0;  0.0000000E+00;  1.0000000E+04;  0.0000000E+00;  0.0000000E+00;  1.0000000E+04;  0.0000000E+00;  1.0000000E+04;  0.0000000E+00;  0.0000000E+00;  0.0000000E+00;  0.0000000E+00;
  1.0000000E+00;  9.9999998E-03;  5.9999999E-02;2597;  0.0000000E+00;  0.0000000E+00;  0.0000000E+00;  1.0000000E+03;  4.0000001E-01;  0.0000000E+00;3;  0.0000000E+00;  0.0000000E+00;  0.0000000E+00;0;  0.0000000E+00;  1.0000000E+04;  0.0000000E+00;  0.0000000E+00;  1.0000000E+04;  0.0000000E+00;  1.0000000E+04;  0.0000000E+00;  0.0000000E+00;  0.0000000E+00;  0.0000000E+00;
  1.0000000E+00;  9.9999998E-03;  7.9999998E-02;2598;  0.0000000E+00;  0.0000000E+00;  0.0000000E+00;  1.0000000E+03;  4.0000001E-01;  0.0000000E+00;3;  0.0000000E+00;  0.0000000E+00;  0.0000000E+00;0;  0.0000000E+00;  1.0000000E+04;  0.0000000E+00;  0.0000000E+00;  1.0000000E+04;  0.0000000E+00;  1.0000000E+04;  0.0000000E+00;  0.0000000E+00;  0.0000000E+00;  0.0000000E+00;
  1.0000000E+00;  9.9999998E-03;  1.0000000E-01;2599;  0.0000000E+00;  0.0000000E+00;  0.0000000E+00;  1.0000000E+03;  4.0000001E-01;  0.0000000E+00;3;  0.0000000E+00;  0.0000000E+00;  0.0000000E+00;0;  0.0000000E+00;  1.0000000E+04;  0.0000000E+00;  0.0000000E+00;  1.0000000E+04;  0.0000000E+00;  1.0000000E+04;  0.0000000E+00;  0.0000000E+00;  0.0000000E+00;  0.0000000E+00;
  1.0000000E+00;  9.9999998E-03;  1.2000000E-01;2600;  0.0000000E+00;  0.0000000E+00;  0.0000000E+00;  1.0000000E+03;  4.0000001E-01;  0.0000000E+00;3;  0.0000000E+00;  0.0000000E+00;  0.0000000E+00;0;  0.0000000E+00;  1.0000000E+04;  0.0000000E+00;  0.0000000E+00;  1.0000000E+04;  0.0000000E+00;  1.0000000E+04;  0.0000000E+00;  0.0000000E+00;  0.0000000E+00;  0.0000000E+00;
  1.0000000E+00;  9.9999998E-03;  1.4000000E-01;2601;  0.0000000E+00;  0.0000000E+00;  0.0000000E+00;  1.0000000E+03;  4.0000001E-01;  0.0000000E+00;3;  0.0000000E+00;  0.0000000E+00;  0.0000000E+00;0;  0.0000000E+00;  1.0000000E+04;  0.0000000E+00;  0.0000000E+00;  1.0000000E+04;  0.0000000E+00;  1.0000000E+04;  0.0000000E+00;  0.0000000E+00;  0.0000000E+00;  0.0000000E+00;
  1.0200000E+00;  9.9999998E-03;  0.0000000E+00;2625;  0.0000000E+00;  0.0000000E+00;  0.0000000E+00;  1.0000000E+03;  4.0000001E-01;  0.0000000E+00;3;  0.0000000E+00;  0.0000000E+00;  0.0000000E+00;0;  0.0000000E+00;  1.0000000E+04;  0.0000000E+00;  0.0000000E+00;  1.0000000E+04;  0.0000000E+00;  1.0000000E+04;  0.0000000E+00;  0.0000000E+00;  0.0000000E+00;  0.0000000E+00;
  1.0200000E+00;  9.9999998E-03;  2.0000000E-02;2626;  0.0000000E+00;  0.0000000E+00;  0.0000000E+00;  1.0000000E+03;  4.0000001E-01;  0.0000000E+00;3;  0.0000000E+00;  0.0000000E+00;  0.0000000E+00;0;  0.0000000E+00;  1.0000000E+04;  0.0000000E+00;  0.0000000E+00;  1.0000000E+04;  0.0000000E+00;  1.0000000E+04;  0.0000000E+00;  0.0000000E+00;  0.0000000E+00;  0.0000000E+00;
  1.0200000E+00;  9.9999998E-03;  3.9999999E-02;2627;  0.0000000E+00;  0.0000000E+00;  0.0000000E+00;  1.0000000E+03;  4.0000001E-01;  0.0000000E+00;3;  0.0000000E+00;  0.0000000E+00;  0.0000000E+00;0;  0.0000000E+00;  1.0000000E+04;  0.0000000E+00;  0.0000000E+00;  1.0000000E+04;  0.0000000E+00;  1.0000000E+04;  0.0000000E+00;  0.0000000E+00;  0.0000000E+00;  0.0000000E+00;
  1.0200000E+00;  9.9999998E-03;  5.9999999E-02;2628;  0.0000000E+00;  0.0000000E+00;  0.0000000E+00;  1.0000000E+03;  4.0000001E-01;  0.0000000E+00;3;  0.0000000E+00;  0.0000000E+00;  0.0000000E+00;0;  0.0000000E+00;  1.0000000E+04;  0.0000000E+00;  0.0000000E+00;  1.0000000E+04;  0.0000000E+00;  1.0000000E+04;  0.0000000E+00;  0.0000000E+00;  0.0000000E+00;  0.0000000E+00;
  1.0200000E+00;  9.9999998E-03;  7.9999998E-02;2629;  0.0000000E+00;  0.0000000E+00;  0.0000000E+00;  1.0000000E+03;  4.0000001E-01;  0.0000000E+00;3;  0.0000000E+00;  0.0000000E+00;  0.0000000E+00;0;  0.0000000E+00;  1.0000000E+04;  0.0000000E+00;  0.0000000E+00;  1.0000000E+04;  0.0000000E+00;  1.0000000E+04;  0.0000000E+00;  0.0000000E+00;  0.0000000E+00;  0.0000000E+00;
  1.0200000E+00;  9.9999998E-03;  1.0000000E-01;2630;  0.0000000E+00;  0.0000000E+00;  0.0000000E+00;  1.0000000E+03;  4.0000001E-01;  0.0000000E+00;3;  0.0000000E+00;  0.0000000E+00;  0.0000000E+00;0;  0.0000000E+00;  1.0000000E+04;  0.0000000E+00;  0.0000000E+00;  1.0000000E+04;  0.0000000E+00;  1.0000000E+04;  0.0000000E+00;  0.0000000E+00;  0.0000000E+00;  0.0000000E+00;
  1.0200000E+00;  9.9999998E-03;  1.2000000E-01;2631;  0.0000000E+00;  0.0000000E+00;  0.0000000E+00;  1.0000000E+03;  4.0000001E-01;  0.0000000E+00;3;  0.0000000E+00;  0.0000000E+00;  0.0000000E+00;0;  0.0000000E+00;  1.0000000E+04;  0.0000000E+00;  0.0000000E+00;  1.0000000E+04;  0.0000000E+00;  1.0000000E+04;  0.0000000E+00;  0.0000000E+00;  0.0000000E+00;  0.0000000E+00;
  1.0200000E+00;  9.9999998E-03;  1.4000000E-01;2632;  0.0000000E+00;  0.0000000E+00;  0.0000000E+00;  1.0000000E+03;  4.0000001E-01;  0.0000000E+00;3;  0.0000000E+00;  0.0000000E+00;  0.0000000E+00;0;  0.0000000E+00;  1.0000000E+04;  0.0000000E+00;  0.0000000E+00;  1.0000000E+04;  0.0000000E+00;  1.0000000E+04;  0.0000000E+00;  0.0000000E+00;  0.0000000E+00;  0.0000000E+00;
  1.0400000E+00;  9.9999998E-03;  0.0000000E+00;2656;  0.0000000E+00;  0.0000000E+00;  0.0000000E+00;  1.0000000E+03;  4.0000001E-01;  0.0000000E+00;3;  0.0000000E+00;  0.0000000E+00;  0.0000000E+00;0;  0.0000000E+00;  1.0000000E+04;  0.0000000E+00;  0.0000000E+00;  1.0000000E+04;  0.0000000E+00;  1.0000000E+04;  0.0000000E+00;  0.0000000E+00;  0.0000000E+00;  0.0000000E+00;
  1.0400000E+00;  9.9999998E-03;  2.0000000E-02;2657;  0.0000000E+00;  0.0000000E+00;  0.0000000E+00;  1.0000000E+03;  4.0000001E-01;  0.0000000E+00;3;  0.0000000E+00;  0.0000000E+00;  0.0000000E+00;0;  0.0000000E+00;  1.0000000E+04;  0.0000000E+00;  0.0000000E+00;  1.0000000E+04;  0.0000000E+00;  1.0000000E+04;  0.0000000E+00;  0.0000000E+00;  0.0000000E+00;  0.0000000E+00;
  1.0400000E+00;  9.9999998E-03;  3.9999999E-02;2658;  0.0000000E+00;  0.0000000E+00;  0.0000000E+00;  1.0000000E+03;  4.0000001E-01;  0.0000000E+00;3;  0.0000000E+00;  0.0000000E+00;  0.0000000E+00;0;  0.0000000E+00;  1.0000000E+04;  0.0000000E+00;  0.0000000E+00;  1.0000000E+04;  0.0000000E+00;  1.0000000E+04;  0.0000000E+00;  0.0000000E+00;  0.0000000E+00;  0.0000000E+00;
  1.0400000E+00;  9.9999998E-03;  5.9999999E-02;2659;  0.0000000E+00;  0.0000000E+00;  0.0000000E+00;  1.0000000E+03;  4.0000001E-01;  0.0000000E+00;3;  0.0000000E+00;  0.0000000E+00;  0.0000000E+00;0;  0.0000000E+00;  1.0000000E+04;  0.0000000E+00;  0.0000000E+00;  1.0000000E+04;  0.0000000E+00;  1.0000000E+04;  0.0000000E+00;  0.0000000E+00;  0.0000000E+00;  0.0000000E+00;
  1.0400000E+00;  9.9999998E-03;  7.9999998E-02;2660;  0.0000000E+00;  0.0000000E+00;  0.0000000E+00;  1.0000000E+03;  4.0000001E-01;  0.0000000E+00;3;  0.0000000E+00;  0.0000000E+00;  0.0000000E+00;0;  0.0000000E+00;  1.0000000E+04;  0.0000000E+00;  0.0000000E+00;  1.0000000E+04;  0.0000000E+00;  1.0000000E+04;  0.0000000E+00;  0.0000000E+00;  0.0000000E+00;  0.0000000E+00;
  1.0400000E+00;  9.9999998E-03;  1.0000000E-01;2661;  0.0000000E+00;  0.0000000E+00;  0.0000000E+00;  1.0000000E+03;  4.0000001E-01;  0.0000000E+00;3;  0.0000000E+00;  0.0000000E+00;  0.0000000E+00;0;  0.0000000E+00;  1.0000000E+04;  0.0000000E+00;  0.0000000E+00;  1.0000000E+04;  0.0000000E+00;  1.0000000E+04;  0.0000000E+00;  0.0000000E+00;  0.0000000E+00;  0.0000000E+00;
  1.0400000E+00;  9.9999998E-03;  1.2000000E-01;2662;  0.0000000E+00;  0.0000000E+00;  0.0000000E+00;  1.0000000E+03;  4.0000001E-01;  0.0000000E+00;3;  0.0000000E+00;  0.0000000E+00;  0.0000000E+00;0;  0.0000000E+00;  1.0000000E+04;  0.0000000E+00;  0.0000000E+00;  1.0000000E+04;  0.0000000E+00;  1.0000000E+04;  0.0000000E+00;  0.0000000E+00;  0.0000000E+00;  0.0000000E+00;
  1.0400000E+00;  9.9999998E-03;  1.4000000E-01;2663;  0.0000000E+00;  0.0000000E+00;  0.0000000E+00;  1.0000000E+03;  4.0000001E-01;  0.0000000E+00;3;  0.0000000E+00;  0.0000000E+00;  0.0000000E+00;0;  0.0000000E+00;  1.0000000E+04;  0.0000000E+00;  0.0000000E+00;  1.0000000E+04;  0.0000000E+00;  1.0000000E+04;  0.0000000E+00;  0.0000000E+00;  0.0000000E+00;  0.0000000E+00;
  1.0599999E+00;  9.9999998E-03;  0.0000000E+00;2687;  0.0000000E+00;  0.0000000E+00;  0.0000000E+00;  1.0000000E+03;  4.0000001E-01;  0.0000000E+00;3;  0.0000000E+00;  0.0000000E+00;  0.0000000E+00;0;  0.0000000E+00;  1.0000000E+04;  0.0000000E+00;  0.0000000E+00;  1.0000000E+04;  0.0000000E+00;  1.0000000E+04;  0.0000000E+00;  0.0000000E+00;  0.0000000E+00;  0.0000000E+00;
  1.0599999E+00;  9.9999998E-03;  2.0000000E-02;2688;  0.0000000E+00;  0.0000000E+00;  0.0000000E+00;  1.0000000E+03;  4.0000001E-01;  0.0000000E+00;3;  0.0000000E+00;  0.0000000E+00;  0.0000000E+00;0;  0.0000000E+00;  1.0000000E+04;  0.0000000E+00;  0.0000000E+00;  1.0000000E+04;  0.0000000E+00;  1.0000000E+04;  0.0000000E+00;  0.0000000E+00;  0.0000000E+00;  0.0000000E+00;
  1.0599999E+00;  9.9999998E-03;  3.9999999E-02;2689;  0.0000000E+00;  0.0000000E+00;  0.0000000E+00;  1.0000000E+03;  4.0000001E-01;  0.0000000E+00;3;  0.0000000E+00;  0.0000000E+00;  0.0000000E+00;0;  0.0000000E+00;  1.0000000E+04;  0.0000000E+00;  0.0000000E+00;  1.0000000E+04;  0.0000000E+00;  1.0000000E+04;  0.0000000E+00;  0.0000000E+00;  0.0000000E+00;  0.0000000E+00;
  1.0599999E+00;  9.9999998E-03;  5.9999999E-02;2690;  0.0000000E+00;  0.0000000E+00;  0.0000000E+00;  1.0000000E+03;  4.0000001E-01;  0.0000000E+00;3;  0.0000000E+00;  0.0000000E+00;  0.0000000E+00;0;  0.0000000E+00;  1.0000000E+04;  0.0000000E+00;  0.0000000E+00;  1.0000000E+04;  0.0000000E+00;  1.0000000E+04;  0.0000000E+00;  0.0000000E+00;  0.0000000E+00;  0.0000000E+00;
  1.0599999E+00;  9.9999998E-03;  7.9999998E-02;2691;  0.0000000E+00;  0.0000000E+00;  0.0000000E+00;  1.0000000E+03;  4.0000001E-01;  0.0000000E+00;3;  0.0000000E+00;  0.0000000E+00;  0.0000000E+00;0;  0.0000000E+00;  1.0000000E+04;  0.0000000E+00;  0.0000000E+00;  1.0000000E+04;  0.0000000E+00;  1.0000000E+04;  0.0000000E+00;  0.0000000E+00;  0.0000000E+00;  0.0000000E+00;
  1.0599999E+00;  9.9999998E-03;  1.0000000E-01;2692;  0.0000000E+00;  0.0000000E+00;  0.0000000E+00;  1.0000000E+03;  4.0000001E-01;  0.0000000E+00;3;  0.0000000E+00;  0.0000000E+00;  0.0000000E+00;0;  0.0000000E+00;  1.0000000E+04;  0.0000000E+00;  0.0000000E+00;  1.0000000E+04;  0.0000000E+00;  1.0000000E+04;  0.0000000E+00;  0.0000000E+00;  0.0000000E+00;  0.0000000E+00;
  1.0599999E+00;  9.9999998E-03;  1.2000000E-01;2693;  0.0000000E+00;  0.0000000E+00;  0.0000000E+00;  1.0000000E+03;  4.0000001E-01;  0.0000000E+00;3;  0.0000000E+00;  0.0000000E+00;  0.0000000E+00;0;  0.0000000E+00;  1.0000000E+04;  0.0000000E+00;  0.0000000E+00;  1.0000000E+04;  0.0000000E+00;  1.0000000E+04;  0.0000000E+00;  0.0000000E+00;  0.0000000E+00;  0.0000000E+00;
  1.0599999E+00;  9.9999998E-03;  1.4000000E-01;2694;  0.0000000E+00;  0.0000000E+00;  0.0000000E+00;  1.0000000E+03;  4.0000001E-01;  0.0000000E+00;3;  0.0000000E+00;  0.0000000E+00;  0.0000000E+00;0;  0.0000000E+00;  1.0000000E+04;  0.0000000E+00;  0.0000000E+00;  1.0000000E+04;  0.0000000E+00;  1.0000000E+04;  0.0000000E+00;  0.0000000E+00;  0.0000000E+00;  0.0000000E+00;
  1.0800000E+00;  9.9999998E-03;  0.0000000E+00;2718;  0.0000000E+00;  0.0000000E+00;  0.0000000E+00;  1.0000000E+03;  4.0000001E-01;  0.0000000E+00;3;  0.0000000E+00;  0.0000000E+00;  0.0000000E+00;0;  0.0000000E+00;  1.0000000E+04;  0.0000000E+00;  0.0000000E+00;  1.0000000E+04;  0.0000000E+00;  1.0000000E+04;  0.0000000E+00;  0.0000000E+00;  0.0000000E+00;  0.0000000E+00;
  1.0800000E+00;  9.9999998E-03;  2.0000000E-02;2719;  0.0000000E+00;  0.0000000E+00;  0.0000000E+00;  1.0000000E+03;  4.0000001E-01;  0.0000000E+00;3;  0.0000000E+00;  0.0000000E+00;  0.0000000E+00;0;  0.0000000E+00;  1.0000000E+04;  0.0000000E+00;  0.0000000E+00;  1.0000000E+04;  0.0000000E+00;  1.0000000E+04;  0.0000000E+00;  0.0000000E+00;  0.0000000E+00;  0.0000000E+00;
  1.0800000E+00;  9.9999998E-03;  3.9999999E-02;2720;  0.0000000E+00;  0.0000000E+00;  0.0000000E+00;  1.0000000E+03;  4.0000001E-01;  0.0000000E+00;3;  0.0000000E+00;  0.0000000E+00;  0.0000000E+00;0;  0.0000000E+00;  1.0000000E+04;  0.0000000E+00;  0.0000000E+00;  1.0000000E+04;  0.0000000E+00;  1.0000000E+04;  0.0000000E+00;  0.0000000E+00;  0.0000000E+00;  0.0000000E+00;
  1.0800000E+00;  9.9999998E-03;  5.9999999E-02;2721;  0.0000000E+00;  0.0000000E+00;  0.0000000E+00;  1.0000000E+03;  4.0000001E-01;  0.0000000E+00;3;  0.0000000E+00;  0.0000000E+00;  0.0000000E+00;0;  0.0000000E+00;  1.0000000E+04;  0.0000000E+00;  0.0000000E+00;  1.0000000E+04;  0.0000000E+00;  1.0000000E+04;  0.0000000E+00;  0.0000000E+00;  0.0000000E+00;  0.0000000E+00;
  1.0800000E+00;  9.9999998E-03;  7.9999998E-02;2722;  0.0000000E+00;  0.0000000E+00;  0.0000000E+00;  1.0000000E+03;  4.0000001E-01;  0.0000000E+00;3;  0.0000000E+00;  0.0000000E+00;  0.0000000E+00;0;  0.0000000E+00;  1.0000000E+04;  0.0000000E+00;  0.0000000E+00;  1.0000000E+04;  0.0000000E+00;  1.0000000E+04;  0.0000000E+00;  0.0000000E+00;  0.0000000E+00;  0.0000000E+00;
  1.0800000E+00;  9.9999998E-03;  1.0000000E-01;2723;  0.0000000E+00;  0.0000000E+00;  0.0000000E+00;  1.0000000E+03;  4.0000001E-01;  0.0000000E+00;3;  0.0000000E+00;  0.0000000E+00;  0.0000000E+00;0;  0.0000000E+00;  1.0000000E+04;  0.0000000E+00;  0.0000000E+00;  1.0000000E+04;  0.0000000E+00;  1.0000000E+04;  0.0000000E+00;  0.0000000E+00;  0.0000000E+00;  0.0000000E+00;
  1.0800000E+00;  9.9999998E-03;  1.2000000E-01;2724;  0.0000000E+00;  0.0000000E+00;  0.0000000E+00;  1.0000000E+03;  4.0000001E-01;  0.0000000E+00;3;  0.0000000E+00;  0.0000000E+00;  0.0000000E+00;0;  0.0000000E+00;  1.0000000E+04;  0.0000000E+00;  0.0000000E+00;  1.0000000E+04;  0.0000000E+00;  1.0000000E+04;  0.0000000E+00;  0.0000000E+00;  0.0000000E+00;  0.0000000E+00;
  1.0800000E+00;  9.9999998E-03;  1.4000000E-01;2725;  0.0000000E+00;  0.0000000E+00;  0.0000000E+00;  1.0000000E+03;  4.0000001E-01;  0.0000000E+00;3;  0.0000000E+00;  0.0000000E+00;  0.0000000E+00;0;  0.0000000E+00;  1.0000000E+04;  0.0000000E+00;  0.0000000E+00;  1.0000000E+04;  0.0000000E+00;  1.0000000E+04;  0.0000000E+00;  0.0000000E+00;  0.0000000E+00;  0.0000000E+00;
  1.1000000E+00;  9.9999998E-03;  0.0000000E+00;2748;  0.0000000E+00;  0.0000000E+00;  0.0000000E+00;  1.0000000E+03;  4.0000001E-01;  0.0000000E+00;3;  0.0000000E+00;  0.0000000E+00;  0.0000000E+00;0;  0.0000000E+00;  1.0000000E+04;  0.0000000E+00;  0.0000000E+00;  1.0000000E+04;  0.0000000E+00;  1.0000000E+04;  0.0000000E+00;  0.0000000E+00;  0.0000000E+00;  0.0000000E+00;
  1.1000000E+00;  9.9999998E-03;  2.0000000E-02;2749;  0.0000000E+00;  0.0000000E+00;  0.0000000E+00;  1.0000000E+03;  4.0000001E-01;  0.0000000E+00;3;  0.0000000E+00;  0.0000000E+00;  0.0000000E+00;0;  0.0000000E+00;  1.0000000E+04;  0.0000000E+00;  0.0000000E+00;  1.0000000E+04;  0.0000000E+00;  1.0000000E+04;  0.0000000E+00;  0.0000000E+00;  0.0000000E+00;  0.0000000E+00;
  1.1000000E+00;  9.9999998E-03;  3.9999999E-02;2750;  0.0000000E+00;  0.0000000E+00;  0.0000000E+00;  1.0000000E+03;  4.0000001E-01;  0.0000000E+00;3;  0.0000000E+00;  0.0000000E+00;  0.0000000E+00;0;  0.0000000E+00;  1.0000000E+04;  0.0000000E+00;  0.0000000E+00;  1.0000000E+04;  0.0000000E+00;  1.0000000E+04;  0.0000000E+00;  0.0000000E+00;  0.0000000E+00;  0.0000000E+00;
  1.1000000E+00;  9.9999998E-03;  5.9999999E-02;2751;  0.0000000E+00;  0.0000000E+00;  0.0000000E+00;  1.0000000E+03;  4.0000001E-01;  0.0000000E+00;3;  0.0000000E+00;  0.0000000E+00;  0.0000000E+00;0;  0.0000000E+00;  1.0000000E+04;  0.0000000E+00;  0.0000000E+00;  1.0000000E+04;  0.0000000E+00;  1.0000000E+04;  0.0000000E+00;  0.0000000E+00;  0.0000000E+00;  0.0000000E+00;
  1.1000000E+00;  9.9999998E-03;  7.9999998E-02;2752;  0.0000000E+00;  0.0000000E+00;  0.0000000E+00;  1.0000000E+03;  4.0000001E-01;  0.0000000E+00;3;  0.0000000E+00;  0.0000000E+00;  0.0000000E+00;0;  0.0000000E+00;  1.0000000E+04;  0.0000000E+00;  0.0000000E+00;  1.0000000E+04;  0.0000000E+00;  1.0000000E+04;  0.0000000E+00;  0.0000000E+00;  0.0000000E+00;  0.0000000E+00;
  1.1000000E+00;  9.9999998E-03;  1.0000000E-01;2753;  0.0000000E+00;  0.0000000E+00;  0.0000000E+00;  1.0000000E+03;  4.0000001E-01;  0.0000000E+00;3;  0.0000000E+00;  0.0000000E+00;  0.0000000E+00;0;  0.0000000E+00;  1.0000000E+04;  0.0000000E+00;  0.0000000E+00;  1.0000000E+04;  0.0000000E+00;  1.0000000E+04;  0.0000000E+00;  0.0000000E+00;  0.0000000E+00;  0.0000000E+00;
  1.1000000E+00;  9.9999998E-03;  1.2000000E-01;2754;  0.0000000E+00;  0.0000000E+00;  0.0000000E+00;  1.0000000E+03;  4.0000001E-01;  0.0000000E+00;3;  0.0000000E+00;  0.0000000E+00;  0.0000000E+00;0;  0.0000000E+00;  1.0000000E+04;  0.0000000E+00;  0.0000000E+00;  1.0000000E+04;  0.0000000E+00;  1.0000000E+04;  0.0000000E+00;  0.0000000E+00;  0.0000000E+00;  0.0000000E+00;
  1.1000000E+00;  9.9999998E-03;  1.4000000E-01;2755;  0.0000000E+00;  0.0000000E+00;  0.0000000E+00;  1.0000000E+03;  4.0000001E-01;  0.0000000E+00;3;  0.0000000E+00;  0.0000000E+00;  0.0000000E+00;0;  0.0000000E+00;  1.0000000E+04;  0.0000000E+00;  0.0000000E+00;  1.0000000E+04;  0.0000000E+00;  1.0000000E+04;  0.0000000E+00;  0.0000000E+00;  0.0000000E+00;  0.0000000E+00;
  1.1200000E+00;  9.9999998E-03;  0.0000000E+00;2777;  0.0000000E+00;  0.0000000E+00;  0.0000000E+00;  1.0000000E+03;  4.0000001E-01;  0.0000000E+00;3;  0.0000000E+00;  0.0000000E+00;  0.0000000E+00;0;  0.0000000E+00;  1.0000000E+04;  0.0000000E+00;  0.0000000E+00;  1.0000000E+04;  0.0000000E+00;  1.0000000E+04;  0.0000000E+00;  0.0000000E+00;  0.0000000E+00;  0.0000000E+00;
  1.1200000E+00;  9.9999998E-03;  2.0000000E-02;2778;  0.0000000E+00;  0.0000000E+00;  0.0000000E+00;  1.0000000E+03;  4.0000001E-01;  0.0000000E+00;3;  0.0000000E+00;  0.0000000E+00;  0.0000000E+00;0;  0.0000000E+00;  1.0000000E+04;  0.0000000E+00;  0.0000000E+00;  1.0000000E+04;  0.0000000E+00;  1.0000000E+04;  0.0000000E+00;  0.0000000E+00;  0.0000000E+00;  0.0000000E+00;
  1.1200000E+00;  9.9999998E-03;  3.9999999E-02;2779;  0.0000000E+00;  0.0000000E+00;  0.0000000E+00;  1.0000000E+03;  4.0000001E-01;  0.0000000E+00;3;  0.0000000E+00;  0.0000000E+00;  0.0000000E+00;0;  0.0000000E+00;  1.0000000E+04;  0.0000000E+00;  0.0000000E+00;  1.0000000E+04;  0.0000000E+00;  1.0000000E+04;  0.0000000E+00;  0.0000000E+00;  0.0000000E+00;  0.0000000E+00;
  1.1200000E+00;  9.9999998E-03;  5.9999999E-02;2780;  0.0000000E+00;  0.0000000E+00;  0.0000000E+00;  1.0000000E+03;  4.0000001E-01;  0.0000000E+00;3;  0.0000000E+00;  0.0000000E+00;  0.0000000E+00;0;  0.0000000E+00;  1.0000000E+04;  0.0000000E+00;  0.0000000E+00;  1.0000000E+04;  0.0000000E+00;  1.0000000E+04;  0.0000000E+00;  0.0000000E+00;  0.0000000E+00;  0.0000000E+00;
  1.1200000E+00;  9.9999998E-03;  7.9999998E-02;2781;  0.0000000E+00;  0.0000000E+00;  0.0000000E+00;  1.0000000E+03;  4.0000001E-01;  0.0000000E+00;3;  0.0000000E+00;  0.0000000E+00;  0.0000000E+00;0;  0.0000000E+00;  1.0000000E+04;  0.0000000E+00;  0.0000000E+00;  1.0000000E+04;  0.0000000E+00;  1.0000000E+04;  0.0000000E+00;  0.0000000E+00;  0.0000000E+00;  0.0000000E+00;
  1.1200000E+00;  9.9999998E-03;  1.0000000E-01;2782;  0.0000000E+00;  0.0000000E+00;  0.0000000E+00;  1.0000000E+03;  4.0000001E-01;  0.0000000E+00;3;  0.0000000E+00;  0.0000000E+00;  0.0000000E+00;0;  0.0000000E+00;  1.0000000E+04;  0.0000000E+00;  0.0000000E+00;  1.0000000E+04;  0.0000000E+00;  1.0000000E+04;  0.0000000E+00;  0.0000000E+00;  0.0000000E+00;  0.0000000E+00;
  1.1200000E+00;  9.9999998E-03;  1.2000000E-01;2783;  0.0000000E+00;  0.0000000E+00;  0.0000000E+00;  1.0000000E+03;  4.0000001E-01;  0.0000000E+00;3;  0.0000000E+00;  0.0000000E+00;  0.0000000E+00;0;  0.0000000E+00;  1.0000000E+04;  0.0000000E+00;  0.0000000E+00;  1.0000000E+04;  0.0000000E+00;  1.0000000E+04;  0.0000000E+00;  0.0000000E+00;  0.0000000E+00;  0.0000000E+00;
  1.1200000E+00;  9.9999998E-03;  1.4000000E-01;2784;  0.0000000E+00;  0.0000000E+00;  0.0000000E+00;  1.0000000E+03;  4.0000001E-01;  0.0000000E+00;3;  0.0000000E+00;  0.0000000E+00;  0.0000000E+00;0;  0.0000000E+00;  1.0000000E+04;  0.0000000E+00;  0.0000000E+00;  1.0000000E+04;  0.0000000E+00;  1.0000000E+04;  0.0000000E+00;  0.0000000E+00;  0.0000000E+00;  0.0000000E+00;
  1.1400000E+00;  9.9999998E-03;  0.0000000E+00;2805;  0.0000000E+00;  0.0000000E+00;  0.0000000E+00;  1.0000000E+03;  4.0000001E-01;  0.0000000E+00;3;  0.0000000E+00;  0.0000000E+00;  0.0000000E+00;0;  0.0000000E+00;  1.0000000E+04;  0.0000000E+00;  0.0000000E+00;  1.0000000E+04;  0.0000000E+00;  1.0000000E+04;  0.0000000E+00;  0.0000000E+00;  0.0000000E+00;  0.0000000E+00;
  1.1400000E+00;  9.9999998E-03;  2.0000000E-02;2806;  0.0000000E+00;  0.0000000E+00;  0.0000000E+00;  1.0000000E+03;  4.0000001E-01;  0.0000000E+00;3;  0.0000000E+00;  0.0000000E+00;  0.0000000E+00;0;  0.0000000E+00;  1.0000000E+04;  0.0000000E+00;  0.0000000E+00;  1.0000000E+04;  0.0000000E+00;  1.0000000E+04;  0.0000000E+00;  0.0000000E+00;  0.0000000E+00;  0.0000000E+00;
  1.1400000E+00;  9.9999998E-03;  3.9999999E-02;2807;  0.0000000E+00;  0.0000000E+00;  0.0000000E+00;  1.0000000E+03;  4.0000001E-01;  0.0000000E+00;3;  0.0000000E+00;  0.0000000E+00;  0.0000000E+00;0;  0.0000000E+00;  1.0000000E+04;  0.0000000E+00;  0.0000000E+00;  1.0000000E+04;  0.0000000E+00;  1.0000000E+04;  0.0000000E+00;  0.0000000E+00;  0.0000000E+00;  0.0000000E+00;
  1.1400000E+00;  9.9999998E-03;  5.9999999E-02;2808;  0.0000000E+00;  0.0000000E+00;  0.0000000E+00;  1.0000000E+03;  4.0000001E-01;  0.0000000E+00;3;  0.0000000E+00;  0.0000000E+00;  0.0000000E+00;0;  0.0000000E+00;  1.0000000E+04;  0.0000000E+00;  0.0000000E+00;  1.0000000E+04;  0.0000000E+00;  1.0000000E+04;  0.0000000E+00;  0.0000000E+00;  0.0000000E+00;  0.0000000E+00;
  1.1400000E+00;  9.9999998E-03;  7.9999998E-02;2809;  0.0000000E+00;  0.0000000E+00;  0.0000000E+00;  1.0000000E+03;  4.0000001E-01;  0.0000000E+00;3;  0.0000000E+00;  0.0000000E+00;  0.0000000E+00;0;  0.0000000E+00;  1.0000000E+04;  0.0000000E+00;  0.0000000E+00;  1.0000000E+04;  0.0000000E+00;  1.0000000E+04;  0.0000000E+00;  0.0000000E+00;  0.0000000E+00;  0.0000000E+00;
  1.1400000E+00;  9.9999998E-03;  1.0000000E-01;2810;  0.0000000E+00;  0.0000000E+00;  0.0000000E+00;  1.0000000E+03;  4.0000001E-01;  0.0000000E+00;3;  0.0000000E+00;  0.0000000E+00;  0.0000000E+00;0;  0.0000000E+00;  1.0000000E+04;  0.0000000E+00;  0.0000000E+00;  1.0000000E+04;  0.0000000E+00;  1.0000000E+04;  0.0000000E+00;  0.0000000E+00;  0.0000000E+00;  0.0000000E+00;
  1.1400000E+00;  9.9999998E-03;  1.2000000E-01;2811;  0.0000000E+00;  0.0000000E+00;  0.0000000E+00;  1.0000000E+03;  4.0000001E-01;  0.0000000E+00;3;  0.0000000E+00;  0.0000000E+00;  0.0000000E+00;0;  0.0000000E+00;  1.0000000E+04;  0.0000000E+00;  0.0000000E+00;  1.0000000E+04;  0.0000000E+00;  1.0000000E+04;  0.0000000E+00;  0.0000000E+00;  0.0000000E+00;  0.0000000E+00;
  1.1400000E+00;  9.9999998E-03;  1.4000000E-01;2812;  0.0000000E+00;  0.0000000E+00;  0.0000000E+00;  1.0000000E+03;  4.0000001E-01;  0.0000000E+00;3;  0.0000000E+00;  0.0000000E+00;  0.0000000E+00;0;  0.0000000E+00;  1.0000000E+04;  0.0000000E+00;  0.0000000E+00;  1.0000000E+04;  0.0000000E+00;  1.0000000E+04;  0.0000000E+00;  0.0000000E+00;  0.0000000E+00;  0.0000000E+00;
  1.1600000E+00;  9.9999998E-03;  0.0000000E+00;2832;  0.0000000E+00;  0.0000000E+00;  0.0000000E+00;  1.0000000E+03;  4.0000001E-01;  0.0000000E+00;3;  0.0000000E+00;  0.0000000E+00;  0.0000000E+00;0;  0.0000000E+00;  1.0000000E+04;  0.0000000E+00;  0.0000000E+00;  1.0000000E+04;  0.0000000E+00;  1.0000000E+04;  0.0000000E+00;  0.0000000E+00;  0.0000000E+00;  0.0000000E+00;
  1.1600000E+00;  9.9999998E-03;  2.0000000E-02;2833;  0.0000000E+00;  0.0000000E+00;  0.0000000E+00;  1.0000000E+03;  4.0000001E-01;  0.0000000E+00;3;  0.0000000E+00;  0.0000000E+00;  0.0000000E+00;0;  0.0000000E+00;  1.0000000E+04;  0.0000000E+00;  0.0000000E+00;  1.0000000E+04;  0.0000000E+00;  1.0000000E+04;  0.0000000E+00;  0.0000000E+00;  0.0000000E+00;  0.0000000E+00;
  1.1600000E+00;  9.9999998E-03;  3.9999999E-02;2834;  0.0000000E+00;  0.0000000E+00;  0.0000000E+00;  1.0000000E+03;  4.0000001E-01;  0.0000000E+00;3;  0.0000000E+00;  0.0000000E+00;  0.0000000E+00;0;  0.0000000E+00;  1.0000000E+04;  0.0000000E+00;  0.0000000E+00;  1.0000000E+04;  0.0000000E+00;  1.0000000E+04;  0.0000000E+00;  0.0000000E+00;  0.0000000E+00;  0.0000000E+00;
  1.1600000E+00;  9.9999998E-03;  5.9999999E-02;2835;  0.0000000E+00;  0.0000000E+00;  0.0000000E+00;  1.0000000E+03;  4.0000001E-01;  0.0000000E+00;3;  0.0000000E+00;  0.0000000E+00;  0.0000000E+00;0;  0.0000000E+00;  1.0000000E+04;  0.0000000E+00;  0.0000000E+00;  1.0000000E+04;  0.0000000E+00;  1.0000000E+04;  0.0000000E+00;  0.0000000E+00;  0.0000000E+00;  0.0000000E+00;
  1.1600000E+00;  9.9999998E-03;  7.9999998E-02;2836;  0.0000000E+00;  0.0000000E+00;  0.0000000E+00;  1.0000000E+03;  4.0000001E-01;  0.0000000E+00;3;  0.0000000E+00;  0.0000000E+00;  0.0000000E+00;0;  0.0000000E+00;  1.0000000E+04;  0.0000000E+00;  0.0000000E+00;  1.0000000E+04;  0.0000000E+00;  1.0000000E+04;  0.0000000E+00;  0.0000000E+00;  0.0000000E+00;  0.0000000E+00;
  1.1600000E+00;  9.9999998E-03;  1.0000000E-01;2837;  0.0000000E+00;  0.0000000E+00;  0.0000000E+00;  1.0000000E+03;  4.0000001E-01;  0.0000000E+00;3;  0.0000000E+00;  0.0000000E+00;  0.0000000E+00;0;  0.0000000E+00;  1.0000000E+04;  0.0000000E+00;  0.0000000E+00;  1.0000000E+04;  0.0000000E+00;  1.0000000E+04;  0.0000000E+00;  0.0000000E+00;  0.0000000E+00;  0.0000000E+00;
  1.1600000E+00;  9.9999998E-03;  1.2000000E-01;2838;  0.0000000E+00;  0.0000000E+00;  0.0000000E+00;  1.0000000E+03;  4.0000001E-01;  0.0000000E+00;3;  0.0000000E+00;  0.0000000E+00;  0.0000000E+00;0;  0.0000000E+00;  1.0000000E+04;  0.0000000E+00;  0.0000000E+00;  1.0000000E+04;  0.0000000E+00;  1.0000000E+04;  0.0000000E+00;  0.0000000E+00;  0.0000000E+00;  0.0000000E+00;
  1.1600000E+00;  9.9999998E-03;  1.4000000E-01;2839;  0.0000000E+00;  0.0000000E+00;  0.0000000E+00;  1.0000000E+03;  4.0000001E-01;  0.0000000E+00;3;  0.0000000E+00;  0.0000000E+00;  0.0000000E+00;0;  0.0000000E+00;  1.0000000E+04;  0.0000000E+00;  0.0000000E+00;  1.0000000E+04;  0.0000000E+00;  1.0000000E+04;  0.0000000E+00;  0.0000000E+00;  0.0000000E+00;  0.0000000E+00;
  1.1799999E+00;  9.9999998E-03;  0.0000000E+00;2858;  0.0000000E+00;  0.0000000E+00;  0.0000000E+00;  1.0000000E+03;  4.0000001E-01;  0.0000000E+00;3;  0.0000000E+00;  0.0000000E+00;  0.0000000E+00;0;  0.0000000E+00;  1.0000000E+04;  0.0000000E+00;  0.0000000E+00;  1.0000000E+04;  0.0000000E+00;  1.0000000E+04;  0.0000000E+00;  0.0000000E+00;  0.0000000E+00;  0.0000000E+00;
  1.1799999E+00;  9.9999998E-03;  2.0000000E-02;2859;  0.0000000E+00;  0.0000000E+00;  0.0000000E+00;  1.0000000E+03;  4.0000001E-01;  0.0000000E+00;3;  0.0000000E+00;  0.0000000E+00;  0.0000000E+00;0;  0.0000000E+00;  1.0000000E+04;  0.0000000E+00;  0.0000000E+00;  1.0000000E+04;  0.0000000E+00;  1.0000000E+04;  0.0000000E+00;  0.0000000E+00;  0.0000000E+00;  0.0000000E+00;
  1.1799999E+00;  9.9999998E-03;  3.9999999E-02;2860;  0.0000000E+00;  0.0000000E+00;  0.0000000E+00;  1.0000000E+03;  4.0000001E-01;  0.0000000E+00;3;  0.0000000E+00;  0.0000000E+00;  0.0000000E+00;0;  0.0000000E+00;  1.0000000E+04;  0.0000000E+00;  0.0000000E+00;  1.0000000E+04;  0.0000000E+00;  1.0000000E+04;  0.0000000E+00;  0.0000000E+00;  0.0000000E+00;  0.0000000E+00;
  1.1799999E+00;  9.9999998E-03;  5.9999999E-02;2861;  0.0000000E+00;  0.0000000E+00;  0.0000000E+00;  1.0000000E+03;  4.0000001E-01;  0.0000000E+00;3;  0.0000000E+00;  0.0000000E+00;  0.0000000E+00;0;  0.0000000E+00;  1.0000000E+04;  0.0000000E+00;  0.0000000E+00;  1.0000000E+04;  0.0000000E+00;  1.0000000E+04;  0.0000000E+00;  0.0000000E+00;  0.0000000E+00;  0.0000000E+00;
  1.1799999E+00;  9.9999998E-03;  7.9999998E-02;2862;  0.0000000E+00;  0.0000000E+00;  0.0000000E+00;  1.0000000E+03;  4.0000001E-01;  0.0000000E+00;3;  0.0000000E+00;  0.0000000E+00;  0.0000000E+00;0;  0.0000000E+00;  1.0000000E+04;  0.0000000E+00;  0.0000000E+00;  1.0000000E+04;  0.0000000E+00;  1.0000000E+04;  0.0000000E+00;  0.0000000E+00;  0.0000000E+00;  0.0000000E+00;
  1.1799999E+00;  9.9999998E-03;  1.0000000E-01;2863;  0.0000000E+00;  0.0000000E+00;  0.0000000E+00;  1.0000000E+03;  4.0000001E-01;  0.0000000E+00;3;  0.0000000E+00;  0.0000000E+00;  0.0000000E+00;0;  0.0000000E+00;  1.0000000E+04;  0.0000000E+00;  0.0000000E+00;  1.0000000E+04;  0.0000000E+00;  1.0000000E+04;  0.0000000E+00;  0.0000000E+00;  0.0000000E+00;  0.0000000E+00;
  1.1799999E+00;  9.9999998E-03;  1.2000000E-01;2864;  0.0000000E+00;  0.0000000E+00;  0.0000000E+00;  1.0000000E+03;  4.0000001E-01;  0.0000000E+00;3;  0.0000000E+00;  0.0000000E+00;  0.0000000E+00;0;  0.0000000E+00;  1.0000000E+04;  0.0000000E+00;  0.0000000E+00;  1.0000000E+04;  0.0000000E+00;  1.0000000E+04;  0.0000000E+00;  0.0000000E+00;  0.0000000E+00;  0.0000000E+00;
  1.1799999E+00;  9.9999998E-03;  1.4000000E-01;2865;  0.0000000E+00;  0.0000000E+00;  0.0000000E+00;  1.0000000E+03;  4.0000001E-01;  0.0000000E+00;3;  0.0000000E+00;  0.0000000E+00;  0.0000000E+00;0;  0.0000000E+00;  1.0000000E+04;  0.0000000E+00;  0.0000000E+00;  1.0000000E+04;  0.0000000E+00;  1.0000000E+04;  0.0000000E+00;  0.0000000E+00;  0.0000000E+00;  0.0000000E+00;
  1.2000000E+00;  9.9999998E-03;  0.0000000E+00;2882;  0.0000000E+00;  0.0000000E+00;  0.0000000E+00;  1.0000000E+03;  4.0000001E-01;  0.0000000E+00;3;  0.0000000E+00;  0.0000000E+00;  0.0000000E+00;0;  0.0000000E+00;  1.0000000E+04;  0.0000000E+00;  0.0000000E+00;  1.0000000E+04;  0.0000000E+00;  1.0000000E+04;  0.0000000E+00;  0.0000000E+00;  0.0000000E+00;  0.0000000E+00;
  1.2000000E+00;  9.9999998E-03;  2.0000000E-02;2883;  0.0000000E+00;  0.0000000E+00;  0.0000000E+00;  1.0000000E+03;  4.0000001E-01;  0.0000000E+00;3;  0.0000000E+00;  0.0000000E+00;  0.0000000E+00;0;  0.0000000E+00;  1.0000000E+04;  0.0000000E+00;  0.0000000E+00;  1.0000000E+04;  0.0000000E+00;  1.0000000E+04;  0.0000000E+00;  0.0000000E+00;  0.0000000E+00;  0.0000000E+00;
  1.2000000E+00;  9.9999998E-03;  3.9999999E-02;2884;  0.0000000E+00;  0.0000000E+00;  0.0000000E+00;  1.0000000E+03;  4.0000001E-01;  0.0000000E+00;3;  0.0000000E+00;  0.0000000E+00;  0.0000000E+00;0;  0.0000000E+00;  1.0000000E+04;  0.0000000E+00;  0.0000000E+00;  1.0000000E+04;  0.0000000E+00;  1.0000000E+04;  0.0000000E+00;  0.0000000E+00;  0.0000000E+00;  0.0000000E+00;
  1.2000000E+00;  9.9999998E-03;  5.9999999E-02;2885;  0.0000000E+00;  0.0000000E+00;  0.0000000E+00;  1.0000000E+03;  4.0000001E-01;  0.0000000E+00;3;  0.0000000E+00;  0.0000000E+00;  0.0000000E+00;0;  0.0000000E+00;  1.0000000E+04;  0.0000000E+00;  0.0000000E+00;  1.0000000E+04;  0.0000000E+00;  1.0000000E+04;  0.0000000E+00;  0.0000000E+00;  0.0000000E+00;  0.0000000E+00;
  1.2000000E+00;  9.9999998E-03;  7.9999998E-02;2886;  0.0000000E+00;  0.0000000E+00;  0.0000000E+00;  1.0000000E+03;  4.0000001E-01;  0.0000000E+00;3;  0.0000000E+00;  0.0000000E+00;  0.0000000E+00;0;  0.0000000E+00;  1.0000000E+04;  0.0000000E+00;  0.0000000E+00;  1.0000000E+04;  0.0000000E+00;  1.0000000E+04;  0.0000000E+00;  0.0000000E+00;  0.0000000E+00;  0.0000000E+00;
  1.2000000E+00;  9.9999998E-03;  1.0000000E-01;2887;  0.0000000E+00;  0.0000000E+00;  0.0000000E+00;  1.0000000E+03;  4.0000001E-01;  0.0000000E+00;3;  0.0000000E+00;  0.0000000E+00;  0.0000000E+00;0;  0.0000000E+00;  1.0000000E+04;  0.0000000E+00;  0.0000000E+00;  1.0000000E+04;  0.0000000E+00;  1.0000000E+04;  0.0000000E+00;  0.0000000E+00;  0.0000000E+00;  0.0000000E+00;
  1.2000000E+00;  9.9999998E-03;  1.2000000E-01;2888;  0.0000000E+00;  0.0000000E+00;  0.0000000E+00;  1.0000000E+03;  4.0000001E-01;  0.0000000E+00;3;  0.0000000E+00;  0.0000000E+00;  0.0000000E+00;0;  0.0000000E+00;  1.0000000E+04;  0.0000000E+00;  0.0000000E+00;  1.0000000E+04;  0.0000000E+00;  1.0000000E+04;  0.0000000E+00;  0.0000000E+00;  0.0000000E+00;  0.0000000E+00;
  1.2000000E+00;  9.9999998E-03;  1.4000000E-01;2889;  0.0000000E+00;  0.0000000E+00;  0.0000000E+00;  1.0000000E+03;  4.0000001E-01;  0.0000000E+00;3;  0.0000000E+00;  0.0000000E+00;  0.0000000E+00;0;  0.0000000E+00;  1.0000000E+04;  0.0000000E+00;  0.0000000E+00;  1.0000000E+04;  0.0000000E+00;  1.0000000E+04;  0.0000000E+00;  0.0000000E+00;  0.0000000E+00;  0.0000000E+00;
  1.2200000E+00;  9.9999998E-03;  0.0000000E+00;2905;  0.0000000E+00;  0.0000000E+00;  0.0000000E+00;  1.0000000E+03;  4.0000001E-01;  0.0000000E+00;3;  0.0000000E+00;  0.0000000E+00;  0.0000000E+00;0;  0.0000000E+00;  1.0000000E+04;  0.0000000E+00;  0.0000000E+00;  1.0000000E+04;  0.0000000E+00;  1.0000000E+04;  0.0000000E+00;  0.0000000E+00;  0.0000000E+00;  0.0000000E+00;
  1.2200000E+00;  9.9999998E-03;  2.0000000E-02;2906;  0.0000000E+00;  0.0000000E+00;  0.0000000E+00;  1.0000000E+03;  4.0000001E-01;  0.0000000E+00;3;  0.0000000E+00;  0.0000000E+00;  0.0000000E+00;0;  0.0000000E+00;  1.0000000E+04;  0.0000000E+00;  0.0000000E+00;  1.0000000E+04;  0.0000000E+00;  1.0000000E+04;  0.0000000E+00;  0.0000000E+00;  0.0000000E+00;  0.0000000E+00;
  1.2200000E+00;  9.9999998E-03;  3.9999999E-02;2907;  0.0000000E+00;  0.0000000E+00;  0.0000000E+00;  1.0000000E+03;  4.0000001E-01;  0.0000000E+00;3;  0.0000000E+00;  0.0000000E+00;  0.0000000E+00;0;  0.0000000E+00;  1.0000000E+04;  0.0000000E+00;  0.0000000E+00;  1.0000000E+04;  0.0000000E+00;  1.0000000E+04;  0.0000000E+00;  0.0000000E+00;  0.0000000E+00;  0.0000000E+00;
  1.2200000E+00;  9.9999998E-03;  5.9999999E-02;2908;  0.0000000E+00;  0.0000000E+00;  0.0000000E+00;  1.0000000E+03;  4.0000001E-01;  0.0000000E+00;3;  0.0000000E+00;  0.0000000E+00;  0.0000000E+00;0;  0.0000000E+00;  1.0000000E+04;  0.0000000E+00;  0.0000000E+00;  1.0000000E+04;  0.0000000E+00;  1.0000000E+04;  0.0000000E+00;  0.0000000E+00;  0.0000000E+00;  0.0000000E+00;
  1.2200000E+00;  9.9999998E-03;  7.9999998E-02;2909;  0.0000000E+00;  0.0000000E+00;  0.0000000E+00;  1.0000000E+03;  4.0000001E-01;  0.0000000E+00;3;  0.0000000E+00;  0.0000000E+00;  0.0000000E+00;0;  0.0000000E+00;  1.0000000E+04;  0.0000000E+00;  0.0000000E+00;  1.0000000E+04;  0.0000000E+00;  1.0000000E+04;  0.0000000E+00;  0.0000000E+00;  0.0000000E+00;  0.0000000E+00;
  1.2200000E+00;  9.9999998E-03;  1.0000000E-01;2910;  0.0000000E+00;  0.0000000E+00;  0.0000000E+00;  1.0000000E+03;  4.0000001E-01;  0.0000000E+00;3;  0.0000000E+00;  0.0000000E+00;  0.0000000E+00;0;  0.0000000E+00;  1.0000000E+04;  0.0000000E+00;  0.0000000E+00;  1.0000000E+04;  0.0000000E+00;  1.0000000E+04;  0.0000000E+00;  0.0000000E+00;  0.0000000E+00;  0.0000000E+00;
  1.2200000E+00;  9.9999998E-03;  1.2000000E-01;2911;  0.0000000E+00;  0.0000000E+00;  0.0000000E+00;  1.0000000E+03;  4.0000001E-01;  0.0000000E+00;3;  0.0000000E+00;  0.0000000E+00;  0.0000000E+00;0;  0.0000000E+00;  1.0000000E+04;  0.0000000E+00;  0.0000000E+00;  1.0000000E+04;  0.0000000E+00;  1.0000000E+04;  0.0000000E+00;  0.0000000E+00;  0.0000000E+00;  0.0000000E+00;
  1.2200000E+00;  9.9999998E-03;  1.4000000E-01;2912;  0.0000000E+00;  0.0000000E+00;  0.0000000E+00;  1.0000000E+03;  4.0000001E-01;  0.0000000E+00;3;  0.0000000E+00;  0.0000000E+00;  0.0000000E+00;0;  0.0000000E+00;  1.0000000E+04;  0.0000000E+00;  0.0000000E+00;  1.0000000E+04;  0.0000000E+00;  1.0000000E+04;  0.0000000E+00;  0.0000000E+00;  0.0000000E+00;  0.0000000E+00;
  1.2400000E+00;  9.9999998E-03;  0.0000000E+00;2926;  0.0000000E+00;  0.0000000E+00;  0.0000000E+00;  1.0000000E+03;  4.0000001E-01;  0.0000000E+00;3;  0.0000000E+00;  0.0000000E+00;  0.0000000E+00;0;  0.0000000E+00;  1.0000000E+04;  0.0000000E+00;  0.0000000E+00;  1.0000000E+04;  0.0000000E+00;  1.0000000E+04;  0.0000000E+00;  0.0000000E+00;  0.0000000E+00;  0.0000000E+00;
  1.2400000E+00;  9.9999998E-03;  2.0000000E-02;2927;  0.0000000E+00;  0.0000000E+00;  0.0000000E+00;  1.0000000E+03;  4.0000001E-01;  0.0000000E+00;3;  0.0000000E+00;  0.0000000E+00;  0.0000000E+00;0;  0.0000000E+00;  1.0000000E+04;  0.0000000E+00;  0.0000000E+00;  1.0000000E+04;  0.0000000E+00;  1.0000000E+04;  0.0000000E+00;  0.0000000E+00;  0.0000000E+00;  0.0000000E+00;
  1.2400000E+00;  9.9999998E-03;  3.9999999E-02;2928;  0.0000000E+00;  0.0000000E+00;  0.0000000E+00;  1.0000000E+03;  4.0000001E-01;  0.0000000E+00;3;  0.0000000E+00;  0.0000000E+00;  0.0000000E+00;0;  0.0000000E+00;  1.0000000E+04;  0.0000000E+00;  0.0000000E+00;  1.0000000E+04;  0.0000000E+00;  1.0000000E+04;  0.0000000E+00;  0.0000000E+00;  0.0000000E+00;  0.0000000E+00;
  1.2400000E+00;  9.9999998E-03;  5.9999999E-02;2929;  0.0000000E+00;  0.0000000E+00;  0.0000000E+00;  1.0000000E+03;  4.0000001E-01;  0.0000000E+00;3;  0.0000000E+00;  0.0000000E+00;  0.0000000E+00;0;  0.0000000E+00;  1.0000000E+04;  0.0000000E+00;  0.0000000E+00;  1.0000000E+04;  0.0000000E+00;  1.0000000E+04;  0.0000000E+00;  0.0000000E+00;  0.0000000E+00;  0.0000000E+00;
  1.2400000E+00;  9.9999998E-03;  7.9999998E-02;2930;  0.0000000E+00;  0.0000000E+00;  0.0000000E+00;  1.0000000E+03;  4.0000001E-01;  0.0000000E+00;3;  0.0000000E+00;  0.0000000E+00;  0.0000000E+00;0;  0.0000000E+00;  1.0000000E+04;  0.0000000E+00;  0.0000000E+00;  1.0000000E+04;  0.0000000E+00;  1.0000000E+04;  0.0000000E+00;  0.0000000E+00;  0.0000000E+00;  0.0000000E+00;
  1.2400000E+00;  9.9999998E-03;  1.0000000E-01;2931;  0.0000000E+00;  0.0000000E+00;  0.0000000E+00;  1.0000000E+03;  4.0000001E-01;  0.0000000E+00;3;  0.0000000E+00;  0.0000000E+00;  0.0000000E+00;0;  0.0000000E+00;  1.0000000E+04;  0.0000000E+00;  0.0000000E+00;  1.0000000E+04;  0.0000000E+00;  1.0000000E+04;  0.0000000E+00;  0.0000000E+00;  0.0000000E+00;  0.0000000E+00;
  1.2400000E+00;  9.9999998E-03;  1.2000000E-01;2932;  0.0000000E+00;  0.0000000E+00;  0.0000000E+00;  1.0000000E+03;  4.0000001E-01;  0.0000000E+00;3;  0.0000000E+00;  0.0000000E+00;  0.0000000E+00;0;  0.0000000E+00;  1.0000000E+04;  0.0000000E+00;  0.0000000E+00;  1.0000000E+04;  0.0000000E+00;  1.0000000E+04;  0.0000000E+00;  0.0000000E+00;  0.0000000E+00;  0.0000000E+00;
  1.2400000E+00;  9.9999998E-03;  1.4000000E-01;2933;  0.0000000E+00;  0.0000000E+00;  0.0000000E+00;  1.0000000E+03;  4.0000001E-01;  0.0000000E+00;3;  0.0000000E+00;  0.0000000E+00;  0.0000000E+00;0;  0.0000000E+00;  1.0000000E+04;  0.0000000E+00;  0.0000000E+00;  1.0000000E+04;  0.0000000E+00;  1.0000000E+04;  0.0000000E+00;  0.0000000E+00;  0.0000000E+00;  0.0000000E+00;
  1.2600000E+00;  9.9999998E-03;  0.0000000E+00;2944;  0.0000000E+00;  0.0000000E+00;  0.0000000E+00;  1.0000000E+03;  4.0000001E-01;  0.0000000E+00;3;  0.0000000E+00;  0.0000000E+00;  0.0000000E+00;0;  0.0000000E+00;  1.0000000E+04;  0.0000000E+00;  0.0000000E+00;  1.0000000E+04;  0.0000000E+00;  1.0000000E+04;  0.0000000E+00;  0.0000000E+00;  0.0000000E+00;  0.0000000E+00;
  1.2600000E+00;  9.9999998E-03;  2.0000000E-02;2945;  0.0000000E+00;  0.0000000E+00;  0.0000000E+00;  1.0000000E+03;  4.0000001E-01;  0.0000000E+00;3;  0.0000000E+00;  0.0000000E+00;  0.0000000E+00;0;  0.0000000E+00;  1.0000000E+04;  0.0000000E+00;  0.0000000E+00;  1.0000000E+04;  0.0000000E+00;  1.0000000E+04;  0.0000000E+00;  0.0000000E+00;  0.0000000E+00;  0.0000000E+00;
  1.2600000E+00;  9.9999998E-03;  3.9999999E-02;2946;  0.0000000E+00;  0.0000000E+00;  0.0000000E+00;  1.0000000E+03;  4.0000001E-01;  0.0000000E+00;3;  0.0000000E+00;  0.0000000E+00;  0.0000000E+00;0;  0.0000000E+00;  1.0000000E+04;  0.0000000E+00;  0.0000000E+00;  1.0000000E+04;  0.0000000E+00;  1.0000000E+04;  0.0000000E+00;  0.0000000E+00;  0.0000000E+00;  0.0000000E+00;
  1.2600000E+00;  9.9999998E-03;  5.9999999E-02;2947;  0.0000000E+00;  0.0000000E+00;  0.0000000E+00;  1.0000000E+03;  4.0000001E-01;  0.0000000E+00;3;  0.0000000E+00;  0.0000000E+00;  0.0000000E+00;0;  0.0000000E+00;  1.0000000E+04;  0.0000000E+00;  0.0000000E+00;  1.0000000E+04;  0.0000000E+00;  1.0000000E+04;  0.0000000E+00;  0.0000000E+00;  0.0000000E+00;  0.0000000E+00;
  1.2600000E+00;  9.9999998E-03;  7.9999998E-02;2948;  0.0000000E+00;  0.0000000E+00;  0.0000000E+00;  1.0000000E+03;  4.0000001E-01;  0.0000000E+00;3;  0.0000000E+00;  0.0000000E+00;  0.0000000E+00;0;  0.0000000E+00;  1.0000000E+04;  0.0000000E+00;  0.0000000E+00;  1.0000000E+04;  0.0000000E+00;  1.0000000E+04;  0.0000000E+00;  0.0000000E+00;  0.0000000E+00;  0.0000000E+00;
  1.2600000E+00;  9.9999998E-03;  1.0000000E-01;2949;  0.0000000E+00;  0.0000000E+00;  0.0000000E+00;  1.0000000E+03;  4.0000001E-01;  0.0000000E+00;3;  0.0000000E+00;  0.0000000E+00;  0.0000000E+00;0;  0.0000000E+00;  1.0000000E+04;  0.0000000E+00;  0.0000000E+00;  1.0000000E+04;  0.0000000E+00;  1.0000000E+04;  0.0000000E+00;  0.0000000E+00;  0.0000000E+00;  0.0000000E+00;
  1.2600000E+00;  9.9999998E-03;  1.2000000E-01;2950;  0.0000000E+00;  0.0000000E+00;  0.0000000E+00;  1.0000000E+03;  4.0000001E-01;  0.0000000E+00;3;  0.0000000E+00;  0.0000000E+00;  0.0000000E+00;0;  0.0000000E+00;  1.0000000E+04;  0.0000000E+00;  0.0000000E+00;  1.0000000E+04;  0.0000000E+00;  1.0000000E+04;  0.0000000E+00;  0.0000000E+00;  0.0000000E+00;  0.0000000E+00;
  1.2600000E+00;  9.9999998E-03;  1.4000000E-01;2951;  0.0000000E+00;  0.0000000E+00;  0.0000000E+00;  1.0000000E+03;  4.0000001E-01;  0.0000000E+00;3;  0.0000000E+00;  0.0000000E+00;  0.0000000E+00;0;  0.0000000E+00;  1.0000000E+04;  0.0000000E+00;  0.0000000E+00;  1.0000000E+04;  0.0000000E+00;  1.0000000E+04;  0.0000000E+00;  0.0000000E+00;  0.0000000E+00;  0.0000000E+00;
  1.2800000E+00;  9.9999998E-03;  0.0000000E+00;2959;  0.0000000E+00;  0.0000000E+00;  0.0000000E+00;  1.0000000E+03;  4.0000001E-01;  0.0000000E+00;3;  0.0000000E+00;  0.0000000E+00;  0.0000000E+00;0;  0.0000000E+00;  1.0000000E+04;  0.0000000E+00;  0.0000000E+00;  1.0000000E+04;  0.0000000E+00;  1.0000000E+04;  0.0000000E+00;  0.0000000E+00;  0.0000000E+00;  0.0000000E+00;
  1.2800000E+00;  9.9999998E-03;  2.0000000E-02;2960;  0.0000000E+00;  0.0000000E+00;  0.0000000E+00;  1.0000000E+03;  4.0000001E-01;  0.0000000E+00;3;  0.0000000E+00;  0.0000000E+00;  0.0000000E+00;0;  0.0000000E+00;  1.0000000E+04;  0.0000000E+00;  0.0000000E+00;  1.0000000E+04;  0.0000000E+00;  1.0000000E+04;  0.0000000E+00;  0.0000000E+00;  0.0000000E+00;  0.0000000E+00;
  1.2800000E+00;  9.9999998E-03;  3.9999999E-02;2961;  0.0000000E+00;  0.0000000E+00;  0.0000000E+00;  1.0000000E+03;  4.0000001E-01;  0.0000000E+00;3;  0.0000000E+00;  0.0000000E+00;  0.0000000E+00;0;  0.0000000E+00;  1.0000000E+04;  0.0000000E+00;  0.0000000E+00;  1.0000000E+04;  0.0000000E+00;  1.0000000E+04;  0.0000000E+00;  0.0000000E+00;  0.0000000E+00;  0.0000000E+00;
  1.2800000E+00;  9.9999998E-03;  5.9999999E-02;2962;  0.0000000E+00;  0.0000000E+00;  0.0000000E+00;  1.0000000E+03;  4.0000001E-01;  0.0000000E+00;3;  0.0000000E+00;  0.0000000E+00;  0.0000000E+00;0;  0.0000000E+00;  1.0000000E+04;  0.0000000E+00;  0.0000000E+00;  1.0000000E+04;  0.0000000E+00;  1.0000000E+04;  0.0000000E+00;  0.0000000E+00;  0.0000000E+00;  0.0000000E+00;
  1.2800000E+00;  9.9999998E-03;  7.9999998E-02;2963;  0.0000000E+00;  0.0000000E+00;  0.0000000E+00;  1.0000000E+03;  4.0000001E-01;  0.0000000E+00;3;  0.0000000E+00;  0.0000000E+00;  0.0000000E+00;0;  0.0000000E+00;  1.0000000E+04;  0.0000000E+00;  0.0000000E+00;  1.0000000E+04;  0.0000000E+00;  1.0000000E+04;  0.0000000E+00;  0.0000000E+00;  0.0000000E+00;  0.0000000E+00;
  1.2800000E+00;  9.9999998E-03;  1.0000000E-01;2964;  0.0000000E+00;  0.0000000E+00;  0.0000000E+00;  1.0000000E+03;  4.0000001E-01;  0.0000000E+00;3;  0.0000000E+00;  0.0000000E+00;  0.0000000E+00;0;  0.0000000E+00;  1.0000000E+04;  0.0000000E+00;  0.0000000E+00;  1.0000000E+04;  0.0000000E+00;  1.0000000E+04;  0.0000000E+00;  0.0000000E+00;  0.0000000E+00;  0.0000000E+00;
  1.2800000E+00;  9.9999998E-03;  1.2000000E-01;2965;  0.0000000E+00;  0.0000000E+00;  0.0000000E+00;  1.0000000E+03;  4.0000001E-01;  0.0000000E+00;3;  0.0000000E+00;  0.0000000E+00;  0.0000000E+00;0;  0.0000000E+00;  1.0000000E+04;  0.0000000E+00;  0.0000000E+00;  1.0000000E+04;  0.0000000E+00;  1.0000000E+04;  0.0000000E+00;  0.0000000E+00;  0.0000000E+00;  0.0000000E+00;
  1.3000000E+00;  9.9999998E-03;  0.0000000E+00;2970;  0.0000000E+00;  0.0000000E+00;  0.0000000E+00;  1.0000000E+03;  4.0000001E-01;  0.0000000E+00;3;  0.0000000E+00;  0.0000000E+00;  0.0000000E+00;0;  0.0000000E+00;  1.0000000E+04;  0.0000000E+00;  0.0000000E+00;  1.0000000E+04;  0.0000000E+00;  1.0000000E+04;  0.0000000E+00;  0.0000000E+00;  0.0000000E+00;  0.0000000E+00;
  1.3000000E+00;  9.9999998E-03;  2.0000000E-02;2971;  0.0000000E+00;  0.0000000E+00;  0.0000000E+00;  1.0000000E+03;  4.0000001E-01;  0.0000000E+00;3;  0.0000000E+00;  0.0000000E+00;  0.0000000E+00;0;  0.0000000E+00;  1.0000000E+04;  0.0000000E+00;  0.0000000E+00;  1.0000000E+04;  0.0000000E+00;  1.0000000E+04;  0.0000000E+00;  0.0000000E+00;  0.0000000E+00;  0.0000000E+00;
  1.3000000E+00;  9.9999998E-03;  3.9999999E-02;2972;  0.0000000E+00;  0.0000000E+00;  0.0000000E+00;  1.0000000E+03;  4.0000001E-01;  0.0000000E+00;3;  0.0000000E+00;  0.0000000E+00;  0.0000000E+00;0;  0.0000000E+00;  1.0000000E+04;  0.0000000E+00;  0.0000000E+00;  1.0000000E+04;  0.0000000E+00;  1.0000000E+04;  0.0000000E+00;  0.0000000E+00;  0.0000000E+00;  0.0000000E+00;
  1.3000000E+00;  9.9999998E-03;  5.9999999E-02;2973;  0.0000000E+00;  0.0000000E+00;  0.0000000E+00;  1.0000000E+03;  4.0000001E-01;  0.0000000E+00;3;  0.0000000E+00;  0.0000000E+00;  0.0000000E+00;0;  0.0000000E+00;  1.0000000E+04;  0.0000000E+00;  0.0000000E+00;  1.0000000E+04;  0.0000000E+00;  1.0000000E+04;  0.0000000E+00;  0.0000000E+00;  0.0000000E+00;  0.0000000E+00;
  1.3000000E+00;  9.9999998E-03;  7.9999998E-02;2974;  0.0000000E+00;  0.0000000E+00;  0.0000000E+00;  1.0000000E+03;  4.0000001E-01;  0.0000000E+00;3;  0.0000000E+00;  0.0000000E+00;  0.0000000E+00;0;  0.0000000E+00;  1.0000000E+04;  0.0000000E+00;  0.0000000E+00;  1.0000000E+04;  0.0000000E+00;  1.0000000E+04;  0.0000000E+00;  0.0000000E+00;  0.0000000E+00;  0.0000000E+00;
  0.0000000E+00;  9.9999998E-03;  1.6000000E-01;1053;  0.0000000E+00;  0.0000000E+00;  0.0000000E+00;  1.0000000E+03;  4.0000001E-01;  0.0000000E+00;3;  0.0000000E+00;  0.0000000E+00;  0.0000000E+00;0;  0.0000000E+00;  1.0000000E+04;  0.0000000E+00;  0.0000000E+00;  1.0000000E+04;  0.0000000E+00;  1.0000000E+04;  0.0000000E+00;  0.0000000E+00;  0.0000000E+00;  0.0000000E+00;
  0.0000000E+00;  9.9999998E-03;  1.8000001E-01;1054;  0.0000000E+00;  0.0000000E+00;  0.0000000E+00;  1.0000000E+03;  4.0000001E-01;  0.0000000E+00;3;  0.0000000E+00;  0.0000000E+00;  0.0000000E+00;0;  0.0000000E+00;  1.0000000E+04;  0.0000000E+00;  0.0000000E+00;  1.0000000E+04;  0.0000000E+00;  1.0000000E+04;  0.0000000E+00;  0.0000000E+00;  0.0000000E+00;  0.0000000E+00;
  0.0000000E+00;  9.9999998E-03;  2.0000000E-01;1055;  0.0000000E+00;  0.0000000E+00;  0.0000000E+00;  1.0000000E+03;  4.0000001E-01;  0.0000000E+00;3;  0.0000000E+00;  0.0000000E+00;  0.0000000E+00;0;  0.0000000E+00;  1.0000000E+04;  0.0000000E+00;  0.0000000E+00;  1.0000000E+04;  0.0000000E+00;  1.0000000E+04;  0.0000000E+00;  0.0000000E+00;  0.0000000E+00;  0.0000000E+00;
  0.0000000E+00;  9.9999998E-03;  2.2000000E-01;1056;  0.0000000E+00;  0.0000000E+00;  0.0000000E+00;  1.0000000E+03;  4.0000001E-01;  0.0000000E+00;3;  0.0000000E+00;  0.0000000E+00;  0.0000000E+00;0;  0.0000000E+00;  1.0000000E+04;  0.0000000E+00;  0.0000000E+00;  1.0000000E+04;  0.0000000E+00;  1.0000000E+04;  0.0000000E+00;  0.0000000E+00;  0.0000000E+00;  0.0000000E+00;
  0.0000000E+00;  9.9999998E-03;  2.3999999E-01;1057;  0.0000000E+00;  0.0000000E+00;  0.0000000E+00;  1.0000000E+03;  4.0000001E-01;  0.0000000E+00;3;  0.0000000E+00;  0.0000000E+00;  0.0000000E+00;0;  0.0000000E+00;  1.0000000E+04;  0.0000000E+00;  0.0000000E+00;  1.0000000E+04;  0.0000000E+00;  1.0000000E+04;  0.0000000E+00;  0.0000000E+00;  0.0000000E+00;  0.0000000E+00;
  0.0000000E+00;  9.9999998E-03;  2.5999999E-01;1058;  0.0000000E+00;  0.0000000E+00;  0.0000000E+00;  1.0000000E+03;  4.0000001E-01;  0.0000000E+00;3;  0.0000000E+00;  0.0000000E+00;  0.0000000E+00;0;  0.0000000E+00;  1.0000000E+04;  0.0000000E+00;  0.0000000E+00;  1.0000000E+04;  0.0000000E+00;  1.0000000E+04;  0.0000000E+00;  0.0000000E+00;  0.0000000E+00;  0.0000000E+00;
  0.0000000E+00;  9.9999998E-03;  2.8000000E-01;1059;  0.0000000E+00;  0.0000000E+00;  0.0000000E+00;  1.0000000E+03;  4.0000001E-01;  0.0000000E+00;3;  0.0000000E+00;  0.0000000E+00;  0.0000000E+00;0;  0.0000000E+00;  1.0000000E+04;  0.0000000E+00;  0.0000000E+00;  1.0000000E+04;  0.0000000E+00;  1.0000000E+04;  0.0000000E+00;  0.0000000E+00;  0.0000000E+00;  0.0000000E+00;
  2.0000000E-02;  9.9999998E-03;  1.6000000E-01;1083;  0.0000000E+00;  0.0000000E+00;  0.0000000E+00;  1.0000000E+03;  4.0000001E-01;  0.0000000E+00;3;  0.0000000E+00;  0.0000000E+00;  0.0000000E+00;0;  0.0000000E+00;  1.0000000E+04;  0.0000000E+00;  0.0000000E+00;  1.0000000E+04;  0.0000000E+00;  1.0000000E+04;  0.0000000E+00;  0.0000000E+00;  0.0000000E+00;  0.0000000E+00;
  2.0000000E-02;  9.9999998E-03;  1.8000001E-01;1084;  0.0000000E+00;  0.0000000E+00;  0.0000000E+00;  1.0000000E+03;  4.0000001E-01;  0.0000000E+00;3;  0.0000000E+00;  0.0000000E+00;  0.0000000E+00;0;  0.0000000E+00;  1.0000000E+04;  0.0000000E+00;  0.0000000E+00;  1.0000000E+04;  0.0000000E+00;  1.0000000E+04;  0.0000000E+00;  0.0000000E+00;  0.0000000E+00;  0.0000000E+00;
  2.0000000E-02;  9.9999998E-03;  2.0000000E-01;1085;  0.0000000E+00;  0.0000000E+00;  0.0000000E+00;  1.0000000E+03;  4.0000001E-01;  0.0000000E+00;3;  0.0000000E+00;  0.0000000E+00;  0.0000000E+00;0;  0.0000000E+00;  1.0000000E+04;  0.0000000E+00;  0.0000000E+00;  1.0000000E+04;  0.0000000E+00;  1.0000000E+04;  0.0000000E+00;  0.0000000E+00;  0.0000000E+00;  0.0000000E+00;
  2.0000000E-02;  9.9999998E-03;  2.2000000E-01;1086;  0.0000000E+00;  0.0000000E+00;  0.0000000E+00;  1.0000000E+03;  4.0000001E-01;  0.0000000E+00;3;  0.0000000E+00;  0.0000000E+00;  0.0000000E+00;0;  0.0000000E+00;  1.0000000E+04;  0.0000000E+00;  0.0000000E+00;  1.0000000E+04;  0.0000000E+00;  1.0000000E+04;  0.0000000E+00;  0.0000000E+00;  0.0000000E+00;  0.0000000E+00;
  2.0000000E-02;  9.9999998E-03;  2.3999999E-01;1087;  0.0000000E+00;  0.0000000E+00;  0.0000000E+00;  1.0000000E+03;  4.0000001E-01;  0.0000000E+00;3;  0.0000000E+00;  0.0000000E+00;  0.0000000E+00;0;  0.0000000E+00;  1.0000000E+04;  0.0000000E+00;  0.0000000E+00;  1.0000000E+04;  0.0000000E+00;  1.0000000E+04;  0.0000000E+00;  0.0000000E+00;  0.0000000E+00;  0.0000000E+00;
  2.0000000E-02;  9.9999998E-03;  2.5999999E-01;1088;  0.0000000E+00;  0.0000000E+00;  0.0000000E+00;  1.0000000E+03;  4.0000001E-01;  0.0000000E+00;3;  0.0000000E+00;  0.0000000E+00;  0.0000000E+00;0;  0.0000000E+00;  1.0000000E+04;  0.0000000E+00;  0.0000000E+00;  1.0000000E+04;  0.0000000E+00;  1.0000000E+04;  0.0000000E+00;  0.0000000E+00;  0.0000000E+00;  0.0000000E+00;
  2.0000000E-02;  9.9999998E-03;  2.8000000E-01;1089;  0.0000000E+00;  0.0000000E+00;  0.0000000E+00;  1.0000000E+03;  4.0000001E-01;  0.0000000E+00;3;  0.0000000E+00;  0.0000000E+00;  0.0000000E+00;0;  0.0000000E+00;  1.0000000E+04;  0.0000000E+00;  0.0000000E+00;  1.0000000E+04;  0.0000000E+00;  1.0000000E+04;  0.0000000E+00;  0.0000000E+00;  0.0000000E+00;  0.0000000E+00;
  2.0000000E-02;  9.9999998E-03;  3.0000001E-01;1090;  0.0000000E+00;  0.0000000E+00;  0.0000000E+00;  1.0000000E+03;  4.0000001E-01;  0.0000000E+00;3;  0.0000000E+00;  0.0000000E+00;  0.0000000E+00;0;  0.0000000E+00;  1.0000000E+04;  0.0000000E+00;  0.0000000E+00;  1.0000000E+04;  0.0000000E+00;  1.0000000E+04;  0.0000000E+00;  0.0000000E+00;  0.0000000E+00;  0.0000000E+00;
  3.9999999E-02;  9.9999998E-03;  1.6000000E-01;1114;  0.0000000E+00;  0.0000000E+00;  0.0000000E+00;  1.0000000E+03;  4.0000001E-01;  0.0000000E+00;3;  0.0000000E+00;  0.0000000E+00;  0.0000000E+00;0;  0.0000000E+00;  1.0000000E+04;  0.0000000E+00;  0.0000000E+00;  1.0000000E+04;  0.0000000E+00;  1.0000000E+04;  0.0000000E+00;  0.0000000E+00;  0.0000000E+00;  0.0000000E+00;
  3.9999999E-02;  9.9999998E-03;  1.8000001E-01;1115;  0.0000000E+00;  0.0000000E+00;  0.0000000E+00;  1.0000000E+03;  4.0000001E-01;  0.0000000E+00;3;  0.0000000E+00;  0.0000000E+00;  0.0000000E+00;0;  0.0000000E+00;  1.0000000E+04;  0.0000000E+00;  0.0000000E+00;  1.0000000E+04;  0.0000000E+00;  1.0000000E+04;  0.0000000E+00;  0.0000000E+00;  0.0000000E+00;  0.0000000E+00;
  3.9999999E-02;  9.9999998E-03;  2.0000000E-01;1116;  0.0000000E+00;  0.0000000E+00;  0.0000000E+00;  1.0000000E+03;  4.0000001E-01;  0.0000000E+00;3;  0.0000000E+00;  0.0000000E+00;  0.0000000E+00;0;  0.0000000E+00;  1.0000000E+04;  0.0000000E+00;  0.0000000E+00;  1.0000000E+04;  0.0000000E+00;  1.0000000E+04;  0.0000000E+00;  0.0000000E+00;  0.0000000E+00;  0.0000000E+00;
  3.9999999E-02;  9.9999998E-03;  2.2000000E-01;1117;  0.0000000E+00;  0.0000000E+00;  0.0000000E+00;  1.0000000E+03;  4.0000001E-01;  0.0000000E+00;3;  0.0000000E+00;  0.0000000E+00;  0.0000000E+00;0;  0.0000000E+00;  1.0000000E+04;  0.0000000E+00;  0.0000000E+00;  1.0000000E+04;  0.0000000E+00;  1.0000000E+04;  0.0000000E+00;  0.0000000E+00;  0.0000000E+00;  0.0000000E+00;
  3.9999999E-02;  9.9999998E-03;  2.3999999E-01;1118;  0.0000000E+00;  0.0000000E+00;  0.0000000E+00;  1.0000000E+03;  4.0000001E-01;  0.0000000E+00;3;  0.0000000E+00;  0.0000000E+00;  0.0000000E+00;0;  0.0000000E+00;  1.0000000E+04;  0.0000000E+00;  0.0000000E+00;  1.0000000E+04;  0.0000000E+00;  1.0000000E+04;  0.0000000E+00;  0.0000000E+00;  0.0000000E+00;  0.0000000E+00;
  3.9999999E-02;  9.9999998E-03;  2.5999999E-01;1119;  0.0000000E+00;  0.0000000E+00;  0.0000000E+00;  1.0000000E+03;  4.0000001E-01;  0.0000000E+00;3;  0.0000000E+00;  0.0000000E+00;  0.0000000E+00;0;  0.0000000E+00;  1.0000000E+04;  0.0000000E+00;  0.0000000E+00;  1.0000000E+04;  0.0000000E+00;  1.0000000E+04;  0.0000000E+00;  0.0000000E+00;  0.0000000E+00;  0.0000000E+00;
  3.9999999E-02;  9.9999998E-03;  2.8000000E-01;1120;  0.0000000E+00;  0.0000000E+00;  0.0000000E+00;  1.0000000E+03;  4.0000001E-01;  0.0000000E+00;3;  0.0000000E+00;  0.0000000E+00;  0.0000000E+00;0;  0.0000000E+00;  1.0000000E+04;  0.0000000E+00;  0.0000000E+00;  1.0000000E+04;  0.0000000E+00;  1.0000000E+04;  0.0000000E+00;  0.0000000E+00;  0.0000000E+00;  0.0000000E+00;
  3.9999999E-02;  9.9999998E-03;  3.0000001E-01;1121;  0.0000000E+00;  0.0000000E+00;  0.0000000E+00;  1.0000000E+03;  4.0000001E-01;  0.0000000E+00;3;  0.0000000E+00;  0.0000000E+00;  0.0000000E+00;0;  0.0000000E+00;  1.0000000E+04;  0.0000000E+00;  0.0000000E+00;  1.0000000E+04;  0.0000000E+00;  1.0000000E+04;  0.0000000E+00;  0.0000000E+00;  0.0000000E+00;  0.0000000E+00;
  5.9999999E-02;  9.9999998E-03;  1.6000000E-01;1145;  0.0000000E+00;  0.0000000E+00;  0.0000000E+00;  1.0000000E+03;  4.0000001E-01;  0.0000000E+00;3;  0.0000000E+00;  0.0000000E+00;  0.0000000E+00;0;  0.0000000E+00;  1.0000000E+04;  0.0000000E+00;  0.0000000E+00;  1.0000000E+04;  0.0000000E+00;  1.0000000E+04;  0.0000000E+00;  0.0000000E+00;  0.0000000E+00;  0.0000000E+00;
  5.9999999E-02;  9.9999998E-03;  1.8000001E-01;1146;  0.0000000E+00;  0.0000000E+00;  0.0000000E+00;  1.0000000E+03;  4.0000001E-01;  0.0000000E+00;3;  0.0000000E+00;  0.0000000E+00;  0.0000000E+00;0;  0.0000000E+00;  1.0000000E+04;  0.0000000E+00;  0.0000000E+00;  1.0000000E+04;  0.0000000E+00;  1.0000000E+04;  0.0000000E+00;  0.0000000E+00;  0.0000000E+00;  0.0000000E+00;
  5.9999999E-02;  9.9999998E-03;  2.0000000E-01;1147;  0.0000000E+00;  0.0000000E+00;  0.0000000E+00;  1.0000000E+03;  4.0000001E-01;  0.0000000E+00;3;  0.0000000E+00;  0.0000000E+00;  0.0000000E+00;0;  0.0000000E+00;  1.0000000E+04;  0.0000000E+00;  0.0000000E+00;  1.0000000E+04;  0.0000000E+00;  1.0000000E+04;  0.0000000E+00;  0.0000000E+00;  0.0000000E+00;  0.0000000E+00;
  5.9999999E-02;  9.9999998E-03;  2.2000000E-01;1148;  0.0000000E+00;  0.0000000E+00;  0.0000000E+00;  1.0000000E+03;  4.0000001E-01;  0.0000000E+00;3;  0.0000000E+00;  0.0000000E+00;  0.0000000E+00;0;  0.0000000E+00;  1.0000000E+04;  0.0000000E+00;  0.0000000E+00;  1.0000000E+04;  0.0000000E+00;  1.0000000E+04;  0.0000000E+00;  0.0000000E+00;  0.0000000E+00;  0.0000000E+00;
  5.9999999E-02;  9.9999998E-03;  2.3999999E-01;1149;  0.0000000E+00;  0.0000000E+00;  0.0000000E+00;  1.0000000E+03;  4.0000001E-01;  0.0000000E+00;3;  0.0000000E+00;  0.0000000E+00;  0.0000000E+00;0;  0.0000000E+00;  1.0000000E+04;  0.0000000E+00;  0.0000000E+00;  1.0000000E+04;  0.0000000E+00;  1.0000000E+04;  0.0000000E+00;  0.0000000E+00;  0.0000000E+00;  0.0000000E+00;
  5.9999999E-02;  9.9999998E-03;  2.5999999E-01;1150;  0.0000000E+00;  0.0000000E+00;  0.0000000E+00;  1.0000000E+03;  4.0000001E-01;  0.0000000E+00;3;  0.0000000E+00;  0.0000000E+00;  0.0000000E+00;0;  0.0000000E+00;  1.0000000E+04;  0.0000000E+00;  0.0000000E+00;  1.0000000E+04;  0.0000000E+00;  1.0000000E+04;  0.0000000E+00;  0.0000000E+00;  0.0000000E+00;  0.0000000E+00;
  5.9999999E-02;  9.9999998E-03;  2.8000000E-01;1151;  0.0000000E+00;  0.0000000E+00;  0.0000000E+00;  1.0000000E+03;  4.0000001E-01;  0.0000000E+00;3;  0.0000000E+00;  0.0000000E+00;  0.0000000E+00;0;  0.0000000E+00;  1.0000000E+04;  0.0000000E+00;  0.0000000E+00;  1.0000000E+04;  0.0000000E+00;  1.0000000E+04;  0.0000000E+00;  0.0000000E+00;  0.0000000E+00;  0.0000000E+00;
  5.9999999E-02;  9.9999998E-03;  3.0000001E-01;1152;  0.0000000E+00;  0.0000000E+00;  0.0000000E+00;  1.0000000E+03;  4.0000001E-01;  0.0000000E+00;3;  0.0000000E+00;  0.0000000E+00;  0.0000000E+00;0;  0.0000000E+00;  1.0000000E+04;  0.0000000E+00;  0.0000000E+00;  1.0000000E+04;  0.0000000E+00;  1.0000000E+04;  0.0000000E+00;  0.0000000E+00;  0.0000000E+00;  0.0000000E+00;
  7.9999998E-02;  9.9999998E-03;  1.6000000E-01;1176;  0.0000000E+00;  0.0000000E+00;  0.0000000E+00;  1.0000000E+03;  4.0000001E-01;  0.0000000E+00;3;  0.0000000E+00;  0.0000000E+00;  0.0000000E+00;0;  0.0000000E+00;  1.0000000E+04;  0.0000000E+00;  0.0000000E+00;  1.0000000E+04;  0.0000000E+00;  1.0000000E+04;  0.0000000E+00;  0.0000000E+00;  0.0000000E+00;  0.0000000E+00;
  7.9999998E-02;  9.9999998E-03;  1.8000001E-01;1177;  0.0000000E+00;  0.0000000E+00;  0.0000000E+00;  1.0000000E+03;  4.0000001E-01;  0.0000000E+00;3;  0.0000000E+00;  0.0000000E+00;  0.0000000E+00;0;  0.0000000E+00;  1.0000000E+04;  0.0000000E+00;  0.0000000E+00;  1.0000000E+04;  0.0000000E+00;  1.0000000E+04;  0.0000000E+00;  0.0000000E+00;  0.0000000E+00;  0.0000000E+00;
  7.9999998E-02;  9.9999998E-03;  2.0000000E-01;1178;  0.0000000E+00;  0.0000000E+00;  0.0000000E+00;  1.0000000E+03;  4.0000001E-01;  0.0000000E+00;3;  0.0000000E+00;  0.0000000E+00;  0.0000000E+00;0;  0.0000000E+00;  1.0000000E+04;  0.0000000E+00;  0.0000000E+00;  1.0000000E+04;  0.0000000E+00;  1.0000000E+04;  0.0000000E+00;  0.0000000E+00;  0.0000000E+00;  0.0000000E+00;
  7.9999998E-02;  9.9999998E-03;  2.2000000E-01;1179;  0.0000000E+00;  0.0000000E+00;  0.0000000E+00;  1.0000000E+03;  4.0000001E-01;  0.0000000E+00;3;  0.0000000E+00;  0.0000000E+00;  0.0000000E+00;0;  0.0000000E+00;  1.0000000E+04;  0.0000000E+00;  0.0000000E+00;  1.0000000E+04;  0.0000000E+00;  1.0000000E+04;  0.0000000E+00;  0.0000000E+00;  0.0000000E+00;  0.0000000E+00;
  7.9999998E-02;  9.9999998E-03;  2.3999999E-01;1180;  0.0000000E+00;  0.0000000E+00;  0.0000000E+00;  1.0000000E+03;  4.0000001E-01;  0.0000000E+00;3;  0.0000000E+00;  0.0000000E+00;  0.0000000E+00;0;  0.0000000E+00;  1.0000000E+04;  0.0000000E+00;  0.0000000E+00;  1.0000000E+04;  0.0000000E+00;  1.0000000E+04;  0.0000000E+00;  0.0000000E+00;  0.0000000E+00;  0.0000000E+00;
  7.9999998E-02;  9.9999998E-03;  2.5999999E-01;1181;  0.0000000E+00;  0.0000000E+00;  0.0000000E+00;  1.0000000E+03;  4.0000001E-01;  0.0000000E+00;3;  0.0000000E+00;  0.0000000E+00;  0.0000000E+00;0;  0.0000000E+00;  1.0000000E+04;  0.0000000E+00;  0.0000000E+00;  1.0000000E+04;  0.0000000E+00;  1.0000000E+04;  0.0000000E+00;  0.0000000E+00;  0.0000000E+00;  0.0000000E+00;
  7.9999998E-02;  9.9999998E-03;  2.8000000E-01;1182;  0.0000000E+00;  0.0000000E+00;  0.0000000E+00;  1.0000000E+03;  4.0000001E-01;  0.0000000E+00;3;  0.0000000E+00;  0.0000000E+00;  0.0000000E+00;0;  0.0000000E+00;  1.0000000E+04;  0.0000000E+00;  0.0000000E+00;  1.0000000E+04;  0.0000000E+00;  1.0000000E+04;  0.0000000E+00;  0.0000000E+00;  0.0000000E+00;  0.0000000E+00;
  7.9999998E-02;  9.9999998E-03;  3.0000001E-01;1183;  0.0000000E+00;  0.0000000E+00;  0.0000000E+00;  1.0000000E+03;  4.0000001E-01;  0.0000000E+00;3;  0.0000000E+00;  0.0000000E+00;  0.0000000E+00;0;  0.0000000E+00;  1.0000000E+04;  0.0000000E+00;  0.0000000E+00;  1.0000000E+04;  0.0000000E+00;  1.0000000E+04;  0.0000000E+00;  0.0000000E+00;  0.0000000E+00;  0.0000000E+00;
  1.0000000E-01;  9.9999998E-03;  1.6000000E-01;1207;  0.0000000E+00;  0.0000000E+00;  0.0000000E+00;  1.0000000E+03;  4.0000001E-01;  0.0000000E+00;3;  0.0000000E+00;  0.0000000E+00;  0.0000000E+00;0;  0.0000000E+00;  1.0000000E+04;  0.0000000E+00;  0.0000000E+00;  1.0000000E+04;  0.0000000E+00;  1.0000000E+04;  0.0000000E+00;  0.0000000E+00;  0.0000000E+00;  0.0000000E+00;
  1.0000000E-01;  9.9999998E-03;  1.8000001E-01;1208;  0.0000000E+00;  0.0000000E+00;  0.0000000E+00;  1.0000000E+03;  4.0000001E-01;  0.0000000E+00;3;  0.0000000E+00;  0.0000000E+00;  0.0000000E+00;0;  0.0000000E+00;  1.0000000E+04;  0.0000000E+00;  0.0000000E+00;  1.0000000E+04;  0.0000000E+00;  1.0000000E+04;  0.0000000E+00;  0.0000000E+00;  0.0000000E+00;  0.0000000E+00;
  1.0000000E-01;  9.9999998E-03;  2.0000000E-01;1209;  0.0000000E+00;  0.0000000E+00;  0.0000000E+00;  1.0000000E+03;  4.0000001E-01;  0.0000000E+00;3;  0.0000000E+00;  0.0000000E+00;  0.0000000E+00;0;  0.0000000E+00;  1.0000000E+04;  0.0000000E+00;  0.0000000E+00;  1.0000000E+04;  0.0000000E+00;  1.0000000E+04;  0.0000000E+00;  0.0000000E+00;  0.0000000E+00;  0.0000000E+00;
  1.0000000E-01;  9.9999998E-03;  2.2000000E-01;1210;  0.0000000E+00;  0.0000000E+00;  0.0000000E+00;  1.0000000E+03;  4.0000001E-01;  0.0000000E+00;3;  0.0000000E+00;  0.0000000E+00;  0.0000000E+00;0;  0.0000000E+00;  1.0000000E+04;  0.0000000E+00;  0.0000000E+00;  1.0000000E+04;  0.0000000E+00;  1.0000000E+04;  0.0000000E+00;  0.0000000E+00;  0.0000000E+00;  0.0000000E+00;
  1.0000000E-01;  9.9999998E-03;  2.3999999E-01;1211;  0.0000000E+00;  0.0000000E+00;  0.0000000E+00;  1.0000000E+03;  4.0000001E-01;  0.0000000E+00;3;  0.0000000E+00;  0.0000000E+00;  0.0000000E+00;0;  0.0000000E+00;  1.0000000E+04;  0.0000000E+00;  0.0000000E+00;  1.0000000E+04;  0.0000000E+00;  1.0000000E+04;  0.0000000E+00;  0.0000000E+00;  0.0000000E+00;  0.0000000E+00;
  1.0000000E-01;  9.9999998E-03;  2.5999999E-01;1212;  0.0000000E+00;  0.0000000E+00;  0.0000000E+00;  1.0000000E+03;  4.0000001E-01;  0.0000000E+00;3;  0.0000000E+00;  0.0000000E+00;  0.0000000E+00;0;  0.0000000E+00;  1.0000000E+04;  0.0000000E+00;  0.0000000E+00;  1.0000000E+04;  0.0000000E+00;  1.0000000E+04;  0.0000000E+00;  0.0000000E+00;  0.0000000E+00;  0.0000000E+00;
  1.0000000E-01;  9.9999998E-03;  2.8000000E-01;1213;  0.0000000E+00;  0.0000000E+00;  0.0000000E+00;  1.0000000E+03;  4.0000001E-01;  0.0000000E+00;3;  0.0000000E+00;  0.0000000E+00;  0.0000000E+00;0;  0.0000000E+00;  1.0000000E+04;  0.0000000E+00;  0.0000000E+00;  1.0000000E+04;  0.0000000E+00;  1.0000000E+04;  0.0000000E+00;  0.0000000E+00;  0.0000000E+00;  0.0000000E+00;
  1.0000000E-01;  9.9999998E-03;  3.0000001E-01;1214;  0.0000000E+00;  0.0000000E+00;  0.0000000E+00;  1.0000000E+03;  4.0000001E-01;  0.0000000E+00;3;  0.0000000E+00;  0.0000000E+00;  0.0000000E+00;0;  0.0000000E+00;  1.0000000E+04;  0.0000000E+00;  0.0000000E+00;  1.0000000E+04;  0.0000000E+00;  1.0000000E+04;  0.0000000E+00;  0.0000000E+00;  0.0000000E+00;  0.0000000E+00;
  1.2000000E-01;  9.9999998E-03;  1.6000000E-01;1238;  0.0000000E+00;  0.0000000E+00;  0.0000000E+00;  1.0000000E+03;  4.0000001E-01;  0.0000000E+00;3;  0.0000000E+00;  0.0000000E+00;  0.0000000E+00;0;  0.0000000E+00;  1.0000000E+04;  0.0000000E+00;  0.0000000E+00;  1.0000000E+04;  0.0000000E+00;  1.0000000E+04;  0.0000000E+00;  0.0000000E+00;  0.0000000E+00;  0.0000000E+00;
  1.2000000E-01;  9.9999998E-03;  1.8000001E-01;1239;  0.0000000E+00;  0.0000000E+00;  0.0000000E+00;  1.0000000E+03;  4.0000001E-01;  0.0000000E+00;3;  0.0000000E+00;  0.0000000E+00;  0.0000000E+00;0;  0.0000000E+00;  1.0000000E+04;  0.0000000E+00;  0.0000000E+00;  1.0000000E+04;  0.0000000E+00;  1.0000000E+04;  0.0000000E+00;  0.0000000E+00;  0.0000000E+00;  0.0000000E+00;
  1.2000000E-01;  9.9999998E-03;  2.0000000E-01;1240;  0.0000000E+00;  0.0000000E+00;  0.0000000E+00;  1.0000000E+03;  4.0000001E-01;  0.0000000E+00;3;  0.0000000E+00;  0.0000000E+00;  0.0000000E+00;0;  0.0000000E+00;  1.0000000E+04;  0.0000000E+00;  0.0000000E+00;  1.0000000E+04;  0.0000000E+00;  1.0000000E+04;  0.0000000E+00;  0.0000000E+00;  0.0000000E+00;  0.0000000E+00;
  1.2000000E-01;  9.9999998E-03;  2.2000000E-01;1241;  0.0000000E+00;  0.0000000E+00;  0.0000000E+00;  1.0000000E+03;  4.0000001E-01;  0.0000000E+00;3;  0.0000000E+00;  0.0000000E+00;  0.0000000E+00;0;  0.0000000E+00;  1.0000000E+04;  0.0000000E+00;  0.0000000E+00;  1.0000000E+04;  0.0000000E+00;  1.0000000E+04;  0.0000000E+00;  0.0000000E+00;  0.0000000E+00;  0.0000000E+00;
  1.2000000E-01;  9.9999998E-03;  2.3999999E-01;1242;  0.0000000E+00;  0.0000000E+00;  0.0000000E+00;  1.0000000E+03;  4.0000001E-01;  0.0000000E+00;3;  0.0000000E+00;  0.0000000E+00;  0.0000000E+00;0;  0.0000000E+00;  1.0000000E+04;  0.0000000E+00;  0.0000000E+00;  1.0000000E+04;  0.0000000E+00;  1.0000000E+04;  0.0000000E+00;  0.0000000E+00;  0.0000000E+00;  0.0000000E+00;
  1.2000000E-01;  9.9999998E-03;  2.5999999E-01;1243;  0.0000000E+00;  0.0000000E+00;  0.0000000E+00;  1.0000000E+03;  4.0000001E-01;  0.0000000E+00;3;  0.0000000E+00;  0.0000000E+00;  0.0000000E+00;0;  0.0000000E+00;  1.0000000E+04;  0.0000000E+00;  0.0000000E+00;  1.0000000E+04;  0.0000000E+00;  1.0000000E+04;  0.0000000E+00;  0.0000000E+00;  0.0000000E+00;  0.0000000E+00;
  1.2000000E-01;  9.9999998E-03;  2.8000000E-01;1244;  0.0000000E+00;  0.0000000E+00;  0.0000000E+00;  1.0000000E+03;  4.0000001E-01;  0.0000000E+00;3;  0.0000000E+00;  0.0000000E+00;  0.0000000E+00;0;  0.0000000E+00;  1.0000000E+04;  0.0000000E+00;  0.0000000E+00;  1.0000000E+04;  0.0000000E+00;  1.0000000E+04;  0.0000000E+00;  0.0000000E+00;  0.0000000E+00;  0.0000000E+00;
  1.2000000E-01;  9.9999998E-03;  3.0000001E-01;1245;  0.0000000E+00;  0.0000000E+00;  0.0000000E+00;  1.0000000E+03;  4.0000001E-01;  0.0000000E+00;3;  0.0000000E+00;  0.0000000E+00;  0.0000000E+00;0;  0.0000000E+00;  1.0000000E+04;  0.0000000E+00;  0.0000000E+00;  1.0000000E+04;  0.0000000E+00;  1.0000000E+04;  0.0000000E+00;  0.0000000E+00;  0.0000000E+00;  0.0000000E+00;
  1.4000000E-01;  9.9999998E-03;  1.6000000E-01;1269;  0.0000000E+00;  0.0000000E+00;  0.0000000E+00;  1.0000000E+03;  4.0000001E-01;  0.0000000E+00;3;  0.0000000E+00;  0.0000000E+00;  0.0000000E+00;0;  0.0000000E+00;  1.0000000E+04;  0.0000000E+00;  0.0000000E+00;  1.0000000E+04;  0.0000000E+00;  1.0000000E+04;  0.0000000E+00;  0.0000000E+00;  0.0000000E+00;  0.0000000E+00;
  1.4000000E-01;  9.9999998E-03;  1.8000001E-01;1270;  0.0000000E+00;  0.0000000E+00;  0.0000000E+00;  1.0000000E+03;  4.0000001E-01;  0.0000000E+00;3;  0.0000000E+00;  0.0000000E+00;  0.0000000E+00;0;  0.0000000E+00;  1.0000000E+04;  0.0000000E+00;  0.0000000E+00;  1.0000000E+04;  0.0000000E+00;  1.0000000E+04;  0.0000000E+00;  0.0000000E+00;  0.0000000E+00;  0.0000000E+00;
  1.4000000E-01;  9.9999998E-03;  2.0000000E-01;1271;  0.0000000E+00;  0.0000000E+00;  0.0000000E+00;  1.0000000E+03;  4.0000001E-01;  0.0000000E+00;3;  0.0000000E+00;  0.0000000E+00;  0.0000000E+00;0;  0.0000000E+00;  1.0000000E+04;  0.0000000E+00;  0.0000000E+00;  1.0000000E+04;  0.0000000E+00;  1.0000000E+04;  0.0000000E+00;  0.0000000E+00;  0.0000000E+00;  0.0000000E+00;
  1.4000000E-01;  9.9999998E-03;  2.2000000E-01;1272;  0.0000000E+00;  0.0000000E+00;  0.0000000E+00;  1.0000000E+03;  4.0000001E-01;  0.0000000E+00;3;  0.0000000E+00;  0.0000000E+00;  0.0000000E+00;0;  0.0000000E+00;  1.0000000E+04;  0.0000000E+00;  0.0000000E+00;  1.0000000E+04;  0.0000000E+00;  1.0000000E+04;  0.0000000E+00;  0.0000000E+00;  0.0000000E+00;  0.0000000E+00;
  1.4000000E-01;  9.9999998E-03;  2.3999999E-01;1273;  0.0000000E+00;  0.0000000E+00;  0.0000000E+00;  1.0000000E+03;  4.0000001E-01;  0.0000000E+00;3;  0.0000000E+00;  0.0000000E+00;  0.0000000E+00;0;  0.0000000E+00;  1.0000000E+04;  0.0000000E+00;  0.0000000E+00;  1.0000000E+04;  0.0000000E+00;  1.0000000E+04;  0.0000000E+00;  0.0000000E+00;  0.0000000E+00;  0.0000000E+00;
  1.4000000E-01;  9.9999998E-03;  2.5999999E-01;1274;  0.0000000E+00;  0.0000000E+00;  0.0000000E+00;  1.0000000E+03;  4.0000001E-01;  0.0000000E+00;3;  0.0000000E+00;  0.0000000E+00;  0.0000000E+00;0;  0.0000000E+00;  1.0000000E+04;  0.0000000E+00;  0.0000000E+00;  1.0000000E+04;  0.0000000E+00;  1.0000000E+04;  0.0000000E+00;  0.0000000E+00;  0.0000000E+00;  0.0000000E+00;
  1.4000000E-01;  9.9999998E-03;  2.8000000E-01;1275;  0.0000000E+00;  0.0000000E+00;  0.0000000E+00;  1.0000000E+03;  4.0000001E-01;  0.0000000E+00;3;  0.0000000E+00;  0.0000000E+00;  0.0000000E+00;0;  0.0000000E+00;  1.0000000E+04;  0.0000000E+00;  0.0000000E+00;  1.0000000E+04;  0.0000000E+00;  1.0000000E+04;  0.0000000E+00;  0.0000000E+00;  0.0000000E+00;  0.0000000E+00;
  1.4000000E-01;  9.9999998E-03;  3.0000001E-01;1276;  0.0000000E+00;  0.0000000E+00;  0.0000000E+00;  1.0000000E+03;  4.0000001E-01;  0.0000000E+00;3;  0.0000000E+00;  0.0000000E+00;  0.0000000E+00;0;  0.0000000E+00;  1.0000000E+04;  0.0000000E+00;  0.0000000E+00;  1.0000000E+04;  0.0000000E+00;  1.0000000E+04;  0.0000000E+00;  0.0000000E+00;  0.0000000E+00;  0.0000000E+00;
  1.6000000E-01;  9.9999998E-03;  1.6000000E-01;1300;  0.0000000E+00;  0.0000000E+00;  0.0000000E+00;  1.0000000E+03;  4.0000001E-01;  0.0000000E+00;3;  0.0000000E+00;  0.0000000E+00;  0.0000000E+00;0;  0.0000000E+00;  1.0000000E+04;  0.0000000E+00;  0.0000000E+00;  1.0000000E+04;  0.0000000E+00;  1.0000000E+04;  0.0000000E+00;  0.0000000E+00;  0.0000000E+00;  0.0000000E+00;
  1.6000000E-01;  9.9999998E-03;  1.8000001E-01;1301;  0.0000000E+00;  0.0000000E+00;  0.0000000E+00;  1.0000000E+03;  4.0000001E-01;  0.0000000E+00;3;  0.0000000E+00;  0.0000000E+00;  0.0000000E+00;0;  0.0000000E+00;  1.0000000E+04;  0.0000000E+00;  0.0000000E+00;  1.0000000E+04;  0.0000000E+00;  1.0000000E+04;  0.0000000E+00;  0.0000000E+00;  0.0000000E+00;  0.0000000E+00;
  1.6000000E-01;  9.9999998E-03;  2.0000000E-01;1302;  0.0000000E+00;  0.0000000E+00;  0.0000000E+00;  1.0000000E+03;  4.0000001E-01;  0.0000000E+00;3;  0.0000000E+00;  0.0000000E+00;  0.0000000E+00;0;  0.0000000E+00;  1.0000000E+04;  0.0000000E+00;  0.0000000E+00;  1.0000000E+04;  0.0000000E+00;  1.0000000E+04;  0.0000000E+00;  0.0000000E+00;  0.0000000E+00;  0.0000000E+00;
  1.6000000E-01;  9.9999998E-03;  2.2000000E-01;1303;  0.0000000E+00;  0.0000000E+00;  0.0000000E+00;  1.0000000E+03;  4.0000001E-01;  0.0000000E+00;3;  0.0000000E+00;  0.0000000E+00;  0.0000000E+00;0;  0.0000000E+00;  1.0000000E+04;  0.0000000E+00;  0.0000000E+00;  1.0000000E+04;  0.0000000E+00;  1.0000000E+04;  0.0000000E+00;  0.0000000E+00;  0.0000000E+00;  0.0000000E+00;
  1.6000000E-01;  9.9999998E-03;  2.3999999E-01;1304;  0.0000000E+00;  0.0000000E+00;  0.0000000E+00;  1.0000000E+03;  4.0000001E-01;  0.0000000E+00;3;  0.0000000E+00;  0.0000000E+00;  0.0000000E+00;0;  0.0000000E+00;  1.0000000E+04;  0.0000000E+00;  0.0000000E+00;  1.0000000E+04;  0.0000000E+00;  1.0000000E+04;  0.0000000E+00;  0.0000000E+00;  0.0000000E+00;  0.0000000E+00;
  1.6000000E-01;  9.9999998E-03;  2.5999999E-01;1305;  0.0000000E+00;  0.0000000E+00;  0.0000000E+00;  1.0000000E+03;  4.0000001E-01;  0.0000000E+00;3;  0.0000000E+00;  0.0000000E+00;  0.0000000E+00;0;  0.0000000E+00;  1.0000000E+04;  0.0000000E+00;  0.0000000E+00;  1.0000000E+04;  0.0000000E+00;  1.0000000E+04;  0.0000000E+00;  0.0000000E+00;  0.0000000E+00;  0.0000000E+00;
  1.6000000E-01;  9.9999998E-03;  2.8000000E-01;1306;  0.0000000E+00;  0.0000000E+00;  0.0000000E+00;  1.0000000E+03;  4.0000001E-01;  0.0000000E+00;3;  0.0000000E+00;  0.0000000E+00;  0.0000000E+00;0;  0.0000000E+00;  1.0000000E+04;  0.0000000E+00;  0.0000000E+00;  1.0000000E+04;  0.0000000E+00;  1.0000000E+04;  0.0000000E+00;  0.0000000E+00;  0.0000000E+00;  0.0000000E+00;
  1.6000000E-01;  9.9999998E-03;  3.0000001E-01;1307;  0.0000000E+00;  0.0000000E+00;  0.0000000E+00;  1.0000000E+03;  4.0000001E-01;  0.0000000E+00;3;  0.0000000E+00;  0.0000000E+00;  0.0000000E+00;0;  0.0000000E+00;  1.0000000E+04;  0.0000000E+00;  0.0000000E+00;  1.0000000E+04;  0.0000000E+00;  1.0000000E+04;  0.0000000E+00;  0.0000000E+00;  0.0000000E+00;  0.0000000E+00;
  1.8000001E-01;  9.9999998E-03;  1.6000000E-01;1331;  0.0000000E+00;  0.0000000E+00;  0.0000000E+00;  1.0000000E+03;  4.0000001E-01;  0.0000000E+00;3;  0.0000000E+00;  0.0000000E+00;  0.0000000E+00;0;  0.0000000E+00;  1.0000000E+04;  0.0000000E+00;  0.0000000E+00;  1.0000000E+04;  0.0000000E+00;  1.0000000E+04;  0.0000000E+00;  0.0000000E+00;  0.0000000E+00;  0.0000000E+00;
  1.8000001E-01;  9.9999998E-03;  1.8000001E-01;1332;  0.0000000E+00;  0.0000000E+00;  0.0000000E+00;  1.0000000E+03;  4.0000001E-01;  0.0000000E+00;3;  0.0000000E+00;  0.0000000E+00;  0.0000000E+00;0;  0.0000000E+00;  1.0000000E+04;  0.0000000E+00;  0.0000000E+00;  1.0000000E+04;  0.0000000E+00;  1.0000000E+04;  0.0000000E+00;  0.0000000E+00;  0.0000000E+00;  0.0000000E+00;
  1.8000001E-01;  9.9999998E-03;  2.0000000E-01;1333;  0.0000000E+00;  0.0000000E+00;  0.0000000E+00;  1.0000000E+03;  4.0000001E-01;  0.0000000E+00;3;  0.0000000E+00;  0.0000000E+00;  0.0000000E+00;0;  0.0000000E+00;  1.0000000E+04;  0.0000000E+00;  0.0000000E+00;  1.0000000E+04;  0.0000000E+00;  1.0000000E+04;  0.0000000E+00;  0.0000000E+00;  0.0000000E+00;  0.0000000E+00;
  1.8000001E-01;  9.9999998E-03;  2.2000000E-01;1334;  0.0000000E+00;  0.0000000E+00;  0.0000000E+00;  1.0000000E+03;  4.0000001E-01;  0.0000000E+00;3;  0.0000000E+00;  0.0000000E+00;  0.0000000E+00;0;  0.0000000E+00;  1.0000000E+04;  0.0000000E+00;  0.0000000E+00;  1.0000000E+04;  0.0000000E+00;  1.0000000E+04;  0.0000000E+00;  0.0000000E+00;  0.0000000E+00;  0.0000000E+00;
  1.8000001E-01;  9.9999998E-03;  2.3999999E-01;1335;  0.0000000E+00;  0.0000000E+00;  0.0000000E+00;  1.0000000E+03;  4.0000001E-01;  0.0000000E+00;3;  0.0000000E+00;  0.0000000E+00;  0.0000000E+00;0;  0.0000000E+00;  1.0000000E+04;  0.0000000E+00;  0.0000000E+00;  1.0000000E+04;  0.0000000E+00;  1.0000000E+04;  0.0000000E+00;  0.0000000E+00;  0.0000000E+00;  0.0000000E+00;
  1.8000001E-01;  9.9999998E-03;  2.5999999E-01;1336;  0.0000000E+00;  0.0000000E+00;  0.0000000E+00;  1.0000000E+03;  4.0000001E-01;  0.0000000E+00;3;  0.0000000E+00;  0.0000000E+00;  0.0000000E+00;0;  0.0000000E+00;  1.0000000E+04;  0.0000000E+00;  0.0000000E+00;  1.0000000E+04;  0.0000000E+00;  1.0000000E+04;  0.0000000E+00;  0.0000000E+00;  0.0000000E+00;  0.0000000E+00;
  1.8000001E-01;  9.9999998E-03;  2.8000000E-01;1337;  0.0000000E+00;  0.0000000E+00;  0.0000000E+00;  1.0000000E+03;  4.0000001E-01;  0.0000000E+00;3;  0.0000000E+00;  0.0000000E+00;  0.0000000E+00;0;  0.0000000E+00;  1.0000000E+04;  0.0000000E+00;  0.0000000E+00;  1.0000000E+04;  0.0000000E+00;  1.0000000E+04;  0.0000000E+00;  0.0000000E+00;  0.0000000E+00;  0.0000000E+00;
  1.8000001E-01;  9.9999998E-03;  3.0000001E-01;1338;  0.0000000E+00;  0.0000000E+00;  0.0000000E+00;  1.0000000E+03;  4.0000001E-01;  0.0000000E+00;3;  0.0000000E+00;  0.0000000E+00;  0.0000000E+00;0;  0.0000000E+00;  1.0000000E+04;  0.0000000E+00;  0.0000000E+00;  1.0000000E+04;  0.0000000E+00;  1.0000000E+04;  0.0000000E+00;  0.0000000E+00;  0.0000000E+00;  0.0000000E+00;
  2.0000000E-01;  9.9999998E-03;  1.6000000E-01;1362;  0.0000000E+00;  0.0000000E+00;  0.0000000E+00;  1.0000000E+03;  4.0000001E-01;  0.0000000E+00;3;  0.0000000E+00;  0.0000000E+00;  0.0000000E+00;0;  0.0000000E+00;  1.0000000E+04;  0.0000000E+00;  0.0000000E+00;  1.0000000E+04;  0.0000000E+00;  1.0000000E+04;  0.0000000E+00;  0.0000000E+00;  0.0000000E+00;  0.0000000E+00;
  2.0000000E-01;  9.9999998E-03;  1.8000001E-01;1363;  0.0000000E+00;  0.0000000E+00;  0.0000000E+00;  1.0000000E+03;  4.0000001E-01;  0.0000000E+00;3;  0.0000000E+00;  0.0000000E+00;  0.0000000E+00;0;  0.0000000E+00;  1.0000000E+04;  0.0000000E+00;  0.0000000E+00;  1.0000000E+04;  0.0000000E+00;  1.0000000E+04;  0.0000000E+00;  0.0000000E+00;  0.0000000E+00;  0.0000000E+00;
  2.0000000E-01;  9.9999998E-03;  2.0000000E-01;1364;  0.0000000E+00;  0.0000000E+00;  0.0000000E+00;  1.0000000E+03;  4.0000001E-01;  0.0000000E+00;3;  0.0000000E+00;  0.0000000E+00;  0.0000000E+00;0;  0.0000000E+00;  1.0000000E+04;  0.0000000E+00;  0.0000000E+00;  1.0000000E+04;  0.0000000E+00;  1.0000000E+04;  0.0000000E+00;  0.0000000E+00;  0.0000000E+00;  0.0000000E+00;
  2.0000000E-01;  9.9999998E-03;  2.2000000E-01;1365;  0.0000000E+00;  0.0000000E+00;  0.0000000E+00;  1.0000000E+03;  4.0000001E-01;  0.0000000E+00;3;  0.0000000E+00;  0.0000000E+00;  0.0000000E+00;0;  0.0000000E+00;  1.0000000E+04;  0.0000000E+00;  0.0000000E+00;  1.0000000E+04;  0.0000000E+00;  1.0000000E+04;  0.0000000E+00;  0.0000000E+00;  0.0000000E+00;  0.0000000E+00;
  2.0000000E-01;  9.9999998E-03;  2.3999999E-01;1366;  0.0000000E+00;  0.0000000E+00;  0.0000000E+00;  1.0000000E+03;  4.0000001E-01;  0.0000000E+00;3;  0.0000000E+00;  0.0000000E+00;  0.0000000E+00;0;  0.0000000E+00;  1.0000000E+04;  0.0000000E+00;  0.0000000E+00;  1.0000000E+04;  0.0000000E+00;  1.0000000E+04;  0.0000000E+00;  0.0000000E+00;  0.0000000E+00;  0.0000000E+00;
  2.0000000E-01;  9.9999998E-03;  2.5999999E-01;1367;  0.0000000E+00;  0.0000000E+00;  0.0000000E+00;  1.0000000E+03;  4.0000001E-01;  0.0000000E+00;3;  0.0000000E+00;  0.0000000E+00;  0.0000000E+00;0;  0.0000000E+00;  1.0000000E+04;  0.0000000E+00;  0.0000000E+00;  1.0000000E+04;  0.0000000E+00;  1.0000000E+04;  0.0000000E+00;  0.0000000E+00;  0.0000000E+00;  0.0000000E+00;
  2.0000000E-01;  9.9999998E-03;  2.8000000E-01;1368;  0.0000000E+00;  0.0000000E+00;  0.0000000E+00;  1.0000000E+03;  4.0000001E-01;  0.0000000E+00;3;  0.0000000E+00;  0.0000000E+00;  0.0000000E+00;0;  0.0000000E+00;  1.0000000E+04;  0.0000000E+00;  0.0000000E+00;  1.0000000E+04;  0.0000000E+00;  1.0000000E+04;  0.0000000E+00;  0.0000000E+00;  0.0000000E+00;  0.0000000E+00;
  2.0000000E-01;  9.9999998E-03;  3.0000001E-01;1369;  0.0000000E+00;  0.0000000E+00;  0.0000000E+00;  1.0000000E+03;  4.0000001E-01;  0.0000000E+00;3;  0.0000000E+00;  0.0000000E+00;  0.0000000E+00;0;  0.0000000E+00;  1.0000000E+04;  0.0000000E+00;  0.0000000E+00;  1.0000000E+04;  0.0000000E+00;  1.0000000E+04;  0.0000000E+00;  0.0000000E+00;  0.0000000E+00;  0.0000000E+00;
  2.2000000E-01;  9.9999998E-03;  1.6000000E-01;1393;  0.0000000E+00;  0.0000000E+00;  0.0000000E+00;  1.0000000E+03;  4.0000001E-01;  0.0000000E+00;3;  0.0000000E+00;  0.0000000E+00;  0.0000000E+00;0;  0.0000000E+00;  1.0000000E+04;  0.0000000E+00;  0.0000000E+00;  1.0000000E+04;  0.0000000E+00;  1.0000000E+04;  0.0000000E+00;  0.0000000E+00;  0.0000000E+00;  0.0000000E+00;
  2.2000000E-01;  9.9999998E-03;  1.8000001E-01;1394;  0.0000000E+00;  0.0000000E+00;  0.0000000E+00;  1.0000000E+03;  4.0000001E-01;  0.0000000E+00;3;  0.0000000E+00;  0.0000000E+00;  0.0000000E+00;0;  0.0000000E+00;  1.0000000E+04;  0.0000000E+00;  0.0000000E+00;  1.0000000E+04;  0.0000000E+00;  1.0000000E+04;  0.0000000E+00;  0.0000000E+00;  0.0000000E+00;  0.0000000E+00;
  2.2000000E-01;  9.9999998E-03;  2.0000000E-01;1395;  0.0000000E+00;  0.0000000E+00;  0.0000000E+00;  1.0000000E+03;  4.0000001E-01;  0.0000000E+00;3;  0.0000000E+00;  0.0000000E+00;  0.0000000E+00;0;  0.0000000E+00;  1.0000000E+04;  0.0000000E+00;  0.0000000E+00;  1.0000000E+04;  0.0000000E+00;  1.0000000E+04;  0.0000000E+00;  0.0000000E+00;  0.0000000E+00;  0.0000000E+00;
  2.2000000E-01;  9.9999998E-03;  2.2000000E-01;1396;  0.0000000E+00;  0.0000000E+00;  0.0000000E+00;  1.0000000E+03;  4.0000001E-01;  0.0000000E+00;3;  0.0000000E+00;  0.0000000E+00;  0.0000000E+00;0;  0.0000000E+00;  1.0000000E+04;  0.0000000E+00;  0.0000000E+00;  1.0000000E+04;  0.0000000E+00;  1.0000000E+04;  0.0000000E+00;  0.0000000E+00;  0.0000000E+00;  0.0000000E+00;
  2.2000000E-01;  9.9999998E-03;  2.3999999E-01;1397;  0.0000000E+00;  0.0000000E+00;  0.0000000E+00;  1.0000000E+03;  4.0000001E-01;  0.0000000E+00;3;  0.0000000E+00;  0.0000000E+00;  0.0000000E+00;0;  0.0000000E+00;  1.0000000E+04;  0.0000000E+00;  0.0000000E+00;  1.0000000E+04;  0.0000000E+00;  1.0000000E+04;  0.0000000E+00;  0.0000000E+00;  0.0000000E+00;  0.0000000E+00;
  2.2000000E-01;  9.9999998E-03;  2.5999999E-01;1398;  0.0000000E+00;  0.0000000E+00;  0.0000000E+00;  1.0000000E+03;  4.0000001E-01;  0.0000000E+00;3;  0.0000000E+00;  0.0000000E+00;  0.0000000E+00;0;  0.0000000E+00;  1.0000000E+04;  0.0000000E+00;  0.0000000E+00;  1.0000000E+04;  0.0000000E+00;  1.0000000E+04;  0.0000000E+00;  0.0000000E+00;  0.0000000E+00;  0.0000000E+00;
  2.2000000E-01;  9.9999998E-03;  2.8000000E-01;1399;  0.0000000E+00;  0.0000000E+00;  0.0000000E+00;  1.0000000E+03;  4.0000001E-01;  0.0000000E+00;3;  0.0000000E+00;  0.0000000E+00;  0.0000000E+00;0;  0.0000000E+00;  1.0000000E+04;  0.0000000E+00;  0.0000000E+00;  1.0000000E+04;  0.0000000E+00;  1.0000000E+04;  0.0000000E+00;  0.0000000E+00;  0.0000000E+00;  0.0000000E+00;
  2.2000000E-01;  9.9999998E-03;  3.0000001E-01;1400;  0.0000000E+00;  0.0000000E+00;  0.0000000E+00;  1.0000000E+03;  4.0000001E-01;  0.0000000E+00;3;  0.0000000E+00;  0.0000000E+00;  0.0000000E+00;0;  0.0000000E+00;  1.0000000E+04;  0.0000000E+00;  0.0000000E+00;  1.0000000E+04;  0.0000000E+00;  1.0000000E+04;  0.0000000E+00;  0.0000000E+00;  0.0000000E+00;  0.0000000E+00;
  2.3999999E-01;  9.9999998E-03;  1.6000000E-01;1424;  0.0000000E+00;  0.0000000E+00;  0.0000000E+00;  1.0000000E+03;  4.0000001E-01;  0.0000000E+00;3;  0.0000000E+00;  0.0000000E+00;  0.0000000E+00;0;  0.0000000E+00;  1.0000000E+04;  0.0000000E+00;  0.0000000E+00;  1.0000000E+04;  0.0000000E+00;  1.0000000E+04;  0.0000000E+00;  0.0000000E+00;  0.0000000E+00;  0.0000000E+00;
  2.3999999E-01;  9.9999998E-03;  1.8000001E-01;1425;  0.0000000E+00;  0.0000000E+00;  0.0000000E+00;  1.0000000E+03;  4.0000001E-01;  0.0000000E+00;3;  0.0000000E+00;  0.0000000E+00;  0.0000000E+00;0;  0.0000000E+00;  1.0000000E+04;  0.0000000E+00;  0.0000000E+00;  1.0000000E+04;  0.0000000E+00;  1.0000000E+04;  0.0000000E+00;  0.0000000E+00;  0.0000000E+00;  0.0000000E+00;
  2.3999999E-01;  9.9999998E-03;  2.0000000E-01;1426;  0.0000000E+00;  0.0000000E+00;  0.0000000E+00;  1.0000000E+03;  4.0000001E-01;  0.0000000E+00;3;  0.0000000E+00;  0.0000000E+00;  0.0000000E+00;0;  0.0000000E+00;  1.0000000E+04;  0.0000000E+00;  0.0000000E+00;  1.0000000E+04;  0.0000000E+00;  1.0000000E+04;  0.0000000E+00;  0.0000000E+00;  0.0000000E+00;  0.0000000E+00;
  2.3999999E-01;  9.9999998E-03;  2.2000000E-01;1427;  0.0000000E+00;  0.0000000E+00;  0.0000000E+00;  1.0000000E+03;  4.0000001E-01;  0.0000000E+00;3;  0.0000000E+00;  0.0000000E+00;  0.0000000E+00;0;  0.0000000E+00;  1.0000000E+04;  0.0000000E+00;  0.0000000E+00;  1.0000000E+04;  0.0000000E+00;  1.0000000E+04;  0.0000000E+00;  0.0000000E+00;  0.0000000E+00;  0.0000000E+00;
  2.3999999E-01;  9.9999998E-03;  2.3999999E-01;1428;  0.0000000E+00;  0.0000000E+00;  0.0000000E+00;  1.0000000E+03;  4.0000001E-01;  0.0000000E+00;3;  0.0000000E+00;  0.0000000E+00;  0.0000000E+00;0;  0.0000000E+00;  1.0000000E+04;  0.0000000E+00;  0.0000000E+00;  1.0000000E+04;  0.0000000E+00;  1.0000000E+04;  0.0000000E+00;  0.0000000E+00;  0.0000000E+00;  0.0000000E+00;
  2.3999999E-01;  9.9999998E-03;  2.5999999E-01;1429;  0.0000000E+00;  0.0000000E+00;  0.0000000E+00;  1.0000000E+03;  4.0000001E-01;  0.0000000E+00;3;  0.0000000E+00;  0.0000000E+00;  0.0000000E+00;0;  0.0000000E+00;  1.0000000E+04;  0.0000000E+00;  0.0000000E+00;  1.0000000E+04;  0.0000000E+00;  1.0000000E+04;  0.0000000E+00;  0.0000000E+00;  0.0000000E+00;  0.0000000E+00;
  2.3999999E-01;  9.9999998E-03;  2.8000000E-01;1430;  0.0000000E+00;  0.0000000E+00;  0.0000000E+00;  1.0000000E+03;  4.0000001E-01;  0.0000000E+00;3;  0.0000000E+00;  0.0000000E+00;  0.0000000E+00;0;  0.0000000E+00;  1.0000000E+04;  0.0000000E+00;  0.0000000E+00;  1.0000000E+04;  0.0000000E+00;  1.0000000E+04;  0.0000000E+00;  0.0000000E+00;  0.0000000E+00;  0.0000000E+00;
  2.3999999E-01;  9.9999998E-03;  3.0000001E-01;1431;  0.0000000E+00;  0.0000000E+00;  0.0000000E+00;  1.0000000E+03;  4.0000001E-01;  0.0000000E+00;3;  0.0000000E+00;  0.0000000E+00;  0.0000000E+00;0;  0.0000000E+00;  1.0000000E+04;  0.0000000E+00;  0.0000000E+00;  1.0000000E+04;  0.0000000E+00;  1.0000000E+04;  0.0000000E+00;  0.0000000E+00;  0.0000000E+00;  0.0000000E+00;
  2.5999999E-01;  9.9999998E-03;  1.6000000E-01;1455;  0.0000000E+00;  0.0000000E+00;  0.0000000E+00;  1.0000000E+03;  4.0000001E-01;  0.0000000E+00;3;  0.0000000E+00;  0.0000000E+00;  0.0000000E+00;0;  0.0000000E+00;  1.0000000E+04;  0.0000000E+00;  0.0000000E+00;  1.0000000E+04;  0.0000000E+00;  1.0000000E+04;  0.0000000E+00;  0.0000000E+00;  0.0000000E+00;  0.0000000E+00;
  2.5999999E-01;  9.9999998E-03;  1.8000001E-01;1456;  0.0000000E+00;  0.0000000E+00;  0.0000000E+00;  1.0000000E+03;  4.0000001E-01;  0.0000000E+00;3;  0.0000000E+00;  0.0000000E+00;  0.0000000E+00;0;  0.0000000E+00;  1.0000000E+04;  0.0000000E+00;  0.0000000E+00;  1.0000000E+04;  0.0000000E+00;  1.0000000E+04;  0.0000000E+00;  0.0000000E+00;  0.0000000E+00;  0.0000000E+00;
  2.5999999E-01;  9.9999998E-03;  2.0000000E-01;1457;  0.0000000E+00;  0.0000000E+00;  0.0000000E+00;  1.0000000E+03;  4.0000001E-01;  0.0000000E+00;3;  0.0000000E+00;  0.0000000E+00;  0.0000000E+00;0;  0.0000000E+00;  1.0000000E+04;  0.0000000E+00;  0.0000000E+00;  1.0000000E+04;  0.0000000E+00;  1.0000000E+04;  0.0000000E+00;  0.0000000E+00;  0.0000000E+00;  0.0000000E+00;
  2.5999999E-01;  9.9999998E-03;  2.2000000E-01;1458;  0.0000000E+00;  0.0000000E+00;  0.0000000E+00;  1.0000000E+03;  4.0000001E-01;  0.0000000E+00;3;  0.0000000E+00;  0.0000000E+00;  0.0000000E+00;0;  0.0000000E+00;  1.0000000E+04;  0.0000000E+00;  0.0000000E+00;  1.0000000E+04;  0.0000000E+00;  1.0000000E+04;  0.0000000E+00;  0.0000000E+00;  0.0000000E+00;  0.0000000E+00;
  2.5999999E-01;  9.9999998E-03;  2.3999999E-01;1459;  0.0000000E+00;  0.0000000E+00;  0.0000000E+00;  1.0000000E+03;  4.0000001E-01;  0.0000000E+00;3;  0.0000000E+00;  0.0000000E+00;  0.0000000E+00;0;  0.0000000E+00;  1.0000000E+04;  0.0000000E+00;  0.0000000E+00;  1.0000000E+04;  0.0000000E+00;  1.0000000E+04;  0.0000000E+00;  0.0000000E+00;  0.0000000E+00;  0.0000000E+00;
  2.5999999E-01;  9.9999998E-03;  2.5999999E-01;1460;  0.0000000E+00;  0.0000000E+00;  0.0000000E+00;  1.0000000E+03;  4.0000001E-01;  0.0000000E+00;3;  0.0000000E+00;  0.0000000E+00;  0.0000000E+00;0;  0.0000000E+00;  1.0000000E+04;  0.0000000E+00;  0.0000000E+00;  1.0000000E+04;  0.0000000E+00;  1.0000000E+04;  0.0000000E+00;  0.0000000E+00;  0.0000000E+00;  0.0000000E+00;
  2.5999999E-01;  9.9999998E-03;  2.8000000E-01;1461;  0.0000000E+00;  0.0000000E+00;  0.0000000E+00;  1.0000000E+03;  4.0000001E-01;  0.0000000E+00;3;  0.0000000E+00;  0.0000000E+00;  0.0000000E+00;0;  0.0000000E+00;  1.0000000E+04;  0.0000000E+00;  0.0000000E+00;  1.0000000E+04;  0.0000000E+00;  1.0000000E+04;  0.0000000E+00;  0.0000000E+00;  0.0000000E+00;  0.0000000E+00;
  2.5999999E-01;  9.9999998E-03;  3.0000001E-01;1462;  0.0000000E+00;  0.0000000E+00;  0.0000000E+00;  1.0000000E+03;  4.0000001E-01;  0.0000000E+00;3;  0.0000000E+00;  0.0000000E+00;  0.0000000E+00;0;  0.0000000E+00;  1.0000000E+04;  0.0000000E+00;  0.0000000E+00;  1.0000000E+04;  0.0000000E+00;  1.0000000E+04;  0.0000000E+00;  0.0000000E+00;  0.0000000E+00;  0.0000000E+00;
  2.8000000E-01;  9.9999998E-03;  1.6000000E-01;1486;  0.0000000E+00;  0.0000000E+00;  0.0000000E+00;  1.0000000E+03;  4.0000001E-01;  0.0000000E+00;3;  0.0000000E+00;  0.0000000E+00;  0.0000000E+00;0;  0.0000000E+00;  1.0000000E+04;  0.0000000E+00;  0.0000000E+00;  1.0000000E+04;  0.0000000E+00;  1.0000000E+04;  0.0000000E+00;  0.0000000E+00;  0.0000000E+00;  0.0000000E+00;
  2.8000000E-01;  9.9999998E-03;  1.8000001E-01;1487;  0.0000000E+00;  0.0000000E+00;  0.0000000E+00;  1.0000000E+03;  4.0000001E-01;  0.0000000E+00;3;  0.0000000E+00;  0.0000000E+00;  0.0000000E+00;0;  0.0000000E+00;  1.0000000E+04;  0.0000000E+00;  0.0000000E+00;  1.0000000E+04;  0.0000000E+00;  1.0000000E+04;  0.0000000E+00;  0.0000000E+00;  0.0000000E+00;  0.0000000E+00;
  2.8000000E-01;  9.9999998E-03;  2.0000000E-01;1488;  0.0000000E+00;  0.0000000E+00;  0.0000000E+00;  1.0000000E+03;  4.0000001E-01;  0.0000000E+00;3;  0.0000000E+00;  0.0000000E+00;  0.0000000E+00;0;  0.0000000E+00;  1.0000000E+04;  0.0000000E+00;  0.0000000E+00;  1.0000000E+04;  0.0000000E+00;  1.0000000E+04;  0.0000000E+00;  0.0000000E+00;  0.0000000E+00;  0.0000000E+00;
  2.8000000E-01;  9.9999998E-03;  2.2000000E-01;1489;  0.0000000E+00;  0.0000000E+00;  0.0000000E+00;  1.0000000E+03;  4.0000001E-01;  0.0000000E+00;3;  0.0000000E+00;  0.0000000E+00;  0.0000000E+00;0;  0.0000000E+00;  1.0000000E+04;  0.0000000E+00;  0.0000000E+00;  1.0000000E+04;  0.0000000E+00;  1.0000000E+04;  0.0000000E+00;  0.0000000E+00;  0.0000000E+00;  0.0000000E+00;
  2.8000000E-01;  9.9999998E-03;  2.3999999E-01;1490;  0.0000000E+00;  0.0000000E+00;  0.0000000E+00;  1.0000000E+03;  4.0000001E-01;  0.0000000E+00;3;  0.0000000E+00;  0.0000000E+00;  0.0000000E+00;0;  0.0000000E+00;  1.0000000E+04;  0.0000000E+00;  0.0000000E+00;  1.0000000E+04;  0.0000000E+00;  1.0000000E+04;  0.0000000E+00;  0.0000000E+00;  0.0000000E+00;  0.0000000E+00;
  2.8000000E-01;  9.9999998E-03;  2.5999999E-01;1491;  0.0000000E+00;  0.0000000E+00;  0.0000000E+00;  1.0000000E+03;  4.0000001E-01;  0.0000000E+00;3;  0.0000000E+00;  0.0000000E+00;  0.0000000E+00;0;  0.0000000E+00;  1.0000000E+04;  0.0000000E+00;  0.0000000E+00;  1.0000000E+04;  0.0000000E+00;  1.0000000E+04;  0.0000000E+00;  0.0000000E+00;  0.0000000E+00;  0.0000000E+00;
  2.8000000E-01;  9.9999998E-03;  2.8000000E-01;1492;  0.0000000E+00;  0.0000000E+00;  0.0000000E+00;  1.0000000E+03;  4.0000001E-01;  0.0000000E+00;3;  0.0000000E+00;  0.0000000E+00;  0.0000000E+00;0;  0.0000000E+00;  1.0000000E+04;  0.0000000E+00;  0.0000000E+00;  1.0000000E+04;  0.0000000E+00;  1.0000000E+04;  0.0000000E+00;  0.0000000E+00;  0.0000000E+00;  0.0000000E+00;
  2.8000000E-01;  9.9999998E-03;  3.0000001E-01;1493;  0.0000000E+00;  0.0000000E+00;  0.0000000E+00;  1.0000000E+03;  4.0000001E-01;  0.0000000E+00;3;  0.0000000E+00;  0.0000000E+00;  0.0000000E+00;0;  0.0000000E+00;  1.0000000E+04;  0.0000000E+00;  0.0000000E+00;  1.0000000E+04;  0.0000000E+00;  1.0000000E+04;  0.0000000E+00;  0.0000000E+00;  0.0000000E+00;  0.0000000E+00;
  3.0000001E-01;  9.9999998E-03;  1.6000000E-01;1517;  0.0000000E+00;  0.0000000E+00;  0.0000000E+00;  1.0000000E+03;  4.0000001E-01;  0.0000000E+00;3;  0.0000000E+00;  0.0000000E+00;  0.0000000E+00;0;  0.0000000E+00;  1.0000000E+04;  0.0000000E+00;  0.0000000E+00;  1.0000000E+04;  0.0000000E+00;  1.0000000E+04;  0.0000000E+00;  0.0000000E+00;  0.0000000E+00;  0.0000000E+00;
  3.0000001E-01;  9.9999998E-03;  1.8000001E-01;1518;  0.0000000E+00;  0.0000000E+00;  0.0000000E+00;  1.0000000E+03;  4.0000001E-01;  0.0000000E+00;3;  0.0000000E+00;  0.0000000E+00;  0.0000000E+00;0;  0.0000000E+00;  1.0000000E+04;  0.0000000E+00;  0.0000000E+00;  1.0000000E+04;  0.0000000E+00;  1.0000000E+04;  0.0000000E+00;  0.0000000E+00;  0.0000000E+00;  0.0000000E+00;
  3.0000001E-01;  9.9999998E-03;  2.0000000E-01;1519;  0.0000000E+00;  0.0000000E+00;  0.0000000E+00;  1.0000000E+03;  4.0000001E-01;  0.0000000E+00;3;  0.0000000E+00;  0.0000000E+00;  0.0000000E+00;0;  0.0000000E+00;  1.0000000E+04;  0.0000000E+00;  0.0000000E+00;  1.0000000E+04;  0.0000000E+00;  1.0000000E+04;  0.0000000E+00;  0.0000000E+00;  0.0000000E+00;  0.0000000E+00;
  3.0000001E-01;  9.9999998E-03;  2.2000000E-01;1520;  0.0000000E+00;  0.0000000E+00;  0.0000000E+00;  1.0000000E+03;  4.0000001E-01;  0.0000000E+00;3;  0.0000000E+00;  0.0000000E+00;  0.0000000E+00;0;  0.0000000E+00;  1.0000000E+04;  0.0000000E+00;  0.0000000E+00;  1.0000000E+04;  0.0000000E+00;  1.0000000E+04;  0.0000000E+00;  0.0000000E+00;  0.0000000E+00;  0.0000000E+00;
  3.0000001E-01;  9.9999998E-03;  2.3999999E-01;1521;  0.0000000E+00;  0.0000000E+00;  0.0000000E+00;  1.0000000E+03;  4.0000001E-01;  0.0000000E+00;3;  0.0000000E+00;  0.0000000E+00;  0.0000000E+00;0;  0.0000000E+00;  1.0000000E+04;  0.0000000E+00;  0.0000000E+00;  1.0000000E+04;  0.0000000E+00;  1.0000000E+04;  0.0000000E+00;  0.0000000E+00;  0.0000000E+00;  0.0000000E+00;
  3.0000001E-01;  9.9999998E-03;  2.5999999E-01;1522;  0.0000000E+00;  0.0000000E+00;  0.0000000E+00;  1.0000000E+03;  4.0000001E-01;  0.0000000E+00;3;  0.0000000E+00;  0.0000000E+00;  0.0000000E+00;0;  0.0000000E+00;  1.0000000E+04;  0.0000000E+00;  0.0000000E+00;  1.0000000E+04;  0.0000000E+00;  1.0000000E+04;  0.0000000E+00;  0.0000000E+00;  0.0000000E+00;  0.0000000E+00;
  3.0000001E-01;  9.9999998E-03;  2.8000000E-01;1523;  0.0000000E+00;  0.0000000E+00;  0.0000000E+00;  1.0000000E+03;  4.0000001E-01;  0.0000000E+00;3;  0.0000000E+00;  0.0000000E+00;  0.0000000E+00;0;  0.0000000E+00;  1.0000000E+04;  0.0000000E+00;  0.0000000E+00;  1.0000000E+04;  0.0000000E+00;  1.0000000E+04;  0.0000000E+00;  0.0000000E+00;  0.0000000E+00;  0.0000000E+00;
  3.0000001E-01;  9.9999998E-03;  3.0000001E-01;1524;  0.0000000E+00;  0.0000000E+00;  0.0000000E+00;  1.0000000E+03;  4.0000001E-01;  0.0000000E+00;3;  0.0000000E+00;  0.0000000E+00;  0.0000000E+00;0;  0.0000000E+00;  1.0000000E+04;  0.0000000E+00;  0.0000000E+00;  1.0000000E+04;  0.0000000E+00;  1.0000000E+04;  0.0000000E+00;  0.0000000E+00;  0.0000000E+00;  0.0000000E+00;
  3.1999999E-01;  9.9999998E-03;  1.6000000E-01;1548;  0.0000000E+00;  0.0000000E+00;  0.0000000E+00;  1.0000000E+03;  4.0000001E-01;  0.0000000E+00;3;  0.0000000E+00;  0.0000000E+00;  0.0000000E+00;0;  0.0000000E+00;  1.0000000E+04;  0.0000000E+00;  0.0000000E+00;  1.0000000E+04;  0.0000000E+00;  1.0000000E+04;  0.0000000E+00;  0.0000000E+00;  0.0000000E+00;  0.0000000E+00;
  3.1999999E-01;  9.9999998E-03;  1.8000001E-01;1549;  0.0000000E+00;  0.0000000E+00;  0.0000000E+00;  1.0000000E+03;  4.0000001E-01;  0.0000000E+00;3;  0.0000000E+00;  0.0000000E+00;  0.0000000E+00;0;  0.0000000E+00;  1.0000000E+04;  0.0000000E+00;  0.0000000E+00;  1.0000000E+04;  0.0000000E+00;  1.0000000E+04;  0.0000000E+00;  0.0000000E+00;  0.0000000E+00;  0.0000000E+00;
  3.1999999E-01;  9.9999998E-03;  2.0000000E-01;1550;  0.0000000E+00;  0.0000000E+00;  0.0000000E+00;  1.0000000E+03;  4.0000001E-01;  0.0000000E+00;3;  0.0000000E+00;  0.0000000E+00;  0.0000000E+00;0;  0.0000000E+00;  1.0000000E+04;  0.0000000E+00;  0.0000000E+00;  1.0000000E+04;  0.0000000E+00;  1.0000000E+04;  0.0000000E+00;  0.0000000E+00;  0.0000000E+00;  0.0000000E+00;
  3.1999999E-01;  9.9999998E-03;  2.2000000E-01;1551;  0.0000000E+00;  0.0000000E+00;  0.0000000E+00;  1.0000000E+03;  4.0000001E-01;  0.0000000E+00;3;  0.0000000E+00;  0.0000000E+00;  0.0000000E+00;0;  0.0000000E+00;  1.0000000E+04;  0.0000000E+00;  0.0000000E+00;  1.0000000E+04;  0.0000000E+00;  1.0000000E+04;  0.0000000E+00;  0.0000000E+00;  0.0000000E+00;  0.0000000E+00;
  3.1999999E-01;  9.9999998E-03;  2.3999999E-01;1552;  0.0000000E+00;  0.0000000E+00;  0.0000000E+00;  1.0000000E+03;  4.0000001E-01;  0.0000000E+00;3;  0.0000000E+00;  0.0000000E+00;  0.0000000E+00;0;  0.0000000E+00;  1.0000000E+04;  0.0000000E+00;  0.0000000E+00;  1.0000000E+04;  0.0000000E+00;  1.0000000E+04;  0.0000000E+00;  0.0000000E+00;  0.0000000E+00;  0.0000000E+00;
  3.1999999E-01;  9.9999998E-03;  2.5999999E-01;1553;  0.0000000E+00;  0.0000000E+00;  0.0000000E+00;  1.0000000E+03;  4.0000001E-01;  0.0000000E+00;3;  0.0000000E+00;  0.0000000E+00;  0.0000000E+00;0;  0.0000000E+00;  1.0000000E+04;  0.0000000E+00;  0.0000000E+00;  1.0000000E+04;  0.0000000E+00;  1.0000000E+04;  0.0000000E+00;  0.0000000E+00;  0.0000000E+00;  0.0000000E+00;
  3.1999999E-01;  9.9999998E-03;  2.8000000E-01;1554;  0.0000000E+00;  0.0000000E+00;  0.0000000E+00;  1.0000000E+03;  4.0000001E-01;  0.0000000E+00;3;  0.0000000E+00;  0.0000000E+00;  0.0000000E+00;0;  0.0000000E+00;  1.0000000E+04;  0.0000000E+00;  0.0000000E+00;  1.0000000E+04;  0.0000000E+00;  1.0000000E+04;  0.0000000E+00;  0.0000000E+00;  0.0000000E+00;  0.0000000E+00;
  3.1999999E-01;  9.9999998E-03;  3.0000001E-01;1555;  0.0000000E+00;  0.0000000E+00;  0.0000000E+00;  1.0000000E+03;  4.0000001E-01;  0.0000000E+00;3;  0.0000000E+00;  0.0000000E+00;  0.0000000E+00;0;  0.0000000E+00;  1.0000000E+04;  0.0000000E+00;  0.0000000E+00;  1.0000000E+04;  0.0000000E+00;  1.0000000E+04;  0.0000000E+00;  0.0000000E+00;  0.0000000E+00;  0.0000000E+00;
  3.4000000E-01;  9.9999998E-03;  1.6000000E-01;1579;  0.0000000E+00;  0.0000000E+00;  0.0000000E+00;  1.0000000E+03;  4.0000001E-01;  0.0000000E+00;3;  0.0000000E+00;  0.0000000E+00;  0.0000000E+00;0;  0.0000000E+00;  1.0000000E+04;  0.0000000E+00;  0.0000000E+00;  1.0000000E+04;  0.0000000E+00;  1.0000000E+04;  0.0000000E+00;  0.0000000E+00;  0.0000000E+00;  0.0000000E+00;
  3.4000000E-01;  9.9999998E-03;  1.8000001E-01;1580;  0.0000000E+00;  0.0000000E+00;  0.0000000E+00;  1.0000000E+03;  4.0000001E-01;  0.0000000E+00;3;  0.0000000E+00;  0.0000000E+00;  0.0000000E+00;0;  0.0000000E+00;  1.0000000E+04;  0.0000000E+00;  0.0000000E+00;  1.0000000E+04;  0.0000000E+00;  1.0000000E+04;  0.0000000E+00;  0.0000000E+00;  0.0000000E+00;  0.0000000E+00;
  3.4000000E-01;  9.9999998E-03;  2.0000000E-01;1581;  0.0000000E+00;  0.0000000E+00;  0.0000000E+00;  1.0000000E+03;  4.0000001E-01;  0.0000000E+00;3;  0.0000000E+00;  0.0000000E+00;  0.0000000E+00;0;  0.0000000E+00;  1.0000000E+04;  0.0000000E+00;  0.0000000E+00;  1.0000000E+04;  0.0000000E+00;  1.0000000E+04;  0.0000000E+00;  0.0000000E+00;  0.0000000E+00;  0.0000000E+00;
  3.4000000E-01;  9.9999998E-03;  2.2000000E-01;1582;  0.0000000E+00;  0.0000000E+00;  0.0000000E+00;  1.0000000E+03;  4.0000001E-01;  0.0000000E+00;3;  0.0000000E+00;  0.0000000E+00;  0.0000000E+00;0;  0.0000000E+00;  1.0000000E+04;  0.0000000E+00;  0.0000000E+00;  1.0000000E+04;  0.0000000E+00;  1.0000000E+04;  0.0000000E+00;  0.0000000E+00;  0.0000000E+00;  0.0000000E+00;
  3.4000000E-01;  9.9999998E-03;  2.3999999E-01;1583;  0.0000000E+00;  0.0000000E+00;  0.0000000E+00;  1.0000000E+03;  4.0000001E-01;  0.0000000E+00;3;  0.0000000E+00;  0.0000000E+00;  0.0000000E+00;0;  0.0000000E+00;  1.0000000E+04;  0.0000000E+00;  0.0000000E+00;  1.0000000E+04;  0.0000000E+00;  1.0000000E+04;  0.0000000E+00;  0.0000000E+00;  0.0000000E+00;  0.0000000E+00;
  3.4000000E-01;  9.9999998E-03;  2.5999999E-01;1584;  0.0000000E+00;  0.0000000E+00;  0.0000000E+00;  1.0000000E+03;  4.0000001E-01;  0.0000000E+00;3;  0.0000000E+00;  0.0000000E+00;  0.0000000E+00;0;  0.0000000E+00;  1.0000000E+04;  0.0000000E+00;  0.0000000E+00;  1.0000000E+04;  0.0000000E+00;  1.0000000E+04;  0.0000000E+00;  0.0000000E+00;  0.0000000E+00;  0.0000000E+00;
  3.4000000E-01;  9.9999998E-03;  2.8000000E-01;1585;  0.0000000E+00;  0.0000000E+00;  0.0000000E+00;  1.0000000E+03;  4.0000001E-01;  0.0000000E+00;3;  0.0000000E+00;  0.0000000E+00;  0.0000000E+00;0;  0.0000000E+00;  1.0000000E+04;  0.0000000E+00;  0.0000000E+00;  1.0000000E+04;  0.0000000E+00;  1.0000000E+04;  0.0000000E+00;  0.0000000E+00;  0.0000000E+00;  0.0000000E+00;
  3.4000000E-01;  9.9999998E-03;  3.0000001E-01;1586;  0.0000000E+00;  0.0000000E+00;  0.0000000E+00;  1.0000000E+03;  4.0000001E-01;  0.0000000E+00;3;  0.0000000E+00;  0.0000000E+00;  0.0000000E+00;0;  0.0000000E+00;  1.0000000E+04;  0.0000000E+00;  0.0000000E+00;  1.0000000E+04;  0.0000000E+00;  1.0000000E+04;  0.0000000E+00;  0.0000000E+00;  0.0000000E+00;  0.0000000E+00;
  3.6000001E-01;  9.9999998E-03;  1.6000000E-01;1610;  0.0000000E+00;  0.0000000E+00;  0.0000000E+00;  1.0000000E+03;  4.0000001E-01;  0.0000000E+00;3;  0.0000000E+00;  0.0000000E+00;  0.0000000E+00;0;  0.0000000E+00;  1.0000000E+04;  0.0000000E+00;  0.0000000E+00;  1.0000000E+04;  0.0000000E+00;  1.0000000E+04;  0.0000000E+00;  0.0000000E+00;  0.0000000E+00;  0.0000000E+00;
  3.6000001E-01;  9.9999998E-03;  1.8000001E-01;1611;  0.0000000E+00;  0.0000000E+00;  0.0000000E+00;  1.0000000E+03;  4.0000001E-01;  0.0000000E+00;3;  0.0000000E+00;  0.0000000E+00;  0.0000000E+00;0;  0.0000000E+00;  1.0000000E+04;  0.0000000E+00;  0.0000000E+00;  1.0000000E+04;  0.0000000E+00;  1.0000000E+04;  0.0000000E+00;  0.0000000E+00;  0.0000000E+00;  0.0000000E+00;
  3.6000001E-01;  9.9999998E-03;  2.0000000E-01;1612;  0.0000000E+00;  0.0000000E+00;  0.0000000E+00;  1.0000000E+03;  4.0000001E-01;  0.0000000E+00;3;  0.0000000E+00;  0.0000000E+00;  0.0000000E+00;0;  0.0000000E+00;  1.0000000E+04;  0.0000000E+00;  0.0000000E+00;  1.0000000E+04;  0.0000000E+00;  1.0000000E+04;  0.0000000E+00;  0.0000000E+00;  0.0000000E+00;  0.0000000E+00;
  3.6000001E-01;  9.9999998E-03;  2.2000000E-01;1613;  0.0000000E+00;  0.0000000E+00;  0.0000000E+00;  1.0000000E+03;  4.0000001E-01;  0.0000000E+00;3;  0.0000000E+00;  0.0000000E+00;  0.0000000E+00;0;  0.0000000E+00;  1.0000000E+04;  0.0000000E+00;  0.0000000E+00;  1.0000000E+04;  0.0000000E+00;  1.0000000E+04;  0.0000000E+00;  0.0000000E+00;  0.0000000E+00;  0.0000000E+00;
  3.6000001E-01;  9.9999998E-03;  2.3999999E-01;1614;  0.0000000E+00;  0.0000000E+00;  0.0000000E+00;  1.0000000E+03;  4.0000001E-01;  0.0000000E+00;3;  0.0000000E+00;  0.0000000E+00;  0.0000000E+00;0;  0.0000000E+00;  1.0000000E+04;  0.0000000E+00;  0.0000000E+00;  1.0000000E+04;  0.0000000E+00;  1.0000000E+04;  0.0000000E+00;  0.0000000E+00;  0.0000000E+00;  0.0000000E+00;
  3.6000001E-01;  9.9999998E-03;  2.5999999E-01;1615;  0.0000000E+00;  0.0000000E+00;  0.0000000E+00;  1.0000000E+03;  4.0000001E-01;  0.0000000E+00;3;  0.0000000E+00;  0.0000000E+00;  0.0000000E+00;0;  0.0000000E+00;  1.0000000E+04;  0.0000000E+00;  0.0000000E+00;  1.0000000E+04;  0.0000000E+00;  1.0000000E+04;  0.0000000E+00;  0.0000000E+00;  0.0000000E+00;  0.0000000E+00;
  3.6000001E-01;  9.9999998E-03;  2.8000000E-01;1616;  0.0000000E+00;  0.0000000E+00;  0.0000000E+00;  1.0000000E+03;  4.0000001E-01;  0.0000000E+00;3;  0.0000000E+00;  0.0000000E+00;  0.0000000E+00;0;  0.0000000E+00;  1.0000000E+04;  0.0000000E+00;  0.0000000E+00;  1.0000000E+04;  0.0000000E+00;  1.0000000E+04;  0.0000000E+00;  0.0000000E+00;  0.0000000E+00;  0.0000000E+00;
  3.6000001E-01;  9.9999998E-03;  3.0000001E-01;1617;  0.0000000E+00;  0.0000000E+00;  0.0000000E+00;  1.0000000E+03;  4.0000001E-01;  0.0000000E+00;3;  0.0000000E+00;  0.0000000E+00;  0.0000000E+00;0;  0.0000000E+00;  1.0000000E+04;  0.0000000E+00;  0.0000000E+00;  1.0000000E+04;  0.0000000E+00;  1.0000000E+04;  0.0000000E+00;  0.0000000E+00;  0.0000000E+00;  0.0000000E+00;
  3.8000000E-01;  9.9999998E-03;  1.6000000E-01;1641;  0.0000000E+00;  0.0000000E+00;  0.0000000E+00;  1.0000000E+03;  4.0000001E-01;  0.0000000E+00;3;  0.0000000E+00;  0.0000000E+00;  0.0000000E+00;0;  0.0000000E+00;  1.0000000E+04;  0.0000000E+00;  0.0000000E+00;  1.0000000E+04;  0.0000000E+00;  1.0000000E+04;  0.0000000E+00;  0.0000000E+00;  0.0000000E+00;  0.0000000E+00;
  3.8000000E-01;  9.9999998E-03;  1.8000001E-01;1642;  0.0000000E+00;  0.0000000E+00;  0.0000000E+00;  1.0000000E+03;  4.0000001E-01;  0.0000000E+00;3;  0.0000000E+00;  0.0000000E+00;  0.0000000E+00;0;  0.0000000E+00;  1.0000000E+04;  0.0000000E+00;  0.0000000E+00;  1.0000000E+04;  0.0000000E+00;  1.0000000E+04;  0.0000000E+00;  0.0000000E+00;  0.0000000E+00;  0.0000000E+00;
  3.8000000E-01;  9.9999998E-03;  2.0000000E-01;1643;  0.0000000E+00;  0.0000000E+00;  0.0000000E+00;  1.0000000E+03;  4.0000001E-01;  0.0000000E+00;3;  0.0000000E+00;  0.0000000E+00;  0.0000000E+00;0;  0.0000000E+00;  1.0000000E+04;  0.0000000E+00;  0.0000000E+00;  1.0000000E+04;  0.0000000E+00;  1.0000000E+04;  0.0000000E+00;  0.0000000E+00;  0.0000000E+00;  0.0000000E+00;
  3.8000000E-01;  9.9999998E-03;  2.2000000E-01;1644;  0.0000000E+00;  0.0000000E+00;  0.0000000E+00;  1.0000000E+03;  4.0000001E-01;  0.0000000E+00;3;  0.0000000E+00;  0.0000000E+00;  0.0000000E+00;0;  0.0000000E+00;  1.0000000E+04;  0.0000000E+00;  0.0000000E+00;  1.0000000E+04;  0.0000000E+00;  1.0000000E+04;  0.0000000E+00;  0.0000000E+00;  0.0000000E+00;  0.0000000E+00;
  3.8000000E-01;  9.9999998E-03;  2.3999999E-01;1645;  0.0000000E+00;  0.0000000E+00;  0.0000000E+00;  1.0000000E+03;  4.0000001E-01;  0.0000000E+00;3;  0.0000000E+00;  0.0000000E+00;  0.0000000E+00;0;  0.0000000E+00;  1.0000000E+04;  0.0000000E+00;  0.0000000E+00;  1.0000000E+04;  0.0000000E+00;  1.0000000E+04;  0.0000000E+00;  0.0000000E+00;  0.0000000E+00;  0.0000000E+00;
  3.8000000E-01;  9.9999998E-03;  2.5999999E-01;1646;  0.0000000E+00;  0.0000000E+00;  0.0000000E+00;  1.0000000E+03;  4.0000001E-01;  0.0000000E+00;3;  0.0000000E+00;  0.0000000E+00;  0.0000000E+00;0;  0.0000000E+00;  1.0000000E+04;  0.0000000E+00;  0.0000000E+00;  1.0000000E+04;  0.0000000E+00;  1.0000000E+04;  0.0000000E+00;  0.0000000E+00;  0.0000000E+00;  0.0000000E+00;
  3.8000000E-01;  9.9999998E-03;  2.8000000E-01;1647;  0.0000000E+00;  0.0000000E+00;  0.0000000E+00;  1.0000000E+03;  4.0000001E-01;  0.0000000E+00;3;  0.0000000E+00;  0.0000000E+00;  0.0000000E+00;0;  0.0000000E+00;  1.0000000E+04;  0.0000000E+00;  0.0000000E+00;  1.0000000E+04;  0.0000000E+00;  1.0000000E+04;  0.0000000E+00;  0.0000000E+00;  0.0000000E+00;  0.0000000E+00;
  3.8000000E-01;  9.9999998E-03;  3.0000001E-01;1648;  0.0000000E+00;  0.0000000E+00;  0.0000000E+00;  1.0000000E+03;  4.0000001E-01;  0.0000000E+00;3;  0.0000000E+00;  0.0000000E+00;  0.0000000E+00;0;  0.0000000E+00;  1.0000000E+04;  0.0000000E+00;  0.0000000E+00;  1.0000000E+04;  0.0000000E+00;  1.0000000E+04;  0.0000000E+00;  0.0000000E+00;  0.0000000E+00;  0.0000000E+00;
  4.0000001E-01;  9.9999998E-03;  1.6000000E-01;1672;  0.0000000E+00;  0.0000000E+00;  0.0000000E+00;  1.0000000E+03;  4.0000001E-01;  0.0000000E+00;3;  0.0000000E+00;  0.0000000E+00;  0.0000000E+00;0;  0.0000000E+00;  1.0000000E+04;  0.0000000E+00;  0.0000000E+00;  1.0000000E+04;  0.0000000E+00;  1.0000000E+04;  0.0000000E+00;  0.0000000E+00;  0.0000000E+00;  0.0000000E+00;
  4.0000001E-01;  9.9999998E-03;  1.8000001E-01;1673;  0.0000000E+00;  0.0000000E+00;  0.0000000E+00;  1.0000000E+03;  4.0000001E-01;  0.0000000E+00;3;  0.0000000E+00;  0.0000000E+00;  0.0000000E+00;0;  0.0000000E+00;  1.0000000E+04;  0.0000000E+00;  0.0000000E+00;  1.0000000E+04;  0.0000000E+00;  1.0000000E+04;  0.0000000E+00;  0.0000000E+00;  0.0000000E+00;  0.0000000E+00;
  4.0000001E-01;  9.9999998E-03;  2.0000000E-01;1674;  0.0000000E+00;  0.0000000E+00;  0.0000000E+00;  1.0000000E+03;  4.0000001E-01;  0.0000000E+00;3;  0.0000000E+00;  0.0000000E+00;  0.0000000E+00;0;  0.0000000E+00;  1.0000000E+04;  0.0000000E+00;  0.0000000E+00;  1.0000000E+04;  0.0000000E+00;  1.0000000E+04;  0.0000000E+00;  0.0000000E+00;  0.0000000E+00;  0.0000000E+00;
  4.0000001E-01;  9.9999998E-03;  2.2000000E-01;1675;  0.0000000E+00;  0.0000000E+00;  0.0000000E+00;  1.0000000E+03;  4.0000001E-01;  0.0000000E+00;3;  0.0000000E+00;  0.0000000E+00;  0.0000000E+00;0;  0.0000000E+00;  1.0000000E+04;  0.0000000E+00;  0.0000000E+00;  1.0000000E+04;  0.0000000E+00;  1.0000000E+04;  0.0000000E+00;  0.0000000E+00;  0.0000000E+00;  0.0000000E+00;
  4.0000001E-01;  9.9999998E-03;  2.3999999E-01;1676;  0.0000000E+00;  0.0000000E+00;  0.0000000E+00;  1.0000000E+03;  4.0000001E-01;  0.0000000E+00;3;  0.0000000E+00;  0.0000000E+00;  0.0000000E+00;0;  0.0000000E+00;  1.0000000E+04;  0.0000000E+00;  0.0000000E+00;  1.0000000E+04;  0.0000000E+00;  1.0000000E+04;  0.0000000E+00;  0.0000000E+00;  0.0000000E+00;  0.0000000E+00;
  4.0000001E-01;  9.9999998E-03;  2.5999999E-01;1677;  0.0000000E+00;  0.0000000E+00;  0.0000000E+00;  1.0000000E+03;  4.0000001E-01;  0.0000000E+00;3;  0.0000000E+00;  0.0000000E+00;  0.0000000E+00;0;  0.0000000E+00;  1.0000000E+04;  0.0000000E+00;  0.0000000E+00;  1.0000000E+04;  0.0000000E+00;  1.0000000E+04;  0.0000000E+00;  0.0000000E+00;  0.0000000E+00;  0.0000000E+00;
  4.0000001E-01;  9.9999998E-03;  2.8000000E-01;1678;  0.0000000E+00;  0.0000000E+00;  0.0000000E+00;  1.0000000E+03;  4.0000001E-01;  0.0000000E+00;3;  0.0000000E+00;  0.0000000E+00;  0.0000000E+00;0;  0.0000000E+00;  1.0000000E+04;  0.0000000E+00;  0.0000000E+00;  1.0000000E+04;  0.0000000E+00;  1.0000000E+04;  0.0000000E+00;  0.0000000E+00;  0.0000000E+00;  0.0000000E+00;
  4.0000001E-01;  9.9999998E-03;  3.0000001E-01;1679;  0.0000000E+00;  0.0000000E+00;  0.0000000E+00;  1.0000000E+03;  4.0000001E-01;  0.0000000E+00;3;  0.0000000E+00;  0.0000000E+00;  0.0000000E+00;0;  0.0000000E+00;  1.0000000E+04;  0.0000000E+00;  0.0000000E+00;  1.0000000E+04;  0.0000000E+00;  1.0000000E+04;  0.0000000E+00;  0.0000000E+00;  0.0000000E+00;  0.0000000E+00;
  4.1999999E-01;  9.9999998E-03;  1.6000000E-01;1703;  0.0000000E+00;  0.0000000E+00;  0.0000000E+00;  1.0000000E+03;  4.0000001E-01;  0.0000000E+00;3;  0.0000000E+00;  0.0000000E+00;  0.0000000E+00;0;  0.0000000E+00;  1.0000000E+04;  0.0000000E+00;  0.0000000E+00;  1.0000000E+04;  0.0000000E+00;  1.0000000E+04;  0.0000000E+00;  0.0000000E+00;  0.0000000E+00;  0.0000000E+00;
  4.1999999E-01;  9.9999998E-03;  1.8000001E-01;1704;  0.0000000E+00;  0.0000000E+00;  0.0000000E+00;  1.0000000E+03;  4.0000001E-01;  0.0000000E+00;3;  0.0000000E+00;  0.0000000E+00;  0.0000000E+00;0;  0.0000000E+00;  1.0000000E+04;  0.0000000E+00;  0.0000000E+00;  1.0000000E+04;  0.0000000E+00;  1.0000000E+04;  0.0000000E+00;  0.0000000E+00;  0.0000000E+00;  0.0000000E+00;
  4.1999999E-01;  9.9999998E-03;  2.0000000E-01;1705;  0.0000000E+00;  0.0000000E+00;  0.0000000E+00;  1.0000000E+03;  4.0000001E-01;  0.0000000E+00;3;  0.0000000E+00;  0.0000000E+00;  0.0000000E+00;0;  0.0000000E+00;  1.0000000E+04;  0.0000000E+00;  0.0000000E+00;  1.0000000E+04;  0.0000000E+00;  1.0000000E+04;  0.0000000E+00;  0.0000000E+00;  0.0000000E+00;  0.0000000E+00;
  4.1999999E-01;  9.9999998E-03;  2.2000000E-01;1706;  0.0000000E+00;  0.0000000E+00;  0.0000000E+00;  1.0000000E+03;  4.0000001E-01;  0.0000000E+00;3;  0.0000000E+00;  0.0000000E+00;  0.0000000E+00;0;  0.0000000E+00;  1.0000000E+04;  0.0000000E+00;  0.0000000E+00;  1.0000000E+04;  0.0000000E+00;  1.0000000E+04;  0.0000000E+00;  0.0000000E+00;  0.0000000E+00;  0.0000000E+00;
  4.1999999E-01;  9.9999998E-03;  2.3999999E-01;1707;  0.0000000E+00;  0.0000000E+00;  0.0000000E+00;  1.0000000E+03;  4.0000001E-01;  0.0000000E+00;3;  0.0000000E+00;  0.0000000E+00;  0.0000000E+00;0;  0.0000000E+00;  1.0000000E+04;  0.0000000E+00;  0.0000000E+00;  1.0000000E+04;  0.0000000E+00;  1.0000000E+04;  0.0000000E+00;  0.0000000E+00;  0.0000000E+00;  0.0000000E+00;
  4.1999999E-01;  9.9999998E-03;  2.5999999E-01;1708;  0.0000000E+00;  0.0000000E+00;  0.0000000E+00;  1.0000000E+03;  4.0000001E-01;  0.0000000E+00;3;  0.0000000E+00;  0.0000000E+00;  0.0000000E+00;0;  0.0000000E+00;  1.0000000E+04;  0.0000000E+00;  0.0000000E+00;  1.0000000E+04;  0.0000000E+00;  1.0000000E+04;  0.0000000E+00;  0.0000000E+00;  0.0000000E+00;  0.0000000E+00;
  4.1999999E-01;  9.9999998E-03;  2.8000000E-01;1709;  0.0000000E+00;  0.0000000E+00;  0.0000000E+00;  1.0000000E+03;  4.0000001E-01;  0.0000000E+00;3;  0.0000000E+00;  0.0000000E+00;  0.0000000E+00;0;  0.0000000E+00;  1.0000000E+04;  0.0000000E+00;  0.0000000E+00;  1.0000000E+04;  0.0000000E+00;  1.0000000E+04;  0.0000000E+00;  0.0000000E+00;  0.0000000E+00;  0.0000000E+00;
  4.1999999E-01;  9.9999998E-03;  3.0000001E-01;1710;  0.0000000E+00;  0.0000000E+00;  0.0000000E+00;  1.0000000E+03;  4.0000001E-01;  0.0000000E+00;3;  0.0000000E+00;  0.0000000E+00;  0.0000000E+00;0;  0.0000000E+00;  1.0000000E+04;  0.0000000E+00;  0.0000000E+00;  1.0000000E+04;  0.0000000E+00;  1.0000000E+04;  0.0000000E+00;  0.0000000E+00;  0.0000000E+00;  0.0000000E+00;
  4.4000000E-01;  9.9999998E-03;  1.6000000E-01;1734;  0.0000000E+00;  0.0000000E+00;  0.0000000E+00;  1.0000000E+03;  4.0000001E-01;  0.0000000E+00;3;  0.0000000E+00;  0.0000000E+00;  0.0000000E+00;0;  0.0000000E+00;  1.0000000E+04;  0.0000000E+00;  0.0000000E+00;  1.0000000E+04;  0.0000000E+00;  1.0000000E+04;  0.0000000E+00;  0.0000000E+00;  0.0000000E+00;  0.0000000E+00;
  4.4000000E-01;  9.9999998E-03;  1.8000001E-01;1735;  0.0000000E+00;  0.0000000E+00;  0.0000000E+00;  1.0000000E+03;  4.0000001E-01;  0.0000000E+00;3;  0.0000000E+00;  0.0000000E+00;  0.0000000E+00;0;  0.0000000E+00;  1.0000000E+04;  0.0000000E+00;  0.0000000E+00;  1.0000000E+04;  0.0000000E+00;  1.0000000E+04;  0.0000000E+00;  0.0000000E+00;  0.0000000E+00;  0.0000000E+00;
  4.4000000E-01;  9.9999998E-03;  2.0000000E-01;1736;  0.0000000E+00;  0.0000000E+00;  0.0000000E+00;  1.0000000E+03;  4.0000001E-01;  0.0000000E+00;3;  0.0000000E+00;  0.0000000E+00;  0.0000000E+00;0;  0.0000000E+00;  1.0000000E+04;  0.0000000E+00;  0.0000000E+00;  1.0000000E+04;  0.0000000E+00;  1.0000000E+04;  0.0000000E+00;  0.0000000E+00;  0.0000000E+00;  0.0000000E+00;
  4.4000000E-01;  9.9999998E-03;  2.2000000E-01;1737;  0.0000000E+00;  0.0000000E+00;  0.0000000E+00;  1.0000000E+03;  4.0000001E-01;  0.0000000E+00;3;  0.0000000E+00;  0.0000000E+00;  0.0000000E+00;0;  0.0000000E+00;  1.0000000E+04;  0.0000000E+00;  0.0000000E+00;  1.0000000E+04;  0.0000000E+00;  1.0000000E+04;  0.0000000E+00;  0.0000000E+00;  0.0000000E+00;  0.0000000E+00;
  4.4000000E-01;  9.9999998E-03;  2.3999999E-01;1738;  0.0000000E+00;  0.0000000E+00;  0.0000000E+00;  1.0000000E+03;  4.0000001E-01;  0.0000000E+00;3;  0.0000000E+00;  0.0000000E+00;  0.0000000E+00;0;  0.0000000E+00;  1.0000000E+04;  0.0000000E+00;  0.0000000E+00;  1.0000000E+04;  0.0000000E+00;  1.0000000E+04;  0.0000000E+00;  0.0000000E+00;  0.0000000E+00;  0.0000000E+00;
  4.4000000E-01;  9.9999998E-03;  2.5999999E-01;1739;  0.0000000E+00;  0.0000000E+00;  0.0000000E+00;  1.0000000E+03;  4.0000001E-01;  0.0000000E+00;3;  0.0000000E+00;  0.0000000E+00;  0.0000000E+00;0;  0.0000000E+00;  1.0000000E+04;  0.0000000E+00;  0.0000000E+00;  1.0000000E+04;  0.0000000E+00;  1.0000000E+04;  0.0000000E+00;  0.0000000E+00;  0.0000000E+00;  0.0000000E+00;
  4.4000000E-01;  9.9999998E-03;  2.8000000E-01;1740;  0.0000000E+00;  0.0000000E+00;  0.0000000E+00;  1.0000000E+03;  4.0000001E-01;  0.0000000E+00;3;  0.0000000E+00;  0.0000000E+00;  0.0000000E+00;0;  0.0000000E+00;  1.0000000E+04;  0.0000000E+00;  0.0000000E+00;  1.0000000E+04;  0.0000000E+00;  1.0000000E+04;  0.0000000E+00;  0.0000000E+00;  0.0000000E+00;  0.0000000E+00;
  4.4000000E-01;  9.9999998E-03;  3.0000001E-01;1741;  0.0000000E+00;  0.0000000E+00;  0.0000000E+00;  1.0000000E+03;  4.0000001E-01;  0.0000000E+00;3;  0.0000000E+00;  0.0000000E+00;  0.0000000E+00;0;  0.0000000E+00;  1.0000000E+04;  0.0000000E+00;  0.0000000E+00;  1.0000000E+04;  0.0000000E+00;  1.0000000E+04;  0.0000000E+00;  0.0000000E+00;  0.0000000E+00;  0.0000000E+00;
  4.6000001E-01;  9.9999998E-03;  1.6000000E-01;1765;  0.0000000E+00;  0.0000000E+00;  0.0000000E+00;  1.0000000E+03;  4.0000001E-01;  0.0000000E+00;3;  0.0000000E+00;  0.0000000E+00;  0.0000000E+00;0;  0.0000000E+00;  1.0000000E+04;  0.0000000E+00;  0.0000000E+00;  1.0000000E+04;  0.0000000E+00;  1.0000000E+04;  0.0000000E+00;  0.0000000E+00;  0.0000000E+00;  0.0000000E+00;
  4.6000001E-01;  9.9999998E-03;  1.8000001E-01;1766;  0.0000000E+00;  0.0000000E+00;  0.0000000E+00;  1.0000000E+03;  4.0000001E-01;  0.0000000E+00;3;  0.0000000E+00;  0.0000000E+00;  0.0000000E+00;0;  0.0000000E+00;  1.0000000E+04;  0.0000000E+00;  0.0000000E+00;  1.0000000E+04;  0.0000000E+00;  1.0000000E+04;  0.0000000E+00;  0.0000000E+00;  0.0000000E+00;  0.0000000E+00;
  4.6000001E-01;  9.9999998E-03;  2.0000000E-01;1767;  0.0000000E+00;  0.0000000E+00;  0.0000000E+00;  1.0000000E+03;  4.0000001E-01;  0.0000000E+00;3;  0.0000000E+00;  0.0000000E+00;  0.0000000E+00;0;  0.0000000E+00;  1.0000000E+04;  0.0000000E+00;  0.0000000E+00;  1.0000000E+04;  0.0000000E+00;  1.0000000E+04;  0.0000000E+00;  0.0000000E+00;  0.0000000E+00;  0.0000000E+00;
  4.6000001E-01;  9.9999998E-03;  2.2000000E-01;1768;  0.0000000E+00;  0.0000000E+00;  0.0000000E+00;  1.0000000E+03;  4.0000001E-01;  0.0000000E+00;3;  0.0000000E+00;  0.0000000E+00;  0.0000000E+00;0;  0.0000000E+00;  1.0000000E+04;  0.0000000E+00;  0.0000000E+00;  1.0000000E+04;  0.0000000E+00;  1.0000000E+04;  0.0000000E+00;  0.0000000E+00;  0.0000000E+00;  0.0000000E+00;
  4.6000001E-01;  9.9999998E-03;  2.3999999E-01;1769;  0.0000000E+00;  0.0000000E+00;  0.0000000E+00;  1.0000000E+03;  4.0000001E-01;  0.0000000E+00;3;  0.0000000E+00;  0.0000000E+00;  0.0000000E+00;0;  0.0000000E+00;  1.0000000E+04;  0.0000000E+00;  0.0000000E+00;  1.0000000E+04;  0.0000000E+00;  1.0000000E+04;  0.0000000E+00;  0.0000000E+00;  0.0000000E+00;  0.0000000E+00;
  4.6000001E-01;  9.9999998E-03;  2.5999999E-01;1770;  0.0000000E+00;  0.0000000E+00;  0.0000000E+00;  1.0000000E+03;  4.0000001E-01;  0.0000000E+00;3;  0.0000000E+00;  0.0000000E+00;  0.0000000E+00;0;  0.0000000E+00;  1.0000000E+04;  0.0000000E+00;  0.0000000E+00;  1.0000000E+04;  0.0000000E+00;  1.0000000E+04;  0.0000000E+00;  0.0000000E+00;  0.0000000E+00;  0.0000000E+00;
  4.6000001E-01;  9.9999998E-03;  2.8000000E-01;1771;  0.0000000E+00;  0.0000000E+00;  0.0000000E+00;  1.0000000E+03;  4.0000001E-01;  0.0000000E+00;3;  0.0000000E+00;  0.0000000E+00;  0.0000000E+00;0;  0.0000000E+00;  1.0000000E+04;  0.0000000E+00;  0.0000000E+00;  1.0000000E+04;  0.0000000E+00;  1.0000000E+04;  0.0000000E+00;  0.0000000E+00;  0.0000000E+00;  0.0000000E+00;
  4.6000001E-01;  9.9999998E-03;  3.0000001E-01;1772;  0.0000000E+00;  0.0000000E+00;  0.0000000E+00;  1.0000000E+03;  4.0000001E-01;  0.0000000E+00;3;  0.0000000E+00;  0.0000000E+00;  0.0000000E+00;0;  0.0000000E+00;  1.0000000E+04;  0.0000000E+00;  0.0000000E+00;  1.0000000E+04;  0.0000000E+00;  1.0000000E+04;  0.0000000E+00;  0.0000000E+00;  0.0000000E+00;  0.0000000E+00;
  4.7999999E-01;  9.9999998E-03;  1.6000000E-01;1796;  0.0000000E+00;  0.0000000E+00;  0.0000000E+00;  1.0000000E+03;  4.0000001E-01;  0.0000000E+00;3;  0.0000000E+00;  0.0000000E+00;  0.0000000E+00;0;  0.0000000E+00;  1.0000000E+04;  0.0000000E+00;  0.0000000E+00;  1.0000000E+04;  0.0000000E+00;  1.0000000E+04;  0.0000000E+00;  0.0000000E+00;  0.0000000E+00;  0.0000000E+00;
  4.7999999E-01;  9.9999998E-03;  1.8000001E-01;1797;  0.0000000E+00;  0.0000000E+00;  0.0000000E+00;  1.0000000E+03;  4.0000001E-01;  0.0000000E+00;3;  0.0000000E+00;  0.0000000E+00;  0.0000000E+00;0;  0.0000000E+00;  1.0000000E+04;  0.0000000E+00;  0.0000000E+00;  1.0000000E+04;  0.0000000E+00;  1.0000000E+04;  0.0000000E+00;  0.0000000E+00;  0.0000000E+00;  0.0000000E+00;
  4.7999999E-01;  9.9999998E-03;  2.0000000E-01;1798;  0.0000000E+00;  0.0000000E+00;  0.0000000E+00;  1.0000000E+03;  4.0000001E-01;  0.0000000E+00;3;  0.0000000E+00;  0.0000000E+00;  0.0000000E+00;0;  0.0000000E+00;  1.0000000E+04;  0.0000000E+00;  0.0000000E+00;  1.0000000E+04;  0.0000000E+00;  1.0000000E+04;  0.0000000E+00;  0.0000000E+00;  0.0000000E+00;  0.0000000E+00;
  4.7999999E-01;  9.9999998E-03;  2.2000000E-01;1799;  0.0000000E+00;  0.0000000E+00;  0.0000000E+00;  1.0000000E+03;  4.0000001E-01;  0.0000000E+00;3;  0.0000000E+00;  0.0000000E+00;  0.0000000E+00;0;  0.0000000E+00;  1.0000000E+04;  0.0000000E+00;  0.0000000E+00;  1.0000000E+04;  0.0000000E+00;  1.0000000E+04;  0.0000000E+00;  0.0000000E+00;  0.0000000E+00;  0.0000000E+00;
  4.7999999E-01;  9.9999998E-03;  2.3999999E-01;1800;  0.0000000E+00;  0.0000000E+00;  0.0000000E+00;  1.0000000E+03;  4.0000001E-01;  0.0000000E+00;3;  0.0000000E+00;  0.0000000E+00;  0.0000000E+00;0;  0.0000000E+00;  1.0000000E+04;  0.0000000E+00;  0.0000000E+00;  1.0000000E+04;  0.0000000E+00;  1.0000000E+04;  0.0000000E+00;  0.0000000E+00;  0.0000000E+00;  0.0000000E+00;
  4.7999999E-01;  9.9999998E-03;  2.5999999E-01;1801;  0.0000000E+00;  0.0000000E+00;  0.0000000E+00;  1.0000000E+03;  4.0000001E-01;  0.0000000E+00;3;  0.0000000E+00;  0.0000000E+00;  0.0000000E+00;0;  0.0000000E+00;  1.0000000E+04;  0.0000000E+00;  0.0000000E+00;  1.0000000E+04;  0.0000000E+00;  1.0000000E+04;  0.0000000E+00;  0.0000000E+00;  0.0000000E+00;  0.0000000E+00;
  4.7999999E-01;  9.9999998E-03;  2.8000000E-01;1802;  0.0000000E+00;  0.0000000E+00;  0.0000000E+00;  1.0000000E+03;  4.0000001E-01;  0.0000000E+00;3;  0.0000000E+00;  0.0000000E+00;  0.0000000E+00;0;  0.0000000E+00;  1.0000000E+04;  0.0000000E+00;  0.0000000E+00;  1.0000000E+04;  0.0000000E+00;  1.0000000E+04;  0.0000000E+00;  0.0000000E+00;  0.0000000E+00;  0.0000000E+00;
  4.7999999E-01;  9.9999998E-03;  3.0000001E-01;1803;  0.0000000E+00;  0.0000000E+00;  0.0000000E+00;  1.0000000E+03;  4.0000001E-01;  0.0000000E+00;3;  0.0000000E+00;  0.0000000E+00;  0.0000000E+00;0;  0.0000000E+00;  1.0000000E+04;  0.0000000E+00;  0.0000000E+00;  1.0000000E+04;  0.0000000E+00;  1.0000000E+04;  0.0000000E+00;  0.0000000E+00;  0.0000000E+00;  0.0000000E+00;
  5.0000000E-01;  9.9999998E-03;  1.6000000E-01;1827;  0.0000000E+00;  0.0000000E+00;  0.0000000E+00;  1.0000000E+03;  4.0000001E-01;  0.0000000E+00;3;  0.0000000E+00;  0.0000000E+00;  0.0000000E+00;0;  0.0000000E+00;  1.0000000E+04;  0.0000000E+00;  0.0000000E+00;  1.0000000E+04;  0.0000000E+00;  1.0000000E+04;  0.0000000E+00;  0.0000000E+00;  0.0000000E+00;  0.0000000E+00;
  5.0000000E-01;  9.9999998E-03;  1.8000001E-01;1828;  0.0000000E+00;  0.0000000E+00;  0.0000000E+00;  1.0000000E+03;  4.0000001E-01;  0.0000000E+00;3;  0.0000000E+00;  0.0000000E+00;  0.0000000E+00;0;  0.0000000E+00;  1.0000000E+04;  0.0000000E+00;  0.0000000E+00;  1.0000000E+04;  0.0000000E+00;  1.0000000E+04;  0.0000000E+00;  0.0000000E+00;  0.0000000E+00;  0.0000000E+00;
  5.0000000E-01;  9.9999998E-03;  2.0000000E-01;1829;  0.0000000E+00;  0.0000000E+00;  0.0000000E+00;  1.0000000E+03;  4.0000001E-01;  0.0000000E+00;3;  0.0000000E+00;  0.0000000E+00;  0.0000000E+00;0;  0.0000000E+00;  1.0000000E+04;  0.0000000E+00;  0.0000000E+00;  1.0000000E+04;  0.0000000E+00;  1.0000000E+04;  0.0000000E+00;  0.0000000E+00;  0.0000000E+00;  0.0000000E+00;
  5.0000000E-01;  9.9999998E-03;  2.2000000E-01;1830;  0.0000000E+00;  0.0000000E+00;  0.0000000E+00;  1.0000000E+03;  4.0000001E-01;  0.0000000E+00;3;  0.0000000E+00;  0.0000000E+00;  0.0000000E+00;0;  0.0000000E+00;  1.0000000E+04;  0.0000000E+00;  0.0000000E+00;  1.0000000E+04;  0.0000000E+00;  1.0000000E+04;  0.0000000E+00;  0.0000000E+00;  0.0000000E+00;  0.0000000E+00;
  5.0000000E-01;  9.9999998E-03;  2.3999999E-01;1831;  0.0000000E+00;  0.0000000E+00;  0.0000000E+00;  1.0000000E+03;  4.0000001E-01;  0.0000000E+00;3;  0.0000000E+00;  0.0000000E+00;  0.0000000E+00;0;  0.0000000E+00;  1.0000000E+04;  0.0000000E+00;  0.0000000E+00;  1.0000000E+04;  0.0000000E+00;  1.0000000E+04;  0.0000000E+00;  0.0000000E+00;  0.0000000E+00;  0.0000000E+00;
  5.0000000E-01;  9.9999998E-03;  2.5999999E-01;1832;  0.0000000E+00;  0.0000000E+00;  0.0000000E+00;  1.0000000E+03;  4.0000001E-01;  0.0000000E+00;3;  0.0000000E+00;  0.0000000E+00;  0.0000000E+00;0;  0.0000000E+00;  1.0000000E+04;  0.0000000E+00;  0.0000000E+00;  1.0000000E+04;  0.0000000E+00;  1.0000000E+04;  0.0000000E+00;  0.0000000E+00;  0.0000000E+00;  0.0000000E+00;
  5.0000000E-01;  9.9999998E-03;  2.8000000E-01;1833;  0.0000000E+00;  0.0000000E+00;  0.0000000E+00;  1.0000000E+03;  4.0000001E-01;  0.0000000E+00;3;  0.0000000E+00;  0.0000000E+00;  0.0000000E+00;0;  0.0000000E+00;  1.0000000E+04;  0.0000000E+00;  0.0000000E+00;  1.0000000E+04;  0.0000000E+00;  1.0000000E+04;  0.0000000E+00;  0.0000000E+00;  0.0000000E+00;  0.0000000E+00;
  5.0000000E-01;  9.9999998E-03;  3.0000001E-01;1834;  0.0000000E+00;  0.0000000E+00;  0.0000000E+00;  1.0000000E+03;  4.0000001E-01;  0.0000000E+00;3;  0.0000000E+00;  0.0000000E+00;  0.0000000E+00;0;  0.0000000E+00;  1.0000000E+04;  0.0000000E+00;  0.0000000E+00;  1.0000000E+04;  0.0000000E+00;  1.0000000E+04;  0.0000000E+00;  0.0000000E+00;  0.0000000E+00;  0.0000000E+00;
  5.1999998E-01;  9.9999998E-03;  1.6000000E-01;1858;  0.0000000E+00;  0.0000000E+00;  0.0000000E+00;  1.0000000E+03;  4.0000001E-01;  0.0000000E+00;3;  0.0000000E+00;  0.0000000E+00;  0.0000000E+00;0;  0.0000000E+00;  1.0000000E+04;  0.0000000E+00;  0.0000000E+00;  1.0000000E+04;  0.0000000E+00;  1.0000000E+04;  0.0000000E+00;  0.0000000E+00;  0.0000000E+00;  0.0000000E+00;
  5.1999998E-01;  9.9999998E-03;  1.8000001E-01;1859;  0.0000000E+00;  0.0000000E+00;  0.0000000E+00;  1.0000000E+03;  4.0000001E-01;  0.0000000E+00;3;  0.0000000E+00;  0.0000000E+00;  0.0000000E+00;0;  0.0000000E+00;  1.0000000E+04;  0.0000000E+00;  0.0000000E+00;  1.0000000E+04;  0.0000000E+00;  1.0000000E+04;  0.0000000E+00;  0.0000000E+00;  0.0000000E+00;  0.0000000E+00;
  5.1999998E-01;  9.9999998E-03;  2.0000000E-01;1860;  0.0000000E+00;  0.0000000E+00;  0.0000000E+00;  1.0000000E+03;  4.0000001E-01;  0.0000000E+00;3;  0.0000000E+00;  0.0000000E+00;  0.0000000E+00;0;  0.0000000E+00;  1.0000000E+04;  0.0000000E+00;  0.0000000E+00;  1.0000000E+04;  0.0000000E+00;  1.0000000E+04;  0.0000000E+00;  0.0000000E+00;  0.0000000E+00;  0.0000000E+00;
  5.1999998E-01;  9.9999998E-03;  2.2000000E-01;1861;  0.0000000E+00;  0.0000000E+00;  0.0000000E+00;  1.0000000E+03;  4.0000001E-01;  0.0000000E+00;3;  0.0000000E+00;  0.0000000E+00;  0.0000000E+00;0;  0.0000000E+00;  1.0000000E+04;  0.0000000E+00;  0.0000000E+00;  1.0000000E+04;  0.0000000E+00;  1.0000000E+04;  0.0000000E+00;  0.0000000E+00;  0.0000000E+00;  0.0000000E+00;
  5.1999998E-01;  9.9999998E-03;  2.3999999E-01;1862;  0.0000000E+00;  0.0000000E+00;  0.0000000E+00;  1.0000000E+03;  4.0000001E-01;  0.0000000E+00;3;  0.0000000E+00;  0.0000000E+00;  0.0000000E+00;0;  0.0000000E+00;  1.0000000E+04;  0.0000000E+00;  0.0000000E+00;  1.0000000E+04;  0.0000000E+00;  1.0000000E+04;  0.0000000E+00;  0.0000000E+00;  0.0000000E+00;  0.0000000E+00;
  5.1999998E-01;  9.9999998E-03;  2.5999999E-01;1863;  0.0000000E+00;  0.0000000E+00;  0.0000000E+00;  1.0000000E+03;  4.0000001E-01;  0.0000000E+00;3;  0.0000000E+00;  0.0000000E+00;  0.0000000E+00;0;  0.0000000E+00;  1.0000000E+04;  0.0000000E+00;  0.0000000E+00;  1.0000000E+04;  0.0000000E+00;  1.0000000E+04;  0.0000000E+00;  0.0000000E+00;  0.0000000E+00;  0.0000000E+00;
  5.1999998E-01;  9.9999998E-03;  2.8000000E-01;1864;  0.0000000E+00;  0.0000000E+00;  0.0000000E+00;  1.0000000E+03;  4.0000001E-01;  0.0000000E+00;3;  0.0000000E+00;  0.0000000E+00;  0.0000000E+00;0;  0.0000000E+00;  1.0000000E+04;  0.0000000E+00;  0.0000000E+00;  1.0000000E+04;  0.0000000E+00;  1.0000000E+04;  0.0000000E+00;  0.0000000E+00;  0.0000000E+00;  0.0000000E+00;
  5.1999998E-01;  9.9999998E-03;  3.0000001E-01;1865;  0.0000000E+00;  0.0000000E+00;  0.0000000E+00;  1.0000000E+03;  4.0000001E-01;  0.0000000E+00;3;  0.0000000E+00;  0.0000000E+00;  0.0000000E+00;0;  0.0000000E+00;  1.0000000E+04;  0.0000000E+00;  0.0000000E+00;  1.0000000E+04;  0.0000000E+00;  1.0000000E+04;  0.0000000E+00;  0.0000000E+00;  0.0000000E+00;  0.0000000E+00;
  5.4000002E-01;  9.9999998E-03;  1.6000000E-01;1889;  0.0000000E+00;  0.0000000E+00;  0.0000000E+00;  1.0000000E+03;  4.0000001E-01;  0.0000000E+00;3;  0.0000000E+00;  0.0000000E+00;  0.0000000E+00;0;  0.0000000E+00;  1.0000000E+04;  0.0000000E+00;  0.0000000E+00;  1.0000000E+04;  0.0000000E+00;  1.0000000E+04;  0.0000000E+00;  0.0000000E+00;  0.0000000E+00;  0.0000000E+00;
  5.4000002E-01;  9.9999998E-03;  1.8000001E-01;1890;  0.0000000E+00;  0.0000000E+00;  0.0000000E+00;  1.0000000E+03;  4.0000001E-01;  0.0000000E+00;3;  0.0000000E+00;  0.0000000E+00;  0.0000000E+00;0;  0.0000000E+00;  1.0000000E+04;  0.0000000E+00;  0.0000000E+00;  1.0000000E+04;  0.0000000E+00;  1.0000000E+04;  0.0000000E+00;  0.0000000E+00;  0.0000000E+00;  0.0000000E+00;
  5.4000002E-01;  9.9999998E-03;  2.0000000E-01;1891;  0.0000000E+00;  0.0000000E+00;  0.0000000E+00;  1.0000000E+03;  4.0000001E-01;  0.0000000E+00;3;  0.0000000E+00;  0.0000000E+00;  0.0000000E+00;0;  0.0000000E+00;  1.0000000E+04;  0.0000000E+00;  0.0000000E+00;  1.0000000E+04;  0.0000000E+00;  1.0000000E+04;  0.0000000E+00;  0.0000000E+00;  0.0000000E+00;  0.0000000E+00;
  5.4000002E-01;  9.9999998E-03;  2.2000000E-01;1892;  0.0000000E+00;  0.0000000E+00;  0.0000000E+00;  1.0000000E+03;  4.0000001E-01;  0.0000000E+00;3;  0.0000000E+00;  0.0000000E+00;  0.0000000E+00;0;  0.0000000E+00;  1.0000000E+04;  0.0000000E+00;  0.0000000E+00;  1.0000000E+04;  0.0000000E+00;  1.0000000E+04;  0.0000000E+00;  0.0000000E+00;  0.0000000E+00;  0.0000000E+00;
  5.4000002E-01;  9.9999998E-03;  2.3999999E-01;1893;  0.0000000E+00;  0.0000000E+00;  0.0000000E+00;  1.0000000E+03;  4.0000001E-01;  0.0000000E+00;3;  0.0000000E+00;  0.0000000E+00;  0.0000000E+00;0;  0.0000000E+00;  1.0000000E+04;  0.0000000E+00;  0.0000000E+00;  1.0000000E+04;  0.0000000E+00;  1.0000000E+04;  0.0000000E+00;  0.0000000E+00;  0.0000000E+00;  0.0000000E+00;
  5.4000002E-01;  9.9999998E-03;  2.5999999E-01;1894;  0.0000000E+00;  0.0000000E+00;  0.0000000E+00;  1.0000000E+03;  4.0000001E-01;  0.0000000E+00;3;  0.0000000E+00;  0.0000000E+00;  0.0000000E+00;0;  0.0000000E+00;  1.0000000E+04;  0.0000000E+00;  0.0000000E+00;  1.0000000E+04;  0.0000000E+00;  1.0000000E+04;  0.0000000E+00;  0.0000000E+00;  0.0000000E+00;  0.0000000E+00;
  5.4000002E-01;  9.9999998E-03;  2.8000000E-01;1895;  0.0000000E+00;  0.0000000E+00;  0.0000000E+00;  1.0000000E+03;  4.0000001E-01;  0.0000000E+00;3;  0.0000000E+00;  0.0000000E+00;  0.0000000E+00;0;  0.0000000E+00;  1.0000000E+04;  0.0000000E+00;  0.0000000E+00;  1.0000000E+04;  0.0000000E+00;  1.0000000E+04;  0.0000000E+00;  0.0000000E+00;  0.0000000E+00;  0.0000000E+00;
  5.4000002E-01;  9.9999998E-03;  3.0000001E-01;1896;  0.0000000E+00;  0.0000000E+00;  0.0000000E+00;  1.0000000E+03;  4.0000001E-01;  0.0000000E+00;3;  0.0000000E+00;  0.0000000E+00;  0.0000000E+00;0;  0.0000000E+00;  1.0000000E+04;  0.0000000E+00;  0.0000000E+00;  1.0000000E+04;  0.0000000E+00;  1.0000000E+04;  0.0000000E+00;  0.0000000E+00;  0.0000000E+00;  0.0000000E+00;
  5.6000000E-01;  9.9999998E-03;  1.6000000E-01;1920;  0.0000000E+00;  0.0000000E+00;  0.0000000E+00;  1.0000000E+03;  4.0000001E-01;  0.0000000E+00;3;  0.0000000E+00;  0.0000000E+00;  0.0000000E+00;0;  0.0000000E+00;  1.0000000E+04;  0.0000000E+00;  0.0000000E+00;  1.0000000E+04;  0.0000000E+00;  1.0000000E+04;  0.0000000E+00;  0.0000000E+00;  0.0000000E+00;  0.0000000E+00;
  5.6000000E-01;  9.9999998E-03;  1.8000001E-01;1921;  0.0000000E+00;  0.0000000E+00;  0.0000000E+00;  1.0000000E+03;  4.0000001E-01;  0.0000000E+00;3;  0.0000000E+00;  0.0000000E+00;  0.0000000E+00;0;  0.0000000E+00;  1.0000000E+04;  0.0000000E+00;  0.0000000E+00;  1.0000000E+04;  0.0000000E+00;  1.0000000E+04;  0.0000000E+00;  0.0000000E+00;  0.0000000E+00;  0.0000000E+00;
  5.6000000E-01;  9.9999998E-03;  2.0000000E-01;1922;  0.0000000E+00;  0.0000000E+00;  0.0000000E+00;  1.0000000E+03;  4.0000001E-01;  0.0000000E+00;3;  0.0000000E+00;  0.0000000E+00;  0.0000000E+00;0;  0.0000000E+00;  1.0000000E+04;  0.0000000E+00;  0.0000000E+00;  1.0000000E+04;  0.0000000E+00;  1.0000000E+04;  0.0000000E+00;  0.0000000E+00;  0.0000000E+00;  0.0000000E+00;
  5.6000000E-01;  9.9999998E-03;  2.2000000E-01;1923;  0.0000000E+00;  0.0000000E+00;  0.0000000E+00;  1.0000000E+03;  4.0000001E-01;  0.0000000E+00;3;  0.0000000E+00;  0.0000000E+00;  0.0000000E+00;0;  0.0000000E+00;  1.0000000E+04;  0.0000000E+00;  0.0000000E+00;  1.0000000E+04;  0.0000000E+00;  1.0000000E+04;  0.0000000E+00;  0.0000000E+00;  0.0000000E+00;  0.0000000E+00;
  5.6000000E-01;  9.9999998E-03;  2.3999999E-01;1924;  0.0000000E+00;  0.0000000E+00;  0.0000000E+00;  1.0000000E+03;  4.0000001E-01;  0.0000000E+00;3;  0.0000000E+00;  0.0000000E+00;  0.0000000E+00;0;  0.0000000E+00;  1.0000000E+04;  0.0000000E+00;  0.0000000E+00;  1.0000000E+04;  0.0000000E+00;  1.0000000E+04;  0.0000000E+00;  0.0000000E+00;  0.0000000E+00;  0.0000000E+00;
  5.6000000E-01;  9.9999998E-03;  2.5999999E-01;1925;  0.0000000E+00;  0.0000000E+00;  0.0000000E+00;  1.0000000E+03;  4.0000001E-01;  0.0000000E+00;3;  0.0000000E+00;  0.0000000E+00;  0.0000000E+00;0;  0.0000000E+00;  1.0000000E+04;  0.0000000E+00;  0.0000000E+00;  1.0000000E+04;  0.0000000E+00;  1.0000000E+04;  0.0000000E+00;  0.0000000E+00;  0.0000000E+00;  0.0000000E+00;
  5.6000000E-01;  9.9999998E-03;  2.8000000E-01;1926;  0.0000000E+00;  0.0000000E+00;  0.0000000E+00;  1.0000000E+03;  4.0000001E-01;  0.0000000E+00;3;  0.0000000E+00;  0.0000000E+00;  0.0000000E+00;0;  0.0000000E+00;  1.0000000E+04;  0.0000000E+00;  0.0000000E+00;  1.0000000E+04;  0.0000000E+00;  1.0000000E+04;  0.0000000E+00;  0.0000000E+00;  0.0000000E+00;  0.0000000E+00;
  5.6000000E-01;  9.9999998E-03;  3.0000001E-01;1927;  0.0000000E+00;  0.0000000E+00;  0.0000000E+00;  1.0000000E+03;  4.0000001E-01;  0.0000000E+00;3;  0.0000000E+00;  0.0000000E+00;  0.0000000E+00;0;  0.0000000E+00;  1.0000000E+04;  0.0000000E+00;  0.0000000E+00;  1.0000000E+04;  0.0000000E+00;  1.0000000E+04;  0.0000000E+00;  0.0000000E+00;  0.0000000E+00;  0.0000000E+00;
  5.7999998E-01;  9.9999998E-03;  1.6000000E-01;1951;  0.0000000E+00;  0.0000000E+00;  0.0000000E+00;  1.0000000E+03;  4.0000001E-01;  0.0000000E+00;3;  0.0000000E+00;  0.0000000E+00;  0.0000000E+00;0;  0.0000000E+00;  1.0000000E+04;  0.0000000E+00;  0.0000000E+00;  1.0000000E+04;  0.0000000E+00;  1.0000000E+04;  0.0000000E+00;  0.0000000E+00;  0.0000000E+00;  0.0000000E+00;
  5.7999998E-01;  9.9999998E-03;  1.8000001E-01;1952;  0.0000000E+00;  0.0000000E+00;  0.0000000E+00;  1.0000000E+03;  4.0000001E-01;  0.0000000E+00;3;  0.0000000E+00;  0.0000000E+00;  0.0000000E+00;0;  0.0000000E+00;  1.0000000E+04;  0.0000000E+00;  0.0000000E+00;  1.0000000E+04;  0.0000000E+00;  1.0000000E+04;  0.0000000E+00;  0.0000000E+00;  0.0000000E+00;  0.0000000E+00;
  5.7999998E-01;  9.9999998E-03;  2.0000000E-01;1953;  0.0000000E+00;  0.0000000E+00;  0.0000000E+00;  1.0000000E+03;  4.0000001E-01;  0.0000000E+00;3;  0.0000000E+00;  0.0000000E+00;  0.0000000E+00;0;  0.0000000E+00;  1.0000000E+04;  0.0000000E+00;  0.0000000E+00;  1.0000000E+04;  0.0000000E+00;  1.0000000E+04;  0.0000000E+00;  0.0000000E+00;  0.0000000E+00;  0.0000000E+00;
  5.7999998E-01;  9.9999998E-03;  2.2000000E-01;1954;  0.0000000E+00;  0.0000000E+00;  0.0000000E+00;  1.0000000E+03;  4.0000001E-01;  0.0000000E+00;3;  0.0000000E+00;  0.0000000E+00;  0.0000000E+00;0;  0.0000000E+00;  1.0000000E+04;  0.0000000E+00;  0.0000000E+00;  1.0000000E+04;  0.0000000E+00;  1.0000000E+04;  0.0000000E+00;  0.0000000E+00;  0.0000000E+00;  0.0000000E+00;
  5.7999998E-01;  9.9999998E-03;  2.3999999E-01;1955;  0.0000000E+00;  0.0000000E+00;  0.0000000E+00;  1.0000000E+03;  4.0000001E-01;  0.0000000E+00;3;  0.0000000E+00;  0.0000000E+00;  0.0000000E+00;0;  0.0000000E+00;  1.0000000E+04;  0.0000000E+00;  0.0000000E+00;  1.0000000E+04;  0.0000000E+00;  1.0000000E+04;  0.0000000E+00;  0.0000000E+00;  0.0000000E+00;  0.0000000E+00;
  5.7999998E-01;  9.9999998E-03;  2.5999999E-01;1956;  0.0000000E+00;  0.0000000E+00;  0.0000000E+00;  1.0000000E+03;  4.0000001E-01;  0.0000000E+00;3;  0.0000000E+00;  0.0000000E+00;  0.0000000E+00;0;  0.0000000E+00;  1.0000000E+04;  0.0000000E+00;  0.0000000E+00;  1.0000000E+04;  0.0000000E+00;  1.0000000E+04;  0.0000000E+00;  0.0000000E+00;  0.0000000E+00;  0.0000000E+00;
  5.7999998E-01;  9.9999998E-03;  2.8000000E-01;1957;  0.0000000E+00;  0.0000000E+00;  0.0000000E+00;  1.0000000E+03;  4.0000001E-01;  0.0000000E+00;3;  0.0000000E+00;  0.0000000E+00;  0.0000000E+00;0;  0.0000000E+00;  1.0000000E+04;  0.0000000E+00;  0.0000000E+00;  1.0000000E+04;  0.0000000E+00;  1.0000000E+04;  0.0000000E+00;  0.0000000E+00;  0.0000000E+00;  0.0000000E+00;
  5.7999998E-01;  9.9999998E-03;  3.0000001E-01;1958;  0.0000000E+00;  0.0000000E+00;  0.0000000E+00;  1.0000000E+03;  4.0000001E-01;  0.0000000E+00;3;  0.0000000E+00;  0.0000000E+00;  0.0000000E+00;0;  0.0000000E+00;  1.0000000E+04;  0.0000000E+00;  0.0000000E+00;  1.0000000E+04;  0.0000000E+00;  1.0000000E+04;  0.0000000E+00;  0.0000000E+00;  0.0000000E+00;  0.0000000E+00;
  6.0000002E-01;  9.9999998E-03;  1.6000000E-01;1982;  0.0000000E+00;  0.0000000E+00;  0.0000000E+00;  1.0000000E+03;  4.0000001E-01;  0.0000000E+00;3;  0.0000000E+00;  0.0000000E+00;  0.0000000E+00;0;  0.0000000E+00;  1.0000000E+04;  0.0000000E+00;  0.0000000E+00;  1.0000000E+04;  0.0000000E+00;  1.0000000E+04;  0.0000000E+00;  0.0000000E+00;  0.0000000E+00;  0.0000000E+00;
  6.0000002E-01;  9.9999998E-03;  1.8000001E-01;1983;  0.0000000E+00;  0.0000000E+00;  0.0000000E+00;  1.0000000E+03;  4.0000001E-01;  0.0000000E+00;3;  0.0000000E+00;  0.0000000E+00;  0.0000000E+00;0;  0.0000000E+00;  1.0000000E+04;  0.0000000E+00;  0.0000000E+00;  1.0000000E+04;  0.0000000E+00;  1.0000000E+04;  0.0000000E+00;  0.0000000E+00;  0.0000000E+00;  0.0000000E+00;
  6.0000002E-01;  9.9999998E-03;  2.0000000E-01;1984;  0.0000000E+00;  0.0000000E+00;  0.0000000E+00;  1.0000000E+03;  4.0000001E-01;  0.0000000E+00;3;  0.0000000E+00;  0.0000000E+00;  0.0000000E+00;0;  0.0000000E+00;  1.0000000E+04;  0.0000000E+00;  0.0000000E+00;  1.0000000E+04;  0.0000000E+00;  1.0000000E+04;  0.0000000E+00;  0.0000000E+00;  0.0000000E+00;  0.0000000E+00;
  6.0000002E-01;  9.9999998E-03;  2.2000000E-01;1985;  0.0000000E+00;  0.0000000E+00;  0.0000000E+00;  1.0000000E+03;  4.0000001E-01;  0.0000000E+00;3;  0.0000000E+00;  0.0000000E+00;  0.0000000E+00;0;  0.0000000E+00;  1.0000000E+04;  0.0000000E+00;  0.0000000E+00;  1.0000000E+04;  0.0000000E+00;  1.0000000E+04;  0.0000000E+00;  0.0000000E+00;  0.0000000E+00;  0.0000000E+00;
  6.0000002E-01;  9.9999998E-03;  2.3999999E-01;1986;  0.0000000E+00;  0.0000000E+00;  0.0000000E+00;  1.0000000E+03;  4.0000001E-01;  0.0000000E+00;3;  0.0000000E+00;  0.0000000E+00;  0.0000000E+00;0;  0.0000000E+00;  1.0000000E+04;  0.0000000E+00;  0.0000000E+00;  1.0000000E+04;  0.0000000E+00;  1.0000000E+04;  0.0000000E+00;  0.0000000E+00;  0.0000000E+00;  0.0000000E+00;
  6.0000002E-01;  9.9999998E-03;  2.5999999E-01;1987;  0.0000000E+00;  0.0000000E+00;  0.0000000E+00;  1.0000000E+03;  4.0000001E-01;  0.0000000E+00;3;  0.0000000E+00;  0.0000000E+00;  0.0000000E+00;0;  0.0000000E+00;  1.0000000E+04;  0.0000000E+00;  0.0000000E+00;  1.0000000E+04;  0.0000000E+00;  1.0000000E+04;  0.0000000E+00;  0.0000000E+00;  0.0000000E+00;  0.0000000E+00;
  6.0000002E-01;  9.9999998E-03;  2.8000000E-01;1988;  0.0000000E+00;  0.0000000E+00;  0.0000000E+00;  1.0000000E+03;  4.0000001E-01;  0.0000000E+00;3;  0.0000000E+00;  0.0000000E+00;  0.0000000E+00;0;  0.0000000E+00;  1.0000000E+04;  0.0000000E+00;  0.0000000E+00;  1.0000000E+04;  0.0000000E+00;  1.0000000E+04;  0.0000000E+00;  0.0000000E+00;  0.0000000E+00;  0.0000000E+00;
  6.0000002E-01;  9.9999998E-03;  3.0000001E-01;1989;  0.0000000E+00;  0.0000000E+00;  0.0000000E+00;  1.0000000E+03;  4.0000001E-01;  0.0000000E+00;3;  0.0000000E+00;  0.0000000E+00;  0.0000000E+00;0;  0.0000000E+00;  1.0000000E+04;  0.0000000E+00;  0.0000000E+00;  1.0000000E+04;  0.0000000E+00;  1.0000000E+04;  0.0000000E+00;  0.0000000E+00;  0.0000000E+00;  0.0000000E+00;
  6.2000000E-01;  9.9999998E-03;  1.6000000E-01;2013;  0.0000000E+00;  0.0000000E+00;  0.0000000E+00;  1.0000000E+03;  4.0000001E-01;  0.0000000E+00;3;  0.0000000E+00;  0.0000000E+00;  0.0000000E+00;0;  0.0000000E+00;  1.0000000E+04;  0.0000000E+00;  0.0000000E+00;  1.0000000E+04;  0.0000000E+00;  1.0000000E+04;  0.0000000E+00;  0.0000000E+00;  0.0000000E+00;  0.0000000E+00;
  6.2000000E-01;  9.9999998E-03;  1.8000001E-01;2014;  0.0000000E+00;  0.0000000E+00;  0.0000000E+00;  1.0000000E+03;  4.0000001E-01;  0.0000000E+00;3;  0.0000000E+00;  0.0000000E+00;  0.0000000E+00;0;  0.0000000E+00;  1.0000000E+04;  0.0000000E+00;  0.0000000E+00;  1.0000000E+04;  0.0000000E+00;  1.0000000E+04;  0.0000000E+00;  0.0000000E+00;  0.0000000E+00;  0.0000000E+00;
  6.2000000E-01;  9.9999998E-03;  2.0000000E-01;2015;  0.0000000E+00;  0.0000000E+00;  0.0000000E+00;  1.0000000E+03;  4.0000001E-01;  0.0000000E+00;3;  0.0000000E+00;  0.0000000E+00;  0.0000000E+00;0;  0.0000000E+00;  1.0000000E+04;  0.0000000E+00;  0.0000000E+00;  1.0000000E+04;  0.0000000E+00;  1.0000000E+04;  0.0000000E+00;  0.0000000E+00;  0.0000000E+00;  0.0000000E+00;
  6.2000000E-01;  9.9999998E-03;  2.2000000E-01;2016;  0.0000000E+00;  0.0000000E+00;  0.0000000E+00;  1.0000000E+03;  4.0000001E-01;  0.0000000E+00;3;  0.0000000E+00;  0.0000000E+00;  0.0000000E+00;0;  0.0000000E+00;  1.0000000E+04;  0.0000000E+00;  0.0000000E+00;  1.0000000E+04;  0.0000000E+00;  1.0000000E+04;  0.0000000E+00;  0.0000000E+00;  0.0000000E+00;  0.0000000E+00;
  6.2000000E-01;  9.9999998E-03;  2.3999999E-01;2017;  0.0000000E+00;  0.0000000E+00;  0.0000000E+00;  1.0000000E+03;  4.0000001E-01;  0.0000000E+00;3;  0.0000000E+00;  0.0000000E+00;  0.0000000E+00;0;  0.0000000E+00;  1.0000000E+04;  0.0000000E+00;  0.0000000E+00;  1.0000000E+04;  0.0000000E+00;  1.0000000E+04;  0.0000000E+00;  0.0000000E+00;  0.0000000E+00;  0.0000000E+00;
  6.2000000E-01;  9.9999998E-03;  2.5999999E-01;2018;  0.0000000E+00;  0.0000000E+00;  0.0000000E+00;  1.0000000E+03;  4.0000001E-01;  0.0000000E+00;3;  0.0000000E+00;  0.0000000E+00;  0.0000000E+00;0;  0.0000000E+00;  1.0000000E+04;  0.0000000E+00;  0.0000000E+00;  1.0000000E+04;  0.0000000E+00;  1.0000000E+04;  0.0000000E+00;  0.0000000E+00;  0.0000000E+00;  0.0000000E+00;
  6.2000000E-01;  9.9999998E-03;  2.8000000E-01;2019;  0.0000000E+00;  0.0000000E+00;  0.0000000E+00;  1.0000000E+03;  4.0000001E-01;  0.0000000E+00;3;  0.0000000E+00;  0.0000000E+00;  0.0000000E+00;0;  0.0000000E+00;  1.0000000E+04;  0.0000000E+00;  0.0000000E+00;  1.0000000E+04;  0.0000000E+00;  1.0000000E+04;  0.0000000E+00;  0.0000000E+00;  0.0000000E+00;  0.0000000E+00;
  6.2000000E-01;  9.9999998E-03;  3.0000001E-01;2020;  0.0000000E+00;  0.0000000E+00;  0.0000000E+00;  1.0000000E+03;  4.0000001E-01;  0.0000000E+00;3;  0.0000000E+00;  0.0000000E+00;  0.0000000E+00;0;  0.0000000E+00;  1.0000000E+04;  0.0000000E+00;  0.0000000E+00;  1.0000000E+04;  0.0000000E+00;  1.0000000E+04;  0.0000000E+00;  0.0000000E+00;  0.0000000E+00;  0.0000000E+00;
  6.3999999E-01;  9.9999998E-03;  1.6000000E-01;2044;  0.0000000E+00;  0.0000000E+00;  0.0000000E+00;  1.0000000E+03;  4.0000001E-01;  0.0000000E+00;3;  0.0000000E+00;  0.0000000E+00;  0.0000000E+00;0;  0.0000000E+00;  1.0000000E+04;  0.0000000E+00;  0.0000000E+00;  1.0000000E+04;  0.0000000E+00;  1.0000000E+04;  0.0000000E+00;  0.0000000E+00;  0.0000000E+00;  0.0000000E+00;
  6.3999999E-01;  9.9999998E-03;  1.8000001E-01;2045;  0.0000000E+00;  0.0000000E+00;  0.0000000E+00;  1.0000000E+03;  4.0000001E-01;  0.0000000E+00;3;  0.0000000E+00;  0.0000000E+00;  0.0000000E+00;0;  0.0000000E+00;  1.0000000E+04;  0.0000000E+00;  0.0000000E+00;  1.0000000E+04;  0.0000000E+00;  1.0000000E+04;  0.0000000E+00;  0.0000000E+00;  0.0000000E+00;  0.0000000E+00;
  6.3999999E-01;  9.9999998E-03;  2.0000000E-01;2046;  0.0000000E+00;  0.0000000E+00;  0.0000000E+00;  1.0000000E+03;  4.0000001E-01;  0.0000000E+00;3;  0.0000000E+00;  0.0000000E+00;  0.0000000E+00;0;  0.0000000E+00;  1.0000000E+04;  0.0000000E+00;  0.0000000E+00;  1.0000000E+04;  0.0000000E+00;  1.0000000E+04;  0.0000000E+00;  0.0000000E+00;  0.0000000E+00;  0.0000000E+00;
  6.3999999E-01;  9.9999998E-03;  2.2000000E-01;2047;  0.0000000E+00;  0.0000000E+00;  0.0000000E+00;  1.0000000E+03;  4.0000001E-01;  0.0000000E+00;3;  0.0000000E+00;  0.0000000E+00;  0.0000000E+00;0;  0.0000000E+00;  1.0000000E+04;  0.0000000E+00;  0.0000000E+00;  1.0000000E+04;  0.0000000E+00;  1.0000000E+04;  0.0000000E+00;  0.0000000E+00;  0.0000000E+00;  0.0000000E+00;
  6.3999999E-01;  9.9999998E-03;  2.3999999E-01;2048;  0.0000000E+00;  0.0000000E+00;  0.0000000E+00;  1.0000000E+03;  4.0000001E-01;  0.0000000E+00;3;  0.0000000E+00;  0.0000000E+00;  0.0000000E+00;0;  0.0000000E+00;  1.0000000E+04;  0.0000000E+00;  0.0000000E+00;  1.0000000E+04;  0.0000000E+00;  1.0000000E+04;  0.0000000E+00;  0.0000000E+00;  0.0000000E+00;  0.0000000E+00;
  6.3999999E-01;  9.9999998E-03;  2.5999999E-01;2049;  0.0000000E+00;  0.0000000E+00;  0.0000000E+00;  1.0000000E+03;  4.0000001E-01;  0.0000000E+00;3;  0.0000000E+00;  0.0000000E+00;  0.0000000E+00;0;  0.0000000E+00;  1.0000000E+04;  0.0000000E+00;  0.0000000E+00;  1.0000000E+04;  0.0000000E+00;  1.0000000E+04;  0.0000000E+00;  0.0000000E+00;  0.0000000E+00;  0.0000000E+00;
  6.3999999E-01;  9.9999998E-03;  2.8000000E-01;2050;  0.0000000E+00;  0.0000000E+00;  0.0000000E+00;  1.0000000E+03;  4.0000001E-01;  0.0000000E+00;3;  0.0000000E+00;  0.0000000E+00;  0.0000000E+00;0;  0.0000000E+00;  1.0000000E+04;  0.0000000E+00;  0.0000000E+00;  1.0000000E+04;  0.0000000E+00;  1.0000000E+04;  0.0000000E+00;  0.0000000E+00;  0.0000000E+00;  0.0000000E+00;
  6.3999999E-01;  9.9999998E-03;  3.0000001E-01;2051;  0.0000000E+00;  0.0000000E+00;  0.0000000E+00;  1.0000000E+03;  4.0000001E-01;  0.0000000E+00;3;  0.0000000E+00;  0.0000000E+00;  0.0000000E+00;0;  0.0000000E+00;  1.0000000E+04;  0.0000000E+00;  0.0000000E+00;  1.0000000E+04;  0.0000000E+00;  1.0000000E+04;  0.0000000E+00;  0.0000000E+00;  0.0000000E+00;  0.0000000E+00;
  6.6000003E-01;  9.9999998E-03;  1.6000000E-01;2075;  0.0000000E+00;  0.0000000E+00;  0.0000000E+00;  1.0000000E+03;  4.0000001E-01;  0.0000000E+00;3;  0.0000000E+00;  0.0000000E+00;  0.0000000E+00;0;  0.0000000E+00;  1.0000000E+04;  0.0000000E+00;  0.0000000E+00;  1.0000000E+04;  0.0000000E+00;  1.0000000E+04;  0.0000000E+00;  0.0000000E+00;  0.0000000E+00;  0.0000000E+00;
  6.6000003E-01;  9.9999998E-03;  1.8000001E-01;2076;  0.0000000E+00;  0.0000000E+00;  0.0000000E+00;  1.0000000E+03;  4.0000001E-01;  0.0000000E+00;3;  0.0000000E+00;  0.0000000E+00;  0.0000000E+00;0;  0.0000000E+00;  1.0000000E+04;  0.0000000E+00;  0.0000000E+00;  1.0000000E+04;  0.0000000E+00;  1.0000000E+04;  0.0000000E+00;  0.0000000E+00;  0.0000000E+00;  0.0000000E+00;
  6.6000003E-01;  9.9999998E-03;  2.0000000E-01;2077;  0.0000000E+00;  0.0000000E+00;  0.0000000E+00;  1.0000000E+03;  4.0000001E-01;  0.0000000E+00;3;  0.0000000E+00;  0.0000000E+00;  0.0000000E+00;0;  0.0000000E+00;  1.0000000E+04;  0.0000000E+00;  0.0000000E+00;  1.0000000E+04;  0.0000000E+00;  1.0000000E+04;  0.0000000E+00;  0.0000000E+00;  0.0000000E+00;  0.0000000E+00;
  6.6000003E-01;  9.9999998E-03;  2.2000000E-01;2078;  0.0000000E+00;  0.0000000E+00;  0.0000000E+00;  1.0000000E+03;  4.0000001E-01;  0.0000000E+00;3;  0.0000000E+00;  0.0000000E+00;  0.0000000E+00;0;  0.0000000E+00;  1.0000000E+04;  0.0000000E+00;  0.0000000E+00;  1.0000000E+04;  0.0000000E+00;  1.0000000E+04;  0.0000000E+00;  0.0000000E+00;  0.0000000E+00;  0.0000000E+00;
  6.6000003E-01;  9.9999998E-03;  2.3999999E-01;2079;  0.0000000E+00;  0.0000000E+00;  0.0000000E+00;  1.0000000E+03;  4.0000001E-01;  0.0000000E+00;3;  0.0000000E+00;  0.0000000E+00;  0.0000000E+00;0;  0.0000000E+00;  1.0000000E+04;  0.0000000E+00;  0.0000000E+00;  1.0000000E+04;  0.0000000E+00;  1.0000000E+04;  0.0000000E+00;  0.0000000E+00;  0.0000000E+00;  0.0000000E+00;
  6.6000003E-01;  9.9999998E-03;  2.5999999E-01;2080;  0.0000000E+00;  0.0000000E+00;  0.0000000E+00;  1.0000000E+03;  4.0000001E-01;  0.0000000E+00;3;  0.0000000E+00;  0.0000000E+00;  0.0000000E+00;0;  0.0000000E+00;  1.0000000E+04;  0.0000000E+00;  0.0000000E+00;  1.0000000E+04;  0.0000000E+00;  1.0000000E+04;  0.0000000E+00;  0.0000000E+00;  0.0000000E+00;  0.0000000E+00;
  6.6000003E-01;  9.9999998E-03;  2.8000000E-01;2081;  0.0000000E+00;  0.0000000E+00;  0.0000000E+00;  1.0000000E+03;  4.0000001E-01;  0.0000000E+00;3;  0.0000000E+00;  0.0000000E+00;  0.0000000E+00;0;  0.0000000E+00;  1.0000000E+04;  0.0000000E+00;  0.0000000E+00;  1.0000000E+04;  0.0000000E+00;  1.0000000E+04;  0.0000000E+00;  0.0000000E+00;  0.0000000E+00;  0.0000000E+00;
  6.6000003E-01;  9.9999998E-03;  3.0000001E-01;2082;  0.0000000E+00;  0.0000000E+00;  0.0000000E+00;  1.0000000E+03;  4.0000001E-01;  0.0000000E+00;3;  0.0000000E+00;  0.0000000E+00;  0.0000000E+00;0;  0.0000000E+00;  1.0000000E+04;  0.0000000E+00;  0.0000000E+00;  1.0000000E+04;  0.0000000E+00;  1.0000000E+04;  0.0000000E+00;  0.0000000E+00;  0.0000000E+00;  0.0000000E+00;
  6.8000001E-01;  9.9999998E-03;  1.6000000E-01;2106;  0.0000000E+00;  0.0000000E+00;  0.0000000E+00;  1.0000000E+03;  4.0000001E-01;  0.0000000E+00;3;  0.0000000E+00;  0.0000000E+00;  0.0000000E+00;0;  0.0000000E+00;  1.0000000E+04;  0.0000000E+00;  0.0000000E+00;  1.0000000E+04;  0.0000000E+00;  1.0000000E+04;  0.0000000E+00;  0.0000000E+00;  0.0000000E+00;  0.0000000E+00;
  6.8000001E-01;  9.9999998E-03;  1.8000001E-01;2107;  0.0000000E+00;  0.0000000E+00;  0.0000000E+00;  1.0000000E+03;  4.0000001E-01;  0.0000000E+00;3;  0.0000000E+00;  0.0000000E+00;  0.0000000E+00;0;  0.0000000E+00;  1.0000000E+04;  0.0000000E+00;  0.0000000E+00;  1.0000000E+04;  0.0000000E+00;  1.0000000E+04;  0.0000000E+00;  0.0000000E+00;  0.0000000E+00;  0.0000000E+00;
  6.8000001E-01;  9.9999998E-03;  2.0000000E-01;2108;  0.0000000E+00;  0.0000000E+00;  0.0000000E+00;  1.0000000E+03;  4.0000001E-01;  0.0000000E+00;3;  0.0000000E+00;  0.0000000E+00;  0.0000000E+00;0;  0.0000000E+00;  1.0000000E+04;  0.0000000E+00;  0.0000000E+00;  1.0000000E+04;  0.0000000E+00;  1.0000000E+04;  0.0000000E+00;  0.0000000E+00;  0.0000000E+00;  0.0000000E+00;
  6.8000001E-01;  9.9999998E-03;  2.2000000E-01;2109;  0.0000000E+00;  0.0000000E+00;  0.0000000E+00;  1.0000000E+03;  4.0000001E-01;  0.0000000E+00;3;  0.0000000E+00;  0.0000000E+00;  0.0000000E+00;0;  0.0000000E+00;  1.0000000E+04;  0.0000000E+00;  0.0000000E+00;  1.0000000E+04;  0.0000000E+00;  1.0000000E+04;  0.0000000E+00;  0.0000000E+00;  0.0000000E+00;  0.0000000E+00;
  6.8000001E-01;  9.9999998E-03;  2.3999999E-01;2110;  0.0000000E+00;  0.0000000E+00;  0.0000000E+00;  1.0000000E+03;  4.0000001E-01;  0.0000000E+00;3;  0.0000000E+00;  0.0000000E+00;  0.0000000E+00;0;  0.0000000E+00;  1.0000000E+04;  0.0000000E+00;  0.0000000E+00;  1.0000000E+04;  0.0000000E+00;  1.0000000E+04;  0.0000000E+00;  0.0000000E+00;  0.0000000E+00;  0.0000000E+00;
  6.8000001E-01;  9.9999998E-03;  2.5999999E-01;2111;  0.0000000E+00;  0.0000000E+00;  0.0000000E+00;  1.0000000E+03;  4.0000001E-01;  0.0000000E+00;3;  0.0000000E+00;  0.0000000E+00;  0.0000000E+00;0;  0.0000000E+00;  1.0000000E+04;  0.0000000E+00;  0.0000000E+00;  1.0000000E+04;  0.0000000E+00;  1.0000000E+04;  0.0000000E+00;  0.0000000E+00;  0.0000000E+00;  0.0000000E+00;
  6.8000001E-01;  9.9999998E-03;  2.8000000E-01;2112;  0.0000000E+00;  0.0000000E+00;  0.0000000E+00;  1.0000000E+03;  4.0000001E-01;  0.0000000E+00;3;  0.0000000E+00;  0.0000000E+00;  0.0000000E+00;0;  0.0000000E+00;  1.0000000E+04;  0.0000000E+00;  0.0000000E+00;  1.0000000E+04;  0.0000000E+00;  1.0000000E+04;  0.0000000E+00;  0.0000000E+00;  0.0000000E+00;  0.0000000E+00;
  6.8000001E-01;  9.9999998E-03;  3.0000001E-01;2113;  0.0000000E+00;  0.0000000E+00;  0.0000000E+00;  1.0000000E+03;  4.0000001E-01;  0.0000000E+00;3;  0.0000000E+00;  0.0000000E+00;  0.0000000E+00;0;  0.0000000E+00;  1.0000000E+04;  0.0000000E+00;  0.0000000E+00;  1.0000000E+04;  0.0000000E+00;  1.0000000E+04;  0.0000000E+00;  0.0000000E+00;  0.0000000E+00;  0.0000000E+00;
  6.9999999E-01;  9.9999998E-03;  1.6000000E-01;2137;  0.0000000E+00;  0.0000000E+00;  0.0000000E+00;  1.0000000E+03;  4.0000001E-01;  0.0000000E+00;3;  0.0000000E+00;  0.0000000E+00;  0.0000000E+00;0;  0.0000000E+00;  1.0000000E+04;  0.0000000E+00;  0.0000000E+00;  1.0000000E+04;  0.0000000E+00;  1.0000000E+04;  0.0000000E+00;  0.0000000E+00;  0.0000000E+00;  0.0000000E+00;
  6.9999999E-01;  9.9999998E-03;  1.8000001E-01;2138;  0.0000000E+00;  0.0000000E+00;  0.0000000E+00;  1.0000000E+03;  4.0000001E-01;  0.0000000E+00;3;  0.0000000E+00;  0.0000000E+00;  0.0000000E+00;0;  0.0000000E+00;  1.0000000E+04;  0.0000000E+00;  0.0000000E+00;  1.0000000E+04;  0.0000000E+00;  1.0000000E+04;  0.0000000E+00;  0.0000000E+00;  0.0000000E+00;  0.0000000E+00;
  6.9999999E-01;  9.9999998E-03;  2.0000000E-01;2139;  0.0000000E+00;  0.0000000E+00;  0.0000000E+00;  1.0000000E+03;  4.0000001E-01;  0.0000000E+00;3;  0.0000000E+00;  0.0000000E+00;  0.0000000E+00;0;  0.0000000E+00;  1.0000000E+04;  0.0000000E+00;  0.0000000E+00;  1.0000000E+04;  0.0000000E+00;  1.0000000E+04;  0.0000000E+00;  0.0000000E+00;  0.0000000E+00;  0.0000000E+00;
  6.9999999E-01;  9.9999998E-03;  2.2000000E-01;2140;  0.0000000E+00;  0.0000000E+00;  0.0000000E+00;  1.0000000E+03;  4.0000001E-01;  0.0000000E+00;3;  0.0000000E+00;  0.0000000E+00;  0.0000000E+00;0;  0.0000000E+00;  1.0000000E+04;  0.0000000E+00;  0.0000000E+00;  1.0000000E+04;  0.0000000E+00;  1.0000000E+04;  0.0000000E+00;  0.0000000E+00;  0.0000000E+00;  0.0000000E+00;
  6.9999999E-01;  9.9999998E-03;  2.3999999E-01;2141;  0.0000000E+00;  0.0000000E+00;  0.0000000E+00;  1.0000000E+03;  4.0000001E-01;  0.0000000E+00;3;  0.0000000E+00;  0.0000000E+00;  0.0000000E+00;0;  0.0000000E+00;  1.0000000E+04;  0.0000000E+00;  0.0000000E+00;  1.0000000E+04;  0.0000000E+00;  1.0000000E+04;  0.0000000E+00;  0.0000000E+00;  0.0000000E+00;  0.0000000E+00;
  6.9999999E-01;  9.9999998E-03;  2.5999999E-01;2142;  0.0000000E+00;  0.0000000E+00;  0.0000000E+00;  1.0000000E+03;  4.0000001E-01;  0.0000000E+00;3;  0.0000000E+00;  0.0000000E+00;  0.0000000E+00;0;  0.0000000E+00;  1.0000000E+04;  0.0000000E+00;  0.0000000E+00;  1.0000000E+04;  0.0000000E+00;  1.0000000E+04;  0.0000000E+00;  0.0000000E+00;  0.0000000E+00;  0.0000000E+00;
  6.9999999E-01;  9.9999998E-03;  2.8000000E-01;2143;  0.0000000E+00;  0.0000000E+00;  0.0000000E+00;  1.0000000E+03;  4.0000001E-01;  0.0000000E+00;3;  0.0000000E+00;  0.0000000E+00;  0.0000000E+00;0;  0.0000000E+00;  1.0000000E+04;  0.0000000E+00;  0.0000000E+00;  1.0000000E+04;  0.0000000E+00;  1.0000000E+04;  0.0000000E+00;  0.0000000E+00;  0.0000000E+00;  0.0000000E+00;
  6.9999999E-01;  9.9999998E-03;  3.0000001E-01;2144;  0.0000000E+00;  0.0000000E+00;  0.0000000E+00;  1.0000000E+03;  4.0000001E-01;  0.0000000E+00;3;  0.0000000E+00;  0.0000000E+00;  0.0000000E+00;0;  0.0000000E+00;  1.0000000E+04;  0.0000000E+00;  0.0000000E+00;  1.0000000E+04;  0.0000000E+00;  1.0000000E+04;  0.0000000E+00;  0.0000000E+00;  0.0000000E+00;  0.0000000E+00;
  7.2000003E-01;  9.9999998E-03;  1.6000000E-01;2168;  0.0000000E+00;  0.0000000E+00;  0.0000000E+00;  1.0000000E+03;  4.0000001E-01;  0.0000000E+00;3;  0.0000000E+00;  0.0000000E+00;  0.0000000E+00;0;  0.0000000E+00;  1.0000000E+04;  0.0000000E+00;  0.0000000E+00;  1.0000000E+04;  0.0000000E+00;  1.0000000E+04;  0.0000000E+00;  0.0000000E+00;  0.0000000E+00;  0.0000000E+00;
  7.2000003E-01;  9.9999998E-03;  1.8000001E-01;2169;  0.0000000E+00;  0.0000000E+00;  0.0000000E+00;  1.0000000E+03;  4.0000001E-01;  0.0000000E+00;3;  0.0000000E+00;  0.0000000E+00;  0.0000000E+00;0;  0.0000000E+00;  1.0000000E+04;  0.0000000E+00;  0.0000000E+00;  1.0000000E+04;  0.0000000E+00;  1.0000000E+04;  0.0000000E+00;  0.0000000E+00;  0.0000000E+00;  0.0000000E+00;
  7.2000003E-01;  9.9999998E-03;  2.0000000E-01;2170;  0.0000000E+00;  0.0000000E+00;  0.0000000E+00;  1.0000000E+03;  4.0000001E-01;  0.0000000E+00;3;  0.0000000E+00;  0.0000000E+00;  0.0000000E+00;0;  0.0000000E+00;  1.0000000E+04;  0.0000000E+00;  0.0000000E+00;  1.0000000E+04;  0.0000000E+00;  1.0000000E+04;  0.0000000E+00;  0.0000000E+00;  0.0000000E+00;  0.0000000E+00;
  7.2000003E-01;  9.9999998E-03;  2.2000000E-01;2171;  0.0000000E+00;  0.0000000E+00;  0.0000000E+00;  1.0000000E+03;  4.0000001E-01;  0.0000000E+00;3;  0.0000000E+00;  0.0000000E+00;  0.0000000E+00;0;  0.0000000E+00;  1.0000000E+04;  0.0000000E+00;  0.0000000E+00;  1.0000000E+04;  0.0000000E+00;  1.0000000E+04;  0.0000000E+00;  0.0000000E+00;  0.0000000E+00;  0.0000000E+00;
  7.2000003E-01;  9.9999998E-03;  2.3999999E-01;2172;  0.0000000E+00;  0.0000000E+00;  0.0000000E+00;  1.0000000E+03;  4.0000001E-01;  0.0000000E+00;3;  0.0000000E+00;  0.0000000E+00;  0.0000000E+00;0;  0.0000000E+00;  1.0000000E+04;  0.0000000E+00;  0.0000000E+00;  1.0000000E+04;  0.0000000E+00;  1.0000000E+04;  0.0000000E+00;  0.0000000E+00;  0.0000000E+00;  0.0000000E+00;
  7.2000003E-01;  9.9999998E-03;  2.5999999E-01;2173;  0.0000000E+00;  0.0000000E+00;  0.0000000E+00;  1.0000000E+03;  4.0000001E-01;  0.0000000E+00;3;  0.0000000E+00;  0.0000000E+00;  0.0000000E+00;0;  0.0000000E+00;  1.0000000E+04;  0.0000000E+00;  0.0000000E+00;  1.0000000E+04;  0.0000000E+00;  1.0000000E+04;  0.0000000E+00;  0.0000000E+00;  0.0000000E+00;  0.0000000E+00;
  7.2000003E-01;  9.9999998E-03;  2.8000000E-01;2174;  0.0000000E+00;  0.0000000E+00;  0.0000000E+00;  1.0000000E+03;  4.0000001E-01;  0.0000000E+00;3;  0.0000000E+00;  0.0000000E+00;  0.0000000E+00;0;  0.0000000E+00;  1.0000000E+04;  0.0000000E+00;  0.0000000E+00;  1.0000000E+04;  0.0000000E+00;  1.0000000E+04;  0.0000000E+00;  0.0000000E+00;  0.0000000E+00;  0.0000000E+00;
  7.2000003E-01;  9.9999998E-03;  3.0000001E-01;2175;  0.0000000E+00;  0.0000000E+00;  0.0000000E+00;  1.0000000E+03;  4.0000001E-01;  0.0000000E+00;3;  0.0000000E+00;  0.0000000E+00;  0.0000000E+00;0;  0.0000000E+00;  1.0000000E+04;  0.0000000E+00;  0.0000000E+00;  1.0000000E+04;  0.0000000E+00;  1.0000000E+04;  0.0000000E+00;  0.0000000E+00;  0.0000000E+00;  0.0000000E+00;
  7.4000001E-01;  9.9999998E-03;  1.6000000E-01;2199;  0.0000000E+00;  0.0000000E+00;  0.0000000E+00;  1.0000000E+03;  4.0000001E-01;  0.0000000E+00;3;  0.0000000E+00;  0.0000000E+00;  0.0000000E+00;0;  0.0000000E+00;  1.0000000E+04;  0.0000000E+00;  0.0000000E+00;  1.0000000E+04;  0.0000000E+00;  1.0000000E+04;  0.0000000E+00;  0.0000000E+00;  0.0000000E+00;  0.0000000E+00;
  7.4000001E-01;  9.9999998E-03;  1.8000001E-01;2200;  0.0000000E+00;  0.0000000E+00;  0.0000000E+00;  1.0000000E+03;  4.0000001E-01;  0.0000000E+00;3;  0.0000000E+00;  0.0000000E+00;  0.0000000E+00;0;  0.0000000E+00;  1.0000000E+04;  0.0000000E+00;  0.0000000E+00;  1.0000000E+04;  0.0000000E+00;  1.0000000E+04;  0.0000000E+00;  0.0000000E+00;  0.0000000E+00;  0.0000000E+00;
  7.4000001E-01;  9.9999998E-03;  2.0000000E-01;2201;  0.0000000E+00;  0.0000000E+00;  0.0000000E+00;  1.0000000E+03;  4.0000001E-01;  0.0000000E+00;3;  0.0000000E+00;  0.0000000E+00;  0.0000000E+00;0;  0.0000000E+00;  1.0000000E+04;  0.0000000E+00;  0.0000000E+00;  1.0000000E+04;  0.0000000E+00;  1.0000000E+04;  0.0000000E+00;  0.0000000E+00;  0.0000000E+00;  0.0000000E+00;
  7.4000001E-01;  9.9999998E-03;  2.2000000E-01;2202;  0.0000000E+00;  0.0000000E+00;  0.0000000E+00;  1.0000000E+03;  4.0000001E-01;  0.0000000E+00;3;  0.0000000E+00;  0.0000000E+00;  0.0000000E+00;0;  0.0000000E+00;  1.0000000E+04;  0.0000000E+00;  0.0000000E+00;  1.0000000E+04;  0.0000000E+00;  1.0000000E+04;  0.0000000E+00;  0.0000000E+00;  0.0000000E+00;  0.0000000E+00;
  7.4000001E-01;  9.9999998E-03;  2.3999999E-01;2203;  0.0000000E+00;  0.0000000E+00;  0.0000000E+00;  1.0000000E+03;  4.0000001E-01;  0.0000000E+00;3;  0.0000000E+00;  0.0000000E+00;  0.0000000E+00;0;  0.0000000E+00;  1.0000000E+04;  0.0000000E+00;  0.0000000E+00;  1.0000000E+04;  0.0000000E+00;  1.0000000E+04;  0.0000000E+00;  0.0000000E+00;  0.0000000E+00;  0.0000000E+00;
  7.4000001E-01;  9.9999998E-03;  2.5999999E-01;2204;  0.0000000E+00;  0.0000000E+00;  0.0000000E+00;  1.0000000E+03;  4.0000001E-01;  0.0000000E+00;3;  0.0000000E+00;  0.0000000E+00;  0.0000000E+00;0;  0.0000000E+00;  1.0000000E+04;  0.0000000E+00;  0.0000000E+00;  1.0000000E+04;  0.0000000E+00;  1.0000000E+04;  0.0000000E+00;  0.0000000E+00;  0.0000000E+00;  0.0000000E+00;
  7.4000001E-01;  9.9999998E-03;  2.8000000E-01;2205;  0.0000000E+00;  0.0000000E+00;  0.0000000E+00;  1.0000000E+03;  4.0000001E-01;  0.0000000E+00;3;  0.0000000E+00;  0.0000000E+00;  0.0000000E+00;0;  0.0000000E+00;  1.0000000E+04;  0.0000000E+00;  0.0000000E+00;  1.0000000E+04;  0.0000000E+00;  1.0000000E+04;  0.0000000E+00;  0.0000000E+00;  0.0000000E+00;  0.0000000E+00;
  7.4000001E-01;  9.9999998E-03;  3.0000001E-01;2206;  0.0000000E+00;  0.0000000E+00;  0.0000000E+00;  1.0000000E+03;  4.0000001E-01;  0.0000000E+00;3;  0.0000000E+00;  0.0000000E+00;  0.0000000E+00;0;  0.0000000E+00;  1.0000000E+04;  0.0000000E+00;  0.0000000E+00;  1.0000000E+04;  0.0000000E+00;  1.0000000E+04;  0.0000000E+00;  0.0000000E+00;  0.0000000E+00;  0.0000000E+00;
  7.5999999E-01;  9.9999998E-03;  1.6000000E-01;2230;  0.0000000E+00;  0.0000000E+00;  0.0000000E+00;  1.0000000E+03;  4.0000001E-01;  0.0000000E+00;3;  0.0000000E+00;  0.0000000E+00;  0.0000000E+00;0;  0.0000000E+00;  1.0000000E+04;  0.0000000E+00;  0.0000000E+00;  1.0000000E+04;  0.0000000E+00;  1.0000000E+04;  0.0000000E+00;  0.0000000E+00;  0.0000000E+00;  0.0000000E+00;
  7.5999999E-01;  9.9999998E-03;  1.8000001E-01;2231;  0.0000000E+00;  0.0000000E+00;  0.0000000E+00;  1.0000000E+03;  4.0000001E-01;  0.0000000E+00;3;  0.0000000E+00;  0.0000000E+00;  0.0000000E+00;0;  0.0000000E+00;  1.0000000E+04;  0.0000000E+00;  0.0000000E+00;  1.0000000E+04;  0.0000000E+00;  1.0000000E+04;  0.0000000E+00;  0.0000000E+00;  0.0000000E+00;  0.0000000E+00;
  7.5999999E-01;  9.9999998E-03;  2.0000000E-01;2232;  0.0000000E+00;  0.0000000E+00;  0.0000000E+00;  1.0000000E+03;  4.0000001E-01;  0.0000000E+00;3;  0.0000000E+00;  0.0000000E+00;  0.0000000E+00;0;  0.0000000E+00;  1.0000000E+04;  0.0000000E+00;  0.0000000E+00;  1.0000000E+04;  0.0000000E+00;  1.0000000E+04;  0.0000000E+00;  0.0000000E+00;  0.0000000E+00;  0.0000000E+00;
  7.5999999E-01;  9.9999998E-03;  2.2000000E-01;2233;  0.0000000E+00;  0.0000000E+00;  0.0000000E+00;  1.0000000E+03;  4.0000001E-01;  0.0000000E+00;3;  0.0000000E+00;  0.0000000E+00;  0.0000000E+00;0;  0.0000000E+00;  1.0000000E+04;  0.0000000E+00;  0.0000000E+00;  1.0000000E+04;  0.0000000E+00;  1.0000000E+04;  0.0000000E+00;  0.0000000E+00;  0.0000000E+00;  0.0000000E+00;
  7.5999999E-01;  9.9999998E-03;  2.3999999E-01;2234;  0.0000000E+00;  0.0000000E+00;  0.0000000E+00;  1.0000000E+03;  4.0000001E-01;  0.0000000E+00;3;  0.0000000E+00;  0.0000000E+00;  0.0000000E+00;0;  0.0000000E+00;  1.0000000E+04;  0.0000000E+00;  0.0000000E+00;  1.0000000E+04;  0.0000000E+00;  1.0000000E+04;  0.0000000E+00;  0.0000000E+00;  0.0000000E+00;  0.0000000E+00;
  7.5999999E-01;  9.9999998E-03;  2.5999999E-01;2235;  0.0000000E+00;  0.0000000E+00;  0.0000000E+00;  1.0000000E+03;  4.0000001E-01;  0.0000000E+00;3;  0.0000000E+00;  0.0000000E+00;  0.0000000E+00;0;  0.0000000E+00;  1.0000000E+04;  0.0000000E+00;  0.0000000E+00;  1.0000000E+04;  0.0000000E+00;  1.0000000E+04;  0.0000000E+00;  0.0000000E+00;  0.0000000E+00;  0.0000000E+00;
  7.5999999E-01;  9.9999998E-03;  2.8000000E-01;2236;  0.0000000E+00;  0.0000000E+00;  0.0000000E+00;  1.0000000E+03;  4.0000001E-01;  0.0000000E+00;3;  0.0000000E+00;  0.0000000E+00;  0.0000000E+00;0;  0.0000000E+00;  1.0000000E+04;  0.0000000E+00;  0.0000000E+00;  1.0000000E+04;  0.0000000E+00;  1.0000000E+04;  0.0000000E+00;  0.0000000E+00;  0.0000000E+00;  0.0000000E+00;
  7.5999999E-01;  9.9999998E-03;  3.0000001E-01;2237;  0.0000000E+00;  0.0000000E+00;  0.0000000E+00;  1.0000000E+03;  4.0000001E-01;  0.0000000E+00;3;  0.0000000E+00;  0.0000000E+00;  0.0000000E+00;0;  0.0000000E+00;  1.0000000E+04;  0.0000000E+00;  0.0000000E+00;  1.0000000E+04;  0.0000000E+00;  1.0000000E+04;  0.0000000E+00;  0.0000000E+00;  0.0000000E+00;  0.0000000E+00;
  7.7999997E-01;  9.9999998E-03;  1.6000000E-01;2261;  0.0000000E+00;  0.0000000E+00;  0.0000000E+00;  1.0000000E+03;  4.0000001E-01;  0.0000000E+00;3;  0.0000000E+00;  0.0000000E+00;  0.0000000E+00;0;  0.0000000E+00;  1.0000000E+04;  0.0000000E+00;  0.0000000E+00;  1.0000000E+04;  0.0000000E+00;  1.0000000E+04;  0.0000000E+00;  0.0000000E+00;  0.0000000E+00;  0.0000000E+00;
  7.7999997E-01;  9.9999998E-03;  1.8000001E-01;2262;  0.0000000E+00;  0.0000000E+00;  0.0000000E+00;  1.0000000E+03;  4.0000001E-01;  0.0000000E+00;3;  0.0000000E+00;  0.0000000E+00;  0.0000000E+00;0;  0.0000000E+00;  1.0000000E+04;  0.0000000E+00;  0.0000000E+00;  1.0000000E+04;  0.0000000E+00;  1.0000000E+04;  0.0000000E+00;  0.0000000E+00;  0.0000000E+00;  0.0000000E+00;
  7.7999997E-01;  9.9999998E-03;  2.0000000E-01;2263;  0.0000000E+00;  0.0000000E+00;  0.0000000E+00;  1.0000000E+03;  4.0000001E-01;  0.0000000E+00;3;  0.0000000E+00;  0.0000000E+00;  0.0000000E+00;0;  0.0000000E+00;  1.0000000E+04;  0.0000000E+00;  0.0000000E+00;  1.0000000E+04;  0.0000000E+00;  1.0000000E+04;  0.0000000E+00;  0.0000000E+00;  0.0000000E+00;  0.0000000E+00;
  7.7999997E-01;  9.9999998E-03;  2.2000000E-01;2264;  0.0000000E+00;  0.0000000E+00;  0.0000000E+00;  1.0000000E+03;  4.0000001E-01;  0.0000000E+00;3;  0.0000000E+00;  0.0000000E+00;  0.0000000E+00;0;  0.0000000E+00;  1.0000000E+04;  0.0000000E+00;  0.0000000E+00;  1.0000000E+04;  0.0000000E+00;  1.0000000E+04;  0.0000000E+00;  0.0000000E+00;  0.0000000E+00;  0.0000000E+00;
  7.7999997E-01;  9.9999998E-03;  2.3999999E-01;2265;  0.0000000E+00;  0.0000000E+00;  0.0000000E+00;  1.0000000E+03;  4.0000001E-01;  0.0000000E+00;3;  0.0000000E+00;  0.0000000E+00;  0.0000000E+00;0;  0.0000000E+00;  1.0000000E+04;  0.0000000E+00;  0.0000000E+00;  1.0000000E+04;  0.0000000E+00;  1.0000000E+04;  0.0000000E+00;  0.0000000E+00;  0.0000000E+00;  0.0000000E+00;
  7.7999997E-01;  9.9999998E-03;  2.5999999E-01;2266;  0.0000000E+00;  0.0000000E+00;  0.0000000E+00;  1.0000000E+03;  4.0000001E-01;  0.0000000E+00;3;  0.0000000E+00;  0.0000000E+00;  0.0000000E+00;0;  0.0000000E+00;  1.0000000E+04;  0.0000000E+00;  0.0000000E+00;  1.0000000E+04;  0.0000000E+00;  1.0000000E+04;  0.0000000E+00;  0.0000000E+00;  0.0000000E+00;  0.0000000E+00;
  7.7999997E-01;  9.9999998E-03;  2.8000000E-01;2267;  0.0000000E+00;  0.0000000E+00;  0.0000000E+00;  1.0000000E+03;  4.0000001E-01;  0.0000000E+00;3;  0.0000000E+00;  0.0000000E+00;  0.0000000E+00;0;  0.0000000E+00;  1.0000000E+04;  0.0000000E+00;  0.0000000E+00;  1.0000000E+04;  0.0000000E+00;  1.0000000E+04;  0.0000000E+00;  0.0000000E+00;  0.0000000E+00;  0.0000000E+00;
  7.7999997E-01;  9.9999998E-03;  3.0000001E-01;2268;  0.0000000E+00;  0.0000000E+00;  0.0000000E+00;  1.0000000E+03;  4.0000001E-01;  0.0000000E+00;3;  0.0000000E+00;  0.0000000E+00;  0.0000000E+00;0;  0.0000000E+00;  1.0000000E+04;  0.0000000E+00;  0.0000000E+00;  1.0000000E+04;  0.0000000E+00;  1.0000000E+04;  0.0000000E+00;  0.0000000E+00;  0.0000000E+00;  0.0000000E+00;
  8.0000001E-01;  9.9999998E-03;  1.6000000E-01;2292;  0.0000000E+00;  0.0000000E+00;  0.0000000E+00;  1.0000000E+03;  4.0000001E-01;  0.0000000E+00;3;  0.0000000E+00;  0.0000000E+00;  0.0000000E+00;0;  0.0000000E+00;  1.0000000E+04;  0.0000000E+00;  0.0000000E+00;  1.0000000E+04;  0.0000000E+00;  1.0000000E+04;  0.0000000E+00;  0.0000000E+00;  0.0000000E+00;  0.0000000E+00;
  8.0000001E-01;  9.9999998E-03;  1.8000001E-01;2293;  0.0000000E+00;  0.0000000E+00;  0.0000000E+00;  1.0000000E+03;  4.0000001E-01;  0.0000000E+00;3;  0.0000000E+00;  0.0000000E+00;  0.0000000E+00;0;  0.0000000E+00;  1.0000000E+04;  0.0000000E+00;  0.0000000E+00;  1.0000000E+04;  0.0000000E+00;  1.0000000E+04;  0.0000000E+00;  0.0000000E+00;  0.0000000E+00;  0.0000000E+00;
  8.0000001E-01;  9.9999998E-03;  2.0000000E-01;2294;  0.0000000E+00;  0.0000000E+00;  0.0000000E+00;  1.0000000E+03;  4.0000001E-01;  0.0000000E+00;3;  0.0000000E+00;  0.0000000E+00;  0.0000000E+00;0;  0.0000000E+00;  1.0000000E+04;  0.0000000E+00;  0.0000000E+00;  1.0000000E+04;  0.0000000E+00;  1.0000000E+04;  0.0000000E+00;  0.0000000E+00;  0.0000000E+00;  0.0000000E+00;
  8.0000001E-01;  9.9999998E-03;  2.2000000E-01;2295;  0.0000000E+00;  0.0000000E+00;  0.0000000E+00;  1.0000000E+03;  4.0000001E-01;  0.0000000E+00;3;  0.0000000E+00;  0.0000000E+00;  0.0000000E+00;0;  0.0000000E+00;  1.0000000E+04;  0.0000000E+00;  0.0000000E+00;  1.0000000E+04;  0.0000000E+00;  1.0000000E+04;  0.0000000E+00;  0.0000000E+00;  0.0000000E+00;  0.0000000E+00;
  8.0000001E-01;  9.9999998E-03;  2.3999999E-01;2296;  0.0000000E+00;  0.0000000E+00;  0.0000000E+00;  1.0000000E+03;  4.0000001E-01;  0.0000000E+00;3;  0.0000000E+00;  0.0000000E+00;  0.0000000E+00;0;  0.0000000E+00;  1.0000000E+04;  0.0000000E+00;  0.0000000E+00;  1.0000000E+04;  0.0000000E+00;  1.0000000E+04;  0.0000000E+00;  0.0000000E+00;  0.0000000E+00;  0.0000000E+00;
  8.0000001E-01;  9.9999998E-03;  2.5999999E-01;2297;  0.0000000E+00;  0.0000000E+00;  0.0000000E+00;  1.0000000E+03;  4.0000001E-01;  0.0000000E+00;3;  0.0000000E+00;  0.0000000E+00;  0.0000000E+00;0;  0.0000000E+00;  1.0000000E+04;  0.0000000E+00;  0.0000000E+00;  1.0000000E+04;  0.0000000E+00;  1.0000000E+04;  0.0000000E+00;  0.0000000E+00;  0.0000000E+00;  0.0000000E+00;
  8.0000001E-01;  9.9999998E-03;  2.8000000E-01;2298;  0.0000000E+00;  0.0000000E+00;  0.0000000E+00;  1.0000000E+03;  4.0000001E-01;  0.0000000E+00;3;  0.0000000E+00;  0.0000000E+00;  0.0000000E+00;0;  0.0000000E+00;  1.0000000E+04;  0.0000000E+00;  0.0000000E+00;  1.0000000E+04;  0.0000000E+00;  1.0000000E+04;  0.0000000E+00;  0.0000000E+00;  0.0000000E+00;  0.0000000E+00;
  8.0000001E-01;  9.9999998E-03;  3.0000001E-01;2299;  0.0000000E+00;  0.0000000E+00;  0.0000000E+00;  1.0000000E+03;  4.0000001E-01;  0.0000000E+00;3;  0.0000000E+00;  0.0000000E+00;  0.0000000E+00;0;  0.0000000E+00;  1.0000000E+04;  0.0000000E+00;  0.0000000E+00;  1.0000000E+04;  0.0000000E+00;  1.0000000E+04;  0.0000000E+00;  0.0000000E+00;  0.0000000E+00;  0.0000000E+00;
  8.1999999E-01;  9.9999998E-03;  1.6000000E-01;2323;  0.0000000E+00;  0.0000000E+00;  0.0000000E+00;  1.0000000E+03;  4.0000001E-01;  0.0000000E+00;3;  0.0000000E+00;  0.0000000E+00;  0.0000000E+00;0;  0.0000000E+00;  1.0000000E+04;  0.0000000E+00;  0.0000000E+00;  1.0000000E+04;  0.0000000E+00;  1.0000000E+04;  0.0000000E+00;  0.0000000E+00;  0.0000000E+00;  0.0000000E+00;
  8.1999999E-01;  9.9999998E-03;  1.8000001E-01;2324;  0.0000000E+00;  0.0000000E+00;  0.0000000E+00;  1.0000000E+03;  4.0000001E-01;  0.0000000E+00;3;  0.0000000E+00;  0.0000000E+00;  0.0000000E+00;0;  0.0000000E+00;  1.0000000E+04;  0.0000000E+00;  0.0000000E+00;  1.0000000E+04;  0.0000000E+00;  1.0000000E+04;  0.0000000E+00;  0.0000000E+00;  0.0000000E+00;  0.0000000E+00;
  8.1999999E-01;  9.9999998E-03;  2.0000000E-01;2325;  0.0000000E+00;  0.0000000E+00;  0.0000000E+00;  1.0000000E+03;  4.0000001E-01;  0.0000000E+00;3;  0.0000000E+00;  0.0000000E+00;  0.0000000E+00;0;  0.0000000E+00;  1.0000000E+04;  0.0000000E+00;  0.0000000E+00;  1.0000000E+04;  0.0000000E+00;  1.0000000E+04;  0.0000000E+00;  0.0000000E+00;  0.0000000E+00;  0.0000000E+00;
  8.1999999E-01;  9.9999998E-03;  2.2000000E-01;2326;  0.0000000E+00;  0.0000000E+00;  0.0000000E+00;  1.0000000E+03;  4.0000001E-01;  0.0000000E+00;3;  0.0000000E+00;  0.0000000E+00;  0.0000000E+00;0;  0.0000000E+00;  1.0000000E+04;  0.0000000E+00;  0.0000000E+00;  1.0000000E+04;  0.0000000E+00;  1.0000000E+04;  0.0000000E+00;  0.0000000E+00;  0.0000000E+00;  0.0000000E+00;
  8.1999999E-01;  9.9999998E-03;  2.3999999E-01;2327;  0.0000000E+00;  0.0000000E+00;  0.0000000E+00;  1.0000000E+03;  4.0000001E-01;  0.0000000E+00;3;  0.0000000E+00;  0.0000000E+00;  0.0000000E+00;0;  0.0000000E+00;  1.0000000E+04;  0.0000000E+00;  0.0000000E+00;  1.0000000E+04;  0.0000000E+00;  1.0000000E+04;  0.0000000E+00;  0.0000000E+00;  0.0000000E+00;  0.0000000E+00;
  8.1999999E-01;  9.9999998E-03;  2.5999999E-01;2328;  0.0000000E+00;  0.0000000E+00;  0.0000000E+00;  1.0000000E+03;  4.0000001E-01;  0.0000000E+00;3;  0.0000000E+00;  0.0000000E+00;  0.0000000E+00;0;  0.0000000E+00;  1.0000000E+04;  0.0000000E+00;  0.0000000E+00;  1.0000000E+04;  0.0000000E+00;  1.0000000E+04;  0.0000000E+00;  0.0000000E+00;  0.0000000E+00;  0.0000000E+00;
  8.1999999E-01;  9.9999998E-03;  2.8000000E-01;2329;  0.0000000E+00;  0.0000000E+00;  0.0000000E+00;  1.0000000E+03;  4.0000001E-01;  0.0000000E+00;3;  0.0000000E+00;  0.0000000E+00;  0.0000000E+00;0;  0.0000000E+00;  1.0000000E+04;  0.0000000E+00;  0.0000000E+00;  1.0000000E+04;  0.0000000E+00;  1.0000000E+04;  0.0000000E+00;  0.0000000E+00;  0.0000000E+00;  0.0000000E+00;
  8.1999999E-01;  9.9999998E-03;  3.0000001E-01;2330;  0.0000000E+00;  0.0000000E+00;  0.0000000E+00;  1.0000000E+03;  4.0000001E-01;  0.0000000E+00;3;  0.0000000E+00;  0.0000000E+00;  0.0000000E+00;0;  0.0000000E+00;  1.0000000E+04;  0.0000000E+00;  0.0000000E+00;  1.0000000E+04;  0.0000000E+00;  1.0000000E+04;  0.0000000E+00;  0.0000000E+00;  0.0000000E+00;  0.0000000E+00;
  8.3999997E-01;  9.9999998E-03;  1.6000000E-01;2354;  0.0000000E+00;  0.0000000E+00;  0.0000000E+00;  1.0000000E+03;  4.0000001E-01;  0.0000000E+00;3;  0.0000000E+00;  0.0000000E+00;  0.0000000E+00;0;  0.0000000E+00;  1.0000000E+04;  0.0000000E+00;  0.0000000E+00;  1.0000000E+04;  0.0000000E+00;  1.0000000E+04;  0.0000000E+00;  0.0000000E+00;  0.0000000E+00;  0.0000000E+00;
  8.3999997E-01;  9.9999998E-03;  1.8000001E-01;2355;  0.0000000E+00;  0.0000000E+00;  0.0000000E+00;  1.0000000E+03;  4.0000001E-01;  0.0000000E+00;3;  0.0000000E+00;  0.0000000E+00;  0.0000000E+00;0;  0.0000000E+00;  1.0000000E+04;  0.0000000E+00;  0.0000000E+00;  1.0000000E+04;  0.0000000E+00;  1.0000000E+04;  0.0000000E+00;  0.0000000E+00;  0.0000000E+00;  0.0000000E+00;
  8.3999997E-01;  9.9999998E-03;  2.0000000E-01;2356;  0.0000000E+00;  0.0000000E+00;  0.0000000E+00;  1.0000000E+03;  4.0000001E-01;  0.0000000E+00;3;  0.0000000E+00;  0.0000000E+00;  0.0000000E+00;0;  0.0000000E+00;  1.0000000E+04;  0.0000000E+00;  0.0000000E+00;  1.0000000E+04;  0.0000000E+00;  1.0000000E+04;  0.0000000E+00;  0.0000000E+00;  0.0000000E+00;  0.0000000E+00;
  8.3999997E-01;  9.9999998E-03;  2.2000000E-01;2357;  0.0000000E+00;  0.0000000E+00;  0.0000000E+00;  1.0000000E+03;  4.0000001E-01;  0.0000000E+00;3;  0.0000000E+00;  0.0000000E+00;  0.0000000E+00;0;  0.0000000E+00;  1.0000000E+04;  0.0000000E+00;  0.0000000E+00;  1.0000000E+04;  0.0000000E+00;  1.0000000E+04;  0.0000000E+00;  0.0000000E+00;  0.0000000E+00;  0.0000000E+00;
  8.3999997E-01;  9.9999998E-03;  2.3999999E-01;2358;  0.0000000E+00;  0.0000000E+00;  0.0000000E+00;  1.0000000E+03;  4.0000001E-01;  0.0000000E+00;3;  0.0000000E+00;  0.0000000E+00;  0.0000000E+00;0;  0.0000000E+00;  1.0000000E+04;  0.0000000E+00;  0.0000000E+00;  1.0000000E+04;  0.0000000E+00;  1.0000000E+04;  0.0000000E+00;  0.0000000E+00;  0.0000000E+00;  0.0000000E+00;
  8.3999997E-01;  9.9999998E-03;  2.5999999E-01;2359;  0.0000000E+00;  0.0000000E+00;  0.0000000E+00;  1.0000000E+03;  4.0000001E-01;  0.0000000E+00;3;  0.0000000E+00;  0.0000000E+00;  0.0000000E+00;0;  0.0000000E+00;  1.0000000E+04;  0.0000000E+00;  0.0000000E+00;  1.0000000E+04;  0.0000000E+00;  1.0000000E+04;  0.0000000E+00;  0.0000000E+00;  0.0000000E+00;  0.0000000E+00;
  8.3999997E-01;  9.9999998E-03;  2.8000000E-01;2360;  0.0000000E+00;  0.0000000E+00;  0.0000000E+00;  1.0000000E+03;  4.0000001E-01;  0.0000000E+00;3;  0.0000000E+00;  0.0000000E+00;  0.0000000E+00;0;  0.0000000E+00;  1.0000000E+04;  0.0000000E+00;  0.0000000E+00;  1.0000000E+04;  0.0000000E+00;  1.0000000E+04;  0.0000000E+00;  0.0000000E+00;  0.0000000E+00;  0.0000000E+00;
  8.3999997E-01;  9.9999998E-03;  3.0000001E-01;2361;  0.0000000E+00;  0.0000000E+00;  0.0000000E+00;  1.0000000E+03;  4.0000001E-01;  0.0000000E+00;3;  0.0000000E+00;  0.0000000E+00;  0.0000000E+00;0;  0.0000000E+00;  1.0000000E+04;  0.0000000E+00;  0.0000000E+00;  1.0000000E+04;  0.0000000E+00;  1.0000000E+04;  0.0000000E+00;  0.0000000E+00;  0.0000000E+00;  0.0000000E+00;
  8.6000001E-01;  9.9999998E-03;  1.6000000E-01;2385;  0.0000000E+00;  0.0000000E+00;  0.0000000E+00;  1.0000000E+03;  4.0000001E-01;  0.0000000E+00;3;  0.0000000E+00;  0.0000000E+00;  0.0000000E+00;0;  0.0000000E+00;  1.0000000E+04;  0.0000000E+00;  0.0000000E+00;  1.0000000E+04;  0.0000000E+00;  1.0000000E+04;  0.0000000E+00;  0.0000000E+00;  0.0000000E+00;  0.0000000E+00;
  8.6000001E-01;  9.9999998E-03;  1.8000001E-01;2386;  0.0000000E+00;  0.0000000E+00;  0.0000000E+00;  1.0000000E+03;  4.0000001E-01;  0.0000000E+00;3;  0.0000000E+00;  0.0000000E+00;  0.0000000E+00;0;  0.0000000E+00;  1.0000000E+04;  0.0000000E+00;  0.0000000E+00;  1.0000000E+04;  0.0000000E+00;  1.0000000E+04;  0.0000000E+00;  0.0000000E+00;  0.0000000E+00;  0.0000000E+00;
  8.6000001E-01;  9.9999998E-03;  2.0000000E-01;2387;  0.0000000E+00;  0.0000000E+00;  0.0000000E+00;  1.0000000E+03;  4.0000001E-01;  0.0000000E+00;3;  0.0000000E+00;  0.0000000E+00;  0.0000000E+00;0;  0.0000000E+00;  1.0000000E+04;  0.0000000E+00;  0.0000000E+00;  1.0000000E+04;  0.0000000E+00;  1.0000000E+04;  0.0000000E+00;  0.0000000E+00;  0.0000000E+00;  0.0000000E+00;
  8.6000001E-01;  9.9999998E-03;  2.2000000E-01;2388;  0.0000000E+00;  0.0000000E+00;  0.0000000E+00;  1.0000000E+03;  4.0000001E-01;  0.0000000E+00;3;  0.0000000E+00;  0.0000000E+00;  0.0000000E+00;0;  0.0000000E+00;  1.0000000E+04;  0.0000000E+00;  0.0000000E+00;  1.0000000E+04;  0.0000000E+00;  1.0000000E+04;  0.0000000E+00;  0.0000000E+00;  0.0000000E+00;  0.0000000E+00;
  8.6000001E-01;  9.9999998E-03;  2.3999999E-01;2389;  0.0000000E+00;  0.0000000E+00;  0.0000000E+00;  1.0000000E+03;  4.0000001E-01;  0.0000000E+00;3;  0.0000000E+00;  0.0000000E+00;  0.0000000E+00;0;  0.0000000E+00;  1.0000000E+04;  0.0000000E+00;  0.0000000E+00;  1.0000000E+04;  0.0000000E+00;  1.0000000E+04;  0.0000000E+00;  0.0000000E+00;  0.0000000E+00;  0.0000000E+00;
  8.6000001E-01;  9.9999998E-03;  2.5999999E-01;2390;  0.0000000E+00;  0.0000000E+00;  0.0000000E+00;  1.0000000E+03;  4.0000001E-01;  0.0000000E+00;3;  0.0000000E+00;  0.0000000E+00;  0.0000000E+00;0;  0.0000000E+00;  1.0000000E+04;  0.0000000E+00;  0.0000000E+00;  1.0000000E+04;  0.0000000E+00;  1.0000000E+04;  0.0000000E+00;  0.0000000E+00;  0.0000000E+00;  0.0000000E+00;
  8.6000001E-01;  9.9999998E-03;  2.8000000E-01;2391;  0.0000000E+00;  0.0000000E+00;  0.0000000E+00;  1.0000000E+03;  4.0000001E-01;  0.0000000E+00;3;  0.0000000E+00;  0.0000000E+00;  0.0000000E+00;0;  0.0000000E+00;  1.0000000E+04;  0.0000000E+00;  0.0000000E+00;  1.0000000E+04;  0.0000000E+00;  1.0000000E+04;  0.0000000E+00;  0.0000000E+00;  0.0000000E+00;  0.0000000E+00;
  8.6000001E-01;  9.9999998E-03;  3.0000001E-01;2392;  0.0000000E+00;  0.0000000E+00;  0.0000000E+00;  1.0000000E+03;  4.0000001E-01;  0.0000000E+00;3;  0.0000000E+00;  0.0000000E+00;  0.0000000E+00;0;  0.0000000E+00;  1.0000000E+04;  0.0000000E+00;  0.0000000E+00;  1.0000000E+04;  0.0000000E+00;  1.0000000E+04;  0.0000000E+00;  0.0000000E+00;  0.0000000E+00;  0.0000000E+00;
  8.8000000E-01;  9.9999998E-03;  1.6000000E-01;2416;  0.0000000E+00;  0.0000000E+00;  0.0000000E+00;  1.0000000E+03;  4.0000001E-01;  0.0000000E+00;3;  0.0000000E+00;  0.0000000E+00;  0.0000000E+00;0;  0.0000000E+00;  1.0000000E+04;  0.0000000E+00;  0.0000000E+00;  1.0000000E+04;  0.0000000E+00;  1.0000000E+04;  0.0000000E+00;  0.0000000E+00;  0.0000000E+00;  0.0000000E+00;
  8.8000000E-01;  9.9999998E-03;  1.8000001E-01;2417;  0.0000000E+00;  0.0000000E+00;  0.0000000E+00;  1.0000000E+03;  4.0000001E-01;  0.0000000E+00;3;  0.0000000E+00;  0.0000000E+00;  0.0000000E+00;0;  0.0000000E+00;  1.0000000E+04;  0.0000000E+00;  0.0000000E+00;  1.0000000E+04;  0.0000000E+00;  1.0000000E+04;  0.0000000E+00;  0.0000000E+00;  0.0000000E+00;  0.0000000E+00;
  8.8000000E-01;  9.9999998E-03;  2.0000000E-01;2418;  0.0000000E+00;  0.0000000E+00;  0.0000000E+00;  1.0000000E+03;  4.0000001E-01;  0.0000000E+00;3;  0.0000000E+00;  0.0000000E+00;  0.0000000E+00;0;  0.0000000E+00;  1.0000000E+04;  0.0000000E+00;  0.0000000E+00;  1.0000000E+04;  0.0000000E+00;  1.0000000E+04;  0.0000000E+00;  0.0000000E+00;  0.0000000E+00;  0.0000000E+00;
  8.8000000E-01;  9.9999998E-03;  2.2000000E-01;2419;  0.0000000E+00;  0.0000000E+00;  0.0000000E+00;  1.0000000E+03;  4.0000001E-01;  0.0000000E+00;3;  0.0000000E+00;  0.0000000E+00;  0.0000000E+00;0;  0.0000000E+00;  1.0000000E+04;  0.0000000E+00;  0.0000000E+00;  1.0000000E+04;  0.0000000E+00;  1.0000000E+04;  0.0000000E+00;  0.0000000E+00;  0.0000000E+00;  0.0000000E+00;
  8.8000000E-01;  9.9999998E-03;  2.3999999E-01;2420;  0.0000000E+00;  0.0000000E+00;  0.0000000E+00;  1.0000000E+03;  4.0000001E-01;  0.0000000E+00;3;  0.0000000E+00;  0.0000000E+00;  0.0000000E+00;0;  0.0000000E+00;  1.0000000E+04;  0.0000000E+00;  0.0000000E+00;  1.0000000E+04;  0.0000000E+00;  1.0000000E+04;  0.0000000E+00;  0.0000000E+00;  0.0000000E+00;  0.0000000E+00;
  8.8000000E-01;  9.9999998E-03;  2.5999999E-01;2421;  0.0000000E+00;  0.0000000E+00;  0.0000000E+00;  1.0000000E+03;  4.0000001E-01;  0.0000000E+00;3;  0.0000000E+00;  0.0000000E+00;  0.0000000E+00;0;  0.0000000E+00;  1.0000000E+04;  0.0000000E+00;  0.0000000E+00;  1.0000000E+04;  0.0000000E+00;  1.0000000E+04;  0.0000000E+00;  0.0000000E+00;  0.0000000E+00;  0.0000000E+00;
  8.8000000E-01;  9.9999998E-03;  2.8000000E-01;2422;  0.0000000E+00;  0.0000000E+00;  0.0000000E+00;  1.0000000E+03;  4.0000001E-01;  0.0000000E+00;3;  0.0000000E+00;  0.0000000E+00;  0.0000000E+00;0;  0.0000000E+00;  1.0000000E+04;  0.0000000E+00;  0.0000000E+00;  1.0000000E+04;  0.0000000E+00;  1.0000000E+04;  0.0000000E+00;  0.0000000E+00;  0.0000000E+00;  0.0000000E+00;
  8.8000000E-01;  9.9999998E-03;  3.0000001E-01;2423;  0.0000000E+00;  0.0000000E+00;  0.0000000E+00;  1.0000000E+03;  4.0000001E-01;  0.0000000E+00;3;  0.0000000E+00;  0.0000000E+00;  0.0000000E+00;0;  0.0000000E+00;  1.0000000E+04;  0.0000000E+00;  0.0000000E+00;  1.0000000E+04;  0.0000000E+00;  1.0000000E+04;  0.0000000E+00;  0.0000000E+00;  0.0000000E+00;  0.0000000E+00;
  8.9999998E-01;  9.9999998E-03;  1.6000000E-01;2447;  0.0000000E+00;  0.0000000E+00;  0.0000000E+00;  1.0000000E+03;  4.0000001E-01;  0.0000000E+00;3;  0.0000000E+00;  0.0000000E+00;  0.0000000E+00;0;  0.0000000E+00;  1.0000000E+04;  0.0000000E+00;  0.0000000E+00;  1.0000000E+04;  0.0000000E+00;  1.0000000E+04;  0.0000000E+00;  0.0000000E+00;  0.0000000E+00;  0.0000000E+00;
  8.9999998E-01;  9.9999998E-03;  1.8000001E-01;2448;  0.0000000E+00;  0.0000000E+00;  0.0000000E+00;  1.0000000E+03;  4.0000001E-01;  0.0000000E+00;3;  0.0000000E+00;  0.0000000E+00;  0.0000000E+00;0;  0.0000000E+00;  1.0000000E+04;  0.0000000E+00;  0.0000000E+00;  1.0000000E+04;  0.0000000E+00;  1.0000000E+04;  0.0000000E+00;  0.0000000E+00;  0.0000000E+00;  0.0000000E+00;
  8.9999998E-01;  9.9999998E-03;  2.0000000E-01;2449;  0.0000000E+00;  0.0000000E+00;  0.0000000E+00;  1.0000000E+03;  4.0000001E-01;  0.0000000E+00;3;  0.0000000E+00;  0.0000000E+00;  0.0000000E+00;0;  0.0000000E+00;  1.0000000E+04;  0.0000000E+00;  0.0000000E+00;  1.0000000E+04;  0.0000000E+00;  1.0000000E+04;  0.0000000E+00;  0.0000000E+00;  0.0000000E+00;  0.0000000E+00;
  8.9999998E-01;  9.9999998E-03;  2.2000000E-01;2450;  0.0000000E+00;  0.0000000E+00;  0.0000000E+00;  1.0000000E+03;  4.0000001E-01;  0.0000000E+00;3;  0.0000000E+00;  0.0000000E+00;  0.0000000E+00;0;  0.0000000E+00;  1.0000000E+04;  0.0000000E+00;  0.0000000E+00;  1.0000000E+04;  0.0000000E+00;  1.0000000E+04;  0.0000000E+00;  0.0000000E+00;  0.0000000E+00;  0.0000000E+00;
  8.9999998E-01;  9.9999998E-03;  2.3999999E-01;2451;  0.0000000E+00;  0.0000000E+00;  0.0000000E+00;  1.0000000E+03;  4.0000001E-01;  0.0000000E+00;3;  0.0000000E+00;  0.0000000E+00;  0.0000000E+00;0;  0.0000000E+00;  1.0000000E+04;  0.0000000E+00;  0.0000000E+00;  1.0000000E+04;  0.0000000E+00;  1.0000000E+04;  0.0000000E+00;  0.0000000E+00;  0.0000000E+00;  0.0000000E+00;
  8.9999998E-01;  9.9999998E-03;  2.5999999E-01;2452;  0.0000000E+00;  0.0000000E+00;  0.0000000E+00;  1.0000000E+03;  4.0000001E-01;  0.0000000E+00;3;  0.0000000E+00;  0.0000000E+00;  0.0000000E+00;0;  0.0000000E+00;  1.0000000E+04;  0.0000000E+00;  0.0000000E+00;  1.0000000E+04;  0.0000000E+00;  1.0000000E+04;  0.0000000E+00;  0.0000000E+00;  0.0000000E+00;  0.0000000E+00;
  8.9999998E-01;  9.9999998E-03;  2.8000000E-01;2453;  0.0000000E+00;  0.0000000E+00;  0.0000000E+00;  1.0000000E+03;  4.0000001E-01;  0.0000000E+00;3;  0.0000000E+00;  0.0000000E+00;  0.0000000E+00;0;  0.0000000E+00;  1.0000000E+04;  0.0000000E+00;  0.0000000E+00;  1.0000000E+04;  0.0000000E+00;  1.0000000E+04;  0.0000000E+00;  0.0000000E+00;  0.0000000E+00;  0.0000000E+00;
  8.9999998E-01;  9.9999998E-03;  3.0000001E-01;2454;  0.0000000E+00;  0.0000000E+00;  0.0000000E+00;  1.0000000E+03;  4.0000001E-01;  0.0000000E+00;3;  0.0000000E+00;  0.0000000E+00;  0.0000000E+00;0;  0.0000000E+00;  1.0000000E+04;  0.0000000E+00;  0.0000000E+00;  1.0000000E+04;  0.0000000E+00;  1.0000000E+04;  0.0000000E+00;  0.0000000E+00;  0.0000000E+00;  0.0000000E+00;
  9.2000002E-01;  9.9999998E-03;  1.6000000E-01;2478;  0.0000000E+00;  0.0000000E+00;  0.0000000E+00;  1.0000000E+03;  4.0000001E-01;  0.0000000E+00;3;  0.0000000E+00;  0.0000000E+00;  0.0000000E+00;0;  0.0000000E+00;  1.0000000E+04;  0.0000000E+00;  0.0000000E+00;  1.0000000E+04;  0.0000000E+00;  1.0000000E+04;  0.0000000E+00;  0.0000000E+00;  0.0000000E+00;  0.0000000E+00;
  9.2000002E-01;  9.9999998E-03;  1.8000001E-01;2479;  0.0000000E+00;  0.0000000E+00;  0.0000000E+00;  1.0000000E+03;  4.0000001E-01;  0.0000000E+00;3;  0.0000000E+00;  0.0000000E+00;  0.0000000E+00;0;  0.0000000E+00;  1.0000000E+04;  0.0000000E+00;  0.0000000E+00;  1.0000000E+04;  0.0000000E+00;  1.0000000E+04;  0.0000000E+00;  0.0000000E+00;  0.0000000E+00;  0.0000000E+00;
  9.2000002E-01;  9.9999998E-03;  2.0000000E-01;2480;  0.0000000E+00;  0.0000000E+00;  0.0000000E+00;  1.0000000E+03;  4.0000001E-01;  0.0000000E+00;3;  0.0000000E+00;  0.0000000E+00;  0.0000000E+00;0;  0.0000000E+00;  1.0000000E+04;  0.0000000E+00;  0.0000000E+00;  1.0000000E+04;  0.0000000E+00;  1.0000000E+04;  0.0000000E+00;  0.0000000E+00;  0.0000000E+00;  0.0000000E+00;
  9.2000002E-01;  9.9999998E-03;  2.2000000E-01;2481;  0.0000000E+00;  0.0000000E+00;  0.0000000E+00;  1.0000000E+03;  4.0000001E-01;  0.0000000E+00;3;  0.0000000E+00;  0.0000000E+00;  0.0000000E+00;0;  0.0000000E+00;  1.0000000E+04;  0.0000000E+00;  0.0000000E+00;  1.0000000E+04;  0.0000000E+00;  1.0000000E+04;  0.0000000E+00;  0.0000000E+00;  0.0000000E+00;  0.0000000E+00;
  9.2000002E-01;  9.9999998E-03;  2.3999999E-01;2482;  0.0000000E+00;  0.0000000E+00;  0.0000000E+00;  1.0000000E+03;  4.0000001E-01;  0.0000000E+00;3;  0.0000000E+00;  0.0000000E+00;  0.0000000E+00;0;  0.0000000E+00;  1.0000000E+04;  0.0000000E+00;  0.0000000E+00;  1.0000000E+04;  0.0000000E+00;  1.0000000E+04;  0.0000000E+00;  0.0000000E+00;  0.0000000E+00;  0.0000000E+00;
  9.2000002E-01;  9.9999998E-03;  2.5999999E-01;2483;  0.0000000E+00;  0.0000000E+00;  0.0000000E+00;  1.0000000E+03;  4.0000001E-01;  0.0000000E+00;3;  0.0000000E+00;  0.0000000E+00;  0.0000000E+00;0;  0.0000000E+00;  1.0000000E+04;  0.0000000E+00;  0.0000000E+00;  1.0000000E+04;  0.0000000E+00;  1.0000000E+04;  0.0000000E+00;  0.0000000E+00;  0.0000000E+00;  0.0000000E+00;
  9.2000002E-01;  9.9999998E-03;  2.8000000E-01;2484;  0.0000000E+00;  0.0000000E+00;  0.0000000E+00;  1.0000000E+03;  4.0000001E-01;  0.0000000E+00;3;  0.0000000E+00;  0.0000000E+00;  0.0000000E+00;0;  0.0000000E+00;  1.0000000E+04;  0.0000000E+00;  0.0000000E+00;  1.0000000E+04;  0.0000000E+00;  1.0000000E+04;  0.0000000E+00;  0.0000000E+00;  0.0000000E+00;  0.0000000E+00;
  9.2000002E-01;  9.9999998E-03;  3.0000001E-01;2485;  0.0000000E+00;  0.0000000E+00;  0.0000000E+00;  1.0000000E+03;  4.0000001E-01;  0.0000000E+00;3;  0.0000000E+00;  0.0000000E+00;  0.0000000E+00;0;  0.0000000E+00;  1.0000000E+04;  0.0000000E+00;  0.0000000E+00;  1.0000000E+04;  0.0000000E+00;  1.0000000E+04;  0.0000000E+00;  0.0000000E+00;  0.0000000E+00;  0.0000000E+00;
  9.4000000E-01;  9.9999998E-03;  1.6000000E-01;2509;  0.0000000E+00;  0.0000000E+00;  0.0000000E+00;  1.0000000E+03;  4.0000001E-01;  0.0000000E+00;3;  0.0000000E+00;  0.0000000E+00;  0.0000000E+00;0;  0.0000000E+00;  1.0000000E+04;  0.0000000E+00;  0.0000000E+00;  1.0000000E+04;  0.0000000E+00;  1.0000000E+04;  0.0000000E+00;  0.0000000E+00;  0.0000000E+00;  0.0000000E+00;
  9.4000000E-01;  9.9999998E-03;  1.8000001E-01;2510;  0.0000000E+00;  0.0000000E+00;  0.0000000E+00;  1.0000000E+03;  4.0000001E-01;  0.0000000E+00;3;  0.0000000E+00;  0.0000000E+00;  0.0000000E+00;0;  0.0000000E+00;  1.0000000E+04;  0.0000000E+00;  0.0000000E+00;  1.0000000E+04;  0.0000000E+00;  1.0000000E+04;  0.0000000E+00;  0.0000000E+00;  0.0000000E+00;  0.0000000E+00;
  9.4000000E-01;  9.9999998E-03;  2.0000000E-01;2511;  0.0000000E+00;  0.0000000E+00;  0.0000000E+00;  1.0000000E+03;  4.0000001E-01;  0.0000000E+00;3;  0.0000000E+00;  0.0000000E+00;  0.0000000E+00;0;  0.0000000E+00;  1.0000000E+04;  0.0000000E+00;  0.0000000E+00;  1.0000000E+04;  0.0000000E+00;  1.0000000E+04;  0.0000000E+00;  0.0000000E+00;  0.0000000E+00;  0.0000000E+00;
  9.4000000E-01;  9.9999998E-03;  2.2000000E-01;2512;  0.0000000E+00;  0.0000000E+00;  0.0000000E+00;  1.0000000E+03;  4.0000001E-01;  0.0000000E+00;3;  0.0000000E+00;  0.0000000E+00;  0.0000000E+00;0;  0.0000000E+00;  1.0000000E+04;  0.0000000E+00;  0.0000000E+00;  1.0000000E+04;  0.0000000E+00;  1.0000000E+04;  0.0000000E+00;  0.0000000E+00;  0.0000000E+00;  0.0000000E+00;
  9.4000000E-01;  9.9999998E-03;  2.3999999E-01;2513;  0.0000000E+00;  0.0000000E+00;  0.0000000E+00;  1.0000000E+03;  4.0000001E-01;  0.0000000E+00;3;  0.0000000E+00;  0.0000000E+00;  0.0000000E+00;0;  0.0000000E+00;  1.0000000E+04;  0.0000000E+00;  0.0000000E+00;  1.0000000E+04;  0.0000000E+00;  1.0000000E+04;  0.0000000E+00;  0.0000000E+00;  0.0000000E+00;  0.0000000E+00;
  9.4000000E-01;  9.9999998E-03;  2.5999999E-01;2514;  0.0000000E+00;  0.0000000E+00;  0.0000000E+00;  1.0000000E+03;  4.0000001E-01;  0.0000000E+00;3;  0.0000000E+00;  0.0000000E+00;  0.0000000E+00;0;  0.0000000E+00;  1.0000000E+04;  0.0000000E+00;  0.0000000E+00;  1.0000000E+04;  0.0000000E+00;  1.0000000E+04;  0.0000000E+00;  0.0000000E+00;  0.0000000E+00;  0.0000000E+00;
  9.4000000E-01;  9.9999998E-03;  2.8000000E-01;2515;  0.0000000E+00;  0.0000000E+00;  0.0000000E+00;  1.0000000E+03;  4.0000001E-01;  0.0000000E+00;3;  0.0000000E+00;  0.0000000E+00;  0.0000000E+00;0;  0.0000000E+00;  1.0000000E+04;  0.0000000E+00;  0.0000000E+00;  1.0000000E+04;  0.0000000E+00;  1.0000000E+04;  0.0000000E+00;  0.0000000E+00;  0.0000000E+00;  0.0000000E+00;
  9.4000000E-01;  9.9999998E-03;  3.0000001E-01;2516;  0.0000000E+00;  0.0000000E+00;  0.0000000E+00;  1.0000000E+03;  4.0000001E-01;  0.0000000E+00;3;  0.0000000E+00;  0.0000000E+00;  0.0000000E+00;0;  0.0000000E+00;  1.0000000E+04;  0.0000000E+00;  0.0000000E+00;  1.0000000E+04;  0.0000000E+00;  1.0000000E+04;  0.0000000E+00;  0.0000000E+00;  0.0000000E+00;  0.0000000E+00;
  9.5999998E-01;  9.9999998E-03;  1.6000000E-01;2540;  0.0000000E+00;  0.0000000E+00;  0.0000000E+00;  1.0000000E+03;  4.0000001E-01;  0.0000000E+00;3;  0.0000000E+00;  0.0000000E+00;  0.0000000E+00;0;  0.0000000E+00;  1.0000000E+04;  0.0000000E+00;  0.0000000E+00;  1.0000000E+04;  0.0000000E+00;  1.0000000E+04;  0.0000000E+00;  0.0000000E+00;  0.0000000E+00;  0.0000000E+00;
  9.5999998E-01;  9.9999998E-03;  1.8000001E-01;2541;  0.0000000E+00;  0.0000000E+00;  0.0000000E+00;  1.0000000E+03;  4.0000001E-01;  0.0000000E+00;3;  0.0000000E+00;  0.0000000E+00;  0.0000000E+00;0;  0.0000000E+00;  1.0000000E+04;  0.0000000E+00;  0.0000000E+00;  1.0000000E+04;  0.0000000E+00;  1.0000000E+04;  0.0000000E+00;  0.0000000E+00;  0.0000000E+00;  0.0000000E+00;
  9.5999998E-01;  9.9999998E-03;  2.0000000E-01;2542;  0.0000000E+00;  0.0000000E+00;  0.0000000E+00;  1.0000000E+03;  4.0000001E-01;  0.0000000E+00;3;  0.0000000E+00;  0.0000000E+00;  0.0000000E+00;0;  0.0000000E+00;  1.0000000E+04;  0.0000000E+00;  0.0000000E+00;  1.0000000E+04;  0.0000000E+00;  1.0000000E+04;  0.0000000E+00;  0.0000000E+00;  0.0000000E+00;  0.0000000E+00;
  9.5999998E-01;  9.9999998E-03;  2.2000000E-01;2543;  0.0000000E+00;  0.0000000E+00;  0.0000000E+00;  1.0000000E+03;  4.0000001E-01;  0.0000000E+00;3;  0.0000000E+00;  0.0000000E+00;  0.0000000E+00;0;  0.0000000E+00;  1.0000000E+04;  0.0000000E+00;  0.0000000E+00;  1.0000000E+04;  0.0000000E+00;  1.0000000E+04;  0.0000000E+00;  0.0000000E+00;  0.0000000E+00;  0.0000000E+00;
  9.5999998E-01;  9.9999998E-03;  2.3999999E-01;2544;  0.0000000E+00;  0.0000000E+00;  0.0000000E+00;  1.0000000E+03;  4.0000001E-01;  0.0000000E+00;3;  0.0000000E+00;  0.0000000E+00;  0.0000000E+00;0;  0.0000000E+00;  1.0000000E+04;  0.0000000E+00;  0.0000000E+00;  1.0000000E+04;  0.0000000E+00;  1.0000000E+04;  0.0000000E+00;  0.0000000E+00;  0.0000000E+00;  0.0000000E+00;
  9.5999998E-01;  9.9999998E-03;  2.5999999E-01;2545;  0.0000000E+00;  0.0000000E+00;  0.0000000E+00;  1.0000000E+03;  4.0000001E-01;  0.0000000E+00;3;  0.0000000E+00;  0.0000000E+00;  0.0000000E+00;0;  0.0000000E+00;  1.0000000E+04;  0.0000000E+00;  0.0000000E+00;  1.0000000E+04;  0.0000000E+00;  1.0000000E+04;  0.0000000E+00;  0.0000000E+00;  0.0000000E+00;  0.0000000E+00;
  9.5999998E-01;  9.9999998E-03;  2.8000000E-01;2546;  0.0000000E+00;  0.0000000E+00;  0.0000000E+00;  1.0000000E+03;  4.0000001E-01;  0.0000000E+00;3;  0.0000000E+00;  0.0000000E+00;  0.0000000E+00;0;  0.0000000E+00;  1.0000000E+04;  0.0000000E+00;  0.0000000E+00;  1.0000000E+04;  0.0000000E+00;  1.0000000E+04;  0.0000000E+00;  0.0000000E+00;  0.0000000E+00;  0.0000000E+00;
  9.5999998E-01;  9.9999998E-03;  3.0000001E-01;2547;  0.0000000E+00;  0.0000000E+00;  0.0000000E+00;  1.0000000E+03;  4.0000001E-01;  0.0000000E+00;3;  0.0000000E+00;  0.0000000E+00;  0.0000000E+00;0;  0.0000000E+00;  1.0000000E+04;  0.0000000E+00;  0.0000000E+00;  1.0000000E+04;  0.0000000E+00;  1.0000000E+04;  0.0000000E+00;  0.0000000E+00;  0.0000000E+00;  0.0000000E+00;
  9.8000002E-01;  9.9999998E-03;  1.6000000E-01;2571;  0.0000000E+00;  0.0000000E+00;  0.0000000E+00;  1.0000000E+03;  4.0000001E-01;  0.0000000E+00;3;  0.0000000E+00;  0.0000000E+00;  0.0000000E+00;0;  0.0000000E+00;  1.0000000E+04;  0.0000000E+00;  0.0000000E+00;  1.0000000E+04;  0.0000000E+00;  1.0000000E+04;  0.0000000E+00;  0.0000000E+00;  0.0000000E+00;  0.0000000E+00;
  9.8000002E-01;  9.9999998E-03;  1.8000001E-01;2572;  0.0000000E+00;  0.0000000E+00;  0.0000000E+00;  1.0000000E+03;  4.0000001E-01;  0.0000000E+00;3;  0.0000000E+00;  0.0000000E+00;  0.0000000E+00;0;  0.0000000E+00;  1.0000000E+04;  0.0000000E+00;  0.0000000E+00;  1.0000000E+04;  0.0000000E+00;  1.0000000E+04;  0.0000000E+00;  0.0000000E+00;  0.0000000E+00;  0.0000000E+00;
  9.8000002E-01;  9.9999998E-03;  2.0000000E-01;2573;  0.0000000E+00;  0.0000000E+00;  0.0000000E+00;  1.0000000E+03;  4.0000001E-01;  0.0000000E+00;3;  0.0000000E+00;  0.0000000E+00;  0.0000000E+00;0;  0.0000000E+00;  1.0000000E+04;  0.0000000E+00;  0.0000000E+00;  1.0000000E+04;  0.0000000E+00;  1.0000000E+04;  0.0000000E+00;  0.0000000E+00;  0.0000000E+00;  0.0000000E+00;
  9.8000002E-01;  9.9999998E-03;  2.2000000E-01;2574;  0.0000000E+00;  0.0000000E+00;  0.0000000E+00;  1.0000000E+03;  4.0000001E-01;  0.0000000E+00;3;  0.0000000E+00;  0.0000000E+00;  0.0000000E+00;0;  0.0000000E+00;  1.0000000E+04;  0.0000000E+00;  0.0000000E+00;  1.0000000E+04;  0.0000000E+00;  1.0000000E+04;  0.0000000E+00;  0.0000000E+00;  0.0000000E+00;  0.0000000E+00;
  9.8000002E-01;  9.9999998E-03;  2.3999999E-01;2575;  0.0000000E+00;  0.0000000E+00;  0.0000000E+00;  1.0000000E+03;  4.0000001E-01;  0.0000000E+00;3;  0.0000000E+00;  0.0000000E+00;  0.0000000E+00;0;  0.0000000E+00;  1.0000000E+04;  0.0000000E+00;  0.0000000E+00;  1.0000000E+04;  0.0000000E+00;  1.0000000E+04;  0.0000000E+00;  0.0000000E+00;  0.0000000E+00;  0.0000000E+00;
  9.8000002E-01;  9.9999998E-03;  2.5999999E-01;2576;  0.0000000E+00;  0.0000000E+00;  0.0000000E+00;  1.0000000E+03;  4.0000001E-01;  0.0000000E+00;3;  0.0000000E+00;  0.0000000E+00;  0.0000000E+00;0;  0.0000000E+00;  1.0000000E+04;  0.0000000E+00;  0.0000000E+00;  1.0000000E+04;  0.0000000E+00;  1.0000000E+04;  0.0000000E+00;  0.0000000E+00;  0.0000000E+00;  0.0000000E+00;
  9.8000002E-01;  9.9999998E-03;  2.8000000E-01;2577;  0.0000000E+00;  0.0000000E+00;  0.0000000E+00;  1.0000000E+03;  4.0000001E-01;  0.0000000E+00;3;  0.0000000E+00;  0.0000000E+00;  0.0000000E+00;0;  0.0000000E+00;  1.0000000E+04;  0.0000000E+00;  0.0000000E+00;  1.0000000E+04;  0.0000000E+00;  1.0000000E+04;  0.0000000E+00;  0.0000000E+00;  0.0000000E+00;  0.0000000E+00;
  9.8000002E-01;  9.9999998E-03;  3.0000001E-01;2578;  0.0000000E+00;  0.0000000E+00;  0.0000000E+00;  1.0000000E+03;  4.0000001E-01;  0.0000000E+00;3;  0.0000000E+00;  0.0000000E+00;  0.0000000E+00;0;  0.0000000E+00;  1.0000000E+04;  0.0000000E+00;  0.0000000E+00;  1.0000000E+04;  0.0000000E+00;  1.0000000E+04;  0.0000000E+00;  0.0000000E+00;  0.0000000E+00;  0.0000000E+00;
  1.0000000E+00;  9.9999998E-03;  1.6000000E-01;2602;  0.0000000E+00;  0.0000000E+00;  0.0000000E+00;  1.0000000E+03;  4.0000001E-01;  0.0000000E+00;3;  0.0000000E+00;  0.0000000E+00;  0.0000000E+00;0;  0.0000000E+00;  1.0000000E+04;  0.0000000E+00;  0.0000000E+00;  1.0000000E+04;  0.0000000E+00;  1.0000000E+04;  0.0000000E+00;  0.0000000E+00;  0.0000000E+00;  0.0000000E+00;
  1.0000000E+00;  9.9999998E-03;  1.8000001E-01;2603;  0.0000000E+00;  0.0000000E+00;  0.0000000E+00;  1.0000000E+03;  4.0000001E-01;  0.0000000E+00;3;  0.0000000E+00;  0.0000000E+00;  0.0000000E+00;0;  0.0000000E+00;  1.0000000E+04;  0.0000000E+00;  0.0000000E+00;  1.0000000E+04;  0.0000000E+00;  1.0000000E+04;  0.0000000E+00;  0.0000000E+00;  0.0000000E+00;  0.0000000E+00;
  1.0000000E+00;  9.9999998E-03;  2.0000000E-01;2604;  0.0000000E+00;  0.0000000E+00;  0.0000000E+00;  1.0000000E+03;  4.0000001E-01;  0.0000000E+00;3;  0.0000000E+00;  0.0000000E+00;  0.0000000E+00;0;  0.0000000E+00;  1.0000000E+04;  0.0000000E+00;  0.0000000E+00;  1.0000000E+04;  0.0000000E+00;  1.0000000E+04;  0.0000000E+00;  0.0000000E+00;  0.0000000E+00;  0.0000000E+00;
  1.0000000E+00;  9.9999998E-03;  2.2000000E-01;2605;  0.0000000E+00;  0.0000000E+00;  0.0000000E+00;  1.0000000E+03;  4.0000001E-01;  0.0000000E+00;3;  0.0000000E+00;  0.0000000E+00;  0.0000000E+00;0;  0.0000000E+00;  1.0000000E+04;  0.0000000E+00;  0.0000000E+00;  1.0000000E+04;  0.0000000E+00;  1.0000000E+04;  0.0000000E+00;  0.0000000E+00;  0.0000000E+00;  0.0000000E+00;
  1.0000000E+00;  9.9999998E-03;  2.3999999E-01;2606;  0.0000000E+00;  0.0000000E+00;  0.0000000E+00;  1.0000000E+03;  4.0000001E-01;  0.0000000E+00;3;  0.0000000E+00;  0.0000000E+00;  0.0000000E+00;0;  0.0000000E+00;  1.0000000E+04;  0.0000000E+00;  0.0000000E+00;  1.0000000E+04;  0.0000000E+00;  1.0000000E+04;  0.0000000E+00;  0.0000000E+00;  0.0000000E+00;  0.0000000E+00;
  1.0000000E+00;  9.9999998E-03;  2.5999999E-01;2607;  0.0000000E+00;  0.0000000E+00;  0.0000000E+00;  1.0000000E+03;  4.0000001E-01;  0.0000000E+00;3;  0.0000000E+00;  0.0000000E+00;  0.0000000E+00;0;  0.0000000E+00;  1.0000000E+04;  0.0000000E+00;  0.0000000E+00;  1.0000000E+04;  0.0000000E+00;  1.0000000E+04;  0.0000000E+00;  0.0000000E+00;  0.0000000E+00;  0.0000000E+00;
  1.0000000E+00;  9.9999998E-03;  2.8000000E-01;2608;  0.0000000E+00;  0.0000000E+00;  0.0000000E+00;  1.0000000E+03;  4.0000001E-01;  0.0000000E+00;3;  0.0000000E+00;  0.0000000E+00;  0.0000000E+00;0;  0.0000000E+00;  1.0000000E+04;  0.0000000E+00;  0.0000000E+00;  1.0000000E+04;  0.0000000E+00;  1.0000000E+04;  0.0000000E+00;  0.0000000E+00;  0.0000000E+00;  0.0000000E+00;
  1.0000000E+00;  9.9999998E-03;  3.0000001E-01;2609;  0.0000000E+00;  0.0000000E+00;  0.0000000E+00;  1.0000000E+03;  4.0000001E-01;  0.0000000E+00;3;  0.0000000E+00;  0.0000000E+00;  0.0000000E+00;0;  0.0000000E+00;  1.0000000E+04;  0.0000000E+00;  0.0000000E+00;  1.0000000E+04;  0.0000000E+00;  1.0000000E+04;  0.0000000E+00;  0.0000000E+00;  0.0000000E+00;  0.0000000E+00;
  1.0200000E+00;  9.9999998E-03;  1.6000000E-01;2633;  0.0000000E+00;  0.0000000E+00;  0.0000000E+00;  1.0000000E+03;  4.0000001E-01;  0.0000000E+00;3;  0.0000000E+00;  0.0000000E+00;  0.0000000E+00;0;  0.0000000E+00;  1.0000000E+04;  0.0000000E+00;  0.0000000E+00;  1.0000000E+04;  0.0000000E+00;  1.0000000E+04;  0.0000000E+00;  0.0000000E+00;  0.0000000E+00;  0.0000000E+00;
  1.0200000E+00;  9.9999998E-03;  1.8000001E-01;2634;  0.0000000E+00;  0.0000000E+00;  0.0000000E+00;  1.0000000E+03;  4.0000001E-01;  0.0000000E+00;3;  0.0000000E+00;  0.0000000E+00;  0.0000000E+00;0;  0.0000000E+00;  1.0000000E+04;  0.0000000E+00;  0.0000000E+00;  1.0000000E+04;  0.0000000E+00;  1.0000000E+04;  0.0000000E+00;  0.0000000E+00;  0.0000000E+00;  0.0000000E+00;
  1.0200000E+00;  9.9999998E-03;  2.0000000E-01;2635;  0.0000000E+00;  0.0000000E+00;  0.0000000E+00;  1.0000000E+03;  4.0000001E-01;  0.0000000E+00;3;  0.0000000E+00;  0.0000000E+00;  0.0000000E+00;0;  0.0000000E+00;  1.0000000E+04;  0.0000000E+00;  0.0000000E+00;  1.0000000E+04;  0.0000000E+00;  1.0000000E+04;  0.0000000E+00;  0.0000000E+00;  0.0000000E+00;  0.0000000E+00;
  1.0200000E+00;  9.9999998E-03;  2.2000000E-01;2636;  0.0000000E+00;  0.0000000E+00;  0.0000000E+00;  1.0000000E+03;  4.0000001E-01;  0.0000000E+00;3;  0.0000000E+00;  0.0000000E+00;  0.0000000E+00;0;  0.0000000E+00;  1.0000000E+04;  0.0000000E+00;  0.0000000E+00;  1.0000000E+04;  0.0000000E+00;  1.0000000E+04;  0.0000000E+00;  0.0000000E+00;  0.0000000E+00;  0.0000000E+00;
  1.0200000E+00;  9.9999998E-03;  2.3999999E-01;2637;  0.0000000E+00;  0.0000000E+00;  0.0000000E+00;  1.0000000E+03;  4.0000001E-01;  0.0000000E+00;3;  0.0000000E+00;  0.0000000E+00;  0.0000000E+00;0;  0.0000000E+00;  1.0000000E+04;  0.0000000E+00;  0.0000000E+00;  1.0000000E+04;  0.0000000E+00;  1.0000000E+04;  0.0000000E+00;  0.0000000E+00;  0.0000000E+00;  0.0000000E+00;
  1.0200000E+00;  9.9999998E-03;  2.5999999E-01;2638;  0.0000000E+00;  0.0000000E+00;  0.0000000E+00;  1.0000000E+03;  4.0000001E-01;  0.0000000E+00;3;  0.0000000E+00;  0.0000000E+00;  0.0000000E+00;0;  0.0000000E+00;  1.0000000E+04;  0.0000000E+00;  0.0000000E+00;  1.0000000E+04;  0.0000000E+00;  1.0000000E+04;  0.0000000E+00;  0.0000000E+00;  0.0000000E+00;  0.0000000E+00;
  1.0200000E+00;  9.9999998E-03;  2.8000000E-01;2639;  0.0000000E+00;  0.0000000E+00;  0.0000000E+00;  1.0000000E+03;  4.0000001E-01;  0.0000000E+00;3;  0.0000000E+00;  0.0000000E+00;  0.0000000E+00;0;  0.0000000E+00;  1.0000000E+04;  0.0000000E+00;  0.0000000E+00;  1.0000000E+04;  0.0000000E+00;  1.0000000E+04;  0.0000000E+00;  0.0000000E+00;  0.0000000E+00;  0.0000000E+00;
  1.0200000E+00;  9.9999998E-03;  3.0000001E-01;2640;  0.0000000E+00;  0.0000000E+00;  0.0000000E+00;  1.0000000E+03;  4.0000001E-01;  0.0000000E+00;3;  0.0000000E+00;  0.0000000E+00;  0.0000000E+00;0;  0.0000000E+00;  1.0000000E+04;  0.0000000E+00;  0.0000000E+00;  1.0000000E+04;  0.0000000E+00;  1.0000000E+04;  0.0000000E+00;  0.0000000E+00;  0.0000000E+00;  0.0000000E+00;
  1.0400000E+00;  9.9999998E-03;  1.6000000E-01;2664;  0.0000000E+00;  0.0000000E+00;  0.0000000E+00;  1.0000000E+03;  4.0000001E-01;  0.0000000E+00;3;  0.0000000E+00;  0.0000000E+00;  0.0000000E+00;0;  0.0000000E+00;  1.0000000E+04;  0.0000000E+00;  0.0000000E+00;  1.0000000E+04;  0.0000000E+00;  1.0000000E+04;  0.0000000E+00;  0.0000000E+00;  0.0000000E+00;  0.0000000E+00;
  1.0400000E+00;  9.9999998E-03;  1.8000001E-01;2665;  0.0000000E+00;  0.0000000E+00;  0.0000000E+00;  1.0000000E+03;  4.0000001E-01;  0.0000000E+00;3;  0.0000000E+00;  0.0000000E+00;  0.0000000E+00;0;  0.0000000E+00;  1.0000000E+04;  0.0000000E+00;  0.0000000E+00;  1.0000000E+04;  0.0000000E+00;  1.0000000E+04;  0.0000000E+00;  0.0000000E+00;  0.0000000E+00;  0.0000000E+00;
  1.0400000E+00;  9.9999998E-03;  2.0000000E-01;2666;  0.0000000E+00;  0.0000000E+00;  0.0000000E+00;  1.0000000E+03;  4.0000001E-01;  0.0000000E+00;3;  0.0000000E+00;  0.0000000E+00;  0.0000000E+00;0;  0.0000000E+00;  1.0000000E+04;  0.0000000E+00;  0.0000000E+00;  1.0000000E+04;  0.0000000E+00;  1.0000000E+04;  0.0000000E+00;  0.0000000E+00;  0.0000000E+00;  0.0000000E+00;
  1.0400000E+00;  9.9999998E-03;  2.2000000E-01;2667;  0.0000000E+00;  0.0000000E+00;  0.0000000E+00;  1.0000000E+03;  4.0000001E-01;  0.0000000E+00;3;  0.0000000E+00;  0.0000000E+00;  0.0000000E+00;0;  0.0000000E+00;  1.0000000E+04;  0.0000000E+00;  0.0000000E+00;  1.0000000E+04;  0.0000000E+00;  1.0000000E+04;  0.0000000E+00;  0.0000000E+00;  0.0000000E+00;  0.0000000E+00;
  1.0400000E+00;  9.9999998E-03;  2.3999999E-01;2668;  0.0000000E+00;  0.0000000E+00;  0.0000000E+00;  1.0000000E+03;  4.0000001E-01;  0.0000000E+00;3;  0.0000000E+00;  0.0000000E+00;  0.0000000E+00;0;  0.0000000E+00;  1.0000000E+04;  0.0000000E+00;  0.0000000E+00;  1.0000000E+04;  0.0000000E+00;  1.0000000E+04;  0.0000000E+00;  0.0000000E+00;  0.0000000E+00;  0.0000000E+00;
  1.0400000E+00;  9.9999998E-03;  2.5999999E-01;2669;  0.0000000E+00;  0.0000000E+00;  0.0000000E+00;  1.0000000E+03;  4.0000001E-01;  0.0000000E+00;3;  0.0000000E+00;  0.0000000E+00;  0.0000000E+00;0;  0.0000000E+00;  1.0000000E+04;  0.0000000E+00;  0.0000000E+00;  1.0000000E+04;  0.0000000E+00;  1.0000000E+04;  0.0000000E+00;  0.0000000E+00;  0.0000000E+00;  0.0000000E+00;
  1.0400000E+00;  9.9999998E-03;  2.8000000E-01;2670;  0.0000000E+00;  0.0000000E+00;  0.0000000E+00;  1.0000000E+03;  4.0000001E-01;  0.0000000E+00;3;  0.0000000E+00;  0.0000000E+00;  0.0000000E+00;0;  0.0000000E+00;  1.0000000E+04;  0.0000000E+00;  0.0000000E+00;  1.0000000E+04;  0.0000000E+00;  1.0000000E+04;  0.0000000E+00;  0.0000000E+00;  0.0000000E+00;  0.0000000E+00;
  1.0400000E+00;  9.9999998E-03;  3.0000001E-01;2671;  0.0000000E+00;  0.0000000E+00;  0.0000000E+00;  1.0000000E+03;  4.0000001E-01;  0.0000000E+00;3;  0.0000000E+00;  0.0000000E+00;  0.0000000E+00;0;  0.0000000E+00;  1.0000000E+04;  0.0000000E+00;  0.0000000E+00;  1.0000000E+04;  0.0000000E+00;  1.0000000E+04;  0.0000000E+00;  0.0000000E+00;  0.0000000E+00;  0.0000000E+00;
  1.0599999E+00;  9.9999998E-03;  1.6000000E-01;2695;  0.0000000E+00;  0.0000000E+00;  0.0000000E+00;  1.0000000E+03;  4.0000001E-01;  0.0000000E+00;3;  0.0000000E+00;  0.0000000E+00;  0.0000000E+00;0;  0.0000000E+00;  1.0000000E+04;  0.0000000E+00;  0.0000000E+00;  1.0000000E+04;  0.0000000E+00;  1.0000000E+04;  0.0000000E+00;  0.0000000E+00;  0.0000000E+00;  0.0000000E+00;
  1.0599999E+00;  9.9999998E-03;  1.8000001E-01;2696;  0.0000000E+00;  0.0000000E+00;  0.0000000E+00;  1.0000000E+03;  4.0000001E-01;  0.0000000E+00;3;  0.0000000E+00;  0.0000000E+00;  0.0000000E+00;0;  0.0000000E+00;  1.0000000E+04;  0.0000000E+00;  0.0000000E+00;  1.0000000E+04;  0.0000000E+00;  1.0000000E+04;  0.0000000E+00;  0.0000000E+00;  0.0000000E+00;  0.0000000E+00;
  1.0599999E+00;  9.9999998E-03;  2.0000000E-01;2697;  0.0000000E+00;  0.0000000E+00;  0.0000000E+00;  1.0000000E+03;  4.0000001E-01;  0.0000000E+00;3;  0.0000000E+00;  0.0000000E+00;  0.0000000E+00;0;  0.0000000E+00;  1.0000000E+04;  0.0000000E+00;  0.0000000E+00;  1.0000000E+04;  0.0000000E+00;  1.0000000E+04;  0.0000000E+00;  0.0000000E+00;  0.0000000E+00;  0.0000000E+00;
  1.0599999E+00;  9.9999998E-03;  2.2000000E-01;2698;  0.0000000E+00;  0.0000000E+00;  0.0000000E+00;  1.0000000E+03;  4.0000001E-01;  0.0000000E+00;3;  0.0000000E+00;  0.0000000E+00;  0.0000000E+00;0;  0.0000000E+00;  1.0000000E+04;  0.0000000E+00;  0.0000000E+00;  1.0000000E+04;  0.0000000E+00;  1.0000000E+04;  0.0000000E+00;  0.0000000E+00;  0.0000000E+00;  0.0000000E+00;
  1.0599999E+00;  9.9999998E-03;  2.3999999E-01;2699;  0.0000000E+00;  0.0000000E+00;  0.0000000E+00;  1.0000000E+03;  4.0000001E-01;  0.0000000E+00;3;  0.0000000E+00;  0.0000000E+00;  0.0000000E+00;0;  0.0000000E+00;  1.0000000E+04;  0.0000000E+00;  0.0000000E+00;  1.0000000E+04;  0.0000000E+00;  1.0000000E+04;  0.0000000E+00;  0.0000000E+00;  0.0000000E+00;  0.0000000E+00;
  1.0599999E+00;  9.9999998E-03;  2.5999999E-01;2700;  0.0000000E+00;  0.0000000E+00;  0.0000000E+00;  1.0000000E+03;  4.0000001E-01;  0.0000000E+00;3;  0.0000000E+00;  0.0000000E+00;  0.0000000E+00;0;  0.0000000E+00;  1.0000000E+04;  0.0000000E+00;  0.0000000E+00;  1.0000000E+04;  0.0000000E+00;  1.0000000E+04;  0.0000000E+00;  0.0000000E+00;  0.0000000E+00;  0.0000000E+00;
  1.0599999E+00;  9.9999998E-03;  2.8000000E-01;2701;  0.0000000E+00;  0.0000000E+00;  0.0000000E+00;  1.0000000E+03;  4.0000001E-01;  0.0000000E+00;3;  0.0000000E+00;  0.0000000E+00;  0.0000000E+00;0;  0.0000000E+00;  1.0000000E+04;  0.0000000E+00;  0.0000000E+00;  1.0000000E+04;  0.0000000E+00;  1.0000000E+04;  0.0000000E+00;  0.0000000E+00;  0.0000000E+00;  0.0000000E+00;
  1.0599999E+00;  9.9999998E-03;  3.0000001E-01;2702;  0.0000000E+00;  0.0000000E+00;  0.0000000E+00;  1.0000000E+03;  4.0000001E-01;  0.0000000E+00;3;  0.0000000E+00;  0.0000000E+00;  0.0000000E+00;0;  0.0000000E+00;  1.0000000E+04;  0.0000000E+00;  0.0000000E+00;  1.0000000E+04;  0.0000000E+00;  1.0000000E+04;  0.0000000E+00;  0.0000000E+00;  0.0000000E+00;  0.0000000E+00;
  1.0800000E+00;  9.9999998E-03;  1.6000000E-01;2726;  0.0000000E+00;  0.0000000E+00;  0.0000000E+00;  1.0000000E+03;  4.0000001E-01;  0.0000000E+00;3;  0.0000000E+00;  0.0000000E+00;  0.0000000E+00;0;  0.0000000E+00;  1.0000000E+04;  0.0000000E+00;  0.0000000E+00;  1.0000000E+04;  0.0000000E+00;  1.0000000E+04;  0.0000000E+00;  0.0000000E+00;  0.0000000E+00;  0.0000000E+00;
  1.0800000E+00;  9.9999998E-03;  1.8000001E-01;2727;  0.0000000E+00;  0.0000000E+00;  0.0000000E+00;  1.0000000E+03;  4.0000001E-01;  0.0000000E+00;3;  0.0000000E+00;  0.0000000E+00;  0.0000000E+00;0;  0.0000000E+00;  1.0000000E+04;  0.0000000E+00;  0.0000000E+00;  1.0000000E+04;  0.0000000E+00;  1.0000000E+04;  0.0000000E+00;  0.0000000E+00;  0.0000000E+00;  0.0000000E+00;
  1.0800000E+00;  9.9999998E-03;  2.0000000E-01;2728;  0.0000000E+00;  0.0000000E+00;  0.0000000E+00;  1.0000000E+03;  4.0000001E-01;  0.0000000E+00;3;  0.0000000E+00;  0.0000000E+00;  0.0000000E+00;0;  0.0000000E+00;  1.0000000E+04;  0.0000000E+00;  0.0000000E+00;  1.0000000E+04;  0.0000000E+00;  1.0000000E+04;  0.0000000E+00;  0.0000000E+00;  0.0000000E+00;  0.0000000E+00;
  1.0800000E+00;  9.9999998E-03;  2.2000000E-01;2729;  0.0000000E+00;  0.0000000E+00;  0.0000000E+00;  1.0000000E+03;  4.0000001E-01;  0.0000000E+00;3;  0.0000000E+00;  0.0000000E+00;  0.0000000E+00;0;  0.0000000E+00;  1.0000000E+04;  0.0000000E+00;  0.0000000E+00;  1.0000000E+04;  0.0000000E+00;  1.0000000E+04;  0.0000000E+00;  0.0000000E+00;  0.0000000E+00;  0.0000000E+00;
  1.0800000E+00;  9.9999998E-03;  2.3999999E-01;2730;  0.0000000E+00;  0.0000000E+00;  0.0000000E+00;  1.0000000E+03;  4.0000001E-01;  0.0000000E+00;3;  0.0000000E+00;  0.0000000E+00;  0.0000000E+00;0;  0.0000000E+00;  1.0000000E+04;  0.0000000E+00;  0.0000000E+00;  1.0000000E+04;  0.0000000E+00;  1.0000000E+04;  0.0000000E+00;  0.0000000E+00;  0.0000000E+00;  0.0000000E+00;
  1.0800000E+00;  9.9999998E-03;  2.5999999E-01;2731;  0.0000000E+00;  0.0000000E+00;  0.0000000E+00;  1.0000000E+03;  4.0000001E-01;  0.0000000E+00;3;  0.0000000E+00;  0.0000000E+00;  0.0000000E+00;0;  0.0000000E+00;  1.0000000E+04;  0.0000000E+00;  0.0000000E+00;  1.0000000E+04;  0.0000000E+00;  1.0000000E+04;  0.0000000E+00;  0.0000000E+00;  0.0000000E+00;  0.0000000E+00;
  1.0800000E+00;  9.9999998E-03;  2.8000000E-01;2732;  0.0000000E+00;  0.0000000E+00;  0.0000000E+00;  1.0000000E+03;  4.0000001E-01;  0.0000000E+00;3;  0.0000000E+00;  0.0000000E+00;  0.0000000E+00;0;  0.0000000E+00;  1.0000000E+04;  0.0000000E+00;  0.0000000E+00;  1.0000000E+04;  0.0000000E+00;  1.0000000E+04;  0.0000000E+00;  0.0000000E+00;  0.0000000E+00;  0.0000000E+00;
  1.0800000E+00;  9.9999998E-03;  3.0000001E-01;2733;  0.0000000E+00;  0.0000000E+00;  0.0000000E+00;  1.0000000E+03;  4.0000001E-01;  0.0000000E+00;3;  0.0000000E+00;  0.0000000E+00;  0.0000000E+00;0;  0.0000000E+00;  1.0000000E+04;  0.0000000E+00;  0.0000000E+00;  1.0000000E+04;  0.0000000E+00;  1.0000000E+04;  0.0000000E+00;  0.0000000E+00;  0.0000000E+00;  0.0000000E+00;
  1.1000000E+00;  9.9999998E-03;  1.6000000E-01;2756;  0.0000000E+00;  0.0000000E+00;  0.0000000E+00;  1.0000000E+03;  4.0000001E-01;  0.0000000E+00;3;  0.0000000E+00;  0.0000000E+00;  0.0000000E+00;0;  0.0000000E+00;  1.0000000E+04;  0.0000000E+00;  0.0000000E+00;  1.0000000E+04;  0.0000000E+00;  1.0000000E+04;  0.0000000E+00;  0.0000000E+00;  0.0000000E+00;  0.0000000E+00;
  1.1000000E+00;  9.9999998E-03;  1.8000001E-01;2757;  0.0000000E+00;  0.0000000E+00;  0.0000000E+00;  1.0000000E+03;  4.0000001E-01;  0.0000000E+00;3;  0.0000000E+00;  0.0000000E+00;  0.0000000E+00;0;  0.0000000E+00;  1.0000000E+04;  0.0000000E+00;  0.0000000E+00;  1.0000000E+04;  0.0000000E+00;  1.0000000E+04;  0.0000000E+00;  0.0000000E+00;  0.0000000E+00;  0.0000000E+00;
  1.1000000E+00;  9.9999998E-03;  2.0000000E-01;2758;  0.0000000E+00;  0.0000000E+00;  0.0000000E+00;  1.0000000E+03;  4.0000001E-01;  0.0000000E+00;3;  0.0000000E+00;  0.0000000E+00;  0.0000000E+00;0;  0.0000000E+00;  1.0000000E+04;  0.0000000E+00;  0.0000000E+00;  1.0000000E+04;  0.0000000E+00;  1.0000000E+04;  0.0000000E+00;  0.0000000E+00;  0.0000000E+00;  0.0000000E+00;
  1.1000000E+00;  9.9999998E-03;  2.2000000E-01;2759;  0.0000000E+00;  0.0000000E+00;  0.0000000E+00;  1.0000000E+03;  4.0000001E-01;  0.0000000E+00;3;  0.0000000E+00;  0.0000000E+00;  0.0000000E+00;0;  0.0000000E+00;  1.0000000E+04;  0.0000000E+00;  0.0000000E+00;  1.0000000E+04;  0.0000000E+00;  1.0000000E+04;  0.0000000E+00;  0.0000000E+00;  0.0000000E+00;  0.0000000E+00;
  1.1000000E+00;  9.9999998E-03;  2.3999999E-01;2760;  0.0000000E+00;  0.0000000E+00;  0.0000000E+00;  1.0000000E+03;  4.0000001E-01;  0.0000000E+00;3;  0.0000000E+00;  0.0000000E+00;  0.0000000E+00;0;  0.0000000E+00;  1.0000000E+04;  0.0000000E+00;  0.0000000E+00;  1.0000000E+04;  0.0000000E+00;  1.0000000E+04;  0.0000000E+00;  0.0000000E+00;  0.0000000E+00;  0.0000000E+00;
  1.1000000E+00;  9.9999998E-03;  2.5999999E-01;2761;  0.0000000E+00;  0.0000000E+00;  0.0000000E+00;  1.0000000E+03;  4.0000001E-01;  0.0000000E+00;3;  0.0000000E+00;  0.0000000E+00;  0.0000000E+00;0;  0.0000000E+00;  1.0000000E+04;  0.0000000E+00;  0.0000000E+00;  1.0000000E+04;  0.0000000E+00;  1.0000000E+04;  0.0000000E+00;  0.0000000E+00;  0.0000000E+00;  0.0000000E+00;
  1.1000000E+00;  9.9999998E-03;  2.8000000E-01;2762;  0.0000000E+00;  0.0000000E+00;  0.0000000E+00;  1.0000000E+03;  4.0000001E-01;  0.0000000E+00;3;  0.0000000E+00;  0.0000000E+00;  0.0000000E+00;0;  0.0000000E+00;  1.0000000E+04;  0.0000000E+00;  0.0000000E+00;  1.0000000E+04;  0.0000000E+00;  1.0000000E+04;  0.0000000E+00;  0.0000000E+00;  0.0000000E+00;  0.0000000E+00;
  1.1200000E+00;  9.9999998E-03;  1.6000000E-01;2785;  0.0000000E+00;  0.0000000E+00;  0.0000000E+00;  1.0000000E+03;  4.0000001E-01;  0.0000000E+00;3;  0.0000000E+00;  0.0000000E+00;  0.0000000E+00;0;  0.0000000E+00;  1.0000000E+04;  0.0000000E+00;  0.0000000E+00;  1.0000000E+04;  0.0000000E+00;  1.0000000E+04;  0.0000000E+00;  0.0000000E+00;  0.0000000E+00;  0.0000000E+00;
  1.1200000E+00;  9.9999998E-03;  1.8000001E-01;2786;  0.0000000E+00;  0.0000000E+00;  0.0000000E+00;  1.0000000E+03;  4.0000001E-01;  0.0000000E+00;3;  0.0000000E+00;  0.0000000E+00;  0.0000000E+00;0;  0.0000000E+00;  1.0000000E+04;  0.0000000E+00;  0.0000000E+00;  1.0000000E+04;  0.0000000E+00;  1.0000000E+04;  0.0000000E+00;  0.0000000E+00;  0.0000000E+00;  0.0000000E+00;
  1.1200000E+00;  9.9999998E-03;  2.0000000E-01;2787;  0.0000000E+00;  0.0000000E+00;  0.0000000E+00;  1.0000000E+03;  4.0000001E-01;  0.0000000E+00;3;  0.0000000E+00;  0.0000000E+00;  0.0000000E+00;0;  0.0000000E+00;  1.0000000E+04;  0.0000000E+00;  0.0000000E+00;  1.0000000E+04;  0.0000000E+00;  1.0000000E+04;  0.0000000E+00;  0.0000000E+00;  0.0000000E+00;  0.0000000E+00;
  1.1200000E+00;  9.9999998E-03;  2.2000000E-01;2788;  0.0000000E+00;  0.0000000E+00;  0.0000000E+00;  1.0000000E+03;  4.0000001E-01;  0.0000000E+00;3;  0.0000000E+00;  0.0000000E+00;  0.0000000E+00;0;  0.0000000E+00;  1.0000000E+04;  0.0000000E+00;  0.0000000E+00;  1.0000000E+04;  0.0000000E+00;  1.0000000E+04;  0.0000000E+00;  0.0000000E+00;  0.0000000E+00;  0.0000000E+00;
  1.1200000E+00;  9.9999998E-03;  2.3999999E-01;2789;  0.0000000E+00;  0.0000000E+00;  0.0000000E+00;  1.0000000E+03;  4.0000001E-01;  0.0000000E+00;3;  0.0000000E+00;  0.0000000E+00;  0.0000000E+00;0;  0.0000000E+00;  1.0000000E+04;  0.0000000E+00;  0.0000000E+00;  1.0000000E+04;  0.0000000E+00;  1.0000000E+04;  0.0000000E+00;  0.0000000E+00;  0.0000000E+00;  0.0000000E+00;
  1.1200000E+00;  9.9999998E-03;  2.5999999E-01;2790;  0.0000000E+00;  0.0000000E+00;  0.0000000E+00;  1.0000000E+03;  4.0000001E-01;  0.0000000E+00;3;  0.0000000E+00;  0.0000000E+00;  0.0000000E+00;0;  0.0000000E+00;  1.0000000E+04;  0.0000000E+00;  0.0000000E+00;  1.0000000E+04;  0.0000000E+00;  1.0000000E+04;  0.0000000E+00;  0.0000000E+00;  0.0000000E+00;  0.0000000E+00;
  1.1200000E+00;  9.9999998E-03;  2.8000000E-01;2791;  0.0000000E+00;  0.0000000E+00;  0.0000000E+00;  1.0000000E+03;  4.0000001E-01;  0.0000000E+00;3;  0.0000000E+00;  0.0000000E+00;  0.0000000E+00;0;  0.0000000E+00;  1.0000000E+04;  0.0000000E+00;  0.0000000E+00;  1.0000000E+04;  0.0000000E+00;  1.0000000E+04;  0.0000000E+00;  0.0000000E+00;  0.0000000E+00;  0.0000000E+00;
  1.1400000E+00;  9.9999998E-03;  1.6000000E-01;2813;  0.0000000E+00;  0.0000000E+00;  0.0000000E+00;  1.0000000E+03;  4.0000001E-01;  0.0000000E+00;3;  0.0000000E+00;  0.0000000E+00;  0.0000000E+00;0;  0.0000000E+00;  1.0000000E+04;  0.0000000E+00;  0.0000000E+00;  1.0000000E+04;  0.0000000E+00;  1.0000000E+04;  0.0000000E+00;  0.0000000E+00;  0.0000000E+00;  0.0000000E+00;
  1.1400000E+00;  9.9999998E-03;  1.8000001E-01;2814;  0.0000000E+00;  0.0000000E+00;  0.0000000E+00;  1.0000000E+03;  4.0000001E-01;  0.0000000E+00;3;  0.0000000E+00;  0.0000000E+00;  0.0000000E+00;0;  0.0000000E+00;  1.0000000E+04;  0.0000000E+00;  0.0000000E+00;  1.0000000E+04;  0.0000000E+00;  1.0000000E+04;  0.0000000E+00;  0.0000000E+00;  0.0000000E+00;  0.0000000E+00;
  1.1400000E+00;  9.9999998E-03;  2.0000000E-01;2815;  0.0000000E+00;  0.0000000E+00;  0.0000000E+00;  1.0000000E+03;  4.0000001E-01;  0.0000000E+00;3;  0.0000000E+00;  0.0000000E+00;  0.0000000E+00;0;  0.0000000E+00;  1.0000000E+04;  0.0000000E+00;  0.0000000E+00;  1.0000000E+04;  0.0000000E+00;  1.0000000E+04;  0.0000000E+00;  0.0000000E+00;  0.0000000E+00;  0.0000000E+00;
  1.1400000E+00;  9.9999998E-03;  2.2000000E-01;2816;  0.0000000E+00;  0.0000000E+00;  0.0000000E+00;  1.0000000E+03;  4.0000001E-01;  0.0000000E+00;3;  0.0000000E+00;  0.0000000E+00;  0.0000000E+00;0;  0.0000000E+00;  1.0000000E+04;  0.0000000E+00;  0.0000000E+00;  1.0000000E+04;  0.0000000E+00;  1.0000000E+04;  0.0000000E+00;  0.0000000E+00;  0.0000000E+00;  0.0000000E+00;
  1.1400000E+00;  9.9999998E-03;  2.3999999E-01;2817;  0.0000000E+00;  0.0000000E+00;  0.0000000E+00;  1.0000000E+03;  4.0000001E-01;  0.0000000E+00;3;  0.0000000E+00;  0.0000000E+00;  0.0000000E+00;0;  0.0000000E+00;  1.0000000E+04;  0.0000000E+00;  0.0000000E+00;  1.0000000E+04;  0.0000000E+00;  1.0000000E+04;  0.0000000E+00;  0.0000000E+00;  0.0000000E+00;  0.0000000E+00;
  1.1400000E+00;  9.9999998E-03;  2.5999999E-01;2818;  0.0000000E+00;  0.0000000E+00;  0.0000000E+00;  1.0000000E+03;  4.0000001E-01;  0.0000000E+00;3;  0.0000000E+00;  0.0000000E+00;  0.0000000E+00;0;  0.0000000E+00;  1.0000000E+04;  0.0000000E+00;  0.0000000E+00;  1.0000000E+04;  0.0000000E+00;  1.0000000E+04;  0.0000000E+00;  0.0000000E+00;  0.0000000E+00;  0.0000000E+00;
  1.1600000E+00;  9.9999998E-03;  1.6000000E-01;2840;  0.0000000E+00;  0.0000000E+00;  0.0000000E+00;  1.0000000E+03;  4.0000001E-01;  0.0000000E+00;3;  0.0000000E+00;  0.0000000E+00;  0.0000000E+00;0;  0.0000000E+00;  1.0000000E+04;  0.0000000E+00;  0.0000000E+00;  1.0000000E+04;  0.0000000E+00;  1.0000000E+04;  0.0000000E+00;  0.0000000E+00;  0.0000000E+00;  0.0000000E+00;
  1.1600000E+00;  9.9999998E-03;  1.8000001E-01;2841;  0.0000000E+00;  0.0000000E+00;  0.0000000E+00;  1.0000000E+03;  4.0000001E-01;  0.0000000E+00;3;  0.0000000E+00;  0.0000000E+00;  0.0000000E+00;0;  0.0000000E+00;  1.0000000E+04;  0.0000000E+00;  0.0000000E+00;  1.0000000E+04;  0.0000000E+00;  1.0000000E+04;  0.0000000E+00;  0.0000000E+00;  0.0000000E+00;  0.0000000E+00;
  1.1600000E+00;  9.9999998E-03;  2.0000000E-01;2842;  0.0000000E+00;  0.0000000E+00;  0.0000000E+00;  1.0000000E+03;  4.0000001E-01;  0.0000000E+00;3;  0.0000000E+00;  0.0000000E+00;  0.0000000E+00;0;  0.0000000E+00;  1.0000000E+04;  0.0000000E+00;  0.0000000E+00;  1.0000000E+04;  0.0000000E+00;  1.0000000E+04;  0.0000000E+00;  0.0000000E+00;  0.0000000E+00;  0.0000000E+00;
  1.1600000E+00;  9.9999998E-03;  2.2000000E-01;2843;  0.0000000E+00;  0.0000000E+00;  0.0000000E+00;  1.0000000E+03;  4.0000001E-01;  0.0000000E+00;3;  0.0000000E+00;  0.0000000E+00;  0.0000000E+00;0;  0.0000000E+00;  1.0000000E+04;  0.0000000E+00;  0.0000000E+00;  1.0000000E+04;  0.0000000E+00;  1.0000000E+04;  0.0000000E+00;  0.0000000E+00;  0.0000000E+00;  0.0000000E+00;
  1.1600000E+00;  9.9999998E-03;  2.3999999E-01;2844;  0.0000000E+00;  0.0000000E+00;  0.0000000E+00;  1.0000000E+03;  4.0000001E-01;  0.0000000E+00;3;  0.0000000E+00;  0.0000000E+00;  0.0000000E+00;0;  0.0000000E+00;  1.0000000E+04;  0.0000000E+00;  0.0000000E+00;  1.0000000E+04;  0.0000000E+00;  1.0000000E+04;  0.0000000E+00;  0.0000000E+00;  0.0000000E+00;  0.0000000E+00;
  1.1600000E+00;  9.9999998E-03;  2.5999999E-01;2845;  0.0000000E+00;  0.0000000E+00;  0.0000000E+00;  1.0000000E+03;  4.0000001E-01;  0.0000000E+00;3;  0.0000000E+00;  0.0000000E+00;  0.0000000E+00;0;  0.0000000E+00;  1.0000000E+04;  0.0000000E+00;  0.0000000E+00;  1.0000000E+04;  0.0000000E+00;  1.0000000E+04;  0.0000000E+00;  0.0000000E+00;  0.0000000E+00;  0.0000000E+00;
  1.1799999E+00;  9.9999998E-03;  1.6000000E-01;2866;  0.0000000E+00;  0.0000000E+00;  0.0000000E+00;  1.0000000E+03;  4.0000001E-01;  0.0000000E+00;3;  0.0000000E+00;  0.0000000E+00;  0.0000000E+00;0;  0.0000000E+00;  1.0000000E+04;  0.0000000E+00;  0.0000000E+00;  1.0000000E+04;  0.0000000E+00;  1.0000000E+04;  0.0000000E+00;  0.0000000E+00;  0.0000000E+00;  0.0000000E+00;
  1.1799999E+00;  9.9999998E-03;  1.8000001E-01;2867;  0.0000000E+00;  0.0000000E+00;  0.0000000E+00;  1.0000000E+03;  4.0000001E-01;  0.0000000E+00;3;  0.0000000E+00;  0.0000000E+00;  0.0000000E+00;0;  0.0000000E+00;  1.0000000E+04;  0.0000000E+00;  0.0000000E+00;  1.0000000E+04;  0.0000000E+00;  1.0000000E+04;  0.0000000E+00;  0.0000000E+00;  0.0000000E+00;  0.0000000E+00;
  1.1799999E+00;  9.9999998E-03;  2.0000000E-01;2868;  0.0000000E+00;  0.0000000E+00;  0.0000000E+00;  1.0000000E+03;  4.0000001E-01;  0.0000000E+00;3;  0.0000000E+00;  0.0000000E+00;  0.0000000E+00;0;  0.0000000E+00;  1.0000000E+04;  0.0000000E+00;  0.0000000E+00;  1.0000000E+04;  0.0000000E+00;  1.0000000E+04;  0.0000000E+00;  0.0000000E+00;  0.0000000E+00;  0.0000000E+00;
  1.1799999E+00;  9.9999998E-03;  2.2000000E-01;2869;  0.0000000E+00;  0.0000000E+00;  0.0000000E+00;  1.0000000E+03;  4.0000001E-01;  0.0000000E+00;3;  0.0000000E+00;  0.0000000E+00;  0.0000000E+00;0;  0.0000000E+00;  1.0000000E+04;  0.0000000E+00;  0.0000000E+00;  1.0000000E+04;  0.0000000E+00;  1.0000000E+04;  0.0000000E+00;  0.0000000E+00;  0.0000000E+00;  0.0000000E+00;
  1.1799999E+00;  9.9999998E-03;  2.3999999E-01;2870;  0.0000000E+00;  0.0000000E+00;  0.0000000E+00;  1.0000000E+03;  4.0000001E-01;  0.0000000E+00;3;  0.0000000E+00;  0.0000000E+00;  0.0000000E+00;0;  0.0000000E+00;  1.0000000E+04;  0.0000000E+00;  0.0000000E+00;  1.0000000E+04;  0.0000000E+00;  1.0000000E+04;  0.0000000E+00;  0.0000000E+00;  0.0000000E+00;  0.0000000E+00;
  1.2000000E+00;  9.9999998E-03;  1.6000000E-01;2890;  0.0000000E+00;  0.0000000E+00;  0.0000000E+00;  1.0000000E+03;  4.0000001E-01;  0.0000000E+00;3;  0.0000000E+00;  0.0000000E+00;  0.0000000E+00;0;  0.0000000E+00;  1.0000000E+04;  0.0000000E+00;  0.0000000E+00;  1.0000000E+04;  0.0000000E+00;  1.0000000E+04;  0.0000000E+00;  0.0000000E+00;  0.0000000E+00;  0.0000000E+00;
  1.2000000E+00;  9.9999998E-03;  1.8000001E-01;2891;  0.0000000E+00;  0.0000000E+00;  0.0000000E+00;  1.0000000E+03;  4.0000001E-01;  0.0000000E+00;3;  0.0000000E+00;  0.0000000E+00;  0.0000000E+00;0;  0.0000000E+00;  1.0000000E+04;  0.0000000E+00;  0.0000000E+00;  1.0000000E+04;  0.0000000E+00;  1.0000000E+04;  0.0000000E+00;  0.0000000E+00;  0.0000000E+00;  0.0000000E+00;
  1.2000000E+00;  9.9999998E-03;  2.0000000E-01;2892;  0.0000000E+00;  0.0000000E+00;  0.0000000E+00;  1.0000000E+03;  4.0000001E-01;  0.0000000E+00;3;  0.0000000E+00;  0.0000000E+00;  0.0000000E+00;0;  0.0000000E+00;  1.0000000E+04;  0.0000000E+00;  0.0000000E+00;  1.0000000E+04;  0.0000000E+00;  1.0000000E+04;  0.0000000E+00;  0.0000000E+00;  0.0000000E+00;  0.0000000E+00;
  1.2000000E+00;  9.9999998E-03;  2.2000000E-01;2893;  0.0000000E+00;  0.0000000E+00;  0.0000000E+00;  1.0000000E+03;  4.0000001E-01;  0.0000000E+00;3;  0.0000000E+00;  0.0000000E+00;  0.0000000E+00;0;  0.0000000E+00;  1.0000000E+04;  0.0000000E+00;  0.0000000E+00;  1.0000000E+04;  0.0000000E+00;  1.0000000E+04;  0.0000000E+00;  0.0000000E+00;  0.0000000E+00;  0.0000000E+00;
  1.2200000E+00;  9.9999998E-03;  1.6000000E-01;2913;  0.0000000E+00;  0.0000000E+00;  0.0000000E+00;  1.0000000E+03;  4.0000001E-01;  0.0000000E+00;3;  0.0000000E+00;  0.0000000E+00;  0.0000000E+00;0;  0.0000000E+00;  1.0000000E+04;  0.0000000E+00;  0.0000000E+00;  1.0000000E+04;  0.0000000E+00;  1.0000000E+04;  0.0000000E+00;  0.0000000E+00;  0.0000000E+00;  0.0000000E+00;
  1.2200000E+00;  9.9999998E-03;  1.8000001E-01;2914;  0.0000000E+00;  0.0000000E+00;  0.0000000E+00;  1.0000000E+03;  4.0000001E-01;  0.0000000E+00;3;  0.0000000E+00;  0.0000000E+00;  0.0000000E+00;0;  0.0000000E+00;  1.0000000E+04;  0.0000000E+00;  0.0000000E+00;  1.0000000E+04;  0.0000000E+00;  1.0000000E+04;  0.0000000E+00;  0.0000000E+00;  0.0000000E+00;  0.0000000E+00;
  1.2200000E+00;  9.9999998E-03;  2.0000000E-01;2915;  0.0000000E+00;  0.0000000E+00;  0.0000000E+00;  1.0000000E+03;  4.0000001E-01;  0.0000000E+00;3;  0.0000000E+00;  0.0000000E+00;  0.0000000E+00;0;  0.0000000E+00;  1.0000000E+04;  0.0000000E+00;  0.0000000E+00;  1.0000000E+04;  0.0000000E+00;  1.0000000E+04;  0.0000000E+00;  0.0000000E+00;  0.0000000E+00;  0.0000000E+00;
  1.2200000E+00;  9.9999998E-03;  2.2000000E-01;2916;  0.0000000E+00;  0.0000000E+00;  0.0000000E+00;  1.0000000E+03;  4.0000001E-01;  0.0000000E+00;3;  0.0000000E+00;  0.0000000E+00;  0.0000000E+00;0;  0.0000000E+00;  1.0000000E+04;  0.0000000E+00;  0.0000000E+00;  1.0000000E+04;  0.0000000E+00;  1.0000000E+04;  0.0000000E+00;  0.0000000E+00;  0.0000000E+00;  0.0000000E+00;
  1.2400000E+00;  9.9999998E-03;  1.6000000E-01;2934;  0.0000000E+00;  0.0000000E+00;  0.0000000E+00;  1.0000000E+03;  4.0000001E-01;  0.0000000E+00;3;  0.0000000E+00;  0.0000000E+00;  0.0000000E+00;0;  0.0000000E+00;  1.0000000E+04;  0.0000000E+00;  0.0000000E+00;  1.0000000E+04;  0.0000000E+00;  1.0000000E+04;  0.0000000E+00;  0.0000000E+00;  0.0000000E+00;  0.0000000E+00;
  1.2400000E+00;  9.9999998E-03;  1.8000001E-01;2935;  0.0000000E+00;  0.0000000E+00;  0.0000000E+00;  1.0000000E+03;  4.0000001E-01;  0.0000000E+00;3;  0.0000000E+00;  0.0000000E+00;  0.0000000E+00;0;  0.0000000E+00;  1.0000000E+04;  0.0000000E+00;  0.0000000E+00;  1.0000000E+04;  0.0000000E+00;  1.0000000E+04;  0.0000000E+00;  0.0000000E+00;  0.0000000E+00;  0.0000000E+00;
  1.2600000E+00;  9.9999998E-03;  1.6000000E-01;2952;  0.0000000E+00;  0.0000000E+00;  0.0000000E+00;  1.0000000E+03;  4.0000001E-01;  0.0000000E+00;3;  0.0000000E+00;  0.0000000E+00;  0.0000000E+00;0;  0.0000000E+00;  1.0000000E+04;  0.0000000E+00;  0.0000000E+00;  1.0000000E+04;  0.0000000E+00;  1.0000000E+04;  0.0000000E+00;  0.0000000E+00;  0.0000000E+00;  0.0000000E+00;
