TimeStep;Np;Nbound;Nfixed;Nmoving;Nfloat;Nfluid
0.00620026;2975;1031;1031;0;0;1944

Pos.x;Pos.y;Pos.z;Idp;Vel.x;Vel.y;Vel.z;Rhop;Mass;Press;Type;Acec.x;Acec.y;Acec.z;CellOffSpring;GradVel;Qfxx;Qfxy;Qfxz;Qfyy;Qfyz;Qfzz;StrainDot.x;StrainDot.y;StrainDot.z;VonMises3D;
 -2.2000000E-01;  9.9999998E-03; -3.8000000E-01;0;  0.0000000E+00;  0.0000000E+00;  0.0000000E+00;  1.0000000E+03;  4.0000001E-01;  0.0000000E+00;0;  0.0000000E+00;  0.0000000E+00;  0.0000000E+00;0;  0.0000000E+00;  1.0000000E+04;  0.0000000E+00;  0.0000000E+00;  1.0000000E+04;  0.0000000E+00;  1.0000000E+04;  0.0000000E+00;  0.0000000E+00;  0.0000000E+00;  0.0000000E+00;
 -2.2000000E-01;  9.9999998E-03; -3.6000001E-01;1;  0.0000000E+00;  0.0000000E+00;  0.0000000E+00;  1.0000000E+03;  4.0000001E-01;  0.0000000E+00;0;  0.0000000E+00;  0.0000000E+00;  0.0000000E+00;0;  0.0000000E+00;  1.0000000E+04;  0.0000000E+00;  0.0000000E+00;  1.0000000E+04;  0.0000000E+00;  1.0000000E+04;  0.0000000E+00;  0.0000000E+00;  0.0000000E+00;  0.0000000E+00;
 -2.0000000E-01;  9.9999998E-03; -4.0000001E-01;39;  0.0000000E+00;  0.0000000E+00;  0.0000000E+00;  1.0000000E+03;  4.0000001E-01;  0.0000000E+00;0;  0.0000000E+00;  0.0000000E+00;  0.0000000E+00;0;  0.0000000E+00;  1.0000000E+04;  0.0000000E+00;  0.0000000E+00;  1.0000000E+04;  0.0000000E+00;  1.0000000E+04;  0.0000000E+00;  0.0000000E+00;  0.0000000E+00;  0.0000000E+00;
 -2.0000000E-01;  9.9999998E-03; -3.8000000E-01;40;  0.0000000E+00;  0.0000000E+00;  0.0000000E+00;  1.0000000E+03;  4.0000001E-01;  0.0000000E+00;0;  0.0000000E+00;  0.0000000E+00;  0.0000000E+00;0;  0.0000000E+00;  1.0000000E+04;  0.0000000E+00;  0.0000000E+00;  1.0000000E+04;  0.0000000E+00;  1.0000000E+04;  0.0000000E+00;  0.0000000E+00;  0.0000000E+00;  0.0000000E+00;
 -2.0000000E-01;  9.9999998E-03; -3.6000001E-01;41;  0.0000000E+00;  0.0000000E+00;  0.0000000E+00;  1.0000000E+03;  4.0000001E-01;  0.0000000E+00;0;  0.0000000E+00;  0.0000000E+00;  0.0000000E+00;0;  0.0000000E+00;  1.0000000E+04;  0.0000000E+00;  0.0000000E+00;  1.0000000E+04;  0.0000000E+00;  1.0000000E+04;  0.0000000E+00;  0.0000000E+00;  0.0000000E+00;  0.0000000E+00;
 -1.8000001E-01;  9.9999998E-03; -4.0000001E-01;80;  0.0000000E+00;  0.0000000E+00;  0.0000000E+00;  1.0000000E+03;  4.0000001E-01;  0.0000000E+00;0;  0.0000000E+00;  0.0000000E+00;  0.0000000E+00;0;  0.0000000E+00;  1.0000000E+04;  0.0000000E+00;  0.0000000E+00;  1.0000000E+04;  0.0000000E+00;  1.0000000E+04;  0.0000000E+00;  0.0000000E+00;  0.0000000E+00;  0.0000000E+00;
 -1.8000001E-01;  9.9999998E-03; -3.8000000E-01;81;  0.0000000E+00;  0.0000000E+00;  0.0000000E+00;  1.0000000E+03;  4.0000001E-01;  0.0000000E+00;0;  0.0000000E+00;  0.0000000E+00;  0.0000000E+00;0;  0.0000000E+00;  1.0000000E+04;  0.0000000E+00;  0.0000000E+00;  1.0000000E+04;  0.0000000E+00;  1.0000000E+04;  0.0000000E+00;  0.0000000E+00;  0.0000000E+00;  0.0000000E+00;
 -1.8000001E-01;  9.9999998E-03; -3.6000001E-01;82;  0.0000000E+00;  0.0000000E+00;  0.0000000E+00;  1.0000000E+03;  4.0000001E-01;  0.0000000E+00;0;  0.0000000E+00;  0.0000000E+00;  0.0000000E+00;0;  0.0000000E+00;  1.0000000E+04;  0.0000000E+00;  0.0000000E+00;  1.0000000E+04;  0.0000000E+00;  1.0000000E+04;  0.0000000E+00;  0.0000000E+00;  0.0000000E+00;  0.0000000E+00;
 -1.6000000E-01;  9.9999998E-03; -4.0000001E-01;121;  0.0000000E+00;  0.0000000E+00;  0.0000000E+00;  1.0000000E+03;  4.0000001E-01;  0.0000000E+00;0;  0.0000000E+00;  0.0000000E+00;  0.0000000E+00;0;  0.0000000E+00;  1.0000000E+04;  0.0000000E+00;  0.0000000E+00;  1.0000000E+04;  0.0000000E+00;  1.0000000E+04;  0.0000000E+00;  0.0000000E+00;  0.0000000E+00;  0.0000000E+00;
 -1.6000000E-01;  9.9999998E-03; -3.8000000E-01;122;  0.0000000E+00;  0.0000000E+00;  0.0000000E+00;  1.0000000E+03;  4.0000001E-01;  0.0000000E+00;0;  0.0000000E+00;  0.0000000E+00;  0.0000000E+00;0;  0.0000000E+00;  1.0000000E+04;  0.0000000E+00;  0.0000000E+00;  1.0000000E+04;  0.0000000E+00;  1.0000000E+04;  0.0000000E+00;  0.0000000E+00;  0.0000000E+00;  0.0000000E+00;
 -1.6000000E-01;  9.9999998E-03; -3.6000001E-01;123;  0.0000000E+00;  0.0000000E+00;  0.0000000E+00;  1.0000000E+03;  4.0000001E-01;  0.0000000E+00;0;  0.0000000E+00;  0.0000000E+00;  0.0000000E+00;0;  0.0000000E+00;  1.0000000E+04;  0.0000000E+00;  0.0000000E+00;  1.0000000E+04;  0.0000000E+00;  1.0000000E+04;  0.0000000E+00;  0.0000000E+00;  0.0000000E+00;  0.0000000E+00;
 -1.4000000E-01;  9.9999998E-03; -4.0000001E-01;162;  0.0000000E+00;  0.0000000E+00;  0.0000000E+00;  1.0000000E+03;  4.0000001E-01;  0.0000000E+00;0;  0.0000000E+00;  0.0000000E+00;  0.0000000E+00;0;  0.0000000E+00;  1.0000000E+04;  0.0000000E+00;  0.0000000E+00;  1.0000000E+04;  0.0000000E+00;  1.0000000E+04;  0.0000000E+00;  0.0000000E+00;  0.0000000E+00;  0.0000000E+00;
 -1.4000000E-01;  9.9999998E-03; -3.8000000E-01;163;  0.0000000E+00;  0.0000000E+00;  0.0000000E+00;  1.0000000E+03;  4.0000001E-01;  0.0000000E+00;0;  0.0000000E+00;  0.0000000E+00;  0.0000000E+00;0;  0.0000000E+00;  1.0000000E+04;  0.0000000E+00;  0.0000000E+00;  1.0000000E+04;  0.0000000E+00;  1.0000000E+04;  0.0000000E+00;  0.0000000E+00;  0.0000000E+00;  0.0000000E+00;
 -1.4000000E-01;  9.9999998E-03; -3.6000001E-01;164;  0.0000000E+00;  0.0000000E+00;  0.0000000E+00;  1.0000000E+03;  4.0000001E-01;  0.0000000E+00;0;  0.0000000E+00;  0.0000000E+00;  0.0000000E+00;0; -4.5431185E-07;  1.0000000E+04;  0.0000000E+00;  0.0000000E+00;  1.0000000E+04;  0.0000000E+00;  1.0000000E+04; -3.5853171E-07;  0.0000000E+00; -9.5780130E-08;  9.8026241E-04;
 -1.2000000E-01;  9.9999998E-03; -4.0000001E-01;203;  0.0000000E+00;  0.0000000E+00;  0.0000000E+00;  1.0000000E+03;  4.0000001E-01;  0.0000000E+00;0;  0.0000000E+00;  0.0000000E+00;  0.0000000E+00;0; -3.5965606E-19;  1.0000000E+04;  0.0000000E+00;  0.0000000E+00;  1.0000000E+04;  0.0000000E+00;  1.0000000E+04; -2.5332923E-19;  0.0000000E+00; -1.0632684E-19;  2.4728373E-16;
 -1.2000000E-01;  9.9999998E-03; -3.8000000E-01;204;  0.0000000E+00;  0.0000000E+00;  0.0000000E+00;  1.0000000E+03;  4.0000001E-01;  0.0000000E+00;0;  0.0000000E+00;  0.0000000E+00;  0.0000000E+00;0; -2.3931184E-06;  1.0000000E+04;  0.0000000E+00;  0.0000000E+00;  1.0000000E+04;  0.0000000E+00;  1.0000000E+04; -1.6933064E-06;  0.0000000E+00; -6.9981184E-07;  7.2433511E-03;
 -1.2000000E-01;  9.9999998E-03; -3.6000001E-01;205;  0.0000000E+00;  0.0000000E+00;  0.0000000E+00;  1.0000000E+03;  4.0000001E-01;  0.0000000E+00;0;  0.0000000E+00;  0.0000000E+00;  0.0000000E+00;0; -1.6148457E-05;  1.0000000E+04;  0.0000000E+00;  0.0000000E+00;  1.0000000E+04;  0.0000000E+00;  1.0000000E+04; -1.2200117E-05;  0.0000000E+00; -3.9483402E-06;  4.0652096E-02;
 -1.0000000E-01;  9.9999998E-03; -4.0000001E-01;244;  0.0000000E+00;  0.0000000E+00;  0.0000000E+00;  1.0000000E+03;  4.0000001E-01;  0.0000000E+00;0;  0.0000000E+00;  0.0000000E+00;  0.0000000E+00;0; -4.3885366E-06;  1.0000000E+04;  0.0000000E+00;  0.0000000E+00;  1.0000000E+04;  0.0000000E+00;  1.0000000E+04; -2.9088023E-06;  0.0000000E+00; -1.4797342E-06;  1.5425052E-02;
 -1.0000000E-01;  9.9999998E-03; -3.8000000E-01;245;  0.0000000E+00;  0.0000000E+00;  0.0000000E+00;  1.0000000E+03;  4.0000001E-01;  0.0000000E+00;0;  0.0000000E+00;  0.0000000E+00;  0.0000000E+00;0; -3.1904518E-05;  1.0000000E+04;  0.0000000E+00;  0.0000000E+00;  1.0000000E+04;  0.0000000E+00;  1.0000000E+04; -2.1413041E-05;  0.0000000E+00; -1.0491476E-05;  1.0928561E-01;
 -1.0000000E-01;  9.9999998E-03; -3.6000001E-01;246;  0.0000000E+00;  0.0000000E+00;  0.0000000E+00;  1.0000000E+03;  4.0000001E-01;  0.0000000E+00;0;  0.0000000E+00;  0.0000000E+00;  0.0000000E+00;0; -1.0043436E-04;  1.0000000E+04;  0.0000000E+00;  0.0000000E+00;  1.0000000E+04;  0.0000000E+00;  1.0000000E+04; -7.3026720E-05;  0.0000000E+00; -2.7407645E-05;  2.8447694E-01;
 -7.9999998E-02;  9.9999998E-03; -4.0000001E-01;285;  0.0000000E+00;  0.0000000E+00;  0.0000000E+00;  1.0000000E+03;  4.0000001E-01;  0.0000000E+00;0;  0.0000000E+00;  0.0000000E+00;  0.0000000E+00;0; -3.6940684E-05;  1.0000000E+04;  0.0000000E+00;  0.0000000E+00;  1.0000000E+04;  0.0000000E+00;  1.0000000E+04; -2.3149183E-05;  0.0000000E+00; -1.3791503E-05;  1.4465784E-01;
 -7.9999998E-02;  9.9999998E-03; -3.8000000E-01;286;  0.0000000E+00;  0.0000000E+00;  0.0000000E+00;  1.0000001E+03;  4.0000001E-01;  9.8762624E-02;0;  0.0000000E+00;  0.0000000E+00;  0.0000000E+00;0; -1.4018375E-04;  1.0000000E+04;  0.0000000E+00;  0.0000000E+00;  1.0000000E+04;  0.0000000E+00;  1.0000000E+04; -8.9986963E-05;  0.0000000E+00; -5.0196781E-05;  5.2689093E-01;
 -7.9999998E-02;  9.9999998E-03; -3.6000001E-01;287;  0.0000000E+00;  0.0000000E+00;  0.0000000E+00;  1.0000003E+03;  4.0000001E-01;  2.9628786E-01;0;  0.0000000E+00;  0.0000000E+00;  0.0000000E+00;0; -3.3678918E-04;  1.0000000E+04;  0.0000000E+00;  0.0000000E+00;  1.0000000E+04;  0.0000000E+00;  1.0000000E+04; -2.3674162E-04;  0.0000000E+00; -1.0004757E-04;  1.0466586E+00;
 -5.9999999E-02;  9.9999998E-03; -4.0000001E-01;326;  0.0000000E+00;  0.0000000E+00;  0.0000000E+00;  1.0000001E+03;  4.0000001E-01;  9.8762624E-02;0;  0.0000000E+00;  0.0000000E+00;  0.0000000E+00;0; -1.3159926E-04;  1.0000000E+04;  0.0000000E+00;  0.0000000E+00;  1.0000000E+04;  0.0000000E+00;  1.0000000E+04; -7.8329795E-05;  0.0000000E+00; -5.3269458E-05;  5.6325936E-01;
 -5.9999999E-02;  9.9999998E-03; -3.8000000E-01;327;  0.0000000E+00;  0.0000000E+00;  0.0000000E+00;  1.0000004E+03;  4.0000001E-01;  3.9505050E-01;0;  0.0000000E+00;  0.0000000E+00;  0.0000000E+00;0; -3.8437959E-04;  1.0000000E+04;  0.0000000E+00;  0.0000000E+00;  1.0000000E+04;  0.0000000E+00;  1.0000000E+04; -2.3618601E-04;  0.0000000E+00; -1.4819356E-04;  1.5693644E+00;
 -5.9999999E-02;  9.9999998E-03; -3.6000001E-01;328;  0.0000000E+00;  0.0000000E+00;  0.0000000E+00;  1.0000010E+03;  4.0000001E-01;  7.9010099E-01;0;  0.0000000E+00;  0.0000000E+00;  0.0000000E+00;0; -8.0773997E-04;  1.0000000E+04;  0.0000000E+00;  0.0000000E+00;  1.0000000E+04;  0.0000000E+00;  1.0000000E+04; -5.4884003E-04;  0.0000000E+00; -2.5889993E-04;  2.7349997E+00;
 -3.9999999E-02;  9.9999998E-03; -4.0000001E-01;367;  0.0000000E+00;  0.0000000E+00;  0.0000000E+00;  1.0000003E+03;  4.0000001E-01;  2.9628786E-01;0;  0.0000000E+00;  0.0000000E+00;  0.0000000E+00;0; -3.1114015E-04;  1.0000000E+04;  0.0000000E+00;  0.0000000E+00;  1.0000000E+04;  0.0000000E+00;  1.0000000E+04; -1.7526846E-04;  0.0000000E+00; -1.3587168E-04;  1.4510192E+00;
 -3.9999999E-02;  9.9999998E-03; -3.8000000E-01;368;  0.0000000E+00;  0.0000000E+00;  0.0000000E+00;  1.0000009E+03;  4.0000001E-01;  6.9133836E-01;0;  0.0000000E+00;  0.0000000E+00;  0.0000000E+00;0; -7.9589325E-04;  1.0000000E+04;  0.0000000E+00;  0.0000000E+00;  1.0000000E+04;  0.0000000E+00;  1.0000000E+04; -4.6641755E-04;  0.0000000E+00; -3.2947573E-04;  3.5266194E+00;
 -3.9999999E-02;  9.9999998E-03; -3.6000001E-01;369;  0.0000000E+00;  0.0000000E+00;  0.0000000E+00;  1.0000020E+03;  4.0000001E-01;  1.5802020E+00;0;  0.0000000E+00;  0.0000000E+00;  0.0000000E+00;0; -1.5503147E-03;  1.0000000E+04;  0.0000000E+00;  0.0000000E+00;  1.0000000E+04;  0.0000000E+00;  1.0000000E+04; -1.0147386E-03;  0.0000000E+00; -5.3557614E-04;  5.7231946E+00;
 -2.0000000E-02;  9.9999998E-03; -4.0000001E-01;408;  0.0000000E+00;  0.0000000E+00;  0.0000000E+00;  1.0000006E+03;  4.0000001E-01;  4.9381313E-01;0;  0.0000000E+00;  0.0000000E+00;  0.0000000E+00;0; -5.7166727E-04;  1.0000000E+04;  0.0000000E+00;  0.0000000E+00;  1.0000000E+04;  0.0000000E+00;  1.0000000E+04; -3.0314759E-04;  0.0000000E+00; -2.6851968E-04;  2.9033048E+00;
 -2.0000000E-02;  9.9999998E-03; -3.8000000E-01;409;  0.0000000E+00;  0.0000000E+00;  0.0000000E+00;  1.0000017E+03;  4.0000001E-01;  1.3826767E+00;0;  0.0000000E+00;  0.0000000E+00;  0.0000000E+00;0; -1.3595442E-03;  1.0000000E+04;  0.0000000E+00;  0.0000000E+00;  1.0000000E+04;  0.0000000E+00;  1.0000000E+04; -7.5684133E-04;  0.0000000E+00; -6.0270290E-04;  6.5360942E+00;
 -2.0000000E-02;  9.9999998E-03; -3.6000001E-01;410;  0.0000000E+00;  0.0000000E+00;  0.0000000E+00;  1.0000031E+03;  4.0000001E-01;  2.5678282E+00;0;  0.0000000E+00;  0.0000000E+00;  0.0000000E+00;0; -2.5303280E-03;  1.0000000E+04;  0.0000000E+00;  0.0000000E+00;  1.0000000E+04;  0.0000000E+00;  1.0000000E+04; -1.5902068E-03;  0.0000000E+00; -9.4012119E-04;  1.0185718E+01;
  0.0000000E+00;  9.9999998E-03; -4.0000001E-01;449;  0.0000000E+00;  0.0000000E+00;  0.0000000E+00;  1.0000011E+03;  4.0000001E-01;  8.8886362E-01;0;  0.0000000E+00;  0.0000000E+00;  0.0000000E+00;0; -8.8274654E-04;  1.0000000E+04;  0.0000000E+00;  0.0000000E+00;  1.0000000E+04;  0.0000000E+00;  1.0000000E+04; -4.3940890E-04;  0.0000000E+00; -4.4333763E-04;  4.8687029E+00;
  0.0000000E+00;  9.9999998E-03; -3.8000000E-01;450;  0.0000000E+00;  0.0000000E+00;  0.0000000E+00;  1.0000025E+03;  4.0000001E-01;  2.0740151E+00;0;  0.0000000E+00;  0.0000000E+00;  0.0000000E+00;0; -2.0163534E-03;  1.0000000E+04;  0.0000000E+00;  0.0000000E+00;  1.0000000E+04;  0.0000000E+00;  1.0000000E+04; -1.0651745E-03;  0.0000000E+00; -9.5117884E-04;  1.0484281E+01;
  0.0000000E+00;  9.9999998E-03; -3.6000001E-01;451;  0.0000000E+00;  0.0000000E+00;  0.0000000E+00;  1.0000046E+03;  4.0000001E-01;  3.7529798E+00;0;  0.0000000E+00;  0.0000000E+00;  0.0000000E+00;0; -3.6483174E-03;  1.0000000E+04;  0.0000000E+00;  0.0000000E+00;  1.0000000E+04;  0.0000000E+00;  1.0000000E+04; -2.2003148E-03;  0.0000000E+00; -1.4480025E-03;  1.5955817E+01;
  2.0000000E-02;  9.9999998E-03; -4.0000001E-01;461;  0.0000000E+00;  0.0000000E+00;  0.0000000E+00;  1.0000015E+03;  4.0000001E-01;  1.1851515E+00;0;  0.0000000E+00;  0.0000000E+00;  0.0000000E+00;0; -1.2039247E-03;  1.0000000E+04;  0.0000000E+00;  0.0000000E+00;  1.0000000E+04;  0.0000000E+00;  1.0000000E+04; -5.6464114E-04;  0.0000000E+00; -6.3928351E-04;  7.1605849E+00;
  2.0000000E-02;  9.9999998E-03; -3.8000000E-01;462;  0.0000000E+00;  0.0000000E+00;  0.0000000E+00;  1.0000034E+03;  4.0000001E-01;  2.8641162E+00;0;  0.0000000E+00;  0.0000000E+00;  0.0000000E+00;0; -2.6926037E-03;  1.0000000E+04;  0.0000000E+00;  0.0000000E+00;  1.0000000E+04;  0.0000000E+00;  1.0000000E+04; -1.3570774E-03;  0.0000000E+00; -1.3355264E-03;  1.5024758E+01;
  2.0000000E-02;  9.9999998E-03; -3.6000001E-01;463;  0.0000000E+00;  0.0000000E+00;  0.0000000E+00;  1.0000060E+03;  4.0000001E-01;  5.0368938E+00;0;  0.0000000E+00;  0.0000000E+00;  0.0000000E+00;0; -4.7868006E-03;  1.0000000E+04;  0.0000000E+00;  0.0000000E+00;  1.0000000E+04;  0.0000000E+00;  1.0000000E+04; -2.7852417E-03;  0.0000000E+00; -2.0015589E-03;  2.2525793E+01;
  3.9999999E-02;  9.9999998E-03; -4.0000001E-01;471;  0.0000000E+00;  0.0000000E+00;  0.0000000E+00;  1.0000020E+03;  4.0000001E-01;  1.5802020E+00;0;  0.0000000E+00;  0.0000000E+00;  0.0000000E+00;0; -1.5080880E-03;  1.0000000E+04;  0.0000000E+00;  0.0000000E+00;  1.0000000E+04;  0.0000000E+00;  1.0000000E+04; -6.7616190E-04;  0.0000000E+00; -8.3192607E-04;  9.5535936E+00;
  3.9999999E-02;  9.9999998E-03; -3.8000000E-01;472;  0.0000000E+00;  0.0000000E+00;  0.0000000E+00;  1.0000043E+03;  4.0000001E-01;  3.5554545E+00;0;  0.0000000E+00;  0.0000000E+00;  0.0000000E+00;0; -3.3415216E-03;  1.0000000E+04;  0.0000000E+00;  0.0000000E+00;  1.0000000E+04;  0.0000000E+00;  1.0000000E+04; -1.6305620E-03;  0.0000000E+00; -1.7109595E-03;  1.9748829E+01;
  3.9999999E-02;  9.9999998E-03; -3.6000001E-01;473;  0.0000000E+00;  0.0000000E+00;  0.0000000E+00;  1.0000077E+03;  4.0000001E-01;  6.4195704E+00;0;  0.0000000E+00;  0.0000000E+00;  0.0000000E+00;0; -5.8802231E-03;  1.0000000E+04;  0.0000000E+00;  0.0000000E+00;  1.0000000E+04;  0.0000000E+00;  1.0000000E+04; -3.3454122E-03;  0.0000000E+00; -2.5348109E-03;  2.9291227E+01;
  5.9999999E-02;  9.9999998E-03; -4.0000001E-01;481;  0.0000000E+00;  0.0000000E+00;  0.0000000E+00;  1.0000024E+03;  4.0000001E-01;  1.9752525E+00;0;  0.0000000E+00;  0.0000000E+00;  0.0000000E+00;0; -1.7983823E-03;  1.0000000E+04;  0.0000000E+00;  0.0000000E+00;  1.0000000E+04;  0.0000000E+00;  1.0000000E+04; -7.9273240E-04;  0.0000000E+00; -1.0056498E-03;  1.1909204E+01;
  5.9999999E-02;  9.9999998E-03; -3.8000000E-01;482;  0.0000000E+00;  0.0000000E+00;  0.0000000E+00;  1.0000053E+03;  4.0000001E-01;  4.4443183E+00;0;  0.0000000E+00;  0.0000000E+00;  0.0000000E+00;0; -3.9732167E-03;  1.0000000E+04;  0.0000000E+00;  0.0000000E+00;  1.0000000E+04;  0.0000000E+00;  1.0000000E+04; -1.9240133E-03;  0.0000000E+00; -2.0492033E-03;  2.4413128E+01;
  5.9999999E-02;  9.9999998E-03; -3.6000001E-01;483;  0.0000000E+00;  0.0000000E+00;  0.0000000E+00;  1.0000093E+03;  4.0000001E-01;  7.7034845E+00;0;  0.0000000E+00;  0.0000000E+00;  0.0000000E+00;0; -6.9595147E-03;  1.0000000E+04;  0.0000000E+00;  0.0000000E+00;  1.0000000E+04;  0.0000000E+00;  1.0000000E+04; -3.9514485E-03;  0.0000000E+00; -3.0080664E-03;  3.5911953E+01;
  7.9999998E-02;  9.9999998E-03; -4.0000001E-01;491;  0.0000000E+00;  0.0000000E+00;  0.0000000E+00;  1.0000029E+03;  4.0000001E-01;  2.3703029E+00;0;  0.0000000E+00;  0.0000000E+00;  0.0000000E+00;0; -2.1130622E-03;  1.0000000E+04;  0.0000000E+00;  0.0000000E+00;  1.0000000E+04;  0.0000000E+00;  1.0000000E+04; -9.5295190E-04;  0.0000000E+00; -1.1601102E-03;  1.4258532E+01;
  7.9999998E-02;  9.9999998E-03; -3.8000000E-01;492;  0.0000000E+00;  0.0000000E+00;  0.0000000E+00;  1.0000064E+03;  4.0000001E-01;  5.3331819E+00;0;  0.0000000E+00;  0.0000000E+00;  0.0000000E+00;0; -4.6692388E-03;  1.0000000E+04;  0.0000000E+00;  0.0000000E+00;  1.0000000E+04;  0.0000000E+00;  1.0000000E+04; -2.3192700E-03;  0.0000000E+00; -2.3499690E-03;  2.9072750E+01;
  7.9999998E-02;  9.9999998E-03; -3.6000001E-01;493;  0.0000000E+00;  0.0000000E+00;  0.0000000E+00;  1.0000113E+03;  4.0000001E-01;  9.3824492E+00;0;  0.0000000E+00;  0.0000000E+00;  0.0000000E+00;0; -8.1780218E-03;  1.0000000E+04;  0.0000000E+00;  0.0000000E+00;  1.0000000E+04;  0.0000000E+00;  1.0000000E+04; -4.7529922E-03;  0.0000000E+00; -3.4250291E-03;  4.2581310E+01;
  1.0000000E-01;  9.9999998E-03; -4.0000001E-01;501;  0.0000000E+00;  0.0000000E+00;  0.0000000E+00;  1.0000037E+03;  4.0000001E-01;  3.0616415E+00;0;  0.0000000E+00;  0.0000000E+00;  0.0000000E+00;0; -2.5270074E-03;  1.0000000E+04;  0.0000000E+00;  0.0000000E+00;  1.0000000E+04;  0.0000000E+00;  1.0000000E+04; -1.2163634E-03;  0.0000000E+00; -1.3106441E-03;  1.7535994E+01;
  1.0000000E-01;  9.9999998E-03; -3.8000000E-01;502;  0.0000000E+00;  0.0000000E+00;  0.0000000E+00;  1.0000079E+03;  4.0000001E-01;  6.6170959E+00;0;  0.0000000E+00;  0.0000000E+00;  0.0000000E+00;0; -5.5880998E-03;  1.0000000E+04;  0.0000000E+00;  0.0000000E+00;  1.0000000E+04;  0.0000000E+00;  1.0000000E+04; -2.9444401E-03;  0.0000000E+00; -2.6436597E-03;  3.4150887E+01;
  1.0000000E-01;  9.9999998E-03; -3.6000001E-01;503;  0.0000000E+00;  0.0000000E+00;  0.0000000E+00;  1.0000140E+03;  4.0000001E-01;  1.1555227E+01;0;  0.0000000E+00;  0.0000000E+00;  0.0000000E+00;0; -9.8170079E-03;  1.0000000E+04;  0.0000000E+00;  0.0000000E+00;  1.0000000E+04;  0.0000000E+00;  1.0000000E+04; -5.9815194E-03;  0.0000000E+00; -3.8354888E-03;  5.0518402E+01;
  1.2000000E-01;  9.9999998E-03; -4.0000001E-01;511;  0.0000000E+00;  0.0000000E+00;  0.0000000E+00;  1.0000047E+03;  4.0000001E-01;  3.8517423E+00;0;  0.0000000E+00;  0.0000000E+00;  0.0000000E+00;0; -3.1615116E-03;  1.0000000E+04;  0.0000000E+00;  0.0000000E+00;  1.0000000E+04;  0.0000000E+00;  1.0000000E+04; -1.6690610E-03;  0.0000000E+00; -1.4924506E-03;  3.1660688E+01;
  1.2000000E-01;  9.9999998E-03; -3.8000000E-01;512;  0.0000000E+00;  0.0000000E+00;  0.0000000E+00;  1.0000103E+03;  4.0000001E-01;  8.4935856E+00;0;  0.0000000E+00;  0.0000000E+00;  0.0000000E+00;0; -6.9816853E-03;  1.0000000E+04;  0.0000000E+00;  0.0000000E+00;  1.0000000E+04;  0.0000000E+00;  1.0000000E+04; -3.9784289E-03;  0.0000000E+00; -3.0032564E-03;  4.3556091E+01;
  1.2000000E-01;  9.9999998E-03; -3.6000001E-01;513;  0.0000000E+00;  0.0000000E+00;  0.0000000E+00;  1.0000179E+03;  4.0000001E-01;  1.4913157E+01;0;  0.0000000E+00;  0.0000000E+00;  0.0000000E+00;0; -1.2300517E-02;  1.0000000E+04;  0.0000000E+00;  0.0000000E+00;  1.0000000E+04;  0.0000000E+00;  1.0000000E+04; -7.9503786E-03;  0.0000000E+00; -4.3501393E-03;  6.3052464E+01;
  1.4000000E-01;  9.9999998E-03; -4.0000001E-01;521;  0.0000000E+00;  0.0000000E+00;  0.0000000E+00;  1.0000063E+03;  4.0000001E-01;  5.2344189E+00;0;  0.0000000E+00;  0.0000000E+00;  0.0000000E+00;0; -4.2310115E-03;  1.0000000E+04;  0.0000000E+00;  0.0000000E+00;  1.0000000E+04;  0.0000000E+00;  1.0000000E+04; -2.4409920E-03;  0.0000000E+00; -1.7900197E-03;  9.0334808E+01;
  1.4000000E-01;  9.9999998E-03; -3.8000000E-01;522;  0.0000000E+00;  0.0000000E+00;  0.0000000E+00;  1.0000140E+03;  4.0000001E-01;  1.1653990E+01;0;  0.0000000E+00;  0.0000000E+00;  0.0000000E+00;0; -9.2467330E-03;  1.0000000E+04;  0.0000000E+00;  0.0000000E+00;  1.0000000E+04;  0.0000000E+00;  1.0000000E+04; -5.6673139E-03;  0.0000000E+00; -3.5794189E-03;  8.3941048E+01;
  1.4000000E-01;  9.9999998E-03; -3.6000001E-01;523;  0.0000000E+00;  0.0000000E+00;  0.0000000E+00;  1.0000245E+03;  4.0000001E-01;  2.0345100E+01;0;  0.0000000E+00;  0.0000000E+00;  0.0000000E+00;0; -1.6233344E-02;  1.0000000E+04;  0.0000000E+00;  0.0000000E+00;  1.0000000E+04;  0.0000000E+00;  1.0000000E+04; -1.1060813E-02;  0.0000000E+00; -5.1725297E-03;  8.5727539E+01;
  1.6000000E-01;  9.9999998E-03; -4.0000001E-01;531;  0.0000000E+00;  0.0000000E+00;  0.0000000E+00;  1.0000094E+03;  4.0000001E-01;  7.8022475E+00;0;  0.0000000E+00;  0.0000000E+00;  0.0000000E+00;0; -6.1047897E-03;  1.0000000E+04;  0.0000000E+00;  0.0000000E+00;  1.0000000E+04;  0.0000000E+00;  1.0000000E+04; -3.7032692E-03;  0.0000000E+00; -2.4015203E-03;  2.5776114E+02;
  1.6000000E-01;  9.9999998E-03; -3.8000000E-01;532;  0.0000000E+00;  0.0000000E+00;  0.0000000E+00;  1.0000200E+03;  4.0000001E-01;  1.6592121E+01;0;  0.0000000E+00;  0.0000000E+00;  0.0000000E+00;0; -1.2905140E-02;  1.0000000E+04;  0.0000000E+00;  0.0000000E+00;  1.0000000E+04;  0.0000000E+00;  1.0000000E+04; -8.2483599E-03;  0.0000000E+00; -4.6567805E-03;  2.1842909E+02;
  1.6000000E-01;  9.9999998E-03; -3.6000001E-01;533;  0.0000000E+00;  0.0000000E+00;  0.0000000E+00;  1.0000344E+03;  4.0000001E-01;  2.8443636E+01;0;  0.0000000E+00;  0.0000000E+00;  0.0000000E+00;0; -2.2275807E-02;  1.0000000E+04;  0.0000000E+00;  0.0000000E+00;  1.0000000E+04;  0.0000000E+00;  1.0000000E+04; -1.5631959E-02;  0.0000000E+00; -6.6438480E-03;  1.2051923E+02;
  1.8000001E-01;  9.9999998E-03; -4.0000001E-01;541;  0.0000000E+00;  0.0000000E+00;  0.0000000E+00;  1.0000146E+03;  4.0000001E-01;  1.2147802E+01;0;  0.0000000E+00;  0.0000000E+00;  0.0000000E+00;0; -9.3149012E-03;  1.0000000E+04;  0.0000000E+00;  0.0000000E+00;  1.0000000E+04;  0.0000000E+00;  1.0000000E+04; -5.5530155E-03;  0.0000000E+00; -3.7618859E-03;  6.3989484E+02;
  1.8000001E-01;  9.9999998E-03; -3.8000000E-01;542;  0.0000000E+00;  0.0000000E+00;  0.0000000E+00;  1.0000291E+03;  4.0000001E-01;  2.4098080E+01;0;  0.0000000E+00;  0.0000000E+00;  0.0000000E+00;0; -1.8363189E-02;  1.0000000E+04;  0.0000000E+00;  0.0000000E+00;  1.0000000E+04;  0.0000000E+00;  1.0000000E+04; -1.1625778E-02;  0.0000000E+00; -6.7374110E-03;  5.2189374E+02;
  1.8000001E-01;  9.9999998E-03; -3.6000001E-01;543;  0.0000000E+00;  0.0000000E+00;  0.0000000E+00;  1.0000485E+03;  4.0000001E-01;  4.0196388E+01;0;  0.0000000E+00;  0.0000000E+00;  0.0000000E+00;0; -3.0655168E-02;  1.0000000E+04;  0.0000000E+00;  0.0000000E+00;  1.0000000E+04;  0.0000000E+00;  1.0000000E+04; -2.1356909E-02;  0.0000000E+00; -9.2982594E-03;  1.5772136E+02;
  2.0000000E-01;  9.9999998E-03; -3.8000000E-01;551;  0.0000000E+00;  0.0000000E+00;  0.0000000E+00;  1.0000421E+03;  4.0000001E-01;  3.4863205E+01;0;  0.0000000E+00;  0.0000000E+00;  0.0000000E+00;0; -2.5834583E-02;  1.0000000E+04;  0.0000000E+00;  0.0000000E+00;  1.0000000E+04;  0.0000000E+00;  1.0000000E+04; -1.5230289E-02;  0.0000000E+00; -1.0604295E-02;  1.0203674E+03;
  2.0000000E-01;  9.9999998E-03; -3.6000001E-01;552;  0.0000000E+00;  0.0000000E+00;  0.0000000E+00;  1.0000665E+03;  4.0000001E-01;  5.5109543E+01;0;  0.0000000E+00;  0.0000000E+00;  0.0000000E+00;0; -4.1080154E-02;  1.0000000E+04;  0.0000000E+00;  0.0000000E+00;  1.0000000E+04;  0.0000000E+00;  1.0000000E+04; -2.7194904E-02;  0.0000000E+00; -1.3885250E-02;  2.1319179E+02;
 -2.2000000E-01;  9.9999998E-03; -3.4000000E-01;2;  0.0000000E+00;  0.0000000E+00;  0.0000000E+00;  1.0000000E+03;  4.0000001E-01;  0.0000000E+00;0;  0.0000000E+00;  0.0000000E+00;  0.0000000E+00;0;  0.0000000E+00;  1.0000000E+04;  0.0000000E+00;  0.0000000E+00;  1.0000000E+04;  0.0000000E+00;  1.0000000E+04;  0.0000000E+00;  0.0000000E+00;  0.0000000E+00;  0.0000000E+00;
 -2.2000000E-01;  9.9999998E-03; -3.1999999E-01;3;  0.0000000E+00;  0.0000000E+00;  0.0000000E+00;  1.0000000E+03;  4.0000001E-01;  0.0000000E+00;0;  0.0000000E+00;  0.0000000E+00;  0.0000000E+00;0;  0.0000000E+00;  1.0000000E+04;  0.0000000E+00;  0.0000000E+00;  1.0000000E+04;  0.0000000E+00;  1.0000000E+04;  0.0000000E+00;  0.0000000E+00;  0.0000000E+00;  0.0000000E+00;
 -2.2000000E-01;  9.9999998E-03; -3.0000001E-01;4;  0.0000000E+00;  0.0000000E+00;  0.0000000E+00;  1.0000000E+03;  4.0000001E-01;  0.0000000E+00;0;  0.0000000E+00;  0.0000000E+00;  0.0000000E+00;0;  0.0000000E+00;  1.0000000E+04;  0.0000000E+00;  0.0000000E+00;  1.0000000E+04;  0.0000000E+00;  1.0000000E+04;  0.0000000E+00;  0.0000000E+00;  0.0000000E+00;  0.0000000E+00;
 -2.2000000E-01;  9.9999998E-03; -2.8000000E-01;5;  0.0000000E+00;  0.0000000E+00;  0.0000000E+00;  1.0000000E+03;  4.0000001E-01;  0.0000000E+00;0;  0.0000000E+00;  0.0000000E+00;  0.0000000E+00;0;  0.0000000E+00;  1.0000000E+04;  0.0000000E+00;  0.0000000E+00;  1.0000000E+04;  0.0000000E+00;  1.0000000E+04;  0.0000000E+00;  0.0000000E+00;  0.0000000E+00;  0.0000000E+00;
 -2.2000000E-01;  9.9999998E-03; -2.5999999E-01;6;  0.0000000E+00;  0.0000000E+00;  0.0000000E+00;  1.0000000E+03;  4.0000001E-01;  0.0000000E+00;0;  0.0000000E+00;  0.0000000E+00;  0.0000000E+00;0;  0.0000000E+00;  1.0000000E+04;  0.0000000E+00;  0.0000000E+00;  1.0000000E+04;  0.0000000E+00;  1.0000000E+04;  0.0000000E+00;  0.0000000E+00;  0.0000000E+00;  0.0000000E+00;
 -2.2000000E-01;  9.9999998E-03; -2.3999999E-01;7;  0.0000000E+00;  0.0000000E+00;  0.0000000E+00;  1.0000000E+03;  4.0000001E-01;  0.0000000E+00;0;  0.0000000E+00;  0.0000000E+00;  0.0000000E+00;0;  0.0000000E+00;  1.0000000E+04;  0.0000000E+00;  0.0000000E+00;  1.0000000E+04;  0.0000000E+00;  1.0000000E+04;  0.0000000E+00;  0.0000000E+00;  0.0000000E+00;  0.0000000E+00;
 -2.2000000E-01;  9.9999998E-03; -2.2000000E-01;8;  0.0000000E+00;  0.0000000E+00;  0.0000000E+00;  1.0000000E+03;  4.0000001E-01;  0.0000000E+00;0;  0.0000000E+00;  0.0000000E+00;  0.0000000E+00;0;  0.0000000E+00;  1.0000000E+04;  0.0000000E+00;  0.0000000E+00;  1.0000000E+04;  0.0000000E+00;  1.0000000E+04;  0.0000000E+00;  0.0000000E+00;  0.0000000E+00;  0.0000000E+00;
 -2.2000000E-01;  9.9999998E-03; -2.0000000E-01;9;  0.0000000E+00;  0.0000000E+00;  0.0000000E+00;  1.0000000E+03;  4.0000001E-01;  0.0000000E+00;0;  0.0000000E+00;  0.0000000E+00;  0.0000000E+00;0;  0.0000000E+00;  1.0000000E+04;  0.0000000E+00;  0.0000000E+00;  1.0000000E+04;  0.0000000E+00;  1.0000000E+04;  0.0000000E+00;  0.0000000E+00;  0.0000000E+00;  0.0000000E+00;
 -2.0000000E-01;  9.9999998E-03; -3.4000000E-01;42;  0.0000000E+00;  0.0000000E+00;  0.0000000E+00;  1.0000000E+03;  4.0000001E-01;  0.0000000E+00;0;  0.0000000E+00;  0.0000000E+00;  0.0000000E+00;0;  0.0000000E+00;  1.0000000E+04;  0.0000000E+00;  0.0000000E+00;  1.0000000E+04;  0.0000000E+00;  1.0000000E+04;  0.0000000E+00;  0.0000000E+00;  0.0000000E+00;  0.0000000E+00;
 -2.0000000E-01;  9.9999998E-03; -3.1999999E-01;43;  0.0000000E+00;  0.0000000E+00;  0.0000000E+00;  1.0000000E+03;  4.0000001E-01;  0.0000000E+00;0;  0.0000000E+00;  0.0000000E+00;  0.0000000E+00;0;  0.0000000E+00;  1.0000000E+04;  0.0000000E+00;  0.0000000E+00;  1.0000000E+04;  0.0000000E+00;  1.0000000E+04;  0.0000000E+00;  0.0000000E+00;  0.0000000E+00;  0.0000000E+00;
 -2.0000000E-01;  9.9999998E-03; -3.0000001E-01;44;  0.0000000E+00;  0.0000000E+00;  0.0000000E+00;  1.0000000E+03;  4.0000001E-01;  0.0000000E+00;0;  0.0000000E+00;  0.0000000E+00;  0.0000000E+00;0;  0.0000000E+00;  1.0000000E+04;  0.0000000E+00;  0.0000000E+00;  1.0000000E+04;  0.0000000E+00;  1.0000000E+04;  0.0000000E+00;  0.0000000E+00;  0.0000000E+00;  0.0000000E+00;
 -2.0000000E-01;  9.9999998E-03; -2.8000000E-01;45;  0.0000000E+00;  0.0000000E+00;  0.0000000E+00;  1.0000000E+03;  4.0000001E-01;  0.0000000E+00;0;  0.0000000E+00;  0.0000000E+00;  0.0000000E+00;0;  0.0000000E+00;  1.0000000E+04;  0.0000000E+00;  0.0000000E+00;  1.0000000E+04;  0.0000000E+00;  1.0000000E+04;  0.0000000E+00;  0.0000000E+00;  0.0000000E+00;  0.0000000E+00;
 -2.0000000E-01;  9.9999998E-03; -2.5999999E-01;46;  0.0000000E+00;  0.0000000E+00;  0.0000000E+00;  1.0000000E+03;  4.0000001E-01;  0.0000000E+00;0;  0.0000000E+00;  0.0000000E+00;  0.0000000E+00;0;  0.0000000E+00;  1.0000000E+04;  0.0000000E+00;  0.0000000E+00;  1.0000000E+04;  0.0000000E+00;  1.0000000E+04;  0.0000000E+00;  0.0000000E+00;  0.0000000E+00;  0.0000000E+00;
 -2.0000000E-01;  9.9999998E-03; -2.3999999E-01;47;  0.0000000E+00;  0.0000000E+00;  0.0000000E+00;  1.0000000E+03;  4.0000001E-01;  0.0000000E+00;0;  0.0000000E+00;  0.0000000E+00;  0.0000000E+00;0;  0.0000000E+00;  1.0000000E+04;  0.0000000E+00;  0.0000000E+00;  1.0000000E+04;  0.0000000E+00;  1.0000000E+04;  0.0000000E+00;  0.0000000E+00;  0.0000000E+00;  0.0000000E+00;
 -2.0000000E-01;  9.9999998E-03; -2.2000000E-01;48;  0.0000000E+00;  0.0000000E+00;  0.0000000E+00;  1.0000000E+03;  4.0000001E-01;  0.0000000E+00;0;  0.0000000E+00;  0.0000000E+00;  0.0000000E+00;0;  0.0000000E+00;  1.0000000E+04;  0.0000000E+00;  0.0000000E+00;  1.0000000E+04;  0.0000000E+00;  1.0000000E+04;  0.0000000E+00;  0.0000000E+00;  0.0000000E+00;  0.0000000E+00;
 -2.0000000E-01;  9.9999998E-03; -2.0000000E-01;49;  0.0000000E+00;  0.0000000E+00;  0.0000000E+00;  1.0000000E+03;  4.0000001E-01;  0.0000000E+00;0;  0.0000000E+00;  0.0000000E+00;  0.0000000E+00;0;  0.0000000E+00;  1.0000000E+04;  0.0000000E+00;  0.0000000E+00;  1.0000000E+04;  0.0000000E+00;  1.0000000E+04;  0.0000000E+00;  0.0000000E+00;  0.0000000E+00;  0.0000000E+00;
 -1.8000001E-01;  9.9999998E-03; -3.4000000E-01;83;  0.0000000E+00;  0.0000000E+00;  0.0000000E+00;  1.0000000E+03;  4.0000001E-01;  0.0000000E+00;0;  0.0000000E+00;  0.0000000E+00;  0.0000000E+00;0;  0.0000000E+00;  1.0000000E+04;  0.0000000E+00;  0.0000000E+00;  1.0000000E+04;  0.0000000E+00;  1.0000000E+04;  0.0000000E+00;  0.0000000E+00;  0.0000000E+00;  0.0000000E+00;
 -1.8000001E-01;  9.9999998E-03; -3.1999999E-01;84;  0.0000000E+00;  0.0000000E+00;  0.0000000E+00;  1.0000000E+03;  4.0000001E-01;  0.0000000E+00;0;  0.0000000E+00;  0.0000000E+00;  0.0000000E+00;0;  0.0000000E+00;  1.0000000E+04;  0.0000000E+00;  0.0000000E+00;  1.0000000E+04;  0.0000000E+00;  1.0000000E+04;  0.0000000E+00;  0.0000000E+00;  0.0000000E+00;  0.0000000E+00;
 -1.8000001E-01;  9.9999998E-03; -3.0000001E-01;85;  0.0000000E+00;  0.0000000E+00;  0.0000000E+00;  1.0000000E+03;  4.0000001E-01;  0.0000000E+00;0;  0.0000000E+00;  0.0000000E+00;  0.0000000E+00;0;  0.0000000E+00;  1.0000000E+04;  0.0000000E+00;  0.0000000E+00;  1.0000000E+04;  0.0000000E+00;  1.0000000E+04;  0.0000000E+00;  0.0000000E+00;  0.0000000E+00;  0.0000000E+00;
 -1.8000001E-01;  9.9999998E-03; -2.8000000E-01;86;  0.0000000E+00;  0.0000000E+00;  0.0000000E+00;  1.0000000E+03;  4.0000001E-01;  0.0000000E+00;0;  0.0000000E+00;  0.0000000E+00;  0.0000000E+00;0;  0.0000000E+00;  1.0000000E+04;  0.0000000E+00;  0.0000000E+00;  1.0000000E+04;  0.0000000E+00;  1.0000000E+04;  0.0000000E+00;  0.0000000E+00;  0.0000000E+00;  0.0000000E+00;
 -1.8000001E-01;  9.9999998E-03; -2.5999999E-01;87;  0.0000000E+00;  0.0000000E+00;  0.0000000E+00;  1.0000000E+03;  4.0000001E-01;  0.0000000E+00;0;  0.0000000E+00;  0.0000000E+00;  0.0000000E+00;0;  0.0000000E+00;  1.0000000E+04;  0.0000000E+00;  0.0000000E+00;  1.0000000E+04;  0.0000000E+00;  1.0000000E+04;  0.0000000E+00;  0.0000000E+00;  0.0000000E+00;  0.0000000E+00;
 -1.8000001E-01;  9.9999998E-03; -2.3999999E-01;88;  0.0000000E+00;  0.0000000E+00;  0.0000000E+00;  1.0000000E+03;  4.0000001E-01;  0.0000000E+00;0;  0.0000000E+00;  0.0000000E+00;  0.0000000E+00;0;  0.0000000E+00;  1.0000000E+04;  0.0000000E+00;  0.0000000E+00;  1.0000000E+04;  0.0000000E+00;  1.0000000E+04;  0.0000000E+00;  0.0000000E+00;  0.0000000E+00;  0.0000000E+00;
 -1.8000001E-01;  9.9999998E-03; -2.2000000E-01;89;  0.0000000E+00;  0.0000000E+00;  0.0000000E+00;  1.0000000E+03;  4.0000001E-01;  0.0000000E+00;0;  0.0000000E+00;  0.0000000E+00;  0.0000000E+00;0;  0.0000000E+00;  1.0000000E+04;  0.0000000E+00;  0.0000000E+00;  1.0000000E+04;  0.0000000E+00;  1.0000000E+04;  0.0000000E+00;  0.0000000E+00;  0.0000000E+00;  0.0000000E+00;
 -1.8000001E-01;  9.9999998E-03; -2.0000000E-01;90;  0.0000000E+00;  0.0000000E+00;  0.0000000E+00;  1.0000000E+03;  4.0000001E-01;  0.0000000E+00;0;  0.0000000E+00;  0.0000000E+00;  0.0000000E+00;0;  0.0000000E+00;  1.0000000E+04;  0.0000000E+00;  0.0000000E+00;  1.0000000E+04;  0.0000000E+00;  1.0000000E+04;  0.0000000E+00;  0.0000000E+00;  0.0000000E+00;  0.0000000E+00;
 -1.6000000E-01;  9.9999998E-03; -3.4000000E-01;124;  0.0000000E+00;  0.0000000E+00;  0.0000000E+00;  1.0000000E+03;  4.0000001E-01;  0.0000000E+00;0;  0.0000000E+00;  0.0000000E+00;  0.0000000E+00;0;  0.0000000E+00;  1.0000000E+04;  0.0000000E+00;  0.0000000E+00;  1.0000000E+04;  0.0000000E+00;  1.0000000E+04;  0.0000000E+00;  0.0000000E+00;  0.0000000E+00;  0.0000000E+00;
 -1.6000000E-01;  9.9999998E-03; -3.1999999E-01;125;  0.0000000E+00;  0.0000000E+00;  0.0000000E+00;  1.0000000E+03;  4.0000001E-01;  0.0000000E+00;0;  0.0000000E+00;  0.0000000E+00;  0.0000000E+00;0; -8.1387761E-08;  1.0000000E+04;  0.0000000E+00;  0.0000000E+00;  1.0000000E+04;  0.0000000E+00;  1.0000000E+04; -7.4894160E-08;  0.0000000E+00; -6.4935985E-09;  6.2293009E-05;
 -1.6000000E-01;  9.9999998E-03; -3.0000001E-01;126;  0.0000000E+00;  0.0000000E+00;  0.0000000E+00;  1.0000000E+03;  4.0000001E-01;  0.0000000E+00;0;  0.0000000E+00;  0.0000000E+00;  0.0000000E+00;0; -5.1721150E-07;  1.0000000E+04;  0.0000000E+00;  0.0000000E+00;  1.0000000E+04;  0.0000000E+00;  1.0000000E+04; -4.9529604E-07;  0.0000000E+00; -2.1915472E-08;  1.9379935E-04;
 -1.6000000E-01;  9.9999998E-03; -2.8000000E-01;127;  0.0000000E+00;  0.0000000E+00;  0.0000000E+00;  1.0000000E+03;  4.0000001E-01;  0.0000000E+00;0;  0.0000000E+00;  0.0000000E+00;  0.0000000E+00;0; -1.2203881E-06;  1.0000000E+04;  0.0000000E+00;  0.0000000E+00;  1.0000000E+04;  0.0000000E+00;  1.0000000E+04; -1.2006968E-06;  0.0000000E+00; -1.9691191E-08;  1.0940347E-04;
 -1.6000000E-01;  9.9999998E-03; -2.5999999E-01;128;  0.0000000E+00;  0.0000000E+00;  0.0000000E+00;  1.0000000E+03;  4.0000001E-01;  0.0000000E+00;0;  0.0000000E+00;  0.0000000E+00;  0.0000000E+00;0; -1.8177628E-06;  1.0000000E+04;  0.0000000E+00;  0.0000000E+00;  1.0000000E+04;  0.0000000E+00;  1.0000000E+04; -1.8158410E-06;  0.0000000E+00; -1.9218831E-09;  1.4150598E-04;
 -1.6000000E-01;  9.9999998E-03; -2.3999999E-01;129;  0.0000000E+00;  0.0000000E+00;  0.0000000E+00;  1.0000000E+03;  4.0000001E-01;  0.0000000E+00;0;  0.0000000E+00;  0.0000000E+00;  0.0000000E+00;0; -2.1442709E-06;  1.0000000E+04;  0.0000000E+00;  0.0000000E+00;  1.0000000E+04;  0.0000000E+00;  1.0000000E+04; -2.1498197E-06;  0.0000000E+00;  5.5488609E-09;  2.4896360E-04;
 -1.6000000E-01;  9.9999998E-03; -2.2000000E-01;130;  0.0000000E+00;  0.0000000E+00;  0.0000000E+00;  1.0000000E+03;  4.0000001E-01;  0.0000000E+00;0;  0.0000000E+00;  0.0000000E+00;  0.0000000E+00;0; -2.3652453E-06;  1.0000000E+04;  0.0000000E+00;  0.0000000E+00;  1.0000000E+04;  0.0000000E+00;  1.0000000E+04; -2.3717571E-06;  0.0000000E+00;  6.5117192E-09;  2.7861685E-04;
 -1.6000000E-01;  9.9999998E-03; -2.0000000E-01;131;  0.0000000E+00;  0.0000000E+00;  0.0000000E+00;  1.0000000E+03;  4.0000001E-01;  0.0000000E+00;0;  0.0000000E+00;  0.0000000E+00;  0.0000000E+00;0; -2.5310048E-06;  1.0000000E+04;  0.0000000E+00;  0.0000000E+00;  1.0000000E+04;  0.0000000E+00;  1.0000000E+04; -2.5376394E-06;  0.0000000E+00;  6.6346009E-09;  2.9504296E-04;
 -1.4000000E-01;  9.9999998E-03; -3.4000000E-01;165;  0.0000000E+00;  0.0000000E+00;  0.0000000E+00;  1.0000000E+03;  4.0000001E-01;  0.0000000E+00;0;  0.0000000E+00;  0.0000000E+00;  0.0000000E+00;0; -3.9092761E-06;  1.0000000E+04;  0.0000000E+00;  0.0000000E+00;  1.0000000E+04;  0.0000000E+00;  1.0000000E+04; -3.3032095E-06;  0.0000000E+00; -6.0606675E-07;  6.1116195E-03;
 -1.4000000E-01;  9.9999998E-03; -3.1999999E-01;166;  0.0000000E+00;  0.0000000E+00;  0.0000000E+00;  1.0000000E+03;  4.0000001E-01;  0.0000000E+00;0;  0.0000000E+00;  0.0000000E+00;  0.0000000E+00;0; -1.2682374E-05;  1.0000000E+04;  0.0000000E+00;  0.0000000E+00;  1.0000000E+04;  0.0000000E+00;  1.0000000E+04; -1.1372882E-05;  0.0000000E+00; -1.3094919E-06;  1.2954175E-02;
 -1.4000000E-01;  9.9999998E-03; -3.0000001E-01;167;  0.0000000E+00;  0.0000000E+00;  0.0000000E+00;  1.0000000E+03;  4.0000001E-01;  0.0000000E+00;0;  0.0000000E+00;  0.0000000E+00;  0.0000000E+00;0; -2.6959890E-05;  1.0000000E+04;  0.0000000E+00;  0.0000000E+00;  1.0000000E+04;  0.0000000E+00;  1.0000000E+04; -2.5269999E-05;  0.0000000E+00; -1.6898912E-06;  1.5718317E-02;
 -1.4000000E-01;  9.9999998E-03; -2.8000000E-01;168;  0.0000000E+00;  0.0000000E+00;  0.0000000E+00;  1.0000000E+03;  4.0000001E-01;  0.0000000E+00;0;  0.0000000E+00;  0.0000000E+00;  0.0000000E+00;0; -4.4477063E-05;  1.0000000E+04;  0.0000000E+00;  0.0000000E+00;  1.0000000E+04;  0.0000000E+00;  1.0000000E+04; -4.3027641E-05;  0.0000000E+00; -1.4494217E-06;  1.1510523E-02;
 -1.4000000E-01;  9.9999998E-03; -2.5999999E-01;169;  0.0000000E+00;  0.0000000E+00;  0.0000000E+00;  1.0000000E+03;  4.0000001E-01;  0.0000000E+00;0;  0.0000000E+00;  0.0000000E+00;  0.0000000E+00;0; -6.1616047E-05;  1.0000000E+04;  0.0000000E+00;  0.0000000E+00;  1.0000000E+04;  0.0000000E+00;  1.0000000E+04; -6.0934741E-05;  0.0000000E+00; -6.8130271E-07;  1.8547762E-03;
 -1.4000000E-01;  9.9999998E-03; -2.3999999E-01;170;  0.0000000E+00;  0.0000000E+00;  0.0000000E+00;  1.0000000E+03;  4.0000001E-01;  0.0000000E+00;0;  0.0000000E+00;  0.0000000E+00;  0.0000000E+00;0; -7.5452037E-05;  1.0000000E+04;  0.0000000E+00;  0.0000000E+00;  1.0000000E+04;  0.0000000E+00;  1.0000000E+04; -7.5640652E-05;  0.0000000E+00;  1.8861542E-07;  8.5592521E-03;
 -1.4000000E-01;  9.9999998E-03; -2.2000000E-01;171;  0.0000000E+00;  0.0000000E+00;  0.0000000E+00;  1.0000000E+03;  4.0000001E-01;  0.0000000E+00;0;  0.0000000E+00;  0.0000000E+00;  0.0000000E+00;0; -8.5074797E-05;  1.0000000E+04;  0.0000000E+00;  0.0000000E+00;  1.0000000E+04;  0.0000000E+00;  1.0000000E+04; -8.5770916E-05;  0.0000000E+00;  6.9612122E-07;  1.4782293E-02;
 -1.4000000E-01;  9.9999998E-03; -2.0000000E-01;172;  0.0000000E+00;  0.0000000E+00;  0.0000000E+00;  1.0000000E+03;  4.0000001E-01;  0.0000000E+00;0;  0.0000000E+00;  0.0000000E+00;  0.0000000E+00;0; -9.1493566E-05;  1.0000000E+04;  0.0000000E+00;  0.0000000E+00;  1.0000000E+04;  0.0000000E+00;  1.0000000E+04; -9.2284230E-05;  0.0000000E+00;  7.9066518E-07;  1.6378568E-02;
 -1.2000000E-01;  9.9999998E-03; -3.4000000E-01;206;  0.0000000E+00;  0.0000000E+00;  0.0000000E+00;  1.0000000E+03;  4.0000001E-01;  0.0000000E+00;0;  0.0000000E+00;  0.0000000E+00;  0.0000000E+00;0; -4.8286121E-05;  1.0000000E+04;  0.0000000E+00;  0.0000000E+00;  1.0000000E+04;  0.0000000E+00;  1.0000000E+04; -3.9621911E-05;  0.0000000E+00; -8.6642085E-06;  8.8437989E-02;
 -1.2000000E-01;  9.9999998E-03; -3.1999999E-01;207;  0.0000000E+00;  0.0000000E+00;  0.0000000E+00;  1.0000000E+03;  4.0000001E-01;  0.0000000E+00;0;  0.0000000E+00;  0.0000000E+00;  0.0000000E+00;0; -1.0205659E-04;  1.0000000E+04;  0.0000000E+00;  0.0000000E+00;  1.0000000E+04;  0.0000000E+00;  1.0000000E+04; -8.9751236E-05;  0.0000000E+00; -1.2305353E-05;  1.2259824E-01;
 -1.2000000E-01;  9.9999998E-03; -3.0000001E-01;208;  0.0000000E+00;  0.0000000E+00;  0.0000000E+00;  1.0000002E+03;  4.0000001E-01;  1.9752525E-01;0;  0.0000000E+00;  0.0000000E+00;  0.0000000E+00;0; -1.7540576E-04;  1.0000000E+04;  0.0000000E+00;  0.0000000E+00;  1.0000000E+04;  0.0000000E+00;  1.0000000E+04; -1.6229291E-04;  0.0000000E+00; -1.3112853E-05;  1.2446126E-01;
 -1.2000000E-01;  9.9999998E-03; -2.8000000E-01;209;  0.0000000E+00;  0.0000000E+00;  0.0000000E+00;  1.0000002E+03;  4.0000001E-01;  1.9752525E-01;0;  0.0000000E+00;  0.0000000E+00;  0.0000000E+00;0; -2.5952040E-04;  1.0000000E+04;  0.0000000E+00;  0.0000000E+00;  1.0000000E+04;  0.0000000E+00;  1.0000000E+04; -2.4898679E-04;  0.0000000E+00; -1.0533608E-05;  8.9618243E-02;
 -1.2000000E-01;  9.9999998E-03; -2.5999999E-01;210;  0.0000000E+00;  0.0000000E+00;  0.0000000E+00;  1.0000003E+03;  4.0000001E-01;  2.9628786E-01;0;  0.0000000E+00;  0.0000000E+00;  0.0000000E+00;0; -3.4160769E-04;  1.0000000E+04;  0.0000000E+00;  0.0000000E+00;  1.0000000E+04;  0.0000000E+00;  1.0000000E+04; -3.3628521E-04;  0.0000000E+00; -5.3224926E-06;  2.7210707E-02;
 -1.2000000E-01;  9.9999998E-03; -2.3999999E-01;211;  0.0000000E+00;  0.0000000E+00;  0.0000000E+00;  1.0000004E+03;  4.0000001E-01;  3.9505050E-01;0;  0.0000000E+00;  0.0000000E+00;  0.0000000E+00;0; -4.1125464E-04;  1.0000000E+04;  0.0000000E+00;  0.0000000E+00;  1.0000000E+04;  0.0000000E+00;  1.0000000E+04; -4.1180273E-04;  0.0000000E+00;  5.4809084E-07;  4.1084670E-02;
 -1.2000000E-01;  9.9999998E-03; -2.2000000E-01;212;  0.0000000E+00;  0.0000000E+00;  0.0000000E+00;  1.0000005E+03;  4.0000001E-01;  3.9505050E-01;0;  0.0000000E+00;  0.0000000E+00;  0.0000000E+00;0; -4.6450031E-04;  1.0000000E+04;  0.0000000E+00;  0.0000000E+00;  1.0000000E+04;  0.0000000E+00;  1.0000000E+04; -4.6943937E-04;  0.0000000E+00;  4.9390601E-06;  9.2340104E-02;
 -1.2000000E-01;  9.9999998E-03; -2.0000000E-01;213;  0.0000000E+00;  0.0000000E+00;  0.0000000E+00;  1.0000005E+03;  4.0000001E-01;  4.9381313E-01;0;  0.0000000E+00;  0.0000000E+00;  0.0000000E+00;0; -5.0262077E-04;  1.0000000E+04;  0.0000000E+00;  0.0000000E+00;  1.0000000E+04;  0.0000000E+00;  1.0000000E+04; -5.0958677E-04;  0.0000000E+00;  6.9660264E-06;  1.1740958E-01;
 -1.0000000E-01;  9.9999998E-03; -3.4000000E-01;247;  0.0000000E+00;  0.0000000E+00;  0.0000000E+00;  1.0000002E+03;  4.0000001E-01;  1.9752525E-01;0;  0.0000000E+00;  0.0000000E+00;  0.0000000E+00;0; -2.1947574E-04;  1.0000000E+04;  0.0000000E+00;  0.0000000E+00;  1.0000000E+04;  0.0000000E+00;  1.0000000E+04; -1.7542235E-04;  0.0000000E+00; -4.4053384E-05;  4.5248181E-01;
 -1.0000000E-01;  9.9999998E-03; -3.1999999E-01;248;  0.0000000E+00;  0.0000000E+00;  0.0000000E+00;  1.0000004E+03;  4.0000001E-01;  3.9505050E-01;0;  0.0000000E+00;  0.0000000E+00;  0.0000000E+00;0; -3.9375501E-04;  1.0000000E+04;  0.0000000E+00;  0.0000000E+00;  1.0000000E+04;  0.0000000E+00;  1.0000000E+04; -3.4030530E-04;  0.0000000E+00; -5.3449716E-05;  5.3777939E-01;
 -1.0000000E-01;  9.9999998E-03; -3.0000001E-01;249;  0.0000000E+00;  0.0000000E+00;  0.0000000E+00;  1.0000007E+03;  4.0000001E-01;  5.9257573E-01;0;  0.0000000E+00;  0.0000000E+00;  0.0000000E+00;0; -6.1683333E-04;  1.0000000E+04;  0.0000000E+00;  0.0000000E+00;  1.0000000E+04;  0.0000000E+00;  1.0000000E+04; -5.6441955E-04;  0.0000000E+00; -5.2413776E-05;  5.0733566E-01;
 -1.0000000E-01;  9.9999998E-03; -2.8000000E-01;250;  0.0000000E+00;  0.0000000E+00;  0.0000000E+00;  1.0000010E+03;  4.0000001E-01;  8.8886362E-01;0;  0.0000000E+00;  0.0000000E+00;  0.0000000E+00;0; -8.6518237E-04;  1.0000000E+04;  0.0000000E+00;  0.0000000E+00;  1.0000000E+04;  0.0000000E+00;  1.0000000E+04; -8.2472130E-04;  0.0000000E+00; -4.0461095E-05;  3.5831362E-01;
 -1.0000000E-01;  9.9999998E-03; -2.5999999E-01;251;  0.0000000E+00;  0.0000000E+00;  0.0000000E+00;  1.0000013E+03;  4.0000001E-01;  1.0863888E+00;0;  0.0000000E+00;  0.0000000E+00;  0.0000000E+00;0; -1.1055184E-03;  1.0000000E+04;  0.0000000E+00;  0.0000000E+00;  1.0000000E+04;  0.0000000E+00;  1.0000000E+04; -1.0852574E-03;  0.0000000E+00; -2.0261094E-05;  1.2222729E-01;
 -1.0000000E-01;  9.9999998E-03; -2.3999999E-01;252;  0.0000000E+00;  0.0000000E+00;  0.0000000E+00;  1.0000016E+03;  4.0000001E-01;  1.2839141E+00;0;  0.0000000E+00;  0.0000000E+00;  0.0000000E+00;0; -1.3119276E-03;  1.0000000E+04;  0.0000000E+00;  0.0000000E+00;  1.0000000E+04;  0.0000000E+00;  1.0000000E+04; -1.3138915E-03;  0.0000000E+00;  1.9638751E-06;  1.3233244E-01;
 -1.0000000E-01;  9.9999998E-03; -2.2000000E-01;253;  0.0000000E+00;  0.0000000E+00;  0.0000000E+00;  1.0000017E+03;  4.0000001E-01;  1.3826767E+00;0;  0.0000000E+00;  0.0000000E+00;  0.0000000E+00;0; -1.4746749E-03;  1.0000000E+04;  0.0000000E+00;  0.0000000E+00;  1.0000000E+04;  0.0000000E+00;  1.0000000E+04; -1.4940216E-03;  0.0000000E+00;  1.9346733E-05;  3.3170149E-01;
 -1.0000000E-01;  9.9999998E-03; -2.0000000E-01;254;  0.0000000E+00;  0.0000000E+00;  0.0000000E+00;  1.0000020E+03;  4.0000001E-01;  1.5802020E+00;0;  0.0000000E+00;  0.0000000E+00;  0.0000000E+00;0; -1.5959495E-03;  1.0000000E+04;  0.0000000E+00;  0.0000000E+00;  1.0000000E+04;  0.0000000E+00;  1.0000000E+04; -1.6246635E-03;  0.0000000E+00;  2.8713925E-05;  4.4280818E-01;
 -7.9999998E-02;  9.9999998E-03; -3.4000000E-01;288;  0.0000000E+00;  0.0000000E+00;  0.0000000E+00;  1.0000008E+03;  4.0000001E-01;  6.9133836E-01;0;  0.0000000E+00;  0.0000000E+00;  0.0000000E+00;0; -6.3853501E-04;  1.0000000E+04;  0.0000000E+00;  0.0000000E+00;  1.0000000E+04;  0.0000000E+00;  1.0000000E+04; -4.9844006E-04;  0.0000000E+00; -1.4009497E-04;  1.4523811E+00;
 -7.9999998E-02;  9.9999998E-03; -3.1999999E-01;289;  0.0000000E+00;  0.0000000E+00;  0.0000000E+00;  1.0000013E+03;  4.0000001E-01;  1.0863888E+00;0;  0.0000000E+00;  0.0000000E+00;  0.0000000E+00;0; -1.0549924E-03;  1.0000000E+04;  0.0000000E+00;  0.0000000E+00;  1.0000000E+04;  0.0000000E+00;  1.0000000E+04; -8.9756196E-04;  0.0000000E+00; -1.5743043E-04;  1.6035653E+00;
 -7.9999998E-02;  9.9999998E-03; -3.0000001E-01;290;  0.0000000E+00;  0.0000000E+00;  0.0000000E+00;  1.0000020E+03;  4.0000001E-01;  1.5802020E+00;0;  0.0000000E+00;  0.0000000E+00;  0.0000000E+00;0; -1.5719584E-03;  1.0000000E+04;  0.0000000E+00;  0.0000000E+00;  1.0000000E+04;  0.0000000E+00;  1.0000000E+04; -1.4242105E-03;  0.0000000E+00; -1.4774788E-04;  1.4550662E+00;
 -7.9999998E-02;  9.9999998E-03; -2.8000000E-01;291;  0.0000000E+00;  0.0000000E+00;  0.0000000E+00;  1.0000026E+03;  4.0000001E-01;  2.1727777E+00;0;  0.0000000E+00;  0.0000000E+00;  0.0000000E+00;0; -2.1370857E-03;  1.0000000E+04;  0.0000000E+00;  0.0000000E+00;  1.0000000E+04;  0.0000000E+00;  1.0000000E+04; -2.0259400E-03;  0.0000000E+00; -1.1114572E-04;  1.0131934E+00;
 -7.9999998E-02;  9.9999998E-03; -2.5999999E-01;292;  0.0000000E+00;  0.0000000E+00;  0.0000000E+00;  1.0000033E+03;  4.0000001E-01;  2.7653534E+00;0;  0.0000000E+00;  0.0000000E+00;  0.0000000E+00;0; -2.6791047E-03;  1.0000000E+04;  0.0000000E+00;  0.0000000E+00;  1.0000000E+04;  0.0000000E+00;  1.0000000E+04; -2.6245832E-03;  0.0000000E+00; -5.4521461E-05;  3.5904670E-01;
 -7.9999998E-02;  9.9999998E-03; -2.3999999E-01;293;  0.0000000E+00;  0.0000000E+00;  0.0000000E+00;  1.0000038E+03;  4.0000001E-01;  3.1604040E+00;0;  0.0000000E+00;  0.0000000E+00;  0.0000000E+00;0; -3.1448542E-03;  1.0000000E+04;  0.0000000E+00;  0.0000000E+00;  1.0000000E+04;  0.0000000E+00;  1.0000000E+04; -3.1515381E-03;  0.0000000E+00;  6.6839361E-06;  3.3698475E-01;
 -7.9999998E-02;  9.9999998E-03; -2.2000000E-01;294;  0.0000000E+00;  0.0000000E+00;  0.0000000E+00;  1.0000042E+03;  4.0000001E-01;  3.4566917E+00;0;  0.0000000E+00;  0.0000000E+00;  0.0000000E+00;0; -3.5161271E-03;  1.0000000E+04;  0.0000000E+00;  0.0000000E+00;  1.0000000E+04;  0.0000000E+00;  1.0000000E+04; -3.5714216E-03;  0.0000000E+00;  5.5294469E-05;  8.9005548E-01;
 -7.9999998E-02;  9.9999998E-03; -2.0000000E-01;295;  0.0000000E+00;  0.0000000E+00;  0.0000000E+00;  1.0000046E+03;  4.0000001E-01;  3.7529798E+00;0;  0.0000000E+00;  0.0000000E+00;  0.0000000E+00;0; -3.7980492E-03;  1.0000000E+04;  0.0000000E+00;  0.0000000E+00;  1.0000000E+04;  0.0000000E+00;  1.0000000E+04; -3.8809399E-03;  0.0000000E+00;  8.2890700E-05;  1.2119306E+00;
 -5.9999999E-02;  9.9999998E-03; -3.4000000E-01;329;  0.0000000E+00;  0.0000000E+00;  0.0000000E+00;  1.0000017E+03;  4.0000001E-01;  1.3826767E+00;0;  0.0000000E+00;  0.0000000E+00;  0.0000000E+00;0; -1.4164073E-03;  1.0000000E+04;  0.0000000E+00;  0.0000000E+00;  1.0000000E+04;  0.0000000E+00;  1.0000000E+04; -1.0791172E-03;  0.0000000E+00; -3.3729011E-04;  3.5354190E+00;
 -5.9999999E-02;  9.9999998E-03; -3.1999999E-01;330;  0.0000000E+00;  0.0000000E+00;  0.0000000E+00;  1.0000027E+03;  4.0000001E-01;  2.2715404E+00;0;  0.0000000E+00;  0.0000000E+00;  0.0000000E+00;0; -2.2299734E-03;  1.0000000E+04;  0.0000000E+00;  0.0000000E+00;  1.0000000E+04;  0.0000000E+00;  1.0000000E+04; -1.8664015E-03;  0.0000000E+00; -3.6357186E-04;  3.7518659E+00;
 -5.9999999E-02;  9.9999998E-03; -3.0000001E-01;331;  0.0000000E+00;  0.0000000E+00;  0.0000000E+00;  1.0000040E+03;  4.0000001E-01;  3.3579292E+00;0;  0.0000000E+00;  0.0000000E+00;  0.0000000E+00;0; -3.2217365E-03;  1.0000000E+04;  0.0000000E+00;  0.0000000E+00;  1.0000000E+04;  0.0000000E+00;  1.0000000E+04; -2.8891885E-03;  0.0000000E+00; -3.3254802E-04;  3.3304241E+00;
 -5.9999999E-02;  9.9999998E-03; -2.8000000E-01;332;  0.0000000E+00;  0.0000000E+00;  0.0000000E+00;  1.0000053E+03;  4.0000001E-01;  4.4443183E+00;0;  0.0000000E+00;  0.0000000E+00;  0.0000000E+00;0; -4.2914511E-03;  1.0000000E+04;  0.0000000E+00;  0.0000000E+00;  1.0000000E+04;  0.0000000E+00;  1.0000000E+04; -4.0461109E-03;  0.0000000E+00; -2.4534037E-04;  2.2940800E+00;
 -5.9999999E-02;  9.9999998E-03; -2.5999999E-01;333;  0.0000000E+00;  0.0000000E+00;  0.0000000E+00;  1.0000065E+03;  4.0000001E-01;  5.3331819E+00;0;  0.0000000E+00;  0.0000000E+00;  0.0000000E+00;0; -5.3058588E-03;  1.0000000E+04;  0.0000000E+00;  0.0000000E+00;  1.0000000E+04;  0.0000000E+00;  1.0000000E+04; -5.1887324E-03;  0.0000000E+00; -1.1712638E-04;  8.2069314E-01;
 -5.9999999E-02;  9.9999998E-03; -2.3999999E-01;334;  0.0000000E+00;  0.0000000E+00;  0.0000000E+00;  1.0000076E+03;  4.0000001E-01;  6.2220454E+00;0;  0.0000000E+00;  0.0000000E+00;  0.0000000E+00;0; -6.1720102E-03;  1.0000000E+04;  0.0000000E+00;  0.0000000E+00;  1.0000000E+04;  0.0000000E+00;  1.0000000E+04; -6.1910395E-03;  0.0000000E+00;  1.9029212E-05;  7.2396976E-01;
 -5.9999999E-02;  9.9999998E-03; -2.2000000E-01;335;  0.0000000E+00;  0.0000000E+00;  0.0000000E+00;  1.0000085E+03;  4.0000001E-01;  7.0121465E+00;0;  0.0000000E+00;  0.0000000E+00;  0.0000000E+00;0; -6.8636849E-03;  1.0000000E+04;  0.0000000E+00;  0.0000000E+00;  1.0000000E+04;  0.0000000E+00;  1.0000000E+04; -6.9910060E-03;  0.0000000E+00;  1.2732102E-04;  1.9526708E+00;
 -5.9999999E-02;  9.9999998E-03; -2.0000000E-01;336;  0.0000000E+00;  0.0000000E+00;  0.0000000E+00;  1.0000090E+03;  4.0000001E-01;  7.5059595E+00;0;  0.0000000E+00;  0.0000000E+00;  0.0000000E+00;0; -7.3935157E-03;  1.0000000E+04;  0.0000000E+00;  0.0000000E+00;  1.0000000E+04;  0.0000000E+00;  1.0000000E+04; -7.5837001E-03;  0.0000000E+00;  1.9018429E-04;  2.6802111E+00;
 -3.9999999E-02;  9.9999998E-03; -3.4000000E-01;370;  0.0000000E+00;  0.0000000E+00;  0.0000000E+00;  1.0000032E+03;  4.0000001E-01;  2.6665909E+00;0;  0.0000000E+00;  0.0000000E+00;  0.0000000E+00;0; -2.5921531E-03;  1.0000000E+04;  0.0000000E+00;  0.0000000E+00;  1.0000000E+04;  0.0000000E+00;  1.0000000E+04; -1.9217390E-03;  0.0000000E+00; -6.7041413E-04;  7.1161761E+00;
 -3.9999999E-02;  9.9999998E-03; -3.1999999E-01;371;  0.0000000E+00;  0.0000000E+00;  0.0000000E+00;  1.0000048E+03;  4.0000001E-01;  3.9505050E+00;0;  0.0000000E+00;  0.0000000E+00;  0.0000000E+00;0; -3.9569675E-03;  1.0000000E+04;  0.0000000E+00;  0.0000000E+00;  1.0000000E+04;  0.0000000E+00;  1.0000000E+04; -3.2507868E-03;  0.0000000E+00; -7.0618076E-04;  7.3926220E+00;
 -3.9999999E-02;  9.9999998E-03; -3.0000001E-01;372;  0.0000000E+00;  0.0000000E+00;  0.0000000E+00;  1.0000068E+03;  4.0000001E-01;  5.6294694E+00;0;  0.0000000E+00;  0.0000000E+00;  0.0000000E+00;0; -5.5992575E-03;  1.0000000E+04;  0.0000000E+00;  0.0000000E+00;  1.0000000E+04;  0.0000000E+00;  1.0000000E+04; -4.9635423E-03;  0.0000000E+00; -6.3571543E-04;  6.4794540E+00;
 -3.9999999E-02;  9.9999998E-03; -2.8000000E-01;373;  0.0000000E+00;  0.0000000E+00;  0.0000000E+00;  1.0000090E+03;  4.0000001E-01;  7.4071970E+00;0;  0.0000000E+00;  0.0000000E+00;  0.0000000E+00;0; -7.3459866E-03;  1.0000000E+04;  0.0000000E+00;  0.0000000E+00;  1.0000000E+04;  0.0000000E+00;  1.0000000E+04; -6.8853777E-03;  0.0000000E+00; -4.6060898E-04;  4.4148297E+00;
 -3.9999999E-02;  9.9999998E-03; -2.5999999E-01;374;  0.0000000E+00;  0.0000000E+00;  0.0000000E+00;  1.0000110E+03;  4.0000001E-01;  9.1849241E+00;0;  0.0000000E+00;  0.0000000E+00;  0.0000000E+00;0; -8.9761727E-03;  1.0000000E+04;  0.0000000E+00;  0.0000000E+00;  1.0000000E+04;  0.0000000E+00;  1.0000000E+04; -8.7643350E-03;  0.0000000E+00; -2.1183785E-04;  1.5602258E+00;
 -3.9999999E-02;  9.9999998E-03; -2.3999999E-01;375;  0.0000000E+00;  0.0000000E+00;  0.0000000E+00;  1.0000126E+03;  4.0000001E-01;  1.0468838E+01;0;  0.0000000E+00;  0.0000000E+00;  0.0000000E+00;0; -1.0352756E-02;  1.0000000E+04;  0.0000000E+00;  0.0000000E+00;  1.0000000E+04;  0.0000000E+00;  1.0000000E+04; -1.0399120E-02;  0.0000000E+00;  4.6363944E-05;  1.3719838E+00;
 -3.9999999E-02;  9.9999998E-03; -2.2000000E-01;376;  0.0000000E+00;  0.0000000E+00;  0.0000000E+00;  1.0000141E+03;  4.0000001E-01;  1.1653990E+01;0;  0.0000000E+00;  0.0000000E+00;  0.0000000E+00;0; -1.1448941E-02;  1.0000000E+04;  0.0000000E+00;  0.0000000E+00;  1.0000000E+04;  0.0000000E+00;  1.0000000E+04; -1.1698704E-02;  0.0000000E+00;  2.4976258E-04;  3.6823750E+00;
 -3.9999999E-02;  9.9999998E-03; -2.0000000E-01;377;  0.0000000E+00;  0.0000000E+00;  0.0000000E+00;  1.0000151E+03;  4.0000001E-01;  1.2444091E+01;0;  0.0000000E+00;  0.0000000E+00;  0.0000000E+00;0; -1.2291526E-02;  1.0000000E+04;  0.0000000E+00;  0.0000000E+00;  1.0000000E+04;  0.0000000E+00;  1.0000000E+04; -1.2660021E-02;  0.0000000E+00;  3.6849413E-04;  5.0536394E+00;
 -2.0000000E-02;  9.9999998E-03; -3.4000000E-01;411;  0.0000000E+00;  0.0000000E+00;  0.0000000E+00;  1.0000051E+03;  4.0000001E-01;  4.2467928E+00;0;  0.0000000E+00;  0.0000000E+00;  0.0000000E+00;0; -4.1025532E-03;  1.0000000E+04;  0.0000000E+00;  0.0000000E+00;  1.0000000E+04;  0.0000000E+00;  1.0000000E+04; -2.9515761E-03;  0.0000000E+00; -1.1509772E-03;  1.2398314E+01;
 -2.0000000E-02;  9.9999998E-03; -3.1999999E-01;412;  0.0000000E+00;  0.0000000E+00;  0.0000000E+00;  1.0000077E+03;  4.0000001E-01;  6.4195704E+00;0;  0.0000000E+00;  0.0000000E+00;  0.0000000E+00;0; -6.1286702E-03;  1.0000000E+04;  0.0000000E+00;  0.0000000E+00;  1.0000000E+04;  0.0000000E+00;  1.0000000E+04; -4.9318019E-03;  0.0000000E+00; -1.1968684E-03;  1.2734079E+01;
 -2.0000000E-02;  9.9999998E-03; -3.0000001E-01;413;  0.0000000E+00;  0.0000000E+00;  0.0000000E+00;  1.0000107E+03;  4.0000001E-01;  8.8886366E+00;0;  0.0000000E+00;  0.0000000E+00;  0.0000000E+00;0; -8.5306391E-03;  1.0000000E+04;  0.0000000E+00;  0.0000000E+00;  1.0000000E+04;  0.0000000E+00;  1.0000000E+04; -7.4655898E-03;  0.0000000E+00; -1.0650497E-03;  1.1063580E+01;
 -2.0000000E-02;  9.9999998E-03; -2.8000000E-01;414;  0.0000000E+00;  0.0000000E+00;  0.0000000E+00;  1.0000137E+03;  4.0000001E-01;  1.1357701E+01;0;  0.0000000E+00;  0.0000000E+00;  0.0000000E+00;0; -1.1037335E-02;  1.0000000E+04;  0.0000000E+00;  0.0000000E+00;  1.0000000E+04;  0.0000000E+00;  1.0000000E+04; -1.0281594E-02;  0.0000000E+00; -7.5574080E-04;  7.4268579E+00;
 -2.0000000E-02;  9.9999998E-03; -2.5999999E-01;415;  0.0000000E+00;  0.0000000E+00;  0.0000000E+00;  1.0000166E+03;  4.0000001E-01;  1.3728004E+01;0;  0.0000000E+00;  0.0000000E+00;  0.0000000E+00;0; -1.3326643E-02;  1.0000000E+04;  0.0000000E+00;  0.0000000E+00;  1.0000000E+04;  0.0000000E+00;  1.0000000E+04; -1.2996730E-02;  0.0000000E+00; -3.2991296E-04;  2.5306695E+00;
 -2.0000000E-02;  9.9999998E-03; -2.3999999E-01;416;  0.0000000E+00;  0.0000000E+00;  0.0000000E+00;  1.0000189E+03;  4.0000001E-01;  1.5703258E+01;0;  0.0000000E+00;  0.0000000E+00;  0.0000000E+00;0; -1.5236451E-02;  1.0000000E+04;  0.0000000E+00;  0.0000000E+00;  1.0000000E+04;  0.0000000E+00;  1.0000000E+04; -1.5334736E-02;  0.0000000E+00;  9.8284385E-05;  2.3552032E+00;
 -2.0000000E-02;  9.9999998E-03; -2.2000000E-01;417;  0.0000000E+00;  0.0000000E+00;  0.0000000E+00;  1.0000208E+03;  4.0000001E-01;  1.7283459E+01;0;  0.0000000E+00;  0.0000000E+00;  0.0000000E+00;0; -1.6750535E-02;  1.0000000E+04;  0.0000000E+00;  0.0000000E+00;  1.0000000E+04;  0.0000000E+00;  1.0000000E+04; -1.7180501E-02;  0.0000000E+00;  4.2996492E-04;  6.1424351E+00;
 -2.0000000E-02;  9.9999998E-03; -2.0000000E-01;418;  0.0000000E+00;  0.0000000E+00;  0.0000000E+00;  1.0000222E+03;  4.0000001E-01;  1.8369848E+01;0;  0.0000000E+00;  0.0000000E+00;  0.0000000E+00;0; -1.7914077E-02;  1.0000000E+04;  0.0000000E+00;  0.0000000E+00;  1.0000000E+04;  0.0000000E+00;  1.0000000E+04; -1.8536756E-02;  0.0000000E+00;  6.2267890E-04;  8.3747225E+00;
  0.0000000E+00;  9.9999998E-03; -3.4000000E-01;452;  0.0000000E+00;  0.0000000E+00;  0.0000000E+00;  1.0000073E+03;  4.0000001E-01;  6.0245199E+00;0;  0.0000000E+00;  0.0000000E+00;  0.0000000E+00;0; -5.7909638E-03;  1.0000000E+04;  0.0000000E+00;  0.0000000E+00;  1.0000000E+04;  0.0000000E+00;  1.0000000E+04; -4.0406394E-03;  0.0000000E+00; -1.7503243E-03;  1.9190931E+01;
  0.0000000E+00;  9.9999998E-03; -3.1999999E-01;453;  0.0000000E+00;  0.0000000E+00;  0.0000000E+00;  1.0000107E+03;  4.0000001E-01;  8.8886366E+00;0;  0.0000000E+00;  0.0000000E+00;  0.0000000E+00;0; -8.5050613E-03;  1.0000000E+04;  0.0000000E+00;  0.0000000E+00;  1.0000000E+04;  0.0000000E+00;  1.0000000E+04; -6.7002848E-03;  0.0000000E+00; -1.8047760E-03;  1.9569363E+01;
  0.0000000E+00;  9.9999998E-03; -3.0000001E-01;454;  0.0000000E+00;  0.0000000E+00;  0.0000000E+00;  1.0000146E+03;  4.0000001E-01;  1.2049040E+01;0;  0.0000000E+00;  0.0000000E+00;  0.0000000E+00;0; -1.1642840E-02;  1.0000000E+04;  0.0000000E+00;  0.0000000E+00;  1.0000000E+04;  0.0000000E+00;  1.0000000E+04; -1.0060838E-02;  0.0000000E+00; -1.5820011E-03;  1.6788525E+01;
  2.0000000E-02;  9.9999998E-03; -3.4000000E-01;464;  0.0000000E+00;  0.0000000E+00;  0.0000000E+00;  1.0000096E+03;  4.0000001E-01;  7.9010100E+00;0;  0.0000000E+00;  0.0000000E+00;  0.0000000E+00;0; -7.4811471E-03;  1.0000000E+04;  0.0000000E+00;  0.0000000E+00;  1.0000000E+04;  0.0000000E+00;  1.0000000E+04; -5.0847190E-03;  0.0000000E+00; -2.3964280E-03;  2.6855265E+01;
  2.0000000E-02;  9.9999998E-03; -3.1999999E-01;465;  0.0000000E+00;  0.0000000E+00;  0.0000000E+00;  1.0000139E+03;  4.0000001E-01;  1.1456465E+01;0;  0.0000000E+00;  0.0000000E+00;  0.0000000E+00;0; -1.0828727E-02;  1.0000000E+04;  0.0000000E+00;  0.0000000E+00;  1.0000000E+04;  0.0000000E+00;  1.0000000E+04; -8.3785737E-03;  0.0000000E+00; -2.4501532E-03;  2.7185226E+01;
  3.9999999E-02;  9.9999998E-03; -3.4000000E-01;474;  0.0000000E+00;  0.0000000E+00;  0.0000000E+00;  1.0000119E+03;  4.0000001E-01;  9.8762627E+00;0;  0.0000000E+00;  0.0000000E+00;  0.0000000E+00;0; -9.0951007E-03;  1.0000000E+04;  0.0000000E+00;  0.0000000E+00;  1.0000000E+04;  0.0000000E+00;  1.0000000E+04; -6.0905814E-03;  0.0000000E+00; -3.0045197E-03;  3.4602203E+01;
  3.9999999E-02;  9.9999998E-03; -3.1999999E-01;475;  0.0000000E+00;  0.0000000E+00;  0.0000000E+00;  1.0000170E+03;  4.0000001E-01;  1.4123055E+01;0;  0.0000000E+00;  0.0000000E+00;  0.0000000E+00;0; -1.3025682E-02;  1.0000000E+04;  0.0000000E+00;  0.0000000E+00;  1.0000000E+04;  0.0000000E+00;  1.0000000E+04; -9.9906670E-03;  0.0000000E+00; -3.0350159E-03;  3.4648781E+01;
  5.9999999E-02;  9.9999998E-03; -3.4000000E-01;484;  0.0000000E+00;  0.0000000E+00;  0.0000000E+00;  1.0000144E+03;  4.0000001E-01;  1.1950277E+01;0;  0.0000000E+00;  0.0000000E+00;  0.0000000E+00;0; -1.0709643E-02;  1.0000000E+04;  0.0000000E+00;  0.0000000E+00;  1.0000000E+04;  0.0000000E+00;  1.0000000E+04; -7.1807983E-03;  0.0000000E+00; -3.5288455E-03;  4.2031208E+01;
  5.9999999E-02;  9.9999998E-03; -3.1999999E-01;485;  0.0000000E+00;  0.0000000E+00;  0.0000000E+00;  1.0000204E+03;  4.0000001E-01;  1.6888409E+01;0;  0.0000000E+00;  0.0000000E+00;  0.0000000E+00;0; -1.5261028E-02;  1.0000000E+04;  0.0000000E+00;  0.0000000E+00;  1.0000000E+04;  0.0000000E+00;  1.0000000E+04; -1.1742393E-02;  0.0000000E+00; -3.5186359E-03;  4.1595463E+01;
  7.9999998E-02;  9.9999998E-03; -3.4000000E-01;494;  0.0000000E+00;  0.0000000E+00;  0.0000000E+00;  1.0000173E+03;  4.0000001E-01;  1.4320580E+01;0;  0.0000000E+00;  0.0000000E+00;  0.0000000E+00;0; -1.2573313E-02;  1.0000000E+04;  0.0000000E+00;  0.0000000E+00;  1.0000000E+04;  0.0000000E+00;  1.0000000E+04; -8.5925702E-03;  0.0000000E+00; -3.9807432E-03;  4.9478928E+01;
  7.9999998E-02;  9.9999998E-03; -3.1999999E-01;495;  0.0000000E+00;  0.0000000E+00;  0.0000000E+00;  1.0000247E+03;  4.0000001E-01;  2.0443863E+01;0;  0.0000000E+00;  0.0000000E+00;  0.0000000E+00;0; -1.7875154E-02;  1.0000000E+04;  0.0000000E+00;  0.0000000E+00;  1.0000000E+04;  0.0000000E+00;  1.0000000E+04; -1.3955645E-02;  0.0000000E+00; -3.9195083E-03;  4.8387840E+01;
  1.0000000E-01;  9.9999998E-03; -3.4000000E-01;504;  0.0000000E+00;  0.0000000E+00;  0.0000000E+00;  1.0000214E+03;  4.0000001E-01;  1.7777273E+01;0;  0.0000000E+00;  0.0000000E+00;  0.0000000E+00;0; -1.5112374E-02;  1.0000000E+04;  0.0000000E+00;  0.0000000E+00;  1.0000000E+04;  0.0000000E+00;  1.0000000E+04; -1.0685544E-02;  0.0000000E+00; -4.4268295E-03;  6.0567417E+01;
  1.0000000E-01;  9.9999998E-03; -3.1999999E-01;505;  0.0000000E+00;  0.0000000E+00;  0.0000000E+00;  1.0000304E+03;  4.0000001E-01;  2.5184469E+01;0;  0.0000000E+00;  0.0000000E+00;  0.0000000E+00;0; -2.1419100E-02;  1.0000000E+04;  0.0000000E+00;  0.0000000E+00;  1.0000000E+04;  0.0000000E+00;  1.0000000E+04; -1.7109839E-02;  0.0000000E+00; -4.3092612E-03;  6.0264465E+01;
  1.2000000E-01;  9.9999998E-03; -3.4000000E-01;514;  0.0000000E+00;  0.0000000E+00;  0.0000000E+00;  1.0000277E+03;  4.0000001E-01;  2.2912930E+01;0;  0.0000000E+00;  0.0000000E+00;  0.0000000E+00;0; -1.8932465E-02;  1.0000000E+04;  0.0000000E+00;  0.0000000E+00;  1.0000000E+04;  0.0000000E+00;  1.0000000E+04; -1.3930779E-02;  0.0000000E+00; -5.0016865E-03;  9.5613091E+01;
  1.2000000E-01;  9.9999998E-03; -3.1999999E-01;515;  0.0000000E+00;  0.0000000E+00;  0.0000000E+00;  1.0000388E+03;  4.0000001E-01;  3.2097855E+01;0;  0.0000000E+00;  0.0000000E+00;  0.0000000E+00;0; -2.6631717E-02;  1.0000000E+04;  0.0000000E+00;  0.0000000E+00;  1.0000000E+04;  0.0000000E+00;  1.0000000E+04; -2.1808270E-02;  0.0000000E+00; -4.8234467E-03;  1.1305856E+02;
  1.4000000E-01;  9.9999998E-03; -3.4000000E-01;524;  0.0000000E+00;  0.0000000E+00;  0.0000000E+00;  1.0000374E+03;  4.0000001E-01;  3.0912701E+01;0;  0.0000000E+00;  0.0000000E+00;  0.0000000E+00;0; -2.4839725E-02;  1.0000000E+04;  0.0000000E+00;  0.0000000E+00;  1.0000000E+04;  0.0000000E+00;  1.0000000E+04; -1.8901261E-02;  0.0000000E+00; -5.9384638E-03;  2.0373621E+02;
  1.4000000E-01;  9.9999998E-03; -3.1999999E-01;525;  0.0000000E+00;  0.0000000E+00;  0.0000000E+00;  1.0000514E+03;  4.0000001E-01;  4.2566692E+01;0;  0.0000000E+00;  0.0000000E+00;  0.0000000E+00;0; -3.4423392E-02;  1.0000000E+04;  0.0000000E+00;  0.0000000E+00;  1.0000000E+04;  0.0000000E+00;  1.0000000E+04; -2.8734522E-02;  0.0000000E+00; -5.6888708E-03;  2.8375717E+02;
  1.6000000E-01;  9.9999998E-03; -3.4000000E-01;534;  0.0000000E+00;  0.0000000E+00;  0.0000000E+00;  1.0000517E+03;  4.0000001E-01;  4.2862980E+01;0;  0.0000000E+00;  0.0000000E+00;  0.0000000E+00;0; -3.3654481E-02;  1.0000000E+04;  0.0000000E+00;  0.0000000E+00;  1.0000000E+04;  0.0000000E+00;  1.0000000E+04; -2.6035765E-02;  0.0000000E+00; -7.6187151E-03;  4.4383612E+02;
  1.6000000E-01;  9.9999998E-03; -3.1999999E-01;535;  0.0000000E+00;  0.0000000E+00;  0.0000000E+00;  1.0000698E+03;  4.0000001E-01;  5.7874897E+01;0;  0.0000000E+00;  0.0000000E+00;  0.0000000E+00;0; -4.5670025E-02;  1.0000000E+04;  0.0000000E+00;  0.0000000E+00;  1.0000000E+04;  0.0000000E+00;  1.0000000E+04; -3.8392637E-02;  0.0000000E+00; -7.2773872E-03;  6.6632501E+02;
  1.8000001E-01;  9.9999998E-03; -3.4000000E-01;544;  0.0000000E+00;  0.0000000E+00;  0.0000000E+00;  1.0000718E+03;  4.0000001E-01;  5.9553864E+01;0;  0.0000000E+00;  0.0000000E+00;  0.0000000E+00;0; -4.5573346E-02;  1.0000000E+04;  0.0000000E+00;  0.0000000E+00;  1.0000000E+04;  0.0000000E+00;  1.0000000E+04; -3.4938943E-02;  0.0000000E+00; -1.0634405E-02;  8.4320190E+02;
  1.8000001E-01;  9.9999998E-03; -3.1999999E-01;545;  0.0000000E+00;  0.0000000E+00;  0.0000000E+00;  1.0000950E+03;  4.0000001E-01;  7.8713814E+01;0;  0.0000000E+00;  0.0000000E+00;  0.0000000E+00;0; -6.0613070E-02;  1.0000000E+04;  0.0000000E+00;  0.0000000E+00;  1.0000000E+04;  0.0000000E+00;  1.0000000E+04; -5.0424326E-02;  0.0000000E+00; -1.0188744E-02;  1.3361370E+03;
  2.0000000E-01;  9.9999998E-03; -3.4000000E-01;553;  0.0000000E+00;  0.0000000E+00;  0.0000000E+00;  1.0000968E+03;  4.0000001E-01;  8.0195251E+01;0;  0.0000000E+00;  0.0000000E+00;  0.0000000E+00;0; -5.9905946E-02;  1.0000000E+04;  0.0000000E+00;  0.0000000E+00;  1.0000000E+04;  0.0000000E+00;  1.0000000E+04; -4.4117529E-02;  0.0000000E+00; -1.5788415E-02;  1.3112362E+03;
  2.0000000E-01;  9.9999998E-03; -3.1999999E-01;554;  0.0000000E+00;  0.0000000E+00;  0.0000000E+00;  1.0001262E+03;  4.0000001E-01;  1.0458962E+02;0;  0.0000000E+00;  0.0000000E+00;  0.0000000E+00;0; -7.8511894E-02;  1.0000000E+04;  0.0000000E+00;  0.0000000E+00;  1.0000000E+04;  0.0000000E+00;  1.0000000E+04; -6.3232206E-02;  0.0000000E+00; -1.5279688E-02;  2.2068198E+03;
 -2.2000000E-01;  9.9999998E-03; -1.8000001E-01;10;  0.0000000E+00;  0.0000000E+00;  0.0000000E+00;  1.0000000E+03;  4.0000001E-01;  0.0000000E+00;0;  0.0000000E+00;  0.0000000E+00;  0.0000000E+00;0;  0.0000000E+00;  1.0000000E+04;  0.0000000E+00;  0.0000000E+00;  1.0000000E+04;  0.0000000E+00;  1.0000000E+04;  0.0000000E+00;  0.0000000E+00;  0.0000000E+00;  0.0000000E+00;
 -2.2000000E-01;  9.9999998E-03; -1.6000000E-01;11;  0.0000000E+00;  0.0000000E+00;  0.0000000E+00;  1.0000000E+03;  4.0000001E-01;  0.0000000E+00;0;  0.0000000E+00;  0.0000000E+00;  0.0000000E+00;0;  0.0000000E+00;  1.0000000E+04;  0.0000000E+00;  0.0000000E+00;  1.0000000E+04;  0.0000000E+00;  1.0000000E+04;  0.0000000E+00;  0.0000000E+00;  0.0000000E+00;  0.0000000E+00;
 -2.2000000E-01;  9.9999998E-03; -1.4000000E-01;12;  0.0000000E+00;  0.0000000E+00;  0.0000000E+00;  1.0000000E+03;  4.0000001E-01;  0.0000000E+00;0;  0.0000000E+00;  0.0000000E+00;  0.0000000E+00;0;  0.0000000E+00;  1.0000000E+04;  0.0000000E+00;  0.0000000E+00;  1.0000000E+04;  0.0000000E+00;  1.0000000E+04;  0.0000000E+00;  0.0000000E+00;  0.0000000E+00;  0.0000000E+00;
 -2.2000000E-01;  9.9999998E-03; -1.2000000E-01;13;  0.0000000E+00;  0.0000000E+00;  0.0000000E+00;  1.0000000E+03;  4.0000001E-01;  0.0000000E+00;0;  0.0000000E+00;  0.0000000E+00;  0.0000000E+00;0;  0.0000000E+00;  1.0000000E+04;  0.0000000E+00;  0.0000000E+00;  1.0000000E+04;  0.0000000E+00;  1.0000000E+04;  0.0000000E+00;  0.0000000E+00;  0.0000000E+00;  0.0000000E+00;
 -2.2000000E-01;  9.9999998E-03; -1.0000000E-01;14;  0.0000000E+00;  0.0000000E+00;  0.0000000E+00;  1.0000000E+03;  4.0000001E-01;  0.0000000E+00;0;  0.0000000E+00;  0.0000000E+00;  0.0000000E+00;0;  0.0000000E+00;  1.0000000E+04;  0.0000000E+00;  0.0000000E+00;  1.0000000E+04;  0.0000000E+00;  1.0000000E+04;  0.0000000E+00;  0.0000000E+00;  0.0000000E+00;  0.0000000E+00;
 -2.2000000E-01;  9.9999998E-03; -7.9999998E-02;15;  0.0000000E+00;  0.0000000E+00;  0.0000000E+00;  1.0000000E+03;  4.0000001E-01;  0.0000000E+00;0;  0.0000000E+00;  0.0000000E+00;  0.0000000E+00;0;  0.0000000E+00;  1.0000000E+04;  0.0000000E+00;  0.0000000E+00;  1.0000000E+04;  0.0000000E+00;  1.0000000E+04;  0.0000000E+00;  0.0000000E+00;  0.0000000E+00;  0.0000000E+00;
 -2.2000000E-01;  9.9999998E-03; -5.9999999E-02;16;  0.0000000E+00;  0.0000000E+00;  0.0000000E+00;  1.0000000E+03;  4.0000001E-01;  0.0000000E+00;0;  0.0000000E+00;  0.0000000E+00;  0.0000000E+00;0;  0.0000000E+00;  1.0000000E+04;  0.0000000E+00;  0.0000000E+00;  1.0000000E+04;  0.0000000E+00;  1.0000000E+04;  0.0000000E+00;  0.0000000E+00;  0.0000000E+00;  0.0000000E+00;
 -2.2000000E-01;  9.9999998E-03; -3.9999999E-02;17;  0.0000000E+00;  0.0000000E+00;  0.0000000E+00;  1.0000000E+03;  4.0000001E-01;  0.0000000E+00;0;  0.0000000E+00;  0.0000000E+00;  0.0000000E+00;0;  0.0000000E+00;  1.0000000E+04;  0.0000000E+00;  0.0000000E+00;  1.0000000E+04;  0.0000000E+00;  1.0000000E+04;  0.0000000E+00;  0.0000000E+00;  0.0000000E+00;  0.0000000E+00;
 -2.2000000E-01;  9.9999998E-03; -2.0000000E-02;18;  0.0000000E+00;  0.0000000E+00;  0.0000000E+00;  1.0000000E+03;  4.0000001E-01;  0.0000000E+00;0;  0.0000000E+00;  0.0000000E+00;  0.0000000E+00;0;  0.0000000E+00;  1.0000000E+04;  0.0000000E+00;  0.0000000E+00;  1.0000000E+04;  0.0000000E+00;  1.0000000E+04;  0.0000000E+00;  0.0000000E+00;  0.0000000E+00;  0.0000000E+00;
 -2.0000000E-01;  9.9999998E-03; -1.8000001E-01;50;  0.0000000E+00;  0.0000000E+00;  0.0000000E+00;  1.0000000E+03;  4.0000001E-01;  0.0000000E+00;0;  0.0000000E+00;  0.0000000E+00;  0.0000000E+00;0;  0.0000000E+00;  1.0000000E+04;  0.0000000E+00;  0.0000000E+00;  1.0000000E+04;  0.0000000E+00;  1.0000000E+04;  0.0000000E+00;  0.0000000E+00;  0.0000000E+00;  0.0000000E+00;
 -2.0000000E-01;  9.9999998E-03; -1.6000000E-01;51;  0.0000000E+00;  0.0000000E+00;  0.0000000E+00;  1.0000000E+03;  4.0000001E-01;  0.0000000E+00;0;  0.0000000E+00;  0.0000000E+00;  0.0000000E+00;0;  0.0000000E+00;  1.0000000E+04;  0.0000000E+00;  0.0000000E+00;  1.0000000E+04;  0.0000000E+00;  1.0000000E+04;  0.0000000E+00;  0.0000000E+00;  0.0000000E+00;  0.0000000E+00;
 -2.0000000E-01;  9.9999998E-03; -1.4000000E-01;52;  0.0000000E+00;  0.0000000E+00;  0.0000000E+00;  1.0000000E+03;  4.0000001E-01;  0.0000000E+00;0;  0.0000000E+00;  0.0000000E+00;  0.0000000E+00;0;  0.0000000E+00;  1.0000000E+04;  0.0000000E+00;  0.0000000E+00;  1.0000000E+04;  0.0000000E+00;  1.0000000E+04;  0.0000000E+00;  0.0000000E+00;  0.0000000E+00;  0.0000000E+00;
 -2.0000000E-01;  9.9999998E-03; -1.2000000E-01;53;  0.0000000E+00;  0.0000000E+00;  0.0000000E+00;  1.0000000E+03;  4.0000001E-01;  0.0000000E+00;0;  0.0000000E+00;  0.0000000E+00;  0.0000000E+00;0;  0.0000000E+00;  1.0000000E+04;  0.0000000E+00;  0.0000000E+00;  1.0000000E+04;  0.0000000E+00;  1.0000000E+04;  0.0000000E+00;  0.0000000E+00;  0.0000000E+00;  0.0000000E+00;
 -2.0000000E-01;  9.9999998E-03; -1.0000000E-01;54;  0.0000000E+00;  0.0000000E+00;  0.0000000E+00;  1.0000000E+03;  4.0000001E-01;  0.0000000E+00;0;  0.0000000E+00;  0.0000000E+00;  0.0000000E+00;0;  0.0000000E+00;  1.0000000E+04;  0.0000000E+00;  0.0000000E+00;  1.0000000E+04;  0.0000000E+00;  1.0000000E+04;  0.0000000E+00;  0.0000000E+00;  0.0000000E+00;  0.0000000E+00;
 -2.0000000E-01;  9.9999998E-03; -7.9999998E-02;55;  0.0000000E+00;  0.0000000E+00;  0.0000000E+00;  1.0000000E+03;  4.0000001E-01;  0.0000000E+00;0;  0.0000000E+00;  0.0000000E+00;  0.0000000E+00;0;  0.0000000E+00;  1.0000000E+04;  0.0000000E+00;  0.0000000E+00;  1.0000000E+04;  0.0000000E+00;  1.0000000E+04;  0.0000000E+00;  0.0000000E+00;  0.0000000E+00;  0.0000000E+00;
 -2.0000000E-01;  9.9999998E-03; -5.9999999E-02;56;  0.0000000E+00;  0.0000000E+00;  0.0000000E+00;  1.0000000E+03;  4.0000001E-01;  0.0000000E+00;0;  0.0000000E+00;  0.0000000E+00;  0.0000000E+00;0;  0.0000000E+00;  1.0000000E+04;  0.0000000E+00;  0.0000000E+00;  1.0000000E+04;  0.0000000E+00;  1.0000000E+04;  0.0000000E+00;  0.0000000E+00;  0.0000000E+00;  0.0000000E+00;
 -2.0000000E-01;  9.9999998E-03; -3.9999999E-02;57;  0.0000000E+00;  0.0000000E+00;  0.0000000E+00;  1.0000000E+03;  4.0000001E-01;  0.0000000E+00;0;  0.0000000E+00;  0.0000000E+00;  0.0000000E+00;0;  0.0000000E+00;  1.0000000E+04;  0.0000000E+00;  0.0000000E+00;  1.0000000E+04;  0.0000000E+00;  1.0000000E+04;  0.0000000E+00;  0.0000000E+00;  0.0000000E+00;  0.0000000E+00;
 -2.0000000E-01;  9.9999998E-03; -2.0000000E-02;58;  0.0000000E+00;  0.0000000E+00;  0.0000000E+00;  1.0000000E+03;  4.0000001E-01;  0.0000000E+00;0;  0.0000000E+00;  0.0000000E+00;  0.0000000E+00;0;  0.0000000E+00;  1.0000000E+04;  0.0000000E+00;  0.0000000E+00;  1.0000000E+04;  0.0000000E+00;  1.0000000E+04;  0.0000000E+00;  0.0000000E+00;  0.0000000E+00;  0.0000000E+00;
 -1.8000001E-01;  9.9999998E-03; -1.8000001E-01;91;  0.0000000E+00;  0.0000000E+00;  0.0000000E+00;  1.0000000E+03;  4.0000001E-01;  0.0000000E+00;0;  0.0000000E+00;  0.0000000E+00;  0.0000000E+00;0;  0.0000000E+00;  1.0000000E+04;  0.0000000E+00;  0.0000000E+00;  1.0000000E+04;  0.0000000E+00;  1.0000000E+04;  0.0000000E+00;  0.0000000E+00;  0.0000000E+00;  0.0000000E+00;
 -1.8000001E-01;  9.9999998E-03; -1.6000000E-01;92;  0.0000000E+00;  0.0000000E+00;  0.0000000E+00;  1.0000000E+03;  4.0000001E-01;  0.0000000E+00;0;  0.0000000E+00;  0.0000000E+00;  0.0000000E+00;0;  0.0000000E+00;  1.0000000E+04;  0.0000000E+00;  0.0000000E+00;  1.0000000E+04;  0.0000000E+00;  1.0000000E+04;  0.0000000E+00;  0.0000000E+00;  0.0000000E+00;  0.0000000E+00;
 -1.8000001E-01;  9.9999998E-03; -1.4000000E-01;93;  0.0000000E+00;  0.0000000E+00;  0.0000000E+00;  1.0000000E+03;  4.0000001E-01;  0.0000000E+00;0;  0.0000000E+00;  0.0000000E+00;  0.0000000E+00;0;  0.0000000E+00;  1.0000000E+04;  0.0000000E+00;  0.0000000E+00;  1.0000000E+04;  0.0000000E+00;  1.0000000E+04;  0.0000000E+00;  0.0000000E+00;  0.0000000E+00;  0.0000000E+00;
 -1.8000001E-01;  9.9999998E-03; -1.2000000E-01;94;  0.0000000E+00;  0.0000000E+00;  0.0000000E+00;  1.0000000E+03;  4.0000001E-01;  0.0000000E+00;0;  0.0000000E+00;  0.0000000E+00;  0.0000000E+00;0;  0.0000000E+00;  1.0000000E+04;  0.0000000E+00;  0.0000000E+00;  1.0000000E+04;  0.0000000E+00;  1.0000000E+04;  0.0000000E+00;  0.0000000E+00;  0.0000000E+00;  0.0000000E+00;
 -1.8000001E-01;  9.9999998E-03; -1.0000000E-01;95;  0.0000000E+00;  0.0000000E+00;  0.0000000E+00;  1.0000000E+03;  4.0000001E-01;  0.0000000E+00;0;  0.0000000E+00;  0.0000000E+00;  0.0000000E+00;0;  0.0000000E+00;  1.0000000E+04;  0.0000000E+00;  0.0000000E+00;  1.0000000E+04;  0.0000000E+00;  1.0000000E+04;  0.0000000E+00;  0.0000000E+00;  0.0000000E+00;  0.0000000E+00;
 -1.8000001E-01;  9.9999998E-03; -7.9999998E-02;96;  0.0000000E+00;  0.0000000E+00;  0.0000000E+00;  1.0000000E+03;  4.0000001E-01;  0.0000000E+00;0;  0.0000000E+00;  0.0000000E+00;  0.0000000E+00;0;  0.0000000E+00;  1.0000000E+04;  0.0000000E+00;  0.0000000E+00;  1.0000000E+04;  0.0000000E+00;  1.0000000E+04;  0.0000000E+00;  0.0000000E+00;  0.0000000E+00;  0.0000000E+00;
 -1.8000001E-01;  9.9999998E-03; -5.9999999E-02;97;  0.0000000E+00;  0.0000000E+00;  0.0000000E+00;  1.0000000E+03;  4.0000001E-01;  0.0000000E+00;0;  0.0000000E+00;  0.0000000E+00;  0.0000000E+00;0;  0.0000000E+00;  1.0000000E+04;  0.0000000E+00;  0.0000000E+00;  1.0000000E+04;  0.0000000E+00;  1.0000000E+04;  0.0000000E+00;  0.0000000E+00;  0.0000000E+00;  0.0000000E+00;
 -1.8000001E-01;  9.9999998E-03; -3.9999999E-02;98;  0.0000000E+00;  0.0000000E+00;  0.0000000E+00;  1.0000000E+03;  4.0000001E-01;  0.0000000E+00;0;  0.0000000E+00;  0.0000000E+00;  0.0000000E+00;0;  0.0000000E+00;  1.0000000E+04;  0.0000000E+00;  0.0000000E+00;  1.0000000E+04;  0.0000000E+00;  1.0000000E+04;  0.0000000E+00;  0.0000000E+00;  0.0000000E+00;  0.0000000E+00;
 -1.8000001E-01;  9.9999998E-03; -2.0000000E-02;99;  0.0000000E+00;  0.0000000E+00;  0.0000000E+00;  1.0000000E+03;  4.0000001E-01;  0.0000000E+00;0;  0.0000000E+00;  0.0000000E+00;  0.0000000E+00;0;  0.0000000E+00;  1.0000000E+04;  0.0000000E+00;  0.0000000E+00;  1.0000000E+04;  0.0000000E+00;  1.0000000E+04;  0.0000000E+00;  0.0000000E+00;  0.0000000E+00;  0.0000000E+00;
 -1.6000000E-01;  9.9999998E-03; -1.8000001E-01;132;  0.0000000E+00;  0.0000000E+00;  0.0000000E+00;  1.0000000E+03;  4.0000001E-01;  0.0000000E+00;0;  0.0000000E+00;  0.0000000E+00;  0.0000000E+00;0; -2.6479397E-06;  1.0000000E+04;  0.0000000E+00;  0.0000000E+00;  1.0000000E+04;  0.0000000E+00;  1.0000000E+04; -2.6541281E-06;  0.0000000E+00;  6.1883925E-09;  3.0139505E-04;
 -1.6000000E-01;  9.9999998E-03; -1.6000000E-01;133;  0.0000000E+00;  0.0000000E+00;  0.0000000E+00;  1.0000000E+03;  4.0000001E-01;  0.0000000E+00;0;  0.0000000E+00;  0.0000000E+00;  0.0000000E+00;0; -2.7246199E-06;  1.0000000E+04;  0.0000000E+00;  0.0000000E+00;  1.0000000E+04;  0.0000000E+00;  1.0000000E+04; -2.7300264E-06;  0.0000000E+00;  5.4065299E-09;  3.0077959E-04;
 -1.6000000E-01;  9.9999998E-03; -1.4000000E-01;134;  0.0000000E+00;  0.0000000E+00;  0.0000000E+00;  1.0000000E+03;  4.0000001E-01;  0.0000000E+00;0;  0.0000000E+00;  0.0000000E+00;  0.0000000E+00;0; -2.7701396E-06;  1.0000000E+04;  0.0000000E+00;  0.0000000E+00;  1.0000000E+04;  0.0000000E+00;  1.0000000E+04; -2.7746498E-06;  0.0000000E+00;  4.5100763E-09;  2.9630773E-04;
 -1.6000000E-01;  9.9999998E-03; -1.2000000E-01;135;  0.0000000E+00;  0.0000000E+00;  0.0000000E+00;  1.0000000E+03;  4.0000001E-01;  0.0000000E+00;0;  0.0000000E+00;  0.0000000E+00;  0.0000000E+00;0; -2.7931312E-06;  1.0000000E+04;  0.0000000E+00;  0.0000000E+00;  1.0000000E+04;  0.0000000E+00;  1.0000000E+04; -2.7967806E-06;  0.0000000E+00;  3.6492651E-09;  2.9025631E-04;
 -1.6000000E-01;  9.9999998E-03; -1.0000000E-01;136;  0.0000000E+00;  0.0000000E+00;  0.0000000E+00;  1.0000000E+03;  4.0000001E-01;  0.0000000E+00;0;  0.0000000E+00;  0.0000000E+00;  0.0000000E+00;0; -2.8011718E-06;  1.0000000E+04;  0.0000000E+00;  0.0000000E+00;  1.0000000E+04;  0.0000000E+00;  1.0000000E+04; -2.8040190E-06;  0.0000000E+00;  2.8471310E-09;  2.8349151E-04;
 -1.6000000E-01;  9.9999998E-03; -7.9999998E-02;137;  0.0000000E+00;  0.0000000E+00;  0.0000000E+00;  1.0000000E+03;  4.0000001E-01;  0.0000000E+00;0;  0.0000000E+00;  0.0000000E+00;  0.0000000E+00;0; -2.8003249E-06;  1.0000000E+04;  0.0000000E+00;  0.0000000E+00;  1.0000000E+04;  0.0000000E+00;  1.0000000E+04; -2.8024738E-06;  0.0000000E+00;  2.1489128E-09;  2.7697181E-04;
 -1.6000000E-01;  9.9999998E-03; -5.9999999E-02;138;  0.0000000E+00;  0.0000000E+00;  0.0000000E+00;  1.0000000E+03;  4.0000001E-01;  0.0000000E+00;0;  0.0000000E+00;  0.0000000E+00;  0.0000000E+00;0; -2.7952633E-06;  1.0000000E+04;  0.0000000E+00;  0.0000000E+00;  1.0000000E+04;  0.0000000E+00;  1.0000000E+04; -2.7968463E-06;  0.0000000E+00;  1.5829383E-09;  2.7133941E-04;
 -1.6000000E-01;  9.9999998E-03; -3.9999999E-02;139;  0.0000000E+00;  0.0000000E+00;  0.0000000E+00;  1.0000000E+03;  4.0000001E-01;  0.0000000E+00;0;  0.0000000E+00;  0.0000000E+00;  0.0000000E+00;0; -2.7893943E-06;  1.0000000E+04;  0.0000000E+00;  0.0000000E+00;  1.0000000E+04;  0.0000000E+00;  1.0000000E+04; -2.7905573E-06;  0.0000000E+00;  1.1630373E-09;  2.6698314E-04;
 -1.6000000E-01;  9.9999998E-03; -2.0000000E-02;140;  0.0000000E+00;  0.0000000E+00;  0.0000000E+00;  1.0000000E+03;  4.0000001E-01;  0.0000000E+00;0;  0.0000000E+00;  0.0000000E+00;  0.0000000E+00;0; -2.7849967E-06;  1.0000000E+04;  0.0000000E+00;  0.0000000E+00;  1.0000000E+04;  0.0000000E+00;  1.0000000E+04; -2.7859037E-06;  0.0000000E+00;  9.0692459E-10;  2.6426438E-04;
 -1.4000000E-01;  9.9999998E-03; -1.8000001E-01;173;  0.0000000E+00;  0.0000000E+00;  0.0000000E+00;  1.0000000E+03;  4.0000001E-01;  0.0000000E+00;0;  0.0000000E+00;  0.0000000E+00;  0.0000000E+00;0; -9.6056654E-05;  1.0000000E+04;  0.0000000E+00;  0.0000000E+00;  1.0000000E+04;  0.0000000E+00;  1.0000000E+04; -9.6810079E-05;  0.0000000E+00;  7.5342246E-07;  1.6444176E-02;
 -1.4000000E-01;  9.9999998E-03; -1.6000000E-01;174;  0.0000000E+00;  0.0000000E+00;  0.0000000E+00;  1.0000000E+03;  4.0000001E-01;  0.0000000E+00;0;  0.0000000E+00;  0.0000000E+00;  0.0000000E+00;0; -9.9182056E-05;  1.0000000E+04;  0.0000000E+00;  0.0000000E+00;  1.0000000E+04;  0.0000000E+00;  1.0000000E+04; -9.9853947E-05;  0.0000000E+00;  6.7189302E-07;  1.5930472E-02;
 -1.4000000E-01;  9.9999998E-03; -1.4000000E-01;175;  0.0000000E+00;  0.0000000E+00;  0.0000000E+00;  1.0000000E+03;  4.0000001E-01;  0.0000000E+00;0;  0.0000000E+00;  0.0000000E+00;  0.0000000E+00;0; -1.0116132E-04;  1.0000000E+04;  0.0000000E+00;  0.0000000E+00;  1.0000000E+04;  0.0000000E+00;  1.0000000E+04; -1.0173149E-04;  0.0000000E+00;  5.7016558E-07;  1.5108684E-02;
 -1.4000000E-01;  9.9999998E-03; -1.2000000E-01;176;  0.0000000E+00;  0.0000000E+00;  0.0000000E+00;  1.0000000E+03;  4.0000001E-01;  0.0000000E+00;0;  0.0000000E+00;  0.0000000E+00;  0.0000000E+00;0; -1.0228396E-04;  1.0000000E+04;  0.0000000E+00;  0.0000000E+00;  1.0000000E+04;  0.0000000E+00;  1.0000000E+04; -1.0274923E-04;  0.0000000E+00;  4.6526503E-07;  1.4180238E-02;
 -1.4000000E-01;  9.9999998E-03; -1.0000000E-01;177;  0.0000000E+00;  0.0000000E+00;  0.0000000E+00;  1.0000000E+03;  4.0000001E-01;  0.0000000E+00;0;  0.0000000E+00;  0.0000000E+00;  0.0000000E+00;0; -1.0281233E-04;  1.0000000E+04;  0.0000000E+00;  0.0000000E+00;  1.0000000E+04;  0.0000000E+00;  1.0000000E+04; -1.0317951E-04;  0.0000000E+00;  3.6718302E-07;  1.3270030E-02;
 -1.4000000E-01;  9.9999998E-03; -7.9999998E-02;178;  0.0000000E+00;  0.0000000E+00;  0.0000000E+00;  1.0000000E+03;  4.0000001E-01;  0.0000000E+00;0;  0.0000000E+00;  0.0000000E+00;  0.0000000E+00;0; -1.0296678E-04;  1.0000000E+04;  0.0000000E+00;  0.0000000E+00;  1.0000000E+04;  0.0000000E+00;  1.0000000E+04; -1.0324826E-04;  0.0000000E+00;  2.8147676E-07;  1.2451682E-02;
 -1.4000000E-01;  9.9999998E-03; -5.9999999E-02;179;  0.0000000E+00;  0.0000000E+00;  0.0000000E+00;  1.0000000E+03;  4.0000001E-01;  0.0000000E+00;0;  0.0000000E+00;  0.0000000E+00;  0.0000000E+00;0; -1.0292111E-04;  1.0000000E+04;  0.0000000E+00;  0.0000000E+00;  1.0000000E+04;  0.0000000E+00;  1.0000000E+04; -1.0313253E-04;  0.0000000E+00;  2.1141693E-07;  1.1770487E-02;
 -1.4000000E-01;  9.9999998E-03; -3.9999999E-02;180;  0.0000000E+00;  0.0000000E+00;  0.0000000E+00;  1.0000000E+03;  4.0000001E-01;  0.0000000E+00;0;  0.0000000E+00;  0.0000000E+00;  0.0000000E+00;0; -1.0280263E-04;  1.0000000E+04;  0.0000000E+00;  0.0000000E+00;  1.0000000E+04;  0.0000000E+00;  1.0000000E+04; -1.0296233E-04;  0.0000000E+00;  1.5969903E-07;  1.1261782E-02;
 -1.4000000E-01;  9.9999998E-03; -2.0000000E-02;181;  0.0000000E+00;  0.0000000E+00;  0.0000000E+00;  1.0000000E+03;  4.0000001E-01;  0.0000000E+00;0;  0.0000000E+00;  0.0000000E+00;  0.0000000E+00;0; -1.0269824E-04;  1.0000000E+04;  0.0000000E+00;  0.0000000E+00;  1.0000000E+04;  0.0000000E+00;  1.0000000E+04; -1.0282624E-04;  0.0000000E+00;  1.2799967E-07;  1.0947772E-02;
 -1.2000000E-01;  9.9999998E-03; -1.8000001E-01;214;  0.0000000E+00;  0.0000000E+00;  0.0000000E+00;  1.0000006E+03;  4.0000001E-01;  4.9381313E-01;0;  0.0000000E+00;  0.0000000E+00;  0.0000000E+00;0; -5.2908232E-04;  1.0000000E+04;  0.0000000E+00;  0.0000000E+00;  1.0000000E+04;  0.0000000E+00;  1.0000000E+04; -5.3613534E-04;  0.0000000E+00;  7.0530291E-06;  1.2111121E-01;
 -1.2000000E-01;  9.9999998E-03; -1.6000000E-01;215;  0.0000000E+00;  0.0000000E+00;  0.0000000E+00;  1.0000006E+03;  4.0000001E-01;  4.9381313E-01;0;  0.0000000E+00;  0.0000000E+00;  0.0000000E+00;0; -5.4734573E-04;  1.0000000E+04;  0.0000000E+00;  0.0000000E+00;  1.0000000E+04;  0.0000000E+00;  1.0000000E+04; -5.5373355E-04;  0.0000000E+00;  6.3878510E-06;  1.1627541E-01;
 -1.2000000E-01;  9.9999998E-03; -1.4000000E-01;216;  0.0000000E+00;  0.0000000E+00;  0.0000000E+00;  1.0000006E+03;  4.0000001E-01;  4.9381313E-01;0;  0.0000000E+00;  0.0000000E+00;  0.0000000E+00;0; -5.5930373E-04;  1.0000000E+04;  0.0000000E+00;  0.0000000E+00;  1.0000000E+04;  0.0000000E+00;  1.0000000E+04; -5.6479214E-04;  0.0000000E+00;  5.4884258E-06;  1.0847935E-01;
 -1.2000000E-01;  9.9999998E-03; -1.2000000E-01;217;  0.0000000E+00;  0.0000000E+00;  0.0000000E+00;  1.0000006E+03;  4.0000001E-01;  4.9381313E-01;0;  0.0000000E+00;  0.0000000E+00;  0.0000000E+00;0; -5.6645664E-04;  1.0000000E+04;  0.0000000E+00;  0.0000000E+00;  1.0000000E+04;  0.0000000E+00;  1.0000000E+04; -5.7098089E-04;  0.0000000E+00;  4.5242637E-06;  9.9595465E-02;
 -1.2000000E-01;  9.9999998E-03; -1.0000000E-01;218;  0.0000000E+00;  0.0000000E+00;  0.0000000E+00;  1.0000006E+03;  4.0000001E-01;  4.9381313E-01;0;  0.0000000E+00;  0.0000000E+00;  0.0000000E+00;0; -5.7019643E-04;  1.0000000E+04;  0.0000000E+00;  0.0000000E+00;  1.0000000E+04;  0.0000000E+00;  1.0000000E+04; -5.7380088E-04;  0.0000000E+00;  3.6044667E-06;  9.0865090E-02;
 -1.2000000E-01;  9.9999998E-03; -7.9999998E-02;219;  0.0000000E+00;  0.0000000E+00;  0.0000000E+00;  1.0000006E+03;  4.0000001E-01;  4.9381313E-01;0;  0.0000000E+00;  0.0000000E+00;  0.0000000E+00;0; -5.7171594E-04;  1.0000000E+04;  0.0000000E+00;  0.0000000E+00;  1.0000000E+04;  0.0000000E+00;  1.0000000E+04; -5.7450950E-04;  0.0000000E+00;  2.7935441E-06;  8.3040342E-02;
 -1.2000000E-01;  9.9999998E-03; -5.9999999E-02;220;  0.0000000E+00;  0.0000000E+00;  0.0000000E+00;  1.0000006E+03;  4.0000001E-01;  4.9381313E-01;0;  0.0000000E+00;  0.0000000E+00;  0.0000000E+00;0; -5.7197001E-04;  1.0000000E+04;  0.0000000E+00;  0.0000000E+00;  1.0000000E+04;  0.0000000E+00;  1.0000000E+04; -5.7410030E-04;  0.0000000E+00;  2.1303040E-06;  7.6577455E-02;
 -1.2000000E-01;  9.9999998E-03; -3.9999999E-02;221;  0.0000000E+00;  0.0000000E+00;  0.0000000E+00;  1.0000006E+03;  4.0000001E-01;  4.9381313E-01;0;  0.0000000E+00;  0.0000000E+00;  0.0000000E+00;0; -5.7166989E-04;  1.0000000E+04;  0.0000000E+00;  0.0000000E+00;  1.0000000E+04;  0.0000000E+00;  1.0000000E+04; -5.7330960E-04;  0.0000000E+00;  1.6396992E-06;  7.1768448E-02;
 -1.2000000E-01;  9.9999998E-03; -2.0000000E-02;222;  0.0000000E+00;  0.0000000E+00;  0.0000000E+00;  1.0000006E+03;  4.0000001E-01;  4.9381313E-01;0;  0.0000000E+00;  0.0000000E+00;  0.0000000E+00;0; -5.7130249E-04;  1.0000000E+04;  0.0000000E+00;  0.0000000E+00;  1.0000000E+04;  0.0000000E+00;  1.0000000E+04; -5.7264132E-04;  0.0000000E+00;  1.3388434E-06;  6.8808988E-02;
 -1.0000000E-01;  9.9999998E-03; -1.8000001E-01;255;  0.0000000E+00;  0.0000000E+00;  0.0000000E+00;  1.0000020E+03;  4.0000001E-01;  1.5802020E+00;0;  0.0000000E+00;  0.0000000E+00;  0.0000000E+00;0; -1.6828324E-03;  1.0000000E+04;  0.0000000E+00;  0.0000000E+00;  1.0000000E+04;  0.0000000E+00;  1.0000000E+04; -1.7137495E-03;  0.0000000E+00;  3.0917108E-05;  4.7559875E-01;
 -1.0000000E-01;  9.9999998E-03; -1.6000000E-01;256;  0.0000000E+00;  0.0000000E+00;  0.0000000E+00;  1.0000020E+03;  4.0000001E-01;  1.6789646E+00;0;  0.0000000E+00;  0.0000000E+00;  0.0000000E+00;0; -1.7431121E-03;  1.0000000E+04;  0.0000000E+00;  0.0000000E+00;  1.0000000E+04;  0.0000000E+00;  1.0000000E+04; -1.7718109E-03;  0.0000000E+00;  2.8698802E-05;  4.5978650E-01;
 -1.0000000E-01;  9.9999998E-03; -1.4000000E-01;257;  0.0000000E+00;  0.0000000E+00;  0.0000000E+00;  1.0000021E+03;  4.0000001E-01;  1.6789646E+00;0;  0.0000000E+00;  0.0000000E+00;  0.0000000E+00;0; -1.7832720E-03;  1.0000000E+04;  0.0000000E+00;  0.0000000E+00;  1.0000000E+04;  0.0000000E+00;  1.0000000E+04; -1.8081946E-03;  0.0000000E+00;  2.4922567E-05;  4.2605063E-01;
 -1.0000000E-01;  9.9999998E-03; -1.2000000E-01;258;  0.0000000E+00;  0.0000000E+00;  0.0000000E+00;  1.0000021E+03;  4.0000001E-01;  1.6789646E+00;0;  0.0000000E+00;  0.0000000E+00;  0.0000000E+00;0; -1.8080799E-03;  1.0000000E+04;  0.0000000E+00;  0.0000000E+00;  1.0000000E+04;  0.0000000E+00;  1.0000000E+04; -1.8288054E-03;  0.0000000E+00;  2.0725494E-05;  3.8662377E-01;
 -1.0000000E-01;  9.9999998E-03; -1.0000000E-01;259;  0.0000000E+00;  0.0000000E+00;  0.0000000E+00;  1.0000022E+03;  4.0000001E-01;  1.7777272E+00;0;  0.0000000E+00;  0.0000000E+00;  0.0000000E+00;0; -1.8218021E-03;  1.0000000E+04;  0.0000000E+00;  0.0000000E+00;  1.0000000E+04;  0.0000000E+00;  1.0000000E+04; -1.8384483E-03;  0.0000000E+00;  1.6646240E-05;  3.4741256E-01;
 -1.0000000E-01;  9.9999998E-03; -7.9999998E-02;260;  0.0000000E+00;  0.0000000E+00;  0.0000000E+00;  1.0000022E+03;  4.0000001E-01;  1.7777272E+00;0;  0.0000000E+00;  0.0000000E+00;  0.0000000E+00;0; -1.8281513E-03;  1.0000000E+04;  0.0000000E+00;  0.0000000E+00;  1.0000000E+04;  0.0000000E+00;  1.0000000E+04; -1.8411690E-03;  0.0000000E+00;  1.3017714E-05;  3.1211767E-01;
 -1.0000000E-01;  9.9999998E-03; -5.9999999E-02;261;  0.0000000E+00;  0.0000000E+00;  0.0000000E+00;  1.0000022E+03;  4.0000001E-01;  1.7777272E+00;0;  0.0000000E+00;  0.0000000E+00;  0.0000000E+00;0; -1.8301327E-03;  1.0000000E+04;  0.0000000E+00;  0.0000000E+00;  1.0000000E+04;  0.0000000E+00;  1.0000000E+04; -1.8401715E-03;  0.0000000E+00;  1.0038820E-05;  2.8295371E-01;
 -1.0000000E-01;  9.9999998E-03; -3.9999999E-02;262;  0.0000000E+00;  0.0000000E+00;  0.0000000E+00;  1.0000022E+03;  4.0000001E-01;  1.7777272E+00;0;  0.0000000E+00;  0.0000000E+00;  0.0000000E+00;0; -1.8300079E-03;  1.0000000E+04;  0.0000000E+00;  0.0000000E+00;  1.0000000E+04;  0.0000000E+00;  1.0000000E+04; -1.8378411E-03;  0.0000000E+00;  7.8332905E-06;  2.6128283E-01;
 -1.0000000E-01;  9.9999998E-03; -2.0000000E-02;263;  0.0000000E+00;  0.0000000E+00;  0.0000000E+00;  1.0000022E+03;  4.0000001E-01;  1.7777272E+00;0;  0.0000000E+00;  0.0000000E+00;  0.0000000E+00;0; -1.8293324E-03;  1.0000000E+04;  0.0000000E+00;  0.0000000E+00;  1.0000000E+04;  0.0000000E+00;  1.0000000E+04; -1.8358122E-03;  0.0000000E+00;  6.4797982E-06;  2.4795857E-01;
 -7.9999998E-02;  9.9999998E-03; -1.8000001E-01;296;  0.0000000E+00;  0.0000000E+00;  0.0000000E+00;  1.0000048E+03;  4.0000001E-01;  3.9505050E+00;0;  0.0000000E+00;  0.0000000E+00;  0.0000000E+00;0; -4.0044608E-03;  1.0000000E+04;  0.0000000E+00;  0.0000000E+00;  1.0000000E+04;  0.0000000E+00;  1.0000000E+04; -4.0956195E-03;  0.0000000E+00;  9.1158734E-05;  1.3229433E+00;
 -7.9999998E-02;  9.9999998E-03; -1.6000000E-01;297;  0.0000000E+00;  0.0000000E+00;  0.0000000E+00;  1.0000051E+03;  4.0000001E-01;  4.1480303E+00;0;  0.0000000E+00;  0.0000000E+00;  0.0000000E+00;0; -4.1500865E-03;  1.0000000E+04;  0.0000000E+00;  0.0000000E+00;  1.0000000E+04;  0.0000000E+00;  1.0000000E+04; -4.2367638E-03;  0.0000000E+00;  8.6677050E-05;  1.2946981E+00;
 -7.9999998E-02;  9.9999998E-03; -1.4000000E-01;298;  0.0000000E+00;  0.0000000E+00;  0.0000000E+00;  1.0000051E+03;  4.0000001E-01;  4.1480303E+00;0;  0.0000000E+00;  0.0000000E+00;  0.0000000E+00;0; -4.2481641E-03;  1.0000000E+04;  0.0000000E+00;  0.0000000E+00;  1.0000000E+04;  0.0000000E+00;  1.0000000E+04; -4.3242020E-03;  0.0000000E+00;  7.6037875E-05;  1.1979761E+00;
 -7.9999998E-02;  9.9999998E-03; -1.2000000E-01;299;  0.0000000E+00;  0.0000000E+00;  0.0000000E+00;  1.0000053E+03;  4.0000001E-01;  4.4443183E+00;0;  0.0000000E+00;  0.0000000E+00;  0.0000000E+00;0; -4.3098996E-03;  1.0000000E+04;  0.0000000E+00;  0.0000000E+00;  1.0000000E+04;  0.0000000E+00;  1.0000000E+04; -4.3736054E-03;  0.0000000E+00;  6.3705666E-05;  1.0805323E+00;
 -7.9999998E-02;  9.9999998E-03; -1.0000000E-01;300;  0.0000000E+00;  0.0000000E+00;  0.0000000E+00;  1.0000054E+03;  4.0000001E-01;  4.4443183E+00;0;  0.0000000E+00;  0.0000000E+00;  0.0000000E+00;0; -4.3451381E-03;  1.0000000E+04;  0.0000000E+00;  0.0000000E+00;  1.0000000E+04;  0.0000000E+00;  1.0000000E+04; -4.3966514E-03;  0.0000000E+00;  5.1513118E-05;  9.6214849E-01;
 -7.9999998E-02;  9.9999998E-03; -7.9999998E-02;301;  0.0000000E+00;  0.0000000E+00;  0.0000000E+00;  1.0000054E+03;  4.0000001E-01;  4.4443183E+00;0;  0.0000000E+00;  0.0000000E+00;  0.0000000E+00;0; -4.3625059E-03;  1.0000000E+04;  0.0000000E+00;  0.0000000E+00;  1.0000000E+04;  0.0000000E+00;  1.0000000E+04; -4.4030761E-03;  0.0000000E+00;  4.0570463E-05;  8.5489589E-01;
 -7.9999998E-02;  9.9999998E-03; -5.9999999E-02;302;  0.0000000E+00;  0.0000000E+00;  0.0000000E+00;  1.0000054E+03;  4.0000001E-01;  4.4443183E+00;0;  0.0000000E+00;  0.0000000E+00;  0.0000000E+00;0; -4.3690260E-03;  1.0000000E+04;  0.0000000E+00;  0.0000000E+00;  1.0000000E+04;  0.0000000E+00;  1.0000000E+04; -4.4005760E-03;  0.0000000E+00;  3.1549916E-05;  7.6606876E-01;
 -7.9999998E-02;  9.9999998E-03; -3.9999999E-02;303;  0.0000000E+00;  0.0000000E+00;  0.0000000E+00;  1.0000054E+03;  4.0000001E-01;  4.5430808E+00;0;  0.0000000E+00;  0.0000000E+00;  0.0000000E+00;0; -4.3700403E-03;  1.0000000E+04;  0.0000000E+00;  0.0000000E+00;  1.0000000E+04;  0.0000000E+00;  1.0000000E+04; -4.3949005E-03;  0.0000000E+00;  2.4860039E-05;  7.0003897E-01;
 -7.9999998E-02;  9.9999998E-03; -2.0000000E-02;304;  0.0000000E+00;  0.0000000E+00;  0.0000000E+00;  1.0000054E+03;  4.0000001E-01;  4.5430808E+00;0;  0.0000000E+00;  0.0000000E+00;  0.0000000E+00;0; -4.3692230E-03;  1.0000000E+04;  0.0000000E+00;  0.0000000E+00;  1.0000000E+04;  0.0000000E+00;  1.0000000E+04; -4.3899752E-03;  0.0000000E+00;  2.0752132E-05;  6.5944952E-01;
 -5.9999999E-02;  9.9999998E-03; -1.8000001E-01;337;  0.0000000E+00;  0.0000000E+00;  0.0000000E+00;  1.0000095E+03;  4.0000001E-01;  7.8022475E+00;0;  0.0000000E+00;  0.0000000E+00;  0.0000000E+00;0; -7.7864705E-03;  1.0000000E+04;  0.0000000E+00;  0.0000000E+00;  1.0000000E+04;  0.0000000E+00;  1.0000000E+04; -7.9971189E-03;  0.0000000E+00;  2.1064852E-04;  2.9442897E+00;
 -5.9999999E-02;  9.9999998E-03; -1.6000000E-01;338;  0.0000000E+00;  0.0000000E+00;  0.0000000E+00;  1.0000099E+03;  4.0000001E-01;  8.1972980E+00;0;  0.0000000E+00;  0.0000000E+00;  0.0000000E+00;0; -8.0674170E-03;  1.0000000E+04;  0.0000000E+00;  0.0000000E+00;  1.0000000E+04;  0.0000000E+00;  1.0000000E+04; -8.2699303E-03;  0.0000000E+00;  2.0251350E-04;  2.8963196E+00;
 -5.9999999E-02;  9.9999998E-03; -1.4000000E-01;339;  0.0000000E+00;  0.0000000E+00;  0.0000000E+00;  1.0000101E+03;  4.0000001E-01;  8.3948231E+00;0;  0.0000000E+00;  0.0000000E+00;  0.0000000E+00;0; -8.2585225E-03;  1.0000000E+04;  0.0000000E+00;  0.0000000E+00;  1.0000000E+04;  0.0000000E+00;  1.0000000E+04; -8.4379595E-03;  0.0000000E+00;  1.7943697E-04;  2.6836910E+00;
 -5.9999999E-02;  9.9999998E-03; -1.2000000E-01;340;  0.0000000E+00;  0.0000000E+00;  0.0000000E+00;  1.0000104E+03;  4.0000001E-01;  8.5923481E+00;0;  0.0000000E+00;  0.0000000E+00;  0.0000000E+00;0; -8.3800824E-03;  1.0000000E+04;  0.0000000E+00;  0.0000000E+00;  1.0000000E+04;  0.0000000E+00;  1.0000000E+04; -8.5313227E-03;  0.0000000E+00;  1.5124008E-04;  2.4116559E+00;
 -5.9999999E-02;  9.9999998E-03; -1.0000000E-01;341;  0.0000000E+00;  0.0000000E+00;  0.0000000E+00;  1.0000104E+03;  4.0000001E-01;  8.6911106E+00;0;  0.0000000E+00;  0.0000000E+00;  0.0000000E+00;0; -8.4506115E-03;  1.0000000E+04;  0.0000000E+00;  0.0000000E+00;  1.0000000E+04;  0.0000000E+00;  1.0000000E+04; -8.5735656E-03;  0.0000000E+00;  1.2295437E-04;  2.1342025E+00;
 -5.9999999E-02;  9.9999998E-03; -7.9999998E-02;342;  0.0000000E+00;  0.0000000E+00;  0.0000000E+00;  1.0000104E+03;  4.0000001E-01;  8.6911106E+00;0;  0.0000000E+00;  0.0000000E+00;  0.0000000E+00;0; -8.4864553E-03;  1.0000000E+04;  0.0000000E+00;  0.0000000E+00;  1.0000000E+04;  0.0000000E+00;  1.0000000E+04; -8.5838167E-03;  0.0000000E+00;  9.7361444E-05;  1.8812644E+00;
 -5.9999999E-02;  9.9999998E-03; -5.9999999E-02;343;  0.0000000E+00;  0.0000000E+00;  0.0000000E+00;  1.0000105E+03;  4.0000001E-01;  8.6911106E+00;0;  0.0000000E+00;  0.0000000E+00;  0.0000000E+00;0; -8.5009858E-03;  1.0000000E+04;  0.0000000E+00;  0.0000000E+00;  1.0000000E+04;  0.0000000E+00;  1.0000000E+04; -8.5771624E-03;  0.0000000E+00;  7.6176839E-05;  1.6711937E+00;
 -5.9999999E-02;  9.9999998E-03; -3.9999999E-02;344;  0.0000000E+00;  0.0000000E+00;  0.0000000E+00;  1.0000105E+03;  4.0000001E-01;  8.6911106E+00;0;  0.0000000E+00;  0.0000000E+00;  0.0000000E+00;0; -8.5043833E-03;  1.0000000E+04;  0.0000000E+00;  0.0000000E+00;  1.0000000E+04;  0.0000000E+00;  1.0000000E+04; -8.5648196E-03;  0.0000000E+00;  6.0435908E-05;  1.5148895E+00;
 -5.9999999E-02;  9.9999998E-03; -2.0000000E-02;345;  0.0000000E+00;  0.0000000E+00;  0.0000000E+00;  1.0000105E+03;  4.0000001E-01;  8.6911106E+00;0;  0.0000000E+00;  0.0000000E+00;  0.0000000E+00;0; -8.5036932E-03;  1.0000000E+04;  0.0000000E+00;  0.0000000E+00;  1.0000000E+04;  0.0000000E+00;  1.0000000E+04; -8.5544568E-03;  0.0000000E+00;  5.0763203E-05;  1.4187915E+00;
 -3.9999999E-02;  9.9999998E-03; -1.8000001E-01;378;  0.0000000E+00;  0.0000000E+00;  0.0000000E+00;  1.0000158E+03;  4.0000001E-01;  1.3135429E+01;0;  0.0000000E+00;  0.0000000E+00;  0.0000000E+00;0; -1.2920977E-02;  1.0000000E+04;  0.0000000E+00;  0.0000000E+00;  1.0000000E+04;  0.0000000E+00;  1.0000000E+04; -1.3329281E-02;  0.0000000E+00;  4.0830518E-04;  5.5576210E+00;
 -3.9999999E-02;  9.9999998E-03; -1.6000000E-01;379;  0.0000000E+00;  0.0000000E+00;  0.0000000E+00;  1.0000165E+03;  4.0000001E-01;  1.3728004E+01;0;  0.0000000E+00;  0.0000000E+00;  0.0000000E+00;0; -1.3374873E-02;  1.0000000E+04;  0.0000000E+00;  0.0000000E+00;  1.0000000E+04;  0.0000000E+00;  1.0000000E+04; -1.3768965E-02;  0.0000000E+00;  3.9409331E-04;  5.4704466E+00;
 -3.9999999E-02;  9.9999998E-03; -1.4000000E-01;380;  0.0000000E+00;  0.0000000E+00;  0.0000000E+00;  1.0000168E+03;  4.0000001E-01;  1.3925530E+01;0;  0.0000000E+00;  0.0000000E+00;  0.0000000E+00;0; -1.3685637E-02;  1.0000000E+04;  0.0000000E+00;  0.0000000E+00;  1.0000000E+04;  0.0000000E+00;  1.0000000E+04; -1.4036965E-02;  0.0000000E+00;  3.5132768E-04;  5.0692620E+00;
 -3.9999999E-02;  9.9999998E-03; -1.2000000E-01;381;  0.0000000E+00;  0.0000000E+00;  0.0000000E+00;  1.0000172E+03;  4.0000001E-01;  1.4221818E+01;0;  0.0000000E+00;  0.0000000E+00;  0.0000000E+00;0; -1.3884260E-02;  1.0000000E+04;  0.0000000E+00;  0.0000000E+00;  1.0000000E+04;  0.0000000E+00;  1.0000000E+04; -1.4181693E-02;  0.0000000E+00;  2.9743309E-04;  4.5418386E+00;
 -3.9999999E-02;  9.9999998E-03; -1.0000000E-01;382;  0.0000000E+00;  0.0000000E+00;  0.0000000E+00;  1.0000174E+03;  4.0000001E-01;  1.4419343E+01;0;  0.0000000E+00;  0.0000000E+00;  0.0000000E+00;0; -1.4000161E-02;  1.0000000E+04;  0.0000000E+00;  0.0000000E+00;  1.0000000E+04;  0.0000000E+00;  1.0000000E+04; -1.4242915E-02;  0.0000000E+00;  2.4275457E-04;  3.9992638E+00;
 -3.9999999E-02;  9.9999998E-03; -7.9999998E-02;383;  0.0000000E+00;  0.0000000E+00;  0.0000000E+00;  1.0000175E+03;  4.0000001E-01;  1.4518106E+01;0;  0.0000000E+00;  0.0000000E+00;  0.0000000E+00;0; -1.4059693E-02;  1.0000000E+04;  0.0000000E+00;  0.0000000E+00;  1.0000000E+04;  0.0000000E+00;  1.0000000E+04; -1.4252646E-02;  0.0000000E+00;  1.9295374E-04;  3.5022399E+00;
 -3.9999999E-02;  9.9999998E-03; -5.9999999E-02;384;  0.0000000E+00;  0.0000000E+00;  0.0000000E+00;  1.0000175E+03;  4.0000001E-01;  1.4518106E+01;0;  0.0000000E+00;  0.0000000E+00;  0.0000000E+00;0; -1.4084431E-02;  1.0000000E+04;  0.0000000E+00;  0.0000000E+00;  1.0000000E+04;  0.0000000E+00;  1.0000000E+04; -1.4236013E-02;  0.0000000E+00;  1.5158190E-04;  3.0884683E+00;
 -3.9999999E-02;  9.9999998E-03; -3.9999999E-02;385;  0.0000000E+00;  0.0000000E+00;  0.0000000E+00;  1.0000175E+03;  4.0000001E-01;  1.4518106E+01;0;  0.0000000E+00;  0.0000000E+00;  0.0000000E+00;0; -1.4090821E-02;  1.0000000E+04;  0.0000000E+00;  0.0000000E+00;  1.0000000E+04;  0.0000000E+00;  1.0000000E+04; -1.4211607E-02;  0.0000000E+00;  1.2078560E-04;  2.7803080E+00;
 -3.9999999E-02;  9.9999998E-03; -2.0000000E-02;386;  0.0000000E+00;  0.0000000E+00;  0.0000000E+00;  1.0000176E+03;  4.0000001E-01;  1.4518106E+01;0;  0.0000000E+00;  0.0000000E+00;  0.0000000E+00;0; -1.4090247E-02;  1.0000000E+04;  0.0000000E+00;  0.0000000E+00;  1.0000000E+04;  0.0000000E+00;  1.0000000E+04; -1.4192093E-02;  0.0000000E+00;  1.0184680E-04;  2.5908029E+00;
 -2.0000000E-02;  9.9999998E-03; -1.8000001E-01;419;  0.0000000E+00;  0.0000000E+00;  0.0000000E+00;  1.0000234E+03;  4.0000001E-01;  1.9456238E+01;0;  0.0000000E+00;  0.0000000E+00;  0.0000000E+00;0; -1.8785477E-02;  1.0000000E+04;  0.0000000E+00;  0.0000000E+00;  1.0000000E+04;  0.0000000E+00;  1.0000000E+04; -1.9472741E-02;  0.0000000E+00;  6.8726478E-04;  9.1862478E+00;
 -2.0000000E-02;  9.9999998E-03; -1.6000000E-01;420;  0.0000000E+00;  0.0000000E+00;  0.0000000E+00;  1.0000241E+03;  4.0000001E-01;  1.9950050E+01;0;  0.0000000E+00;  0.0000000E+00;  0.0000000E+00;0; -1.9416269E-02;  1.0000000E+04;  0.0000000E+00;  0.0000000E+00;  1.0000000E+04;  0.0000000E+00;  1.0000000E+04; -2.0079779E-02;  0.0000000E+00;  6.6351023E-04;  9.0244131E+00;
 -2.0000000E-02;  9.9999998E-03; -1.4000000E-01;421;  0.0000000E+00;  0.0000000E+00;  0.0000000E+00;  1.0000245E+03;  4.0000001E-01;  2.0345100E+01;0;  0.0000000E+00;  0.0000000E+00;  0.0000000E+00;0; -1.9848926E-02;  1.0000000E+04;  0.0000000E+00;  0.0000000E+00;  1.0000000E+04;  0.0000000E+00;  1.0000000E+04; -2.0441951E-02;  0.0000000E+00;  5.9302512E-04;  8.3474827E+00;
 -2.0000000E-02;  9.9999998E-03; -1.2000000E-01;422;  0.0000000E+00;  0.0000000E+00;  0.0000000E+00;  1.0000250E+03;  4.0000001E-01;  2.0641388E+01;0;  0.0000000E+00;  0.0000000E+00;  0.0000000E+00;0; -2.0125015E-02;  1.0000000E+04;  0.0000000E+00;  0.0000000E+00;  1.0000000E+04;  0.0000000E+00;  1.0000000E+04; -2.0628598E-02;  0.0000000E+00;  5.0358300E-04;  7.4574780E+00;
 -2.0000000E-02;  9.9999998E-03; -1.0000000E-01;423;  0.0000000E+00;  0.0000000E+00;  0.0000000E+00;  1.0000253E+03;  4.0000001E-01;  2.0937675E+01;0;  0.0000000E+00;  0.0000000E+00;  0.0000000E+00;0; -2.0285459E-02;  1.0000000E+04;  0.0000000E+00;  0.0000000E+00;  1.0000000E+04;  0.0000000E+00;  1.0000000E+04; -2.0697534E-02;  0.0000000E+00;  4.1207572E-04;  6.5368085E+00;
 -2.0000000E-02;  9.9999998E-03; -7.9999998E-02;424;  0.0000000E+00;  0.0000000E+00;  0.0000000E+00;  1.0000254E+03;  4.0000001E-01;  2.1036438E+01;0;  0.0000000E+00;  0.0000000E+00;  0.0000000E+00;0; -2.0367308E-02;  1.0000000E+04;  0.0000000E+00;  0.0000000E+00;  1.0000000E+04;  0.0000000E+00;  1.0000000E+04; -2.0695625E-02;  0.0000000E+00;  3.2831734E-04;  5.6908054E+00;
 -2.0000000E-02;  9.9999998E-03; -5.9999999E-02;425;  0.0000000E+00;  0.0000000E+00;  0.0000000E+00;  1.0000255E+03;  4.0000001E-01;  2.1135202E+01;0;  0.0000000E+00;  0.0000000E+00;  0.0000000E+00;0; -2.0400807E-02;  1.0000000E+04;  0.0000000E+00;  0.0000000E+00;  1.0000000E+04;  0.0000000E+00;  1.0000000E+04; -2.0659339E-02;  0.0000000E+00;  2.5853197E-04;  4.9853287E+00;
 -2.0000000E-02;  9.9999998E-03; -3.9999999E-02;426;  0.0000000E+00;  0.0000000E+00;  0.0000000E+00;  1.0000255E+03;  4.0000001E-01;  2.1135202E+01;0;  0.0000000E+00;  0.0000000E+00;  0.0000000E+00;0; -2.0408971E-02;  1.0000000E+04;  0.0000000E+00;  0.0000000E+00;  1.0000000E+04;  0.0000000E+00;  1.0000000E+04; -2.0615477E-02;  0.0000000E+00;  2.0650614E-04;  4.4595575E+00;
 -2.0000000E-02;  9.9999998E-03; -2.0000000E-02;427;  0.0000000E+00;  0.0000000E+00;  0.0000000E+00;  1.0000256E+03;  4.0000001E-01;  2.1233965E+01;0;  0.0000000E+00;  0.0000000E+00;  0.0000000E+00;0; -2.0407684E-02;  1.0000000E+04;  0.0000000E+00;  0.0000000E+00;  1.0000000E+04;  0.0000000E+00;  1.0000000E+04; -2.0582173E-02;  0.0000000E+00;  1.7448937E-04;  4.1361842E+00;
 -2.2000000E-01;  9.9999998E-03;  0.0000000E+00;19;  0.0000000E+00;  0.0000000E+00;  0.0000000E+00;  1.0000000E+03;  4.0000001E-01;  0.0000000E+00;0;  0.0000000E+00;  0.0000000E+00;  0.0000000E+00;0;  0.0000000E+00;  1.0000000E+04;  0.0000000E+00;  0.0000000E+00;  1.0000000E+04;  0.0000000E+00;  1.0000000E+04;  0.0000000E+00;  0.0000000E+00;  0.0000000E+00;  0.0000000E+00;
 -2.2000000E-01;  9.9999998E-03;  2.0000000E-02;20;  0.0000000E+00;  0.0000000E+00;  0.0000000E+00;  1.0000000E+03;  4.0000001E-01;  0.0000000E+00;0;  0.0000000E+00;  0.0000000E+00;  0.0000000E+00;0;  0.0000000E+00;  1.0000000E+04;  0.0000000E+00;  0.0000000E+00;  1.0000000E+04;  0.0000000E+00;  1.0000000E+04;  0.0000000E+00;  0.0000000E+00;  0.0000000E+00;  0.0000000E+00;
 -2.2000000E-01;  9.9999998E-03;  3.9999999E-02;21;  0.0000000E+00;  0.0000000E+00;  0.0000000E+00;  1.0000000E+03;  4.0000001E-01;  0.0000000E+00;0;  0.0000000E+00;  0.0000000E+00;  0.0000000E+00;0;  0.0000000E+00;  1.0000000E+04;  0.0000000E+00;  0.0000000E+00;  1.0000000E+04;  0.0000000E+00;  1.0000000E+04;  0.0000000E+00;  0.0000000E+00;  0.0000000E+00;  0.0000000E+00;
 -2.2000000E-01;  9.9999998E-03;  5.9999999E-02;22;  0.0000000E+00;  0.0000000E+00;  0.0000000E+00;  1.0000000E+03;  4.0000001E-01;  0.0000000E+00;0;  0.0000000E+00;  0.0000000E+00;  0.0000000E+00;0;  0.0000000E+00;  1.0000000E+04;  0.0000000E+00;  0.0000000E+00;  1.0000000E+04;  0.0000000E+00;  1.0000000E+04;  0.0000000E+00;  0.0000000E+00;  0.0000000E+00;  0.0000000E+00;
 -2.2000000E-01;  9.9999998E-03;  7.9999998E-02;23;  0.0000000E+00;  0.0000000E+00;  0.0000000E+00;  1.0000000E+03;  4.0000001E-01;  0.0000000E+00;0;  0.0000000E+00;  0.0000000E+00;  0.0000000E+00;0;  0.0000000E+00;  1.0000000E+04;  0.0000000E+00;  0.0000000E+00;  1.0000000E+04;  0.0000000E+00;  1.0000000E+04;  0.0000000E+00;  0.0000000E+00;  0.0000000E+00;  0.0000000E+00;
 -2.2000000E-01;  9.9999998E-03;  1.0000000E-01;24;  0.0000000E+00;  0.0000000E+00;  0.0000000E+00;  1.0000000E+03;  4.0000001E-01;  0.0000000E+00;0;  0.0000000E+00;  0.0000000E+00;  0.0000000E+00;0;  0.0000000E+00;  1.0000000E+04;  0.0000000E+00;  0.0000000E+00;  1.0000000E+04;  0.0000000E+00;  1.0000000E+04;  0.0000000E+00;  0.0000000E+00;  0.0000000E+00;  0.0000000E+00;
 -2.2000000E-01;  9.9999998E-03;  1.2000000E-01;25;  0.0000000E+00;  0.0000000E+00;  0.0000000E+00;  1.0000000E+03;  4.0000001E-01;  0.0000000E+00;0;  0.0000000E+00;  0.0000000E+00;  0.0000000E+00;0;  0.0000000E+00;  1.0000000E+04;  0.0000000E+00;  0.0000000E+00;  1.0000000E+04;  0.0000000E+00;  1.0000000E+04;  0.0000000E+00;  0.0000000E+00;  0.0000000E+00;  0.0000000E+00;
 -2.2000000E-01;  9.9999998E-03;  1.4000000E-01;26;  0.0000000E+00;  0.0000000E+00;  0.0000000E+00;  1.0000000E+03;  4.0000001E-01;  0.0000000E+00;0;  0.0000000E+00;  0.0000000E+00;  0.0000000E+00;0;  0.0000000E+00;  1.0000000E+04;  0.0000000E+00;  0.0000000E+00;  1.0000000E+04;  0.0000000E+00;  1.0000000E+04;  0.0000000E+00;  0.0000000E+00;  0.0000000E+00;  0.0000000E+00;
 -2.0000000E-01;  9.9999998E-03;  0.0000000E+00;59;  0.0000000E+00;  0.0000000E+00;  0.0000000E+00;  1.0000000E+03;  4.0000001E-01;  0.0000000E+00;0;  0.0000000E+00;  0.0000000E+00;  0.0000000E+00;0;  0.0000000E+00;  1.0000000E+04;  0.0000000E+00;  0.0000000E+00;  1.0000000E+04;  0.0000000E+00;  1.0000000E+04;  0.0000000E+00;  0.0000000E+00;  0.0000000E+00;  0.0000000E+00;
 -2.0000000E-01;  9.9999998E-03;  2.0000000E-02;60;  0.0000000E+00;  0.0000000E+00;  0.0000000E+00;  1.0000000E+03;  4.0000001E-01;  0.0000000E+00;0;  0.0000000E+00;  0.0000000E+00;  0.0000000E+00;0;  0.0000000E+00;  1.0000000E+04;  0.0000000E+00;  0.0000000E+00;  1.0000000E+04;  0.0000000E+00;  1.0000000E+04;  0.0000000E+00;  0.0000000E+00;  0.0000000E+00;  0.0000000E+00;
 -2.0000000E-01;  9.9999998E-03;  3.9999999E-02;61;  0.0000000E+00;  0.0000000E+00;  0.0000000E+00;  1.0000000E+03;  4.0000001E-01;  0.0000000E+00;0;  0.0000000E+00;  0.0000000E+00;  0.0000000E+00;0;  0.0000000E+00;  1.0000000E+04;  0.0000000E+00;  0.0000000E+00;  1.0000000E+04;  0.0000000E+00;  1.0000000E+04;  0.0000000E+00;  0.0000000E+00;  0.0000000E+00;  0.0000000E+00;
 -2.0000000E-01;  9.9999998E-03;  5.9999999E-02;62;  0.0000000E+00;  0.0000000E+00;  0.0000000E+00;  1.0000000E+03;  4.0000001E-01;  0.0000000E+00;0;  0.0000000E+00;  0.0000000E+00;  0.0000000E+00;0;  0.0000000E+00;  1.0000000E+04;  0.0000000E+00;  0.0000000E+00;  1.0000000E+04;  0.0000000E+00;  1.0000000E+04;  0.0000000E+00;  0.0000000E+00;  0.0000000E+00;  0.0000000E+00;
 -2.0000000E-01;  9.9999998E-03;  7.9999998E-02;63;  0.0000000E+00;  0.0000000E+00;  0.0000000E+00;  1.0000000E+03;  4.0000001E-01;  0.0000000E+00;0;  0.0000000E+00;  0.0000000E+00;  0.0000000E+00;0;  0.0000000E+00;  1.0000000E+04;  0.0000000E+00;  0.0000000E+00;  1.0000000E+04;  0.0000000E+00;  1.0000000E+04;  0.0000000E+00;  0.0000000E+00;  0.0000000E+00;  0.0000000E+00;
 -2.0000000E-01;  9.9999998E-03;  1.0000000E-01;64;  0.0000000E+00;  0.0000000E+00;  0.0000000E+00;  1.0000000E+03;  4.0000001E-01;  0.0000000E+00;0;  0.0000000E+00;  0.0000000E+00;  0.0000000E+00;0;  0.0000000E+00;  1.0000000E+04;  0.0000000E+00;  0.0000000E+00;  1.0000000E+04;  0.0000000E+00;  1.0000000E+04;  0.0000000E+00;  0.0000000E+00;  0.0000000E+00;  0.0000000E+00;
 -2.0000000E-01;  9.9999998E-03;  1.2000000E-01;65;  0.0000000E+00;  0.0000000E+00;  0.0000000E+00;  1.0000000E+03;  4.0000001E-01;  0.0000000E+00;0;  0.0000000E+00;  0.0000000E+00;  0.0000000E+00;0;  0.0000000E+00;  1.0000000E+04;  0.0000000E+00;  0.0000000E+00;  1.0000000E+04;  0.0000000E+00;  1.0000000E+04;  0.0000000E+00;  0.0000000E+00;  0.0000000E+00;  0.0000000E+00;
 -2.0000000E-01;  9.9999998E-03;  1.4000000E-01;66;  0.0000000E+00;  0.0000000E+00;  0.0000000E+00;  1.0000000E+03;  4.0000001E-01;  0.0000000E+00;0;  0.0000000E+00;  0.0000000E+00;  0.0000000E+00;0;  0.0000000E+00;  1.0000000E+04;  0.0000000E+00;  0.0000000E+00;  1.0000000E+04;  0.0000000E+00;  1.0000000E+04;  0.0000000E+00;  0.0000000E+00;  0.0000000E+00;  0.0000000E+00;
 -1.8000001E-01;  9.9999998E-03;  0.0000000E+00;100;  0.0000000E+00;  0.0000000E+00;  0.0000000E+00;  1.0000000E+03;  4.0000001E-01;  0.0000000E+00;0;  0.0000000E+00;  0.0000000E+00;  0.0000000E+00;0;  0.0000000E+00;  1.0000000E+04;  0.0000000E+00;  0.0000000E+00;  1.0000000E+04;  0.0000000E+00;  1.0000000E+04;  0.0000000E+00;  0.0000000E+00;  0.0000000E+00;  0.0000000E+00;
 -1.8000001E-01;  9.9999998E-03;  2.0000000E-02;101;  0.0000000E+00;  0.0000000E+00;  0.0000000E+00;  1.0000000E+03;  4.0000001E-01;  0.0000000E+00;0;  0.0000000E+00;  0.0000000E+00;  0.0000000E+00;0;  0.0000000E+00;  1.0000000E+04;  0.0000000E+00;  0.0000000E+00;  1.0000000E+04;  0.0000000E+00;  1.0000000E+04;  0.0000000E+00;  0.0000000E+00;  0.0000000E+00;  0.0000000E+00;
 -1.8000001E-01;  9.9999998E-03;  3.9999999E-02;102;  0.0000000E+00;  0.0000000E+00;  0.0000000E+00;  1.0000000E+03;  4.0000001E-01;  0.0000000E+00;0;  0.0000000E+00;  0.0000000E+00;  0.0000000E+00;0;  0.0000000E+00;  1.0000000E+04;  0.0000000E+00;  0.0000000E+00;  1.0000000E+04;  0.0000000E+00;  1.0000000E+04;  0.0000000E+00;  0.0000000E+00;  0.0000000E+00;  0.0000000E+00;
 -1.8000001E-01;  9.9999998E-03;  5.9999999E-02;103;  0.0000000E+00;  0.0000000E+00;  0.0000000E+00;  1.0000000E+03;  4.0000001E-01;  0.0000000E+00;0;  0.0000000E+00;  0.0000000E+00;  0.0000000E+00;0;  0.0000000E+00;  1.0000000E+04;  0.0000000E+00;  0.0000000E+00;  1.0000000E+04;  0.0000000E+00;  1.0000000E+04;  0.0000000E+00;  0.0000000E+00;  0.0000000E+00;  0.0000000E+00;
 -1.8000001E-01;  9.9999998E-03;  7.9999998E-02;104;  0.0000000E+00;  0.0000000E+00;  0.0000000E+00;  1.0000000E+03;  4.0000001E-01;  0.0000000E+00;0;  0.0000000E+00;  0.0000000E+00;  0.0000000E+00;0;  0.0000000E+00;  1.0000000E+04;  0.0000000E+00;  0.0000000E+00;  1.0000000E+04;  0.0000000E+00;  1.0000000E+04;  0.0000000E+00;  0.0000000E+00;  0.0000000E+00;  0.0000000E+00;
 -1.8000001E-01;  9.9999998E-03;  1.0000000E-01;105;  0.0000000E+00;  0.0000000E+00;  0.0000000E+00;  1.0000000E+03;  4.0000001E-01;  0.0000000E+00;0;  0.0000000E+00;  0.0000000E+00;  0.0000000E+00;0;  0.0000000E+00;  1.0000000E+04;  0.0000000E+00;  0.0000000E+00;  1.0000000E+04;  0.0000000E+00;  1.0000000E+04;  0.0000000E+00;  0.0000000E+00;  0.0000000E+00;  0.0000000E+00;
 -1.8000001E-01;  9.9999998E-03;  1.2000000E-01;106;  0.0000000E+00;  0.0000000E+00;  0.0000000E+00;  1.0000000E+03;  4.0000001E-01;  0.0000000E+00;0;  0.0000000E+00;  0.0000000E+00;  0.0000000E+00;0;  0.0000000E+00;  1.0000000E+04;  0.0000000E+00;  0.0000000E+00;  1.0000000E+04;  0.0000000E+00;  1.0000000E+04;  0.0000000E+00;  0.0000000E+00;  0.0000000E+00;  0.0000000E+00;
 -1.8000001E-01;  9.9999998E-03;  1.4000000E-01;107;  0.0000000E+00;  0.0000000E+00;  0.0000000E+00;  1.0000000E+03;  4.0000001E-01;  0.0000000E+00;0;  0.0000000E+00;  0.0000000E+00;  0.0000000E+00;0;  0.0000000E+00;  1.0000000E+04;  0.0000000E+00;  0.0000000E+00;  1.0000000E+04;  0.0000000E+00;  1.0000000E+04;  0.0000000E+00;  0.0000000E+00;  0.0000000E+00;  0.0000000E+00;
 -1.6000000E-01;  9.9999998E-03;  0.0000000E+00;141;  0.0000000E+00;  0.0000000E+00;  0.0000000E+00;  1.0000000E+03;  4.0000001E-01;  0.0000000E+00;0;  0.0000000E+00;  0.0000000E+00;  0.0000000E+00;0; -2.7833919E-06;  1.0000000E+04;  0.0000000E+00;  0.0000000E+00;  1.0000000E+04;  0.0000000E+00;  1.0000000E+04; -2.7842125E-06;  0.0000000E+00;  8.2056972E-10;  2.6333815E-04;
 -1.6000000E-01;  9.9999998E-03;  2.0000000E-02;142;  0.0000000E+00;  0.0000000E+00;  0.0000000E+00;  1.0000000E+03;  4.0000001E-01;  0.0000000E+00;0;  0.0000000E+00;  0.0000000E+00;  0.0000000E+00;0; -2.7849969E-06;  1.0000000E+04;  0.0000000E+00;  0.0000000E+00;  1.0000000E+04;  0.0000000E+00;  1.0000000E+04; -2.7859039E-06;  0.0000000E+00;  9.0691682E-10;  2.6426441E-04;
 -1.6000000E-01;  9.9999998E-03;  3.9999999E-02;143;  0.0000000E+00;  0.0000000E+00;  0.0000000E+00;  1.0000000E+03;  4.0000001E-01;  0.0000000E+00;0;  0.0000000E+00;  0.0000000E+00;  0.0000000E+00;0; -2.7893934E-06;  1.0000000E+04;  0.0000000E+00;  0.0000000E+00;  1.0000000E+04;  0.0000000E+00;  1.0000000E+04; -2.7905564E-06;  0.0000000E+00;  1.1630354E-09;  2.6698312E-04;
 -1.6000000E-01;  9.9999998E-03;  5.9999999E-02;144;  0.0000000E+00;  0.0000000E+00;  0.0000000E+00;  1.0000000E+03;  4.0000001E-01;  0.0000000E+00;0;  0.0000000E+00;  0.0000000E+00;  0.0000000E+00;0; -2.7952622E-06;  1.0000000E+04;  0.0000000E+00;  0.0000000E+00;  1.0000000E+04;  0.0000000E+00;  1.0000000E+04; -2.7968451E-06;  0.0000000E+00;  1.5829413E-09;  2.7133941E-04;
 -1.6000000E-01;  9.9999998E-03;  7.9999998E-02;145;  0.0000000E+00;  0.0000000E+00;  0.0000000E+00;  1.0000000E+03;  4.0000001E-01;  0.0000000E+00;0;  0.0000000E+00;  0.0000000E+00;  0.0000000E+00;0; -2.8003251E-06;  1.0000000E+04;  0.0000000E+00;  0.0000000E+00;  1.0000000E+04;  0.0000000E+00;  1.0000000E+04; -2.8024740E-06;  0.0000000E+00;  2.1489202E-09;  2.7697184E-04;
 -1.6000000E-01;  9.9999998E-03;  1.0000000E-01;146;  0.0000000E+00;  0.0000000E+00;  0.0000000E+00;  1.0000000E+03;  4.0000001E-01;  0.0000000E+00;0;  0.0000000E+00;  0.0000000E+00;  0.0000000E+00;0; -2.8011714E-06;  1.0000000E+04;  0.0000000E+00;  0.0000000E+00;  1.0000000E+04;  0.0000000E+00;  1.0000000E+04; -2.8040185E-06;  0.0000000E+00;  2.8471359E-09;  2.8349154E-04;
 -1.6000000E-01;  9.9999998E-03;  1.2000000E-01;147;  0.0000000E+00;  0.0000000E+00;  0.0000000E+00;  1.0000000E+03;  4.0000001E-01;  0.0000000E+00;0;  0.0000000E+00;  0.0000000E+00;  0.0000000E+00;0; -2.7931314E-06;  1.0000000E+04;  0.0000000E+00;  0.0000000E+00;  1.0000000E+04;  0.0000000E+00;  1.0000000E+04; -2.7967808E-06;  0.0000000E+00;  3.6492620E-09;  2.9025640E-04;
 -1.6000000E-01;  9.9999998E-03;  1.4000000E-01;148;  0.0000000E+00;  0.0000000E+00;  0.0000000E+00;  1.0000000E+03;  4.0000001E-01;  0.0000000E+00;0;  0.0000000E+00;  0.0000000E+00;  0.0000000E+00;0; -2.7701399E-06;  1.0000000E+04;  0.0000000E+00;  0.0000000E+00;  1.0000000E+04;  0.0000000E+00;  1.0000000E+04; -2.7746498E-06;  0.0000000E+00;  4.5100661E-09;  2.9630767E-04;
 -1.4000000E-01;  9.9999998E-03;  0.0000000E+00;182;  0.0000000E+00;  0.0000000E+00;  0.0000000E+00;  1.0000000E+03;  4.0000001E-01;  0.0000000E+00;0;  0.0000000E+00;  0.0000000E+00;  0.0000000E+00;0; -1.0265805E-04;  1.0000000E+04;  0.0000000E+00;  0.0000000E+00;  1.0000000E+04;  0.0000000E+00;  1.0000000E+04; -1.0277535E-04;  0.0000000E+00;  1.1730125E-07;  1.0841395E-02;
 -1.4000000E-01;  9.9999998E-03;  2.0000000E-02;183;  0.0000000E+00;  0.0000000E+00;  0.0000000E+00;  1.0000000E+03;  4.0000001E-01;  0.0000000E+00;0;  0.0000000E+00;  0.0000000E+00;  0.0000000E+00;0; -1.0269824E-04;  1.0000000E+04;  0.0000000E+00;  0.0000000E+00;  1.0000000E+04;  0.0000000E+00;  1.0000000E+04; -1.0282624E-04;  0.0000000E+00;  1.2799944E-07;  1.0947774E-02;
 -1.4000000E-01;  9.9999998E-03;  3.9999999E-02;184;  0.0000000E+00;  0.0000000E+00;  0.0000000E+00;  1.0000000E+03;  4.0000001E-01;  0.0000000E+00;0;  0.0000000E+00;  0.0000000E+00;  0.0000000E+00;0; -1.0280263E-04;  1.0000000E+04;  0.0000000E+00;  0.0000000E+00;  1.0000000E+04;  0.0000000E+00;  1.0000000E+04; -1.0296233E-04;  0.0000000E+00;  1.5969887E-07;  1.1261780E-02;
 -1.4000000E-01;  9.9999998E-03;  5.9999999E-02;185;  0.0000000E+00;  0.0000000E+00;  0.0000000E+00;  1.0000000E+03;  4.0000001E-01;  0.0000000E+00;0;  0.0000000E+00;  0.0000000E+00;  0.0000000E+00;0; -1.0292108E-04;  1.0000000E+04;  0.0000000E+00;  0.0000000E+00;  1.0000000E+04;  0.0000000E+00;  1.0000000E+04; -1.0313250E-04;  0.0000000E+00;  2.1141715E-07;  1.1770487E-02;
 -1.4000000E-01;  9.9999998E-03;  7.9999998E-02;186;  0.0000000E+00;  0.0000000E+00;  0.0000000E+00;  1.0000000E+03;  4.0000001E-01;  0.0000000E+00;0;  0.0000000E+00;  0.0000000E+00;  0.0000000E+00;0; -1.0296677E-04;  1.0000000E+04;  0.0000000E+00;  0.0000000E+00;  1.0000000E+04;  0.0000000E+00;  1.0000000E+04; -1.0324825E-04;  0.0000000E+00;  2.8147721E-07;  1.2451686E-02;
 -1.4000000E-01;  9.9999998E-03;  1.0000000E-01;187;  0.0000000E+00;  0.0000000E+00;  0.0000000E+00;  1.0000000E+03;  4.0000001E-01;  0.0000000E+00;0;  0.0000000E+00;  0.0000000E+00;  0.0000000E+00;0; -1.0281232E-04;  1.0000000E+04;  0.0000000E+00;  0.0000000E+00;  1.0000000E+04;  0.0000000E+00;  1.0000000E+04; -1.0317950E-04;  0.0000000E+00;  3.6718336E-07;  1.3270031E-02;
 -1.4000000E-01;  9.9999998E-03;  1.2000000E-01;188;  0.0000000E+00;  0.0000000E+00;  0.0000000E+00;  1.0000000E+03;  4.0000001E-01;  0.0000000E+00;0;  0.0000000E+00;  0.0000000E+00;  0.0000000E+00;0; -1.0228399E-04;  1.0000000E+04;  0.0000000E+00;  0.0000000E+00;  1.0000000E+04;  0.0000000E+00;  1.0000000E+04; -1.0274925E-04;  0.0000000E+00;  4.6526480E-07;  1.4180238E-02;
 -1.4000000E-01;  9.9999998E-03;  1.4000000E-01;189;  0.0000000E+00;  0.0000000E+00;  0.0000000E+00;  1.0000000E+03;  4.0000001E-01;  0.0000000E+00;0;  0.0000000E+00;  0.0000000E+00;  0.0000000E+00;0; -1.0116133E-04;  1.0000000E+04;  0.0000000E+00;  0.0000000E+00;  1.0000000E+04;  0.0000000E+00;  1.0000000E+04; -1.0173149E-04;  0.0000000E+00;  5.7016513E-07;  1.5108684E-02;
 -1.2000000E-01;  9.9999998E-03;  0.0000000E+00;223;  0.0000000E+00;  0.0000000E+00;  0.0000000E+00;  1.0000006E+03;  4.0000001E-01;  4.9381313E-01;0;  0.0000000E+00;  0.0000000E+00;  0.0000000E+00;0; -5.7114928E-04;  1.0000000E+04;  0.0000000E+00;  0.0000000E+00;  1.0000000E+04;  0.0000000E+00;  1.0000000E+04; -5.7238684E-04;  0.0000000E+00;  1.2375580E-06;  6.7810968E-02;
 -1.2000000E-01;  9.9999998E-03;  2.0000000E-02;224;  0.0000000E+00;  0.0000000E+00;  0.0000000E+00;  1.0000006E+03;  4.0000001E-01;  4.9381313E-01;0;  0.0000000E+00;  0.0000000E+00;  0.0000000E+00;0; -5.7130243E-04;  1.0000000E+04;  0.0000000E+00;  0.0000000E+00;  1.0000000E+04;  0.0000000E+00;  1.0000000E+04; -5.7264126E-04;  0.0000000E+00;  1.3388421E-06;  6.8808995E-02;
 -1.2000000E-01;  9.9999998E-03;  3.9999999E-02;225;  0.0000000E+00;  0.0000000E+00;  0.0000000E+00;  1.0000006E+03;  4.0000001E-01;  4.9381313E-01;0;  0.0000000E+00;  0.0000000E+00;  0.0000000E+00;0; -5.7167001E-04;  1.0000000E+04;  0.0000000E+00;  0.0000000E+00;  1.0000000E+04;  0.0000000E+00;  1.0000000E+04; -5.7330972E-04;  0.0000000E+00;  1.6396983E-06;  7.1768463E-02;
 -1.2000000E-01;  9.9999998E-03;  5.9999999E-02;226;  0.0000000E+00;  0.0000000E+00;  0.0000000E+00;  1.0000006E+03;  4.0000001E-01;  4.9381313E-01;0;  0.0000000E+00;  0.0000000E+00;  0.0000000E+00;0; -5.7196990E-04;  1.0000000E+04;  0.0000000E+00;  0.0000000E+00;  1.0000000E+04;  0.0000000E+00;  1.0000000E+04; -5.7410018E-04;  0.0000000E+00;  2.1303040E-06;  7.6577470E-02;
 -1.2000000E-01;  9.9999998E-03;  7.9999998E-02;227;  0.0000000E+00;  0.0000000E+00;  0.0000000E+00;  1.0000006E+03;  4.0000001E-01;  4.9381313E-01;0;  0.0000000E+00;  0.0000000E+00;  0.0000000E+00;0; -5.7171588E-04;  1.0000000E+04;  0.0000000E+00;  0.0000000E+00;  1.0000000E+04;  0.0000000E+00;  1.0000000E+04; -5.7450944E-04;  0.0000000E+00;  2.7935457E-06;  8.3040357E-02;
 -1.2000000E-01;  9.9999998E-03;  1.0000000E-01;228;  0.0000000E+00;  0.0000000E+00;  0.0000000E+00;  1.0000006E+03;  4.0000001E-01;  4.9381313E-01;0;  0.0000000E+00;  0.0000000E+00;  0.0000000E+00;0; -5.7019654E-04;  1.0000000E+04;  0.0000000E+00;  0.0000000E+00;  1.0000000E+04;  0.0000000E+00;  1.0000000E+04; -5.7380099E-04;  0.0000000E+00;  3.6044682E-06;  9.0865090E-02;
 -1.2000000E-01;  9.9999998E-03;  1.2000000E-01;229;  0.0000000E+00;  0.0000000E+00;  0.0000000E+00;  1.0000006E+03;  4.0000001E-01;  4.9381313E-01;0;  0.0000000E+00;  0.0000000E+00;  0.0000000E+00;0; -5.6645658E-04;  1.0000000E+04;  0.0000000E+00;  0.0000000E+00;  1.0000000E+04;  0.0000000E+00;  1.0000000E+04; -5.7098083E-04;  0.0000000E+00;  4.5242632E-06;  9.9595465E-02;
 -1.2000000E-01;  9.9999998E-03;  1.4000000E-01;230;  0.0000000E+00;  0.0000000E+00;  0.0000000E+00;  1.0000006E+03;  4.0000001E-01;  4.9381313E-01;0;  0.0000000E+00;  0.0000000E+00;  0.0000000E+00;0; -5.5930385E-04;  1.0000000E+04;  0.0000000E+00;  0.0000000E+00;  1.0000000E+04;  0.0000000E+00;  1.0000000E+04; -5.6479225E-04;  0.0000000E+00;  5.4884254E-06;  1.0847936E-01;
 -1.0000000E-01;  9.9999998E-03;  0.0000000E+00;264;  0.0000000E+00;  0.0000000E+00;  0.0000000E+00;  1.0000022E+03;  4.0000001E-01;  1.7777272E+00;0;  0.0000000E+00;  0.0000000E+00;  0.0000000E+00;0; -1.8290090E-03;  1.0000000E+04;  0.0000000E+00;  0.0000000E+00;  1.0000000E+04;  0.0000000E+00;  1.0000000E+04; -1.8350328E-03;  0.0000000E+00;  6.0238294E-06;  2.4346638E-01;
 -1.0000000E-01;  9.9999998E-03;  2.0000000E-02;265;  0.0000000E+00;  0.0000000E+00;  0.0000000E+00;  1.0000022E+03;  4.0000001E-01;  1.7777272E+00;0;  0.0000000E+00;  0.0000000E+00;  0.0000000E+00;0; -1.8293323E-03;  1.0000000E+04;  0.0000000E+00;  0.0000000E+00;  1.0000000E+04;  0.0000000E+00;  1.0000000E+04; -1.8358121E-03;  0.0000000E+00;  6.4797969E-06;  2.4795859E-01;
 -1.0000000E-01;  9.9999998E-03;  3.9999999E-02;266;  0.0000000E+00;  0.0000000E+00;  0.0000000E+00;  1.0000022E+03;  4.0000001E-01;  1.7777272E+00;0;  0.0000000E+00;  0.0000000E+00;  0.0000000E+00;0; -1.8300076E-03;  1.0000000E+04;  0.0000000E+00;  0.0000000E+00;  1.0000000E+04;  0.0000000E+00;  1.0000000E+04; -1.8378409E-03;  0.0000000E+00;  7.8332860E-06;  2.6128289E-01;
 -1.0000000E-01;  9.9999998E-03;  5.9999999E-02;267;  0.0000000E+00;  0.0000000E+00;  0.0000000E+00;  1.0000022E+03;  4.0000001E-01;  1.7777272E+00;0;  0.0000000E+00;  0.0000000E+00;  0.0000000E+00;0; -1.8301322E-03;  1.0000000E+04;  0.0000000E+00;  0.0000000E+00;  1.0000000E+04;  0.0000000E+00;  1.0000000E+04; -1.8401711E-03;  0.0000000E+00;  1.0038822E-05;  2.8295377E-01;
 -1.0000000E-01;  9.9999998E-03;  7.9999998E-02;268;  0.0000000E+00;  0.0000000E+00;  0.0000000E+00;  1.0000022E+03;  4.0000001E-01;  1.7777272E+00;0;  0.0000000E+00;  0.0000000E+00;  0.0000000E+00;0; -1.8281516E-03;  1.0000000E+04;  0.0000000E+00;  0.0000000E+00;  1.0000000E+04;  0.0000000E+00;  1.0000000E+04; -1.8411693E-03;  0.0000000E+00;  1.3017719E-05;  3.1211770E-01;
 -1.0000000E-01;  9.9999998E-03;  1.0000000E-01;269;  0.0000000E+00;  0.0000000E+00;  0.0000000E+00;  1.0000022E+03;  4.0000001E-01;  1.7777272E+00;0;  0.0000000E+00;  0.0000000E+00;  0.0000000E+00;0; -1.8218019E-03;  1.0000000E+04;  0.0000000E+00;  0.0000000E+00;  1.0000000E+04;  0.0000000E+00;  1.0000000E+04; -1.8384481E-03;  0.0000000E+00;  1.6646243E-05;  3.4741256E-01;
 -1.0000000E-01;  9.9999998E-03;  1.2000000E-01;270;  0.0000000E+00;  0.0000000E+00;  0.0000000E+00;  1.0000021E+03;  4.0000001E-01;  1.6789646E+00;0;  0.0000000E+00;  0.0000000E+00;  0.0000000E+00;0; -1.8080794E-03;  1.0000000E+04;  0.0000000E+00;  0.0000000E+00;  1.0000000E+04;  0.0000000E+00;  1.0000000E+04; -1.8288050E-03;  0.0000000E+00;  2.0725491E-05;  3.8662368E-01;
 -1.0000000E-01;  9.9999998E-03;  1.4000000E-01;271;  0.0000000E+00;  0.0000000E+00;  0.0000000E+00;  1.0000021E+03;  4.0000001E-01;  1.6789646E+00;0;  0.0000000E+00;  0.0000000E+00;  0.0000000E+00;0; -1.7832721E-03;  1.0000000E+04;  0.0000000E+00;  0.0000000E+00;  1.0000000E+04;  0.0000000E+00;  1.0000000E+04; -1.8081947E-03;  0.0000000E+00;  2.4922569E-05;  4.2605069E-01;
 -7.9999998E-02;  9.9999998E-03;  0.0000000E+00;305;  0.0000000E+00;  0.0000000E+00;  0.0000000E+00;  1.0000054E+03;  4.0000001E-01;  4.5430808E+00;0;  0.0000000E+00;  0.0000000E+00;  0.0000000E+00;0; -4.3687182E-03;  1.0000000E+04;  0.0000000E+00;  0.0000000E+00;  1.0000000E+04;  0.0000000E+00;  1.0000000E+04; -4.3880856E-03;  0.0000000E+00;  1.9367391E-05;  6.4576191E-01;
 -7.9999998E-02;  9.9999998E-03;  2.0000000E-02;306;  0.0000000E+00;  0.0000000E+00;  0.0000000E+00;  1.0000054E+03;  4.0000001E-01;  4.5430808E+00;0;  0.0000000E+00;  0.0000000E+00;  0.0000000E+00;0; -4.3692226E-03;  1.0000000E+04;  0.0000000E+00;  0.0000000E+00;  1.0000000E+04;  0.0000000E+00;  1.0000000E+04; -4.3899748E-03;  0.0000000E+00;  2.0752130E-05;  6.5944952E-01;
 -7.9999998E-02;  9.9999998E-03;  3.9999999E-02;307;  0.0000000E+00;  0.0000000E+00;  0.0000000E+00;  1.0000054E+03;  4.0000001E-01;  4.5430808E+00;0;  0.0000000E+00;  0.0000000E+00;  0.0000000E+00;0; -4.3700403E-03;  1.0000000E+04;  0.0000000E+00;  0.0000000E+00;  1.0000000E+04;  0.0000000E+00;  1.0000000E+04; -4.3949001E-03;  0.0000000E+00;  2.4860024E-05;  7.0003909E-01;
 -7.9999998E-02;  9.9999998E-03;  5.9999999E-02;308;  0.0000000E+00;  0.0000000E+00;  0.0000000E+00;  1.0000054E+03;  4.0000001E-01;  4.4443183E+00;0;  0.0000000E+00;  0.0000000E+00;  0.0000000E+00;0; -4.3690270E-03;  1.0000000E+04;  0.0000000E+00;  0.0000000E+00;  1.0000000E+04;  0.0000000E+00;  1.0000000E+04; -4.4005769E-03;  0.0000000E+00;  3.1549916E-05;  7.6606888E-01;
 -7.9999998E-02;  9.9999998E-03;  7.9999998E-02;309;  0.0000000E+00;  0.0000000E+00;  0.0000000E+00;  1.0000054E+03;  4.0000001E-01;  4.4443183E+00;0;  0.0000000E+00;  0.0000000E+00;  0.0000000E+00;0; -4.3625063E-03;  1.0000000E+04;  0.0000000E+00;  0.0000000E+00;  1.0000000E+04;  0.0000000E+00;  1.0000000E+04; -4.4030766E-03;  0.0000000E+00;  4.0570474E-05;  8.5489607E-01;
 -7.9999998E-02;  9.9999998E-03;  1.0000000E-01;310;  0.0000000E+00;  0.0000000E+00;  0.0000000E+00;  1.0000054E+03;  4.0000001E-01;  4.4443183E+00;0;  0.0000000E+00;  0.0000000E+00;  0.0000000E+00;0; -4.3451400E-03;  1.0000000E+04;  0.0000000E+00;  0.0000000E+00;  1.0000000E+04;  0.0000000E+00;  1.0000000E+04; -4.3966533E-03;  0.0000000E+00;  5.1513143E-05;  9.6214867E-01;
 -7.9999998E-02;  9.9999998E-03;  1.2000000E-01;311;  0.0000000E+00;  0.0000000E+00;  0.0000000E+00;  1.0000053E+03;  4.0000001E-01;  4.4443183E+00;0;  0.0000000E+00;  0.0000000E+00;  0.0000000E+00;0; -4.3099010E-03;  1.0000000E+04;  0.0000000E+00;  0.0000000E+00;  1.0000000E+04;  0.0000000E+00;  1.0000000E+04; -4.3736068E-03;  0.0000000E+00;  6.3705709E-05;  1.0805323E+00;
 -7.9999998E-02;  9.9999998E-03;  1.4000000E-01;312;  0.0000000E+00;  0.0000000E+00;  0.0000000E+00;  1.0000051E+03;  4.0000001E-01;  4.1480303E+00;0;  0.0000000E+00;  0.0000000E+00;  0.0000000E+00;0; -4.2481655E-03;  1.0000000E+04;  0.0000000E+00;  0.0000000E+00;  1.0000000E+04;  0.0000000E+00;  1.0000000E+04; -4.3242034E-03;  0.0000000E+00;  7.6037890E-05;  1.1979761E+00;
 -5.9999999E-02;  9.9999998E-03;  0.0000000E+00;346;  0.0000000E+00;  0.0000000E+00;  0.0000000E+00;  1.0000105E+03;  4.0000001E-01;  8.6911106E+00;0;  0.0000000E+00;  0.0000000E+00;  0.0000000E+00;0; -8.5030161E-03;  1.0000000E+04;  0.0000000E+00;  0.0000000E+00;  1.0000000E+04;  0.0000000E+00;  1.0000000E+04; -8.5505173E-03;  0.0000000E+00;  4.7501318E-05;  1.3863801E+00;
 -5.9999999E-02;  9.9999998E-03;  2.0000000E-02;347;  0.0000000E+00;  0.0000000E+00;  0.0000000E+00;  1.0000105E+03;  4.0000001E-01;  8.6911106E+00;0;  0.0000000E+00;  0.0000000E+00;  0.0000000E+00;0; -8.5036932E-03;  1.0000000E+04;  0.0000000E+00;  0.0000000E+00;  1.0000000E+04;  0.0000000E+00;  1.0000000E+04; -8.5544568E-03;  0.0000000E+00;  5.0763181E-05;  1.4187915E+00;
 -5.9999999E-02;  9.9999998E-03;  3.9999999E-02;348;  0.0000000E+00;  0.0000000E+00;  0.0000000E+00;  1.0000105E+03;  4.0000001E-01;  8.6911106E+00;0;  0.0000000E+00;  0.0000000E+00;  0.0000000E+00;0; -8.5043833E-03;  1.0000000E+04;  0.0000000E+00;  0.0000000E+00;  1.0000000E+04;  0.0000000E+00;  1.0000000E+04; -8.5648196E-03;  0.0000000E+00;  6.0435905E-05;  1.5148896E+00;
 -5.9999999E-02;  9.9999998E-03;  5.9999999E-02;349;  0.0000000E+00;  0.0000000E+00;  0.0000000E+00;  1.0000105E+03;  4.0000001E-01;  8.6911106E+00;0;  0.0000000E+00;  0.0000000E+00;  0.0000000E+00;0; -8.5009839E-03;  1.0000000E+04;  0.0000000E+00;  0.0000000E+00;  1.0000000E+04;  0.0000000E+00;  1.0000000E+04; -8.5771605E-03;  0.0000000E+00;  7.6176810E-05;  1.6711941E+00;
 -5.9999999E-02;  9.9999998E-03;  7.9999998E-02;350;  0.0000000E+00;  0.0000000E+00;  0.0000000E+00;  1.0000104E+03;  4.0000001E-01;  8.6911106E+00;0;  0.0000000E+00;  0.0000000E+00;  0.0000000E+00;0; -8.4864544E-03;  1.0000000E+04;  0.0000000E+00;  0.0000000E+00;  1.0000000E+04;  0.0000000E+00;  1.0000000E+04; -8.5838158E-03;  0.0000000E+00;  9.7361437E-05;  1.8812644E+00;
 -5.9999999E-02;  9.9999998E-03;  1.0000000E-01;351;  0.0000000E+00;  0.0000000E+00;  0.0000000E+00;  1.0000104E+03;  4.0000001E-01;  8.6911106E+00;0;  0.0000000E+00;  0.0000000E+00;  0.0000000E+00;0; -8.4506152E-03;  1.0000000E+04;  0.0000000E+00;  0.0000000E+00;  1.0000000E+04;  0.0000000E+00;  1.0000000E+04; -8.5735694E-03;  0.0000000E+00;  1.2295437E-04;  2.1342032E+00;
 -5.9999999E-02;  9.9999998E-03;  1.2000000E-01;352;  0.0000000E+00;  0.0000000E+00;  0.0000000E+00;  1.0000104E+03;  4.0000001E-01;  8.5923481E+00;0;  0.0000000E+00;  0.0000000E+00;  0.0000000E+00;0; -8.3800834E-03;  1.0000000E+04;  0.0000000E+00;  0.0000000E+00;  1.0000000E+04;  0.0000000E+00;  1.0000000E+04; -8.5313236E-03;  0.0000000E+00;  1.5124014E-04;  2.4116559E+00;
 -5.9999999E-02;  9.9999998E-03;  1.4000000E-01;353;  0.0000000E+00;  0.0000000E+00;  0.0000000E+00;  1.0000101E+03;  4.0000001E-01;  8.3948231E+00;0;  0.0000000E+00;  0.0000000E+00;  0.0000000E+00;0; -8.2585253E-03;  1.0000000E+04;  0.0000000E+00;  0.0000000E+00;  1.0000000E+04;  0.0000000E+00;  1.0000000E+04; -8.4379623E-03;  0.0000000E+00;  1.7943699E-04;  2.6836913E+00;
 -3.9999999E-02;  9.9999998E-03;  0.0000000E+00;387;  0.0000000E+00;  0.0000000E+00;  0.0000000E+00;  1.0000176E+03;  4.0000001E-01;  1.4518106E+01;0;  0.0000000E+00;  0.0000000E+00;  0.0000000E+00;0; -1.4089325E-02;  1.0000000E+04;  0.0000000E+00;  0.0000000E+00;  1.0000000E+04;  0.0000000E+00;  1.0000000E+04; -1.4184783E-02;  0.0000000E+00;  9.5459000E-05;  2.5268898E+00;
 -3.9999999E-02;  9.9999998E-03;  2.0000000E-02;388;  0.0000000E+00;  0.0000000E+00;  0.0000000E+00;  1.0000176E+03;  4.0000001E-01;  1.4518106E+01;0;  0.0000000E+00;  0.0000000E+00;  0.0000000E+00;0; -1.4090240E-02;  1.0000000E+04;  0.0000000E+00;  0.0000000E+00;  1.0000000E+04;  0.0000000E+00;  1.0000000E+04; -1.4192087E-02;  0.0000000E+00;  1.0184676E-04;  2.5908029E+00;
 -3.9999999E-02;  9.9999998E-03;  3.9999999E-02;389;  0.0000000E+00;  0.0000000E+00;  0.0000000E+00;  1.0000175E+03;  4.0000001E-01;  1.4518106E+01;0;  0.0000000E+00;  0.0000000E+00;  0.0000000E+00;0; -1.4090820E-02;  1.0000000E+04;  0.0000000E+00;  0.0000000E+00;  1.0000000E+04;  0.0000000E+00;  1.0000000E+04; -1.4211605E-02;  0.0000000E+00;  1.2078555E-04;  2.7803085E+00;
 -3.9999999E-02;  9.9999998E-03;  5.9999999E-02;390;  0.0000000E+00;  0.0000000E+00;  0.0000000E+00;  1.0000175E+03;  4.0000001E-01;  1.4518106E+01;0;  0.0000000E+00;  0.0000000E+00;  0.0000000E+00;0; -1.4084429E-02;  1.0000000E+04;  0.0000000E+00;  0.0000000E+00;  1.0000000E+04;  0.0000000E+00;  1.0000000E+04; -1.4236012E-02;  0.0000000E+00;  1.5158180E-04;  3.0884690E+00;
 -3.9999999E-02;  9.9999998E-03;  7.9999998E-02;391;  0.0000000E+00;  0.0000000E+00;  0.0000000E+00;  1.0000175E+03;  4.0000001E-01;  1.4518106E+01;0;  0.0000000E+00;  0.0000000E+00;  0.0000000E+00;0; -1.4059692E-02;  1.0000000E+04;  0.0000000E+00;  0.0000000E+00;  1.0000000E+04;  0.0000000E+00;  1.0000000E+04; -1.4252645E-02;  0.0000000E+00;  1.9295372E-04;  3.5022404E+00;
 -3.9999999E-02;  9.9999998E-03;  1.0000000E-01;392;  0.0000000E+00;  0.0000000E+00;  0.0000000E+00;  1.0000174E+03;  4.0000001E-01;  1.4419343E+01;0;  0.0000000E+00;  0.0000000E+00;  0.0000000E+00;0; -1.4000161E-02;  1.0000000E+04;  0.0000000E+00;  0.0000000E+00;  1.0000000E+04;  0.0000000E+00;  1.0000000E+04; -1.4242915E-02;  0.0000000E+00;  2.4275458E-04;  3.9992638E+00;
 -3.9999999E-02;  9.9999998E-03;  1.2000000E-01;393;  0.0000000E+00;  0.0000000E+00;  0.0000000E+00;  1.0000172E+03;  4.0000001E-01;  1.4221818E+01;0;  0.0000000E+00;  0.0000000E+00;  0.0000000E+00;0; -1.3884260E-02;  1.0000000E+04;  0.0000000E+00;  0.0000000E+00;  1.0000000E+04;  0.0000000E+00;  1.0000000E+04; -1.4181693E-02;  0.0000000E+00;  2.9743303E-04;  4.5418386E+00;
 -3.9999999E-02;  9.9999998E-03;  1.4000000E-01;394;  0.0000000E+00;  0.0000000E+00;  0.0000000E+00;  1.0000168E+03;  4.0000001E-01;  1.3925530E+01;0;  0.0000000E+00;  0.0000000E+00;  0.0000000E+00;0; -1.3685638E-02;  1.0000000E+04;  0.0000000E+00;  0.0000000E+00;  1.0000000E+04;  0.0000000E+00;  1.0000000E+04; -1.4036966E-02;  0.0000000E+00;  3.5132759E-04;  5.0692635E+00;
 -2.0000000E-02;  9.9999998E-03;  0.0000000E+00;428;  0.0000000E+00;  0.0000000E+00;  0.0000000E+00;  1.0000256E+03;  4.0000001E-01;  2.1233965E+01;0;  0.0000000E+00;  0.0000000E+00;  0.0000000E+00;0; -2.0406263E-02;  1.0000000E+04;  0.0000000E+00;  0.0000000E+00;  1.0000000E+04;  0.0000000E+00;  1.0000000E+04; -2.0569952E-02;  0.0000000E+00;  1.6368857E-04;  4.0271316E+00;
 -2.0000000E-02;  9.9999998E-03;  2.0000000E-02;429;  0.0000000E+00;  0.0000000E+00;  0.0000000E+00;  1.0000256E+03;  4.0000001E-01;  2.1233965E+01;0;  0.0000000E+00;  0.0000000E+00;  0.0000000E+00;0; -2.0407686E-02;  1.0000000E+04;  0.0000000E+00;  0.0000000E+00;  1.0000000E+04;  0.0000000E+00;  1.0000000E+04; -2.0582175E-02;  0.0000000E+00;  1.7448925E-04;  4.1361842E+00;
 -2.0000000E-02;  9.9999998E-03;  3.9999999E-02;430;  0.0000000E+00;  0.0000000E+00;  0.0000000E+00;  1.0000255E+03;  4.0000001E-01;  2.1135202E+01;0;  0.0000000E+00;  0.0000000E+00;  0.0000000E+00;0; -2.0408969E-02;  1.0000000E+04;  0.0000000E+00;  0.0000000E+00;  1.0000000E+04;  0.0000000E+00;  1.0000000E+04; -2.0615475E-02;  0.0000000E+00;  2.0650604E-04;  4.4595585E+00;
 -2.0000000E-02;  9.9999998E-03;  5.9999999E-02;431;  0.0000000E+00;  0.0000000E+00;  0.0000000E+00;  1.0000255E+03;  4.0000001E-01;  2.1135202E+01;0;  0.0000000E+00;  0.0000000E+00;  0.0000000E+00;0; -2.0400807E-02;  1.0000000E+04;  0.0000000E+00;  0.0000000E+00;  1.0000000E+04;  0.0000000E+00;  1.0000000E+04; -2.0659339E-02;  0.0000000E+00;  2.5853195E-04;  4.9853292E+00;
 -2.0000000E-02;  9.9999998E-03;  7.9999998E-02;432;  0.0000000E+00;  0.0000000E+00;  0.0000000E+00;  1.0000254E+03;  4.0000001E-01;  2.1036438E+01;0;  0.0000000E+00;  0.0000000E+00;  0.0000000E+00;0; -2.0367311E-02;  1.0000000E+04;  0.0000000E+00;  0.0000000E+00;  1.0000000E+04;  0.0000000E+00;  1.0000000E+04; -2.0695629E-02;  0.0000000E+00;  3.2831737E-04;  5.6908059E+00;
 -2.0000000E-02;  9.9999998E-03;  1.0000000E-01;433;  0.0000000E+00;  0.0000000E+00;  0.0000000E+00;  1.0000253E+03;  4.0000001E-01;  2.0937675E+01;0;  0.0000000E+00;  0.0000000E+00;  0.0000000E+00;0; -2.0285457E-02;  1.0000000E+04;  0.0000000E+00;  0.0000000E+00;  1.0000000E+04;  0.0000000E+00;  1.0000000E+04; -2.0697532E-02;  0.0000000E+00;  4.1207561E-04;  6.5368094E+00;
 -2.0000000E-02;  9.9999998E-03;  1.2000000E-01;434;  0.0000000E+00;  0.0000000E+00;  0.0000000E+00;  1.0000250E+03;  4.0000001E-01;  2.0641388E+01;0;  0.0000000E+00;  0.0000000E+00;  0.0000000E+00;0; -2.0125007E-02;  1.0000000E+04;  0.0000000E+00;  0.0000000E+00;  1.0000000E+04;  0.0000000E+00;  1.0000000E+04; -2.0628590E-02;  0.0000000E+00;  5.0358300E-04;  7.4574790E+00;
 -2.0000000E-02;  9.9999998E-03;  1.4000000E-01;435;  0.0000000E+00;  0.0000000E+00;  0.0000000E+00;  1.0000245E+03;  4.0000001E-01;  2.0345100E+01;0;  0.0000000E+00;  0.0000000E+00;  0.0000000E+00;0; -1.9848926E-02;  1.0000000E+04;  0.0000000E+00;  0.0000000E+00;  1.0000000E+04;  0.0000000E+00;  1.0000000E+04; -2.0441951E-02;  0.0000000E+00;  5.9302495E-04;  8.3474846E+00;
 -2.2000000E-01;  9.9999998E-03;  1.6000000E-01;27;  0.0000000E+00;  0.0000000E+00;  0.0000000E+00;  1.0000000E+03;  4.0000001E-01;  0.0000000E+00;0;  0.0000000E+00;  0.0000000E+00;  0.0000000E+00;0;  0.0000000E+00;  1.0000000E+04;  0.0000000E+00;  0.0000000E+00;  1.0000000E+04;  0.0000000E+00;  1.0000000E+04;  0.0000000E+00;  0.0000000E+00;  0.0000000E+00;  0.0000000E+00;
 -2.2000000E-01;  9.9999998E-03;  1.8000001E-01;28;  0.0000000E+00;  0.0000000E+00;  0.0000000E+00;  1.0000000E+03;  4.0000001E-01;  0.0000000E+00;0;  0.0000000E+00;  0.0000000E+00;  0.0000000E+00;0;  0.0000000E+00;  1.0000000E+04;  0.0000000E+00;  0.0000000E+00;  1.0000000E+04;  0.0000000E+00;  1.0000000E+04;  0.0000000E+00;  0.0000000E+00;  0.0000000E+00;  0.0000000E+00;
 -2.2000000E-01;  9.9999998E-03;  2.0000000E-01;29;  0.0000000E+00;  0.0000000E+00;  0.0000000E+00;  1.0000000E+03;  4.0000001E-01;  0.0000000E+00;0;  0.0000000E+00;  0.0000000E+00;  0.0000000E+00;0;  0.0000000E+00;  1.0000000E+04;  0.0000000E+00;  0.0000000E+00;  1.0000000E+04;  0.0000000E+00;  1.0000000E+04;  0.0000000E+00;  0.0000000E+00;  0.0000000E+00;  0.0000000E+00;
 -2.2000000E-01;  9.9999998E-03;  2.2000000E-01;30;  0.0000000E+00;  0.0000000E+00;  0.0000000E+00;  1.0000000E+03;  4.0000001E-01;  0.0000000E+00;0;  0.0000000E+00;  0.0000000E+00;  0.0000000E+00;0;  0.0000000E+00;  1.0000000E+04;  0.0000000E+00;  0.0000000E+00;  1.0000000E+04;  0.0000000E+00;  1.0000000E+04;  0.0000000E+00;  0.0000000E+00;  0.0000000E+00;  0.0000000E+00;
 -2.2000000E-01;  9.9999998E-03;  2.3999999E-01;31;  0.0000000E+00;  0.0000000E+00;  0.0000000E+00;  1.0000000E+03;  4.0000001E-01;  0.0000000E+00;0;  0.0000000E+00;  0.0000000E+00;  0.0000000E+00;0;  0.0000000E+00;  1.0000000E+04;  0.0000000E+00;  0.0000000E+00;  1.0000000E+04;  0.0000000E+00;  1.0000000E+04;  0.0000000E+00;  0.0000000E+00;  0.0000000E+00;  0.0000000E+00;
 -2.2000000E-01;  9.9999998E-03;  2.5999999E-01;32;  0.0000000E+00;  0.0000000E+00;  0.0000000E+00;  1.0000000E+03;  4.0000001E-01;  0.0000000E+00;0;  0.0000000E+00;  0.0000000E+00;  0.0000000E+00;0;  0.0000000E+00;  1.0000000E+04;  0.0000000E+00;  0.0000000E+00;  1.0000000E+04;  0.0000000E+00;  1.0000000E+04;  0.0000000E+00;  0.0000000E+00;  0.0000000E+00;  0.0000000E+00;
 -2.2000000E-01;  9.9999998E-03;  2.8000000E-01;33;  0.0000000E+00;  0.0000000E+00;  0.0000000E+00;  1.0000000E+03;  4.0000001E-01;  0.0000000E+00;0;  0.0000000E+00;  0.0000000E+00;  0.0000000E+00;0;  0.0000000E+00;  1.0000000E+04;  0.0000000E+00;  0.0000000E+00;  1.0000000E+04;  0.0000000E+00;  1.0000000E+04;  0.0000000E+00;  0.0000000E+00;  0.0000000E+00;  0.0000000E+00;
 -2.2000000E-01;  9.9999998E-03;  3.0000001E-01;34;  0.0000000E+00;  0.0000000E+00;  0.0000000E+00;  1.0000000E+03;  4.0000001E-01;  0.0000000E+00;0;  0.0000000E+00;  0.0000000E+00;  0.0000000E+00;0;  0.0000000E+00;  1.0000000E+04;  0.0000000E+00;  0.0000000E+00;  1.0000000E+04;  0.0000000E+00;  1.0000000E+04;  0.0000000E+00;  0.0000000E+00;  0.0000000E+00;  0.0000000E+00;
 -2.2000000E-01;  9.9999998E-03;  3.1999999E-01;35;  0.0000000E+00;  0.0000000E+00;  0.0000000E+00;  1.0000000E+03;  4.0000001E-01;  0.0000000E+00;0;  0.0000000E+00;  0.0000000E+00;  0.0000000E+00;0;  0.0000000E+00;  1.0000000E+04;  0.0000000E+00;  0.0000000E+00;  1.0000000E+04;  0.0000000E+00;  1.0000000E+04;  0.0000000E+00;  0.0000000E+00;  0.0000000E+00;  0.0000000E+00;
 -2.0000000E-01;  9.9999998E-03;  1.6000000E-01;67;  0.0000000E+00;  0.0000000E+00;  0.0000000E+00;  1.0000000E+03;  4.0000001E-01;  0.0000000E+00;0;  0.0000000E+00;  0.0000000E+00;  0.0000000E+00;0;  0.0000000E+00;  1.0000000E+04;  0.0000000E+00;  0.0000000E+00;  1.0000000E+04;  0.0000000E+00;  1.0000000E+04;  0.0000000E+00;  0.0000000E+00;  0.0000000E+00;  0.0000000E+00;
 -2.0000000E-01;  9.9999998E-03;  1.8000001E-01;68;  0.0000000E+00;  0.0000000E+00;  0.0000000E+00;  1.0000000E+03;  4.0000001E-01;  0.0000000E+00;0;  0.0000000E+00;  0.0000000E+00;  0.0000000E+00;0;  0.0000000E+00;  1.0000000E+04;  0.0000000E+00;  0.0000000E+00;  1.0000000E+04;  0.0000000E+00;  1.0000000E+04;  0.0000000E+00;  0.0000000E+00;  0.0000000E+00;  0.0000000E+00;
 -2.0000000E-01;  9.9999998E-03;  2.0000000E-01;69;  0.0000000E+00;  0.0000000E+00;  0.0000000E+00;  1.0000000E+03;  4.0000001E-01;  0.0000000E+00;0;  0.0000000E+00;  0.0000000E+00;  0.0000000E+00;0;  0.0000000E+00;  1.0000000E+04;  0.0000000E+00;  0.0000000E+00;  1.0000000E+04;  0.0000000E+00;  1.0000000E+04;  0.0000000E+00;  0.0000000E+00;  0.0000000E+00;  0.0000000E+00;
 -2.0000000E-01;  9.9999998E-03;  2.2000000E-01;70;  0.0000000E+00;  0.0000000E+00;  0.0000000E+00;  1.0000000E+03;  4.0000001E-01;  0.0000000E+00;0;  0.0000000E+00;  0.0000000E+00;  0.0000000E+00;0;  0.0000000E+00;  1.0000000E+04;  0.0000000E+00;  0.0000000E+00;  1.0000000E+04;  0.0000000E+00;  1.0000000E+04;  0.0000000E+00;  0.0000000E+00;  0.0000000E+00;  0.0000000E+00;
 -2.0000000E-01;  9.9999998E-03;  2.3999999E-01;71;  0.0000000E+00;  0.0000000E+00;  0.0000000E+00;  1.0000000E+03;  4.0000001E-01;  0.0000000E+00;0;  0.0000000E+00;  0.0000000E+00;  0.0000000E+00;0;  0.0000000E+00;  1.0000000E+04;  0.0000000E+00;  0.0000000E+00;  1.0000000E+04;  0.0000000E+00;  1.0000000E+04;  0.0000000E+00;  0.0000000E+00;  0.0000000E+00;  0.0000000E+00;
 -2.0000000E-01;  9.9999998E-03;  2.5999999E-01;72;  0.0000000E+00;  0.0000000E+00;  0.0000000E+00;  1.0000000E+03;  4.0000001E-01;  0.0000000E+00;0;  0.0000000E+00;  0.0000000E+00;  0.0000000E+00;0;  0.0000000E+00;  1.0000000E+04;  0.0000000E+00;  0.0000000E+00;  1.0000000E+04;  0.0000000E+00;  1.0000000E+04;  0.0000000E+00;  0.0000000E+00;  0.0000000E+00;  0.0000000E+00;
 -2.0000000E-01;  9.9999998E-03;  2.8000000E-01;73;  0.0000000E+00;  0.0000000E+00;  0.0000000E+00;  1.0000000E+03;  4.0000001E-01;  0.0000000E+00;0;  0.0000000E+00;  0.0000000E+00;  0.0000000E+00;0;  0.0000000E+00;  1.0000000E+04;  0.0000000E+00;  0.0000000E+00;  1.0000000E+04;  0.0000000E+00;  1.0000000E+04;  0.0000000E+00;  0.0000000E+00;  0.0000000E+00;  0.0000000E+00;
 -2.0000000E-01;  9.9999998E-03;  3.0000001E-01;74;  0.0000000E+00;  0.0000000E+00;  0.0000000E+00;  1.0000000E+03;  4.0000001E-01;  0.0000000E+00;0;  0.0000000E+00;  0.0000000E+00;  0.0000000E+00;0;  0.0000000E+00;  1.0000000E+04;  0.0000000E+00;  0.0000000E+00;  1.0000000E+04;  0.0000000E+00;  1.0000000E+04;  0.0000000E+00;  0.0000000E+00;  0.0000000E+00;  0.0000000E+00;
 -2.0000000E-01;  9.9999998E-03;  3.1999999E-01;75;  0.0000000E+00;  0.0000000E+00;  0.0000000E+00;  1.0000000E+03;  4.0000001E-01;  0.0000000E+00;0;  0.0000000E+00;  0.0000000E+00;  0.0000000E+00;0;  0.0000000E+00;  1.0000000E+04;  0.0000000E+00;  0.0000000E+00;  1.0000000E+04;  0.0000000E+00;  1.0000000E+04;  0.0000000E+00;  0.0000000E+00;  0.0000000E+00;  0.0000000E+00;
 -1.8000001E-01;  9.9999998E-03;  1.6000000E-01;108;  0.0000000E+00;  0.0000000E+00;  0.0000000E+00;  1.0000000E+03;  4.0000001E-01;  0.0000000E+00;0;  0.0000000E+00;  0.0000000E+00;  0.0000000E+00;0;  0.0000000E+00;  1.0000000E+04;  0.0000000E+00;  0.0000000E+00;  1.0000000E+04;  0.0000000E+00;  1.0000000E+04;  0.0000000E+00;  0.0000000E+00;  0.0000000E+00;  0.0000000E+00;
 -1.8000001E-01;  9.9999998E-03;  1.8000001E-01;109;  0.0000000E+00;  0.0000000E+00;  0.0000000E+00;  1.0000000E+03;  4.0000001E-01;  0.0000000E+00;0;  0.0000000E+00;  0.0000000E+00;  0.0000000E+00;0;  0.0000000E+00;  1.0000000E+04;  0.0000000E+00;  0.0000000E+00;  1.0000000E+04;  0.0000000E+00;  1.0000000E+04;  0.0000000E+00;  0.0000000E+00;  0.0000000E+00;  0.0000000E+00;
 -1.8000001E-01;  9.9999998E-03;  2.0000000E-01;110;  0.0000000E+00;  0.0000000E+00;  0.0000000E+00;  1.0000000E+03;  4.0000001E-01;  0.0000000E+00;0;  0.0000000E+00;  0.0000000E+00;  0.0000000E+00;0;  0.0000000E+00;  1.0000000E+04;  0.0000000E+00;  0.0000000E+00;  1.0000000E+04;  0.0000000E+00;  1.0000000E+04;  0.0000000E+00;  0.0000000E+00;  0.0000000E+00;  0.0000000E+00;
 -1.8000001E-01;  9.9999998E-03;  2.2000000E-01;111;  0.0000000E+00;  0.0000000E+00;  0.0000000E+00;  1.0000000E+03;  4.0000001E-01;  0.0000000E+00;0;  0.0000000E+00;  0.0000000E+00;  0.0000000E+00;0;  0.0000000E+00;  1.0000000E+04;  0.0000000E+00;  0.0000000E+00;  1.0000000E+04;  0.0000000E+00;  1.0000000E+04;  0.0000000E+00;  0.0000000E+00;  0.0000000E+00;  0.0000000E+00;
 -1.8000001E-01;  9.9999998E-03;  2.3999999E-01;112;  0.0000000E+00;  0.0000000E+00;  0.0000000E+00;  1.0000000E+03;  4.0000001E-01;  0.0000000E+00;0;  0.0000000E+00;  0.0000000E+00;  0.0000000E+00;0;  0.0000000E+00;  1.0000000E+04;  0.0000000E+00;  0.0000000E+00;  1.0000000E+04;  0.0000000E+00;  1.0000000E+04;  0.0000000E+00;  0.0000000E+00;  0.0000000E+00;  0.0000000E+00;
 -1.8000001E-01;  9.9999998E-03;  2.5999999E-01;113;  0.0000000E+00;  0.0000000E+00;  0.0000000E+00;  1.0000000E+03;  4.0000001E-01;  0.0000000E+00;0;  0.0000000E+00;  0.0000000E+00;  0.0000000E+00;0;  0.0000000E+00;  1.0000000E+04;  0.0000000E+00;  0.0000000E+00;  1.0000000E+04;  0.0000000E+00;  1.0000000E+04;  0.0000000E+00;  0.0000000E+00;  0.0000000E+00;  0.0000000E+00;
 -1.8000001E-01;  9.9999998E-03;  2.8000000E-01;114;  0.0000000E+00;  0.0000000E+00;  0.0000000E+00;  1.0000000E+03;  4.0000001E-01;  0.0000000E+00;0;  0.0000000E+00;  0.0000000E+00;  0.0000000E+00;0;  0.0000000E+00;  1.0000000E+04;  0.0000000E+00;  0.0000000E+00;  1.0000000E+04;  0.0000000E+00;  1.0000000E+04;  0.0000000E+00;  0.0000000E+00;  0.0000000E+00;  0.0000000E+00;
 -1.8000001E-01;  9.9999998E-03;  3.0000001E-01;115;  0.0000000E+00;  0.0000000E+00;  0.0000000E+00;  1.0000000E+03;  4.0000001E-01;  0.0000000E+00;0;  0.0000000E+00;  0.0000000E+00;  0.0000000E+00;0;  0.0000000E+00;  1.0000000E+04;  0.0000000E+00;  0.0000000E+00;  1.0000000E+04;  0.0000000E+00;  1.0000000E+04;  0.0000000E+00;  0.0000000E+00;  0.0000000E+00;  0.0000000E+00;
 -1.8000001E-01;  9.9999998E-03;  3.1999999E-01;116;  0.0000000E+00;  0.0000000E+00;  0.0000000E+00;  1.0000000E+03;  4.0000001E-01;  0.0000000E+00;0;  0.0000000E+00;  0.0000000E+00;  0.0000000E+00;0;  0.0000000E+00;  1.0000000E+04;  0.0000000E+00;  0.0000000E+00;  1.0000000E+04;  0.0000000E+00;  1.0000000E+04;  0.0000000E+00;  0.0000000E+00;  0.0000000E+00;  0.0000000E+00;
 -1.6000000E-01;  9.9999998E-03;  1.6000000E-01;149;  0.0000000E+00;  0.0000000E+00;  0.0000000E+00;  1.0000000E+03;  4.0000001E-01;  0.0000000E+00;0;  0.0000000E+00;  0.0000000E+00;  0.0000000E+00;0; -2.7246199E-06;  1.0000000E+04;  0.0000000E+00;  0.0000000E+00;  1.0000000E+04;  0.0000000E+00;  1.0000000E+04; -2.7300264E-06;  0.0000000E+00;  5.4065241E-09;  3.0077956E-04;
 -1.6000000E-01;  9.9999998E-03;  1.8000001E-01;150;  0.0000000E+00;  0.0000000E+00;  0.0000000E+00;  1.0000000E+03;  4.0000001E-01;  0.0000000E+00;0;  0.0000000E+00;  0.0000000E+00;  0.0000000E+00;0; -2.6479404E-06;  1.0000000E+04;  0.0000000E+00;  0.0000000E+00;  1.0000000E+04;  0.0000000E+00;  1.0000000E+04; -2.6541288E-06;  0.0000000E+00;  6.1883978E-09;  3.0139516E-04;
 -1.6000000E-01;  9.9999998E-03;  2.0000000E-01;151;  0.0000000E+00;  0.0000000E+00;  0.0000000E+00;  1.0000000E+03;  4.0000001E-01;  0.0000000E+00;0;  0.0000000E+00;  0.0000000E+00;  0.0000000E+00;0; -2.5310053E-06;  1.0000000E+04;  0.0000000E+00;  0.0000000E+00;  1.0000000E+04;  0.0000000E+00;  1.0000000E+04; -2.5376398E-06;  0.0000000E+00;  6.6346129E-09;  2.9504305E-04;
 -1.6000000E-01;  9.9999998E-03;  2.2000000E-01;152;  0.0000000E+00;  0.0000000E+00;  0.0000000E+00;  1.0000000E+03;  4.0000001E-01;  0.0000000E+00;0;  0.0000000E+00;  0.0000000E+00;  0.0000000E+00;0; -2.3652447E-06;  1.0000000E+04;  0.0000000E+00;  0.0000000E+00;  1.0000000E+04;  0.0000000E+00;  1.0000000E+04; -2.3717564E-06;  0.0000000E+00;  6.5117178E-09;  2.7861688E-04;
 -1.6000000E-01;  9.9999998E-03;  2.3999999E-01;153;  0.0000000E+00;  0.0000000E+00;  0.0000000E+00;  1.0000000E+03;  4.0000001E-01;  0.0000000E+00;0;  0.0000000E+00;  0.0000000E+00;  0.0000000E+00;0; -2.1442702E-06;  1.0000000E+04;  0.0000000E+00;  0.0000000E+00;  1.0000000E+04;  0.0000000E+00;  1.0000000E+04; -2.1498190E-06;  0.0000000E+00;  5.5488565E-09;  2.4896360E-04;
 -1.6000000E-01;  9.9999998E-03;  2.5999999E-01;154;  0.0000000E+00;  0.0000000E+00;  0.0000000E+00;  1.0000000E+03;  4.0000001E-01;  0.0000000E+00;0;  0.0000000E+00;  0.0000000E+00;  0.0000000E+00;0; -1.8177633E-06;  1.0000000E+04;  0.0000000E+00;  0.0000000E+00;  1.0000000E+04;  0.0000000E+00;  1.0000000E+04; -1.8158414E-06;  0.0000000E+00; -1.9218849E-09;  1.4150598E-04;
 -1.6000000E-01;  9.9999998E-03;  2.8000000E-01;155;  0.0000000E+00;  0.0000000E+00;  0.0000000E+00;  1.0000000E+03;  4.0000001E-01;  0.0000000E+00;0;  0.0000000E+00;  0.0000000E+00;  0.0000000E+00;0; -1.2203884E-06;  1.0000000E+04;  0.0000000E+00;  0.0000000E+00;  1.0000000E+04;  0.0000000E+00;  1.0000000E+04; -1.2006972E-06;  0.0000000E+00; -1.9691200E-08;  1.0940344E-04;
 -1.6000000E-01;  9.9999998E-03;  3.0000001E-01;156;  0.0000000E+00;  0.0000000E+00;  0.0000000E+00;  1.0000000E+03;  4.0000001E-01;  0.0000000E+00;0;  0.0000000E+00;  0.0000000E+00;  0.0000000E+00;0; -5.1721162E-07;  1.0000000E+04;  0.0000000E+00;  0.0000000E+00;  1.0000000E+04;  0.0000000E+00;  1.0000000E+04; -4.9529615E-07;  0.0000000E+00; -2.1915470E-08;  1.9379931E-04;
 -1.6000000E-01;  9.9999998E-03;  3.1999999E-01;157;  0.0000000E+00;  0.0000000E+00;  0.0000000E+00;  1.0000000E+03;  4.0000001E-01;  0.0000000E+00;0;  0.0000000E+00;  0.0000000E+00;  0.0000000E+00;0; -8.1387761E-08;  1.0000000E+04;  0.0000000E+00;  0.0000000E+00;  1.0000000E+04;  0.0000000E+00;  1.0000000E+04; -7.4894167E-08;  0.0000000E+00; -6.4935963E-09;  6.2292966E-05;
 -1.4000000E-01;  9.9999998E-03;  1.6000000E-01;190;  0.0000000E+00;  0.0000000E+00;  0.0000000E+00;  1.0000000E+03;  4.0000001E-01;  0.0000000E+00;0;  0.0000000E+00;  0.0000000E+00;  0.0000000E+00;0; -9.9182049E-05;  1.0000000E+04;  0.0000000E+00;  0.0000000E+00;  1.0000000E+04;  0.0000000E+00;  1.0000000E+04; -9.9853940E-05;  0.0000000E+00;  6.7189296E-07;  1.5930470E-02;
 -1.4000000E-01;  9.9999998E-03;  1.8000001E-01;191;  0.0000000E+00;  0.0000000E+00;  0.0000000E+00;  1.0000000E+03;  4.0000001E-01;  0.0000000E+00;0;  0.0000000E+00;  0.0000000E+00;  0.0000000E+00;0; -9.6056698E-05;  1.0000000E+04;  0.0000000E+00;  0.0000000E+00;  1.0000000E+04;  0.0000000E+00;  1.0000000E+04; -9.6810123E-05;  0.0000000E+00;  7.5342280E-07;  1.6444180E-02;
 -1.4000000E-01;  9.9999998E-03;  2.0000000E-01;192;  0.0000000E+00;  0.0000000E+00;  0.0000000E+00;  1.0000000E+03;  4.0000001E-01;  0.0000000E+00;0;  0.0000000E+00;  0.0000000E+00;  0.0000000E+00;0; -9.1493566E-05;  1.0000000E+04;  0.0000000E+00;  0.0000000E+00;  1.0000000E+04;  0.0000000E+00;  1.0000000E+04; -9.2284230E-05;  0.0000000E+00;  7.9066581E-07;  1.6378574E-02;
 -1.4000000E-01;  9.9999998E-03;  2.2000000E-01;193;  0.0000000E+00;  0.0000000E+00;  0.0000000E+00;  1.0000000E+03;  4.0000001E-01;  0.0000000E+00;0;  0.0000000E+00;  0.0000000E+00;  0.0000000E+00;0; -8.5074789E-05;  1.0000000E+04;  0.0000000E+00;  0.0000000E+00;  1.0000000E+04;  0.0000000E+00;  1.0000000E+04; -8.5770909E-05;  0.0000000E+00;  6.9612167E-07;  1.4782296E-02;
 -1.4000000E-01;  9.9999998E-03;  2.3999999E-01;194;  0.0000000E+00;  0.0000000E+00;  0.0000000E+00;  1.0000000E+03;  4.0000001E-01;  0.0000000E+00;0;  0.0000000E+00;  0.0000000E+00;  0.0000000E+00;0; -7.5452037E-05;  1.0000000E+04;  0.0000000E+00;  0.0000000E+00;  1.0000000E+04;  0.0000000E+00;  1.0000000E+04; -7.5640652E-05;  0.0000000E+00;  1.8861523E-07;  8.5592540E-03;
 -1.4000000E-01;  9.9999998E-03;  2.5999999E-01;195;  0.0000000E+00;  0.0000000E+00;  0.0000000E+00;  1.0000000E+03;  4.0000001E-01;  0.0000000E+00;0;  0.0000000E+00;  0.0000000E+00;  0.0000000E+00;0; -6.1616047E-05;  1.0000000E+04;  0.0000000E+00;  0.0000000E+00;  1.0000000E+04;  0.0000000E+00;  1.0000000E+04; -6.0934741E-05;  0.0000000E+00; -6.8130305E-07;  1.8547769E-03;
 -1.4000000E-01;  9.9999998E-03;  2.8000000E-01;196;  0.0000000E+00;  0.0000000E+00;  0.0000000E+00;  1.0000000E+03;  4.0000001E-01;  0.0000000E+00;0;  0.0000000E+00;  0.0000000E+00;  0.0000000E+00;0; -4.4477074E-05;  1.0000000E+04;  0.0000000E+00;  0.0000000E+00;  1.0000000E+04;  0.0000000E+00;  1.0000000E+04; -4.3027652E-05;  0.0000000E+00; -1.4494219E-06;  1.1510526E-02;
 -1.4000000E-01;  9.9999998E-03;  3.0000001E-01;197;  0.0000000E+00;  0.0000000E+00;  0.0000000E+00;  1.0000000E+03;  4.0000001E-01;  0.0000000E+00;0;  0.0000000E+00;  0.0000000E+00;  0.0000000E+00;0; -2.6959891E-05;  1.0000000E+04;  0.0000000E+00;  0.0000000E+00;  1.0000000E+04;  0.0000000E+00;  1.0000000E+04; -2.5270001E-05;  0.0000000E+00; -1.6898911E-06;  1.5718317E-02;
 -1.4000000E-01;  9.9999998E-03;  3.1999999E-01;198;  0.0000000E+00;  0.0000000E+00;  0.0000000E+00;  1.0000000E+03;  4.0000001E-01;  0.0000000E+00;0;  0.0000000E+00;  0.0000000E+00;  0.0000000E+00;0; -1.2682372E-05;  1.0000000E+04;  0.0000000E+00;  0.0000000E+00;  1.0000000E+04;  0.0000000E+00;  1.0000000E+04; -1.1372881E-05;  0.0000000E+00; -1.3094914E-06;  1.2954169E-02;
 -1.2000000E-01;  9.9999998E-03;  1.6000000E-01;231;  0.0000000E+00;  0.0000000E+00;  0.0000000E+00;  1.0000006E+03;  4.0000001E-01;  4.9381313E-01;0;  0.0000000E+00;  0.0000000E+00;  0.0000000E+00;0; -5.4734579E-04;  1.0000000E+04;  0.0000000E+00;  0.0000000E+00;  1.0000000E+04;  0.0000000E+00;  1.0000000E+04; -5.5373361E-04;  0.0000000E+00;  6.3878501E-06;  1.1627543E-01;
 -1.2000000E-01;  9.9999998E-03;  1.8000001E-01;232;  0.0000000E+00;  0.0000000E+00;  0.0000000E+00;  1.0000006E+03;  4.0000001E-01;  4.9381313E-01;0;  0.0000000E+00;  0.0000000E+00;  0.0000000E+00;0; -5.2908243E-04;  1.0000000E+04;  0.0000000E+00;  0.0000000E+00;  1.0000000E+04;  0.0000000E+00;  1.0000000E+04; -5.3613546E-04;  0.0000000E+00;  7.0530286E-06;  1.2111126E-01;
 -1.2000000E-01;  9.9999998E-03;  2.0000000E-01;233;  0.0000000E+00;  0.0000000E+00;  0.0000000E+00;  1.0000005E+03;  4.0000001E-01;  4.9381313E-01;0;  0.0000000E+00;  0.0000000E+00;  0.0000000E+00;0; -5.0262100E-04;  1.0000000E+04;  0.0000000E+00;  0.0000000E+00;  1.0000000E+04;  0.0000000E+00;  1.0000000E+04; -5.0958700E-04;  0.0000000E+00;  6.9660241E-06;  1.1740962E-01;
 -1.2000000E-01;  9.9999998E-03;  2.2000000E-01;234;  0.0000000E+00;  0.0000000E+00;  0.0000000E+00;  1.0000005E+03;  4.0000001E-01;  3.9505050E-01;0;  0.0000000E+00;  0.0000000E+00;  0.0000000E+00;0; -4.6450036E-04;  1.0000000E+04;  0.0000000E+00;  0.0000000E+00;  1.0000000E+04;  0.0000000E+00;  1.0000000E+04; -4.6943943E-04;  0.0000000E+00;  4.9390615E-06;  9.2340149E-02;
 -1.2000000E-01;  9.9999998E-03;  2.3999999E-01;235;  0.0000000E+00;  0.0000000E+00;  0.0000000E+00;  1.0000004E+03;  4.0000001E-01;  3.9505050E-01;0;  0.0000000E+00;  0.0000000E+00;  0.0000000E+00;0; -4.1125464E-04;  1.0000000E+04;  0.0000000E+00;  0.0000000E+00;  1.0000000E+04;  0.0000000E+00;  1.0000000E+04; -4.1180273E-04;  0.0000000E+00;  5.4809306E-07;  4.1084692E-02;
 -1.2000000E-01;  9.9999998E-03;  2.5999999E-01;236;  0.0000000E+00;  0.0000000E+00;  0.0000000E+00;  1.0000003E+03;  4.0000001E-01;  2.9628786E-01;0;  0.0000000E+00;  0.0000000E+00;  0.0000000E+00;0; -3.4160778E-04;  1.0000000E+04;  0.0000000E+00;  0.0000000E+00;  1.0000000E+04;  0.0000000E+00;  1.0000000E+04; -3.3628530E-04;  0.0000000E+00; -5.3224931E-06;  2.7210707E-02;
 -1.2000000E-01;  9.9999998E-03;  2.8000000E-01;237;  0.0000000E+00;  0.0000000E+00;  0.0000000E+00;  1.0000002E+03;  4.0000001E-01;  1.9752525E-01;0;  0.0000000E+00;  0.0000000E+00;  0.0000000E+00;0; -2.5952043E-04;  1.0000000E+04;  0.0000000E+00;  0.0000000E+00;  1.0000000E+04;  0.0000000E+00;  1.0000000E+04; -2.4898682E-04;  0.0000000E+00; -1.0533611E-05;  8.9618243E-02;
 -1.2000000E-01;  9.9999998E-03;  3.0000001E-01;238;  0.0000000E+00;  0.0000000E+00;  0.0000000E+00;  1.0000002E+03;  4.0000001E-01;  1.9752525E-01;0;  0.0000000E+00;  0.0000000E+00;  0.0000000E+00;0; -1.7540579E-04;  1.0000000E+04;  0.0000000E+00;  0.0000000E+00;  1.0000000E+04;  0.0000000E+00;  1.0000000E+04; -1.6229294E-04;  0.0000000E+00; -1.3112853E-05;  1.2446126E-01;
 -1.2000000E-01;  9.9999998E-03;  3.1999999E-01;239;  0.0000000E+00;  0.0000000E+00;  0.0000000E+00;  1.0000000E+03;  4.0000001E-01;  0.0000000E+00;0;  0.0000000E+00;  0.0000000E+00;  0.0000000E+00;0; -1.0205661E-04;  1.0000000E+04;  0.0000000E+00;  0.0000000E+00;  1.0000000E+04;  0.0000000E+00;  1.0000000E+04; -8.9751251E-05;  0.0000000E+00; -1.2305354E-05;  1.2259823E-01;
 -1.0000000E-01;  9.9999998E-03;  1.6000000E-01;272;  0.0000000E+00;  0.0000000E+00;  0.0000000E+00;  1.0000020E+03;  4.0000001E-01;  1.6789646E+00;0;  0.0000000E+00;  0.0000000E+00;  0.0000000E+00;0; -1.7431112E-03;  1.0000000E+04;  0.0000000E+00;  0.0000000E+00;  1.0000000E+04;  0.0000000E+00;  1.0000000E+04; -1.7718100E-03;  0.0000000E+00;  2.8698791E-05;  4.5978662E-01;
 -1.0000000E-01;  9.9999998E-03;  1.8000001E-01;273;  0.0000000E+00;  0.0000000E+00;  0.0000000E+00;  1.0000020E+03;  4.0000001E-01;  1.5802020E+00;0;  0.0000000E+00;  0.0000000E+00;  0.0000000E+00;0; -1.6828319E-03;  1.0000000E+04;  0.0000000E+00;  0.0000000E+00;  1.0000000E+04;  0.0000000E+00;  1.0000000E+04; -1.7137490E-03;  0.0000000E+00;  3.0917097E-05;  4.7559881E-01;
 -1.0000000E-01;  9.9999998E-03;  2.0000000E-01;274;  0.0000000E+00;  0.0000000E+00;  0.0000000E+00;  1.0000020E+03;  4.0000001E-01;  1.5802020E+00;0;  0.0000000E+00;  0.0000000E+00;  0.0000000E+00;0; -1.5959492E-03;  1.0000000E+04;  0.0000000E+00;  0.0000000E+00;  1.0000000E+04;  0.0000000E+00;  1.0000000E+04; -1.6246631E-03;  0.0000000E+00;  2.8713921E-05;  4.4280830E-01;
 -1.0000000E-01;  9.9999998E-03;  2.2000000E-01;275;  0.0000000E+00;  0.0000000E+00;  0.0000000E+00;  1.0000017E+03;  4.0000001E-01;  1.3826767E+00;0;  0.0000000E+00;  0.0000000E+00;  0.0000000E+00;0; -1.4746750E-03;  1.0000000E+04;  0.0000000E+00;  0.0000000E+00;  1.0000000E+04;  0.0000000E+00;  1.0000000E+04; -1.4940217E-03;  0.0000000E+00;  1.9346737E-05;  3.3170167E-01;
 -1.0000000E-01;  9.9999998E-03;  2.3999999E-01;276;  0.0000000E+00;  0.0000000E+00;  0.0000000E+00;  1.0000016E+03;  4.0000001E-01;  1.2839141E+00;0;  0.0000000E+00;  0.0000000E+00;  0.0000000E+00;0; -1.3119277E-03;  1.0000000E+04;  0.0000000E+00;  0.0000000E+00;  1.0000000E+04;  0.0000000E+00;  1.0000000E+04; -1.3138916E-03;  0.0000000E+00;  1.9638771E-06;  1.3233255E-01;
 -1.0000000E-01;  9.9999998E-03;  2.5999999E-01;277;  0.0000000E+00;  0.0000000E+00;  0.0000000E+00;  1.0000013E+03;  4.0000001E-01;  1.0863888E+00;0;  0.0000000E+00;  0.0000000E+00;  0.0000000E+00;0; -1.1055184E-03;  1.0000000E+04;  0.0000000E+00;  0.0000000E+00;  1.0000000E+04;  0.0000000E+00;  1.0000000E+04; -1.0852574E-03;  0.0000000E+00; -2.0261081E-05;  1.2222728E-01;
 -1.0000000E-01;  9.9999998E-03;  2.8000000E-01;278;  0.0000000E+00;  0.0000000E+00;  0.0000000E+00;  1.0000010E+03;  4.0000001E-01;  8.8886362E-01;0;  0.0000000E+00;  0.0000000E+00;  0.0000000E+00;0; -8.6518249E-04;  1.0000000E+04;  0.0000000E+00;  0.0000000E+00;  1.0000000E+04;  0.0000000E+00;  1.0000000E+04; -8.2472136E-04;  0.0000000E+00; -4.0461106E-05;  3.5831374E-01;
 -1.0000000E-01;  9.9999998E-03;  3.0000001E-01;279;  0.0000000E+00;  0.0000000E+00;  0.0000000E+00;  1.0000007E+03;  4.0000001E-01;  5.9257573E-01;0;  0.0000000E+00;  0.0000000E+00;  0.0000000E+00;0; -6.1683339E-04;  1.0000000E+04;  0.0000000E+00;  0.0000000E+00;  1.0000000E+04;  0.0000000E+00;  1.0000000E+04; -5.6441961E-04;  0.0000000E+00; -5.2413794E-05;  5.0733578E-01;
 -1.0000000E-01;  9.9999998E-03;  3.1999999E-01;280;  0.0000000E+00;  0.0000000E+00;  0.0000000E+00;  1.0000004E+03;  4.0000001E-01;  3.9505050E-01;0;  0.0000000E+00;  0.0000000E+00;  0.0000000E+00;0; -3.9375512E-04;  1.0000000E+04;  0.0000000E+00;  0.0000000E+00;  1.0000000E+04;  0.0000000E+00;  1.0000000E+04; -3.4030539E-04;  0.0000000E+00; -5.3449738E-05;  5.3777939E-01;
 -7.9999998E-02;  9.9999998E-03;  1.6000000E-01;313;  0.0000000E+00;  0.0000000E+00;  0.0000000E+00;  1.0000051E+03;  4.0000001E-01;  4.1480303E+00;0;  0.0000000E+00;  0.0000000E+00;  0.0000000E+00;0; -4.1500870E-03;  1.0000000E+04;  0.0000000E+00;  0.0000000E+00;  1.0000000E+04;  0.0000000E+00;  1.0000000E+04; -4.2367643E-03;  0.0000000E+00;  8.6677057E-05;  1.2946982E+00;
 -7.9999998E-02;  9.9999998E-03;  1.8000001E-01;314;  0.0000000E+00;  0.0000000E+00;  0.0000000E+00;  1.0000048E+03;  4.0000001E-01;  3.9505050E+00;0;  0.0000000E+00;  0.0000000E+00;  0.0000000E+00;0; -4.0044608E-03;  1.0000000E+04;  0.0000000E+00;  0.0000000E+00;  1.0000000E+04;  0.0000000E+00;  1.0000000E+04; -4.0956195E-03;  0.0000000E+00;  9.1158734E-05;  1.3229436E+00;
 -7.9999998E-02;  9.9999998E-03;  2.0000000E-01;315;  0.0000000E+00;  0.0000000E+00;  0.0000000E+00;  1.0000046E+03;  4.0000001E-01;  3.7529798E+00;0;  0.0000000E+00;  0.0000000E+00;  0.0000000E+00;0; -3.7980503E-03;  1.0000000E+04;  0.0000000E+00;  0.0000000E+00;  1.0000000E+04;  0.0000000E+00;  1.0000000E+04; -3.8809411E-03;  0.0000000E+00;  8.2890670E-05;  1.2119306E+00;
 -7.9999998E-02;  9.9999998E-03;  2.2000000E-01;316;  0.0000000E+00;  0.0000000E+00;  0.0000000E+00;  1.0000042E+03;  4.0000001E-01;  3.4566917E+00;0;  0.0000000E+00;  0.0000000E+00;  0.0000000E+00;0; -3.5161262E-03;  1.0000000E+04;  0.0000000E+00;  0.0000000E+00;  1.0000000E+04;  0.0000000E+00;  1.0000000E+04; -3.5714207E-03;  0.0000000E+00;  5.5294466E-05;  8.9005589E-01;
 -7.9999998E-02;  9.9999998E-03;  2.3999999E-01;317;  0.0000000E+00;  0.0000000E+00;  0.0000000E+00;  1.0000038E+03;  4.0000001E-01;  3.1604040E+00;0;  0.0000000E+00;  0.0000000E+00;  0.0000000E+00;0; -3.1448549E-03;  1.0000000E+04;  0.0000000E+00;  0.0000000E+00;  1.0000000E+04;  0.0000000E+00;  1.0000000E+04; -3.1515388E-03;  0.0000000E+00;  6.6839507E-06;  3.3698508E-01;
 -7.9999998E-02;  9.9999998E-03;  2.5999999E-01;318;  0.0000000E+00;  0.0000000E+00;  0.0000000E+00;  1.0000033E+03;  4.0000001E-01;  2.7653534E+00;0;  0.0000000E+00;  0.0000000E+00;  0.0000000E+00;0; -2.6791058E-03;  1.0000000E+04;  0.0000000E+00;  0.0000000E+00;  1.0000000E+04;  0.0000000E+00;  1.0000000E+04; -2.6245844E-03;  0.0000000E+00; -5.4521453E-05;  3.5904655E-01;
 -7.9999998E-02;  9.9999998E-03;  2.8000000E-01;319;  0.0000000E+00;  0.0000000E+00;  0.0000000E+00;  1.0000026E+03;  4.0000001E-01;  2.1727777E+00;0;  0.0000000E+00;  0.0000000E+00;  0.0000000E+00;0; -2.1370854E-03;  1.0000000E+04;  0.0000000E+00;  0.0000000E+00;  1.0000000E+04;  0.0000000E+00;  1.0000000E+04; -2.0259398E-03;  0.0000000E+00; -1.1114572E-04;  1.0131936E+00;
 -7.9999998E-02;  9.9999998E-03;  3.0000001E-01;320;  0.0000000E+00;  0.0000000E+00;  0.0000000E+00;  1.0000020E+03;  4.0000001E-01;  1.5802020E+00;0;  0.0000000E+00;  0.0000000E+00;  0.0000000E+00;0; -1.5719585E-03;  1.0000000E+04;  0.0000000E+00;  0.0000000E+00;  1.0000000E+04;  0.0000000E+00;  1.0000000E+04; -1.4242107E-03;  0.0000000E+00; -1.4774785E-04;  1.4550661E+00;
 -7.9999998E-02;  9.9999998E-03;  3.1999999E-01;321;  0.0000000E+00;  0.0000000E+00;  0.0000000E+00;  1.0000013E+03;  4.0000001E-01;  1.0863888E+00;0;  0.0000000E+00;  0.0000000E+00;  0.0000000E+00;0; -1.0549927E-03;  1.0000000E+04;  0.0000000E+00;  0.0000000E+00;  1.0000000E+04;  0.0000000E+00;  1.0000000E+04; -8.9756225E-04;  0.0000000E+00; -1.5743040E-04;  1.6035653E+00;
 -5.9999999E-02;  9.9999998E-03;  1.6000000E-01;354;  0.0000000E+00;  0.0000000E+00;  0.0000000E+00;  1.0000099E+03;  4.0000001E-01;  8.1972980E+00;0;  0.0000000E+00;  0.0000000E+00;  0.0000000E+00;0; -8.0674188E-03;  1.0000000E+04;  0.0000000E+00;  0.0000000E+00;  1.0000000E+04;  0.0000000E+00;  1.0000000E+04; -8.2699321E-03;  0.0000000E+00;  2.0251358E-04;  2.8963199E+00;
 -5.9999999E-02;  9.9999998E-03;  1.8000001E-01;355;  0.0000000E+00;  0.0000000E+00;  0.0000000E+00;  1.0000095E+03;  4.0000001E-01;  7.8022475E+00;0;  0.0000000E+00;  0.0000000E+00;  0.0000000E+00;0; -7.7864695E-03;  1.0000000E+04;  0.0000000E+00;  0.0000000E+00;  1.0000000E+04;  0.0000000E+00;  1.0000000E+04; -7.9971179E-03;  0.0000000E+00;  2.1064850E-04;  2.9442902E+00;
 -5.9999999E-02;  9.9999998E-03;  2.0000000E-01;356;  0.0000000E+00;  0.0000000E+00;  0.0000000E+00;  1.0000090E+03;  4.0000001E-01;  7.5059595E+00;0;  0.0000000E+00;  0.0000000E+00;  0.0000000E+00;0; -7.3935157E-03;  1.0000000E+04;  0.0000000E+00;  0.0000000E+00;  1.0000000E+04;  0.0000000E+00;  1.0000000E+04; -7.5836997E-03;  0.0000000E+00;  1.9018419E-04;  2.6802118E+00;
 -5.9999999E-02;  9.9999998E-03;  2.2000000E-01;357;  0.0000000E+00;  0.0000000E+00;  0.0000000E+00;  1.0000085E+03;  4.0000001E-01;  7.0121465E+00;0;  0.0000000E+00;  0.0000000E+00;  0.0000000E+00;0; -6.8636844E-03;  1.0000000E+04;  0.0000000E+00;  0.0000000E+00;  1.0000000E+04;  0.0000000E+00;  1.0000000E+04; -6.9910055E-03;  0.0000000E+00;  1.2732107E-04;  1.9526715E+00;
 -5.9999999E-02;  9.9999998E-03;  2.3999999E-01;358;  0.0000000E+00;  0.0000000E+00;  0.0000000E+00;  1.0000076E+03;  4.0000001E-01;  6.2220454E+00;0;  0.0000000E+00;  0.0000000E+00;  0.0000000E+00;0; -6.1720111E-03;  1.0000000E+04;  0.0000000E+00;  0.0000000E+00;  1.0000000E+04;  0.0000000E+00;  1.0000000E+04; -6.1910404E-03;  0.0000000E+00;  1.9029219E-05;  7.2397059E-01;
 -5.9999999E-02;  9.9999998E-03;  2.5999999E-01;359;  0.0000000E+00;  0.0000000E+00;  0.0000000E+00;  1.0000065E+03;  4.0000001E-01;  5.3331819E+00;0;  0.0000000E+00;  0.0000000E+00;  0.0000000E+00;0; -5.3058579E-03;  1.0000000E+04;  0.0000000E+00;  0.0000000E+00;  1.0000000E+04;  0.0000000E+00;  1.0000000E+04; -5.1887315E-03;  0.0000000E+00; -1.1712631E-04;  8.2069278E-01;
 -5.9999999E-02;  9.9999998E-03;  2.8000000E-01;360;  0.0000000E+00;  0.0000000E+00;  0.0000000E+00;  1.0000053E+03;  4.0000001E-01;  4.4443183E+00;0;  0.0000000E+00;  0.0000000E+00;  0.0000000E+00;0; -4.2914525E-03;  1.0000000E+04;  0.0000000E+00;  0.0000000E+00;  1.0000000E+04;  0.0000000E+00;  1.0000000E+04; -4.0461118E-03;  0.0000000E+00; -2.4534043E-04;  2.2940805E+00;
 -5.9999999E-02;  9.9999998E-03;  3.0000001E-01;361;  0.0000000E+00;  0.0000000E+00;  0.0000000E+00;  1.0000040E+03;  4.0000001E-01;  3.3579292E+00;0;  0.0000000E+00;  0.0000000E+00;  0.0000000E+00;0; -3.2217361E-03;  1.0000000E+04;  0.0000000E+00;  0.0000000E+00;  1.0000000E+04;  0.0000000E+00;  1.0000000E+04; -2.8891880E-03;  0.0000000E+00; -3.3254811E-04;  3.3304243E+00;
 -5.9999999E-02;  9.9999998E-03;  3.1999999E-01;362;  0.0000000E+00;  0.0000000E+00;  0.0000000E+00;  1.0000027E+03;  4.0000001E-01;  2.2715404E+00;0;  0.0000000E+00;  0.0000000E+00;  0.0000000E+00;0; -2.2299748E-03;  1.0000000E+04;  0.0000000E+00;  0.0000000E+00;  1.0000000E+04;  0.0000000E+00;  1.0000000E+04; -1.8664028E-03;  0.0000000E+00; -3.6357195E-04;  3.7518661E+00;
 -3.9999999E-02;  9.9999998E-03;  1.6000000E-01;395;  0.0000000E+00;  0.0000000E+00;  0.0000000E+00;  1.0000165E+03;  4.0000001E-01;  1.3728004E+01;0;  0.0000000E+00;  0.0000000E+00;  0.0000000E+00;0; -1.3374871E-02;  1.0000000E+04;  0.0000000E+00;  0.0000000E+00;  1.0000000E+04;  0.0000000E+00;  1.0000000E+04; -1.3768964E-02;  0.0000000E+00;  3.9409325E-04;  5.4704471E+00;
 -3.9999999E-02;  9.9999998E-03;  1.8000001E-01;396;  0.0000000E+00;  0.0000000E+00;  0.0000000E+00;  1.0000158E+03;  4.0000001E-01;  1.3135429E+01;0;  0.0000000E+00;  0.0000000E+00;  0.0000000E+00;0; -1.2920976E-02;  1.0000000E+04;  0.0000000E+00;  0.0000000E+00;  1.0000000E+04;  0.0000000E+00;  1.0000000E+04; -1.3329281E-02;  0.0000000E+00;  4.0830544E-04;  5.5576210E+00;
 -3.9999999E-02;  9.9999998E-03;  2.0000000E-01;397;  0.0000000E+00;  0.0000000E+00;  0.0000000E+00;  1.0000151E+03;  4.0000001E-01;  1.2444091E+01;0;  0.0000000E+00;  0.0000000E+00;  0.0000000E+00;0; -1.2291524E-02;  1.0000000E+04;  0.0000000E+00;  0.0000000E+00;  1.0000000E+04;  0.0000000E+00;  1.0000000E+04; -1.2660018E-02;  0.0000000E+00;  3.6849431E-04;  5.0536408E+00;
 -3.9999999E-02;  9.9999998E-03;  2.2000000E-01;398;  0.0000000E+00;  0.0000000E+00;  0.0000000E+00;  1.0000141E+03;  4.0000001E-01;  1.1653990E+01;0;  0.0000000E+00;  0.0000000E+00;  0.0000000E+00;0; -1.1448940E-02;  1.0000000E+04;  0.0000000E+00;  0.0000000E+00;  1.0000000E+04;  0.0000000E+00;  1.0000000E+04; -1.1698703E-02;  0.0000000E+00;  2.4976267E-04;  3.6823771E+00;
 -3.9999999E-02;  9.9999998E-03;  2.3999999E-01;399;  0.0000000E+00;  0.0000000E+00;  0.0000000E+00;  1.0000126E+03;  4.0000001E-01;  1.0468838E+01;0;  0.0000000E+00;  0.0000000E+00;  0.0000000E+00;0; -1.0352753E-02;  1.0000000E+04;  0.0000000E+00;  0.0000000E+00;  1.0000000E+04;  0.0000000E+00;  1.0000000E+04; -1.0399117E-02;  0.0000000E+00;  4.6363977E-05;  1.3719851E+00;
 -3.9999999E-02;  9.9999998E-03;  2.5999999E-01;400;  0.0000000E+00;  0.0000000E+00;  0.0000000E+00;  1.0000110E+03;  4.0000001E-01;  9.1849241E+00;0;  0.0000000E+00;  0.0000000E+00;  0.0000000E+00;0; -8.9761736E-03;  1.0000000E+04;  0.0000000E+00;  0.0000000E+00;  1.0000000E+04;  0.0000000E+00;  1.0000000E+04; -8.7643359E-03;  0.0000000E+00; -2.1183782E-04;  1.5602256E+00;
 -3.9999999E-02;  9.9999998E-03;  2.8000000E-01;401;  0.0000000E+00;  0.0000000E+00;  0.0000000E+00;  1.0000090E+03;  4.0000001E-01;  7.4071970E+00;0;  0.0000000E+00;  0.0000000E+00;  0.0000000E+00;0; -7.3459879E-03;  1.0000000E+04;  0.0000000E+00;  0.0000000E+00;  1.0000000E+04;  0.0000000E+00;  1.0000000E+04; -6.8853791E-03;  0.0000000E+00; -4.6060895E-04;  4.4148297E+00;
 -3.9999999E-02;  9.9999998E-03;  3.0000001E-01;402;  0.0000000E+00;  0.0000000E+00;  0.0000000E+00;  1.0000068E+03;  4.0000001E-01;  5.6294694E+00;0;  0.0000000E+00;  0.0000000E+00;  0.0000000E+00;0; -5.5992599E-03;  1.0000000E+04;  0.0000000E+00;  0.0000000E+00;  1.0000000E+04;  0.0000000E+00;  1.0000000E+04; -4.9635442E-03;  0.0000000E+00; -6.3571549E-04;  6.4794564E+00;
 -3.9999999E-02;  9.9999998E-03;  3.1999999E-01;403;  0.0000000E+00;  0.0000000E+00;  0.0000000E+00;  1.0000048E+03;  4.0000001E-01;  3.9505050E+00;0;  0.0000000E+00;  0.0000000E+00;  0.0000000E+00;0; -3.9569684E-03;  1.0000000E+04;  0.0000000E+00;  0.0000000E+00;  1.0000000E+04;  0.0000000E+00;  1.0000000E+04; -3.2507877E-03;  0.0000000E+00; -7.0618058E-04;  7.3926244E+00;
 -2.0000000E-02;  9.9999998E-03;  1.6000000E-01;436;  0.0000000E+00;  0.0000000E+00;  0.0000000E+00;  1.0000241E+03;  4.0000001E-01;  1.9950050E+01;0;  0.0000000E+00;  0.0000000E+00;  0.0000000E+00;0; -1.9416258E-02;  1.0000000E+04;  0.0000000E+00;  0.0000000E+00;  1.0000000E+04;  0.0000000E+00;  1.0000000E+04; -2.0079767E-02;  0.0000000E+00;  6.6351029E-04;  9.0244141E+00;
 -2.0000000E-02;  9.9999998E-03;  1.8000001E-01;437;  0.0000000E+00;  0.0000000E+00;  0.0000000E+00;  1.0000234E+03;  4.0000001E-01;  1.9456238E+01;0;  0.0000000E+00;  0.0000000E+00;  0.0000000E+00;0; -1.8785471E-02;  1.0000000E+04;  0.0000000E+00;  0.0000000E+00;  1.0000000E+04;  0.0000000E+00;  1.0000000E+04; -1.9472737E-02;  0.0000000E+00;  6.8726495E-04;  9.1862516E+00;
 -2.0000000E-02;  9.9999998E-03;  2.0000000E-01;438;  0.0000000E+00;  0.0000000E+00;  0.0000000E+00;  1.0000222E+03;  4.0000001E-01;  1.8369848E+01;0;  0.0000000E+00;  0.0000000E+00;  0.0000000E+00;0; -1.7914079E-02;  1.0000000E+04;  0.0000000E+00;  0.0000000E+00;  1.0000000E+04;  0.0000000E+00;  1.0000000E+04; -1.8536758E-02;  0.0000000E+00;  6.2267901E-04;  8.3747253E+00;
 -2.0000000E-02;  9.9999998E-03;  2.2000000E-01;439;  0.0000000E+00;  0.0000000E+00;  0.0000000E+00;  1.0000208E+03;  4.0000001E-01;  1.7283459E+01;0;  0.0000000E+00;  0.0000000E+00;  0.0000000E+00;0; -1.6750541E-02;  1.0000000E+04;  0.0000000E+00;  0.0000000E+00;  1.0000000E+04;  0.0000000E+00;  1.0000000E+04; -1.7180506E-02;  0.0000000E+00;  4.2996518E-04;  6.1424389E+00;
 -2.0000000E-02;  9.9999998E-03;  2.3999999E-01;440;  0.0000000E+00;  0.0000000E+00;  0.0000000E+00;  1.0000189E+03;  4.0000001E-01;  1.5703258E+01;0;  0.0000000E+00;  0.0000000E+00;  0.0000000E+00;0; -1.5236450E-02;  1.0000000E+04;  0.0000000E+00;  0.0000000E+00;  1.0000000E+04;  0.0000000E+00;  1.0000000E+04; -1.5334735E-02;  0.0000000E+00;  9.8284654E-05;  2.3552060E+00;
 -2.0000000E-02;  9.9999998E-03;  2.5999999E-01;441;  0.0000000E+00;  0.0000000E+00;  0.0000000E+00;  1.0000166E+03;  4.0000001E-01;  1.3728004E+01;0;  0.0000000E+00;  0.0000000E+00;  0.0000000E+00;0; -1.3326647E-02;  1.0000000E+04;  0.0000000E+00;  0.0000000E+00;  1.0000000E+04;  0.0000000E+00;  1.0000000E+04; -1.2996734E-02;  0.0000000E+00; -3.2991293E-04;  2.5306678E+00;
 -2.0000000E-02;  9.9999998E-03;  2.8000000E-01;442;  0.0000000E+00;  0.0000000E+00;  0.0000000E+00;  1.0000137E+03;  4.0000001E-01;  1.1357701E+01;0;  0.0000000E+00;  0.0000000E+00;  0.0000000E+00;0; -1.1037345E-02;  1.0000000E+04;  0.0000000E+00;  0.0000000E+00;  1.0000000E+04;  0.0000000E+00;  1.0000000E+04; -1.0281604E-02;  0.0000000E+00; -7.5574114E-04;  7.4268579E+00;
 -2.0000000E-02;  9.9999998E-03;  3.0000001E-01;443;  0.0000000E+00;  0.0000000E+00;  0.0000000E+00;  1.0000107E+03;  4.0000001E-01;  8.8886366E+00;0;  0.0000000E+00;  0.0000000E+00;  0.0000000E+00;0; -8.5306428E-03;  1.0000000E+04;  0.0000000E+00;  0.0000000E+00;  1.0000000E+04;  0.0000000E+00;  1.0000000E+04; -7.4655926E-03;  0.0000000E+00; -1.0650498E-03;  1.1063583E+01;
 -2.0000000E-02;  9.9999998E-03;  3.1999999E-01;444;  0.0000000E+00;  0.0000000E+00;  0.0000000E+00;  1.0000077E+03;  4.0000001E-01;  6.4195704E+00;0;  0.0000000E+00;  0.0000000E+00;  0.0000000E+00;0; -6.1286711E-03;  1.0000000E+04;  0.0000000E+00;  0.0000000E+00;  1.0000000E+04;  0.0000000E+00;  1.0000000E+04; -4.9318024E-03;  0.0000000E+00; -1.1968686E-03;  1.2734084E+01;
  0.0000000E+00;  9.9999998E-03;  3.0000001E-01;455;  0.0000000E+00;  0.0000000E+00;  0.0000000E+00;  1.0000146E+03;  4.0000001E-01;  1.2049040E+01;0;  0.0000000E+00;  0.0000000E+00;  0.0000000E+00;0; -1.1642843E-02;  1.0000000E+04;  0.0000000E+00;  0.0000000E+00;  1.0000000E+04;  0.0000000E+00;  1.0000000E+04; -1.0060842E-02;  0.0000000E+00; -1.5820011E-03;  1.6788534E+01;
  0.0000000E+00;  9.9999998E-03;  3.1999999E-01;456;  0.0000000E+00;  0.0000000E+00;  0.0000000E+00;  1.0000107E+03;  4.0000001E-01;  8.8886366E+00;0;  0.0000000E+00;  0.0000000E+00;  0.0000000E+00;0; -8.5050622E-03;  1.0000000E+04;  0.0000000E+00;  0.0000000E+00;  1.0000000E+04;  0.0000000E+00;  1.0000000E+04; -6.7002866E-03;  0.0000000E+00; -1.8047753E-03;  1.9569366E+01;
  2.0000000E-02;  9.9999998E-03;  3.1999999E-01;466;  0.0000000E+00;  0.0000000E+00;  0.0000000E+00;  1.0000139E+03;  4.0000001E-01;  1.1456465E+01;0;  0.0000000E+00;  0.0000000E+00;  0.0000000E+00;0; -1.0828731E-02;  1.0000000E+04;  0.0000000E+00;  0.0000000E+00;  1.0000000E+04;  0.0000000E+00;  1.0000000E+04; -8.3785765E-03;  0.0000000E+00; -2.4501539E-03;  2.7185228E+01;
  3.9999999E-02;  9.9999998E-03;  3.1999999E-01;476;  0.0000000E+00;  0.0000000E+00;  0.0000000E+00;  1.0000170E+03;  4.0000001E-01;  1.4123055E+01;0;  0.0000000E+00;  0.0000000E+00;  0.0000000E+00;0; -1.3025687E-02;  1.0000000E+04;  0.0000000E+00;  0.0000000E+00;  1.0000000E+04;  0.0000000E+00;  1.0000000E+04; -9.9906716E-03;  0.0000000E+00; -3.0350154E-03;  3.4648781E+01;
  5.9999999E-02;  9.9999998E-03;  3.1999999E-01;486;  0.0000000E+00;  0.0000000E+00;  0.0000000E+00;  1.0000204E+03;  4.0000001E-01;  1.6888409E+01;0;  0.0000000E+00;  0.0000000E+00;  0.0000000E+00;0; -1.5261031E-02;  1.0000000E+04;  0.0000000E+00;  0.0000000E+00;  1.0000000E+04;  0.0000000E+00;  1.0000000E+04; -1.1742395E-02;  0.0000000E+00; -3.5186356E-03;  4.1595463E+01;
  7.9999998E-02;  9.9999998E-03;  3.1999999E-01;496;  0.0000000E+00;  0.0000000E+00;  0.0000000E+00;  1.0000247E+03;  4.0000001E-01;  2.0443863E+01;0;  0.0000000E+00;  0.0000000E+00;  0.0000000E+00;0; -1.7875152E-02;  1.0000000E+04;  0.0000000E+00;  0.0000000E+00;  1.0000000E+04;  0.0000000E+00;  1.0000000E+04; -1.3955644E-02;  0.0000000E+00; -3.9195078E-03;  4.8387844E+01;
  1.0000000E-01;  9.9999998E-03;  3.1999999E-01;506;  0.0000000E+00;  0.0000000E+00;  0.0000000E+00;  1.0000304E+03;  4.0000001E-01;  2.5184469E+01;0;  0.0000000E+00;  0.0000000E+00;  0.0000000E+00;0; -2.1419104E-02;  1.0000000E+04;  0.0000000E+00;  0.0000000E+00;  1.0000000E+04;  0.0000000E+00;  1.0000000E+04; -1.7109843E-02;  0.0000000E+00; -4.3092612E-03;  6.0264473E+01;
  1.2000000E-01;  9.9999998E-03;  3.1999999E-01;516;  0.0000000E+00;  0.0000000E+00;  0.0000000E+00;  1.0000388E+03;  4.0000001E-01;  3.2097855E+01;0;  0.0000000E+00;  0.0000000E+00;  0.0000000E+00;0; -2.6631724E-02;  1.0000000E+04;  0.0000000E+00;  0.0000000E+00;  1.0000000E+04;  0.0000000E+00;  1.0000000E+04; -2.1808280E-02;  0.0000000E+00; -4.8234449E-03;  1.1305856E+02;
  1.4000000E-01;  9.9999998E-03;  3.1999999E-01;526;  0.0000000E+00;  0.0000000E+00;  0.0000000E+00;  1.0000514E+03;  4.0000001E-01;  4.2566692E+01;0;  0.0000000E+00;  0.0000000E+00;  0.0000000E+00;0; -3.4423396E-02;  1.0000000E+04;  0.0000000E+00;  0.0000000E+00;  1.0000000E+04;  0.0000000E+00;  1.0000000E+04; -2.8734529E-02;  0.0000000E+00; -5.6888685E-03;  2.8375717E+02;
  1.6000000E-01;  9.9999998E-03;  3.1999999E-01;536;  0.0000000E+00;  0.0000000E+00;  0.0000000E+00;  1.0000698E+03;  4.0000001E-01;  5.7874897E+01;0;  0.0000000E+00;  0.0000000E+00;  0.0000000E+00;0; -4.5670033E-02;  1.0000000E+04;  0.0000000E+00;  0.0000000E+00;  1.0000000E+04;  0.0000000E+00;  1.0000000E+04; -3.8392644E-02;  0.0000000E+00; -7.2773886E-03;  6.6632513E+02;
  1.8000001E-01;  9.9999998E-03;  3.1999999E-01;546;  0.0000000E+00;  0.0000000E+00;  0.0000000E+00;  1.0000950E+03;  4.0000001E-01;  7.8713814E+01;0;  0.0000000E+00;  0.0000000E+00;  0.0000000E+00;0; -6.0613066E-02;  1.0000000E+04;  0.0000000E+00;  0.0000000E+00;  1.0000000E+04;  0.0000000E+00;  1.0000000E+04; -5.0424326E-02;  0.0000000E+00; -1.0188742E-02;  1.3361372E+03;
  2.0000000E-01;  9.9999998E-03;  3.1999999E-01;555;  0.0000000E+00;  0.0000000E+00;  0.0000000E+00;  1.0001262E+03;  4.0000001E-01;  1.0458962E+02;0;  0.0000000E+00;  0.0000000E+00;  0.0000000E+00;0; -7.8511909E-02;  1.0000000E+04;  0.0000000E+00;  0.0000000E+00;  1.0000000E+04;  0.0000000E+00;  1.0000000E+04; -6.3232221E-02;  0.0000000E+00; -1.5279684E-02;  2.2068203E+03;
 -2.2000000E-01;  9.9999998E-03;  3.4000000E-01;36;  0.0000000E+00;  0.0000000E+00;  0.0000000E+00;  1.0000000E+03;  4.0000001E-01;  0.0000000E+00;0;  0.0000000E+00;  0.0000000E+00;  0.0000000E+00;0;  0.0000000E+00;  1.0000000E+04;  0.0000000E+00;  0.0000000E+00;  1.0000000E+04;  0.0000000E+00;  1.0000000E+04;  0.0000000E+00;  0.0000000E+00;  0.0000000E+00;  0.0000000E+00;
 -2.2000000E-01;  9.9999998E-03;  3.6000001E-01;37;  0.0000000E+00;  0.0000000E+00;  0.0000000E+00;  1.0000000E+03;  4.0000001E-01;  0.0000000E+00;0;  0.0000000E+00;  0.0000000E+00;  0.0000000E+00;0;  0.0000000E+00;  1.0000000E+04;  0.0000000E+00;  0.0000000E+00;  1.0000000E+04;  0.0000000E+00;  1.0000000E+04;  0.0000000E+00;  0.0000000E+00;  0.0000000E+00;  0.0000000E+00;
 -2.2000000E-01;  9.9999998E-03;  3.8000000E-01;38;  0.0000000E+00;  0.0000000E+00;  0.0000000E+00;  1.0000000E+03;  4.0000001E-01;  0.0000000E+00;0;  0.0000000E+00;  0.0000000E+00;  0.0000000E+00;0;  0.0000000E+00;  1.0000000E+04;  0.0000000E+00;  0.0000000E+00;  1.0000000E+04;  0.0000000E+00;  1.0000000E+04;  0.0000000E+00;  0.0000000E+00;  0.0000000E+00;  0.0000000E+00;
 -2.0000000E-01;  9.9999998E-03;  3.4000000E-01;76;  0.0000000E+00;  0.0000000E+00;  0.0000000E+00;  1.0000000E+03;  4.0000001E-01;  0.0000000E+00;0;  0.0000000E+00;  0.0000000E+00;  0.0000000E+00;0;  0.0000000E+00;  1.0000000E+04;  0.0000000E+00;  0.0000000E+00;  1.0000000E+04;  0.0000000E+00;  1.0000000E+04;  0.0000000E+00;  0.0000000E+00;  0.0000000E+00;  0.0000000E+00;
 -2.0000000E-01;  9.9999998E-03;  3.6000001E-01;77;  0.0000000E+00;  0.0000000E+00;  0.0000000E+00;  1.0000000E+03;  4.0000001E-01;  0.0000000E+00;0;  0.0000000E+00;  0.0000000E+00;  0.0000000E+00;0;  0.0000000E+00;  1.0000000E+04;  0.0000000E+00;  0.0000000E+00;  1.0000000E+04;  0.0000000E+00;  1.0000000E+04;  0.0000000E+00;  0.0000000E+00;  0.0000000E+00;  0.0000000E+00;
 -2.0000000E-01;  9.9999998E-03;  3.8000000E-01;78;  0.0000000E+00;  0.0000000E+00;  0.0000000E+00;  1.0000000E+03;  4.0000001E-01;  0.0000000E+00;0;  0.0000000E+00;  0.0000000E+00;  0.0000000E+00;0;  0.0000000E+00;  1.0000000E+04;  0.0000000E+00;  0.0000000E+00;  1.0000000E+04;  0.0000000E+00;  1.0000000E+04;  0.0000000E+00;  0.0000000E+00;  0.0000000E+00;  0.0000000E+00;
 -2.0000000E-01;  9.9999998E-03;  4.0000001E-01;79;  0.0000000E+00;  0.0000000E+00;  0.0000000E+00;  1.0000000E+03;  4.0000001E-01;  0.0000000E+00;0;  0.0000000E+00;  0.0000000E+00;  0.0000000E+00;0;  0.0000000E+00;  1.0000000E+04;  0.0000000E+00;  0.0000000E+00;  1.0000000E+04;  0.0000000E+00;  1.0000000E+04;  0.0000000E+00;  0.0000000E+00;  0.0000000E+00;  0.0000000E+00;
 -1.8000001E-01;  9.9999998E-03;  3.4000000E-01;117;  0.0000000E+00;  0.0000000E+00;  0.0000000E+00;  1.0000000E+03;  4.0000001E-01;  0.0000000E+00;0;  0.0000000E+00;  0.0000000E+00;  0.0000000E+00;0;  0.0000000E+00;  1.0000000E+04;  0.0000000E+00;  0.0000000E+00;  1.0000000E+04;  0.0000000E+00;  1.0000000E+04;  0.0000000E+00;  0.0000000E+00;  0.0000000E+00;  0.0000000E+00;
 -1.8000001E-01;  9.9999998E-03;  3.6000001E-01;118;  0.0000000E+00;  0.0000000E+00;  0.0000000E+00;  1.0000000E+03;  4.0000001E-01;  0.0000000E+00;0;  0.0000000E+00;  0.0000000E+00;  0.0000000E+00;0;  0.0000000E+00;  1.0000000E+04;  0.0000000E+00;  0.0000000E+00;  1.0000000E+04;  0.0000000E+00;  1.0000000E+04;  0.0000000E+00;  0.0000000E+00;  0.0000000E+00;  0.0000000E+00;
 -1.8000001E-01;  9.9999998E-03;  3.8000000E-01;119;  0.0000000E+00;  0.0000000E+00;  0.0000000E+00;  1.0000000E+03;  4.0000001E-01;  0.0000000E+00;0;  0.0000000E+00;  0.0000000E+00;  0.0000000E+00;0;  0.0000000E+00;  1.0000000E+04;  0.0000000E+00;  0.0000000E+00;  1.0000000E+04;  0.0000000E+00;  1.0000000E+04;  0.0000000E+00;  0.0000000E+00;  0.0000000E+00;  0.0000000E+00;
 -1.8000001E-01;  9.9999998E-03;  4.0000001E-01;120;  0.0000000E+00;  0.0000000E+00;  0.0000000E+00;  1.0000000E+03;  4.0000001E-01;  0.0000000E+00;0;  0.0000000E+00;  0.0000000E+00;  0.0000000E+00;0;  0.0000000E+00;  1.0000000E+04;  0.0000000E+00;  0.0000000E+00;  1.0000000E+04;  0.0000000E+00;  1.0000000E+04;  0.0000000E+00;  0.0000000E+00;  0.0000000E+00;  0.0000000E+00;
 -1.6000000E-01;  9.9999998E-03;  3.4000000E-01;158;  0.0000000E+00;  0.0000000E+00;  0.0000000E+00;  1.0000000E+03;  4.0000001E-01;  0.0000000E+00;0;  0.0000000E+00;  0.0000000E+00;  0.0000000E+00;0;  0.0000000E+00;  1.0000000E+04;  0.0000000E+00;  0.0000000E+00;  1.0000000E+04;  0.0000000E+00;  1.0000000E+04;  0.0000000E+00;  0.0000000E+00;  0.0000000E+00;  0.0000000E+00;
 -1.6000000E-01;  9.9999998E-03;  3.6000001E-01;159;  0.0000000E+00;  0.0000000E+00;  0.0000000E+00;  1.0000000E+03;  4.0000001E-01;  0.0000000E+00;0;  0.0000000E+00;  0.0000000E+00;  0.0000000E+00;0;  0.0000000E+00;  1.0000000E+04;  0.0000000E+00;  0.0000000E+00;  1.0000000E+04;  0.0000000E+00;  1.0000000E+04;  0.0000000E+00;  0.0000000E+00;  0.0000000E+00;  0.0000000E+00;
 -1.6000000E-01;  9.9999998E-03;  3.8000000E-01;160;  0.0000000E+00;  0.0000000E+00;  0.0000000E+00;  1.0000000E+03;  4.0000001E-01;  0.0000000E+00;0;  0.0000000E+00;  0.0000000E+00;  0.0000000E+00;0;  0.0000000E+00;  1.0000000E+04;  0.0000000E+00;  0.0000000E+00;  1.0000000E+04;  0.0000000E+00;  1.0000000E+04;  0.0000000E+00;  0.0000000E+00;  0.0000000E+00;  0.0000000E+00;
 -1.6000000E-01;  9.9999998E-03;  4.0000001E-01;161;  0.0000000E+00;  0.0000000E+00;  0.0000000E+00;  1.0000000E+03;  4.0000001E-01;  0.0000000E+00;0;  0.0000000E+00;  0.0000000E+00;  0.0000000E+00;0;  0.0000000E+00;  1.0000000E+04;  0.0000000E+00;  0.0000000E+00;  1.0000000E+04;  0.0000000E+00;  1.0000000E+04;  0.0000000E+00;  0.0000000E+00;  0.0000000E+00;  0.0000000E+00;
 -1.4000000E-01;  9.9999998E-03;  3.4000000E-01;199;  0.0000000E+00;  0.0000000E+00;  0.0000000E+00;  1.0000000E+03;  4.0000001E-01;  0.0000000E+00;0;  0.0000000E+00;  0.0000000E+00;  0.0000000E+00;0; -3.9092752E-06;  1.0000000E+04;  0.0000000E+00;  0.0000000E+00;  1.0000000E+04;  0.0000000E+00;  1.0000000E+04; -3.3032090E-06;  0.0000000E+00; -6.0606618E-07;  6.1116163E-03;
 -1.4000000E-01;  9.9999998E-03;  3.6000001E-01;200;  0.0000000E+00;  0.0000000E+00;  0.0000000E+00;  1.0000000E+03;  4.0000001E-01;  0.0000000E+00;0;  0.0000000E+00;  0.0000000E+00;  0.0000000E+00;0; -4.5431173E-07;  1.0000000E+04;  0.0000000E+00;  0.0000000E+00;  1.0000000E+04;  0.0000000E+00;  1.0000000E+04; -3.5853168E-07;  0.0000000E+00; -9.5780059E-08;  9.8026206E-04;
 -1.4000000E-01;  9.9999998E-03;  3.8000000E-01;201;  0.0000000E+00;  0.0000000E+00;  0.0000000E+00;  1.0000000E+03;  4.0000001E-01;  0.0000000E+00;0;  0.0000000E+00;  0.0000000E+00;  0.0000000E+00;0;  0.0000000E+00;  1.0000000E+04;  0.0000000E+00;  0.0000000E+00;  1.0000000E+04;  0.0000000E+00;  1.0000000E+04;  0.0000000E+00;  0.0000000E+00;  0.0000000E+00;  0.0000000E+00;
 -1.4000000E-01;  9.9999998E-03;  4.0000001E-01;202;  0.0000000E+00;  0.0000000E+00;  0.0000000E+00;  1.0000000E+03;  4.0000001E-01;  0.0000000E+00;0;  0.0000000E+00;  0.0000000E+00;  0.0000000E+00;0;  0.0000000E+00;  1.0000000E+04;  0.0000000E+00;  0.0000000E+00;  1.0000000E+04;  0.0000000E+00;  1.0000000E+04;  0.0000000E+00;  0.0000000E+00;  0.0000000E+00;  0.0000000E+00;
 -1.2000000E-01;  9.9999998E-03;  3.4000000E-01;240;  0.0000000E+00;  0.0000000E+00;  0.0000000E+00;  1.0000000E+03;  4.0000001E-01;  0.0000000E+00;0;  0.0000000E+00;  0.0000000E+00;  0.0000000E+00;0; -4.8286118E-05;  1.0000000E+04;  0.0000000E+00;  0.0000000E+00;  1.0000000E+04;  0.0000000E+00;  1.0000000E+04; -3.9621911E-05;  0.0000000E+00; -8.6642058E-06;  8.8437960E-02;
 -1.2000000E-01;  9.9999998E-03;  3.6000001E-01;241;  0.0000000E+00;  0.0000000E+00;  0.0000000E+00;  1.0000000E+03;  4.0000001E-01;  0.0000000E+00;0;  0.0000000E+00;  0.0000000E+00;  0.0000000E+00;0; -1.6148455E-05;  1.0000000E+04;  0.0000000E+00;  0.0000000E+00;  1.0000000E+04;  0.0000000E+00;  1.0000000E+04; -1.2200117E-05;  0.0000000E+00; -3.9483375E-06;  4.0652081E-02;
 -1.2000000E-01;  9.9999998E-03;  3.8000000E-01;242;  0.0000000E+00;  0.0000000E+00;  0.0000000E+00;  1.0000000E+03;  4.0000001E-01;  0.0000000E+00;0;  0.0000000E+00;  0.0000000E+00;  0.0000000E+00;0; -2.3931179E-06;  1.0000000E+04;  0.0000000E+00;  0.0000000E+00;  1.0000000E+04;  0.0000000E+00;  1.0000000E+04; -1.6933062E-06;  0.0000000E+00; -6.9981172E-07;  7.2433506E-03;
 -1.2000000E-01;  9.9999998E-03;  4.0000001E-01;243;  0.0000000E+00;  0.0000000E+00;  0.0000000E+00;  1.0000000E+03;  4.0000001E-01;  0.0000000E+00;0;  0.0000000E+00;  0.0000000E+00;  0.0000000E+00;0; -3.5965601E-19;  1.0000000E+04;  0.0000000E+00;  0.0000000E+00;  1.0000000E+04;  0.0000000E+00;  1.0000000E+04; -2.5332923E-19;  0.0000000E+00; -1.0632678E-19;  2.4728357E-16;
 -1.0000000E-01;  9.9999998E-03;  3.4000000E-01;281;  0.0000000E+00;  0.0000000E+00;  0.0000000E+00;  1.0000002E+03;  4.0000001E-01;  1.9752525E-01;0;  0.0000000E+00;  0.0000000E+00;  0.0000000E+00;0; -2.1947577E-04;  1.0000000E+04;  0.0000000E+00;  0.0000000E+00;  1.0000000E+04;  0.0000000E+00;  1.0000000E+04; -1.7542239E-04;  0.0000000E+00; -4.4053373E-05;  4.5248175E-01;
 -1.0000000E-01;  9.9999998E-03;  3.6000001E-01;282;  0.0000000E+00;  0.0000000E+00;  0.0000000E+00;  1.0000000E+03;  4.0000001E-01;  0.0000000E+00;0;  0.0000000E+00;  0.0000000E+00;  0.0000000E+00;0; -1.0043438E-04;  1.0000000E+04;  0.0000000E+00;  0.0000000E+00;  1.0000000E+04;  0.0000000E+00;  1.0000000E+04; -7.3026749E-05;  0.0000000E+00; -2.7407630E-05;  2.8447688E-01;
 -1.0000000E-01;  9.9999998E-03;  3.8000000E-01;283;  0.0000000E+00;  0.0000000E+00;  0.0000000E+00;  1.0000000E+03;  4.0000001E-01;  0.0000000E+00;0;  0.0000000E+00;  0.0000000E+00;  0.0000000E+00;0; -3.1904518E-05;  1.0000000E+04;  0.0000000E+00;  0.0000000E+00;  1.0000000E+04;  0.0000000E+00;  1.0000000E+04; -2.1413043E-05;  0.0000000E+00; -1.0491475E-05;  1.0928560E-01;
 -1.0000000E-01;  9.9999998E-03;  4.0000001E-01;284;  0.0000000E+00;  0.0000000E+00;  0.0000000E+00;  1.0000000E+03;  4.0000001E-01;  0.0000000E+00;0;  0.0000000E+00;  0.0000000E+00;  0.0000000E+00;0; -4.3885361E-06;  1.0000000E+04;  0.0000000E+00;  0.0000000E+00;  1.0000000E+04;  0.0000000E+00;  1.0000000E+04; -2.9088023E-06;  0.0000000E+00; -1.4797338E-06;  1.5425052E-02;
 -7.9999998E-02;  9.9999998E-03;  3.4000000E-01;322;  0.0000000E+00;  0.0000000E+00;  0.0000000E+00;  1.0000008E+03;  4.0000001E-01;  6.9133836E-01;0;  0.0000000E+00;  0.0000000E+00;  0.0000000E+00;0; -6.3853507E-04;  1.0000000E+04;  0.0000000E+00;  0.0000000E+00;  1.0000000E+04;  0.0000000E+00;  1.0000000E+04; -4.9844012E-04;  0.0000000E+00; -1.4009497E-04;  1.4523810E+00;
 -7.9999998E-02;  9.9999998E-03;  3.6000001E-01;323;  0.0000000E+00;  0.0000000E+00;  0.0000000E+00;  1.0000003E+03;  4.0000001E-01;  2.9628786E-01;0;  0.0000000E+00;  0.0000000E+00;  0.0000000E+00;0; -3.3678906E-04;  1.0000000E+04;  0.0000000E+00;  0.0000000E+00;  1.0000000E+04;  0.0000000E+00;  1.0000000E+04; -2.3674153E-04;  0.0000000E+00; -1.0004752E-04;  1.0466584E+00;
 -7.9999998E-02;  9.9999998E-03;  3.8000000E-01;324;  0.0000000E+00;  0.0000000E+00;  0.0000000E+00;  1.0000001E+03;  4.0000001E-01;  9.8762624E-02;0;  0.0000000E+00;  0.0000000E+00;  0.0000000E+00;0; -1.4018374E-04;  1.0000000E+04;  0.0000000E+00;  0.0000000E+00;  1.0000000E+04;  0.0000000E+00;  1.0000000E+04; -8.9986963E-05;  0.0000000E+00; -5.0196770E-05;  5.2689093E-01;
 -7.9999998E-02;  9.9999998E-03;  4.0000001E-01;325;  0.0000000E+00;  0.0000000E+00;  0.0000000E+00;  1.0000000E+03;  4.0000001E-01;  0.0000000E+00;0;  0.0000000E+00;  0.0000000E+00;  0.0000000E+00;0; -3.6940699E-05;  1.0000000E+04;  0.0000000E+00;  0.0000000E+00;  1.0000000E+04;  0.0000000E+00;  1.0000000E+04; -2.3149194E-05;  0.0000000E+00; -1.3791504E-05;  1.4465784E-01;
 -5.9999999E-02;  9.9999998E-03;  3.4000000E-01;363;  0.0000000E+00;  0.0000000E+00;  0.0000000E+00;  1.0000017E+03;  4.0000001E-01;  1.3826767E+00;0;  0.0000000E+00;  0.0000000E+00;  0.0000000E+00;0; -1.4164073E-03;  1.0000000E+04;  0.0000000E+00;  0.0000000E+00;  1.0000000E+04;  0.0000000E+00;  1.0000000E+04; -1.0791172E-03;  0.0000000E+00; -3.3729011E-04;  3.5354185E+00;
 -5.9999999E-02;  9.9999998E-03;  3.6000001E-01;364;  0.0000000E+00;  0.0000000E+00;  0.0000000E+00;  1.0000010E+03;  4.0000001E-01;  7.9010099E-01;0;  0.0000000E+00;  0.0000000E+00;  0.0000000E+00;0; -8.0773991E-04;  1.0000000E+04;  0.0000000E+00;  0.0000000E+00;  1.0000000E+04;  0.0000000E+00;  1.0000000E+04; -5.4884009E-04;  0.0000000E+00; -2.5889979E-04;  2.7349992E+00;
 -5.9999999E-02;  9.9999998E-03;  3.8000000E-01;365;  0.0000000E+00;  0.0000000E+00;  0.0000000E+00;  1.0000004E+03;  4.0000001E-01;  3.9505050E-01;0;  0.0000000E+00;  0.0000000E+00;  0.0000000E+00;0; -3.8437950E-04;  1.0000000E+04;  0.0000000E+00;  0.0000000E+00;  1.0000000E+04;  0.0000000E+00;  1.0000000E+04; -2.3618601E-04;  0.0000000E+00; -1.4819349E-04;  1.5693641E+00;
 -5.9999999E-02;  9.9999998E-03;  4.0000001E-01;366;  0.0000000E+00;  0.0000000E+00;  0.0000000E+00;  1.0000001E+03;  4.0000001E-01;  9.8762624E-02;0;  0.0000000E+00;  0.0000000E+00;  0.0000000E+00;0; -1.3159928E-04;  1.0000000E+04;  0.0000000E+00;  0.0000000E+00;  1.0000000E+04;  0.0000000E+00;  1.0000000E+04; -7.8329824E-05;  0.0000000E+00; -5.3269458E-05;  5.6325930E-01;
 -3.9999999E-02;  9.9999998E-03;  3.4000000E-01;404;  0.0000000E+00;  0.0000000E+00;  0.0000000E+00;  1.0000032E+03;  4.0000001E-01;  2.6665909E+00;0;  0.0000000E+00;  0.0000000E+00;  0.0000000E+00;0; -2.5921531E-03;  1.0000000E+04;  0.0000000E+00;  0.0000000E+00;  1.0000000E+04;  0.0000000E+00;  1.0000000E+04; -1.9217388E-03;  0.0000000E+00; -6.7041424E-04;  7.1161771E+00;
 -3.9999999E-02;  9.9999998E-03;  3.6000001E-01;405;  0.0000000E+00;  0.0000000E+00;  0.0000000E+00;  1.0000020E+03;  4.0000001E-01;  1.5802020E+00;0;  0.0000000E+00;  0.0000000E+00;  0.0000000E+00;0; -1.5503147E-03;  1.0000000E+04;  0.0000000E+00;  0.0000000E+00;  1.0000000E+04;  0.0000000E+00;  1.0000000E+04; -1.0147387E-03;  0.0000000E+00; -5.3557608E-04;  5.7231941E+00;
 -3.9999999E-02;  9.9999998E-03;  3.8000000E-01;406;  0.0000000E+00;  0.0000000E+00;  0.0000000E+00;  1.0000009E+03;  4.0000001E-01;  6.9133836E-01;0;  0.0000000E+00;  0.0000000E+00;  0.0000000E+00;0; -7.9589320E-04;  1.0000000E+04;  0.0000000E+00;  0.0000000E+00;  1.0000000E+04;  0.0000000E+00;  1.0000000E+04; -4.6641749E-04;  0.0000000E+00; -3.2947570E-04;  3.5266185E+00;
 -3.9999999E-02;  9.9999998E-03;  4.0000001E-01;407;  0.0000000E+00;  0.0000000E+00;  0.0000000E+00;  1.0000003E+03;  4.0000001E-01;  2.9628786E-01;0;  0.0000000E+00;  0.0000000E+00;  0.0000000E+00;0; -3.1114020E-04;  1.0000000E+04;  0.0000000E+00;  0.0000000E+00;  1.0000000E+04;  0.0000000E+00;  1.0000000E+04; -1.7526853E-04;  0.0000000E+00; -1.3587167E-04;  1.4510190E+00;
 -2.0000000E-02;  9.9999998E-03;  3.4000000E-01;445;  0.0000000E+00;  0.0000000E+00;  0.0000000E+00;  1.0000051E+03;  4.0000001E-01;  4.2467928E+00;0;  0.0000000E+00;  0.0000000E+00;  0.0000000E+00;0; -4.1025542E-03;  1.0000000E+04;  0.0000000E+00;  0.0000000E+00;  1.0000000E+04;  0.0000000E+00;  1.0000000E+04; -2.9515766E-03;  0.0000000E+00; -1.1509773E-03;  1.2398315E+01;
 -2.0000000E-02;  9.9999998E-03;  3.6000001E-01;446;  0.0000000E+00;  0.0000000E+00;  0.0000000E+00;  1.0000031E+03;  4.0000001E-01;  2.5678282E+00;0;  0.0000000E+00;  0.0000000E+00;  0.0000000E+00;0; -2.5303282E-03;  1.0000000E+04;  0.0000000E+00;  0.0000000E+00;  1.0000000E+04;  0.0000000E+00;  1.0000000E+04; -1.5902072E-03;  0.0000000E+00; -9.4012095E-04;  1.0185719E+01;
 -2.0000000E-02;  9.9999998E-03;  3.8000000E-01;447;  0.0000000E+00;  0.0000000E+00;  0.0000000E+00;  1.0000017E+03;  4.0000001E-01;  1.3826767E+00;0;  0.0000000E+00;  0.0000000E+00;  0.0000000E+00;0; -1.3595440E-03;  1.0000000E+04;  0.0000000E+00;  0.0000000E+00;  1.0000000E+04;  0.0000000E+00;  1.0000000E+04; -7.5684121E-04;  0.0000000E+00; -6.0270273E-04;  6.5360942E+00;
 -2.0000000E-02;  9.9999998E-03;  4.0000001E-01;448;  0.0000000E+00;  0.0000000E+00;  0.0000000E+00;  1.0000006E+03;  4.0000001E-01;  4.9381313E-01;0;  0.0000000E+00;  0.0000000E+00;  0.0000000E+00;0; -5.7166733E-04;  1.0000000E+04;  0.0000000E+00;  0.0000000E+00;  1.0000000E+04;  0.0000000E+00;  1.0000000E+04; -3.0314774E-04;  0.0000000E+00; -2.6851962E-04;  2.9033048E+00;
  0.0000000E+00;  9.9999998E-03;  3.4000000E-01;457;  0.0000000E+00;  0.0000000E+00;  0.0000000E+00;  1.0000073E+03;  4.0000001E-01;  6.0245199E+00;0;  0.0000000E+00;  0.0000000E+00;  0.0000000E+00;0; -5.7909656E-03;  1.0000000E+04;  0.0000000E+00;  0.0000000E+00;  1.0000000E+04;  0.0000000E+00;  1.0000000E+04; -4.0406417E-03;  0.0000000E+00; -1.7503240E-03;  1.9190935E+01;
  0.0000000E+00;  9.9999998E-03;  3.6000001E-01;458;  0.0000000E+00;  0.0000000E+00;  0.0000000E+00;  1.0000046E+03;  4.0000001E-01;  3.7529798E+00;0;  0.0000000E+00;  0.0000000E+00;  0.0000000E+00;0; -3.6483174E-03;  1.0000000E+04;  0.0000000E+00;  0.0000000E+00;  1.0000000E+04;  0.0000000E+00;  1.0000000E+04; -2.2003148E-03;  0.0000000E+00; -1.4480026E-03;  1.5955819E+01;
  0.0000000E+00;  9.9999998E-03;  3.8000000E-01;459;  0.0000000E+00;  0.0000000E+00;  0.0000000E+00;  1.0000025E+03;  4.0000001E-01;  2.0740151E+00;0;  0.0000000E+00;  0.0000000E+00;  0.0000000E+00;0; -2.0163527E-03;  1.0000000E+04;  0.0000000E+00;  0.0000000E+00;  1.0000000E+04;  0.0000000E+00;  1.0000000E+04; -1.0651740E-03;  0.0000000E+00; -9.5117878E-04;  1.0484280E+01;
  0.0000000E+00;  9.9999998E-03;  4.0000001E-01;460;  0.0000000E+00;  0.0000000E+00;  0.0000000E+00;  1.0000011E+03;  4.0000001E-01;  8.8886362E-01;0;  0.0000000E+00;  0.0000000E+00;  0.0000000E+00;0; -8.8274665E-04;  1.0000000E+04;  0.0000000E+00;  0.0000000E+00;  1.0000000E+04;  0.0000000E+00;  1.0000000E+04; -4.3940902E-04;  0.0000000E+00; -4.4333760E-04;  4.8687029E+00;
  2.0000000E-02;  9.9999998E-03;  3.4000000E-01;467;  0.0000000E+00;  0.0000000E+00;  0.0000000E+00;  1.0000096E+03;  4.0000001E-01;  7.9010100E+00;0;  0.0000000E+00;  0.0000000E+00;  0.0000000E+00;0; -7.4811475E-03;  1.0000000E+04;  0.0000000E+00;  0.0000000E+00;  1.0000000E+04;  0.0000000E+00;  1.0000000E+04; -5.0847195E-03;  0.0000000E+00; -2.3964283E-03;  2.6855268E+01;
  2.0000000E-02;  9.9999998E-03;  3.6000001E-01;468;  0.0000000E+00;  0.0000000E+00;  0.0000000E+00;  1.0000060E+03;  4.0000001E-01;  5.0368938E+00;0;  0.0000000E+00;  0.0000000E+00;  0.0000000E+00;0; -4.7868015E-03;  1.0000000E+04;  0.0000000E+00;  0.0000000E+00;  1.0000000E+04;  0.0000000E+00;  1.0000000E+04; -2.7852424E-03;  0.0000000E+00; -2.0015589E-03;  2.2525801E+01;
  2.0000000E-02;  9.9999998E-03;  3.8000000E-01;469;  0.0000000E+00;  0.0000000E+00;  0.0000000E+00;  1.0000034E+03;  4.0000001E-01;  2.8641162E+00;0;  0.0000000E+00;  0.0000000E+00;  0.0000000E+00;0; -2.6926037E-03;  1.0000000E+04;  0.0000000E+00;  0.0000000E+00;  1.0000000E+04;  0.0000000E+00;  1.0000000E+04; -1.3570773E-03;  0.0000000E+00; -1.3355265E-03;  1.5024758E+01;
  2.0000000E-02;  9.9999998E-03;  4.0000001E-01;470;  0.0000000E+00;  0.0000000E+00;  0.0000000E+00;  1.0000015E+03;  4.0000001E-01;  1.1851515E+00;0;  0.0000000E+00;  0.0000000E+00;  0.0000000E+00;0; -1.2039247E-03;  1.0000000E+04;  0.0000000E+00;  0.0000000E+00;  1.0000000E+04;  0.0000000E+00;  1.0000000E+04; -5.6464120E-04;  0.0000000E+00; -6.3928345E-04;  7.1605849E+00;
  3.9999999E-02;  9.9999998E-03;  3.4000000E-01;477;  0.0000000E+00;  0.0000000E+00;  0.0000000E+00;  1.0000119E+03;  4.0000001E-01;  9.8762627E+00;0;  0.0000000E+00;  0.0000000E+00;  0.0000000E+00;0; -9.0951016E-03;  1.0000000E+04;  0.0000000E+00;  0.0000000E+00;  1.0000000E+04;  0.0000000E+00;  1.0000000E+04; -6.0905819E-03;  0.0000000E+00; -3.0045197E-03;  3.4602215E+01;
  3.9999999E-02;  9.9999998E-03;  3.6000001E-01;478;  0.0000000E+00;  0.0000000E+00;  0.0000000E+00;  1.0000077E+03;  4.0000001E-01;  6.4195704E+00;0;  0.0000000E+00;  0.0000000E+00;  0.0000000E+00;0; -5.8802241E-03;  1.0000000E+04;  0.0000000E+00;  0.0000000E+00;  1.0000000E+04;  0.0000000E+00;  1.0000000E+04; -3.3454124E-03;  0.0000000E+00; -2.5348116E-03;  2.9291229E+01;
  3.9999999E-02;  9.9999998E-03;  3.8000000E-01;479;  0.0000000E+00;  0.0000000E+00;  0.0000000E+00;  1.0000043E+03;  4.0000001E-01;  3.5554545E+00;0;  0.0000000E+00;  0.0000000E+00;  0.0000000E+00;0; -3.3415207E-03;  1.0000000E+04;  0.0000000E+00;  0.0000000E+00;  1.0000000E+04;  0.0000000E+00;  1.0000000E+04; -1.6305617E-03;  0.0000000E+00; -1.7109590E-03;  1.9748833E+01;
  3.9999999E-02;  9.9999998E-03;  4.0000001E-01;480;  0.0000000E+00;  0.0000000E+00;  0.0000000E+00;  1.0000020E+03;  4.0000001E-01;  1.5802020E+00;0;  0.0000000E+00;  0.0000000E+00;  0.0000000E+00;0; -1.5080883E-03;  1.0000000E+04;  0.0000000E+00;  0.0000000E+00;  1.0000000E+04;  0.0000000E+00;  1.0000000E+04; -6.7616213E-04;  0.0000000E+00; -8.3192613E-04;  9.5535946E+00;
  5.9999999E-02;  9.9999998E-03;  3.4000000E-01;487;  0.0000000E+00;  0.0000000E+00;  0.0000000E+00;  1.0000144E+03;  4.0000001E-01;  1.1950277E+01;0;  0.0000000E+00;  0.0000000E+00;  0.0000000E+00;0; -1.0709647E-02;  1.0000000E+04;  0.0000000E+00;  0.0000000E+00;  1.0000000E+04;  0.0000000E+00;  1.0000000E+04; -7.1808016E-03;  0.0000000E+00; -3.5288455E-03;  4.2031212E+01;
  5.9999999E-02;  9.9999998E-03;  3.6000001E-01;488;  0.0000000E+00;  0.0000000E+00;  0.0000000E+00;  1.0000093E+03;  4.0000001E-01;  7.7034845E+00;0;  0.0000000E+00;  0.0000000E+00;  0.0000000E+00;0; -6.9595147E-03;  1.0000000E+04;  0.0000000E+00;  0.0000000E+00;  1.0000000E+04;  0.0000000E+00;  1.0000000E+04; -3.9514476E-03;  0.0000000E+00; -3.0080669E-03;  3.5911953E+01;
  5.9999999E-02;  9.9999998E-03;  3.8000000E-01;489;  0.0000000E+00;  0.0000000E+00;  0.0000000E+00;  1.0000053E+03;  4.0000001E-01;  4.4443183E+00;0;  0.0000000E+00;  0.0000000E+00;  0.0000000E+00;0; -3.9732167E-03;  1.0000000E+04;  0.0000000E+00;  0.0000000E+00;  1.0000000E+04;  0.0000000E+00;  1.0000000E+04; -1.9240135E-03;  0.0000000E+00; -2.0492033E-03;  2.4413132E+01;
  5.9999999E-02;  9.9999998E-03;  4.0000001E-01;490;  0.0000000E+00;  0.0000000E+00;  0.0000000E+00;  1.0000024E+03;  4.0000001E-01;  1.9752525E+00;0;  0.0000000E+00;  0.0000000E+00;  0.0000000E+00;0; -1.7983826E-03;  1.0000000E+04;  0.0000000E+00;  0.0000000E+00;  1.0000000E+04;  0.0000000E+00;  1.0000000E+04; -7.9273258E-04;  0.0000000E+00; -1.0056500E-03;  1.1909206E+01;
  7.9999998E-02;  9.9999998E-03;  3.4000000E-01;497;  0.0000000E+00;  0.0000000E+00;  0.0000000E+00;  1.0000173E+03;  4.0000001E-01;  1.4320580E+01;0;  0.0000000E+00;  0.0000000E+00;  0.0000000E+00;0; -1.2573313E-02;  1.0000000E+04;  0.0000000E+00;  0.0000000E+00;  1.0000000E+04;  0.0000000E+00;  1.0000000E+04; -8.5925702E-03;  0.0000000E+00; -3.9807432E-03;  4.9478935E+01;
  7.9999998E-02;  9.9999998E-03;  3.6000001E-01;498;  0.0000000E+00;  0.0000000E+00;  0.0000000E+00;  1.0000113E+03;  4.0000001E-01;  9.3824492E+00;0;  0.0000000E+00;  0.0000000E+00;  0.0000000E+00;0; -8.1780208E-03;  1.0000000E+04;  0.0000000E+00;  0.0000000E+00;  1.0000000E+04;  0.0000000E+00;  1.0000000E+04; -4.7529927E-03;  0.0000000E+00; -3.4250279E-03;  4.2581310E+01;
  7.9999998E-02;  9.9999998E-03;  3.8000000E-01;499;  0.0000000E+00;  0.0000000E+00;  0.0000000E+00;  1.0000064E+03;  4.0000001E-01;  5.3331819E+00;0;  0.0000000E+00;  0.0000000E+00;  0.0000000E+00;0; -4.6692407E-03;  1.0000000E+04;  0.0000000E+00;  0.0000000E+00;  1.0000000E+04;  0.0000000E+00;  1.0000000E+04; -2.3192707E-03;  0.0000000E+00; -2.3499699E-03;  2.9072752E+01;
  7.9999998E-02;  9.9999998E-03;  4.0000001E-01;500;  0.0000000E+00;  0.0000000E+00;  0.0000000E+00;  1.0000029E+03;  4.0000001E-01;  2.3703029E+00;0;  0.0000000E+00;  0.0000000E+00;  0.0000000E+00;0; -2.1130620E-03;  1.0000000E+04;  0.0000000E+00;  0.0000000E+00;  1.0000000E+04;  0.0000000E+00;  1.0000000E+04; -9.5295196E-04;  0.0000000E+00; -1.1601100E-03;  1.4258534E+01;
  1.0000000E-01;  9.9999998E-03;  3.4000000E-01;507;  0.0000000E+00;  0.0000000E+00;  0.0000000E+00;  1.0000214E+03;  4.0000001E-01;  1.7777273E+01;0;  0.0000000E+00;  0.0000000E+00;  0.0000000E+00;0; -1.5112376E-02;  1.0000000E+04;  0.0000000E+00;  0.0000000E+00;  1.0000000E+04;  0.0000000E+00;  1.0000000E+04; -1.0685546E-02;  0.0000000E+00; -4.4268300E-03;  6.0567417E+01;
  1.0000000E-01;  9.9999998E-03;  3.6000001E-01;508;  0.0000000E+00;  0.0000000E+00;  0.0000000E+00;  1.0000140E+03;  4.0000001E-01;  1.1555227E+01;0;  0.0000000E+00;  0.0000000E+00;  0.0000000E+00;0; -9.8170089E-03;  1.0000000E+04;  0.0000000E+00;  0.0000000E+00;  1.0000000E+04;  0.0000000E+00;  1.0000000E+04; -5.9815207E-03;  0.0000000E+00; -3.8354881E-03;  5.0518398E+01;
  1.0000000E-01;  9.9999998E-03;  3.8000000E-01;509;  0.0000000E+00;  0.0000000E+00;  0.0000000E+00;  1.0000079E+03;  4.0000001E-01;  6.6170959E+00;0;  0.0000000E+00;  0.0000000E+00;  0.0000000E+00;0; -5.5881022E-03;  1.0000000E+04;  0.0000000E+00;  0.0000000E+00;  1.0000000E+04;  0.0000000E+00;  1.0000000E+04; -2.9444415E-03;  0.0000000E+00; -2.6436604E-03;  3.4150890E+01;
  1.0000000E-01;  9.9999998E-03;  4.0000001E-01;510;  0.0000000E+00;  0.0000000E+00;  0.0000000E+00;  1.0000037E+03;  4.0000001E-01;  3.0616415E+00;0;  0.0000000E+00;  0.0000000E+00;  0.0000000E+00;0; -2.5270078E-03;  1.0000000E+04;  0.0000000E+00;  0.0000000E+00;  1.0000000E+04;  0.0000000E+00;  1.0000000E+04; -1.2163634E-03;  0.0000000E+00; -1.3106443E-03;  1.7535994E+01;
  1.2000000E-01;  9.9999998E-03;  3.4000000E-01;517;  0.0000000E+00;  0.0000000E+00;  0.0000000E+00;  1.0000277E+03;  4.0000001E-01;  2.2912930E+01;0;  0.0000000E+00;  0.0000000E+00;  0.0000000E+00;0; -1.8932465E-02;  1.0000000E+04;  0.0000000E+00;  0.0000000E+00;  1.0000000E+04;  0.0000000E+00;  1.0000000E+04; -1.3930779E-02;  0.0000000E+00; -5.0016865E-03;  9.5613106E+01;
  1.2000000E-01;  9.9999998E-03;  3.6000001E-01;518;  0.0000000E+00;  0.0000000E+00;  0.0000000E+00;  1.0000179E+03;  4.0000001E-01;  1.4913157E+01;0;  0.0000000E+00;  0.0000000E+00;  0.0000000E+00;0; -1.2300520E-02;  1.0000000E+04;  0.0000000E+00;  0.0000000E+00;  1.0000000E+04;  0.0000000E+00;  1.0000000E+04; -7.9503814E-03;  0.0000000E+00; -4.3501388E-03;  6.3052467E+01;
  1.2000000E-01;  9.9999998E-03;  3.8000000E-01;519;  0.0000000E+00;  0.0000000E+00;  0.0000000E+00;  1.0000103E+03;  4.0000001E-01;  8.4935856E+00;0;  0.0000000E+00;  0.0000000E+00;  0.0000000E+00;0; -6.9816844E-03;  1.0000000E+04;  0.0000000E+00;  0.0000000E+00;  1.0000000E+04;  0.0000000E+00;  1.0000000E+04; -3.9784289E-03;  0.0000000E+00; -3.0032555E-03;  4.3556099E+01;
  1.2000000E-01;  9.9999998E-03;  4.0000001E-01;520;  0.0000000E+00;  0.0000000E+00;  0.0000000E+00;  1.0000047E+03;  4.0000001E-01;  3.8517423E+00;0;  0.0000000E+00;  0.0000000E+00;  0.0000000E+00;0; -3.1615118E-03;  1.0000000E+04;  0.0000000E+00;  0.0000000E+00;  1.0000000E+04;  0.0000000E+00;  1.0000000E+04; -1.6690613E-03;  0.0000000E+00; -1.4924505E-03;  3.1660690E+01;
  1.4000000E-01;  9.9999998E-03;  3.4000000E-01;527;  0.0000000E+00;  0.0000000E+00;  0.0000000E+00;  1.0000374E+03;  4.0000001E-01;  3.0912701E+01;0;  0.0000000E+00;  0.0000000E+00;  0.0000000E+00;0; -2.4839716E-02;  1.0000000E+04;  0.0000000E+00;  0.0000000E+00;  1.0000000E+04;  0.0000000E+00;  1.0000000E+04; -1.8901255E-02;  0.0000000E+00; -5.9384615E-03;  2.0373624E+02;
  1.4000000E-01;  9.9999998E-03;  3.6000001E-01;528;  0.0000000E+00;  0.0000000E+00;  0.0000000E+00;  1.0000245E+03;  4.0000001E-01;  2.0345100E+01;0;  0.0000000E+00;  0.0000000E+00;  0.0000000E+00;0; -1.6233342E-02;  1.0000000E+04;  0.0000000E+00;  0.0000000E+00;  1.0000000E+04;  0.0000000E+00;  1.0000000E+04; -1.1060813E-02;  0.0000000E+00; -5.1725293E-03;  8.5727539E+01;
  1.4000000E-01;  9.9999998E-03;  3.8000000E-01;529;  0.0000000E+00;  0.0000000E+00;  0.0000000E+00;  1.0000140E+03;  4.0000001E-01;  1.1653990E+01;0;  0.0000000E+00;  0.0000000E+00;  0.0000000E+00;0; -9.2467349E-03;  1.0000000E+04;  0.0000000E+00;  0.0000000E+00;  1.0000000E+04;  0.0000000E+00;  1.0000000E+04; -5.6673158E-03;  0.0000000E+00; -3.5794186E-03;  8.3941040E+01;
  1.4000000E-01;  9.9999998E-03;  4.0000001E-01;530;  0.0000000E+00;  0.0000000E+00;  0.0000000E+00;  1.0000063E+03;  4.0000001E-01;  5.2344189E+00;0;  0.0000000E+00;  0.0000000E+00;  0.0000000E+00;0; -4.2310120E-03;  1.0000000E+04;  0.0000000E+00;  0.0000000E+00;  1.0000000E+04;  0.0000000E+00;  1.0000000E+04; -2.4409925E-03;  0.0000000E+00; -1.7900196E-03;  9.0334808E+01;
  1.6000000E-01;  9.9999998E-03;  3.4000000E-01;537;  0.0000000E+00;  0.0000000E+00;  0.0000000E+00;  1.0000517E+03;  4.0000001E-01;  4.2862980E+01;0;  0.0000000E+00;  0.0000000E+00;  0.0000000E+00;0; -3.3654474E-02;  1.0000000E+04;  0.0000000E+00;  0.0000000E+00;  1.0000000E+04;  0.0000000E+00;  1.0000000E+04; -2.6035760E-02;  0.0000000E+00; -7.6187146E-03;  4.4383627E+02;
  1.6000000E-01;  9.9999998E-03;  3.6000001E-01;538;  0.0000000E+00;  0.0000000E+00;  0.0000000E+00;  1.0000344E+03;  4.0000001E-01;  2.8443636E+01;0;  0.0000000E+00;  0.0000000E+00;  0.0000000E+00;0; -2.2275811E-02;  1.0000000E+04;  0.0000000E+00;  0.0000000E+00;  1.0000000E+04;  0.0000000E+00;  1.0000000E+04; -1.5631963E-02;  0.0000000E+00; -6.6438480E-03;  1.2051926E+02;
  1.6000000E-01;  9.9999998E-03;  3.8000000E-01;539;  0.0000000E+00;  0.0000000E+00;  0.0000000E+00;  1.0000200E+03;  4.0000001E-01;  1.6592121E+01;0;  0.0000000E+00;  0.0000000E+00;  0.0000000E+00;0; -1.2905139E-02;  1.0000000E+04;  0.0000000E+00;  0.0000000E+00;  1.0000000E+04;  0.0000000E+00;  1.0000000E+04; -8.2483599E-03;  0.0000000E+00; -4.6567791E-03;  2.1842911E+02;
  1.6000000E-01;  9.9999998E-03;  4.0000001E-01;540;  0.0000000E+00;  0.0000000E+00;  0.0000000E+00;  1.0000094E+03;  4.0000001E-01;  7.8022475E+00;0;  0.0000000E+00;  0.0000000E+00;  0.0000000E+00;0; -6.1047897E-03;  1.0000000E+04;  0.0000000E+00;  0.0000000E+00;  1.0000000E+04;  0.0000000E+00;  1.0000000E+04; -3.7032696E-03;  0.0000000E+00; -2.4015200E-03;  2.5776111E+02;
  1.8000001E-01;  9.9999998E-03;  3.4000000E-01;547;  0.0000000E+00;  0.0000000E+00;  0.0000000E+00;  1.0000718E+03;  4.0000001E-01;  5.9553864E+01;0;  0.0000000E+00;  0.0000000E+00;  0.0000000E+00;0; -4.5573354E-02;  1.0000000E+04;  0.0000000E+00;  0.0000000E+00;  1.0000000E+04;  0.0000000E+00;  1.0000000E+04; -3.4938946E-02;  0.0000000E+00; -1.0634406E-02;  8.4320203E+02;
  1.8000001E-01;  9.9999998E-03;  3.6000001E-01;548;  0.0000000E+00;  0.0000000E+00;  0.0000000E+00;  1.0000485E+03;  4.0000001E-01;  4.0196388E+01;0;  0.0000000E+00;  0.0000000E+00;  0.0000000E+00;0; -3.0655172E-02;  1.0000000E+04;  0.0000000E+00;  0.0000000E+00;  1.0000000E+04;  0.0000000E+00;  1.0000000E+04; -2.1356910E-02;  0.0000000E+00; -9.2982603E-03;  1.5772137E+02;
  1.8000001E-01;  9.9999998E-03;  3.8000000E-01;549;  0.0000000E+00;  0.0000000E+00;  0.0000000E+00;  1.0000291E+03;  4.0000001E-01;  2.4098080E+01;0;  0.0000000E+00;  0.0000000E+00;  0.0000000E+00;0; -1.8363191E-02;  1.0000000E+04;  0.0000000E+00;  0.0000000E+00;  1.0000000E+04;  0.0000000E+00;  1.0000000E+04; -1.1625780E-02;  0.0000000E+00; -6.7374106E-03;  5.2189362E+02;
  1.8000001E-01;  9.9999998E-03;  4.0000001E-01;550;  0.0000000E+00;  0.0000000E+00;  0.0000000E+00;  1.0000146E+03;  4.0000001E-01;  1.2147802E+01;0;  0.0000000E+00;  0.0000000E+00;  0.0000000E+00;0; -9.3149012E-03;  1.0000000E+04;  0.0000000E+00;  0.0000000E+00;  1.0000000E+04;  0.0000000E+00;  1.0000000E+04; -5.5530155E-03;  0.0000000E+00; -3.7618855E-03;  6.3989496E+02;
  2.0000000E-01;  9.9999998E-03;  3.4000000E-01;556;  0.0000000E+00;  0.0000000E+00;  0.0000000E+00;  1.0000968E+03;  4.0000001E-01;  8.0195251E+01;0;  0.0000000E+00;  0.0000000E+00;  0.0000000E+00;0; -5.9905931E-02;  1.0000000E+04;  0.0000000E+00;  0.0000000E+00;  1.0000000E+04;  0.0000000E+00;  1.0000000E+04; -4.4117518E-02;  0.0000000E+00; -1.5788412E-02;  1.3112365E+03;
  2.0000000E-01;  9.9999998E-03;  3.6000001E-01;557;  0.0000000E+00;  0.0000000E+00;  0.0000000E+00;  1.0000665E+03;  4.0000001E-01;  5.5109543E+01;0;  0.0000000E+00;  0.0000000E+00;  0.0000000E+00;0; -4.1080154E-02;  1.0000000E+04;  0.0000000E+00;  0.0000000E+00;  1.0000000E+04;  0.0000000E+00;  1.0000000E+04; -2.7194906E-02;  0.0000000E+00; -1.3885249E-02;  2.1319177E+02;
  2.0000000E-01;  9.9999998E-03;  3.8000000E-01;558;  0.0000000E+00;  0.0000000E+00;  0.0000000E+00;  1.0000421E+03;  4.0000001E-01;  3.4863205E+01;0;  0.0000000E+00;  0.0000000E+00;  0.0000000E+00;0; -2.5834586E-02;  1.0000000E+04;  0.0000000E+00;  0.0000000E+00;  1.0000000E+04;  0.0000000E+00;  1.0000000E+04; -1.5230292E-02;  0.0000000E+00; -1.0604295E-02;  1.0203676E+03;
  1.9200000E+00;  9.9999998E-03; -3.6000001E-01;559;  0.0000000E+00;  0.0000000E+00;  0.0000000E+00;  1.0000000E+03;  4.0000001E-01;  0.0000000E+00;0;  0.0000000E+00;  0.0000000E+00;  0.0000000E+00;0;  0.0000000E+00;  1.0000000E+04;  0.0000000E+00;  0.0000000E+00;  1.0000000E+04;  0.0000000E+00;  1.0000000E+04;  0.0000000E+00;  0.0000000E+00;  0.0000000E+00;  0.0000000E+00;
  1.9200000E+00;  9.9999998E-03; -3.4000000E-01;560;  0.0000000E+00;  0.0000000E+00;  0.0000000E+00;  1.0000000E+03;  4.0000001E-01;  0.0000000E+00;0;  0.0000000E+00;  0.0000000E+00;  0.0000000E+00;0;  0.0000000E+00;  1.0000000E+04;  0.0000000E+00;  0.0000000E+00;  1.0000000E+04;  0.0000000E+00;  1.0000000E+04;  0.0000000E+00;  0.0000000E+00;  0.0000000E+00;  0.0000000E+00;
  1.9200000E+00;  9.9999998E-03; -3.1999999E-01;561;  0.0000000E+00;  0.0000000E+00;  0.0000000E+00;  1.0000000E+03;  4.0000001E-01;  0.0000000E+00;0;  0.0000000E+00;  0.0000000E+00;  0.0000000E+00;0;  0.0000000E+00;  1.0000000E+04;  0.0000000E+00;  0.0000000E+00;  1.0000000E+04;  0.0000000E+00;  1.0000000E+04;  0.0000000E+00;  0.0000000E+00;  0.0000000E+00;  0.0000000E+00;
  1.9400001E+00;  9.9999998E-03; -3.8000000E-01;562;  0.0000000E+00;  0.0000000E+00;  0.0000000E+00;  1.0000000E+03;  4.0000001E-01;  0.0000000E+00;0;  0.0000000E+00;  0.0000000E+00;  0.0000000E+00;0;  0.0000000E+00;  1.0000000E+04;  0.0000000E+00;  0.0000000E+00;  1.0000000E+04;  0.0000000E+00;  1.0000000E+04;  0.0000000E+00;  0.0000000E+00;  0.0000000E+00;  0.0000000E+00;
  1.9400001E+00;  9.9999998E-03; -3.6000001E-01;563;  0.0000000E+00;  0.0000000E+00;  0.0000000E+00;  1.0000000E+03;  4.0000001E-01;  0.0000000E+00;0;  0.0000000E+00;  0.0000000E+00;  0.0000000E+00;0;  0.0000000E+00;  1.0000000E+04;  0.0000000E+00;  0.0000000E+00;  1.0000000E+04;  0.0000000E+00;  1.0000000E+04;  0.0000000E+00;  0.0000000E+00;  0.0000000E+00;  0.0000000E+00;
  1.9400001E+00;  9.9999998E-03; -3.4000000E-01;564;  0.0000000E+00;  0.0000000E+00;  0.0000000E+00;  1.0000000E+03;  4.0000001E-01;  0.0000000E+00;0;  0.0000000E+00;  0.0000000E+00;  0.0000000E+00;0;  0.0000000E+00;  1.0000000E+04;  0.0000000E+00;  0.0000000E+00;  1.0000000E+04;  0.0000000E+00;  1.0000000E+04;  0.0000000E+00;  0.0000000E+00;  0.0000000E+00;  0.0000000E+00;
  1.9400001E+00;  9.9999998E-03; -3.1999999E-01;565;  0.0000000E+00;  0.0000000E+00;  0.0000000E+00;  1.0000000E+03;  4.0000001E-01;  0.0000000E+00;0;  0.0000000E+00;  0.0000000E+00;  0.0000000E+00;0;  0.0000000E+00;  1.0000000E+04;  0.0000000E+00;  0.0000000E+00;  1.0000000E+04;  0.0000000E+00;  1.0000000E+04;  0.0000000E+00;  0.0000000E+00;  0.0000000E+00;  0.0000000E+00;
  1.9400001E+00;  9.9999998E-03; -3.0000001E-01;566;  0.0000000E+00;  0.0000000E+00;  0.0000000E+00;  1.0000000E+03;  4.0000001E-01;  0.0000000E+00;0;  0.0000000E+00;  0.0000000E+00;  0.0000000E+00;0;  0.0000000E+00;  1.0000000E+04;  0.0000000E+00;  0.0000000E+00;  1.0000000E+04;  0.0000000E+00;  1.0000000E+04;  0.0000000E+00;  0.0000000E+00;  0.0000000E+00;  0.0000000E+00;
  1.9400001E+00;  9.9999998E-03; -2.8000000E-01;567;  0.0000000E+00;  0.0000000E+00;  0.0000000E+00;  1.0000000E+03;  4.0000001E-01;  0.0000000E+00;0;  0.0000000E+00;  0.0000000E+00;  0.0000000E+00;0;  0.0000000E+00;  1.0000000E+04;  0.0000000E+00;  0.0000000E+00;  1.0000000E+04;  0.0000000E+00;  1.0000000E+04;  0.0000000E+00;  0.0000000E+00;  0.0000000E+00;  0.0000000E+00;
  1.9400001E+00;  9.9999998E-03; -2.5999999E-01;568;  0.0000000E+00;  0.0000000E+00;  0.0000000E+00;  1.0000000E+03;  4.0000001E-01;  0.0000000E+00;0;  0.0000000E+00;  0.0000000E+00;  0.0000000E+00;0;  0.0000000E+00;  1.0000000E+04;  0.0000000E+00;  0.0000000E+00;  1.0000000E+04;  0.0000000E+00;  1.0000000E+04;  0.0000000E+00;  0.0000000E+00;  0.0000000E+00;  0.0000000E+00;
  1.9400001E+00;  9.9999998E-03; -2.3999999E-01;569;  0.0000000E+00;  0.0000000E+00;  0.0000000E+00;  1.0000000E+03;  4.0000001E-01;  0.0000000E+00;0;  0.0000000E+00;  0.0000000E+00;  0.0000000E+00;0;  0.0000000E+00;  1.0000000E+04;  0.0000000E+00;  0.0000000E+00;  1.0000000E+04;  0.0000000E+00;  1.0000000E+04;  0.0000000E+00;  0.0000000E+00;  0.0000000E+00;  0.0000000E+00;
  1.9400001E+00;  9.9999998E-03; -2.2000000E-01;570;  0.0000000E+00;  0.0000000E+00;  0.0000000E+00;  1.0000000E+03;  4.0000001E-01;  0.0000000E+00;0;  0.0000000E+00;  0.0000000E+00;  0.0000000E+00;0;  0.0000000E+00;  1.0000000E+04;  0.0000000E+00;  0.0000000E+00;  1.0000000E+04;  0.0000000E+00;  1.0000000E+04;  0.0000000E+00;  0.0000000E+00;  0.0000000E+00;  0.0000000E+00;
  1.9600000E+00;  9.9999998E-03; -3.8000000E-01;571;  0.0000000E+00;  0.0000000E+00;  0.0000000E+00;  1.0000000E+03;  4.0000001E-01;  0.0000000E+00;0;  0.0000000E+00;  0.0000000E+00;  0.0000000E+00;0;  0.0000000E+00;  1.0000000E+04;  0.0000000E+00;  0.0000000E+00;  1.0000000E+04;  0.0000000E+00;  1.0000000E+04;  0.0000000E+00;  0.0000000E+00;  0.0000000E+00;  0.0000000E+00;
  1.9600000E+00;  9.9999998E-03; -3.6000001E-01;572;  0.0000000E+00;  0.0000000E+00;  0.0000000E+00;  1.0000000E+03;  4.0000001E-01;  0.0000000E+00;0;  0.0000000E+00;  0.0000000E+00;  0.0000000E+00;0;  0.0000000E+00;  1.0000000E+04;  0.0000000E+00;  0.0000000E+00;  1.0000000E+04;  0.0000000E+00;  1.0000000E+04;  0.0000000E+00;  0.0000000E+00;  0.0000000E+00;  0.0000000E+00;
  1.9600000E+00;  9.9999998E-03; -3.4000000E-01;573;  0.0000000E+00;  0.0000000E+00;  0.0000000E+00;  1.0000000E+03;  4.0000001E-01;  0.0000000E+00;0;  0.0000000E+00;  0.0000000E+00;  0.0000000E+00;0;  0.0000000E+00;  1.0000000E+04;  0.0000000E+00;  0.0000000E+00;  1.0000000E+04;  0.0000000E+00;  1.0000000E+04;  0.0000000E+00;  0.0000000E+00;  0.0000000E+00;  0.0000000E+00;
  1.9600000E+00;  9.9999998E-03; -3.1999999E-01;574;  0.0000000E+00;  0.0000000E+00;  0.0000000E+00;  1.0000000E+03;  4.0000001E-01;  0.0000000E+00;0;  0.0000000E+00;  0.0000000E+00;  0.0000000E+00;0;  0.0000000E+00;  1.0000000E+04;  0.0000000E+00;  0.0000000E+00;  1.0000000E+04;  0.0000000E+00;  1.0000000E+04;  0.0000000E+00;  0.0000000E+00;  0.0000000E+00;  0.0000000E+00;
  1.9600000E+00;  9.9999998E-03; -3.0000001E-01;575;  0.0000000E+00;  0.0000000E+00;  0.0000000E+00;  1.0000000E+03;  4.0000001E-01;  0.0000000E+00;0;  0.0000000E+00;  0.0000000E+00;  0.0000000E+00;0;  0.0000000E+00;  1.0000000E+04;  0.0000000E+00;  0.0000000E+00;  1.0000000E+04;  0.0000000E+00;  1.0000000E+04;  0.0000000E+00;  0.0000000E+00;  0.0000000E+00;  0.0000000E+00;
  1.9600000E+00;  9.9999998E-03; -2.8000000E-01;576;  0.0000000E+00;  0.0000000E+00;  0.0000000E+00;  1.0000000E+03;  4.0000001E-01;  0.0000000E+00;0;  0.0000000E+00;  0.0000000E+00;  0.0000000E+00;0;  0.0000000E+00;  1.0000000E+04;  0.0000000E+00;  0.0000000E+00;  1.0000000E+04;  0.0000000E+00;  1.0000000E+04;  0.0000000E+00;  0.0000000E+00;  0.0000000E+00;  0.0000000E+00;
  1.9600000E+00;  9.9999998E-03; -2.5999999E-01;577;  0.0000000E+00;  0.0000000E+00;  0.0000000E+00;  1.0000000E+03;  4.0000001E-01;  0.0000000E+00;0;  0.0000000E+00;  0.0000000E+00;  0.0000000E+00;0;  0.0000000E+00;  1.0000000E+04;  0.0000000E+00;  0.0000000E+00;  1.0000000E+04;  0.0000000E+00;  1.0000000E+04;  0.0000000E+00;  0.0000000E+00;  0.0000000E+00;  0.0000000E+00;
  1.9600000E+00;  9.9999998E-03; -2.3999999E-01;578;  0.0000000E+00;  0.0000000E+00;  0.0000000E+00;  1.0000000E+03;  4.0000001E-01;  0.0000000E+00;0;  0.0000000E+00;  0.0000000E+00;  0.0000000E+00;0;  0.0000000E+00;  1.0000000E+04;  0.0000000E+00;  0.0000000E+00;  1.0000000E+04;  0.0000000E+00;  1.0000000E+04;  0.0000000E+00;  0.0000000E+00;  0.0000000E+00;  0.0000000E+00;
  1.9600000E+00;  9.9999998E-03; -2.2000000E-01;579;  0.0000000E+00;  0.0000000E+00;  0.0000000E+00;  1.0000000E+03;  4.0000001E-01;  0.0000000E+00;0;  0.0000000E+00;  0.0000000E+00;  0.0000000E+00;0;  0.0000000E+00;  1.0000000E+04;  0.0000000E+00;  0.0000000E+00;  1.0000000E+04;  0.0000000E+00;  1.0000000E+04;  0.0000000E+00;  0.0000000E+00;  0.0000000E+00;  0.0000000E+00;
  1.9600000E+00;  9.9999998E-03; -2.0000000E-01;580;  0.0000000E+00;  0.0000000E+00;  0.0000000E+00;  1.0000000E+03;  4.0000001E-01;  0.0000000E+00;0;  0.0000000E+00;  0.0000000E+00;  0.0000000E+00;0;  0.0000000E+00;  1.0000000E+04;  0.0000000E+00;  0.0000000E+00;  1.0000000E+04;  0.0000000E+00;  1.0000000E+04;  0.0000000E+00;  0.0000000E+00;  0.0000000E+00;  0.0000000E+00;
  1.9600000E+00;  9.9999998E-03; -1.8000001E-01;581;  0.0000000E+00;  0.0000000E+00;  0.0000000E+00;  1.0000000E+03;  4.0000001E-01;  0.0000000E+00;0;  0.0000000E+00;  0.0000000E+00;  0.0000000E+00;0;  0.0000000E+00;  1.0000000E+04;  0.0000000E+00;  0.0000000E+00;  1.0000000E+04;  0.0000000E+00;  1.0000000E+04;  0.0000000E+00;  0.0000000E+00;  0.0000000E+00;  0.0000000E+00;
  1.9600000E+00;  9.9999998E-03; -1.6000000E-01;582;  0.0000000E+00;  0.0000000E+00;  0.0000000E+00;  1.0000000E+03;  4.0000001E-01;  0.0000000E+00;0;  0.0000000E+00;  0.0000000E+00;  0.0000000E+00;0;  0.0000000E+00;  1.0000000E+04;  0.0000000E+00;  0.0000000E+00;  1.0000000E+04;  0.0000000E+00;  1.0000000E+04;  0.0000000E+00;  0.0000000E+00;  0.0000000E+00;  0.0000000E+00;
  1.9600000E+00;  9.9999998E-03; -1.4000000E-01;583;  0.0000000E+00;  0.0000000E+00;  0.0000000E+00;  1.0000000E+03;  4.0000001E-01;  0.0000000E+00;0;  0.0000000E+00;  0.0000000E+00;  0.0000000E+00;0;  0.0000000E+00;  1.0000000E+04;  0.0000000E+00;  0.0000000E+00;  1.0000000E+04;  0.0000000E+00;  1.0000000E+04;  0.0000000E+00;  0.0000000E+00;  0.0000000E+00;  0.0000000E+00;
  1.9600000E+00;  9.9999998E-03; -1.2000000E-01;584;  0.0000000E+00;  0.0000000E+00;  0.0000000E+00;  1.0000000E+03;  4.0000001E-01;  0.0000000E+00;0;  0.0000000E+00;  0.0000000E+00;  0.0000000E+00;0;  0.0000000E+00;  1.0000000E+04;  0.0000000E+00;  0.0000000E+00;  1.0000000E+04;  0.0000000E+00;  1.0000000E+04;  0.0000000E+00;  0.0000000E+00;  0.0000000E+00;  0.0000000E+00;
  1.9800000E+00;  9.9999998E-03; -3.8000000E-01;585;  0.0000000E+00;  0.0000000E+00;  0.0000000E+00;  1.0000000E+03;  4.0000001E-01;  0.0000000E+00;0;  0.0000000E+00;  0.0000000E+00;  0.0000000E+00;0;  0.0000000E+00;  1.0000000E+04;  0.0000000E+00;  0.0000000E+00;  1.0000000E+04;  0.0000000E+00;  1.0000000E+04;  0.0000000E+00;  0.0000000E+00;  0.0000000E+00;  0.0000000E+00;
  1.9800000E+00;  9.9999998E-03; -3.6000001E-01;586;  0.0000000E+00;  0.0000000E+00;  0.0000000E+00;  1.0000000E+03;  4.0000001E-01;  0.0000000E+00;0;  0.0000000E+00;  0.0000000E+00;  0.0000000E+00;0;  0.0000000E+00;  1.0000000E+04;  0.0000000E+00;  0.0000000E+00;  1.0000000E+04;  0.0000000E+00;  1.0000000E+04;  0.0000000E+00;  0.0000000E+00;  0.0000000E+00;  0.0000000E+00;
  1.9800000E+00;  9.9999998E-03; -3.4000000E-01;587;  0.0000000E+00;  0.0000000E+00;  0.0000000E+00;  1.0000000E+03;  4.0000001E-01;  0.0000000E+00;0;  0.0000000E+00;  0.0000000E+00;  0.0000000E+00;0;  0.0000000E+00;  1.0000000E+04;  0.0000000E+00;  0.0000000E+00;  1.0000000E+04;  0.0000000E+00;  1.0000000E+04;  0.0000000E+00;  0.0000000E+00;  0.0000000E+00;  0.0000000E+00;
  1.9800000E+00;  9.9999998E-03; -3.1999999E-01;588;  0.0000000E+00;  0.0000000E+00;  0.0000000E+00;  1.0000000E+03;  4.0000001E-01;  0.0000000E+00;0;  0.0000000E+00;  0.0000000E+00;  0.0000000E+00;0;  0.0000000E+00;  1.0000000E+04;  0.0000000E+00;  0.0000000E+00;  1.0000000E+04;  0.0000000E+00;  1.0000000E+04;  0.0000000E+00;  0.0000000E+00;  0.0000000E+00;  0.0000000E+00;
  1.9800000E+00;  9.9999998E-03; -3.0000001E-01;589;  0.0000000E+00;  0.0000000E+00;  0.0000000E+00;  1.0000000E+03;  4.0000001E-01;  0.0000000E+00;0;  0.0000000E+00;  0.0000000E+00;  0.0000000E+00;0;  0.0000000E+00;  1.0000000E+04;  0.0000000E+00;  0.0000000E+00;  1.0000000E+04;  0.0000000E+00;  1.0000000E+04;  0.0000000E+00;  0.0000000E+00;  0.0000000E+00;  0.0000000E+00;
  1.9800000E+00;  9.9999998E-03; -2.8000000E-01;590;  0.0000000E+00;  0.0000000E+00;  0.0000000E+00;  1.0000000E+03;  4.0000001E-01;  0.0000000E+00;0;  0.0000000E+00;  0.0000000E+00;  0.0000000E+00;0;  0.0000000E+00;  1.0000000E+04;  0.0000000E+00;  0.0000000E+00;  1.0000000E+04;  0.0000000E+00;  1.0000000E+04;  0.0000000E+00;  0.0000000E+00;  0.0000000E+00;  0.0000000E+00;
  1.9800000E+00;  9.9999998E-03; -2.5999999E-01;591;  0.0000000E+00;  0.0000000E+00;  0.0000000E+00;  1.0000000E+03;  4.0000001E-01;  0.0000000E+00;0;  0.0000000E+00;  0.0000000E+00;  0.0000000E+00;0;  0.0000000E+00;  1.0000000E+04;  0.0000000E+00;  0.0000000E+00;  1.0000000E+04;  0.0000000E+00;  1.0000000E+04;  0.0000000E+00;  0.0000000E+00;  0.0000000E+00;  0.0000000E+00;
  1.9800000E+00;  9.9999998E-03; -2.3999999E-01;592;  0.0000000E+00;  0.0000000E+00;  0.0000000E+00;  1.0000000E+03;  4.0000001E-01;  0.0000000E+00;0;  0.0000000E+00;  0.0000000E+00;  0.0000000E+00;0;  0.0000000E+00;  1.0000000E+04;  0.0000000E+00;  0.0000000E+00;  1.0000000E+04;  0.0000000E+00;  1.0000000E+04;  0.0000000E+00;  0.0000000E+00;  0.0000000E+00;  0.0000000E+00;
  1.9800000E+00;  9.9999998E-03; -2.2000000E-01;593;  0.0000000E+00;  0.0000000E+00;  0.0000000E+00;  1.0000000E+03;  4.0000001E-01;  0.0000000E+00;0;  0.0000000E+00;  0.0000000E+00;  0.0000000E+00;0;  0.0000000E+00;  1.0000000E+04;  0.0000000E+00;  0.0000000E+00;  1.0000000E+04;  0.0000000E+00;  1.0000000E+04;  0.0000000E+00;  0.0000000E+00;  0.0000000E+00;  0.0000000E+00;
  1.9800000E+00;  9.9999998E-03; -2.0000000E-01;594;  0.0000000E+00;  0.0000000E+00;  0.0000000E+00;  1.0000000E+03;  4.0000001E-01;  0.0000000E+00;0;  0.0000000E+00;  0.0000000E+00;  0.0000000E+00;0;  0.0000000E+00;  1.0000000E+04;  0.0000000E+00;  0.0000000E+00;  1.0000000E+04;  0.0000000E+00;  1.0000000E+04;  0.0000000E+00;  0.0000000E+00;  0.0000000E+00;  0.0000000E+00;
  1.9800000E+00;  9.9999998E-03; -1.8000001E-01;595;  0.0000000E+00;  0.0000000E+00;  0.0000000E+00;  1.0000000E+03;  4.0000001E-01;  0.0000000E+00;0;  0.0000000E+00;  0.0000000E+00;  0.0000000E+00;0;  0.0000000E+00;  1.0000000E+04;  0.0000000E+00;  0.0000000E+00;  1.0000000E+04;  0.0000000E+00;  1.0000000E+04;  0.0000000E+00;  0.0000000E+00;  0.0000000E+00;  0.0000000E+00;
  1.9800000E+00;  9.9999998E-03; -1.6000000E-01;596;  0.0000000E+00;  0.0000000E+00;  0.0000000E+00;  1.0000000E+03;  4.0000001E-01;  0.0000000E+00;0;  0.0000000E+00;  0.0000000E+00;  0.0000000E+00;0;  0.0000000E+00;  1.0000000E+04;  0.0000000E+00;  0.0000000E+00;  1.0000000E+04;  0.0000000E+00;  1.0000000E+04;  0.0000000E+00;  0.0000000E+00;  0.0000000E+00;  0.0000000E+00;
  1.9800000E+00;  9.9999998E-03; -1.4000000E-01;597;  0.0000000E+00;  0.0000000E+00;  0.0000000E+00;  1.0000000E+03;  4.0000001E-01;  0.0000000E+00;0;  0.0000000E+00;  0.0000000E+00;  0.0000000E+00;0;  0.0000000E+00;  1.0000000E+04;  0.0000000E+00;  0.0000000E+00;  1.0000000E+04;  0.0000000E+00;  1.0000000E+04;  0.0000000E+00;  0.0000000E+00;  0.0000000E+00;  0.0000000E+00;
  1.9800000E+00;  9.9999998E-03; -1.2000000E-01;598;  0.0000000E+00;  0.0000000E+00;  0.0000000E+00;  1.0000000E+03;  4.0000001E-01;  0.0000000E+00;0;  0.0000000E+00;  0.0000000E+00;  0.0000000E+00;0;  0.0000000E+00;  1.0000000E+04;  0.0000000E+00;  0.0000000E+00;  1.0000000E+04;  0.0000000E+00;  1.0000000E+04;  0.0000000E+00;  0.0000000E+00;  0.0000000E+00;  0.0000000E+00;
  1.9800000E+00;  9.9999998E-03; -1.0000000E-01;599;  0.0000000E+00;  0.0000000E+00;  0.0000000E+00;  1.0000000E+03;  4.0000001E-01;  0.0000000E+00;0;  0.0000000E+00;  0.0000000E+00;  0.0000000E+00;0;  0.0000000E+00;  1.0000000E+04;  0.0000000E+00;  0.0000000E+00;  1.0000000E+04;  0.0000000E+00;  1.0000000E+04;  0.0000000E+00;  0.0000000E+00;  0.0000000E+00;  0.0000000E+00;
  1.9800000E+00;  9.9999998E-03; -7.9999998E-02;600;  0.0000000E+00;  0.0000000E+00;  0.0000000E+00;  1.0000000E+03;  4.0000001E-01;  0.0000000E+00;0;  0.0000000E+00;  0.0000000E+00;  0.0000000E+00;0;  0.0000000E+00;  1.0000000E+04;  0.0000000E+00;  0.0000000E+00;  1.0000000E+04;  0.0000000E+00;  1.0000000E+04;  0.0000000E+00;  0.0000000E+00;  0.0000000E+00;  0.0000000E+00;
  1.9800000E+00;  9.9999998E-03; -5.9999999E-02;601;  0.0000000E+00;  0.0000000E+00;  0.0000000E+00;  1.0000000E+03;  4.0000001E-01;  0.0000000E+00;0;  0.0000000E+00;  0.0000000E+00;  0.0000000E+00;0;  0.0000000E+00;  1.0000000E+04;  0.0000000E+00;  0.0000000E+00;  1.0000000E+04;  0.0000000E+00;  1.0000000E+04;  0.0000000E+00;  0.0000000E+00;  0.0000000E+00;  0.0000000E+00;
  1.9800000E+00;  9.9999998E-03; -3.9999999E-02;602;  0.0000000E+00;  0.0000000E+00;  0.0000000E+00;  1.0000000E+03;  4.0000001E-01;  0.0000000E+00;0;  0.0000000E+00;  0.0000000E+00;  0.0000000E+00;0;  0.0000000E+00;  1.0000000E+04;  0.0000000E+00;  0.0000000E+00;  1.0000000E+04;  0.0000000E+00;  1.0000000E+04;  0.0000000E+00;  0.0000000E+00;  0.0000000E+00;  0.0000000E+00;
  1.9800000E+00;  9.9999998E-03; -2.0000000E-02;603;  0.0000000E+00;  0.0000000E+00;  0.0000000E+00;  1.0000000E+03;  4.0000001E-01;  0.0000000E+00;0;  0.0000000E+00;  0.0000000E+00;  0.0000000E+00;0;  0.0000000E+00;  1.0000000E+04;  0.0000000E+00;  0.0000000E+00;  1.0000000E+04;  0.0000000E+00;  1.0000000E+04;  0.0000000E+00;  0.0000000E+00;  0.0000000E+00;  0.0000000E+00;
  2.0000000E+00;  9.9999998E-03; -3.8000000E-01;604;  0.0000000E+00;  0.0000000E+00;  0.0000000E+00;  1.0000000E+03;  4.0000001E-01;  0.0000000E+00;0;  0.0000000E+00;  0.0000000E+00;  0.0000000E+00;0;  0.0000000E+00;  1.0000000E+04;  0.0000000E+00;  0.0000000E+00;  1.0000000E+04;  0.0000000E+00;  1.0000000E+04;  0.0000000E+00;  0.0000000E+00;  0.0000000E+00;  0.0000000E+00;
  2.0000000E+00;  9.9999998E-03; -3.6000001E-01;605;  0.0000000E+00;  0.0000000E+00;  0.0000000E+00;  1.0000000E+03;  4.0000001E-01;  0.0000000E+00;0;  0.0000000E+00;  0.0000000E+00;  0.0000000E+00;0;  0.0000000E+00;  1.0000000E+04;  0.0000000E+00;  0.0000000E+00;  1.0000000E+04;  0.0000000E+00;  1.0000000E+04;  0.0000000E+00;  0.0000000E+00;  0.0000000E+00;  0.0000000E+00;
  2.0000000E+00;  9.9999998E-03; -3.4000000E-01;606;  0.0000000E+00;  0.0000000E+00;  0.0000000E+00;  1.0000000E+03;  4.0000001E-01;  0.0000000E+00;0;  0.0000000E+00;  0.0000000E+00;  0.0000000E+00;0;  0.0000000E+00;  1.0000000E+04;  0.0000000E+00;  0.0000000E+00;  1.0000000E+04;  0.0000000E+00;  1.0000000E+04;  0.0000000E+00;  0.0000000E+00;  0.0000000E+00;  0.0000000E+00;
  2.0000000E+00;  9.9999998E-03; -3.1999999E-01;607;  0.0000000E+00;  0.0000000E+00;  0.0000000E+00;  1.0000000E+03;  4.0000001E-01;  0.0000000E+00;0;  0.0000000E+00;  0.0000000E+00;  0.0000000E+00;0;  0.0000000E+00;  1.0000000E+04;  0.0000000E+00;  0.0000000E+00;  1.0000000E+04;  0.0000000E+00;  1.0000000E+04;  0.0000000E+00;  0.0000000E+00;  0.0000000E+00;  0.0000000E+00;
  2.0000000E+00;  9.9999998E-03; -3.0000001E-01;608;  0.0000000E+00;  0.0000000E+00;  0.0000000E+00;  1.0000000E+03;  4.0000001E-01;  0.0000000E+00;0;  0.0000000E+00;  0.0000000E+00;  0.0000000E+00;0;  0.0000000E+00;  1.0000000E+04;  0.0000000E+00;  0.0000000E+00;  1.0000000E+04;  0.0000000E+00;  1.0000000E+04;  0.0000000E+00;  0.0000000E+00;  0.0000000E+00;  0.0000000E+00;
  2.0000000E+00;  9.9999998E-03; -2.8000000E-01;609;  0.0000000E+00;  0.0000000E+00;  0.0000000E+00;  1.0000000E+03;  4.0000001E-01;  0.0000000E+00;0;  0.0000000E+00;  0.0000000E+00;  0.0000000E+00;0;  0.0000000E+00;  1.0000000E+04;  0.0000000E+00;  0.0000000E+00;  1.0000000E+04;  0.0000000E+00;  1.0000000E+04;  0.0000000E+00;  0.0000000E+00;  0.0000000E+00;  0.0000000E+00;
  2.0000000E+00;  9.9999998E-03; -2.5999999E-01;610;  0.0000000E+00;  0.0000000E+00;  0.0000000E+00;  1.0000000E+03;  4.0000001E-01;  0.0000000E+00;0;  0.0000000E+00;  0.0000000E+00;  0.0000000E+00;0;  0.0000000E+00;  1.0000000E+04;  0.0000000E+00;  0.0000000E+00;  1.0000000E+04;  0.0000000E+00;  1.0000000E+04;  0.0000000E+00;  0.0000000E+00;  0.0000000E+00;  0.0000000E+00;
  2.0000000E+00;  9.9999998E-03; -2.3999999E-01;611;  0.0000000E+00;  0.0000000E+00;  0.0000000E+00;  1.0000000E+03;  4.0000001E-01;  0.0000000E+00;0;  0.0000000E+00;  0.0000000E+00;  0.0000000E+00;0;  0.0000000E+00;  1.0000000E+04;  0.0000000E+00;  0.0000000E+00;  1.0000000E+04;  0.0000000E+00;  1.0000000E+04;  0.0000000E+00;  0.0000000E+00;  0.0000000E+00;  0.0000000E+00;
  2.0000000E+00;  9.9999998E-03; -2.2000000E-01;612;  0.0000000E+00;  0.0000000E+00;  0.0000000E+00;  1.0000000E+03;  4.0000001E-01;  0.0000000E+00;0;  0.0000000E+00;  0.0000000E+00;  0.0000000E+00;0;  0.0000000E+00;  1.0000000E+04;  0.0000000E+00;  0.0000000E+00;  1.0000000E+04;  0.0000000E+00;  1.0000000E+04;  0.0000000E+00;  0.0000000E+00;  0.0000000E+00;  0.0000000E+00;
  2.0000000E+00;  9.9999998E-03; -2.0000000E-01;613;  0.0000000E+00;  0.0000000E+00;  0.0000000E+00;  1.0000000E+03;  4.0000001E-01;  0.0000000E+00;0;  0.0000000E+00;  0.0000000E+00;  0.0000000E+00;0;  0.0000000E+00;  1.0000000E+04;  0.0000000E+00;  0.0000000E+00;  1.0000000E+04;  0.0000000E+00;  1.0000000E+04;  0.0000000E+00;  0.0000000E+00;  0.0000000E+00;  0.0000000E+00;
  2.0000000E+00;  9.9999998E-03; -1.8000001E-01;614;  0.0000000E+00;  0.0000000E+00;  0.0000000E+00;  1.0000000E+03;  4.0000001E-01;  0.0000000E+00;0;  0.0000000E+00;  0.0000000E+00;  0.0000000E+00;0;  0.0000000E+00;  1.0000000E+04;  0.0000000E+00;  0.0000000E+00;  1.0000000E+04;  0.0000000E+00;  1.0000000E+04;  0.0000000E+00;  0.0000000E+00;  0.0000000E+00;  0.0000000E+00;
  2.0000000E+00;  9.9999998E-03; -1.6000000E-01;615;  0.0000000E+00;  0.0000000E+00;  0.0000000E+00;  1.0000000E+03;  4.0000001E-01;  0.0000000E+00;0;  0.0000000E+00;  0.0000000E+00;  0.0000000E+00;0;  0.0000000E+00;  1.0000000E+04;  0.0000000E+00;  0.0000000E+00;  1.0000000E+04;  0.0000000E+00;  1.0000000E+04;  0.0000000E+00;  0.0000000E+00;  0.0000000E+00;  0.0000000E+00;
  2.0000000E+00;  9.9999998E-03; -1.4000000E-01;616;  0.0000000E+00;  0.0000000E+00;  0.0000000E+00;  1.0000000E+03;  4.0000001E-01;  0.0000000E+00;0;  0.0000000E+00;  0.0000000E+00;  0.0000000E+00;0;  0.0000000E+00;  1.0000000E+04;  0.0000000E+00;  0.0000000E+00;  1.0000000E+04;  0.0000000E+00;  1.0000000E+04;  0.0000000E+00;  0.0000000E+00;  0.0000000E+00;  0.0000000E+00;
  2.0000000E+00;  9.9999998E-03; -1.2000000E-01;617;  0.0000000E+00;  0.0000000E+00;  0.0000000E+00;  1.0000000E+03;  4.0000001E-01;  0.0000000E+00;0;  0.0000000E+00;  0.0000000E+00;  0.0000000E+00;0;  0.0000000E+00;  1.0000000E+04;  0.0000000E+00;  0.0000000E+00;  1.0000000E+04;  0.0000000E+00;  1.0000000E+04;  0.0000000E+00;  0.0000000E+00;  0.0000000E+00;  0.0000000E+00;
  2.0000000E+00;  9.9999998E-03; -1.0000000E-01;618;  0.0000000E+00;  0.0000000E+00;  0.0000000E+00;  1.0000000E+03;  4.0000001E-01;  0.0000000E+00;0;  0.0000000E+00;  0.0000000E+00;  0.0000000E+00;0;  0.0000000E+00;  1.0000000E+04;  0.0000000E+00;  0.0000000E+00;  1.0000000E+04;  0.0000000E+00;  1.0000000E+04;  0.0000000E+00;  0.0000000E+00;  0.0000000E+00;  0.0000000E+00;
  2.0000000E+00;  9.9999998E-03; -7.9999998E-02;619;  0.0000000E+00;  0.0000000E+00;  0.0000000E+00;  1.0000000E+03;  4.0000001E-01;  0.0000000E+00;0;  0.0000000E+00;  0.0000000E+00;  0.0000000E+00;0;  0.0000000E+00;  1.0000000E+04;  0.0000000E+00;  0.0000000E+00;  1.0000000E+04;  0.0000000E+00;  1.0000000E+04;  0.0000000E+00;  0.0000000E+00;  0.0000000E+00;  0.0000000E+00;
  2.0000000E+00;  9.9999998E-03; -5.9999999E-02;620;  0.0000000E+00;  0.0000000E+00;  0.0000000E+00;  1.0000000E+03;  4.0000001E-01;  0.0000000E+00;0;  0.0000000E+00;  0.0000000E+00;  0.0000000E+00;0;  0.0000000E+00;  1.0000000E+04;  0.0000000E+00;  0.0000000E+00;  1.0000000E+04;  0.0000000E+00;  1.0000000E+04;  0.0000000E+00;  0.0000000E+00;  0.0000000E+00;  0.0000000E+00;
  2.0000000E+00;  9.9999998E-03; -3.9999999E-02;621;  0.0000000E+00;  0.0000000E+00;  0.0000000E+00;  1.0000000E+03;  4.0000001E-01;  0.0000000E+00;0;  0.0000000E+00;  0.0000000E+00;  0.0000000E+00;0;  0.0000000E+00;  1.0000000E+04;  0.0000000E+00;  0.0000000E+00;  1.0000000E+04;  0.0000000E+00;  1.0000000E+04;  0.0000000E+00;  0.0000000E+00;  0.0000000E+00;  0.0000000E+00;
  2.0000000E+00;  9.9999998E-03; -2.0000000E-02;622;  0.0000000E+00;  0.0000000E+00;  0.0000000E+00;  1.0000000E+03;  4.0000001E-01;  0.0000000E+00;0;  0.0000000E+00;  0.0000000E+00;  0.0000000E+00;0;  0.0000000E+00;  1.0000000E+04;  0.0000000E+00;  0.0000000E+00;  1.0000000E+04;  0.0000000E+00;  1.0000000E+04;  0.0000000E+00;  0.0000000E+00;  0.0000000E+00;  0.0000000E+00;
  2.0000000E+00;  9.9999998E-03;  0.0000000E+00;623;  0.0000000E+00;  0.0000000E+00;  0.0000000E+00;  1.0000000E+03;  4.0000001E-01;  0.0000000E+00;0;  0.0000000E+00;  0.0000000E+00;  0.0000000E+00;0;  0.0000000E+00;  1.0000000E+04;  0.0000000E+00;  0.0000000E+00;  1.0000000E+04;  0.0000000E+00;  1.0000000E+04;  0.0000000E+00;  0.0000000E+00;  0.0000000E+00;  0.0000000E+00;
  2.0000000E+00;  9.9999998E-03;  2.0000000E-02;624;  0.0000000E+00;  0.0000000E+00;  0.0000000E+00;  1.0000000E+03;  4.0000001E-01;  0.0000000E+00;0;  0.0000000E+00;  0.0000000E+00;  0.0000000E+00;0;  0.0000000E+00;  1.0000000E+04;  0.0000000E+00;  0.0000000E+00;  1.0000000E+04;  0.0000000E+00;  1.0000000E+04;  0.0000000E+00;  0.0000000E+00;  0.0000000E+00;  0.0000000E+00;
  2.0000000E+00;  9.9999998E-03;  3.9999999E-02;625;  0.0000000E+00;  0.0000000E+00;  0.0000000E+00;  1.0000000E+03;  4.0000001E-01;  0.0000000E+00;0;  0.0000000E+00;  0.0000000E+00;  0.0000000E+00;0;  0.0000000E+00;  1.0000000E+04;  0.0000000E+00;  0.0000000E+00;  1.0000000E+04;  0.0000000E+00;  1.0000000E+04;  0.0000000E+00;  0.0000000E+00;  0.0000000E+00;  0.0000000E+00;
  2.0000000E+00;  9.9999998E-03;  5.9999999E-02;626;  0.0000000E+00;  0.0000000E+00;  0.0000000E+00;  1.0000000E+03;  4.0000001E-01;  0.0000000E+00;0;  0.0000000E+00;  0.0000000E+00;  0.0000000E+00;0;  0.0000000E+00;  1.0000000E+04;  0.0000000E+00;  0.0000000E+00;  1.0000000E+04;  0.0000000E+00;  1.0000000E+04;  0.0000000E+00;  0.0000000E+00;  0.0000000E+00;  0.0000000E+00;
  2.0000000E+00;  9.9999998E-03;  7.9999998E-02;627;  0.0000000E+00;  0.0000000E+00;  0.0000000E+00;  1.0000000E+03;  4.0000001E-01;  0.0000000E+00;0;  0.0000000E+00;  0.0000000E+00;  0.0000000E+00;0;  0.0000000E+00;  1.0000000E+04;  0.0000000E+00;  0.0000000E+00;  1.0000000E+04;  0.0000000E+00;  1.0000000E+04;  0.0000000E+00;  0.0000000E+00;  0.0000000E+00;  0.0000000E+00;
  2.0200000E+00;  9.9999998E-03; -4.0000001E-01;628;  0.0000000E+00;  0.0000000E+00;  0.0000000E+00;  1.0000000E+03;  4.0000001E-01;  0.0000000E+00;0;  0.0000000E+00;  0.0000000E+00;  0.0000000E+00;0;  0.0000000E+00;  1.0000000E+04;  0.0000000E+00;  0.0000000E+00;  1.0000000E+04;  0.0000000E+00;  1.0000000E+04;  0.0000000E+00;  0.0000000E+00;  0.0000000E+00;  0.0000000E+00;
  2.0200000E+00;  9.9999998E-03; -3.8000000E-01;629;  0.0000000E+00;  0.0000000E+00;  0.0000000E+00;  1.0000000E+03;  4.0000001E-01;  0.0000000E+00;0;  0.0000000E+00;  0.0000000E+00;  0.0000000E+00;0;  0.0000000E+00;  1.0000000E+04;  0.0000000E+00;  0.0000000E+00;  1.0000000E+04;  0.0000000E+00;  1.0000000E+04;  0.0000000E+00;  0.0000000E+00;  0.0000000E+00;  0.0000000E+00;
  2.0200000E+00;  9.9999998E-03; -3.6000001E-01;630;  0.0000000E+00;  0.0000000E+00;  0.0000000E+00;  1.0000000E+03;  4.0000001E-01;  0.0000000E+00;0;  0.0000000E+00;  0.0000000E+00;  0.0000000E+00;0;  0.0000000E+00;  1.0000000E+04;  0.0000000E+00;  0.0000000E+00;  1.0000000E+04;  0.0000000E+00;  1.0000000E+04;  0.0000000E+00;  0.0000000E+00;  0.0000000E+00;  0.0000000E+00;
  2.0200000E+00;  9.9999998E-03; -3.4000000E-01;631;  0.0000000E+00;  0.0000000E+00;  0.0000000E+00;  1.0000000E+03;  4.0000001E-01;  0.0000000E+00;0;  0.0000000E+00;  0.0000000E+00;  0.0000000E+00;0;  0.0000000E+00;  1.0000000E+04;  0.0000000E+00;  0.0000000E+00;  1.0000000E+04;  0.0000000E+00;  1.0000000E+04;  0.0000000E+00;  0.0000000E+00;  0.0000000E+00;  0.0000000E+00;
  2.0200000E+00;  9.9999998E-03; -3.1999999E-01;632;  0.0000000E+00;  0.0000000E+00;  0.0000000E+00;  1.0000000E+03;  4.0000001E-01;  0.0000000E+00;0;  0.0000000E+00;  0.0000000E+00;  0.0000000E+00;0;  0.0000000E+00;  1.0000000E+04;  0.0000000E+00;  0.0000000E+00;  1.0000000E+04;  0.0000000E+00;  1.0000000E+04;  0.0000000E+00;  0.0000000E+00;  0.0000000E+00;  0.0000000E+00;
  2.0200000E+00;  9.9999998E-03; -3.0000001E-01;633;  0.0000000E+00;  0.0000000E+00;  0.0000000E+00;  1.0000000E+03;  4.0000001E-01;  0.0000000E+00;0;  0.0000000E+00;  0.0000000E+00;  0.0000000E+00;0;  0.0000000E+00;  1.0000000E+04;  0.0000000E+00;  0.0000000E+00;  1.0000000E+04;  0.0000000E+00;  1.0000000E+04;  0.0000000E+00;  0.0000000E+00;  0.0000000E+00;  0.0000000E+00;
  2.0200000E+00;  9.9999998E-03; -2.8000000E-01;634;  0.0000000E+00;  0.0000000E+00;  0.0000000E+00;  1.0000000E+03;  4.0000001E-01;  0.0000000E+00;0;  0.0000000E+00;  0.0000000E+00;  0.0000000E+00;0;  0.0000000E+00;  1.0000000E+04;  0.0000000E+00;  0.0000000E+00;  1.0000000E+04;  0.0000000E+00;  1.0000000E+04;  0.0000000E+00;  0.0000000E+00;  0.0000000E+00;  0.0000000E+00;
  2.0200000E+00;  9.9999998E-03; -2.5999999E-01;635;  0.0000000E+00;  0.0000000E+00;  0.0000000E+00;  1.0000000E+03;  4.0000001E-01;  0.0000000E+00;0;  0.0000000E+00;  0.0000000E+00;  0.0000000E+00;0;  0.0000000E+00;  1.0000000E+04;  0.0000000E+00;  0.0000000E+00;  1.0000000E+04;  0.0000000E+00;  1.0000000E+04;  0.0000000E+00;  0.0000000E+00;  0.0000000E+00;  0.0000000E+00;
  2.0200000E+00;  9.9999998E-03; -2.3999999E-01;636;  0.0000000E+00;  0.0000000E+00;  0.0000000E+00;  1.0000000E+03;  4.0000001E-01;  0.0000000E+00;0;  0.0000000E+00;  0.0000000E+00;  0.0000000E+00;0;  0.0000000E+00;  1.0000000E+04;  0.0000000E+00;  0.0000000E+00;  1.0000000E+04;  0.0000000E+00;  1.0000000E+04;  0.0000000E+00;  0.0000000E+00;  0.0000000E+00;  0.0000000E+00;
  2.0200000E+00;  9.9999998E-03; -2.2000000E-01;637;  0.0000000E+00;  0.0000000E+00;  0.0000000E+00;  1.0000000E+03;  4.0000001E-01;  0.0000000E+00;0;  0.0000000E+00;  0.0000000E+00;  0.0000000E+00;0;  0.0000000E+00;  1.0000000E+04;  0.0000000E+00;  0.0000000E+00;  1.0000000E+04;  0.0000000E+00;  1.0000000E+04;  0.0000000E+00;  0.0000000E+00;  0.0000000E+00;  0.0000000E+00;
  2.0200000E+00;  9.9999998E-03; -2.0000000E-01;638;  0.0000000E+00;  0.0000000E+00;  0.0000000E+00;  1.0000000E+03;  4.0000001E-01;  0.0000000E+00;0;  0.0000000E+00;  0.0000000E+00;  0.0000000E+00;0;  0.0000000E+00;  1.0000000E+04;  0.0000000E+00;  0.0000000E+00;  1.0000000E+04;  0.0000000E+00;  1.0000000E+04;  0.0000000E+00;  0.0000000E+00;  0.0000000E+00;  0.0000000E+00;
  2.0200000E+00;  9.9999998E-03; -1.8000001E-01;639;  0.0000000E+00;  0.0000000E+00;  0.0000000E+00;  1.0000000E+03;  4.0000001E-01;  0.0000000E+00;0;  0.0000000E+00;  0.0000000E+00;  0.0000000E+00;0;  0.0000000E+00;  1.0000000E+04;  0.0000000E+00;  0.0000000E+00;  1.0000000E+04;  0.0000000E+00;  1.0000000E+04;  0.0000000E+00;  0.0000000E+00;  0.0000000E+00;  0.0000000E+00;
  2.0200000E+00;  9.9999998E-03; -1.6000000E-01;640;  0.0000000E+00;  0.0000000E+00;  0.0000000E+00;  1.0000000E+03;  4.0000001E-01;  0.0000000E+00;0;  0.0000000E+00;  0.0000000E+00;  0.0000000E+00;0;  0.0000000E+00;  1.0000000E+04;  0.0000000E+00;  0.0000000E+00;  1.0000000E+04;  0.0000000E+00;  1.0000000E+04;  0.0000000E+00;  0.0000000E+00;  0.0000000E+00;  0.0000000E+00;
  2.0200000E+00;  9.9999998E-03; -1.4000000E-01;641;  0.0000000E+00;  0.0000000E+00;  0.0000000E+00;  1.0000000E+03;  4.0000001E-01;  0.0000000E+00;0;  0.0000000E+00;  0.0000000E+00;  0.0000000E+00;0;  0.0000000E+00;  1.0000000E+04;  0.0000000E+00;  0.0000000E+00;  1.0000000E+04;  0.0000000E+00;  1.0000000E+04;  0.0000000E+00;  0.0000000E+00;  0.0000000E+00;  0.0000000E+00;
  2.0200000E+00;  9.9999998E-03; -1.2000000E-01;642;  0.0000000E+00;  0.0000000E+00;  0.0000000E+00;  1.0000000E+03;  4.0000001E-01;  0.0000000E+00;0;  0.0000000E+00;  0.0000000E+00;  0.0000000E+00;0;  0.0000000E+00;  1.0000000E+04;  0.0000000E+00;  0.0000000E+00;  1.0000000E+04;  0.0000000E+00;  1.0000000E+04;  0.0000000E+00;  0.0000000E+00;  0.0000000E+00;  0.0000000E+00;
  2.0200000E+00;  9.9999998E-03; -1.0000000E-01;643;  0.0000000E+00;  0.0000000E+00;  0.0000000E+00;  1.0000000E+03;  4.0000001E-01;  0.0000000E+00;0;  0.0000000E+00;  0.0000000E+00;  0.0000000E+00;0;  0.0000000E+00;  1.0000000E+04;  0.0000000E+00;  0.0000000E+00;  1.0000000E+04;  0.0000000E+00;  1.0000000E+04;  0.0000000E+00;  0.0000000E+00;  0.0000000E+00;  0.0000000E+00;
  2.0200000E+00;  9.9999998E-03; -7.9999998E-02;644;  0.0000000E+00;  0.0000000E+00;  0.0000000E+00;  1.0000000E+03;  4.0000001E-01;  0.0000000E+00;0;  0.0000000E+00;  0.0000000E+00;  0.0000000E+00;0;  0.0000000E+00;  1.0000000E+04;  0.0000000E+00;  0.0000000E+00;  1.0000000E+04;  0.0000000E+00;  1.0000000E+04;  0.0000000E+00;  0.0000000E+00;  0.0000000E+00;  0.0000000E+00;
  2.0200000E+00;  9.9999998E-03; -5.9999999E-02;645;  0.0000000E+00;  0.0000000E+00;  0.0000000E+00;  1.0000000E+03;  4.0000001E-01;  0.0000000E+00;0;  0.0000000E+00;  0.0000000E+00;  0.0000000E+00;0;  0.0000000E+00;  1.0000000E+04;  0.0000000E+00;  0.0000000E+00;  1.0000000E+04;  0.0000000E+00;  1.0000000E+04;  0.0000000E+00;  0.0000000E+00;  0.0000000E+00;  0.0000000E+00;
  2.0200000E+00;  9.9999998E-03; -3.9999999E-02;646;  0.0000000E+00;  0.0000000E+00;  0.0000000E+00;  1.0000000E+03;  4.0000001E-01;  0.0000000E+00;0;  0.0000000E+00;  0.0000000E+00;  0.0000000E+00;0;  0.0000000E+00;  1.0000000E+04;  0.0000000E+00;  0.0000000E+00;  1.0000000E+04;  0.0000000E+00;  1.0000000E+04;  0.0000000E+00;  0.0000000E+00;  0.0000000E+00;  0.0000000E+00;
  2.0200000E+00;  9.9999998E-03; -2.0000000E-02;647;  0.0000000E+00;  0.0000000E+00;  0.0000000E+00;  1.0000000E+03;  4.0000001E-01;  0.0000000E+00;0;  0.0000000E+00;  0.0000000E+00;  0.0000000E+00;0;  0.0000000E+00;  1.0000000E+04;  0.0000000E+00;  0.0000000E+00;  1.0000000E+04;  0.0000000E+00;  1.0000000E+04;  0.0000000E+00;  0.0000000E+00;  0.0000000E+00;  0.0000000E+00;
  2.0200000E+00;  9.9999998E-03;  0.0000000E+00;648;  0.0000000E+00;  0.0000000E+00;  0.0000000E+00;  1.0000000E+03;  4.0000001E-01;  0.0000000E+00;0;  0.0000000E+00;  0.0000000E+00;  0.0000000E+00;0;  0.0000000E+00;  1.0000000E+04;  0.0000000E+00;  0.0000000E+00;  1.0000000E+04;  0.0000000E+00;  1.0000000E+04;  0.0000000E+00;  0.0000000E+00;  0.0000000E+00;  0.0000000E+00;
  2.0200000E+00;  9.9999998E-03;  2.0000000E-02;649;  0.0000000E+00;  0.0000000E+00;  0.0000000E+00;  1.0000000E+03;  4.0000001E-01;  0.0000000E+00;0;  0.0000000E+00;  0.0000000E+00;  0.0000000E+00;0;  0.0000000E+00;  1.0000000E+04;  0.0000000E+00;  0.0000000E+00;  1.0000000E+04;  0.0000000E+00;  1.0000000E+04;  0.0000000E+00;  0.0000000E+00;  0.0000000E+00;  0.0000000E+00;
  2.0200000E+00;  9.9999998E-03;  3.9999999E-02;650;  0.0000000E+00;  0.0000000E+00;  0.0000000E+00;  1.0000000E+03;  4.0000001E-01;  0.0000000E+00;0;  0.0000000E+00;  0.0000000E+00;  0.0000000E+00;0;  0.0000000E+00;  1.0000000E+04;  0.0000000E+00;  0.0000000E+00;  1.0000000E+04;  0.0000000E+00;  1.0000000E+04;  0.0000000E+00;  0.0000000E+00;  0.0000000E+00;  0.0000000E+00;
  2.0200000E+00;  9.9999998E-03;  5.9999999E-02;651;  0.0000000E+00;  0.0000000E+00;  0.0000000E+00;  1.0000000E+03;  4.0000001E-01;  0.0000000E+00;0;  0.0000000E+00;  0.0000000E+00;  0.0000000E+00;0;  0.0000000E+00;  1.0000000E+04;  0.0000000E+00;  0.0000000E+00;  1.0000000E+04;  0.0000000E+00;  1.0000000E+04;  0.0000000E+00;  0.0000000E+00;  0.0000000E+00;  0.0000000E+00;
  2.0200000E+00;  9.9999998E-03;  7.9999998E-02;652;  0.0000000E+00;  0.0000000E+00;  0.0000000E+00;  1.0000000E+03;  4.0000001E-01;  0.0000000E+00;0;  0.0000000E+00;  0.0000000E+00;  0.0000000E+00;0;  0.0000000E+00;  1.0000000E+04;  0.0000000E+00;  0.0000000E+00;  1.0000000E+04;  0.0000000E+00;  1.0000000E+04;  0.0000000E+00;  0.0000000E+00;  0.0000000E+00;  0.0000000E+00;
  2.0200000E+00;  9.9999998E-03;  1.0000000E-01;653;  0.0000000E+00;  0.0000000E+00;  0.0000000E+00;  1.0000000E+03;  4.0000001E-01;  0.0000000E+00;0;  0.0000000E+00;  0.0000000E+00;  0.0000000E+00;0;  0.0000000E+00;  1.0000000E+04;  0.0000000E+00;  0.0000000E+00;  1.0000000E+04;  0.0000000E+00;  1.0000000E+04;  0.0000000E+00;  0.0000000E+00;  0.0000000E+00;  0.0000000E+00;
  2.0200000E+00;  9.9999998E-03;  1.2000000E-01;654;  0.0000000E+00;  0.0000000E+00;  0.0000000E+00;  1.0000000E+03;  4.0000001E-01;  0.0000000E+00;0;  0.0000000E+00;  0.0000000E+00;  0.0000000E+00;0;  0.0000000E+00;  1.0000000E+04;  0.0000000E+00;  0.0000000E+00;  1.0000000E+04;  0.0000000E+00;  1.0000000E+04;  0.0000000E+00;  0.0000000E+00;  0.0000000E+00;  0.0000000E+00;
  2.0200000E+00;  9.9999998E-03;  1.4000000E-01;655;  0.0000000E+00;  0.0000000E+00;  0.0000000E+00;  1.0000000E+03;  4.0000001E-01;  0.0000000E+00;0;  0.0000000E+00;  0.0000000E+00;  0.0000000E+00;0;  0.0000000E+00;  1.0000000E+04;  0.0000000E+00;  0.0000000E+00;  1.0000000E+04;  0.0000000E+00;  1.0000000E+04;  0.0000000E+00;  0.0000000E+00;  0.0000000E+00;  0.0000000E+00;
  2.0200000E+00;  9.9999998E-03;  1.6000000E-01;656;  0.0000000E+00;  0.0000000E+00;  0.0000000E+00;  1.0000000E+03;  4.0000001E-01;  0.0000000E+00;0;  0.0000000E+00;  0.0000000E+00;  0.0000000E+00;0;  0.0000000E+00;  1.0000000E+04;  0.0000000E+00;  0.0000000E+00;  1.0000000E+04;  0.0000000E+00;  1.0000000E+04;  0.0000000E+00;  0.0000000E+00;  0.0000000E+00;  0.0000000E+00;
  2.0200000E+00;  9.9999998E-03;  1.8000001E-01;657;  0.0000000E+00;  0.0000000E+00;  0.0000000E+00;  1.0000000E+03;  4.0000001E-01;  0.0000000E+00;0;  0.0000000E+00;  0.0000000E+00;  0.0000000E+00;0;  0.0000000E+00;  1.0000000E+04;  0.0000000E+00;  0.0000000E+00;  1.0000000E+04;  0.0000000E+00;  1.0000000E+04;  0.0000000E+00;  0.0000000E+00;  0.0000000E+00;  0.0000000E+00;
  2.0400000E+00;  9.9999998E-03; -4.0000001E-01;658;  0.0000000E+00;  0.0000000E+00;  0.0000000E+00;  1.0000000E+03;  4.0000001E-01;  0.0000000E+00;0;  0.0000000E+00;  0.0000000E+00;  0.0000000E+00;0;  0.0000000E+00;  1.0000000E+04;  0.0000000E+00;  0.0000000E+00;  1.0000000E+04;  0.0000000E+00;  1.0000000E+04;  0.0000000E+00;  0.0000000E+00;  0.0000000E+00;  0.0000000E+00;
  2.0400000E+00;  9.9999998E-03; -3.8000000E-01;659;  0.0000000E+00;  0.0000000E+00;  0.0000000E+00;  1.0000000E+03;  4.0000001E-01;  0.0000000E+00;0;  0.0000000E+00;  0.0000000E+00;  0.0000000E+00;0;  0.0000000E+00;  1.0000000E+04;  0.0000000E+00;  0.0000000E+00;  1.0000000E+04;  0.0000000E+00;  1.0000000E+04;  0.0000000E+00;  0.0000000E+00;  0.0000000E+00;  0.0000000E+00;
  2.0400000E+00;  9.9999998E-03; -3.6000001E-01;660;  0.0000000E+00;  0.0000000E+00;  0.0000000E+00;  1.0000000E+03;  4.0000001E-01;  0.0000000E+00;0;  0.0000000E+00;  0.0000000E+00;  0.0000000E+00;0;  0.0000000E+00;  1.0000000E+04;  0.0000000E+00;  0.0000000E+00;  1.0000000E+04;  0.0000000E+00;  1.0000000E+04;  0.0000000E+00;  0.0000000E+00;  0.0000000E+00;  0.0000000E+00;
  2.0400000E+00;  9.9999998E-03; -3.4000000E-01;661;  0.0000000E+00;  0.0000000E+00;  0.0000000E+00;  1.0000000E+03;  4.0000001E-01;  0.0000000E+00;0;  0.0000000E+00;  0.0000000E+00;  0.0000000E+00;0;  0.0000000E+00;  1.0000000E+04;  0.0000000E+00;  0.0000000E+00;  1.0000000E+04;  0.0000000E+00;  1.0000000E+04;  0.0000000E+00;  0.0000000E+00;  0.0000000E+00;  0.0000000E+00;
  2.0400000E+00;  9.9999998E-03; -3.1999999E-01;662;  0.0000000E+00;  0.0000000E+00;  0.0000000E+00;  1.0000000E+03;  4.0000001E-01;  0.0000000E+00;0;  0.0000000E+00;  0.0000000E+00;  0.0000000E+00;0;  0.0000000E+00;  1.0000000E+04;  0.0000000E+00;  0.0000000E+00;  1.0000000E+04;  0.0000000E+00;  1.0000000E+04;  0.0000000E+00;  0.0000000E+00;  0.0000000E+00;  0.0000000E+00;
  2.0400000E+00;  9.9999998E-03; -3.0000001E-01;663;  0.0000000E+00;  0.0000000E+00;  0.0000000E+00;  1.0000000E+03;  4.0000001E-01;  0.0000000E+00;0;  0.0000000E+00;  0.0000000E+00;  0.0000000E+00;0;  0.0000000E+00;  1.0000000E+04;  0.0000000E+00;  0.0000000E+00;  1.0000000E+04;  0.0000000E+00;  1.0000000E+04;  0.0000000E+00;  0.0000000E+00;  0.0000000E+00;  0.0000000E+00;
  2.0400000E+00;  9.9999998E-03; -2.8000000E-01;664;  0.0000000E+00;  0.0000000E+00;  0.0000000E+00;  1.0000000E+03;  4.0000001E-01;  0.0000000E+00;0;  0.0000000E+00;  0.0000000E+00;  0.0000000E+00;0;  0.0000000E+00;  1.0000000E+04;  0.0000000E+00;  0.0000000E+00;  1.0000000E+04;  0.0000000E+00;  1.0000000E+04;  0.0000000E+00;  0.0000000E+00;  0.0000000E+00;  0.0000000E+00;
  2.0400000E+00;  9.9999998E-03; -2.5999999E-01;665;  0.0000000E+00;  0.0000000E+00;  0.0000000E+00;  1.0000000E+03;  4.0000001E-01;  0.0000000E+00;0;  0.0000000E+00;  0.0000000E+00;  0.0000000E+00;0;  0.0000000E+00;  1.0000000E+04;  0.0000000E+00;  0.0000000E+00;  1.0000000E+04;  0.0000000E+00;  1.0000000E+04;  0.0000000E+00;  0.0000000E+00;  0.0000000E+00;  0.0000000E+00;
  2.0400000E+00;  9.9999998E-03; -2.3999999E-01;666;  0.0000000E+00;  0.0000000E+00;  0.0000000E+00;  1.0000000E+03;  4.0000001E-01;  0.0000000E+00;0;  0.0000000E+00;  0.0000000E+00;  0.0000000E+00;0;  0.0000000E+00;  1.0000000E+04;  0.0000000E+00;  0.0000000E+00;  1.0000000E+04;  0.0000000E+00;  1.0000000E+04;  0.0000000E+00;  0.0000000E+00;  0.0000000E+00;  0.0000000E+00;
  2.0400000E+00;  9.9999998E-03; -2.2000000E-01;667;  0.0000000E+00;  0.0000000E+00;  0.0000000E+00;  1.0000000E+03;  4.0000001E-01;  0.0000000E+00;0;  0.0000000E+00;  0.0000000E+00;  0.0000000E+00;0;  0.0000000E+00;  1.0000000E+04;  0.0000000E+00;  0.0000000E+00;  1.0000000E+04;  0.0000000E+00;  1.0000000E+04;  0.0000000E+00;  0.0000000E+00;  0.0000000E+00;  0.0000000E+00;
  2.0400000E+00;  9.9999998E-03; -2.0000000E-01;668;  0.0000000E+00;  0.0000000E+00;  0.0000000E+00;  1.0000000E+03;  4.0000001E-01;  0.0000000E+00;0;  0.0000000E+00;  0.0000000E+00;  0.0000000E+00;0;  0.0000000E+00;  1.0000000E+04;  0.0000000E+00;  0.0000000E+00;  1.0000000E+04;  0.0000000E+00;  1.0000000E+04;  0.0000000E+00;  0.0000000E+00;  0.0000000E+00;  0.0000000E+00;
  2.0400000E+00;  9.9999998E-03; -1.8000001E-01;669;  0.0000000E+00;  0.0000000E+00;  0.0000000E+00;  1.0000000E+03;  4.0000001E-01;  0.0000000E+00;0;  0.0000000E+00;  0.0000000E+00;  0.0000000E+00;0;  0.0000000E+00;  1.0000000E+04;  0.0000000E+00;  0.0000000E+00;  1.0000000E+04;  0.0000000E+00;  1.0000000E+04;  0.0000000E+00;  0.0000000E+00;  0.0000000E+00;  0.0000000E+00;
  2.0400000E+00;  9.9999998E-03; -1.6000000E-01;670;  0.0000000E+00;  0.0000000E+00;  0.0000000E+00;  1.0000000E+03;  4.0000001E-01;  0.0000000E+00;0;  0.0000000E+00;  0.0000000E+00;  0.0000000E+00;0;  0.0000000E+00;  1.0000000E+04;  0.0000000E+00;  0.0000000E+00;  1.0000000E+04;  0.0000000E+00;  1.0000000E+04;  0.0000000E+00;  0.0000000E+00;  0.0000000E+00;  0.0000000E+00;
  2.0400000E+00;  9.9999998E-03; -1.4000000E-01;671;  0.0000000E+00;  0.0000000E+00;  0.0000000E+00;  1.0000000E+03;  4.0000001E-01;  0.0000000E+00;0;  0.0000000E+00;  0.0000000E+00;  0.0000000E+00;0;  0.0000000E+00;  1.0000000E+04;  0.0000000E+00;  0.0000000E+00;  1.0000000E+04;  0.0000000E+00;  1.0000000E+04;  0.0000000E+00;  0.0000000E+00;  0.0000000E+00;  0.0000000E+00;
  2.0400000E+00;  9.9999998E-03; -1.2000000E-01;672;  0.0000000E+00;  0.0000000E+00;  0.0000000E+00;  1.0000000E+03;  4.0000001E-01;  0.0000000E+00;0;  0.0000000E+00;  0.0000000E+00;  0.0000000E+00;0;  0.0000000E+00;  1.0000000E+04;  0.0000000E+00;  0.0000000E+00;  1.0000000E+04;  0.0000000E+00;  1.0000000E+04;  0.0000000E+00;  0.0000000E+00;  0.0000000E+00;  0.0000000E+00;
  2.0400000E+00;  9.9999998E-03; -1.0000000E-01;673;  0.0000000E+00;  0.0000000E+00;  0.0000000E+00;  1.0000000E+03;  4.0000001E-01;  0.0000000E+00;0;  0.0000000E+00;  0.0000000E+00;  0.0000000E+00;0;  0.0000000E+00;  1.0000000E+04;  0.0000000E+00;  0.0000000E+00;  1.0000000E+04;  0.0000000E+00;  1.0000000E+04;  0.0000000E+00;  0.0000000E+00;  0.0000000E+00;  0.0000000E+00;
  2.0400000E+00;  9.9999998E-03; -7.9999998E-02;674;  0.0000000E+00;  0.0000000E+00;  0.0000000E+00;  1.0000000E+03;  4.0000001E-01;  0.0000000E+00;0;  0.0000000E+00;  0.0000000E+00;  0.0000000E+00;0;  0.0000000E+00;  1.0000000E+04;  0.0000000E+00;  0.0000000E+00;  1.0000000E+04;  0.0000000E+00;  1.0000000E+04;  0.0000000E+00;  0.0000000E+00;  0.0000000E+00;  0.0000000E+00;
  2.0400000E+00;  9.9999998E-03; -5.9999999E-02;675;  0.0000000E+00;  0.0000000E+00;  0.0000000E+00;  1.0000000E+03;  4.0000001E-01;  0.0000000E+00;0;  0.0000000E+00;  0.0000000E+00;  0.0000000E+00;0;  0.0000000E+00;  1.0000000E+04;  0.0000000E+00;  0.0000000E+00;  1.0000000E+04;  0.0000000E+00;  1.0000000E+04;  0.0000000E+00;  0.0000000E+00;  0.0000000E+00;  0.0000000E+00;
  2.0400000E+00;  9.9999998E-03; -3.9999999E-02;676;  0.0000000E+00;  0.0000000E+00;  0.0000000E+00;  1.0000000E+03;  4.0000001E-01;  0.0000000E+00;0;  0.0000000E+00;  0.0000000E+00;  0.0000000E+00;0;  0.0000000E+00;  1.0000000E+04;  0.0000000E+00;  0.0000000E+00;  1.0000000E+04;  0.0000000E+00;  1.0000000E+04;  0.0000000E+00;  0.0000000E+00;  0.0000000E+00;  0.0000000E+00;
  2.0400000E+00;  9.9999998E-03; -2.0000000E-02;677;  0.0000000E+00;  0.0000000E+00;  0.0000000E+00;  1.0000000E+03;  4.0000001E-01;  0.0000000E+00;0;  0.0000000E+00;  0.0000000E+00;  0.0000000E+00;0;  0.0000000E+00;  1.0000000E+04;  0.0000000E+00;  0.0000000E+00;  1.0000000E+04;  0.0000000E+00;  1.0000000E+04;  0.0000000E+00;  0.0000000E+00;  0.0000000E+00;  0.0000000E+00;
  2.0400000E+00;  9.9999998E-03;  0.0000000E+00;678;  0.0000000E+00;  0.0000000E+00;  0.0000000E+00;  1.0000000E+03;  4.0000001E-01;  0.0000000E+00;0;  0.0000000E+00;  0.0000000E+00;  0.0000000E+00;0;  0.0000000E+00;  1.0000000E+04;  0.0000000E+00;  0.0000000E+00;  1.0000000E+04;  0.0000000E+00;  1.0000000E+04;  0.0000000E+00;  0.0000000E+00;  0.0000000E+00;  0.0000000E+00;
  2.0400000E+00;  9.9999998E-03;  2.0000000E-02;679;  0.0000000E+00;  0.0000000E+00;  0.0000000E+00;  1.0000000E+03;  4.0000001E-01;  0.0000000E+00;0;  0.0000000E+00;  0.0000000E+00;  0.0000000E+00;0;  0.0000000E+00;  1.0000000E+04;  0.0000000E+00;  0.0000000E+00;  1.0000000E+04;  0.0000000E+00;  1.0000000E+04;  0.0000000E+00;  0.0000000E+00;  0.0000000E+00;  0.0000000E+00;
  2.0400000E+00;  9.9999998E-03;  3.9999999E-02;680;  0.0000000E+00;  0.0000000E+00;  0.0000000E+00;  1.0000000E+03;  4.0000001E-01;  0.0000000E+00;0;  0.0000000E+00;  0.0000000E+00;  0.0000000E+00;0;  0.0000000E+00;  1.0000000E+04;  0.0000000E+00;  0.0000000E+00;  1.0000000E+04;  0.0000000E+00;  1.0000000E+04;  0.0000000E+00;  0.0000000E+00;  0.0000000E+00;  0.0000000E+00;
  2.0400000E+00;  9.9999998E-03;  5.9999999E-02;681;  0.0000000E+00;  0.0000000E+00;  0.0000000E+00;  1.0000000E+03;  4.0000001E-01;  0.0000000E+00;0;  0.0000000E+00;  0.0000000E+00;  0.0000000E+00;0;  0.0000000E+00;  1.0000000E+04;  0.0000000E+00;  0.0000000E+00;  1.0000000E+04;  0.0000000E+00;  1.0000000E+04;  0.0000000E+00;  0.0000000E+00;  0.0000000E+00;  0.0000000E+00;
  2.0400000E+00;  9.9999998E-03;  7.9999998E-02;682;  0.0000000E+00;  0.0000000E+00;  0.0000000E+00;  1.0000000E+03;  4.0000001E-01;  0.0000000E+00;0;  0.0000000E+00;  0.0000000E+00;  0.0000000E+00;0;  0.0000000E+00;  1.0000000E+04;  0.0000000E+00;  0.0000000E+00;  1.0000000E+04;  0.0000000E+00;  1.0000000E+04;  0.0000000E+00;  0.0000000E+00;  0.0000000E+00;  0.0000000E+00;
  2.0400000E+00;  9.9999998E-03;  1.0000000E-01;683;  0.0000000E+00;  0.0000000E+00;  0.0000000E+00;  1.0000000E+03;  4.0000001E-01;  0.0000000E+00;0;  0.0000000E+00;  0.0000000E+00;  0.0000000E+00;0;  0.0000000E+00;  1.0000000E+04;  0.0000000E+00;  0.0000000E+00;  1.0000000E+04;  0.0000000E+00;  1.0000000E+04;  0.0000000E+00;  0.0000000E+00;  0.0000000E+00;  0.0000000E+00;
  2.0400000E+00;  9.9999998E-03;  1.2000000E-01;684;  0.0000000E+00;  0.0000000E+00;  0.0000000E+00;  1.0000000E+03;  4.0000001E-01;  0.0000000E+00;0;  0.0000000E+00;  0.0000000E+00;  0.0000000E+00;0;  0.0000000E+00;  1.0000000E+04;  0.0000000E+00;  0.0000000E+00;  1.0000000E+04;  0.0000000E+00;  1.0000000E+04;  0.0000000E+00;  0.0000000E+00;  0.0000000E+00;  0.0000000E+00;
  2.0400000E+00;  9.9999998E-03;  1.4000000E-01;685;  0.0000000E+00;  0.0000000E+00;  0.0000000E+00;  1.0000000E+03;  4.0000001E-01;  0.0000000E+00;0;  0.0000000E+00;  0.0000000E+00;  0.0000000E+00;0;  0.0000000E+00;  1.0000000E+04;  0.0000000E+00;  0.0000000E+00;  1.0000000E+04;  0.0000000E+00;  1.0000000E+04;  0.0000000E+00;  0.0000000E+00;  0.0000000E+00;  0.0000000E+00;
  2.0400000E+00;  9.9999998E-03;  1.6000000E-01;686;  0.0000000E+00;  0.0000000E+00;  0.0000000E+00;  1.0000000E+03;  4.0000001E-01;  0.0000000E+00;0;  0.0000000E+00;  0.0000000E+00;  0.0000000E+00;0;  0.0000000E+00;  1.0000000E+04;  0.0000000E+00;  0.0000000E+00;  1.0000000E+04;  0.0000000E+00;  1.0000000E+04;  0.0000000E+00;  0.0000000E+00;  0.0000000E+00;  0.0000000E+00;
  2.0400000E+00;  9.9999998E-03;  1.8000001E-01;687;  0.0000000E+00;  0.0000000E+00;  0.0000000E+00;  1.0000000E+03;  4.0000001E-01;  0.0000000E+00;0;  0.0000000E+00;  0.0000000E+00;  0.0000000E+00;0;  0.0000000E+00;  1.0000000E+04;  0.0000000E+00;  0.0000000E+00;  1.0000000E+04;  0.0000000E+00;  1.0000000E+04;  0.0000000E+00;  0.0000000E+00;  0.0000000E+00;  0.0000000E+00;
  2.0400000E+00;  9.9999998E-03;  2.0000000E-01;688;  0.0000000E+00;  0.0000000E+00;  0.0000000E+00;  1.0000000E+03;  4.0000001E-01;  0.0000000E+00;0;  0.0000000E+00;  0.0000000E+00;  0.0000000E+00;0;  0.0000000E+00;  1.0000000E+04;  0.0000000E+00;  0.0000000E+00;  1.0000000E+04;  0.0000000E+00;  1.0000000E+04;  0.0000000E+00;  0.0000000E+00;  0.0000000E+00;  0.0000000E+00;
  2.0400000E+00;  9.9999998E-03;  2.2000000E-01;689;  0.0000000E+00;  0.0000000E+00;  0.0000000E+00;  1.0000000E+03;  4.0000001E-01;  0.0000000E+00;0;  0.0000000E+00;  0.0000000E+00;  0.0000000E+00;0;  0.0000000E+00;  1.0000000E+04;  0.0000000E+00;  0.0000000E+00;  1.0000000E+04;  0.0000000E+00;  1.0000000E+04;  0.0000000E+00;  0.0000000E+00;  0.0000000E+00;  0.0000000E+00;
  2.0400000E+00;  9.9999998E-03;  2.3999999E-01;690;  0.0000000E+00;  0.0000000E+00;  0.0000000E+00;  1.0000000E+03;  4.0000001E-01;  0.0000000E+00;0;  0.0000000E+00;  0.0000000E+00;  0.0000000E+00;0;  0.0000000E+00;  1.0000000E+04;  0.0000000E+00;  0.0000000E+00;  1.0000000E+04;  0.0000000E+00;  1.0000000E+04;  0.0000000E+00;  0.0000000E+00;  0.0000000E+00;  0.0000000E+00;
  2.0400000E+00;  9.9999998E-03;  2.5999999E-01;691;  0.0000000E+00;  0.0000000E+00;  0.0000000E+00;  1.0000000E+03;  4.0000001E-01;  0.0000000E+00;0;  0.0000000E+00;  0.0000000E+00;  0.0000000E+00;0;  0.0000000E+00;  1.0000000E+04;  0.0000000E+00;  0.0000000E+00;  1.0000000E+04;  0.0000000E+00;  1.0000000E+04;  0.0000000E+00;  0.0000000E+00;  0.0000000E+00;  0.0000000E+00;
  2.0400000E+00;  9.9999998E-03;  2.8000000E-01;692;  0.0000000E+00;  0.0000000E+00;  0.0000000E+00;  1.0000000E+03;  4.0000001E-01;  0.0000000E+00;0;  0.0000000E+00;  0.0000000E+00;  0.0000000E+00;0;  0.0000000E+00;  1.0000000E+04;  0.0000000E+00;  0.0000000E+00;  1.0000000E+04;  0.0000000E+00;  1.0000000E+04;  0.0000000E+00;  0.0000000E+00;  0.0000000E+00;  0.0000000E+00;
  2.0599999E+00;  9.9999998E-03; -4.0000001E-01;693;  0.0000000E+00;  0.0000000E+00;  0.0000000E+00;  1.0000000E+03;  4.0000001E-01;  0.0000000E+00;0;  0.0000000E+00;  0.0000000E+00;  0.0000000E+00;0;  0.0000000E+00;  1.0000000E+04;  0.0000000E+00;  0.0000000E+00;  1.0000000E+04;  0.0000000E+00;  1.0000000E+04;  0.0000000E+00;  0.0000000E+00;  0.0000000E+00;  0.0000000E+00;
  2.0599999E+00;  9.9999998E-03; -3.8000000E-01;694;  0.0000000E+00;  0.0000000E+00;  0.0000000E+00;  1.0000000E+03;  4.0000001E-01;  0.0000000E+00;0;  0.0000000E+00;  0.0000000E+00;  0.0000000E+00;0;  0.0000000E+00;  1.0000000E+04;  0.0000000E+00;  0.0000000E+00;  1.0000000E+04;  0.0000000E+00;  1.0000000E+04;  0.0000000E+00;  0.0000000E+00;  0.0000000E+00;  0.0000000E+00;
  2.0599999E+00;  9.9999998E-03; -3.6000001E-01;695;  0.0000000E+00;  0.0000000E+00;  0.0000000E+00;  1.0000000E+03;  4.0000001E-01;  0.0000000E+00;0;  0.0000000E+00;  0.0000000E+00;  0.0000000E+00;0;  0.0000000E+00;  1.0000000E+04;  0.0000000E+00;  0.0000000E+00;  1.0000000E+04;  0.0000000E+00;  1.0000000E+04;  0.0000000E+00;  0.0000000E+00;  0.0000000E+00;  0.0000000E+00;
  2.0599999E+00;  9.9999998E-03; -3.4000000E-01;696;  0.0000000E+00;  0.0000000E+00;  0.0000000E+00;  1.0000000E+03;  4.0000001E-01;  0.0000000E+00;0;  0.0000000E+00;  0.0000000E+00;  0.0000000E+00;0;  0.0000000E+00;  1.0000000E+04;  0.0000000E+00;  0.0000000E+00;  1.0000000E+04;  0.0000000E+00;  1.0000000E+04;  0.0000000E+00;  0.0000000E+00;  0.0000000E+00;  0.0000000E+00;
  2.0599999E+00;  9.9999998E-03; -3.1999999E-01;697;  0.0000000E+00;  0.0000000E+00;  0.0000000E+00;  1.0000000E+03;  4.0000001E-01;  0.0000000E+00;0;  0.0000000E+00;  0.0000000E+00;  0.0000000E+00;0;  0.0000000E+00;  1.0000000E+04;  0.0000000E+00;  0.0000000E+00;  1.0000000E+04;  0.0000000E+00;  1.0000000E+04;  0.0000000E+00;  0.0000000E+00;  0.0000000E+00;  0.0000000E+00;
  2.0599999E+00;  9.9999998E-03; -3.0000001E-01;698;  0.0000000E+00;  0.0000000E+00;  0.0000000E+00;  1.0000000E+03;  4.0000001E-01;  0.0000000E+00;0;  0.0000000E+00;  0.0000000E+00;  0.0000000E+00;0;  0.0000000E+00;  1.0000000E+04;  0.0000000E+00;  0.0000000E+00;  1.0000000E+04;  0.0000000E+00;  1.0000000E+04;  0.0000000E+00;  0.0000000E+00;  0.0000000E+00;  0.0000000E+00;
  2.0599999E+00;  9.9999998E-03; -2.8000000E-01;699;  0.0000000E+00;  0.0000000E+00;  0.0000000E+00;  1.0000000E+03;  4.0000001E-01;  0.0000000E+00;0;  0.0000000E+00;  0.0000000E+00;  0.0000000E+00;0;  0.0000000E+00;  1.0000000E+04;  0.0000000E+00;  0.0000000E+00;  1.0000000E+04;  0.0000000E+00;  1.0000000E+04;  0.0000000E+00;  0.0000000E+00;  0.0000000E+00;  0.0000000E+00;
  2.0599999E+00;  9.9999998E-03; -2.5999999E-01;700;  0.0000000E+00;  0.0000000E+00;  0.0000000E+00;  1.0000000E+03;  4.0000001E-01;  0.0000000E+00;0;  0.0000000E+00;  0.0000000E+00;  0.0000000E+00;0;  0.0000000E+00;  1.0000000E+04;  0.0000000E+00;  0.0000000E+00;  1.0000000E+04;  0.0000000E+00;  1.0000000E+04;  0.0000000E+00;  0.0000000E+00;  0.0000000E+00;  0.0000000E+00;
  2.0599999E+00;  9.9999998E-03; -2.3999999E-01;701;  0.0000000E+00;  0.0000000E+00;  0.0000000E+00;  1.0000000E+03;  4.0000001E-01;  0.0000000E+00;0;  0.0000000E+00;  0.0000000E+00;  0.0000000E+00;0;  0.0000000E+00;  1.0000000E+04;  0.0000000E+00;  0.0000000E+00;  1.0000000E+04;  0.0000000E+00;  1.0000000E+04;  0.0000000E+00;  0.0000000E+00;  0.0000000E+00;  0.0000000E+00;
  2.0599999E+00;  9.9999998E-03; -2.2000000E-01;702;  0.0000000E+00;  0.0000000E+00;  0.0000000E+00;  1.0000000E+03;  4.0000001E-01;  0.0000000E+00;0;  0.0000000E+00;  0.0000000E+00;  0.0000000E+00;0;  0.0000000E+00;  1.0000000E+04;  0.0000000E+00;  0.0000000E+00;  1.0000000E+04;  0.0000000E+00;  1.0000000E+04;  0.0000000E+00;  0.0000000E+00;  0.0000000E+00;  0.0000000E+00;
  2.0599999E+00;  9.9999998E-03; -2.0000000E-01;703;  0.0000000E+00;  0.0000000E+00;  0.0000000E+00;  1.0000000E+03;  4.0000001E-01;  0.0000000E+00;0;  0.0000000E+00;  0.0000000E+00;  0.0000000E+00;0;  0.0000000E+00;  1.0000000E+04;  0.0000000E+00;  0.0000000E+00;  1.0000000E+04;  0.0000000E+00;  1.0000000E+04;  0.0000000E+00;  0.0000000E+00;  0.0000000E+00;  0.0000000E+00;
  2.0599999E+00;  9.9999998E-03; -1.8000001E-01;704;  0.0000000E+00;  0.0000000E+00;  0.0000000E+00;  1.0000000E+03;  4.0000001E-01;  0.0000000E+00;0;  0.0000000E+00;  0.0000000E+00;  0.0000000E+00;0;  0.0000000E+00;  1.0000000E+04;  0.0000000E+00;  0.0000000E+00;  1.0000000E+04;  0.0000000E+00;  1.0000000E+04;  0.0000000E+00;  0.0000000E+00;  0.0000000E+00;  0.0000000E+00;
  2.0599999E+00;  9.9999998E-03; -1.6000000E-01;705;  0.0000000E+00;  0.0000000E+00;  0.0000000E+00;  1.0000000E+03;  4.0000001E-01;  0.0000000E+00;0;  0.0000000E+00;  0.0000000E+00;  0.0000000E+00;0;  0.0000000E+00;  1.0000000E+04;  0.0000000E+00;  0.0000000E+00;  1.0000000E+04;  0.0000000E+00;  1.0000000E+04;  0.0000000E+00;  0.0000000E+00;  0.0000000E+00;  0.0000000E+00;
  2.0599999E+00;  9.9999998E-03; -1.4000000E-01;706;  0.0000000E+00;  0.0000000E+00;  0.0000000E+00;  1.0000000E+03;  4.0000001E-01;  0.0000000E+00;0;  0.0000000E+00;  0.0000000E+00;  0.0000000E+00;0;  0.0000000E+00;  1.0000000E+04;  0.0000000E+00;  0.0000000E+00;  1.0000000E+04;  0.0000000E+00;  1.0000000E+04;  0.0000000E+00;  0.0000000E+00;  0.0000000E+00;  0.0000000E+00;
  2.0599999E+00;  9.9999998E-03; -1.2000000E-01;707;  0.0000000E+00;  0.0000000E+00;  0.0000000E+00;  1.0000000E+03;  4.0000001E-01;  0.0000000E+00;0;  0.0000000E+00;  0.0000000E+00;  0.0000000E+00;0;  0.0000000E+00;  1.0000000E+04;  0.0000000E+00;  0.0000000E+00;  1.0000000E+04;  0.0000000E+00;  1.0000000E+04;  0.0000000E+00;  0.0000000E+00;  0.0000000E+00;  0.0000000E+00;
  2.0599999E+00;  9.9999998E-03; -1.0000000E-01;708;  0.0000000E+00;  0.0000000E+00;  0.0000000E+00;  1.0000000E+03;  4.0000001E-01;  0.0000000E+00;0;  0.0000000E+00;  0.0000000E+00;  0.0000000E+00;0;  0.0000000E+00;  1.0000000E+04;  0.0000000E+00;  0.0000000E+00;  1.0000000E+04;  0.0000000E+00;  1.0000000E+04;  0.0000000E+00;  0.0000000E+00;  0.0000000E+00;  0.0000000E+00;
  2.0599999E+00;  9.9999998E-03; -7.9999998E-02;709;  0.0000000E+00;  0.0000000E+00;  0.0000000E+00;  1.0000000E+03;  4.0000001E-01;  0.0000000E+00;0;  0.0000000E+00;  0.0000000E+00;  0.0000000E+00;0;  0.0000000E+00;  1.0000000E+04;  0.0000000E+00;  0.0000000E+00;  1.0000000E+04;  0.0000000E+00;  1.0000000E+04;  0.0000000E+00;  0.0000000E+00;  0.0000000E+00;  0.0000000E+00;
  2.0599999E+00;  9.9999998E-03; -5.9999999E-02;710;  0.0000000E+00;  0.0000000E+00;  0.0000000E+00;  1.0000000E+03;  4.0000001E-01;  0.0000000E+00;0;  0.0000000E+00;  0.0000000E+00;  0.0000000E+00;0;  0.0000000E+00;  1.0000000E+04;  0.0000000E+00;  0.0000000E+00;  1.0000000E+04;  0.0000000E+00;  1.0000000E+04;  0.0000000E+00;  0.0000000E+00;  0.0000000E+00;  0.0000000E+00;
  2.0599999E+00;  9.9999998E-03; -3.9999999E-02;711;  0.0000000E+00;  0.0000000E+00;  0.0000000E+00;  1.0000000E+03;  4.0000001E-01;  0.0000000E+00;0;  0.0000000E+00;  0.0000000E+00;  0.0000000E+00;0;  0.0000000E+00;  1.0000000E+04;  0.0000000E+00;  0.0000000E+00;  1.0000000E+04;  0.0000000E+00;  1.0000000E+04;  0.0000000E+00;  0.0000000E+00;  0.0000000E+00;  0.0000000E+00;
  2.0599999E+00;  9.9999998E-03; -2.0000000E-02;712;  0.0000000E+00;  0.0000000E+00;  0.0000000E+00;  1.0000000E+03;  4.0000001E-01;  0.0000000E+00;0;  0.0000000E+00;  0.0000000E+00;  0.0000000E+00;0;  0.0000000E+00;  1.0000000E+04;  0.0000000E+00;  0.0000000E+00;  1.0000000E+04;  0.0000000E+00;  1.0000000E+04;  0.0000000E+00;  0.0000000E+00;  0.0000000E+00;  0.0000000E+00;
  2.0599999E+00;  9.9999998E-03;  0.0000000E+00;713;  0.0000000E+00;  0.0000000E+00;  0.0000000E+00;  1.0000000E+03;  4.0000001E-01;  0.0000000E+00;0;  0.0000000E+00;  0.0000000E+00;  0.0000000E+00;0;  0.0000000E+00;  1.0000000E+04;  0.0000000E+00;  0.0000000E+00;  1.0000000E+04;  0.0000000E+00;  1.0000000E+04;  0.0000000E+00;  0.0000000E+00;  0.0000000E+00;  0.0000000E+00;
  2.0599999E+00;  9.9999998E-03;  2.0000000E-02;714;  0.0000000E+00;  0.0000000E+00;  0.0000000E+00;  1.0000000E+03;  4.0000001E-01;  0.0000000E+00;0;  0.0000000E+00;  0.0000000E+00;  0.0000000E+00;0;  0.0000000E+00;  1.0000000E+04;  0.0000000E+00;  0.0000000E+00;  1.0000000E+04;  0.0000000E+00;  1.0000000E+04;  0.0000000E+00;  0.0000000E+00;  0.0000000E+00;  0.0000000E+00;
  2.0599999E+00;  9.9999998E-03;  3.9999999E-02;715;  0.0000000E+00;  0.0000000E+00;  0.0000000E+00;  1.0000000E+03;  4.0000001E-01;  0.0000000E+00;0;  0.0000000E+00;  0.0000000E+00;  0.0000000E+00;0;  0.0000000E+00;  1.0000000E+04;  0.0000000E+00;  0.0000000E+00;  1.0000000E+04;  0.0000000E+00;  1.0000000E+04;  0.0000000E+00;  0.0000000E+00;  0.0000000E+00;  0.0000000E+00;
  2.0599999E+00;  9.9999998E-03;  5.9999999E-02;716;  0.0000000E+00;  0.0000000E+00;  0.0000000E+00;  1.0000000E+03;  4.0000001E-01;  0.0000000E+00;0;  0.0000000E+00;  0.0000000E+00;  0.0000000E+00;0;  0.0000000E+00;  1.0000000E+04;  0.0000000E+00;  0.0000000E+00;  1.0000000E+04;  0.0000000E+00;  1.0000000E+04;  0.0000000E+00;  0.0000000E+00;  0.0000000E+00;  0.0000000E+00;
  2.0599999E+00;  9.9999998E-03;  7.9999998E-02;717;  0.0000000E+00;  0.0000000E+00;  0.0000000E+00;  1.0000000E+03;  4.0000001E-01;  0.0000000E+00;0;  0.0000000E+00;  0.0000000E+00;  0.0000000E+00;0;  0.0000000E+00;  1.0000000E+04;  0.0000000E+00;  0.0000000E+00;  1.0000000E+04;  0.0000000E+00;  1.0000000E+04;  0.0000000E+00;  0.0000000E+00;  0.0000000E+00;  0.0000000E+00;
  2.0599999E+00;  9.9999998E-03;  1.0000000E-01;718;  0.0000000E+00;  0.0000000E+00;  0.0000000E+00;  1.0000000E+03;  4.0000001E-01;  0.0000000E+00;0;  0.0000000E+00;  0.0000000E+00;  0.0000000E+00;0;  0.0000000E+00;  1.0000000E+04;  0.0000000E+00;  0.0000000E+00;  1.0000000E+04;  0.0000000E+00;  1.0000000E+04;  0.0000000E+00;  0.0000000E+00;  0.0000000E+00;  0.0000000E+00;
  2.0599999E+00;  9.9999998E-03;  1.2000000E-01;719;  0.0000000E+00;  0.0000000E+00;  0.0000000E+00;  1.0000000E+03;  4.0000001E-01;  0.0000000E+00;0;  0.0000000E+00;  0.0000000E+00;  0.0000000E+00;0;  0.0000000E+00;  1.0000000E+04;  0.0000000E+00;  0.0000000E+00;  1.0000000E+04;  0.0000000E+00;  1.0000000E+04;  0.0000000E+00;  0.0000000E+00;  0.0000000E+00;  0.0000000E+00;
  2.0599999E+00;  9.9999998E-03;  1.4000000E-01;720;  0.0000000E+00;  0.0000000E+00;  0.0000000E+00;  1.0000000E+03;  4.0000001E-01;  0.0000000E+00;0;  0.0000000E+00;  0.0000000E+00;  0.0000000E+00;0;  0.0000000E+00;  1.0000000E+04;  0.0000000E+00;  0.0000000E+00;  1.0000000E+04;  0.0000000E+00;  1.0000000E+04;  0.0000000E+00;  0.0000000E+00;  0.0000000E+00;  0.0000000E+00;
  2.0599999E+00;  9.9999998E-03;  1.6000000E-01;721;  0.0000000E+00;  0.0000000E+00;  0.0000000E+00;  1.0000000E+03;  4.0000001E-01;  0.0000000E+00;0;  0.0000000E+00;  0.0000000E+00;  0.0000000E+00;0;  0.0000000E+00;  1.0000000E+04;  0.0000000E+00;  0.0000000E+00;  1.0000000E+04;  0.0000000E+00;  1.0000000E+04;  0.0000000E+00;  0.0000000E+00;  0.0000000E+00;  0.0000000E+00;
  2.0599999E+00;  9.9999998E-03;  1.8000001E-01;722;  0.0000000E+00;  0.0000000E+00;  0.0000000E+00;  1.0000000E+03;  4.0000001E-01;  0.0000000E+00;0;  0.0000000E+00;  0.0000000E+00;  0.0000000E+00;0;  0.0000000E+00;  1.0000000E+04;  0.0000000E+00;  0.0000000E+00;  1.0000000E+04;  0.0000000E+00;  1.0000000E+04;  0.0000000E+00;  0.0000000E+00;  0.0000000E+00;  0.0000000E+00;
  2.0599999E+00;  9.9999998E-03;  2.0000000E-01;723;  0.0000000E+00;  0.0000000E+00;  0.0000000E+00;  1.0000000E+03;  4.0000001E-01;  0.0000000E+00;0;  0.0000000E+00;  0.0000000E+00;  0.0000000E+00;0;  0.0000000E+00;  1.0000000E+04;  0.0000000E+00;  0.0000000E+00;  1.0000000E+04;  0.0000000E+00;  1.0000000E+04;  0.0000000E+00;  0.0000000E+00;  0.0000000E+00;  0.0000000E+00;
  2.0599999E+00;  9.9999998E-03;  2.2000000E-01;724;  0.0000000E+00;  0.0000000E+00;  0.0000000E+00;  1.0000000E+03;  4.0000001E-01;  0.0000000E+00;0;  0.0000000E+00;  0.0000000E+00;  0.0000000E+00;0;  0.0000000E+00;  1.0000000E+04;  0.0000000E+00;  0.0000000E+00;  1.0000000E+04;  0.0000000E+00;  1.0000000E+04;  0.0000000E+00;  0.0000000E+00;  0.0000000E+00;  0.0000000E+00;
  2.0599999E+00;  9.9999998E-03;  2.3999999E-01;725;  0.0000000E+00;  0.0000000E+00;  0.0000000E+00;  1.0000000E+03;  4.0000001E-01;  0.0000000E+00;0;  0.0000000E+00;  0.0000000E+00;  0.0000000E+00;0;  0.0000000E+00;  1.0000000E+04;  0.0000000E+00;  0.0000000E+00;  1.0000000E+04;  0.0000000E+00;  1.0000000E+04;  0.0000000E+00;  0.0000000E+00;  0.0000000E+00;  0.0000000E+00;
  2.0599999E+00;  9.9999998E-03;  2.5999999E-01;726;  0.0000000E+00;  0.0000000E+00;  0.0000000E+00;  1.0000000E+03;  4.0000001E-01;  0.0000000E+00;0;  0.0000000E+00;  0.0000000E+00;  0.0000000E+00;0;  0.0000000E+00;  1.0000000E+04;  0.0000000E+00;  0.0000000E+00;  1.0000000E+04;  0.0000000E+00;  1.0000000E+04;  0.0000000E+00;  0.0000000E+00;  0.0000000E+00;  0.0000000E+00;
  2.0599999E+00;  9.9999998E-03;  2.8000000E-01;727;  0.0000000E+00;  0.0000000E+00;  0.0000000E+00;  1.0000000E+03;  4.0000001E-01;  0.0000000E+00;0;  0.0000000E+00;  0.0000000E+00;  0.0000000E+00;0;  0.0000000E+00;  1.0000000E+04;  0.0000000E+00;  0.0000000E+00;  1.0000000E+04;  0.0000000E+00;  1.0000000E+04;  0.0000000E+00;  0.0000000E+00;  0.0000000E+00;  0.0000000E+00;
  2.0599999E+00;  9.9999998E-03;  3.0000001E-01;728;  0.0000000E+00;  0.0000000E+00;  0.0000000E+00;  1.0000000E+03;  4.0000001E-01;  0.0000000E+00;0;  0.0000000E+00;  0.0000000E+00;  0.0000000E+00;0;  0.0000000E+00;  1.0000000E+04;  0.0000000E+00;  0.0000000E+00;  1.0000000E+04;  0.0000000E+00;  1.0000000E+04;  0.0000000E+00;  0.0000000E+00;  0.0000000E+00;  0.0000000E+00;
  2.0599999E+00;  9.9999998E-03;  3.1999999E-01;729;  0.0000000E+00;  0.0000000E+00;  0.0000000E+00;  1.0000000E+03;  4.0000001E-01;  0.0000000E+00;0;  0.0000000E+00;  0.0000000E+00;  0.0000000E+00;0;  0.0000000E+00;  1.0000000E+04;  0.0000000E+00;  0.0000000E+00;  1.0000000E+04;  0.0000000E+00;  1.0000000E+04;  0.0000000E+00;  0.0000000E+00;  0.0000000E+00;  0.0000000E+00;
  2.0599999E+00;  9.9999998E-03;  3.4000000E-01;730;  0.0000000E+00;  0.0000000E+00;  0.0000000E+00;  1.0000000E+03;  4.0000001E-01;  0.0000000E+00;0;  0.0000000E+00;  0.0000000E+00;  0.0000000E+00;0;  0.0000000E+00;  1.0000000E+04;  0.0000000E+00;  0.0000000E+00;  1.0000000E+04;  0.0000000E+00;  1.0000000E+04;  0.0000000E+00;  0.0000000E+00;  0.0000000E+00;  0.0000000E+00;
  2.0599999E+00;  9.9999998E-03;  3.6000001E-01;731;  0.0000000E+00;  0.0000000E+00;  0.0000000E+00;  1.0000000E+03;  4.0000001E-01;  0.0000000E+00;0;  0.0000000E+00;  0.0000000E+00;  0.0000000E+00;0;  0.0000000E+00;  1.0000000E+04;  0.0000000E+00;  0.0000000E+00;  1.0000000E+04;  0.0000000E+00;  1.0000000E+04;  0.0000000E+00;  0.0000000E+00;  0.0000000E+00;  0.0000000E+00;
  2.0599999E+00;  9.9999998E-03;  3.8000000E-01;732;  0.0000000E+00;  0.0000000E+00;  0.0000000E+00;  1.0000000E+03;  4.0000001E-01;  0.0000000E+00;0;  0.0000000E+00;  0.0000000E+00;  0.0000000E+00;0;  0.0000000E+00;  1.0000000E+04;  0.0000000E+00;  0.0000000E+00;  1.0000000E+04;  0.0000000E+00;  1.0000000E+04;  0.0000000E+00;  0.0000000E+00;  0.0000000E+00;  0.0000000E+00;
  2.0799999E+00;  9.9999998E-03; -4.0000001E-01;733;  0.0000000E+00;  0.0000000E+00;  0.0000000E+00;  1.0000000E+03;  4.0000001E-01;  0.0000000E+00;0;  0.0000000E+00;  0.0000000E+00;  0.0000000E+00;0;  0.0000000E+00;  1.0000000E+04;  0.0000000E+00;  0.0000000E+00;  1.0000000E+04;  0.0000000E+00;  1.0000000E+04;  0.0000000E+00;  0.0000000E+00;  0.0000000E+00;  0.0000000E+00;
  2.0799999E+00;  9.9999998E-03; -3.8000000E-01;734;  0.0000000E+00;  0.0000000E+00;  0.0000000E+00;  1.0000000E+03;  4.0000001E-01;  0.0000000E+00;0;  0.0000000E+00;  0.0000000E+00;  0.0000000E+00;0;  0.0000000E+00;  1.0000000E+04;  0.0000000E+00;  0.0000000E+00;  1.0000000E+04;  0.0000000E+00;  1.0000000E+04;  0.0000000E+00;  0.0000000E+00;  0.0000000E+00;  0.0000000E+00;
  2.0799999E+00;  9.9999998E-03; -3.6000001E-01;735;  0.0000000E+00;  0.0000000E+00;  0.0000000E+00;  1.0000000E+03;  4.0000001E-01;  0.0000000E+00;0;  0.0000000E+00;  0.0000000E+00;  0.0000000E+00;0;  0.0000000E+00;  1.0000000E+04;  0.0000000E+00;  0.0000000E+00;  1.0000000E+04;  0.0000000E+00;  1.0000000E+04;  0.0000000E+00;  0.0000000E+00;  0.0000000E+00;  0.0000000E+00;
  2.0799999E+00;  9.9999998E-03; -3.4000000E-01;736;  0.0000000E+00;  0.0000000E+00;  0.0000000E+00;  1.0000000E+03;  4.0000001E-01;  0.0000000E+00;0;  0.0000000E+00;  0.0000000E+00;  0.0000000E+00;0;  0.0000000E+00;  1.0000000E+04;  0.0000000E+00;  0.0000000E+00;  1.0000000E+04;  0.0000000E+00;  1.0000000E+04;  0.0000000E+00;  0.0000000E+00;  0.0000000E+00;  0.0000000E+00;
  2.0799999E+00;  9.9999998E-03; -3.1999999E-01;737;  0.0000000E+00;  0.0000000E+00;  0.0000000E+00;  1.0000000E+03;  4.0000001E-01;  0.0000000E+00;0;  0.0000000E+00;  0.0000000E+00;  0.0000000E+00;0;  0.0000000E+00;  1.0000000E+04;  0.0000000E+00;  0.0000000E+00;  1.0000000E+04;  0.0000000E+00;  1.0000000E+04;  0.0000000E+00;  0.0000000E+00;  0.0000000E+00;  0.0000000E+00;
  2.0799999E+00;  9.9999998E-03; -3.0000001E-01;738;  0.0000000E+00;  0.0000000E+00;  0.0000000E+00;  1.0000000E+03;  4.0000001E-01;  0.0000000E+00;0;  0.0000000E+00;  0.0000000E+00;  0.0000000E+00;0;  0.0000000E+00;  1.0000000E+04;  0.0000000E+00;  0.0000000E+00;  1.0000000E+04;  0.0000000E+00;  1.0000000E+04;  0.0000000E+00;  0.0000000E+00;  0.0000000E+00;  0.0000000E+00;
  2.0799999E+00;  9.9999998E-03; -2.8000000E-01;739;  0.0000000E+00;  0.0000000E+00;  0.0000000E+00;  1.0000000E+03;  4.0000001E-01;  0.0000000E+00;0;  0.0000000E+00;  0.0000000E+00;  0.0000000E+00;0;  0.0000000E+00;  1.0000000E+04;  0.0000000E+00;  0.0000000E+00;  1.0000000E+04;  0.0000000E+00;  1.0000000E+04;  0.0000000E+00;  0.0000000E+00;  0.0000000E+00;  0.0000000E+00;
  2.0799999E+00;  9.9999998E-03; -2.5999999E-01;740;  0.0000000E+00;  0.0000000E+00;  0.0000000E+00;  1.0000000E+03;  4.0000001E-01;  0.0000000E+00;0;  0.0000000E+00;  0.0000000E+00;  0.0000000E+00;0;  0.0000000E+00;  1.0000000E+04;  0.0000000E+00;  0.0000000E+00;  1.0000000E+04;  0.0000000E+00;  1.0000000E+04;  0.0000000E+00;  0.0000000E+00;  0.0000000E+00;  0.0000000E+00;
  2.0799999E+00;  9.9999998E-03; -2.3999999E-01;741;  0.0000000E+00;  0.0000000E+00;  0.0000000E+00;  1.0000000E+03;  4.0000001E-01;  0.0000000E+00;0;  0.0000000E+00;  0.0000000E+00;  0.0000000E+00;0;  0.0000000E+00;  1.0000000E+04;  0.0000000E+00;  0.0000000E+00;  1.0000000E+04;  0.0000000E+00;  1.0000000E+04;  0.0000000E+00;  0.0000000E+00;  0.0000000E+00;  0.0000000E+00;
  2.0799999E+00;  9.9999998E-03; -2.2000000E-01;742;  0.0000000E+00;  0.0000000E+00;  0.0000000E+00;  1.0000000E+03;  4.0000001E-01;  0.0000000E+00;0;  0.0000000E+00;  0.0000000E+00;  0.0000000E+00;0;  0.0000000E+00;  1.0000000E+04;  0.0000000E+00;  0.0000000E+00;  1.0000000E+04;  0.0000000E+00;  1.0000000E+04;  0.0000000E+00;  0.0000000E+00;  0.0000000E+00;  0.0000000E+00;
  2.0799999E+00;  9.9999998E-03; -2.0000000E-01;743;  0.0000000E+00;  0.0000000E+00;  0.0000000E+00;  1.0000000E+03;  4.0000001E-01;  0.0000000E+00;0;  0.0000000E+00;  0.0000000E+00;  0.0000000E+00;0;  0.0000000E+00;  1.0000000E+04;  0.0000000E+00;  0.0000000E+00;  1.0000000E+04;  0.0000000E+00;  1.0000000E+04;  0.0000000E+00;  0.0000000E+00;  0.0000000E+00;  0.0000000E+00;
  2.0799999E+00;  9.9999998E-03; -1.8000001E-01;744;  0.0000000E+00;  0.0000000E+00;  0.0000000E+00;  1.0000000E+03;  4.0000001E-01;  0.0000000E+00;0;  0.0000000E+00;  0.0000000E+00;  0.0000000E+00;0;  0.0000000E+00;  1.0000000E+04;  0.0000000E+00;  0.0000000E+00;  1.0000000E+04;  0.0000000E+00;  1.0000000E+04;  0.0000000E+00;  0.0000000E+00;  0.0000000E+00;  0.0000000E+00;
  2.0799999E+00;  9.9999998E-03; -1.6000000E-01;745;  0.0000000E+00;  0.0000000E+00;  0.0000000E+00;  1.0000000E+03;  4.0000001E-01;  0.0000000E+00;0;  0.0000000E+00;  0.0000000E+00;  0.0000000E+00;0;  0.0000000E+00;  1.0000000E+04;  0.0000000E+00;  0.0000000E+00;  1.0000000E+04;  0.0000000E+00;  1.0000000E+04;  0.0000000E+00;  0.0000000E+00;  0.0000000E+00;  0.0000000E+00;
  2.0799999E+00;  9.9999998E-03; -1.4000000E-01;746;  0.0000000E+00;  0.0000000E+00;  0.0000000E+00;  1.0000000E+03;  4.0000001E-01;  0.0000000E+00;0;  0.0000000E+00;  0.0000000E+00;  0.0000000E+00;0;  0.0000000E+00;  1.0000000E+04;  0.0000000E+00;  0.0000000E+00;  1.0000000E+04;  0.0000000E+00;  1.0000000E+04;  0.0000000E+00;  0.0000000E+00;  0.0000000E+00;  0.0000000E+00;
  2.0799999E+00;  9.9999998E-03; -1.2000000E-01;747;  0.0000000E+00;  0.0000000E+00;  0.0000000E+00;  1.0000000E+03;  4.0000001E-01;  0.0000000E+00;0;  0.0000000E+00;  0.0000000E+00;  0.0000000E+00;0;  0.0000000E+00;  1.0000000E+04;  0.0000000E+00;  0.0000000E+00;  1.0000000E+04;  0.0000000E+00;  1.0000000E+04;  0.0000000E+00;  0.0000000E+00;  0.0000000E+00;  0.0000000E+00;
  2.0799999E+00;  9.9999998E-03; -1.0000000E-01;748;  0.0000000E+00;  0.0000000E+00;  0.0000000E+00;  1.0000000E+03;  4.0000001E-01;  0.0000000E+00;0;  0.0000000E+00;  0.0000000E+00;  0.0000000E+00;0;  0.0000000E+00;  1.0000000E+04;  0.0000000E+00;  0.0000000E+00;  1.0000000E+04;  0.0000000E+00;  1.0000000E+04;  0.0000000E+00;  0.0000000E+00;  0.0000000E+00;  0.0000000E+00;
  2.0799999E+00;  9.9999998E-03; -7.9999998E-02;749;  0.0000000E+00;  0.0000000E+00;  0.0000000E+00;  1.0000000E+03;  4.0000001E-01;  0.0000000E+00;0;  0.0000000E+00;  0.0000000E+00;  0.0000000E+00;0;  0.0000000E+00;  1.0000000E+04;  0.0000000E+00;  0.0000000E+00;  1.0000000E+04;  0.0000000E+00;  1.0000000E+04;  0.0000000E+00;  0.0000000E+00;  0.0000000E+00;  0.0000000E+00;
  2.0799999E+00;  9.9999998E-03; -5.9999999E-02;750;  0.0000000E+00;  0.0000000E+00;  0.0000000E+00;  1.0000000E+03;  4.0000001E-01;  0.0000000E+00;0;  0.0000000E+00;  0.0000000E+00;  0.0000000E+00;0;  0.0000000E+00;  1.0000000E+04;  0.0000000E+00;  0.0000000E+00;  1.0000000E+04;  0.0000000E+00;  1.0000000E+04;  0.0000000E+00;  0.0000000E+00;  0.0000000E+00;  0.0000000E+00;
  2.0799999E+00;  9.9999998E-03; -3.9999999E-02;751;  0.0000000E+00;  0.0000000E+00;  0.0000000E+00;  1.0000000E+03;  4.0000001E-01;  0.0000000E+00;0;  0.0000000E+00;  0.0000000E+00;  0.0000000E+00;0;  0.0000000E+00;  1.0000000E+04;  0.0000000E+00;  0.0000000E+00;  1.0000000E+04;  0.0000000E+00;  1.0000000E+04;  0.0000000E+00;  0.0000000E+00;  0.0000000E+00;  0.0000000E+00;
  2.0799999E+00;  9.9999998E-03; -2.0000000E-02;752;  0.0000000E+00;  0.0000000E+00;  0.0000000E+00;  1.0000000E+03;  4.0000001E-01;  0.0000000E+00;0;  0.0000000E+00;  0.0000000E+00;  0.0000000E+00;0;  0.0000000E+00;  1.0000000E+04;  0.0000000E+00;  0.0000000E+00;  1.0000000E+04;  0.0000000E+00;  1.0000000E+04;  0.0000000E+00;  0.0000000E+00;  0.0000000E+00;  0.0000000E+00;
  2.0799999E+00;  9.9999998E-03;  0.0000000E+00;753;  0.0000000E+00;  0.0000000E+00;  0.0000000E+00;  1.0000000E+03;  4.0000001E-01;  0.0000000E+00;0;  0.0000000E+00;  0.0000000E+00;  0.0000000E+00;0;  0.0000000E+00;  1.0000000E+04;  0.0000000E+00;  0.0000000E+00;  1.0000000E+04;  0.0000000E+00;  1.0000000E+04;  0.0000000E+00;  0.0000000E+00;  0.0000000E+00;  0.0000000E+00;
  2.0799999E+00;  9.9999998E-03;  2.0000000E-02;754;  0.0000000E+00;  0.0000000E+00;  0.0000000E+00;  1.0000000E+03;  4.0000001E-01;  0.0000000E+00;0;  0.0000000E+00;  0.0000000E+00;  0.0000000E+00;0;  0.0000000E+00;  1.0000000E+04;  0.0000000E+00;  0.0000000E+00;  1.0000000E+04;  0.0000000E+00;  1.0000000E+04;  0.0000000E+00;  0.0000000E+00;  0.0000000E+00;  0.0000000E+00;
  2.0799999E+00;  9.9999998E-03;  3.9999999E-02;755;  0.0000000E+00;  0.0000000E+00;  0.0000000E+00;  1.0000000E+03;  4.0000001E-01;  0.0000000E+00;0;  0.0000000E+00;  0.0000000E+00;  0.0000000E+00;0;  0.0000000E+00;  1.0000000E+04;  0.0000000E+00;  0.0000000E+00;  1.0000000E+04;  0.0000000E+00;  1.0000000E+04;  0.0000000E+00;  0.0000000E+00;  0.0000000E+00;  0.0000000E+00;
  2.0799999E+00;  9.9999998E-03;  5.9999999E-02;756;  0.0000000E+00;  0.0000000E+00;  0.0000000E+00;  1.0000000E+03;  4.0000001E-01;  0.0000000E+00;0;  0.0000000E+00;  0.0000000E+00;  0.0000000E+00;0;  0.0000000E+00;  1.0000000E+04;  0.0000000E+00;  0.0000000E+00;  1.0000000E+04;  0.0000000E+00;  1.0000000E+04;  0.0000000E+00;  0.0000000E+00;  0.0000000E+00;  0.0000000E+00;
  2.0799999E+00;  9.9999998E-03;  7.9999998E-02;757;  0.0000000E+00;  0.0000000E+00;  0.0000000E+00;  1.0000000E+03;  4.0000001E-01;  0.0000000E+00;0;  0.0000000E+00;  0.0000000E+00;  0.0000000E+00;0;  0.0000000E+00;  1.0000000E+04;  0.0000000E+00;  0.0000000E+00;  1.0000000E+04;  0.0000000E+00;  1.0000000E+04;  0.0000000E+00;  0.0000000E+00;  0.0000000E+00;  0.0000000E+00;
  2.0799999E+00;  9.9999998E-03;  1.0000000E-01;758;  0.0000000E+00;  0.0000000E+00;  0.0000000E+00;  1.0000000E+03;  4.0000001E-01;  0.0000000E+00;0;  0.0000000E+00;  0.0000000E+00;  0.0000000E+00;0;  0.0000000E+00;  1.0000000E+04;  0.0000000E+00;  0.0000000E+00;  1.0000000E+04;  0.0000000E+00;  1.0000000E+04;  0.0000000E+00;  0.0000000E+00;  0.0000000E+00;  0.0000000E+00;
  2.0799999E+00;  9.9999998E-03;  1.2000000E-01;759;  0.0000000E+00;  0.0000000E+00;  0.0000000E+00;  1.0000000E+03;  4.0000001E-01;  0.0000000E+00;0;  0.0000000E+00;  0.0000000E+00;  0.0000000E+00;0;  0.0000000E+00;  1.0000000E+04;  0.0000000E+00;  0.0000000E+00;  1.0000000E+04;  0.0000000E+00;  1.0000000E+04;  0.0000000E+00;  0.0000000E+00;  0.0000000E+00;  0.0000000E+00;
  2.0799999E+00;  9.9999998E-03;  1.4000000E-01;760;  0.0000000E+00;  0.0000000E+00;  0.0000000E+00;  1.0000000E+03;  4.0000001E-01;  0.0000000E+00;0;  0.0000000E+00;  0.0000000E+00;  0.0000000E+00;0;  0.0000000E+00;  1.0000000E+04;  0.0000000E+00;  0.0000000E+00;  1.0000000E+04;  0.0000000E+00;  1.0000000E+04;  0.0000000E+00;  0.0000000E+00;  0.0000000E+00;  0.0000000E+00;
  2.0799999E+00;  9.9999998E-03;  1.6000000E-01;761;  0.0000000E+00;  0.0000000E+00;  0.0000000E+00;  1.0000000E+03;  4.0000001E-01;  0.0000000E+00;0;  0.0000000E+00;  0.0000000E+00;  0.0000000E+00;0;  0.0000000E+00;  1.0000000E+04;  0.0000000E+00;  0.0000000E+00;  1.0000000E+04;  0.0000000E+00;  1.0000000E+04;  0.0000000E+00;  0.0000000E+00;  0.0000000E+00;  0.0000000E+00;
  2.0799999E+00;  9.9999998E-03;  1.8000001E-01;762;  0.0000000E+00;  0.0000000E+00;  0.0000000E+00;  1.0000000E+03;  4.0000001E-01;  0.0000000E+00;0;  0.0000000E+00;  0.0000000E+00;  0.0000000E+00;0;  0.0000000E+00;  1.0000000E+04;  0.0000000E+00;  0.0000000E+00;  1.0000000E+04;  0.0000000E+00;  1.0000000E+04;  0.0000000E+00;  0.0000000E+00;  0.0000000E+00;  0.0000000E+00;
  2.0799999E+00;  9.9999998E-03;  2.0000000E-01;763;  0.0000000E+00;  0.0000000E+00;  0.0000000E+00;  1.0000000E+03;  4.0000001E-01;  0.0000000E+00;0;  0.0000000E+00;  0.0000000E+00;  0.0000000E+00;0;  0.0000000E+00;  1.0000000E+04;  0.0000000E+00;  0.0000000E+00;  1.0000000E+04;  0.0000000E+00;  1.0000000E+04;  0.0000000E+00;  0.0000000E+00;  0.0000000E+00;  0.0000000E+00;
  2.0799999E+00;  9.9999998E-03;  2.2000000E-01;764;  0.0000000E+00;  0.0000000E+00;  0.0000000E+00;  1.0000000E+03;  4.0000001E-01;  0.0000000E+00;0;  0.0000000E+00;  0.0000000E+00;  0.0000000E+00;0;  0.0000000E+00;  1.0000000E+04;  0.0000000E+00;  0.0000000E+00;  1.0000000E+04;  0.0000000E+00;  1.0000000E+04;  0.0000000E+00;  0.0000000E+00;  0.0000000E+00;  0.0000000E+00;
  2.0799999E+00;  9.9999998E-03;  2.3999999E-01;765;  0.0000000E+00;  0.0000000E+00;  0.0000000E+00;  1.0000000E+03;  4.0000001E-01;  0.0000000E+00;0;  0.0000000E+00;  0.0000000E+00;  0.0000000E+00;0;  0.0000000E+00;  1.0000000E+04;  0.0000000E+00;  0.0000000E+00;  1.0000000E+04;  0.0000000E+00;  1.0000000E+04;  0.0000000E+00;  0.0000000E+00;  0.0000000E+00;  0.0000000E+00;
  2.0799999E+00;  9.9999998E-03;  2.5999999E-01;766;  0.0000000E+00;  0.0000000E+00;  0.0000000E+00;  1.0000000E+03;  4.0000001E-01;  0.0000000E+00;0;  0.0000000E+00;  0.0000000E+00;  0.0000000E+00;0;  0.0000000E+00;  1.0000000E+04;  0.0000000E+00;  0.0000000E+00;  1.0000000E+04;  0.0000000E+00;  1.0000000E+04;  0.0000000E+00;  0.0000000E+00;  0.0000000E+00;  0.0000000E+00;
  2.0799999E+00;  9.9999998E-03;  2.8000000E-01;767;  0.0000000E+00;  0.0000000E+00;  0.0000000E+00;  1.0000000E+03;  4.0000001E-01;  0.0000000E+00;0;  0.0000000E+00;  0.0000000E+00;  0.0000000E+00;0;  0.0000000E+00;  1.0000000E+04;  0.0000000E+00;  0.0000000E+00;  1.0000000E+04;  0.0000000E+00;  1.0000000E+04;  0.0000000E+00;  0.0000000E+00;  0.0000000E+00;  0.0000000E+00;
  2.0799999E+00;  9.9999998E-03;  3.0000001E-01;768;  0.0000000E+00;  0.0000000E+00;  0.0000000E+00;  1.0000000E+03;  4.0000001E-01;  0.0000000E+00;0;  0.0000000E+00;  0.0000000E+00;  0.0000000E+00;0;  0.0000000E+00;  1.0000000E+04;  0.0000000E+00;  0.0000000E+00;  1.0000000E+04;  0.0000000E+00;  1.0000000E+04;  0.0000000E+00;  0.0000000E+00;  0.0000000E+00;  0.0000000E+00;
  2.0799999E+00;  9.9999998E-03;  3.1999999E-01;769;  0.0000000E+00;  0.0000000E+00;  0.0000000E+00;  1.0000000E+03;  4.0000001E-01;  0.0000000E+00;0;  0.0000000E+00;  0.0000000E+00;  0.0000000E+00;0;  0.0000000E+00;  1.0000000E+04;  0.0000000E+00;  0.0000000E+00;  1.0000000E+04;  0.0000000E+00;  1.0000000E+04;  0.0000000E+00;  0.0000000E+00;  0.0000000E+00;  0.0000000E+00;
  2.0799999E+00;  9.9999998E-03;  3.4000000E-01;770;  0.0000000E+00;  0.0000000E+00;  0.0000000E+00;  1.0000000E+03;  4.0000001E-01;  0.0000000E+00;0;  0.0000000E+00;  0.0000000E+00;  0.0000000E+00;0;  0.0000000E+00;  1.0000000E+04;  0.0000000E+00;  0.0000000E+00;  1.0000000E+04;  0.0000000E+00;  1.0000000E+04;  0.0000000E+00;  0.0000000E+00;  0.0000000E+00;  0.0000000E+00;
  2.0799999E+00;  9.9999998E-03;  3.6000001E-01;771;  0.0000000E+00;  0.0000000E+00;  0.0000000E+00;  1.0000000E+03;  4.0000001E-01;  0.0000000E+00;0;  0.0000000E+00;  0.0000000E+00;  0.0000000E+00;0;  0.0000000E+00;  1.0000000E+04;  0.0000000E+00;  0.0000000E+00;  1.0000000E+04;  0.0000000E+00;  1.0000000E+04;  0.0000000E+00;  0.0000000E+00;  0.0000000E+00;  0.0000000E+00;
  2.0799999E+00;  9.9999998E-03;  3.8000000E-01;772;  0.0000000E+00;  0.0000000E+00;  0.0000000E+00;  1.0000000E+03;  4.0000001E-01;  0.0000000E+00;0;  0.0000000E+00;  0.0000000E+00;  0.0000000E+00;0;  0.0000000E+00;  1.0000000E+04;  0.0000000E+00;  0.0000000E+00;  1.0000000E+04;  0.0000000E+00;  1.0000000E+04;  0.0000000E+00;  0.0000000E+00;  0.0000000E+00;  0.0000000E+00;
  2.0799999E+00;  9.9999998E-03;  4.0000001E-01;773;  0.0000000E+00;  0.0000000E+00;  0.0000000E+00;  1.0000000E+03;  4.0000001E-01;  0.0000000E+00;0;  0.0000000E+00;  0.0000000E+00;  0.0000000E+00;0;  0.0000000E+00;  1.0000000E+04;  0.0000000E+00;  0.0000000E+00;  1.0000000E+04;  0.0000000E+00;  1.0000000E+04;  0.0000000E+00;  0.0000000E+00;  0.0000000E+00;  0.0000000E+00;
  2.0999999E+00;  9.9999998E-03; -4.0000001E-01;774;  0.0000000E+00;  0.0000000E+00;  0.0000000E+00;  1.0000000E+03;  4.0000001E-01;  0.0000000E+00;0;  0.0000000E+00;  0.0000000E+00;  0.0000000E+00;0;  0.0000000E+00;  1.0000000E+04;  0.0000000E+00;  0.0000000E+00;  1.0000000E+04;  0.0000000E+00;  1.0000000E+04;  0.0000000E+00;  0.0000000E+00;  0.0000000E+00;  0.0000000E+00;
  2.0999999E+00;  9.9999998E-03; -3.8000000E-01;775;  0.0000000E+00;  0.0000000E+00;  0.0000000E+00;  1.0000000E+03;  4.0000001E-01;  0.0000000E+00;0;  0.0000000E+00;  0.0000000E+00;  0.0000000E+00;0;  0.0000000E+00;  1.0000000E+04;  0.0000000E+00;  0.0000000E+00;  1.0000000E+04;  0.0000000E+00;  1.0000000E+04;  0.0000000E+00;  0.0000000E+00;  0.0000000E+00;  0.0000000E+00;
  2.0999999E+00;  9.9999998E-03; -3.6000001E-01;776;  0.0000000E+00;  0.0000000E+00;  0.0000000E+00;  1.0000000E+03;  4.0000001E-01;  0.0000000E+00;0;  0.0000000E+00;  0.0000000E+00;  0.0000000E+00;0;  0.0000000E+00;  1.0000000E+04;  0.0000000E+00;  0.0000000E+00;  1.0000000E+04;  0.0000000E+00;  1.0000000E+04;  0.0000000E+00;  0.0000000E+00;  0.0000000E+00;  0.0000000E+00;
  2.0999999E+00;  9.9999998E-03; -3.4000000E-01;777;  0.0000000E+00;  0.0000000E+00;  0.0000000E+00;  1.0000000E+03;  4.0000001E-01;  0.0000000E+00;0;  0.0000000E+00;  0.0000000E+00;  0.0000000E+00;0;  0.0000000E+00;  1.0000000E+04;  0.0000000E+00;  0.0000000E+00;  1.0000000E+04;  0.0000000E+00;  1.0000000E+04;  0.0000000E+00;  0.0000000E+00;  0.0000000E+00;  0.0000000E+00;
  2.0999999E+00;  9.9999998E-03; -3.1999999E-01;778;  0.0000000E+00;  0.0000000E+00;  0.0000000E+00;  1.0000000E+03;  4.0000001E-01;  0.0000000E+00;0;  0.0000000E+00;  0.0000000E+00;  0.0000000E+00;0;  0.0000000E+00;  1.0000000E+04;  0.0000000E+00;  0.0000000E+00;  1.0000000E+04;  0.0000000E+00;  1.0000000E+04;  0.0000000E+00;  0.0000000E+00;  0.0000000E+00;  0.0000000E+00;
  2.0999999E+00;  9.9999998E-03; -3.0000001E-01;779;  0.0000000E+00;  0.0000000E+00;  0.0000000E+00;  1.0000000E+03;  4.0000001E-01;  0.0000000E+00;0;  0.0000000E+00;  0.0000000E+00;  0.0000000E+00;0;  0.0000000E+00;  1.0000000E+04;  0.0000000E+00;  0.0000000E+00;  1.0000000E+04;  0.0000000E+00;  1.0000000E+04;  0.0000000E+00;  0.0000000E+00;  0.0000000E+00;  0.0000000E+00;
  2.0999999E+00;  9.9999998E-03; -2.8000000E-01;780;  0.0000000E+00;  0.0000000E+00;  0.0000000E+00;  1.0000000E+03;  4.0000001E-01;  0.0000000E+00;0;  0.0000000E+00;  0.0000000E+00;  0.0000000E+00;0;  0.0000000E+00;  1.0000000E+04;  0.0000000E+00;  0.0000000E+00;  1.0000000E+04;  0.0000000E+00;  1.0000000E+04;  0.0000000E+00;  0.0000000E+00;  0.0000000E+00;  0.0000000E+00;
  2.0999999E+00;  9.9999998E-03; -2.5999999E-01;781;  0.0000000E+00;  0.0000000E+00;  0.0000000E+00;  1.0000000E+03;  4.0000001E-01;  0.0000000E+00;0;  0.0000000E+00;  0.0000000E+00;  0.0000000E+00;0;  0.0000000E+00;  1.0000000E+04;  0.0000000E+00;  0.0000000E+00;  1.0000000E+04;  0.0000000E+00;  1.0000000E+04;  0.0000000E+00;  0.0000000E+00;  0.0000000E+00;  0.0000000E+00;
  2.0999999E+00;  9.9999998E-03; -2.3999999E-01;782;  0.0000000E+00;  0.0000000E+00;  0.0000000E+00;  1.0000000E+03;  4.0000001E-01;  0.0000000E+00;0;  0.0000000E+00;  0.0000000E+00;  0.0000000E+00;0;  0.0000000E+00;  1.0000000E+04;  0.0000000E+00;  0.0000000E+00;  1.0000000E+04;  0.0000000E+00;  1.0000000E+04;  0.0000000E+00;  0.0000000E+00;  0.0000000E+00;  0.0000000E+00;
  2.0999999E+00;  9.9999998E-03; -2.2000000E-01;783;  0.0000000E+00;  0.0000000E+00;  0.0000000E+00;  1.0000000E+03;  4.0000001E-01;  0.0000000E+00;0;  0.0000000E+00;  0.0000000E+00;  0.0000000E+00;0;  0.0000000E+00;  1.0000000E+04;  0.0000000E+00;  0.0000000E+00;  1.0000000E+04;  0.0000000E+00;  1.0000000E+04;  0.0000000E+00;  0.0000000E+00;  0.0000000E+00;  0.0000000E+00;
  2.0999999E+00;  9.9999998E-03; -2.0000000E-01;784;  0.0000000E+00;  0.0000000E+00;  0.0000000E+00;  1.0000000E+03;  4.0000001E-01;  0.0000000E+00;0;  0.0000000E+00;  0.0000000E+00;  0.0000000E+00;0;  0.0000000E+00;  1.0000000E+04;  0.0000000E+00;  0.0000000E+00;  1.0000000E+04;  0.0000000E+00;  1.0000000E+04;  0.0000000E+00;  0.0000000E+00;  0.0000000E+00;  0.0000000E+00;
  2.0999999E+00;  9.9999998E-03; -1.8000001E-01;785;  0.0000000E+00;  0.0000000E+00;  0.0000000E+00;  1.0000000E+03;  4.0000001E-01;  0.0000000E+00;0;  0.0000000E+00;  0.0000000E+00;  0.0000000E+00;0;  0.0000000E+00;  1.0000000E+04;  0.0000000E+00;  0.0000000E+00;  1.0000000E+04;  0.0000000E+00;  1.0000000E+04;  0.0000000E+00;  0.0000000E+00;  0.0000000E+00;  0.0000000E+00;
  2.0999999E+00;  9.9999998E-03; -1.6000000E-01;786;  0.0000000E+00;  0.0000000E+00;  0.0000000E+00;  1.0000000E+03;  4.0000001E-01;  0.0000000E+00;0;  0.0000000E+00;  0.0000000E+00;  0.0000000E+00;0;  0.0000000E+00;  1.0000000E+04;  0.0000000E+00;  0.0000000E+00;  1.0000000E+04;  0.0000000E+00;  1.0000000E+04;  0.0000000E+00;  0.0000000E+00;  0.0000000E+00;  0.0000000E+00;
  2.0999999E+00;  9.9999998E-03; -1.4000000E-01;787;  0.0000000E+00;  0.0000000E+00;  0.0000000E+00;  1.0000000E+03;  4.0000001E-01;  0.0000000E+00;0;  0.0000000E+00;  0.0000000E+00;  0.0000000E+00;0;  0.0000000E+00;  1.0000000E+04;  0.0000000E+00;  0.0000000E+00;  1.0000000E+04;  0.0000000E+00;  1.0000000E+04;  0.0000000E+00;  0.0000000E+00;  0.0000000E+00;  0.0000000E+00;
  2.0999999E+00;  9.9999998E-03; -1.2000000E-01;788;  0.0000000E+00;  0.0000000E+00;  0.0000000E+00;  1.0000000E+03;  4.0000001E-01;  0.0000000E+00;0;  0.0000000E+00;  0.0000000E+00;  0.0000000E+00;0;  0.0000000E+00;  1.0000000E+04;  0.0000000E+00;  0.0000000E+00;  1.0000000E+04;  0.0000000E+00;  1.0000000E+04;  0.0000000E+00;  0.0000000E+00;  0.0000000E+00;  0.0000000E+00;
  2.0999999E+00;  9.9999998E-03; -1.0000000E-01;789;  0.0000000E+00;  0.0000000E+00;  0.0000000E+00;  1.0000000E+03;  4.0000001E-01;  0.0000000E+00;0;  0.0000000E+00;  0.0000000E+00;  0.0000000E+00;0;  0.0000000E+00;  1.0000000E+04;  0.0000000E+00;  0.0000000E+00;  1.0000000E+04;  0.0000000E+00;  1.0000000E+04;  0.0000000E+00;  0.0000000E+00;  0.0000000E+00;  0.0000000E+00;
  2.0999999E+00;  9.9999998E-03; -7.9999998E-02;790;  0.0000000E+00;  0.0000000E+00;  0.0000000E+00;  1.0000000E+03;  4.0000001E-01;  0.0000000E+00;0;  0.0000000E+00;  0.0000000E+00;  0.0000000E+00;0;  0.0000000E+00;  1.0000000E+04;  0.0000000E+00;  0.0000000E+00;  1.0000000E+04;  0.0000000E+00;  1.0000000E+04;  0.0000000E+00;  0.0000000E+00;  0.0000000E+00;  0.0000000E+00;
  2.0999999E+00;  9.9999998E-03; -5.9999999E-02;791;  0.0000000E+00;  0.0000000E+00;  0.0000000E+00;  1.0000000E+03;  4.0000001E-01;  0.0000000E+00;0;  0.0000000E+00;  0.0000000E+00;  0.0000000E+00;0;  0.0000000E+00;  1.0000000E+04;  0.0000000E+00;  0.0000000E+00;  1.0000000E+04;  0.0000000E+00;  1.0000000E+04;  0.0000000E+00;  0.0000000E+00;  0.0000000E+00;  0.0000000E+00;
  2.0999999E+00;  9.9999998E-03; -3.9999999E-02;792;  0.0000000E+00;  0.0000000E+00;  0.0000000E+00;  1.0000000E+03;  4.0000001E-01;  0.0000000E+00;0;  0.0000000E+00;  0.0000000E+00;  0.0000000E+00;0;  0.0000000E+00;  1.0000000E+04;  0.0000000E+00;  0.0000000E+00;  1.0000000E+04;  0.0000000E+00;  1.0000000E+04;  0.0000000E+00;  0.0000000E+00;  0.0000000E+00;  0.0000000E+00;
  2.0999999E+00;  9.9999998E-03; -2.0000000E-02;793;  0.0000000E+00;  0.0000000E+00;  0.0000000E+00;  1.0000000E+03;  4.0000001E-01;  0.0000000E+00;0;  0.0000000E+00;  0.0000000E+00;  0.0000000E+00;0;  0.0000000E+00;  1.0000000E+04;  0.0000000E+00;  0.0000000E+00;  1.0000000E+04;  0.0000000E+00;  1.0000000E+04;  0.0000000E+00;  0.0000000E+00;  0.0000000E+00;  0.0000000E+00;
  2.0999999E+00;  9.9999998E-03;  0.0000000E+00;794;  0.0000000E+00;  0.0000000E+00;  0.0000000E+00;  1.0000000E+03;  4.0000001E-01;  0.0000000E+00;0;  0.0000000E+00;  0.0000000E+00;  0.0000000E+00;0;  0.0000000E+00;  1.0000000E+04;  0.0000000E+00;  0.0000000E+00;  1.0000000E+04;  0.0000000E+00;  1.0000000E+04;  0.0000000E+00;  0.0000000E+00;  0.0000000E+00;  0.0000000E+00;
  2.0999999E+00;  9.9999998E-03;  2.0000000E-02;795;  0.0000000E+00;  0.0000000E+00;  0.0000000E+00;  1.0000000E+03;  4.0000001E-01;  0.0000000E+00;0;  0.0000000E+00;  0.0000000E+00;  0.0000000E+00;0;  0.0000000E+00;  1.0000000E+04;  0.0000000E+00;  0.0000000E+00;  1.0000000E+04;  0.0000000E+00;  1.0000000E+04;  0.0000000E+00;  0.0000000E+00;  0.0000000E+00;  0.0000000E+00;
  2.0999999E+00;  9.9999998E-03;  3.9999999E-02;796;  0.0000000E+00;  0.0000000E+00;  0.0000000E+00;  1.0000000E+03;  4.0000001E-01;  0.0000000E+00;0;  0.0000000E+00;  0.0000000E+00;  0.0000000E+00;0;  0.0000000E+00;  1.0000000E+04;  0.0000000E+00;  0.0000000E+00;  1.0000000E+04;  0.0000000E+00;  1.0000000E+04;  0.0000000E+00;  0.0000000E+00;  0.0000000E+00;  0.0000000E+00;
  2.0999999E+00;  9.9999998E-03;  5.9999999E-02;797;  0.0000000E+00;  0.0000000E+00;  0.0000000E+00;  1.0000000E+03;  4.0000001E-01;  0.0000000E+00;0;  0.0000000E+00;  0.0000000E+00;  0.0000000E+00;0;  0.0000000E+00;  1.0000000E+04;  0.0000000E+00;  0.0000000E+00;  1.0000000E+04;  0.0000000E+00;  1.0000000E+04;  0.0000000E+00;  0.0000000E+00;  0.0000000E+00;  0.0000000E+00;
  2.0999999E+00;  9.9999998E-03;  7.9999998E-02;798;  0.0000000E+00;  0.0000000E+00;  0.0000000E+00;  1.0000000E+03;  4.0000001E-01;  0.0000000E+00;0;  0.0000000E+00;  0.0000000E+00;  0.0000000E+00;0;  0.0000000E+00;  1.0000000E+04;  0.0000000E+00;  0.0000000E+00;  1.0000000E+04;  0.0000000E+00;  1.0000000E+04;  0.0000000E+00;  0.0000000E+00;  0.0000000E+00;  0.0000000E+00;
  2.0999999E+00;  9.9999998E-03;  1.0000000E-01;799;  0.0000000E+00;  0.0000000E+00;  0.0000000E+00;  1.0000000E+03;  4.0000001E-01;  0.0000000E+00;0;  0.0000000E+00;  0.0000000E+00;  0.0000000E+00;0;  0.0000000E+00;  1.0000000E+04;  0.0000000E+00;  0.0000000E+00;  1.0000000E+04;  0.0000000E+00;  1.0000000E+04;  0.0000000E+00;  0.0000000E+00;  0.0000000E+00;  0.0000000E+00;
  2.0999999E+00;  9.9999998E-03;  1.2000000E-01;800;  0.0000000E+00;  0.0000000E+00;  0.0000000E+00;  1.0000000E+03;  4.0000001E-01;  0.0000000E+00;0;  0.0000000E+00;  0.0000000E+00;  0.0000000E+00;0;  0.0000000E+00;  1.0000000E+04;  0.0000000E+00;  0.0000000E+00;  1.0000000E+04;  0.0000000E+00;  1.0000000E+04;  0.0000000E+00;  0.0000000E+00;  0.0000000E+00;  0.0000000E+00;
  2.0999999E+00;  9.9999998E-03;  1.4000000E-01;801;  0.0000000E+00;  0.0000000E+00;  0.0000000E+00;  1.0000000E+03;  4.0000001E-01;  0.0000000E+00;0;  0.0000000E+00;  0.0000000E+00;  0.0000000E+00;0;  0.0000000E+00;  1.0000000E+04;  0.0000000E+00;  0.0000000E+00;  1.0000000E+04;  0.0000000E+00;  1.0000000E+04;  0.0000000E+00;  0.0000000E+00;  0.0000000E+00;  0.0000000E+00;
  2.0999999E+00;  9.9999998E-03;  1.6000000E-01;802;  0.0000000E+00;  0.0000000E+00;  0.0000000E+00;  1.0000000E+03;  4.0000001E-01;  0.0000000E+00;0;  0.0000000E+00;  0.0000000E+00;  0.0000000E+00;0;  0.0000000E+00;  1.0000000E+04;  0.0000000E+00;  0.0000000E+00;  1.0000000E+04;  0.0000000E+00;  1.0000000E+04;  0.0000000E+00;  0.0000000E+00;  0.0000000E+00;  0.0000000E+00;
  2.0999999E+00;  9.9999998E-03;  1.8000001E-01;803;  0.0000000E+00;  0.0000000E+00;  0.0000000E+00;  1.0000000E+03;  4.0000001E-01;  0.0000000E+00;0;  0.0000000E+00;  0.0000000E+00;  0.0000000E+00;0;  0.0000000E+00;  1.0000000E+04;  0.0000000E+00;  0.0000000E+00;  1.0000000E+04;  0.0000000E+00;  1.0000000E+04;  0.0000000E+00;  0.0000000E+00;  0.0000000E+00;  0.0000000E+00;
  2.0999999E+00;  9.9999998E-03;  2.0000000E-01;804;  0.0000000E+00;  0.0000000E+00;  0.0000000E+00;  1.0000000E+03;  4.0000001E-01;  0.0000000E+00;0;  0.0000000E+00;  0.0000000E+00;  0.0000000E+00;0;  0.0000000E+00;  1.0000000E+04;  0.0000000E+00;  0.0000000E+00;  1.0000000E+04;  0.0000000E+00;  1.0000000E+04;  0.0000000E+00;  0.0000000E+00;  0.0000000E+00;  0.0000000E+00;
  2.0999999E+00;  9.9999998E-03;  2.2000000E-01;805;  0.0000000E+00;  0.0000000E+00;  0.0000000E+00;  1.0000000E+03;  4.0000001E-01;  0.0000000E+00;0;  0.0000000E+00;  0.0000000E+00;  0.0000000E+00;0;  0.0000000E+00;  1.0000000E+04;  0.0000000E+00;  0.0000000E+00;  1.0000000E+04;  0.0000000E+00;  1.0000000E+04;  0.0000000E+00;  0.0000000E+00;  0.0000000E+00;  0.0000000E+00;
  2.0999999E+00;  9.9999998E-03;  2.3999999E-01;806;  0.0000000E+00;  0.0000000E+00;  0.0000000E+00;  1.0000000E+03;  4.0000001E-01;  0.0000000E+00;0;  0.0000000E+00;  0.0000000E+00;  0.0000000E+00;0;  0.0000000E+00;  1.0000000E+04;  0.0000000E+00;  0.0000000E+00;  1.0000000E+04;  0.0000000E+00;  1.0000000E+04;  0.0000000E+00;  0.0000000E+00;  0.0000000E+00;  0.0000000E+00;
  2.0999999E+00;  9.9999998E-03;  2.5999999E-01;807;  0.0000000E+00;  0.0000000E+00;  0.0000000E+00;  1.0000000E+03;  4.0000001E-01;  0.0000000E+00;0;  0.0000000E+00;  0.0000000E+00;  0.0000000E+00;0;  0.0000000E+00;  1.0000000E+04;  0.0000000E+00;  0.0000000E+00;  1.0000000E+04;  0.0000000E+00;  1.0000000E+04;  0.0000000E+00;  0.0000000E+00;  0.0000000E+00;  0.0000000E+00;
  2.0999999E+00;  9.9999998E-03;  2.8000000E-01;808;  0.0000000E+00;  0.0000000E+00;  0.0000000E+00;  1.0000000E+03;  4.0000001E-01;  0.0000000E+00;0;  0.0000000E+00;  0.0000000E+00;  0.0000000E+00;0;  0.0000000E+00;  1.0000000E+04;  0.0000000E+00;  0.0000000E+00;  1.0000000E+04;  0.0000000E+00;  1.0000000E+04;  0.0000000E+00;  0.0000000E+00;  0.0000000E+00;  0.0000000E+00;
  2.0999999E+00;  9.9999998E-03;  3.0000001E-01;809;  0.0000000E+00;  0.0000000E+00;  0.0000000E+00;  1.0000000E+03;  4.0000001E-01;  0.0000000E+00;0;  0.0000000E+00;  0.0000000E+00;  0.0000000E+00;0;  0.0000000E+00;  1.0000000E+04;  0.0000000E+00;  0.0000000E+00;  1.0000000E+04;  0.0000000E+00;  1.0000000E+04;  0.0000000E+00;  0.0000000E+00;  0.0000000E+00;  0.0000000E+00;
  2.0999999E+00;  9.9999998E-03;  3.1999999E-01;810;  0.0000000E+00;  0.0000000E+00;  0.0000000E+00;  1.0000000E+03;  4.0000001E-01;  0.0000000E+00;0;  0.0000000E+00;  0.0000000E+00;  0.0000000E+00;0;  0.0000000E+00;  1.0000000E+04;  0.0000000E+00;  0.0000000E+00;  1.0000000E+04;  0.0000000E+00;  1.0000000E+04;  0.0000000E+00;  0.0000000E+00;  0.0000000E+00;  0.0000000E+00;
  2.0999999E+00;  9.9999998E-03;  3.4000000E-01;811;  0.0000000E+00;  0.0000000E+00;  0.0000000E+00;  1.0000000E+03;  4.0000001E-01;  0.0000000E+00;0;  0.0000000E+00;  0.0000000E+00;  0.0000000E+00;0;  0.0000000E+00;  1.0000000E+04;  0.0000000E+00;  0.0000000E+00;  1.0000000E+04;  0.0000000E+00;  1.0000000E+04;  0.0000000E+00;  0.0000000E+00;  0.0000000E+00;  0.0000000E+00;
  2.0999999E+00;  9.9999998E-03;  3.6000001E-01;812;  0.0000000E+00;  0.0000000E+00;  0.0000000E+00;  1.0000000E+03;  4.0000001E-01;  0.0000000E+00;0;  0.0000000E+00;  0.0000000E+00;  0.0000000E+00;0;  0.0000000E+00;  1.0000000E+04;  0.0000000E+00;  0.0000000E+00;  1.0000000E+04;  0.0000000E+00;  1.0000000E+04;  0.0000000E+00;  0.0000000E+00;  0.0000000E+00;  0.0000000E+00;
  2.0999999E+00;  9.9999998E-03;  3.8000000E-01;813;  0.0000000E+00;  0.0000000E+00;  0.0000000E+00;  1.0000000E+03;  4.0000001E-01;  0.0000000E+00;0;  0.0000000E+00;  0.0000000E+00;  0.0000000E+00;0;  0.0000000E+00;  1.0000000E+04;  0.0000000E+00;  0.0000000E+00;  1.0000000E+04;  0.0000000E+00;  1.0000000E+04;  0.0000000E+00;  0.0000000E+00;  0.0000000E+00;  0.0000000E+00;
  2.0999999E+00;  9.9999998E-03;  4.0000001E-01;814;  0.0000000E+00;  0.0000000E+00;  0.0000000E+00;  1.0000000E+03;  4.0000001E-01;  0.0000000E+00;0;  0.0000000E+00;  0.0000000E+00;  0.0000000E+00;0;  0.0000000E+00;  1.0000000E+04;  0.0000000E+00;  0.0000000E+00;  1.0000000E+04;  0.0000000E+00;  1.0000000E+04;  0.0000000E+00;  0.0000000E+00;  0.0000000E+00;  0.0000000E+00;
  2.1199999E+00;  9.9999998E-03; -4.1999999E-01;815;  0.0000000E+00;  0.0000000E+00;  0.0000000E+00;  1.0000000E+03;  4.0000001E-01;  0.0000000E+00;0;  0.0000000E+00;  0.0000000E+00;  0.0000000E+00;0;  0.0000000E+00;  1.0000000E+04;  0.0000000E+00;  0.0000000E+00;  1.0000000E+04;  0.0000000E+00;  1.0000000E+04;  0.0000000E+00;  0.0000000E+00;  0.0000000E+00;  0.0000000E+00;
  2.1199999E+00;  9.9999998E-03; -4.0000001E-01;816;  0.0000000E+00;  0.0000000E+00;  0.0000000E+00;  1.0000000E+03;  4.0000001E-01;  0.0000000E+00;0;  0.0000000E+00;  0.0000000E+00;  0.0000000E+00;0;  0.0000000E+00;  1.0000000E+04;  0.0000000E+00;  0.0000000E+00;  1.0000000E+04;  0.0000000E+00;  1.0000000E+04;  0.0000000E+00;  0.0000000E+00;  0.0000000E+00;  0.0000000E+00;
  2.1199999E+00;  9.9999998E-03; -3.8000000E-01;817;  0.0000000E+00;  0.0000000E+00;  0.0000000E+00;  1.0000000E+03;  4.0000001E-01;  0.0000000E+00;0;  0.0000000E+00;  0.0000000E+00;  0.0000000E+00;0;  0.0000000E+00;  1.0000000E+04;  0.0000000E+00;  0.0000000E+00;  1.0000000E+04;  0.0000000E+00;  1.0000000E+04;  0.0000000E+00;  0.0000000E+00;  0.0000000E+00;  0.0000000E+00;
  2.1199999E+00;  9.9999998E-03; -3.6000001E-01;818;  0.0000000E+00;  0.0000000E+00;  0.0000000E+00;  1.0000000E+03;  4.0000001E-01;  0.0000000E+00;0;  0.0000000E+00;  0.0000000E+00;  0.0000000E+00;0;  0.0000000E+00;  1.0000000E+04;  0.0000000E+00;  0.0000000E+00;  1.0000000E+04;  0.0000000E+00;  1.0000000E+04;  0.0000000E+00;  0.0000000E+00;  0.0000000E+00;  0.0000000E+00;
  2.1199999E+00;  9.9999998E-03; -3.4000000E-01;819;  0.0000000E+00;  0.0000000E+00;  0.0000000E+00;  1.0000000E+03;  4.0000001E-01;  0.0000000E+00;0;  0.0000000E+00;  0.0000000E+00;  0.0000000E+00;0;  0.0000000E+00;  1.0000000E+04;  0.0000000E+00;  0.0000000E+00;  1.0000000E+04;  0.0000000E+00;  1.0000000E+04;  0.0000000E+00;  0.0000000E+00;  0.0000000E+00;  0.0000000E+00;
  2.1199999E+00;  9.9999998E-03; -3.1999999E-01;820;  0.0000000E+00;  0.0000000E+00;  0.0000000E+00;  1.0000000E+03;  4.0000001E-01;  0.0000000E+00;0;  0.0000000E+00;  0.0000000E+00;  0.0000000E+00;0;  0.0000000E+00;  1.0000000E+04;  0.0000000E+00;  0.0000000E+00;  1.0000000E+04;  0.0000000E+00;  1.0000000E+04;  0.0000000E+00;  0.0000000E+00;  0.0000000E+00;  0.0000000E+00;
  2.1199999E+00;  9.9999998E-03; -3.0000001E-01;821;  0.0000000E+00;  0.0000000E+00;  0.0000000E+00;  1.0000000E+03;  4.0000001E-01;  0.0000000E+00;0;  0.0000000E+00;  0.0000000E+00;  0.0000000E+00;0;  0.0000000E+00;  1.0000000E+04;  0.0000000E+00;  0.0000000E+00;  1.0000000E+04;  0.0000000E+00;  1.0000000E+04;  0.0000000E+00;  0.0000000E+00;  0.0000000E+00;  0.0000000E+00;
  2.1199999E+00;  9.9999998E-03; -2.8000000E-01;822;  0.0000000E+00;  0.0000000E+00;  0.0000000E+00;  1.0000000E+03;  4.0000001E-01;  0.0000000E+00;0;  0.0000000E+00;  0.0000000E+00;  0.0000000E+00;0;  0.0000000E+00;  1.0000000E+04;  0.0000000E+00;  0.0000000E+00;  1.0000000E+04;  0.0000000E+00;  1.0000000E+04;  0.0000000E+00;  0.0000000E+00;  0.0000000E+00;  0.0000000E+00;
  2.1199999E+00;  9.9999998E-03; -2.5999999E-01;823;  0.0000000E+00;  0.0000000E+00;  0.0000000E+00;  1.0000000E+03;  4.0000001E-01;  0.0000000E+00;0;  0.0000000E+00;  0.0000000E+00;  0.0000000E+00;0;  0.0000000E+00;  1.0000000E+04;  0.0000000E+00;  0.0000000E+00;  1.0000000E+04;  0.0000000E+00;  1.0000000E+04;  0.0000000E+00;  0.0000000E+00;  0.0000000E+00;  0.0000000E+00;
  2.1199999E+00;  9.9999998E-03; -2.3999999E-01;824;  0.0000000E+00;  0.0000000E+00;  0.0000000E+00;  1.0000000E+03;  4.0000001E-01;  0.0000000E+00;0;  0.0000000E+00;  0.0000000E+00;  0.0000000E+00;0;  0.0000000E+00;  1.0000000E+04;  0.0000000E+00;  0.0000000E+00;  1.0000000E+04;  0.0000000E+00;  1.0000000E+04;  0.0000000E+00;  0.0000000E+00;  0.0000000E+00;  0.0000000E+00;
  2.1199999E+00;  9.9999998E-03; -2.2000000E-01;825;  0.0000000E+00;  0.0000000E+00;  0.0000000E+00;  1.0000000E+03;  4.0000001E-01;  0.0000000E+00;0;  0.0000000E+00;  0.0000000E+00;  0.0000000E+00;0;  0.0000000E+00;  1.0000000E+04;  0.0000000E+00;  0.0000000E+00;  1.0000000E+04;  0.0000000E+00;  1.0000000E+04;  0.0000000E+00;  0.0000000E+00;  0.0000000E+00;  0.0000000E+00;
  2.1199999E+00;  9.9999998E-03; -2.0000000E-01;826;  0.0000000E+00;  0.0000000E+00;  0.0000000E+00;  1.0000000E+03;  4.0000001E-01;  0.0000000E+00;0;  0.0000000E+00;  0.0000000E+00;  0.0000000E+00;0;  0.0000000E+00;  1.0000000E+04;  0.0000000E+00;  0.0000000E+00;  1.0000000E+04;  0.0000000E+00;  1.0000000E+04;  0.0000000E+00;  0.0000000E+00;  0.0000000E+00;  0.0000000E+00;
  2.1199999E+00;  9.9999998E-03; -1.8000001E-01;827;  0.0000000E+00;  0.0000000E+00;  0.0000000E+00;  1.0000000E+03;  4.0000001E-01;  0.0000000E+00;0;  0.0000000E+00;  0.0000000E+00;  0.0000000E+00;0;  0.0000000E+00;  1.0000000E+04;  0.0000000E+00;  0.0000000E+00;  1.0000000E+04;  0.0000000E+00;  1.0000000E+04;  0.0000000E+00;  0.0000000E+00;  0.0000000E+00;  0.0000000E+00;
  2.1199999E+00;  9.9999998E-03; -1.6000000E-01;828;  0.0000000E+00;  0.0000000E+00;  0.0000000E+00;  1.0000000E+03;  4.0000001E-01;  0.0000000E+00;0;  0.0000000E+00;  0.0000000E+00;  0.0000000E+00;0;  0.0000000E+00;  1.0000000E+04;  0.0000000E+00;  0.0000000E+00;  1.0000000E+04;  0.0000000E+00;  1.0000000E+04;  0.0000000E+00;  0.0000000E+00;  0.0000000E+00;  0.0000000E+00;
  2.1199999E+00;  9.9999998E-03; -1.4000000E-01;829;  0.0000000E+00;  0.0000000E+00;  0.0000000E+00;  1.0000000E+03;  4.0000001E-01;  0.0000000E+00;0;  0.0000000E+00;  0.0000000E+00;  0.0000000E+00;0;  0.0000000E+00;  1.0000000E+04;  0.0000000E+00;  0.0000000E+00;  1.0000000E+04;  0.0000000E+00;  1.0000000E+04;  0.0000000E+00;  0.0000000E+00;  0.0000000E+00;  0.0000000E+00;
  2.1199999E+00;  9.9999998E-03; -1.2000000E-01;830;  0.0000000E+00;  0.0000000E+00;  0.0000000E+00;  1.0000000E+03;  4.0000001E-01;  0.0000000E+00;0;  0.0000000E+00;  0.0000000E+00;  0.0000000E+00;0;  0.0000000E+00;  1.0000000E+04;  0.0000000E+00;  0.0000000E+00;  1.0000000E+04;  0.0000000E+00;  1.0000000E+04;  0.0000000E+00;  0.0000000E+00;  0.0000000E+00;  0.0000000E+00;
  2.1199999E+00;  9.9999998E-03; -1.0000000E-01;831;  0.0000000E+00;  0.0000000E+00;  0.0000000E+00;  1.0000000E+03;  4.0000001E-01;  0.0000000E+00;0;  0.0000000E+00;  0.0000000E+00;  0.0000000E+00;0;  0.0000000E+00;  1.0000000E+04;  0.0000000E+00;  0.0000000E+00;  1.0000000E+04;  0.0000000E+00;  1.0000000E+04;  0.0000000E+00;  0.0000000E+00;  0.0000000E+00;  0.0000000E+00;
  2.1199999E+00;  9.9999998E-03; -7.9999998E-02;832;  0.0000000E+00;  0.0000000E+00;  0.0000000E+00;  1.0000000E+03;  4.0000001E-01;  0.0000000E+00;0;  0.0000000E+00;  0.0000000E+00;  0.0000000E+00;0;  0.0000000E+00;  1.0000000E+04;  0.0000000E+00;  0.0000000E+00;  1.0000000E+04;  0.0000000E+00;  1.0000000E+04;  0.0000000E+00;  0.0000000E+00;  0.0000000E+00;  0.0000000E+00;
  2.1199999E+00;  9.9999998E-03; -5.9999999E-02;833;  0.0000000E+00;  0.0000000E+00;  0.0000000E+00;  1.0000000E+03;  4.0000001E-01;  0.0000000E+00;0;  0.0000000E+00;  0.0000000E+00;  0.0000000E+00;0;  0.0000000E+00;  1.0000000E+04;  0.0000000E+00;  0.0000000E+00;  1.0000000E+04;  0.0000000E+00;  1.0000000E+04;  0.0000000E+00;  0.0000000E+00;  0.0000000E+00;  0.0000000E+00;
  2.1199999E+00;  9.9999998E-03; -3.9999999E-02;834;  0.0000000E+00;  0.0000000E+00;  0.0000000E+00;  1.0000000E+03;  4.0000001E-01;  0.0000000E+00;0;  0.0000000E+00;  0.0000000E+00;  0.0000000E+00;0;  0.0000000E+00;  1.0000000E+04;  0.0000000E+00;  0.0000000E+00;  1.0000000E+04;  0.0000000E+00;  1.0000000E+04;  0.0000000E+00;  0.0000000E+00;  0.0000000E+00;  0.0000000E+00;
  2.1199999E+00;  9.9999998E-03; -2.0000000E-02;835;  0.0000000E+00;  0.0000000E+00;  0.0000000E+00;  1.0000000E+03;  4.0000001E-01;  0.0000000E+00;0;  0.0000000E+00;  0.0000000E+00;  0.0000000E+00;0;  0.0000000E+00;  1.0000000E+04;  0.0000000E+00;  0.0000000E+00;  1.0000000E+04;  0.0000000E+00;  1.0000000E+04;  0.0000000E+00;  0.0000000E+00;  0.0000000E+00;  0.0000000E+00;
  2.1199999E+00;  9.9999998E-03;  0.0000000E+00;836;  0.0000000E+00;  0.0000000E+00;  0.0000000E+00;  1.0000000E+03;  4.0000001E-01;  0.0000000E+00;0;  0.0000000E+00;  0.0000000E+00;  0.0000000E+00;0;  0.0000000E+00;  1.0000000E+04;  0.0000000E+00;  0.0000000E+00;  1.0000000E+04;  0.0000000E+00;  1.0000000E+04;  0.0000000E+00;  0.0000000E+00;  0.0000000E+00;  0.0000000E+00;
  2.1199999E+00;  9.9999998E-03;  2.0000000E-02;837;  0.0000000E+00;  0.0000000E+00;  0.0000000E+00;  1.0000000E+03;  4.0000001E-01;  0.0000000E+00;0;  0.0000000E+00;  0.0000000E+00;  0.0000000E+00;0;  0.0000000E+00;  1.0000000E+04;  0.0000000E+00;  0.0000000E+00;  1.0000000E+04;  0.0000000E+00;  1.0000000E+04;  0.0000000E+00;  0.0000000E+00;  0.0000000E+00;  0.0000000E+00;
  2.1199999E+00;  9.9999998E-03;  3.9999999E-02;838;  0.0000000E+00;  0.0000000E+00;  0.0000000E+00;  1.0000000E+03;  4.0000001E-01;  0.0000000E+00;0;  0.0000000E+00;  0.0000000E+00;  0.0000000E+00;0;  0.0000000E+00;  1.0000000E+04;  0.0000000E+00;  0.0000000E+00;  1.0000000E+04;  0.0000000E+00;  1.0000000E+04;  0.0000000E+00;  0.0000000E+00;  0.0000000E+00;  0.0000000E+00;
  2.1199999E+00;  9.9999998E-03;  5.9999999E-02;839;  0.0000000E+00;  0.0000000E+00;  0.0000000E+00;  1.0000000E+03;  4.0000001E-01;  0.0000000E+00;0;  0.0000000E+00;  0.0000000E+00;  0.0000000E+00;0;  0.0000000E+00;  1.0000000E+04;  0.0000000E+00;  0.0000000E+00;  1.0000000E+04;  0.0000000E+00;  1.0000000E+04;  0.0000000E+00;  0.0000000E+00;  0.0000000E+00;  0.0000000E+00;
  2.1199999E+00;  9.9999998E-03;  7.9999998E-02;840;  0.0000000E+00;  0.0000000E+00;  0.0000000E+00;  1.0000000E+03;  4.0000001E-01;  0.0000000E+00;0;  0.0000000E+00;  0.0000000E+00;  0.0000000E+00;0;  0.0000000E+00;  1.0000000E+04;  0.0000000E+00;  0.0000000E+00;  1.0000000E+04;  0.0000000E+00;  1.0000000E+04;  0.0000000E+00;  0.0000000E+00;  0.0000000E+00;  0.0000000E+00;
  2.1199999E+00;  9.9999998E-03;  1.0000000E-01;841;  0.0000000E+00;  0.0000000E+00;  0.0000000E+00;  1.0000000E+03;  4.0000001E-01;  0.0000000E+00;0;  0.0000000E+00;  0.0000000E+00;  0.0000000E+00;0;  0.0000000E+00;  1.0000000E+04;  0.0000000E+00;  0.0000000E+00;  1.0000000E+04;  0.0000000E+00;  1.0000000E+04;  0.0000000E+00;  0.0000000E+00;  0.0000000E+00;  0.0000000E+00;
  2.1199999E+00;  9.9999998E-03;  1.2000000E-01;842;  0.0000000E+00;  0.0000000E+00;  0.0000000E+00;  1.0000000E+03;  4.0000001E-01;  0.0000000E+00;0;  0.0000000E+00;  0.0000000E+00;  0.0000000E+00;0;  0.0000000E+00;  1.0000000E+04;  0.0000000E+00;  0.0000000E+00;  1.0000000E+04;  0.0000000E+00;  1.0000000E+04;  0.0000000E+00;  0.0000000E+00;  0.0000000E+00;  0.0000000E+00;
  2.1199999E+00;  9.9999998E-03;  1.4000000E-01;843;  0.0000000E+00;  0.0000000E+00;  0.0000000E+00;  1.0000000E+03;  4.0000001E-01;  0.0000000E+00;0;  0.0000000E+00;  0.0000000E+00;  0.0000000E+00;0;  0.0000000E+00;  1.0000000E+04;  0.0000000E+00;  0.0000000E+00;  1.0000000E+04;  0.0000000E+00;  1.0000000E+04;  0.0000000E+00;  0.0000000E+00;  0.0000000E+00;  0.0000000E+00;
  2.1199999E+00;  9.9999998E-03;  1.6000000E-01;844;  0.0000000E+00;  0.0000000E+00;  0.0000000E+00;  1.0000000E+03;  4.0000001E-01;  0.0000000E+00;0;  0.0000000E+00;  0.0000000E+00;  0.0000000E+00;0;  0.0000000E+00;  1.0000000E+04;  0.0000000E+00;  0.0000000E+00;  1.0000000E+04;  0.0000000E+00;  1.0000000E+04;  0.0000000E+00;  0.0000000E+00;  0.0000000E+00;  0.0000000E+00;
  2.1199999E+00;  9.9999998E-03;  1.8000001E-01;845;  0.0000000E+00;  0.0000000E+00;  0.0000000E+00;  1.0000000E+03;  4.0000001E-01;  0.0000000E+00;0;  0.0000000E+00;  0.0000000E+00;  0.0000000E+00;0;  0.0000000E+00;  1.0000000E+04;  0.0000000E+00;  0.0000000E+00;  1.0000000E+04;  0.0000000E+00;  1.0000000E+04;  0.0000000E+00;  0.0000000E+00;  0.0000000E+00;  0.0000000E+00;
  2.1199999E+00;  9.9999998E-03;  2.0000000E-01;846;  0.0000000E+00;  0.0000000E+00;  0.0000000E+00;  1.0000000E+03;  4.0000001E-01;  0.0000000E+00;0;  0.0000000E+00;  0.0000000E+00;  0.0000000E+00;0;  0.0000000E+00;  1.0000000E+04;  0.0000000E+00;  0.0000000E+00;  1.0000000E+04;  0.0000000E+00;  1.0000000E+04;  0.0000000E+00;  0.0000000E+00;  0.0000000E+00;  0.0000000E+00;
  2.1199999E+00;  9.9999998E-03;  2.2000000E-01;847;  0.0000000E+00;  0.0000000E+00;  0.0000000E+00;  1.0000000E+03;  4.0000001E-01;  0.0000000E+00;0;  0.0000000E+00;  0.0000000E+00;  0.0000000E+00;0;  0.0000000E+00;  1.0000000E+04;  0.0000000E+00;  0.0000000E+00;  1.0000000E+04;  0.0000000E+00;  1.0000000E+04;  0.0000000E+00;  0.0000000E+00;  0.0000000E+00;  0.0000000E+00;
  2.1199999E+00;  9.9999998E-03;  2.3999999E-01;848;  0.0000000E+00;  0.0000000E+00;  0.0000000E+00;  1.0000000E+03;  4.0000001E-01;  0.0000000E+00;0;  0.0000000E+00;  0.0000000E+00;  0.0000000E+00;0;  0.0000000E+00;  1.0000000E+04;  0.0000000E+00;  0.0000000E+00;  1.0000000E+04;  0.0000000E+00;  1.0000000E+04;  0.0000000E+00;  0.0000000E+00;  0.0000000E+00;  0.0000000E+00;
  2.1199999E+00;  9.9999998E-03;  2.5999999E-01;849;  0.0000000E+00;  0.0000000E+00;  0.0000000E+00;  1.0000000E+03;  4.0000001E-01;  0.0000000E+00;0;  0.0000000E+00;  0.0000000E+00;  0.0000000E+00;0;  0.0000000E+00;  1.0000000E+04;  0.0000000E+00;  0.0000000E+00;  1.0000000E+04;  0.0000000E+00;  1.0000000E+04;  0.0000000E+00;  0.0000000E+00;  0.0000000E+00;  0.0000000E+00;
  2.1199999E+00;  9.9999998E-03;  2.8000000E-01;850;  0.0000000E+00;  0.0000000E+00;  0.0000000E+00;  1.0000000E+03;  4.0000001E-01;  0.0000000E+00;0;  0.0000000E+00;  0.0000000E+00;  0.0000000E+00;0;  0.0000000E+00;  1.0000000E+04;  0.0000000E+00;  0.0000000E+00;  1.0000000E+04;  0.0000000E+00;  1.0000000E+04;  0.0000000E+00;  0.0000000E+00;  0.0000000E+00;  0.0000000E+00;
  2.1199999E+00;  9.9999998E-03;  3.0000001E-01;851;  0.0000000E+00;  0.0000000E+00;  0.0000000E+00;  1.0000000E+03;  4.0000001E-01;  0.0000000E+00;0;  0.0000000E+00;  0.0000000E+00;  0.0000000E+00;0;  0.0000000E+00;  1.0000000E+04;  0.0000000E+00;  0.0000000E+00;  1.0000000E+04;  0.0000000E+00;  1.0000000E+04;  0.0000000E+00;  0.0000000E+00;  0.0000000E+00;  0.0000000E+00;
  2.1199999E+00;  9.9999998E-03;  3.1999999E-01;852;  0.0000000E+00;  0.0000000E+00;  0.0000000E+00;  1.0000000E+03;  4.0000001E-01;  0.0000000E+00;0;  0.0000000E+00;  0.0000000E+00;  0.0000000E+00;0;  0.0000000E+00;  1.0000000E+04;  0.0000000E+00;  0.0000000E+00;  1.0000000E+04;  0.0000000E+00;  1.0000000E+04;  0.0000000E+00;  0.0000000E+00;  0.0000000E+00;  0.0000000E+00;
  2.1199999E+00;  9.9999998E-03;  3.4000000E-01;853;  0.0000000E+00;  0.0000000E+00;  0.0000000E+00;  1.0000000E+03;  4.0000001E-01;  0.0000000E+00;0;  0.0000000E+00;  0.0000000E+00;  0.0000000E+00;0;  0.0000000E+00;  1.0000000E+04;  0.0000000E+00;  0.0000000E+00;  1.0000000E+04;  0.0000000E+00;  1.0000000E+04;  0.0000000E+00;  0.0000000E+00;  0.0000000E+00;  0.0000000E+00;
  2.1199999E+00;  9.9999998E-03;  3.6000001E-01;854;  0.0000000E+00;  0.0000000E+00;  0.0000000E+00;  1.0000000E+03;  4.0000001E-01;  0.0000000E+00;0;  0.0000000E+00;  0.0000000E+00;  0.0000000E+00;0;  0.0000000E+00;  1.0000000E+04;  0.0000000E+00;  0.0000000E+00;  1.0000000E+04;  0.0000000E+00;  1.0000000E+04;  0.0000000E+00;  0.0000000E+00;  0.0000000E+00;  0.0000000E+00;
  2.1199999E+00;  9.9999998E-03;  3.8000000E-01;855;  0.0000000E+00;  0.0000000E+00;  0.0000000E+00;  1.0000000E+03;  4.0000001E-01;  0.0000000E+00;0;  0.0000000E+00;  0.0000000E+00;  0.0000000E+00;0;  0.0000000E+00;  1.0000000E+04;  0.0000000E+00;  0.0000000E+00;  1.0000000E+04;  0.0000000E+00;  1.0000000E+04;  0.0000000E+00;  0.0000000E+00;  0.0000000E+00;  0.0000000E+00;
  2.1199999E+00;  9.9999998E-03;  4.0000001E-01;856;  0.0000000E+00;  0.0000000E+00;  0.0000000E+00;  1.0000000E+03;  4.0000001E-01;  0.0000000E+00;0;  0.0000000E+00;  0.0000000E+00;  0.0000000E+00;0;  0.0000000E+00;  1.0000000E+04;  0.0000000E+00;  0.0000000E+00;  1.0000000E+04;  0.0000000E+00;  1.0000000E+04;  0.0000000E+00;  0.0000000E+00;  0.0000000E+00;  0.0000000E+00;
  2.1400001E+00;  9.9999998E-03; -3.8000000E-01;857;  0.0000000E+00;  0.0000000E+00;  0.0000000E+00;  1.0000000E+03;  4.0000001E-01;  0.0000000E+00;0;  0.0000000E+00;  0.0000000E+00;  0.0000000E+00;0;  0.0000000E+00;  1.0000000E+04;  0.0000000E+00;  0.0000000E+00;  1.0000000E+04;  0.0000000E+00;  1.0000000E+04;  0.0000000E+00;  0.0000000E+00;  0.0000000E+00;  0.0000000E+00;
  2.1400001E+00;  9.9999998E-03; -3.6000001E-01;858;  0.0000000E+00;  0.0000000E+00;  0.0000000E+00;  1.0000000E+03;  4.0000001E-01;  0.0000000E+00;0;  0.0000000E+00;  0.0000000E+00;  0.0000000E+00;0;  0.0000000E+00;  1.0000000E+04;  0.0000000E+00;  0.0000000E+00;  1.0000000E+04;  0.0000000E+00;  1.0000000E+04;  0.0000000E+00;  0.0000000E+00;  0.0000000E+00;  0.0000000E+00;
  2.1400001E+00;  9.9999998E-03; -3.4000000E-01;859;  0.0000000E+00;  0.0000000E+00;  0.0000000E+00;  1.0000000E+03;  4.0000001E-01;  0.0000000E+00;0;  0.0000000E+00;  0.0000000E+00;  0.0000000E+00;0;  0.0000000E+00;  1.0000000E+04;  0.0000000E+00;  0.0000000E+00;  1.0000000E+04;  0.0000000E+00;  1.0000000E+04;  0.0000000E+00;  0.0000000E+00;  0.0000000E+00;  0.0000000E+00;
  2.1400001E+00;  9.9999998E-03; -3.1999999E-01;860;  0.0000000E+00;  0.0000000E+00;  0.0000000E+00;  1.0000000E+03;  4.0000001E-01;  0.0000000E+00;0;  0.0000000E+00;  0.0000000E+00;  0.0000000E+00;0;  0.0000000E+00;  1.0000000E+04;  0.0000000E+00;  0.0000000E+00;  1.0000000E+04;  0.0000000E+00;  1.0000000E+04;  0.0000000E+00;  0.0000000E+00;  0.0000000E+00;  0.0000000E+00;
  2.1400001E+00;  9.9999998E-03; -3.0000001E-01;861;  0.0000000E+00;  0.0000000E+00;  0.0000000E+00;  1.0000000E+03;  4.0000001E-01;  0.0000000E+00;0;  0.0000000E+00;  0.0000000E+00;  0.0000000E+00;0;  0.0000000E+00;  1.0000000E+04;  0.0000000E+00;  0.0000000E+00;  1.0000000E+04;  0.0000000E+00;  1.0000000E+04;  0.0000000E+00;  0.0000000E+00;  0.0000000E+00;  0.0000000E+00;
  2.1400001E+00;  9.9999998E-03; -2.8000000E-01;862;  0.0000000E+00;  0.0000000E+00;  0.0000000E+00;  1.0000000E+03;  4.0000001E-01;  0.0000000E+00;0;  0.0000000E+00;  0.0000000E+00;  0.0000000E+00;0;  0.0000000E+00;  1.0000000E+04;  0.0000000E+00;  0.0000000E+00;  1.0000000E+04;  0.0000000E+00;  1.0000000E+04;  0.0000000E+00;  0.0000000E+00;  0.0000000E+00;  0.0000000E+00;
  2.1400001E+00;  9.9999998E-03; -2.5999999E-01;863;  0.0000000E+00;  0.0000000E+00;  0.0000000E+00;  1.0000000E+03;  4.0000001E-01;  0.0000000E+00;0;  0.0000000E+00;  0.0000000E+00;  0.0000000E+00;0;  0.0000000E+00;  1.0000000E+04;  0.0000000E+00;  0.0000000E+00;  1.0000000E+04;  0.0000000E+00;  1.0000000E+04;  0.0000000E+00;  0.0000000E+00;  0.0000000E+00;  0.0000000E+00;
  2.1400001E+00;  9.9999998E-03; -2.3999999E-01;864;  0.0000000E+00;  0.0000000E+00;  0.0000000E+00;  1.0000000E+03;  4.0000001E-01;  0.0000000E+00;0;  0.0000000E+00;  0.0000000E+00;  0.0000000E+00;0;  0.0000000E+00;  1.0000000E+04;  0.0000000E+00;  0.0000000E+00;  1.0000000E+04;  0.0000000E+00;  1.0000000E+04;  0.0000000E+00;  0.0000000E+00;  0.0000000E+00;  0.0000000E+00;
  2.1400001E+00;  9.9999998E-03; -2.2000000E-01;865;  0.0000000E+00;  0.0000000E+00;  0.0000000E+00;  1.0000000E+03;  4.0000001E-01;  0.0000000E+00;0;  0.0000000E+00;  0.0000000E+00;  0.0000000E+00;0;  0.0000000E+00;  1.0000000E+04;  0.0000000E+00;  0.0000000E+00;  1.0000000E+04;  0.0000000E+00;  1.0000000E+04;  0.0000000E+00;  0.0000000E+00;  0.0000000E+00;  0.0000000E+00;
  2.1400001E+00;  9.9999998E-03; -2.0000000E-01;866;  0.0000000E+00;  0.0000000E+00;  0.0000000E+00;  1.0000000E+03;  4.0000001E-01;  0.0000000E+00;0;  0.0000000E+00;  0.0000000E+00;  0.0000000E+00;0;  0.0000000E+00;  1.0000000E+04;  0.0000000E+00;  0.0000000E+00;  1.0000000E+04;  0.0000000E+00;  1.0000000E+04;  0.0000000E+00;  0.0000000E+00;  0.0000000E+00;  0.0000000E+00;
  2.1400001E+00;  9.9999998E-03; -1.8000001E-01;867;  0.0000000E+00;  0.0000000E+00;  0.0000000E+00;  1.0000000E+03;  4.0000001E-01;  0.0000000E+00;0;  0.0000000E+00;  0.0000000E+00;  0.0000000E+00;0;  0.0000000E+00;  1.0000000E+04;  0.0000000E+00;  0.0000000E+00;  1.0000000E+04;  0.0000000E+00;  1.0000000E+04;  0.0000000E+00;  0.0000000E+00;  0.0000000E+00;  0.0000000E+00;
  2.1400001E+00;  9.9999998E-03; -1.6000000E-01;868;  0.0000000E+00;  0.0000000E+00;  0.0000000E+00;  1.0000000E+03;  4.0000001E-01;  0.0000000E+00;0;  0.0000000E+00;  0.0000000E+00;  0.0000000E+00;0;  0.0000000E+00;  1.0000000E+04;  0.0000000E+00;  0.0000000E+00;  1.0000000E+04;  0.0000000E+00;  1.0000000E+04;  0.0000000E+00;  0.0000000E+00;  0.0000000E+00;  0.0000000E+00;
  2.1400001E+00;  9.9999998E-03; -1.4000000E-01;869;  0.0000000E+00;  0.0000000E+00;  0.0000000E+00;  1.0000000E+03;  4.0000001E-01;  0.0000000E+00;0;  0.0000000E+00;  0.0000000E+00;  0.0000000E+00;0;  0.0000000E+00;  1.0000000E+04;  0.0000000E+00;  0.0000000E+00;  1.0000000E+04;  0.0000000E+00;  1.0000000E+04;  0.0000000E+00;  0.0000000E+00;  0.0000000E+00;  0.0000000E+00;
  2.1400001E+00;  9.9999998E-03; -1.2000000E-01;870;  0.0000000E+00;  0.0000000E+00;  0.0000000E+00;  1.0000000E+03;  4.0000001E-01;  0.0000000E+00;0;  0.0000000E+00;  0.0000000E+00;  0.0000000E+00;0;  0.0000000E+00;  1.0000000E+04;  0.0000000E+00;  0.0000000E+00;  1.0000000E+04;  0.0000000E+00;  1.0000000E+04;  0.0000000E+00;  0.0000000E+00;  0.0000000E+00;  0.0000000E+00;
  2.1400001E+00;  9.9999998E-03; -1.0000000E-01;871;  0.0000000E+00;  0.0000000E+00;  0.0000000E+00;  1.0000000E+03;  4.0000001E-01;  0.0000000E+00;0;  0.0000000E+00;  0.0000000E+00;  0.0000000E+00;0;  0.0000000E+00;  1.0000000E+04;  0.0000000E+00;  0.0000000E+00;  1.0000000E+04;  0.0000000E+00;  1.0000000E+04;  0.0000000E+00;  0.0000000E+00;  0.0000000E+00;  0.0000000E+00;
  2.1400001E+00;  9.9999998E-03; -7.9999998E-02;872;  0.0000000E+00;  0.0000000E+00;  0.0000000E+00;  1.0000000E+03;  4.0000001E-01;  0.0000000E+00;0;  0.0000000E+00;  0.0000000E+00;  0.0000000E+00;0;  0.0000000E+00;  1.0000000E+04;  0.0000000E+00;  0.0000000E+00;  1.0000000E+04;  0.0000000E+00;  1.0000000E+04;  0.0000000E+00;  0.0000000E+00;  0.0000000E+00;  0.0000000E+00;
  2.1400001E+00;  9.9999998E-03; -5.9999999E-02;873;  0.0000000E+00;  0.0000000E+00;  0.0000000E+00;  1.0000000E+03;  4.0000001E-01;  0.0000000E+00;0;  0.0000000E+00;  0.0000000E+00;  0.0000000E+00;0;  0.0000000E+00;  1.0000000E+04;  0.0000000E+00;  0.0000000E+00;  1.0000000E+04;  0.0000000E+00;  1.0000000E+04;  0.0000000E+00;  0.0000000E+00;  0.0000000E+00;  0.0000000E+00;
  2.1400001E+00;  9.9999998E-03; -3.9999999E-02;874;  0.0000000E+00;  0.0000000E+00;  0.0000000E+00;  1.0000000E+03;  4.0000001E-01;  0.0000000E+00;0;  0.0000000E+00;  0.0000000E+00;  0.0000000E+00;0;  0.0000000E+00;  1.0000000E+04;  0.0000000E+00;  0.0000000E+00;  1.0000000E+04;  0.0000000E+00;  1.0000000E+04;  0.0000000E+00;  0.0000000E+00;  0.0000000E+00;  0.0000000E+00;
  2.1400001E+00;  9.9999998E-03; -2.0000000E-02;875;  0.0000000E+00;  0.0000000E+00;  0.0000000E+00;  1.0000000E+03;  4.0000001E-01;  0.0000000E+00;0;  0.0000000E+00;  0.0000000E+00;  0.0000000E+00;0;  0.0000000E+00;  1.0000000E+04;  0.0000000E+00;  0.0000000E+00;  1.0000000E+04;  0.0000000E+00;  1.0000000E+04;  0.0000000E+00;  0.0000000E+00;  0.0000000E+00;  0.0000000E+00;
  2.1400001E+00;  9.9999998E-03;  0.0000000E+00;876;  0.0000000E+00;  0.0000000E+00;  0.0000000E+00;  1.0000000E+03;  4.0000001E-01;  0.0000000E+00;0;  0.0000000E+00;  0.0000000E+00;  0.0000000E+00;0;  0.0000000E+00;  1.0000000E+04;  0.0000000E+00;  0.0000000E+00;  1.0000000E+04;  0.0000000E+00;  1.0000000E+04;  0.0000000E+00;  0.0000000E+00;  0.0000000E+00;  0.0000000E+00;
  2.1400001E+00;  9.9999998E-03;  2.0000000E-02;877;  0.0000000E+00;  0.0000000E+00;  0.0000000E+00;  1.0000000E+03;  4.0000001E-01;  0.0000000E+00;0;  0.0000000E+00;  0.0000000E+00;  0.0000000E+00;0;  0.0000000E+00;  1.0000000E+04;  0.0000000E+00;  0.0000000E+00;  1.0000000E+04;  0.0000000E+00;  1.0000000E+04;  0.0000000E+00;  0.0000000E+00;  0.0000000E+00;  0.0000000E+00;
  2.1400001E+00;  9.9999998E-03;  3.9999999E-02;878;  0.0000000E+00;  0.0000000E+00;  0.0000000E+00;  1.0000000E+03;  4.0000001E-01;  0.0000000E+00;0;  0.0000000E+00;  0.0000000E+00;  0.0000000E+00;0;  0.0000000E+00;  1.0000000E+04;  0.0000000E+00;  0.0000000E+00;  1.0000000E+04;  0.0000000E+00;  1.0000000E+04;  0.0000000E+00;  0.0000000E+00;  0.0000000E+00;  0.0000000E+00;
  2.1400001E+00;  9.9999998E-03;  5.9999999E-02;879;  0.0000000E+00;  0.0000000E+00;  0.0000000E+00;  1.0000000E+03;  4.0000001E-01;  0.0000000E+00;0;  0.0000000E+00;  0.0000000E+00;  0.0000000E+00;0;  0.0000000E+00;  1.0000000E+04;  0.0000000E+00;  0.0000000E+00;  1.0000000E+04;  0.0000000E+00;  1.0000000E+04;  0.0000000E+00;  0.0000000E+00;  0.0000000E+00;  0.0000000E+00;
  2.1400001E+00;  9.9999998E-03;  7.9999998E-02;880;  0.0000000E+00;  0.0000000E+00;  0.0000000E+00;  1.0000000E+03;  4.0000001E-01;  0.0000000E+00;0;  0.0000000E+00;  0.0000000E+00;  0.0000000E+00;0;  0.0000000E+00;  1.0000000E+04;  0.0000000E+00;  0.0000000E+00;  1.0000000E+04;  0.0000000E+00;  1.0000000E+04;  0.0000000E+00;  0.0000000E+00;  0.0000000E+00;  0.0000000E+00;
  2.1400001E+00;  9.9999998E-03;  1.0000000E-01;881;  0.0000000E+00;  0.0000000E+00;  0.0000000E+00;  1.0000000E+03;  4.0000001E-01;  0.0000000E+00;0;  0.0000000E+00;  0.0000000E+00;  0.0000000E+00;0;  0.0000000E+00;  1.0000000E+04;  0.0000000E+00;  0.0000000E+00;  1.0000000E+04;  0.0000000E+00;  1.0000000E+04;  0.0000000E+00;  0.0000000E+00;  0.0000000E+00;  0.0000000E+00;
  2.1400001E+00;  9.9999998E-03;  1.2000000E-01;882;  0.0000000E+00;  0.0000000E+00;  0.0000000E+00;  1.0000000E+03;  4.0000001E-01;  0.0000000E+00;0;  0.0000000E+00;  0.0000000E+00;  0.0000000E+00;0;  0.0000000E+00;  1.0000000E+04;  0.0000000E+00;  0.0000000E+00;  1.0000000E+04;  0.0000000E+00;  1.0000000E+04;  0.0000000E+00;  0.0000000E+00;  0.0000000E+00;  0.0000000E+00;
  2.1400001E+00;  9.9999998E-03;  1.4000000E-01;883;  0.0000000E+00;  0.0000000E+00;  0.0000000E+00;  1.0000000E+03;  4.0000001E-01;  0.0000000E+00;0;  0.0000000E+00;  0.0000000E+00;  0.0000000E+00;0;  0.0000000E+00;  1.0000000E+04;  0.0000000E+00;  0.0000000E+00;  1.0000000E+04;  0.0000000E+00;  1.0000000E+04;  0.0000000E+00;  0.0000000E+00;  0.0000000E+00;  0.0000000E+00;
  2.1400001E+00;  9.9999998E-03;  1.6000000E-01;884;  0.0000000E+00;  0.0000000E+00;  0.0000000E+00;  1.0000000E+03;  4.0000001E-01;  0.0000000E+00;0;  0.0000000E+00;  0.0000000E+00;  0.0000000E+00;0;  0.0000000E+00;  1.0000000E+04;  0.0000000E+00;  0.0000000E+00;  1.0000000E+04;  0.0000000E+00;  1.0000000E+04;  0.0000000E+00;  0.0000000E+00;  0.0000000E+00;  0.0000000E+00;
  2.1400001E+00;  9.9999998E-03;  1.8000001E-01;885;  0.0000000E+00;  0.0000000E+00;  0.0000000E+00;  1.0000000E+03;  4.0000001E-01;  0.0000000E+00;0;  0.0000000E+00;  0.0000000E+00;  0.0000000E+00;0;  0.0000000E+00;  1.0000000E+04;  0.0000000E+00;  0.0000000E+00;  1.0000000E+04;  0.0000000E+00;  1.0000000E+04;  0.0000000E+00;  0.0000000E+00;  0.0000000E+00;  0.0000000E+00;
  2.1400001E+00;  9.9999998E-03;  2.0000000E-01;886;  0.0000000E+00;  0.0000000E+00;  0.0000000E+00;  1.0000000E+03;  4.0000001E-01;  0.0000000E+00;0;  0.0000000E+00;  0.0000000E+00;  0.0000000E+00;0;  0.0000000E+00;  1.0000000E+04;  0.0000000E+00;  0.0000000E+00;  1.0000000E+04;  0.0000000E+00;  1.0000000E+04;  0.0000000E+00;  0.0000000E+00;  0.0000000E+00;  0.0000000E+00;
  2.1400001E+00;  9.9999998E-03;  2.2000000E-01;887;  0.0000000E+00;  0.0000000E+00;  0.0000000E+00;  1.0000000E+03;  4.0000001E-01;  0.0000000E+00;0;  0.0000000E+00;  0.0000000E+00;  0.0000000E+00;0;  0.0000000E+00;  1.0000000E+04;  0.0000000E+00;  0.0000000E+00;  1.0000000E+04;  0.0000000E+00;  1.0000000E+04;  0.0000000E+00;  0.0000000E+00;  0.0000000E+00;  0.0000000E+00;
  2.1400001E+00;  9.9999998E-03;  2.3999999E-01;888;  0.0000000E+00;  0.0000000E+00;  0.0000000E+00;  1.0000000E+03;  4.0000001E-01;  0.0000000E+00;0;  0.0000000E+00;  0.0000000E+00;  0.0000000E+00;0;  0.0000000E+00;  1.0000000E+04;  0.0000000E+00;  0.0000000E+00;  1.0000000E+04;  0.0000000E+00;  1.0000000E+04;  0.0000000E+00;  0.0000000E+00;  0.0000000E+00;  0.0000000E+00;
  2.1400001E+00;  9.9999998E-03;  2.5999999E-01;889;  0.0000000E+00;  0.0000000E+00;  0.0000000E+00;  1.0000000E+03;  4.0000001E-01;  0.0000000E+00;0;  0.0000000E+00;  0.0000000E+00;  0.0000000E+00;0;  0.0000000E+00;  1.0000000E+04;  0.0000000E+00;  0.0000000E+00;  1.0000000E+04;  0.0000000E+00;  1.0000000E+04;  0.0000000E+00;  0.0000000E+00;  0.0000000E+00;  0.0000000E+00;
  2.1400001E+00;  9.9999998E-03;  2.8000000E-01;890;  0.0000000E+00;  0.0000000E+00;  0.0000000E+00;  1.0000000E+03;  4.0000001E-01;  0.0000000E+00;0;  0.0000000E+00;  0.0000000E+00;  0.0000000E+00;0;  0.0000000E+00;  1.0000000E+04;  0.0000000E+00;  0.0000000E+00;  1.0000000E+04;  0.0000000E+00;  1.0000000E+04;  0.0000000E+00;  0.0000000E+00;  0.0000000E+00;  0.0000000E+00;
  2.1400001E+00;  9.9999998E-03;  3.0000001E-01;891;  0.0000000E+00;  0.0000000E+00;  0.0000000E+00;  1.0000000E+03;  4.0000001E-01;  0.0000000E+00;0;  0.0000000E+00;  0.0000000E+00;  0.0000000E+00;0;  0.0000000E+00;  1.0000000E+04;  0.0000000E+00;  0.0000000E+00;  1.0000000E+04;  0.0000000E+00;  1.0000000E+04;  0.0000000E+00;  0.0000000E+00;  0.0000000E+00;  0.0000000E+00;
  2.1400001E+00;  9.9999998E-03;  3.1999999E-01;892;  0.0000000E+00;  0.0000000E+00;  0.0000000E+00;  1.0000000E+03;  4.0000001E-01;  0.0000000E+00;0;  0.0000000E+00;  0.0000000E+00;  0.0000000E+00;0;  0.0000000E+00;  1.0000000E+04;  0.0000000E+00;  0.0000000E+00;  1.0000000E+04;  0.0000000E+00;  1.0000000E+04;  0.0000000E+00;  0.0000000E+00;  0.0000000E+00;  0.0000000E+00;
  2.1400001E+00;  9.9999998E-03;  3.4000000E-01;893;  0.0000000E+00;  0.0000000E+00;  0.0000000E+00;  1.0000000E+03;  4.0000001E-01;  0.0000000E+00;0;  0.0000000E+00;  0.0000000E+00;  0.0000000E+00;0;  0.0000000E+00;  1.0000000E+04;  0.0000000E+00;  0.0000000E+00;  1.0000000E+04;  0.0000000E+00;  1.0000000E+04;  0.0000000E+00;  0.0000000E+00;  0.0000000E+00;  0.0000000E+00;
  2.1400001E+00;  9.9999998E-03;  3.6000001E-01;894;  0.0000000E+00;  0.0000000E+00;  0.0000000E+00;  1.0000000E+03;  4.0000001E-01;  0.0000000E+00;0;  0.0000000E+00;  0.0000000E+00;  0.0000000E+00;0;  0.0000000E+00;  1.0000000E+04;  0.0000000E+00;  0.0000000E+00;  1.0000000E+04;  0.0000000E+00;  1.0000000E+04;  0.0000000E+00;  0.0000000E+00;  0.0000000E+00;  0.0000000E+00;
  2.1400001E+00;  9.9999998E-03;  3.8000000E-01;895;  0.0000000E+00;  0.0000000E+00;  0.0000000E+00;  1.0000000E+03;  4.0000001E-01;  0.0000000E+00;0;  0.0000000E+00;  0.0000000E+00;  0.0000000E+00;0;  0.0000000E+00;  1.0000000E+04;  0.0000000E+00;  0.0000000E+00;  1.0000000E+04;  0.0000000E+00;  1.0000000E+04;  0.0000000E+00;  0.0000000E+00;  0.0000000E+00;  0.0000000E+00;
  2.1400001E+00;  9.9999998E-03;  4.0000001E-01;896;  0.0000000E+00;  0.0000000E+00;  0.0000000E+00;  1.0000000E+03;  4.0000001E-01;  0.0000000E+00;0;  0.0000000E+00;  0.0000000E+00;  0.0000000E+00;0;  0.0000000E+00;  1.0000000E+04;  0.0000000E+00;  0.0000000E+00;  1.0000000E+04;  0.0000000E+00;  1.0000000E+04;  0.0000000E+00;  0.0000000E+00;  0.0000000E+00;  0.0000000E+00;
  2.1600001E+00;  9.9999998E-03; -2.8000000E-01;897;  0.0000000E+00;  0.0000000E+00;  0.0000000E+00;  1.0000000E+03;  4.0000001E-01;  0.0000000E+00;0;  0.0000000E+00;  0.0000000E+00;  0.0000000E+00;0;  0.0000000E+00;  1.0000000E+04;  0.0000000E+00;  0.0000000E+00;  1.0000000E+04;  0.0000000E+00;  1.0000000E+04;  0.0000000E+00;  0.0000000E+00;  0.0000000E+00;  0.0000000E+00;
  2.1600001E+00;  9.9999998E-03; -2.5999999E-01;898;  0.0000000E+00;  0.0000000E+00;  0.0000000E+00;  1.0000000E+03;  4.0000001E-01;  0.0000000E+00;0;  0.0000000E+00;  0.0000000E+00;  0.0000000E+00;0;  0.0000000E+00;  1.0000000E+04;  0.0000000E+00;  0.0000000E+00;  1.0000000E+04;  0.0000000E+00;  1.0000000E+04;  0.0000000E+00;  0.0000000E+00;  0.0000000E+00;  0.0000000E+00;
  2.1600001E+00;  9.9999998E-03; -2.3999999E-01;899;  0.0000000E+00;  0.0000000E+00;  0.0000000E+00;  1.0000000E+03;  4.0000001E-01;  0.0000000E+00;0;  0.0000000E+00;  0.0000000E+00;  0.0000000E+00;0;  0.0000000E+00;  1.0000000E+04;  0.0000000E+00;  0.0000000E+00;  1.0000000E+04;  0.0000000E+00;  1.0000000E+04;  0.0000000E+00;  0.0000000E+00;  0.0000000E+00;  0.0000000E+00;
  2.1600001E+00;  9.9999998E-03; -2.2000000E-01;900;  0.0000000E+00;  0.0000000E+00;  0.0000000E+00;  1.0000000E+03;  4.0000001E-01;  0.0000000E+00;0;  0.0000000E+00;  0.0000000E+00;  0.0000000E+00;0;  0.0000000E+00;  1.0000000E+04;  0.0000000E+00;  0.0000000E+00;  1.0000000E+04;  0.0000000E+00;  1.0000000E+04;  0.0000000E+00;  0.0000000E+00;  0.0000000E+00;  0.0000000E+00;
  2.1600001E+00;  9.9999998E-03; -2.0000000E-01;901;  0.0000000E+00;  0.0000000E+00;  0.0000000E+00;  1.0000000E+03;  4.0000001E-01;  0.0000000E+00;0;  0.0000000E+00;  0.0000000E+00;  0.0000000E+00;0;  0.0000000E+00;  1.0000000E+04;  0.0000000E+00;  0.0000000E+00;  1.0000000E+04;  0.0000000E+00;  1.0000000E+04;  0.0000000E+00;  0.0000000E+00;  0.0000000E+00;  0.0000000E+00;
  2.1600001E+00;  9.9999998E-03; -1.8000001E-01;902;  0.0000000E+00;  0.0000000E+00;  0.0000000E+00;  1.0000000E+03;  4.0000001E-01;  0.0000000E+00;0;  0.0000000E+00;  0.0000000E+00;  0.0000000E+00;0;  0.0000000E+00;  1.0000000E+04;  0.0000000E+00;  0.0000000E+00;  1.0000000E+04;  0.0000000E+00;  1.0000000E+04;  0.0000000E+00;  0.0000000E+00;  0.0000000E+00;  0.0000000E+00;
  2.1600001E+00;  9.9999998E-03; -1.6000000E-01;903;  0.0000000E+00;  0.0000000E+00;  0.0000000E+00;  1.0000000E+03;  4.0000001E-01;  0.0000000E+00;0;  0.0000000E+00;  0.0000000E+00;  0.0000000E+00;0;  0.0000000E+00;  1.0000000E+04;  0.0000000E+00;  0.0000000E+00;  1.0000000E+04;  0.0000000E+00;  1.0000000E+04;  0.0000000E+00;  0.0000000E+00;  0.0000000E+00;  0.0000000E+00;
  2.1600001E+00;  9.9999998E-03; -1.4000000E-01;904;  0.0000000E+00;  0.0000000E+00;  0.0000000E+00;  1.0000000E+03;  4.0000001E-01;  0.0000000E+00;0;  0.0000000E+00;  0.0000000E+00;  0.0000000E+00;0;  0.0000000E+00;  1.0000000E+04;  0.0000000E+00;  0.0000000E+00;  1.0000000E+04;  0.0000000E+00;  1.0000000E+04;  0.0000000E+00;  0.0000000E+00;  0.0000000E+00;  0.0000000E+00;
  2.1600001E+00;  9.9999998E-03; -1.2000000E-01;905;  0.0000000E+00;  0.0000000E+00;  0.0000000E+00;  1.0000000E+03;  4.0000001E-01;  0.0000000E+00;0;  0.0000000E+00;  0.0000000E+00;  0.0000000E+00;0;  0.0000000E+00;  1.0000000E+04;  0.0000000E+00;  0.0000000E+00;  1.0000000E+04;  0.0000000E+00;  1.0000000E+04;  0.0000000E+00;  0.0000000E+00;  0.0000000E+00;  0.0000000E+00;
  2.1600001E+00;  9.9999998E-03; -1.0000000E-01;906;  0.0000000E+00;  0.0000000E+00;  0.0000000E+00;  1.0000000E+03;  4.0000001E-01;  0.0000000E+00;0;  0.0000000E+00;  0.0000000E+00;  0.0000000E+00;0;  0.0000000E+00;  1.0000000E+04;  0.0000000E+00;  0.0000000E+00;  1.0000000E+04;  0.0000000E+00;  1.0000000E+04;  0.0000000E+00;  0.0000000E+00;  0.0000000E+00;  0.0000000E+00;
  2.1600001E+00;  9.9999998E-03; -7.9999998E-02;907;  0.0000000E+00;  0.0000000E+00;  0.0000000E+00;  1.0000000E+03;  4.0000001E-01;  0.0000000E+00;0;  0.0000000E+00;  0.0000000E+00;  0.0000000E+00;0;  0.0000000E+00;  1.0000000E+04;  0.0000000E+00;  0.0000000E+00;  1.0000000E+04;  0.0000000E+00;  1.0000000E+04;  0.0000000E+00;  0.0000000E+00;  0.0000000E+00;  0.0000000E+00;
  2.1600001E+00;  9.9999998E-03; -5.9999999E-02;908;  0.0000000E+00;  0.0000000E+00;  0.0000000E+00;  1.0000000E+03;  4.0000001E-01;  0.0000000E+00;0;  0.0000000E+00;  0.0000000E+00;  0.0000000E+00;0;  0.0000000E+00;  1.0000000E+04;  0.0000000E+00;  0.0000000E+00;  1.0000000E+04;  0.0000000E+00;  1.0000000E+04;  0.0000000E+00;  0.0000000E+00;  0.0000000E+00;  0.0000000E+00;
  2.1600001E+00;  9.9999998E-03; -3.9999999E-02;909;  0.0000000E+00;  0.0000000E+00;  0.0000000E+00;  1.0000000E+03;  4.0000001E-01;  0.0000000E+00;0;  0.0000000E+00;  0.0000000E+00;  0.0000000E+00;0;  0.0000000E+00;  1.0000000E+04;  0.0000000E+00;  0.0000000E+00;  1.0000000E+04;  0.0000000E+00;  1.0000000E+04;  0.0000000E+00;  0.0000000E+00;  0.0000000E+00;  0.0000000E+00;
  2.1600001E+00;  9.9999998E-03; -2.0000000E-02;910;  0.0000000E+00;  0.0000000E+00;  0.0000000E+00;  1.0000000E+03;  4.0000001E-01;  0.0000000E+00;0;  0.0000000E+00;  0.0000000E+00;  0.0000000E+00;0;  0.0000000E+00;  1.0000000E+04;  0.0000000E+00;  0.0000000E+00;  1.0000000E+04;  0.0000000E+00;  1.0000000E+04;  0.0000000E+00;  0.0000000E+00;  0.0000000E+00;  0.0000000E+00;
  2.1600001E+00;  9.9999998E-03;  0.0000000E+00;911;  0.0000000E+00;  0.0000000E+00;  0.0000000E+00;  1.0000000E+03;  4.0000001E-01;  0.0000000E+00;0;  0.0000000E+00;  0.0000000E+00;  0.0000000E+00;0;  0.0000000E+00;  1.0000000E+04;  0.0000000E+00;  0.0000000E+00;  1.0000000E+04;  0.0000000E+00;  1.0000000E+04;  0.0000000E+00;  0.0000000E+00;  0.0000000E+00;  0.0000000E+00;
  2.1600001E+00;  9.9999998E-03;  2.0000000E-02;912;  0.0000000E+00;  0.0000000E+00;  0.0000000E+00;  1.0000000E+03;  4.0000001E-01;  0.0000000E+00;0;  0.0000000E+00;  0.0000000E+00;  0.0000000E+00;0;  0.0000000E+00;  1.0000000E+04;  0.0000000E+00;  0.0000000E+00;  1.0000000E+04;  0.0000000E+00;  1.0000000E+04;  0.0000000E+00;  0.0000000E+00;  0.0000000E+00;  0.0000000E+00;
  2.1600001E+00;  9.9999998E-03;  3.9999999E-02;913;  0.0000000E+00;  0.0000000E+00;  0.0000000E+00;  1.0000000E+03;  4.0000001E-01;  0.0000000E+00;0;  0.0000000E+00;  0.0000000E+00;  0.0000000E+00;0;  0.0000000E+00;  1.0000000E+04;  0.0000000E+00;  0.0000000E+00;  1.0000000E+04;  0.0000000E+00;  1.0000000E+04;  0.0000000E+00;  0.0000000E+00;  0.0000000E+00;  0.0000000E+00;
  2.1600001E+00;  9.9999998E-03;  5.9999999E-02;914;  0.0000000E+00;  0.0000000E+00;  0.0000000E+00;  1.0000000E+03;  4.0000001E-01;  0.0000000E+00;0;  0.0000000E+00;  0.0000000E+00;  0.0000000E+00;0;  0.0000000E+00;  1.0000000E+04;  0.0000000E+00;  0.0000000E+00;  1.0000000E+04;  0.0000000E+00;  1.0000000E+04;  0.0000000E+00;  0.0000000E+00;  0.0000000E+00;  0.0000000E+00;
  2.1600001E+00;  9.9999998E-03;  7.9999998E-02;915;  0.0000000E+00;  0.0000000E+00;  0.0000000E+00;  1.0000000E+03;  4.0000001E-01;  0.0000000E+00;0;  0.0000000E+00;  0.0000000E+00;  0.0000000E+00;0;  0.0000000E+00;  1.0000000E+04;  0.0000000E+00;  0.0000000E+00;  1.0000000E+04;  0.0000000E+00;  1.0000000E+04;  0.0000000E+00;  0.0000000E+00;  0.0000000E+00;  0.0000000E+00;
  2.1600001E+00;  9.9999998E-03;  1.0000000E-01;916;  0.0000000E+00;  0.0000000E+00;  0.0000000E+00;  1.0000000E+03;  4.0000001E-01;  0.0000000E+00;0;  0.0000000E+00;  0.0000000E+00;  0.0000000E+00;0;  0.0000000E+00;  1.0000000E+04;  0.0000000E+00;  0.0000000E+00;  1.0000000E+04;  0.0000000E+00;  1.0000000E+04;  0.0000000E+00;  0.0000000E+00;  0.0000000E+00;  0.0000000E+00;
  2.1600001E+00;  9.9999998E-03;  1.2000000E-01;917;  0.0000000E+00;  0.0000000E+00;  0.0000000E+00;  1.0000000E+03;  4.0000001E-01;  0.0000000E+00;0;  0.0000000E+00;  0.0000000E+00;  0.0000000E+00;0;  0.0000000E+00;  1.0000000E+04;  0.0000000E+00;  0.0000000E+00;  1.0000000E+04;  0.0000000E+00;  1.0000000E+04;  0.0000000E+00;  0.0000000E+00;  0.0000000E+00;  0.0000000E+00;
  2.1600001E+00;  9.9999998E-03;  1.4000000E-01;918;  0.0000000E+00;  0.0000000E+00;  0.0000000E+00;  1.0000000E+03;  4.0000001E-01;  0.0000000E+00;0;  0.0000000E+00;  0.0000000E+00;  0.0000000E+00;0;  0.0000000E+00;  1.0000000E+04;  0.0000000E+00;  0.0000000E+00;  1.0000000E+04;  0.0000000E+00;  1.0000000E+04;  0.0000000E+00;  0.0000000E+00;  0.0000000E+00;  0.0000000E+00;
  2.1600001E+00;  9.9999998E-03;  1.6000000E-01;919;  0.0000000E+00;  0.0000000E+00;  0.0000000E+00;  1.0000000E+03;  4.0000001E-01;  0.0000000E+00;0;  0.0000000E+00;  0.0000000E+00;  0.0000000E+00;0;  0.0000000E+00;  1.0000000E+04;  0.0000000E+00;  0.0000000E+00;  1.0000000E+04;  0.0000000E+00;  1.0000000E+04;  0.0000000E+00;  0.0000000E+00;  0.0000000E+00;  0.0000000E+00;
  2.1600001E+00;  9.9999998E-03;  1.8000001E-01;920;  0.0000000E+00;  0.0000000E+00;  0.0000000E+00;  1.0000000E+03;  4.0000001E-01;  0.0000000E+00;0;  0.0000000E+00;  0.0000000E+00;  0.0000000E+00;0;  0.0000000E+00;  1.0000000E+04;  0.0000000E+00;  0.0000000E+00;  1.0000000E+04;  0.0000000E+00;  1.0000000E+04;  0.0000000E+00;  0.0000000E+00;  0.0000000E+00;  0.0000000E+00;
  2.1600001E+00;  9.9999998E-03;  2.0000000E-01;921;  0.0000000E+00;  0.0000000E+00;  0.0000000E+00;  1.0000000E+03;  4.0000001E-01;  0.0000000E+00;0;  0.0000000E+00;  0.0000000E+00;  0.0000000E+00;0;  0.0000000E+00;  1.0000000E+04;  0.0000000E+00;  0.0000000E+00;  1.0000000E+04;  0.0000000E+00;  1.0000000E+04;  0.0000000E+00;  0.0000000E+00;  0.0000000E+00;  0.0000000E+00;
  2.1600001E+00;  9.9999998E-03;  2.2000000E-01;922;  0.0000000E+00;  0.0000000E+00;  0.0000000E+00;  1.0000000E+03;  4.0000001E-01;  0.0000000E+00;0;  0.0000000E+00;  0.0000000E+00;  0.0000000E+00;0;  0.0000000E+00;  1.0000000E+04;  0.0000000E+00;  0.0000000E+00;  1.0000000E+04;  0.0000000E+00;  1.0000000E+04;  0.0000000E+00;  0.0000000E+00;  0.0000000E+00;  0.0000000E+00;
  2.1600001E+00;  9.9999998E-03;  2.3999999E-01;923;  0.0000000E+00;  0.0000000E+00;  0.0000000E+00;  1.0000000E+03;  4.0000001E-01;  0.0000000E+00;0;  0.0000000E+00;  0.0000000E+00;  0.0000000E+00;0;  0.0000000E+00;  1.0000000E+04;  0.0000000E+00;  0.0000000E+00;  1.0000000E+04;  0.0000000E+00;  1.0000000E+04;  0.0000000E+00;  0.0000000E+00;  0.0000000E+00;  0.0000000E+00;
  2.1600001E+00;  9.9999998E-03;  2.5999999E-01;924;  0.0000000E+00;  0.0000000E+00;  0.0000000E+00;  1.0000000E+03;  4.0000001E-01;  0.0000000E+00;0;  0.0000000E+00;  0.0000000E+00;  0.0000000E+00;0;  0.0000000E+00;  1.0000000E+04;  0.0000000E+00;  0.0000000E+00;  1.0000000E+04;  0.0000000E+00;  1.0000000E+04;  0.0000000E+00;  0.0000000E+00;  0.0000000E+00;  0.0000000E+00;
  2.1600001E+00;  9.9999998E-03;  2.8000000E-01;925;  0.0000000E+00;  0.0000000E+00;  0.0000000E+00;  1.0000000E+03;  4.0000001E-01;  0.0000000E+00;0;  0.0000000E+00;  0.0000000E+00;  0.0000000E+00;0;  0.0000000E+00;  1.0000000E+04;  0.0000000E+00;  0.0000000E+00;  1.0000000E+04;  0.0000000E+00;  1.0000000E+04;  0.0000000E+00;  0.0000000E+00;  0.0000000E+00;  0.0000000E+00;
  2.1600001E+00;  9.9999998E-03;  3.0000001E-01;926;  0.0000000E+00;  0.0000000E+00;  0.0000000E+00;  1.0000000E+03;  4.0000001E-01;  0.0000000E+00;0;  0.0000000E+00;  0.0000000E+00;  0.0000000E+00;0;  0.0000000E+00;  1.0000000E+04;  0.0000000E+00;  0.0000000E+00;  1.0000000E+04;  0.0000000E+00;  1.0000000E+04;  0.0000000E+00;  0.0000000E+00;  0.0000000E+00;  0.0000000E+00;
  2.1600001E+00;  9.9999998E-03;  3.1999999E-01;927;  0.0000000E+00;  0.0000000E+00;  0.0000000E+00;  1.0000000E+03;  4.0000001E-01;  0.0000000E+00;0;  0.0000000E+00;  0.0000000E+00;  0.0000000E+00;0;  0.0000000E+00;  1.0000000E+04;  0.0000000E+00;  0.0000000E+00;  1.0000000E+04;  0.0000000E+00;  1.0000000E+04;  0.0000000E+00;  0.0000000E+00;  0.0000000E+00;  0.0000000E+00;
  2.1600001E+00;  9.9999998E-03;  3.4000000E-01;928;  0.0000000E+00;  0.0000000E+00;  0.0000000E+00;  1.0000000E+03;  4.0000001E-01;  0.0000000E+00;0;  0.0000000E+00;  0.0000000E+00;  0.0000000E+00;0;  0.0000000E+00;  1.0000000E+04;  0.0000000E+00;  0.0000000E+00;  1.0000000E+04;  0.0000000E+00;  1.0000000E+04;  0.0000000E+00;  0.0000000E+00;  0.0000000E+00;  0.0000000E+00;
  2.1600001E+00;  9.9999998E-03;  3.6000001E-01;929;  0.0000000E+00;  0.0000000E+00;  0.0000000E+00;  1.0000000E+03;  4.0000001E-01;  0.0000000E+00;0;  0.0000000E+00;  0.0000000E+00;  0.0000000E+00;0;  0.0000000E+00;  1.0000000E+04;  0.0000000E+00;  0.0000000E+00;  1.0000000E+04;  0.0000000E+00;  1.0000000E+04;  0.0000000E+00;  0.0000000E+00;  0.0000000E+00;  0.0000000E+00;
  2.1600001E+00;  9.9999998E-03;  3.8000000E-01;930;  0.0000000E+00;  0.0000000E+00;  0.0000000E+00;  1.0000000E+03;  4.0000001E-01;  0.0000000E+00;0;  0.0000000E+00;  0.0000000E+00;  0.0000000E+00;0;  0.0000000E+00;  1.0000000E+04;  0.0000000E+00;  0.0000000E+00;  1.0000000E+04;  0.0000000E+00;  1.0000000E+04;  0.0000000E+00;  0.0000000E+00;  0.0000000E+00;  0.0000000E+00;
  2.1600001E+00;  9.9999998E-03;  4.0000001E-01;931;  0.0000000E+00;  0.0000000E+00;  0.0000000E+00;  1.0000000E+03;  4.0000001E-01;  0.0000000E+00;0;  0.0000000E+00;  0.0000000E+00;  0.0000000E+00;0;  0.0000000E+00;  1.0000000E+04;  0.0000000E+00;  0.0000000E+00;  1.0000000E+04;  0.0000000E+00;  1.0000000E+04;  0.0000000E+00;  0.0000000E+00;  0.0000000E+00;  0.0000000E+00;
  2.1800001E+00;  9.9999998E-03; -1.8000001E-01;932;  0.0000000E+00;  0.0000000E+00;  0.0000000E+00;  1.0000000E+03;  4.0000001E-01;  0.0000000E+00;0;  0.0000000E+00;  0.0000000E+00;  0.0000000E+00;0;  0.0000000E+00;  1.0000000E+04;  0.0000000E+00;  0.0000000E+00;  1.0000000E+04;  0.0000000E+00;  1.0000000E+04;  0.0000000E+00;  0.0000000E+00;  0.0000000E+00;  0.0000000E+00;
  2.1800001E+00;  9.9999998E-03; -1.6000000E-01;933;  0.0000000E+00;  0.0000000E+00;  0.0000000E+00;  1.0000000E+03;  4.0000001E-01;  0.0000000E+00;0;  0.0000000E+00;  0.0000000E+00;  0.0000000E+00;0;  0.0000000E+00;  1.0000000E+04;  0.0000000E+00;  0.0000000E+00;  1.0000000E+04;  0.0000000E+00;  1.0000000E+04;  0.0000000E+00;  0.0000000E+00;  0.0000000E+00;  0.0000000E+00;
  2.1800001E+00;  9.9999998E-03; -1.4000000E-01;934;  0.0000000E+00;  0.0000000E+00;  0.0000000E+00;  1.0000000E+03;  4.0000001E-01;  0.0000000E+00;0;  0.0000000E+00;  0.0000000E+00;  0.0000000E+00;0;  0.0000000E+00;  1.0000000E+04;  0.0000000E+00;  0.0000000E+00;  1.0000000E+04;  0.0000000E+00;  1.0000000E+04;  0.0000000E+00;  0.0000000E+00;  0.0000000E+00;  0.0000000E+00;
  2.1800001E+00;  9.9999998E-03; -1.2000000E-01;935;  0.0000000E+00;  0.0000000E+00;  0.0000000E+00;  1.0000000E+03;  4.0000001E-01;  0.0000000E+00;0;  0.0000000E+00;  0.0000000E+00;  0.0000000E+00;0;  0.0000000E+00;  1.0000000E+04;  0.0000000E+00;  0.0000000E+00;  1.0000000E+04;  0.0000000E+00;  1.0000000E+04;  0.0000000E+00;  0.0000000E+00;  0.0000000E+00;  0.0000000E+00;
  2.1800001E+00;  9.9999998E-03; -1.0000000E-01;936;  0.0000000E+00;  0.0000000E+00;  0.0000000E+00;  1.0000000E+03;  4.0000001E-01;  0.0000000E+00;0;  0.0000000E+00;  0.0000000E+00;  0.0000000E+00;0;  0.0000000E+00;  1.0000000E+04;  0.0000000E+00;  0.0000000E+00;  1.0000000E+04;  0.0000000E+00;  1.0000000E+04;  0.0000000E+00;  0.0000000E+00;  0.0000000E+00;  0.0000000E+00;
  2.1800001E+00;  9.9999998E-03; -7.9999998E-02;937;  0.0000000E+00;  0.0000000E+00;  0.0000000E+00;  1.0000000E+03;  4.0000001E-01;  0.0000000E+00;0;  0.0000000E+00;  0.0000000E+00;  0.0000000E+00;0;  0.0000000E+00;  1.0000000E+04;  0.0000000E+00;  0.0000000E+00;  1.0000000E+04;  0.0000000E+00;  1.0000000E+04;  0.0000000E+00;  0.0000000E+00;  0.0000000E+00;  0.0000000E+00;
  2.1800001E+00;  9.9999998E-03; -5.9999999E-02;938;  0.0000000E+00;  0.0000000E+00;  0.0000000E+00;  1.0000000E+03;  4.0000001E-01;  0.0000000E+00;0;  0.0000000E+00;  0.0000000E+00;  0.0000000E+00;0;  0.0000000E+00;  1.0000000E+04;  0.0000000E+00;  0.0000000E+00;  1.0000000E+04;  0.0000000E+00;  1.0000000E+04;  0.0000000E+00;  0.0000000E+00;  0.0000000E+00;  0.0000000E+00;
  2.1800001E+00;  9.9999998E-03; -3.9999999E-02;939;  0.0000000E+00;  0.0000000E+00;  0.0000000E+00;  1.0000000E+03;  4.0000001E-01;  0.0000000E+00;0;  0.0000000E+00;  0.0000000E+00;  0.0000000E+00;0;  0.0000000E+00;  1.0000000E+04;  0.0000000E+00;  0.0000000E+00;  1.0000000E+04;  0.0000000E+00;  1.0000000E+04;  0.0000000E+00;  0.0000000E+00;  0.0000000E+00;  0.0000000E+00;
  2.1800001E+00;  9.9999998E-03; -2.0000000E-02;940;  0.0000000E+00;  0.0000000E+00;  0.0000000E+00;  1.0000000E+03;  4.0000001E-01;  0.0000000E+00;0;  0.0000000E+00;  0.0000000E+00;  0.0000000E+00;0;  0.0000000E+00;  1.0000000E+04;  0.0000000E+00;  0.0000000E+00;  1.0000000E+04;  0.0000000E+00;  1.0000000E+04;  0.0000000E+00;  0.0000000E+00;  0.0000000E+00;  0.0000000E+00;
  2.1800001E+00;  9.9999998E-03;  0.0000000E+00;941;  0.0000000E+00;  0.0000000E+00;  0.0000000E+00;  1.0000000E+03;  4.0000001E-01;  0.0000000E+00;0;  0.0000000E+00;  0.0000000E+00;  0.0000000E+00;0;  0.0000000E+00;  1.0000000E+04;  0.0000000E+00;  0.0000000E+00;  1.0000000E+04;  0.0000000E+00;  1.0000000E+04;  0.0000000E+00;  0.0000000E+00;  0.0000000E+00;  0.0000000E+00;
  2.1800001E+00;  9.9999998E-03;  2.0000000E-02;942;  0.0000000E+00;  0.0000000E+00;  0.0000000E+00;  1.0000000E+03;  4.0000001E-01;  0.0000000E+00;0;  0.0000000E+00;  0.0000000E+00;  0.0000000E+00;0;  0.0000000E+00;  1.0000000E+04;  0.0000000E+00;  0.0000000E+00;  1.0000000E+04;  0.0000000E+00;  1.0000000E+04;  0.0000000E+00;  0.0000000E+00;  0.0000000E+00;  0.0000000E+00;
  2.1800001E+00;  9.9999998E-03;  3.9999999E-02;943;  0.0000000E+00;  0.0000000E+00;  0.0000000E+00;  1.0000000E+03;  4.0000001E-01;  0.0000000E+00;0;  0.0000000E+00;  0.0000000E+00;  0.0000000E+00;0;  0.0000000E+00;  1.0000000E+04;  0.0000000E+00;  0.0000000E+00;  1.0000000E+04;  0.0000000E+00;  1.0000000E+04;  0.0000000E+00;  0.0000000E+00;  0.0000000E+00;  0.0000000E+00;
  2.1800001E+00;  9.9999998E-03;  5.9999999E-02;944;  0.0000000E+00;  0.0000000E+00;  0.0000000E+00;  1.0000000E+03;  4.0000001E-01;  0.0000000E+00;0;  0.0000000E+00;  0.0000000E+00;  0.0000000E+00;0;  0.0000000E+00;  1.0000000E+04;  0.0000000E+00;  0.0000000E+00;  1.0000000E+04;  0.0000000E+00;  1.0000000E+04;  0.0000000E+00;  0.0000000E+00;  0.0000000E+00;  0.0000000E+00;
  2.1800001E+00;  9.9999998E-03;  7.9999998E-02;945;  0.0000000E+00;  0.0000000E+00;  0.0000000E+00;  1.0000000E+03;  4.0000001E-01;  0.0000000E+00;0;  0.0000000E+00;  0.0000000E+00;  0.0000000E+00;0;  0.0000000E+00;  1.0000000E+04;  0.0000000E+00;  0.0000000E+00;  1.0000000E+04;  0.0000000E+00;  1.0000000E+04;  0.0000000E+00;  0.0000000E+00;  0.0000000E+00;  0.0000000E+00;
  2.1800001E+00;  9.9999998E-03;  1.0000000E-01;946;  0.0000000E+00;  0.0000000E+00;  0.0000000E+00;  1.0000000E+03;  4.0000001E-01;  0.0000000E+00;0;  0.0000000E+00;  0.0000000E+00;  0.0000000E+00;0;  0.0000000E+00;  1.0000000E+04;  0.0000000E+00;  0.0000000E+00;  1.0000000E+04;  0.0000000E+00;  1.0000000E+04;  0.0000000E+00;  0.0000000E+00;  0.0000000E+00;  0.0000000E+00;
  2.1800001E+00;  9.9999998E-03;  1.2000000E-01;947;  0.0000000E+00;  0.0000000E+00;  0.0000000E+00;  1.0000000E+03;  4.0000001E-01;  0.0000000E+00;0;  0.0000000E+00;  0.0000000E+00;  0.0000000E+00;0;  0.0000000E+00;  1.0000000E+04;  0.0000000E+00;  0.0000000E+00;  1.0000000E+04;  0.0000000E+00;  1.0000000E+04;  0.0000000E+00;  0.0000000E+00;  0.0000000E+00;  0.0000000E+00;
  2.1800001E+00;  9.9999998E-03;  1.4000000E-01;948;  0.0000000E+00;  0.0000000E+00;  0.0000000E+00;  1.0000000E+03;  4.0000001E-01;  0.0000000E+00;0;  0.0000000E+00;  0.0000000E+00;  0.0000000E+00;0;  0.0000000E+00;  1.0000000E+04;  0.0000000E+00;  0.0000000E+00;  1.0000000E+04;  0.0000000E+00;  1.0000000E+04;  0.0000000E+00;  0.0000000E+00;  0.0000000E+00;  0.0000000E+00;
  2.1800001E+00;  9.9999998E-03;  1.6000000E-01;949;  0.0000000E+00;  0.0000000E+00;  0.0000000E+00;  1.0000000E+03;  4.0000001E-01;  0.0000000E+00;0;  0.0000000E+00;  0.0000000E+00;  0.0000000E+00;0;  0.0000000E+00;  1.0000000E+04;  0.0000000E+00;  0.0000000E+00;  1.0000000E+04;  0.0000000E+00;  1.0000000E+04;  0.0000000E+00;  0.0000000E+00;  0.0000000E+00;  0.0000000E+00;
  2.1800001E+00;  9.9999998E-03;  1.8000001E-01;950;  0.0000000E+00;  0.0000000E+00;  0.0000000E+00;  1.0000000E+03;  4.0000001E-01;  0.0000000E+00;0;  0.0000000E+00;  0.0000000E+00;  0.0000000E+00;0;  0.0000000E+00;  1.0000000E+04;  0.0000000E+00;  0.0000000E+00;  1.0000000E+04;  0.0000000E+00;  1.0000000E+04;  0.0000000E+00;  0.0000000E+00;  0.0000000E+00;  0.0000000E+00;
  2.1800001E+00;  9.9999998E-03;  2.0000000E-01;951;  0.0000000E+00;  0.0000000E+00;  0.0000000E+00;  1.0000000E+03;  4.0000001E-01;  0.0000000E+00;0;  0.0000000E+00;  0.0000000E+00;  0.0000000E+00;0;  0.0000000E+00;  1.0000000E+04;  0.0000000E+00;  0.0000000E+00;  1.0000000E+04;  0.0000000E+00;  1.0000000E+04;  0.0000000E+00;  0.0000000E+00;  0.0000000E+00;  0.0000000E+00;
  2.1800001E+00;  9.9999998E-03;  2.2000000E-01;952;  0.0000000E+00;  0.0000000E+00;  0.0000000E+00;  1.0000000E+03;  4.0000001E-01;  0.0000000E+00;0;  0.0000000E+00;  0.0000000E+00;  0.0000000E+00;0;  0.0000000E+00;  1.0000000E+04;  0.0000000E+00;  0.0000000E+00;  1.0000000E+04;  0.0000000E+00;  1.0000000E+04;  0.0000000E+00;  0.0000000E+00;  0.0000000E+00;  0.0000000E+00;
  2.1800001E+00;  9.9999998E-03;  2.3999999E-01;953;  0.0000000E+00;  0.0000000E+00;  0.0000000E+00;  1.0000000E+03;  4.0000001E-01;  0.0000000E+00;0;  0.0000000E+00;  0.0000000E+00;  0.0000000E+00;0;  0.0000000E+00;  1.0000000E+04;  0.0000000E+00;  0.0000000E+00;  1.0000000E+04;  0.0000000E+00;  1.0000000E+04;  0.0000000E+00;  0.0000000E+00;  0.0000000E+00;  0.0000000E+00;
  2.1800001E+00;  9.9999998E-03;  2.5999999E-01;954;  0.0000000E+00;  0.0000000E+00;  0.0000000E+00;  1.0000000E+03;  4.0000001E-01;  0.0000000E+00;0;  0.0000000E+00;  0.0000000E+00;  0.0000000E+00;0;  0.0000000E+00;  1.0000000E+04;  0.0000000E+00;  0.0000000E+00;  1.0000000E+04;  0.0000000E+00;  1.0000000E+04;  0.0000000E+00;  0.0000000E+00;  0.0000000E+00;  0.0000000E+00;
  2.1800001E+00;  9.9999998E-03;  2.8000000E-01;955;  0.0000000E+00;  0.0000000E+00;  0.0000000E+00;  1.0000000E+03;  4.0000001E-01;  0.0000000E+00;0;  0.0000000E+00;  0.0000000E+00;  0.0000000E+00;0;  0.0000000E+00;  1.0000000E+04;  0.0000000E+00;  0.0000000E+00;  1.0000000E+04;  0.0000000E+00;  1.0000000E+04;  0.0000000E+00;  0.0000000E+00;  0.0000000E+00;  0.0000000E+00;
  2.1800001E+00;  9.9999998E-03;  3.0000001E-01;956;  0.0000000E+00;  0.0000000E+00;  0.0000000E+00;  1.0000000E+03;  4.0000001E-01;  0.0000000E+00;0;  0.0000000E+00;  0.0000000E+00;  0.0000000E+00;0;  0.0000000E+00;  1.0000000E+04;  0.0000000E+00;  0.0000000E+00;  1.0000000E+04;  0.0000000E+00;  1.0000000E+04;  0.0000000E+00;  0.0000000E+00;  0.0000000E+00;  0.0000000E+00;
  2.1800001E+00;  9.9999998E-03;  3.1999999E-01;957;  0.0000000E+00;  0.0000000E+00;  0.0000000E+00;  1.0000000E+03;  4.0000001E-01;  0.0000000E+00;0;  0.0000000E+00;  0.0000000E+00;  0.0000000E+00;0;  0.0000000E+00;  1.0000000E+04;  0.0000000E+00;  0.0000000E+00;  1.0000000E+04;  0.0000000E+00;  1.0000000E+04;  0.0000000E+00;  0.0000000E+00;  0.0000000E+00;  0.0000000E+00;
  2.1800001E+00;  9.9999998E-03;  3.4000000E-01;958;  0.0000000E+00;  0.0000000E+00;  0.0000000E+00;  1.0000000E+03;  4.0000001E-01;  0.0000000E+00;0;  0.0000000E+00;  0.0000000E+00;  0.0000000E+00;0;  0.0000000E+00;  1.0000000E+04;  0.0000000E+00;  0.0000000E+00;  1.0000000E+04;  0.0000000E+00;  1.0000000E+04;  0.0000000E+00;  0.0000000E+00;  0.0000000E+00;  0.0000000E+00;
  2.1800001E+00;  9.9999998E-03;  3.6000001E-01;959;  0.0000000E+00;  0.0000000E+00;  0.0000000E+00;  1.0000000E+03;  4.0000001E-01;  0.0000000E+00;0;  0.0000000E+00;  0.0000000E+00;  0.0000000E+00;0;  0.0000000E+00;  1.0000000E+04;  0.0000000E+00;  0.0000000E+00;  1.0000000E+04;  0.0000000E+00;  1.0000000E+04;  0.0000000E+00;  0.0000000E+00;  0.0000000E+00;  0.0000000E+00;
  2.1800001E+00;  9.9999998E-03;  3.8000000E-01;960;  0.0000000E+00;  0.0000000E+00;  0.0000000E+00;  1.0000000E+03;  4.0000001E-01;  0.0000000E+00;0;  0.0000000E+00;  0.0000000E+00;  0.0000000E+00;0;  0.0000000E+00;  1.0000000E+04;  0.0000000E+00;  0.0000000E+00;  1.0000000E+04;  0.0000000E+00;  1.0000000E+04;  0.0000000E+00;  0.0000000E+00;  0.0000000E+00;  0.0000000E+00;
  2.1800001E+00;  9.9999998E-03;  4.0000001E-01;961;  0.0000000E+00;  0.0000000E+00;  0.0000000E+00;  1.0000000E+03;  4.0000001E-01;  0.0000000E+00;0;  0.0000000E+00;  0.0000000E+00;  0.0000000E+00;0;  0.0000000E+00;  1.0000000E+04;  0.0000000E+00;  0.0000000E+00;  1.0000000E+04;  0.0000000E+00;  1.0000000E+04;  0.0000000E+00;  0.0000000E+00;  0.0000000E+00;  0.0000000E+00;
  2.2000000E+00;  9.9999998E-03; -7.9999998E-02;962;  0.0000000E+00;  0.0000000E+00;  0.0000000E+00;  1.0000000E+03;  4.0000001E-01;  0.0000000E+00;0;  0.0000000E+00;  0.0000000E+00;  0.0000000E+00;0;  0.0000000E+00;  1.0000000E+04;  0.0000000E+00;  0.0000000E+00;  1.0000000E+04;  0.0000000E+00;  1.0000000E+04;  0.0000000E+00;  0.0000000E+00;  0.0000000E+00;  0.0000000E+00;
  2.2000000E+00;  9.9999998E-03; -5.9999999E-02;963;  0.0000000E+00;  0.0000000E+00;  0.0000000E+00;  1.0000000E+03;  4.0000001E-01;  0.0000000E+00;0;  0.0000000E+00;  0.0000000E+00;  0.0000000E+00;0;  0.0000000E+00;  1.0000000E+04;  0.0000000E+00;  0.0000000E+00;  1.0000000E+04;  0.0000000E+00;  1.0000000E+04;  0.0000000E+00;  0.0000000E+00;  0.0000000E+00;  0.0000000E+00;
  2.2000000E+00;  9.9999998E-03; -3.9999999E-02;964;  0.0000000E+00;  0.0000000E+00;  0.0000000E+00;  1.0000000E+03;  4.0000001E-01;  0.0000000E+00;0;  0.0000000E+00;  0.0000000E+00;  0.0000000E+00;0;  0.0000000E+00;  1.0000000E+04;  0.0000000E+00;  0.0000000E+00;  1.0000000E+04;  0.0000000E+00;  1.0000000E+04;  0.0000000E+00;  0.0000000E+00;  0.0000000E+00;  0.0000000E+00;
  2.2000000E+00;  9.9999998E-03; -2.0000000E-02;965;  0.0000000E+00;  0.0000000E+00;  0.0000000E+00;  1.0000000E+03;  4.0000001E-01;  0.0000000E+00;0;  0.0000000E+00;  0.0000000E+00;  0.0000000E+00;0;  0.0000000E+00;  1.0000000E+04;  0.0000000E+00;  0.0000000E+00;  1.0000000E+04;  0.0000000E+00;  1.0000000E+04;  0.0000000E+00;  0.0000000E+00;  0.0000000E+00;  0.0000000E+00;
  2.2000000E+00;  9.9999998E-03;  0.0000000E+00;966;  0.0000000E+00;  0.0000000E+00;  0.0000000E+00;  1.0000000E+03;  4.0000001E-01;  0.0000000E+00;0;  0.0000000E+00;  0.0000000E+00;  0.0000000E+00;0;  0.0000000E+00;  1.0000000E+04;  0.0000000E+00;  0.0000000E+00;  1.0000000E+04;  0.0000000E+00;  1.0000000E+04;  0.0000000E+00;  0.0000000E+00;  0.0000000E+00;  0.0000000E+00;
  2.2000000E+00;  9.9999998E-03;  2.0000000E-02;967;  0.0000000E+00;  0.0000000E+00;  0.0000000E+00;  1.0000000E+03;  4.0000001E-01;  0.0000000E+00;0;  0.0000000E+00;  0.0000000E+00;  0.0000000E+00;0;  0.0000000E+00;  1.0000000E+04;  0.0000000E+00;  0.0000000E+00;  1.0000000E+04;  0.0000000E+00;  1.0000000E+04;  0.0000000E+00;  0.0000000E+00;  0.0000000E+00;  0.0000000E+00;
  2.2000000E+00;  9.9999998E-03;  3.9999999E-02;968;  0.0000000E+00;  0.0000000E+00;  0.0000000E+00;  1.0000000E+03;  4.0000001E-01;  0.0000000E+00;0;  0.0000000E+00;  0.0000000E+00;  0.0000000E+00;0;  0.0000000E+00;  1.0000000E+04;  0.0000000E+00;  0.0000000E+00;  1.0000000E+04;  0.0000000E+00;  1.0000000E+04;  0.0000000E+00;  0.0000000E+00;  0.0000000E+00;  0.0000000E+00;
  2.2000000E+00;  9.9999998E-03;  5.9999999E-02;969;  0.0000000E+00;  0.0000000E+00;  0.0000000E+00;  1.0000000E+03;  4.0000001E-01;  0.0000000E+00;0;  0.0000000E+00;  0.0000000E+00;  0.0000000E+00;0;  0.0000000E+00;  1.0000000E+04;  0.0000000E+00;  0.0000000E+00;  1.0000000E+04;  0.0000000E+00;  1.0000000E+04;  0.0000000E+00;  0.0000000E+00;  0.0000000E+00;  0.0000000E+00;
  2.2000000E+00;  9.9999998E-03;  7.9999998E-02;970;  0.0000000E+00;  0.0000000E+00;  0.0000000E+00;  1.0000000E+03;  4.0000001E-01;  0.0000000E+00;0;  0.0000000E+00;  0.0000000E+00;  0.0000000E+00;0;  0.0000000E+00;  1.0000000E+04;  0.0000000E+00;  0.0000000E+00;  1.0000000E+04;  0.0000000E+00;  1.0000000E+04;  0.0000000E+00;  0.0000000E+00;  0.0000000E+00;  0.0000000E+00;
  2.2000000E+00;  9.9999998E-03;  1.0000000E-01;971;  0.0000000E+00;  0.0000000E+00;  0.0000000E+00;  1.0000000E+03;  4.0000001E-01;  0.0000000E+00;0;  0.0000000E+00;  0.0000000E+00;  0.0000000E+00;0;  0.0000000E+00;  1.0000000E+04;  0.0000000E+00;  0.0000000E+00;  1.0000000E+04;  0.0000000E+00;  1.0000000E+04;  0.0000000E+00;  0.0000000E+00;  0.0000000E+00;  0.0000000E+00;
  2.2000000E+00;  9.9999998E-03;  1.2000000E-01;972;  0.0000000E+00;  0.0000000E+00;  0.0000000E+00;  1.0000000E+03;  4.0000001E-01;  0.0000000E+00;0;  0.0000000E+00;  0.0000000E+00;  0.0000000E+00;0;  0.0000000E+00;  1.0000000E+04;  0.0000000E+00;  0.0000000E+00;  1.0000000E+04;  0.0000000E+00;  1.0000000E+04;  0.0000000E+00;  0.0000000E+00;  0.0000000E+00;  0.0000000E+00;
  2.2000000E+00;  9.9999998E-03;  1.4000000E-01;973;  0.0000000E+00;  0.0000000E+00;  0.0000000E+00;  1.0000000E+03;  4.0000001E-01;  0.0000000E+00;0;  0.0000000E+00;  0.0000000E+00;  0.0000000E+00;0;  0.0000000E+00;  1.0000000E+04;  0.0000000E+00;  0.0000000E+00;  1.0000000E+04;  0.0000000E+00;  1.0000000E+04;  0.0000000E+00;  0.0000000E+00;  0.0000000E+00;  0.0000000E+00;
  2.2000000E+00;  9.9999998E-03;  1.6000000E-01;974;  0.0000000E+00;  0.0000000E+00;  0.0000000E+00;  1.0000000E+03;  4.0000001E-01;  0.0000000E+00;0;  0.0000000E+00;  0.0000000E+00;  0.0000000E+00;0;  0.0000000E+00;  1.0000000E+04;  0.0000000E+00;  0.0000000E+00;  1.0000000E+04;  0.0000000E+00;  1.0000000E+04;  0.0000000E+00;  0.0000000E+00;  0.0000000E+00;  0.0000000E+00;
  2.2000000E+00;  9.9999998E-03;  1.8000001E-01;975;  0.0000000E+00;  0.0000000E+00;  0.0000000E+00;  1.0000000E+03;  4.0000001E-01;  0.0000000E+00;0;  0.0000000E+00;  0.0000000E+00;  0.0000000E+00;0;  0.0000000E+00;  1.0000000E+04;  0.0000000E+00;  0.0000000E+00;  1.0000000E+04;  0.0000000E+00;  1.0000000E+04;  0.0000000E+00;  0.0000000E+00;  0.0000000E+00;  0.0000000E+00;
  2.2000000E+00;  9.9999998E-03;  2.0000000E-01;976;  0.0000000E+00;  0.0000000E+00;  0.0000000E+00;  1.0000000E+03;  4.0000001E-01;  0.0000000E+00;0;  0.0000000E+00;  0.0000000E+00;  0.0000000E+00;0;  0.0000000E+00;  1.0000000E+04;  0.0000000E+00;  0.0000000E+00;  1.0000000E+04;  0.0000000E+00;  1.0000000E+04;  0.0000000E+00;  0.0000000E+00;  0.0000000E+00;  0.0000000E+00;
  2.2000000E+00;  9.9999998E-03;  2.2000000E-01;977;  0.0000000E+00;  0.0000000E+00;  0.0000000E+00;  1.0000000E+03;  4.0000001E-01;  0.0000000E+00;0;  0.0000000E+00;  0.0000000E+00;  0.0000000E+00;0;  0.0000000E+00;  1.0000000E+04;  0.0000000E+00;  0.0000000E+00;  1.0000000E+04;  0.0000000E+00;  1.0000000E+04;  0.0000000E+00;  0.0000000E+00;  0.0000000E+00;  0.0000000E+00;
  2.2000000E+00;  9.9999998E-03;  2.3999999E-01;978;  0.0000000E+00;  0.0000000E+00;  0.0000000E+00;  1.0000000E+03;  4.0000001E-01;  0.0000000E+00;0;  0.0000000E+00;  0.0000000E+00;  0.0000000E+00;0;  0.0000000E+00;  1.0000000E+04;  0.0000000E+00;  0.0000000E+00;  1.0000000E+04;  0.0000000E+00;  1.0000000E+04;  0.0000000E+00;  0.0000000E+00;  0.0000000E+00;  0.0000000E+00;
  2.2000000E+00;  9.9999998E-03;  2.5999999E-01;979;  0.0000000E+00;  0.0000000E+00;  0.0000000E+00;  1.0000000E+03;  4.0000001E-01;  0.0000000E+00;0;  0.0000000E+00;  0.0000000E+00;  0.0000000E+00;0;  0.0000000E+00;  1.0000000E+04;  0.0000000E+00;  0.0000000E+00;  1.0000000E+04;  0.0000000E+00;  1.0000000E+04;  0.0000000E+00;  0.0000000E+00;  0.0000000E+00;  0.0000000E+00;
  2.2000000E+00;  9.9999998E-03;  2.8000000E-01;980;  0.0000000E+00;  0.0000000E+00;  0.0000000E+00;  1.0000000E+03;  4.0000001E-01;  0.0000000E+00;0;  0.0000000E+00;  0.0000000E+00;  0.0000000E+00;0;  0.0000000E+00;  1.0000000E+04;  0.0000000E+00;  0.0000000E+00;  1.0000000E+04;  0.0000000E+00;  1.0000000E+04;  0.0000000E+00;  0.0000000E+00;  0.0000000E+00;  0.0000000E+00;
  2.2000000E+00;  9.9999998E-03;  3.0000001E-01;981;  0.0000000E+00;  0.0000000E+00;  0.0000000E+00;  1.0000000E+03;  4.0000001E-01;  0.0000000E+00;0;  0.0000000E+00;  0.0000000E+00;  0.0000000E+00;0;  0.0000000E+00;  1.0000000E+04;  0.0000000E+00;  0.0000000E+00;  1.0000000E+04;  0.0000000E+00;  1.0000000E+04;  0.0000000E+00;  0.0000000E+00;  0.0000000E+00;  0.0000000E+00;
  2.2000000E+00;  9.9999998E-03;  3.1999999E-01;982;  0.0000000E+00;  0.0000000E+00;  0.0000000E+00;  1.0000000E+03;  4.0000001E-01;  0.0000000E+00;0;  0.0000000E+00;  0.0000000E+00;  0.0000000E+00;0;  0.0000000E+00;  1.0000000E+04;  0.0000000E+00;  0.0000000E+00;  1.0000000E+04;  0.0000000E+00;  1.0000000E+04;  0.0000000E+00;  0.0000000E+00;  0.0000000E+00;  0.0000000E+00;
  2.2000000E+00;  9.9999998E-03;  3.4000000E-01;983;  0.0000000E+00;  0.0000000E+00;  0.0000000E+00;  1.0000000E+03;  4.0000001E-01;  0.0000000E+00;0;  0.0000000E+00;  0.0000000E+00;  0.0000000E+00;0;  0.0000000E+00;  1.0000000E+04;  0.0000000E+00;  0.0000000E+00;  1.0000000E+04;  0.0000000E+00;  1.0000000E+04;  0.0000000E+00;  0.0000000E+00;  0.0000000E+00;  0.0000000E+00;
  2.2000000E+00;  9.9999998E-03;  3.6000001E-01;984;  0.0000000E+00;  0.0000000E+00;  0.0000000E+00;  1.0000000E+03;  4.0000001E-01;  0.0000000E+00;0;  0.0000000E+00;  0.0000000E+00;  0.0000000E+00;0;  0.0000000E+00;  1.0000000E+04;  0.0000000E+00;  0.0000000E+00;  1.0000000E+04;  0.0000000E+00;  1.0000000E+04;  0.0000000E+00;  0.0000000E+00;  0.0000000E+00;  0.0000000E+00;
  2.2000000E+00;  9.9999998E-03;  3.8000000E-01;985;  0.0000000E+00;  0.0000000E+00;  0.0000000E+00;  1.0000000E+03;  4.0000001E-01;  0.0000000E+00;0;  0.0000000E+00;  0.0000000E+00;  0.0000000E+00;0;  0.0000000E+00;  1.0000000E+04;  0.0000000E+00;  0.0000000E+00;  1.0000000E+04;  0.0000000E+00;  1.0000000E+04;  0.0000000E+00;  0.0000000E+00;  0.0000000E+00;  0.0000000E+00;
  2.2200000E+00;  9.9999998E-03;  2.0000000E-02;986;  0.0000000E+00;  0.0000000E+00;  0.0000000E+00;  1.0000000E+03;  4.0000001E-01;  0.0000000E+00;0;  0.0000000E+00;  0.0000000E+00;  0.0000000E+00;0;  0.0000000E+00;  1.0000000E+04;  0.0000000E+00;  0.0000000E+00;  1.0000000E+04;  0.0000000E+00;  1.0000000E+04;  0.0000000E+00;  0.0000000E+00;  0.0000000E+00;  0.0000000E+00;
  2.2200000E+00;  9.9999998E-03;  3.9999999E-02;987;  0.0000000E+00;  0.0000000E+00;  0.0000000E+00;  1.0000000E+03;  4.0000001E-01;  0.0000000E+00;0;  0.0000000E+00;  0.0000000E+00;  0.0000000E+00;0;  0.0000000E+00;  1.0000000E+04;  0.0000000E+00;  0.0000000E+00;  1.0000000E+04;  0.0000000E+00;  1.0000000E+04;  0.0000000E+00;  0.0000000E+00;  0.0000000E+00;  0.0000000E+00;
  2.2200000E+00;  9.9999998E-03;  5.9999999E-02;988;  0.0000000E+00;  0.0000000E+00;  0.0000000E+00;  1.0000000E+03;  4.0000001E-01;  0.0000000E+00;0;  0.0000000E+00;  0.0000000E+00;  0.0000000E+00;0;  0.0000000E+00;  1.0000000E+04;  0.0000000E+00;  0.0000000E+00;  1.0000000E+04;  0.0000000E+00;  1.0000000E+04;  0.0000000E+00;  0.0000000E+00;  0.0000000E+00;  0.0000000E+00;
  2.2200000E+00;  9.9999998E-03;  7.9999998E-02;989;  0.0000000E+00;  0.0000000E+00;  0.0000000E+00;  1.0000000E+03;  4.0000001E-01;  0.0000000E+00;0;  0.0000000E+00;  0.0000000E+00;  0.0000000E+00;0;  0.0000000E+00;  1.0000000E+04;  0.0000000E+00;  0.0000000E+00;  1.0000000E+04;  0.0000000E+00;  1.0000000E+04;  0.0000000E+00;  0.0000000E+00;  0.0000000E+00;  0.0000000E+00;
  2.2200000E+00;  9.9999998E-03;  1.0000000E-01;990;  0.0000000E+00;  0.0000000E+00;  0.0000000E+00;  1.0000000E+03;  4.0000001E-01;  0.0000000E+00;0;  0.0000000E+00;  0.0000000E+00;  0.0000000E+00;0;  0.0000000E+00;  1.0000000E+04;  0.0000000E+00;  0.0000000E+00;  1.0000000E+04;  0.0000000E+00;  1.0000000E+04;  0.0000000E+00;  0.0000000E+00;  0.0000000E+00;  0.0000000E+00;
  2.2200000E+00;  9.9999998E-03;  1.2000000E-01;991;  0.0000000E+00;  0.0000000E+00;  0.0000000E+00;  1.0000000E+03;  4.0000001E-01;  0.0000000E+00;0;  0.0000000E+00;  0.0000000E+00;  0.0000000E+00;0;  0.0000000E+00;  1.0000000E+04;  0.0000000E+00;  0.0000000E+00;  1.0000000E+04;  0.0000000E+00;  1.0000000E+04;  0.0000000E+00;  0.0000000E+00;  0.0000000E+00;  0.0000000E+00;
  2.2200000E+00;  9.9999998E-03;  1.4000000E-01;992;  0.0000000E+00;  0.0000000E+00;  0.0000000E+00;  1.0000000E+03;  4.0000001E-01;  0.0000000E+00;0;  0.0000000E+00;  0.0000000E+00;  0.0000000E+00;0;  0.0000000E+00;  1.0000000E+04;  0.0000000E+00;  0.0000000E+00;  1.0000000E+04;  0.0000000E+00;  1.0000000E+04;  0.0000000E+00;  0.0000000E+00;  0.0000000E+00;  0.0000000E+00;
  2.2200000E+00;  9.9999998E-03;  1.6000000E-01;993;  0.0000000E+00;  0.0000000E+00;  0.0000000E+00;  1.0000000E+03;  4.0000001E-01;  0.0000000E+00;0;  0.0000000E+00;  0.0000000E+00;  0.0000000E+00;0;  0.0000000E+00;  1.0000000E+04;  0.0000000E+00;  0.0000000E+00;  1.0000000E+04;  0.0000000E+00;  1.0000000E+04;  0.0000000E+00;  0.0000000E+00;  0.0000000E+00;  0.0000000E+00;
  2.2200000E+00;  9.9999998E-03;  1.8000001E-01;994;  0.0000000E+00;  0.0000000E+00;  0.0000000E+00;  1.0000000E+03;  4.0000001E-01;  0.0000000E+00;0;  0.0000000E+00;  0.0000000E+00;  0.0000000E+00;0;  0.0000000E+00;  1.0000000E+04;  0.0000000E+00;  0.0000000E+00;  1.0000000E+04;  0.0000000E+00;  1.0000000E+04;  0.0000000E+00;  0.0000000E+00;  0.0000000E+00;  0.0000000E+00;
  2.2200000E+00;  9.9999998E-03;  2.0000000E-01;995;  0.0000000E+00;  0.0000000E+00;  0.0000000E+00;  1.0000000E+03;  4.0000001E-01;  0.0000000E+00;0;  0.0000000E+00;  0.0000000E+00;  0.0000000E+00;0;  0.0000000E+00;  1.0000000E+04;  0.0000000E+00;  0.0000000E+00;  1.0000000E+04;  0.0000000E+00;  1.0000000E+04;  0.0000000E+00;  0.0000000E+00;  0.0000000E+00;  0.0000000E+00;
  2.2200000E+00;  9.9999998E-03;  2.2000000E-01;996;  0.0000000E+00;  0.0000000E+00;  0.0000000E+00;  1.0000000E+03;  4.0000001E-01;  0.0000000E+00;0;  0.0000000E+00;  0.0000000E+00;  0.0000000E+00;0;  0.0000000E+00;  1.0000000E+04;  0.0000000E+00;  0.0000000E+00;  1.0000000E+04;  0.0000000E+00;  1.0000000E+04;  0.0000000E+00;  0.0000000E+00;  0.0000000E+00;  0.0000000E+00;
  2.2200000E+00;  9.9999998E-03;  2.3999999E-01;997;  0.0000000E+00;  0.0000000E+00;  0.0000000E+00;  1.0000000E+03;  4.0000001E-01;  0.0000000E+00;0;  0.0000000E+00;  0.0000000E+00;  0.0000000E+00;0;  0.0000000E+00;  1.0000000E+04;  0.0000000E+00;  0.0000000E+00;  1.0000000E+04;  0.0000000E+00;  1.0000000E+04;  0.0000000E+00;  0.0000000E+00;  0.0000000E+00;  0.0000000E+00;
  2.2200000E+00;  9.9999998E-03;  2.5999999E-01;998;  0.0000000E+00;  0.0000000E+00;  0.0000000E+00;  1.0000000E+03;  4.0000001E-01;  0.0000000E+00;0;  0.0000000E+00;  0.0000000E+00;  0.0000000E+00;0;  0.0000000E+00;  1.0000000E+04;  0.0000000E+00;  0.0000000E+00;  1.0000000E+04;  0.0000000E+00;  1.0000000E+04;  0.0000000E+00;  0.0000000E+00;  0.0000000E+00;  0.0000000E+00;
  2.2200000E+00;  9.9999998E-03;  2.8000000E-01;999;  0.0000000E+00;  0.0000000E+00;  0.0000000E+00;  1.0000000E+03;  4.0000001E-01;  0.0000000E+00;0;  0.0000000E+00;  0.0000000E+00;  0.0000000E+00;0;  0.0000000E+00;  1.0000000E+04;  0.0000000E+00;  0.0000000E+00;  1.0000000E+04;  0.0000000E+00;  1.0000000E+04;  0.0000000E+00;  0.0000000E+00;  0.0000000E+00;  0.0000000E+00;
  2.2200000E+00;  9.9999998E-03;  3.0000001E-01;1000;  0.0000000E+00;  0.0000000E+00;  0.0000000E+00;  1.0000000E+03;  4.0000001E-01;  0.0000000E+00;0;  0.0000000E+00;  0.0000000E+00;  0.0000000E+00;0;  0.0000000E+00;  1.0000000E+04;  0.0000000E+00;  0.0000000E+00;  1.0000000E+04;  0.0000000E+00;  1.0000000E+04;  0.0000000E+00;  0.0000000E+00;  0.0000000E+00;  0.0000000E+00;
  2.2200000E+00;  9.9999998E-03;  3.1999999E-01;1001;  0.0000000E+00;  0.0000000E+00;  0.0000000E+00;  1.0000000E+03;  4.0000001E-01;  0.0000000E+00;0;  0.0000000E+00;  0.0000000E+00;  0.0000000E+00;0;  0.0000000E+00;  1.0000000E+04;  0.0000000E+00;  0.0000000E+00;  1.0000000E+04;  0.0000000E+00;  1.0000000E+04;  0.0000000E+00;  0.0000000E+00;  0.0000000E+00;  0.0000000E+00;
  2.2200000E+00;  9.9999998E-03;  3.4000000E-01;1002;  0.0000000E+00;  0.0000000E+00;  0.0000000E+00;  1.0000000E+03;  4.0000001E-01;  0.0000000E+00;0;  0.0000000E+00;  0.0000000E+00;  0.0000000E+00;0;  0.0000000E+00;  1.0000000E+04;  0.0000000E+00;  0.0000000E+00;  1.0000000E+04;  0.0000000E+00;  1.0000000E+04;  0.0000000E+00;  0.0000000E+00;  0.0000000E+00;  0.0000000E+00;
  2.2200000E+00;  9.9999998E-03;  3.6000001E-01;1003;  0.0000000E+00;  0.0000000E+00;  0.0000000E+00;  1.0000000E+03;  4.0000001E-01;  0.0000000E+00;0;  0.0000000E+00;  0.0000000E+00;  0.0000000E+00;0;  0.0000000E+00;  1.0000000E+04;  0.0000000E+00;  0.0000000E+00;  1.0000000E+04;  0.0000000E+00;  1.0000000E+04;  0.0000000E+00;  0.0000000E+00;  0.0000000E+00;  0.0000000E+00;
  2.2200000E+00;  9.9999998E-03;  3.8000000E-01;1004;  0.0000000E+00;  0.0000000E+00;  0.0000000E+00;  1.0000000E+03;  4.0000001E-01;  0.0000000E+00;0;  0.0000000E+00;  0.0000000E+00;  0.0000000E+00;0;  0.0000000E+00;  1.0000000E+04;  0.0000000E+00;  0.0000000E+00;  1.0000000E+04;  0.0000000E+00;  1.0000000E+04;  0.0000000E+00;  0.0000000E+00;  0.0000000E+00;  0.0000000E+00;
  2.2400000E+00;  9.9999998E-03;  1.2000000E-01;1005;  0.0000000E+00;  0.0000000E+00;  0.0000000E+00;  1.0000000E+03;  4.0000001E-01;  0.0000000E+00;0;  0.0000000E+00;  0.0000000E+00;  0.0000000E+00;0;  0.0000000E+00;  1.0000000E+04;  0.0000000E+00;  0.0000000E+00;  1.0000000E+04;  0.0000000E+00;  1.0000000E+04;  0.0000000E+00;  0.0000000E+00;  0.0000000E+00;  0.0000000E+00;
  2.2400000E+00;  9.9999998E-03;  1.4000000E-01;1006;  0.0000000E+00;  0.0000000E+00;  0.0000000E+00;  1.0000000E+03;  4.0000001E-01;  0.0000000E+00;0;  0.0000000E+00;  0.0000000E+00;  0.0000000E+00;0;  0.0000000E+00;  1.0000000E+04;  0.0000000E+00;  0.0000000E+00;  1.0000000E+04;  0.0000000E+00;  1.0000000E+04;  0.0000000E+00;  0.0000000E+00;  0.0000000E+00;  0.0000000E+00;
  2.2400000E+00;  9.9999998E-03;  1.6000000E-01;1007;  0.0000000E+00;  0.0000000E+00;  0.0000000E+00;  1.0000000E+03;  4.0000001E-01;  0.0000000E+00;0;  0.0000000E+00;  0.0000000E+00;  0.0000000E+00;0;  0.0000000E+00;  1.0000000E+04;  0.0000000E+00;  0.0000000E+00;  1.0000000E+04;  0.0000000E+00;  1.0000000E+04;  0.0000000E+00;  0.0000000E+00;  0.0000000E+00;  0.0000000E+00;
  2.2400000E+00;  9.9999998E-03;  1.8000001E-01;1008;  0.0000000E+00;  0.0000000E+00;  0.0000000E+00;  1.0000000E+03;  4.0000001E-01;  0.0000000E+00;0;  0.0000000E+00;  0.0000000E+00;  0.0000000E+00;0;  0.0000000E+00;  1.0000000E+04;  0.0000000E+00;  0.0000000E+00;  1.0000000E+04;  0.0000000E+00;  1.0000000E+04;  0.0000000E+00;  0.0000000E+00;  0.0000000E+00;  0.0000000E+00;
  2.2400000E+00;  9.9999998E-03;  2.0000000E-01;1009;  0.0000000E+00;  0.0000000E+00;  0.0000000E+00;  1.0000000E+03;  4.0000001E-01;  0.0000000E+00;0;  0.0000000E+00;  0.0000000E+00;  0.0000000E+00;0;  0.0000000E+00;  1.0000000E+04;  0.0000000E+00;  0.0000000E+00;  1.0000000E+04;  0.0000000E+00;  1.0000000E+04;  0.0000000E+00;  0.0000000E+00;  0.0000000E+00;  0.0000000E+00;
  2.2400000E+00;  9.9999998E-03;  2.2000000E-01;1010;  0.0000000E+00;  0.0000000E+00;  0.0000000E+00;  1.0000000E+03;  4.0000001E-01;  0.0000000E+00;0;  0.0000000E+00;  0.0000000E+00;  0.0000000E+00;0;  0.0000000E+00;  1.0000000E+04;  0.0000000E+00;  0.0000000E+00;  1.0000000E+04;  0.0000000E+00;  1.0000000E+04;  0.0000000E+00;  0.0000000E+00;  0.0000000E+00;  0.0000000E+00;
  2.2400000E+00;  9.9999998E-03;  2.3999999E-01;1011;  0.0000000E+00;  0.0000000E+00;  0.0000000E+00;  1.0000000E+03;  4.0000001E-01;  0.0000000E+00;0;  0.0000000E+00;  0.0000000E+00;  0.0000000E+00;0;  0.0000000E+00;  1.0000000E+04;  0.0000000E+00;  0.0000000E+00;  1.0000000E+04;  0.0000000E+00;  1.0000000E+04;  0.0000000E+00;  0.0000000E+00;  0.0000000E+00;  0.0000000E+00;
  2.2400000E+00;  9.9999998E-03;  2.5999999E-01;1012;  0.0000000E+00;  0.0000000E+00;  0.0000000E+00;  1.0000000E+03;  4.0000001E-01;  0.0000000E+00;0;  0.0000000E+00;  0.0000000E+00;  0.0000000E+00;0;  0.0000000E+00;  1.0000000E+04;  0.0000000E+00;  0.0000000E+00;  1.0000000E+04;  0.0000000E+00;  1.0000000E+04;  0.0000000E+00;  0.0000000E+00;  0.0000000E+00;  0.0000000E+00;
  2.2400000E+00;  9.9999998E-03;  2.8000000E-01;1013;  0.0000000E+00;  0.0000000E+00;  0.0000000E+00;  1.0000000E+03;  4.0000001E-01;  0.0000000E+00;0;  0.0000000E+00;  0.0000000E+00;  0.0000000E+00;0;  0.0000000E+00;  1.0000000E+04;  0.0000000E+00;  0.0000000E+00;  1.0000000E+04;  0.0000000E+00;  1.0000000E+04;  0.0000000E+00;  0.0000000E+00;  0.0000000E+00;  0.0000000E+00;
  2.2400000E+00;  9.9999998E-03;  3.0000001E-01;1014;  0.0000000E+00;  0.0000000E+00;  0.0000000E+00;  1.0000000E+03;  4.0000001E-01;  0.0000000E+00;0;  0.0000000E+00;  0.0000000E+00;  0.0000000E+00;0;  0.0000000E+00;  1.0000000E+04;  0.0000000E+00;  0.0000000E+00;  1.0000000E+04;  0.0000000E+00;  1.0000000E+04;  0.0000000E+00;  0.0000000E+00;  0.0000000E+00;  0.0000000E+00;
  2.2400000E+00;  9.9999998E-03;  3.1999999E-01;1015;  0.0000000E+00;  0.0000000E+00;  0.0000000E+00;  1.0000000E+03;  4.0000001E-01;  0.0000000E+00;0;  0.0000000E+00;  0.0000000E+00;  0.0000000E+00;0;  0.0000000E+00;  1.0000000E+04;  0.0000000E+00;  0.0000000E+00;  1.0000000E+04;  0.0000000E+00;  1.0000000E+04;  0.0000000E+00;  0.0000000E+00;  0.0000000E+00;  0.0000000E+00;
  2.2400000E+00;  9.9999998E-03;  3.4000000E-01;1016;  0.0000000E+00;  0.0000000E+00;  0.0000000E+00;  1.0000000E+03;  4.0000001E-01;  0.0000000E+00;0;  0.0000000E+00;  0.0000000E+00;  0.0000000E+00;0;  0.0000000E+00;  1.0000000E+04;  0.0000000E+00;  0.0000000E+00;  1.0000000E+04;  0.0000000E+00;  1.0000000E+04;  0.0000000E+00;  0.0000000E+00;  0.0000000E+00;  0.0000000E+00;
  2.2400000E+00;  9.9999998E-03;  3.6000001E-01;1017;  0.0000000E+00;  0.0000000E+00;  0.0000000E+00;  1.0000000E+03;  4.0000001E-01;  0.0000000E+00;0;  0.0000000E+00;  0.0000000E+00;  0.0000000E+00;0;  0.0000000E+00;  1.0000000E+04;  0.0000000E+00;  0.0000000E+00;  1.0000000E+04;  0.0000000E+00;  1.0000000E+04;  0.0000000E+00;  0.0000000E+00;  0.0000000E+00;  0.0000000E+00;
  2.2400000E+00;  9.9999998E-03;  3.8000000E-01;1018;  0.0000000E+00;  0.0000000E+00;  0.0000000E+00;  1.0000000E+03;  4.0000001E-01;  0.0000000E+00;0;  0.0000000E+00;  0.0000000E+00;  0.0000000E+00;0;  0.0000000E+00;  1.0000000E+04;  0.0000000E+00;  0.0000000E+00;  1.0000000E+04;  0.0000000E+00;  1.0000000E+04;  0.0000000E+00;  0.0000000E+00;  0.0000000E+00;  0.0000000E+00;
  2.2600000E+00;  9.9999998E-03;  2.2000000E-01;1019;  0.0000000E+00;  0.0000000E+00;  0.0000000E+00;  1.0000000E+03;  4.0000001E-01;  0.0000000E+00;0;  0.0000000E+00;  0.0000000E+00;  0.0000000E+00;0;  0.0000000E+00;  1.0000000E+04;  0.0000000E+00;  0.0000000E+00;  1.0000000E+04;  0.0000000E+00;  1.0000000E+04;  0.0000000E+00;  0.0000000E+00;  0.0000000E+00;  0.0000000E+00;
  2.2600000E+00;  9.9999998E-03;  2.3999999E-01;1020;  0.0000000E+00;  0.0000000E+00;  0.0000000E+00;  1.0000000E+03;  4.0000001E-01;  0.0000000E+00;0;  0.0000000E+00;  0.0000000E+00;  0.0000000E+00;0;  0.0000000E+00;  1.0000000E+04;  0.0000000E+00;  0.0000000E+00;  1.0000000E+04;  0.0000000E+00;  1.0000000E+04;  0.0000000E+00;  0.0000000E+00;  0.0000000E+00;  0.0000000E+00;
  2.2600000E+00;  9.9999998E-03;  2.5999999E-01;1021;  0.0000000E+00;  0.0000000E+00;  0.0000000E+00;  1.0000000E+03;  4.0000001E-01;  0.0000000E+00;0;  0.0000000E+00;  0.0000000E+00;  0.0000000E+00;0;  0.0000000E+00;  1.0000000E+04;  0.0000000E+00;  0.0000000E+00;  1.0000000E+04;  0.0000000E+00;  1.0000000E+04;  0.0000000E+00;  0.0000000E+00;  0.0000000E+00;  0.0000000E+00;
  2.2600000E+00;  9.9999998E-03;  2.8000000E-01;1022;  0.0000000E+00;  0.0000000E+00;  0.0000000E+00;  1.0000000E+03;  4.0000001E-01;  0.0000000E+00;0;  0.0000000E+00;  0.0000000E+00;  0.0000000E+00;0;  0.0000000E+00;  1.0000000E+04;  0.0000000E+00;  0.0000000E+00;  1.0000000E+04;  0.0000000E+00;  1.0000000E+04;  0.0000000E+00;  0.0000000E+00;  0.0000000E+00;  0.0000000E+00;
  2.2600000E+00;  9.9999998E-03;  3.0000001E-01;1023;  0.0000000E+00;  0.0000000E+00;  0.0000000E+00;  1.0000000E+03;  4.0000001E-01;  0.0000000E+00;0;  0.0000000E+00;  0.0000000E+00;  0.0000000E+00;0;  0.0000000E+00;  1.0000000E+04;  0.0000000E+00;  0.0000000E+00;  1.0000000E+04;  0.0000000E+00;  1.0000000E+04;  0.0000000E+00;  0.0000000E+00;  0.0000000E+00;  0.0000000E+00;
  2.2600000E+00;  9.9999998E-03;  3.1999999E-01;1024;  0.0000000E+00;  0.0000000E+00;  0.0000000E+00;  1.0000000E+03;  4.0000001E-01;  0.0000000E+00;0;  0.0000000E+00;  0.0000000E+00;  0.0000000E+00;0;  0.0000000E+00;  1.0000000E+04;  0.0000000E+00;  0.0000000E+00;  1.0000000E+04;  0.0000000E+00;  1.0000000E+04;  0.0000000E+00;  0.0000000E+00;  0.0000000E+00;  0.0000000E+00;
  2.2600000E+00;  9.9999998E-03;  3.4000000E-01;1025;  0.0000000E+00;  0.0000000E+00;  0.0000000E+00;  1.0000000E+03;  4.0000001E-01;  0.0000000E+00;0;  0.0000000E+00;  0.0000000E+00;  0.0000000E+00;0;  0.0000000E+00;  1.0000000E+04;  0.0000000E+00;  0.0000000E+00;  1.0000000E+04;  0.0000000E+00;  1.0000000E+04;  0.0000000E+00;  0.0000000E+00;  0.0000000E+00;  0.0000000E+00;
  2.2600000E+00;  9.9999998E-03;  3.6000001E-01;1026;  0.0000000E+00;  0.0000000E+00;  0.0000000E+00;  1.0000000E+03;  4.0000001E-01;  0.0000000E+00;0;  0.0000000E+00;  0.0000000E+00;  0.0000000E+00;0;  0.0000000E+00;  1.0000000E+04;  0.0000000E+00;  0.0000000E+00;  1.0000000E+04;  0.0000000E+00;  1.0000000E+04;  0.0000000E+00;  0.0000000E+00;  0.0000000E+00;  0.0000000E+00;
  2.2600000E+00;  9.9999998E-03;  3.8000000E-01;1027;  0.0000000E+00;  0.0000000E+00;  0.0000000E+00;  1.0000000E+03;  4.0000001E-01;  0.0000000E+00;0;  0.0000000E+00;  0.0000000E+00;  0.0000000E+00;0;  0.0000000E+00;  1.0000000E+04;  0.0000000E+00;  0.0000000E+00;  1.0000000E+04;  0.0000000E+00;  1.0000000E+04;  0.0000000E+00;  0.0000000E+00;  0.0000000E+00;  0.0000000E+00;
  2.2800000E+00;  9.9999998E-03;  3.1999999E-01;1028;  0.0000000E+00;  0.0000000E+00;  0.0000000E+00;  1.0000000E+03;  4.0000001E-01;  0.0000000E+00;0;  0.0000000E+00;  0.0000000E+00;  0.0000000E+00;0;  0.0000000E+00;  1.0000000E+04;  0.0000000E+00;  0.0000000E+00;  1.0000000E+04;  0.0000000E+00;  1.0000000E+04;  0.0000000E+00;  0.0000000E+00;  0.0000000E+00;  0.0000000E+00;
  2.2800000E+00;  9.9999998E-03;  3.4000000E-01;1029;  0.0000000E+00;  0.0000000E+00;  0.0000000E+00;  1.0000000E+03;  4.0000001E-01;  0.0000000E+00;0;  0.0000000E+00;  0.0000000E+00;  0.0000000E+00;0;  0.0000000E+00;  1.0000000E+04;  0.0000000E+00;  0.0000000E+00;  1.0000000E+04;  0.0000000E+00;  1.0000000E+04;  0.0000000E+00;  0.0000000E+00;  0.0000000E+00;  0.0000000E+00;
  2.2800000E+00;  9.9999998E-03;  3.6000001E-01;1030;  0.0000000E+00;  0.0000000E+00;  0.0000000E+00;  1.0000000E+03;  4.0000001E-01;  0.0000000E+00;0;  0.0000000E+00;  0.0000000E+00;  0.0000000E+00;0;  0.0000000E+00;  1.0000000E+04;  0.0000000E+00;  0.0000000E+00;  1.0000000E+04;  0.0000000E+00;  1.0000000E+04;  0.0000000E+00;  0.0000000E+00;  0.0000000E+00;  0.0000000E+00;
 -8.2231162E-07;  9.9999998E-03; -2.8000033E-01;1031; -7.3425355E-04;  0.0000000E+00; -2.8142484E-04;  1.0000186E+03;  4.0000001E-01;  1.5406969E+01;3; -6.5923071E-01;  0.0000000E+00; -2.5357395E-01;0; -1.4787836E-02;  1.0000345E+04;  0.0000000E+00; -5.3350266E-08;  1.0000000E+04;  0.0000000E+00;  1.0000027E+04; -1.3716105E-02;  0.0000000E+00; -1.0717309E-03;  1.0804324E+01;
 -9.9790634E-07;  9.9999998E-03; -2.6000029E-01;1032; -8.9317083E-04;  0.0000000E+00; -2.7076568E-04;  1.0000221E+03;  4.0000001E-01;  1.8271086E+01;3; -7.7523232E-01;  0.0000000E+00; -2.3553103E-01;0; -1.7645447E-02;  1.0000435E+04;  0.0000000E+00; -1.7353640E-08;  1.0000000E+04;  0.0000000E+00;  1.0000011E+04; -1.7199211E-02;  0.0000000E+00; -4.4623602E-04;  3.5391176E+00;
 -1.1459506E-06;  9.9999998E-03; -2.4000028E-01;1033; -1.0272053E-03;  0.0000000E+00; -2.4427852E-04;  1.0000251E+03;  4.0000001E-01;  2.0838913E+01;3; -8.7109661E-01;  0.0000000E+00; -2.0750755E-01;0; -1.9995565E-02;  1.0000508E+04;  0.0000000E+00;  4.2445100E-10;  1.0000000E+04;  0.0000000E+00;  9.9999961E+03; -2.0175582E-02;  0.0000000E+00;  1.8001758E-04;  3.6801293E+00;
 -1.2610280E-06;  9.9999998E-03; -2.2000024E-01;1034; -1.1313347E-03;  0.0000000E+00; -2.1048899E-04;  1.0000275E+03;  4.0000001E-01;  2.2814167E+01;3; -9.4711256E-01;  0.0000000E+00; -1.7623118E-01;0; -2.1845907E-02;  1.0000566E+04;  0.0000000E+00;  4.8577027E-09;  1.0000000E+04;  0.0000000E+00;  9.9999844E+03; -2.2503443E-02;  0.0000000E+00;  6.5753667E-04;  9.1899586E+00;
 -1.3465647E-06;  9.9999998E-03; -2.0000020E-01;1035; -1.2079341E-03;  0.0000000E+00; -1.7355185E-04;  1.0000292E+03;  4.0000001E-01;  2.4196842E+01;3; -1.0052240E+00;  0.0000000E+00; -1.4453024E-01;0; -2.3260141E-02;  1.0000607E+04;  0.0000000E+00;  3.4315253E-10;  1.0000000E+04;  0.0000000E+00;  9.9999785E+03; -2.4192546E-02;  0.0000000E+00;  9.3240460E-04;  1.2400740E+01;
  1.9999167E-02;  9.9999998E-03; -3.0000043E-01;1060; -7.3071284E-04;  0.0000000E+00; -3.7225091E-04;  1.0000184E+03;  4.0000001E-01;  1.5308207E+01;3; -6.4734793E-01;  0.0000000E+00; -3.3211899E-01;0; -1.4433040E-02;  1.0000318E+04;  0.0000000E+00; -7.9402270E-08;  1.0000000E+04;  0.0000000E+00;  1.0000051E+04; -1.2486027E-02;  0.0000000E+00; -1.9470139E-03;  2.1223072E+01;
  1.9998843E-02;  9.9999998E-03; -2.8000039E-01;1061; -1.0230073E-03;  0.0000000E+00; -3.4781167E-04;  1.0000234E+03;  4.0000001E-01;  1.9357473E+01;3; -8.5988498E-01;  0.0000000E+00; -2.9111719E-01;0; -1.8255334E-02;  1.0000432E+04;  0.0000000E+00; -2.7683436E-08;  1.0000000E+04;  0.0000000E+00;  1.0000034E+04; -1.6881494E-02;  0.0000000E+00; -1.3738408E-03;  1.4251427E+01;
  1.9998565E-02;  9.9999998E-03; -2.6000038E-01;1062; -1.2723713E-03;  0.0000000E+00; -3.4368172E-04;  1.0000275E+03;  4.0000001E-01;  2.2814167E+01;3; -1.0229349E+00;  0.0000000E+00; -2.7499801E-01;0; -2.1556545E-02;  1.0000537E+04;  0.0000000E+00;  1.8995134E-08;  1.0000000E+04;  0.0000000E+00;  1.0000014E+04; -2.1022143E-02;  0.0000000E+00; -5.3440192E-04;  4.3418841E+00;
  1.9998342E-02;  9.9999998E-03; -2.4000037E-01;1063; -1.4734468E-03;  0.0000000E+00; -3.1766531E-04;  1.0000309E+03;  4.0000001E-01;  2.5579519E+01;3; -1.1490719E+00;  0.0000000E+00; -2.4641782E-01;0; -2.4234317E-02;  1.0000625E+04;  0.0000000E+00;  3.7228194E-08;  1.0000000E+04;  0.0000000E+00;  9.9999932E+03; -2.4520177E-02;  0.0000000E+00;  2.8586033E-04;  5.2867966E+00;
  1.9998174E-02;  9.9999998E-03; -2.2000031E-01;1064; -1.6244351E-03;  0.0000000E+00; -2.7852194E-04;  1.0000336E+03;  4.0000001E-01;  2.7851061E+01;3; -1.2453778E+00;  0.0000000E+00; -2.1241829E-01;0; -2.6310995E-02;  1.0000694E+04;  0.0000000E+00;  2.9703214E-08;  1.0000000E+04;  0.0000000E+00;  9.9999785E+03; -2.7214067E-02;  0.0000000E+00;  9.0307160E-04;  1.2537357E+01;
  1.9998053E-02;  9.9999998E-03; -2.0000027E-01;1065; -1.7318096E-03;  0.0000000E+00; -2.3199676E-04;  1.0000355E+03;  4.0000001E-01;  2.9431261E+01;3; -1.3175359E+00;  0.0000000E+00; -1.7591569E-01;0; -2.7874637E-02;  1.0000744E+04;  0.0000000E+00;  1.5695175E-08;  1.0000000E+04;  0.0000000E+00;  9.9999688E+03; -2.9128421E-02;  0.0000000E+00;  1.2537836E-03;  1.6699930E+01;
  3.9998822E-02;  9.9999998E-03; -3.0000049E-01;1091; -1.0237822E-03;  0.0000000E+00; -4.1516684E-04;  1.0000225E+03;  4.0000001E-01;  1.8567373E+01;3; -8.6751008E-01;  0.0000000E+00; -3.4922314E-01;0; -1.7193394E-02;  1.0000387E+04;  0.0000000E+00; -8.9704351E-08;  1.0000000E+04;  0.0000000E+00;  1.0000063E+04; -1.4814741E-02;  0.0000000E+00; -2.3786535E-03;  2.6723175E+01;
  3.9998367E-02;  9.9999998E-03; -2.8000048E-01;1092; -1.4294714E-03;  0.0000000E+00; -3.9937149E-04;  1.0000281E+03;  4.0000001E-01;  2.3307980E+01;3; -1.1359539E+00;  0.0000000E+00; -3.1032085E-01;0; -2.1562630E-02;  1.0000520E+04;  0.0000000E+00; -4.1962419E-08;  1.0000000E+04;  0.0000000E+00;  1.0000043E+04; -1.9944753E-02;  0.0000000E+00; -1.6178766E-03;  1.7326010E+01;
  3.9997980E-02;  9.9999998E-03; -2.6000047E-01;1093; -1.7766587E-03;  0.0000000E+00; -3.8944854E-04;  1.0000330E+03;  4.0000001E-01;  2.7258484E+01;3; -1.3380711E+00;  0.0000000E+00; -2.8556490E-01;0; -2.5292682E-02;  1.0000644E+04;  0.0000000E+00;  1.8593347E-08;  1.0000000E+04;  0.0000000E+00;  1.0000016E+04; -2.4712238E-02;  0.0000000E+00; -5.8044272E-04;  4.7662287E+00;
  3.9997663E-02;  9.9999998E-03; -2.4000043E-01;1094; -2.0572492E-03;  0.0000000E+00; -3.6015676E-04;  1.0000369E+03;  4.0000001E-01;  3.0517651E+01;3; -1.4933977E+00;  0.0000000E+00; -2.5471961E-01;0; -2.8256485E-02;  1.0000746E+04;  0.0000000E+00;  4.1108375E-08;  1.0000000E+04;  0.0000000E+00;  9.9999902E+03; -2.8665189E-02;  0.0000000E+00;  4.0870294E-04;  7.1656470E+00;
  3.9997432E-02;  9.9999998E-03; -2.2000037E-01;1095; -2.2644231E-03;  0.0000000E+00; -3.1915706E-04;  1.0000397E+03;  4.0000001E-01;  3.2887955E+01;3; -1.6106160E+00;  0.0000000E+00; -2.2179201E-01;0; -3.0498199E-02;  1.0000825E+04;  0.0000000E+00;  3.9548393E-08;  1.0000000E+04;  0.0000000E+00;  9.9999717E+03; -3.1638820E-02;  0.0000000E+00;  1.1406209E-03;  1.6002565E+01;
  3.9997268E-02;  9.9999998E-03; -2.0000032E-01;1096; -2.4087580E-03;  0.0000000E+00; -2.6741848E-04;  1.0000418E+03;  4.0000001E-01;  3.4665680E+01;3; -1.6982570E+00;  0.0000000E+00; -1.8492542E-01;0; -3.2140903E-02;  1.0000877E+04;  0.0000000E+00;  2.2738970E-08;  1.0000000E+04;  0.0000000E+00;  9.9999609E+03; -3.3688650E-02;  0.0000000E+00;  1.5477445E-03;  2.0963917E+01;
  5.9998386E-02;  9.9999998E-03; -3.0000055E-01;1122; -1.3886979E-03;  0.0000000E+00; -4.5014496E-04;  1.0000268E+03;  4.0000001E-01;  2.2221590E+01;3; -1.1374426E+00;  0.0000000E+00; -3.5730410E-01;0; -2.0069670E-02;  1.0000462E+04;  0.0000000E+00; -3.9824972E-06;  1.0000000E+04;  0.0000000E+00;  1.0000076E+04; -1.7351443E-02;  0.0000000E+00; -2.7182265E-03;  3.1654751E+01;
  5.9997771E-02;  9.9999998E-03; -2.8000054E-01;1123; -1.9297014E-03;  0.0000000E+00; -4.2903863E-04;  1.0000336E+03;  4.0000001E-01;  2.7851061E+01;3; -1.4685879E+00;  0.0000000E+00; -3.0950451E-01;0; -2.5054218E-02;  1.0000619E+04;  0.0000000E+00; -1.1349617E-06;  1.0000000E+04;  0.0000000E+00;  1.0000049E+04; -2.3263112E-02;  0.0000000E+00; -1.7911062E-03;  1.9884447E+01;
  5.9997257E-02;  9.9999998E-03; -2.6000053E-01;1124; -2.3847753E-03;  0.0000000E+00; -4.1831075E-04;  1.0000391E+03;  4.0000001E-01;  3.2394142E+01;3; -1.7074498E+00;  0.0000000E+00; -2.8253603E-01;0; -2.9257962E-02;  1.0000763E+04;  0.0000000E+00; -7.0839789E-08;  1.0000000E+04;  0.0000000E+00;  1.0000017E+04; -2.8676910E-02;  0.0000000E+00; -5.8105134E-04;  4.7277794E+00;
  5.9996843E-02;  9.9999998E-03; -2.4000047E-01;1125; -2.7489758E-03;  0.0000000E+00; -3.8696628E-04;  1.0000434E+03;  4.0000001E-01;  3.5949596E+01;3; -1.8883212E+00;  0.0000000E+00; -2.5145674E-01;0; -3.2524534E-02;  1.0000881E+04;  0.0000000E+00; -1.6463829E-08;  1.0000000E+04;  0.0000000E+00;  9.9999863E+03; -3.3068538E-02;  0.0000000E+00;  5.4400379E-04;  9.3512974E+00;
  5.9996542E-02;  9.9999998E-03; -2.2000042E-01;1126; -3.0152833E-03;  0.0000000E+00; -3.4271457E-04;  1.0000466E+03;  4.0000001E-01;  3.8616184E+01;3; -2.0252628E+00;  0.0000000E+00; -2.1872658E-01;0; -3.4918796E-02;  1.0000969E+04;  0.0000000E+00;  9.3249461E-09;  1.0000000E+04;  0.0000000E+00;  9.9999648E+03; -3.6276333E-02;  0.0000000E+00;  1.3575380E-03;  1.9555838E+01;
  5.9996333E-02;  9.9999998E-03; -2.0000035E-01;1127; -3.1968460E-03;  0.0000000E+00; -2.8720780E-04;  1.0000488E+03;  4.0000001E-01;  4.0492676E+01;3; -2.1273856E+00;  0.0000000E+00; -1.8285123E-01;0; -3.6606740E-02;  1.0001025E+04;  0.0000000E+00;  1.3196926E-08;  1.0000000E+04;  0.0000000E+00;  9.9999512E+03; -3.8401823E-02;  0.0000000E+00;  1.7950821E-03;  2.5103050E+01;
  7.9997852E-02;  9.9999998E-03; -3.0000061E-01;1153; -1.8256654E-03;  0.0000000E+00; -4.8680350E-04;  1.0000324E+03;  4.0000001E-01;  2.6863434E+01;3; -1.4577141E+00;  0.0000000E+00; -3.6617756E-01;0; -2.3492660E-02;  1.0000560E+04;  0.0000000E+00; -4.1582857E-04;  1.0000000E+04;  0.0000000E+00;  1.0000085E+04; -2.0520687E-02;  0.0000000E+00; -2.9719728E-03;  3.6152576E+01;
  7.9997048E-02;  9.9999998E-03; -2.8000057E-01;1154; -2.5214248E-03;  0.0000000E+00; -4.4848688E-04;  1.0000400E+03;  4.0000001E-01;  3.3184242E+01;3; -1.8591231E+00;  0.0000000E+00; -3.0111861E-01;0; -2.9177986E-02;  1.0000747E+04;  0.0000000E+00; -2.3282296E-04;  1.0000000E+04;  0.0000000E+00;  1.0000055E+04; -2.7280778E-02;  0.0000000E+00; -1.8972078E-03;  2.1963287E+01;
  7.9996392E-02;  9.9999998E-03; -2.6000056E-01;1155; -3.0946364E-03;  0.0000000E+00; -4.3357859E-04;  1.0000463E+03;  4.0000001E-01;  3.8319897E+01;3; -2.1362033E+00;  0.0000000E+00; -2.7067661E-01;0; -3.3904042E-02;  1.0000910E+04;  0.0000000E+00; -8.0667676E-05;  1.0000000E+04;  0.0000000E+00;  1.0000016E+04; -3.3363387E-02;  0.0000000E+00; -5.4065639E-04;  4.2218637E+00;
  7.9995871E-02;  9.9999998E-03; -2.4000052E-01;1156; -3.5452913E-03;  0.0000000E+00; -3.9958124E-04;  1.0000513E+03;  4.0000001E-01;  4.2467930E+01;3; -2.3407307E+00;  0.0000000E+00; -2.4003386E-01;0; -3.7504889E-02;  1.0001043E+04;  0.0000000E+00; -8.7976014E-06;  1.0000000E+04;  0.0000000E+00;  9.9999824E+03; -3.8192518E-02;  0.0000000E+00;  6.8763038E-04;  1.1898161E+01;
  7.9995498E-02;  9.9999998E-03; -2.2000045E-01;1157; -3.8696672E-03;  0.0000000E+00; -3.5251351E-04;  1.0000549E+03;  4.0000001E-01;  4.5430805E+01;3; -2.4960389E+00;  0.0000000E+00; -2.0798567E-01;0; -4.0064823E-02;  1.0001137E+04;  0.0000000E+00; -7.6319274E-08;  1.0000000E+04;  0.0000000E+00;  9.9999580E+03; -4.1615855E-02;  0.0000000E+00;  1.5510314E-03;  2.3280067E+01;
  7.9995245E-02;  9.9999998E-03; -2.0000038E-01;1158; -4.0854779E-03;  0.0000000E+00; -2.9412613E-04;  1.0000570E+03;  4.0000001E-01;  4.7208534E+01;3; -2.6109247E+00;  0.0000000E+00; -1.7359236E-01;0; -4.1784834E-02;  1.0001196E+04;  0.0000000E+00; -2.2876243E-08;  1.0000000E+04;  0.0000000E+00;  9.9999463E+03; -4.3779783E-02;  0.0000000E+00;  1.9949495E-03;  2.9223925E+01;
  9.9997193E-02;  9.9999998E-03; -3.0000070E-01;1184; -2.3505697E-03;  0.0000000E+00; -5.3259282E-04;  1.0000397E+03;  4.0000001E-01;  3.2887955E+01;3; -1.8405538E+00;  0.0000000E+00; -3.8156700E-01;0; -2.8285019E-02;  1.0000701E+04;  0.0000000E+00; -3.7847210E-03;  1.0000000E+04;  0.0000000E+00;  1.0000095E+04; -2.5112782E-02;  0.0000000E+00; -3.1722379E-03;  4.4653111E+01;
  9.9996172E-02;  9.9999998E-03; -2.8000063E-01;1185; -3.2220008E-03;  0.0000000E+00; -4.6303365E-04;  1.0000488E+03;  4.0000001E-01;  4.0492676E+01;3; -2.3205271E+00;  0.0000000E+00; -2.8908634E-01;0; -3.4672413E-02;  1.0000914E+04;  0.0000000E+00; -2.3953200E-03;  1.0000000E+04;  0.0000000E+00;  1.0000061E+04; -3.2714695E-02;  0.0000000E+00; -1.9577197E-03;  2.6532480E+01;
  9.9995352E-02;  9.9999998E-03; -2.6000059E-01;1186; -3.9221686E-03;  0.0000000E+00; -4.3821716E-04;  1.0000560E+03;  4.0000001E-01;  4.6418434E+01;3; -2.6365485E+00;  0.0000000E+00; -2.5199926E-01;0; -3.9825417E-02;  1.0001104E+04;  0.0000000E+00; -1.1033146E-03;  1.0000000E+04;  0.0000000E+00;  1.0000016E+04; -3.9357442E-02;  0.0000000E+00; -4.6797574E-04;  6.4147873E+00;
  9.9994719E-02;  9.9999998E-03; -2.4000055E-01;1187; -4.4610724E-03;  0.0000000E+00; -4.0013233E-04;  1.0000612E+03;  4.0000001E-01;  5.0665226E+01;3; -2.8631673E+00;  0.0000000E+00; -2.2155744E-01;0; -4.3663032E-02;  1.0001249E+04;  0.0000000E+00; -3.0314317E-04;  1.0000000E+04;  0.0000000E+00;  9.9999775E+03; -4.4502329E-02;  0.0000000E+00;  8.3929684E-04;  1.5036366E+01;
  9.9994272E-02;  9.9999998E-03; -2.2000048E-01;1188; -4.8406501E-03;  0.0000000E+00; -3.5197922E-04;  1.0000649E+03;  4.0000001E-01;  5.3825630E+01;3; -3.0339677E+00;  0.0000000E+00; -1.9195992E-01;0; -4.6333428E-02;  1.0001346E+04;  0.0000000E+00; -3.3632256E-05;  1.0000000E+04;  0.0000000E+00;  9.9999521E+03; -4.8060659E-02;  0.0000000E+00;  1.7272298E-03;  2.7389874E+01;
  9.9993981E-02;  9.9999998E-03; -2.0000041E-01;1189; -5.0864983E-03;  0.0000000E+00; -2.9221628E-04;  1.0000673E+03;  4.0000001E-01;  5.5800884E+01;3; -3.1593494E+00;  0.0000000E+00; -1.5996104E-01;0; -4.8059467E-02;  1.0001411E+04;  0.0000000E+00; -8.9361244E-08;  1.0000000E+04;  0.0000000E+00;  9.9999385E+03; -5.0220352E-02;  0.0000000E+00;  2.1608851E-03;  3.3606529E+01;
  1.1999636E-01;  9.9999998E-03; -3.0000082E-01;1215; -2.9905161E-03;  0.0000000E+00; -5.9796625E-04;  1.0000515E+03;  4.0000001E-01;  4.2665455E+01;3; -2.3019602E+00;  0.0000000E+00; -4.1217089E-01;0; -3.5741076E-02;  1.0000924E+04;  0.0000000E+00; -1.6403517E-02;  1.0000000E+04;  0.0000000E+00;  1.0000106E+04; -3.2373879E-02;  0.0000000E+00; -3.3671972E-03;  9.4485741E+01;
  1.1999509E-01;  9.9999998E-03; -2.8000069E-01;1216; -4.0603406E-03;  0.0000000E+00; -4.8214209E-04;  1.0000613E+03;  4.0000001E-01;  5.0763988E+01;3; -2.8678269E+00;  0.0000000E+00; -2.7979326E-01;0; -4.2658303E-02;  1.0001164E+04;  0.0000000E+00; -1.1224679E-02;  1.0000000E+04;  0.0000000E+00;  1.0000063E+04; -4.0654894E-02;  0.0000000E+00; -2.0034094E-03;  6.2205013E+01;
  1.1999409E-01;  9.9999998E-03; -2.6000065E-01;1217; -4.8958627E-03;  0.0000000E+00; -4.3960410E-04;  1.0000690E+03;  4.0000001E-01;  5.7183559E+01;3; -3.2208765E+00;  0.0000000E+00; -2.3072124E-01;0; -4.7820091E-02;  1.0001361E+04;  0.0000000E+00; -5.6360951E-03;  1.0000000E+04;  0.0000000E+00;  1.0000013E+04; -4.7456454E-02;  0.0000000E+00; -3.6363688E-04;  2.8659826E+01;
  1.1999334E-01;  9.9999998E-03; -2.4000058E-01;1218; -5.5253860E-03;  0.0000000E+00; -3.9410125E-04;  1.0000739E+03;  4.0000001E-01;  6.1232826E+01;3; -3.4675617E+00;  0.0000000E+00; -1.9799674E-01;0; -5.1515758E-02;  1.0001508E+04;  0.0000000E+00; -1.9524521E-03;  1.0000000E+04;  0.0000000E+00;  9.9999707E+03; -5.2536801E-02;  0.0000000E+00;  1.0210417E-03;  2.1505184E+01;
  1.1999283E-01;  9.9999998E-03; -2.2000051E-01;1219; -5.9565944E-03;  0.0000000E+00; -3.4718830E-04;  1.0000775E+03;  4.0000001E-01;  6.4195709E+01;3; -3.6487613E+00;  0.0000000E+00; -1.7298353E-01;0; -5.4045781E-02;  1.0001611E+04;  0.0000000E+00; -3.8769920E-04;  1.0000000E+04;  0.0000000E+00;  9.9999424E+03; -5.5964228E-02;  0.0000000E+00;  1.9184444E-03;  3.2558914E+01;
  1.1999250E-01;  9.9999998E-03; -2.0000042E-01;1220; -6.2279790E-03;  0.0000000E+00; -2.8803080E-04;  1.0000801E+03;  4.0000001E-01;  6.6368484E+01;3; -3.7812128E+00;  0.0000000E+00; -1.4515740E-01;0; -5.5653051E-02;  1.0001669E+04;  0.0000000E+00; -2.6932934E-05;  1.0000000E+04;  0.0000000E+00;  9.9999277E+03; -5.7981573E-02;  0.0000000E+00;  2.3285230E-03;  3.8842583E+01;
  1.3999531E-01;  9.9999998E-03; -3.0000100E-01;1246; -3.7831031E-03;  0.0000000E+00; -6.9688435E-04;  1.0000700E+03;  4.0000001E-01;  5.7973660E+01;3; -2.8634901E+00;  0.0000000E+00; -4.6772003E-01;0; -4.7608238E-02;  1.0001280E+04;  0.0000000E+00; -4.9355030E-02;  1.0000000E+04;  0.0000000E+00;  1.0000120E+04; -4.4001836E-02;  0.0000000E+00; -3.6064007E-03;  2.5581015E+02;
  1.3999374E-01;  9.9999998E-03; -2.8000081E-01;1247; -5.0721564E-03;  0.0000000E+00; -5.1973079E-04;  1.0000801E+03;  4.0000001E-01;  6.6368484E+01;3; -3.5159404E+00;  0.0000000E+00; -2.8273153E-01;0; -5.4498434E-02;  1.0001533E+04;  0.0000000E+00; -3.4672286E-02;  1.0000000E+04;  0.0000000E+00;  1.0000070E+04; -5.2432187E-02;  0.0000000E+00; -2.0662486E-03;  1.7830722E+02;
  1.3999256E-01;  9.9999998E-03; -2.6000071E-01;1248; -6.0488787E-03;  0.0000000E+00; -4.5300295E-04;  1.0000863E+03;  4.0000001E-01;  7.1504143E+01;3; -3.8983359E+00;  0.0000000E+00; -2.1686625E-01;0; -5.8758672E-02;  1.0001720E+04;  0.0000000E+00; -1.8069522E-02;  1.0000000E+04;  0.0000000E+00;  1.0000010E+04; -5.8552444E-02;  0.0000000E+00; -2.0622765E-04;  9.2039299E+01;
  1.3999169E-01;  9.9999998E-03; -2.4000062E-01;1249; -6.7721033E-03;  0.0000000E+00; -3.9494940E-04;  1.0000905E+03;  4.0000001E-01;  7.4960831E+01;3; -4.1597176E+00;  0.0000000E+00; -1.7841411E-01;0; -6.1542057E-02;  1.0001851E+04;  0.0000000E+00; -6.8205618E-03;  1.0000000E+04;  0.0000000E+00;  9.9999600E+03; -6.2838241E-02;  0.0000000E+00;  1.2961844E-03;  4.3129410E+01;
  1.3999109E-01;  9.9999998E-03; -2.2000055E-01;1250; -7.2528520E-03;  0.0000000E+00; -3.4977699E-04;  1.0000933E+03;  4.0000001E-01;  7.7331131E+01;3; -4.3464804E+00;  0.0000000E+00; -1.5904677E-01;0; -6.3432544E-02;  1.0001938E+04;  0.0000000E+00; -1.6799025E-03;  1.0000000E+04;  0.0000000E+00;  9.9999287E+03; -6.5640219E-02;  0.0000000E+00;  2.2076748E-03;  4.0922176E+01;
  1.3999073E-01;  9.9999998E-03; -2.0000046E-01;1251; -7.5448509E-03;  0.0000000E+00; -2.9208988E-04;  1.0000952E+03;  4.0000001E-01;  7.8812576E+01;3; -4.4825706E+00;  0.0000000E+00; -1.3544838E-01;0; -6.4656816E-02;  1.0001988E+04;  0.0000000E+00; -2.0939473E-04;  1.0000000E+04;  0.0000000E+00;  9.9999150E+03; -6.7235790E-02;  0.0000000E+00;  2.5789717E-03;  4.6199589E+01;
  1.5999395E-01;  9.9999998E-03; -3.0000120E-01;1277; -4.7865841E-03;  0.0000000E+00; -8.1583642E-04;  1.0000981E+03;  4.0000001E-01;  8.1281639E+01;3; -3.5609059E+00;  0.0000000E+00; -5.3365088E-01;0; -6.5719463E-02;  1.0001828E+04;  0.0000000E+00; -1.1657450E-01;  1.0000000E+04;  0.0000000E+00;  1.0000136E+04; -6.1762411E-02;  0.0000000E+00; -3.9570499E-03;  5.9686462E+02;
  1.5999208E-01;  9.9999998E-03; -2.8000093E-01;1278; -6.2960987E-03;  0.0000000E+00; -5.8345532E-04;  1.0001069E+03;  4.0000001E-01;  8.8590073E+01;3; -4.2792435E+00;  0.0000000E+00; -3.0194902E-01;0; -7.1309239E-02;  1.0002060E+04;  0.0000000E+00; -8.1243195E-02;  1.0000000E+04;  0.0000000E+00;  1.0000073E+04; -6.9144487E-02;  0.0000000E+00; -2.1647513E-03;  4.1529132E+02;
  1.5999068E-01;  9.9999998E-03; -2.6000080E-01;1279; -7.4189031E-03;  0.0000000E+00; -4.9039832E-04;  1.0001098E+03;  4.0000001E-01;  9.0960373E+01;3; -4.6780581E+00;  0.0000000E+00; -2.2036862E-01;0; -7.3190995E-02;  1.0002200E+04;  0.0000000E+00; -4.2537302E-02;  1.0000000E+04;  0.0000000E+00;  9.9999980E+03; -7.3259577E-02;  0.0000000E+00;  6.8584690E-05;  2.1734996E+02;
  1.5998968E-01;  9.9999998E-03; -2.4000071E-01;1280; -8.2334513E-03;  0.0000000E+00; -4.2380404E-04;  1.0001114E+03;  4.0000001E-01;  9.2244293E+01;3; -4.9456630E+00;  0.0000000E+00; -1.7550683E-01;0; -7.3967069E-02;  1.0002286E+04;  0.0000000E+00; -1.6563004E-02;  1.0000000E+04;  0.0000000E+00;  9.9999385E+03; -7.5757116E-02;  0.0000000E+00;  1.7900480E-03;  9.2223297E+01;
  1.5998903E-01;  9.9999998E-03; -2.2000062E-01;1281; -8.7624220E-03;  0.0000000E+00; -3.7788198E-04;  1.0001124E+03;  4.0000001E-01;  9.3133156E+01;3; -5.1339221E+00;  0.0000000E+00; -1.5923709E-01;0; -7.4560136E-02;  1.0002344E+04;  0.0000000E+00; -4.4920933E-03;  1.0000000E+04;  0.0000000E+00;  9.9999033E+03; -7.7304408E-02;  0.0000000E+00;  2.7442749E-03;  5.7229477E+01;
  1.5998864E-01;  9.9999998E-03; -2.0000052E-01;1282; -9.0695387E-03;  0.0000000E+00; -3.2092939E-04;  1.0001135E+03;  4.0000001E-01;  9.4022018E+01;3; -5.2681284E+00;  0.0000000E+00; -1.4126648E-01;0; -7.5062871E-02;  1.0002373E+04;  0.0000000E+00; -7.1354839E-04;  1.0000000E+04;  0.0000000E+00;  9.9998926E+03; -7.8117430E-02;  0.0000000E+00;  3.0545595E-03;  5.7951302E+01;
  1.7999215E-01;  9.9999998E-03; -3.0000138E-01;1308; -6.0988427E-03;  0.0000000E+00; -8.8171638E-04;  1.0001378E+03;  4.0000001E-01;  1.1416959E+02;3; -4.4633098E+00;  0.0000000E+00; -5.4242516E-01;0; -9.0853564E-02;  1.0002589E+04;  0.0000000E+00; -2.2213538E-01;  1.0000000E+04;  0.0000000E+00;  1.0000166E+04; -8.6136132E-02;  0.0000000E+00; -4.7174348E-03;  1.1377822E+03;
  1.7999001E-01;  9.9999998E-03; -2.8000110E-01;1309; -7.7802865E-03;  0.0000000E+00; -6.6015357E-04;  1.0001414E+03;  4.0000001E-01;  1.1713247E+02;3; -5.1795921E+00;  0.0000000E+00; -3.2427263E-01;0; -9.2944026E-02;  1.0002753E+04;  0.0000000E+00; -1.5139800E-01;  1.0000000E+04;  0.0000000E+00;  1.0000076E+04; -9.0625584E-02;  0.0000000E+00; -2.3184395E-03;  7.7510211E+02;
  1.7998841E-01;  9.9999998E-03; -2.6000097E-01;1310; -9.0390770E-03;  0.0000000E+00; -5.6090526E-04;  1.0001389E+03;  4.0000001E-01;  1.1505846E+02;3; -5.5719161E+00;  0.0000000E+00; -2.3962045E-01;0; -9.0749934E-02;  1.0002805E+04;  0.0000000E+00; -7.8129441E-02;  1.0000000E+04;  0.0000000E+00;  9.9999766E+03; -9.1349870E-02;  0.0000000E+00;  5.9993425E-04;  4.0061023E+02;
  1.7998727E-01;  9.9999998E-03; -2.4000086E-01;1311; -9.9405153E-03;  0.0000000E+00; -4.9846043E-04;  1.0001360E+03;  4.0000001E-01;  1.1268816E+02;3; -5.8292680E+00;  0.0000000E+00; -2.0156443E-01;0; -8.8493399E-02;  1.0002821E+04;  0.0000000E+00; -3.0544236E-02;  1.0000000E+04;  0.0000000E+00;  9.9998994E+03; -9.1209888E-02;  0.0000000E+00;  2.7164919E-03;  1.6627803E+02;
  1.7998655E-01;  9.9999998E-03; -2.2000076E-01;1312; -1.0517596E-02;  0.0000000E+00; -4.4791002E-04;  1.0001347E+03;  4.0000001E-01;  1.1160177E+02;3; -6.0164194E+00;  0.0000000E+00; -1.8608850E-01;0; -8.7260664E-02;  1.0002832E+04;  0.0000000E+00; -8.6279875E-03;  1.0000000E+04;  0.0000000E+00;  9.9998643E+03; -9.1009662E-02;  0.0000000E+00;  3.7489971E-03;  8.5667274E+01;
  1.7998615E-01;  9.9999998E-03; -2.0000064E-01;1313; -1.0830496E-02;  0.0000000E+00; -3.9289353E-04;  1.0001344E+03;  4.0000001E-01;  1.1130548E+02;3; -6.1431894E+00;  0.0000000E+00; -1.7387690E-01;0; -8.6792700E-02;  1.0002830E+04;  0.0000000E+00; -1.5337025E-03;  1.0000000E+04;  0.0000000E+00;  9.9998564E+03; -9.0748727E-02;  0.0000000E+00;  3.9560306E-03;  7.7337318E+01;
  1.9998977E-01;  9.9999998E-03; -3.0000150E-01;1339; -7.8148786E-03;  0.0000000E+00; -8.8324299E-04;  1.0001854E+03;  4.0000001E-01;  1.5357588E+02;3; -5.6377811E+00;  0.0000000E+00; -4.7910404E-01;0; -1.2055773E-01;  1.0003490E+04;  0.0000000E+00; -3.3611840E-01;  1.0000000E+04;  0.0000000E+00;  1.0000216E+04; -1.1403733E-01;  0.0000000E+00; -6.5204082E-03;  1.7272916E+03;
  1.9998740E-01;  9.9999998E-03; -2.8000131E-01;1340; -9.6002258E-03;  0.0000000E+00; -7.3597627E-04;  1.0001815E+03;  4.0000001E-01;  1.5031671E+02;3; -6.2576346E+00;  0.0000000E+00; -3.3898830E-01;0; -1.1705916E-01;  1.0003555E+04;  0.0000000E+00; -2.2516754E-01;  1.0000000E+04;  0.0000000E+00;  1.0000077E+04; -1.1445051E-01;  0.0000000E+00; -2.6086527E-03;  1.1562770E+03;
  1.9998564E-01;  9.9999998E-03; -2.6000118E-01;1341; -1.0960436E-02;  0.0000000E+00; -6.6172431E-04;  1.0001716E+03;  4.0000001E-01;  1.4211942E+02;3; -6.5987253E+00;  0.0000000E+00; -2.7264643E-01;0; -1.0982279E-01;  1.0003504E+04;  0.0000000E+00; -1.1400735E-01;  1.0000000E+04;  0.0000000E+00;  9.9999297E+03; -1.1141729E-01;  0.0000000E+00;  1.5945025E-03;  5.8728381E+02;
  1.9998437E-01;  9.9999998E-03; -2.4000108E-01;1342; -1.1936258E-02;  0.0000000E+00; -6.2149664E-04;  1.0001639E+03;  4.0000001E-01;  1.3579861E+02;3; -6.8287482E+00;  0.0000000E+00; -2.5268197E-01;0; -1.0419419E-01;  1.0003446E+04;  0.0000000E+00; -4.4161160E-02;  1.0000000E+04;  0.0000000E+00;  9.9998359E+03; -1.0856868E-01;  0.0000000E+00;  4.3744911E-03;  2.4391124E+02;
  1.9998360E-01;  9.9999998E-03; -2.2000098E-01;1343; -1.2544935E-02;  0.0000000E+00; -5.8558077E-04;  1.0001598E+03;  4.0000001E-01;  1.3234192E+02;3; -6.9967446E+00;  0.0000000E+00; -2.5176024E-01;0; -1.0108230E-01;  1.0003405E+04;  0.0000000E+00; -1.2610342E-02;  1.0000000E+04;  0.0000000E+00;  9.9997920E+03; -1.0658568E-01;  0.0000000E+00;  5.5033793E-03;  1.2557231E+02;
  1.9998319E-01;  9.9999998E-03; -2.0000085E-01;1344; -1.2856717E-02;  0.0000000E+00; -5.2608486E-04;  1.0001584E+03;  4.0000001E-01;  1.3125552E+02;3; -7.1111727E+00;  0.0000000E+00; -2.4501343E-01;0; -9.9664100E-02;  1.0003372E+04;  0.0000000E+00; -2.3460614E-03;  1.0000000E+04;  0.0000000E+00;  9.9997930E+03; -1.0518300E-01;  0.0000000E+00;  5.5188951E-03;  1.0794335E+02;
  2.1998690E-01;  9.9999998E-03; -3.0000234E-01;1370; -9.8016812E-03;  0.0000000E+00; -1.3286459E-03;  1.0002267E+03;  4.0000001E-01;  1.8784651E+02;3; -6.9580059E+00;  0.0000000E+00; -7.0611572E-01;0; -1.4490397E-01;  1.0004333E+04;  0.0000000E+00; -4.0607321E-01;  1.0000000E+04;  0.0000000E+00;  1.0000195E+04; -1.3833717E-01;  0.0000000E+00; -6.5668081E-03;  2.0942007E+03;
  2.1998419E-01;  9.9999998E-03; -2.8000179E-01;1371; -1.1789781E-02;  0.0000000E+00; -1.0001113E-03;  1.0002199E+03;  4.0000001E-01;  1.8221704E+02;3; -7.5230761E+00;  0.0000000E+00; -4.5662308E-01;0; -1.3902612E-01;  1.0004356E+04;  0.0000000E+00; -2.6662722E-01;  1.0000000E+04;  0.0000000E+00;  1.0000039E+04; -1.3683897E-01;  0.0000000E+00; -2.1871496E-03;  1.3741207E+03;
  2.1998225E-01;  9.9999998E-03; -2.6000157E-01;1372; -1.3230002E-02;  0.0000000E+00; -8.8385370E-04;  1.0002046E+03;  4.0000001E-01;  1.6947667E+02;3; -7.7715788E+00;  0.0000000E+00; -3.7234688E-01;0; -1.2799749E-01;  1.0004245E+04;  0.0000000E+00; -1.3259098E-01;  1.0000000E+04;  0.0000000E+00;  9.9998447E+03; -1.3157269E-01;  0.0000000E+00;  3.5752016E-03;  6.8897729E+02;
  2.1998090E-01;  9.9999998E-03; -2.4000143E-01;1373; -1.4266632E-02;  0.0000000E+00; -8.3260512E-04;  1.0001932E+03;  4.0000001E-01;  1.6009421E+02;3; -7.9503579E+00;  0.0000000E+00; -3.5539246E-01;0; -1.1988802E-01;  1.0004143E+04;  0.0000000E+00; -5.0492872E-02;  1.0000000E+04;  0.0000000E+00;  9.9997236E+03; -1.2701587E-01;  0.0000000E+00;  7.1278480E-03;  2.9690448E+02;
  2.1998009E-01;  9.9999998E-03; -2.2000131E-01;1374; -1.4886063E-02;  0.0000000E+00; -8.0256956E-04;  1.0001876E+03;  4.0000001E-01;  1.5535361E+02;3; -8.0848694E+00;  0.0000000E+00; -3.6233634E-01;0; -1.1549076E-01;  1.0004065E+04;  0.0000000E+00; -1.4275513E-02;  1.0000000E+04;  0.0000000E+00;  9.9996855E+03; -1.2376409E-01;  0.0000000E+00;  8.2733277E-03;  1.7578076E+02;
  2.1997970E-01;  9.9999998E-03; -2.0000115E-01;1375; -1.5179370E-02;  0.0000000E+00; -7.3791842E-04;  1.0001853E+03;  4.0000001E-01;  1.5347711E+02;3; -8.1762466E+00;  0.0000000E+00; -3.6351988E-01;0; -1.1346379E-01;  1.0004003E+04;  0.0000000E+00; -2.6495215E-03;  1.0000000E+04;  0.0000000E+00;  9.9997031E+03; -1.2141421E-01;  0.0000000E+00;  7.9504168E-03;  1.5299997E+02;
  2.3998313E-01;  9.9999998E-03; -3.0000490E-01;1401; -1.2304781E-02;  0.0000000E+00; -3.0678036E-03;  1.0002435E+03;  4.0000001E-01;  2.0177203E+02;3; -8.5321455E+00;  0.0000000E+00; -1.8350258E+00;0; -1.5082563E-01;  1.0005100E+04;  0.0000000E+00; -3.9779288E-01;  1.0000000E+04;  0.0000000E+00;  9.9997744E+03; -1.5774794E-01;  0.0000000E+00;  6.9222981E-03;  2.0611555E+03;
  2.3998018E-01;  9.9999998E-03; -2.8000334E-01;1402; -1.4428083E-02;  0.0000000E+00; -2.0491919E-03;  1.0002474E+03;  4.0000001E-01;  2.0503120E+02;3; -8.9865370E+00;  0.0000000E+00; -1.0843172E+00;0; -1.5204026E-01;  1.0005134E+04;  0.0000000E+00; -2.5337851E-01;  1.0000000E+04;  0.0000000E+00;  9.9998135E+03; -1.5638907E-01;  0.0000000E+00;  4.3488131E-03;  1.3150562E+03;
  2.3997813E-01;  9.9999998E-03; -2.6000252E-01;1403; -1.5920099E-02;  0.0000000E+00; -1.5221172E-03;  1.0002344E+03;  4.0000001E-01;  1.9416731E+02;3; -9.1108694E+00;  0.0000000E+00; -7.2074604E-01;0; -1.4285500E-01;  1.0005026E+04;  0.0000000E+00; -1.2285713E-01;  1.0000000E+04;  0.0000000E+00;  9.9996641E+03; -1.5107693E-01;  0.0000000E+00;  8.2219206E-03;  6.5887262E+02;
  2.3997670E-01;  9.9999998E-03; -2.4000208E-01;1404; -1.6984737E-02;  0.0000000E+00; -1.2702454E-03;  1.0002234E+03;  4.0000001E-01;  1.8508116E+02;3; -9.2082825E+00;  0.0000000E+00; -5.8601236E-01;0; -1.3476489E-01;  1.0004911E+04;  0.0000000E+00; -4.5517221E-02;  1.0000000E+04;  0.0000000E+00;  9.9995557E+03; -1.4620392E-01;  0.0000000E+00;  1.1439022E-02;  3.2492966E+02;
  2.3997591E-01;  9.9999998E-03; -2.2000183E-01;1405; -1.7581832E-02;  0.0000000E+00; -1.1649680E-03;  1.0002174E+03;  4.0000001E-01;  1.8014302E+02;3; -9.2852507E+00;  0.0000000E+00; -5.5640393E-01;0; -1.3021448E-01;  1.0004816E+04;  0.0000000E+00; -1.2467635E-02;  1.0000000E+04;  0.0000000E+00;  9.9995342E+03; -1.4242801E-01;  0.0000000E+00;  1.2213534E-02;  2.4156947E+02;
  2.3997557E-01;  9.9999998E-03; -2.0000158E-01;1406; -1.7836228E-02;  0.0000000E+00; -1.0572489E-03;  1.0002151E+03;  4.0000001E-01;  1.7826654E+02;3; -9.3437452E+00;  0.0000000E+00; -5.4365706E-01;0; -1.2811847E-01;  1.0004734E+04;  0.0000000E+00; -2.1956486E-03;  1.0000000E+04;  0.0000000E+00;  9.9995732E+03; -1.3945927E-01;  0.0000000E+00;  1.1340795E-02;  2.1473714E+02;
  2.5997797E-01;  9.9999998E-03; -3.0000767E-01;1432; -1.5642835E-02;  0.0000000E+00; -4.7778105E-03;  1.0002527E+03;  4.0000001E-01;  2.0937674E+02;3; -1.0581422E+01;  0.0000000E+00; -2.8464808E+00;0; -1.5123336E-01;  1.0005905E+04;  0.0000000E+00; -3.0170801E-01;  1.0000000E+04;  0.0000000E+00;  9.9991494E+03; -1.7627719E-01;  0.0000000E+00;  2.5043828E-02;  1.6200637E+03;
  2.5997505E-01;  9.9999998E-03; -2.8000554E-01;1433; -1.7703971E-02;  0.0000000E+00; -3.4894638E-03;  1.0002667E+03;  4.0000001E-01;  2.2093198E+02;3; -1.0747783E+01;  0.0000000E+00; -1.9111080E+00;0; -1.5814118E-01;  1.0005950E+04;  0.0000000E+00; -1.8955767E-01;  1.0000000E+04;  0.0000000E+00;  9.9993818E+03; -1.7506076E-01;  0.0000000E+00;  1.6919583E-02;  1.0311381E+03;
  2.5997302E-01;  9.9999998E-03; -2.6000401E-01;1434; -1.9170001E-02;  0.0000000E+00; -2.5288335E-03;  1.0002621E+03;  4.0000001E-01;  2.1717900E+02;3; -1.0676949E+01;  0.0000000E+00; -1.2785659E+00;0; -1.5469661E-01;  1.0005872E+04;  0.0000000E+00; -8.9468762E-02;  1.0000000E+04;  0.0000000E+00;  9.9993711E+03; -1.7076020E-01;  0.0000000E+00;  1.6063578E-02;  5.5920544E+02;
  2.5997165E-01;  9.9999998E-03; -2.4000314E-01;1435; -2.0159569E-02;  0.0000000E+00; -2.0016599E-03;  1.0002544E+03;  4.0000001E-01;  2.1075943E+02;3; -1.0620141E+01;  0.0000000E+00; -9.7861421E-01;0; -1.4901938E-01;  1.0005771E+04;  0.0000000E+00; -3.1837691E-02;  1.0000000E+04;  0.0000000E+00;  9.9993213E+03; -1.6644363E-01;  0.0000000E+00;  1.7424261E-02;  3.7362830E+02;
  2.5997096E-01;  9.9999998E-03; -2.2000264E-01;1436; -2.0684846E-02;  0.0000000E+00; -1.7333983E-03;  1.0002503E+03;  4.0000001E-01;  2.0740149E+02;3; -1.0608133E+01;  0.0000000E+00; -8.6371803E-01;0; -1.4546916E-01;  1.0005673E+04;  0.0000000E+00; -8.1916610E-03;  1.0000000E+04;  0.0000000E+00;  9.9993369E+03; -1.6269648E-01;  0.0000000E+00;  1.7227327E-02;  3.2960736E+02;
  2.5997069E-01;  9.9999998E-03; -2.0000219E-01;1437; -2.0874688E-02;  0.0000000E+00; -1.5159069E-03;  1.0002490E+03;  4.0000001E-01;  2.0621634E+02;3; -1.0623322E+01;  0.0000000E+00; -8.0505657E-01;0; -1.4379427E-01;  1.0005571E+04;  0.0000000E+00; -1.2720472E-03;  1.0000000E+04;  0.0000000E+00;  9.9994082E+03; -1.5939116E-01;  0.0000000E+00;  1.5596893E-02;  2.9328479E+02;
  2.7997151E-01;  9.9999998E-03; -3.0001003E-01;1463; -1.9717444E-02;  0.0000000E+00; -6.0412553E-03;  1.0002728E+03;  4.0000001E-01;  2.2606763E+02;3; -1.3022393E+01;  0.0000000E+00; -3.5108666E+00;0; -1.5803742E-01;  1.0006847E+04;  0.0000000E+00; -1.7629151E-01;  1.0000000E+04;  0.0000000E+00;  9.9986113E+03; -1.9613129E-01;  0.0000000E+00;  3.8093861E-02;  1.1336180E+03;
  2.7996877E-01;  9.9999998E-03; -2.8000775E-01;1464; -2.1611178E-02;  0.0000000E+00; -4.8083663E-03;  1.0002896E+03;  4.0000001E-01;  2.3989439E+02;3; -1.2782889E+01;  0.0000000E+00; -2.5944548E+00;0; -1.6551663E-01;  1.0006889E+04;  0.0000000E+00; -1.0954142E-01;  1.0000000E+04;  0.0000000E+00;  9.9989053E+03; -1.9498557E-01;  0.0000000E+00;  2.9468935E-02;  7.7815204E+02;
  2.7996686E-01;  9.9999998E-03; -2.6000577E-01;1465; -2.2954641E-02;  0.0000000E+00; -3.6765405E-03;  1.0002927E+03;  4.0000001E-01;  2.4256099E+02;3; -1.2424995E+01;  0.0000000E+00; -1.8773047E+00;0; -1.6659898E-01;  1.0006836E+04;  0.0000000E+00; -4.9977921E-02;  1.0000000E+04;  0.0000000E+00;  9.9990186E+03; -1.9181637E-01;  0.0000000E+00;  2.5217397E-02;  5.4451727E+02;
  2.7996564E-01;  9.9999998E-03; -2.4000451E-01;1466; -2.3815488E-02;  0.0000000E+00; -2.9354836E-03;  1.0002894E+03;  4.0000001E-01;  2.3979564E+02;3; -1.2174557E+01;  0.0000000E+00; -1.4620504E+00;0; -1.6396518E-01;  1.0006750E+04;  0.0000000E+00; -1.6669413E-02;  1.0000000E+04;  0.0000000E+00;  9.9990420E+03; -1.8829212E-01;  0.0000000E+00;  2.4326935E-02;  4.7570605E+02;
  2.7996510E-01;  9.9999998E-03; -2.2000366E-01;1467; -2.4235444E-02;  0.0000000E+00; -2.4671524E-03;  1.0002878E+03;  4.0000001E-01;  2.3851172E+02;3; -1.2052818E+01;  0.0000000E+00; -1.2600493E+00;0; -1.6192231E-01;  1.0006647E+04;  0.0000000E+00; -3.8046385E-03;  1.0000000E+04;  0.0000000E+00;  9.9991064E+03; -1.8479203E-01;  0.0000000E+00;  2.2869727E-02;  4.3743463E+02;
  2.7996495E-01;  9.9999998E-03; -2.0000300E-01;1468; -2.4343202E-02;  0.0000000E+00; -2.1039755E-03;  1.0002874E+03;  4.0000001E-01;  2.3801790E+02;3; -1.2021663E+01;  0.0000000E+00; -1.1302967E+00;0; -1.6085003E-01;  1.0006529E+04;  0.0000000E+00; -4.5210629E-04;  1.0000000E+04;  0.0000000E+00;  9.9992148E+03; -1.8130957E-01;  0.0000000E+00;  2.0459527E-02;  3.8638922E+02;
  2.9996398E-01;  9.9999998E-03; -3.0001220E-01;1494; -2.4258178E-02;  0.0000000E+00; -7.1255611E-03;  1.0003087E+03;  4.0000001E-01;  2.5569638E+02;3; -1.5638369E+01;  0.0000000E+00; -4.0493073E+00;0; -1.7229539E-01;  1.0007962E+04;  0.0000000E+00; -7.8727208E-02;  1.0000000E+04;  0.0000000E+00;  9.9982129E+03; -2.1828462E-01;  0.0000000E+00;  4.5989230E-02;  9.4745782E+02;
  2.9996142E-01;  9.9999998E-03; -2.8000981E-01;1495; -2.5990477E-02;  0.0000000E+00; -5.9451745E-03;  1.0003246E+03;  4.0000001E-01;  2.6893057E+02;3; -1.4959873E+01;  0.0000000E+00; -3.1421154E+00;0; -1.7872448E-01;  1.0007991E+04;  0.0000000E+00; -4.7497895E-02;  1.0000000E+04;  0.0000000E+00;  9.9985010E+03; -2.1729878E-01;  0.0000000E+00;  3.8574293E-02;  7.6224530E+02;
  2.9995966E-01;  9.9999998E-03; -2.6000762E-01;1496; -2.7204966E-02;  0.0000000E+00; -4.8036417E-03;  1.0003308E+03;  4.0000001E-01;  2.7406622E+02;3; -1.4292238E+01;  0.0000000E+00; -2.4290960E+00;0; -1.8158983E-01;  1.0007953E+04;  0.0000000E+00; -2.0286597E-02;  1.0000000E+04;  0.0000000E+00;  9.9986680E+03; -2.1501343E-01;  0.0000000E+00;  3.3423603E-02;  6.5380157E+02;
  2.9995862E-01;  9.9999998E-03; -2.4000603E-01;1497; -2.7947223E-02;  0.0000000E+00; -3.9410479E-03;  1.0003309E+03;  4.0000001E-01;  2.7416498E+02;3; -1.3846488E+01;  0.0000000E+00; -1.9607409E+00;0; -1.8110126E-01;  1.0007872E+04;  0.0000000E+00; -6.0019111E-03;  1.0000000E+04;  0.0000000E+00;  9.9987490E+03; -2.1215381E-01;  0.0000000E+00;  3.1052550E-02;  6.0887665E+02;
  2.9995820E-01;  9.9999998E-03; -2.2000487E-01;1498; -2.8271105E-02;  0.0000000E+00; -3.2991110E-03;  1.0003309E+03;  4.0000001E-01;  2.7416498E+02;3; -1.3623038E+01;  0.0000000E+00; -1.6821713E+00;0; -1.8027912E-01;  1.0007763E+04;  0.0000000E+00; -1.0709091E-03;  1.0000000E+04;  0.0000000E+00;  9.9988604E+03; -2.0890334E-01;  0.0000000E+00;  2.8624220E-02;  5.5763708E+02;
  2.9995823E-01;  9.9999998E-03; -2.0000394E-01;1499; -2.8284905E-02;  0.0000000E+00; -2.7853905E-03;  1.0003312E+03;  4.0000001E-01;  2.7446127E+02;3; -1.3539719E+01;  0.0000000E+00; -1.4962178E+00;0; -1.7968237E-01;  1.0007630E+04;  0.0000000E+00; -6.7110057E-05;  1.0000000E+04;  0.0000000E+00;  9.9989990E+03; -2.0532137E-01;  0.0000000E+00;  2.5638996E-02;  4.9123120E+02;
  3.1995562E-01;  9.9999998E-03; -3.0001447E-01;1525; -2.9090876E-02;  0.0000000E+00; -8.1847636E-03;  1.0003589E+03;  4.0000001E-01;  2.9737421E+02;3; -1.8298857E+01;  0.0000000E+00; -4.5618649E+00;0; -1.9263498E-01;  1.0009275E+04;  0.0000000E+00; -2.4830883E-02;  1.0000000E+04;  0.0000000E+00;  9.9979082E+03; -2.4317586E-01;  0.0000000E+00;  5.0540876E-02;  1.0114821E+03;
  3.1995308E-01;  9.9999998E-03; -2.8001186E-01;1526; -3.0741420E-02;  0.0000000E+00; -7.0125349E-03;  1.0003727E+03;  4.0000001E-01;  3.0873190E+02;3; -1.7203693E+01;  0.0000000E+00; -3.6199834E+00;0; -1.9783467E-01;  1.0009282E+04;  0.0000000E+00; -1.3796728E-02;  1.0000000E+04;  0.0000000E+00;  9.9981719E+03; -2.4234709E-01;  0.0000000E+00;  4.4512428E-02;  8.8335291E+02;
  3.1995139E-01;  9.9999998E-03; -2.6000950E-01;1527; -3.1891786E-02;  0.0000000E+00; -5.8732117E-03;  1.0003791E+03;  4.0000001E-01;  3.1406506E+02;3; -1.6241499E+01;  0.0000000E+00; -2.9108222E+00;0; -2.0086010E-01;  1.0009240E+04;  0.0000000E+00; -5.1438147E-03;  1.0000000E+04;  0.0000000E+00;  9.9983467E+03; -2.4063410E-01;  0.0000000E+00;  3.9773997E-02;  8.0095471E+02;
  3.1995046E-01;  9.9999998E-03; -2.4000765E-01;1528; -3.2565013E-02;  0.0000000E+00; -4.9472782E-03;  1.0003804E+03;  4.0000001E-01;  3.1515146E+02;3; -1.5618404E+01;  0.0000000E+00; -2.4306188E+00;0; -2.0119676E-01;  1.0009157E+04;  0.0000000E+00; -1.1584730E-03;  1.0000000E+04;  0.0000000E+00;  9.9984541E+03; -2.3823425E-01;  0.0000000E+00;  3.7037496E-02;  7.5033765E+02;
  3.1995016E-01;  9.9999998E-03; -2.2000620E-01;1529; -3.2816846E-02;  0.0000000E+00; -4.1829306E-03;  1.0003813E+03;  4.0000001E-01;  3.1594156E+02;3; -1.5303268E+01;  0.0000000E+00; -2.1098413E+00;0; -2.0097430E-01;  1.0009038E+04;  0.0000000E+00; -1.0650053E-04;  1.0000000E+04;  0.0000000E+00;  9.9985918E+03; -2.3519441E-01;  0.0000000E+00;  3.4220111E-02;  6.8622418E+02;
  3.1995034E-01;  9.9999998E-03; -2.0000499E-01;1530; -3.2744046E-02;  0.0000000E+00; -3.5421306E-03;  1.0003822E+03;  4.0000001E-01;  3.1663290E+02;3; -1.5176476E+01;  0.0000000E+00; -1.8863753E+00;0; -2.0061159E-01;  1.0008884E+04;  0.0000000E+00;  1.2170782E-06;  1.0000000E+04;  0.0000000E+00;  9.9987627E+03; -2.3157567E-01;  0.0000000E+00;  3.0964075E-02;  6.0647144E+02;
  3.3994636E-01;  9.9999998E-03; -3.0001691E-01;1556; -3.4178466E-02;  0.0000000E+00; -9.2979735E-03;  1.0004205E+03;  4.0000001E-01;  3.4843442E+02;3; -2.0962008E+01;  0.0000000E+00; -5.1005139E+00;0; -2.1725997E-01;  1.0010779E+04;  0.0000000E+00; -3.9214408E-03;  1.0000000E+04;  0.0000000E+00;  9.9976348E+03; -2.7077800E-01;  0.0000000E+00;  5.3518035E-02;  1.1390265E+03;
  3.3994365E-01;  9.9999998E-03; -2.8001407E-01;1557; -3.5879809E-02;  0.0000000E+00; -8.0972202E-03;  1.0004321E+03;  4.0000001E-01;  3.5791565E+02;3; -1.9504284E+01;  0.0000000E+00; -4.0938244E+00;0; -2.2146034E-01;  1.0010763E+04;  0.0000000E+00; -1.8201921E-03;  1.0000000E+04;  0.0000000E+00;  9.9978809E+03; -2.7009767E-01;  0.0000000E+00;  4.8637327E-02;  1.0260544E+03;
  3.3994186E-01;  9.9999998E-03; -2.6001146E-01;1558; -3.7060000E-02;  0.0000000E+00; -6.9256132E-03;  1.0004376E+03;  4.0000001E-01;  3.6255750E+02;3; -1.8280334E+01;  0.0000000E+00; -3.3443413E+00;0; -2.2399631E-01;  1.0010716E+04;  0.0000000E+00; -4.5530323E-04;  1.0000000E+04;  0.0000000E+00;  9.9980430E+03; -2.6877996E-01;  0.0000000E+00;  4.4783644E-02;  9.5130524E+02;
  3.3994097E-01;  9.9999998E-03; -2.4000937E-01;1559; -3.7716623E-02;  0.0000000E+00; -5.9605371E-03;  1.0004387E+03;  4.0000001E-01;  3.6344635E+02;3; -1.7490696E+01;  0.0000000E+00; -2.8564239E+00;0; -2.2427858E-01;  1.0010624E+04;  0.0000000E+00; -2.2184860E-05;  1.0000000E+04;  0.0000000E+00;  9.9981572E+03; -2.6673791E-01;  0.0000000E+00;  4.2459324E-02;  8.9813879E+02;
  3.3994079E-01;  9.9999998E-03; -2.2000764E-01;1560; -3.7921209E-02;  0.0000000E+00; -5.1020491E-03;  1.0004399E+03;  4.0000001E-01;  3.6443396E+02;3; -1.7092455E+01;  0.0000000E+00; -2.5174625E+00;0; -2.2420949E-01;  1.0010490E+04;  0.0000000E+00;  6.6244806E-06;  1.0000000E+04;  0.0000000E+00;  9.9983105E+03; -2.6390633E-01;  0.0000000E+00;  3.9696835E-02;  8.2460126E+02;
  3.3994114E-01;  9.9999998E-03; -2.0000617E-01;1561; -3.7769597E-02;  0.0000000E+00; -4.3502250E-03;  1.0004408E+03;  4.0000001E-01;  3.6522406E+02;3; -1.6930723E+01;  0.0000000E+00; -2.2725556E+00;0; -2.2390562E-01;  1.0010313E+04;  0.0000000E+00;  1.0738423E-06;  1.0000000E+04;  0.0000000E+00;  9.9985000E+03; -2.6031175E-01;  0.0000000E+00;  3.6406122E-02;  7.3240222E+02;
  3.5993588E-01;  9.9999998E-03; -3.0001968E-01;1587; -3.9654654E-02;  0.0000000E+00; -1.0505795E-02;  1.0004911E+03;  4.0000001E-01;  4.0690182E+02;3; -2.3698387E+01;  0.0000000E+00; -5.6669011E+00;0; -2.4471509E-01;  1.0012483E+04;  0.0000000E+00; -3.3083254E-06;  1.0000000E+04;  0.0000000E+00;  9.9973438E+03; -3.0110019E-01;  0.0000000E+00;  5.6385100E-02;  1.2868452E+03;
  3.5993281E-01;  9.9999998E-03; -2.8001651E-01;1588; -4.1525759E-02;  0.0000000E+00; -9.2348391E-03;  1.0005015E+03;  4.0000001E-01;  4.1549417E+02;3; -2.1917006E+01;  0.0000000E+00; -4.5672417E+00;0; -2.4850284E-01;  1.0012463E+04;  0.0000000E+00;  6.3064086E-05;  1.0000000E+04;  0.0000000E+00;  9.9975752E+03; -3.0070180E-01;  0.0000000E+00;  5.2198965E-02;  1.1792969E+03;
  3.5993087E-01;  9.9999998E-03; -2.6001361E-01;1589; -4.2798325E-02;  0.0000000E+00; -8.0120396E-03;  1.0005061E+03;  4.0000001E-01;  4.1934592E+02;3; -2.0431858E+01;  0.0000000E+00; -3.7576370E+00;0; -2.5037980E-01;  1.0012405E+04;  0.0000000E+00;  5.1487052E-05;  1.0000000E+04;  0.0000000E+00;  9.9977197E+03; -2.9975399E-01;  0.0000000E+00;  4.9374197E-02;  1.1119779E+03;
  3.5992995E-01;  9.9999998E-03; -2.4001123E-01;1590; -4.3477818E-02;  0.0000000E+00; -7.0012161E-03;  1.0005068E+03;  4.0000001E-01;  4.1983972E+02;3; -1.9478106E+01;  0.0000000E+00; -3.2466469E+00;0; -2.5028563E-01;  1.0012308E+04;  0.0000000E+00;  2.3761822E-05;  1.0000000E+04;  0.0000000E+00;  9.9978320E+03; -2.9803485E-01;  0.0000000E+00;  4.7749229E-02;  1.0586591E+03;
  3.5992989E-01;  9.9999998E-03; -2.2000921E-01;1591; -4.3641794E-02;  0.0000000E+00; -6.0656057E-03;  1.0005078E+03;  4.0000001E-01;  4.2072858E+02;3; -1.8992378E+01;  0.0000000E+00; -2.9165740E+00;0; -2.5015604E-01;  1.0012154E+04;  0.0000000E+00;  7.1355848E-06;  1.0000000E+04;  0.0000000E+00;  9.9980039E+03; -2.9540160E-01;  0.0000000E+00;  4.5245543E-02;  9.7595917E+02;
  3.5993046E-01;  9.9999998E-03; -2.0000744E-01;1592; -4.3411613E-02;  0.0000000E+00; -5.2033165E-03;  1.0005086E+03;  4.0000001E-01;  4.2132117E+02;3; -1.8798748E+01;  0.0000000E+00; -2.6638832E+00;0; -2.4980500E-01;  1.0011951E+04;  0.0000000E+00;  9.6796668E-07;  1.0000000E+04;  0.0000000E+00;  9.9982236E+03; -2.9183590E-01;  0.0000000E+00;  4.2030901E-02;  8.7011719E+02;
  3.7992382E-01;  9.9999998E-03; -3.0002290E-01;1618; -4.5715507E-02;  0.0000000E+00; -1.1825380E-02;  1.0005720E+03;  4.0000001E-01;  4.7386279E+02;3; -2.6608356E+01;  0.0000000E+00; -6.2617273E+00;0; -2.7507275E-01;  1.0014457E+04;  0.0000000E+00;  7.4362732E-05;  1.0000000E+04;  0.0000000E+00;  9.9969922E+03; -3.3484739E-01;  0.0000000E+00;  5.9774630E-02;  1.4657373E+03;
  3.7992030E-01;  9.9999998E-03; -2.8001928E-01;1619; -4.7803439E-02;  0.0000000E+00; -1.0460934E-02;  1.0005823E+03;  4.0000001E-01;  4.8235635E+02;3; -2.4482641E+01;  0.0000000E+00; -5.0446725E+00;0; -2.7870926E-01;  1.0014435E+04;  0.0000000E+00;  9.4932519E-05;  1.0000000E+04;  0.0000000E+00;  9.9972197E+03; -3.3476102E-01;  0.0000000E+00;  5.6051750E-02;  1.3584664E+03;
  3.7991813E-01;  9.9999998E-03; -2.6001599E-01;1620; -4.9193680E-02;  0.0000000E+00; -9.1703320E-03;  1.0005859E+03;  4.0000001E-01;  4.8541800E+02;3; -2.2713768E+01;  0.0000000E+00; -4.1597004E+00;0; -2.7990335E-01;  1.0014370E+04;  0.0000000E+00;  6.4076310E-05;  1.0000000E+04;  0.0000000E+00;  9.9973545E+03; -3.3410117E-01;  0.0000000E+00;  5.4197825E-02;  1.2940618E+03;
  3.7991717E-01;  9.9999998E-03; -2.4001327E-01;1621; -4.9908295E-02;  0.0000000E+00; -8.1028193E-03;  1.0005858E+03;  4.0000001E-01;  4.8531924E+02;3; -2.1577341E+01;  0.0000000E+00; -3.6315935E+00;0; -2.7932027E-01;  1.0014249E+04;  0.0000000E+00;  2.8474276E-05;  1.0000000E+04;  0.0000000E+00;  9.9974717E+03; -3.3259743E-01;  0.0000000E+00;  5.3277154E-02;  1.2375077E+03;
  3.7991723E-01;  9.9999998E-03; -2.2001091E-01;1622; -5.0034761E-02;  0.0000000E+00; -7.0834737E-03;  1.0005864E+03;  4.0000001E-01;  4.8581305E+02;3; -2.0997829E+01;  0.0000000E+00; -3.3039360E+00;0; -2.7900040E-01;  1.0014065E+04;  0.0000000E+00;  8.0027421E-06;  1.0000000E+04;  0.0000000E+00;  9.9976680E+03; -3.3006111E-01;  0.0000000E+00;  5.1060695E-02;  1.1429214E+03;
  3.7991804E-01;  9.9999998E-03; -2.0000881E-01;1623; -4.9725905E-02;  0.0000000E+00; -6.1044893E-03;  1.0005867E+03;  4.0000001E-01;  4.8601059E+02;3; -2.0775404E+01;  0.0000000E+00; -3.0535386E+00;0; -2.7848721E-01;  1.0013819E+04;  0.0000000E+00;  9.1821266E-07;  1.0000000E+04;  0.0000000E+00;  9.9979180E+03; -3.2643673E-01;  0.0000000E+00;  4.7949534E-02;  1.0206835E+03;
  3.9990976E-01;  9.9999998E-03; -3.0002660E-01;1649; -5.2470133E-02;  0.0000000E+00; -1.3287858E-02;  1.0006660E+03;  4.0000001E-01;  5.5178632E+02;3; -2.9726542E+01;  0.0000000E+00; -6.8895988E+00;0; -3.0890206E-01;  1.0016777E+04;  0.0000000E+00;  9.5512514E-05;  1.0000000E+04;  0.0000000E+00;  9.9965527E+03; -3.7286204E-01;  0.0000000E+00;  6.3959993E-02;  1.6850002E+03;
  3.9990574E-01;  9.9999998E-03; -2.8002250E-01;1650; -5.4793593E-02;  0.0000000E+00; -1.1803598E-02;  1.0006762E+03;  4.0000001E-01;  5.6018115E+02;3; -2.7213799E+01;  0.0000000E+00; -5.5234742E+00;0; -3.1234300E-01;  1.0016735E+04;  0.0000000E+00;  1.2243775E-04;  1.0000000E+04;  0.0000000E+00;  9.9967930E+03; -3.7289256E-01;  0.0000000E+00;  6.0549557E-02;  1.5720616E+03;
  3.9990336E-01;  9.9999998E-03; -2.6001871E-01;1651; -5.6310110E-02;  0.0000000E+00; -1.0435675E-02;  1.0006786E+03;  4.0000001E-01;  5.6225513E+02;3; -2.5125731E+01;  0.0000000E+00; -4.5594325E+00;0; -3.1268919E-01;  1.0016647E+04;  0.0000000E+00;  8.1198203E-05;  1.0000000E+04;  0.0000000E+00;  9.9969365E+03; -3.7230861E-01;  0.0000000E+00;  5.9619423E-02;  1.5031627E+03;
  3.9990240E-01;  9.9999998E-03; -2.4001555E-01;1652; -5.7063837E-02;  0.0000000E+00; -9.2964098E-03;  1.0006774E+03;  4.0000001E-01;  5.6116876E+02;3; -2.3782679E+01;  0.0000000E+00; -4.0166020E+00;0; -3.1151596E-01;  1.0016487E+04;  0.0000000E+00;  3.4945671E-05;  1.0000000E+04;  0.0000000E+00;  9.9970684E+03; -3.7081209E-01;  0.0000000E+00;  5.9296142E-02;  1.4375126E+03;
  3.9990261E-01;  9.9999998E-03; -2.2001278E-01;1653; -5.7159636E-02;  0.0000000E+00; -8.1748376E-03;  1.0006772E+03;  4.0000001E-01;  5.6107001E+02;3; -2.3104479E+01;  0.0000000E+00; -3.6914504E+00;0; -3.1088200E-01;  1.0016254E+04;  0.0000000E+00;  9.2177170E-06;  1.0000000E+04;  0.0000000E+00;  9.9972979E+03; -3.6818108E-01;  0.0000000E+00;  5.7299070E-02;  1.3266680E+03;
  3.9990368E-01;  9.9999998E-03; -2.0001030E-01;1654; -5.6772504E-02;  0.0000000E+00; -7.0654224E-03;  1.0006765E+03;  4.0000001E-01;  5.6047742E+02;3; -2.2856821E+01;  0.0000000E+00; -3.4448538E+00;0; -3.1008244E-01;  1.0015945E+04;  0.0000000E+00;  8.7878766E-07;  1.0000000E+04;  0.0000000E+00;  9.9975928E+03; -3.6433035E-01;  0.0000000E+00;  5.4247901E-02;  1.1841782E+03;
  4.1989341E-01;  9.9999998E-03; -3.0003098E-01;1680; -5.9993003E-02;  0.0000000E+00; -1.4905634E-02;  1.0007759E+03;  4.0000001E-01;  6.4284521E+02;3; -3.3065678E+01;  0.0000000E+00; -7.5301962E+00;0; -3.4684211E-01;  1.0019502E+04;  0.0000000E+00;  1.1822862E-04;  1.0000000E+04;  0.0000000E+00;  9.9960283E+03; -4.1565344E-01;  0.0000000E+00;  6.8811312E-02;  1.9513257E+03;
  4.1988885E-01;  9.9999998E-03; -2.8002620E-01;1681; -6.2564023E-02;  0.0000000E+00; -1.3297973E-02;  1.0007852E+03;  4.0000001E-01;  6.5054865E+02;3; -3.0110399E+01;  0.0000000E+00; -6.0064502E+00;0; -3.4961045E-01;  1.0019423E+04;  0.0000000E+00;  1.5741514E-04;  1.0000000E+04;  0.0000000E+00;  9.9962949E+03; -4.1552076E-01;  0.0000000E+00;  6.5910302E-02;  1.8239656E+03;
  4.1988623E-01;  9.9999998E-03; -2.6002178E-01;1682; -6.4213529E-02;  0.0000000E+00; -1.1843038E-02;  1.0007866E+03;  4.0000001E-01;  6.5173383E+02;3; -2.7662848E+01;  0.0000000E+00; -4.9639273E+00;0; -3.4886068E-01;  1.0019277E+04;  0.0000000E+00;  1.0387522E-04;  1.0000000E+04;  0.0000000E+00;  9.9964658E+03; -4.1471741E-01;  0.0000000E+00;  6.5856710E-02;  1.7397074E+03;
  4.1988528E-01;  9.9999998E-03; -2.4001810E-01;1683; -6.5012127E-02;  0.0000000E+00; -1.0605495E-02;  1.0007837E+03;  4.0000001E-01;  6.4926477E+02;3; -2.6090450E+01;  0.0000000E+00; -4.4078498E+00;0; -3.4700644E-01;  1.0019056E+04;  0.0000000E+00;  4.3789147E-05;  1.0000000E+04;  0.0000000E+00;  9.9966279E+03; -4.1293228E-01;  0.0000000E+00;  6.5925837E-02;  1.6578910E+03;
  4.1988569E-01;  9.9999998E-03; -2.2001486E-01;1684; -6.5081865E-02;  0.0000000E+00; -9.3574375E-03;  1.0007816E+03;  4.0000001E-01;  6.4758582E+02;3; -2.5306055E+01;  0.0000000E+00; -4.0831299E+00;0; -3.4591824E-01;  1.0018741E+04;  0.0000000E+00;  1.1100573E-05;  1.0000000E+04;  0.0000000E+00;  9.9968994E+03; -4.0993014E-01;  0.0000000E+00;  6.4011909E-02;  1.5259415E+03;
  4.1988713E-01;  9.9999998E-03; -2.0001198E-01;1685; -6.4615637E-02;  0.0000000E+00; -8.0996659E-03;  1.0007791E+03;  4.0000001E-01;  6.4551178E+02;3; -2.5038065E+01;  0.0000000E+00; -3.8374670E+00;0; -3.4468612E-01;  1.0018354E+04;  0.0000000E+00;  9.6793212E-07;  1.0000000E+04;  0.0000000E+00;  9.9972393E+03; -4.0561649E-01;  0.0000000E+00;  6.0930364E-02;  1.3591508E+03;
  4.3987435E-01;  9.9999998E-03; -3.0003610E-01;1711; -6.8364531E-02;  0.0000000E+00; -1.6713146E-02;  1.0009033E+03;  4.0000001E-01;  7.4832330E+02;3; -3.6628708E+01;  0.0000000E+00; -8.1852865E+00;0; -3.8922831E-01;  1.0022681E+04;  0.0000000E+00;  1.3763928E-04;  1.0000000E+04;  0.0000000E+00;  9.9953984E+03; -4.6357200E-01;  0.0000000E+00;  7.4343674E-02;  2.2679424E+03;
  4.3986923E-01;  9.9999998E-03; -2.8003055E-01;1712; -7.1192972E-02;  0.0000000E+00; -1.4984906E-02;  1.0009118E+03;  4.0000001E-01;  7.5543414E+02;3; -3.3170673E+01;  0.0000000E+00; -6.4892011E+00;0; -3.9060384E-01;  1.0022528E+04;  0.0000000E+00;  2.0094273E-04;  1.0000000E+04;  0.0000000E+00;  9.9957188E+03; -4.6288878E-01;  0.0000000E+00;  7.2284952E-02;  2.1125767E+03;
  4.3986636E-01;  9.9999998E-03; -2.6002532E-01;1713; -7.2981149E-02;  0.0000000E+00; -1.3421820E-02;  1.0009119E+03;  4.0000001E-01;  7.5543414E+02;3; -3.0320677E+01;  0.0000000E+00; -5.3841643E+00;0; -3.8856134E-01;  1.0022297E+04;  0.0000000E+00;  1.3433344E-04;  1.0000000E+04;  0.0000000E+00;  9.9959502E+03; -4.6146244E-01;  0.0000000E+00;  7.2901092E-02;  1.9970454E+03;
  4.3986547E-01;  9.9999998E-03; -2.4002096E-01;1714; -7.3829979E-02;  0.0000000E+00; -1.2043733E-02;  1.0009059E+03;  4.0000001E-01;  7.5049603E+02;3; -2.8491682E+01;  0.0000000E+00; -4.8065739E+00;0; -3.8590288E-01;  1.0021972E+04;  0.0000000E+00;  5.6618661E-05;  1.0000000E+04;  0.0000000E+00;  9.9961572E+03; -4.5898962E-01;  0.0000000E+00;  7.3086739E-02;  1.8932377E+03;
  4.3986619E-01;  9.9999998E-03; -2.2001719E-01;1715; -7.3875748E-02;  0.0000000E+00; -1.0644359E-02;  1.0009008E+03;  4.0000001E-01;  7.4634802E+02;3; -2.7595600E+01;  0.0000000E+00; -4.4783883E+00;0; -3.8414147E-01;  1.0021551E+04;  0.0000000E+00;  1.4469346E-05;  1.0000000E+04;  0.0000000E+00;  9.9964766E+03; -4.5525041E-01;  0.0000000E+00;  7.1108930E-02;  1.7369333E+03;
  4.3986809E-01;  9.9999998E-03; -2.0001391E-01;1716; -7.3325969E-02;  0.0000000E+00; -9.2233652E-03;  1.0008952E+03;  4.0000001E-01;  7.4170618E+02;3; -2.7314095E+01;  0.0000000E+00; -4.2261715E+00;0; -3.8226989E-01;  1.0021047E+04;  0.0000000E+00;  1.4489597E-06;  1.0000000E+04;  0.0000000E+00;  9.9968740E+03; -4.5016861E-01;  0.0000000E+00;  6.7898728E-02;  1.5430883E+03;
  4.5985204E-01;  9.9999998E-03; -3.0004224E-01;1742; -7.7686839E-02;  0.0000000E+00; -1.8766642E-02;  1.0010505E+03;  4.0000054E-01;  8.7029443E+02;3; -4.0422562E+01;  0.0000000E+00; -8.8515091E+00;0; -4.3586683E-01;  1.0026326E+04;  0.0000000E+00;  1.4812064E-04;  1.0000000E+04;  0.0000000E+00;  9.9946689E+03; -5.1652706E-01;  0.0000000E+00;  8.0660209E-02;  2.6362808E+03;
  4.5984635E-01;  9.9999998E-03; -2.8003564E-01;1743; -8.0779210E-02;  0.0000000E+00; -1.6915729E-02;  1.0010582E+03;  4.0000066E-01;  8.7671399E+02;3; -3.6393913E+01;  0.0000000E+00; -6.9676795E+00;0; -4.3506324E-01;  1.0026060E+04;  0.0000000E+00;  2.5638266E-04;  1.0000000E+04;  0.0000000E+00;  9.9950938E+03; -5.1476967E-01;  0.0000000E+00;  7.9706438E-02;  2.4271582E+03;
  4.5984331E-01;  9.9999998E-03; -2.6002932E-01;1744; -8.2706288E-02;  0.0000000E+00; -1.5190345E-02;  1.0010567E+03;  4.0000066E-01;  8.7543005E+02;3; -3.3090195E+01;  0.0000000E+00; -5.8120012E+00;0; -4.3171191E-01;  1.0025700E+04;  0.0000000E+00;  1.7764649E-04;  1.0000000E+04;  0.0000000E+00;  9.9954248E+03; -5.1218736E-01;  0.0000000E+00;  8.0475442E-02;  2.2610544E+03;
  4.5984256E-01;  9.9999998E-03; -2.4002418E-01;1745; -8.3608307E-02;  0.0000000E+00; -1.3618187E-02;  1.0010460E+03;  4.0000054E-01;  8.6664020E+02;3; -3.0978975E+01;  0.0000000E+00; -5.2035999E+00;0; -4.2800805E-01;  1.0025229E+04;  0.0000000E+00;  7.7127137E-05;  1.0000000E+04;  0.0000000E+00;  9.9956777E+03; -5.0851423E-01;  0.0000000E+00;  8.0506183E-02;  2.1349348E+03;
  4.5984370E-01;  9.9999998E-03; -2.2001991E-01;1746; -8.3626434E-02;  0.0000000E+00; -1.2051469E-02;  1.0010356E+03;  4.0000063E-01;  8.5804785E+02;3; -2.9966745E+01;  0.0000000E+00; -4.8675699E+00;0; -4.2520520E-01;  1.0024660E+04;  0.0000000E+00;  2.1255872E-05;  1.0000000E+04;  0.0000000E+00;  9.9960430E+03; -5.0358540E-01;  0.0000000E+00;  7.8380190E-02;  1.9551071E+03;
  4.5984623E-01;  9.9999998E-03; -2.0001626E-01;1747; -8.2981959E-02;  0.0000000E+00; -1.0464998E-02;  1.0010256E+03;  4.0000069E-01;  8.4975183E+02;3; -2.9677584E+01;  0.0000000E+00; -4.5927844E+00;0; -4.2239445E-01;  1.0024011E+04;  0.0000000E+00;  3.0490148E-06;  1.0000000E+04;  0.0000000E+00;  9.9964922E+03; -4.9737683E-01;  0.0000000E+00;  7.4982390E-02;  1.7344093E+03;
  4.7982574E-01;  9.9999998E-03; -3.0004963E-01;1773; -8.8112436E-02;  0.0000000E+00; -2.1138603E-02;  1.0012155E+03;  4.0000179E-01;  1.0069808E+03;3; -4.4470692E+01;  0.0000000E+00; -9.5220680E+00;0; -4.8558879E-01;  1.0030388E+04;  0.0000000E+00;  1.4489650E-04;  1.0000000E+04;  0.0000000E+00;  9.9938584E+03; -5.7331991E-01;  0.0000000E+00;  8.7731138E-02;  3.0447766E+03;
  4.7981957E-01;  9.9999998E-03; -2.8004169E-01;1774; -9.1453180E-02;  0.0000000E+00; -1.9148929E-02;  1.0012242E+03;  4.0000170E-01;  1.0141905E+03;3; -3.9787064E+01;  0.0000000E+00; -7.4373837E+00;0; -4.8190996E-01;  1.0029954E+04;  0.0000000E+00;  3.3248059E-04;  1.0000000E+04;  0.0000000E+00;  9.9944648E+03; -5.6985211E-01;  0.0000000E+00;  8.7942153E-02;  2.7442708E+03;
  4.7981650E-01;  9.9999998E-03; -2.6003391E-01;1775; -9.3504272E-02;  0.0000000E+00; -1.7158659E-02;  1.0012203E+03;  4.0000185E-01;  1.0110301E+03;3; -3.5967709E+01;  0.0000000E+00; -6.2335229E+00;0; -4.7748286E-01;  1.0029411E+04;  0.0000000E+00;  2.4443274E-04;  1.0000000E+04;  0.0000000E+00;  9.9949316E+03; -5.6547910E-01;  0.0000000E+00;  8.7996230E-02;  2.5114922E+03;
  4.7981611E-01;  9.9999998E-03; -2.4002790E-01;1776; -9.4450369E-02;  0.0000000E+00; -1.5337654E-02;  1.0012010E+03;  4.0000173E-01;  9.9503058E+02;3; -3.3548386E+01;  0.0000000E+00; -5.5828609E+00;0; -4.7223279E-01;  1.0028751E+04;  0.0000000E+00;  1.1249230E-04;  1.0000000E+04;  0.0000000E+00;  9.9952002E+03; -5.6002086E-01;  0.0000000E+00;  8.7788068E-02;  2.3750696E+03;
  4.7981787E-01;  9.9999998E-03; -2.2002320E-01;1777; -9.4424531E-02;  0.0000000E+00; -1.3613911E-02;  1.0011827E+03;  4.0000176E-01;  9.7991992E+02;3; -3.2415573E+01;  0.0000000E+00; -5.2378836E+00;0; -4.6781376E-01;  1.0027991E+04;  0.0000000E+00;  3.5238794E-05;  1.0000000E+04;  0.0000000E+00;  9.9955957E+03; -5.5340773E-01;  0.0000000E+00;  8.5593969E-02;  2.1796570E+03;
  4.7982118E-01;  9.9999998E-03; -2.0001931E-01;1778; -9.3666889E-02;  0.0000000E+00; -1.1889686E-02;  1.0011665E+03;  4.0000176E-01;  9.6638953E+02;3; -3.2129002E+01;  0.0000000E+00; -4.9286251E+00;0; -4.6367151E-01;  1.0027169E+04;  0.0000000E+00;  7.6678925E-06;  1.0000000E+04;  0.0000000E+00;  9.9960898E+03; -5.4570276E-01;  0.0000000E+00;  8.2031257E-02;  1.9363840E+03;
  4.9979448E-01;  9.9999998E-03; -3.0005863E-01;1804; -9.9870473E-02;  0.0000000E+00; -2.3920981E-02;  1.0013926E+03;  4.0000415E-01;  1.1537405E+03;3; -4.8824936E+01;  0.0000000E+00; -1.0188381E+01;0; -5.3542435E-01;  1.0034651E+04;  0.0000000E+00;  1.2940710E-04;  1.0000000E+04;  0.0000000E+00;  9.9930215E+03; -6.3071692E-01;  0.0000000E+00;  9.5292583E-02;  3.4668611E+03;
  4.9978819E-01;  9.9999998E-03; -2.8004885E-01;1805; -1.0338228E-01;  0.0000000E+00; -2.1749547E-02;  1.0014042E+03;  4.0000424E-01;  1.1633204E+03;3; -4.3373543E+01;  0.0000000E+00; -7.9050002E+00;0; -5.2852845E-01;  1.0034005E+04;  0.0000000E+00;  4.4968998E-04;  1.0000000E+04;  0.0000000E+00;  9.9938994E+03; -6.2491572E-01;  0.0000000E+00;  9.6387289E-02;  3.0280854E+03;
  4.9978542E-01;  9.9999998E-03; -2.6003921E-01;1806; -1.0550456E-01;  0.0000000E+00; -1.9345026E-02;  1.0013957E+03;  4.0000418E-01;  1.1563083E+03;3; -3.8956673E+01;  0.0000000E+00; -6.6372542E+00;0; -5.2339709E-01;  1.0033234E+04;  0.0000000E+00;  3.5636316E-04;  1.0000000E+04;  0.0000000E+00;  9.9945059E+03; -6.1813986E-01;  0.0000000E+00;  9.4742782E-02;  2.7295964E+03;
  4.9978569E-01;  9.9999998E-03; -2.4003243E-01;1807; -1.0645737E-01;  0.0000000E+00; -1.7241620E-02;  1.0013627E+03;  4.0000424E-01;  1.1289512E+03;3; -3.6201355E+01;  0.0000000E+00; -5.9266930E+00;0; -5.1571095E-01;  1.0032348E+04;  0.0000000E+00;  1.7645002E-04;  1.0000000E+04;  0.0000000E+00;  9.9947256E+03; -6.1035985E-01;  0.0000000E+00;  9.4648898E-02;  2.6163037E+03;
  4.9978828E-01;  9.9999998E-03; -2.2002749E-01;1808; -1.0635036E-01;  0.0000000E+00; -1.5414450E-02;  1.0013335E+03;  4.0000412E-01;  1.1047545E+03;3; -3.4939457E+01;  0.0000000E+00; -5.5718961E+00;0; -5.0893760E-01;  1.0031368E+04;  0.0000000E+00;  6.3154832E-05;  1.0000000E+04;  0.0000000E+00;  9.9951162E+03; -6.0163897E-01;  0.0000000E+00;  9.2701390E-02;  2.4216780E+03;
  4.9979261E-01;  9.9999998E-03; -2.0002356E-01;1809; -1.0545220E-01;  0.0000000E+00; -1.3615186E-02;  1.0013090E+03;  4.0000424E-01;  1.0844094E+03;3; -3.4667622E+01;  0.0000000E+00; -5.2206945E+00;0; -5.0306875E-01;  1.0030354E+04;  0.0000000E+00;  1.8779523E-05;  1.0000000E+04;  0.0000000E+00;  9.9956396E+03; -5.9214765E-01;  0.0000000E+00;  8.9078881E-02;  2.1633328E+03;
  5.1975703E-01;  9.9999998E-03; -3.0006969E-01;1835; -1.1326485E-01;  0.0000000E+00; -2.7233969E-02;  1.0015749E+03;  4.0001148E-01;  1.3047462E+03;3; -5.3564930E+01;  0.0000000E+00; -1.0830651E+01;0; -5.7967573E-01;  1.0038722E+04;  0.0000000E+00;  1.1823946E-04;  1.0000000E+04;  0.0000000E+00;  9.9922305E+03; -6.8259192E-01;  0.0000000E+00;  1.0291617E-01;  3.8649546E+03;
  5.1975143E-01;  9.9999998E-03; -2.8005749E-01;1836; -1.1674580E-01;  0.0000000E+00; -2.4806583E-02;  1.0015925E+03;  4.0001145E-01;  1.3193630E+03;3; -4.7187759E+01;  0.0000000E+00; -8.3815203E+00;0; -5.6977391E-01;  1.0037834E+04;  0.0000000E+00;  6.5105961E-04;  1.0000000E+04;  0.0000000E+00;  9.9934619E+03; -6.7408186E-01;  0.0000000E+00;  1.0430796E-01;  3.2486609E+03;
  5.1974964E-01;  9.9999998E-03; -2.6004568E-01;1837; -1.1881622E-01;  0.0000000E+00; -2.1828527E-02;  1.0015748E+03;  4.0001136E-01;  1.3047462E+03;3; -4.2083359E+01;  0.0000000E+00; -7.0511818E+00;0; -5.6421411E-01;  1.0036809E+04;  0.0000000E+00;  5.5819773E-04;  1.0000000E+04;  0.0000000E+00;  9.9941357E+03; -6.6454500E-01;  0.0000000E+00;  1.0033092E-01;  2.9182927E+03;
  5.1975101E-01;  9.9999998E-03; -2.4003839E-01;1838; -1.1969070E-01;  0.0000000E+00; -1.9470785E-02;  1.0015208E+03;  4.0001151E-01;  1.2599082E+03;3; -3.8946697E+01;  0.0000000E+00; -6.2455039E+00;0; -5.5276573E-01;  1.0035682E+04;  0.0000000E+00;  2.9648189E-04;  1.0000000E+04;  0.0000000E+00;  9.9941895E+03; -6.5417612E-01;  0.0000000E+00;  1.0141038E-01;  2.8868108E+03;
  5.1975477E-01;  9.9999998E-03; -2.2003353E-01;1839; -1.1944266E-01;  0.0000000E+00; -1.7622311E-02;  1.0014782E+03;  4.0001145E-01;  1.2246501E+03;3; -3.7534702E+01;  0.0000000E+00; -5.8462925E+00;0; -5.4304022E-01;  1.0034483E+04;  0.0000000E+00;  1.1673236E-04;  1.0000000E+04;  0.0000000E+00;  9.9945332E+03; -6.4318705E-01;  0.0000000E+00;  1.0014682E-01;  2.7153357E+03;
  5.1976031E-01;  9.9999998E-03; -2.0002972E-01;1840; -1.1836674E-01;  0.0000000E+00; -1.5825706E-02;  1.0014453E+03;  4.0001148E-01;  1.1973918E+03;3; -3.7290562E+01;  0.0000000E+00; -5.4459500E+00;0; -5.3528488E-01;  1.0033282E+04;  0.0000000E+00;  4.0476898E-05;  1.0000000E+04;  0.0000000E+00;  9.9950654E+03; -6.3185573E-01;  0.0000000E+00;  9.6570835E-02;  2.4489299E+03;
  5.3971231E-01;  9.9999998E-03; -3.0008346E-01;1866; -1.2857105E-01;  0.0000000E+00; -3.1233869E-02;  1.0017534E+03;  4.0003091E-01;  1.4525905E+03;3; -5.8807415E+01;  0.0000000E+00; -1.1541248E+01;0; -6.0994387E-01;  1.0041956E+04;  0.0000000E+00;  1.4627262E-04;  1.0000000E+04;  0.0000000E+00;  9.9915732E+03; -7.1959805E-01;  0.0000000E+00;  1.0965422E-01;  4.1946929E+03;
  5.3970897E-01;  9.9999998E-03; -2.8006825E-01;1867; -1.3163473E-01;  0.0000000E+00; -2.8444944E-02;  1.0017780E+03;  4.0003088E-01;  1.4730342E+03;3; -5.1238220E+01;  0.0000000E+00; -8.8507271E+00;0; -5.9735823E-01;  1.0040846E+04;  0.0000000E+00;  1.0128106E-03;  1.0000000E+04;  0.0000000E+00;  9.9931797E+03; -7.0855719E-01;  0.0000000E+00;  1.1119897E-01;  3.3929980E+03;
  5.3970903E-01;  9.9999998E-03; -2.6005417E-01;1868; -1.3343698E-01;  0.0000000E+00; -2.4764867E-02;  1.0017432E+03;  4.0003091E-01;  1.4441957E+03;3; -4.5316380E+01;  0.0000000E+00; -7.3832150E+00;0; -5.9124082E-01;  1.0039596E+04;  0.0000000E+00;  9.3511323E-04;  1.0000000E+04;  0.0000000E+00;  9.9937334E+03; -6.9647104E-01;  0.0000000E+00;  1.0523023E-01;  3.1215747E+03;
  5.3971219E-01;  9.9999998E-03; -2.4004681E-01;1869; -1.3408269E-01;  0.0000000E+00; -2.2258513E-02;  1.0016621E+03;  4.0003097E-01;  1.3770376E+03;3; -4.1764862E+01;  0.0000000E+00; -6.5015039E+00;0; -5.7464188E-01;  1.0038254E+04;  0.0000000E+00;  5.2717415E-04;  1.0000000E+04;  0.0000000E+00;  9.9934580E+03; -6.8379194E-01;  0.0000000E+00;  1.0915003E-01;  3.2490486E+03;
  5.3971750E-01;  9.9999998E-03; -2.2004233E-01;1870; -1.3362703E-01;  0.0000000E+00; -2.0517381E-02;  1.0016052E+03;  4.0003100E-01;  1.3299282E+03;3; -4.0176376E+01;  0.0000000E+00; -6.0414667E+00;0; -5.6175518E-01;  1.0036876E+04;  0.0000000E+00;  2.1754080E-04;  1.0000000E+04;  0.0000000E+00;  9.9936982E+03; -6.7087078E-01;  0.0000000E+00;  1.0911559E-01;  3.1252947E+03;
  5.3972441E-01;  9.9999998E-03; -2.0003870E-01;1871; -1.3233060E-01;  0.0000000E+00; -1.8779926E-02;  1.0015654E+03;  4.0003097E-01;  1.2968429E+03;3; -3.9954216E+01;  0.0000000E+00; -5.5560870E+00;0; -5.5248606E-01;  1.0035525E+04;  0.0000000E+00;  7.5902506E-05;  1.0000000E+04;  0.0000000E+00;  9.9942451E+03; -6.5805876E-01;  0.0000000E+00;  1.0557273E-01;  2.8531279E+03;
  5.5966026E-01;  9.9999998E-03; -3.0010086E-01;1897; -1.4575246E-01;  0.0000000E+00; -3.6104728E-02;  1.0019373E+03;  4.0008318E-01;  1.6049763E+03;3; -6.4524742E+01;  0.0000000E+00; -1.2311299E+01;0; -6.1414397E-01;  1.0043494E+04;  0.0000000E+00;  2.6378065E-04;  1.0000000E+04;  0.0000000E+00;  9.9910752E+03; -7.2918302E-01;  0.0000000E+00;  1.1503903E-01;  4.4416304E+03;
  5.5966121E-01;  9.9999998E-03; -2.8008232E-01;1898; -1.4785670E-01;  0.0000000E+00; -3.2904714E-02;  1.0019675E+03;  4.0008324E-01;  1.6300618E+03;3; -5.5469784E+01;  0.0000000E+00; -9.3491411E+00;0; -5.9913182E-01;  1.0042243E+04;  0.0000000E+00;  1.6463555E-03;  1.0000000E+04;  0.0000000E+00;  9.9929355E+03; -7.1672076E-01;  0.0000000E+00;  1.1758897E-01;  3.5101880E+03;
  5.5966455E-01;  9.9999998E-03; -2.6006615E-01;1899; -1.4908710E-01;  0.0000000E+00; -2.8459201E-02;  1.0019070E+03;  4.0008315E-01;  1.5798907E+03;3; -4.8596577E+01;  0.0000000E+00; -7.6660013E+00;0; -5.9222186E-01;  1.0040860E+04;  0.0000000E+00;  1.6234965E-03;  1.0000000E+04;  0.0000000E+00;  9.9931074E+03; -7.0328826E-01;  0.0000000E+00;  1.1106640E-01;  3.4283779E+03;
  5.5967009E-01;  9.9999998E-03; -2.4005896E-01;1900; -1.4930837E-01;  0.0000000E+00; -2.5926735E-02;  1.0017958E+03;  4.0008327E-01;  1.4877461E+03;3; -4.4492832E+01;  0.0000000E+00; -6.7399893E+00;0; -5.6985182E-01;  1.0039413E+04;  0.0000000E+00;  9.6057629E-04;  1.0000000E+04;  0.0000000E+00;  9.9923379E+03; -6.8950242E-01;  0.0000000E+00;  1.1965062E-01;  3.7941550E+03;
  5.5967730E-01;  9.9999998E-03; -2.2005507E-01;1901; -1.4856866E-01;  0.0000000E+00; -2.4431318E-02;  1.0017274E+03;  4.0008342E-01;  1.4311556E+03;3; -4.2820786E+01;  0.0000000E+00; -6.1679978E+00;0; -5.5436867E-01;  1.0037949E+04;  0.0000000E+00;  4.0282495E-04;  1.0000000E+04;  0.0000000E+00;  9.9924316E+03; -6.7574245E-01;  0.0000000E+00;  1.2137378E-01;  3.7417817E+03;
  5.5968571E-01;  9.9999998E-03; -2.0005140E-01;1902; -1.4704978E-01;  0.0000000E+00; -2.2723466E-02;  1.0016857E+03;  4.0008327E-01;  1.3965891E+03;3; -4.2627995E+01;  0.0000000E+00; -5.6204576E+00;0; -5.4468948E-01;  1.0036542E+04;  0.0000000E+00;  1.2645006E-04;  1.0000000E+04;  0.0000000E+00;  9.9930000E+03; -6.6238326E-01;  0.0000000E+00;  1.1769379E-01;  3.4592249E+03;
  5.7960290E-01;  9.9999998E-03; -3.0012351E-01;1928; -1.6410136E-01;  0.0000000E+00; -4.2141207E-02;  1.0021956E+03;  4.0022191E-01;  1.8189867E+03;3; -7.0465073E+01;  0.0000000E+00; -1.3194398E+01;0; -5.7444340E-01;  1.0042213E+04;  0.0000000E+00;  5.4152700E-04;  1.0000000E+04;  0.0000000E+00;  9.9905576E+03; -6.9472742E-01;  0.0000000E+00;  1.2028401E-01;  4.6814810E+03;
  5.7961041E-01;  9.9999998E-03; -2.8010178E-01;1929; -1.6466907E-01;  0.0000000E+00; -3.8579281E-02;  1.0022272E+03;  4.0022200E-01;  1.8451584E+03;3; -5.9687599E+01;  0.0000000E+00; -9.9557209E+00;0; -5.5755043E-01;  1.0040996E+04;  0.0000000E+00;  2.7097671E-03;  1.0000000E+04;  0.0000000E+00;  9.9924072E+03; -6.8322390E-01;  0.0000000E+00;  1.2567344E-01;  3.7524973E+03;
  5.7961816E-01;  9.9999998E-03; -2.6008359E-01;1930; -1.6501620E-01;  0.0000000E+00; -3.3468388E-02;  1.0021388E+03;  4.0022209E-01;  1.7719763E+03;3; -5.1761692E+01;  0.0000000E+00; -8.0001068E+00;0; -5.5002749E-01;  1.0039672E+04;  0.0000000E+00;  2.8147707E-03;  1.0000000E+04;  0.0000000E+00;  9.9919697E+03; -6.7109227E-01;  0.0000000E+00;  1.2106479E-01;  3.9716101E+03;
  5.7962662E-01;  9.9999998E-03; -2.4007632E-01;1931; -1.6472462E-01;  0.0000000E+00; -3.0878816E-02;  1.0020027E+03;  4.0022212E-01;  1.6591908E+03;3; -4.7144230E+01;  0.0000000E+00; -6.8843069E+00;0; -5.2390718E-01;  1.0038310E+04;  0.0000000E+00;  1.7243936E-03;  1.0000000E+04;  0.0000000E+00;  9.9906191E+03; -6.5884727E-01;  0.0000000E+00;  1.3494012E-01;  4.6201260E+03;
  5.7963592E-01;  9.9999998E-03; -2.2007267E-01;1932; -1.6365300E-01;  0.0000000E+00; -2.9472167E-02;  1.0019305E+03;  4.0022209E-01;  1.5993414E+03;3; -4.5303028E+01;  0.0000000E+00; -6.2405987E+00;0; -5.0833607E-01;  1.0036947E+04;  0.0000000E+00;  7.2405121E-04;  1.0000000E+04;  0.0000000E+00;  9.9905342E+03; -6.4662194E-01;  0.0000000E+00;  1.3828585E-01;  4.6548218E+03;
  5.7964575E-01;  9.9999998E-03; -2.0006838E-01;1933; -1.6187979E-01;  0.0000000E+00; -2.7845914E-02;  1.0018950E+03;  4.0022227E-01;  1.5699105E+03;3; -4.5198025E+01;  0.0000000E+00; -5.5465636E+00;0; -5.0004375E-01;  1.0035634E+04;  0.0000000E+00;  1.9422284E-04;  1.0000000E+04;  0.0000000E+00;  9.9911406E+03; -6.3462394E-01;  0.0000000E+00;  1.3458019E-01;  4.3550425E+03;
  5.9954524E-01;  9.9999998E-03; -3.0015391E-01;1959; -1.8205824E-01;  0.0000000E+00; -4.9832318E-02;  1.0027518E+03;  4.0057421E-01;  2.2797971E+03;3; -7.6195374E+01;  0.0000000E+00; -1.4221534E+01;0; -4.6441194E-01;  1.0036819E+04;  0.0000000E+00;  1.0525199E-03;  1.0000000E+04;  0.0000000E+00;  9.9894531E+03; -5.9497601E-01;  0.0000000E+00;  1.3056406E-01;  5.1911411E+03;
  5.9956032E-01;  9.9999998E-03; -2.8012991E-01;1960; -1.8081141E-01;  0.0000000E+00; -4.6104416E-02;  1.0027800E+03;  4.0057451E-01;  2.3031045E+03;3; -6.3619244E+01;  0.0000000E+00; -1.0796813E+01;0; -4.4758129E-01;  1.0035885E+04;  0.0000000E+00;  4.3844096E-03;  1.0000000E+04;  0.0000000E+00;  9.9909434E+03; -5.8805168E-01;  0.0000000E+00;  1.4047039E-01;  4.4361685E+03;
  5.9957284E-01;  9.9999998E-03; -2.6010925E-01;1961; -1.8005691E-01;  0.0000000E+00; -4.0586773E-02;  1.0026823E+03;  4.0057459E-01;  2.2221206E+03;3; -5.4451889E+01;  0.0000000E+00; -8.7162066E+00;0; -4.4259131E-01;  1.0034892E+04;  0.0000000E+00;  4.7181370E-03;  1.0000000E+04;  0.0000000E+00;  9.9899932E+03; -5.8112442E-01;  0.0000000E+00;  1.3853312E-01;  4.9092402E+03;
  5.9958422E-01;  9.9999998E-03; -2.4010012E-01;1962; -1.7942454E-01;  0.0000000E+00; -3.7274804E-02;  1.0025405E+03;  4.0057486E-01;  2.1046938E+03;3; -4.9467194E+01;  0.0000000E+00; -7.0376811E+00;0; -4.1991353E-01;  1.0033883E+04;  0.0000000E+00;  2.9667874E-03;  1.0000000E+04;  0.0000000E+00;  9.9881768E+03; -5.7435387E-01;  0.0000000E+00;  1.5444036E-01;  5.7863335E+03;
  5.9959543E-01;  9.9999998E-03; -2.2009508E-01;1963; -1.7802775E-01;  0.0000000E+00; -3.5780337E-02;  1.0024766E+03;  4.0057504E-01;  2.0517581E+03;3; -4.7614990E+01;  0.0000000E+00; -6.0713210E+00;0; -4.0711477E-01;  1.0032872E+04;  0.0000000E+00;  1.2468480E-03;  1.0000000E+04;  0.0000000E+00;  9.9879092E+03; -5.6739402E-01;  0.0000000E+00;  1.6027924E-01;  5.9102676E+03;
  5.9960657E-01;  9.9999998E-03; -2.0008919E-01;1964; -1.7602481E-01;  0.0000000E+00; -3.3983968E-02;  1.0024585E+03;  4.0057498E-01;  2.0367465E+03;3; -4.7570000E+01;  0.0000000E+00; -5.2812037E+00;0; -4.0302020E-01;  1.0031865E+04;  0.0000000E+00;  2.8626024E-04;  1.0000000E+04;  0.0000000E+00;  9.9885469E+03; -5.5995876E-01;  0.0000000E+00;  1.5693854E-01;  5.5973921E+03;
  6.1949408E-01;  9.9999998E-03; -3.0019575E-01;1990; -1.9776896E-01;  0.0000000E+00; -6.0118210E-02;  1.0040875E+03;  4.0138176E-01;  3.3862939E+03;3; -8.1145035E+01;  0.0000000E+00; -1.5916318E+01;0; -2.4838817E-01;  1.0026109E+04;  0.0000000E+00;  1.7736428E-03;  1.0000000E+04;  0.0000000E+00;  9.9865488E+03; -4.0701738E-01;  0.0000000E+00;  1.5862921E-01;  6.5464746E+03;
  6.1951518E-01;  9.9999998E-03; -2.8017116E-01;1991; -1.9492428E-01;  0.0000000E+00; -5.6440365E-02;  1.0041170E+03;  4.0138230E-01;  3.4107864E+03;3; -6.6808807E+01;  0.0000000E+00; -1.2318490E+01;0; -2.3718426E-01;  1.0025727E+04;  0.0000000E+00;  6.6032014E-03;  1.0000000E+04;  0.0000000E+00;  9.9874922E+03; -4.0878606E-01;  0.0000000E+00;  1.7160180E-01;  6.0606675E+03;
  6.1953074E-01;  9.9999998E-03; -2.6014617E-01;1992; -1.9401494E-01;  0.0000000E+00; -4.9636859E-02;  1.0040629E+03;  4.0138277E-01;  3.3659492E+03;3; -5.6934532E+01;  0.0000000E+00; -9.4696293E+00;0; -2.5120592E-01;  1.0025336E+04;  0.0000000E+00;  7.2906101E-03;  1.0000000E+04;  0.0000000E+00;  9.9868047E+03; -4.1118950E-01;  0.0000000E+00;  1.5998356E-01;  6.4208247E+03;
  6.1954457E-01;  9.9999998E-03; -2.4013148E-01;1993; -1.9277930E-01;  0.0000000E+00; -4.5490704E-02;  1.0039541E+03;  4.0138310E-01;  3.2757810E+03;3; -5.1655415E+01;  0.0000000E+00; -6.9768896E+00;0; -2.3674202E-01;  1.0024957E+04;  0.0000000E+00;  4.7385651E-03;  1.0000000E+04;  0.0000000E+00;  9.9850146E+03; -4.1403612E-01;  0.0000000E+00;  1.7729411E-01;  7.2887295E+03;
  6.1955768E-01;  9.9999998E-03; -2.2012223E-01;1994; -1.9093324E-01;  0.0000000E+00; -4.3323811E-02;  1.0039138E+03;  4.0138340E-01;  3.2424001E+03;3; -4.9580555E+01;  0.0000000E+00; -5.7458572E+00;0; -2.3087962E-01;  1.0024565E+04;  0.0000000E+00;  2.0330676E-03;  1.0000000E+04;  0.0000000E+00;  9.9846006E+03; -4.1641510E-01;  0.0000000E+00;  1.8553548E-01;  7.4853125E+03;
  6.1957014E-01;  9.9999998E-03; -2.0011321E-01;1995; -1.8875849E-01;  0.0000000E+00; -4.0990759E-02;  1.0039227E+03;  4.0138352E-01;  3.2498071E+03;3; -4.9564606E+01;  0.0000000E+00; -4.8768516E+00;0; -2.3346601E-01;  1.0024108E+04;  0.0000000E+00;  4.3696372E-04;  1.0000000E+04;  0.0000000E+00;  9.9852207E+03; -4.1731271E-01;  0.0000000E+00;  1.8384670E-01;  7.1809844E+03;
  6.3945591E-01;  9.9999998E-03; -3.0025175E-01;2021; -2.0917803E-01;  0.0000000E+00; -7.3421814E-02;  1.0066593E+03;  4.0286544E-01;  5.5169043E+03;3; -8.4710243E+01;  0.0000000E+00; -1.8022537E+01;0;  1.0072203E-01;  1.0009469E+04;  0.0000000E+00;  2.3977237E-03;  1.0000000E+04;  0.0000000E+00;  9.9806279E+03; -1.1489534E-01;  0.0000000E+00;  2.1561737E-01;  9.3342939E+03;
  6.3947910E-01;  9.9999998E-03; -2.8022850E-01;2022; -2.0624910E-01;  0.0000000E+00; -6.9863565E-02;  1.0067114E+03;  4.0286633E-01;  5.5601606E+03;3; -6.9198746E+01;  0.0000000E+00; -1.4791070E+01;0;  9.1826349E-02;  1.0009856E+04;  0.0000000E+00;  8.5946647E-03;  1.0000000E+04;  0.0000000E+00;  9.9812324E+03; -1.2865259E-01;  0.0000000E+00;  2.2047894E-01;  9.0329541E+03;
  6.3949633E-01;  9.9999998E-03; -2.6020202E-01;2023; -2.0536427E-01;  0.0000000E+00; -6.2543325E-02;  1.0067421E+03;  4.0286690E-01;  5.5855420E+03;3; -5.8974110E+01;  0.0000000E+00; -1.0749153E+01;0;  5.2675277E-02;  1.0010277E+04;  0.0000000E+00;  9.9014007E-03;  1.0000000E+04;  0.0000000E+00;  9.9814102E+03; -1.4343056E-01;  0.0000000E+00;  1.9610584E-01;  8.9867598E+03;
  6.3951057E-01;  9.9999998E-03; -2.4017558E-01;2024; -2.0398092E-01;  0.0000000E+00; -5.6435451E-02;  1.0067437E+03;  4.0286735E-01;  5.5868257E+03;3; -5.3357208E+01;  0.0000000E+00; -7.3984861E+00;0;  4.3374985E-02;  1.0010725E+04;  0.0000000E+00;  6.7319409E-03;  1.0000000E+04;  0.0000000E+00;  9.9809902E+03; -1.5878829E-01;  0.0000000E+00;  2.0216328E-01;  9.1941768E+03;
  6.3952440E-01;  9.9999998E-03; -2.2015546E-01;2025; -2.0197842E-01;  0.0000000E+00; -5.2017596E-02;  1.0067548E+03;  4.0286776E-01;  5.5960107E+03;3; -5.1142960E+01;  0.0000000E+00; -5.4833407E+00;0;  3.6735907E-02;  1.0011135E+04;  0.0000000E+00;  3.0411992E-03;  1.0000000E+04;  0.0000000E+00;  9.9807900E+03; -1.7337145E-01;  0.0000000E+00;  2.1010736E-01;  9.2890811E+03;
  6.3953853E-01;  9.9999998E-03; -2.0014116E-01;2026; -1.9940238E-01;  0.0000000E+00; -4.8707865E-02;  1.0067974E+03;  4.0286800E-01;  5.6312676E+03;3; -5.1076641E+01;  0.0000000E+00; -4.3215590E+00;0;  2.6996017E-02;  1.0011423E+04;  0.0000000E+00;  7.0752815E-04;  1.0000000E+04;  0.0000000E+00;  9.9813340E+03; -1.8546104E-01;  0.0000000E+00;  2.1245706E-01;  9.0207705E+03;
  6.5943515E-01;  9.9999998E-03; -3.0031717E-01;2052; -2.1503712E-01;  0.0000000E+00; -8.9060247E-02;  1.0098348E+03;  4.0473866E-01;  8.1476699E+03;3; -8.5869598E+01;  0.0000000E+00; -2.0059628E+01;0;  5.7078165E-01;  9.9875215E+03;  0.0000000E+00;  2.1470962E-03;  1.0000000E+04;  0.0000000E+00;  9.9728223E+03;  2.7752349E-01;  0.0000000E+00;  2.9325816E-01;  1.3016053E+04;
  6.5945745E-01;  9.9999998E-03; -2.8029567E-01;2053; -2.1294294E-01;  0.0000000E+00; -8.5522234E-02;  1.0099363E+03;  4.0473962E-01;  8.2317129E+03;3; -7.0054146E+01;  0.0000000E+00; -1.8965496E+01;0;  5.2713335E-01;  9.9887539E+03;  0.0000000E+00;  9.0144752E-03;  1.0000000E+04;  0.0000000E+00;  9.9735557E+03;  2.5096795E-01;  0.0000000E+00;  2.7616540E-01;  1.2677073E+04;
  6.5947604E-01;  9.9999998E-03; -2.6027581E-01;2054; -2.1230125E-01;  0.0000000E+00; -7.8748509E-02;  1.0100282E+03;  4.0473992E-01;  8.3078564E+03;3; -5.9901840E+01;  0.0000000E+00; -1.3016078E+01;0;  4.6289271E-01;  9.9900498E+03;  0.0000000E+00;  1.1300927E-02;  1.0000000E+04;  0.0000000E+00;  9.9740713E+03;  2.2320840E-01;  0.0000000E+00;  2.3968431E-01;  1.2489044E+04;
  6.5948999E-01;  9.9999998E-03; -2.4024019E-01;2055; -2.1083134E-01;  0.0000000E+00; -7.2048821E-02;  1.0101848E+03;  4.0473998E-01;  8.4375254E+03;3; -5.4263733E+01;  0.0000000E+00; -8.5861797E+00;0;  4.2666352E-01;  9.9913721E+03;  0.0000000E+00;  8.1968429E-03;  1.0000000E+04;  0.0000000E+00;  9.9758555E+03;  1.9506963E-01;  0.0000000E+00;  2.3159388E-01;  1.1622479E+04;
  6.5950257E-01;  9.9999998E-03; -2.2020362E-01;2056; -2.0925717E-01;  0.0000000E+00; -6.4072095E-02;  1.0102863E+03;  4.0474015E-01;  8.5216670E+03;3; -5.2103806E+01;  0.0000000E+00; -5.4181237E+00;0;  4.0041006E-01;  9.9926318E+03;  0.0000000E+00;  3.9928472E-03;  1.0000000E+04;  0.0000000E+00;  9.9766104E+03;  1.6810744E-01;  0.0000000E+00;  2.3230262E-01;  1.1258340E+04;
  6.5951663E-01;  9.9999998E-03; -2.0017791E-01;2057; -2.0680334E-01;  0.0000000E+00; -5.8171563E-02;  1.0103710E+03;  4.0474039E-01;  8.5917861E+03;3; -5.2123390E+01;  0.0000000E+00; -3.5478954E+00;0;  3.8332367E-01;  9.9937080E+03;  0.0000000E+00;  1.1057900E-03;  1.0000000E+04;  0.0000000E+00;  9.9772021E+03;  1.4439943E-01;  0.0000000E+00;  2.3892425E-01;  1.0963970E+04;
  6.7944193E-01;  9.9999998E-03; -3.0037841E-01;2083; -2.1332097E-01;  0.0000000E+00; -1.0471559E-01;  1.0120143E+03;  4.0624112E-01;  9.9531221E+03;3; -8.3577866E+01;  0.0000000E+00; -2.1317760E+01;0;  1.0993248E+00;  9.9626602E+03;  0.0000000E+00;  7.0284883E-04;  1.0000000E+04;  0.0000000E+00;  9.9667090E+03;  7.3371035E-01;  0.0000000E+00;  3.6561444E-01;  1.5858869E+04;
  6.7945570E-01;  9.9999998E-03; -2.8035754E-01;2084; -2.1406280E-01;  0.0000000E+00; -1.0027752E-01;  1.0121697E+03;  4.0624163E-01;  1.0081803E+04;3; -6.9172005E+01;  0.0000000E+00; -2.4117125E+01;0;  1.0026000E+00;  9.9645703E+03;  0.0000000E+00;  6.9034994E-03;  1.0000000E+04;  0.0000000E+00;  9.9678496E+03;  6.9799364E-01;  0.0000000E+00;  3.0460638E-01;  1.5367605E+04;
  6.7947423E-01;  9.9999998E-03; -2.6034746E-01;2085; -2.1397372E-01;  0.0000000E+00; -9.4738431E-02;  1.0122670E+03;  4.0624145E-01;  1.0162389E+04;3; -5.9811642E+01;  0.0000000E+00; -1.5986489E+01;0;  9.2707491E-01;  9.9666045E+03;  0.0000000E+00;  1.0303882E-02;  1.0000000E+04;  0.0000000E+00;  9.9677520E+03;  6.6052258E-01;  0.0000000E+00;  2.6655233E-01;  1.5492491E+04;
  6.7948723E-01;  9.9999998E-03; -2.4031451E-01;2086; -2.1210834E-01;  0.0000000E+00; -9.1302544E-02;  1.0125167E+03;  4.0624085E-01;  1.0369284E+04;3; -5.4302254E+01;  0.0000000E+00; -1.0151582E+01;0;  8.8382137E-01;  9.9686445E+03;  0.0000000E+00;  8.1998957E-03;  1.0000000E+04;  0.0000000E+00;  9.9706768E+03;  6.2307572E-01;  0.0000000E+00;  2.6074564E-01;  1.4062883E+04;
  6.7949694E-01;  9.9999998E-03; -2.2026548E-01;2087; -2.1116662E-01;  0.0000000E+00; -8.1147015E-02;  1.0127082E+03;  4.0624034E-01;  1.0527888E+04;3; -5.2414337E+01;  0.0000000E+00; -5.6269164E+00;0;  8.3796394E-01;  9.9705938E+03;  0.0000000E+00;  4.3722857E-03;  1.0000000E+04;  0.0000000E+00;  9.9725244E+03;  5.8721805E-01;  0.0000000E+00;  2.5074586E-01;  1.3170579E+04;
  6.7950922E-01;  9.9999998E-03; -2.0022681E-01;2088; -2.0930226E-01;  0.0000000E+00; -7.2402991E-02;  1.0128336E+03;  4.0624025E-01;  1.0631780E+04;3; -5.2495998E+01;  0.0000000E+00; -2.9952276E+00;0;  8.1489122E-01;  9.9723398E+03;  0.0000000E+00;  1.4654369E-03;  1.0000000E+04;  0.0000000E+00;  9.9732637E+03;  5.5485398E-01;  0.0000000E+00;  2.6003721E-01;  1.2805026E+04;
  6.9952238E-01;  9.9999998E-03; -3.0042478E-01;2114; -1.8398000E-01;  0.0000000E+00; -1.1605017E-01;  1.0127689E+03;  4.0706661E-01;  1.0577942E+04;3; -7.0314354E+01;  0.0000000E+00; -2.3480234E+01;0;  1.5492487E+00;  9.9391270E+03;  0.0000000E+00;  1.8432795E-03;  1.0000000E+04;  0.0000000E+00;  9.9645713E+03;  1.1779449E+00;  0.0000000E+00;  3.7130377E-01;  1.6805588E+04;
  6.9949800E-01;  9.9999998E-03; -2.8040546E-01;2115; -2.0174511E-01;  0.0000000E+00; -1.1161955E-01;  1.0129091E+03;  4.0706673E-01;  1.0694178E+04;3; -6.5307121E+01;  0.0000000E+00; -2.7106482E+01;0;  1.4406695E+00;  9.9412314E+03;  0.0000000E+00;  4.3649822E-03;  1.0000000E+04;  0.0000000E+00;  9.9652578E+03;  1.1432521E+00;  0.0000000E+00;  2.9741746E-01;  1.6557840E+04;
  6.9950384E-01;  9.9999998E-03; -2.6040599E-01;2116; -2.0664231E-01;  0.0000000E+00; -1.0841985E-01;  1.0129427E+03;  4.0706626E-01;  1.0722026E+04;3; -5.8300335E+01;  0.0000000E+00; -1.7426428E+01;0;  1.3802894E+00;  9.9435645E+03;  0.0000000E+00;  7.3972805E-03;  1.0000000E+04;  0.0000000E+00;  9.9636221E+03;  1.1050504E+00;  0.0000000E+00;  2.7523896E-01;  1.7433633E+04;
  6.9951397E-01;  9.9999998E-03; -2.4038091E-01;2117; -2.0448960E-01;  0.0000000E+00; -1.1117935E-01;  1.0132161E+03;  4.0706536E-01;  1.0948471E+04;3; -5.2868305E+01;  0.0000000E+00; -1.3082323E+01;0;  1.3492930E+00;  9.9459258E+03;  0.0000000E+00;  6.5627778E-03;  1.0000000E+04;  0.0000000E+00;  9.9666924E+03;  1.0664892E+00;  0.0000000E+00;  2.8280383E-01;  1.5914735E+04;
  6.9951910E-01;  9.9999998E-03; -2.2033206E-01;2118; -2.0387536E-01;  0.0000000E+00; -1.0401956E-01;  1.0134504E+03;  4.0706447E-01;  1.1142524E+04;3; -5.0918777E+01;  0.0000000E+00; -8.2068586E+00;0;  1.2957470E+00;  9.9482129E+03;  0.0000000E+00;  3.8236540E-03;  1.0000000E+04;  0.0000000E+00;  9.9690547E+03;  1.0292108E+00;  0.0000000E+00;  2.6653630E-01;  1.4777442E+04;
  6.9952786E-01;  9.9999998E-03; -2.0028621E-01;2119; -2.0290928E-01;  0.0000000E+00; -9.4069608E-02;  1.0136011E+03;  4.0706387E-01;  1.1267449E+04;3; -5.1124321E+01;  0.0000000E+00; -4.6958027E+00;0;  1.2689641E+00;  9.9503418E+03;  0.0000000E+00;  1.5085671E-03;  1.0000000E+04;  0.0000000E+00;  9.9699219E+03;  9.9450892E-01;  0.0000000E+00;  2.7445516E-01;  1.4353380E+04;
  7.1966892E-01;  9.9999998E-03; -3.0045947E-01;2145; -1.2475396E-01;  0.0000000E+00; -1.2498195E-01;  1.0127709E+03;  4.0742832E-01;  1.0579332E+04;3; -4.6116135E+01;  0.0000000E+00; -2.3565975E+01;0;  1.8767926E+00;  9.9218018E+03;  0.0000000E+00;  3.5700174E-03;  1.0000000E+04;  0.0000000E+00;  9.9642344E+03;  1.5123627E+00;  0.0000000E+00;  3.6442983E-01;  1.6908320E+04;
  7.1963608E-01;  9.9999998E-03; -2.8043836E-01;2146; -1.4516547E-01;  0.0000000E+00; -1.2160386E-01;  1.0129014E+03;  4.0742856E-01;  1.0687467E+04;3; -4.6039902E+01;  0.0000000E+00; -2.8354103E+01;0;  1.7907706E+00;  9.9234805E+03;  0.0000000E+00;  5.6085074E-03;  1.0000000E+04;  0.0000000E+00;  9.9651436E+03;  1.4924673E+00;  0.0000000E+00;  2.9830334E-01;  1.6530172E+04;
  7.1961325E-01;  9.9999998E-03; -2.6044160E-01;2147; -1.6222525E-01;  0.0000000E+00; -1.1877469E-01;  1.0128621E+03;  4.0742829E-01;  1.0654878E+04;3; -4.6339756E+01;  0.0000000E+00; -1.9597916E+01;0;  1.7373533E+00;  9.9254502E+03;  0.0000000E+00;  5.5883601E-03;  1.0000000E+04;  0.0000000E+00;  9.9624414E+03;  1.4677830E+00;  0.0000000E+00;  2.6957029E-01;  1.7942162E+04;
  7.1960163E-01;  9.9999998E-03; -2.4042609E-01;2148; -1.7287096E-01;  0.0000000E+00; -1.2583698E-01;  1.0130703E+03;  4.0742701E-01;  1.0827300E+04;3; -4.6520271E+01;  0.0000000E+00; -1.5646603E+01;0;  1.7299210E+00;  9.9275547E+03;  0.0000000E+00;  4.3590511E-03;  1.0000000E+04;  0.0000000E+00;  9.9644893E+03;  1.4408104E+00;  0.0000000E+00;  2.8911054E-01;  1.6916324E+04;
  7.1959931E-01;  9.9999998E-03; -2.2038552E-01;2149; -1.7757745E-01;  0.0000000E+00; -1.2615867E-01;  1.0132884E+03;  4.0742618E-01;  1.1008017E+04;3; -4.6275002E+01;  0.0000000E+00; -1.2919950E+01;0;  1.6888365E+00;  9.9296973E+03;  0.0000000E+00;  2.6075353E-03;  1.0000000E+04;  0.0000000E+00;  9.9666729E+03;  1.4128118E+00;  0.0000000E+00;  2.7602470E-01;  1.5865196E+04;
  7.1960586E-01;  9.9999998E-03; -2.0034119E-01;2150; -1.7811373E-01;  0.0000000E+00; -1.2067534E-01;  1.0134368E+03;  4.0742567E-01;  1.1130963E+04;3; -4.6793789E+01;  0.0000000E+00; -1.0945558E+01;0;  1.6666811E+00;  9.9318389E+03;  0.0000000E+00;  1.1497928E-03;  1.0000000E+04;  0.0000000E+00;  9.9674785E+03;  1.3841633E+00;  0.0000000E+00;  2.8251779E-01;  1.5474017E+04;
  7.3979884E-01;  9.9999998E-03; -3.0048493E-01;2176; -7.4632548E-02;  0.0000000E+00; -1.3296740E-01;  1.0126936E+03;  4.0757057E-01;  1.0514952E+04;3; -2.7552074E+01;  0.0000000E+00; -2.3033325E+01;0;  2.0596082E+00;  9.9135225E+03;  0.0000000E+00;  7.8191259E-04;  1.0000000E+04;  0.0000000E+00;  9.9640967E+03;  1.6753827E+00;  0.0000000E+00;  3.8422555E-01;  1.6908594E+04;
  7.3977625E-01;  9.9999998E-03; -2.8045788E-01;2177; -8.7839767E-02;  0.0000000E+00; -1.2989770E-01;  1.0128547E+03;  4.0757087E-01;  1.0648363E+04;3; -2.7356163E+01;  0.0000000E+00; -3.1829765E+01;0;  1.9819504E+00;  9.9144375E+03;  0.0000000E+00;  3.6625378E-03;  1.0000000E+04;  0.0000000E+00;  9.9663604E+03;  1.6764108E+00;  0.0000000E+00;  3.0553964E-01;  1.5864608E+04;
  7.3975945E-01;  9.9999998E-03; -2.6045379E-01;2178; -9.9382631E-02;  0.0000000E+00; -1.2199499E-01;  1.0127856E+03;  4.0757081E-01;  1.0591188E+04;3; -2.7561531E+01;  0.0000000E+00; -2.0171474E+01;0;  1.9079312E+00;  9.9155820E+03;  0.0000000E+00;  3.5754060E-03;  1.0000000E+04;  0.0000000E+00;  9.9638730E+03;  1.6748383E+00;  0.0000000E+00;  2.3309287E-01;  1.7225287E+04;
  7.3974830E-01;  9.9999998E-03; -2.4043722E-01;2179; -1.0821004E-01;  0.0000000E+00; -1.2708266E-01;  1.0128947E+03;  4.0756989E-01;  1.0681542E+04;3; -2.8179474E+01;  0.0000000E+00; -1.4430426E+01;0;  1.9297910E+00;  9.9169668E+03;  0.0000000E+00;  2.4666248E-03;  1.0000000E+04;  0.0000000E+00;  9.9646777E+03;  1.6695499E+00;  0.0000000E+00;  2.6024100E-01;  1.6806098E+04;
  7.3974407E-01;  9.9999998E-03; -2.2039941E-01;2180; -1.1357173E-01;  0.0000000E+00; -1.2831514E-01;  1.0130367E+03;  4.0756911E-01;  1.0799152E+04;3; -2.9180668E+01;  0.0000000E+00; -1.1283882E+01;0;  1.9214276E+00;  9.9185840E+03;  0.0000000E+00;  1.3809166E-03;  1.0000000E+04;  0.0000000E+00;  9.9658857E+03;  1.6594139E+00;  0.0000000E+00;  2.6201364E-01;  1.6218543E+04;
  7.3974687E-01;  9.9999998E-03; -2.0035733E-01;2181; -1.1552062E-01;  0.0000000E+00; -1.2451403E-01;  1.0131432E+03;  4.0756842E-01;  1.0887434E+04;3; -3.0512695E+01;  0.0000000E+00; -9.8369751E+00;0;  1.9217256E+00;  9.9204326E+03;  0.0000000E+00;  6.3379039E-04;  1.0000000E+04;  0.0000000E+00;  9.9661504E+03;  1.6435481E+00;  0.0000000E+00;  2.7817750E-01;  1.6082649E+04;
  7.5989562E-01;  9.9999998E-03; -3.0050290E-01;2207; -3.9720431E-02;  0.0000000E+00; -1.3897341E-01;  1.0127962E+03;  4.0762374E-01;  1.0599348E+04;3; -1.6127085E+01;  0.0000000E+00; -2.2466387E+01;0;  2.0907240E+00;  9.9135654E+03;  0.0000000E+00; -1.7835954E-03;  1.0000000E+04;  0.0000000E+00;  9.9635068E+03;  1.6801863E+00;  0.0000000E+00;  4.1053775E-01;  1.7155705E+04;
  7.5988209E-01;  9.9999998E-03; -2.8047070E-01;2208; -4.7017068E-02;  0.0000000E+00; -1.3701338E-01;  1.0129778E+03;  4.0762410E-01;  1.0749834E+04;3; -1.5708575E+01;  0.0000000E+00; -3.5389503E+01;0;  2.0379274E+00;  9.9137070E+03;  0.0000000E+00;  7.1309315E-04;  1.0000000E+04;  0.0000000E+00;  9.9669355E+03;  1.7000761E+00;  0.0000000E+00;  3.3785135E-01;  1.5512182E+04;
  7.5987226E-01;  9.9999998E-03; -2.6045844E-01;2209; -5.3368978E-02;  0.0000000E+00; -1.2319170E-01;  1.0129007E+03;  4.0762424E-01;  1.0685947E+04;3; -1.5590790E+01;  0.0000000E+00; -2.0486578E+01;0;  1.9303844E+00;  9.9140049E+03;  0.0000000E+00;  1.1653878E-03;  1.0000000E+04;  0.0000000E+00;  9.9651348E+03;  1.7200431E+00;  0.0000000E+00;  2.1034132E-01;  1.6606086E+04;
  7.5986463E-01;  9.9999998E-03; -2.4043910E-01;2210; -5.8781505E-02;  0.0000000E+00; -1.2573493E-01;  1.0129293E+03;  4.0762347E-01;  1.0709547E+04;3; -1.5861031E+01;  0.0000000E+00; -1.3282152E+01;0;  1.9756894E+00;  9.9145898E+03;  0.0000000E+00;  8.2871597E-04;  1.0000000E+04;  0.0000000E+00;  9.9651367E+03;  1.7359709E+00;  0.0000000E+00;  2.3971851E-01;  1.6579447E+04;
  7.5986075E-01;  9.9999998E-03; -2.2040273E-01;2211; -6.2569156E-02;  0.0000000E+00; -1.2653458E-01;  1.0130018E+03;  4.0762293E-01;  1.0769682E+04;3; -1.6523161E+01;  0.0000000E+00; -9.3236809E+00;0;  1.9954753E+00;  9.9155742E+03;  0.0000000E+00;  4.5522716E-04;  1.0000000E+04;  0.0000000E+00;  9.9656113E+03;  1.7443446E+00;  0.0000000E+00;  2.5113076E-01;  1.6341925E+04;
  7.5986081E-01;  9.9999998E-03; -2.0036298E-01;2212; -6.4587973E-02;  0.0000000E+00; -1.2353920E-01;  1.0130661E+03;  4.0762225E-01;  1.0822904E+04;3; -1.7518181E+01;  0.0000000E+00; -7.4939022E+00;0;  2.0162344E+00;  9.9169805E+03;  0.0000000E+00;  2.2249008E-04;  1.0000000E+04;  0.0000000E+00;  9.9654863E+03;  1.7427750E+00;  0.0000000E+00;  2.7345955E-01;  1.6390123E+04;
  7.7996391E-01;  9.9999998E-03; -3.0051446E-01;2238; -1.6535932E-02;  0.0000000E+00; -1.4298829E-01;  1.0130576E+03;  4.0764275E-01;  1.0815166E+04;3; -9.3349609E+00;  0.0000000E+00; -2.1943224E+01;0;  2.0282495E+00;  9.9188008E+03;  0.0000000E+00; -1.5917462E-03;  1.0000000E+04;  0.0000000E+00;  9.9624697E+03;  1.5904531E+00;  0.0000000E+00;  4.3779626E-01;  1.7640123E+04;
  7.7995825E-01;  9.9999998E-03; -2.8047904E-01;2239; -1.9142341E-02;  0.0000000E+00; -1.4200062E-01;  1.0132454E+03;  4.0764326E-01;  1.0970677E+04;3; -8.7399569E+00;  0.0000000E+00; -3.7534649E+01;0;  1.9998266E+00;  9.9183457E+03;  0.0000000E+00; -4.2843970E-04;  1.0000000E+04;  0.0000000E+00;  9.9666172E+03;  1.6233959E+00;  0.0000000E+00;  3.7643060E-01;  1.5617133E+04;
  7.7995431E-01;  9.9999998E-03; -2.6046070E-01;2240; -2.1372292E-02;  0.0000000E+00; -1.2423837E-01;  1.0131743E+03;  4.0764335E-01;  1.0911830E+04;3; -8.3130388E+00;  0.0000000E+00; -2.1211264E+01;0;  1.8679184E+00;  9.9180049E+03;  0.0000000E+00; -2.9043911E-06;  1.0000000E+04;  0.0000000E+00;  9.9655684E+03;  1.6578428E+00;  0.0000000E+00;  2.1007560E-01;  1.6386994E+04;
  7.7995032E-01;  9.9999998E-03; -2.4043874E-01;2241; -2.3686681E-02;  0.0000000E+00; -1.2482132E-01;  1.0131577E+03;  4.0764269E-01;  1.0898105E+04;3; -8.1680584E+00;  0.0000000E+00; -1.2989664E+01;0;  1.9250678E+00;  9.9179824E+03;  0.0000000E+00;  6.0590373E-05;  1.0000000E+04;  0.0000000E+00;  9.9652939E+03;  1.6883103E+00;  0.0000000E+00;  2.3675749E-01;  1.6497988E+04;
  7.7994740E-01;  9.9999998E-03; -2.2040251E-01;2242; -2.5729205E-02;  0.0000000E+00; -1.2488236E-01;  1.0131883E+03;  4.0764219E-01;  1.0923382E+04;3; -8.3383856E+00;  0.0000000E+00; -8.3423643E+00;0;  1.9601107E+00;  9.9184316E+03;  0.0000000E+00;  4.2141372E-05;  1.0000000E+04;  0.0000000E+00;  9.9654697E+03;  1.7099311E+00;  0.0000000E+00;  2.5017953E-01;  1.6405797E+04;
  7.7994603E-01;  9.9999998E-03; -2.0036373E-01;2243; -2.7228383E-02;  0.0000000E+00; -1.2170459E-01;  1.0132247E+03;  4.0764156E-01;  1.0953596E+04;3; -8.7897062E+00;  0.0000000E+00; -5.6842937E+00;0;  1.9919941E+00;  9.9194287E+03;  0.0000000E+00;  2.8737928E-05;  1.0000000E+04;  0.0000000E+00;  9.9652109E+03;  1.7192615E+00;  0.0000000E+00;  2.7273265E-01;  1.6518043E+04;
  8.0001748E-01;  9.9999998E-03; -3.0052021E-01;2269;  1.8324791E-03;  0.0000000E+00; -1.4510894E-01;  1.0133664E+03;  4.0764832E-01;  1.1069890E+04;3; -3.5328290E+00;  0.0000000E+00; -2.1622450E+01;0;  1.9358265E+00;  9.9257266E+03;  0.0000000E+00; -3.6453601E-04;  1.0000000E+04;  0.0000000E+00;  9.9613213E+03;  1.4763162E+00;  0.0000000E+00;  4.5951039E-01;  1.8185936E+04;
  8.0001861E-01;  9.9999998E-03; -2.8048348E-01;2270;  3.0332741E-03;  0.0000000E+00; -1.4479983E-01;  1.0135497E+03;  4.0764880E-01;  1.1221733E+04;3; -2.9329085E+00;  0.0000000E+00; -3.8363079E+01;0;  1.9261938E+00;  9.9249326E+03;  0.0000000E+00; -2.2227287E-04;  1.0000000E+04;  0.0000000E+00;  9.9657148E+03;  1.5153736E+00;  0.0000000E+00;  4.1082022E-01;  1.6020365E+04;
  8.0001926E-01;  9.9999998E-03; -2.6046214E-01;2271;  4.0225876E-03;  0.0000000E+00; -1.2566663E-01;  1.0134899E+03;  4.0764877E-01;  1.1172271E+04;3; -2.3754487E+00;  0.0000000E+00; -2.2648331E+01;0;  1.7834892E+00;  9.9242471E+03;  0.0000000E+00; -1.0874006E-04;  1.0000000E+04;  0.0000000E+00;  9.9652324E+03;  1.5559328E+00;  0.0000000E+00;  2.2755642E-01;  1.6530420E+04;
  8.0001879E-01;  9.9999998E-03; -2.4043837E-01;2272;  4.3665897E-03;  0.0000000E+00; -1.2500113E-01;  1.0134633E+03;  4.0764821E-01;  1.1150155E+04;3; -1.9537685E+00;  0.0000000E+00; -1.3320196E+01;0;  1.8408717E+00;  9.9238867E+03;  0.0000000E+00; -4.5494879E-05;  1.0000000E+04;  0.0000000E+00;  9.9650977E+03;  1.5925008E+00;  0.0000000E+00;  2.4837087E-01;  1.6579029E+04;
  8.0001712E-01;  9.9999998E-03; -2.2040114E-01;2273;  3.9831307E-03;  0.0000000E+00; -1.2418757E-01;  1.0134817E+03;  4.0764782E-01;  1.1165458E+04;3; -1.7143198E+00;  0.0000000E+00; -7.9083433E+00;0;  1.8778882E+00;  9.9240195E+03;  0.0000000E+00; -1.7902552E-05;  1.0000000E+04;  0.0000000E+00;  9.9653418E+03;  1.6198801E+00;  0.0000000E+00;  2.5800815E-01;  1.6455039E+04;
  8.0001509E-01;  9.9999998E-03; -2.0036159E-01;2274;  3.2008290E-03;  0.0000000E+00; -1.1997747E-01;  1.0135081E+03;  4.0764716E-01;  1.1187277E+04;3; -1.6571175E+00;  0.0000000E+00; -4.8933601E+00;0;  1.9106827E+00;  9.9247422E+03;  0.0000000E+00; -6.3553184E-06;  1.0000000E+04;  0.0000000E+00;  9.9651650E+03;  1.6341826E+00;  0.0000000E+00;  2.7650008E-01;  1.6532752E+04;
  8.2006943E-01;  9.9999998E-03; -3.0052033E-01;2300;  2.1382105E-02;  0.0000000E+00; -1.4547306E-01;  1.0136180E+03;  4.0763840E-01;  1.1276923E+04;3;  4.0037212E+00;  0.0000000E+00; -2.1560213E+01;0;  1.8523698E+00;  9.9320391E+03;  0.0000000E+00;  9.7948883E-05;  1.0000000E+04;  0.0000000E+00;  9.9603955E+03;  1.3809199E+00;  0.0000000E+00;  4.7144979E-01;  1.8618648E+04;
  8.2007670E-01;  9.9999998E-03; -2.8048384E-01;2301;  2.5979185E-02;  0.0000000E+00; -1.4540306E-01;  1.0137927E+03;  4.0763882E-01;  1.1421641E+04;3;  4.3984375E+00;  0.0000000E+00; -3.8314377E+01;0;  1.8517684E+00;  9.9311709E+03;  0.0000000E+00;  1.5058003E-04;  1.0000000E+04;  0.0000000E+00;  9.9646992E+03;  1.4195571E+00;  0.0000000E+00;  4.3221131E-01;  1.6489266E+04;
  8.2008082E-01;  9.9999998E-03; -2.6046261E-01;2302;  2.9534673E-02;  0.0000000E+00; -1.2688088E-01;  1.0137413E+03;  4.0763891E-01;  1.1378995E+04;3;  4.8395572E+00;  0.0000000E+00; -2.3475504E+01;0;  1.7118853E+00;  9.9304287E+03;  0.0000000E+00;  1.5588809E-04;  1.0000000E+04;  0.0000000E+00;  9.9644385E+03;  1.4588664E+00;  0.0000000E+00;  2.5301901E-01;  1.6881418E+04;
  8.2008326E-01;  9.9999998E-03; -2.4043785E-01;2303;  3.2063037E-02;  0.0000000E+00; -1.2607007E-01;  1.0137330E+03;  4.0763843E-01;  1.1372184E+04;3;  5.2800703E+00;  0.0000000E+00; -1.4336739E+01;0;  1.7618051E+00;  9.9300068E+03;  0.0000000E+00;  1.1938003E-04;  1.0000000E+04;  0.0000000E+00;  9.9647256E+03;  1.4939803E+00;  0.0000000E+00;  2.6782477E-01;  1.6729297E+04;
  8.2008284E-01;  9.9999998E-03; -2.2039883E-01;2304;  3.3073429E-02;  0.0000000E+00; -1.2428502E-01;  1.0137634E+03;  4.0763780E-01;  1.1397257E+04;3;  5.6826162E+00;  0.0000000E+00; -8.4849997E+00;0;  1.7901943E+00;  9.9300605E+03;  0.0000000E+00;  6.9419912E-05;  1.0000000E+04;  0.0000000E+00;  9.9652813E+03;  1.5199722E+00;  0.0000000E+00;  2.7022213E-01;  1.6458992E+04;
  8.2008022E-01;  9.9999998E-03; -2.0035729E-01;2305;  3.2807384E-02;  0.0000000E+00; -1.1850176E-01;  1.0137952E+03;  4.0763724E-01;  1.1423614E+04;3;  6.0251751E+00;  0.0000000E+00; -5.0468836E+00;0;  1.8160629E+00;  9.9306973E+03;  0.0000000E+00;  2.7894939E-05;  1.0000000E+04;  0.0000000E+00;  9.9653008E+03;  1.5330179E+00;  0.0000000E+00;  2.8304505E-01;  1.6446391E+04;
  8.4012622E-01;  9.9999998E-03; -3.0051357E-01;2331;  4.4543002E-02;  0.0000000E+00; -1.4393699E-01;  1.0135732E+03;  4.0751442E-01;  1.1237945E+04;3;  1.4042383E+01;  0.0000000E+00; -2.1583265E+01;0;  1.7774038E+00;  9.9372139E+03;  0.0000000E+00; -5.7990756E-06;  1.0000000E+04;  0.0000000E+00;  9.9603799E+03;  1.3096950E+00;  0.0000000E+00;  4.6770883E-01;  1.8603936E+04;
  8.4013891E-01;  9.9999998E-03; -2.8047797E-01;2332;  5.2354261E-02;  0.0000000E+00; -1.4377533E-01;  1.0137397E+03;  4.0751487E-01;  1.1375827E+04;3;  1.4078908E+01;  0.0000000E+00; -3.7598438E+01;0;  1.7783077E+00;  9.9364922E+03;  0.0000000E+00;  5.0922536E-04;  1.0000000E+04;  0.0000000E+00;  9.9643770E+03;  1.3427553E+00;  0.0000000E+00;  4.3555239E-01;  1.6623992E+04;
  8.4014577E-01;  9.9999998E-03; -2.6045772E-01;2333;  5.8182389E-02;  0.0000000E+00; -1.2652028E-01;  1.0136951E+03;  4.0751478E-01;  1.1338913E+04;3;  1.4202592E+01;  0.0000000E+00; -2.3686451E+01;0;  1.6464496E+00;  9.9359199E+03;  0.0000000E+00;  5.8355060E-04;  1.0000000E+04;  0.0000000E+00;  9.9640830E+03;  1.3753629E+00;  0.0000000E+00;  2.7108675E-01;  1.7010488E+04;
  8.4015054E-01;  9.9999998E-03; -2.4043302E-01;2334;  6.2452812E-02;  0.0000000E+00; -1.2616093E-01;  1.0137086E+03;  4.0751421E-01;  1.1350066E+04;3;  1.4411816E+01;  0.0000000E+00; -1.5291526E+01;0;  1.6876539E+00;  9.9356553E+03;  0.0000000E+00;  4.2287892E-04;  1.0000000E+04;  0.0000000E+00;  9.9646387E+03;  1.4033525E+00;  0.0000000E+00;  2.8430140E-01;  1.6727732E+04;
  8.4015113E-01;  9.9999998E-03; -2.2039293E-01;2335;  6.4519338E-02;  0.0000000E+00; -1.2370661E-01;  1.0137592E+03;  4.0751368E-01;  1.1392014E+04;3;  1.4698088E+01;  0.0000000E+00; -9.4388771E+00;0;  1.7036195E+00;  9.9358408E+03;  0.0000000E+00;  2.2869512E-04;  1.0000000E+04;  0.0000000E+00;  9.9654736E+03;  1.4223336E+00;  0.0000000E+00;  2.8128585E-01;  1.6330685E+04;
  8.4014750E-01;  9.9999998E-03; -2.0035037E-01;2336;  6.4333260E-02;  0.0000000E+00; -1.1686037E-01;  1.0138052E+03;  4.0751311E-01;  1.1430111E+04;3;  1.5042905E+01;  0.0000000E+00; -5.7557092E+00;0;  1.7186046E+00;  9.9365635E+03;  0.0000000E+00;  9.0198868E-05;  1.0000000E+04;  0.0000000E+00;  9.9656768E+03;  1.4289576E+00;  0.0000000E+00;  2.8964701E-01;  1.6233242E+04;
  8.6018664E-01;  9.9999998E-03; -3.0050042E-01;2362;  7.0286378E-02;  0.0000000E+00; -1.4087512E-01;  1.0132551E+03;  4.0727067E-01;  1.0972162E+04;3;  2.5718754E+01;  0.0000000E+00; -2.1673504E+01;0;  1.6949329E+00;  9.9420449E+03;  0.0000000E+00;  1.8375443E-04;  1.0000000E+04;  0.0000000E+00;  9.9612139E+03;  1.2406687E+00;  0.0000000E+00;  4.5426431E-01;  1.8168242E+04;
  8.6020440E-01;  9.9999998E-03; -2.8046593E-01;2363;  8.1267722E-02;  0.0000000E+00; -1.4044701E-01;  1.0134177E+03;  4.0727106E-01;  1.1106756E+04;3;  2.5346783E+01;  0.0000000E+00; -3.6646076E+01;0;  1.6913842E+00;  9.9416191E+03;  0.0000000E+00;  1.1625226E-03;  1.0000000E+04;  0.0000000E+00;  9.9648379E+03;  1.2648113E+00;  0.0000000E+00;  4.2657292E-01;  1.6374445E+04;
  8.6021340E-01;  9.9999998E-03; -2.6044655E-01;2364;  8.9174345E-02;  0.0000000E+00; -1.2449945E-01;  1.0133833E+03;  4.0727103E-01;  1.1078236E+04;3;  2.5064398E+01;  0.0000000E+00; -2.3616831E+01;0;  1.5664780E+00;  9.9413711E+03;  0.0000000E+00;  1.2759155E-03;  1.0000000E+04;  0.0000000E+00;  9.9644238E+03;  1.2871639E+00;  0.0000000E+00;  2.7931410E-01;  1.6796070E+04;
  8.6021996E-01;  9.9999998E-03; -2.4042246E-01;2365;  9.4875470E-02;  0.0000000E+00; -1.2454534E-01;  1.0134168E+03;  4.0727046E-01;  1.1105963E+04;3;  2.4897518E+01;  0.0000000E+00; -1.5999646E+01;0;  1.5976459E+00;  9.9414326E+03;  0.0000000E+00;  8.9850306E-04;  1.0000000E+04;  0.0000000E+00;  9.9650557E+03;  1.3041751E+00;  0.0000000E+00;  2.9347074E-01;  1.6477057E+04;
  8.6022127E-01;  9.9999998E-03; -2.2038254E-01;2366;  9.7668312E-02;  0.0000000E+00; -1.2182730E-01;  1.0134896E+03;  4.0726984E-01;  1.1166255E+04;3;  2.4872515E+01;  0.0000000E+00; -1.0391678E+01;0;  1.6003754E+00;  9.9419121E+03;  0.0000000E+00;  4.6573248E-04;  1.0000000E+04;  0.0000000E+00;  9.9660313E+03;  1.3122152E+00;  0.0000000E+00;  2.8816023E-01;  1.6015806E+04;
  8.6021602E-01;  9.9999998E-03; -2.0034027E-01;2367;  9.7127341E-02;  0.0000000E+00; -1.1448964E-01;  1.0135543E+03;  4.0726942E-01;  1.1219839E+04;3;  2.4997156E+01;  0.0000000E+00; -6.6469555E+00;0;  1.6027328E+00;  9.9428730E+03;  0.0000000E+00;  1.7412595E-04;  1.0000000E+04;  0.0000000E+00;  9.9663555E+03;  1.3088303E+00;  0.0000000E+00;  2.9390249E-01;  1.5860504E+04;
  8.8024586E-01;  9.9999998E-03; -3.0048174E-01;2393;  9.6068196E-02;  0.0000000E+00; -1.3658477E-01;  1.0127443E+03;  4.0692127E-01;  1.0546146E+04;3;  3.7603027E+01;  0.0000000E+00; -2.1914694E+01;0;  1.5825113E+00;  9.9476602E+03;  0.0000000E+00;  9.0729707E-04;  1.0000000E+04;  0.0000000E+00;  9.9626621E+03;  1.1462667E+00;  0.0000000E+00;  4.3624461E-01;  1.7421266E+04;
  8.8026804E-01;  9.9999998E-03; -2.8044847E-01;2394;  1.1003260E-01;  0.0000000E+00; -1.3584176E-01;  1.0129069E+03;  4.0692142E-01;  1.0680697E+04;3;  3.6861217E+01;  0.0000000E+00; -3.5667942E+01;0;  1.5710298E+00;  9.9476123E+03;  0.0000000E+00;  2.1593005E-03;  1.0000000E+04;  0.0000000E+00;  9.9659189E+03;  1.1595851E+00;  0.0000000E+00;  4.1144463E-01;  1.5815627E+04;
  8.8027859E-01;  9.9999998E-03; -2.6042947E-01;2395;  1.1974309E-01;  0.0000000E+00; -1.2101986E-01;  1.0128903E+03;  4.0692136E-01;  1.0666884E+04;3;  3.6189705E+01;  0.0000000E+00; -2.3511827E+01;0;  1.4491553E+00;  9.9478027E+03;  0.0000000E+00;  2.2216118E-03;  1.0000000E+04;  0.0000000E+00;  9.9654277E+03;  1.1694446E+00;  0.0000000E+00;  2.7971083E-01;  1.6253435E+04;
  8.8028681E-01;  9.9999998E-03; -2.4040607E-01;2396;  1.2669794E-01;  0.0000000E+00; -1.2115916E-01;  1.0129443E+03;  4.0692079E-01;  1.0711669E+04;3;  3.5622578E+01;  0.0000000E+00; -1.6452326E+01;0;  1.4680887E+00;  9.9483047E+03;  0.0000000E+00;  1.5185599E-03;  1.0000000E+04;  0.0000000E+00;  9.9660156E+03;  1.1729090E+00;  0.0000000E+00;  2.9517972E-01;  1.5957150E+04;
  8.8028842E-01;  9.9999998E-03; -2.2036749E-01;2397;  1.2996553E-01;  0.0000000E+00; -1.1835820E-01;  1.0130391E+03;  4.0692019E-01;  1.0790094E+04;3;  3.5215950E+01;  0.0000000E+00; -1.1121816E+01;0;  1.4571911E+00;  9.9492070E+03;  0.0000000E+00;  7.5871847E-04;  1.0000000E+04;  0.0000000E+00;  9.9669971E+03;  1.1674565E+00;  0.0000000E+00;  2.8973463E-01;  1.5492939E+04;
  8.8028139E-01;  9.9999998E-03; -2.0032661E-01;2398;  1.2886551E-01;  0.0000000E+00; -1.1095679E-01;  1.0131248E+03;  4.0691969E-01;  1.0860924E+04;3;  3.5016315E+01;  0.0000000E+00; -7.4303818E+00;0;  1.4464039E+00;  9.9505176E+03;  0.0000000E+00;  2.6413813E-04;  1.0000000E+04;  0.0000000E+00;  9.9673975E+03;  1.1520121E+00;  0.0000000E+00;  2.9439175E-01;  1.5308635E+04;
  9.0029883E-01;  9.9999998E-03; -3.0045840E-01;2424;  1.1944634E-01;  0.0000000E+00; -1.3131055E-01;  1.0121050E+03;  4.0648481E-01;  1.0013020E+04;3;  4.8491508E+01;  0.0000000E+00; -2.2397720E+01;0;  1.4308016E+00;  9.9546006E+03;  0.0000000E+00;  1.8294406E-03;  1.0000000E+04;  0.0000000E+00;  9.9645371E+03;  1.0138056E+00;  0.0000000E+00;  4.1699606E-01;  1.6453984E+04;
  9.0032440E-01;  9.9999998E-03; -2.8042653E-01;2425;  1.3598315E-01;  0.0000000E+00; -1.3037793E-01;  1.0122722E+03;  4.0648493E-01;  1.0151359E+04;3;  4.7463024E+01;  0.0000000E+00; -3.4788696E+01;0;  1.4108167E+00;  9.9550039E+03;  0.0000000E+00;  3.2207482E-03;  1.0000000E+04;  0.0000000E+00;  9.9674463E+03;  1.0148933E+00;  0.0000000E+00;  3.9592335E-01;  1.5027902E+04;
  9.0033537E-01;  9.9999998E-03; -2.6040712E-01;2426;  1.4700881E-01;  0.0000000E+00; -1.1631490E-01;  1.0122845E+03;  4.0648484E-01;  1.0161514E+04;3;  4.6478123E+01;  0.0000000E+00; -2.3571362E+01;0;  1.2852385E+00;  9.9556934E+03;  0.0000000E+00;  3.1877097E-03;  1.0000000E+04;  0.0000000E+00;  9.9670156E+03;  1.0106355E+00;  0.0000000E+00;  2.7460301E-01;  1.5420903E+04;
  9.0034461E-01;  9.9999998E-03; -2.4038400E-01;2427;  1.5484603E-01;  0.0000000E+00; -1.1610362E-01;  1.0123606E+03;  4.0648419E-01;  1.0224423E+04;3;  4.5571686E+01;  0.0000000E+00; -1.6704926E+01;0;  1.2891436E+00;  9.9567363E+03;  0.0000000E+00;  2.1142242E-03;  1.0000000E+04;  0.0000000E+00;  9.9675049E+03;  9.9878615E-01;  0.0000000E+00;  2.9035735E-01;  1.5174808E+04;
  9.0034676E-01;  9.9999998E-03; -2.2034734E-01;2428;  1.5851070E-01;  0.0000000E+00; -1.1291263E-01;  1.0124764E+03;  4.0648368E-01;  1.0320171E+04;3;  4.4821579E+01;  0.0000000E+00; -1.1532031E+01;0;  1.2638843E+00;  9.9581514E+03;  0.0000000E+00;  1.0094072E-03;  1.0000000E+04;  0.0000000E+00;  9.9684004E+03;  9.7833294E-01;  0.0000000E+00;  2.8555137E-01;  1.4759570E+04;
  9.0033859E-01;  9.9999998E-03; -2.0030940E-01;2429;  1.5711598E-01;  0.0000000E+00; -1.0607614E-01;  1.0125832E+03;  4.0648335E-01;  1.0408524E+04;3;  4.4310547E+01;  0.0000000E+00; -7.9360571E+00;0;  1.2407169E+00;  9.9598730E+03;  0.0000000E+00;  3.1791386E-04;  1.0000000E+04;  0.0000000E+00;  9.9687939E+03;  9.5007038E-01;  0.0000000E+00;  2.9064658E-01;  1.4579022E+04;
  9.2034149E-01;  9.9999998E-03; -3.0043140E-01;2455;  1.3862704E-01;  0.0000000E+00; -1.2529153E-01;  1.0113679E+03;  4.0598419E-01;  9.3981680E+03;3;  5.7646999E+01;  0.0000000E+00; -2.3053444E+01;0;  1.2513373E+00;  9.9624727E+03;  0.0000000E+00;  2.5425693E-03;  1.0000000E+04;  0.0000000E+00;  9.9667168E+03;  8.5255963E-01;  0.0000000E+00;  3.9877760E-01;  1.5321516E+04;
  9.2036855E-01;  9.9999998E-03; -2.8040096E-01;2456;  1.5688746E-01;  0.0000000E+00; -1.2410066E-01;  1.0115448E+03;  4.0598416E-01;  9.5444141E+03;3;  5.5888973E+01;  0.0000000E+00; -3.3517414E+01;0;  1.2202582E+00;  9.9633691E+03;  0.0000000E+00;  4.0430231E-03;  1.0000000E+04;  0.0000000E+00;  9.9693340E+03;  8.4024394E-01;  0.0000000E+00;  3.8001433E-01;  1.4053397E+04;
  9.2037994E-01;  9.9999998E-03; -2.6038092E-01;2457;  1.6914782E-01;  0.0000000E+00; -1.1075091E-01;  1.0115915E+03;  4.0598395E-01;  9.5829443E+03;3;  5.5210609E+01;  0.0000000E+00; -2.3616289E+01;0;  1.0873754E+00;  9.9646260E+03;  0.0000000E+00;  3.8470614E-03;  1.0000000E+04;  0.0000000E+00;  9.9690244E+03;  8.2077235E-01;  0.0000000E+00;  2.6660308E-01;  1.4375480E+04;
  9.2038906E-01;  9.9999998E-03; -2.4035743E-01;2458;  1.7712682E-01;  0.0000000E+00; -1.0957336E-01;  1.0116943E+03;  4.0598351E-01;  9.6679932E+03;3;  5.4038494E+01;  0.0000000E+00; -1.6703743E+01;0;  1.0722795E+00;  9.9662705E+03;  0.0000000E+00;  2.4590599E-03;  1.0000000E+04;  0.0000000E+00;  9.9694404E+03;  7.9281282E-01;  0.0000000E+00;  2.7946663E-01;  1.4172165E+04;
  9.2039168E-01;  9.9999998E-03; -2.2032282E-01;2459;  1.8111742E-01;  0.0000000E+00; -1.0564925E-01;  1.0118297E+03;  4.0598291E-01;  9.7799492E+03;3;  5.3078762E+01;  0.0000000E+00; -1.1589874E+01;0;  1.0331662E+00;  9.9682305E+03;  0.0000000E+00;  1.1007953E-03;  1.0000000E+04;  0.0000000E+00;  9.9701709E+03;  7.5722021E-01;  0.0000000E+00;  2.7594596E-01;  1.3840318E+04;
  9.2038101E-01;  9.9999998E-03; -2.0028922E-01;2460;  1.7896368E-01;  0.0000000E+00; -9.9981934E-02;  1.0119532E+03;  4.0598258E-01;  9.8820547E+03;3;  5.2302830E+01;  0.0000000E+00; -8.1155357E+00;0;  9.9992388E-01;  9.9703633E+03;  0.0000000E+00;  3.0202136E-04;  1.0000000E+04;  0.0000000E+00;  9.9704980E+03;  7.1706319E-01;  0.0000000E+00;  2.8286070E-01;  1.3692690E+04;
  9.4037163E-01;  9.9999998E-03; -3.0040166E-01;2486;  1.5283106E-01;  0.0000000E+00; -1.1869743E-01;  1.0105385E+03;  4.0544322E-01;  8.7059932E+03;3;  6.5237869E+01;  0.0000000E+00; -2.4326519E+01;0;  1.0663638E+00;  9.9702451E+03;  0.0000000E+00;  2.8304746E-03;  1.0000000E+04;  0.0000000E+00;  9.9691729E+03;  6.8628585E-01;  0.0000000E+00;  3.8007802E-01;  1.4035977E+04;
  9.4039977E-01;  9.9999998E-03; -2.8037280E-01;2487;  1.7185891E-01;  0.0000000E+00; -1.1662120E-01;  1.0107283E+03;  4.0544316E-01;  8.8627637E+03;3;  6.1772602E+01;  0.0000000E+00; -3.1776691E+01;0;  1.0152364E+00;  9.9716787E+03;  0.0000000E+00;  4.5594811E-03;  1.0000000E+04;  0.0000000E+00;  9.9715176E+03;  6.6001034E-01;  0.0000000E+00;  3.5522598E-01;  1.2930637E+04;
  9.4041157E-01;  9.9999998E-03; -2.6035270E-01;2488;  1.8523309E-01;  0.0000000E+00; -1.0430013E-01;  1.0108082E+03;  4.0544304E-01;  8.9287402E+03;3;  6.1508217E+01;  0.0000000E+00; -2.2821852E+01;0;  8.7962961E-01;  9.9735244E+03;  0.0000000E+00;  4.0241969E-03;  1.0000000E+04;  0.0000000E+00;  9.9712783E+03;  6.2528437E-01;  0.0000000E+00;  2.5434521E-01;  1.3199622E+04;
  9.4041896E-01;  9.9999998E-03; -2.4032842E-01;2489;  1.9264460E-01;  0.0000000E+00; -1.0162471E-01;  1.0109393E+03;  4.0544248E-01;  9.0371660E+03;3;  6.0375595E+01;  0.0000000E+00; -1.6023447E+01;0;  8.4428334E-01;  9.9757539E+03;  0.0000000E+00;  2.4203795E-03;  1.0000000E+04;  0.0000000E+00;  9.9716719E+03;  5.8218765E-01;  0.0000000E+00;  2.6209566E-01;  1.3020463E+04;
  9.4041276E-01;  9.9999998E-03; -2.2029753E-01;2490;  1.9248185E-01;  0.0000000E+00; -9.8399512E-02;  1.0110875E+03;  4.0544218E-01;  9.1594805E+03;3;  5.8394402E+01;  0.0000000E+00; -1.1530940E+01;0;  7.9733491E-01;  9.9782188E+03;  0.0000000E+00;  1.0202526E-03;  1.0000000E+04;  0.0000000E+00;  9.9721572E+03;  5.3375643E-01;  0.0000000E+00;  2.6357844E-01;  1.2805495E+04;
  9.4039351E-01;  9.9999998E-03; -2.0026754E-01;2491;  1.8593515E-01;  0.0000000E+00; -9.3513116E-02;  1.0112250E+03;  4.0544188E-01;  9.2731348E+03;3;  5.6313770E+01;  0.0000000E+00; -8.3764095E+00;0;  7.5664127E-01;  9.9806660E+03;  0.0000000E+00;  2.3711994E-04;  1.0000000E+04;  0.0000000E+00;  9.9724268E+03;  4.8488432E-01;  0.0000000E+00;  2.7175698E-01;  1.2685944E+04;
  9.6039295E-01;  9.9999998E-03; -3.0037007E-01;2517;  1.6338114E-01;  0.0000000E+00; -1.1153005E-01;  1.0096204E+03;  4.0488580E-01;  7.9395874E+03;3;  7.1334091E+01;  0.0000000E+00; -2.5639181E+01;0;  8.9859366E-01;  9.9768447E+03;  0.0000000E+00;  2.5475775E-03;  1.0000000E+04;  0.0000000E+00;  9.9718877E+03;  5.3979927E-01;  0.0000000E+00;  3.5879439E-01;  1.2607535E+04;
  9.6042097E-01;  9.9999998E-03; -2.8034300E-01;2518;  1.8239129E-01;  0.0000000E+00; -1.0846160E-01;  1.0098231E+03;  4.0488565E-01;  8.1069238E+03;3;  6.6784538E+01;  0.0000000E+00; -3.0445131E+01;0;  8.2481527E-01;  9.9788184E+03;  0.0000000E+00;  9.4874762E-03;  1.0000000E+04;  0.0000000E+00;  9.9739502E+03;  5.0030088E-01;  0.0000000E+00;  3.2451442E-01;  1.1673658E+04;
  9.6043193E-01;  9.9999998E-03; -2.6032311E-01;2519;  1.9601049E-01;  0.0000000E+00; -9.6921250E-02;  1.0099315E+03;  4.0488553E-01;  8.1964463E+03;3;  6.6346352E+01;  0.0000000E+00; -2.1882050E+01;0;  6.8709767E-01;  9.9812285E+03;  0.0000000E+00;  8.2448423E-03;  1.0000000E+04;  0.0000000E+00;  9.9737178E+03;  4.5174795E-01;  0.0000000E+00;  2.3534971E-01;  1.1924247E+04;
  9.6043175E-01;  9.9999998E-03; -2.4030061E-01;2520;  1.9951358E-01;  0.0000000E+00; -9.4402276E-02;  1.0100781E+03;  4.0488508E-01;  8.3173584E+03;3;  6.3837051E+01;  0.0000000E+00; -1.5689373E+01;0;  6.4164251E-01;  9.9839717E+03;  0.0000000E+00;  3.8900296E-03;  1.0000000E+04;  0.0000000E+00;  9.9738994E+03;  3.9635700E-01;  0.0000000E+00;  2.4528551E-01;  1.1848115E+04;
  9.6041530E-01;  9.9999998E-03; -2.2027348E-01;2521;  1.9426163E-01;  0.0000000E+00; -9.2069484E-02;  1.0102379E+03;  4.0488485E-01;  8.4491992E+03;3;  5.9807552E+01;  0.0000000E+00; -1.1563168E+01;0;  5.8885318E-01;  9.9868115E+03;  0.0000000E+00;  9.9872181E-04;  1.0000000E+04;  0.0000000E+00;  9.9742305E+03;  3.3907980E-01;  0.0000000E+00;  2.4977337E-01;  1.1707644E+04;
  9.6039319E-01;  9.9999998E-03; -2.0024519E-01;2522;  1.8667173E-01;  0.0000000E+00; -8.6890243E-02;  1.0103847E+03;  4.0488470E-01;  8.5704180E+03;3;  5.7475311E+01;  0.0000000E+00; -8.6753435E+00;0;  5.4316568E-01;  9.9894580E+03;  0.0000000E+00;  1.6240936E-04;  1.0000000E+04;  0.0000000E+00;  9.9744941E+03;  2.8539610E-01;  0.0000000E+00;  2.5776958E-01;  1.1596625E+04;
  9.8041123E-01;  9.9999998E-03; -3.0033788E-01;2548;  1.7283902E-01;  0.0000000E+00; -1.0384832E-01;  1.0086328E+03;  4.0433332E-01;  7.1150513E+03;3;  7.7395805E+01;  0.0000000E+00; -2.6554028E+01;0;  7.6110518E-01;  9.9817354E+03;  0.0000000E+00;  1.5415817E-03;  1.0000000E+04;  0.0000000E+00;  9.9747168E+03;  4.2613599E-01;  0.0000000E+00;  3.3496919E-01;  1.1108418E+04;
  9.8043698E-01;  9.9999998E-03; -2.8031236E-01;2549;  1.9097479E-01;  0.0000000E+00; -1.0006540E-01;  1.0088473E+03;  4.0433308E-01;  7.2917905E+03;3;  7.1634804E+01;  0.0000000E+00; -2.9293232E+01;0;  6.6934937E-01;  9.9841738E+03;  0.0000000E+00;  2.7418567E-02;  1.0000000E+04;  0.0000000E+00;  9.9765557E+03;  3.7634391E-01;  0.0000000E+00;  2.9300547E-01;  1.0317242E+04;
  9.8044342E-01;  9.9999998E-03; -2.6029360E-01;2550;  2.0221797E-01;  0.0000000E+00; -8.9257494E-02;  1.0089716E+03;  4.0433297E-01;  7.3942617E+03;3;  7.0087265E+01;  0.0000000E+00; -2.0832254E+01;0;  5.3075987E-01;  9.9870645E+03;  0.0000000E+00;  2.6350968E-02;  1.0000000E+04;  0.0000000E+00;  9.9761563E+03;  3.1716064E-01;  0.0000000E+00;  2.1359923E-01;  1.0632490E+04;
  9.8043323E-01;  9.9999998E-03; -2.4027430E-01;2551;  2.0036635E-01;  0.0000000E+00; -8.7693125E-02;  1.0091227E+03;  4.0433270E-01;  7.5188501E+03;3;  6.4692810E+01;  0.0000000E+00; -1.5051720E+01;0;  4.8238367E-01;  9.9901885E+03;  0.0000000E+00;  1.3863161E-02;  1.0000000E+04;  0.0000000E+00;  9.9760420E+03;  2.5337163E-01;  0.0000000E+00;  2.2901206E-01;  1.0690048E+04;
  9.8041260E-01;  9.9999998E-03; -2.2024934E-01;2552;  1.9397117E-01;  0.0000000E+00; -8.5593693E-02;  1.0092932E+03;  4.0433261E-01;  7.6593613E+03;3;  6.0343708E+01;  0.0000000E+00; -1.1323435E+01;0;  4.2461535E-01;  9.9932588E+03;  0.0000000E+00;  3.7969903E-03;  1.0000000E+04;  0.0000000E+00;  9.9763477E+03;  1.9131780E-01;  0.0000000E+00;  2.3329756E-01;  1.0567138E+04;
  9.8038894E-01;  9.9999998E-03; -2.0022327E-01;2553;  1.8588962E-01;  0.0000000E+00; -8.0412135E-02;  1.0094438E+03;  4.0433234E-01;  7.7835649E+03;3;  5.7929916E+01;  0.0000000E+00; -8.8527308E+00;0;  3.7733567E-01;  9.9960059E+03;  0.0000000E+00;  3.7520233E-04;  1.0000000E+04;  0.0000000E+00;  9.9765947E+03;  1.3602543E-01;  0.0000000E+00;  2.4131024E-01;  1.0465902E+04;
  1.0004318E+00;  9.9999998E-03; -3.0030620E-01;2579;  1.8313177E-01;  0.0000000E+00; -9.5978640E-02;  1.0076248E+03;  4.0380380E-01;  6.2730391E+03;3;  8.3504562E+01;  0.0000000E+00; -2.6291740E+01;0;  6.5414464E-01;  9.9850166E+03;  0.0000000E+00; -5.1962780E-03;  1.0000000E+04;  0.0000000E+00;  9.9776377E+03;  3.4416622E-01;  0.0000000E+00;  3.0997846E-01;  9.5606787E+03;
  1.0004507E+00;  9.9999998E-03; -2.8028172E-01;2580;  1.9863814E-01;  0.0000000E+00; -9.1568090E-02;  1.0078473E+03;  4.0380377E-01;  6.4560332E+03;3;  7.6748604E+01;  0.0000000E+00; -2.8416590E+01;0;  5.4825437E-01;  9.9877900E+03;  0.0000000E+00;  5.5964306E-02;  1.0000000E+04;  0.0000000E+00;  9.9793047E+03;  2.8880894E-01;  0.0000000E+00;  2.5944543E-01;  8.8860039E+03;
  1.0004481E+00;  9.9999998E-03; -2.6026526E-01;2581;  2.0440815E-01;  0.0000000E+00; -8.1517145E-02;  1.0079656E+03;  4.0380353E-01;  6.5533242E+03;3;  7.2064606E+01;  0.0000000E+00; -1.8874811E+01;0;  4.1447696E-01;  9.9910342E+03;  0.0000000E+00;  5.8542088E-02;  1.0000000E+04;  0.0000000E+00;  9.9784199E+03;  2.2277494E-01;  0.0000000E+00;  1.9170202E-01;  9.4038555E+03;
  1.0004314E+00;  9.9999998E-03; -2.4024867E-01;2582;  2.0010820E-01;  0.0000000E+00; -8.0962256E-02;  1.0081176E+03;  4.0380338E-01;  6.6783809E+03;3;  6.5191452E+01;  0.0000000E+00; -1.4193295E+01;0;  3.6599201E-01;  9.9943887E+03;  0.0000000E+00;  3.1824090E-02;  1.0000000E+04;  0.0000000E+00;  9.9780869E+03;  1.5466782E-01;  0.0000000E+00;  2.1132419E-01;  9.5547754E+03;
  1.0004072E+00;  9.9999998E-03; -2.2022517E-01;2583;  1.9273412E-01;  0.0000000E+00; -7.8897581E-02;  1.0082924E+03;  4.0380335E-01;  6.8222729E+03;3;  6.0648815E+01;  0.0000000E+00; -1.1220430E+01;0;  3.0658418E-01;  9.9975439E+03;  0.0000000E+00;  8.6274920E-03;  1.0000000E+04;  0.0000000E+00;  9.9784033E+03;  9.1607019E-02;  0.0000000E+00;  2.1497715E-01;  9.4332070E+03;
  1.0003825E+00;  9.9999998E-03; -2.0020282E-01;2584;  1.8433543E-01;  0.0000000E+00; -7.4429549E-02;  1.0084421E+03;  4.0380314E-01;  6.9453745E+03;3;  5.8172337E+01;  0.0000000E+00; -9.0893822E+00;0;  2.6055291E-01;  1.0000280E+04;  0.0000000E+00;  6.1164895E-04;  1.0000000E+04;  0.0000000E+00;  9.9786318E+03;  3.7331827E-02;  0.0000000E+00;  2.2322108E-01;  9.3433867E+03;
  1.0204589E+00;  9.9999998E-03; -3.0027595E-01;2610;  1.9573006E-01;  0.0000000E+00; -8.8058904E-02;  1.0066515E+03;  4.0331143E-01;  5.4590601E+03;3;  8.9870598E+01;  0.0000000E+00; -2.4485308E+01;0;  5.7089078E-01;  9.9871094E+03;  0.0000000E+00; -1.7130878E-02;  1.0000000E+04;  0.0000000E+00;  9.9806152E+03;  2.8576851E-01;  0.0000000E+00;  2.8512225E-01;  7.9958833E+03;
  1.0204641E+00;  9.9999998E-03; -2.8025252E-01;2611;  2.0584419E-01;  0.0000000E+00; -8.2650155E-02;  1.0068730E+03;  4.0331155E-01;  5.6408389E+03;3;  8.2342484E+01;  0.0000000E+00; -2.6577650E+01;0;  4.4878322E-01;  9.9901895E+03;  0.0000000E+00;  6.8763167E-02;  1.0000000E+04;  0.0000000E+00;  9.9819434E+03;  2.2784176E-01;  0.0000000E+00;  2.2094145E-01;  7.5135303E+03;
  1.0204511E+00;  9.9999998E-03; -2.6023850E-01;2612;  2.0539747E-01;  0.0000000E+00; -7.4078165E-02;  1.0069743E+03;  4.0331170E-01;  5.7240117E+03;3;  7.3560204E+01;  0.0000000E+00; -1.7269419E+01;0;  3.2898295E-01;  9.9936865E+03;  0.0000000E+00;  7.7800021E-02;  1.0000000E+04;  0.0000000E+00;  9.9804561E+03;  1.5772828E-01;  0.0000000E+00;  1.7125468E-01;  8.2614297E+03;
  1.0204289E+00;  9.9999998E-03; -2.4022396E-01;2613;  1.9951491E-01;  0.0000000E+00; -7.4117087E-02;  1.0071188E+03;  4.0331158E-01;  5.8426094E+03;3;  6.5590782E+01;  0.0000000E+00; -1.3415201E+01;0;  2.8327477E-01;  9.9970928E+03;  0.0000000E+00;  3.5259407E-02;  1.0000000E+04;  0.0000000E+00;  9.9799258E+03;  8.9545339E-02;  0.0000000E+00;  1.9372943E-01;  8.4908057E+03;
  1.0204012E+00;  9.9999998E-03; -2.2020316E-01;2614;  1.9131431E-01;  0.0000000E+00; -7.2391845E-02;  1.0072885E+03;  4.0331146E-01;  5.9818560E+03;3;  6.0779217E+01;  0.0000000E+00; -1.0987875E+01;0;  2.2633223E-01;  1.0000156E+04;  0.0000000E+00;  9.5222297E-04;  1.0000000E+04;  0.0000000E+00;  9.9802227E+03;  2.9213976E-02;  0.0000000E+00;  1.9711825E-01;  8.3814922E+03;
  1.0203755E+00;  9.9999998E-03; -2.0018423E-01;2615;  1.8250860E-01;  0.0000000E+00; -6.8962149E-02;  1.0074329E+03;  4.0331149E-01;  6.1004580E+03;3;  5.8235359E+01;  0.0000000E+00; -9.2151270E+00;0;  1.8343349E-01;  1.0002755E+04;  0.0000000E+00; -5.9241075E-03;  1.0000000E+04;  0.0000000E+00;  9.9804912E+03; -2.1425098E-02;  0.0000000E+00;  2.0485859E-01;  8.2800039E+03;
  1.0404967E+00;  9.9999998E-03; -3.0024764E-01;2641;  2.1316445E-01;  0.0000000E+00; -7.9425998E-02;  1.0057360E+03;  4.0286672E-01;  4.6924590E+03;3;  1.0061401E+02;  0.0000000E+00; -2.4204779E+01;0;  4.9035320E-01;  9.9880488E+03;  0.0000000E+00;  1.5618234E-02;  1.0000000E+04;  0.0000000E+00;  9.9835645E+03;  2.5161552E-01;  0.0000000E+00;  2.3873767E-01;  6.4821001E+03;
  1.0404807E+00;  9.9999998E-03; -2.8022707E-01;2642;  2.1367247E-01;  0.0000000E+00; -7.3943883E-02;  1.0059523E+03;  4.0286681E-01;  4.8693779E+03;3;  8.8701096E+01;  0.0000000E+00; -2.3623945E+01;0;  3.6853680E-01;  9.9919326E+03;  0.0000000E+00;  6.7354841E-03;  1.0000000E+04;  0.0000000E+00;  9.9839736E+03;  1.8234594E-01;  0.0000000E+00;  1.8619086E-01;  6.3991919E+03;
  1.0404550E+00;  9.9999998E-03; -2.6021427E-01;2643;  2.0656879E-01;  0.0000000E+00; -6.7251980E-02;  1.0060506E+03;  4.0286693E-01;  4.9498574E+03;3;  7.5369843E+01;  0.0000000E+00; -1.6379850E+01;0;  2.6260567E-01;  9.9957188E+03;  0.0000000E+00;  2.4409326E-02;  1.0000000E+04;  0.0000000E+00;  9.9821299E+03;  1.0745315E-01;  0.0000000E+00;  1.5515251E-01;  7.2488477E+03;
  1.0404265E+00;  9.9999998E-03; -2.4020146E-01;2644;  1.9898926E-01;  0.0000000E+00; -6.7372397E-02;  1.0061797E+03;  4.0286702E-01;  5.0555015E+03;3;  6.6414749E+01;  0.0000000E+00; -1.2841289E+01;0;  2.2181322E-01;  9.9990000E+03;  0.0000000E+00; -2.2523217E-02;  1.0000000E+04;  0.0000000E+00;  9.9814111E+03;  4.3388452E-02;  0.0000000E+00;  1.7842476E-01;  7.5555796E+03;
  1.0403957E+00;  9.9999998E-03; -2.2018334E-01;2645;  1.8990776E-01;  0.0000000E+00; -6.6049613E-02;  1.0063346E+03;  4.0286702E-01;  5.1822134E+03;3;  6.1114162E+01;  0.0000000E+00; -1.0834902E+01;0;  1.7115527E-01;  1.0001760E+04;  0.0000000E+00; -5.0593968E-02;  1.0000000E+04;  0.0000000E+00;  9.9817217E+03; -1.0347313E-02;  0.0000000E+00;  1.8150258E-01;  7.4516626E+03;
  1.0403677E+00;  9.9999998E-03; -2.0016631E-01;2646;  1.8039909E-01;  0.0000000E+00; -6.3161969E-02;  1.0064684E+03;  4.0286699E-01;  5.2917598E+03;3;  5.8327053E+01;  0.0000000E+00; -9.0657473E+00;0;  1.3301764E-01;  1.0004042E+04;  0.0000000E+00; -3.6158126E-02;  1.0000000E+04;  0.0000000E+00;  9.9820938E+03; -5.4476559E-02;  0.0000000E+00;  1.8749420E-01;  7.3116377E+03;
  1.0605346E+00;  9.9999998E-03; -3.0022222E-01;2672;  2.2909613E-01;  0.0000000E+00; -6.8978600E-02;  1.0048618E+03;  4.0247515E-01;  3.9601902E+03;3;  1.1126544E+02;  0.0000000E+00; -2.3794098E+01;0;  4.0061310E-01;  9.9875254E+03;  0.0000000E+00;  2.4543871E-01;  1.0000000E+04;  0.0000000E+00;  9.9861709E+03;  2.4573688E-01;  0.0000000E+00;  1.5487622E-01;  5.2872793E+03;
  1.0604993E+00;  9.9999998E-03; -2.8020653E-01;2673;  2.2018121E-01;  0.0000000E+00; -6.5849051E-02;  1.0050938E+03;  4.0247524E-01;  4.1490894E+03;3;  9.3506783E+01;  0.0000000E+00; -2.0900578E+01;0;  3.0183697E-01;  9.9932168E+03;  0.0000000E+00; -1.7493576E-01;  1.0000000E+04;  0.0000000E+00;  9.9850645E+03;  1.4532331E-01;  0.0000000E+00;  1.5651368E-01;  5.7235854E+03;
  1.0604619E+00;  9.9999998E-03; -2.6019445E-01;2674;  2.0866950E-01;  0.0000000E+00; -6.1148912E-02;  1.0052151E+03;  4.0247527E-01;  4.2479790E+03;3;  7.7744453E+01;  0.0000000E+00; -1.5456816E+01;0;  2.0968994E-01;  9.9975273E+03;  0.0000000E+00; -1.7630933E-01;  1.0000000E+04;  0.0000000E+00;  9.9831484E+03;  6.3335799E-02;  0.0000000E+00;  1.4635415E-01;  6.5386084E+03;
  1.0604252E+00;  9.9999998E-03; -2.4018227E-01;2675;  1.9862327E-01;  0.0000000E+00; -6.1003216E-02;  1.0053369E+03;  4.0247542E-01;  4.3472578E+03;3;  6.7779068E+01;  0.0000000E+00; -1.2161770E+01;0;  1.7270342E-01;  1.0000638E+04;  0.0000000E+00; -1.9245309E-01;  1.0000000E+04;  0.0000000E+00;  9.9824561E+03;  4.9480102E-03;  0.0000000E+00;  1.6775541E-01;  6.8305728E+03;
  1.0603911E+00;  9.9999998E-03; -2.2016540E-01;2676;  1.8865424E-01;  0.0000000E+00; -5.9710871E-02;  1.0054724E+03;  4.0247554E-01;  4.4577031E+03;3;  6.1753326E+01;  0.0000000E+00; -1.0360110E+01;0;  1.3039422E-01;  1.0002900E+04;  0.0000000E+00; -1.8278305E-01;  1.0000000E+04;  0.0000000E+00;  9.9828750E+03; -3.8914859E-02;  0.0000000E+00;  1.6930908E-01;  6.6824893E+03;
  1.0603602E+00;  9.9999998E-03; -2.0014955E-01;2677;  1.7821735E-01;  0.0000000E+00; -5.7189163E-02;  1.0055879E+03;  4.0247551E-01;  4.5518325E+03;3;  5.8427792E+01;  0.0000000E+00; -8.9059944E+00;0;  9.8880380E-02;  1.0004684E+04;  0.0000000E+00; -1.1463268E-01;  1.0000000E+04;  0.0000000E+00;  9.9833828E+03; -7.3797062E-02;  0.0000000E+00;  1.7267744E-01;  6.4705054E+03;
  1.0805564E+00;  9.9999998E-03; -3.0020198E-01;2703;  2.3509213E-01;  0.0000000E+00; -6.0777951E-02;  1.0040364E+03;  4.0213898E-01;  3.2690488E+03;3;  1.1706242E+02;  0.0000000E+00; -2.2857460E+01;0;  3.4741318E-01;  9.9862344E+03;  0.0000000E+00;  8.6713493E-01;  1.0000000E+04;  0.0000000E+00;  9.9877422E+03;  2.4050882E-01;  0.0000000E+00;  1.0690437E-01;  5.5203525E+03;
  1.0805128E+00;  9.9999998E-03; -2.8018931E-01;2704;  2.2378820E-01;  0.0000000E+00; -5.8942396E-02;  1.0043325E+03;  4.0213916E-01;  3.5089197E+03;3;  9.7978416E+01;  0.0000000E+00; -1.9286024E+01;0;  2.5142133E-01;  9.9940410E+03;  0.0000000E+00; -3.7290734E-01;  1.0000000E+04;  0.0000000E+00;  9.9857979E+03;  1.1435248E-01;  0.0000000E+00;  1.3706887E-01;  5.2728271E+03;
  1.0804682E+00;  9.9999998E-03; -2.6017696E-01;2705;  2.1013500E-01;  0.0000000E+00; -5.5096608E-02;  1.0044990E+03;  4.0213904E-01;  3.6438499E+03;3;  8.0820404E+01;  0.0000000E+00; -1.4579855E+01;0;  1.6046785E-01;  9.9991377E+03;  0.0000000E+00; -5.2157104E-01;  1.0000000E+04;  0.0000000E+00;  9.9840068E+03;  2.3287965E-02;  0.0000000E+00;  1.3717988E-01;  6.1555327E+03;
  1.0804251E+00;  9.9999998E-03; -2.4016498E-01;2706;  1.9824955E-01;  0.0000000E+00; -5.4540090E-02;  1.0046151E+03;  4.0213928E-01;  3.7378450E+03;3;  6.9681503E+01;  0.0000000E+00; -1.1571925E+01;0;  1.2808549E-01;  1.0002167E+04;  0.0000000E+00; -4.9458438E-01;  1.0000000E+04;  0.0000000E+00;  9.9832715E+03; -3.0108279E-02;  0.0000000E+00;  1.5819377E-01;  6.3901860E+03;
  1.0803875E+00;  9.9999998E-03; -2.2014958E-01;2707;  1.8751654E-01;  0.0000000E+00; -5.3636890E-02;  1.0047229E+03;  4.0213925E-01;  3.8252698E+03;3;  6.2959328E+01;  0.0000000E+00; -9.9623966E+00;0;  9.8396115E-02;  1.0003853E+04;  0.0000000E+00; -4.1951841E-01;  1.0000000E+04;  0.0000000E+00;  9.9837178E+03; -6.2675633E-02;  0.0000000E+00;  1.6107175E-01;  6.1586069E+03;
  1.0803535E+00;  9.9999998E-03; -2.0013404E-01;2708;  1.7616956E-01;  0.0000000E+00; -5.1142175E-02;  1.0048134E+03;  4.0213943E-01;  3.8985959E+03;3;  5.8823326E+01;  0.0000000E+00; -8.5431252E+00;0;  7.4719362E-02;  1.0004998E+04;  0.0000000E+00; -2.6665762E-01;  1.0000000E+04;  0.0000000E+00;  9.9843662E+03; -8.6567931E-02;  0.0000000E+00;  1.6128729E-01;  5.7972876E+03;
  1.1005182E+00;  9.9999998E-03; -2.8017375E-01;2734;  2.2486299E-01;  0.0000000E+00; -5.2646618E-02;  1.0036921E+03;  4.0185714E-01;  2.9676995E+03;3;  1.0313148E+02;  0.0000000E+00; -1.8017061E+01;0;  2.1267411E-01;  9.9943184E+03;  0.0000000E+00; -3.0618963E-01;  1.0000000E+04;  0.0000000E+00;  9.9868027E+03;  9.4444834E-02;  0.0000000E+00;  1.1822928E-01;  4.4664355E+03;
  1.1004715E+00;  9.9999998E-03; -2.6016060E-01;2735;  2.1028660E-01;  0.0000000E+00; -4.8818283E-02;  1.0039114E+03;  4.0185708E-01;  3.1439739E+03;3;  8.4844643E+01;  0.0000000E+00; -1.3549854E+01;0;  1.1172038E-01;  1.0000262E+04;  0.0000000E+00; -8.6941725E-01;  1.0000000E+04;  0.0000000E+00;  9.9852041E+03; -8.8059017E-03;  0.0000000E+00;  1.2052628E-01;  5.9065190E+03;
  1.1004267E+00;  9.9999998E-03; -2.4014935E-01;2736;  1.9784164E-01;  0.0000000E+00; -4.7749557E-02;  1.0040114E+03;  4.0185723E-01;  3.2244302E+03;3;  7.2158943E+01;  0.0000000E+00; -1.0533706E+01;0;  8.5484058E-02;  1.0003344E+04;  0.0000000E+00; -8.9357829E-01;  1.0000000E+04;  0.0000000E+00;  9.9841055E+03; -5.9105664E-02;  0.0000000E+00;  1.4458972E-01;  6.2856724E+03;
  1.1003853E+00;  9.9999998E-03; -2.2013514E-01;2737;  1.8649110E-01;  0.0000000E+00; -4.7246888E-02;  1.0040912E+03;  4.0185735E-01;  3.2886899E+03;3;  6.4628128E+01;  0.0000000E+00; -9.2902088E+00;0;  7.1259819E-02;  1.0004615E+04;  0.0000000E+00; -7.5617468E-01;  1.0000000E+04;  0.0000000E+00;  9.9844082E+03; -8.2350604E-02;  0.0000000E+00;  1.5361042E-01;  5.9456567E+03;
  1.1003484E+00;  9.9999998E-03; -2.0012008E-01;2738;  1.7441194E-01;  0.0000000E+00; -4.5212485E-02;  1.0041524E+03;  4.0185741E-01;  3.3379009E+03;3;  5.9550587E+01;  0.0000000E+00; -8.1039600E+00;0;  5.7651274E-02;  1.0005127E+04;  0.0000000E+00; -5.0934970E-01;  1.0000000E+04;  0.0000000E+00;  9.9851035E+03; -9.5619582E-02;  0.0000000E+00;  1.5327086E-01;  5.3592529E+03;
  1.1205157E+00;  9.9999998E-03; -2.8016078E-01;2763;  2.2308689E-01;  0.0000000E+00; -4.7096390E-02;  1.0031506E+03;  4.0162590E-01;  2.5073420E+03;3;  1.0874509E+02;  0.0000000E+00; -1.6958620E+01;0;  1.8490568E-01;  9.9939609E+03;  0.0000000E+00;  2.9761526E-01;  1.0000000E+04;  0.0000000E+00;  9.9878662E+03;  8.6209908E-02;  0.0000000E+00;  9.8695762E-02;  3.7131812E+03;
  1.1204733E+00;  9.9999998E-03; -2.6014769E-01;2764;  2.1019883E-01;  0.0000000E+00; -4.3456346E-02;  1.0033950E+03;  4.0162596E-01;  2.7018921E+03;3;  9.0075500E+01;  0.0000000E+00; -1.2741095E+01;0;  8.3644390E-02;  1.0000286E+04;  0.0000000E+00; -1.0071285E+00;  1.0000000E+04;  0.0000000E+00;  9.9863975E+03; -2.0009482E-02;  0.0000000E+00;  1.0365387E-01;  5.3224653E+03;
  1.1204290E+00;  9.9999998E-03; -2.4013574E-01;2765;  1.9724067E-01;  0.0000000E+00; -4.1112151E-02;  1.0035062E+03;  4.0162602E-01;  2.7904788E+03;3;  7.5520836E+01;  0.0000000E+00; -9.3183498E+00;0;  4.7158390E-02;  1.0003725E+04;  0.0000000E+00; -1.2822629E+00;  1.0000000E+04;  0.0000000E+00;  9.9851631E+03; -7.5987831E-02;  0.0000000E+00;  1.2314622E-01;  6.2437988E+03;
  1.1203855E+00;  9.9999998E-03; -2.2012255E-01;2766;  1.8561113E-01;  0.0000000E+00; -4.0768102E-02;  1.0035676E+03;  4.0162602E-01;  2.8394094E+03;3;  6.6850250E+01;  0.0000000E+00; -8.2168446E+00;0;  4.7631294E-02;  1.0004997E+04;  0.0000000E+00; -1.1574764E+00;  1.0000000E+04;  0.0000000E+00;  9.9851035E+03; -9.5546231E-02;  0.0000000E+00;  1.4317752E-01;  5.9735107E+03;
  1.1203452E+00;  9.9999998E-03; -2.0010768E-01;2767;  1.7301837E-01;  0.0000000E+00; -3.9216790E-02;  1.0036043E+03;  4.0162620E-01;  2.8686973E+03;3;  6.0806229E+01;  0.0000000E+00; -7.3466125E+00;0;  4.5002431E-02;  1.0005105E+04;  0.0000000E+00; -8.4529918E-01;  1.0000000E+04;  0.0000000E+00;  9.9857178E+03; -1.0169756E-01;  0.0000000E+00;  1.4669999E-01;  5.1998608E+03;
  1.1404727E+00;  9.9999998E-03; -2.6013938E-01;2792;  2.0965794E-01;  0.0000000E+00; -3.9909627E-02;  1.0028973E+03;  4.0144059E-01;  2.2762698E+03;3;  9.6651871E+01;  0.0000000E+00; -1.2411594E+01;0;  9.6780628E-02;  9.9988418E+03;  0.0000000E+00; -6.2776184E-01;  1.0000000E+04;  0.0000000E+00;  9.9871494E+03; -2.2782846E-03;  0.0000000E+00;  9.9058911E-02;  3.9055320E+03;
  1.1404315E+00;  9.9999998E-03; -2.4012637E-01;2793;  1.9679937E-01;  0.0000000E+00; -3.6327466E-02;  1.0030507E+03;  4.0144053E-01;  2.3967817E+03;3;  8.0433846E+01;  0.0000000E+00; -8.6094408E+00;0;  3.2731004E-02;  1.0002874E+04;  0.0000000E+00; -1.4754874E+00;  1.0000000E+04;  0.0000000E+00;  9.9861670E+03; -7.2249562E-02;  0.0000000E+00;  1.0498057E-01;  5.7560493E+03;
  1.1403888E+00;  9.9999998E-03; -2.2011383E-01;2794;  1.8519439E-01;  0.0000000E+00; -3.5349317E-02;  1.0031170E+03;  4.0144068E-01;  2.4489316E+03;3;  6.9780510E+01;  0.0000000E+00; -6.9798379E+00;0;  3.3407599E-02;  1.0004614E+04;  0.0000000E+00; -1.5601168E+00;  1.0000000E+04;  0.0000000E+00;  9.9857383E+03; -9.7442210E-02;  0.0000000E+00;  1.3084981E-01;  6.0180615E+03;
  1.1403452E+00;  9.9999998E-03; -2.0009835E-01;2795;  1.7221312E-01;  0.0000000E+00; -3.3858318E-02;  1.0031570E+03;  4.0144068E-01;  2.4804805E+03;3;  6.2774605E+01;  0.0000000E+00; -6.4406877E+00;0;  3.6042042E-02;  1.0004868E+04;  0.0000000E+00; -1.2528642E+00;  1.0000000E+04;  0.0000000E+00;  9.9862725E+03; -1.0413022E-01;  0.0000000E+00;  1.4017226E-01;  5.2513008E+03;
  1.1604674E+00;  9.9999998E-03; -2.6013336E-01;2819;  2.0710047E-01;  0.0000000E+00; -3.7217934E-02;  1.0024400E+03;  4.0129513E-01;  1.8853180E+03;3;  1.0355869E+02;  0.0000000E+00; -1.2365329E+01;0;  1.2988882E-01;  9.9963389E+03;  0.0000000E+00;  5.5829936E-01;  1.0000000E+04;  0.0000000E+00;  9.9877744E+03;  3.2434721E-02;  0.0000000E+00;  9.7454101E-02;  3.1433521E+03;
  1.1604342E+00;  9.9999998E-03; -2.4012242E-01;2820;  1.9718224E-01;  0.0000000E+00; -3.4194164E-02;  1.0025806E+03;  4.0129516E-01;  1.9939780E+03;3;  8.7438278E+01;  0.0000000E+00; -8.7024240E+00;0;  6.9565944E-02;  1.0000361E+04;  0.0000000E+00; -1.1968113E+00;  1.0000000E+04;  0.0000000E+00;  9.9865518E+03; -3.6483638E-02;  0.0000000E+00;  1.0604958E-01;  4.3888457E+03;
  1.1603943E+00;  9.9999998E-03; -2.2010913E-01;2821;  1.8530087E-01;  0.0000000E+00; -3.1616267E-02;  1.0026977E+03;  4.0129516E-01;  2.0846033E+03;3;  7.4315086E+01;  0.0000000E+00; -6.1316767E+00;0;  3.9592646E-02;  1.0003001E+04;  0.0000000E+00; -1.7966100E+00;  1.0000000E+04;  0.0000000E+00;  9.9862471E+03; -8.0695108E-02;  0.0000000E+00;  1.2028775E-01;  5.6109424E+03;
  1.1603506E+00;  9.9999998E-03; -2.0009395E-01;2822;  1.7245112E-01;  0.0000000E+00; -2.9934378E-02;  1.0027712E+03;  4.0129530E-01;  2.1414348E+03;3;  6.5627205E+01;  0.0000000E+00; -5.4332576E+00;0;  3.6803424E-02;  1.0004036E+04;  0.0000000E+00; -1.6722176E+00;  1.0000000E+04;  0.0000000E+00;  9.9866689E+03; -9.7878560E-02;  0.0000000E+00;  1.3468198E-01;  5.2942778E+03;
  1.1804322E+00;  9.9999998E-03; -2.4012019E-01;2846;  1.9588394E-01;  0.0000000E+00; -3.3169076E-02;  1.0021401E+03;  4.0118343E-01;  1.6192599E+03;3;  9.5271400E+01;  0.0000000E+00; -9.5987186E+00;0;  1.3404714E-01;  9.9968799E+03;  0.0000000E+00; -1.1156728E-02;  1.0000000E+04;  0.0000000E+00;  9.9868145E+03;  1.8635407E-02;  0.0000000E+00;  1.1541173E-01;  2.6002354E+03;
  1.1803993E+00;  9.9999998E-03; -2.2010829E-01;2847;  1.8572587E-01;  0.0000000E+00; -3.0107766E-02;  1.0022695E+03;  4.0118343E-01;  1.7171873E+03;3;  8.1111237E+01;  0.0000000E+00; -6.4181309E+00;0;  8.4659189E-02;  9.9998516E+03;  0.0000000E+00; -1.5102234E+00;  1.0000000E+04;  0.0000000E+00;  9.9864219E+03; -3.6352303E-02;  0.0000000E+00;  1.2101150E-01;  4.2297437E+03;
  1.1803595E+00;  9.9999998E-03; -2.0009422E-01;2848;  1.7370509E-01;  0.0000000E+00; -2.7954470E-02;  1.0023912E+03;  4.0118352E-01;  1.8093639E+03;3;  7.0358063E+01;  0.0000000E+00; -4.9945269E+00;0;  6.2615752E-02;  1.0001932E+04;  0.0000000E+00; -1.9284261E+00;  1.0000000E+04;  0.0000000E+00;  9.9867646E+03; -7.1457267E-02;  0.0000000E+00;  1.3407302E-01;  4.9157734E+03;
  1.2003996E+00;  9.9999998E-03; -2.2010832E-01;2871;  1.8459037E-01;  0.0000000E+00; -2.9696112E-02;  1.0018663E+03;  4.0109944E-01;  1.3755758E+03;3;  8.9120079E+01;  0.0000000E+00; -7.6150060E+00;0;  1.5516359E-01;  9.9958389E+03;  0.0000000E+00; -2.1464433E-01;  1.0000000E+04;  0.0000000E+00;  9.9865762E+03;  2.6104225E-02;  0.0000000E+00;  1.2905936E-01;  2.2361362E+03;
  1.2003683E+00;  9.9999998E-03; -2.0009689E-01;2872;  1.7514865E-01;  0.0000000E+00; -2.7647179E-02;  1.0019835E+03;  4.0109938E-01;  1.4620162E+03;3;  7.7556961E+01;  0.0000000E+00; -5.6206946E+00;0;  1.2762247E-01;  9.9981221E+03;  0.0000000E+00; -1.6090567E+00;  1.0000000E+04;  0.0000000E+00;  9.9866309E+03; -1.3907063E-02;  0.0000000E+00;  1.4152953E-01;  3.6084998E+03;
  1.2203875E+00;  9.9999998E-03; -2.2010347E-01;2894;  1.7813189E-01;  0.0000000E+00; -2.7195038E-02;  1.0016861E+03;  4.0103742E-01;  1.2039449E+03;3;  9.5827858E+01;  0.0000000E+00; -8.2472610E+00;0;  1.4926876E-01;  9.9939736E+03;  0.0000000E+00;  1.9338660E+00;  1.0000000E+04;  0.0000000E+00;  9.9879326E+03;  4.1254289E-02;  0.0000000E+00;  1.0801447E-01;  3.1911738E+03;
  1.2203701E+00;  9.9999998E-03; -2.0009878E-01;2895;  1.7374286E-01;  0.0000000E+00; -2.7474962E-02;  1.0016227E+03;  4.0103754E-01;  1.1586958E+03;3;  8.5516525E+01;  0.0000000E+00; -6.7960210E+00;0;  1.9755447E-01;  9.9940127E+03;  0.0000000E+00; -2.1768585E-01;  1.0000000E+04;  0.0000000E+00;  9.9866318E+03;  4.9409870E-02;  0.0000000E+00;  1.4814460E-01;  1.7995863E+03;
 -1.4061185E-06;  9.9999998E-03; -1.8000016E-01;1036; -1.2603960E-03;  0.0000000E+00; -1.3850430E-04;  1.0000306E+03;  4.0000001E-01;  2.5381994E+01;3; -1.0466745E+00;  0.0000000E+00; -1.1523655E-01;0; -2.4315901E-02;  1.0000635E+04;  0.0000000E+00; -2.5685569E-09;  1.0000000E+04;  0.0000000E+00;  9.9999746E+03; -2.5338568E-02;  0.0000000E+00;  1.0226666E-03;  1.3535978E+01;
 -1.4455096E-06;  9.9999998E-03; -1.6000012E-01;1037; -1.2941505E-03;  0.0000000E+00; -1.0612620E-04;  1.0000316E+03;  4.0000001E-01;  2.6172096E+01;3; -1.0739753E+00;  0.0000000E+00; -8.8244528E-02;0; -2.5078809E-02;  1.0000657E+04;  0.0000000E+00; -2.0641806E-09;  1.0000000E+04;  0.0000000E+00;  9.9999766E+03; -2.6064375E-02;  0.0000000E+00;  9.8556734E-04;  1.3251333E+01;
 -1.4689513E-06;  9.9999998E-03; -1.4000009E-01;1038; -1.3131252E-03;  0.0000000E+00; -7.9356214E-05;  1.0000322E+03;  4.0000001E-01;  2.6665909E+01;3; -1.0891867E+00;  0.0000000E+00; -6.5875560E-02;0; -2.5599806E-02;  1.0000666E+04;  0.0000000E+00; -8.2433321E-10;  1.0000000E+04;  0.0000000E+00;  9.9999785E+03; -2.6481189E-02;  0.0000000E+00;  8.8138354E-04;  1.2222005E+01;
 -1.4812491E-06;  9.9999998E-03; -1.2000007E-01;1039; -1.3218495E-03;  0.0000000E+00; -5.7189278E-05;  1.0000328E+03;  4.0000001E-01;  2.7159721E+01;3; -1.0957410E+00;  0.0000000E+00; -4.7362790E-02;0; -2.5928812E-02;  1.0000673E+04;  0.0000000E+00; -1.4865192E-10;  1.0000000E+04;  0.0000000E+00;  9.9999824E+03; -2.6678678E-02;  0.0000000E+00;  7.4986625E-04;  1.0886311E+01;
 -1.4861196E-06;  9.9999998E-03; -1.0000005E-01;1040; -1.3238852E-03;  0.0000000E+00; -3.9613999E-05;  1.0000329E+03;  4.0000001E-01;  2.7258484E+01;3; -1.0966609E+00;  0.0000000E+00; -3.2632537E-02;0; -2.6116883E-02;  1.0000675E+04;  0.0000000E+00; -1.5113200E-10;  1.0000000E+04;  0.0000000E+00;  9.9999844E+03; -2.6731495E-02;  0.0000000E+00;  6.1461137E-04;  9.5017300E+00;
 -1.4864854E-06;  9.9999998E-03; -8.0000035E-02;1041; -1.3220370E-03;  0.0000000E+00; -2.6396387E-05;  1.0000331E+03;  4.0000001E-01;  2.7456009E+01;3; -1.0943489E+00;  0.0000000E+00; -2.1601286E-02;0; -2.6210014E-02;  1.0000675E+04;  0.0000000E+00; -4.9215177E-11;  1.0000000E+04;  0.0000000E+00;  9.9999873E+03; -2.6700361E-02;  0.0000000E+00;  4.9034675E-04;  8.2271519E+00;
 -1.4847240E-06;  9.9999998E-03; -6.0000021E-02;1042; -1.3186005E-03;  0.0000000E+00; -1.6505988E-05;  1.0000333E+03;  4.0000001E-01;  2.7554771E+01;3; -1.0908067E+00;  0.0000000E+00; -1.3390319E-02;0; -2.6245473E-02;  1.0000676E+04;  0.0000000E+00; -7.6991039E-11;  1.0000000E+04;  0.0000000E+00;  9.9999902E+03; -2.6632039E-02;  0.0000000E+00;  3.8656555E-04;  7.1631403E+00;
 -1.4823855E-06;  9.9999998E-03; -4.0000014E-02;1043; -1.3150887E-03;  0.0000000E+00; -9.4762127E-06;  1.0000333E+03;  4.0000001E-01;  2.7554771E+01;3; -1.0873518E+00;  0.0000000E+00; -7.6187691E-03;0; -2.6251499E-02;  1.0000675E+04;  0.0000000E+00; -4.2707716E-11;  1.0000000E+04;  0.0000000E+00;  9.9999922E+03; -2.6560597E-02;  0.0000000E+00;  3.0909810E-04;  6.3698487E+00;
 -1.4805837E-06;  9.9999998E-03; -2.0000005E-02;1044; -1.3125917E-03;  0.0000000E+00; -4.2478596E-06;  1.0000333E+03;  4.0000001E-01;  2.7554771E+01;3; -1.0849407E+00;  0.0000000E+00; -3.3862418E-03;0; -2.6247581E-02;  1.0000675E+04;  0.0000000E+00; -1.9008053E-12;  1.0000000E+04;  0.0000000E+00;  9.9999941E+03; -2.6508978E-02;  0.0000000E+00;  2.6139567E-04;  5.8819141E+00;
  1.9997971E-02;  9.9999998E-03; -1.8000022E-01;1066; -1.8030540E-03;  0.0000000E+00; -1.8542353E-04;  1.0000369E+03;  4.0000001E-01;  3.0616413E+01;3; -1.3682613E+00;  0.0000000E+00; -1.4039221E-01;0; -2.9026894E-02;  1.0000775E+04;  0.0000000E+00;  7.4208351E-09;  1.0000000E+04;  0.0000000E+00;  9.9999668E+03; -3.0391539E-02;  0.0000000E+00;  1.3646452E-03;  1.8109411E+01;
  1.9997921E-02;  9.9999998E-03; -1.6000018E-01;1067; -1.8461960E-03;  0.0000000E+00; -1.4324543E-04;  1.0000381E+03;  4.0000001E-01;  3.1604040E+01;3; -1.4000006E+00;  0.0000000E+00; -1.0854651E-01;0; -2.9849682E-02;  1.0000798E+04;  0.0000000E+00;  2.9130462E-09;  1.0000000E+04;  0.0000000E+00;  9.9999668E+03; -3.1160846E-02;  0.0000000E+00;  1.3111641E-03;  1.7652172E+01;
  1.9997893E-02;  9.9999998E-03; -1.4000013E-01;1068; -1.8684415E-03;  0.0000000E+00; -1.0793428E-04;  1.0000389E+03;  4.0000001E-01;  3.2196617E+01;3; -1.4161770E+00;  0.0000000E+00; -8.1813432E-02;0; -3.0402109E-02;  1.0000809E+04;  0.0000000E+00;  1.2543242E-09;  1.0000000E+04;  0.0000000E+00;  9.9999717E+03; -3.1574257E-02;  0.0000000E+00;  1.1721468E-03;  1.6232126E+01;
  1.9997878E-02;  9.9999998E-03; -1.2000009E-01;1069; -1.8769675E-03;  0.0000000E+00; -7.8023739E-05;  1.0000395E+03;  4.0000001E-01;  3.2690430E+01;3; -1.4217920E+00;  0.0000000E+00; -5.9090462E-02;0; -3.0741161E-02;  1.0000812E+04;  0.0000000E+00;  5.0688731E-10;  1.0000000E+04;  0.0000000E+00;  9.9999746E+03; -3.1739600E-02;  0.0000000E+00;  9.9844008E-04;  1.4422027E+01;
  1.9997876E-02;  9.9999998E-03; -1.0000007E-01;1070; -1.8764980E-03;  0.0000000E+00; -5.4719516E-05;  1.0000397E+03;  4.0000001E-01;  3.2887955E+01;3; -1.4204583E+00;  0.0000000E+00; -4.1333873E-02;0; -3.0926559E-02;  1.0000813E+04;  0.0000000E+00;  1.2211303E-10;  1.0000000E+04;  0.0000000E+00;  9.9999785E+03; -3.1745788E-02;  0.0000000E+00;  8.1922917E-04;  1.2545847E+01;
  1.9997878E-02;  9.9999998E-03; -8.0000050E-02;1071; -1.8712733E-03;  0.0000000E+00; -3.6766134E-05;  1.0000399E+03;  4.0000001E-01;  3.3085480E+01;3; -1.4155025E+00;  0.0000000E+00; -2.7661318E-02;0; -3.1010572E-02;  1.0000813E+04;  0.0000000E+00; -9.7005459E-12;  1.0000000E+04;  0.0000000E+00;  9.9999834E+03; -3.1664632E-02;  0.0000000E+00;  6.5405987E-04;  1.0816765E+01;
  1.9997882E-02;  9.9999998E-03; -6.0000032E-02;1072; -1.8644021E-03;  0.0000000E+00; -2.3387262E-05;  1.0000399E+03;  4.0000001E-01;  3.3085480E+01;3; -1.4093995E+00;  0.0000000E+00; -1.7504759E-02;0; -3.1034950E-02;  1.0000812E+04;  0.0000000E+00; -1.6124430E-11;  1.0000000E+04;  0.0000000E+00;  9.9999863E+03; -3.1550772E-02;  0.0000000E+00;  5.1582203E-04;  9.3721304E+00;
  1.9997887E-02;  9.9999998E-03; -4.0000018E-02;1073; -1.8580516E-03;  0.0000000E+00; -1.3597060E-05;  1.0000400E+03;  4.0000001E-01;  3.3085480E+01;3; -1.4038754E+00;  0.0000000E+00; -1.0113364E-02;0; -3.1031050E-02;  1.0000810E+04;  0.0000000E+00; -4.1310719E-11;  1.0000000E+04;  0.0000000E+00;  9.9999893E+03; -3.1443566E-02;  0.0000000E+00;  4.1251615E-04;  8.2947474E+00;
  1.9997891E-02;  9.9999998E-03; -2.0000009E-02;1074; -1.8536920E-03;  0.0000000E+00; -6.1863993E-06;  1.0000399E+03;  4.0000001E-01;  3.3085480E+01;3; -1.4001164E+00;  0.0000000E+00; -4.5893276E-03;0; -3.1020388E-02;  1.0000809E+04;  0.0000000E+00;  5.3847898E-12;  1.0000000E+04;  0.0000000E+00;  9.9999902E+03; -3.1369254E-02;  0.0000000E+00;  3.4886511E-04;  7.6320314E+00;
  3.9997160E-02;  9.9999998E-03; -1.8000026E-01;1097; -2.5009196E-03;  0.0000000E+00; -2.1543978E-04;  1.0000433E+03;  4.0000001E-01;  3.5949596E+01;3; -1.7585135E+00;  0.0000000E+00; -1.4917088E-01;0; -3.3318672E-02;  1.0000913E+04;  0.0000000E+00;  1.2186491E-08;  1.0000000E+04;  0.0000000E+00;  9.9999580E+03; -3.4986712E-02;  0.0000000E+00;  1.6680401E-03;  2.2534616E+01;
  3.9997097E-02;  9.9999998E-03; -1.6000021E-01;1098; -2.5540860E-03;  0.0000000E+00; -1.6768136E-04;  1.0000444E+03;  4.0000001E-01;  3.6739697E+01;3; -1.7948563E+00;  0.0000000E+00; -1.1651975E-01;0; -3.4135170E-02;  1.0000932E+04;  0.0000000E+00;  6.6895423E-09;  1.0000000E+04;  0.0000000E+00;  9.9999600E+03; -3.5730518E-02;  0.0000000E+00;  1.5953472E-03;  2.1850468E+01;
  3.9997064E-02;  9.9999998E-03; -1.4000015E-01;1099; -2.5794771E-03;  0.0000000E+00; -1.2638247E-04;  1.0000453E+03;  4.0000001E-01;  3.7529797E+01;3; -1.8120584E+00;  0.0000000E+00; -8.7995932E-02;0; -3.4661144E-02;  1.0000942E+04;  0.0000000E+00;  3.2297847E-09;  1.0000000E+04;  0.0000000E+00;  9.9999639E+03; -3.6085796E-02;  0.0000000E+00;  1.4246498E-03;  2.0036171E+01;
  3.9997052E-02;  9.9999998E-03; -1.2000012E-01;1100; -2.5864795E-03;  0.0000000E+00; -9.1911934E-05;  1.0000457E+03;  4.0000001E-01;  3.7826084E+01;3; -1.8160253E+00;  0.0000000E+00; -6.4064026E-02;0; -3.4963105E-02;  1.0000945E+04;  0.0000000E+00;  1.1622547E-09;  1.0000000E+04;  0.0000000E+00;  9.9999678E+03; -3.6177561E-02;  0.0000000E+00;  1.2144576E-03;  1.7772423E+01;
  3.9997049E-02;  9.9999998E-03; -1.0000008E-01;1101; -2.5820711E-03;  0.0000000E+00; -6.4781234E-05;  1.0000461E+03;  4.0000001E-01;  3.8221134E+01;3; -1.8117888E+00;  0.0000000E+00; -4.5106649E-02;0; -3.5110041E-02;  1.0000945E+04;  0.0000000E+00;  3.6518366E-10;  1.0000000E+04;  0.0000000E+00;  9.9999727E+03; -3.6107246E-02;  0.0000000E+00;  9.9720620E-04;  1.5429648E+01;
  3.9997056E-02;  9.9999998E-03; -8.0000058E-02;1102; -2.5720370E-03;  0.0000000E+00; -4.3635569E-05;  1.0000461E+03;  4.0000001E-01;  3.8221134E+01;3; -1.8035605E+00;  0.0000000E+00; -3.0402621E-02;0; -3.5159040E-02;  1.0000943E+04;  0.0000000E+00;  5.1555357E-11;  1.0000000E+04;  0.0000000E+00;  9.9999785E+03; -3.5955459E-02;  0.0000000E+00;  7.9641695E-04;  1.3268972E+01;
  3.9997067E-02;  9.9999998E-03; -6.0000040E-02;1103; -2.5603836E-03;  0.0000000E+00; -2.7975964E-05;  1.0000461E+03;  4.0000001E-01;  3.8221134E+01;3; -1.7942615E+00;  0.0000000E+00; -1.9450851E-02;0; -3.5154462E-02;  1.0000939E+04;  0.0000000E+00; -3.0082128E-11;  1.0000000E+04;  0.0000000E+00;  9.9999834E+03; -3.5782479E-02;  0.0000000E+00;  6.2801834E-04;  1.1462314E+01;
  3.9997075E-02;  9.9999998E-03; -4.0000021E-02;1104; -2.5501552E-03;  0.0000000E+00; -1.6279464E-05;  1.0000461E+03;  4.0000001E-01;  3.8221134E+01;3; -1.7861814E+00;  0.0000000E+00; -1.1278915E-02;0; -3.5129078E-02;  1.0000936E+04;  0.0000000E+00; -5.7452788E-12;  1.0000000E+04;  0.0000000E+00;  9.9999863E+03; -3.5631087E-02;  0.0000000E+00;  5.0200924E-04;  1.0114299E+01;
  3.9997078E-02;  9.9999998E-03; -2.0000011E-02;1105; -2.5432738E-03;  0.0000000E+00; -7.4647910E-06;  1.0000461E+03;  4.0000001E-01;  3.8221134E+01;3; -1.7807658E+00;  0.0000000E+00; -5.1633408E-03;0; -3.5105262E-02;  1.0000935E+04;  0.0000000E+00;  2.4911906E-11;  1.0000000E+04;  0.0000000E+00;  9.9999883E+03; -3.5529580E-02;  0.0000000E+00;  4.2431755E-04;  9.2849426E+00;
  5.9996203E-02;  9.9999998E-03; -1.8000029E-01;1128; -3.3093253E-03;  0.0000000E+00; -2.3110901E-04;  1.0000504E+03;  4.0000001E-01;  4.1677826E+01;3; -2.1967981E+00;  0.0000000E+00; -1.4775404E-01;0; -3.7763771E-02;  1.0001059E+04;  0.0000000E+00;  1.1847662E-08;  1.0000000E+04;  0.0000000E+00;  9.9999502E+03; -3.9673917E-02;  0.0000000E+00;  1.9101477E-03;  2.6685041E+01;
  5.9996124E-02;  9.9999998E-03; -1.6000022E-01;1129; -3.3709214E-03;  0.0000000E+00; -1.8019110E-04;  1.0000514E+03;  4.0000001E-01;  4.2566692E+01;3; -2.2370455E+00;  0.0000000E+00; -1.1602464E-01;0; -3.8522337E-02;  1.0001080E+04;  0.0000000E+00;  7.6538971E-09;  1.0000000E+04;  0.0000000E+00;  9.9999512E+03; -4.0337682E-02;  0.0000000E+00;  1.8153442E-03;  2.5713396E+01;
  5.9996087E-02;  9.9999998E-03; -1.4000018E-01;1130; -3.3976419E-03;  0.0000000E+00; -1.3528155E-04;  1.0000521E+03;  4.0000001E-01;  4.3159267E+01;3; -2.2544885E+00;  0.0000000E+00; -8.7474704E-02;0; -3.8970605E-02;  1.0001085E+04;  0.0000000E+00;  3.4094010E-09;  1.0000000E+04;  0.0000000E+00;  9.9999570E+03; -4.0589157E-02;  0.0000000E+00;  1.6185532E-03;  2.3518518E+01;
  5.9996076E-02;  9.9999998E-03; -1.2000013E-01;1131; -3.4011572E-03;  0.0000000E+00; -9.8394201E-05;  1.0000524E+03;  4.0000001E-01;  4.3356792E+01;3; -2.2560124E+00;  0.0000000E+00; -6.3833684E-02;0; -3.9190698E-02;  1.0001085E+04;  0.0000000E+00;  1.2400988E-09;  1.0000000E+04;  0.0000000E+00;  9.9999639E+03; -4.0571470E-02;  0.0000000E+00;  1.3807731E-03;  2.0845417E+01;
  5.9996083E-02;  9.9999998E-03; -1.0000009E-01;1132; -3.3909779E-03;  0.0000000E+00; -6.8930305E-05;  1.0000527E+03;  4.0000001E-01;  4.3653080E+01;3; -2.2481320E+00;  0.0000000E+00; -4.4755984E-02;0; -3.9263185E-02;  1.0001081E+04;  0.0000000E+00;  2.2861060E-10;  1.0000000E+04;  0.0000000E+00;  9.9999697E+03; -4.0398050E-02;  0.0000000E+00;  1.1348656E-03;  1.8086775E+01;
  5.9996095E-02;  9.9999998E-03; -8.0000065E-02;1133; -3.3743796E-03;  0.0000000E+00; -4.6404981E-05;  1.0000527E+03;  4.0000001E-01;  4.3653080E+01;3; -2.2358449E+00;  0.0000000E+00; -3.0211460E-02;0; -3.9249565E-02;  1.0001076E+04;  0.0000000E+00; -4.4593423E-11;  1.0000000E+04;  0.0000000E+00;  9.9999756E+03; -4.0156543E-02;  0.0000000E+00;  9.0697902E-04;  1.5541156E+01;
  5.9996109E-02;  9.9999998E-03; -6.0000043E-02;1134; -3.3566095E-03;  0.0000000E+00; -2.9581270E-05;  1.0000526E+03;  4.0000001E-01;  4.3554317E+01;3; -2.2228103E+00;  0.0000000E+00; -1.9262474E-02;0; -3.9195862E-02;  1.0001072E+04;  0.0000000E+00; -5.8474448E-11;  1.0000000E+04;  0.0000000E+00;  9.9999795E+03; -3.9911263E-02;  0.0000000E+00;  7.1539934E-04;  1.3410331E+01;
  5.9996124E-02;  9.9999998E-03; -4.0000025E-02;1135; -3.3414729E-03;  0.0000000E+00; -1.7195947E-05;  1.0000525E+03;  4.0000001E-01;  4.3455555E+01;3; -2.2117198E+00;  0.0000000E+00; -1.1188620E-02;0; -3.9135393E-02;  1.0001069E+04;  0.0000000E+00; -4.3815403E-11;  1.0000000E+04;  0.0000000E+00;  9.9999834E+03; -3.9707188E-02;  0.0000000E+00;  5.7179341E-04;  1.1818901E+01;
  5.9996132E-02;  9.9999998E-03; -2.0000013E-02;1136; -3.3314535E-03;  0.0000000E+00; -7.8568346E-06;  1.0000525E+03;  4.0000001E-01;  4.3455555E+01;3; -2.2043889E+00;  0.0000000E+00; -5.1092585E-03;0; -3.9090604E-02;  1.0001064E+04;  0.0000000E+00;  2.2392425E-11;  1.0000000E+04;  0.0000000E+00;  9.9999854E+03; -3.9573766E-02;  0.0000000E+00;  4.8316451E-04;  1.0839211E+01;
  7.9995096E-02;  9.9999998E-03; -1.8000031E-01;1159; -4.2146547E-03;  0.0000000E+00; -2.3587399E-04;  1.0000586E+03;  4.0000001E-01;  4.8591209E+01;3; -2.6878519E+00;  0.0000000E+00; -1.4034092E-01;0; -4.2889569E-02;  1.0001230E+04;  0.0000000E+00;  1.6614121E-10;  1.0000000E+04;  0.0000000E+00;  9.9999404E+03; -4.4981595E-02;  0.0000000E+00;  2.0920245E-03;  3.0683310E+01;
  7.9995006E-02;  9.9999998E-03; -1.6000023E-01;1160; -4.2813821E-03;  0.0000000E+00; -1.8310353E-04;  1.0000595E+03;  4.0000001E-01;  4.9282551E+01;3; -2.7306275E+00;  0.0000000E+00; -1.0988132E-01;0; -4.3548554E-02;  1.0001245E+04;  0.0000000E+00;  6.0230736E-09;  1.0000000E+04;  0.0000000E+00;  9.9999453E+03; -4.5522407E-02;  0.0000000E+00;  1.9738534E-03;  2.9373247E+01;
  7.9994969E-02;  9.9999998E-03; -1.4000018E-01;1161; -4.3061893E-03;  0.0000000E+00; -1.3648110E-04;  1.0000601E+03;  4.0000001E-01;  4.9776363E+01;3; -2.7467752E+00;  0.0000000E+00; -8.2588106E-02;0; -4.3874584E-02;  1.0001253E+04;  0.0000000E+00;  3.4988956E-09;  1.0000000E+04;  0.0000000E+00;  9.9999512E+03; -4.5632396E-02;  0.0000000E+00;  1.7578119E-03;  2.6815191E+01;
  7.9994969E-02;  9.9999998E-03; -1.2000014E-01;1162; -4.3033836E-03;  0.0000000E+00; -9.8890661E-05;  1.0000602E+03;  4.0000001E-01;  4.9875126E+01;3; -2.7446613E+00;  0.0000000E+00; -6.0178243E-02;0; -4.3972634E-02;  1.0001251E+04;  0.0000000E+00;  1.0149275E-09;  1.0000000E+04;  0.0000000E+00;  9.9999580E+03; -4.5474783E-02;  0.0000000E+00;  1.5021496E-03;  2.3774603E+01;
  7.9994977E-02;  9.9999998E-03; -1.0000010E-01;1163; -4.2850031E-03;  0.0000000E+00; -6.8544599E-05;  1.0000603E+03;  4.0000001E-01;  4.9973888E+01;3; -2.7320545E+00;  0.0000000E+00; -4.1855868E-02;0; -4.3936651E-02;  1.0001245E+04;  0.0000000E+00;  4.2790368E-11;  1.0000000E+04;  0.0000000E+00;  9.9999648E+03; -4.5174479E-02;  0.0000000E+00;  1.2378265E-03;  2.0648008E+01;
  7.9994999E-02;  9.9999998E-03; -8.0000065E-02;1164; -4.2598164E-03;  0.0000000E+00; -4.5785149E-05;  1.0000601E+03;  4.0000001E-01;  4.9776363E+01;3; -2.7148314E+00;  0.0000000E+00; -2.8074989E-02;0; -4.3833219E-02;  1.0001235E+04;  0.0000000E+00; -1.4871672E-10;  1.0000000E+04;  0.0000000E+00;  9.9999707E+03; -4.4825237E-02;  0.0000000E+00;  9.9201791E-04;  1.7759443E+01;
  7.9995021E-02;  9.9999998E-03; -6.0000043E-02;1165; -4.2343736E-03;  0.0000000E+00; -2.8828455E-05;  1.0000601E+03;  4.0000001E-01;  4.9776363E+01;3; -2.6973531E+00;  0.0000000E+00; -1.7725835E-02;0; -4.3709975E-02;  1.0001229E+04;  0.0000000E+00; -1.8625729E-10;  1.0000000E+04;  0.0000000E+00;  9.9999766E+03; -4.4494621E-02;  0.0000000E+00;  7.8464567E-04;  1.5336504E+01;
  7.9995044E-02;  9.9999998E-03; -4.0000025E-02;1166; -4.2132232E-03;  0.0000000E+00; -1.6614968E-05;  1.0000601E+03;  4.0000001E-01;  4.9776363E+01;3; -2.6827748E+00;  0.0000000E+00; -1.0213174E-02;0; -4.3600298E-02;  1.0001223E+04;  0.0000000E+00; -1.1436068E-10;  1.0000000E+04;  0.0000000E+00;  9.9999814E+03; -4.4229072E-02;  0.0000000E+00;  6.2877405E-04;  1.3523426E+01;
  7.9995058E-02;  9.9999998E-03; -2.0000013E-02;1167; -4.1993968E-03;  0.0000000E+00; -7.5325588E-06;  1.0000599E+03;  4.0000001E-01;  4.9677601E+01;3; -2.6732254E+00;  0.0000000E+00; -4.6423851E-03;0; -4.3526184E-02;  1.0001219E+04;  0.0000000E+00;  3.2399996E-11;  1.0000000E+04;  0.0000000E+00;  9.9999834E+03; -4.4058595E-02;  0.0000000E+00;  5.3240964E-04;  1.2405826E+01;
  9.9993810E-02;  9.9999998E-03; -1.8000032E-01;1190; -5.2274629E-03;  0.0000000E+00; -2.3397595E-04;  1.0000687E+03;  4.0000001E-01;  5.6986034E+01;3; -3.2413385E+00;  0.0000000E+00; -1.2974498E-01;0; -4.9077883E-02;  1.0001443E+04;  0.0000000E+00; -1.9408716E-08;  1.0000000E+04;  0.0000000E+00;  9.9999355E+03; -5.1312219E-02;  0.0000000E+00;  2.2343346E-03;  3.4869419E+01;
  9.9993728E-02;  9.9999998E-03; -1.6000025E-01;1191; -5.2949269E-03;  0.0000000E+00; -1.8029391E-04;  1.0000696E+03;  4.0000001E-01;  5.7677372E+01;3; -3.2846105E+00;  0.0000000E+00; -1.0104896E-01;0; -4.9595099E-02;  1.0001453E+04;  0.0000000E+00;  1.4094639E-09;  1.0000000E+04;  0.0000000E+00;  9.9999404E+03; -5.1690970E-02;  0.0000000E+00;  2.0958716E-03;  3.3199997E+01;
  9.9993698E-02;  9.9999998E-03; -1.4000019E-01;1192; -5.3134048E-03;  0.0000000E+00; -1.3385006E-04;  1.0000700E+03;  4.0000001E-01;  5.7973660E+01;3; -3.2974133E+00;  0.0000000E+00; -7.6014318E-02;0; -4.9757667E-02;  1.0001455E+04;  0.0000000E+00;  2.7561433E-09;  1.0000000E+04;  0.0000000E+00;  9.9999453E+03; -5.1625952E-02;  0.0000000E+00;  1.8682858E-03;  3.0289814E+01;
  9.9993698E-02;  9.9999998E-03; -1.2000014E-01;1193; -5.3007370E-03;  0.0000000E+00; -9.6035466E-05;  1.0000700E+03;  4.0000001E-01;  5.7973660E+01;3; -3.2900553E+00;  0.0000000E+00; -5.5002511E-02;0; -4.9696829E-02;  1.0001450E+04;  0.0000000E+00;  7.6399564E-10;  1.0000000E+04;  0.0000000E+00;  9.9999521E+03; -5.1301003E-02;  0.0000000E+00;  1.6041746E-03;  2.6904596E+01;
  9.9993728E-02;  9.9999998E-03; -1.0000010E-01;1194; -5.2710497E-03;  0.0000000E+00; -6.6127621E-05;  1.0000699E+03;  4.0000001E-01;  5.7973660E+01;3; -3.2713325E+00;  0.0000000E+00; -3.8264580E-02;0; -4.9520779E-02;  1.0001437E+04;  0.0000000E+00; -2.5378502E-10;  1.0000000E+04;  0.0000000E+00;  9.9999609E+03; -5.0851390E-02;  0.0000000E+00;  1.3306111E-03;  2.3430189E+01;
  9.9993758E-02;  9.9999998E-03; -8.0000073E-02;1195; -5.2348967E-03;  0.0000000E+00; -4.3569893E-05;  1.0000698E+03;  4.0000001E-01;  5.7776134E+01;3; -3.2481022E+00;  0.0000000E+00; -2.5365153E-02;0; -4.9302042E-02;  1.0001426E+04;  0.0000000E+00; -3.9972203E-10;  1.0000000E+04;  0.0000000E+00;  9.9999678E+03; -5.0376650E-02;  0.0000000E+00;  1.0746075E-03;  2.0209673E+01;
  9.9993788E-02;  9.9999998E-03; -6.0000047E-02;1196; -5.1999241E-03;  0.0000000E+00; -2.7178341E-05;  1.0000695E+03;  4.0000001E-01;  5.7578609E+01;3; -3.2253458E+00;  0.0000000E+00; -1.5960122E-02;0; -4.9089823E-02;  1.0001414E+04;  0.0000000E+00; -1.8999935E-10;  1.0000000E+04;  0.0000000E+00;  9.9999727E+03; -4.9947128E-02;  0.0000000E+00;  8.5730478E-04;  1.7497055E+01;
  9.9993818E-02;  9.9999998E-03; -4.0000029E-02;1197; -5.1714797E-03;  0.0000000E+00; -1.5475614E-05;  1.0000693E+03;  4.0000001E-01;  5.7479847E+01;3; -3.2067013E+00;  0.0000000E+00; -9.1276485E-03;0; -4.8917335E-02;  1.0001407E+04;  0.0000000E+00; -1.1030549E-10;  1.0000000E+04;  0.0000000E+00;  9.9999775E+03; -4.9610544E-02;  0.0000000E+00;  6.9320772E-04;  1.5460151E+01;
  9.9993832E-02;  9.9999998E-03; -2.0000013E-02;1198; -5.1530777E-03;  0.0000000E+00; -6.9565194E-06;  1.0000692E+03;  4.0000001E-01;  5.7381084E+01;3; -3.1945825E+00;  0.0000000E+00; -4.1252784E-03;0; -4.8805952E-02;  1.0001403E+04;  0.0000000E+00; -9.2266368E-12;  1.0000000E+04;  0.0000000E+00;  9.9999814E+03; -4.9397402E-02;  0.0000000E+00;  5.9144880E-04;  1.4201553E+01;
  1.1999232E-01;  9.9999998E-03; -1.8000035E-01;1221; -6.3753859E-03;  0.0000000E+00; -2.3178957E-04;  1.0000813E+03;  4.0000001E-01;  6.7356110E+01;3; -3.8652925E+00;  0.0000000E+00; -1.1941502E-01;0; -5.6526087E-02;  1.0001698E+04;  0.0000000E+00; -4.8289898E-08;  1.0000000E+04;  0.0000000E+00;  9.9999268E+03; -5.8903012E-02;  0.0000000E+00;  2.3769247E-03;  3.9831097E+01;
  1.1999223E-01;  9.9999998E-03; -1.6000026E-01;1222; -6.4381519E-03;  0.0000000E+00; -1.7857157E-04;  1.0000819E+03;  4.0000001E-01;  6.7849922E+01;3; -3.9063709E+00;  0.0000000E+00; -9.3674868E-02;0; -5.6851953E-02;  1.0001707E+04;  0.0000000E+00; -5.9549543E-09;  1.0000000E+04;  0.0000000E+00;  9.9999297E+03; -5.9076563E-02;  0.0000000E+00;  2.2246111E-03;  3.7780098E+01;
  1.1999221E-01;  9.9999998E-03; -1.4000021E-01;1223; -6.4453064E-03;  0.0000000E+00; -1.3298812E-04;  1.0000821E+03;  4.0000001E-01;  6.8047447E+01;3; -3.9136226E+00;  0.0000000E+00; -7.1312979E-02;0; -5.6809448E-02;  1.0001703E+04;  0.0000000E+00;  2.6232465E-09;  1.0000000E+04;  0.0000000E+00;  9.9999385E+03; -5.8803093E-02;  0.0000000E+00;  1.9936441E-03;  3.4503666E+01;
  1.1999223E-01;  9.9999998E-03; -1.2000015E-01;1224; -6.4184661E-03;  0.0000000E+00; -9.5149480E-05;  1.0000819E+03;  4.0000001E-01;  6.7849922E+01;3; -3.8990879E+00;  0.0000000E+00; -5.1873427E-02;0; -5.6554034E-02;  1.0001691E+04;  0.0000000E+00;  5.5968086E-10;  1.0000000E+04;  0.0000000E+00;  9.9999482E+03; -5.8283590E-02;  0.0000000E+00;  1.7295539E-03;  3.0758989E+01;
  1.1999228E-01;  9.9999998E-03; -1.0000011E-01;1225; -6.3738972E-03;  0.0000000E+00; -6.5539294E-05;  1.0000814E+03;  4.0000001E-01;  6.7454872E+01;3; -3.8726869E+00;  0.0000000E+00; -3.6419544E-02;0; -5.6208726E-02;  1.0001674E+04;  0.0000000E+00; -5.6568578E-10;  1.0000000E+04;  0.0000000E+00;  9.9999541E+03; -5.7662286E-02;  0.0000000E+00;  1.4535581E-03;  2.6905870E+01;
  1.1999232E-01;  9.9999998E-03; -8.0000073E-02;1226; -6.3239262E-03;  0.0000000E+00; -4.3035474E-05;  1.0000811E+03;  4.0000001E-01;  6.7158585E+01;3; -3.8421848E+00;  0.0000000E+00; -2.4438938E-02;0; -5.5851754E-02;  1.0001659E+04;  0.0000000E+00; -6.5785777E-10;  1.0000000E+04;  0.0000000E+00;  9.9999619E+03; -5.7043817E-02;  0.0000000E+00;  1.1920623E-03;  2.3308918E+01;
  1.1999237E-01;  9.9999998E-03; -6.0000047E-02;1227; -6.2772622E-03;  0.0000000E+00; -2.6808531E-05;  1.0000806E+03;  4.0000001E-01;  6.6763535E+01;3; -3.8132329E+00;  0.0000000E+00; -1.5534463E-02;0; -5.5533420E-02;  1.0001645E+04;  0.0000000E+00; -3.5314721E-10;  1.0000000E+04;  0.0000000E+00;  9.9999717E+03; -5.6501120E-02;  0.0000000E+00;  9.6769893E-04;  2.0257816E+01;
  1.1999241E-01;  9.9999998E-03; -4.0000029E-02;1228; -6.2399944E-03;  0.0000000E+00; -1.5272864E-05;  1.0000804E+03;  4.0000001E-01;  6.6566010E+01;3; -3.7898512E+00;  0.0000000E+00; -9.0484079E-03;0; -5.5286314E-02;  1.0001635E+04;  0.0000000E+00; -1.3424253E-10;  1.0000000E+04;  0.0000000E+00;  9.9999746E+03; -5.6083262E-02;  0.0000000E+00;  7.9694763E-04;  1.7954184E+01;
  1.1999243E-01;  9.9999998E-03; -2.0000013E-02;1229; -6.2161116E-03;  0.0000000E+00; -6.8473855E-06;  1.0000802E+03;  4.0000001E-01;  6.6467247E+01;3; -3.7747641E+00;  0.0000000E+00; -4.1249353E-03;0; -5.5130646E-02;  1.0001629E+04;  0.0000000E+00;  6.8946511E-12;  1.0000000E+04;  0.0000000E+00;  9.9999775E+03; -5.5821177E-02;  0.0000000E+00;  6.9053005E-04;  1.6525553E+01;
  1.3999055E-01;  9.9999998E-03; -1.8000038E-01;1252; -7.6928250E-03;  0.0000000E+00; -2.3837628E-04;  1.0000964E+03;  4.0000001E-01;  7.9800201E+01;3; -4.5654683E+00;  0.0000000E+00; -1.1497537E-01;0; -6.5269627E-02;  1.0002013E+04;  0.0000000E+00; -4.5553525E-06;  1.0000000E+04;  0.0000000E+00;  9.9999150E+03; -6.7859694E-02;  0.0000000E+00;  2.5900656E-03;  4.6588367E+01;
  1.3999048E-01;  9.9999998E-03; -1.6000029E-01;1253; -7.7447179E-03;  0.0000000E+00; -1.8615615E-04;  1.0000966E+03;  4.0000001E-01;  7.9997726E+01;3; -4.6015501E+00;  0.0000000E+00; -9.2952020E-02;0; -6.5350950E-02;  1.0002013E+04;  0.0000000E+00; -7.2396804E-09;  1.0000000E+04;  0.0000000E+00;  9.9999189E+03; -6.7774095E-02;  0.0000000E+00;  2.4231470E-03;  4.3974003E+01;
  1.3999048E-01;  9.9999998E-03; -1.4000022E-01;1254; -7.7349460E-03;  0.0000000E+00; -1.4105593E-04;  1.0000963E+03;  4.0000001E-01;  7.9800201E+01;3; -4.6009307E+00;  0.0000000E+00; -7.2967567E-02;0; -6.5060452E-02;  1.0001998E+04;  0.0000000E+00;  2.4504367E-09;  1.0000000E+04;  0.0000000E+00;  9.9999287E+03; -6.7254268E-02;  0.0000000E+00;  2.1938193E-03;  4.0224178E+01;
  1.3999052E-01;  9.9999998E-03; -1.2000017E-01;1255; -7.6889880E-03;  0.0000000E+00; -1.0252119E-04;  1.0000959E+03;  4.0000001E-01;  7.9405151E+01;3; -4.5770898E+00;  0.0000000E+00; -5.5187821E-02;0; -6.4576536E-02;  1.0001979E+04;  0.0000000E+00;  4.5737988E-10;  1.0000000E+04;  0.0000000E+00;  9.9999375E+03; -6.6511370E-02;  0.0000000E+00;  1.9348364E-03;  3.6021866E+01;
  1.3999058E-01;  9.9999998E-03; -1.0000012E-01;1256; -7.6254741E-03;  0.0000000E+00; -7.1884337E-05;  1.0000953E+03;  4.0000001E-01;  7.8911339E+01;3; -4.5413556E+00;  0.0000000E+00; -4.0307615E-02;0; -6.4036138E-02;  1.0001959E+04;  0.0000000E+00; -9.1055979E-10;  1.0000000E+04;  0.0000000E+00;  9.9999463E+03; -6.5695263E-02;  0.0000000E+00;  1.6591230E-03;  3.1674910E+01;
  1.3999066E-01;  9.9999998E-03; -8.0000080E-02;1257; -7.5583505E-03;  0.0000000E+00; -4.8212449E-05;  1.0000947E+03;  4.0000001E-01;  7.8516289E+01;3; -4.5022721E+00;  0.0000000E+00; -2.8292082E-02;0; -6.3522071E-02;  1.0001938E+04;  0.0000000E+00; -8.7693131E-10;  1.0000000E+04;  0.0000000E+00;  9.9999541E+03; -6.4914435E-02;  0.0000000E+00;  1.3923671E-03;  2.7574755E+01;
  1.3999072E-01;  9.9999998E-03; -6.0000055E-02;1258; -7.4974494E-03;  0.0000000E+00; -3.0692776E-05;  1.0000942E+03;  4.0000001E-01;  7.8121239E+01;3; -4.4661007E+00;  0.0000000E+00; -1.8818101E-02;0; -6.3084327E-02;  1.0001921E+04;  0.0000000E+00; -3.4710165E-10;  1.0000000E+04;  0.0000000E+00;  9.9999639E+03; -6.4243957E-02;  0.0000000E+00;  1.1596303E-03;  2.4063841E+01;
  1.3999076E-01;  9.9999998E-03; -4.0000033E-02;1259; -7.4495571E-03;  0.0000000E+00; -1.7870991E-05;  1.0000939E+03;  4.0000001E-01;  7.7726189E+01;3; -4.4372807E+00;  0.0000000E+00; -1.1422301E-02;0; -6.2753603E-02;  1.0001906E+04;  0.0000000E+00;  7.8355912E-11;  1.0000000E+04;  0.0000000E+00;  9.9999697E+03; -6.3734017E-02;  0.0000000E+00;  9.8041759E-04;  2.1394188E+01;
  1.3999079E-01;  9.9999998E-03; -2.0000016E-02;1260; -7.4191303E-03;  0.0000000E+00; -8.1499420E-06;  1.0000937E+03;  4.0000001E-01;  7.7627426E+01;3; -4.4188242E+00;  0.0000000E+00; -5.3725652E-03;0; -6.2548593E-02;  1.0001899E+04;  0.0000000E+00;  8.5391465E-11;  1.0000000E+04;  0.0000000E+00;  9.9999727E+03; -6.3416503E-02;  0.0000000E+00;  8.6790824E-04;  1.9731024E+01;
  1.5998846E-01;  9.9999998E-03; -1.8000044E-01;1283; -9.2115263E-03;  0.0000000E+00; -2.6687825E-04;  1.0001138E+03;  4.0000001E-01;  9.4219543E+01;3; -5.3468385E+00;  0.0000000E+00; -1.2449081E-01;0; -7.5270861E-02;  1.0002381E+04;  0.0000000E+00; -3.9369428E-05;  1.0000000E+04;  0.0000000E+00;  9.9998965E+03; -7.8262217E-02;  0.0000000E+00;  2.9913548E-03;  5.6860970E+01;
  1.5998840E-01;  9.9999998E-03; -1.6000035E-01;1284; -9.2456657E-03;  0.0000000E+00; -2.1427080E-04;  1.0001140E+03;  4.0000001E-01;  9.4417068E+01;3; -5.3749747E+00;  0.0000000E+00; -1.0637708E-01;0; -7.5052947E-02;  1.0002373E+04;  0.0000000E+00; -1.2144008E-08;  1.0000000E+04;  0.0000000E+00;  9.9999033E+03; -7.7837840E-02;  0.0000000E+00;  2.7848913E-03;  5.3081512E+01;
  1.5998843E-01;  9.9999998E-03; -1.4000027E-01;1285; -9.2129456E-03;  0.0000000E+00; -1.6741869E-04;  1.0001134E+03;  4.0000001E-01;  9.3923256E+01;3; -5.3641686E+00;  0.0000000E+00; -8.8086970E-02;0; -7.4479811E-02;  1.0002353E+04;  0.0000000E+00;  3.6782510E-09;  1.0000000E+04;  0.0000000E+00;  9.9999141E+03; -7.7027589E-02;  0.0000000E+00;  2.5477801E-03;  4.8489079E+01;
  1.5998851E-01;  9.9999998E-03; -1.2000021E-01;1286; -9.1425059E-03;  0.0000000E+00; -1.2594122E-04;  1.0001126E+03;  4.0000001E-01;  9.3330681E+01;3; -5.3291674E+00;  0.0000000E+00; -7.0514135E-02;0; -7.3740698E-02;  1.0002325E+04;  0.0000000E+00;  7.5475137E-10;  1.0000000E+04;  0.0000000E+00;  9.9999248E+03; -7.6029964E-02;  0.0000000E+00;  2.2892684E-03;  4.3549084E+01;
  1.5998860E-01;  9.9999998E-03; -1.0000015E-01;1287; -9.0555036E-03;  0.0000000E+00; -9.1440073E-05;  1.0001117E+03;  4.0000001E-01;  9.2540581E+01;3; -5.2825060E+00;  0.0000000E+00; -5.4358285E-02;0; -7.2986595E-02;  1.0002297E+04;  0.0000000E+00; -1.5351126E-09;  1.0000000E+04;  0.0000000E+00;  9.9999375E+03; -7.4995488E-02;  0.0000000E+00;  2.0088942E-03;  3.8449989E+01;
  1.5998869E-01;  9.9999998E-03; -8.0000103E-02;1288; -8.9675160E-03;  0.0000000E+00; -6.3764055E-05;  1.0001110E+03;  4.0000001E-01;  9.1948006E+01;3; -5.2335415E+00;  0.0000000E+00; -4.0421091E-02;0; -7.2302893E-02;  1.0002271E+04;  0.0000000E+00; -1.3975846E-09;  1.0000000E+04;  0.0000000E+00;  9.9999453E+03; -7.4033439E-02;  0.0000000E+00;  1.7305436E-03;  3.3600456E+01;
  1.5998878E-01;  9.9999998E-03; -6.0000069E-02;1289; -8.8894796E-03;  0.0000000E+00; -4.2221229E-05;  1.0001100E+03;  4.0000001E-01;  9.1157906E+01;3; -5.1891518E+00;  0.0000000E+00; -2.8392594E-02;0; -7.1737774E-02;  1.0002249E+04;  0.0000000E+00; -6.3628186E-10;  1.0000000E+04;  0.0000000E+00;  9.9999531E+03; -7.3220402E-02;  0.0000000E+00;  1.4826308E-03;  2.9411461E+01;
  1.5998884E-01;  9.9999998E-03; -4.0000040E-02;1290; -8.8289008E-03;  0.0000000E+00; -2.5467809E-05;  1.0001096E+03;  4.0000001E-01;  9.0861610E+01;3; -5.1541796E+00;  0.0000000E+00; -1.8020106E-02;0; -7.1318865E-02;  1.0002230E+04;  0.0000000E+00; -6.0660595E-11;  1.0000000E+04;  0.0000000E+00;  9.9999619E+03; -7.2607838E-02;  0.0000000E+00;  1.2889697E-03;  2.6204525E+01;
  1.5998888E-01;  9.9999998E-03; -2.0000020E-02;1291; -8.7906923E-03;  0.0000000E+00; -1.1931177E-05;  1.0001094E+03;  4.0000001E-01;  9.0664085E+01;3; -5.1319265E+00;  0.0000000E+00; -8.7404568E-03;0; -7.1061902E-02;  1.0002220E+04;  0.0000000E+00;  1.2988039E-11;  1.0000000E+04;  0.0000000E+00;  9.9999658E+03; -7.2228216E-02;  0.0000000E+00;  1.1663166E-03;  2.4197973E+01;
  1.7998599E-01;  9.9999998E-03; -1.8000054E-01;1314; -1.0958002E-02;  0.0000000E+00; -3.3523430E-04;  1.0001343E+03;  4.0000001E-01;  1.1130548E+02;3; -6.2133341E+00;  0.0000000E+00; -1.6028045E-01;0; -8.6493425E-02;  1.0002822E+04;  0.0000000E+00; -1.1698635E-04;  1.0000000E+04;  0.0000000E+00;  9.9998643E+03; -9.0242319E-02;  0.0000000E+00;  3.7488907E-03;  7.3152939E+01;
  1.7998596E-01;  9.9999998E-03; -1.6000044E-01;1315; -1.0967032E-02;  0.0000000E+00; -2.7757837E-04;  1.0001339E+03;  4.0000001E-01;  1.1091042E+02;3; -6.2309871E+00;  0.0000000E+00; -1.4359067E-01;0; -8.5945614E-02;  1.0002799E+04;  0.0000000E+00; -3.5594124E-07;  1.0000000E+04;  0.0000000E+00;  9.9998770E+03; -8.9386217E-02;  0.0000000E+00;  3.4406043E-03;  6.6963409E+01;
  1.7998601E-01;  9.9999998E-03; -1.4000034E-01;1316; -1.0905161E-02;  0.0000000E+00; -2.2367893E-04;  1.0001330E+03;  4.0000001E-01;  1.1021909E+02;3; -6.2081614E+00;  0.0000000E+00; -1.2432354E-01;0; -8.5079022E-02;  1.0002766E+04;  0.0000000E+00;  5.4190106E-09;  1.0000000E+04;  0.0000000E+00;  9.9998916E+03; -8.8235892E-02;  0.0000000E+00;  3.1568729E-03;  6.0675232E+01;
  1.7998613E-01;  9.9999998E-03; -1.2000027E-01;1317; -1.0804729E-02;  0.0000000E+00; -1.7402681E-04;  1.0001317E+03;  4.0000001E-01;  1.0913270E+02;3; -6.1604295E+00;  0.0000000E+00; -1.0401843E-01;0; -8.4075153E-02;  1.0002729E+04;  0.0000000E+00;  8.2225693E-10;  1.0000000E+04;  0.0000000E+00;  9.9999014E+03; -8.6949870E-02;  0.0000000E+00;  2.8747150E-03;  5.4390579E+01;
  1.7998625E-01;  9.9999998E-03; -1.0000020E-01;1318; -1.0689379E-02;  0.0000000E+00; -1.3092571E-04;  1.0001306E+03;  4.0000001E-01;  1.0824384E+02;3; -6.1014724E+00;  0.0000000E+00; -8.3699867E-02;0; -8.3101004E-02;  1.0002692E+04;  0.0000000E+00; -2.2822295E-09;  1.0000000E+04;  0.0000000E+00;  9.9999160E+03; -8.5672326E-02;  0.0000000E+00;  2.5713253E-03;  4.8050064E+01;
  1.7998639E-01;  9.9999998E-03; -8.0000140E-02;1319; -1.0576464E-02;  0.0000000E+00; -9.4648152E-05;  1.0001295E+03;  4.0000001E-01;  1.0725621E+02;3; -6.0414677E+00;  0.0000000E+00; -6.4712182E-02;0; -8.2244977E-02;  1.0002659E+04;  0.0000000E+00; -1.4974448E-09;  1.0000000E+04;  0.0000000E+00;  9.9999268E+03; -8.4510274E-02;  0.0000000E+00;  2.2652990E-03;  4.2034115E+01;
  1.7998649E-01;  9.9999998E-03; -6.0000092E-02;1320; -1.0478077E-02;  0.0000000E+00; -6.4954082E-05;  1.0001286E+03;  4.0000001E-01;  1.0656487E+02;3; -5.9879189E+00;  0.0000000E+00; -4.7112484E-02;0; -8.1551880E-02;  1.0002632E+04;  0.0000000E+00; -4.9565707E-10;  1.0000000E+04;  0.0000000E+00;  9.9999404E+03; -8.3540060E-02;  0.0000000E+00;  1.9881802E-03;  3.6821770E+01;
  1.7998658E-01;  9.9999998E-03; -4.0000055E-02;1321; -1.0402507E-02;  0.0000000E+00; -4.0369679E-05;  1.0001279E+03;  4.0000001E-01;  1.0597230E+02;3; -5.9461327E+00;  0.0000000E+00; -3.0719411E-02;0; -8.1044935E-02;  1.0002609E+04;  0.0000000E+00;  5.8943121E-11;  1.0000000E+04;  0.0000000E+00;  9.9999492E+03; -8.2813948E-02;  0.0000000E+00;  1.7690127E-03;  3.2817394E+01;
  1.7998664E-01;  9.9999998E-03; -2.0000026E-02;1322; -1.0355120E-02;  0.0000000E+00; -1.9316356E-05;  1.0001276E+03;  4.0000001E-01;  1.0577477E+02;3; -5.9196591E+00;  0.0000000E+00; -1.5166041E-02;0; -8.0736615E-02;  1.0002596E+04;  0.0000000E+00;  5.8388593E-11;  1.0000000E+04;  0.0000000E+00;  9.9999541E+03; -8.2365744E-02;  0.0000000E+00;  1.6291284E-03;  3.0305683E+01;
  1.9998305E-01;  9.9999998E-03; -1.8000072E-01;1345; -1.2959521E-02;  0.0000000E+00; -4.6128544E-04;  1.0001578E+03;  4.0000001E-01;  1.3076172E+02;3; -7.1689048E+00;  0.0000000E+00; -2.3300312E-01;0; -9.8879077E-02;  1.0003344E+04;  0.0000000E+00; -2.0245582E-04;  1.0000000E+04;  0.0000000E+00;  9.9998145E+03; -1.0393702E-01;  0.0000000E+00;  5.0579482E-03;  9.8466446E+01;
  1.9998308E-01;  9.9999998E-03; -1.6000059E-01;1346; -1.2936205E-02;  0.0000000E+00; -3.9029081E-04;  1.0001569E+03;  4.0000001E-01;  1.2997162E+02;3; -7.1742949E+00;  0.0000000E+00; -2.1375862E-01;0; -9.8025329E-02;  1.0003304E+04;  0.0000000E+00; -1.4863629E-06;  1.0000000E+04;  0.0000000E+00;  9.9998359E+03; -1.0257133E-01;  0.0000000E+00;  4.5460048E-03;  8.7908974E+01;
  1.9998318E-01;  9.9999998E-03; -1.4000046E-01;1347; -1.2838759E-02;  0.0000000E+00; -3.2133947E-04;  1.0001556E+03;  4.0000001E-01;  1.2888522E+02;3; -7.1380525E+00;  0.0000000E+00; -1.8946902E-01;0; -9.6889108E-02;  1.0003257E+04;  0.0000000E+00;  9.3439976E-09;  1.0000000E+04;  0.0000000E+00;  9.9998564E+03; -1.0102838E-01;  0.0000000E+00;  4.1392748E-03;  7.8446243E+01;
  1.9998334E-01;  9.9999998E-03; -1.2000035E-01;1348; -1.2702649E-02;  0.0000000E+00; -2.5559313E-04;  1.0001542E+03;  4.0000001E-01;  1.2770007E+02;3; -7.0765285E+00;  0.0000000E+00; -1.6189398E-01;0; -9.5636435E-02;  1.0003208E+04;  0.0000000E+00;  1.0760520E-10;  1.0000000E+04;  0.0000000E+00;  9.9998730E+03; -9.9418141E-02;  0.0000000E+00;  3.7817061E-03;  6.9754395E+01;
  1.9998352E-01;  9.9999998E-03; -1.0000026E-01;1349; -1.2553846E-02;  0.0000000E+00; -1.9690444E-04;  1.0001525E+03;  4.0000001E-01;  1.2631740E+02;3; -7.0041933E+00;  0.0000000E+00; -1.3329794E-01;0; -9.4453700E-02;  1.0003161E+04;  0.0000000E+00; -3.2593450E-09;  1.0000000E+04;  0.0000000E+00;  9.9998916E+03; -9.7871542E-02;  0.0000000E+00;  3.4178419E-03;  6.1362247E+01;
  1.9998369E-01;  9.9999998E-03; -8.0000192E-02;1350; -1.2411648E-02;  0.0000000E+00; -1.4579092E-04;  1.0001513E+03;  4.0000001E-01;  1.2532977E+02;3; -6.9322476E+00;  0.0000000E+00; -1.0504065E-01;0; -9.3434483E-02;  1.0003120E+04;  0.0000000E+00; -1.9735373E-09;  1.0000000E+04;  0.0000000E+00;  9.9999082E+03; -9.6489400E-02;  0.0000000E+00;  3.0549141E-03;  5.3537025E+01;
  1.9998382E-01;  9.9999998E-03; -6.0000129E-02;1351; -1.2289421E-02;  0.0000000E+00; -1.0219200E-04;  1.0001503E+03;  4.0000001E-01;  1.2453967E+02;3; -6.8687391E+00;  0.0000000E+00; -7.7735901E-02;0; -9.2621081E-02;  1.0003084E+04;  0.0000000E+00; -4.9509769E-10;  1.0000000E+04;  0.0000000E+00;  9.9999219E+03; -9.5346577E-02;  0.0000000E+00;  2.7254936E-03;  4.6797787E+01;
  1.9998394E-01;  9.9999998E-03; -4.0000077E-02;1352; -1.2196297E-02;  0.0000000E+00; -6.4764710E-05;  1.0001495E+03;  4.0000001E-01;  1.2384833E+02;3; -6.8195143E+00;  0.0000000E+00; -5.1381223E-02;0; -9.2032120E-02;  1.0003056E+04;  0.0000000E+00; -5.4707461E-11;  1.0000000E+04;  0.0000000E+00;  9.9999326E+03; -9.4495878E-02;  0.0000000E+00;  2.4637592E-03;  4.1630352E+01;
  1.9998400E-01;  9.9999998E-03; -2.0000037E-02;1353; -1.2138202E-02;  0.0000000E+00; -3.1350828E-05;  1.0001490E+03;  4.0000001E-01;  1.2345328E+02;3; -6.7884922E+00;  0.0000000E+00; -2.5561113E-02;0; -9.1676280E-02;  1.0003038E+04;  0.0000000E+00;  5.7240209E-11;  1.0000000E+04;  0.0000000E+00;  9.9999414E+03; -9.3972370E-02;  0.0000000E+00;  2.2960890E-03;  3.8390903E+01;
  2.1997960E-01;  9.9999998E-03; -1.8000098E-01;1376; -1.5247645E-02;  0.0000000E+00; -6.5914157E-04;  1.0001843E+03;  4.0000001E-01;  1.5268701E+02;3; -8.2184620E+00;  0.0000000E+00; -3.5075763E-01;0; -1.1236013E-01;  1.0003947E+04;  0.0000000E+00; -2.2802736E-04;  1.0000000E+04;  0.0000000E+00;  9.9997402E+03; -1.1945098E-01;  0.0000000E+00;  7.0908456E-03;  1.3565082E+02;
  2.1997967E-01;  9.9999998E-03; -1.6000080E-01;1377; -1.5185113E-02;  0.0000000E+00; -5.6276063E-04;  1.0001832E+03;  4.0000001E-01;  1.5179816E+02;3; -8.2107382E+00;  0.0000000E+00; -3.2295635E-01;0; -1.1128589E-01;  1.0003891E+04;  0.0000000E+00; -1.6359257E-06;  1.0000000E+04;  0.0000000E+00;  9.9997734E+03; -1.1753234E-01;  0.0000000E+00;  6.2464555E-03;  1.1820405E+02;
  2.1997985E-01;  9.9999998E-03; -1.4000064E-01;1378; -1.5045427E-02;  0.0000000E+00; -4.6882790E-04;  1.0001816E+03;  4.0000001E-01;  1.5041548E+02;3; -8.1603241E+00;  0.0000000E+00; -2.8929919E-01;0; -1.0993917E-01;  1.0003828E+04;  0.0000000E+00;  1.0468596E-08;  1.0000000E+04;  0.0000000E+00;  9.9998086E+03; -1.1554942E-01;  0.0000000E+00;  5.6102588E-03;  1.0352093E+02;
  2.1998006E-01;  9.9999998E-03; -1.2000050E-01;1379; -1.4867580E-02;  0.0000000E+00; -3.7816510E-04;  1.0001796E+03;  4.0000001E-01;  1.4883528E+02;3; -8.0844135E+00;  0.0000000E+00; -2.4919499E-01;0; -1.0848131E-01;  1.0003763E+04;  0.0000000E+00; -3.4454267E-10;  1.0000000E+04;  0.0000000E+00;  9.9998311E+03; -1.1357936E-01;  0.0000000E+00;  5.0980495E-03;  9.0876083E+01;
  2.1998030E-01;  9.9999998E-03; -1.0000037E-01;1380; -1.4680055E-02;  0.0000000E+00; -2.9464404E-04;  1.0001778E+03;  4.0000001E-01;  1.4725507E+02;3; -7.9981756E+00;  0.0000000E+00; -2.0693922E-01;0; -1.0712073E-01;  1.0003703E+04;  0.0000000E+00; -4.3149933E-09;  1.0000000E+04;  0.0000000E+00;  9.9998564E+03; -1.1173602E-01;  0.0000000E+00;  4.6152915E-03;  7.9258080E+01;
  2.1998051E-01;  9.9999998E-03; -8.0000266E-02;1381; -1.4503861E-02;  0.0000000E+00; -2.2112334E-04;  1.0001763E+03;  4.0000001E-01;  1.4606992E+02;3; -7.9135671E+00;  0.0000000E+00; -1.6445468E-01;0; -1.0596082E-01;  1.0003649E+04;  0.0000000E+00; -2.2098052E-09;  1.0000000E+04;  0.0000000E+00;  9.9998789E+03; -1.1011223E-01;  0.0000000E+00;  4.1514044E-03;  6.8720871E+01;
  2.1998070E-01;  9.9999998E-03; -6.0000177E-02;1382; -1.4354013E-02;  0.0000000E+00; -1.5688170E-04;  1.0001751E+03;  4.0000001E-01;  1.4508229E+02;3; -7.8395209E+00;  0.0000000E+00; -1.2274418E-01;0; -1.0504372E-01;  1.0003607E+04;  0.0000000E+00; -4.6376475E-10;  1.0000000E+04;  0.0000000E+00;  9.9998984E+03; -1.0878018E-01;  0.0000000E+00;  3.7364671E-03;  5.9772926E+01;
  2.1998084E-01;  9.9999998E-03; -4.0000111E-02;1383; -1.4240596E-02;  0.0000000E+00; -1.0022413E-04;  1.0001743E+03;  4.0000001E-01;  1.4439096E+02;3; -7.7824774E+00;  0.0000000E+00; -8.1410140E-02;0; -1.0438462E-01;  1.0003573E+04;  0.0000000E+00; -1.7164531E-10;  1.0000000E+04;  0.0000000E+00;  9.9999102E+03; -1.0779315E-01;  0.0000000E+00;  3.4085382E-03;  5.2961201E+01;
  2.1998093E-01;  9.9999998E-03; -2.0000054E-02;1384; -1.4170100E-02;  0.0000000E+00; -4.8821697E-05;  1.0001737E+03;  4.0000001E-01;  1.4389714E+02;3; -7.7466087E+00;  0.0000000E+00; -4.0466882E-02;0; -1.0398840E-01;  1.0003556E+04;  0.0000000E+00;  2.0965590E-10;  1.0000000E+04;  0.0000000E+00;  9.9999209E+03; -1.0718719E-01;  0.0000000E+00;  3.1987890E-03;  4.8706169E+01;
  2.3997554E-01;  9.9999998E-03; -1.8000133E-01;1407; -1.7860746E-02;  0.0000000E+00; -9.3625818E-04;  1.0002142E+03;  4.0000001E-01;  1.7747644E+02;3; -9.3689766E+00;  0.0000000E+00; -5.1594281E-01;0; -1.2693977E-01;  1.0004653E+04;  0.0000000E+00; -1.6537911E-04;  1.0000000E+04;  0.0000000E+00;  9.9996299E+03; -1.3687530E-01;  0.0000000E+00;  9.9355299E-03;  1.8660619E+02;
  2.3997568E-01;  9.9999998E-03; -1.6000110E-01;1408; -1.7749803E-02;  0.0000000E+00; -8.0403558E-04;  1.0002130E+03;  4.0000001E-01;  1.7648882E+02;3; -9.3469849E+00;  0.0000000E+00; -4.7632757E-01;0; -1.2576206E-01;  1.0004573E+04;  0.0000000E+00; -4.5322892E-07;  1.0000000E+04;  0.0000000E+00;  9.9996924E+03; -1.3439631E-01;  0.0000000E+00;  8.6342599E-03;  1.5958569E+02;
  2.3997593E-01;  9.9999998E-03; -1.4000088E-01;1409; -1.7561128E-02;  0.0000000E+00; -6.7178434E-04;  1.0002112E+03;  4.0000001E-01;  1.7500737E+02;3; -9.2826109E+00;  0.0000000E+00; -4.2624071E-01;0; -1.2428607E-01;  1.0004491E+04;  0.0000000E+00;  9.5646246E-09;  1.0000000E+04;  0.0000000E+00;  9.9997373E+03; -1.3194083E-01;  0.0000000E+00;  7.6547544E-03;  1.3733394E+02;
  2.3997623E-01;  9.9999998E-03; -1.2000068E-01;1410; -1.7335204E-02;  0.0000000E+00; -5.4520922E-04;  1.0002090E+03;  4.0000001E-01;  1.7322964E+02;3; -9.1923761E+00;  0.0000000E+00; -3.6845866E-01;0; -1.2268738E-01;  1.0004407E+04;  0.0000000E+00; -1.7209165E-09;  1.0000000E+04;  0.0000000E+00;  9.9997764E+03; -1.2958010E-01;  0.0000000E+00;  6.8927174E-03;  1.1882423E+02;
  2.3997653E-01;  9.9999998E-03; -1.0000050E-01;1411; -1.7103039E-02;  0.0000000E+00; -4.2804793E-04;  1.0002070E+03;  4.0000001E-01;  1.7155067E+02;3; -9.0918980E+00;  0.0000000E+00; -3.0819049E-01;0; -1.2119637E-01;  1.0004333E+04;  0.0000000E+00; -5.2867666E-09;  1.0000000E+04;  0.0000000E+00;  9.9998105E+03; -1.2741266E-01;  0.0000000E+00;  6.2162876E-03;  1.0248163E+02;
  2.3997679E-01;  9.9999998E-03; -8.0000363E-02;1412; -1.6887926E-02;  0.0000000E+00; -3.2296215E-04;  1.0002054E+03;  4.0000001E-01;  1.7016800E+02;3; -8.9944296E+00;  0.0000000E+00; -2.4583839E-01;0; -1.1993011E-01;  1.0004268E+04;  0.0000000E+00; -1.8009934E-09;  1.0000000E+04;  0.0000000E+00;  9.9998398E+03; -1.2552424E-01;  0.0000000E+00;  5.5941236E-03;  8.8081245E+01;
  2.3997703E-01;  9.9999998E-03; -6.0000245E-02;1413; -1.6706398E-02;  0.0000000E+00; -2.3055747E-04;  1.0002040E+03;  4.0000001E-01;  1.6898285E+02;3; -8.9096518E+00;  0.0000000E+00; -1.8355455E-01;0; -1.1893424E-01;  1.0004213E+04;  0.0000000E+00;  5.3281551E-10;  1.0000000E+04;  0.0000000E+00;  9.9998652E+03; -1.2398507E-01;  0.0000000E+00;  5.0508287E-03;  7.6068291E+01;
  2.3997720E-01;  9.9999998E-03; -4.0000152E-02;1414; -1.6569698E-02;  0.0000000E+00; -1.4827609E-04;  1.0002030E+03;  4.0000001E-01;  1.6819275E+02;3; -8.8444538E+00;  0.0000000E+00; -1.2268915E-01;0; -1.1822227E-01;  1.0004177E+04;  0.0000000E+00;  9.0810193E-10;  1.0000000E+04;  0.0000000E+00;  9.9998838E+03; -1.2284891E-01;  0.0000000E+00;  4.6266415E-03;  6.7018173E+01;
  2.3997730E-01;  9.9999998E-03; -2.0000072E-02;1415; -1.6485043E-02;  0.0000000E+00; -7.2434304E-05;  1.0002023E+03;  4.0000001E-01;  1.6760017E+02;3; -8.8036737E+00;  0.0000000E+00; -6.1474591E-02;0; -1.1779597E-01;  1.0004150E+04;  0.0000000E+00;  5.8475275E-10;  1.0000000E+04;  0.0000000E+00;  9.9998955E+03; -1.2215282E-01;  0.0000000E+00;  4.3568444E-03;  6.1396755E+01;
  2.5997075E-01;  9.9999998E-03; -1.8000183E-01;1438; -2.0841541E-02;  0.0000000E+00; -1.3107322E-03;  1.0002484E+03;  4.0000001E-01;  2.0572253E+02;3; -1.0628244E+01;  0.0000000E+00; -7.3850930E-01;0; -1.4273973E-01;  1.0005467E+04;  0.0000000E+00; -6.7630761E-05;  1.0000000E+04;  0.0000000E+00;  9.9994980E+03; -1.5629669E-01;  0.0000000E+00;  1.3556958E-02;  2.5174707E+02;
  2.5997099E-01;  9.9999998E-03; -1.6000147E-01;1439; -2.0672187E-02;  0.0000000E+00; -1.1177800E-03;  1.0002471E+03;  4.0000001E-01;  2.0473491E+02;3; -1.0591484E+01;  0.0000000E+00; -6.7460483E-01;0; -1.4155903E-01;  1.0005362E+04;  0.0000000E+00;  2.9395588E-09;  1.0000000E+04;  0.0000000E+00;  9.9995811E+03; -1.5327939E-01;  0.0000000E+00;  1.1720366E-02;  2.1284796E+02;
  2.5997132E-01;  9.9999998E-03; -1.4000118E-01;1440; -2.0425379E-02;  0.0000000E+00; -9.3391322E-04;  1.0002452E+03;  4.0000001E-01;  2.0315471E+02;3; -1.0512785E+01;  0.0000000E+00; -6.0257781E-01;0; -1.4003588E-01;  1.0005258E+04;  0.0000000E+00;  3.9327031E-09;  1.0000000E+04;  0.0000000E+00;  9.9996475E+03; -1.5034147E-01;  0.0000000E+00;  1.0305579E-02;  1.8074004E+02;
  2.5997171E-01;  9.9999998E-03; -1.2000090E-01;1441; -2.0144358E-02;  0.0000000E+00; -7.5787632E-04;  1.0002430E+03;  4.0000001E-01;  2.0137697E+02;3; -1.0408574E+01;  0.0000000E+00; -5.2147818E-01;0; -1.3836712E-01;  1.0005157E+04;  0.0000000E+00; -3.4802219E-09;  1.0000000E+04;  0.0000000E+00;  9.9997051E+03; -1.4756873E-01;  0.0000000E+00;  9.2016179E-03;  1.5431348E+02;
  2.5997210E-01;  9.9999998E-03; -1.0000067E-01;1442; -1.9861080E-02;  0.0000000E+00; -5.9741718E-04;  1.0002407E+03;  4.0000001E-01;  1.9940172E+02;3; -1.0294511E+01;  0.0000000E+00; -4.3706375E-01;0; -1.3680160E-01;  1.0005066E+04;  0.0000000E+00; -3.9187000E-09;  1.0000000E+04;  0.0000000E+00;  9.9997520E+03; -1.4505224E-01;  0.0000000E+00;  8.2506463E-03;  1.3154420E+02;
  2.5997245E-01;  9.9999998E-03; -8.0000482E-02;1443; -1.9601623E-02;  0.0000000E+00; -4.5236788E-04;  1.0002387E+03;  4.0000001E-01;  1.9772276E+02;3; -1.0184280E+01;  0.0000000E+00; -3.5080793E-01;0; -1.3547128E-01;  1.0004985E+04;  0.0000000E+00;  2.7474809E-10;  1.0000000E+04;  0.0000000E+00;  9.9997930E+03; -1.4287584E-01;  0.0000000E+00;  7.4045463E-03;  1.1194449E+02;
  2.5997275E-01;  9.9999998E-03; -6.0000326E-02;1444; -1.9384168E-02;  0.0000000E+00; -3.2347694E-04;  1.0002372E+03;  4.0000001E-01;  1.9653761E+02;3; -1.0088816E+01;  0.0000000E+00; -2.6169947E-01;0; -1.3442762E-01;  1.0004923E+04;  0.0000000E+00;  1.8917905E-09;  1.0000000E+04;  0.0000000E+00;  9.9998262E+03; -1.4111026E-01;  0.0000000E+00;  6.6826409E-03;  9.5871147E+01;
  2.5997296E-01;  9.9999998E-03; -4.0000200E-02;1445; -1.9221142E-02;  0.0000000E+00; -2.0820380E-04;  1.0002361E+03;  4.0000001E-01;  1.9564874E+02;3; -1.0015863E+01;  0.0000000E+00; -1.7387606E-01;0; -1.3368408E-01;  1.0004874E+04;  0.0000000E+00;  1.2878960E-09;  1.0000000E+04;  0.0000000E+00;  9.9998496E+03; -1.3981071E-01;  0.0000000E+00;  6.1266306E-03;  8.3896370E+01;
  2.5997308E-01;  9.9999998E-03; -2.0000096E-02;1446; -1.9120429E-02;  0.0000000E+00; -1.0190174E-04;  1.0002355E+03;  4.0000001E-01;  1.9505617E+02;3; -9.9701996E+00;  0.0000000E+00; -8.6443841E-02;0; -1.3324042E-01;  1.0004845E+04;  0.0000000E+00;  8.3264529E-10;  1.0000000E+04;  0.0000000E+00;  9.9998672E+03; -1.3901594E-01;  0.0000000E+00;  5.7755266E-03;  7.6506615E+01;
  2.7996513E-01;  9.9999998E-03; -1.8000244E-01;1469; -2.4236498E-02;  0.0000000E+00; -1.7873320E-03;  1.0002870E+03;  4.0000001E-01;  2.3772162E+02;3; -1.2002888E+01;  0.0000000E+00; -1.0194086E+00;0; -1.5998802E-01;  1.0006406E+04;  0.0000000E+00; -8.8576717E-06;  1.0000000E+04;  0.0000000E+00;  9.9993350E+03; -1.7780122E-01;  0.0000000E+00;  1.7813213E-02;  3.3014740E+02;
  2.7996549E-01;  9.9999998E-03; -1.6000195E-01;1470; -2.3997080E-02;  0.0000000E+00; -1.5085076E-03;  1.0002861E+03;  4.0000001E-01;  2.3703027E+02;3; -1.1951753E+01;  0.0000000E+00; -9.1990113E-01;0; -1.5885668E-01;  1.0006273E+04;  0.0000000E+00; -5.9959460E-09;  1.0000000E+04;  0.0000000E+00;  9.9994473E+03; -1.7429411E-01;  0.0000000E+00;  1.5437439E-02;  2.7781635E+02;
  2.7996597E-01;  9.9999998E-03; -1.4000154E-01;1471; -2.3681516E-02;  0.0000000E+00; -1.2567603E-03;  1.0002841E+03;  4.0000001E-01;  2.3535132E+02;3; -1.1859190E+01;  0.0000000E+00; -8.2078654E-01;0; -1.5734950E-01;  1.0006143E+04;  0.0000000E+00; -1.3795308E-09;  1.0000000E+04;  0.0000000E+00;  9.9995400E+03; -1.7088912E-01;  0.0000000E+00;  1.3539626E-02;  2.3391600E+02;
  2.7996644E-01;  9.9999998E-03; -1.2000117E-01;1472; -2.3336485E-02;  0.0000000E+00; -1.0161400E-03;  1.0002817E+03;  4.0000001E-01;  2.3337607E+02;3; -1.1741390E+01;  0.0000000E+00; -7.0925206E-01;0; -1.5567157E-01;  1.0006018E+04;  0.0000000E+00; -1.6477054E-09;  1.0000000E+04;  0.0000000E+00;  9.9996143E+03; -1.6769405E-01;  0.0000000E+00;  1.2022482E-02;  1.9761397E+02;
  2.7996695E-01;  9.9999998E-03; -1.0000087E-01;1473; -2.2995166E-02;  0.0000000E+00; -8.0032629E-04;  1.0002792E+03;  4.0000001E-01;  2.3130205E+02;3; -1.1614302E+01;  0.0000000E+00; -5.9204453E-01;0; -1.5408540E-01;  1.0005903E+04;  0.0000000E+00;  6.2434996E-10;  1.0000000E+04;  0.0000000E+00;  9.9996826E+03; -1.6480714E-01;  0.0000000E+00;  1.0721738E-02;  1.6667374E+02;
  2.7996737E-01;  9.9999998E-03; -8.0000617E-02;1474; -2.2685632E-02;  0.0000000E+00; -6.0819229E-04;  1.0002768E+03;  4.0000001E-01;  2.2932680E+02;3; -1.1492958E+01;  0.0000000E+00; -4.7590604E-01;0; -1.5273471E-01;  1.0005809E+04;  0.0000000E+00;  3.6059720E-09;  1.0000000E+04;  0.0000000E+00;  9.9997344E+03; -1.6231896E-01;  0.0000000E+00;  9.5842453E-03;  1.4045689E+02;
  2.7996773E-01;  9.9999998E-03; -6.0000420E-02;1475; -2.2427820E-02;  0.0000000E+00; -4.3610318E-04;  1.0002753E+03;  4.0000001E-01;  2.2804288E+02;3; -1.1387713E+01;  0.0000000E+00; -3.5921550E-01;0; -1.5167664E-01;  1.0005729E+04;  0.0000000E+00;  4.9443036E-09;  1.0000000E+04;  0.0000000E+00;  9.9997803E+03; -1.6030595E-01;  0.0000000E+00;  8.6293044E-03;  1.1925481E+02;
  2.7996799E-01;  9.9999998E-03; -4.0000260E-02;1476; -2.2235259E-02;  0.0000000E+00; -2.8055639E-04;  1.0002740E+03;  4.0000001E-01;  2.2705525E+02;3; -1.1307496E+01;  0.0000000E+00; -2.3888519E-01;0; -1.5092556E-01;  1.0005672E+04;  0.0000000E+00;  4.2155586E-09;  1.0000000E+04;  0.0000000E+00;  9.9998135E+03; -1.5882750E-01;  0.0000000E+00;  7.9019433E-03;  1.0361858E+02;
  2.7996817E-01;  9.9999998E-03; -2.0000122E-02;1477; -2.2116482E-02;  0.0000000E+00; -1.3724310E-04;  1.0002733E+03;  4.0000001E-01;  2.2646268E+02;3; -1.1257140E+01;  0.0000000E+00; -1.1967729E-01;0; -1.5047869E-01;  1.0005637E+04;  0.0000000E+00;  2.5351690E-09;  1.0000000E+04;  0.0000000E+00;  9.9998330E+03; -1.5792431E-01;  0.0000000E+00;  7.4456125E-03;  9.4031113E+01;
  2.9995856E-01;  9.9999998E-03; -1.8000317E-01;1500; -2.8092967E-02;  0.0000000E+00; -2.3525159E-03;  1.0003314E+03;  4.0000001E-01;  2.7456003E+02;3; -1.3498376E+01;  0.0000000E+00; -1.3487054E+00;0; -1.7896561E-01;  1.0007480E+04;  0.0000000E+00;  7.7729851E-08;  1.0000000E+04;  0.0000000E+00;  9.9991475E+03; -2.0149183E-01;  0.0000000E+00;  2.2526221E-02;  4.2035785E+02;
  2.9995906E-01;  9.9999998E-03; -1.6000250E-01;1501; -2.7770806E-02;  0.0000000E+00; -1.9704672E-03;  1.0003302E+03;  4.0000001E-01;  2.7357242E+02;3; -1.3433557E+01;  0.0000000E+00; -1.2092443E+00;0; -1.7789301E-01;  1.0007320E+04;  0.0000000E+00; -1.9612997E-08;  1.0000000E+04;  0.0000000E+00;  9.9992910E+03; -1.9756788E-01;  0.0000000E+00;  1.9674866E-02;  3.5369345E+02;
  2.9995969E-01;  9.9999998E-03; -1.4000195E-01;1502; -2.7375614E-02;  0.0000000E+00; -1.6313787E-03;  1.0003284E+03;  4.0000001E-01;  2.7209097E+02;3; -1.3329312E+01;  0.0000000E+00; -1.0687230E+00;0; -1.7643046E-01;  1.0007159E+04;  0.0000000E+00;  5.0218119E-09;  1.0000000E+04;  0.0000000E+00;  9.9994102E+03; -1.9372548E-01;  0.0000000E+00;  1.7295012E-02;  2.9650214E+02;
  2.9996032E-01;  9.9999998E-03; -1.2000148E-01;1503; -2.6956353E-02;  0.0000000E+00; -1.3169588E-03;  1.0003259E+03;  4.0000001E-01;  2.7001697E+02;3; -1.3198193E+01;  0.0000000E+00; -9.2857718E-01;0; -1.7478226E-01;  1.0007009E+04;  0.0000000E+00;  4.5396189E-09;  1.0000000E+04;  0.0000000E+00;  9.9995117E+03; -1.9010445E-01;  0.0000000E+00;  1.5322189E-02;  2.4860324E+02;
  2.9996094E-01;  9.9999998E-03; -1.0000109E-01;1504; -2.6549043E-02;  0.0000000E+00; -1.0348676E-03;  1.0003234E+03;  4.0000001E-01;  2.6794293E+02;3; -1.3060182E+01;  0.0000000E+00; -7.7840531E-01;0; -1.7321718E-01;  1.0006870E+04;  0.0000000E+00;  1.0444053E-08;  1.0000000E+04;  0.0000000E+00;  9.9995977E+03; -1.8682724E-01;  0.0000000E+00;  1.3610065E-02;  2.0785539E+02;
  2.9996148E-01;  9.9999998E-03; -8.0000773E-02;1505; -2.6183169E-02;  0.0000000E+00; -7.8535330E-04;  1.0003210E+03;  4.0000001E-01;  2.6596768E+02;3; -1.2928265E+01;  0.0000000E+00; -6.2292606E-01;0; -1.7188498E-01;  1.0006753E+04;  0.0000000E+00;  1.4357356E-08;  1.0000000E+04;  0.0000000E+00;  9.9996699E+03; -1.8400256E-01;  0.0000000E+00;  1.2117580E-02;  1.7364583E+02;
  2.9996192E-01;  9.9999998E-03; -6.0000524E-02;1506; -2.5880229E-02;  0.0000000E+00; -5.6412374E-04;  1.0003190E+03;  4.0000001E-01;  2.6428873E+02;3; -1.2815165E+01;  0.0000000E+00; -4.7102001E-01;0; -1.7084457E-01;  1.0006656E+04;  0.0000000E+00;  1.3918799E-08;  1.0000000E+04;  0.0000000E+00;  9.9997275E+03; -1.8171880E-01;  0.0000000E+00;  1.0874220E-02;  1.4626472E+02;
  2.9996225E-01;  9.9999998E-03; -4.0000323E-02;1507; -2.5654903E-02;  0.0000000E+00; -3.6372908E-04;  1.0003176E+03;  4.0000001E-01;  2.6310358E+02;3; -1.2728936E+01;  0.0000000E+00; -3.1570834E-01;0; -1.7010900E-01;  1.0006585E+04;  0.0000000E+00;  7.1683095E-09;  1.0000000E+04;  0.0000000E+00;  9.9997676E+03; -1.8004267E-01;  0.0000000E+00;  9.9336654E-03;  1.2624292E+02;
  2.9996243E-01;  9.9999998E-03; -2.0000152E-02;1508; -2.5516281E-02;  0.0000000E+00; -1.7825018E-04;  1.0003169E+03;  4.0000001E-01;  2.6251099E+02;3; -1.2675626E+01;  0.0000000E+00; -1.5915605E-01;0; -1.6967307E-01;  1.0006546E+04;  0.0000000E+00;  2.4612308E-09;  1.0000000E+04;  0.0000000E+00;  9.9997939E+03; -1.7901944E-01;  0.0000000E+00;  9.3463697E-03;  1.1403789E+02;
  3.1995085E-01;  9.9999998E-03; -1.8000399E-01;1531; -3.2459382E-02;  0.0000000E+00; -2.9825976E-03;  1.0003822E+03;  4.0000001E-01;  3.1663290E+02;3; -1.5117578E+01;  0.0000000E+00; -1.6969128E+00;0; -1.9996241E-01;  1.0008706E+04;  0.0000000E+00;  6.6529671E-09;  1.0000000E+04;  0.0000000E+00;  9.9989434E+03; -2.2752137E-01;  0.0000000E+00;  2.7558966E-02;  5.2128339E+02;
  3.1995156E-01;  9.9999998E-03; -1.6000314E-01;1532; -3.2041658E-02;  0.0000000E+00; -2.4891363E-03;  1.0003812E+03;  4.0000001E-01;  3.1584280E+02;3; -1.5040016E+01;  0.0000000E+00; -1.5231011E+00;0; -1.9892582E-01;  1.0008517E+04;  0.0000000E+00; -2.2454531E-08;  1.0000000E+04;  0.0000000E+00;  9.9991133E+03; -2.2325434E-01;  0.0000000E+00;  2.4328513E-02;  4.3957993E+02;
  3.1995237E-01;  9.9999998E-03; -1.4000243E-01;1533; -3.1555757E-02;  0.0000000E+00; -2.0515332E-03;  1.0003792E+03;  4.0000001E-01;  3.1416385E+02;3; -1.4925302E+01;  0.0000000E+00; -1.3460447E+00;0; -1.9749960E-01;  1.0008323E+04;  0.0000000E+00;  1.3802305E-08;  1.0000000E+04;  0.0000000E+00;  9.9992646E+03; -2.1900009E-01;  0.0000000E+00;  2.1500483E-02;  3.6789258E+02;
  3.1995317E-01;  9.9999998E-03; -1.2000182E-01;1534; -3.1052569E-02;  0.0000000E+00; -1.6547047E-03;  1.0003764E+03;  4.0000001E-01;  3.1189230E+02;3; -1.4784841E+01;  0.0000000E+00; -1.1723139E+00;0; -1.9589251E-01;  1.0008139E+04;  0.0000000E+00;  2.2914195E-08;  1.0000000E+04;  0.0000000E+00;  9.9993936E+03; -2.1494626E-01;  0.0000000E+00;  1.9053746E-02;  3.0694519E+02;
  3.1995392E-01;  9.9999998E-03; -1.0000134E-01;1535; -3.0571243E-02;  0.0000000E+00; -1.2980871E-03;  1.0003735E+03;  4.0000001E-01;  3.0942322E+02;3; -1.4639277E+01;  0.0000000E+00; -9.8595303E-01;0; -1.9437282E-01;  1.0007972E+04;  0.0000000E+00;  3.0608064E-08;  1.0000000E+04;  0.0000000E+00;  9.9995020E+03; -2.1125600E-01;  0.0000000E+00;  1.6883180E-02;  2.5497540E+02;
  3.1995460E-01;  9.9999998E-03; -8.0000944E-02;1536; -3.0142438E-02;  0.0000000E+00; -9.8290981E-04;  1.0003710E+03;  4.0000001E-01;  3.0734921E+02;3; -1.4501092E+01;  0.0000000E+00; -7.9257357E-01;0; -1.9308698E-01;  1.0007829E+04;  0.0000000E+00;  3.0101944E-08;  1.0000000E+04;  0.0000000E+00;  9.9995928E+03; -2.0806597E-01;  0.0000000E+00;  1.4978989E-02;  2.1157217E+02;
  3.1995514E-01;  9.9999998E-03; -6.0000636E-02;1537; -2.9789140E-02;  0.0000000E+00; -7.0424908E-04;  1.0003688E+03;  4.0000001E-01;  3.0557150E+02;3; -1.4382801E+01;  0.0000000E+00; -5.9469414E-01;0; -1.9208972E-01;  1.0007716E+04;  0.0000000E+00;  2.3292026E-08;  1.0000000E+04;  0.0000000E+00;  9.9996660E+03; -2.0548347E-01;  0.0000000E+00;  1.3393738E-02;  1.7709622E+02;
  3.1995556E-01;  9.9999998E-03; -4.0000390E-02;1538; -2.9527180E-02;  0.0000000E+00; -4.5416169E-04;  1.0003673E+03;  4.0000001E-01;  3.0428757E+02;3; -1.4292030E+01;  0.0000000E+00; -4.0047857E-01;0; -1.9138929E-01;  1.0007634E+04;  0.0000000E+00;  1.3786498E-08;  1.0000000E+04;  0.0000000E+00;  9.9997168E+03; -2.0358710E-01;  0.0000000E+00;  1.2197802E-02;  1.5206375E+02;
  3.1995580E-01;  9.9999998E-03; -2.0000184E-02;1539; -2.9366588E-02;  0.0000000E+00; -2.2247990E-04;  1.0003665E+03;  4.0000001E-01;  3.0369501E+02;3; -1.4236245E+01;  0.0000000E+00; -1.9932202E-01;0; -1.9097601E-01;  1.0007584E+04;  0.0000000E+00;  5.0665738E-09;  1.0000000E+04;  0.0000000E+00;  9.9997500E+03; -2.0242895E-01;  0.0000000E+00;  1.1452945E-02;  1.3688383E+02;
  3.3994186E-01;  9.9999998E-03; -1.8000491E-01;1562; -3.7385523E-02;  0.0000000E+00; -3.6687369E-03;  1.0004409E+03;  4.0000001E-01;  3.6522406E+02;3; -1.6857773E+01;  0.0000000E+00; -2.0586236E+00;0; -2.2325318E-01;  1.0010106E+04;  0.0000000E+00; -3.5961374E-08;  1.0000000E+04;  0.0000000E+00;  9.9987129E+03; -2.5610340E-01;  0.0000000E+00;  3.2850225E-02;  6.3245850E+02;
  3.3994281E-01;  9.9999998E-03; -1.6000383E-01;1563; -3.6862563E-02;  0.0000000E+00; -3.0582605E-03;  1.0004398E+03;  4.0000001E-01;  3.6433521E+02;3; -1.6772667E+01;  0.0000000E+00; -1.8576046E+00;0; -2.2219445E-01;  1.0009882E+04;  0.0000000E+00;  1.8069412E-09;  1.0000000E+04;  0.0000000E+00;  9.9989199E+03; -2.5153014E-01;  0.0000000E+00;  2.9335691E-02;  5.3482501E+02;
  3.3994383E-01;  9.9999998E-03; -1.4000294E-01;1564; -3.6274988E-02;  0.0000000E+00; -2.5126482E-03;  1.0004374E+03;  4.0000001E-01;  3.6235995E+02;3; -1.6651747E+01;  0.0000000E+00; -1.6507839E+00;0; -2.2076504E-01;  1.0009650E+04;  0.0000000E+00;  3.2410462E-08;  1.0000000E+04;  0.0000000E+00;  9.9991016E+03; -2.4686648E-01;  0.0000000E+00;  2.6101442E-02;  4.4751898E+02;
  3.3994484E-01;  9.9999998E-03; -1.2000220E-01;1565; -3.5678349E-02;  0.0000000E+00; -2.0223849E-03;  1.0004344E+03;  4.0000001E-01;  3.5989090E+02;3; -1.6507612E+01;  0.0000000E+00; -1.4375751E+00;0; -2.1918520E-01;  1.0009430E+04;  0.0000000E+00;  4.6927614E-08;  1.0000000E+04;  0.0000000E+00;  9.9992598E+03; -2.4236013E-01;  0.0000000E+00;  2.3174927E-02;  3.7233936E+02;
  3.3994579E-01;  9.9999998E-03; -1.0000160E-01;1566; -3.5114624E-02;  0.0000000E+00; -1.5827102E-03;  1.0004310E+03;  4.0000001E-01;  3.5702676E+02;3; -1.6359571E+01;  0.0000000E+00; -1.2120978E+00;0; -2.1771470E-01;  1.0009229E+04;  0.0000000E+00;  5.6573271E-08;  1.0000000E+04;  0.0000000E+00;  9.9993945E+03; -2.3822425E-01;  0.0000000E+00;  2.0509554E-02;  3.0806573E+02;
  3.3994663E-01;  9.9999998E-03; -8.0001123E-02;1567; -3.4615714E-02;  0.0000000E+00; -1.1951192E-03;  1.0004283E+03;  4.0000001E-01;  3.5485400E+02;3; -1.6220102E+01;  0.0000000E+00; -9.7782075E-01;0; -2.1648757E-01;  1.0009058E+04;  0.0000000E+00;  5.0579857E-08;  1.0000000E+04;  0.0000000E+00;  9.9995078E+03; -2.3463207E-01;  0.0000000E+00;  1.8144507E-02;  2.5459372E+02;
  3.3994728E-01;  9.9999998E-03; -6.0000751E-02;1568; -3.4206424E-02;  0.0000000E+00; -8.5306383E-04;  1.0004258E+03;  4.0000001E-01;  3.5278000E+02;3; -1.6099718E+01;  0.0000000E+00; -7.3165059E-01;0; -2.1554714E-01;  1.0008920E+04;  0.0000000E+00;  3.6746606E-08;  1.0000000E+04;  0.0000000E+00;  9.9995938E+03; -2.3171580E-01;  0.0000000E+00;  1.6168652E-02;  2.1238734E+02;
  3.3994779E-01;  9.9999998E-03; -4.0000457E-02;1569; -3.3903673E-02;  0.0000000E+00; -5.4887793E-04;  1.0004239E+03;  4.0000001E-01;  3.5119980E+02;3; -1.6008205E+01;  0.0000000E+00; -4.9169698E-01;0; -2.1489248E-01;  1.0008818E+04;  0.0000000E+00;  1.8752379E-08;  1.0000000E+04;  0.0000000E+00;  9.9996582E+03; -2.2957018E-01;  0.0000000E+00;  1.4677704E-02;  1.8193263E+02;
  3.3994809E-01;  9.9999998E-03; -2.0000216E-02;1570; -3.3718385E-02;  0.0000000E+00; -2.6812661E-04;  1.0004229E+03;  4.0000001E-01;  3.5040970E+02;3; -1.5951618E+01;  0.0000000E+00; -2.4454494E-01;0; -2.1450868E-01;  1.0008759E+04;  0.0000000E+00;  6.9030968E-09;  1.0000000E+04;  0.0000000E+00;  9.9997002E+03; -2.2825852E-01;  0.0000000E+00;  1.3749832E-02;  1.6355377E+02;
  3.5993144E-01;  9.9999998E-03; -1.8000589E-01;1593; -4.2924482E-02;  0.0000000E+00; -4.3995692E-03;  1.0005084E+03;  4.0000001E-01;  4.2112363E+02;3; -1.8718647E+01;  0.0000000E+00; -2.4374285E+00;0; -2.4905799E-01;  1.0011708E+04;  0.0000000E+00; -4.6824447E-08;  1.0000000E+04;  0.0000000E+00;  9.9984648E+03; -2.8747186E-01;  0.0000000E+00;  3.8413871E-02;  7.5396863E+02;
  3.5993263E-01;  9.9999998E-03; -1.6000459E-01;1594; -4.2289101E-02;  0.0000000E+00; -3.6675448E-03;  1.0005068E+03;  4.0000001E-01;  4.1983972E+02;3; -1.8634415E+01;  0.0000000E+00; -2.2166402E+00;0; -2.4789591E-01;  1.0011436E+04;  0.0000000E+00;  4.4486193E-08;  1.0000000E+04;  0.0000000E+00;  9.9987061E+03; -2.8257585E-01;  0.0000000E+00;  3.4679938E-02;  6.3905499E+02;
  3.5993394E-01;  9.9999998E-03; -1.4000349E-01;1595; -4.1590229E-02;  0.0000000E+00; -3.0049831E-03;  1.0005039E+03;  4.0000001E-01;  4.1746942E+02;3; -1.8515491E+01;  0.0000000E+00; -1.9762981E+00;0; -2.4640264E-01;  1.0011156E+04;  0.0000000E+00;  5.4648158E-08;  1.0000000E+04;  0.0000000E+00;  9.9989219E+03; -2.7747282E-01;  0.0000000E+00;  3.1070193E-02;  5.3503424E+02;
  3.5993519E-01;  9.9999998E-03; -1.2000259E-01;1596; -4.0889658E-02;  0.0000000E+00; -2.4091692E-03;  1.0005001E+03;  4.0000001E-01;  4.1430902E+02;3; -1.8373028E+01;  0.0000000E+00; -1.7211469E+00;0; -2.4481206E-01;  1.0010893E+04;  0.0000000E+00;  5.2131913E-08;  1.0000000E+04;  0.0000000E+00;  9.9991123E+03; -2.7247295E-01;  0.0000000E+00;  2.7660895E-02;  4.4480722E+02;
  3.5993639E-01;  9.9999998E-03; -1.0000187E-01;1597; -4.0234994E-02;  0.0000000E+00; -1.8801305E-03;  1.0004962E+03;  4.0000001E-01;  4.1104987E+02;3; -1.8229029E+01;  0.0000000E+00; -1.4504565E+00;0; -2.4337077E-01;  1.0010652E+04;  0.0000000E+00;  6.5857570E-08;  1.0000000E+04;  0.0000000E+00;  9.9992734E+03; -2.6784390E-01;  0.0000000E+00;  2.4473127E-02;  3.6766037E+02;
  3.5993737E-01;  9.9999998E-03; -8.0001310E-02;1598; -3.9658856E-02;  0.0000000E+00; -1.4166477E-03;  1.0004928E+03;  4.0000001E-01;  4.0828452E+02;3; -1.8093649E+01;  0.0000000E+00; -1.1702286E+00;0; -2.4219257E-01;  1.0010449E+04;  0.0000000E+00;  6.3566482E-08;  1.0000000E+04;  0.0000000E+00;  9.9994082E+03; -2.6380053E-01;  0.0000000E+00;  2.1607963E-02;  3.0376825E+02;
  3.5993820E-01;  9.9999998E-03; -6.0000874E-02;1599; -3.9187104E-02;  0.0000000E+00; -1.0072991E-03;  1.0004899E+03;  4.0000001E-01;  4.0581543E+02;3; -1.7977108E+01;  0.0000000E+00; -8.7589866E-01;0; -2.4130328E-01;  1.0010285E+04;  0.0000000E+00;  4.7077606E-08;  1.0000000E+04;  0.0000000E+00;  9.9995146E+03; -2.6050514E-01;  0.0000000E+00;  1.9201865E-02;  2.5365643E+02;
  3.5993880E-01;  9.9999998E-03; -4.0000532E-02;1600; -3.8838722E-02;  0.0000000E+00; -6.4527080E-04;  1.0004879E+03;  4.0000001E-01;  4.0413647E+02;3; -1.7888374E+01;  0.0000000E+00; -5.8460921E-01;0; -2.4069038E-01;  1.0010167E+04;  0.0000000E+00;  2.1125295E-08;  1.0000000E+04;  0.0000000E+00;  9.9995928E+03; -2.5807381E-01;  0.0000000E+00;  1.7383423E-02;  2.1772108E+02;
  3.5993916E-01;  9.9999998E-03; -2.0000251E-02;1601; -3.8625512E-02;  0.0000000E+00; -3.1442652E-04;  1.0004866E+03;  4.0000001E-01;  4.0314883E+02;3; -1.7832512E+01;  0.0000000E+00; -2.9174715E-01;0; -2.4033350E-01;  1.0010095E+04;  0.0000000E+00;  7.2255397E-09;  1.0000000E+04;  0.0000000E+00;  9.9996377E+03; -2.5658509E-01;  0.0000000E+00;  1.6251592E-02;  1.9613954E+02;
  3.7991932E-01;  9.9999998E-03; -1.8000697E-01;1624; -4.9132459E-02;  0.0000000E+00; -5.1704124E-03;  1.0005859E+03;  4.0000001E-01;  4.8541800E+02;3; -2.0695599E+01;  0.0000000E+00; -2.8179500E+00;0; -2.7754009E-01;  1.0013522E+04;  0.0000000E+00; -4.3417572E-08;  1.0000000E+04;  0.0000000E+00;  9.9981992E+03; -3.2183990E-01;  0.0000000E+00;  4.4299796E-02;  8.8591333E+02;
  3.7992087E-01;  9.9999998E-03; -1.6000539E-01;1625; -4.8377849E-02;  0.0000000E+00; -4.3072714E-03;  1.0005834E+03;  4.0000001E-01;  4.8334399E+02;3; -2.0620697E+01;  0.0000000E+00; -2.5723822E+00;0; -2.7618119E-01;  1.0013195E+04;  0.0000000E+00;  8.6421593E-08;  1.0000000E+04;  0.0000000E+00;  9.9984785E+03; -3.1655243E-01;  0.0000000E+00;  4.0371228E-02;  7.5201190E+02;
  3.7992248E-01;  9.9999998E-03; -1.4000410E-01;1626; -4.7559328E-02;  0.0000000E+00; -3.5206696E-03;  1.0005796E+03;  4.0000001E-01;  4.8018359E+02;3; -2.0514591E+01;  0.0000000E+00; -2.3008382E+00;0; -2.7454334E-01;  1.0012864E+04;  0.0000000E+00;  3.2034063E-08;  1.0000000E+04;  0.0000000E+00;  9.9987305E+03; -3.1094512E-01;  0.0000000E+00;  3.6401782E-02;  6.3045673E+02;
  3.7992406E-01;  9.9999998E-03; -1.2000303E-01;1627; -4.6744943E-02;  0.0000000E+00; -2.8110428E-03;  1.0005746E+03;  4.0000001E-01;  4.7603555E+02;3; -2.0385502E+01;  0.0000000E+00; -2.0072222E+00;0; -2.7287635E-01;  1.0012547E+04;  0.0000000E+00;  1.0322076E-08;  1.0000000E+04;  0.0000000E+00;  9.9989512E+03; -3.0538771E-01;  0.0000000E+00;  3.2511361E-02;  5.2505219E+02;
  3.7992549E-01;  9.9999998E-03; -1.0000218E-01;1628; -4.5989040E-02;  0.0000000E+00; -2.1841973E-03;  1.0005699E+03;  4.0000001E-01;  4.7218381E+02;3; -2.0253506E+01;  0.0000000E+00; -1.6883454E+00;0; -2.7141199E-01;  1.0012261E+04;  0.0000000E+00;  2.5547445E-08;  1.0000000E+04;  0.0000000E+00;  9.9991396E+03; -3.0020046E-01;  0.0000000E+00;  2.8788477E-02;  4.3528809E+02;
  3.7992671E-01;  9.9999998E-03; -8.0001526E-02;1629; -4.5326840E-02;  0.0000000E+00; -1.6402312E-03;  1.0005656E+03;  4.0000001E-01;  4.6852960E+02;3; -2.0129677E+01;  0.0000000E+00; -1.3601986E+00;0; -2.7024120E-01;  1.0012019E+04;  0.0000000E+00;  4.6145662E-08;  1.0000000E+04;  0.0000000E+00;  9.9992959E+03; -2.9564315E-01;  0.0000000E+00;  2.5401937E-02;  3.6141837E+02;
  3.7992769E-01;  9.9999998E-03; -6.0001019E-02;1630; -4.4786077E-02;  0.0000000E+00; -1.1645394E-03;  1.0005620E+03;  4.0000001E-01;  4.6556674E+02;3; -2.0023808E+01;  0.0000000E+00; -1.0211737E+00;0; -2.6936913E-01;  1.0011828E+04;  0.0000000E+00;  3.4352375E-08;  1.0000000E+04;  0.0000000E+00;  9.9994150E+03; -2.9191229E-01;  0.0000000E+00;  2.2543162E-02;  3.0389929E+02;
  3.7992844E-01;  9.9999998E-03; -4.0000618E-02;1631; -4.4386175E-02;  0.0000000E+00; -7.4292708E-04;  1.0005594E+03;  4.0000001E-01;  4.6339395E+02;3; -1.9941612E+01;  0.0000000E+00; -6.7756534E-01;0; -2.6877227E-01;  1.0011687E+04;  0.0000000E+00;  1.8854966E-08;  1.0000000E+04;  0.0000000E+00;  9.9995039E+03; -2.8915113E-01;  0.0000000E+00;  2.0378862E-02;  2.6293002E+02;
  3.7992886E-01;  9.9999998E-03; -2.0000292E-02;1632; -4.4141296E-02;  0.0000000E+00; -3.6151393E-04;  1.0005577E+03;  4.0000001E-01;  4.6211005E+02;3; -1.9888695E+01;  0.0000000E+00; -3.3994442E-01;0; -2.6842508E-01;  1.0011600E+04;  0.0000000E+00;  6.8351547E-09;  1.0000000E+04;  0.0000000E+00;  9.9995547E+03; -2.8745627E-01;  0.0000000E+00;  1.9031206E-02;  2.3845261E+02;
  3.9990532E-01;  9.9999998E-03; -1.8000814E-01;1655; -5.6068800E-02;  0.0000000E+00; -5.9881634E-03;  1.0006746E+03;  4.0000001E-01;  5.5889722E+02;3; -2.2785467E+01;  0.0000000E+00; -3.1967044E+00;0; -3.0882052E-01;  1.0015581E+04;  0.0000000E+00; -3.9387963E-08;  1.0000000E+04;  0.0000000E+00;  9.9979141E+03; -3.5936269E-01;  0.0000000E+00;  5.0542165E-02;  1.0278575E+03;
  3.9990726E-01;  9.9999998E-03; -1.6000630E-01;1656; -5.5188142E-02;  0.0000000E+00; -4.9826582E-03;  1.0006707E+03;  4.0000001E-01;  5.5563806E+02;3; -2.2733759E+01;  0.0000000E+00; -2.9261270E+00;0; -3.0715472E-01;  1.0015186E+04;  0.0000000E+00;  8.8391516E-08;  1.0000000E+04;  0.0000000E+00;  9.9982334E+03; -3.5357201E-01;  0.0000000E+00;  4.6417292E-02;  8.7348395E+02;
  3.9990929E-01;  9.9999998E-03; -1.4000478E-01;1657; -5.4240249E-02;  0.0000000E+00; -4.0619555E-03;  1.0006652E+03;  4.0000001E-01;  5.5109497E+02;3; -2.2653114E+01;  0.0000000E+00; -2.6202729E+00;0; -3.0526349E-01;  1.0014791E+04;  0.0000000E+00; -8.1659429E-08;  1.0000000E+04;  0.0000000E+00;  9.9985195E+03; -3.4736809E-01;  0.0000000E+00;  4.2104591E-02;  7.3446307E+02;
  3.9991120E-01;  9.9999998E-03; -1.2000354E-01;1658; -5.3301591E-02;  0.0000000E+00; -3.2317201E-03;  1.0006589E+03;  4.0000001E-01;  5.4586060E+02;3; -2.2550398E+01;  0.0000000E+00; -2.2850649E+00;0; -3.0341357E-01;  1.0014411E+04;  0.0000000E+00; -1.5591974E-07;  1.0000000E+04;  0.0000000E+00;  9.9987705E+03; -3.4116986E-01;  0.0000000E+00;  3.7756298E-02;  6.1498730E+02;
  3.9991295E-01;  9.9999998E-03; -1.0000256E-01;1659; -5.2432291E-02;  0.0000000E+00; -2.5002242E-03;  1.0006525E+03;  4.0000001E-01;  5.4062616E+02;3; -2.2439238E+01;  0.0000000E+00; -1.9167049E+00;0; -3.0182862E-01;  1.0014072E+04;  0.0000000E+00; -1.0353653E-07;  1.0000000E+04;  0.0000000E+00;  9.9989805E+03; -3.3534664E-01;  0.0000000E+00;  3.3518020E-02;  5.1413403E+02;
  3.9991444E-01;  9.9999998E-03; -8.0001801E-02;1660; -5.1673036E-02;  0.0000000E+00; -1.8700062E-03;  1.0006470E+03;  4.0000001E-01;  5.3608307E+02;3; -2.2335411E+01;  0.0000000E+00; -1.5411854E+00;0; -3.0057889E-01;  1.0013788E+04;  0.0000000E+00; -3.5437409E-08;  1.0000000E+04;  0.0000000E+00;  9.9991543E+03; -3.3020216E-01;  0.0000000E+00;  2.9623285E-02;  4.3185309E+02;
  3.9991564E-01;  9.9999998E-03; -6.0001206E-02;1661; -5.1054213E-02;  0.0000000E+00; -1.3253575E-03;  1.0006423E+03;  4.0000001E-01;  5.3213257E+02;3; -2.2245752E+01;  0.0000000E+00; -1.1552860E+00;0; -2.9965213E-01;  1.0013560E+04;  0.0000000E+00; -8.2190539E-09;  1.0000000E+04;  0.0000000E+00;  9.9992900E+03; -3.2597220E-01;  0.0000000E+00;  2.6320066E-02;  3.6831842E+02;
  3.9991650E-01;  9.9999998E-03; -4.0000737E-02;1662; -5.0596032E-02;  0.0000000E+00; -8.4344554E-04;  1.0006389E+03;  4.0000001E-01;  5.2936725E+02;3; -2.2175320E+01;  0.0000000E+00; -7.6467466E-01;0; -2.9901531E-01;  1.0013398E+04;  0.0000000E+00; -3.6378720E-09;  1.0000000E+04;  0.0000000E+00;  9.9993867E+03; -3.2283050E-01;  0.0000000E+00;  2.3815189E-02;  3.2340240E+02;
  3.9991704E-01;  9.9999998E-03; -2.0000350E-02;1663; -5.0314970E-02;  0.0000000E+00; -4.1015132E-04;  1.0006370E+03;  4.0000001E-01;  5.2778705E+02;3; -2.2128077E+01;  0.0000000E+00; -3.8619795E-01;0; -2.9864341E-01;  1.0013298E+04;  0.0000000E+00;  1.8482629E-09;  1.0000000E+04;  0.0000000E+00;  9.9994434E+03; -3.2089826E-01;  0.0000000E+00;  2.2254854E-02;  2.9671982E+02;
  4.1988921E-01;  9.9999998E-03; -1.8000948E-01;1686; -6.3795321E-02;  0.0000000E+00; -6.8649445E-03;  1.0007753E+03;  4.0000001E-01;  6.4235138E+02;3; -2.4986385E+01;  0.0000000E+00; -3.5742702E+00;0; -3.4296909E-01;  1.0017900E+04;  0.0000000E+00; -1.9728416E-08;  1.0000000E+04;  0.0000000E+00;  9.9976094E+03; -4.0008992E-01;  0.0000000E+00;  5.7120819E-02;  1.1787821E+03;
  4.1989166E-01;  9.9999998E-03; -1.6000737E-01;1687; -6.2778957E-02;  0.0000000E+00; -5.7044956E-03;  1.0007693E+03;  4.0000001E-01;  6.3731451E+02;3; -2.4973196E+01;  0.0000000E+00; -3.2690787E+00;0; -3.4085292E-01;  1.0017419E+04;  0.0000000E+00;  5.2782037E-09;  1.0000000E+04;  0.0000000E+00;  9.9979727E+03; -3.9365584E-01;  0.0000000E+00;  5.2802935E-02;  1.0036733E+03;
  4.1989413E-01;  9.9999998E-03; -1.4000562E-01;1688; -6.1689191E-02;  0.0000000E+00; -4.6409001E-03;  1.0007616E+03;  4.0000001E-01;  6.3099371E+02;3; -2.4932266E+01;  0.0000000E+00; -2.9230478E+00;0; -3.3855096E-01;  1.0016946E+04;  0.0000000E+00; -3.6734269E-07;  1.0000000E+04;  0.0000000E+00;  9.9982900E+03; -3.8674855E-01;  0.0000000E+00;  4.8197601E-02;  8.4905585E+02;
  4.1989648E-01;  9.9999998E-03; -1.2000420E-01;1689; -6.0612429E-02;  0.0000000E+00; -3.6837065E-03;  1.0007529E+03;  4.0000001E-01;  6.2378406E+02;3; -2.4867470E+01;  0.0000000E+00; -2.5407748E+00;0; -3.3635181E-01;  1.0016500E+04;  0.0000000E+00; -4.7082466E-07;  1.0000000E+04;  0.0000000E+00;  9.9985625E+03; -3.7982014E-01;  0.0000000E+00;  4.3468341E-02;  7.1856317E+02;
  4.1989863E-01;  9.9999998E-03; -1.0000307E-01;1690; -5.9616283E-02;  0.0000000E+00; -2.8418226E-03;  1.0007444E+03;  4.0000001E-01;  6.1677191E+02;3; -2.4789560E+01;  0.0000000E+00; -2.1234343E+00;0; -3.3448610E-01;  1.0016105E+04;  0.0000000E+00; -3.4343822E-07;  1.0000000E+04;  0.0000000E+00;  9.9987910E+03; -3.7328127E-01;  0.0000000E+00;  3.8795177E-02;  6.0991022E+02;
  4.1990042E-01;  9.9999998E-03; -8.0002189E-02;1691; -5.8747210E-02;  0.0000000E+00; -2.1199747E-03;  1.0007371E+03;  4.0000001E-01;  6.1064862E+02;3; -2.4715000E+01;  0.0000000E+00; -1.7012212E+00;0; -3.3301386E-01;  1.0015771E+04;  0.0000000E+00; -1.8849833E-07;  1.0000000E+04;  0.0000000E+00;  9.9989736E+03; -3.6747712E-01;  0.0000000E+00;  3.4463249E-02;  5.2220587E+02;
  4.1990185E-01;  9.9999998E-03; -6.0001489E-02;1692; -5.8038678E-02;  0.0000000E+00; -1.4993293E-03;  1.0007311E+03;  4.0000001E-01;  6.0571051E+02;3; -2.4647457E+01;  0.0000000E+00; -1.2700398E+00;0; -3.3191299E-01;  1.0015509E+04;  0.0000000E+00; -9.7177129E-08;  1.0000000E+04;  0.0000000E+00;  9.9991172E+03; -3.6268511E-01;  0.0000000E+00;  3.0772118E-02;  4.5509763E+02;
  4.1990289E-01;  9.9999998E-03; -4.0000923E-02;1693; -5.7513915E-02;  0.0000000E+00; -9.5370732E-04;  1.0007267E+03;  4.0000001E-01;  6.0205627E+02;3; -2.4593946E+01;  0.0000000E+00; -8.3770514E-01;0; -3.3114687E-01;  1.0015318E+04;  0.0000000E+00; -4.1308926E-08;  1.0000000E+04;  0.0000000E+00;  9.9992158E+03; -3.5911441E-01;  0.0000000E+00;  2.7967531E-02;  4.0803040E+02;
  4.1990352E-01;  9.9999998E-03; -2.0000441E-02;1694; -5.7191264E-02;  0.0000000E+00; -4.6392041E-04;  1.0007238E+03;  4.0000001E-01;  5.9968597E+02;3; -2.4554943E+01;  0.0000000E+00; -4.2595714E-01;0; -3.3069295E-01;  1.0015207E+04;  0.0000000E+00; -1.0841501E-08;  1.0000000E+04;  0.0000000E+00;  9.9992783E+03; -3.5691249E-01;  0.0000000E+00;  2.6219549E-02;  3.8024060E+02;
  4.3987074E-01;  9.9999998E-03; -1.8001109E-01;1717; -7.2379097E-02;  0.0000000E+00; -7.8220256E-03;  1.0008882E+03;  4.0000001E-01;  7.3587921E+02;3; -2.7297438E+01;  0.0000000E+00; -3.9375849E+00;0; -3.7990588E-01;  1.0020487E+04;  0.0000000E+00; -2.3934247E-08;  1.0000000E+04;  0.0000000E+00;  9.9972939E+03; -4.4385761E-01;  0.0000000E+00;  6.3951723E-02;  1.3379197E+03;
  4.3987375E-01;  9.9999998E-03; -1.6000871E-01;1718; -7.1212523E-02;  0.0000000E+00; -6.5005352E-03;  1.0008793E+03;  4.0000001E-01;  7.2847198E+02;3; -2.7338179E+01;  0.0000000E+00; -3.5890348E+00;0; -3.7713605E-01;  1.0019911E+04;  0.0000000E+00; -2.3767905E-07;  1.0000000E+04;  0.0000000E+00;  9.9976895E+03; -4.3662876E-01;  0.0000000E+00;  5.9492700E-02;  1.1442742E+03;
  4.3987682E-01;  9.9999998E-03; -1.4000675E-01;1719; -6.9964230E-02;  0.0000000E+00; -5.2890992E-03;  1.0008683E+03;  4.0000001E-01;  7.1938586E+02;3; -2.7352407E+01;  0.0000000E+00; -3.1951320E+00;0; -3.7419310E-01;  1.0019346E+04;  0.0000000E+00; -8.1027673E-07;  1.0000000E+04;  0.0000000E+00;  9.9980293E+03; -4.2891806E-01;  0.0000000E+00;  5.4724969E-02;  9.7874786E+02;
  4.3987969E-01;  9.9999998E-03; -1.2000514E-01;1720; -6.8732612E-02;  0.0000000E+00; -4.1984711E-03;  1.0008565E+03;  4.0000001E-01;  7.0960840E+02;3; -2.7338137E+01;  0.0000000E+00; -2.7627165E+00;0; -3.7140188E-01;  1.0018827E+04;  0.0000000E+00; -8.9374140E-07;  1.0000000E+04;  0.0000000E+00;  9.9983125E+03; -4.2118785E-01;  0.0000000E+00;  4.9785964E-02;  8.4291534E+02;
  4.3988225E-01;  9.9999998E-03; -1.0000384E-01;1721; -6.7592874E-02;  0.0000000E+00; -3.2403057E-03;  1.0008452E+03;  4.0000001E-01;  7.0022595E+02;3; -2.7304756E+01;  0.0000000E+00; -2.2952428E+00;0; -3.6902082E-01;  1.0018367E+04;  0.0000000E+00; -6.4693211E-07;  1.0000000E+04;  0.0000000E+00;  9.9985449E+03; -4.1387340E-01;  0.0000000E+00;  4.4852600E-02;  7.3186346E+02;
  4.3988442E-01;  9.9999998E-03; -8.0002792E-02;1722; -6.6598780E-02;  0.0000000E+00; -2.4182100E-03;  1.0008356E+03;  4.0000001E-01;  6.9222620E+02;3; -2.7268221E+01;  0.0000000E+00; -1.8280257E+00;0; -3.6711949E-01;  1.0017984E+04;  0.0000000E+00; -3.6798153E-07;  1.0000000E+04;  0.0000000E+00;  9.9987344E+03; -4.0735769E-01;  0.0000000E+00;  4.0238194E-02;  6.4326074E+02;
  4.3988612E-01;  9.9999998E-03; -6.0001943E-02;1723; -6.5787159E-02;  0.0000000E+00; -1.7107694E-03;  1.0008278E+03;  4.0000001E-01;  6.8580664E+02;3; -2.7230162E+01;  0.0000000E+00; -1.3604144E+00;0; -3.6567369E-01;  1.0017684E+04;  0.0000000E+00; -1.8576314E-07;  1.0000000E+04;  0.0000000E+00;  9.9988789E+03; -4.0195671E-01;  0.0000000E+00;  3.6283012E-02;  5.7605481E+02;
  4.3988737E-01;  9.9999998E-03; -4.0001225E-02;1724; -6.5185726E-02;  0.0000000E+00; -1.0896943E-03;  1.0008220E+03;  4.0000001E-01;  6.8096729E+02;3; -2.7198303E+01;  0.0000000E+00; -8.9765495E-01;0; -3.6465088E-01;  1.0017469E+04;  0.0000000E+00; -8.3876202E-08;  1.0000000E+04;  0.0000000E+00;  9.9989766E+03; -3.9791909E-01;  0.0000000E+00;  3.3268217E-02;  5.2927094E+02;
  4.3988812E-01;  9.9999998E-03; -2.0000594E-02;1725; -6.4814828E-02;  0.0000000E+00; -5.2868074E-04;  1.0008183E+03;  4.0000001E-01;  6.7790564E+02;3; -2.7171389E+01;  0.0000000E+00; -4.4711792E-01;0; -3.6403632E-01;  1.0017338E+04;  0.0000000E+00; -1.7415346E-08;  1.0000000E+04;  0.0000000E+00;  9.9990371E+03; -3.9542317E-01;  0.0000000E+00;  3.1386841E-02;  5.0181494E+02;
  4.5984960E-01;  9.9999998E-03; -1.8001316E-01;1748; -8.1893206E-02;  0.0000000E+00; -8.9063905E-03;  1.0010146E+03;  4.0000060E-01;  8.4056689E+02;3; -2.9715544E+01;  0.0000000E+00; -4.2743745E+00;0; -4.1911700E-01;  1.0023320E+04;  0.0000000E+00;  2.1302367E-07;  1.0000000E+04;  0.0000000E+00;  9.9969541E+03; -4.9003732E-01;  0.0000000E+00;  7.0920318E-02;  1.5067527E+03;
  4.5985332E-01;  9.9999998E-03; -1.6001056E-01;1749; -8.0557518E-02;  0.0000000E+00; -7.4276058E-03;  1.0010012E+03;  4.0000060E-01;  8.2940674E+02;3; -2.9827250E+01;  0.0000000E+00; -3.8723171E+00;0; -4.1541088E-01;  1.0022631E+04;  0.0000000E+00; -4.4432201E-07;  1.0000000E+04;  0.0000000E+00;  9.9973760E+03; -4.8187673E-01;  0.0000000E+00;  6.6465847E-02;  1.3003445E+03;
  4.5985705E-01;  9.9999998E-03; -1.4000838E-01;1750; -7.9130270E-02;  0.0000000E+00; -6.0676485E-03;  1.0009856E+03;  4.0000069E-01;  8.1656763E+02;3; -2.9911554E+01;  0.0000000E+00; -3.4233994E+00;0; -4.1151118E-01;  1.0021973E+04;  0.0000000E+00; -1.2285057E-06;  1.0000000E+04;  0.0000000E+00;  9.9977236E+03; -4.7330144E-01;  0.0000000E+00;  6.1790261E-02;  1.1321703E+03;
  4.5986053E-01;  9.9999998E-03; -1.2000654E-01;1751; -7.7723548E-02;  0.0000000E+00; -4.8365216E-03;  1.0009695E+03;  4.0000066E-01;  8.0323474E+02;3; -2.9960728E+01;  0.0000000E+00; -2.9364476E+00;0; -4.0780094E-01;  1.0021376E+04;  0.0000000E+00; -1.2685429E-06;  1.0000000E+04;  0.0000000E+00;  9.9979990E+03; -4.6474686E-01;  0.0000000E+00;  5.6945931E-02;  9.9962897E+02;
  4.5986360E-01;  9.9999998E-03; -1.0000502E-01;1752; -7.6419815E-02;  0.0000000E+00; -3.7523350E-03;  1.0009547E+03;  4.0000057E-01;  7.9098816E+02;3; -2.9979847E+01;  0.0000000E+00; -2.4283335E+00;0; -4.0459871E-01;  1.0020855E+04;  0.0000000E+00; -8.7801317E-07;  1.0000000E+04;  0.0000000E+00;  9.9982207E+03; -4.5664918E-01;  0.0000000E+00;  5.2050486E-02;  8.9366632E+02;
  4.5986620E-01;  9.9999998E-03; -8.0003761E-02;1753; -7.5283416E-02;  0.0000000E+00; -2.8115918E-03;  1.0009420E+03;  4.0000057E-01;  7.8042059E+02;3; -2.9991461E+01;  0.0000000E+00; -1.9121183E+00;0; -4.0200162E-01;  1.0020420E+04;  0.0000000E+00; -4.9212014E-07;  1.0000000E+04;  0.0000000E+00;  9.9984004E+03; -4.4941500E-01;  0.0000000E+00;  4.7413375E-02;  8.0999408E+02;
  4.5986822E-01;  9.9999998E-03; -6.0002681E-02;1754; -7.4353516E-02;  0.0000000E+00; -1.9977109E-03;  1.0009319E+03;  4.0000054E-01;  7.7202582E+02;3; -2.9988203E+01;  0.0000000E+00; -1.4144804E+00;0; -3.9999467E-01;  1.0020084E+04;  0.0000000E+00; -2.4160693E-07;  1.0000000E+04;  0.0000000E+00;  9.9985322E+03; -4.4339606E-01;  0.0000000E+00;  4.3401387E-02;  7.4689813E+02;
  4.5986968E-01;  9.9999998E-03; -4.0001724E-02;1755; -7.3662765E-02;  0.0000000E+00; -1.2784300E-03;  1.0009244E+03;  4.0000057E-01;  7.6580377E+02;3; -2.9981043E+01;  0.0000000E+00; -9.4002098E-01;0; -3.9855468E-01;  1.0019843E+04;  0.0000000E+00; -1.0504983E-07;  1.0000000E+04;  0.0000000E+00;  9.9986289E+03; -4.3888089E-01;  0.0000000E+00;  4.0326215E-02;  7.0319977E+02;
  4.5987058E-01;  9.9999998E-03; -2.0000843E-02;1756; -7.3236145E-02;  0.0000000E+00; -6.2175264E-04;  1.0009200E+03;  4.0000060E-01;  7.6214954E+02;3; -2.9970348E+01;  0.0000000E+00; -4.6892002E-01;0; -3.9768070E-01;  1.0019697E+04;  0.0000000E+00; -2.5260315E-08;  1.0000000E+04;  0.0000000E+00;  9.9986836E+03; -4.3608269E-01;  0.0000000E+00;  3.8401995E-02;  6.7767548E+02;
  4.7982541E-01;  9.9999998E-03; -1.8001603E-01;1779; -9.2414498E-02;  0.0000000E+00; -1.0203722E-02;  1.0011494E+03;  4.0000185E-01;  9.5216772E+02;3; -3.2238960E+01;  0.0000000E+00; -4.5712409E+00;0; -4.5914808E-01;  1.0026331E+04;  0.0000000E+00;  1.8006691E-06;  1.0000000E+04;  0.0000000E+00;  9.9965850E+03; -5.3710955E-01;  0.0000000E+00;  7.7961475E-02;  1.6922100E+03;
  4.7983000E-01;  9.9999998E-03; -1.6001323E-01;1780; -9.0887733E-02;  0.0000000E+00; -8.5828090E-03;  1.0011304E+03;  4.0000185E-01;  9.3646454E+02;3; -3.2438538E+01;  0.0000000E+00; -4.1069465E+00;0; -4.5415238E-01;  1.0025521E+04;  0.0000000E+00;  2.2327119E-07;  1.0000000E+04;  0.0000000E+00;  9.9970156E+03; -5.2793115E-01;  0.0000000E+00;  7.3778778E-02;  1.4826735E+03;
  4.7983453E-01;  9.9999998E-03; -1.4001080E-01;1781; -8.9259036E-02;  0.0000000E+00; -7.0751263E-03;  1.0011092E+03;  4.0000182E-01;  9.1898358E+02;3; -3.2606747E+01;  0.0000000E+00; -3.5971425E+00;0; -4.4890544E-01;  1.0024770E+04;  0.0000000E+00; -9.7866302E-07;  1.0000000E+04;  0.0000000E+00;  9.9973398E+03; -5.1850474E-01;  0.0000000E+00;  6.9599293E-02;  1.3236295E+03;
  4.7983870E-01;  9.9999998E-03; -1.2000869E-01;1782; -8.7654583E-02;  0.0000000E+00; -5.6922804E-03;  1.0010876E+03;  4.0000176E-01;  9.0110760E+02;3; -3.2731922E+01;  0.0000000E+00; -3.0505960E+00;0; -4.4388115E-01;  1.0024098E+04;  0.0000000E+00; -1.2019127E-06;  1.0000000E+04;  0.0000000E+00;  9.9975850E+03; -5.0918865E-01;  0.0000000E+00;  6.5307491E-02;  1.2055886E+03;
  4.7984236E-01;  9.9999998E-03; -1.0000687E-01;1783; -8.6166844E-02;  0.0000000E+00; -4.4565299E-03;  1.0010683E+03;  4.0000185E-01;  8.8510809E+02;3; -3.2819546E+01;  0.0000000E+00; -2.4921834E+00;0; -4.3949699E-01;  1.0023520E+04;  0.0000000E+00; -8.4972987E-07;  1.0000000E+04;  0.0000000E+00;  9.9977754E+03; -5.0038511E-01;  0.0000000E+00;  6.0888104E-02;  1.1137131E+03;
  4.7984540E-01;  9.9999998E-03; -8.0005281E-02;1784; -8.4865913E-02;  0.0000000E+00; -3.3721346E-03;  1.0010522E+03;  4.0000173E-01;  8.7167639E+02;3; -3.2873447E+01;  0.0000000E+00; -1.9566058E+00;0; -4.3589595E-01;  1.0023041E+04;  0.0000000E+00; -4.6081044E-07;  1.0000000E+04;  0.0000000E+00;  9.9979268E+03; -4.9250212E-01;  0.0000000E+00;  5.6606185E-02;  1.0414504E+03;
  4.7984779E-01;  9.9999998E-03; -6.0003843E-02;1785; -8.3800815E-02;  0.0000000E+00; -2.4154901E-03;  1.0010394E+03;  4.0000182E-01;  8.6110883E+02;3; -3.2910057E+01;  0.0000000E+00; -1.4341702E+00;0; -4.3307990E-01;  1.0022669E+04;  0.0000000E+00; -2.1751202E-07;  1.0000000E+04;  0.0000000E+00;  9.9980449E+03; -4.8591888E-01;  0.0000000E+00;  5.2838989E-02;  9.8678894E+02;
  4.7984952E-01;  9.9999998E-03; -4.0002514E-02;1786; -8.3007976E-02;  0.0000000E+00; -1.5579017E-03;  1.0010302E+03;  4.0000182E-01;  8.5350415E+02;3; -3.2930435E+01;  0.0000000E+00; -9.5130599E-01;0; -4.3103951E-01;  1.0022402E+04;  0.0000000E+00; -9.1485788E-08;  1.0000000E+04;  0.0000000E+00;  9.9981279E+03; -4.8096204E-01;  0.0000000E+00;  4.9922518E-02;  9.4885333E+02;
  4.7985056E-01;  9.9999998E-03; -2.0001244E-02;1787; -8.2516961E-02;  0.0000000E+00; -7.6163065E-04;  1.0010247E+03;  4.0000173E-01;  8.4886230E+02;3; -3.2936653E+01;  0.0000000E+00; -4.7032711E-01;0; -4.2979318E-01;  1.0022241E+04;  0.0000000E+00; -2.5720775E-08;  1.0000000E+04;  0.0000000E+00;  9.9981777E+03; -4.7788173E-01;  0.0000000E+00;  4.8088558E-02;  9.2670435E+02;
  4.9979785E-01;  9.9999998E-03; -1.8002018E-01;1810; -1.0401189E-01;  0.0000000E+00; -1.1849610E-02;  1.0012850E+03;  4.0000418E-01;  1.0646570E+03;3; -3.4864323E+01;  0.0000000E+00; -4.8178782E+00;0; -4.9698135E-01;  1.0029359E+04;  0.0000000E+00;  7.2590801E-06;  1.0000000E+04;  0.0000000E+00;  9.9961533E+03; -5.8216172E-01;  0.0000000E+00;  8.5180379E-02;  1.9109000E+03;
  4.9980345E-01;  9.9999998E-03; -1.6001718E-01;1811; -1.0227134E-01;  0.0000000E+00; -1.0112155E-02;  1.0012589E+03;  4.0000412E-01;  1.0429293E+03;3; -3.5163887E+01;  0.0000000E+00; -4.3003082E+00;0; -4.9033198E-01;  1.0028434E+04;  0.0000000E+00;  4.0352561E-06;  1.0000000E+04;  0.0000000E+00;  9.9965586E+03; -5.7197273E-01;  0.0000000E+00;  8.1640750E-02;  1.7101875E+03;
  4.9980888E-01;  9.9999998E-03; -1.4001445E-01;1812; -1.0042163E-01;  0.0000000E+00; -8.4498674E-03;  1.0012307E+03;  4.0000412E-01;  1.0196214E+03;3; -3.5434017E+01;  0.0000000E+00; -3.7084348E+00;0; -4.8332268E-01;  1.0027593E+04;  0.0000000E+00;  1.6247067E-06;  1.0000000E+04;  0.0000000E+00;  9.9968330E+03; -5.6181461E-01;  0.0000000E+00;  7.8491934E-02;  1.5740153E+03;
  4.9981382E-01;  9.9999998E-03; -1.2001195E-01;1813; -9.8598219E-02;  0.0000000E+00; -6.8919822E-03;  1.0012035E+03;  4.0000412E-01;  9.9710364E+02;3; -3.5643463E+01;  0.0000000E+00; -3.1029963E+00;0; -4.7656453E-01;  1.0026856E+04;  0.0000000E+00;  2.1839807E-07;  1.0000000E+04;  0.0000000E+00;  9.9970186E+03; -5.5191511E-01;  0.0000000E+00;  7.5350590E-02;  1.4828469E+03;
  4.9981815E-01;  9.9999998E-03; -1.0000966E-01;1814; -9.6905246E-02;  0.0000000E+00; -5.4663946E-03;  1.0011791E+03;  4.0000412E-01;  9.7685736E+02;3; -3.5803406E+01;  0.0000000E+00; -2.4973106E+00;0; -4.7061393E-01;  1.0026228E+04;  0.0000000E+00; -1.7899997E-07;  1.0000000E+04;  0.0000000E+00;  9.9971621E+03; -5.4259437E-01;  0.0000000E+00;  7.1980454E-02;  1.4143445E+03;
  4.9982169E-01;  9.9999998E-03; -8.0007568E-02;1815; -9.5419295E-02;  0.0000000E+00; -4.1843229E-03;  1.0011589E+03;  4.0000409E-01;  9.6016656E+02;3; -3.5915134E+01;  0.0000000E+00; -1.9185566E+00;0; -4.6568316E-01;  1.0025712E+04;  0.0000000E+00; -1.7279773E-07;  1.0000000E+04;  0.0000000E+00;  9.9972764E+03; -5.3423536E-01;  0.0000000E+00;  6.8552181E-02;  1.3595819E+03;
  4.9982449E-01;  9.9999998E-03; -6.0005601E-02;1816; -9.4198406E-02;  0.0000000E+00; -3.0336678E-03;  1.0011437E+03;  4.0000409E-01;  9.4752496E+02;3; -3.5983757E+01;  0.0000000E+00; -1.4031296E+00;0; -4.6179649E-01;  1.0025311E+04;  0.0000000E+00; -1.0178362E-07;  1.0000000E+04;  0.0000000E+00;  9.9973682E+03; -5.2722889E-01;  0.0000000E+00;  6.5432400E-02;  1.3169548E+03;
  4.9982649E-01;  9.9999998E-03; -4.0003706E-02;1817; -9.3289711E-02;  0.0000000E+00; -1.9735543E-03;  1.0011324E+03;  4.0000418E-01;  9.3814258E+02;3; -3.6030746E+01;  0.0000000E+00; -9.1416842E-01;0; -4.5896149E-01;  1.0025023E+04;  0.0000000E+00; -4.6808072E-08;  1.0000000E+04;  0.0000000E+00;  9.9974355E+03; -5.2193177E-01;  0.0000000E+00;  6.2970273E-02;  1.2867087E+03;
  4.9982768E-01;  9.9999998E-03; -2.0001845E-02;1818; -9.2725977E-02;  0.0000000E+00; -9.7131793E-04;  1.0011262E+03;  4.0000424E-01;  9.3300690E+02;3; -3.6055031E+01;  0.0000000E+00; -4.5035112E-01;0; -4.5722139E-01;  1.0024852E+04;  0.0000000E+00; -1.1538585E-08;  1.0000000E+04;  0.0000000E+00;  9.9974736E+03; -5.1862913E-01;  0.0000000E+00;  6.1407737E-02;  1.2688376E+03;
  5.1976675E-01;  9.9999998E-03; -1.8002628E-01;1841; -1.1671587E-01;  0.0000000E+00; -1.4034550E-02;  1.0014141E+03;  4.0001142E-01;  1.1715161E+03;3; -3.7584980E+01;  0.0000000E+00; -4.9977942E+00;0; -5.2751905E-01;  1.0032142E+04;  0.0000000E+00;  1.9286974E-05;  1.0000000E+04;  0.0000000E+00;  9.9955820E+03; -6.2052763E-01;  0.0000000E+00;  9.3008555E-02;  2.1945146E+03;
  5.1977336E-01;  9.9999998E-03; -1.6002300E-01;1842; -1.1474831E-01;  0.0000000E+00; -1.2196501E-02;  1.0013808E+03;  4.0001163E-01;  1.1439615E+03;3; -3.8005905E+01;  0.0000000E+00; -4.4284863E+00;0; -5.1899534E-01;  1.0031107E+04;  0.0000000E+00;  1.3983285E-05;  1.0000000E+04;  0.0000000E+00;  9.9959473E+03; -6.0948682E-01;  0.0000000E+00;  9.0491481E-02;  2.0123572E+03;
  5.1977980E-01;  9.9999998E-03; -1.4001982E-01;1843; -1.1266323E-01;  0.0000000E+00; -1.0363230E-02;  1.0013453E+03;  4.0001157E-01;  1.1146292E+03;3; -3.8379669E+01;  0.0000000E+00; -3.7754722E+00;0; -5.0989455E-01;  1.0030196E+04;  0.0000000E+00;  9.2921855E-06;  1.0000000E+04;  0.0000000E+00;  9.9961475E+03; -5.9884763E-01;  0.0000000E+00;  8.8953078E-02;  1.9108757E+03;
  5.1978558E-01;  9.9999998E-03; -1.2001672E-01;1844; -1.1060647E-01;  0.0000000E+00; -8.5828332E-03;  1.0013113E+03;  4.0001151E-01;  1.0863832E+03;3; -3.8688793E+01;  0.0000000E+00; -3.0815721E+00;0; -5.0102812E-01;  1.0029410E+04;  0.0000000E+00;  4.7963308E-06;  1.0000000E+04;  0.0000000E+00;  9.9962500E+03; -5.8866757E-01;  0.0000000E+00;  8.7639436E-02;  1.8573290E+03;
  5.1979059E-01;  9.9999998E-03; -1.0001374E-01;1845; -1.0869013E-01;  0.0000000E+00; -6.9103208E-03;  1.0012819E+03;  4.0001148E-01;  1.0619890E+03;3; -3.8920612E+01;  0.0000000E+00; -2.4362733E+00;0; -4.9315140E-01;  1.0028745E+04;  0.0000000E+00;  2.0306418E-06;  1.0000000E+04;  0.0000000E+00;  9.9963262E+03; -5.7914448E-01;  0.0000000E+00;  8.5993081E-02;  1.8198837E+03;
  5.1979476E-01;  9.9999998E-03; -8.0010898E-02;1846; -1.0700282E-01;  0.0000000E+00; -5.3610182E-03;  1.0012580E+03;  4.0001148E-01;  1.0422366E+03;3; -3.9086205E+01;  0.0000000E+00; -1.8401388E+00;0; -4.8657399E-01;  1.0028201E+04;  0.0000000E+00;  7.3042008E-07;  1.0000000E+04;  0.0000000E+00;  9.9963975E+03; -5.7059920E-01;  0.0000000E+00;  8.4025204E-02;  1.7870198E+03;
  5.1979792E-01;  9.9999998E-03; -6.0008135E-02;1847; -1.0561115E-01;  0.0000000E+00; -3.9255526E-03;  1.0012399E+03;  4.0001160E-01;  1.0272247E+03;3; -3.9196075E+01;  0.0000000E+00; -1.3064368E+00;0; -4.8135549E-01;  1.0027779E+04;  0.0000000E+00;  2.3329740E-07;  1.0000000E+04;  0.0000000E+00;  9.9964551E+03; -5.6341231E-01;  0.0000000E+00;  8.2056805E-02;  1.7583733E+03;
  5.1980025E-01;  9.9999998E-03; -4.0005416E-02;1848; -1.0457011E-01;  0.0000000E+00; -2.5751386E-03;  1.0012272E+03;  4.0001154E-01;  1.0166572E+03;3; -3.9263569E+01;  0.0000000E+00; -8.3041936E-01;0; -4.7752762E-01;  1.0027479E+04;  0.0000000E+00;  5.1809959E-08;  1.0000000E+04;  0.0000000E+00;  9.9965029E+03; -5.5795556E-01;  0.0000000E+00;  8.0427960E-02;  1.7363594E+03;
  5.1980162E-01;  9.9999998E-03; -2.0002710E-02;1849; -1.0392462E-01;  0.0000000E+00; -1.2774466E-03;  1.0012199E+03;  4.0001145E-01;  1.0106327E+03;3; -3.9299908E+01;  0.0000000E+00; -4.0599975E-01;0; -4.7516921E-01;  1.0027299E+04;  0.0000000E+00;  7.6416136E-09;  1.0000000E+04;  0.0000000E+00;  9.9965303E+03; -5.5454206E-01;  0.0000000E+00;  7.9372853E-02;  1.7227545E+03;
  5.3973210E-01;  9.9999998E-03; -1.8003505E-01;1872; -1.3045700E-01;  0.0000000E+00; -1.6962780E-02;  1.0015289E+03;  4.0003082E-01;  1.2667206E+03;3; -4.0376064E+01;  0.0000000E+00; -5.0694051E+00;0; -5.4339719E-01;  1.0034276E+04;  0.0000000E+00;  3.5931957E-05;  1.0000000E+04;  0.0000000E+00;  9.9947656E+03; -6.4575756E-01;  0.0000000E+00;  1.0236035E-01;  2.5951902E+03;
  5.3973985E-01;  9.9999998E-03; -1.6003129E-01;1873; -1.2826486E-01;  0.0000000E+00; -1.5019345E-02;  1.0014900E+03;  4.0003103E-01;  1.2344254E+03;3; -4.0936710E+01;  0.0000000E+00; -4.4641619E+00;0; -5.3316343E-01;  1.0033165E+04;  0.0000000E+00;  2.9669047E-05;  1.0000000E+04;  0.0000000E+00;  9.9950889E+03; -6.3425112E-01;  0.0000000E+00;  1.0108768E-01;  2.4320024E+03;
  5.3974730E-01;  9.9999998E-03; -1.4002736E-01;1874; -1.2594418E-01;  0.0000000E+00; -1.2995108E-02;  1.0014484E+03;  4.0003076E-01;  1.1999575E+03;3; -4.1433353E+01;  0.0000000E+00; -3.7614558E+00;0; -5.2192783E-01;  1.0032216E+04;  0.0000000E+00;  2.3767709E-05;  1.0000000E+04;  0.0000000E+00;  9.9952090E+03; -6.2354529E-01;  0.0000000E+00;  1.0161745E-01;  2.3684724E+03;
  5.3975397E-01;  9.9999998E-03; -1.2002335E-01;1875; -1.2364747E-01;  0.0000000E+00; -1.0940606E-02;  1.0014085E+03;  4.0003088E-01;  1.1668722E+03;3; -4.1835289E+01;  0.0000000E+00; -3.0307949E+00;0; -5.1075768E-01;  1.0031403E+04;  0.0000000E+00;  1.4663540E-05;  1.0000000E+04;  0.0000000E+00;  9.9952197E+03; -6.1352313E-01;  0.0000000E+00;  1.0276543E-01;  2.3570962E+03;
  5.3975970E-01;  9.9999998E-03; -1.0001936E-01;1876; -1.2150022E-01;  0.0000000E+00; -8.9340378E-03;  1.0013744E+03;  4.0003091E-01;  1.1386263E+03;3; -4.2143490E+01;  0.0000000E+00; -2.3361847E+00;0; -5.0068593E-01;  1.0030723E+04;  0.0000000E+00;  7.2658900E-06;  1.0000000E+04;  0.0000000E+00;  9.9952207E+03; -6.0423601E-01;  0.0000000E+00;  1.0355005E-01;  2.3542295E+03;
  5.3976440E-01;  9.9999998E-03; -8.0015436E-02;1877; -1.1960032E-01;  0.0000000E+00; -7.0169014E-03;  1.0013474E+03;  4.0003097E-01;  1.1162074E+03;3; -4.2363533E+01;  0.0000000E+00; -1.7153963E+00;0; -4.9218789E-01;  1.0030163E+04;  0.0000000E+00;  2.9814842E-06;  1.0000000E+04;  0.0000000E+00;  9.9952383E+03; -5.9591800E-01;  0.0000000E+00;  1.0373011E-01;  2.3445815E+03;
  5.3976810E-01;  9.9999998E-03; -6.0011577E-02;1878; -1.1802571E-01;  0.0000000E+00; -5.1900558E-03;  1.0013273E+03;  4.0003100E-01;  1.0996154E+03;3; -4.2507542E+01;  0.0000000E+00; -1.1836556E+00;0; -4.8538569E-01;  1.0029730E+04;  0.0000000E+00;  1.0231148E-06;  1.0000000E+04;  0.0000000E+00;  9.9952656E+03; -5.8890295E-01;  0.0000000E+00;  1.0351726E-01;  2.3293999E+03;
  5.3977066E-01;  9.9999998E-03; -4.0007729E-02;1879; -1.1684235E-01;  0.0000000E+00; -3.4287742E-03;  1.0013132E+03;  4.0003097E-01;  1.0879614E+03;3; -4.2593063E+01;  0.0000000E+00; -7.3574716E-01;0; -4.8036140E-01;  1.0029424E+04;  0.0000000E+00;  3.0677433E-07;  1.0000000E+04;  0.0000000E+00;  9.9952920E+03; -5.8355564E-01;  0.0000000E+00;  1.0319424E-01;  2.3142859E+03;
  5.3977221E-01;  9.9999998E-03; -2.0003872E-02;1880; -1.1610582E-01;  0.0000000E+00; -1.7057866E-03;  1.0013051E+03;  4.0003094E-01;  1.0812456E+03;3; -4.2636581E+01;  0.0000000E+00; -3.5061702E-01;0; -4.7725007E-01;  1.0029236E+04;  0.0000000E+00;  6.7076108E-08;  1.0000000E+04;  0.0000000E+00;  9.9953145E+03; -5.8019865E-01;  0.0000000E+00;  1.0294858E-01;  2.3037556E+03;
  5.5969459E-01;  9.9999998E-03; -1.8004721E-01;1903; -1.4495729E-01;  0.0000000E+00; -2.0837909E-02;  1.0016489E+03;  4.0008327E-01;  1.3660718E+03;3; -4.3188728E+01;  0.0000000E+00; -5.0543065E+00;0; -5.3526545E-01;  1.0035250E+04;  0.0000000E+00;  4.5146917E-05;  1.0000000E+04;  0.0000000E+00;  9.9935518E+03; -6.4991105E-01;  0.0000000E+00;  1.1464562E-01;  3.1850891E+03;
  5.5970347E-01;  9.9999998E-03; -1.6004258E-01;1904; -1.4255990E-01;  0.0000000E+00; -1.8754074E-02;  1.0016086E+03;  4.0008333E-01;  1.3326903E+03;3; -4.3898960E+01;  0.0000000E+00; -4.4060535E+00;0; -5.2409017E-01;  1.0034130E+04;  0.0000000E+00;  4.0153915E-05;  1.0000000E+04;  0.0000000E+00;  9.9938633E+03; -6.3863921E-01;  0.0000000E+00;  1.1454906E-01;  3.0261624E+03;
  5.5971187E-01;  9.9999998E-03; -1.4003755E-01;1905; -1.4003257E-01;  0.0000000E+00; -1.6486753E-02;  1.0015642E+03;  4.0008330E-01;  1.2959509E+03;3; -4.4531597E+01;  0.0000000E+00; -3.6687758E+00;0; -5.1120925E-01;  1.0033177E+04;  0.0000000E+00;  3.9697552E-05;  1.0000000E+04;  0.0000000E+00;  9.9939268E+03; -6.2851053E-01;  0.0000000E+00;  1.1730126E-01;  2.9885129E+03;
  5.5971944E-01;  9.9999998E-03; -1.2003223E-01;1906; -1.3751645E-01;  0.0000000E+00; -1.4095861E-02;  1.0015207E+03;  4.0008336E-01;  1.2598042E+03;3; -4.5041756E+01;  0.0000000E+00; -2.8958871E+00;0; -4.9791965E-01;  1.0032369E+04;  0.0000000E+00;  2.8926323E-05;  1.0000000E+04;  0.0000000E+00;  9.9938643E+03; -6.1925793E-01;  0.0000000E+00;  1.2133828E-01;  3.0120808E+03;
  5.5972594E-01;  9.9999998E-03; -1.0002684E-01;1907; -1.3514294E-01;  0.0000000E+00; -1.1667166E-02;  1.0014836E+03;  4.0008336E-01;  1.2291880E+03;3; -4.5428703E+01;  0.0000000E+00; -2.1753128E+00;0; -4.8559794E-01;  1.0031696E+04;  0.0000000E+00;  1.6102706E-05;  1.0000000E+04;  0.0000000E+00;  9.9937910E+03; -6.1079586E-01;  0.0000000E+00;  1.2519792E-01;  3.0399045E+03;
  5.5973125E-01;  9.9999998E-03; -8.0021456E-02;1908; -1.3302787E-01;  0.0000000E+00; -9.2733642E-03;  1.0014544E+03;  4.0008330E-01;  1.2048927E+03;3; -4.5697285E+01;  0.0000000E+00; -1.5599314E+00;0; -4.7498280E-01;  1.0031147E+04;  0.0000000E+00;  7.0919514E-06;  1.0000000E+04;  0.0000000E+00;  9.9937588E+03; -6.0324383E-01;  0.0000000E+00;  1.2826103E-01;  3.0502363E+03;
  5.5973536E-01;  9.9999998E-03; -6.0016092E-02;1909; -1.3126375E-01;  0.0000000E+00; -6.9243140E-03;  1.0014332E+03;  4.0008342E-01;  1.1873131E+03;3; -4.5868744E+01;  0.0000000E+00; -1.0574746E+00;0; -4.6635252E-01;  1.0030719E+04;  0.0000000E+00;  2.5301813E-06;  1.0000000E+04;  0.0000000E+00;  9.9937598E+03; -5.9686339E-01;  0.0000000E+00;  1.3051088E-01;  3.0449214E+03;
  5.5973828E-01;  9.9999998E-03; -4.0010735E-02;1910; -1.2993036E-01;  0.0000000E+00; -4.6049352E-03;  1.0014188E+03;  4.0008351E-01;  1.1754617E+03;3; -4.5967968E+01;  0.0000000E+00; -6.4913642E-01;0; -4.5989978E-01;  1.0030414E+04;  0.0000000E+00;  7.5616413E-07;  1.0000000E+04;  0.0000000E+00;  9.9937764E+03; -5.9197825E-01;  0.0000000E+00;  1.3207848E-01;  3.0332539E+03;
  5.5974001E-01;  9.9999998E-03; -2.0005373E-02;1911; -1.2909620E-01;  0.0000000E+00; -2.2993684E-03;  1.0014104E+03;  4.0008342E-01;  1.1684496E+03;3; -4.6008041E+01;  0.0000000E+00; -3.0007958E-01;0; -4.5587116E-01;  1.0030230E+04;  0.0000000E+00;  1.5533344E-07;  1.0000000E+04;  0.0000000E+00;  9.9937969E+03; -5.8890003E-01;  0.0000000E+00;  1.3302885E-01;  3.0233398E+03;
  5.7965583E-01;  9.9999998E-03; -1.8006322E-01;1934; -1.5961118E-01;  0.0000000E+00; -2.5848808E-02;  1.0018663E+03;  4.0022227E-01;  1.5461090E+03;3; -4.5915157E+01;  0.0000000E+00; -4.9048576E+00;0; -4.9192858E-01;  1.0034423E+04;  0.0000000E+00;  2.6807706E-05;  1.0000000E+04;  0.0000000E+00;  9.9917715E+03; -6.2339741E-01;  0.0000000E+00;  1.3146883E-01;  4.0437830E+03;
  5.7966572E-01;  9.9999998E-03; -1.6005711E-01;1935; -1.5706545E-01;  0.0000000E+00; -2.3507750E-02;  1.0018318E+03;  4.0022218E-01;  1.5175670E+03;3; -4.6786861E+01;  0.0000000E+00; -4.1996913E+00;0; -4.8118234E-01;  1.0033366E+04;  0.0000000E+00;  2.2375958E-05;  1.0000000E+04;  0.0000000E+00;  9.9921328E+03; -6.1344272E-01;  0.0000000E+00;  1.3226038E-01;  3.8600005E+03;
  5.7967502E-01;  9.9999998E-03; -1.4005041E-01;1936; -1.5438180E-01;  0.0000000E+00; -2.0872170E-02;  1.0017906E+03;  4.0022227E-01;  1.4834944E+03;3; -4.7568878E+01;  0.0000000E+00; -3.4440041E+00;0; -4.6770340E-01;  1.0032478E+04;  0.0000000E+00;  4.1221945E-05;  1.0000000E+04;  0.0000000E+00;  9.9921963E+03; -6.0477740E-01;  0.0000000E+00;  1.3707398E-01;  3.8192832E+03;
  5.7968342E-01;  9.9999998E-03; -1.2004334E-01;1937; -1.5168394E-01;  0.0000000E+00; -1.8051425E-02;  1.0017484E+03;  4.0022230E-01;  1.4485328E+03;3; -4.8197578E+01;  0.0000000E+00; -2.6778541E+00;0; -4.5293102E-01;  1.0031723E+04;  0.0000000E+00;  3.9692164E-05;  1.0000000E+04;  0.0000000E+00;  9.9921006E+03; -5.9707123E-01;  0.0000000E+00;  1.4414021E-01;  3.8556001E+03;
  5.7969064E-01;  9.9999998E-03; -1.0003608E-01;1938; -1.4911668E-01;  0.0000000E+00; -1.5104470E-02;  1.0017113E+03;  4.0022233E-01;  1.4177192E+03;3; -4.8656601E+01;  0.0000000E+00; -1.9670672E+00;0; -4.3855262E-01;  1.0031093E+04;  0.0000000E+00;  2.5513831E-05;  1.0000000E+04;  0.0000000E+00;  9.9919854E+03; -5.9012187E-01;  0.0000000E+00;  1.5156925E-01;  3.8998071E+03;
  5.7969654E-01;  9.9999998E-03; -8.0028810E-02;1939; -1.4680760E-01;  0.0000000E+00; -1.2121203E-02;  1.0016823E+03;  4.0022230E-01;  1.3937202E+03;3; -4.8966682E+01;  0.0000000E+00; -1.3790690E+00;0; -4.2569375E-01;  1.0030581E+04;  0.0000000E+00;  1.1834481E-05;  1.0000000E+04;  0.0000000E+00;  9.9919209E+03; -5.8394325E-01;  0.0000000E+00;  1.5824951E-01;  3.9205510E+03;
  5.7970107E-01;  9.9999998E-03; -6.0021572E-02;1940; -1.4486322E-01;  0.0000000E+00; -9.1201607E-03;  1.0016617E+03;  4.0022236E-01;  1.3766345E+03;3; -4.9158611E+01;  0.0000000E+00; -9.1593516E-01;0; -4.1494364E-01;  1.0030175E+04;  0.0000000E+00;  4.0873151E-06;  1.0000000E+04;  0.0000000E+00;  9.9919111E+03; -5.7870257E-01;  0.0000000E+00;  1.6375893E-01;  3.9176440E+03;
  5.7970428E-01;  9.9999998E-03; -4.0014386E-02;1941; -1.4338869E-01;  0.0000000E+00; -6.1118305E-03;  1.0016481E+03;  4.0022245E-01;  1.3653757E+03;3; -4.9251789E+01;  0.0000000E+00; -5.4208392E-01;0; -4.0674469E-01;  1.0029886E+04;  0.0000000E+00;  1.0895238E-06;  1.0000000E+04;  0.0000000E+00;  9.9919268E+03; -5.7466292E-01;  0.0000000E+00;  1.6791824E-01;  3.9035710E+03;
  5.7970625E-01;  9.9999998E-03; -2.0007202E-02;1942; -1.4246446E-01;  0.0000000E+00; -3.0696120E-03;  1.0016400E+03;  4.0022233E-01;  1.3586600E+03;3; -4.9300323E+01;  0.0000000E+00; -2.5442722E-01;0; -4.0155715E-01;  1.0029708E+04;  0.0000000E+00;  1.9977871E-07;  1.0000000E+04;  0.0000000E+00;  9.9919463E+03; -5.7210088E-01;  0.0000000E+00;  1.7054373E-01;  3.8904771E+03;
  5.9961772E-01;  9.9999998E-03; -1.8008220E-01;1965; -1.7361020E-01;  0.0000000E+00; -3.1796232E-02;  1.0024477E+03;  4.0057498E-01;  2.0278579E+03;3; -4.8391582E+01;  0.0000000E+00; -4.6388416E+00;0; -3.9841264E-01;  1.0030903E+04;  0.0000000E+00; -3.8037550E-05;  1.0000000E+04;  0.0000000E+00;  9.9892881E+03; -5.5236673E-01;  0.0000000E+00;  1.5395407E-01;  5.2321138E+03;
  5.9962875E-01;  9.9999998E-03; -1.6007444E-01;1966; -1.7090499E-01;  0.0000000E+00; -2.9173337E-02;  1.0024290E+03;  4.0057522E-01;  2.0123524E+03;3; -4.9411640E+01;  0.0000000E+00; -3.9209559E+00;0; -3.8980156E-01;  1.0030035E+04;  0.0000000E+00; -4.9863473E-05;  1.0000000E+04;  0.0000000E+00;  9.9897676E+03; -5.4533267E-01;  0.0000000E+00;  1.5553112E-01;  4.9902100E+03;
  5.9963912E-01;  9.9999998E-03; -1.4006592E-01;1967; -1.6807704E-01;  0.0000000E+00; -2.6193161E-02;  1.0023989E+03;  4.0057522E-01;  1.9873660E+03;3; -5.0343365E+01;  0.0000000E+00; -3.1388762E+00;0; -3.7700719E-01;  1.0029289E+04;  0.0000000E+00;  4.9871201E-06;  1.0000000E+04;  0.0000000E+00;  9.9899131E+03; -5.3924334E-01;  0.0000000E+00;  1.6223617E-01;  4.9077070E+03;
  5.9964830E-01;  9.9999998E-03; -1.2005669E-01;1968; -1.6523656E-01;  0.0000000E+00; -2.2898326E-02;  1.0023640E+03;  4.0057519E-01;  1.9585277E+03;3; -5.1088211E+01;  0.0000000E+00; -2.3977721E+00;0; -3.6158842E-01;  1.0028650E+04;  0.0000000E+00;  3.0962765E-05;  1.0000000E+04;  0.0000000E+00;  9.9898506E+03; -5.3392649E-01;  0.0000000E+00;  1.7233808E-01;  4.9227192E+03;
  5.9965616E-01;  9.9999998E-03; -1.0004712E-01;1969; -1.6252033E-01;  0.0000000E+00; -1.9354578E-02;  1.0023320E+03;  4.0057531E-01;  1.9319611E+03;3; -5.1621002E+01;  0.0000000E+00; -1.7347965E+00;0; -3.4547526E-01;  1.0028109E+04;  0.0000000E+00;  2.6634129E-05;  1.0000000E+04;  0.0000000E+00;  9.9897471E+03; -5.2916318E-01;  0.0000000E+00;  1.8368793E-01;  4.9583579E+03;
  5.9966254E-01;  9.9999998E-03; -8.0037534E-02;1970; -1.6006099E-01;  0.0000000E+00; -1.5671076E-02;  1.0023065E+03;  4.0057546E-01;  1.9108263E+03;3; -5.1974106E+01;  0.0000000E+00; -1.2135109E+00;0; -3.3022788E-01;  1.0027663E+04;  0.0000000E+00;  1.2539044E-05;  1.0000000E+04;  0.0000000E+00;  9.9896846E+03; -5.2489448E-01;  0.0000000E+00;  1.9466659E-01;  4.9724878E+03;
  5.9966749E-01;  9.9999998E-03; -6.0028080E-02;1971; -1.5797362E-01;  0.0000000E+00; -1.1884344E-02;  1.0022887E+03;  4.0057561E-01;  1.8961108E+03;3; -5.2169018E+01;  0.0000000E+00; -7.7617949E-01;0; -3.1695336E-01;  1.0027307E+04;  0.0000000E+00;  3.2427927E-06;  1.0000000E+04;  0.0000000E+00;  9.9896797E+03; -5.2121651E-01;  0.0000000E+00;  2.0426315E-01;  4.9598193E+03;
  5.9967107E-01;  9.9999998E-03; -4.0018737E-02;1972; -1.5638289E-01;  0.0000000E+00; -8.0226529E-03;  1.0022772E+03;  4.0057543E-01;  1.8866298E+03;3; -5.2259468E+01;  0.0000000E+00; -4.6418819E-01;0; -3.0654901E-01;  1.0027046E+04;  0.0000000E+00;  2.0166551E-07;  1.0000000E+04;  0.0000000E+00;  9.9897119E+03; -5.1833171E-01;  0.0000000E+00;  2.1178268E-01;  4.9345762E+03;
  5.9967327E-01;  9.9999998E-03; -2.0009389E-02;1973; -1.5538383E-01;  0.0000000E+00; -4.0558600E-03;  1.0022708E+03;  4.0057555E-01;  1.8812968E+03;3; -5.2313400E+01;  0.0000000E+00; -2.2546278E-01;0; -2.9985285E-01;  1.0026888E+04;  0.0000000E+00; -1.0079141E-07;  1.0000000E+04;  0.0000000E+00;  9.9897432E+03; -5.1647675E-01;  0.0000000E+00;  2.1662390E-01;  4.9129058E+03;
  6.1958271E-01;  9.9999998E-03; -1.8010414E-01;1996; -1.8607990E-01;  0.0000000E+00; -3.8420640E-02;  1.0039402E+03;  4.0138361E-01;  3.2643250E+03;3; -5.0468895E+01;  0.0000000E+00; -4.1664176E+00;0; -2.3441227E-01;  1.0023592E+04;  0.0000000E+00; -1.4303645E-04;  1.0000000E+04;  0.0000000E+00;  9.9860703E+03; -4.1645700E-01;  0.0000000E+00;  1.8204473E-01;  6.7622607E+03;
  6.1959499E-01;  9.9999998E-03; -1.6009460E-01;1997; -1.8317543E-01;  0.0000000E+00; -3.5548218E-02;  1.0039463E+03;  4.0138391E-01;  3.2693616E+03;3; -5.1616421E+01;  0.0000000E+00; -3.4148116E+00;0; -2.2951485E-01;  1.0023063E+04;  0.0000000E+00; -1.8538706E-04;  1.0000000E+04;  0.0000000E+00;  9.9867139E+03; -4.1452837E-01;  0.0000000E+00;  1.8501352E-01;  6.4397314E+03;
  6.1960620E-01;  9.9999998E-03; -1.4008386E-01;1998; -1.8023053E-01;  0.0000000E+00; -3.2209475E-02;  1.0039368E+03;  4.0138423E-01;  3.2615593E+03;3; -5.2652088E+01;  0.0000000E+00; -2.6531994E+00;0; -2.1847260E-01;  1.0022563E+04;  0.0000000E+00; -8.5921376E-05;  1.0000000E+04;  0.0000000E+00;  9.9870088E+03; -4.1240469E-01;  0.0000000E+00;  1.9393209E-01;  6.2810288E+03;
  6.1961609E-01;  9.9999998E-03; -1.2007205E-01;1999; -1.7731638E-01;  0.0000000E+00; -2.8425649E-02;  1.0039172E+03;  4.0138417E-01;  3.2452639E+03;3; -5.3476044E+01;  0.0000000E+00; -2.0026884E+00;0; -2.0306720E-01;  1.0022116E+04;  0.0000000E+00; -1.5426454E-05;  1.0000000E+04;  0.0000000E+00;  9.9870576E+03; -4.1038230E-01;  0.0000000E+00;  2.0731510E-01;  6.2388481E+03;
  6.1962444E-01;  9.9999998E-03; -1.0005982E-01;2000; -1.7454536E-01;  0.0000000E+00; -2.4329834E-02;  1.0038956E+03;  4.0138438E-01;  3.2272896E+03;3; -5.4062302E+01;  0.0000000E+00; -1.4710295E+00;0; -1.8546475E-01;  1.0021716E+04;  0.0000000E+00;  5.1824081E-06;  1.0000000E+04;  0.0000000E+00;  9.9870205E+03; -4.0842628E-01;  0.0000000E+00;  2.2296153E-01;  6.2354307E+03;
  6.1963135E-01;  9.9999998E-03; -8.0047645E-02;2001; -1.7200989E-01;  0.0000000E+00; -1.9959658E-02;  1.0038781E+03;  4.0138441E-01;  3.2128706E+03;3; -5.4465370E+01;  0.0000000E+00; -1.0867312E+00;0; -1.6764303E-01;  1.0021378E+04;  0.0000000E+00;  2.2408135E-07;  1.0000000E+04;  0.0000000E+00;  9.9870068E+03; -4.0650362E-01;  0.0000000E+00;  2.3886059E-01;  6.2200371E+03;
  6.1963677E-01;  9.9999998E-03; -6.0035616E-02;2002; -1.6982952E-01;  0.0000000E+00; -1.5275316E-02;  1.0038665E+03;  4.0138450E-01;  3.2032908E+03;3; -5.4737255E+01;  0.0000000E+00; -7.8253698E-01;0; -1.5136591E-01;  1.0021102E+04;  0.0000000E+00; -4.9359319E-06;  1.0000000E+04;  0.0000000E+00;  9.9870420E+03; -4.0469491E-01;  0.0000000E+00;  2.5332901E-01;  6.1809688E+03;
  6.1964071E-01;  9.9999998E-03; -4.0023755E-02;2003; -1.6814744E-01;  0.0000000E+00; -1.0357701E-02;  1.0038594E+03;  4.0138456E-01;  3.1973652E+03;3; -5.4853367E+01;  0.0000000E+00; -4.7079101E-01;0; -1.3821214E-01;  1.0020895E+04;  0.0000000E+00; -4.0353707E-06;  1.0000000E+04;  0.0000000E+00;  9.9871094E+03; -4.0317598E-01;  0.0000000E+00;  2.6496384E-01;  6.1328105E+03;
  6.1964309E-01;  9.9999998E-03; -2.0011907E-02;2004; -1.6709957E-01;  0.0000000E+00; -5.2562873E-03;  1.0038558E+03;  4.0138456E-01;  3.1944023E+03;3; -5.4933903E+01;  0.0000000E+00; -2.4211541E-01;0; -1.2959224E-01;  1.0020768E+04;  0.0000000E+00; -1.2489088E-06;  1.0000000E+04;  0.0000000E+00;  9.9871611E+03; -4.0215468E-01;  0.0000000E+00;  2.7256244E-01;  6.0954502E+03;
  6.3955271E-01;  9.9999998E-03; -1.8012922E-01;2027; -1.9639327E-01;  0.0000000E+00; -4.5563772E-02;  1.0068495E+03;  4.0286839E-01;  5.6745244E+03;3; -5.2025570E+01;  0.0000000E+00; -3.4129505E+00;0;  2.0003900E-02;  1.0011527E+04;  0.0000000E+00; -2.1992681E-04;  1.0000000E+04;  0.0000000E+00;  9.9822432E+03; -1.9403058E-01;  0.0000000E+00;  2.1403448E-01;  8.5723789E+03;
  6.3956594E-01;  9.9999998E-03; -1.6011716E-01;2028; -1.9336127E-01;  0.0000000E+00; -4.2333115E-02;  1.0068879E+03;  4.0286854E-01;  5.7063247E+03;3; -5.3265804E+01;  0.0000000E+00; -2.6189055E+00;0;  2.0706519E-02;  1.0011481E+04;  0.0000000E+00; -3.4121535E-04;  1.0000000E+04;  0.0000000E+00;  9.9830371E+03; -1.9938906E-01;  0.0000000E+00;  2.2009557E-01;  8.1721440E+03;
  6.3957781E-01;  9.9999998E-03; -1.4010359E-01;2029; -1.9039832E-01;  0.0000000E+00; -3.8600005E-02;  1.0069056E+03;  4.0286878E-01;  5.7210400E+03;3; -5.4396416E+01;  0.0000000E+00; -1.9440069E+00;0;  2.9749632E-02;  1.0011343E+04;  0.0000000E+00; -2.1597312E-04;  1.0000000E+04;  0.0000000E+00;  9.9835137E+03; -2.0272331E-01;  0.0000000E+00;  2.3247294E-01;  7.9231621E+03;
  6.3958818E-01;  9.9999998E-03; -1.2008863E-01;2030; -1.8750717E-01;  0.0000000E+00; -3.4358993E-02;  1.0069077E+03;  4.0286902E-01;  5.7227188E+03;3; -5.5302120E+01;  0.0000000E+00; -1.5050746E+00;0;  4.5064718E-02;  1.0011169E+04;  0.0000000E+00; -1.0265910E-04;  1.0000000E+04;  0.0000000E+00;  9.9837129E+03; -2.0494643E-01;  0.0000000E+00;  2.5001115E-01;  7.8001367E+03;
  6.3959712E-01;  9.9999998E-03; -1.0007321E-01;2031; -1.8470681E-01;  0.0000000E+00; -2.9587554E-02;  1.0069031E+03;  4.0286922E-01;  5.7189663E+03;3; -5.5959412E+01;  0.0000000E+00; -1.2037483E+00;0;  6.4205155E-02;  1.0010983E+04;  0.0000000E+00; -4.8777354E-05;  1.0000000E+04;  0.0000000E+00;  9.9837930E+03; -2.0640321E-01;  0.0000000E+00;  2.7060837E-01;  7.7315044E+03;
  6.3960463E-01;  9.9999998E-03; -8.0058083E-02;2032; -1.8209951E-01;  0.0000000E+00; -2.4376130E-02;  1.0068987E+03;  4.0286937E-01;  5.7153120E+03;3; -5.6451408E+01;  0.0000000E+00; -9.8609215E-01;0;  8.4839895E-02;  1.0010807E+04;  0.0000000E+00; -3.3689372E-05;  1.0000000E+04;  0.0000000E+00;  9.9838740E+03; -2.0721932E-01;  0.0000000E+00;  2.9205921E-01;  7.6631636E+03;
  6.3961047E-01;  9.9999998E-03; -6.0043365E-02;2033; -1.7986432E-01;  0.0000000E+00; -1.8707950E-02;  1.0068965E+03;  4.0286937E-01;  5.7134355E+03;3; -5.6762447E+01;  0.0000000E+00; -7.0905739E-01;0;  1.0455881E-01;  1.0010649E+04;  0.0000000E+00; -2.5387357E-05;  1.0000000E+04;  0.0000000E+00;  9.9839873E+03; -2.0753311E-01;  0.0000000E+00;  3.1209192E-01;  7.5791113E+03;
  6.3961470E-01;  9.9999998E-03; -4.0028956E-02;2034; -1.7815676E-01;  0.0000000E+00; -1.2742009E-02;  1.0068970E+03;  4.0286952E-01;  5.7139292E+03;3; -5.6895546E+01;  0.0000000E+00; -4.1400552E-01;0;  1.2097232E-01;  1.0010526E+04;  0.0000000E+00; -1.3860291E-05;  1.0000000E+04;  0.0000000E+00;  9.9841133E+03; -2.0753597E-01;  0.0000000E+00;  3.2850829E-01;  7.4945972E+03;
  6.3961726E-01;  9.9999998E-03; -2.0014523E-02;2035; -1.7711709E-01;  0.0000000E+00; -6.4707161E-03;  1.0068979E+03;  4.0286952E-01;  5.7146206E+03;3; -5.7022076E+01;  0.0000000E+00; -2.0425700E-01;0;  1.3191582E-01;  1.0010449E+04;  0.0000000E+00; -3.7934342E-06;  1.0000000E+04;  0.0000000E+00;  9.9842070E+03; -2.0743261E-01;  0.0000000E+00;  3.3934844E-01;  7.4333569E+03;
  6.5953106E-01;  9.9999998E-03; -1.8015975E-01;2058; -2.0382971E-01;  0.0000000E+00; -5.3832043E-02;  1.0104573E+03;  4.0474036E-01;  8.6632871E+03;3; -5.3133636E+01;  0.0000000E+00; -2.2845426E+00;0;  3.7218454E-01;  9.9945176E+03;  0.0000000E+00; -1.6356070E-04;  1.0000000E+04;  0.0000000E+00;  9.9780957E+03;  1.2554306E-01;  0.0000000E+00;  2.4664149E-01;  1.0520649E+04;
  6.5954471E-01;  9.9999998E-03; -1.6014397E-01;2059; -2.0078111E-01;  0.0000000E+00; -4.9924042E-02;  1.0105289E+03;  4.0474069E-01;  8.7226406E+03;3; -5.4494839E+01;  0.0000000E+00; -1.3667684E+00;0;  3.7032175E-01;  9.9950459E+03;  0.0000000E+00; -4.1850394E-04;  1.0000000E+04;  0.0000000E+00;  9.9789648E+03;  1.1176218E-01;  0.0000000E+00;  2.5855955E-01;  1.0078409E+04;
  6.5955669E-01;  9.9999998E-03; -1.4012694E-01;2060; -1.9784348E-01;  0.0000000E+00; -4.5778546E-02;  1.0105761E+03;  4.0474078E-01;  8.7617490E+03;3; -5.5685234E+01;  0.0000000E+00; -7.8907722E-01;0;  3.7859875E-01;  9.9953623E+03;  0.0000000E+00; -3.2232635E-04;  1.0000000E+04;  0.0000000E+00;  9.9795723E+03;  1.0191710E-01;  0.0000000E+00;  2.7668166E-01;  9.7572041E+03;
  6.5956718E-01;  9.9999998E-03; -1.2010816E-01;2061; -1.9499949E-01;  0.0000000E+00; -4.0914346E-02;  1.0106031E+03;  4.0474081E-01;  8.7840684E+03;3; -5.6638416E+01;  0.0000000E+00; -6.2206358E-01;0;  3.9467719E-01;  9.9955420E+03;  0.0000000E+00; -2.0017290E-04;  1.0000000E+04;  0.0000000E+00;  9.9799248E+03;  9.4648130E-02;  0.0000000E+00;  3.0002907E-01;  9.5540430E+03;
  6.5957636E-01;  9.9999998E-03; -1.0008906E-01;2062; -1.9229253E-01;  0.0000000E+00; -3.5373475E-02;  1.0106196E+03;  4.0474090E-01;  8.7976973E+03;3; -5.7348736E+01;  0.0000000E+00; -4.8874348E-01;0;  4.1585737E-01;  9.9956396E+03;  0.0000000E+00; -1.2415217E-04;  1.0000000E+04;  0.0000000E+00;  9.9801465E+03;  8.9212306E-02;  0.0000000E+00;  3.2664508E-01;  9.4088770E+03;
  6.5958416E-01;  9.9999998E-03; -8.0070555E-02;2063; -1.8976805E-01;  0.0000000E+00; -2.9347118E-02;  1.0106325E+03;  4.0474105E-01;  8.8084619E+03;3; -5.7950481E+01;  0.0000000E+00; -4.9030396E-01;0;  4.3962634E-01;  9.9956855E+03;  0.0000000E+00; -8.5674161E-05;  1.0000000E+04;  0.0000000E+00;  9.9803496E+03;  8.5261658E-02;  0.0000000E+00;  3.5436469E-01;  9.2713154E+03;
  6.5959036E-01;  9.9999998E-03; -6.0052745E-02;2064; -1.8756628E-01;  0.0000000E+00; -2.2785852E-02;  1.0106448E+03;  4.0474111E-01;  8.8186338E+03;3; -5.8298363E+01;  0.0000000E+00; -3.8440752E-01;0;  4.6309969E-01;  9.9957002E+03;  0.0000000E+00; -5.6536443E-05;  1.0000000E+04;  0.0000000E+00;  9.9805674E+03;  8.2552694E-02;  0.0000000E+00;  3.8054699E-01;  9.1265430E+03;
  6.5959483E-01;  9.9999998E-03; -4.0035237E-02;2065; -1.8590648E-01;  0.0000000E+00; -1.5638096E-02;  1.0106553E+03;  4.0474117E-01;  8.8273242E+03;3; -5.8524685E+01;  0.0000000E+00; -2.7857500E-01;0;  4.8310649E-01;  9.9956982E+03;  0.0000000E+00; -2.8350745E-05;  1.0000000E+04;  0.0000000E+00;  9.9807773E+03;  8.0851607E-02;  0.0000000E+00;  4.0225488E-01;  8.9933740E+03;
  6.5959746E-01;  9.9999998E-03; -2.0017680E-02;2066; -1.8493015E-01;  0.0000000E+00; -7.9563214E-03;  1.0106624E+03;  4.0474114E-01;  8.8332500E+03;3; -5.8676094E+01;  0.0000000E+00; -9.6590914E-02;0;  4.9664044E-01;  9.9956904E+03;  0.0000000E+00; -7.4763666E-06;  1.0000000E+04;  0.0000000E+00;  9.9809219E+03;  7.9939850E-02;  0.0000000E+00;  4.1670060E-01;  8.9005498E+03;
  6.7952317E-01;  9.9999998E-03; -1.8020065E-01;2089; -2.0653203E-01;  0.0000000E+00; -6.6229887E-02;  1.0129460E+03;  4.0623999E-01;  1.0724907E+04;3; -5.3614799E+01;  0.0000000E+00; -1.4670445E+00;0;  8.0344820E-01;  9.9737832E+03;  0.0000000E+00;  4.6045381E-05;  1.0000000E+04;  0.0000000E+00;  9.9740391E+03;  5.2763200E-01;  0.0000000E+00;  2.7581620E-01;  1.2409279E+04;
  6.7953658E-01;  9.9999998E-03; -1.6017973E-01;2090; -2.0356941E-01;  0.0000000E+00; -6.1314043E-02;  1.0130428E+03;  4.0623984E-01;  1.0805098E+04;3; -5.4953037E+01;  0.0000000E+00; -2.9310662E-01;0;  8.0291671E-01;  9.9748838E+03;  0.0000000E+00; -3.4207251E-04;  1.0000000E+04;  0.0000000E+00;  9.9748545E+03;  5.0619137E-01;  0.0000000E+00;  2.9672533E-01;  1.1988061E+04;
  6.7954826E-01;  9.9999998E-03; -1.4015819E-01;2091; -2.0082258E-01;  0.0000000E+00; -5.6457631E-02;  1.0131156E+03;  4.0623966E-01;  1.0865438E+04;3; -5.6189663E+01;  0.0000000E+00;  1.0054340E-01;0;  8.1335789E-01;  9.9756924E+03;  0.0000000E+00; -3.3222878E-04;  1.0000000E+04;  0.0000000E+00;  9.9754873E+03;  4.8982897E-01;  0.0000000E+00;  3.2352892E-01;  1.1645386E+04;
  6.7955846E-01;  9.9999998E-03; -1.2013479E-01;2092; -1.9823387E-01;  0.0000000E+00; -5.0922174E-02;  1.0131674E+03;  4.0623948E-01;  1.0908299E+04;3; -5.7185440E+01;  0.0000000E+00; -2.4392704E-02;0;  8.3206624E-01;  9.9762871E+03;  0.0000000E+00; -2.5216746E-04;  1.0000000E+04;  0.0000000E+00;  9.9759258E+03;  4.7719848E-01;  0.0000000E+00;  3.5486776E-01;  1.1390846E+04;
  6.7956740E-01;  9.9999998E-03; -1.0011101E-01;2093; -1.9574530E-01;  0.0000000E+00; -4.4604052E-02;  1.0132071E+03;  4.0623942E-01;  1.0941185E+04;3; -5.7904713E+01;  0.0000000E+00; -3.1488389E-01;0;  8.5625553E-01;  9.9767256E+03;  0.0000000E+00; -1.8308287E-04;  1.0000000E+04;  0.0000000E+00;  9.9762627E+03;  4.6738729E-01;  0.0000000E+00;  3.8886824E-01;  1.1178483E+04;
  6.7957509E-01;  9.9999998E-03; -8.0087990E-02;2094; -1.9346312E-01;  0.0000000E+00; -3.7567653E-02;  1.0132400E+03;  4.0623933E-01;  1.0968442E+04;3; -5.8567326E+01;  0.0000000E+00; -7.9932171E-01;0;  8.8350302E-01;  9.9770488E+03;  0.0000000E+00; -1.3150221E-04;  1.0000000E+04;  0.0000000E+00;  9.9765938E+03;  4.5990345E-01;  0.0000000E+00;  4.2359957E-01;  1.0968762E+04;
  6.7958128E-01;  9.9999998E-03; -6.0065869E-02;2095; -1.9147907E-01;  0.0000000E+00; -2.9594097E-02;  1.0132690E+03;  4.0623933E-01;  1.0992439E+04;3; -5.9081322E+01;  0.0000000E+00; -1.0746946E+00;0;  9.1076446E-01;  9.9772813E+03;  0.0000000E+00; -8.4165054E-05;  1.0000000E+04;  0.0000000E+00;  9.9769355E+03;  4.5443422E-01;  0.0000000E+00;  4.5633024E-01;  1.0755617E+04;
  6.7958581E-01;  9.9999998E-03; -4.0044148E-02;2096; -1.8998793E-01;  0.0000000E+00; -2.0642012E-02;  1.0132921E+03;  4.0623918E-01;  1.1011599E+04;3; -5.9520966E+01;  0.0000000E+00; -1.0918225E+00;0;  9.3431604E-01;  9.9774375E+03;  0.0000000E+00; -4.0768420E-05;  1.0000000E+04;  0.0000000E+00;  9.9772402E+03;  4.5073953E-01;  0.0000000E+00;  4.8357651E-01;  1.0566401E+04;
  6.7958856E-01;  9.9999998E-03; -2.0022200E-02;2097; -1.8905456E-01;  0.0000000E+00; -1.0629456E-02;  1.0133069E+03;  4.0623909E-01;  1.1023845E+04;3; -5.9797089E+01;  0.0000000E+00; -6.6511214E-01;0;  9.5040643E-01;  9.9775225E+03;  0.0000000E+00; -1.0571408E-05;  1.0000000E+04;  0.0000000E+00;  9.9774502E+03;  4.4861963E-01;  0.0000000E+00;  5.0178683E-01;  1.0437134E+04;
  6.9954002E-01;  9.9999998E-03; -1.8025263E-01;2120; -2.0084243E-01;  0.0000000E+00; -8.6108185E-02;  1.0137265E+03;  4.0706345E-01;  1.1371241E+04;3; -5.2338024E+01;  0.0000000E+00; -2.6154592E+00;0;  1.2615582E+00;  9.9522217E+03;  0.0000000E+00;  2.6584946E-04;  1.0000000E+04;  0.0000000E+00;  9.9705215E+03;  9.6352744E-01;  0.0000000E+00;  2.9803073E-01;  1.4039148E+04;
  6.9955218E-01;  9.9999998E-03; -1.6022553E-01;2121; -1.9843309E-01;  0.0000000E+00; -7.9548411E-02;  1.0138366E+03;  4.0706280E-01;  1.1462490E+04;3; -5.3751797E+01;  0.0000000E+00; -1.2153466E+00;0;  1.2673285E+00;  9.9538018E+03;  0.0000000E+00; -1.5626368E-04;  1.0000000E+04;  0.0000000E+00;  9.9711260E+03;  9.3717444E-01;  0.0000000E+00;  3.3015406E-01;  1.3708029E+04;
  6.9956231E-01;  9.9999998E-03; -1.4019720E-01;2122; -1.9655079E-01;  0.0000000E+00; -7.2927110E-02;  1.0139263E+03;  4.0706250E-01;  1.1536754E+04;3; -5.5025742E+01;  0.0000000E+00; -7.8813219E-01;0;  1.2837903E+00;  9.9550732E+03;  0.0000000E+00; -2.3389836E-04;  1.0000000E+04;  0.0000000E+00;  9.9716416E+03;  9.1553926E-01;  0.0000000E+00;  3.6825114E-01;  1.3411370E+04;
  6.9957089E-01;  9.9999998E-03; -1.2016657E-01;2123; -1.9507450E-01;  0.0000000E+00; -6.5597191E-02;  1.0139985E+03;  4.0706217E-01;  1.1596600E+04;3; -5.6280819E+01;  0.0000000E+00; -1.3428680E+00;0;  1.3074931E+00;  9.9560928E+03;  0.0000000E+00; -2.2113672E-04;  1.0000000E+04;  0.0000000E+00;  9.9720625E+03;  8.9787024E-01;  0.0000000E+00;  4.0962282E-01;  1.3153957E+04;
  6.9957882E-01;  9.9999998E-03; -1.0013602E-01;2124; -1.9341934E-01;  0.0000000E+00; -5.7434332E-02;  1.0140596E+03;  4.0706179E-01;  1.1647162E+04;3; -5.7359024E+01;  0.0000000E+00; -2.2534800E+00;0;  1.3357493E+00;  9.9569063E+03;  0.0000000E+00; -1.8414740E-04;  1.0000000E+04;  0.0000000E+00;  9.9724590E+03;  8.8349015E-01;  0.0000000E+00;  4.5225909E-01;  1.2902675E+04;
  6.9958609E-01;  9.9999998E-03; -8.0106996E-02;2125; -1.9156872E-01;  0.0000000E+00; -4.8320435E-02;  1.0141134E+03;  4.0706164E-01;  1.1691800E+04;3; -5.8431110E+01;  0.0000000E+00; -3.1268010E+00;0;  1.3665652E+00;  9.9575488E+03;  0.0000000E+00; -1.3899300E-04;  1.0000000E+04;  0.0000000E+00;  9.9728896E+03;  8.7200421E-01;  0.0000000E+00;  4.9456099E-01;  1.2633982E+04;
  6.9959205E-01;  9.9999998E-03; -6.0079601E-02;2126; -1.8982866E-01;  0.0000000E+00; -3.7995812E-02;  1.0141605E+03;  4.0706143E-01;  1.1730808E+04;3; -5.9281067E+01;  0.0000000E+00; -3.3040254E+00;0;  1.3971732E+00;  9.9580332E+03;  0.0000000E+00; -8.8617227E-05;  1.0000000E+04;  0.0000000E+00;  9.9733389E+03;  8.6320716E-01;  0.0000000E+00;  5.3396600E-01;  1.2357477E+04;
  6.9959641E-01;  9.9999998E-03; -4.0053125E-02;2127; -1.8845433E-01;  0.0000000E+00; -2.6394019E-02;  1.0141977E+03;  4.0706131E-01;  1.1761617E+04;3; -5.9877682E+01;  0.0000000E+00; -2.7119887E+00;0;  1.4236946E+00;  9.9583721E+03;  0.0000000E+00; -4.2231044E-05;  1.0000000E+04;  0.0000000E+00;  9.9737412E+03;  8.5699713E-01;  0.0000000E+00;  5.6669748E-01;  1.2113945E+04;
  6.9959903E-01;  9.9999998E-03; -2.0026699E-02;2128; -1.8765095E-01;  0.0000000E+00; -1.3593633E-02;  1.0142216E+03;  4.0706107E-01;  1.1781468E+04;3; -6.0351536E+01;  0.0000000E+00; -1.5356050E+00;0;  1.4419016E+00;  9.9585752E+03;  0.0000000E+00; -1.0831326E-05;  1.0000000E+04;  0.0000000E+00;  9.9740127E+03;  8.5330707E-01;  0.0000000E+00;  5.8859450E-01;  1.1948897E+04;
  7.1961683E-01;  9.9999998E-03; -1.8030348E-01;2151; -1.7677957E-01;  0.0000000E+00; -1.1227263E-01;  1.0135593E+03;  4.0742496E-01;  1.1232480E+04;3; -4.8369690E+01;  0.0000000E+00; -9.0613976E+00;0;  1.6670399E+00;  9.9339043E+03;  0.0000000E+00;  3.3129769E-04;  1.0000000E+04;  0.0000000E+00;  9.9678438E+03;  1.3554800E+00;  0.0000000E+00;  3.1155998E-01;  1.5271904E+04;
  7.1962875E-01;  9.9999998E-03; -1.6027158E-01;2152; -1.7468604E-01;  0.0000000E+00; -1.0471793E-01;  1.0136699E+03;  4.0742421E-01;  1.1324123E+04;3; -5.0190979E+01;  0.0000000E+00; -8.0957413E+00;0;  1.6830069E+00;  9.9358018E+03;  0.0000000E+00;  1.1139431E-05;  1.0000000E+04;  0.0000000E+00;  9.9681484E+03;  1.3280779E+00;  0.0000000E+00;  3.5492900E-01;  1.5079138E+04;
  7.1963996E-01;  9.9999998E-03; -1.4023633E-01;2153; -1.7257631E-01;  0.0000000E+00; -9.5574148E-02;  1.0137673E+03;  4.0742382E-01;  1.1404704E+04;3; -5.2211330E+01;  0.0000000E+00; -7.8837357E+00;0;  1.7084805E+00;  9.9374590E+03;  0.0000000E+00; -9.2288821E-05;  1.0000000E+04;  0.0000000E+00;  9.9684229E+03;  1.3031831E+00;  0.0000000E+00;  4.0529737E-01;  1.4885307E+04;
  7.1965015E-01;  9.9999998E-03; -1.2019776E-01;2154; -1.7019549E-01;  0.0000000E+00; -8.4486112E-02;  1.0138536E+03;  4.0742326E-01;  1.1476300E+04;3; -5.4044403E+01;  0.0000000E+00; -8.0338373E+00;0;  1.7388606E+00;  9.9388760E+03;  0.0000000E+00; -1.2476763E-04;  1.0000000E+04;  0.0000000E+00;  9.9687188E+03;  1.2811655E+00;  0.0000000E+00;  4.5769519E-01;  1.4676005E+04;
  7.1965927E-01;  9.9999998E-03; -1.0016008E-01;2155; -1.6746691E-01;  0.0000000E+00; -7.2515041E-02;  1.0139325E+03;  4.0742278E-01;  1.1541574E+04;3; -5.5258972E+01;  0.0000000E+00; -8.0484543E+00;0;  1.7716844E+00;  9.9400635E+03;  0.0000000E+00; -1.2250037E-04;  1.0000000E+04;  0.0000000E+00;  9.9690957E+03;  1.2620542E+00;  0.0000000E+00;  5.0963020E-01;  1.4425222E+04;
  7.1966696E-01;  9.9999998E-03; -8.0125093E-02;2156; -1.6468433E-01;  0.0000000E+00; -6.0005840E-02;  1.0140052E+03;  4.0742260E-01;  1.1601912E+04;3; -5.5989712E+01;  0.0000000E+00; -7.7174368E+00;0;  1.8056899E+00;  9.9410371E+03;  0.0000000E+00; -9.8744815E-05;  1.0000000E+04;  0.0000000E+00;  9.9695693E+03;  1.2459450E+00;  0.0000000E+00;  5.5974495E-01;  1.4125607E+04;
  7.1967310E-01;  9.9999998E-03; -6.0092688E-02;2157; -1.6213441E-01;  0.0000000E+00; -4.6695095E-02;  1.0140696E+03;  4.0742213E-01;  1.1655238E+04;3; -5.6290810E+01;  0.0000000E+00; -6.7405467E+00;0;  1.8388134E+00;  9.9417871E+03;  0.0000000E+00; -6.3776744E-05;  1.0000000E+04;  0.0000000E+00;  9.9700898E+03;  1.2330527E+00;  0.0000000E+00;  6.0576069E-01;  1.3805283E+04;
  7.1967763E-01;  9.9999998E-03; -4.0061712E-02;2158; -1.6010430E-01;  0.0000000E+00; -3.2233682E-02;  1.0141203E+03;  4.0742189E-01;  1.1697208E+04;3; -5.6422478E+01;  0.0000000E+00; -5.0574937E+00;0;  1.8674124E+00;  9.9423252E+03;  0.0000000E+00; -3.0119403E-05;  1.0000000E+04;  0.0000000E+00;  9.9705615E+03;  1.2236294E+00;  0.0000000E+00;  6.4378309E-01;  1.3520791E+04;
  7.1968043E-01;  9.9999998E-03; -2.0030968E-02;2159; -1.5878543E-01;  0.0000000E+00; -1.6526513E-02;  1.0141526E+03;  4.0742180E-01;  1.1723970E+04;3; -5.6464180E+01;  0.0000000E+00; -2.7233706E+00;0;  1.8870776E+00;  9.9426484E+03;  0.0000000E+00; -7.6204938E-06;  1.0000000E+04;  0.0000000E+00;  9.9708789E+03;  1.2178900E+00;  0.0000000E+00;  6.6918749E-01;  1.3327933E+04;
  7.3975354E-01;  9.9999998E-03; -1.8032081E-01;2182; -1.1535486E-01;  0.0000000E+00; -1.1753047E-01;  1.0132426E+03;  4.0756759E-01;  1.0969690E+04;3; -3.2085243E+01;  0.0000000E+00; -8.5014515E+00;0;  1.9382807E+00;  9.9224336E+03;  0.0000000E+00;  2.4410218E-04;  1.0000000E+04;  0.0000000E+00;  9.9661240E+03;  1.6222792E+00;  0.0000000E+00;  3.1600156E-01;  1.6063108E+04;
  7.3976135E-01;  9.9999998E-03; -1.6028865E-01;2183; -1.1435210E-01;  0.0000000E+00; -1.1054452E-01;  1.0133425E+03;  4.0756708E-01;  1.1052442E+04;3; -3.3732849E+01;  0.0000000E+00; -7.8817525E+00;0;  1.9667690E+00;  9.9244609E+03;  0.0000000E+00;  8.3716448E-05;  1.0000000E+04;  0.0000000E+00;  9.9660928E+03;  1.5974376E+00;  0.0000000E+00;  3.6933142E-01;  1.6025901E+04;
  7.3976922E-01;  9.9999998E-03; -1.4025205E-01;2184; -1.1291981E-01;  0.0000000E+00; -1.0131799E-01;  1.0134388E+03;  4.0756628E-01;  1.1132231E+04;3; -3.5261536E+01;  0.0000000E+00; -7.7660680E+00;0;  2.0019121E+00;  9.9263779E+03;  0.0000000E+00;  1.4108520E-05;  1.0000000E+04;  0.0000000E+00;  9.9660908E+03;  1.5714488E+00;  0.0000000E+00;  4.3046319E-01;  1.5958233E+04;
  7.3977649E-01;  9.9999998E-03; -1.2021164E-01;2185; -1.1120655E-01;  0.0000000E+00; -8.9926414E-02;  1.0135314E+03;  4.0756580E-01;  1.1208860E+04;3; -3.6535786E+01;  0.0000000E+00; -7.9290652E+00;0;  2.0392277E+00;  9.9281113E+03;  0.0000000E+00; -2.4687433E-05;  1.0000000E+04;  0.0000000E+00;  9.9661992E+03;  1.5461242E+00;  0.0000000E+00;  4.9310341E-01;  1.5831462E+04;
  7.3978299E-01;  9.9999998E-03; -1.0017197E-01;2186; -1.0933528E-01;  0.0000000E+00; -7.7626504E-02;  1.0136216E+03;  4.0756536E-01;  1.1283613E+04;3; -3.7495556E+01;  0.0000000E+00; -8.1383953E+00;0;  2.0766454E+00;  9.9296191E+03;  0.0000000E+00; -4.1417839E-05;  1.0000000E+04;  0.0000000E+00;  9.9664736E+03;  1.5226626E+00;  0.0000000E+00;  5.5398279E-01;  1.5618051E+04;
  7.3978853E-01;  9.9999998E-03; -8.0134884E-02;2187; -1.0743982E-01;  0.0000000E+00; -6.4612269E-02;  1.0137075E+03;  4.0756491E-01;  1.1354710E+04;3; -3.8142017E+01;  0.0000000E+00; -8.0035553E+00;0;  2.1136661E+00;  9.9308701E+03;  0.0000000E+00; -3.9690549E-05;  1.0000000E+04;  0.0000000E+00;  9.9669229E+03;  1.5019902E+00;  0.0000000E+00;  6.1167586E-01;  1.5321378E+04;
  7.3979300E-01;  9.9999998E-03; -6.0100269E-02;2188; -1.0567851E-01;  0.0000000E+00; -5.0532147E-02;  1.0137845E+03;  4.0756446E-01;  1.1418601E+04;3; -3.8522774E+01;  0.0000000E+00; -7.1560202E+00;0;  2.1489482E+00;  9.9318613E+03;  0.0000000E+00; -2.7043392E-05;  1.0000000E+04;  0.0000000E+00;  9.9674609E+03;  1.4849086E+00;  0.0000000E+00;  6.6403949E-01;  1.4985563E+04;
  7.3979634E-01;  9.9999998E-03; -4.0066916E-02;2189; -1.0423183E-01;  0.0000000E+00; -3.4999464E-02;  1.0138454E+03;  4.0756422E-01;  1.1469062E+04;3; -3.8712505E+01;  0.0000000E+00; -5.4371977E+00;0;  2.1791968E+00;  9.9325732E+03;  0.0000000E+00; -1.2735785E-05;  1.0000000E+04;  0.0000000E+00;  9.9679580E+03;  1.4721308E+00;  0.0000000E+00;  7.0706594E-01;  1.4681477E+04;
  7.3979843E-01;  9.9999998E-03; -2.0033630E-02;2190; -1.0327593E-01;  0.0000000E+00; -1.7978262E-02;  1.0138843E+03;  4.0756416E-01;  1.1501253E+04;3; -3.8788506E+01;  0.0000000E+00; -2.9447978E+00;0;  2.1999664E+00;  9.9330020E+03;  0.0000000E+00; -3.1618024E-06;  1.0000000E+04;  0.0000000E+00;  9.9682949E+03;  1.4642179E+00;  0.0000000E+00;  7.3574853E-01;  1.4474128E+04;
  7.5986344E-01;  9.9999998E-03; -1.8032856E-01;2213; -6.5336235E-02;  0.0000000E+00; -1.1789528E-01;  1.0131405E+03;  4.0762138E-01;  1.0884619E+04;3; -1.8748022E+01;  0.0000000E+00; -6.3210478E+00;0;  2.0468407E+00;  9.9187529E+03;  0.0000000E+00;  1.1436069E-04;  1.0000000E+04;  0.0000000E+00;  9.9652012E+03;  1.7309830E+00;  0.0000000E+00;  3.1585759E-01;  1.6493033E+04;
  7.5986719E-01;  9.9999998E-03; -1.6029748E-01;2214; -6.5464981E-02;  0.0000000E+00; -1.1199997E-01;  1.0132255E+03;  4.0762076E-01;  1.0954925E+04;3; -2.0075520E+01;  0.0000000E+00; -6.0713711E+00;0;  2.0858817E+00;  9.9207363E+03;  0.0000000E+00;  7.1988674E-05;  1.0000000E+04;  0.0000000E+00;  9.9649229E+03;  1.7109940E+00;  0.0000000E+00;  3.7488765E-01;  1.6572111E+04;
  7.5987130E-01;  9.9999998E-03; -1.4026107E-01;2215; -6.5187350E-02;  0.0000000E+00; -1.0353893E-01;  1.0133142E+03;  4.0762013E-01;  1.1028489E+04;3; -2.1355061E+01;  0.0000000E+00; -6.3902264E+00;0;  2.1294241E+00;  9.9227461E+03;  0.0000000E+00;  4.7186648E-05;  1.0000000E+04;  0.0000000E+00;  9.9646777E+03;  1.6860971E+00;  0.0000000E+00;  4.4332683E-01;  1.6616961E+04;
  7.5987536E-01;  9.9999998E-03; -1.2022016E-01;2216; -6.4606033E-02;  0.0000000E+00; -9.2613421E-02;  1.0134052E+03;  4.0761957E-01;  1.1103830E+04;3; -2.2476851E+01;  0.0000000E+00; -7.0125680E+00;0;  2.1732664E+00;  9.9246484E+03;  0.0000000E+00;  2.4259018E-05;  1.0000000E+04;  0.0000000E+00;  9.9645811E+03;  1.6594334E+00;  0.0000000E+00;  5.1383305E-01;  1.6580426E+04;
  7.5987911E-01;  9.9999998E-03; -1.0017958E-01;2217; -6.3810199E-02;  0.0000000E+00; -8.0496006E-02;  1.0134982E+03;  4.0761900E-01;  1.1180851E+04;3; -2.3380117E+01;  0.0000000E+00; -7.6347318E+00;0;  2.2155304E+00;  9.9263506E+03;  0.0000000E+00;  7.5716425E-06;  1.0000000E+04;  0.0000000E+00;  9.9647246E+03;  1.6333774E+00;  0.0000000E+00;  5.8215284E-01;  1.6425061E+04;
  7.5988239E-01;  9.9999998E-03; -8.0141343E-02;2218; -6.2892750E-02;  0.0000000E+00; -6.7392282E-02;  1.0135895E+03;  4.0761855E-01;  1.1256488E+04;3; -2.4047247E+01;  0.0000000E+00; -7.8185377E+00;0;  2.2561169E+00;  9.9277881E+03;  0.0000000E+00; -3.8654750E-07;  1.0000000E+04;  0.0000000E+00;  9.9650986E+03;  1.6096700E+00;  0.0000000E+00;  6.4644670E-01;  1.6157387E+04;
  7.5988513E-01;  9.9999998E-03; -6.0105387E-02;2219; -6.1963692E-02;  0.0000000E+00; -5.2951358E-02;  1.0136727E+03;  4.0761811E-01;  1.1325410E+04;3; -2.4494820E+01;  0.0000000E+00; -7.1705437E+00;0;  2.2941227E+00;  9.9289307E+03;  0.0000000E+00; -1.8501543E-06;  1.0000000E+04;  0.0000000E+00;  9.9656016E+03;  1.5896769E+00;  0.0000000E+00;  7.0444578E-01;  1.5831763E+04;
  7.5988722E-01;  9.9999998E-03; -4.0070496E-02;2220; -6.1155457E-02;  0.0000000E+00; -3.6796015E-02;  1.0137386E+03;  4.0761799E-01;  1.1380016E+04;3; -2.4763193E+01;  0.0000000E+00; -5.5300479E+00;0;  2.3264298E+00;  9.9297578E+03;  0.0000000E+00; -9.0014788E-07;  1.0000000E+04;  0.0000000E+00;  9.9660850E+03;  1.5745053E+00;  0.0000000E+00;  7.5192446E-01;  1.5529140E+04;
  7.5988853E-01;  9.9999998E-03; -2.0035475E-02;2221; -6.0602196E-02;  0.0000000E+00; -1.8937385E-02;  1.0137809E+03;  4.0761781E-01;  1.1414971E+04;3; -2.4899523E+01;  0.0000000E+00; -3.0182436E+00;0;  2.3485353E+00;  9.9302598E+03;  0.0000000E+00; -1.3893316E-07;  1.0000000E+04;  0.0000000E+00;  9.9664180E+03;  1.5650207E+00;  0.0000000E+00;  7.8351456E-01;  1.5320964E+04;
  7.7994603E-01;  9.9999998E-03; -1.8033081E-01;2244; -2.8190069E-02;  0.0000000E+00; -1.1677477E-01;  1.0132805E+03;  4.0764081E-01;  1.0999805E+04;3; -9.4530897E+00;  0.0000000E+00; -4.6014829E+00;0;  2.0303192E+00;  9.9209219E+03;  0.0000000E+00;  2.8371311E-05;  1.0000000E+04;  0.0000000E+00;  9.9648418E+03;  1.7153803E+00;  0.0000000E+00;  3.1493902E-01;  1.6663396E+04;
  7.7994680E-01;  9.9999998E-03; -1.6030091E-01;2245; -2.8834233E-02;  0.0000000E+00; -1.1171579E-01;  1.0133522E+03;  4.0764019E-01;  1.1059146E+04;3; -1.0244884E+01;  0.0000000E+00; -4.5458388E+00;0;  2.0753150E+00;  9.9227607E+03;  0.0000000E+00;  3.1815118E-05;  1.0000000E+04;  0.0000000E+00;  9.9644404E+03;  1.7001672E+00;  0.0000000E+00;  3.7514782E-01;  1.6799900E+04;
  7.7994794E-01;  9.9999998E-03; -1.4026506E-01;2246; -2.9230276E-02;  0.0000000E+00; -1.0391507E-01;  1.0134310E+03;  4.0763953E-01;  1.1124510E+04;3; -1.1076553E+01;  0.0000000E+00; -5.1326203E+00;0;  2.1241825E+00;  9.9247363E+03;  0.0000000E+00;  3.0289242E-05;  1.0000000E+04;  0.0000000E+00;  9.9640361E+03;  1.6773489E+00;  0.0000000E+00;  4.4683364E-01;  1.6919293E+04;
  7.7994931E-01;  9.9999998E-03; -1.2022422E-01;2247; -2.9415483E-02;  0.0000000E+00; -9.3455821E-02;  1.0135156E+03;  4.0763894E-01;  1.1194515E+04;3; -1.1867342E+01;  0.0000000E+00; -6.0572853E+00;0;  2.1729279E+00;  9.9266699E+03;  0.0000000E+00;  2.3214674E-05;  1.0000000E+04;  0.0000000E+00;  9.9637832E+03;  1.6509740E+00;  0.0000000E+00;  5.2195388E-01;  1.6956004E+04;
  7.7995068E-01;  9.9999998E-03; -1.0018340E-01;2248; -2.9419014E-02;  0.0000000E+00; -8.1621051E-02;  1.0136050E+03;  4.0763849E-01;  1.1268567E+04;3; -1.2558687E+01;  0.0000000E+00; -6.9700694E+00;0;  2.2195277E+00;  9.9284326E+03;  0.0000000E+00;  1.5177687E-05;  1.0000000E+04;  0.0000000E+00;  9.9637979E+03;  1.6242336E+00;  0.0000000E+00;  5.9529424E-01;  1.6858377E+04;
  7.7995193E-01;  9.9999998E-03; -8.0144726E-02;2249; -2.9274546E-02;  0.0000000E+00; -6.8624780E-02;  1.0136950E+03;  4.0763795E-01;  1.1343113E+04;3; -1.3116484E+01;  0.0000000E+00; -7.4031191E+00;0;  2.2638545E+00;  9.9299355E+03;  0.0000000E+00;  9.0148887E-06;  1.0000000E+04;  0.0000000E+00;  9.9640791E+03;  1.5994288E+00;  0.0000000E+00;  6.6442579E-01;  1.6630152E+04;
  7.7995312E-01;  9.9999998E-03; -6.0108166E-02;2250; -2.9033216E-02;  0.0000000E+00; -5.4110531E-02;  1.0137778E+03;  4.0763763E-01;  1.1411736E+04;3; -1.3529057E+01;  0.0000000E+00; -6.9447165E+00;0;  2.3050296E+00;  9.9311348E+03;  0.0000000E+00;  5.0214444E-06;  1.0000000E+04;  0.0000000E+00;  9.9645215E+03;  1.5782727E+00;  0.0000000E+00;  7.2675699E-01;  1.6329690E+04;
  7.7995408E-01;  9.9999998E-03; -4.0072493E-02;2251; -2.8770134E-02;  0.0000000E+00; -3.7699919E-02;  1.0138443E+03;  4.0763742E-01;  1.1466732E+04;3; -1.3803595E+01;  0.0000000E+00; -5.4275727E+00;0;  2.3398316E+00;  9.9320049E+03;  0.0000000E+00;  2.3828011E-06;  1.0000000E+04;  0.0000000E+00;  9.9649648E+03;  1.5620987E+00;  0.0000000E+00;  7.7773285E-01;  1.6042731E+04;
  7.7995467E-01;  9.9999998E-03; -2.0036526E-02;2252; -2.8568411E-02;  0.0000000E+00; -1.9433251E-02;  1.0138865E+03;  4.0763718E-01;  1.1501784E+04;3; -1.3957441E+01;  0.0000000E+00; -2.9829407E+00;0;  2.3635645E+00;  9.9325361E+03;  0.0000000E+00;  6.5711981E-07;  1.0000000E+04;  0.0000000E+00;  9.9652744E+03;  1.5519373E+00;  0.0000000E+00;  8.1162703E-01;  1.5843549E+04;
  8.0001318E-01;  9.9999998E-03; -1.8032937E-01;2275;  2.3185124E-03;  0.0000000E+00; -1.1515395E-01;  1.0135555E+03;  4.0764651E-01;  1.1226572E+04;3; -1.7605858E+00;  0.0000000E+00; -3.6772072E+00;0;  1.9495206E+00;  9.9260244E+03;  0.0000000E+00; -5.2410872E-08;  1.0000000E+04;  0.0000000E+00;  9.9648418E+03;  1.6341119E+00;  0.0000000E+00;  3.1540874E-01;  1.6656857E+04;
  8.0001169E-01;  9.9999998E-03; -1.6030030E-01;2276;  1.4469044E-03;  0.0000000E+00; -1.1049898E-01;  1.0136195E+03;  4.0764579E-01;  1.1279589E+04;3; -1.9993792E+00;  0.0000000E+00; -3.6127827E+00;0;  1.9948227E+00;  9.9277109E+03;  0.0000000E+00;  4.1921958E-06;  1.0000000E+04;  0.0000000E+00;  9.9644414E+03;  1.6214041E+00;  0.0000000E+00;  3.7341872E-01;  1.6796322E+04;
  8.0001050E-01;  9.9999998E-03; -1.4026505E-01;2277;  6.4160692E-04;  0.0000000E+00; -1.0308457E-01;  1.0136904E+03;  4.0764514E-01;  1.1338332E+04;3; -2.3391123E+00;  0.0000000E+00; -4.2637062E+00;0;  2.0448062E+00;  9.9295957E+03;  0.0000000E+00;  6.0509874E-06;  1.0000000E+04;  0.0000000E+00;  9.9639785E+03;  1.6000065E+00;  0.0000000E+00;  4.4479975E-01;  1.6945432E+04;
  8.0000961E-01;  9.9999998E-03; -1.2022458E-01;2278; -6.7888504E-05;  0.0000000E+00; -9.2952862E-02;  1.0137676E+03;  4.0764454E-01;  1.1402209E+04;3; -2.7325432E+00;  0.0000000E+00; -5.2960501E+00;0;  2.0956159E+00;  9.9314727E+03;  0.0000000E+00;  5.7783709E-06;  1.0000000E+04;  0.0000000E+00;  9.9636357E+03;  1.5743928E+00;  0.0000000E+00;  5.2122319E-01;  1.7024533E+04;
  8.0000895E-01;  9.9999998E-03; -1.0018399E-01;2279; -6.5352552E-04;  0.0000000E+00; -8.1387714E-02;  1.0138505E+03;  4.0764406E-01;  1.1470924E+04;3; -3.1321106E+00;  0.0000000E+00; -6.3408589E+00;0;  2.1448717E+00;  9.9331963E+03;  0.0000000E+00;  4.5380334E-06;  1.0000000E+04;  0.0000000E+00;  9.9635615E+03;  1.5481017E+00;  0.0000000E+00;  5.9677017E-01;  1.6968400E+04;
  8.0000854E-01;  9.9999998E-03; -8.0145434E-02;2280; -1.0954954E-03;  0.0000000E+00; -6.8599597E-02;  1.0139353E+03;  4.0764371E-01;  1.1541120E+04;3; -3.4976492E+00;  0.0000000E+00; -6.9171376E+00;0;  2.1920962E+00;  9.9346729E+03;  0.0000000E+00;  3.1544391E-06;  1.0000000E+04;  0.0000000E+00;  9.9637676E+03;  1.5236194E+00;  0.0000000E+00;  6.6847676E-01;  1.6775311E+04;
  8.0000830E-01;  9.9999998E-03; -6.0108870E-02;2281; -1.3924972E-03;  0.0000000E+00; -5.4214410E-02;  1.0140138E+03;  4.0764335E-01;  1.1606083E+04;3; -3.7988517E+00;  0.0000000E+00; -6.5998182E+00;0;  2.2360797E+00;  9.9358496E+03;  0.0000000E+00;  1.9316744E-06;  1.0000000E+04;  0.0000000E+00;  9.9641455E+03;  1.5027130E+00;  0.0000000E+00;  7.3336679E-01;  1.6502855E+04;
  8.0000824E-01;  9.9999998E-03; -4.0073067E-02;2282; -1.5671774E-03;  0.0000000E+00; -3.7840534E-02;  1.0140770E+03;  4.0764305E-01;  1.1658409E+04;3; -4.0193181E+00;  0.0000000E+00; -5.2110071E+00;0;  2.2732470E+00;  9.9367090E+03;  0.0000000E+00;  9.3874689E-07;  1.0000000E+04;  0.0000000E+00;  9.9645400E+03;  1.4867229E+00;  0.0000000E+00;  7.8652406E-01;  1.6236811E+04;
  8.0000824E-01;  9.9999998E-03; -2.0036850E-02;2283; -1.6525817E-03;  0.0000000E+00; -1.9527901E-02;  1.0141174E+03;  4.0764272E-01;  1.1691878E+04;3; -4.1523390E+00;  0.0000000E+00; -2.8795204E+00;0;  2.2985671E+00;  9.9372305E+03;  0.0000000E+00;  2.5233862E-07;  1.0000000E+04;  0.0000000E+00;  9.9648193E+03;  1.4766732E+00;  0.0000000E+00;  8.2189387E-01;  1.6050951E+04;
  8.2007664E-01;  9.9999998E-03; -1.8032517E-01;2306;  3.1884216E-02;  0.0000000E+00; -1.1340934E-01;  1.0138444E+03;  4.0763667E-01;  1.1464384E+04;3;  6.2903886E+00;  0.0000000E+00; -3.5616364E+00;0;  1.8493193E+00;  9.9318838E+03;  0.0000000E+00;  5.1421598E-06;  1.0000000E+04;  0.0000000E+00;  9.9651045E+03;  1.5318589E+00;  0.0000000E+00;  3.1746045E-01;  1.6514309E+04;
  8.2007307E-01;  9.9999998E-03; -1.6029656E-01;2307;  3.0737270E-02;  0.0000000E+00; -1.0875537E-01;  1.0139075E+03;  4.0763590E-01;  1.1516704E+04;3;  6.4577637E+00;  0.0000000E+00; -3.3345964E+00;0;  1.8898489E+00;  9.9334814E+03;  0.0000000E+00; -2.9981541E-06;  1.0000000E+04;  0.0000000E+00;  9.9647813E+03;  1.5183642E+00;  0.0000000E+00;  3.7148476E-01;  1.6620783E+04;
  8.2006979E-01;  9.9999998E-03; -1.4026184E-01;2308;  2.9547231E-02;  0.0000000E+00; -1.0144819E-01;  1.0139752E+03;  4.0763530E-01;  1.1572775E+04;3;  6.5167918E+00;  0.0000000E+00; -3.8779957E+00;0;  1.9367690E+00;  9.9352744E+03;  0.0000000E+00; -4.4163103E-06;  1.0000000E+04;  0.0000000E+00;  9.9643418E+03;  1.4966596E+00;  0.0000000E+00;  4.4010931E-01;  1.6762711E+04;
  8.2006687E-01;  9.9999998E-03; -1.2022193E-01;2309;  2.8395124E-02;  0.0000000E+00; -9.1484293E-02;  1.0140469E+03;  4.0763474E-01;  1.1632104E+04;3;  6.4782915E+00;  0.0000000E+00; -4.8460264E+00;0;  1.9863493E+00;  9.9370625E+03;  0.0000000E+00; -3.8969683E-06;  1.0000000E+04;  0.0000000E+00;  9.9639785E+03;  1.4712621E+00;  0.0000000E+00;  5.1508731E-01;  1.6852434E+04;
  8.2006449E-01;  9.9999998E-03; -1.0018190E-01;2310;  2.7342089E-02;  0.0000000E+00; -8.0139078E-02;  1.0141235E+03;  4.0763420E-01;  1.1695578E+04;3;  6.3681293E+00;  0.0000000E+00; -5.8752327E+00;0;  2.0358036E+00;  9.9386992E+03;  0.0000000E+00; -3.1129482E-06;  1.0000000E+04;  0.0000000E+00;  9.9638672E+03;  1.4456185E+00;  0.0000000E+00;  5.9018505E-01;  1.6815316E+04;
  8.2006264E-01;  9.9999998E-03; -8.0143891E-02;2311;  2.6438354E-02;  0.0000000E+00; -6.7607559E-02;  1.0142020E+03;  4.0763384E-01;  1.1760533E+04;3;  6.2190037E+00;  0.0000000E+00; -6.4853864E+00;0;  2.0841701E+00;  9.9400996E+03;  0.0000000E+00; -2.3265136E-06;  1.0000000E+04;  0.0000000E+00;  9.9640273E+03;  1.4220529E+00;  0.0000000E+00;  6.6211718E-01;  1.6644357E+04;
  8.2006127E-01;  9.9999998E-03; -6.0107823E-02;2312;  2.5717700E-02;  0.0000000E+00; -5.3489417E-02;  1.0142750E+03;  4.0763351E-01;  1.1820947E+04;3;  6.0649681E+00;  0.0000000E+00; -6.2431908E+00;0;  2.1297426E+00;  9.9412119E+03;  0.0000000E+00; -1.5186097E-06;  1.0000000E+04;  0.0000000E+00;  9.9643594E+03;  1.4021357E+00;  0.0000000E+00;  7.2760701E-01;  1.6393926E+04;
  8.2006031E-01;  9.9999998E-03; -4.0072430E-02;2313;  2.5196886E-02;  0.0000000E+00; -3.7372243E-02;  1.0143336E+03;  4.0763322E-01;  1.1869516E+04;3;  5.9341459E+00;  0.0000000E+00; -4.9585195E+00;0;  2.1684542E+00;  9.9420234E+03;  0.0000000E+00; -7.5882093E-07;  1.0000000E+04;  0.0000000E+00;  9.9647158E+03;  1.3870125E+00;  0.0000000E+00;  7.8144157E-01;  1.6146767E+04;
  8.2005978E-01;  9.9999998E-03; -2.0036552E-02;2314;  2.4882564E-02;  0.0000000E+00; -1.9299483E-02;  1.0143710E+03;  4.0763304E-01;  1.1900414E+04;3;  5.8471947E+00;  0.0000000E+00; -2.7490294E+00;0;  2.1948819E+00;  9.9425117E+03;  0.0000000E+00; -2.0530176E-07;  1.0000000E+04;  0.0000000E+00;  9.9649668E+03;  1.3775524E+00;  0.0000000E+00;  8.1732959E-01;  1.5973768E+04;
  8.4014195E-01;  9.9999998E-03; -1.8031834E-01;2337;  6.3022636E-02;  0.0000000E+00; -1.1138492E-01;  1.0138636E+03;  4.0751258E-01;  1.1478376E+04;3;  1.5414804E+01;  0.0000000E+00; -4.0225000E+00;0;  1.7423136E+00;  9.9377988E+03;  0.0000000E+00;  2.3301043E-05;  1.0000000E+04;  0.0000000E+00;  9.9656182E+03;  1.4224583E+00;  0.0000000E+00;  3.1985536E-01;  1.6238628E+04;
  8.4013623E-01;  9.9999998E-03; -1.6029006E-01;2338;  6.1360549E-02;  0.0000000E+00; -1.0652292E-01;  1.0139323E+03;  4.0751189E-01;  1.1535228E+04;3;  1.5768608E+01;  0.0000000E+00; -3.5722060E+00;0;  1.7746117E+00;  9.9393887E+03;  0.0000000E+00;  1.7436101E-06;  1.0000000E+04;  0.0000000E+00;  9.9653994E+03;  1.4051464E+00;  0.0000000E+00;  3.6946541E-01;  1.6298073E+04;
  8.4013087E-01;  9.9999998E-03; -1.4025591E-01;2339;  5.9658561E-02;  0.0000000E+00; -9.9151976E-02;  1.0140006E+03;  4.0751120E-01;  1.1591883E+04;3;  1.6061237E+01;  0.0000000E+00; -3.9088929E+00;0;  1.8153238E+00;  9.9411318E+03;  0.0000000E+00; -2.6483772E-06;  1.0000000E+04;  0.0000000E+00;  9.9650254E+03;  1.3812987E+00;  0.0000000E+00;  4.3402520E-01;  1.6411264E+04;
  8.4012616E-01;  9.9999998E-03; -1.2021676E-01;2340;  5.8027562E-02;  0.0000000E+00; -8.9261904E-02;  1.0140696E+03;  4.0751082E-01;  1.1649030E+04;3;  1.6268030E+01;  0.0000000E+00; -4.7026405E+00;0;  1.8608226E+00;  9.9428369E+03;  0.0000000E+00; -3.1272907E-06;  1.0000000E+04;  0.0000000E+00;  9.9647012E+03;  1.3551792E+00;  0.0000000E+00;  5.0564337E-01;  1.6488305E+04;
  8.4012222E-01;  9.9999998E-03; -1.0017761E-01;2341;  5.6532450E-02;  0.0000000E+00; -7.8112267E-02;  1.0141418E+03;  4.0751031E-01;  1.1708744E+04;3;  1.6385883E+01;  0.0000000E+00; -5.6131868E+00;0;  1.9079778E+00;  9.9443779E+03;  0.0000000E+00; -3.0323995E-06;  1.0000000E+04;  0.0000000E+00;  9.9645967E+03;  1.3298227E+00;  0.0000000E+00;  5.7815522E-01;  1.6450242E+04;
  8.4011906E-01;  9.9999998E-03; -8.0140509E-02;2342;  5.5225212E-02;  0.0000000E+00; -6.5876618E-02;  1.0142150E+03;  4.0750998E-01;  1.1769346E+04;3;  1.6428179E+01;  0.0000000E+00; -6.1715765E+00;0;  1.9553771E+00;  9.9456836E+03;  0.0000000E+00; -2.7603026E-06;  1.0000000E+04;  0.0000000E+00;  9.9647480E+03;  1.3071517E+00;  0.0000000E+00;  6.4822537E-01;  1.6286780E+04;
  8.4011662E-01;  9.9999998E-03; -6.0105328E-02;2343;  5.4149725E-02;  0.0000000E+00; -5.2128725E-02;  1.0142828E+03;  4.0750954E-01;  1.1825506E+04;3;  1.6418694E+01;  0.0000000E+00; -5.9424396E+00;0;  2.0008202E+00;  9.9467158E+03;  0.0000000E+00; -2.0853063E-06;  1.0000000E+04;  0.0000000E+00;  9.9650576E+03;  1.2883729E+00;  0.0000000E+00;  7.1244735E-01;  1.6048743E+04;
  8.4011489E-01;  9.9999998E-03; -4.0070787E-02;2344;  5.3344436E-02;  0.0000000E+00; -3.6434405E-02;  1.0143370E+03;  4.0750930E-01;  1.1870414E+04;3;  1.6385199E+01;  0.0000000E+00; -4.7251139E+00;0;  2.0397906E+00;  9.9474619E+03;  0.0000000E+00; -1.1251954E-06;  1.0000000E+04;  0.0000000E+00;  9.9653916E+03;  1.2743160E+00;  0.0000000E+00;  7.6547468E-01;  1.5814617E+04;
  8.4011388E-01;  9.9999998E-03; -2.0035734E-02;2345;  5.2843735E-02;  0.0000000E+00; -1.8820746E-02;  1.0143715E+03;  4.0750909E-01;  1.1898938E+04;3;  1.6352989E+01;  0.0000000E+00; -2.6220245E+00;0;  2.0665190E+00;  9.9479102E+03;  0.0000000E+00; -3.1303250E-07;  1.0000000E+04;  0.0000000E+00;  9.9656270E+03;  1.2656034E+00;  0.0000000E+00;  8.0091566E-01;  1.5651292E+04;
  8.6020827E-01;  9.9999998E-03; -1.8030865E-01;2368;  9.5085271E-02;  0.0000000E+00; -1.0871136E-01;  1.0136266E+03;  4.0726882E-01;  1.1279638E+04;3;  2.5253481E+01;  0.0000000E+00; -4.7453132E+00;0;  1.6150265E+00;  9.9442656E+03;  0.0000000E+00;  4.3915450E-05;  1.0000000E+04;  0.0000000E+00;  9.9664131E+03;  1.2941580E+00;  0.0000000E+00;  3.2086849E-01;  1.5814412E+04;
  8.6020017E-01;  9.9999998E-03; -1.6028084E-01;2369;  9.2658281E-02;  0.0000000E+00; -1.0360850E-01;  1.0137036E+03;  4.0726814E-01;  1.1343385E+04;3;  2.5593918E+01;  0.0000000E+00; -4.0842924E+00;0;  1.6374977E+00;  9.9459248E+03;  0.0000000E+00;  7.2430262E-06;  1.0000000E+04;  0.0000000E+00;  9.9662959E+03;  1.2710956E+00;  0.0000000E+00;  3.6640209E-01;  1.5829546E+04;
  8.6019272E-01;  9.9999998E-03; -1.4024746E-01;2370;  9.0291224E-02;  0.0000000E+00; -9.6143961E-02;  1.0137755E+03;  4.0726757E-01;  1.1402888E+04;3;  2.5956100E+01;  0.0000000E+00; -4.1920662E+00;0;  1.6703508E+00;  9.9476563E+03;  0.0000000E+00;  8.3988436E-07;  1.0000000E+04;  0.0000000E+00;  9.9660049E+03;  1.2439227E+00;  0.0000000E+00;  4.2642811E-01;  1.5907663E+04;
  8.6018628E-01;  9.9999998E-03; -1.2020937E-01;2371;  8.8107333E-02;  0.0000000E+00; -8.6332440E-02;  1.0138446E+03;  4.0726718E-01;  1.1460123E+04;3;  2.6284916E+01;  0.0000000E+00; -4.7723489E+00;0;  1.7099593E+00;  9.9492920E+03;  0.0000000E+00; -7.5203033E-08;  1.0000000E+04;  0.0000000E+00;  9.9657373E+03;  1.2164031E+00;  0.0000000E+00;  4.9355608E-01;  1.5960380E+04;
  8.6018091E-01;  9.9999998E-03; -1.0017140E-01;2372;  8.6151458E-02;  0.0000000E+00; -7.5410567E-02;  1.0139141E+03;  4.0726680E-01;  1.1517652E+04;3;  2.6546028E+01;  0.0000000E+00; -5.5169301E+00;0;  1.7529490E+00;  9.9507422E+03;  0.0000000E+00; -6.1661262E-07;  1.0000000E+04;  0.0000000E+00;  9.9656738E+03;  1.1909652E+00;  0.0000000E+00;  5.6198376E-01;  1.5908842E+04;
  8.6017656E-01;  9.9999998E-03; -8.0135539E-02;2373;  8.4456116E-02;  0.0000000E+00; -6.3531265E-02;  1.0139835E+03;  4.0726641E-01;  1.1575083E+04;3;  2.6726341E+01;  0.0000000E+00; -5.9748049E+00;0;  1.7975416E+00;  9.9519541E+03;  0.0000000E+00; -1.2676178E-06;  1.0000000E+04;  0.0000000E+00;  9.9658428E+03;  1.1689848E+00;  0.0000000E+00;  6.2855679E-01;  1.5741823E+04;
  8.6017323E-01;  9.9999998E-03; -6.0101595E-02;2374;  8.3058216E-02;  0.0000000E+00; -5.0250594E-02;  1.0140470E+03;  4.0726614E-01;  1.1627679E+04;3;  2.6831835E+01;  0.0000000E+00; -5.7155161E+00;0;  1.8411696E+00;  9.9529004E+03;  0.0000000E+00; -1.4115866E-06;  1.0000000E+04;  0.0000000E+00;  9.9661553E+03;  1.1512234E+00;  0.0000000E+00;  6.8994612E-01;  1.5507536E+04;
  8.6017084E-01;  9.9999998E-03; -4.0068284E-02;2375;  8.2003489E-02;  0.0000000E+00; -3.5118252E-02;  1.0140977E+03;  4.0726584E-01;  1.1669617E+04;3;  2.6881811E+01;  0.0000000E+00; -4.5321841E+00;0;  1.8790302E+00;  9.9535811E+03;  0.0000000E+00; -9.0500203E-07;  1.0000000E+04;  0.0000000E+00;  9.9664814E+03;  1.1381638E+00;  0.0000000E+00;  7.4086642E-01;  1.5280429E+04;
  8.6016941E-01;  9.9999998E-03; -2.0034477E-02;2376;  8.1342593E-02;  0.0000000E+00; -1.8141281E-02;  1.0141295E+03;  4.0726572E-01;  1.1695964E+04;3;  2.6899172E+01;  0.0000000E+00; -2.5122135E+00;0;  1.9051622E+00;  9.9539893E+03;  0.0000000E+00; -2.6762484E-07;  1.0000000E+04;  0.0000000E+00;  9.9667080E+03;  1.1301620E+00;  0.0000000E+00;  7.7500021E-01;  1.5123227E+04;
  8.8027126E-01;  9.9999998E-03; -1.8029591E-01;2399;  1.2590598E-01;  0.0000000E+00; -1.0504536E-01;  1.0132130E+03;  4.0691918E-01;  1.0933925E+04;3;  3.5036465E+01;  0.0000000E+00; -5.4472270E+00;0;  1.4469508E+00;  9.9521426E+03;  0.0000000E+00;  5.4974102E-05;  1.0000000E+04;  0.0000000E+00;  9.9675322E+03;  1.1278783E+00;  0.0000000E+00;  3.1907246E-01;  1.5228338E+04;
  8.8026083E-01;  9.9999998E-03; -1.6026889E-01;2400;  1.2258457E-01;  0.0000000E+00; -9.9791758E-02;  1.0132994E+03;  4.0691853E-01;  1.1005545E+04;3;  3.5241840E+01;  0.0000000E+00; -4.6310220E+00;0;  1.4595703E+00;  9.9539082E+03;  0.0000000E+00;  2.5731038E-06;  1.0000000E+04;  0.0000000E+00;  9.9674893E+03;  1.0984942E+00;  0.0000000E+00;  3.6107612E-01;  1.5210552E+04;
  8.8025141E-01;  9.9999998E-03; -1.4023659E-01;2401;  1.1947232E-01;  0.0000000E+00; -9.2314281E-02;  1.0133755E+03;  4.0691829E-01;  1.1068485E+04;3;  3.5560776E+01;  0.0000000E+00; -4.5434337E+00;0;  1.4844162E+00;  9.9556416E+03;  0.0000000E+00; -3.2797316E-06;  1.0000000E+04;  0.0000000E+00;  9.9672734E+03;  1.0678700E+00;  0.0000000E+00;  4.1654626E-01;  1.5257689E+04;
  8.8024330E-01;  9.9999998E-03; -1.2019990E-01;2402;  1.1669321E-01;  0.0000000E+00; -8.2668051E-02;  1.0134446E+03;  4.0691781E-01;  1.1125603E+04;3;  3.5913921E+01;  0.0000000E+00; -4.9263844E+00;0;  1.5176523E+00;  9.9572158E+03;  0.0000000E+00; -2.3902710E-06;  1.0000000E+04;  0.0000000E+00;  9.9670723E+03;  1.0390198E+00;  0.0000000E+00;  4.7863245E-01;  1.5284538E+04;
  8.8023663E-01;  9.9999998E-03; -1.0016347E-01;2403;  1.1426150E-01;  0.0000000E+00; -7.2058886E-02;  1.0135119E+03;  4.0691745E-01;  1.1181340E+04;3;  3.6238754E+01;  0.0000000E+00; -5.5049615E+00;0;  1.5556517E+00;  9.9585674E+03;  0.0000000E+00; -1.7661704E-06;  1.0000000E+04;  0.0000000E+00;  9.9670566E+03;  1.0135956E+00;  0.0000000E+00;  5.4205614E-01;  1.5215151E+04;
  8.8023120E-01;  9.9999998E-03; -8.0129169E-02;2404;  1.1218165E-01;  0.0000000E+00; -6.0624529E-02;  1.0135776E+03;  4.0691718E-01;  1.1235695E+04;3;  3.6496265E+01;  0.0000000E+00; -5.8496847E+00;0;  1.5963535E+00;  9.9596787E+03;  0.0000000E+00; -1.9870256E-06;  1.0000000E+04;  0.0000000E+00;  9.9672588E+03;  9.9235064E-01;  0.0000000E+00;  6.0400283E-01;  1.5039287E+04;
  8.8022709E-01;  9.9999998E-03; -6.0096778E-02;2405;  1.1047614E-01;  0.0000000E+00; -4.7915675E-02;  1.0136373E+03;  4.0691689E-01;  1.1285120E+04;3;  3.6674335E+01;  0.0000000E+00; -5.5415668E+00;0;  1.6369861E+00;  9.9605332E+03;  0.0000000E+00; -1.9654924E-06;  1.0000000E+04;  0.0000000E+00;  9.9675889E+03;  9.7559470E-01;  0.0000000E+00;  6.6139144E-01;  1.4803849E+04;
  8.8022411E-01;  9.9999998E-03; -4.0065039E-02;2406;  1.0919057E-01;  0.0000000E+00; -3.3475202E-02;  1.0136844E+03;  4.0691668E-01;  1.1324087E+04;3;  3.6780479E+01;  0.0000000E+00; -4.3729248E+00;0;  1.6726800E+00;  9.9611455E+03;  0.0000000E+00; -1.2162657E-06;  1.0000000E+04;  0.0000000E+00;  9.9679160E+03;  9.6348399E-01;  0.0000000E+00;  7.0919603E-01;  1.4580003E+04;
  8.8022226E-01;  9.9999998E-03; -2.0032836E-02;2407;  1.0838435E-01;  0.0000000E+00; -1.7290425E-02;  1.0137142E+03;  4.0691650E-01;  1.1348749E+04;3;  3.6832916E+01;  0.0000000E+00; -2.4184256E+00;0;  1.6974902E+00;  9.9615098E+03;  0.0000000E+00; -3.5234359E-07;  1.0000000E+04;  0.0000000E+00;  9.9681406E+03;  9.5614785E-01;  0.0000000E+00;  7.4134237E-01;  1.4426646E+04;
  9.0032625E-01;  9.9999998E-03; -1.8028016E-01;2430;  1.5325625E-01;  0.0000000E+00; -1.0022184E-01;  1.0126865E+03;  4.0648288E-01;  1.0494021E+04;3;  4.4084759E+01;  0.0000000E+00; -5.9444804E+00;0;  1.2303985E+00;  9.9617559E+03;  0.0000000E+00;  4.2564203E-05;  1.0000000E+04;  0.0000000E+00;  9.9689678E+03;  9.1665685E-01;  0.0000000E+00;  3.1374171E-01;  1.4481544E+04;
  9.0031368E-01;  9.9999998E-03; -1.6025431E-01;2431;  1.4906946E-01;  0.0000000E+00; -9.4963618E-02;  1.0127807E+03;  4.0648231E-01;  1.0571925E+04;3;  4.4124252E+01;  0.0000000E+00; -5.0425057E+00;0;  1.2345181E+00;  9.9636240E+03;  0.0000000E+00; -1.5842506E-05;  1.0000000E+04;  0.0000000E+00;  9.9689746E+03;  8.8182694E-01;  0.0000000E+00;  3.5269108E-01;  1.4444478E+04;
  9.0030241E-01;  9.9999998E-03; -1.4022347E-01;2432;  1.4523117E-01;  0.0000000E+00; -8.7607764E-02;  1.0128586E+03;  4.0648207E-01;  1.0636415E+04;3;  4.4352009E+01;  0.0000000E+00; -4.8184719E+00;0;  1.2526551E+00;  9.9653301E+03;  0.0000000E+00; -1.6214786E-05;  1.0000000E+04;  0.0000000E+00;  9.9688174E+03;  8.4888929E-01;  0.0000000E+00;  4.0376589E-01;  1.4469606E+04;
  9.0029281E-01;  9.9999998E-03; -1.2018855E-01;2433;  1.4186101E-01;  0.0000000E+00; -7.8253798E-02;  1.0129252E+03;  4.0648174E-01;  1.0691540E+04;3;  4.4671177E+01;  0.0000000E+00; -5.0488787E+00;0;  1.2804081E+00;  9.9668037E+03;  0.0000000E+00; -1.0838323E-05;  1.0000000E+04;  0.0000000E+00;  9.9686709E+03;  8.1977850E-01;  0.0000000E+00;  4.6062970E-01;  1.4475226E+04;
  9.0028489E-01;  9.9999998E-03; -1.0015399E-01;2434;  1.3894708E-01;  0.0000000E+00; -6.8070143E-02;  1.0129886E+03;  4.0648133E-01;  1.0744002E+04;3;  4.4998775E+01;  0.0000000E+00; -5.4895825E+00;0;  1.3137970E+00;  9.9680283E+03;  0.0000000E+00; -7.4149798E-06;  1.0000000E+04;  0.0000000E+00;  9.9687090E+03;  7.9522032E-01;  0.0000000E+00;  5.1857662E-01;  1.4389654E+04;
  9.0027851E-01;  9.9999998E-03; -8.0121554E-02;2435;  1.3647191E-01;  0.0000000E+00; -5.7186548E-02;  1.0130496E+03;  4.0648106E-01;  1.0794392E+04;3;  4.5277855E+01;  0.0000000E+00; -5.7344289E+00;0;  1.3505194E+00;  9.9690078E+03;  0.0000000E+00; -5.8032474E-06;  1.0000000E+04;  0.0000000E+00;  9.9689414E+03;  7.7530712E-01;  0.0000000E+00;  5.7521230E-01;  1.4204855E+04;
  9.0027356E-01;  9.9999998E-03; -6.0091019E-02;2436;  1.3445011E-01;  0.0000000E+00; -4.5160886E-02;  1.0131046E+03;  4.0648100E-01;  1.0839852E+04;3;  4.5482048E+01;  0.0000000E+00; -5.3807292E+00;0;  1.3877561E+00;  9.9697559E+03;  0.0000000E+00; -4.3275559E-06;  1.0000000E+04;  0.0000000E+00;  9.9692910E+03;  7.5992715E-01;  0.0000000E+00;  6.2782896E-01;  1.3967388E+04;
  9.0027004E-01;  9.9999998E-03; -4.0061146E-02;2437;  1.3292958E-01;  0.0000000E+00; -3.1538006E-02;  1.0131481E+03;  4.0648070E-01;  1.0875943E+04;3;  4.5611355E+01;  0.0000000E+00; -4.2244616E+00;0;  1.4207895E+00;  9.9702822E+03;  0.0000000E+00; -2.3806203E-06;  1.0000000E+04;  0.0000000E+00;  9.9696240E+03;  7.4897587E-01;  0.0000000E+00;  6.7181355E-01;  1.3745852E+04;
  9.0026790E-01;  9.9999998E-03; -2.0030867E-02;2438;  1.3197717E-01;  0.0000000E+00; -1.6287105E-02;  1.0131754E+03;  4.0648073E-01;  1.0898426E+04;3;  4.5679001E+01;  0.0000000E+00; -2.3305092E+00;0;  1.4438922E+00;  9.9705967E+03;  0.0000000E+00; -6.5442822E-07;  1.0000000E+04;  0.0000000E+00;  9.9698555E+03;  7.4240768E-01;  0.0000000E+00;  7.0148450E-01;  1.3595666E+04;
  9.2036420E-01;  9.9999998E-03; -1.8026197E-01;2461;  1.7324126E-01;  0.0000000E+00; -9.4375975E-02;  1.0120685E+03;  4.0598217E-01;  9.9773613E+03;3;  5.1798687E+01;  0.0000000E+00; -6.1871061E+00;0;  9.8117661E-01;  9.9724590E+03;  0.0000000E+00;  1.0160281E-05;  1.0000000E+04;  0.0000000E+00;  9.9706855E+03;  6.7630142E-01;  0.0000000E+00;  3.0487520E-01;  1.3592345E+04;
  9.2034781E-01;  9.9999998E-03; -1.6023754E-01;2462;  1.6738990E-01;  0.0000000E+00; -8.9203745E-02;  1.0121656E+03;  4.0598196E-01;  1.0057588E+04;3;  5.1562786E+01;  0.0000000E+00; -5.2651687E+00;0;  9.7956753E-01;  9.9743545E+03;  0.0000000E+00; -3.6989615E-05;  1.0000000E+04;  0.0000000E+00;  9.9707148E+03;  6.3840765E-01;  0.0000000E+00;  3.4115985E-01;  1.3548227E+04;
  9.2033362E-01;  9.9999998E-03; -1.4020845E-01;2463;  1.6219985E-01;  0.0000000E+00; -8.2068942E-02;  1.0122401E+03;  4.0598160E-01;  1.0119287E+04;3;  5.1531292E+01;  0.0000000E+00; -4.9577308E+00;0;  9.9353182E-01;  9.9759609E+03;  0.0000000E+00; -2.8461342E-05;  1.0000000E+04;  0.0000000E+00;  9.9705928E+03;  6.0544050E-01;  0.0000000E+00;  3.8809136E-01;  1.3560976E+04;
  9.2032164E-01;  9.9999998E-03; -1.2017566E-01;2464;  1.5769954E-01;  0.0000000E+00; -7.3127382E-02;  1.0123006E+03;  4.0598130E-01;  1.0169258E+04;3;  5.1554783E+01;  0.0000000E+00; -5.0736771E+00;0;  1.0177692E+00;  9.9772725E+03;  0.0000000E+00; -1.8791690E-05;  1.0000000E+04;  0.0000000E+00;  9.9704912E+03;  5.7797474E-01;  0.0000000E+00;  4.3979448E-01;  1.3552252E+04;
  9.2031163E-01;  9.9999998E-03; -1.0014335E-01;2465;  1.5383536E-01;  0.0000000E+00; -6.3493654E-02;  1.0123571E+03;  4.0598115E-01;  1.0215877E+04;3;  5.1661896E+01;  0.0000000E+00; -5.4029841E+00;0;  1.0478518E+00;  9.9783125E+03;  0.0000000E+00; -1.3097604E-05;  1.0000000E+04;  0.0000000E+00;  9.9705625E+03;  5.5573988E-01;  0.0000000E+00;  4.9211192E-01;  1.3455193E+04;
  9.2030346E-01;  9.9999998E-03; -8.0113150E-02;2466;  1.5057658E-01;  0.0000000E+00; -5.3281318E-02;  1.0124106E+03;  4.0598094E-01;  1.0260229E+04;3;  5.1752682E+01;  0.0000000E+00; -5.5578299E+00;0;  1.0812981E+00;  9.9791182E+03;  0.0000000E+00; -9.8109840E-06;  1.0000000E+04;  0.0000000E+00;  9.9708242E+03;  5.3820145E-01;  0.0000000E+00;  5.4309666E-01;  1.3264546E+04;
  9.2029715E-01;  9.9999998E-03; -6.0084756E-02;2467;  1.4795567E-01;  0.0000000E+00; -4.2054571E-02;  1.0124595E+03;  4.0598071E-01;  1.0300638E+04;3;  5.1834774E+01;  0.0000000E+00; -5.1684556E+00;0;  1.1153877E+00;  9.9797217E+03;  0.0000000E+00; -6.8359700E-06;  1.0000000E+04;  0.0000000E+00;  9.9711943E+03;  5.2489716E-01;  0.0000000E+00;  5.9049046E-01;  1.3026962E+04;
  9.2029262E-01;  9.9999998E-03; -4.0056970E-02;2468;  1.4602935E-01;  0.0000000E+00; -2.9362218E-02;  1.0124979E+03;  4.0598065E-01;  1.0332374E+04;3;  5.1897697E+01;  0.0000000E+00; -4.0379601E+00;0;  1.1457443E+00;  9.9801426E+03;  0.0000000E+00; -3.5635869E-06;  1.0000000E+04;  0.0000000E+00;  9.9715371E+03;  5.1553679E-01;  0.0000000E+00;  6.3020754E-01;  1.2808743E+04;
  9.2028987E-01;  9.9999998E-03; -2.0028772E-02;2469;  1.4485347E-01;  0.0000000E+00; -1.5161960E-02;  1.0125219E+03;  4.0598050E-01;  1.0352185E+04;3;  5.1940392E+01;  0.0000000E+00; -2.2226515E+00;0;  1.1670364E+00;  9.9803896E+03;  0.0000000E+00; -9.7252826E-07;  1.0000000E+04;  0.0000000E+00;  9.9717666E+03;  5.0996488E-01;  0.0000000E+00;  6.5707153E-01;  1.2662099E+04;
  9.4037300E-01;  9.9999998E-03; -1.8024240E-01;2492;  1.7864485E-01;  0.0000000E+00; -8.8088490E-02;  1.0113455E+03;  4.0544155E-01;  9.3727070E+03;3;  5.5270271E+01;  0.0000000E+00; -6.4909658E+00;0;  7.3300552E-01;  9.9828721E+03;  0.0000000E+00; -1.6010308E-05;  1.0000000E+04;  0.0000000E+00;  9.9726113E+03;  4.4006726E-01;  0.0000000E+00;  2.9293826E-01;  1.2591373E+04;
  9.4035488E-01;  9.9999998E-03; -1.6021942E-01;2493;  1.7200796E-01;  0.0000000E+00; -8.2871690E-02;  1.0114395E+03;  4.0544134E-01;  9.4504160E+03;3;  5.4726173E+01;  0.0000000E+00; -5.4494143E+00;0;  7.2894526E-01;  9.9847031E+03;  0.0000000E+00; -4.1869465E-05;  1.0000000E+04;  0.0000000E+00;  9.9726436E+03;  4.0204000E-01;  0.0000000E+00;  3.2690528E-01;  1.2549118E+04;
  9.4033951E-01;  9.9999998E-03; -1.4019223E-01;2494;  1.6620567E-01;  0.0000000E+00; -7.5961508E-02;  1.0115062E+03;  4.0544114E-01;  9.5054727E+03;3;  5.4301441E+01;  0.0000000E+00; -5.0020647E+00;0;  7.4141192E-01;  9.9861328E+03;  0.0000000E+00; -2.8227480E-05;  1.0000000E+04;  0.0000000E+00;  9.9725361E+03;  3.7137881E-01;  0.0000000E+00;  3.7003314E-01;  1.2557457E+04;
  9.4032663E-01;  9.9999998E-03; -1.2016184E-01;2495;  1.6122304E-01;  0.0000000E+00; -6.7511909E-02;  1.0115571E+03;  4.0544090E-01;  9.5475293E+03;3;  5.4001373E+01;  0.0000000E+00; -4.9886909E+00;0;  7.6408869E-01;  9.9872256E+03;  0.0000000E+00; -1.8627476E-05;  1.0000000E+04;  0.0000000E+00;  9.9724600E+03;  3.4726417E-01;  0.0000000E+00;  4.1682452E-01;  1.2541085E+04;
  9.4031596E-01;  9.9999998E-03; -1.0013202E-01;2496;  1.5698770E-01;  0.0000000E+00; -5.8505278E-02;  1.0116031E+03;  4.0544084E-01;  9.5855479E+03;3;  5.3824123E+01;  0.0000000E+00; -5.1962667E+00;0;  7.9212749E-01;  9.9880400E+03;  0.0000000E+00; -1.3562212E-05;  1.0000000E+04;  0.0000000E+00;  9.9725635E+03;  3.2852125E-01;  0.0000000E+00;  4.6360624E-01;  1.2438127E+04;
  9.4030726E-01;  9.9999998E-03; -8.0104224E-02;2497;  1.5346532E-01;  0.0000000E+00; -4.9027424E-02;  1.0116481E+03;  4.0544066E-01;  9.6226787E+03;3;  5.3734882E+01;  0.0000000E+00; -5.2693591E+00;0;  8.2298285E-01;  9.9886475E+03;  0.0000000E+00; -1.0379595E-05;  1.0000000E+04;  0.0000000E+00;  9.9728447E+03;  3.1411994E-01;  0.0000000E+00;  5.0886291E-01;  1.2246114E+04;
  9.4030058E-01;  9.9999998E-03; -6.0078107E-02;2498;  1.5067157E-01;  0.0000000E+00; -3.8654227E-02;  1.0116891E+03;  4.0544054E-01;  9.6565586E+03;3;  5.3687706E+01;  0.0000000E+00; -4.8522100E+00;0;  8.5419238E-01;  9.9890850E+03;  0.0000000E+00; -7.2278276E-06;  1.0000000E+04;  0.0000000E+00;  9.9732266E+03;  3.0336502E-01;  0.0000000E+00;  5.5082732E-01;  1.2011586E+04;
  9.4029582E-01;  9.9999998E-03; -4.0052522E-02;2499;  1.4864798E-01;  0.0000000E+00; -2.6969479E-02;  1.0117222E+03;  4.0544051E-01;  9.6839375E+03;3;  5.3667244E+01;  0.0000000E+00; -3.7698545E+00;0;  8.8188666E-01;  9.9893848E+03;  0.0000000E+00; -3.7139303E-06;  1.0000000E+04;  0.0000000E+00;  9.9735762E+03;  2.9586715E-01;  0.0000000E+00;  5.8601952E-01;  1.1798485E+04;
  9.4029295E-01;  9.9999998E-03; -2.0026525E-02;2500;  1.4741656E-01;  0.0000000E+00; -1.3918054E-02;  1.0117424E+03;  4.0544048E-01;  9.7005820E+03;3;  5.3660675E+01;  0.0000000E+00; -2.0676870E+00;0;  9.0129054E-01;  9.9895596E+03;  0.0000000E+00; -9.8713701E-07;  1.0000000E+04;  0.0000000E+00;  9.9738086E+03;  2.9142869E-01;  0.0000000E+00;  6.0986185E-01;  1.1656054E+04;
  9.6037203E-01;  9.9999998E-03; -1.8022241E-01;2523;  1.7912681E-01;  0.0000000E+00; -8.1729114E-02;  1.0105052E+03;  4.0488455E-01;  8.6698936E+03;3;  5.6301884E+01;  0.0000000E+00; -6.8088102E+00;0;  5.1800847E-01;  9.9916855E+03;  0.0000000E+00; -1.6082613E-05;  1.0000000E+04;  0.0000000E+00;  9.9746523E+03;  2.3959903E-01;  0.0000000E+00;  2.7840945E-01;  1.1513896E+04;
  9.6035343E-01;  9.9999998E-03; -1.6020088E-01;2524;  1.7228602E-01;  0.0000000E+00; -7.6489575E-02;  1.0105925E+03;  4.0488422E-01;  8.7419189E+03;3;  5.5602932E+01;  0.0000000E+00; -5.6828942E+00;0;  5.1395750E-01;  9.9933916E+03;  0.0000000E+00; -2.4640371E-05;  1.0000000E+04;  0.0000000E+00;  9.9746738E+03;  2.0351170E-01;  0.0000000E+00;  3.1044579E-01;  1.1479162E+04;
  9.6033770E-01;  9.9999998E-03; -1.4017567E-01;2525;  1.6632703E-01;  0.0000000E+00; -6.9819592E-02;  1.0106489E+03;  4.0488413E-01;  8.7885605E+03;3;  5.5084885E+01;  0.0000000E+00; -5.1241550E+00;0;  5.2659655E-01;  9.9946191E+03;  0.0000000E+00; -1.4690055E-05;  1.0000000E+04;  0.0000000E+00;  9.9745703E+03;  1.7637132E-01;  0.0000000E+00;  3.5022524E-01;  1.1488674E+04;
  9.6032459E-01;  9.9999998E-03; -1.2014773E-01;2526;  1.6118881E-01;  0.0000000E+00; -6.1858840E-02;  1.0106890E+03;  4.0488395E-01;  8.8216240E+03;3;  5.4708557E+01;  0.0000000E+00; -4.9749479E+00;0;  5.4873019E-01;  9.9954756E+03;  0.0000000E+00; -1.0317734E-05;  1.0000000E+04;  0.0000000E+00;  9.9745137E+03;  1.5618980E-01;  0.0000000E+00;  3.9254040E-01;  1.1470286E+04;
  9.6031368E-01;  9.9999998E-03; -1.0012039E-01;2527;  1.5681656E-01;  0.0000000E+00; -5.3440224E-02;  1.0107247E+03;  4.0488389E-01;  8.8511436E+03;3;  5.4416920E+01;  0.0000000E+00; -5.0382957E+00;0;  5.7523167E-01;  9.9960693E+03;  0.0000000E+00; -8.5797537E-06;  1.0000000E+04;  0.0000000E+00;  9.9746279E+03;  1.4111689E-01;  0.0000000E+00;  4.3411478E-01;  1.1367100E+04;
  9.6030492E-01;  9.9999998E-03; -8.0094926E-02;2528;  1.5318771E-01;  0.0000000E+00; -4.4644564E-02;  1.0107606E+03;  4.0488383E-01;  8.8807617E+03;3;  5.4220840E+01;  0.0000000E+00; -4.9991260E+00;0;  6.0363787E-01;  9.9964824E+03;  0.0000000E+00; -7.2517223E-06;  1.0000000E+04;  0.0000000E+00;  9.9749229E+03;  1.2982164E-01;  0.0000000E+00;  4.7381622E-01;  1.1178884E+04;
  9.6029812E-01;  9.9999998E-03; -6.0071047E-02;2529;  1.5031669E-01;  0.0000000E+00; -3.5110127E-02;  1.0107940E+03;  4.0488374E-01;  8.9083125E+03;3;  5.4093132E+01;  0.0000000E+00; -4.5479889E+00;0;  6.3187289E-01;  9.9967666E+03;  0.0000000E+00; -5.2577989E-06;  1.0000000E+04;  0.0000000E+00;  9.9753076E+03;  1.2150197E-01;  0.0000000E+00;  5.1037091E-01;  1.0951292E+04;
  9.6029335E-01;  9.9999998E-03; -4.0047720E-02;2530;  1.4824571E-01;  0.0000000E+00; -2.4455462E-02;  1.0108214E+03;  4.0488377E-01;  8.9308447E+03;3;  5.4019295E+01;  0.0000000E+00; -3.5193684E+00;0;  6.5669882E-01;  9.9969541E+03;  0.0000000E+00; -2.7373376E-06;  1.0000000E+04;  0.0000000E+00;  9.9756631E+03;  1.1574429E-01;  0.0000000E+00;  5.4095453E-01;  1.0745501E+04;
  9.6029055E-01;  9.9999998E-03; -2.0024091E-02;2531;  1.4699626E-01;  0.0000000E+00; -1.2619841E-02;  1.0108383E+03;  4.0488356E-01;  8.9448174E+03;3;  5.3977596E+01;  0.0000000E+00; -1.9354827E+00;0;  6.7401838E-01;  9.9970576E+03;  0.0000000E+00; -7.1821751E-07;  1.0000000E+04;  0.0000000E+00;  9.9758955E+03;  1.1234985E-01;  0.0000000E+00;  5.6166852E-01;  1.0608101E+04;
  9.8036712E-01;  9.9999998E-03; -1.8020292E-01;2554;  1.7810391E-01;  0.0000000E+00; -7.5704575E-02;  1.0095622E+03;  4.0433231E-01;  7.8811416E+03;3;  5.6725155E+01;  0.0000000E+00; -7.2019715E+00;0;  3.5269946E-01;  9.9982061E+03;  0.0000000E+00; -2.8945244E-06;  1.0000000E+04;  0.0000000E+00;  9.9767363E+03;  9.1053024E-02;  0.0000000E+00;  2.6164642E-01;  1.0396376E+04;
  9.8034817E-01;  9.9999998E-03; -1.6018294E-01;2555;  1.7107819E-01;  0.0000000E+00; -7.0560507E-02;  1.0096424E+03;  4.0433210E-01;  7.9471787E+03;3;  5.6035320E+01;  0.0000000E+00; -6.0968156E+00;0;  3.4967551E-01;  9.9997988E+03;  0.0000000E+00; -1.9100312E-06;  1.0000000E+04;  0.0000000E+00;  9.9767383E+03;  5.7499189E-02;  0.0000000E+00;  2.9217631E-01;  1.0371397E+04;
  9.8033226E-01;  9.9999998E-03; -1.4015967E-01;2556;  1.6493402E-01;  0.0000000E+00; -6.4097978E-02;  1.0096902E+03;  4.0433204E-01;  7.9866855E+03;3;  5.5434555E+01;  0.0000000E+00; -5.3844280E+00;0;  3.6283815E-01;  1.0000852E+04;  0.0000000E+00;  2.3852954E-07;  1.0000000E+04;  0.0000000E+00;  9.9766348E+03;  3.3681586E-02;  0.0000000E+00;  3.2915658E-01;  1.0384689E+04;
  9.8031896E-01;  9.9999998E-03; -1.2013406E-01;2557;  1.5965258E-01;  0.0000000E+00; -5.6547586E-02;  1.0097213E+03;  4.0433201E-01;  8.0122393E+03;3;  5.4949806E+01;  0.0000000E+00; -5.0865793E+00;0;  3.8439509E-01;  1.0001525E+04;  0.0000000E+00; -1.0782892E-06;  1.0000000E+04;  0.0000000E+00;  9.9765811E+03;  1.6798617E-02;  0.0000000E+00;  3.6759648E-01;  1.0368229E+04;
  9.8030806E-01;  9.9999998E-03; -1.0010909E-01;2558;  1.5517364E-01;  0.0000000E+00; -4.8649747E-02;  1.0097482E+03;  4.0433192E-01;  8.0344512E+03;3;  5.4579792E+01;  0.0000000E+00; -5.0025210E+00;0;  4.0912774E-01;  1.0001946E+04;  0.0000000E+00; -2.4281367E-06;  1.0000000E+04;  0.0000000E+00;  9.9766963E+03;  4.6073147E-03;  0.0000000E+00;  4.0452042E-01;  1.0270185E+04;
  9.8029929E-01;  9.9999998E-03; -8.0085896E-02;2559;  1.5145580E-01;  0.0000000E+00; -4.0494081E-02;  1.0097766E+03;  4.0433198E-01;  8.0578398E+03;3;  5.4277107E+01;  0.0000000E+00; -4.8425241E+00;0;  4.3476853E-01;  1.0002210E+04;  0.0000000E+00; -3.0337642E-06;  1.0000000E+04;  0.0000000E+00;  9.9769932E+03; -4.3299510E-03;  0.0000000E+00;  4.3909848E-01;  1.0091578E+04;
  9.8029268E-01;  9.9999998E-03; -6.0064211E-02;2560;  1.4851597E-01;  0.0000000E+00; -3.1742468E-02;  1.0098043E+03;  4.0433177E-01;  8.0806392E+03;3;  5.4038502E+01;  0.0000000E+00; -4.3218980E+00;0;  4.5969060E-01;  1.0002374E+04;  0.0000000E+00; -2.5420834E-06;  1.0000000E+04;  0.0000000E+00;  9.9773750E+03; -1.0820695E-02;  0.0000000E+00;  4.7051129E-01;  9.8757412E+03;
  9.8028797E-01;  9.9999998E-03; -4.0043067E-02;2561;  1.4637852E-01;  0.0000000E+00; -2.2039535E-02;  1.0098267E+03;  4.0433171E-01;  8.0992104E+03;3;  5.3869431E+01;  0.0000000E+00; -3.2922590E+00;0;  4.8132744E-01;  1.0002471E+04;  0.0000000E+00; -1.3862466E-06;  1.0000000E+04;  0.0000000E+00;  9.9777266E+03; -1.5270437E-02;  0.0000000E+00;  4.9659789E-01;  9.6801963E+03;
  9.8028511E-01;  9.9999998E-03; -2.0021705E-02;2562;  1.4507948E-01;  0.0000000E+00; -1.1337210E-02;  1.0098411E+03;  4.0433177E-01;  8.1110034E+03;3;  5.3773121E+01;  0.0000000E+00; -1.7874898E+00;0;  4.9632478E-01;  1.0002523E+04;  0.0000000E+00; -3.5152513E-07;  1.0000000E+04;  0.0000000E+00;  9.9779590E+03; -1.7877880E-02;  0.0000000E+00;  5.1420265E-01;  9.5491406E+03;
  1.0003604E+00;  9.9999998E-03; -1.8018454E-01;2585;  1.7636684E-01;  0.0000000E+00; -6.9942996E-02;  1.0085582E+03;  4.0380305E-01;  7.0409160E+03;3;  5.6867191E+01;  0.0000000E+00; -7.3665709E+00;0;  2.3718856E-01;  1.0002443E+04;  0.0000000E+00; -6.6054687E-05;  1.0000000E+04;  0.0000000E+00;  9.9787715E+03; -5.8483337E-03;  0.0000000E+00;  2.4303690E-01;  9.2767666E+03;
  1.0003412E+00;  9.9999998E-03; -1.6016644E-01;2586;  1.6907971E-01;  0.0000000E+00; -6.5201879E-02;  1.0086343E+03;  4.0380311E-01;  7.1036001E+03;3;  5.6110008E+01;  0.0000000E+00; -6.3875570E+00;0;  2.3497246E-01;  1.0003963E+04;  0.0000000E+00;  1.2783172E-06;  1.0000000E+04;  0.0000000E+00;  9.9787695E+03; -3.7382971E-02;  0.0000000E+00;  2.7235544E-01;  9.2576113E+03;
  1.0003247E+00;  9.9999998E-03; -1.4014515E-01;2587;  1.6263635E-01;  0.0000000E+00; -5.9130173E-02;  1.0086774E+03;  4.0380293E-01;  7.1391152E+03;3;  5.5368740E+01;  0.0000000E+00; -5.7335725E+00;0;  2.4796581E-01;  1.0004923E+04;  0.0000000E+00;  1.7307558E-06;  1.0000000E+04;  0.0000000E+00;  9.9786641E+03; -5.9094753E-02;  0.0000000E+00;  3.0706057E-01;  9.2729678E+03;
  1.0003114E+00;  9.9999998E-03; -1.2012188E-01;2588;  1.5719086E-01;  0.0000000E+00; -5.2081350E-02;  1.0087032E+03;  4.0380287E-01;  7.1603101E+03;3;  5.4804623E+01;  0.0000000E+00; -5.4136548E+00;0;  2.6819149E-01;  1.0005494E+04;  0.0000000E+00;  1.4406206E-06;  1.0000000E+04;  0.0000000E+00;  9.9786113E+03; -7.4105114E-02;  0.0000000E+00;  3.4229660E-01;  9.2596494E+03;
  1.0003005E+00;  9.9999998E-03; -1.0009910E-01;2589;  1.5262932E-01;  0.0000000E+00; -4.4638194E-02;  1.0087253E+03;  4.0380296E-01;  7.1784619E+03;3;  5.4352203E+01;  0.0000000E+00; -5.1981201E+00;0;  2.9053599E-01;  1.0005816E+04;  0.0000000E+00;  1.0169674E-06;  1.0000000E+04;  0.0000000E+00;  9.9787236E+03; -8.4762275E-02;  0.0000000E+00;  3.7529826E-01;  9.1711816E+03;
  1.0002919E+00;  9.9999998E-03; -8.0077909E-02;2590;  1.4884856E-01;  0.0000000E+00; -3.6973007E-02;  1.0087485E+03;  4.0380287E-01;  7.1975933E+03;3;  5.3987728E+01;  0.0000000E+00; -4.8791151E+00;0;  3.1297544E-01;  1.0005994E+04;  0.0000000E+00;  1.1879565E-07;  1.0000000E+04;  0.0000000E+00;  9.9790039E+03; -9.2447974E-02;  0.0000000E+00;  4.0542340E-01;  9.0084023E+03;
  1.0002854E+00;  9.9999998E-03; -6.0058065E-02;2591;  1.4580704E-01;  0.0000000E+00; -2.8796062E-02;  1.0087715E+03;  4.0380284E-01;  7.2165264E+03;3;  5.3668903E+01;  0.0000000E+00; -4.2242775E+00;0;  3.3429316E-01;  1.0006086E+04;  0.0000000E+00; -4.3687075E-07;  1.0000000E+04;  0.0000000E+00;  9.9793662E+03; -9.7923659E-02;  0.0000000E+00;  4.3221682E-01;  8.8102363E+03;
  1.0002807E+00;  9.9999998E-03; -4.0038839E-02;2592;  1.4357139E-01;  0.0000000E+00; -1.9881735E-02;  1.0087909E+03;  4.0380284E-01;  7.2324185E+03;3;  5.3424259E+01;  0.0000000E+00; -3.1498845E+00;0;  3.5253012E-01;  1.0006132E+04;  0.0000000E+00; -3.4315235E-07;  1.0000000E+04;  0.0000000E+00;  9.9797080E+03; -1.0160845E-01;  0.0000000E+00;  4.5413858E-01;  8.6290674E+03;
  1.0002779E+00;  9.9999998E-03; -2.0019533E-02;2593;  1.4220612E-01;  0.0000000E+00; -1.0192420E-02;  1.0088033E+03;  4.0380290E-01;  7.2426201E+03;3;  5.3274246E+01;  0.0000000E+00; -1.6910760E+00;0;  3.6506563E-01;  1.0006151E+04;  0.0000000E+00; -9.9061666E-08;  1.0000000E+04;  0.0000000E+00;  9.9799395E+03; -1.0373803E-01;  0.0000000E+00;  4.6880367E-01;  8.5065596E+03;
  1.0203526E+00;  9.9999998E-03; -1.8016732E-01;2616;  1.7410953E-01;  0.0000000E+00; -6.4704575E-02;  1.0075465E+03;  4.0331146E-01;  6.1937183E+03;3;  5.6798565E+01;  0.0000000E+00; -7.7839079E+00;0;  1.6155310E-01;  1.0004823E+04;  0.0000000E+00; -1.8317488E-03;  1.0000000E+04;  0.0000000E+00;  9.9806807E+03; -6.1801512E-02;  0.0000000E+00;  2.2335461E-01;  8.1957988E+03;
  1.0203329E+00;  9.9999998E-03; -1.6015087E-01;2617;  1.6661544E-01;  0.0000000E+00; -6.0084995E-02;  1.0076230E+03;  4.0331131E-01;  6.2564507E+03;3;  5.5960560E+01;  0.0000000E+00; -6.6529579E+00;0;  1.5925625E-01;  1.0006318E+04;  0.0000000E+00; -8.1614795E-05;  1.0000000E+04;  0.0000000E+00;  9.9807041E+03; -9.1994368E-02;  0.0000000E+00;  2.5125062E-01;  8.1680845E+03;
  1.0203161E+00;  9.9999998E-03; -1.4013164E-01;2618;  1.5992370E-01;  0.0000000E+00; -5.4467387E-02;  1.0076664E+03;  4.0331128E-01;  6.2921768E+03;3;  5.5295364E+01;  0.0000000E+00; -6.0272117E+00;0;  1.7078628E-01;  1.0007274E+04;  0.0000000E+00; -1.8635210E-05;  1.0000000E+04;  0.0000000E+00;  9.9806152E+03; -1.1320584E-01;  0.0000000E+00;  2.8399211E-01;  8.1779106E+03;
  1.0203024E+00;  9.9999998E-03; -1.2011059E-01;2619;  1.5426166E-01;  0.0000000E+00; -4.7894560E-02;  1.0076924E+03;  4.0331131E-01;  6.3135176E+03;3;  5.4656075E+01;  0.0000000E+00; -5.6552134E+00;0;  1.8860711E-01;  1.0007834E+04;  0.0000000E+00; -6.0619964E-06;  1.0000000E+04;  0.0000000E+00;  9.9805693E+03; -1.2801011E-01;  0.0000000E+00;  3.1661722E-01;  8.1649399E+03;
  1.0202916E+00;  9.9999998E-03; -1.0008980E-01;2620;  1.4955789E-01;  0.0000000E+00; -4.0846314E-02;  1.0077132E+03;  4.0331125E-01;  6.3305513E+03;3;  5.4112900E+01;  0.0000000E+00; -5.3090272E+00;0;  2.0790869E-01;  1.0008146E+04;  0.0000000E+00;  1.1729232E-06;  1.0000000E+04;  0.0000000E+00;  9.9806738E+03; -1.3857073E-01;  0.0000000E+00;  3.4647942E-01;  8.0882676E+03;
  1.0202831E+00;  9.9999998E-03; -8.0070473E-02;2621;  1.4566804E-01;  0.0000000E+00; -3.3624429E-02;  1.0077340E+03;  4.0331137E-01;  6.3476812E+03;3;  5.3619774E+01;  0.0000000E+00; -4.8584704E+00;0;  2.2687888E-01;  1.0008307E+04;  0.0000000E+00;  2.5231000E-06;  1.0000000E+04;  0.0000000E+00;  9.9809258E+03; -1.4610726E-01;  0.0000000E+00;  3.7298614E-01;  7.9469233E+03;
  1.0202767E+00;  9.9999998E-03; -6.0052440E-02;2622;  1.4255606E-01;  0.0000000E+00; -2.6067359E-02;  1.0077546E+03;  4.0331125E-01;  6.3645151E+03;3;  5.3189327E+01;  0.0000000E+00; -4.1449981E+00;0;  2.4455853E-01;  1.0008376E+04;  0.0000000E+00;  1.4695382E-06;  1.0000000E+04;  0.0000000E+00;  9.9812588E+03; -1.5134315E-01;  0.0000000E+00;  3.9590168E-01;  7.7728809E+03;
  1.0202721E+00;  9.9999998E-03; -4.0034983E-02;2623;  1.4025086E-01;  0.0000000E+00; -1.7928349E-02;  1.0077715E+03;  4.0331125E-01;  6.3784121E+03;3;  5.2849785E+01;  0.0000000E+00; -3.0632825E+00;0;  2.5944582E-01;  1.0008399E+04;  0.0000000E+00;  4.9178402E-07;  1.0000000E+04;  0.0000000E+00;  9.9815781E+03; -1.5476507E-01;  0.0000000E+00;  4.1421089E-01;  7.6114136E+03;
  1.0202693E+00;  9.9999998E-03; -2.0017555E-02;2624;  1.3882062E-01;  0.0000000E+00; -9.1633499E-03;  1.0077828E+03;  4.0331122E-01;  6.3877095E+03;3;  5.2629604E+01;  0.0000000E+00; -1.6340787E+00;0;  2.6957166E-01;  1.0008402E+04;  0.0000000E+00;  8.7988013E-08;  1.0000000E+04;  0.0000000E+00;  9.9817969E+03; -1.5669619E-01;  0.0000000E+00;  4.2626786E-01;  7.5007397E+03;
  1.0403440E+00;  9.9999998E-03; -1.8015160E-01;2647;  1.7157136E-01;  0.0000000E+00; -5.9638161E-02;  1.0065773E+03;  4.0286702E-01;  5.3809214E+03;3;  5.6711437E+01;  0.0000000E+00; -7.8619456E+00;0;  1.1320948E-01;  1.0005920E+04;  0.0000000E+00; -1.1496122E-02;  1.0000000E+04;  0.0000000E+00;  9.9823799E+03; -9.0528764E-02;  0.0000000E+00;  2.0373824E-01;  7.1909810E+03;
  1.0403234E+00;  9.9999998E-03; -1.6013610E-01;2648;  1.6358280E-01;  0.0000000E+00; -5.5235963E-02;  1.0066565E+03;  4.0286687E-01;  5.4456987E+03;3;  5.5773830E+01;  0.0000000E+00; -6.9992142E+00;0;  1.0996150E-01;  1.0007387E+04;  0.0000000E+00; -1.1002038E-03;  1.0000000E+04;  0.0000000E+00;  9.9824873E+03; -1.1940426E-01;  0.0000000E+00;  2.2936577E-01;  7.1324912E+03;
  1.0403062E+00;  9.9999998E-03; -1.4011908E-01;2649;  1.5663290E-01;  0.0000000E+00; -5.0075583E-02;  1.0067064E+03;  4.0286678E-01;  5.4865786E+03;3;  5.4968304E+01;  0.0000000E+00; -6.3431587E+00;0;  1.1861551E-01;  1.0008416E+04;  0.0000000E+00; -6.2661195E-05;  1.0000000E+04;  0.0000000E+00;  9.9824561E+03; -1.4137739E-01;  0.0000000E+00;  2.5999290E-01;  7.1221396E+03;
  1.0402923E+00;  9.9999998E-03; -1.2010021E-01;2650;  1.5072976E-01;  0.0000000E+00; -4.3983243E-02;  1.0067377E+03;  4.0286681E-01;  5.5121445E+03;3;  5.4325665E+01;  0.0000000E+00; -5.8026562E+00;0;  1.3295248E-01;  1.0009054E+04;  0.0000000E+00; -2.4838970E-05;  1.0000000E+04;  0.0000000E+00;  9.9824365E+03; -1.5742058E-01;  0.0000000E+00;  2.9037306E-01;  7.1021094E+03;
  1.0402813E+00;  9.9999998E-03; -1.0008147E-01;2651;  1.4582925E-01;  0.0000000E+00; -3.7420243E-02;  1.0067608E+03;  4.0286684E-01;  5.5310762E+03;3;  5.3652775E+01;  0.0000000E+00; -5.3694730E+00;0;  1.4873555E-01;  1.0009426E+04;  0.0000000E+00; -1.8245865E-06;  1.0000000E+04;  0.0000000E+00;  9.9825293E+03; -1.6906402E-01;  0.0000000E+00;  3.1779957E-01;  7.0358691E+03;
  1.0402728E+00;  9.9999998E-03; -8.0063857E-02;2652;  1.4181775E-01;  0.0000000E+00; -3.0628646E-02;  1.0067813E+03;  4.0286678E-01;  5.5478594E+03;3;  5.3030209E+01;  0.0000000E+00; -4.8144312E+00;0;  1.6425377E-01;  1.0009619E+04;  0.0000000E+00;  5.2450550E-06;  1.0000000E+04;  0.0000000E+00;  9.9827451E+03; -1.7732114E-01;  0.0000000E+00;  3.4157491E-01;  6.9192646E+03;
  1.0402665E+00;  9.9999998E-03; -6.0047384E-02;2653;  1.3861807E-01;  0.0000000E+00; -2.3585565E-02;  1.0068005E+03;  4.0286684E-01;  5.5635669E+03;3;  5.2469688E+01;  0.0000000E+00; -4.0239220E+00;0;  1.7856745E-01;  1.0009706E+04;  0.0000000E+00;  4.3151135E-06;  1.0000000E+04;  0.0000000E+00;  9.9830352E+03; -1.8292581E-01;  0.0000000E+00;  3.6149326E-01;  6.7748828E+03;
  1.0402620E+00;  9.9999998E-03; -4.0031485E-02;2654;  1.3624458E-01;  0.0000000E+00; -1.6111832E-02;  1.0068163E+03;  4.0286678E-01;  5.5765425E+03;3;  5.2036213E+01;  0.0000000E+00; -2.9215589E+00;0;  1.9044103E-01;  1.0009737E+04;  0.0000000E+00;  1.8823594E-06;  1.0000000E+04;  0.0000000E+00;  9.9833232E+03; -1.8647970E-01;  0.0000000E+00;  3.7692073E-01;  6.6387031E+03;
  1.0402592E+00;  9.9999998E-03; -2.0015756E-02;2655;  1.3477091E-01;  0.0000000E+00; -8.2008326E-03;  1.0068264E+03;  4.0286678E-01;  5.5847378E+03;3;  5.1753635E+01;  0.0000000E+00; -1.5430615E+00;0;  1.9841219E-01;  1.0009746E+04;  0.0000000E+00;  4.1117610E-07;  1.0000000E+04;  0.0000000E+00;  9.9835186E+03; -1.8843190E-01;  0.0000000E+00;  3.8684410E-01;  6.5438101E+03;
  1.0603347E+00;  9.9999998E-03; -1.8013635E-01;2678;  1.6876477E-01;  0.0000000E+00; -5.4339398E-02;  1.0056868E+03;  4.0247554E-01;  4.6323623E+03;3;  5.6623638E+01;  0.0000000E+00; -7.8625312E+00;0;  8.2163140E-02;  1.0006221E+04;  0.0000000E+00; -4.1671313E-02;  1.0000000E+04;  0.0000000E+00;  9.9838086E+03; -1.0339601E-01;  0.0000000E+00;  1.8555915E-01;  6.2885562E+03;
  1.0603131E+00;  9.9999998E-03; -1.6012228E-01;2679;  1.6019307E-01;  0.0000000E+00; -5.0469257E-02;  1.0057684E+03;  4.0247554E-01;  4.6989053E+03;3;  5.5479168E+01;  0.0000000E+00; -7.0826392E+00;0;  7.7737197E-02;  1.0007591E+04;  0.0000000E+00; -6.4374758E-03;  1.0000000E+04;  0.0000000E+00;  9.9840635E+03; -1.2991108E-01;  0.0000000E+00;  2.0764828E-01;  6.1779336E+03;
  1.0602953E+00;  9.9999998E-03; -1.4010715E-01;2680;  1.5285271E-01;  0.0000000E+00; -4.5832422E-02;  1.0058284E+03;  4.0247548E-01;  4.7477710E+03;3;  5.4577969E+01;  0.0000000E+00; -6.4933786E+00;0;  8.2463339E-02;  1.0008707E+04;  0.0000000E+00; -2.2691178E-04;  1.0000000E+04;  0.0000000E+00;  9.9841445E+03; -1.5293758E-01;  0.0000000E+00;  2.3540092E-01;  6.1289082E+03;
  1.0602810E+00;  9.9999998E-03; -1.2009066E-01;2681;  1.4661987E-01;  0.0000000E+00; -4.0368665E-02;  1.0058698E+03;  4.0247551E-01;  4.7815815E+03;3;  5.3690281E+01;  0.0000000E+00; -6.0602193E+00;0;  9.2382118E-02;  1.0009489E+04;  0.0000000E+00; -6.0059909E-05;  1.0000000E+04;  0.0000000E+00;  9.9841865E+03; -1.7115374E-01;  0.0000000E+00;  2.6353586E-01;  6.0905786E+03;
  1.0602700E+00;  9.9999998E-03; -1.0007390E-01;2682;  1.4154910E-01;  0.0000000E+00; -3.4215417E-02;  1.0058992E+03;  4.0247539E-01;  4.8054829E+03;3;  5.2915359E+01;  0.0000000E+00; -5.3723702E+00;0;  1.0430388E-01;  1.0009975E+04;  0.0000000E+00; -1.2584898E-05;  1.0000000E+04;  0.0000000E+00;  9.9842852E+03; -1.8468304E-01;  0.0000000E+00;  2.8898692E-01;  6.0287539E+03;
  1.0602615E+00;  9.9999998E-03; -8.0057949E-02;2683;  1.3741809E-01;  0.0000000E+00; -2.7866384E-02;  1.0059221E+03;  4.0247548E-01;  4.8241377E+03;3;  5.2204407E+01;  0.0000000E+00; -4.6746578E+00;0;  1.1651501E-01;  1.0010252E+04;  0.0000000E+00;  6.1949831E-06;  1.0000000E+04;  0.0000000E+00;  9.9844668E+03; -1.9427714E-01;  0.0000000E+00;  3.1079215E-01;  5.9356255E+03;
  1.0602552E+00;  9.9999998E-03; -6.0042839E-02;2684;  1.3413687E-01;  0.0000000E+00; -2.1275219E-02;  1.0059409E+03;  4.0247548E-01;  4.8394883E+03;3;  5.1555820E+01;  0.0000000E+00; -3.8034244E+00;0;  1.2789781E-01;  1.0010394E+04;  0.0000000E+00;  7.7479426E-06;  1.0000000E+04;  0.0000000E+00;  9.9847002E+03; -2.0069821E-01;  0.0000000E+00;  3.2859603E-01;  5.8232534E+03;
  1.0602508E+00;  9.9999998E-03; -4.0028352E-02;2685;  1.3171077E-01;  0.0000000E+00; -1.4429746E-02;  1.0059558E+03;  4.0247545E-01;  4.8516323E+03;3;  5.1033276E+01;  0.0000000E+00; -2.7138784E+00;0;  1.3727477E-01;  1.0010455E+04;  0.0000000E+00;  4.0438886E-06;  1.0000000E+04;  0.0000000E+00;  9.9849326E+03; -2.0468417E-01;  0.0000000E+00;  3.4195894E-01;  5.7163979E+03;
  1.0602480E+00;  9.9999998E-03; -2.0014131E-02;2686;  1.3020213E-01;  0.0000000E+00; -7.3032356E-03;  1.0059651E+03;  4.0247542E-01;  4.8592100E+03;3;  5.0689083E+01;  0.0000000E+00; -1.4191034E+00;0;  1.4349671E-01;  1.0010474E+04;  0.0000000E+00;  1.0052436E-06;  1.0000000E+04;  0.0000000E+00;  9.9850986E+03; -2.0682718E-01;  0.0000000E+00;  3.5032389E-01;  5.6408164E+03;
  1.0803255E+00;  9.9999998E-03; -1.8012129E-01;2709;  1.6575898E-01;  0.0000000E+00; -4.8561629E-02;  1.0048954E+03;  4.0213946E-01;  3.9649639E+03;3;  5.6473263E+01;  0.0000000E+00; -7.6029987E+00;0;  6.2507927E-02;  1.0006043E+04;  0.0000000E+00; -1.1303242E-01;  1.0000000E+04;  0.0000000E+00;  9.9849414E+03; -1.0762213E-01;  0.0000000E+00;  1.7013006E-01;  5.5073257E+03;
  1.0803030E+00;  9.9999998E-03; -1.6010943E-01;2710;  1.5671961E-01;  0.0000000E+00; -4.5643717E-02;  1.0049741E+03;  4.0213948E-01;  4.0287190E+03;3;  5.5057739E+01;  0.0000000E+00; -6.9592223E+00;0;  5.7840720E-02;  1.0007184E+04;  0.0000000E+00; -2.6415583E-02;  1.0000000E+04;  0.0000000E+00;  9.9853721E+03; -1.2976032E-01;  0.0000000E+00;  1.8760104E-01;  5.3267925E+03;
  1.0802842E+00;  9.9999998E-03; -1.4009590E-01;2711;  1.4881568E-01;  0.0000000E+00; -4.1603293E-02;  1.0050443E+03;  4.0213954E-01;  4.0857109E+03;3;  5.3950012E+01;  0.0000000E+00; -6.4550591E+00;0;  5.8579326E-02;  1.0008330E+04;  0.0000000E+00; -2.1897587E-03;  1.0000000E+04;  0.0000000E+00;  9.9856240E+03; -1.5264913E-01;  0.0000000E+00;  2.1122846E-01;  5.2232642E+03;
  1.0802696E+00;  9.9999998E-03; -1.2008189E-01;2712;  1.4230849E-01;  0.0000000E+00; -3.6890998E-02;  1.0050993E+03;  4.0213948E-01;  4.1302427E+03;3;  5.2971687E+01;  0.0000000E+00; -5.9530120E+00;0;  6.3420698E-02;  1.0009280E+04;  0.0000000E+00; -1.2129293E-04;  1.0000000E+04;  0.0000000E+00;  9.9857744E+03; -1.7315008E-01;  0.0000000E+00;  2.3657078E-01;  5.1534370E+03;
  1.0802583E+00;  9.9999998E-03; -1.0006711E-01;2713;  1.3692342E-01;  0.0000000E+00; -3.1399008E-02;  1.0051392E+03;  4.0213934E-01;  4.1626035E+03;3;  5.2046066E+01;  0.0000000E+00; -5.3999510E+00;0;  7.1010292E-02;  1.0009935E+04;  0.0000000E+00; -4.2601456E-05;  1.0000000E+04;  0.0000000E+00;  9.9859131E+03; -1.8907481E-01;  0.0000000E+00;  2.6008511E-01;  5.0857217E+03;
  1.0802497E+00;  9.9999998E-03; -8.0052674E-02;2714;  1.3264383E-01;  0.0000000E+00; -2.5432669E-02;  1.0051675E+03;  4.0213940E-01;  4.1854990E+03;3;  5.1129261E+01;  0.0000000E+00; -4.6500893E+00;0;  7.9834521E-02;  1.0010338E+04;  0.0000000E+00; -2.7668887E-06;  1.0000000E+04;  0.0000000E+00;  9.9860752E+03; -2.0051599E-01;  0.0000000E+00;  2.8035051E-01;  5.0088555E+03;
  1.0802433E+00;  9.9999998E-03; -6.0038887E-02;2715;  1.2931199E-01;  0.0000000E+00; -1.9274563E-02;  1.0051880E+03;  4.0213937E-01;  4.2022119E+03;3;  5.0438835E+01;  0.0000000E+00; -3.6194196E+00;0;  8.8554338E-02;  1.0010561E+04;  0.0000000E+00;  7.7151371E-06;  1.0000000E+04;  0.0000000E+00;  9.9862607E+03; -2.0817493E-01;  0.0000000E+00;  2.9672927E-01;  4.9252822E+03;
  1.0802389E+00;  9.9999998E-03; -4.0025633E-02;2716;  1.2685077E-01;  0.0000000E+00; -1.2972719E-02;  1.0052028E+03;  4.0213946E-01;  4.2140938E+03;3;  4.9843914E+01;  0.0000000E+00; -2.5359676E+00;0;  9.5895946E-02;  1.0010676E+04;  0.0000000E+00;  5.5343949E-06;  1.0000000E+04;  0.0000000E+00;  9.9864365E+03; -2.1288621E-01;  0.0000000E+00;  3.0878216E-01;  4.8478535E+03;
  1.0802363E+00;  9.9999998E-03; -2.0012740E-02;2717;  1.2533332E-01;  0.0000000E+00; -6.5386952E-03;  1.0052116E+03;  4.0213931E-01;  4.2212432E+03;3;  4.9452713E+01;  0.0000000E+00; -1.3157960E+00;0;  1.0078056E-01;  1.0010726E+04;  0.0000000E+00;  1.5828108E-06;  1.0000000E+04;  0.0000000E+00;  9.9865645E+03; -2.1538968E-01;  0.0000000E+00;  3.1617025E-01;  4.7930054E+03;
  1.1003175E+00;  9.9999998E-03; -1.8010721E-01;2739;  1.6305871E-01;  0.0000000E+00; -4.2790473E-02;  1.0042097E+03;  4.0185732E-01;  3.3840383E+03;3;  5.6483944E+01;  0.0000000E+00; -7.2190189E+00;0;  5.1389344E-02;  1.0005578E+04;  0.0000000E+00; -2.5183177E-01;  1.0000000E+04;  0.0000000E+00;  9.9857910E+03; -1.0697799E-01;  0.0000000E+00;  1.5836734E-01;  4.8763228E+03;
  1.1002929E+00;  9.9999998E-03; -1.6009609E-01;2740;  1.5321060E-01;  0.0000000E+00; -4.0242724E-02;  1.0042777E+03;  4.0185750E-01;  3.4386960E+03;3;  5.4612915E+01;  0.0000000E+00; -6.6068077E+00;0;  4.8374601E-02;  1.0006333E+04;  0.0000000E+00; -8.1904687E-02;  1.0000000E+04;  0.0000000E+00;  9.9863848E+03; -1.2242041E-01;  0.0000000E+00;  1.7079501E-01;  4.5927114E+03;
  1.1002737E+00;  9.9999998E-03; -1.4008535E-01;2741;  1.4492886E-01;  0.0000000E+00; -3.7308294E-02;  1.0043522E+03;  4.0185747E-01;  3.4986177E+03;3;  5.3251816E+01;  0.0000000E+00; -6.1738496E+00;0;  4.6506137E-02;  1.0007366E+04;  0.0000000E+00; -1.4476669E-02;  1.0000000E+04;  0.0000000E+00;  9.9868340E+03; -1.4272721E-01;  0.0000000E+00;  1.8923335E-01;  4.4272520E+03;
  1.1002584E+00;  9.9999998E-03; -1.2007322E-01;2742;  1.3792565E-01;  0.0000000E+00; -3.3276580E-02;  1.0044211E+03;  4.0185738E-01;  3.5540308E+03;3;  5.2093197E+01;  0.0000000E+00; -5.7829189E+00;0;  4.6430439E-02;  1.0008435E+04;  0.0000000E+00; -9.2139101E-04;  1.0000000E+04;  0.0000000E+00;  9.9871426E+03; -1.6422561E-01;  0.0000000E+00;  2.1065605E-01;  4.3151953E+03;
  1.1002467E+00;  9.9999998E-03; -1.0006084E-01;2743;  1.3231532E-01;  0.0000000E+00; -2.8588919E-02;  1.0044750E+03;  4.0185729E-01;  3.5973638E+03;3;  5.1004417E+01;  0.0000000E+00; -5.1755295E+00;0;  4.9021646E-02;  1.0009289E+04;  0.0000000E+00; -1.0398332E-04;  1.0000000E+04;  0.0000000E+00;  9.9873662E+03; -1.8270949E-01;  0.0000000E+00;  2.3173113E-01;  4.2297529E+03;
  1.1002380E+00;  9.9999998E-03; -8.0047935E-02;2744;  1.2780099E-01;  0.0000000E+00; -2.3204926E-02;  1.0045134E+03;  4.0185738E-01;  3.6282346E+03;3;  5.0026501E+01;  0.0000000E+00; -4.3991141E+00;0;  5.3879574E-02;  1.0009869E+04;  0.0000000E+00; -3.4014032E-05;  1.0000000E+04;  0.0000000E+00;  9.9875498E+03; -1.9651274E-01;  0.0000000E+00;  2.5039232E-01;  4.1572993E+03;
  1.1002315E+00;  9.9999998E-03; -6.0035400E-02;2745;  1.2434879E-01;  0.0000000E+00; -1.7532475E-02;  1.0045392E+03;  4.0185735E-01;  3.6490398E+03;3;  4.9171310E+01;  0.0000000E+00; -3.4887073E+00;0;  5.9689298E-02;  1.0010229E+04;  0.0000000E+00; -3.9287470E-06;  1.0000000E+04;  0.0000000E+00;  9.9877051E+03; -2.0594679E-01;  0.0000000E+00;  2.6563609E-01;  4.0931086E+03;
  1.1002271E+00;  9.9999998E-03; -4.0023278E-02;2746;  1.2186398E-01;  0.0000000E+00; -1.1714099E-02;  1.0045558E+03;  4.0185735E-01;  3.6623674E+03;3;  4.8523228E+01;  0.0000000E+00; -2.3684316E+00;0;  6.5049782E-02;  1.0010424E+04;  0.0000000E+00;  2.6506425E-06;  1.0000000E+04;  0.0000000E+00;  9.9878398E+03; -2.1180741E-01;  0.0000000E+00;  2.7685720E-01;  4.0394341E+03;
  1.1002245E+00;  9.9999998E-03; -2.0011533E-02;2747;  1.2034159E-01;  0.0000000E+00; -5.8633746E-03;  1.0045649E+03;  4.0185744E-01;  3.6697505E+03;3;  4.8096004E+01;  0.0000000E+00; -1.2084851E+00;0;  6.8778127E-02;  1.0010519E+04;  0.0000000E+00;  1.2405900E-06;  1.0000000E+04;  0.0000000E+00;  9.9879297E+03; -2.1492562E-01;  0.0000000E+00;  2.8370374E-01;  4.0029136E+03;
  1.1203116E+00;  9.9999998E-03; -1.8009460E-01;2768;  1.6086493E-01;  0.0000000E+00; -3.7059627E-02;  1.0036334E+03;  4.0162617E-01;  2.8919028E+03;3;  5.6846142E+01;  0.0000000E+00; -6.5781240E+00;0;  4.5984514E-02;  1.0004979E+04;  0.0000000E+00; -4.8725402E-01;  1.0000000E+04;  0.0000000E+00;  9.9864160E+03; -1.0419146E-01;  0.0000000E+00;  1.5017597E-01;  4.4599243E+03;
  1.1202847E+00;  9.9999998E-03; -1.6008364E-01;2769;  1.5016912E-01;  0.0000000E+00; -3.4786105E-02;  1.0036811E+03;  4.0162641E-01;  2.9299001E+03;3;  5.4351677E+01;  0.0000000E+00; -6.0647998E+00;0;  4.6985716E-02;  1.0005228E+04;  0.0000000E+00; -2.0886050E-01;  1.0000000E+04;  0.0000000E+00;  9.9871104E+03; -1.1133696E-01;  0.0000000E+00;  1.5832268E-01;  3.9988401E+03;
  1.1202639E+00;  9.9999998E-03; -1.4007413E-01;2770;  1.4122221E-01;  0.0000000E+00; -3.2454941E-02;  1.0037495E+03;  4.0162626E-01;  2.9843982E+03;3;  5.2602421E+01;  0.0000000E+00; -5.7234087E+00;0;  4.5280010E-02;  1.0005968E+04;  0.0000000E+00; -6.1406095E-02;  1.0000000E+04;  0.0000000E+00;  9.9877305E+03; -1.2600845E-01;  0.0000000E+00;  1.7128846E-01;  3.7521868E+03;
  1.1202482E+00;  9.9999998E-03; -1.2006473E-01;2771;  1.3386515E-01;  0.0000000E+00; -2.9543299E-02;  1.0038255E+03;  4.0162638E-01;  3.0449614E+03;3;  5.1181263E+01;  0.0000000E+00; -5.3585696E+00;0;  4.2064473E-02;  1.0006987E+04;  0.0000000E+00; -1.0517243E-02;  1.0000000E+04;  0.0000000E+00;  9.9882305E+03; -1.4559293E-01;  0.0000000E+00;  1.8765740E-01;  3.5946860E+03;
  1.1202359E+00;  9.9999998E-03; -1.0005417E-01;2772;  1.2783548E-01;  0.0000000E+00; -2.5578761E-02;  1.0038940E+03;  4.0162629E-01;  3.0994470E+03;3;  4.9913532E+01;  0.0000000E+00; -4.8974328E+00;0;  3.9817393E-02;  1.0007994E+04;  0.0000000E+00; -8.4013771E-04;  1.0000000E+04;  0.0000000E+00;  9.9885879E+03; -1.6538830E-01;  0.0000000E+00;  2.0520569E-01;  3.4826016E+03;
  1.1202270E+00;  9.9999998E-03; -8.0043361E-02;2773;  1.2315098E-01;  0.0000000E+00; -2.0995712E-02;  1.0039463E+03;  4.0162626E-01;  3.1411179E+03;3;  4.8796646E+01;  0.0000000E+00; -4.1464343E+00;0;  3.9919615E-02;  1.0008787E+04;  0.0000000E+00; -9.4191557E-05;  1.0000000E+04;  0.0000000E+00;  9.9888398E+03; -1.8175213E-01;  0.0000000E+00;  2.2167175E-01;  3.4021409E+03;
  1.1202203E+00;  9.9999998E-03; -6.0032137E-02;2774;  1.1954720E-01;  0.0000000E+00; -1.5866026E-02;  1.0039819E+03;  4.0162638E-01;  3.1695007E+03;3;  4.7868942E+01;  0.0000000E+00; -3.2108119E+00;0;  4.2047918E-02;  1.0009325E+04;  0.0000000E+00; -3.5107496E-05;  1.0000000E+04;  0.0000000E+00;  9.9890146E+03; -1.9351642E-01;  0.0000000E+00;  2.3556434E-01;  3.3443379E+03;
  1.1202159E+00;  9.9999998E-03; -4.0021211E-02;2775;  1.1700105E-01;  0.0000000E+00; -1.0623306E-02;  1.0040041E+03;  4.0162623E-01;  3.1871575E+03;3;  4.7178101E+01;  0.0000000E+00; -2.1810141E+00;0;  4.4916481E-02;  1.0009649E+04;  0.0000000E+00; -9.2524242E-06;  1.0000000E+04;  0.0000000E+00;  9.9891309E+03; -2.0108013E-01;  0.0000000E+00;  2.4599661E-01;  3.3038796E+03;
  1.1202133E+00;  9.9999998E-03; -2.0010509E-02;2776;  1.1544812E-01;  0.0000000E+00; -5.3189658E-03;  1.0040159E+03;  4.0162620E-01;  3.1965562E+03;3;  4.6677242E+01;  0.0000000E+00; -1.1344743E+00;0;  4.7239453E-02;  1.0009819E+04;  0.0000000E+00; -1.3517296E-06;  1.0000000E+04;  0.0000000E+00;  9.9892012E+03; -2.0520034E-01;  0.0000000E+00;  2.5243980E-01;  3.2792383E+03;
  1.1403081E+00;  9.9999998E-03; -1.8008420E-01;2796;  1.5935934E-01;  0.0000000E+00; -3.1686712E-02;  1.0031663E+03;  4.0144092E-01;  2.4878538E+03;3;  5.7786667E+01;  0.0000000E+00; -5.7999234E+00;0;  4.2724706E-02;  1.0004393E+04;  0.0000000E+00; -8.3395261E-01;  1.0000000E+04;  0.0000000E+00;  9.9869268E+03; -1.0161442E-01;  0.0000000E+00;  1.4433913E-01;  4.3220894E+03;
  1.1402787E+00;  9.9999998E-03; -1.6007277E-01;2797;  1.4781292E-01;  0.0000000E+00; -2.9547445E-02;  1.0031872E+03;  4.0144080E-01;  2.5042993E+03;3;  5.4402229E+01;  0.0000000E+00; -5.3455300E+00;0;  4.9316429E-02;  1.0004105E+04;  0.0000000E+00; -4.4876540E-01;  1.0000000E+04;  0.0000000E+00;  9.9876250E+03; -1.0073654E-01;  0.0000000E+00;  1.5005296E-01;  3.6132390E+03;
  1.1402562E+00;  9.9999998E-03; -1.4006366E-01;2798;  1.3808841E-01;  0.0000000E+00; -2.7452150E-02;  1.0032372E+03;  4.0144092E-01;  2.5435879E+03;3;  5.2073170E+01;  0.0000000E+00; -4.9802456E+00;0;  5.1002309E-02;  1.0004378E+04;  0.0000000E+00; -1.8795067E-01;  1.0000000E+04;  0.0000000E+00;  9.9883447E+03; -1.0737713E-01;  0.0000000E+00;  1.5837944E-01;  3.2150793E+03;
  1.1402390E+00;  9.9999998E-03; -1.2005564E-01;2799;  1.3017999E-01;  0.0000000E+00; -2.5268067E-02;  1.0033076E+03;  4.0144086E-01;  2.5989788E+03;3;  5.0371883E+01;  0.0000000E+00; -4.7240109E+00;0;  4.7975846E-02;  1.0005134E+04;  0.0000000E+00; -5.8212660E-02;  1.0000000E+04;  0.0000000E+00;  9.9889980E+03; -1.2141953E-01;  0.0000000E+00;  1.6939537E-01;  2.9972395E+03;
  1.1402265E+00;  9.9999998E-03; -1.0004752E-01;2800;  1.2383553E-01;  0.0000000E+00; -2.2426317E-02;  1.0033820E+03;  4.0144077E-01;  2.6574536E+03;3;  4.8877594E+01;  0.0000000E+00; -4.3799028E+00;0;  4.3043092E-02;  1.0006099E+04;  0.0000000E+00; -1.2540808E-02;  1.0000000E+04;  0.0000000E+00;  9.9895195E+03; -1.3923451E-01;  0.0000000E+00;  1.8227760E-01;  2.8559836E+03;
  1.1402169E+00;  9.9999998E-03; -8.0038264E-02;2801;  1.1880962E-01;  0.0000000E+00; -1.8553620E-02;  1.0034467E+03;  4.0144086E-01;  2.7083359E+03;3;  4.7595951E+01;  0.0000000E+00; -3.8132885E+00;0;  3.8950250E-02;  1.0007019E+04;  0.0000000E+00; -1.6832061E-03;  1.0000000E+04;  0.0000000E+00;  9.9898867E+03; -1.5652831E-01;  0.0000000E+00;  1.9547856E-01;  2.7594724E+03;
  1.1402103E+00;  9.9999998E-03; -6.0028806E-02;2802;  1.1510138E-01;  0.0000000E+00; -1.4204802E-02;  1.0034947E+03;  4.0144083E-01;  2.7460994E+03;3;  4.6563099E+01;  0.0000000E+00; -2.9733050E+00;0;  3.6873281E-02;  1.0007743E+04;  0.0000000E+00; -1.4865950E-04;  1.0000000E+04;  0.0000000E+00;  9.9901240E+03; -1.7048153E-01;  0.0000000E+00;  2.0735481E-01;  2.6964263E+03;
  1.1402056E+00;  9.9999998E-03; -4.0019099E-02;2803;  1.1247404E-01;  0.0000000E+00; -9.5087076E-03;  1.0035261E+03;  4.0144080E-01;  2.7707441E+03;3;  4.5785599E+01;  0.0000000E+00; -1.9644600E+00;0;  3.6545351E-02;  1.0008231E+04;  0.0000000E+00; -3.1589039E-05;  1.0000000E+04;  0.0000000E+00;  9.9902676E+03; -1.8009904E-01;  0.0000000E+00;  2.1664439E-01;  2.6577246E+03;
  1.1402030E+00;  9.9999998E-03; -2.0009534E-02;2804;  1.1089507E-01;  0.0000000E+00; -4.7923368E-03;  1.0035432E+03;  4.0144074E-01;  2.7841448E+03;3;  4.5318722E+01;  0.0000000E+00; -9.8609728E-01;0;  3.6968172E-02;  1.0008497E+04;  0.0000000E+00; -6.9040934E-06;  1.0000000E+04;  0.0000000E+00;  9.9903438E+03; -1.8555669E-01;  0.0000000E+00;  2.2252487E-01;  2.6368025E+03;
  1.1603088E+00;  9.9999998E-03; -1.8007773E-01;2823;  1.5875985E-01;  0.0000000E+00; -2.7361438E-02;  1.0027976E+03;  4.0129533E-01;  2.1619700E+03;3;  5.9514904E+01;  0.0000000E+00; -4.9845653E+00;0;  3.9947994E-02;  1.0003836E+04;  0.0000000E+00; -1.2667663E+00;  1.0000000E+04;  0.0000000E+00;  9.9873818E+03; -9.9717297E-02;  0.0000000E+00;  1.3966529E-01;  4.3931436E+03;
  1.1602757E+00;  9.9999998E-03; -1.6006467E-01;2824;  1.4630724E-01;  0.0000000E+00; -2.4903094E-02;  1.0027998E+03;  4.0129545E-01;  2.1636951E+03;3;  5.5191929E+01;  0.0000000E+00; -4.5308886E+00;0;  4.9981833E-02;  1.0003205E+04;  0.0000000E+00; -8.1916493E-01;  1.0000000E+04;  0.0000000E+00;  9.9880508E+03; -9.4452560E-02;  0.0000000E+00;  1.4443439E-01;  3.5127673E+03;
  1.1602507E+00;  9.9999998E-03; -1.4005479E-01;2825;  1.3577639E-01;  0.0000000E+00; -2.2771098E-02;  1.0028216E+03;  4.0129548E-01;  2.1806052E+03;3;  5.2121574E+01;  0.0000000E+00; -4.1943383E+00;0;  5.7263821E-02;  1.0002921E+04;  0.0000000E+00; -4.4158837E-01;  1.0000000E+04;  0.0000000E+00;  9.9887676E+03; -9.2561543E-02;  0.0000000E+00;  1.4982536E-01;  2.8845500E+03;
  1.1602321E+00;  9.9999998E-03; -1.2004717E-01;2826;  1.2719670E-01;  0.0000000E+00; -2.0828929E-02;  1.0028715E+03;  4.0129539E-01;  2.2192461E+03;3;  4.9813122E+01;  0.0000000E+00; -3.8611767E+00;0;  5.8191717E-02;  1.0003191E+04;  0.0000000E+00; -1.9578011E-01;  1.0000000E+04;  0.0000000E+00;  9.9894941E+03; -9.8186761E-02;  0.0000000E+00;  1.5637848E-01;  2.5366016E+03;
  1.1602182E+00;  9.9999998E-03; -1.0004023E-01;2827;  1.2035505E-01;  0.0000000E+00; -1.8728456E-02;  1.0029376E+03;  4.0129527E-01;  2.2703159E+03;3;  4.8042763E+01;  0.0000000E+00; -3.6489484E+00;0;  5.4282598E-02;  1.0003868E+04;  0.0000000E+00; -7.0711613E-02;  1.0000000E+04;  0.0000000E+00;  9.9901328E+03; -1.1010753E-01;  0.0000000E+00;  1.6439013E-01;  2.3482449E+03;
  1.1602083E+00;  9.9999998E-03; -8.0033086E-02;2828;  1.1509119E-01;  0.0000000E+00; -1.5969031E-02;  1.0030037E+03;  4.0129539E-01;  2.3214702E+03;3;  4.6541775E+01;  0.0000000E+00; -3.2823398E+00;0;  4.8709325E-02;  1.0004696E+04;  0.0000000E+00; -2.0439776E-02;  1.0000000E+04;  0.0000000E+00;  9.9906250E+03; -1.2472142E-01;  0.0000000E+00;  1.7343074E-01;  2.2325886E+03;
  1.1602013E+00;  9.9999998E-03; -6.0025007E-02;2829;  1.1111929E-01;  0.0000000E+00; -1.2303373E-02;  1.0030592E+03;  4.0129527E-01;  2.3643279E+03;3;  4.5358383E+01;  0.0000000E+00; -2.6307971E+00;0;  4.3852717E-02;  1.0005462E+04;  0.0000000E+00; -4.3771821E-03;  1.0000000E+04;  0.0000000E+00;  9.9909668E+03; -1.3852705E-01;  0.0000000E+00;  1.8237977E-01;  2.1585662E+03;
  1.1601967E+00;  9.9999998E-03; -4.0016759E-02;2830;  1.0840809E-01;  0.0000000E+00; -8.3195604E-03;  1.0030989E+03;  4.0129530E-01;  2.3951108E+03;3;  4.4506706E+01;  0.0000000E+00; -1.7702508E+00;0;  4.0638968E-02;  1.0006047E+04;  0.0000000E+00; -6.3956704E-04;  1.0000000E+04;  0.0000000E+00;  9.9911758E+03; -1.4929250E-01;  0.0000000E+00;  1.8993147E-01;  2.1138210E+03;
  1.1601940E+00;  9.9999998E-03; -2.0008460E-02;2831;  1.0681699E-01;  0.0000000E+00; -4.2203688E-03;  1.0031223E+03;  4.0129527E-01;  2.4130828E+03;3;  4.3970211E+01;  0.0000000E+00; -8.2775927E-01;0;  3.9018214E-02;  1.0006405E+04;  0.0000000E+00; -3.6739901E-05;  1.0000000E+04;  0.0000000E+00;  9.9912832E+03; -1.5592235E-01;  0.0000000E+00;  1.9494057E-01;  2.0902314E+03;
  1.1803173E+00;  9.9999998E-03; -1.8007775E-01;2849;  1.6003653E-01;  0.0000000E+00; -2.5180249E-02;  1.0024741E+03;  4.0118355E-01;  1.8721473E+03;3;  6.2467918E+01;  0.0000000E+00; -4.2686772E+00;0;  4.9038857E-02;  1.0002751E+04;  0.0000000E+00; -1.7163696E+00;  1.0000000E+04;  0.0000000E+00;  9.9875918E+03; -8.9943215E-02;  0.0000000E+00;  1.3898207E-01;  4.4483174E+03;
  1.1802783E+00;  9.9999998E-03; -1.6006155E-01;2850;  1.4614159E-01;  0.0000000E+00; -2.1731876E-02;  1.0025044E+03;  4.0118340E-01;  1.8951464E+03;3;  5.6861961E+01;  0.0000000E+00; -3.7553964E+00;0;  4.7959991E-02;  1.0002522E+04;  0.0000000E+00; -1.2787087E+00;  1.0000000E+04;  0.0000000E+00;  9.9884170E+03; -9.2467703E-02;  0.0000000E+00;  1.4042769E-01;  3.6038601E+03;
  1.1802487E+00;  9.9999998E-03; -1.4004925E-01;2851;  1.3442060E-01;  0.0000000E+00; -1.8966235E-02;  1.0025076E+03;  4.0118363E-01;  1.8977383E+03;3;  5.2828327E+01;  0.0000000E+00; -3.3822083E+00;0;  5.7534561E-02;  1.0001874E+04;  0.0000000E+00; -8.3074123E-01;  1.0000000E+04;  0.0000000E+00;  9.9891250E+03; -8.6085647E-02;  0.0000000E+00;  1.4362021E-01;  2.8255171E+03;
  1.1802275E+00;  9.9999998E-03; -1.2004048E-01;2852;  1.2503673E-01;  0.0000000E+00; -1.6795710E-02;  1.0025264E+03;  4.0118361E-01;  1.9119493E+03;3;  4.9817768E+01;  0.0000000E+00; -2.9996624E+00;0;  6.4802401E-02;  1.0001538E+04;  0.0000000E+00; -4.6731815E-01;  1.0000000E+04;  0.0000000E+00;  9.9898311E+03; -8.2435049E-02;  0.0000000E+00;  1.4723745E-01;  2.2804915E+03;
  1.1802123E+00;  9.9999998E-03; -1.0003382E-01;2853;  1.1766642E-01;  0.0000000E+00; -1.4936558E-02;  1.0025670E+03;  4.0118355E-01;  1.9426575E+03;3;  4.7496559E+01;  0.0000000E+00; -2.6640456E+00;0;  6.6089839E-02;  1.0001682E+04;  0.0000000E+00; -2.2626407E-01;  1.0000000E+04;  0.0000000E+00;  9.9905029E+03; -8.5343078E-02;  0.0000000E+00;  1.5143292E-01;  1.9751523E+03;
  1.1802013E+00;  9.9999998E-03; -8.0027543E-02;2854;  1.1196742E-01;  0.0000000E+00; -1.2885622E-02;  1.0026191E+03;  4.0118355E-01;  1.9821082E+03;3;  4.5791454E+01;  0.0000000E+00; -2.4713607E+00;0;  6.3056782E-02;  1.0002152E+04;  0.0000000E+00; -9.3108058E-02;  1.0000000E+04;  0.0000000E+00;  9.9910693E+03; -9.3441039E-02;  0.0000000E+00;  1.5649782E-01;  1.8162540E+03;
  1.1801938E+00;  9.9999998E-03; -6.0021065E-02;2855;  1.0777161E-01;  0.0000000E+00; -1.0228486E-02;  1.0026695E+03;  4.0118343E-01;  2.0202887E+03;3;  4.4470222E+01;  0.0000000E+00; -2.1297195E+00;0;  5.8549121E-02;  1.0002736E+04;  0.0000000E+00; -3.1153625E-02;  1.0000000E+04;  0.0000000E+00;  9.9914932E+03; -1.0360149E-01;  0.0000000E+00;  1.6215061E-01;  1.7275699E+03;
  1.1801890E+00;  9.9999998E-03; -4.0014256E-02;2856;  1.0494763E-01;  0.0000000E+00; -7.0071532E-03;  1.0027097E+03;  4.0118358E-01;  2.0507942E+03;3;  4.3459137E+01;  0.0000000E+00; -1.4278623E+00;0;  5.4496683E-02;  1.0003257E+04;  0.0000000E+00; -7.7364915E-03;  1.0000000E+04;  0.0000000E+00;  9.9917744E+03; -1.1299247E-01;  0.0000000E+00;  1.6748916E-01;  1.6753047E+03;
  1.1801862E+00;  9.9999998E-03; -2.0007158E-02;2857;  1.0325909E-01;  0.0000000E+00; -3.5358120E-03;  1.0027355E+03;  4.0118355E-01;  2.0702888E+03;3;  4.2863247E+01;  0.0000000E+00; -6.7823201E-01;0;  5.1871054E-02;  1.0003608E+04;  0.0000000E+00; -1.0448564E-03;  1.0000000E+04;  0.0000000E+00;  9.9919346E+03; -1.1945432E-01;  0.0000000E+00;  1.7132537E-01;  1.6470962E+03;
  1.2003300E+00;  9.9999998E-03; -1.8008181E-01;2873;  1.6242358E-01;  0.0000000E+00; -2.4602663E-02;  1.0021318E+03;  4.0109938E-01;  1.5715039E+03;3;  6.7745705E+01;  0.0000000E+00; -4.1556287E+00;0;  8.6227186E-02;  1.0000218E+04;  0.0000000E+00; -1.9797411E+00;  1.0000000E+04;  0.0000000E+00;  9.9874922E+03; -5.6862690E-02;  0.0000000E+00;  1.4308988E-01;  4.0783076E+03;
  1.2002903E+00;  9.9999998E-03; -1.6006586E-01;2874;  1.4855337E-01;  0.0000000E+00; -2.1219917E-02;  1.0022289E+03;  4.0109941E-01;  1.6431301E+03;3;  6.0200111E+01;  0.0000000E+00; -3.3199689E+00;0;  6.2175781E-02;  1.0001174E+04;  0.0000000E+00; -1.7403268E+00;  1.0000000E+04;  0.0000000E+00;  9.9884668E+03; -7.9908699E-02;  0.0000000E+00;  1.4208448E-01;  3.6386797E+03;
  1.2002542E+00;  9.9999998E-03; -1.4005020E-01;2875;  1.3487057E-01;  0.0000000E+00; -1.7178373E-02;  1.0022709E+03;  4.0109941E-01;  1.6741520E+03;3;  5.4452774E+01;  0.0000000E+00; -2.6668184E+00;0;  5.4199390E-02;  1.0001094E+04;  0.0000000E+00; -1.2886719E+00;  1.0000000E+04;  0.0000000E+00;  9.9893809E+03; -8.5305966E-02;  0.0000000E+00;  1.3950536E-01;  2.9008567E+03;
  1.2002273E+00;  9.9999998E-03; -1.2003800E-01;2876;  1.2400433E-01;  0.0000000E+00; -1.3983094E-02;  1.0022759E+03;  4.0109938E-01;  1.6779086E+03;3;  5.0710033E+01;  0.0000000E+00; -2.2257998E+00;0;  6.1787814E-02;  1.0000457E+04;  0.0000000E+00; -8.4707999E-01;  1.0000000E+04;  0.0000000E+00;  9.9901113E+03; -7.8075245E-02;  0.0000000E+00;  1.3986306E-01;  2.2403052E+03;
  1.2002090E+00;  9.9999998E-03; -1.0002963E-01;2877;  1.1583725E-01;  0.0000000E+00; -1.1681828E-02;  1.0022823E+03;  4.0109941E-01;  1.6826987E+03;3;  4.7772034E+01;  0.0000000E+00; -1.8004516E+00;0;  7.0280582E-02;  9.9999629E+03;  0.0000000E+00; -4.9200290E-01;  1.0000000E+04;  0.0000000E+00;  9.9907324E+03; -7.1331367E-02;  0.0000000E+00;  1.4161195E-01;  1.7803707E+03;
  1.2001966E+00;  9.9999998E-03; -8.0023475E-02;2878;  1.0970628E-01;  0.0000000E+00; -9.9067511E-03;  1.0023040E+03;  4.0109935E-01;  1.6987256E+03;3;  4.5590485E+01;  0.0000000E+00; -1.4132986E+00;0;  7.4132495E-02;  9.9998535E+03;  0.0000000E+00; -2.4653260E-01;  1.0000000E+04;  0.0000000E+00;  9.9912734E+03; -7.0020862E-02;  0.0000000E+00;  1.4415336E-01;  1.5219716E+03;
  1.2001882E+00;  9.9999998E-03; -6.0017642E-02;2879;  1.0514901E-01;  0.0000000E+00; -7.9811253E-03;  1.0023346E+03;  4.0109950E-01;  1.7213354E+03;3;  4.3974808E+01;  0.0000000E+00; -1.2464914E+00;0;  7.3945738E-02;  1.0000024E+04;  0.0000000E+00; -1.0241589E-01;  1.0000000E+04;  0.0000000E+00;  9.9917139E+03; -7.3359810E-02;  0.0000000E+00;  1.4730555E-01;  1.3958925E+03;
  1.2001827E+00;  9.9999998E-03; -4.0011786E-02;2880;  1.0204159E-01;  0.0000000E+00; -5.5623320E-03;  1.0023641E+03;  4.0109941E-01;  1.7430592E+03;3;  4.2859035E+01;  0.0000000E+00; -9.3726331E-01;0;  7.2097160E-02;  1.0000296E+04;  0.0000000E+00; -3.2558199E-02;  1.0000000E+04;  0.0000000E+00;  9.9920332E+03; -7.8586228E-02;  0.0000000E+00;  1.5068339E-01;  1.3339666E+03;
  1.2001797E+00;  9.9999998E-03; -2.0005923E-02;2881;  1.0030527E-01;  0.0000000E+00; -2.8615955E-03;  1.0023850E+03;  4.0109938E-01;  1.7585363E+03;3;  4.2235031E+01;  0.0000000E+00; -4.8469397E-01;0;  7.0409201E-02;  1.0000523E+04;  0.0000000E+00; -6.0631139E-03;  1.0000000E+04;  0.0000000E+00;  9.9922256E+03; -8.2972057E-02;  0.0000000E+00;  1.5338126E-01;  1.3028959E+03;
  1.2203401E+00;  9.9999998E-03; -1.8008645E-01;2896;  1.6332504E-01;  0.0000000E+00; -2.4595980E-02;  1.0017670E+03;  4.0103745E-01;  1.2618457E+03;3;  7.4668129E+01;  0.0000000E+00; -4.7194510E+00;0;  1.4824621E-01;  9.9962334E+03;  0.0000000E+00; -1.5658265E+00;  1.0000000E+04;  0.0000000E+00;  9.9872891E+03; -2.3404173E-04;  0.0000000E+00;  1.4848025E-01;  2.8213108E+03;
  1.2203063E+00;  9.9999998E-03; -1.6007273E-01;2897;  1.5134601E-01;  0.0000000E+00; -2.1649782E-02;  1.0019036E+03;  4.0103742E-01;  1.3593962E+03;3;  6.5614708E+01;  0.0000000E+00; -3.3892024E+00;0;  1.0735250E-01;  9.9980244E+03;  0.0000000E+00; -1.9269819E+00;  1.0000000E+04;  0.0000000E+00;  9.9882236E+03; -3.9891571E-02;  0.0000000E+00;  1.4724407E-01;  3.1897927E+03;
  1.2202705E+00;  9.9999998E-03; -1.4005816E-01;2898;  1.3814180E-01;  0.0000000E+00; -1.8155701E-02;  1.0020118E+03;  4.0103734E-01;  1.4367856E+03;3;  5.8283543E+01;  0.0000000E+00; -2.5190713E+00;0;  7.5730622E-02;  9.9991650E+03;  0.0000000E+00; -1.6870574E+00;  1.0000000E+04;  0.0000000E+00;  9.9892363E+03; -6.6526622E-02;  0.0000000E+00;  1.4225724E-01;  2.8323467E+03;
  1.2202376E+00;  9.9999998E-03; -1.2004380E-01;2899;  1.2561733E-01;  0.0000000E+00; -1.4012647E-02;  1.0020676E+03;  4.0103742E-01;  1.4767996E+03;3;  5.2553284E+01;  0.0000000E+00; -1.7260153E+00;0;  6.1757274E-02;  9.9993750E+03;  0.0000000E+00; -1.2377893E+00;  1.0000000E+04;  0.0000000E+00;  9.9901387E+03; -7.4747123E-02;  0.0000000E+00;  1.3650440E-01;  2.2363591E+03;
  1.2202125E+00;  9.9999998E-03; -1.0003152E-01;2900;  1.1558151E-01;  0.0000000E+00; -1.0287630E-02;  1.0020778E+03;  4.0103748E-01;  1.4841012E+03;3;  4.8717793E+01;  0.0000000E+00; -1.0660909E+00;0;  6.4998887E-02;  9.9988916E+03;  0.0000000E+00; -7.9885232E-01;  1.0000000E+04;  0.0000000E+00;  9.9908184E+03; -6.9069169E-02;  0.0000000E+00;  1.3406806E-01;  1.7038364E+03;
  1.2201959E+00;  9.9999998E-03; -8.0022715E-02;2901;  1.0848580E-01;  0.0000000E+00; -7.7670719E-03;  1.0020712E+03;  4.0103742E-01;  1.4794606E+03;3;  4.6120518E+01;  0.0000000E+00; -4.7280851E-01;0;  7.5168878E-02;  9.9982686E+03;  0.0000000E+00; -4.5055926E-01;  1.0000000E+04;  0.0000000E+00;  9.9913086E+03; -5.9761789E-02;  0.0000000E+00;  1.3493067E-01;  1.3461525E+03;
  1.2201854E+00;  9.9999998E-03; -6.0016215E-02;2902;  1.0343783E-01;  0.0000000E+00; -6.0544559E-03;  1.0020713E+03;  4.0103740E-01;  1.4794877E+03;3;  4.4405727E+01;  0.0000000E+00; -2.0230968E-01;0;  8.2645655E-02;  9.9978867E+03;  0.0000000E+00; -2.1286109E-01;  1.0000000E+04;  0.0000000E+00;  9.9916875E+03; -5.4612055E-02;  0.0000000E+00;  1.3725771E-01;  1.1590468E+03;
  1.2201790E+00;  9.9999998E-03; -4.0010713E-02;2903;  9.9996559E-02;  0.0000000E+00; -4.3867351E-03;  1.0020786E+03;  4.0103745E-01;  1.4846982E+03;3;  4.2892044E+01;  0.0000000E+00; -2.7561748E-01;0;  8.6283013E-02;  9.9977471E+03;  0.0000000E+00; -7.7697933E-02;  1.0000000E+04;  0.0000000E+00;  9.9919775E+03; -5.3588483E-02;  0.0000000E+00;  1.3987149E-01;  1.0778636E+03;
  1.2201755E+00;  9.9999998E-03; -2.0005364E-02;2904;  9.7976454E-02;  0.0000000E+00; -2.3184428E-03;  1.0020872E+03;  4.0103745E-01;  1.4908383E+03;3;  4.1991383E+01;  0.0000000E+00; -1.7075621E-01;0;  8.7595411E-02;  9.9977314E+03;  0.0000000E+00; -1.6422899E-02;  1.0000000E+04;  0.0000000E+00;  9.9921611E+03; -5.4384492E-02;  0.0000000E+00;  1.4197990E-01;  1.0440125E+03;
  1.2403376E+00;  9.9999998E-03; -1.8008694E-01;2917;  1.5999641E-01;  0.0000000E+00; -2.3240773E-02;  1.0015526E+03;  4.0099281E-01;  1.0678595E+03;3;  8.2105934E+01;  0.0000000E+00; -5.5131803E+00;0;  1.7481588E-01;  9.9937578E+03;  0.0000000E+00; -1.0980947E-02;  1.0000000E+04;  0.0000000E+00;  9.9877119E+03;  3.5896629E-02;  0.0000000E+00;  1.3891925E-01;  1.3134786E+03;
  1.2403138E+00;  9.9999998E-03; -1.6007699E-01;2918;  1.5084951E-01;  0.0000000E+00; -2.0970598E-02;  1.0016124E+03;  4.0099266E-01;  1.1090725E+03;3;  7.2377716E+01;  0.0000000E+00; -3.6051121E+00;0;  1.5034355E-01;  9.9944922E+03;  0.0000000E+00; -1.2228339E+00;  1.0000000E+04;  0.0000000E+00;  9.9881709E+03;  6.9397246E-03;  0.0000000E+00;  1.4340383E-01;  1.8854784E+03;
  1.2402869E+00;  9.9999998E-03; -1.4006600E-01;2919;  1.4052914E-01;  0.0000000E+00; -1.8894412E-02;  1.0016947E+03;  4.0099275E-01;  1.1657126E+03;3;  6.4057404E+01;  0.0000000E+00; -2.5442691E+00;0;  1.2523460E-01;  9.9954209E+03;  0.0000000E+00; -1.6337770E+00;  1.0000000E+04;  0.0000000E+00;  9.9888867E+03; -2.0131044E-02;  0.0000000E+00;  1.4536566E-01;  2.2126396E+03;
  1.2402588E+00;  9.9999998E-03; -1.2005405E-01;2920;  1.2957628E-01;  0.0000000E+00; -1.6128793E-02;  1.0017778E+03;  4.0099272E-01;  1.2230182E+03;3;  5.6972931E+01;  0.0000000E+00; -1.6875468E+00;0;  9.9556178E-02;  9.9962539E+03;  0.0000000E+00; -1.4756231E+00;  1.0000000E+04;  0.0000000E+00;  9.9897090E+03; -4.1573152E-02;  0.0000000E+00;  1.4112933E-01;  2.0162124E+03;
  1.2402309E+00;  9.9999998E-03; -1.0004172E-01;2921;  1.1885900E-01;  0.0000000E+00; -1.2496502E-02;  1.0018442E+03;  4.0099272E-01;  1.2687661E+03;3;  5.1308521E+01;  0.0000000E+00; -9.0566766E-01;0;  8.1571631E-02;  9.9968311E+03;  0.0000000E+00; -1.0586685E+00;  1.0000000E+04;  0.0000000E+00;  9.9904580E+03; -5.3110249E-02;  0.0000000E+00;  1.3468188E-01;  1.5929679E+03;
  1.2402073E+00;  9.9999998E-03; -8.0030091E-02;2922;  1.1000007E-01;  0.0000000E+00; -8.6920774E-03;  1.0018758E+03;  4.0099269E-01;  1.2904777E+03;3;  4.7610630E+01;  0.0000000E+00; -1.0094349E-01;0;  7.7969685E-02;  9.9968867E+03;  0.0000000E+00; -6.3602853E-01;  1.0000000E+04;  0.0000000E+00;  9.9910244E+03; -5.3081933E-02;  0.0000000E+00;  1.3105161E-01;  1.2172335E+03;
  1.2401910E+00;  9.9999998E-03; -6.0020223E-02;2923;  1.0346721E-01;  0.0000000E+00; -5.7508987E-03;  1.0018786E+03;  4.0099260E-01;  1.2924889E+03;3;  4.5620262E+01;  0.0000000E+00;  6.5775979E-01;0;  8.3481103E-02;  9.9965586E+03;  0.0000000E+00; -3.1953916E-01;  1.0000000E+04;  0.0000000E+00;  9.9914072E+03; -4.8267692E-02;  0.0000000E+00;  1.3174880E-01;  9.9435760E+02;
  1.2401812E+00;  9.9999998E-03; -4.0012553E-02;2924;  9.9187396E-02;  0.0000000E+00; -3.8557737E-03;  1.0018718E+03;  4.0099260E-01;  1.2878391E+03;3;  4.4003464E+01;  0.0000000E+00;  6.1359227E-01;0;  9.0995342E-02;  9.9961748E+03;  0.0000000E+00; -1.2499513E-01;  1.0000000E+04;  0.0000000E+00;  9.9916543E+03; -4.3465391E-02;  0.0000000E+00;  1.3446073E-01;  8.9639160E+02;
  1.2401763E+00;  9.9999998E-03; -2.0006076E-02;2925;  9.6782394E-02;  0.0000000E+00; -2.1298672E-03;  1.0018674E+03;  4.0099266E-01;  1.2848173E+03;3;  4.2975506E+01;  0.0000000E+00;  1.2282106E-01;0;  9.5836550E-02;  9.9959268E+03;  0.0000000E+00; -2.8034279E-02;  1.0000000E+04;  0.0000000E+00;  9.9918105E+03; -4.0908713E-02;  0.0000000E+00;  1.3674526E-01;  8.5943195E+02;
  1.2603067E+00;  9.9999998E-03; -1.6007638E-01;2936;  1.4597005E-01;  0.0000000E+00; -1.9034505E-02;  1.0015451E+03;  4.0096113E-01;  1.0181170E+03;3;  7.9183640E+01;  0.0000000E+00; -4.0693498E+00;0;  1.3875671E-01;  9.9941465E+03;  0.0000000E+00;  4.6741354E-01;  1.0000000E+04;  0.0000000E+00;  9.9887568E+03;  1.4170425E-02;  0.0000000E+00;  1.2458628E-01;  1.0587236E+03;
  1.2602894E+00;  9.9999998E-03; -1.4006896E-01;2937;  1.3838908E-01;  0.0000000E+00; -1.7530486E-02;  1.0015110E+03;  4.0096104E-01;  9.9569012E+02;3;  7.0636497E+01;  0.0000000E+00; -2.5447588E+00;0;  1.4284185E-01;  9.9933164E+03;  0.0000000E+00; -5.8641040E-01;  1.0000000E+04;  0.0000000E+00;  9.9888994E+03;  9.0392875E-03;  0.0000000E+00;  1.3380256E-01;  1.0691271E+03;
  1.2602704E+00;  9.9999998E-03; -1.2006025E-01;2938;  1.2979066E-01;  0.0000000E+00; -1.5777405E-02;  1.0015150E+03;  4.0096107E-01;  9.9840393E+02;3;  6.2558044E+01;  0.0000000E+00; -1.2684009E+00;0;  1.3226904E-01;  9.9929854E+03;  0.0000000E+00; -1.0462403E+00;  1.0000000E+04;  0.0000000E+00;  9.9893086E+03; -5.0333655E-03;  0.0000000E+00;  1.3730240E-01;  1.2838269E+03;
  1.2602512E+00;  9.9999998E-03; -1.0005069E-01;2939;  1.2150021E-01;  0.0000000E+00; -1.4181063E-02;  1.0015359E+03;  4.0096113E-01;  1.0121959E+03;3;  5.5994942E+01;  0.0000000E+00; -6.5607858E-01;0;  1.2610069E-01;  9.9928857E+03;  0.0000000E+00; -1.0032462E+00;  1.0000000E+04;  0.0000000E+00;  9.9898291E+03; -1.2572461E-02;  0.0000000E+00;  1.3867316E-01;  1.2148064E+03;
  1.2602332E+00;  9.9999998E-03; -8.0039740E-02;2940;  1.1382475E-01;  0.0000000E+00; -1.1855164E-02;  1.0015651E+03;  4.0096101E-01;  1.0314857E+03;3;  5.0837822E+01;  0.0000000E+00; -1.0001059E-01;0;  1.1891745E-01;  9.9929102E+03;  0.0000000E+00; -7.0283109E-01;  1.0000000E+04;  0.0000000E+00;  9.9903867E+03; -1.7541897E-02;  0.0000000E+00;  1.3645935E-01;  9.8662708E+02;
  1.2602175E+00;  9.9999998E-03; -6.0028374E-02;2941;  1.0728028E-01;  0.0000000E+00; -9.0733618E-03;  1.0015917E+03;  4.0096110E-01;  1.0490430E+03;3;  4.7308380E+01;  0.0000000E+00;  1.3039307E-01;0;  1.1495949E-01;  9.9929902E+03;  0.0000000E+00; -3.7992898E-01;  1.0000000E+04;  0.0000000E+00;  9.9908330E+03; -1.9872861E-02;  0.0000000E+00;  1.3483235E-01;  7.9392224E+02;
  1.2602062E+00;  9.9999998E-03; -4.0017746E-02;2942;  1.0207649E-01;  0.0000000E+00; -6.1366074E-03;  1.0016057E+03;  4.0096113E-01;  1.0582627E+03;3;  4.5038715E+01;  0.0000000E+00;  3.3066612E-01;0;  1.1126967E-01;  9.9929756E+03;  0.0000000E+00; -1.5343827E-01;  1.0000000E+04;  0.0000000E+00;  9.9911221E+03; -2.4023186E-02;  0.0000000E+00;  1.3529286E-01;  7.0106958E+02;
  1.2601998E+00;  9.9999998E-03; -2.0008424E-02;2943;  9.8837532E-02;  0.0000000E+00; -3.2401748E-03;  1.0016091E+03;  4.0096104E-01;  1.0605565E+03;3;  4.3082897E+01;  0.0000000E+00; -1.4295162E-01;0;  1.1077654E-01;  9.9928877E+03;  0.0000000E+00; -3.5015851E-02;  1.0000000E+04;  0.0000000E+00;  9.9912842E+03; -2.5799256E-02;  0.0000000E+00;  1.3657580E-01;  6.6869299E+02;
  1.2802651E+00;  9.9999998E-03; -1.2006155E-01;2953;  1.2567338E-01;  0.0000000E+00; -1.3805244E-02;  1.0015026E+03;  4.0093917E-01;  9.4451630E+02;3;  6.8794945E+01;  0.0000000E+00; -1.1103419E+00;0;  1.0974123E-01;  9.9939063E+03;  0.0000000E+00;  2.0815463E-01;  1.0000000E+04;  0.0000000E+00;  9.9892383E+03; -1.0444161E-02;  0.0000000E+00;  1.2018540E-01;  7.5271661E+02;
  1.2802531E+00;  9.9999998E-03; -1.0005452E-01;2954;  1.1913139E-01;  0.0000000E+00; -1.2784755E-02;  1.0014291E+03;  4.0093914E-01;  8.9830981E+02;3;  6.1947708E+01;  0.0000000E+00; -1.8607166E-01;0;  1.2379302E-01;  9.9923418E+03;  0.0000000E+00; -2.3813027E-01;  1.0000000E+04;  0.0000000E+00;  9.9893340E+03; -6.2482841E-03;  0.0000000E+00;  1.3004130E-01;  7.0270892E+02;
  1.2802411E+00;  9.9999998E-03; -8.0044463E-02;2955;  1.1252360E-01;  0.0000000E+00; -1.1195526E-02;  1.0014004E+03;  4.0093899E-01;  8.8027649E+02;3;  5.5926567E+01;  0.0000000E+00;  4.8819092E-01;0;  1.2396795E-01;  9.9913252E+03;  0.0000000E+00; -3.3214238E-01;  1.0000000E+04;  0.0000000E+00;  9.9897764E+03; -1.0195991E-02;  0.0000000E+00;  1.3416395E-01;  6.5573541E+02;
  1.2802325E+00;  9.9999998E-03; -6.0032569E-02;2956;  1.0708711E-01;  0.0000000E+00; -9.5163072E-03;  1.0013600E+03;  4.0093914E-01;  8.5489093E+02;3;  5.1422352E+01;  0.0000000E+00;  3.9853758E-01;0;  1.2701294E-01;  9.9900586E+03;  0.0000000E+00; -2.3127069E-01;  1.0000000E+04;  0.0000000E+00;  9.9902383E+03; -9.9405292E-03;  0.0000000E+00;  1.3695347E-01;  5.5907043E+02;
  1.2802271E+00;  9.9999998E-03; -4.0020254E-02;2957;  1.0298185E-01;  0.0000000E+00; -6.9501735E-03;  1.0013184E+03;  4.0093914E-01;  8.2882361E+02;3;  4.7152790E+01;  0.0000000E+00; -4.2952004E-01;0;  1.3104805E-01;  9.9889141E+03;  0.0000000E+00; -1.0361418E-01;  1.0000000E+04;  0.0000000E+00;  9.9905576E+03; -6.8047866E-03;  0.0000000E+00;  1.3785285E-01;  4.7945395E+02;
  1.2802242E+00;  9.9999998E-03; -2.0009408E-02;2958;  1.0092924E-01;  0.0000000E+00; -3.5689273E-03;  1.0012857E+03;  4.0093908E-01;  8.0822119E+02;3;  4.4102379E+01;  0.0000000E+00; -8.2002258E-01;0;  1.4210227E-01;  9.9881006E+03;  0.0000000E+00; -2.4551744E-02;  1.0000000E+04;  0.0000000E+00;  9.9907129E+03;  3.4456160E-03;  0.0000000E+00;  1.3865666E-01;  4.3804352E+02;
  1.3002332E+00;  9.9999998E-03; -8.0046408E-02;2966;  1.0844250E-01;  0.0000000E+00; -9.5243948E-03;  1.0015231E+03;  4.0092403E-01;  9.1068567E+02;3;  6.1842098E+01;  0.0000000E+00;  7.8375947E-01;0;  8.2675219E-02;  9.9951221E+03;  0.0000000E+00;  3.9550206E-01;  1.0000000E+04;  0.0000000E+00;  9.9891680E+03; -4.3400601E-02;  0.0000000E+00;  1.2607582E-01;  6.7136499E+02;
  1.3002266E+00;  9.9999998E-03; -6.0034614E-02;2967;  1.0347320E-01;  0.0000000E+00; -7.8366445E-03;  1.0014811E+03;  4.0092412E-01;  8.8568109E+02;3;  5.7355465E+01;  0.0000000E+00;  1.2128906E+00;0;  8.5934132E-02;  9.9937861E+03;  0.0000000E+00;  1.3743852E-01;  1.0000000E+04;  0.0000000E+00;  9.9896709E+03; -4.7466721E-02;  0.0000000E+00;  1.3340086E-01;  5.6166467E+02;
  1.3002225E+00;  9.9999998E-03; -4.0021826E-02;2968;  9.9258654E-02;  0.0000000E+00; -5.8492012E-03;  1.0014320E+03;  4.0092418E-01;  8.5632166E+02;3;  5.3329456E+01;  0.0000000E+00;  8.2897103E-01;0;  8.2045130E-02;  9.9924531E+03;  0.0000000E+00;  3.4287725E-02;  1.0000000E+04;  0.0000000E+00;  9.9900234E+03; -5.6366079E-02;  0.0000000E+00;  1.3841121E-01;  4.8911322E+02;
  1.3002206E+00;  9.9999998E-03; -2.0010203E-02;2969;  9.6638091E-02;  0.0000000E+00; -3.2465213E-03;  1.0013872E+03;  4.0092412E-01;  8.2952325E+02;3;  4.9896278E+01;  0.0000000E+00;  3.2894224E-02;0;  8.1060916E-02;  9.9913984E+03;  0.0000000E+00;  5.0273146E-03;  1.0000000E+04;  0.0000000E+00;  9.9901816E+03; -5.9999045E-02;  0.0000000E+00;  1.4105996E-01;  4.4487634E+02;
 -1.4799143E-06;  9.9999998E-03; -3.7821729E-14;1045; -1.3116901E-03;  0.0000000E+00; -1.1151768E-10;  1.0000333E+03;  4.0000001E-01;  2.7554771E+01;3; -1.0840738E+00;  0.0000000E+00; -3.9578003E-07;0; -2.6245030E-02;  1.0000675E+04;  0.0000000E+00;  1.7524929E-16;  1.0000000E+04;  0.0000000E+00;  9.9999941E+03; -2.6490331E-02;  0.0000000E+00;  2.4530076E-04;  5.7173824E+00;
 -1.4805836E-06;  9.9999998E-03;  2.0000005E-02;1046; -1.3125914E-03;  0.0000000E+00;  4.2477118E-06;  1.0000333E+03;  4.0000001E-01;  2.7554771E+01;3; -1.0849380E+00;  0.0000000E+00;  3.3862549E-03;0; -2.6247576E-02;  1.0000675E+04;  0.0000000E+00; -1.2116317E-11;  1.0000000E+04;  0.0000000E+00;  9.9999941E+03; -2.6508972E-02;  0.0000000E+00;  2.6139556E-04;  5.8819141E+00;
 -1.4823853E-06;  9.9999998E-03;  4.0000014E-02;1047; -1.3150888E-03;  0.0000000E+00;  9.4762254E-06;  1.0000333E+03;  4.0000001E-01;  2.7554771E+01;3; -1.0873518E+00;  0.0000000E+00;  7.6186759E-03;0; -2.6251495E-02;  1.0000675E+04;  0.0000000E+00; -3.0167591E-11;  1.0000000E+04;  0.0000000E+00;  9.9999922E+03; -2.6560593E-02;  0.0000000E+00;  3.0909799E-04;  6.3698511E+00;
 -1.4847243E-06;  9.9999998E-03;  6.0000021E-02;1048; -1.3186014E-03;  0.0000000E+00;  1.6505966E-05;  1.0000333E+03;  4.0000001E-01;  2.7554771E+01;3; -1.0908108E+00;  0.0000000E+00;  1.3390400E-02;0; -2.6245473E-02;  1.0000676E+04;  0.0000000E+00; -3.6227146E-11;  1.0000000E+04;  0.0000000E+00;  9.9999902E+03; -2.6632039E-02;  0.0000000E+00;  3.8656546E-04;  7.1631427E+00;
 -1.4864855E-06;  9.9999998E-03;  8.0000035E-02;1049; -1.3220373E-03;  0.0000000E+00;  2.6396316E-05;  1.0000331E+03;  4.0000001E-01;  2.7456009E+01;3; -1.0943506E+00;  0.0000000E+00;  2.1601185E-02;0; -2.6210008E-02;  1.0000675E+04;  0.0000000E+00; -7.3134887E-11;  1.0000000E+04;  0.0000000E+00;  9.9999873E+03; -2.6700355E-02;  0.0000000E+00;  4.9034663E-04;  8.2271538E+00;
 -1.4861200E-06;  9.9999998E-03;  1.0000005E-01;1050; -1.3238858E-03;  0.0000000E+00;  3.9613875E-05;  1.0000329E+03;  4.0000001E-01;  2.7258484E+01;3; -1.0966618E+00;  0.0000000E+00;  3.2632336E-02;0; -2.6116891E-02;  1.0000675E+04;  0.0000000E+00; -2.5874936E-10;  1.0000000E+04;  0.0000000E+00;  9.9999844E+03; -2.6731502E-02;  0.0000000E+00;  6.1461126E-04;  9.5017309E+00;
 -1.4812488E-06;  9.9999998E-03;  1.2000007E-01;1051; -1.3218487E-03;  0.0000000E+00;  5.7189267E-05;  1.0000328E+03;  4.0000001E-01;  2.7159721E+01;3; -1.0957429E+00;  0.0000000E+00;  4.7362603E-02;0; -2.5928810E-02;  1.0000673E+04;  0.0000000E+00; -2.8666786E-10;  1.0000000E+04;  0.0000000E+00;  9.9999824E+03; -2.6678676E-02;  0.0000000E+00;  7.4986613E-04;  1.0886312E+01;
 -1.4689516E-06;  9.9999998E-03;  1.4000009E-01;1052; -1.3131261E-03;  0.0000000E+00;  7.9356345E-05;  1.0000322E+03;  4.0000001E-01;  2.6665909E+01;3; -1.0891886E+00;  0.0000000E+00;  6.5875888E-02;0; -2.5599813E-02;  1.0000666E+04;  0.0000000E+00; -1.0022355E-09;  1.0000000E+04;  0.0000000E+00;  9.9999785E+03; -2.6481196E-02;  0.0000000E+00;  8.8138372E-04;  1.2222008E+01;
  1.9997893E-02;  9.9999998E-03; -1.9705542E-14;1075; -1.8521466E-03;  0.0000000E+00;  1.1019297E-10;  1.0000399E+03;  4.0000001E-01;  3.3085480E+01;3; -1.3987887E+00;  0.0000000E+00;  6.7462918E-07;0; -3.1015482E-02;  1.0000808E+04;  0.0000000E+00; -1.3465579E-17;  1.0000000E+04;  0.0000000E+00;  9.9999912E+03; -3.1342868E-02;  0.0000000E+00;  3.2738579E-04;  7.4085851E+00;
  1.9997891E-02;  9.9999998E-03;  2.0000009E-02;1076; -1.8536919E-03;  0.0000000E+00;  6.1861947E-06;  1.0000399E+03;  4.0000001E-01;  3.3085480E+01;3; -1.4001186E+00;  0.0000000E+00;  4.5878901E-03;0; -3.1020390E-02;  1.0000809E+04;  0.0000000E+00; -1.0795798E-11;  1.0000000E+04;  0.0000000E+00;  9.9999902E+03; -3.1369254E-02;  0.0000000E+00;  3.4886485E-04;  7.6320314E+00;
  1.9997887E-02;  9.9999998E-03;  4.0000018E-02;1077; -1.8580515E-03;  0.0000000E+00;  1.3596958E-05;  1.0000400E+03;  4.0000001E-01;  3.3085480E+01;3; -1.4038746E+00;  0.0000000E+00;  1.0112740E-02;0; -3.1031050E-02;  1.0000810E+04;  0.0000000E+00; -4.3662955E-11;  1.0000000E+04;  0.0000000E+00;  9.9999893E+03; -3.1443566E-02;  0.0000000E+00;  4.1251589E-04;  8.2947493E+00;
  1.9997882E-02;  9.9999998E-03;  6.0000032E-02;1078; -1.8644035E-03;  0.0000000E+00;  2.3387198E-05;  1.0000399E+03;  4.0000001E-01;  3.3085480E+01;3; -1.4094000E+00;  0.0000000E+00;  1.7505033E-02;0; -3.1034950E-02;  1.0000812E+04;  0.0000000E+00;  8.7431147E-12;  1.0000000E+04;  0.0000000E+00;  9.9999863E+03; -3.1550772E-02;  0.0000000E+00;  5.1582197E-04;  9.3721342E+00;
  1.9997878E-02;  9.9999998E-03;  8.0000050E-02;1079; -1.8712742E-03;  0.0000000E+00;  3.6766000E-05;  1.0000399E+03;  4.0000001E-01;  3.3085480E+01;3; -1.4154997E+00;  0.0000000E+00;  2.7661119E-02;0; -3.1010572E-02;  1.0000813E+04;  0.0000000E+00; -1.6879496E-11;  1.0000000E+04;  0.0000000E+00;  9.9999834E+03; -3.1664632E-02;  0.0000000E+00;  6.5405975E-04;  1.0816768E+01;
  1.9997876E-02;  9.9999998E-03;  1.0000007E-01;1080; -1.8764971E-03;  0.0000000E+00;  5.4719472E-05;  1.0000397E+03;  4.0000001E-01;  3.2887955E+01;3; -1.4204526E+00;  0.0000000E+00;  4.1334014E-02;0; -3.0926567E-02;  1.0000813E+04;  0.0000000E+00;  8.4899185E-11;  1.0000000E+04;  0.0000000E+00;  9.9999785E+03; -3.1745795E-02;  0.0000000E+00;  8.1922935E-04;  1.2545850E+01;
  1.9997878E-02;  9.9999998E-03;  1.2000009E-01;1081; -1.8769689E-03;  0.0000000E+00;  7.8023673E-05;  1.0000395E+03;  4.0000001E-01;  3.2690430E+01;3; -1.4217980E+00;  0.0000000E+00;  5.9090249E-02;0; -3.0741168E-02;  1.0000812E+04;  0.0000000E+00;  6.7488448E-10;  1.0000000E+04;  0.0000000E+00;  9.9999746E+03; -3.1739607E-02;  0.0000000E+00;  9.9843985E-04;  1.4422027E+01;
  1.9997893E-02;  9.9999998E-03;  1.4000013E-01;1082; -1.8684404E-03;  0.0000000E+00;  1.0793425E-04;  1.0000389E+03;  4.0000001E-01;  3.2196617E+01;3; -1.4161766E+00;  0.0000000E+00;  8.1813112E-02;0; -3.0402109E-02;  1.0000809E+04;  0.0000000E+00;  1.1974426E-09;  1.0000000E+04;  0.0000000E+00;  9.9999717E+03; -3.1574257E-02;  0.0000000E+00;  1.1721469E-03;  1.6232130E+01;
  3.9997082E-02;  9.9999998E-03;  5.5105744E-15;1106; -2.5408587E-03;  0.0000000E+00;  2.8788008E-10;  1.0000461E+03;  4.0000001E-01;  3.8221134E+01;3; -1.7788649E+00;  0.0000000E+00;  1.3212034E-06;0; -3.5095926E-02;  1.0000935E+04;  0.0000000E+00; -5.7480483E-17;  1.0000000E+04;  0.0000000E+00;  9.9999883E+03; -3.5494018E-02;  0.0000000E+00;  3.9809314E-04;  9.0053072E+00;
  3.9997078E-02;  9.9999998E-03;  2.0000011E-02;1107; -2.5432736E-03;  0.0000000E+00;  7.4644222E-06;  1.0000461E+03;  4.0000001E-01;  3.8221134E+01;3; -1.7807636E+00;  0.0000000E+00;  5.1627150E-03;0; -3.5105269E-02;  1.0000935E+04;  0.0000000E+00; -3.0193573E-11;  1.0000000E+04;  0.0000000E+00;  9.9999883E+03; -3.5529587E-02;  0.0000000E+00;  4.2431740E-04;  9.2849436E+00;
  3.9997075E-02;  9.9999998E-03;  4.0000021E-02;1108; -2.5501549E-03;  0.0000000E+00;  1.6279555E-05;  1.0000461E+03;  4.0000001E-01;  3.8221134E+01;3; -1.7861786E+00;  0.0000000E+00;  1.1279421E-02;0; -3.5129081E-02;  1.0000936E+04;  0.0000000E+00; -1.7824206E-11;  1.0000000E+04;  0.0000000E+00;  9.9999863E+03; -3.5631090E-02;  0.0000000E+00;  5.0200918E-04;  1.0114303E+01;
  3.9997067E-02;  9.9999998E-03;  6.0000040E-02;1109; -2.5603832E-03;  0.0000000E+00;  2.7975690E-05;  1.0000461E+03;  4.0000001E-01;  3.8221134E+01;3; -1.7942598E+00;  0.0000000E+00;  1.9450335E-02;0; -3.5154462E-02;  1.0000939E+04;  0.0000000E+00; -1.6074968E-12;  1.0000000E+04;  0.0000000E+00;  9.9999834E+03; -3.5782479E-02;  0.0000000E+00;  6.2801782E-04;  1.1462317E+01;
  3.9997056E-02;  9.9999998E-03;  8.0000058E-02;1110; -2.5720375E-03;  0.0000000E+00;  4.3635475E-05;  1.0000461E+03;  4.0000001E-01;  3.8221134E+01;3; -1.8035617E+00;  0.0000000E+00;  3.0402780E-02;0; -3.5159051E-02;  1.0000943E+04;  0.0000000E+00;  2.6216468E-11;  1.0000000E+04;  0.0000000E+00;  9.9999785E+03; -3.5955466E-02;  0.0000000E+00;  7.9641677E-04;  1.3268976E+01;
  3.9997049E-02;  9.9999998E-03;  1.0000008E-01;1111; -2.5820700E-03;  0.0000000E+00;  6.4781030E-05;  1.0000461E+03;  4.0000001E-01;  3.8221134E+01;3; -1.8117862E+00;  0.0000000E+00;  4.5106456E-02;0; -3.5110041E-02;  1.0000945E+04;  0.0000000E+00;  3.4649694E-10;  1.0000000E+04;  0.0000000E+00;  9.9999727E+03; -3.6107246E-02;  0.0000000E+00;  9.9720620E-04;  1.5429652E+01;
  3.9997052E-02;  9.9999998E-03;  1.2000012E-01;1112; -2.5864807E-03;  0.0000000E+00;  9.1911730E-05;  1.0000457E+03;  4.0000001E-01;  3.7826084E+01;3; -1.8160279E+00;  0.0000000E+00;  6.4063802E-02;0; -3.4963094E-02;  1.0000945E+04;  0.0000000E+00;  1.1463172E-09;  1.0000000E+04;  0.0000000E+00;  9.9999678E+03; -3.6177550E-02;  0.0000000E+00;  1.2144571E-03;  1.7772425E+01;
  3.9997064E-02;  9.9999998E-03;  1.4000015E-01;1113; -2.5794771E-03;  0.0000000E+00;  1.2638242E-04;  1.0000453E+03;  4.0000001E-01;  3.7529797E+01;3; -1.8120594E+00;  0.0000000E+00;  8.7996587E-02;0; -3.4661137E-02;  1.0000942E+04;  0.0000000E+00;  3.1842935E-09;  1.0000000E+04;  0.0000000E+00;  9.9999639E+03; -3.6085784E-02;  0.0000000E+00;  1.4246497E-03;  2.0036167E+01;
  5.9996136E-02;  9.9999998E-03; -3.0264236E-14;1137; -3.3279555E-03;  0.0000000E+00; -1.7967539E-10;  1.0000525E+03;  4.0000001E-01;  4.3455555E+01;3; -2.2018280E+00;  0.0000000E+00; -1.1030684E-06;0; -3.9074276E-02;  1.0001063E+04;  0.0000000E+00;  1.9869118E-17;  1.0000000E+04;  0.0000000E+00;  9.9999863E+03; -3.9527509E-02;  0.0000000E+00;  4.5323389E-04;  1.0508800E+01;
  5.9996132E-02;  9.9999998E-03;  2.0000013E-02;1138; -3.3314535E-03;  0.0000000E+00;  7.8562816E-06;  1.0000525E+03;  4.0000001E-01;  4.3455555E+01;3; -2.2043884E+00;  0.0000000E+00;  5.1075588E-03;0; -3.9090604E-02;  1.0001064E+04;  0.0000000E+00; -3.6035293E-11;  1.0000000E+04;  0.0000000E+00;  9.9999854E+03; -3.9573766E-02;  0.0000000E+00;  4.8316456E-04;  1.0839213E+01;
  5.9996124E-02;  9.9999998E-03;  4.0000025E-02;1139; -3.3414725E-03;  0.0000000E+00;  1.7195905E-05;  1.0000525E+03;  4.0000001E-01;  4.3455555E+01;3; -2.2117195E+00;  0.0000000E+00;  1.1188215E-02;0; -3.9135396E-02;  1.0001069E+04;  0.0000000E+00; -2.6024707E-11;  1.0000000E+04;  0.0000000E+00;  9.9999834E+03; -3.9707191E-02;  0.0000000E+00;  5.7179324E-04;  1.1818905E+01;
  5.9996109E-02;  9.9999998E-03;  6.0000043E-02;1140; -3.3566102E-03;  0.0000000E+00;  2.9581124E-05;  1.0000526E+03;  4.0000001E-01;  4.3554317E+01;3; -2.2228115E+00;  0.0000000E+00;  1.9262044E-02;0; -3.9195843E-02;  1.0001072E+04;  0.0000000E+00; -6.0555533E-11;  1.0000000E+04;  0.0000000E+00;  9.9999795E+03; -3.9911240E-02;  0.0000000E+00;  7.1539916E-04;  1.3410334E+01;
  5.9996095E-02;  9.9999998E-03;  8.0000065E-02;1141; -3.3743791E-03;  0.0000000E+00;  4.6404926E-05;  1.0000527E+03;  4.0000001E-01;  4.3653080E+01;3; -2.2358446E+00;  0.0000000E+00;  3.0211654E-02;0; -3.9249551E-02;  1.0001076E+04;  0.0000000E+00; -5.7368534E-11;  1.0000000E+04;  0.0000000E+00;  9.9999756E+03; -4.0156528E-02;  0.0000000E+00;  9.0697850E-04;  1.5541162E+01;
  5.9996083E-02;  9.9999998E-03;  1.0000009E-01;1142; -3.3909779E-03;  0.0000000E+00;  6.8930305E-05;  1.0000527E+03;  4.0000001E-01;  4.3653080E+01;3; -2.2481322E+00;  0.0000000E+00;  4.4755898E-02;0; -3.9263181E-02;  1.0001081E+04;  0.0000000E+00;  2.5984262E-10;  1.0000000E+04;  0.0000000E+00;  9.9999697E+03; -4.0398046E-02;  0.0000000E+00;  1.1348651E-03;  1.8086779E+01;
  5.9996076E-02;  9.9999998E-03;  1.2000013E-01;1143; -3.4011567E-03;  0.0000000E+00;  9.8394026E-05;  1.0000524E+03;  4.0000001E-01;  4.3356792E+01;3; -2.2560120E+00;  0.0000000E+00;  6.3833743E-02;0; -3.9190695E-02;  1.0001085E+04;  0.0000000E+00;  1.1261908E-09;  1.0000000E+04;  0.0000000E+00;  9.9999639E+03; -4.0571466E-02;  0.0000000E+00;  1.3807733E-03;  2.0845419E+01;
  5.9996087E-02;  9.9999998E-03;  1.4000018E-01;1144; -3.3976419E-03;  0.0000000E+00;  1.3528136E-04;  1.0000521E+03;  4.0000001E-01;  4.3159267E+01;3; -2.2544897E+00;  0.0000000E+00;  8.7473772E-02;0; -3.8970608E-02;  1.0001085E+04;  0.0000000E+00;  3.4684766E-09;  1.0000000E+04;  0.0000000E+00;  9.9999570E+03; -4.0589161E-02;  0.0000000E+00;  1.6185538E-03;  2.3518522E+01;
  7.9995058E-02;  9.9999998E-03;  1.7897654E-13;1168; -4.1945972E-03;  0.0000000E+00;  1.8589455E-10;  1.0000599E+03;  4.0000001E-01;  4.9578838E+01;3; -2.6699049E+00;  0.0000000E+00; -8.8420165E-08;0; -4.3500151E-02;  1.0001219E+04;  0.0000000E+00;  1.4144673E-16;  1.0000000E+04;  0.0000000E+00;  9.9999834E+03; -4.3999992E-02;  0.0000000E+00;  4.9984077E-04;  1.2028661E+01;
  7.9995058E-02;  9.9999998E-03;  2.0000013E-02;1169; -4.1993973E-03;  0.0000000E+00;  7.5326438E-06;  1.0000599E+03;  4.0000001E-01;  4.9677601E+01;3; -2.6732235E+00;  0.0000000E+00;  4.6422803E-03;0; -4.3526173E-02;  1.0001219E+04;  0.0000000E+00; -5.6078306E-12;  1.0000000E+04;  0.0000000E+00;  9.9999834E+03; -4.4058584E-02;  0.0000000E+00;  5.3240947E-04;  1.2405829E+01;
  7.9995044E-02;  9.9999998E-03;  4.0000025E-02;1170; -4.2132232E-03;  0.0000000E+00;  1.6614362E-05;  1.0000601E+03;  4.0000001E-01;  4.9776363E+01;3; -2.6827741E+00;  0.0000000E+00;  1.0212172E-02;0; -4.3600284E-02;  1.0001223E+04;  0.0000000E+00; -8.5564195E-11;  1.0000000E+04;  0.0000000E+00;  9.9999814E+03; -4.4229057E-02;  0.0000000E+00;  6.2877347E-04;  1.3523432E+01;
  7.9995021E-02;  9.9999998E-03;  6.0000043E-02;1171; -4.2343726E-03;  0.0000000E+00;  2.8828255E-05;  1.0000601E+03;  4.0000001E-01;  4.9776363E+01;3; -2.6973515E+00;  0.0000000E+00;  1.7725376E-02;0; -4.3709967E-02;  1.0001229E+04;  0.0000000E+00; -1.2741454E-10;  1.0000000E+04;  0.0000000E+00;  9.9999766E+03; -4.4494614E-02;  0.0000000E+00;  7.8464532E-04;  1.5336514E+01;
  7.9994999E-02;  9.9999998E-03;  8.0000065E-02;1172; -4.2598164E-03;  0.0000000E+00;  4.5785058E-05;  1.0000601E+03;  4.0000001E-01;  4.9776363E+01;3; -2.7148323E+00;  0.0000000E+00;  2.8075207E-02;0; -4.3833241E-02;  1.0001235E+04;  0.0000000E+00; -1.6977697E-10;  1.0000000E+04;  0.0000000E+00;  9.9999707E+03; -4.4825260E-02;  0.0000000E+00;  9.9201722E-04;  1.7759453E+01;
  7.9994977E-02;  9.9999998E-03;  1.0000010E-01;1173; -4.2850026E-03;  0.0000000E+00;  6.8544548E-05;  1.0000603E+03;  4.0000001E-01;  4.9973888E+01;3; -2.7320542E+00;  0.0000000E+00;  4.1855972E-02;0; -4.3936644E-02;  1.0001245E+04;  0.0000000E+00; -6.1871745E-12;  1.0000000E+04;  0.0000000E+00;  9.9999648E+03; -4.5174472E-02;  0.0000000E+00;  1.2378265E-03;  2.0648020E+01;
  7.9994969E-02;  9.9999998E-03;  1.2000014E-01;1174; -4.3033836E-03;  0.0000000E+00;  9.8890501E-05;  1.0000602E+03;  4.0000001E-01;  4.9875126E+01;3; -2.7446599E+00;  0.0000000E+00;  6.0178943E-02;0; -4.3972649E-02;  1.0001251E+04;  0.0000000E+00;  1.0728224E-09;  1.0000000E+04;  0.0000000E+00;  9.9999580E+03; -4.5474797E-02;  0.0000000E+00;  1.5021506E-03;  2.3774607E+01;
  7.9994969E-02;  9.9999998E-03;  1.4000018E-01;1175; -4.3061906E-03;  0.0000000E+00;  1.3648071E-04;  1.0000601E+03;  4.0000001E-01;  4.9776363E+01;3; -2.7467787E+00;  0.0000000E+00;  8.2587734E-02;0; -4.3874592E-02;  1.0001253E+04;  0.0000000E+00;  3.4146757E-09;  1.0000000E+04;  0.0000000E+00;  9.9999512E+03; -4.5632403E-02;  0.0000000E+00;  1.7578113E-03;  2.6815197E+01;
  9.9993840E-02;  9.9999998E-03; -3.3048526E-13;1199; -5.1467246E-03;  0.0000000E+00; -1.4601660E-11;  1.0000692E+03;  4.0000001E-01;  5.7381084E+01;3; -3.1903865E+00;  0.0000000E+00;  1.4296811E-06;0; -4.8767537E-02;  1.0001400E+04;  0.0000000E+00;  2.5847666E-16;  1.0000000E+04;  0.0000000E+00;  9.9999814E+03; -4.9324546E-02;  0.0000000E+00;  5.5700954E-04;  1.3776317E+01;
  9.9993832E-02;  9.9999998E-03;  2.0000013E-02;1200; -5.1530777E-03;  0.0000000E+00;  6.9565199E-06;  1.0000692E+03;  4.0000001E-01;  5.7381084E+01;3; -3.1945808E+00;  0.0000000E+00;  4.1283602E-03;0; -4.8805952E-02;  1.0001403E+04;  0.0000000E+00;  1.9287906E-11;  1.0000000E+04;  0.0000000E+00;  9.9999814E+03; -4.9397402E-02;  0.0000000E+00;  5.9144868E-04;  1.4201557E+01;
  9.9993818E-02;  9.9999998E-03;  4.0000029E-02;1201; -5.1714792E-03;  0.0000000E+00;  1.5474934E-05;  1.0000693E+03;  4.0000001E-01;  5.7479847E+01;3; -3.2067010E+00;  0.0000000E+00;  9.1273971E-03;0; -4.8917349E-02;  1.0001407E+04;  0.0000000E+00; -5.4503561E-11;  1.0000000E+04;  0.0000000E+00;  9.9999775E+03; -4.9610555E-02;  0.0000000E+00;  6.9320726E-04;  1.5460158E+01;
  9.9993788E-02;  9.9999998E-03;  6.0000047E-02;1202; -5.1999241E-03;  0.0000000E+00;  2.7177985E-05;  1.0000695E+03;  4.0000001E-01;  5.7578609E+01;3; -3.2253461E+00;  0.0000000E+00;  1.5959602E-02;0; -4.9089830E-02;  1.0001414E+04;  0.0000000E+00; -2.4664731E-10;  1.0000000E+04;  0.0000000E+00;  9.9999727E+03; -4.9947135E-02;  0.0000000E+00;  8.5730484E-04;  1.7497066E+01;
  9.9993758E-02;  9.9999998E-03;  8.0000073E-02;1203; -5.2348967E-03;  0.0000000E+00;  4.3569813E-05;  1.0000698E+03;  4.0000001E-01;  5.7776134E+01;3; -3.2481046E+00;  0.0000000E+00;  2.5365202E-02;0; -4.9302042E-02;  1.0001426E+04;  0.0000000E+00; -4.3341428E-10;  1.0000000E+04;  0.0000000E+00;  9.9999678E+03; -5.0376650E-02;  0.0000000E+00;  1.0746073E-03;  2.0209681E+01;
  9.9993728E-02;  9.9999998E-03;  1.0000010E-01;1204; -5.2710511E-03;  0.0000000E+00;  6.6127555E-05;  1.0000699E+03;  4.0000001E-01;  5.7973660E+01;3; -3.2713332E+00;  0.0000000E+00;  3.8264778E-02;0; -4.9520776E-02;  1.0001437E+04;  0.0000000E+00; -2.3467001E-10;  1.0000000E+04;  0.0000000E+00;  9.9999609E+03; -5.0851386E-02;  0.0000000E+00;  1.3306113E-03;  2.3430199E+01;
  9.9993698E-02;  9.9999998E-03;  1.2000014E-01;1205; -5.3007370E-03;  0.0000000E+00;  9.6035597E-05;  1.0000700E+03;  4.0000001E-01;  5.7973660E+01;3; -3.2900565E+00;  0.0000000E+00;  5.5002753E-02;0; -4.9696848E-02;  1.0001450E+04;  0.0000000E+00;  6.9738904E-10;  1.0000000E+04;  0.0000000E+00;  9.9999521E+03; -5.1301025E-02;  0.0000000E+00;  1.6041752E-03;  2.6904604E+01;
  9.9993698E-02;  9.9999998E-03;  1.4000019E-01;1206; -5.3134048E-03;  0.0000000E+00;  1.3385020E-04;  1.0000700E+03;  4.0000001E-01;  5.7973660E+01;3; -3.2974131E+00;  0.0000000E+00;  7.6013498E-02;0; -4.9757689E-02;  1.0001455E+04;  0.0000000E+00;  2.5257243E-09;  1.0000000E+04;  0.0000000E+00;  9.9999453E+03; -5.1625974E-02;  0.0000000E+00;  1.8682858E-03;  3.0289820E+01;
  1.1999244E-01;  9.9999998E-03; -1.1748075E-13;1230; -6.2079029E-03;  0.0000000E+00; -1.8535243E-10;  1.0000801E+03;  4.0000001E-01;  6.6368484E+01;3; -3.7695611E+00;  0.0000000E+00; -1.6318590E-06;0; -5.5077609E-02;  1.0001627E+04;  0.0000000E+00;  1.3331625E-16;  1.0000000E+04;  0.0000000E+00;  9.9999775E+03; -5.5732038E-02;  0.0000000E+00;  6.5442768E-04;  1.6041990E+01;
  1.1999243E-01;  9.9999998E-03;  2.0000013E-02;1231; -6.2161107E-03;  0.0000000E+00;  6.8474474E-06;  1.0000802E+03;  4.0000001E-01;  6.6467247E+01;3; -3.7747622E+00;  0.0000000E+00;  4.1253841E-03;0; -5.5130679E-02;  1.0001629E+04;  0.0000000E+00; -6.3874010E-11;  1.0000000E+04;  0.0000000E+00;  9.9999775E+03; -5.5821210E-02;  0.0000000E+00;  6.9052994E-04;  1.6525558E+01;
  1.1999241E-01;  9.9999998E-03;  4.0000029E-02;1232; -6.2399944E-03;  0.0000000E+00;  1.5272877E-05;  1.0000804E+03;  4.0000001E-01;  6.6566010E+01;3; -3.7898490E+00;  0.0000000E+00;  9.0472493E-03;0; -5.5286333E-02;  1.0001635E+04;  0.0000000E+00; -5.2885567E-11;  1.0000000E+04;  0.0000000E+00;  9.9999746E+03; -5.6083281E-02;  0.0000000E+00;  7.9694722E-04;  1.7954189E+01;
  1.1999237E-01;  9.9999998E-03;  6.0000047E-02;1233; -6.2772613E-03;  0.0000000E+00;  2.6808229E-05;  1.0000806E+03;  4.0000001E-01;  6.6763535E+01;3; -3.8132341E+00;  0.0000000E+00;  1.5534253E-02;0; -5.5533428E-02;  1.0001645E+04;  0.0000000E+00; -2.9227859E-10;  1.0000000E+04;  0.0000000E+00;  9.9999717E+03; -5.6501128E-02;  0.0000000E+00;  9.6769893E-04;  2.0257830E+01;
  1.1999232E-01;  9.9999998E-03;  8.0000073E-02;1234; -6.3239266E-03;  0.0000000E+00;  4.3035208E-05;  1.0000811E+03;  4.0000001E-01;  6.7158585E+01;3; -3.8421845E+00;  0.0000000E+00;  2.4439147E-02;0; -5.5851776E-02;  1.0001659E+04;  0.0000000E+00; -6.4447397E-10;  1.0000000E+04;  0.0000000E+00;  9.9999619E+03; -5.7043839E-02;  0.0000000E+00;  1.1920622E-03;  2.3308931E+01;
  1.1999228E-01;  9.9999998E-03;  1.0000011E-01;1235; -6.3738972E-03;  0.0000000E+00;  6.5539098E-05;  1.0000814E+03;  4.0000001E-01;  6.7454872E+01;3; -3.8726871E+00;  0.0000000E+00;  3.6418959E-02;0; -5.6208730E-02;  1.0001674E+04;  0.0000000E+00; -4.2785972E-10;  1.0000000E+04;  0.0000000E+00;  9.9999541E+03; -5.7662286E-02;  0.0000000E+00;  1.4535580E-03;  2.6905880E+01;
  1.1999223E-01;  9.9999998E-03;  1.2000015E-01;1236; -6.4184666E-03;  0.0000000E+00;  9.5149393E-05;  1.0000819E+03;  4.0000001E-01;  6.7849922E+01;3; -3.8990855E+00;  0.0000000E+00;  5.1873140E-02;0; -5.6554016E-02;  1.0001691E+04;  0.0000000E+00;  5.6711885E-10;  1.0000000E+04;  0.0000000E+00;  9.9999482E+03; -5.8283567E-02;  0.0000000E+00;  1.7295530E-03;  3.0758997E+01;
  1.1999221E-01;  9.9999998E-03;  1.4000021E-01;1237; -6.4453073E-03;  0.0000000E+00;  1.3298749E-04;  1.0000821E+03;  4.0000001E-01;  6.8047447E+01;3; -3.9136260E+00;  0.0000000E+00;  7.1311526E-02;0; -5.6809474E-02;  1.0001703E+04;  0.0000000E+00;  2.1916156E-09;  1.0000000E+04;  0.0000000E+00;  9.9999385E+03; -5.8803119E-02;  0.0000000E+00;  1.9936438E-03;  3.4503666E+01;
  1.3999081E-01;  9.9999998E-03; -8.6664759E-14;1261; -7.4087139E-03;  0.0000000E+00;  1.9405376E-10;  1.0000934E+03;  4.0000001E-01;  7.7429893E+01;3; -4.4124761E+00;  0.0000000E+00;  3.8119242E-07;0; -6.2479198E-02;  1.0001897E+04;  0.0000000E+00;  1.6724910E-16;  1.0000000E+04;  0.0000000E+00;  9.9999727E+03; -6.3308798E-02;  0.0000000E+00;  8.2960032E-04;  1.9166800E+01;
  1.3999079E-01;  9.9999998E-03;  2.0000016E-02;1262; -7.4191322E-03;  0.0000000E+00;  8.1498292E-06;  1.0000937E+03;  4.0000001E-01;  7.7627426E+01;3; -4.4188290E+00;  0.0000000E+00;  5.3721829E-03;0; -6.2548593E-02;  1.0001899E+04;  0.0000000E+00;  8.5340325E-11;  1.0000000E+04;  0.0000000E+00;  9.9999727E+03; -6.3416503E-02;  0.0000000E+00;  8.6790830E-04;  1.9731035E+01;
  1.3999076E-01;  9.9999998E-03;  4.0000033E-02;1263; -7.4495580E-03;  0.0000000E+00;  1.7870636E-05;  1.0000939E+03;  4.0000001E-01;  7.7726189E+01;3; -4.4372826E+00;  0.0000000E+00;  1.1421296E-02;0; -6.2753662E-02;  1.0001906E+04;  0.0000000E+00; -1.6776186E-10;  1.0000000E+04;  0.0000000E+00;  9.9999697E+03; -6.3734077E-02;  0.0000000E+00;  9.8041818E-04;  2.1394196E+01;
  1.3999072E-01;  9.9999998E-03;  6.0000055E-02;1264; -7.4974494E-03;  0.0000000E+00;  3.0692772E-05;  1.0000942E+03;  4.0000001E-01;  7.8121239E+01;3; -4.4661031E+00;  0.0000000E+00;  1.8817535E-02;0; -6.3084312E-02;  1.0001921E+04;  0.0000000E+00; -4.8291093E-10;  1.0000000E+04;  0.0000000E+00;  9.9999639E+03; -6.4243942E-02;  0.0000000E+00;  1.1596314E-03;  2.4063854E+01;
  1.3999066E-01;  9.9999998E-03;  8.0000080E-02;1265; -7.5583518E-03;  0.0000000E+00;  4.8212049E-05;  1.0000947E+03;  4.0000001E-01;  7.8516289E+01;3; -4.5022779E+00;  0.0000000E+00;  2.8292062E-02;0; -6.3522041E-02;  1.0001938E+04;  0.0000000E+00; -7.8976170E-10;  1.0000000E+04;  0.0000000E+00;  9.9999541E+03; -6.4914405E-02;  0.0000000E+00;  1.3923674E-03;  2.7574770E+01;
  1.3999058E-01;  9.9999998E-03;  1.0000012E-01;1266; -7.6254751E-03;  0.0000000E+00;  7.1884395E-05;  1.0000953E+03;  4.0000001E-01;  7.8911339E+01;3; -4.5413609E+00;  0.0000000E+00;  4.0308118E-02;0; -6.4036191E-02;  1.0001959E+04;  0.0000000E+00; -1.0247219E-09;  1.0000000E+04;  0.0000000E+00;  9.9999463E+03; -6.5695316E-02;  0.0000000E+00;  1.6591237E-03;  3.1674927E+01;
  1.3999052E-01;  9.9999998E-03;  1.2000017E-01;1267; -7.6889857E-03;  0.0000000E+00;  1.0252080E-04;  1.0000959E+03;  4.0000001E-01;  7.9405151E+01;3; -4.5770831E+00;  0.0000000E+00;  5.5185340E-02;0; -6.4576492E-02;  1.0001979E+04;  0.0000000E+00;  6.1614785E-10;  1.0000000E+04;  0.0000000E+00;  9.9999375E+03; -6.6511326E-02;  0.0000000E+00;  1.9348369E-03;  3.6021889E+01;
  1.3999048E-01;  9.9999998E-03;  1.4000022E-01;1268; -7.7349464E-03;  0.0000000E+00;  1.4105582E-04;  1.0000963E+03;  4.0000001E-01;  7.9800201E+01;3; -4.6009302E+00;  0.0000000E+00;  7.2966695E-02;0; -6.5060467E-02;  1.0001998E+04;  0.0000000E+00;  2.2871729E-09;  1.0000000E+04;  0.0000000E+00;  9.9999287E+03; -6.7254290E-02;  0.0000000E+00;  2.1938202E-03;  4.0224194E+01;
  1.5998890E-01;  9.9999998E-03; -5.3387301E-14;1292; -8.7776529E-03;  0.0000000E+00;  4.2116122E-10;  1.0001092E+03;  4.0000001E-01;  9.0466560E+01;3; -5.1242971E+00;  0.0000000E+00; -2.2089171E-07;0; -7.0975423E-02;  1.0002218E+04;  0.0000000E+00;  1.7370577E-16;  1.0000000E+04;  0.0000000E+00;  9.9999678E+03; -7.2099805E-02;  0.0000000E+00;  1.1243823E-03;  2.3515850E+01;
  1.5998888E-01;  9.9999998E-03;  2.0000020E-02;1293; -8.7906905E-03;  0.0000000E+00;  1.1930133E-05;  1.0001094E+03;  4.0000001E-01;  9.0664085E+01;3; -5.1319280E+00;  0.0000000E+00;  8.7397816E-03;0; -7.1061917E-02;  1.0002220E+04;  0.0000000E+00;  2.4970531E-11;  1.0000000E+04;  0.0000000E+00;  9.9999658E+03; -7.2228231E-02;  0.0000000E+00;  1.1663175E-03;  2.4197985E+01;
  1.5998884E-01;  9.9999998E-03;  4.0000040E-02;1294; -8.8288989E-03;  0.0000000E+00;  2.5466989E-05;  1.0001096E+03;  4.0000001E-01;  9.0861610E+01;3; -5.1541829E+00;  0.0000000E+00;  1.8019132E-02;0; -7.1318835E-02;  1.0002230E+04;  0.0000000E+00; -6.6746067E-11;  1.0000000E+04;  0.0000000E+00;  9.9999619E+03; -7.2607808E-02;  0.0000000E+00;  1.2889701E-03;  2.6204536E+01;
  1.5998878E-01;  9.9999998E-03;  6.0000069E-02;1295; -8.8894796E-03;  0.0000000E+00;  4.2221080E-05;  1.0001100E+03;  4.0000001E-01;  9.1157906E+01;3; -5.1891513E+00;  0.0000000E+00;  2.8393431E-02;0; -7.1737811E-02;  1.0002249E+04;  0.0000000E+00; -5.9361327E-10;  1.0000000E+04;  0.0000000E+00;  9.9999531E+03; -7.3220447E-02;  0.0000000E+00;  1.4826324E-03;  2.9411478E+01;
  1.5998869E-01;  9.9999998E-03;  8.0000103E-02;1296; -8.9675160E-03;  0.0000000E+00;  6.3763095E-05;  1.0001110E+03;  4.0000001E-01;  9.1948006E+01;3; -5.2335353E+00;  0.0000000E+00;  4.0419213E-02;0; -7.2302900E-02;  1.0002271E+04;  0.0000000E+00; -1.2321235E-09;  1.0000000E+04;  0.0000000E+00;  9.9999453E+03; -7.4033447E-02;  0.0000000E+00;  1.7305458E-03;  3.3600479E+01;
  1.5998860E-01;  9.9999998E-03;  1.0000015E-01;1297; -9.0555027E-03;  0.0000000E+00;  9.1440161E-05;  1.0001117E+03;  4.0000001E-01;  9.2540581E+01;3; -5.2825084E+00;  0.0000000E+00;  5.4358076E-02;0; -7.2986610E-02;  1.0002297E+04;  0.0000000E+00; -1.8172860E-09;  1.0000000E+04;  0.0000000E+00;  9.9999375E+03; -7.4995503E-02;  0.0000000E+00;  2.0088954E-03;  3.8450005E+01;
  1.5998851E-01;  9.9999998E-03;  1.2000021E-01;1298; -9.1425069E-03;  0.0000000E+00;  1.2594077E-04;  1.0001126E+03;  4.0000001E-01;  9.3330681E+01;3; -5.3291640E+00;  0.0000000E+00;  7.0511095E-02;0; -7.3740683E-02;  1.0002325E+04;  0.0000000E+00;  5.8331368E-10;  1.0000000E+04;  0.0000000E+00;  9.9999248E+03; -7.6029956E-02;  0.0000000E+00;  2.2892701E-03;  4.3549107E+01;
  1.5998843E-01;  9.9999998E-03;  1.4000027E-01;1299; -9.2129465E-03;  0.0000000E+00;  1.6741842E-04;  1.0001134E+03;  4.0000001E-01;  9.3923256E+01;3; -5.3641667E+00;  0.0000000E+00;  8.8086419E-02;0; -7.4479848E-02;  1.0002353E+04;  0.0000000E+00;  4.2798307E-09;  1.0000000E+04;  0.0000000E+00;  9.9999141E+03; -7.7027626E-02;  0.0000000E+00;  2.5477784E-03;  4.8489105E+01;
  1.7998666E-01;  9.9999998E-03;  3.8028496E-14;1323; -1.0338992E-02;  0.0000000E+00;  3.0825376E-10;  1.0001274E+03;  4.0000001E-01;  1.0557725E+02;3; -5.9106116E+00;  0.0000000E+00;  1.6602189E-06;0; -8.0633216E-02;  1.0002590E+04;  0.0000000E+00;  3.9204552E-16;  1.0000000E+04;  0.0000000E+00;  9.9999541E+03; -8.2214348E-02;  0.0000000E+00;  1.5811354E-03;  2.9450848E+01;
  1.7998664E-01;  9.9999998E-03;  2.0000026E-02;1324; -1.0355121E-02;  0.0000000E+00;  1.9317273E-05;  1.0001276E+03;  4.0000001E-01;  1.0577477E+02;3; -5.9196587E+00;  0.0000000E+00;  1.5170527E-02;0; -8.0736637E-02;  1.0002596E+04;  0.0000000E+00;  8.3937537E-11;  1.0000000E+04;  0.0000000E+00;  9.9999541E+03; -8.2365766E-02;  0.0000000E+00;  1.6291302E-03;  3.0305689E+01;
  1.7998658E-01;  9.9999998E-03;  4.0000055E-02;1325; -1.0402507E-02;  0.0000000E+00;  4.0369450E-05;  1.0001279E+03;  4.0000001E-01;  1.0597230E+02;3; -5.9461336E+00;  0.0000000E+00;  3.0719092E-02;0; -8.1044927E-02;  1.0002609E+04;  0.0000000E+00;  1.6318709E-10;  1.0000000E+04;  0.0000000E+00;  9.9999492E+03; -8.2813941E-02;  0.0000000E+00;  1.7690146E-03;  3.2817413E+01;
  1.7998649E-01;  9.9999998E-03;  6.0000092E-02;1326; -1.0478077E-02;  0.0000000E+00;  6.4953871E-05;  1.0001286E+03;  4.0000001E-01;  1.0656487E+02;3; -5.9879150E+00;  0.0000000E+00;  4.7113426E-02;0; -8.1551850E-02;  1.0002632E+04;  0.0000000E+00; -6.7922568E-10;  1.0000000E+04;  0.0000000E+00;  9.9999404E+03; -8.3540030E-02;  0.0000000E+00;  1.9881825E-03;  3.6821793E+01;
  1.7998639E-01;  9.9999998E-03;  8.0000140E-02;1327; -1.0576464E-02;  0.0000000E+00;  9.4647810E-05;  1.0001295E+03;  4.0000001E-01;  1.0725621E+02;3; -6.0414743E+00;  0.0000000E+00;  6.4712241E-02;0; -8.2244955E-02;  1.0002659E+04;  0.0000000E+00; -1.6479956E-09;  1.0000000E+04;  0.0000000E+00;  9.9999268E+03; -8.4510259E-02;  0.0000000E+00;  2.2653013E-03;  4.2034145E+01;
  1.7998625E-01;  9.9999998E-03;  1.0000020E-01;1328; -1.0689378E-02;  0.0000000E+00;  1.3092533E-04;  1.0001306E+03;  4.0000001E-01;  1.0824384E+02;3; -6.1014724E+00;  0.0000000E+00;  8.3701290E-02;0; -8.3100989E-02;  1.0002692E+04;  0.0000000E+00; -2.4125797E-09;  1.0000000E+04;  0.0000000E+00;  9.9999160E+03; -8.5672319E-02;  0.0000000E+00;  2.5713274E-03;  4.8050087E+01;
  1.7998613E-01;  9.9999998E-03;  1.2000027E-01;1329; -1.0804730E-02;  0.0000000E+00;  1.7402598E-04;  1.0001317E+03;  4.0000001E-01;  1.0913270E+02;3; -6.1604328E+00;  0.0000000E+00;  1.0401567E-01;0; -8.4075108E-02;  1.0002729E+04;  0.0000000E+00;  1.7705562E-10;  1.0000000E+04;  0.0000000E+00;  9.9999014E+03; -8.6949825E-02;  0.0000000E+00;  2.8747173E-03;  5.4390617E+01;
  1.7998601E-01;  9.9999998E-03;  1.4000034E-01;1330; -1.0905161E-02;  0.0000000E+00;  2.2367875E-04;  1.0001330E+03;  4.0000001E-01;  1.1021909E+02;3; -6.2081513E+00;  0.0000000E+00;  1.2432526E-01;0; -8.5078999E-02;  1.0002766E+04;  0.0000000E+00;  6.7759607E-09;  1.0000000E+04;  0.0000000E+00;  9.9998916E+03; -8.8235870E-02;  0.0000000E+00;  3.1568720E-03;  6.0675247E+01;
  1.9998403E-01;  9.9999998E-03;  2.1119419E-13;1354; -1.2118475E-02;  0.0000000E+00; -1.2342906E-09;  1.0001489E+03;  4.0000001E-01;  1.2335452E+02;3; -6.7779064E+00;  0.0000000E+00; -5.2117271E-06;0; -9.1557272E-02;  1.0003034E+04;  0.0000000E+00; -6.9400109E-16;  1.0000000E+04;  0.0000000E+00;  9.9999424E+03; -9.3795724E-02;  0.0000000E+00;  2.2384508E-03;  3.7288563E+01;
  1.9998400E-01;  9.9999998E-03;  2.0000037E-02;1355; -1.2138205E-02;  0.0000000E+00;  3.1349038E-05;  1.0001490E+03;  4.0000001E-01;  1.2345328E+02;3; -6.7884912E+00;  0.0000000E+00;  2.5556309E-02;0; -9.1676295E-02;  1.0003038E+04;  0.0000000E+00;  6.4814109E-12;  1.0000000E+04;  0.0000000E+00;  9.9999414E+03; -9.3972385E-02;  0.0000000E+00;  2.2960913E-03;  3.8390915E+01;
  1.9998394E-01;  9.9999998E-03;  4.0000077E-02;1356; -1.2196298E-02;  0.0000000E+00;  6.4764201E-05;  1.0001495E+03;  4.0000001E-01;  1.2384833E+02;3; -6.8195205E+00;  0.0000000E+00;  5.1381316E-02;0; -9.2032135E-02;  1.0003056E+04;  0.0000000E+00; -1.8246021E-11;  1.0000000E+04;  0.0000000E+00;  9.9999326E+03; -9.4495900E-02;  0.0000000E+00;  2.4637622E-03;  4.1630367E+01;
  1.9998382E-01;  9.9999998E-03;  6.0000129E-02;1357; -1.2289421E-02;  0.0000000E+00;  1.0219103E-04;  1.0001503E+03;  4.0000001E-01;  1.2453967E+02;3; -6.8687372E+00;  0.0000000E+00;  7.7733174E-02;0; -9.2621051E-02;  1.0003084E+04;  0.0000000E+00; -4.9586552E-10;  1.0000000E+04;  0.0000000E+00;  9.9999219E+03; -9.5346548E-02;  0.0000000E+00;  2.7254962E-03;  4.6797810E+01;
  1.9998369E-01;  9.9999998E-03;  8.0000192E-02;1358; -1.2411648E-02;  0.0000000E+00;  1.4579052E-04;  1.0001513E+03;  4.0000001E-01;  1.2532977E+02;3; -6.9322433E+00;  0.0000000E+00;  1.0503922E-01;0; -9.3434468E-02;  1.0003120E+04;  0.0000000E+00; -2.5038740E-09;  1.0000000E+04;  0.0000000E+00;  9.9999082E+03; -9.6489385E-02;  0.0000000E+00;  3.0549178E-03;  5.3537045E+01;
  1.9998352E-01;  9.9999998E-03;  1.0000026E-01;1359; -1.2553846E-02;  0.0000000E+00;  1.9690422E-04;  1.0001525E+03;  4.0000001E-01;  1.2631740E+02;3; -7.0041928E+00;  0.0000000E+00;  1.3329911E-01;0; -9.4453663E-02;  1.0003161E+04;  0.0000000E+00; -2.9000276E-09;  1.0000000E+04;  0.0000000E+00;  9.9998916E+03; -9.7871505E-02;  0.0000000E+00;  3.4178444E-03;  6.1362286E+01;
  1.9998334E-01;  9.9999998E-03;  1.2000035E-01;1360; -1.2702649E-02;  0.0000000E+00;  2.5559345E-04;  1.0001542E+03;  4.0000001E-01;  1.2770007E+02;3; -7.0765300E+00;  0.0000000E+00;  1.6189510E-01;0; -9.5636487E-02;  1.0003208E+04;  0.0000000E+00;  6.5405049E-11;  1.0000000E+04;  0.0000000E+00;  9.9998730E+03; -9.9418193E-02;  0.0000000E+00;  3.7817098E-03;  6.9754425E+01;
  1.9998318E-01;  9.9999998E-03;  1.4000046E-01;1361; -1.2838760E-02;  0.0000000E+00;  3.2134043E-04;  1.0001556E+03;  4.0000001E-01;  1.2888522E+02;3; -7.1380544E+00;  0.0000000E+00;  1.8946876E-01;0; -9.6889116E-02;  1.0003257E+04;  0.0000000E+00;  8.8314671E-09;  1.0000000E+04;  0.0000000E+00;  9.9998564E+03; -1.0102839E-01;  0.0000000E+00;  4.1392776E-03;  7.8446251E+01;
  2.1998094E-01;  9.9999998E-03; -8.5271438E-13;1385; -1.4146203E-02;  0.0000000E+00;  5.2725035E-10;  1.0001736E+03;  4.0000001E-01;  1.4379839E+02;3; -7.7343454E+00;  0.0000000E+00;  2.2240188E-06;0; -1.0385628E-01;  1.0003549E+04;  0.0000000E+00;  9.6838312E-16;  1.0000000E+04;  0.0000000E+00;  9.9999238E+03; -1.0698298E-01;  0.0000000E+00;  3.1266930E-03;  4.7260326E+01;
  2.1998093E-01;  9.9999998E-03;  2.0000054E-02;1386; -1.4170100E-02;  0.0000000E+00;  4.8821246E-05;  1.0001737E+03;  4.0000001E-01;  1.4389714E+02;3; -7.7466154E+00;  0.0000000E+00;  4.0469758E-02;0; -1.0398841E-01;  1.0003556E+04;  0.0000000E+00;  1.0423825E-10;  1.0000000E+04;  0.0000000E+00;  9.9999209E+03; -1.0718720E-01;  0.0000000E+00;  3.1987894E-03;  4.8706181E+01;
  2.1998084E-01;  9.9999998E-03;  4.0000111E-02;1387; -1.4240596E-02;  0.0000000E+00;  1.0022391E-04;  1.0001743E+03;  4.0000001E-01;  1.4439096E+02;3; -7.7824793E+00;  0.0000000E+00;  8.1413932E-02;0; -1.0438467E-01;  1.0003573E+04;  0.0000000E+00;  2.2059868E-10;  1.0000000E+04;  0.0000000E+00;  9.9999102E+03; -1.0779320E-01;  0.0000000E+00;  3.4085393E-03;  5.2961227E+01;
  2.1998070E-01;  9.9999998E-03;  6.0000177E-02;1388; -1.4354012E-02;  0.0000000E+00;  1.5688187E-04;  1.0001751E+03;  4.0000001E-01;  1.4508229E+02;3; -7.8395205E+00;  0.0000000E+00;  1.2274289E-01;0; -1.0504374E-01;  1.0003607E+04;  0.0000000E+00; -8.0290730E-10;  1.0000000E+04;  0.0000000E+00;  9.9998984E+03; -1.0878021E-01;  0.0000000E+00;  3.7364715E-03;  5.9772961E+01;
  2.1998051E-01;  9.9999998E-03;  8.0000266E-02;1389; -1.4503861E-02;  0.0000000E+00;  2.2112341E-04;  1.0001763E+03;  4.0000001E-01;  1.4606992E+02;3; -7.9135642E+00;  0.0000000E+00;  1.6445532E-01;0; -1.0596082E-01;  1.0003649E+04;  0.0000000E+00; -2.1245559E-09;  1.0000000E+04;  0.0000000E+00;  9.9998789E+03; -1.1011223E-01;  0.0000000E+00;  4.1514072E-03;  6.8720909E+01;
  2.1998030E-01;  9.9999998E-03;  1.0000037E-01;1390; -1.4680054E-02;  0.0000000E+00;  2.9464363E-04;  1.0001778E+03;  4.0000001E-01;  1.4725507E+02;3; -7.9981623E+00;  0.0000000E+00;  2.0693818E-01;0; -1.0712073E-01;  1.0003703E+04;  0.0000000E+00; -3.7297396E-09;  1.0000000E+04;  0.0000000E+00;  9.9998564E+03; -1.1173602E-01;  0.0000000E+00;  4.6152947E-03;  7.9258118E+01;
  2.1998006E-01;  9.9999998E-03;  1.2000050E-01;1391; -1.4867581E-02;  0.0000000E+00;  3.7816490E-04;  1.0001796E+03;  4.0000001E-01;  1.4883528E+02;3; -8.0844116E+00;  0.0000000E+00;  2.4919617E-01;0; -1.0848136E-01;  1.0003763E+04;  0.0000000E+00; -6.3344396E-10;  1.0000000E+04;  0.0000000E+00;  9.9998311E+03; -1.1357941E-01;  0.0000000E+00;  5.0980519E-03;  9.0876099E+01;
  2.1997985E-01;  9.9999998E-03;  1.4000064E-01;1392; -1.5045428E-02;  0.0000000E+00;  4.6882799E-04;  1.0001816E+03;  4.0000001E-01;  1.5041548E+02;3; -8.1603241E+00;  0.0000000E+00;  2.8929785E-01;0; -1.0993914E-01;  1.0003828E+04;  0.0000000E+00;  1.0663971E-08;  1.0000000E+04;  0.0000000E+00;  9.9998086E+03; -1.1554941E-01;  0.0000000E+00;  5.6102616E-03;  1.0352094E+02;
  2.3997734E-01;  9.9999998E-03; -7.9361891E-13;1416; -1.6456382E-02;  0.0000000E+00;  6.3904576E-10;  1.0002021E+03;  4.0000001E-01;  1.6740265E+02;3; -8.7897854E+00;  0.0000000E+00;  1.2447299E-06;0; -1.1765406E-01;  1.0004145E+04;  0.0000000E+00; -1.5180371E-15;  1.0000000E+04;  0.0000000E+00;  9.9999014E+03; -1.2191836E-01;  0.0000000E+00;  4.2642923E-03;  5.9491119E+01;
  2.3997730E-01;  9.9999998E-03;  2.0000072E-02;1417; -1.6485043E-02;  0.0000000E+00;  7.2433504E-05;  1.0002023E+03;  4.0000001E-01;  1.6760017E+02;3; -8.8036728E+00;  0.0000000E+00;  6.1477326E-02;0; -1.1779593E-01;  1.0004150E+04;  0.0000000E+00;  7.6761764E-10;  1.0000000E+04;  0.0000000E+00;  9.9998955E+03; -1.2215278E-01;  0.0000000E+00;  4.3568476E-03;  6.1396770E+01;
  2.3997720E-01;  9.9999998E-03;  4.0000152E-02;1418; -1.6569698E-02;  0.0000000E+00;  1.4827661E-04;  1.0002030E+03;  4.0000001E-01;  1.6819275E+02;3; -8.8444471E+00;  0.0000000E+00;  1.2269008E-01;0; -1.1822227E-01;  1.0004177E+04;  0.0000000E+00;  1.2994329E-09;  1.0000000E+04;  0.0000000E+00;  9.9998838E+03; -1.2284892E-01;  0.0000000E+00;  4.6266443E-03;  6.7018211E+01;
  2.3997703E-01;  9.9999998E-03;  6.0000245E-02;1419; -1.6706398E-02;  0.0000000E+00;  2.3055673E-04;  1.0002040E+03;  4.0000001E-01;  1.6898285E+02;3; -8.9096537E+00;  0.0000000E+00;  1.8355450E-01;0; -1.1893425E-01;  1.0004213E+04;  0.0000000E+00;  6.8287426E-10;  1.0000000E+04;  0.0000000E+00;  9.9998652E+03; -1.2398508E-01;  0.0000000E+00;  5.0508338E-03;  7.6068321E+01;
  2.3997679E-01;  9.9999998E-03;  8.0000363E-02;1420; -1.6887926E-02;  0.0000000E+00;  3.2296174E-04;  1.0002054E+03;  4.0000001E-01;  1.7016800E+02;3; -8.9944372E+00;  0.0000000E+00;  2.4583891E-01;0; -1.1993013E-01;  1.0004268E+04;  0.0000000E+00; -2.1061173E-09;  1.0000000E+04;  0.0000000E+00;  9.9998398E+03; -1.2552425E-01;  0.0000000E+00;  5.5941278E-03;  8.8081291E+01;
  2.3997653E-01;  9.9999998E-03;  1.0000050E-01;1421; -1.7103037E-02;  0.0000000E+00;  4.2804808E-04;  1.0002070E+03;  4.0000001E-01;  1.7155067E+02;3; -9.0918980E+00;  0.0000000E+00;  3.0819151E-01;0; -1.2119634E-01;  1.0004333E+04;  0.0000000E+00; -4.4148298E-09;  1.0000000E+04;  0.0000000E+00;  9.9998105E+03; -1.2741263E-01;  0.0000000E+00;  6.2162899E-03;  1.0248167E+02;
  2.3997623E-01;  9.9999998E-03;  1.2000068E-01;1422; -1.7335206E-02;  0.0000000E+00;  5.4520852E-04;  1.0002090E+03;  4.0000001E-01;  1.7322964E+02;3; -9.1923761E+00;  0.0000000E+00;  3.6845881E-01;0; -1.2268735E-01;  1.0004407E+04;  0.0000000E+00; -1.1323623E-09;  1.0000000E+04;  0.0000000E+00;  9.9997764E+03; -1.2958007E-01;  0.0000000E+00;  6.8927165E-03;  1.1882426E+02;
  2.3997593E-01;  9.9999998E-03;  1.4000088E-01;1423; -1.7561130E-02;  0.0000000E+00;  6.7178527E-04;  1.0002112E+03;  4.0000001E-01;  1.7500737E+02;3; -9.2826042E+00;  0.0000000E+00;  4.2624307E-01;0; -1.2428601E-01;  1.0004491E+04;  0.0000000E+00;  9.2441246E-09;  1.0000000E+04;  0.0000000E+00;  9.9997373E+03; -1.3194077E-01;  0.0000000E+00;  7.6547554E-03;  1.3733397E+02;
  2.5997314E-01;  9.9999998E-03; -1.0792983E-12;1447; -1.9086376E-02;  0.0000000E+00; -1.0397729E-09;  1.0002352E+03;  4.0000001E-01;  1.9485864E+02;3; -9.9545021E+00;  0.0000000E+00;  2.5546162E-06;0; -1.3309313E-01;  1.0004834E+04;  0.0000000E+00; -9.3457427E-17;  1.0000000E+04;  0.0000000E+00;  9.9998721E+03; -1.3874857E-01;  0.0000000E+00;  5.6554433E-03;  7.4008858E+01;
  2.5997308E-01;  9.9999998E-03;  2.0000096E-02;1448; -1.9120432E-02;  0.0000000E+00;  1.0190006E-04;  1.0002355E+03;  4.0000001E-01;  1.9505617E+02;3; -9.9702129E+00;  0.0000000E+00;  8.6445853E-02;0; -1.3324042E-01;  1.0004845E+04;  0.0000000E+00;  2.4387101E-10;  1.0000000E+04;  0.0000000E+00;  9.9998672E+03; -1.3901594E-01;  0.0000000E+00;  5.7755318E-03;  7.6506653E+01;
  2.5997296E-01;  9.9999998E-03;  4.0000200E-02;1449; -1.9221144E-02;  0.0000000E+00;  2.0820188E-04;  1.0002361E+03;  4.0000001E-01;  1.9564874E+02;3; -1.0015872E+01;  0.0000000E+00;  1.7387189E-01;0; -1.3368413E-01;  1.0004874E+04;  0.0000000E+00;  2.2175572E-09;  1.0000000E+04;  0.0000000E+00;  9.9998496E+03; -1.3981077E-01;  0.0000000E+00;  6.1266366E-03;  8.3896400E+01;
  2.5997275E-01;  9.9999998E-03;  6.0000326E-02;1450; -1.9384166E-02;  0.0000000E+00;  3.2347586E-04;  1.0002372E+03;  4.0000001E-01;  1.9653761E+02;3; -1.0088817E+01;  0.0000000E+00;  2.6169530E-01;0; -1.3442755E-01;  1.0004923E+04;  0.0000000E+00;  2.5143587E-09;  1.0000000E+04;  0.0000000E+00;  9.9998262E+03; -1.4111020E-01;  0.0000000E+00;  6.6826474E-03;  9.5871208E+01;
  2.5997245E-01;  9.9999998E-03;  8.0000482E-02;1451; -1.9601621E-02;  0.0000000E+00;  4.5236739E-04;  1.0002387E+03;  4.0000001E-01;  1.9772276E+02;3; -1.0184278E+01;  0.0000000E+00;  3.5080871E-01;0; -1.3547127E-01;  1.0004985E+04;  0.0000000E+00; -2.3779811E-10;  1.0000000E+04;  0.0000000E+00;  9.9997930E+03; -1.4287582E-01;  0.0000000E+00;  7.4045509E-03;  1.1194454E+02;
  2.5997210E-01;  9.9999998E-03;  1.0000067E-01;1452; -1.9861083E-02;  0.0000000E+00;  5.9741613E-04;  1.0002407E+03;  4.0000001E-01;  1.9940172E+02;3; -1.0294518E+01;  0.0000000E+00;  4.3706167E-01;0; -1.3680163E-01;  1.0005066E+04;  0.0000000E+00; -4.0988062E-09;  1.0000000E+04;  0.0000000E+00;  9.9997520E+03; -1.4505228E-01;  0.0000000E+00;  8.2506491E-03;  1.3154425E+02;
  2.5997171E-01;  9.9999998E-03;  1.2000090E-01;1453; -2.0144368E-02;  0.0000000E+00;  7.5787678E-04;  1.0002430E+03;  4.0000001E-01;  2.0137697E+02;3; -1.0408587E+01;  0.0000000E+00;  5.2147961E-01;0; -1.3836710E-01;  1.0005157E+04;  0.0000000E+00; -5.6021916E-09;  1.0000000E+04;  0.0000000E+00;  9.9997051E+03; -1.4756872E-01;  0.0000000E+00;  9.2016216E-03;  1.5431354E+02;
  2.5997132E-01;  9.9999998E-03;  1.4000118E-01;1454; -2.0425379E-02;  0.0000000E+00;  9.3391235E-04;  1.0002452E+03;  4.0000001E-01;  2.0315471E+02;3; -1.0512801E+01;  0.0000000E+00;  6.0257721E-01;0; -1.4003591E-01;  1.0005258E+04;  0.0000000E+00;  2.5603935E-09;  1.0000000E+04;  0.0000000E+00;  9.9996475E+03; -1.5034150E-01;  0.0000000E+00;  1.0305581E-02;  1.8074010E+02;
  2.7996823E-01;  9.9999998E-03; -4.1936940E-13;1478; -2.2076359E-02;  0.0000000E+00; -5.9710192E-10;  1.0002731E+03;  4.0000001E-01;  2.2626515E+02;3; -1.1240163E+01;  0.0000000E+00;  1.5140629E-06;0; -1.5033065E-01;  1.0005624E+04;  0.0000000E+00; -8.0994339E-16;  1.0000000E+04;  0.0000000E+00;  9.9998398E+03; -1.5762065E-01;  0.0000000E+00;  7.2900122E-03;  9.0800339E+01;
  2.7996817E-01;  9.9999998E-03;  2.0000122E-02;1479; -2.2116484E-02;  0.0000000E+00;  1.3724263E-04;  1.0002733E+03;  4.0000001E-01;  2.2646268E+02;3; -1.1257168E+01;  0.0000000E+00;  1.1968029E-01;0; -1.5047874E-01;  1.0005637E+04;  0.0000000E+00;  1.7534358E-09;  1.0000000E+04;  0.0000000E+00;  9.9998330E+03; -1.5792435E-01;  0.0000000E+00;  7.4456185E-03;  9.4031136E+01;
  2.7996799E-01;  9.9999998E-03;  4.0000260E-02;1480; -2.2235261E-02;  0.0000000E+00;  2.8055540E-04;  1.0002740E+03;  4.0000001E-01;  2.2705525E+02;3; -1.1307495E+01;  0.0000000E+00;  2.3888421E-01;0; -1.5092552E-01;  1.0005672E+04;  0.0000000E+00;  4.3723754E-09;  1.0000000E+04;  0.0000000E+00;  9.9998135E+03; -1.5882747E-01;  0.0000000E+00;  7.9019498E-03;  1.0361864E+02;
  2.7996773E-01;  9.9999998E-03;  6.0000420E-02;1481; -2.2427823E-02;  0.0000000E+00;  4.3610248E-04;  1.0002753E+03;  4.0000001E-01;  2.2804288E+02;3; -1.1387723E+01;  0.0000000E+00;  3.5921460E-01;0; -1.5167665E-01;  1.0005729E+04;  0.0000000E+00;  5.4370211E-09;  1.0000000E+04;  0.0000000E+00;  9.9997803E+03; -1.6030596E-01;  0.0000000E+00;  8.6293146E-03;  1.1925490E+02;
  2.7996737E-01;  9.9999998E-03;  8.0000617E-02;1482; -2.2685638E-02;  0.0000000E+00;  6.0819130E-04;  1.0002768E+03;  4.0000001E-01;  2.2932680E+02;3; -1.1492955E+01;  0.0000000E+00;  4.7590524E-01;0; -1.5273468E-01;  1.0005809E+04;  0.0000000E+00;  4.4717736E-09;  1.0000000E+04;  0.0000000E+00;  9.9997344E+03; -1.6231893E-01;  0.0000000E+00;  9.5842546E-03;  1.4045697E+02;
  2.7996695E-01;  9.9999998E-03;  1.0000087E-01;1483; -2.2995170E-02;  0.0000000E+00;  8.0032565E-04;  1.0002792E+03;  4.0000001E-01;  2.3130205E+02;3; -1.1614315E+01;  0.0000000E+00;  5.9204149E-01;0; -1.5408531E-01;  1.0005903E+04;  0.0000000E+00; -1.7685331E-10;  1.0000000E+04;  0.0000000E+00;  9.9996826E+03; -1.6480705E-01;  0.0000000E+00;  1.0721743E-02;  1.6667377E+02;
  2.7996644E-01;  9.9999998E-03;  1.2000117E-01;1484; -2.3336479E-02;  0.0000000E+00;  1.0161403E-03;  1.0002817E+03;  4.0000001E-01;  2.3337607E+02;3; -1.1741380E+01;  0.0000000E+00;  7.0924962E-01;0; -1.5567160E-01;  1.0006018E+04;  0.0000000E+00; -2.7998803E-09;  1.0000000E+04;  0.0000000E+00;  9.9996143E+03; -1.6769408E-01;  0.0000000E+00;  1.2022487E-02;  1.9761398E+02;
  2.7996597E-01;  9.9999998E-03;  1.4000154E-01;1485; -2.3681514E-02;  0.0000000E+00;  1.2567596E-03;  1.0002841E+03;  4.0000001E-01;  2.3535132E+02;3; -1.1859179E+01;  0.0000000E+00;  8.2078624E-01;0; -1.5734951E-01;  1.0006143E+04;  0.0000000E+00; -6.3109018E-10;  1.0000000E+04;  0.0000000E+00;  9.9995400E+03; -1.7088915E-01;  0.0000000E+00;  1.3539636E-02;  2.3391605E+02;
  2.9996252E-01;  9.9999998E-03; -8.4914356E-13;1509; -2.5469474E-02;  0.0000000E+00; -6.8823020E-10;  1.0003166E+03;  4.0000001E-01;  2.6231348E+02;3; -1.2657343E+01;  0.0000000E+00;  2.9897274E-07;0; -1.6952892E-01;  1.0006529E+04;  0.0000000E+00; -1.0207024E-15;  1.0000000E+04;  0.0000000E+00;  9.9998047E+03; -1.7867550E-01;  0.0000000E+00;  9.1465907E-03;  1.0993716E+02;
  2.9996243E-01;  9.9999998E-03;  2.0000152E-02;1510; -2.5516275E-02;  0.0000000E+00;  1.7824926E-04;  1.0003169E+03;  4.0000001E-01;  2.6251099E+02;3; -1.2675632E+01;  0.0000000E+00;  1.5915708E-01;0; -1.6967312E-01;  1.0006546E+04;  0.0000000E+00;  2.5024849E-09;  1.0000000E+04;  0.0000000E+00;  9.9997939E+03; -1.7901948E-01;  0.0000000E+00;  9.3463715E-03;  1.1403793E+02;
  2.9996225E-01;  9.9999998E-03;  4.0000323E-02;1511; -2.5654905E-02;  0.0000000E+00;  3.6372701E-04;  1.0003176E+03;  4.0000001E-01;  2.6310358E+02;3; -1.2728951E+01;  0.0000000E+00;  3.1570733E-01;0; -1.7010896E-01;  1.0006585E+04;  0.0000000E+00;  7.6171149E-09;  1.0000000E+04;  0.0000000E+00;  9.9997676E+03; -1.8004262E-01;  0.0000000E+00;  9.9336701E-03;  1.2624297E+02;
  2.9996192E-01;  9.9999998E-03;  6.0000524E-02;1512; -2.5880231E-02;  0.0000000E+00;  5.6412350E-04;  1.0003190E+03;  4.0000001E-01;  2.6428873E+02;3; -1.2815171E+01;  0.0000000E+00;  4.7101980E-01;0; -1.7084451E-01;  1.0006656E+04;  0.0000000E+00;  1.2964369E-08;  1.0000000E+04;  0.0000000E+00;  9.9997275E+03; -1.8171874E-01;  0.0000000E+00;  1.0874228E-02;  1.4626479E+02;
  2.9996148E-01;  9.9999998E-03;  8.0000773E-02;1513; -2.6183169E-02;  0.0000000E+00;  7.8535266E-04;  1.0003210E+03;  4.0000001E-01;  2.6596768E+02;3; -1.2928253E+01;  0.0000000E+00;  6.2292594E-01;0; -1.7188497E-01;  1.0006753E+04;  0.0000000E+00;  1.4532893E-08;  1.0000000E+04;  0.0000000E+00;  9.9996699E+03; -1.8400256E-01;  0.0000000E+00;  1.2117597E-02;  1.7364589E+02;
  2.9996094E-01;  9.9999998E-03;  1.0000109E-01;1514; -2.6549043E-02;  0.0000000E+00;  1.0348669E-03;  1.0003234E+03;  4.0000001E-01;  2.6794293E+02;3; -1.3060162E+01;  0.0000000E+00;  7.7840507E-01;0; -1.7321718E-01;  1.0006870E+04;  0.0000000E+00;  1.1608492E-08;  1.0000000E+04;  0.0000000E+00;  9.9995977E+03; -1.8682724E-01;  0.0000000E+00;  1.3610064E-02;  2.0785551E+02;
  2.9996032E-01;  9.9999998E-03;  1.2000148E-01;1515; -2.6956357E-02;  0.0000000E+00;  1.3169587E-03;  1.0003259E+03;  4.0000001E-01;  2.7001697E+02;3; -1.3198183E+01;  0.0000000E+00;  9.2858022E-01;0; -1.7478229E-01;  1.0007009E+04;  0.0000000E+00;  5.9199770E-09;  1.0000000E+04;  0.0000000E+00;  9.9995117E+03; -1.9010448E-01;  0.0000000E+00;  1.5322195E-02;  2.4860329E+02;
  2.9995969E-01;  9.9999998E-03;  1.4000195E-01;1516; -2.7375618E-02;  0.0000000E+00;  1.6313785E-03;  1.0003284E+03;  4.0000001E-01;  2.7209097E+02;3; -1.3329331E+01;  0.0000000E+00;  1.0687121E+00;0; -1.7643051E-01;  1.0007159E+04;  0.0000000E+00;  3.8239523E-10;  1.0000000E+04;  0.0000000E+00;  9.9994102E+03; -1.9372553E-01;  0.0000000E+00;  1.7295014E-02;  2.9650214E+02;
  3.1995589E-01;  9.9999998E-03; -7.6272613E-14;1540; -2.9312525E-02;  0.0000000E+00; -9.7257591E-10;  1.0003661E+03;  4.0000001E-01;  3.0329996E+02;3; -1.4218168E+01;  0.0000000E+00; -4.3330965E-06;0; -1.9083986E-01;  1.0007566E+04;  0.0000000E+00; -5.7854013E-16;  1.0000000E+04;  0.0000000E+00;  9.9997598E+03; -2.0203981E-01;  0.0000000E+00;  1.1199947E-02;  1.3179770E+02;
  3.1995580E-01;  9.9999998E-03;  2.0000184E-02;1541; -2.9366594E-02;  0.0000000E+00;  2.2247704E-04;  1.0003665E+03;  4.0000001E-01;  3.0369501E+02;3; -1.4236256E+01;  0.0000000E+00;  1.9932507E-01;0; -1.9097596E-01;  1.0007584E+04;  0.0000000E+00;  3.3358629E-09;  1.0000000E+04;  0.0000000E+00;  9.9997500E+03; -2.0242891E-01;  0.0000000E+00;  1.1452941E-02;  1.3688388E+02;
  3.1995556E-01;  9.9999998E-03;  4.0000390E-02;1542; -2.9527182E-02;  0.0000000E+00;  4.5416126E-04;  1.0003673E+03;  4.0000001E-01;  3.0428757E+02;3; -1.4292026E+01;  0.0000000E+00;  4.0047973E-01;0; -1.9138923E-01;  1.0007634E+04;  0.0000000E+00;  1.3231548E-08;  1.0000000E+04;  0.0000000E+00;  9.9997168E+03; -2.0358703E-01;  0.0000000E+00;  1.2197796E-02;  1.5206381E+02;
  3.1995514E-01;  9.9999998E-03;  6.0000636E-02;1543; -2.9789142E-02;  0.0000000E+00;  7.0424774E-04;  1.0003688E+03;  4.0000001E-01;  3.0557150E+02;3; -1.4382809E+01;  0.0000000E+00;  5.9469354E-01;0; -1.9208981E-01;  1.0007716E+04;  0.0000000E+00;  2.2361219E-08;  1.0000000E+04;  0.0000000E+00;  9.9996660E+03; -2.0548356E-01;  0.0000000E+00;  1.3393749E-02;  1.7709634E+02;
  3.1995460E-01;  9.9999998E-03;  8.0000944E-02;1544; -3.0142440E-02;  0.0000000E+00;  9.8291005E-04;  1.0003710E+03;  4.0000001E-01;  3.0734921E+02;3; -1.4501088E+01;  0.0000000E+00;  7.9257661E-01;0; -1.9308700E-01;  1.0007829E+04;  0.0000000E+00;  3.0769723E-08;  1.0000000E+04;  0.0000000E+00;  9.9995928E+03; -2.0806599E-01;  0.0000000E+00;  1.4978995E-02;  2.1157227E+02;
  3.1995392E-01;  9.9999998E-03;  1.0000134E-01;1545; -3.0571239E-02;  0.0000000E+00;  1.2980879E-03;  1.0003735E+03;  4.0000001E-01;  3.0942322E+02;3; -1.4639270E+01;  0.0000000E+00;  9.8595679E-01;0; -1.9437274E-01;  1.0007972E+04;  0.0000000E+00;  2.9942122E-08;  1.0000000E+04;  0.0000000E+00;  9.9995020E+03; -2.1125594E-01;  0.0000000E+00;  1.6883193E-02;  2.5497545E+02;
  3.1995317E-01;  9.9999998E-03;  1.2000182E-01;1546; -3.1052569E-02;  0.0000000E+00;  1.6547045E-03;  1.0003764E+03;  4.0000001E-01;  3.1189230E+02;3; -1.4784851E+01;  0.0000000E+00;  1.1723140E+00;0; -1.9589262E-01;  1.0008139E+04;  0.0000000E+00;  2.3759293E-08;  1.0000000E+04;  0.0000000E+00;  9.9993936E+03; -2.1494637E-01;  0.0000000E+00;  1.9053759E-02;  3.0694525E+02;
  3.1995237E-01;  9.9999998E-03;  1.4000243E-01;1547; -3.1555749E-02;  0.0000000E+00;  2.0515341E-03;  1.0003792E+03;  4.0000001E-01;  3.1416385E+02;3; -1.4925293E+01;  0.0000000E+00;  1.3460525E+00;0; -1.9749948E-01;  1.0008323E+04;  0.0000000E+00;  1.1295630E-08;  1.0000000E+04;  0.0000000E+00;  9.9992646E+03; -2.1899997E-01;  0.0000000E+00;  2.1500485E-02;  3.6789261E+02;
  3.3994818E-01;  9.9999998E-03;  6.2422432E-14;1571; -3.3655990E-02;  0.0000000E+00;  2.1447071E-09;  1.0004226E+03;  4.0000001E-01;  3.5011340E+02;3; -1.5932491E+01;  0.0000000E+00;  1.3773542E-05;0; -2.1438256E-01;  1.0008740E+04;  0.0000000E+00; -1.2185709E-15;  1.0000000E+04;  0.0000000E+00;  9.9997129E+03; -2.2781742E-01;  0.0000000E+00;  1.3434857E-02;  1.5741211E+02;
  3.3994809E-01;  9.9999998E-03;  2.0000216E-02;1572; -3.3718381E-02;  0.0000000E+00;  2.6812733E-04;  1.0004229E+03;  4.0000001E-01;  3.5040970E+02;3; -1.5951617E+01;  0.0000000E+00;  2.4455716E-01;0; -2.1450874E-01;  1.0008759E+04;  0.0000000E+00;  4.3827648E-09;  1.0000000E+04;  0.0000000E+00;  9.9997002E+03; -2.2825858E-01;  0.0000000E+00;  1.3749839E-02;  1.6355382E+02;
  3.3994779E-01;  9.9999998E-03;  4.0000457E-02;1573; -3.3903673E-02;  0.0000000E+00;  5.4887874E-04;  1.0004239E+03;  4.0000001E-01;  3.5119980E+02;3; -1.6008173E+01;  0.0000000E+00;  4.9170703E-01;0; -2.1489248E-01;  1.0008818E+04;  0.0000000E+00;  1.8820675E-08;  1.0000000E+04;  0.0000000E+00;  9.9996582E+03; -2.2957018E-01;  0.0000000E+00;  1.4677705E-02;  1.8193268E+02;
  3.3994728E-01;  9.9999998E-03;  6.0000751E-02;1574; -3.4206428E-02;  0.0000000E+00;  8.5306400E-04;  1.0004258E+03;  4.0000001E-01;  3.5278000E+02;3; -1.6099712E+01;  0.0000000E+00;  7.3165417E-01;0; -2.1554716E-01;  1.0008920E+04;  0.0000000E+00;  3.6690931E-08;  1.0000000E+04;  0.0000000E+00;  9.9995938E+03; -2.3171583E-01;  0.0000000E+00;  1.6168671E-02;  2.1238747E+02;
  3.3994663E-01;  9.9999998E-03;  8.0001123E-02;1575; -3.4615714E-02;  0.0000000E+00;  1.1951207E-03;  1.0004283E+03;  4.0000001E-01;  3.5485400E+02;3; -1.6220108E+01;  0.0000000E+00;  9.7782975E-01;0; -2.1648757E-01;  1.0009058E+04;  0.0000000E+00;  5.0898183E-08;  1.0000000E+04;  0.0000000E+00;  9.9995078E+03; -2.3463209E-01;  0.0000000E+00;  1.8144513E-02;  2.5459378E+02;
  3.3994579E-01;  9.9999998E-03;  1.0000160E-01;1576; -3.5114624E-02;  0.0000000E+00;  1.5827122E-03;  1.0004310E+03;  4.0000001E-01;  3.5702676E+02;3; -1.6359550E+01;  0.0000000E+00;  1.2121063E+00;0; -2.1771473E-01;  1.0009229E+04;  0.0000000E+00;  5.7420170E-08;  1.0000000E+04;  0.0000000E+00;  9.9993945E+03; -2.3822428E-01;  0.0000000E+00;  2.0509563E-02;  3.0806583E+02;
  3.3994484E-01;  9.9999998E-03;  1.2000220E-01;1577; -3.5678346E-02;  0.0000000E+00;  2.0223863E-03;  1.0004344E+03;  4.0000001E-01;  3.5989090E+02;3; -1.6507578E+01;  0.0000000E+00;  1.4375823E+00;0; -2.1918522E-01;  1.0009430E+04;  0.0000000E+00;  4.4570466E-08;  1.0000000E+04;  0.0000000E+00;  9.9992598E+03; -2.4236014E-01;  0.0000000E+00;  2.3174930E-02;  3.7233936E+02;
  3.3994383E-01;  9.9999998E-03;  1.4000294E-01;1578; -3.6274992E-02;  0.0000000E+00;  2.5126466E-03;  1.0004374E+03;  4.0000001E-01;  3.6235995E+02;3; -1.6651745E+01;  0.0000000E+00;  1.6507809E+00;0; -2.2076507E-01;  1.0009650E+04;  0.0000000E+00;  3.3909132E-08;  1.0000000E+04;  0.0000000E+00;  9.9991016E+03; -2.4686652E-01;  0.0000000E+00;  2.6101457E-02;  4.4751910E+02;
  3.5993928E-01;  9.9999998E-03; -2.2014187E-12;1602; -3.8553808E-02;  0.0000000E+00;  2.3636118E-10;  1.0004860E+03;  4.0000001E-01;  4.0265503E+02;3; -1.7812815E+01;  0.0000000E+00;  6.4093347E-06;0; -2.4021642E-01;  1.0010072E+04;  0.0000000E+00;  1.2309725E-15;  1.0000000E+04;  0.0000000E+00;  9.9996523E+03; -2.5608382E-01;  0.0000000E+00;  1.5867399E-02;  1.8894673E+02;
  3.5993916E-01;  9.9999998E-03;  2.0000251E-02;1603; -3.8625520E-02;  0.0000000E+00;  3.1442818E-04;  1.0004866E+03;  4.0000001E-01;  4.0314883E+02;3; -1.7832546E+01;  0.0000000E+00;  2.9174745E-01;0; -2.4033354E-01;  1.0010095E+04;  0.0000000E+00;  7.7862889E-09;  1.0000000E+04;  0.0000000E+00;  9.9996377E+03; -2.5658515E-01;  0.0000000E+00;  1.6251605E-02;  1.9613957E+02;
  3.5993880E-01;  9.9999998E-03;  4.0000532E-02;1604; -3.8838722E-02;  0.0000000E+00;  6.4527290E-04;  1.0004879E+03;  4.0000001E-01;  4.0413647E+02;3; -1.7888369E+01;  0.0000000E+00;  5.8461457E-01;0; -2.4069051E-01;  1.0010167E+04;  0.0000000E+00;  2.1634968E-08;  1.0000000E+04;  0.0000000E+00;  9.9995928E+03; -2.5807396E-01;  0.0000000E+00;  1.7383441E-02;  2.1772116E+02;
  3.5993820E-01;  9.9999998E-03;  6.0000874E-02;1605; -3.9187111E-02;  0.0000000E+00;  1.0073005E-03;  1.0004899E+03;  4.0000001E-01;  4.0581543E+02;3; -1.7977119E+01;  0.0000000E+00;  8.7590867E-01;0; -2.4130324E-01;  1.0010285E+04;  0.0000000E+00;  4.5246651E-08;  1.0000000E+04;  0.0000000E+00;  9.9995146E+03; -2.6050511E-01;  0.0000000E+00;  1.9201878E-02;  2.5365656E+02;
  3.5993737E-01;  9.9999998E-03;  8.0001310E-02;1606; -3.9658852E-02;  0.0000000E+00;  1.4166500E-03;  1.0004928E+03;  4.0000001E-01;  4.0828452E+02;3; -1.8093641E+01;  0.0000000E+00;  1.1702418E+00;0; -2.4219273E-01;  1.0010449E+04;  0.0000000E+00;  6.5601689E-08;  1.0000000E+04;  0.0000000E+00;  9.9994082E+03; -2.6380071E-01;  0.0000000E+00;  2.1607975E-02;  3.0376831E+02;
  3.5993639E-01;  9.9999998E-03;  1.0000187E-01;1607; -4.0234990E-02;  0.0000000E+00;  1.8801346E-03;  1.0004962E+03;  4.0000001E-01;  4.1104987E+02;3; -1.8229021E+01;  0.0000000E+00;  1.4504701E+00;0; -2.4337080E-01;  1.0010652E+04;  0.0000000E+00;  6.2591475E-08;  1.0000000E+04;  0.0000000E+00;  9.9992734E+03; -2.6784393E-01;  0.0000000E+00;  2.4473134E-02;  3.6766046E+02;
  3.5993519E-01;  9.9999998E-03;  1.2000259E-01;1608; -4.0889643E-02;  0.0000000E+00;  2.4091722E-03;  1.0005001E+03;  4.0000001E-01;  4.1430902E+02;3; -1.8372955E+01;  0.0000000E+00;  1.7211597E+00;0; -2.4481213E-01;  1.0010893E+04;  0.0000000E+00;  5.6232853E-08;  1.0000000E+04;  0.0000000E+00;  9.9991123E+03; -2.7247304E-01;  0.0000000E+00;  2.7660904E-02;  4.4480728E+02;
  3.5993394E-01;  9.9999998E-03;  1.4000349E-01;1609; -4.1590214E-02;  0.0000000E+00;  3.0049845E-03;  1.0005039E+03;  4.0000001E-01;  4.1746942E+02;3; -1.8515463E+01;  0.0000000E+00;  1.9763024E+00;0; -2.4640262E-01;  1.0011156E+04;  0.0000000E+00;  5.5471236E-08;  1.0000000E+04;  0.0000000E+00;  9.9989219E+03; -2.7747282E-01;  0.0000000E+00;  3.1070206E-02;  5.3503424E+02;
  3.7992901E-01;  9.9999998E-03;  3.7424068E-13;1633; -4.4058904E-02;  0.0000000E+00;  2.8993405E-09;  1.0005572E+03;  4.0000001E-01;  4.6161621E+02;3; -1.9870226E+01;  0.0000000E+00;  4.9019600E-06;0; -2.6831150E-01;  1.0011572E+04;  0.0000000E+00;  2.4814567E-15;  1.0000000E+04;  0.0000000E+00;  9.9995723E+03; -2.8688523E-01;  0.0000000E+00;  1.8573724E-02;  2.3031772E+02;
  3.7992886E-01;  9.9999998E-03;  2.0000292E-02;1634; -4.4141296E-02;  0.0000000E+00;  3.6151271E-04;  1.0005577E+03;  4.0000001E-01;  4.6211005E+02;3; -1.9888693E+01;  0.0000000E+00;  3.3995265E-01;0; -2.6842514E-01;  1.0011600E+04;  0.0000000E+00;  5.0092033E-09;  1.0000000E+04;  0.0000000E+00;  9.9995547E+03; -2.8745633E-01;  0.0000000E+00;  1.9031210E-02;  2.3845265E+02;
  3.7992844E-01;  9.9999998E-03;  4.0000618E-02;1635; -4.4386178E-02;  0.0000000E+00;  7.4292836E-04;  1.0005594E+03;  4.0000001E-01;  4.6339395E+02;3; -1.9941614E+01;  0.0000000E+00;  6.7758238E-01;0; -2.6877210E-01;  1.0011687E+04;  0.0000000E+00;  1.7084730E-08;  1.0000000E+04;  0.0000000E+00;  9.9995039E+03; -2.8915095E-01;  0.0000000E+00;  2.0378863E-02;  2.6293011E+02;
  3.7992769E-01;  9.9999998E-03;  6.0001019E-02;1636; -4.4786066E-02;  0.0000000E+00;  1.1645429E-03;  1.0005620E+03;  4.0000001E-01;  4.6556674E+02;3; -2.0023792E+01;  0.0000000E+00;  1.0211880E+00;0; -2.6936910E-01;  1.0011828E+04;  0.0000000E+00;  3.5101404E-08;  1.0000000E+04;  0.0000000E+00;  9.9994150E+03; -2.9191226E-01;  0.0000000E+00;  2.2543173E-02;  3.0389938E+02;
  3.7992671E-01;  9.9999998E-03;  8.0001526E-02;1637; -4.5326836E-02;  0.0000000E+00;  1.6402375E-03;  1.0005656E+03;  4.0000001E-01;  4.6852960E+02;3; -2.0129639E+01;  0.0000000E+00;  1.3602237E+00;0; -2.7024117E-01;  1.0012019E+04;  0.0000000E+00;  4.6115503E-08;  1.0000000E+04;  0.0000000E+00;  9.9992959E+03; -2.9564309E-01;  0.0000000E+00;  2.5401933E-02;  3.6141846E+02;
  3.7992549E-01;  9.9999998E-03;  1.0000218E-01;1638; -4.5989029E-02;  0.0000000E+00;  2.1842034E-03;  1.0005699E+03;  4.0000001E-01;  4.7218381E+02;3; -2.0253492E+01;  0.0000000E+00;  1.6883743E+00;0; -2.7141219E-01;  1.0012261E+04;  0.0000000E+00;  2.7021100E-08;  1.0000000E+04;  0.0000000E+00;  9.9991396E+03; -3.0020067E-01;  0.0000000E+00;  2.8788462E-02;  4.3528821E+02;
  3.7992406E-01;  9.9999998E-03;  1.2000303E-01;1639; -4.6744939E-02;  0.0000000E+00;  2.8110452E-03;  1.0005746E+03;  4.0000001E-01;  4.7603555E+02;3; -2.0385483E+01;  0.0000000E+00;  2.0072353E+00;0; -2.7287623E-01;  1.0012547E+04;  0.0000000E+00;  1.2493858E-08;  1.0000000E+04;  0.0000000E+00;  9.9989512E+03; -3.0538759E-01;  0.0000000E+00;  3.2511361E-02;  5.2505237E+02;
  3.7992248E-01;  9.9999998E-03;  1.4000410E-01;1640; -4.7559321E-02;  0.0000000E+00;  3.5206689E-03;  1.0005796E+03;  4.0000001E-01;  4.8018359E+02;3; -2.0514547E+01;  0.0000000E+00;  2.3008444E+00;0; -2.7454343E-01;  1.0012864E+04;  0.0000000E+00;  4.0893134E-08;  1.0000000E+04;  0.0000000E+00;  9.9987305E+03; -3.1094521E-01;  0.0000000E+00;  3.6401775E-02;  6.3045660E+02;
  3.9991722E-01;  9.9999998E-03; -1.5653730E-12;1664; -5.0220415E-02;  0.0000000E+00;  2.6779465E-09;  1.0006364E+03;  4.0000001E-01;  5.2719446E+02;3; -2.2112120E+01;  0.0000000E+00;  7.7639488E-06;0; -2.9852095E-01;  1.0013267E+04;  0.0000000E+00; -2.6437188E-15;  1.0000000E+04;  0.0000000E+00;  9.9994609E+03; -3.2024610E-01;  0.0000000E+00;  2.1725146E-02;  2.8787964E+02;
  3.9991704E-01;  9.9999998E-03;  2.0000350E-02;1665; -5.0314974E-02;  0.0000000E+00;  4.1014803E-04;  1.0006370E+03;  4.0000001E-01;  5.2778705E+02;3; -2.2128077E+01;  0.0000000E+00;  3.8619453E-01;0; -2.9864350E-01;  1.0013298E+04;  0.0000000E+00;  9.4498154E-10;  1.0000000E+04;  0.0000000E+00;  9.9994434E+03; -3.2089835E-01;  0.0000000E+00;  2.2254866E-02;  2.9671988E+02;
  3.9991650E-01;  9.9999998E-03;  4.0000737E-02;1666; -5.0596040E-02;  0.0000000E+00;  8.4344548E-04;  1.0006389E+03;  4.0000001E-01;  5.2936725E+02;3; -2.2175320E+01;  0.0000000E+00;  7.6467836E-01;0; -2.9901543E-01;  1.0013398E+04;  0.0000000E+00; -2.2278763E-09;  1.0000000E+04;  0.0000000E+00;  9.9993867E+03; -3.2283065E-01;  0.0000000E+00;  2.3815218E-02;  3.2340253E+02;
  3.9991564E-01;  9.9999998E-03;  6.0001206E-02;1667; -5.1054206E-02;  0.0000000E+00;  1.3253629E-03;  1.0006423E+03;  4.0000001E-01;  5.3213257E+02;3; -2.2245739E+01;  0.0000000E+00;  1.1553034E+00;0; -2.9965210E-01;  1.0013560E+04;  0.0000000E+00; -1.0012278E-08;  1.0000000E+04;  0.0000000E+00;  9.9992900E+03; -3.2597217E-01;  0.0000000E+00;  2.6320068E-02;  3.6831857E+02;
  3.9991444E-01;  9.9999998E-03;  8.0001801E-02;1668; -5.1673044E-02;  0.0000000E+00;  1.8700133E-03;  1.0006470E+03;  4.0000001E-01;  5.3608307E+02;3; -2.2335373E+01;  0.0000000E+00;  1.5412159E+00;0; -3.0057892E-01;  1.0013788E+04;  0.0000000E+00; -3.6435448E-08;  1.0000000E+04;  0.0000000E+00;  9.9991543E+03; -3.3020222E-01;  0.0000000E+00;  2.9623298E-02;  4.3185312E+02;
  3.9991295E-01;  9.9999998E-03;  1.0000256E-01;1669; -5.2432280E-02;  0.0000000E+00;  2.5002335E-03;  1.0006525E+03;  4.0000001E-01;  5.4062616E+02;3; -2.2439190E+01;  0.0000000E+00;  1.9167393E+00;0; -3.0182874E-01;  1.0014072E+04;  0.0000000E+00; -9.9564922E-08;  1.0000000E+04;  0.0000000E+00;  9.9989805E+03; -3.3534676E-01;  0.0000000E+00;  3.3518024E-02;  5.1413416E+02;
  3.9991120E-01;  9.9999998E-03;  1.2000354E-01;1670; -5.3301584E-02;  0.0000000E+00;  3.2317259E-03;  1.0006589E+03;  4.0000001E-01;  5.4586060E+02;3; -2.2550364E+01;  0.0000000E+00;  2.2850857E+00;0; -3.0341345E-01;  1.0014411E+04;  0.0000000E+00; -1.5258117E-07;  1.0000000E+04;  0.0000000E+00;  9.9987705E+03; -3.4116974E-01;  0.0000000E+00;  3.7756298E-02;  6.1498737E+02;
  3.9990929E-01;  9.9999998E-03;  1.4000478E-01;1671; -5.4240245E-02;  0.0000000E+00;  4.0619546E-03;  1.0006652E+03;  4.0000001E-01;  5.5109497E+02;3; -2.2653065E+01;  0.0000000E+00;  2.6202803E+00;0; -3.0526349E-01;  1.0014791E+04;  0.0000000E+00; -9.0401315E-08;  1.0000000E+04;  0.0000000E+00;  9.9985195E+03; -3.4736806E-01;  0.0000000E+00;  4.2104572E-02;  7.3446313E+02;
  4.1990373E-01;  9.9999998E-03; -5.3824957E-12;1695; -5.7082765E-02;  0.0000000E+00;  2.1245323E-09;  1.0007230E+03;  4.0000001E-01;  5.9899463E+02;3; -2.4542150E+01;  0.0000000E+00;  2.0875243E-05;0; -3.3054256E-01;  1.0015166E+04;  0.0000000E+00;  1.3166620E-15;  1.0000000E+04;  0.0000000E+00;  9.9992979E+03; -3.5616869E-01;  0.0000000E+00;  2.5626114E-02;  3.7106488E+02;
  4.1990352E-01;  9.9999998E-03;  2.0000441E-02;1696; -5.7191264E-02;  0.0000000E+00;  4.6392527E-04;  1.0007238E+03;  4.0000001E-01;  5.9968597E+02;3; -2.4554953E+01;  0.0000000E+00;  4.2597637E-01;0; -3.3069298E-01;  1.0015207E+04;  0.0000000E+00; -1.3270888E-08;  1.0000000E+04;  0.0000000E+00;  9.9992783E+03; -3.5691252E-01;  0.0000000E+00;  2.6219552E-02;  3.8024057E+02;
  4.1990289E-01;  9.9999998E-03;  4.0000923E-02;1697; -5.7513915E-02;  0.0000000E+00;  9.5371087E-04;  1.0007267E+03;  4.0000001E-01;  6.0205627E+02;3; -2.4593969E+01;  0.0000000E+00;  8.3772349E-01;0; -3.3114678E-01;  1.0015318E+04;  0.0000000E+00; -3.8818360E-08;  1.0000000E+04;  0.0000000E+00;  9.9992158E+03; -3.5911432E-01;  0.0000000E+00;  2.7967557E-02;  4.0803040E+02;
  4.1990185E-01;  9.9999998E-03;  6.0001489E-02;1698; -5.8038682E-02;  0.0000000E+00;  1.4993363E-03;  1.0007311E+03;  4.0000001E-01;  6.0571051E+02;3; -2.4647449E+01;  0.0000000E+00;  1.2700580E+00;0; -3.3191302E-01;  1.0015509E+04;  0.0000000E+00; -9.1102415E-08;  1.0000000E+04;  0.0000000E+00;  9.9991172E+03; -3.6268514E-01;  0.0000000E+00;  3.0772131E-02;  4.5509775E+02;
  4.1990042E-01;  9.9999998E-03;  8.0002189E-02;1699; -5.8747213E-02;  0.0000000E+00;  2.1199847E-03;  1.0007371E+03;  4.0000001E-01;  6.1064862E+02;3; -2.4715015E+01;  0.0000000E+00;  1.7012566E+00;0; -3.3301371E-01;  1.0015771E+04;  0.0000000E+00; -1.8688247E-07;  1.0000000E+04;  0.0000000E+00;  9.9989736E+03; -3.6747697E-01;  0.0000000E+00;  3.4463253E-02;  5.2220587E+02;
  4.1989863E-01;  9.9999998E-03;  1.0000307E-01;1700; -5.9616286E-02;  0.0000000E+00;  2.8418337E-03;  1.0007444E+03;  4.0000001E-01;  6.1677191E+02;3; -2.4789516E+01;  0.0000000E+00;  2.1234756E+00;0; -3.3448592E-01;  1.0016105E+04;  0.0000000E+00; -3.3965304E-07;  1.0000000E+04;  0.0000000E+00;  9.9987910E+03; -3.7328109E-01;  0.0000000E+00;  3.8795173E-02;  6.0991022E+02;
  4.1989648E-01;  9.9999998E-03;  1.2000420E-01;1701; -6.0612433E-02;  0.0000000E+00;  3.6837165E-03;  1.0007529E+03;  4.0000001E-01;  6.2378406E+02;3; -2.4867495E+01;  0.0000000E+00;  2.5408132E+00;0; -3.3635160E-01;  1.0016500E+04;  0.0000000E+00; -4.7182013E-07;  1.0000000E+04;  0.0000000E+00;  9.9985625E+03; -3.7981993E-01;  0.0000000E+00;  4.3468334E-02;  7.1856317E+02;
  4.1989413E-01;  9.9999998E-03;  1.4000562E-01;1702; -6.1689187E-02;  0.0000000E+00;  4.6408959E-03;  1.0007615E+03;  4.0000001E-01;  6.3089490E+02;3; -2.4932259E+01;  0.0000000E+00;  2.9230304E+00;0; -3.3855107E-01;  1.0016946E+04;  0.0000000E+00; -3.7163292E-07;  1.0000000E+04;  0.0000000E+00;  9.9982900E+03; -3.8674870E-01;  0.0000000E+00;  4.8197620E-02;  8.4905603E+02;
  4.3988836E-01;  9.9999998E-03; -4.2923415E-13;1726; -6.4689420E-02;  0.0000000E+00; -4.3230658E-10;  1.0008171E+03;  4.0000001E-01;  6.7701678E+02;3; -2.7160477E+01;  0.0000000E+00; -6.9658308E-06;0; -3.6383098E-01;  1.0017297E+04;  0.0000000E+00; -1.6058375E-15;  1.0000000E+04;  0.0000000E+00;  9.9990557E+03; -3.9457893E-01;  0.0000000E+00;  3.0747939E-02;  4.9278076E+02;
  4.3988812E-01;  9.9999998E-03;  2.0000594E-02;1727; -6.4814821E-02;  0.0000000E+00;  5.2867638E-04;  1.0008183E+03;  4.0000001E-01;  6.7790564E+02;3; -2.7171415E+01;  0.0000000E+00;  4.4714740E-01;0; -3.6403617E-01;  1.0017338E+04;  0.0000000E+00; -2.1029223E-08;  1.0000000E+04;  0.0000000E+00;  9.9990371E+03; -3.9542302E-01;  0.0000000E+00;  3.1386852E-02;  5.0181482E+02;
  4.3988737E-01;  9.9999998E-03;  4.0001225E-02;1728; -6.5185726E-02;  0.0000000E+00;  1.0897000E-03;  1.0008220E+03;  4.0000001E-01;  6.8096729E+02;3; -2.7198309E+01;  0.0000000E+00;  8.9766896E-01;0; -3.6465070E-01;  1.0017469E+04;  0.0000000E+00; -8.0735042E-08;  1.0000000E+04;  0.0000000E+00;  9.9989766E+03; -3.9791894E-01;  0.0000000E+00;  3.3268243E-02;  5.2927112E+02;
  4.3988612E-01;  9.9999998E-03;  6.0001943E-02;1729; -6.5787159E-02;  0.0000000E+00;  1.7107778E-03;  1.0008278E+03;  4.0000001E-01;  6.8580664E+02;3; -2.7230171E+01;  0.0000000E+00;  1.3604468E+00;0; -3.6567372E-01;  1.0017684E+04;  0.0000000E+00; -1.8912181E-07;  1.0000000E+04;  0.0000000E+00;  9.9988789E+03; -4.0195677E-01;  0.0000000E+00;  3.6283035E-02;  5.7605475E+02;
  4.3988442E-01;  9.9999998E-03;  8.0002792E-02;1730; -6.6598795E-02;  0.0000000E+00;  2.4182179E-03;  1.0008356E+03;  4.0000001E-01;  6.9222620E+02;3; -2.7268244E+01;  0.0000000E+00;  1.8280573E+00;0; -3.6711955E-01;  1.0017984E+04;  0.0000000E+00; -3.6851154E-07;  1.0000000E+04;  0.0000000E+00;  9.9987344E+03; -4.0735775E-01;  0.0000000E+00;  4.0238217E-02;  6.4326093E+02;
  4.3988225E-01;  9.9999998E-03;  1.0000384E-01;1731; -6.7592889E-02;  0.0000000E+00;  3.2403159E-03;  1.0008452E+03;  4.0000001E-01;  7.0022595E+02;3; -2.7304779E+01;  0.0000000E+00;  2.2952788E+00;0; -3.6902073E-01;  1.0018367E+04;  0.0000000E+00; -6.4205466E-07;  1.0000000E+04;  0.0000000E+00;  9.9985449E+03; -4.1387331E-01;  0.0000000E+00;  4.4852585E-02;  7.3186365E+02;
  4.3987969E-01;  9.9999998E-03;  1.2000514E-01;1732; -6.8732642E-02;  0.0000000E+00;  4.1984781E-03;  1.0008565E+03;  4.0000001E-01;  7.0960840E+02;3; -2.7338182E+01;  0.0000000E+00;  2.7627423E+00;0; -3.7140223E-01;  1.0018827E+04;  0.0000000E+00; -9.0989266E-07;  1.0000000E+04;  0.0000000E+00;  9.9983125E+03; -4.2118821E-01;  0.0000000E+00;  4.9785964E-02;  8.4291534E+02;
  4.3987682E-01;  9.9999998E-03;  1.4000675E-01;1733; -6.9964238E-02;  0.0000000E+00;  5.2890955E-03;  1.0008683E+03;  4.0000001E-01;  7.1938586E+02;3; -2.7352409E+01;  0.0000000E+00;  3.1951404E+00;0; -3.7419316E-01;  1.0019346E+04;  0.0000000E+00; -8.1785225E-07;  1.0000000E+04;  0.0000000E+00;  9.9980293E+03; -4.2891812E-01;  0.0000000E+00;  5.4724962E-02;  9.7874786E+02;
  4.5987087E-01;  9.9999998E-03;  5.5785194E-12;1757; -7.3091790E-02;  0.0000000E+00;  1.3276041E-09;  1.0009185E+03;  4.0000063E-01;  7.6096442E+02;3; -2.9966990E+01;  0.0000000E+00; -6.5641143E-07;0; -3.9738712E-01;  1.0019648E+04;  0.0000000E+00; -1.5677205E-17;  1.0000000E+04;  0.0000000E+00;  9.9986992E+03; -4.3513510E-01;  0.0000000E+00;  3.7747975E-02;  6.6930249E+02;
  4.5987058E-01;  9.9999998E-03;  2.0000843E-02;1758; -7.3236153E-02;  0.0000000E+00;  6.2174670E-04;  1.0009200E+03;  4.0000060E-01;  7.6214954E+02;3; -2.9970341E+01;  0.0000000E+00;  4.6892521E-01;0; -3.9768076E-01;  1.0019697E+04;  0.0000000E+00; -2.7255860E-08;  1.0000000E+04;  0.0000000E+00;  9.9986836E+03; -4.3608278E-01;  0.0000000E+00;  3.8402021E-02;  6.7767542E+02;
  4.5986968E-01;  9.9999998E-03;  4.0001724E-02;1759; -7.3662765E-02;  0.0000000E+00;  1.2784322E-03;  1.0009244E+03;  4.0000057E-01;  7.6580377E+02;3; -2.9981033E+01;  0.0000000E+00;  9.4003242E-01;0; -3.9855450E-01;  1.0019843E+04;  0.0000000E+00; -1.0186496E-07;  1.0000000E+04;  0.0000000E+00;  9.9986289E+03; -4.3888074E-01;  0.0000000E+00;  4.0326245E-02;  7.0319977E+02;
  4.5986822E-01;  9.9999998E-03;  6.0002681E-02;1760; -7.4353524E-02;  0.0000000E+00;  1.9977153E-03;  1.0009319E+03;  4.0000054E-01;  7.7202582E+02;3; -2.9988224E+01;  0.0000000E+00;  1.4144962E+00;0; -3.9999473E-01;  1.0020084E+04;  0.0000000E+00; -2.4488335E-07;  1.0000000E+04;  0.0000000E+00;  9.9985322E+03; -4.4339612E-01;  0.0000000E+00;  4.3401394E-02;  7.4689813E+02;
  4.5986620E-01;  9.9999998E-03;  8.0003761E-02;1761; -7.5283416E-02;  0.0000000E+00;  2.8115967E-03;  1.0009420E+03;  4.0000057E-01;  7.8042059E+02;3; -2.9991430E+01;  0.0000000E+00;  1.9121457E+00;0; -4.0200153E-01;  1.0020420E+04;  0.0000000E+00; -4.9037538E-07;  1.0000000E+04;  0.0000000E+00;  9.9984004E+03; -4.4941491E-01;  0.0000000E+00;  4.7413372E-02;  8.0999408E+02;
  4.5986360E-01;  9.9999998E-03;  1.0000502E-01;1762; -7.6419838E-02;  0.0000000E+00;  3.7523415E-03;  1.0009547E+03;  4.0000057E-01;  7.9098816E+02;3; -2.9979891E+01;  0.0000000E+00;  2.4283621E+00;0; -4.0459871E-01;  1.0020855E+04;  0.0000000E+00; -8.7324770E-07;  1.0000000E+04;  0.0000000E+00;  9.9982207E+03; -4.5664921E-01;  0.0000000E+00;  5.2050490E-02;  8.9366638E+02;
  4.5986053E-01;  9.9999998E-03;  1.2000654E-01;1763; -7.7723555E-02;  0.0000000E+00;  4.8365230E-03;  1.0009695E+03;  4.0000066E-01;  8.0323474E+02;3; -2.9960712E+01;  0.0000000E+00;  2.9364610E+00;0; -4.0780079E-01;  1.0021376E+04;  0.0000000E+00; -1.2721036E-06;  1.0000000E+04;  0.0000000E+00;  9.9979990E+03; -4.6474671E-01;  0.0000000E+00;  5.6945935E-02;  9.9962903E+02;
  4.5985705E-01;  9.9999998E-03;  1.4000838E-01;1764; -7.9130270E-02;  0.0000000E+00;  6.0676448E-03;  1.0009856E+03;  4.0000069E-01;  8.1656763E+02;3; -2.9911591E+01;  0.0000000E+00;  3.4233894E+00;0; -4.1151103E-01;  1.0021973E+04;  0.0000000E+00; -1.2308261E-06;  1.0000000E+04;  0.0000000E+00;  9.9977236E+03; -4.7330132E-01;  0.0000000E+00;  6.1790284E-02;  1.1321704E+03;
  4.7985092E-01;  9.9999998E-03; -1.7979603E-12;1788; -8.2350761E-02;  0.0000000E+00; -4.3108561E-09;  1.0010229E+03;  4.0000182E-01;  8.4747968E+02;3; -3.2938251E+01;  0.0000000E+00; -1.2135294E-05;0; -4.2937297E-01;  1.0022189E+04;  0.0000000E+00; -1.3899313E-15;  1.0000000E+04;  0.0000000E+00;  9.9981924E+03; -4.7683698E-01;  0.0000000E+00;  4.7464021E-02;  9.1944666E+02;
  4.7985056E-01;  9.9999998E-03;  2.0001244E-02;1789; -8.2516968E-02;  0.0000000E+00;  7.6163223E-04;  1.0010247E+03;  4.0000173E-01;  8.4886230E+02;3; -3.2936657E+01;  0.0000000E+00;  4.7034115E-01;0; -4.2979333E-01;  1.0022241E+04;  0.0000000E+00; -2.4193310E-08;  1.0000000E+04;  0.0000000E+00;  9.9981777E+03; -4.7788188E-01;  0.0000000E+00;  4.8088558E-02;  9.2670428E+02;
  4.7984952E-01;  9.9999998E-03;  4.0002514E-02;1790; -8.3007969E-02;  0.0000000E+00;  1.5579028E-03;  1.0010302E+03;  4.0000182E-01;  8.5350415E+02;3; -3.2930393E+01;  0.0000000E+00;  9.5130336E-01;0; -4.3103954E-01;  1.0022402E+04;  0.0000000E+00; -9.7658450E-08;  1.0000000E+04;  0.0000000E+00;  9.9981279E+03; -4.8096207E-01;  0.0000000E+00;  4.9922530E-02;  9.4885345E+02;
  4.7984779E-01;  9.9999998E-03;  6.0003843E-02;1791; -8.3800830E-02;  0.0000000E+00;  2.4154929E-03;  1.0010394E+03;  4.0000182E-01;  8.6110883E+02;3; -3.2910061E+01;  0.0000000E+00;  1.4341754E+00;0; -4.3308008E-01;  1.0022669E+04;  0.0000000E+00; -2.1938638E-07;  1.0000000E+04;  0.0000000E+00;  9.9980449E+03; -4.8591909E-01;  0.0000000E+00;  5.2839022E-02;  9.8678894E+02;
  4.7984540E-01;  9.9999998E-03;  8.0005281E-02;1792; -8.4865913E-02;  0.0000000E+00;  3.3721374E-03;  1.0010522E+03;  4.0000173E-01;  8.7167639E+02;3; -3.2873451E+01;  0.0000000E+00;  1.9566150E+00;0; -4.3589592E-01;  1.0023041E+04;  0.0000000E+00; -4.6181941E-07;  1.0000000E+04;  0.0000000E+00;  9.9979268E+03; -4.9250209E-01;  0.0000000E+00;  5.6606174E-02;  1.0414502E+03;
  4.7984236E-01;  9.9999998E-03;  1.0000687E-01;1793; -8.6166851E-02;  0.0000000E+00;  4.4565313E-03;  1.0010683E+03;  4.0000185E-01;  8.8510809E+02;3; -3.2819565E+01;  0.0000000E+00;  2.4921918E+00;0; -4.3949699E-01;  1.0023520E+04;  0.0000000E+00; -8.4854133E-07;  1.0000000E+04;  0.0000000E+00;  9.9977754E+03; -5.0038511E-01;  0.0000000E+00;  6.0888108E-02;  1.1137131E+03;
  4.7983870E-01;  9.9999998E-03;  1.2000869E-01;1794; -8.7654598E-02;  0.0000000E+00;  5.6922850E-03;  1.0010876E+03;  4.0000176E-01;  9.0110760E+02;3; -3.2731976E+01;  0.0000000E+00;  3.0506084E+00;0; -4.4388133E-01;  1.0024098E+04;  0.0000000E+00; -1.1956316E-06;  1.0000000E+04;  0.0000000E+00;  9.9975850E+03; -5.0918883E-01;  0.0000000E+00;  6.5307498E-02;  1.2055887E+03;
  4.7983453E-01;  9.9999998E-03;  1.4001080E-01;1795; -8.9259066E-02;  0.0000000E+00;  7.0751319E-03;  1.0011092E+03;  4.0000182E-01;  9.1898358E+02;3; -3.2606750E+01;  0.0000000E+00;  3.5971467E+00;0; -4.4890511E-01;  1.0024770E+04;  0.0000000E+00; -9.7460202E-07;  1.0000000E+04;  0.0000000E+00;  9.9973398E+03; -5.1850444E-01;  0.0000000E+00;  6.9599316E-02;  1.3236295E+03;
  4.9982807E-01;  9.9999998E-03;  1.9659825E-12;1819; -9.2534788E-02;  0.0000000E+00; -3.8014294E-09;  1.0011239E+03;  4.0000424E-01;  9.3113043E+02;3; -3.6061901E+01;  0.0000000E+00; -1.1915158E-05;0; -4.5663315E-01;  1.0024800E+04;  0.0000000E+00;  1.2683548E-15;  1.0000000E+04;  0.0000000E+00;  9.9974854E+03; -5.1750708E-01;  0.0000000E+00;  6.0873915E-02;  1.2629561E+03;
  4.9982768E-01;  9.9999998E-03;  2.0001845E-02;1820; -9.2725970E-02;  0.0000000E+00;  9.7131054E-04;  1.0011262E+03;  4.0000424E-01;  9.3300690E+02;3; -3.6055027E+01;  0.0000000E+00;  4.5033619E-01;0; -4.5722148E-01;  1.0024852E+04;  0.0000000E+00; -1.2215097E-08;  1.0000000E+04;  0.0000000E+00;  9.9974736E+03; -5.1862925E-01;  0.0000000E+00;  6.1407786E-02;  1.2688379E+03;
  4.9982649E-01;  9.9999998E-03;  4.0003706E-02;1821; -9.3289703E-02;  0.0000000E+00;  1.9735550E-03;  1.0011324E+03;  4.0000418E-01;  9.3814258E+02;3; -3.6030712E+01;  0.0000000E+00;  9.1418058E-01;0; -4.5896128E-01;  1.0025023E+04;  0.0000000E+00; -4.1685890E-08;  1.0000000E+04;  0.0000000E+00;  9.9974355E+03; -5.2193159E-01;  0.0000000E+00;  6.2970310E-02;  1.2867090E+03;
  4.9982449E-01;  9.9999998E-03;  6.0005601E-02;1822; -9.4198398E-02;  0.0000000E+00;  3.0336692E-03;  1.0011437E+03;  4.0000409E-01;  9.4752496E+02;3; -3.5983780E+01;  0.0000000E+00;  1.4031377E+00;0; -4.6179667E-01;  1.0025311E+04;  0.0000000E+00; -9.8663847E-08;  1.0000000E+04;  0.0000000E+00;  9.9973682E+03; -5.2722901E-01;  0.0000000E+00;  6.5432347E-02;  1.3169547E+03;
  4.9982169E-01;  9.9999998E-03;  8.0007568E-02;1823; -9.5419325E-02;  0.0000000E+00;  4.1843248E-03;  1.0011589E+03;  4.0000409E-01;  9.6016656E+02;3; -3.5915173E+01;  0.0000000E+00;  1.9185648E+00;0; -4.6568358E-01;  1.0025712E+04;  0.0000000E+00; -1.7167761E-07;  1.0000000E+04;  0.0000000E+00;  9.9972764E+03; -5.3423578E-01;  0.0000000E+00;  6.8552211E-02;  1.3595819E+03;
  4.9981815E-01;  9.9999998E-03;  1.0000966E-01;1824; -9.6905254E-02;  0.0000000E+00;  5.4663927E-03;  1.0011791E+03;  4.0000412E-01;  9.7685736E+02;3; -3.5803448E+01;  0.0000000E+00;  2.4973142E+00;0; -4.7061414E-01;  1.0026228E+04;  0.0000000E+00; -1.7564733E-07;  1.0000000E+04;  0.0000000E+00;  9.9971621E+03; -5.4259461E-01;  0.0000000E+00;  7.1980476E-02;  1.4143442E+03;
  4.9981382E-01;  9.9999998E-03;  1.2001195E-01;1825; -9.8598205E-02;  0.0000000E+00;  6.8919854E-03;  1.0012035E+03;  4.0000412E-01;  9.9710364E+02;3; -3.5643486E+01;  0.0000000E+00;  3.1030078E+00;0; -4.7656426E-01;  1.0026856E+04;  0.0000000E+00;  2.2143792E-07;  1.0000000E+04;  0.0000000E+00;  9.9970186E+03; -5.5191487E-01;  0.0000000E+00;  7.5350605E-02;  1.4828470E+03;
  4.9980888E-01;  9.9999998E-03;  1.4001445E-01;1826; -1.0042165E-01;  0.0000000E+00;  8.4498655E-03;  1.0012307E+03;  4.0000412E-01;  1.0196214E+03;3; -3.5434093E+01;  0.0000000E+00;  3.7084482E+00;0; -4.8332274E-01;  1.0027593E+04;  0.0000000E+00;  1.6230865E-06;  1.0000000E+04;  0.0000000E+00;  9.9968330E+03; -5.6181467E-01;  0.0000000E+00;  7.8491911E-02;  1.5740151E+03;
  5.1980209E-01;  9.9999998E-03; -1.4787895E-12;1850; -1.0370539E-01;  0.0000000E+00;  2.2895830E-10;  1.0012173E+03;  4.0001148E-01;  1.0084599E+03;3; -3.9311077E+01;  0.0000000E+00; -4.4234257E-06;0; -4.7437018E-01;  1.0027238E+04;  0.0000000E+00; -8.6782247E-16;  1.0000000E+04;  0.0000000E+00;  9.9965400E+03; -5.5338019E-01;  0.0000000E+00;  7.9010002E-02;  1.7181901E+03;
  5.1980162E-01;  9.9999998E-03;  2.0002710E-02;1851; -1.0392462E-01;  0.0000000E+00;  1.2774445E-03;  1.0012199E+03;  4.0001145E-01;  1.0106327E+03;3; -3.9299900E+01;  0.0000000E+00;  4.0600768E-01;0; -4.7516891E-01;  1.0027299E+04;  0.0000000E+00;  5.8755312E-09;  1.0000000E+04;  0.0000000E+00;  9.9965303E+03; -5.5454183E-01;  0.0000000E+00;  7.9372905E-02;  1.7227540E+03;
  5.1980025E-01;  9.9999998E-03;  4.0005416E-02;1852; -1.0457012E-01;  0.0000000E+00;  2.5751418E-03;  1.0012272E+03;  4.0001154E-01;  1.0166572E+03;3; -3.9263493E+01;  0.0000000E+00;  8.3042812E-01;0; -4.7752720E-01;  1.0027479E+04;  0.0000000E+00;  5.7604577E-08;  1.0000000E+04;  0.0000000E+00;  9.9965029E+03; -5.5795521E-01;  0.0000000E+00;  8.0428012E-02;  1.7363590E+03;
  5.1979792E-01;  9.9999998E-03;  6.0008135E-02;1853; -1.0561116E-01;  0.0000000E+00;  3.9255521E-03;  1.0012399E+03;  4.0001160E-01;  1.0272247E+03;3; -3.9196129E+01;  0.0000000E+00;  1.3064382E+00;0; -4.8135543E-01;  1.0027779E+04;  0.0000000E+00;  2.2396809E-07;  1.0000000E+04;  0.0000000E+00;  9.9964551E+03; -5.6341219E-01;  0.0000000E+00;  8.2056768E-02;  1.7583734E+03;
  5.1979476E-01;  9.9999998E-03;  8.0010898E-02;1854; -1.0700284E-01;  0.0000000E+00;  5.3610173E-03;  1.0012580E+03;  4.0001148E-01;  1.0422366E+03;3; -3.9086246E+01;  0.0000000E+00;  1.8401408E+00;0; -4.8657405E-01;  1.0028201E+04;  0.0000000E+00;  7.2158713E-07;  1.0000000E+04;  0.0000000E+00;  9.9963975E+03; -5.7059926E-01;  0.0000000E+00;  8.4025189E-02;  1.7870195E+03;
  5.1979059E-01;  9.9999998E-03;  1.0001374E-01;1855; -1.0869011E-01;  0.0000000E+00;  6.9103218E-03;  1.0012819E+03;  4.0001148E-01;  1.0619890E+03;3; -3.8920593E+01;  0.0000000E+00;  2.4362721E+00;0; -4.9315065E-01;  1.0028745E+04;  0.0000000E+00;  2.0268890E-06;  1.0000000E+04;  0.0000000E+00;  9.9963262E+03; -5.7914370E-01;  0.0000000E+00;  8.5993037E-02;  1.8198839E+03;
  5.1978558E-01;  9.9999998E-03;  1.2001672E-01;1856; -1.1060648E-01;  0.0000000E+00;  8.5828332E-03;  1.0013113E+03;  4.0001151E-01;  1.0863832E+03;3; -3.8688831E+01;  0.0000000E+00;  3.0815718E+00;0; -5.0102800E-01;  1.0029410E+04;  0.0000000E+00;  4.7897297E-06;  1.0000000E+04;  0.0000000E+00;  9.9962500E+03; -5.8866751E-01;  0.0000000E+00;  8.7639496E-02;  1.8573285E+03;
  5.1977980E-01;  9.9999998E-03;  1.4001982E-01;1857; -1.1266324E-01;  0.0000000E+00;  1.0363227E-02;  1.0013453E+03;  4.0001157E-01;  1.1146292E+03;3; -3.8379662E+01;  0.0000000E+00;  3.7754669E+00;0; -5.0989443E-01;  1.0030196E+04;  0.0000000E+00;  9.2971204E-06;  1.0000000E+04;  0.0000000E+00;  9.9961475E+03; -5.9884751E-01;  0.0000000E+00;  8.8953078E-02;  1.9108756E+03;
  5.3977275E-01;  9.9999998E-03;  2.2790361E-12;1881; -1.1585547E-01;  0.0000000E+00;  1.4344983E-09;  1.0013024E+03;  4.0003103E-01;  1.0789741E+03;3; -4.2649734E+01;  0.0000000E+00;  1.0852651E-05;0; -4.7619268E-01;  1.0029174E+04;  0.0000000E+00;  1.0568766E-16;  1.0000000E+04;  0.0000000E+00;  9.9953223E+03; -5.7905334E-01;  0.0000000E+00;  1.0286067E-01;  2.3000488E+03;
  5.3977221E-01;  9.9999998E-03;  2.0003872E-02;1882; -1.1610583E-01;  0.0000000E+00;  1.7057890E-03;  1.0013051E+03;  4.0003094E-01;  1.0812456E+03;3; -4.2636574E+01;  0.0000000E+00;  3.5063189E-01;0; -4.7725022E-01;  1.0029236E+04;  0.0000000E+00;  6.5781606E-08;  1.0000000E+04;  0.0000000E+00;  9.9953145E+03; -5.8019876E-01;  0.0000000E+00;  1.0294856E-01;  2.3037556E+03;
  5.3977066E-01;  9.9999998E-03;  4.0007729E-02;1883; -1.1684236E-01;  0.0000000E+00;  3.4287716E-03;  1.0013132E+03;  4.0003097E-01;  1.0879614E+03;3; -4.2593079E+01;  0.0000000E+00;  7.3574668E-01;0; -4.8036131E-01;  1.0029424E+04;  0.0000000E+00;  3.0774396E-07;  1.0000000E+04;  0.0000000E+00;  9.9952920E+03; -5.8355552E-01;  0.0000000E+00;  1.0319420E-01;  2.3142861E+03;
  5.3976810E-01;  9.9999998E-03;  6.0011577E-02;1884; -1.1802574E-01;  0.0000000E+00;  5.1900558E-03;  1.0013273E+03;  4.0003100E-01;  1.0996154E+03;3; -4.2507530E+01;  0.0000000E+00;  1.1836599E+00;0; -4.8538619E-01;  1.0029730E+04;  0.0000000E+00;  1.0315472E-06;  1.0000000E+04;  0.0000000E+00;  9.9952656E+03; -5.8890343E-01;  0.0000000E+00;  1.0351725E-01;  2.3294001E+03;
  5.3976440E-01;  9.9999998E-03;  8.0015436E-02;1885; -1.1960031E-01;  0.0000000E+00;  7.0169028E-03;  1.0013474E+03;  4.0003097E-01;  1.1162074E+03;3; -4.2363525E+01;  0.0000000E+00;  1.7153995E+00;0; -4.9218780E-01;  1.0030163E+04;  0.0000000E+00;  2.9808716E-06;  1.0000000E+04;  0.0000000E+00;  9.9952383E+03; -5.9591788E-01;  0.0000000E+00;  1.0373009E-01;  2.3445818E+03;
  5.3975970E-01;  9.9999998E-03;  1.0001936E-01;1886; -1.2150022E-01;  0.0000000E+00;  8.9340406E-03;  1.0013744E+03;  4.0003091E-01;  1.1386263E+03;3; -4.2143372E+01;  0.0000000E+00;  2.3361900E+00;0; -5.0068641E-01;  1.0030723E+04;  0.0000000E+00;  7.2718472E-06;  1.0000000E+04;  0.0000000E+00;  9.9952207E+03; -6.0423648E-01;  0.0000000E+00;  1.0355007E-01;  2.3542292E+03;
  5.3975397E-01;  9.9999998E-03;  1.2002335E-01;1887; -1.2364748E-01;  0.0000000E+00;  1.0940602E-02;  1.0014085E+03;  4.0003088E-01;  1.1668722E+03;3; -4.1835274E+01;  0.0000000E+00;  3.0308011E+00;0; -5.1075763E-01;  1.0031403E+04;  0.0000000E+00;  1.4674893E-05;  1.0000000E+04;  0.0000000E+00;  9.9952197E+03; -6.1352301E-01;  0.0000000E+00;  1.0276539E-01;  2.3570962E+03;
  5.3974730E-01;  9.9999998E-03;  1.4002736E-01;1888; -1.2594418E-01;  0.0000000E+00;  1.2995105E-02;  1.0014484E+03;  4.0003076E-01;  1.1999575E+03;3; -4.1433395E+01;  0.0000000E+00;  3.7614596E+00;0; -5.2192795E-01;  1.0032216E+04;  0.0000000E+00;  2.3752415E-05;  1.0000000E+04;  0.0000000E+00;  9.9952090E+03; -6.2354535E-01;  0.0000000E+00;  1.0161743E-01;  2.3684727E+03;
  5.5974060E-01;  9.9999998E-03; -4.5722571E-12;1912; -1.2881199E-01;  0.0000000E+00; -2.3132267E-09;  1.0014075E+03;  4.0008336E-01;  1.1660793E+03;3; -4.6019527E+01;  0.0000000E+00; -4.0763334E-06;0; -4.5449585E-01;  1.0030168E+04;  0.0000000E+00; -2.0795093E-15;  1.0000000E+04;  0.0000000E+00;  9.9938008E+03; -5.8784741E-01;  0.0000000E+00;  1.3335156E-01;  3.0196106E+03;
  5.5974001E-01;  9.9999998E-03;  2.0005373E-02;1913; -1.2909621E-01;  0.0000000E+00;  2.2993679E-03;  1.0014104E+03;  4.0008342E-01;  1.1684496E+03;3; -4.6007961E+01;  0.0000000E+00;  3.0007204E-01;0; -4.5587063E-01;  1.0030230E+04;  0.0000000E+00;  1.5284049E-07;  1.0000000E+04;  0.0000000E+00;  9.9937969E+03; -5.8889967E-01;  0.0000000E+00;  1.3302903E-01;  3.0233396E+03;
  5.5973828E-01;  9.9999998E-03;  4.0010735E-02;1914; -1.2993039E-01;  0.0000000E+00;  4.6049380E-03;  1.0014188E+03;  4.0008351E-01;  1.1754617E+03;3; -4.5967964E+01;  0.0000000E+00;  6.4915276E-01;0; -4.5989957E-01;  1.0030414E+04;  0.0000000E+00;  7.5370741E-07;  1.0000000E+04;  0.0000000E+00;  9.9937764E+03; -5.9197807E-01;  0.0000000E+00;  1.3207850E-01;  3.0332539E+03;
  5.5973536E-01;  9.9999998E-03;  6.0016092E-02;1915; -1.3126378E-01;  0.0000000E+00;  6.9243154E-03;  1.0014332E+03;  4.0008342E-01;  1.1873131E+03;3; -4.5868763E+01;  0.0000000E+00;  1.0574790E+00;0; -4.6635252E-01;  1.0030719E+04;  0.0000000E+00;  2.5377026E-06;  1.0000000E+04;  0.0000000E+00;  9.9937598E+03; -5.9686339E-01;  0.0000000E+00;  1.3051085E-01;  3.0449211E+03;
  5.5973125E-01;  9.9999998E-03;  8.0021456E-02;1916; -1.3302787E-01;  0.0000000E+00;  9.2733633E-03;  1.0014544E+03;  4.0008330E-01;  1.2048927E+03;3; -4.5697300E+01;  0.0000000E+00;  1.5599360E+00;0; -4.7498298E-01;  1.0031147E+04;  0.0000000E+00;  7.0878314E-06;  1.0000000E+04;  0.0000000E+00;  9.9937588E+03; -6.0324401E-01;  0.0000000E+00;  1.2826103E-01;  3.0502363E+03;
  5.5972594E-01;  9.9999998E-03;  1.0002684E-01;1917; -1.3514297E-01;  0.0000000E+00;  1.1667167E-02;  1.0014836E+03;  4.0008336E-01;  1.2291880E+03;3; -4.5428699E+01;  0.0000000E+00;  2.1753068E+00;0; -4.8559755E-01;  1.0031696E+04;  0.0000000E+00;  1.6098224E-05;  1.0000000E+04;  0.0000000E+00;  9.9937910E+03; -6.1079556E-01;  0.0000000E+00;  1.2519802E-01;  3.0399048E+03;
  5.5971944E-01;  9.9999998E-03;  1.2003223E-01;1918; -1.3751648E-01;  0.0000000E+00;  1.4095863E-02;  1.0015207E+03;  4.0008336E-01;  1.2598042E+03;3; -4.5041821E+01;  0.0000000E+00;  2.8958964E+00;0; -4.9792007E-01;  1.0032369E+04;  0.0000000E+00;  2.8919851E-05;  1.0000000E+04;  0.0000000E+00;  9.9938643E+03; -6.1925834E-01;  0.0000000E+00;  1.2133829E-01;  3.0120811E+03;
  5.5971187E-01;  9.9999998E-03;  1.4003755E-01;1919; -1.4003259E-01;  0.0000000E+00;  1.6486757E-02;  1.0015642E+03;  4.0008330E-01;  1.2959509E+03;3; -4.4531631E+01;  0.0000000E+00;  3.6687958E+00;0; -5.1120919E-01;  1.0033177E+04;  0.0000000E+00;  3.9751732E-05;  1.0000000E+04;  0.0000000E+00;  9.9939268E+03; -6.2851036E-01;  0.0000000E+00;  1.1730117E-01;  2.9885137E+03;
  5.7970691E-01;  9.9999998E-03; -2.5262282E-13;1943; -1.4214869E-01;  0.0000000E+00;  5.7224786E-10;  1.0016373E+03;  4.0022236E-01;  1.3564872E+03;3; -4.9312588E+01;  0.0000000E+00; -2.5078189E-06;0; -3.9977485E-01;  1.0029650E+04;  0.0000000E+00; -1.5829734E-15;  1.0000000E+04;  0.0000000E+00;  9.9919531E+03; -5.7122177E-01;  0.0000000E+00;  1.7144693E-01;  3.8854119E+03;
  5.7970625E-01;  9.9999998E-03;  2.0007202E-02;1944; -1.4246444E-01;  0.0000000E+00;  3.0696145E-03;  1.0016400E+03;  4.0022233E-01;  1.3586600E+03;3; -4.9300217E+01;  0.0000000E+00;  2.5442773E-01;0; -4.0155691E-01;  1.0029708E+04;  0.0000000E+00;  1.9466495E-07;  1.0000000E+04;  0.0000000E+00;  9.9919463E+03; -5.7210058E-01;  0.0000000E+00;  1.7054369E-01;  3.8904766E+03;
  5.7970428E-01;  9.9999998E-03;  4.0014386E-02;1945; -1.4338869E-01;  0.0000000E+00;  6.1118305E-03;  1.0016481E+03;  4.0022245E-01;  1.3653757E+03;3; -4.9251820E+01;  0.0000000E+00;  5.4209012E-01;0; -4.0674493E-01;  1.0029886E+04;  0.0000000E+00;  1.0946383E-06;  1.0000000E+04;  0.0000000E+00;  9.9919268E+03; -5.7466316E-01;  0.0000000E+00;  1.6791824E-01;  3.9035706E+03;
  5.7970107E-01;  9.9999998E-03;  6.0021572E-02;1946; -1.4486322E-01;  0.0000000E+00;  9.1201626E-03;  1.0016617E+03;  4.0022236E-01;  1.3766345E+03;3; -4.9158524E+01;  0.0000000E+00;  9.1593635E-01;0; -4.1494364E-01;  1.0030175E+04;  0.0000000E+00;  4.1079820E-06;  1.0000000E+04;  0.0000000E+00;  9.9919111E+03; -5.7870245E-01;  0.0000000E+00;  1.6375883E-01;  3.9176443E+03;
  5.7969654E-01;  9.9999998E-03;  8.0028810E-02;1947; -1.4680758E-01;  0.0000000E+00;  1.2121202E-02;  1.0016823E+03;  4.0022230E-01;  1.3937202E+03;3; -4.8966640E+01;  0.0000000E+00;  1.3790702E+00;0; -4.2569357E-01;  1.0030581E+04;  0.0000000E+00;  1.1838008E-05;  1.0000000E+04;  0.0000000E+00;  9.9919209E+03; -5.8394313E-01;  0.0000000E+00;  1.5824957E-01;  3.9205515E+03;
  5.7969064E-01;  9.9999998E-03;  1.0003608E-01;1948; -1.4911668E-01;  0.0000000E+00;  1.5104469E-02;  1.0017113E+03;  4.0022233E-01;  1.4177192E+03;3; -4.8656609E+01;  0.0000000E+00;  1.9670559E+00;0; -4.3855312E-01;  1.0031093E+04;  0.0000000E+00;  2.5518650E-05;  1.0000000E+04;  0.0000000E+00;  9.9919854E+03; -5.9012234E-01;  0.0000000E+00;  1.5156922E-01;  3.8998074E+03;
  5.7968342E-01;  9.9999998E-03;  1.2004334E-01;1949; -1.5168397E-01;  0.0000000E+00;  1.8051425E-02;  1.0017484E+03;  4.0022230E-01;  1.4485328E+03;3; -4.8197605E+01;  0.0000000E+00;  2.6778517E+00;0; -4.5293093E-01;  1.0031723E+04;  0.0000000E+00;  3.9685496E-05;  1.0000000E+04;  0.0000000E+00;  9.9921006E+03; -5.9707111E-01;  0.0000000E+00;  1.4414018E-01;  3.8556001E+03;
  5.7967502E-01;  9.9999998E-03;  1.4005041E-01;1950; -1.5438181E-01;  0.0000000E+00;  2.0872168E-02;  1.0017906E+03;  4.0022227E-01;  1.4834944E+03;3; -4.7568840E+01;  0.0000000E+00;  3.4440107E+00;0; -4.6770376E-01;  1.0032478E+04;  0.0000000E+00;  4.1253366E-05;  1.0000000E+04;  0.0000000E+00;  9.9921963E+03; -6.0477775E-01;  0.0000000E+00;  1.3707401E-01;  3.8192832E+03;
  5.9967399E-01;  9.9999998E-03;  7.3423195E-12;1974; -1.5504041E-01;  0.0000000E+00;  1.9826611E-09;  1.0022687E+03;  4.0057555E-01;  1.8795190E+03;3; -5.2337013E+01;  0.0000000E+00;  4.7786980E-06;0; -2.9753363E-01;  1.0026835E+04;  0.0000000E+00; -4.3817044E-15;  1.0000000E+04;  0.0000000E+00;  9.9897539E+03; -5.1583588E-01;  0.0000000E+00;  2.1830225E-01;  4.9046816E+03;
  5.9967327E-01;  9.9999998E-03;  2.0009389E-02;1975; -1.5538380E-01;  0.0000000E+00;  4.0558656E-03;  1.0022708E+03;  4.0057555E-01;  1.8812968E+03;3; -5.2313267E+01;  0.0000000E+00;  2.2547245E-01;0; -2.9985270E-01;  1.0026888E+04;  0.0000000E+00; -1.0132140E-07;  1.0000000E+04;  0.0000000E+00;  9.9897432E+03; -5.1647669E-01;  0.0000000E+00;  2.1662399E-01;  4.9129063E+03;
  5.9967107E-01;  9.9999998E-03;  4.0018737E-02;1976; -1.5638284E-01;  0.0000000E+00;  8.0226529E-03;  1.0022772E+03;  4.0057543E-01;  1.8866298E+03;3; -5.2259460E+01;  0.0000000E+00;  4.6418691E-01;0; -3.0654883E-01;  1.0027046E+04;  0.0000000E+00;  1.8491964E-07;  1.0000000E+04;  0.0000000E+00;  9.9897119E+03; -5.1833153E-01;  0.0000000E+00;  2.1178271E-01;  4.9345752E+03;
  5.9966749E-01;  9.9999998E-03;  6.0028080E-02;1977; -1.5797363E-01;  0.0000000E+00;  1.1884343E-02;  1.0022887E+03;  4.0057561E-01;  1.8961108E+03;3; -5.2169022E+01;  0.0000000E+00;  7.7618241E-01;0; -3.1695354E-01;  1.0027307E+04;  0.0000000E+00;  3.2471005E-06;  1.0000000E+04;  0.0000000E+00;  9.9896797E+03; -5.2121657E-01;  0.0000000E+00;  2.0426303E-01;  4.9598193E+03;
  5.9966254E-01;  9.9999998E-03;  8.0037534E-02;1978; -1.6006100E-01;  0.0000000E+00;  1.5671074E-02;  1.0023065E+03;  4.0057546E-01;  1.9108263E+03;3; -5.1974232E+01;  0.0000000E+00;  1.2135082E+00;0; -3.3022830E-01;  1.0027663E+04;  0.0000000E+00;  1.2525745E-05;  1.0000000E+04;  0.0000000E+00;  9.9896846E+03; -5.2489483E-01;  0.0000000E+00;  1.9466653E-01;  4.9724883E+03;
  5.9965616E-01;  9.9999998E-03;  1.0004712E-01;1979; -1.6252033E-01;  0.0000000E+00;  1.9354576E-02;  1.0023320E+03;  4.0057531E-01;  1.9319611E+03;3; -5.1621048E+01;  0.0000000E+00;  1.7347934E+00;0; -3.4547547E-01;  1.0028109E+04;  0.0000000E+00;  2.6602567E-05;  1.0000000E+04;  0.0000000E+00;  9.9897471E+03; -5.2916330E-01;  0.0000000E+00;  1.8368784E-01;  4.9583574E+03;
  5.9964830E-01;  9.9999998E-03;  1.2005669E-01;1980; -1.6523656E-01;  0.0000000E+00;  2.2898328E-02;  1.0023640E+03;  4.0057519E-01;  1.9585277E+03;3; -5.1088139E+01;  0.0000000E+00;  2.3977590E+00;0; -3.6158782E-01;  1.0028650E+04;  0.0000000E+00;  3.0947111E-05;  1.0000000E+04;  0.0000000E+00;  9.9898506E+03; -5.3392589E-01;  0.0000000E+00;  1.7233805E-01;  4.9227178E+03;
  5.9963912E-01;  9.9999998E-03;  1.4006592E-01;1981; -1.6807704E-01;  0.0000000E+00;  2.6193166E-02;  1.0023989E+03;  4.0057522E-01;  1.9873660E+03;3; -5.0343323E+01;  0.0000000E+00;  3.1388791E+00;0; -3.7700719E-01;  1.0029289E+04;  0.0000000E+00;  5.0619669E-06;  1.0000000E+04;  0.0000000E+00;  9.9899131E+03; -5.3924328E-01;  0.0000000E+00;  1.6223608E-01;  4.9077070E+03;
  6.1964387E-01;  9.9999998E-03; -2.6256629E-12;2005; -1.6674013E-01;  0.0000000E+00;  9.5530295E-10;  1.0038547E+03;  4.0138450E-01;  3.1934148E+03;3; -5.4959553E+01;  0.0000000E+00; -3.7657737E-06;0; -1.2658137E-01;  1.0020725E+04;  0.0000000E+00; -8.8759846E-15;  1.0000000E+04;  0.0000000E+00;  9.9871826E+03; -4.0179428E-01;  0.0000000E+00;  2.7521291E-01;  6.0816826E+03;
  6.1964309E-01;  9.9999998E-03;  2.0011907E-02;2006; -1.6709955E-01;  0.0000000E+00;  5.2562905E-03;  1.0038558E+03;  4.0138456E-01;  3.1944023E+03;3; -5.4933945E+01;  0.0000000E+00;  2.4212030E-01;0; -1.2959218E-01;  1.0020768E+04;  0.0000000E+00; -1.2492234E-06;  1.0000000E+04;  0.0000000E+00;  9.9871611E+03; -4.0215459E-01;  0.0000000E+00;  2.7256241E-01;  6.0954502E+03;
  6.1964071E-01;  9.9999998E-03;  4.0023755E-02;2007; -1.6814741E-01;  0.0000000E+00;  1.0357702E-02;  1.0038594E+03;  4.0138456E-01;  3.1973652E+03;3; -5.4853409E+01;  0.0000000E+00;  4.7079620E-01;0; -1.3821197E-01;  1.0020895E+04;  0.0000000E+00; -4.0510213E-06;  1.0000000E+04;  0.0000000E+00;  9.9871094E+03; -4.0317571E-01;  0.0000000E+00;  2.6496375E-01;  6.1328105E+03;
  6.1963677E-01;  9.9999998E-03;  6.0035616E-02;2008; -1.6982949E-01;  0.0000000E+00;  1.5275314E-02;  1.0038665E+03;  4.0138450E-01;  3.2032908E+03;3; -5.4737225E+01;  0.0000000E+00;  7.8253049E-01;0; -1.5136576E-01;  1.0021102E+04;  0.0000000E+00; -4.9305909E-06;  1.0000000E+04;  0.0000000E+00;  9.9870420E+03; -4.0469474E-01;  0.0000000E+00;  2.5332898E-01;  6.1809697E+03;
  6.1963135E-01;  9.9999998E-03;  8.0047645E-02;2009; -1.7200993E-01;  0.0000000E+00;  1.9959657E-02;  1.0038781E+03;  4.0138441E-01;  3.2128706E+03;3; -5.4465382E+01;  0.0000000E+00;  1.0867289E+00;0; -1.6764300E-01;  1.0021378E+04;  0.0000000E+00;  2.3235390E-07;  1.0000000E+04;  0.0000000E+00;  9.9870068E+03; -4.0650353E-01;  0.0000000E+00;  2.3886053E-01;  6.2200366E+03;
  6.1962444E-01;  9.9999998E-03;  1.0005982E-01;2010; -1.7454536E-01;  0.0000000E+00;  2.4329832E-02;  1.0038956E+03;  4.0138438E-01;  3.2272896E+03;3; -5.4062325E+01;  0.0000000E+00;  1.4710228E+00;0; -1.8546441E-01;  1.0021716E+04;  0.0000000E+00;  5.1673833E-06;  1.0000000E+04;  0.0000000E+00;  9.9870205E+03; -4.0842602E-01;  0.0000000E+00;  2.2296160E-01;  6.2354302E+03;
  6.1961609E-01;  9.9999998E-03;  1.2007205E-01;2011; -1.7731637E-01;  0.0000000E+00;  2.8425649E-02;  1.0039172E+03;  4.0138417E-01;  3.2452639E+03;3; -5.3476086E+01;  0.0000000E+00;  2.0026951E+00;0; -2.0306717E-01;  1.0022116E+04;  0.0000000E+00; -1.5336916E-05;  1.0000000E+04;  0.0000000E+00;  9.9870576E+03; -4.1038230E-01;  0.0000000E+00;  2.0731513E-01;  6.2388472E+03;
  6.1960620E-01;  9.9999998E-03;  1.4008386E-01;2012; -1.8023051E-01;  0.0000000E+00;  3.2209475E-02;  1.0039368E+03;  4.0138423E-01;  3.2615593E+03;3; -5.2652042E+01;  0.0000000E+00;  2.6531963E+00;0; -2.1847291E-01;  1.0022563E+04;  0.0000000E+00; -8.5946594E-05;  1.0000000E+04;  0.0000000E+00;  9.9870088E+03; -4.1240489E-01;  0.0000000E+00;  1.9393198E-01;  6.2810293E+03;
  6.3961810E-01;  9.9999998E-03;  1.6512061E-11;2036; -1.7676452E-01;  0.0000000E+00;  1.2538906E-08;  1.0068983E+03;  4.0286967E-01;  5.7149170E+03;3; -5.7016697E+01;  0.0000000E+00;  3.1312811E-06;0;  1.3576883E-01;  1.0010422E+04;  0.0000000E+00; -5.4742473E-15;  1.0000000E+04;  0.0000000E+00;  9.9842393E+03; -2.0737901E-01;  0.0000000E+00;  3.4314784E-01;  7.4112896E+03;
  6.3961726E-01;  9.9999998E-03;  2.0014523E-02;2037; -1.7711711E-01;  0.0000000E+00;  6.4707138E-03;  1.0068979E+03;  4.0286952E-01;  5.7146206E+03;3; -5.7022121E+01;  0.0000000E+00;  2.0426284E-01;0;  1.3191596E-01;  1.0010449E+04;  0.0000000E+00; -3.7872528E-06;  1.0000000E+04;  0.0000000E+00;  9.9842070E+03; -2.0743260E-01;  0.0000000E+00;  3.3934855E-01;  7.4333574E+03;
  6.3961470E-01;  9.9999998E-03;  4.0028956E-02;2038; -1.7815676E-01;  0.0000000E+00;  1.2742014E-02;  1.0068970E+03;  4.0286952E-01;  5.7139292E+03;3; -5.6895519E+01;  0.0000000E+00;  4.1401383E-01;0;  1.2097232E-01;  1.0010526E+04;  0.0000000E+00; -1.3868566E-05;  1.0000000E+04;  0.0000000E+00;  9.9841133E+03; -2.0753597E-01;  0.0000000E+00;  3.2850829E-01;  7.4945972E+03;
  6.3961047E-01;  9.9999998E-03;  6.0043365E-02;2039; -1.7986432E-01;  0.0000000E+00;  1.8707952E-02;  1.0068965E+03;  4.0286937E-01;  5.7134355E+03;3; -5.6762360E+01;  0.0000000E+00;  7.0903879E-01;0;  1.0455880E-01;  1.0010649E+04;  0.0000000E+00; -2.5370520E-05;  1.0000000E+04;  0.0000000E+00;  9.9839873E+03; -2.0753312E-01;  0.0000000E+00;  3.1209192E-01;  7.5791099E+03;
  6.3960463E-01;  9.9999998E-03;  8.0058083E-02;2040; -1.8209951E-01;  0.0000000E+00;  2.4376132E-02;  1.0068987E+03;  4.0286937E-01;  5.7153120E+03;3; -5.6451427E+01;  0.0000000E+00;  9.8608577E-01;0;  8.4839746E-02;  1.0010807E+04;  0.0000000E+00; -3.3665365E-05;  1.0000000E+04;  0.0000000E+00;  9.9838740E+03; -2.0721935E-01;  0.0000000E+00;  2.9205909E-01;  7.6631636E+03;
  6.3959712E-01;  9.9999998E-03;  1.0007321E-01;2041; -1.8470682E-01;  0.0000000E+00;  2.9587552E-02;  1.0069031E+03;  4.0286922E-01;  5.7189663E+03;3; -5.5959389E+01;  0.0000000E+00;  1.2037458E+00;0;  6.4205140E-02;  1.0010983E+04;  0.0000000E+00; -4.8795300E-05;  1.0000000E+04;  0.0000000E+00;  9.9837930E+03; -2.0640320E-01;  0.0000000E+00;  2.7060834E-01;  7.7315063E+03;
  6.3958818E-01;  9.9999998E-03;  1.2008863E-01;2042; -1.8750717E-01;  0.0000000E+00;  3.4358989E-02;  1.0069077E+03;  4.0286902E-01;  5.7227188E+03;3; -5.5302010E+01;  0.0000000E+00;  1.5050781E+00;0;  4.5064673E-02;  1.0011169E+04;  0.0000000E+00; -1.0257536E-04;  1.0000000E+04;  0.0000000E+00;  9.9837129E+03; -2.0494656E-01;  0.0000000E+00;  2.5001124E-01;  7.8001367E+03;
  6.3957781E-01;  9.9999998E-03;  1.4010359E-01;2043; -1.9039829E-01;  0.0000000E+00;  3.8600020E-02;  1.0069056E+03;  4.0286878E-01;  5.7210400E+03;3; -5.4396564E+01;  0.0000000E+00;  1.9440432E+00;0;  2.9749408E-02;  1.0011343E+04;  0.0000000E+00; -2.1587872E-04;  1.0000000E+04;  0.0000000E+00;  9.9835137E+03; -2.0272341E-01;  0.0000000E+00;  2.3247282E-01;  7.9231606E+03;
  6.5959835E-01;  9.9999998E-03; -3.1841641E-12;2067; -1.8460710E-01;  0.0000000E+00; -1.8516646E-09;  1.0106649E+03;  4.0474120E-01;  8.8353242E+03;3; -5.8682281E+01;  0.0000000E+00; -1.0883668E-05;0;  5.0143772E-01;  9.9956885E+03;  0.0000000E+00;  8.6085932E-15;  1.0000000E+04;  0.0000000E+00;  9.9809756E+03;  7.9655886E-02;  0.0000000E+00;  4.2178184E-01;  8.8675703E+03;
  6.5959746E-01;  9.9999998E-03;  2.0017680E-02;2068; -1.8493013E-01;  0.0000000E+00;  7.9563214E-03;  1.0106624E+03;  4.0474114E-01;  8.8332500E+03;3; -5.8675949E+01;  0.0000000E+00;  9.6605673E-02;0;  4.9664050E-01;  9.9956904E+03;  0.0000000E+00; -7.4833501E-06;  1.0000000E+04;  0.0000000E+00;  9.9809219E+03;  7.9939827E-02;  0.0000000E+00;  4.1670069E-01;  8.9005518E+03;
  6.5959483E-01;  9.9999998E-03;  4.0035237E-02;2069; -1.8590653E-01;  0.0000000E+00;  1.5638100E-02;  1.0106553E+03;  4.0474117E-01;  8.8273242E+03;3; -5.8524811E+01;  0.0000000E+00;  2.7860883E-01;0;  4.8310679E-01;  9.9956982E+03;  0.0000000E+00; -2.8266199E-05;  1.0000000E+04;  0.0000000E+00;  9.9807773E+03;  8.0851652E-02;  0.0000000E+00;  4.0225515E-01;  8.9933750E+03;
  6.5959036E-01;  9.9999998E-03;  6.0052745E-02;2070; -1.8756627E-01;  0.0000000E+00;  2.2785863E-02;  1.0106448E+03;  4.0474111E-01;  8.8186338E+03;3; -5.8298378E+01;  0.0000000E+00;  3.8440779E-01;0;  4.6309978E-01;  9.9957002E+03;  0.0000000E+00; -5.6505211E-05;  1.0000000E+04;  0.0000000E+00;  9.9805674E+03;  8.2552761E-02;  0.0000000E+00;  3.8054702E-01;  9.1265439E+03;
  6.5958416E-01;  9.9999998E-03;  8.0070555E-02;2071; -1.8976806E-01;  0.0000000E+00;  2.9347114E-02;  1.0106325E+03;  4.0474105E-01;  8.8084619E+03;3; -5.7950405E+01;  0.0000000E+00;  4.9029630E-01;0;  4.3962616E-01;  9.9956855E+03;  0.0000000E+00; -8.5696454E-05;  1.0000000E+04;  0.0000000E+00;  9.9803496E+03;  8.5261643E-02;  0.0000000E+00;  3.5436451E-01;  9.2713174E+03;
  6.5957636E-01;  9.9999998E-03;  1.0008906E-01;2072; -1.9229254E-01;  0.0000000E+00;  3.5373479E-02;  1.0106196E+03;  4.0474090E-01;  8.7976973E+03;3; -5.7348705E+01;  0.0000000E+00;  4.8871347E-01;0;  4.1585740E-01;  9.9956396E+03;  0.0000000E+00; -1.2413214E-04;  1.0000000E+04;  0.0000000E+00;  9.9801465E+03;  8.9212216E-02;  0.0000000E+00;  3.2664520E-01;  9.4088789E+03;
  6.5956718E-01;  9.9999998E-03;  1.2010816E-01;2073; -1.9499947E-01;  0.0000000E+00;  4.0914353E-02;  1.0106031E+03;  4.0474081E-01;  8.7840684E+03;3; -5.6638424E+01;  0.0000000E+00;  6.2205762E-01;0;  3.9467722E-01;  9.9955420E+03;  0.0000000E+00; -2.0025832E-04;  1.0000000E+04;  0.0000000E+00;  9.9799248E+03;  9.4648108E-02;  0.0000000E+00;  3.0002910E-01;  9.5540439E+03;
  6.5955669E-01;  9.9999998E-03;  1.4012694E-01;2074; -1.9784348E-01;  0.0000000E+00;  4.5778539E-02;  1.0105761E+03;  4.0474078E-01;  8.7617490E+03;3; -5.5685219E+01;  0.0000000E+00;  7.8907365E-01;0;  3.7859878E-01;  9.9953623E+03;  0.0000000E+00; -3.2237559E-04;  1.0000000E+04;  0.0000000E+00;  9.9795723E+03;  1.0191696E-01;  0.0000000E+00;  2.7668181E-01;  9.7572041E+03;
  6.7958945E-01;  9.9999998E-03; -4.1919016E-12;2098; -1.8872799E-01;  0.0000000E+00;  3.5227214E-09;  1.0133123E+03;  4.0623924E-01;  1.1028388E+04;3; -5.9866875E+01;  0.0000000E+00;  5.9444574E-07;0;  9.5613873E-01;  9.9775498E+03;  0.0000000E+00;  1.5044494E-14;  1.0000000E+04;  0.0000000E+00;  9.9775234E+03;  4.4793123E-01;  0.0000000E+00;  5.0820750E-01;  1.0391580E+04;
  6.7958856E-01;  9.9999998E-03;  2.0022200E-02;2099; -1.8905456E-01;  0.0000000E+00;  1.0629469E-02;  1.0133069E+03;  4.0623909E-01;  1.1023845E+04;3; -5.9797134E+01;  0.0000000E+00;  6.6512191E-01;0;  9.5040643E-01;  9.9775225E+03;  0.0000000E+00; -1.0570893E-05;  1.0000000E+04;  0.0000000E+00;  9.9774502E+03;  4.4861972E-01;  0.0000000E+00;  5.0178671E-01;  1.0437134E+04;
  6.7958581E-01;  9.9999998E-03;  4.0044148E-02;2100; -1.8998794E-01;  0.0000000E+00;  2.0642027E-02;  1.0132921E+03;  4.0623918E-01;  1.1011599E+04;3; -5.9520874E+01;  0.0000000E+00;  1.0918229E+00;0;  9.3431592E-01;  9.9774375E+03;  0.0000000E+00; -4.0771243E-05;  1.0000000E+04;  0.0000000E+00;  9.9772402E+03;  4.5073941E-01;  0.0000000E+00;  4.8357651E-01;  1.0566403E+04;
  6.7958128E-01;  9.9999998E-03;  6.0065869E-02;2101; -1.9147904E-01;  0.0000000E+00;  2.9594107E-02;  1.0132690E+03;  4.0623933E-01;  1.0992439E+04;3; -5.9081318E+01;  0.0000000E+00;  1.0747056E+00;0;  9.1076446E-01;  9.9772813E+03;  0.0000000E+00; -8.4174826E-05;  1.0000000E+04;  0.0000000E+00;  9.9769355E+03;  4.5443434E-01;  0.0000000E+00;  4.5633009E-01;  1.0755618E+04;
  6.7957509E-01;  9.9999998E-03;  8.0087990E-02;2102; -1.9346312E-01;  0.0000000E+00;  3.7567664E-02;  1.0132400E+03;  4.0623933E-01;  1.0968442E+04;3; -5.8567287E+01;  0.0000000E+00;  7.9932749E-01;0;  8.8350272E-01;  9.9770488E+03;  0.0000000E+00; -1.3152866E-04;  1.0000000E+04;  0.0000000E+00;  9.9765938E+03;  4.5990321E-01;  0.0000000E+00;  4.2359951E-01;  1.0968762E+04;
  6.7956740E-01;  9.9999998E-03;  1.0011101E-01;2103; -1.9574532E-01;  0.0000000E+00;  4.4604044E-02;  1.0132071E+03;  4.0623942E-01;  1.0941185E+04;3; -5.7904694E+01;  0.0000000E+00;  3.1487495E-01;0;  8.5625577E-01;  9.9767256E+03;  0.0000000E+00; -1.8307510E-04;  1.0000000E+04;  0.0000000E+00;  9.9762627E+03;  4.6738738E-01;  0.0000000E+00;  3.8886836E-01;  1.1178485E+04;
  6.7955846E-01;  9.9999998E-03;  1.2013479E-01;2104; -1.9823386E-01;  0.0000000E+00;  5.0922155E-02;  1.0131674E+03;  4.0623948E-01;  1.0908299E+04;3; -5.7185394E+01;  0.0000000E+00;  2.4383940E-02;0;  8.3206642E-01;  9.9762871E+03;  0.0000000E+00; -2.5213120E-04;  1.0000000E+04;  0.0000000E+00;  9.9759258E+03;  4.7719845E-01;  0.0000000E+00;  3.5486796E-01;  1.1390849E+04;
  6.7954826E-01;  9.9999998E-03;  1.4015819E-01;2105; -2.0082258E-01;  0.0000000E+00;  5.6457639E-02;  1.0131156E+03;  4.0623966E-01;  1.0865438E+04;3; -5.6189617E+01;  0.0000000E+00; -1.0055120E-01;0;  8.1335771E-01;  9.9756924E+03;  0.0000000E+00; -3.3220949E-04;  1.0000000E+04;  0.0000000E+00;  9.9754873E+03;  4.8982885E-01;  0.0000000E+00;  3.2352886E-01;  1.1645386E+04;
  6.9959992E-01;  9.9999998E-03;  2.0803163E-11;2129; -1.8738319E-01;  0.0000000E+00; -1.3209740E-09;  1.0142297E+03;  4.0706110E-01;  1.1788183E+04;3; -6.0588829E+01;  0.0000000E+00;  2.3080676E-05;0;  1.4484076E+00;  9.9586406E+03;  0.0000000E+00;  7.3800592E-15;  1.0000000E+04;  0.0000000E+00;  9.9741104E+03;  8.5208452E-01;  0.0000000E+00;  5.9632313E-01;  1.1890970E+04;
  6.9959903E-01;  9.9999998E-03;  2.0026699E-02;2130; -1.8765095E-01;  0.0000000E+00;  1.3593631E-02;  1.0142216E+03;  4.0706107E-01;  1.1781468E+04;3; -6.0351498E+01;  0.0000000E+00;  1.5355905E+00;0;  1.4419017E+00;  9.9585742E+03;  0.0000000E+00; -1.0819354E-05;  1.0000000E+04;  0.0000000E+00;  9.9740127E+03;  8.5330719E-01;  0.0000000E+00;  5.8859450E-01;  1.1948899E+04;
  6.9959641E-01;  9.9999998E-03;  4.0053125E-02;2131; -1.8845434E-01;  0.0000000E+00;  2.6394006E-02;  1.0141977E+03;  4.0706131E-01;  1.1761617E+04;3; -5.9877777E+01;  0.0000000E+00;  2.7119761E+00;0;  1.4236950E+00;  9.9583721E+03;  0.0000000E+00; -4.2219013E-05;  1.0000000E+04;  0.0000000E+00;  9.9737412E+03;  8.5699743E-01;  0.0000000E+00;  5.6669754E-01;  1.2113949E+04;
  6.9959205E-01;  9.9999998E-03;  6.0079601E-02;2132; -1.8982868E-01;  0.0000000E+00;  3.7995826E-02;  1.0141605E+03;  4.0706143E-01;  1.1730808E+04;3; -5.9281033E+01;  0.0000000E+00;  3.3040426E+00;0;  1.3971727E+00;  9.9580332E+03;  0.0000000E+00; -8.8616580E-05;  1.0000000E+04;  0.0000000E+00;  9.9733389E+03;  8.6320686E-01;  0.0000000E+00;  5.3396589E-01;  1.2357476E+04;
  6.9958609E-01;  9.9999998E-03;  8.0106996E-02;2133; -1.9156873E-01;  0.0000000E+00;  4.8320439E-02;  1.0141134E+03;  4.0706164E-01;  1.1691800E+04;3; -5.8431034E+01;  0.0000000E+00;  3.1267960E+00;0;  1.3665651E+00;  9.9575488E+03;  0.0000000E+00; -1.3898489E-04;  1.0000000E+04;  0.0000000E+00;  9.9728896E+03;  8.7200421E-01;  0.0000000E+00;  4.9456093E-01;  1.2633983E+04;
  6.9957882E-01;  9.9999998E-03;  1.0013602E-01;2134; -1.9341937E-01;  0.0000000E+00;  5.7434309E-02;  1.0140596E+03;  4.0706179E-01;  1.1647162E+04;3; -5.7359127E+01;  0.0000000E+00;  2.2534885E+00;0;  1.3357493E+00;  9.9569063E+03;  0.0000000E+00; -1.8415287E-04;  1.0000000E+04;  0.0000000E+00;  9.9724590E+03;  8.8349020E-01;  0.0000000E+00;  4.5225906E-01;  1.2902672E+04;
  6.9957089E-01;  9.9999998E-03;  1.2016657E-01;2135; -1.9507450E-01;  0.0000000E+00;  6.5597206E-02;  1.0139985E+03;  4.0706217E-01;  1.1596600E+04;3; -5.6280861E+01;  0.0000000E+00;  1.3428850E+00;0;  1.3074929E+00;  9.9560928E+03;  0.0000000E+00; -2.2110621E-04;  1.0000000E+04;  0.0000000E+00;  9.9720625E+03;  8.9787024E-01;  0.0000000E+00;  4.0962258E-01;  1.3153955E+04;
  6.9956231E-01;  9.9999998E-03;  1.4019720E-01;2136; -1.9655082E-01;  0.0000000E+00;  7.2927110E-02;  1.0139263E+03;  4.0706250E-01;  1.1536754E+04;3; -5.5025673E+01;  0.0000000E+00;  7.8815037E-01;0;  1.2837903E+00;  9.9550732E+03;  0.0000000E+00; -2.3402717E-04;  1.0000000E+04;  0.0000000E+00;  9.9716416E+03;  9.1553909E-01;  0.0000000E+00;  3.6825120E-01;  1.3411371E+04;
  7.1968138E-01;  9.9999998E-03; -1.0141790E-11;2160; -1.5832426E-01;  0.0000000E+00; -4.1233528E-09;  1.0141637E+03;  4.0742180E-01;  1.1733153E+04;3; -5.6467789E+01;  0.0000000E+00;  5.2350515E-06;0;  1.8941140E+00;  9.9427539E+03;  0.0000000E+00;  1.3867285E-14;  1.0000000E+04;  0.0000000E+00;  9.9709912E+03;  1.2159622E+00;  0.0000000E+00;  6.7815185E-01;  1.3260296E+04;
  7.1968043E-01;  9.9999998E-03;  2.0030968E-02;2161; -1.5878537E-01;  0.0000000E+00;  1.6526509E-02;  1.0141526E+03;  4.0742180E-01;  1.1723970E+04;3; -5.6464142E+01;  0.0000000E+00;  2.7233787E+00;0;  1.8870769E+00;  9.9426484E+03;  0.0000000E+00; -7.6125293E-06;  1.0000000E+04;  0.0000000E+00;  9.9708789E+03;  1.2178899E+00;  0.0000000E+00;  6.6918689E-01;  1.3327930E+04;
  7.1967763E-01;  9.9999998E-03;  4.0061712E-02;2162; -1.6010433E-01;  0.0000000E+00;  3.2233696E-02;  1.0141203E+03;  4.0742189E-01;  1.1697208E+04;3; -5.6422501E+01;  0.0000000E+00;  5.0574870E+00;0;  1.8674130E+00;  9.9423252E+03;  0.0000000E+00; -3.0107554E-05;  1.0000000E+04;  0.0000000E+00;  9.9705615E+03;  1.2236301E+00;  0.0000000E+00;  6.4378291E-01;  1.3520793E+04;
  7.1967310E-01;  9.9999998E-03;  6.0092688E-02;2163; -1.6213450E-01;  0.0000000E+00;  4.6695054E-02;  1.0140696E+03;  4.0742213E-01;  1.1655238E+04;3; -5.6290829E+01;  0.0000000E+00;  6.7405515E+00;0;  1.8388133E+00;  9.9417871E+03;  0.0000000E+00; -6.3788226E-05;  1.0000000E+04;  0.0000000E+00;  9.9700898E+03;  1.2330526E+00;  0.0000000E+00;  6.0576063E-01;  1.3805281E+04;
  7.1966696E-01;  9.9999998E-03;  8.0125093E-02;2164; -1.6468431E-01;  0.0000000E+00;  6.0005836E-02;  1.0140052E+03;  4.0742260E-01;  1.1601912E+04;3; -5.5989670E+01;  0.0000000E+00;  7.7174373E+00;0;  1.8056898E+00;  9.9410371E+03;  0.0000000E+00; -9.8741410E-05;  1.0000000E+04;  0.0000000E+00;  9.9695693E+03;  1.2459447E+00;  0.0000000E+00;  5.5974507E-01;  1.4125605E+04;
  7.1965927E-01;  9.9999998E-03;  1.0016008E-01;2165; -1.6746688E-01;  0.0000000E+00;  7.2515041E-02;  1.0139325E+03;  4.0742278E-01;  1.1541574E+04;3; -5.5258953E+01;  0.0000000E+00;  8.0484600E+00;0;  1.7716843E+00;  9.9400635E+03;  0.0000000E+00; -1.2248736E-04;  1.0000000E+04;  0.0000000E+00;  9.9690957E+03;  1.2620541E+00;  0.0000000E+00;  5.0963020E-01;  1.4425222E+04;
  7.1965015E-01;  9.9999998E-03;  1.2019776E-01;2166; -1.7019549E-01;  0.0000000E+00;  8.4486119E-02;  1.0138536E+03;  4.0742326E-01;  1.1476300E+04;3; -5.4044369E+01;  0.0000000E+00;  8.0338278E+00;0;  1.7388600E+00;  9.9388760E+03;  0.0000000E+00; -1.2478317E-04;  1.0000000E+04;  0.0000000E+00;  9.9687188E+03;  1.2811650E+00;  0.0000000E+00;  4.5769504E-01;  1.4676007E+04;
  7.1963996E-01;  9.9999998E-03;  1.4023633E-01;2167; -1.7257634E-01;  0.0000000E+00;  9.5574096E-02;  1.0137673E+03;  4.0742382E-01;  1.1404704E+04;3; -5.2211308E+01;  0.0000000E+00;  7.8837538E+00;0;  1.7084806E+00;  9.9374590E+03;  0.0000000E+00; -9.2316077E-05;  1.0000000E+04;  0.0000000E+00;  9.9684229E+03;  1.3031833E+00;  0.0000000E+00;  4.0529734E-01;  1.4885311E+04;
  7.3979914E-01;  9.9999998E-03;  4.1823614E-11;2191; -1.0294122E-01;  0.0000000E+00;  1.0698831E-08;  1.0138976E+03;  4.0756395E-01;  1.1512214E+04;3; -3.8806900E+01;  0.0000000E+00; -5.7259022E-06;0;  2.2073998E+00;  9.9331455E+03;  0.0000000E+00; -3.9243651E-15;  1.0000000E+04;  0.0000000E+00;  9.9684170E+03;  1.4615381E+00;  0.0000000E+00;  7.4586189E-01;  1.4401313E+04;
  7.3979843E-01;  9.9999998E-03;  2.0033628E-02;2192; -1.0327592E-01;  0.0000000E+00;  1.7978225E-02;  1.0138843E+03;  4.0756416E-01;  1.1501253E+04;3; -3.8788467E+01;  0.0000000E+00;  2.9448183E+00;0;  2.1999664E+00;  9.9330020E+03;  0.0000000E+00; -3.1609038E-06;  1.0000000E+04;  0.0000000E+00;  9.9682949E+03;  1.4642181E+00;  0.0000000E+00;  7.3574823E-01;  1.4474126E+04;
  7.3979634E-01;  9.9999998E-03;  4.0066916E-02;2193; -1.0423177E-01;  0.0000000E+00;  3.4999479E-02;  1.0138454E+03;  4.0756422E-01;  1.1469062E+04;3; -3.8712479E+01;  0.0000000E+00;  5.4371953E+00;0;  2.1791964E+00;  9.9325732E+03;  0.0000000E+00; -1.2766954E-05;  1.0000000E+04;  0.0000000E+00;  9.9679580E+03;  1.4721308E+00;  0.0000000E+00;  7.0706570E-01;  1.4681481E+04;
  7.3979300E-01;  9.9999998E-03;  6.0100269E-02;2194; -1.0567846E-01;  0.0000000E+00;  5.0532140E-02;  1.0137845E+03;  4.0756446E-01;  1.1418601E+04;3; -3.8522713E+01;  0.0000000E+00;  7.1560159E+00;0;  2.1489480E+00;  9.9318613E+03;  0.0000000E+00; -2.7043056E-05;  1.0000000E+04;  0.0000000E+00;  9.9674609E+03;  1.4849086E+00;  0.0000000E+00;  6.6403943E-01;  1.4985563E+04;
  7.3978853E-01;  9.9999998E-03;  8.0134884E-02;2195; -1.0743985E-01;  0.0000000E+00;  6.4612262E-02;  1.0137075E+03;  4.0756491E-01;  1.1354710E+04;3; -3.8141983E+01;  0.0000000E+00;  8.0035534E+00;0;  2.1136653E+00;  9.9308701E+03;  0.0000000E+00; -3.9689839E-05;  1.0000000E+04;  0.0000000E+00;  9.9669229E+03;  1.5019896E+00;  0.0000000E+00;  6.1167574E-01;  1.5321378E+04;
  7.3978299E-01;  9.9999998E-03;  1.0017197E-01;2196; -1.0933521E-01;  0.0000000E+00;  7.7626459E-02;  1.0136216E+03;  4.0756536E-01;  1.1283613E+04;3; -3.7495579E+01;  0.0000000E+00;  8.1384058E+00;0;  2.0766463E+00;  9.9296191E+03;  0.0000000E+00; -4.1419684E-05;  1.0000000E+04;  0.0000000E+00;  9.9664736E+03;  1.5226635E+00;  0.0000000E+00;  5.5398297E-01;  1.5618047E+04;
  7.3977649E-01;  9.9999998E-03;  1.2021164E-01;2197; -1.1120655E-01;  0.0000000E+00;  8.9926444E-02;  1.0135314E+03;  4.0756580E-01;  1.1208860E+04;3; -3.6535805E+01;  0.0000000E+00;  7.9290810E+00;0;  2.0392280E+00;  9.9281113E+03;  0.0000000E+00; -2.4686038E-05;  1.0000000E+04;  0.0000000E+00;  9.9661992E+03;  1.5461241E+00;  0.0000000E+00;  4.9310377E-01;  1.5831462E+04;
  7.3976922E-01;  9.9999998E-03;  1.4025205E-01;2198; -1.1291984E-01;  0.0000000E+00;  1.0131799E-01;  1.0134388E+03;  4.0756628E-01;  1.1132231E+04;3; -3.5261482E+01;  0.0000000E+00;  7.7660751E+00;0;  2.0019121E+00;  9.9263779E+03;  0.0000000E+00;  1.4047424E-05;  1.0000000E+04;  0.0000000E+00;  9.9660908E+03;  1.5714486E+00;  0.0000000E+00;  4.3046346E-01;  1.5958238E+04;
  7.5988901E-01;  9.9999998E-03;  9.3766307E-11;2222; -6.0405266E-02;  0.0000000E+00;  3.4529165E-08;  1.0137953E+03;  4.0761754E-01;  1.1427018E+04;3; -2.4940441E+01;  0.0000000E+00;  3.5849807E-06;0;  2.3564382E+00;  9.9304268E+03;  0.0000000E+00; -3.8346236E-15;  1.0000000E+04;  0.0000000E+00;  9.9665332E+03;  1.5617924E+00;  0.0000000E+00;  7.9464567E-01;  1.5247702E+04;
  7.5988853E-01;  9.9999998E-03;  2.0035475E-02;2223; -6.0602237E-02;  0.0000000E+00;  1.8937442E-02;  1.0137809E+03;  4.0761781E-01;  1.1414971E+04;3; -2.4899490E+01;  0.0000000E+00;  3.0182357E+00;0;  2.3485355E+00;  9.9302598E+03;  0.0000000E+00; -1.4689006E-07;  1.0000000E+04;  0.0000000E+00;  9.9664180E+03;  1.5650208E+00;  0.0000000E+00;  7.8351474E-01;  1.5320964E+04;
  7.5988722E-01;  9.9999998E-03;  4.0070496E-02;2224; -6.1155465E-02;  0.0000000E+00;  3.6796015E-02;  1.0137386E+03;  4.0761799E-01;  1.1380016E+04;3; -2.4763172E+01;  0.0000000E+00;  5.5300322E+00;0;  2.3264298E+00;  9.9297578E+03;  0.0000000E+00; -8.8280188E-07;  1.0000000E+04;  0.0000000E+00;  9.9660850E+03;  1.5745057E+00;  0.0000000E+00;  7.5192410E-01;  1.5529139E+04;
  7.5988513E-01;  9.9999998E-03;  6.0105387E-02;2225; -6.1963685E-02;  0.0000000E+00;  5.2951351E-02;  1.0136727E+03;  4.0761811E-01;  1.1325410E+04;3; -2.4494860E+01;  0.0000000E+00;  7.1705441E+00;0;  2.2941227E+00;  9.9289307E+03;  0.0000000E+00; -1.8614871E-06;  1.0000000E+04;  0.0000000E+00;  9.9656016E+03;  1.5896770E+00;  0.0000000E+00;  7.0444578E-01;  1.5831760E+04;
  7.5988239E-01;  9.9999998E-03;  8.0141343E-02;2226; -6.2892683E-02;  0.0000000E+00;  6.7392260E-02;  1.0135895E+03;  4.0761855E-01;  1.1256488E+04;3; -2.4047209E+01;  0.0000000E+00;  7.8185506E+00;0;  2.2561171E+00;  9.9277881E+03;  0.0000000E+00; -3.8516100E-07;  1.0000000E+04;  0.0000000E+00;  9.9650986E+03;  1.6096704E+00;  0.0000000E+00;  6.4644676E-01;  1.6157389E+04;
  7.5987911E-01;  9.9999998E-03;  1.0017958E-01;2227; -6.3810214E-02;  0.0000000E+00;  8.0495998E-02;  1.0134982E+03;  4.0761900E-01;  1.1180851E+04;3; -2.3380085E+01;  0.0000000E+00;  7.6347337E+00;0;  2.2155299E+00;  9.9263506E+03;  0.0000000E+00;  7.5931407E-06;  1.0000000E+04;  0.0000000E+00;  9.9647246E+03;  1.6333770E+00;  0.0000000E+00;  5.8215290E-01;  1.6425059E+04;
  7.5987536E-01;  9.9999998E-03;  1.2022016E-01;2228; -6.4606048E-02;  0.0000000E+00;  9.2613384E-02;  1.0134052E+03;  4.0761957E-01;  1.1103830E+04;3; -2.2476900E+01;  0.0000000E+00;  7.0125680E+00;0;  2.1732664E+00;  9.9246484E+03;  0.0000000E+00;  2.4279268E-05;  1.0000000E+04;  0.0000000E+00;  9.9645811E+03;  1.6594334E+00;  0.0000000E+00;  5.1383293E-01;  1.6580426E+04;
  7.5987130E-01;  9.9999998E-03;  1.4026107E-01;2229; -6.5187357E-02;  0.0000000E+00;  1.0353892E-01;  1.0133142E+03;  4.0762013E-01;  1.1028489E+04;3; -2.1355024E+01;  0.0000000E+00;  6.3902388E+00;0;  2.1294236E+00;  9.9227461E+03;  0.0000000E+00;  4.7170826E-05;  1.0000000E+04;  0.0000000E+00;  9.9646777E+03;  1.6860968E+00;  0.0000000E+00;  4.4332695E-01;  1.6616965E+04;
  7.7995491E-01;  9.9999998E-03; -9.8685617E-12;2253; -2.8492985E-02;  0.0000000E+00; -6.7749761E-09;  1.0139009E+03;  4.0763712E-01;  1.1513731E+04;3; -1.4006634E+01;  0.0000000E+00; -5.6702993E-06;0;  2.3720379E+00;  9.9327129E+03;  0.0000000E+00; -1.4976513E-14;  1.0000000E+04;  0.0000000E+00;  9.9653818E+03;  1.5484712E+00;  0.0000000E+00;  8.2356673E-01;  1.5773315E+04;
  7.7995467E-01;  9.9999998E-03;  2.0036526E-02;2254; -2.8568415E-02;  0.0000000E+00;  1.9433243E-02;  1.0138865E+03;  4.0763718E-01;  1.1501784E+04;3; -1.3957422E+01;  0.0000000E+00;  2.9829409E+00;0;  2.3635654E+00;  9.9325361E+03;  0.0000000E+00;  6.5247576E-07;  1.0000000E+04;  0.0000000E+00;  9.9652744E+03;  1.5519378E+00;  0.0000000E+00;  8.1162751E-01;  1.5843547E+04;
  7.7995408E-01;  9.9999998E-03;  4.0072493E-02;2255; -2.8770138E-02;  0.0000000E+00;  3.7699908E-02;  1.0138443E+03;  4.0763742E-01;  1.1466732E+04;3; -1.3803524E+01;  0.0000000E+00;  5.4275742E+00;0;  2.3398309E+00;  9.9320049E+03;  0.0000000E+00;  2.3882085E-06;  1.0000000E+04;  0.0000000E+00;  9.9649648E+03;  1.5620979E+00;  0.0000000E+00;  7.7773303E-01;  1.6042729E+04;
  7.7995312E-01;  9.9999998E-03;  6.0108166E-02;2256; -2.9033229E-02;  0.0000000E+00;  5.4110505E-02;  1.0137778E+03;  4.0763763E-01;  1.1411736E+04;3; -1.3529051E+01;  0.0000000E+00;  6.9447222E+00;0;  2.3050289E+00;  9.9311348E+03;  0.0000000E+00;  5.0235972E-06;  1.0000000E+04;  0.0000000E+00;  9.9645215E+03;  1.5782723E+00;  0.0000000E+00;  7.2675645E-01;  1.6329689E+04;
  7.7995193E-01;  9.9999998E-03;  8.0144726E-02;2257; -2.9274518E-02;  0.0000000E+00;  6.8624757E-02;  1.0136950E+03;  4.0763795E-01;  1.1343113E+04;3; -1.3116462E+01;  0.0000000E+00;  7.4031286E+00;0;  2.2638543E+00;  9.9299355E+03;  0.0000000E+00;  9.0168378E-06;  1.0000000E+04;  0.0000000E+00;  9.9640791E+03;  1.5994285E+00;  0.0000000E+00;  6.6442567E-01;  1.6630152E+04;
  7.7995068E-01;  9.9999998E-03;  1.0018340E-01;2258; -2.9419014E-02;  0.0000000E+00;  8.1620991E-02;  1.0136050E+03;  4.0763849E-01;  1.1268567E+04;3; -1.2558637E+01;  0.0000000E+00;  6.9700875E+00;0;  2.2195277E+00;  9.9284326E+03;  0.0000000E+00;  1.5170945E-05;  1.0000000E+04;  0.0000000E+00;  9.9637979E+03;  1.6242335E+00;  0.0000000E+00;  5.9529436E-01;  1.6858375E+04;
  7.7994931E-01;  9.9999998E-03;  1.2022422E-01;2259; -2.9415464E-02;  0.0000000E+00;  9.3455836E-02;  1.0135156E+03;  4.0763894E-01;  1.1194515E+04;3; -1.1867334E+01;  0.0000000E+00;  6.0573134E+00;0;  2.1729283E+00;  9.9266699E+03;  0.0000000E+00;  2.3224376E-05;  1.0000000E+04;  0.0000000E+00;  9.9637832E+03;  1.6509745E+00;  0.0000000E+00;  5.2195370E-01;  1.6956004E+04;
  7.7994794E-01;  9.9999998E-03;  1.4026506E-01;2260; -2.9230354E-02;  0.0000000E+00;  1.0391504E-01;  1.0134310E+03;  4.0763953E-01;  1.1124510E+04;3; -1.1076622E+01;  0.0000000E+00;  5.1326361E+00;0;  2.1241837E+00;  9.9247363E+03;  0.0000000E+00;  3.0321602E-05;  1.0000000E+04;  0.0000000E+00;  9.9640361E+03;  1.6773499E+00;  0.0000000E+00;  4.4683385E-01;  1.6919291E+04;
  8.0000824E-01;  9.9999998E-03; -1.0488167E-10;2284; -1.6774201E-03;  0.0000000E+00; -3.6285503E-08;  1.0141313E+03;  4.0764269E-01;  1.1703429E+04;3; -4.1966081E+00;  0.0000000E+00; -1.6460981E-06;0;  2.3076022E+00;  9.9374023E+03;  0.0000000E+00;  4.1760914E-15;  1.0000000E+04;  0.0000000E+00;  9.9649150E+03;  1.4732438E+00;  0.0000000E+00;  8.3435833E-01;  1.5985357E+04;
  8.0000824E-01;  9.9999998E-03;  2.0036850E-02;2285; -1.6525267E-03;  0.0000000E+00;  1.9527907E-02;  1.0141174E+03;  4.0764272E-01;  1.1691878E+04;3; -4.1522713E+00;  0.0000000E+00;  2.8795104E+00;0;  2.2985668E+00;  9.9372305E+03;  0.0000000E+00;  2.5180489E-07;  1.0000000E+04;  0.0000000E+00;  9.9648193E+03;  1.4766730E+00;  0.0000000E+00;  8.2189387E-01;  1.6050944E+04;
  8.0000824E-01;  9.9999998E-03;  4.0073067E-02;2286; -1.5671342E-03;  0.0000000E+00;  3.7840527E-02;  1.0140770E+03;  4.0764305E-01;  1.1658409E+04;3; -4.0192981E+00;  0.0000000E+00;  5.2110009E+00;0;  2.2732472E+00;  9.9367090E+03;  0.0000000E+00;  9.3949762E-07;  1.0000000E+04;  0.0000000E+00;  9.9645400E+03;  1.4867231E+00;  0.0000000E+00;  7.8652406E-01;  1.6236810E+04;
  8.0000830E-01;  9.9999998E-03;  6.0108870E-02;2287; -1.3925529E-03;  0.0000000E+00;  5.4214392E-02;  1.0140138E+03;  4.0764335E-01;  1.1606083E+04;3; -3.7988839E+00;  0.0000000E+00;  6.5998292E+00;0;  2.2360811E+00;  9.9358496E+03;  0.0000000E+00;  1.9316358E-06;  1.0000000E+04;  0.0000000E+00;  9.9641455E+03;  1.5027139E+00;  0.0000000E+00;  7.3336709E-01;  1.6502850E+04;
  8.0000854E-01;  9.9999998E-03;  8.0145434E-02;2288; -1.0954590E-03;  0.0000000E+00;  6.8599597E-02;  1.0139353E+03;  4.0764371E-01;  1.1541120E+04;3; -3.4976921E+00;  0.0000000E+00;  6.9171400E+00;0;  2.1920958E+00;  9.9346729E+03;  0.0000000E+00;  3.1560469E-06;  1.0000000E+04;  0.0000000E+00;  9.9637676E+03;  1.5236191E+00;  0.0000000E+00;  6.6847670E-01;  1.6775305E+04;
  8.0000895E-01;  9.9999998E-03;  1.0018399E-01;2289; -6.5356173E-04;  0.0000000E+00;  8.1387691E-02;  1.0138505E+03;  4.0764406E-01;  1.1470924E+04;3; -3.1322179E+00;  0.0000000E+00;  6.3408766E+00;0;  2.1448715E+00;  9.9331973E+03;  0.0000000E+00;  4.5385473E-06;  1.0000000E+04;  0.0000000E+00;  9.9635615E+03;  1.5481013E+00;  0.0000000E+00;  5.9677011E-01;  1.6968400E+04;
  8.0000961E-01;  9.9999998E-03;  1.2022458E-01;2290; -6.7845642E-05;  0.0000000E+00;  9.2952840E-02;  1.0137676E+03;  4.0764454E-01;  1.1402209E+04;3; -2.7324696E+00;  0.0000000E+00;  5.2960682E+00;0;  2.0956161E+00;  9.9314727E+03;  0.0000000E+00;  5.7748425E-06;  1.0000000E+04;  0.0000000E+00;  9.9636357E+03;  1.5743929E+00;  0.0000000E+00;  5.2122313E-01;  1.7024535E+04;
  8.0001050E-01;  9.9999998E-03;  1.4026505E-01;2291;  6.4155651E-04;  0.0000000E+00;  1.0308456E-01;  1.0136904E+03;  4.0764514E-01;  1.1338332E+04;3; -2.3392005E+00;  0.0000000E+00;  4.2637353E+00;0;  2.0448072E+00;  9.9295957E+03;  0.0000000E+00;  6.0497937E-06;  1.0000000E+04;  0.0000000E+00;  9.9639785E+03;  1.6000071E+00;  0.0000000E+00;  4.4480023E-01;  1.6945436E+04;
  8.2005960E-01;  9.9999998E-03;  2.2416588E-11;2315;  2.4777567E-02;  0.0000000E+00;  6.2026762E-09;  1.0143839E+03;  4.0763286E-01;  1.1911075E+04;3;  5.8168006E+00;  0.0000000E+00;  3.3971446E-06;0;  2.2043192E+00;  9.9426777E+03;  0.0000000E+00; -1.5627560E-15;  1.0000000E+04;  0.0000000E+00;  9.9650566E+03;  1.3743314E+00;  0.0000000E+00;  8.2998782E-01;  1.5912768E+04;
  8.2005978E-01;  9.9999998E-03;  2.0036552E-02;2316;  2.4882570E-02;  0.0000000E+00;  1.9299429E-02;  1.0143710E+03;  4.0763304E-01;  1.1900414E+04;3;  5.8472142E+00;  0.0000000E+00;  2.7490315E+00;0;  2.1948822E+00;  9.9425117E+03;  0.0000000E+00; -2.0489594E-07;  1.0000000E+04;  0.0000000E+00;  9.9649668E+03;  1.3775525E+00;  0.0000000E+00;  8.1732959E-01;  1.5973764E+04;
  8.2006031E-01;  9.9999998E-03;  4.0072430E-02;2317;  2.5196882E-02;  0.0000000E+00;  3.7372235E-02;  1.0143336E+03;  4.0763322E-01;  1.1869516E+04;3;  5.9341679E+00;  0.0000000E+00;  4.9585152E+00;0;  2.1684542E+00;  9.9420234E+03;  0.0000000E+00; -7.5616487E-07;  1.0000000E+04;  0.0000000E+00;  9.9647158E+03;  1.3870127E+00;  0.0000000E+00;  7.8144133E-01;  1.6146765E+04;
  8.2006127E-01;  9.9999998E-03;  6.0107823E-02;2318;  2.5717696E-02;  0.0000000E+00;  5.3489421E-02;  1.0142750E+03;  4.0763351E-01;  1.1820947E+04;3;  6.0649881E+00;  0.0000000E+00;  6.2431931E+00;0;  2.1297426E+00;  9.9412119E+03;  0.0000000E+00; -1.5161148E-06;  1.0000000E+04;  0.0000000E+00;  9.9643594E+03;  1.4021360E+00;  0.0000000E+00;  7.2760653E-01;  1.6393924E+04;
  8.2006264E-01;  9.9999998E-03;  8.0143891E-02;2319;  2.6438376E-02;  0.0000000E+00;  6.7607500E-02;  1.0142020E+03;  4.0763384E-01;  1.1760533E+04;3;  6.2189684E+00;  0.0000000E+00;  6.4853835E+00;0;  2.0841701E+00;  9.9400996E+03;  0.0000000E+00; -2.3279576E-06;  1.0000000E+04;  0.0000000E+00;  9.9640273E+03;  1.4220532E+00;  0.0000000E+00;  6.6211683E-01;  1.6644357E+04;
  8.2006449E-01;  9.9999998E-03;  1.0018190E-01;2320;  2.7342133E-02;  0.0000000E+00;  8.0139078E-02;  1.0141235E+03;  4.0763420E-01;  1.1695578E+04;3;  6.3680577E+00;  0.0000000E+00;  5.8752484E+00;0;  2.0358033E+00;  9.9386992E+03;  0.0000000E+00; -3.1198269E-06;  1.0000000E+04;  0.0000000E+00;  9.9638672E+03;  1.4456184E+00;  0.0000000E+00;  5.9018499E-01;  1.6815314E+04;
  8.2006687E-01;  9.9999998E-03;  1.2022193E-01;2321;  2.8395113E-02;  0.0000000E+00;  9.1484234E-02;  1.0140469E+03;  4.0763474E-01;  1.1632104E+04;3;  6.4782648E+00;  0.0000000E+00;  4.8460531E+00;0;  1.9863496E+00;  9.9370625E+03;  0.0000000E+00; -3.9035167E-06;  1.0000000E+04;  0.0000000E+00;  9.9639785E+03;  1.4712621E+00;  0.0000000E+00;  5.1508754E-01;  1.6852436E+04;
  8.2006979E-01;  9.9999998E-03;  1.4026184E-01;2322;  2.9547276E-02;  0.0000000E+00;  1.0144818E-01;  1.0139752E+03;  4.0763530E-01;  1.1572775E+04;3;  6.5167689E+00;  0.0000000E+00;  3.8780382E+00;0;  1.9367685E+00;  9.9352744E+03;  0.0000000E+00; -4.4143621E-06;  1.0000000E+04;  0.0000000E+00;  9.9643418E+03;  1.4966590E+00;  0.0000000E+00;  4.4010952E-01;  1.6762711E+04;
  8.4011358E-01;  9.9999998E-03;  9.7480669E-11;2346;  5.2673575E-02;  0.0000000E+00;  3.4439910E-08;  1.0143833E+03;  4.0750894E-01;  1.1908710E+04;3;  1.6340092E+01;  0.0000000E+00;  3.4835830E-06;0;  2.0760827E+00;  9.9480605E+03;  0.0000000E+00;  1.6643721E-14;  1.0000000E+04;  0.0000000E+00;  9.9657051E+03;  1.2626500E+00;  0.0000000E+00;  8.1343281E-01;  1.5593848E+04;
  8.4011388E-01;  9.9999998E-03;  2.0035734E-02;2347;  5.2843727E-02;  0.0000000E+00;  1.8820735E-02;  1.0143715E+03;  4.0750909E-01;  1.1898938E+04;3;  1.6353012E+01;  0.0000000E+00;  2.6220658E+00;0;  2.0665195E+00;  9.9479102E+03;  0.0000000E+00; -3.1253313E-07;  1.0000000E+04;  0.0000000E+00;  9.9656270E+03;  1.2656037E+00;  0.0000000E+00;  8.0091584E-01;  1.5651289E+04;
  8.4011489E-01;  9.9999998E-03;  4.0070787E-02;2348;  5.3344402E-02;  0.0000000E+00;  3.6434401E-02;  1.0143370E+03;  4.0750930E-01;  1.1870414E+04;3;  1.6385216E+01;  0.0000000E+00;  4.7251043E+00;0;  2.0397902E+00;  9.9474619E+03;  0.0000000E+00; -1.1322795E-06;  1.0000000E+04;  0.0000000E+00;  9.9653916E+03;  1.2743156E+00;  0.0000000E+00;  7.6547450E-01;  1.5814618E+04;
  8.4011662E-01;  9.9999998E-03;  6.0105328E-02;2349;  5.4149695E-02;  0.0000000E+00;  5.2128714E-02;  1.0142828E+03;  4.0750954E-01;  1.1825506E+04;3;  1.6418631E+01;  0.0000000E+00;  5.9424381E+00;0;  2.0008202E+00;  9.9467158E+03;  0.0000000E+00; -2.0814953E-06;  1.0000000E+04;  0.0000000E+00;  9.9650576E+03;  1.2883729E+00;  0.0000000E+00;  7.1244723E-01;  1.6048741E+04;
  8.4011906E-01;  9.9999998E-03;  8.0140509E-02;2350;  5.5225167E-02;  0.0000000E+00;  6.5876603E-02;  1.0142150E+03;  4.0750998E-01;  1.1769346E+04;3;  1.6428148E+01;  0.0000000E+00;  6.1715732E+00;0;  1.9553770E+00;  9.9456836E+03;  0.0000000E+00; -2.7602400E-06;  1.0000000E+04;  0.0000000E+00;  9.9647480E+03;  1.3071519E+00;  0.0000000E+00;  6.4822507E-01;  1.6286780E+04;
  8.4012222E-01;  9.9999998E-03;  1.0017761E-01;2351;  5.6532405E-02;  0.0000000E+00;  7.8112245E-02;  1.0141418E+03;  4.0751031E-01;  1.1708744E+04;3;  1.6385822E+01;  0.0000000E+00;  5.6131902E+00;0;  1.9079783E+00;  9.9443779E+03;  0.0000000E+00; -3.0275710E-06;  1.0000000E+04;  0.0000000E+00;  9.9645967E+03;  1.3298228E+00;  0.0000000E+00;  5.7815552E-01;  1.6450246E+04;
  8.4012616E-01;  9.9999998E-03;  1.2021676E-01;2352;  5.8027651E-02;  0.0000000E+00;  8.9261867E-02;  1.0140696E+03;  4.0751082E-01;  1.1649030E+04;3;  1.6268011E+01;  0.0000000E+00;  4.7026544E+00;0;  1.8608220E+00;  9.9428369E+03;  0.0000000E+00; -3.1396437E-06;  1.0000000E+04;  0.0000000E+00;  9.9647012E+03;  1.3551785E+00;  0.0000000E+00;  5.0564355E-01;  1.6488301E+04;
  8.4013087E-01;  9.9999998E-03;  1.4025591E-01;2353;  5.9658561E-02;  0.0000000E+00;  9.9152051E-02;  1.0140006E+03;  4.0751120E-01;  1.1591883E+04;3;  1.6061178E+01;  0.0000000E+00;  3.9089410E+00;0;  1.8153249E+00;  9.9411318E+03;  0.0000000E+00; -2.6533637E-06;  1.0000000E+04;  0.0000000E+00;  9.9650254E+03;  1.3812993E+00;  0.0000000E+00;  4.3402568E-01;  1.6411268E+04;
  8.6016893E-01;  9.9999998E-03;  5.2657670E-11;2377;  8.1116818E-02;  0.0000000E+00;  2.5604750E-08;  1.0141405E+03;  4.0726575E-01;  1.1705042E+04;3;  2.6902687E+01;  0.0000000E+00;  4.0106795E-05;0;  1.9145372E+00;  9.9541270E+03;  0.0000000E+00; -5.3820675E-16;  1.0000000E+04;  0.0000000E+00;  9.9667861E+03;  1.1274643E+00;  0.0000000E+00;  7.8707296E-01;  1.5068160E+04;
  8.6016941E-01;  9.9999998E-03;  2.0034477E-02;2378;  8.1342563E-02;  0.0000000E+00;  1.8141259E-02;  1.0141295E+03;  4.0726572E-01;  1.1695964E+04;3;  2.6899273E+01;  0.0000000E+00;  2.5122538E+00;0;  1.9051623E+00;  9.9539893E+03;  0.0000000E+00; -2.6580233E-07;  1.0000000E+04;  0.0000000E+00;  9.9667080E+03;  1.1301619E+00;  0.0000000E+00;  7.7500039E-01;  1.5123229E+04;
  8.6017084E-01;  9.9999998E-03;  4.0068284E-02;2379;  8.2003489E-02;  0.0000000E+00;  3.5118256E-02;  1.0140977E+03;  4.0726584E-01;  1.1669617E+04;3;  2.6881796E+01;  0.0000000E+00;  4.5322018E+00;0;  1.8790305E+00;  9.9535811E+03;  0.0000000E+00; -9.0358191E-07;  1.0000000E+04;  0.0000000E+00;  9.9664814E+03;  1.1381642E+00;  0.0000000E+00;  7.4086636E-01;  1.5280430E+04;
  8.6017323E-01;  9.9999998E-03;  6.0101595E-02;2380;  8.3058245E-02;  0.0000000E+00;  5.0250586E-02;  1.0140470E+03;  4.0726614E-01;  1.1627679E+04;3;  2.6831907E+01;  0.0000000E+00;  5.7155070E+00;0;  1.8411700E+00;  9.9529004E+03;  0.0000000E+00; -1.4061579E-06;  1.0000000E+04;  0.0000000E+00;  9.9661553E+03;  1.1512243E+00;  0.0000000E+00;  6.8994570E-01;  1.5507538E+04;
  8.6017656E-01;  9.9999998E-03;  8.0135539E-02;2381;  8.4456176E-02;  0.0000000E+00;  6.3531250E-02;  1.0139835E+03;  4.0726641E-01;  1.1575083E+04;3;  2.6726316E+01;  0.0000000E+00;  5.9748001E+00;0;  1.7975416E+00;  9.9519541E+03;  0.0000000E+00; -1.2688940E-06;  1.0000000E+04;  0.0000000E+00;  9.9658428E+03;  1.1689847E+00;  0.0000000E+00;  6.2855697E-01;  1.5741821E+04;
  8.6018091E-01;  9.9999998E-03;  1.0017140E-01;2382;  8.6151473E-02;  0.0000000E+00;  7.5410545E-02;  1.0139141E+03;  4.0726680E-01;  1.1517652E+04;3;  2.6546000E+01;  0.0000000E+00;  5.5169420E+00;0;  1.7529480E+00;  9.9507422E+03;  0.0000000E+00; -6.1539083E-07;  1.0000000E+04;  0.0000000E+00;  9.9656738E+03;  1.1909643E+00;  0.0000000E+00;  5.6198364E-01;  1.5908842E+04;
  8.6018628E-01;  9.9999998E-03;  1.2020937E-01;2383;  8.8107325E-02;  0.0000000E+00;  8.6332411E-02;  1.0138446E+03;  4.0726718E-01;  1.1460123E+04;3;  2.6284817E+01;  0.0000000E+00;  4.7723751E+00;0;  1.7099594E+00;  9.9492920E+03;  0.0000000E+00; -8.0986339E-08;  1.0000000E+04;  0.0000000E+00;  9.9657373E+03;  1.2164031E+00;  0.0000000E+00;  4.9355629E-01;  1.5960381E+04;
  8.6019272E-01;  9.9999998E-03;  1.4024746E-01;2384;  9.0291262E-02;  0.0000000E+00;  9.6143961E-02;  1.0137755E+03;  4.0726757E-01;  1.1402888E+04;3;  2.5956135E+01;  0.0000000E+00;  4.1921005E+00;0;  1.6703513E+00;  9.9476563E+03;  0.0000000E+00;  8.5327895E-07;  1.0000000E+04;  0.0000000E+00;  9.9660049E+03;  1.2439231E+00;  0.0000000E+00;  4.2642817E-01;  1.5907667E+04;
  8.8022166E-01;  9.9999998E-03; -9.3641192E-11;2408;  1.0810872E-01;  0.0000000E+00; -2.6053685E-08;  1.0137245E+03;  4.0691650E-01;  1.1357232E+04;3;  3.6848103E+01;  0.0000000E+00;  2.7178030E-05;0;  1.7064193E+00;  9.9616348E+03;  0.0000000E+00;  3.4539767E-14;  1.0000000E+04;  0.0000000E+00;  9.9682197E+03;  9.5368880E-01;  0.0000000E+00;  7.5273055E-01;  1.4373182E+04;
  8.8022226E-01;  9.9999998E-03;  2.0032836E-02;2409;  1.0838439E-01;  0.0000000E+00;  1.7290406E-02;  1.0137142E+03;  4.0691650E-01;  1.1348749E+04;3;  3.6832886E+01;  0.0000000E+00;  2.4184349E+00;0;  1.6974900E+00;  9.9615098E+03;  0.0000000E+00; -3.5607101E-07;  1.0000000E+04;  0.0000000E+00;  9.9681406E+03;  9.5614803E-01;  0.0000000E+00;  7.4134201E-01;  1.4426647E+04;
  8.8022411E-01;  9.9999998E-03;  4.0065039E-02;2410;  1.0919058E-01;  0.0000000E+00;  3.3475175E-02;  1.0136844E+03;  4.0691668E-01;  1.1324087E+04;3;  3.6780518E+01;  0.0000000E+00;  4.3729277E+00;0;  1.6726789E+00;  9.9611455E+03;  0.0000000E+00; -1.2375434E-06;  1.0000000E+04;  0.0000000E+00;  9.9679160E+03;  9.6348345E-01;  0.0000000E+00;  7.0919555E-01;  1.4580004E+04;
  8.8022709E-01;  9.9999998E-03;  6.0096778E-02;2411;  1.1047620E-01;  0.0000000E+00;  4.7915664E-02;  1.0136373E+03;  4.0691689E-01;  1.1285120E+04;3;  3.6674416E+01;  0.0000000E+00;  5.5415564E+00;0;  1.6369855E+00;  9.9605332E+03;  0.0000000E+00; -1.9521294E-06;  1.0000000E+04;  0.0000000E+00;  9.9675889E+03;  9.7559398E-01;  0.0000000E+00;  6.6139156E-01;  1.4803847E+04;
  8.8023120E-01;  9.9999998E-03;  8.0129169E-02;2412;  1.1218167E-01;  0.0000000E+00;  6.0624521E-02;  1.0135776E+03;  4.0691718E-01;  1.1235695E+04;3;  3.6496227E+01;  0.0000000E+00;  5.8496742E+00;0;  1.5963528E+00;  9.9596787E+03;  0.0000000E+00; -1.9826300E-06;  1.0000000E+04;  0.0000000E+00;  9.9672588E+03;  9.9235010E-01;  0.0000000E+00;  6.0400265E-01;  1.5039288E+04;
  8.8023663E-01;  9.9999998E-03;  1.0016347E-01;2413;  1.1426156E-01;  0.0000000E+00;  7.2058901E-02;  1.0135119E+03;  4.0691745E-01;  1.1181340E+04;3;  3.6238747E+01;  0.0000000E+00;  5.5049667E+00;0;  1.5556520E+00;  9.9585674E+03;  0.0000000E+00; -1.7657638E-06;  1.0000000E+04;  0.0000000E+00;  9.9670566E+03;  1.0135956E+00;  0.0000000E+00;  5.4205644E-01;  1.5215148E+04;
  8.8024330E-01;  9.9999998E-03;  1.2019990E-01;2414;  1.1669328E-01;  0.0000000E+00;  8.2668029E-02;  1.0134446E+03;  4.0691781E-01;  1.1125603E+04;3;  3.5913921E+01;  0.0000000E+00;  4.9263906E+00;0;  1.5176519E+00;  9.9572158E+03;  0.0000000E+00; -2.3658702E-06;  1.0000000E+04;  0.0000000E+00;  9.9670723E+03;  1.0390193E+00;  0.0000000E+00;  4.7863254E-01;  1.5284541E+04;
  8.8025141E-01;  9.9999998E-03;  1.4023659E-01;2415;  1.1947240E-01;  0.0000000E+00;  9.2314295E-02;  1.0133755E+03;  4.0691829E-01;  1.1068485E+04;3;  3.5560802E+01;  0.0000000E+00;  4.5434399E+00;0;  1.4844177E+00;  9.9556416E+03;  0.0000000E+00; -3.3213737E-06;  1.0000000E+04;  0.0000000E+00;  9.9672734E+03;  1.0678713E+00;  0.0000000E+00;  4.1654629E-01;  1.5257691E+04;
  9.0026718E-01;  9.9999998E-03; -1.1634794E-10;2439;  1.3165186E-01;  0.0000000E+00; -1.9090283E-08;  1.0131843E+03;  4.0648073E-01;  1.0905821E+04;3;  4.5699516E+01;  0.0000000E+00;  3.1306932E-05;0;  1.4522312E+00;  9.9706982E+03;  0.0000000E+00;  1.8055082E-14;  1.0000000E+04;  0.0000000E+00;  9.9699336E+03;  7.4021727E-01;  0.0000000E+00;  7.1201396E-01;  1.3543549E+04;
  9.0026790E-01;  9.9999998E-03;  2.0030867E-02;2440;  1.3197714E-01;  0.0000000E+00;  1.6287126E-02;  1.0131754E+03;  4.0648073E-01;  1.0898426E+04;3;  4.5678982E+01;  0.0000000E+00;  2.3305364E+00;0;  1.4438922E+00;  9.9705967E+03;  0.0000000E+00; -6.6384553E-07;  1.0000000E+04;  0.0000000E+00;  9.9698555E+03;  7.4240750E-01;  0.0000000E+00;  7.0148474E-01;  1.3595665E+04;
  9.0027004E-01;  9.9999998E-03;  4.0061146E-02;2441;  1.3292955E-01;  0.0000000E+00;  3.1538039E-02;  1.0131481E+03;  4.0648070E-01;  1.0875943E+04;3;  4.5611313E+01;  0.0000000E+00;  4.2244573E+00;0;  1.4207894E+00;  9.9702822E+03;  0.0000000E+00; -2.3819396E-06;  1.0000000E+04;  0.0000000E+00;  9.9696240E+03;  7.4897599E-01;  0.0000000E+00;  6.7181337E-01;  1.3745851E+04;
  9.0027356E-01;  9.9999998E-03;  6.0091019E-02;2442;  1.3445012E-01;  0.0000000E+00;  4.5160908E-02;  1.0131046E+03;  4.0648100E-01;  1.0839852E+04;3;  4.5482056E+01;  0.0000000E+00;  5.3807259E+00;0;  1.3877563E+00;  9.9697559E+03;  0.0000000E+00; -4.3380860E-06;  1.0000000E+04;  0.0000000E+00;  9.9692910E+03;  7.5992727E-01;  0.0000000E+00;  6.2782907E-01;  1.3967390E+04;
  9.0027851E-01;  9.9999998E-03;  8.0121554E-02;2443;  1.3647191E-01;  0.0000000E+00;  5.7186533E-02;  1.0130496E+03;  4.0648106E-01;  1.0794392E+04;3;  4.5277840E+01;  0.0000000E+00;  5.7344112E+00;0;  1.3505192E+00;  9.9690078E+03;  0.0000000E+00; -5.8118908E-06;  1.0000000E+04;  0.0000000E+00;  9.9689414E+03;  7.7530682E-01;  0.0000000E+00;  5.7521230E-01;  1.4204855E+04;
  9.0028489E-01;  9.9999998E-03;  1.0015399E-01;2444;  1.3894704E-01;  0.0000000E+00;  6.8070151E-02;  1.0129886E+03;  4.0648133E-01;  1.0744002E+04;3;  4.4998772E+01;  0.0000000E+00;  5.4895740E+00;0;  1.3137975E+00;  9.9680283E+03;  0.0000000E+00; -7.4249156E-06;  1.0000000E+04;  0.0000000E+00;  9.9687090E+03;  7.9522079E-01;  0.0000000E+00;  5.1857668E-01;  1.4389653E+04;
  9.0029281E-01;  9.9999998E-03;  1.2018855E-01;2445;  1.4186099E-01;  0.0000000E+00;  7.8253798E-02;  1.0129252E+03;  4.0648174E-01;  1.0691540E+04;3;  4.4671173E+01;  0.0000000E+00;  5.0488691E+00;0;  1.2804084E+00;  9.9668037E+03;  0.0000000E+00; -1.0846764E-05;  1.0000000E+04;  0.0000000E+00;  9.9686709E+03;  8.1977850E-01;  0.0000000E+00;  4.6062988E-01;  1.4475226E+04;
  9.0030241E-01;  9.9999998E-03;  1.4022347E-01;2446;  1.4523120E-01;  0.0000000E+00;  8.7607771E-02;  1.0128586E+03;  4.0648207E-01;  1.0636415E+04;3;  4.4352062E+01;  0.0000000E+00;  4.8185029E+00;0;  1.2526550E+00;  9.9653301E+03;  0.0000000E+00; -1.6168357E-05;  1.0000000E+04;  0.0000000E+00;  9.9688174E+03;  8.4888911E-01;  0.0000000E+00;  4.0376595E-01;  1.4469606E+04;
  9.2028898E-01;  9.9999998E-03; -1.6119370E-11;2470;  1.4445816E-01;  0.0000000E+00; -6.0723697E-09;  1.0125301E+03;  4.0598056E-01;  1.0358984E+04;3;  5.1965427E+01;  0.0000000E+00;  1.1246564E-05;0;  1.1747338E+00;  9.9804717E+03;  0.0000000E+00; -2.8417313E-14;  1.0000000E+04;  0.0000000E+00;  9.9718467E+03;  5.0811416E-01;  0.0000000E+00;  6.6661960E-01;  1.2611407E+04;
  9.2028987E-01;  9.9999998E-03;  2.0028772E-02;2471;  1.4485350E-01;  0.0000000E+00;  1.5161975E-02;  1.0125219E+03;  4.0598050E-01;  1.0352185E+04;3;  5.1940430E+01;  0.0000000E+00;  2.2226944E+00;0;  1.1670363E+00;  9.9803896E+03;  0.0000000E+00; -9.7230418E-07;  1.0000000E+04;  0.0000000E+00;  9.9717676E+03;  5.0996512E-01;  0.0000000E+00;  6.5707123E-01;  1.2662095E+04;
  9.2029262E-01;  9.9999998E-03;  4.0056970E-02;2472;  1.4602932E-01;  0.0000000E+00;  2.9362194E-02;  1.0124979E+03;  4.0598065E-01;  1.0332374E+04;3;  5.1897778E+01;  0.0000000E+00;  4.0379615E+00;0;  1.1457443E+00;  9.9801426E+03;  0.0000000E+00; -3.5604305E-06;  1.0000000E+04;  0.0000000E+00;  9.9715371E+03;  5.1553684E-01;  0.0000000E+00;  6.3020754E-01;  1.2808744E+04;
  9.2029715E-01;  9.9999998E-03;  6.0084756E-02;2473;  1.4795563E-01;  0.0000000E+00;  4.2054579E-02;  1.0124595E+03;  4.0598071E-01;  1.0300638E+04;3;  5.1834763E+01;  0.0000000E+00;  5.1684427E+00;0;  1.1153876E+00;  9.9797217E+03;  0.0000000E+00; -6.8222430E-06;  1.0000000E+04;  0.0000000E+00;  9.9711943E+03;  5.2489692E-01;  0.0000000E+00;  5.9049064E-01;  1.3026963E+04;
  9.2030346E-01;  9.9999998E-03;  8.0113150E-02;2474;  1.5057658E-01;  0.0000000E+00;  5.3281296E-02;  1.0124106E+03;  4.0598094E-01;  1.0260229E+04;3;  5.1752689E+01;  0.0000000E+00;  5.5578151E+00;0;  1.0812981E+00;  9.9791182E+03;  0.0000000E+00; -9.8127712E-06;  1.0000000E+04;  0.0000000E+00;  9.9708242E+03;  5.3820127E-01;  0.0000000E+00;  5.4309678E-01;  1.3264547E+04;
  9.2031163E-01;  9.9999998E-03;  1.0014335E-01;2475;  1.5383539E-01;  0.0000000E+00;  6.3493647E-02;  1.0123571E+03;  4.0598115E-01;  1.0215877E+04;3;  5.1662048E+01;  0.0000000E+00;  5.4029717E+00;0;  1.0478519E+00;  9.9783125E+03;  0.0000000E+00; -1.3090441E-05;  1.0000000E+04;  0.0000000E+00;  9.9705625E+03;  5.5574000E-01;  0.0000000E+00;  4.9211195E-01;  1.3455193E+04;
  9.2032164E-01;  9.9999998E-03;  1.2017566E-01;2476;  1.5769956E-01;  0.0000000E+00;  7.3127426E-02;  1.0123006E+03;  4.0598130E-01;  1.0169258E+04;3;  5.1554749E+01;  0.0000000E+00;  5.0736742E+00;0;  1.0177689E+00;  9.9772725E+03;  0.0000000E+00; -1.8744086E-05;  1.0000000E+04;  0.0000000E+00;  9.9704912E+03;  5.7797438E-01;  0.0000000E+00;  4.3979445E-01;  1.3552252E+04;
  9.2033362E-01;  9.9999998E-03;  1.4020845E-01;2477;  1.6219983E-01;  0.0000000E+00;  8.2068987E-02;  1.0122401E+03;  4.0598160E-01;  1.0119287E+04;3;  5.1531277E+01;  0.0000000E+00;  4.9577327E+00;0;  9.9353194E-01;  9.9759609E+03;  0.0000000E+00; -2.8424847E-05;  1.0000000E+04;  0.0000000E+00;  9.9705928E+03;  6.0544044E-01;  0.0000000E+00;  3.8809147E-01;  1.3560976E+04;
  9.4029206E-01;  9.9999998E-03;  5.2177825E-11;2501;  1.4700192E-01;  0.0000000E+00;  3.0749149E-08;  1.0117493E+03;  4.0544042E-01;  9.7062949E+03;3;  5.3658787E+01;  0.0000000E+00;  1.1662167E-05;0;  9.0830386E-01;  9.9896143E+03;  0.0000000E+00;  7.4719820E-16;  1.0000000E+04;  0.0000000E+00;  9.9738877E+03;  2.8995809E-01;  0.0000000E+00;  6.1834574E-01;  1.1606923E+04;
  9.4029295E-01;  9.9999998E-03;  2.0026525E-02;2502;  1.4741659E-01;  0.0000000E+00;  1.3918073E-02;  1.0117424E+03;  4.0544048E-01;  9.7005820E+03;3;  5.3660725E+01;  0.0000000E+00;  2.0676980E+00;0;  9.0129006E-01;  9.9895596E+03;  0.0000000E+00; -9.8437931E-07;  1.0000000E+04;  0.0000000E+00;  9.9738086E+03;  2.9142851E-01;  0.0000000E+00;  6.0986155E-01;  1.1656052E+04;
  9.4029582E-01;  9.9999998E-03;  4.0052522E-02;2503;  1.4864798E-01;  0.0000000E+00;  2.6969491E-02;  1.0117222E+03;  4.0544051E-01;  9.6839375E+03;3;  5.3667240E+01;  0.0000000E+00;  3.7698591E+00;0;  8.8188672E-01;  9.9893848E+03;  0.0000000E+00; -3.7119642E-06;  1.0000000E+04;  0.0000000E+00;  9.9735762E+03;  2.9586712E-01;  0.0000000E+00;  5.8601964E-01;  1.1798487E+04;
  9.4030058E-01;  9.9999998E-03;  6.0078107E-02;2504;  1.5067160E-01;  0.0000000E+00;  3.8654231E-02;  1.0116891E+03;  4.0544054E-01;  9.6565586E+03;3;  5.3687737E+01;  0.0000000E+00;  4.8522000E+00;0;  8.5419250E-01;  9.9890850E+03;  0.0000000E+00; -7.2197345E-06;  1.0000000E+04;  0.0000000E+00;  9.9732266E+03;  3.0336493E-01;  0.0000000E+00;  5.5082756E-01;  1.2011586E+04;
  9.4030726E-01;  9.9999998E-03;  8.0104224E-02;2505;  1.5346533E-01;  0.0000000E+00;  4.9027450E-02;  1.0116481E+03;  4.0544066E-01;  9.6226787E+03;3;  5.3734886E+01;  0.0000000E+00;  5.2693553E+00;0;  8.2298243E-01;  9.9886475E+03;  0.0000000E+00; -1.0381351E-05;  1.0000000E+04;  0.0000000E+00;  9.9728447E+03;  3.1411961E-01;  0.0000000E+00;  5.0886285E-01;  1.2246114E+04;
  9.4031596E-01;  9.9999998E-03;  1.0013202E-01;2506;  1.5698767E-01;  0.0000000E+00;  5.8505274E-02;  1.0116031E+03;  4.0544084E-01;  9.5855479E+03;3;  5.3824165E+01;  0.0000000E+00;  5.1962652E+00;0;  7.9212737E-01;  9.9880400E+03;  0.0000000E+00; -1.3548946E-05;  1.0000000E+04;  0.0000000E+00;  9.9725635E+03;  3.2852107E-01;  0.0000000E+00;  4.6360627E-01;  1.2438129E+04;
  9.4032663E-01;  9.9999998E-03;  1.2016184E-01;2507;  1.6122301E-01;  0.0000000E+00;  6.7511871E-02;  1.0115571E+03;  4.0544090E-01;  9.5475293E+03;3;  5.4001209E+01;  0.0000000E+00;  4.9886899E+00;0;  7.6408839E-01;  9.9872256E+03;  0.0000000E+00; -1.8636538E-05;  1.0000000E+04;  0.0000000E+00;  9.9724600E+03;  3.4726390E-01;  0.0000000E+00;  4.1682449E-01;  1.2541086E+04;
  9.4033951E-01;  9.9999998E-03;  1.4019223E-01;2508;  1.6620564E-01;  0.0000000E+00;  7.5961530E-02;  1.0115062E+03;  4.0544114E-01;  9.5054727E+03;3;  5.4301403E+01;  0.0000000E+00;  5.0020666E+00;0;  7.4141145E-01;  9.9861328E+03;  0.0000000E+00; -2.8254139E-05;  1.0000000E+04;  0.0000000E+00;  9.9725361E+03;  3.7137839E-01;  0.0000000E+00;  3.7003303E-01;  1.2557456E+04;
  9.6028960E-01;  9.9999998E-03;  8.4565228E-12;2532;  1.4657044E-01;  0.0000000E+00;  1.1644471E-08;  1.0108441E+03;  4.0488362E-01;  8.9496377E+03;3;  5.3960533E+01;  0.0000000E+00;  3.1846866E-06;0;  6.8026841E-01;  9.9970928E+03;  0.0000000E+00; -6.8799679E-15;  1.0000000E+04;  0.0000000E+00;  9.9759766E+03;  1.1122752E-01;  0.0000000E+00;  5.6904089E-01;  1.0560689E+04;
  9.6029055E-01;  9.9999998E-03;  2.0024091E-02;2533;  1.4699630E-01;  0.0000000E+00;  1.2619873E-02;  1.0108383E+03;  4.0488356E-01;  8.9448174E+03;3;  5.3977585E+01;  0.0000000E+00;  1.9355054E+00;0;  6.7401803E-01;  9.9970576E+03;  0.0000000E+00; -7.2529753E-07;  1.0000000E+04;  0.0000000E+00;  9.9758955E+03;  1.1234982E-01;  0.0000000E+00;  5.6166822E-01;  1.0608101E+04;
  9.6029335E-01;  9.9999998E-03;  4.0047720E-02;2534;  1.4824568E-01;  0.0000000E+00;  2.4455475E-02;  1.0108214E+03;  4.0488377E-01;  8.9308447E+03;3;  5.4019245E+01;  0.0000000E+00;  3.5193810E+00;0;  6.5669858E-01;  9.9969541E+03;  0.0000000E+00; -2.7342007E-06;  1.0000000E+04;  0.0000000E+00;  9.9756631E+03;  1.1574426E-01;  0.0000000E+00;  5.4095435E-01;  1.0745500E+04;
  9.6029812E-01;  9.9999998E-03;  6.0071047E-02;2535;  1.5031670E-01;  0.0000000E+00;  3.5110112E-02;  1.0107940E+03;  4.0488374E-01;  8.9083125E+03;3;  5.4093285E+01;  0.0000000E+00;  4.5479946E+00;0;  6.3187301E-01;  9.9967666E+03;  0.0000000E+00; -5.2584251E-06;  1.0000000E+04;  0.0000000E+00;  9.9753076E+03;  1.2150195E-01;  0.0000000E+00;  5.1037109E-01;  1.0951293E+04;
  9.6030492E-01;  9.9999998E-03;  8.0094926E-02;2536;  1.5318772E-01;  0.0000000E+00;  4.4644564E-02;  1.0107606E+03;  4.0488383E-01;  8.8807617E+03;3;  5.4220989E+01;  0.0000000E+00;  4.9991226E+00;0;  6.0363793E-01;  9.9964824E+03;  0.0000000E+00; -7.2579905E-06;  1.0000000E+04;  0.0000000E+00;  9.9749229E+03;  1.2982157E-01;  0.0000000E+00;  4.7381634E-01;  1.1178885E+04;
  9.6031368E-01;  9.9999998E-03;  1.0012039E-01;2537;  1.5681656E-01;  0.0000000E+00;  5.3440254E-02;  1.0107247E+03;  4.0488389E-01;  8.8511436E+03;3;  5.4416794E+01;  0.0000000E+00;  5.0383019E+00;0;  5.7523185E-01;  9.9960693E+03;  0.0000000E+00; -8.5859319E-06;  1.0000000E+04;  0.0000000E+00;  9.9746279E+03;  1.4111689E-01;  0.0000000E+00;  4.3411496E-01;  1.1367101E+04;
  9.6032459E-01;  9.9999998E-03;  1.2014773E-01;2538;  1.6118878E-01;  0.0000000E+00;  6.1858829E-02;  1.0106890E+03;  4.0488395E-01;  8.8216240E+03;3;  5.4708576E+01;  0.0000000E+00;  4.9749436E+00;0;  5.4873031E-01;  9.9954756E+03;  0.0000000E+00; -1.0344864E-05;  1.0000000E+04;  0.0000000E+00;  9.9745137E+03;  1.5618984E-01;  0.0000000E+00;  3.9254048E-01;  1.1470283E+04;
  9.6033770E-01;  9.9999998E-03;  1.4017567E-01;2539;  1.6632703E-01;  0.0000000E+00;  6.9819607E-02;  1.0106489E+03;  4.0488413E-01;  8.7885605E+03;3;  5.5084873E+01;  0.0000000E+00;  5.1241469E+00;0;  5.2659625E-01;  9.9946191E+03;  0.0000000E+00; -1.4693405E-05;  1.0000000E+04;  0.0000000E+00;  9.9745703E+03;  1.7637122E-01;  0.0000000E+00;  3.5022503E-01;  1.1488676E+04;
  9.8028421E-01;  9.9999998E-03; -1.8941569E-11;2563;  1.4464304E-01;  0.0000000E+00; -7.0428370E-09;  1.0098461E+03;  4.0433177E-01;  8.1151299E+03;3;  5.3743595E+01;  0.0000000E+00;  6.3396874E-07;0;  5.0172228E-01;  1.0002542E+04;  0.0000000E+00;  5.2614379E-15;  1.0000000E+04;  0.0000000E+00;  9.9780430E+03; -1.8737681E-02;  0.0000000E+00;  5.2045995E-01;  9.5037607E+03;
  9.8028511E-01;  9.9999998E-03;  2.0021705E-02;2564;  1.4507945E-01;  0.0000000E+00;  1.1337182E-02;  1.0098411E+03;  4.0433177E-01;  8.1110034E+03;3;  5.3773178E+01;  0.0000000E+00;  1.7874980E+00;0;  4.9632505E-01;  1.0002523E+04;  0.0000000E+00; -3.6079661E-07;  1.0000000E+04;  0.0000000E+00;  9.9779590E+03; -1.7877907E-02;  0.0000000E+00;  5.1420295E-01;  9.5491406E+03;
  9.8028797E-01;  9.9999998E-03;  4.0043067E-02;2565;  1.4637852E-01;  0.0000000E+00;  2.2039549E-02;  1.0098267E+03;  4.0433171E-01;  8.0992104E+03;3;  5.3869518E+01;  0.0000000E+00;  3.2922673E+00;0;  4.8132759E-01;  1.0002471E+04;  0.0000000E+00; -1.3863103E-06;  1.0000000E+04;  0.0000000E+00;  9.9777266E+03; -1.5270449E-02;  0.0000000E+00;  4.9659804E-01;  9.6801982E+03;
  9.8029268E-01;  9.9999998E-03;  6.0064211E-02;2566;  1.4851594E-01;  0.0000000E+00;  3.1742468E-02;  1.0098043E+03;  4.0433177E-01;  8.0806392E+03;3;  5.4038445E+01;  0.0000000E+00;  4.3219047E+00;0;  4.5969036E-01;  1.0002374E+04;  0.0000000E+00; -2.5536831E-06;  1.0000000E+04;  0.0000000E+00;  9.9773750E+03; -1.0820722E-02;  0.0000000E+00;  4.7051108E-01;  9.8757432E+03;
  9.8029929E-01;  9.9999998E-03;  8.0085896E-02;2567;  1.5145580E-01;  0.0000000E+00;  4.0494099E-02;  1.0097766E+03;  4.0433198E-01;  8.0578398E+03;3;  5.4277039E+01;  0.0000000E+00;  4.8425250E+00;0;  4.3476856E-01;  1.0002210E+04;  0.0000000E+00; -3.0268932E-06;  1.0000000E+04;  0.0000000E+00;  9.9769932E+03; -4.3299906E-03;  0.0000000E+00;  4.3909854E-01;  1.0091580E+04;
  9.8030806E-01;  9.9999998E-03;  1.0010909E-01;2568;  1.5517364E-01;  0.0000000E+00;  4.8649754E-02;  1.0097482E+03;  4.0433192E-01;  8.0344512E+03;3;  5.4579742E+01;  0.0000000E+00;  5.0025105E+00;0;  4.0912759E-01;  1.0001946E+04;  0.0000000E+00; -2.4292406E-06;  1.0000000E+04;  0.0000000E+00;  9.9766963E+03;  4.6072830E-03;  0.0000000E+00;  4.0452030E-01;  1.0270186E+04;
  9.8031896E-01;  9.9999998E-03;  1.2013406E-01;2569;  1.5965259E-01;  0.0000000E+00;  5.6547593E-02;  1.0097213E+03;  4.0433201E-01;  8.0122393E+03;3;  5.4949772E+01;  0.0000000E+00;  5.0865684E+00;0;  3.8439500E-01;  1.0001525E+04;  0.0000000E+00; -1.0575062E-06;  1.0000000E+04;  0.0000000E+00;  9.9765811E+03;  1.6798552E-02;  0.0000000E+00;  3.6759645E-01;  1.0368229E+04;
  9.8033226E-01;  9.9999998E-03;  1.4015967E-01;2570;  1.6493399E-01;  0.0000000E+00;  6.4097986E-02;  1.0096902E+03;  4.0433204E-01;  7.9866855E+03;3;  5.5434467E+01;  0.0000000E+00;  5.3844218E+00;0;  3.6283773E-01;  1.0000852E+04;  0.0000000E+00;  1.9052514E-07;  1.0000000E+04;  0.0000000E+00;  9.9766348E+03;  3.3681467E-02;  0.0000000E+00;  3.2915625E-01;  1.0384688E+04;
  1.0002769E+00;  9.9999998E-03;  6.7805109E-13;2594;  1.4174522E-01;  0.0000000E+00;  5.4106932E-09;  1.0088075E+03;  4.0380287E-01;  7.2461519E+03;3;  5.3237671E+01;  0.0000000E+00; -2.9050425E-06;0;  3.6956081E-01;  1.0006155E+04;  0.0000000E+00;  5.9921662E-16;  1.0000000E+04;  0.0000000E+00;  9.9800195E+03; -1.0443521E-01;  0.0000000E+00;  4.7399601E-01;  8.4638936E+03;
  1.0002779E+00;  9.9999998E-03;  2.0019533E-02;2595;  1.4220612E-01;  0.0000000E+00;  1.0192428E-02;  1.0088033E+03;  4.0380290E-01;  7.2426201E+03;3;  5.3274269E+01;  0.0000000E+00;  1.6910933E+00;0;  3.6506596E-01;  1.0006151E+04;  0.0000000E+00; -9.7474881E-08;  1.0000000E+04;  0.0000000E+00;  9.9799395E+03; -1.0373798E-01;  0.0000000E+00;  4.6880394E-01;  8.5065615E+03;
  1.0002807E+00;  9.9999998E-03;  4.0038839E-02;2596;  1.4357138E-01;  0.0000000E+00;  1.9881740E-02;  1.0087909E+03;  4.0380284E-01;  7.2324185E+03;3;  5.3424309E+01;  0.0000000E+00;  3.1498775E+00;0;  3.5252994E-01;  1.0006132E+04;  0.0000000E+00; -3.5105103E-07;  1.0000000E+04;  0.0000000E+00;  9.9797080E+03; -1.0160849E-01;  0.0000000E+00;  4.5413843E-01;  8.6290693E+03;
  1.0002854E+00;  9.9999998E-03;  6.0058065E-02;2597;  1.4580706E-01;  0.0000000E+00;  2.8796069E-02;  1.0087715E+03;  4.0380284E-01;  7.2165264E+03;3;  5.3668972E+01;  0.0000000E+00;  4.2242789E+00;0;  3.3429334E-01;  1.0006086E+04;  0.0000000E+00; -4.3356280E-07;  1.0000000E+04;  0.0000000E+00;  9.9793662E+03; -9.7923614E-02;  0.0000000E+00;  4.3221694E-01;  8.8102363E+03;
  1.0002919E+00;  9.9999998E-03;  8.0077909E-02;2598;  1.4884853E-01;  0.0000000E+00;  3.6973014E-02;  1.0087485E+03;  4.0380287E-01;  7.1975933E+03;3;  5.3987679E+01;  0.0000000E+00;  4.8791056E+00;0;  3.1297556E-01;  1.0005994E+04;  0.0000000E+00;  1.2685537E-07;  1.0000000E+04;  0.0000000E+00;  9.9790039E+03; -9.2447966E-02;  0.0000000E+00;  4.0542352E-01;  9.0084023E+03;
  1.0003005E+00;  9.9999998E-03;  1.0009910E-01;2599;  1.5262932E-01;  0.0000000E+00;  4.4638198E-02;  1.0087253E+03;  4.0380296E-01;  7.1784619E+03;3;  5.4352245E+01;  0.0000000E+00;  5.1981134E+00;0;  2.9053587E-01;  1.0005816E+04;  0.0000000E+00;  1.0039394E-06;  1.0000000E+04;  0.0000000E+00;  9.9787236E+03; -8.4762320E-02;  0.0000000E+00;  3.7529817E-01;  9.1711807E+03;
  1.0003114E+00;  9.9999998E-03;  1.2012188E-01;2600;  1.5719087E-01;  0.0000000E+00;  5.2081347E-02;  1.0087032E+03;  4.0380287E-01;  7.1603101E+03;3;  5.4804661E+01;  0.0000000E+00;  5.4136639E+00;0;  2.6819152E-01;  1.0005493E+04;  0.0000000E+00;  1.4715529E-06;  1.0000000E+04;  0.0000000E+00;  9.9786113E+03; -7.4105188E-02;  0.0000000E+00;  3.4229672E-01;  9.2596494E+03;
  1.0003247E+00;  9.9999998E-03;  1.4014515E-01;2601;  1.6263637E-01;  0.0000000E+00;  5.9130181E-02;  1.0086774E+03;  4.0380293E-01;  7.1391152E+03;3;  5.5368835E+01;  0.0000000E+00;  5.7335653E+00;0;  2.4796581E-01;  1.0004923E+04;  0.0000000E+00;  1.7357813E-06;  1.0000000E+04;  0.0000000E+00;  9.9786641E+03; -5.9094843E-02;  0.0000000E+00;  3.0706066E-01;  9.2729678E+03;
  1.0202683E+00;  9.9999998E-03;  1.4975568E-11;2625;  1.3833466E-01;  0.0000000E+00;  5.7615424E-09;  1.0077867E+03;  4.0331113E-01;  6.3908413E+03;3;  5.2552746E+01;  0.0000000E+00; -5.2414834E-06;0;  2.7318412E-01;  1.0008405E+04;  0.0000000E+00;  5.4806577E-15;  1.0000000E+04;  0.0000000E+00;  9.9818750E+03; -1.5732008E-01;  0.0000000E+00;  4.3050420E-01;  7.4618672E+03;
  1.0202693E+00;  9.9999998E-03;  2.0017555E-02;2626;  1.3882059E-01;  0.0000000E+00;  9.1633443E-03;  1.0077828E+03;  4.0331122E-01;  6.3877095E+03;3;  5.2629528E+01;  0.0000000E+00;  1.6340785E+00;0;  2.6957166E-01;  1.0008402E+04;  0.0000000E+00;  8.3360057E-08;  1.0000000E+04;  0.0000000E+00;  9.9817969E+03; -1.5669614E-01;  0.0000000E+00;  4.2626780E-01;  7.5007393E+03;
  1.0202721E+00;  9.9999998E-03;  4.0034983E-02;2627;  1.4025086E-01;  0.0000000E+00;  1.7928340E-02;  1.0077715E+03;  4.0331125E-01;  6.3784121E+03;3;  5.2849773E+01;  0.0000000E+00;  3.0632772E+00;0;  2.5944608E-01;  1.0008399E+04;  0.0000000E+00;  4.9423647E-07;  1.0000000E+04;  0.0000000E+00;  9.9815781E+03; -1.5476495E-01;  0.0000000E+00;  4.1421103E-01;  7.6114160E+03;
  1.0202767E+00;  9.9999998E-03;  6.0052440E-02;2628;  1.4255603E-01;  0.0000000E+00;  2.6067365E-02;  1.0077546E+03;  4.0331125E-01;  6.3645151E+03;3;  5.3189285E+01;  0.0000000E+00;  4.1449933E+00;0;  2.4455854E-01;  1.0008376E+04;  0.0000000E+00;  1.4695887E-06;  1.0000000E+04;  0.0000000E+00;  9.9812588E+03; -1.5134317E-01;  0.0000000E+00;  3.9590171E-01;  7.7728813E+03;
  1.0202831E+00;  9.9999998E-03;  8.0070473E-02;2629;  1.4566806E-01;  0.0000000E+00;  3.3624444E-02;  1.0077340E+03;  4.0331137E-01;  6.3476812E+03;3;  5.3619736E+01;  0.0000000E+00;  4.8584547E+00;0;  2.2687884E-01;  1.0008307E+04;  0.0000000E+00;  2.5154181E-06;  1.0000000E+04;  0.0000000E+00;  9.9809258E+03; -1.4610724E-01;  0.0000000E+00;  3.7298608E-01;  7.9469238E+03;
  1.0202916E+00;  9.9999998E-03;  1.0008980E-01;2630;  1.4955789E-01;  0.0000000E+00;  4.0846311E-02;  1.0077132E+03;  4.0331125E-01;  6.3305513E+03;3;  5.4112946E+01;  0.0000000E+00;  5.3090224E+00;0;  2.0790851E-01;  1.0008146E+04;  0.0000000E+00;  1.1471885E-06;  1.0000000E+04;  0.0000000E+00;  9.9806738E+03; -1.3857079E-01;  0.0000000E+00;  3.4647930E-01;  8.0882690E+03;
  1.0203024E+00;  9.9999998E-03;  1.2011059E-01;2631;  1.5426169E-01;  0.0000000E+00;  4.7894560E-02;  1.0076924E+03;  4.0331131E-01;  6.3135176E+03;3;  5.4656174E+01;  0.0000000E+00;  5.6552224E+00;0;  1.8860705E-01;  1.0007834E+04;  0.0000000E+00; -6.0266107E-06;  1.0000000E+04;  0.0000000E+00;  9.9805693E+03; -1.2801020E-01;  0.0000000E+00;  3.1661725E-01;  8.1649380E+03;
  1.0203161E+00;  9.9999998E-03;  1.4013164E-01;2632;  1.5992372E-01;  0.0000000E+00;  5.4467399E-02;  1.0076664E+03;  4.0331128E-01;  6.2921768E+03;3;  5.5295410E+01;  0.0000000E+00;  6.0272136E+00;0;  1.7078620E-01;  1.0007274E+04;  0.0000000E+00; -1.8741270E-05;  1.0000000E+04;  0.0000000E+00;  9.9806152E+03; -1.1320595E-01;  0.0000000E+00;  2.8399214E-01;  8.1779116E+03;
  1.0402583E+00;  9.9999998E-03;  1.1835420E-11;2656;  1.3426974E-01;  0.0000000E+00;  1.8248726E-10;  1.0068300E+03;  4.0286675E-01;  5.5876650E+03;3;  5.1655060E+01;  0.0000000E+00;  1.5353333E-05;0;  2.0123558E-01;  1.0009746E+04;  0.0000000E+00; -1.6340278E-15;  1.0000000E+04;  0.0000000E+00;  9.9835889E+03; -1.8905284E-01;  0.0000000E+00;  3.9028841E-01;  6.5101348E+03;
  1.0402592E+00;  9.9999998E-03;  2.0015756E-02;2657;  1.3477096E-01;  0.0000000E+00;  8.2008420E-03;  1.0068264E+03;  4.0286678E-01;  5.5847378E+03;3;  5.1753746E+01;  0.0000000E+00;  1.5430627E+00;0;  1.9841205E-01;  1.0009746E+04;  0.0000000E+00;  4.1387807E-07;  1.0000000E+04;  0.0000000E+00;  9.9835186E+03; -1.8843202E-01;  0.0000000E+00;  3.8684407E-01;  6.5438091E+03;
  1.0402620E+00;  9.9999998E-03;  4.0031485E-02;2658;  1.3624455E-01;  0.0000000E+00;  1.6111819E-02;  1.0068163E+03;  4.0286678E-01;  5.5765425E+03;3;  5.2036186E+01;  0.0000000E+00;  2.9215579E+00;0;  1.9044101E-01;  1.0009737E+04;  0.0000000E+00;  1.8875882E-06;  1.0000000E+04;  0.0000000E+00;  9.9833232E+03; -1.8647972E-01;  0.0000000E+00;  3.7692073E-01;  6.6387021E+03;
  1.0402665E+00;  9.9999998E-03;  6.0047384E-02;2659;  1.3861805E-01;  0.0000000E+00;  2.3585565E-02;  1.0068005E+03;  4.0286684E-01;  5.5635669E+03;3;  5.2469715E+01;  0.0000000E+00;  4.0239210E+00;0;  1.7856780E-01;  1.0009706E+04;  0.0000000E+00;  4.3194241E-06;  1.0000000E+04;  0.0000000E+00;  9.9830352E+03; -1.8292576E-01;  0.0000000E+00;  3.6149356E-01;  6.7748833E+03;
  1.0402728E+00;  9.9999998E-03;  8.0063857E-02;2660;  1.4181779E-01;  0.0000000E+00;  3.0628651E-02;  1.0067813E+03;  4.0286678E-01;  5.5478594E+03;3;  5.3030285E+01;  0.0000000E+00;  4.8144336E+00;0;  1.6425358E-01;  1.0009619E+04;  0.0000000E+00;  5.2391247E-06;  1.0000000E+04;  0.0000000E+00;  9.9827451E+03; -1.7732112E-01;  0.0000000E+00;  3.4157470E-01;  6.9192646E+03;
  1.0402813E+00;  9.9999998E-03;  1.0008147E-01;2661;  1.4582923E-01;  0.0000000E+00;  3.7420239E-02;  1.0067608E+03;  4.0286684E-01;  5.5310762E+03;3;  5.3652767E+01;  0.0000000E+00;  5.3694649E+00;0;  1.4873566E-01;  1.0009426E+04;  0.0000000E+00; -1.8413098E-06;  1.0000000E+04;  0.0000000E+00;  9.9825293E+03; -1.6906397E-01;  0.0000000E+00;  3.1779963E-01;  7.0358706E+03;
  1.0402923E+00;  9.9999998E-03;  1.2010021E-01;2662;  1.5072976E-01;  0.0000000E+00;  4.3983243E-02;  1.0067377E+03;  4.0286681E-01;  5.5121445E+03;3;  5.4325680E+01;  0.0000000E+00;  5.8026509E+00;0;  1.3295260E-01;  1.0009054E+04;  0.0000000E+00; -2.4865365E-05;  1.0000000E+04;  0.0000000E+00;  9.9824365E+03; -1.5742058E-01;  0.0000000E+00;  2.9037318E-01;  7.1021089E+03;
  1.0403062E+00;  9.9999998E-03;  1.4011908E-01;2663;  1.5663293E-01;  0.0000000E+00;  5.0075568E-02;  1.0067064E+03;  4.0286678E-01;  5.4865786E+03;3;  5.4968395E+01;  0.0000000E+00;  6.3431406E+00;0;  1.1861563E-01;  1.0008416E+04;  0.0000000E+00; -6.2598432E-05;  1.0000000E+04;  0.0000000E+00;  9.9824561E+03; -1.4137745E-01;  0.0000000E+00;  2.5999308E-01;  7.1221396E+03;
  1.0602472E+00;  9.9999998E-03;  2.4404199E-11;2687;  1.2968965E-01;  0.0000000E+00;  1.1166933E-08;  1.0059684E+03;  4.0247539E-01;  4.8618325E+03;3;  5.0567772E+01;  0.0000000E+00;  7.6870929E-06;0;  1.4568321E-01;  1.0010479E+04;  0.0000000E+00;  1.3164965E-15;  1.0000000E+04;  0.0000000E+00;  9.9851592E+03; -2.0749961E-01;  0.0000000E+00;  3.5318282E-01;  5.6137173E+03;
  1.0602480E+00;  9.9999998E-03;  2.0014131E-02;2688;  1.3020213E-01;  0.0000000E+00;  7.3032328E-03;  1.0059651E+03;  4.0247542E-01;  4.8592100E+03;3;  5.0689091E+01;  0.0000000E+00;  1.4191203E+00;0;  1.4349674E-01;  1.0010474E+04;  0.0000000E+00;  1.0100172E-06;  1.0000000E+04;  0.0000000E+00;  9.9850986E+03; -2.0682715E-01;  0.0000000E+00;  3.5032389E-01;  5.6408174E+03;
  1.0602508E+00;  9.9999998E-03;  4.0028352E-02;2689;  1.3171074E-01;  0.0000000E+00;  1.4429743E-02;  1.0059558E+03;  4.0247545E-01;  4.8516323E+03;3;  5.1033218E+01;  0.0000000E+00;  2.7138748E+00;0;  1.3727507E-01;  1.0010455E+04;  0.0000000E+00;  4.0559944E-06;  1.0000000E+04;  0.0000000E+00;  9.9849326E+03; -2.0468393E-01;  0.0000000E+00;  3.4195900E-01;  5.7163994E+03;
  1.0602552E+00;  9.9999998E-03;  6.0042839E-02;2690;  1.3413686E-01;  0.0000000E+00;  2.1275222E-02;  1.0059409E+03;  4.0247548E-01;  4.8394883E+03;3;  5.1555710E+01;  0.0000000E+00;  3.8034222E+00;0;  1.2789753E-01;  1.0010394E+04;  0.0000000E+00;  7.7546583E-06;  1.0000000E+04;  0.0000000E+00;  9.9847002E+03; -2.0069820E-01;  0.0000000E+00;  3.2859573E-01;  5.8232534E+03;
  1.0602615E+00;  9.9999998E-03;  8.0057949E-02;2691;  1.3741808E-01;  0.0000000E+00;  2.7866380E-02;  1.0059221E+03;  4.0247548E-01;  4.8241377E+03;3;  5.2204407E+01;  0.0000000E+00;  4.6746483E+00;0;  1.1651516E-01;  1.0010252E+04;  0.0000000E+00;  6.2196568E-06;  1.0000000E+04;  0.0000000E+00;  9.9844668E+03; -1.9427693E-01;  0.0000000E+00;  3.1079209E-01;  5.9356255E+03;
  1.0602700E+00;  9.9999998E-03;  1.0007390E-01;2692;  1.4154914E-01;  0.0000000E+00;  3.4215424E-02;  1.0058992E+03;  4.0247539E-01;  4.8054829E+03;3;  5.2915371E+01;  0.0000000E+00;  5.3723640E+00;0;  1.0430391E-01;  1.0009975E+04;  0.0000000E+00; -1.2567769E-05;  1.0000000E+04;  0.0000000E+00;  9.9842852E+03; -1.8468307E-01;  0.0000000E+00;  2.8898698E-01;  6.0287529E+03;
  1.0602810E+00;  9.9999998E-03;  1.2009066E-01;2693;  1.4661987E-01;  0.0000000E+00;  4.0368676E-02;  1.0058698E+03;  4.0247551E-01;  4.7815815E+03;3;  5.3690365E+01;  0.0000000E+00;  6.0602098E+00;0;  9.2382044E-02;  1.0009489E+04;  0.0000000E+00; -6.0078270E-05;  1.0000000E+04;  0.0000000E+00;  9.9841865E+03; -1.7115366E-01;  0.0000000E+00;  2.6353571E-01;  6.0905786E+03;
  1.0602953E+00;  9.9999998E-03;  1.4010715E-01;2694;  1.5285270E-01;  0.0000000E+00;  4.5832429E-02;  1.0058284E+03;  4.0247548E-01;  4.7477710E+03;3;  5.4578007E+01;  0.0000000E+00;  6.4933643E+00;0;  8.2463309E-02;  1.0008707E+04;  0.0000000E+00; -2.2686715E-04;  1.0000000E+04;  0.0000000E+00;  9.9841445E+03; -1.5293755E-01;  0.0000000E+00;  2.3540086E-01;  6.1289082E+03;
  1.0802355E+00;  9.9999998E-03;  4.5397241E-12;2718;  1.2481780E-01;  0.0000000E+00;  5.9551972E-09;  1.0052145E+03;  4.0213948E-01;  4.2236582E+03;3;  4.9311054E+01;  0.0000000E+00;  1.2737073E-05;0;  1.0249339E-01;  1.0010737E+04;  0.0000000E+00; -2.5911807E-15;  1.0000000E+04;  0.0000000E+00;  9.9866104E+03; -2.1616904E-01;  0.0000000E+00;  3.1866243E-01;  4.7732329E+03;
  1.0802363E+00;  9.9999998E-03;  2.0012740E-02;2719;  1.2533331E-01;  0.0000000E+00;  6.5386929E-03;  1.0052116E+03;  4.0213931E-01;  4.2212432E+03;3;  4.9452721E+01;  0.0000000E+00;  1.3157854E+00;0;  1.0078071E-01;  1.0010726E+04;  0.0000000E+00;  1.5828817E-06;  1.0000000E+04;  0.0000000E+00;  9.9865645E+03; -2.1538962E-01;  0.0000000E+00;  3.1617033E-01;  4.7930059E+03;
  1.0802389E+00;  9.9999998E-03;  4.0025633E-02;2720;  1.2685078E-01;  0.0000000E+00;  1.2972733E-02;  1.0052028E+03;  4.0213946E-01;  4.2140938E+03;3;  4.9843971E+01;  0.0000000E+00;  2.5359666E+00;0;  9.5895931E-02;  1.0010676E+04;  0.0000000E+00;  5.5369692E-06;  1.0000000E+04;  0.0000000E+00;  9.9864365E+03; -2.1288626E-01;  0.0000000E+00;  3.0878219E-01;  4.8478540E+03;
  1.0802433E+00;  9.9999998E-03;  6.0038887E-02;2721;  1.2931199E-01;  0.0000000E+00;  1.9274559E-02;  1.0051880E+03;  4.0213937E-01;  4.2022119E+03;3;  5.0438969E+01;  0.0000000E+00;  3.6194167E+00;0;  8.8554084E-02;  1.0010561E+04;  0.0000000E+00;  7.7182121E-06;  1.0000000E+04;  0.0000000E+00;  9.9862607E+03; -2.0817494E-01;  0.0000000E+00;  2.9672903E-01;  4.9252822E+03;
  1.0802497E+00;  9.9999998E-03;  8.0052674E-02;2722;  1.3264385E-01;  0.0000000E+00;  2.5432670E-02;  1.0051675E+03;  4.0213940E-01;  4.1854990E+03;3;  5.1129257E+01;  0.0000000E+00;  4.6500802E+00;0;  7.9834729E-02;  1.0010338E+04;  0.0000000E+00; -2.7565577E-06;  1.0000000E+04;  0.0000000E+00;  9.9860752E+03; -2.0051587E-01;  0.0000000E+00;  2.8035060E-01;  5.0088560E+03;
  1.0802583E+00;  9.9999998E-03;  1.0006711E-01;2723;  1.3692342E-01;  0.0000000E+00;  3.1399015E-02;  1.0051392E+03;  4.0213934E-01;  4.1626035E+03;3;  5.2046017E+01;  0.0000000E+00;  5.3999529E+00;0;  7.1010426E-02;  1.0009935E+04;  0.0000000E+00; -4.2639334E-05;  1.0000000E+04;  0.0000000E+00;  9.9859131E+03; -1.8907474E-01;  0.0000000E+00;  2.6008517E-01;  5.0857212E+03;
  1.0802696E+00;  9.9999998E-03;  1.2008189E-01;2724;  1.4230850E-01;  0.0000000E+00;  3.6890995E-02;  1.0050993E+03;  4.0213948E-01;  4.1302427E+03;3;  5.2971638E+01;  0.0000000E+00;  5.9530139E+00;0;  6.3420787E-02;  1.0009280E+04;  0.0000000E+00; -1.2125866E-04;  1.0000000E+04;  0.0000000E+00;  9.9857744E+03; -1.7314993E-01;  0.0000000E+00;  2.3657072E-01;  5.1534370E+03;
  1.0802842E+00;  9.9999998E-03;  1.4009590E-01;2725;  1.4881571E-01;  0.0000000E+00;  4.1603290E-02;  1.0050443E+03;  4.0213954E-01;  4.0857109E+03;3;  5.3950069E+01;  0.0000000E+00;  6.4550490E+00;0;  5.8579385E-02;  1.0008330E+04;  0.0000000E+00; -2.1898167E-03;  1.0000000E+04;  0.0000000E+00;  9.9856240E+03; -1.5264903E-01;  0.0000000E+00;  2.1122842E-01;  5.2232642E+03;
  1.1002237E+00;  9.9999998E-03; -7.4209033E-12;2748;  1.1983014E-01;  0.0000000E+00; -2.7538685E-09;  1.0045678E+03;  4.0185723E-01;  3.6720520E+03;3;  4.7946899E+01;  0.0000000E+00;  2.9028452E-06;0;  7.0108667E-02;  1.0010545E+04;  0.0000000E+00;  3.0537799E-15;  1.0000000E+04;  0.0000000E+00;  9.9879639E+03; -2.1589465E-01;  0.0000000E+00;  2.8600332E-01;  3.9899041E+03;
  1.1002245E+00;  9.9999998E-03;  2.0011533E-02;2749;  1.2034158E-01;  0.0000000E+00;  5.8633820E-03;  1.0045649E+03;  4.0185744E-01;  3.6697505E+03;3;  4.8096004E+01;  0.0000000E+00;  1.2084864E+00;0;  6.8778157E-02;  1.0010519E+04;  0.0000000E+00;  1.2413769E-06;  1.0000000E+04;  0.0000000E+00;  9.9879297E+03; -2.1492559E-01;  0.0000000E+00;  2.8370374E-01;  4.0029141E+03;
  1.1002271E+00;  9.9999998E-03;  4.0023278E-02;2750;  1.2186398E-01;  0.0000000E+00;  1.1714098E-02;  1.0045558E+03;  4.0185735E-01;  3.6623674E+03;3;  4.8523262E+01;  0.0000000E+00;  2.3684206E+00;0;  6.5049917E-02;  1.0010424E+04;  0.0000000E+00;  2.6572557E-06;  1.0000000E+04;  0.0000000E+00;  9.9878398E+03; -2.1180722E-01;  0.0000000E+00;  2.7685714E-01;  4.0394341E+03;
  1.1002315E+00;  9.9999998E-03;  6.0035400E-02;2751;  1.2434877E-01;  0.0000000E+00;  1.7532477E-02;  1.0045392E+03;  4.0185735E-01;  3.6490398E+03;3;  4.9171329E+01;  0.0000000E+00;  3.4887006E+00;0;  5.9689179E-02;  1.0010229E+04;  0.0000000E+00; -3.9317624E-06;  1.0000000E+04;  0.0000000E+00;  9.9877051E+03; -2.0594670E-01;  0.0000000E+00;  2.6563588E-01;  4.0931084E+03;
  1.1002380E+00;  9.9999998E-03;  8.0047935E-02;2752;  1.2780099E-01;  0.0000000E+00;  2.3204923E-02;  1.0045134E+03;  4.0185738E-01;  3.6282346E+03;3;  5.0026569E+01;  0.0000000E+00;  4.3991189E+00;0;  5.3879663E-02;  1.0009869E+04;  0.0000000E+00; -3.4015917E-05;  1.0000000E+04;  0.0000000E+00;  9.9875498E+03; -1.9651265E-01;  0.0000000E+00;  2.5039232E-01;  4.1572993E+03;
  1.1002467E+00;  9.9999998E-03;  1.0006084E-01;2753;  1.3231534E-01;  0.0000000E+00;  2.8588917E-02;  1.0044750E+03;  4.0185729E-01;  3.5973638E+03;3;  5.1004448E+01;  0.0000000E+00;  5.1755257E+00;0;  4.9021631E-02;  1.0009289E+04;  0.0000000E+00; -1.0396432E-04;  1.0000000E+04;  0.0000000E+00;  9.9873662E+03; -1.8270946E-01;  0.0000000E+00;  2.3173109E-01;  4.2297529E+03;
  1.1002584E+00;  9.9999998E-03;  1.2007322E-01;2754;  1.3792564E-01;  0.0000000E+00;  3.3276584E-02;  1.0044211E+03;  4.0185738E-01;  3.5540308E+03;3;  5.2093143E+01;  0.0000000E+00;  5.7829027E+00;0;  4.6430603E-02;  1.0008435E+04;  0.0000000E+00; -9.2136650E-04;  1.0000000E+04;  0.0000000E+00;  9.9871426E+03; -1.6422550E-01;  0.0000000E+00;  2.1065611E-01;  4.3151948E+03;
  1.1002737E+00;  9.9999998E-03;  1.4008535E-01;2755;  1.4492886E-01;  0.0000000E+00;  3.7308298E-02;  1.0043522E+03;  4.0185747E-01;  3.4986177E+03;3;  5.3251759E+01;  0.0000000E+00;  6.1738605E+00;0;  4.6506211E-02;  1.0007366E+04;  0.0000000E+00; -1.4476789E-02;  1.0000000E+04;  0.0000000E+00;  9.9868340E+03; -1.4272717E-01;  0.0000000E+00;  1.8923338E-01;  4.4272520E+03;
  1.1202124E+00;  9.9999998E-03; -1.2752193E-11;2777;  1.1493566E-01;  0.0000000E+00; -7.3848301E-09;  1.0040196E+03;  4.0162617E-01;  3.1994990E+03;3;  4.6518017E+01;  0.0000000E+00;  6.8045410E-06;0;  4.8121139E-02;  1.0009869E+04;  0.0000000E+00;  2.5283641E-15;  1.0000000E+04;  0.0000000E+00;  9.9892236E+03; -2.0649539E-01;  0.0000000E+00;  2.5461653E-01;  3.2708804E+03;
  1.1202133E+00;  9.9999998E-03;  2.0010509E-02;2778;  1.1544812E-01;  0.0000000E+00;  5.3189746E-03;  1.0040159E+03;  4.0162620E-01;  3.1965562E+03;3;  4.6677204E+01;  0.0000000E+00;  1.1344868E+00;0;  4.7239602E-02;  1.0009819E+04;  0.0000000E+00; -1.3535455E-06;  1.0000000E+04;  0.0000000E+00;  9.9892012E+03; -2.0520028E-01;  0.0000000E+00;  2.5243989E-01;  3.2792371E+03;
  1.1202159E+00;  9.9999998E-03;  4.0021211E-02;2779;  1.1700103E-01;  0.0000000E+00;  1.0623311E-02;  1.0040041E+03;  4.0162623E-01;  3.1871575E+03;3;  4.7178078E+01;  0.0000000E+00;  2.1810260E+00;0;  4.4916630E-02;  1.0009649E+04;  0.0000000E+00; -9.2649716E-06;  1.0000000E+04;  0.0000000E+00;  9.9891309E+03; -2.0107996E-01;  0.0000000E+00;  2.4599659E-01;  3.3038792E+03;
  1.1202203E+00;  9.9999998E-03;  6.0032137E-02;2780;  1.1954719E-01;  0.0000000E+00;  1.5866030E-02;  1.0039819E+03;  4.0162638E-01;  3.1695007E+03;3;  4.7868961E+01;  0.0000000E+00;  3.2108080E+00;0;  4.2048141E-02;  1.0009325E+04;  0.0000000E+00; -3.5104073E-05;  1.0000000E+04;  0.0000000E+00;  9.9890146E+03; -1.9351621E-01;  0.0000000E+00;  2.3556435E-01;  3.3443381E+03;
  1.1202270E+00;  9.9999998E-03;  8.0043361E-02;2781;  1.2315098E-01;  0.0000000E+00;  2.0995708E-02;  1.0039463E+03;  4.0162626E-01;  3.1411179E+03;3;  4.8796654E+01;  0.0000000E+00;  4.1464353E+00;0;  3.9919838E-02;  1.0008787E+04;  0.0000000E+00; -9.4203147E-05;  1.0000000E+04;  0.0000000E+00;  9.9888398E+03; -1.8175200E-01;  0.0000000E+00;  2.2167183E-01;  3.4021409E+03;
  1.1202359E+00;  9.9999998E-03;  1.0005417E-01;2782;  1.2783550E-01;  0.0000000E+00;  2.5578761E-02;  1.0038940E+03;  4.0162629E-01;  3.0994470E+03;3;  4.9913502E+01;  0.0000000E+00;  4.8974400E+00;0;  3.9817452E-02;  1.0007994E+04;  0.0000000E+00; -8.4010843E-04;  1.0000000E+04;  0.0000000E+00;  9.9885879E+03; -1.6538826E-01;  0.0000000E+00;  2.0520571E-01;  3.4826016E+03;
  1.1202482E+00;  9.9999998E-03;  1.2006473E-01;2783;  1.3386515E-01;  0.0000000E+00;  2.9543299E-02;  1.0038255E+03;  4.0162638E-01;  3.0449614E+03;3;  5.1181229E+01;  0.0000000E+00;  5.3585744E+00;0;  4.2064682E-02;  1.0006987E+04;  0.0000000E+00; -1.0517229E-02;  1.0000000E+04;  0.0000000E+00;  9.9882305E+03; -1.4559279E-01;  0.0000000E+00;  1.8765748E-01;  3.5946855E+03;
  1.1202639E+00;  9.9999998E-03;  1.4007413E-01;2784;  1.4122221E-01;  0.0000000E+00;  3.2454949E-02;  1.0037495E+03;  4.0162626E-01;  2.9843982E+03;3;  5.2602409E+01;  0.0000000E+00;  5.7234149E+00;0;  4.5279995E-02;  1.0005968E+04;  0.0000000E+00; -6.1406046E-02;  1.0000000E+04;  0.0000000E+00;  9.9877305E+03; -1.2600845E-01;  0.0000000E+00;  1.7128845E-01;  3.7521863E+03;
  1.1402022E+00;  9.9999998E-03;  4.2434723E-12;2805;  1.1035617E-01;  0.0000000E+00;  3.6715628E-09;  1.0035490E+03;  4.0144083E-01;  2.7887366E+03;3;  4.5070992E+01;  0.0000000E+00;  5.3619151E-06;0;  3.7227407E-02;  1.0008584E+04;  0.0000000E+00; -3.7704088E-15;  1.0000000E+04;  0.0000000E+00;  9.9903652E+03; -1.8731011E-01;  0.0000000E+00;  2.2453752E-01;  2.6301873E+03;
  1.1402030E+00;  9.9999998E-03;  2.0009534E-02;2806;  1.1089506E-01;  0.0000000E+00;  4.7923331E-03;  1.0035432E+03;  4.0144074E-01;  2.7841448E+03;3;  4.5318699E+01;  0.0000000E+00;  9.8610353E-01;0;  3.6968336E-02;  1.0008497E+04;  0.0000000E+00; -6.8922186E-06;  1.0000000E+04;  0.0000000E+00;  9.9903438E+03; -1.8555655E-01;  0.0000000E+00;  2.2252488E-01;  2.6368018E+03;
  1.1402056E+00;  9.9999998E-03;  4.0019099E-02;2807;  1.1247404E-01;  0.0000000E+00;  9.5087187E-03;  1.0035261E+03;  4.0144080E-01;  2.7707441E+03;3;  4.5785561E+01;  0.0000000E+00;  1.9644732E+00;0;  3.6545470E-02;  1.0008231E+04;  0.0000000E+00; -3.1582702E-05;  1.0000000E+04;  0.0000000E+00;  9.9902676E+03; -1.8009885E-01;  0.0000000E+00;  2.1664432E-01;  2.6577246E+03;
  1.1402103E+00;  9.9999998E-03;  6.0028806E-02;2808;  1.1510140E-01;  0.0000000E+00;  1.4204801E-02;  1.0034947E+03;  4.0144083E-01;  2.7460994E+03;3;  4.6563114E+01;  0.0000000E+00;  2.9733038E+00;0;  3.6873221E-02;  1.0007743E+04;  0.0000000E+00; -1.4865608E-04;  1.0000000E+04;  0.0000000E+00;  9.9901240E+03; -1.7048152E-01;  0.0000000E+00;  2.0735474E-01;  2.6964270E+03;
  1.1402169E+00;  9.9999998E-03;  8.0038264E-02;2809;  1.1880961E-01;  0.0000000E+00;  1.8553620E-02;  1.0034467E+03;  4.0144086E-01;  2.7083359E+03;3;  4.7595928E+01;  0.0000000E+00;  3.8132901E+00;0;  3.8950294E-02;  1.0007019E+04;  0.0000000E+00; -1.6831873E-03;  1.0000000E+04;  0.0000000E+00;  9.9898867E+03; -1.5652816E-01;  0.0000000E+00;  1.9547845E-01;  2.7594727E+03;
  1.1402265E+00;  9.9999998E-03;  1.0004752E-01;2810;  1.2383556E-01;  0.0000000E+00;  2.2426313E-02;  1.0033820E+03;  4.0144077E-01;  2.6574536E+03;3;  4.8877663E+01;  0.0000000E+00;  4.3798890E+00;0;  4.3043241E-02;  1.0006099E+04;  0.0000000E+00; -1.2540814E-02;  1.0000000E+04;  0.0000000E+00;  9.9895195E+03; -1.3923439E-01;  0.0000000E+00;  1.8227763E-01;  2.8559834E+03;
  1.1402390E+00;  9.9999998E-03;  1.2005564E-01;2811;  1.3017999E-01;  0.0000000E+00;  2.5268069E-02;  1.0033076E+03;  4.0144086E-01;  2.5989788E+03;3;  5.0371857E+01;  0.0000000E+00;  4.7240195E+00;0;  4.7975935E-02;  1.0005134E+04;  0.0000000E+00; -5.8212657E-02;  1.0000000E+04;  0.0000000E+00;  9.9889980E+03; -1.2141953E-01;  0.0000000E+00;  1.6939546E-01;  2.9972393E+03;
  1.1402562E+00;  9.9999998E-03;  1.4006366E-01;2812;  1.3808841E-01;  0.0000000E+00;  2.7452152E-02;  1.0032372E+03;  4.0144092E-01;  2.5435879E+03;3;  5.2073246E+01;  0.0000000E+00;  4.9802227E+00;0;  5.1002435E-02;  1.0004378E+04;  0.0000000E+00; -1.8795064E-01;  1.0000000E+04;  0.0000000E+00;  9.9883447E+03; -1.0737699E-01;  0.0000000E+00;  1.5837942E-01;  3.2150791E+03;
  1.1601931E+00;  9.9999998E-03;  6.4984840E-12;2832;  1.0625273E-01;  0.0000000E+00;  5.5800324E-09;  1.0031299E+03;  4.0129536E-01;  2.4189814E+03;3;  4.3763294E+01;  0.0000000E+00;  9.5925279E-06;0;  3.8547367E-02;  1.0006521E+04;  0.0000000E+00; -5.6823298E-15;  1.0000000E+04;  0.0000000E+00;  9.9913203E+03; -1.5814684E-01;  0.0000000E+00;  1.9669421E-01;  2.0829016E+03;
  1.1601940E+00;  9.9999998E-03;  2.0008460E-02;2833;  1.0681699E-01;  0.0000000E+00;  4.2203721E-03;  1.0031223E+03;  4.0129527E-01;  2.4130828E+03;3;  4.3970272E+01;  0.0000000E+00;  8.2776332E-01;0;  3.9018348E-02;  1.0006405E+04;  0.0000000E+00; -3.6743437E-05;  1.0000000E+04;  0.0000000E+00;  9.9912832E+03; -1.5592228E-01;  0.0000000E+00;  1.9494063E-01;  2.0902314E+03;
  1.1601967E+00;  9.9999998E-03;  4.0016759E-02;2834;  1.0840808E-01;  0.0000000E+00;  8.3195660E-03;  1.0030989E+03;  4.0129530E-01;  2.3951108E+03;3;  4.4506660E+01;  0.0000000E+00;  1.7702619E+00;0;  4.0638864E-02;  1.0006047E+04;  0.0000000E+00; -6.3960074E-04;  1.0000000E+04;  0.0000000E+00;  9.9911758E+03; -1.4929244E-01;  0.0000000E+00;  1.8993130E-01;  2.1138210E+03;
  1.1602013E+00;  9.9999998E-03;  6.0025007E-02;2835;  1.1111928E-01;  0.0000000E+00;  1.2303372E-02;  1.0030592E+03;  4.0129527E-01;  2.3643279E+03;3;  4.5358383E+01;  0.0000000E+00;  2.6307974E+00;0;  4.3852821E-02;  1.0005462E+04;  0.0000000E+00; -4.3771956E-03;  1.0000000E+04;  0.0000000E+00;  9.9909668E+03; -1.3852695E-01;  0.0000000E+00;  1.8237977E-01;  2.1585662E+03;
  1.1602083E+00;  9.9999998E-03;  8.0033086E-02;2836;  1.1509119E-01;  0.0000000E+00;  1.5969027E-02;  1.0030037E+03;  4.0129539E-01;  2.3214702E+03;3;  4.6541733E+01;  0.0000000E+00;  3.2823460E+00;0;  4.8709258E-02;  1.0004696E+04;  0.0000000E+00; -2.0439785E-02;  1.0000000E+04;  0.0000000E+00;  9.9906250E+03; -1.2472138E-01;  0.0000000E+00;  1.7343064E-01;  2.2325884E+03;
  1.1602182E+00;  9.9999998E-03;  1.0004023E-01;2837;  1.2035506E-01;  0.0000000E+00;  1.8728456E-02;  1.0029376E+03;  4.0129527E-01;  2.2703159E+03;3;  4.8042774E+01;  0.0000000E+00;  3.6489432E+00;0;  5.4282695E-02;  1.0003868E+04;  0.0000000E+00; -7.0711635E-02;  1.0000000E+04;  0.0000000E+00;  9.9901328E+03; -1.1010747E-01;  0.0000000E+00;  1.6439016E-01;  2.3482451E+03;
  1.1602321E+00;  9.9999998E-03;  1.2004717E-01;2838;  1.2719673E-01;  0.0000000E+00;  2.0828921E-02;  1.0028715E+03;  4.0129539E-01;  2.2192461E+03;3;  4.9813137E+01;  0.0000000E+00;  3.8611705E+00;0;  5.8191739E-02;  1.0003191E+04;  0.0000000E+00; -1.9578007E-01;  1.0000000E+04;  0.0000000E+00;  9.9894941E+03; -9.8186724E-02;  0.0000000E+00;  1.5637846E-01;  2.5366013E+03;
  1.1602507E+00;  9.9999998E-03;  1.4005479E-01;2839;  1.3577642E-01;  0.0000000E+00;  2.2771094E-02;  1.0028216E+03;  4.0129548E-01;  2.1806052E+03;3;  5.2121601E+01;  0.0000000E+00;  4.1943231E+00;0;  5.7263926E-02;  1.0002921E+04;  0.0000000E+00; -4.4158828E-01;  1.0000000E+04;  0.0000000E+00;  9.9887676E+03; -9.2561483E-02;  0.0000000E+00;  1.4982541E-01;  2.8845500E+03;
  1.1801853E+00;  9.9999998E-03;  2.9333356E-12;2858;  1.0271551E-01;  0.0000000E+00;  6.0880334E-10;  1.0027441E+03;  4.0118340E-01;  2.0767866E+03;3;  4.2688053E+01;  0.0000000E+00;  1.6715785E-05;0;  5.0974108E-02;  1.0003732E+04;  0.0000000E+00;  1.9202027E-15;  1.0000000E+04;  0.0000000E+00;  9.9919863E+03; -1.2174564E-01;  0.0000000E+00;  1.7271975E-01;  1.6381527E+03;
  1.1801862E+00;  9.9999998E-03;  2.0007158E-02;2859;  1.0325909E-01;  0.0000000E+00;  3.5358246E-03;  1.0027355E+03;  4.0118355E-01;  2.0702888E+03;3;  4.2863266E+01;  0.0000000E+00;  6.7826408E-01;0;  5.1871017E-02;  1.0003608E+04;  0.0000000E+00; -1.0448557E-03;  1.0000000E+04;  0.0000000E+00;  9.9919346E+03; -1.1945432E-01;  0.0000000E+00;  1.7132534E-01;  1.6470959E+03;
  1.1801890E+00;  9.9999998E-03;  4.0014256E-02;2860;  1.0494763E-01;  0.0000000E+00;  7.0071560E-03;  1.0027097E+03;  4.0118358E-01;  2.0507942E+03;3;  4.3459164E+01;  0.0000000E+00;  1.4278773E+00;0;  5.4496691E-02;  1.0003257E+04;  0.0000000E+00; -7.7365004E-03;  1.0000000E+04;  0.0000000E+00;  9.9917744E+03; -1.1299241E-01;  0.0000000E+00;  1.6748910E-01;  1.6753048E+03;
  1.1801938E+00;  9.9999998E-03;  6.0021065E-02;2861;  1.0777164E-01;  0.0000000E+00;  1.0228488E-02;  1.0026695E+03;  4.0118343E-01;  2.0202887E+03;3;  4.4470272E+01;  0.0000000E+00;  2.1297269E+00;0;  5.8549151E-02;  1.0002736E+04;  0.0000000E+00; -3.1153634E-02;  1.0000000E+04;  0.0000000E+00;  9.9914932E+03; -1.0360141E-01;  0.0000000E+00;  1.6215056E-01;  1.7275697E+03;
  1.1802013E+00;  9.9999998E-03;  8.0027543E-02;2862;  1.1196744E-01;  0.0000000E+00;  1.2885621E-02;  1.0026191E+03;  4.0118355E-01;  1.9821082E+03;3;  4.5791515E+01;  0.0000000E+00;  2.4713516E+00;0;  6.3056715E-02;  1.0002152E+04;  0.0000000E+00; -9.3108080E-02;  1.0000000E+04;  0.0000000E+00;  9.9910693E+03; -9.3441017E-02;  0.0000000E+00;  1.5649773E-01;  1.8162543E+03;
  1.1802123E+00;  9.9999998E-03;  1.0003382E-01;2863;  1.1766644E-01;  0.0000000E+00;  1.4936558E-02;  1.0025670E+03;  4.0118355E-01;  1.9426575E+03;3;  4.7496548E+01;  0.0000000E+00;  2.6640458E+00;0;  6.6089921E-02;  1.0001682E+04;  0.0000000E+00; -2.2626412E-01;  1.0000000E+04;  0.0000000E+00;  9.9905029E+03; -8.5343026E-02;  0.0000000E+00;  1.5143295E-01;  1.9751525E+03;
  1.1802275E+00;  9.9999998E-03;  1.2004048E-01;2864;  1.2503673E-01;  0.0000000E+00;  1.6795712E-02;  1.0025264E+03;  4.0118361E-01;  1.9119493E+03;3;  4.9817741E+01;  0.0000000E+00;  2.9996591E+00;0;  6.4802237E-02;  1.0001538E+04;  0.0000000E+00; -4.6731842E-01;  1.0000000E+04;  0.0000000E+00;  9.9898311E+03; -8.2435064E-02;  0.0000000E+00;  1.4723730E-01;  2.2804917E+03;
  1.1802487E+00;  9.9999998E-03;  1.4004925E-01;2865;  1.3442062E-01;  0.0000000E+00;  1.8966237E-02;  1.0025076E+03;  4.0118363E-01;  1.8977383E+03;3;  5.2828320E+01;  0.0000000E+00;  3.3821919E+00;0;  5.7534523E-02;  1.0001874E+04;  0.0000000E+00; -8.3074147E-01;  1.0000000E+04;  0.0000000E+00;  9.9891250E+03; -8.6085640E-02;  0.0000000E+00;  1.4362016E-01;  2.8255173E+03;
  1.2001787E+00;  9.9999998E-03;  2.0622707E-12;2882;  9.9722072E-02;  0.0000000E+00;  7.7661380E-09;  1.0023924E+03;  4.0109935E-01;  1.7639882E+03;3;  4.1925274E+01;  0.0000000E+00;  1.7563747E-05;0;  6.9755055E-02;  1.0000606E+04;  0.0000000E+00; -5.9241823E-16;  1.0000000E+04;  0.0000000E+00;  9.9922852E+03; -8.4654041E-02;  0.0000000E+00;  1.5440910E-01;  1.2931071E+03;
  1.2001797E+00;  9.9999998E-03;  2.0005923E-02;2883;  1.0030527E-01;  0.0000000E+00;  2.8616043E-03;  1.0023850E+03;  4.0109938E-01;  1.7585363E+03;3;  4.2235058E+01;  0.0000000E+00;  4.8472425E-01;0;  7.0409141E-02;  1.0000523E+04;  0.0000000E+00; -6.0631218E-03;  1.0000000E+04;  0.0000000E+00;  9.9922256E+03; -8.2972057E-02;  0.0000000E+00;  1.5338120E-01;  1.3028956E+03;
  1.2001827E+00;  9.9999998E-03;  4.0011786E-02;2884;  1.0204160E-01;  0.0000000E+00;  5.5623390E-03;  1.0023641E+03;  4.0109941E-01;  1.7430592E+03;3;  4.2859066E+01;  0.0000000E+00;  9.3729222E-01;0;  7.2097003E-02;  1.0000296E+04;  0.0000000E+00; -3.2558177E-02;  1.0000000E+04;  0.0000000E+00;  9.9920332E+03; -7.8586251E-02;  0.0000000E+00;  1.5068325E-01;  1.3339666E+03;
  1.2001882E+00;  9.9999998E-03;  6.0017642E-02;2885;  1.0514901E-01;  0.0000000E+00;  7.9811253E-03;  1.0023346E+03;  4.0109950E-01;  1.7213354E+03;3;  4.3974815E+01;  0.0000000E+00;  1.2465010E+00;0;  7.3945709E-02;  1.0000024E+04;  0.0000000E+00; -1.0241594E-01;  1.0000000E+04;  0.0000000E+00;  9.9917139E+03; -7.3359825E-02;  0.0000000E+00;  1.4730553E-01;  1.3958927E+03;
  1.2001966E+00;  9.9999998E-03;  8.0023475E-02;2886;  1.0970628E-01;  0.0000000E+00;  9.9067511E-03;  1.0023040E+03;  4.0109935E-01;  1.6987256E+03;3;  4.5590473E+01;  0.0000000E+00;  1.4132975E+00;0;  7.4132502E-02;  9.9998535E+03;  0.0000000E+00; -2.4653271E-01;  1.0000000E+04;  0.0000000E+00;  9.9912734E+03; -7.0020869E-02;  0.0000000E+00;  1.4415337E-01;  1.5219716E+03;
  1.2002090E+00;  9.9999998E-03;  1.0002963E-01;2887;  1.1583726E-01;  0.0000000E+00;  1.1681828E-02;  1.0022823E+03;  4.0109941E-01;  1.6826987E+03;3;  4.7772064E+01;  0.0000000E+00;  1.8004339E+00;0;  7.0280530E-02;  9.9999629E+03;  0.0000000E+00; -4.9200293E-01;  1.0000000E+04;  0.0000000E+00;  9.9907324E+03; -7.1331330E-02;  0.0000000E+00;  1.4161186E-01;  1.7803711E+03;
  1.2002273E+00;  9.9999998E-03;  1.2003800E-01;2888;  1.2400433E-01;  0.0000000E+00;  1.3983096E-02;  1.0022759E+03;  4.0109938E-01;  1.6779086E+03;3;  5.0709999E+01;  0.0000000E+00;  2.2257936E+00;0;  6.1787769E-02;  1.0000457E+04;  0.0000000E+00; -8.4708017E-01;  1.0000000E+04;  0.0000000E+00;  9.9901113E+03; -7.8075245E-02;  0.0000000E+00;  1.3986301E-01;  2.2403054E+03;
  1.2002542E+00;  9.9999998E-03;  1.4005020E-01;2889;  1.3487057E-01;  0.0000000E+00;  1.7178381E-02;  1.0022709E+03;  4.0109941E-01;  1.6741520E+03;3;  5.4452751E+01;  0.0000000E+00;  2.6668181E+00;0;  5.4199539E-02;  1.0001094E+04;  0.0000000E+00; -1.2886724E+00;  1.0000000E+04;  0.0000000E+00;  9.9893809E+03; -8.5305892E-02;  0.0000000E+00;  1.3950543E-01;  2.9008579E+03;
  1.2201743E+00;  9.9999998E-03;  4.2100562E-13;2905;  9.7307846E-02;  0.0000000E+00;  4.5460005E-09;  1.0020906E+03;  4.0103737E-01;  1.4933956E+03;3;  4.1663544E+01;  0.0000000E+00;  1.7435537E-05;0;  8.7908946E-02;  9.9977383E+03;  0.0000000E+00;  2.5299811E-15;  1.0000000E+04;  0.0000000E+00;  9.9922217E+03; -5.4894350E-02;  0.0000000E+00;  1.4280330E-01;  1.0342162E+03;
  1.2201755E+00;  9.9999998E-03;  2.0005364E-02;2906;  9.7976439E-02;  0.0000000E+00;  2.3184533E-03;  1.0020872E+03;  4.0103745E-01;  1.4908383E+03;3;  4.1991383E+01;  0.0000000E+00;  1.7079975E-01;0;  8.7595403E-02;  9.9977314E+03;  0.0000000E+00; -1.6422907E-02;  1.0000000E+04;  0.0000000E+00;  9.9921611E+03; -5.4384526E-02;  0.0000000E+00;  1.4197993E-01;  1.0440126E+03;
  1.2201790E+00;  9.9999998E-03;  4.0010713E-02;2907;  9.9996567E-02;  0.0000000E+00;  4.3867431E-03;  1.0020786E+03;  4.0103745E-01;  1.4846982E+03;3;  4.2892097E+01;  0.0000000E+00;  2.7564409E-01;0;  8.6282909E-02;  9.9977471E+03;  0.0000000E+00; -7.7697977E-02;  1.0000000E+04;  0.0000000E+00;  9.9919775E+03; -5.3588536E-02;  0.0000000E+00;  1.3987145E-01;  1.0778636E+03;
  1.2201854E+00;  9.9999998E-03;  6.0016215E-02;2908;  1.0343786E-01;  0.0000000E+00;  6.0544545E-03;  1.0020713E+03;  4.0103740E-01;  1.4794877E+03;3;  4.4405807E+01;  0.0000000E+00;  2.0231338E-01;0;  8.2645573E-02;  9.9978867E+03;  0.0000000E+00; -2.1286123E-01;  1.0000000E+04;  0.0000000E+00;  9.9916875E+03; -5.4612108E-02;  0.0000000E+00;  1.3725768E-01;  1.1590469E+03;
  1.2201959E+00;  9.9999998E-03;  8.0022715E-02;2909;  1.0848581E-01;  0.0000000E+00;  7.7670729E-03;  1.0020712E+03;  4.0103742E-01;  1.4794606E+03;3;  4.6120529E+01;  0.0000000E+00;  4.7279727E-01;0;  7.5168759E-02;  9.9982686E+03;  0.0000000E+00; -4.5055947E-01;  1.0000000E+04;  0.0000000E+00;  9.9913086E+03; -5.9761804E-02;  0.0000000E+00;  1.3493057E-01;  1.3461528E+03;
  1.2202125E+00;  9.9999998E-03;  1.0003152E-01;2910;  1.1558151E-01;  0.0000000E+00;  1.0287624E-02;  1.0020778E+03;  4.0103748E-01;  1.4841012E+03;3;  4.8717800E+01;  0.0000000E+00;  1.0660548E+00;0;  6.4998731E-02;  9.9988916E+03;  0.0000000E+00; -7.9885238E-01;  1.0000000E+04;  0.0000000E+00;  9.9908184E+03; -6.9069192E-02;  0.0000000E+00;  1.3406792E-01;  1.7038365E+03;
  1.2202376E+00;  9.9999998E-03;  1.2004380E-01;2911;  1.2561736E-01;  0.0000000E+00;  1.4012642E-02;  1.0020676E+03;  4.0103742E-01;  1.4767996E+03;3;  5.2553310E+01;  0.0000000E+00;  1.7259903E+00;0;  6.1757296E-02;  9.9993750E+03;  0.0000000E+00; -1.2377899E+00;  1.0000000E+04;  0.0000000E+00;  9.9901387E+03; -7.4747160E-02;  0.0000000E+00;  1.3650446E-01;  2.2363599E+03;
  1.2202705E+00;  9.9999998E-03;  1.4005816E-01;2912;  1.3814178E-01;  0.0000000E+00;  1.8155696E-02;  1.0020118E+03;  4.0103734E-01;  1.4367856E+03;3;  5.8283520E+01;  0.0000000E+00;  2.5190463E+00;0;  7.5730525E-02;  9.9991650E+03;  0.0000000E+00; -1.6870581E+00;  1.0000000E+04;  0.0000000E+00;  9.9892363E+03; -6.6526689E-02;  0.0000000E+00;  1.4225721E-01;  2.8323481E+03;
  1.2401748E+00;  9.9999998E-03; -8.3480168E-13;2926;  9.6017048E-02;  0.0000000E+00;  8.1602094E-09;  1.0018658E+03;  4.0099269E-01;  1.2836727E+03;3;  4.2511566E+01;  0.0000000E+00;  3.1110016E-05;0;  9.7467512E-02;  9.9958398E+03;  0.0000000E+00;  2.0130257E-15;  1.0000000E+04;  0.0000000E+00;  9.9918652E+03; -4.0116888E-02;  0.0000000E+00;  1.3758440E-01;  8.4962292E+02;
  1.2401763E+00;  9.9999998E-03;  2.0006076E-02;2927;  9.6782394E-02;  0.0000000E+00;  2.1298816E-03;  1.0018674E+03;  4.0099266E-01;  1.2848173E+03;3;  4.2975506E+01;  0.0000000E+00; -1.2276962E-01;0;  9.5836490E-02;  9.9959268E+03;  0.0000000E+00; -2.8034309E-02;  1.0000000E+04;  0.0000000E+00;  9.9918105E+03; -4.0908713E-02;  0.0000000E+00;  1.3674520E-01;  8.5943170E+02;
  1.2401812E+00;  9.9999998E-03;  4.0012553E-02;2928;  9.9187396E-02;  0.0000000E+00;  3.8557847E-03;  1.0018718E+03;  4.0099260E-01;  1.2878391E+03;3;  4.4003433E+01;  0.0000000E+00; -6.1355233E-01;0;  9.0995312E-02;  9.9961748E+03;  0.0000000E+00; -1.2499522E-01;  1.0000000E+04;  0.0000000E+00;  9.9916543E+03; -4.3465387E-02;  0.0000000E+00;  1.3446070E-01;  8.9639148E+02;
  1.2401910E+00;  9.9999998E-03;  6.0020223E-02;2929;  1.0346717E-01;  0.0000000E+00;  5.7508731E-03;  1.0018785E+03;  4.0099260E-01;  1.2924069E+03;3;  4.5619953E+01;  0.0000000E+00; -6.5785801E-01;0;  8.3480865E-02;  9.9965586E+03;  0.0000000E+00; -3.1953925E-01;  1.0000000E+04;  0.0000000E+00;  9.9914072E+03; -4.8267860E-02;  0.0000000E+00;  1.3174872E-01;  9.9435779E+02;
  1.2402073E+00;  9.9999998E-03;  8.0030091E-02;2930;  1.1000007E-01;  0.0000000E+00;  8.6920736E-03;  1.0018758E+03;  4.0099269E-01;  1.2904777E+03;3;  4.7610603E+01;  0.0000000E+00;  1.0092127E-01;0;  7.7969536E-02;  9.9968867E+03;  0.0000000E+00; -6.3602871E-01;  1.0000000E+04;  0.0000000E+00;  9.9910244E+03; -5.3081989E-02;  0.0000000E+00;  1.3105153E-01;  1.2172336E+03;
  1.2402309E+00;  9.9999998E-03;  1.0004172E-01;2931;  1.1885901E-01;  0.0000000E+00;  1.2496494E-02;  1.0018442E+03;  4.0099272E-01;  1.2687661E+03;3;  5.1308514E+01;  0.0000000E+00;  9.0563828E-01;0;  8.1571586E-02;  9.9968311E+03;  0.0000000E+00; -1.0586687E+00;  1.0000000E+04;  0.0000000E+00;  9.9904580E+03; -5.3110309E-02;  0.0000000E+00;  1.3468190E-01;  1.5929681E+03;
  1.2402588E+00;  9.9999998E-03;  1.2005405E-01;2932;  1.2957631E-01;  0.0000000E+00;  1.6128791E-02;  1.0017778E+03;  4.0099272E-01;  1.2230182E+03;3;  5.6972939E+01;  0.0000000E+00;  1.6875174E+00;0;  9.9556223E-02;  9.9962539E+03;  0.0000000E+00; -1.4756234E+00;  1.0000000E+04;  0.0000000E+00;  9.9897090E+03; -4.1573118E-02;  0.0000000E+00;  1.4112934E-01;  2.0162129E+03;
  1.2402869E+00;  9.9999998E-03;  1.4006600E-01;2933;  1.4052914E-01;  0.0000000E+00;  1.8894412E-02;  1.0016947E+03;  4.0099275E-01;  1.1657126E+03;3;  6.4057411E+01;  0.0000000E+00;  2.5442524E+00;0;  1.2523472E-01;  9.9954209E+03;  0.0000000E+00; -1.6337770E+00;  1.0000000E+04;  0.0000000E+00;  9.9888867E+03; -2.0131014E-02;  0.0000000E+00;  1.4536573E-01;  2.2126394E+03;
  1.2601978E+00;  9.9999998E-03; -5.8757014E-13;2944;  9.7826473E-02;  0.0000000E+00;  6.6791199E-09;  1.0016093E+03;  4.0096104E-01;  1.0607185E+03;3;  4.2235123E+01;  0.0000000E+00;  2.8525479E-05;0;  1.1161028E-01;  9.9928350E+03;  0.0000000E+00; -8.6685970E-15;  1.0000000E+04;  0.0000000E+00;  9.9913369E+03; -2.5538523E-02;  0.0000000E+00;  1.3714880E-01;  6.6089911E+02;
  1.2601998E+00;  9.9999998E-03;  2.0008424E-02;2945;  9.8837525E-02;  0.0000000E+00;  3.2401886E-03;  1.0016091E+03;  4.0096104E-01;  1.0605565E+03;3;  4.3082893E+01;  0.0000000E+00;  1.4300634E-01;0;  1.1077657E-01;  9.9928877E+03;  0.0000000E+00; -3.5015915E-02;  1.0000000E+04;  0.0000000E+00;  9.9912842E+03; -2.5799233E-02;  0.0000000E+00;  1.3657580E-01;  6.6869281E+02;
  1.2602062E+00;  9.9999998E-03;  4.0017746E-02;2946;  1.0207648E-01;  0.0000000E+00;  6.1366130E-03;  1.0016057E+03;  4.0096113E-01;  1.0582627E+03;3;  4.5038685E+01;  0.0000000E+00; -3.3063072E-01;0;  1.1126953E-01;  9.9929756E+03;  0.0000000E+00; -1.5343834E-01;  1.0000000E+04;  0.0000000E+00;  9.9911221E+03; -2.4023267E-02;  0.0000000E+00;  1.3529280E-01;  7.0106970E+02;
  1.2602175E+00;  9.9999998E-03;  6.0028374E-02;2947;  1.0728027E-01;  0.0000000E+00;  9.0733664E-03;  1.0015917E+03;  4.0096110E-01;  1.0490430E+03;3;  4.7308331E+01;  0.0000000E+00; -1.3039041E-01;0;  1.1495940E-01;  9.9929902E+03;  0.0000000E+00; -3.7992916E-01;  1.0000000E+04;  0.0000000E+00;  9.9908330E+03; -1.9872867E-02;  0.0000000E+00;  1.3483226E-01;  7.9392218E+02;
  1.2602332E+00;  9.9999998E-03;  8.0039740E-02;2948;  1.1382473E-01;  0.0000000E+00;  1.1855148E-02;  1.0015651E+03;  4.0096101E-01;  1.0314857E+03;3;  5.0837780E+01;  0.0000000E+00;  9.9971712E-02;0;  1.1891709E-01;  9.9929102E+03;  0.0000000E+00; -7.0283121E-01;  1.0000000E+04;  0.0000000E+00;  9.9903867E+03; -1.7542157E-02;  0.0000000E+00;  1.3645925E-01;  9.8662695E+02;
  1.2602512E+00;  9.9999998E-03;  1.0005069E-01;2949;  1.2150021E-01;  0.0000000E+00;  1.4181048E-02;  1.0015359E+03;  4.0096113E-01;  1.0121959E+03;3;  5.5994942E+01;  0.0000000E+00;  6.5603411E-01;0;  1.2610041E-01;  9.9928857E+03;  0.0000000E+00; -1.0032465E+00;  1.0000000E+04;  0.0000000E+00;  9.9898291E+03; -1.2572631E-02;  0.0000000E+00;  1.3867304E-01;  1.2148065E+03;
  1.2602704E+00;  9.9999998E-03;  1.2006026E-01;2950;  1.2979066E-01;  0.0000000E+00;  1.5777398E-02;  1.0015150E+03;  4.0096107E-01;  9.9840393E+02;3;  6.2558014E+01;  0.0000000E+00;  1.2683563E+00;0;  1.3226895E-01;  9.9929854E+03;  0.0000000E+00; -1.0462408E+00;  1.0000000E+04;  0.0000000E+00;  9.9893086E+03; -5.0334739E-03;  0.0000000E+00;  1.3730243E-01;  1.2838271E+03;
  1.2602894E+00;  9.9999998E-03;  1.4006896E-01;2951;  1.3838908E-01;  0.0000000E+00;  1.7530473E-02;  1.0015110E+03;  4.0096104E-01;  9.9569012E+02;3;  7.0636513E+01;  0.0000000E+00;  2.5447154E+00;0;  1.4284147E-01;  9.9933164E+03;  0.0000000E+00; -5.8641028E-01;  1.0000000E+04;  0.0000000E+00;  9.9888994E+03;  9.0389363E-03;  0.0000000E+00;  1.3380253E-01;  1.0691270E+03;
  1.2802233E+00;  9.9999998E-03;  4.6771905E-12;2959;  1.0042287E-01;  0.0000000E+00;  8.4027985E-09;  1.0012738E+03;  4.0093914E-01;  8.0072906E+02;3;  4.3398109E+01;  0.0000000E+00;  3.1048316E-05;0;  1.4822967E-01;  9.9878223E+03;  0.0000000E+00;  8.1565444E-15;  1.0000000E+04;  0.0000000E+00;  9.9907568E+03;  9.0400167E-03;  0.0000000E+00;  1.3918966E-01;  4.2612979E+02;
  1.2802242E+00;  9.9999998E-03;  2.0009408E-02;2960;  1.0092924E-01;  0.0000000E+00;  3.5689438E-03;  1.0012857E+03;  4.0093908E-01;  8.0822119E+02;3;  4.4102386E+01;  0.0000000E+00;  8.2006979E-01;0;  1.4210214E-01;  9.9881006E+03;  0.0000000E+00; -2.4551779E-02;  1.0000000E+04;  0.0000000E+00;  9.9907129E+03;  3.4454865E-03;  0.0000000E+00;  1.3865665E-01;  4.3804370E+02;
  1.2802271E+00;  9.9999998E-03;  4.0020254E-02;2961;  1.0298184E-01;  0.0000000E+00;  6.9501838E-03;  1.0013184E+03;  4.0093914E-01;  8.2882361E+02;3;  4.7152737E+01;  0.0000000E+00;  4.2955101E-01;0;  1.3104804E-01;  9.9889141E+03;  0.0000000E+00; -1.0361432E-01;  1.0000000E+04;  0.0000000E+00;  9.9905576E+03; -6.8047373E-03;  0.0000000E+00;  1.3785277E-01;  4.7945383E+02;
  1.2802325E+00;  9.9999998E-03;  6.0032569E-02;2962;  1.0708709E-01;  0.0000000E+00;  9.5163016E-03;  1.0013600E+03;  4.0093914E-01;  8.5489093E+02;3;  5.1422306E+01;  0.0000000E+00; -3.9853790E-01;0;  1.2701268E-01;  9.9900586E+03;  0.0000000E+00; -2.3127083E-01;  1.0000000E+04;  0.0000000E+00;  9.9902383E+03; -9.9407025E-03;  0.0000000E+00;  1.3695338E-01;  5.5907062E+02;
  1.2802411E+00;  9.9999998E-03;  8.0044463E-02;2963;  1.1252359E-01;  0.0000000E+00;  1.1195515E-02;  1.0014004E+03;  4.0093899E-01;  8.8027649E+02;3;  5.5926487E+01;  0.0000000E+00; -4.8821497E-01;0;  1.2396773E-01;  9.9913252E+03;  0.0000000E+00; -3.3214241E-01;  1.0000000E+04;  0.0000000E+00;  9.9897764E+03; -1.0196069E-02;  0.0000000E+00;  1.3416380E-01;  6.5573553E+02;
  1.2802531E+00;  9.9999998E-03;  1.0005452E-01;2964;  1.1913137E-01;  0.0000000E+00;  1.2784745E-02;  1.0014291E+03;  4.0093914E-01;  8.9830981E+02;3;  6.1947639E+01;  0.0000000E+00;  1.8603039E-01;0;  1.2379287E-01;  9.9923418E+03;  0.0000000E+00; -2.3813035E-01;  1.0000000E+04;  0.0000000E+00;  9.9893340E+03; -6.2483554E-03;  0.0000000E+00;  1.3004123E-01;  7.0270886E+02;
  1.2802651E+00;  9.9999998E-03;  1.2006155E-01;2965;  1.2567337E-01;  0.0000000E+00;  1.3805233E-02;  1.0015026E+03;  4.0093917E-01;  9.4451630E+02;3;  6.8794914E+01;  0.0000000E+00;  1.1103077E+00;0;  1.0974111E-01;  9.9939063E+03;  0.0000000E+00;  2.0815443E-01;  1.0000000E+04;  0.0000000E+00;  9.9892383E+03; -1.0444273E-02;  0.0000000E+00;  1.2018538E-01;  7.5271643E+02;
  1.3002201E+00;  9.9999998E-03;  2.4644969E-12;2970;  9.5858693E-02;  0.0000000E+00;  6.6951857E-09;  1.0013691E+03;  4.0092418E-01;  8.1868927E+02;3;  4.8243374E+01;  0.0000000E+00;  2.6901296E-05;0;  8.3463490E-02;  9.9910010E+03;  0.0000000E+00;  5.4845764E-15;  1.0000000E+04;  0.0000000E+00;  9.9902188E+03; -5.8398798E-02;  0.0000000E+00;  1.4186229E-01;  4.2986584E+02;
  1.3002206E+00;  9.9999998E-03;  2.0010203E-02;2971;  9.6638061E-02;  0.0000000E+00;  3.2465239E-03;  1.0013872E+03;  4.0092412E-01;  8.2952325E+02;3;  4.9896248E+01;  0.0000000E+00; -3.2858308E-02;0;  8.1060678E-02;  9.9913984E+03;  0.0000000E+00;  5.0272830E-03;  1.0000000E+04;  0.0000000E+00;  9.9901816E+03; -5.9999201E-02;  0.0000000E+00;  1.4105988E-01;  4.4487656E+02;
  1.3002225E+00;  9.9999998E-03;  4.0021826E-02;2972;  9.9258654E-02;  0.0000000E+00;  5.8492110E-03;  1.0014320E+03;  4.0092418E-01;  8.5632166E+02;3;  5.3329403E+01;  0.0000000E+00; -8.2894194E-01;0;  8.2045160E-02;  9.9924531E+03;  0.0000000E+00;  3.4287728E-02;  1.0000000E+04;  0.0000000E+00;  9.9900234E+03; -5.6365989E-02;  0.0000000E+00;  1.3841115E-01;  4.8911307E+02;
  1.3002266E+00;  9.9999998E-03;  6.0034614E-02;2973;  1.0347318E-01;  0.0000000E+00;  7.8366436E-03;  1.0014811E+03;  4.0092412E-01;  8.8568109E+02;3;  5.7355404E+01;  0.0000000E+00; -1.2128912E+00;0;  8.5934043E-02;  9.9937861E+03;  0.0000000E+00;  1.3743851E-01;  1.0000000E+04;  0.0000000E+00;  9.9896709E+03; -4.7466729E-02;  0.0000000E+00;  1.3340077E-01;  5.6166467E+02;
  1.3002332E+00;  9.9999998E-03;  8.0046408E-02;2974;  1.0844249E-01;  0.0000000E+00;  9.5243873E-03;  1.0015231E+03;  4.0092403E-01;  9.1068567E+02;3;  6.1842060E+01;  0.0000000E+00; -7.8378457E-01;0;  8.2674980E-02;  9.9951221E+03;  0.0000000E+00;  3.9550212E-01;  1.0000000E+04;  0.0000000E+00;  9.9891680E+03; -4.3400768E-02;  0.0000000E+00;  1.2607574E-01;  6.7136493E+02;
 -1.4455100E-06;  9.9999998E-03;  1.6000012E-01;1053; -1.2941498E-03;  0.0000000E+00;  1.0612614E-04;  1.0000316E+03;  4.0000001E-01;  2.6172096E+01;3; -1.0739703E+00;  0.0000000E+00;  8.8244870E-02;0; -2.5078811E-02;  1.0000657E+04;  0.0000000E+00; -2.5275555E-09;  1.0000000E+04;  0.0000000E+00;  9.9999766E+03; -2.6064379E-02;  0.0000000E+00;  9.8556769E-04;  1.3251334E+01;
 -1.4061195E-06;  9.9999998E-03;  1.8000016E-01;1054; -1.2603960E-03;  0.0000000E+00;  1.3850431E-04;  1.0000306E+03;  4.0000001E-01;  2.5381994E+01;3; -1.0466719E+00;  0.0000000E+00;  1.1523691E-01;0; -2.4315894E-02;  1.0000635E+04;  0.0000000E+00; -1.9956674E-09;  1.0000000E+04;  0.0000000E+00;  9.9999746E+03; -2.5338560E-02;  0.0000000E+00;  1.0226665E-03;  1.3535983E+01;
 -1.3465648E-06;  9.9999998E-03;  2.0000020E-01;1055; -1.2079341E-03;  0.0000000E+00;  1.7355193E-04;  1.0000292E+03;  4.0000001E-01;  2.4196842E+01;3; -1.0052221E+00;  0.0000000E+00;  1.4453071E-01;0; -2.3260145E-02;  1.0000607E+04;  0.0000000E+00;  2.1935072E-09;  1.0000000E+04;  0.0000000E+00;  9.9999785E+03; -2.4192549E-02;  0.0000000E+00;  9.3240512E-04;  1.2400744E+01;
 -1.2610278E-06;  9.9999998E-03;  2.2000024E-01;1056; -1.1313346E-03;  0.0000000E+00;  2.1048894E-04;  1.0000275E+03;  4.0000001E-01;  2.2814167E+01;3; -9.4711566E-01;  0.0000000E+00;  1.7623088E-01;0; -2.1845909E-02;  1.0000566E+04;  0.0000000E+00;  5.6038321E-09;  1.0000000E+04;  0.0000000E+00;  9.9999844E+03; -2.2503445E-02;  0.0000000E+00;  6.5753696E-04;  9.1899643E+00;
 -1.1459506E-06;  9.9999998E-03;  2.4000028E-01;1057; -1.0272051E-03;  0.0000000E+00;  2.4427849E-04;  1.0000251E+03;  4.0000001E-01;  2.0838913E+01;3; -8.7109685E-01;  0.0000000E+00;  2.0750773E-01;0; -1.9995561E-02;  1.0000508E+04;  0.0000000E+00;  1.3292714E-09;  1.0000000E+04;  0.0000000E+00;  9.9999961E+03; -2.0175580E-02;  0.0000000E+00;  1.8001828E-04;  3.6801355E+00;
 -9.9790634E-07;  9.9999998E-03;  2.6000029E-01;1058; -8.9317048E-04;  0.0000000E+00;  2.7076562E-04;  1.0000221E+03;  4.0000001E-01;  1.8271086E+01;3; -7.7523184E-01;  0.0000000E+00;  2.3553085E-01;0; -1.7645443E-02;  1.0000435E+04;  0.0000000E+00; -1.6812791E-08;  1.0000000E+04;  0.0000000E+00;  1.0000011E+04; -1.7199207E-02;  0.0000000E+00; -4.4623576E-04;  3.5391130E+00;
 -8.2231162E-07;  9.9999998E-03;  2.8000033E-01;1059; -7.3425379E-04;  0.0000000E+00;  2.8142496E-04;  1.0000186E+03;  4.0000001E-01;  1.5406969E+01;3; -6.5923166E-01;  0.0000000E+00;  2.5357497E-01;0; -1.4787834E-02;  1.0000345E+04;  0.0000000E+00; -5.7168482E-08;  1.0000000E+04;  0.0000000E+00;  1.0000027E+04; -1.3716104E-02;  0.0000000E+00; -1.0717310E-03;  1.0804325E+01;
  1.9997921E-02;  9.9999998E-03;  1.6000018E-01;1083; -1.8461960E-03;  0.0000000E+00;  1.4324553E-04;  1.0000381E+03;  4.0000001E-01;  3.1604040E+01;3; -1.4000013E+00;  0.0000000E+00;  1.0854711E-01;0; -2.9849676E-02;  1.0000798E+04;  0.0000000E+00;  3.1417033E-09;  1.0000000E+04;  0.0000000E+00;  9.9999668E+03; -3.1160841E-02;  0.0000000E+00;  1.3111643E-03;  1.7652180E+01;
  1.9997971E-02;  9.9999998E-03;  1.8000022E-01;1084; -1.8030544E-03;  0.0000000E+00;  1.8542337E-04;  1.0000369E+03;  4.0000001E-01;  3.0616413E+01;3; -1.3682599E+00;  0.0000000E+00;  1.4039104E-01;0; -2.9026903E-02;  1.0000775E+04;  0.0000000E+00;  7.7399438E-09;  1.0000000E+04;  0.0000000E+00;  9.9999668E+03; -3.0391548E-02;  0.0000000E+00;  1.3646453E-03;  1.8109421E+01;
  1.9998053E-02;  9.9999998E-03;  2.0000027E-01;1085; -1.7318091E-03;  0.0000000E+00;  2.3199685E-04;  1.0000355E+03;  4.0000001E-01;  2.9431261E+01;3; -1.3175364E+00;  0.0000000E+00;  1.7591608E-01;0; -2.7874634E-02;  1.0000744E+04;  0.0000000E+00;  1.6384735E-08;  1.0000000E+04;  0.0000000E+00;  9.9999688E+03; -2.9128417E-02;  0.0000000E+00;  1.2537845E-03;  1.6699936E+01;
  1.9998174E-02;  9.9999998E-03;  2.2000031E-01;1086; -1.6244346E-03;  0.0000000E+00;  2.7852188E-04;  1.0000336E+03;  4.0000001E-01;  2.7851061E+01;3; -1.2453754E+00;  0.0000000E+00;  2.1241808E-01;0; -2.6310997E-02;  1.0000694E+04;  0.0000000E+00;  3.0271540E-08;  1.0000000E+04;  0.0000000E+00;  9.9999785E+03; -2.7214069E-02;  0.0000000E+00;  9.0307184E-04;  1.2537366E+01;
  1.9998342E-02;  9.9999998E-03;  2.4000037E-01;1087; -1.4734473E-03;  0.0000000E+00;  3.1766525E-04;  1.0000309E+03;  4.0000001E-01;  2.5579519E+01;3; -1.1490734E+00;  0.0000000E+00;  2.4641776E-01;0; -2.4234325E-02;  1.0000625E+04;  0.0000000E+00;  3.6172441E-08;  1.0000000E+04;  0.0000000E+00;  9.9999932E+03; -2.4520185E-02;  0.0000000E+00;  2.8586073E-04;  5.2868052E+00;
  1.9998565E-02;  9.9999998E-03;  2.6000038E-01;1088; -1.2723713E-03;  0.0000000E+00;  3.4368178E-04;  1.0000275E+03;  4.0000001E-01;  2.2814167E+01;3; -1.0229340E+00;  0.0000000E+00;  2.7499813E-01;0; -2.1556554E-02;  1.0000537E+04;  0.0000000E+00;  1.7573473E-08;  1.0000000E+04;  0.0000000E+00;  1.0000014E+04; -2.1022154E-02;  0.0000000E+00; -5.3440122E-04;  4.3418794E+00;
  1.9998843E-02;  9.9999998E-03;  2.8000039E-01;1089; -1.0230073E-03;  0.0000000E+00;  3.4781170E-04;  1.0000234E+03;  4.0000001E-01;  1.9357473E+01;3; -8.5988593E-01;  0.0000000E+00;  2.9111779E-01;0; -1.8255332E-02;  1.0000432E+04;  0.0000000E+00; -2.4646331E-08;  1.0000000E+04;  0.0000000E+00;  1.0000034E+04; -1.6881492E-02;  0.0000000E+00; -1.3738400E-03;  1.4251427E+01;
  1.9999167E-02;  9.9999998E-03;  3.0000043E-01;1090; -7.3071336E-04;  0.0000000E+00;  3.7225097E-04;  1.0000184E+03;  4.0000001E-01;  1.5308207E+01;3; -6.4734840E-01;  0.0000000E+00;  3.3211899E-01;0; -1.4433044E-02;  1.0000318E+04;  0.0000000E+00; -7.4622598E-08;  1.0000000E+04;  0.0000000E+00;  1.0000051E+04; -1.2486029E-02;  0.0000000E+00; -1.9470146E-03;  2.1223074E+01;
  3.9997097E-02;  9.9999998E-03;  1.6000021E-01;1114; -2.5540860E-03;  0.0000000E+00;  1.6768102E-04;  1.0000444E+03;  4.0000001E-01;  3.6739697E+01;3; -1.7948554E+00;  0.0000000E+00;  1.1651871E-01;0; -3.4135170E-02;  1.0000932E+04;  0.0000000E+00;  5.6346088E-09;  1.0000000E+04;  0.0000000E+00;  9.9999600E+03; -3.5730518E-02;  0.0000000E+00;  1.5953474E-03;  2.1850471E+01;
  3.9997160E-02;  9.9999998E-03;  1.8000026E-01;1115; -2.5009189E-03;  0.0000000E+00;  2.1543966E-04;  1.0000433E+03;  4.0000001E-01;  3.5949596E+01;3; -1.7585125E+00;  0.0000000E+00;  1.4917058E-01;0; -3.3318669E-02;  1.0000913E+04;  0.0000000E+00;  1.3301269E-08;  1.0000000E+04;  0.0000000E+00;  9.9999580E+03; -3.4986708E-02;  0.0000000E+00;  1.6680416E-03;  2.2534620E+01;
  3.9997268E-02;  9.9999998E-03;  2.0000032E-01;1116; -2.4087580E-03;  0.0000000E+00;  2.6741857E-04;  1.0000418E+03;  4.0000001E-01;  3.4665680E+01;3; -1.6982570E+00;  0.0000000E+00;  1.8492554E-01;0; -3.2140903E-02;  1.0000877E+04;  0.0000000E+00;  2.4315797E-08;  1.0000000E+04;  0.0000000E+00;  9.9999609E+03; -3.3688650E-02;  0.0000000E+00;  1.5477448E-03;  2.0963926E+01;
  3.9997432E-02;  9.9999998E-03;  2.2000037E-01;1117; -2.2644233E-03;  0.0000000E+00;  3.1915691E-04;  1.0000397E+03;  4.0000001E-01;  3.2887955E+01;3; -1.6106162E+00;  0.0000000E+00;  2.2179186E-01;0; -3.0498201E-02;  1.0000825E+04;  0.0000000E+00;  3.9541796E-08;  1.0000000E+04;  0.0000000E+00;  9.9999717E+03; -3.1638823E-02;  0.0000000E+00;  1.1406217E-03;  1.6002575E+01;
  3.9997663E-02;  9.9999998E-03;  2.4000043E-01;1118; -2.0572499E-03;  0.0000000E+00;  3.6015670E-04;  1.0000369E+03;  4.0000001E-01;  3.0517651E+01;3; -1.4933999E+00;  0.0000000E+00;  2.5471973E-01;0; -2.8256489E-02;  1.0000746E+04;  0.0000000E+00;  4.1465228E-08;  1.0000000E+04;  0.0000000E+00;  9.9999902E+03; -2.8665192E-02;  0.0000000E+00;  4.0870352E-04;  7.1656556E+00;
  3.9997980E-02;  9.9999998E-03;  2.6000047E-01;1119; -1.7766583E-03;  0.0000000E+00;  3.8944866E-04;  1.0000330E+03;  4.0000001E-01;  2.7258484E+01;3; -1.3380697E+00;  0.0000000E+00;  2.8556514E-01;0; -2.5292682E-02;  1.0000644E+04;  0.0000000E+00;  1.6845766E-08;  1.0000000E+04;  0.0000000E+00;  1.0000016E+04; -2.4712238E-02;  0.0000000E+00; -5.8044249E-04;  4.7662210E+00;
  3.9998367E-02;  9.9999998E-03;  2.8000048E-01;1120; -1.4294717E-03;  0.0000000E+00;  3.9937126E-04;  1.0000281E+03;  4.0000001E-01;  2.3307980E+01;3; -1.1359534E+00;  0.0000000E+00;  3.1031990E-01;0; -2.1562634E-02;  1.0000520E+04;  0.0000000E+00; -4.1302048E-08;  1.0000000E+04;  0.0000000E+00;  1.0000043E+04; -1.9944757E-02;  0.0000000E+00; -1.6178761E-03;  1.7326008E+01;
  3.9998822E-02;  9.9999998E-03;  3.0000049E-01;1121; -1.0237829E-03;  0.0000000E+00;  4.1516701E-04;  1.0000225E+03;  4.0000001E-01;  1.8567373E+01;3; -8.6751151E-01;  0.0000000E+00;  3.4922338E-01;0; -1.7193394E-02;  1.0000387E+04;  0.0000000E+00; -8.9797169E-08;  1.0000000E+04;  0.0000000E+00;  1.0000063E+04; -1.4814740E-02;  0.0000000E+00; -2.3786533E-03;  2.6723175E+01;
  5.9996124E-02;  9.9999998E-03;  1.6000022E-01;1145; -3.3709214E-03;  0.0000000E+00;  1.8019120E-04;  1.0000514E+03;  4.0000001E-01;  4.2566692E+01;3; -2.2370462E+00;  0.0000000E+00;  1.1602590E-01;0; -3.8522322E-02;  1.0001080E+04;  0.0000000E+00;  7.5740143E-09;  1.0000000E+04;  0.0000000E+00;  9.9999512E+03; -4.0337667E-02;  0.0000000E+00;  1.8153446E-03;  2.5713402E+01;
  5.9996203E-02;  9.9999998E-03;  1.8000029E-01;1146; -3.3093251E-03;  0.0000000E+00;  2.3110918E-04;  1.0000504E+03;  4.0000001E-01;  4.1677826E+01;3; -2.1967990E+00;  0.0000000E+00;  1.4775518E-01;0; -3.7763782E-02;  1.0001059E+04;  0.0000000E+00;  1.0947803E-08;  1.0000000E+04;  0.0000000E+00;  9.9999502E+03; -3.9673928E-02;  0.0000000E+00;  1.9101480E-03;  2.6685051E+01;
  5.9996333E-02;  9.9999998E-03;  2.0000035E-01;1147; -3.1968462E-03;  0.0000000E+00;  2.8720757E-04;  1.0000488E+03;  4.0000001E-01;  4.0492676E+01;3; -2.1273868E+00;  0.0000000E+00;  1.8285082E-01;0; -3.6606751E-02;  1.0001025E+04;  0.0000000E+00;  1.4550454E-08;  1.0000000E+04;  0.0000000E+00;  9.9999512E+03; -3.8401835E-02;  0.0000000E+00;  1.7950827E-03;  2.5103060E+01;
  5.9996542E-02;  9.9999998E-03;  2.2000042E-01;1148; -3.0152837E-03;  0.0000000E+00;  3.4271445E-04;  1.0000466E+03;  4.0000001E-01;  3.8616184E+01;3; -2.0252626E+00;  0.0000000E+00;  2.1872681E-01;0; -3.4918811E-02;  1.0000969E+04;  0.0000000E+00;  9.1738395E-09;  1.0000000E+04;  0.0000000E+00;  9.9999648E+03; -3.6276352E-02;  0.0000000E+00;  1.3575391E-03;  1.9555849E+01;
  5.9996843E-02;  9.9999998E-03;  2.4000047E-01;1149; -2.7489760E-03;  0.0000000E+00;  3.8696636E-04;  1.0000434E+03;  4.0000001E-01;  3.5949596E+01;3; -1.8883225E+00;  0.0000000E+00;  2.5145727E-01;0; -3.2524541E-02;  1.0000881E+04;  0.0000000E+00; -1.5666446E-08;  1.0000000E+04;  0.0000000E+00;  9.9999863E+03; -3.3068545E-02;  0.0000000E+00;  5.4400507E-04;  9.3513107E+00;
  5.9997257E-02;  9.9999998E-03;  2.6000053E-01;1150; -2.3847758E-03;  0.0000000E+00;  4.1831058E-04;  1.0000391E+03;  4.0000001E-01;  3.2394142E+01;3; -1.7074502E+00;  0.0000000E+00;  2.8253460E-01;0; -2.9257970E-02;  1.0000763E+04;  0.0000000E+00; -7.3418072E-08;  1.0000000E+04;  0.0000000E+00;  1.0000017E+04; -2.8676920E-02;  0.0000000E+00; -5.8104994E-04;  4.7277679E+00;
  5.9997771E-02;  9.9999998E-03;  2.8000054E-01;1151; -1.9297019E-03;  0.0000000E+00;  4.2903889E-04;  1.0000336E+03;  4.0000001E-01;  2.7851061E+01;3; -1.4685888E+00;  0.0000000E+00;  3.0950522E-01;0; -2.5054228E-02;  1.0000619E+04;  0.0000000E+00; -1.1351883E-06;  1.0000000E+04;  0.0000000E+00;  1.0000049E+04; -2.3263121E-02;  0.0000000E+00; -1.7911058E-03;  1.9884447E+01;
  5.9998386E-02;  9.9999998E-03;  3.0000055E-01;1152; -1.3886982E-03;  0.0000000E+00;  4.5014513E-04;  1.0000268E+03;  4.0000001E-01;  2.2221590E+01;3; -1.1374440E+00;  0.0000000E+00;  3.5730481E-01;0; -2.0069668E-02;  1.0000462E+04;  0.0000000E+00; -3.9870665E-06;  1.0000000E+04;  0.0000000E+00;  1.0000076E+04; -1.7351443E-02;  0.0000000E+00; -2.7182254E-03;  3.1654745E+01;
  7.9995006E-02;  9.9999998E-03;  1.6000023E-01;1176; -4.2813811E-03;  0.0000000E+00;  1.8310279E-04;  1.0000595E+03;  4.0000001E-01;  4.9282551E+01;3; -2.7306259E+00;  0.0000000E+00;  1.0988032E-01;0; -4.3548550E-02;  1.0001245E+04;  0.0000000E+00;  4.9548028E-09;  1.0000000E+04;  0.0000000E+00;  9.9999453E+03; -4.5522407E-02;  0.0000000E+00;  1.9738546E-03;  2.9373255E+01;
  7.9995096E-02;  9.9999998E-03;  1.8000031E-01;1177; -4.2146551E-03;  0.0000000E+00;  2.3587403E-04;  1.0000586E+03;  4.0000001E-01;  4.8591209E+01;3; -2.6878529E+00;  0.0000000E+00;  1.4034024E-01;0; -4.2889584E-02;  1.0001230E+04;  0.0000000E+00;  7.7406714E-10;  1.0000000E+04;  0.0000000E+00;  9.9999404E+03; -4.4981610E-02;  0.0000000E+00;  2.0920252E-03;  3.0683323E+01;
  7.9995245E-02;  9.9999998E-03;  2.0000038E-01;1178; -4.0854779E-03;  0.0000000E+00;  2.9412628E-04;  1.0000570E+03;  4.0000001E-01;  4.7208534E+01;3; -2.6109233E+00;  0.0000000E+00;  1.7359436E-01;0; -4.1784838E-02;  1.0001196E+04;  0.0000000E+00; -2.0957135E-08;  1.0000000E+04;  0.0000000E+00;  9.9999463E+03; -4.3779787E-02;  0.0000000E+00;  1.9949502E-03;  2.9223938E+01;
  7.9995498E-02;  9.9999998E-03;  2.2000045E-01;1179; -3.8696670E-03;  0.0000000E+00;  3.5251331E-04;  1.0000549E+03;  4.0000001E-01;  4.5430805E+01;3; -2.4960382E+00;  0.0000000E+00;  2.0798615E-01;0; -4.0064819E-02;  1.0001137E+04;  0.0000000E+00; -7.6224104E-08;  1.0000000E+04;  0.0000000E+00;  9.9999580E+03; -4.1615851E-02;  0.0000000E+00;  1.5510324E-03;  2.3280069E+01;
  7.9995871E-02;  9.9999998E-03;  2.4000052E-01;1180; -3.5452913E-03;  0.0000000E+00;  3.9958119E-04;  1.0000513E+03;  4.0000001E-01;  4.2467930E+01;3; -2.3407307E+00;  0.0000000E+00;  2.4003452E-01;0; -3.7504893E-02;  1.0001043E+04;  0.0000000E+00; -8.7985645E-06;  1.0000000E+04;  0.0000000E+00;  9.9999824E+03; -3.8192526E-02;  0.0000000E+00;  6.8763096E-04;  1.1898172E+01;
  7.9996392E-02;  9.9999998E-03;  2.6000056E-01;1181; -3.0946373E-03;  0.0000000E+00;  4.3357859E-04;  1.0000463E+03;  4.0000001E-01;  3.8319897E+01;3; -2.1362064E+00;  0.0000000E+00;  2.7067626E-01;0; -3.3904053E-02;  1.0000910E+04;  0.0000000E+00; -8.0667931E-05;  1.0000000E+04;  0.0000000E+00;  1.0000016E+04; -3.3363398E-02;  0.0000000E+00; -5.4065487E-04;  4.2218528E+00;
  7.9997048E-02;  9.9999998E-03;  2.8000057E-01;1182; -2.5214243E-03;  0.0000000E+00;  4.4848677E-04;  1.0000400E+03;  4.0000001E-01;  3.3184242E+01;3; -1.8591219E+00;  0.0000000E+00;  3.0111933E-01;0; -2.9177986E-02;  1.0000747E+04;  0.0000000E+00; -2.3282570E-04;  1.0000000E+04;  0.0000000E+00;  1.0000055E+04; -2.7280780E-02;  0.0000000E+00; -1.8972075E-03;  2.1963280E+01;
  7.9997852E-02;  9.9999998E-03;  3.0000061E-01;1183; -1.8256654E-03;  0.0000000E+00;  4.8680379E-04;  1.0000324E+03;  4.0000001E-01;  2.6863434E+01;3; -1.4577138E+00;  0.0000000E+00;  3.6617923E-01;0; -2.3492660E-02;  1.0000560E+04;  0.0000000E+00; -4.1583160E-04;  1.0000000E+04;  0.0000000E+00;  1.0000085E+04; -2.0520687E-02;  0.0000000E+00; -2.9719723E-03;  3.6152569E+01;
  9.9993728E-02;  9.9999998E-03;  1.6000025E-01;1207; -5.2949274E-03;  0.0000000E+00;  1.8029363E-04;  1.0000696E+03;  4.0000001E-01;  5.7677372E+01;3; -3.2846124E+00;  0.0000000E+00;  1.0104950E-01;0; -4.9595080E-02;  1.0001453E+04;  0.0000000E+00;  1.1583888E-09;  1.0000000E+04;  0.0000000E+00;  9.9999404E+03; -5.1690951E-02;  0.0000000E+00;  2.0958707E-03;  3.3200001E+01;
  9.9993810E-02;  9.9999998E-03;  1.8000032E-01;1208; -5.2274629E-03;  0.0000000E+00;  2.3397581E-04;  1.0000687E+03;  4.0000001E-01;  5.6986034E+01;3; -3.2413392E+00;  0.0000000E+00;  1.2974641E-01;0; -4.9077868E-02;  1.0001443E+04;  0.0000000E+00; -1.7798778E-08;  1.0000000E+04;  0.0000000E+00;  9.9999355E+03; -5.1312204E-02;  0.0000000E+00;  2.2343355E-03;  3.4869431E+01;
  9.9993981E-02;  9.9999998E-03;  2.0000041E-01;1209; -5.0864988E-03;  0.0000000E+00;  2.9221637E-04;  1.0000673E+03;  4.0000001E-01;  5.5800884E+01;3; -3.1593471E+00;  0.0000000E+00;  1.5996039E-01;0; -4.8059490E-02;  1.0001411E+04;  0.0000000E+00; -8.2160867E-08;  1.0000000E+04;  0.0000000E+00;  9.9999385E+03; -5.0220378E-02;  0.0000000E+00;  2.1608865E-03;  3.3606548E+01;
  9.9994272E-02;  9.9999998E-03;  2.2000048E-01;1210; -4.8406501E-03;  0.0000000E+00;  3.5197911E-04;  1.0000649E+03;  4.0000001E-01;  5.3825630E+01;3; -3.0339684E+00;  0.0000000E+00;  1.9195965E-01;0; -4.6333432E-02;  1.0001346E+04;  0.0000000E+00; -3.3632772E-05;  1.0000000E+04;  0.0000000E+00;  9.9999521E+03; -4.8060663E-02;  0.0000000E+00;  1.7272318E-03;  2.7389887E+01;
  9.9994719E-02;  9.9999998E-03;  2.4000055E-01;1211; -4.4610719E-03;  0.0000000E+00;  4.0013209E-04;  1.0000612E+03;  4.0000001E-01;  5.0665226E+01;3; -2.8631661E+00;  0.0000000E+00;  2.2155690E-01;0; -4.3663040E-02;  1.0001249E+04;  0.0000000E+00; -3.0314346E-04;  1.0000000E+04;  0.0000000E+00;  9.9999775E+03; -4.4502337E-02;  0.0000000E+00;  8.3929754E-04;  1.5036382E+01;
  9.9995352E-02;  9.9999998E-03;  2.6000059E-01;1212; -3.9221696E-03;  0.0000000E+00;  4.3821725E-04;  1.0000560E+03;  4.0000001E-01;  4.6418434E+01;3; -2.6365485E+00;  0.0000000E+00;  2.5199986E-01;0; -3.9825417E-02;  1.0001104E+04;  0.0000000E+00; -1.1033142E-03;  1.0000000E+04;  0.0000000E+00;  1.0000016E+04; -3.9357442E-02;  0.0000000E+00; -4.6797434E-04;  6.4147673E+00;
  9.9996172E-02;  9.9999998E-03;  2.8000063E-01;1213; -3.2220006E-03;  0.0000000E+00;  4.6303324E-04;  1.0000488E+03;  4.0000001E-01;  4.0492676E+01;3; -2.3205268E+00;  0.0000000E+00;  2.8908634E-01;0; -3.4672413E-02;  1.0000914E+04;  0.0000000E+00; -2.3953172E-03;  1.0000000E+04;  0.0000000E+00;  1.0000061E+04; -3.2714695E-02;  0.0000000E+00; -1.9577192E-03;  2.6532465E+01;
  9.9997193E-02;  9.9999998E-03;  3.0000070E-01;1214; -2.3505697E-03;  0.0000000E+00;  5.3259265E-04;  1.0000397E+03;  4.0000001E-01;  3.2887955E+01;3; -1.8405533E+00;  0.0000000E+00;  3.8156700E-01;0; -2.8285025E-02;  1.0000701E+04;  0.0000000E+00; -3.7847143E-03;  1.0000000E+04;  0.0000000E+00;  1.0000095E+04; -2.5112787E-02;  0.0000000E+00; -3.1722377E-03;  4.4653088E+01;
  1.1999223E-01;  9.9999998E-03;  1.6000026E-01;1238; -6.4381524E-03;  0.0000000E+00;  1.7857064E-04;  1.0000819E+03;  4.0000001E-01;  6.7849922E+01;3; -3.9063723E+00;  0.0000000E+00;  9.3675144E-02;0; -5.6851961E-02;  1.0001707E+04;  0.0000000E+00; -5.8846199E-09;  1.0000000E+04;  0.0000000E+00;  9.9999297E+03; -5.9076570E-02;  0.0000000E+00;  2.2246109E-03;  3.7780109E+01;
  1.1999232E-01;  9.9999998E-03;  1.8000035E-01;1239; -6.3753864E-03;  0.0000000E+00;  2.3178929E-04;  1.0000813E+03;  4.0000001E-01;  6.7356110E+01;3; -3.8652916E+00;  0.0000000E+00;  1.1941449E-01;0; -5.6526106E-02;  1.0001698E+04;  0.0000000E+00; -4.8680825E-08;  1.0000000E+04;  0.0000000E+00;  9.9999268E+03; -5.8903031E-02;  0.0000000E+00;  2.3769254E-03;  3.9831104E+01;
  1.1999250E-01;  9.9999998E-03;  2.0000042E-01;1240; -6.2279799E-03;  0.0000000E+00;  2.8803066E-04;  1.0000801E+03;  4.0000001E-01;  6.6368484E+01;3; -3.7812147E+00;  0.0000000E+00;  1.4515710E-01;0; -5.5653051E-02;  1.0001669E+04;  0.0000000E+00; -2.6930593E-05;  1.0000000E+04;  0.0000000E+00;  9.9999277E+03; -5.7981577E-02;  0.0000000E+00;  2.3285244E-03;  3.8842590E+01;
  1.1999283E-01;  9.9999998E-03;  2.2000051E-01;1241; -5.9565953E-03;  0.0000000E+00;  3.4718838E-04;  1.0000775E+03;  4.0000001E-01;  6.4195709E+01;3; -3.6487570E+00;  0.0000000E+00;  1.7298409E-01;0; -5.4045800E-02;  1.0001611E+04;  0.0000000E+00; -3.8769579E-04;  1.0000000E+04;  0.0000000E+00;  9.9999424E+03; -5.5964246E-02;  0.0000000E+00;  1.9184455E-03;  3.2558929E+01;
  1.1999334E-01;  9.9999998E-03;  2.4000058E-01;1242; -5.5253869E-03;  0.0000000E+00;  3.9410143E-04;  1.0000739E+03;  4.0000001E-01;  6.1232826E+01;3; -3.4675634E+00;  0.0000000E+00;  1.9799733E-01;0; -5.1515758E-02;  1.0001508E+04;  0.0000000E+00; -1.9524531E-03;  1.0000000E+04;  0.0000000E+00;  9.9999707E+03; -5.2536801E-02;  0.0000000E+00;  1.0210430E-03;  2.1505199E+01;
  1.1999409E-01;  9.9999998E-03;  2.6000065E-01;1243; -4.8958636E-03;  0.0000000E+00;  4.3960407E-04;  1.0000690E+03;  4.0000001E-01;  5.7183559E+01;3; -3.2208791E+00;  0.0000000E+00;  2.3072171E-01;0; -4.7820088E-02;  1.0001361E+04;  0.0000000E+00; -5.6360969E-03;  1.0000000E+04;  0.0000000E+00;  1.0000013E+04; -4.7456451E-02;  0.0000000E+00; -3.6363560E-04;  2.8659819E+01;
  1.1999509E-01;  9.9999998E-03;  2.8000069E-01;1244; -4.0603406E-03;  0.0000000E+00;  4.8214197E-04;  1.0000613E+03;  4.0000001E-01;  5.0763988E+01;3; -2.8678243E+00;  0.0000000E+00;  2.7979136E-01;0; -4.2658307E-02;  1.0001164E+04;  0.0000000E+00; -1.1224680E-02;  1.0000000E+04;  0.0000000E+00;  1.0000063E+04; -4.0654898E-02;  0.0000000E+00; -2.0034090E-03;  6.2205021E+01;
  1.1999636E-01;  9.9999998E-03;  3.0000082E-01;1245; -2.9905171E-03;  0.0000000E+00;  5.9796643E-04;  1.0000515E+03;  4.0000001E-01;  4.2665455E+01;3; -2.3019619E+00;  0.0000000E+00;  4.1217184E-01;0; -3.5741072E-02;  1.0000924E+04;  0.0000000E+00; -1.6403522E-02;  1.0000000E+04;  0.0000000E+00;  1.0000106E+04; -3.2373875E-02;  0.0000000E+00; -3.3671972E-03;  9.4485809E+01;
  1.3999048E-01;  9.9999998E-03;  1.6000029E-01;1269; -7.7447169E-03;  0.0000000E+00;  1.8615539E-04;  1.0000966E+03;  4.0000001E-01;  7.9997726E+01;3; -4.6015487E+00;  0.0000000E+00;  9.2951238E-02;0; -6.5350957E-02;  1.0002013E+04;  0.0000000E+00; -8.4665635E-09;  1.0000000E+04;  0.0000000E+00;  9.9999189E+03; -6.7774102E-02;  0.0000000E+00;  2.4231472E-03;  4.3974003E+01;
  1.3999055E-01;  9.9999998E-03;  1.8000038E-01;1270; -7.6928250E-03;  0.0000000E+00;  2.3837519E-04;  1.0000964E+03;  4.0000001E-01;  7.9800201E+01;3; -4.5654659E+00;  0.0000000E+00;  1.1497521E-01;0; -6.5269679E-02;  1.0002013E+04;  0.0000000E+00; -4.5564766E-06;  1.0000000E+04;  0.0000000E+00;  9.9999150E+03; -6.7859747E-02;  0.0000000E+00;  2.5900654E-03;  4.6588375E+01;
  1.3999073E-01;  9.9999998E-03;  2.0000046E-01;1271; -7.5448509E-03;  0.0000000E+00;  2.9209038E-04;  1.0000952E+03;  4.0000001E-01;  7.8812576E+01;3; -4.4825702E+00;  0.0000000E+00;  1.3545054E-01;0; -6.4656787E-02;  1.0001988E+04;  0.0000000E+00; -2.0939056E-04;  1.0000000E+04;  0.0000000E+00;  9.9999150E+03; -6.7235760E-02;  0.0000000E+00;  2.5789717E-03;  4.6199604E+01;
  1.3999109E-01;  9.9999998E-03;  2.2000055E-01;1272; -7.2528515E-03;  0.0000000E+00;  3.4977667E-04;  1.0000933E+03;  4.0000001E-01;  7.7331131E+01;3; -4.3464789E+00;  0.0000000E+00;  1.5904689E-01;0; -6.3432552E-02;  1.0001938E+04;  0.0000000E+00; -1.6799062E-03;  1.0000000E+04;  0.0000000E+00;  9.9999287E+03; -6.5640226E-02;  0.0000000E+00;  2.2076762E-03;  4.0922211E+01;
  1.3999169E-01;  9.9999998E-03;  2.4000062E-01;1273; -6.7721042E-03;  0.0000000E+00;  3.9494925E-04;  1.0000905E+03;  4.0000001E-01;  7.4960831E+01;3; -4.1597128E+00;  0.0000000E+00;  1.7841351E-01;0; -6.1542079E-02;  1.0001851E+04;  0.0000000E+00; -6.8205642E-03;  1.0000000E+04;  0.0000000E+00;  9.9999600E+03; -6.2838264E-02;  0.0000000E+00;  1.2961851E-03;  4.3129417E+01;
  1.3999256E-01;  9.9999998E-03;  2.6000071E-01;1274; -6.0488805E-03;  0.0000000E+00;  4.5300281E-04;  1.0000863E+03;  4.0000001E-01;  7.1504143E+01;3; -3.8983321E+00;  0.0000000E+00;  2.1686530E-01;0; -5.8758669E-02;  1.0001720E+04;  0.0000000E+00; -1.8069528E-02;  1.0000000E+04;  0.0000000E+00;  1.0000010E+04; -5.8552444E-02;  0.0000000E+00; -2.0622637E-04;  9.2039337E+01;
  1.3999374E-01;  9.9999998E-03;  2.8000081E-01;1275; -5.0721555E-03;  0.0000000E+00;  5.1972998E-04;  1.0000801E+03;  4.0000001E-01;  6.6368484E+01;3; -3.5159380E+00;  0.0000000E+00;  2.8272700E-01;0; -5.4498438E-02;  1.0001533E+04;  0.0000000E+00; -3.4672290E-02;  1.0000000E+04;  0.0000000E+00;  1.0000070E+04; -5.2432191E-02;  0.0000000E+00; -2.0662472E-03;  1.7830724E+02;
  1.3999531E-01;  9.9999998E-03;  3.0000100E-01;1276; -3.7831035E-03;  0.0000000E+00;  6.9688435E-04;  1.0000700E+03;  4.0000001E-01;  5.7973660E+01;3; -2.8634887E+00;  0.0000000E+00;  4.6771955E-01;0; -4.7608230E-02;  1.0001280E+04;  0.0000000E+00; -4.9355023E-02;  1.0000000E+04;  0.0000000E+00;  1.0000120E+04; -4.4001833E-02;  0.0000000E+00; -3.6063991E-03;  2.5581015E+02;
  1.5998840E-01;  9.9999998E-03;  1.6000035E-01;1300; -9.2456667E-03;  0.0000000E+00;  2.1427081E-04;  1.0001140E+03;  4.0000001E-01;  9.4417068E+01;3; -5.3749728E+00;  0.0000000E+00;  1.0637672E-01;0; -7.5052992E-02;  1.0002373E+04;  0.0000000E+00; -9.9842890E-09;  1.0000000E+04;  0.0000000E+00;  9.9999033E+03; -7.7837884E-02;  0.0000000E+00;  2.7848927E-03;  5.3081520E+01;
  1.5998846E-01;  9.9999998E-03;  1.8000044E-01;1301; -9.2115263E-03;  0.0000000E+00;  2.6687921E-04;  1.0001138E+03;  4.0000001E-01;  9.4219543E+01;3; -5.3468366E+00;  0.0000000E+00;  1.2449252E-01;0; -7.5270846E-02;  1.0002381E+04;  0.0000000E+00; -3.9369588E-05;  1.0000000E+04;  0.0000000E+00;  9.9998965E+03; -7.8262202E-02;  0.0000000E+00;  2.9913555E-03;  5.6860973E+01;
  1.5998864E-01;  9.9999998E-03;  2.0000052E-01;1302; -9.0695405E-03;  0.0000000E+00;  3.2092998E-04;  1.0001135E+03;  4.0000001E-01;  9.4022018E+01;3; -5.2681222E+00;  0.0000000E+00;  1.4127000E-01;0; -7.5062893E-02;  1.0002373E+04;  0.0000000E+00; -7.1355252E-04;  1.0000000E+04;  0.0000000E+00;  9.9998926E+03; -7.8117453E-02;  0.0000000E+00;  3.0545583E-03;  5.7951324E+01;
  1.5998903E-01;  9.9999998E-03;  2.2000062E-01;1303; -8.7624248E-03;  0.0000000E+00;  3.7788201E-04;  1.0001124E+03;  4.0000001E-01;  9.3133156E+01;3; -5.1339250E+00;  0.0000000E+00;  1.5923631E-01;0; -7.4560180E-02;  1.0002344E+04;  0.0000000E+00; -4.4920924E-03;  1.0000000E+04;  0.0000000E+00;  9.9999033E+03; -7.7304453E-02;  0.0000000E+00;  2.7442758E-03;  5.7229496E+01;
  1.5998968E-01;  9.9999998E-03;  2.4000071E-01;1304; -8.2334513E-03;  0.0000000E+00;  4.2380404E-04;  1.0001114E+03;  4.0000001E-01;  9.2244293E+01;3; -4.9456611E+00;  0.0000000E+00;  1.7550695E-01;0; -7.3967069E-02;  1.0002286E+04;  0.0000000E+00; -1.6563009E-02;  1.0000000E+04;  0.0000000E+00;  9.9999385E+03; -7.5757116E-02;  0.0000000E+00;  1.7900493E-03;  9.2223335E+01;
  1.5999068E-01;  9.9999998E-03;  2.6000080E-01;1305; -7.4189040E-03;  0.0000000E+00;  4.9039844E-04;  1.0001098E+03;  4.0000001E-01;  9.0960373E+01;3; -4.6780567E+00;  0.0000000E+00;  2.2037005E-01;0; -7.3191009E-02;  1.0002200E+04;  0.0000000E+00; -4.2537302E-02;  1.0000000E+04;  0.0000000E+00;  9.9999980E+03; -7.3259592E-02;  0.0000000E+00;  6.8585854E-05;  2.1734998E+02;
  1.5999208E-01;  9.9999998E-03;  2.8000093E-01;1306; -6.2960992E-03;  0.0000000E+00;  5.8345433E-04;  1.0001069E+03;  4.0000001E-01;  8.8590073E+01;3; -4.2792406E+00;  0.0000000E+00;  3.0194569E-01;0; -7.1309239E-02;  1.0002060E+04;  0.0000000E+00; -8.1243187E-02;  1.0000000E+04;  0.0000000E+00;  1.0000073E+04; -6.9144487E-02;  0.0000000E+00; -2.1647513E-03;  4.1529126E+02;
  1.5999395E-01;  9.9999998E-03;  3.0000120E-01;1307; -4.7865841E-03;  0.0000000E+00;  8.1583677E-04;  1.0000981E+03;  4.0000001E-01;  8.1281639E+01;3; -3.5609059E+00;  0.0000000E+00;  5.3365231E-01;0; -6.5719448E-02;  1.0001828E+04;  0.0000000E+00; -1.1657451E-01;  1.0000000E+04;  0.0000000E+00;  1.0000136E+04; -6.1762400E-02;  0.0000000E+00; -3.9570499E-03;  5.9686469E+02;
  1.7998596E-01;  9.9999998E-03;  1.6000044E-01;1331; -1.0967034E-02;  0.0000000E+00;  2.7757819E-04;  1.0001339E+03;  4.0000001E-01;  1.1091042E+02;3; -6.2309933E+00;  0.0000000E+00;  1.4358729E-01;0; -8.5945569E-02;  1.0002799E+04;  0.0000000E+00; -3.5660707E-07;  1.0000000E+04;  0.0000000E+00;  9.9998770E+03; -8.9386173E-02;  0.0000000E+00;  3.4406062E-03;  6.6963417E+01;
  1.7998599E-01;  9.9999998E-03;  1.8000054E-01;1332; -1.0958004E-02;  0.0000000E+00;  3.3523352E-04;  1.0001343E+03;  4.0000001E-01;  1.1130548E+02;3; -6.2133369E+00;  0.0000000E+00;  1.6028020E-01;0; -8.6493418E-02;  1.0002822E+04;  0.0000000E+00; -1.1698691E-04;  1.0000000E+04;  0.0000000E+00;  9.9998643E+03; -9.0242304E-02;  0.0000000E+00;  3.7488891E-03;  7.3152939E+01;
  1.7998615E-01;  9.9999998E-03;  2.0000064E-01;1333; -1.0830495E-02;  0.0000000E+00;  3.9289275E-04;  1.0001344E+03;  4.0000001E-01;  1.1130548E+02;3; -6.1431870E+00;  0.0000000E+00;  1.7387614E-01;0; -8.6792700E-02;  1.0002830E+04;  0.0000000E+00; -1.5337094E-03;  1.0000000E+04;  0.0000000E+00;  9.9998564E+03; -9.0748727E-02;  0.0000000E+00;  3.9560287E-03;  7.7337341E+01;
  1.7998655E-01;  9.9999998E-03;  2.2000076E-01;1334; -1.0517597E-02;  0.0000000E+00;  4.4791010E-04;  1.0001347E+03;  4.0000001E-01;  1.1160177E+02;3; -6.0164185E+00;  0.0000000E+00;  1.8608844E-01;0; -8.7260678E-02;  1.0002832E+04;  0.0000000E+00; -8.6279819E-03;  1.0000000E+04;  0.0000000E+00;  9.9998643E+03; -9.1009676E-02;  0.0000000E+00;  3.7489946E-03;  8.5667282E+01;
  1.7998727E-01;  9.9999998E-03;  2.4000086E-01;1335; -9.9405171E-03;  0.0000000E+00;  4.9846026E-04;  1.0001360E+03;  4.0000001E-01;  1.1268816E+02;3; -5.8292685E+00;  0.0000000E+00;  2.0156527E-01;0; -8.8493407E-02;  1.0002821E+04;  0.0000000E+00; -3.0544242E-02;  1.0000000E+04;  0.0000000E+00;  9.9998994E+03; -9.1209903E-02;  0.0000000E+00;  2.7164929E-03;  1.6627805E+02;
  1.7998841E-01;  9.9999998E-03;  2.6000097E-01;1336; -9.0390788E-03;  0.0000000E+00;  5.6090596E-04;  1.0001389E+03;  4.0000001E-01;  1.1505846E+02;3; -5.5719175E+00;  0.0000000E+00;  2.3962212E-01;0; -9.0749979E-02;  1.0002805E+04;  0.0000000E+00; -7.8129441E-02;  1.0000000E+04;  0.0000000E+00;  9.9999766E+03; -9.1349915E-02;  0.0000000E+00;  5.9993565E-04;  4.0061023E+02;
  1.7999001E-01;  9.9999998E-03;  2.8000110E-01;1337; -7.7802865E-03;  0.0000000E+00;  6.6015415E-04;  1.0001414E+03;  4.0000001E-01;  1.1713247E+02;3; -5.1795926E+00;  0.0000000E+00;  3.2427263E-01;0; -9.2944011E-02;  1.0002753E+04;  0.0000000E+00; -1.5139805E-01;  1.0000000E+04;  0.0000000E+00;  1.0000076E+04; -9.0625569E-02;  0.0000000E+00; -2.3184395E-03;  7.7510223E+02;
  1.7999215E-01;  9.9999998E-03;  3.0000138E-01;1338; -6.0988441E-03;  0.0000000E+00;  8.8171609E-04;  1.0001378E+03;  4.0000001E-01;  1.1416959E+02;3; -4.4633102E+00;  0.0000000E+00;  5.4242420E-01;0; -9.0853617E-02;  1.0002589E+04;  0.0000000E+00; -2.2213548E-01;  1.0000000E+04;  0.0000000E+00;  1.0000166E+04; -8.6136177E-02;  0.0000000E+00; -4.7174357E-03;  1.1377827E+03;
  1.9998308E-01;  9.9999998E-03;  1.6000059E-01;1362; -1.2936207E-02;  0.0000000E+00;  3.9028982E-04;  1.0001569E+03;  4.0000001E-01;  1.2997162E+02;3; -7.1742997E+00;  0.0000000E+00;  2.1375768E-01;0; -9.8025337E-02;  1.0003304E+04;  0.0000000E+00; -1.4851593E-06;  1.0000000E+04;  0.0000000E+00;  9.9998359E+03; -1.0257135E-01;  0.0000000E+00;  4.5460071E-03;  8.7908997E+01;
  1.9998305E-01;  9.9999998E-03;  1.8000072E-01;1363; -1.2959522E-02;  0.0000000E+00;  4.6128471E-04;  1.0001578E+03;  4.0000001E-01;  1.3076172E+02;3; -7.1689067E+00;  0.0000000E+00;  2.3299931E-01;0; -9.8879077E-02;  1.0003344E+04;  0.0000000E+00; -2.0245300E-04;  1.0000000E+04;  0.0000000E+00;  9.9998145E+03; -1.0393702E-01;  0.0000000E+00;  5.0579449E-03;  9.8466476E+01;
  1.9998319E-01;  9.9999998E-03;  2.0000085E-01;1364; -1.2856719E-02;  0.0000000E+00;  5.2608590E-04;  1.0001584E+03;  4.0000001E-01;  1.3125552E+02;3; -7.1111722E+00;  0.0000000E+00;  2.4501893E-01;0; -9.9664152E-02;  1.0003372E+04;  0.0000000E+00; -2.3460712E-03;  1.0000000E+04;  0.0000000E+00;  9.9997930E+03; -1.0518305E-01;  0.0000000E+00;  5.5188951E-03;  1.0794338E+02;
  1.9998360E-01;  9.9999998E-03;  2.2000098E-01;1365; -1.2544934E-02;  0.0000000E+00;  5.8558042E-04;  1.0001598E+03;  4.0000001E-01;  1.3234192E+02;3; -6.9967461E+00;  0.0000000E+00;  2.5175983E-01;0; -1.0108227E-01;  1.0003405E+04;  0.0000000E+00; -1.2610343E-02;  1.0000000E+04;  0.0000000E+00;  9.9997920E+03; -1.0658564E-01;  0.0000000E+00;  5.5033802E-03;  1.2557231E+02;
  1.9998437E-01;  9.9999998E-03;  2.4000108E-01;1366; -1.1936259E-02;  0.0000000E+00;  6.2149682E-04;  1.0001639E+03;  4.0000001E-01;  1.3579861E+02;3; -6.8287468E+00;  0.0000000E+00;  2.5268352E-01;0; -1.0419416E-01;  1.0003446E+04;  0.0000000E+00; -4.4161152E-02;  1.0000000E+04;  0.0000000E+00;  9.9998359E+03; -1.0856865E-01;  0.0000000E+00;  4.3744948E-03;  2.4391119E+02;
  1.9998564E-01;  9.9999998E-03;  2.6000118E-01;1367; -1.0960437E-02;  0.0000000E+00;  6.6172454E-04;  1.0001716E+03;  4.0000001E-01;  1.4211942E+02;3; -6.5987253E+00;  0.0000000E+00;  2.7264786E-01;0; -1.0982282E-01;  1.0003504E+04;  0.0000000E+00; -1.1400736E-01;  1.0000000E+04;  0.0000000E+00;  9.9999297E+03; -1.1141732E-01;  0.0000000E+00;  1.5945022E-03;  5.8728394E+02;
  1.9998740E-01;  9.9999998E-03;  2.8000131E-01;1368; -9.6002277E-03;  0.0000000E+00;  7.3597668E-04;  1.0001815E+03;  4.0000001E-01;  1.5031671E+02;3; -6.2576437E+00;  0.0000000E+00;  3.3898640E-01;0; -1.1705916E-01;  1.0003555E+04;  0.0000000E+00; -2.2516765E-01;  1.0000000E+04;  0.0000000E+00;  1.0000077E+04; -1.1445051E-01;  0.0000000E+00; -2.6086494E-03;  1.1562776E+03;
  1.9998977E-01;  9.9999998E-03;  3.0000150E-01;1369; -7.8148777E-03;  0.0000000E+00;  8.8324241E-04;  1.0001854E+03;  4.0000001E-01;  1.5357588E+02;3; -5.6377802E+00;  0.0000000E+00;  4.7910118E-01;0; -1.2055771E-01;  1.0003490E+04;  0.0000000E+00; -3.3611849E-01;  1.0000000E+04;  0.0000000E+00;  1.0000216E+04; -1.1403731E-01;  0.0000000E+00; -6.5204049E-03;  1.7272920E+03;
  2.1997967E-01;  9.9999998E-03;  1.6000080E-01;1393; -1.5185112E-02;  0.0000000E+00;  5.6275964E-04;  1.0001832E+03;  4.0000001E-01;  1.5179816E+02;3; -8.2107410E+00;  0.0000000E+00;  3.2295504E-01;0; -1.1128590E-01;  1.0003891E+04;  0.0000000E+00; -1.6318990E-06;  1.0000000E+04;  0.0000000E+00;  9.9997734E+03; -1.1753234E-01;  0.0000000E+00;  6.2464494E-03;  1.1820406E+02;
  2.1997960E-01;  9.9999998E-03;  1.8000098E-01;1394; -1.5247645E-02;  0.0000000E+00;  6.5914087E-04;  1.0001843E+03;  4.0000001E-01;  1.5268701E+02;3; -8.2184687E+00;  0.0000000E+00;  3.5075787E-01;0; -1.1236012E-01;  1.0003947E+04;  0.0000000E+00; -2.2802975E-04;  1.0000000E+04;  0.0000000E+00;  9.9997402E+03; -1.1945096E-01;  0.0000000E+00;  7.0908470E-03;  1.3565085E+02;
  2.1997970E-01;  9.9999998E-03;  2.0000115E-01;1395; -1.5179371E-02;  0.0000000E+00;  7.3791790E-04;  1.0001853E+03;  4.0000001E-01;  1.5347711E+02;3; -8.1762533E+00;  0.0000000E+00;  3.6352062E-01;0; -1.1346375E-01;  1.0004003E+04;  0.0000000E+00; -2.6495289E-03;  1.0000000E+04;  0.0000000E+00;  9.9997031E+03; -1.2141416E-01;  0.0000000E+00;  7.9504093E-03;  1.5299997E+02;
  2.1998009E-01;  9.9999998E-03;  2.2000131E-01;1396; -1.4886065E-02;  0.0000000E+00;  8.0256967E-04;  1.0001876E+03;  4.0000001E-01;  1.5535361E+02;3; -8.0848656E+00;  0.0000000E+00;  3.6233413E-01;0; -1.1549083E-01;  1.0004065E+04;  0.0000000E+00; -1.4275512E-02;  1.0000000E+04;  0.0000000E+00;  9.9996855E+03; -1.2376416E-01;  0.0000000E+00;  8.2733305E-03;  1.7578078E+02;
  2.1998090E-01;  9.9999998E-03;  2.4000143E-01;1397; -1.4266635E-02;  0.0000000E+00;  8.3260465E-04;  1.0001932E+03;  4.0000001E-01;  1.6009421E+02;3; -7.9503598E+00;  0.0000000E+00;  3.5539210E-01;0; -1.1988807E-01;  1.0004143E+04;  0.0000000E+00; -5.0492879E-02;  1.0000000E+04;  0.0000000E+00;  9.9997236E+03; -1.2701592E-01;  0.0000000E+00;  7.1278503E-03;  2.9690442E+02;
  2.1998225E-01;  9.9999998E-03;  2.6000157E-01;1398; -1.3230005E-02;  0.0000000E+00;  8.8385300E-04;  1.0002046E+03;  4.0000001E-01;  1.6947667E+02;3; -7.7715855E+00;  0.0000000E+00;  3.7234545E-01;0; -1.2799752E-01;  1.0004245E+04;  0.0000000E+00; -1.3259096E-01;  1.0000000E+04;  0.0000000E+00;  9.9998447E+03; -1.3157272E-01;  0.0000000E+00;  3.5752025E-03;  6.8897736E+02;
  2.1998419E-01;  9.9999998E-03;  2.8000179E-01;1399; -1.1789783E-02;  0.0000000E+00;  1.0001130E-03;  1.0002199E+03;  4.0000001E-01;  1.8221704E+02;3; -7.5230803E+00;  0.0000000E+00;  4.5663261E-01;0; -1.3902608E-01;  1.0004356E+04;  0.0000000E+00; -2.6662728E-01;  1.0000000E+04;  0.0000000E+00;  1.0000039E+04; -1.3683893E-01;  0.0000000E+00; -2.1871515E-03;  1.3741210E+03;
  2.1998690E-01;  9.9999998E-03;  3.0000234E-01;1400; -9.8016812E-03;  0.0000000E+00;  1.3286467E-03;  1.0002267E+03;  4.0000001E-01;  1.8784651E+02;3; -6.9580097E+00;  0.0000000E+00;  7.0611763E-01;0; -1.4490400E-01;  1.0004333E+04;  0.0000000E+00; -4.0607330E-01;  1.0000000E+04;  0.0000000E+00;  1.0000195E+04; -1.3833719E-01;  0.0000000E+00; -6.5668020E-03;  2.0942009E+03;
  2.3997568E-01;  9.9999998E-03;  1.6000110E-01;1424; -1.7749805E-02;  0.0000000E+00;  8.0403429E-04;  1.0002130E+03;  4.0000001E-01;  1.7648882E+02;3; -9.3469896E+00;  0.0000000E+00;  4.7632623E-01;0; -1.2576216E-01;  1.0004573E+04;  0.0000000E+00; -4.5048253E-07;  1.0000000E+04;  0.0000000E+00;  9.9996924E+03; -1.3439643E-01;  0.0000000E+00;  8.6342627E-03;  1.5958572E+02;
  2.3997554E-01;  9.9999998E-03;  1.8000133E-01;1425; -1.7860744E-02;  0.0000000E+00;  9.3625626E-04;  1.0002142E+03;  4.0000001E-01;  1.7747644E+02;3; -9.3689718E+00;  0.0000000E+00;  5.1594073E-01;0; -1.2693977E-01;  1.0004653E+04;  0.0000000E+00; -1.6537655E-04;  1.0000000E+04;  0.0000000E+00;  9.9996299E+03; -1.3687530E-01;  0.0000000E+00;  9.9355280E-03;  1.8660619E+02;
  2.3997557E-01;  9.9999998E-03;  2.0000158E-01;1426; -1.7836226E-02;  0.0000000E+00;  1.0572489E-03;  1.0002151E+03;  4.0000001E-01;  1.7826654E+02;3; -9.3437357E+00;  0.0000000E+00;  5.4365849E-01;0; -1.2811852E-01;  1.0004734E+04;  0.0000000E+00; -2.1956479E-03;  1.0000000E+04;  0.0000000E+00;  9.9995732E+03; -1.3945931E-01;  0.0000000E+00;  1.1340796E-02;  2.1473712E+02;
  2.3997591E-01;  9.9999998E-03;  2.2000183E-01;1427; -1.7581834E-02;  0.0000000E+00;  1.1649671E-03;  1.0002174E+03;  4.0000001E-01;  1.8014302E+02;3; -9.2852573E+00;  0.0000000E+00;  5.5640203E-01;0; -1.3021448E-01;  1.0004816E+04;  0.0000000E+00; -1.2467634E-02;  1.0000000E+04;  0.0000000E+00;  9.9995342E+03; -1.4242803E-01;  0.0000000E+00;  1.2213537E-02;  2.4156944E+02;
  2.3997670E-01;  9.9999998E-03;  2.4000208E-01;1428; -1.6984733E-02;  0.0000000E+00;  1.2702453E-03;  1.0002234E+03;  4.0000001E-01;  1.8508116E+02;3; -9.2082739E+00;  0.0000000E+00;  5.8601153E-01;0; -1.3476487E-01;  1.0004911E+04;  0.0000000E+00; -4.5517217E-02;  1.0000000E+04;  0.0000000E+00;  9.9995557E+03; -1.4620389E-01;  0.0000000E+00;  1.1439024E-02;  3.2492963E+02;
  2.3997813E-01;  9.9999998E-03;  2.6000252E-01;1429; -1.5920097E-02;  0.0000000E+00;  1.5221169E-03;  1.0002344E+03;  4.0000001E-01;  1.9416731E+02;3; -9.1108751E+00;  0.0000000E+00;  7.2074485E-01;0; -1.4285502E-01;  1.0005026E+04;  0.0000000E+00; -1.2285712E-01;  1.0000000E+04;  0.0000000E+00;  9.9996641E+03; -1.5107694E-01;  0.0000000E+00;  8.2219271E-03;  6.5887262E+02;
  2.3998018E-01;  9.9999998E-03;  2.8000334E-01;1430; -1.4428082E-02;  0.0000000E+00;  2.0491916E-03;  1.0002474E+03;  4.0000001E-01;  2.0503120E+02;3; -8.9865370E+00;  0.0000000E+00;  1.0843153E+00;0; -1.5204024E-01;  1.0005134E+04;  0.0000000E+00; -2.5337851E-01;  1.0000000E+04;  0.0000000E+00;  9.9998135E+03; -1.5638906E-01;  0.0000000E+00;  4.3488173E-03;  1.3150563E+03;
  2.3998313E-01;  9.9999998E-03;  3.0000490E-01;1431; -1.2304785E-02;  0.0000000E+00;  3.0678029E-03;  1.0002435E+03;  4.0000001E-01;  2.0177203E+02;3; -8.5321493E+00;  0.0000000E+00;  1.8350277E+00;0; -1.5082566E-01;  1.0005100E+04;  0.0000000E+00; -3.9779288E-01;  1.0000000E+04;  0.0000000E+00;  9.9997744E+03; -1.5774795E-01;  0.0000000E+00;  6.9222860E-03;  2.0611558E+03;
  2.5997099E-01;  9.9999998E-03;  1.6000147E-01;1455; -2.0672187E-02;  0.0000000E+00;  1.1177794E-03;  1.0002471E+03;  4.0000001E-01;  2.0473491E+02;3; -1.0591493E+01;  0.0000000E+00;  6.7460561E-01;0; -1.4155914E-01;  1.0005362E+04;  0.0000000E+00;  7.9973459E-09;  1.0000000E+04;  0.0000000E+00;  9.9995811E+03; -1.5327950E-01;  0.0000000E+00;  1.1720365E-02;  2.1284798E+02;
  2.5997075E-01;  9.9999998E-03;  1.8000183E-01;1456; -2.0841541E-02;  0.0000000E+00;  1.3107315E-03;  1.0002484E+03;  4.0000001E-01;  2.0572253E+02;3; -1.0628242E+01;  0.0000000E+00;  7.3850715E-01;0; -1.4273985E-01;  1.0005467E+04;  0.0000000E+00; -6.7630863E-05;  1.0000000E+04;  0.0000000E+00;  9.9994980E+03; -1.5629680E-01;  0.0000000E+00;  1.3556951E-02;  2.5174712E+02;
  2.5997069E-01;  9.9999998E-03;  2.0000219E-01;1457; -2.0874692E-02;  0.0000000E+00;  1.5159079E-03;  1.0002490E+03;  4.0000001E-01;  2.0621634E+02;3; -1.0623324E+01;  0.0000000E+00;  8.0505651E-01;0; -1.4379436E-01;  1.0005571E+04;  0.0000000E+00; -1.2720551E-03;  1.0000000E+04;  0.0000000E+00;  9.9994082E+03; -1.5939125E-01;  0.0000000E+00;  1.5596893E-02;  2.9328473E+02;
  2.5997096E-01;  9.9999998E-03;  2.2000264E-01;1458; -2.0684848E-02;  0.0000000E+00;  1.7333989E-03;  1.0002503E+03;  4.0000001E-01;  2.0740149E+02;3; -1.0608139E+01;  0.0000000E+00;  8.6371940E-01;0; -1.4546911E-01;  1.0005673E+04;  0.0000000E+00; -8.1916591E-03;  1.0000000E+04;  0.0000000E+00;  9.9993369E+03; -1.6269645E-01;  0.0000000E+00;  1.7227337E-02;  3.2960730E+02;
  2.5997165E-01;  9.9999998E-03;  2.4000314E-01;1459; -2.0159569E-02;  0.0000000E+00;  2.0016592E-03;  1.0002544E+03;  4.0000001E-01;  2.1075943E+02;3; -1.0620138E+01;  0.0000000E+00;  9.7861385E-01;0; -1.4901933E-01;  1.0005771E+04;  0.0000000E+00; -3.1837687E-02;  1.0000000E+04;  0.0000000E+00;  9.9993213E+03; -1.6644357E-01;  0.0000000E+00;  1.7424248E-02;  3.7362830E+02;
  2.5997302E-01;  9.9999998E-03;  2.6000401E-01;1460; -1.9170005E-02;  0.0000000E+00;  2.5288332E-03;  1.0002621E+03;  4.0000001E-01;  2.1717900E+02;3; -1.0676952E+01;  0.0000000E+00;  1.2785649E+00;0; -1.5469655E-01;  1.0005872E+04;  0.0000000E+00; -8.9468770E-02;  1.0000000E+04;  0.0000000E+00;  9.9993711E+03; -1.7076014E-01;  0.0000000E+00;  1.6063582E-02;  5.5920544E+02;
  2.5997505E-01;  9.9999998E-03;  2.8000554E-01;1461; -1.7703973E-02;  0.0000000E+00;  3.4894631E-03;  1.0002667E+03;  4.0000001E-01;  2.2093198E+02;3; -1.0747791E+01;  0.0000000E+00;  1.9111094E+00;0; -1.5814120E-01;  1.0005950E+04;  0.0000000E+00; -1.8955770E-01;  1.0000000E+04;  0.0000000E+00;  9.9993818E+03; -1.7506078E-01;  0.0000000E+00;  1.6919587E-02;  1.0311383E+03;
  2.5997797E-01;  9.9999998E-03;  3.0000767E-01;1462; -1.5642835E-02;  0.0000000E+00;  4.7778101E-03;  1.0002527E+03;  4.0000001E-01;  2.0937674E+02;3; -1.0581421E+01;  0.0000000E+00;  2.8464813E+00;0; -1.5123335E-01;  1.0005905E+04;  0.0000000E+00; -3.0170810E-01;  1.0000000E+04;  0.0000000E+00;  9.9991494E+03; -1.7627718E-01;  0.0000000E+00;  2.5043838E-02;  1.6200641E+03;
  2.7996549E-01;  9.9999998E-03;  1.6000195E-01;1486; -2.3997081E-02;  0.0000000E+00;  1.5085103E-03;  1.0002861E+03;  4.0000001E-01;  2.3703027E+02;3; -1.1951761E+01;  0.0000000E+00;  9.1991490E-01;0; -1.5885675E-01;  1.0006273E+04;  0.0000000E+00; -2.7053997E-09;  1.0000000E+04;  0.0000000E+00;  9.9994473E+03; -1.7429419E-01;  0.0000000E+00;  1.5437439E-02;  2.7781644E+02;
  2.7996513E-01;  9.9999998E-03;  1.8000244E-01;1487; -2.4236495E-02;  0.0000000E+00;  1.7873334E-03;  1.0002870E+03;  4.0000001E-01;  2.3772162E+02;3; -1.2002894E+01;  0.0000000E+00;  1.0194104E+00;0; -1.5998799E-01;  1.0006406E+04;  0.0000000E+00; -8.8588658E-06;  1.0000000E+04;  0.0000000E+00;  9.9993350E+03; -1.7780119E-01;  0.0000000E+00;  1.7813213E-02;  3.3014743E+02;
  2.7996495E-01;  9.9999998E-03;  2.0000300E-01;1488; -2.4343206E-02;  0.0000000E+00;  2.1039771E-03;  1.0002874E+03;  4.0000001E-01;  2.3801790E+02;3; -1.2021662E+01;  0.0000000E+00;  1.1303091E+00;0; -1.6084999E-01;  1.0006529E+04;  0.0000000E+00; -4.5209230E-04;  1.0000000E+04;  0.0000000E+00;  9.9992148E+03; -1.8130952E-01;  0.0000000E+00;  2.0459533E-02;  3.8638925E+02;
  2.7996510E-01;  9.9999998E-03;  2.2000366E-01;1489; -2.4235444E-02;  0.0000000E+00;  2.4671522E-03;  1.0002878E+03;  4.0000001E-01;  2.3851172E+02;3; -1.2052813E+01;  0.0000000E+00;  1.2600499E+00;0; -1.6192231E-01;  1.0006647E+04;  0.0000000E+00; -3.8046464E-03;  1.0000000E+04;  0.0000000E+00;  9.9991064E+03; -1.8479204E-01;  0.0000000E+00;  2.2869738E-02;  4.3743457E+02;
  2.7996564E-01;  9.9999998E-03;  2.4000451E-01;1490; -2.3815490E-02;  0.0000000E+00;  2.9354838E-03;  1.0002894E+03;  4.0000001E-01;  2.3979564E+02;3; -1.2174560E+01;  0.0000000E+00;  1.4620509E+00;0; -1.6396530E-01;  1.0006750E+04;  0.0000000E+00; -1.6669411E-02;  1.0000000E+04;  0.0000000E+00;  9.9990420E+03; -1.8829224E-01;  0.0000000E+00;  2.4326935E-02;  4.7570609E+02;
  2.7996686E-01;  9.9999998E-03;  2.6000577E-01;1491; -2.2954641E-02;  0.0000000E+00;  3.6765407E-03;  1.0002927E+03;  4.0000001E-01;  2.4256099E+02;3; -1.2425004E+01;  0.0000000E+00;  1.8773066E+00;0; -1.6659896E-01;  1.0006836E+04;  0.0000000E+00; -4.9977925E-02;  1.0000000E+04;  0.0000000E+00;  9.9990186E+03; -1.9181636E-01;  0.0000000E+00;  2.5217401E-02;  5.4451727E+02;
  2.7996877E-01;  9.9999998E-03;  2.8000775E-01;1492; -2.1611180E-02;  0.0000000E+00;  4.8083654E-03;  1.0002896E+03;  4.0000001E-01;  2.3989439E+02;3; -1.2782895E+01;  0.0000000E+00;  2.5944555E+00;0; -1.6551657E-01;  1.0006889E+04;  0.0000000E+00; -1.0954142E-01;  1.0000000E+04;  0.0000000E+00;  9.9989053E+03; -1.9498551E-01;  0.0000000E+00;  2.9468942E-02;  7.7815204E+02;
  2.7997151E-01;  9.9999998E-03;  3.0001003E-01;1493; -1.9717442E-02;  0.0000000E+00;  6.0412544E-03;  1.0002728E+03;  4.0000001E-01;  2.2606763E+02;3; -1.3022386E+01;  0.0000000E+00;  3.5108633E+00;0; -1.5803739E-01;  1.0006847E+04;  0.0000000E+00; -1.7629150E-01;  1.0000000E+04;  0.0000000E+00;  9.9986113E+03; -1.9613126E-01;  0.0000000E+00;  3.8093865E-02;  1.1336180E+03;
  2.9995906E-01;  9.9999998E-03;  1.6000250E-01;1517; -2.7770806E-02;  0.0000000E+00;  1.9704653E-03;  1.0003302E+03;  4.0000001E-01;  2.7357242E+02;3; -1.3433542E+01;  0.0000000E+00;  1.2092432E+00;0; -1.7789301E-01;  1.0007320E+04;  0.0000000E+00; -1.6987391E-08;  1.0000000E+04;  0.0000000E+00;  9.9992910E+03; -1.9756787E-01;  0.0000000E+00;  1.9674858E-02;  3.5369342E+02;
  2.9995856E-01;  9.9999998E-03;  1.8000317E-01;1518; -2.8092973E-02;  0.0000000E+00;  2.3525148E-03;  1.0003314E+03;  4.0000001E-01;  2.7456003E+02;3; -1.3498366E+01;  0.0000000E+00;  1.3487095E+00;0; -1.7896564E-01;  1.0007480E+04;  0.0000000E+00;  7.3853172E-08;  1.0000000E+04;  0.0000000E+00;  9.9991475E+03; -2.0149186E-01;  0.0000000E+00;  2.2526214E-02;  4.2035791E+02;
  2.9995823E-01;  9.9999998E-03;  2.0000394E-01;1519; -2.8284905E-02;  0.0000000E+00;  2.7853891E-03;  1.0003312E+03;  4.0000001E-01;  2.7446127E+02;3; -1.3539725E+01;  0.0000000E+00;  1.4962164E+00;0; -1.7968246E-01;  1.0007630E+04;  0.0000000E+00; -6.7100918E-05;  1.0000000E+04;  0.0000000E+00;  9.9989990E+03; -2.0532145E-01;  0.0000000E+00;  2.5638981E-02;  4.9123120E+02;
  2.9995820E-01;  9.9999998E-03;  2.2000487E-01;1520; -2.8271109E-02;  0.0000000E+00;  3.2991099E-03;  1.0003309E+03;  4.0000001E-01;  2.7416498E+02;3; -1.3623044E+01;  0.0000000E+00;  1.6821685E+00;0; -1.8027924E-01;  1.0007763E+04;  0.0000000E+00; -1.0709193E-03;  1.0000000E+04;  0.0000000E+00;  9.9988604E+03; -2.0890348E-01;  0.0000000E+00;  2.8624231E-02;  5.5763715E+02;
  2.9995862E-01;  9.9999998E-03;  2.4000603E-01;1521; -2.7947223E-02;  0.0000000E+00;  3.9410475E-03;  1.0003309E+03;  4.0000001E-01;  2.7416498E+02;3; -1.3846481E+01;  0.0000000E+00;  1.9607421E+00;0; -1.8110125E-01;  1.0007872E+04;  0.0000000E+00; -6.0019228E-03;  1.0000000E+04;  0.0000000E+00;  9.9987490E+03; -2.1215379E-01;  0.0000000E+00;  3.1052539E-02;  6.0887665E+02;
  2.9995966E-01;  9.9999998E-03;  2.6000762E-01;1522; -2.7204966E-02;  0.0000000E+00;  4.8036417E-03;  1.0003308E+03;  4.0000001E-01;  2.7406622E+02;3; -1.4292233E+01;  0.0000000E+00;  2.4290960E+00;0; -1.8158983E-01;  1.0007953E+04;  0.0000000E+00; -2.0286595E-02;  1.0000000E+04;  0.0000000E+00;  9.9986680E+03; -2.1501343E-01;  0.0000000E+00;  3.3423606E-02;  6.5380164E+02;
  2.9996142E-01;  9.9999998E-03;  2.8000981E-01;1523; -2.5990479E-02;  0.0000000E+00;  5.9451740E-03;  1.0003246E+03;  4.0000001E-01;  2.6893057E+02;3; -1.4959866E+01;  0.0000000E+00;  3.1421161E+00;0; -1.7872459E-01;  1.0007991E+04;  0.0000000E+00; -4.7497891E-02;  1.0000000E+04;  0.0000000E+00;  9.9985010E+03; -2.1729887E-01;  0.0000000E+00;  3.8574286E-02;  7.6224530E+02;
  2.9996398E-01;  9.9999998E-03;  3.0001220E-01;1524; -2.4258180E-02;  0.0000000E+00;  7.1255621E-03;  1.0003087E+03;  4.0000001E-01;  2.5569638E+02;3; -1.5638365E+01;  0.0000000E+00;  4.0493069E+00;0; -1.7229544E-01;  1.0007962E+04;  0.0000000E+00; -7.8727238E-02;  1.0000000E+04;  0.0000000E+00;  9.9982129E+03; -2.1828468E-01;  0.0000000E+00;  4.5989241E-02;  9.4745795E+02;
  3.1995156E-01;  9.9999998E-03;  1.6000314E-01;1548; -3.2041661E-02;  0.0000000E+00;  2.4891365E-03;  1.0003812E+03;  4.0000001E-01;  3.1584280E+02;3; -1.5040001E+01;  0.0000000E+00;  1.5231053E+00;0; -1.9892585E-01;  1.0008517E+04;  0.0000000E+00; -2.2520863E-08;  1.0000000E+04;  0.0000000E+00;  9.9991133E+03; -2.2325437E-01;  0.0000000E+00;  2.4328507E-02;  4.3957993E+02;
  3.1995085E-01;  9.9999998E-03;  1.8000399E-01;1549; -3.2459389E-02;  0.0000000E+00;  2.9825985E-03;  1.0003822E+03;  4.0000001E-01;  3.1663290E+02;3; -1.5117569E+01;  0.0000000E+00;  1.6969085E+00;0; -1.9996257E-01;  1.0008706E+04;  0.0000000E+00;  5.5645772E-09;  1.0000000E+04;  0.0000000E+00;  9.9989434E+03; -2.2752152E-01;  0.0000000E+00;  2.7558958E-02;  5.2128345E+02;
  3.1995034E-01;  9.9999998E-03;  2.0000499E-01;1550; -3.2744043E-02;  0.0000000E+00;  3.5421306E-03;  1.0003822E+03;  4.0000001E-01;  3.1663290E+02;3; -1.5176460E+01;  0.0000000E+00;  1.8863744E+00;0; -2.0061162E-01;  1.0008884E+04;  0.0000000E+00;  1.2239902E-06;  1.0000000E+04;  0.0000000E+00;  9.9987627E+03; -2.3157568E-01;  0.0000000E+00;  3.0964058E-02;  6.0647137E+02;
  3.1995016E-01;  9.9999998E-03;  2.2000620E-01;1551; -3.2816846E-02;  0.0000000E+00;  4.1829292E-03;  1.0003813E+03;  4.0000001E-01;  3.1594156E+02;3; -1.5303266E+01;  0.0000000E+00;  2.1098378E+00;0; -2.0097429E-01;  1.0009038E+04;  0.0000000E+00; -1.0650035E-04;  1.0000000E+04;  0.0000000E+00;  9.9985918E+03; -2.3519440E-01;  0.0000000E+00;  3.4220114E-02;  6.8622424E+02;
  3.1995046E-01;  9.9999998E-03;  2.4000765E-01;1552; -3.2565009E-02;  0.0000000E+00;  4.9472768E-03;  1.0003804E+03;  4.0000001E-01;  3.1515146E+02;3; -1.5618402E+01;  0.0000000E+00;  2.4306200E+00;0; -2.0119673E-01;  1.0009157E+04;  0.0000000E+00; -1.1584837E-03;  1.0000000E+04;  0.0000000E+00;  9.9984541E+03; -2.3823424E-01;  0.0000000E+00;  3.7037499E-02;  7.5033765E+02;
  3.1995139E-01;  9.9999998E-03;  2.6000950E-01;1553; -3.1891786E-02;  0.0000000E+00;  5.8732112E-03;  1.0003791E+03;  4.0000001E-01;  3.1406506E+02;3; -1.6241503E+01;  0.0000000E+00;  2.9108214E+00;0; -2.0086013E-01;  1.0009240E+04;  0.0000000E+00; -5.1438194E-03;  1.0000000E+04;  0.0000000E+00;  9.9983467E+03; -2.4063416E-01;  0.0000000E+00;  3.9774027E-02;  8.0095477E+02;
  3.1995308E-01;  9.9999998E-03;  2.8001186E-01;1554; -3.0741423E-02;  0.0000000E+00;  7.0125349E-03;  1.0003727E+03;  4.0000001E-01;  3.0873190E+02;3; -1.7203697E+01;  0.0000000E+00;  3.6199841E+00;0; -1.9783460E-01;  1.0009282E+04;  0.0000000E+00; -1.3796722E-02;  1.0000000E+04;  0.0000000E+00;  9.9981719E+03; -2.4234705E-01;  0.0000000E+00;  4.4512447E-02;  8.8335278E+02;
  3.1995562E-01;  9.9999998E-03;  3.0001447E-01;1555; -2.9090878E-02;  0.0000000E+00;  8.1847636E-03;  1.0003589E+03;  4.0000001E-01;  2.9737421E+02;3; -1.8298849E+01;  0.0000000E+00;  4.5618644E+00;0; -1.9263501E-01;  1.0009275E+04;  0.0000000E+00; -2.4830885E-02;  1.0000000E+04;  0.0000000E+00;  9.9979082E+03; -2.4317589E-01;  0.0000000E+00;  5.0540876E-02;  1.0114820E+03;
  3.3994281E-01;  9.9999998E-03;  1.6000383E-01;1579; -3.6862552E-02;  0.0000000E+00;  3.0582570E-03;  1.0004398E+03;  4.0000001E-01;  3.6433521E+02;3; -1.6772635E+01;  0.0000000E+00;  1.8576014E+00;0; -2.2219455E-01;  1.0009882E+04;  0.0000000E+00;  2.4124647E-09;  1.0000000E+04;  0.0000000E+00;  9.9989199E+03; -2.5153026E-01;  0.0000000E+00;  2.9335706E-02;  5.3482501E+02;
  3.3994186E-01;  9.9999998E-03;  1.8000491E-01;1580; -3.7385516E-02;  0.0000000E+00;  3.6687348E-03;  1.0004409E+03;  4.0000001E-01;  3.6522406E+02;3; -1.6857740E+01;  0.0000000E+00;  2.0586157E+00;0; -2.2325313E-01;  1.0010106E+04;  0.0000000E+00; -2.7247660E-08;  1.0000000E+04;  0.0000000E+00;  9.9987129E+03; -2.5610337E-01;  0.0000000E+00;  3.2850232E-02;  6.3245856E+02;
  3.3994114E-01;  9.9999998E-03;  2.0000617E-01;1581; -3.7769597E-02;  0.0000000E+00;  4.3502217E-03;  1.0004408E+03;  4.0000001E-01;  3.6522406E+02;3; -1.6930717E+01;  0.0000000E+00;  2.2725406E+00;0; -2.2390553E-01;  1.0010313E+04;  0.0000000E+00;  1.0758492E-06;  1.0000000E+04;  0.0000000E+00;  9.9985000E+03; -2.6031163E-01;  0.0000000E+00;  3.6406100E-02;  7.3240210E+02;
  3.3994079E-01;  9.9999998E-03;  2.2000764E-01;1582; -3.7921216E-02;  0.0000000E+00;  5.1020472E-03;  1.0004399E+03;  4.0000001E-01;  3.6443396E+02;3; -1.7092470E+01;  0.0000000E+00;  2.5174582E+00;0; -2.2420943E-01;  1.0010490E+04;  0.0000000E+00;  6.6163780E-06;  1.0000000E+04;  0.0000000E+00;  9.9983105E+03; -2.6390627E-01;  0.0000000E+00;  3.9696842E-02;  8.2460126E+02;
  3.3994097E-01;  9.9999998E-03;  2.4000937E-01;1583; -3.7716623E-02;  0.0000000E+00;  5.9605357E-03;  1.0004387E+03;  4.0000001E-01;  3.6344635E+02;3; -1.7490683E+01;  0.0000000E+00;  2.8564203E+00;0; -2.2427864E-01;  1.0010624E+04;  0.0000000E+00; -2.2191789E-05;  1.0000000E+04;  0.0000000E+00;  9.9981572E+03; -2.6673797E-01;  0.0000000E+00;  4.2459328E-02;  8.9813879E+02;
  3.3994186E-01;  9.9999998E-03;  2.6001146E-01;1584; -3.7060004E-02;  0.0000000E+00;  6.9256127E-03;  1.0004376E+03;  4.0000001E-01;  3.6255750E+02;3; -1.8280342E+01;  0.0000000E+00;  3.3443418E+00;0; -2.2399627E-01;  1.0010716E+04;  0.0000000E+00; -4.5531764E-04;  1.0000000E+04;  0.0000000E+00;  9.9980430E+03; -2.6877990E-01;  0.0000000E+00;  4.4783637E-02;  9.5130524E+02;
  3.3994365E-01;  9.9999998E-03;  2.8001407E-01;1585; -3.5879817E-02;  0.0000000E+00;  8.0972202E-03;  1.0004321E+03;  4.0000001E-01;  3.5791565E+02;3; -1.9504301E+01;  0.0000000E+00;  4.0938249E+00;0; -2.2146048E-01;  1.0010763E+04;  0.0000000E+00; -1.8201749E-03;  1.0000000E+04;  0.0000000E+00;  9.9978809E+03; -2.7009782E-01;  0.0000000E+00;  4.8637345E-02;  1.0260544E+03;
  3.3994636E-01;  9.9999998E-03;  3.0001691E-01;1586; -3.4178473E-02;  0.0000000E+00;  9.2979744E-03;  1.0004205E+03;  4.0000001E-01;  3.4843442E+02;3; -2.0962015E+01;  0.0000000E+00;  5.1005144E+00;0; -2.1725997E-01;  1.0010779E+04;  0.0000000E+00; -3.9214664E-03;  1.0000000E+04;  0.0000000E+00;  9.9976348E+03; -2.7077803E-01;  0.0000000E+00;  5.3518049E-02;  1.1390265E+03;
  3.5993263E-01;  9.9999998E-03;  1.6000459E-01;1610; -4.2289089E-02;  0.0000000E+00;  3.6675404E-03;  1.0005068E+03;  4.0000001E-01;  4.1983972E+02;3; -1.8634375E+01;  0.0000000E+00;  2.2166245E+00;0; -2.4789602E-01;  1.0011436E+04;  0.0000000E+00;  4.5236746E-08;  1.0000000E+04;  0.0000000E+00;  9.9987061E+03; -2.8257594E-01;  0.0000000E+00;  3.4679927E-02;  6.3905493E+02;
  3.5993144E-01;  9.9999998E-03;  1.8000589E-01;1611; -4.2924475E-02;  0.0000000E+00;  4.3995632E-03;  1.0005084E+03;  4.0000001E-01;  4.2112363E+02;3; -1.8718636E+01;  0.0000000E+00;  2.4374132E+00;0; -2.4905804E-01;  1.0011708E+04;  0.0000000E+00; -4.9712909E-08;  1.0000000E+04;  0.0000000E+00;  9.9984648E+03; -2.8747192E-01;  0.0000000E+00;  3.8413875E-02;  7.5396863E+02;
  3.5993046E-01;  9.9999998E-03;  2.0000744E-01;1612; -4.3411601E-02;  0.0000000E+00;  5.2033132E-03;  1.0005086E+03;  4.0000001E-01;  4.2132117E+02;3; -1.8798706E+01;  0.0000000E+00;  2.6638660E+00;0; -2.4980502E-01;  1.0011951E+04;  0.0000000E+00;  9.8143221E-07;  1.0000000E+04;  0.0000000E+00;  9.9982236E+03; -2.9183593E-01;  0.0000000E+00;  4.2030912E-02;  8.7011743E+02;
  3.5992989E-01;  9.9999998E-03;  2.2000921E-01;1613; -4.3641791E-02;  0.0000000E+00;  6.0656015E-03;  1.0005078E+03;  4.0000001E-01;  4.2072858E+02;3; -1.8992380E+01;  0.0000000E+00;  2.9165559E+00;0; -2.5015619E-01;  1.0012154E+04;  0.0000000E+00;  7.1294749E-06;  1.0000000E+04;  0.0000000E+00;  9.9980039E+03; -2.9540172E-01;  0.0000000E+00;  4.5245524E-02;  9.7595905E+02;
  3.5992995E-01;  9.9999998E-03;  2.4001123E-01;1614; -4.3477815E-02;  0.0000000E+00;  7.0012123E-03;  1.0005068E+03;  4.0000001E-01;  4.1983972E+02;3; -1.9478052E+01;  0.0000000E+00;  3.2466373E+00;0; -2.5028577E-01;  1.0012308E+04;  0.0000000E+00;  2.3766144E-05;  1.0000000E+04;  0.0000000E+00;  9.9978320E+03; -2.9803500E-01;  0.0000000E+00;  4.7749210E-02;  1.0586591E+03;
  3.5993087E-01;  9.9999998E-03;  2.6001361E-01;1615; -4.2798337E-02;  0.0000000E+00;  8.0120368E-03;  1.0005061E+03;  4.0000001E-01;  4.1934592E+02;3; -2.0431862E+01;  0.0000000E+00;  3.7576337E+00;0; -2.5037986E-01;  1.0012405E+04;  0.0000000E+00;  5.1503164E-05;  1.0000000E+04;  0.0000000E+00;  9.9977197E+03; -2.9975405E-01;  0.0000000E+00;  4.9374189E-02;  1.1119780E+03;
  3.5993281E-01;  9.9999998E-03;  2.8001651E-01;1616; -4.1525763E-02;  0.0000000E+00;  9.2348382E-03;  1.0005015E+03;  4.0000001E-01;  4.1549417E+02;3; -2.1917027E+01;  0.0000000E+00;  4.5672417E+00;0; -2.4850294E-01;  1.0012463E+04;  0.0000000E+00;  6.3047286E-05;  1.0000000E+04;  0.0000000E+00;  9.9975752E+03; -3.0070189E-01;  0.0000000E+00;  5.2198939E-02;  1.1792969E+03;
  3.5993588E-01;  9.9999998E-03;  3.0001968E-01;1617; -3.9654665E-02;  0.0000000E+00;  1.0505792E-02;  1.0004911E+03;  4.0000001E-01;  4.0690182E+02;3; -2.3698393E+01;  0.0000000E+00;  5.6668997E+00;0; -2.4471515E-01;  1.0012483E+04;  0.0000000E+00; -3.3013762E-06;  1.0000000E+04;  0.0000000E+00;  9.9973438E+03; -3.0110022E-01;  0.0000000E+00;  5.6385066E-02;  1.2868453E+03;
  3.7992087E-01;  9.9999998E-03;  1.6000539E-01;1641; -4.8377842E-02;  0.0000000E+00;  4.3072635E-03;  1.0005834E+03;  4.0000001E-01;  4.8334399E+02;3; -2.0620659E+01;  0.0000000E+00;  2.5723598E+00;0; -2.7618125E-01;  1.0013195E+04;  0.0000000E+00;  8.5403826E-08;  1.0000000E+04;  0.0000000E+00;  9.9984785E+03; -3.1655246E-01;  0.0000000E+00;  4.0371221E-02;  7.5201190E+02;
  3.7991932E-01;  9.9999998E-03;  1.8000697E-01;1642; -4.9132455E-02;  0.0000000E+00;  5.1704072E-03;  1.0005859E+03;  4.0000001E-01;  4.8541800E+02;3; -2.0695562E+01;  0.0000000E+00;  2.8179357E+00;0; -2.7754021E-01;  1.0013522E+04;  0.0000000E+00; -4.7796501E-08;  1.0000000E+04;  0.0000000E+00;  9.9981992E+03; -3.2183999E-01;  0.0000000E+00;  4.4299781E-02;  8.8591357E+02;
  3.7991804E-01;  9.9999998E-03;  2.0000881E-01;1643; -4.9725901E-02;  0.0000000E+00;  6.1044842E-03;  1.0005867E+03;  4.0000001E-01;  4.8601059E+02;3; -2.0775398E+01;  0.0000000E+00;  3.0535185E+00;0; -2.7848744E-01;  1.0013819E+04;  0.0000000E+00;  9.2114959E-07;  1.0000000E+04;  0.0000000E+00;  9.9979180E+03; -3.2643694E-01;  0.0000000E+00;  4.7949497E-02;  1.0206833E+03;
  3.7991723E-01;  9.9999998E-03;  2.2001091E-01;1644; -5.0034750E-02;  0.0000000E+00;  7.0834663E-03;  1.0005864E+03;  4.0000001E-01;  4.8581305E+02;3; -2.0997810E+01;  0.0000000E+00;  3.3039172E+00;0; -2.7900049E-01;  1.0014065E+04;  0.0000000E+00;  7.9966539E-06;  1.0000000E+04;  0.0000000E+00;  9.9976680E+03; -3.3006120E-01;  0.0000000E+00;  5.1060706E-02;  1.1429211E+03;
  3.7991717E-01;  9.9999998E-03;  2.4001327E-01;1645; -4.9908299E-02;  0.0000000E+00;  8.1028137E-03;  1.0005858E+03;  4.0000001E-01;  4.8531924E+02;3; -2.1577326E+01;  0.0000000E+00;  3.6315744E+00;0; -2.7932027E-01;  1.0014249E+04;  0.0000000E+00;  2.8469458E-05;  1.0000000E+04;  0.0000000E+00;  9.9974717E+03; -3.3259743E-01;  0.0000000E+00;  5.3277165E-02;  1.2375078E+03;
  3.7991813E-01;  9.9999998E-03;  2.6001599E-01;1646; -4.9193684E-02;  0.0000000E+00;  9.1703283E-03;  1.0005859E+03;  4.0000001E-01;  4.8541800E+02;3; -2.2713797E+01;  0.0000000E+00;  4.1596923E+00;0; -2.7990326E-01;  1.0014370E+04;  0.0000000E+00;  6.4068372E-05;  1.0000000E+04;  0.0000000E+00;  9.9973545E+03; -3.3410108E-01;  0.0000000E+00;  5.4197818E-02;  1.2940620E+03;
  3.7992030E-01;  9.9999998E-03;  2.8001928E-01;1647; -4.7803439E-02;  0.0000000E+00;  1.0460931E-02;  1.0005823E+03;  4.0000001E-01;  4.8235635E+02;3; -2.4482634E+01;  0.0000000E+00;  5.0446787E+00;0; -2.7870929E-01;  1.0014435E+04;  0.0000000E+00;  9.4937161E-05;  1.0000000E+04;  0.0000000E+00;  9.9972197E+03; -3.3476099E-01;  0.0000000E+00;  5.6051701E-02;  1.3584664E+03;
  3.7992382E-01;  9.9999998E-03;  3.0002290E-01;1648; -4.5715515E-02;  0.0000000E+00;  1.1825378E-02;  1.0005720E+03;  4.0000001E-01;  4.7386279E+02;3; -2.6608368E+01;  0.0000000E+00;  6.2617254E+00;0; -2.7507287E-01;  1.0014457E+04;  0.0000000E+00;  7.4369316E-05;  1.0000000E+04;  0.0000000E+00;  9.9969922E+03; -3.3484751E-01;  0.0000000E+00;  5.9774630E-02;  1.4657375E+03;
  3.9990726E-01;  9.9999998E-03;  1.6000630E-01;1672; -5.5188134E-02;  0.0000000E+00;  4.9826526E-03;  1.0006707E+03;  4.0000001E-01;  5.5563806E+02;3; -2.2733728E+01;  0.0000000E+00;  2.9261212E+00;0; -3.0715466E-01;  1.0015186E+04;  0.0000000E+00;  8.5060648E-08;  1.0000000E+04;  0.0000000E+00;  9.9982334E+03; -3.5357195E-01;  0.0000000E+00;  4.6417281E-02;  8.7348425E+02;
  3.9990532E-01;  9.9999998E-03;  1.8000814E-01;1673; -5.6068789E-02;  0.0000000E+00;  5.9881527E-03;  1.0006746E+03;  4.0000001E-01;  5.5889722E+02;3; -2.2785418E+01;  0.0000000E+00;  3.1966763E+00;0; -3.0882040E-01;  1.0015581E+04;  0.0000000E+00; -2.7429829E-08;  1.0000000E+04;  0.0000000E+00;  9.9979141E+03; -3.5936260E-01;  0.0000000E+00;  5.0542198E-02;  1.0278575E+03;
  3.9990368E-01;  9.9999998E-03;  2.0001030E-01;1674; -5.6772511E-02;  0.0000000E+00;  7.0654131E-03;  1.0006765E+03;  4.0000001E-01;  5.6047742E+02;3; -2.2856836E+01;  0.0000000E+00;  3.4448256E+00;0; -3.1008258E-01;  1.0015945E+04;  0.0000000E+00;  8.9113541E-07;  1.0000000E+04;  0.0000000E+00;  9.9975928E+03; -3.6433053E-01;  0.0000000E+00;  5.4247938E-02;  1.1841780E+03;
  3.9990261E-01;  9.9999998E-03;  2.2001278E-01;1675; -5.7159640E-02;  0.0000000E+00;  8.1748292E-03;  1.0006772E+03;  4.0000001E-01;  5.6107001E+02;3; -2.3104469E+01;  0.0000000E+00;  3.6914184E+00;0; -3.1088194E-01;  1.0016254E+04;  0.0000000E+00;  9.2243890E-06;  1.0000000E+04;  0.0000000E+00;  9.9972979E+03; -3.6818099E-01;  0.0000000E+00;  5.7299040E-02;  1.3266682E+03;
  3.9990240E-01;  9.9999998E-03;  2.4001555E-01;1676; -5.7063840E-02;  0.0000000E+00;  9.2964023E-03;  1.0006774E+03;  4.0000001E-01;  5.6116876E+02;3; -2.3782705E+01;  0.0000000E+00;  4.0165782E+00;0; -3.1151611E-01;  1.0016487E+04;  0.0000000E+00;  3.4952482E-05;  1.0000000E+04;  0.0000000E+00;  9.9970684E+03; -3.7081227E-01;  0.0000000E+00;  5.9296172E-02;  1.4375128E+03;
  3.9990336E-01;  9.9999998E-03;  2.6001871E-01;1677; -5.6310110E-02;  0.0000000E+00;  1.0435671E-02;  1.0006786E+03;  4.0000001E-01;  5.6225513E+02;3; -2.5125729E+01;  0.0000000E+00;  4.5594206E+00;0; -3.1268930E-01;  1.0016647E+04;  0.0000000E+00;  8.1209597E-05;  1.0000000E+04;  0.0000000E+00;  9.9969365E+03; -3.7230870E-01;  0.0000000E+00;  5.9619401E-02;  1.5031627E+03;
  3.9990574E-01;  9.9999998E-03;  2.8002250E-01;1678; -5.4793596E-02;  0.0000000E+00;  1.1803594E-02;  1.0006762E+03;  4.0000001E-01;  5.6018115E+02;3; -2.7213789E+01;  0.0000000E+00;  5.5234685E+00;0; -3.1234306E-01;  1.0016735E+04;  0.0000000E+00;  1.2243308E-04;  1.0000000E+04;  0.0000000E+00;  9.9967930E+03; -3.7289265E-01;  0.0000000E+00;  6.0549576E-02;  1.5720616E+03;
  3.9990976E-01;  9.9999998E-03;  3.0002660E-01;1679; -5.2470136E-02;  0.0000000E+00;  1.3287857E-02;  1.0006660E+03;  4.0000001E-01;  5.5178632E+02;3; -2.9726551E+01;  0.0000000E+00;  6.8895960E+00;0; -3.0890217E-01;  1.0016777E+04;  0.0000000E+00;  9.5502110E-05;  1.0000000E+04;  0.0000000E+00;  9.9965527E+03; -3.7286222E-01;  0.0000000E+00;  6.3960038E-02;  1.6850004E+03;
  4.1989166E-01;  9.9999998E-03;  1.6000737E-01;1703; -6.2778965E-02;  0.0000000E+00;  5.7044863E-03;  1.0007693E+03;  4.0000001E-01;  6.3731451E+02;3; -2.4973238E+01;  0.0000000E+00;  3.2690470E+00;0; -3.4085295E-01;  1.0017419E+04;  0.0000000E+00;  3.4347996E-09;  1.0000000E+04;  0.0000000E+00;  9.9979727E+03; -3.9365587E-01;  0.0000000E+00;  5.2802917E-02;  1.0036736E+03;
  4.1988921E-01;  9.9999998E-03;  1.8000948E-01;1704; -6.3795321E-02;  0.0000000E+00;  6.8649380E-03;  1.0007753E+03;  4.0000001E-01;  6.4235138E+02;3; -2.4986378E+01;  0.0000000E+00;  3.5742350E+00;0; -3.4296876E-01;  1.0017900E+04;  0.0000000E+00; -1.5699730E-08;  1.0000000E+04;  0.0000000E+00;  9.9976094E+03; -4.0008959E-01;  0.0000000E+00;  5.7120815E-02;  1.1787820E+03;
  4.1988713E-01;  9.9999998E-03;  2.0001198E-01;1705; -6.4615659E-02;  0.0000000E+00;  8.0996538E-03;  1.0007791E+03;  4.0000001E-01;  6.4551178E+02;3; -2.5038099E+01;  0.0000000E+00;  3.8374288E+00;0; -3.4468621E-01;  1.0018354E+04;  0.0000000E+00;  9.6501014E-07;  1.0000000E+04;  0.0000000E+00;  9.9972393E+03; -4.0561655E-01;  0.0000000E+00;  6.0930356E-02;  1.3591508E+03;
  4.1988569E-01;  9.9999998E-03;  2.2001486E-01;1706; -6.5081872E-02;  0.0000000E+00;  9.3574272E-03;  1.0007816E+03;  4.0000001E-01;  6.4758582E+02;3; -2.5306044E+01;  0.0000000E+00;  4.0831013E+00;0; -3.4591839E-01;  1.0018741E+04;  0.0000000E+00;  1.1096994E-05;  1.0000000E+04;  0.0000000E+00;  9.9968994E+03; -4.0993032E-01;  0.0000000E+00;  6.4011924E-02;  1.5259417E+03;
  4.1988528E-01;  9.9999998E-03;  2.4001810E-01;1707; -6.5012150E-02;  0.0000000E+00;  1.0605488E-02;  1.0007837E+03;  4.0000001E-01;  6.4926477E+02;3; -2.6090460E+01;  0.0000000E+00;  4.4078245E+00;0; -3.4700650E-01;  1.0019056E+04;  0.0000000E+00;  4.3769644E-05;  1.0000000E+04;  0.0000000E+00;  9.9966279E+03; -4.1293237E-01;  0.0000000E+00;  6.5925859E-02;  1.6578912E+03;
  4.1988623E-01;  9.9999998E-03;  2.6002178E-01;1708; -6.4213529E-02;  0.0000000E+00;  1.1843033E-02;  1.0007866E+03;  4.0000001E-01;  6.5173383E+02;3; -2.7662842E+01;  0.0000000E+00;  4.9639139E+00;0; -3.4886098E-01;  1.0019277E+04;  0.0000000E+00;  1.0388220E-04;  1.0000000E+04;  0.0000000E+00;  9.9964658E+03; -4.1471767E-01;  0.0000000E+00;  6.5856710E-02;  1.7397073E+03;
  4.1988885E-01;  9.9999998E-03;  2.8002620E-01;1709; -6.2564023E-02;  0.0000000E+00;  1.3297974E-02;  1.0007852E+03;  4.0000001E-01;  6.5054865E+02;3; -3.0110428E+01;  0.0000000E+00;  6.0064483E+00;0; -3.4961045E-01;  1.0019423E+04;  0.0000000E+00;  1.5739398E-04;  1.0000000E+04;  0.0000000E+00;  9.9962949E+03; -4.1552076E-01;  0.0000000E+00;  6.5910295E-02;  1.8239658E+03;
  4.1989341E-01;  9.9999998E-03;  3.0003098E-01;1710; -5.9993010E-02;  0.0000000E+00;  1.4905634E-02;  1.0007759E+03;  4.0000001E-01;  6.4284521E+02;3; -3.3065704E+01;  0.0000000E+00;  7.5302005E+00;0; -3.4684223E-01;  1.0019502E+04;  0.0000000E+00;  1.1819068E-04;  1.0000000E+04;  0.0000000E+00;  9.9960283E+03; -4.1565353E-01;  0.0000000E+00;  6.8811290E-02;  1.9513257E+03;
  4.3987375E-01;  9.9999998E-03;  1.6000871E-01;1734; -7.1212530E-02;  0.0000000E+00;  6.5005282E-03;  1.0008793E+03;  4.0000001E-01;  7.2847198E+02;3; -2.7338226E+01;  0.0000000E+00;  3.5890136E+00;0; -3.7713608E-01;  1.0019911E+04;  0.0000000E+00; -2.3766407E-07;  1.0000000E+04;  0.0000000E+00;  9.9976895E+03; -4.3662879E-01;  0.0000000E+00;  5.9492718E-02;  1.1442744E+03;
  4.3987074E-01;  9.9999998E-03;  1.8001109E-01;1735; -7.2379105E-02;  0.0000000E+00;  7.8220190E-03;  1.0008882E+03;  4.0000001E-01;  7.3587921E+02;3; -2.7297434E+01;  0.0000000E+00;  3.9375465E+00;0; -3.7990576E-01;  1.0020487E+04;  0.0000000E+00; -2.0527935E-08;  1.0000000E+04;  0.0000000E+00;  9.9972939E+03; -4.4385746E-01;  0.0000000E+00;  6.3951701E-02;  1.3379197E+03;
  4.3986809E-01;  9.9999998E-03;  2.0001391E-01;1736; -7.3325969E-02;  0.0000000E+00;  9.2233531E-03;  1.0008952E+03;  4.0000001E-01;  7.4170618E+02;3; -2.7314098E+01;  0.0000000E+00;  4.2261372E+00;0; -3.8226989E-01;  1.0021047E+04;  0.0000000E+00;  1.4395609E-06;  1.0000000E+04;  0.0000000E+00;  9.9968740E+03; -4.5016864E-01;  0.0000000E+00;  6.7898743E-02;  1.5430881E+03;
  4.3986619E-01;  9.9999998E-03;  2.2001719E-01;1737; -7.3875763E-02;  0.0000000E+00;  1.0644350E-02;  1.0009008E+03;  4.0000001E-01;  7.4634802E+02;3; -2.7595650E+01;  0.0000000E+00;  4.4783602E+00;0; -3.8414153E-01;  1.0021551E+04;  0.0000000E+00;  1.4467391E-05;  1.0000000E+04;  0.0000000E+00;  9.9964766E+03; -4.5525044E-01;  0.0000000E+00;  7.1108907E-02;  1.7369336E+03;
  4.3986547E-01;  9.9999998E-03;  2.4002096E-01;1738; -7.3829994E-02;  0.0000000E+00;  1.2043728E-02;  1.0009059E+03;  4.0000001E-01;  7.5049603E+02;3; -2.8491726E+01;  0.0000000E+00;  4.8065553E+00;0; -3.8590288E-01;  1.0021972E+04;  0.0000000E+00;  5.6619712E-05;  1.0000000E+04;  0.0000000E+00;  9.9961572E+03; -4.5898962E-01;  0.0000000E+00;  7.3086746E-02;  1.8932379E+03;
  4.3986636E-01;  9.9999998E-03;  2.6002532E-01;1739; -7.2981127E-02;  0.0000000E+00;  1.3421816E-02;  1.0009119E+03;  4.0000001E-01;  7.5543414E+02;3; -3.0320639E+01;  0.0000000E+00;  5.3841515E+00;0; -3.8856155E-01;  1.0022297E+04;  0.0000000E+00;  1.3431646E-04;  1.0000000E+04;  0.0000000E+00;  9.9959502E+03; -4.6146265E-01;  0.0000000E+00;  7.2901092E-02;  1.9970455E+03;
  4.3986923E-01;  9.9999998E-03;  2.8003055E-01;1740; -7.1192972E-02;  0.0000000E+00;  1.4984905E-02;  1.0009118E+03;  4.0000001E-01;  7.5543414E+02;3; -3.3170654E+01;  0.0000000E+00;  6.4891973E+00;0; -3.9060390E-01;  1.0022528E+04;  0.0000000E+00;  2.0093609E-04;  1.0000000E+04;  0.0000000E+00;  9.9957188E+03; -4.6288884E-01;  0.0000000E+00;  7.2284922E-02;  2.1125767E+03;
  4.3987435E-01;  9.9999998E-03;  3.0003610E-01;1741; -6.8364538E-02;  0.0000000E+00;  1.6713148E-02;  1.0009033E+03;  4.0000001E-01;  7.4832330E+02;3; -3.6628708E+01;  0.0000000E+00;  8.1852894E+00;0; -3.8922846E-01;  1.0022681E+04;  0.0000000E+00;  1.3766324E-04;  1.0000000E+04;  0.0000000E+00;  9.9953984E+03; -4.6357217E-01;  0.0000000E+00;  7.4343719E-02;  2.2679421E+03;
  4.5985332E-01;  9.9999998E-03;  1.6001056E-01;1765; -8.0557510E-02;  0.0000000E+00;  7.4275965E-03;  1.0010012E+03;  4.0000060E-01;  8.2940674E+02;3; -2.9827248E+01;  0.0000000E+00;  3.8722939E+00;0; -4.1541091E-01;  1.0022631E+04;  0.0000000E+00; -4.5154158E-07;  1.0000000E+04;  0.0000000E+00;  9.9973760E+03; -4.8187673E-01;  0.0000000E+00;  6.6465832E-02;  1.3003445E+03;
  4.5984960E-01;  9.9999998E-03;  1.8001316E-01;1766; -8.1893235E-02;  0.0000000E+00;  8.9063868E-03;  1.0010146E+03;  4.0000060E-01;  8.4056689E+02;3; -2.9715527E+01;  0.0000000E+00;  4.2743568E+00;0; -4.1911662E-01;  1.0023320E+04;  0.0000000E+00;  2.0988901E-07;  1.0000000E+04;  0.0000000E+00;  9.9969541E+03; -4.9003690E-01;  0.0000000E+00;  7.0920303E-02;  1.5067524E+03;
  4.5984623E-01;  9.9999998E-03;  2.0001626E-01;1767; -8.2981981E-02;  0.0000000E+00;  1.0464990E-02;  1.0010256E+03;  4.0000069E-01;  8.4975183E+02;3; -2.9677622E+01;  0.0000000E+00;  4.5927606E+00;0; -4.2239451E-01;  1.0024011E+04;  0.0000000E+00;  3.0626404E-06;  1.0000000E+04;  0.0000000E+00;  9.9964922E+03; -4.9737689E-01;  0.0000000E+00;  7.4982375E-02;  1.7344094E+03;
  4.5984370E-01;  9.9999998E-03;  2.2001991E-01;1768; -8.3626419E-02;  0.0000000E+00;  1.2051462E-02;  1.0010356E+03;  4.0000063E-01;  8.5804785E+02;3; -2.9966717E+01;  0.0000000E+00;  4.8675461E+00;0; -4.2520517E-01;  1.0024660E+04;  0.0000000E+00;  2.1262176E-05;  1.0000000E+04;  0.0000000E+00;  9.9960430E+03; -5.0358540E-01;  0.0000000E+00;  7.8380212E-02;  1.9551071E+03;
  4.5984256E-01;  9.9999998E-03;  2.4002418E-01;1769; -8.3608292E-02;  0.0000000E+00;  1.3618183E-02;  1.0010460E+03;  4.0000054E-01;  8.6664020E+02;3; -3.0978945E+01;  0.0000000E+00;  5.2035813E+00;0; -4.2800817E-01;  1.0025229E+04;  0.0000000E+00;  7.7119352E-05;  1.0000000E+04;  0.0000000E+00;  9.9956777E+03; -5.0851434E-01;  0.0000000E+00;  8.0506168E-02;  2.1349348E+03;
  4.5984331E-01;  9.9999998E-03;  2.6002932E-01;1770; -8.2706273E-02;  0.0000000E+00;  1.5190343E-02;  1.0010567E+03;  4.0000066E-01;  8.7543005E+02;3; -3.3090145E+01;  0.0000000E+00;  5.8119936E+00;0; -4.3171188E-01;  1.0025700E+04;  0.0000000E+00;  1.7763730E-04;  1.0000000E+04;  0.0000000E+00;  9.9954248E+03; -5.1218736E-01;  0.0000000E+00;  8.0475479E-02;  2.2610544E+03;
  4.5984635E-01;  9.9999998E-03;  2.8003564E-01;1771; -8.0779225E-02;  0.0000000E+00;  1.6915727E-02;  1.0010582E+03;  4.0000066E-01;  8.7671399E+02;3; -3.6393944E+01;  0.0000000E+00;  6.9676805E+00;0; -4.3506318E-01;  1.0026060E+04;  0.0000000E+00;  2.5642701E-04;  1.0000000E+04;  0.0000000E+00;  9.9950938E+03; -5.1476961E-01;  0.0000000E+00;  7.9706438E-02;  2.4271582E+03;
  4.5985204E-01;  9.9999998E-03;  3.0004224E-01;1772; -7.7686846E-02;  0.0000000E+00;  1.8766643E-02;  1.0010505E+03;  4.0000054E-01;  8.7029443E+02;3; -4.0422558E+01;  0.0000000E+00;  8.8515091E+00;0; -4.3586686E-01;  1.0026326E+04;  0.0000000E+00;  1.4811545E-04;  1.0000000E+04;  0.0000000E+00;  9.9946689E+03; -5.1652712E-01;  0.0000000E+00;  8.0660246E-02;  2.6362808E+03;
  4.7983000E-01;  9.9999998E-03;  1.6001323E-01;1796; -9.0887740E-02;  0.0000000E+00;  8.5828025E-03;  1.0011304E+03;  4.0000185E-01;  9.3646454E+02;3; -3.2438591E+01;  0.0000000E+00;  4.1069179E+00;0; -4.5415196E-01;  1.0025521E+04;  0.0000000E+00;  2.2825708E-07;  1.0000000E+04;  0.0000000E+00;  9.9970156E+03; -5.2793074E-01;  0.0000000E+00;  7.3778771E-02;  1.4826732E+03;
  4.7982541E-01;  9.9999998E-03;  1.8001603E-01;1797; -9.2414506E-02;  0.0000000E+00;  1.0203720E-02;  1.0011494E+03;  4.0000185E-01;  9.5216772E+02;3; -3.2238953E+01;  0.0000000E+00;  4.5712419E+00;0; -4.5914811E-01;  1.0026331E+04;  0.0000000E+00;  1.8104529E-06;  1.0000000E+04;  0.0000000E+00;  9.9965850E+03; -5.3710961E-01;  0.0000000E+00;  7.7961512E-02;  1.6922100E+03;
  4.7982118E-01;  9.9999998E-03;  2.0001931E-01;1798; -9.3666889E-02;  0.0000000E+00;  1.1889680E-02;  1.0011665E+03;  4.0000176E-01;  9.6638953E+02;3; -3.2129021E+01;  0.0000000E+00;  4.9286156E+00;0; -4.6367151E-01;  1.0027169E+04;  0.0000000E+00;  7.6856195E-06;  1.0000000E+04;  0.0000000E+00;  9.9960898E+03; -5.4570270E-01;  0.0000000E+00;  8.2031198E-02;  1.9363840E+03;
  4.7981787E-01;  9.9999998E-03;  2.2002320E-01;1799; -9.4424538E-02;  0.0000000E+00;  1.3613906E-02;  1.0011827E+03;  4.0000176E-01;  9.7991992E+02;3; -3.2415592E+01;  0.0000000E+00;  5.2378674E+00;0; -4.6781376E-01;  1.0027991E+04;  0.0000000E+00;  3.5226200E-05;  1.0000000E+04;  0.0000000E+00;  9.9955957E+03; -5.5340773E-01;  0.0000000E+00;  8.5593961E-02;  2.1796570E+03;
  4.7981611E-01;  9.9999998E-03;  2.4002790E-01;1800; -9.4450369E-02;  0.0000000E+00;  1.5337650E-02;  1.0012010E+03;  4.0000173E-01;  9.9503058E+02;3; -3.3548363E+01;  0.0000000E+00;  5.5828514E+00;0; -4.7223288E-01;  1.0028751E+04;  0.0000000E+00;  1.1250686E-04;  1.0000000E+04;  0.0000000E+00;  9.9952002E+03; -5.6002092E-01;  0.0000000E+00;  8.7788045E-02;  2.3750696E+03;
  4.7981650E-01;  9.9999998E-03;  2.6003391E-01;1801; -9.3504287E-02;  0.0000000E+00;  1.7158657E-02;  1.0012203E+03;  4.0000185E-01;  1.0110301E+03;3; -3.5967697E+01;  0.0000000E+00;  6.2335153E+00;0; -4.7748291E-01;  1.0029411E+04;  0.0000000E+00;  2.4440879E-04;  1.0000000E+04;  0.0000000E+00;  9.9949316E+03; -5.6547916E-01;  0.0000000E+00;  8.7996259E-02;  2.5114927E+03;
  4.7981957E-01;  9.9999998E-03;  2.8004169E-01;1802; -9.1453172E-02;  0.0000000E+00;  1.9148929E-02;  1.0012242E+03;  4.0000170E-01;  1.0141905E+03;3; -3.9787041E+01;  0.0000000E+00;  7.4373794E+00;0; -4.8191017E-01;  1.0029954E+04;  0.0000000E+00;  3.3245198E-04;  1.0000000E+04;  0.0000000E+00;  9.9944648E+03; -5.6985235E-01;  0.0000000E+00;  8.7942183E-02;  2.7442708E+03;
  4.7982574E-01;  9.9999998E-03;  3.0004963E-01;1803; -8.8112451E-02;  0.0000000E+00;  2.1138603E-02;  1.0012155E+03;  4.0000179E-01;  1.0069808E+03;3; -4.4470703E+01;  0.0000000E+00;  9.5220623E+00;0; -4.8558885E-01;  1.0030388E+04;  0.0000000E+00;  1.4480519E-04;  1.0000000E+04;  0.0000000E+00;  9.9938584E+03; -5.7331997E-01;  0.0000000E+00;  8.7731123E-02;  3.0447776E+03;
  4.9980345E-01;  9.9999998E-03;  1.6001718E-01;1827; -1.0227138E-01;  0.0000000E+00;  1.0112156E-02;  1.0012589E+03;  4.0000412E-01;  1.0429293E+03;3; -3.5163933E+01;  0.0000000E+00;  4.3003058E+00;0; -4.9033213E-01;  1.0028434E+04;  0.0000000E+00;  4.0246632E-06;  1.0000000E+04;  0.0000000E+00;  9.9965586E+03; -5.7197297E-01;  0.0000000E+00;  8.1640847E-02;  1.7101870E+03;
  4.9979785E-01;  9.9999998E-03;  1.8002018E-01;1828; -1.0401189E-01;  0.0000000E+00;  1.1849607E-02;  1.0012850E+03;  4.0000418E-01;  1.0646570E+03;3; -3.4864384E+01;  0.0000000E+00;  4.8178654E+00;0; -4.9698138E-01;  1.0029359E+04;  0.0000000E+00;  7.2550679E-06;  1.0000000E+04;  0.0000000E+00;  9.9961533E+03; -5.8216178E-01;  0.0000000E+00;  8.5180402E-02;  1.9109000E+03;
  4.9979261E-01;  9.9999998E-03;  2.0002356E-01;1829; -1.0545219E-01;  0.0000000E+00;  1.3615185E-02;  1.0013090E+03;  4.0000424E-01;  1.0844094E+03;3; -3.4667686E+01;  0.0000000E+00;  5.2206860E+00;0; -5.0306875E-01;  1.0030354E+04;  0.0000000E+00;  1.8764786E-05;  1.0000000E+04;  0.0000000E+00;  9.9956396E+03; -5.9214765E-01;  0.0000000E+00;  8.9078888E-02;  2.1633333E+03;
  4.9978828E-01;  9.9999998E-03;  2.2002749E-01;1830; -1.0635036E-01;  0.0000000E+00;  1.5414449E-02;  1.0013335E+03;  4.0000412E-01;  1.1047545E+03;3; -3.4939476E+01;  0.0000000E+00;  5.5718894E+00;0; -5.0893742E-01;  1.0031368E+04;  0.0000000E+00;  6.3157582E-05;  1.0000000E+04;  0.0000000E+00;  9.9951162E+03; -6.0163879E-01;  0.0000000E+00;  9.2701353E-02;  2.4216782E+03;
  4.9978569E-01;  9.9999998E-03;  2.4003243E-01;1831; -1.0645737E-01;  0.0000000E+00;  1.7241620E-02;  1.0013627E+03;  4.0000424E-01;  1.1289512E+03;3; -3.6201321E+01;  0.0000000E+00;  5.9266877E+00;0; -5.1571077E-01;  1.0032348E+04;  0.0000000E+00;  1.7645127E-04;  1.0000000E+04;  0.0000000E+00;  9.9947256E+03; -6.1035973E-01;  0.0000000E+00;  9.4648965E-02;  2.6163040E+03;
  4.9978542E-01;  9.9999998E-03;  2.6003921E-01;1832; -1.0550456E-01;  0.0000000E+00;  1.9345026E-02;  1.0013957E+03;  4.0000418E-01;  1.1563083E+03;3; -3.8956696E+01;  0.0000000E+00;  6.6372542E+00;0; -5.2339679E-01;  1.0033234E+04;  0.0000000E+00;  3.5637361E-04;  1.0000000E+04;  0.0000000E+00;  9.9945059E+03; -6.1813951E-01;  0.0000000E+00;  9.4742700E-02;  2.7295964E+03;
  4.9978819E-01;  9.9999998E-03;  2.8004885E-01;1833; -1.0338228E-01;  0.0000000E+00;  2.1749545E-02;  1.0014042E+03;  4.0000424E-01;  1.1633204E+03;3; -4.3373562E+01;  0.0000000E+00;  7.9049945E+00;0; -5.2852839E-01;  1.0034005E+04;  0.0000000E+00;  4.4971122E-04;  1.0000000E+04;  0.0000000E+00;  9.9938994E+03; -6.2491566E-01;  0.0000000E+00;  9.6387289E-02;  3.0280859E+03;
  4.9979448E-01;  9.9999998E-03;  3.0005863E-01;1834; -9.9870488E-02;  0.0000000E+00;  2.3920981E-02;  1.0013926E+03;  4.0000415E-01;  1.1537405E+03;3; -4.8824902E+01;  0.0000000E+00;  1.0188376E+01;0; -5.3542447E-01;  1.0034651E+04;  0.0000000E+00;  1.2948882E-04;  1.0000000E+04;  0.0000000E+00;  9.9930215E+03; -6.3071710E-01;  0.0000000E+00;  9.5292620E-02;  3.4668608E+03;
  5.1977336E-01;  9.9999998E-03;  1.6002300E-01;1858; -1.1474831E-01;  0.0000000E+00;  1.2196499E-02;  1.0013808E+03;  4.0001163E-01;  1.1439615E+03;3; -3.8005920E+01;  0.0000000E+00;  4.4284816E+00;0; -5.1899534E-01;  1.0031107E+04;  0.0000000E+00;  1.3988575E-05;  1.0000000E+04;  0.0000000E+00;  9.9959473E+03; -6.0948682E-01;  0.0000000E+00;  9.0491459E-02;  2.0123574E+03;
  5.1976675E-01;  9.9999998E-03;  1.8002628E-01;1859; -1.1671586E-01;  0.0000000E+00;  1.4034554E-02;  1.0014141E+03;  4.0001142E-01;  1.1715161E+03;3; -3.7584991E+01;  0.0000000E+00;  4.9978166E+00;0; -5.2751905E-01;  1.0032142E+04;  0.0000000E+00;  1.9299021E-05;  1.0000000E+04;  0.0000000E+00;  9.9955820E+03; -6.2052763E-01;  0.0000000E+00;  9.3008600E-02;  2.1945144E+03;
  5.1976031E-01;  9.9999998E-03;  2.0002972E-01;1860; -1.1836671E-01;  0.0000000E+00;  1.5825704E-02;  1.0014453E+03;  4.0001148E-01;  1.1973918E+03;3; -3.7290596E+01;  0.0000000E+00;  5.4459381E+00;0; -5.3528488E-01;  1.0033282E+04;  0.0000000E+00;  4.0476643E-05;  1.0000000E+04;  0.0000000E+00;  9.9950654E+03; -6.3185573E-01;  0.0000000E+00;  9.6570820E-02;  2.4489304E+03;
  5.1975477E-01;  9.9999998E-03;  2.2003353E-01;1861; -1.1944265E-01;  0.0000000E+00;  1.7622311E-02;  1.0014782E+03;  4.0001145E-01;  1.2246501E+03;3; -3.7534657E+01;  0.0000000E+00;  5.8462896E+00;0; -5.4304028E-01;  1.0034483E+04;  0.0000000E+00;  1.1672941E-04;  1.0000000E+04;  0.0000000E+00;  9.9945332E+03; -6.4318711E-01;  0.0000000E+00;  1.0014683E-01;  2.7153357E+03;
  5.1975101E-01;  9.9999998E-03;  2.4003839E-01;1862; -1.1969072E-01;  0.0000000E+00;  1.9470785E-02;  1.0015208E+03;  4.0001151E-01;  1.2599082E+03;3; -3.8946693E+01;  0.0000000E+00;  6.2455020E+00;0; -5.5276543E-01;  1.0035682E+04;  0.0000000E+00;  2.9649798E-04;  1.0000000E+04;  0.0000000E+00;  9.9941895E+03; -6.5417582E-01;  0.0000000E+00;  1.0141040E-01;  2.8868110E+03;
  5.1974964E-01;  9.9999998E-03;  2.6004568E-01;1863; -1.1881622E-01;  0.0000000E+00;  2.1828523E-02;  1.0015748E+03;  4.0001136E-01;  1.3047462E+03;3; -4.2083336E+01;  0.0000000E+00;  7.0511770E+00;0; -5.6421399E-01;  1.0036809E+04;  0.0000000E+00;  5.5816880E-04;  1.0000000E+04;  0.0000000E+00;  9.9941357E+03; -6.6454494E-01;  0.0000000E+00;  1.0033092E-01;  2.9182922E+03;
  5.1975143E-01;  9.9999998E-03;  2.8005749E-01;1864; -1.1674581E-01;  0.0000000E+00;  2.4806580E-02;  1.0015925E+03;  4.0001145E-01;  1.3193630E+03;3; -4.7187820E+01;  0.0000000E+00;  8.3815174E+00;0; -5.6977391E-01;  1.0037834E+04;  0.0000000E+00;  6.5110996E-04;  1.0000000E+04;  0.0000000E+00;  9.9934619E+03; -6.7408186E-01;  0.0000000E+00;  1.0430797E-01;  3.2486611E+03;
  5.1975703E-01;  9.9999998E-03;  3.0006969E-01;1865; -1.1326484E-01;  0.0000000E+00;  2.7233968E-02;  1.0015749E+03;  4.0001148E-01;  1.3047462E+03;3; -5.3564896E+01;  0.0000000E+00;  1.0830653E+01;0; -5.7967573E-01;  1.0038722E+04;  0.0000000E+00;  1.1815397E-04;  1.0000000E+04;  0.0000000E+00;  9.9922305E+03; -6.8259186E-01;  0.0000000E+00;  1.0291614E-01;  3.8649551E+03;
  5.3973985E-01;  9.9999998E-03;  1.6003129E-01;1889; -1.2826486E-01;  0.0000000E+00;  1.5019347E-02;  1.0014900E+03;  4.0003103E-01;  1.2344254E+03;3; -4.0936691E+01;  0.0000000E+00;  4.4641619E+00;0; -5.3316301E-01;  1.0033165E+04;  0.0000000E+00;  2.9648178E-05;  1.0000000E+04;  0.0000000E+00;  9.9950889E+03; -6.3425070E-01;  0.0000000E+00;  1.0108769E-01;  2.4320027E+03;
  5.3973210E-01;  9.9999998E-03;  1.8003505E-01;1890; -1.3045700E-01;  0.0000000E+00;  1.6962785E-02;  1.0015289E+03;  4.0003082E-01;  1.2667206E+03;3; -4.0376022E+01;  0.0000000E+00;  5.0694122E+00;0; -5.4339737E-01;  1.0034276E+04;  0.0000000E+00;  3.5907455E-05;  1.0000000E+04;  0.0000000E+00;  9.9947656E+03; -6.4575773E-01;  0.0000000E+00;  1.0236038E-01;  2.5951902E+03;
  5.3972441E-01;  9.9999998E-03;  2.0003870E-01;1891; -1.3233061E-01;  0.0000000E+00;  1.8779930E-02;  1.0015654E+03;  4.0003097E-01;  1.2968429E+03;3; -3.9954231E+01;  0.0000000E+00;  5.5560980E+00;0; -5.5248606E-01;  1.0035525E+04;  0.0000000E+00;  7.5881071E-05;  1.0000000E+04;  0.0000000E+00;  9.9942451E+03; -6.5805876E-01;  0.0000000E+00;  1.0557272E-01;  2.8531287E+03;
  5.3971750E-01;  9.9999998E-03;  2.2004233E-01;1892; -1.3362704E-01;  0.0000000E+00;  2.0517381E-02;  1.0016052E+03;  4.0003100E-01;  1.3299282E+03;3; -4.0176418E+01;  0.0000000E+00;  6.0414653E+00;0; -5.6175506E-01;  1.0036876E+04;  0.0000000E+00;  2.1752733E-04;  1.0000000E+04;  0.0000000E+00;  9.9936982E+03; -6.7087072E-01;  0.0000000E+00;  1.0911566E-01;  3.1252952E+03;
  5.3971219E-01;  9.9999998E-03;  2.4004681E-01;1893; -1.3408270E-01;  0.0000000E+00;  2.2258515E-02;  1.0016621E+03;  4.0003097E-01;  1.3770376E+03;3; -4.1764854E+01;  0.0000000E+00;  6.5014992E+00;0; -5.7464170E-01;  1.0038254E+04;  0.0000000E+00;  5.2719255E-04;  1.0000000E+04;  0.0000000E+00;  9.9934580E+03; -6.8379182E-01;  0.0000000E+00;  1.0915008E-01;  3.2490491E+03;
  5.3970903E-01;  9.9999998E-03;  2.6005417E-01;1894; -1.3343698E-01;  0.0000000E+00;  2.4764866E-02;  1.0017432E+03;  4.0003091E-01;  1.4441957E+03;3; -4.5316322E+01;  0.0000000E+00;  7.3832145E+00;0; -5.9124070E-01;  1.0039596E+04;  0.0000000E+00;  9.3508553E-04;  1.0000000E+04;  0.0000000E+00;  9.9937334E+03; -6.9647092E-01;  0.0000000E+00;  1.0523023E-01;  3.1215750E+03;
  5.3970897E-01;  9.9999998E-03;  2.8006825E-01;1895; -1.3163471E-01;  0.0000000E+00;  2.8444942E-02;  1.0017780E+03;  4.0003088E-01;  1.4730342E+03;3; -5.1238129E+01;  0.0000000E+00;  8.8507233E+00;0; -5.9735799E-01;  1.0040846E+04;  0.0000000E+00;  1.0126476E-03;  1.0000000E+04;  0.0000000E+00;  9.9931797E+03; -7.0855695E-01;  0.0000000E+00;  1.1119898E-01;  3.3929988E+03;
  5.3971231E-01;  9.9999998E-03;  3.0008346E-01;1896; -1.2857105E-01;  0.0000000E+00;  3.1233866E-02;  1.0017534E+03;  4.0003091E-01;  1.4525905E+03;3; -5.8807426E+01;  0.0000000E+00;  1.1541249E+01;0; -6.0994363E-01;  1.0041956E+04;  0.0000000E+00;  1.4623436E-04;  1.0000000E+04;  0.0000000E+00;  9.9915732E+03; -7.1959782E-01;  0.0000000E+00;  1.0965416E-01;  4.1946934E+03;
  5.5970347E-01;  9.9999998E-03;  1.6004258E-01;1920; -1.4255990E-01;  0.0000000E+00;  1.8754071E-02;  1.0016086E+03;  4.0008333E-01;  1.3326903E+03;3; -4.3898994E+01;  0.0000000E+00;  4.4060574E+00;0; -5.2409035E-01;  1.0034130E+04;  0.0000000E+00;  4.0186256E-05;  1.0000000E+04;  0.0000000E+00;  9.9938633E+03; -6.3863939E-01;  0.0000000E+00;  1.1454904E-01;  3.0261626E+03;
  5.5969459E-01;  9.9999998E-03;  1.8004721E-01;1921; -1.4495730E-01;  0.0000000E+00;  2.0837905E-02;  1.0016489E+03;  4.0008327E-01;  1.3660718E+03;3; -4.3188763E+01;  0.0000000E+00;  5.0543108E+00;0; -5.3526592E-01;  1.0035250E+04;  0.0000000E+00;  4.5103730E-05;  1.0000000E+04;  0.0000000E+00;  9.9935518E+03; -6.4991152E-01;  0.0000000E+00;  1.1464562E-01;  3.1850891E+03;
  5.5968571E-01;  9.9999998E-03;  2.0005140E-01;1922; -1.4704977E-01;  0.0000000E+00;  2.2723464E-02;  1.0016857E+03;  4.0008327E-01;  1.3965891E+03;3; -4.2627987E+01;  0.0000000E+00;  5.6204591E+00;0; -5.4468936E-01;  1.0036542E+04;  0.0000000E+00;  1.2648529E-04;  1.0000000E+04;  0.0000000E+00;  9.9930000E+03; -6.6238314E-01;  0.0000000E+00;  1.1769377E-01;  3.4592258E+03;
  5.5967730E-01;  9.9999998E-03;  2.2005507E-01;1923; -1.4856866E-01;  0.0000000E+00;  2.4431314E-02;  1.0017274E+03;  4.0008342E-01;  1.4311556E+03;3; -4.2820843E+01;  0.0000000E+00;  6.1679931E+00;0; -5.5436844E-01;  1.0037949E+04;  0.0000000E+00;  4.0283974E-04;  1.0000000E+04;  0.0000000E+00;  9.9924316E+03; -6.7574221E-01;  0.0000000E+00;  1.2137376E-01;  3.7417822E+03;
  5.5967009E-01;  9.9999998E-03;  2.4005896E-01;1924; -1.4930843E-01;  0.0000000E+00;  2.5926735E-02;  1.0017958E+03;  4.0008327E-01;  1.4877461E+03;3; -4.4492950E+01;  0.0000000E+00;  6.7399859E+00;0; -5.6985188E-01;  1.0039413E+04;  0.0000000E+00;  9.6054177E-04;  1.0000000E+04;  0.0000000E+00;  9.9923379E+03; -6.8950254E-01;  0.0000000E+00;  1.1965063E-01;  3.7941553E+03;
  5.5966455E-01;  9.9999998E-03;  2.6006615E-01;1925; -1.4908713E-01;  0.0000000E+00;  2.8459201E-02;  1.0019070E+03;  4.0008315E-01;  1.5798907E+03;3; -4.8596569E+01;  0.0000000E+00;  7.6659989E+00;0; -5.9222186E-01;  1.0040860E+04;  0.0000000E+00;  1.6234660E-03;  1.0000000E+04;  0.0000000E+00;  9.9931074E+03; -7.0328832E-01;  0.0000000E+00;  1.1106644E-01;  3.4283789E+03;
  5.5966121E-01;  9.9999998E-03;  2.8008232E-01;1926; -1.4785668E-01;  0.0000000E+00;  3.2904711E-02;  1.0019675E+03;  4.0008324E-01;  1.6300618E+03;3; -5.5469837E+01;  0.0000000E+00;  9.3491259E+00;0; -5.9913188E-01;  1.0042243E+04;  0.0000000E+00;  1.6462485E-03;  1.0000000E+04;  0.0000000E+00;  9.9929355E+03; -7.1672094E-01;  0.0000000E+00;  1.1758907E-01;  3.5101880E+03;
  5.5966026E-01;  9.9999998E-03;  3.0010086E-01;1927; -1.4575246E-01;  0.0000000E+00;  3.6104724E-02;  1.0019373E+03;  4.0008318E-01;  1.6049763E+03;3; -6.4524757E+01;  0.0000000E+00;  1.2311291E+01;0; -6.1414385E-01;  1.0043494E+04;  0.0000000E+00;  2.6364863E-04;  1.0000000E+04;  0.0000000E+00;  9.9910752E+03; -7.2918284E-01;  0.0000000E+00;  1.1503896E-01;  4.4416313E+03;
  5.7966572E-01;  9.9999998E-03;  1.6005711E-01;1951; -1.5706545E-01;  0.0000000E+00;  2.3507750E-02;  1.0018318E+03;  4.0022218E-01;  1.5175670E+03;3; -4.6786800E+01;  0.0000000E+00;  4.1996980E+00;0; -4.8118213E-01;  1.0033366E+04;  0.0000000E+00;  2.2379387E-05;  1.0000000E+04;  0.0000000E+00;  9.9921328E+03; -6.1344254E-01;  0.0000000E+00;  1.3226041E-01;  3.8600005E+03;
  5.7965583E-01;  9.9999998E-03;  1.8006322E-01;1952; -1.5961118E-01;  0.0000000E+00;  2.5848811E-02;  1.0018663E+03;  4.0022227E-01;  1.5461090E+03;3; -4.5915092E+01;  0.0000000E+00;  4.9048824E+00;0; -4.9192873E-01;  1.0034423E+04;  0.0000000E+00;  2.6781618E-05;  1.0000000E+04;  0.0000000E+00;  9.9917715E+03; -6.2339753E-01;  0.0000000E+00;  1.3146880E-01;  4.0437834E+03;
  5.7964575E-01;  9.9999998E-03;  2.0006838E-01;1953; -1.6187979E-01;  0.0000000E+00;  2.7845908E-02;  1.0018950E+03;  4.0022227E-01;  1.5699105E+03;3; -4.5198120E+01;  0.0000000E+00;  5.5465679E+00;0; -5.0004339E-01;  1.0035634E+04;  0.0000000E+00;  1.9421213E-04;  1.0000000E+04;  0.0000000E+00;  9.9911406E+03; -6.3462371E-01;  0.0000000E+00;  1.3458031E-01;  4.3550420E+03;
  5.7963592E-01;  9.9999998E-03;  2.2007267E-01;1954; -1.6365302E-01;  0.0000000E+00;  2.9472165E-02;  1.0019305E+03;  4.0022209E-01;  1.5993414E+03;3; -4.5302933E+01;  0.0000000E+00;  6.2406015E+00;0; -5.0833595E-01;  1.0036947E+04;  0.0000000E+00;  7.2408584E-04;  1.0000000E+04;  0.0000000E+00;  9.9905342E+03; -6.4662176E-01;  0.0000000E+00;  1.3828583E-01;  4.6548218E+03;
  5.7962662E-01;  9.9999998E-03;  2.4007632E-01;1955; -1.6472462E-01;  0.0000000E+00;  3.0878816E-02;  1.0020027E+03;  4.0022212E-01;  1.6591908E+03;3; -4.7144272E+01;  0.0000000E+00;  6.8843069E+00;0; -5.2390766E-01;  1.0038310E+04;  0.0000000E+00;  1.7243748E-03;  1.0000000E+04;  0.0000000E+00;  9.9906191E+03; -6.5884793E-01;  0.0000000E+00;  1.3494024E-01;  4.6201260E+03;
  5.7961816E-01;  9.9999998E-03;  2.6008359E-01;1956; -1.6501623E-01;  0.0000000E+00;  3.3468392E-02;  1.0021388E+03;  4.0022209E-01;  1.7719763E+03;3; -5.1761723E+01;  0.0000000E+00;  8.0001125E+00;0; -5.5002761E-01;  1.0039672E+04;  0.0000000E+00;  2.8148373E-03;  1.0000000E+04;  0.0000000E+00;  9.9919697E+03; -6.7109239E-01;  0.0000000E+00;  1.2106480E-01;  3.9716101E+03;
  5.7961041E-01;  9.9999998E-03;  2.8010178E-01;1957; -1.6466908E-01;  0.0000000E+00;  3.8579278E-02;  1.0022272E+03;  4.0022200E-01;  1.8451584E+03;3; -5.9687630E+01;  0.0000000E+00;  9.9557190E+00;0; -5.5755019E-01;  1.0040996E+04;  0.0000000E+00;  2.7096388E-03;  1.0000000E+04;  0.0000000E+00;  9.9924072E+03; -6.8322361E-01;  0.0000000E+00;  1.2567340E-01;  3.7524978E+03;
  5.7960290E-01;  9.9999998E-03;  3.0012351E-01;1958; -1.6410138E-01;  0.0000000E+00;  4.2141203E-02;  1.0021956E+03;  4.0022191E-01;  1.8189867E+03;3; -7.0465034E+01;  0.0000000E+00;  1.3194409E+01;0; -5.7444352E-01;  1.0042213E+04;  0.0000000E+00;  5.4142281E-04;  1.0000000E+04;  0.0000000E+00;  9.9905576E+03; -6.9472742E-01;  0.0000000E+00;  1.2028390E-01;  4.6814810E+03;
  5.9962875E-01;  9.9999998E-03;  1.6007444E-01;1982; -1.7090498E-01;  0.0000000E+00;  2.9173341E-02;  1.0024290E+03;  4.0057522E-01;  2.0123524E+03;3; -4.9411545E+01;  0.0000000E+00;  3.9209726E+00;0; -3.8980144E-01;  1.0030035E+04;  0.0000000E+00; -4.9801136E-05;  1.0000000E+04;  0.0000000E+00;  9.9897676E+03; -5.4533261E-01;  0.0000000E+00;  1.5553117E-01;  4.9902095E+03;
  5.9961772E-01;  9.9999998E-03;  1.8008220E-01;1983; -1.7361020E-01;  0.0000000E+00;  3.1796232E-02;  1.0024477E+03;  4.0057498E-01;  2.0278579E+03;3; -4.8391525E+01;  0.0000000E+00;  4.6388435E+00;0; -3.9841226E-01;  1.0030903E+04;  0.0000000E+00; -3.8123046E-05;  1.0000000E+04;  0.0000000E+00;  9.9892881E+03; -5.5236632E-01;  0.0000000E+00;  1.5395406E-01;  5.2321128E+03;
  5.9960657E-01;  9.9999998E-03;  2.0008919E-01;1984; -1.7602476E-01;  0.0000000E+00;  3.3983972E-02;  1.0024585E+03;  4.0057498E-01;  2.0367465E+03;3; -4.7569984E+01;  0.0000000E+00;  5.2812142E+00;0; -4.0302032E-01;  1.0031865E+04;  0.0000000E+00;  2.8627252E-04;  1.0000000E+04;  0.0000000E+00;  9.9885469E+03; -5.5995882E-01;  0.0000000E+00;  1.5693851E-01;  5.5973906E+03;
  5.9959543E-01;  9.9999998E-03;  2.2009508E-01;1985; -1.7802775E-01;  0.0000000E+00;  3.5780337E-02;  1.0024766E+03;  4.0057504E-01;  2.0517581E+03;3; -4.7615017E+01;  0.0000000E+00;  6.0713253E+00;0; -4.0711480E-01;  1.0032872E+04;  0.0000000E+00;  1.2468338E-03;  1.0000000E+04;  0.0000000E+00;  9.9879092E+03; -5.6739402E-01;  0.0000000E+00;  1.6027920E-01;  5.9102676E+03;
  5.9958422E-01;  9.9999998E-03;  2.4010012E-01;1986; -1.7942452E-01;  0.0000000E+00;  3.7274800E-02;  1.0025405E+03;  4.0057486E-01;  2.1046938E+03;3; -4.9467079E+01;  0.0000000E+00;  7.0376801E+00;0; -4.1991377E-01;  1.0033883E+04;  0.0000000E+00;  2.9667339E-03;  1.0000000E+04;  0.0000000E+00;  9.9881768E+03; -5.7435411E-01;  0.0000000E+00;  1.5444033E-01;  5.7863340E+03;
  5.9957284E-01;  9.9999998E-03;  2.6010925E-01;1987; -1.8005690E-01;  0.0000000E+00;  4.0586777E-02;  1.0026823E+03;  4.0057459E-01;  2.2221206E+03;3; -5.4451817E+01;  0.0000000E+00;  8.7162085E+00;0; -4.4259137E-01;  1.0034892E+04;  0.0000000E+00;  4.7181067E-03;  1.0000000E+04;  0.0000000E+00;  9.9899932E+03; -5.8112448E-01;  0.0000000E+00;  1.3853310E-01;  4.9092393E+03;
  5.9956032E-01;  9.9999998E-03;  2.8012991E-01;1988; -1.8081141E-01;  0.0000000E+00;  4.6104416E-02;  1.0027800E+03;  4.0057451E-01;  2.3031045E+03;3; -6.3619267E+01;  0.0000000E+00;  1.0796821E+01;0; -4.4758135E-01;  1.0035885E+04;  0.0000000E+00;  4.3842993E-03;  1.0000000E+04;  0.0000000E+00;  9.9909434E+03; -5.8805174E-01;  0.0000000E+00;  1.4047039E-01;  4.4361680E+03;
  5.9954524E-01;  9.9999998E-03;  3.0015391E-01;1989; -1.8205826E-01;  0.0000000E+00;  4.9832318E-02;  1.0027518E+03;  4.0057421E-01;  2.2797971E+03;3; -7.6195351E+01;  0.0000000E+00;  1.4221521E+01;0; -4.6441182E-01;  1.0036819E+04;  0.0000000E+00;  1.0526810E-03;  1.0000000E+04;  0.0000000E+00;  9.9894531E+03; -5.9497589E-01;  0.0000000E+00;  1.3056406E-01;  5.1911421E+03;
  6.1959499E-01;  9.9999998E-03;  1.6009460E-01;2013; -1.8317540E-01;  0.0000000E+00;  3.5548225E-02;  1.0039463E+03;  4.0138391E-01;  3.2693616E+03;3; -5.1616390E+01;  0.0000000E+00;  3.4148233E+00;0; -2.2951506E-01;  1.0023063E+04;  0.0000000E+00; -1.8526905E-04;  1.0000000E+04;  0.0000000E+00;  9.9867139E+03; -4.1452846E-01;  0.0000000E+00;  1.8501340E-01;  6.4397314E+03;
  6.1958271E-01;  9.9999998E-03;  1.8010414E-01;2014; -1.8607992E-01;  0.0000000E+00;  3.8420644E-02;  1.0039402E+03;  4.0138361E-01;  3.2643250E+03;3; -5.0469070E+01;  0.0000000E+00;  4.1664181E+00;0; -2.3441258E-01;  1.0023592E+04;  0.0000000E+00; -1.4297165E-04;  1.0000000E+04;  0.0000000E+00;  9.9860703E+03; -4.1645733E-01;  0.0000000E+00;  1.8204474E-01;  6.7622607E+03;
  6.1957014E-01;  9.9999998E-03;  2.0011321E-01;2015; -1.8875852E-01;  0.0000000E+00;  4.0990762E-02;  1.0039227E+03;  4.0138352E-01;  3.2498071E+03;3; -4.9564678E+01;  0.0000000E+00;  4.8768702E+00;0; -2.3346622E-01;  1.0024108E+04;  0.0000000E+00;  4.3679410E-04;  1.0000000E+04;  0.0000000E+00;  9.9852207E+03; -4.1731283E-01;  0.0000000E+00;  1.8384661E-01;  7.1809858E+03;
  6.1955768E-01;  9.9999998E-03;  2.2012223E-01;2016; -1.9093326E-01;  0.0000000E+00;  4.3323804E-02;  1.0039138E+03;  4.0138340E-01;  3.2424001E+03;3; -4.9580647E+01;  0.0000000E+00;  5.7458706E+00;0; -2.3087969E-01;  1.0024565E+04;  0.0000000E+00;  2.0329996E-03;  1.0000000E+04;  0.0000000E+00;  9.9846006E+03; -4.1641521E-01;  0.0000000E+00;  1.8553552E-01;  7.4853125E+03;
  6.1954457E-01;  9.9999998E-03;  2.4013148E-01;2017; -1.9277932E-01;  0.0000000E+00;  4.5490708E-02;  1.0039541E+03;  4.0138310E-01;  3.2757810E+03;3; -5.1655437E+01;  0.0000000E+00;  6.9768944E+00;0; -2.3674205E-01;  1.0024957E+04;  0.0000000E+00;  4.7384887E-03;  1.0000000E+04;  0.0000000E+00;  9.9850146E+03; -4.1403612E-01;  0.0000000E+00;  1.7729408E-01;  7.2887295E+03;
  6.1953074E-01;  9.9999998E-03;  2.6014617E-01;2018; -1.9401492E-01;  0.0000000E+00;  4.9636856E-02;  1.0040629E+03;  4.0138277E-01;  3.3659492E+03;3; -5.6934517E+01;  0.0000000E+00;  9.4696589E+00;0; -2.5120622E-01;  1.0025336E+04;  0.0000000E+00;  7.2906604E-03;  1.0000000E+04;  0.0000000E+00;  9.9868047E+03; -4.1118971E-01;  0.0000000E+00;  1.5998347E-01;  6.4208247E+03;
  6.1951518E-01;  9.9999998E-03;  2.8017116E-01;2019; -1.9492428E-01;  0.0000000E+00;  5.6440361E-02;  1.0041170E+03;  4.0138230E-01;  3.4107864E+03;3; -6.6808861E+01;  0.0000000E+00;  1.2318490E+01;0; -2.3718427E-01;  1.0025727E+04;  0.0000000E+00;  6.6031087E-03;  1.0000000E+04;  0.0000000E+00;  9.9874922E+03; -4.0878624E-01;  0.0000000E+00;  1.7160197E-01;  6.0606675E+03;
  6.1949408E-01;  9.9999998E-03;  3.0019575E-01;2020; -1.9776899E-01;  0.0000000E+00;  6.0118224E-02;  1.0040875E+03;  4.0138176E-01;  3.3862939E+03;3; -8.1144989E+01;  0.0000000E+00;  1.5916309E+01;0; -2.4838807E-01;  1.0026109E+04;  0.0000000E+00;  1.7736219E-03;  1.0000000E+04;  0.0000000E+00;  9.9865498E+03; -4.0701750E-01;  0.0000000E+00;  1.5862943E-01;  6.5464756E+03;
  6.3956594E-01;  9.9999998E-03;  1.6011716E-01;2044; -1.9336127E-01;  0.0000000E+00;  4.2333119E-02;  1.0068879E+03;  4.0286854E-01;  5.7063247E+03;3; -5.3265751E+01;  0.0000000E+00;  2.6189082E+00;0;  2.0706624E-02;  1.0011481E+04;  0.0000000E+00; -3.4131182E-04;  1.0000000E+04;  0.0000000E+00;  9.9830371E+03; -1.9938913E-01;  0.0000000E+00;  2.2009575E-01;  8.1721440E+03;
  6.3955271E-01;  9.9999998E-03;  1.8012922E-01;2045; -1.9639328E-01;  0.0000000E+00;  4.5563776E-02;  1.0068495E+03;  4.0286839E-01;  5.6745244E+03;3; -5.2025696E+01;  0.0000000E+00;  3.4129634E+00;0;  2.0004049E-02;  1.0011527E+04;  0.0000000E+00; -2.1999721E-04;  1.0000000E+04;  0.0000000E+00;  9.9822432E+03; -1.9403045E-01;  0.0000000E+00;  2.1403450E-01;  8.5723789E+03;
  6.3953853E-01;  9.9999998E-03;  2.0014116E-01;2046; -1.9940236E-01;  0.0000000E+00;  4.8707865E-02;  1.0067974E+03;  4.0286800E-01;  5.6312676E+03;3; -5.1076633E+01;  0.0000000E+00;  4.3215818E+00;0;  2.6995793E-02;  1.0011423E+04;  0.0000000E+00;  7.0746610E-04;  1.0000000E+04;  0.0000000E+00;  9.9813340E+03; -1.8546127E-01;  0.0000000E+00;  2.1245706E-01;  9.0207705E+03;
  6.3952440E-01;  9.9999998E-03;  2.2015546E-01;2047; -2.0197842E-01;  0.0000000E+00;  5.2017599E-02;  1.0067548E+03;  4.0286776E-01;  5.5960107E+03;3; -5.1142967E+01;  0.0000000E+00;  5.4833322E+00;0;  3.6735624E-02;  1.0011135E+04;  0.0000000E+00;  3.0412124E-03;  1.0000000E+04;  0.0000000E+00;  9.9807900E+03; -1.7337175E-01;  0.0000000E+00;  2.1010737E-01;  9.2890830E+03;
  6.3951057E-01;  9.9999998E-03;  2.4017558E-01;2048; -2.0398092E-01;  0.0000000E+00;  5.6435455E-02;  1.0067437E+03;  4.0286735E-01;  5.5868257E+03;3; -5.3357220E+01;  0.0000000E+00;  7.3985023E+00;0;  4.3374717E-02;  1.0010725E+04;  0.0000000E+00;  6.7318832E-03;  1.0000000E+04;  0.0000000E+00;  9.9809902E+03; -1.5878858E-01;  0.0000000E+00;  2.0216329E-01;  9.1941777E+03;
  6.3949633E-01;  9.9999998E-03;  2.6020202E-01;2049; -2.0536427E-01;  0.0000000E+00;  6.2543325E-02;  1.0067421E+03;  4.0286690E-01;  5.5855420E+03;3; -5.8974079E+01;  0.0000000E+00;  1.0749146E+01;0;  5.2675158E-02;  1.0010277E+04;  0.0000000E+00;  9.9015720E-03;  1.0000000E+04;  0.0000000E+00;  9.9814102E+03; -1.4343072E-01;  0.0000000E+00;  1.9610588E-01;  8.9867607E+03;
  6.3947910E-01;  9.9999998E-03;  2.8022850E-01;2050; -2.0624910E-01;  0.0000000E+00;  6.9863565E-02;  1.0067114E+03;  4.0286633E-01;  5.5601606E+03;3; -6.9198769E+01;  0.0000000E+00;  1.4791068E+01;0;  9.1826484E-02;  1.0009856E+04;  0.0000000E+00;  8.5944887E-03;  1.0000000E+04;  0.0000000E+00;  9.9812324E+03; -1.2865248E-01;  0.0000000E+00;  2.2047897E-01;  9.0329541E+03;
  6.3945591E-01;  9.9999998E-03;  3.0025175E-01;2051; -2.0917803E-01;  0.0000000E+00;  7.3421821E-02;  1.0066593E+03;  4.0286544E-01;  5.5169043E+03;3; -8.4710175E+01;  0.0000000E+00;  1.8022518E+01;0;  1.0072196E-01;  1.0009469E+04;  0.0000000E+00;  2.3978024E-03;  1.0000000E+04;  0.0000000E+00;  9.9806279E+03; -1.1489551E-01;  0.0000000E+00;  2.1561746E-01;  9.3342949E+03;
  6.5954471E-01;  9.9999998E-03;  1.6014397E-01;2075; -2.0078111E-01;  0.0000000E+00;  4.9924053E-02;  1.0105289E+03;  4.0474069E-01;  8.7226406E+03;3; -5.4494797E+01;  0.0000000E+00;  1.3667715E+00;0;  3.7032166E-01;  9.9950459E+03;  0.0000000E+00; -4.1840514E-04;  1.0000000E+04;  0.0000000E+00;  9.9789648E+03;  1.1176211E-01;  0.0000000E+00;  2.5855955E-01;  1.0078407E+04;
  6.5953106E-01;  9.9999998E-03;  1.8015975E-01;2076; -2.0382972E-01;  0.0000000E+00;  5.3832062E-02;  1.0104573E+03;  4.0474036E-01;  8.6632871E+03;3; -5.3133713E+01;  0.0000000E+00;  2.2845497E+00;0;  3.7218451E-01;  9.9945176E+03;  0.0000000E+00; -1.6360549E-04;  1.0000000E+04;  0.0000000E+00;  9.9780957E+03;  1.2554300E-01;  0.0000000E+00;  2.4664152E-01;  1.0520651E+04;
  6.5951663E-01;  9.9999998E-03;  2.0017791E-01;2077; -2.0680335E-01;  0.0000000E+00;  5.8171578E-02;  1.0103710E+03;  4.0474039E-01;  8.5917861E+03;3; -5.2123360E+01;  0.0000000E+00;  3.5478954E+00;0;  3.8332328E-01;  9.9937080E+03;  0.0000000E+00;  1.1057832E-03;  1.0000000E+04;  0.0000000E+00;  9.9772021E+03;  1.4439914E-01;  0.0000000E+00;  2.3892415E-01;  1.0963970E+04;
  6.5950257E-01;  9.9999998E-03;  2.2020362E-01;2078; -2.0925723E-01;  0.0000000E+00;  6.4072102E-02;  1.0102863E+03;  4.0474015E-01;  8.5216670E+03;3; -5.2103909E+01;  0.0000000E+00;  5.4181123E+00;0;  4.0040982E-01;  9.9926318E+03;  0.0000000E+00;  3.9928760E-03;  1.0000000E+04;  0.0000000E+00;  9.9766104E+03;  1.6810730E-01;  0.0000000E+00;  2.3230250E-01;  1.1258340E+04;
  6.5948999E-01;  9.9999998E-03;  2.4024019E-01;2079; -2.1083136E-01;  0.0000000E+00;  7.2048828E-02;  1.0101848E+03;  4.0473998E-01;  8.4375254E+03;3; -5.4263626E+01;  0.0000000E+00;  8.5861645E+00;0;  4.2666355E-01;  9.9913721E+03;  0.0000000E+00;  8.1967004E-03;  1.0000000E+04;  0.0000000E+00;  9.9758555E+03;  1.9506954E-01;  0.0000000E+00;  2.3159401E-01;  1.1622479E+04;
  6.5947604E-01;  9.9999998E-03;  2.6027581E-01;2080; -2.1230127E-01;  0.0000000E+00;  7.8748524E-02;  1.0100282E+03;  4.0473992E-01;  8.3078564E+03;3; -5.9901882E+01;  0.0000000E+00;  1.3016105E+01;0;  4.6289277E-01;  9.9900498E+03;  0.0000000E+00;  1.1300720E-02;  1.0000000E+04;  0.0000000E+00;  9.9740713E+03;  2.2320840E-01;  0.0000000E+00;  2.3968436E-01;  1.2489043E+04;
  6.5945745E-01;  9.9999998E-03;  2.8029567E-01;2081; -2.1294296E-01;  0.0000000E+00;  8.5522242E-02;  1.0099363E+03;  4.0473962E-01;  8.2317129E+03;3; -7.0054100E+01;  0.0000000E+00;  1.8965483E+01;0;  5.2713311E-01;  9.9887539E+03;  0.0000000E+00;  9.0142563E-03;  1.0000000E+04;  0.0000000E+00;  9.9735557E+03;  2.5096783E-01;  0.0000000E+00;  2.7616525E-01;  1.2677072E+04;
  6.5943515E-01;  9.9999998E-03;  3.0031717E-01;2082; -2.1503711E-01;  0.0000000E+00;  8.9060254E-02;  1.0098348E+03;  4.0473866E-01;  8.1476699E+03;3; -8.5869560E+01;  0.0000000E+00;  2.0059620E+01;0;  5.7078165E-01;  9.9875215E+03;  0.0000000E+00;  2.1467987E-03;  1.0000000E+04;  0.0000000E+00;  9.9728223E+03;  2.7752334E-01;  0.0000000E+00;  2.9325831E-01;  1.3016052E+04;
  6.7953658E-01;  9.9999998E-03;  1.6017973E-01;2106; -2.0356941E-01;  0.0000000E+00;  6.1314084E-02;  1.0130428E+03;  4.0623984E-01;  1.0805098E+04;3; -5.4953049E+01;  0.0000000E+00;  2.9311481E-01;0;  8.0291677E-01;  9.9748838E+03;  0.0000000E+00; -3.4202309E-04;  1.0000000E+04;  0.0000000E+00;  9.9748545E+03;  5.0619125E-01;  0.0000000E+00;  2.9672554E-01;  1.1988061E+04;
  6.7952317E-01;  9.9999998E-03;  1.8020065E-01;2107; -2.0653205E-01;  0.0000000E+00;  6.6229887E-02;  1.0129460E+03;  4.0623999E-01;  1.0724907E+04;3; -5.3614727E+01;  0.0000000E+00;  1.4670420E+00;0;  8.0344814E-01;  9.9737832E+03;  0.0000000E+00;  4.5958681E-05;  1.0000000E+04;  0.0000000E+00;  9.9740391E+03;  5.2763188E-01;  0.0000000E+00;  2.7581626E-01;  1.2409280E+04;
  6.7950922E-01;  9.9999998E-03;  2.0022681E-01;2108; -2.0930226E-01;  0.0000000E+00;  7.2402999E-02;  1.0128336E+03;  4.0624025E-01;  1.0631780E+04;3; -5.2496025E+01;  0.0000000E+00;  2.9952383E+00;0;  8.1489110E-01;  9.9723398E+03;  0.0000000E+00;  1.4654340E-03;  1.0000000E+04;  0.0000000E+00;  9.9732637E+03;  5.5485380E-01;  0.0000000E+00;  2.6003730E-01;  1.2805026E+04;
  6.7949694E-01;  9.9999998E-03;  2.2026548E-01;2109; -2.1116664E-01;  0.0000000E+00;  8.1147015E-02;  1.0127082E+03;  4.0624034E-01;  1.0527888E+04;3; -5.2414295E+01;  0.0000000E+00;  5.6269073E+00;0;  8.3796376E-01;  9.9705938E+03;  0.0000000E+00;  4.3722433E-03;  1.0000000E+04;  0.0000000E+00;  9.9725244E+03;  5.8721793E-01;  0.0000000E+00;  2.5074583E-01;  1.3170580E+04;
  6.7948723E-01;  9.9999998E-03;  2.4031451E-01;2110; -2.1210837E-01;  0.0000000E+00;  9.1302536E-02;  1.0125167E+03;  4.0624085E-01;  1.0369284E+04;3; -5.4302280E+01;  0.0000000E+00;  1.0151586E+01;0;  8.8382137E-01;  9.9686445E+03;  0.0000000E+00;  8.1999777E-03;  1.0000000E+04;  0.0000000E+00;  9.9706768E+03;  6.2307578E-01;  0.0000000E+00;  2.6074558E-01;  1.4062884E+04;
  6.7947423E-01;  9.9999998E-03;  2.6034746E-01;2111; -2.1397372E-01;  0.0000000E+00;  9.4738409E-02;  1.0122670E+03;  4.0624145E-01;  1.0162389E+04;3; -5.9811520E+01;  0.0000000E+00;  1.5986479E+01;0;  9.2707455E-01;  9.9666045E+03;  0.0000000E+00;  1.0303907E-02;  1.0000000E+04;  0.0000000E+00;  9.9677520E+03;  6.6052222E-01;  0.0000000E+00;  2.6655230E-01;  1.5492494E+04;
  6.7945570E-01;  9.9999998E-03;  2.8035754E-01;2112; -2.1406277E-01;  0.0000000E+00;  1.0027752E-01;  1.0121697E+03;  4.0624163E-01;  1.0081803E+04;3; -6.9171982E+01;  0.0000000E+00;  2.4117147E+01;0;  1.0025998E+00;  9.9645703E+03;  0.0000000E+00;  6.9035757E-03;  1.0000000E+04;  0.0000000E+00;  9.9678496E+03;  6.9799346E-01;  0.0000000E+00;  3.0460638E-01;  1.5367604E+04;
  6.7944193E-01;  9.9999998E-03;  3.0037841E-01;2113; -2.1332097E-01;  0.0000000E+00;  1.0471559E-01;  1.0120143E+03;  4.0624112E-01;  9.9531221E+03;3; -8.3577858E+01;  0.0000000E+00;  2.1317781E+01;0;  1.0993249E+00;  9.9626602E+03;  0.0000000E+00;  7.0292508E-04;  1.0000000E+04;  0.0000000E+00;  9.9667090E+03;  7.3371041E-01;  0.0000000E+00;  3.6561450E-01;  1.5858866E+04;
  6.9955218E-01;  9.9999998E-03;  1.6022553E-01;2137; -1.9843312E-01;  0.0000000E+00;  7.9548419E-02;  1.0138366E+03;  4.0706280E-01;  1.1462490E+04;3; -5.3751839E+01;  0.0000000E+00;  1.2153395E+00;0;  1.2673291E+00;  9.9538018E+03;  0.0000000E+00; -1.5613377E-04;  1.0000000E+04;  0.0000000E+00;  9.9711260E+03;  9.3717486E-01;  0.0000000E+00;  3.3015424E-01;  1.3708032E+04;
  6.9954002E-01;  9.9999998E-03;  1.8025263E-01;2138; -2.0084247E-01;  0.0000000E+00;  8.6108185E-02;  1.0137265E+03;  4.0706345E-01;  1.1371241E+04;3; -5.2338001E+01;  0.0000000E+00;  2.6154747E+00;0;  1.2615581E+00;  9.9522217E+03;  0.0000000E+00;  2.6586285E-04;  1.0000000E+04;  0.0000000E+00;  9.9705215E+03;  9.6352708E-01;  0.0000000E+00;  2.9803091E-01;  1.4039149E+04;
  6.9952786E-01;  9.9999998E-03;  2.0028621E-01;2139; -2.0290934E-01;  0.0000000E+00;  9.4069630E-02;  1.0136011E+03;  4.0706387E-01;  1.1267449E+04;3; -5.1124237E+01;  0.0000000E+00;  4.6957903E+00;0;  1.2689642E+00;  9.9503418E+03;  0.0000000E+00;  1.5086461E-03;  1.0000000E+04;  0.0000000E+00;  9.9699219E+03;  9.9450886E-01;  0.0000000E+00;  2.7445528E-01;  1.4353385E+04;
  6.9951910E-01;  9.9999998E-03;  2.2033206E-01;2140; -2.0387541E-01;  0.0000000E+00;  1.0401956E-01;  1.0134504E+03;  4.0706447E-01;  1.1142524E+04;3; -5.0918785E+01;  0.0000000E+00;  8.2068396E+00;0;  1.2957469E+00;  9.9482129E+03;  0.0000000E+00;  3.8235500E-03;  1.0000000E+04;  0.0000000E+00;  9.9690547E+03;  1.0292107E+00;  0.0000000E+00;  2.6653624E-01;  1.4777448E+04;
  6.9951397E-01;  9.9999998E-03;  2.4038091E-01;2141; -2.0448963E-01;  0.0000000E+00;  1.1117934E-01;  1.0132161E+03;  4.0706536E-01;  1.0948471E+04;3; -5.2868176E+01;  0.0000000E+00;  1.3082282E+01;0;  1.3492934E+00;  9.9459258E+03;  0.0000000E+00;  6.5627699E-03;  1.0000000E+04;  0.0000000E+00;  9.9666924E+03;  1.0664896E+00;  0.0000000E+00;  2.8280380E-01;  1.5914735E+04;
  6.9950384E-01;  9.9999998E-03;  2.6040599E-01;2142; -2.0664230E-01;  0.0000000E+00;  1.0841984E-01;  1.0129427E+03;  4.0706626E-01;  1.0722026E+04;3; -5.8300255E+01;  0.0000000E+00;  1.7426401E+01;0;  1.3802903E+00;  9.9435645E+03;  0.0000000E+00;  7.3972908E-03;  1.0000000E+04;  0.0000000E+00;  9.9636221E+03;  1.1050513E+00;  0.0000000E+00;  2.7523899E-01;  1.7433637E+04;
  6.9949800E-01;  9.9999998E-03;  2.8040546E-01;2143; -2.0174511E-01;  0.0000000E+00;  1.1161955E-01;  1.0129091E+03;  4.0706673E-01;  1.0694178E+04;3; -6.5307114E+01;  0.0000000E+00;  2.7106482E+01;0;  1.4406700E+00;  9.9412314E+03;  0.0000000E+00;  4.3649413E-03;  1.0000000E+04;  0.0000000E+00;  9.9652578E+03;  1.1432526E+00;  0.0000000E+00;  2.9741740E-01;  1.6557840E+04;
  6.9952238E-01;  9.9999998E-03;  3.0042478E-01;2144; -1.8398006E-01;  0.0000000E+00;  1.1605016E-01;  1.0127689E+03;  4.0706661E-01;  1.0577942E+04;3; -7.0314407E+01;  0.0000000E+00;  2.3480230E+01;0;  1.5492483E+00;  9.9391270E+03;  0.0000000E+00;  1.8432497E-03;  1.0000000E+04;  0.0000000E+00;  9.9645713E+03;  1.1779449E+00;  0.0000000E+00;  3.7130344E-01;  1.6805586E+04;
  7.1962875E-01;  9.9999998E-03;  1.6027158E-01;2168; -1.7468607E-01;  0.0000000E+00;  1.0471791E-01;  1.0136699E+03;  4.0742421E-01;  1.1324123E+04;3; -5.0190952E+01;  0.0000000E+00;  8.0957346E+00;0;  1.6830057E+00;  9.9358018E+03;  0.0000000E+00;  1.1152608E-05;  1.0000000E+04;  0.0000000E+00;  9.9681484E+03;  1.3280767E+00;  0.0000000E+00;  3.5492894E-01;  1.5079138E+04;
  7.1961683E-01;  9.9999998E-03;  1.8030348E-01;2169; -1.7677963E-01;  0.0000000E+00;  1.1227261E-01;  1.0135593E+03;  4.0742496E-01;  1.1232480E+04;3; -4.8369686E+01;  0.0000000E+00;  9.0614109E+00;0;  1.6670400E+00;  9.9339043E+03;  0.0000000E+00;  3.3111568E-04;  1.0000000E+04;  0.0000000E+00;  9.9678438E+03;  1.3554796E+00;  0.0000000E+00;  3.1156036E-01;  1.5271901E+04;
  7.1960586E-01;  9.9999998E-03;  2.0034119E-01;2170; -1.7811374E-01;  0.0000000E+00;  1.2067537E-01;  1.0134368E+03;  4.0742567E-01;  1.1130963E+04;3; -4.6793854E+01;  0.0000000E+00;  1.0945548E+01;0;  1.6666808E+00;  9.9318389E+03;  0.0000000E+00;  1.1497274E-03;  1.0000000E+04;  0.0000000E+00;  9.9674785E+03;  1.3841629E+00;  0.0000000E+00;  2.8251785E-01;  1.5474018E+04;
  7.1959931E-01;  9.9999998E-03;  2.2038552E-01;2171; -1.7757750E-01;  0.0000000E+00;  1.2615867E-01;  1.0132884E+03;  4.0742618E-01;  1.1008017E+04;3; -4.6274899E+01;  0.0000000E+00;  1.2919921E+01;0;  1.6888366E+00;  9.9296973E+03;  0.0000000E+00;  2.6075225E-03;  1.0000000E+04;  0.0000000E+00;  9.9666729E+03;  1.4128119E+00;  0.0000000E+00;  2.7602470E-01;  1.5865198E+04;
  7.1960163E-01;  9.9999998E-03;  2.4042609E-01;2172; -1.7287096E-01;  0.0000000E+00;  1.2583698E-01;  1.0130703E+03;  4.0742701E-01;  1.0827300E+04;3; -4.6520283E+01;  0.0000000E+00;  1.5646581E+01;0;  1.7299211E+00;  9.9275547E+03;  0.0000000E+00;  4.3589952E-03;  1.0000000E+04;  0.0000000E+00;  9.9644893E+03;  1.4408106E+00;  0.0000000E+00;  2.8911057E-01;  1.6916326E+04;
  7.1961325E-01;  9.9999998E-03;  2.6044160E-01;2173; -1.6222523E-01;  0.0000000E+00;  1.1877468E-01;  1.0128621E+03;  4.0742829E-01;  1.0654878E+04;3; -4.6339760E+01;  0.0000000E+00;  1.9597883E+01;0;  1.7373536E+00;  9.9254502E+03;  0.0000000E+00;  5.5883592E-03;  1.0000000E+04;  0.0000000E+00;  9.9624414E+03;  1.4677833E+00;  0.0000000E+00;  2.6957026E-01;  1.7942164E+04;
  7.1963608E-01;  9.9999998E-03;  2.8043836E-01;2174; -1.4516553E-01;  0.0000000E+00;  1.2160386E-01;  1.0129014E+03;  4.0742856E-01;  1.0687467E+04;3; -4.6039955E+01;  0.0000000E+00;  2.8354080E+01;0;  1.7907706E+00;  9.9234805E+03;  0.0000000E+00;  5.6084874E-03;  1.0000000E+04;  0.0000000E+00;  9.9651436E+03;  1.4924674E+00;  0.0000000E+00;  2.9830322E-01;  1.6530172E+04;
  7.1966892E-01;  9.9999998E-03;  3.0045947E-01;2175; -1.2475399E-01;  0.0000000E+00;  1.2498195E-01;  1.0127709E+03;  4.0742832E-01;  1.0579332E+04;3; -4.6116215E+01;  0.0000000E+00;  2.3565987E+01;0;  1.8767936E+00;  9.9218018E+03;  0.0000000E+00;  3.5699666E-03;  1.0000000E+04;  0.0000000E+00;  9.9642344E+03;  1.5123638E+00;  0.0000000E+00;  3.6442977E-01;  1.6908320E+04;
  7.3976135E-01;  9.9999998E-03;  1.6028865E-01;2199; -1.1435214E-01;  0.0000000E+00;  1.1054451E-01;  1.0133425E+03;  4.0756708E-01;  1.1052442E+04;3; -3.3732853E+01;  0.0000000E+00;  7.8817558E+00;0;  1.9667690E+00;  9.9244609E+03;  0.0000000E+00;  8.3770683E-05;  1.0000000E+04;  0.0000000E+00;  9.9660928E+03;  1.5974373E+00;  0.0000000E+00;  3.6933178E-01;  1.6025903E+04;
  7.3975354E-01;  9.9999998E-03;  1.8032081E-01;2200; -1.1535491E-01;  0.0000000E+00;  1.1753049E-01;  1.0132426E+03;  4.0756759E-01;  1.0969690E+04;3; -3.2085304E+01;  0.0000000E+00;  8.5014496E+00;0;  1.9382818E+00;  9.9224336E+03;  0.0000000E+00;  2.4392837E-04;  1.0000000E+04;  0.0000000E+00;  9.9661240E+03;  1.6222796E+00;  0.0000000E+00;  3.1600210E-01;  1.6063112E+04;
  7.3974687E-01;  9.9999998E-03;  2.0035733E-01;2201; -1.1552064E-01;  0.0000000E+00;  1.2451404E-01;  1.0131432E+03;  4.0756842E-01;  1.0887434E+04;3; -3.0512726E+01;  0.0000000E+00;  9.8369751E+00;0;  1.9217257E+00;  9.9204326E+03;  0.0000000E+00;  6.3371751E-04;  1.0000000E+04;  0.0000000E+00;  9.9661504E+03;  1.6435480E+00;  0.0000000E+00;  2.7817777E-01;  1.6082654E+04;
  7.3974407E-01;  9.9999998E-03;  2.2039941E-01;2202; -1.1357173E-01;  0.0000000E+00;  1.2831518E-01;  1.0130367E+03;  4.0756911E-01;  1.0799152E+04;3; -2.9180637E+01;  0.0000000E+00;  1.1283867E+01;0;  1.9214275E+00;  9.9185840E+03;  0.0000000E+00;  1.3808585E-03;  1.0000000E+04;  0.0000000E+00;  9.9658857E+03;  1.6594138E+00;  0.0000000E+00;  2.6201364E-01;  1.6218543E+04;
  7.3974830E-01;  9.9999998E-03;  2.4043722E-01;2203; -1.0821003E-01;  0.0000000E+00;  1.2708271E-01;  1.0128947E+03;  4.0756989E-01;  1.0681542E+04;3; -2.8179426E+01;  0.0000000E+00;  1.4430394E+01;0;  1.9297910E+00;  9.9169668E+03;  0.0000000E+00;  2.4665857E-03;  1.0000000E+04;  0.0000000E+00;  9.9646777E+03;  1.6695497E+00;  0.0000000E+00;  2.6024121E-01;  1.6806104E+04;
  7.3975945E-01;  9.9999998E-03;  2.6045379E-01;2204; -9.9382743E-02;  0.0000000E+00;  1.2199499E-01;  1.0127856E+03;  4.0757081E-01;  1.0591188E+04;3; -2.7561600E+01;  0.0000000E+00;  2.0171431E+01;0;  1.9079325E+00;  9.9155820E+03;  0.0000000E+00;  3.5755509E-03;  1.0000000E+04;  0.0000000E+00;  9.9638730E+03;  1.6748397E+00;  0.0000000E+00;  2.3309283E-01;  1.7225293E+04;
  7.3977625E-01;  9.9999998E-03;  2.8045788E-01;2205; -8.7839700E-02;  0.0000000E+00;  1.2989768E-01;  1.0128547E+03;  4.0757087E-01;  1.0648363E+04;3; -2.7356110E+01;  0.0000000E+00;  3.1829762E+01;0;  1.9819498E+00;  9.9144375E+03;  0.0000000E+00;  3.6624488E-03;  1.0000000E+04;  0.0000000E+00;  9.9663604E+03;  1.6764107E+00;  0.0000000E+00;  3.0553916E-01;  1.5864605E+04;
  7.3979884E-01;  9.9999998E-03;  3.0048493E-01;2206; -7.4632630E-02;  0.0000000E+00;  1.3296740E-01;  1.0126936E+03;  4.0757057E-01;  1.0514952E+04;3; -2.7552155E+01;  0.0000000E+00;  2.3033329E+01;0;  2.0596080E+00;  9.9135225E+03;  0.0000000E+00;  7.8214356E-04;  1.0000000E+04;  0.0000000E+00;  9.9640967E+03;  1.6753827E+00;  0.0000000E+00;  3.8422528E-01;  1.6908592E+04;
  7.5986719E-01;  9.9999998E-03;  1.6029748E-01;2230; -6.5464981E-02;  0.0000000E+00;  1.1199991E-01;  1.0132255E+03;  4.0762076E-01;  1.0954925E+04;3; -2.0075495E+01;  0.0000000E+00;  6.0713825E+00;0;  2.0858827E+00;  9.9207363E+03;  0.0000000E+00;  7.1991672E-05;  1.0000000E+04;  0.0000000E+00;  9.9649229E+03;  1.7109951E+00;  0.0000000E+00;  3.7488762E-01;  1.6572109E+04;
  7.5986344E-01;  9.9999998E-03;  1.8032856E-01;2231; -6.5336317E-02;  0.0000000E+00;  1.1789531E-01;  1.0131405E+03;  4.0762138E-01;  1.0884619E+04;3; -1.8748005E+01;  0.0000000E+00;  6.3210549E+00;0;  2.0468421E+00;  9.9187529E+03;  0.0000000E+00;  1.1439699E-04;  1.0000000E+04;  0.0000000E+00;  9.9652012E+03;  1.7309841E+00;  0.0000000E+00;  3.1585798E-01;  1.6493033E+04;
  7.5986081E-01;  9.9999998E-03;  2.0036298E-01;2232; -6.4587958E-02;  0.0000000E+00;  1.2353925E-01;  1.0130661E+03;  4.0762225E-01;  1.0822904E+04;3; -1.7518120E+01;  0.0000000E+00;  7.4938974E+00;0;  2.0162351E+00;  9.9169805E+03;  0.0000000E+00;  2.2251830E-04;  1.0000000E+04;  0.0000000E+00;  9.9654863E+03;  1.7427751E+00;  0.0000000E+00;  2.7346009E-01;  1.6390125E+04;
  7.5986075E-01;  9.9999998E-03;  2.2040273E-01;2233; -6.2569126E-02;  0.0000000E+00;  1.2653461E-01;  1.0130018E+03;  4.0762293E-01;  1.0769682E+04;3; -1.6523123E+01;  0.0000000E+00;  9.3236618E+00;0;  1.9954765E+00;  9.9155742E+03;  0.0000000E+00;  4.5525763E-04;  1.0000000E+04;  0.0000000E+00;  9.9656113E+03;  1.7443453E+00;  0.0000000E+00;  2.5113112E-01;  1.6341931E+04;
  7.5986463E-01;  9.9999998E-03;  2.4043910E-01;2234; -5.8781531E-02;  0.0000000E+00;  1.2573496E-01;  1.0129293E+03;  4.0762347E-01;  1.0709547E+04;3; -1.5860975E+01;  0.0000000E+00;  1.3282110E+01;0;  1.9756900E+00;  9.9145898E+03;  0.0000000E+00;  8.2870846E-04;  1.0000000E+04;  0.0000000E+00;  9.9651367E+03;  1.7359713E+00;  0.0000000E+00;  2.3971871E-01;  1.6579451E+04;
  7.5987226E-01;  9.9999998E-03;  2.6045844E-01;2235; -5.3369001E-02;  0.0000000E+00;  1.2319171E-01;  1.0129007E+03;  4.0762424E-01;  1.0685947E+04;3; -1.5590785E+01;  0.0000000E+00;  2.0486572E+01;0;  1.9303854E+00;  9.9140049E+03;  0.0000000E+00;  1.1654816E-03;  1.0000000E+04;  0.0000000E+00;  9.9651348E+03;  1.7200440E+00;  0.0000000E+00;  2.1034129E-01;  1.6606086E+04;
  7.5988209E-01;  9.9999998E-03;  2.8047070E-01;2236; -4.7017071E-02;  0.0000000E+00;  1.3701339E-01;  1.0129778E+03;  4.0762410E-01;  1.0749834E+04;3; -1.5708544E+01;  0.0000000E+00;  3.5389458E+01;0;  2.0379279E+00;  9.9137070E+03;  0.0000000E+00;  7.1310200E-04;  1.0000000E+04;  0.0000000E+00;  9.9669355E+03;  1.7000765E+00;  0.0000000E+00;  3.3785141E-01;  1.5512183E+04;
  7.5989562E-01;  9.9999998E-03;  3.0050290E-01;2237; -3.9720453E-02;  0.0000000E+00;  1.3897343E-01;  1.0127962E+03;  4.0762374E-01;  1.0599348E+04;3; -1.6127104E+01;  0.0000000E+00;  2.2466436E+01;0;  2.0907240E+00;  9.9135654E+03;  0.0000000E+00; -1.7838094E-03;  1.0000000E+04;  0.0000000E+00;  9.9635068E+03;  1.6801865E+00;  0.0000000E+00;  4.1053757E-01;  1.7155699E+04;
  7.7994680E-01;  9.9999998E-03;  1.6030091E-01;2261; -2.8834241E-02;  0.0000000E+00;  1.1171573E-01;  1.0133522E+03;  4.0764019E-01;  1.1059146E+04;3; -1.0244845E+01;  0.0000000E+00;  4.5458403E+00;0;  2.0753145E+00;  9.9227607E+03;  0.0000000E+00;  3.1834217E-05;  1.0000000E+04;  0.0000000E+00;  9.9644404E+03;  1.7001666E+00;  0.0000000E+00;  3.7514788E-01;  1.6799906E+04;
  7.7994603E-01;  9.9999998E-03;  1.8033081E-01;2262; -2.8190091E-02;  0.0000000E+00;  1.1677480E-01;  1.0132805E+03;  4.0764090E-01;  1.0999805E+04;3; -9.4531612E+00;  0.0000000E+00;  4.6014948E+00;0;  2.0303204E+00;  9.9209219E+03;  0.0000000E+00;  2.8377883E-05;  1.0000000E+04;  0.0000000E+00;  9.9648418E+03;  1.7153808E+00;  0.0000000E+00;  3.1493959E-01;  1.6663400E+04;
  7.7994603E-01;  9.9999998E-03;  2.0036373E-01;2263; -2.7228324E-02;  0.0000000E+00;  1.2170464E-01;  1.0132247E+03;  4.0764156E-01;  1.0953596E+04;3; -8.7896490E+00;  0.0000000E+00;  5.6842885E+00;0;  1.9919947E+00;  9.9194287E+03;  0.0000000E+00;  2.8790997E-05;  1.0000000E+04;  0.0000000E+00;  9.9652109E+03;  1.7192618E+00;  0.0000000E+00;  2.7273297E-01;  1.6518043E+04;
  7.7994740E-01;  9.9999998E-03;  2.2040251E-01;2264; -2.5729157E-02;  0.0000000E+00;  1.2488240E-01;  1.0131883E+03;  4.0764219E-01;  1.0923382E+04;3; -8.3383274E+00;  0.0000000E+00;  8.3423405E+00;0;  1.9601121E+00;  9.9184316E+03;  0.0000000E+00;  4.2096472E-05;  1.0000000E+04;  0.0000000E+00;  9.9654697E+03;  1.7099322E+00;  0.0000000E+00;  2.5017983E-01;  1.6405797E+04;
  7.7995032E-01;  9.9999998E-03;  2.4043874E-01;2265; -2.3686679E-02;  0.0000000E+00;  1.2482136E-01;  1.0131577E+03;  4.0764269E-01;  1.0898105E+04;3; -8.1679392E+00;  0.0000000E+00;  1.2989625E+01;0;  1.9250683E+00;  9.9179824E+03;  0.0000000E+00;  6.0568498E-05;  1.0000000E+04;  0.0000000E+00;  9.9652939E+03;  1.6883106E+00;  0.0000000E+00;  2.3675759E-01;  1.6497990E+04;
  7.7995431E-01;  9.9999998E-03;  2.6046070E-01;2266; -2.1372290E-02;  0.0000000E+00;  1.2423839E-01;  1.0131743E+03;  4.0764335E-01;  1.0911830E+04;3; -8.3130198E+00;  0.0000000E+00;  2.1211222E+01;0;  1.8679190E+00;  9.9180049E+03;  0.0000000E+00; -2.9402092E-06;  1.0000000E+04;  0.0000000E+00;  9.9655684E+03;  1.6578434E+00;  0.0000000E+00;  2.1007568E-01;  1.6386994E+04;
  7.7995825E-01;  9.9999998E-03;  2.8047904E-01;2267; -1.9142352E-02;  0.0000000E+00;  1.4200060E-01;  1.0132454E+03;  4.0764326E-01;  1.0970677E+04;3; -8.7399473E+00;  0.0000000E+00;  3.7534611E+01;0;  1.9998269E+00;  9.9183457E+03;  0.0000000E+00; -4.2844855E-04;  1.0000000E+04;  0.0000000E+00;  9.9666172E+03;  1.6233968E+00;  0.0000000E+00;  3.7643015E-01;  1.5617133E+04;
  7.7996391E-01;  9.9999998E-03;  3.0051446E-01;2268; -1.6535899E-02;  0.0000000E+00;  1.4298831E-01;  1.0130576E+03;  4.0764275E-01;  1.0815166E+04;3; -9.3349123E+00;  0.0000000E+00;  2.1943310E+01;0;  2.0282495E+00;  9.9188008E+03;  0.0000000E+00; -1.5917877E-03;  1.0000000E+04;  0.0000000E+00;  9.9624688E+03;  1.5904536E+00;  0.0000000E+00;  4.3779597E-01;  1.7640113E+04;
  8.0001169E-01;  9.9999998E-03;  1.6030030E-01;2292;  1.4469745E-03;  0.0000000E+00;  1.1049897E-01;  1.0136195E+03;  4.0764579E-01;  1.1279589E+04;3; -1.9993129E+00;  0.0000000E+00;  3.6128173E+00;0;  1.9948235E+00;  9.9277109E+03;  0.0000000E+00;  4.1934359E-06;  1.0000000E+04;  0.0000000E+00;  9.9644414E+03;  1.6214043E+00;  0.0000000E+00;  3.7341914E-01;  1.6796324E+04;
  8.0001318E-01;  9.9999998E-03;  1.8032937E-01;2293;  2.3185962E-03;  0.0000000E+00;  1.1515392E-01;  1.0135555E+03;  4.0764651E-01;  1.1226572E+04;3; -1.7605603E+00;  0.0000000E+00;  3.6772177E+00;0;  1.9495220E+00;  9.9260244E+03;  0.0000000E+00; -5.1350462E-08;  1.0000000E+04;  0.0000000E+00;  9.9648418E+03;  1.6341127E+00;  0.0000000E+00;  3.1540933E-01;  1.6656865E+04;
  8.0001509E-01;  9.9999998E-03;  2.0036159E-01;2294;  3.2008360E-03;  0.0000000E+00;  1.1997750E-01;  1.0135081E+03;  4.0764716E-01;  1.1187277E+04;3; -1.6571560E+00;  0.0000000E+00;  4.8933506E+00;0;  1.9106829E+00;  9.9247422E+03;  0.0000000E+00; -6.3673965E-06;  1.0000000E+04;  0.0000000E+00;  9.9651650E+03;  1.6341825E+00;  0.0000000E+00;  2.7650049E-01;  1.6532756E+04;
  8.0001712E-01;  9.9999998E-03;  2.2040114E-01;2295;  3.9832457E-03;  0.0000000E+00;  1.2418763E-01;  1.0134817E+03;  4.0764782E-01;  1.1165458E+04;3; -1.7143019E+00;  0.0000000E+00;  7.9083109E+00;0;  1.8778892E+00;  9.9240195E+03;  0.0000000E+00; -1.7898912E-05;  1.0000000E+04;  0.0000000E+00;  9.9653418E+03;  1.6198807E+00;  0.0000000E+00;  2.5800848E-01;  1.6455041E+04;
  8.0001879E-01;  9.9999998E-03;  2.4043837E-01;2296;  4.3666107E-03;  0.0000000E+00;  1.2500115E-01;  1.0134633E+03;  4.0764821E-01;  1.1150155E+04;3; -1.9537143E+00;  0.0000000E+00;  1.3320142E+01;0;  1.8408728E+00;  9.9238867E+03;  0.0000000E+00; -4.5485554E-05;  1.0000000E+04;  0.0000000E+00;  9.9650977E+03;  1.5925016E+00;  0.0000000E+00;  2.4837108E-01;  1.6579031E+04;
  8.0001926E-01;  9.9999998E-03;  2.6046214E-01;2297;  4.0226290E-03;  0.0000000E+00;  1.2566666E-01;  1.0134899E+03;  4.0764877E-01;  1.1172271E+04;3; -2.3754623E+00;  0.0000000E+00;  2.2648277E+01;0;  1.7834905E+00;  9.9242471E+03;  0.0000000E+00; -1.0873427E-04;  1.0000000E+04;  0.0000000E+00;  9.9652324E+03;  1.5559340E+00;  0.0000000E+00;  2.2755654E-01;  1.6530420E+04;
  8.0001861E-01;  9.9999998E-03;  2.8048348E-01;2298;  3.0332548E-03;  0.0000000E+00;  1.4479986E-01;  1.0135497E+03;  4.0764880E-01;  1.1221733E+04;3; -2.9328809E+00;  0.0000000E+00;  3.8363049E+01;0;  1.9261943E+00;  9.9249326E+03;  0.0000000E+00; -2.2222994E-04;  1.0000000E+04;  0.0000000E+00;  9.9657148E+03;  1.5153738E+00;  0.0000000E+00;  4.1082051E-01;  1.6020362E+04;
  8.0001748E-01;  9.9999998E-03;  3.0052021E-01;2299;  1.8324573E-03;  0.0000000E+00;  1.4510897E-01;  1.0133664E+03;  4.0764832E-01;  1.1069890E+04;3; -3.5329030E+00;  0.0000000E+00;  2.1622459E+01;0;  1.9358265E+00;  9.9257266E+03;  0.0000000E+00; -3.6458267E-04;  1.0000000E+04;  0.0000000E+00;  9.9613213E+03;  1.4763159E+00;  0.0000000E+00;  4.5951074E-01;  1.8185932E+04;
  8.2007307E-01;  9.9999998E-03;  1.6029656E-01;2323;  3.0737281E-02;  0.0000000E+00;  1.0875536E-01;  1.0139075E+03;  4.0763590E-01;  1.1516704E+04;3;  6.4579334E+00;  0.0000000E+00;  3.3346276E+00;0;  1.8898499E+00;  9.9334814E+03;  0.0000000E+00; -2.9987170E-06;  1.0000000E+04;  0.0000000E+00;  9.9647813E+03;  1.5183645E+00;  0.0000000E+00;  3.7148538E-01;  1.6620785E+04;
  8.2007664E-01;  9.9999998E-03;  1.8032517E-01;2324;  3.1884290E-02;  0.0000000E+00;  1.1340934E-01;  1.0138444E+03;  4.0763667E-01;  1.1464384E+04;3;  6.2903757E+00;  0.0000000E+00;  3.5616553E+00;0;  1.8493195E+00;  9.9318838E+03;  0.0000000E+00;  5.1584530E-06;  1.0000000E+04;  0.0000000E+00;  9.9651045E+03;  1.5318587E+00;  0.0000000E+00;  3.1746072E-01;  1.6514307E+04;
  8.2008022E-01;  9.9999998E-03;  2.0035729E-01;2325;  3.2807451E-02;  0.0000000E+00;  1.1850176E-01;  1.0137952E+03;  4.0763724E-01;  1.1423614E+04;3;  6.0253229E+00;  0.0000000E+00;  5.0468731E+00;0;  1.8160638E+00;  9.9306973E+03;  0.0000000E+00;  2.7902559E-05;  1.0000000E+04;  0.0000000E+00;  9.9653008E+03;  1.5330185E+00;  0.0000000E+00;  2.8304532E-01;  1.6446393E+04;
  8.2008284E-01;  9.9999998E-03;  2.2039883E-01;2326;  3.3073504E-02;  0.0000000E+00;  1.2428501E-01;  1.0137634E+03;  4.0763780E-01;  1.1397257E+04;3;  5.6826854E+00;  0.0000000E+00;  8.4849586E+00;0;  1.7901947E+00;  9.9300605E+03;  0.0000000E+00;  6.9439171E-05;  1.0000000E+04;  0.0000000E+00;  9.9652813E+03;  1.5199724E+00;  0.0000000E+00;  2.7022225E-01;  1.6458996E+04;
  8.2008326E-01;  9.9999998E-03;  2.4043785E-01;2327;  3.2063056E-02;  0.0000000E+00;  1.2607008E-01;  1.0137330E+03;  4.0763843E-01;  1.1372184E+04;3;  5.2801061E+00;  0.0000000E+00;  1.4336691E+01;0;  1.7618055E+00;  9.9300068E+03;  0.0000000E+00;  1.1939029E-04;  1.0000000E+04;  0.0000000E+00;  9.9647256E+03;  1.4939806E+00;  0.0000000E+00;  2.6782495E-01;  1.6729293E+04;
  8.2008082E-01;  9.9999998E-03;  2.6046261E-01;2328;  2.9534722E-02;  0.0000000E+00;  1.2688085E-01;  1.0137413E+03;  4.0763891E-01;  1.1378995E+04;3;  4.8395624E+00;  0.0000000E+00;  2.3475454E+01;0;  1.7118855E+00;  9.9304287E+03;  0.0000000E+00;  1.5591556E-04;  1.0000000E+04;  0.0000000E+00;  9.9644385E+03;  1.4588666E+00;  0.0000000E+00;  2.5301892E-01;  1.6881416E+04;
  8.2007670E-01;  9.9999998E-03;  2.8048384E-01;2329;  2.5979174E-02;  0.0000000E+00;  1.4540304E-01;  1.0137927E+03;  4.0763882E-01;  1.1421641E+04;3;  4.3983989E+00;  0.0000000E+00;  3.8314377E+01;0;  1.8517685E+00;  9.9311709E+03;  0.0000000E+00;  1.5057047E-04;  1.0000000E+04;  0.0000000E+00;  9.9646992E+03;  1.4195577E+00;  0.0000000E+00;  4.3221077E-01;  1.6489260E+04;
  8.2006943E-01;  9.9999998E-03;  3.0052033E-01;2330;  2.1382103E-02;  0.0000000E+00;  1.4547308E-01;  1.0136180E+03;  4.0763840E-01;  1.1276923E+04;3;  4.0036769E+00;  0.0000000E+00;  2.1560246E+01;0;  1.8523698E+00;  9.9320391E+03;  0.0000000E+00;  9.7956508E-05;  1.0000000E+04;  0.0000000E+00;  9.9603965E+03;  1.3809199E+00;  0.0000000E+00;  4.7144985E-01;  1.8618643E+04;
  8.4013623E-01;  9.9999998E-03;  1.6029006E-01;2354;  6.1360609E-02;  0.0000000E+00;  1.0652290E-01;  1.0139323E+03;  4.0751189E-01;  1.1535228E+04;3;  1.5768638E+01;  0.0000000E+00;  3.5722330E+00;0;  1.7746129E+00;  9.9393887E+03;  0.0000000E+00;  1.7351093E-06;  1.0000000E+04;  0.0000000E+00;  9.9653994E+03;  1.4051471E+00;  0.0000000E+00;  3.6946577E-01;  1.6298073E+04;
  8.4014195E-01;  9.9999998E-03;  1.8031834E-01;2355;  6.3022688E-02;  0.0000000E+00;  1.1138490E-01;  1.0138636E+03;  4.0751258E-01;  1.1478376E+04;3;  1.5414879E+01;  0.0000000E+00;  4.0225263E+00;0;  1.7423148E+00;  9.9377988E+03;  0.0000000E+00;  2.3263383E-05;  1.0000000E+04;  0.0000000E+00;  9.9656182E+03;  1.4224592E+00;  0.0000000E+00;  3.1985563E-01;  1.6238630E+04;
  8.4014750E-01;  9.9999998E-03;  2.0035037E-01;2356;  6.4333282E-02;  0.0000000E+00;  1.1686041E-01;  1.0138052E+03;  4.0751311E-01;  1.1430111E+04;3;  1.5042995E+01;  0.0000000E+00;  5.7557082E+00;0;  1.7186043E+00;  9.9365635E+03;  0.0000000E+00;  9.0204929E-05;  1.0000000E+04;  0.0000000E+00;  9.9656768E+03;  1.4289571E+00;  0.0000000E+00;  2.8964716E-01;  1.6233247E+04;
  8.4015113E-01;  9.9999998E-03;  2.2039293E-01;2357;  6.4519390E-02;  0.0000000E+00;  1.2370660E-01;  1.0137592E+03;  4.0751368E-01;  1.1392014E+04;3;  1.4698109E+01;  0.0000000E+00;  9.4388390E+00;0;  1.7036194E+00;  9.9358408E+03;  0.0000000E+00;  2.2868984E-04;  1.0000000E+04;  0.0000000E+00;  9.9654736E+03;  1.4223336E+00;  0.0000000E+00;  2.8128576E-01;  1.6330684E+04;
  8.4015054E-01;  9.9999998E-03;  2.4043302E-01;2358;  6.2452819E-02;  0.0000000E+00;  1.2616093E-01;  1.0137086E+03;  4.0751421E-01;  1.1350066E+04;3;  1.4411860E+01;  0.0000000E+00;  1.5291481E+01;0;  1.6876543E+00;  9.9356553E+03;  0.0000000E+00;  4.2286541E-04;  1.0000000E+04;  0.0000000E+00;  9.9646387E+03;  1.4033527E+00;  0.0000000E+00;  2.8430158E-01;  1.6727729E+04;
  8.4014577E-01;  9.9999998E-03;  2.6045772E-01;2359;  5.8182385E-02;  0.0000000E+00;  1.2652028E-01;  1.0136951E+03;  4.0751478E-01;  1.1338913E+04;3;  1.4202582E+01;  0.0000000E+00;  2.3686403E+01;0;  1.6464499E+00;  9.9359199E+03;  0.0000000E+00;  5.8350782E-04;  1.0000000E+04;  0.0000000E+00;  9.9640830E+03;  1.3753632E+00;  0.0000000E+00;  2.7108669E-01;  1.7010484E+04;
  8.4013891E-01;  9.9999998E-03;  2.8047797E-01;2360;  5.2354258E-02;  0.0000000E+00;  1.4377530E-01;  1.0137397E+03;  4.0751487E-01;  1.1375827E+04;3;  1.4078957E+01;  0.0000000E+00;  3.7598381E+01;0;  1.7783070E+00;  9.9364922E+03;  0.0000000E+00;  5.0913071E-04;  1.0000000E+04;  0.0000000E+00;  9.9643770E+03;  1.3427551E+00;  0.0000000E+00;  4.3555188E-01;  1.6623990E+04;
  8.4012622E-01;  9.9999998E-03;  3.0051357E-01;2361;  4.4543058E-02;  0.0000000E+00;  1.4393698E-01;  1.0135732E+03;  4.0751442E-01;  1.1237945E+04;3;  1.4042409E+01;  0.0000000E+00;  2.1583220E+01;0;  1.7774037E+00;  9.9372139E+03;  0.0000000E+00; -5.7231046E-06;  1.0000000E+04;  0.0000000E+00;  9.9603799E+03;  1.3096950E+00;  0.0000000E+00;  4.6770868E-01;  1.8603938E+04;
  8.6020017E-01;  9.9999998E-03;  1.6028084E-01;2385;  9.2658371E-02;  0.0000000E+00;  1.0360853E-01;  1.0137036E+03;  4.0726814E-01;  1.1343385E+04;3;  2.5594015E+01;  0.0000000E+00;  4.0843306E+00;0;  1.6374983E+00;  9.9459248E+03;  0.0000000E+00;  7.2347684E-06;  1.0000000E+04;  0.0000000E+00;  9.9662959E+03;  1.2710959E+00;  0.0000000E+00;  3.6640242E-01;  1.5829547E+04;
  8.6020827E-01;  9.9999998E-03;  1.8030865E-01;2386;  9.5085345E-02;  0.0000000E+00;  1.0871137E-01;  1.0136266E+03;  4.0726882E-01;  1.1279638E+04;3;  2.5253607E+01;  0.0000000E+00;  4.7453461E+00;0;  1.6150267E+00;  9.9442656E+03;  0.0000000E+00;  4.3893855E-05;  1.0000000E+04;  0.0000000E+00;  9.9664131E+03;  1.2941582E+00;  0.0000000E+00;  3.2086849E-01;  1.5814412E+04;
  8.6021602E-01;  9.9999998E-03;  2.0034027E-01;2387;  9.7127430E-02;  0.0000000E+00;  1.1448964E-01;  1.0135543E+03;  4.0726942E-01;  1.1219740E+04;3;  2.4997314E+01;  0.0000000E+00;  6.6469126E+00;0;  1.6027329E+00;  9.9428730E+03;  0.0000000E+00;  1.7408068E-04;  1.0000000E+04;  0.0000000E+00;  9.9663555E+03;  1.3088301E+00;  0.0000000E+00;  2.9390281E-01;  1.5860510E+04;
  8.6022127E-01;  9.9999998E-03;  2.2038254E-01;2388;  9.7668305E-02;  0.0000000E+00;  1.2182728E-01;  1.0134896E+03;  4.0726984E-01;  1.1166255E+04;3;  2.4872459E+01;  0.0000000E+00;  1.0391630E+01;0;  1.6003741E+00;  9.9419121E+03;  0.0000000E+00;  4.6574572E-04;  1.0000000E+04;  0.0000000E+00;  9.9660313E+03;  1.3122139E+00;  0.0000000E+00;  2.8816023E-01;  1.6015804E+04;
  8.6021996E-01;  9.9999998E-03;  2.4042246E-01;2389;  9.4875500E-02;  0.0000000E+00;  1.2454534E-01;  1.0134168E+03;  4.0727046E-01;  1.1105963E+04;3;  2.4897520E+01;  0.0000000E+00;  1.5999585E+01;0;  1.5976465E+00;  9.9414326E+03;  0.0000000E+00;  8.9850853E-04;  1.0000000E+04;  0.0000000E+00;  9.9650557E+03;  1.3041755E+00;  0.0000000E+00;  2.9347104E-01;  1.6477059E+04;
  8.6021340E-01;  9.9999998E-03;  2.6044655E-01;2390;  8.9174330E-02;  0.0000000E+00;  1.2449942E-01;  1.0133833E+03;  4.0727103E-01;  1.1078236E+04;3;  2.5064417E+01;  0.0000000E+00;  2.3616762E+01;0;  1.5664781E+00;  9.9413711E+03;  0.0000000E+00;  1.2759443E-03;  1.0000000E+04;  0.0000000E+00;  9.9644238E+03;  1.2871641E+00;  0.0000000E+00;  2.7931404E-01;  1.6796072E+04;
  8.6020440E-01;  9.9999998E-03;  2.8046593E-01;2391;  8.1267767E-02;  0.0000000E+00;  1.4044702E-01;  1.0134177E+03;  4.0727106E-01;  1.1106756E+04;3;  2.5346832E+01;  0.0000000E+00;  3.6646011E+01;0;  1.6913843E+00;  9.9416191E+03;  0.0000000E+00;  1.1625326E-03;  1.0000000E+04;  0.0000000E+00;  9.9648379E+03;  1.2648110E+00;  0.0000000E+00;  4.2657334E-01;  1.6374449E+04;
  8.6018664E-01;  9.9999998E-03;  3.0050042E-01;2392;  7.0286304E-02;  0.0000000E+00;  1.4087510E-01;  1.0132551E+03;  4.0727067E-01;  1.0972162E+04;3;  2.5718687E+01;  0.0000000E+00;  2.1673500E+01;0;  1.6949325E+00;  9.9420449E+03;  0.0000000E+00;  1.8374460E-04;  1.0000000E+04;  0.0000000E+00;  9.9612139E+03;  1.2406687E+00;  0.0000000E+00;  4.5426384E-01;  1.8168240E+04;
  8.8026083E-01;  9.9999998E-03;  1.6026889E-01;2416;  1.2258452E-01;  0.0000000E+00;  9.9791773E-02;  1.0132994E+03;  4.0691853E-01;  1.1005545E+04;3;  3.5241817E+01;  0.0000000E+00;  4.6310606E+00;0;  1.4595697E+00;  9.9539092E+03;  0.0000000E+00;  2.5628019E-06;  1.0000000E+04;  0.0000000E+00;  9.9674893E+03;  1.0984935E+00;  0.0000000E+00;  3.6107627E-01;  1.5210552E+04;
  8.8027126E-01;  9.9999998E-03;  1.8029591E-01;2417;  1.2590599E-01;  0.0000000E+00;  1.0504536E-01;  1.0132130E+03;  4.0691918E-01;  1.0933925E+04;3;  3.5036514E+01;  0.0000000E+00;  5.4472384E+00;0;  1.4469506E+00;  9.9521426E+03;  0.0000000E+00;  5.4994362E-05;  1.0000000E+04;  0.0000000E+00;  9.9675322E+03;  1.1278781E+00;  0.0000000E+00;  3.1907251E-01;  1.5228338E+04;
  8.8028139E-01;  9.9999998E-03;  2.0032661E-01;2418;  1.2886553E-01;  0.0000000E+00;  1.1095680E-01;  1.0131248E+03;  4.0691969E-01;  1.0860924E+04;3;  3.5016148E+01;  0.0000000E+00;  7.4303765E+00;0;  1.4464033E+00;  9.9505176E+03;  0.0000000E+00;  2.6422349E-04;  1.0000000E+04;  0.0000000E+00;  9.9673965E+03;  1.1520115E+00;  0.0000000E+00;  2.9439178E-01;  1.5308638E+04;
  8.8028842E-01;  9.9999998E-03;  2.2036749E-01;2419;  1.2996560E-01;  0.0000000E+00;  1.1835818E-01;  1.0130391E+03;  4.0692019E-01;  1.0790094E+04;3;  3.5215977E+01;  0.0000000E+00;  1.1121777E+01;0;  1.4571908E+00;  9.9492070E+03;  0.0000000E+00;  7.5872138E-04;  1.0000000E+04;  0.0000000E+00;  9.9669971E+03;  1.1674562E+00;  0.0000000E+00;  2.8973466E-01;  1.5492943E+04;
  8.8028681E-01;  9.9999998E-03;  2.4040607E-01;2420;  1.2669802E-01;  0.0000000E+00;  1.2115915E-01;  1.0129443E+03;  4.0692079E-01;  1.0711669E+04;3;  3.5622543E+01;  0.0000000E+00;  1.6452271E+01;0;  1.4680893E+00;  9.9483047E+03;  0.0000000E+00;  1.5185006E-03;  1.0000000E+04;  0.0000000E+00;  9.9660156E+03;  1.1729094E+00;  0.0000000E+00;  2.9517990E-01;  1.5957150E+04;
  8.8027859E-01;  9.9999998E-03;  2.6042947E-01;2421;  1.1974309E-01;  0.0000000E+00;  1.2101985E-01;  1.0128903E+03;  4.0692136E-01;  1.0666884E+04;3;  3.6189659E+01;  0.0000000E+00;  2.3511774E+01;0;  1.4491553E+00;  9.9478027E+03;  0.0000000E+00;  2.2215424E-03;  1.0000000E+04;  0.0000000E+00;  9.9654277E+03;  1.1694446E+00;  0.0000000E+00;  2.7971077E-01;  1.6253434E+04;
  8.8026804E-01;  9.9999998E-03;  2.8044847E-01;2422;  1.1003264E-01;  0.0000000E+00;  1.3584174E-01;  1.0129069E+03;  4.0692142E-01;  1.0680697E+04;3;  3.6861214E+01;  0.0000000E+00;  3.5667881E+01;0;  1.5710301E+00;  9.9476123E+03;  0.0000000E+00;  2.1592968E-03;  1.0000000E+04;  0.0000000E+00;  9.9659189E+03;  1.1595858E+00;  0.0000000E+00;  4.1144434E-01;  1.5815627E+04;
  8.8024586E-01;  9.9999998E-03;  3.0048174E-01;2423;  9.6068181E-02;  0.0000000E+00;  1.3658477E-01;  1.0127443E+03;  4.0692127E-01;  1.0546146E+04;3;  3.7602932E+01;  0.0000000E+00;  2.1914734E+01;0;  1.5825107E+00;  9.9476602E+03;  0.0000000E+00;  9.0743596E-04;  1.0000000E+04;  0.0000000E+00;  9.9626621E+03;  1.1462665E+00;  0.0000000E+00;  4.3624425E-01;  1.7421258E+04;
  9.0031368E-01;  9.9999998E-03;  1.6025431E-01;2447;  1.4906953E-01;  0.0000000E+00;  9.4963610E-02;  1.0127807E+03;  4.0648231E-01;  1.0571925E+04;3;  4.4124249E+01;  0.0000000E+00;  5.0425386E+00;0;  1.2345179E+00;  9.9636240E+03;  0.0000000E+00; -1.5881689E-05;  1.0000000E+04;  0.0000000E+00;  9.9689746E+03;  8.8182676E-01;  0.0000000E+00;  3.5269114E-01;  1.4444477E+04;
  9.0032625E-01;  9.9999998E-03;  1.8028016E-01;2448;  1.5325628E-01;  0.0000000E+00;  1.0022181E-01;  1.0126865E+03;  4.0648288E-01;  1.0494021E+04;3;  4.4084702E+01;  0.0000000E+00;  5.9444947E+00;0;  1.2303983E+00;  9.9617559E+03;  0.0000000E+00;  4.2545435E-05;  1.0000000E+04;  0.0000000E+00;  9.9689678E+03;  9.1665661E-01;  0.0000000E+00;  3.1374171E-01;  1.4481541E+04;
  9.0033859E-01;  9.9999998E-03;  2.0030940E-01;2449;  1.5711597E-01;  0.0000000E+00;  1.0607617E-01;  1.0125832E+03;  4.0648335E-01;  1.0408524E+04;3;  4.4310574E+01;  0.0000000E+00;  7.9360552E+00;0;  1.2407171E+00;  9.9598730E+03;  0.0000000E+00;  3.1788301E-04;  1.0000000E+04;  0.0000000E+00;  9.9687939E+03;  9.5007026E-01;  0.0000000E+00;  2.9064679E-01;  1.4579023E+04;
  9.0034676E-01;  9.9999998E-03;  2.2034734E-01;2450;  1.5851074E-01;  0.0000000E+00;  1.1291263E-01;  1.0124764E+03;  4.0648368E-01;  1.0320171E+04;3;  4.4821476E+01;  0.0000000E+00;  1.1531995E+01;0;  1.2638841E+00;  9.9581514E+03;  0.0000000E+00;  1.0093809E-03;  1.0000000E+04;  0.0000000E+00;  9.9684004E+03;  9.7833264E-01;  0.0000000E+00;  2.8555143E-01;  1.4759574E+04;
  9.0034461E-01;  9.9999998E-03;  2.4038400E-01;2451;  1.5484600E-01;  0.0000000E+00;  1.1610361E-01;  1.0123606E+03;  4.0648419E-01;  1.0224423E+04;3;  4.5571678E+01;  0.0000000E+00;  1.6704884E+01;0;  1.2891433E+00;  9.9567363E+03;  0.0000000E+00;  2.1141800E-03;  1.0000000E+04;  0.0000000E+00;  9.9675059E+03;  9.9878621E-01;  0.0000000E+00;  2.9035717E-01;  1.5174807E+04;
  9.0033537E-01;  9.9999998E-03;  2.6040712E-01;2452;  1.4700881E-01;  0.0000000E+00;  1.1631490E-01;  1.0122845E+03;  4.0648484E-01;  1.0161514E+04;3;  4.6478146E+01;  0.0000000E+00;  2.3571304E+01;0;  1.2852389E+00;  9.9556934E+03;  0.0000000E+00;  3.1877107E-03;  1.0000000E+04;  0.0000000E+00;  9.9670156E+03;  1.0106357E+00;  0.0000000E+00;  2.7460310E-01;  1.5420903E+04;
  9.0032440E-01;  9.9999998E-03;  2.8042653E-01;2453;  1.3598315E-01;  0.0000000E+00;  1.3037792E-01;  1.0122722E+03;  4.0648493E-01;  1.0151359E+04;3;  4.7463028E+01;  0.0000000E+00;  3.4788654E+01;0;  1.4108167E+00;  9.9550039E+03;  0.0000000E+00;  3.2207277E-03;  1.0000000E+04;  0.0000000E+00;  9.9674463E+03;  1.0148933E+00;  0.0000000E+00;  3.9592338E-01;  1.5027904E+04;
  9.0029883E-01;  9.9999998E-03;  3.0045840E-01;2454;  1.1944629E-01;  0.0000000E+00;  1.3131052E-01;  1.0121050E+03;  4.0648481E-01;  1.0013020E+04;3;  4.8491478E+01;  0.0000000E+00;  2.2397743E+01;0;  1.4308010E+00;  9.9546006E+03;  0.0000000E+00;  1.8293539E-03;  1.0000000E+04;  0.0000000E+00;  9.9645371E+03;  1.0138056E+00;  0.0000000E+00;  4.1699544E-01;  1.6453980E+04;
  9.2034781E-01;  9.9999998E-03;  1.6023754E-01;2478;  1.6738993E-01;  0.0000000E+00;  8.9203715E-02;  1.0121656E+03;  4.0598196E-01;  1.0057588E+04;3;  5.1562744E+01;  0.0000000E+00;  5.2651649E+00;0;  9.7956705E-01;  9.9743545E+03;  0.0000000E+00; -3.6991973E-05;  1.0000000E+04;  0.0000000E+00;  9.9707148E+03;  6.3840705E-01;  0.0000000E+00;  3.4115997E-01;  1.3548228E+04;
  9.2036420E-01;  9.9999998E-03;  1.8026197E-01;2479;  1.7324132E-01;  0.0000000E+00;  9.4376020E-02;  1.0120685E+03;  4.0598217E-01;  9.9773613E+03;3;  5.1798687E+01;  0.0000000E+00;  6.1871247E+00;0;  9.8117596E-01;  9.9724590E+03;  0.0000000E+00;  1.0097645E-05;  1.0000000E+04;  0.0000000E+00;  9.9706855E+03;  6.7630070E-01;  0.0000000E+00;  3.0487525E-01;  1.3592345E+04;
  9.2038101E-01;  9.9999998E-03;  2.0028922E-01;2480;  1.7896371E-01;  0.0000000E+00;  9.9981934E-02;  1.0119532E+03;  4.0598258E-01;  9.8820547E+03;3;  5.2302898E+01;  0.0000000E+00;  8.1155338E+00;0;  9.9992323E-01;  9.9703633E+03;  0.0000000E+00;  3.0194595E-04;  1.0000000E+04;  0.0000000E+00;  9.9704980E+03;  7.1706241E-01;  0.0000000E+00;  2.8286082E-01;  1.3692690E+04;
  9.2039168E-01;  9.9999998E-03;  2.2032282E-01;2481;  1.8111743E-01;  0.0000000E+00;  1.0564925E-01;  1.0118297E+03;  4.0598291E-01;  9.7799492E+03;3;  5.3078701E+01;  0.0000000E+00;  1.1589858E+01;0;  1.0331657E+00;  9.9682305E+03;  0.0000000E+00;  1.1008483E-03;  1.0000000E+04;  0.0000000E+00;  9.9701709E+03;  7.5721991E-01;  0.0000000E+00;  2.7594581E-01;  1.3840319E+04;
  9.2038906E-01;  9.9999998E-03;  2.4035744E-01;2482;  1.7712678E-01;  0.0000000E+00;  1.0957338E-01;  1.0116943E+03;  4.0598351E-01;  9.6679932E+03;3;  5.4038433E+01;  0.0000000E+00;  1.6703720E+01;0;  1.0722796E+00;  9.9662705E+03;  0.0000000E+00;  2.4590404E-03;  1.0000000E+04;  0.0000000E+00;  9.9694404E+03;  7.9281288E-01;  0.0000000E+00;  2.7946669E-01;  1.4172165E+04;
  9.2037994E-01;  9.9999998E-03;  2.6038092E-01;2483;  1.6914785E-01;  0.0000000E+00;  1.1075091E-01;  1.0115915E+03;  4.0598395E-01;  9.5829443E+03;3;  5.5210575E+01;  0.0000000E+00;  2.3616238E+01;0;  1.0873749E+00;  9.9646260E+03;  0.0000000E+00;  3.8470507E-03;  1.0000000E+04;  0.0000000E+00;  9.9690244E+03;  8.2077199E-01;  0.0000000E+00;  2.6660290E-01;  1.4375483E+04;
  9.2036855E-01;  9.9999998E-03;  2.8040096E-01;2484;  1.5688747E-01;  0.0000000E+00;  1.2410066E-01;  1.0115448E+03;  4.0598416E-01;  9.5444141E+03;3;  5.5888935E+01;  0.0000000E+00;  3.3517338E+01;0;  1.2202578E+00;  9.9633691E+03;  0.0000000E+00;  4.0430911E-03;  1.0000000E+04;  0.0000000E+00;  9.9693340E+03;  8.4024352E-01;  0.0000000E+00;  3.8001418E-01;  1.4053398E+04;
  9.2034149E-01;  9.9999998E-03;  3.0043140E-01;2485;  1.3862705E-01;  0.0000000E+00;  1.2529154E-01;  1.0113679E+03;  4.0598419E-01;  9.3981680E+03;3;  5.7646923E+01;  0.0000000E+00;  2.3053427E+01;0;  1.2513373E+00;  9.9624727E+03;  0.0000000E+00;  2.5427770E-03;  1.0000000E+04;  0.0000000E+00;  9.9667168E+03;  8.5255951E-01;  0.0000000E+00;  3.9877784E-01;  1.5321516E+04;
  9.4035488E-01;  9.9999998E-03;  1.6021942E-01;2509;  1.7200793E-01;  0.0000000E+00;  8.2871690E-02;  1.0114395E+03;  4.0544134E-01;  9.4504160E+03;3;  5.4726158E+01;  0.0000000E+00;  5.4494205E+00;0;  7.2894490E-01;  9.9847031E+03;  0.0000000E+00; -4.1811789E-05;  1.0000000E+04;  0.0000000E+00;  9.9726436E+03;  4.0203980E-01;  0.0000000E+00;  3.2690513E-01;  1.2549119E+04;
  9.4037300E-01;  9.9999998E-03;  1.8024240E-01;2510;  1.7864487E-01;  0.0000000E+00;  8.8088505E-02;  1.0113455E+03;  4.0544155E-01;  9.3727070E+03;3;  5.5270359E+01;  0.0000000E+00;  6.4909630E+00;0;  7.3300552E-01;  9.9828721E+03;  0.0000000E+00; -1.6040180E-05;  1.0000000E+04;  0.0000000E+00;  9.9726113E+03;  4.4006708E-01;  0.0000000E+00;  2.9293841E-01;  1.2591375E+04;
  9.4039351E-01;  9.9999998E-03;  2.0026754E-01;2511;  1.8593517E-01;  0.0000000E+00;  9.3513131E-02;  1.0112250E+03;  4.0544188E-01;  9.2731348E+03;3;  5.6313816E+01;  0.0000000E+00;  8.3764143E+00;0;  7.5664145E-01;  9.9806660E+03;  0.0000000E+00;  2.3710940E-04;  1.0000000E+04;  0.0000000E+00;  9.9724268E+03;  4.8488432E-01;  0.0000000E+00;  2.7175713E-01;  1.2685941E+04;
  9.4041276E-01;  9.9999998E-03;  2.2029753E-01;2512;  1.9248186E-01;  0.0000000E+00;  9.8399520E-02;  1.0110875E+03;  4.0544218E-01;  9.1594805E+03;3;  5.8394302E+01;  0.0000000E+00;  1.1530935E+01;0;  7.9733479E-01;  9.9782188E+03;  0.0000000E+00;  1.0202575E-03;  1.0000000E+04;  0.0000000E+00;  9.9721572E+03;  5.3375643E-01;  0.0000000E+00;  2.6357836E-01;  1.2805496E+04;
  9.4041896E-01;  9.9999998E-03;  2.4032842E-01;2513;  1.9264464E-01;  0.0000000E+00;  1.0162470E-01;  1.0109393E+03;  4.0544248E-01;  9.0371660E+03;3;  6.0375572E+01;  0.0000000E+00;  1.6023430E+01;0;  8.4428340E-01;  9.9757539E+03;  0.0000000E+00;  2.4203802E-03;  1.0000000E+04;  0.0000000E+00;  9.9716719E+03;  5.8218783E-01;  0.0000000E+00;  2.6209557E-01;  1.3020467E+04;
  9.4041157E-01;  9.9999998E-03;  2.6035270E-01;2514;  1.8523313E-01;  0.0000000E+00;  1.0430012E-01;  1.0108082E+03;  4.0544304E-01;  8.9287402E+03;3;  6.1508301E+01;  0.0000000E+00;  2.2821831E+01;0;  8.7962949E-01;  9.9735244E+03;  0.0000000E+00;  4.0241838E-03;  1.0000000E+04;  0.0000000E+00;  9.9712783E+03;  6.2528431E-01;  0.0000000E+00;  2.5434515E-01;  1.3199620E+04;
  9.4039977E-01;  9.9999998E-03;  2.8037280E-01;2515;  1.7185892E-01;  0.0000000E+00;  1.1662121E-01;  1.0107283E+03;  4.0544316E-01;  8.8627637E+03;3;  6.1772572E+01;  0.0000000E+00;  3.1776678E+01;0;  1.0152366E+00;  9.9716787E+03;  0.0000000E+00;  4.5595472E-03;  1.0000000E+04;  0.0000000E+00;  9.9715176E+03;  6.6001052E-01;  0.0000000E+00;  3.5522616E-01;  1.2930636E+04;
  9.4037163E-01;  9.9999998E-03;  3.0040166E-01;2516;  1.5283105E-01;  0.0000000E+00;  1.1869743E-01;  1.0105385E+03;  4.0544322E-01;  8.7059932E+03;3;  6.5237846E+01;  0.0000000E+00;  2.4326508E+01;0;  1.0663637E+00;  9.9702451E+03;  0.0000000E+00;  2.8303403E-03;  1.0000000E+04;  0.0000000E+00;  9.9691729E+03;  6.8628585E-01;  0.0000000E+00;  3.8007784E-01;  1.4035978E+04;
  9.6035343E-01;  9.9999998E-03;  1.6020088E-01;2540;  1.7228605E-01;  0.0000000E+00;  7.6489605E-02;  1.0105925E+03;  4.0488422E-01;  8.7419189E+03;3;  5.5602936E+01;  0.0000000E+00;  5.6829000E+00;0;  5.1395726E-01;  9.9933916E+03;  0.0000000E+00; -2.4658455E-05;  1.0000000E+04;  0.0000000E+00;  9.9746738E+03;  2.0351143E-01;  0.0000000E+00;  3.1044582E-01;  1.1479164E+04;
  9.6037203E-01;  9.9999998E-03;  1.8022241E-01;2541;  1.7912686E-01;  0.0000000E+00;  8.1729136E-02;  1.0105052E+03;  4.0488455E-01;  8.6698936E+03;3;  5.6301762E+01;  0.0000000E+00;  6.8088284E+00;0;  5.1800841E-01;  9.9916855E+03;  0.0000000E+00; -1.6055566E-05;  1.0000000E+04;  0.0000000E+00;  9.9746523E+03;  2.3959889E-01;  0.0000000E+00;  2.7840951E-01;  1.1513896E+04;
  9.6039319E-01;  9.9999998E-03;  2.0024519E-01;2542;  1.8667175E-01;  0.0000000E+00;  8.6890273E-02;  1.0103847E+03;  4.0488470E-01;  8.5704180E+03;3;  5.7475254E+01;  0.0000000E+00;  8.6753407E+00;0;  5.4316545E-01;  9.9894580E+03;  0.0000000E+00;  1.6247420E-04;  1.0000000E+04;  0.0000000E+00;  9.9744941E+03;  2.8539577E-01;  0.0000000E+00;  2.5776967E-01;  1.1596624E+04;
  9.6041530E-01;  9.9999998E-03;  2.2027348E-01;2543;  1.9426164E-01;  0.0000000E+00;  9.2069484E-02;  1.0102379E+03;  4.0488485E-01;  8.4491992E+03;3;  5.9807472E+01;  0.0000000E+00;  1.1563176E+01;0;  5.8885288E-01;  9.9868115E+03;  0.0000000E+00;  9.9869515E-04;  1.0000000E+04;  0.0000000E+00;  9.9742305E+03;  3.3907953E-01;  0.0000000E+00;  2.4977337E-01;  1.1707643E+04;
  9.6043175E-01;  9.9999998E-03;  2.4030061E-01;2544;  1.9951355E-01;  0.0000000E+00;  9.4402283E-02;  1.0100781E+03;  4.0488508E-01;  8.3173584E+03;3;  6.3837017E+01;  0.0000000E+00;  1.5689382E+01;0;  6.4164257E-01;  9.9839717E+03;  0.0000000E+00;  3.8900760E-03;  1.0000000E+04;  0.0000000E+00;  9.9738994E+03;  3.9635685E-01;  0.0000000E+00;  2.4528569E-01;  1.1848113E+04;
  9.6043193E-01;  9.9999998E-03;  2.6032311E-01;2545;  1.9601050E-01;  0.0000000E+00;  9.6921250E-02;  1.0099315E+03;  4.0488553E-01;  8.1964463E+03;3;  6.6346260E+01;  0.0000000E+00;  2.1882040E+01;0;  6.8709713E-01;  9.9812285E+03;  0.0000000E+00;  8.2448069E-03;  1.0000000E+04;  0.0000000E+00;  9.9737178E+03;  4.5174757E-01;  0.0000000E+00;  2.3534955E-01;  1.1924245E+04;
  9.6042097E-01;  9.9999998E-03;  2.8034300E-01;2546;  1.8239129E-01;  0.0000000E+00;  1.0846158E-01;  1.0098231E+03;  4.0488565E-01;  8.1069238E+03;3;  6.6784554E+01;  0.0000000E+00;  3.0445114E+01;0;  8.2481515E-01;  9.9788184E+03;  0.0000000E+00;  9.4873384E-03;  1.0000000E+04;  0.0000000E+00;  9.9739502E+03;  5.0030100E-01;  0.0000000E+00;  3.2451412E-01;  1.1673658E+04;
  9.6039295E-01;  9.9999998E-03;  3.0037007E-01;2547;  1.6338116E-01;  0.0000000E+00;  1.1153007E-01;  1.0096204E+03;  4.0488580E-01;  7.9395874E+03;3;  7.1334152E+01;  0.0000000E+00;  2.5639194E+01;0;  8.9859378E-01;  9.9768447E+03;  0.0000000E+00;  2.5473249E-03;  1.0000000E+04;  0.0000000E+00;  9.9718877E+03;  5.3979903E-01;  0.0000000E+00;  3.5879475E-01;  1.2607535E+04;
  9.8034817E-01;  9.9999998E-03;  1.6018294E-01;2571;  1.7107818E-01;  0.0000000E+00;  7.0560522E-02;  1.0096424E+03;  4.0433210E-01;  7.9471787E+03;3;  5.6035259E+01;  0.0000000E+00;  6.0968161E+00;0;  3.4967524E-01;  9.9997988E+03;  0.0000000E+00; -1.9408003E-06;  1.0000000E+04;  0.0000000E+00;  9.9767383E+03;  5.7499073E-02;  0.0000000E+00;  2.9217616E-01;  1.0371397E+04;
  9.8036712E-01;  9.9999998E-03;  1.8020292E-01;2572;  1.7810394E-01;  0.0000000E+00;  7.5704597E-02;  1.0095622E+03;  4.0433231E-01;  7.8811416E+03;3;  5.6725166E+01;  0.0000000E+00;  7.2019653E+00;0;  3.5269928E-01;  9.9982061E+03;  0.0000000E+00; -2.8349236E-06;  1.0000000E+04;  0.0000000E+00;  9.9767363E+03;  9.1052786E-02;  0.0000000E+00;  2.6164651E-01;  1.0396376E+04;
  9.8038894E-01;  9.9999998E-03;  2.0022327E-01;2573;  1.8588960E-01;  0.0000000E+00;  8.0412149E-02;  1.0094438E+03;  4.0433234E-01;  7.7835649E+03;3;  5.7929939E+01;  0.0000000E+00;  8.8527231E+00;0;  3.7733543E-01;  9.9960059E+03;  0.0000000E+00;  3.7517218E-04;  1.0000000E+04;  0.0000000E+00;  9.9765947E+03;  1.3602531E-01;  0.0000000E+00;  2.4131012E-01;  1.0465902E+04;
  9.8041260E-01;  9.9999998E-03;  2.2024934E-01;2574;  1.9397119E-01;  0.0000000E+00;  8.5593686E-02;  1.0092932E+03;  4.0433261E-01;  7.6593613E+03;3;  6.0343761E+01;  0.0000000E+00;  1.1323438E+01;0;  4.2461506E-01;  9.9932588E+03;  0.0000000E+00;  3.7969626E-03;  1.0000000E+04;  0.0000000E+00;  9.9763477E+03;  1.9131751E-01;  0.0000000E+00;  2.3329754E-01;  1.0567137E+04;
  9.8043323E-01;  9.9999998E-03;  2.4027430E-01;2575;  2.0036635E-01;  0.0000000E+00;  8.7693147E-02;  1.0091227E+03;  4.0433270E-01;  7.5188501E+03;3;  6.4692711E+01;  0.0000000E+00;  1.5051724E+01;0;  4.8238337E-01;  9.9901885E+03;  0.0000000E+00;  1.3863130E-02;  1.0000000E+04;  0.0000000E+00;  9.9760420E+03;  2.5337115E-01;  0.0000000E+00;  2.2901222E-01;  1.0690048E+04;
  9.8044342E-01;  9.9999998E-03;  2.6029360E-01;2576;  2.0221794E-01;  0.0000000E+00;  8.9257523E-02;  1.0089716E+03;  4.0433297E-01;  7.3942617E+03;3;  7.0087166E+01;  0.0000000E+00;  2.0832251E+01;0;  5.3075993E-01;  9.9870645E+03;  0.0000000E+00;  2.6351009E-02;  1.0000000E+04;  0.0000000E+00;  9.9761563E+03;  3.1716055E-01;  0.0000000E+00;  2.1359938E-01;  1.0632491E+04;
  9.8043698E-01;  9.9999998E-03;  2.8031236E-01;2577;  1.9097480E-01;  0.0000000E+00;  1.0006540E-01;  1.0088473E+03;  4.0433308E-01;  7.2917905E+03;3;  7.1634888E+01;  0.0000000E+00;  2.9293215E+01;0;  6.6934925E-01;  9.9841738E+03;  0.0000000E+00;  2.7418487E-02;  1.0000000E+04;  0.0000000E+00;  9.9765557E+03;  3.7634388E-01;  0.0000000E+00;  2.9300538E-01;  1.0317242E+04;
  9.8041123E-01;  9.9999998E-03;  3.0033788E-01;2578;  1.7283900E-01;  0.0000000E+00;  1.0384833E-01;  1.0086328E+03;  4.0433332E-01;  7.1150513E+03;3;  7.7395821E+01;  0.0000000E+00;  2.6554024E+01;0;  7.6110542E-01;  9.9817354E+03;  0.0000000E+00;  1.5416025E-03;  1.0000000E+04;  0.0000000E+00;  9.9747168E+03;  4.2613620E-01;  0.0000000E+00;  3.3496922E-01;  1.1108420E+04;
  1.0003412E+00;  9.9999998E-03;  1.6016644E-01;2602;  1.6907971E-01;  0.0000000E+00;  6.5201879E-02;  1.0086343E+03;  4.0380311E-01;  7.1036001E+03;3;  5.6110046E+01;  0.0000000E+00;  6.3875680E+00;0;  2.3497251E-01;  1.0003963E+04;  0.0000000E+00;  1.2745974E-06;  1.0000000E+04;  0.0000000E+00;  9.9787695E+03; -3.7383083E-02;  0.0000000E+00;  2.7235559E-01;  9.2576123E+03;
  1.0003604E+00;  9.9999998E-03;  1.8018454E-01;2603;  1.7636687E-01;  0.0000000E+00;  6.9943003E-02;  1.0085582E+03;  4.0380305E-01;  7.0409160E+03;3;  5.6867176E+01;  0.0000000E+00;  7.3665609E+00;0;  2.3718826E-01;  1.0002443E+04;  0.0000000E+00; -6.6050445E-05;  1.0000000E+04;  0.0000000E+00;  9.9787715E+03; -5.8484618E-03;  0.0000000E+00;  2.4303673E-01;  9.2767666E+03;
  1.0003825E+00;  9.9999998E-03;  2.0020282E-01;2604;  1.8433541E-01;  0.0000000E+00;  7.4429534E-02;  1.0084421E+03;  4.0380314E-01;  6.9453745E+03;3;  5.8172428E+01;  0.0000000E+00;  9.0893745E+00;0;  2.6055270E-01;  1.0000280E+04;  0.0000000E+00;  6.1162410E-04;  1.0000000E+04;  0.0000000E+00;  9.9786318E+03;  3.7331715E-02;  0.0000000E+00;  2.2322097E-01;  9.3433848E+03;
  1.0004072E+00;  9.9999998E-03;  2.2022517E-01;2605;  1.9273411E-01;  0.0000000E+00;  7.8897558E-02;  1.0082924E+03;  4.0380335E-01;  6.8222729E+03;3;  6.0648838E+01;  0.0000000E+00;  1.1220437E+01;0;  3.0658406E-01;  9.9975439E+03;  0.0000000E+00;  8.6275479E-03;  1.0000000E+04;  0.0000000E+00;  9.9784033E+03;  9.1606952E-02;  0.0000000E+00;  2.1497712E-01;  9.4332070E+03;
  1.0004314E+00;  9.9999998E-03;  2.4024867E-01;2606;  2.0010823E-01;  0.0000000E+00;  8.0962285E-02;  1.0081176E+03;  4.0380338E-01;  6.6783809E+03;3;  6.5191444E+01;  0.0000000E+00;  1.4193300E+01;0;  3.6599201E-01;  9.9943887E+03;  0.0000000E+00;  3.1824153E-02;  1.0000000E+04;  0.0000000E+00;  9.9780869E+03;  1.5466769E-01;  0.0000000E+00;  2.1132433E-01;  9.5547754E+03;
  1.0004481E+00;  9.9999998E-03;  2.6026526E-01;2607;  2.0440815E-01;  0.0000000E+00;  8.1517152E-02;  1.0079656E+03;  4.0380353E-01;  6.5533242E+03;3;  7.2064613E+01;  0.0000000E+00;  1.8874813E+01;0;  4.1447681E-01;  9.9910342E+03;  0.0000000E+00;  5.8542147E-02;  1.0000000E+04;  0.0000000E+00;  9.9784199E+03;  2.2277473E-01;  0.0000000E+00;  1.9170208E-01;  9.4038555E+03;
  1.0004507E+00;  9.9999998E-03;  2.8028172E-01;2608;  1.9863813E-01;  0.0000000E+00;  9.1568112E-02;  1.0078473E+03;  4.0380377E-01;  6.4560332E+03;3;  7.6748558E+01;  0.0000000E+00;  2.8416607E+01;0;  5.4825449E-01;  9.9877900E+03;  0.0000000E+00;  5.5964295E-02;  1.0000000E+04;  0.0000000E+00;  9.9793047E+03;  2.8880876E-01;  0.0000000E+00;  2.5944576E-01;  8.8860049E+03;
  1.0004318E+00;  9.9999998E-03;  3.0030620E-01;2609;  1.8313172E-01;  0.0000000E+00;  9.5978647E-02;  1.0076248E+03;  4.0380380E-01;  6.2730391E+03;3;  8.3504478E+01;  0.0000000E+00;  2.6291759E+01;0;  6.5414464E-01;  9.9850166E+03;  0.0000000E+00; -5.1961849E-03;  1.0000000E+04;  0.0000000E+00;  9.9776377E+03;  3.4416607E-01;  0.0000000E+00;  3.0997854E-01;  9.5606777E+03;
  1.0203329E+00;  9.9999998E-03;  1.6015087E-01;2633;  1.6661549E-01;  0.0000000E+00;  6.0084995E-02;  1.0076230E+03;  4.0331131E-01;  6.2564507E+03;3;  5.5960571E+01;  0.0000000E+00;  6.6529679E+00;0;  1.5925629E-01;  1.0006318E+04;  0.0000000E+00; -8.1636761E-05;  1.0000000E+04;  0.0000000E+00;  9.9807041E+03; -9.1994449E-02;  0.0000000E+00;  2.5125074E-01;  8.1680815E+03;
  1.0203526E+00;  9.9999998E-03;  1.8016732E-01;2634;  1.7410956E-01;  0.0000000E+00;  6.4704575E-02;  1.0075465E+03;  4.0331146E-01;  6.1937183E+03;3;  5.6798656E+01;  0.0000000E+00;  7.7839012E+00;0;  1.6155301E-01;  1.0004823E+04;  0.0000000E+00; -1.8317212E-03;  1.0000000E+04;  0.0000000E+00;  9.9806807E+03; -6.1801568E-02;  0.0000000E+00;  2.2335458E-01;  8.1957988E+03;
  1.0203755E+00;  9.9999998E-03;  2.0018423E-01;2635;  1.8250860E-01;  0.0000000E+00;  6.8962142E-02;  1.0074329E+03;  4.0331149E-01;  6.1004580E+03;3;  5.8235470E+01;  0.0000000E+00;  9.2151108E+00;0;  1.8343334E-01;  1.0002755E+04;  0.0000000E+00; -5.9241168E-03;  1.0000000E+04;  0.0000000E+00;  9.9804912E+03; -2.1425199E-02;  0.0000000E+00;  2.0485854E-01;  8.2800020E+03;
  1.0204012E+00;  9.9999998E-03;  2.2020316E-01;2636;  1.9131429E-01;  0.0000000E+00;  7.2391845E-02;  1.0072885E+03;  4.0331146E-01;  5.9818560E+03;3;  6.0779221E+01;  0.0000000E+00;  1.0987877E+01;0;  2.2633214E-01;  1.0000156E+04;  0.0000000E+00;  9.5222151E-04;  1.0000000E+04;  0.0000000E+00;  9.9802227E+03;  2.9213909E-02;  0.0000000E+00;  1.9711824E-01;  8.3814912E+03;
  1.0204289E+00;  9.9999998E-03;  2.4022396E-01;2637;  1.9951493E-01;  0.0000000E+00;  7.4117087E-02;  1.0071188E+03;  4.0331158E-01;  5.8426094E+03;3;  6.5590782E+01;  0.0000000E+00;  1.3415203E+01;0;  2.8327471E-01;  9.9970928E+03;  0.0000000E+00;  3.5259396E-02;  1.0000000E+04;  0.0000000E+00;  9.9799258E+03;  8.9545228E-02;  0.0000000E+00;  1.9372948E-01;  8.4908037E+03;
  1.0204511E+00;  9.9999998E-03;  2.6023850E-01;2638;  2.0539752E-01;  0.0000000E+00;  7.4078180E-02;  1.0069743E+03;  4.0331170E-01;  5.7240117E+03;3;  7.3560188E+01;  0.0000000E+00;  1.7269436E+01;0;  3.2898301E-01;  9.9936865E+03;  0.0000000E+00;  7.7799968E-02;  1.0000000E+04;  0.0000000E+00;  9.9804561E+03;  1.5772836E-01;  0.0000000E+00;  1.7125463E-01;  8.2614307E+03;
  1.0204641E+00;  9.9999998E-03;  2.8025252E-01;2639;  2.0584422E-01;  0.0000000E+00;  8.2650162E-02;  1.0068730E+03;  4.0331155E-01;  5.6408389E+03;3;  8.2342430E+01;  0.0000000E+00;  2.6577650E+01;0;  4.4878322E-01;  9.9901895E+03;  0.0000000E+00;  6.8763182E-02;  1.0000000E+04;  0.0000000E+00;  9.9819434E+03;  2.2784175E-01;  0.0000000E+00;  2.2094148E-01;  7.5135313E+03;
  1.0204589E+00;  9.9999998E-03;  3.0027595E-01;2640;  1.9573008E-01;  0.0000000E+00;  8.8058911E-02;  1.0066515E+03;  4.0331143E-01;  5.4590601E+03;3;  8.9870567E+01;  0.0000000E+00;  2.4485313E+01;0;  5.7089067E-01;  9.9871094E+03;  0.0000000E+00; -1.7130909E-02;  1.0000000E+04;  0.0000000E+00;  9.9806152E+03;  2.8576854E-01;  0.0000000E+00;  2.8512216E-01;  7.9958818E+03;
  1.0403234E+00;  9.9999998E-03;  1.6013610E-01;2664;  1.6358282E-01;  0.0000000E+00;  5.5235971E-02;  1.0066565E+03;  4.0286687E-01;  5.4456987E+03;3;  5.5773800E+01;  0.0000000E+00;  6.9992285E+00;0;  1.0996158E-01;  1.0007387E+04;  0.0000000E+00; -1.1002290E-03;  1.0000000E+04;  0.0000000E+00;  9.9824873E+03; -1.1940431E-01;  0.0000000E+00;  2.2936589E-01;  7.1324897E+03;
  1.0403440E+00;  9.9999998E-03;  1.8015160E-01;2665;  1.7157133E-01;  0.0000000E+00;  5.9638157E-02;  1.0065773E+03;  4.0286702E-01;  5.3809214E+03;3;  5.6711414E+01;  0.0000000E+00;  7.8619471E+00;0;  1.1320940E-01;  1.0005920E+04;  0.0000000E+00; -1.1496207E-02;  1.0000000E+04;  0.0000000E+00;  9.9823799E+03; -9.0528779E-02;  0.0000000E+00;  2.0373818E-01;  7.1909800E+03;
  1.0403677E+00;  9.9999998E-03;  2.0016631E-01;2666;  1.8039908E-01;  0.0000000E+00;  6.3161977E-02;  1.0064684E+03;  4.0286699E-01;  5.2917598E+03;3;  5.8327011E+01;  0.0000000E+00;  9.0657415E+00;0;  1.3301757E-01;  1.0004042E+04;  0.0000000E+00; -3.6158066E-02;  1.0000000E+04;  0.0000000E+00;  9.9820938E+03; -5.4476611E-02;  0.0000000E+00;  1.8749417E-01;  7.3116372E+03;
  1.0403957E+00;  9.9999998E-03;  2.2018334E-01;2667;  1.8990776E-01;  0.0000000E+00;  6.6049621E-02;  1.0063346E+03;  4.0286702E-01;  5.1822134E+03;3;  6.1114086E+01;  0.0000000E+00;  1.0834911E+01;0;  1.7115529E-01;  1.0001760E+04;  0.0000000E+00; -5.0594039E-02;  1.0000000E+04;  0.0000000E+00;  9.9817217E+03; -1.0347338E-02;  0.0000000E+00;  1.8150263E-01;  7.4516611E+03;
  1.0404265E+00;  9.9999998E-03;  2.4020146E-01;2668;  1.9898927E-01;  0.0000000E+00;  6.7372404E-02;  1.0061797E+03;  4.0286702E-01;  5.0555015E+03;3;  6.6414818E+01;  0.0000000E+00;  1.2841274E+01;0;  2.2181328E-01;  9.9990000E+03;  0.0000000E+00; -2.2523262E-02;  1.0000000E+04;  0.0000000E+00;  9.9814111E+03;  4.3388385E-02;  0.0000000E+00;  1.7842489E-01;  7.5555791E+03;
  1.0404550E+00;  9.9999998E-03;  2.6021427E-01;2669;  2.0656878E-01;  0.0000000E+00;  6.7251980E-02;  1.0060506E+03;  4.0286693E-01;  4.9498574E+03;3;  7.5369812E+01;  0.0000000E+00;  1.6379847E+01;0;  2.6260564E-01;  9.9957188E+03;  0.0000000E+00;  2.4409289E-02;  1.0000000E+04;  0.0000000E+00;  9.9821299E+03;  1.0745306E-01;  0.0000000E+00;  1.5515257E-01;  7.2488477E+03;
  1.0404807E+00;  9.9999998E-03;  2.8022707E-01;2670;  2.1367250E-01;  0.0000000E+00;  7.3943898E-02;  1.0059523E+03;  4.0286681E-01;  4.8693779E+03;3;  8.8701050E+01;  0.0000000E+00;  2.3623955E+01;0;  3.6853701E-01;  9.9919326E+03;  0.0000000E+00;  6.7353635E-03;  1.0000000E+04;  0.0000000E+00;  9.9839736E+03;  1.8234588E-01;  0.0000000E+00;  1.8619114E-01;  6.3991919E+03;
  1.0404967E+00;  9.9999998E-03;  3.0024764E-01;2671;  2.1316443E-01;  0.0000000E+00;  7.9426005E-02;  1.0057360E+03;  4.0286672E-01;  4.6924590E+03;3;  1.0061397E+02;  0.0000000E+00;  2.4204779E+01;0;  4.9035332E-01;  9.9880488E+03;  0.0000000E+00;  1.5618276E-02;  1.0000000E+04;  0.0000000E+00;  9.9835645E+03;  2.5161549E-01;  0.0000000E+00;  2.3873782E-01;  6.4821001E+03;
  1.0603131E+00;  9.9999998E-03;  1.6012228E-01;2695;  1.6019306E-01;  0.0000000E+00;  5.0469257E-02;  1.0057684E+03;  4.0247554E-01;  4.6989053E+03;3;  5.5479141E+01;  0.0000000E+00;  7.0826445E+00;0;  7.7737182E-02;  1.0007591E+04;  0.0000000E+00; -6.4373552E-03;  1.0000000E+04;  0.0000000E+00;  9.9840635E+03; -1.2991101E-01;  0.0000000E+00;  2.0764819E-01;  6.1779331E+03;
  1.0603347E+00;  9.9999998E-03;  1.8013635E-01;2696;  1.6876478E-01;  0.0000000E+00;  5.4339398E-02;  1.0056868E+03;  4.0247554E-01;  4.6323623E+03;3;  5.6623638E+01;  0.0000000E+00;  7.8625388E+00;0;  8.2163177E-02;  1.0006221E+04;  0.0000000E+00; -4.1671280E-02;  1.0000000E+04;  0.0000000E+00;  9.9838086E+03; -1.0339601E-01;  0.0000000E+00;  1.8555918E-01;  6.2885557E+03;
  1.0603602E+00;  9.9999998E-03;  2.0014955E-01;2697;  1.7821735E-01;  0.0000000E+00;  5.7189167E-02;  1.0055879E+03;  4.0247551E-01;  4.5518325E+03;3;  5.8427811E+01;  0.0000000E+00;  8.9059639E+00;0;  9.8880410E-02;  1.0004684E+04;  0.0000000E+00; -1.1463262E-01;  1.0000000E+04;  0.0000000E+00;  9.9833828E+03; -7.3797047E-02;  0.0000000E+00;  1.7267746E-01;  6.4705063E+03;
  1.0603911E+00;  9.9999998E-03;  2.2016540E-01;2698;  1.8865423E-01;  0.0000000E+00;  5.9710875E-02;  1.0054724E+03;  4.0247554E-01;  4.4577031E+03;3;  6.1753296E+01;  0.0000000E+00;  1.0360135E+01;0;  1.3039416E-01;  1.0002900E+04;  0.0000000E+00; -1.8278308E-01;  1.0000000E+04;  0.0000000E+00;  9.9828750E+03; -3.8914870E-02;  0.0000000E+00;  1.6930903E-01;  6.6824883E+03;
  1.0604252E+00;  9.9999998E-03;  2.4018227E-01;2699;  1.9862328E-01;  0.0000000E+00;  6.1003216E-02;  1.0053369E+03;  4.0247542E-01;  4.3472578E+03;3;  6.7779030E+01;  0.0000000E+00;  1.2161770E+01;0;  1.7270325E-01;  1.0000638E+04;  0.0000000E+00; -1.9245303E-01;  1.0000000E+04;  0.0000000E+00;  9.9824561E+03;  4.9479697E-03;  0.0000000E+00;  1.6775528E-01;  6.8305728E+03;
  1.0604619E+00;  9.9999998E-03;  2.6019445E-01;2700;  2.0866945E-01;  0.0000000E+00;  6.1148889E-02;  1.0052151E+03;  4.0247527E-01;  4.2479790E+03;3;  7.7744469E+01;  0.0000000E+00;  1.5456807E+01;0;  2.0968965E-01;  9.9975273E+03;  0.0000000E+00; -1.7630920E-01;  1.0000000E+04;  0.0000000E+00;  9.9831484E+03;  6.3335665E-02;  0.0000000E+00;  1.4635399E-01;  6.5386089E+03;
  1.0604993E+00;  9.9999998E-03;  2.8020653E-01;2701;  2.2018121E-01;  0.0000000E+00;  6.5849043E-02;  1.0050938E+03;  4.0247524E-01;  4.1490894E+03;3;  9.3506737E+01;  0.0000000E+00;  2.0900589E+01;0;  3.0183673E-01;  9.9932168E+03;  0.0000000E+00; -1.7493565E-01;  1.0000000E+04;  0.0000000E+00;  9.9850645E+03;  1.4532317E-01;  0.0000000E+00;  1.5651357E-01;  5.7235854E+03;
  1.0605346E+00;  9.9999998E-03;  3.0022222E-01;2702;  2.2909616E-01;  0.0000000E+00;  6.8978608E-02;  1.0048618E+03;  4.0247515E-01;  3.9601902E+03;3;  1.1126553E+02;  0.0000000E+00;  2.3794100E+01;0;  4.0061295E-01;  9.9875254E+03;  0.0000000E+00;  2.4543864E-01;  1.0000000E+04;  0.0000000E+00;  9.9861709E+03;  2.4573678E-01;  0.0000000E+00;  1.5487619E-01;  5.2872788E+03;
  1.0803030E+00;  9.9999998E-03;  1.6010943E-01;2726;  1.5671960E-01;  0.0000000E+00;  4.5643721E-02;  1.0049741E+03;  4.0213948E-01;  4.0287190E+03;3;  5.5057705E+01;  0.0000000E+00;  6.9592094E+00;0;  5.7840779E-02;  1.0007184E+04;  0.0000000E+00; -2.6415570E-02;  1.0000000E+04;  0.0000000E+00;  9.9853721E+03; -1.2976032E-01;  0.0000000E+00;  1.8760110E-01;  5.3267915E+03;
  1.0803255E+00;  9.9999998E-03;  1.8012129E-01;2727;  1.6575900E-01;  0.0000000E+00;  4.8561625E-02;  1.0048954E+03;  4.0213946E-01;  3.9649639E+03;3;  5.6473244E+01;  0.0000000E+00;  7.6030278E+00;0;  6.2507942E-02;  1.0006043E+04;  0.0000000E+00; -1.1303243E-01;  1.0000000E+04;  0.0000000E+00;  9.9849414E+03; -1.0762219E-01;  0.0000000E+00;  1.7013013E-01;  5.5073252E+03;
  1.0803535E+00;  9.9999998E-03;  2.0013404E-01;2728;  1.7616956E-01;  0.0000000E+00;  5.1142164E-02;  1.0048134E+03;  4.0213943E-01;  3.8985959E+03;3;  5.8823402E+01;  0.0000000E+00;  8.5431175E+00;0;  7.4719295E-02;  1.0004998E+04;  0.0000000E+00; -2.6665765E-01;  1.0000000E+04;  0.0000000E+00;  9.9843662E+03; -8.6567983E-02;  0.0000000E+00;  1.6128728E-01;  5.7972861E+03;
  1.0803875E+00;  9.9999998E-03;  2.2014958E-01;2729;  1.8751656E-01;  0.0000000E+00;  5.3636894E-02;  1.0047229E+03;  4.0213925E-01;  3.8252698E+03;3;  6.2959282E+01;  0.0000000E+00;  9.9624052E+00;0;  9.8396122E-02;  1.0003853E+04;  0.0000000E+00; -4.1951853E-01;  1.0000000E+04;  0.0000000E+00;  9.9837178E+03; -6.2675610E-02;  0.0000000E+00;  1.6107173E-01;  6.1586074E+03;
  1.0804251E+00;  9.9999998E-03;  2.4016498E-01;2730;  1.9824955E-01;  0.0000000E+00;  5.4540094E-02;  1.0046151E+03;  4.0213928E-01;  3.7378450E+03;3;  6.9681511E+01;  0.0000000E+00;  1.1571936E+01;0;  1.2808552E-01;  1.0002167E+04;  0.0000000E+00; -4.9458432E-01;  1.0000000E+04;  0.0000000E+00;  9.9832715E+03; -3.0108280E-02;  0.0000000E+00;  1.5819380E-01;  6.3901870E+03;
  1.0804682E+00;  9.9999998E-03;  2.6017696E-01;2731;  2.1013500E-01;  0.0000000E+00;  5.5096604E-02;  1.0044990E+03;  4.0213904E-01;  3.6438499E+03;3;  8.0820442E+01;  0.0000000E+00;  1.4579851E+01;0;  1.6046785E-01;  9.9991377E+03;  0.0000000E+00; -5.2157086E-01;  1.0000000E+04;  0.0000000E+00;  9.9840068E+03;  2.3287924E-02;  0.0000000E+00;  1.3717993E-01;  6.1555317E+03;
  1.0805128E+00;  9.9999998E-03;  2.8018931E-01;2732;  2.2378820E-01;  0.0000000E+00;  5.8942385E-02;  1.0043325E+03;  4.0213916E-01;  3.5089197E+03;3;  9.7978424E+01;  0.0000000E+00;  1.9286024E+01;0;  2.5142092E-01;  9.9940410E+03;  0.0000000E+00; -3.7290710E-01;  1.0000000E+04;  0.0000000E+00;  9.9857979E+03;  1.1435229E-01;  0.0000000E+00;  1.3706861E-01;  5.2728252E+03;
  1.0805564E+00;  9.9999998E-03;  3.0020198E-01;2733;  2.3509213E-01;  0.0000000E+00;  6.0777958E-02;  1.0040364E+03;  4.0213898E-01;  3.2690488E+03;3;  1.1706235E+02;  0.0000000E+00;  2.2857456E+01;0;  3.4741312E-01;  9.9862344E+03;  0.0000000E+00;  8.6713499E-01;  1.0000000E+04;  0.0000000E+00;  9.9877422E+03;  2.4050865E-01;  0.0000000E+00;  1.0690447E-01;  5.5203530E+03;
  1.1002929E+00;  9.9999998E-03;  1.6009609E-01;2756;  1.5321060E-01;  0.0000000E+00;  4.0242720E-02;  1.0042777E+03;  4.0185750E-01;  3.4386960E+03;3;  5.4612953E+01;  0.0000000E+00;  6.6067743E+00;0;  4.8374727E-02;  1.0006333E+04;  0.0000000E+00; -8.1904754E-02;  1.0000000E+04;  0.0000000E+00;  9.9863848E+03; -1.2242031E-01;  0.0000000E+00;  1.7079504E-01;  4.5927114E+03;
  1.1003175E+00;  9.9999998E-03;  1.8010721E-01;2757;  1.6305873E-01;  0.0000000E+00;  4.2790476E-02;  1.0042097E+03;  4.0185732E-01;  3.3840383E+03;3;  5.6483849E+01;  0.0000000E+00;  7.2190385E+00;0;  5.1389404E-02;  1.0005578E+04;  0.0000000E+00; -2.5183189E-01;  1.0000000E+04;  0.0000000E+00;  9.9857910E+03; -1.0697790E-01;  0.0000000E+00;  1.5836731E-01;  4.8763232E+03;
  1.1003484E+00;  9.9999998E-03;  2.0012008E-01;2758;  1.7441197E-01;  0.0000000E+00;  4.5212489E-02;  1.0041524E+03;  4.0185741E-01;  3.3379009E+03;3;  5.9550613E+01;  0.0000000E+00;  8.1039495E+00;0;  5.7651363E-02;  1.0005127E+04;  0.0000000E+00; -5.0934952E-01;  1.0000000E+04;  0.0000000E+00;  9.9851035E+03; -9.5619552E-02;  0.0000000E+00;  1.5327092E-01;  5.3592520E+03;
  1.1003853E+00;  9.9999998E-03;  2.2013514E-01;2759;  1.8649112E-01;  0.0000000E+00;  4.7246881E-02;  1.0040912E+03;  4.0185735E-01;  3.2886899E+03;3;  6.4628120E+01;  0.0000000E+00;  9.2902069E+00;0;  7.1259722E-02;  1.0004615E+04;  0.0000000E+00; -7.5617450E-01;  1.0000000E+04;  0.0000000E+00;  9.9844082E+03; -8.2350627E-02;  0.0000000E+00;  1.5361035E-01;  5.9456572E+03;
  1.1004267E+00;  9.9999998E-03;  2.4014935E-01;2760;  1.9784164E-01;  0.0000000E+00;  4.7749560E-02;  1.0040114E+03;  4.0185723E-01;  3.2244302E+03;3;  7.2158920E+01;  0.0000000E+00;  1.0533692E+01;0;  8.5484035E-02;  1.0003344E+04;  0.0000000E+00; -8.9357847E-01;  1.0000000E+04;  0.0000000E+00;  9.9841055E+03; -5.9105687E-02;  0.0000000E+00;  1.4458972E-01;  6.2856743E+03;
  1.1004715E+00;  9.9999998E-03;  2.6016060E-01;2761;  2.1028663E-01;  0.0000000E+00;  4.8818290E-02;  1.0039114E+03;  4.0185708E-01;  3.1439739E+03;3;  8.4844620E+01;  0.0000000E+00;  1.3549869E+01;0;  1.1172055E-01;  1.0000262E+04;  0.0000000E+00; -8.6941737E-01;  1.0000000E+04;  0.0000000E+00;  9.9852041E+03; -8.8058040E-03;  0.0000000E+00;  1.2052636E-01;  5.9065205E+03;
  1.1005182E+00;  9.9999998E-03;  2.8017375E-01;2762;  2.2486299E-01;  0.0000000E+00;  5.2646611E-02;  1.0036921E+03;  4.0185714E-01;  2.9676995E+03;3;  1.0313154E+02;  0.0000000E+00;  1.8017036E+01;0;  2.1267380E-01;  9.9943184E+03;  0.0000000E+00; -3.0618957E-01;  1.0000000E+04;  0.0000000E+00;  9.9868027E+03;  9.4444595E-02;  0.0000000E+00;  1.1822920E-01;  4.4664351E+03;
  1.1202847E+00;  9.9999998E-03;  1.6008364E-01;2785;  1.5016913E-01;  0.0000000E+00;  3.4786098E-02;  1.0036811E+03;  4.0162641E-01;  2.9299001E+03;3;  5.4351738E+01;  0.0000000E+00;  6.0647879E+00;0;  4.6985753E-02;  1.0005228E+04;  0.0000000E+00; -2.0886078E-01;  1.0000000E+04;  0.0000000E+00;  9.9871104E+03; -1.1133686E-01;  0.0000000E+00;  1.5832262E-01;  3.9988403E+03;
  1.1203116E+00;  9.9999998E-03;  1.8009460E-01;2786;  1.6086492E-01;  0.0000000E+00;  3.7059631E-02;  1.0036334E+03;  4.0162617E-01;  2.8919028E+03;3;  5.6846104E+01;  0.0000000E+00;  6.5781074E+00;0;  4.5984477E-02;  1.0004979E+04;  0.0000000E+00; -4.8725402E-01;  1.0000000E+04;  0.0000000E+00;  9.9864160E+03; -1.0419147E-01;  0.0000000E+00;  1.5017594E-01;  4.4599248E+03;
  1.1203452E+00;  9.9999998E-03;  2.0010768E-01;2787;  1.7301835E-01;  0.0000000E+00;  3.9216805E-02;  1.0036043E+03;  4.0162620E-01;  2.8686973E+03;3;  6.0806198E+01;  0.0000000E+00;  7.3466163E+00;0;  4.5002498E-02;  1.0005105E+04;  0.0000000E+00; -8.4529907E-01;  1.0000000E+04;  0.0000000E+00;  9.9857178E+03; -1.0169750E-01;  0.0000000E+00;  1.4669999E-01;  5.1998594E+03;
  1.1203855E+00;  9.9999998E-03;  2.2012255E-01;2788;  1.8561110E-01;  0.0000000E+00;  4.0768094E-02;  1.0035676E+03;  4.0162602E-01;  2.8394094E+03;3;  6.6850311E+01;  0.0000000E+00;  8.2168283E+00;0;  4.7631234E-02;  1.0004997E+04;  0.0000000E+00; -1.1574759E+00;  1.0000000E+04;  0.0000000E+00;  9.9851035E+03; -9.5546246E-02;  0.0000000E+00;  1.4317748E-01;  5.9735093E+03;
  1.1204290E+00;  9.9999998E-03;  2.4013574E-01;2789;  1.9724068E-01;  0.0000000E+00;  4.1112162E-02;  1.0035062E+03;  4.0162602E-01;  2.7904788E+03;3;  7.5520729E+01;  0.0000000E+00;  9.3183966E+00;0;  4.7158584E-02;  1.0003725E+04;  0.0000000E+00; -1.2822634E+00;  1.0000000E+04;  0.0000000E+00;  9.9851631E+03; -7.5987644E-02;  0.0000000E+00;  1.2314623E-01;  6.2437993E+03;
  1.1204733E+00;  9.9999998E-03;  2.6014769E-01;2790;  2.1019883E-01;  0.0000000E+00;  4.3456335E-02;  1.0033950E+03;  4.0162596E-01;  2.7018921E+03;3;  9.0075508E+01;  0.0000000E+00;  1.2741126E+01;0;  8.3644129E-02;  1.0000286E+04;  0.0000000E+00; -1.0071281E+00;  1.0000000E+04;  0.0000000E+00;  9.9863975E+03; -2.0009538E-02;  0.0000000E+00;  1.0365367E-01;  5.3224639E+03;
  1.1205157E+00;  9.9999998E-03;  2.8016078E-01;2791;  2.2308686E-01;  0.0000000E+00;  4.7096387E-02;  1.0031506E+03;  4.0162590E-01;  2.5073420E+03;3;  1.0874505E+02;  0.0000000E+00;  1.6958605E+01;0;  1.8490529E-01;  9.9939609E+03;  0.0000000E+00;  2.9761499E-01;  1.0000000E+04;  0.0000000E+00;  9.9878662E+03;  8.6209491E-02;  0.0000000E+00;  9.8695792E-02;  3.7131797E+03;
  1.1402787E+00;  9.9999998E-03;  1.6007277E-01;2813;  1.4781293E-01;  0.0000000E+00;  2.9547431E-02;  1.0031872E+03;  4.0144080E-01;  2.5042993E+03;3;  5.4402271E+01;  0.0000000E+00;  5.3455110E+00;0;  4.9316481E-02;  1.0004105E+04;  0.0000000E+00; -4.4876549E-01;  1.0000000E+04;  0.0000000E+00;  9.9876250E+03; -1.0073650E-01;  0.0000000E+00;  1.5005298E-01;  3.6132390E+03;
  1.1403081E+00;  9.9999998E-03;  1.8008420E-01;2814;  1.5935937E-01;  0.0000000E+00;  3.1686712E-02;  1.0031663E+03;  4.0144092E-01;  2.4878538E+03;3;  5.7786690E+01;  0.0000000E+00;  5.7999330E+00;0;  4.2724721E-02;  1.0004393E+04;  0.0000000E+00; -8.3395261E-01;  1.0000000E+04;  0.0000000E+00;  9.9869268E+03; -1.0161435E-01;  0.0000000E+00;  1.4433907E-01;  4.3220889E+03;
  1.1403452E+00;  9.9999998E-03;  2.0009835E-01;2815;  1.7221314E-01;  0.0000000E+00;  3.3858314E-02;  1.0031570E+03;  4.0144068E-01;  2.4804805E+03;3;  6.2774639E+01;  0.0000000E+00;  6.4406877E+00;0;  3.6042012E-02;  1.0004868E+04;  0.0000000E+00; -1.2528639E+00;  1.0000000E+04;  0.0000000E+00;  9.9862725E+03; -1.0413022E-01;  0.0000000E+00;  1.4017223E-01;  5.2513003E+03;
  1.1403888E+00;  9.9999998E-03;  2.2011383E-01;2816;  1.8519439E-01;  0.0000000E+00;  3.5349313E-02;  1.0031170E+03;  4.0144068E-01;  2.4489316E+03;3;  6.9780533E+01;  0.0000000E+00;  6.9798384E+00;0;  3.3407517E-02;  1.0004614E+04;  0.0000000E+00; -1.5601165E+00;  1.0000000E+04;  0.0000000E+00;  9.9857383E+03; -9.7442217E-02;  0.0000000E+00;  1.3084973E-01;  6.0180605E+03;
  1.1404315E+00;  9.9999998E-03;  2.4012637E-01;2817;  1.9679938E-01;  0.0000000E+00;  3.6327470E-02;  1.0030507E+03;  4.0144053E-01;  2.3967817E+03;3;  8.0433838E+01;  0.0000000E+00;  8.6094446E+00;0;  3.2731116E-02;  1.0002874E+04;  0.0000000E+00; -1.4754881E+00;  1.0000000E+04;  0.0000000E+00;  9.9861670E+03; -7.2249494E-02;  0.0000000E+00;  1.0498061E-01;  5.7560513E+03;
  1.1404727E+00;  9.9999998E-03;  2.6013938E-01;2818;  2.0965792E-01;  0.0000000E+00;  3.9909624E-02;  1.0028973E+03;  4.0144059E-01;  2.2762698E+03;3;  9.6651848E+01;  0.0000000E+00;  1.2411600E+01;0;  9.6780322E-02;  9.9988418E+03;  0.0000000E+00; -6.2776178E-01;  1.0000000E+04;  0.0000000E+00;  9.9871494E+03; -2.2784024E-03;  0.0000000E+00;  9.9058725E-02;  3.9055317E+03;
  1.1602757E+00;  9.9999998E-03;  1.6006467E-01;2840;  1.4630726E-01;  0.0000000E+00;  2.4903087E-02;  1.0027998E+03;  4.0129545E-01;  2.1636951E+03;3;  5.5191895E+01;  0.0000000E+00;  4.5308762E+00;0;  4.9981892E-02;  1.0003205E+04;  0.0000000E+00; -8.1916511E-01;  1.0000000E+04;  0.0000000E+00;  9.9880508E+03; -9.4452560E-02;  0.0000000E+00;  1.4443445E-01;  3.5127671E+03;
  1.1603088E+00;  9.9999998E-03;  1.8007773E-01;2841;  1.5875986E-01;  0.0000000E+00;  2.7361454E-02;  1.0027976E+03;  4.0129533E-01;  2.1619700E+03;3;  5.9514885E+01;  0.0000000E+00;  4.9845695E+00;0;  3.9948143E-02;  1.0003836E+04;  0.0000000E+00; -1.2667663E+00;  1.0000000E+04;  0.0000000E+00;  9.9873818E+03; -9.9717192E-02;  0.0000000E+00;  1.3966534E-01;  4.3931440E+03;
  1.1603506E+00;  9.9999998E-03;  2.0009395E-01;2842;  1.7245114E-01;  0.0000000E+00;  2.9934380E-02;  1.0027712E+03;  4.0129530E-01;  2.1414348E+03;3;  6.5627274E+01;  0.0000000E+00;  5.4332294E+00;0;  3.6803514E-02;  1.0004036E+04;  0.0000000E+00; -1.6722177E+00;  1.0000000E+04;  0.0000000E+00;  9.9866689E+03; -9.7878546E-02;  0.0000000E+00;  1.3468206E-01;  5.2942778E+03;
  1.1603943E+00;  9.9999998E-03;  2.2010913E-01;2843;  1.8530087E-01;  0.0000000E+00;  3.1616263E-02;  1.0026977E+03;  4.0129516E-01;  2.0846033E+03;3;  7.4315117E+01;  0.0000000E+00;  6.1316671E+00;0;  3.9592646E-02;  1.0003001E+04;  0.0000000E+00; -1.7966102E+00;  1.0000000E+04;  0.0000000E+00;  9.9862471E+03; -8.0695085E-02;  0.0000000E+00;  1.2028773E-01;  5.6109424E+03;
  1.1604342E+00;  9.9999998E-03;  2.4012242E-01;2844;  1.9718224E-01;  0.0000000E+00;  3.4194153E-02;  1.0025806E+03;  4.0129516E-01;  1.9939780E+03;3;  8.7438293E+01;  0.0000000E+00;  8.7024260E+00;0;  6.9565691E-02;  1.0000361E+04;  0.0000000E+00; -1.1968108E+00;  1.0000000E+04;  0.0000000E+00;  9.9865518E+03; -3.6483757E-02;  0.0000000E+00;  1.0604945E-01;  4.3888442E+03;
  1.1604674E+00;  9.9999998E-03;  2.6013336E-01;2845;  2.0710045E-01;  0.0000000E+00;  3.7217930E-02;  1.0024400E+03;  4.0129513E-01;  1.8853180E+03;3;  1.0355878E+02;  0.0000000E+00;  1.2365318E+01;0;  1.2988847E-01;  9.9963389E+03;  0.0000000E+00;  5.5829912E-01;  1.0000000E+04;  0.0000000E+00;  9.9877744E+03;  3.2434396E-02;  0.0000000E+00;  9.7454086E-02;  3.1433508E+03;
  1.1802783E+00;  9.9999998E-03;  1.6006155E-01;2866;  1.4614159E-01;  0.0000000E+00;  2.1731861E-02;  1.0025044E+03;  4.0118340E-01;  1.8951464E+03;3;  5.6861954E+01;  0.0000000E+00;  3.7553778E+00;0;  4.7960043E-02;  1.0002522E+04;  0.0000000E+00; -1.2787092E+00;  1.0000000E+04;  0.0000000E+00;  9.9884170E+03; -9.2467740E-02;  0.0000000E+00;  1.4042778E-01;  3.6038606E+03;
  1.1803173E+00;  9.9999998E-03;  1.8007775E-01;2867;  1.6003653E-01;  0.0000000E+00;  2.5180249E-02;  1.0024741E+03;  4.0118355E-01;  1.8721473E+03;3;  6.2467964E+01;  0.0000000E+00;  4.2686501E+00;0;  4.9038835E-02;  1.0002751E+04;  0.0000000E+00; -1.7163696E+00;  1.0000000E+04;  0.0000000E+00;  9.9875918E+03; -8.9943297E-02;  0.0000000E+00;  1.3898213E-01;  4.4483179E+03;
  1.1803595E+00;  9.9999998E-03;  2.0009422E-01;2868;  1.7370510E-01;  0.0000000E+00;  2.7954467E-02;  1.0023912E+03;  4.0118352E-01;  1.8093639E+03;3;  7.0358032E+01;  0.0000000E+00;  4.9945402E+00;0;  6.2615782E-02;  1.0001932E+04;  0.0000000E+00; -1.9284259E+00;  1.0000000E+04;  0.0000000E+00;  9.9867646E+03; -7.1457192E-02;  0.0000000E+00;  1.3407297E-01;  4.9157725E+03;
  1.1803993E+00;  9.9999998E-03;  2.2010829E-01;2869;  1.8572588E-01;  0.0000000E+00;  3.0107774E-02;  1.0022695E+03;  4.0118343E-01;  1.7171873E+03;3;  8.1111229E+01;  0.0000000E+00;  6.4181347E+00;0;  8.4659383E-02;  9.9998516E+03;  0.0000000E+00; -1.5102236E+00;  1.0000000E+04;  0.0000000E+00;  9.9864219E+03; -3.6352150E-02;  0.0000000E+00;  1.2101153E-01;  4.2297446E+03;
  1.1804322E+00;  9.9999998E-03;  2.4012019E-01;2870;  1.9588397E-01;  0.0000000E+00;  3.3169083E-02;  1.0021401E+03;  4.0118343E-01;  1.6192599E+03;3;  9.5271423E+01;  0.0000000E+00;  9.5987263E+00;0;  1.3404737E-01;  9.9968799E+03;  0.0000000E+00; -1.1156550E-02;  1.0000000E+04;  0.0000000E+00;  9.9868145E+03;  1.8635556E-02;  0.0000000E+00;  1.1541182E-01;  2.6002363E+03;
  1.2002903E+00;  9.9999998E-03;  1.6006586E-01;2890;  1.4855337E-01;  0.0000000E+00;  2.1219904E-02;  1.0022289E+03;  4.0109941E-01;  1.6431301E+03;3;  6.0200134E+01;  0.0000000E+00;  3.3199635E+00;0;  6.2175751E-02;  1.0001174E+04;  0.0000000E+00; -1.7403274E+00;  1.0000000E+04;  0.0000000E+00;  9.9884668E+03; -7.9908744E-02;  0.0000000E+00;  1.4208449E-01;  3.6386804E+03;
  1.2003300E+00;  9.9999998E-03;  1.8008181E-01;2891;  1.6242360E-01;  0.0000000E+00;  2.4602668E-02;  1.0021318E+03;  4.0109938E-01;  1.5715039E+03;3;  6.7745712E+01;  0.0000000E+00;  4.1556602E+00;0;  8.6227283E-02;  1.0000218E+04;  0.0000000E+00; -1.9797401E+00;  1.0000000E+04;  0.0000000E+00;  9.9874922E+03; -5.6862574E-02;  0.0000000E+00;  1.4308986E-01;  4.0783066E+03;
  1.2003683E+00;  9.9999998E-03;  2.0009689E-01;2892;  1.7514867E-01;  0.0000000E+00;  2.7647186E-02;  1.0019835E+03;  4.0109938E-01;  1.4620162E+03;3;  7.7556992E+01;  0.0000000E+00;  5.6206975E+00;0;  1.2762262E-01;  9.9981221E+03;  0.0000000E+00; -1.6090566E+00;  1.0000000E+04;  0.0000000E+00;  9.9866309E+03; -1.3907001E-02;  0.0000000E+00;  1.4152962E-01;  3.6084998E+03;
  1.2003996E+00;  9.9999998E-03;  2.2010832E-01;2893;  1.8459035E-01;  0.0000000E+00;  2.9696112E-02;  1.0018663E+03;  4.0109944E-01;  1.3755758E+03;3;  8.9120064E+01;  0.0000000E+00;  7.6150036E+00;0;  1.5516351E-01;  9.9958389E+03;  0.0000000E+00; -2.1464437E-01;  1.0000000E+04;  0.0000000E+00;  9.9865762E+03;  2.6104163E-02;  0.0000000E+00;  1.2905934E-01;  2.2361370E+03;
  1.2203063E+00;  9.9999998E-03;  1.6007273E-01;2913;  1.5134603E-01;  0.0000000E+00;  2.1649787E-02;  1.0019036E+03;  4.0103742E-01;  1.3593962E+03;3;  6.5614700E+01;  0.0000000E+00;  3.3891912E+00;0;  1.0735261E-01;  9.9980244E+03;  0.0000000E+00; -1.9269820E+00;  1.0000000E+04;  0.0000000E+00;  9.9882236E+03; -3.9891526E-02;  0.0000000E+00;  1.4724414E-01;  3.1897930E+03;
  1.2203401E+00;  9.9999998E-03;  1.8008645E-01;2914;  1.6332506E-01;  0.0000000E+00;  2.4595972E-02;  1.0017670E+03;  4.0103745E-01;  1.2618457E+03;3;  7.4668167E+01;  0.0000000E+00;  4.7194333E+00;0;  1.4824612E-01;  9.9962334E+03;  0.0000000E+00; -1.5658265E+00;  1.0000000E+04;  0.0000000E+00;  9.9872891E+03; -2.3411866E-04;  0.0000000E+00;  1.4848024E-01;  2.8213110E+03;
  1.2203701E+00;  9.9999998E-03;  2.0009878E-01;2915;  1.7374285E-01;  0.0000000E+00;  2.7474957E-02;  1.0016227E+03;  4.0103754E-01;  1.1586958E+03;3;  8.5516487E+01;  0.0000000E+00;  6.7960010E+00;0;  1.9755423E-01;  9.9940127E+03;  0.0000000E+00; -2.1768589E-01;  1.0000000E+04;  0.0000000E+00;  9.9866318E+03;  4.9409613E-02;  0.0000000E+00;  1.4814462E-01;  1.7995863E+03;
  1.2203875E+00;  9.9999998E-03;  2.2010347E-01;2916;  1.7813191E-01;  0.0000000E+00;  2.7195040E-02;  1.0016861E+03;  4.0103742E-01;  1.2039449E+03;3;  9.5827866E+01;  0.0000000E+00;  8.2472677E+00;0;  1.4926866E-01;  9.9939736E+03;  0.0000000E+00;  1.9338654E+00;  1.0000000E+04;  0.0000000E+00;  9.9879326E+03;  4.1254196E-02;  0.0000000E+00;  1.0801446E-01;  3.1911729E+03;
  1.2403138E+00;  9.9999998E-03;  1.6007699E-01;2934;  1.5084952E-01;  0.0000000E+00;  2.0970590E-02;  1.0016124E+03;  4.0099266E-01;  1.1090725E+03;3;  7.2377693E+01;  0.0000000E+00;  3.6050978E+00;0;  1.5034340E-01;  9.9944922E+03;  0.0000000E+00; -1.2228345E+00;  1.0000000E+04;  0.0000000E+00;  9.9881709E+03;  6.9395783E-03;  0.0000000E+00;  1.4340383E-01;  1.8854790E+03;
  1.2403376E+00;  9.9999998E-03;  1.8008694E-01;2935;  1.5999641E-01;  0.0000000E+00;  2.3240771E-02;  1.0015526E+03;  4.0099281E-01;  1.0678595E+03;3;  8.2105957E+01;  0.0000000E+00;  5.5131679E+00;0;  1.7481573E-01;  9.9937578E+03;  0.0000000E+00; -1.0980922E-02;  1.0000000E+04;  0.0000000E+00;  9.9877119E+03;  3.5896424E-02;  0.0000000E+00;  1.3891931E-01;  1.3134784E+03;
  1.2603067E+00;  9.9999998E-03;  1.6007638E-01;2952;  1.4597005E-01;  0.0000000E+00;  1.9034499E-02;  1.0015451E+03;  4.0096113E-01;  1.0181170E+03;3;  7.9183632E+01;  0.0000000E+00;  4.0693302E+00;0;  1.3875648E-01;  9.9941465E+03;  0.0000000E+00;  4.6741343E-01;  1.0000000E+04;  0.0000000E+00;  9.9887568E+03;  1.4170233E-02;  0.0000000E+00;  1.2458625E-01;  1.0587235E+03;
