TimeStep;Np;Nbound;Nfixed;Nmoving;Nfloat;Nfluid
0.00726062;2975;1031;1031;0;0;1944

Pos.x;Pos.y;Pos.z;Idp;Vel.x;Vel.y;Vel.z;Rhop;Mass;Press;Type;Acec.x;Acec.y;Acec.z;CellOffSpring;GradVel;Qfxx;Qfxy;Qfxz;Qfyy;Qfyz;Qfzz;StrainDot.x;StrainDot.y;StrainDot.z;VonMises3D;
 -2.2000000E-01;  9.9999998E-03; -3.8000000E-01;0;  0.0000000E+00;  0.0000000E+00;  0.0000000E+00;  1.0000000E+03;  4.0000001E-01;  0.0000000E+00;0;  0.0000000E+00;  0.0000000E+00;  0.0000000E+00;0;  0.0000000E+00;  1.0000000E+04;  0.0000000E+00;  0.0000000E+00;  1.0000000E+04;  0.0000000E+00;  1.0000000E+04;  0.0000000E+00;  0.0000000E+00;  0.0000000E+00;  0.0000000E+00;
 -2.2000000E-01;  9.9999998E-03; -3.6000001E-01;1;  0.0000000E+00;  0.0000000E+00;  0.0000000E+00;  1.0000000E+03;  4.0000001E-01;  0.0000000E+00;0;  0.0000000E+00;  0.0000000E+00;  0.0000000E+00;0;  0.0000000E+00;  1.0000000E+04;  0.0000000E+00;  0.0000000E+00;  1.0000000E+04;  0.0000000E+00;  1.0000000E+04;  0.0000000E+00;  0.0000000E+00;  0.0000000E+00;  0.0000000E+00;
 -2.0000000E-01;  9.9999998E-03; -4.0000001E-01;39;  0.0000000E+00;  0.0000000E+00;  0.0000000E+00;  1.0000000E+03;  4.0000001E-01;  0.0000000E+00;0;  0.0000000E+00;  0.0000000E+00;  0.0000000E+00;0;  0.0000000E+00;  1.0000000E+04;  0.0000000E+00;  0.0000000E+00;  1.0000000E+04;  0.0000000E+00;  1.0000000E+04;  0.0000000E+00;  0.0000000E+00;  0.0000000E+00;  0.0000000E+00;
 -2.0000000E-01;  9.9999998E-03; -3.8000000E-01;40;  0.0000000E+00;  0.0000000E+00;  0.0000000E+00;  1.0000000E+03;  4.0000001E-01;  0.0000000E+00;0;  0.0000000E+00;  0.0000000E+00;  0.0000000E+00;0;  0.0000000E+00;  1.0000000E+04;  0.0000000E+00;  0.0000000E+00;  1.0000000E+04;  0.0000000E+00;  1.0000000E+04;  0.0000000E+00;  0.0000000E+00;  0.0000000E+00;  0.0000000E+00;
 -2.0000000E-01;  9.9999998E-03; -3.6000001E-01;41;  0.0000000E+00;  0.0000000E+00;  0.0000000E+00;  1.0000000E+03;  4.0000001E-01;  0.0000000E+00;0;  0.0000000E+00;  0.0000000E+00;  0.0000000E+00;0;  0.0000000E+00;  1.0000000E+04;  0.0000000E+00;  0.0000000E+00;  1.0000000E+04;  0.0000000E+00;  1.0000000E+04;  0.0000000E+00;  0.0000000E+00;  0.0000000E+00;  0.0000000E+00;
 -1.8000001E-01;  9.9999998E-03; -4.0000001E-01;80;  0.0000000E+00;  0.0000000E+00;  0.0000000E+00;  1.0000000E+03;  4.0000001E-01;  0.0000000E+00;0;  0.0000000E+00;  0.0000000E+00;  0.0000000E+00;0;  0.0000000E+00;  1.0000000E+04;  0.0000000E+00;  0.0000000E+00;  1.0000000E+04;  0.0000000E+00;  1.0000000E+04;  0.0000000E+00;  0.0000000E+00;  0.0000000E+00;  0.0000000E+00;
 -1.8000001E-01;  9.9999998E-03; -3.8000000E-01;81;  0.0000000E+00;  0.0000000E+00;  0.0000000E+00;  1.0000000E+03;  4.0000001E-01;  0.0000000E+00;0;  0.0000000E+00;  0.0000000E+00;  0.0000000E+00;0;  0.0000000E+00;  1.0000000E+04;  0.0000000E+00;  0.0000000E+00;  1.0000000E+04;  0.0000000E+00;  1.0000000E+04;  0.0000000E+00;  0.0000000E+00;  0.0000000E+00;  0.0000000E+00;
 -1.8000001E-01;  9.9999998E-03; -3.6000001E-01;82;  0.0000000E+00;  0.0000000E+00;  0.0000000E+00;  1.0000000E+03;  4.0000001E-01;  0.0000000E+00;0;  0.0000000E+00;  0.0000000E+00;  0.0000000E+00;0;  0.0000000E+00;  1.0000000E+04;  0.0000000E+00;  0.0000000E+00;  1.0000000E+04;  0.0000000E+00;  1.0000000E+04;  0.0000000E+00;  0.0000000E+00;  0.0000000E+00;  0.0000000E+00;
 -1.6000000E-01;  9.9999998E-03; -4.0000001E-01;121;  0.0000000E+00;  0.0000000E+00;  0.0000000E+00;  1.0000000E+03;  4.0000001E-01;  0.0000000E+00;0;  0.0000000E+00;  0.0000000E+00;  0.0000000E+00;0;  0.0000000E+00;  1.0000000E+04;  0.0000000E+00;  0.0000000E+00;  1.0000000E+04;  0.0000000E+00;  1.0000000E+04;  0.0000000E+00;  0.0000000E+00;  0.0000000E+00;  0.0000000E+00;
 -1.6000000E-01;  9.9999998E-03; -3.8000000E-01;122;  0.0000000E+00;  0.0000000E+00;  0.0000000E+00;  1.0000000E+03;  4.0000001E-01;  0.0000000E+00;0;  0.0000000E+00;  0.0000000E+00;  0.0000000E+00;0;  0.0000000E+00;  1.0000000E+04;  0.0000000E+00;  0.0000000E+00;  1.0000000E+04;  0.0000000E+00;  1.0000000E+04;  0.0000000E+00;  0.0000000E+00;  0.0000000E+00;  0.0000000E+00;
 -1.6000000E-01;  9.9999998E-03; -3.6000001E-01;123;  0.0000000E+00;  0.0000000E+00;  0.0000000E+00;  1.0000000E+03;  4.0000001E-01;  0.0000000E+00;0;  0.0000000E+00;  0.0000000E+00;  0.0000000E+00;0;  0.0000000E+00;  1.0000000E+04;  0.0000000E+00;  0.0000000E+00;  1.0000000E+04;  0.0000000E+00;  1.0000000E+04;  0.0000000E+00;  0.0000000E+00;  0.0000000E+00;  0.0000000E+00;
 -1.4000000E-01;  9.9999998E-03; -4.0000001E-01;162;  0.0000000E+00;  0.0000000E+00;  0.0000000E+00;  1.0000000E+03;  4.0000001E-01;  0.0000000E+00;0;  0.0000000E+00;  0.0000000E+00;  0.0000000E+00;0;  0.0000000E+00;  1.0000000E+04;  0.0000000E+00;  0.0000000E+00;  1.0000000E+04;  0.0000000E+00;  1.0000000E+04;  0.0000000E+00;  0.0000000E+00;  0.0000000E+00;  0.0000000E+00;
 -1.4000000E-01;  9.9999998E-03; -3.8000000E-01;163;  0.0000000E+00;  0.0000000E+00;  0.0000000E+00;  1.0000000E+03;  4.0000001E-01;  0.0000000E+00;0;  0.0000000E+00;  0.0000000E+00;  0.0000000E+00;0;  0.0000000E+00;  1.0000000E+04;  0.0000000E+00;  0.0000000E+00;  1.0000000E+04;  0.0000000E+00;  1.0000000E+04;  0.0000000E+00;  0.0000000E+00;  0.0000000E+00;  0.0000000E+00;
 -1.4000000E-01;  9.9999998E-03; -3.6000001E-01;164;  0.0000000E+00;  0.0000000E+00;  0.0000000E+00;  1.0000000E+03;  4.0000001E-01;  0.0000000E+00;0;  0.0000000E+00;  0.0000000E+00;  0.0000000E+00;0; -8.8372059E-07;  1.0000000E+04;  0.0000000E+00;  0.0000000E+00;  1.0000000E+04;  0.0000000E+00;  1.0000000E+04; -6.9617698E-07;  0.0000000E+00; -1.8754359E-07;  2.3859802E-03;
 -1.2000000E-01;  9.9999998E-03; -4.0000001E-01;203;  0.0000000E+00;  0.0000000E+00;  0.0000000E+00;  1.0000000E+03;  4.0000001E-01;  0.0000000E+00;0;  0.0000000E+00;  0.0000000E+00;  0.0000000E+00;0; -9.2714233E-18;  1.0000000E+04;  0.0000000E+00;  0.0000000E+00;  1.0000000E+04;  0.0000000E+00;  1.0000000E+04; -6.5142769E-18;  0.0000000E+00; -2.7571466E-18;  8.5864501E-15;
 -1.2000000E-01;  9.9999998E-03; -3.8000000E-01;204;  0.0000000E+00;  0.0000000E+00;  0.0000000E+00;  1.0000000E+03;  4.0000001E-01;  0.0000000E+00;0;  0.0000000E+00;  0.0000000E+00;  0.0000000E+00;0; -4.6434889E-06;  1.0000000E+04;  0.0000000E+00;  0.0000000E+00;  1.0000000E+04;  0.0000000E+00;  1.0000000E+04; -3.2764460E-06;  0.0000000E+00; -1.3670431E-06;  1.7586581E-02;
 -1.2000000E-01;  9.9999998E-03; -3.6000001E-01;205;  0.0000000E+00;  0.0000000E+00;  0.0000000E+00;  1.0000000E+03;  4.0000001E-01;  0.0000000E+00;0;  0.0000000E+00;  0.0000000E+00;  0.0000000E+00;0; -3.1312342E-05;  1.0000000E+04;  0.0000000E+00;  0.0000000E+00;  1.0000000E+04;  0.0000000E+00;  1.0000000E+04; -2.3602073E-05;  0.0000000E+00; -7.7102686E-06;  9.8646112E-02;
 -1.0000000E-01;  9.9999998E-03; -4.0000001E-01;244;  0.0000000E+00;  0.0000000E+00;  0.0000000E+00;  1.0000000E+03;  4.0000001E-01;  0.0000000E+00;0;  0.0000000E+00;  0.0000000E+00;  0.0000000E+00;0; -8.4808107E-06;  1.0000000E+04;  0.0000000E+00;  0.0000000E+00;  1.0000000E+04;  0.0000000E+00;  1.0000000E+04; -5.6003510E-06;  0.0000000E+00; -2.8804602E-06;  3.7312444E-02;
 -1.0000000E-01;  9.9999998E-03; -3.8000000E-01;245;  0.0000000E+00;  0.0000000E+00;  0.0000000E+00;  1.0000000E+03;  4.0000001E-01;  0.0000000E+00;0;  0.0000000E+00;  0.0000000E+00;  0.0000000E+00;0; -6.1700543E-05;  1.0000000E+04;  0.0000000E+00;  0.0000000E+00;  1.0000000E+04;  0.0000000E+00;  1.0000000E+04; -4.1275085E-05;  0.0000000E+00; -2.0425459E-05;  2.6434055E-01;
 -1.0000000E-01;  9.9999998E-03; -3.6000001E-01;246;  0.0000000E+00;  0.0000000E+00;  0.0000000E+00;  1.0000002E+03;  4.0000001E-01;  1.9752525E-01;0;  0.0000000E+00;  0.0000000E+00;  0.0000000E+00;0; -1.9421830E-04;  1.0000000E+04;  0.0000000E+00;  0.0000000E+00;  1.0000000E+04;  0.0000000E+00;  1.0000000E+04; -1.4087031E-04;  0.0000000E+00; -5.3347991E-05;  6.8760401E-01;
 -7.9999998E-02;  9.9999998E-03; -4.0000001E-01;285;  0.0000000E+00;  0.0000000E+00;  0.0000000E+00;  1.0000000E+03;  4.0000001E-01;  0.0000000E+00;0;  0.0000000E+00;  0.0000000E+00;  0.0000000E+00;0; -7.1222959E-05;  1.0000000E+04;  0.0000000E+00;  0.0000000E+00;  1.0000000E+04;  0.0000000E+00;  1.0000000E+04; -4.4457305E-05;  0.0000000E+00; -2.6765652E-05;  3.4872872E-01;
 -7.9999998E-02;  9.9999998E-03; -3.8000000E-01;286;  0.0000000E+00;  0.0000000E+00;  0.0000000E+00;  1.0000004E+03;  4.0000001E-01;  2.9628786E-01;0;  0.0000000E+00;  0.0000000E+00;  0.0000000E+00;0; -2.7029062E-04;  1.0000000E+04;  0.0000000E+00;  0.0000000E+00;  1.0000000E+04;  0.0000000E+00;  1.0000000E+04; -1.7294601E-04;  0.0000000E+00; -9.7344622E-05;  1.2686222E+00;
 -7.9999998E-02;  9.9999998E-03; -3.6000001E-01;287;  0.0000000E+00;  0.0000000E+00;  0.0000000E+00;  1.0000009E+03;  4.0000001E-01;  6.9133836E-01;0;  0.0000000E+00;  0.0000000E+00;  0.0000000E+00;0; -6.4925011E-04;  1.0000000E+04;  0.0000000E+00;  0.0000000E+00;  1.0000000E+04;  0.0000000E+00;  1.0000000E+04; -4.5530373E-04;  0.0000000E+00; -1.9394640E-04;  2.5174539E+00;
 -5.9999999E-02;  9.9999998E-03; -4.0000001E-01;326;  0.0000000E+00;  0.0000000E+00;  0.0000000E+00;  1.0000003E+03;  4.0000001E-01;  2.9628786E-01;0;  0.0000000E+00;  0.0000000E+00;  0.0000000E+00;0; -2.5289916E-04;  1.0000000E+04;  0.0000000E+00;  0.0000000E+00;  1.0000000E+04;  0.0000000E+00;  1.0000000E+04; -1.4997696E-04;  0.0000000E+00; -1.0292221E-04;  1.3508996E+00;
 -5.9999999E-02;  9.9999998E-03; -3.8000000E-01;327;  0.0000000E+00;  0.0000000E+00;  0.0000000E+00;  1.0000010E+03;  4.0000001E-01;  8.8886362E-01;0;  0.0000000E+00;  0.0000000E+00;  0.0000000E+00;0; -7.3830341E-04;  1.0000000E+04;  0.0000000E+00;  0.0000000E+00;  1.0000000E+04;  0.0000000E+00;  1.0000000E+04; -4.5235647E-04;  0.0000000E+00; -2.8594697E-04;  3.7566421E+00;
 -5.9999999E-02;  9.9999998E-03; -3.6000001E-01;328;  0.0000000E+00;  0.0000000E+00;  0.0000000E+00;  1.0000023E+03;  4.0000001E-01;  1.8764899E+00;0;  0.0000000E+00;  0.0000000E+00;  0.0000000E+00;0; -1.5509247E-03;  1.0000000E+04;  0.0000000E+00;  0.0000000E+00;  1.0000000E+04;  0.0000000E+00;  1.0000000E+04; -1.0516408E-03;  0.0000000E+00; -4.9928389E-04;  6.5378952E+00;
 -3.9999999E-02;  9.9999998E-03; -4.0000001E-01;367;  0.0000000E+00;  0.0000000E+00;  0.0000000E+00;  1.0000009E+03;  4.0000001E-01;  6.9133836E-01;0;  0.0000000E+00;  0.0000000E+00;  0.0000000E+00;0; -5.9518137E-04;  1.0000000E+04;  0.0000000E+00;  0.0000000E+00;  1.0000000E+04;  0.0000000E+00;  1.0000000E+04; -3.3423581E-04;  0.0000000E+00; -2.6094556E-04;  3.4563117E+00;
 -3.9999999E-02;  9.9999998E-03; -3.8000000E-01;368;  0.0000000E+00;  0.0000000E+00;  0.0000000E+00;  1.0000022E+03;  4.0000001E-01;  1.7777272E+00;0;  0.0000000E+00;  0.0000000E+00;  0.0000000E+00;0; -1.5209297E-03;  1.0000000E+04;  0.0000000E+00;  0.0000000E+00;  1.0000000E+04;  0.0000000E+00;  1.0000000E+04; -8.8928634E-04;  0.0000000E+00; -6.3164340E-04;  8.3793116E+00;
 -3.9999999E-02;  9.9999998E-03; -3.6000001E-01;369;  0.0000000E+00;  0.0000000E+00;  0.0000000E+00;  1.0000045E+03;  4.0000001E-01;  3.6542170E+00;0;  0.0000000E+00;  0.0000000E+00;  0.0000000E+00;0; -2.9610461E-03;  1.0000000E+04;  0.0000000E+00;  0.0000000E+00;  1.0000000E+04;  0.0000000E+00;  1.0000000E+04; -1.9349932E-03;  0.0000000E+00; -1.0260527E-03;  1.3576193E+01;
 -2.0000000E-02;  9.9999998E-03; -4.0000001E-01;408;  0.0000000E+00;  0.0000000E+00;  0.0000000E+00;  1.0000015E+03;  4.0000001E-01;  1.2839141E+00;0;  0.0000000E+00;  0.0000000E+00;  0.0000000E+00;0; -1.0865282E-03;  1.0000000E+04;  0.0000000E+00;  0.0000000E+00;  1.0000000E+04;  0.0000000E+00;  1.0000000E+04; -5.7489378E-04;  0.0000000E+00; -5.1163434E-04;  6.8541083E+00;
 -2.0000000E-02;  9.9999998E-03; -3.8000000E-01;409;  0.0000000E+00;  0.0000000E+00;  0.0000000E+00;  1.0000039E+03;  4.0000001E-01;  3.2591665E+00;0;  0.0000000E+00;  0.0000000E+00;  0.0000000E+00;0; -2.5800825E-03;  1.0000000E+04;  0.0000000E+00;  0.0000000E+00;  1.0000000E+04;  0.0000000E+00;  1.0000000E+04; -1.4342018E-03;  0.0000000E+00; -1.1458808E-03;  1.5383693E+01;
 -2.0000000E-02;  9.9999998E-03; -3.6000001E-01;410;  0.0000000E+00;  0.0000000E+00;  0.0000000E+00;  1.0000072E+03;  4.0000001E-01;  5.9257574E+00;0;  0.0000000E+00;  0.0000000E+00;  0.0000000E+00;0; -4.7986740E-03;  1.0000000E+04;  0.0000000E+00;  0.0000000E+00;  1.0000000E+04;  0.0000000E+00;  1.0000000E+04; -3.0126674E-03;  0.0000000E+00; -1.7860065E-03;  2.3929487E+01;
  0.0000000E+00;  9.9999998E-03; -4.0000001E-01;449;  0.0000000E+00;  0.0000000E+00;  0.0000000E+00;  1.0000025E+03;  4.0000001E-01;  2.0740151E+00;0;  0.0000000E+00;  0.0000000E+00;  0.0000000E+00;0; -1.6627752E-03;  1.0000000E+04;  0.0000000E+00;  0.0000000E+00;  1.0000000E+04;  0.0000000E+00;  1.0000000E+04; -8.2677428E-04;  0.0000000E+00; -8.3600084E-04;  1.1361248E+01;
  0.0000000E+00;  9.9999998E-03; -3.8000000E-01;450;  0.0000000E+00;  0.0000000E+00;  0.0000000E+00;  1.0000057E+03;  4.0000001E-01;  4.7406058E+00;0;  0.0000000E+00;  0.0000000E+00;  0.0000000E+00;0; -3.7905048E-03;  1.0000000E+04;  0.0000000E+00;  0.0000000E+00;  1.0000000E+04;  0.0000000E+00;  1.0000000E+04; -2.0014232E-03;  0.0000000E+00; -1.7890816E-03;  2.4379444E+01;
  0.0000000E+00;  9.9999998E-03; -3.6000001E-01;451;  0.0000000E+00;  0.0000000E+00;  0.0000000E+00;  1.0000105E+03;  4.0000001E-01;  8.6911106E+00;0;  0.0000000E+00;  0.0000000E+00;  0.0000000E+00;0; -6.8528051E-03;  1.0000000E+04;  0.0000000E+00;  0.0000000E+00;  1.0000000E+04;  0.0000000E+00;  1.0000000E+04; -4.1314992E-03;  0.0000000E+00; -2.7213059E-03;  3.7027279E+01;
  2.0000000E-02;  9.9999998E-03; -4.0000001E-01;461;  0.0000000E+00;  0.0000000E+00;  0.0000000E+00;  1.0000034E+03;  4.0000001E-01;  2.7653534E+00;0;  0.0000000E+00;  0.0000000E+00;  0.0000000E+00;0; -2.2398797E-03;  1.0000000E+04;  0.0000000E+00;  0.0000000E+00;  1.0000000E+04;  0.0000000E+00;  1.0000000E+04; -1.0506515E-03;  0.0000000E+00; -1.1892283E-03;  1.6459955E+01;
  2.0000000E-02;  9.9999998E-03; -3.8000000E-01;462;  0.0000000E+00;  0.0000000E+00;  0.0000000E+00;  1.0000078E+03;  4.0000001E-01;  6.4195704E+00;0;  0.0000000E+00;  0.0000000E+00;  0.0000000E+00;0; -4.9975086E-03;  1.0000000E+04;  0.0000000E+00;  0.0000000E+00;  1.0000000E+04;  0.0000000E+00;  1.0000000E+04; -2.5202150E-03;  0.0000000E+00; -2.4772936E-03;  3.4399654E+01;
  2.0000000E-02;  9.9999998E-03; -3.6000001E-01;463;  0.0000000E+00;  0.0000000E+00;  0.0000000E+00;  1.0000137E+03;  4.0000001E-01;  1.1357701E+01;0;  0.0000000E+00;  0.0000000E+00;  0.0000000E+00;0; -8.8760704E-03;  1.0000000E+04;  0.0000000E+00;  0.0000000E+00;  1.0000000E+04;  0.0000000E+00;  1.0000000E+04; -5.1667523E-03;  0.0000000E+00; -3.7093179E-03;  5.1455765E+01;
  3.9999999E-02;  9.9999998E-03; -4.0000001E-01;471;  0.0000000E+00;  0.0000000E+00;  0.0000000E+00;  1.0000043E+03;  4.0000001E-01;  3.5554545E+00;0;  0.0000000E+00;  0.0000000E+00;  0.0000000E+00;0; -2.7599777E-03;  1.0000000E+04;  0.0000000E+00;  0.0000000E+00;  1.0000000E+04;  0.0000000E+00;  1.0000000E+04; -1.2392291E-03;  0.0000000E+00; -1.5207486E-03;  2.1543930E+01;
  3.9999999E-02;  9.9999998E-03; -3.8000000E-01;472;  0.0000000E+00;  0.0000000E+00;  0.0000000E+00;  1.0000096E+03;  4.0000001E-01;  7.9010100E+00;0;  0.0000000E+00;  0.0000000E+00;  0.0000000E+00;0; -6.0991333E-03;  1.0000000E+04;  0.0000000E+00;  0.0000000E+00;  1.0000000E+04;  0.0000000E+00;  1.0000000E+04; -2.9815044E-03;  0.0000000E+00; -3.1176289E-03;  4.4335835E+01;
  3.9999999E-02;  9.9999998E-03; -3.6000001E-01;473;  0.0000000E+00;  0.0000000E+00;  0.0000000E+00;  1.0000170E+03;  4.0000001E-01;  1.4123055E+01;0;  0.0000000E+00;  0.0000000E+00;  0.0000000E+00;0; -1.0722142E-02;  1.0000000E+04;  0.0000000E+00;  0.0000000E+00;  1.0000000E+04;  0.0000000E+00;  1.0000000E+04; -6.1086458E-03;  0.0000000E+00; -4.6134964E-03;  6.5580437E+01;
  5.9999999E-02;  9.9999998E-03; -4.0000001E-01;481;  0.0000000E+00;  0.0000000E+00;  0.0000000E+00;  1.0000052E+03;  4.0000001E-01;  4.3455553E+00;0;  0.0000000E+00;  0.0000000E+00;  0.0000000E+00;0; -3.2241126E-03;  1.0000000E+04;  0.0000000E+00;  0.0000000E+00;  1.0000000E+04;  0.0000000E+00;  1.0000000E+04; -1.4254890E-03;  0.0000000E+00; -1.7986237E-03;  2.6229506E+01;
  5.9999999E-02;  9.9999998E-03; -3.8000000E-01;482;  0.0000000E+00;  0.0000000E+00;  0.0000000E+00;  1.0000115E+03;  4.0000001E-01;  9.4812117E+00;0;  0.0000000E+00;  0.0000000E+00;  0.0000000E+00;0; -7.1039367E-03;  1.0000000E+04;  0.0000000E+00;  0.0000000E+00;  1.0000000E+04;  0.0000000E+00;  1.0000000E+04; -3.4520500E-03;  0.0000000E+00; -3.6518867E-03;  5.3499714E+01;
  5.9999999E-02;  9.9999998E-03; -3.6000001E-01;483;  0.0000000E+00;  0.0000000E+00;  0.0000000E+00;  1.0000201E+03;  4.0000001E-01;  1.6690884E+01;0;  0.0000000E+00;  0.0000000E+00;  0.0000000E+00;0; -1.2431633E-02;  1.0000000E+04;  0.0000000E+00;  0.0000000E+00;  1.0000000E+04;  0.0000000E+00;  1.0000000E+04; -7.0795515E-03;  0.0000000E+00; -5.3520813E-03;  7.8435150E+01;
  7.9999998E-02;  9.9999998E-03; -4.0000001E-01;491;  0.0000000E+00;  0.0000000E+00;  0.0000000E+00;  1.0000061E+03;  4.0000001E-01;  5.0368938E+00;0;  0.0000000E+00;  0.0000000E+00;  0.0000000E+00;0; -3.6993069E-03;  1.0000000E+04;  0.0000000E+00;  0.0000000E+00;  1.0000000E+04;  0.0000000E+00;  1.0000000E+04; -1.6777155E-03;  0.0000000E+00; -2.0215914E-03;  3.0548161E+01;
  7.9999998E-02;  9.9999998E-03; -3.8000000E-01;492;  0.0000000E+00;  0.0000000E+00;  0.0000000E+00;  1.0000135E+03;  4.0000001E-01;  1.1258939E+01;0;  0.0000000E+00;  0.0000000E+00;  0.0000000E+00;0; -8.1534926E-03;  1.0000000E+04;  0.0000000E+00;  0.0000000E+00;  1.0000000E+04;  0.0000000E+00;  1.0000000E+04; -4.0756813E-03;  0.0000000E+00; -4.0778113E-03;  6.1928665E+01;
  7.9999998E-02;  9.9999998E-03; -3.6000001E-01;493;  0.0000000E+00;  0.0000000E+00;  0.0000000E+00;  1.0000239E+03;  4.0000001E-01;  1.9752525E+01;0;  0.0000000E+00;  0.0000000E+00;  0.0000000E+00;0; -1.4271178E-02;  1.0000000E+04;  0.0000000E+00;  0.0000000E+00;  1.0000000E+04;  0.0000000E+00;  1.0000000E+04; -8.3415993E-03;  0.0000000E+00; -5.9295790E-03;  9.0342102E+01;
  1.0000000E-01;  9.9999998E-03; -4.0000001E-01;501;  0.0000000E+00;  0.0000000E+00;  0.0000000E+00;  1.0000076E+03;  4.0000001E-01;  6.2220454E+00;0;  0.0000000E+00;  0.0000000E+00;  0.0000000E+00;0; -4.3149125E-03;  1.0000000E+04;  0.0000000E+00;  0.0000000E+00;  1.0000000E+04;  0.0000000E+00;  1.0000000E+04; -2.0975703E-03;  0.0000000E+00; -2.2173419E-03;  3.6672886E+01;
  1.0000000E-01;  9.9999998E-03; -3.8000000E-01;502;  0.0000000E+00;  0.0000000E+00;  0.0000000E+00;  1.0000164E+03;  4.0000001E-01;  1.3530479E+01;0;  0.0000000E+00;  0.0000000E+00;  0.0000000E+00;0; -9.5189353E-03;  1.0000000E+04;  0.0000000E+00;  0.0000000E+00;  1.0000000E+04;  0.0000000E+00;  1.0000000E+04; -5.0694323E-03;  0.0000000E+00; -4.4495030E-03;  7.0473770E+01;
  1.0000000E-01;  9.9999998E-03; -3.6000001E-01;503;  0.0000000E+00;  0.0000000E+00;  0.0000000E+00;  1.0000287E+03;  4.0000001E-01;  2.3801792E+01;0;  0.0000000E+00;  0.0000000E+00;  0.0000000E+00;0; -1.6719580E-02;  1.0000000E+04;  0.0000000E+00;  0.0000000E+00;  1.0000000E+04;  0.0000000E+00;  1.0000000E+04; -1.0284591E-02;  0.0000000E+00; -6.4349873E-03;  1.0398637E+02;
  1.2000000E-01;  9.9999998E-03; -4.0000001E-01;511;  0.0000000E+00;  0.0000000E+00;  0.0000000E+00;  1.0000094E+03;  4.0000001E-01;  7.8022475E+00;0;  0.0000000E+00;  0.0000000E+00;  0.0000000E+00;0; -5.2696341E-03;  1.0000000E+04;  0.0000000E+00;  0.0000000E+00;  1.0000000E+04;  0.0000000E+00;  1.0000000E+04; -2.8252234E-03;  0.0000000E+00; -2.4444107E-03;  6.7475883E+01;
  1.2000000E-01;  9.9999998E-03; -3.8000000E-01;512;  0.0000000E+00;  0.0000000E+00;  0.0000000E+00;  1.0000206E+03;  4.0000001E-01;  1.7085934E+01;0;  0.0000000E+00;  0.0000000E+00;  0.0000000E+00;0; -1.1609890E-02;  1.0000000E+04;  0.0000000E+00;  0.0000000E+00;  1.0000000E+04;  0.0000000E+00;  1.0000000E+04; -6.7204670E-03;  0.0000000E+00; -4.8894226E-03;  8.8123657E+01;
  1.2000000E-01;  9.9999998E-03; -3.6000001E-01;513;  0.0000000E+00;  0.0000000E+00;  0.0000000E+00;  1.0000362E+03;  4.0000001E-01;  3.0023838E+01;0;  0.0000000E+00;  0.0000000E+00;  0.0000000E+00;0; -2.0462789E-02;  1.0000000E+04;  0.0000000E+00;  0.0000000E+00;  1.0000000E+04;  0.0000000E+00;  1.0000000E+04; -1.3406393E-02;  0.0000000E+00; -7.0563965E-03;  1.2677867E+02;
  1.4000000E-01;  9.9999998E-03; -4.0000001E-01;521;  0.0000000E+00;  0.0000000E+00;  0.0000000E+00;  1.0000125E+03;  4.0000001E-01;  1.0370075E+01;0;  0.0000000E+00;  0.0000000E+00;  0.0000000E+00;0; -6.8978174E-03;  1.0000000E+04;  0.0000000E+00;  0.0000000E+00;  1.0000000E+04;  0.0000000E+00;  1.0000000E+04; -4.0624877E-03;  0.0000000E+00; -2.8353299E-03;  1.9497234E+02;
  1.4000000E-01;  9.9999998E-03; -3.8000000E-01;522;  0.0000000E+00;  0.0000000E+00;  0.0000000E+00;  1.0000275E+03;  4.0000001E-01;  2.2814167E+01;0;  0.0000000E+00;  0.0000000E+00;  0.0000000E+00;0; -1.5040930E-02;  1.0000000E+04;  0.0000000E+00;  0.0000000E+00;  1.0000000E+04;  0.0000000E+00;  1.0000000E+04; -9.4027482E-03;  0.0000000E+00; -5.6381822E-03;  1.7502975E+02;
  1.4000000E-01;  9.9999998E-03; -3.6000001E-01;523;  0.0000000E+00;  0.0000000E+00;  0.0000000E+00;  1.0000483E+03;  4.0000001E-01;  3.9998863E+01;0;  0.0000000E+00;  0.0000000E+00;  0.0000000E+00;0; -2.6429888E-02;  1.0000000E+04;  0.0000000E+00;  0.0000000E+00;  1.0000000E+04;  0.0000000E+00;  1.0000000E+04; -1.8306492E-02;  0.0000000E+00; -8.1233950E-03;  1.7044612E+02;
  1.6000000E-01;  9.9999998E-03; -4.0000001E-01;531;  0.0000000E+00;  0.0000000E+00;  0.0000000E+00;  1.0000182E+03;  4.0000001E-01;  1.5110682E+01;0;  0.0000000E+00;  0.0000000E+00;  0.0000000E+00;0; -9.7515387E-03;  1.0000000E+04;  0.0000000E+00;  0.0000000E+00;  1.0000000E+04;  0.0000000E+00;  1.0000000E+04; -6.0586082E-03;  0.0000000E+00; -3.6929303E-03;  5.5077374E+02;
  1.6000000E-01;  9.9999998E-03; -3.8000000E-01;532;  0.0000000E+00;  0.0000000E+00;  0.0000000E+00;  1.0000386E+03;  4.0000001E-01;  3.1999090E+01;0;  0.0000000E+00;  0.0000000E+00;  0.0000000E+00;0; -2.0577561E-02;  1.0000000E+04;  0.0000000E+00;  0.0000000E+00;  1.0000000E+04;  0.0000000E+00;  1.0000000E+04; -1.3439965E-02;  0.0000000E+00; -7.1375971E-03;  4.6096704E+02;
  1.6000000E-01;  9.9999998E-03; -3.6000001E-01;533;  0.0000000E+00;  0.0000000E+00;  0.0000000E+00;  1.0000666E+03;  4.0000001E-01;  5.5208305E+01;0;  0.0000000E+00;  0.0000000E+00;  0.0000000E+00;0; -3.5566445E-02;  1.0000000E+04;  0.0000000E+00;  0.0000000E+00;  1.0000000E+04;  0.0000000E+00;  1.0000000E+04; -2.5394574E-02;  0.0000000E+00; -1.0171873E-02;  2.3673233E+02;
  1.8000001E-01;  9.9999998E-03; -4.0000001E-01;541;  0.0000000E+00;  0.0000000E+00;  0.0000000E+00;  1.0000279E+03;  4.0000001E-01;  2.3110455E+01;0;  0.0000000E+00;  0.0000000E+00;  0.0000000E+00;0; -1.4588585E-02;  1.0000000E+04;  0.0000000E+00;  0.0000000E+00;  1.0000000E+04;  0.0000000E+00;  1.0000000E+04; -8.9173475E-03;  0.0000000E+00; -5.6712381E-03;  1.3466656E+03;
  1.8000001E-01;  9.9999998E-03; -3.8000000E-01;542;  0.0000000E+00;  0.0000000E+00;  0.0000000E+00;  1.0000553E+03;  4.0000001E-01;  4.5825859E+01;0;  0.0000000E+00;  0.0000000E+00;  0.0000000E+00;0; -2.8740142E-02;  1.0000000E+04;  0.0000000E+00;  0.0000000E+00;  1.0000000E+04;  0.0000000E+00;  1.0000000E+04; -1.8586144E-02;  0.0000000E+00; -1.0153998E-02;  1.0907864E+03;
  1.8000001E-01;  9.9999998E-03; -3.6000001E-01;543;  0.0000000E+00;  0.0000000E+00;  0.0000000E+00;  1.0000922E+03;  4.0000001E-01;  7.6343506E+01;0;  0.0000000E+00;  0.0000000E+00;  0.0000000E+00;0; -4.8062071E-02;  1.0000000E+04;  0.0000000E+00;  0.0000000E+00;  1.0000000E+04;  0.0000000E+00;  1.0000000E+04; -3.4034062E-02;  0.0000000E+00; -1.4028008E-02;  2.9962997E+02;
  2.0000000E-01;  9.9999998E-03; -3.8000000E-01;551;  0.0000000E+00;  0.0000000E+00;  0.0000000E+00;  1.0000784E+03;  4.0000001E-01;  6.4985809E+01;0;  0.0000000E+00;  0.0000000E+00;  0.0000000E+00;0; -3.9734777E-02;  1.0000000E+04;  0.0000000E+00;  0.0000000E+00;  1.0000000E+04;  0.0000000E+00;  1.0000000E+04; -2.3864495E-02;  0.0000000E+00; -1.5870282E-02;  2.1007637E+03;
  2.0000000E-01;  9.9999998E-03; -3.6000001E-01;552;  0.0000000E+00;  0.0000000E+00;  0.0000000E+00;  1.0001245E+03;  4.0000001E-01;  1.0310818E+02;0;  0.0000000E+00;  0.0000000E+00;  0.0000000E+00;0; -6.3319229E-02;  1.0000000E+04;  0.0000000E+00;  0.0000000E+00;  1.0000000E+04;  0.0000000E+00;  1.0000000E+04; -4.2479951E-02;  0.0000000E+00; -2.0839276E-02;  3.9081805E+02;
 -2.2000000E-01;  9.9999998E-03; -3.4000000E-01;2;  0.0000000E+00;  0.0000000E+00;  0.0000000E+00;  1.0000000E+03;  4.0000001E-01;  0.0000000E+00;0;  0.0000000E+00;  0.0000000E+00;  0.0000000E+00;0;  0.0000000E+00;  1.0000000E+04;  0.0000000E+00;  0.0000000E+00;  1.0000000E+04;  0.0000000E+00;  1.0000000E+04;  0.0000000E+00;  0.0000000E+00;  0.0000000E+00;  0.0000000E+00;
 -2.2000000E-01;  9.9999998E-03; -3.1999999E-01;3;  0.0000000E+00;  0.0000000E+00;  0.0000000E+00;  1.0000000E+03;  4.0000001E-01;  0.0000000E+00;0;  0.0000000E+00;  0.0000000E+00;  0.0000000E+00;0;  0.0000000E+00;  1.0000000E+04;  0.0000000E+00;  0.0000000E+00;  1.0000000E+04;  0.0000000E+00;  1.0000000E+04;  0.0000000E+00;  0.0000000E+00;  0.0000000E+00;  0.0000000E+00;
 -2.2000000E-01;  9.9999998E-03; -3.0000001E-01;4;  0.0000000E+00;  0.0000000E+00;  0.0000000E+00;  1.0000000E+03;  4.0000001E-01;  0.0000000E+00;0;  0.0000000E+00;  0.0000000E+00;  0.0000000E+00;0;  0.0000000E+00;  1.0000000E+04;  0.0000000E+00;  0.0000000E+00;  1.0000000E+04;  0.0000000E+00;  1.0000000E+04;  0.0000000E+00;  0.0000000E+00;  0.0000000E+00;  0.0000000E+00;
 -2.2000000E-01;  9.9999998E-03; -2.8000000E-01;5;  0.0000000E+00;  0.0000000E+00;  0.0000000E+00;  1.0000000E+03;  4.0000001E-01;  0.0000000E+00;0;  0.0000000E+00;  0.0000000E+00;  0.0000000E+00;0;  0.0000000E+00;  1.0000000E+04;  0.0000000E+00;  0.0000000E+00;  1.0000000E+04;  0.0000000E+00;  1.0000000E+04;  0.0000000E+00;  0.0000000E+00;  0.0000000E+00;  0.0000000E+00;
 -2.2000000E-01;  9.9999998E-03; -2.5999999E-01;6;  0.0000000E+00;  0.0000000E+00;  0.0000000E+00;  1.0000000E+03;  4.0000001E-01;  0.0000000E+00;0;  0.0000000E+00;  0.0000000E+00;  0.0000000E+00;0;  0.0000000E+00;  1.0000000E+04;  0.0000000E+00;  0.0000000E+00;  1.0000000E+04;  0.0000000E+00;  1.0000000E+04;  0.0000000E+00;  0.0000000E+00;  0.0000000E+00;  0.0000000E+00;
 -2.2000000E-01;  9.9999998E-03; -2.3999999E-01;7;  0.0000000E+00;  0.0000000E+00;  0.0000000E+00;  1.0000000E+03;  4.0000001E-01;  0.0000000E+00;0;  0.0000000E+00;  0.0000000E+00;  0.0000000E+00;0;  0.0000000E+00;  1.0000000E+04;  0.0000000E+00;  0.0000000E+00;  1.0000000E+04;  0.0000000E+00;  1.0000000E+04;  0.0000000E+00;  0.0000000E+00;  0.0000000E+00;  0.0000000E+00;
 -2.2000000E-01;  9.9999998E-03; -2.2000000E-01;8;  0.0000000E+00;  0.0000000E+00;  0.0000000E+00;  1.0000000E+03;  4.0000001E-01;  0.0000000E+00;0;  0.0000000E+00;  0.0000000E+00;  0.0000000E+00;0;  0.0000000E+00;  1.0000000E+04;  0.0000000E+00;  0.0000000E+00;  1.0000000E+04;  0.0000000E+00;  1.0000000E+04;  0.0000000E+00;  0.0000000E+00;  0.0000000E+00;  0.0000000E+00;
 -2.2000000E-01;  9.9999998E-03; -2.0000000E-01;9;  0.0000000E+00;  0.0000000E+00;  0.0000000E+00;  1.0000000E+03;  4.0000001E-01;  0.0000000E+00;0;  0.0000000E+00;  0.0000000E+00;  0.0000000E+00;0;  0.0000000E+00;  1.0000000E+04;  0.0000000E+00;  0.0000000E+00;  1.0000000E+04;  0.0000000E+00;  1.0000000E+04;  0.0000000E+00;  0.0000000E+00;  0.0000000E+00;  0.0000000E+00;
 -2.0000000E-01;  9.9999998E-03; -3.4000000E-01;42;  0.0000000E+00;  0.0000000E+00;  0.0000000E+00;  1.0000000E+03;  4.0000001E-01;  0.0000000E+00;0;  0.0000000E+00;  0.0000000E+00;  0.0000000E+00;0;  0.0000000E+00;  1.0000000E+04;  0.0000000E+00;  0.0000000E+00;  1.0000000E+04;  0.0000000E+00;  1.0000000E+04;  0.0000000E+00;  0.0000000E+00;  0.0000000E+00;  0.0000000E+00;
 -2.0000000E-01;  9.9999998E-03; -3.1999999E-01;43;  0.0000000E+00;  0.0000000E+00;  0.0000000E+00;  1.0000000E+03;  4.0000001E-01;  0.0000000E+00;0;  0.0000000E+00;  0.0000000E+00;  0.0000000E+00;0;  0.0000000E+00;  1.0000000E+04;  0.0000000E+00;  0.0000000E+00;  1.0000000E+04;  0.0000000E+00;  1.0000000E+04;  0.0000000E+00;  0.0000000E+00;  0.0000000E+00;  0.0000000E+00;
 -2.0000000E-01;  9.9999998E-03; -3.0000001E-01;44;  0.0000000E+00;  0.0000000E+00;  0.0000000E+00;  1.0000000E+03;  4.0000001E-01;  0.0000000E+00;0;  0.0000000E+00;  0.0000000E+00;  0.0000000E+00;0;  0.0000000E+00;  1.0000000E+04;  0.0000000E+00;  0.0000000E+00;  1.0000000E+04;  0.0000000E+00;  1.0000000E+04;  0.0000000E+00;  0.0000000E+00;  0.0000000E+00;  0.0000000E+00;
 -2.0000000E-01;  9.9999998E-03; -2.8000000E-01;45;  0.0000000E+00;  0.0000000E+00;  0.0000000E+00;  1.0000000E+03;  4.0000001E-01;  0.0000000E+00;0;  0.0000000E+00;  0.0000000E+00;  0.0000000E+00;0;  0.0000000E+00;  1.0000000E+04;  0.0000000E+00;  0.0000000E+00;  1.0000000E+04;  0.0000000E+00;  1.0000000E+04;  0.0000000E+00;  0.0000000E+00;  0.0000000E+00;  0.0000000E+00;
 -2.0000000E-01;  9.9999998E-03; -2.5999999E-01;46;  0.0000000E+00;  0.0000000E+00;  0.0000000E+00;  1.0000000E+03;  4.0000001E-01;  0.0000000E+00;0;  0.0000000E+00;  0.0000000E+00;  0.0000000E+00;0;  0.0000000E+00;  1.0000000E+04;  0.0000000E+00;  0.0000000E+00;  1.0000000E+04;  0.0000000E+00;  1.0000000E+04;  0.0000000E+00;  0.0000000E+00;  0.0000000E+00;  0.0000000E+00;
 -2.0000000E-01;  9.9999998E-03; -2.3999999E-01;47;  0.0000000E+00;  0.0000000E+00;  0.0000000E+00;  1.0000000E+03;  4.0000001E-01;  0.0000000E+00;0;  0.0000000E+00;  0.0000000E+00;  0.0000000E+00;0;  0.0000000E+00;  1.0000000E+04;  0.0000000E+00;  0.0000000E+00;  1.0000000E+04;  0.0000000E+00;  1.0000000E+04;  0.0000000E+00;  0.0000000E+00;  0.0000000E+00;  0.0000000E+00;
 -2.0000000E-01;  9.9999998E-03; -2.2000000E-01;48;  0.0000000E+00;  0.0000000E+00;  0.0000000E+00;  1.0000000E+03;  4.0000001E-01;  0.0000000E+00;0;  0.0000000E+00;  0.0000000E+00;  0.0000000E+00;0;  0.0000000E+00;  1.0000000E+04;  0.0000000E+00;  0.0000000E+00;  1.0000000E+04;  0.0000000E+00;  1.0000000E+04;  0.0000000E+00;  0.0000000E+00;  0.0000000E+00;  0.0000000E+00;
 -2.0000000E-01;  9.9999998E-03; -2.0000000E-01;49;  0.0000000E+00;  0.0000000E+00;  0.0000000E+00;  1.0000000E+03;  4.0000001E-01;  0.0000000E+00;0;  0.0000000E+00;  0.0000000E+00;  0.0000000E+00;0;  0.0000000E+00;  1.0000000E+04;  0.0000000E+00;  0.0000000E+00;  1.0000000E+04;  0.0000000E+00;  1.0000000E+04;  0.0000000E+00;  0.0000000E+00;  0.0000000E+00;  0.0000000E+00;
 -1.8000001E-01;  9.9999998E-03; -3.4000000E-01;83;  0.0000000E+00;  0.0000000E+00;  0.0000000E+00;  1.0000000E+03;  4.0000001E-01;  0.0000000E+00;0;  0.0000000E+00;  0.0000000E+00;  0.0000000E+00;0;  0.0000000E+00;  1.0000000E+04;  0.0000000E+00;  0.0000000E+00;  1.0000000E+04;  0.0000000E+00;  1.0000000E+04;  0.0000000E+00;  0.0000000E+00;  0.0000000E+00;  0.0000000E+00;
 -1.8000001E-01;  9.9999998E-03; -3.1999999E-01;84;  0.0000000E+00;  0.0000000E+00;  0.0000000E+00;  1.0000000E+03;  4.0000001E-01;  0.0000000E+00;0;  0.0000000E+00;  0.0000000E+00;  0.0000000E+00;0;  0.0000000E+00;  1.0000000E+04;  0.0000000E+00;  0.0000000E+00;  1.0000000E+04;  0.0000000E+00;  1.0000000E+04;  0.0000000E+00;  0.0000000E+00;  0.0000000E+00;  0.0000000E+00;
 -1.8000001E-01;  9.9999998E-03; -3.0000001E-01;85;  0.0000000E+00;  0.0000000E+00;  0.0000000E+00;  1.0000000E+03;  4.0000001E-01;  0.0000000E+00;0;  0.0000000E+00;  0.0000000E+00;  0.0000000E+00;0;  0.0000000E+00;  1.0000000E+04;  0.0000000E+00;  0.0000000E+00;  1.0000000E+04;  0.0000000E+00;  1.0000000E+04;  0.0000000E+00;  0.0000000E+00;  0.0000000E+00;  0.0000000E+00;
 -1.8000001E-01;  9.9999998E-03; -2.8000000E-01;86;  0.0000000E+00;  0.0000000E+00;  0.0000000E+00;  1.0000000E+03;  4.0000001E-01;  0.0000000E+00;0;  0.0000000E+00;  0.0000000E+00;  0.0000000E+00;0;  0.0000000E+00;  1.0000000E+04;  0.0000000E+00;  0.0000000E+00;  1.0000000E+04;  0.0000000E+00;  1.0000000E+04;  0.0000000E+00;  0.0000000E+00;  0.0000000E+00;  0.0000000E+00;
 -1.8000001E-01;  9.9999998E-03; -2.5999999E-01;87;  0.0000000E+00;  0.0000000E+00;  0.0000000E+00;  1.0000000E+03;  4.0000001E-01;  0.0000000E+00;0;  0.0000000E+00;  0.0000000E+00;  0.0000000E+00;0;  0.0000000E+00;  1.0000000E+04;  0.0000000E+00;  0.0000000E+00;  1.0000000E+04;  0.0000000E+00;  1.0000000E+04;  0.0000000E+00;  0.0000000E+00;  0.0000000E+00;  0.0000000E+00;
 -1.8000001E-01;  9.9999998E-03; -2.3999999E-01;88;  0.0000000E+00;  0.0000000E+00;  0.0000000E+00;  1.0000000E+03;  4.0000001E-01;  0.0000000E+00;0;  0.0000000E+00;  0.0000000E+00;  0.0000000E+00;0;  0.0000000E+00;  1.0000000E+04;  0.0000000E+00;  0.0000000E+00;  1.0000000E+04;  0.0000000E+00;  1.0000000E+04;  0.0000000E+00;  0.0000000E+00;  0.0000000E+00;  0.0000000E+00;
 -1.8000001E-01;  9.9999998E-03; -2.2000000E-01;89;  0.0000000E+00;  0.0000000E+00;  0.0000000E+00;  1.0000000E+03;  4.0000001E-01;  0.0000000E+00;0;  0.0000000E+00;  0.0000000E+00;  0.0000000E+00;0;  0.0000000E+00;  1.0000000E+04;  0.0000000E+00;  0.0000000E+00;  1.0000000E+04;  0.0000000E+00;  1.0000000E+04;  0.0000000E+00;  0.0000000E+00;  0.0000000E+00;  0.0000000E+00;
 -1.8000001E-01;  9.9999998E-03; -2.0000000E-01;90;  0.0000000E+00;  0.0000000E+00;  0.0000000E+00;  1.0000000E+03;  4.0000001E-01;  0.0000000E+00;0;  0.0000000E+00;  0.0000000E+00;  0.0000000E+00;0;  0.0000000E+00;  1.0000000E+04;  0.0000000E+00;  0.0000000E+00;  1.0000000E+04;  0.0000000E+00;  1.0000000E+04;  0.0000000E+00;  0.0000000E+00;  0.0000000E+00;  0.0000000E+00;
 -1.6000000E-01;  9.9999998E-03; -3.4000000E-01;124;  0.0000000E+00;  0.0000000E+00;  0.0000000E+00;  1.0000000E+03;  4.0000001E-01;  0.0000000E+00;0;  0.0000000E+00;  0.0000000E+00;  0.0000000E+00;0;  0.0000000E+00;  1.0000000E+04;  0.0000000E+00;  0.0000000E+00;  1.0000000E+04;  0.0000000E+00;  1.0000000E+04;  0.0000000E+00;  0.0000000E+00;  0.0000000E+00;  0.0000000E+00;
 -1.6000000E-01;  9.9999998E-03; -3.1999999E-01;125;  0.0000000E+00;  0.0000000E+00;  0.0000000E+00;  1.0000000E+03;  4.0000001E-01;  0.0000000E+00;0;  0.0000000E+00;  0.0000000E+00;  0.0000000E+00;0; -1.5818813E-07;  1.0000000E+04;  0.0000000E+00;  0.0000000E+00;  1.0000000E+04;  0.0000000E+00;  1.0000000E+04; -1.4546947E-07;  0.0000000E+00; -1.2718664E-08;  1.5168902E-04;
 -1.6000000E-01;  9.9999998E-03; -3.0000001E-01;126;  0.0000000E+00;  0.0000000E+00;  0.0000000E+00;  1.0000000E+03;  4.0000001E-01;  0.0000000E+00;0;  0.0000000E+00;  0.0000000E+00;  0.0000000E+00;0; -1.0053141E-06;  1.0000000E+04;  0.0000000E+00;  0.0000000E+00;  1.0000000E+04;  0.0000000E+00;  1.0000000E+04; -9.6237773E-07;  0.0000000E+00; -4.2936300E-08;  4.7199501E-04;
 -1.6000000E-01;  9.9999998E-03; -2.8000000E-01;127;  0.0000000E+00;  0.0000000E+00;  0.0000000E+00;  1.0000000E+03;  4.0000001E-01;  0.0000000E+00;0;  0.0000000E+00;  0.0000000E+00;  0.0000000E+00;0; -2.3744401E-06;  1.0000000E+04;  0.0000000E+00;  0.0000000E+00;  1.0000000E+04;  0.0000000E+00;  1.0000000E+04; -2.3357763E-06;  0.0000000E+00; -3.8663696E-08;  2.6670741E-04;
 -1.6000000E-01;  9.9999998E-03; -2.5999999E-01;128;  0.0000000E+00;  0.0000000E+00;  0.0000000E+00;  1.0000000E+03;  4.0000001E-01;  0.0000000E+00;0;  0.0000000E+00;  0.0000000E+00;  0.0000000E+00;0; -3.5428254E-06;  1.0000000E+04;  0.0000000E+00;  0.0000000E+00;  1.0000000E+04;  0.0000000E+00;  1.0000000E+04; -3.5388532E-06;  0.0000000E+00; -3.9721204E-09;  3.4465338E-04;
 -1.6000000E-01;  9.9999998E-03; -2.3999999E-01;129;  0.0000000E+00;  0.0000000E+00;  0.0000000E+00;  1.0000000E+03;  4.0000001E-01;  0.0000000E+00;0;  0.0000000E+00;  0.0000000E+00;  0.0000000E+00;0; -4.1885978E-06;  1.0000000E+04;  0.0000000E+00;  0.0000000E+00;  1.0000000E+04;  0.0000000E+00;  1.0000000E+04; -4.1992243E-06;  0.0000000E+00;  1.0626588E-08;  6.0770649E-04;
 -1.6000000E-01;  9.9999998E-03; -2.2000000E-01;130;  0.0000000E+00;  0.0000000E+00;  0.0000000E+00;  1.0000000E+03;  4.0000001E-01;  0.0000000E+00;0;  0.0000000E+00;  0.0000000E+00;  0.0000000E+00;0; -4.6292926E-06;  1.0000000E+04;  0.0000000E+00;  0.0000000E+00;  1.0000000E+04;  0.0000000E+00;  1.0000000E+04; -4.6418018E-06;  0.0000000E+00;  1.2509265E-08;  6.8077788E-04;
 -1.6000000E-01;  9.9999998E-03; -2.0000000E-01;131;  0.0000000E+00;  0.0000000E+00;  0.0000000E+00;  1.0000000E+03;  4.0000001E-01;  0.0000000E+00;0;  0.0000000E+00;  0.0000000E+00;  0.0000000E+00;0; -4.9608248E-06;  1.0000000E+04;  0.0000000E+00;  0.0000000E+00;  1.0000000E+04;  0.0000000E+00;  1.0000000E+04; -4.9735731E-06;  0.0000000E+00;  1.2748524E-08;  7.2062097E-04;
 -1.4000000E-01;  9.9999998E-03; -3.4000000E-01;165;  0.0000000E+00;  0.0000000E+00;  0.0000000E+00;  1.0000000E+03;  4.0000001E-01;  0.0000000E+00;0;  0.0000000E+00;  0.0000000E+00;  0.0000000E+00;0; -7.6001434E-06;  1.0000000E+04;  0.0000000E+00;  0.0000000E+00;  1.0000000E+04;  0.0000000E+00;  1.0000000E+04; -6.4135370E-06;  0.0000000E+00; -1.1866061E-06;  1.4872346E-02;
 -1.4000000E-01;  9.9999998E-03; -3.1999999E-01;166;  0.0000000E+00;  0.0000000E+00;  0.0000000E+00;  1.0000000E+03;  4.0000001E-01;  0.0000000E+00;0;  0.0000000E+00;  0.0000000E+00;  0.0000000E+00;0; -2.4657391E-05;  1.0000000E+04;  0.0000000E+00;  0.0000000E+00;  1.0000000E+04;  0.0000000E+00;  1.0000000E+04; -2.2092428E-05;  0.0000000E+00; -2.5649617E-06;  3.1516902E-02;
 -1.4000000E-01;  9.9999998E-03; -3.0000001E-01;167;  0.0000000E+00;  0.0000000E+00;  0.0000000E+00;  1.0000000E+03;  4.0000001E-01;  0.0000000E+00;0;  0.0000000E+00;  0.0000000E+00;  0.0000000E+00;0; -5.2449104E-05;  1.0000000E+04;  0.0000000E+00;  0.0000000E+00;  1.0000000E+04;  0.0000000E+00;  1.0000000E+04; -4.9134909E-05;  0.0000000E+00; -3.3141964E-06;  3.8233582E-02;
 -1.4000000E-01;  9.9999998E-03; -2.8000000E-01;168;  0.0000000E+00;  0.0000000E+00;  0.0000000E+00;  1.0000000E+03;  4.0000001E-01;  0.0000000E+00;0;  0.0000000E+00;  0.0000000E+00;  0.0000000E+00;0; -8.6619104E-05;  1.0000000E+04;  0.0000000E+00;  0.0000000E+00;  1.0000000E+04;  0.0000000E+00;  1.0000000E+04; -8.3768005E-05;  0.0000000E+00; -2.8510963E-06;  2.7965123E-02;
 -1.4000000E-01;  9.9999998E-03; -2.5999999E-01;169;  0.0000000E+00;  0.0000000E+00;  0.0000000E+00;  1.0000001E+03;  4.0000001E-01;  9.8762624E-02;0;  0.0000000E+00;  0.0000000E+00;  0.0000000E+00;0; -1.2015709E-04;  1.0000000E+04;  0.0000000E+00;  0.0000000E+00;  1.0000000E+04;  0.0000000E+00;  1.0000000E+04; -1.1880156E-04;  0.0000000E+00; -1.3555314E-06;  4.4053900E-03;
 -1.4000000E-01;  9.9999998E-03; -2.3999999E-01;170;  0.0000000E+00;  0.0000000E+00;  0.0000000E+00;  1.0000001E+03;  4.0000001E-01;  9.8762624E-02;0;  0.0000000E+00;  0.0000000E+00;  0.0000000E+00;0; -1.4735591E-04;  1.0000000E+04;  0.0000000E+00;  0.0000000E+00;  1.0000000E+04;  0.0000000E+00;  1.0000000E+04; -1.4769749E-04;  0.0000000E+00;  3.4157759E-07;  2.1010475E-02;
 -1.4000000E-01;  9.9999998E-03; -2.2000000E-01;171;  0.0000000E+00;  0.0000000E+00;  0.0000000E+00;  1.0000002E+03;  4.0000001E-01;  1.9752525E-01;0;  0.0000000E+00;  0.0000000E+00;  0.0000000E+00;0; -1.6639785E-04;  1.0000000E+04;  0.0000000E+00;  0.0000000E+00;  1.0000000E+04;  0.0000000E+00;  1.0000000E+04; -1.6773096E-04;  0.0000000E+00;  1.3331158E-06;  3.6200266E-02;
 -1.4000000E-01;  9.9999998E-03; -2.0000000E-01;172;  0.0000000E+00;  0.0000000E+00;  0.0000000E+00;  1.0000002E+03;  4.0000001E-01;  1.9752525E-01;0;  0.0000000E+00;  0.0000000E+00;  0.0000000E+00;0; -1.7918585E-04;  1.0000000E+04;  0.0000000E+00;  0.0000000E+00;  1.0000000E+04;  0.0000000E+00;  1.0000000E+04; -1.8070638E-04;  0.0000000E+00;  1.5205258E-06;  4.0083949E-02;
 -1.2000000E-01;  9.9999998E-03; -3.4000000E-01;206;  0.0000000E+00;  0.0000000E+00;  0.0000000E+00;  1.0000000E+03;  4.0000001E-01;  0.0000000E+00;0;  0.0000000E+00;  0.0000000E+00;  0.0000000E+00;0; -9.3633884E-05;  1.0000000E+04;  0.0000000E+00;  0.0000000E+00;  1.0000000E+04;  0.0000000E+00;  1.0000000E+04; -7.6710043E-05;  0.0000000E+00; -1.6923841E-05;  2.1453725E-01;
 -1.2000000E-01;  9.9999998E-03; -3.1999999E-01;207;  0.0000000E+00;  0.0000000E+00;  0.0000000E+00;  1.0000002E+03;  4.0000001E-01;  1.9752525E-01;0;  0.0000000E+00;  0.0000000E+00;  0.0000000E+00;0; -1.9800116E-04;  1.0000000E+04;  0.0000000E+00;  0.0000000E+00;  1.0000000E+04;  0.0000000E+00;  1.0000000E+04; -1.7394288E-04;  0.0000000E+00; -2.4058272E-05;  2.9735962E-01;
 -1.2000000E-01;  9.9999998E-03; -3.0000001E-01;208;  0.0000000E+00;  0.0000000E+00;  0.0000000E+00;  1.0000004E+03;  4.0000001E-01;  3.9505050E-01;0;  0.0000000E+00;  0.0000000E+00;  0.0000000E+00;0; -3.4061444E-04;  1.0000000E+04;  0.0000000E+00;  0.0000000E+00;  1.0000000E+04;  0.0000000E+00;  1.0000000E+04; -3.1492650E-04;  0.0000000E+00; -2.5687945E-05;  3.0180988E-01;
 -1.2000000E-01;  9.9999998E-03; -2.8000000E-01;209;  0.0000000E+00;  0.0000000E+00;  0.0000000E+00;  1.0000007E+03;  4.0000001E-01;  5.9257573E-01;0;  0.0000000E+00;  0.0000000E+00;  0.0000000E+00;0; -5.0456630E-04;  1.0000000E+04;  0.0000000E+00;  0.0000000E+00;  1.0000000E+04;  0.0000000E+00;  1.0000000E+04; -4.8384038E-04;  0.0000000E+00; -2.0725915E-05;  2.1707202E-01;
 -1.2000000E-01;  9.9999998E-03; -2.5999999E-01;210;  0.0000000E+00;  0.0000000E+00;  0.0000000E+00;  1.0000009E+03;  4.0000001E-01;  6.9133836E-01;0;  0.0000000E+00;  0.0000000E+00;  0.0000000E+00;0; -6.6509651E-04;  1.0000000E+04;  0.0000000E+00;  0.0000000E+00;  1.0000000E+04;  0.0000000E+00;  1.0000000E+04; -6.5447309E-04;  0.0000000E+00; -1.0623417E-05;  6.5203272E-02;
 -1.2000000E-01;  9.9999998E-03; -2.3999999E-01;211;  0.0000000E+00;  0.0000000E+00;  0.0000000E+00;  1.0000011E+03;  4.0000001E-01;  8.8886362E-01;0;  0.0000000E+00;  0.0000000E+00;  0.0000000E+00;0; -8.0186303E-04;  1.0000000E+04;  0.0000000E+00;  0.0000000E+00;  1.0000000E+04;  0.0000000E+00;  1.0000000E+04; -8.0265850E-04;  0.0000000E+00;  7.9549113E-07;  1.0114185E-01;
 -1.2000000E-01;  9.9999998E-03; -2.2000000E-01;212;  0.0000000E+00;  0.0000000E+00;  0.0000000E+00;  1.0000012E+03;  4.0000001E-01;  9.8762625E-01;0;  0.0000000E+00;  0.0000000E+00;  0.0000000E+00;0; -9.0692763E-04;  1.0000000E+04;  0.0000000E+00;  0.0000000E+00;  1.0000000E+04;  0.0000000E+00;  1.0000000E+04; -9.1629464E-04;  0.0000000E+00;  9.3669860E-06;  2.2606087E-01;
 -1.2000000E-01;  9.9999998E-03; -2.0000000E-01;213;  0.0000000E+00;  0.0000000E+00;  0.0000000E+00;  1.0000014E+03;  4.0000001E-01;  1.1851515E+00;0;  0.0000000E+00;  0.0000000E+00;  0.0000000E+00;0; -9.8251284E-04;  1.0000000E+04;  0.0000000E+00;  0.0000000E+00;  1.0000000E+04;  0.0000000E+00;  1.0000000E+04; -9.9587103E-04;  0.0000000E+00;  1.3358250E-05;  2.8706324E-01;
 -1.0000000E-01;  9.9999998E-03; -3.4000000E-01;247;  0.0000000E+00;  0.0000000E+00;  0.0000000E+00;  1.0000006E+03;  4.0000001E-01;  4.9381313E-01;0;  0.0000000E+00;  0.0000000E+00;  0.0000000E+00;0; -4.2449209E-04;  1.0000000E+04;  0.0000000E+00;  0.0000000E+00;  1.0000000E+04;  0.0000000E+00;  1.0000000E+04; -3.3871140E-04;  0.0000000E+00; -8.5780681E-05;  1.0932002E+00;
 -1.0000000E-01;  9.9999998E-03; -3.1999999E-01;248;  0.0000000E+00;  0.0000000E+00;  0.0000000E+00;  1.0000010E+03;  4.0000001E-01;  8.8886362E-01;0;  0.0000000E+00;  0.0000000E+00;  0.0000000E+00;0; -7.6201506E-04;  1.0000000E+04;  0.0000000E+00;  0.0000000E+00;  1.0000000E+04;  0.0000000E+00;  1.0000000E+04; -6.5781269E-04;  0.0000000E+00; -1.0420237E-04;  1.2989795E+00;
 -1.0000000E-01;  9.9999998E-03; -3.0000001E-01;249;  0.0000000E+00;  0.0000000E+00;  0.0000000E+00;  1.0000016E+03;  4.0000001E-01;  1.3826767E+00;0;  0.0000000E+00;  0.0000000E+00;  0.0000000E+00;0; -1.1948926E-03;  1.0000000E+04;  0.0000000E+00;  0.0000000E+00;  1.0000000E+04;  0.0000000E+00;  1.0000000E+04; -1.0924471E-03;  0.0000000E+00; -1.0244545E-04;  1.2251661E+00;
 -1.0000000E-01;  9.9999998E-03; -2.8000000E-01;250;  0.0000000E+00;  0.0000000E+00;  0.0000000E+00;  1.0000024E+03;  4.0000001E-01;  1.9752525E+00;0;  0.0000000E+00;  0.0000000E+00;  0.0000000E+00;0; -1.6781028E-03;  1.0000000E+04;  0.0000000E+00;  0.0000000E+00;  1.0000000E+04;  0.0000000E+00;  1.0000000E+04; -1.5985705E-03;  0.0000000E+00; -7.9532227E-05;  8.6445326E-01;
 -1.0000000E-01;  9.9999998E-03; -2.5999999E-01;251;  0.0000000E+00;  0.0000000E+00;  0.0000000E+00;  1.0000032E+03;  4.0000001E-01;  2.6665909E+00;0;  0.0000000E+00;  0.0000000E+00;  0.0000000E+00;0; -2.1473244E-03;  1.0000000E+04;  0.0000000E+00;  0.0000000E+00;  1.0000000E+04;  0.0000000E+00;  1.0000000E+04; -2.1067704E-03;  0.0000000E+00; -4.0553889E-05;  2.9238921E-01;
 -1.0000000E-01;  9.9999998E-03; -2.3999999E-01;252;  0.0000000E+00;  0.0000000E+00;  0.0000000E+00;  1.0000038E+03;  4.0000001E-01;  3.1604040E+00;0;  0.0000000E+00;  0.0000000E+00;  0.0000000E+00;0; -2.5519622E-03;  1.0000000E+04;  0.0000000E+00;  0.0000000E+00;  1.0000000E+04;  0.0000000E+00;  1.0000000E+04; -2.5544697E-03;  0.0000000E+00;  2.5076406E-06;  3.2530239E-01;
 -1.0000000E-01;  9.9999998E-03; -2.2000000E-01;253;  0.0000000E+00;  0.0000000E+00;  0.0000000E+00;  1.0000042E+03;  4.0000001E-01;  3.4566917E+00;0;  0.0000000E+00;  0.0000000E+00;  0.0000000E+00;0; -2.8724223E-03;  1.0000000E+04;  0.0000000E+00;  0.0000000E+00;  1.0000000E+04;  0.0000000E+00;  1.0000000E+04; -2.9087742E-03;  0.0000000E+00;  3.6351896E-05;  8.0972397E-01;
 -1.0000000E-01;  9.9999998E-03; -2.0000000E-01;254;  0.0000000E+00;  0.0000000E+00;  0.0000000E+00;  1.0000046E+03;  4.0000001E-01;  3.8517423E+00;0;  0.0000000E+00;  0.0000000E+00;  0.0000000E+00;0; -3.1122025E-03;  1.0000000E+04;  0.0000000E+00;  0.0000000E+00;  1.0000000E+04;  0.0000000E+00;  1.0000000E+04; -3.1669771E-03;  0.0000000E+00;  5.4774657E-05;  1.0796626E+00;
 -7.9999998E-02;  9.9999998E-03; -3.4000000E-01;288;  0.0000000E+00;  0.0000000E+00;  0.0000000E+00;  1.0000018E+03;  4.0000001E-01;  1.4814394E+00;0;  0.0000000E+00;  0.0000000E+00;  0.0000000E+00;0; -1.2311328E-03;  1.0000000E+04;  0.0000000E+00;  0.0000000E+00;  1.0000000E+04;  0.0000000E+00;  1.0000000E+04; -9.5944491E-04;  0.0000000E+00; -2.7168781E-04;  3.4911127E+00;
 -7.9999998E-02;  9.9999998E-03; -3.1999999E-01;289;  0.0000000E+00;  0.0000000E+00;  0.0000000E+00;  1.0000030E+03;  4.0000001E-01;  2.4690657E+00;0;  0.0000000E+00;  0.0000000E+00;  0.0000000E+00;0; -2.0353326E-03;  1.0000000E+04;  0.0000000E+00;  0.0000000E+00;  1.0000000E+04;  0.0000000E+00;  1.0000000E+04; -1.7295879E-03;  0.0000000E+00; -3.0574470E-04;  3.8534114E+00;
 -7.9999998E-02;  9.9999998E-03; -3.0000001E-01;290;  0.0000000E+00;  0.0000000E+00;  0.0000000E+00;  1.0000045E+03;  4.0000001E-01;  3.7529798E+00;0;  0.0000000E+00;  0.0000000E+00;  0.0000000E+00;0; -3.0357679E-03;  1.0000000E+04;  0.0000000E+00;  0.0000000E+00;  1.0000000E+04;  0.0000000E+00;  1.0000000E+04; -2.7479352E-03;  0.0000000E+00; -2.8783272E-04;  3.4959862E+00;
 -7.9999998E-02;  9.9999998E-03; -2.8000000E-01;291;  0.0000000E+00;  0.0000000E+00;  0.0000000E+00;  1.0000060E+03;  4.0000001E-01;  5.0368938E+00;0;  0.0000000E+00;  0.0000000E+00;  0.0000000E+00;0; -4.1325209E-03;  1.0000000E+04;  0.0000000E+00;  0.0000000E+00;  1.0000000E+04;  0.0000000E+00;  1.0000000E+04; -3.9145085E-03;  0.0000000E+00; -2.1801234E-04;  2.4325054E+00;
 -7.9999998E-02;  9.9999998E-03; -2.5999999E-01;292;  0.0000000E+00;  0.0000000E+00;  0.0000000E+00;  1.0000078E+03;  4.0000001E-01;  6.4195704E+00;0;  0.0000000E+00;  0.0000000E+00;  0.0000000E+00;0; -5.1881834E-03;  1.0000000E+04;  0.0000000E+00;  0.0000000E+00;  1.0000000E+04;  0.0000000E+00;  1.0000000E+04; -5.0788568E-03;  0.0000000E+00; -1.0932669E-04;  8.5596848E-01;
 -7.9999998E-02;  9.9999998E-03; -2.3999999E-01;293;  0.0000000E+00;  0.0000000E+00;  0.0000000E+00;  1.0000089E+03;  4.0000001E-01;  7.4071970E+00;0;  0.0000000E+00;  0.0000000E+00;  0.0000000E+00;0; -6.0990793E-03;  1.0000000E+04;  0.0000000E+00;  0.0000000E+00;  1.0000000E+04;  0.0000000E+00;  1.0000000E+04; -6.1077769E-03;  0.0000000E+00;  8.6975706E-06;  8.2447809E-01;
 -7.9999998E-02;  9.9999998E-03; -2.2000000E-01;294;  0.0000000E+00;  0.0000000E+00;  0.0000000E+00;  1.0000100E+03;  4.0000001E-01;  8.2960606E+00;0;  0.0000000E+00;  0.0000000E+00;  0.0000000E+00;0; -6.8283649E-03;  1.0000000E+04;  0.0000000E+00;  0.0000000E+00;  1.0000000E+04;  0.0000000E+00;  1.0000000E+04; -6.9313501E-03;  0.0000000E+00;  1.0298511E-04;  2.1623623E+00;
 -7.9999998E-02;  9.9999998E-03; -2.0000000E-01;295;  0.0000000E+00;  0.0000000E+00;  0.0000000E+00;  1.0000109E+03;  4.0000001E-01;  8.9873991E+00;0;  0.0000000E+00;  0.0000000E+00;  0.0000000E+00;0; -7.3842835E-03;  1.0000000E+04;  0.0000000E+00;  0.0000000E+00;  1.0000000E+04;  0.0000000E+00;  1.0000000E+04; -7.5414269E-03;  0.0000000E+00;  1.5714344E-04;  2.9419150E+00;
 -5.9999999E-02;  9.9999998E-03; -3.4000000E-01;329;  0.0000000E+00;  0.0000000E+00;  0.0000000E+00;  1.0000040E+03;  4.0000001E-01;  3.3579292E+00;0;  0.0000000E+00;  0.0000000E+00;  0.0000000E+00;0; -2.7199553E-03;  1.0000000E+04;  0.0000000E+00;  0.0000000E+00;  1.0000000E+04;  0.0000000E+00;  1.0000000E+04; -2.0692102E-03;  0.0000000E+00; -6.5074518E-04;  8.4448709E+00;
 -5.9999999E-02;  9.9999998E-03; -3.1999999E-01;330;  0.0000000E+00;  0.0000000E+00;  0.0000000E+00;  1.0000064E+03;  4.0000001E-01;  5.3331819E+00;0;  0.0000000E+00;  0.0000000E+00;  0.0000000E+00;0; -4.2850468E-03;  1.0000000E+04;  0.0000000E+00;  0.0000000E+00;  1.0000000E+04;  0.0000000E+00;  1.0000000E+04; -3.5823998E-03;  0.0000000E+00; -7.0264703E-04;  8.9595785E+00;
 -5.9999999E-02;  9.9999998E-03; -3.0000001E-01;331;  0.0000000E+00;  0.0000000E+00;  0.0000000E+00;  1.0000093E+03;  4.0000001E-01;  7.7034845E+00;0;  0.0000000E+00;  0.0000000E+00;  0.0000000E+00;0; -6.1974316E-03;  1.0000000E+04;  0.0000000E+00;  0.0000000E+00;  1.0000000E+04;  0.0000000E+00;  1.0000000E+04; -5.5523911E-03;  0.0000000E+00; -6.4504053E-04;  7.9530058E+00;
 -5.9999999E-02;  9.9999998E-03; -2.8000000E-01;332;  0.0000000E+00;  0.0000000E+00;  0.0000000E+00;  1.0000123E+03;  4.0000001E-01;  1.0172550E+01;0;  0.0000000E+00;  0.0000000E+00;  0.0000000E+00;0; -8.2663959E-03;  1.0000000E+04;  0.0000000E+00;  0.0000000E+00;  1.0000000E+04;  0.0000000E+00;  1.0000000E+04; -7.7866893E-03;  0.0000000E+00; -4.7970624E-04;  5.4756994E+00;
 -5.9999999E-02;  9.9999998E-03; -2.5999999E-01;333;  0.0000000E+00;  0.0000000E+00;  0.0000000E+00;  1.0000152E+03;  4.0000001E-01;  1.2542853E+01;0;  0.0000000E+00;  0.0000000E+00;  0.0000000E+00;0; -1.0235769E-02;  1.0000000E+04;  0.0000000E+00;  0.0000000E+00;  1.0000000E+04;  0.0000000E+00;  1.0000000E+04; -1.0000656E-02;  0.0000000E+00; -2.3511225E-04;  1.9476861E+00;
 -5.9999999E-02;  9.9999998E-03; -2.3999999E-01;334;  0.0000000E+00;  0.0000000E+00;  0.0000000E+00;  1.0000178E+03;  4.0000001E-01;  1.4715631E+01;0;  0.0000000E+00;  0.0000000E+00;  0.0000000E+00;0; -1.1924609E-02;  1.0000000E+04;  0.0000000E+00;  0.0000000E+00;  1.0000000E+04;  0.0000000E+00;  1.0000000E+04; -1.1950553E-02;  0.0000000E+00;  2.5944510E-05;  1.7585442E+00;
 -5.9999999E-02;  9.9999998E-03; -2.2000000E-01;335;  0.0000000E+00;  0.0000000E+00;  0.0000000E+00;  1.0000198E+03;  4.0000001E-01;  1.6394596E+01;0;  0.0000000E+00;  0.0000000E+00;  0.0000000E+00;0; -1.3279199E-02;  1.0000000E+04;  0.0000000E+00;  0.0000000E+00;  1.0000000E+04;  0.0000000E+00;  1.0000000E+04; -1.3514168E-02;  0.0000000E+00;  2.3496924E-04;  4.7137737E+00;
 -5.9999999E-02;  9.9999998E-03; -2.0000000E-01;336;  0.0000000E+00;  0.0000000E+00;  0.0000000E+00;  1.0000212E+03;  4.0000001E-01;  1.7579746E+01;0;  0.0000000E+00;  0.0000000E+00;  0.0000000E+00;0; -1.4320761E-02;  1.0000000E+04;  0.0000000E+00;  0.0000000E+00;  1.0000000E+04;  0.0000000E+00;  1.0000000E+04; -1.4678709E-02;  0.0000000E+00;  3.5794830E-04;  6.4676991E+00;
 -3.9999999E-02;  9.9999998E-03; -3.4000000E-01;370;  0.0000000E+00;  0.0000000E+00;  0.0000000E+00;  1.0000074E+03;  4.0000001E-01;  6.1232829E+00;0;  0.0000000E+00;  0.0000000E+00;  0.0000000E+00;0; -4.9515208E-03;  1.0000000E+04;  0.0000000E+00;  0.0000000E+00;  1.0000000E+04;  0.0000000E+00;  1.0000000E+04; -3.6664435E-03;  0.0000000E+00; -1.2850775E-03;  1.6867052E+01;
 -3.9999999E-02;  9.9999998E-03; -3.1999999E-01;371;  0.0000000E+00;  0.0000000E+00;  0.0000000E+00;  1.0000112E+03;  4.0000001E-01;  9.2836866E+00;0;  0.0000000E+00;  0.0000000E+00;  0.0000000E+00;0; -7.5639570E-03;  1.0000000E+04;  0.0000000E+00;  0.0000000E+00;  1.0000000E+04;  0.0000000E+00;  1.0000000E+04; -6.2075662E-03;  0.0000000E+00; -1.3563910E-03;  1.7520065E+01;
 -3.9999999E-02;  9.9999998E-03; -3.0000001E-01;372;  0.0000000E+00;  0.0000000E+00;  0.0000000E+00;  1.0000160E+03;  4.0000001E-01;  1.3234192E+01;0;  0.0000000E+00;  0.0000000E+00;  0.0000000E+00;0; -1.0715679E-02;  1.0000000E+04;  0.0000000E+00;  0.0000000E+00;  1.0000000E+04;  0.0000000E+00;  1.0000000E+04; -9.4894366E-03;  0.0000000E+00; -1.2262424E-03;  1.5359371E+01;
 -3.9999999E-02;  9.9999998E-03; -2.8000000E-01;373;  0.0000000E+00;  0.0000000E+00;  0.0000000E+00;  1.0000210E+03;  4.0000001E-01;  1.7382221E+01;0;  0.0000000E+00;  0.0000000E+00;  0.0000000E+00;0; -1.4078774E-02;  1.0000000E+04;  0.0000000E+00;  0.0000000E+00;  1.0000000E+04;  0.0000000E+00;  1.0000000E+04; -1.3182072E-02;  0.0000000E+00; -8.9670147E-04;  1.0463864E+01;
 -3.9999999E-02;  9.9999998E-03; -2.5999999E-01;374;  0.0000000E+00;  0.0000000E+00;  0.0000000E+00;  1.0000258E+03;  4.0000001E-01;  2.1332727E+01;0;  0.0000000E+00;  0.0000000E+00;  0.0000000E+00;0; -1.7230116E-02;  1.0000000E+04;  0.0000000E+00;  0.0000000E+00;  1.0000000E+04;  0.0000000E+00;  1.0000000E+04; -1.6804617E-02;  0.0000000E+00; -4.2549983E-04;  3.6810966E+00;
 -3.9999999E-02;  9.9999998E-03; -2.3999999E-01;375;  0.0000000E+00;  0.0000000E+00;  0.0000000E+00;  1.0000296E+03;  4.0000001E-01;  2.4493132E+01;0;  0.0000000E+00;  0.0000000E+00;  0.0000000E+00;0; -1.9903457E-02;  1.0000000E+04;  0.0000000E+00;  0.0000000E+00;  1.0000000E+04;  0.0000000E+00;  1.0000000E+04; -1.9969599E-02;  0.0000000E+00;  6.6143024E-05;  3.3011520E+00;
 -3.9999999E-02;  9.9999998E-03; -2.2000000E-01;376;  0.0000000E+00;  0.0000000E+00;  0.0000000E+00;  1.0000328E+03;  4.0000001E-01;  2.7159721E+01;0;  0.0000000E+00;  0.0000000E+00;  0.0000000E+00;0; -2.2041986E-02;  1.0000000E+04;  0.0000000E+00;  0.0000000E+00;  1.0000000E+04;  0.0000000E+00;  1.0000000E+04; -2.2498297E-02;  0.0000000E+00;  4.5631008E-04;  8.8177948E+00;
 -3.9999999E-02;  9.9999998E-03; -2.0000000E-01;377;  0.0000000E+00;  0.0000000E+00;  0.0000000E+00;  1.0000353E+03;  4.0000001E-01;  2.9233736E+01;0;  0.0000000E+00;  0.0000000E+00;  0.0000000E+00;0; -2.3692060E-02;  1.0000000E+04;  0.0000000E+00;  0.0000000E+00;  1.0000000E+04;  0.0000000E+00;  1.0000000E+04; -2.4379650E-02;  0.0000000E+00;  6.8759080E-04;  1.2103004E+01;
 -2.0000000E-02;  9.9999998E-03; -3.4000000E-01;411;  0.0000000E+00;  0.0000000E+00;  0.0000000E+00;  1.0000118E+03;  4.0000001E-01;  9.7775002E+00;0;  0.0000000E+00;  0.0000000E+00;  0.0000000E+00;0; -7.7814190E-03;  1.0000000E+04;  0.0000000E+00;  0.0000000E+00;  1.0000000E+04;  0.0000000E+00;  1.0000000E+04; -5.5932719E-03;  0.0000000E+00; -2.1881473E-03;  2.9105156E+01;
 -2.0000000E-02;  9.9999998E-03; -3.1999999E-01;412;  0.0000000E+00;  0.0000000E+00;  0.0000000E+00;  1.0000177E+03;  4.0000001E-01;  1.4616868E+01;0;  0.0000000E+00;  0.0000000E+00;  0.0000000E+00;0; -1.1633512E-02;  1.0000000E+04;  0.0000000E+00;  0.0000000E+00;  1.0000000E+04;  0.0000000E+00;  1.0000000E+04; -9.3525993E-03;  0.0000000E+00; -2.2809124E-03;  2.9895708E+01;
 -2.0000000E-02;  9.9999998E-03; -3.0000001E-01;413;  0.0000000E+00;  0.0000000E+00;  0.0000000E+00;  1.0000245E+03;  4.0000001E-01;  2.0345100E+01;0;  0.0000000E+00;  0.0000000E+00;  0.0000000E+00;0; -1.6213091E-02;  1.0000000E+04;  0.0000000E+00;  0.0000000E+00;  1.0000000E+04;  0.0000000E+00;  1.0000000E+04; -1.4173394E-02;  0.0000000E+00; -2.0396963E-03;  2.5987875E+01;
 -2.0000000E-02;  9.9999998E-03; -2.8000000E-01;414;  0.0000000E+00;  0.0000000E+00;  0.0000000E+00;  1.0000316E+03;  4.0000001E-01;  2.6172096E+01;0;  0.0000000E+00;  0.0000000E+00;  0.0000000E+00;0; -2.1009119E-02;  1.0000000E+04;  0.0000000E+00;  0.0000000E+00;  1.0000000E+04;  0.0000000E+00;  1.0000000E+04; -1.9546434E-02;  0.0000000E+00; -1.4626841E-03;  1.7448021E+01;
 -2.0000000E-02;  9.9999998E-03; -2.5999999E-01;415;  0.0000000E+00;  0.0000000E+00;  0.0000000E+00;  1.0000383E+03;  4.0000001E-01;  3.1702803E+01;0;  0.0000000E+00;  0.0000000E+00;  0.0000000E+00;0; -2.5408087E-02;  1.0000000E+04;  0.0000000E+00;  0.0000000E+00;  1.0000000E+04;  0.0000000E+00;  1.0000000E+04; -2.4745047E-02;  0.0000000E+00; -6.6304108E-04;  5.9231405E+00;
 -2.0000000E-02;  9.9999998E-03; -2.3999999E-01;416;  0.0000000E+00;  0.0000000E+00;  0.0000000E+00;  1.0000438E+03;  4.0000001E-01;  3.6245884E+01;0;  0.0000000E+00;  0.0000000E+00;  0.0000000E+00;0; -2.9096104E-02;  1.0000000E+04;  0.0000000E+00;  0.0000000E+00;  1.0000000E+04;  0.0000000E+00;  1.0000000E+04; -2.9241282E-02;  0.0000000E+00;  1.4517890E-04;  5.6001244E+00;
 -2.0000000E-02;  9.9999998E-03; -2.2000000E-01;417;  0.0000000E+00;  0.0000000E+00;  0.0000000E+00;  1.0000482E+03;  4.0000001E-01;  3.9900101E+01;0;  0.0000000E+00;  0.0000000E+00;  0.0000000E+00;0; -3.2034133E-02;  1.0000000E+04;  0.0000000E+00;  0.0000000E+00;  1.0000000E+04;  0.0000000E+00;  1.0000000E+04; -3.2810442E-02;  0.0000000E+00;  7.7630818E-04;  1.4558495E+01;
 -2.0000000E-02;  9.9999998E-03; -2.0000000E-01;418;  0.0000000E+00;  0.0000000E+00;  0.0000000E+00;  1.0000515E+03;  4.0000001E-01;  4.2665455E+01;0;  0.0000000E+00;  0.0000000E+00;  0.0000000E+00;0; -3.4300897E-02;  1.0000000E+04;  0.0000000E+00;  0.0000000E+00;  1.0000000E+04;  0.0000000E+00;  1.0000000E+04; -3.5450470E-02;  0.0000000E+00;  1.1495741E-03;  1.9861950E+01;
  0.0000000E+00;  9.9999998E-03; -3.4000000E-01;452;  0.0000000E+00;  0.0000000E+00;  0.0000000E+00;  1.0000167E+03;  4.0000001E-01;  1.3826767E+01;0;  0.0000000E+00;  0.0000000E+00;  0.0000000E+00;0; -1.0879239E-02;  1.0000000E+04;  0.0000000E+00;  0.0000000E+00;  1.0000000E+04;  0.0000000E+00;  1.0000000E+04; -7.5867740E-03;  0.0000000E+00; -3.2924649E-03;  4.4502316E+01;
  0.0000000E+00;  9.9999998E-03; -3.1999999E-01;453;  0.0000000E+00;  0.0000000E+00;  0.0000000E+00;  1.0000244E+03;  4.0000001E-01;  2.0246338E+01;0;  0.0000000E+00;  0.0000000E+00;  0.0000000E+00;0; -1.5991420E-02;  1.0000000E+04;  0.0000000E+00;  0.0000000E+00;  1.0000000E+04;  0.0000000E+00;  1.0000000E+04; -1.2586954E-02;  0.0000000E+00; -3.4044650E-03;  4.5391453E+01;
  0.0000000E+00;  9.9999998E-03; -3.0000001E-01;454;  0.0000000E+00;  0.0000000E+00;  0.0000000E+00;  1.0000334E+03;  4.0000001E-01;  2.7653534E+01;0;  0.0000000E+00;  0.0000000E+00;  0.0000000E+00;0; -2.1918071E-02;  1.0000000E+04;  0.0000000E+00;  0.0000000E+00;  1.0000000E+04;  0.0000000E+00;  1.0000000E+04; -1.8917371E-02;  0.0000000E+00; -3.0007008E-03;  3.8965946E+01;
  2.0000000E-02;  9.9999998E-03; -3.4000000E-01;464;  0.0000000E+00;  0.0000000E+00;  0.0000000E+00;  1.0000215E+03;  4.0000001E-01;  1.7777273E+01;0;  0.0000000E+00;  0.0000000E+00;  0.0000000E+00;0; -1.3874595E-02;  1.0000000E+04;  0.0000000E+00;  0.0000000E+00;  1.0000000E+04;  0.0000000E+00;  1.0000000E+04; -9.4289733E-03;  0.0000000E+00; -4.4456217E-03;  6.1295338E+01;
  2.0000000E-02;  9.9999998E-03; -3.1999999E-01;465;  0.0000000E+00;  0.0000000E+00;  0.0000000E+00;  1.0000312E+03;  4.0000001E-01;  2.5875807E+01;0;  0.0000000E+00;  0.0000000E+00;  0.0000000E+00;0; -2.0099860E-02;  1.0000000E+04;  0.0000000E+00;  0.0000000E+00;  1.0000000E+04;  0.0000000E+00;  1.0000000E+04; -1.5540509E-02;  0.0000000E+00; -4.5593497E-03;  6.2062092E+01;
  3.9999999E-02;  9.9999998E-03; -3.4000000E-01;474;  0.0000000E+00;  0.0000000E+00;  0.0000000E+00;  1.0000263E+03;  4.0000001E-01;  2.1826540E+01;0;  0.0000000E+00;  0.0000000E+00;  0.0000000E+00;0; -1.6587434E-02;  1.0000000E+04;  0.0000000E+00;  0.0000000E+00;  1.0000000E+04;  0.0000000E+00;  1.0000000E+04; -1.1114286E-02;  0.0000000E+00; -5.4731476E-03;  7.7375435E+01;
  3.9999999E-02;  9.9999998E-03; -3.1999999E-01;475;  0.0000000E+00;  0.0000000E+00;  0.0000000E+00;  1.0000377E+03;  4.0000001E-01;  3.1208990E+01;0;  0.0000000E+00;  0.0000000E+00;  0.0000000E+00;0; -2.3775952E-02;  1.0000000E+04;  0.0000000E+00;  0.0000000E+00;  1.0000000E+04;  0.0000000E+00;  1.0000000E+04; -1.8230580E-02;  0.0000000E+00; -5.5453726E-03;  7.7454498E+01;
  5.9999999E-02;  9.9999998E-03; -3.4000000E-01;484;  0.0000000E+00;  0.0000000E+00;  0.0000000E+00;  1.0000311E+03;  4.0000001E-01;  2.5777044E+01;0;  0.0000000E+00;  0.0000000E+00;  0.0000000E+00;0; -1.9137114E-02;  1.0000000E+04;  0.0000000E+00;  0.0000000E+00;  1.0000000E+04;  0.0000000E+00;  1.0000000E+04; -1.2855945E-02;  0.0000000E+00; -6.2811696E-03;  9.1614700E+01;
  5.9999999E-02;  9.9999998E-03; -3.1999999E-01;485;  0.0000000E+00;  0.0000000E+00;  0.0000000E+00;  1.0000443E+03;  4.0000001E-01;  3.6640934E+01;0;  0.0000000E+00;  0.0000000E+00;  0.0000000E+00;0; -2.7298298E-02;  1.0000000E+04;  0.0000000E+00;  0.0000000E+00;  1.0000000E+04;  0.0000000E+00;  1.0000000E+04; -2.1019084E-02;  0.0000000E+00; -6.2792134E-03;  9.0544205E+01;
  7.9999998E-02;  9.9999998E-03; -3.4000000E-01;494;  0.0000000E+00;  0.0000000E+00;  0.0000000E+00;  1.0000366E+03;  4.0000001E-01;  3.0320126E+01;0;  0.0000000E+00;  0.0000000E+00;  0.0000000E+00;0; -2.1958068E-02;  1.0000000E+04;  0.0000000E+00;  0.0000000E+00;  1.0000000E+04;  0.0000000E+00;  1.0000000E+04; -1.5068829E-02;  0.0000000E+00; -6.8892399E-03;  1.0466801E+02;
  7.9999998E-02;  9.9999998E-03; -3.1999999E-01;495;  0.0000000E+00;  0.0000000E+00;  0.0000000E+00;  1.0000521E+03;  4.0000001E-01;  4.3159267E+01;0;  0.0000000E+00;  0.0000000E+00;  0.0000000E+00;0; -3.1263843E-02;  1.0000000E+04;  0.0000000E+00;  0.0000000E+00;  1.0000000E+04;  0.0000000E+00;  1.0000000E+04; -2.4467874E-02;  0.0000000E+00; -6.7959675E-03;  1.0207978E+02;
  1.0000000E-01;  9.9999998E-03; -3.4000000E-01;504;  0.0000000E+00;  0.0000000E+00;  0.0000000E+00;  1.0000443E+03;  4.0000001E-01;  3.6640934E+01;0;  0.0000000E+00;  0.0000000E+00;  0.0000000E+00;0; -2.5774669E-02;  1.0000000E+04;  0.0000000E+00;  0.0000000E+00;  1.0000000E+04;  0.0000000E+00;  1.0000000E+04; -1.8356161E-02;  0.0000000E+00; -7.4185072E-03;  1.2497812E+02;
  1.0000000E-01;  9.9999998E-03; -3.1999999E-01;505;  0.0000000E+00;  0.0000000E+00;  0.0000000E+00;  1.0000629E+03;  4.0000001E-01;  5.2047901E+01;0;  0.0000000E+00;  0.0000000E+00;  0.0000000E+00;0; -3.6608174E-02;  1.0000000E+04;  0.0000000E+00;  0.0000000E+00;  1.0000000E+04;  0.0000000E+00;  1.0000000E+04; -2.9379021E-02;  0.0000000E+00; -7.2291531E-03;  1.2444051E+02;
  1.2000000E-01;  9.9999998E-03; -3.4000000E-01;514;  0.0000000E+00;  0.0000000E+00;  0.0000000E+00;  1.0000559E+03;  4.0000001E-01;  4.6319672E+01;0;  0.0000000E+00;  0.0000000E+00;  0.0000000E+00;0; -3.1562053E-02;  1.0000000E+04;  0.0000000E+00;  0.0000000E+00;  1.0000000E+04;  0.0000000E+00;  1.0000000E+04; -2.3460886E-02;  0.0000000E+00; -8.1011690E-03;  1.9940202E+02;
  1.2000000E-01;  9.9999998E-03; -3.1999999E-01;515;  0.0000000E+00;  0.0000000E+00;  0.0000000E+00;  1.0000784E+03;  4.0000001E-01;  6.4985809E+01;0;  0.0000000E+00;  0.0000000E+00;  0.0000000E+00;0; -4.4516355E-02;  1.0000000E+04;  0.0000000E+00;  0.0000000E+00;  1.0000000E+04;  0.0000000E+00;  1.0000000E+04; -3.6698315E-02;  0.0000000E+00; -7.8180386E-03;  2.3946532E+02;
  1.4000000E-01;  9.9999998E-03; -3.4000000E-01;524;  0.0000000E+00;  0.0000000E+00;  0.0000000E+00;  1.0000737E+03;  4.0000001E-01;  6.1035301E+01;0;  0.0000000E+00;  0.0000000E+00;  0.0000000E+00;0; -4.0547140E-02;  1.0000000E+04;  0.0000000E+00;  0.0000000E+00;  1.0000000E+04;  0.0000000E+00;  1.0000000E+04; -3.1228203E-02;  0.0000000E+00; -9.3189348E-03;  4.3183673E+02;
  1.4000000E-01;  9.9999998E-03; -3.1999999E-01;525;  0.0000000E+00;  0.0000000E+00;  0.0000000E+00;  1.0001020E+03;  4.0000001E-01;  8.4540810E+01;0;  0.0000000E+00;  0.0000000E+00;  0.0000000E+00;0; -5.6359276E-02;  1.0000000E+04;  0.0000000E+00;  0.0000000E+00;  1.0000000E+04;  0.0000000E+00;  1.0000000E+04; -4.7418479E-02;  0.0000000E+00; -8.9407964E-03;  6.0670032E+02;
  1.6000000E-01;  9.9999998E-03; -3.4000000E-01;534;  0.0000000E+00;  0.0000000E+00;  0.0000000E+00;  1.0001003E+03;  4.0000001E-01;  8.3158127E+01;0;  0.0000000E+00;  0.0000000E+00;  0.0000000E+00;0; -5.3880908E-02;  1.0000000E+04;  0.0000000E+00;  0.0000000E+00;  1.0000000E+04;  0.0000000E+00;  1.0000000E+04; -4.2206381E-02;  0.0000000E+00; -1.1674526E-02;  9.3647504E+02;
  1.6000000E-01;  9.9999998E-03; -3.1999999E-01;535;  0.0000000E+00;  0.0000000E+00;  0.0000000E+00;  1.0001361E+03;  4.0000001E-01;  1.1278692E+02;0;  0.0000000E+00;  0.0000000E+00;  0.0000000E+00;0; -7.3338300E-02;  1.0000000E+04;  0.0000000E+00;  0.0000000E+00;  1.0000000E+04;  0.0000000E+00;  1.0000000E+04; -6.2146861E-02;  0.0000000E+00; -1.1191438E-02;  1.4104482E+03;
  1.8000001E-01;  9.9999998E-03; -3.4000000E-01;544;  0.0000000E+00;  0.0000000E+00;  0.0000000E+00;  1.0001370E+03;  4.0000001E-01;  1.1347826E+02;0;  0.0000000E+00;  0.0000000E+00;  0.0000000E+00;0; -7.1642362E-02;  1.0000000E+04;  0.0000000E+00;  0.0000000E+00;  1.0000000E+04;  0.0000000E+00;  1.0000000E+04; -5.5553354E-02;  0.0000000E+00; -1.6089009E-02;  1.7559347E+03;
  1.8000001E-01;  9.9999998E-03; -3.1999999E-01;545;  0.0000000E+00;  0.0000000E+00;  0.0000000E+00;  1.0001818E+03;  4.0000001E-01;  1.5061301E+02;0;  0.0000000E+00;  0.0000000E+00;  0.0000000E+00;0; -9.5559970E-02;  1.0000000E+04;  0.0000000E+00;  0.0000000E+00;  1.0000000E+04;  0.0000000E+00;  1.0000000E+04; -8.0048807E-02;  0.0000000E+00; -1.5511164E-02;  2.7866768E+03;
  2.0000000E-01;  9.9999998E-03; -3.4000000E-01;553;  0.0000000E+00;  0.0000000E+00;  0.0000000E+00;  1.0001814E+03;  4.0000001E-01;  1.5031671E+02;0;  0.0000000E+00;  0.0000000E+00;  0.0000000E+00;0; -9.2569306E-02;  1.0000000E+04;  0.0000000E+00;  0.0000000E+00;  1.0000000E+04;  0.0000000E+00;  1.0000000E+04; -6.8762131E-02;  0.0000000E+00; -2.3807174E-02;  2.6877209E+03;
  2.0000000E-01;  9.9999998E-03; -3.1999999E-01;554;  0.0000000E+00;  0.0000000E+00;  0.0000000E+00;  1.0002374E+03;  4.0000001E-01;  1.9663638E+02;0;  0.0000000E+00;  0.0000000E+00;  0.0000000E+00;0; -1.2164528E-01;  1.0000000E+04;  0.0000000E+00;  0.0000000E+00;  1.0000000E+04;  0.0000000E+00;  1.0000000E+04; -9.8399274E-02;  0.0000000E+00; -2.3246007E-02;  4.5298428E+03;
 -2.2000000E-01;  9.9999998E-03; -1.8000001E-01;10;  0.0000000E+00;  0.0000000E+00;  0.0000000E+00;  1.0000000E+03;  4.0000001E-01;  0.0000000E+00;0;  0.0000000E+00;  0.0000000E+00;  0.0000000E+00;0;  0.0000000E+00;  1.0000000E+04;  0.0000000E+00;  0.0000000E+00;  1.0000000E+04;  0.0000000E+00;  1.0000000E+04;  0.0000000E+00;  0.0000000E+00;  0.0000000E+00;  0.0000000E+00;
 -2.2000000E-01;  9.9999998E-03; -1.6000000E-01;11;  0.0000000E+00;  0.0000000E+00;  0.0000000E+00;  1.0000000E+03;  4.0000001E-01;  0.0000000E+00;0;  0.0000000E+00;  0.0000000E+00;  0.0000000E+00;0;  0.0000000E+00;  1.0000000E+04;  0.0000000E+00;  0.0000000E+00;  1.0000000E+04;  0.0000000E+00;  1.0000000E+04;  0.0000000E+00;  0.0000000E+00;  0.0000000E+00;  0.0000000E+00;
 -2.2000000E-01;  9.9999998E-03; -1.4000000E-01;12;  0.0000000E+00;  0.0000000E+00;  0.0000000E+00;  1.0000000E+03;  4.0000001E-01;  0.0000000E+00;0;  0.0000000E+00;  0.0000000E+00;  0.0000000E+00;0;  0.0000000E+00;  1.0000000E+04;  0.0000000E+00;  0.0000000E+00;  1.0000000E+04;  0.0000000E+00;  1.0000000E+04;  0.0000000E+00;  0.0000000E+00;  0.0000000E+00;  0.0000000E+00;
 -2.2000000E-01;  9.9999998E-03; -1.2000000E-01;13;  0.0000000E+00;  0.0000000E+00;  0.0000000E+00;  1.0000000E+03;  4.0000001E-01;  0.0000000E+00;0;  0.0000000E+00;  0.0000000E+00;  0.0000000E+00;0;  0.0000000E+00;  1.0000000E+04;  0.0000000E+00;  0.0000000E+00;  1.0000000E+04;  0.0000000E+00;  1.0000000E+04;  0.0000000E+00;  0.0000000E+00;  0.0000000E+00;  0.0000000E+00;
 -2.2000000E-01;  9.9999998E-03; -1.0000000E-01;14;  0.0000000E+00;  0.0000000E+00;  0.0000000E+00;  1.0000000E+03;  4.0000001E-01;  0.0000000E+00;0;  0.0000000E+00;  0.0000000E+00;  0.0000000E+00;0;  0.0000000E+00;  1.0000000E+04;  0.0000000E+00;  0.0000000E+00;  1.0000000E+04;  0.0000000E+00;  1.0000000E+04;  0.0000000E+00;  0.0000000E+00;  0.0000000E+00;  0.0000000E+00;
 -2.2000000E-01;  9.9999998E-03; -7.9999998E-02;15;  0.0000000E+00;  0.0000000E+00;  0.0000000E+00;  1.0000000E+03;  4.0000001E-01;  0.0000000E+00;0;  0.0000000E+00;  0.0000000E+00;  0.0000000E+00;0;  0.0000000E+00;  1.0000000E+04;  0.0000000E+00;  0.0000000E+00;  1.0000000E+04;  0.0000000E+00;  1.0000000E+04;  0.0000000E+00;  0.0000000E+00;  0.0000000E+00;  0.0000000E+00;
 -2.2000000E-01;  9.9999998E-03; -5.9999999E-02;16;  0.0000000E+00;  0.0000000E+00;  0.0000000E+00;  1.0000000E+03;  4.0000001E-01;  0.0000000E+00;0;  0.0000000E+00;  0.0000000E+00;  0.0000000E+00;0;  0.0000000E+00;  1.0000000E+04;  0.0000000E+00;  0.0000000E+00;  1.0000000E+04;  0.0000000E+00;  1.0000000E+04;  0.0000000E+00;  0.0000000E+00;  0.0000000E+00;  0.0000000E+00;
 -2.2000000E-01;  9.9999998E-03; -3.9999999E-02;17;  0.0000000E+00;  0.0000000E+00;  0.0000000E+00;  1.0000000E+03;  4.0000001E-01;  0.0000000E+00;0;  0.0000000E+00;  0.0000000E+00;  0.0000000E+00;0;  0.0000000E+00;  1.0000000E+04;  0.0000000E+00;  0.0000000E+00;  1.0000000E+04;  0.0000000E+00;  1.0000000E+04;  0.0000000E+00;  0.0000000E+00;  0.0000000E+00;  0.0000000E+00;
 -2.2000000E-01;  9.9999998E-03; -2.0000000E-02;18;  0.0000000E+00;  0.0000000E+00;  0.0000000E+00;  1.0000000E+03;  4.0000001E-01;  0.0000000E+00;0;  0.0000000E+00;  0.0000000E+00;  0.0000000E+00;0;  0.0000000E+00;  1.0000000E+04;  0.0000000E+00;  0.0000000E+00;  1.0000000E+04;  0.0000000E+00;  1.0000000E+04;  0.0000000E+00;  0.0000000E+00;  0.0000000E+00;  0.0000000E+00;
 -2.0000000E-01;  9.9999998E-03; -1.8000001E-01;50;  0.0000000E+00;  0.0000000E+00;  0.0000000E+00;  1.0000000E+03;  4.0000001E-01;  0.0000000E+00;0;  0.0000000E+00;  0.0000000E+00;  0.0000000E+00;0;  0.0000000E+00;  1.0000000E+04;  0.0000000E+00;  0.0000000E+00;  1.0000000E+04;  0.0000000E+00;  1.0000000E+04;  0.0000000E+00;  0.0000000E+00;  0.0000000E+00;  0.0000000E+00;
 -2.0000000E-01;  9.9999998E-03; -1.6000000E-01;51;  0.0000000E+00;  0.0000000E+00;  0.0000000E+00;  1.0000000E+03;  4.0000001E-01;  0.0000000E+00;0;  0.0000000E+00;  0.0000000E+00;  0.0000000E+00;0;  0.0000000E+00;  1.0000000E+04;  0.0000000E+00;  0.0000000E+00;  1.0000000E+04;  0.0000000E+00;  1.0000000E+04;  0.0000000E+00;  0.0000000E+00;  0.0000000E+00;  0.0000000E+00;
 -2.0000000E-01;  9.9999998E-03; -1.4000000E-01;52;  0.0000000E+00;  0.0000000E+00;  0.0000000E+00;  1.0000000E+03;  4.0000001E-01;  0.0000000E+00;0;  0.0000000E+00;  0.0000000E+00;  0.0000000E+00;0;  0.0000000E+00;  1.0000000E+04;  0.0000000E+00;  0.0000000E+00;  1.0000000E+04;  0.0000000E+00;  1.0000000E+04;  0.0000000E+00;  0.0000000E+00;  0.0000000E+00;  0.0000000E+00;
 -2.0000000E-01;  9.9999998E-03; -1.2000000E-01;53;  0.0000000E+00;  0.0000000E+00;  0.0000000E+00;  1.0000000E+03;  4.0000001E-01;  0.0000000E+00;0;  0.0000000E+00;  0.0000000E+00;  0.0000000E+00;0;  0.0000000E+00;  1.0000000E+04;  0.0000000E+00;  0.0000000E+00;  1.0000000E+04;  0.0000000E+00;  1.0000000E+04;  0.0000000E+00;  0.0000000E+00;  0.0000000E+00;  0.0000000E+00;
 -2.0000000E-01;  9.9999998E-03; -1.0000000E-01;54;  0.0000000E+00;  0.0000000E+00;  0.0000000E+00;  1.0000000E+03;  4.0000001E-01;  0.0000000E+00;0;  0.0000000E+00;  0.0000000E+00;  0.0000000E+00;0;  0.0000000E+00;  1.0000000E+04;  0.0000000E+00;  0.0000000E+00;  1.0000000E+04;  0.0000000E+00;  1.0000000E+04;  0.0000000E+00;  0.0000000E+00;  0.0000000E+00;  0.0000000E+00;
 -2.0000000E-01;  9.9999998E-03; -7.9999998E-02;55;  0.0000000E+00;  0.0000000E+00;  0.0000000E+00;  1.0000000E+03;  4.0000001E-01;  0.0000000E+00;0;  0.0000000E+00;  0.0000000E+00;  0.0000000E+00;0;  0.0000000E+00;  1.0000000E+04;  0.0000000E+00;  0.0000000E+00;  1.0000000E+04;  0.0000000E+00;  1.0000000E+04;  0.0000000E+00;  0.0000000E+00;  0.0000000E+00;  0.0000000E+00;
 -2.0000000E-01;  9.9999998E-03; -5.9999999E-02;56;  0.0000000E+00;  0.0000000E+00;  0.0000000E+00;  1.0000000E+03;  4.0000001E-01;  0.0000000E+00;0;  0.0000000E+00;  0.0000000E+00;  0.0000000E+00;0;  0.0000000E+00;  1.0000000E+04;  0.0000000E+00;  0.0000000E+00;  1.0000000E+04;  0.0000000E+00;  1.0000000E+04;  0.0000000E+00;  0.0000000E+00;  0.0000000E+00;  0.0000000E+00;
 -2.0000000E-01;  9.9999998E-03; -3.9999999E-02;57;  0.0000000E+00;  0.0000000E+00;  0.0000000E+00;  1.0000000E+03;  4.0000001E-01;  0.0000000E+00;0;  0.0000000E+00;  0.0000000E+00;  0.0000000E+00;0;  0.0000000E+00;  1.0000000E+04;  0.0000000E+00;  0.0000000E+00;  1.0000000E+04;  0.0000000E+00;  1.0000000E+04;  0.0000000E+00;  0.0000000E+00;  0.0000000E+00;  0.0000000E+00;
 -2.0000000E-01;  9.9999998E-03; -2.0000000E-02;58;  0.0000000E+00;  0.0000000E+00;  0.0000000E+00;  1.0000000E+03;  4.0000001E-01;  0.0000000E+00;0;  0.0000000E+00;  0.0000000E+00;  0.0000000E+00;0;  0.0000000E+00;  1.0000000E+04;  0.0000000E+00;  0.0000000E+00;  1.0000000E+04;  0.0000000E+00;  1.0000000E+04;  0.0000000E+00;  0.0000000E+00;  0.0000000E+00;  0.0000000E+00;
 -1.8000001E-01;  9.9999998E-03; -1.8000001E-01;91;  0.0000000E+00;  0.0000000E+00;  0.0000000E+00;  1.0000000E+03;  4.0000001E-01;  0.0000000E+00;0;  0.0000000E+00;  0.0000000E+00;  0.0000000E+00;0;  0.0000000E+00;  1.0000000E+04;  0.0000000E+00;  0.0000000E+00;  1.0000000E+04;  0.0000000E+00;  1.0000000E+04;  0.0000000E+00;  0.0000000E+00;  0.0000000E+00;  0.0000000E+00;
 -1.8000001E-01;  9.9999998E-03; -1.6000000E-01;92;  0.0000000E+00;  0.0000000E+00;  0.0000000E+00;  1.0000000E+03;  4.0000001E-01;  0.0000000E+00;0;  0.0000000E+00;  0.0000000E+00;  0.0000000E+00;0;  0.0000000E+00;  1.0000000E+04;  0.0000000E+00;  0.0000000E+00;  1.0000000E+04;  0.0000000E+00;  1.0000000E+04;  0.0000000E+00;  0.0000000E+00;  0.0000000E+00;  0.0000000E+00;
 -1.8000001E-01;  9.9999998E-03; -1.4000000E-01;93;  0.0000000E+00;  0.0000000E+00;  0.0000000E+00;  1.0000000E+03;  4.0000001E-01;  0.0000000E+00;0;  0.0000000E+00;  0.0000000E+00;  0.0000000E+00;0;  0.0000000E+00;  1.0000000E+04;  0.0000000E+00;  0.0000000E+00;  1.0000000E+04;  0.0000000E+00;  1.0000000E+04;  0.0000000E+00;  0.0000000E+00;  0.0000000E+00;  0.0000000E+00;
 -1.8000001E-01;  9.9999998E-03; -1.2000000E-01;94;  0.0000000E+00;  0.0000000E+00;  0.0000000E+00;  1.0000000E+03;  4.0000001E-01;  0.0000000E+00;0;  0.0000000E+00;  0.0000000E+00;  0.0000000E+00;0;  0.0000000E+00;  1.0000000E+04;  0.0000000E+00;  0.0000000E+00;  1.0000000E+04;  0.0000000E+00;  1.0000000E+04;  0.0000000E+00;  0.0000000E+00;  0.0000000E+00;  0.0000000E+00;
 -1.8000001E-01;  9.9999998E-03; -1.0000000E-01;95;  0.0000000E+00;  0.0000000E+00;  0.0000000E+00;  1.0000000E+03;  4.0000001E-01;  0.0000000E+00;0;  0.0000000E+00;  0.0000000E+00;  0.0000000E+00;0;  0.0000000E+00;  1.0000000E+04;  0.0000000E+00;  0.0000000E+00;  1.0000000E+04;  0.0000000E+00;  1.0000000E+04;  0.0000000E+00;  0.0000000E+00;  0.0000000E+00;  0.0000000E+00;
 -1.8000001E-01;  9.9999998E-03; -7.9999998E-02;96;  0.0000000E+00;  0.0000000E+00;  0.0000000E+00;  1.0000000E+03;  4.0000001E-01;  0.0000000E+00;0;  0.0000000E+00;  0.0000000E+00;  0.0000000E+00;0;  0.0000000E+00;  1.0000000E+04;  0.0000000E+00;  0.0000000E+00;  1.0000000E+04;  0.0000000E+00;  1.0000000E+04;  0.0000000E+00;  0.0000000E+00;  0.0000000E+00;  0.0000000E+00;
 -1.8000001E-01;  9.9999998E-03; -5.9999999E-02;97;  0.0000000E+00;  0.0000000E+00;  0.0000000E+00;  1.0000000E+03;  4.0000001E-01;  0.0000000E+00;0;  0.0000000E+00;  0.0000000E+00;  0.0000000E+00;0;  0.0000000E+00;  1.0000000E+04;  0.0000000E+00;  0.0000000E+00;  1.0000000E+04;  0.0000000E+00;  1.0000000E+04;  0.0000000E+00;  0.0000000E+00;  0.0000000E+00;  0.0000000E+00;
 -1.8000001E-01;  9.9999998E-03; -3.9999999E-02;98;  0.0000000E+00;  0.0000000E+00;  0.0000000E+00;  1.0000000E+03;  4.0000001E-01;  0.0000000E+00;0;  0.0000000E+00;  0.0000000E+00;  0.0000000E+00;0;  0.0000000E+00;  1.0000000E+04;  0.0000000E+00;  0.0000000E+00;  1.0000000E+04;  0.0000000E+00;  1.0000000E+04;  0.0000000E+00;  0.0000000E+00;  0.0000000E+00;  0.0000000E+00;
 -1.8000001E-01;  9.9999998E-03; -2.0000000E-02;99;  0.0000000E+00;  0.0000000E+00;  0.0000000E+00;  1.0000000E+03;  4.0000001E-01;  0.0000000E+00;0;  0.0000000E+00;  0.0000000E+00;  0.0000000E+00;0;  0.0000000E+00;  1.0000000E+04;  0.0000000E+00;  0.0000000E+00;  1.0000000E+04;  0.0000000E+00;  1.0000000E+04;  0.0000000E+00;  0.0000000E+00;  0.0000000E+00;  0.0000000E+00;
 -1.6000000E-01;  9.9999998E-03; -1.8000001E-01;132;  0.0000000E+00;  0.0000000E+00;  0.0000000E+00;  1.0000000E+03;  4.0000001E-01;  0.0000000E+00;0;  0.0000000E+00;  0.0000000E+00;  0.0000000E+00;0; -5.1950396E-06;  1.0000000E+04;  0.0000000E+00;  0.0000000E+00;  1.0000000E+04;  0.0000000E+00;  1.0000000E+04; -5.2069699E-06;  0.0000000E+00;  1.1930203E-08;  7.3559745E-04;
 -1.6000000E-01;  9.9999998E-03; -1.6000000E-01;133;  0.0000000E+00;  0.0000000E+00;  0.0000000E+00;  1.0000000E+03;  4.0000001E-01;  0.0000000E+00;0;  0.0000000E+00;  0.0000000E+00;  0.0000000E+00;0; -5.3487338E-06;  1.0000000E+04;  0.0000000E+00;  0.0000000E+00;  1.0000000E+04;  0.0000000E+00;  1.0000000E+04; -5.3592298E-06;  0.0000000E+00;  1.0495920E-08;  7.3338073E-04;
 -1.6000000E-01;  9.9999998E-03; -1.4000000E-01;134;  0.0000000E+00;  0.0000000E+00;  0.0000000E+00;  1.0000000E+03;  4.0000001E-01;  0.0000000E+00;0;  0.0000000E+00;  0.0000000E+00;  0.0000000E+00;0; -5.4399893E-06;  1.0000000E+04;  0.0000000E+00;  0.0000000E+00;  1.0000000E+04;  0.0000000E+00;  1.0000000E+04; -5.4488187E-06;  0.0000000E+00;  8.8294145E-09;  7.2140875E-04;
 -1.6000000E-01;  9.9999998E-03; -1.2000000E-01;135;  0.0000000E+00;  0.0000000E+00;  0.0000000E+00;  1.0000000E+03;  4.0000001E-01;  0.0000000E+00;0;  0.0000000E+00;  0.0000000E+00;  0.0000000E+00;0; -5.4859797E-06;  1.0000000E+04;  0.0000000E+00;  0.0000000E+00;  1.0000000E+04;  0.0000000E+00;  1.0000000E+04; -5.4932066E-06;  0.0000000E+00;  7.2269093E-09;  7.0541468E-04;
 -1.6000000E-01;  9.9999998E-03; -1.0000000E-01;136;  0.0000000E+00;  0.0000000E+00;  0.0000000E+00;  1.0000000E+03;  4.0000001E-01;  0.0000000E+00;0;  0.0000000E+00;  0.0000000E+00;  0.0000000E+00;0; -5.5018809E-06;  1.0000000E+04;  0.0000000E+00;  0.0000000E+00;  1.0000000E+04;  0.0000000E+00;  1.0000000E+04; -5.5076102E-06;  0.0000000E+00;  5.7293570E-09;  6.8761385E-04;
 -1.6000000E-01;  9.9999998E-03; -7.9999998E-02;137;  0.0000000E+00;  0.0000000E+00;  0.0000000E+00;  1.0000000E+03;  4.0000001E-01;  0.0000000E+00;0;  0.0000000E+00;  0.0000000E+00;  0.0000000E+00;0; -5.4998777E-06;  1.0000000E+04;  0.0000000E+00;  0.0000000E+00;  1.0000000E+04;  0.0000000E+00;  1.0000000E+04; -5.5042915E-06;  0.0000000E+00;  4.4136912E-09;  6.7040522E-04;
 -1.6000000E-01;  9.9999998E-03; -5.9999999E-02;138;  0.0000000E+00;  0.0000000E+00;  0.0000000E+00;  1.0000000E+03;  4.0000001E-01;  0.0000000E+00;0;  0.0000000E+00;  0.0000000E+00;  0.0000000E+00;0; -5.4893967E-06;  1.0000000E+04;  0.0000000E+00;  0.0000000E+00;  1.0000000E+04;  0.0000000E+00;  1.0000000E+04; -5.4927355E-06;  0.0000000E+00;  3.3386820E-09;  6.5549935E-04;
 -1.6000000E-01;  9.9999998E-03; -3.9999999E-02;139;  0.0000000E+00;  0.0000000E+00;  0.0000000E+00;  1.0000000E+03;  4.0000001E-01;  0.0000000E+00;0;  0.0000000E+00;  0.0000000E+00;  0.0000000E+00;0; -5.4773318E-06;  1.0000000E+04;  0.0000000E+00;  0.0000000E+00;  1.0000000E+04;  0.0000000E+00;  1.0000000E+04; -5.4798670E-06;  0.0000000E+00;  2.5352158E-09;  6.4396206E-04;
 -1.6000000E-01;  9.9999998E-03; -2.0000000E-02;140;  0.0000000E+00;  0.0000000E+00;  0.0000000E+00;  1.0000000E+03;  4.0000001E-01;  0.0000000E+00;0;  0.0000000E+00;  0.0000000E+00;  0.0000000E+00;0; -5.4683082E-06;  1.0000000E+04;  0.0000000E+00;  0.0000000E+00;  1.0000000E+04;  0.0000000E+00;  1.0000000E+04; -5.4703514E-06;  0.0000000E+00;  2.0433901E-09;  6.3674821E-04;
 -1.4000000E-01;  9.9999998E-03; -1.8000001E-01;173;  0.0000000E+00;  0.0000000E+00;  0.0000000E+00;  1.0000002E+03;  4.0000001E-01;  1.9752525E-01;0;  0.0000000E+00;  0.0000000E+00;  0.0000000E+00;0; -1.8829986E-04;  1.0000000E+04;  0.0000000E+00;  0.0000000E+00;  1.0000000E+04;  0.0000000E+00;  1.0000000E+04; -1.8975363E-04;  0.0000000E+00;  1.4537660E-06;  4.0201362E-02;
 -1.4000000E-01;  9.9999998E-03; -1.6000000E-01;174;  0.0000000E+00;  0.0000000E+00;  0.0000000E+00;  1.0000002E+03;  4.0000001E-01;  1.9752525E-01;0;  0.0000000E+00;  0.0000000E+00;  0.0000000E+00;0; -1.9454505E-04;  1.0000000E+04;  0.0000000E+00;  0.0000000E+00;  1.0000000E+04;  0.0000000E+00;  1.0000000E+04; -1.9584842E-04;  0.0000000E+00;  1.3033732E-06;  3.8885139E-02;
 -1.4000000E-01;  9.9999998E-03; -1.4000000E-01;175;  0.0000000E+00;  0.0000000E+00;  0.0000000E+00;  1.0000002E+03;  4.0000001E-01;  1.9752525E-01;0;  0.0000000E+00;  0.0000000E+00;  0.0000000E+00;0; -1.9849636E-04;  1.0000000E+04;  0.0000000E+00;  0.0000000E+00;  1.0000000E+04;  0.0000000E+00;  1.0000000E+04; -1.9961131E-04;  0.0000000E+00;  1.1149490E-06;  3.6805358E-02;
 -1.4000000E-01;  9.9999998E-03; -1.2000000E-01;176;  0.0000000E+00;  0.0000000E+00;  0.0000000E+00;  1.0000002E+03;  4.0000001E-01;  1.9752525E-01;0;  0.0000000E+00;  0.0000000E+00;  0.0000000E+00;0; -2.0073108E-04;  1.0000000E+04;  0.0000000E+00;  0.0000000E+00;  1.0000000E+04;  0.0000000E+00;  1.0000000E+04; -2.0165090E-04;  0.0000000E+00;  9.1981923E-07;  3.4453556E-02;
 -1.4000000E-01;  9.9999998E-03; -1.0000000E-01;177;  0.0000000E+00;  0.0000000E+00;  0.0000000E+00;  1.0000002E+03;  4.0000001E-01;  1.9752525E-01;0;  0.0000000E+00;  0.0000000E+00;  0.0000000E+00;0; -2.0177435E-04;  1.0000000E+04;  0.0000000E+00;  0.0000000E+00;  1.0000000E+04;  0.0000000E+00;  1.0000000E+04; -2.0251080E-04;  0.0000000E+00;  7.3643685E-07;  3.2138769E-02;
 -1.4000000E-01;  9.9999998E-03; -7.9999998E-02;178;  0.0000000E+00;  0.0000000E+00;  0.0000000E+00;  1.0000002E+03;  4.0000001E-01;  1.9752525E-01;0;  0.0000000E+00;  0.0000000E+00;  0.0000000E+00;0; -2.0206794E-04;  1.0000000E+04;  0.0000000E+00;  0.0000000E+00;  1.0000000E+04;  0.0000000E+00;  1.0000000E+04; -2.0264325E-04;  0.0000000E+00;  5.7531400E-07;  3.0048573E-02;
 -1.4000000E-01;  9.9999998E-03; -5.9999999E-02;179;  0.0000000E+00;  0.0000000E+00;  0.0000000E+00;  1.0000002E+03;  4.0000001E-01;  1.9752525E-01;0;  0.0000000E+00;  0.0000000E+00;  0.0000000E+00;0; -2.0196129E-04;  1.0000000E+04;  0.0000000E+00;  0.0000000E+00;  1.0000000E+04;  0.0000000E+00;  1.0000000E+04; -2.0240404E-04;  0.0000000E+00;  4.4275026E-07;  2.8301463E-02;
 -1.4000000E-01;  9.9999998E-03; -3.9999999E-02;180;  0.0000000E+00;  0.0000000E+00;  0.0000000E+00;  1.0000002E+03;  4.0000001E-01;  1.9752525E-01;0;  0.0000000E+00;  0.0000000E+00;  0.0000000E+00;0; -2.0171155E-04;  1.0000000E+04;  0.0000000E+00;  0.0000000E+00;  1.0000000E+04;  0.0000000E+00;  1.0000000E+04; -2.0205583E-04;  0.0000000E+00;  3.4428010E-07;  2.6992198E-02;
 -1.4000000E-01;  9.9999998E-03; -2.0000000E-02;181;  0.0000000E+00;  0.0000000E+00;  0.0000000E+00;  1.0000002E+03;  4.0000001E-01;  1.9752525E-01;0;  0.0000000E+00;  0.0000000E+00;  0.0000000E+00;0; -2.0149413E-04;  1.0000000E+04;  0.0000000E+00;  0.0000000E+00;  1.0000000E+04;  0.0000000E+00;  1.0000000E+04; -2.0177780E-04;  0.0000000E+00;  2.8367916E-07;  2.6182326E-02;
 -1.2000000E-01;  9.9999998E-03; -1.8000001E-01;214;  0.0000000E+00;  0.0000000E+00;  0.0000000E+00;  1.0000015E+03;  4.0000001E-01;  1.1851515E+00;0;  0.0000000E+00;  0.0000000E+00;  0.0000000E+00;0; -1.0351808E-03;  1.0000000E+04;  0.0000000E+00;  0.0000000E+00;  1.0000000E+04;  0.0000000E+00;  1.0000000E+04; -1.0487704E-03;  0.0000000E+00;  1.3589579E-05;  2.9578564E-01;
 -1.2000000E-01;  9.9999998E-03; -1.6000000E-01;215;  0.0000000E+00;  0.0000000E+00;  0.0000000E+00;  1.0000015E+03;  4.0000001E-01;  1.2839141E+00;0;  0.0000000E+00;  0.0000000E+00;  0.0000000E+00;0; -1.0715752E-03;  1.0000000E+04;  0.0000000E+00;  0.0000000E+00;  1.0000000E+04;  0.0000000E+00;  1.0000000E+04; -1.0839497E-03;  0.0000000E+00;  1.2374519E-05;  2.8351286E-01;
 -1.2000000E-01;  9.9999998E-03; -1.4000000E-01;216;  0.0000000E+00;  0.0000000E+00;  0.0000000E+00;  1.0000015E+03;  4.0000001E-01;  1.2839141E+00;0;  0.0000000E+00;  0.0000000E+00;  0.0000000E+00;0; -1.0953892E-03;  1.0000000E+04;  0.0000000E+00;  0.0000000E+00;  1.0000000E+04;  0.0000000E+00;  1.0000000E+04; -1.1061030E-03;  0.0000000E+00;  1.0713655E-05;  2.6390001E-01;
 -1.2000000E-01;  9.9999998E-03; -1.2000000E-01;217;  0.0000000E+00;  0.0000000E+00;  0.0000000E+00;  1.0000016E+03;  4.0000001E-01;  1.2839141E+00;0;  0.0000000E+00;  0.0000000E+00;  0.0000000E+00;0; -1.1096011E-03;  1.0000000E+04;  0.0000000E+00;  0.0000000E+00;  1.0000000E+04;  0.0000000E+00;  1.0000000E+04; -1.1185260E-03;  0.0000000E+00;  8.9248388E-06;  2.4155320E-01;
 -1.2000000E-01;  9.9999998E-03; -1.0000000E-01;218;  0.0000000E+00;  0.0000000E+00;  0.0000000E+00;  1.0000016E+03;  4.0000001E-01;  1.2839141E+00;0;  0.0000000E+00;  0.0000000E+00;  0.0000000E+00;0; -1.1169908E-03;  1.0000000E+04;  0.0000000E+00;  0.0000000E+00;  1.0000000E+04;  0.0000000E+00;  1.0000000E+04; -1.1242010E-03;  0.0000000E+00;  7.2101684E-06;  2.1952711E-01;
 -1.2000000E-01;  9.9999998E-03; -7.9999998E-02;219;  0.0000000E+00;  0.0000000E+00;  0.0000000E+00;  1.0000016E+03;  4.0000001E-01;  1.2839141E+00;0;  0.0000000E+00;  0.0000000E+00;  0.0000000E+00;0; -1.1199448E-03;  1.0000000E+04;  0.0000000E+00;  0.0000000E+00;  1.0000000E+04;  0.0000000E+00;  1.0000000E+04; -1.1256351E-03;  0.0000000E+00;  5.6902090E-06;  1.9970520E-01;
 -1.2000000E-01;  9.9999998E-03; -5.9999999E-02;220;  0.0000000E+00;  0.0000000E+00;  0.0000000E+00;  1.0000016E+03;  4.0000001E-01;  1.2839141E+00;0;  0.0000000E+00;  0.0000000E+00;  0.0000000E+00;0; -1.1203757E-03;  1.0000000E+04;  0.0000000E+00;  0.0000000E+00;  1.0000000E+04;  0.0000000E+00;  1.0000000E+04; -1.1248160E-03;  0.0000000E+00;  4.4402682E-06;  1.8326929E-01;
 -1.2000000E-01;  9.9999998E-03; -3.9999999E-02;221;  0.0000000E+00;  0.0000000E+00;  0.0000000E+00;  1.0000016E+03;  4.0000001E-01;  1.2839141E+00;0;  0.0000000E+00;  0.0000000E+00;  0.0000000E+00;0; -1.1197153E-03;  1.0000000E+04;  0.0000000E+00;  0.0000000E+00;  1.0000000E+04;  0.0000000E+00;  1.0000000E+04; -1.1232262E-03;  0.0000000E+00;  3.5109776E-06;  1.7099909E-01;
 -1.2000000E-01;  9.9999998E-03; -2.0000000E-02;222;  0.0000000E+00;  0.0000000E+00;  0.0000000E+00;  1.0000016E+03;  4.0000001E-01;  1.2839141E+00;0;  0.0000000E+00;  0.0000000E+00;  0.0000000E+00;0; -1.1189418E-03;  1.0000000E+04;  0.0000000E+00;  0.0000000E+00;  1.0000000E+04;  0.0000000E+00;  1.0000000E+04; -1.1218806E-03;  0.0000000E+00;  2.9388052E-06;  1.6343051E-01;
 -1.0000000E-01;  9.9999998E-03; -1.8000001E-01;255;  0.0000000E+00;  0.0000000E+00;  0.0000000E+00;  1.0000047E+03;  4.0000001E-01;  3.8517423E+00;0;  0.0000000E+00;  0.0000000E+00;  0.0000000E+00;0; -3.2845284E-03;  1.0000000E+04;  0.0000000E+00;  0.0000000E+00;  1.0000000E+04;  0.0000000E+00;  1.0000000E+04; -3.3439053E-03;  0.0000000E+00;  5.9376955E-05;  1.1585042E+00;
 -1.0000000E-01;  9.9999998E-03; -1.6000000E-01;256;  0.0000000E+00;  0.0000000E+00;  0.0000000E+00;  1.0000049E+03;  4.0000001E-01;  4.0492678E+00;0;  0.0000000E+00;  0.0000000E+00;  0.0000000E+00;0; -3.4042932E-03;  1.0000000E+04;  0.0000000E+00;  0.0000000E+00;  1.0000000E+04;  0.0000000E+00;  1.0000000E+04; -3.4597423E-03;  0.0000000E+00;  5.5449134E-05;  1.1182989E+00;
 -1.0000000E-01;  9.9999998E-03; -1.4000000E-01;257;  0.0000000E+00;  0.0000000E+00;  0.0000000E+00;  1.0000050E+03;  4.0000001E-01;  4.1480303E+00;0;  0.0000000E+00;  0.0000000E+00;  0.0000000E+00;0; -3.4840761E-03;  1.0000000E+04;  0.0000000E+00;  0.0000000E+00;  1.0000000E+04;  0.0000000E+00;  1.0000000E+04; -3.5326038E-03;  0.0000000E+00;  4.8527836E-05;  1.0338658E+00;
 -1.0000000E-01;  9.9999998E-03; -1.2000000E-01;258;  0.0000000E+00;  0.0000000E+00;  0.0000000E+00;  1.0000050E+03;  4.0000001E-01;  4.1480303E+00;0;  0.0000000E+00;  0.0000000E+00;  0.0000000E+00;0; -3.5332823E-03;  1.0000000E+04;  0.0000000E+00;  0.0000000E+00;  1.0000000E+04;  0.0000000E+00;  1.0000000E+04; -3.5740605E-03;  0.0000000E+00;  4.0778163E-05;  9.3518108E-01;
 -1.0000000E-01;  9.9999998E-03; -1.0000000E-01;259;  0.0000000E+00;  0.0000000E+00;  0.0000000E+00;  1.0000051E+03;  4.0000001E-01;  4.2467928E+00;0;  0.0000000E+00;  0.0000000E+00;  0.0000000E+00;0; -3.5604038E-03;  1.0000000E+04;  0.0000000E+00;  0.0000000E+00;  1.0000000E+04;  0.0000000E+00;  1.0000000E+04; -3.5936104E-03;  0.0000000E+00;  3.3206503E-05;  8.3679062E-01;
 -1.0000000E-01;  9.9999998E-03; -7.9999998E-02;260;  0.0000000E+00;  0.0000000E+00;  0.0000000E+00;  1.0000052E+03;  4.0000001E-01;  4.3455553E+00;0;  0.0000000E+00;  0.0000000E+00;  0.0000000E+00;0; -3.5728388E-03;  1.0000000E+04;  0.0000000E+00;  0.0000000E+00;  1.0000000E+04;  0.0000000E+00;  1.0000000E+04; -3.5992751E-03;  0.0000000E+00;  2.6436248E-05;  7.4790442E-01;
 -1.0000000E-01;  9.9999998E-03; -5.9999999E-02;261;  0.0000000E+00;  0.0000000E+00;  0.0000000E+00;  1.0000052E+03;  4.0000001E-01;  4.3455553E+00;0;  0.0000000E+00;  0.0000000E+00;  0.0000000E+00;0; -3.5765942E-03;  1.0000000E+04;  0.0000000E+00;  0.0000000E+00;  1.0000000E+04;  0.0000000E+00;  1.0000000E+04; -3.5974435E-03;  0.0000000E+00;  2.0849346E-05;  6.7418426E-01;
 -1.0000000E-01;  9.9999998E-03; -3.9999999E-02;262;  0.0000000E+00;  0.0000000E+00;  0.0000000E+00;  1.0000052E+03;  4.0000001E-01;  4.3455553E+00;0;  0.0000000E+00;  0.0000000E+00;  0.0000000E+00;0; -3.5761921E-03;  1.0000000E+04;  0.0000000E+00;  0.0000000E+00;  1.0000000E+04;  0.0000000E+00;  1.0000000E+04; -3.5928860E-03;  0.0000000E+00;  1.6693897E-05;  6.1923236E-01;
 -1.0000000E-01;  9.9999998E-03; -2.0000000E-02;263;  0.0000000E+00;  0.0000000E+00;  0.0000000E+00;  1.0000052E+03;  4.0000001E-01;  4.3455553E+00;0;  0.0000000E+00;  0.0000000E+00;  0.0000000E+00;0; -3.5747460E-03;  1.0000000E+04;  0.0000000E+00;  0.0000000E+00;  1.0000000E+04;  0.0000000E+00;  1.0000000E+04; -3.5888806E-03;  0.0000000E+00;  1.4134736E-05;  5.8536750E-01;
 -7.9999998E-02;  9.9999998E-03; -1.8000001E-01;296;  0.0000000E+00;  0.0000000E+00;  0.0000000E+00;  1.0000114E+03;  4.0000001E-01;  9.4812117E+00;0;  0.0000000E+00;  0.0000000E+00;  0.0000000E+00;0; -7.7924533E-03;  1.0000000E+04;  0.0000000E+00;  0.0000000E+00;  1.0000000E+04;  0.0000000E+00;  1.0000000E+04; -7.9666907E-03;  0.0000000E+00;  1.7423762E-04;  3.2094805E+00;
 -7.9999998E-02;  9.9999998E-03; -1.6000000E-01;297;  0.0000000E+00;  0.0000000E+00;  0.0000000E+00;  1.0000120E+03;  4.0000001E-01;  9.8762627E+00;0;  0.0000000E+00;  0.0000000E+00;  0.0000000E+00;0; -8.0809016E-03;  1.0000000E+04;  0.0000000E+00;  0.0000000E+00;  1.0000000E+04;  0.0000000E+00;  1.0000000E+04; -8.2477294E-03;  0.0000000E+00;  1.6682774E-04;  3.1371081E+00;
 -7.9999998E-02;  9.9999998E-03; -1.4000000E-01;298;  0.0000000E+00;  0.0000000E+00;  0.0000000E+00;  1.0000121E+03;  4.0000001E-01;  9.9750252E+00;0;  0.0000000E+00;  0.0000000E+00;  0.0000000E+00;0; -8.2752649E-03;  1.0000000E+04;  0.0000000E+00;  0.0000000E+00;  1.0000000E+04;  0.0000000E+00;  1.0000000E+04; -8.4228171E-03;  0.0000000E+00;  1.4755221E-04;  2.8965185E+00;
 -7.9999998E-02;  9.9999998E-03; -1.2000000E-01;299;  0.0000000E+00;  0.0000000E+00;  0.0000000E+00;  1.0000124E+03;  4.0000001E-01;  1.0271313E+01;0;  0.0000000E+00;  0.0000000E+00;  0.0000000E+00;0; -8.3975261E-03;  1.0000000E+04;  0.0000000E+00;  0.0000000E+00;  1.0000000E+04;  0.0000000E+00;  1.0000000E+04; -8.5224733E-03;  0.0000000E+00;  1.2494704E-04;  2.6042118E+00;
 -7.9999998E-02;  9.9999998E-03; -1.0000000E-01;300;  0.0000000E+00;  0.0000000E+00;  0.0000000E+00;  1.0000126E+03;  4.0000001E-01;  1.0468838E+01;0;  0.0000000E+00;  0.0000000E+00;  0.0000000E+00;0; -8.4671816E-03;  1.0000000E+04;  0.0000000E+00;  0.0000000E+00;  1.0000000E+04;  0.0000000E+00;  1.0000000E+04; -8.5696336E-03;  0.0000000E+00;  1.0245198E-04;  2.3087862E+00;
 -7.9999998E-02;  9.9999998E-03; -7.9999998E-02;301;  0.0000000E+00;  0.0000000E+00;  0.0000000E+00;  1.0000126E+03;  4.0000001E-01;  1.0468838E+01;0;  0.0000000E+00;  0.0000000E+00;  0.0000000E+00;0; -8.5013518E-03;  1.0000000E+04;  0.0000000E+00;  0.0000000E+00;  1.0000000E+04;  0.0000000E+00;  1.0000000E+04; -8.5835028E-03;  0.0000000E+00;  8.2151419E-05;  2.0401978E+00;
 -7.9999998E-02;  9.9999998E-03; -5.9999999E-02;302;  0.0000000E+00;  0.0000000E+00;  0.0000000E+00;  1.0000126E+03;  4.0000001E-01;  1.0468838E+01;0;  0.0000000E+00;  0.0000000E+00;  0.0000000E+00;0; -8.5140234E-03;  1.0000000E+04;  0.0000000E+00;  0.0000000E+00;  1.0000000E+04;  0.0000000E+00;  1.0000000E+04; -8.5793547E-03;  0.0000000E+00;  6.5331049E-05;  1.8169426E+00;
 -7.9999998E-02;  9.9999998E-03; -3.9999999E-02;303;  0.0000000E+00;  0.0000000E+00;  0.0000000E+00;  1.0000127E+03;  4.0000001E-01;  1.0468838E+01;0;  0.0000000E+00;  0.0000000E+00;  0.0000000E+00;0; -8.5158125E-03;  1.0000000E+04;  0.0000000E+00;  0.0000000E+00;  1.0000000E+04;  0.0000000E+00;  1.0000000E+04; -8.5686138E-03;  0.0000000E+00;  5.2801213E-05;  1.6504679E+00;
 -7.9999998E-02;  9.9999998E-03; -2.0000000E-02;304;  0.0000000E+00;  0.0000000E+00;  0.0000000E+00;  1.0000127E+03;  4.0000001E-01;  1.0468838E+01;0;  0.0000000E+00;  0.0000000E+00;  0.0000000E+00;0; -8.5140457E-03;  1.0000000E+04;  0.0000000E+00;  0.0000000E+00;  1.0000000E+04;  0.0000000E+00;  1.0000000E+04; -8.5591273E-03;  0.0000000E+00;  4.5081993E-05;  1.5479032E+00;
 -5.9999999E-02;  9.9999998E-03; -1.8000001E-01;337;  0.0000000E+00;  0.0000000E+00;  0.0000000E+00;  1.0000223E+03;  4.0000001E-01;  1.8468611E+01;0;  0.0000000E+00;  0.0000000E+00;  0.0000000E+00;0; -1.5095371E-02;  1.0000000E+04;  0.0000000E+00;  0.0000000E+00;  1.0000000E+04;  0.0000000E+00;  1.0000000E+04; -1.5495569E-02;  0.0000000E+00;  4.0019760E-04;  7.1037450E+00;
 -5.9999999E-02;  9.9999998E-03; -1.6000000E-01;338;  0.0000000E+00;  0.0000000E+00;  0.0000000E+00;  1.0000233E+03;  4.0000001E-01;  1.9258711E+01;0;  0.0000000E+00;  0.0000000E+00;  0.0000000E+00;0; -1.5650107E-02;  1.0000000E+04;  0.0000000E+00;  0.0000000E+00;  1.0000000E+04;  0.0000000E+00;  1.0000000E+04; -1.6037893E-02;  0.0000000E+00;  3.8778680E-04;  6.9819994E+00;
 -5.9999999E-02;  9.9999998E-03; -1.4000000E-01;339;  0.0000000E+00;  0.0000000E+00;  0.0000000E+00;  1.0000238E+03;  4.0000001E-01;  1.9752525E+01;0;  0.0000000E+00;  0.0000000E+00;  0.0000000E+00;0; -1.6027804E-02;  1.0000000E+04;  0.0000000E+00;  0.0000000E+00;  1.0000000E+04;  0.0000000E+00;  1.0000000E+04; -1.6374461E-02;  0.0000000E+00;  3.4665744E-04;  6.4572563E+00;
 -5.9999999E-02;  9.9999998E-03; -1.2000000E-01;340;  0.0000000E+00;  0.0000000E+00;  0.0000000E+00;  1.0000243E+03;  4.0000001E-01;  2.0147575E+01;0;  0.0000000E+00;  0.0000000E+00;  0.0000000E+00;0; -1.6268153E-02;  1.0000000E+04;  0.0000000E+00;  0.0000000E+00;  1.0000000E+04;  0.0000000E+00;  1.0000000E+04; -1.6563622E-02;  0.0000000E+00;  2.9546939E-04;  5.7849321E+00;
 -5.9999999E-02;  9.9999998E-03; -1.0000000E-01;341;  0.0000000E+00;  0.0000000E+00;  0.0000000E+00;  1.0000244E+03;  4.0000001E-01;  2.0147575E+01;0;  0.0000000E+00;  0.0000000E+00;  0.0000000E+00;0; -1.6407626E-02;  1.0000000E+04;  0.0000000E+00;  0.0000000E+00;  1.0000000E+04;  0.0000000E+00;  1.0000000E+04; -1.6651319E-02;  0.0000000E+00;  2.4369417E-04;  5.0970278E+00;
 -5.9999999E-02;  9.9999998E-03; -7.9999998E-02;342;  0.0000000E+00;  0.0000000E+00;  0.0000000E+00;  1.0000244E+03;  4.0000001E-01;  2.0246338E+01;0;  0.0000000E+00;  0.0000000E+00;  0.0000000E+00;0; -1.6478468E-02;  1.0000000E+04;  0.0000000E+00;  0.0000000E+00;  1.0000000E+04;  0.0000000E+00;  1.0000000E+04; -1.6675021E-02;  0.0000000E+00;  1.9655449E-04;  4.4675698E+00;
 -5.9999999E-02;  9.9999998E-03; -5.9999999E-02;343;  0.0000000E+00;  0.0000000E+00;  0.0000000E+00;  1.0000245E+03;  4.0000001E-01;  2.0345100E+01;0;  0.0000000E+00;  0.0000000E+00;  0.0000000E+00;0; -1.6507147E-02;  1.0000000E+04;  0.0000000E+00;  0.0000000E+00;  1.0000000E+04;  0.0000000E+00;  1.0000000E+04; -1.6664470E-02;  0.0000000E+00;  1.5732345E-04;  3.9428432E+00;
 -5.9999999E-02;  9.9999998E-03; -3.9999999E-02;344;  0.0000000E+00;  0.0000000E+00;  0.0000000E+00;  1.0000245E+03;  4.0000001E-01;  2.0345100E+01;0;  0.0000000E+00;  0.0000000E+00;  0.0000000E+00;0; -1.6513811E-02;  1.0000000E+04;  0.0000000E+00;  0.0000000E+00;  1.0000000E+04;  0.0000000E+00;  1.0000000E+04; -1.6641853E-02;  0.0000000E+00;  1.2804252E-04;  3.5511773E+00;
 -5.9999999E-02;  9.9999998E-03; -2.0000000E-02;345;  0.0000000E+00;  0.0000000E+00;  0.0000000E+00;  1.0000245E+03;  4.0000001E-01;  2.0345100E+01;0;  0.0000000E+00;  0.0000000E+00;  0.0000000E+00;0; -1.6512396E-02;  1.0000000E+04;  0.0000000E+00;  0.0000000E+00;  1.0000000E+04;  0.0000000E+00;  1.0000000E+04; -1.6622387E-02;  0.0000000E+00;  1.0999087E-04;  3.3098333E+00;
 -3.9999999E-02;  9.9999998E-03; -1.8000001E-01;378;  0.0000000E+00;  0.0000000E+00;  0.0000000E+00;  1.0000370E+03;  4.0000001E-01;  3.0616413E+01;0;  0.0000000E+00;  0.0000000E+00;  0.0000000E+00;0; -2.4928089E-02;  1.0000000E+04;  0.0000000E+00;  0.0000000E+00;  1.0000000E+04;  0.0000000E+00;  1.0000000E+04; -2.5697991E-02;  0.0000000E+00;  7.6990167E-04;  1.3313686E+01;
 -3.9999999E-02;  9.9999998E-03; -1.6000000E-01;379;  0.0000000E+00;  0.0000000E+00;  0.0000000E+00;  1.0000385E+03;  4.0000001E-01;  3.1900328E+01;0;  0.0000000E+00;  0.0000000E+00;  0.0000000E+00;0; -2.5821069E-02;  1.0000000E+04;  0.0000000E+00;  0.0000000E+00;  1.0000000E+04;  0.0000000E+00;  1.0000000E+04; -2.6570771E-02;  0.0000000E+00;  7.4970216E-04;  1.3098940E+01;
 -3.9999999E-02;  9.9999998E-03; -1.4000000E-01;380;  0.0000000E+00;  0.0000000E+00;  0.0000000E+00;  1.0000394E+03;  4.0000001E-01;  3.2591667E+01;0;  0.0000000E+00;  0.0000000E+00;  0.0000000E+00;0; -2.6433436E-02;  1.0000000E+04;  0.0000000E+00;  0.0000000E+00;  1.0000000E+04;  0.0000000E+00;  1.0000000E+04; -2.7108321E-02;  0.0000000E+00;  6.7488541E-04;  1.2119444E+01;
 -3.9999999E-02;  9.9999998E-03; -1.2000000E-01;381;  0.0000000E+00;  0.0000000E+00;  0.0000000E+00;  1.0000400E+03;  4.0000001E-01;  3.3184242E+01;0;  0.0000000E+00;  0.0000000E+00;  0.0000000E+00;0; -2.6825525E-02;  1.0000000E+04;  0.0000000E+00;  0.0000000E+00;  1.0000000E+04;  0.0000000E+00;  1.0000000E+04; -2.7403755E-02;  0.0000000E+00;  5.7822990E-04;  1.0827435E+01;
 -3.9999999E-02;  9.9999998E-03; -1.0000000E-01;382;  0.0000000E+00;  0.0000000E+00;  0.0000000E+00;  1.0000405E+03;  4.0000001E-01;  3.3480530E+01;0;  0.0000000E+00;  0.0000000E+00;  0.0000000E+00;0; -2.7054919E-02;  1.0000000E+04;  0.0000000E+00;  0.0000000E+00;  1.0000000E+04;  0.0000000E+00;  1.0000000E+04; -2.7534064E-02;  0.0000000E+00;  4.7914436E-04;  9.4929218E+00;
 -3.9999999E-02;  9.9999998E-03; -7.9999998E-02;383;  0.0000000E+00;  0.0000000E+00;  0.0000000E+00;  1.0000406E+03;  4.0000001E-01;  3.3579292E+01;0;  0.0000000E+00;  0.0000000E+00;  0.0000000E+00;0; -2.7173273E-02;  1.0000000E+04;  0.0000000E+00;  0.0000000E+00;  1.0000000E+04;  0.0000000E+00;  1.0000000E+04; -2.7561506E-02;  0.0000000E+00;  3.8823369E-04;  8.2653179E+00;
 -3.9999999E-02;  9.9999998E-03; -5.9999999E-02;384;  0.0000000E+00;  0.0000000E+00;  0.0000000E+00;  1.0000407E+03;  4.0000001E-01;  3.3776817E+01;0;  0.0000000E+00;  0.0000000E+00;  0.0000000E+00;0; -2.7222956E-02;  1.0000000E+04;  0.0000000E+00;  0.0000000E+00;  1.0000000E+04;  0.0000000E+00;  1.0000000E+04; -2.7535215E-02;  0.0000000E+00;  3.1226015E-04;  7.2392521E+00;
 -3.9999999E-02;  9.9999998E-03; -3.9999999E-02;385;  0.0000000E+00;  0.0000000E+00;  0.0000000E+00;  1.0000407E+03;  4.0000001E-01;  3.3776817E+01;0;  0.0000000E+00;  0.0000000E+00;  0.0000000E+00;0; -2.7236264E-02;  1.0000000E+04;  0.0000000E+00;  0.0000000E+00;  1.0000000E+04;  0.0000000E+00;  1.0000000E+04; -2.7491702E-02;  0.0000000E+00;  2.5543739E-04;  6.4725199E+00;
 -3.9999999E-02;  9.9999998E-03; -2.0000000E-02;386;  0.0000000E+00;  0.0000000E+00;  0.0000000E+00;  1.0000408E+03;  4.0000001E-01;  3.3776817E+01;0;  0.0000000E+00;  0.0000000E+00;  0.0000000E+00;0; -2.7235562E-02;  1.0000000E+04;  0.0000000E+00;  0.0000000E+00;  1.0000000E+04;  0.0000000E+00;  1.0000000E+04; -2.7455937E-02;  0.0000000E+00;  2.2037482E-04;  5.9999032E+00;
 -2.0000000E-02;  9.9999998E-03; -1.8000001E-01;419;  0.0000000E+00;  0.0000000E+00;  0.0000000E+00;  1.0000541E+03;  4.0000001E-01;  4.4838230E+01;0;  0.0000000E+00;  0.0000000E+00;  0.0000000E+00;0; -3.6003422E-02;  1.0000000E+04;  0.0000000E+00;  0.0000000E+00;  1.0000000E+04;  0.0000000E+00;  1.0000000E+04; -3.7287049E-02;  0.0000000E+00;  1.2836268E-03;  2.1802860E+01;
 -2.0000000E-02;  9.9999998E-03; -1.6000000E-01;420;  0.0000000E+00;  0.0000000E+00;  0.0000000E+00;  1.0000559E+03;  4.0000001E-01;  4.6319672E+01;0;  0.0000000E+00;  0.0000000E+00;  0.0000000E+00;0; -3.7238732E-02;  1.0000000E+04;  0.0000000E+00;  0.0000000E+00;  1.0000000E+04;  0.0000000E+00;  1.0000000E+04; -3.8490359E-02;  0.0000000E+00;  1.2516259E-03;  2.1418703E+01;
 -2.0000000E-02;  9.9999998E-03; -1.4000000E-01;421;  0.0000000E+00;  0.0000000E+00;  0.0000000E+00;  1.0000570E+03;  4.0000001E-01;  4.7208534E+01;0;  0.0000000E+00;  0.0000000E+00;  0.0000000E+00;0; -3.8088348E-02;  1.0000000E+04;  0.0000000E+00;  0.0000000E+00;  1.0000000E+04;  0.0000000E+00;  1.0000000E+04; -3.9219171E-02;  0.0000000E+00;  1.1308229E-03;  1.9788708E+01;
 -2.0000000E-02;  9.9999998E-03; -1.2000000E-01;422;  0.0000000E+00;  0.0000000E+00;  0.0000000E+00;  1.0000579E+03;  4.0000001E-01;  4.7899872E+01;0;  0.0000000E+00;  0.0000000E+00;  0.0000000E+00;0; -3.8632616E-02;  1.0000000E+04;  0.0000000E+00;  0.0000000E+00;  1.0000000E+04;  0.0000000E+00;  1.0000000E+04; -3.9605472E-02;  0.0000000E+00;  9.7285514E-04;  1.7632933E+01;
 -2.0000000E-02;  9.9999998E-03; -1.0000000E-01;423;  0.0000000E+00;  0.0000000E+00;  0.0000000E+00;  1.0000585E+03;  4.0000001E-01;  4.8393684E+01;0;  0.0000000E+00;  0.0000000E+00;  0.0000000E+00;0; -3.8950976E-02;  1.0000000E+04;  0.0000000E+00;  0.0000000E+00;  1.0000000E+04;  0.0000000E+00;  1.0000000E+04; -3.9760105E-02;  0.0000000E+00;  8.0913078E-04;  1.5391253E+01;
 -2.0000000E-02;  9.9999998E-03; -7.9999998E-02;424;  0.0000000E+00;  0.0000000E+00;  0.0000000E+00;  1.0000588E+03;  4.0000001E-01;  4.8689972E+01;0;  0.0000000E+00;  0.0000000E+00;  0.0000000E+00;0; -3.9115310E-02;  1.0000000E+04;  0.0000000E+00;  0.0000000E+00;  1.0000000E+04;  0.0000000E+00;  1.0000000E+04; -3.9773267E-02;  0.0000000E+00;  6.5795705E-04;  1.3321303E+01;
 -2.0000000E-02;  9.9999998E-03; -5.9999999E-02;425;  0.0000000E+00;  0.0000000E+00;  0.0000000E+00;  1.0000589E+03;  4.0000001E-01;  4.8788734E+01;0;  0.0000000E+00;  0.0000000E+00;  0.0000000E+00;0; -3.9184503E-02;  1.0000000E+04;  0.0000000E+00;  0.0000000E+00;  1.0000000E+04;  0.0000000E+00;  1.0000000E+04; -3.9715655E-02;  0.0000000E+00;  5.3115207E-04;  1.1587551E+01;
 -2.0000000E-02;  9.9999998E-03; -3.9999999E-02;426;  0.0000000E+00;  0.0000000E+00;  0.0000000E+00;  1.0000590E+03;  4.0000001E-01;  4.8887501E+01;0;  0.0000000E+00;  0.0000000E+00;  0.0000000E+00;0; -3.9203241E-02;  1.0000000E+04;  0.0000000E+00;  0.0000000E+00;  1.0000000E+04;  0.0000000E+00;  1.0000000E+04; -3.9639361E-02;  0.0000000E+00;  4.3612142E-04;  1.0290759E+01;
 -2.0000000E-02;  9.9999998E-03; -2.0000000E-02;427;  0.0000000E+00;  0.0000000E+00;  0.0000000E+00;  1.0000590E+03;  4.0000001E-01;  4.8887501E+01;0;  0.0000000E+00;  0.0000000E+00;  0.0000000E+00;0; -3.9202433E-02;  1.0000000E+04;  0.0000000E+00;  0.0000000E+00;  1.0000000E+04;  0.0000000E+00;  1.0000000E+04; -3.9579861E-02;  0.0000000E+00;  3.7742674E-04;  9.4911518E+00;
 -2.2000000E-01;  9.9999998E-03;  0.0000000E+00;19;  0.0000000E+00;  0.0000000E+00;  0.0000000E+00;  1.0000000E+03;  4.0000001E-01;  0.0000000E+00;0;  0.0000000E+00;  0.0000000E+00;  0.0000000E+00;0;  0.0000000E+00;  1.0000000E+04;  0.0000000E+00;  0.0000000E+00;  1.0000000E+04;  0.0000000E+00;  1.0000000E+04;  0.0000000E+00;  0.0000000E+00;  0.0000000E+00;  0.0000000E+00;
 -2.2000000E-01;  9.9999998E-03;  2.0000000E-02;20;  0.0000000E+00;  0.0000000E+00;  0.0000000E+00;  1.0000000E+03;  4.0000001E-01;  0.0000000E+00;0;  0.0000000E+00;  0.0000000E+00;  0.0000000E+00;0;  0.0000000E+00;  1.0000000E+04;  0.0000000E+00;  0.0000000E+00;  1.0000000E+04;  0.0000000E+00;  1.0000000E+04;  0.0000000E+00;  0.0000000E+00;  0.0000000E+00;  0.0000000E+00;
 -2.2000000E-01;  9.9999998E-03;  3.9999999E-02;21;  0.0000000E+00;  0.0000000E+00;  0.0000000E+00;  1.0000000E+03;  4.0000001E-01;  0.0000000E+00;0;  0.0000000E+00;  0.0000000E+00;  0.0000000E+00;0;  0.0000000E+00;  1.0000000E+04;  0.0000000E+00;  0.0000000E+00;  1.0000000E+04;  0.0000000E+00;  1.0000000E+04;  0.0000000E+00;  0.0000000E+00;  0.0000000E+00;  0.0000000E+00;
 -2.2000000E-01;  9.9999998E-03;  5.9999999E-02;22;  0.0000000E+00;  0.0000000E+00;  0.0000000E+00;  1.0000000E+03;  4.0000001E-01;  0.0000000E+00;0;  0.0000000E+00;  0.0000000E+00;  0.0000000E+00;0;  0.0000000E+00;  1.0000000E+04;  0.0000000E+00;  0.0000000E+00;  1.0000000E+04;  0.0000000E+00;  1.0000000E+04;  0.0000000E+00;  0.0000000E+00;  0.0000000E+00;  0.0000000E+00;
 -2.2000000E-01;  9.9999998E-03;  7.9999998E-02;23;  0.0000000E+00;  0.0000000E+00;  0.0000000E+00;  1.0000000E+03;  4.0000001E-01;  0.0000000E+00;0;  0.0000000E+00;  0.0000000E+00;  0.0000000E+00;0;  0.0000000E+00;  1.0000000E+04;  0.0000000E+00;  0.0000000E+00;  1.0000000E+04;  0.0000000E+00;  1.0000000E+04;  0.0000000E+00;  0.0000000E+00;  0.0000000E+00;  0.0000000E+00;
 -2.2000000E-01;  9.9999998E-03;  1.0000000E-01;24;  0.0000000E+00;  0.0000000E+00;  0.0000000E+00;  1.0000000E+03;  4.0000001E-01;  0.0000000E+00;0;  0.0000000E+00;  0.0000000E+00;  0.0000000E+00;0;  0.0000000E+00;  1.0000000E+04;  0.0000000E+00;  0.0000000E+00;  1.0000000E+04;  0.0000000E+00;  1.0000000E+04;  0.0000000E+00;  0.0000000E+00;  0.0000000E+00;  0.0000000E+00;
 -2.2000000E-01;  9.9999998E-03;  1.2000000E-01;25;  0.0000000E+00;  0.0000000E+00;  0.0000000E+00;  1.0000000E+03;  4.0000001E-01;  0.0000000E+00;0;  0.0000000E+00;  0.0000000E+00;  0.0000000E+00;0;  0.0000000E+00;  1.0000000E+04;  0.0000000E+00;  0.0000000E+00;  1.0000000E+04;  0.0000000E+00;  1.0000000E+04;  0.0000000E+00;  0.0000000E+00;  0.0000000E+00;  0.0000000E+00;
 -2.2000000E-01;  9.9999998E-03;  1.4000000E-01;26;  0.0000000E+00;  0.0000000E+00;  0.0000000E+00;  1.0000000E+03;  4.0000001E-01;  0.0000000E+00;0;  0.0000000E+00;  0.0000000E+00;  0.0000000E+00;0;  0.0000000E+00;  1.0000000E+04;  0.0000000E+00;  0.0000000E+00;  1.0000000E+04;  0.0000000E+00;  1.0000000E+04;  0.0000000E+00;  0.0000000E+00;  0.0000000E+00;  0.0000000E+00;
 -2.0000000E-01;  9.9999998E-03;  0.0000000E+00;59;  0.0000000E+00;  0.0000000E+00;  0.0000000E+00;  1.0000000E+03;  4.0000001E-01;  0.0000000E+00;0;  0.0000000E+00;  0.0000000E+00;  0.0000000E+00;0;  0.0000000E+00;  1.0000000E+04;  0.0000000E+00;  0.0000000E+00;  1.0000000E+04;  0.0000000E+00;  1.0000000E+04;  0.0000000E+00;  0.0000000E+00;  0.0000000E+00;  0.0000000E+00;
 -2.0000000E-01;  9.9999998E-03;  2.0000000E-02;60;  0.0000000E+00;  0.0000000E+00;  0.0000000E+00;  1.0000000E+03;  4.0000001E-01;  0.0000000E+00;0;  0.0000000E+00;  0.0000000E+00;  0.0000000E+00;0;  0.0000000E+00;  1.0000000E+04;  0.0000000E+00;  0.0000000E+00;  1.0000000E+04;  0.0000000E+00;  1.0000000E+04;  0.0000000E+00;  0.0000000E+00;  0.0000000E+00;  0.0000000E+00;
 -2.0000000E-01;  9.9999998E-03;  3.9999999E-02;61;  0.0000000E+00;  0.0000000E+00;  0.0000000E+00;  1.0000000E+03;  4.0000001E-01;  0.0000000E+00;0;  0.0000000E+00;  0.0000000E+00;  0.0000000E+00;0;  0.0000000E+00;  1.0000000E+04;  0.0000000E+00;  0.0000000E+00;  1.0000000E+04;  0.0000000E+00;  1.0000000E+04;  0.0000000E+00;  0.0000000E+00;  0.0000000E+00;  0.0000000E+00;
 -2.0000000E-01;  9.9999998E-03;  5.9999999E-02;62;  0.0000000E+00;  0.0000000E+00;  0.0000000E+00;  1.0000000E+03;  4.0000001E-01;  0.0000000E+00;0;  0.0000000E+00;  0.0000000E+00;  0.0000000E+00;0;  0.0000000E+00;  1.0000000E+04;  0.0000000E+00;  0.0000000E+00;  1.0000000E+04;  0.0000000E+00;  1.0000000E+04;  0.0000000E+00;  0.0000000E+00;  0.0000000E+00;  0.0000000E+00;
 -2.0000000E-01;  9.9999998E-03;  7.9999998E-02;63;  0.0000000E+00;  0.0000000E+00;  0.0000000E+00;  1.0000000E+03;  4.0000001E-01;  0.0000000E+00;0;  0.0000000E+00;  0.0000000E+00;  0.0000000E+00;0;  0.0000000E+00;  1.0000000E+04;  0.0000000E+00;  0.0000000E+00;  1.0000000E+04;  0.0000000E+00;  1.0000000E+04;  0.0000000E+00;  0.0000000E+00;  0.0000000E+00;  0.0000000E+00;
 -2.0000000E-01;  9.9999998E-03;  1.0000000E-01;64;  0.0000000E+00;  0.0000000E+00;  0.0000000E+00;  1.0000000E+03;  4.0000001E-01;  0.0000000E+00;0;  0.0000000E+00;  0.0000000E+00;  0.0000000E+00;0;  0.0000000E+00;  1.0000000E+04;  0.0000000E+00;  0.0000000E+00;  1.0000000E+04;  0.0000000E+00;  1.0000000E+04;  0.0000000E+00;  0.0000000E+00;  0.0000000E+00;  0.0000000E+00;
 -2.0000000E-01;  9.9999998E-03;  1.2000000E-01;65;  0.0000000E+00;  0.0000000E+00;  0.0000000E+00;  1.0000000E+03;  4.0000001E-01;  0.0000000E+00;0;  0.0000000E+00;  0.0000000E+00;  0.0000000E+00;0;  0.0000000E+00;  1.0000000E+04;  0.0000000E+00;  0.0000000E+00;  1.0000000E+04;  0.0000000E+00;  1.0000000E+04;  0.0000000E+00;  0.0000000E+00;  0.0000000E+00;  0.0000000E+00;
 -2.0000000E-01;  9.9999998E-03;  1.4000000E-01;66;  0.0000000E+00;  0.0000000E+00;  0.0000000E+00;  1.0000000E+03;  4.0000001E-01;  0.0000000E+00;0;  0.0000000E+00;  0.0000000E+00;  0.0000000E+00;0;  0.0000000E+00;  1.0000000E+04;  0.0000000E+00;  0.0000000E+00;  1.0000000E+04;  0.0000000E+00;  1.0000000E+04;  0.0000000E+00;  0.0000000E+00;  0.0000000E+00;  0.0000000E+00;
 -1.8000001E-01;  9.9999998E-03;  0.0000000E+00;100;  0.0000000E+00;  0.0000000E+00;  0.0000000E+00;  1.0000000E+03;  4.0000001E-01;  0.0000000E+00;0;  0.0000000E+00;  0.0000000E+00;  0.0000000E+00;0;  0.0000000E+00;  1.0000000E+04;  0.0000000E+00;  0.0000000E+00;  1.0000000E+04;  0.0000000E+00;  1.0000000E+04;  0.0000000E+00;  0.0000000E+00;  0.0000000E+00;  0.0000000E+00;
 -1.8000001E-01;  9.9999998E-03;  2.0000000E-02;101;  0.0000000E+00;  0.0000000E+00;  0.0000000E+00;  1.0000000E+03;  4.0000001E-01;  0.0000000E+00;0;  0.0000000E+00;  0.0000000E+00;  0.0000000E+00;0;  0.0000000E+00;  1.0000000E+04;  0.0000000E+00;  0.0000000E+00;  1.0000000E+04;  0.0000000E+00;  1.0000000E+04;  0.0000000E+00;  0.0000000E+00;  0.0000000E+00;  0.0000000E+00;
 -1.8000001E-01;  9.9999998E-03;  3.9999999E-02;102;  0.0000000E+00;  0.0000000E+00;  0.0000000E+00;  1.0000000E+03;  4.0000001E-01;  0.0000000E+00;0;  0.0000000E+00;  0.0000000E+00;  0.0000000E+00;0;  0.0000000E+00;  1.0000000E+04;  0.0000000E+00;  0.0000000E+00;  1.0000000E+04;  0.0000000E+00;  1.0000000E+04;  0.0000000E+00;  0.0000000E+00;  0.0000000E+00;  0.0000000E+00;
 -1.8000001E-01;  9.9999998E-03;  5.9999999E-02;103;  0.0000000E+00;  0.0000000E+00;  0.0000000E+00;  1.0000000E+03;  4.0000001E-01;  0.0000000E+00;0;  0.0000000E+00;  0.0000000E+00;  0.0000000E+00;0;  0.0000000E+00;  1.0000000E+04;  0.0000000E+00;  0.0000000E+00;  1.0000000E+04;  0.0000000E+00;  1.0000000E+04;  0.0000000E+00;  0.0000000E+00;  0.0000000E+00;  0.0000000E+00;
 -1.8000001E-01;  9.9999998E-03;  7.9999998E-02;104;  0.0000000E+00;  0.0000000E+00;  0.0000000E+00;  1.0000000E+03;  4.0000001E-01;  0.0000000E+00;0;  0.0000000E+00;  0.0000000E+00;  0.0000000E+00;0;  0.0000000E+00;  1.0000000E+04;  0.0000000E+00;  0.0000000E+00;  1.0000000E+04;  0.0000000E+00;  1.0000000E+04;  0.0000000E+00;  0.0000000E+00;  0.0000000E+00;  0.0000000E+00;
 -1.8000001E-01;  9.9999998E-03;  1.0000000E-01;105;  0.0000000E+00;  0.0000000E+00;  0.0000000E+00;  1.0000000E+03;  4.0000001E-01;  0.0000000E+00;0;  0.0000000E+00;  0.0000000E+00;  0.0000000E+00;0;  0.0000000E+00;  1.0000000E+04;  0.0000000E+00;  0.0000000E+00;  1.0000000E+04;  0.0000000E+00;  1.0000000E+04;  0.0000000E+00;  0.0000000E+00;  0.0000000E+00;  0.0000000E+00;
 -1.8000001E-01;  9.9999998E-03;  1.2000000E-01;106;  0.0000000E+00;  0.0000000E+00;  0.0000000E+00;  1.0000000E+03;  4.0000001E-01;  0.0000000E+00;0;  0.0000000E+00;  0.0000000E+00;  0.0000000E+00;0;  0.0000000E+00;  1.0000000E+04;  0.0000000E+00;  0.0000000E+00;  1.0000000E+04;  0.0000000E+00;  1.0000000E+04;  0.0000000E+00;  0.0000000E+00;  0.0000000E+00;  0.0000000E+00;
 -1.8000001E-01;  9.9999998E-03;  1.4000000E-01;107;  0.0000000E+00;  0.0000000E+00;  0.0000000E+00;  1.0000000E+03;  4.0000001E-01;  0.0000000E+00;0;  0.0000000E+00;  0.0000000E+00;  0.0000000E+00;0;  0.0000000E+00;  1.0000000E+04;  0.0000000E+00;  0.0000000E+00;  1.0000000E+04;  0.0000000E+00;  1.0000000E+04;  0.0000000E+00;  0.0000000E+00;  0.0000000E+00;  0.0000000E+00;
 -1.6000000E-01;  9.9999998E-03;  0.0000000E+00;141;  0.0000000E+00;  0.0000000E+00;  0.0000000E+00;  1.0000000E+03;  4.0000001E-01;  0.0000000E+00;0;  0.0000000E+00;  0.0000000E+00;  0.0000000E+00;0; -5.4650068E-06;  1.0000000E+04;  0.0000000E+00;  0.0000000E+00;  1.0000000E+04;  0.0000000E+00;  1.0000000E+04; -5.4668835E-06;  0.0000000E+00;  1.8766779E-09;  6.3428690E-04;
 -1.6000000E-01;  9.9999998E-03;  2.0000000E-02;142;  0.0000000E+00;  0.0000000E+00;  0.0000000E+00;  1.0000000E+03;  4.0000001E-01;  0.0000000E+00;0;  0.0000000E+00;  0.0000000E+00;  0.0000000E+00;0; -5.4683078E-06;  1.0000000E+04;  0.0000000E+00;  0.0000000E+00;  1.0000000E+04;  0.0000000E+00;  1.0000000E+04; -5.4703510E-06;  0.0000000E+00;  2.0434032E-09;  6.3674827E-04;
 -1.6000000E-01;  9.9999998E-03;  3.9999999E-02;143;  0.0000000E+00;  0.0000000E+00;  0.0000000E+00;  1.0000000E+03;  4.0000001E-01;  0.0000000E+00;0;  0.0000000E+00;  0.0000000E+00;  0.0000000E+00;0; -5.4773304E-06;  1.0000000E+04;  0.0000000E+00;  0.0000000E+00;  1.0000000E+04;  0.0000000E+00;  1.0000000E+04; -5.4798656E-06;  0.0000000E+00;  2.5352178E-09;  6.4396206E-04;
 -1.6000000E-01;  9.9999998E-03;  5.9999999E-02;144;  0.0000000E+00;  0.0000000E+00;  0.0000000E+00;  1.0000000E+03;  4.0000001E-01;  0.0000000E+00;0;  0.0000000E+00;  0.0000000E+00;  0.0000000E+00;0; -5.4893962E-06;  1.0000000E+04;  0.0000000E+00;  0.0000000E+00;  1.0000000E+04;  0.0000000E+00;  1.0000000E+04; -5.4927350E-06;  0.0000000E+00;  3.3386807E-09;  6.5549935E-04;
 -1.6000000E-01;  9.9999998E-03;  7.9999998E-02;145;  0.0000000E+00;  0.0000000E+00;  0.0000000E+00;  1.0000000E+03;  4.0000001E-01;  0.0000000E+00;0;  0.0000000E+00;  0.0000000E+00;  0.0000000E+00;0; -5.4998786E-06;  1.0000000E+04;  0.0000000E+00;  0.0000000E+00;  1.0000000E+04;  0.0000000E+00;  1.0000000E+04; -5.5042924E-06;  0.0000000E+00;  4.4136987E-09;  6.7040534E-04;
 -1.6000000E-01;  9.9999998E-03;  1.0000000E-01;146;  0.0000000E+00;  0.0000000E+00;  0.0000000E+00;  1.0000000E+03;  4.0000001E-01;  0.0000000E+00;0;  0.0000000E+00;  0.0000000E+00;  0.0000000E+00;0; -5.5018822E-06;  1.0000000E+04;  0.0000000E+00;  0.0000000E+00;  1.0000000E+04;  0.0000000E+00;  1.0000000E+04; -5.5076116E-06;  0.0000000E+00;  5.7293610E-09;  6.8761397E-04;
 -1.6000000E-01;  9.9999998E-03;  1.2000000E-01;147;  0.0000000E+00;  0.0000000E+00;  0.0000000E+00;  1.0000000E+03;  4.0000001E-01;  0.0000000E+00;0;  0.0000000E+00;  0.0000000E+00;  0.0000000E+00;0; -5.4859802E-06;  1.0000000E+04;  0.0000000E+00;  0.0000000E+00;  1.0000000E+04;  0.0000000E+00;  1.0000000E+04; -5.4932070E-06;  0.0000000E+00;  7.2269084E-09;  7.0541480E-04;
 -1.6000000E-01;  9.9999998E-03;  1.4000000E-01;148;  0.0000000E+00;  0.0000000E+00;  0.0000000E+00;  1.0000000E+03;  4.0000001E-01;  0.0000000E+00;0;  0.0000000E+00;  0.0000000E+00;  0.0000000E+00;0; -5.4399907E-06;  1.0000000E+04;  0.0000000E+00;  0.0000000E+00;  1.0000000E+04;  0.0000000E+00;  1.0000000E+04; -5.4488200E-06;  0.0000000E+00;  8.8294119E-09;  7.2140852E-04;
 -1.4000000E-01;  9.9999998E-03;  0.0000000E+00;182;  0.0000000E+00;  0.0000000E+00;  0.0000000E+00;  1.0000002E+03;  4.0000001E-01;  1.9752525E-01;0;  0.0000000E+00;  0.0000000E+00;  0.0000000E+00;0; -2.0141072E-04;  1.0000000E+04;  0.0000000E+00;  0.0000000E+00;  1.0000000E+04;  0.0000000E+00;  1.0000000E+04; -2.0167389E-04;  0.0000000E+00;  2.6317130E-07;  2.5907720E-02;
 -1.4000000E-01;  9.9999998E-03;  2.0000000E-02;183;  0.0000000E+00;  0.0000000E+00;  0.0000000E+00;  1.0000002E+03;  4.0000001E-01;  1.9752525E-01;0;  0.0000000E+00;  0.0000000E+00;  0.0000000E+00;0; -2.0149416E-04;  1.0000000E+04;  0.0000000E+00;  0.0000000E+00;  1.0000000E+04;  0.0000000E+00;  1.0000000E+04; -2.0177783E-04;  0.0000000E+00;  2.8367955E-07;  2.6182331E-02;
 -1.4000000E-01;  9.9999998E-03;  3.9999999E-02;184;  0.0000000E+00;  0.0000000E+00;  0.0000000E+00;  1.0000002E+03;  4.0000001E-01;  1.9752525E-01;0;  0.0000000E+00;  0.0000000E+00;  0.0000000E+00;0; -2.0171152E-04;  1.0000000E+04;  0.0000000E+00;  0.0000000E+00;  1.0000000E+04;  0.0000000E+00;  1.0000000E+04; -2.0205580E-04;  0.0000000E+00;  3.4428061E-07;  2.6992200E-02;
 -1.4000000E-01;  9.9999998E-03;  5.9999999E-02;185;  0.0000000E+00;  0.0000000E+00;  0.0000000E+00;  1.0000002E+03;  4.0000001E-01;  1.9752525E-01;0;  0.0000000E+00;  0.0000000E+00;  0.0000000E+00;0; -2.0196129E-04;  1.0000000E+04;  0.0000000E+00;  0.0000000E+00;  1.0000000E+04;  0.0000000E+00;  1.0000000E+04; -2.0240404E-04;  0.0000000E+00;  4.4275083E-07;  2.8301466E-02;
 -1.4000000E-01;  9.9999998E-03;  7.9999998E-02;186;  0.0000000E+00;  0.0000000E+00;  0.0000000E+00;  1.0000002E+03;  4.0000001E-01;  1.9752525E-01;0;  0.0000000E+00;  0.0000000E+00;  0.0000000E+00;0; -2.0206791E-04;  1.0000000E+04;  0.0000000E+00;  0.0000000E+00;  1.0000000E+04;  0.0000000E+00;  1.0000000E+04; -2.0264322E-04;  0.0000000E+00;  5.7531435E-07;  3.0048583E-02;
 -1.4000000E-01;  9.9999998E-03;  1.0000000E-01;187;  0.0000000E+00;  0.0000000E+00;  0.0000000E+00;  1.0000002E+03;  4.0000001E-01;  1.9752525E-01;0;  0.0000000E+00;  0.0000000E+00;  0.0000000E+00;0; -2.0177431E-04;  1.0000000E+04;  0.0000000E+00;  0.0000000E+00;  1.0000000E+04;  0.0000000E+00;  1.0000000E+04; -2.0251075E-04;  0.0000000E+00;  7.3643696E-07;  3.2138772E-02;
 -1.4000000E-01;  9.9999998E-03;  1.2000000E-01;188;  0.0000000E+00;  0.0000000E+00;  0.0000000E+00;  1.0000002E+03;  4.0000001E-01;  1.9752525E-01;0;  0.0000000E+00;  0.0000000E+00;  0.0000000E+00;0; -2.0073107E-04;  1.0000000E+04;  0.0000000E+00;  0.0000000E+00;  1.0000000E+04;  0.0000000E+00;  1.0000000E+04; -2.0165088E-04;  0.0000000E+00;  9.1981894E-07;  3.4453556E-02;
 -1.4000000E-01;  9.9999998E-03;  1.4000000E-01;189;  0.0000000E+00;  0.0000000E+00;  0.0000000E+00;  1.0000002E+03;  4.0000001E-01;  1.9752525E-01;0;  0.0000000E+00;  0.0000000E+00;  0.0000000E+00;0; -1.9849632E-04;  1.0000000E+04;  0.0000000E+00;  0.0000000E+00;  1.0000000E+04;  0.0000000E+00;  1.0000000E+04; -1.9961127E-04;  0.0000000E+00;  1.1149482E-06;  3.6805358E-02;
 -1.2000000E-01;  9.9999998E-03;  0.0000000E+00;223;  0.0000000E+00;  0.0000000E+00;  0.0000000E+00;  1.0000016E+03;  4.0000001E-01;  1.2839141E+00;0;  0.0000000E+00;  0.0000000E+00;  0.0000000E+00;0; -1.1186218E-03;  1.0000000E+04;  0.0000000E+00;  0.0000000E+00;  1.0000000E+04;  0.0000000E+00;  1.0000000E+04; -1.1213676E-03;  0.0000000E+00;  2.7457975E-06;  1.6087534E-01;
 -1.2000000E-01;  9.9999998E-03;  2.0000000E-02;224;  0.0000000E+00;  0.0000000E+00;  0.0000000E+00;  1.0000016E+03;  4.0000001E-01;  1.2839141E+00;0;  0.0000000E+00;  0.0000000E+00;  0.0000000E+00;0; -1.1189418E-03;  1.0000000E+04;  0.0000000E+00;  0.0000000E+00;  1.0000000E+04;  0.0000000E+00;  1.0000000E+04; -1.1218806E-03;  0.0000000E+00;  2.9388066E-06;  1.6343051E-01;
 -1.2000000E-01;  9.9999998E-03;  3.9999999E-02;225;  0.0000000E+00;  0.0000000E+00;  0.0000000E+00;  1.0000016E+03;  4.0000001E-01;  1.2839141E+00;0;  0.0000000E+00;  0.0000000E+00;  0.0000000E+00;0; -1.1197157E-03;  1.0000000E+04;  0.0000000E+00;  0.0000000E+00;  1.0000000E+04;  0.0000000E+00;  1.0000000E+04; -1.1232267E-03;  0.0000000E+00;  3.5109811E-06;  1.7099914E-01;
 -1.2000000E-01;  9.9999998E-03;  5.9999999E-02;226;  0.0000000E+00;  0.0000000E+00;  0.0000000E+00;  1.0000016E+03;  4.0000001E-01;  1.2839141E+00;0;  0.0000000E+00;  0.0000000E+00;  0.0000000E+00;0; -1.1203757E-03;  1.0000000E+04;  0.0000000E+00;  0.0000000E+00;  1.0000000E+04;  0.0000000E+00;  1.0000000E+04; -1.1248160E-03;  0.0000000E+00;  4.4402714E-06;  1.8326931E-01;
 -1.2000000E-01;  9.9999998E-03;  7.9999998E-02;227;  0.0000000E+00;  0.0000000E+00;  0.0000000E+00;  1.0000016E+03;  4.0000001E-01;  1.2839141E+00;0;  0.0000000E+00;  0.0000000E+00;  0.0000000E+00;0; -1.1199448E-03;  1.0000000E+04;  0.0000000E+00;  0.0000000E+00;  1.0000000E+04;  0.0000000E+00;  1.0000000E+04; -1.1256351E-03;  0.0000000E+00;  5.6902136E-06;  1.9970523E-01;
 -1.2000000E-01;  9.9999998E-03;  1.0000000E-01;228;  0.0000000E+00;  0.0000000E+00;  0.0000000E+00;  1.0000016E+03;  4.0000001E-01;  1.2839141E+00;0;  0.0000000E+00;  0.0000000E+00;  0.0000000E+00;0; -1.1169906E-03;  1.0000000E+04;  0.0000000E+00;  0.0000000E+00;  1.0000000E+04;  0.0000000E+00;  1.0000000E+04; -1.1242008E-03;  0.0000000E+00;  7.2101689E-06;  2.1952711E-01;
 -1.2000000E-01;  9.9999998E-03;  1.2000000E-01;229;  0.0000000E+00;  0.0000000E+00;  0.0000000E+00;  1.0000016E+03;  4.0000001E-01;  1.2839141E+00;0;  0.0000000E+00;  0.0000000E+00;  0.0000000E+00;0; -1.1096011E-03;  1.0000000E+04;  0.0000000E+00;  0.0000000E+00;  1.0000000E+04;  0.0000000E+00;  1.0000000E+04; -1.1185260E-03;  0.0000000E+00;  8.9248351E-06;  2.4155317E-01;
 -1.2000000E-01;  9.9999998E-03;  1.4000000E-01;230;  0.0000000E+00;  0.0000000E+00;  0.0000000E+00;  1.0000015E+03;  4.0000001E-01;  1.2839141E+00;0;  0.0000000E+00;  0.0000000E+00;  0.0000000E+00;0; -1.0953891E-03;  1.0000000E+04;  0.0000000E+00;  0.0000000E+00;  1.0000000E+04;  0.0000000E+00;  1.0000000E+04; -1.1061028E-03;  0.0000000E+00;  1.0713647E-05;  2.6389995E-01;
 -1.0000000E-01;  9.9999998E-03;  0.0000000E+00;264;  0.0000000E+00;  0.0000000E+00;  0.0000000E+00;  1.0000052E+03;  4.0000001E-01;  4.3455553E+00;0;  0.0000000E+00;  0.0000000E+00;  0.0000000E+00;0; -3.5740661E-03;  1.0000000E+04;  0.0000000E+00;  0.0000000E+00;  1.0000000E+04;  0.0000000E+00;  1.0000000E+04; -3.5873370E-03;  0.0000000E+00;  1.3270866E-05;  5.7393551E-01;
 -1.0000000E-01;  9.9999998E-03;  2.0000000E-02;265;  0.0000000E+00;  0.0000000E+00;  0.0000000E+00;  1.0000052E+03;  4.0000001E-01;  4.3455553E+00;0;  0.0000000E+00;  0.0000000E+00;  0.0000000E+00;0; -3.5747460E-03;  1.0000000E+04;  0.0000000E+00;  0.0000000E+00;  1.0000000E+04;  0.0000000E+00;  1.0000000E+04; -3.5888806E-03;  0.0000000E+00;  1.4134745E-05;  5.8536738E-01;
 -1.0000000E-01;  9.9999998E-03;  3.9999999E-02;266;  0.0000000E+00;  0.0000000E+00;  0.0000000E+00;  1.0000052E+03;  4.0000001E-01;  4.3455553E+00;0;  0.0000000E+00;  0.0000000E+00;  0.0000000E+00;0; -3.5761914E-03;  1.0000000E+04;  0.0000000E+00;  0.0000000E+00;  1.0000000E+04;  0.0000000E+00;  1.0000000E+04; -3.5928853E-03;  0.0000000E+00;  1.6693906E-05;  6.1923254E-01;
 -1.0000000E-01;  9.9999998E-03;  5.9999999E-02;267;  0.0000000E+00;  0.0000000E+00;  0.0000000E+00;  1.0000052E+03;  4.0000001E-01;  4.3455553E+00;0;  0.0000000E+00;  0.0000000E+00;  0.0000000E+00;0; -3.5765937E-03;  1.0000000E+04;  0.0000000E+00;  0.0000000E+00;  1.0000000E+04;  0.0000000E+00;  1.0000000E+04; -3.5974430E-03;  0.0000000E+00;  2.0849368E-05;  6.7418450E-01;
 -1.0000000E-01;  9.9999998E-03;  7.9999998E-02;268;  0.0000000E+00;  0.0000000E+00;  0.0000000E+00;  1.0000052E+03;  4.0000001E-01;  4.3455553E+00;0;  0.0000000E+00;  0.0000000E+00;  0.0000000E+00;0; -3.5728395E-03;  1.0000000E+04;  0.0000000E+00;  0.0000000E+00;  1.0000000E+04;  0.0000000E+00;  1.0000000E+04; -3.5992758E-03;  0.0000000E+00;  2.6436273E-05;  7.4790466E-01;
 -1.0000000E-01;  9.9999998E-03;  1.0000000E-01;269;  0.0000000E+00;  0.0000000E+00;  0.0000000E+00;  1.0000051E+03;  4.0000001E-01;  4.2467928E+00;0;  0.0000000E+00;  0.0000000E+00;  0.0000000E+00;0; -3.5604045E-03;  1.0000000E+04;  0.0000000E+00;  0.0000000E+00;  1.0000000E+04;  0.0000000E+00;  1.0000000E+04; -3.5936111E-03;  0.0000000E+00;  3.3206517E-05;  8.3679068E-01;
 -1.0000000E-01;  9.9999998E-03;  1.2000000E-01;270;  0.0000000E+00;  0.0000000E+00;  0.0000000E+00;  1.0000050E+03;  4.0000001E-01;  4.1480303E+00;0;  0.0000000E+00;  0.0000000E+00;  0.0000000E+00;0; -3.5332832E-03;  1.0000000E+04;  0.0000000E+00;  0.0000000E+00;  1.0000000E+04;  0.0000000E+00;  1.0000000E+04; -3.5740614E-03;  0.0000000E+00;  4.0778166E-05;  9.3518108E-01;
 -1.0000000E-01;  9.9999998E-03;  1.4000000E-01;271;  0.0000000E+00;  0.0000000E+00;  0.0000000E+00;  1.0000050E+03;  4.0000001E-01;  4.1480303E+00;0;  0.0000000E+00;  0.0000000E+00;  0.0000000E+00;0; -3.4840761E-03;  1.0000000E+04;  0.0000000E+00;  0.0000000E+00;  1.0000000E+04;  0.0000000E+00;  1.0000000E+04; -3.5326038E-03;  0.0000000E+00;  4.8527821E-05;  1.0338658E+00;
 -7.9999998E-02;  9.9999998E-03;  0.0000000E+00;305;  0.0000000E+00;  0.0000000E+00;  0.0000000E+00;  1.0000127E+03;  4.0000001E-01;  1.0468838E+01;0;  0.0000000E+00;  0.0000000E+00;  0.0000000E+00;0; -8.5129878E-03;  1.0000000E+04;  0.0000000E+00;  0.0000000E+00;  1.0000000E+04;  0.0000000E+00;  1.0000000E+04; -8.5554626E-03;  0.0000000E+00;  4.2475232E-05;  1.5132747E+00;
 -7.9999998E-02;  9.9999998E-03;  2.0000000E-02;306;  0.0000000E+00;  0.0000000E+00;  0.0000000E+00;  1.0000127E+03;  4.0000001E-01;  1.0468838E+01;0;  0.0000000E+00;  0.0000000E+00;  0.0000000E+00;0; -8.5140495E-03;  1.0000000E+04;  0.0000000E+00;  0.0000000E+00;  1.0000000E+04;  0.0000000E+00;  1.0000000E+04; -8.5591311E-03;  0.0000000E+00;  4.5082012E-05;  1.5479037E+00;
 -7.9999998E-02;  9.9999998E-03;  3.9999999E-02;307;  0.0000000E+00;  0.0000000E+00;  0.0000000E+00;  1.0000127E+03;  4.0000001E-01;  1.0468838E+01;0;  0.0000000E+00;  0.0000000E+00;  0.0000000E+00;0; -8.5158134E-03;  1.0000000E+04;  0.0000000E+00;  0.0000000E+00;  1.0000000E+04;  0.0000000E+00;  1.0000000E+04; -8.5686147E-03;  0.0000000E+00;  5.2801246E-05;  1.6504682E+00;
 -7.9999998E-02;  9.9999998E-03;  5.9999999E-02;308;  0.0000000E+00;  0.0000000E+00;  0.0000000E+00;  1.0000126E+03;  4.0000001E-01;  1.0468838E+01;0;  0.0000000E+00;  0.0000000E+00;  0.0000000E+00;0; -8.5140262E-03;  1.0000000E+04;  0.0000000E+00;  0.0000000E+00;  1.0000000E+04;  0.0000000E+00;  1.0000000E+04; -8.5793575E-03;  0.0000000E+00;  6.5331071E-05;  1.8169430E+00;
 -7.9999998E-02;  9.9999998E-03;  7.9999998E-02;309;  0.0000000E+00;  0.0000000E+00;  0.0000000E+00;  1.0000126E+03;  4.0000001E-01;  1.0468838E+01;0;  0.0000000E+00;  0.0000000E+00;  0.0000000E+00;0; -8.5013546E-03;  1.0000000E+04;  0.0000000E+00;  0.0000000E+00;  1.0000000E+04;  0.0000000E+00;  1.0000000E+04; -8.5835056E-03;  0.0000000E+00;  8.2151462E-05;  2.0401986E+00;
 -7.9999998E-02;  9.9999998E-03;  1.0000000E-01;310;  0.0000000E+00;  0.0000000E+00;  0.0000000E+00;  1.0000126E+03;  4.0000001E-01;  1.0468838E+01;0;  0.0000000E+00;  0.0000000E+00;  0.0000000E+00;0; -8.4671844E-03;  1.0000000E+04;  0.0000000E+00;  0.0000000E+00;  1.0000000E+04;  0.0000000E+00;  1.0000000E+04; -8.5696364E-03;  0.0000000E+00;  1.0245201E-04;  2.3087871E+00;
 -7.9999998E-02;  9.9999998E-03;  1.2000000E-01;311;  0.0000000E+00;  0.0000000E+00;  0.0000000E+00;  1.0000124E+03;  4.0000001E-01;  1.0271313E+01;0;  0.0000000E+00;  0.0000000E+00;  0.0000000E+00;0; -8.3975242E-03;  1.0000000E+04;  0.0000000E+00;  0.0000000E+00;  1.0000000E+04;  0.0000000E+00;  1.0000000E+04; -8.5224714E-03;  0.0000000E+00;  1.2494704E-04;  2.6042125E+00;
 -7.9999998E-02;  9.9999998E-03;  1.4000000E-01;312;  0.0000000E+00;  0.0000000E+00;  0.0000000E+00;  1.0000121E+03;  4.0000001E-01;  9.9750252E+00;0;  0.0000000E+00;  0.0000000E+00;  0.0000000E+00;0; -8.2752667E-03;  1.0000000E+04;  0.0000000E+00;  0.0000000E+00;  1.0000000E+04;  0.0000000E+00;  1.0000000E+04; -8.4228190E-03;  0.0000000E+00;  1.4755213E-04;  2.8965187E+00;
 -5.9999999E-02;  9.9999998E-03;  0.0000000E+00;346;  0.0000000E+00;  0.0000000E+00;  0.0000000E+00;  1.0000245E+03;  4.0000001E-01;  2.0345100E+01;0;  0.0000000E+00;  0.0000000E+00;  0.0000000E+00;0; -1.6511034E-02;  1.0000000E+04;  0.0000000E+00;  0.0000000E+00;  1.0000000E+04;  0.0000000E+00;  1.0000000E+04; -1.6614927E-02;  0.0000000E+00;  1.0389297E-04;  3.2283390E+00;
 -5.9999999E-02;  9.9999998E-03;  2.0000000E-02;347;  0.0000000E+00;  0.0000000E+00;  0.0000000E+00;  1.0000245E+03;  4.0000001E-01;  2.0345100E+01;0;  0.0000000E+00;  0.0000000E+00;  0.0000000E+00;0; -1.6512392E-02;  1.0000000E+04;  0.0000000E+00;  0.0000000E+00;  1.0000000E+04;  0.0000000E+00;  1.0000000E+04; -1.6622383E-02;  0.0000000E+00;  1.0999089E-04;  3.3098333E+00;
 -5.9999999E-02;  9.9999998E-03;  3.9999999E-02;348;  0.0000000E+00;  0.0000000E+00;  0.0000000E+00;  1.0000245E+03;  4.0000001E-01;  2.0345100E+01;0;  0.0000000E+00;  0.0000000E+00;  0.0000000E+00;0; -1.6513817E-02;  1.0000000E+04;  0.0000000E+00;  0.0000000E+00;  1.0000000E+04;  0.0000000E+00;  1.0000000E+04; -1.6641859E-02;  0.0000000E+00;  1.2804258E-04;  3.5511777E+00;
 -5.9999999E-02;  9.9999998E-03;  5.9999999E-02;349;  0.0000000E+00;  0.0000000E+00;  0.0000000E+00;  1.0000245E+03;  4.0000001E-01;  2.0345100E+01;0;  0.0000000E+00;  0.0000000E+00;  0.0000000E+00;0; -1.6507147E-02;  1.0000000E+04;  0.0000000E+00;  0.0000000E+00;  1.0000000E+04;  0.0000000E+00;  1.0000000E+04; -1.6664470E-02;  0.0000000E+00;  1.5732351E-04;  3.9428434E+00;
 -5.9999999E-02;  9.9999998E-03;  7.9999998E-02;350;  0.0000000E+00;  0.0000000E+00;  0.0000000E+00;  1.0000244E+03;  4.0000001E-01;  2.0246338E+01;0;  0.0000000E+00;  0.0000000E+00;  0.0000000E+00;0; -1.6478468E-02;  1.0000000E+04;  0.0000000E+00;  0.0000000E+00;  1.0000000E+04;  0.0000000E+00;  1.0000000E+04; -1.6675021E-02;  0.0000000E+00;  1.9655457E-04;  4.4675703E+00;
 -5.9999999E-02;  9.9999998E-03;  1.0000000E-01;351;  0.0000000E+00;  0.0000000E+00;  0.0000000E+00;  1.0000244E+03;  4.0000001E-01;  2.0147575E+01;0;  0.0000000E+00;  0.0000000E+00;  0.0000000E+00;0; -1.6407624E-02;  1.0000000E+04;  0.0000000E+00;  0.0000000E+00;  1.0000000E+04;  0.0000000E+00;  1.0000000E+04; -1.6651317E-02;  0.0000000E+00;  2.4369430E-04;  5.0970287E+00;
 -5.9999999E-02;  9.9999998E-03;  1.2000000E-01;352;  0.0000000E+00;  0.0000000E+00;  0.0000000E+00;  1.0000243E+03;  4.0000001E-01;  2.0147575E+01;0;  0.0000000E+00;  0.0000000E+00;  0.0000000E+00;0; -1.6268156E-02;  1.0000000E+04;  0.0000000E+00;  0.0000000E+00;  1.0000000E+04;  0.0000000E+00;  1.0000000E+04; -1.6563626E-02;  0.0000000E+00;  2.9546948E-04;  5.7849326E+00;
 -5.9999999E-02;  9.9999998E-03;  1.4000000E-01;353;  0.0000000E+00;  0.0000000E+00;  0.0000000E+00;  1.0000238E+03;  4.0000001E-01;  1.9752525E+01;0;  0.0000000E+00;  0.0000000E+00;  0.0000000E+00;0; -1.6027808E-02;  1.0000000E+04;  0.0000000E+00;  0.0000000E+00;  1.0000000E+04;  0.0000000E+00;  1.0000000E+04; -1.6374465E-02;  0.0000000E+00;  3.4665750E-04;  6.4572568E+00;
 -3.9999999E-02;  9.9999998E-03;  0.0000000E+00;387;  0.0000000E+00;  0.0000000E+00;  0.0000000E+00;  1.0000408E+03;  4.0000001E-01;  3.3776817E+01;0;  0.0000000E+00;  0.0000000E+00;  0.0000000E+00;0; -2.7233910E-02;  1.0000000E+04;  0.0000000E+00;  0.0000000E+00;  1.0000000E+04;  0.0000000E+00;  1.0000000E+04; -2.7442439E-02;  0.0000000E+00;  2.0852778E-04;  5.8403182E+00;
 -3.9999999E-02;  9.9999998E-03;  2.0000000E-02;388;  0.0000000E+00;  0.0000000E+00;  0.0000000E+00;  1.0000408E+03;  4.0000001E-01;  3.3776817E+01;0;  0.0000000E+00;  0.0000000E+00;  0.0000000E+00;0; -2.7235558E-02;  1.0000000E+04;  0.0000000E+00;  0.0000000E+00;  1.0000000E+04;  0.0000000E+00;  1.0000000E+04; -2.7455933E-02;  0.0000000E+00;  2.2037484E-04;  5.9999037E+00;
 -3.9999999E-02;  9.9999998E-03;  3.9999999E-02;389;  0.0000000E+00;  0.0000000E+00;  0.0000000E+00;  1.0000407E+03;  4.0000001E-01;  3.3776817E+01;0;  0.0000000E+00;  0.0000000E+00;  0.0000000E+00;0; -2.7236262E-02;  1.0000000E+04;  0.0000000E+00;  0.0000000E+00;  1.0000000E+04;  0.0000000E+00;  1.0000000E+04; -2.7491700E-02;  0.0000000E+00;  2.5543754E-04;  6.4725199E+00;
 -3.9999999E-02;  9.9999998E-03;  5.9999999E-02;390;  0.0000000E+00;  0.0000000E+00;  0.0000000E+00;  1.0000407E+03;  4.0000001E-01;  3.3776817E+01;0;  0.0000000E+00;  0.0000000E+00;  0.0000000E+00;0; -2.7222959E-02;  1.0000000E+04;  0.0000000E+00;  0.0000000E+00;  1.0000000E+04;  0.0000000E+00;  1.0000000E+04; -2.7535219E-02;  0.0000000E+00;  3.1226032E-04;  7.2392530E+00;
 -3.9999999E-02;  9.9999998E-03;  7.9999998E-02;391;  0.0000000E+00;  0.0000000E+00;  0.0000000E+00;  1.0000406E+03;  4.0000001E-01;  3.3579292E+01;0;  0.0000000E+00;  0.0000000E+00;  0.0000000E+00;0; -2.7173273E-02;  1.0000000E+04;  0.0000000E+00;  0.0000000E+00;  1.0000000E+04;  0.0000000E+00;  1.0000000E+04; -2.7561506E-02;  0.0000000E+00;  3.8823378E-04;  8.2653189E+00;
 -3.9999999E-02;  9.9999998E-03;  1.0000000E-01;392;  0.0000000E+00;  0.0000000E+00;  0.0000000E+00;  1.0000405E+03;  4.0000001E-01;  3.3480530E+01;0;  0.0000000E+00;  0.0000000E+00;  0.0000000E+00;0; -2.7054913E-02;  1.0000000E+04;  0.0000000E+00;  0.0000000E+00;  1.0000000E+04;  0.0000000E+00;  1.0000000E+04; -2.7534058E-02;  0.0000000E+00;  4.7914428E-04;  9.4929218E+00;
 -3.9999999E-02;  9.9999998E-03;  1.2000000E-01;393;  0.0000000E+00;  0.0000000E+00;  0.0000000E+00;  1.0000400E+03;  4.0000001E-01;  3.3184242E+01;0;  0.0000000E+00;  0.0000000E+00;  0.0000000E+00;0; -2.6825510E-02;  1.0000000E+04;  0.0000000E+00;  0.0000000E+00;  1.0000000E+04;  0.0000000E+00;  1.0000000E+04; -2.7403740E-02;  0.0000000E+00;  5.7822978E-04;  1.0827435E+01;
 -3.9999999E-02;  9.9999998E-03;  1.4000000E-01;394;  0.0000000E+00;  0.0000000E+00;  0.0000000E+00;  1.0000394E+03;  4.0000001E-01;  3.2591667E+01;0;  0.0000000E+00;  0.0000000E+00;  0.0000000E+00;0; -2.6433427E-02;  1.0000000E+04;  0.0000000E+00;  0.0000000E+00;  1.0000000E+04;  0.0000000E+00;  1.0000000E+04; -2.7108312E-02;  0.0000000E+00;  6.7488529E-04;  1.2119449E+01;
 -2.0000000E-02;  9.9999998E-03;  0.0000000E+00;428;  0.0000000E+00;  0.0000000E+00;  0.0000000E+00;  1.0000590E+03;  4.0000001E-01;  4.8887501E+01;0;  0.0000000E+00;  0.0000000E+00;  0.0000000E+00;0; -3.9200220E-02;  1.0000000E+04;  0.0000000E+00;  0.0000000E+00;  1.0000000E+04;  0.0000000E+00;  1.0000000E+04; -3.9557811E-02;  0.0000000E+00;  3.5758916E-04;  9.2211542E+00;
 -2.0000000E-02;  9.9999998E-03;  2.0000000E-02;429;  0.0000000E+00;  0.0000000E+00;  0.0000000E+00;  1.0000590E+03;  4.0000001E-01;  4.8887501E+01;0;  0.0000000E+00;  0.0000000E+00;  0.0000000E+00;0; -3.9202441E-02;  1.0000000E+04;  0.0000000E+00;  0.0000000E+00;  1.0000000E+04;  0.0000000E+00;  1.0000000E+04; -3.9579868E-02;  0.0000000E+00;  3.7742686E-04;  9.4911528E+00;
 -2.0000000E-02;  9.9999998E-03;  3.9999999E-02;430;  0.0000000E+00;  0.0000000E+00;  0.0000000E+00;  1.0000590E+03;  4.0000001E-01;  4.8887501E+01;0;  0.0000000E+00;  0.0000000E+00;  0.0000000E+00;0; -3.9203223E-02;  1.0000000E+04;  0.0000000E+00;  0.0000000E+00;  1.0000000E+04;  0.0000000E+00;  1.0000000E+04; -3.9639343E-02;  0.0000000E+00;  4.3612137E-04;  1.0290761E+01;
 -2.0000000E-02;  9.9999998E-03;  5.9999999E-02;431;  0.0000000E+00;  0.0000000E+00;  0.0000000E+00;  1.0000589E+03;  4.0000001E-01;  4.8788734E+01;0;  0.0000000E+00;  0.0000000E+00;  0.0000000E+00;0; -3.9184503E-02;  1.0000000E+04;  0.0000000E+00;  0.0000000E+00;  1.0000000E+04;  0.0000000E+00;  1.0000000E+04; -3.9715655E-02;  0.0000000E+00;  5.3115212E-04;  1.1587552E+01;
 -2.0000000E-02;  9.9999998E-03;  7.9999998E-02;432;  0.0000000E+00;  0.0000000E+00;  0.0000000E+00;  1.0000588E+03;  4.0000001E-01;  4.8689972E+01;0;  0.0000000E+00;  0.0000000E+00;  0.0000000E+00;0; -3.9115328E-02;  1.0000000E+04;  0.0000000E+00;  0.0000000E+00;  1.0000000E+04;  0.0000000E+00;  1.0000000E+04; -3.9773285E-02;  0.0000000E+00;  6.5795681E-04;  1.3321305E+01;
 -2.0000000E-02;  9.9999998E-03;  1.0000000E-01;433;  0.0000000E+00;  0.0000000E+00;  0.0000000E+00;  1.0000585E+03;  4.0000001E-01;  4.8393684E+01;0;  0.0000000E+00;  0.0000000E+00;  0.0000000E+00;0; -3.8950976E-02;  1.0000000E+04;  0.0000000E+00;  0.0000000E+00;  1.0000000E+04;  0.0000000E+00;  1.0000000E+04; -3.9760105E-02;  0.0000000E+00;  8.0913072E-04;  1.5391255E+01;
 -2.0000000E-02;  9.9999998E-03;  1.2000000E-01;434;  0.0000000E+00;  0.0000000E+00;  0.0000000E+00;  1.0000579E+03;  4.0000001E-01;  4.7899872E+01;0;  0.0000000E+00;  0.0000000E+00;  0.0000000E+00;0; -3.8632609E-02;  1.0000000E+04;  0.0000000E+00;  0.0000000E+00;  1.0000000E+04;  0.0000000E+00;  1.0000000E+04; -3.9605465E-02;  0.0000000E+00;  9.7285520E-04;  1.7632935E+01;
 -2.0000000E-02;  9.9999998E-03;  1.4000000E-01;435;  0.0000000E+00;  0.0000000E+00;  0.0000000E+00;  1.0000570E+03;  4.0000001E-01;  4.7208534E+01;0;  0.0000000E+00;  0.0000000E+00;  0.0000000E+00;0; -3.8088344E-02;  1.0000000E+04;  0.0000000E+00;  0.0000000E+00;  1.0000000E+04;  0.0000000E+00;  1.0000000E+04; -3.9219167E-02;  0.0000000E+00;  1.1308229E-03;  1.9788708E+01;
 -2.2000000E-01;  9.9999998E-03;  1.6000000E-01;27;  0.0000000E+00;  0.0000000E+00;  0.0000000E+00;  1.0000000E+03;  4.0000001E-01;  0.0000000E+00;0;  0.0000000E+00;  0.0000000E+00;  0.0000000E+00;0;  0.0000000E+00;  1.0000000E+04;  0.0000000E+00;  0.0000000E+00;  1.0000000E+04;  0.0000000E+00;  1.0000000E+04;  0.0000000E+00;  0.0000000E+00;  0.0000000E+00;  0.0000000E+00;
 -2.2000000E-01;  9.9999998E-03;  1.8000001E-01;28;  0.0000000E+00;  0.0000000E+00;  0.0000000E+00;  1.0000000E+03;  4.0000001E-01;  0.0000000E+00;0;  0.0000000E+00;  0.0000000E+00;  0.0000000E+00;0;  0.0000000E+00;  1.0000000E+04;  0.0000000E+00;  0.0000000E+00;  1.0000000E+04;  0.0000000E+00;  1.0000000E+04;  0.0000000E+00;  0.0000000E+00;  0.0000000E+00;  0.0000000E+00;
 -2.2000000E-01;  9.9999998E-03;  2.0000000E-01;29;  0.0000000E+00;  0.0000000E+00;  0.0000000E+00;  1.0000000E+03;  4.0000001E-01;  0.0000000E+00;0;  0.0000000E+00;  0.0000000E+00;  0.0000000E+00;0;  0.0000000E+00;  1.0000000E+04;  0.0000000E+00;  0.0000000E+00;  1.0000000E+04;  0.0000000E+00;  1.0000000E+04;  0.0000000E+00;  0.0000000E+00;  0.0000000E+00;  0.0000000E+00;
 -2.2000000E-01;  9.9999998E-03;  2.2000000E-01;30;  0.0000000E+00;  0.0000000E+00;  0.0000000E+00;  1.0000000E+03;  4.0000001E-01;  0.0000000E+00;0;  0.0000000E+00;  0.0000000E+00;  0.0000000E+00;0;  0.0000000E+00;  1.0000000E+04;  0.0000000E+00;  0.0000000E+00;  1.0000000E+04;  0.0000000E+00;  1.0000000E+04;  0.0000000E+00;  0.0000000E+00;  0.0000000E+00;  0.0000000E+00;
 -2.2000000E-01;  9.9999998E-03;  2.3999999E-01;31;  0.0000000E+00;  0.0000000E+00;  0.0000000E+00;  1.0000000E+03;  4.0000001E-01;  0.0000000E+00;0;  0.0000000E+00;  0.0000000E+00;  0.0000000E+00;0;  0.0000000E+00;  1.0000000E+04;  0.0000000E+00;  0.0000000E+00;  1.0000000E+04;  0.0000000E+00;  1.0000000E+04;  0.0000000E+00;  0.0000000E+00;  0.0000000E+00;  0.0000000E+00;
 -2.2000000E-01;  9.9999998E-03;  2.5999999E-01;32;  0.0000000E+00;  0.0000000E+00;  0.0000000E+00;  1.0000000E+03;  4.0000001E-01;  0.0000000E+00;0;  0.0000000E+00;  0.0000000E+00;  0.0000000E+00;0;  0.0000000E+00;  1.0000000E+04;  0.0000000E+00;  0.0000000E+00;  1.0000000E+04;  0.0000000E+00;  1.0000000E+04;  0.0000000E+00;  0.0000000E+00;  0.0000000E+00;  0.0000000E+00;
 -2.2000000E-01;  9.9999998E-03;  2.8000000E-01;33;  0.0000000E+00;  0.0000000E+00;  0.0000000E+00;  1.0000000E+03;  4.0000001E-01;  0.0000000E+00;0;  0.0000000E+00;  0.0000000E+00;  0.0000000E+00;0;  0.0000000E+00;  1.0000000E+04;  0.0000000E+00;  0.0000000E+00;  1.0000000E+04;  0.0000000E+00;  1.0000000E+04;  0.0000000E+00;  0.0000000E+00;  0.0000000E+00;  0.0000000E+00;
 -2.2000000E-01;  9.9999998E-03;  3.0000001E-01;34;  0.0000000E+00;  0.0000000E+00;  0.0000000E+00;  1.0000000E+03;  4.0000001E-01;  0.0000000E+00;0;  0.0000000E+00;  0.0000000E+00;  0.0000000E+00;0;  0.0000000E+00;  1.0000000E+04;  0.0000000E+00;  0.0000000E+00;  1.0000000E+04;  0.0000000E+00;  1.0000000E+04;  0.0000000E+00;  0.0000000E+00;  0.0000000E+00;  0.0000000E+00;
 -2.2000000E-01;  9.9999998E-03;  3.1999999E-01;35;  0.0000000E+00;  0.0000000E+00;  0.0000000E+00;  1.0000000E+03;  4.0000001E-01;  0.0000000E+00;0;  0.0000000E+00;  0.0000000E+00;  0.0000000E+00;0;  0.0000000E+00;  1.0000000E+04;  0.0000000E+00;  0.0000000E+00;  1.0000000E+04;  0.0000000E+00;  1.0000000E+04;  0.0000000E+00;  0.0000000E+00;  0.0000000E+00;  0.0000000E+00;
 -2.0000000E-01;  9.9999998E-03;  1.6000000E-01;67;  0.0000000E+00;  0.0000000E+00;  0.0000000E+00;  1.0000000E+03;  4.0000001E-01;  0.0000000E+00;0;  0.0000000E+00;  0.0000000E+00;  0.0000000E+00;0;  0.0000000E+00;  1.0000000E+04;  0.0000000E+00;  0.0000000E+00;  1.0000000E+04;  0.0000000E+00;  1.0000000E+04;  0.0000000E+00;  0.0000000E+00;  0.0000000E+00;  0.0000000E+00;
 -2.0000000E-01;  9.9999998E-03;  1.8000001E-01;68;  0.0000000E+00;  0.0000000E+00;  0.0000000E+00;  1.0000000E+03;  4.0000001E-01;  0.0000000E+00;0;  0.0000000E+00;  0.0000000E+00;  0.0000000E+00;0;  0.0000000E+00;  1.0000000E+04;  0.0000000E+00;  0.0000000E+00;  1.0000000E+04;  0.0000000E+00;  1.0000000E+04;  0.0000000E+00;  0.0000000E+00;  0.0000000E+00;  0.0000000E+00;
 -2.0000000E-01;  9.9999998E-03;  2.0000000E-01;69;  0.0000000E+00;  0.0000000E+00;  0.0000000E+00;  1.0000000E+03;  4.0000001E-01;  0.0000000E+00;0;  0.0000000E+00;  0.0000000E+00;  0.0000000E+00;0;  0.0000000E+00;  1.0000000E+04;  0.0000000E+00;  0.0000000E+00;  1.0000000E+04;  0.0000000E+00;  1.0000000E+04;  0.0000000E+00;  0.0000000E+00;  0.0000000E+00;  0.0000000E+00;
 -2.0000000E-01;  9.9999998E-03;  2.2000000E-01;70;  0.0000000E+00;  0.0000000E+00;  0.0000000E+00;  1.0000000E+03;  4.0000001E-01;  0.0000000E+00;0;  0.0000000E+00;  0.0000000E+00;  0.0000000E+00;0;  0.0000000E+00;  1.0000000E+04;  0.0000000E+00;  0.0000000E+00;  1.0000000E+04;  0.0000000E+00;  1.0000000E+04;  0.0000000E+00;  0.0000000E+00;  0.0000000E+00;  0.0000000E+00;
 -2.0000000E-01;  9.9999998E-03;  2.3999999E-01;71;  0.0000000E+00;  0.0000000E+00;  0.0000000E+00;  1.0000000E+03;  4.0000001E-01;  0.0000000E+00;0;  0.0000000E+00;  0.0000000E+00;  0.0000000E+00;0;  0.0000000E+00;  1.0000000E+04;  0.0000000E+00;  0.0000000E+00;  1.0000000E+04;  0.0000000E+00;  1.0000000E+04;  0.0000000E+00;  0.0000000E+00;  0.0000000E+00;  0.0000000E+00;
 -2.0000000E-01;  9.9999998E-03;  2.5999999E-01;72;  0.0000000E+00;  0.0000000E+00;  0.0000000E+00;  1.0000000E+03;  4.0000001E-01;  0.0000000E+00;0;  0.0000000E+00;  0.0000000E+00;  0.0000000E+00;0;  0.0000000E+00;  1.0000000E+04;  0.0000000E+00;  0.0000000E+00;  1.0000000E+04;  0.0000000E+00;  1.0000000E+04;  0.0000000E+00;  0.0000000E+00;  0.0000000E+00;  0.0000000E+00;
 -2.0000000E-01;  9.9999998E-03;  2.8000000E-01;73;  0.0000000E+00;  0.0000000E+00;  0.0000000E+00;  1.0000000E+03;  4.0000001E-01;  0.0000000E+00;0;  0.0000000E+00;  0.0000000E+00;  0.0000000E+00;0;  0.0000000E+00;  1.0000000E+04;  0.0000000E+00;  0.0000000E+00;  1.0000000E+04;  0.0000000E+00;  1.0000000E+04;  0.0000000E+00;  0.0000000E+00;  0.0000000E+00;  0.0000000E+00;
 -2.0000000E-01;  9.9999998E-03;  3.0000001E-01;74;  0.0000000E+00;  0.0000000E+00;  0.0000000E+00;  1.0000000E+03;  4.0000001E-01;  0.0000000E+00;0;  0.0000000E+00;  0.0000000E+00;  0.0000000E+00;0;  0.0000000E+00;  1.0000000E+04;  0.0000000E+00;  0.0000000E+00;  1.0000000E+04;  0.0000000E+00;  1.0000000E+04;  0.0000000E+00;  0.0000000E+00;  0.0000000E+00;  0.0000000E+00;
 -2.0000000E-01;  9.9999998E-03;  3.1999999E-01;75;  0.0000000E+00;  0.0000000E+00;  0.0000000E+00;  1.0000000E+03;  4.0000001E-01;  0.0000000E+00;0;  0.0000000E+00;  0.0000000E+00;  0.0000000E+00;0;  0.0000000E+00;  1.0000000E+04;  0.0000000E+00;  0.0000000E+00;  1.0000000E+04;  0.0000000E+00;  1.0000000E+04;  0.0000000E+00;  0.0000000E+00;  0.0000000E+00;  0.0000000E+00;
 -1.8000001E-01;  9.9999998E-03;  1.6000000E-01;108;  0.0000000E+00;  0.0000000E+00;  0.0000000E+00;  1.0000000E+03;  4.0000001E-01;  0.0000000E+00;0;  0.0000000E+00;  0.0000000E+00;  0.0000000E+00;0;  0.0000000E+00;  1.0000000E+04;  0.0000000E+00;  0.0000000E+00;  1.0000000E+04;  0.0000000E+00;  1.0000000E+04;  0.0000000E+00;  0.0000000E+00;  0.0000000E+00;  0.0000000E+00;
 -1.8000001E-01;  9.9999998E-03;  1.8000001E-01;109;  0.0000000E+00;  0.0000000E+00;  0.0000000E+00;  1.0000000E+03;  4.0000001E-01;  0.0000000E+00;0;  0.0000000E+00;  0.0000000E+00;  0.0000000E+00;0;  0.0000000E+00;  1.0000000E+04;  0.0000000E+00;  0.0000000E+00;  1.0000000E+04;  0.0000000E+00;  1.0000000E+04;  0.0000000E+00;  0.0000000E+00;  0.0000000E+00;  0.0000000E+00;
 -1.8000001E-01;  9.9999998E-03;  2.0000000E-01;110;  0.0000000E+00;  0.0000000E+00;  0.0000000E+00;  1.0000000E+03;  4.0000001E-01;  0.0000000E+00;0;  0.0000000E+00;  0.0000000E+00;  0.0000000E+00;0;  0.0000000E+00;  1.0000000E+04;  0.0000000E+00;  0.0000000E+00;  1.0000000E+04;  0.0000000E+00;  1.0000000E+04;  0.0000000E+00;  0.0000000E+00;  0.0000000E+00;  0.0000000E+00;
 -1.8000001E-01;  9.9999998E-03;  2.2000000E-01;111;  0.0000000E+00;  0.0000000E+00;  0.0000000E+00;  1.0000000E+03;  4.0000001E-01;  0.0000000E+00;0;  0.0000000E+00;  0.0000000E+00;  0.0000000E+00;0;  0.0000000E+00;  1.0000000E+04;  0.0000000E+00;  0.0000000E+00;  1.0000000E+04;  0.0000000E+00;  1.0000000E+04;  0.0000000E+00;  0.0000000E+00;  0.0000000E+00;  0.0000000E+00;
 -1.8000001E-01;  9.9999998E-03;  2.3999999E-01;112;  0.0000000E+00;  0.0000000E+00;  0.0000000E+00;  1.0000000E+03;  4.0000001E-01;  0.0000000E+00;0;  0.0000000E+00;  0.0000000E+00;  0.0000000E+00;0;  0.0000000E+00;  1.0000000E+04;  0.0000000E+00;  0.0000000E+00;  1.0000000E+04;  0.0000000E+00;  1.0000000E+04;  0.0000000E+00;  0.0000000E+00;  0.0000000E+00;  0.0000000E+00;
 -1.8000001E-01;  9.9999998E-03;  2.5999999E-01;113;  0.0000000E+00;  0.0000000E+00;  0.0000000E+00;  1.0000000E+03;  4.0000001E-01;  0.0000000E+00;0;  0.0000000E+00;  0.0000000E+00;  0.0000000E+00;0;  0.0000000E+00;  1.0000000E+04;  0.0000000E+00;  0.0000000E+00;  1.0000000E+04;  0.0000000E+00;  1.0000000E+04;  0.0000000E+00;  0.0000000E+00;  0.0000000E+00;  0.0000000E+00;
 -1.8000001E-01;  9.9999998E-03;  2.8000000E-01;114;  0.0000000E+00;  0.0000000E+00;  0.0000000E+00;  1.0000000E+03;  4.0000001E-01;  0.0000000E+00;0;  0.0000000E+00;  0.0000000E+00;  0.0000000E+00;0;  0.0000000E+00;  1.0000000E+04;  0.0000000E+00;  0.0000000E+00;  1.0000000E+04;  0.0000000E+00;  1.0000000E+04;  0.0000000E+00;  0.0000000E+00;  0.0000000E+00;  0.0000000E+00;
 -1.8000001E-01;  9.9999998E-03;  3.0000001E-01;115;  0.0000000E+00;  0.0000000E+00;  0.0000000E+00;  1.0000000E+03;  4.0000001E-01;  0.0000000E+00;0;  0.0000000E+00;  0.0000000E+00;  0.0000000E+00;0;  0.0000000E+00;  1.0000000E+04;  0.0000000E+00;  0.0000000E+00;  1.0000000E+04;  0.0000000E+00;  1.0000000E+04;  0.0000000E+00;  0.0000000E+00;  0.0000000E+00;  0.0000000E+00;
 -1.8000001E-01;  9.9999998E-03;  3.1999999E-01;116;  0.0000000E+00;  0.0000000E+00;  0.0000000E+00;  1.0000000E+03;  4.0000001E-01;  0.0000000E+00;0;  0.0000000E+00;  0.0000000E+00;  0.0000000E+00;0;  0.0000000E+00;  1.0000000E+04;  0.0000000E+00;  0.0000000E+00;  1.0000000E+04;  0.0000000E+00;  1.0000000E+04;  0.0000000E+00;  0.0000000E+00;  0.0000000E+00;  0.0000000E+00;
 -1.6000000E-01;  9.9999998E-03;  1.6000000E-01;149;  0.0000000E+00;  0.0000000E+00;  0.0000000E+00;  1.0000000E+03;  4.0000001E-01;  0.0000000E+00;0;  0.0000000E+00;  0.0000000E+00;  0.0000000E+00;0; -5.3487333E-06;  1.0000000E+04;  0.0000000E+00;  0.0000000E+00;  1.0000000E+04;  0.0000000E+00;  1.0000000E+04; -5.3592294E-06;  0.0000000E+00;  1.0495911E-08;  7.3338067E-04;
 -1.6000000E-01;  9.9999998E-03;  1.8000001E-01;150;  0.0000000E+00;  0.0000000E+00;  0.0000000E+00;  1.0000000E+03;  4.0000001E-01;  0.0000000E+00;0;  0.0000000E+00;  0.0000000E+00;  0.0000000E+00;0; -5.1950396E-06;  1.0000000E+04;  0.0000000E+00;  0.0000000E+00;  1.0000000E+04;  0.0000000E+00;  1.0000000E+04; -5.2069699E-06;  0.0000000E+00;  1.1930203E-08;  7.3559757E-04;
 -1.6000000E-01;  9.9999998E-03;  2.0000000E-01;151;  0.0000000E+00;  0.0000000E+00;  0.0000000E+00;  1.0000000E+03;  4.0000001E-01;  0.0000000E+00;0;  0.0000000E+00;  0.0000000E+00;  0.0000000E+00;0; -4.9608243E-06;  1.0000000E+04;  0.0000000E+00;  0.0000000E+00;  1.0000000E+04;  0.0000000E+00;  1.0000000E+04; -4.9735727E-06;  0.0000000E+00;  1.2748526E-08;  7.2062109E-04;
 -1.6000000E-01;  9.9999998E-03;  2.2000000E-01;152;  0.0000000E+00;  0.0000000E+00;  0.0000000E+00;  1.0000000E+03;  4.0000001E-01;  0.0000000E+00;0;  0.0000000E+00;  0.0000000E+00;  0.0000000E+00;0; -4.6292921E-06;  1.0000000E+04;  0.0000000E+00;  0.0000000E+00;  1.0000000E+04;  0.0000000E+00;  1.0000000E+04; -4.6418013E-06;  0.0000000E+00;  1.2509259E-08;  6.8077783E-04;
 -1.6000000E-01;  9.9999998E-03;  2.3999999E-01;153;  0.0000000E+00;  0.0000000E+00;  0.0000000E+00;  1.0000000E+03;  4.0000001E-01;  0.0000000E+00;0;  0.0000000E+00;  0.0000000E+00;  0.0000000E+00;0; -4.1885974E-06;  1.0000000E+04;  0.0000000E+00;  0.0000000E+00;  1.0000000E+04;  0.0000000E+00;  1.0000000E+04; -4.1992239E-06;  0.0000000E+00;  1.0626594E-08;  6.0770649E-04;
 -1.6000000E-01;  9.9999998E-03;  2.5999999E-01;154;  0.0000000E+00;  0.0000000E+00;  0.0000000E+00;  1.0000000E+03;  4.0000001E-01;  0.0000000E+00;0;  0.0000000E+00;  0.0000000E+00;  0.0000000E+00;0; -3.5428254E-06;  1.0000000E+04;  0.0000000E+00;  0.0000000E+00;  1.0000000E+04;  0.0000000E+00;  1.0000000E+04; -3.5388532E-06;  0.0000000E+00; -3.9721115E-09;  3.4465347E-04;
 -1.6000000E-01;  9.9999998E-03;  2.8000000E-01;155;  0.0000000E+00;  0.0000000E+00;  0.0000000E+00;  1.0000000E+03;  4.0000001E-01;  0.0000000E+00;0;  0.0000000E+00;  0.0000000E+00;  0.0000000E+00;0; -2.3744403E-06;  1.0000000E+04;  0.0000000E+00;  0.0000000E+00;  1.0000000E+04;  0.0000000E+00;  1.0000000E+04; -2.3357766E-06;  0.0000000E+00; -3.8663700E-08;  2.6670730E-04;
 -1.6000000E-01;  9.9999998E-03;  3.0000001E-01;156;  0.0000000E+00;  0.0000000E+00;  0.0000000E+00;  1.0000000E+03;  4.0000001E-01;  0.0000000E+00;0;  0.0000000E+00;  0.0000000E+00;  0.0000000E+00;0; -1.0053143E-06;  1.0000000E+04;  0.0000000E+00;  0.0000000E+00;  1.0000000E+04;  0.0000000E+00;  1.0000000E+04; -9.6237795E-07;  0.0000000E+00; -4.2936307E-08;  4.7199489E-04;
 -1.6000000E-01;  9.9999998E-03;  3.1999999E-01;157;  0.0000000E+00;  0.0000000E+00;  0.0000000E+00;  1.0000000E+03;  4.0000001E-01;  0.0000000E+00;0;  0.0000000E+00;  0.0000000E+00;  0.0000000E+00;0; -1.5818813E-07;  1.0000000E+04;  0.0000000E+00;  0.0000000E+00;  1.0000000E+04;  0.0000000E+00;  1.0000000E+04; -1.4546947E-07;  0.0000000E+00; -1.2718661E-08;  1.5168895E-04;
 -1.4000000E-01;  9.9999998E-03;  1.6000000E-01;190;  0.0000000E+00;  0.0000000E+00;  0.0000000E+00;  1.0000002E+03;  4.0000001E-01;  1.9752525E-01;0;  0.0000000E+00;  0.0000000E+00;  0.0000000E+00;0; -1.9454501E-04;  1.0000000E+04;  0.0000000E+00;  0.0000000E+00;  1.0000000E+04;  0.0000000E+00;  1.0000000E+04; -1.9584838E-04;  0.0000000E+00;  1.3033724E-06;  3.8885128E-02;
 -1.4000000E-01;  9.9999998E-03;  1.8000001E-01;191;  0.0000000E+00;  0.0000000E+00;  0.0000000E+00;  1.0000002E+03;  4.0000001E-01;  1.9752525E-01;0;  0.0000000E+00;  0.0000000E+00;  0.0000000E+00;0; -1.8829985E-04;  1.0000000E+04;  0.0000000E+00;  0.0000000E+00;  1.0000000E+04;  0.0000000E+00;  1.0000000E+04; -1.8975361E-04;  0.0000000E+00;  1.4537655E-06;  4.0201370E-02;
 -1.4000000E-01;  9.9999998E-03;  2.0000000E-01;192;  0.0000000E+00;  0.0000000E+00;  0.0000000E+00;  1.0000002E+03;  4.0000001E-01;  1.9752525E-01;0;  0.0000000E+00;  0.0000000E+00;  0.0000000E+00;0; -1.7918587E-04;  1.0000000E+04;  0.0000000E+00;  0.0000000E+00;  1.0000000E+04;  0.0000000E+00;  1.0000000E+04; -1.8070640E-04;  0.0000000E+00;  1.5205255E-06;  4.0083963E-02;
 -1.4000000E-01;  9.9999998E-03;  2.2000000E-01;193;  0.0000000E+00;  0.0000000E+00;  0.0000000E+00;  1.0000002E+03;  4.0000001E-01;  1.9752525E-01;0;  0.0000000E+00;  0.0000000E+00;  0.0000000E+00;0; -1.6639780E-04;  1.0000000E+04;  0.0000000E+00;  0.0000000E+00;  1.0000000E+04;  0.0000000E+00;  1.0000000E+04; -1.6773092E-04;  0.0000000E+00;  1.3331154E-06;  3.6200274E-02;
 -1.4000000E-01;  9.9999998E-03;  2.3999999E-01;194;  0.0000000E+00;  0.0000000E+00;  0.0000000E+00;  1.0000001E+03;  4.0000001E-01;  9.8762624E-02;0;  0.0000000E+00;  0.0000000E+00;  0.0000000E+00;0; -1.4735592E-04;  1.0000000E+04;  0.0000000E+00;  0.0000000E+00;  1.0000000E+04;  0.0000000E+00;  1.0000000E+04; -1.4769750E-04;  0.0000000E+00;  3.4157802E-07;  2.1010481E-02;
 -1.4000000E-01;  9.9999998E-03;  2.5999999E-01;195;  0.0000000E+00;  0.0000000E+00;  0.0000000E+00;  1.0000001E+03;  4.0000001E-01;  9.8762624E-02;0;  0.0000000E+00;  0.0000000E+00;  0.0000000E+00;0; -1.2015706E-04;  1.0000000E+04;  0.0000000E+00;  0.0000000E+00;  1.0000000E+04;  0.0000000E+00;  1.0000000E+04; -1.1880153E-04;  0.0000000E+00; -1.3555308E-06;  4.4053886E-03;
 -1.4000000E-01;  9.9999998E-03;  2.8000000E-01;196;  0.0000000E+00;  0.0000000E+00;  0.0000000E+00;  1.0000000E+03;  4.0000001E-01;  0.0000000E+00;0;  0.0000000E+00;  0.0000000E+00;  0.0000000E+00;0; -8.6619111E-05;  1.0000000E+04;  0.0000000E+00;  0.0000000E+00;  1.0000000E+04;  0.0000000E+00;  1.0000000E+04; -8.3768013E-05;  0.0000000E+00; -2.8510960E-06;  2.7965128E-02;
 -1.4000000E-01;  9.9999998E-03;  3.0000001E-01;197;  0.0000000E+00;  0.0000000E+00;  0.0000000E+00;  1.0000000E+03;  4.0000001E-01;  0.0000000E+00;0;  0.0000000E+00;  0.0000000E+00;  0.0000000E+00;0; -5.2449119E-05;  1.0000000E+04;  0.0000000E+00;  0.0000000E+00;  1.0000000E+04;  0.0000000E+00;  1.0000000E+04; -4.9134924E-05;  0.0000000E+00; -3.3141953E-06;  3.8233582E-02;
 -1.4000000E-01;  9.9999998E-03;  3.1999999E-01;198;  0.0000000E+00;  0.0000000E+00;  0.0000000E+00;  1.0000000E+03;  4.0000001E-01;  0.0000000E+00;0;  0.0000000E+00;  0.0000000E+00;  0.0000000E+00;0; -2.4657387E-05;  1.0000000E+04;  0.0000000E+00;  0.0000000E+00;  1.0000000E+04;  0.0000000E+00;  1.0000000E+04; -2.2092427E-05;  0.0000000E+00; -2.5649613E-06;  3.1516895E-02;
 -1.2000000E-01;  9.9999998E-03;  1.6000000E-01;231;  0.0000000E+00;  0.0000000E+00;  0.0000000E+00;  1.0000015E+03;  4.0000001E-01;  1.2839141E+00;0;  0.0000000E+00;  0.0000000E+00;  0.0000000E+00;0; -1.0715751E-03;  1.0000000E+04;  0.0000000E+00;  0.0000000E+00;  1.0000000E+04;  0.0000000E+00;  1.0000000E+04; -1.0839496E-03;  0.0000000E+00;  1.2374509E-05;  2.8351286E-01;
 -1.2000000E-01;  9.9999998E-03;  1.8000001E-01;232;  0.0000000E+00;  0.0000000E+00;  0.0000000E+00;  1.0000015E+03;  4.0000001E-01;  1.1851515E+00;0;  0.0000000E+00;  0.0000000E+00;  0.0000000E+00;0; -1.0351809E-03;  1.0000000E+04;  0.0000000E+00;  0.0000000E+00;  1.0000000E+04;  0.0000000E+00;  1.0000000E+04; -1.0487704E-03;  0.0000000E+00;  1.3589566E-05;  2.9578567E-01;
 -1.2000000E-01;  9.9999998E-03;  2.0000000E-01;233;  0.0000000E+00;  0.0000000E+00;  0.0000000E+00;  1.0000014E+03;  4.0000001E-01;  1.1851515E+00;0;  0.0000000E+00;  0.0000000E+00;  0.0000000E+00;0; -9.8251295E-04;  1.0000000E+04;  0.0000000E+00;  0.0000000E+00;  1.0000000E+04;  0.0000000E+00;  1.0000000E+04; -9.9587115E-04;  0.0000000E+00;  1.3358243E-05;  2.8706327E-01;
 -1.2000000E-01;  9.9999998E-03;  2.2000000E-01;234;  0.0000000E+00;  0.0000000E+00;  0.0000000E+00;  1.0000012E+03;  4.0000001E-01;  9.8762625E-01;0;  0.0000000E+00;  0.0000000E+00;  0.0000000E+00;0; -9.0692739E-04;  1.0000000E+04;  0.0000000E+00;  0.0000000E+00;  1.0000000E+04;  0.0000000E+00;  1.0000000E+04; -9.1629440E-04;  0.0000000E+00;  9.3669869E-06;  2.2606096E-01;
 -1.2000000E-01;  9.9999998E-03;  2.3999999E-01;235;  0.0000000E+00;  0.0000000E+00;  0.0000000E+00;  1.0000011E+03;  4.0000001E-01;  8.8886362E-01;0;  0.0000000E+00;  0.0000000E+00;  0.0000000E+00;0; -8.0186297E-04;  1.0000000E+04;  0.0000000E+00;  0.0000000E+00;  1.0000000E+04;  0.0000000E+00;  1.0000000E+04; -8.0265844E-04;  0.0000000E+00;  7.9549358E-07;  1.0114190E-01;
 -1.2000000E-01;  9.9999998E-03;  2.5999999E-01;236;  0.0000000E+00;  0.0000000E+00;  0.0000000E+00;  1.0000009E+03;  4.0000001E-01;  6.9133836E-01;0;  0.0000000E+00;  0.0000000E+00;  0.0000000E+00;0; -6.6509645E-04;  1.0000000E+04;  0.0000000E+00;  0.0000000E+00;  1.0000000E+04;  0.0000000E+00;  1.0000000E+04; -6.5447303E-04;  0.0000000E+00; -1.0623414E-05;  6.5203264E-02;
 -1.2000000E-01;  9.9999998E-03;  2.8000000E-01;237;  0.0000000E+00;  0.0000000E+00;  0.0000000E+00;  1.0000007E+03;  4.0000001E-01;  5.9257573E-01;0;  0.0000000E+00;  0.0000000E+00;  0.0000000E+00;0; -5.0456647E-04;  1.0000000E+04;  0.0000000E+00;  0.0000000E+00;  1.0000000E+04;  0.0000000E+00;  1.0000000E+04; -4.8384056E-04;  0.0000000E+00; -2.0725909E-05;  2.1707207E-01;
 -1.2000000E-01;  9.9999998E-03;  3.0000001E-01;238;  0.0000000E+00;  0.0000000E+00;  0.0000000E+00;  1.0000004E+03;  4.0000001E-01;  3.9505050E-01;0;  0.0000000E+00;  0.0000000E+00;  0.0000000E+00;0; -3.4061438E-04;  1.0000000E+04;  0.0000000E+00;  0.0000000E+00;  1.0000000E+04;  0.0000000E+00;  1.0000000E+04; -3.1492644E-04;  0.0000000E+00; -2.5687943E-05;  3.0180988E-01;
 -1.2000000E-01;  9.9999998E-03;  3.1999999E-01;239;  0.0000000E+00;  0.0000000E+00;  0.0000000E+00;  1.0000002E+03;  4.0000001E-01;  1.9752525E-01;0;  0.0000000E+00;  0.0000000E+00;  0.0000000E+00;0; -1.9800119E-04;  1.0000000E+04;  0.0000000E+00;  0.0000000E+00;  1.0000000E+04;  0.0000000E+00;  1.0000000E+04; -1.7394291E-04;  0.0000000E+00; -2.4058272E-05;  2.9735965E-01;
 -1.0000000E-01;  9.9999998E-03;  1.6000000E-01;272;  0.0000000E+00;  0.0000000E+00;  0.0000000E+00;  1.0000049E+03;  4.0000001E-01;  4.0492678E+00;0;  0.0000000E+00;  0.0000000E+00;  0.0000000E+00;0; -3.4042925E-03;  1.0000000E+04;  0.0000000E+00;  0.0000000E+00;  1.0000000E+04;  0.0000000E+00;  1.0000000E+04; -3.4597416E-03;  0.0000000E+00;  5.5449123E-05;  1.1182990E+00;
 -1.0000000E-01;  9.9999998E-03;  1.8000001E-01;273;  0.0000000E+00;  0.0000000E+00;  0.0000000E+00;  1.0000047E+03;  4.0000001E-01;  3.8517423E+00;0;  0.0000000E+00;  0.0000000E+00;  0.0000000E+00;0; -3.2845279E-03;  1.0000000E+04;  0.0000000E+00;  0.0000000E+00;  1.0000000E+04;  0.0000000E+00;  1.0000000E+04; -3.3439049E-03;  0.0000000E+00;  5.9376896E-05;  1.1585044E+00;
 -1.0000000E-01;  9.9999998E-03;  2.0000000E-01;274;  0.0000000E+00;  0.0000000E+00;  0.0000000E+00;  1.0000046E+03;  4.0000001E-01;  3.8517423E+00;0;  0.0000000E+00;  0.0000000E+00;  0.0000000E+00;0; -3.1122030E-03;  1.0000000E+04;  0.0000000E+00;  0.0000000E+00;  1.0000000E+04;  0.0000000E+00;  1.0000000E+04; -3.1669775E-03;  0.0000000E+00;  5.4774660E-05;  1.0796624E+00;
 -1.0000000E-01;  9.9999998E-03;  2.2000000E-01;275;  0.0000000E+00;  0.0000000E+00;  0.0000000E+00;  1.0000042E+03;  4.0000001E-01;  3.4566917E+00;0;  0.0000000E+00;  0.0000000E+00;  0.0000000E+00;0; -2.8724223E-03;  1.0000000E+04;  0.0000000E+00;  0.0000000E+00;  1.0000000E+04;  0.0000000E+00;  1.0000000E+04; -2.9087742E-03;  0.0000000E+00;  3.6351896E-05;  8.0972415E-01;
 -1.0000000E-01;  9.9999998E-03;  2.3999999E-01;276;  0.0000000E+00;  0.0000000E+00;  0.0000000E+00;  1.0000038E+03;  4.0000001E-01;  3.1604040E+00;0;  0.0000000E+00;  0.0000000E+00;  0.0000000E+00;0; -2.5519619E-03;  1.0000000E+04;  0.0000000E+00;  0.0000000E+00;  1.0000000E+04;  0.0000000E+00;  1.0000000E+04; -2.5544695E-03;  0.0000000E+00;  2.5076451E-06;  3.2530260E-01;
 -1.0000000E-01;  9.9999998E-03;  2.5999999E-01;277;  0.0000000E+00;  0.0000000E+00;  0.0000000E+00;  1.0000032E+03;  4.0000001E-01;  2.6665909E+00;0;  0.0000000E+00;  0.0000000E+00;  0.0000000E+00;0; -2.1473239E-03;  1.0000000E+04;  0.0000000E+00;  0.0000000E+00;  1.0000000E+04;  0.0000000E+00;  1.0000000E+04; -2.1067702E-03;  0.0000000E+00; -4.0553859E-05;  2.9238904E-01;
 -1.0000000E-01;  9.9999998E-03;  2.8000000E-01;278;  0.0000000E+00;  0.0000000E+00;  0.0000000E+00;  1.0000024E+03;  4.0000001E-01;  1.9752525E+00;0;  0.0000000E+00;  0.0000000E+00;  0.0000000E+00;0; -1.6781026E-03;  1.0000000E+04;  0.0000000E+00;  0.0000000E+00;  1.0000000E+04;  0.0000000E+00;  1.0000000E+04; -1.5985705E-03;  0.0000000E+00; -7.9532190E-05;  8.6445349E-01;
 -1.0000000E-01;  9.9999998E-03;  3.0000001E-01;279;  0.0000000E+00;  0.0000000E+00;  0.0000000E+00;  1.0000016E+03;  4.0000001E-01;  1.3826767E+00;0;  0.0000000E+00;  0.0000000E+00;  0.0000000E+00;0; -1.1948928E-03;  1.0000000E+04;  0.0000000E+00;  0.0000000E+00;  1.0000000E+04;  0.0000000E+00;  1.0000000E+04; -1.0924473E-03;  0.0000000E+00; -1.0244545E-04;  1.2251662E+00;
 -1.0000000E-01;  9.9999998E-03;  3.1999999E-01;280;  0.0000000E+00;  0.0000000E+00;  0.0000000E+00;  1.0000010E+03;  4.0000001E-01;  8.8886362E-01;0;  0.0000000E+00;  0.0000000E+00;  0.0000000E+00;0; -7.6201512E-04;  1.0000000E+04;  0.0000000E+00;  0.0000000E+00;  1.0000000E+04;  0.0000000E+00;  1.0000000E+04; -6.5781275E-04;  0.0000000E+00; -1.0420234E-04;  1.2989796E+00;
 -7.9999998E-02;  9.9999998E-03;  1.6000000E-01;313;  0.0000000E+00;  0.0000000E+00;  0.0000000E+00;  1.0000120E+03;  4.0000001E-01;  9.8762627E+00;0;  0.0000000E+00;  0.0000000E+00;  0.0000000E+00;0; -8.0809025E-03;  1.0000000E+04;  0.0000000E+00;  0.0000000E+00;  1.0000000E+04;  0.0000000E+00;  1.0000000E+04; -8.2477303E-03;  0.0000000E+00;  1.6682774E-04;  3.1371083E+00;
 -7.9999998E-02;  9.9999998E-03;  1.8000001E-01;314;  0.0000000E+00;  0.0000000E+00;  0.0000000E+00;  1.0000114E+03;  4.0000001E-01;  9.4812117E+00;0;  0.0000000E+00;  0.0000000E+00;  0.0000000E+00;0; -7.7924561E-03;  1.0000000E+04;  0.0000000E+00;  0.0000000E+00;  1.0000000E+04;  0.0000000E+00;  1.0000000E+04; -7.9666935E-03;  0.0000000E+00;  1.7423760E-04;  3.2094810E+00;
 -7.9999998E-02;  9.9999998E-03;  2.0000000E-01;315;  0.0000000E+00;  0.0000000E+00;  0.0000000E+00;  1.0000109E+03;  4.0000001E-01;  8.9873991E+00;0;  0.0000000E+00;  0.0000000E+00;  0.0000000E+00;0; -7.3842825E-03;  1.0000000E+04;  0.0000000E+00;  0.0000000E+00;  1.0000000E+04;  0.0000000E+00;  1.0000000E+04; -7.5414260E-03;  0.0000000E+00;  1.5714332E-04;  2.9419148E+00;
 -7.9999998E-02;  9.9999998E-03;  2.2000000E-01;316;  0.0000000E+00;  0.0000000E+00;  0.0000000E+00;  1.0000100E+03;  4.0000001E-01;  8.2960606E+00;0;  0.0000000E+00;  0.0000000E+00;  0.0000000E+00;0; -6.8283640E-03;  1.0000000E+04;  0.0000000E+00;  0.0000000E+00;  1.0000000E+04;  0.0000000E+00;  1.0000000E+04; -6.9313492E-03;  0.0000000E+00;  1.0298503E-04;  2.1623631E+00;
 -7.9999998E-02;  9.9999998E-03;  2.3999999E-01;317;  0.0000000E+00;  0.0000000E+00;  0.0000000E+00;  1.0000089E+03;  4.0000001E-01;  7.4071970E+00;0;  0.0000000E+00;  0.0000000E+00;  0.0000000E+00;0; -6.0990811E-03;  1.0000000E+04;  0.0000000E+00;  0.0000000E+00;  1.0000000E+04;  0.0000000E+00;  1.0000000E+04; -6.1077788E-03;  0.0000000E+00;  8.6975970E-06;  8.2447863E-01;
 -7.9999998E-02;  9.9999998E-03;  2.5999999E-01;318;  0.0000000E+00;  0.0000000E+00;  0.0000000E+00;  1.0000078E+03;  4.0000001E-01;  6.4195704E+00;0;  0.0000000E+00;  0.0000000E+00;  0.0000000E+00;0; -5.1881834E-03;  1.0000000E+04;  0.0000000E+00;  0.0000000E+00;  1.0000000E+04;  0.0000000E+00;  1.0000000E+04; -5.0788568E-03;  0.0000000E+00; -1.0932665E-04;  8.5596812E-01;
 -7.9999998E-02;  9.9999998E-03;  2.8000000E-01;319;  0.0000000E+00;  0.0000000E+00;  0.0000000E+00;  1.0000060E+03;  4.0000001E-01;  5.0368938E+00;0;  0.0000000E+00;  0.0000000E+00;  0.0000000E+00;0; -4.1325213E-03;  1.0000000E+04;  0.0000000E+00;  0.0000000E+00;  1.0000000E+04;  0.0000000E+00;  1.0000000E+04; -3.9145090E-03;  0.0000000E+00; -2.1801228E-04;  2.4325054E+00;
 -7.9999998E-02;  9.9999998E-03;  3.0000001E-01;320;  0.0000000E+00;  0.0000000E+00;  0.0000000E+00;  1.0000045E+03;  4.0000001E-01;  3.7529798E+00;0;  0.0000000E+00;  0.0000000E+00;  0.0000000E+00;0; -3.0357682E-03;  1.0000000E+04;  0.0000000E+00;  0.0000000E+00;  1.0000000E+04;  0.0000000E+00;  1.0000000E+04; -2.7479355E-03;  0.0000000E+00; -2.8783269E-04;  3.4959855E+00;
 -7.9999998E-02;  9.9999998E-03;  3.1999999E-01;321;  0.0000000E+00;  0.0000000E+00;  0.0000000E+00;  1.0000030E+03;  4.0000001E-01;  2.4690657E+00;0;  0.0000000E+00;  0.0000000E+00;  0.0000000E+00;0; -2.0353331E-03;  1.0000000E+04;  0.0000000E+00;  0.0000000E+00;  1.0000000E+04;  0.0000000E+00;  1.0000000E+04; -1.7295884E-03;  0.0000000E+00; -3.0574473E-04;  3.8534114E+00;
 -5.9999999E-02;  9.9999998E-03;  1.6000000E-01;354;  0.0000000E+00;  0.0000000E+00;  0.0000000E+00;  1.0000233E+03;  4.0000001E-01;  1.9258711E+01;0;  0.0000000E+00;  0.0000000E+00;  0.0000000E+00;0; -1.5650105E-02;  1.0000000E+04;  0.0000000E+00;  0.0000000E+00;  1.0000000E+04;  0.0000000E+00;  1.0000000E+04; -1.6037891E-02;  0.0000000E+00;  3.8778674E-04;  6.9820013E+00;
 -5.9999999E-02;  9.9999998E-03;  1.8000001E-01;355;  0.0000000E+00;  0.0000000E+00;  0.0000000E+00;  1.0000223E+03;  4.0000001E-01;  1.8468611E+01;0;  0.0000000E+00;  0.0000000E+00;  0.0000000E+00;0; -1.5095373E-02;  1.0000000E+04;  0.0000000E+00;  0.0000000E+00;  1.0000000E+04;  0.0000000E+00;  1.0000000E+04; -1.5495570E-02;  0.0000000E+00;  4.0019752E-04;  7.1037450E+00;
 -5.9999999E-02;  9.9999998E-03;  2.0000000E-01;356;  0.0000000E+00;  0.0000000E+00;  0.0000000E+00;  1.0000212E+03;  4.0000001E-01;  1.7579746E+01;0;  0.0000000E+00;  0.0000000E+00;  0.0000000E+00;0; -1.4320756E-02;  1.0000000E+04;  0.0000000E+00;  0.0000000E+00;  1.0000000E+04;  0.0000000E+00;  1.0000000E+04; -1.4678705E-02;  0.0000000E+00;  3.5794807E-04;  6.4676995E+00;
 -5.9999999E-02;  9.9999998E-03;  2.2000000E-01;357;  0.0000000E+00;  0.0000000E+00;  0.0000000E+00;  1.0000198E+03;  4.0000001E-01;  1.6394596E+01;0;  0.0000000E+00;  0.0000000E+00;  0.0000000E+00;0; -1.3279197E-02;  1.0000000E+04;  0.0000000E+00;  0.0000000E+00;  1.0000000E+04;  0.0000000E+00;  1.0000000E+04; -1.3514166E-02;  0.0000000E+00;  2.3496927E-04;  4.7137752E+00;
 -5.9999999E-02;  9.9999998E-03;  2.3999999E-01;358;  0.0000000E+00;  0.0000000E+00;  0.0000000E+00;  1.0000178E+03;  4.0000001E-01;  1.4715631E+01;0;  0.0000000E+00;  0.0000000E+00;  0.0000000E+00;0; -1.1924610E-02;  1.0000000E+04;  0.0000000E+00;  0.0000000E+00;  1.0000000E+04;  0.0000000E+00;  1.0000000E+04; -1.1950555E-02;  0.0000000E+00;  2.5944597E-05;  1.7585459E+00;
 -5.9999999E-02;  9.9999998E-03;  2.5999999E-01;359;  0.0000000E+00;  0.0000000E+00;  0.0000000E+00;  1.0000152E+03;  4.0000001E-01;  1.2542853E+01;0;  0.0000000E+00;  0.0000000E+00;  0.0000000E+00;0; -1.0235769E-02;  1.0000000E+04;  0.0000000E+00;  0.0000000E+00;  1.0000000E+04;  0.0000000E+00;  1.0000000E+04; -1.0000656E-02;  0.0000000E+00; -2.3511227E-04;  1.9476850E+00;
 -5.9999999E-02;  9.9999998E-03;  2.8000000E-01;360;  0.0000000E+00;  0.0000000E+00;  0.0000000E+00;  1.0000123E+03;  4.0000001E-01;  1.0172550E+01;0;  0.0000000E+00;  0.0000000E+00;  0.0000000E+00;0; -8.2663959E-03;  1.0000000E+04;  0.0000000E+00;  0.0000000E+00;  1.0000000E+04;  0.0000000E+00;  1.0000000E+04; -7.7866898E-03;  0.0000000E+00; -4.7970653E-04;  5.4756999E+00;
 -5.9999999E-02;  9.9999998E-03;  3.0000001E-01;361;  0.0000000E+00;  0.0000000E+00;  0.0000000E+00;  1.0000093E+03;  4.0000001E-01;  7.7034845E+00;0;  0.0000000E+00;  0.0000000E+00;  0.0000000E+00;0; -6.1974321E-03;  1.0000000E+04;  0.0000000E+00;  0.0000000E+00;  1.0000000E+04;  0.0000000E+00;  1.0000000E+04; -5.5523915E-03;  0.0000000E+00; -6.4504059E-04;  7.9530077E+00;
 -5.9999999E-02;  9.9999998E-03;  3.1999999E-01;362;  0.0000000E+00;  0.0000000E+00;  0.0000000E+00;  1.0000064E+03;  4.0000001E-01;  5.3331819E+00;0;  0.0000000E+00;  0.0000000E+00;  0.0000000E+00;0; -4.2850482E-03;  1.0000000E+04;  0.0000000E+00;  0.0000000E+00;  1.0000000E+04;  0.0000000E+00;  1.0000000E+04; -3.5824012E-03;  0.0000000E+00; -7.0264691E-04;  8.9595795E+00;
 -3.9999999E-02;  9.9999998E-03;  1.6000000E-01;395;  0.0000000E+00;  0.0000000E+00;  0.0000000E+00;  1.0000385E+03;  4.0000001E-01;  3.1900328E+01;0;  0.0000000E+00;  0.0000000E+00;  0.0000000E+00;0; -2.5821071E-02;  1.0000000E+04;  0.0000000E+00;  0.0000000E+00;  1.0000000E+04;  0.0000000E+00;  1.0000000E+04; -2.6570773E-02;  0.0000000E+00;  7.4970227E-04;  1.3098940E+01;
 -3.9999999E-02;  9.9999998E-03;  1.8000001E-01;396;  0.0000000E+00;  0.0000000E+00;  0.0000000E+00;  1.0000370E+03;  4.0000001E-01;  3.0616413E+01;0;  0.0000000E+00;  0.0000000E+00;  0.0000000E+00;0; -2.4928095E-02;  1.0000000E+04;  0.0000000E+00;  0.0000000E+00;  1.0000000E+04;  0.0000000E+00;  1.0000000E+04; -2.5697997E-02;  0.0000000E+00;  7.6990161E-04;  1.3313687E+01;
 -3.9999999E-02;  9.9999998E-03;  2.0000000E-01;397;  0.0000000E+00;  0.0000000E+00;  0.0000000E+00;  1.0000353E+03;  4.0000001E-01;  2.9233736E+01;0;  0.0000000E+00;  0.0000000E+00;  0.0000000E+00;0; -2.3692055E-02;  1.0000000E+04;  0.0000000E+00;  0.0000000E+00;  1.0000000E+04;  0.0000000E+00;  1.0000000E+04; -2.4379645E-02;  0.0000000E+00;  6.8759022E-04;  1.2103006E+01;
 -3.9999999E-02;  9.9999998E-03;  2.2000000E-01;398;  0.0000000E+00;  0.0000000E+00;  0.0000000E+00;  1.0000328E+03;  4.0000001E-01;  2.7159721E+01;0;  0.0000000E+00;  0.0000000E+00;  0.0000000E+00;0; -2.2041988E-02;  1.0000000E+04;  0.0000000E+00;  0.0000000E+00;  1.0000000E+04;  0.0000000E+00;  1.0000000E+04; -2.2498298E-02;  0.0000000E+00;  4.5630999E-04;  8.8177977E+00;
 -3.9999999E-02;  9.9999998E-03;  2.3999999E-01;399;  0.0000000E+00;  0.0000000E+00;  0.0000000E+00;  1.0000296E+03;  4.0000001E-01;  2.4493132E+01;0;  0.0000000E+00;  0.0000000E+00;  0.0000000E+00;0; -1.9903453E-02;  1.0000000E+04;  0.0000000E+00;  0.0000000E+00;  1.0000000E+04;  0.0000000E+00;  1.0000000E+04; -1.9969596E-02;  0.0000000E+00;  6.6143075E-05;  3.3011546E+00;
 -3.9999999E-02;  9.9999998E-03;  2.5999999E-01;400;  0.0000000E+00;  0.0000000E+00;  0.0000000E+00;  1.0000258E+03;  4.0000001E-01;  2.1332727E+01;0;  0.0000000E+00;  0.0000000E+00;  0.0000000E+00;0; -1.7230118E-02;  1.0000000E+04;  0.0000000E+00;  0.0000000E+00;  1.0000000E+04;  0.0000000E+00;  1.0000000E+04; -1.6804617E-02;  0.0000000E+00; -4.2549989E-04;  3.6810951E+00;
 -3.9999999E-02;  9.9999998E-03;  2.8000000E-01;401;  0.0000000E+00;  0.0000000E+00;  0.0000000E+00;  1.0000210E+03;  4.0000001E-01;  1.7382221E+01;0;  0.0000000E+00;  0.0000000E+00;  0.0000000E+00;0; -1.4078777E-02;  1.0000000E+04;  0.0000000E+00;  0.0000000E+00;  1.0000000E+04;  0.0000000E+00;  1.0000000E+04; -1.3182076E-02;  0.0000000E+00; -8.9670153E-04;  1.0463865E+01;
 -3.9999999E-02;  9.9999998E-03;  3.0000001E-01;402;  0.0000000E+00;  0.0000000E+00;  0.0000000E+00;  1.0000160E+03;  4.0000001E-01;  1.3234192E+01;0;  0.0000000E+00;  0.0000000E+00;  0.0000000E+00;0; -1.0715678E-02;  1.0000000E+04;  0.0000000E+00;  0.0000000E+00;  1.0000000E+04;  0.0000000E+00;  1.0000000E+04; -9.4894366E-03;  0.0000000E+00; -1.2262422E-03;  1.5359374E+01;
 -3.9999999E-02;  9.9999998E-03;  3.1999999E-01;403;  0.0000000E+00;  0.0000000E+00;  0.0000000E+00;  1.0000112E+03;  4.0000001E-01;  9.2836866E+00;0;  0.0000000E+00;  0.0000000E+00;  0.0000000E+00;0; -7.5639589E-03;  1.0000000E+04;  0.0000000E+00;  0.0000000E+00;  1.0000000E+04;  0.0000000E+00;  1.0000000E+04; -6.2075681E-03;  0.0000000E+00; -1.3563907E-03;  1.7520067E+01;
 -2.0000000E-02;  9.9999998E-03;  1.6000000E-01;436;  0.0000000E+00;  0.0000000E+00;  0.0000000E+00;  1.0000559E+03;  4.0000001E-01;  4.6319672E+01;0;  0.0000000E+00;  0.0000000E+00;  0.0000000E+00;0; -3.7238732E-02;  1.0000000E+04;  0.0000000E+00;  0.0000000E+00;  1.0000000E+04;  0.0000000E+00;  1.0000000E+04; -3.8490359E-02;  0.0000000E+00;  1.2516261E-03;  2.1418709E+01;
 -2.0000000E-02;  9.9999998E-03;  1.8000001E-01;437;  0.0000000E+00;  0.0000000E+00;  0.0000000E+00;  1.0000541E+03;  4.0000001E-01;  4.4838230E+01;0;  0.0000000E+00;  0.0000000E+00;  0.0000000E+00;0; -3.6003426E-02;  1.0000000E+04;  0.0000000E+00;  0.0000000E+00;  1.0000000E+04;  0.0000000E+00;  1.0000000E+04; -3.7287053E-02;  0.0000000E+00;  1.2836270E-03;  2.1802862E+01;
 -2.0000000E-02;  9.9999998E-03;  2.0000000E-01;438;  0.0000000E+00;  0.0000000E+00;  0.0000000E+00;  1.0000515E+03;  4.0000001E-01;  4.2665455E+01;0;  0.0000000E+00;  0.0000000E+00;  0.0000000E+00;0; -3.4300897E-02;  1.0000000E+04;  0.0000000E+00;  0.0000000E+00;  1.0000000E+04;  0.0000000E+00;  1.0000000E+04; -3.5450470E-02;  0.0000000E+00;  1.1495737E-03;  1.9861956E+01;
 -2.0000000E-02;  9.9999998E-03;  2.2000000E-01;439;  0.0000000E+00;  0.0000000E+00;  0.0000000E+00;  1.0000482E+03;  4.0000001E-01;  3.9900101E+01;0;  0.0000000E+00;  0.0000000E+00;  0.0000000E+00;0; -3.2034133E-02;  1.0000000E+04;  0.0000000E+00;  0.0000000E+00;  1.0000000E+04;  0.0000000E+00;  1.0000000E+04; -3.2810442E-02;  0.0000000E+00;  7.7630806E-04;  1.4558501E+01;
 -2.0000000E-02;  9.9999998E-03;  2.3999999E-01;440;  0.0000000E+00;  0.0000000E+00;  0.0000000E+00;  1.0000438E+03;  4.0000001E-01;  3.6245884E+01;0;  0.0000000E+00;  0.0000000E+00;  0.0000000E+00;0; -2.9096102E-02;  1.0000000E+04;  0.0000000E+00;  0.0000000E+00;  1.0000000E+04;  0.0000000E+00;  1.0000000E+04; -2.9241281E-02;  0.0000000E+00;  1.4517887E-04;  5.6001287E+00;
 -2.0000000E-02;  9.9999998E-03;  2.5999999E-01;441;  0.0000000E+00;  0.0000000E+00;  0.0000000E+00;  1.0000383E+03;  4.0000001E-01;  3.1702803E+01;0;  0.0000000E+00;  0.0000000E+00;  0.0000000E+00;0; -2.5408087E-02;  1.0000000E+04;  0.0000000E+00;  0.0000000E+00;  1.0000000E+04;  0.0000000E+00;  1.0000000E+04; -2.4745047E-02;  0.0000000E+00; -6.6304056E-04;  5.9231381E+00;
 -2.0000000E-02;  9.9999998E-03;  2.8000000E-01;442;  0.0000000E+00;  0.0000000E+00;  0.0000000E+00;  1.0000316E+03;  4.0000001E-01;  2.6172096E+01;0;  0.0000000E+00;  0.0000000E+00;  0.0000000E+00;0; -2.1009125E-02;  1.0000000E+04;  0.0000000E+00;  0.0000000E+00;  1.0000000E+04;  0.0000000E+00;  1.0000000E+04; -1.9546442E-02;  0.0000000E+00; -1.4626835E-03;  1.7448021E+01;
 -2.0000000E-02;  9.9999998E-03;  3.0000001E-01;443;  0.0000000E+00;  0.0000000E+00;  0.0000000E+00;  1.0000245E+03;  4.0000001E-01;  2.0345100E+01;0;  0.0000000E+00;  0.0000000E+00;  0.0000000E+00;0; -1.6213091E-02;  1.0000000E+04;  0.0000000E+00;  0.0000000E+00;  1.0000000E+04;  0.0000000E+00;  1.0000000E+04; -1.4173395E-02;  0.0000000E+00; -2.0396968E-03;  2.5987879E+01;
 -2.0000000E-02;  9.9999998E-03;  3.1999999E-01;444;  0.0000000E+00;  0.0000000E+00;  0.0000000E+00;  1.0000177E+03;  4.0000001E-01;  1.4616868E+01;0;  0.0000000E+00;  0.0000000E+00;  0.0000000E+00;0; -1.1633513E-02;  1.0000000E+04;  0.0000000E+00;  0.0000000E+00;  1.0000000E+04;  0.0000000E+00;  1.0000000E+04; -9.3526002E-03;  0.0000000E+00; -2.2809133E-03;  2.9895708E+01;
  0.0000000E+00;  9.9999998E-03;  3.0000001E-01;455;  0.0000000E+00;  0.0000000E+00;  0.0000000E+00;  1.0000334E+03;  4.0000001E-01;  2.7653534E+01;0;  0.0000000E+00;  0.0000000E+00;  0.0000000E+00;0; -2.1918070E-02;  1.0000000E+04;  0.0000000E+00;  0.0000000E+00;  1.0000000E+04;  0.0000000E+00;  1.0000000E+04; -1.8917369E-02;  0.0000000E+00; -3.0006999E-03;  3.8965954E+01;
  0.0000000E+00;  9.9999998E-03;  3.1999999E-01;456;  0.0000000E+00;  0.0000000E+00;  0.0000000E+00;  1.0000244E+03;  4.0000001E-01;  2.0246338E+01;0;  0.0000000E+00;  0.0000000E+00;  0.0000000E+00;0; -1.5991421E-02;  1.0000000E+04;  0.0000000E+00;  0.0000000E+00;  1.0000000E+04;  0.0000000E+00;  1.0000000E+04; -1.2586956E-02;  0.0000000E+00; -3.4044648E-03;  4.5391453E+01;
  2.0000000E-02;  9.9999998E-03;  3.1999999E-01;466;  0.0000000E+00;  0.0000000E+00;  0.0000000E+00;  1.0000312E+03;  4.0000001E-01;  2.5875807E+01;0;  0.0000000E+00;  0.0000000E+00;  0.0000000E+00;0; -2.0099865E-02;  1.0000000E+04;  0.0000000E+00;  0.0000000E+00;  1.0000000E+04;  0.0000000E+00;  1.0000000E+04; -1.5540515E-02;  0.0000000E+00; -4.5593497E-03;  6.2062099E+01;
  3.9999999E-02;  9.9999998E-03;  3.1999999E-01;476;  0.0000000E+00;  0.0000000E+00;  0.0000000E+00;  1.0000377E+03;  4.0000001E-01;  3.1208990E+01;0;  0.0000000E+00;  0.0000000E+00;  0.0000000E+00;0; -2.3775958E-02;  1.0000000E+04;  0.0000000E+00;  0.0000000E+00;  1.0000000E+04;  0.0000000E+00;  1.0000000E+04; -1.8230585E-02;  0.0000000E+00; -5.5453721E-03;  7.7454498E+01;
  5.9999999E-02;  9.9999998E-03;  3.1999999E-01;486;  0.0000000E+00;  0.0000000E+00;  0.0000000E+00;  1.0000443E+03;  4.0000001E-01;  3.6640934E+01;0;  0.0000000E+00;  0.0000000E+00;  0.0000000E+00;0; -2.7298296E-02;  1.0000000E+04;  0.0000000E+00;  0.0000000E+00;  1.0000000E+04;  0.0000000E+00;  1.0000000E+04; -2.1019083E-02;  0.0000000E+00; -6.2792138E-03;  9.0544197E+01;
  7.9999998E-02;  9.9999998E-03;  3.1999999E-01;496;  0.0000000E+00;  0.0000000E+00;  0.0000000E+00;  1.0000521E+03;  4.0000001E-01;  4.3159267E+01;0;  0.0000000E+00;  0.0000000E+00;  0.0000000E+00;0; -3.1263843E-02;  1.0000000E+04;  0.0000000E+00;  0.0000000E+00;  1.0000000E+04;  0.0000000E+00;  1.0000000E+04; -2.4467876E-02;  0.0000000E+00; -6.7959656E-03;  1.0207978E+02;
  1.0000000E-01;  9.9999998E-03;  3.1999999E-01;506;  0.0000000E+00;  0.0000000E+00;  0.0000000E+00;  1.0000629E+03;  4.0000001E-01;  5.2047901E+01;0;  0.0000000E+00;  0.0000000E+00;  0.0000000E+00;0; -3.6608171E-02;  1.0000000E+04;  0.0000000E+00;  0.0000000E+00;  1.0000000E+04;  0.0000000E+00;  1.0000000E+04; -2.9379021E-02;  0.0000000E+00; -7.2291507E-03;  1.2444051E+02;
  1.2000000E-01;  9.9999998E-03;  3.1999999E-01;516;  0.0000000E+00;  0.0000000E+00;  0.0000000E+00;  1.0000784E+03;  4.0000001E-01;  6.4985809E+01;0;  0.0000000E+00;  0.0000000E+00;  0.0000000E+00;0; -4.4516355E-02;  1.0000000E+04;  0.0000000E+00;  0.0000000E+00;  1.0000000E+04;  0.0000000E+00;  1.0000000E+04; -3.6698315E-02;  0.0000000E+00; -7.8180386E-03;  2.3946533E+02;
  1.4000000E-01;  9.9999998E-03;  3.1999999E-01;526;  0.0000000E+00;  0.0000000E+00;  0.0000000E+00;  1.0001020E+03;  4.0000001E-01;  8.4540810E+01;0;  0.0000000E+00;  0.0000000E+00;  0.0000000E+00;0; -5.6359280E-02;  1.0000000E+04;  0.0000000E+00;  0.0000000E+00;  1.0000000E+04;  0.0000000E+00;  1.0000000E+04; -4.7418486E-02;  0.0000000E+00; -8.9407936E-03;  6.0670032E+02;
  1.6000000E-01;  9.9999998E-03;  3.1999999E-01;536;  0.0000000E+00;  0.0000000E+00;  0.0000000E+00;  1.0001361E+03;  4.0000001E-01;  1.1278692E+02;0;  0.0000000E+00;  0.0000000E+00;  0.0000000E+00;0; -7.3338315E-02;  1.0000000E+04;  0.0000000E+00;  0.0000000E+00;  1.0000000E+04;  0.0000000E+00;  1.0000000E+04; -6.2146876E-02;  0.0000000E+00; -1.1191440E-02;  1.4104487E+03;
  1.8000001E-01;  9.9999998E-03;  3.1999999E-01;546;  0.0000000E+00;  0.0000000E+00;  0.0000000E+00;  1.0001818E+03;  4.0000001E-01;  1.5061301E+02;0;  0.0000000E+00;  0.0000000E+00;  0.0000000E+00;0; -9.5559984E-02;  1.0000000E+04;  0.0000000E+00;  0.0000000E+00;  1.0000000E+04;  0.0000000E+00;  1.0000000E+04; -8.0048822E-02;  0.0000000E+00; -1.5511164E-02;  2.7866772E+03;
  2.0000000E-01;  9.9999998E-03;  3.1999999E-01;555;  0.0000000E+00;  0.0000000E+00;  0.0000000E+00;  1.0002374E+03;  4.0000001E-01;  1.9663638E+02;0;  0.0000000E+00;  0.0000000E+00;  0.0000000E+00;0; -1.2164527E-01;  1.0000000E+04;  0.0000000E+00;  0.0000000E+00;  1.0000000E+04;  0.0000000E+00;  1.0000000E+04; -9.8399274E-02;  0.0000000E+00; -2.3246001E-02;  4.5298433E+03;
 -2.2000000E-01;  9.9999998E-03;  3.4000000E-01;36;  0.0000000E+00;  0.0000000E+00;  0.0000000E+00;  1.0000000E+03;  4.0000001E-01;  0.0000000E+00;0;  0.0000000E+00;  0.0000000E+00;  0.0000000E+00;0;  0.0000000E+00;  1.0000000E+04;  0.0000000E+00;  0.0000000E+00;  1.0000000E+04;  0.0000000E+00;  1.0000000E+04;  0.0000000E+00;  0.0000000E+00;  0.0000000E+00;  0.0000000E+00;
 -2.2000000E-01;  9.9999998E-03;  3.6000001E-01;37;  0.0000000E+00;  0.0000000E+00;  0.0000000E+00;  1.0000000E+03;  4.0000001E-01;  0.0000000E+00;0;  0.0000000E+00;  0.0000000E+00;  0.0000000E+00;0;  0.0000000E+00;  1.0000000E+04;  0.0000000E+00;  0.0000000E+00;  1.0000000E+04;  0.0000000E+00;  1.0000000E+04;  0.0000000E+00;  0.0000000E+00;  0.0000000E+00;  0.0000000E+00;
 -2.2000000E-01;  9.9999998E-03;  3.8000000E-01;38;  0.0000000E+00;  0.0000000E+00;  0.0000000E+00;  1.0000000E+03;  4.0000001E-01;  0.0000000E+00;0;  0.0000000E+00;  0.0000000E+00;  0.0000000E+00;0;  0.0000000E+00;  1.0000000E+04;  0.0000000E+00;  0.0000000E+00;  1.0000000E+04;  0.0000000E+00;  1.0000000E+04;  0.0000000E+00;  0.0000000E+00;  0.0000000E+00;  0.0000000E+00;
 -2.0000000E-01;  9.9999998E-03;  3.4000000E-01;76;  0.0000000E+00;  0.0000000E+00;  0.0000000E+00;  1.0000000E+03;  4.0000001E-01;  0.0000000E+00;0;  0.0000000E+00;  0.0000000E+00;  0.0000000E+00;0;  0.0000000E+00;  1.0000000E+04;  0.0000000E+00;  0.0000000E+00;  1.0000000E+04;  0.0000000E+00;  1.0000000E+04;  0.0000000E+00;  0.0000000E+00;  0.0000000E+00;  0.0000000E+00;
 -2.0000000E-01;  9.9999998E-03;  3.6000001E-01;77;  0.0000000E+00;  0.0000000E+00;  0.0000000E+00;  1.0000000E+03;  4.0000001E-01;  0.0000000E+00;0;  0.0000000E+00;  0.0000000E+00;  0.0000000E+00;0;  0.0000000E+00;  1.0000000E+04;  0.0000000E+00;  0.0000000E+00;  1.0000000E+04;  0.0000000E+00;  1.0000000E+04;  0.0000000E+00;  0.0000000E+00;  0.0000000E+00;  0.0000000E+00;
 -2.0000000E-01;  9.9999998E-03;  3.8000000E-01;78;  0.0000000E+00;  0.0000000E+00;  0.0000000E+00;  1.0000000E+03;  4.0000001E-01;  0.0000000E+00;0;  0.0000000E+00;  0.0000000E+00;  0.0000000E+00;0;  0.0000000E+00;  1.0000000E+04;  0.0000000E+00;  0.0000000E+00;  1.0000000E+04;  0.0000000E+00;  1.0000000E+04;  0.0000000E+00;  0.0000000E+00;  0.0000000E+00;  0.0000000E+00;
 -2.0000000E-01;  9.9999998E-03;  4.0000001E-01;79;  0.0000000E+00;  0.0000000E+00;  0.0000000E+00;  1.0000000E+03;  4.0000001E-01;  0.0000000E+00;0;  0.0000000E+00;  0.0000000E+00;  0.0000000E+00;0;  0.0000000E+00;  1.0000000E+04;  0.0000000E+00;  0.0000000E+00;  1.0000000E+04;  0.0000000E+00;  1.0000000E+04;  0.0000000E+00;  0.0000000E+00;  0.0000000E+00;  0.0000000E+00;
 -1.8000001E-01;  9.9999998E-03;  3.4000000E-01;117;  0.0000000E+00;  0.0000000E+00;  0.0000000E+00;  1.0000000E+03;  4.0000001E-01;  0.0000000E+00;0;  0.0000000E+00;  0.0000000E+00;  0.0000000E+00;0;  0.0000000E+00;  1.0000000E+04;  0.0000000E+00;  0.0000000E+00;  1.0000000E+04;  0.0000000E+00;  1.0000000E+04;  0.0000000E+00;  0.0000000E+00;  0.0000000E+00;  0.0000000E+00;
 -1.8000001E-01;  9.9999998E-03;  3.6000001E-01;118;  0.0000000E+00;  0.0000000E+00;  0.0000000E+00;  1.0000000E+03;  4.0000001E-01;  0.0000000E+00;0;  0.0000000E+00;  0.0000000E+00;  0.0000000E+00;0;  0.0000000E+00;  1.0000000E+04;  0.0000000E+00;  0.0000000E+00;  1.0000000E+04;  0.0000000E+00;  1.0000000E+04;  0.0000000E+00;  0.0000000E+00;  0.0000000E+00;  0.0000000E+00;
 -1.8000001E-01;  9.9999998E-03;  3.8000000E-01;119;  0.0000000E+00;  0.0000000E+00;  0.0000000E+00;  1.0000000E+03;  4.0000001E-01;  0.0000000E+00;0;  0.0000000E+00;  0.0000000E+00;  0.0000000E+00;0;  0.0000000E+00;  1.0000000E+04;  0.0000000E+00;  0.0000000E+00;  1.0000000E+04;  0.0000000E+00;  1.0000000E+04;  0.0000000E+00;  0.0000000E+00;  0.0000000E+00;  0.0000000E+00;
 -1.8000001E-01;  9.9999998E-03;  4.0000001E-01;120;  0.0000000E+00;  0.0000000E+00;  0.0000000E+00;  1.0000000E+03;  4.0000001E-01;  0.0000000E+00;0;  0.0000000E+00;  0.0000000E+00;  0.0000000E+00;0;  0.0000000E+00;  1.0000000E+04;  0.0000000E+00;  0.0000000E+00;  1.0000000E+04;  0.0000000E+00;  1.0000000E+04;  0.0000000E+00;  0.0000000E+00;  0.0000000E+00;  0.0000000E+00;
 -1.6000000E-01;  9.9999998E-03;  3.4000000E-01;158;  0.0000000E+00;  0.0000000E+00;  0.0000000E+00;  1.0000000E+03;  4.0000001E-01;  0.0000000E+00;0;  0.0000000E+00;  0.0000000E+00;  0.0000000E+00;0;  0.0000000E+00;  1.0000000E+04;  0.0000000E+00;  0.0000000E+00;  1.0000000E+04;  0.0000000E+00;  1.0000000E+04;  0.0000000E+00;  0.0000000E+00;  0.0000000E+00;  0.0000000E+00;
 -1.6000000E-01;  9.9999998E-03;  3.6000001E-01;159;  0.0000000E+00;  0.0000000E+00;  0.0000000E+00;  1.0000000E+03;  4.0000001E-01;  0.0000000E+00;0;  0.0000000E+00;  0.0000000E+00;  0.0000000E+00;0;  0.0000000E+00;  1.0000000E+04;  0.0000000E+00;  0.0000000E+00;  1.0000000E+04;  0.0000000E+00;  1.0000000E+04;  0.0000000E+00;  0.0000000E+00;  0.0000000E+00;  0.0000000E+00;
 -1.6000000E-01;  9.9999998E-03;  3.8000000E-01;160;  0.0000000E+00;  0.0000000E+00;  0.0000000E+00;  1.0000000E+03;  4.0000001E-01;  0.0000000E+00;0;  0.0000000E+00;  0.0000000E+00;  0.0000000E+00;0;  0.0000000E+00;  1.0000000E+04;  0.0000000E+00;  0.0000000E+00;  1.0000000E+04;  0.0000000E+00;  1.0000000E+04;  0.0000000E+00;  0.0000000E+00;  0.0000000E+00;  0.0000000E+00;
 -1.6000000E-01;  9.9999998E-03;  4.0000001E-01;161;  0.0000000E+00;  0.0000000E+00;  0.0000000E+00;  1.0000000E+03;  4.0000001E-01;  0.0000000E+00;0;  0.0000000E+00;  0.0000000E+00;  0.0000000E+00;0;  0.0000000E+00;  1.0000000E+04;  0.0000000E+00;  0.0000000E+00;  1.0000000E+04;  0.0000000E+00;  1.0000000E+04;  0.0000000E+00;  0.0000000E+00;  0.0000000E+00;  0.0000000E+00;
 -1.4000000E-01;  9.9999998E-03;  3.4000000E-01;199;  0.0000000E+00;  0.0000000E+00;  0.0000000E+00;  1.0000000E+03;  4.0000001E-01;  0.0000000E+00;0;  0.0000000E+00;  0.0000000E+00;  0.0000000E+00;0; -7.6001434E-06;  1.0000000E+04;  0.0000000E+00;  0.0000000E+00;  1.0000000E+04;  0.0000000E+00;  1.0000000E+04; -6.4135374E-06;  0.0000000E+00; -1.1866058E-06;  1.4872340E-02;
 -1.4000000E-01;  9.9999998E-03;  3.6000001E-01;200;  0.0000000E+00;  0.0000000E+00;  0.0000000E+00;  1.0000000E+03;  4.0000001E-01;  0.0000000E+00;0;  0.0000000E+00;  0.0000000E+00;  0.0000000E+00;0; -8.8372059E-07;  1.0000000E+04;  0.0000000E+00;  0.0000000E+00;  1.0000000E+04;  0.0000000E+00;  1.0000000E+04; -6.9617704E-07;  0.0000000E+00; -1.8754353E-07;  2.3859793E-03;
 -1.4000000E-01;  9.9999998E-03;  3.8000000E-01;201;  0.0000000E+00;  0.0000000E+00;  0.0000000E+00;  1.0000000E+03;  4.0000001E-01;  0.0000000E+00;0;  0.0000000E+00;  0.0000000E+00;  0.0000000E+00;0;  0.0000000E+00;  1.0000000E+04;  0.0000000E+00;  0.0000000E+00;  1.0000000E+04;  0.0000000E+00;  1.0000000E+04;  0.0000000E+00;  0.0000000E+00;  0.0000000E+00;  0.0000000E+00;
 -1.4000000E-01;  9.9999998E-03;  4.0000001E-01;202;  0.0000000E+00;  0.0000000E+00;  0.0000000E+00;  1.0000000E+03;  4.0000001E-01;  0.0000000E+00;0;  0.0000000E+00;  0.0000000E+00;  0.0000000E+00;0;  0.0000000E+00;  1.0000000E+04;  0.0000000E+00;  0.0000000E+00;  1.0000000E+04;  0.0000000E+00;  1.0000000E+04;  0.0000000E+00;  0.0000000E+00;  0.0000000E+00;  0.0000000E+00;
 -1.2000000E-01;  9.9999998E-03;  3.4000000E-01;240;  0.0000000E+00;  0.0000000E+00;  0.0000000E+00;  1.0000000E+03;  4.0000001E-01;  0.0000000E+00;0;  0.0000000E+00;  0.0000000E+00;  0.0000000E+00;0; -9.3633891E-05;  1.0000000E+04;  0.0000000E+00;  0.0000000E+00;  1.0000000E+04;  0.0000000E+00;  1.0000000E+04; -7.6710057E-05;  0.0000000E+00; -1.6923836E-05;  2.1453720E-01;
 -1.2000000E-01;  9.9999998E-03;  3.6000001E-01;241;  0.0000000E+00;  0.0000000E+00;  0.0000000E+00;  1.0000000E+03;  4.0000001E-01;  0.0000000E+00;0;  0.0000000E+00;  0.0000000E+00;  0.0000000E+00;0; -3.1312331E-05;  1.0000000E+04;  0.0000000E+00;  0.0000000E+00;  1.0000000E+04;  0.0000000E+00;  1.0000000E+04; -2.3602068E-05;  0.0000000E+00; -7.7102650E-06;  9.8646075E-02;
 -1.2000000E-01;  9.9999998E-03;  3.8000000E-01;242;  0.0000000E+00;  0.0000000E+00;  0.0000000E+00;  1.0000000E+03;  4.0000001E-01;  0.0000000E+00;0;  0.0000000E+00;  0.0000000E+00;  0.0000000E+00;0; -4.6434893E-06;  1.0000000E+04;  0.0000000E+00;  0.0000000E+00;  1.0000000E+04;  0.0000000E+00;  1.0000000E+04; -3.2764465E-06;  0.0000000E+00; -1.3670427E-06;  1.7586580E-02;
 -1.2000000E-01;  9.9999998E-03;  4.0000001E-01;243;  0.0000000E+00;  0.0000000E+00;  0.0000000E+00;  1.0000000E+03;  4.0000001E-01;  0.0000000E+00;0;  0.0000000E+00;  0.0000000E+00;  0.0000000E+00;0; -9.2714216E-18;  1.0000000E+04;  0.0000000E+00;  0.0000000E+00;  1.0000000E+04;  0.0000000E+00;  1.0000000E+04; -6.5142765E-18;  0.0000000E+00; -2.7571454E-18;  8.5864467E-15;
 -1.0000000E-01;  9.9999998E-03;  3.4000000E-01;281;  0.0000000E+00;  0.0000000E+00;  0.0000000E+00;  1.0000006E+03;  4.0000001E-01;  4.9381313E-01;0;  0.0000000E+00;  0.0000000E+00;  0.0000000E+00;0; -4.2449211E-04;  1.0000000E+04;  0.0000000E+00;  0.0000000E+00;  1.0000000E+04;  0.0000000E+00;  1.0000000E+04; -3.3871140E-04;  0.0000000E+00; -8.5780717E-05;  1.0932000E+00;
 -1.0000000E-01;  9.9999998E-03;  3.6000001E-01;282;  0.0000000E+00;  0.0000000E+00;  0.0000000E+00;  1.0000002E+03;  4.0000001E-01;  1.9752525E-01;0;  0.0000000E+00;  0.0000000E+00;  0.0000000E+00;0; -1.9421827E-04;  1.0000000E+04;  0.0000000E+00;  0.0000000E+00;  1.0000000E+04;  0.0000000E+00;  1.0000000E+04; -1.4087030E-04;  0.0000000E+00; -5.3347969E-05;  6.8760389E-01;
 -1.0000000E-01;  9.9999998E-03;  3.8000000E-01;283;  0.0000000E+00;  0.0000000E+00;  0.0000000E+00;  1.0000000E+03;  4.0000001E-01;  0.0000000E+00;0;  0.0000000E+00;  0.0000000E+00;  0.0000000E+00;0; -6.1700535E-05;  1.0000000E+04;  0.0000000E+00;  0.0000000E+00;  1.0000000E+04;  0.0000000E+00;  1.0000000E+04; -4.1275081E-05;  0.0000000E+00; -2.0425456E-05;  2.6434055E-01;
 -1.0000000E-01;  9.9999998E-03;  4.0000001E-01;284;  0.0000000E+00;  0.0000000E+00;  0.0000000E+00;  1.0000000E+03;  4.0000001E-01;  0.0000000E+00;0;  0.0000000E+00;  0.0000000E+00;  0.0000000E+00;0; -8.4808125E-06;  1.0000000E+04;  0.0000000E+00;  0.0000000E+00;  1.0000000E+04;  0.0000000E+00;  1.0000000E+04; -5.6003519E-06;  0.0000000E+00; -2.8804602E-06;  3.7312437E-02;
 -7.9999998E-02;  9.9999998E-03;  3.4000000E-01;322;  0.0000000E+00;  0.0000000E+00;  0.0000000E+00;  1.0000018E+03;  4.0000001E-01;  1.4814394E+00;0;  0.0000000E+00;  0.0000000E+00;  0.0000000E+00;0; -1.2311330E-03;  1.0000000E+04;  0.0000000E+00;  0.0000000E+00;  1.0000000E+04;  0.0000000E+00;  1.0000000E+04; -9.5944526E-04;  0.0000000E+00; -2.7168775E-04;  3.4911122E+00;
 -7.9999998E-02;  9.9999998E-03;  3.6000001E-01;323;  0.0000000E+00;  0.0000000E+00;  0.0000000E+00;  1.0000009E+03;  4.0000001E-01;  6.9133836E-01;0;  0.0000000E+00;  0.0000000E+00;  0.0000000E+00;0; -6.4925005E-04;  1.0000000E+04;  0.0000000E+00;  0.0000000E+00;  1.0000000E+04;  0.0000000E+00;  1.0000000E+04; -4.5530370E-04;  0.0000000E+00; -1.9394637E-04;  2.5174534E+00;
 -7.9999998E-02;  9.9999998E-03;  3.8000000E-01;324;  0.0000000E+00;  0.0000000E+00;  0.0000000E+00;  1.0000004E+03;  4.0000001E-01;  2.9628786E-01;0;  0.0000000E+00;  0.0000000E+00;  0.0000000E+00;0; -2.7029056E-04;  1.0000000E+04;  0.0000000E+00;  0.0000000E+00;  1.0000000E+04;  0.0000000E+00;  1.0000000E+04; -1.7294596E-04;  0.0000000E+00; -9.7344600E-05;  1.2686219E+00;
 -7.9999998E-02;  9.9999998E-03;  4.0000001E-01;325;  0.0000000E+00;  0.0000000E+00;  0.0000000E+00;  1.0000000E+03;  4.0000001E-01;  0.0000000E+00;0;  0.0000000E+00;  0.0000000E+00;  0.0000000E+00;0; -7.1222967E-05;  1.0000000E+04;  0.0000000E+00;  0.0000000E+00;  1.0000000E+04;  0.0000000E+00;  1.0000000E+04; -4.4457309E-05;  0.0000000E+00; -2.6765654E-05;  3.4872866E-01;
 -5.9999999E-02;  9.9999998E-03;  3.4000000E-01;363;  0.0000000E+00;  0.0000000E+00;  0.0000000E+00;  1.0000040E+03;  4.0000001E-01;  3.3579292E+00;0;  0.0000000E+00;  0.0000000E+00;  0.0000000E+00;0; -2.7199565E-03;  1.0000000E+04;  0.0000000E+00;  0.0000000E+00;  1.0000000E+04;  0.0000000E+00;  1.0000000E+04; -2.0692111E-03;  0.0000000E+00; -6.5074535E-04;  8.4448719E+00;
 -5.9999999E-02;  9.9999998E-03;  3.6000001E-01;364;  0.0000000E+00;  0.0000000E+00;  0.0000000E+00;  1.0000023E+03;  4.0000001E-01;  1.8764899E+00;0;  0.0000000E+00;  0.0000000E+00;  0.0000000E+00;0; -1.5509245E-03;  1.0000000E+04;  0.0000000E+00;  0.0000000E+00;  1.0000000E+04;  0.0000000E+00;  1.0000000E+04; -1.0516408E-03;  0.0000000E+00; -4.9928366E-04;  6.5378938E+00;
 -5.9999999E-02;  9.9999998E-03;  3.8000000E-01;365;  0.0000000E+00;  0.0000000E+00;  0.0000000E+00;  1.0000010E+03;  4.0000001E-01;  8.8886362E-01;0;  0.0000000E+00;  0.0000000E+00;  0.0000000E+00;0; -7.3830341E-04;  1.0000000E+04;  0.0000000E+00;  0.0000000E+00;  1.0000000E+04;  0.0000000E+00;  1.0000000E+04; -4.5235647E-04;  0.0000000E+00; -2.8594691E-04;  3.7566414E+00;
 -5.9999999E-02;  9.9999998E-03;  4.0000001E-01;366;  0.0000000E+00;  0.0000000E+00;  0.0000000E+00;  1.0000003E+03;  4.0000001E-01;  2.9628786E-01;0;  0.0000000E+00;  0.0000000E+00;  0.0000000E+00;0; -2.5289913E-04;  1.0000000E+04;  0.0000000E+00;  0.0000000E+00;  1.0000000E+04;  0.0000000E+00;  1.0000000E+04; -1.4997693E-04;  0.0000000E+00; -1.0292221E-04;  1.3508998E+00;
 -3.9999999E-02;  9.9999998E-03;  3.4000000E-01;404;  0.0000000E+00;  0.0000000E+00;  0.0000000E+00;  1.0000074E+03;  4.0000001E-01;  6.1232829E+00;0;  0.0000000E+00;  0.0000000E+00;  0.0000000E+00;0; -4.9515213E-03;  1.0000000E+04;  0.0000000E+00;  0.0000000E+00;  1.0000000E+04;  0.0000000E+00;  1.0000000E+04; -3.6664438E-03;  0.0000000E+00; -1.2850774E-03;  1.6867054E+01;
 -3.9999999E-02;  9.9999998E-03;  3.6000001E-01;405;  0.0000000E+00;  0.0000000E+00;  0.0000000E+00;  1.0000045E+03;  4.0000001E-01;  3.6542170E+00;0;  0.0000000E+00;  0.0000000E+00;  0.0000000E+00;0; -2.9610461E-03;  1.0000000E+04;  0.0000000E+00;  0.0000000E+00;  1.0000000E+04;  0.0000000E+00;  1.0000000E+04; -1.9349935E-03;  0.0000000E+00; -1.0260525E-03;  1.3576191E+01;
 -3.9999999E-02;  9.9999998E-03;  3.8000000E-01;406;  0.0000000E+00;  0.0000000E+00;  0.0000000E+00;  1.0000022E+03;  4.0000001E-01;  1.7777272E+00;0;  0.0000000E+00;  0.0000000E+00;  0.0000000E+00;0; -1.5209299E-03;  1.0000000E+04;  0.0000000E+00;  0.0000000E+00;  1.0000000E+04;  0.0000000E+00;  1.0000000E+04; -8.8928646E-04;  0.0000000E+00; -6.3164334E-04;  8.3793097E+00;
 -3.9999999E-02;  9.9999998E-03;  4.0000001E-01;407;  0.0000000E+00;  0.0000000E+00;  0.0000000E+00;  1.0000009E+03;  4.0000001E-01;  6.9133836E-01;0;  0.0000000E+00;  0.0000000E+00;  0.0000000E+00;0; -5.9518137E-04;  1.0000000E+04;  0.0000000E+00;  0.0000000E+00;  1.0000000E+04;  0.0000000E+00;  1.0000000E+04; -3.3423587E-04;  0.0000000E+00; -2.6094553E-04;  3.4563112E+00;
 -2.0000000E-02;  9.9999998E-03;  3.4000000E-01;445;  0.0000000E+00;  0.0000000E+00;  0.0000000E+00;  1.0000118E+03;  4.0000001E-01;  9.7775002E+00;0;  0.0000000E+00;  0.0000000E+00;  0.0000000E+00;0; -7.7814218E-03;  1.0000000E+04;  0.0000000E+00;  0.0000000E+00;  1.0000000E+04;  0.0000000E+00;  1.0000000E+04; -5.5932747E-03;  0.0000000E+00; -2.1881473E-03;  2.9105156E+01;
 -2.0000000E-02;  9.9999998E-03;  3.6000001E-01;446;  0.0000000E+00;  0.0000000E+00;  0.0000000E+00;  1.0000072E+03;  4.0000001E-01;  5.9257574E+00;0;  0.0000000E+00;  0.0000000E+00;  0.0000000E+00;0; -4.7986740E-03;  1.0000000E+04;  0.0000000E+00;  0.0000000E+00;  1.0000000E+04;  0.0000000E+00;  1.0000000E+04; -3.0126676E-03;  0.0000000E+00; -1.7860064E-03;  2.3929489E+01;
 -2.0000000E-02;  9.9999998E-03;  3.8000000E-01;447;  0.0000000E+00;  0.0000000E+00;  0.0000000E+00;  1.0000039E+03;  4.0000001E-01;  3.2591665E+00;0;  0.0000000E+00;  0.0000000E+00;  0.0000000E+00;0; -2.5800818E-03;  1.0000000E+04;  0.0000000E+00;  0.0000000E+00;  1.0000000E+04;  0.0000000E+00;  1.0000000E+04; -1.4342013E-03;  0.0000000E+00; -1.1458806E-03;  1.5383694E+01;
 -2.0000000E-02;  9.9999998E-03;  4.0000001E-01;448;  0.0000000E+00;  0.0000000E+00;  0.0000000E+00;  1.0000015E+03;  4.0000001E-01;  1.2839141E+00;0;  0.0000000E+00;  0.0000000E+00;  0.0000000E+00;0; -1.0865282E-03;  1.0000000E+04;  0.0000000E+00;  0.0000000E+00;  1.0000000E+04;  0.0000000E+00;  1.0000000E+04; -5.7489378E-04;  0.0000000E+00; -5.1163440E-04;  6.8541093E+00;
  0.0000000E+00;  9.9999998E-03;  3.4000000E-01;457;  0.0000000E+00;  0.0000000E+00;  0.0000000E+00;  1.0000167E+03;  4.0000001E-01;  1.3826767E+01;0;  0.0000000E+00;  0.0000000E+00;  0.0000000E+00;0; -1.0879238E-02;  1.0000000E+04;  0.0000000E+00;  0.0000000E+00;  1.0000000E+04;  0.0000000E+00;  1.0000000E+04; -7.5867726E-03;  0.0000000E+00; -3.2924656E-03;  4.4502319E+01;
  0.0000000E+00;  9.9999998E-03;  3.6000001E-01;458;  0.0000000E+00;  0.0000000E+00;  0.0000000E+00;  1.0000105E+03;  4.0000001E-01;  8.6911106E+00;0;  0.0000000E+00;  0.0000000E+00;  0.0000000E+00;0; -6.8528065E-03;  1.0000000E+04;  0.0000000E+00;  0.0000000E+00;  1.0000000E+04;  0.0000000E+00;  1.0000000E+04; -4.1315006E-03;  0.0000000E+00; -2.7213057E-03;  3.7027279E+01;
  0.0000000E+00;  9.9999998E-03;  3.8000000E-01;459;  0.0000000E+00;  0.0000000E+00;  0.0000000E+00;  1.0000057E+03;  4.0000001E-01;  4.7406058E+00;0;  0.0000000E+00;  0.0000000E+00;  0.0000000E+00;0; -3.7905043E-03;  1.0000000E+04;  0.0000000E+00;  0.0000000E+00;  1.0000000E+04;  0.0000000E+00;  1.0000000E+04; -2.0014225E-03;  0.0000000E+00; -1.7890818E-03;  2.4379442E+01;
  0.0000000E+00;  9.9999998E-03;  4.0000001E-01;460;  0.0000000E+00;  0.0000000E+00;  0.0000000E+00;  1.0000025E+03;  4.0000001E-01;  2.0740151E+00;0;  0.0000000E+00;  0.0000000E+00;  0.0000000E+00;0; -1.6627755E-03;  1.0000000E+04;  0.0000000E+00;  0.0000000E+00;  1.0000000E+04;  0.0000000E+00;  1.0000000E+04; -8.2677451E-04;  0.0000000E+00; -8.3600101E-04;  1.1361249E+01;
  2.0000000E-02;  9.9999998E-03;  3.4000000E-01;467;  0.0000000E+00;  0.0000000E+00;  0.0000000E+00;  1.0000215E+03;  4.0000001E-01;  1.7777273E+01;0;  0.0000000E+00;  0.0000000E+00;  0.0000000E+00;0; -1.3874597E-02;  1.0000000E+04;  0.0000000E+00;  0.0000000E+00;  1.0000000E+04;  0.0000000E+00;  1.0000000E+04; -9.4289752E-03;  0.0000000E+00; -4.4456217E-03;  6.1295349E+01;
  2.0000000E-02;  9.9999998E-03;  3.6000001E-01;468;  0.0000000E+00;  0.0000000E+00;  0.0000000E+00;  1.0000137E+03;  4.0000001E-01;  1.1357701E+01;0;  0.0000000E+00;  0.0000000E+00;  0.0000000E+00;0; -8.8760704E-03;  1.0000000E+04;  0.0000000E+00;  0.0000000E+00;  1.0000000E+04;  0.0000000E+00;  1.0000000E+04; -5.1667518E-03;  0.0000000E+00; -3.7093181E-03;  5.1455772E+01;
  2.0000000E-02;  9.9999998E-03;  3.8000000E-01;469;  0.0000000E+00;  0.0000000E+00;  0.0000000E+00;  1.0000078E+03;  4.0000001E-01;  6.4195704E+00;0;  0.0000000E+00;  0.0000000E+00;  0.0000000E+00;0; -4.9975091E-03;  1.0000000E+04;  0.0000000E+00;  0.0000000E+00;  1.0000000E+04;  0.0000000E+00;  1.0000000E+04; -2.5202152E-03;  0.0000000E+00; -2.4772938E-03;  3.4399658E+01;
  2.0000000E-02;  9.9999998E-03;  4.0000001E-01;470;  0.0000000E+00;  0.0000000E+00;  0.0000000E+00;  1.0000034E+03;  4.0000001E-01;  2.7653534E+00;0;  0.0000000E+00;  0.0000000E+00;  0.0000000E+00;0; -2.2398797E-03;  1.0000000E+04;  0.0000000E+00;  0.0000000E+00;  1.0000000E+04;  0.0000000E+00;  1.0000000E+04; -1.0506514E-03;  0.0000000E+00; -1.1892284E-03;  1.6459957E+01;
  3.9999999E-02;  9.9999998E-03;  3.4000000E-01;477;  0.0000000E+00;  0.0000000E+00;  0.0000000E+00;  1.0000263E+03;  4.0000001E-01;  2.1826540E+01;0;  0.0000000E+00;  0.0000000E+00;  0.0000000E+00;0; -1.6587432E-02;  1.0000000E+04;  0.0000000E+00;  0.0000000E+00;  1.0000000E+04;  0.0000000E+00;  1.0000000E+04; -1.1114285E-02;  0.0000000E+00; -5.4731471E-03;  7.7375450E+01;
  3.9999999E-02;  9.9999998E-03;  3.6000001E-01;478;  0.0000000E+00;  0.0000000E+00;  0.0000000E+00;  1.0000170E+03;  4.0000001E-01;  1.4123055E+01;0;  0.0000000E+00;  0.0000000E+00;  0.0000000E+00;0; -1.0722142E-02;  1.0000000E+04;  0.0000000E+00;  0.0000000E+00;  1.0000000E+04;  0.0000000E+00;  1.0000000E+04; -6.1086453E-03;  0.0000000E+00; -4.6134968E-03;  6.5580437E+01;
  3.9999999E-02;  9.9999998E-03;  3.8000000E-01;479;  0.0000000E+00;  0.0000000E+00;  0.0000000E+00;  1.0000096E+03;  4.0000001E-01;  7.9010100E+00;0;  0.0000000E+00;  0.0000000E+00;  0.0000000E+00;0; -6.0991338E-03;  1.0000000E+04;  0.0000000E+00;  0.0000000E+00;  1.0000000E+04;  0.0000000E+00;  1.0000000E+04; -2.9815047E-03;  0.0000000E+00; -3.1176293E-03;  4.4335835E+01;
  3.9999999E-02;  9.9999998E-03;  4.0000001E-01;480;  0.0000000E+00;  0.0000000E+00;  0.0000000E+00;  1.0000043E+03;  4.0000001E-01;  3.5554545E+00;0;  0.0000000E+00;  0.0000000E+00;  0.0000000E+00;0; -2.7599782E-03;  1.0000000E+04;  0.0000000E+00;  0.0000000E+00;  1.0000000E+04;  0.0000000E+00;  1.0000000E+04; -1.2392292E-03;  0.0000000E+00; -1.5207488E-03;  2.1543930E+01;
  5.9999999E-02;  9.9999998E-03;  3.4000000E-01;487;  0.0000000E+00;  0.0000000E+00;  0.0000000E+00;  1.0000311E+03;  4.0000001E-01;  2.5777044E+01;0;  0.0000000E+00;  0.0000000E+00;  0.0000000E+00;0; -1.9137112E-02;  1.0000000E+04;  0.0000000E+00;  0.0000000E+00;  1.0000000E+04;  0.0000000E+00;  1.0000000E+04; -1.2855944E-02;  0.0000000E+00; -6.2811687E-03;  9.1614723E+01;
  5.9999999E-02;  9.9999998E-03;  3.6000001E-01;488;  0.0000000E+00;  0.0000000E+00;  0.0000000E+00;  1.0000201E+03;  4.0000001E-01;  1.6690884E+01;0;  0.0000000E+00;  0.0000000E+00;  0.0000000E+00;0; -1.2431631E-02;  1.0000000E+04;  0.0000000E+00;  0.0000000E+00;  1.0000000E+04;  0.0000000E+00;  1.0000000E+04; -7.0795505E-03;  0.0000000E+00; -5.3520808E-03;  7.8435150E+01;
  5.9999999E-02;  9.9999998E-03;  3.8000000E-01;489;  0.0000000E+00;  0.0000000E+00;  0.0000000E+00;  1.0000115E+03;  4.0000001E-01;  9.4812117E+00;0;  0.0000000E+00;  0.0000000E+00;  0.0000000E+00;0; -7.1039349E-03;  1.0000000E+04;  0.0000000E+00;  0.0000000E+00;  1.0000000E+04;  0.0000000E+00;  1.0000000E+04; -3.4520479E-03;  0.0000000E+00; -3.6518872E-03;  5.3499718E+01;
  5.9999999E-02;  9.9999998E-03;  4.0000001E-01;490;  0.0000000E+00;  0.0000000E+00;  0.0000000E+00;  1.0000052E+03;  4.0000001E-01;  4.3455553E+00;0;  0.0000000E+00;  0.0000000E+00;  0.0000000E+00;0; -3.2241123E-03;  1.0000000E+04;  0.0000000E+00;  0.0000000E+00;  1.0000000E+04;  0.0000000E+00;  1.0000000E+04; -1.4254885E-03;  0.0000000E+00; -1.7986238E-03;  2.6229507E+01;
  7.9999998E-02;  9.9999998E-03;  3.4000000E-01;497;  0.0000000E+00;  0.0000000E+00;  0.0000000E+00;  1.0000366E+03;  4.0000001E-01;  3.0320126E+01;0;  0.0000000E+00;  0.0000000E+00;  0.0000000E+00;0; -2.1958068E-02;  1.0000000E+04;  0.0000000E+00;  0.0000000E+00;  1.0000000E+04;  0.0000000E+00;  1.0000000E+04; -1.5068827E-02;  0.0000000E+00; -6.8892417E-03;  1.0466801E+02;
  7.9999998E-02;  9.9999998E-03;  3.6000001E-01;498;  0.0000000E+00;  0.0000000E+00;  0.0000000E+00;  1.0000239E+03;  4.0000001E-01;  1.9752525E+01;0;  0.0000000E+00;  0.0000000E+00;  0.0000000E+00;0; -1.4271179E-02;  1.0000000E+04;  0.0000000E+00;  0.0000000E+00;  1.0000000E+04;  0.0000000E+00;  1.0000000E+04; -8.3415993E-03;  0.0000000E+00; -5.9295795E-03;  9.0342102E+01;
  7.9999998E-02;  9.9999998E-03;  3.8000000E-01;499;  0.0000000E+00;  0.0000000E+00;  0.0000000E+00;  1.0000135E+03;  4.0000001E-01;  1.1258939E+01;0;  0.0000000E+00;  0.0000000E+00;  0.0000000E+00;0; -8.1534935E-03;  1.0000000E+04;  0.0000000E+00;  0.0000000E+00;  1.0000000E+04;  0.0000000E+00;  1.0000000E+04; -4.0756813E-03;  0.0000000E+00; -4.0778122E-03;  6.1928669E+01;
  7.9999998E-02;  9.9999998E-03;  4.0000001E-01;500;  0.0000000E+00;  0.0000000E+00;  0.0000000E+00;  1.0000061E+03;  4.0000001E-01;  5.0368938E+00;0;  0.0000000E+00;  0.0000000E+00;  0.0000000E+00;0; -3.6993069E-03;  1.0000000E+04;  0.0000000E+00;  0.0000000E+00;  1.0000000E+04;  0.0000000E+00;  1.0000000E+04; -1.6777158E-03;  0.0000000E+00; -2.0215912E-03;  3.0548161E+01;
  1.0000000E-01;  9.9999998E-03;  3.4000000E-01;507;  0.0000000E+00;  0.0000000E+00;  0.0000000E+00;  1.0000443E+03;  4.0000001E-01;  3.6640934E+01;0;  0.0000000E+00;  0.0000000E+00;  0.0000000E+00;0; -2.5774667E-02;  1.0000000E+04;  0.0000000E+00;  0.0000000E+00;  1.0000000E+04;  0.0000000E+00;  1.0000000E+04; -1.8356159E-02;  0.0000000E+00; -7.4185077E-03;  1.2497814E+02;
  1.0000000E-01;  9.9999998E-03;  3.6000001E-01;508;  0.0000000E+00;  0.0000000E+00;  0.0000000E+00;  1.0000287E+03;  4.0000001E-01;  2.3801792E+01;0;  0.0000000E+00;  0.0000000E+00;  0.0000000E+00;0; -1.6719580E-02;  1.0000000E+04;  0.0000000E+00;  0.0000000E+00;  1.0000000E+04;  0.0000000E+00;  1.0000000E+04; -1.0284593E-02;  0.0000000E+00; -6.4349868E-03;  1.0398637E+02;
  1.0000000E-01;  9.9999998E-03;  3.8000000E-01;509;  0.0000000E+00;  0.0000000E+00;  0.0000000E+00;  1.0000164E+03;  4.0000001E-01;  1.3530479E+01;0;  0.0000000E+00;  0.0000000E+00;  0.0000000E+00;0; -9.5189363E-03;  1.0000000E+04;  0.0000000E+00;  0.0000000E+00;  1.0000000E+04;  0.0000000E+00;  1.0000000E+04; -5.0694323E-03;  0.0000000E+00; -4.4495035E-03;  7.0473770E+01;
  1.0000000E-01;  9.9999998E-03;  4.0000001E-01;510;  0.0000000E+00;  0.0000000E+00;  0.0000000E+00;  1.0000076E+03;  4.0000001E-01;  6.2220454E+00;0;  0.0000000E+00;  0.0000000E+00;  0.0000000E+00;0; -4.3149134E-03;  1.0000000E+04;  0.0000000E+00;  0.0000000E+00;  1.0000000E+04;  0.0000000E+00;  1.0000000E+04; -2.0975710E-03;  0.0000000E+00; -2.2173421E-03;  3.6672890E+01;
  1.2000000E-01;  9.9999998E-03;  3.4000000E-01;517;  0.0000000E+00;  0.0000000E+00;  0.0000000E+00;  1.0000559E+03;  4.0000001E-01;  4.6319672E+01;0;  0.0000000E+00;  0.0000000E+00;  0.0000000E+00;0; -3.1562056E-02;  1.0000000E+04;  0.0000000E+00;  0.0000000E+00;  1.0000000E+04;  0.0000000E+00;  1.0000000E+04; -2.3460887E-02;  0.0000000E+00; -8.1011681E-03;  1.9940204E+02;
  1.2000000E-01;  9.9999998E-03;  3.6000001E-01;518;  0.0000000E+00;  0.0000000E+00;  0.0000000E+00;  1.0000362E+03;  4.0000001E-01;  3.0023838E+01;0;  0.0000000E+00;  0.0000000E+00;  0.0000000E+00;0; -2.0462789E-02;  1.0000000E+04;  0.0000000E+00;  0.0000000E+00;  1.0000000E+04;  0.0000000E+00;  1.0000000E+04; -1.3406392E-02;  0.0000000E+00; -7.0563969E-03;  1.2677866E+02;
  1.2000000E-01;  9.9999998E-03;  3.8000000E-01;519;  0.0000000E+00;  0.0000000E+00;  0.0000000E+00;  1.0000206E+03;  4.0000001E-01;  1.7085934E+01;0;  0.0000000E+00;  0.0000000E+00;  0.0000000E+00;0; -1.1609890E-02;  1.0000000E+04;  0.0000000E+00;  0.0000000E+00;  1.0000000E+04;  0.0000000E+00;  1.0000000E+04; -6.7204670E-03;  0.0000000E+00; -4.8894221E-03;  8.8123672E+01;
  1.2000000E-01;  9.9999998E-03;  4.0000001E-01;520;  0.0000000E+00;  0.0000000E+00;  0.0000000E+00;  1.0000094E+03;  4.0000001E-01;  7.8022475E+00;0;  0.0000000E+00;  0.0000000E+00;  0.0000000E+00;0; -5.2696345E-03;  1.0000000E+04;  0.0000000E+00;  0.0000000E+00;  1.0000000E+04;  0.0000000E+00;  1.0000000E+04; -2.8252236E-03;  0.0000000E+00; -2.4444112E-03;  6.7475876E+01;
  1.4000000E-01;  9.9999998E-03;  3.4000000E-01;527;  0.0000000E+00;  0.0000000E+00;  0.0000000E+00;  1.0000737E+03;  4.0000001E-01;  6.1035301E+01;0;  0.0000000E+00;  0.0000000E+00;  0.0000000E+00;0; -4.0547147E-02;  1.0000000E+04;  0.0000000E+00;  0.0000000E+00;  1.0000000E+04;  0.0000000E+00;  1.0000000E+04; -3.1228211E-02;  0.0000000E+00; -9.3189357E-03;  4.3183682E+02;
  1.4000000E-01;  9.9999998E-03;  3.6000001E-01;528;  0.0000000E+00;  0.0000000E+00;  0.0000000E+00;  1.0000483E+03;  4.0000001E-01;  3.9998863E+01;0;  0.0000000E+00;  0.0000000E+00;  0.0000000E+00;0; -2.6429895E-02;  1.0000000E+04;  0.0000000E+00;  0.0000000E+00;  1.0000000E+04;  0.0000000E+00;  1.0000000E+04; -1.8306497E-02;  0.0000000E+00; -8.1233969E-03;  1.7044615E+02;
  1.4000000E-01;  9.9999998E-03;  3.8000000E-01;529;  0.0000000E+00;  0.0000000E+00;  0.0000000E+00;  1.0000275E+03;  4.0000001E-01;  2.2814167E+01;0;  0.0000000E+00;  0.0000000E+00;  0.0000000E+00;0; -1.5040930E-02;  1.0000000E+04;  0.0000000E+00;  0.0000000E+00;  1.0000000E+04;  0.0000000E+00;  1.0000000E+04; -9.4027491E-03;  0.0000000E+00; -5.6381817E-03;  1.7502974E+02;
  1.4000000E-01;  9.9999998E-03;  4.0000001E-01;530;  0.0000000E+00;  0.0000000E+00;  0.0000000E+00;  1.0000125E+03;  4.0000001E-01;  1.0370075E+01;0;  0.0000000E+00;  0.0000000E+00;  0.0000000E+00;0; -6.8978178E-03;  1.0000000E+04;  0.0000000E+00;  0.0000000E+00;  1.0000000E+04;  0.0000000E+00;  1.0000000E+04; -4.0624877E-03;  0.0000000E+00; -2.8353301E-03;  1.9497232E+02;
  1.6000000E-01;  9.9999998E-03;  3.4000000E-01;537;  0.0000000E+00;  0.0000000E+00;  0.0000000E+00;  1.0001003E+03;  4.0000001E-01;  8.3158127E+01;0;  0.0000000E+00;  0.0000000E+00;  0.0000000E+00;0; -5.3880908E-02;  1.0000000E+04;  0.0000000E+00;  0.0000000E+00;  1.0000000E+04;  0.0000000E+00;  1.0000000E+04; -4.2206384E-02;  0.0000000E+00; -1.1674524E-02;  9.3647522E+02;
  1.6000000E-01;  9.9999998E-03;  3.6000001E-01;538;  0.0000000E+00;  0.0000000E+00;  0.0000000E+00;  1.0000666E+03;  4.0000001E-01;  5.5208305E+01;0;  0.0000000E+00;  0.0000000E+00;  0.0000000E+00;0; -3.5566445E-02;  1.0000000E+04;  0.0000000E+00;  0.0000000E+00;  1.0000000E+04;  0.0000000E+00;  1.0000000E+04; -2.5394572E-02;  0.0000000E+00; -1.0171873E-02;  2.3673241E+02;
  1.6000000E-01;  9.9999998E-03;  3.8000000E-01;539;  0.0000000E+00;  0.0000000E+00;  0.0000000E+00;  1.0000386E+03;  4.0000001E-01;  3.1999090E+01;0;  0.0000000E+00;  0.0000000E+00;  0.0000000E+00;0; -2.0577567E-02;  1.0000000E+04;  0.0000000E+00;  0.0000000E+00;  1.0000000E+04;  0.0000000E+00;  1.0000000E+04; -1.3439969E-02;  0.0000000E+00; -7.1375975E-03;  4.6096713E+02;
  1.6000000E-01;  9.9999998E-03;  4.0000001E-01;540;  0.0000000E+00;  0.0000000E+00;  0.0000000E+00;  1.0000182E+03;  4.0000001E-01;  1.5110682E+01;0;  0.0000000E+00;  0.0000000E+00;  0.0000000E+00;0; -9.7515378E-03;  1.0000000E+04;  0.0000000E+00;  0.0000000E+00;  1.0000000E+04;  0.0000000E+00;  1.0000000E+04; -6.0586077E-03;  0.0000000E+00; -3.6929303E-03;  5.5077374E+02;
  1.8000001E-01;  9.9999998E-03;  3.4000000E-01;547;  0.0000000E+00;  0.0000000E+00;  0.0000000E+00;  1.0001370E+03;  4.0000001E-01;  1.1347826E+02;0;  0.0000000E+00;  0.0000000E+00;  0.0000000E+00;0; -7.1642369E-02;  1.0000000E+04;  0.0000000E+00;  0.0000000E+00;  1.0000000E+04;  0.0000000E+00;  1.0000000E+04; -5.5553362E-02;  0.0000000E+00; -1.6089007E-02;  1.7559347E+03;
  1.8000001E-01;  9.9999998E-03;  3.6000001E-01;548;  0.0000000E+00;  0.0000000E+00;  0.0000000E+00;  1.0000922E+03;  4.0000001E-01;  7.6343506E+01;0;  0.0000000E+00;  0.0000000E+00;  0.0000000E+00;0; -4.8062075E-02;  1.0000000E+04;  0.0000000E+00;  0.0000000E+00;  1.0000000E+04;  0.0000000E+00;  1.0000000E+04; -3.4034066E-02;  0.0000000E+00; -1.4028008E-02;  2.9963004E+02;
  1.8000001E-01;  9.9999998E-03;  3.8000000E-01;549;  0.0000000E+00;  0.0000000E+00;  0.0000000E+00;  1.0000553E+03;  4.0000001E-01;  4.5825859E+01;0;  0.0000000E+00;  0.0000000E+00;  0.0000000E+00;0; -2.8740138E-02;  1.0000000E+04;  0.0000000E+00;  0.0000000E+00;  1.0000000E+04;  0.0000000E+00;  1.0000000E+04; -1.8586142E-02;  0.0000000E+00; -1.0153995E-02;  1.0907861E+03;
  1.8000001E-01;  9.9999998E-03;  4.0000001E-01;550;  0.0000000E+00;  0.0000000E+00;  0.0000000E+00;  1.0000279E+03;  4.0000001E-01;  2.3110455E+01;0;  0.0000000E+00;  0.0000000E+00;  0.0000000E+00;0; -1.4588587E-02;  1.0000000E+04;  0.0000000E+00;  0.0000000E+00;  1.0000000E+04;  0.0000000E+00;  1.0000000E+04; -8.9173485E-03;  0.0000000E+00; -5.6712390E-03;  1.3466656E+03;
  2.0000000E-01;  9.9999998E-03;  3.4000000E-01;556;  0.0000000E+00;  0.0000000E+00;  0.0000000E+00;  1.0001814E+03;  4.0000001E-01;  1.5031671E+02;0;  0.0000000E+00;  0.0000000E+00;  0.0000000E+00;0; -9.2569329E-02;  1.0000000E+04;  0.0000000E+00;  0.0000000E+00;  1.0000000E+04;  0.0000000E+00;  1.0000000E+04; -6.8762153E-02;  0.0000000E+00; -2.3807174E-02;  2.6877207E+03;
  2.0000000E-01;  9.9999998E-03;  3.6000001E-01;557;  0.0000000E+00;  0.0000000E+00;  0.0000000E+00;  1.0001245E+03;  4.0000001E-01;  1.0310818E+02;0;  0.0000000E+00;  0.0000000E+00;  0.0000000E+00;0; -6.3319214E-02;  1.0000000E+04;  0.0000000E+00;  0.0000000E+00;  1.0000000E+04;  0.0000000E+00;  1.0000000E+04; -4.2479943E-02;  0.0000000E+00; -2.0839272E-02;  3.9081802E+02;
  2.0000000E-01;  9.9999998E-03;  3.8000000E-01;558;  0.0000000E+00;  0.0000000E+00;  0.0000000E+00;  1.0000784E+03;  4.0000001E-01;  6.4985809E+01;0;  0.0000000E+00;  0.0000000E+00;  0.0000000E+00;0; -3.9734781E-02;  1.0000000E+04;  0.0000000E+00;  0.0000000E+00;  1.0000000E+04;  0.0000000E+00;  1.0000000E+04; -2.3864498E-02;  0.0000000E+00; -1.5870281E-02;  2.1007637E+03;
  1.9200000E+00;  9.9999998E-03; -3.6000001E-01;559;  0.0000000E+00;  0.0000000E+00;  0.0000000E+00;  1.0000000E+03;  4.0000001E-01;  0.0000000E+00;0;  0.0000000E+00;  0.0000000E+00;  0.0000000E+00;0;  0.0000000E+00;  1.0000000E+04;  0.0000000E+00;  0.0000000E+00;  1.0000000E+04;  0.0000000E+00;  1.0000000E+04;  0.0000000E+00;  0.0000000E+00;  0.0000000E+00;  0.0000000E+00;
  1.9200000E+00;  9.9999998E-03; -3.4000000E-01;560;  0.0000000E+00;  0.0000000E+00;  0.0000000E+00;  1.0000000E+03;  4.0000001E-01;  0.0000000E+00;0;  0.0000000E+00;  0.0000000E+00;  0.0000000E+00;0;  0.0000000E+00;  1.0000000E+04;  0.0000000E+00;  0.0000000E+00;  1.0000000E+04;  0.0000000E+00;  1.0000000E+04;  0.0000000E+00;  0.0000000E+00;  0.0000000E+00;  0.0000000E+00;
  1.9200000E+00;  9.9999998E-03; -3.1999999E-01;561;  0.0000000E+00;  0.0000000E+00;  0.0000000E+00;  1.0000000E+03;  4.0000001E-01;  0.0000000E+00;0;  0.0000000E+00;  0.0000000E+00;  0.0000000E+00;0;  0.0000000E+00;  1.0000000E+04;  0.0000000E+00;  0.0000000E+00;  1.0000000E+04;  0.0000000E+00;  1.0000000E+04;  0.0000000E+00;  0.0000000E+00;  0.0000000E+00;  0.0000000E+00;
  1.9400001E+00;  9.9999998E-03; -3.8000000E-01;562;  0.0000000E+00;  0.0000000E+00;  0.0000000E+00;  1.0000000E+03;  4.0000001E-01;  0.0000000E+00;0;  0.0000000E+00;  0.0000000E+00;  0.0000000E+00;0;  0.0000000E+00;  1.0000000E+04;  0.0000000E+00;  0.0000000E+00;  1.0000000E+04;  0.0000000E+00;  1.0000000E+04;  0.0000000E+00;  0.0000000E+00;  0.0000000E+00;  0.0000000E+00;
  1.9400001E+00;  9.9999998E-03; -3.6000001E-01;563;  0.0000000E+00;  0.0000000E+00;  0.0000000E+00;  1.0000000E+03;  4.0000001E-01;  0.0000000E+00;0;  0.0000000E+00;  0.0000000E+00;  0.0000000E+00;0;  0.0000000E+00;  1.0000000E+04;  0.0000000E+00;  0.0000000E+00;  1.0000000E+04;  0.0000000E+00;  1.0000000E+04;  0.0000000E+00;  0.0000000E+00;  0.0000000E+00;  0.0000000E+00;
  1.9400001E+00;  9.9999998E-03; -3.4000000E-01;564;  0.0000000E+00;  0.0000000E+00;  0.0000000E+00;  1.0000000E+03;  4.0000001E-01;  0.0000000E+00;0;  0.0000000E+00;  0.0000000E+00;  0.0000000E+00;0;  0.0000000E+00;  1.0000000E+04;  0.0000000E+00;  0.0000000E+00;  1.0000000E+04;  0.0000000E+00;  1.0000000E+04;  0.0000000E+00;  0.0000000E+00;  0.0000000E+00;  0.0000000E+00;
  1.9400001E+00;  9.9999998E-03; -3.1999999E-01;565;  0.0000000E+00;  0.0000000E+00;  0.0000000E+00;  1.0000000E+03;  4.0000001E-01;  0.0000000E+00;0;  0.0000000E+00;  0.0000000E+00;  0.0000000E+00;0;  0.0000000E+00;  1.0000000E+04;  0.0000000E+00;  0.0000000E+00;  1.0000000E+04;  0.0000000E+00;  1.0000000E+04;  0.0000000E+00;  0.0000000E+00;  0.0000000E+00;  0.0000000E+00;
  1.9400001E+00;  9.9999998E-03; -3.0000001E-01;566;  0.0000000E+00;  0.0000000E+00;  0.0000000E+00;  1.0000000E+03;  4.0000001E-01;  0.0000000E+00;0;  0.0000000E+00;  0.0000000E+00;  0.0000000E+00;0;  0.0000000E+00;  1.0000000E+04;  0.0000000E+00;  0.0000000E+00;  1.0000000E+04;  0.0000000E+00;  1.0000000E+04;  0.0000000E+00;  0.0000000E+00;  0.0000000E+00;  0.0000000E+00;
  1.9400001E+00;  9.9999998E-03; -2.8000000E-01;567;  0.0000000E+00;  0.0000000E+00;  0.0000000E+00;  1.0000000E+03;  4.0000001E-01;  0.0000000E+00;0;  0.0000000E+00;  0.0000000E+00;  0.0000000E+00;0;  0.0000000E+00;  1.0000000E+04;  0.0000000E+00;  0.0000000E+00;  1.0000000E+04;  0.0000000E+00;  1.0000000E+04;  0.0000000E+00;  0.0000000E+00;  0.0000000E+00;  0.0000000E+00;
  1.9400001E+00;  9.9999998E-03; -2.5999999E-01;568;  0.0000000E+00;  0.0000000E+00;  0.0000000E+00;  1.0000000E+03;  4.0000001E-01;  0.0000000E+00;0;  0.0000000E+00;  0.0000000E+00;  0.0000000E+00;0;  0.0000000E+00;  1.0000000E+04;  0.0000000E+00;  0.0000000E+00;  1.0000000E+04;  0.0000000E+00;  1.0000000E+04;  0.0000000E+00;  0.0000000E+00;  0.0000000E+00;  0.0000000E+00;
  1.9400001E+00;  9.9999998E-03; -2.3999999E-01;569;  0.0000000E+00;  0.0000000E+00;  0.0000000E+00;  1.0000000E+03;  4.0000001E-01;  0.0000000E+00;0;  0.0000000E+00;  0.0000000E+00;  0.0000000E+00;0;  0.0000000E+00;  1.0000000E+04;  0.0000000E+00;  0.0000000E+00;  1.0000000E+04;  0.0000000E+00;  1.0000000E+04;  0.0000000E+00;  0.0000000E+00;  0.0000000E+00;  0.0000000E+00;
  1.9400001E+00;  9.9999998E-03; -2.2000000E-01;570;  0.0000000E+00;  0.0000000E+00;  0.0000000E+00;  1.0000000E+03;  4.0000001E-01;  0.0000000E+00;0;  0.0000000E+00;  0.0000000E+00;  0.0000000E+00;0;  0.0000000E+00;  1.0000000E+04;  0.0000000E+00;  0.0000000E+00;  1.0000000E+04;  0.0000000E+00;  1.0000000E+04;  0.0000000E+00;  0.0000000E+00;  0.0000000E+00;  0.0000000E+00;
  1.9600000E+00;  9.9999998E-03; -3.8000000E-01;571;  0.0000000E+00;  0.0000000E+00;  0.0000000E+00;  1.0000000E+03;  4.0000001E-01;  0.0000000E+00;0;  0.0000000E+00;  0.0000000E+00;  0.0000000E+00;0;  0.0000000E+00;  1.0000000E+04;  0.0000000E+00;  0.0000000E+00;  1.0000000E+04;  0.0000000E+00;  1.0000000E+04;  0.0000000E+00;  0.0000000E+00;  0.0000000E+00;  0.0000000E+00;
  1.9600000E+00;  9.9999998E-03; -3.6000001E-01;572;  0.0000000E+00;  0.0000000E+00;  0.0000000E+00;  1.0000000E+03;  4.0000001E-01;  0.0000000E+00;0;  0.0000000E+00;  0.0000000E+00;  0.0000000E+00;0;  0.0000000E+00;  1.0000000E+04;  0.0000000E+00;  0.0000000E+00;  1.0000000E+04;  0.0000000E+00;  1.0000000E+04;  0.0000000E+00;  0.0000000E+00;  0.0000000E+00;  0.0000000E+00;
  1.9600000E+00;  9.9999998E-03; -3.4000000E-01;573;  0.0000000E+00;  0.0000000E+00;  0.0000000E+00;  1.0000000E+03;  4.0000001E-01;  0.0000000E+00;0;  0.0000000E+00;  0.0000000E+00;  0.0000000E+00;0;  0.0000000E+00;  1.0000000E+04;  0.0000000E+00;  0.0000000E+00;  1.0000000E+04;  0.0000000E+00;  1.0000000E+04;  0.0000000E+00;  0.0000000E+00;  0.0000000E+00;  0.0000000E+00;
  1.9600000E+00;  9.9999998E-03; -3.1999999E-01;574;  0.0000000E+00;  0.0000000E+00;  0.0000000E+00;  1.0000000E+03;  4.0000001E-01;  0.0000000E+00;0;  0.0000000E+00;  0.0000000E+00;  0.0000000E+00;0;  0.0000000E+00;  1.0000000E+04;  0.0000000E+00;  0.0000000E+00;  1.0000000E+04;  0.0000000E+00;  1.0000000E+04;  0.0000000E+00;  0.0000000E+00;  0.0000000E+00;  0.0000000E+00;
  1.9600000E+00;  9.9999998E-03; -3.0000001E-01;575;  0.0000000E+00;  0.0000000E+00;  0.0000000E+00;  1.0000000E+03;  4.0000001E-01;  0.0000000E+00;0;  0.0000000E+00;  0.0000000E+00;  0.0000000E+00;0;  0.0000000E+00;  1.0000000E+04;  0.0000000E+00;  0.0000000E+00;  1.0000000E+04;  0.0000000E+00;  1.0000000E+04;  0.0000000E+00;  0.0000000E+00;  0.0000000E+00;  0.0000000E+00;
  1.9600000E+00;  9.9999998E-03; -2.8000000E-01;576;  0.0000000E+00;  0.0000000E+00;  0.0000000E+00;  1.0000000E+03;  4.0000001E-01;  0.0000000E+00;0;  0.0000000E+00;  0.0000000E+00;  0.0000000E+00;0;  0.0000000E+00;  1.0000000E+04;  0.0000000E+00;  0.0000000E+00;  1.0000000E+04;  0.0000000E+00;  1.0000000E+04;  0.0000000E+00;  0.0000000E+00;  0.0000000E+00;  0.0000000E+00;
  1.9600000E+00;  9.9999998E-03; -2.5999999E-01;577;  0.0000000E+00;  0.0000000E+00;  0.0000000E+00;  1.0000000E+03;  4.0000001E-01;  0.0000000E+00;0;  0.0000000E+00;  0.0000000E+00;  0.0000000E+00;0;  0.0000000E+00;  1.0000000E+04;  0.0000000E+00;  0.0000000E+00;  1.0000000E+04;  0.0000000E+00;  1.0000000E+04;  0.0000000E+00;  0.0000000E+00;  0.0000000E+00;  0.0000000E+00;
  1.9600000E+00;  9.9999998E-03; -2.3999999E-01;578;  0.0000000E+00;  0.0000000E+00;  0.0000000E+00;  1.0000000E+03;  4.0000001E-01;  0.0000000E+00;0;  0.0000000E+00;  0.0000000E+00;  0.0000000E+00;0;  0.0000000E+00;  1.0000000E+04;  0.0000000E+00;  0.0000000E+00;  1.0000000E+04;  0.0000000E+00;  1.0000000E+04;  0.0000000E+00;  0.0000000E+00;  0.0000000E+00;  0.0000000E+00;
  1.9600000E+00;  9.9999998E-03; -2.2000000E-01;579;  0.0000000E+00;  0.0000000E+00;  0.0000000E+00;  1.0000000E+03;  4.0000001E-01;  0.0000000E+00;0;  0.0000000E+00;  0.0000000E+00;  0.0000000E+00;0;  0.0000000E+00;  1.0000000E+04;  0.0000000E+00;  0.0000000E+00;  1.0000000E+04;  0.0000000E+00;  1.0000000E+04;  0.0000000E+00;  0.0000000E+00;  0.0000000E+00;  0.0000000E+00;
  1.9600000E+00;  9.9999998E-03; -2.0000000E-01;580;  0.0000000E+00;  0.0000000E+00;  0.0000000E+00;  1.0000000E+03;  4.0000001E-01;  0.0000000E+00;0;  0.0000000E+00;  0.0000000E+00;  0.0000000E+00;0;  0.0000000E+00;  1.0000000E+04;  0.0000000E+00;  0.0000000E+00;  1.0000000E+04;  0.0000000E+00;  1.0000000E+04;  0.0000000E+00;  0.0000000E+00;  0.0000000E+00;  0.0000000E+00;
  1.9600000E+00;  9.9999998E-03; -1.8000001E-01;581;  0.0000000E+00;  0.0000000E+00;  0.0000000E+00;  1.0000000E+03;  4.0000001E-01;  0.0000000E+00;0;  0.0000000E+00;  0.0000000E+00;  0.0000000E+00;0;  0.0000000E+00;  1.0000000E+04;  0.0000000E+00;  0.0000000E+00;  1.0000000E+04;  0.0000000E+00;  1.0000000E+04;  0.0000000E+00;  0.0000000E+00;  0.0000000E+00;  0.0000000E+00;
  1.9600000E+00;  9.9999998E-03; -1.6000000E-01;582;  0.0000000E+00;  0.0000000E+00;  0.0000000E+00;  1.0000000E+03;  4.0000001E-01;  0.0000000E+00;0;  0.0000000E+00;  0.0000000E+00;  0.0000000E+00;0;  0.0000000E+00;  1.0000000E+04;  0.0000000E+00;  0.0000000E+00;  1.0000000E+04;  0.0000000E+00;  1.0000000E+04;  0.0000000E+00;  0.0000000E+00;  0.0000000E+00;  0.0000000E+00;
  1.9600000E+00;  9.9999998E-03; -1.4000000E-01;583;  0.0000000E+00;  0.0000000E+00;  0.0000000E+00;  1.0000000E+03;  4.0000001E-01;  0.0000000E+00;0;  0.0000000E+00;  0.0000000E+00;  0.0000000E+00;0;  0.0000000E+00;  1.0000000E+04;  0.0000000E+00;  0.0000000E+00;  1.0000000E+04;  0.0000000E+00;  1.0000000E+04;  0.0000000E+00;  0.0000000E+00;  0.0000000E+00;  0.0000000E+00;
  1.9600000E+00;  9.9999998E-03; -1.2000000E-01;584;  0.0000000E+00;  0.0000000E+00;  0.0000000E+00;  1.0000000E+03;  4.0000001E-01;  0.0000000E+00;0;  0.0000000E+00;  0.0000000E+00;  0.0000000E+00;0;  0.0000000E+00;  1.0000000E+04;  0.0000000E+00;  0.0000000E+00;  1.0000000E+04;  0.0000000E+00;  1.0000000E+04;  0.0000000E+00;  0.0000000E+00;  0.0000000E+00;  0.0000000E+00;
  1.9800000E+00;  9.9999998E-03; -3.8000000E-01;585;  0.0000000E+00;  0.0000000E+00;  0.0000000E+00;  1.0000000E+03;  4.0000001E-01;  0.0000000E+00;0;  0.0000000E+00;  0.0000000E+00;  0.0000000E+00;0;  0.0000000E+00;  1.0000000E+04;  0.0000000E+00;  0.0000000E+00;  1.0000000E+04;  0.0000000E+00;  1.0000000E+04;  0.0000000E+00;  0.0000000E+00;  0.0000000E+00;  0.0000000E+00;
  1.9800000E+00;  9.9999998E-03; -3.6000001E-01;586;  0.0000000E+00;  0.0000000E+00;  0.0000000E+00;  1.0000000E+03;  4.0000001E-01;  0.0000000E+00;0;  0.0000000E+00;  0.0000000E+00;  0.0000000E+00;0;  0.0000000E+00;  1.0000000E+04;  0.0000000E+00;  0.0000000E+00;  1.0000000E+04;  0.0000000E+00;  1.0000000E+04;  0.0000000E+00;  0.0000000E+00;  0.0000000E+00;  0.0000000E+00;
  1.9800000E+00;  9.9999998E-03; -3.4000000E-01;587;  0.0000000E+00;  0.0000000E+00;  0.0000000E+00;  1.0000000E+03;  4.0000001E-01;  0.0000000E+00;0;  0.0000000E+00;  0.0000000E+00;  0.0000000E+00;0;  0.0000000E+00;  1.0000000E+04;  0.0000000E+00;  0.0000000E+00;  1.0000000E+04;  0.0000000E+00;  1.0000000E+04;  0.0000000E+00;  0.0000000E+00;  0.0000000E+00;  0.0000000E+00;
  1.9800000E+00;  9.9999998E-03; -3.1999999E-01;588;  0.0000000E+00;  0.0000000E+00;  0.0000000E+00;  1.0000000E+03;  4.0000001E-01;  0.0000000E+00;0;  0.0000000E+00;  0.0000000E+00;  0.0000000E+00;0;  0.0000000E+00;  1.0000000E+04;  0.0000000E+00;  0.0000000E+00;  1.0000000E+04;  0.0000000E+00;  1.0000000E+04;  0.0000000E+00;  0.0000000E+00;  0.0000000E+00;  0.0000000E+00;
  1.9800000E+00;  9.9999998E-03; -3.0000001E-01;589;  0.0000000E+00;  0.0000000E+00;  0.0000000E+00;  1.0000000E+03;  4.0000001E-01;  0.0000000E+00;0;  0.0000000E+00;  0.0000000E+00;  0.0000000E+00;0;  0.0000000E+00;  1.0000000E+04;  0.0000000E+00;  0.0000000E+00;  1.0000000E+04;  0.0000000E+00;  1.0000000E+04;  0.0000000E+00;  0.0000000E+00;  0.0000000E+00;  0.0000000E+00;
  1.9800000E+00;  9.9999998E-03; -2.8000000E-01;590;  0.0000000E+00;  0.0000000E+00;  0.0000000E+00;  1.0000000E+03;  4.0000001E-01;  0.0000000E+00;0;  0.0000000E+00;  0.0000000E+00;  0.0000000E+00;0;  0.0000000E+00;  1.0000000E+04;  0.0000000E+00;  0.0000000E+00;  1.0000000E+04;  0.0000000E+00;  1.0000000E+04;  0.0000000E+00;  0.0000000E+00;  0.0000000E+00;  0.0000000E+00;
  1.9800000E+00;  9.9999998E-03; -2.5999999E-01;591;  0.0000000E+00;  0.0000000E+00;  0.0000000E+00;  1.0000000E+03;  4.0000001E-01;  0.0000000E+00;0;  0.0000000E+00;  0.0000000E+00;  0.0000000E+00;0;  0.0000000E+00;  1.0000000E+04;  0.0000000E+00;  0.0000000E+00;  1.0000000E+04;  0.0000000E+00;  1.0000000E+04;  0.0000000E+00;  0.0000000E+00;  0.0000000E+00;  0.0000000E+00;
  1.9800000E+00;  9.9999998E-03; -2.3999999E-01;592;  0.0000000E+00;  0.0000000E+00;  0.0000000E+00;  1.0000000E+03;  4.0000001E-01;  0.0000000E+00;0;  0.0000000E+00;  0.0000000E+00;  0.0000000E+00;0;  0.0000000E+00;  1.0000000E+04;  0.0000000E+00;  0.0000000E+00;  1.0000000E+04;  0.0000000E+00;  1.0000000E+04;  0.0000000E+00;  0.0000000E+00;  0.0000000E+00;  0.0000000E+00;
  1.9800000E+00;  9.9999998E-03; -2.2000000E-01;593;  0.0000000E+00;  0.0000000E+00;  0.0000000E+00;  1.0000000E+03;  4.0000001E-01;  0.0000000E+00;0;  0.0000000E+00;  0.0000000E+00;  0.0000000E+00;0;  0.0000000E+00;  1.0000000E+04;  0.0000000E+00;  0.0000000E+00;  1.0000000E+04;  0.0000000E+00;  1.0000000E+04;  0.0000000E+00;  0.0000000E+00;  0.0000000E+00;  0.0000000E+00;
  1.9800000E+00;  9.9999998E-03; -2.0000000E-01;594;  0.0000000E+00;  0.0000000E+00;  0.0000000E+00;  1.0000000E+03;  4.0000001E-01;  0.0000000E+00;0;  0.0000000E+00;  0.0000000E+00;  0.0000000E+00;0;  0.0000000E+00;  1.0000000E+04;  0.0000000E+00;  0.0000000E+00;  1.0000000E+04;  0.0000000E+00;  1.0000000E+04;  0.0000000E+00;  0.0000000E+00;  0.0000000E+00;  0.0000000E+00;
  1.9800000E+00;  9.9999998E-03; -1.8000001E-01;595;  0.0000000E+00;  0.0000000E+00;  0.0000000E+00;  1.0000000E+03;  4.0000001E-01;  0.0000000E+00;0;  0.0000000E+00;  0.0000000E+00;  0.0000000E+00;0;  0.0000000E+00;  1.0000000E+04;  0.0000000E+00;  0.0000000E+00;  1.0000000E+04;  0.0000000E+00;  1.0000000E+04;  0.0000000E+00;  0.0000000E+00;  0.0000000E+00;  0.0000000E+00;
  1.9800000E+00;  9.9999998E-03; -1.6000000E-01;596;  0.0000000E+00;  0.0000000E+00;  0.0000000E+00;  1.0000000E+03;  4.0000001E-01;  0.0000000E+00;0;  0.0000000E+00;  0.0000000E+00;  0.0000000E+00;0;  0.0000000E+00;  1.0000000E+04;  0.0000000E+00;  0.0000000E+00;  1.0000000E+04;  0.0000000E+00;  1.0000000E+04;  0.0000000E+00;  0.0000000E+00;  0.0000000E+00;  0.0000000E+00;
  1.9800000E+00;  9.9999998E-03; -1.4000000E-01;597;  0.0000000E+00;  0.0000000E+00;  0.0000000E+00;  1.0000000E+03;  4.0000001E-01;  0.0000000E+00;0;  0.0000000E+00;  0.0000000E+00;  0.0000000E+00;0;  0.0000000E+00;  1.0000000E+04;  0.0000000E+00;  0.0000000E+00;  1.0000000E+04;  0.0000000E+00;  1.0000000E+04;  0.0000000E+00;  0.0000000E+00;  0.0000000E+00;  0.0000000E+00;
  1.9800000E+00;  9.9999998E-03; -1.2000000E-01;598;  0.0000000E+00;  0.0000000E+00;  0.0000000E+00;  1.0000000E+03;  4.0000001E-01;  0.0000000E+00;0;  0.0000000E+00;  0.0000000E+00;  0.0000000E+00;0;  0.0000000E+00;  1.0000000E+04;  0.0000000E+00;  0.0000000E+00;  1.0000000E+04;  0.0000000E+00;  1.0000000E+04;  0.0000000E+00;  0.0000000E+00;  0.0000000E+00;  0.0000000E+00;
  1.9800000E+00;  9.9999998E-03; -1.0000000E-01;599;  0.0000000E+00;  0.0000000E+00;  0.0000000E+00;  1.0000000E+03;  4.0000001E-01;  0.0000000E+00;0;  0.0000000E+00;  0.0000000E+00;  0.0000000E+00;0;  0.0000000E+00;  1.0000000E+04;  0.0000000E+00;  0.0000000E+00;  1.0000000E+04;  0.0000000E+00;  1.0000000E+04;  0.0000000E+00;  0.0000000E+00;  0.0000000E+00;  0.0000000E+00;
  1.9800000E+00;  9.9999998E-03; -7.9999998E-02;600;  0.0000000E+00;  0.0000000E+00;  0.0000000E+00;  1.0000000E+03;  4.0000001E-01;  0.0000000E+00;0;  0.0000000E+00;  0.0000000E+00;  0.0000000E+00;0;  0.0000000E+00;  1.0000000E+04;  0.0000000E+00;  0.0000000E+00;  1.0000000E+04;  0.0000000E+00;  1.0000000E+04;  0.0000000E+00;  0.0000000E+00;  0.0000000E+00;  0.0000000E+00;
  1.9800000E+00;  9.9999998E-03; -5.9999999E-02;601;  0.0000000E+00;  0.0000000E+00;  0.0000000E+00;  1.0000000E+03;  4.0000001E-01;  0.0000000E+00;0;  0.0000000E+00;  0.0000000E+00;  0.0000000E+00;0;  0.0000000E+00;  1.0000000E+04;  0.0000000E+00;  0.0000000E+00;  1.0000000E+04;  0.0000000E+00;  1.0000000E+04;  0.0000000E+00;  0.0000000E+00;  0.0000000E+00;  0.0000000E+00;
  1.9800000E+00;  9.9999998E-03; -3.9999999E-02;602;  0.0000000E+00;  0.0000000E+00;  0.0000000E+00;  1.0000000E+03;  4.0000001E-01;  0.0000000E+00;0;  0.0000000E+00;  0.0000000E+00;  0.0000000E+00;0;  0.0000000E+00;  1.0000000E+04;  0.0000000E+00;  0.0000000E+00;  1.0000000E+04;  0.0000000E+00;  1.0000000E+04;  0.0000000E+00;  0.0000000E+00;  0.0000000E+00;  0.0000000E+00;
  1.9800000E+00;  9.9999998E-03; -2.0000000E-02;603;  0.0000000E+00;  0.0000000E+00;  0.0000000E+00;  1.0000000E+03;  4.0000001E-01;  0.0000000E+00;0;  0.0000000E+00;  0.0000000E+00;  0.0000000E+00;0;  0.0000000E+00;  1.0000000E+04;  0.0000000E+00;  0.0000000E+00;  1.0000000E+04;  0.0000000E+00;  1.0000000E+04;  0.0000000E+00;  0.0000000E+00;  0.0000000E+00;  0.0000000E+00;
  2.0000000E+00;  9.9999998E-03; -3.8000000E-01;604;  0.0000000E+00;  0.0000000E+00;  0.0000000E+00;  1.0000000E+03;  4.0000001E-01;  0.0000000E+00;0;  0.0000000E+00;  0.0000000E+00;  0.0000000E+00;0;  0.0000000E+00;  1.0000000E+04;  0.0000000E+00;  0.0000000E+00;  1.0000000E+04;  0.0000000E+00;  1.0000000E+04;  0.0000000E+00;  0.0000000E+00;  0.0000000E+00;  0.0000000E+00;
  2.0000000E+00;  9.9999998E-03; -3.6000001E-01;605;  0.0000000E+00;  0.0000000E+00;  0.0000000E+00;  1.0000000E+03;  4.0000001E-01;  0.0000000E+00;0;  0.0000000E+00;  0.0000000E+00;  0.0000000E+00;0;  0.0000000E+00;  1.0000000E+04;  0.0000000E+00;  0.0000000E+00;  1.0000000E+04;  0.0000000E+00;  1.0000000E+04;  0.0000000E+00;  0.0000000E+00;  0.0000000E+00;  0.0000000E+00;
  2.0000000E+00;  9.9999998E-03; -3.4000000E-01;606;  0.0000000E+00;  0.0000000E+00;  0.0000000E+00;  1.0000000E+03;  4.0000001E-01;  0.0000000E+00;0;  0.0000000E+00;  0.0000000E+00;  0.0000000E+00;0;  0.0000000E+00;  1.0000000E+04;  0.0000000E+00;  0.0000000E+00;  1.0000000E+04;  0.0000000E+00;  1.0000000E+04;  0.0000000E+00;  0.0000000E+00;  0.0000000E+00;  0.0000000E+00;
  2.0000000E+00;  9.9999998E-03; -3.1999999E-01;607;  0.0000000E+00;  0.0000000E+00;  0.0000000E+00;  1.0000000E+03;  4.0000001E-01;  0.0000000E+00;0;  0.0000000E+00;  0.0000000E+00;  0.0000000E+00;0;  0.0000000E+00;  1.0000000E+04;  0.0000000E+00;  0.0000000E+00;  1.0000000E+04;  0.0000000E+00;  1.0000000E+04;  0.0000000E+00;  0.0000000E+00;  0.0000000E+00;  0.0000000E+00;
  2.0000000E+00;  9.9999998E-03; -3.0000001E-01;608;  0.0000000E+00;  0.0000000E+00;  0.0000000E+00;  1.0000000E+03;  4.0000001E-01;  0.0000000E+00;0;  0.0000000E+00;  0.0000000E+00;  0.0000000E+00;0;  0.0000000E+00;  1.0000000E+04;  0.0000000E+00;  0.0000000E+00;  1.0000000E+04;  0.0000000E+00;  1.0000000E+04;  0.0000000E+00;  0.0000000E+00;  0.0000000E+00;  0.0000000E+00;
  2.0000000E+00;  9.9999998E-03; -2.8000000E-01;609;  0.0000000E+00;  0.0000000E+00;  0.0000000E+00;  1.0000000E+03;  4.0000001E-01;  0.0000000E+00;0;  0.0000000E+00;  0.0000000E+00;  0.0000000E+00;0;  0.0000000E+00;  1.0000000E+04;  0.0000000E+00;  0.0000000E+00;  1.0000000E+04;  0.0000000E+00;  1.0000000E+04;  0.0000000E+00;  0.0000000E+00;  0.0000000E+00;  0.0000000E+00;
  2.0000000E+00;  9.9999998E-03; -2.5999999E-01;610;  0.0000000E+00;  0.0000000E+00;  0.0000000E+00;  1.0000000E+03;  4.0000001E-01;  0.0000000E+00;0;  0.0000000E+00;  0.0000000E+00;  0.0000000E+00;0;  0.0000000E+00;  1.0000000E+04;  0.0000000E+00;  0.0000000E+00;  1.0000000E+04;  0.0000000E+00;  1.0000000E+04;  0.0000000E+00;  0.0000000E+00;  0.0000000E+00;  0.0000000E+00;
  2.0000000E+00;  9.9999998E-03; -2.3999999E-01;611;  0.0000000E+00;  0.0000000E+00;  0.0000000E+00;  1.0000000E+03;  4.0000001E-01;  0.0000000E+00;0;  0.0000000E+00;  0.0000000E+00;  0.0000000E+00;0;  0.0000000E+00;  1.0000000E+04;  0.0000000E+00;  0.0000000E+00;  1.0000000E+04;  0.0000000E+00;  1.0000000E+04;  0.0000000E+00;  0.0000000E+00;  0.0000000E+00;  0.0000000E+00;
  2.0000000E+00;  9.9999998E-03; -2.2000000E-01;612;  0.0000000E+00;  0.0000000E+00;  0.0000000E+00;  1.0000000E+03;  4.0000001E-01;  0.0000000E+00;0;  0.0000000E+00;  0.0000000E+00;  0.0000000E+00;0;  0.0000000E+00;  1.0000000E+04;  0.0000000E+00;  0.0000000E+00;  1.0000000E+04;  0.0000000E+00;  1.0000000E+04;  0.0000000E+00;  0.0000000E+00;  0.0000000E+00;  0.0000000E+00;
  2.0000000E+00;  9.9999998E-03; -2.0000000E-01;613;  0.0000000E+00;  0.0000000E+00;  0.0000000E+00;  1.0000000E+03;  4.0000001E-01;  0.0000000E+00;0;  0.0000000E+00;  0.0000000E+00;  0.0000000E+00;0;  0.0000000E+00;  1.0000000E+04;  0.0000000E+00;  0.0000000E+00;  1.0000000E+04;  0.0000000E+00;  1.0000000E+04;  0.0000000E+00;  0.0000000E+00;  0.0000000E+00;  0.0000000E+00;
  2.0000000E+00;  9.9999998E-03; -1.8000001E-01;614;  0.0000000E+00;  0.0000000E+00;  0.0000000E+00;  1.0000000E+03;  4.0000001E-01;  0.0000000E+00;0;  0.0000000E+00;  0.0000000E+00;  0.0000000E+00;0;  0.0000000E+00;  1.0000000E+04;  0.0000000E+00;  0.0000000E+00;  1.0000000E+04;  0.0000000E+00;  1.0000000E+04;  0.0000000E+00;  0.0000000E+00;  0.0000000E+00;  0.0000000E+00;
  2.0000000E+00;  9.9999998E-03; -1.6000000E-01;615;  0.0000000E+00;  0.0000000E+00;  0.0000000E+00;  1.0000000E+03;  4.0000001E-01;  0.0000000E+00;0;  0.0000000E+00;  0.0000000E+00;  0.0000000E+00;0;  0.0000000E+00;  1.0000000E+04;  0.0000000E+00;  0.0000000E+00;  1.0000000E+04;  0.0000000E+00;  1.0000000E+04;  0.0000000E+00;  0.0000000E+00;  0.0000000E+00;  0.0000000E+00;
  2.0000000E+00;  9.9999998E-03; -1.4000000E-01;616;  0.0000000E+00;  0.0000000E+00;  0.0000000E+00;  1.0000000E+03;  4.0000001E-01;  0.0000000E+00;0;  0.0000000E+00;  0.0000000E+00;  0.0000000E+00;0;  0.0000000E+00;  1.0000000E+04;  0.0000000E+00;  0.0000000E+00;  1.0000000E+04;  0.0000000E+00;  1.0000000E+04;  0.0000000E+00;  0.0000000E+00;  0.0000000E+00;  0.0000000E+00;
  2.0000000E+00;  9.9999998E-03; -1.2000000E-01;617;  0.0000000E+00;  0.0000000E+00;  0.0000000E+00;  1.0000000E+03;  4.0000001E-01;  0.0000000E+00;0;  0.0000000E+00;  0.0000000E+00;  0.0000000E+00;0;  0.0000000E+00;  1.0000000E+04;  0.0000000E+00;  0.0000000E+00;  1.0000000E+04;  0.0000000E+00;  1.0000000E+04;  0.0000000E+00;  0.0000000E+00;  0.0000000E+00;  0.0000000E+00;
  2.0000000E+00;  9.9999998E-03; -1.0000000E-01;618;  0.0000000E+00;  0.0000000E+00;  0.0000000E+00;  1.0000000E+03;  4.0000001E-01;  0.0000000E+00;0;  0.0000000E+00;  0.0000000E+00;  0.0000000E+00;0;  0.0000000E+00;  1.0000000E+04;  0.0000000E+00;  0.0000000E+00;  1.0000000E+04;  0.0000000E+00;  1.0000000E+04;  0.0000000E+00;  0.0000000E+00;  0.0000000E+00;  0.0000000E+00;
  2.0000000E+00;  9.9999998E-03; -7.9999998E-02;619;  0.0000000E+00;  0.0000000E+00;  0.0000000E+00;  1.0000000E+03;  4.0000001E-01;  0.0000000E+00;0;  0.0000000E+00;  0.0000000E+00;  0.0000000E+00;0;  0.0000000E+00;  1.0000000E+04;  0.0000000E+00;  0.0000000E+00;  1.0000000E+04;  0.0000000E+00;  1.0000000E+04;  0.0000000E+00;  0.0000000E+00;  0.0000000E+00;  0.0000000E+00;
  2.0000000E+00;  9.9999998E-03; -5.9999999E-02;620;  0.0000000E+00;  0.0000000E+00;  0.0000000E+00;  1.0000000E+03;  4.0000001E-01;  0.0000000E+00;0;  0.0000000E+00;  0.0000000E+00;  0.0000000E+00;0;  0.0000000E+00;  1.0000000E+04;  0.0000000E+00;  0.0000000E+00;  1.0000000E+04;  0.0000000E+00;  1.0000000E+04;  0.0000000E+00;  0.0000000E+00;  0.0000000E+00;  0.0000000E+00;
  2.0000000E+00;  9.9999998E-03; -3.9999999E-02;621;  0.0000000E+00;  0.0000000E+00;  0.0000000E+00;  1.0000000E+03;  4.0000001E-01;  0.0000000E+00;0;  0.0000000E+00;  0.0000000E+00;  0.0000000E+00;0;  0.0000000E+00;  1.0000000E+04;  0.0000000E+00;  0.0000000E+00;  1.0000000E+04;  0.0000000E+00;  1.0000000E+04;  0.0000000E+00;  0.0000000E+00;  0.0000000E+00;  0.0000000E+00;
  2.0000000E+00;  9.9999998E-03; -2.0000000E-02;622;  0.0000000E+00;  0.0000000E+00;  0.0000000E+00;  1.0000000E+03;  4.0000001E-01;  0.0000000E+00;0;  0.0000000E+00;  0.0000000E+00;  0.0000000E+00;0;  0.0000000E+00;  1.0000000E+04;  0.0000000E+00;  0.0000000E+00;  1.0000000E+04;  0.0000000E+00;  1.0000000E+04;  0.0000000E+00;  0.0000000E+00;  0.0000000E+00;  0.0000000E+00;
  2.0000000E+00;  9.9999998E-03;  0.0000000E+00;623;  0.0000000E+00;  0.0000000E+00;  0.0000000E+00;  1.0000000E+03;  4.0000001E-01;  0.0000000E+00;0;  0.0000000E+00;  0.0000000E+00;  0.0000000E+00;0;  0.0000000E+00;  1.0000000E+04;  0.0000000E+00;  0.0000000E+00;  1.0000000E+04;  0.0000000E+00;  1.0000000E+04;  0.0000000E+00;  0.0000000E+00;  0.0000000E+00;  0.0000000E+00;
  2.0000000E+00;  9.9999998E-03;  2.0000000E-02;624;  0.0000000E+00;  0.0000000E+00;  0.0000000E+00;  1.0000000E+03;  4.0000001E-01;  0.0000000E+00;0;  0.0000000E+00;  0.0000000E+00;  0.0000000E+00;0;  0.0000000E+00;  1.0000000E+04;  0.0000000E+00;  0.0000000E+00;  1.0000000E+04;  0.0000000E+00;  1.0000000E+04;  0.0000000E+00;  0.0000000E+00;  0.0000000E+00;  0.0000000E+00;
  2.0000000E+00;  9.9999998E-03;  3.9999999E-02;625;  0.0000000E+00;  0.0000000E+00;  0.0000000E+00;  1.0000000E+03;  4.0000001E-01;  0.0000000E+00;0;  0.0000000E+00;  0.0000000E+00;  0.0000000E+00;0;  0.0000000E+00;  1.0000000E+04;  0.0000000E+00;  0.0000000E+00;  1.0000000E+04;  0.0000000E+00;  1.0000000E+04;  0.0000000E+00;  0.0000000E+00;  0.0000000E+00;  0.0000000E+00;
  2.0000000E+00;  9.9999998E-03;  5.9999999E-02;626;  0.0000000E+00;  0.0000000E+00;  0.0000000E+00;  1.0000000E+03;  4.0000001E-01;  0.0000000E+00;0;  0.0000000E+00;  0.0000000E+00;  0.0000000E+00;0;  0.0000000E+00;  1.0000000E+04;  0.0000000E+00;  0.0000000E+00;  1.0000000E+04;  0.0000000E+00;  1.0000000E+04;  0.0000000E+00;  0.0000000E+00;  0.0000000E+00;  0.0000000E+00;
  2.0000000E+00;  9.9999998E-03;  7.9999998E-02;627;  0.0000000E+00;  0.0000000E+00;  0.0000000E+00;  1.0000000E+03;  4.0000001E-01;  0.0000000E+00;0;  0.0000000E+00;  0.0000000E+00;  0.0000000E+00;0;  0.0000000E+00;  1.0000000E+04;  0.0000000E+00;  0.0000000E+00;  1.0000000E+04;  0.0000000E+00;  1.0000000E+04;  0.0000000E+00;  0.0000000E+00;  0.0000000E+00;  0.0000000E+00;
  2.0200000E+00;  9.9999998E-03; -4.0000001E-01;628;  0.0000000E+00;  0.0000000E+00;  0.0000000E+00;  1.0000000E+03;  4.0000001E-01;  0.0000000E+00;0;  0.0000000E+00;  0.0000000E+00;  0.0000000E+00;0;  0.0000000E+00;  1.0000000E+04;  0.0000000E+00;  0.0000000E+00;  1.0000000E+04;  0.0000000E+00;  1.0000000E+04;  0.0000000E+00;  0.0000000E+00;  0.0000000E+00;  0.0000000E+00;
  2.0200000E+00;  9.9999998E-03; -3.8000000E-01;629;  0.0000000E+00;  0.0000000E+00;  0.0000000E+00;  1.0000000E+03;  4.0000001E-01;  0.0000000E+00;0;  0.0000000E+00;  0.0000000E+00;  0.0000000E+00;0;  0.0000000E+00;  1.0000000E+04;  0.0000000E+00;  0.0000000E+00;  1.0000000E+04;  0.0000000E+00;  1.0000000E+04;  0.0000000E+00;  0.0000000E+00;  0.0000000E+00;  0.0000000E+00;
  2.0200000E+00;  9.9999998E-03; -3.6000001E-01;630;  0.0000000E+00;  0.0000000E+00;  0.0000000E+00;  1.0000000E+03;  4.0000001E-01;  0.0000000E+00;0;  0.0000000E+00;  0.0000000E+00;  0.0000000E+00;0;  0.0000000E+00;  1.0000000E+04;  0.0000000E+00;  0.0000000E+00;  1.0000000E+04;  0.0000000E+00;  1.0000000E+04;  0.0000000E+00;  0.0000000E+00;  0.0000000E+00;  0.0000000E+00;
  2.0200000E+00;  9.9999998E-03; -3.4000000E-01;631;  0.0000000E+00;  0.0000000E+00;  0.0000000E+00;  1.0000000E+03;  4.0000001E-01;  0.0000000E+00;0;  0.0000000E+00;  0.0000000E+00;  0.0000000E+00;0;  0.0000000E+00;  1.0000000E+04;  0.0000000E+00;  0.0000000E+00;  1.0000000E+04;  0.0000000E+00;  1.0000000E+04;  0.0000000E+00;  0.0000000E+00;  0.0000000E+00;  0.0000000E+00;
  2.0200000E+00;  9.9999998E-03; -3.1999999E-01;632;  0.0000000E+00;  0.0000000E+00;  0.0000000E+00;  1.0000000E+03;  4.0000001E-01;  0.0000000E+00;0;  0.0000000E+00;  0.0000000E+00;  0.0000000E+00;0;  0.0000000E+00;  1.0000000E+04;  0.0000000E+00;  0.0000000E+00;  1.0000000E+04;  0.0000000E+00;  1.0000000E+04;  0.0000000E+00;  0.0000000E+00;  0.0000000E+00;  0.0000000E+00;
  2.0200000E+00;  9.9999998E-03; -3.0000001E-01;633;  0.0000000E+00;  0.0000000E+00;  0.0000000E+00;  1.0000000E+03;  4.0000001E-01;  0.0000000E+00;0;  0.0000000E+00;  0.0000000E+00;  0.0000000E+00;0;  0.0000000E+00;  1.0000000E+04;  0.0000000E+00;  0.0000000E+00;  1.0000000E+04;  0.0000000E+00;  1.0000000E+04;  0.0000000E+00;  0.0000000E+00;  0.0000000E+00;  0.0000000E+00;
  2.0200000E+00;  9.9999998E-03; -2.8000000E-01;634;  0.0000000E+00;  0.0000000E+00;  0.0000000E+00;  1.0000000E+03;  4.0000001E-01;  0.0000000E+00;0;  0.0000000E+00;  0.0000000E+00;  0.0000000E+00;0;  0.0000000E+00;  1.0000000E+04;  0.0000000E+00;  0.0000000E+00;  1.0000000E+04;  0.0000000E+00;  1.0000000E+04;  0.0000000E+00;  0.0000000E+00;  0.0000000E+00;  0.0000000E+00;
  2.0200000E+00;  9.9999998E-03; -2.5999999E-01;635;  0.0000000E+00;  0.0000000E+00;  0.0000000E+00;  1.0000000E+03;  4.0000001E-01;  0.0000000E+00;0;  0.0000000E+00;  0.0000000E+00;  0.0000000E+00;0;  0.0000000E+00;  1.0000000E+04;  0.0000000E+00;  0.0000000E+00;  1.0000000E+04;  0.0000000E+00;  1.0000000E+04;  0.0000000E+00;  0.0000000E+00;  0.0000000E+00;  0.0000000E+00;
  2.0200000E+00;  9.9999998E-03; -2.3999999E-01;636;  0.0000000E+00;  0.0000000E+00;  0.0000000E+00;  1.0000000E+03;  4.0000001E-01;  0.0000000E+00;0;  0.0000000E+00;  0.0000000E+00;  0.0000000E+00;0;  0.0000000E+00;  1.0000000E+04;  0.0000000E+00;  0.0000000E+00;  1.0000000E+04;  0.0000000E+00;  1.0000000E+04;  0.0000000E+00;  0.0000000E+00;  0.0000000E+00;  0.0000000E+00;
  2.0200000E+00;  9.9999998E-03; -2.2000000E-01;637;  0.0000000E+00;  0.0000000E+00;  0.0000000E+00;  1.0000000E+03;  4.0000001E-01;  0.0000000E+00;0;  0.0000000E+00;  0.0000000E+00;  0.0000000E+00;0;  0.0000000E+00;  1.0000000E+04;  0.0000000E+00;  0.0000000E+00;  1.0000000E+04;  0.0000000E+00;  1.0000000E+04;  0.0000000E+00;  0.0000000E+00;  0.0000000E+00;  0.0000000E+00;
  2.0200000E+00;  9.9999998E-03; -2.0000000E-01;638;  0.0000000E+00;  0.0000000E+00;  0.0000000E+00;  1.0000000E+03;  4.0000001E-01;  0.0000000E+00;0;  0.0000000E+00;  0.0000000E+00;  0.0000000E+00;0;  0.0000000E+00;  1.0000000E+04;  0.0000000E+00;  0.0000000E+00;  1.0000000E+04;  0.0000000E+00;  1.0000000E+04;  0.0000000E+00;  0.0000000E+00;  0.0000000E+00;  0.0000000E+00;
  2.0200000E+00;  9.9999998E-03; -1.8000001E-01;639;  0.0000000E+00;  0.0000000E+00;  0.0000000E+00;  1.0000000E+03;  4.0000001E-01;  0.0000000E+00;0;  0.0000000E+00;  0.0000000E+00;  0.0000000E+00;0;  0.0000000E+00;  1.0000000E+04;  0.0000000E+00;  0.0000000E+00;  1.0000000E+04;  0.0000000E+00;  1.0000000E+04;  0.0000000E+00;  0.0000000E+00;  0.0000000E+00;  0.0000000E+00;
  2.0200000E+00;  9.9999998E-03; -1.6000000E-01;640;  0.0000000E+00;  0.0000000E+00;  0.0000000E+00;  1.0000000E+03;  4.0000001E-01;  0.0000000E+00;0;  0.0000000E+00;  0.0000000E+00;  0.0000000E+00;0;  0.0000000E+00;  1.0000000E+04;  0.0000000E+00;  0.0000000E+00;  1.0000000E+04;  0.0000000E+00;  1.0000000E+04;  0.0000000E+00;  0.0000000E+00;  0.0000000E+00;  0.0000000E+00;
  2.0200000E+00;  9.9999998E-03; -1.4000000E-01;641;  0.0000000E+00;  0.0000000E+00;  0.0000000E+00;  1.0000000E+03;  4.0000001E-01;  0.0000000E+00;0;  0.0000000E+00;  0.0000000E+00;  0.0000000E+00;0;  0.0000000E+00;  1.0000000E+04;  0.0000000E+00;  0.0000000E+00;  1.0000000E+04;  0.0000000E+00;  1.0000000E+04;  0.0000000E+00;  0.0000000E+00;  0.0000000E+00;  0.0000000E+00;
  2.0200000E+00;  9.9999998E-03; -1.2000000E-01;642;  0.0000000E+00;  0.0000000E+00;  0.0000000E+00;  1.0000000E+03;  4.0000001E-01;  0.0000000E+00;0;  0.0000000E+00;  0.0000000E+00;  0.0000000E+00;0;  0.0000000E+00;  1.0000000E+04;  0.0000000E+00;  0.0000000E+00;  1.0000000E+04;  0.0000000E+00;  1.0000000E+04;  0.0000000E+00;  0.0000000E+00;  0.0000000E+00;  0.0000000E+00;
  2.0200000E+00;  9.9999998E-03; -1.0000000E-01;643;  0.0000000E+00;  0.0000000E+00;  0.0000000E+00;  1.0000000E+03;  4.0000001E-01;  0.0000000E+00;0;  0.0000000E+00;  0.0000000E+00;  0.0000000E+00;0;  0.0000000E+00;  1.0000000E+04;  0.0000000E+00;  0.0000000E+00;  1.0000000E+04;  0.0000000E+00;  1.0000000E+04;  0.0000000E+00;  0.0000000E+00;  0.0000000E+00;  0.0000000E+00;
  2.0200000E+00;  9.9999998E-03; -7.9999998E-02;644;  0.0000000E+00;  0.0000000E+00;  0.0000000E+00;  1.0000000E+03;  4.0000001E-01;  0.0000000E+00;0;  0.0000000E+00;  0.0000000E+00;  0.0000000E+00;0;  0.0000000E+00;  1.0000000E+04;  0.0000000E+00;  0.0000000E+00;  1.0000000E+04;  0.0000000E+00;  1.0000000E+04;  0.0000000E+00;  0.0000000E+00;  0.0000000E+00;  0.0000000E+00;
  2.0200000E+00;  9.9999998E-03; -5.9999999E-02;645;  0.0000000E+00;  0.0000000E+00;  0.0000000E+00;  1.0000000E+03;  4.0000001E-01;  0.0000000E+00;0;  0.0000000E+00;  0.0000000E+00;  0.0000000E+00;0;  0.0000000E+00;  1.0000000E+04;  0.0000000E+00;  0.0000000E+00;  1.0000000E+04;  0.0000000E+00;  1.0000000E+04;  0.0000000E+00;  0.0000000E+00;  0.0000000E+00;  0.0000000E+00;
  2.0200000E+00;  9.9999998E-03; -3.9999999E-02;646;  0.0000000E+00;  0.0000000E+00;  0.0000000E+00;  1.0000000E+03;  4.0000001E-01;  0.0000000E+00;0;  0.0000000E+00;  0.0000000E+00;  0.0000000E+00;0;  0.0000000E+00;  1.0000000E+04;  0.0000000E+00;  0.0000000E+00;  1.0000000E+04;  0.0000000E+00;  1.0000000E+04;  0.0000000E+00;  0.0000000E+00;  0.0000000E+00;  0.0000000E+00;
  2.0200000E+00;  9.9999998E-03; -2.0000000E-02;647;  0.0000000E+00;  0.0000000E+00;  0.0000000E+00;  1.0000000E+03;  4.0000001E-01;  0.0000000E+00;0;  0.0000000E+00;  0.0000000E+00;  0.0000000E+00;0;  0.0000000E+00;  1.0000000E+04;  0.0000000E+00;  0.0000000E+00;  1.0000000E+04;  0.0000000E+00;  1.0000000E+04;  0.0000000E+00;  0.0000000E+00;  0.0000000E+00;  0.0000000E+00;
  2.0200000E+00;  9.9999998E-03;  0.0000000E+00;648;  0.0000000E+00;  0.0000000E+00;  0.0000000E+00;  1.0000000E+03;  4.0000001E-01;  0.0000000E+00;0;  0.0000000E+00;  0.0000000E+00;  0.0000000E+00;0;  0.0000000E+00;  1.0000000E+04;  0.0000000E+00;  0.0000000E+00;  1.0000000E+04;  0.0000000E+00;  1.0000000E+04;  0.0000000E+00;  0.0000000E+00;  0.0000000E+00;  0.0000000E+00;
  2.0200000E+00;  9.9999998E-03;  2.0000000E-02;649;  0.0000000E+00;  0.0000000E+00;  0.0000000E+00;  1.0000000E+03;  4.0000001E-01;  0.0000000E+00;0;  0.0000000E+00;  0.0000000E+00;  0.0000000E+00;0;  0.0000000E+00;  1.0000000E+04;  0.0000000E+00;  0.0000000E+00;  1.0000000E+04;  0.0000000E+00;  1.0000000E+04;  0.0000000E+00;  0.0000000E+00;  0.0000000E+00;  0.0000000E+00;
  2.0200000E+00;  9.9999998E-03;  3.9999999E-02;650;  0.0000000E+00;  0.0000000E+00;  0.0000000E+00;  1.0000000E+03;  4.0000001E-01;  0.0000000E+00;0;  0.0000000E+00;  0.0000000E+00;  0.0000000E+00;0;  0.0000000E+00;  1.0000000E+04;  0.0000000E+00;  0.0000000E+00;  1.0000000E+04;  0.0000000E+00;  1.0000000E+04;  0.0000000E+00;  0.0000000E+00;  0.0000000E+00;  0.0000000E+00;
  2.0200000E+00;  9.9999998E-03;  5.9999999E-02;651;  0.0000000E+00;  0.0000000E+00;  0.0000000E+00;  1.0000000E+03;  4.0000001E-01;  0.0000000E+00;0;  0.0000000E+00;  0.0000000E+00;  0.0000000E+00;0;  0.0000000E+00;  1.0000000E+04;  0.0000000E+00;  0.0000000E+00;  1.0000000E+04;  0.0000000E+00;  1.0000000E+04;  0.0000000E+00;  0.0000000E+00;  0.0000000E+00;  0.0000000E+00;
  2.0200000E+00;  9.9999998E-03;  7.9999998E-02;652;  0.0000000E+00;  0.0000000E+00;  0.0000000E+00;  1.0000000E+03;  4.0000001E-01;  0.0000000E+00;0;  0.0000000E+00;  0.0000000E+00;  0.0000000E+00;0;  0.0000000E+00;  1.0000000E+04;  0.0000000E+00;  0.0000000E+00;  1.0000000E+04;  0.0000000E+00;  1.0000000E+04;  0.0000000E+00;  0.0000000E+00;  0.0000000E+00;  0.0000000E+00;
  2.0200000E+00;  9.9999998E-03;  1.0000000E-01;653;  0.0000000E+00;  0.0000000E+00;  0.0000000E+00;  1.0000000E+03;  4.0000001E-01;  0.0000000E+00;0;  0.0000000E+00;  0.0000000E+00;  0.0000000E+00;0;  0.0000000E+00;  1.0000000E+04;  0.0000000E+00;  0.0000000E+00;  1.0000000E+04;  0.0000000E+00;  1.0000000E+04;  0.0000000E+00;  0.0000000E+00;  0.0000000E+00;  0.0000000E+00;
  2.0200000E+00;  9.9999998E-03;  1.2000000E-01;654;  0.0000000E+00;  0.0000000E+00;  0.0000000E+00;  1.0000000E+03;  4.0000001E-01;  0.0000000E+00;0;  0.0000000E+00;  0.0000000E+00;  0.0000000E+00;0;  0.0000000E+00;  1.0000000E+04;  0.0000000E+00;  0.0000000E+00;  1.0000000E+04;  0.0000000E+00;  1.0000000E+04;  0.0000000E+00;  0.0000000E+00;  0.0000000E+00;  0.0000000E+00;
  2.0200000E+00;  9.9999998E-03;  1.4000000E-01;655;  0.0000000E+00;  0.0000000E+00;  0.0000000E+00;  1.0000000E+03;  4.0000001E-01;  0.0000000E+00;0;  0.0000000E+00;  0.0000000E+00;  0.0000000E+00;0;  0.0000000E+00;  1.0000000E+04;  0.0000000E+00;  0.0000000E+00;  1.0000000E+04;  0.0000000E+00;  1.0000000E+04;  0.0000000E+00;  0.0000000E+00;  0.0000000E+00;  0.0000000E+00;
  2.0200000E+00;  9.9999998E-03;  1.6000000E-01;656;  0.0000000E+00;  0.0000000E+00;  0.0000000E+00;  1.0000000E+03;  4.0000001E-01;  0.0000000E+00;0;  0.0000000E+00;  0.0000000E+00;  0.0000000E+00;0;  0.0000000E+00;  1.0000000E+04;  0.0000000E+00;  0.0000000E+00;  1.0000000E+04;  0.0000000E+00;  1.0000000E+04;  0.0000000E+00;  0.0000000E+00;  0.0000000E+00;  0.0000000E+00;
  2.0200000E+00;  9.9999998E-03;  1.8000001E-01;657;  0.0000000E+00;  0.0000000E+00;  0.0000000E+00;  1.0000000E+03;  4.0000001E-01;  0.0000000E+00;0;  0.0000000E+00;  0.0000000E+00;  0.0000000E+00;0;  0.0000000E+00;  1.0000000E+04;  0.0000000E+00;  0.0000000E+00;  1.0000000E+04;  0.0000000E+00;  1.0000000E+04;  0.0000000E+00;  0.0000000E+00;  0.0000000E+00;  0.0000000E+00;
  2.0400000E+00;  9.9999998E-03; -4.0000001E-01;658;  0.0000000E+00;  0.0000000E+00;  0.0000000E+00;  1.0000000E+03;  4.0000001E-01;  0.0000000E+00;0;  0.0000000E+00;  0.0000000E+00;  0.0000000E+00;0;  0.0000000E+00;  1.0000000E+04;  0.0000000E+00;  0.0000000E+00;  1.0000000E+04;  0.0000000E+00;  1.0000000E+04;  0.0000000E+00;  0.0000000E+00;  0.0000000E+00;  0.0000000E+00;
  2.0400000E+00;  9.9999998E-03; -3.8000000E-01;659;  0.0000000E+00;  0.0000000E+00;  0.0000000E+00;  1.0000000E+03;  4.0000001E-01;  0.0000000E+00;0;  0.0000000E+00;  0.0000000E+00;  0.0000000E+00;0;  0.0000000E+00;  1.0000000E+04;  0.0000000E+00;  0.0000000E+00;  1.0000000E+04;  0.0000000E+00;  1.0000000E+04;  0.0000000E+00;  0.0000000E+00;  0.0000000E+00;  0.0000000E+00;
  2.0400000E+00;  9.9999998E-03; -3.6000001E-01;660;  0.0000000E+00;  0.0000000E+00;  0.0000000E+00;  1.0000000E+03;  4.0000001E-01;  0.0000000E+00;0;  0.0000000E+00;  0.0000000E+00;  0.0000000E+00;0;  0.0000000E+00;  1.0000000E+04;  0.0000000E+00;  0.0000000E+00;  1.0000000E+04;  0.0000000E+00;  1.0000000E+04;  0.0000000E+00;  0.0000000E+00;  0.0000000E+00;  0.0000000E+00;
  2.0400000E+00;  9.9999998E-03; -3.4000000E-01;661;  0.0000000E+00;  0.0000000E+00;  0.0000000E+00;  1.0000000E+03;  4.0000001E-01;  0.0000000E+00;0;  0.0000000E+00;  0.0000000E+00;  0.0000000E+00;0;  0.0000000E+00;  1.0000000E+04;  0.0000000E+00;  0.0000000E+00;  1.0000000E+04;  0.0000000E+00;  1.0000000E+04;  0.0000000E+00;  0.0000000E+00;  0.0000000E+00;  0.0000000E+00;
  2.0400000E+00;  9.9999998E-03; -3.1999999E-01;662;  0.0000000E+00;  0.0000000E+00;  0.0000000E+00;  1.0000000E+03;  4.0000001E-01;  0.0000000E+00;0;  0.0000000E+00;  0.0000000E+00;  0.0000000E+00;0;  0.0000000E+00;  1.0000000E+04;  0.0000000E+00;  0.0000000E+00;  1.0000000E+04;  0.0000000E+00;  1.0000000E+04;  0.0000000E+00;  0.0000000E+00;  0.0000000E+00;  0.0000000E+00;
  2.0400000E+00;  9.9999998E-03; -3.0000001E-01;663;  0.0000000E+00;  0.0000000E+00;  0.0000000E+00;  1.0000000E+03;  4.0000001E-01;  0.0000000E+00;0;  0.0000000E+00;  0.0000000E+00;  0.0000000E+00;0;  0.0000000E+00;  1.0000000E+04;  0.0000000E+00;  0.0000000E+00;  1.0000000E+04;  0.0000000E+00;  1.0000000E+04;  0.0000000E+00;  0.0000000E+00;  0.0000000E+00;  0.0000000E+00;
  2.0400000E+00;  9.9999998E-03; -2.8000000E-01;664;  0.0000000E+00;  0.0000000E+00;  0.0000000E+00;  1.0000000E+03;  4.0000001E-01;  0.0000000E+00;0;  0.0000000E+00;  0.0000000E+00;  0.0000000E+00;0;  0.0000000E+00;  1.0000000E+04;  0.0000000E+00;  0.0000000E+00;  1.0000000E+04;  0.0000000E+00;  1.0000000E+04;  0.0000000E+00;  0.0000000E+00;  0.0000000E+00;  0.0000000E+00;
  2.0400000E+00;  9.9999998E-03; -2.5999999E-01;665;  0.0000000E+00;  0.0000000E+00;  0.0000000E+00;  1.0000000E+03;  4.0000001E-01;  0.0000000E+00;0;  0.0000000E+00;  0.0000000E+00;  0.0000000E+00;0;  0.0000000E+00;  1.0000000E+04;  0.0000000E+00;  0.0000000E+00;  1.0000000E+04;  0.0000000E+00;  1.0000000E+04;  0.0000000E+00;  0.0000000E+00;  0.0000000E+00;  0.0000000E+00;
  2.0400000E+00;  9.9999998E-03; -2.3999999E-01;666;  0.0000000E+00;  0.0000000E+00;  0.0000000E+00;  1.0000000E+03;  4.0000001E-01;  0.0000000E+00;0;  0.0000000E+00;  0.0000000E+00;  0.0000000E+00;0;  0.0000000E+00;  1.0000000E+04;  0.0000000E+00;  0.0000000E+00;  1.0000000E+04;  0.0000000E+00;  1.0000000E+04;  0.0000000E+00;  0.0000000E+00;  0.0000000E+00;  0.0000000E+00;
  2.0400000E+00;  9.9999998E-03; -2.2000000E-01;667;  0.0000000E+00;  0.0000000E+00;  0.0000000E+00;  1.0000000E+03;  4.0000001E-01;  0.0000000E+00;0;  0.0000000E+00;  0.0000000E+00;  0.0000000E+00;0;  0.0000000E+00;  1.0000000E+04;  0.0000000E+00;  0.0000000E+00;  1.0000000E+04;  0.0000000E+00;  1.0000000E+04;  0.0000000E+00;  0.0000000E+00;  0.0000000E+00;  0.0000000E+00;
  2.0400000E+00;  9.9999998E-03; -2.0000000E-01;668;  0.0000000E+00;  0.0000000E+00;  0.0000000E+00;  1.0000000E+03;  4.0000001E-01;  0.0000000E+00;0;  0.0000000E+00;  0.0000000E+00;  0.0000000E+00;0;  0.0000000E+00;  1.0000000E+04;  0.0000000E+00;  0.0000000E+00;  1.0000000E+04;  0.0000000E+00;  1.0000000E+04;  0.0000000E+00;  0.0000000E+00;  0.0000000E+00;  0.0000000E+00;
  2.0400000E+00;  9.9999998E-03; -1.8000001E-01;669;  0.0000000E+00;  0.0000000E+00;  0.0000000E+00;  1.0000000E+03;  4.0000001E-01;  0.0000000E+00;0;  0.0000000E+00;  0.0000000E+00;  0.0000000E+00;0;  0.0000000E+00;  1.0000000E+04;  0.0000000E+00;  0.0000000E+00;  1.0000000E+04;  0.0000000E+00;  1.0000000E+04;  0.0000000E+00;  0.0000000E+00;  0.0000000E+00;  0.0000000E+00;
  2.0400000E+00;  9.9999998E-03; -1.6000000E-01;670;  0.0000000E+00;  0.0000000E+00;  0.0000000E+00;  1.0000000E+03;  4.0000001E-01;  0.0000000E+00;0;  0.0000000E+00;  0.0000000E+00;  0.0000000E+00;0;  0.0000000E+00;  1.0000000E+04;  0.0000000E+00;  0.0000000E+00;  1.0000000E+04;  0.0000000E+00;  1.0000000E+04;  0.0000000E+00;  0.0000000E+00;  0.0000000E+00;  0.0000000E+00;
  2.0400000E+00;  9.9999998E-03; -1.4000000E-01;671;  0.0000000E+00;  0.0000000E+00;  0.0000000E+00;  1.0000000E+03;  4.0000001E-01;  0.0000000E+00;0;  0.0000000E+00;  0.0000000E+00;  0.0000000E+00;0;  0.0000000E+00;  1.0000000E+04;  0.0000000E+00;  0.0000000E+00;  1.0000000E+04;  0.0000000E+00;  1.0000000E+04;  0.0000000E+00;  0.0000000E+00;  0.0000000E+00;  0.0000000E+00;
  2.0400000E+00;  9.9999998E-03; -1.2000000E-01;672;  0.0000000E+00;  0.0000000E+00;  0.0000000E+00;  1.0000000E+03;  4.0000001E-01;  0.0000000E+00;0;  0.0000000E+00;  0.0000000E+00;  0.0000000E+00;0;  0.0000000E+00;  1.0000000E+04;  0.0000000E+00;  0.0000000E+00;  1.0000000E+04;  0.0000000E+00;  1.0000000E+04;  0.0000000E+00;  0.0000000E+00;  0.0000000E+00;  0.0000000E+00;
  2.0400000E+00;  9.9999998E-03; -1.0000000E-01;673;  0.0000000E+00;  0.0000000E+00;  0.0000000E+00;  1.0000000E+03;  4.0000001E-01;  0.0000000E+00;0;  0.0000000E+00;  0.0000000E+00;  0.0000000E+00;0;  0.0000000E+00;  1.0000000E+04;  0.0000000E+00;  0.0000000E+00;  1.0000000E+04;  0.0000000E+00;  1.0000000E+04;  0.0000000E+00;  0.0000000E+00;  0.0000000E+00;  0.0000000E+00;
  2.0400000E+00;  9.9999998E-03; -7.9999998E-02;674;  0.0000000E+00;  0.0000000E+00;  0.0000000E+00;  1.0000000E+03;  4.0000001E-01;  0.0000000E+00;0;  0.0000000E+00;  0.0000000E+00;  0.0000000E+00;0;  0.0000000E+00;  1.0000000E+04;  0.0000000E+00;  0.0000000E+00;  1.0000000E+04;  0.0000000E+00;  1.0000000E+04;  0.0000000E+00;  0.0000000E+00;  0.0000000E+00;  0.0000000E+00;
  2.0400000E+00;  9.9999998E-03; -5.9999999E-02;675;  0.0000000E+00;  0.0000000E+00;  0.0000000E+00;  1.0000000E+03;  4.0000001E-01;  0.0000000E+00;0;  0.0000000E+00;  0.0000000E+00;  0.0000000E+00;0;  0.0000000E+00;  1.0000000E+04;  0.0000000E+00;  0.0000000E+00;  1.0000000E+04;  0.0000000E+00;  1.0000000E+04;  0.0000000E+00;  0.0000000E+00;  0.0000000E+00;  0.0000000E+00;
  2.0400000E+00;  9.9999998E-03; -3.9999999E-02;676;  0.0000000E+00;  0.0000000E+00;  0.0000000E+00;  1.0000000E+03;  4.0000001E-01;  0.0000000E+00;0;  0.0000000E+00;  0.0000000E+00;  0.0000000E+00;0;  0.0000000E+00;  1.0000000E+04;  0.0000000E+00;  0.0000000E+00;  1.0000000E+04;  0.0000000E+00;  1.0000000E+04;  0.0000000E+00;  0.0000000E+00;  0.0000000E+00;  0.0000000E+00;
  2.0400000E+00;  9.9999998E-03; -2.0000000E-02;677;  0.0000000E+00;  0.0000000E+00;  0.0000000E+00;  1.0000000E+03;  4.0000001E-01;  0.0000000E+00;0;  0.0000000E+00;  0.0000000E+00;  0.0000000E+00;0;  0.0000000E+00;  1.0000000E+04;  0.0000000E+00;  0.0000000E+00;  1.0000000E+04;  0.0000000E+00;  1.0000000E+04;  0.0000000E+00;  0.0000000E+00;  0.0000000E+00;  0.0000000E+00;
  2.0400000E+00;  9.9999998E-03;  0.0000000E+00;678;  0.0000000E+00;  0.0000000E+00;  0.0000000E+00;  1.0000000E+03;  4.0000001E-01;  0.0000000E+00;0;  0.0000000E+00;  0.0000000E+00;  0.0000000E+00;0;  0.0000000E+00;  1.0000000E+04;  0.0000000E+00;  0.0000000E+00;  1.0000000E+04;  0.0000000E+00;  1.0000000E+04;  0.0000000E+00;  0.0000000E+00;  0.0000000E+00;  0.0000000E+00;
  2.0400000E+00;  9.9999998E-03;  2.0000000E-02;679;  0.0000000E+00;  0.0000000E+00;  0.0000000E+00;  1.0000000E+03;  4.0000001E-01;  0.0000000E+00;0;  0.0000000E+00;  0.0000000E+00;  0.0000000E+00;0;  0.0000000E+00;  1.0000000E+04;  0.0000000E+00;  0.0000000E+00;  1.0000000E+04;  0.0000000E+00;  1.0000000E+04;  0.0000000E+00;  0.0000000E+00;  0.0000000E+00;  0.0000000E+00;
  2.0400000E+00;  9.9999998E-03;  3.9999999E-02;680;  0.0000000E+00;  0.0000000E+00;  0.0000000E+00;  1.0000000E+03;  4.0000001E-01;  0.0000000E+00;0;  0.0000000E+00;  0.0000000E+00;  0.0000000E+00;0;  0.0000000E+00;  1.0000000E+04;  0.0000000E+00;  0.0000000E+00;  1.0000000E+04;  0.0000000E+00;  1.0000000E+04;  0.0000000E+00;  0.0000000E+00;  0.0000000E+00;  0.0000000E+00;
  2.0400000E+00;  9.9999998E-03;  5.9999999E-02;681;  0.0000000E+00;  0.0000000E+00;  0.0000000E+00;  1.0000000E+03;  4.0000001E-01;  0.0000000E+00;0;  0.0000000E+00;  0.0000000E+00;  0.0000000E+00;0;  0.0000000E+00;  1.0000000E+04;  0.0000000E+00;  0.0000000E+00;  1.0000000E+04;  0.0000000E+00;  1.0000000E+04;  0.0000000E+00;  0.0000000E+00;  0.0000000E+00;  0.0000000E+00;
  2.0400000E+00;  9.9999998E-03;  7.9999998E-02;682;  0.0000000E+00;  0.0000000E+00;  0.0000000E+00;  1.0000000E+03;  4.0000001E-01;  0.0000000E+00;0;  0.0000000E+00;  0.0000000E+00;  0.0000000E+00;0;  0.0000000E+00;  1.0000000E+04;  0.0000000E+00;  0.0000000E+00;  1.0000000E+04;  0.0000000E+00;  1.0000000E+04;  0.0000000E+00;  0.0000000E+00;  0.0000000E+00;  0.0000000E+00;
  2.0400000E+00;  9.9999998E-03;  1.0000000E-01;683;  0.0000000E+00;  0.0000000E+00;  0.0000000E+00;  1.0000000E+03;  4.0000001E-01;  0.0000000E+00;0;  0.0000000E+00;  0.0000000E+00;  0.0000000E+00;0;  0.0000000E+00;  1.0000000E+04;  0.0000000E+00;  0.0000000E+00;  1.0000000E+04;  0.0000000E+00;  1.0000000E+04;  0.0000000E+00;  0.0000000E+00;  0.0000000E+00;  0.0000000E+00;
  2.0400000E+00;  9.9999998E-03;  1.2000000E-01;684;  0.0000000E+00;  0.0000000E+00;  0.0000000E+00;  1.0000000E+03;  4.0000001E-01;  0.0000000E+00;0;  0.0000000E+00;  0.0000000E+00;  0.0000000E+00;0;  0.0000000E+00;  1.0000000E+04;  0.0000000E+00;  0.0000000E+00;  1.0000000E+04;  0.0000000E+00;  1.0000000E+04;  0.0000000E+00;  0.0000000E+00;  0.0000000E+00;  0.0000000E+00;
  2.0400000E+00;  9.9999998E-03;  1.4000000E-01;685;  0.0000000E+00;  0.0000000E+00;  0.0000000E+00;  1.0000000E+03;  4.0000001E-01;  0.0000000E+00;0;  0.0000000E+00;  0.0000000E+00;  0.0000000E+00;0;  0.0000000E+00;  1.0000000E+04;  0.0000000E+00;  0.0000000E+00;  1.0000000E+04;  0.0000000E+00;  1.0000000E+04;  0.0000000E+00;  0.0000000E+00;  0.0000000E+00;  0.0000000E+00;
  2.0400000E+00;  9.9999998E-03;  1.6000000E-01;686;  0.0000000E+00;  0.0000000E+00;  0.0000000E+00;  1.0000000E+03;  4.0000001E-01;  0.0000000E+00;0;  0.0000000E+00;  0.0000000E+00;  0.0000000E+00;0;  0.0000000E+00;  1.0000000E+04;  0.0000000E+00;  0.0000000E+00;  1.0000000E+04;  0.0000000E+00;  1.0000000E+04;  0.0000000E+00;  0.0000000E+00;  0.0000000E+00;  0.0000000E+00;
  2.0400000E+00;  9.9999998E-03;  1.8000001E-01;687;  0.0000000E+00;  0.0000000E+00;  0.0000000E+00;  1.0000000E+03;  4.0000001E-01;  0.0000000E+00;0;  0.0000000E+00;  0.0000000E+00;  0.0000000E+00;0;  0.0000000E+00;  1.0000000E+04;  0.0000000E+00;  0.0000000E+00;  1.0000000E+04;  0.0000000E+00;  1.0000000E+04;  0.0000000E+00;  0.0000000E+00;  0.0000000E+00;  0.0000000E+00;
  2.0400000E+00;  9.9999998E-03;  2.0000000E-01;688;  0.0000000E+00;  0.0000000E+00;  0.0000000E+00;  1.0000000E+03;  4.0000001E-01;  0.0000000E+00;0;  0.0000000E+00;  0.0000000E+00;  0.0000000E+00;0;  0.0000000E+00;  1.0000000E+04;  0.0000000E+00;  0.0000000E+00;  1.0000000E+04;  0.0000000E+00;  1.0000000E+04;  0.0000000E+00;  0.0000000E+00;  0.0000000E+00;  0.0000000E+00;
  2.0400000E+00;  9.9999998E-03;  2.2000000E-01;689;  0.0000000E+00;  0.0000000E+00;  0.0000000E+00;  1.0000000E+03;  4.0000001E-01;  0.0000000E+00;0;  0.0000000E+00;  0.0000000E+00;  0.0000000E+00;0;  0.0000000E+00;  1.0000000E+04;  0.0000000E+00;  0.0000000E+00;  1.0000000E+04;  0.0000000E+00;  1.0000000E+04;  0.0000000E+00;  0.0000000E+00;  0.0000000E+00;  0.0000000E+00;
  2.0400000E+00;  9.9999998E-03;  2.3999999E-01;690;  0.0000000E+00;  0.0000000E+00;  0.0000000E+00;  1.0000000E+03;  4.0000001E-01;  0.0000000E+00;0;  0.0000000E+00;  0.0000000E+00;  0.0000000E+00;0;  0.0000000E+00;  1.0000000E+04;  0.0000000E+00;  0.0000000E+00;  1.0000000E+04;  0.0000000E+00;  1.0000000E+04;  0.0000000E+00;  0.0000000E+00;  0.0000000E+00;  0.0000000E+00;
  2.0400000E+00;  9.9999998E-03;  2.5999999E-01;691;  0.0000000E+00;  0.0000000E+00;  0.0000000E+00;  1.0000000E+03;  4.0000001E-01;  0.0000000E+00;0;  0.0000000E+00;  0.0000000E+00;  0.0000000E+00;0;  0.0000000E+00;  1.0000000E+04;  0.0000000E+00;  0.0000000E+00;  1.0000000E+04;  0.0000000E+00;  1.0000000E+04;  0.0000000E+00;  0.0000000E+00;  0.0000000E+00;  0.0000000E+00;
  2.0400000E+00;  9.9999998E-03;  2.8000000E-01;692;  0.0000000E+00;  0.0000000E+00;  0.0000000E+00;  1.0000000E+03;  4.0000001E-01;  0.0000000E+00;0;  0.0000000E+00;  0.0000000E+00;  0.0000000E+00;0;  0.0000000E+00;  1.0000000E+04;  0.0000000E+00;  0.0000000E+00;  1.0000000E+04;  0.0000000E+00;  1.0000000E+04;  0.0000000E+00;  0.0000000E+00;  0.0000000E+00;  0.0000000E+00;
  2.0599999E+00;  9.9999998E-03; -4.0000001E-01;693;  0.0000000E+00;  0.0000000E+00;  0.0000000E+00;  1.0000000E+03;  4.0000001E-01;  0.0000000E+00;0;  0.0000000E+00;  0.0000000E+00;  0.0000000E+00;0;  0.0000000E+00;  1.0000000E+04;  0.0000000E+00;  0.0000000E+00;  1.0000000E+04;  0.0000000E+00;  1.0000000E+04;  0.0000000E+00;  0.0000000E+00;  0.0000000E+00;  0.0000000E+00;
  2.0599999E+00;  9.9999998E-03; -3.8000000E-01;694;  0.0000000E+00;  0.0000000E+00;  0.0000000E+00;  1.0000000E+03;  4.0000001E-01;  0.0000000E+00;0;  0.0000000E+00;  0.0000000E+00;  0.0000000E+00;0;  0.0000000E+00;  1.0000000E+04;  0.0000000E+00;  0.0000000E+00;  1.0000000E+04;  0.0000000E+00;  1.0000000E+04;  0.0000000E+00;  0.0000000E+00;  0.0000000E+00;  0.0000000E+00;
  2.0599999E+00;  9.9999998E-03; -3.6000001E-01;695;  0.0000000E+00;  0.0000000E+00;  0.0000000E+00;  1.0000000E+03;  4.0000001E-01;  0.0000000E+00;0;  0.0000000E+00;  0.0000000E+00;  0.0000000E+00;0;  0.0000000E+00;  1.0000000E+04;  0.0000000E+00;  0.0000000E+00;  1.0000000E+04;  0.0000000E+00;  1.0000000E+04;  0.0000000E+00;  0.0000000E+00;  0.0000000E+00;  0.0000000E+00;
  2.0599999E+00;  9.9999998E-03; -3.4000000E-01;696;  0.0000000E+00;  0.0000000E+00;  0.0000000E+00;  1.0000000E+03;  4.0000001E-01;  0.0000000E+00;0;  0.0000000E+00;  0.0000000E+00;  0.0000000E+00;0;  0.0000000E+00;  1.0000000E+04;  0.0000000E+00;  0.0000000E+00;  1.0000000E+04;  0.0000000E+00;  1.0000000E+04;  0.0000000E+00;  0.0000000E+00;  0.0000000E+00;  0.0000000E+00;
  2.0599999E+00;  9.9999998E-03; -3.1999999E-01;697;  0.0000000E+00;  0.0000000E+00;  0.0000000E+00;  1.0000000E+03;  4.0000001E-01;  0.0000000E+00;0;  0.0000000E+00;  0.0000000E+00;  0.0000000E+00;0;  0.0000000E+00;  1.0000000E+04;  0.0000000E+00;  0.0000000E+00;  1.0000000E+04;  0.0000000E+00;  1.0000000E+04;  0.0000000E+00;  0.0000000E+00;  0.0000000E+00;  0.0000000E+00;
  2.0599999E+00;  9.9999998E-03; -3.0000001E-01;698;  0.0000000E+00;  0.0000000E+00;  0.0000000E+00;  1.0000000E+03;  4.0000001E-01;  0.0000000E+00;0;  0.0000000E+00;  0.0000000E+00;  0.0000000E+00;0;  0.0000000E+00;  1.0000000E+04;  0.0000000E+00;  0.0000000E+00;  1.0000000E+04;  0.0000000E+00;  1.0000000E+04;  0.0000000E+00;  0.0000000E+00;  0.0000000E+00;  0.0000000E+00;
  2.0599999E+00;  9.9999998E-03; -2.8000000E-01;699;  0.0000000E+00;  0.0000000E+00;  0.0000000E+00;  1.0000000E+03;  4.0000001E-01;  0.0000000E+00;0;  0.0000000E+00;  0.0000000E+00;  0.0000000E+00;0;  0.0000000E+00;  1.0000000E+04;  0.0000000E+00;  0.0000000E+00;  1.0000000E+04;  0.0000000E+00;  1.0000000E+04;  0.0000000E+00;  0.0000000E+00;  0.0000000E+00;  0.0000000E+00;
  2.0599999E+00;  9.9999998E-03; -2.5999999E-01;700;  0.0000000E+00;  0.0000000E+00;  0.0000000E+00;  1.0000000E+03;  4.0000001E-01;  0.0000000E+00;0;  0.0000000E+00;  0.0000000E+00;  0.0000000E+00;0;  0.0000000E+00;  1.0000000E+04;  0.0000000E+00;  0.0000000E+00;  1.0000000E+04;  0.0000000E+00;  1.0000000E+04;  0.0000000E+00;  0.0000000E+00;  0.0000000E+00;  0.0000000E+00;
  2.0599999E+00;  9.9999998E-03; -2.3999999E-01;701;  0.0000000E+00;  0.0000000E+00;  0.0000000E+00;  1.0000000E+03;  4.0000001E-01;  0.0000000E+00;0;  0.0000000E+00;  0.0000000E+00;  0.0000000E+00;0;  0.0000000E+00;  1.0000000E+04;  0.0000000E+00;  0.0000000E+00;  1.0000000E+04;  0.0000000E+00;  1.0000000E+04;  0.0000000E+00;  0.0000000E+00;  0.0000000E+00;  0.0000000E+00;
  2.0599999E+00;  9.9999998E-03; -2.2000000E-01;702;  0.0000000E+00;  0.0000000E+00;  0.0000000E+00;  1.0000000E+03;  4.0000001E-01;  0.0000000E+00;0;  0.0000000E+00;  0.0000000E+00;  0.0000000E+00;0;  0.0000000E+00;  1.0000000E+04;  0.0000000E+00;  0.0000000E+00;  1.0000000E+04;  0.0000000E+00;  1.0000000E+04;  0.0000000E+00;  0.0000000E+00;  0.0000000E+00;  0.0000000E+00;
  2.0599999E+00;  9.9999998E-03; -2.0000000E-01;703;  0.0000000E+00;  0.0000000E+00;  0.0000000E+00;  1.0000000E+03;  4.0000001E-01;  0.0000000E+00;0;  0.0000000E+00;  0.0000000E+00;  0.0000000E+00;0;  0.0000000E+00;  1.0000000E+04;  0.0000000E+00;  0.0000000E+00;  1.0000000E+04;  0.0000000E+00;  1.0000000E+04;  0.0000000E+00;  0.0000000E+00;  0.0000000E+00;  0.0000000E+00;
  2.0599999E+00;  9.9999998E-03; -1.8000001E-01;704;  0.0000000E+00;  0.0000000E+00;  0.0000000E+00;  1.0000000E+03;  4.0000001E-01;  0.0000000E+00;0;  0.0000000E+00;  0.0000000E+00;  0.0000000E+00;0;  0.0000000E+00;  1.0000000E+04;  0.0000000E+00;  0.0000000E+00;  1.0000000E+04;  0.0000000E+00;  1.0000000E+04;  0.0000000E+00;  0.0000000E+00;  0.0000000E+00;  0.0000000E+00;
  2.0599999E+00;  9.9999998E-03; -1.6000000E-01;705;  0.0000000E+00;  0.0000000E+00;  0.0000000E+00;  1.0000000E+03;  4.0000001E-01;  0.0000000E+00;0;  0.0000000E+00;  0.0000000E+00;  0.0000000E+00;0;  0.0000000E+00;  1.0000000E+04;  0.0000000E+00;  0.0000000E+00;  1.0000000E+04;  0.0000000E+00;  1.0000000E+04;  0.0000000E+00;  0.0000000E+00;  0.0000000E+00;  0.0000000E+00;
  2.0599999E+00;  9.9999998E-03; -1.4000000E-01;706;  0.0000000E+00;  0.0000000E+00;  0.0000000E+00;  1.0000000E+03;  4.0000001E-01;  0.0000000E+00;0;  0.0000000E+00;  0.0000000E+00;  0.0000000E+00;0;  0.0000000E+00;  1.0000000E+04;  0.0000000E+00;  0.0000000E+00;  1.0000000E+04;  0.0000000E+00;  1.0000000E+04;  0.0000000E+00;  0.0000000E+00;  0.0000000E+00;  0.0000000E+00;
  2.0599999E+00;  9.9999998E-03; -1.2000000E-01;707;  0.0000000E+00;  0.0000000E+00;  0.0000000E+00;  1.0000000E+03;  4.0000001E-01;  0.0000000E+00;0;  0.0000000E+00;  0.0000000E+00;  0.0000000E+00;0;  0.0000000E+00;  1.0000000E+04;  0.0000000E+00;  0.0000000E+00;  1.0000000E+04;  0.0000000E+00;  1.0000000E+04;  0.0000000E+00;  0.0000000E+00;  0.0000000E+00;  0.0000000E+00;
  2.0599999E+00;  9.9999998E-03; -1.0000000E-01;708;  0.0000000E+00;  0.0000000E+00;  0.0000000E+00;  1.0000000E+03;  4.0000001E-01;  0.0000000E+00;0;  0.0000000E+00;  0.0000000E+00;  0.0000000E+00;0;  0.0000000E+00;  1.0000000E+04;  0.0000000E+00;  0.0000000E+00;  1.0000000E+04;  0.0000000E+00;  1.0000000E+04;  0.0000000E+00;  0.0000000E+00;  0.0000000E+00;  0.0000000E+00;
  2.0599999E+00;  9.9999998E-03; -7.9999998E-02;709;  0.0000000E+00;  0.0000000E+00;  0.0000000E+00;  1.0000000E+03;  4.0000001E-01;  0.0000000E+00;0;  0.0000000E+00;  0.0000000E+00;  0.0000000E+00;0;  0.0000000E+00;  1.0000000E+04;  0.0000000E+00;  0.0000000E+00;  1.0000000E+04;  0.0000000E+00;  1.0000000E+04;  0.0000000E+00;  0.0000000E+00;  0.0000000E+00;  0.0000000E+00;
  2.0599999E+00;  9.9999998E-03; -5.9999999E-02;710;  0.0000000E+00;  0.0000000E+00;  0.0000000E+00;  1.0000000E+03;  4.0000001E-01;  0.0000000E+00;0;  0.0000000E+00;  0.0000000E+00;  0.0000000E+00;0;  0.0000000E+00;  1.0000000E+04;  0.0000000E+00;  0.0000000E+00;  1.0000000E+04;  0.0000000E+00;  1.0000000E+04;  0.0000000E+00;  0.0000000E+00;  0.0000000E+00;  0.0000000E+00;
  2.0599999E+00;  9.9999998E-03; -3.9999999E-02;711;  0.0000000E+00;  0.0000000E+00;  0.0000000E+00;  1.0000000E+03;  4.0000001E-01;  0.0000000E+00;0;  0.0000000E+00;  0.0000000E+00;  0.0000000E+00;0;  0.0000000E+00;  1.0000000E+04;  0.0000000E+00;  0.0000000E+00;  1.0000000E+04;  0.0000000E+00;  1.0000000E+04;  0.0000000E+00;  0.0000000E+00;  0.0000000E+00;  0.0000000E+00;
  2.0599999E+00;  9.9999998E-03; -2.0000000E-02;712;  0.0000000E+00;  0.0000000E+00;  0.0000000E+00;  1.0000000E+03;  4.0000001E-01;  0.0000000E+00;0;  0.0000000E+00;  0.0000000E+00;  0.0000000E+00;0;  0.0000000E+00;  1.0000000E+04;  0.0000000E+00;  0.0000000E+00;  1.0000000E+04;  0.0000000E+00;  1.0000000E+04;  0.0000000E+00;  0.0000000E+00;  0.0000000E+00;  0.0000000E+00;
  2.0599999E+00;  9.9999998E-03;  0.0000000E+00;713;  0.0000000E+00;  0.0000000E+00;  0.0000000E+00;  1.0000000E+03;  4.0000001E-01;  0.0000000E+00;0;  0.0000000E+00;  0.0000000E+00;  0.0000000E+00;0;  0.0000000E+00;  1.0000000E+04;  0.0000000E+00;  0.0000000E+00;  1.0000000E+04;  0.0000000E+00;  1.0000000E+04;  0.0000000E+00;  0.0000000E+00;  0.0000000E+00;  0.0000000E+00;
  2.0599999E+00;  9.9999998E-03;  2.0000000E-02;714;  0.0000000E+00;  0.0000000E+00;  0.0000000E+00;  1.0000000E+03;  4.0000001E-01;  0.0000000E+00;0;  0.0000000E+00;  0.0000000E+00;  0.0000000E+00;0;  0.0000000E+00;  1.0000000E+04;  0.0000000E+00;  0.0000000E+00;  1.0000000E+04;  0.0000000E+00;  1.0000000E+04;  0.0000000E+00;  0.0000000E+00;  0.0000000E+00;  0.0000000E+00;
  2.0599999E+00;  9.9999998E-03;  3.9999999E-02;715;  0.0000000E+00;  0.0000000E+00;  0.0000000E+00;  1.0000000E+03;  4.0000001E-01;  0.0000000E+00;0;  0.0000000E+00;  0.0000000E+00;  0.0000000E+00;0;  0.0000000E+00;  1.0000000E+04;  0.0000000E+00;  0.0000000E+00;  1.0000000E+04;  0.0000000E+00;  1.0000000E+04;  0.0000000E+00;  0.0000000E+00;  0.0000000E+00;  0.0000000E+00;
  2.0599999E+00;  9.9999998E-03;  5.9999999E-02;716;  0.0000000E+00;  0.0000000E+00;  0.0000000E+00;  1.0000000E+03;  4.0000001E-01;  0.0000000E+00;0;  0.0000000E+00;  0.0000000E+00;  0.0000000E+00;0;  0.0000000E+00;  1.0000000E+04;  0.0000000E+00;  0.0000000E+00;  1.0000000E+04;  0.0000000E+00;  1.0000000E+04;  0.0000000E+00;  0.0000000E+00;  0.0000000E+00;  0.0000000E+00;
  2.0599999E+00;  9.9999998E-03;  7.9999998E-02;717;  0.0000000E+00;  0.0000000E+00;  0.0000000E+00;  1.0000000E+03;  4.0000001E-01;  0.0000000E+00;0;  0.0000000E+00;  0.0000000E+00;  0.0000000E+00;0;  0.0000000E+00;  1.0000000E+04;  0.0000000E+00;  0.0000000E+00;  1.0000000E+04;  0.0000000E+00;  1.0000000E+04;  0.0000000E+00;  0.0000000E+00;  0.0000000E+00;  0.0000000E+00;
  2.0599999E+00;  9.9999998E-03;  1.0000000E-01;718;  0.0000000E+00;  0.0000000E+00;  0.0000000E+00;  1.0000000E+03;  4.0000001E-01;  0.0000000E+00;0;  0.0000000E+00;  0.0000000E+00;  0.0000000E+00;0;  0.0000000E+00;  1.0000000E+04;  0.0000000E+00;  0.0000000E+00;  1.0000000E+04;  0.0000000E+00;  1.0000000E+04;  0.0000000E+00;  0.0000000E+00;  0.0000000E+00;  0.0000000E+00;
  2.0599999E+00;  9.9999998E-03;  1.2000000E-01;719;  0.0000000E+00;  0.0000000E+00;  0.0000000E+00;  1.0000000E+03;  4.0000001E-01;  0.0000000E+00;0;  0.0000000E+00;  0.0000000E+00;  0.0000000E+00;0;  0.0000000E+00;  1.0000000E+04;  0.0000000E+00;  0.0000000E+00;  1.0000000E+04;  0.0000000E+00;  1.0000000E+04;  0.0000000E+00;  0.0000000E+00;  0.0000000E+00;  0.0000000E+00;
  2.0599999E+00;  9.9999998E-03;  1.4000000E-01;720;  0.0000000E+00;  0.0000000E+00;  0.0000000E+00;  1.0000000E+03;  4.0000001E-01;  0.0000000E+00;0;  0.0000000E+00;  0.0000000E+00;  0.0000000E+00;0;  0.0000000E+00;  1.0000000E+04;  0.0000000E+00;  0.0000000E+00;  1.0000000E+04;  0.0000000E+00;  1.0000000E+04;  0.0000000E+00;  0.0000000E+00;  0.0000000E+00;  0.0000000E+00;
  2.0599999E+00;  9.9999998E-03;  1.6000000E-01;721;  0.0000000E+00;  0.0000000E+00;  0.0000000E+00;  1.0000000E+03;  4.0000001E-01;  0.0000000E+00;0;  0.0000000E+00;  0.0000000E+00;  0.0000000E+00;0;  0.0000000E+00;  1.0000000E+04;  0.0000000E+00;  0.0000000E+00;  1.0000000E+04;  0.0000000E+00;  1.0000000E+04;  0.0000000E+00;  0.0000000E+00;  0.0000000E+00;  0.0000000E+00;
  2.0599999E+00;  9.9999998E-03;  1.8000001E-01;722;  0.0000000E+00;  0.0000000E+00;  0.0000000E+00;  1.0000000E+03;  4.0000001E-01;  0.0000000E+00;0;  0.0000000E+00;  0.0000000E+00;  0.0000000E+00;0;  0.0000000E+00;  1.0000000E+04;  0.0000000E+00;  0.0000000E+00;  1.0000000E+04;  0.0000000E+00;  1.0000000E+04;  0.0000000E+00;  0.0000000E+00;  0.0000000E+00;  0.0000000E+00;
  2.0599999E+00;  9.9999998E-03;  2.0000000E-01;723;  0.0000000E+00;  0.0000000E+00;  0.0000000E+00;  1.0000000E+03;  4.0000001E-01;  0.0000000E+00;0;  0.0000000E+00;  0.0000000E+00;  0.0000000E+00;0;  0.0000000E+00;  1.0000000E+04;  0.0000000E+00;  0.0000000E+00;  1.0000000E+04;  0.0000000E+00;  1.0000000E+04;  0.0000000E+00;  0.0000000E+00;  0.0000000E+00;  0.0000000E+00;
  2.0599999E+00;  9.9999998E-03;  2.2000000E-01;724;  0.0000000E+00;  0.0000000E+00;  0.0000000E+00;  1.0000000E+03;  4.0000001E-01;  0.0000000E+00;0;  0.0000000E+00;  0.0000000E+00;  0.0000000E+00;0;  0.0000000E+00;  1.0000000E+04;  0.0000000E+00;  0.0000000E+00;  1.0000000E+04;  0.0000000E+00;  1.0000000E+04;  0.0000000E+00;  0.0000000E+00;  0.0000000E+00;  0.0000000E+00;
  2.0599999E+00;  9.9999998E-03;  2.3999999E-01;725;  0.0000000E+00;  0.0000000E+00;  0.0000000E+00;  1.0000000E+03;  4.0000001E-01;  0.0000000E+00;0;  0.0000000E+00;  0.0000000E+00;  0.0000000E+00;0;  0.0000000E+00;  1.0000000E+04;  0.0000000E+00;  0.0000000E+00;  1.0000000E+04;  0.0000000E+00;  1.0000000E+04;  0.0000000E+00;  0.0000000E+00;  0.0000000E+00;  0.0000000E+00;
  2.0599999E+00;  9.9999998E-03;  2.5999999E-01;726;  0.0000000E+00;  0.0000000E+00;  0.0000000E+00;  1.0000000E+03;  4.0000001E-01;  0.0000000E+00;0;  0.0000000E+00;  0.0000000E+00;  0.0000000E+00;0;  0.0000000E+00;  1.0000000E+04;  0.0000000E+00;  0.0000000E+00;  1.0000000E+04;  0.0000000E+00;  1.0000000E+04;  0.0000000E+00;  0.0000000E+00;  0.0000000E+00;  0.0000000E+00;
  2.0599999E+00;  9.9999998E-03;  2.8000000E-01;727;  0.0000000E+00;  0.0000000E+00;  0.0000000E+00;  1.0000000E+03;  4.0000001E-01;  0.0000000E+00;0;  0.0000000E+00;  0.0000000E+00;  0.0000000E+00;0;  0.0000000E+00;  1.0000000E+04;  0.0000000E+00;  0.0000000E+00;  1.0000000E+04;  0.0000000E+00;  1.0000000E+04;  0.0000000E+00;  0.0000000E+00;  0.0000000E+00;  0.0000000E+00;
  2.0599999E+00;  9.9999998E-03;  3.0000001E-01;728;  0.0000000E+00;  0.0000000E+00;  0.0000000E+00;  1.0000000E+03;  4.0000001E-01;  0.0000000E+00;0;  0.0000000E+00;  0.0000000E+00;  0.0000000E+00;0;  0.0000000E+00;  1.0000000E+04;  0.0000000E+00;  0.0000000E+00;  1.0000000E+04;  0.0000000E+00;  1.0000000E+04;  0.0000000E+00;  0.0000000E+00;  0.0000000E+00;  0.0000000E+00;
  2.0599999E+00;  9.9999998E-03;  3.1999999E-01;729;  0.0000000E+00;  0.0000000E+00;  0.0000000E+00;  1.0000000E+03;  4.0000001E-01;  0.0000000E+00;0;  0.0000000E+00;  0.0000000E+00;  0.0000000E+00;0;  0.0000000E+00;  1.0000000E+04;  0.0000000E+00;  0.0000000E+00;  1.0000000E+04;  0.0000000E+00;  1.0000000E+04;  0.0000000E+00;  0.0000000E+00;  0.0000000E+00;  0.0000000E+00;
  2.0599999E+00;  9.9999998E-03;  3.4000000E-01;730;  0.0000000E+00;  0.0000000E+00;  0.0000000E+00;  1.0000000E+03;  4.0000001E-01;  0.0000000E+00;0;  0.0000000E+00;  0.0000000E+00;  0.0000000E+00;0;  0.0000000E+00;  1.0000000E+04;  0.0000000E+00;  0.0000000E+00;  1.0000000E+04;  0.0000000E+00;  1.0000000E+04;  0.0000000E+00;  0.0000000E+00;  0.0000000E+00;  0.0000000E+00;
  2.0599999E+00;  9.9999998E-03;  3.6000001E-01;731;  0.0000000E+00;  0.0000000E+00;  0.0000000E+00;  1.0000000E+03;  4.0000001E-01;  0.0000000E+00;0;  0.0000000E+00;  0.0000000E+00;  0.0000000E+00;0;  0.0000000E+00;  1.0000000E+04;  0.0000000E+00;  0.0000000E+00;  1.0000000E+04;  0.0000000E+00;  1.0000000E+04;  0.0000000E+00;  0.0000000E+00;  0.0000000E+00;  0.0000000E+00;
  2.0599999E+00;  9.9999998E-03;  3.8000000E-01;732;  0.0000000E+00;  0.0000000E+00;  0.0000000E+00;  1.0000000E+03;  4.0000001E-01;  0.0000000E+00;0;  0.0000000E+00;  0.0000000E+00;  0.0000000E+00;0;  0.0000000E+00;  1.0000000E+04;  0.0000000E+00;  0.0000000E+00;  1.0000000E+04;  0.0000000E+00;  1.0000000E+04;  0.0000000E+00;  0.0000000E+00;  0.0000000E+00;  0.0000000E+00;
  2.0799999E+00;  9.9999998E-03; -4.0000001E-01;733;  0.0000000E+00;  0.0000000E+00;  0.0000000E+00;  1.0000000E+03;  4.0000001E-01;  0.0000000E+00;0;  0.0000000E+00;  0.0000000E+00;  0.0000000E+00;0;  0.0000000E+00;  1.0000000E+04;  0.0000000E+00;  0.0000000E+00;  1.0000000E+04;  0.0000000E+00;  1.0000000E+04;  0.0000000E+00;  0.0000000E+00;  0.0000000E+00;  0.0000000E+00;
  2.0799999E+00;  9.9999998E-03; -3.8000000E-01;734;  0.0000000E+00;  0.0000000E+00;  0.0000000E+00;  1.0000000E+03;  4.0000001E-01;  0.0000000E+00;0;  0.0000000E+00;  0.0000000E+00;  0.0000000E+00;0;  0.0000000E+00;  1.0000000E+04;  0.0000000E+00;  0.0000000E+00;  1.0000000E+04;  0.0000000E+00;  1.0000000E+04;  0.0000000E+00;  0.0000000E+00;  0.0000000E+00;  0.0000000E+00;
  2.0799999E+00;  9.9999998E-03; -3.6000001E-01;735;  0.0000000E+00;  0.0000000E+00;  0.0000000E+00;  1.0000000E+03;  4.0000001E-01;  0.0000000E+00;0;  0.0000000E+00;  0.0000000E+00;  0.0000000E+00;0;  0.0000000E+00;  1.0000000E+04;  0.0000000E+00;  0.0000000E+00;  1.0000000E+04;  0.0000000E+00;  1.0000000E+04;  0.0000000E+00;  0.0000000E+00;  0.0000000E+00;  0.0000000E+00;
  2.0799999E+00;  9.9999998E-03; -3.4000000E-01;736;  0.0000000E+00;  0.0000000E+00;  0.0000000E+00;  1.0000000E+03;  4.0000001E-01;  0.0000000E+00;0;  0.0000000E+00;  0.0000000E+00;  0.0000000E+00;0;  0.0000000E+00;  1.0000000E+04;  0.0000000E+00;  0.0000000E+00;  1.0000000E+04;  0.0000000E+00;  1.0000000E+04;  0.0000000E+00;  0.0000000E+00;  0.0000000E+00;  0.0000000E+00;
  2.0799999E+00;  9.9999998E-03; -3.1999999E-01;737;  0.0000000E+00;  0.0000000E+00;  0.0000000E+00;  1.0000000E+03;  4.0000001E-01;  0.0000000E+00;0;  0.0000000E+00;  0.0000000E+00;  0.0000000E+00;0;  0.0000000E+00;  1.0000000E+04;  0.0000000E+00;  0.0000000E+00;  1.0000000E+04;  0.0000000E+00;  1.0000000E+04;  0.0000000E+00;  0.0000000E+00;  0.0000000E+00;  0.0000000E+00;
  2.0799999E+00;  9.9999998E-03; -3.0000001E-01;738;  0.0000000E+00;  0.0000000E+00;  0.0000000E+00;  1.0000000E+03;  4.0000001E-01;  0.0000000E+00;0;  0.0000000E+00;  0.0000000E+00;  0.0000000E+00;0;  0.0000000E+00;  1.0000000E+04;  0.0000000E+00;  0.0000000E+00;  1.0000000E+04;  0.0000000E+00;  1.0000000E+04;  0.0000000E+00;  0.0000000E+00;  0.0000000E+00;  0.0000000E+00;
  2.0799999E+00;  9.9999998E-03; -2.8000000E-01;739;  0.0000000E+00;  0.0000000E+00;  0.0000000E+00;  1.0000000E+03;  4.0000001E-01;  0.0000000E+00;0;  0.0000000E+00;  0.0000000E+00;  0.0000000E+00;0;  0.0000000E+00;  1.0000000E+04;  0.0000000E+00;  0.0000000E+00;  1.0000000E+04;  0.0000000E+00;  1.0000000E+04;  0.0000000E+00;  0.0000000E+00;  0.0000000E+00;  0.0000000E+00;
  2.0799999E+00;  9.9999998E-03; -2.5999999E-01;740;  0.0000000E+00;  0.0000000E+00;  0.0000000E+00;  1.0000000E+03;  4.0000001E-01;  0.0000000E+00;0;  0.0000000E+00;  0.0000000E+00;  0.0000000E+00;0;  0.0000000E+00;  1.0000000E+04;  0.0000000E+00;  0.0000000E+00;  1.0000000E+04;  0.0000000E+00;  1.0000000E+04;  0.0000000E+00;  0.0000000E+00;  0.0000000E+00;  0.0000000E+00;
  2.0799999E+00;  9.9999998E-03; -2.3999999E-01;741;  0.0000000E+00;  0.0000000E+00;  0.0000000E+00;  1.0000000E+03;  4.0000001E-01;  0.0000000E+00;0;  0.0000000E+00;  0.0000000E+00;  0.0000000E+00;0;  0.0000000E+00;  1.0000000E+04;  0.0000000E+00;  0.0000000E+00;  1.0000000E+04;  0.0000000E+00;  1.0000000E+04;  0.0000000E+00;  0.0000000E+00;  0.0000000E+00;  0.0000000E+00;
  2.0799999E+00;  9.9999998E-03; -2.2000000E-01;742;  0.0000000E+00;  0.0000000E+00;  0.0000000E+00;  1.0000000E+03;  4.0000001E-01;  0.0000000E+00;0;  0.0000000E+00;  0.0000000E+00;  0.0000000E+00;0;  0.0000000E+00;  1.0000000E+04;  0.0000000E+00;  0.0000000E+00;  1.0000000E+04;  0.0000000E+00;  1.0000000E+04;  0.0000000E+00;  0.0000000E+00;  0.0000000E+00;  0.0000000E+00;
  2.0799999E+00;  9.9999998E-03; -2.0000000E-01;743;  0.0000000E+00;  0.0000000E+00;  0.0000000E+00;  1.0000000E+03;  4.0000001E-01;  0.0000000E+00;0;  0.0000000E+00;  0.0000000E+00;  0.0000000E+00;0;  0.0000000E+00;  1.0000000E+04;  0.0000000E+00;  0.0000000E+00;  1.0000000E+04;  0.0000000E+00;  1.0000000E+04;  0.0000000E+00;  0.0000000E+00;  0.0000000E+00;  0.0000000E+00;
  2.0799999E+00;  9.9999998E-03; -1.8000001E-01;744;  0.0000000E+00;  0.0000000E+00;  0.0000000E+00;  1.0000000E+03;  4.0000001E-01;  0.0000000E+00;0;  0.0000000E+00;  0.0000000E+00;  0.0000000E+00;0;  0.0000000E+00;  1.0000000E+04;  0.0000000E+00;  0.0000000E+00;  1.0000000E+04;  0.0000000E+00;  1.0000000E+04;  0.0000000E+00;  0.0000000E+00;  0.0000000E+00;  0.0000000E+00;
  2.0799999E+00;  9.9999998E-03; -1.6000000E-01;745;  0.0000000E+00;  0.0000000E+00;  0.0000000E+00;  1.0000000E+03;  4.0000001E-01;  0.0000000E+00;0;  0.0000000E+00;  0.0000000E+00;  0.0000000E+00;0;  0.0000000E+00;  1.0000000E+04;  0.0000000E+00;  0.0000000E+00;  1.0000000E+04;  0.0000000E+00;  1.0000000E+04;  0.0000000E+00;  0.0000000E+00;  0.0000000E+00;  0.0000000E+00;
  2.0799999E+00;  9.9999998E-03; -1.4000000E-01;746;  0.0000000E+00;  0.0000000E+00;  0.0000000E+00;  1.0000000E+03;  4.0000001E-01;  0.0000000E+00;0;  0.0000000E+00;  0.0000000E+00;  0.0000000E+00;0;  0.0000000E+00;  1.0000000E+04;  0.0000000E+00;  0.0000000E+00;  1.0000000E+04;  0.0000000E+00;  1.0000000E+04;  0.0000000E+00;  0.0000000E+00;  0.0000000E+00;  0.0000000E+00;
  2.0799999E+00;  9.9999998E-03; -1.2000000E-01;747;  0.0000000E+00;  0.0000000E+00;  0.0000000E+00;  1.0000000E+03;  4.0000001E-01;  0.0000000E+00;0;  0.0000000E+00;  0.0000000E+00;  0.0000000E+00;0;  0.0000000E+00;  1.0000000E+04;  0.0000000E+00;  0.0000000E+00;  1.0000000E+04;  0.0000000E+00;  1.0000000E+04;  0.0000000E+00;  0.0000000E+00;  0.0000000E+00;  0.0000000E+00;
  2.0799999E+00;  9.9999998E-03; -1.0000000E-01;748;  0.0000000E+00;  0.0000000E+00;  0.0000000E+00;  1.0000000E+03;  4.0000001E-01;  0.0000000E+00;0;  0.0000000E+00;  0.0000000E+00;  0.0000000E+00;0;  0.0000000E+00;  1.0000000E+04;  0.0000000E+00;  0.0000000E+00;  1.0000000E+04;  0.0000000E+00;  1.0000000E+04;  0.0000000E+00;  0.0000000E+00;  0.0000000E+00;  0.0000000E+00;
  2.0799999E+00;  9.9999998E-03; -7.9999998E-02;749;  0.0000000E+00;  0.0000000E+00;  0.0000000E+00;  1.0000000E+03;  4.0000001E-01;  0.0000000E+00;0;  0.0000000E+00;  0.0000000E+00;  0.0000000E+00;0;  0.0000000E+00;  1.0000000E+04;  0.0000000E+00;  0.0000000E+00;  1.0000000E+04;  0.0000000E+00;  1.0000000E+04;  0.0000000E+00;  0.0000000E+00;  0.0000000E+00;  0.0000000E+00;
  2.0799999E+00;  9.9999998E-03; -5.9999999E-02;750;  0.0000000E+00;  0.0000000E+00;  0.0000000E+00;  1.0000000E+03;  4.0000001E-01;  0.0000000E+00;0;  0.0000000E+00;  0.0000000E+00;  0.0000000E+00;0;  0.0000000E+00;  1.0000000E+04;  0.0000000E+00;  0.0000000E+00;  1.0000000E+04;  0.0000000E+00;  1.0000000E+04;  0.0000000E+00;  0.0000000E+00;  0.0000000E+00;  0.0000000E+00;
  2.0799999E+00;  9.9999998E-03; -3.9999999E-02;751;  0.0000000E+00;  0.0000000E+00;  0.0000000E+00;  1.0000000E+03;  4.0000001E-01;  0.0000000E+00;0;  0.0000000E+00;  0.0000000E+00;  0.0000000E+00;0;  0.0000000E+00;  1.0000000E+04;  0.0000000E+00;  0.0000000E+00;  1.0000000E+04;  0.0000000E+00;  1.0000000E+04;  0.0000000E+00;  0.0000000E+00;  0.0000000E+00;  0.0000000E+00;
  2.0799999E+00;  9.9999998E-03; -2.0000000E-02;752;  0.0000000E+00;  0.0000000E+00;  0.0000000E+00;  1.0000000E+03;  4.0000001E-01;  0.0000000E+00;0;  0.0000000E+00;  0.0000000E+00;  0.0000000E+00;0;  0.0000000E+00;  1.0000000E+04;  0.0000000E+00;  0.0000000E+00;  1.0000000E+04;  0.0000000E+00;  1.0000000E+04;  0.0000000E+00;  0.0000000E+00;  0.0000000E+00;  0.0000000E+00;
  2.0799999E+00;  9.9999998E-03;  0.0000000E+00;753;  0.0000000E+00;  0.0000000E+00;  0.0000000E+00;  1.0000000E+03;  4.0000001E-01;  0.0000000E+00;0;  0.0000000E+00;  0.0000000E+00;  0.0000000E+00;0;  0.0000000E+00;  1.0000000E+04;  0.0000000E+00;  0.0000000E+00;  1.0000000E+04;  0.0000000E+00;  1.0000000E+04;  0.0000000E+00;  0.0000000E+00;  0.0000000E+00;  0.0000000E+00;
  2.0799999E+00;  9.9999998E-03;  2.0000000E-02;754;  0.0000000E+00;  0.0000000E+00;  0.0000000E+00;  1.0000000E+03;  4.0000001E-01;  0.0000000E+00;0;  0.0000000E+00;  0.0000000E+00;  0.0000000E+00;0;  0.0000000E+00;  1.0000000E+04;  0.0000000E+00;  0.0000000E+00;  1.0000000E+04;  0.0000000E+00;  1.0000000E+04;  0.0000000E+00;  0.0000000E+00;  0.0000000E+00;  0.0000000E+00;
  2.0799999E+00;  9.9999998E-03;  3.9999999E-02;755;  0.0000000E+00;  0.0000000E+00;  0.0000000E+00;  1.0000000E+03;  4.0000001E-01;  0.0000000E+00;0;  0.0000000E+00;  0.0000000E+00;  0.0000000E+00;0;  0.0000000E+00;  1.0000000E+04;  0.0000000E+00;  0.0000000E+00;  1.0000000E+04;  0.0000000E+00;  1.0000000E+04;  0.0000000E+00;  0.0000000E+00;  0.0000000E+00;  0.0000000E+00;
  2.0799999E+00;  9.9999998E-03;  5.9999999E-02;756;  0.0000000E+00;  0.0000000E+00;  0.0000000E+00;  1.0000000E+03;  4.0000001E-01;  0.0000000E+00;0;  0.0000000E+00;  0.0000000E+00;  0.0000000E+00;0;  0.0000000E+00;  1.0000000E+04;  0.0000000E+00;  0.0000000E+00;  1.0000000E+04;  0.0000000E+00;  1.0000000E+04;  0.0000000E+00;  0.0000000E+00;  0.0000000E+00;  0.0000000E+00;
  2.0799999E+00;  9.9999998E-03;  7.9999998E-02;757;  0.0000000E+00;  0.0000000E+00;  0.0000000E+00;  1.0000000E+03;  4.0000001E-01;  0.0000000E+00;0;  0.0000000E+00;  0.0000000E+00;  0.0000000E+00;0;  0.0000000E+00;  1.0000000E+04;  0.0000000E+00;  0.0000000E+00;  1.0000000E+04;  0.0000000E+00;  1.0000000E+04;  0.0000000E+00;  0.0000000E+00;  0.0000000E+00;  0.0000000E+00;
  2.0799999E+00;  9.9999998E-03;  1.0000000E-01;758;  0.0000000E+00;  0.0000000E+00;  0.0000000E+00;  1.0000000E+03;  4.0000001E-01;  0.0000000E+00;0;  0.0000000E+00;  0.0000000E+00;  0.0000000E+00;0;  0.0000000E+00;  1.0000000E+04;  0.0000000E+00;  0.0000000E+00;  1.0000000E+04;  0.0000000E+00;  1.0000000E+04;  0.0000000E+00;  0.0000000E+00;  0.0000000E+00;  0.0000000E+00;
  2.0799999E+00;  9.9999998E-03;  1.2000000E-01;759;  0.0000000E+00;  0.0000000E+00;  0.0000000E+00;  1.0000000E+03;  4.0000001E-01;  0.0000000E+00;0;  0.0000000E+00;  0.0000000E+00;  0.0000000E+00;0;  0.0000000E+00;  1.0000000E+04;  0.0000000E+00;  0.0000000E+00;  1.0000000E+04;  0.0000000E+00;  1.0000000E+04;  0.0000000E+00;  0.0000000E+00;  0.0000000E+00;  0.0000000E+00;
  2.0799999E+00;  9.9999998E-03;  1.4000000E-01;760;  0.0000000E+00;  0.0000000E+00;  0.0000000E+00;  1.0000000E+03;  4.0000001E-01;  0.0000000E+00;0;  0.0000000E+00;  0.0000000E+00;  0.0000000E+00;0;  0.0000000E+00;  1.0000000E+04;  0.0000000E+00;  0.0000000E+00;  1.0000000E+04;  0.0000000E+00;  1.0000000E+04;  0.0000000E+00;  0.0000000E+00;  0.0000000E+00;  0.0000000E+00;
  2.0799999E+00;  9.9999998E-03;  1.6000000E-01;761;  0.0000000E+00;  0.0000000E+00;  0.0000000E+00;  1.0000000E+03;  4.0000001E-01;  0.0000000E+00;0;  0.0000000E+00;  0.0000000E+00;  0.0000000E+00;0;  0.0000000E+00;  1.0000000E+04;  0.0000000E+00;  0.0000000E+00;  1.0000000E+04;  0.0000000E+00;  1.0000000E+04;  0.0000000E+00;  0.0000000E+00;  0.0000000E+00;  0.0000000E+00;
  2.0799999E+00;  9.9999998E-03;  1.8000001E-01;762;  0.0000000E+00;  0.0000000E+00;  0.0000000E+00;  1.0000000E+03;  4.0000001E-01;  0.0000000E+00;0;  0.0000000E+00;  0.0000000E+00;  0.0000000E+00;0;  0.0000000E+00;  1.0000000E+04;  0.0000000E+00;  0.0000000E+00;  1.0000000E+04;  0.0000000E+00;  1.0000000E+04;  0.0000000E+00;  0.0000000E+00;  0.0000000E+00;  0.0000000E+00;
  2.0799999E+00;  9.9999998E-03;  2.0000000E-01;763;  0.0000000E+00;  0.0000000E+00;  0.0000000E+00;  1.0000000E+03;  4.0000001E-01;  0.0000000E+00;0;  0.0000000E+00;  0.0000000E+00;  0.0000000E+00;0;  0.0000000E+00;  1.0000000E+04;  0.0000000E+00;  0.0000000E+00;  1.0000000E+04;  0.0000000E+00;  1.0000000E+04;  0.0000000E+00;  0.0000000E+00;  0.0000000E+00;  0.0000000E+00;
  2.0799999E+00;  9.9999998E-03;  2.2000000E-01;764;  0.0000000E+00;  0.0000000E+00;  0.0000000E+00;  1.0000000E+03;  4.0000001E-01;  0.0000000E+00;0;  0.0000000E+00;  0.0000000E+00;  0.0000000E+00;0;  0.0000000E+00;  1.0000000E+04;  0.0000000E+00;  0.0000000E+00;  1.0000000E+04;  0.0000000E+00;  1.0000000E+04;  0.0000000E+00;  0.0000000E+00;  0.0000000E+00;  0.0000000E+00;
  2.0799999E+00;  9.9999998E-03;  2.3999999E-01;765;  0.0000000E+00;  0.0000000E+00;  0.0000000E+00;  1.0000000E+03;  4.0000001E-01;  0.0000000E+00;0;  0.0000000E+00;  0.0000000E+00;  0.0000000E+00;0;  0.0000000E+00;  1.0000000E+04;  0.0000000E+00;  0.0000000E+00;  1.0000000E+04;  0.0000000E+00;  1.0000000E+04;  0.0000000E+00;  0.0000000E+00;  0.0000000E+00;  0.0000000E+00;
  2.0799999E+00;  9.9999998E-03;  2.5999999E-01;766;  0.0000000E+00;  0.0000000E+00;  0.0000000E+00;  1.0000000E+03;  4.0000001E-01;  0.0000000E+00;0;  0.0000000E+00;  0.0000000E+00;  0.0000000E+00;0;  0.0000000E+00;  1.0000000E+04;  0.0000000E+00;  0.0000000E+00;  1.0000000E+04;  0.0000000E+00;  1.0000000E+04;  0.0000000E+00;  0.0000000E+00;  0.0000000E+00;  0.0000000E+00;
  2.0799999E+00;  9.9999998E-03;  2.8000000E-01;767;  0.0000000E+00;  0.0000000E+00;  0.0000000E+00;  1.0000000E+03;  4.0000001E-01;  0.0000000E+00;0;  0.0000000E+00;  0.0000000E+00;  0.0000000E+00;0;  0.0000000E+00;  1.0000000E+04;  0.0000000E+00;  0.0000000E+00;  1.0000000E+04;  0.0000000E+00;  1.0000000E+04;  0.0000000E+00;  0.0000000E+00;  0.0000000E+00;  0.0000000E+00;
  2.0799999E+00;  9.9999998E-03;  3.0000001E-01;768;  0.0000000E+00;  0.0000000E+00;  0.0000000E+00;  1.0000000E+03;  4.0000001E-01;  0.0000000E+00;0;  0.0000000E+00;  0.0000000E+00;  0.0000000E+00;0;  0.0000000E+00;  1.0000000E+04;  0.0000000E+00;  0.0000000E+00;  1.0000000E+04;  0.0000000E+00;  1.0000000E+04;  0.0000000E+00;  0.0000000E+00;  0.0000000E+00;  0.0000000E+00;
  2.0799999E+00;  9.9999998E-03;  3.1999999E-01;769;  0.0000000E+00;  0.0000000E+00;  0.0000000E+00;  1.0000000E+03;  4.0000001E-01;  0.0000000E+00;0;  0.0000000E+00;  0.0000000E+00;  0.0000000E+00;0;  0.0000000E+00;  1.0000000E+04;  0.0000000E+00;  0.0000000E+00;  1.0000000E+04;  0.0000000E+00;  1.0000000E+04;  0.0000000E+00;  0.0000000E+00;  0.0000000E+00;  0.0000000E+00;
  2.0799999E+00;  9.9999998E-03;  3.4000000E-01;770;  0.0000000E+00;  0.0000000E+00;  0.0000000E+00;  1.0000000E+03;  4.0000001E-01;  0.0000000E+00;0;  0.0000000E+00;  0.0000000E+00;  0.0000000E+00;0;  0.0000000E+00;  1.0000000E+04;  0.0000000E+00;  0.0000000E+00;  1.0000000E+04;  0.0000000E+00;  1.0000000E+04;  0.0000000E+00;  0.0000000E+00;  0.0000000E+00;  0.0000000E+00;
  2.0799999E+00;  9.9999998E-03;  3.6000001E-01;771;  0.0000000E+00;  0.0000000E+00;  0.0000000E+00;  1.0000000E+03;  4.0000001E-01;  0.0000000E+00;0;  0.0000000E+00;  0.0000000E+00;  0.0000000E+00;0;  0.0000000E+00;  1.0000000E+04;  0.0000000E+00;  0.0000000E+00;  1.0000000E+04;  0.0000000E+00;  1.0000000E+04;  0.0000000E+00;  0.0000000E+00;  0.0000000E+00;  0.0000000E+00;
  2.0799999E+00;  9.9999998E-03;  3.8000000E-01;772;  0.0000000E+00;  0.0000000E+00;  0.0000000E+00;  1.0000000E+03;  4.0000001E-01;  0.0000000E+00;0;  0.0000000E+00;  0.0000000E+00;  0.0000000E+00;0;  0.0000000E+00;  1.0000000E+04;  0.0000000E+00;  0.0000000E+00;  1.0000000E+04;  0.0000000E+00;  1.0000000E+04;  0.0000000E+00;  0.0000000E+00;  0.0000000E+00;  0.0000000E+00;
  2.0799999E+00;  9.9999998E-03;  4.0000001E-01;773;  0.0000000E+00;  0.0000000E+00;  0.0000000E+00;  1.0000000E+03;  4.0000001E-01;  0.0000000E+00;0;  0.0000000E+00;  0.0000000E+00;  0.0000000E+00;0;  0.0000000E+00;  1.0000000E+04;  0.0000000E+00;  0.0000000E+00;  1.0000000E+04;  0.0000000E+00;  1.0000000E+04;  0.0000000E+00;  0.0000000E+00;  0.0000000E+00;  0.0000000E+00;
  2.0999999E+00;  9.9999998E-03; -4.0000001E-01;774;  0.0000000E+00;  0.0000000E+00;  0.0000000E+00;  1.0000000E+03;  4.0000001E-01;  0.0000000E+00;0;  0.0000000E+00;  0.0000000E+00;  0.0000000E+00;0;  0.0000000E+00;  1.0000000E+04;  0.0000000E+00;  0.0000000E+00;  1.0000000E+04;  0.0000000E+00;  1.0000000E+04;  0.0000000E+00;  0.0000000E+00;  0.0000000E+00;  0.0000000E+00;
  2.0999999E+00;  9.9999998E-03; -3.8000000E-01;775;  0.0000000E+00;  0.0000000E+00;  0.0000000E+00;  1.0000000E+03;  4.0000001E-01;  0.0000000E+00;0;  0.0000000E+00;  0.0000000E+00;  0.0000000E+00;0;  0.0000000E+00;  1.0000000E+04;  0.0000000E+00;  0.0000000E+00;  1.0000000E+04;  0.0000000E+00;  1.0000000E+04;  0.0000000E+00;  0.0000000E+00;  0.0000000E+00;  0.0000000E+00;
  2.0999999E+00;  9.9999998E-03; -3.6000001E-01;776;  0.0000000E+00;  0.0000000E+00;  0.0000000E+00;  1.0000000E+03;  4.0000001E-01;  0.0000000E+00;0;  0.0000000E+00;  0.0000000E+00;  0.0000000E+00;0;  0.0000000E+00;  1.0000000E+04;  0.0000000E+00;  0.0000000E+00;  1.0000000E+04;  0.0000000E+00;  1.0000000E+04;  0.0000000E+00;  0.0000000E+00;  0.0000000E+00;  0.0000000E+00;
  2.0999999E+00;  9.9999998E-03; -3.4000000E-01;777;  0.0000000E+00;  0.0000000E+00;  0.0000000E+00;  1.0000000E+03;  4.0000001E-01;  0.0000000E+00;0;  0.0000000E+00;  0.0000000E+00;  0.0000000E+00;0;  0.0000000E+00;  1.0000000E+04;  0.0000000E+00;  0.0000000E+00;  1.0000000E+04;  0.0000000E+00;  1.0000000E+04;  0.0000000E+00;  0.0000000E+00;  0.0000000E+00;  0.0000000E+00;
  2.0999999E+00;  9.9999998E-03; -3.1999999E-01;778;  0.0000000E+00;  0.0000000E+00;  0.0000000E+00;  1.0000000E+03;  4.0000001E-01;  0.0000000E+00;0;  0.0000000E+00;  0.0000000E+00;  0.0000000E+00;0;  0.0000000E+00;  1.0000000E+04;  0.0000000E+00;  0.0000000E+00;  1.0000000E+04;  0.0000000E+00;  1.0000000E+04;  0.0000000E+00;  0.0000000E+00;  0.0000000E+00;  0.0000000E+00;
  2.0999999E+00;  9.9999998E-03; -3.0000001E-01;779;  0.0000000E+00;  0.0000000E+00;  0.0000000E+00;  1.0000000E+03;  4.0000001E-01;  0.0000000E+00;0;  0.0000000E+00;  0.0000000E+00;  0.0000000E+00;0;  0.0000000E+00;  1.0000000E+04;  0.0000000E+00;  0.0000000E+00;  1.0000000E+04;  0.0000000E+00;  1.0000000E+04;  0.0000000E+00;  0.0000000E+00;  0.0000000E+00;  0.0000000E+00;
  2.0999999E+00;  9.9999998E-03; -2.8000000E-01;780;  0.0000000E+00;  0.0000000E+00;  0.0000000E+00;  1.0000000E+03;  4.0000001E-01;  0.0000000E+00;0;  0.0000000E+00;  0.0000000E+00;  0.0000000E+00;0;  0.0000000E+00;  1.0000000E+04;  0.0000000E+00;  0.0000000E+00;  1.0000000E+04;  0.0000000E+00;  1.0000000E+04;  0.0000000E+00;  0.0000000E+00;  0.0000000E+00;  0.0000000E+00;
  2.0999999E+00;  9.9999998E-03; -2.5999999E-01;781;  0.0000000E+00;  0.0000000E+00;  0.0000000E+00;  1.0000000E+03;  4.0000001E-01;  0.0000000E+00;0;  0.0000000E+00;  0.0000000E+00;  0.0000000E+00;0;  0.0000000E+00;  1.0000000E+04;  0.0000000E+00;  0.0000000E+00;  1.0000000E+04;  0.0000000E+00;  1.0000000E+04;  0.0000000E+00;  0.0000000E+00;  0.0000000E+00;  0.0000000E+00;
  2.0999999E+00;  9.9999998E-03; -2.3999999E-01;782;  0.0000000E+00;  0.0000000E+00;  0.0000000E+00;  1.0000000E+03;  4.0000001E-01;  0.0000000E+00;0;  0.0000000E+00;  0.0000000E+00;  0.0000000E+00;0;  0.0000000E+00;  1.0000000E+04;  0.0000000E+00;  0.0000000E+00;  1.0000000E+04;  0.0000000E+00;  1.0000000E+04;  0.0000000E+00;  0.0000000E+00;  0.0000000E+00;  0.0000000E+00;
  2.0999999E+00;  9.9999998E-03; -2.2000000E-01;783;  0.0000000E+00;  0.0000000E+00;  0.0000000E+00;  1.0000000E+03;  4.0000001E-01;  0.0000000E+00;0;  0.0000000E+00;  0.0000000E+00;  0.0000000E+00;0;  0.0000000E+00;  1.0000000E+04;  0.0000000E+00;  0.0000000E+00;  1.0000000E+04;  0.0000000E+00;  1.0000000E+04;  0.0000000E+00;  0.0000000E+00;  0.0000000E+00;  0.0000000E+00;
  2.0999999E+00;  9.9999998E-03; -2.0000000E-01;784;  0.0000000E+00;  0.0000000E+00;  0.0000000E+00;  1.0000000E+03;  4.0000001E-01;  0.0000000E+00;0;  0.0000000E+00;  0.0000000E+00;  0.0000000E+00;0;  0.0000000E+00;  1.0000000E+04;  0.0000000E+00;  0.0000000E+00;  1.0000000E+04;  0.0000000E+00;  1.0000000E+04;  0.0000000E+00;  0.0000000E+00;  0.0000000E+00;  0.0000000E+00;
  2.0999999E+00;  9.9999998E-03; -1.8000001E-01;785;  0.0000000E+00;  0.0000000E+00;  0.0000000E+00;  1.0000000E+03;  4.0000001E-01;  0.0000000E+00;0;  0.0000000E+00;  0.0000000E+00;  0.0000000E+00;0;  0.0000000E+00;  1.0000000E+04;  0.0000000E+00;  0.0000000E+00;  1.0000000E+04;  0.0000000E+00;  1.0000000E+04;  0.0000000E+00;  0.0000000E+00;  0.0000000E+00;  0.0000000E+00;
  2.0999999E+00;  9.9999998E-03; -1.6000000E-01;786;  0.0000000E+00;  0.0000000E+00;  0.0000000E+00;  1.0000000E+03;  4.0000001E-01;  0.0000000E+00;0;  0.0000000E+00;  0.0000000E+00;  0.0000000E+00;0;  0.0000000E+00;  1.0000000E+04;  0.0000000E+00;  0.0000000E+00;  1.0000000E+04;  0.0000000E+00;  1.0000000E+04;  0.0000000E+00;  0.0000000E+00;  0.0000000E+00;  0.0000000E+00;
  2.0999999E+00;  9.9999998E-03; -1.4000000E-01;787;  0.0000000E+00;  0.0000000E+00;  0.0000000E+00;  1.0000000E+03;  4.0000001E-01;  0.0000000E+00;0;  0.0000000E+00;  0.0000000E+00;  0.0000000E+00;0;  0.0000000E+00;  1.0000000E+04;  0.0000000E+00;  0.0000000E+00;  1.0000000E+04;  0.0000000E+00;  1.0000000E+04;  0.0000000E+00;  0.0000000E+00;  0.0000000E+00;  0.0000000E+00;
  2.0999999E+00;  9.9999998E-03; -1.2000000E-01;788;  0.0000000E+00;  0.0000000E+00;  0.0000000E+00;  1.0000000E+03;  4.0000001E-01;  0.0000000E+00;0;  0.0000000E+00;  0.0000000E+00;  0.0000000E+00;0;  0.0000000E+00;  1.0000000E+04;  0.0000000E+00;  0.0000000E+00;  1.0000000E+04;  0.0000000E+00;  1.0000000E+04;  0.0000000E+00;  0.0000000E+00;  0.0000000E+00;  0.0000000E+00;
  2.0999999E+00;  9.9999998E-03; -1.0000000E-01;789;  0.0000000E+00;  0.0000000E+00;  0.0000000E+00;  1.0000000E+03;  4.0000001E-01;  0.0000000E+00;0;  0.0000000E+00;  0.0000000E+00;  0.0000000E+00;0;  0.0000000E+00;  1.0000000E+04;  0.0000000E+00;  0.0000000E+00;  1.0000000E+04;  0.0000000E+00;  1.0000000E+04;  0.0000000E+00;  0.0000000E+00;  0.0000000E+00;  0.0000000E+00;
  2.0999999E+00;  9.9999998E-03; -7.9999998E-02;790;  0.0000000E+00;  0.0000000E+00;  0.0000000E+00;  1.0000000E+03;  4.0000001E-01;  0.0000000E+00;0;  0.0000000E+00;  0.0000000E+00;  0.0000000E+00;0;  0.0000000E+00;  1.0000000E+04;  0.0000000E+00;  0.0000000E+00;  1.0000000E+04;  0.0000000E+00;  1.0000000E+04;  0.0000000E+00;  0.0000000E+00;  0.0000000E+00;  0.0000000E+00;
  2.0999999E+00;  9.9999998E-03; -5.9999999E-02;791;  0.0000000E+00;  0.0000000E+00;  0.0000000E+00;  1.0000000E+03;  4.0000001E-01;  0.0000000E+00;0;  0.0000000E+00;  0.0000000E+00;  0.0000000E+00;0;  0.0000000E+00;  1.0000000E+04;  0.0000000E+00;  0.0000000E+00;  1.0000000E+04;  0.0000000E+00;  1.0000000E+04;  0.0000000E+00;  0.0000000E+00;  0.0000000E+00;  0.0000000E+00;
  2.0999999E+00;  9.9999998E-03; -3.9999999E-02;792;  0.0000000E+00;  0.0000000E+00;  0.0000000E+00;  1.0000000E+03;  4.0000001E-01;  0.0000000E+00;0;  0.0000000E+00;  0.0000000E+00;  0.0000000E+00;0;  0.0000000E+00;  1.0000000E+04;  0.0000000E+00;  0.0000000E+00;  1.0000000E+04;  0.0000000E+00;  1.0000000E+04;  0.0000000E+00;  0.0000000E+00;  0.0000000E+00;  0.0000000E+00;
  2.0999999E+00;  9.9999998E-03; -2.0000000E-02;793;  0.0000000E+00;  0.0000000E+00;  0.0000000E+00;  1.0000000E+03;  4.0000001E-01;  0.0000000E+00;0;  0.0000000E+00;  0.0000000E+00;  0.0000000E+00;0;  0.0000000E+00;  1.0000000E+04;  0.0000000E+00;  0.0000000E+00;  1.0000000E+04;  0.0000000E+00;  1.0000000E+04;  0.0000000E+00;  0.0000000E+00;  0.0000000E+00;  0.0000000E+00;
  2.0999999E+00;  9.9999998E-03;  0.0000000E+00;794;  0.0000000E+00;  0.0000000E+00;  0.0000000E+00;  1.0000000E+03;  4.0000001E-01;  0.0000000E+00;0;  0.0000000E+00;  0.0000000E+00;  0.0000000E+00;0;  0.0000000E+00;  1.0000000E+04;  0.0000000E+00;  0.0000000E+00;  1.0000000E+04;  0.0000000E+00;  1.0000000E+04;  0.0000000E+00;  0.0000000E+00;  0.0000000E+00;  0.0000000E+00;
  2.0999999E+00;  9.9999998E-03;  2.0000000E-02;795;  0.0000000E+00;  0.0000000E+00;  0.0000000E+00;  1.0000000E+03;  4.0000001E-01;  0.0000000E+00;0;  0.0000000E+00;  0.0000000E+00;  0.0000000E+00;0;  0.0000000E+00;  1.0000000E+04;  0.0000000E+00;  0.0000000E+00;  1.0000000E+04;  0.0000000E+00;  1.0000000E+04;  0.0000000E+00;  0.0000000E+00;  0.0000000E+00;  0.0000000E+00;
  2.0999999E+00;  9.9999998E-03;  3.9999999E-02;796;  0.0000000E+00;  0.0000000E+00;  0.0000000E+00;  1.0000000E+03;  4.0000001E-01;  0.0000000E+00;0;  0.0000000E+00;  0.0000000E+00;  0.0000000E+00;0;  0.0000000E+00;  1.0000000E+04;  0.0000000E+00;  0.0000000E+00;  1.0000000E+04;  0.0000000E+00;  1.0000000E+04;  0.0000000E+00;  0.0000000E+00;  0.0000000E+00;  0.0000000E+00;
  2.0999999E+00;  9.9999998E-03;  5.9999999E-02;797;  0.0000000E+00;  0.0000000E+00;  0.0000000E+00;  1.0000000E+03;  4.0000001E-01;  0.0000000E+00;0;  0.0000000E+00;  0.0000000E+00;  0.0000000E+00;0;  0.0000000E+00;  1.0000000E+04;  0.0000000E+00;  0.0000000E+00;  1.0000000E+04;  0.0000000E+00;  1.0000000E+04;  0.0000000E+00;  0.0000000E+00;  0.0000000E+00;  0.0000000E+00;
  2.0999999E+00;  9.9999998E-03;  7.9999998E-02;798;  0.0000000E+00;  0.0000000E+00;  0.0000000E+00;  1.0000000E+03;  4.0000001E-01;  0.0000000E+00;0;  0.0000000E+00;  0.0000000E+00;  0.0000000E+00;0;  0.0000000E+00;  1.0000000E+04;  0.0000000E+00;  0.0000000E+00;  1.0000000E+04;  0.0000000E+00;  1.0000000E+04;  0.0000000E+00;  0.0000000E+00;  0.0000000E+00;  0.0000000E+00;
  2.0999999E+00;  9.9999998E-03;  1.0000000E-01;799;  0.0000000E+00;  0.0000000E+00;  0.0000000E+00;  1.0000000E+03;  4.0000001E-01;  0.0000000E+00;0;  0.0000000E+00;  0.0000000E+00;  0.0000000E+00;0;  0.0000000E+00;  1.0000000E+04;  0.0000000E+00;  0.0000000E+00;  1.0000000E+04;  0.0000000E+00;  1.0000000E+04;  0.0000000E+00;  0.0000000E+00;  0.0000000E+00;  0.0000000E+00;
  2.0999999E+00;  9.9999998E-03;  1.2000000E-01;800;  0.0000000E+00;  0.0000000E+00;  0.0000000E+00;  1.0000000E+03;  4.0000001E-01;  0.0000000E+00;0;  0.0000000E+00;  0.0000000E+00;  0.0000000E+00;0;  0.0000000E+00;  1.0000000E+04;  0.0000000E+00;  0.0000000E+00;  1.0000000E+04;  0.0000000E+00;  1.0000000E+04;  0.0000000E+00;  0.0000000E+00;  0.0000000E+00;  0.0000000E+00;
  2.0999999E+00;  9.9999998E-03;  1.4000000E-01;801;  0.0000000E+00;  0.0000000E+00;  0.0000000E+00;  1.0000000E+03;  4.0000001E-01;  0.0000000E+00;0;  0.0000000E+00;  0.0000000E+00;  0.0000000E+00;0;  0.0000000E+00;  1.0000000E+04;  0.0000000E+00;  0.0000000E+00;  1.0000000E+04;  0.0000000E+00;  1.0000000E+04;  0.0000000E+00;  0.0000000E+00;  0.0000000E+00;  0.0000000E+00;
  2.0999999E+00;  9.9999998E-03;  1.6000000E-01;802;  0.0000000E+00;  0.0000000E+00;  0.0000000E+00;  1.0000000E+03;  4.0000001E-01;  0.0000000E+00;0;  0.0000000E+00;  0.0000000E+00;  0.0000000E+00;0;  0.0000000E+00;  1.0000000E+04;  0.0000000E+00;  0.0000000E+00;  1.0000000E+04;  0.0000000E+00;  1.0000000E+04;  0.0000000E+00;  0.0000000E+00;  0.0000000E+00;  0.0000000E+00;
  2.0999999E+00;  9.9999998E-03;  1.8000001E-01;803;  0.0000000E+00;  0.0000000E+00;  0.0000000E+00;  1.0000000E+03;  4.0000001E-01;  0.0000000E+00;0;  0.0000000E+00;  0.0000000E+00;  0.0000000E+00;0;  0.0000000E+00;  1.0000000E+04;  0.0000000E+00;  0.0000000E+00;  1.0000000E+04;  0.0000000E+00;  1.0000000E+04;  0.0000000E+00;  0.0000000E+00;  0.0000000E+00;  0.0000000E+00;
  2.0999999E+00;  9.9999998E-03;  2.0000000E-01;804;  0.0000000E+00;  0.0000000E+00;  0.0000000E+00;  1.0000000E+03;  4.0000001E-01;  0.0000000E+00;0;  0.0000000E+00;  0.0000000E+00;  0.0000000E+00;0;  0.0000000E+00;  1.0000000E+04;  0.0000000E+00;  0.0000000E+00;  1.0000000E+04;  0.0000000E+00;  1.0000000E+04;  0.0000000E+00;  0.0000000E+00;  0.0000000E+00;  0.0000000E+00;
  2.0999999E+00;  9.9999998E-03;  2.2000000E-01;805;  0.0000000E+00;  0.0000000E+00;  0.0000000E+00;  1.0000000E+03;  4.0000001E-01;  0.0000000E+00;0;  0.0000000E+00;  0.0000000E+00;  0.0000000E+00;0;  0.0000000E+00;  1.0000000E+04;  0.0000000E+00;  0.0000000E+00;  1.0000000E+04;  0.0000000E+00;  1.0000000E+04;  0.0000000E+00;  0.0000000E+00;  0.0000000E+00;  0.0000000E+00;
  2.0999999E+00;  9.9999998E-03;  2.3999999E-01;806;  0.0000000E+00;  0.0000000E+00;  0.0000000E+00;  1.0000000E+03;  4.0000001E-01;  0.0000000E+00;0;  0.0000000E+00;  0.0000000E+00;  0.0000000E+00;0;  0.0000000E+00;  1.0000000E+04;  0.0000000E+00;  0.0000000E+00;  1.0000000E+04;  0.0000000E+00;  1.0000000E+04;  0.0000000E+00;  0.0000000E+00;  0.0000000E+00;  0.0000000E+00;
  2.0999999E+00;  9.9999998E-03;  2.5999999E-01;807;  0.0000000E+00;  0.0000000E+00;  0.0000000E+00;  1.0000000E+03;  4.0000001E-01;  0.0000000E+00;0;  0.0000000E+00;  0.0000000E+00;  0.0000000E+00;0;  0.0000000E+00;  1.0000000E+04;  0.0000000E+00;  0.0000000E+00;  1.0000000E+04;  0.0000000E+00;  1.0000000E+04;  0.0000000E+00;  0.0000000E+00;  0.0000000E+00;  0.0000000E+00;
  2.0999999E+00;  9.9999998E-03;  2.8000000E-01;808;  0.0000000E+00;  0.0000000E+00;  0.0000000E+00;  1.0000000E+03;  4.0000001E-01;  0.0000000E+00;0;  0.0000000E+00;  0.0000000E+00;  0.0000000E+00;0;  0.0000000E+00;  1.0000000E+04;  0.0000000E+00;  0.0000000E+00;  1.0000000E+04;  0.0000000E+00;  1.0000000E+04;  0.0000000E+00;  0.0000000E+00;  0.0000000E+00;  0.0000000E+00;
  2.0999999E+00;  9.9999998E-03;  3.0000001E-01;809;  0.0000000E+00;  0.0000000E+00;  0.0000000E+00;  1.0000000E+03;  4.0000001E-01;  0.0000000E+00;0;  0.0000000E+00;  0.0000000E+00;  0.0000000E+00;0;  0.0000000E+00;  1.0000000E+04;  0.0000000E+00;  0.0000000E+00;  1.0000000E+04;  0.0000000E+00;  1.0000000E+04;  0.0000000E+00;  0.0000000E+00;  0.0000000E+00;  0.0000000E+00;
  2.0999999E+00;  9.9999998E-03;  3.1999999E-01;810;  0.0000000E+00;  0.0000000E+00;  0.0000000E+00;  1.0000000E+03;  4.0000001E-01;  0.0000000E+00;0;  0.0000000E+00;  0.0000000E+00;  0.0000000E+00;0;  0.0000000E+00;  1.0000000E+04;  0.0000000E+00;  0.0000000E+00;  1.0000000E+04;  0.0000000E+00;  1.0000000E+04;  0.0000000E+00;  0.0000000E+00;  0.0000000E+00;  0.0000000E+00;
  2.0999999E+00;  9.9999998E-03;  3.4000000E-01;811;  0.0000000E+00;  0.0000000E+00;  0.0000000E+00;  1.0000000E+03;  4.0000001E-01;  0.0000000E+00;0;  0.0000000E+00;  0.0000000E+00;  0.0000000E+00;0;  0.0000000E+00;  1.0000000E+04;  0.0000000E+00;  0.0000000E+00;  1.0000000E+04;  0.0000000E+00;  1.0000000E+04;  0.0000000E+00;  0.0000000E+00;  0.0000000E+00;  0.0000000E+00;
  2.0999999E+00;  9.9999998E-03;  3.6000001E-01;812;  0.0000000E+00;  0.0000000E+00;  0.0000000E+00;  1.0000000E+03;  4.0000001E-01;  0.0000000E+00;0;  0.0000000E+00;  0.0000000E+00;  0.0000000E+00;0;  0.0000000E+00;  1.0000000E+04;  0.0000000E+00;  0.0000000E+00;  1.0000000E+04;  0.0000000E+00;  1.0000000E+04;  0.0000000E+00;  0.0000000E+00;  0.0000000E+00;  0.0000000E+00;
  2.0999999E+00;  9.9999998E-03;  3.8000000E-01;813;  0.0000000E+00;  0.0000000E+00;  0.0000000E+00;  1.0000000E+03;  4.0000001E-01;  0.0000000E+00;0;  0.0000000E+00;  0.0000000E+00;  0.0000000E+00;0;  0.0000000E+00;  1.0000000E+04;  0.0000000E+00;  0.0000000E+00;  1.0000000E+04;  0.0000000E+00;  1.0000000E+04;  0.0000000E+00;  0.0000000E+00;  0.0000000E+00;  0.0000000E+00;
  2.0999999E+00;  9.9999998E-03;  4.0000001E-01;814;  0.0000000E+00;  0.0000000E+00;  0.0000000E+00;  1.0000000E+03;  4.0000001E-01;  0.0000000E+00;0;  0.0000000E+00;  0.0000000E+00;  0.0000000E+00;0;  0.0000000E+00;  1.0000000E+04;  0.0000000E+00;  0.0000000E+00;  1.0000000E+04;  0.0000000E+00;  1.0000000E+04;  0.0000000E+00;  0.0000000E+00;  0.0000000E+00;  0.0000000E+00;
  2.1199999E+00;  9.9999998E-03; -4.1999999E-01;815;  0.0000000E+00;  0.0000000E+00;  0.0000000E+00;  1.0000000E+03;  4.0000001E-01;  0.0000000E+00;0;  0.0000000E+00;  0.0000000E+00;  0.0000000E+00;0;  0.0000000E+00;  1.0000000E+04;  0.0000000E+00;  0.0000000E+00;  1.0000000E+04;  0.0000000E+00;  1.0000000E+04;  0.0000000E+00;  0.0000000E+00;  0.0000000E+00;  0.0000000E+00;
  2.1199999E+00;  9.9999998E-03; -4.0000001E-01;816;  0.0000000E+00;  0.0000000E+00;  0.0000000E+00;  1.0000000E+03;  4.0000001E-01;  0.0000000E+00;0;  0.0000000E+00;  0.0000000E+00;  0.0000000E+00;0;  0.0000000E+00;  1.0000000E+04;  0.0000000E+00;  0.0000000E+00;  1.0000000E+04;  0.0000000E+00;  1.0000000E+04;  0.0000000E+00;  0.0000000E+00;  0.0000000E+00;  0.0000000E+00;
  2.1199999E+00;  9.9999998E-03; -3.8000000E-01;817;  0.0000000E+00;  0.0000000E+00;  0.0000000E+00;  1.0000000E+03;  4.0000001E-01;  0.0000000E+00;0;  0.0000000E+00;  0.0000000E+00;  0.0000000E+00;0;  0.0000000E+00;  1.0000000E+04;  0.0000000E+00;  0.0000000E+00;  1.0000000E+04;  0.0000000E+00;  1.0000000E+04;  0.0000000E+00;  0.0000000E+00;  0.0000000E+00;  0.0000000E+00;
  2.1199999E+00;  9.9999998E-03; -3.6000001E-01;818;  0.0000000E+00;  0.0000000E+00;  0.0000000E+00;  1.0000000E+03;  4.0000001E-01;  0.0000000E+00;0;  0.0000000E+00;  0.0000000E+00;  0.0000000E+00;0;  0.0000000E+00;  1.0000000E+04;  0.0000000E+00;  0.0000000E+00;  1.0000000E+04;  0.0000000E+00;  1.0000000E+04;  0.0000000E+00;  0.0000000E+00;  0.0000000E+00;  0.0000000E+00;
  2.1199999E+00;  9.9999998E-03; -3.4000000E-01;819;  0.0000000E+00;  0.0000000E+00;  0.0000000E+00;  1.0000000E+03;  4.0000001E-01;  0.0000000E+00;0;  0.0000000E+00;  0.0000000E+00;  0.0000000E+00;0;  0.0000000E+00;  1.0000000E+04;  0.0000000E+00;  0.0000000E+00;  1.0000000E+04;  0.0000000E+00;  1.0000000E+04;  0.0000000E+00;  0.0000000E+00;  0.0000000E+00;  0.0000000E+00;
  2.1199999E+00;  9.9999998E-03; -3.1999999E-01;820;  0.0000000E+00;  0.0000000E+00;  0.0000000E+00;  1.0000000E+03;  4.0000001E-01;  0.0000000E+00;0;  0.0000000E+00;  0.0000000E+00;  0.0000000E+00;0;  0.0000000E+00;  1.0000000E+04;  0.0000000E+00;  0.0000000E+00;  1.0000000E+04;  0.0000000E+00;  1.0000000E+04;  0.0000000E+00;  0.0000000E+00;  0.0000000E+00;  0.0000000E+00;
  2.1199999E+00;  9.9999998E-03; -3.0000001E-01;821;  0.0000000E+00;  0.0000000E+00;  0.0000000E+00;  1.0000000E+03;  4.0000001E-01;  0.0000000E+00;0;  0.0000000E+00;  0.0000000E+00;  0.0000000E+00;0;  0.0000000E+00;  1.0000000E+04;  0.0000000E+00;  0.0000000E+00;  1.0000000E+04;  0.0000000E+00;  1.0000000E+04;  0.0000000E+00;  0.0000000E+00;  0.0000000E+00;  0.0000000E+00;
  2.1199999E+00;  9.9999998E-03; -2.8000000E-01;822;  0.0000000E+00;  0.0000000E+00;  0.0000000E+00;  1.0000000E+03;  4.0000001E-01;  0.0000000E+00;0;  0.0000000E+00;  0.0000000E+00;  0.0000000E+00;0;  0.0000000E+00;  1.0000000E+04;  0.0000000E+00;  0.0000000E+00;  1.0000000E+04;  0.0000000E+00;  1.0000000E+04;  0.0000000E+00;  0.0000000E+00;  0.0000000E+00;  0.0000000E+00;
  2.1199999E+00;  9.9999998E-03; -2.5999999E-01;823;  0.0000000E+00;  0.0000000E+00;  0.0000000E+00;  1.0000000E+03;  4.0000001E-01;  0.0000000E+00;0;  0.0000000E+00;  0.0000000E+00;  0.0000000E+00;0;  0.0000000E+00;  1.0000000E+04;  0.0000000E+00;  0.0000000E+00;  1.0000000E+04;  0.0000000E+00;  1.0000000E+04;  0.0000000E+00;  0.0000000E+00;  0.0000000E+00;  0.0000000E+00;
  2.1199999E+00;  9.9999998E-03; -2.3999999E-01;824;  0.0000000E+00;  0.0000000E+00;  0.0000000E+00;  1.0000000E+03;  4.0000001E-01;  0.0000000E+00;0;  0.0000000E+00;  0.0000000E+00;  0.0000000E+00;0;  0.0000000E+00;  1.0000000E+04;  0.0000000E+00;  0.0000000E+00;  1.0000000E+04;  0.0000000E+00;  1.0000000E+04;  0.0000000E+00;  0.0000000E+00;  0.0000000E+00;  0.0000000E+00;
  2.1199999E+00;  9.9999998E-03; -2.2000000E-01;825;  0.0000000E+00;  0.0000000E+00;  0.0000000E+00;  1.0000000E+03;  4.0000001E-01;  0.0000000E+00;0;  0.0000000E+00;  0.0000000E+00;  0.0000000E+00;0;  0.0000000E+00;  1.0000000E+04;  0.0000000E+00;  0.0000000E+00;  1.0000000E+04;  0.0000000E+00;  1.0000000E+04;  0.0000000E+00;  0.0000000E+00;  0.0000000E+00;  0.0000000E+00;
  2.1199999E+00;  9.9999998E-03; -2.0000000E-01;826;  0.0000000E+00;  0.0000000E+00;  0.0000000E+00;  1.0000000E+03;  4.0000001E-01;  0.0000000E+00;0;  0.0000000E+00;  0.0000000E+00;  0.0000000E+00;0;  0.0000000E+00;  1.0000000E+04;  0.0000000E+00;  0.0000000E+00;  1.0000000E+04;  0.0000000E+00;  1.0000000E+04;  0.0000000E+00;  0.0000000E+00;  0.0000000E+00;  0.0000000E+00;
  2.1199999E+00;  9.9999998E-03; -1.8000001E-01;827;  0.0000000E+00;  0.0000000E+00;  0.0000000E+00;  1.0000000E+03;  4.0000001E-01;  0.0000000E+00;0;  0.0000000E+00;  0.0000000E+00;  0.0000000E+00;0;  0.0000000E+00;  1.0000000E+04;  0.0000000E+00;  0.0000000E+00;  1.0000000E+04;  0.0000000E+00;  1.0000000E+04;  0.0000000E+00;  0.0000000E+00;  0.0000000E+00;  0.0000000E+00;
  2.1199999E+00;  9.9999998E-03; -1.6000000E-01;828;  0.0000000E+00;  0.0000000E+00;  0.0000000E+00;  1.0000000E+03;  4.0000001E-01;  0.0000000E+00;0;  0.0000000E+00;  0.0000000E+00;  0.0000000E+00;0;  0.0000000E+00;  1.0000000E+04;  0.0000000E+00;  0.0000000E+00;  1.0000000E+04;  0.0000000E+00;  1.0000000E+04;  0.0000000E+00;  0.0000000E+00;  0.0000000E+00;  0.0000000E+00;
  2.1199999E+00;  9.9999998E-03; -1.4000000E-01;829;  0.0000000E+00;  0.0000000E+00;  0.0000000E+00;  1.0000000E+03;  4.0000001E-01;  0.0000000E+00;0;  0.0000000E+00;  0.0000000E+00;  0.0000000E+00;0;  0.0000000E+00;  1.0000000E+04;  0.0000000E+00;  0.0000000E+00;  1.0000000E+04;  0.0000000E+00;  1.0000000E+04;  0.0000000E+00;  0.0000000E+00;  0.0000000E+00;  0.0000000E+00;
  2.1199999E+00;  9.9999998E-03; -1.2000000E-01;830;  0.0000000E+00;  0.0000000E+00;  0.0000000E+00;  1.0000000E+03;  4.0000001E-01;  0.0000000E+00;0;  0.0000000E+00;  0.0000000E+00;  0.0000000E+00;0;  0.0000000E+00;  1.0000000E+04;  0.0000000E+00;  0.0000000E+00;  1.0000000E+04;  0.0000000E+00;  1.0000000E+04;  0.0000000E+00;  0.0000000E+00;  0.0000000E+00;  0.0000000E+00;
  2.1199999E+00;  9.9999998E-03; -1.0000000E-01;831;  0.0000000E+00;  0.0000000E+00;  0.0000000E+00;  1.0000000E+03;  4.0000001E-01;  0.0000000E+00;0;  0.0000000E+00;  0.0000000E+00;  0.0000000E+00;0;  0.0000000E+00;  1.0000000E+04;  0.0000000E+00;  0.0000000E+00;  1.0000000E+04;  0.0000000E+00;  1.0000000E+04;  0.0000000E+00;  0.0000000E+00;  0.0000000E+00;  0.0000000E+00;
  2.1199999E+00;  9.9999998E-03; -7.9999998E-02;832;  0.0000000E+00;  0.0000000E+00;  0.0000000E+00;  1.0000000E+03;  4.0000001E-01;  0.0000000E+00;0;  0.0000000E+00;  0.0000000E+00;  0.0000000E+00;0;  0.0000000E+00;  1.0000000E+04;  0.0000000E+00;  0.0000000E+00;  1.0000000E+04;  0.0000000E+00;  1.0000000E+04;  0.0000000E+00;  0.0000000E+00;  0.0000000E+00;  0.0000000E+00;
  2.1199999E+00;  9.9999998E-03; -5.9999999E-02;833;  0.0000000E+00;  0.0000000E+00;  0.0000000E+00;  1.0000000E+03;  4.0000001E-01;  0.0000000E+00;0;  0.0000000E+00;  0.0000000E+00;  0.0000000E+00;0;  0.0000000E+00;  1.0000000E+04;  0.0000000E+00;  0.0000000E+00;  1.0000000E+04;  0.0000000E+00;  1.0000000E+04;  0.0000000E+00;  0.0000000E+00;  0.0000000E+00;  0.0000000E+00;
  2.1199999E+00;  9.9999998E-03; -3.9999999E-02;834;  0.0000000E+00;  0.0000000E+00;  0.0000000E+00;  1.0000000E+03;  4.0000001E-01;  0.0000000E+00;0;  0.0000000E+00;  0.0000000E+00;  0.0000000E+00;0;  0.0000000E+00;  1.0000000E+04;  0.0000000E+00;  0.0000000E+00;  1.0000000E+04;  0.0000000E+00;  1.0000000E+04;  0.0000000E+00;  0.0000000E+00;  0.0000000E+00;  0.0000000E+00;
  2.1199999E+00;  9.9999998E-03; -2.0000000E-02;835;  0.0000000E+00;  0.0000000E+00;  0.0000000E+00;  1.0000000E+03;  4.0000001E-01;  0.0000000E+00;0;  0.0000000E+00;  0.0000000E+00;  0.0000000E+00;0;  0.0000000E+00;  1.0000000E+04;  0.0000000E+00;  0.0000000E+00;  1.0000000E+04;  0.0000000E+00;  1.0000000E+04;  0.0000000E+00;  0.0000000E+00;  0.0000000E+00;  0.0000000E+00;
  2.1199999E+00;  9.9999998E-03;  0.0000000E+00;836;  0.0000000E+00;  0.0000000E+00;  0.0000000E+00;  1.0000000E+03;  4.0000001E-01;  0.0000000E+00;0;  0.0000000E+00;  0.0000000E+00;  0.0000000E+00;0;  0.0000000E+00;  1.0000000E+04;  0.0000000E+00;  0.0000000E+00;  1.0000000E+04;  0.0000000E+00;  1.0000000E+04;  0.0000000E+00;  0.0000000E+00;  0.0000000E+00;  0.0000000E+00;
  2.1199999E+00;  9.9999998E-03;  2.0000000E-02;837;  0.0000000E+00;  0.0000000E+00;  0.0000000E+00;  1.0000000E+03;  4.0000001E-01;  0.0000000E+00;0;  0.0000000E+00;  0.0000000E+00;  0.0000000E+00;0;  0.0000000E+00;  1.0000000E+04;  0.0000000E+00;  0.0000000E+00;  1.0000000E+04;  0.0000000E+00;  1.0000000E+04;  0.0000000E+00;  0.0000000E+00;  0.0000000E+00;  0.0000000E+00;
  2.1199999E+00;  9.9999998E-03;  3.9999999E-02;838;  0.0000000E+00;  0.0000000E+00;  0.0000000E+00;  1.0000000E+03;  4.0000001E-01;  0.0000000E+00;0;  0.0000000E+00;  0.0000000E+00;  0.0000000E+00;0;  0.0000000E+00;  1.0000000E+04;  0.0000000E+00;  0.0000000E+00;  1.0000000E+04;  0.0000000E+00;  1.0000000E+04;  0.0000000E+00;  0.0000000E+00;  0.0000000E+00;  0.0000000E+00;
  2.1199999E+00;  9.9999998E-03;  5.9999999E-02;839;  0.0000000E+00;  0.0000000E+00;  0.0000000E+00;  1.0000000E+03;  4.0000001E-01;  0.0000000E+00;0;  0.0000000E+00;  0.0000000E+00;  0.0000000E+00;0;  0.0000000E+00;  1.0000000E+04;  0.0000000E+00;  0.0000000E+00;  1.0000000E+04;  0.0000000E+00;  1.0000000E+04;  0.0000000E+00;  0.0000000E+00;  0.0000000E+00;  0.0000000E+00;
  2.1199999E+00;  9.9999998E-03;  7.9999998E-02;840;  0.0000000E+00;  0.0000000E+00;  0.0000000E+00;  1.0000000E+03;  4.0000001E-01;  0.0000000E+00;0;  0.0000000E+00;  0.0000000E+00;  0.0000000E+00;0;  0.0000000E+00;  1.0000000E+04;  0.0000000E+00;  0.0000000E+00;  1.0000000E+04;  0.0000000E+00;  1.0000000E+04;  0.0000000E+00;  0.0000000E+00;  0.0000000E+00;  0.0000000E+00;
  2.1199999E+00;  9.9999998E-03;  1.0000000E-01;841;  0.0000000E+00;  0.0000000E+00;  0.0000000E+00;  1.0000000E+03;  4.0000001E-01;  0.0000000E+00;0;  0.0000000E+00;  0.0000000E+00;  0.0000000E+00;0;  0.0000000E+00;  1.0000000E+04;  0.0000000E+00;  0.0000000E+00;  1.0000000E+04;  0.0000000E+00;  1.0000000E+04;  0.0000000E+00;  0.0000000E+00;  0.0000000E+00;  0.0000000E+00;
  2.1199999E+00;  9.9999998E-03;  1.2000000E-01;842;  0.0000000E+00;  0.0000000E+00;  0.0000000E+00;  1.0000000E+03;  4.0000001E-01;  0.0000000E+00;0;  0.0000000E+00;  0.0000000E+00;  0.0000000E+00;0;  0.0000000E+00;  1.0000000E+04;  0.0000000E+00;  0.0000000E+00;  1.0000000E+04;  0.0000000E+00;  1.0000000E+04;  0.0000000E+00;  0.0000000E+00;  0.0000000E+00;  0.0000000E+00;
  2.1199999E+00;  9.9999998E-03;  1.4000000E-01;843;  0.0000000E+00;  0.0000000E+00;  0.0000000E+00;  1.0000000E+03;  4.0000001E-01;  0.0000000E+00;0;  0.0000000E+00;  0.0000000E+00;  0.0000000E+00;0;  0.0000000E+00;  1.0000000E+04;  0.0000000E+00;  0.0000000E+00;  1.0000000E+04;  0.0000000E+00;  1.0000000E+04;  0.0000000E+00;  0.0000000E+00;  0.0000000E+00;  0.0000000E+00;
  2.1199999E+00;  9.9999998E-03;  1.6000000E-01;844;  0.0000000E+00;  0.0000000E+00;  0.0000000E+00;  1.0000000E+03;  4.0000001E-01;  0.0000000E+00;0;  0.0000000E+00;  0.0000000E+00;  0.0000000E+00;0;  0.0000000E+00;  1.0000000E+04;  0.0000000E+00;  0.0000000E+00;  1.0000000E+04;  0.0000000E+00;  1.0000000E+04;  0.0000000E+00;  0.0000000E+00;  0.0000000E+00;  0.0000000E+00;
  2.1199999E+00;  9.9999998E-03;  1.8000001E-01;845;  0.0000000E+00;  0.0000000E+00;  0.0000000E+00;  1.0000000E+03;  4.0000001E-01;  0.0000000E+00;0;  0.0000000E+00;  0.0000000E+00;  0.0000000E+00;0;  0.0000000E+00;  1.0000000E+04;  0.0000000E+00;  0.0000000E+00;  1.0000000E+04;  0.0000000E+00;  1.0000000E+04;  0.0000000E+00;  0.0000000E+00;  0.0000000E+00;  0.0000000E+00;
  2.1199999E+00;  9.9999998E-03;  2.0000000E-01;846;  0.0000000E+00;  0.0000000E+00;  0.0000000E+00;  1.0000000E+03;  4.0000001E-01;  0.0000000E+00;0;  0.0000000E+00;  0.0000000E+00;  0.0000000E+00;0;  0.0000000E+00;  1.0000000E+04;  0.0000000E+00;  0.0000000E+00;  1.0000000E+04;  0.0000000E+00;  1.0000000E+04;  0.0000000E+00;  0.0000000E+00;  0.0000000E+00;  0.0000000E+00;
  2.1199999E+00;  9.9999998E-03;  2.2000000E-01;847;  0.0000000E+00;  0.0000000E+00;  0.0000000E+00;  1.0000000E+03;  4.0000001E-01;  0.0000000E+00;0;  0.0000000E+00;  0.0000000E+00;  0.0000000E+00;0;  0.0000000E+00;  1.0000000E+04;  0.0000000E+00;  0.0000000E+00;  1.0000000E+04;  0.0000000E+00;  1.0000000E+04;  0.0000000E+00;  0.0000000E+00;  0.0000000E+00;  0.0000000E+00;
  2.1199999E+00;  9.9999998E-03;  2.3999999E-01;848;  0.0000000E+00;  0.0000000E+00;  0.0000000E+00;  1.0000000E+03;  4.0000001E-01;  0.0000000E+00;0;  0.0000000E+00;  0.0000000E+00;  0.0000000E+00;0;  0.0000000E+00;  1.0000000E+04;  0.0000000E+00;  0.0000000E+00;  1.0000000E+04;  0.0000000E+00;  1.0000000E+04;  0.0000000E+00;  0.0000000E+00;  0.0000000E+00;  0.0000000E+00;
  2.1199999E+00;  9.9999998E-03;  2.5999999E-01;849;  0.0000000E+00;  0.0000000E+00;  0.0000000E+00;  1.0000000E+03;  4.0000001E-01;  0.0000000E+00;0;  0.0000000E+00;  0.0000000E+00;  0.0000000E+00;0;  0.0000000E+00;  1.0000000E+04;  0.0000000E+00;  0.0000000E+00;  1.0000000E+04;  0.0000000E+00;  1.0000000E+04;  0.0000000E+00;  0.0000000E+00;  0.0000000E+00;  0.0000000E+00;
  2.1199999E+00;  9.9999998E-03;  2.8000000E-01;850;  0.0000000E+00;  0.0000000E+00;  0.0000000E+00;  1.0000000E+03;  4.0000001E-01;  0.0000000E+00;0;  0.0000000E+00;  0.0000000E+00;  0.0000000E+00;0;  0.0000000E+00;  1.0000000E+04;  0.0000000E+00;  0.0000000E+00;  1.0000000E+04;  0.0000000E+00;  1.0000000E+04;  0.0000000E+00;  0.0000000E+00;  0.0000000E+00;  0.0000000E+00;
  2.1199999E+00;  9.9999998E-03;  3.0000001E-01;851;  0.0000000E+00;  0.0000000E+00;  0.0000000E+00;  1.0000000E+03;  4.0000001E-01;  0.0000000E+00;0;  0.0000000E+00;  0.0000000E+00;  0.0000000E+00;0;  0.0000000E+00;  1.0000000E+04;  0.0000000E+00;  0.0000000E+00;  1.0000000E+04;  0.0000000E+00;  1.0000000E+04;  0.0000000E+00;  0.0000000E+00;  0.0000000E+00;  0.0000000E+00;
  2.1199999E+00;  9.9999998E-03;  3.1999999E-01;852;  0.0000000E+00;  0.0000000E+00;  0.0000000E+00;  1.0000000E+03;  4.0000001E-01;  0.0000000E+00;0;  0.0000000E+00;  0.0000000E+00;  0.0000000E+00;0;  0.0000000E+00;  1.0000000E+04;  0.0000000E+00;  0.0000000E+00;  1.0000000E+04;  0.0000000E+00;  1.0000000E+04;  0.0000000E+00;  0.0000000E+00;  0.0000000E+00;  0.0000000E+00;
  2.1199999E+00;  9.9999998E-03;  3.4000000E-01;853;  0.0000000E+00;  0.0000000E+00;  0.0000000E+00;  1.0000000E+03;  4.0000001E-01;  0.0000000E+00;0;  0.0000000E+00;  0.0000000E+00;  0.0000000E+00;0;  0.0000000E+00;  1.0000000E+04;  0.0000000E+00;  0.0000000E+00;  1.0000000E+04;  0.0000000E+00;  1.0000000E+04;  0.0000000E+00;  0.0000000E+00;  0.0000000E+00;  0.0000000E+00;
  2.1199999E+00;  9.9999998E-03;  3.6000001E-01;854;  0.0000000E+00;  0.0000000E+00;  0.0000000E+00;  1.0000000E+03;  4.0000001E-01;  0.0000000E+00;0;  0.0000000E+00;  0.0000000E+00;  0.0000000E+00;0;  0.0000000E+00;  1.0000000E+04;  0.0000000E+00;  0.0000000E+00;  1.0000000E+04;  0.0000000E+00;  1.0000000E+04;  0.0000000E+00;  0.0000000E+00;  0.0000000E+00;  0.0000000E+00;
  2.1199999E+00;  9.9999998E-03;  3.8000000E-01;855;  0.0000000E+00;  0.0000000E+00;  0.0000000E+00;  1.0000000E+03;  4.0000001E-01;  0.0000000E+00;0;  0.0000000E+00;  0.0000000E+00;  0.0000000E+00;0;  0.0000000E+00;  1.0000000E+04;  0.0000000E+00;  0.0000000E+00;  1.0000000E+04;  0.0000000E+00;  1.0000000E+04;  0.0000000E+00;  0.0000000E+00;  0.0000000E+00;  0.0000000E+00;
  2.1199999E+00;  9.9999998E-03;  4.0000001E-01;856;  0.0000000E+00;  0.0000000E+00;  0.0000000E+00;  1.0000000E+03;  4.0000001E-01;  0.0000000E+00;0;  0.0000000E+00;  0.0000000E+00;  0.0000000E+00;0;  0.0000000E+00;  1.0000000E+04;  0.0000000E+00;  0.0000000E+00;  1.0000000E+04;  0.0000000E+00;  1.0000000E+04;  0.0000000E+00;  0.0000000E+00;  0.0000000E+00;  0.0000000E+00;
  2.1400001E+00;  9.9999998E-03; -3.8000000E-01;857;  0.0000000E+00;  0.0000000E+00;  0.0000000E+00;  1.0000000E+03;  4.0000001E-01;  0.0000000E+00;0;  0.0000000E+00;  0.0000000E+00;  0.0000000E+00;0;  0.0000000E+00;  1.0000000E+04;  0.0000000E+00;  0.0000000E+00;  1.0000000E+04;  0.0000000E+00;  1.0000000E+04;  0.0000000E+00;  0.0000000E+00;  0.0000000E+00;  0.0000000E+00;
  2.1400001E+00;  9.9999998E-03; -3.6000001E-01;858;  0.0000000E+00;  0.0000000E+00;  0.0000000E+00;  1.0000000E+03;  4.0000001E-01;  0.0000000E+00;0;  0.0000000E+00;  0.0000000E+00;  0.0000000E+00;0;  0.0000000E+00;  1.0000000E+04;  0.0000000E+00;  0.0000000E+00;  1.0000000E+04;  0.0000000E+00;  1.0000000E+04;  0.0000000E+00;  0.0000000E+00;  0.0000000E+00;  0.0000000E+00;
  2.1400001E+00;  9.9999998E-03; -3.4000000E-01;859;  0.0000000E+00;  0.0000000E+00;  0.0000000E+00;  1.0000000E+03;  4.0000001E-01;  0.0000000E+00;0;  0.0000000E+00;  0.0000000E+00;  0.0000000E+00;0;  0.0000000E+00;  1.0000000E+04;  0.0000000E+00;  0.0000000E+00;  1.0000000E+04;  0.0000000E+00;  1.0000000E+04;  0.0000000E+00;  0.0000000E+00;  0.0000000E+00;  0.0000000E+00;
  2.1400001E+00;  9.9999998E-03; -3.1999999E-01;860;  0.0000000E+00;  0.0000000E+00;  0.0000000E+00;  1.0000000E+03;  4.0000001E-01;  0.0000000E+00;0;  0.0000000E+00;  0.0000000E+00;  0.0000000E+00;0;  0.0000000E+00;  1.0000000E+04;  0.0000000E+00;  0.0000000E+00;  1.0000000E+04;  0.0000000E+00;  1.0000000E+04;  0.0000000E+00;  0.0000000E+00;  0.0000000E+00;  0.0000000E+00;
  2.1400001E+00;  9.9999998E-03; -3.0000001E-01;861;  0.0000000E+00;  0.0000000E+00;  0.0000000E+00;  1.0000000E+03;  4.0000001E-01;  0.0000000E+00;0;  0.0000000E+00;  0.0000000E+00;  0.0000000E+00;0;  0.0000000E+00;  1.0000000E+04;  0.0000000E+00;  0.0000000E+00;  1.0000000E+04;  0.0000000E+00;  1.0000000E+04;  0.0000000E+00;  0.0000000E+00;  0.0000000E+00;  0.0000000E+00;
  2.1400001E+00;  9.9999998E-03; -2.8000000E-01;862;  0.0000000E+00;  0.0000000E+00;  0.0000000E+00;  1.0000000E+03;  4.0000001E-01;  0.0000000E+00;0;  0.0000000E+00;  0.0000000E+00;  0.0000000E+00;0;  0.0000000E+00;  1.0000000E+04;  0.0000000E+00;  0.0000000E+00;  1.0000000E+04;  0.0000000E+00;  1.0000000E+04;  0.0000000E+00;  0.0000000E+00;  0.0000000E+00;  0.0000000E+00;
  2.1400001E+00;  9.9999998E-03; -2.5999999E-01;863;  0.0000000E+00;  0.0000000E+00;  0.0000000E+00;  1.0000000E+03;  4.0000001E-01;  0.0000000E+00;0;  0.0000000E+00;  0.0000000E+00;  0.0000000E+00;0;  0.0000000E+00;  1.0000000E+04;  0.0000000E+00;  0.0000000E+00;  1.0000000E+04;  0.0000000E+00;  1.0000000E+04;  0.0000000E+00;  0.0000000E+00;  0.0000000E+00;  0.0000000E+00;
  2.1400001E+00;  9.9999998E-03; -2.3999999E-01;864;  0.0000000E+00;  0.0000000E+00;  0.0000000E+00;  1.0000000E+03;  4.0000001E-01;  0.0000000E+00;0;  0.0000000E+00;  0.0000000E+00;  0.0000000E+00;0;  0.0000000E+00;  1.0000000E+04;  0.0000000E+00;  0.0000000E+00;  1.0000000E+04;  0.0000000E+00;  1.0000000E+04;  0.0000000E+00;  0.0000000E+00;  0.0000000E+00;  0.0000000E+00;
  2.1400001E+00;  9.9999998E-03; -2.2000000E-01;865;  0.0000000E+00;  0.0000000E+00;  0.0000000E+00;  1.0000000E+03;  4.0000001E-01;  0.0000000E+00;0;  0.0000000E+00;  0.0000000E+00;  0.0000000E+00;0;  0.0000000E+00;  1.0000000E+04;  0.0000000E+00;  0.0000000E+00;  1.0000000E+04;  0.0000000E+00;  1.0000000E+04;  0.0000000E+00;  0.0000000E+00;  0.0000000E+00;  0.0000000E+00;
  2.1400001E+00;  9.9999998E-03; -2.0000000E-01;866;  0.0000000E+00;  0.0000000E+00;  0.0000000E+00;  1.0000000E+03;  4.0000001E-01;  0.0000000E+00;0;  0.0000000E+00;  0.0000000E+00;  0.0000000E+00;0;  0.0000000E+00;  1.0000000E+04;  0.0000000E+00;  0.0000000E+00;  1.0000000E+04;  0.0000000E+00;  1.0000000E+04;  0.0000000E+00;  0.0000000E+00;  0.0000000E+00;  0.0000000E+00;
  2.1400001E+00;  9.9999998E-03; -1.8000001E-01;867;  0.0000000E+00;  0.0000000E+00;  0.0000000E+00;  1.0000000E+03;  4.0000001E-01;  0.0000000E+00;0;  0.0000000E+00;  0.0000000E+00;  0.0000000E+00;0;  0.0000000E+00;  1.0000000E+04;  0.0000000E+00;  0.0000000E+00;  1.0000000E+04;  0.0000000E+00;  1.0000000E+04;  0.0000000E+00;  0.0000000E+00;  0.0000000E+00;  0.0000000E+00;
  2.1400001E+00;  9.9999998E-03; -1.6000000E-01;868;  0.0000000E+00;  0.0000000E+00;  0.0000000E+00;  1.0000000E+03;  4.0000001E-01;  0.0000000E+00;0;  0.0000000E+00;  0.0000000E+00;  0.0000000E+00;0;  0.0000000E+00;  1.0000000E+04;  0.0000000E+00;  0.0000000E+00;  1.0000000E+04;  0.0000000E+00;  1.0000000E+04;  0.0000000E+00;  0.0000000E+00;  0.0000000E+00;  0.0000000E+00;
  2.1400001E+00;  9.9999998E-03; -1.4000000E-01;869;  0.0000000E+00;  0.0000000E+00;  0.0000000E+00;  1.0000000E+03;  4.0000001E-01;  0.0000000E+00;0;  0.0000000E+00;  0.0000000E+00;  0.0000000E+00;0;  0.0000000E+00;  1.0000000E+04;  0.0000000E+00;  0.0000000E+00;  1.0000000E+04;  0.0000000E+00;  1.0000000E+04;  0.0000000E+00;  0.0000000E+00;  0.0000000E+00;  0.0000000E+00;
  2.1400001E+00;  9.9999998E-03; -1.2000000E-01;870;  0.0000000E+00;  0.0000000E+00;  0.0000000E+00;  1.0000000E+03;  4.0000001E-01;  0.0000000E+00;0;  0.0000000E+00;  0.0000000E+00;  0.0000000E+00;0;  0.0000000E+00;  1.0000000E+04;  0.0000000E+00;  0.0000000E+00;  1.0000000E+04;  0.0000000E+00;  1.0000000E+04;  0.0000000E+00;  0.0000000E+00;  0.0000000E+00;  0.0000000E+00;
  2.1400001E+00;  9.9999998E-03; -1.0000000E-01;871;  0.0000000E+00;  0.0000000E+00;  0.0000000E+00;  1.0000000E+03;  4.0000001E-01;  0.0000000E+00;0;  0.0000000E+00;  0.0000000E+00;  0.0000000E+00;0;  0.0000000E+00;  1.0000000E+04;  0.0000000E+00;  0.0000000E+00;  1.0000000E+04;  0.0000000E+00;  1.0000000E+04;  0.0000000E+00;  0.0000000E+00;  0.0000000E+00;  0.0000000E+00;
  2.1400001E+00;  9.9999998E-03; -7.9999998E-02;872;  0.0000000E+00;  0.0000000E+00;  0.0000000E+00;  1.0000000E+03;  4.0000001E-01;  0.0000000E+00;0;  0.0000000E+00;  0.0000000E+00;  0.0000000E+00;0;  0.0000000E+00;  1.0000000E+04;  0.0000000E+00;  0.0000000E+00;  1.0000000E+04;  0.0000000E+00;  1.0000000E+04;  0.0000000E+00;  0.0000000E+00;  0.0000000E+00;  0.0000000E+00;
  2.1400001E+00;  9.9999998E-03; -5.9999999E-02;873;  0.0000000E+00;  0.0000000E+00;  0.0000000E+00;  1.0000000E+03;  4.0000001E-01;  0.0000000E+00;0;  0.0000000E+00;  0.0000000E+00;  0.0000000E+00;0;  0.0000000E+00;  1.0000000E+04;  0.0000000E+00;  0.0000000E+00;  1.0000000E+04;  0.0000000E+00;  1.0000000E+04;  0.0000000E+00;  0.0000000E+00;  0.0000000E+00;  0.0000000E+00;
  2.1400001E+00;  9.9999998E-03; -3.9999999E-02;874;  0.0000000E+00;  0.0000000E+00;  0.0000000E+00;  1.0000000E+03;  4.0000001E-01;  0.0000000E+00;0;  0.0000000E+00;  0.0000000E+00;  0.0000000E+00;0;  0.0000000E+00;  1.0000000E+04;  0.0000000E+00;  0.0000000E+00;  1.0000000E+04;  0.0000000E+00;  1.0000000E+04;  0.0000000E+00;  0.0000000E+00;  0.0000000E+00;  0.0000000E+00;
  2.1400001E+00;  9.9999998E-03; -2.0000000E-02;875;  0.0000000E+00;  0.0000000E+00;  0.0000000E+00;  1.0000000E+03;  4.0000001E-01;  0.0000000E+00;0;  0.0000000E+00;  0.0000000E+00;  0.0000000E+00;0;  0.0000000E+00;  1.0000000E+04;  0.0000000E+00;  0.0000000E+00;  1.0000000E+04;  0.0000000E+00;  1.0000000E+04;  0.0000000E+00;  0.0000000E+00;  0.0000000E+00;  0.0000000E+00;
  2.1400001E+00;  9.9999998E-03;  0.0000000E+00;876;  0.0000000E+00;  0.0000000E+00;  0.0000000E+00;  1.0000000E+03;  4.0000001E-01;  0.0000000E+00;0;  0.0000000E+00;  0.0000000E+00;  0.0000000E+00;0;  0.0000000E+00;  1.0000000E+04;  0.0000000E+00;  0.0000000E+00;  1.0000000E+04;  0.0000000E+00;  1.0000000E+04;  0.0000000E+00;  0.0000000E+00;  0.0000000E+00;  0.0000000E+00;
  2.1400001E+00;  9.9999998E-03;  2.0000000E-02;877;  0.0000000E+00;  0.0000000E+00;  0.0000000E+00;  1.0000000E+03;  4.0000001E-01;  0.0000000E+00;0;  0.0000000E+00;  0.0000000E+00;  0.0000000E+00;0;  0.0000000E+00;  1.0000000E+04;  0.0000000E+00;  0.0000000E+00;  1.0000000E+04;  0.0000000E+00;  1.0000000E+04;  0.0000000E+00;  0.0000000E+00;  0.0000000E+00;  0.0000000E+00;
  2.1400001E+00;  9.9999998E-03;  3.9999999E-02;878;  0.0000000E+00;  0.0000000E+00;  0.0000000E+00;  1.0000000E+03;  4.0000001E-01;  0.0000000E+00;0;  0.0000000E+00;  0.0000000E+00;  0.0000000E+00;0;  0.0000000E+00;  1.0000000E+04;  0.0000000E+00;  0.0000000E+00;  1.0000000E+04;  0.0000000E+00;  1.0000000E+04;  0.0000000E+00;  0.0000000E+00;  0.0000000E+00;  0.0000000E+00;
  2.1400001E+00;  9.9999998E-03;  5.9999999E-02;879;  0.0000000E+00;  0.0000000E+00;  0.0000000E+00;  1.0000000E+03;  4.0000001E-01;  0.0000000E+00;0;  0.0000000E+00;  0.0000000E+00;  0.0000000E+00;0;  0.0000000E+00;  1.0000000E+04;  0.0000000E+00;  0.0000000E+00;  1.0000000E+04;  0.0000000E+00;  1.0000000E+04;  0.0000000E+00;  0.0000000E+00;  0.0000000E+00;  0.0000000E+00;
  2.1400001E+00;  9.9999998E-03;  7.9999998E-02;880;  0.0000000E+00;  0.0000000E+00;  0.0000000E+00;  1.0000000E+03;  4.0000001E-01;  0.0000000E+00;0;  0.0000000E+00;  0.0000000E+00;  0.0000000E+00;0;  0.0000000E+00;  1.0000000E+04;  0.0000000E+00;  0.0000000E+00;  1.0000000E+04;  0.0000000E+00;  1.0000000E+04;  0.0000000E+00;  0.0000000E+00;  0.0000000E+00;  0.0000000E+00;
  2.1400001E+00;  9.9999998E-03;  1.0000000E-01;881;  0.0000000E+00;  0.0000000E+00;  0.0000000E+00;  1.0000000E+03;  4.0000001E-01;  0.0000000E+00;0;  0.0000000E+00;  0.0000000E+00;  0.0000000E+00;0;  0.0000000E+00;  1.0000000E+04;  0.0000000E+00;  0.0000000E+00;  1.0000000E+04;  0.0000000E+00;  1.0000000E+04;  0.0000000E+00;  0.0000000E+00;  0.0000000E+00;  0.0000000E+00;
  2.1400001E+00;  9.9999998E-03;  1.2000000E-01;882;  0.0000000E+00;  0.0000000E+00;  0.0000000E+00;  1.0000000E+03;  4.0000001E-01;  0.0000000E+00;0;  0.0000000E+00;  0.0000000E+00;  0.0000000E+00;0;  0.0000000E+00;  1.0000000E+04;  0.0000000E+00;  0.0000000E+00;  1.0000000E+04;  0.0000000E+00;  1.0000000E+04;  0.0000000E+00;  0.0000000E+00;  0.0000000E+00;  0.0000000E+00;
  2.1400001E+00;  9.9999998E-03;  1.4000000E-01;883;  0.0000000E+00;  0.0000000E+00;  0.0000000E+00;  1.0000000E+03;  4.0000001E-01;  0.0000000E+00;0;  0.0000000E+00;  0.0000000E+00;  0.0000000E+00;0;  0.0000000E+00;  1.0000000E+04;  0.0000000E+00;  0.0000000E+00;  1.0000000E+04;  0.0000000E+00;  1.0000000E+04;  0.0000000E+00;  0.0000000E+00;  0.0000000E+00;  0.0000000E+00;
  2.1400001E+00;  9.9999998E-03;  1.6000000E-01;884;  0.0000000E+00;  0.0000000E+00;  0.0000000E+00;  1.0000000E+03;  4.0000001E-01;  0.0000000E+00;0;  0.0000000E+00;  0.0000000E+00;  0.0000000E+00;0;  0.0000000E+00;  1.0000000E+04;  0.0000000E+00;  0.0000000E+00;  1.0000000E+04;  0.0000000E+00;  1.0000000E+04;  0.0000000E+00;  0.0000000E+00;  0.0000000E+00;  0.0000000E+00;
  2.1400001E+00;  9.9999998E-03;  1.8000001E-01;885;  0.0000000E+00;  0.0000000E+00;  0.0000000E+00;  1.0000000E+03;  4.0000001E-01;  0.0000000E+00;0;  0.0000000E+00;  0.0000000E+00;  0.0000000E+00;0;  0.0000000E+00;  1.0000000E+04;  0.0000000E+00;  0.0000000E+00;  1.0000000E+04;  0.0000000E+00;  1.0000000E+04;  0.0000000E+00;  0.0000000E+00;  0.0000000E+00;  0.0000000E+00;
  2.1400001E+00;  9.9999998E-03;  2.0000000E-01;886;  0.0000000E+00;  0.0000000E+00;  0.0000000E+00;  1.0000000E+03;  4.0000001E-01;  0.0000000E+00;0;  0.0000000E+00;  0.0000000E+00;  0.0000000E+00;0;  0.0000000E+00;  1.0000000E+04;  0.0000000E+00;  0.0000000E+00;  1.0000000E+04;  0.0000000E+00;  1.0000000E+04;  0.0000000E+00;  0.0000000E+00;  0.0000000E+00;  0.0000000E+00;
  2.1400001E+00;  9.9999998E-03;  2.2000000E-01;887;  0.0000000E+00;  0.0000000E+00;  0.0000000E+00;  1.0000000E+03;  4.0000001E-01;  0.0000000E+00;0;  0.0000000E+00;  0.0000000E+00;  0.0000000E+00;0;  0.0000000E+00;  1.0000000E+04;  0.0000000E+00;  0.0000000E+00;  1.0000000E+04;  0.0000000E+00;  1.0000000E+04;  0.0000000E+00;  0.0000000E+00;  0.0000000E+00;  0.0000000E+00;
  2.1400001E+00;  9.9999998E-03;  2.3999999E-01;888;  0.0000000E+00;  0.0000000E+00;  0.0000000E+00;  1.0000000E+03;  4.0000001E-01;  0.0000000E+00;0;  0.0000000E+00;  0.0000000E+00;  0.0000000E+00;0;  0.0000000E+00;  1.0000000E+04;  0.0000000E+00;  0.0000000E+00;  1.0000000E+04;  0.0000000E+00;  1.0000000E+04;  0.0000000E+00;  0.0000000E+00;  0.0000000E+00;  0.0000000E+00;
  2.1400001E+00;  9.9999998E-03;  2.5999999E-01;889;  0.0000000E+00;  0.0000000E+00;  0.0000000E+00;  1.0000000E+03;  4.0000001E-01;  0.0000000E+00;0;  0.0000000E+00;  0.0000000E+00;  0.0000000E+00;0;  0.0000000E+00;  1.0000000E+04;  0.0000000E+00;  0.0000000E+00;  1.0000000E+04;  0.0000000E+00;  1.0000000E+04;  0.0000000E+00;  0.0000000E+00;  0.0000000E+00;  0.0000000E+00;
  2.1400001E+00;  9.9999998E-03;  2.8000000E-01;890;  0.0000000E+00;  0.0000000E+00;  0.0000000E+00;  1.0000000E+03;  4.0000001E-01;  0.0000000E+00;0;  0.0000000E+00;  0.0000000E+00;  0.0000000E+00;0;  0.0000000E+00;  1.0000000E+04;  0.0000000E+00;  0.0000000E+00;  1.0000000E+04;  0.0000000E+00;  1.0000000E+04;  0.0000000E+00;  0.0000000E+00;  0.0000000E+00;  0.0000000E+00;
  2.1400001E+00;  9.9999998E-03;  3.0000001E-01;891;  0.0000000E+00;  0.0000000E+00;  0.0000000E+00;  1.0000000E+03;  4.0000001E-01;  0.0000000E+00;0;  0.0000000E+00;  0.0000000E+00;  0.0000000E+00;0;  0.0000000E+00;  1.0000000E+04;  0.0000000E+00;  0.0000000E+00;  1.0000000E+04;  0.0000000E+00;  1.0000000E+04;  0.0000000E+00;  0.0000000E+00;  0.0000000E+00;  0.0000000E+00;
  2.1400001E+00;  9.9999998E-03;  3.1999999E-01;892;  0.0000000E+00;  0.0000000E+00;  0.0000000E+00;  1.0000000E+03;  4.0000001E-01;  0.0000000E+00;0;  0.0000000E+00;  0.0000000E+00;  0.0000000E+00;0;  0.0000000E+00;  1.0000000E+04;  0.0000000E+00;  0.0000000E+00;  1.0000000E+04;  0.0000000E+00;  1.0000000E+04;  0.0000000E+00;  0.0000000E+00;  0.0000000E+00;  0.0000000E+00;
  2.1400001E+00;  9.9999998E-03;  3.4000000E-01;893;  0.0000000E+00;  0.0000000E+00;  0.0000000E+00;  1.0000000E+03;  4.0000001E-01;  0.0000000E+00;0;  0.0000000E+00;  0.0000000E+00;  0.0000000E+00;0;  0.0000000E+00;  1.0000000E+04;  0.0000000E+00;  0.0000000E+00;  1.0000000E+04;  0.0000000E+00;  1.0000000E+04;  0.0000000E+00;  0.0000000E+00;  0.0000000E+00;  0.0000000E+00;
  2.1400001E+00;  9.9999998E-03;  3.6000001E-01;894;  0.0000000E+00;  0.0000000E+00;  0.0000000E+00;  1.0000000E+03;  4.0000001E-01;  0.0000000E+00;0;  0.0000000E+00;  0.0000000E+00;  0.0000000E+00;0;  0.0000000E+00;  1.0000000E+04;  0.0000000E+00;  0.0000000E+00;  1.0000000E+04;  0.0000000E+00;  1.0000000E+04;  0.0000000E+00;  0.0000000E+00;  0.0000000E+00;  0.0000000E+00;
  2.1400001E+00;  9.9999998E-03;  3.8000000E-01;895;  0.0000000E+00;  0.0000000E+00;  0.0000000E+00;  1.0000000E+03;  4.0000001E-01;  0.0000000E+00;0;  0.0000000E+00;  0.0000000E+00;  0.0000000E+00;0;  0.0000000E+00;  1.0000000E+04;  0.0000000E+00;  0.0000000E+00;  1.0000000E+04;  0.0000000E+00;  1.0000000E+04;  0.0000000E+00;  0.0000000E+00;  0.0000000E+00;  0.0000000E+00;
  2.1400001E+00;  9.9999998E-03;  4.0000001E-01;896;  0.0000000E+00;  0.0000000E+00;  0.0000000E+00;  1.0000000E+03;  4.0000001E-01;  0.0000000E+00;0;  0.0000000E+00;  0.0000000E+00;  0.0000000E+00;0;  0.0000000E+00;  1.0000000E+04;  0.0000000E+00;  0.0000000E+00;  1.0000000E+04;  0.0000000E+00;  1.0000000E+04;  0.0000000E+00;  0.0000000E+00;  0.0000000E+00;  0.0000000E+00;
  2.1600001E+00;  9.9999998E-03; -2.8000000E-01;897;  0.0000000E+00;  0.0000000E+00;  0.0000000E+00;  1.0000000E+03;  4.0000001E-01;  0.0000000E+00;0;  0.0000000E+00;  0.0000000E+00;  0.0000000E+00;0;  0.0000000E+00;  1.0000000E+04;  0.0000000E+00;  0.0000000E+00;  1.0000000E+04;  0.0000000E+00;  1.0000000E+04;  0.0000000E+00;  0.0000000E+00;  0.0000000E+00;  0.0000000E+00;
  2.1600001E+00;  9.9999998E-03; -2.5999999E-01;898;  0.0000000E+00;  0.0000000E+00;  0.0000000E+00;  1.0000000E+03;  4.0000001E-01;  0.0000000E+00;0;  0.0000000E+00;  0.0000000E+00;  0.0000000E+00;0;  0.0000000E+00;  1.0000000E+04;  0.0000000E+00;  0.0000000E+00;  1.0000000E+04;  0.0000000E+00;  1.0000000E+04;  0.0000000E+00;  0.0000000E+00;  0.0000000E+00;  0.0000000E+00;
  2.1600001E+00;  9.9999998E-03; -2.3999999E-01;899;  0.0000000E+00;  0.0000000E+00;  0.0000000E+00;  1.0000000E+03;  4.0000001E-01;  0.0000000E+00;0;  0.0000000E+00;  0.0000000E+00;  0.0000000E+00;0;  0.0000000E+00;  1.0000000E+04;  0.0000000E+00;  0.0000000E+00;  1.0000000E+04;  0.0000000E+00;  1.0000000E+04;  0.0000000E+00;  0.0000000E+00;  0.0000000E+00;  0.0000000E+00;
  2.1600001E+00;  9.9999998E-03; -2.2000000E-01;900;  0.0000000E+00;  0.0000000E+00;  0.0000000E+00;  1.0000000E+03;  4.0000001E-01;  0.0000000E+00;0;  0.0000000E+00;  0.0000000E+00;  0.0000000E+00;0;  0.0000000E+00;  1.0000000E+04;  0.0000000E+00;  0.0000000E+00;  1.0000000E+04;  0.0000000E+00;  1.0000000E+04;  0.0000000E+00;  0.0000000E+00;  0.0000000E+00;  0.0000000E+00;
  2.1600001E+00;  9.9999998E-03; -2.0000000E-01;901;  0.0000000E+00;  0.0000000E+00;  0.0000000E+00;  1.0000000E+03;  4.0000001E-01;  0.0000000E+00;0;  0.0000000E+00;  0.0000000E+00;  0.0000000E+00;0;  0.0000000E+00;  1.0000000E+04;  0.0000000E+00;  0.0000000E+00;  1.0000000E+04;  0.0000000E+00;  1.0000000E+04;  0.0000000E+00;  0.0000000E+00;  0.0000000E+00;  0.0000000E+00;
  2.1600001E+00;  9.9999998E-03; -1.8000001E-01;902;  0.0000000E+00;  0.0000000E+00;  0.0000000E+00;  1.0000000E+03;  4.0000001E-01;  0.0000000E+00;0;  0.0000000E+00;  0.0000000E+00;  0.0000000E+00;0;  0.0000000E+00;  1.0000000E+04;  0.0000000E+00;  0.0000000E+00;  1.0000000E+04;  0.0000000E+00;  1.0000000E+04;  0.0000000E+00;  0.0000000E+00;  0.0000000E+00;  0.0000000E+00;
  2.1600001E+00;  9.9999998E-03; -1.6000000E-01;903;  0.0000000E+00;  0.0000000E+00;  0.0000000E+00;  1.0000000E+03;  4.0000001E-01;  0.0000000E+00;0;  0.0000000E+00;  0.0000000E+00;  0.0000000E+00;0;  0.0000000E+00;  1.0000000E+04;  0.0000000E+00;  0.0000000E+00;  1.0000000E+04;  0.0000000E+00;  1.0000000E+04;  0.0000000E+00;  0.0000000E+00;  0.0000000E+00;  0.0000000E+00;
  2.1600001E+00;  9.9999998E-03; -1.4000000E-01;904;  0.0000000E+00;  0.0000000E+00;  0.0000000E+00;  1.0000000E+03;  4.0000001E-01;  0.0000000E+00;0;  0.0000000E+00;  0.0000000E+00;  0.0000000E+00;0;  0.0000000E+00;  1.0000000E+04;  0.0000000E+00;  0.0000000E+00;  1.0000000E+04;  0.0000000E+00;  1.0000000E+04;  0.0000000E+00;  0.0000000E+00;  0.0000000E+00;  0.0000000E+00;
  2.1600001E+00;  9.9999998E-03; -1.2000000E-01;905;  0.0000000E+00;  0.0000000E+00;  0.0000000E+00;  1.0000000E+03;  4.0000001E-01;  0.0000000E+00;0;  0.0000000E+00;  0.0000000E+00;  0.0000000E+00;0;  0.0000000E+00;  1.0000000E+04;  0.0000000E+00;  0.0000000E+00;  1.0000000E+04;  0.0000000E+00;  1.0000000E+04;  0.0000000E+00;  0.0000000E+00;  0.0000000E+00;  0.0000000E+00;
  2.1600001E+00;  9.9999998E-03; -1.0000000E-01;906;  0.0000000E+00;  0.0000000E+00;  0.0000000E+00;  1.0000000E+03;  4.0000001E-01;  0.0000000E+00;0;  0.0000000E+00;  0.0000000E+00;  0.0000000E+00;0;  0.0000000E+00;  1.0000000E+04;  0.0000000E+00;  0.0000000E+00;  1.0000000E+04;  0.0000000E+00;  1.0000000E+04;  0.0000000E+00;  0.0000000E+00;  0.0000000E+00;  0.0000000E+00;
  2.1600001E+00;  9.9999998E-03; -7.9999998E-02;907;  0.0000000E+00;  0.0000000E+00;  0.0000000E+00;  1.0000000E+03;  4.0000001E-01;  0.0000000E+00;0;  0.0000000E+00;  0.0000000E+00;  0.0000000E+00;0;  0.0000000E+00;  1.0000000E+04;  0.0000000E+00;  0.0000000E+00;  1.0000000E+04;  0.0000000E+00;  1.0000000E+04;  0.0000000E+00;  0.0000000E+00;  0.0000000E+00;  0.0000000E+00;
  2.1600001E+00;  9.9999998E-03; -5.9999999E-02;908;  0.0000000E+00;  0.0000000E+00;  0.0000000E+00;  1.0000000E+03;  4.0000001E-01;  0.0000000E+00;0;  0.0000000E+00;  0.0000000E+00;  0.0000000E+00;0;  0.0000000E+00;  1.0000000E+04;  0.0000000E+00;  0.0000000E+00;  1.0000000E+04;  0.0000000E+00;  1.0000000E+04;  0.0000000E+00;  0.0000000E+00;  0.0000000E+00;  0.0000000E+00;
  2.1600001E+00;  9.9999998E-03; -3.9999999E-02;909;  0.0000000E+00;  0.0000000E+00;  0.0000000E+00;  1.0000000E+03;  4.0000001E-01;  0.0000000E+00;0;  0.0000000E+00;  0.0000000E+00;  0.0000000E+00;0;  0.0000000E+00;  1.0000000E+04;  0.0000000E+00;  0.0000000E+00;  1.0000000E+04;  0.0000000E+00;  1.0000000E+04;  0.0000000E+00;  0.0000000E+00;  0.0000000E+00;  0.0000000E+00;
  2.1600001E+00;  9.9999998E-03; -2.0000000E-02;910;  0.0000000E+00;  0.0000000E+00;  0.0000000E+00;  1.0000000E+03;  4.0000001E-01;  0.0000000E+00;0;  0.0000000E+00;  0.0000000E+00;  0.0000000E+00;0;  0.0000000E+00;  1.0000000E+04;  0.0000000E+00;  0.0000000E+00;  1.0000000E+04;  0.0000000E+00;  1.0000000E+04;  0.0000000E+00;  0.0000000E+00;  0.0000000E+00;  0.0000000E+00;
  2.1600001E+00;  9.9999998E-03;  0.0000000E+00;911;  0.0000000E+00;  0.0000000E+00;  0.0000000E+00;  1.0000000E+03;  4.0000001E-01;  0.0000000E+00;0;  0.0000000E+00;  0.0000000E+00;  0.0000000E+00;0;  0.0000000E+00;  1.0000000E+04;  0.0000000E+00;  0.0000000E+00;  1.0000000E+04;  0.0000000E+00;  1.0000000E+04;  0.0000000E+00;  0.0000000E+00;  0.0000000E+00;  0.0000000E+00;
  2.1600001E+00;  9.9999998E-03;  2.0000000E-02;912;  0.0000000E+00;  0.0000000E+00;  0.0000000E+00;  1.0000000E+03;  4.0000001E-01;  0.0000000E+00;0;  0.0000000E+00;  0.0000000E+00;  0.0000000E+00;0;  0.0000000E+00;  1.0000000E+04;  0.0000000E+00;  0.0000000E+00;  1.0000000E+04;  0.0000000E+00;  1.0000000E+04;  0.0000000E+00;  0.0000000E+00;  0.0000000E+00;  0.0000000E+00;
  2.1600001E+00;  9.9999998E-03;  3.9999999E-02;913;  0.0000000E+00;  0.0000000E+00;  0.0000000E+00;  1.0000000E+03;  4.0000001E-01;  0.0000000E+00;0;  0.0000000E+00;  0.0000000E+00;  0.0000000E+00;0;  0.0000000E+00;  1.0000000E+04;  0.0000000E+00;  0.0000000E+00;  1.0000000E+04;  0.0000000E+00;  1.0000000E+04;  0.0000000E+00;  0.0000000E+00;  0.0000000E+00;  0.0000000E+00;
  2.1600001E+00;  9.9999998E-03;  5.9999999E-02;914;  0.0000000E+00;  0.0000000E+00;  0.0000000E+00;  1.0000000E+03;  4.0000001E-01;  0.0000000E+00;0;  0.0000000E+00;  0.0000000E+00;  0.0000000E+00;0;  0.0000000E+00;  1.0000000E+04;  0.0000000E+00;  0.0000000E+00;  1.0000000E+04;  0.0000000E+00;  1.0000000E+04;  0.0000000E+00;  0.0000000E+00;  0.0000000E+00;  0.0000000E+00;
  2.1600001E+00;  9.9999998E-03;  7.9999998E-02;915;  0.0000000E+00;  0.0000000E+00;  0.0000000E+00;  1.0000000E+03;  4.0000001E-01;  0.0000000E+00;0;  0.0000000E+00;  0.0000000E+00;  0.0000000E+00;0;  0.0000000E+00;  1.0000000E+04;  0.0000000E+00;  0.0000000E+00;  1.0000000E+04;  0.0000000E+00;  1.0000000E+04;  0.0000000E+00;  0.0000000E+00;  0.0000000E+00;  0.0000000E+00;
  2.1600001E+00;  9.9999998E-03;  1.0000000E-01;916;  0.0000000E+00;  0.0000000E+00;  0.0000000E+00;  1.0000000E+03;  4.0000001E-01;  0.0000000E+00;0;  0.0000000E+00;  0.0000000E+00;  0.0000000E+00;0;  0.0000000E+00;  1.0000000E+04;  0.0000000E+00;  0.0000000E+00;  1.0000000E+04;  0.0000000E+00;  1.0000000E+04;  0.0000000E+00;  0.0000000E+00;  0.0000000E+00;  0.0000000E+00;
  2.1600001E+00;  9.9999998E-03;  1.2000000E-01;917;  0.0000000E+00;  0.0000000E+00;  0.0000000E+00;  1.0000000E+03;  4.0000001E-01;  0.0000000E+00;0;  0.0000000E+00;  0.0000000E+00;  0.0000000E+00;0;  0.0000000E+00;  1.0000000E+04;  0.0000000E+00;  0.0000000E+00;  1.0000000E+04;  0.0000000E+00;  1.0000000E+04;  0.0000000E+00;  0.0000000E+00;  0.0000000E+00;  0.0000000E+00;
  2.1600001E+00;  9.9999998E-03;  1.4000000E-01;918;  0.0000000E+00;  0.0000000E+00;  0.0000000E+00;  1.0000000E+03;  4.0000001E-01;  0.0000000E+00;0;  0.0000000E+00;  0.0000000E+00;  0.0000000E+00;0;  0.0000000E+00;  1.0000000E+04;  0.0000000E+00;  0.0000000E+00;  1.0000000E+04;  0.0000000E+00;  1.0000000E+04;  0.0000000E+00;  0.0000000E+00;  0.0000000E+00;  0.0000000E+00;
  2.1600001E+00;  9.9999998E-03;  1.6000000E-01;919;  0.0000000E+00;  0.0000000E+00;  0.0000000E+00;  1.0000000E+03;  4.0000001E-01;  0.0000000E+00;0;  0.0000000E+00;  0.0000000E+00;  0.0000000E+00;0;  0.0000000E+00;  1.0000000E+04;  0.0000000E+00;  0.0000000E+00;  1.0000000E+04;  0.0000000E+00;  1.0000000E+04;  0.0000000E+00;  0.0000000E+00;  0.0000000E+00;  0.0000000E+00;
  2.1600001E+00;  9.9999998E-03;  1.8000001E-01;920;  0.0000000E+00;  0.0000000E+00;  0.0000000E+00;  1.0000000E+03;  4.0000001E-01;  0.0000000E+00;0;  0.0000000E+00;  0.0000000E+00;  0.0000000E+00;0;  0.0000000E+00;  1.0000000E+04;  0.0000000E+00;  0.0000000E+00;  1.0000000E+04;  0.0000000E+00;  1.0000000E+04;  0.0000000E+00;  0.0000000E+00;  0.0000000E+00;  0.0000000E+00;
  2.1600001E+00;  9.9999998E-03;  2.0000000E-01;921;  0.0000000E+00;  0.0000000E+00;  0.0000000E+00;  1.0000000E+03;  4.0000001E-01;  0.0000000E+00;0;  0.0000000E+00;  0.0000000E+00;  0.0000000E+00;0;  0.0000000E+00;  1.0000000E+04;  0.0000000E+00;  0.0000000E+00;  1.0000000E+04;  0.0000000E+00;  1.0000000E+04;  0.0000000E+00;  0.0000000E+00;  0.0000000E+00;  0.0000000E+00;
  2.1600001E+00;  9.9999998E-03;  2.2000000E-01;922;  0.0000000E+00;  0.0000000E+00;  0.0000000E+00;  1.0000000E+03;  4.0000001E-01;  0.0000000E+00;0;  0.0000000E+00;  0.0000000E+00;  0.0000000E+00;0;  0.0000000E+00;  1.0000000E+04;  0.0000000E+00;  0.0000000E+00;  1.0000000E+04;  0.0000000E+00;  1.0000000E+04;  0.0000000E+00;  0.0000000E+00;  0.0000000E+00;  0.0000000E+00;
  2.1600001E+00;  9.9999998E-03;  2.3999999E-01;923;  0.0000000E+00;  0.0000000E+00;  0.0000000E+00;  1.0000000E+03;  4.0000001E-01;  0.0000000E+00;0;  0.0000000E+00;  0.0000000E+00;  0.0000000E+00;0;  0.0000000E+00;  1.0000000E+04;  0.0000000E+00;  0.0000000E+00;  1.0000000E+04;  0.0000000E+00;  1.0000000E+04;  0.0000000E+00;  0.0000000E+00;  0.0000000E+00;  0.0000000E+00;
  2.1600001E+00;  9.9999998E-03;  2.5999999E-01;924;  0.0000000E+00;  0.0000000E+00;  0.0000000E+00;  1.0000000E+03;  4.0000001E-01;  0.0000000E+00;0;  0.0000000E+00;  0.0000000E+00;  0.0000000E+00;0;  0.0000000E+00;  1.0000000E+04;  0.0000000E+00;  0.0000000E+00;  1.0000000E+04;  0.0000000E+00;  1.0000000E+04;  0.0000000E+00;  0.0000000E+00;  0.0000000E+00;  0.0000000E+00;
  2.1600001E+00;  9.9999998E-03;  2.8000000E-01;925;  0.0000000E+00;  0.0000000E+00;  0.0000000E+00;  1.0000000E+03;  4.0000001E-01;  0.0000000E+00;0;  0.0000000E+00;  0.0000000E+00;  0.0000000E+00;0;  0.0000000E+00;  1.0000000E+04;  0.0000000E+00;  0.0000000E+00;  1.0000000E+04;  0.0000000E+00;  1.0000000E+04;  0.0000000E+00;  0.0000000E+00;  0.0000000E+00;  0.0000000E+00;
  2.1600001E+00;  9.9999998E-03;  3.0000001E-01;926;  0.0000000E+00;  0.0000000E+00;  0.0000000E+00;  1.0000000E+03;  4.0000001E-01;  0.0000000E+00;0;  0.0000000E+00;  0.0000000E+00;  0.0000000E+00;0;  0.0000000E+00;  1.0000000E+04;  0.0000000E+00;  0.0000000E+00;  1.0000000E+04;  0.0000000E+00;  1.0000000E+04;  0.0000000E+00;  0.0000000E+00;  0.0000000E+00;  0.0000000E+00;
  2.1600001E+00;  9.9999998E-03;  3.1999999E-01;927;  0.0000000E+00;  0.0000000E+00;  0.0000000E+00;  1.0000000E+03;  4.0000001E-01;  0.0000000E+00;0;  0.0000000E+00;  0.0000000E+00;  0.0000000E+00;0;  0.0000000E+00;  1.0000000E+04;  0.0000000E+00;  0.0000000E+00;  1.0000000E+04;  0.0000000E+00;  1.0000000E+04;  0.0000000E+00;  0.0000000E+00;  0.0000000E+00;  0.0000000E+00;
  2.1600001E+00;  9.9999998E-03;  3.4000000E-01;928;  0.0000000E+00;  0.0000000E+00;  0.0000000E+00;  1.0000000E+03;  4.0000001E-01;  0.0000000E+00;0;  0.0000000E+00;  0.0000000E+00;  0.0000000E+00;0;  0.0000000E+00;  1.0000000E+04;  0.0000000E+00;  0.0000000E+00;  1.0000000E+04;  0.0000000E+00;  1.0000000E+04;  0.0000000E+00;  0.0000000E+00;  0.0000000E+00;  0.0000000E+00;
  2.1600001E+00;  9.9999998E-03;  3.6000001E-01;929;  0.0000000E+00;  0.0000000E+00;  0.0000000E+00;  1.0000000E+03;  4.0000001E-01;  0.0000000E+00;0;  0.0000000E+00;  0.0000000E+00;  0.0000000E+00;0;  0.0000000E+00;  1.0000000E+04;  0.0000000E+00;  0.0000000E+00;  1.0000000E+04;  0.0000000E+00;  1.0000000E+04;  0.0000000E+00;  0.0000000E+00;  0.0000000E+00;  0.0000000E+00;
  2.1600001E+00;  9.9999998E-03;  3.8000000E-01;930;  0.0000000E+00;  0.0000000E+00;  0.0000000E+00;  1.0000000E+03;  4.0000001E-01;  0.0000000E+00;0;  0.0000000E+00;  0.0000000E+00;  0.0000000E+00;0;  0.0000000E+00;  1.0000000E+04;  0.0000000E+00;  0.0000000E+00;  1.0000000E+04;  0.0000000E+00;  1.0000000E+04;  0.0000000E+00;  0.0000000E+00;  0.0000000E+00;  0.0000000E+00;
  2.1600001E+00;  9.9999998E-03;  4.0000001E-01;931;  0.0000000E+00;  0.0000000E+00;  0.0000000E+00;  1.0000000E+03;  4.0000001E-01;  0.0000000E+00;0;  0.0000000E+00;  0.0000000E+00;  0.0000000E+00;0;  0.0000000E+00;  1.0000000E+04;  0.0000000E+00;  0.0000000E+00;  1.0000000E+04;  0.0000000E+00;  1.0000000E+04;  0.0000000E+00;  0.0000000E+00;  0.0000000E+00;  0.0000000E+00;
  2.1800001E+00;  9.9999998E-03; -1.8000001E-01;932;  0.0000000E+00;  0.0000000E+00;  0.0000000E+00;  1.0000000E+03;  4.0000001E-01;  0.0000000E+00;0;  0.0000000E+00;  0.0000000E+00;  0.0000000E+00;0;  0.0000000E+00;  1.0000000E+04;  0.0000000E+00;  0.0000000E+00;  1.0000000E+04;  0.0000000E+00;  1.0000000E+04;  0.0000000E+00;  0.0000000E+00;  0.0000000E+00;  0.0000000E+00;
  2.1800001E+00;  9.9999998E-03; -1.6000000E-01;933;  0.0000000E+00;  0.0000000E+00;  0.0000000E+00;  1.0000000E+03;  4.0000001E-01;  0.0000000E+00;0;  0.0000000E+00;  0.0000000E+00;  0.0000000E+00;0;  0.0000000E+00;  1.0000000E+04;  0.0000000E+00;  0.0000000E+00;  1.0000000E+04;  0.0000000E+00;  1.0000000E+04;  0.0000000E+00;  0.0000000E+00;  0.0000000E+00;  0.0000000E+00;
  2.1800001E+00;  9.9999998E-03; -1.4000000E-01;934;  0.0000000E+00;  0.0000000E+00;  0.0000000E+00;  1.0000000E+03;  4.0000001E-01;  0.0000000E+00;0;  0.0000000E+00;  0.0000000E+00;  0.0000000E+00;0;  0.0000000E+00;  1.0000000E+04;  0.0000000E+00;  0.0000000E+00;  1.0000000E+04;  0.0000000E+00;  1.0000000E+04;  0.0000000E+00;  0.0000000E+00;  0.0000000E+00;  0.0000000E+00;
  2.1800001E+00;  9.9999998E-03; -1.2000000E-01;935;  0.0000000E+00;  0.0000000E+00;  0.0000000E+00;  1.0000000E+03;  4.0000001E-01;  0.0000000E+00;0;  0.0000000E+00;  0.0000000E+00;  0.0000000E+00;0;  0.0000000E+00;  1.0000000E+04;  0.0000000E+00;  0.0000000E+00;  1.0000000E+04;  0.0000000E+00;  1.0000000E+04;  0.0000000E+00;  0.0000000E+00;  0.0000000E+00;  0.0000000E+00;
  2.1800001E+00;  9.9999998E-03; -1.0000000E-01;936;  0.0000000E+00;  0.0000000E+00;  0.0000000E+00;  1.0000000E+03;  4.0000001E-01;  0.0000000E+00;0;  0.0000000E+00;  0.0000000E+00;  0.0000000E+00;0;  0.0000000E+00;  1.0000000E+04;  0.0000000E+00;  0.0000000E+00;  1.0000000E+04;  0.0000000E+00;  1.0000000E+04;  0.0000000E+00;  0.0000000E+00;  0.0000000E+00;  0.0000000E+00;
  2.1800001E+00;  9.9999998E-03; -7.9999998E-02;937;  0.0000000E+00;  0.0000000E+00;  0.0000000E+00;  1.0000000E+03;  4.0000001E-01;  0.0000000E+00;0;  0.0000000E+00;  0.0000000E+00;  0.0000000E+00;0;  0.0000000E+00;  1.0000000E+04;  0.0000000E+00;  0.0000000E+00;  1.0000000E+04;  0.0000000E+00;  1.0000000E+04;  0.0000000E+00;  0.0000000E+00;  0.0000000E+00;  0.0000000E+00;
  2.1800001E+00;  9.9999998E-03; -5.9999999E-02;938;  0.0000000E+00;  0.0000000E+00;  0.0000000E+00;  1.0000000E+03;  4.0000001E-01;  0.0000000E+00;0;  0.0000000E+00;  0.0000000E+00;  0.0000000E+00;0;  0.0000000E+00;  1.0000000E+04;  0.0000000E+00;  0.0000000E+00;  1.0000000E+04;  0.0000000E+00;  1.0000000E+04;  0.0000000E+00;  0.0000000E+00;  0.0000000E+00;  0.0000000E+00;
  2.1800001E+00;  9.9999998E-03; -3.9999999E-02;939;  0.0000000E+00;  0.0000000E+00;  0.0000000E+00;  1.0000000E+03;  4.0000001E-01;  0.0000000E+00;0;  0.0000000E+00;  0.0000000E+00;  0.0000000E+00;0;  0.0000000E+00;  1.0000000E+04;  0.0000000E+00;  0.0000000E+00;  1.0000000E+04;  0.0000000E+00;  1.0000000E+04;  0.0000000E+00;  0.0000000E+00;  0.0000000E+00;  0.0000000E+00;
  2.1800001E+00;  9.9999998E-03; -2.0000000E-02;940;  0.0000000E+00;  0.0000000E+00;  0.0000000E+00;  1.0000000E+03;  4.0000001E-01;  0.0000000E+00;0;  0.0000000E+00;  0.0000000E+00;  0.0000000E+00;0;  0.0000000E+00;  1.0000000E+04;  0.0000000E+00;  0.0000000E+00;  1.0000000E+04;  0.0000000E+00;  1.0000000E+04;  0.0000000E+00;  0.0000000E+00;  0.0000000E+00;  0.0000000E+00;
  2.1800001E+00;  9.9999998E-03;  0.0000000E+00;941;  0.0000000E+00;  0.0000000E+00;  0.0000000E+00;  1.0000000E+03;  4.0000001E-01;  0.0000000E+00;0;  0.0000000E+00;  0.0000000E+00;  0.0000000E+00;0;  0.0000000E+00;  1.0000000E+04;  0.0000000E+00;  0.0000000E+00;  1.0000000E+04;  0.0000000E+00;  1.0000000E+04;  0.0000000E+00;  0.0000000E+00;  0.0000000E+00;  0.0000000E+00;
  2.1800001E+00;  9.9999998E-03;  2.0000000E-02;942;  0.0000000E+00;  0.0000000E+00;  0.0000000E+00;  1.0000000E+03;  4.0000001E-01;  0.0000000E+00;0;  0.0000000E+00;  0.0000000E+00;  0.0000000E+00;0;  0.0000000E+00;  1.0000000E+04;  0.0000000E+00;  0.0000000E+00;  1.0000000E+04;  0.0000000E+00;  1.0000000E+04;  0.0000000E+00;  0.0000000E+00;  0.0000000E+00;  0.0000000E+00;
  2.1800001E+00;  9.9999998E-03;  3.9999999E-02;943;  0.0000000E+00;  0.0000000E+00;  0.0000000E+00;  1.0000000E+03;  4.0000001E-01;  0.0000000E+00;0;  0.0000000E+00;  0.0000000E+00;  0.0000000E+00;0;  0.0000000E+00;  1.0000000E+04;  0.0000000E+00;  0.0000000E+00;  1.0000000E+04;  0.0000000E+00;  1.0000000E+04;  0.0000000E+00;  0.0000000E+00;  0.0000000E+00;  0.0000000E+00;
  2.1800001E+00;  9.9999998E-03;  5.9999999E-02;944;  0.0000000E+00;  0.0000000E+00;  0.0000000E+00;  1.0000000E+03;  4.0000001E-01;  0.0000000E+00;0;  0.0000000E+00;  0.0000000E+00;  0.0000000E+00;0;  0.0000000E+00;  1.0000000E+04;  0.0000000E+00;  0.0000000E+00;  1.0000000E+04;  0.0000000E+00;  1.0000000E+04;  0.0000000E+00;  0.0000000E+00;  0.0000000E+00;  0.0000000E+00;
  2.1800001E+00;  9.9999998E-03;  7.9999998E-02;945;  0.0000000E+00;  0.0000000E+00;  0.0000000E+00;  1.0000000E+03;  4.0000001E-01;  0.0000000E+00;0;  0.0000000E+00;  0.0000000E+00;  0.0000000E+00;0;  0.0000000E+00;  1.0000000E+04;  0.0000000E+00;  0.0000000E+00;  1.0000000E+04;  0.0000000E+00;  1.0000000E+04;  0.0000000E+00;  0.0000000E+00;  0.0000000E+00;  0.0000000E+00;
  2.1800001E+00;  9.9999998E-03;  1.0000000E-01;946;  0.0000000E+00;  0.0000000E+00;  0.0000000E+00;  1.0000000E+03;  4.0000001E-01;  0.0000000E+00;0;  0.0000000E+00;  0.0000000E+00;  0.0000000E+00;0;  0.0000000E+00;  1.0000000E+04;  0.0000000E+00;  0.0000000E+00;  1.0000000E+04;  0.0000000E+00;  1.0000000E+04;  0.0000000E+00;  0.0000000E+00;  0.0000000E+00;  0.0000000E+00;
  2.1800001E+00;  9.9999998E-03;  1.2000000E-01;947;  0.0000000E+00;  0.0000000E+00;  0.0000000E+00;  1.0000000E+03;  4.0000001E-01;  0.0000000E+00;0;  0.0000000E+00;  0.0000000E+00;  0.0000000E+00;0;  0.0000000E+00;  1.0000000E+04;  0.0000000E+00;  0.0000000E+00;  1.0000000E+04;  0.0000000E+00;  1.0000000E+04;  0.0000000E+00;  0.0000000E+00;  0.0000000E+00;  0.0000000E+00;
  2.1800001E+00;  9.9999998E-03;  1.4000000E-01;948;  0.0000000E+00;  0.0000000E+00;  0.0000000E+00;  1.0000000E+03;  4.0000001E-01;  0.0000000E+00;0;  0.0000000E+00;  0.0000000E+00;  0.0000000E+00;0;  0.0000000E+00;  1.0000000E+04;  0.0000000E+00;  0.0000000E+00;  1.0000000E+04;  0.0000000E+00;  1.0000000E+04;  0.0000000E+00;  0.0000000E+00;  0.0000000E+00;  0.0000000E+00;
  2.1800001E+00;  9.9999998E-03;  1.6000000E-01;949;  0.0000000E+00;  0.0000000E+00;  0.0000000E+00;  1.0000000E+03;  4.0000001E-01;  0.0000000E+00;0;  0.0000000E+00;  0.0000000E+00;  0.0000000E+00;0;  0.0000000E+00;  1.0000000E+04;  0.0000000E+00;  0.0000000E+00;  1.0000000E+04;  0.0000000E+00;  1.0000000E+04;  0.0000000E+00;  0.0000000E+00;  0.0000000E+00;  0.0000000E+00;
  2.1800001E+00;  9.9999998E-03;  1.8000001E-01;950;  0.0000000E+00;  0.0000000E+00;  0.0000000E+00;  1.0000000E+03;  4.0000001E-01;  0.0000000E+00;0;  0.0000000E+00;  0.0000000E+00;  0.0000000E+00;0;  0.0000000E+00;  1.0000000E+04;  0.0000000E+00;  0.0000000E+00;  1.0000000E+04;  0.0000000E+00;  1.0000000E+04;  0.0000000E+00;  0.0000000E+00;  0.0000000E+00;  0.0000000E+00;
  2.1800001E+00;  9.9999998E-03;  2.0000000E-01;951;  0.0000000E+00;  0.0000000E+00;  0.0000000E+00;  1.0000000E+03;  4.0000001E-01;  0.0000000E+00;0;  0.0000000E+00;  0.0000000E+00;  0.0000000E+00;0;  0.0000000E+00;  1.0000000E+04;  0.0000000E+00;  0.0000000E+00;  1.0000000E+04;  0.0000000E+00;  1.0000000E+04;  0.0000000E+00;  0.0000000E+00;  0.0000000E+00;  0.0000000E+00;
  2.1800001E+00;  9.9999998E-03;  2.2000000E-01;952;  0.0000000E+00;  0.0000000E+00;  0.0000000E+00;  1.0000000E+03;  4.0000001E-01;  0.0000000E+00;0;  0.0000000E+00;  0.0000000E+00;  0.0000000E+00;0;  0.0000000E+00;  1.0000000E+04;  0.0000000E+00;  0.0000000E+00;  1.0000000E+04;  0.0000000E+00;  1.0000000E+04;  0.0000000E+00;  0.0000000E+00;  0.0000000E+00;  0.0000000E+00;
  2.1800001E+00;  9.9999998E-03;  2.3999999E-01;953;  0.0000000E+00;  0.0000000E+00;  0.0000000E+00;  1.0000000E+03;  4.0000001E-01;  0.0000000E+00;0;  0.0000000E+00;  0.0000000E+00;  0.0000000E+00;0;  0.0000000E+00;  1.0000000E+04;  0.0000000E+00;  0.0000000E+00;  1.0000000E+04;  0.0000000E+00;  1.0000000E+04;  0.0000000E+00;  0.0000000E+00;  0.0000000E+00;  0.0000000E+00;
  2.1800001E+00;  9.9999998E-03;  2.5999999E-01;954;  0.0000000E+00;  0.0000000E+00;  0.0000000E+00;  1.0000000E+03;  4.0000001E-01;  0.0000000E+00;0;  0.0000000E+00;  0.0000000E+00;  0.0000000E+00;0;  0.0000000E+00;  1.0000000E+04;  0.0000000E+00;  0.0000000E+00;  1.0000000E+04;  0.0000000E+00;  1.0000000E+04;  0.0000000E+00;  0.0000000E+00;  0.0000000E+00;  0.0000000E+00;
  2.1800001E+00;  9.9999998E-03;  2.8000000E-01;955;  0.0000000E+00;  0.0000000E+00;  0.0000000E+00;  1.0000000E+03;  4.0000001E-01;  0.0000000E+00;0;  0.0000000E+00;  0.0000000E+00;  0.0000000E+00;0;  0.0000000E+00;  1.0000000E+04;  0.0000000E+00;  0.0000000E+00;  1.0000000E+04;  0.0000000E+00;  1.0000000E+04;  0.0000000E+00;  0.0000000E+00;  0.0000000E+00;  0.0000000E+00;
  2.1800001E+00;  9.9999998E-03;  3.0000001E-01;956;  0.0000000E+00;  0.0000000E+00;  0.0000000E+00;  1.0000000E+03;  4.0000001E-01;  0.0000000E+00;0;  0.0000000E+00;  0.0000000E+00;  0.0000000E+00;0;  0.0000000E+00;  1.0000000E+04;  0.0000000E+00;  0.0000000E+00;  1.0000000E+04;  0.0000000E+00;  1.0000000E+04;  0.0000000E+00;  0.0000000E+00;  0.0000000E+00;  0.0000000E+00;
  2.1800001E+00;  9.9999998E-03;  3.1999999E-01;957;  0.0000000E+00;  0.0000000E+00;  0.0000000E+00;  1.0000000E+03;  4.0000001E-01;  0.0000000E+00;0;  0.0000000E+00;  0.0000000E+00;  0.0000000E+00;0;  0.0000000E+00;  1.0000000E+04;  0.0000000E+00;  0.0000000E+00;  1.0000000E+04;  0.0000000E+00;  1.0000000E+04;  0.0000000E+00;  0.0000000E+00;  0.0000000E+00;  0.0000000E+00;
  2.1800001E+00;  9.9999998E-03;  3.4000000E-01;958;  0.0000000E+00;  0.0000000E+00;  0.0000000E+00;  1.0000000E+03;  4.0000001E-01;  0.0000000E+00;0;  0.0000000E+00;  0.0000000E+00;  0.0000000E+00;0;  0.0000000E+00;  1.0000000E+04;  0.0000000E+00;  0.0000000E+00;  1.0000000E+04;  0.0000000E+00;  1.0000000E+04;  0.0000000E+00;  0.0000000E+00;  0.0000000E+00;  0.0000000E+00;
  2.1800001E+00;  9.9999998E-03;  3.6000001E-01;959;  0.0000000E+00;  0.0000000E+00;  0.0000000E+00;  1.0000000E+03;  4.0000001E-01;  0.0000000E+00;0;  0.0000000E+00;  0.0000000E+00;  0.0000000E+00;0;  0.0000000E+00;  1.0000000E+04;  0.0000000E+00;  0.0000000E+00;  1.0000000E+04;  0.0000000E+00;  1.0000000E+04;  0.0000000E+00;  0.0000000E+00;  0.0000000E+00;  0.0000000E+00;
  2.1800001E+00;  9.9999998E-03;  3.8000000E-01;960;  0.0000000E+00;  0.0000000E+00;  0.0000000E+00;  1.0000000E+03;  4.0000001E-01;  0.0000000E+00;0;  0.0000000E+00;  0.0000000E+00;  0.0000000E+00;0;  0.0000000E+00;  1.0000000E+04;  0.0000000E+00;  0.0000000E+00;  1.0000000E+04;  0.0000000E+00;  1.0000000E+04;  0.0000000E+00;  0.0000000E+00;  0.0000000E+00;  0.0000000E+00;
  2.1800001E+00;  9.9999998E-03;  4.0000001E-01;961;  0.0000000E+00;  0.0000000E+00;  0.0000000E+00;  1.0000000E+03;  4.0000001E-01;  0.0000000E+00;0;  0.0000000E+00;  0.0000000E+00;  0.0000000E+00;0;  0.0000000E+00;  1.0000000E+04;  0.0000000E+00;  0.0000000E+00;  1.0000000E+04;  0.0000000E+00;  1.0000000E+04;  0.0000000E+00;  0.0000000E+00;  0.0000000E+00;  0.0000000E+00;
  2.2000000E+00;  9.9999998E-03; -7.9999998E-02;962;  0.0000000E+00;  0.0000000E+00;  0.0000000E+00;  1.0000000E+03;  4.0000001E-01;  0.0000000E+00;0;  0.0000000E+00;  0.0000000E+00;  0.0000000E+00;0;  0.0000000E+00;  1.0000000E+04;  0.0000000E+00;  0.0000000E+00;  1.0000000E+04;  0.0000000E+00;  1.0000000E+04;  0.0000000E+00;  0.0000000E+00;  0.0000000E+00;  0.0000000E+00;
  2.2000000E+00;  9.9999998E-03; -5.9999999E-02;963;  0.0000000E+00;  0.0000000E+00;  0.0000000E+00;  1.0000000E+03;  4.0000001E-01;  0.0000000E+00;0;  0.0000000E+00;  0.0000000E+00;  0.0000000E+00;0;  0.0000000E+00;  1.0000000E+04;  0.0000000E+00;  0.0000000E+00;  1.0000000E+04;  0.0000000E+00;  1.0000000E+04;  0.0000000E+00;  0.0000000E+00;  0.0000000E+00;  0.0000000E+00;
  2.2000000E+00;  9.9999998E-03; -3.9999999E-02;964;  0.0000000E+00;  0.0000000E+00;  0.0000000E+00;  1.0000000E+03;  4.0000001E-01;  0.0000000E+00;0;  0.0000000E+00;  0.0000000E+00;  0.0000000E+00;0;  0.0000000E+00;  1.0000000E+04;  0.0000000E+00;  0.0000000E+00;  1.0000000E+04;  0.0000000E+00;  1.0000000E+04;  0.0000000E+00;  0.0000000E+00;  0.0000000E+00;  0.0000000E+00;
  2.2000000E+00;  9.9999998E-03; -2.0000000E-02;965;  0.0000000E+00;  0.0000000E+00;  0.0000000E+00;  1.0000000E+03;  4.0000001E-01;  0.0000000E+00;0;  0.0000000E+00;  0.0000000E+00;  0.0000000E+00;0;  0.0000000E+00;  1.0000000E+04;  0.0000000E+00;  0.0000000E+00;  1.0000000E+04;  0.0000000E+00;  1.0000000E+04;  0.0000000E+00;  0.0000000E+00;  0.0000000E+00;  0.0000000E+00;
  2.2000000E+00;  9.9999998E-03;  0.0000000E+00;966;  0.0000000E+00;  0.0000000E+00;  0.0000000E+00;  1.0000000E+03;  4.0000001E-01;  0.0000000E+00;0;  0.0000000E+00;  0.0000000E+00;  0.0000000E+00;0;  0.0000000E+00;  1.0000000E+04;  0.0000000E+00;  0.0000000E+00;  1.0000000E+04;  0.0000000E+00;  1.0000000E+04;  0.0000000E+00;  0.0000000E+00;  0.0000000E+00;  0.0000000E+00;
  2.2000000E+00;  9.9999998E-03;  2.0000000E-02;967;  0.0000000E+00;  0.0000000E+00;  0.0000000E+00;  1.0000000E+03;  4.0000001E-01;  0.0000000E+00;0;  0.0000000E+00;  0.0000000E+00;  0.0000000E+00;0;  0.0000000E+00;  1.0000000E+04;  0.0000000E+00;  0.0000000E+00;  1.0000000E+04;  0.0000000E+00;  1.0000000E+04;  0.0000000E+00;  0.0000000E+00;  0.0000000E+00;  0.0000000E+00;
  2.2000000E+00;  9.9999998E-03;  3.9999999E-02;968;  0.0000000E+00;  0.0000000E+00;  0.0000000E+00;  1.0000000E+03;  4.0000001E-01;  0.0000000E+00;0;  0.0000000E+00;  0.0000000E+00;  0.0000000E+00;0;  0.0000000E+00;  1.0000000E+04;  0.0000000E+00;  0.0000000E+00;  1.0000000E+04;  0.0000000E+00;  1.0000000E+04;  0.0000000E+00;  0.0000000E+00;  0.0000000E+00;  0.0000000E+00;
  2.2000000E+00;  9.9999998E-03;  5.9999999E-02;969;  0.0000000E+00;  0.0000000E+00;  0.0000000E+00;  1.0000000E+03;  4.0000001E-01;  0.0000000E+00;0;  0.0000000E+00;  0.0000000E+00;  0.0000000E+00;0;  0.0000000E+00;  1.0000000E+04;  0.0000000E+00;  0.0000000E+00;  1.0000000E+04;  0.0000000E+00;  1.0000000E+04;  0.0000000E+00;  0.0000000E+00;  0.0000000E+00;  0.0000000E+00;
  2.2000000E+00;  9.9999998E-03;  7.9999998E-02;970;  0.0000000E+00;  0.0000000E+00;  0.0000000E+00;  1.0000000E+03;  4.0000001E-01;  0.0000000E+00;0;  0.0000000E+00;  0.0000000E+00;  0.0000000E+00;0;  0.0000000E+00;  1.0000000E+04;  0.0000000E+00;  0.0000000E+00;  1.0000000E+04;  0.0000000E+00;  1.0000000E+04;  0.0000000E+00;  0.0000000E+00;  0.0000000E+00;  0.0000000E+00;
  2.2000000E+00;  9.9999998E-03;  1.0000000E-01;971;  0.0000000E+00;  0.0000000E+00;  0.0000000E+00;  1.0000000E+03;  4.0000001E-01;  0.0000000E+00;0;  0.0000000E+00;  0.0000000E+00;  0.0000000E+00;0;  0.0000000E+00;  1.0000000E+04;  0.0000000E+00;  0.0000000E+00;  1.0000000E+04;  0.0000000E+00;  1.0000000E+04;  0.0000000E+00;  0.0000000E+00;  0.0000000E+00;  0.0000000E+00;
  2.2000000E+00;  9.9999998E-03;  1.2000000E-01;972;  0.0000000E+00;  0.0000000E+00;  0.0000000E+00;  1.0000000E+03;  4.0000001E-01;  0.0000000E+00;0;  0.0000000E+00;  0.0000000E+00;  0.0000000E+00;0;  0.0000000E+00;  1.0000000E+04;  0.0000000E+00;  0.0000000E+00;  1.0000000E+04;  0.0000000E+00;  1.0000000E+04;  0.0000000E+00;  0.0000000E+00;  0.0000000E+00;  0.0000000E+00;
  2.2000000E+00;  9.9999998E-03;  1.4000000E-01;973;  0.0000000E+00;  0.0000000E+00;  0.0000000E+00;  1.0000000E+03;  4.0000001E-01;  0.0000000E+00;0;  0.0000000E+00;  0.0000000E+00;  0.0000000E+00;0;  0.0000000E+00;  1.0000000E+04;  0.0000000E+00;  0.0000000E+00;  1.0000000E+04;  0.0000000E+00;  1.0000000E+04;  0.0000000E+00;  0.0000000E+00;  0.0000000E+00;  0.0000000E+00;
  2.2000000E+00;  9.9999998E-03;  1.6000000E-01;974;  0.0000000E+00;  0.0000000E+00;  0.0000000E+00;  1.0000000E+03;  4.0000001E-01;  0.0000000E+00;0;  0.0000000E+00;  0.0000000E+00;  0.0000000E+00;0;  0.0000000E+00;  1.0000000E+04;  0.0000000E+00;  0.0000000E+00;  1.0000000E+04;  0.0000000E+00;  1.0000000E+04;  0.0000000E+00;  0.0000000E+00;  0.0000000E+00;  0.0000000E+00;
  2.2000000E+00;  9.9999998E-03;  1.8000001E-01;975;  0.0000000E+00;  0.0000000E+00;  0.0000000E+00;  1.0000000E+03;  4.0000001E-01;  0.0000000E+00;0;  0.0000000E+00;  0.0000000E+00;  0.0000000E+00;0;  0.0000000E+00;  1.0000000E+04;  0.0000000E+00;  0.0000000E+00;  1.0000000E+04;  0.0000000E+00;  1.0000000E+04;  0.0000000E+00;  0.0000000E+00;  0.0000000E+00;  0.0000000E+00;
  2.2000000E+00;  9.9999998E-03;  2.0000000E-01;976;  0.0000000E+00;  0.0000000E+00;  0.0000000E+00;  1.0000000E+03;  4.0000001E-01;  0.0000000E+00;0;  0.0000000E+00;  0.0000000E+00;  0.0000000E+00;0;  0.0000000E+00;  1.0000000E+04;  0.0000000E+00;  0.0000000E+00;  1.0000000E+04;  0.0000000E+00;  1.0000000E+04;  0.0000000E+00;  0.0000000E+00;  0.0000000E+00;  0.0000000E+00;
  2.2000000E+00;  9.9999998E-03;  2.2000000E-01;977;  0.0000000E+00;  0.0000000E+00;  0.0000000E+00;  1.0000000E+03;  4.0000001E-01;  0.0000000E+00;0;  0.0000000E+00;  0.0000000E+00;  0.0000000E+00;0;  0.0000000E+00;  1.0000000E+04;  0.0000000E+00;  0.0000000E+00;  1.0000000E+04;  0.0000000E+00;  1.0000000E+04;  0.0000000E+00;  0.0000000E+00;  0.0000000E+00;  0.0000000E+00;
  2.2000000E+00;  9.9999998E-03;  2.3999999E-01;978;  0.0000000E+00;  0.0000000E+00;  0.0000000E+00;  1.0000000E+03;  4.0000001E-01;  0.0000000E+00;0;  0.0000000E+00;  0.0000000E+00;  0.0000000E+00;0;  0.0000000E+00;  1.0000000E+04;  0.0000000E+00;  0.0000000E+00;  1.0000000E+04;  0.0000000E+00;  1.0000000E+04;  0.0000000E+00;  0.0000000E+00;  0.0000000E+00;  0.0000000E+00;
  2.2000000E+00;  9.9999998E-03;  2.5999999E-01;979;  0.0000000E+00;  0.0000000E+00;  0.0000000E+00;  1.0000000E+03;  4.0000001E-01;  0.0000000E+00;0;  0.0000000E+00;  0.0000000E+00;  0.0000000E+00;0;  0.0000000E+00;  1.0000000E+04;  0.0000000E+00;  0.0000000E+00;  1.0000000E+04;  0.0000000E+00;  1.0000000E+04;  0.0000000E+00;  0.0000000E+00;  0.0000000E+00;  0.0000000E+00;
  2.2000000E+00;  9.9999998E-03;  2.8000000E-01;980;  0.0000000E+00;  0.0000000E+00;  0.0000000E+00;  1.0000000E+03;  4.0000001E-01;  0.0000000E+00;0;  0.0000000E+00;  0.0000000E+00;  0.0000000E+00;0;  0.0000000E+00;  1.0000000E+04;  0.0000000E+00;  0.0000000E+00;  1.0000000E+04;  0.0000000E+00;  1.0000000E+04;  0.0000000E+00;  0.0000000E+00;  0.0000000E+00;  0.0000000E+00;
  2.2000000E+00;  9.9999998E-03;  3.0000001E-01;981;  0.0000000E+00;  0.0000000E+00;  0.0000000E+00;  1.0000000E+03;  4.0000001E-01;  0.0000000E+00;0;  0.0000000E+00;  0.0000000E+00;  0.0000000E+00;0;  0.0000000E+00;  1.0000000E+04;  0.0000000E+00;  0.0000000E+00;  1.0000000E+04;  0.0000000E+00;  1.0000000E+04;  0.0000000E+00;  0.0000000E+00;  0.0000000E+00;  0.0000000E+00;
  2.2000000E+00;  9.9999998E-03;  3.1999999E-01;982;  0.0000000E+00;  0.0000000E+00;  0.0000000E+00;  1.0000000E+03;  4.0000001E-01;  0.0000000E+00;0;  0.0000000E+00;  0.0000000E+00;  0.0000000E+00;0;  0.0000000E+00;  1.0000000E+04;  0.0000000E+00;  0.0000000E+00;  1.0000000E+04;  0.0000000E+00;  1.0000000E+04;  0.0000000E+00;  0.0000000E+00;  0.0000000E+00;  0.0000000E+00;
  2.2000000E+00;  9.9999998E-03;  3.4000000E-01;983;  0.0000000E+00;  0.0000000E+00;  0.0000000E+00;  1.0000000E+03;  4.0000001E-01;  0.0000000E+00;0;  0.0000000E+00;  0.0000000E+00;  0.0000000E+00;0;  0.0000000E+00;  1.0000000E+04;  0.0000000E+00;  0.0000000E+00;  1.0000000E+04;  0.0000000E+00;  1.0000000E+04;  0.0000000E+00;  0.0000000E+00;  0.0000000E+00;  0.0000000E+00;
  2.2000000E+00;  9.9999998E-03;  3.6000001E-01;984;  0.0000000E+00;  0.0000000E+00;  0.0000000E+00;  1.0000000E+03;  4.0000001E-01;  0.0000000E+00;0;  0.0000000E+00;  0.0000000E+00;  0.0000000E+00;0;  0.0000000E+00;  1.0000000E+04;  0.0000000E+00;  0.0000000E+00;  1.0000000E+04;  0.0000000E+00;  1.0000000E+04;  0.0000000E+00;  0.0000000E+00;  0.0000000E+00;  0.0000000E+00;
  2.2000000E+00;  9.9999998E-03;  3.8000000E-01;985;  0.0000000E+00;  0.0000000E+00;  0.0000000E+00;  1.0000000E+03;  4.0000001E-01;  0.0000000E+00;0;  0.0000000E+00;  0.0000000E+00;  0.0000000E+00;0;  0.0000000E+00;  1.0000000E+04;  0.0000000E+00;  0.0000000E+00;  1.0000000E+04;  0.0000000E+00;  1.0000000E+04;  0.0000000E+00;  0.0000000E+00;  0.0000000E+00;  0.0000000E+00;
  2.2200000E+00;  9.9999998E-03;  2.0000000E-02;986;  0.0000000E+00;  0.0000000E+00;  0.0000000E+00;  1.0000000E+03;  4.0000001E-01;  0.0000000E+00;0;  0.0000000E+00;  0.0000000E+00;  0.0000000E+00;0;  0.0000000E+00;  1.0000000E+04;  0.0000000E+00;  0.0000000E+00;  1.0000000E+04;  0.0000000E+00;  1.0000000E+04;  0.0000000E+00;  0.0000000E+00;  0.0000000E+00;  0.0000000E+00;
  2.2200000E+00;  9.9999998E-03;  3.9999999E-02;987;  0.0000000E+00;  0.0000000E+00;  0.0000000E+00;  1.0000000E+03;  4.0000001E-01;  0.0000000E+00;0;  0.0000000E+00;  0.0000000E+00;  0.0000000E+00;0;  0.0000000E+00;  1.0000000E+04;  0.0000000E+00;  0.0000000E+00;  1.0000000E+04;  0.0000000E+00;  1.0000000E+04;  0.0000000E+00;  0.0000000E+00;  0.0000000E+00;  0.0000000E+00;
  2.2200000E+00;  9.9999998E-03;  5.9999999E-02;988;  0.0000000E+00;  0.0000000E+00;  0.0000000E+00;  1.0000000E+03;  4.0000001E-01;  0.0000000E+00;0;  0.0000000E+00;  0.0000000E+00;  0.0000000E+00;0;  0.0000000E+00;  1.0000000E+04;  0.0000000E+00;  0.0000000E+00;  1.0000000E+04;  0.0000000E+00;  1.0000000E+04;  0.0000000E+00;  0.0000000E+00;  0.0000000E+00;  0.0000000E+00;
  2.2200000E+00;  9.9999998E-03;  7.9999998E-02;989;  0.0000000E+00;  0.0000000E+00;  0.0000000E+00;  1.0000000E+03;  4.0000001E-01;  0.0000000E+00;0;  0.0000000E+00;  0.0000000E+00;  0.0000000E+00;0;  0.0000000E+00;  1.0000000E+04;  0.0000000E+00;  0.0000000E+00;  1.0000000E+04;  0.0000000E+00;  1.0000000E+04;  0.0000000E+00;  0.0000000E+00;  0.0000000E+00;  0.0000000E+00;
  2.2200000E+00;  9.9999998E-03;  1.0000000E-01;990;  0.0000000E+00;  0.0000000E+00;  0.0000000E+00;  1.0000000E+03;  4.0000001E-01;  0.0000000E+00;0;  0.0000000E+00;  0.0000000E+00;  0.0000000E+00;0;  0.0000000E+00;  1.0000000E+04;  0.0000000E+00;  0.0000000E+00;  1.0000000E+04;  0.0000000E+00;  1.0000000E+04;  0.0000000E+00;  0.0000000E+00;  0.0000000E+00;  0.0000000E+00;
  2.2200000E+00;  9.9999998E-03;  1.2000000E-01;991;  0.0000000E+00;  0.0000000E+00;  0.0000000E+00;  1.0000000E+03;  4.0000001E-01;  0.0000000E+00;0;  0.0000000E+00;  0.0000000E+00;  0.0000000E+00;0;  0.0000000E+00;  1.0000000E+04;  0.0000000E+00;  0.0000000E+00;  1.0000000E+04;  0.0000000E+00;  1.0000000E+04;  0.0000000E+00;  0.0000000E+00;  0.0000000E+00;  0.0000000E+00;
  2.2200000E+00;  9.9999998E-03;  1.4000000E-01;992;  0.0000000E+00;  0.0000000E+00;  0.0000000E+00;  1.0000000E+03;  4.0000001E-01;  0.0000000E+00;0;  0.0000000E+00;  0.0000000E+00;  0.0000000E+00;0;  0.0000000E+00;  1.0000000E+04;  0.0000000E+00;  0.0000000E+00;  1.0000000E+04;  0.0000000E+00;  1.0000000E+04;  0.0000000E+00;  0.0000000E+00;  0.0000000E+00;  0.0000000E+00;
  2.2200000E+00;  9.9999998E-03;  1.6000000E-01;993;  0.0000000E+00;  0.0000000E+00;  0.0000000E+00;  1.0000000E+03;  4.0000001E-01;  0.0000000E+00;0;  0.0000000E+00;  0.0000000E+00;  0.0000000E+00;0;  0.0000000E+00;  1.0000000E+04;  0.0000000E+00;  0.0000000E+00;  1.0000000E+04;  0.0000000E+00;  1.0000000E+04;  0.0000000E+00;  0.0000000E+00;  0.0000000E+00;  0.0000000E+00;
  2.2200000E+00;  9.9999998E-03;  1.8000001E-01;994;  0.0000000E+00;  0.0000000E+00;  0.0000000E+00;  1.0000000E+03;  4.0000001E-01;  0.0000000E+00;0;  0.0000000E+00;  0.0000000E+00;  0.0000000E+00;0;  0.0000000E+00;  1.0000000E+04;  0.0000000E+00;  0.0000000E+00;  1.0000000E+04;  0.0000000E+00;  1.0000000E+04;  0.0000000E+00;  0.0000000E+00;  0.0000000E+00;  0.0000000E+00;
  2.2200000E+00;  9.9999998E-03;  2.0000000E-01;995;  0.0000000E+00;  0.0000000E+00;  0.0000000E+00;  1.0000000E+03;  4.0000001E-01;  0.0000000E+00;0;  0.0000000E+00;  0.0000000E+00;  0.0000000E+00;0;  0.0000000E+00;  1.0000000E+04;  0.0000000E+00;  0.0000000E+00;  1.0000000E+04;  0.0000000E+00;  1.0000000E+04;  0.0000000E+00;  0.0000000E+00;  0.0000000E+00;  0.0000000E+00;
  2.2200000E+00;  9.9999998E-03;  2.2000000E-01;996;  0.0000000E+00;  0.0000000E+00;  0.0000000E+00;  1.0000000E+03;  4.0000001E-01;  0.0000000E+00;0;  0.0000000E+00;  0.0000000E+00;  0.0000000E+00;0;  0.0000000E+00;  1.0000000E+04;  0.0000000E+00;  0.0000000E+00;  1.0000000E+04;  0.0000000E+00;  1.0000000E+04;  0.0000000E+00;  0.0000000E+00;  0.0000000E+00;  0.0000000E+00;
  2.2200000E+00;  9.9999998E-03;  2.3999999E-01;997;  0.0000000E+00;  0.0000000E+00;  0.0000000E+00;  1.0000000E+03;  4.0000001E-01;  0.0000000E+00;0;  0.0000000E+00;  0.0000000E+00;  0.0000000E+00;0;  0.0000000E+00;  1.0000000E+04;  0.0000000E+00;  0.0000000E+00;  1.0000000E+04;  0.0000000E+00;  1.0000000E+04;  0.0000000E+00;  0.0000000E+00;  0.0000000E+00;  0.0000000E+00;
  2.2200000E+00;  9.9999998E-03;  2.5999999E-01;998;  0.0000000E+00;  0.0000000E+00;  0.0000000E+00;  1.0000000E+03;  4.0000001E-01;  0.0000000E+00;0;  0.0000000E+00;  0.0000000E+00;  0.0000000E+00;0;  0.0000000E+00;  1.0000000E+04;  0.0000000E+00;  0.0000000E+00;  1.0000000E+04;  0.0000000E+00;  1.0000000E+04;  0.0000000E+00;  0.0000000E+00;  0.0000000E+00;  0.0000000E+00;
  2.2200000E+00;  9.9999998E-03;  2.8000000E-01;999;  0.0000000E+00;  0.0000000E+00;  0.0000000E+00;  1.0000000E+03;  4.0000001E-01;  0.0000000E+00;0;  0.0000000E+00;  0.0000000E+00;  0.0000000E+00;0;  0.0000000E+00;  1.0000000E+04;  0.0000000E+00;  0.0000000E+00;  1.0000000E+04;  0.0000000E+00;  1.0000000E+04;  0.0000000E+00;  0.0000000E+00;  0.0000000E+00;  0.0000000E+00;
  2.2200000E+00;  9.9999998E-03;  3.0000001E-01;1000;  0.0000000E+00;  0.0000000E+00;  0.0000000E+00;  1.0000000E+03;  4.0000001E-01;  0.0000000E+00;0;  0.0000000E+00;  0.0000000E+00;  0.0000000E+00;0;  0.0000000E+00;  1.0000000E+04;  0.0000000E+00;  0.0000000E+00;  1.0000000E+04;  0.0000000E+00;  1.0000000E+04;  0.0000000E+00;  0.0000000E+00;  0.0000000E+00;  0.0000000E+00;
  2.2200000E+00;  9.9999998E-03;  3.1999999E-01;1001;  0.0000000E+00;  0.0000000E+00;  0.0000000E+00;  1.0000000E+03;  4.0000001E-01;  0.0000000E+00;0;  0.0000000E+00;  0.0000000E+00;  0.0000000E+00;0;  0.0000000E+00;  1.0000000E+04;  0.0000000E+00;  0.0000000E+00;  1.0000000E+04;  0.0000000E+00;  1.0000000E+04;  0.0000000E+00;  0.0000000E+00;  0.0000000E+00;  0.0000000E+00;
  2.2200000E+00;  9.9999998E-03;  3.4000000E-01;1002;  0.0000000E+00;  0.0000000E+00;  0.0000000E+00;  1.0000000E+03;  4.0000001E-01;  0.0000000E+00;0;  0.0000000E+00;  0.0000000E+00;  0.0000000E+00;0;  0.0000000E+00;  1.0000000E+04;  0.0000000E+00;  0.0000000E+00;  1.0000000E+04;  0.0000000E+00;  1.0000000E+04;  0.0000000E+00;  0.0000000E+00;  0.0000000E+00;  0.0000000E+00;
  2.2200000E+00;  9.9999998E-03;  3.6000001E-01;1003;  0.0000000E+00;  0.0000000E+00;  0.0000000E+00;  1.0000000E+03;  4.0000001E-01;  0.0000000E+00;0;  0.0000000E+00;  0.0000000E+00;  0.0000000E+00;0;  0.0000000E+00;  1.0000000E+04;  0.0000000E+00;  0.0000000E+00;  1.0000000E+04;  0.0000000E+00;  1.0000000E+04;  0.0000000E+00;  0.0000000E+00;  0.0000000E+00;  0.0000000E+00;
  2.2200000E+00;  9.9999998E-03;  3.8000000E-01;1004;  0.0000000E+00;  0.0000000E+00;  0.0000000E+00;  1.0000000E+03;  4.0000001E-01;  0.0000000E+00;0;  0.0000000E+00;  0.0000000E+00;  0.0000000E+00;0;  0.0000000E+00;  1.0000000E+04;  0.0000000E+00;  0.0000000E+00;  1.0000000E+04;  0.0000000E+00;  1.0000000E+04;  0.0000000E+00;  0.0000000E+00;  0.0000000E+00;  0.0000000E+00;
  2.2400000E+00;  9.9999998E-03;  1.2000000E-01;1005;  0.0000000E+00;  0.0000000E+00;  0.0000000E+00;  1.0000000E+03;  4.0000001E-01;  0.0000000E+00;0;  0.0000000E+00;  0.0000000E+00;  0.0000000E+00;0;  0.0000000E+00;  1.0000000E+04;  0.0000000E+00;  0.0000000E+00;  1.0000000E+04;  0.0000000E+00;  1.0000000E+04;  0.0000000E+00;  0.0000000E+00;  0.0000000E+00;  0.0000000E+00;
  2.2400000E+00;  9.9999998E-03;  1.4000000E-01;1006;  0.0000000E+00;  0.0000000E+00;  0.0000000E+00;  1.0000000E+03;  4.0000001E-01;  0.0000000E+00;0;  0.0000000E+00;  0.0000000E+00;  0.0000000E+00;0;  0.0000000E+00;  1.0000000E+04;  0.0000000E+00;  0.0000000E+00;  1.0000000E+04;  0.0000000E+00;  1.0000000E+04;  0.0000000E+00;  0.0000000E+00;  0.0000000E+00;  0.0000000E+00;
  2.2400000E+00;  9.9999998E-03;  1.6000000E-01;1007;  0.0000000E+00;  0.0000000E+00;  0.0000000E+00;  1.0000000E+03;  4.0000001E-01;  0.0000000E+00;0;  0.0000000E+00;  0.0000000E+00;  0.0000000E+00;0;  0.0000000E+00;  1.0000000E+04;  0.0000000E+00;  0.0000000E+00;  1.0000000E+04;  0.0000000E+00;  1.0000000E+04;  0.0000000E+00;  0.0000000E+00;  0.0000000E+00;  0.0000000E+00;
  2.2400000E+00;  9.9999998E-03;  1.8000001E-01;1008;  0.0000000E+00;  0.0000000E+00;  0.0000000E+00;  1.0000000E+03;  4.0000001E-01;  0.0000000E+00;0;  0.0000000E+00;  0.0000000E+00;  0.0000000E+00;0;  0.0000000E+00;  1.0000000E+04;  0.0000000E+00;  0.0000000E+00;  1.0000000E+04;  0.0000000E+00;  1.0000000E+04;  0.0000000E+00;  0.0000000E+00;  0.0000000E+00;  0.0000000E+00;
  2.2400000E+00;  9.9999998E-03;  2.0000000E-01;1009;  0.0000000E+00;  0.0000000E+00;  0.0000000E+00;  1.0000000E+03;  4.0000001E-01;  0.0000000E+00;0;  0.0000000E+00;  0.0000000E+00;  0.0000000E+00;0;  0.0000000E+00;  1.0000000E+04;  0.0000000E+00;  0.0000000E+00;  1.0000000E+04;  0.0000000E+00;  1.0000000E+04;  0.0000000E+00;  0.0000000E+00;  0.0000000E+00;  0.0000000E+00;
  2.2400000E+00;  9.9999998E-03;  2.2000000E-01;1010;  0.0000000E+00;  0.0000000E+00;  0.0000000E+00;  1.0000000E+03;  4.0000001E-01;  0.0000000E+00;0;  0.0000000E+00;  0.0000000E+00;  0.0000000E+00;0;  0.0000000E+00;  1.0000000E+04;  0.0000000E+00;  0.0000000E+00;  1.0000000E+04;  0.0000000E+00;  1.0000000E+04;  0.0000000E+00;  0.0000000E+00;  0.0000000E+00;  0.0000000E+00;
  2.2400000E+00;  9.9999998E-03;  2.3999999E-01;1011;  0.0000000E+00;  0.0000000E+00;  0.0000000E+00;  1.0000000E+03;  4.0000001E-01;  0.0000000E+00;0;  0.0000000E+00;  0.0000000E+00;  0.0000000E+00;0;  0.0000000E+00;  1.0000000E+04;  0.0000000E+00;  0.0000000E+00;  1.0000000E+04;  0.0000000E+00;  1.0000000E+04;  0.0000000E+00;  0.0000000E+00;  0.0000000E+00;  0.0000000E+00;
  2.2400000E+00;  9.9999998E-03;  2.5999999E-01;1012;  0.0000000E+00;  0.0000000E+00;  0.0000000E+00;  1.0000000E+03;  4.0000001E-01;  0.0000000E+00;0;  0.0000000E+00;  0.0000000E+00;  0.0000000E+00;0;  0.0000000E+00;  1.0000000E+04;  0.0000000E+00;  0.0000000E+00;  1.0000000E+04;  0.0000000E+00;  1.0000000E+04;  0.0000000E+00;  0.0000000E+00;  0.0000000E+00;  0.0000000E+00;
  2.2400000E+00;  9.9999998E-03;  2.8000000E-01;1013;  0.0000000E+00;  0.0000000E+00;  0.0000000E+00;  1.0000000E+03;  4.0000001E-01;  0.0000000E+00;0;  0.0000000E+00;  0.0000000E+00;  0.0000000E+00;0;  0.0000000E+00;  1.0000000E+04;  0.0000000E+00;  0.0000000E+00;  1.0000000E+04;  0.0000000E+00;  1.0000000E+04;  0.0000000E+00;  0.0000000E+00;  0.0000000E+00;  0.0000000E+00;
  2.2400000E+00;  9.9999998E-03;  3.0000001E-01;1014;  0.0000000E+00;  0.0000000E+00;  0.0000000E+00;  1.0000000E+03;  4.0000001E-01;  0.0000000E+00;0;  0.0000000E+00;  0.0000000E+00;  0.0000000E+00;0;  0.0000000E+00;  1.0000000E+04;  0.0000000E+00;  0.0000000E+00;  1.0000000E+04;  0.0000000E+00;  1.0000000E+04;  0.0000000E+00;  0.0000000E+00;  0.0000000E+00;  0.0000000E+00;
  2.2400000E+00;  9.9999998E-03;  3.1999999E-01;1015;  0.0000000E+00;  0.0000000E+00;  0.0000000E+00;  1.0000000E+03;  4.0000001E-01;  0.0000000E+00;0;  0.0000000E+00;  0.0000000E+00;  0.0000000E+00;0;  0.0000000E+00;  1.0000000E+04;  0.0000000E+00;  0.0000000E+00;  1.0000000E+04;  0.0000000E+00;  1.0000000E+04;  0.0000000E+00;  0.0000000E+00;  0.0000000E+00;  0.0000000E+00;
  2.2400000E+00;  9.9999998E-03;  3.4000000E-01;1016;  0.0000000E+00;  0.0000000E+00;  0.0000000E+00;  1.0000000E+03;  4.0000001E-01;  0.0000000E+00;0;  0.0000000E+00;  0.0000000E+00;  0.0000000E+00;0;  0.0000000E+00;  1.0000000E+04;  0.0000000E+00;  0.0000000E+00;  1.0000000E+04;  0.0000000E+00;  1.0000000E+04;  0.0000000E+00;  0.0000000E+00;  0.0000000E+00;  0.0000000E+00;
  2.2400000E+00;  9.9999998E-03;  3.6000001E-01;1017;  0.0000000E+00;  0.0000000E+00;  0.0000000E+00;  1.0000000E+03;  4.0000001E-01;  0.0000000E+00;0;  0.0000000E+00;  0.0000000E+00;  0.0000000E+00;0;  0.0000000E+00;  1.0000000E+04;  0.0000000E+00;  0.0000000E+00;  1.0000000E+04;  0.0000000E+00;  1.0000000E+04;  0.0000000E+00;  0.0000000E+00;  0.0000000E+00;  0.0000000E+00;
  2.2400000E+00;  9.9999998E-03;  3.8000000E-01;1018;  0.0000000E+00;  0.0000000E+00;  0.0000000E+00;  1.0000000E+03;  4.0000001E-01;  0.0000000E+00;0;  0.0000000E+00;  0.0000000E+00;  0.0000000E+00;0;  0.0000000E+00;  1.0000000E+04;  0.0000000E+00;  0.0000000E+00;  1.0000000E+04;  0.0000000E+00;  1.0000000E+04;  0.0000000E+00;  0.0000000E+00;  0.0000000E+00;  0.0000000E+00;
  2.2600000E+00;  9.9999998E-03;  2.2000000E-01;1019;  0.0000000E+00;  0.0000000E+00;  0.0000000E+00;  1.0000000E+03;  4.0000001E-01;  0.0000000E+00;0;  0.0000000E+00;  0.0000000E+00;  0.0000000E+00;0;  0.0000000E+00;  1.0000000E+04;  0.0000000E+00;  0.0000000E+00;  1.0000000E+04;  0.0000000E+00;  1.0000000E+04;  0.0000000E+00;  0.0000000E+00;  0.0000000E+00;  0.0000000E+00;
  2.2600000E+00;  9.9999998E-03;  2.3999999E-01;1020;  0.0000000E+00;  0.0000000E+00;  0.0000000E+00;  1.0000000E+03;  4.0000001E-01;  0.0000000E+00;0;  0.0000000E+00;  0.0000000E+00;  0.0000000E+00;0;  0.0000000E+00;  1.0000000E+04;  0.0000000E+00;  0.0000000E+00;  1.0000000E+04;  0.0000000E+00;  1.0000000E+04;  0.0000000E+00;  0.0000000E+00;  0.0000000E+00;  0.0000000E+00;
  2.2600000E+00;  9.9999998E-03;  2.5999999E-01;1021;  0.0000000E+00;  0.0000000E+00;  0.0000000E+00;  1.0000000E+03;  4.0000001E-01;  0.0000000E+00;0;  0.0000000E+00;  0.0000000E+00;  0.0000000E+00;0;  0.0000000E+00;  1.0000000E+04;  0.0000000E+00;  0.0000000E+00;  1.0000000E+04;  0.0000000E+00;  1.0000000E+04;  0.0000000E+00;  0.0000000E+00;  0.0000000E+00;  0.0000000E+00;
  2.2600000E+00;  9.9999998E-03;  2.8000000E-01;1022;  0.0000000E+00;  0.0000000E+00;  0.0000000E+00;  1.0000000E+03;  4.0000001E-01;  0.0000000E+00;0;  0.0000000E+00;  0.0000000E+00;  0.0000000E+00;0;  0.0000000E+00;  1.0000000E+04;  0.0000000E+00;  0.0000000E+00;  1.0000000E+04;  0.0000000E+00;  1.0000000E+04;  0.0000000E+00;  0.0000000E+00;  0.0000000E+00;  0.0000000E+00;
  2.2600000E+00;  9.9999998E-03;  3.0000001E-01;1023;  0.0000000E+00;  0.0000000E+00;  0.0000000E+00;  1.0000000E+03;  4.0000001E-01;  0.0000000E+00;0;  0.0000000E+00;  0.0000000E+00;  0.0000000E+00;0;  0.0000000E+00;  1.0000000E+04;  0.0000000E+00;  0.0000000E+00;  1.0000000E+04;  0.0000000E+00;  1.0000000E+04;  0.0000000E+00;  0.0000000E+00;  0.0000000E+00;  0.0000000E+00;
  2.2600000E+00;  9.9999998E-03;  3.1999999E-01;1024;  0.0000000E+00;  0.0000000E+00;  0.0000000E+00;  1.0000000E+03;  4.0000001E-01;  0.0000000E+00;0;  0.0000000E+00;  0.0000000E+00;  0.0000000E+00;0;  0.0000000E+00;  1.0000000E+04;  0.0000000E+00;  0.0000000E+00;  1.0000000E+04;  0.0000000E+00;  1.0000000E+04;  0.0000000E+00;  0.0000000E+00;  0.0000000E+00;  0.0000000E+00;
  2.2600000E+00;  9.9999998E-03;  3.4000000E-01;1025;  0.0000000E+00;  0.0000000E+00;  0.0000000E+00;  1.0000000E+03;  4.0000001E-01;  0.0000000E+00;0;  0.0000000E+00;  0.0000000E+00;  0.0000000E+00;0;  0.0000000E+00;  1.0000000E+04;  0.0000000E+00;  0.0000000E+00;  1.0000000E+04;  0.0000000E+00;  1.0000000E+04;  0.0000000E+00;  0.0000000E+00;  0.0000000E+00;  0.0000000E+00;
  2.2600000E+00;  9.9999998E-03;  3.6000001E-01;1026;  0.0000000E+00;  0.0000000E+00;  0.0000000E+00;  1.0000000E+03;  4.0000001E-01;  0.0000000E+00;0;  0.0000000E+00;  0.0000000E+00;  0.0000000E+00;0;  0.0000000E+00;  1.0000000E+04;  0.0000000E+00;  0.0000000E+00;  1.0000000E+04;  0.0000000E+00;  1.0000000E+04;  0.0000000E+00;  0.0000000E+00;  0.0000000E+00;  0.0000000E+00;
  2.2600000E+00;  9.9999998E-03;  3.8000000E-01;1027;  0.0000000E+00;  0.0000000E+00;  0.0000000E+00;  1.0000000E+03;  4.0000001E-01;  0.0000000E+00;0;  0.0000000E+00;  0.0000000E+00;  0.0000000E+00;0;  0.0000000E+00;  1.0000000E+04;  0.0000000E+00;  0.0000000E+00;  1.0000000E+04;  0.0000000E+00;  1.0000000E+04;  0.0000000E+00;  0.0000000E+00;  0.0000000E+00;  0.0000000E+00;
  2.2800000E+00;  9.9999998E-03;  3.1999999E-01;1028;  0.0000000E+00;  0.0000000E+00;  0.0000000E+00;  1.0000000E+03;  4.0000001E-01;  0.0000000E+00;0;  0.0000000E+00;  0.0000000E+00;  0.0000000E+00;0;  0.0000000E+00;  1.0000000E+04;  0.0000000E+00;  0.0000000E+00;  1.0000000E+04;  0.0000000E+00;  1.0000000E+04;  0.0000000E+00;  0.0000000E+00;  0.0000000E+00;  0.0000000E+00;
  2.2800000E+00;  9.9999998E-03;  3.4000000E-01;1029;  0.0000000E+00;  0.0000000E+00;  0.0000000E+00;  1.0000000E+03;  4.0000001E-01;  0.0000000E+00;0;  0.0000000E+00;  0.0000000E+00;  0.0000000E+00;0;  0.0000000E+00;  1.0000000E+04;  0.0000000E+00;  0.0000000E+00;  1.0000000E+04;  0.0000000E+00;  1.0000000E+04;  0.0000000E+00;  0.0000000E+00;  0.0000000E+00;  0.0000000E+00;
  2.2800000E+00;  9.9999998E-03;  3.6000001E-01;1030;  0.0000000E+00;  0.0000000E+00;  0.0000000E+00;  1.0000000E+03;  4.0000001E-01;  0.0000000E+00;0;  0.0000000E+00;  0.0000000E+00;  0.0000000E+00;0;  0.0000000E+00;  1.0000000E+04;  0.0000000E+00;  0.0000000E+00;  1.0000000E+04;  0.0000000E+00;  1.0000000E+04;  0.0000000E+00;  0.0000000E+00;  0.0000000E+00;  0.0000000E+00;
 -1.9276167E-06;  9.9999998E-03; -2.8000075E-01;1031; -1.3914356E-03;  0.0000000E+00; -5.3831615E-04;  1.0000425E+03;  4.0000001E-01;  3.5258255E+01;3; -1.0860441E+00;  0.0000000E+00; -4.2485476E-01;0; -2.7877284E-02;  1.0000788E+04;  0.0000000E+00; -3.0275208E-07;  1.0000000E+04;  0.0000000E+00;  1.0000063E+04; -2.5820587E-02;  0.0000000E+00; -2.0566981E-03;  2.5056526E+01;
 -2.3446812E-06;  9.9999998E-03; -2.6000071E-01;1032; -1.6976772E-03;  0.0000000E+00; -5.1911589E-04;  1.0000507E+03;  4.0000001E-01;  4.1974113E+01;3; -1.2724881E+00;  0.0000000E+00; -3.9368427E-01;0; -3.3319883E-02;  1.0000991E+04;  0.0000000E+00; -1.1177636E-07;  1.0000000E+04;  0.0000000E+00;  1.0000025E+04; -3.2422375E-02;  0.0000000E+00; -8.9750899E-04;  8.1878357E+00;
 -2.6968603E-06;  9.9999998E-03; -2.4000065E-01;1033; -1.9571295E-03;  0.0000000E+00; -4.7033670E-04;  1.0000576E+03;  4.0000001E-01;  4.7702347E+01;3; -1.4270425E+00;  0.0000000E+00; -3.4835303E-01;0; -3.7820064E-02;  1.0001161E+04;  0.0000000E+00; -6.0035346E-09;  1.0000000E+04;  0.0000000E+00;  9.9999922E+03; -3.8090605E-02;  0.0000000E+00;  2.7054222E-04;  8.6202679E+00;
 -2.9711139E-06;  9.9999998E-03; -2.2000055E-01;1034; -2.1601568E-03;  0.0000000E+00; -4.0697501E-04;  1.0000630E+03;  4.0000001E-01;  5.2146664E+01;3; -1.5519156E+00;  0.0000000E+00; -2.9842049E-01;0; -4.1382026E-02;  1.0001296E+04;  0.0000000E+00;  1.6188302E-08;  1.0000000E+04;  0.0000000E+00;  9.9999639E+03; -4.2551361E-02;  0.0000000E+00;  1.1693351E-03;  2.1489750E+01;
 -3.1737061E-06;  9.9999998E-03; -2.0000046E-01;1035; -2.3095836E-03;  0.0000000E+00; -3.3831899E-04;  1.0000670E+03;  4.0000001E-01;  5.5504593E+01;3; -1.6490698E+00;  0.0000000E+00; -2.4922889E-01;0; -4.4116300E-02;  1.0001393E+04;  0.0000000E+00;  3.7817229E-09;  1.0000000E+04;  0.0000000E+00;  9.9999492E+03; -4.5813959E-02;  0.0000000E+00;  1.6976612E-03;  2.9031834E+01;
  1.9998077E-02;  9.9999998E-03; -3.0000100E-01;1060; -1.3644868E-03;  0.0000000E+00; -7.0447871E-04;  1.0000415E+03;  4.0000001E-01;  3.4369392E+01;3; -1.0509577E+00;  0.0000000E+00; -5.5090284E-01;0; -2.6807198E-02;  1.0000718E+04;  0.0000000E+00; -3.9876275E-07;  1.0000000E+04;  0.0000000E+00;  1.0000114E+04; -2.3173168E-02;  0.0000000E+00; -3.6340307E-03;  4.8254856E+01;
  1.9997310E-02;  9.9999998E-03; -2.8000093E-01;1061; -1.9220955E-03;  0.0000000E+00; -6.5506325E-04;  1.0000527E+03;  4.0000001E-01;  4.3653080E+01;3; -1.3885169E+00;  0.0000000E+00; -4.7629499E-01;0; -3.3965286E-02;  1.0000973E+04;  0.0000000E+00; -1.4254525E-07;  1.0000000E+04;  0.0000000E+00;  1.0000078E+04; -3.1359322E-02;  0.0000000E+00; -2.6059642E-03;  3.2488819E+01;
  1.9996654E-02;  9.9999998E-03; -2.6000091E-01;1062; -2.4000860E-03;  0.0000000E+00; -6.5007235E-04;  1.0000621E+03;  4.0000001E-01;  5.1455326E+01;3; -1.6426339E+00;  0.0000000E+00; -4.4839406E-01;0; -4.0174294E-02;  1.0001211E+04;  0.0000000E+00;  8.6677439E-08;  1.0000000E+04;  0.0000000E+00;  1.0000031E+04; -3.9098520E-02;  0.0000000E+00; -1.0757732E-03;  9.8739967E+00;
  1.9996127E-02;  9.9999998E-03; -2.4000084E-01;1063; -2.7869244E-03;  0.0000000E+00; -6.0473435E-04;  1.0000698E+03;  4.0000001E-01;  5.7776134E+01;3; -1.8372583E+00;  0.0000000E+00; -4.0474725E-01;0; -4.5241695E-02;  1.0001412E+04;  0.0000000E+00;  1.7355202E-07;  1.0000000E+04;  0.0000000E+00;  9.9999854E+03; -4.5670807E-02;  0.0000000E+00;  4.2911421E-04;  1.2151670E+01;
  1.9995729E-02;  9.9999998E-03; -2.2000074E-01;1064; -3.0792619E-03;  0.0000000E+00; -5.3370674E-04;  1.0000759E+03;  4.0000001E-01;  6.2911793E+01;3; -1.9892011E+00;  0.0000000E+00; -3.5293388E-01;0; -4.9195118E-02;  1.0001569E+04;  0.0000000E+00;  1.5088291E-07;  1.0000000E+04;  0.0000000E+00;  9.9999492E+03; -5.0768733E-02;  0.0000000E+00;  1.5736134E-03;  2.8798546E+01;
  1.9995444E-02;  9.9999998E-03; -2.0000061E-01;1065; -3.2877587E-03;  0.0000000E+00; -4.4912274E-04;  1.0000804E+03;  4.0000001E-01;  6.6664772E+01;3; -2.1064835E+00;  0.0000000E+00; -2.9895276E-01;0; -5.2186821E-02;  1.0001682E+04;  0.0000000E+00;  8.5686587E-08;  1.0000000E+04;  0.0000000E+00;  9.9999297E+03; -5.4427486E-02;  0.0000000E+00;  2.2406643E-03;  3.8425591E+01;
  3.9997302E-02;  9.9999998E-03; -3.0000111E-01;1091; -1.8975129E-03;  0.0000000E+00; -7.6944736E-04;  1.0000497E+03;  4.0000001E-01;  4.1184013E+01;3; -1.3882732E+00;  0.0000000E+00; -5.6561136E-01;0; -3.1405684E-02;  1.0000856E+04;  0.0000000E+00; -3.9551827E-07;  1.0000000E+04;  0.0000000E+00;  1.0000140E+04; -2.7043546E-02;  0.0000000E+00; -4.3621366E-03;  5.9473133E+01;
  3.9996237E-02;  9.9999998E-03; -2.8000107E-01;1092; -2.6660590E-03;  0.0000000E+00; -7.3571602E-04;  1.0000623E+03;  4.0000001E-01;  5.1554089E+01;3; -1.8025546E+00;  0.0000000E+00; -4.9390054E-01;0; -3.9455239E-02;  1.0001151E+04;  0.0000000E+00; -1.6158215E-07;  1.0000000E+04;  0.0000000E+00;  1.0000094E+04; -3.6435060E-02;  0.0000000E+00; -3.0201788E-03;  3.8598228E+01;
  3.9995324E-02;  9.9999998E-03; -2.6000103E-01;1093; -3.3271050E-03;  0.0000000E+00; -7.2034117E-04;  1.0000731E+03;  4.0000001E-01;  6.0541489E+01;3; -2.1048470E+00;  0.0000000E+00; -4.5300102E-01;0; -4.6363138E-02;  1.0001427E+04;  0.0000000E+00;  8.8296041E-08;  1.0000000E+04;  0.0000000E+00;  1.0000034E+04; -4.5193523E-02;  0.0000000E+00; -1.1696141E-03;  1.0564860E+01;
  3.9994583E-02;  9.9999998E-03; -2.4000096E-01;1094; -3.8638629E-03;  0.0000000E+00; -6.7181379E-04;  1.0000817E+03;  4.0000001E-01;  6.7751160E+01;3; -2.3355508E+00;  0.0000000E+00; -4.0748405E-01;0; -5.1890381E-02;  1.0001655E+04;  0.0000000E+00;  2.0948343E-07;  1.0000000E+04;  0.0000000E+00;  9.9999785E+03; -5.2496012E-02;  0.0000000E+00;  6.0563092E-04;  1.6105450E+01;
  3.9994039E-02;  9.9999998E-03; -2.2000085E-01;1095; -4.2625051E-03;  0.0000000E+00; -6.0131692E-04;  1.0000882E+03;  4.0000001E-01;  7.3084343E+01;3; -2.5136523E+00;  0.0000000E+00; -3.6073565E-01;0; -5.6099910E-02;  1.0001830E+04;  0.0000000E+00;  1.9870832E-07;  1.0000000E+04;  0.0000000E+00;  9.9999375E+03; -5.8035497E-02;  0.0000000E+00;  1.9355858E-03;  3.5935219E+01;
  3.9993655E-02;  9.9999998E-03; -2.0000072E-01;1096; -4.5417096E-03;  0.0000000E+00; -5.1021768E-04;  1.0000930E+03;  4.0000001E-01;  7.7034843E+01;3; -2.6526632E+00;  0.0000000E+00; -3.0920237E-01;0; -5.9203222E-02;  1.0001947E+04;  0.0000000E+00;  1.2651429E-07;  1.0000000E+04;  0.0000000E+00;  9.9999131E+03; -6.1901838E-02;  0.0000000E+00;  2.6986154E-03;  4.7167255E+01;
  5.9996333E-02;  9.9999998E-03; -3.0000120E-01;1122; -2.5545415E-03;  0.0000000E+00; -8.1009511E-04;  1.0000582E+03;  4.0000001E-01;  4.8196159E+01;3; -1.7981601E+00;  0.0000000E+00; -5.6128407E-01;0; -3.5939224E-02;  1.0001004E+04;  0.0000000E+00; -9.2020800E-06;  1.0000000E+04;  0.0000000E+00;  1.0000160E+04; -3.1067286E-02;  0.0000000E+00; -4.8719393E-03;  6.8540825E+01;
  5.9994906E-02;  9.9999998E-03; -2.8000116E-01;1123; -3.5695373E-03;  0.0000000E+00; -7.6544553E-04;  1.0000728E+03;  4.0000001E-01;  6.0245201E+01;3; -2.2951922E+00;  0.0000000E+00; -4.7588563E-01;0; -4.4952076E-02;  1.0001346E+04;  0.0000000E+00; -2.8310299E-06;  1.0000000E+04;  0.0000000E+00;  1.0000104E+04; -4.1678190E-02;  0.0000000E+00; -3.2738841E-03;  4.3001076E+01;
  5.9993707E-02;  9.9999998E-03; -2.6000112E-01;1124; -4.4272984E-03;  0.0000000E+00; -7.5131870E-04;  1.0000848E+03;  4.0000001E-01;  7.0318985E+01;3; -2.6379874E+00;  0.0000000E+00; -4.3431520E-01;0; -5.2602008E-02;  1.0001659E+04;  0.0000000E+00; -3.3350227E-07;  1.0000000E+04;  0.0000000E+00;  1.0000035E+04; -5.1428799E-02;  0.0000000E+00; -1.1732087E-03;  1.0079294E+01;
  5.9992749E-02;  9.9999998E-03; -2.4000104E-01;1125; -5.1173619E-03;  0.0000000E+00; -7.0373452E-04;  1.0000944E+03;  4.0000001E-01;  7.8220001E+01;3; -2.8946602E+00;  0.0000000E+00; -3.9253259E-01;0; -5.8594950E-02;  1.0001916E+04;  0.0000000E+00; -7.3139859E-08;  1.0000000E+04;  0.0000000E+00;  9.9999717E+03; -5.9384864E-02;  0.0000000E+00;  7.8991253E-04;  2.0495932E+01;
  5.9992041E-02;  9.9999998E-03; -2.2000092E-01;1126; -5.6262789E-03;  0.0000000E+00; -6.3145900E-04;  1.0001014E+03;  4.0000001E-01;  8.3948227E+01;3; -3.0968475E+00;  0.0000000E+00; -3.4940130E-01;0; -6.3023165E-02;  1.0002105E+04;  0.0000000E+00;  5.6642698E-08;  1.0000000E+04;  0.0000000E+00;  9.9999238E+03; -6.5252133E-02;  0.0000000E+00;  2.2289651E-03;  4.2729828E+01;
  5.9991561E-02;  9.9999998E-03; -2.0000078E-01;1127; -5.9756362E-03;  0.0000000E+00; -5.3765374E-04;  1.0001063E+03;  4.0000001E-01;  8.8096260E+01;3; -3.2557421E+00;  0.0000000E+00; -3.0239964E-01;0; -6.6168875E-02;  1.0002230E+04;  0.0000000E+00;  7.8489528E-08;  1.0000000E+04;  0.0000000E+00;  9.9998975E+03; -6.9201283E-02;  0.0000000E+00;  3.0324087E-03;  5.4930946E+01;
  7.9995163E-02;  9.9999998E-03; -3.0000132E-01;1153; -3.3271592E-03;  0.0000000E+00; -8.4772188E-04;  1.0000685E+03;  4.0000001E-01;  5.6788509E+01;3; -2.2786627E+00;  0.0000000E+00; -5.5698633E-01;0; -4.1164100E-02;  1.0001191E+04;  0.0000000E+00; -9.1430248E-04;  1.0000000E+04;  0.0000000E+00;  1.0000177E+04; -3.5988461E-02;  0.0000000E+00; -5.1756399E-03;  7.5717896E+01;
  7.9993330E-02;  9.9999998E-03; -2.8000122E-01;1154; -4.6171341E-03;  0.0000000E+00; -7.6972437E-04;  1.0000851E+03;  4.0000001E-01;  7.0516510E+01;3; -2.8653612E+00;  0.0000000E+00; -4.4553900E-01;0; -5.1241472E-02;  1.0001589E+04;  0.0000000E+00; -5.1178795E-04;  1.0000000E+04;  0.0000000E+00;  1.0000113E+04; -4.7864884E-02;  0.0000000E+00; -3.3765887E-03;  4.5788502E+01;
  7.9991810E-02;  9.9999998E-03; -2.6000118E-01;1155; -5.6846654E-03;  0.0000000E+00; -7.5091014E-04;  1.0000986E+03;  4.0000001E-01;  8.1676689E+01;3; -3.2485223E+00;  0.0000000E+00; -4.0221047E-01;0; -5.9684020E-02;  1.0001938E+04;  0.0000000E+00; -1.7741346E-04;  1.0000000E+04;  0.0000000E+00;  1.0000033E+04; -5.8585957E-02;  0.0000000E+00; -1.0980638E-03;  8.4683285E+00;
  7.9990625E-02;  9.9999998E-03; -2.4000108E-01;1156; -6.5291151E-03;  0.0000000E+00; -7.0300396E-04;  1.0001092E+03;  4.0000001E-01;  9.0466560E+01;3; -3.5296836E+00;  0.0000000E+00; -3.6321878E-01;0; -6.6178747E-02;  1.0002222E+04;  0.0000000E+00; -1.9647176E-05;  1.0000000E+04;  0.0000000E+00;  9.9999639E+03; -6.7150190E-02;  0.0000000E+00;  9.7144512E-04;  2.5357697E+01;
  7.9989761E-02;  9.9999998E-03; -2.2000097E-01;1157; -7.1427878E-03;  0.0000000E+00; -6.3184212E-04;  1.0001169E+03;  4.0000001E-01;  9.6787369E+01;3; -3.7504449E+00;  0.0000000E+00; -3.2770425E-01;0; -7.0841737E-02;  1.0002423E+04;  0.0000000E+00; -3.5271430E-07;  1.0000000E+04;  0.0000000E+00;  9.9999131E+03; -7.3288403E-02;  0.0000000E+00;  2.4466633E-03;  4.9271015E+01;
  7.9989187E-02;  9.9999998E-03; -2.0000081E-01;1158; -7.5558908E-03;  0.0000000E+00; -5.3765887E-04;  1.0001217E+03;  4.0000001E-01;  1.0083664E+02;3; -3.9278553E+00;  0.0000000E+00; -2.8597158E-01;0; -7.4006513E-02;  1.0002549E+04;  0.0000000E+00; -9.6170290E-08;  1.0000000E+04;  0.0000000E+00;  9.9998877E+03; -7.7246018E-02;  0.0000000E+00;  3.2395043E-03;  6.1864033E+01;
  9.9993750E-02;  9.9999998E-03; -3.0000144E-01;1184; -4.2365897E-03;  0.0000000E+00; -8.9630368E-04;  1.0000826E+03;  4.0000001E-01;  6.8442497E+01;3; -2.8443379E+00;  0.0000000E+00; -5.6193542E-01;0; -4.8506867E-02;  1.0001464E+04;  0.0000000E+00; -8.2094194E-03;  1.0000000E+04;  0.0000000E+00;  1.0000190E+04; -4.3165457E-02;  0.0000000E+00; -5.3414102E-03;  9.1695549E+01;
  9.9991448E-02;  9.9999998E-03; -2.8000128E-01;1185; -5.8311452E-03;  0.0000000E+00; -7.5985072E-04;  1.0001016E+03;  4.0000001E-01;  8.4145752E+01;3; -3.5301712E+00;  0.0000000E+00; -4.0969419E-01;0; -5.9600048E-02;  1.0001908E+04;  0.0000000E+00; -5.1910514E-03;  1.0000000E+04;  0.0000000E+00;  1.0000119E+04; -5.6222174E-02;  0.0000000E+00; -3.3778725E-03;  5.4244938E+01;
  9.9989593E-02;  9.9999998E-03; -2.6000121E-01;1186; -7.1179266E-03;  0.0000000E+00; -7.2604610E-04;  1.0001166E+03;  4.0000001E-01;  9.6589844E+01;3; -3.9528809E+00;  0.0000000E+00; -3.6034513E-01;0; -6.8631418E-02;  1.0002301E+04;  0.0000000E+00; -2.3878932E-03;  1.0000000E+04;  0.0000000E+00;  1.0000031E+04; -6.7661561E-02;  0.0000000E+00; -9.6985442E-04;  1.3582417E+01;
  9.9988163E-02;  9.9999998E-03; -2.4000111E-01;1187; -8.1154639E-03;  0.0000000E+00; -6.7602645E-04;  1.0001277E+03;  4.0000001E-01;  1.0577477E+02;3; -4.2547221E+00;  0.0000000E+00; -3.2516754E-01;0; -7.5437717E-02;  1.0002602E+04;  0.0000000E+00; -6.5509079E-04;  1.0000000E+04;  0.0000000E+00;  9.9999551E+03; -7.6579943E-02;  0.0000000E+00;  1.1422294E-03;  3.1041094E+01;
  9.9987149E-02;  9.9999998E-03; -2.2000098E-01;1188; -8.8257631E-03;  0.0000000E+00; -6.0984434E-04;  1.0001357E+03;  4.0000001E-01;  1.1239187E+02;3; -4.4918051E+00;  0.0000000E+00; -2.9781163E-01;0; -8.0233455E-02;  1.0002809E+04;  0.0000000E+00; -7.2829564E-05;  1.0000000E+04;  0.0000000E+00;  9.9999033E+03; -8.2829081E-02;  0.0000000E+00;  2.5956226E-03;  5.5886539E+01;
  9.9986486E-02;  9.9999998E-03; -2.0000082E-01;1189; -9.2939958E-03;  0.0000000E+00; -5.1873300E-04;  1.0001407E+03;  4.0000001E-01;  1.1653989E+02;3; -4.6845698E+00;  0.0000000E+00; -2.6344150E-01;0; -8.3376110E-02;  1.0002941E+04;  0.0000000E+00; -3.9991929E-07;  1.0000000E+04;  0.0000000E+00;  9.9998770E+03; -8.6719476E-02;  0.0000000E+00;  3.3433654E-03;  6.8479469E+01;
  1.1999203E-01;  9.9999998E-03; -3.0000165E-01;1215; -5.3214547E-03;  0.0000000E+00; -9.7923307E-04;  1.0001050E+03;  4.0000001E-01;  8.7009872E+01;3; -3.5146604E+00;  0.0000000E+00; -5.9300184E-01;0; -6.0138367E-02;  1.0001896E+04;  0.0000000E+00; -3.5073023E-02;  1.0000000E+04;  0.0000000E+00;  1.0000204E+04; -5.4669991E-02;  0.0000000E+00; -5.4683741E-03;  2.0127626E+02;
  1.1998918E-01;  9.9999998E-03; -2.8000134E-01;1216; -7.2535551E-03;  0.0000000E+00; -7.5519766E-04;  1.0001252E+03;  4.0000001E-01;  1.0370075E+02;3; -4.3074889E+00;  0.0000000E+00; -3.7917709E-01;0; -7.1908273E-02;  1.0002383E+04;  0.0000000E+00; -2.3981372E-02;  1.0000000E+04;  0.0000000E+00;  1.0000122E+04; -6.8553343E-02;  0.0000000E+00; -3.3549261E-03;  1.3312598E+02;
  1.1998696E-01;  9.9999998E-03; -2.6000124E-01;1217; -8.7677948E-03;  0.0000000E+00; -6.9203088E-04;  1.0001407E+03;  4.0000001E-01;  1.1663866E+02;3; -4.7642307E+00;  0.0000000E+00; -3.1561542E-01;0; -8.0770396E-02;  1.0002783E+04;  0.0000000E+00; -1.2029572E-02;  1.0000000E+04;  0.0000000E+00;  1.0000025E+04; -7.9958044E-02;  0.0000000E+00; -8.1235426E-04;  6.2371410E+01;
  1.1998528E-01;  9.9999998E-03; -2.4000111E-01;1218; -9.9173095E-03;  0.0000000E+00; -6.3643645E-04;  1.0001514E+03;  4.0000001E-01;  1.2542854E+02;3; -5.0777655E+00;  0.0000000E+00; -2.8596187E-01;0; -8.7214291E-02;  1.0003083E+04;  0.0000000E+00; -4.1616326E-03;  1.0000000E+04;  0.0000000E+00;  9.9999443E+03; -8.8537678E-02;  0.0000000E+00;  1.3233902E-03;  4.3547455E+01;
  1.1998413E-01;  9.9999998E-03; -2.2000100E-01;1219; -1.0717927E-02;  0.0000000E+00; -5.7703943E-04;  1.0001588E+03;  4.0000001E-01;  1.3155182E+02;3; -5.3294702E+00;  0.0000000E+00; -2.6437306E-01;0; -9.1702387E-02;  1.0003290E+04;  0.0000000E+00; -8.2493242E-04;  1.0000000E+04;  0.0000000E+00;  9.9998896E+03; -9.4424471E-02;  0.0000000E+00;  2.7220831E-03;  6.3777420E+01;
  1.1998339E-01;  9.9999998E-03; -2.0000082E-01;1220; -1.1232391E-02;  0.0000000E+00; -4.9409311E-04;  1.0001639E+03;  4.0000001E-01;  1.3579861E+02;3; -5.5332260E+00;  0.0000000E+00; -2.4006774E-01;0; -9.4609588E-02;  1.0003410E+04;  0.0000000E+00; -5.7408979E-05;  1.0000000E+04;  0.0000000E+00;  9.9998643E+03; -9.8012291E-02;  0.0000000E+00;  3.4027016E-03;  7.5881477E+01;
  1.3998987E-01;  9.9999998E-03; -3.0000195E-01;1246; -6.6363025E-03;  0.0000000E+00; -1.1240247E-03;  1.0001405E+03;  4.0000001E-01;  1.1644113E+02;3; -4.3120117E+00;  0.0000000E+00; -6.7086983E-01;0; -7.8874700E-02;  1.0002589E+04;  0.0000000E+00; -1.0386972E-01;  1.0000000E+04;  0.0000000E+00;  1.0000224E+04; -7.3217042E-02;  0.0000000E+00; -5.6576547E-03;  5.4687366E+02;
  1.3998643E-01;  9.9999998E-03; -2.8000149E-01;1247; -8.9345947E-03;  0.0000000E+00; -7.8368414E-04;  1.0001608E+03;  4.0000001E-01;  1.3323077E+02;3; -5.2105107E+00;  0.0000000E+00; -3.7189817E-01;0; -9.0355977E-02;  1.0003088E+04;  0.0000000E+00; -7.2923906E-02;  1.0000000E+04;  0.0000000E+00;  1.0000130E+04; -8.6954810E-02;  0.0000000E+00; -3.4011705E-03;  3.8156534E+02;
  1.3998382E-01;  9.9999998E-03; -2.6000130E-01;1248; -1.0679916E-02;  0.0000000E+00; -6.7939638E-04;  1.0001734E+03;  4.0000001E-01;  1.4369962E+02;3; -5.6878271E+00;  0.0000000E+00; -2.8482199E-01;0; -9.7473852E-02;  1.0003453E+04;  0.0000000E+00; -3.7998237E-02;  1.0000000E+04;  0.0000000E+00;  1.0000019E+04; -9.6843548E-02;  0.0000000E+00; -6.3030119E-04;  1.9735960E+02;
  1.3998188E-01;  9.9999998E-03; -2.4000114E-01;1249; -1.1986432E-02;  0.0000000E+00; -6.0571235E-04;  1.0001818E+03;  4.0000001E-01;  1.5061301E+02;3; -6.0114026E+00;  0.0000000E+00; -2.4841428E-01;0; -1.0222837E-01;  1.0003709E+04;  0.0000000E+00; -1.4342474E-02;  1.0000000E+04;  0.0000000E+00;  9.9999277E+03; -1.0381827E-01;  0.0000000E+00;  1.5898987E-03;  8.8783287E+01;
  1.3998058E-01;  9.9999998E-03; -2.2000103E-01;1250; -1.2870832E-02;  0.0000000E+00; -5.5748387E-04;  1.0001876E+03;  4.0000001E-01;  1.5535361E+02;3; -6.2638474E+00;  0.0000000E+00; -2.4071163E-01;0; -1.0554981E-01;  1.0003879E+04;  0.0000000E+00; -3.5326676E-03;  1.0000000E+04;  0.0000000E+00;  9.9998721E+03; -1.0849692E-01;  0.0000000E+00;  2.9471074E-03;  7.7225685E+01;
  1.3997979E-01;  9.9999998E-03; -2.0000087E-01;1251; -1.3424128E-02;  0.0000000E+00; -4.8436251E-04;  1.0001913E+03;  4.0000001E-01;  1.5851401E+02;3; -6.4755855E+00;  0.0000000E+00; -2.2489893E-01;0; -1.0776965E-01;  1.0003980E+04;  0.0000000E+00; -4.4043045E-04;  1.0000000E+04;  0.0000000E+00;  9.9998477E+03; -1.1131675E-01;  0.0000000E+00;  3.5470962E-03;  8.6460434E+01;
  1.5998712E-01;  9.9999998E-03; -3.0000231E-01;1277; -8.2742777E-03;  0.0000000E+00; -1.2967625E-03;  1.0001946E+03;  4.0000001E-01;  1.6118060E+02;3; -5.2901583E+00;  0.0000000E+00; -7.6241875E-01;0; -1.0752093E-01;  1.0003647E+04;  0.0000000E+00; -2.4110039E-01;  1.0000000E+04;  0.0000000E+00;  1.0000247E+04; -1.0146990E-01;  0.0000000E+00; -6.0510351E-03;  1.2575679E+03;
  1.5998307E-01;  9.9999998E-03; -2.8000170E-01;1278; -1.0925694E-02;  0.0000000E+00; -8.5788005E-04;  1.0002115E+03;  4.0000001E-01;  1.7530367E+02;3; -6.2523942E+00;  0.0000000E+00; -3.9253521E-01;0; -1.1658142E-01;  1.0004089E+04;  0.0000000E+00; -1.6793570E-01;  1.0000000E+04;  0.0000000E+00;  1.0000137E+04; -1.1297768E-01;  0.0000000E+00; -3.6037434E-03;  8.7476178E+02;
  1.5998006E-01;  9.9999998E-03; -2.6000145E-01;1279; -1.2898625E-02;  0.0000000E+00; -7.1724388E-04;  1.0002171E+03;  4.0000001E-01;  1.7984674E+02;3; -6.7209949E+00;  0.0000000E+00; -2.8926373E-01;0; -1.1947916E-01;  1.0004344E+04;  0.0000000E+00; -8.8012047E-02;  1.0000000E+04;  0.0000000E+00;  1.0000001E+04; -1.1910412E-01;  0.0000000E+00; -3.7504709E-04;  4.5811108E+02;
  1.5997787E-01;  9.9999998E-03; -2.4000126E-01;1280; -1.4361786E-02;  0.0000000E+00; -6.2631280E-04;  1.0002198E+03;  4.0000001E-01;  1.8211829E+02;3; -7.0468683E+00;  0.0000000E+00; -2.3981071E-01;0; -1.2071628E-01;  1.0004497E+04;  0.0000000E+00; -3.4332570E-02;  1.0000000E+04;  0.0000000E+00;  9.9998965E+03; -1.2281666E-01;  0.0000000E+00;  2.1003790E-03;  1.9045944E+02;
  1.5997644E-01;  9.9999998E-03; -2.2000113E-01;1281; -1.5330361E-02;  0.0000000E+00; -5.8319047E-04;  1.0002217E+03;  4.0000001E-01;  1.8369849E+02;3; -7.2999592E+00;  0.0000000E+00; -2.3755896E-01;0; -1.2176393E-01;  1.0004600E+04;  0.0000000E+00; -9.3392441E-03;  1.0000000E+04;  0.0000000E+00;  9.9998350E+03; -1.2525149E-01;  0.0000000E+00;  3.4875609E-03;  1.0618952E+02;
  1.5997559E-01;  9.9999998E-03; -2.0000097E-01;1282; -1.5913179E-02;  0.0000000E+00; -5.2048528E-04;  1.0002236E+03;  4.0000001E-01;  1.8527869E+02;3; -7.5118337E+00;  0.0000000E+00; -2.3329496E-01;0; -1.2272564E-01;  1.0004654E+04;  0.0000000E+00; -1.4899839E-03;  1.0000000E+04;  0.0000000E+00;  9.9998145E+03; -1.2672395E-01;  0.0000000E+00;  3.9983089E-03;  1.0451003E+02;
  1.7998350E-01;  9.9999998E-03; -3.0000255E-01;1308; -1.0407796E-02;  0.0000000E+00; -1.3372722E-03;  1.0002703E+03;  4.0000001E-01;  2.2389487E+02;3; -6.5634527E+00;  0.0000000E+00; -7.3773479E-01;0; -1.4714643E-01;  1.0005106E+04;  0.0000000E+00; -4.5044816E-01;  1.0000000E+04;  0.0000000E+00;  1.0000300E+04; -1.3984026E-01;  0.0000000E+00; -7.3061758E-03;  2.3504297E+03;
  1.7997897E-01;  9.9999998E-03; -2.8000194E-01;1309; -1.3295419E-02;  0.0000000E+00; -9.4550749E-04;  1.0002767E+03;  4.0000001E-01;  2.2922804E+02;3; -7.4615808E+00;  0.0000000E+00; -4.1309261E-01;0; -1.5002270E-01;  1.0005389E+04;  0.0000000E+00; -3.0708724E-01;  1.0000000E+04;  0.0000000E+00;  1.0000147E+04; -1.4593013E-01;  0.0000000E+00; -4.0925737E-03;  1.6014272E+03;
  1.7997557E-01;  9.9999998E-03; -2.6000169E-01;1310; -1.5476330E-02;  0.0000000E+00; -8.0400705E-04;  1.0002707E+03;  4.0000001E-01;  2.2428992E+02;3; -7.8894286E+00;  0.0000000E+00; -3.1281328E-01;0; -1.4594930E-01;  1.0005447E+04;  0.0000000E+00; -1.5884750E-01;  1.0000000E+04;  0.0000000E+00;  9.9999688E+03; -1.4604411E-01;  0.0000000E+00;  9.4796065E-05;  8.2877234E+02;
  1.7997313E-01;  9.9999998E-03; -2.4000150E-01;1311; -1.7078834E-02;  0.0000000E+00; -7.2802411E-04;  1.0002643E+03;  4.0000001E-01;  2.1895674E+02;3; -8.1889553E+00;  0.0000000E+00; -2.7091861E-01;0; -1.4201748E-01;  1.0005451E+04;  0.0000000E+00; -6.2362395E-02;  1.0000000E+04;  0.0000000E+00;  9.9998350E+03; -1.4515974E-01;  0.0000000E+00;  3.1422600E-03;  3.3937488E+02;
  1.7997156E-01;  9.9999998E-03; -2.2000135E-01;1312; -1.8130960E-02;  0.0000000E+00; -6.8997702E-04;  1.0002612E+03;  4.0000001E-01;  2.1638892E+02;3; -8.4331541E+00;  0.0000000E+00; -2.8009760E-01;0; -1.3993208E-01;  1.0005453E+04;  0.0000000E+00; -1.7734291E-02;  1.0000000E+04;  0.0000000E+00;  9.9997725E+03; -1.4459768E-01;  0.0000000E+00;  4.6655987E-03;  1.5814383E+02;
  1.7997068E-01;  9.9999998E-03; -2.0000118E-01;1313; -1.8732021E-02;  0.0000000E+00; -6.3714915E-04;  1.0002602E+03;  4.0000001E-01;  2.1559880E+02;3; -8.6422300E+00;  0.0000000E+00; -2.8385210E-01;0; -1.3923097E-01;  1.0005445E+04;  0.0000000E+00; -3.1839604E-03;  1.0000000E+04;  0.0000000E+00;  9.9997578E+03; -1.4429466E-01;  0.0000000E+00;  5.0636972E-03;  1.3606880E+02;
  1.9997875E-01;  9.9999998E-03; -3.0000263E-01;1339; -1.3193751E-02;  0.0000000E+00; -1.2223272E-03;  1.0003603E+03;  4.0000001E-01;  2.9846066E+02;3; -8.2246552E+00;  0.0000000E+00; -5.8395576E-01;0; -1.9363749E-01;  1.0006795E+04;  0.0000000E+00; -6.6604620E-01;  1.0000000E+04;  0.0000000E+00;  1.0000408E+04; -1.8282390E-01;  0.0000000E+00; -1.0813587E-02;  3.4847947E+03;
  1.9997390E-01;  9.9999998E-03; -2.8000224E-01;1340; -1.6157964E-02;  0.0000000E+00; -1.0218651E-03;  1.0003503E+03;  4.0000001E-01;  2.9016458E+02;3; -8.8891649E+00;  0.0000000E+00; -4.2317390E-01;0; -1.8654081E-01;  1.0006846E+04;  0.0000000E+00; -4.4747961E-01;  1.0000000E+04;  0.0000000E+00;  1.0000164E+04; -1.8138693E-01;  0.0000000E+00; -5.1538851E-03;  2.3387703E+03;
  1.9997020E-01;  9.9999998E-03; -2.6000202E-01;1341; -1.8480297E-02;  0.0000000E+00; -9.3332422E-04;  1.0003294E+03;  4.0000001E-01;  2.7288113E+02;3; -9.2118893E+00;  0.0000000E+00; -3.5172462E-01;0; -1.7402065E-01;  1.0006690E+04;  0.0000000E+00; -2.2754624E-01;  1.0000000E+04;  0.0000000E+00;  9.9999023E+03; -1.7502518E-01;  0.0000000E+00;  1.0045371E-03;  1.1908390E+03;
  1.9996755E-01;  9.9999998E-03; -2.4000189E-01;1342; -2.0195076E-02;  0.0000000E+00; -9.1419229E-04;  1.0003132E+03;  4.0000001E-01;  2.5954819E+02;3; -9.4499397E+00;  0.0000000E+00; -3.4692073E-01;0; -1.6443589E-01;  1.0006538E+04;  0.0000000E+00; -8.8780835E-02;  1.0000000E+04;  0.0000000E+00;  9.9997324E+03; -1.6957182E-01;  0.0000000E+00;  5.1359283E-03;  4.8784381E+02;
  1.9996586E-01;  9.9999998E-03; -2.2000176E-01;1343; -2.1303503E-02;  0.0000000E+00; -9.1063936E-04;  1.0003044E+03;  4.0000001E-01;  2.5223975E+02;3; -9.6697588E+00;  0.0000000E+00; -3.7355113E-01;0; -1.5917532E-01;  1.0006435E+04;  0.0000000E+00; -2.5634432E-02;  1.0000000E+04;  0.0000000E+00;  9.9996563E+03; -1.6607089E-01;  0.0000000E+00;  6.8955766E-03;  2.2836861E+02;
  1.9996499E-01;  9.9999998E-03; -2.0000157E-01;1344; -2.1909358E-02;  0.0000000E+00; -8.6740870E-04;  1.0003010E+03;  4.0000001E-01;  2.4937563E+02;3; -9.8652735E+00;  0.0000000E+00; -3.9244053E-01;0; -1.5686876E-01;  1.0006364E+04;  0.0000000E+00; -4.8478125E-03;  1.0000000E+04;  0.0000000E+00;  9.9996543E+03; -1.6396889E-01;  0.0000000E+00;  7.1001346E-03;  1.8750487E+02;
  2.1997319E-01;  9.9999998E-03; -3.0000401E-01;1370; -1.6340768E-02;  0.0000000E+00; -1.8264576E-03;  1.0004352E+03;  4.0000001E-01;  3.6058234E+02;3; -1.0041782E+01;  0.0000000E+00; -8.6815643E-01;0; -2.3021518E-01;  1.0008298E+04;  0.0000000E+00; -7.8498942E-01;  1.0000000E+04;  0.0000000E+00;  1.0000404E+04; -2.1806569E-01;  0.0000000E+00; -1.2149482E-02;  4.1188501E+03;
  2.1996774E-01;  9.9999998E-03; -2.8000307E-01;1371; -1.9549495E-02;  0.0000000E+00; -1.3936741E-03;  1.0004186E+03;  4.0000001E-01;  3.4675558E+02;3; -1.0541780E+01;  0.0000000E+00; -5.8765888E-01;0; -2.1843649E-01;  1.0008243E+04;  0.0000000E+00; -5.1832694E-01;  1.0000000E+04;  0.0000000E+00;  1.0000127E+04; -2.1287450E-01;  0.0000000E+00; -5.5619883E-03;  2.7160129E+03;
  2.1996380E-01;  9.9999998E-03; -2.6000270E-01;1372; -2.1954853E-02;  0.0000000E+00; -1.2687107E-03;  1.0003866E+03;  4.0000001E-01;  3.2028720E+02;3; -1.0684149E+01;  0.0000000E+00; -4.9551535E-01;0; -1.9960080E-01;  1.0007958E+04;  0.0000000E+00; -2.5963172E-01;  1.0000000E+04;  0.0000000E+00;  9.9997734E+03; -2.0272678E-01;  0.0000000E+00;  3.1259768E-03;  1.3665176E+03;
  2.1996096E-01;  9.9999998E-03; -2.4000251E-01;1373; -2.3757787E-02;  0.0000000E+00; -1.2563214E-03;  1.0003631E+03;  4.0000001E-01;  3.0083096E+02;3; -1.0831671E+01;  0.0000000E+00; -5.0343919E-01;0; -1.8588541E-01;  1.0007713E+04;  0.0000000E+00; -9.9964693E-02;  1.0000000E+04;  0.0000000E+00;  9.9995518E+03; -1.9451413E-01;  0.0000000E+00;  8.6287055E-03;  5.7550378E+02;
  2.1995923E-01;  9.9999998E-03; -2.2000240E-01;1374; -2.4892775E-02;  0.0000000E+00; -1.2707592E-03;  1.0003508E+03;  4.0000001E-01;  2.9055963E+02;3; -1.1010668E+01;  0.0000000E+00; -5.3414023E-01;0; -1.7848703E-01;  1.0007537E+04;  0.0000000E+00; -2.8722329E-02;  1.0000000E+04;  0.0000000E+00;  9.9994805E+03; -1.8905723E-01;  0.0000000E+00;  1.0570194E-02;  3.1134091E+02;
  2.1995839E-01;  9.9999998E-03; -2.0000218E-01;1375; -2.5478521E-02;  0.0000000E+00; -1.2390290E-03;  1.0003455E+03;  4.0000001E-01;  2.8621408E+02;3; -1.1182030E+01;  0.0000000E+00; -5.7073843E-01;0; -1.7517242E-01;  1.0007410E+04;  0.0000000E+00; -5.4573314E-03;  1.0000000E+04;  0.0000000E+00;  9.9995010E+03; -1.8558472E-01;  0.0000000E+00;  1.0412303E-02;  2.6420465E+02;
  2.3996609E-01;  9.9999998E-03; -3.0000892E-01;1401; -2.0129930E-02;  0.0000000E+00; -4.5647193E-03;  1.0004575E+03;  4.0000001E-01;  3.7895218E+02;3; -1.2091084E+01;  0.0000000E+00; -2.4538059E+00;0; -2.3439527E-01;  1.0009550E+04;  0.0000000E+00; -7.5371605E-01;  1.0000000E+04;  0.0000000E+00;  9.9996045E+03; -2.4293694E-01;  0.0000000E+00;  8.5416688E-03;  3.9687969E+03;
  2.3996024E-01;  9.9999998E-03; -2.8000605E-01;1402; -2.3530344E-02;  0.0000000E+00; -3.0975523E-03;  1.0004617E+03;  4.0000001E-01;  3.8250763E+02;3; -1.2399329E+01;  0.0000000E+00; -1.5011463E+00;0; -2.3384203E-01;  1.0009511E+04;  0.0000000E+00; -4.8228160E-01;  1.0000000E+04;  0.0000000E+00;  9.9997227E+03; -2.3794265E-01;  0.0000000E+00;  4.1006152E-03;  2.5393521E+03;
  2.3995613E-01;  9.9999998E-03; -2.6000452E-01;1403; -2.6007919E-02;  0.0000000E+00; -2.2990713E-03;  1.0004349E+03;  4.0000001E-01;  3.6028604E+02;3; -1.2354038E+01;  0.0000000E+00; -9.8883820E-01;0; -2.1850477E-01;  1.0009229E+04;  0.0000000E+00; -2.3596819E-01;  1.0000000E+04;  0.0000000E+00;  9.9994727E+03; -2.2783385E-01;  0.0000000E+00;  9.3290778E-03;  1.2706469E+03;
  2.3995318E-01;  9.9999998E-03; -2.4000378E-01;1404; -2.7836265E-02;  0.0000000E+00; -1.9830537E-03;  1.0004118E+03;  4.0000001E-01;  3.4112610E+02;3; -1.2358274E+01;  0.0000000E+00; -8.4137177E-01;0; -2.0490396E-01;  1.0008963E+04;  0.0000000E+00; -8.8760853E-02;  1.0000000E+04;  0.0000000E+00;  9.9992744E+03; -2.1928406E-01;  0.0000000E+00;  1.4380105E-02;  5.9827954E+02;
  2.3995151E-01;  9.9999998E-03; -2.2000343E-01;1405; -2.8941035E-02;  0.0000000E+00; -1.8848899E-03;  1.0003990E+03;  4.0000001E-01;  3.3055850E+02;3; -1.2456512E+01;  0.0000000E+00; -8.1660688E-01;0; -1.9730285E-01;  1.0008758E+04;  0.0000000E+00; -2.4851082E-02;  1.0000000E+04;  0.0000000E+00;  9.9992275E+03; -2.1321931E-01;  0.0000000E+00;  1.5916470E-02;  4.1728326E+02;
  2.3995075E-01;  9.9999998E-03; -2.0000307E-01;1406; -2.9478882E-02;  0.0000000E+00; -1.7981757E-03;  1.0003937E+03;  4.0000001E-01;  3.2611420E+02;3; -1.2593342E+01;  0.0000000E+00; -8.3677697E-01;0; -1.9392279E-01;  1.0008598E+04;  0.0000000E+00; -4.5153992E-03;  1.0000000E+04;  0.0000000E+00;  9.9992822E+03; -2.0902795E-01;  0.0000000E+00;  1.5105153E-02;  3.6958075E+02;
  2.5995657E-01;  9.9999998E-03; -3.0001393E-01;1432; -2.5095923E-02;  0.0000000E+00; -7.0788916E-03;  1.0004641E+03;  4.0000001E-01;  3.8448288E+02;3; -1.4709635E+01;  0.0000000E+00; -3.7735558E+00;0; -2.2995369E-01;  1.0010791E+04;  0.0000000E+00; -5.5811435E-01;  1.0000000E+04;  0.0000000E+00;  9.9984941E+03; -2.6434368E-01;  0.0000000E+00;  3.4389988E-02;  3.0356584E+03;
  2.5995085E-01;  9.9999998E-03; -2.8001019E-01;1433; -2.8368577E-02;  0.0000000E+00; -5.3679990E-03;  1.0004857E+03;  4.0000001E-01;  4.0235889E+02;3; -1.4576530E+01;  0.0000000E+00; -2.6518888E+00;0; -2.3689733E-01;  1.0010770E+04;  0.0000000E+00; -3.5258237E-01;  1.0000000E+04;  0.0000000E+00;  9.9989443E+03; -2.5980574E-01;  0.0000000E+00;  2.2908406E-02;  1.9329781E+03;
  2.5994676E-01;  9.9999998E-03; -2.6000741E-01;1434; -3.0797429E-02;  0.0000000E+00; -3.9571207E-03;  1.0004759E+03;  4.0000001E-01;  3.9426038E+02;3; -1.4238262E+01;  0.0000000E+00; -1.8074846E+00;0; -2.3096183E-01;  1.0010551E+04;  0.0000000E+00; -1.6838588E-01;  1.0000000E+04;  0.0000000E+00;  9.9989688E+03; -2.5160277E-01;  0.0000000E+00;  2.0640947E-02;  1.0287813E+03;
  2.5994399E-01;  9.9999998E-03; -2.4000585E-01;1435; -3.2510575E-02;  0.0000000E+00; -3.1979007E-03;  1.0004598E+03;  4.0000001E-01;  3.8092740E+02;3; -1.4037041E+01;  0.0000000E+00; -1.4029717E+00;0; -2.2168756E-01;  1.0010317E+04;  0.0000000E+00; -6.1135475E-02;  1.0000000E+04;  0.0000000E+00;  9.9988818E+03; -2.4428317E-01;  0.0000000E+00;  2.2595620E-02;  6.4865717E+02;
  2.5994250E-01;  9.9999998E-03; -2.2000502E-01;1436; -3.3506464E-02;  0.0000000E+00; -2.8489809E-03;  1.0004504E+03;  4.0000001E-01;  3.7312515E+02;3; -1.4012940E+01;  0.0000000E+00; -1.2602553E+00;0; -2.1588524E-01;  1.0010116E+04;  0.0000000E+00; -1.6184796E-02;  1.0000000E+04;  0.0000000E+00;  9.9988994E+03; -2.3863362E-01;  0.0000000E+00;  2.2748385E-02;  5.6102466E+02;
  2.5994191E-01;  9.9999998E-03; -2.0000434E-01;1437; -3.3967454E-02;  0.0000000E+00; -2.5948163E-03;  1.0004467E+03;  4.0000001E-01;  3.7006354E+02;3; -1.4110054E+01;  0.0000000E+00; -1.2012113E+00;0; -2.1331441E-01;  1.0009930E+04;  0.0000000E+00; -2.6160392E-03;  1.0000000E+04;  0.0000000E+00;  9.9990068E+03; -2.3428878E-01;  0.0000000E+00;  2.0974375E-02;  5.0274722E+02;
  2.7994478E-01;  9.9999998E-03; -3.0001786E-01;1463; -3.1058557E-02;  0.0000000E+00; -8.8420305E-03;  1.0004904E+03;  4.0000001E-01;  4.0621063E+02;3; -1.7781548E+01;  0.0000000E+00; -4.6457205E+00;0; -2.3465323E-01;  1.0012180E+04;  0.0000000E+00; -3.1666771E-01;  1.0000000E+04;  0.0000000E+00;  9.9976318E+03; -2.8574747E-01;  0.0000000E+00;  5.1094241E-02;  2.0337114E+03;
  2.7993947E-01;  9.9999998E-03; -2.8001410E-01;1464; -3.4053341E-02;  0.0000000E+00; -7.2950884E-03;  1.0005150E+03;  4.0000001E-01;  4.2665451E+02;3; -1.7071487E+01;  0.0000000E+00; -3.5141211E+00;0; -2.4181286E-01;  1.0012164E+04;  0.0000000E+00; -1.9819225E-01;  1.0000000E+04;  0.0000000E+00;  9.9981416E+03; -2.8183958E-01;  0.0000000E+00;  4.0026724E-02;  1.3900319E+03;
  2.7993572E-01;  9.9999998E-03; -2.6001075E-01;1465; -3.6267366E-02;  0.0000000E+00; -5.7629566E-03;  1.0005190E+03;  4.0000001E-01;  4.3001242E+02;3; -1.6311035E+01;  0.0000000E+00; -2.6261511E+00;0; -2.4243066E-01;  1.0012007E+04;  0.0000000E+00; -9.1951542E-02;  1.0000000E+04;  0.0000000E+00;  9.9983750E+03; -2.7591085E-01;  0.0000000E+00;  3.3480205E-02;  9.4126715E+02;
  2.7993327E-01;  9.9999998E-03; -2.4000852E-01;1466; -3.7781607E-02;  0.0000000E+00; -4.7197416E-03;  1.0005120E+03;  4.0000001E-01;  4.2418542E+02;3; -1.5839994E+01;  0.0000000E+00; -2.0886559E+00;0; -2.3835540E-01;  1.0011820E+04;  0.0000000E+00; -3.1486768E-02;  1.0000000E+04;  0.0000000E+00;  9.9984248E+03; -2.7033931E-01;  0.0000000E+00;  3.1983908E-02;  8.0084668E+02;
  2.7993205E-01;  9.9999998E-03; -2.2000709E-01;1467; -3.8632706E-02;  0.0000000E+00; -4.0880460E-03;  1.0005075E+03;  4.0000001E-01;  4.2043246E+02;3; -1.5685641E+01;  0.0000000E+00; -1.8264471E+00;0; -2.3525165E-01;  1.0011626E+04;  0.0000000E+00; -7.4493298E-03;  1.0000000E+04;  0.0000000E+00;  9.9985234E+03; -2.6556632E-01;  0.0000000E+00;  3.0314673E-02;  7.3704730E+02;
  2.7993169E-01;  9.9999998E-03; -2.0000596E-01;1468; -3.8996179E-02;  0.0000000E+00; -3.5932958E-03;  1.0005056E+03;  4.0000001E-01;  4.1885226E+02;3; -1.5732173E+01;  0.0000000E+00; -1.6555481E+00;0; -2.3387744E-01;  1.0011425E+04;  0.0000000E+00; -9.3031849E-04;  1.0000000E+04;  0.0000000E+00;  9.9986895E+03; -2.6141006E-01;  0.0000000E+00;  2.7532617E-02;  6.5770007E+02;
  2.9993144E-01;  9.9999998E-03; -3.0002141E-01;1494; -3.7544928E-02;  0.0000000E+00; -1.0317958E-02;  1.0005415E+03;  4.0000001E-01;  4.4857974E+02;3; -2.1006004E+01;  0.0000000E+00; -5.3462925E+00;0; -2.4880178E-01;  1.0013782E+04;  0.0000000E+00; -1.3687415E-01;  1.0000000E+04;  0.0000000E+00;  9.9970547E+03; -3.0866960E-01;  0.0000000E+00;  5.9867814E-02;  1.6060872E+03;
  2.9992652E-01;  9.9999998E-03; -2.8001761E-01;1495; -4.0255200E-02;  0.0000000E+00; -8.9215897E-03;  1.0005638E+03;  4.0000001E-01;  4.6704834E+02;3; -1.9660212E+01;  0.0000000E+00; -4.2233906E+00;0; -2.5433058E-01;  1.0013766E+04;  0.0000000E+00; -8.3424099E-02;  1.0000000E+04;  0.0000000E+00;  9.9975117E+03; -3.0584559E-01;  0.0000000E+00;  5.1515017E-02;  1.2939794E+03;
  2.9992309E-01;  9.9999998E-03; -2.6001406E-01;1496; -4.2262975E-02;  0.0000000E+00; -7.4695460E-03;  1.0005734E+03;  4.0000001E-01;  4.7504813E+02;3; -1.8464956E+01;  0.0000000E+00; -3.3440545E+00;0; -2.5770983E-01;  1.0013660E+04;  0.0000000E+00; -3.6423400E-02;  1.0000000E+04;  0.0000000E+00;  9.9978174E+03; -3.0199951E-01;  0.0000000E+00;  4.4289682E-02;  1.0925635E+03;
  2.9992098E-01;  9.9999998E-03; -2.4001141E-01;1497; -4.3605421E-02;  0.0000000E+00; -6.3081477E-03;  1.0005731E+03;  4.0000001E-01;  4.7475183E+02;3; -1.7727430E+01;  0.0000000E+00; -2.7526164E+00;0; -2.5735715E-01;  1.0013504E+04;  0.0000000E+00; -1.1132400E-02;  1.0000000E+04;  0.0000000E+00;  9.9979639E+03; -2.9807824E-01;  0.0000000E+00;  4.0721092E-02;  1.0088828E+03;
  2.9991999E-01;  9.9999998E-03; -2.2000945E-01;1498; -4.4339541E-02;  0.0000000E+00; -5.4421923E-03;  1.0005721E+03;  4.0000001E-01;  4.7396173E+02;3; -1.7444857E+01;  0.0000000E+00; -2.4011135E+00;0; -2.5654703E-01;  1.0013316E+04;  0.0000000E+00; -2.0724793E-03;  1.0000000E+04;  0.0000000E+00;  9.9981348E+03; -2.9424545E-01;  0.0000000E+00;  3.7698407E-02;  9.2788824E+02;
  2.9991990E-01;  9.9999998E-03; -2.0000787E-01;1499; -4.4602506E-02;  0.0000000E+00; -4.7474322E-03;  1.0005720E+03;  4.0000001E-01;  4.7386298E+02;3; -1.7453869E+01;  0.0000000E+00; -2.1695721E+00;0; -2.5618848E-01;  1.0013104E+04;  0.0000000E+00; -1.3620016E-04;  1.0000000E+04;  0.0000000E+00;  9.9983428E+03; -2.9044735E-01;  0.0000000E+00;  3.4258861E-02;  8.2728723E+02;
  3.1991696E-01;  9.9999998E-03; -3.0002496E-01;1525; -4.4253517E-02;  0.0000000E+00; -1.1737074E-02;  1.0006144E+03;  4.0000001E-01;  5.0902246E+02;3; -2.4191965E+01;  0.0000000E+00; -6.0038867E+00;0; -2.7029246E-01;  1.0015640E+04;  0.0000000E+00; -4.1809689E-02;  1.0000000E+04;  0.0000000E+00;  9.9966582E+03; -3.3424532E-01;  0.0000000E+00;  6.3952848E-02;  1.6450327E+03;
  3.1991223E-01;  9.9999998E-03; -2.8002104E-01;1526; -4.6803322E-02;  0.0000000E+00; -1.0406842E-02;  1.0006333E+03;  4.0000001E-01;  5.2472571E+02;3; -2.2253002E+01;  0.0000000E+00; -4.8424745E+00;0; -2.7464369E-01;  1.0015617E+04;  0.0000000E+00; -2.3526607E-02;  1.0000000E+04;  0.0000000E+00;  9.9970508E+03; -3.3264345E-01;  0.0000000E+00;  5.7999760E-02;  1.4487571E+03;
  3.1990892E-01;  9.9999998E-03; -2.6001734E-01;1527; -4.8710648E-02;  0.0000000E+00; -9.0332460E-03;  1.0006435E+03;  4.0000001E-01;  5.3312054E+02;3; -2.0651220E+01;  0.0000000E+00; -3.9640961E+00;0; -2.7856946E-01;  1.0015533E+04;  0.0000000E+00; -8.9934738E-03;  1.0000000E+04;  0.0000000E+00;  9.9973447E+03; -3.3041972E-01;  0.0000000E+00;  5.1850274E-02;  1.3070554E+03;
  3.1990698E-01;  9.9999998E-03; -2.4001436E-01;1528; -4.9975693E-02;  0.0000000E+00; -7.8380983E-03;  1.0006457E+03;  4.0000001E-01;  5.3489825E+02;3; -1.9679235E+01;  0.0000000E+00; -3.3498640E+00;0; -2.7990994E-01;  1.0015396E+04;  0.0000000E+00; -2.0940346E-03;  1.0000000E+04;  0.0000000E+00;  9.9975264E+03; -3.2780984E-01;  0.0000000E+00;  4.7899898E-02;  1.2210630E+03;
  3.1990620E-01;  9.9999998E-03; -2.2001196E-01;1529; -5.0644506E-02;  0.0000000E+00; -6.8311440E-03;  1.0006468E+03;  4.0000001E-01;  5.3588586E+02;3; -1.9294941E+01;  0.0000000E+00; -2.9498272E+00;0; -2.8040111E-01;  1.0015212E+04;  0.0000000E+00; -1.9563042E-04;  1.0000000E+04;  0.0000000E+00;  9.9977324E+03; -3.2483679E-01;  0.0000000E+00;  4.4435665E-02;  1.1237458E+03;
  3.1990635E-01;  9.9999998E-03; -2.0000999E-01;1530; -5.0827671E-02;  0.0000000E+00; -5.9830924E-03;  1.0006476E+03;  4.0000001E-01;  5.3647845E+02;3; -1.9273664E+01;  0.0000000E+00; -2.6781242E+00;0; -2.8068623E-01;  1.0014982E+04;  0.0000000E+00;  5.6433814E-06;  1.0000000E+04;  0.0000000E+00;  9.9979766E+03; -3.2150310E-01;  0.0000000E+00;  4.0816873E-02;  1.0075031E+03;
  3.3990139E-01;  9.9999998E-03; -3.0002877E-01;1556; -5.1100016E-02;  0.0000000E+00; -1.3213300E-02;  1.0007037E+03;  4.0000001E-01;  5.8299561E+02;3; -2.7277714E+01;  0.0000000E+00; -6.6642900E+00;0; -2.9676291E-01;  1.0017750E+04;  0.0000000E+00; -6.4127189E-03;  1.0000000E+04;  0.0000000E+00;  9.9963320E+03; -3.6297834E-01;  0.0000000E+00;  6.6215433E-02;  1.7961759E+03;
  3.3989638E-01;  9.9999998E-03; -2.8002459E-01;1557; -5.3704094E-02;  0.0000000E+00; -1.1878530E-02;  1.0007194E+03;  4.0000001E-01;  5.9603223E+02;3; -2.4844362E+01;  0.0000000E+00; -5.4170918E+00;0; -3.0055508E-01;  1.0017720E+04;  0.0000000E+00; -2.9866477E-03;  1.0000000E+04;  0.0000000E+00;  9.9966777E+03; -3.6237225E-01;  0.0000000E+00;  6.1817158E-02;  1.6334905E+03;
  3.3989298E-01;  9.9999998E-03; -2.6002061E-01;1558; -5.5660769E-02;  0.0000000E+00; -1.0514566E-02;  1.0007285E+03;  4.0000001E-01;  6.0353821E+02;3; -2.2879559E+01;  0.0000000E+00; -4.5091176E+00;0; -3.0425614E-01;  1.0017647E+04;  0.0000000E+00; -7.4207608E-04;  1.0000000E+04;  0.0000000E+00;  9.9969326E+03; -3.6131868E-01;  0.0000000E+00;  5.7062551E-02;  1.5132528E+03;
  3.3989108E-01;  9.9999998E-03; -2.4001738E-01;1559; -5.6939401E-02;  0.0000000E+00; -9.3059270E-03;  1.0007307E+03;  4.0000001E-01;  6.0531592E+02;3; -2.1698215E+01;  0.0000000E+00; -3.8695815E+00;0; -3.0596071E-01;  1.0017517E+04;  0.0000000E+00; -1.6577103E-05;  1.0000000E+04;  0.0000000E+00;  9.9971084E+03; -3.5974163E-01;  0.0000000E+00;  5.3780898E-02;  1.4309734E+03;
  3.3989048E-01;  9.9999998E-03; -2.2001462E-01;1560; -5.7588983E-02;  0.0000000E+00; -8.2162702E-03;  1.0007324E+03;  4.0000001E-01;  6.0669861E+02;3; -2.1223576E+01;  0.0000000E+00; -3.4512837E+00;0; -3.0700248E-01;  1.0017330E+04;  0.0000000E+00;  2.2557479E-05;  1.0000000E+04;  0.0000000E+00;  9.9973271E+03; -3.5756820E-01;  0.0000000E+00;  5.0565716E-02;  1.3259344E+03;
  3.3989087E-01;  9.9999998E-03; -2.0001224E-01;1561; -5.7713944E-02;  0.0000000E+00; -7.2509600E-03;  1.0007336E+03;  4.0000001E-01;  6.0778503E+02;3; -2.1178696E+01;  0.0000000E+00; -3.1747983E+00;0; -3.0767053E-01;  1.0017085E+04;  0.0000000E+00;  5.1370967E-06;  1.0000000E+04;  0.0000000E+00;  9.9975869E+03; -3.5479739E-01;  0.0000000E+00;  4.7126874E-02;  1.1980802E+03;
  3.5988420E-01;  9.9999998E-03; -3.0003303E-01;1587; -5.8279503E-02;  0.0000000E+00; -1.4781615E-02;  1.0008049E+03;  4.0000001E-01;  6.6684497E+02;3; -3.0364748E+01;  0.0000000E+00; -7.3351197E+00;0; -3.2624829E-01;  1.0020125E+04;  0.0000000E+00;  2.7620326E-05;  1.0000000E+04;  0.0000000E+00;  9.9959863E+03; -3.9483756E-01;  0.0000000E+00;  6.8589255E-02;  1.9740811E+03;
  3.5987866E-01;  9.9999998E-03; -2.8002843E-01;1588; -6.1117493E-02;  0.0000000E+00; -1.3393905E-02;  1.0008194E+03;  4.0000001E-01;  6.7889404E+02;3; -2.7490965E+01;  0.0000000E+00; -5.9896312E+00;0; -3.3007428E-01;  1.0020104E+04;  0.0000000E+00;  1.5929520E-04;  1.0000000E+04;  0.0000000E+00;  9.9963008E+03; -3.9505225E-01;  0.0000000E+00;  6.4977966E-02;  1.8245753E+03;
  3.5987493E-01;  9.9999998E-03; -2.6002410E-01;1589; -6.3227162E-02;  0.0000000E+00; -1.1982245E-02;  1.0008271E+03;  4.0000001E-01;  6.8521484E+02;3; -2.5185228E+01;  0.0000000E+00; -4.9995813E+00;0; -3.3356440E-01;  1.0020034E+04;  0.0000000E+00;  1.3202094E-04;  1.0000000E+04;  0.0000000E+00;  9.9965156E+03; -3.9491889E-01;  0.0000000E+00;  6.1354496E-02;  1.7233916E+03;
  3.5987297E-01;  9.9999998E-03; -2.4002056E-01;1590; -6.4576849E-02;  0.0000000E+00; -1.0751335E-02;  1.0008287E+03;  4.0000001E-01;  6.8649872E+02;3; -2.3793037E+01;  0.0000000E+00; -4.3264270E+00;0; -3.3515206E-01;  1.0019912E+04;  0.0000000E+00;  6.7043351E-05;  1.0000000E+04;  0.0000000E+00;  9.9966709E+03; -3.9422041E-01;  0.0000000E+00;  5.9068359E-02;  1.6500844E+03;
  3.5987249E-01;  9.9999998E-03; -2.2001743E-01;1591; -6.5227576E-02;  0.0000000E+00; -9.6003488E-03;  1.0008303E+03;  4.0000001E-01;  6.8788141E+02;3; -2.3230453E+01;  0.0000000E+00; -3.8997669E+00;0; -3.3642948E-01;  1.0019717E+04;  0.0000000E+00;  2.3630042E-05;  1.0000000E+04;  0.0000000E+00;  9.9968994E+03; -3.9281040E-01;  0.0000000E+00;  5.6380916E-02;  1.5401844E+03;
  3.5987315E-01;  9.9999998E-03; -2.0001464E-01;1592; -6.5308481E-02;  0.0000000E+00; -8.5256090E-03;  1.0008314E+03;  4.0000001E-01;  6.8877026E+02;3; -2.3175396E+01;  0.0000000E+00; -3.6091237E+00;0; -3.3735532E-01;  1.0019454E+04;  0.0000000E+00;  4.8325169E-06;  1.0000000E+04;  0.0000000E+00;  9.9971855E+03; -3.9064294E-01;  0.0000000E+00;  5.3287610E-02;  1.4010463E+03;
  3.7986478E-01;  9.9999998E-03; -3.0003783E-01;1618; -6.6059880E-02;  0.0000000E+00; -1.6453024E-02;  1.0009195E+03;  4.0000001E-01;  7.6175568E+02;3; -3.3581009E+01;  0.0000000E+00; -8.0120153E+00;0; -3.5826612E-01;  1.0022843E+04;  0.0000000E+00;  1.5875291E-04;  1.0000000E+04;  0.0000000E+00;  9.9955645E+03; -4.3018591E-01;  0.0000000E+00;  7.1919814E-02;  2.1909619E+03;
  3.7985849E-01;  9.9999998E-03; -2.8003269E-01;1619; -6.9203697E-02;  0.0000000E+00; -1.4970971E-02;  1.0009341E+03;  4.0000001E-01;  7.7390344E+02;3; -3.0254330E+01;  0.0000000E+00; -6.5364704E+00;0; -3.6263236E-01;  1.0022830E+04;  0.0000000E+00;  2.1898145E-04;  1.0000000E+04;  0.0000000E+00;  9.9958691E+03; -4.3110108E-01;  0.0000000E+00;  6.8468720E-02;  2.0449955E+03;
  3.7985441E-01;  9.9999998E-03; -2.6002792E-01;1620; -7.1507469E-02;  0.0000000E+00; -1.3486385E-02;  1.0009404E+03;  4.0000001E-01;  7.7903912E+02;3; -2.7588907E+01;  0.0000000E+00; -5.4431653E+00;0; -3.6599475E-01;  1.0022768E+04;  0.0000000E+00;  1.5822511E-04;  1.0000000E+04;  0.0000000E+00;  9.9960557E+03; -4.3170297E-01;  0.0000000E+00;  6.5708235E-02;  1.9567076E+03;
  3.7985235E-01;  9.9999998E-03; -2.4002397E-01;1621; -7.2950840E-02;  0.0000000E+00; -1.2217291E-02;  1.0009407E+03;  4.0000001E-01;  7.7933539E+02;3; -2.5970240E+01;  0.0000000E+00; -4.7365479E+00;0; -3.6737281E-01;  1.0022633E+04;  0.0000000E+00;  7.7669902E-05;  1.0000000E+04;  0.0000000E+00;  9.9961963E+03; -4.3172318E-01;  0.0000000E+00;  6.4350367E-02;  1.8890144E+03;
  3.7985200E-01;  9.9999998E-03; -2.2002041E-01;1622; -7.3611692E-02;  0.0000000E+00; -1.1001468E-02;  1.0009421E+03;  4.0000001E-01;  7.8052057E+02;3; -2.5312691E+01;  0.0000000E+00; -4.2956786E+00;0; -3.6876190E-01;  1.0022416E+04;  0.0000000E+00;  2.5940033E-05;  1.0000000E+04;  0.0000000E+00;  9.9964385E+03; -4.3096104E-01;  0.0000000E+00;  6.2199149E-02;  1.7718446E+03;
  3.7985298E-01;  9.9999998E-03; -2.0001717E-01;1623; -7.3656268E-02;  0.0000000E+00; -9.8224282E-03;  1.0009427E+03;  4.0000001E-01;  7.8101434E+02;3; -2.5246321E+01;  0.0000000E+00; -3.9929318E+00;0; -3.6982191E-01;  1.0022115E+04;  0.0000000E+00;  4.7156850E-06;  1.0000000E+04;  0.0000000E+00;  9.9967490E+03; -4.2931986E-01;  0.0000000E+00;  5.9497938E-02;  1.6191044E+03;
  3.9984262E-01;  9.9999998E-03; -3.0004326E-01;1649; -7.4571207E-02;  0.0000000E+00; -1.8230692E-02;  1.0010505E+03;  4.0000001E-01;  8.7039429E+02;3; -3.6977886E+01;  0.0000000E+00; -8.6552057E+00;0; -3.9344701E-01;  1.0025997E+04;  0.0000000E+00;  1.9907884E-04;  1.0000000E+04;  0.0000000E+00;  9.9950332E+03; -4.6971223E-01;  0.0000000E+00;  7.6265216E-02;  2.4583152E+03;
  3.9983556E-01;  9.9999998E-03; -2.8003749E-01;1650; -7.8043506E-02;  0.0000000E+00; -1.6632058E-02;  1.0010654E+03;  4.0000001E-01;  8.8264081E+02;3; -3.3144817E+01;  0.0000000E+00; -7.0519114E+00;0; -3.9839149E-01;  1.0025972E+04;  0.0000000E+00;  2.7414295E-04;  1.0000000E+04;  0.0000000E+00;  9.9953525E+03; -4.7106805E-01;  0.0000000E+00;  7.2676584E-02;  2.3070220E+03;
  3.9983106E-01;  9.9999998E-03; -2.6003212E-01;1651; -8.0558449E-02;  0.0000000E+00; -1.5063060E-02;  1.0010700E+03;  4.0000001E-01;  8.8649255E+02;3; -3.0084866E+01;  0.0000000E+00; -5.8523855E+00;0; -4.0153080E-01;  1.0025893E+04;  0.0000000E+00;  1.9452852E-04;  1.0000000E+04;  0.0000000E+00;  9.9955303E+03; -4.7213575E-01;  0.0000000E+00;  7.0604935E-02;  2.2232085E+03;
  3.9982888E-01;  9.9999998E-03; -2.4002768E-01;1652; -8.2109332E-02;  0.0000000E+00; -1.3738752E-02;  1.0010688E+03;  4.0000001E-01;  8.8550494E+02;3; -2.8222965E+01;  0.0000000E+00; -5.0988231E+00;0; -4.0262082E-01;  1.0025725E+04;  0.0000000E+00;  9.2744427E-05;  1.0000000E+04;  0.0000000E+00;  9.9956709E+03; -4.7262171E-01;  0.0000000E+00;  7.0000894E-02;  2.1539734E+03;
  3.9982873E-01;  9.9999998E-03; -2.2002363E-01;1653; -8.2792260E-02;  0.0000000E+00; -1.2444239E-02;  1.0010692E+03;  4.0000001E-01;  8.8580127E+02;3; -2.7458824E+01;  0.0000000E+00; -4.6336393E+00;0; -4.0399659E-01;  1.0025464E+04;  0.0000000E+00;  2.9357301E-05;  1.0000000E+04;  0.0000000E+00;  9.9959365E+03; -4.7228983E-01;  0.0000000E+00;  6.8293251E-02;  2.0243566E+03;
  3.9983001E-01;  9.9999998E-03; -2.0001990E-01;1654; -8.2809627E-02;  0.0000000E+00; -1.1153175E-02;  1.0010687E+03;  4.0000001E-01;  8.8540619E+02;3; -2.7388031E+01;  0.0000000E+00; -4.3448582E+00;0; -4.0506601E-01;  1.0025104E+04;  0.0000000E+00;  4.6544428E-06;  1.0000000E+04;  0.0000000E+00;  9.9962881E+03; -4.7100386E-01;  0.0000000E+00;  6.5937832E-02;  1.8537665E+03;
  4.1981733E-01;  9.9999998E-03; -3.0004948E-01;1680; -8.3864920E-02;  0.0000000E+00; -2.0132892E-02;  1.0012017E+03;  4.0000001E-01;  9.9562488E+02;3; -4.0536049E+01;  0.0000000E+00; -9.2924643E+00;0; -4.3235335E-01;  1.0029657E+04;  0.0000000E+00;  2.4114999E-04;  1.0000000E+04;  0.0000000E+00;  9.9944033E+03; -5.1384073E-01;  0.0000000E+00;  8.1487387E-02;  2.7806118E+03;
  4.1980940E-01;  9.9999998E-03; -2.8004295E-01;1681; -8.7691441E-02;  0.0000000E+00; -1.8399589E-02;  1.0012157E+03;  4.0000001E-01;  1.0071801E+03;3; -3.6155838E+01;  0.0000000E+00; -7.5278130E+00;0; -4.3755293E-01;  1.0029595E+04;  0.0000000E+00;  3.4346437E-04;  1.0000000E+04;  0.0000000E+00;  9.9947461E+03; -5.1530218E-01;  0.0000000E+00;  7.7749267E-02;  2.6165879E+03;
  4.1980448E-01;  9.9999998E-03; -2.6003686E-01;1682; -9.0433449E-02;  0.0000000E+00; -1.6741162E-02;  1.0012183E+03;  4.0000001E-01;  1.0093529E+03;3; -3.2665981E+01;  0.0000000E+00; -6.2130685E+00;0; -4.4018614E-01;  1.0029456E+04;  0.0000000E+00;  2.4215250E-04;  1.0000000E+04;  0.0000000E+00;  9.9949355E+03; -5.1649004E-01;  0.0000000E+00;  7.6303907E-02;  2.5259458E+03;
  4.1980225E-01;  9.9999998E-03; -2.4003179E-01;1683; -9.2105322E-02;  0.0000000E+00; -1.5340918E-02;  1.0012148E+03;  4.0000001E-01;  1.0064888E+03;3; -3.0541559E+01;  0.0000000E+00; -5.4105473E+00;0; -4.4089285E-01;  1.0029228E+04;  0.0000000E+00;  1.1298771E-04;  1.0000000E+04;  0.0000000E+00;  9.9950957E+03; -5.1710576E-01;  0.0000000E+00;  7.6212913E-02;  2.4458450E+03;
  4.1980228E-01;  9.9999998E-03; -2.2002715E-01;1684; -9.2823900E-02;  0.0000000E+00; -1.3947050E-02;  1.0012130E+03;  4.0000001E-01;  1.0049086E+03;3; -2.9662849E+01;  0.0000000E+00; -4.9306726E+00;0; -4.4211328E-01;  1.0028883E+04;  0.0000000E+00;  3.4335630E-05;  1.0000000E+04;  0.0000000E+00;  9.9953994E+03; -5.1690388E-01;  0.0000000E+00;  7.4790590E-02;  2.2974319E+03;
  4.1980401E-01;  9.9999998E-03; -2.0002285E-01;1685; -9.2822827E-02;  0.0000000E+00; -1.2523991E-02;  1.0012104E+03;  4.0000001E-01;  1.0028345E+03;3; -2.9588926E+01;  0.0000000E+00; -4.6474619E+00;0; -4.4304091E-01;  1.0028441E+04;  0.0000000E+00;  4.9228415E-06;  1.0000000E+04;  0.0000000E+00;  9.9957910E+03; -5.1573282E-01;  0.0000000E+00;  7.2691932E-02;  2.1040728E+03;
  4.3978843E-01;  9.9999998E-03; -3.0005667E-01;1711; -9.4006032E-02;  0.0000000E+00; -2.2172591E-02;  1.0013749E+03;  4.0000001E-01;  1.1390276E+03;3; -4.4257771E+01;  0.0000000E+00; -9.8968954E+00;0; -4.7534069E-01;  1.0033876E+04;  0.0000000E+00;  2.7555792E-04;  1.0000000E+04;  0.0000000E+00;  9.9936514E+03; -5.6282741E-01;  0.0000000E+00;  8.7486714E-02;  3.1608354E+03;
  4.3977961E-01;  9.9999998E-03; -2.8004920E-01;1712; -9.8210432E-02;  0.0000000E+00; -2.0298449E-02;  1.0013873E+03;  4.0000001E-01;  1.1492990E+03;3; -3.9281071E+01;  0.0000000E+00; -7.9467673E+00;0; -4.8019853E-01;  1.0033733E+04;  0.0000000E+00;  4.2800567E-04;  1.0000000E+04;  0.0000000E+00;  9.9940430E+03; -5.6395692E-01;  0.0000000E+00;  8.3758391E-02;  2.9732732E+03;
  4.3977425E-01;  9.9999998E-03; -2.6004219E-01;1713; -1.0119419E-01;  0.0000000E+00; -1.8539883E-02;  1.0013875E+03;  4.0000001E-01;  1.1494965E+03;3; -3.5322189E+01;  0.0000000E+00; -6.5152059E+00;0; -4.8200858E-01;  1.0033498E+04;  0.0000000E+00;  3.0460511E-04;  1.0000000E+04;  0.0000000E+00;  9.9942773E+03; -5.6481606E-01;  0.0000000E+00;  8.2807489E-02;  2.8583362E+03;
  4.3977198E-01;  9.9999998E-03; -2.4003631E-01;1714; -1.0300133E-01;  0.0000000E+00; -1.7030450E-02;  1.0013802E+03;  4.0000001E-01;  1.1434719E+03;3; -3.2913876E+01;  0.0000000E+00; -5.6593342E+00;0; -4.8219132E-01;  1.0033156E+04;  0.0000000E+00;  1.4132231E-04;  1.0000000E+04;  0.0000000E+00;  9.9944785E+03; -5.6512541E-01;  0.0000000E+00;  8.2934082E-02;  2.7585562E+03;
  4.3977231E-01;  9.9999998E-03; -2.2003102E-01;1715; -1.0376899E-01;  0.0000000E+00; -1.5513104E-02;  1.0013748E+03;  4.0000001E-01;  1.1390276E+03;3; -3.1914223E+01;  0.0000000E+00; -5.1702552E+00;0; -4.8302871E-01;  1.0032696E+04;  0.0000000E+00;  4.2590415E-05;  1.0000000E+04;  0.0000000E+00;  9.9948281E+03; -5.6466526E-01;  0.0000000E+00;  8.1636563E-02;  2.5865466E+03;
  4.3977454E-01;  9.9999998E-03; -2.0002614E-01;1716; -1.0375687E-01;  0.0000000E+00; -1.3940331E-02;  1.0013685E+03;  4.0000001E-01;  1.1337932E+03;3; -3.1839249E+01;  0.0000000E+00; -4.8863807E+00;0; -4.8358777E-01;  1.0032130E+04;  0.0000000E+00;  6.2622921E-06;  1.0000000E+04;  0.0000000E+00;  9.9952744E+03; -5.6330156E-01;  0.0000000E+00;  7.9713784E-02;  2.3667605E+03;
  4.5975527E-01;  9.9999998E-03; -3.0006510E-01;1742; -1.0507996E-01;  0.0000000E+00; -2.4381902E-02;  1.0015725E+03;  4.0000063E-01;  1.3027750E+03;3; -4.8144264E+01;  0.0000000E+00; -1.0451853E+01;0; -5.2228498E-01;  1.0038669E+04;  0.0000000E+00;  2.9149908E-04;  1.0000000E+04;  0.0000000E+00;  9.9927861E+03; -6.1650747E-01;  0.0000000E+00;  9.4222479E-02;  3.6007288E+03;
  4.5974553E-01;  9.9999998E-03; -2.8005645E-01;1743; -1.0968400E-01;  0.0000000E+00; -2.2358749E-02;  1.0015825E+03;  4.0000075E-01;  1.3110710E+03;3; -4.2517109E+01;  0.0000000E+00; -8.2920513E+00;0; -5.2610373E-01;  1.0038388E+04;  0.0000000E+00;  5.3322257E-04;  1.0000000E+04;  0.0000000E+00;  9.9932695E+03; -6.1671937E-01;  0.0000000E+00;  9.0615623E-02;  3.3660269E+03;
  4.5973977E-01;  9.9999998E-03; -2.6004818E-01;1744; -1.1292060E-01;  0.0000000E+00; -2.0465232E-02;  1.0015798E+03;  4.0000078E-01;  1.3088983E+03;3; -3.8045807E+01;  0.0000000E+00; -6.7413664E+00;0; -5.2685142E-01;  1.0038004E+04;  0.0000000E+00;  3.9062867E-04;  1.0000000E+04;  0.0000000E+00;  9.9936006E+03; -6.1666149E-01;  0.0000000E+00;  8.9810066E-02;  3.2032097E+03;
  4.5973760E-01;  9.9999998E-03; -2.4004133E-01;1745; -1.1487564E-01;  0.0000000E+00; -1.8797720E-02;  1.0015668E+03;  4.0000063E-01;  1.2981332E+03;3; -3.5328106E+01;  0.0000000E+00; -5.8293285E+00;0; -5.2624041E-01;  1.0037495E+04;  0.0000000E+00;  1.8458646E-04;  1.0000000E+04;  0.0000000E+00;  9.9938477E+03; -6.1610818E-01;  0.0000000E+00;  8.9867748E-02;  3.0805190E+03;
  4.5973831E-01;  9.9999998E-03; -2.2003536E-01;1746; -1.1570054E-01;  0.0000000E+00; -1.7138405E-02;  1.0015551E+03;  4.0000075E-01;  1.2883557E+03;3; -3.4200485E+01;  0.0000000E+00; -5.3249450E+00;0; -5.2628505E-01;  1.0036867E+04;  0.0000000E+00;  5.8082373E-05;  1.0000000E+04;  0.0000000E+00;  9.9942432E+03; -6.1490917E-01;  0.0000000E+00;  8.8624142E-02;  2.8849678E+03;
  4.5974123E-01;  9.9999998E-03; -2.0002995E-01;1747; -1.1568078E-01;  0.0000000E+00; -1.5413721E-02;  1.0015436E+03;  4.0000075E-01;  1.2788745E+03;3; -3.4128944E+01;  0.0000000E+00; -5.0401716E+00;0; -5.2612793E-01;  1.0036140E+04;  0.0000000E+00;  1.0566688E-05;  1.0000000E+04;  0.0000000E+00;  9.9947402E+03; -6.1298317E-01;  0.0000000E+00;  8.6855203E-02;  2.6385349E+03;
  4.7971699E-01;  9.9999998E-03; -3.0007505E-01;1773; -1.1722814E-01;  0.0000000E+00; -2.6803868E-02;  1.0017916E+03;  4.0000206E-01;  1.4842992E+03;3; -5.2213428E+01;  0.0000000E+00; -1.0940495E+01;0; -5.7212430E-01;  1.0043952E+04;  0.0000000E+00;  2.8106943E-04;  1.0000000E+04;  0.0000000E+00;  9.9918281E+03; -6.7357290E-01;  0.0000000E+00;  1.0144859E-01;  4.0869736E+03;
  4.7970641E-01;  9.9999998E-03; -2.8006488E-01;1774; -1.2223241E-01;  0.0000000E+00; -2.4611682E-02;  1.0018000E+03;  4.0000203E-01;  1.4913114E+03;3; -4.5870476E+01;  0.0000000E+00; -8.5362244E+00;0; -5.7421803E-01;  1.0043470E+04;  0.0000000E+00;  6.7399425E-04;  1.0000000E+04;  0.0000000E+00;  9.9924824E+03; -6.7214847E-01;  0.0000000E+00;  9.7930454E-02;  3.7681455E+03;
  4.7970045E-01;  9.9999998E-03; -2.6005492E-01;1775; -1.2571774E-01;  0.0000000E+00; -2.2509025E-02;  1.0017937E+03;  4.0000215E-01;  1.4860769E+03;3; -4.0835278E+01;  0.0000000E+00; -6.8651114E+00;0; -5.7378960E-01;  1.0042865E+04;  0.0000000E+00;  5.1881757E-04;  1.0000000E+04;  0.0000000E+00;  9.9929570E+03; -6.7046046E-01;  0.0000000E+00;  9.6670873E-02;  3.5338855E+03;
  4.7969851E-01;  9.9999998E-03; -2.4004696E-01;1776; -1.2782182E-01;  0.0000000E+00; -2.0627614E-02;  1.0017705E+03;  4.0000200E-01;  1.4668182E+03;3; -3.7777607E+01;  0.0000000E+00; -5.8940616E+00;0; -5.7182920E-01;  1.0042133E+04;  0.0000000E+00;  2.5574380E-04;  1.0000000E+04;  0.0000000E+00;  9.9932236E+03; -6.6839480E-01;  0.0000000E+00;  9.6565627E-02;  3.3993118E+03;
  4.7969985E-01;  9.9999998E-03; -2.2004040E-01;1777; -1.2869990E-01;  0.0000000E+00; -1.8832596E-02;  1.0017492E+03;  4.0000206E-01;  1.4491398E+03;3; -3.6513107E+01;  0.0000000E+00; -5.3642550E+00;0; -5.7041031E-01;  1.0041283E+04;  0.0000000E+00;  8.8092092E-05;  1.0000000E+04;  0.0000000E+00;  9.9936465E+03; -6.6591436E-01;  0.0000000E+00;  9.5504053E-02;  3.1892805E+03;
  4.7970361E-01;  9.9999998E-03; -2.0003462E-01;1778; -1.2866814E-01;  0.0000000E+00; -1.6982285E-02;  1.0017302E+03;  4.0000206E-01;  1.4334366E+03;3; -3.6448441E+01;  0.0000000E+00; -5.0818229E+00;0; -5.6905478E-01;  1.0040358E+04;  0.0000000E+00;  2.1608603E-05;  1.0000000E+04;  0.0000000E+00;  9.9941846E+03; -6.6302454E-01;  0.0000000E+00;  9.3969777E-02;  2.9209785E+03;
  4.9967229E-01;  9.9999998E-03; -3.0008698E-01;1804; -1.3068515E-01;  0.0000000E+00; -2.9492097E-02;  1.0020233E+03;  4.0000480E-01;  1.6762917E+03;3; -5.6523991E+01;  0.0000000E+00; -1.1341734E+01;0; -6.2201762E-01;  1.0049442E+04;  0.0000000E+00;  2.4740398E-04;  1.0000000E+04;  0.0000000E+00;  9.9908428E+03; -7.3053610E-01;  0.0000000E+00;  1.0851845E-01;  4.5877925E+03;
  4.9966136E-01;  9.9999998E-03; -2.8007475E-01;1805; -1.3602316E-01;  0.0000000E+00; -2.7092936E-02;  1.0020317E+03;  4.0000492E-01;  1.6832051E+03;3; -4.9364891E+01;  0.0000000E+00; -8.6516323E+00;0; -6.2180746E-01;  1.0048696E+04;  0.0000000E+00;  8.8414084E-04;  1.0000000E+04;  0.0000000E+00;  9.9917588E+03; -7.2675031E-01;  0.0000000E+00;  1.0494288E-01;  4.1367622E+03;
  4.9965557E-01;  9.9999998E-03; -2.6006258E-01;1806; -1.3971227E-01;  0.0000000E+00; -2.4663791E-02;  1.0020194E+03;  4.0000483E-01;  1.6730326E+03;3; -4.3697693E+01;  0.0000000E+00; -6.8495178E+00;0; -6.2014621E-01;  1.0047814E+04;  0.0000000E+00;  7.2581484E-04;  1.0000000E+04;  0.0000000E+00;  9.9924004E+03; -7.2272086E-01;  0.0000000E+00;  1.0257463E-01;  3.8234299E+03;
  4.9965420E-01;  9.9999998E-03; -2.4005355E-01;1807; -1.4193840E-01;  0.0000000E+00; -2.2533111E-02;  1.0019800E+03;  4.0000489E-01;  1.6403423E+03;3; -4.0264278E+01;  0.0000000E+00; -5.8104424E+00;0; -6.1581188E-01;  1.0046808E+04;  0.0000000E+00;  3.7878027E-04;  1.0000000E+04;  0.0000000E+00;  9.9926113E+03; -7.1851802E-01;  0.0000000E+00;  1.0270616E-01;  3.7143540E+03;
  4.9965644E-01;  9.9999998E-03; -2.2004665E-01;1808; -1.4284420E-01;  0.0000000E+00; -2.0655183E-02;  1.0019453E+03;  4.0000480E-01;  1.6116024E+03;3; -3.8853004E+01;  0.0000000E+00; -5.2834477E+00;0; -6.1204338E-01;  1.0045698E+04;  0.0000000E+00;  1.4464735E-04;  1.0000000E+04;  0.0000000E+00;  9.9930176E+03; -7.1425956E-01;  0.0000000E+00;  1.0221617E-01;  3.5097749E+03;
  4.9966130E-01;  9.9999998E-03; -2.0004074E-01;1809; -1.4278252E-01;  0.0000000E+00; -1.8733952E-02;  1.0019160E+03;  4.0000492E-01;  1.5874056E+03;3; -3.8790390E+01;  0.0000000E+00; -4.9845042E+00;0; -6.0895711E-01;  1.0044549E+04;  0.0000000E+00;  4.5396388E-05;  1.0000000E+04;  0.0000000E+00;  9.9935830E+03; -7.1005696E-01;  0.0000000E+00;  1.0109986E-01;  3.2285234E+03;
  5.1961970E-01;  9.9999998E-03; -3.0010143E-01;1835; -1.4578138E-01;  0.0000000E+00; -3.2521617E-02;  1.0022565E+03;  4.0001333E-01;  1.8694680E+03;3; -6.1173504E+01;  0.0000000E+00; -1.1638328E+01;0; -6.6636670E-01;  1.0054606E+04;  0.0000000E+00;  2.1533338E-04;  1.0000000E+04;  0.0000000E+00;  9.9899219E+03; -7.8075212E-01;  0.0000000E+00;  1.1438540E-01;  5.0567827E+03;
  5.1960945E-01;  9.9999998E-03; -2.8008652E-01;1836; -1.5124707E-01;  0.0000000E+00; -2.9859314E-02;  1.0022677E+03;  4.0001333E-01;  1.8787516E+03;3; -5.3038532E+01;  0.0000000E+00; -8.6091204E+00;0; -6.6341263E-01;  1.0053560E+04;  0.0000000E+00;  1.2312143E-03;  1.0000000E+04;  0.0000000E+00;  9.9911836E+03; -7.7412802E-01;  0.0000000E+00;  1.1071541E-01;  4.4330132E+03;
  5.1960456E-01;  9.9999998E-03; -2.6007161E-01;1837; -1.5501516E-01;  0.0000000E+00; -2.6963484E-02;  1.0022449E+03;  4.0001324E-01;  1.8598881E+03;3; -4.6645309E+01;  0.0000000E+00; -6.6529255E+00;0; -6.6031039E-01;  1.0052363E+04;  0.0000000E+00;  1.0840807E-03;  1.0000000E+04;  0.0000000E+00;  9.9919258E+03; -7.6729703E-01;  0.0000000E+00;  1.0698666E-01;  4.0699624E+03;
  5.1960433E-01;  9.9999998E-03; -2.4006185E-01;1838; -1.5728530E-01;  0.0000000E+00; -2.4602903E-02;  1.0021803E+03;  4.0001333E-01;  1.8063590E+03;3; -4.2787235E+01;  0.0000000E+00; -5.5361090E+00;0; -6.5208364E-01;  1.0051062E+04;  0.0000000E+00;  5.9956725E-04;  1.0000000E+04;  0.0000000E+00;  9.9919424E+03; -7.6059341E-01;  0.0000000E+00;  1.0850981E-01;  4.0563933E+03;
  5.1960784E-01;  9.9999998E-03; -2.2005501E-01;1839; -1.5817153E-01;  0.0000000E+00; -2.2743052E-02;  1.0021288E+03;  4.0001330E-01;  1.7636937E+03;3; -4.1212116E+01;  0.0000000E+00; -5.0073714E+00;0; -6.4505357E-01;  1.0049688E+04;  0.0000000E+00;  2.4740267E-04;  1.0000000E+04;  0.0000000E+00;  9.9922803E+03; -7.5431007E-01;  0.0000000E+00;  1.0925648E-01;  3.8851570E+03;
  5.1961404E-01;  9.9999998E-03; -2.0004922E-01;1840; -1.5804482E-01;  0.0000000E+00; -2.0829545E-02;  1.0020891E+03;  4.0001333E-01;  1.7307072E+03;3; -4.1147598E+01;  0.0000000E+00; -4.7349639E+00;0; -6.3990641E-01;  1.0048318E+04;  0.0000000E+00;  8.8392553E-05;  1.0000000E+04;  0.0000000E+00;  9.9928428E+03; -7.4865347E-01;  0.0000000E+00;  1.0874708E-01;  3.5993313E+03;
  5.3955781E-01;  9.9999998E-03; -3.0011919E-01;1866; -1.6282175E-01;  0.0000000E+00; -3.6004990E-02;  1.0024758E+03;  4.0003589E-01;  2.0510879E+03;3; -6.6258057E+01;  0.0000000E+00; -1.1819855E+01;0; -6.9616020E-01;  1.0058587E+04;  0.0000000E+00;  2.3487408E-04;  1.0000000E+04;  0.0000000E+00;  9.9891729E+03; -8.1394345E-01;  0.0000000E+00;  1.1778323E-01;  5.4388345E+03;
  5.3955013E-01;  9.9999998E-03; -2.8010094E-01;1867; -1.6800666E-01;  0.0000000E+00; -3.3015110E-02;  1.0024905E+03;  4.0003586E-01;  2.0633342E+03;3; -5.6916336E+01;  0.0000000E+00; -8.3949013E+00;0; -6.9015086E-01;  1.0057262E+04;  0.0000000E+00;  1.8273524E-03;  1.0000000E+04;  0.0000000E+00;  9.9907969E+03; -8.0461597E-01;  0.0000000E+00;  1.1446515E-01;  4.6364170E+03;
  5.3954744E-01;  9.9999998E-03; -2.6008311E-01;1868; -1.7161120E-01;  0.0000000E+00; -2.9523976E-02;  1.0024490E+03;  4.0003592E-01;  2.0288663E+03;3; -4.9666698E+01;  0.0000000E+00; -6.2555799E+00;0; -6.8509531E-01;  1.0055785E+04;  0.0000000E+00;  1.7254211E-03;  1.0000000E+04;  0.0000000E+00;  9.9914395E+03; -7.9514951E-01;  0.0000000E+00;  1.1005421E-01;  4.3196729E+03;
  5.3954911E-01;  9.9999998E-03; -2.4007310E-01;1869; -1.7378405E-01;  0.0000000E+00; -2.7038271E-02;  1.0023513E+03;  4.0003595E-01;  1.9479803E+03;3; -4.5331833E+01;  0.0000000E+00; -5.0498719E+00;0; -6.7106092E-01;  1.0054220E+04;  0.0000000E+00;  1.0054971E-03;  1.0000000E+04;  0.0000000E+00;  9.9910576E+03; -7.8617579E-01;  0.0000000E+00;  1.1511485E-01;  4.4989819E+03;
  5.3955430E-01;  9.9999998E-03; -2.2006679E-01;1870; -1.7457043E-01;  0.0000000E+00; -2.5348203E-02;  1.0022817E+03;  4.0003601E-01;  1.8903033E+03;3; -4.3562668E+01;  0.0000000E+00; -4.5426412E+00;0; -6.6020030E-01;  1.0052628E+04;  0.0000000E+00;  4.3162968E-04;  1.0000000E+04;  0.0000000E+00;  9.9912549E+03; -7.7813941E-01;  0.0000000E+00;  1.1793914E-01;  4.3926582E+03;
  5.3956205E-01;  9.9999998E-03; -2.0006125E-01;1871; -1.7435573E-01;  0.0000000E+00; -2.3525909E-02;  1.0022332E+03;  4.0003598E-01;  1.8502061E+03;3; -4.3496719E+01;  0.0000000E+00; -4.3307519E+00;0; -6.5315920E-01;  1.0051079E+04;  0.0000000E+00;  1.5442909E-04;  1.0000000E+04;  0.0000000E+00;  9.9918242E+03; -7.7130097E-01;  0.0000000E+00;  1.1814175E-01;  4.1047197E+03;
  5.5948651E-01;  9.9999998E-03; -3.0014142E-01;1897; -1.8177520E-01;  0.0000000E+00; -4.0128529E-02;  1.0026850E+03;  4.0009663E-01;  2.2244097E+03;3; -7.1765900E+01;  0.0000000E+00; -1.1885474E+01;0; -6.9806111E-01;  1.0060234E+04;  0.0000000E+00;  3.7524544E-04;  1.0000000E+04;  0.0000000E+00;  9.9886357E+03; -8.1604409E-01;  0.0000000E+00;  1.1798295E-01;  5.7122446E+03;
  5.5948412E-01;  9.9999998E-03; -2.8011942E-01;1898; -1.8608361E-01;  0.0000000E+00; -3.6761429E-02;  1.0027020E+03;  4.0009665E-01;  2.2385325E+03;3; -6.0947803E+01;  0.0000000E+00; -8.0047188E+00;0; -6.8904203E-01;  1.0058737E+04;  0.0000000E+00;  2.8243710E-03;  1.0000000E+04;  0.0000000E+00;  9.9904775E+03; -8.0524653E-01;  0.0000000E+00;  1.1620449E-01;  4.7983281E+03;
  5.5948526E-01;  9.9999998E-03; -2.6009873E-01;1899; -1.8918633E-01;  0.0000000E+00; -3.2616377E-02;  1.0026321E+03;  4.0009663E-01;  2.1806582E+03;3; -5.2708065E+01;  0.0000000E+00; -5.6501532E+00;0; -6.8116391E-01;  1.0057100E+04;  0.0000000E+00;  2.8475029E-03;  1.0000000E+04;  0.0000000E+00;  9.9907197E+03; -7.9446918E-01;  0.0000000E+00;  1.1330527E-01;  4.6776089E+03;
  5.5948979E-01;  9.9999998E-03; -2.4008897E-01;1900; -1.9103153E-01;  0.0000000E+00; -3.0220058E-02;  1.0024973E+03;  4.0009671E-01;  2.0688599E+03;3; -4.7835960E+01;  0.0000000E+00; -4.3724947E+00;0; -6.5984267E-01;  1.0055407E+04;  0.0000000E+00;  1.7358614E-03;  1.0000000E+04;  0.0000000E+00;  9.9897236E+03; -7.8452915E-01;  0.0000000E+00;  1.2468646E-01;  5.1534814E+03;
  5.5949712E-01;  9.9999998E-03; -2.2008352E-01;1901; -1.9164856E-01;  0.0000000E+00; -2.8829806E-02;  1.0024128E+03;  4.0009686E-01;  1.9989366E+03;3; -4.5826130E+01;  0.0000000E+00; -3.9375598E+00;0; -6.4551020E-01;  1.0053715E+04;  0.0000000E+00;  7.5649004E-04;  1.0000000E+04;  0.0000000E+00;  9.9897236E+03; -7.7587360E-01;  0.0000000E+00;  1.3036342E-01;  5.1420640E+03;
  5.5950648E-01;  9.9999998E-03; -2.0007798E-01;1902; -1.9135539E-01;  0.0000000E+00; -2.7077999E-02;  1.0023618E+03;  4.0009677E-01;  1.9566666E+03;3; -4.5766430E+01;  0.0000000E+00; -3.7644830E+00;0; -6.3754040E-01;  1.0052103E+04;  0.0000000E+00;  2.4611031E-04;  1.0000000E+04;  0.0000000E+00;  9.9903057E+03; -7.6874256E-01;  0.0000000E+00;  1.3120216E-01;  4.8457383E+03;
  5.7940871E-01;  9.9999998E-03; -3.0017000E-01;1928; -2.0185934E-01;  0.0000000E+00; -4.5216192E-02;  1.0029542E+03;  4.0025771E-01;  2.4474053E+03;3; -7.7455246E+01;  0.0000000E+00; -1.1923814E+01;0; -6.5218794E-01;  1.0058036E+04;  0.0000000E+00;  7.5603055E-04;  1.0000000E+04;  0.0000000E+00;  9.9881162E+03; -7.6799601E-01;  0.0000000E+00;  1.1580805E-01;  5.9591270E+03;
  5.7941455E-01;  9.9999998E-03; -2.8014448E-01;1929; -2.0464407E-01;  0.0000000E+00; -4.1472826E-02;  1.0029694E+03;  4.0025786E-01;  2.4600469E+03;3; -6.4942932E+01;  0.0000000E+00; -7.4697003E+00;0; -6.4091468E-01;  1.0056600E+04;  0.0000000E+00;  4.4422713E-03;  1.0000000E+04;  0.0000000E+00;  9.9898594E+03; -7.5851512E-01;  0.0000000E+00;  1.1760047E-01;  5.0907212E+03;
  5.7942098E-01;  9.9999998E-03; -2.6012117E-01;1930; -2.0691431E-01;  0.0000000E+00; -3.6791861E-02;  1.0028691E+03;  4.0025795E-01;  2.3769885E+03;3; -5.5645992E+01;  0.0000000E+00; -4.8147931E+00;0; -6.2960094E-01;  1.0055056E+04;  0.0000000E+00;  4.7166375E-03;  1.0000000E+04;  0.0000000E+00;  9.9894072E+03; -7.4950379E-01;  0.0000000E+00;  1.1990283E-01;  5.3102192E+03;
  5.7942891E-01;  9.9999998E-03; -2.4011134E-01;1931; -2.0826375E-01;  0.0000000E+00; -3.4573227E-02;  1.0027039E+03;  4.0025797E-01;  2.2401052E+03;3; -5.0118492E+01;  0.0000000E+00; -3.6252499E+00;0; -6.0225594E-01;  1.0053487E+04;  0.0000000E+00;  2.9691691E-03;  1.0000000E+04;  0.0000000E+00;  9.9876807E+03; -7.4164289E-01;  0.0000000E+00;  1.3938697E-01;  6.1381885E+03;
  5.7943869E-01;  9.9999998E-03; -2.2010629E-01;1932; -2.0861088E-01;  0.0000000E+00; -3.3402991E-02;  1.0026148E+03;  4.0025800E-01;  2.1663306E+03;3; -4.7827084E+01;  0.0000000E+00; -3.2978656E+00;0; -5.8668673E-01;  1.0051938E+04;  0.0000000E+00;  1.2944249E-03;  1.0000000E+04;  0.0000000E+00;  9.9874482E+03; -7.3502630E-01;  0.0000000E+00;  1.4833958E-01;  6.2389351E+03;
  5.7944965E-01;  9.9999998E-03; -2.0010017E-01;1933; -2.0827486E-01;  0.0000000E+00; -3.1659231E-02;  1.0025712E+03;  4.0025815E-01;  2.1301838E+03;3; -4.7822517E+01;  0.0000000E+00; -3.0816786E+00;0; -5.7970172E-01;  1.0050452E+04;  0.0000000E+00;  3.6633486E-04;  1.0000000E+04;  0.0000000E+00;  9.9880615E+03; -7.2962052E-01;  0.0000000E+00;  1.4991878E-01;  5.9282520E+03;
  5.9933108E-01;  9.9999998E-03; -3.0020797E-01;1959; -2.2143976E-01;  0.0000000E+00; -5.1693767E-02;  1.0035287E+03;  4.0066683E-01;  2.9234224E+03;3; -8.2939316E+01;  0.0000000E+00; -1.2084052E+01;0; -5.3092897E-01;  1.0050199E+04;  0.0000000E+00;  1.5338393E-03;  1.0000000E+04;  0.0000000E+00;  9.9869697E+03; -6.4495617E-01;  0.0000000E+00;  1.1402719E-01;  6.4957700E+03;
  5.9934646E-01;  9.9999998E-03; -2.8018007E-01;1960; -2.2231735E-01;  0.0000000E+00; -4.7779929E-02;  1.0035381E+03;  4.0066713E-01;  2.9312244E+03;3; -6.8631371E+01;  0.0000000E+00; -6.8338418E+00;0; -5.1810533E-01;  1.0049157E+04;  0.0000000E+00;  6.9823144E-03;  1.0000000E+04;  0.0000000E+00;  9.9881953E+03; -6.4109117E-01;  0.0000000E+00;  1.2298585E-01;  5.8785698E+03;
  5.9935892E-01;  9.9999998E-03; -2.6015407E-01;1961; -2.2341992E-01;  0.0000000E+00; -4.3062832E-02;  1.0034275E+03;  4.0066734E-01;  2.8395742E+03;3; -5.8260845E+01;  0.0000000E+00; -3.9251969E+00;0; -5.0358135E-01;  1.0048072E+04;  0.0000000E+00;  7.6606018E-03;  1.0000000E+04;  0.0000000E+00;  9.9870781E+03; -6.3843292E-01;  0.0000000E+00;  1.3485156E-01;  6.4185811E+03;
  5.9937018E-01;  9.9999998E-03; -2.4014167E-01;1962; -2.2436067E-01;  0.0000000E+00; -4.0352754E-02;  1.0032595E+03;  4.0066761E-01;  2.7003215E+03;3; -5.1960945E+01;  0.0000000E+00; -2.9342322E+00;0; -4.7807723E-01;  1.0046991E+04;  0.0000000E+00;  4.9256417E-03;  1.0000000E+04;  0.0000000E+00;  9.9848145E+03; -6.3722211E-01;  0.0000000E+00;  1.5914488E-01;  7.5074126E+03;
  5.9938198E-01;  9.9999998E-03; -2.2013506E-01;1963; -2.2465554E-01;  0.0000000E+00; -3.8949426E-02;  1.0031816E+03;  4.0066794E-01;  2.6358306E+03;3; -4.9556492E+01;  0.0000000E+00; -2.3813322E+00;0; -4.6478748E-01;  1.0045917E+04;  0.0000000E+00;  2.1391457E-03;  1.0000000E+04;  0.0000000E+00;  9.9843271E+03; -6.3689572E-01;  0.0000000E+00;  1.7210822E-01;  7.7311577E+03;
  5.9939444E-01;  9.9999998E-03; -2.0012712E-01;1964; -2.2429453E-01;  0.0000000E+00; -3.6995653E-02;  1.0031597E+03;  4.0066788E-01;  2.6176584E+03;3; -4.9626537E+01;  0.0000000E+00; -2.1399710E+00;0; -4.6158925E-01;  1.0044847E+04;  0.0000000E+00;  5.2271853E-04;  1.0000000E+04;  0.0000000E+00;  9.9849512E+03; -6.3676912E-01;  0.0000000E+00;  1.7517987E-01;  7.4159966E+03;
  6.1926252E-01;  9.9999998E-03; -3.0025995E-01;1990; -2.3844206E-01;  0.0000000E+00; -6.0373668E-02;  1.0049470E+03;  4.0160507E-01;  4.0984551E+03;3; -8.7547012E+01;  0.0000000E+00; -1.2247764E+01;0; -2.9544589E-01;  1.0034979E+04;  0.0000000E+00;  2.7380497E-03;  1.0000000E+04;  0.0000000E+00;  9.9837051E+03; -4.1975319E-01;  0.0000000E+00;  1.2430731E-01;  8.0355034E+03;
  6.1928576E-01;  9.9999998E-03; -2.8023180E-01;1991; -2.3751785E-01;  0.0000000E+00; -5.6980208E-02;  1.0049593E+03;  4.0160576E-01;  4.1086274E+03;3; -7.1603233E+01;  0.0000000E+00; -6.4486256E+00;0; -2.8189981E-01;  1.0034700E+04;  0.0000000E+00;  1.0467391E-02;  1.0000000E+04;  0.0000000E+00;  9.9841943E+03; -4.2632368E-01;  0.0000000E+00;  1.4442387E-01;  7.7754199E+03;
  6.1930150E-01;  9.9999998E-03; -2.6020038E-01;1992; -2.3826072E-01;  0.0000000E+00; -5.1588025E-02;  1.0049090E+03;  4.0160641E-01;  4.0669507E+03;3; -6.0042519E+01;  0.0000000E+00; -3.7000268E+00;0; -2.8033662E-01;  1.0034439E+04;  0.0000000E+00;  1.1684434E-02;  1.0000000E+04;  0.0000000E+00;  9.9834541E+03; -4.3477917E-01;  0.0000000E+00;  1.5444253E-01;  8.1345083E+03;
  6.1931562E-01;  9.9999998E-03; -2.4018131E-01;1993; -2.3896106E-01;  0.0000000E+00; -4.7580816E-02;  1.0047834E+03;  4.0160692E-01;  3.9628572E+03;3; -5.3520256E+01;  0.0000000E+00; -1.9687381E+00;0; -2.6373178E-01;  1.0034217E+04;  0.0000000E+00;  7.7362875E-03;  1.0000000E+04;  0.0000000E+00;  9.9811719E+03; -4.4487840E-01;  0.0000000E+00;  1.8114664E-01;  9.2355850E+03;
  6.1932975E-01;  9.9999998E-03; -2.2016977E-01;1994; -2.3895708E-01;  0.0000000E+00; -4.5521952E-02;  1.0047354E+03;  4.0160736E-01;  3.9231555E+03;3; -5.0998455E+01;  0.0000000E+00; -1.2703469E+00;0; -2.5568411E-01;  1.0033983E+04;  0.0000000E+00;  3.4133594E-03;  1.0000000E+04;  0.0000000E+00;  9.9804482E+03; -4.5533755E-01;  0.0000000E+00;  1.9965345E-01;  9.5733457E+03;
  6.1934364E-01;  9.9999998E-03; -2.0015804E-01;1995; -2.3857559E-01;  0.0000000E+00; -4.2865332E-02;  1.0047477E+03;  4.0160757E-01;  3.9333279E+03;3; -5.1105408E+01;  0.0000000E+00; -8.2520562E-01;0; -2.5867200E-01;  1.0033652E+04;  0.0000000E+00;  7.7770394E-04;  1.0000000E+04;  0.0000000E+00;  9.9810029E+03; -4.6460059E-01;  0.0000000E+00;  2.0592858E-01;  9.2910039E+03;
  6.3921171E-01;  9.9999998E-03; -3.0032900E-01;2021; -2.5069648E-01;  0.0000000E+00; -7.1538843E-02;  1.0077345E+03;  4.0333158E-01;  6.4077158E+03;3; -9.0756813E+01;  0.0000000E+00; -1.2620660E+01;0;  7.8400485E-02;  1.0011399E+04;  0.0000000E+00;  3.9216108E-03;  1.0000000E+04;  0.0000000E+00;  9.9769736E+03; -7.3370852E-02;  0.0000000E+00;  1.5177134E-01;  1.1239052E+04;
  6.3923723E-01;  9.9999998E-03; -2.8030312E-01;2022; -2.4963130E-01;  0.0000000E+00; -6.9492280E-02;  1.0077761E+03;  4.0333286E-01;  6.4421831E+03;3; -7.4005280E+01;  0.0000000E+00; -6.5563846E+00;0;  9.1893524E-02;  1.0012171E+04;  0.0000000E+00;  1.3810189E-02;  1.0000000E+04;  0.0000000E+00;  9.9769688E+03; -9.4008073E-02;  0.0000000E+00;  1.8590160E-01;  1.1213581E+04;
  6.3925457E-01;  9.9999998E-03; -2.6026973E-01;2023; -2.5043839E-01;  0.0000000E+00; -6.3885234E-02;  1.0078375E+03;  4.0333366E-01;  6.4930439E+03;3; -6.1659252E+01;  0.0000000E+00; -3.5655875E+00;0;  7.0067599E-02;  1.0013014E+04;  0.0000000E+00;  1.5960762E-02;  1.0000000E+04;  0.0000000E+00;  9.9773320E+03; -1.1677690E-01;  0.0000000E+00;  1.8684450E-01;  1.1042910E+04;
  6.3926917E-01;  9.9999998E-03; -2.4023670E-01;2024; -2.5114956E-01;  0.0000000E+00; -5.7733789E-02;  1.0078468E+03;  4.0333432E-01;  6.5007476E+03;3; -5.4795082E+01;  0.0000000E+00; -1.1706153E+00;0;  6.4284042E-02;  1.0013904E+04;  0.0000000E+00;  1.1046076E-02;  1.0000000E+04;  0.0000000E+00;  9.9766201E+03; -1.4104174E-01;  0.0000000E+00;  2.0532578E-01;  1.1381092E+04;
  6.3928419E-01;  9.9999998E-03; -2.2021168E-01;2025; -2.5101292E-01;  0.0000000E+00; -5.3048063E-02;  1.0078630E+03;  4.0333498E-01;  6.5141787E+03;3; -5.2045338E+01;  0.0000000E+00;  1.3940288E-02;0;  6.1539531E-02;  1.0014748E+04;  0.0000000E+00;  5.1301573E-03;  1.0000000E+04;  0.0000000E+00;  9.9760801E+03; -1.6498718E-01;  0.0000000E+00;  2.2652671E-01;  1.1628381E+04;
  6.3930011E-01;  9.9999998E-03; -2.0019357E-01;2026; -2.5034952E-01;  0.0000000E+00; -4.9254593E-02;  1.0079163E+03;  4.0333539E-01;  6.5583242E+03;3; -5.2209652E+01;  0.0000000E+00;  6.6925234E-01;0;  5.2570432E-02;  1.0015412E+04;  0.0000000E+00;  1.2714415E-03;  1.0000000E+04;  0.0000000E+00;  9.9764512E+03; -1.8629949E-01;  0.0000000E+00;  2.3886992E-01;  1.1433309E+04;
  6.5918469E-01;  9.9999998E-03; -3.0040950E-01;2052; -2.5675243E-01;  0.0000000E+00; -8.4241062E-02;  1.0111685E+03;  4.0551752E-01;  9.2524824E+03;3; -9.2353683E+01;  0.0000000E+00; -1.2853758E+01;0;  5.7165080E-01;  9.9802041E+03;  0.0000000E+00;  3.7302987E-03;  1.0000000E+04;  0.0000000E+00;  9.9681572E+03;  3.8909489E-01;  0.0000000E+00;  1.8255591E-01;  1.5449373E+04;
  6.5920860E-01;  9.9999998E-03; -2.8038713E-01;2053; -2.5615528E-01;  0.0000000E+00; -8.4985837E-02;  1.0112626E+03;  4.0551880E-01;  9.3304033E+03;3; -7.4889648E+01;  0.0000000E+00; -7.3710122E+00;0;  5.9612262E-01;  9.9821113E+03;  0.0000000E+00;  1.4928138E-02;  1.0000000E+04;  0.0000000E+00;  9.9680537E+03;  3.5411641E-01;  0.0000000E+00;  2.4200620E-01;  1.5443074E+04;
  6.5922689E-01;  9.9999998E-03; -2.6036093E-01;2054; -2.5738904E-01;  0.0000000E+00; -8.0171563E-02;  1.0114162E+03;  4.0551922E-01;  9.4577021E+03;3; -6.2094147E+01;  0.0000000E+00; -4.2526259E+00;0;  5.4644656E-01;  9.9841182E+03;  0.0000000E+00;  1.8607119E-02;  1.0000000E+04;  0.0000000E+00;  9.9690732E+03;  3.1720462E-01;  0.0000000E+00;  2.2924192E-01;  1.4970979E+04;
  6.5924120E-01;  9.9999998E-03; -2.4031803E-01;2055; -2.5818941E-01;  0.0000000E+00; -7.3440351E-02;  1.0116091E+03;  4.0551934E-01;  9.6174941E+03;3; -5.5155403E+01;  0.0000000E+00; -1.4708009E+00;0;  5.1466435E-01;  9.9861602E+03;  0.0000000E+00;  1.3758552E-02;  1.0000000E+04;  0.0000000E+00;  9.9708506E+03;  2.7958456E-01;  0.0000000E+00;  2.3507978E-01;  1.4091741E+04;
  6.5925437E-01;  9.9999998E-03; -2.2027230E-01;2056; -2.5877067E-01;  0.0000000E+00; -6.4346649E-02;  1.0117357E+03;  4.0551963E-01;  9.7223750E+03;3; -5.2569775E+01;  0.0000000E+00;  7.6752853E-01;0;  4.9377325E-01;  9.9881143E+03;  0.0000000E+00;  6.9257827E-03;  1.0000000E+04;  0.0000000E+00;  9.9714033E+03;  2.4321190E-01;  0.0000000E+00;  2.5056136E-01;  1.3810657E+04;
  6.5926993E-01;  9.9999998E-03; -2.0023967E-01;2057; -2.5841767E-01;  0.0000000E+00; -5.7342034E-02;  1.0118374E+03;  4.0552002E-01;  9.8066162E+03;3; -5.2847950E+01;  0.0000000E+00;  2.1179323E+00;0;  4.7999227E-01;  9.9898066E+03;  0.0000000E+00;  2.0774889E-03;  1.0000000E+04;  0.0000000E+00;  9.9717080E+03;  2.1065210E-01;  0.0000000E+00;  2.6934019E-01;  1.3643785E+04;
  6.7919481E-01;  9.9999998E-03; -3.0048430E-01;2083; -2.5219777E-01;  0.0000000E+00; -9.4467461E-02;  1.0134258E+03;  4.0727627E-01;  1.1122409E+04;3; -8.9021866E+01;  0.0000000E+00; -1.1524236E+01;0;  1.0854398E+00;  9.9446973E+03;  0.0000000E+00;  1.3980916E-03;  1.0000000E+04;  0.0000000E+00;  9.9617549E+03;  9.2273855E-01;  0.0000000E+00;  1.6270122E-01;  1.8514842E+04;
  6.7920649E-01;  9.9999998E-03; -2.8046519E-01;2084; -2.5554377E-01;  0.0000000E+00; -9.9735834E-02;  1.0135589E+03;  4.0727672E-01;  1.1232622E+04;3; -7.3066917E+01;  0.0000000E+00; -7.1916347E+00;0;  1.1530421E+00;  9.9474648E+03;  0.0000000E+00;  1.1883614E-02;  1.0000000E+04;  0.0000000E+00;  9.9615967E+03;  8.7904412E-01;  0.0000000E+00;  2.7399802E-01;  1.8468447E+04;
  6.7922378E-01;  9.9999998E-03; -2.6045004E-01;2085; -2.5807902E-01;  0.0000000E+00; -9.6716970E-02;  1.0137361E+03;  4.0727657E-01;  1.1379473E+04;3; -6.1093498E+01;  0.0000000E+00; -5.2271624E+00;0;  1.0891035E+00;  9.9503965E+03;  0.0000000E+00;  1.7489254E-02;  1.0000000E+04;  0.0000000E+00;  9.9621738E+03;  8.3342516E-01;  0.0000000E+00;  2.5567824E-01;  1.8224787E+04;
  6.7923737E-01;  9.9999998E-03; -2.4041303E-01;2086; -2.5887206E-01;  0.0000000E+00; -9.2884973E-02;  1.0140299E+03;  4.0727586E-01;  1.1622810E+04;3; -5.4372505E+01;  0.0000000E+00; -1.7941324E+00;0;  1.0508068E+00;  9.9533252E+03;  0.0000000E+00;  1.4256507E-02;  1.0000000E+04;  0.0000000E+00;  9.9650732E+03;  7.8835505E-01;  0.0000000E+00;  2.6245177E-01;  1.6792666E+04;
  6.7924678E-01;  9.9999998E-03; -2.2035214E-01;2087; -2.6050669E-01;  0.0000000E+00; -8.1121236E-02;  1.0142643E+03;  4.0727520E-01;  1.1817065E+04;3; -5.2250893E+01;  0.0000000E+00;  8.6607045E-01;0;  1.0150567E+00;  9.9561211E+03;  0.0000000E+00;  7.9200370E-03;  1.0000000E+04;  0.0000000E+00;  9.9669180E+03;  7.4555683E-01;  0.0000000E+00;  2.6949990E-01;  1.5879779E+04;
  6.7925984E-01;  9.9999998E-03; -2.0030311E-01;2088; -2.6094961E-01;  0.0000000E+00; -7.0391916E-02;  1.0144099E+03;  4.0727508E-01;  1.1937647E+04;3; -5.2794807E+01;  0.0000000E+00;  3.2491889E+00;0;  1.0004245E+00;  9.9586279E+03;  0.0000000E+00;  2.9178474E-03;  1.0000000E+04;  0.0000000E+00;  9.9672881E+03;  7.0713687E-01;  0.0000000E+00;  2.9328766E-01;  1.5679939E+04;
  6.9931072E-01;  9.9999998E-03; -3.0054218E-01;2114; -2.1432072E-01;  0.0000000E+00; -1.0468887E-01;  1.0140199E+03;  4.0824538E-01;  1.1614282E+04;3; -7.2279922E+01;  0.0000000E+00; -1.2651440E+01;0;  1.5821660E+00;  9.9109189E+03;  0.0000000E+00;  4.0969662E-03;  1.0000000E+04;  0.0000000E+00;  9.9598262E+03;  1.4367512E+00;  0.0000000E+00;  1.4541472E-01;  1.9346650E+04;
  6.9926357E-01;  9.9999998E-03; -2.8052571E-01;2115; -2.3977351E-01;  0.0000000E+00; -1.1175435E-01;  1.0141269E+03;  4.0824515E-01;  1.1702964E+04;3; -6.7032875E+01;  0.0000000E+00; -8.4012222E+00;0;  1.6670604E+00;  9.9138037E+03;  0.0000000E+00;  7.6087709E-03;  1.0000000E+04;  0.0000000E+00;  9.9591016E+03;  1.3980223E+00;  0.0000000E+00;  2.6903805E-01;  1.9566377E+04;
  6.9926202E-01;  9.9999998E-03; -2.6052317E-01;2116; -2.4870166E-01;  0.0000000E+00; -1.1025726E-01;  1.0142297E+03;  4.0824458E-01;  1.1788189E+04;3; -5.7803696E+01;  0.0000000E+00; -5.3743582E+00;0;  1.6100665E+00;  9.9169844E+03;  0.0000000E+00;  1.2883897E-02;  1.0000000E+04;  0.0000000E+00;  9.9579854E+03;  1.3561921E+00;  0.0000000E+00;  2.5387439E-01;  2.0167563E+04;
  6.9927329E-01;  9.9999998E-03; -2.4050109E-01;2117; -2.4889149E-01;  0.0000000E+00; -1.1331889E-01;  1.0145245E+03;  4.0824339E-01;  1.2032411E+04;3; -5.1251320E+01;  0.0000000E+00; -1.9382048E+00;0;  1.5976824E+00;  9.9201846E+03;  0.0000000E+00;  1.1903632E-02;  1.0000000E+04;  0.0000000E+00;  9.9606309E+03;  1.3153589E+00;  0.0000000E+00;  2.8232351E-01;  1.8833432E+04;
  6.9927758E-01;  9.9999998E-03; -2.2044380E-01;2118; -2.5125957E-01;  0.0000000E+00; -1.0527450E-01;  1.0148050E+03;  4.0824214E-01;  1.2264683E+04;3; -4.9881790E+01;  0.0000000E+00; -2.4945837E-01;0;  1.5631218E+00;  9.9232676E+03;  0.0000000E+00;  7.2949659E-03;  1.0000000E+04;  0.0000000E+00;  9.9630996E+03;  1.2770250E+00;  0.0000000E+00;  2.8609678E-01;  1.7615502E+04;
  6.9928604E-01;  9.9999998E-03; -2.0038600E-01;2119; -2.5305915E-01;  0.0000000E+00; -9.2896536E-02;  1.0149755E+03;  4.0824148E-01;  1.2405902E+04;3; -5.1138920E+01;  0.0000000E+00;  2.4244325E+00;0;  1.5519552E+00;  9.9261270E+03;  0.0000000E+00;  3.1839490E-03;  1.0000000E+04;  0.0000000E+00;  9.9636182E+03;  1.2422276E+00;  0.0000000E+00;  3.0972761E-01;  1.7343986E+04;
  7.1952671E-01;  9.9999998E-03; -3.0058506E-01;2145; -1.4268410E-01;  0.0000000E+00; -1.1189736E-01;  1.0138268E+03;  4.0867072E-01;  1.1454085E+04;3; -4.5592216E+01;  0.0000000E+00; -1.4104067E+01;0;  1.9150944E+00;  9.8860146E+03;  0.0000000E+00;  7.8780781E-03;  1.0000000E+04;  0.0000000E+00;  9.9602715E+03;  1.8152856E+00;  0.0000000E+00;  9.9808753E-02;  1.9070338E+04;
  7.1946841E-01;  9.9999998E-03; -2.8056833E-01;2146; -1.7009388E-01;  0.0000000E+00; -1.1980305E-01;  1.0138828E+03;  4.0867075E-01;  1.1500400E+04;3; -4.4717995E+01;  0.0000000E+00; -7.4427872E+00;0;  2.0371807E+00;  9.8880498E+03;  0.0000000E+00;  1.1025432E-02;  1.0000000E+04;  0.0000000E+00;  9.9593711E+03;  1.7998711E+00;  0.0000000E+00;  2.3730963E-01;  1.9358516E+04;
  7.1942329E-01;  9.9999998E-03; -2.6057023E-01;2147; -1.9524422E-01;  0.0000000E+00; -1.2110238E-01;  1.0138796E+03;  4.0867046E-01;  1.1497834E+04;3; -4.4701847E+01;  0.0000000E+00; -5.6752906E+00;0;  2.0256023E+00;  9.8904668E+03;  0.0000000E+00;  1.0427235E-02;  1.0000000E+04;  0.0000000E+00;  9.9569443E+03;  1.7803860E+00;  0.0000000E+00;  2.4521627E-01;  2.0575119E+04;
  7.1939725E-01;  9.9999998E-03; -2.4056233E-01;2148; -2.1196926E-01;  0.0000000E+00; -1.2839951E-01;  1.0140773E+03;  4.0866894E-01;  1.1661565E+04;3; -4.4346622E+01;  0.0000000E+00; -1.8007318E+00;0;  2.0458486E+00;  9.8930498E+03;  0.0000000E+00;  8.2705375E-03;  1.0000000E+04;  0.0000000E+00;  9.9583105E+03;  1.7599511E+00;  0.0000000E+00;  2.8589752E-01;  1.9860816E+04;
  7.1938819E-01;  9.9999998E-03; -2.2052228E-01;2149; -2.1988806E-01;  0.0000000E+00; -1.2947252E-01;  1.0143197E+03;  4.0866774E-01;  1.1862329E+04;3; -4.3759220E+01;  0.0000000E+00; -8.8303554E-01;0;  2.0373559E+00;  9.8956758E+03;  0.0000000E+00;  5.2231965E-03;  1.0000000E+04;  0.0000000E+00;  9.9604834E+03;  1.7398852E+00;  0.0000000E+00;  2.9747066E-01;  1.8779211E+04;
  7.1939290E-01;  9.9999998E-03; -2.0047189E-01;2150; -2.2307448E-01;  0.0000000E+00; -1.2398303E-01;  1.0144772E+03;  4.0866709E-01;  1.1992880E+04;3; -4.5089043E+01;  0.0000000E+00; -9.4349831E-01;0;  2.0404415E+00;  9.8983057E+03;  0.0000000E+00;  2.5452122E-03;  1.0000000E+04;  0.0000000E+00;  9.9609736E+03;  1.7199043E+00;  0.0000000E+00;  3.2053715E-01;  1.8521154E+04;
  7.3971373E-01;  9.9999998E-03; -3.0061680E-01;2176; -8.5291408E-02;  0.0000000E+00; -1.1571324E-01;  1.0136548E+03;  4.0883806E-01;  1.1311168E+04;3; -2.6960167E+01;  0.0000000E+00; -1.1670567E+01;0;  2.0325177E+00;  9.8741699E+03;  0.0000000E+00;  1.7290022E-03;  1.0000000E+04;  0.0000000E+00;  9.9607227E+03;  1.9896544E+00;  0.0000000E+00;  4.2863134E-02;  1.8868150E+04;
  7.3967510E-01;  9.9999998E-03; -2.8059667E-01;2177; -1.0234132E-01;  0.0000000E+00; -1.2703267E-01;  1.0136764E+03;  4.0883827E-01;  1.1329042E+04;3; -2.6283110E+01;  0.0000000E+00; -5.1290531E+00;0;  2.2371993E+00;  9.8748877E+03;  0.0000000E+00;  7.5132661E-03;  1.0000000E+04;  0.0000000E+00;  9.9604453E+03;  2.0040436E+00;  0.0000000E+00;  2.3315570E-01;  1.8769711E+04;
  7.3964363E-01;  9.9999998E-03; -2.6058593E-01;2178; -1.1848691E-01;  0.0000000E+00; -1.2449905E-01;  1.0136625E+03;  4.0883818E-01;  1.1317489E+04;3; -2.6053493E+01;  0.0000000E+00; -5.9448562E+00;0;  2.2215197E+00;  9.8758623E+03;  0.0000000E+00;  7.1859355E-03;  1.0000000E+04;  0.0000000E+00;  9.9592207E+03;  2.0181282E+00;  0.0000000E+00;  2.0339149E-01;  1.9422559E+04;
  7.3962098E-01;  9.9999998E-03; -2.4057461E-01;2179; -1.3135143E-01;  0.0000000E+00; -1.2948716E-01;  1.0137225E+03;  4.0883714E-01;  1.1367160E+04;3; -2.6073099E+01;  0.0000000E+00; -1.8527222E+00;0;  2.2824981E+00;  9.8771318E+03;  0.0000000E+00;  4.9937814E-03;  1.0000000E+04;  0.0000000E+00;  9.9591777E+03;  2.0301352E+00;  0.0000000E+00;  2.5236300E-01;  1.9393230E+04;
  7.3960942E-01;  9.9999998E-03; -2.2053796E-01;2180; -1.3994324E-01;  0.0000000E+00; -1.3092211E-01;  1.0138445E+03;  4.0883616E-01;  1.1468279E+04;3; -2.7097658E+01;  0.0000000E+00; -6.7547292E-01;0;  2.3203523E+00;  9.8787246E+03;  0.0000000E+00;  2.9038284E-03;  1.0000000E+04;  0.0000000E+00;  9.9600166E+03;  2.0382648E+00;  0.0000000E+00;  2.8208765E-01;  1.8948084E+04;
  7.3960876E-01;  9.9999998E-03; -2.0049138E-01;2181; -1.4446442E-01;  0.0000000E+00; -1.2652966E-01;  1.0139280E+03;  4.0883541E-01;  1.1537503E+04;3; -2.8791733E+01;  0.0000000E+00;  1.4115915E-01;0;  2.3579888E+00;  9.8806709E+03;  0.0000000E+00;  1.4414841E-03;  1.0000000E+04;  0.0000000E+00;  9.9597285E+03;  2.0407076E+00;  0.0000000E+00;  3.1728113E-01;  1.9057066E+04;
  7.5984919E-01;  9.9999998E-03; -3.0063969E-01;2207; -4.7671780E-02;  0.0000000E+00; -1.1879682E-01;  1.0137863E+03;  4.0890041E-01;  1.1419421E+04;3; -1.6980574E+01;  0.0000000E+00; -9.1923437E+00;0;  2.0004272E+00;  9.8742188E+03;  0.0000000E+00; -3.7669591E-03;  1.0000000E+04;  0.0000000E+00;  9.9602715E+03;  1.9848139E+00;  0.0000000E+00;  1.5613256E-02;  1.9122941E+04;
  7.5982708E-01;  9.9999998E-03; -2.8061718E-01;2208; -5.6596331E-02;  0.0000000E+00; -1.3341127E-01;  1.0137599E+03;  4.0890065E-01;  1.1397697E+04;3; -1.6178465E+01;  0.0000000E+00; -3.4978681E+00;0;  2.2833428E+00;  9.8736924E+03;  0.0000000E+00;  1.5036262E-03;  1.0000000E+04;  0.0000000E+00;  9.9602891E+03;  2.0240679E+00;  0.0000000E+00;  2.5927499E-01;  1.8795322E+04;
  7.5980937E-01;  9.9999998E-03; -2.6059207E-01;2209; -6.5005869E-02;  0.0000000E+00; -1.2611800E-01;  1.0137729E+03;  4.0890080E-01;  1.1408362E+04;3; -1.5559072E+01;  0.0000000E+00; -6.5492849E+00;0;  2.2461441E+00;  9.8732754E+03;  0.0000000E+00;  2.4599915E-03;  1.0000000E+04;  0.0000000E+00;  9.9609814E+03;  2.0669568E+00;  0.0000000E+00;  1.7918731E-01;  1.8550633E+04;
  7.5979501E-01;  9.9999998E-03; -2.4057466E-01;2210; -7.2373666E-02;  0.0000000E+00; -1.2771566E-01;  1.0137230E+03;  4.0890011E-01;  1.1367088E+04;3; -1.5358109E+01;  0.0000000E+00; -1.9389787E+00;0;  2.3374085E+00;  9.8732031E+03;  0.0000000E+00;  1.7634237E-03;  1.0000000E+04;  0.0000000E+00;  9.9601074E+03;  2.1080136E+00;  0.0000000E+00;  2.2939497E-01;  1.8926721E+04;
  7.5978619E-01;  9.9999998E-03; -2.2053847E-01;2211; -7.7860661E-02;  0.0000000E+00; -1.2755343E-01;  1.0137382E+03;  4.0889946E-01;  1.1379728E+04;3; -1.5776468E+01;  0.0000000E+00;  6.3561910E-01;0;  2.4139516E+00;  9.8736758E+03;  0.0000000E+00;  9.8753779E-04;  1.0000000E+04;  0.0000000E+00;  9.9599697E+03;  2.1424961E+00;  0.0000000E+00;  2.7145550E-01;  1.8945561E+04;
  7.5978327E-01;  9.9999998E-03; -2.0049439E-01;2212; -8.1425838E-02;  0.0000000E+00; -1.2242559E-01;  1.0137515E+03;  4.0889877E-01;  1.1390688E+04;3; -1.6811316E+01;  0.0000000E+00;  3.3401136E+00;0;  2.4814172E+00;  9.8747852E+03;  0.0000000E+00;  4.9737870E-04;  1.0000000E+04;  0.0000000E+00;  9.9591416E+03;  2.1666923E+00;  0.0000000E+00;  3.1472504E-01;  1.9309693E+04;
  7.7994257E-01;  9.9999998E-03; -3.0065468E-01;2238; -2.3790192E-02;  0.0000000E+00; -1.2117343E-01;  1.0141521E+03;  4.0892249E-01;  1.1721679E+04;3; -1.1770668E+01;  0.0000000E+00; -8.0324545E+00;0;  1.8951180E+00;  9.8814648E+03;  0.0000000E+00; -3.1723918E-03;  1.0000000E+04;  0.0000000E+00;  9.9590898E+03;  1.8835212E+00;  0.0000000E+00;  1.1596803E-02;  1.9728746E+04;
  7.7993405E-01;  9.9999998E-03; -2.8063059E-01;2239; -2.6719840E-02;  0.0000000E+00; -1.3745572E-01;  1.0140850E+03;  4.0892291E-01;  1.1666188E+04;3; -1.0887138E+01;  0.0000000E+00; -2.1128097E+00;0;  2.2257242E+00;  9.8800342E+03;  0.0000000E+00; -7.8801834E-04;  1.0000000E+04;  0.0000000E+00;  9.9592119E+03;  1.9385437E+00;  0.0000000E+00;  2.8718042E-01;  1.9301926E+04;
  7.7992749E-01;  9.9999998E-03; -2.6059625E-01;2240; -2.9349618E-02;  0.0000000E+00; -1.2875091E-01;  1.0141195E+03;  4.0892297E-01;  1.1694724E+04;3; -1.0051044E+01;  0.0000000E+00; -8.2199917E+00;0;  2.1870067E+00;  9.8786348E+03;  0.0000000E+00;  6.8492853E-05;  1.0000000E+04;  0.0000000E+00;  9.9613115E+03;  1.9990431E+00;  0.0000000E+00;  1.8796352E-01;  1.8374406E+04;
  7.7992088E-01;  9.9999998E-03; -2.4057318E-01;2241; -3.2057296E-02;  0.0000000E+00; -1.2654428E-01;  1.0140140E+03;  4.0892240E-01;  1.1607341E+04;3; -9.5182076E+00;  0.0000000E+00; -1.8765188E+00;0;  2.2856023E+00;  9.8776074E+03;  0.0000000E+00;  1.6139541E-04;  1.0000000E+04;  0.0000000E+00;  9.9603037E+03;  2.0580385E+00;  0.0000000E+00;  2.2756393E-01;  1.8824520E+04;
  7.7991551E-01;  9.9999998E-03; -2.2053565E-01;2242; -3.4526680E-02;  0.0000000E+00; -1.2425871E-01;  1.0139678E+03;  4.0892190E-01;  1.1569131E+04;3; -9.3728485E+00;  0.0000000E+00;  2.2483692E+00;0;  2.3819218E+00;  9.8772227E+03;  0.0000000E+00;  9.1945483E-05;  1.0000000E+04;  0.0000000E+00;  9.9598135E+03;  2.1092286E+00;  0.0000000E+00;  2.7269325E-01;  1.9012836E+04;
  7.7991229E-01;  9.9999998E-03; -2.0049210E-01;2243; -3.6557056E-02;  0.0000000E+00; -1.1842687E-01;  1.0139384E+03;  4.0892133E-01;  1.1544644E+04;3; -9.6289206E+00;  0.0000000E+00;  5.6782980E+00;0;  2.4655719E+00;  9.8776523E+03;  0.0000000E+00;  4.7390782E-05;  1.0000000E+04;  0.0000000E+00;  9.9588320E+03;  2.1476657E+00;  0.0000000E+00;  3.1790611E-01;  1.9446500E+04;
  8.0001640E-01;  9.9999998E-03; -3.0066225E-01;2269; -4.1129608E-03;  0.0000000E+00; -1.2255005E-01;  1.0145764E+03;  4.0892881E-01;  1.2071989E+04;3; -6.6918268E+00;  0.0000000E+00; -7.9230738E+00;0;  1.7859415E+00;  9.8907676E+03;  0.0000000E+00; -5.5291742E-04;  1.0000000E+04;  0.0000000E+00;  9.9577314E+03;  1.7699343E+00;  0.0000000E+00;  1.6007148E-02;  2.0406865E+04;
  8.0001909E-01;  9.9999998E-03; -2.8063762E-01;2270; -2.4012350E-03;  0.0000000E+00; -1.3928062E-01;  1.0144790E+03;  4.0892923E-01;  1.1991427E+04;3; -5.9840708E+00;  0.0000000E+00; -9.7483420E-01;0;  2.1385834E+00;  9.8888682E+03;  0.0000000E+00; -3.4568564E-04;  1.0000000E+04;  0.0000000E+00;  9.9577246E+03;  1.8311983E+00;  0.0000000E+00;  3.0738500E-01;  2.0022469E+04;
  8.0002129E-01;  9.9999998E-03; -2.6059985E-01;2271; -6.9093733E-04;  0.0000000E+00; -1.3122638E-01;  1.0145229E+03;  4.0892917E-01;  1.2027759E+04;3; -5.2351408E+00;  0.0000000E+00; -8.8466177E+00;0;  2.1109729E+00;  9.8869971E+03;  0.0000000E+00; -1.7495210E-04;  1.0000000E+04;  0.0000000E+00;  9.9604775E+03;  1.8976279E+00;  0.0000000E+00;  2.1334493E-01;  1.8760084E+04;
  8.0002147E-01;  9.9999998E-03; -2.4057323E-01;2272;  3.6442350E-04;  0.0000000E+00; -1.2715007E-01;  1.0144111E+03;  4.0892869E-01;  1.1935151E+04;3; -4.5754805E+00;  0.0000000E+00; -2.2129650E+00;0;  2.2047958E+00;  9.8855078E+03;  0.0000000E+00; -8.2621780E-05;  1.0000000E+04;  0.0000000E+00;  9.9598105E+03;  1.9623272E+00;  0.0000000E+00;  2.4246866E-01;  1.9053980E+04;
  8.0001968E-01;  9.9999998E-03; -2.2053339E-01;2273;  5.1040394E-04;  0.0000000E+00; -1.2325184E-01;  1.0143510E+03;  4.0892836E-01;  1.1885393E+04;3; -4.0705686E+00;  0.0000000E+00;  2.5917807E+00;0;  2.3028381E+00;  9.8846934E+03;  0.0000000E+00; -4.1338903E-05;  1.0000000E+04;  0.0000000E+00;  9.9594688E+03;  2.0186732E+00;  0.0000000E+00;  2.8416482E-01;  1.9169357E+04;
  8.0001694E-01;  9.9999998E-03; -2.0048775E-01;2274;  1.9874073E-05;  0.0000000E+00; -1.1597440E-01;  1.0143104E+03;  4.0892774E-01;  1.1851825E+04;3; -3.7530525E+00;  0.0000000E+00;  6.4174414E+00;0;  2.3876936E+00;  9.8847529E+03;  0.0000000E+00; -2.1413633E-05;  1.0000000E+04;  0.0000000E+00;  9.9586436E+03;  2.0612812E+00;  0.0000000E+00;  3.2641247E-01;  1.9528227E+04;
  8.2009095E-01;  9.9999998E-03; -3.0066267E-01;2300;  1.8866954E-02;  0.0000000E+00; -1.2282898E-01;  1.0149096E+03;  4.0891680E-01;  1.2346521E+04;3;  1.2246343E+00;  0.0000000E+00; -8.1246042E+00;0;  1.7116989E+00;  9.8988818E+03;  0.0000000E+00;  1.8781971E-04;  1.0000000E+04;  0.0000000E+00;  9.9566523E+03;  1.6900865E+00;  0.0000000E+00;  2.1612430E-02;  2.0924893E+04;
  8.2010388E-01;  9.9999998E-03; -2.8063831E-01;2301;  2.4793234E-02;  0.0000000E+00; -1.3929029E-01;  1.0147977E+03;  4.0891725E-01;  1.2253825E+04;3;  1.5197059E+00;  0.0000000E+00; -3.5411450E-01;0;  2.0656528E+00;  9.8969365E+03;  0.0000000E+00;  2.9480382E-04;  1.0000000E+04;  0.0000000E+00;  9.9564111E+03;  1.7494137E+00;  0.0000000E+00;  3.1623900E-01;  2.0657332E+04;
  8.2011265E-01;  9.9999998E-03; -2.6060185E-01;2302;  3.0052328E-02;  0.0000000E+00; -1.3268070E-01;  1.0148395E+03;  4.0891731E-01;  1.2288475E+04;3;  1.8876745E+00;  0.0000000E+00; -8.6413651E+00;0;  2.0511711E+00;  9.8950615E+03;  0.0000000E+00;  2.8210081E-04;  1.0000000E+04;  0.0000000E+00;  9.9591230E+03;  1.8124137E+00;  0.0000000E+00;  2.3875742E-01;  1.9392908E+04;
  8.2011861E-01;  9.9999998E-03; -2.4057443E-01;2303;  3.4131333E-02;  0.0000000E+00; -1.2930089E-01;  1.0147540E+03;  4.0891686E-01;  1.2217596E+04;3;  2.3426349E+00;  0.0000000E+00; -3.2219007E+00;0;  2.1387599E+00;  9.8935771E+03;  0.0000000E+00;  2.1475329E-04;  1.0000000E+04;  0.0000000E+00;  9.9589648E+03;  1.8729064E+00;  0.0000000E+00;  2.6585349E-01;  1.9436920E+04;
  8.2011992E-01;  9.9999998E-03; -2.2053161E-01;2304;  3.6312871E-02;  0.0000000E+00; -1.2426325E-01;  1.0147174E+03;  4.0891626E-01;  1.2187389E+04;3;  2.8605359E+00;  0.0000000E+00;  1.6002214E+00;0;  2.2248349E+00;  9.8927549E+03;  0.0000000E+00;  1.3527522E-04;  1.0000000E+04;  0.0000000E+00;  9.9590908E+03;  1.9245540E+00;  0.0000000E+00;  3.0028102E-01;  1.9327619E+04;
  8.2011735E-01;  9.9999998E-03; -2.0048213E-01;2305;  3.6850642E-02;  0.0000000E+00; -1.1504012E-01;  1.0146921E+03;  4.0891570E-01;  1.2166362E+04;3;  3.4113834E+00;  0.0000000E+00;  5.7629480E+00;0;  2.2994313E+00;  9.8928027E+03;  0.0000000E+00;  6.5784210E-05;  1.0000000E+04;  0.0000000E+00;  9.9585801E+03;  1.9621280E+00;  0.0000000E+00;  3.3730334E-01;  1.9537250E+04;
  8.4017533E-01;  9.9999998E-03; -3.0065456E-01;2331;  4.7601379E-02;  0.0000000E+00; -1.2190697E-01;  1.0148788E+03;  4.0877190E-01;  1.2318915E+04;3;  1.2414412E+01;  0.0000000E+00; -8.7347612E+00;0;  1.6630422E+00;  9.9052598E+03;  0.0000000E+00; -2.5923684E-04;  1.0000000E+04;  0.0000000E+00;  9.9566816E+03;  1.6420106E+00;  0.0000000E+00;  2.1031640E-02;  2.0879375E+04;
  8.4019756E-01;  9.9999998E-03; -2.8063059E-01;2332;  5.7805259E-02;  0.0000000E+00; -1.3754587E-01;  1.0147672E+03;  4.0877229E-01;  1.2226529E+04;3;  1.2179960E+01;  0.0000000E+00; -2.8139865E-01;0;  2.0036027E+00;  9.9036064E+03;  0.0000000E+00;  8.5335487E-04;  1.0000000E+04;  0.0000000E+00;  9.9561553E+03;  1.6933552E+00;  0.0000000E+00;  3.1024754E-01;  2.0764027E+04;
  8.4021205E-01;  9.9999998E-03; -2.6059660E-01;2333;  6.6421732E-02;  0.0000000E+00; -1.3220648E-01;  1.0148051E+03;  4.0877214E-01;  1.2257914E+04;3;  1.2001708E+01;  0.0000000E+00; -8.2185326E+00;0;  1.9982516E+00;  9.9020850E+03;  0.0000000E+00;  1.0161946E-03;  1.0000000E+04;  0.0000000E+00;  9.9584385E+03;  1.7465490E+00;  0.0000000E+00;  2.5170258E-01;  1.9692211E+04;
  8.4022260E-01;  9.9999998E-03; -2.4057026E-01;2334;  7.2981678E-02;  0.0000000E+00; -1.3035749E-01;  1.0147486E+03;  4.0877163E-01;  1.2211128E+04;3;  1.1944159E+01;  0.0000000E+00; -3.8414779E+00;0;  2.0801928E+00;  9.9009570E+03;  0.0000000E+00;  7.5895438E-04;  1.0000000E+04;  0.0000000E+00;  9.9584941E+03;  1.7960720E+00;  0.0000000E+00;  2.8412074E-01;  1.9622318E+04;
  8.4022623E-01;  9.9999998E-03; -2.2052582E-01;2335;  7.6634794E-02;  0.0000000E+00; -1.2509558E-01;  1.0147487E+03;  4.0877104E-01;  1.2211227E+04;3;  1.2212750E+01;  0.0000000E+00;  6.2752485E-02;0;  2.1499894E+00;  9.9004736E+03;  0.0000000E+00;  4.3824044E-04;  1.0000000E+04;  0.0000000E+00;  9.9590088E+03;  1.8360819E+00;  0.0000000E+00;  3.1390750E-01;  1.9331785E+04;
  8.4022290E-01;  9.9999998E-03; -2.0047408E-01;2336;  7.7448316E-02;  0.0000000E+00; -1.1468540E-01;  1.0147526E+03;  4.0877044E-01;  1.2214386E+04;3;  1.2638975E+01;  0.0000000E+00;  4.2868547E+00;0;  2.2088578E+00;  9.9008115E+03;  0.0000000E+00;  1.9690550E-04;  1.0000000E+04;  0.0000000E+00;  9.9587686E+03;  1.8619270E+00;  0.0000000E+00;  3.4693083E-01;  1.9412014E+04;
  8.6026663E-01;  9.9999998E-03; -3.0063874E-01;2362;  8.0125205E-02;  0.0000000E+00; -1.1996566E-01;  1.0145300E+03;  4.0848705E-01;  1.2027528E+04;3;  2.5531284E+01;  0.0000000E+00; -9.4728193E+00;0;  1.6110181E+00;  9.9113086E+03;  0.0000000E+00;  9.9663113E-05;  1.0000000E+04;  0.0000000E+00;  9.9576533E+03;  1.5916212E+00;  0.0000000E+00;  1.9396892E-02;  2.0351525E+04;
  8.6029798E-01;  9.9999998E-03; -2.8061512E-01;2363;  9.4795771E-02;  0.0000000E+00; -1.3462913E-01;  1.0144328E+03;  4.0848732E-01;  1.1947001E+04;3;  2.4739332E+01;  0.0000000E+00; -7.4889117E-01;0;  1.9283116E+00;  9.9101768E+03;  0.0000000E+00;  2.0669790E-03;  1.0000000E+04;  0.0000000E+00;  9.9568857E+03;  1.6310966E+00;  0.0000000E+00;  2.9721504E-01;  2.0373855E+04;
  8.6031747E-01;  9.9999998E-03; -2.6058325E-01;2364;  1.0666155E-01;  0.0000000E+00; -1.3002720E-01;  1.0144745E+03;  4.0848723E-01;  1.1981536E+04;3;  2.3696970E+01;  0.0000000E+00; -7.4474277E+00;0;  1.9248657E+00;  9.9092412E+03;  0.0000000E+00;  2.2666068E-03;  1.0000000E+04;  0.0000000E+00;  9.9586631E+03;  1.6704515E+00;  0.0000000E+00;  2.5441420E-01;  1.9538238E+04;
  8.6033171E-01;  9.9999998E-03; -2.4055845E-01;2365;  1.1545190E-01;  0.0000000E+00; -1.2952130E-01;  1.0144481E+03;  4.0848660E-01;  1.1959726E+04;3;  2.3242386E+01;  0.0000000E+00; -4.1474133E+00;0;  1.9981863E+00;  9.9087246E+03;  0.0000000E+00;  1.6279680E-03;  1.0000000E+04;  0.0000000E+00;  9.9587051E+03;  1.7046747E+00;  0.0000000E+00;  2.9351160E-01;  1.9469740E+04;
  8.6033696E-01;  9.9999998E-03; -2.2051415E-01;2366;  1.2015168E-01;  0.0000000E+00; -1.2466867E-01;  1.0144875E+03;  4.0848595E-01;  1.1992288E+04;3;  2.3183836E+01;  0.0000000E+00; -1.4480350E+00;0;  2.0503967E+00;  9.9088330E+03;  0.0000000E+00;  8.8128360E-04;  1.0000000E+04;  0.0000000E+00;  9.9593994E+03;  1.7286255E+00;  0.0000000E+00;  3.2177117E-01;  1.9095055E+04;
  8.6033165E-01;  9.9999998E-03; -2.0046221E-01;2367;  1.2059640E-01;  0.0000000E+00; -1.1387531E-01;  1.0145274E+03;  4.0848544E-01;  1.2025347E+04;3;  2.3284184E+01;  0.0000000E+00;  2.5031240E+00;0;  2.0913100E+00;  9.9096943E+03;  0.0000000E+00;  3.5806696E-04;  1.0000000E+04;  0.0000000E+00;  9.9593311E+03;  1.7386742E+00;  0.0000000E+00;  3.5263586E-01;  1.9093268E+04;
  8.8035691E-01;  9.9999998E-03; -3.0061638E-01;2393;  1.1294927E-01;  0.0000000E+00; -1.1755542E-01;  1.0139792E+03;  4.0807864E-01;  1.1568044E+04;3;  3.9212769E+01;  0.0000000E+00; -1.1217145E+01;0;  1.5251855E+00;  9.9188633E+03;  0.0000000E+00;  1.7381952E-03;  1.0000000E+04;  0.0000000E+00;  9.9592012E+03;  1.5013957E+00;  0.0000000E+00;  2.3789769E-02;  1.9516350E+04;
  8.8039649E-01;  9.9999998E-03; -2.8059307E-01;2394;  1.3167942E-01;  0.0000000E+00; -1.3081446E-01;  1.0139080E+03;  4.0807867E-01;  1.1509143E+04;3;  3.7181820E+01;  0.0000000E+00; -1.5664771E+00;0;  1.8090342E+00;  9.9183828E+03;  0.0000000E+00;  4.0426650E-03;  1.0000000E+04;  0.0000000E+00;  9.9583027E+03;  1.5264429E+00;  0.0000000E+00;  2.8259137E-01;  1.9634912E+04;
  8.8042015E-01;  9.9999998E-03; -2.6056254E-01;2395;  1.4676291E-01;  0.0000000E+00; -1.2667066E-01;  1.0139672E+03;  4.0807852E-01;  1.1558166E+04;3;  3.5717899E+01;  0.0000000E+00; -7.3023539E+00;0;  1.8011651E+00;  9.9182031E+03;  0.0000000E+00;  4.0263021E-03;  1.0000000E+04;  0.0000000E+00;  9.9596855E+03;  1.5490812E+00;  0.0000000E+00;  2.5208390E-01;  1.8986279E+04;
  8.8043779E-01;  9.9999998E-03; -2.4053885E-01;2396;  1.5769477E-01;  0.0000000E+00; -1.2686385E-01;  1.0139761E+03;  4.0807787E-01;  1.1565462E+04;3;  3.4982403E+01;  0.0000000E+00; -4.7792916E+00;0;  1.8600447E+00;  9.9184766E+03;  0.0000000E+00;  2.7870552E-03;  1.0000000E+04;  0.0000000E+00;  9.9596221E+03;  1.5648718E+00;  0.0000000E+00;  2.9517290E-01;  1.8966824E+04;
  8.8044399E-01;  9.9999998E-03; -2.2049606E-01;2397;  1.6317207E-01;  0.0000000E+00; -1.2246694E-01;  1.0140559E+03;  4.0807709E-01;  1.1631555E+04;3;  3.4533546E+01;  0.0000000E+00; -2.7336526E+00;0;  1.8933132E+00;  9.9193643E+03;  0.0000000E+00;  1.4362464E-03;  1.0000000E+04;  0.0000000E+00;  9.9603242E+03;  1.5698336E+00;  0.0000000E+00;  3.2347956E-01;  1.8589238E+04;
  8.8043624E-01;  9.9999998E-03; -2.0044550E-01;2398;  1.6296427E-01;  0.0000000E+00; -1.1182514E-01;  1.0141346E+03;  4.0807655E-01;  1.1696664E+04;3;  3.4267845E+01;  0.0000000E+00;  7.9023290E-01;0;  1.9152796E+00;  9.9209063E+03;  0.0000000E+00;  5.2798458E-04;  1.0000000E+04;  0.0000000E+00;  9.9603525E+03;  1.5619247E+00;  0.0000000E+00;  3.5335496E-01;  1.8549471E+04;
  9.0043825E-01;  9.9999998E-03; -3.0058882E-01;2424;  1.4314689E-01;  0.0000000E+00; -1.1492779E-01;  1.0133081E+03;  4.0756860E-01;  1.1008168E+04;3;  5.2085030E+01;  0.0000000E+00; -1.2834657E+01;0;  1.3971539E+00;  9.9287764E+03;  0.0000000E+00;  3.8385580E-03;  1.0000000E+04;  0.0000000E+00;  9.9610088E+03;  1.3554085E+00;  0.0000000E+00;  4.1745305E-02;  1.8525676E+04;
  9.0048414E-01;  9.9999998E-03; -2.8056559E-01;2425;  1.6470344E-01;  0.0000000E+00; -1.2626396E-01;  1.0132766E+03;  4.0756851E-01;  1.0982123E+04;3;  4.8220089E+01;  0.0000000E+00; -2.7300444E+00;0;  1.6347523E+00;  9.9290645E+03;  0.0000000E+00;  6.1921589E-03;  1.0000000E+04;  0.0000000E+00;  9.9601416E+03;  1.3636371E+00;  0.0000000E+00;  2.7111518E-01;  1.8674949E+04;
  9.0051061E-01;  9.9999998E-03; -2.6053554E-01;2426;  1.8293883E-01;  0.0000000E+00; -1.2264407E-01;  1.0133706E+03;  4.0756825E-01;  1.1059918E+04;3;  4.6890450E+01;  0.0000000E+00; -8.0211334E+00;0;  1.6167510E+00;  9.9297500E+03;  0.0000000E+00;  5.8264858E-03;  1.0000000E+04;  0.0000000E+00;  9.9613369E+03;  1.3668554E+00;  0.0000000E+00;  2.4989562E-01;  1.8114332E+04;
  9.0053058E-01;  9.9999998E-03; -2.4051175E-01;2427;  1.9549865E-01;  0.0000000E+00; -1.2239689E-01;  1.0134230E+03;  4.0756750E-01;  1.1103300E+04;3;  4.5645214E+01;  0.0000000E+00; -5.2863793E+00;0;  1.6527176E+00;  9.9309619E+03;  0.0000000E+00;  3.9025540E-03;  1.0000000E+04;  0.0000000E+00;  9.9611992E+03;  1.3614521E+00;  0.0000000E+00;  2.9126555E-01;  1.8136457E+04;
  9.0053791E-01;  9.9999998E-03; -2.2047059E-01;2428;  2.0181572E-01;  0.0000000E+00; -1.1793358E-01;  1.0135439E+03;  4.0756676E-01;  1.1203286E+04;3;  4.5158489E+01;  0.0000000E+00; -3.5846753E+00;0;  1.6645662E+00;  9.9327588E+03;  0.0000000E+00;  1.9087624E-03;  1.0000000E+04;  0.0000000E+00;  9.9618135E+03;  1.3451995E+00;  0.0000000E+00;  3.1936672E-01;  1.7811820E+04;
  9.0052867E-01;  9.9999998E-03; -2.0042367E-01;2429;  2.0130241E-01;  0.0000000E+00; -1.0814267E-01;  1.0136614E+03;  4.0756634E-01;  1.1300416E+04;3;  4.4752827E+01;  0.0000000E+00; -6.3236529E-01;0;  1.6675276E+00;  9.9350615E+03;  0.0000000E+00;  6.2296691E-04;  1.0000000E+04;  0.0000000E+00;  9.9618281E+03;  1.3183172E+00;  0.0000000E+00;  3.4921041E-01;  1.7780260E+04;
  9.2050463E-01;  9.9999998E-03; -3.0055720E-01;2455;  1.6885410E-01;  0.0000000E+00; -1.1204424E-01;  1.0125427E+03;  4.0698358E-01;  1.0369307E+04;3;  6.3560268E+01;  0.0000000E+00; -1.3948081E+01;0;  1.2374498E+00;  9.9404170E+03;  0.0000000E+00;  5.4328656E-03;  1.0000000E+04;  0.0000000E+00;  9.9629258E+03;  1.1662893E+00;  0.0000000E+00;  7.1160480E-02;  1.7454334E+04;
  9.2055362E-01;  9.9999998E-03; -2.8053382E-01;2456;  1.9170710E-01;  0.0000000E+00; -1.2142137E-01;  1.0125649E+03;  4.0698332E-01;  1.0387721E+04;3;  5.7731625E+01;  0.0000000E+00; -4.4730406E+00;0;  1.4221876E+00;  9.9415537E+03;  0.0000000E+00;  7.8600068E-03;  1.0000000E+04;  0.0000000E+00;  9.9622754E+03;  1.1555252E+00;  0.0000000E+00;  2.6666239E-01;  1.7546250E+04;
  9.2058253E-01;  9.9999998E-03; -2.6050365E-01;2457;  2.1229640E-01;  0.0000000E+00; -1.1756144E-01;  1.0127068E+03;  4.0698284E-01;  1.0505087E+04;3;  5.5853905E+01;  0.0000000E+00; -8.7302837E+00;0;  1.3829831E+00;  9.9432119E+03;  0.0000000E+00;  7.0252935E-03;  1.0000000E+04;  0.0000000E+00;  9.9634590E+03;  1.1370183E+00;  0.0000000E+00;  2.4596481E-01;  1.7003473E+04;
  9.2060292E-01;  9.9999998E-03; -2.4047829E-01;2458;  2.2591098E-01;  0.0000000E+00; -1.1609482E-01;  1.0128129E+03;  4.0698218E-01;  1.0592792E+04;3;  5.4695889E+01;  0.0000000E+00; -5.6889238E+00;0;  1.3903267E+00;  9.9454580E+03;  0.0000000E+00;  4.5153303E-03;  1.0000000E+04;  0.0000000E+00;  9.9633457E+03;  1.1084644E+00;  0.0000000E+00;  2.8186244E-01;  1.7023256E+04;
  9.2061138E-01;  9.9999998E-03; -2.2043855E-01;2459;  2.3326117E-01;  0.0000000E+00; -1.1115055E-01;  1.0129737E+03;  4.0698153E-01;  1.0725640E+04;3;  5.4539360E+01;  0.0000000E+00; -4.1578655E+00;0;  1.3800730E+00;  9.9482100E+03;  0.0000000E+00;  2.0538203E-03;  1.0000000E+04;  0.0000000E+00;  9.9637832E+03;  1.0699924E+00;  0.0000000E+00;  3.1008050E-01;  1.6791344E+04;
  9.2059892E-01;  9.9999998E-03; -2.0039739E-01;2460;  2.3221289E-01;  0.0000000E+00; -1.0286823E-01;  1.0131233E+03;  4.0698102E-01;  1.0849329E+04;3;  5.4251049E+01;  0.0000000E+00; -1.6386660E+00;0;  1.3655697E+00;  9.9512588E+03;  0.0000000E+00;  5.7180430E-04;  1.0000000E+04;  0.0000000E+00;  9.9637031E+03;  1.0247828E+00;  0.0000000E+00;  3.4078690E-01;  1.6808861E+04;
  9.4055289E-01;  9.9999998E-03; -3.0052242E-01;2486;  1.8899374E-01;  0.0000000E+00; -1.0891142E-01;  1.0116724E+03;  4.0635163E-01;  9.6427236E+03;3;  7.3551048E+01;  0.0000000E+00; -1.5581832E+01;0;  1.0700963E+00;  9.9521709E+03;  0.0000000E+00;  6.0115801E-03;  1.0000000E+04;  0.0000000E+00;  9.9649873E+03;  9.6417123E-01;  0.0000000E+00;  1.0592498E-01;  1.6280794E+04;
  9.4060338E-01;  9.9999998E-03; -2.8049856E-01;2487;  2.1191311E-01;  0.0000000E+00; -1.1629070E-01;  1.0117622E+03;  4.0635121E-01;  9.7169561E+03;3;  6.5887741E+01;  0.0000000E+00; -7.2994013E+00;0;  1.1985123E+00;  9.9542188E+03;  0.0000000E+00;  8.8342242E-03;  1.0000000E+04;  0.0000000E+00;  9.9647725E+03;  9.3337154E-01;  0.0000000E+00;  2.6514080E-01;  1.6214422E+04;
  9.4063407E-01;  9.9999998E-03; -2.6046851E-01;2488;  2.3396415E-01;  0.0000000E+00; -1.1139363E-01;  1.0119538E+03;  4.0635085E-01;  9.8752012E+03;3;  6.2948532E+01;  0.0000000E+00; -9.3734503E+00;0;  1.1302023E+00;  9.9568818E+03;  0.0000000E+00;  7.2836764E-03;  1.0000000E+04;  0.0000000E+00;  9.9659346E+03;  8.9245862E-01;  0.0000000E+00;  2.3774369E-01;  1.5703636E+04;
  9.4065285E-01;  9.9999998E-03; -2.4044089E-01;2489;  2.4818280E-01;  0.0000000E+00; -1.0844992E-01;  1.0121152E+03;  4.0635011E-01;  1.0008438E+04;3;  6.2171795E+01;  0.0000000E+00; -6.0091434E+00;0;  1.1086397E+00;  9.9601318E+03;  0.0000000E+00;  4.3732547E-03;  1.0000000E+04;  0.0000000E+00;  9.9659150E+03;  8.4112155E-01;  0.0000000E+00;  2.6751813E-01;  1.5695283E+04;
  9.4064808E-01;  9.9999998E-03; -2.2040580E-01;2490;  2.5167739E-01;  0.0000000E+00; -1.0445461E-01;  1.0123027E+03;  4.0634969E-01;  1.0163447E+04;3;  6.2455524E+01;  0.0000000E+00; -4.9046874E+00;0;  1.0813580E+00;  9.9637529E+03;  0.0000000E+00;  1.8520470E-03;  1.0000000E+04;  0.0000000E+00;  9.9660225E+03;  7.8261590E-01;  0.0000000E+00;  2.9874200E-01;  1.5624551E+04;
  9.4062191E-01;  9.9999998E-03; -2.0036921E-01;2491;  2.4545939E-01;  0.0000000E+00; -9.7170398E-02;  1.0124796E+03;  4.0634936E-01;  1.0309505E+04;3;  6.1563293E+01;  0.0000000E+00; -2.5200951E+00;0;  1.0517657E+00;  9.9673770E+03;  0.0000000E+00;  4.2254201E-04;  1.0000000E+04;  0.0000000E+00;  9.9658770E+03;  7.2275513E-01;  0.0000000E+00;  3.2901049E-01;  1.5676608E+04;
  9.6058810E-01;  9.9999998E-03; -3.0048525E-01;2517;  2.0496069E-01;  0.0000000E+00; -1.0516914E-01;  1.0106864E+03;  4.0570065E-01;  8.8193955E+03;3;  8.2311409E+01;  0.0000000E+00; -1.6851051E+01;0;  9.1965860E-01;  9.9623633E+03;  0.0000000E+00;  5.3261574E-03;  1.0000000E+04;  0.0000000E+00;  9.9673154E+03;  7.7973944E-01;  0.0000000E+00;  1.3991918E-01;  1.4947973E+04;
  9.6063823E-01;  9.9999998E-03; -2.8046119E-01;2518;  2.2739674E-01;  0.0000000E+00; -1.1085069E-01;  1.0108430E+03;  4.0570015E-01;  8.9486436E+03;3;  7.3260704E+01;  0.0000000E+00; -1.0377033E+01;0;  9.9503720E-01;  9.9653076E+03;  0.0000000E+00;  1.5702801E-02;  1.0000000E+04;  0.0000000E+00;  9.9675234E+03;  7.2993910E-01;  0.0000000E+00;  2.6509812E-01;  1.4727779E+04;
  9.6066850E-01;  9.9999998E-03; -2.6043129E-01;2519;  2.4980167E-01;  0.0000000E+00; -1.0474418E-01;  1.0110820E+03;  4.0569976E-01;  9.1457861E+03;3;  6.9380775E+01;  0.0000000E+00; -1.0361393E+01;0;  8.9513803E-01;  9.9689131E+03;  0.0000000E+00;  1.2720043E-02;  1.0000000E+04;  0.0000000E+00;  9.9686904E+03;  6.6848630E-01;  0.0000000E+00;  2.2665176E-01;  1.4248767E+04;
  9.6067542E-01;  9.9999998E-03; -2.4040572E-01;2520;  2.6027423E-01;  0.0000000E+00; -1.0202798E-01;  1.0112758E+03;  4.0569919E-01;  9.3057510E+03;3;  6.8538422E+01;  0.0000000E+00; -7.1134515E+00;0;  8.5397732E-01;  9.9730273E+03;  0.0000000E+00;  6.1540795E-03;  1.0000000E+04;  0.0000000E+00;  9.9684395E+03;  5.9789050E-01;  0.0000000E+00;  2.5608683E-01;  1.4356001E+04;
  9.6065396E-01;  9.9999998E-03; -2.2037543E-01;2521;  2.5672671E-01;  0.0000000E+00; -9.9136271E-02;  1.0114878E+03;  4.0569890E-01;  9.4807842E+03;3;  6.6815239E+01;  0.0000000E+00; -6.3213205E+00;0;  8.1114542E-01;  9.9772891E+03;  0.0000000E+00;  1.6906845E-03;  1.0000000E+04;  0.0000000E+00;  9.9683750E+03;  5.2449369E-01;  0.0000000E+00;  2.8665170E-01;  1.4373158E+04;
  9.6062344E-01;  9.9999998E-03; -2.0034026E-01;2522;  2.4857019E-01;  0.0000000E+00; -9.1480158E-02;  1.0116835E+03;  4.0569869E-01;  9.6423447E+03;3;  6.4650024E+01;  0.0000000E+00; -3.6413488E+00;0;  7.6935279E-01;  9.9812715E+03;  0.0000000E+00;  2.6810137E-04;  1.0000000E+04;  0.0000000E+00;  9.9682578E+03;  4.5530641E-01;  0.0000000E+00;  3.1404638E-01;  1.4420821E+04;
  9.8061907E-01;  9.9999998E-03; -3.0044657E-01;2548;  2.1949758E-01;  0.0000000E+00; -1.0014453E-01;  1.0096080E+03;  4.0505561E-01;  7.9187998E+03;3;  9.0357979E+01;  0.0000000E+00; -1.7312387E+01;0;  7.8729874E-01;  9.9701338E+03;  0.0000000E+00;  3.2635217E-03;  1.0000000E+04;  0.0000000E+00;  9.9699834E+03;  6.2912971E-01;  0.0000000E+00;  1.5816902E-01;  1.3442690E+04;
  9.8066586E-01;  9.9999998E-03; -2.8042260E-01;2549;  2.4092945E-01;  0.0000000E+00; -1.0473420E-01;  1.0098168E+03;  4.0505505E-01;  8.0909063E+03;3;  8.0177681E+01;  0.0000000E+00; -1.2501040E+01;0;  8.2500803E-01;  9.9738232E+03;  0.0000000E+00;  4.0863272E-02;  1.0000000E+04;  0.0000000E+00;  9.9704854E+03;  5.6442261E-01;  0.0000000E+00;  2.6058546E-01;  1.3122958E+04;
  9.8068905E-01;  9.9999998E-03; -2.6039398E-01;2550;  2.6108989E-01;  0.0000000E+00; -9.8050952E-02;  1.0100857E+03;  4.0505472E-01;  8.3124453E+03;3;  7.5752640E+01;  0.0000000E+00; -1.1478655E+01;0;  7.0216429E-01;  9.9781982E+03;  0.0000000E+00;  3.6691993E-02;  1.0000000E+04;  0.0000000E+00;  9.9714785E+03;  4.8744634E-01;  0.0000000E+00;  2.1471794E-01;  1.2752685E+04;
  9.8067909E-01;  9.9999998E-03; -2.4037270E-01;2551;  2.6413357E-01;  0.0000000E+00; -9.6619926E-02;  1.0102934E+03;  4.0505430E-01;  8.4836035E+03;3;  7.2860886E+01;  0.0000000E+00; -9.3345442E+00;0;  6.4923871E-01;  9.9829355E+03;  0.0000000E+00;  1.9517301E-02;  1.0000000E+04;  0.0000000E+00;  9.9708721E+03;  4.0347439E-01;  0.0000000E+00;  2.4576430E-01;  1.3024551E+04;
  9.8065144E-01;  9.9999998E-03; -2.2034460E-01;2552;  2.5759166E-01;  0.0000000E+00; -9.3282014E-02;  1.0105271E+03;  4.0505421E-01;  8.6762910E+03;3;  6.8405281E+01;  0.0000000E+00; -7.4981384E+00;0;  5.9215283E-01;  9.9875791E+03;  0.0000000E+00;  5.3605144E-03;  1.0000000E+04;  0.0000000E+00;  9.9708477E+03;  3.2143193E-01;  0.0000000E+00;  2.7072093E-01;  1.3035245E+04;
  9.8061877E-01;  9.9999998E-03; -2.0031179E-01;2553;  2.4868970E-01;  0.0000000E+00; -8.5785754E-02;  1.0107311E+03;  4.0505391E-01;  8.8444189E+03;3;  6.5729118E+01;  0.0000000E+00; -4.6411452E+00;0;  5.4394811E-01;  9.9917246E+03;  0.0000000E+00;  5.0301669E-04;  1.0000000E+04;  0.0000000E+00;  9.9707393E+03;  2.4830212E-01;  0.0000000E+00;  2.9564601E-01;  1.3082228E+04;
  1.0006530E+00;  9.9999998E-03; -3.0040741E-01;2579;  2.3456556E-01;  0.0000000E+00; -9.3852691E-02;  1.0084990E+03;  4.0443748E-01;  6.9921572E+03;3;  9.8803452E+01;  0.0000000E+00; -1.7368357E+01;0;  6.6870987E-01;  9.9756016E+03;  0.0000000E+00; -7.5792051E-03;  1.0000000E+04;  0.0000000E+00;  9.9730586E+03;  5.1170063E-01;  0.0000000E+00;  1.5700923E-01;  1.1747693E+04;
  1.0006902E+00;  9.9999998E-03; -2.8038359E-01;2580;  2.5336888E-01;  0.0000000E+00; -9.7791076E-02;  1.0087389E+03;  4.0443715E-01;  7.1894541E+03;3;  8.6944153E+01;  0.0000000E+00; -1.3569805E+01;0;  6.8585670E-01;  9.9797764E+03;  0.0000000E+00;  8.1418738E-02;  1.0000000E+04;  0.0000000E+00;  9.9736914E+03;  4.3880072E-01;  0.0000000E+00;  2.4705599E-01;  1.1401660E+04;
  1.0006980E+00;  9.9999998E-03; -2.6035744E-01;2581;  2.6743346E-01;  0.0000000E+00; -9.0946652E-02;  1.0090090E+03;  4.0443677E-01;  7.4116821E+03;3;  8.1781395E+01;  0.0000000E+00; -1.2833064E+01;0;  5.5155963E-01;  9.9846816E+03;  0.0000000E+00;  8.0218665E-02;  1.0000000E+04;  0.0000000E+00;  9.9741631E+03;  3.5278782E-01;  0.0000000E+00;  1.9877179E-01;  1.1283427E+04;
  1.0006775E+00;  9.9999998E-03; -2.4033980E-01;2582;  2.6496589E-01;  0.0000000E+00; -9.0079330E-02;  1.0092211E+03;  4.0443662E-01;  7.5861704E+03;3;  7.4778961E+01;  0.0000000E+00; -1.0344118E+01;0;  4.9225271E-01;  9.9897725E+03;  0.0000000E+00;  4.4144362E-02;  1.0000000E+04;  0.0000000E+00;  9.9732803E+03;  2.6197514E-01;  0.0000000E+00;  2.3027755E-01;  1.1675918E+04;
  1.0006450E+00;  9.9999998E-03; -2.2031341E-01;2583;  2.5700486E-01;  0.0000000E+00; -8.6862028E-02;  1.0094633E+03;  4.0443653E-01;  7.7854814E+03;3;  6.9206070E+01;  0.0000000E+00; -7.9535480E+00;0;  4.2922267E-01;  9.9945381E+03;  0.0000000E+00;  1.1744850E-02;  1.0000000E+04;  0.0000000E+00;  9.9733125E+03;  1.7773080E-01;  0.0000000E+00;  2.5149187E-01;  1.1668975E+04;
  1.0006109E+00;  9.9999998E-03; -2.0028530E-01;2584;  2.4762329E-01;  0.0000000E+00; -8.0458753E-02;  1.0096663E+03;  4.0443638E-01;  7.9524312E+03;3;  6.6372345E+01;  0.0000000E+00; -5.4036102E+00;0;  3.7988621E-01;  9.9986523E+03;  0.0000000E+00;  5.7201472E-04;  1.0000000E+04;  0.0000000E+00;  9.9732100E+03;  1.0558357E-01;  0.0000000E+00;  2.7430263E-01;  1.1718283E+04;
  1.0206956E+00;  9.9999998E-03; -3.0036882E-01;2610;  2.5137171E-01;  0.0000000E+00; -8.6259134E-02;  1.0074310E+03;  4.0386286E-01;  6.0987373E+03;3;  1.0796037E+02;  0.0000000E+00; -1.6905092E+01;0;  5.5267161E-01;  9.9793740E+03;  0.0000000E+00; -2.8100759E-02;  1.0000000E+04;  0.0000000E+00;  9.9765303E+03;  4.1837400E-01;  0.0000000E+00;  1.3429759E-01;  9.8989912E+03;
  1.0207140E+00;  9.9999998E-03; -2.8034544E-01;2611;  2.6618943E-01;  0.0000000E+00; -9.0182468E-02;  1.0076791E+03;  4.0386280E-01;  6.3023188E+03;3;  9.5026878E+01;  0.0000000E+00; -1.4568526E+01;0;  5.6913030E-01;  9.9838945E+03;  0.0000000E+00;  9.9530108E-02;  1.0000000E+04;  0.0000000E+00;  9.9769590E+03;  3.4385499E-01;  0.0000000E+00;  2.2527531E-01;  9.6602314E+03;
  1.0207028E+00;  9.9999998E-03; -2.6032239E-01;2612;  2.7047205E-01;  0.0000000E+00; -8.3224885E-02;  1.0079285E+03;  4.0386286E-01;  6.5070024E+03;3;  8.5431099E+01;  0.0000000E+00; -1.3355628E+01;0;  4.3222332E-01;  9.9891504E+03;  0.0000000E+00;  1.0930055E-01;  1.0000000E+04;  0.0000000E+00;  9.9766514E+03;  2.5305876E-01;  0.0000000E+00;  1.7916454E-01;  9.8911504E+03;
  1.0206745E+00;  9.9999998E-03; -2.4030760E-01;2613;  2.6478714E-01;  0.0000000E+00; -8.2950331E-02;  1.0081299E+03;  4.0386277E-01;  6.6723726E+03;3;  7.5770226E+01;  0.0000000E+00; -1.0398461E+01;0;  3.7500328E-01;  9.9942959E+03;  0.0000000E+00;  5.0832555E-02;  1.0000000E+04;  0.0000000E+00;  9.9755039E+03;  1.6212757E-01;  0.0000000E+00;  2.1287572E-01;  1.0384305E+04;
  1.0206378E+00;  9.9999998E-03; -2.2028455E-01;2614;  2.5583032E-01;  0.0000000E+00; -8.0563717E-02;  1.0083647E+03;  4.0386266E-01;  6.8650488E+03;3;  6.9838249E+01;  0.0000000E+00; -8.3574514E+00;0;  3.1338429E-01;  9.9988936E+03;  0.0000000E+00;  1.4723958E-03;  1.0000000E+04;  0.0000000E+00;  9.9755508E+03;  8.1923991E-02;  0.0000000E+00;  2.3146030E-01;  1.0375085E+04;
  1.0206020E+00;  9.9999998E-03; -2.0026112E-01;2615;  2.4595758E-01;  0.0000000E+00; -7.5471170E-02;  1.0085593E+03;  4.0386271E-01;  7.0247539E+03;3;  6.6678146E+01;  0.0000000E+00; -6.0334229E+00;0;  2.6664281E-01;  1.0002771E+04;  0.0000000E+00; -8.9418655E-03;  1.0000000E+04;  0.0000000E+00;  9.9755264E+03;  1.5342377E-02;  0.0000000E+00;  2.5130042E-01;  1.0395601E+04;
  1.0407542E+00;  9.9999998E-03; -3.0033177E-01;2641;  2.7278632E-01;  0.0000000E+00; -7.7988379E-02;  1.0064240E+03;  4.0334377E-01;  5.2552378E+03;3;  1.1750478E+02;  0.0000000E+00; -1.5027182E+01;0;  4.5165387E-01;  9.9814453E+03;  0.0000000E+00;  1.1043413E-02;  1.0000000E+04;  0.0000000E+00;  9.9802061E+03;  3.5123909E-01;  0.0000000E+00;  1.0041478E-01;  7.9972202E+03;
  1.0407416E+00;  9.9999998E-03; -2.8031024E-01;2642;  2.7881506E-01;  0.0000000E+00; -8.1162296E-02;  1.0066832E+03;  4.0334380E-01;  5.4671606E+03;3;  1.0359399E+02;  0.0000000E+00; -1.5066747E+01;0;  4.5704448E-01;  9.9869668E+03;  0.0000000E+00;  1.2639339E-02;  1.0000000E+04;  0.0000000E+00;  9.9798281E+03;  2.6923260E-01;  0.0000000E+00;  1.8781187E-01;  8.1029819E+03;
  1.0407084E+00;  9.9999998E-03; -2.6029068E-01;2643;  2.7253726E-01;  0.0000000E+00; -7.6141156E-02;  1.0069094E+03;  4.0334398E-01;  5.6522881E+03;3;  8.8149117E+01;  0.0000000E+00; -1.3383252E+01;0;  3.3848184E-01;  9.9926328E+03;  0.0000000E+00;  4.6539523E-02;  1.0000000E+04;  0.0000000E+00;  9.9786348E+03;  1.7211251E-01;  0.0000000E+00;  1.6636935E-01;  8.6804473E+03;
  1.0406716E+00;  9.9999998E-03; -2.4027771E-01;2644;  2.6440185E-01;  0.0000000E+00; -7.5847894E-02;  1.0070912E+03;  4.0334409E-01;  5.8011445E+03;3;  7.6951767E+01;  0.0000000E+00; -1.0274459E+01;0;  2.8473887E-01;  9.9975410E+03;  0.0000000E+00; -2.1114795E-02;  1.0000000E+04;  0.0000000E+00;  9.9773291E+03;  8.7359883E-02;  0.0000000E+00;  1.9737899E-01;  9.2356787E+03;
  1.0406307E+00;  9.9999998E-03; -2.2025792E-01;2645;  2.5454244E-01;  0.0000000E+00; -7.4120857E-02;  1.0073043E+03;  4.0334412E-01;  5.9754604E+03;3;  7.0545052E+01;  0.0000000E+00; -8.4027348E+00;0;  2.2966364E-01;  1.0001654E+04;  0.0000000E+00; -6.6352844E-02;  1.0000000E+04;  0.0000000E+00;  9.9774326E+03;  1.6957119E-02;  0.0000000E+00;  2.1270652E-01;  9.2162881E+03;
  1.0405921E+00;  9.9999998E-03; -2.0023711E-01;2646;  2.4394009E-01;  0.0000000E+00; -6.9865122E-02;  1.0074825E+03;  4.0334412E-01;  6.1212993E+03;3;  6.6943451E+01;  0.0000000E+00; -6.3640900E+00;0;  1.8832403E-01;  1.0005036E+04;  0.0000000E+00; -5.0382487E-02;  1.0000000E+04;  0.0000000E+00;  9.9775781E+03; -3.9871365E-02;  0.0000000E+00;  2.2819540E-01;  9.1681055E+03;
  1.0608112E+00;  9.9999998E-03; -3.0029765E-01;2672;  2.9273897E-01;  0.0000000E+00; -7.2488680E-02;  1.0054471E+03;  4.0288690E-01;  4.4368057E+03;3;  1.2942667E+02;  0.0000000E+00; -1.9543509E+01;0;  4.1899148E-01;  9.9813682E+03;  0.0000000E+00;  3.2042837E-01;  1.0000000E+04;  0.0000000E+00;  9.9835674E+03;  3.1887636E-01;  0.0000000E+00;  1.0011511E-01;  6.3690454E+03;
  1.0607674E+00;  9.9999998E-03; -2.8028062E-01;2673;  2.8617480E-01;  0.0000000E+00; -7.2856486E-02;  1.0057558E+03;  4.0288699E-01;  4.6882437E+03;3;  1.0895315E+02;  0.0000000E+00; -1.6233324E+01;0;  3.6112320E-01;  9.9894023E+03;  0.0000000E+00; -2.2724536E-01;  1.0000000E+04;  0.0000000E+00;  9.9816289E+03;  2.0302643E-01;  0.0000000E+00;  1.5809676E-01;  7.0727471E+03;
  1.0607176E+00;  9.9999998E-03; -2.6026392E-01;2674;  2.7478629E-01;  0.0000000E+00; -6.9234528E-02;  1.0059855E+03;  4.0288711E-01;  4.8754141E+03;3;  9.1372986E+01;  0.0000000E+00; -1.3033546E+01;0;  2.5888160E-01;  9.9957285E+03;  0.0000000E+00; -2.0658219E-01;  1.0000000E+04;  0.0000000E+00;  9.9798359E+03;  1.0031338E-01;  0.0000000E+00;  1.5856822E-01;  7.8324927E+03;
  1.0606698E+00;  9.9999998E-03; -2.4025136E-01;2675;  2.6401800E-01;  0.0000000E+00; -6.8823285E-02;  1.0061549E+03;  4.0288725E-01;  5.0134531E+03;3;  7.8706863E+01;  0.0000000E+00; -1.0017059E+01;0;  2.1072246E-01;  1.0000298E+04;  0.0000000E+00; -2.3758551E-01;  1.0000000E+04;  0.0000000E+00;  9.9786221E+03;  2.4847303E-02;  0.0000000E+00;  1.8587516E-01;  8.3462002E+03;
  1.0606247E+00;  9.9999998E-03; -2.2023305E-01;2676;  2.5322917E-01;  0.0000000E+00; -6.7449011E-02;  1.0063387E+03;  4.0288746E-01;  5.1632417E+03;3;  7.1432236E+01;  0.0000000E+00; -8.3551569E+00;0;  1.6543752E-01;  1.0003651E+04;  0.0000000E+00; -2.3879051E-01;  1.0000000E+04;  0.0000000E+00;  9.9789014E+03; -3.1536967E-02;  0.0000000E+00;  1.9697449E-01;  8.2591709E+03;
  1.0605822E+00;  9.9999998E-03; -2.0021404E-01;2677;  2.4172892E-01;  0.0000000E+00; -6.4011395E-02;  1.0064906E+03;  4.0288755E-01;  5.2870063E+03;3;  6.7403137E+01;  0.0000000E+00; -6.6348677E+00;0;  1.3183749E-01;  1.0006290E+04;  0.0000000E+00; -1.5522693E-01;  1.0000000E+04;  0.0000000E+00;  9.9792666E+03; -7.5364761E-02;  0.0000000E+00;  2.0720224E-01;  8.0942231E+03;
  1.0808392E+00;  9.9999998E-03; -3.0026940E-01;2703;  2.9865852E-01;  0.0000000E+00; -6.5821290E-02;  1.0045397E+03;  4.0249470E-01;  3.6764902E+03;3;  1.3706325E+02;  0.0000000E+00; -2.0992476E+01;0;  3.6650330E-01;  9.9806230E+03;  0.0000000E+00;  1.1199343E+00;  1.0000000E+04;  0.0000000E+00;  9.9857344E+03;  2.7970561E-01;  0.0000000E+00;  8.6797684E-02;  6.7391782E+03;
  1.0807846E+00;  9.9999998E-03; -2.8025556E-01;2704;  2.8943431E-01;  0.0000000E+00; -6.5267526E-02;  1.0049286E+03;  4.0249494E-01;  3.9914800E+03;3;  1.1492467E+02;  0.0000000E+00; -1.6321959E+01;0;  2.8301799E-01;  9.9912432E+03;  0.0000000E+00; -4.8172760E-01;  1.0000000E+04;  0.0000000E+00;  9.9828047E+03;  1.4382523E-01;  0.0000000E+00;  1.3919275E-01;  6.4381567E+03;
  1.0807252E+00;  9.9999998E-03; -2.6023939E-01;2705;  2.7570146E-01;  0.0000000E+00; -6.2058255E-02;  1.0051995E+03;  4.0249488E-01;  4.2110049E+03;3;  9.5351357E+01;  0.0000000E+00; -1.2498681E+01;0;  1.8403988E-01;  9.9985098E+03;  0.0000000E+00; -6.4432842E-01;  1.0000000E+04;  0.0000000E+00;  9.9809043E+03;  3.5137799E-02;  0.0000000E+00;  1.4890207E-01;  7.3955791E+03;
  1.0806693E+00;  9.9999998E-03; -2.4022673E-01;2706;  2.6338807E-01;  0.0000000E+00; -6.1456949E-02;  1.0053555E+03;  4.0249521E-01;  4.3373657E+03;3;  8.1451111E+01;  0.0000000E+00; -9.5741262E+00;0;  1.4482692E-01;  1.0002831E+04;  0.0000000E+00; -6.2362659E-01;  1.0000000E+04;  0.0000000E+00;  9.9796641E+03; -3.0506823E-02;  0.0000000E+00;  1.7533374E-01;  7.8233423E+03;
  1.0806198E+00;  9.9999998E-03; -2.2021043E-01;2707;  2.5198811E-01;  0.0000000E+00; -6.0749944E-02;  1.0054966E+03;  4.0249524E-01;  4.4517490E+03;3;  7.2999199E+01;  0.0000000E+00; -8.0619383E+00;0;  1.1396933E-01;  1.0005312E+04;  0.0000000E+00; -5.4641879E-01;  1.0000000E+04;  0.0000000E+00;  9.9799717E+03; -7.1311794E-02;  0.0000000E+00;  1.8528113E-01;  7.6361987E+03;
  1.0805732E+00;  9.9999998E-03; -2.0019193E-01;2708;  2.3957555E-01;  0.0000000E+00; -5.7655267E-02;  1.0056146E+03;  4.0249550E-01;  4.5474014E+03;3;  6.8085403E+01;  0.0000000E+00; -6.5488658E+00;0;  8.8859215E-02;  1.0007035E+04;  0.0000000E+00; -3.5556874E-01;  1.0000000E+04;  0.0000000E+00;  9.9805781E+03; -1.0071506E-01;  0.0000000E+00;  1.8957427E-01;  7.2450391E+03;
  1.1007905E+00;  9.9999998E-03; -2.8023276E-01;2734;  2.8932014E-01;  0.0000000E+00; -5.8099668E-02;  1.0042311E+03;  4.0216601E-01;  3.4006968E+03;3;  1.2167459E+02;  0.0000000E+00; -1.6315363E+01;0;  2.1795353E-01;  9.9922715E+03;  0.0000000E+00; -3.9415219E-01;  1.0000000E+04;  0.0000000E+00;  9.9842432E+03;  9.8163955E-02;  0.0000000E+00;  1.1978958E-01;  5.3730889E+03;
  1.1007282E+00;  9.9999998E-03; -2.6021555E-01;2735;  2.7480549E-01;  0.0000000E+00; -5.4424860E-02;  1.0045635E+03;  4.0216601E-01;  3.6680190E+03;3;  1.0050515E+02;  0.0000000E+00; -1.1965445E+01;0;  1.1056507E-01;  1.0000591E+04;  0.0000000E+00; -1.0839396E+00;  1.0000000E+04;  0.0000000E+00;  9.9825088E+03; -1.8436536E-02;  0.0000000E+00;  1.2900160E-01;  7.1257793E+03;
  1.1006700E+00;  9.9999998E-03; -2.4020310E-01;2736;  2.6223335E-01;  0.0000000E+00; -5.3215835E-02;  1.0046945E+03;  4.0216622E-01;  3.7733198E+03;3;  8.5205238E+01;  0.0000000E+00; -8.8211164E+00;0;  8.0832966E-02;  1.0004844E+04;  0.0000000E+00; -1.1298910E+00;  1.0000000E+04;  0.0000000E+00;  9.9808516E+03; -7.6565020E-02;  0.0000000E+00;  1.5739799E-01;  7.7168960E+03;
  1.1006165E+00;  9.9999998E-03; -2.2018865E-01;2737;  2.5064969E-01;  0.0000000E+00; -5.3272575E-02;  1.0047881E+03;  4.0216643E-01;  3.8486262E+03;3;  7.5369904E+01;  0.0000000E+00; -7.3964009E+00;0;  6.9991343E-02;  1.0006658E+04;  0.0000000E+00; -9.8356211E-01;  1.0000000E+04;  0.0000000E+00;  9.9808760E+03; -1.0391470E-01;  0.0000000E+00;  1.7390604E-01;  7.4304644E+03;
  1.1005661E+00;  9.9999998E-03; -2.0017137E-01;2738;  2.3764989E-01;  0.0000000E+00; -5.1167753E-02;  1.0048651E+03;  4.0216652E-01;  3.9106116E+03;3;  6.9352386E+01;  0.0000000E+00; -6.2358422E+00;0;  5.5892251E-02;  1.0007485E+04;  0.0000000E+00; -6.7403346E-01;  1.0000000E+04;  0.0000000E+00;  9.9815615E+03; -1.1994990E-01;  0.0000000E+00;  1.7584215E-01;  6.7261230E+03;
  1.1207852E+00;  9.9999998E-03; -2.8021336E-01;2763;  2.8621861E-01;  0.0000000E+00; -5.1741749E-02;  1.0036378E+03;  4.0189636E-01;  2.8948621E+03;3;  1.2941257E+02;  0.0000000E+00; -1.6435934E+01;0;  1.7050731E-01;  9.9923389E+03;  0.0000000E+00;  3.8244954E-01;  1.0000000E+04;  0.0000000E+00;  9.9857539E+03;  7.0482276E-02;  0.0000000E+00;  1.0002503E-01;  4.3972915E+03;
  1.1207291E+00;  9.9999998E-03; -2.6019636E-01;2764;  2.7326104E-01;  0.0000000E+00; -4.8049249E-02;  1.0039943E+03;  4.0189648E-01;  3.1786057E+03;3;  1.0718343E+02;  0.0000000E+00; -1.1964771E+01;0;  6.3795216E-02;  1.0001065E+04;  0.0000000E+00; -1.2669407E+00;  1.0000000E+04;  0.0000000E+00;  9.9841074E+03; -4.6153493E-02;  0.0000000E+00;  1.0994871E-01;  6.4480625E+03;
  1.1206710E+00;  9.9999998E-03; -2.4018167E-01;2765;  2.6043922E-01;  0.0000000E+00; -4.5240406E-02;  1.0041482E+03;  4.0189660E-01;  3.3012822E+03;3;  9.0392303E+01;  0.0000000E+00; -8.3600559E+00;0;  2.2764213E-02;  1.0005764E+04;  0.0000000E+00; -1.6176807E+00;  1.0000000E+04;  0.0000000E+00;  9.9824570E+03; -1.0738928E-01;  0.0000000E+00;  1.3015349E-01;  7.6709346E+03;
  1.1206152E+00;  9.9999998E-03; -2.2016843E-01;2766;  2.4907503E-01;  0.0000000E+00; -4.5452867E-02;  1.0042040E+03;  4.0189660E-01;  3.3457869E+03;3;  7.8753616E+01;  0.0000000E+00; -6.7282715E+00;0;  3.0890703E-02;  1.0007451E+04;  0.0000000E+00; -1.5046430E+00;  1.0000000E+04;  0.0000000E+00;  9.9818652E+03; -1.2736610E-01;  0.0000000E+00;  1.5825680E-01;  7.5342681E+03;
  1.1205612E+00;  9.9999998E-03; -2.0015211E-01;2767;  2.3589757E-01;  0.0000000E+00; -4.4281248E-02;  1.0042431E+03;  4.0189686E-01;  3.3770083E+03;3;  7.1411522E+01;  0.0000000E+00; -5.7726741E+00;0;  2.9753432E-02;  1.0007697E+04;  0.0000000E+00; -1.1169257E+00;  1.0000000E+04;  0.0000000E+00;  9.9823848E+03; -1.3422015E-01;  0.0000000E+00;  1.6397358E-01;  6.5977261E+03;
  1.1407272E+00;  9.9999998E-03; -2.6018369E-01;2792;  2.7136731E-01;  0.0000000E+00; -4.3426014E-02;  1.0034147E+03;  4.0168026E-01;  2.6824988E+03;3;  1.1552950E+02;  0.0000000E+00; -1.2025276E+01;0;  6.3551262E-02;  9.9993564E+03;  0.0000000E+00; -8.0062693E-01;  1.0000000E+04;  0.0000000E+00;  9.9850225E+03; -3.7799533E-02;  0.0000000E+00;  1.0135079E-01;  4.6797329E+03;
  1.1406721E+00;  9.9999998E-03; -2.4016656E-01;2793;  2.5840187E-01;  0.0000000E+00; -3.9295241E-02;  1.0036425E+03;  4.0168026E-01;  2.8614790E+03;3;  9.6894882E+01;  0.0000000E+00; -8.1356049E+00;0; -8.2108229E-03;  1.0004966E+04;  0.0000000E+00; -1.8658282E+00;  1.0000000E+04;  0.0000000E+00;  9.9839385E+03; -1.1405186E-01;  0.0000000E+00;  1.0584104E-01;  7.0875459E+03;
  1.1406175E+00;  9.9999998E-03; -2.2015308E-01;2794;  2.4726160E-01;  0.0000000E+00; -3.8443740E-02;  1.0037029E+03;  4.0168041E-01;  2.9091699E+03;3;  8.3411377E+01;  0.0000000E+00; -5.9510927E+00;0; -3.2305717E-04;  1.0007222E+04;  0.0000000E+00; -2.0248837E+00;  1.0000000E+04;  0.0000000E+00;  9.9828760E+03; -1.3814792E-01;  0.0000000E+00;  1.3782486E-01;  7.6384497E+03;
  1.1405602E+00;  9.9999998E-03; -2.0013651E-01;2795;  2.3436427E-01;  0.0000000E+00; -3.7853342E-02;  1.0037356E+03;  4.0168053E-01;  2.9348606E+03;3;  7.4386292E+01;  0.0000000E+00; -5.3013244E+00;0;  9.5801950E-03;  1.0007591E+04;  0.0000000E+00; -1.6602634E+00;  1.0000000E+04;  0.0000000E+00;  9.9831436E+03; -1.4294806E-01;  0.0000000E+00;  1.5252826E-01;  6.7640669E+03;
  1.1607186E+00;  9.9999998E-03; -2.6017421E-01;2819;  2.6766920E-01;  0.0000000E+00; -3.9722394E-02;  1.0028679E+03;  4.0151072E-01;  2.2156658E+03;3;  1.2492942E+02;  0.0000000E+00; -1.2237431E+01;0;  8.8256180E-02;  9.9961650E+03;  0.0000000E+00;  7.1797156E-01;  1.0000000E+04;  0.0000000E+00;  9.9857520E+03; -7.1390700E-03;  0.0000000E+00;  9.5395252E-02;  3.7670767E+03;
  1.1606746E+00;  9.9999998E-03; -2.4015975E-01;2820;  2.5722364E-01;  0.0000000E+00; -3.6054358E-02;  1.0030795E+03;  4.0151072E-01;  2.3793347E+03;3;  1.0478215E+02;  0.0000000E+00; -8.1360044E+00;0;  1.7144151E-02;  1.0001750E+04;  0.0000000E+00; -1.5336466E+00;  1.0000000E+04;  0.0000000E+00;  9.9843828E+03; -8.3596624E-02;  0.0000000E+00;  1.0074078E-01;  5.4079771E+03;
  1.1606220E+00;  9.9999998E-03; -2.2014354E-01;2821;  2.4544062E-01;  0.0000000E+00; -3.3120431E-02;  1.0032289E+03;  4.0151075E-01;  2.4948643E+03;3;  8.9302422E+01;  0.0000000E+00; -5.2363911E+00;0; -1.2854785E-02;  1.0005356E+04;  0.0000000E+00; -2.3292086E+00;  1.0000000E+04;  0.0000000E+00;  9.9837520E+03; -1.2956068E-01;  0.0000000E+00;  1.1670589E-01;  7.1355718E+03;
  1.1605649E+00;  9.9999998E-03; -2.0012711E-01;2822;  2.3314813E-01;  0.0000000E+00; -3.2387864E-02;  1.0032966E+03;  4.0151092E-01;  2.5473186E+03;3;  7.8392319E+01;  0.0000000E+00; -4.5178747E+00;0; -2.2056848E-03;  1.0006700E+04;  0.0000000E+00; -2.2223997E+00;  1.0000000E+04;  0.0000000E+00;  9.9837451E+03; -1.4252172E-01;  0.0000000E+00;  1.4031604E-01;  6.9041821E+03;
  1.1806706E+00;  9.9999998E-03; -2.4015608E-01;2846;  2.5477728E-01;  0.0000000E+00; -3.4359396E-02;  1.0025239E+03;  4.0138048E-01;  1.9093682E+03;3;  1.1483966E+02;  0.0000000E+00; -8.8495617E+00;0;  8.1148483E-02;  9.9970752E+03;  0.0000000E+00; -1.4531513E-02;  1.0000000E+04;  0.0000000E+00;  9.9844619E+03; -2.7715923E-02;  0.0000000E+00;  1.0886440E-01;  3.0937559E+03;
  1.1806267E+00;  9.9999998E-03; -2.2014059E-01;2847;  2.4428298E-01;  0.0000000E+00; -3.0620305E-02;  1.0027122E+03;  4.0138051E-01;  2.0519644E+03;3;  9.7203400E+01;  0.0000000E+00; -5.3525047E+00;0;  2.2356056E-02;  1.0001302E+04;  0.0000000E+00; -1.9698946E+00;  1.0000000E+04;  0.0000000E+00;  9.9839912E+03; -8.8753030E-02;  0.0000000E+00;  1.1110909E-01;  5.3653389E+03;
  1.1805743E+00;  9.9999998E-03; -2.0012444E-01;2848;  2.3273304E-01;  0.0000000E+00; -2.8827244E-02;  1.0028511E+03;  4.0138054E-01;  2.1571665E+03;3;  8.4302383E+01;  0.0000000E+00; -3.7507186E+00;0;  1.0132864E-02;  1.0004104E+04;  0.0000000E+00; -2.5695834E+00;  1.0000000E+04;  0.0000000E+00;  9.9839512E+03; -1.2178782E-01;  0.0000000E+00;  1.3192068E-01;  6.4560366E+03;
  1.2006252E+00;  9.9999998E-03; -2.2014000E-01;2871;  2.4188381E-01;  0.0000000E+00; -2.9816367E-02;  1.0021964E+03;  4.0128261E-01;  1.6186754E+03;3;  1.0755752E+02;  0.0000000E+00; -6.3650813E+00;0;  9.5677175E-02;  9.9959170E+03;  0.0000000E+00; -2.8279218E-01;  1.0000000E+04;  0.0000000E+00;  9.9839658E+03; -2.3883430E-02;  0.0000000E+00;  1.1956061E-01;  2.7145764E+03;
  1.2005841E+00;  9.9999998E-03; -2.0012635E-01;2872;  2.3286214E-01;  0.0000000E+00; -2.7631123E-02;  1.0023406E+03;  4.0128252E-01;  1.7251727E+03;3;  9.3125908E+01;  0.0000000E+00; -4.0085826E+00;0;  7.1406707E-02;  9.9990615E+03;  0.0000000E+00; -2.1576698E+00;  1.0000000E+04;  0.0000000E+00;  9.9836992E+03; -6.4411566E-02;  0.0000000E+00;  1.3581827E-01;  4.7375000E+03;
  1.2206054E+00;  9.9999998E-03; -2.2013235E-01;2894;  2.3375301E-01;  0.0000000E+00; -2.7116518E-02;  1.0019984E+03;  4.0121025E-01;  1.4266759E+03;3;  1.1708327E+02;  0.0000000E+00; -7.3604674E+00;0;  8.8384502E-02;  9.9937910E+03;  0.0000000E+00;  2.5245187E+00;  1.0000000E+04;  0.0000000E+00;  9.9857363E+03; -1.3196315E-02;  0.0000000E+00;  1.0158081E-01;  4.1193052E+03;
  1.2205836E+00;  9.9999998E-03; -2.0012784E-01;2895;  2.2986144E-01;  0.0000000E+00; -2.7080312E-02;  1.0018771E+03;  4.0121043E-01;  1.3402562E+03;3;  1.0369631E+02;  0.0000000E+00; -5.2478399E+00;0;  1.4521000E-01;  9.9935635E+03;  0.0000000E+00; -2.9284704E-01;  1.0000000E+04;  0.0000000E+00;  9.9835527E+03;  2.2149126E-03;  0.0000000E+00;  1.4299509E-01;  2.2569194E+03;
 -3.3135466E-06;  9.9999998E-03; -1.8000036E-01;1036; -2.4124067E-03;  0.0000000E+00; -2.7306139E-04;  1.0000701E+03;  4.0000001E-01;  5.8072422E+01;3; -1.7204800E+00;  0.0000000E+00; -2.0396864E-01;0; -4.6164334E-02;  1.0001458E+04;  0.0000000E+00; -5.3074207E-09;  1.0000000E+04;  0.0000000E+00;  9.9999414E+03; -4.8050590E-02;  0.0000000E+00;  1.8862546E-03;  3.1729784E+01;
 -3.4046848E-06;  9.9999998E-03; -1.6000028E-01;1037; -2.4789930E-03;  0.0000000E+00; -2.1216346E-04;  1.0000724E+03;  4.0000001E-01;  5.9948914E+01;3; -1.7693243E+00;  0.0000000E+00; -1.6165081E-01;0; -4.7649205E-02;  1.0001506E+04;  0.0000000E+00; -5.4355254E-09;  1.0000000E+04;  0.0000000E+00;  9.9999453E+03; -4.9487643E-02;  0.0000000E+00;  1.8384388E-03;  3.1078569E+01;
 -3.4572881E-06;  9.9999998E-03; -1.4000021E-01;1038; -2.5168676E-03;  0.0000000E+00; -1.6118909E-04;  1.0000737E+03;  4.0000001E-01;  6.1035301E+01;3; -1.7984829E+00;  0.0000000E+00; -1.2563238E-01;0; -4.8668064E-02;  1.0001527E+04;  0.0000000E+00; -2.8114560E-09;  1.0000000E+04;  0.0000000E+00;  9.9999492E+03; -5.0332338E-02;  0.0000000E+00;  1.6642733E-03;  2.8643557E+01;
 -3.4829952E-06;  9.9999998E-03; -1.2000016E-01;1039; -2.5345911E-03;  0.0000000E+00; -1.1867367E-04;  1.0000750E+03;  4.0000001E-01;  6.2121689E+01;3; -1.8130388E+00;  0.0000000E+00; -9.5238626E-02;0; -4.9316399E-02;  1.0001542E+04;  0.0000000E+00; -9.3516850E-10;  1.0000000E+04;  0.0000000E+00;  9.9999570E+03; -5.0752968E-02;  0.0000000E+00;  1.4365681E-03;  2.5455635E+01;
 -3.4910354E-06;  9.9999998E-03; -1.0000011E-01;1040; -2.5392366E-03;  0.0000000E+00; -8.4122628E-05;  1.0000754E+03;  4.0000001E-01;  6.2417980E+01;3; -1.8180628E+00;  0.0000000E+00; -6.9661245E-02;0; -4.9692012E-02;  1.0001545E+04;  0.0000000E+00; -6.7421990E-10;  1.0000000E+04;  0.0000000E+00;  9.9999629E+03; -5.0890606E-02;  0.0000000E+00;  1.1985947E-03;  2.2128841E+01;
 -3.4885779E-06;  9.9999998E-03; -8.0000073E-02;1041; -2.5361311E-03;  0.0000000E+00; -5.7610665E-05;  1.0000759E+03;  4.0000001E-01;  6.2813030E+01;3; -1.8171959E+00;  0.0000000E+00; -4.9442127E-02;0; -4.9882926E-02;  1.0001545E+04;  0.0000000E+00; -2.3924007E-10;  1.0000000E+04;  0.0000000E+00;  9.9999717E+03; -5.0860561E-02;  0.0000000E+00;  9.7763585E-04;  1.9048582E+01;
 -3.4815425E-06;  9.9999998E-03; -6.0000047E-02;1042; -2.5298055E-03;  0.0000000E+00; -3.7051064E-05;  1.0000760E+03;  4.0000001E-01;  6.2911793E+01;3; -1.8137488E+00;  0.0000000E+00; -3.2942269E-02;0; -4.9960554E-02;  1.0001544E+04;  0.0000000E+00; -1.7689740E-10;  1.0000000E+04;  0.0000000E+00;  9.9999766E+03; -5.0752208E-02;  0.0000000E+00;  7.9165463E-04;  1.6464359E+01;
 -3.4737934E-06;  9.9999998E-03; -4.0000029E-02;1043; -2.5231768E-03;  0.0000000E+00; -2.1888141E-05;  1.0000760E+03;  4.0000001E-01;  6.2911793E+01;3; -1.8097372E+00;  0.0000000E+00; -2.0131433E-02;0; -4.9978960E-02;  1.0001541E+04;  0.0000000E+00; -6.9336176E-11;  1.0000000E+04;  0.0000000E+00;  9.9999814E+03; -5.0630972E-02;  0.0000000E+00;  6.5201166E-04;  1.4529987E+01;
 -3.4681411E-06;  9.9999998E-03; -2.0000013E-02;1044; -2.5184327E-03;  0.0000000E+00; -1.0017744E-05;  1.0000760E+03;  4.0000001E-01;  6.2911793E+01;3; -1.8067875E+00;  0.0000000E+00; -9.4340751E-03;0; -4.9975522E-02;  1.0001537E+04;  0.0000000E+00; -1.4056161E-11;  1.0000000E+04;  0.0000000E+00;  9.9999844E+03; -5.0541200E-02;  0.0000000E+00;  5.6567899E-04;  1.3336918E+01;
  1.9995254E-02;  9.9999998E-03; -1.8000050E-01;1066; -3.4270654E-03;  0.0000000E+00; -3.6324901E-04;  1.0000837E+03;  4.0000001E-01;  6.9331360E+01;3; -2.1925297E+00;  0.0000000E+00; -2.4584156E-01;0; -5.4400899E-02;  1.0001755E+04;  0.0000000E+00;  4.1110660E-08;  1.0000000E+04;  0.0000000E+00;  9.9999238E+03; -5.6875624E-02;  0.0000000E+00;  2.4747266E-03;  4.1745811E+01;
  1.9995136E-02;  9.9999998E-03; -1.6000038E-01;1067; -3.5123071E-03;  0.0000000E+00; -2.8493788E-04;  1.0000863E+03;  4.0000001E-01;  7.1504143E+01;3; -2.2494946E+00;  0.0000000E+00; -1.9748469E-01;0; -5.5989958E-02;  1.0001803E+04;  0.0000000E+00;  1.8414411E-08;  1.0000000E+04;  0.0000000E+00;  9.9999258E+03; -5.8398880E-02;  0.0000000E+00;  2.4089201E-03;  4.0738014E+01;
  1.9995075E-02;  9.9999998E-03; -1.4000030E-01;1068; -3.5571770E-03;  0.0000000E+00; -2.1878816E-04;  1.0000879E+03;  4.0000001E-01;  7.2788055E+01;3; -2.2817640E+00;  0.0000000E+00; -1.5615295E-01;0; -5.7065811E-02;  1.0001826E+04;  0.0000000E+00;  8.3703062E-09;  1.0000000E+04;  0.0000000E+00;  9.9999336E+03; -5.9249841E-02;  0.0000000E+00;  2.1840308E-03;  3.7455486E+01;
  1.9995047E-02;  9.9999998E-03; -1.2000022E-01;1069; -3.5755092E-03;  0.0000000E+00; -1.6170040E-04;  1.0000891E+03;  4.0000001E-01;  7.3775681E+01;3; -2.2969451E+00;  0.0000000E+00; -1.1931606E-01;0; -5.7735845E-02;  1.0001836E+04;  0.0000000E+00;  2.7884146E-09;  1.0000000E+04;  0.0000000E+00;  9.9999424E+03; -5.9627078E-02;  0.0000000E+00;  1.8912348E-03;  3.3219868E+01;
  1.9995045E-02;  9.9999998E-03; -1.0000016E-01;1070; -3.5762175E-03;  0.0000000E+00; -1.1627093E-04;  1.0000895E+03;  4.0000001E-01;  7.4170731E+01;3; -2.3003998E+00;  0.0000000E+00; -8.8967904E-02;0; -5.8112238E-02;  1.0001838E+04;  0.0000000E+00;  7.3026374E-10;  1.0000000E+04;  0.0000000E+00;  9.9999521E+03; -5.9695251E-02;  0.0000000E+00;  1.5830121E-03;  2.8791666E+01;
  1.9995054E-02;  9.9999998E-03; -8.0000110E-02;1071; -3.5673925E-03;  0.0000000E+00; -8.0442936E-05;  1.0000900E+03;  4.0000001E-01;  7.4565781E+01;3; -2.2971992E+00;  0.0000000E+00; -6.4112246E-02;0; -5.8293197E-02;  1.0001836E+04;  0.0000000E+00;  2.9228137E-11;  1.0000000E+04;  0.0000000E+00;  9.9999619E+03; -5.9588410E-02;  0.0000000E+00;  1.2952134E-03;  2.4682117E+01;
  1.9995069E-02;  9.9999998E-03; -6.0000069E-02;1072; -3.5550932E-03;  0.0000000E+00; -5.2667026E-05;  1.0000900E+03;  4.0000001E-01;  7.4565781E+01;3; -2.2912416E+00;  0.0000000E+00; -4.3607078E-02;0; -5.8356963E-02;  1.0001831E+04;  0.0000000E+00; -4.9961972E-11;  1.0000000E+04;  0.0000000E+00;  9.9999688E+03; -5.9409060E-02;  0.0000000E+00;  1.0520966E-03;  2.1229029E+01;
  1.9995084E-02;  9.9999998E-03; -4.0000040E-02;1073; -3.5434542E-03;  0.0000000E+00; -3.1488944E-05;  1.0000900E+03;  4.0000001E-01;  7.4565781E+01;3; -2.2851138E+00;  0.0000000E+00; -2.7014818E-02;0; -5.8362424E-02;  1.0001826E+04;  0.0000000E+00; -3.5348228E-11;  1.0000000E+04;  0.0000000E+00;  9.9999746E+03; -5.9231613E-02;  0.0000000E+00;  8.6918741E-04;  1.8642408E+01;
  1.9995093E-02;  9.9999998E-03; -2.0000018E-02;1074; -3.5354071E-03;  0.0000000E+00; -1.4623447E-05;  1.0000900E+03;  4.0000001E-01;  7.4565781E+01;3; -2.2807717E+00;  0.0000000E+00; -1.2851320E-02;0; -5.8350071E-02;  1.0001822E+04;  0.0000000E+00; -2.0991771E-11;  1.0000000E+04;  0.0000000E+00;  9.9999785E+03; -5.9106056E-02;  0.0000000E+00;  7.5598323E-04;  1.7046526E+01;
  3.9993405E-02;  9.9999998E-03; -1.8000059E-01;1097; -4.7215857E-03;  0.0000000E+00; -4.1745655E-04;  1.0000964E+03;  4.0000001E-01;  7.9898964E+01;3; -2.7537341E+00;  0.0000000E+00; -2.5900871E-01;0; -6.1441053E-02;  1.0002026E+04;  0.0000000E+00;  7.6472624E-08;  1.0000000E+04;  0.0000000E+00;  9.9999063E+03; -6.4398035E-02;  0.0000000E+00;  2.9569815E-03;  5.0819740E+01;
  3.9993260E-02;  9.9999998E-03; -1.6000046E-01;1098; -4.8271334E-03;  0.0000000E+00; -3.3088258E-04;  1.0000988E+03;  4.0000001E-01;  8.1874214E+01;3; -2.8197155E+00;  0.0000000E+00; -2.1167517E-01;0; -6.3004866E-02;  1.0002070E+04;  0.0000000E+00;  3.9067814E-08;  1.0000000E+04;  0.0000000E+00;  9.9999092E+03; -6.5876432E-02;  0.0000000E+00;  2.8715665E-03;  4.9366203E+01;
  3.9993189E-02;  9.9999998E-03; -1.4000034E-01;1099; -4.8795762E-03;  0.0000000E+00; -2.5489874E-04;  1.0001006E+03;  4.0000001E-01;  8.3355652E+01;3; -2.8562660E+00;  0.0000000E+00; -1.6915959E-01;0; -6.4026944E-02;  1.0002093E+04;  0.0000000E+00;  1.7197094E-08;  1.0000000E+04;  0.0000000E+00;  9.9999189E+03; -6.6634163E-02;  0.0000000E+00;  2.6072166E-03;  4.5295444E+01;
  3.9993163E-02;  9.9999998E-03; -1.2000026E-01;1100; -4.8965635E-03;  0.0000000E+00; -1.9012523E-04;  1.0001014E+03;  4.0000001E-01;  8.4046989E+01;3; -2.8718143E+00;  0.0000000E+00; -1.3142744E-01;0; -6.4630613E-02;  1.0002100E+04;  0.0000000E+00;  5.6788667E-09;  1.0000000E+04;  0.0000000E+00;  9.9999287E+03; -6.6896215E-02;  0.0000000E+00;  2.2656017E-03;  4.0136265E+01;
  3.9993167E-02;  9.9999998E-03; -1.0000019E-01;1101; -4.8912456E-03;  0.0000000E+00; -1.3790779E-04;  1.0001021E+03;  4.0000001E-01;  8.4639572E+01;3; -2.8736444E+00;  0.0000000E+00; -9.9640898E-02;0; -6.4942807E-02;  1.0002099E+04;  0.0000000E+00;  1.3453457E-09;  1.0000000E+04;  0.0000000E+00;  9.9999404E+03; -6.6846184E-02;  0.0000000E+00;  1.9033751E-03;  3.4738037E+01;
  3.9993189E-02;  9.9999998E-03; -8.0000125E-02;1102; -4.8745987E-03;  0.0000000E+00; -9.5967880E-05;  1.0001022E+03;  4.0000001E-01;  8.4738335E+01;3; -2.8680515E+00;  0.0000000E+00; -7.2596058E-02;0; -6.5068051E-02;  1.0002093E+04;  0.0000000E+00;  1.3967411E-10;  1.0000000E+04;  0.0000000E+00;  9.9999531E+03; -6.6631109E-02;  0.0000000E+00;  1.5630552E-03;  2.9717232E+01;
  3.9993215E-02;  9.9999998E-03; -6.0000084E-02;1103; -4.8542027E-03;  0.0000000E+00; -6.3585059E-05;  1.0001022E+03;  4.0000001E-01;  8.4738335E+01;3; -2.8593717E+00;  0.0000000E+00; -5.0229736E-02;0; -6.5087259E-02;  1.0002083E+04;  0.0000000E+00; -4.2845911E-11;  1.0000000E+04;  0.0000000E+00;  9.9999619E+03; -6.6361643E-02;  0.0000000E+00;  1.2743847E-03;  2.5491447E+01;
  3.9993238E-02;  9.9999998E-03; -4.0000051E-02;1104; -4.8359246E-03;  0.0000000E+00; -3.8154252E-05;  1.0001022E+03;  4.0000001E-01;  8.4738335E+01;3; -2.8509612E+00;  0.0000000E+00; -3.1369179E-02;0; -6.5060385E-02;  1.0002075E+04;  0.0000000E+00;  3.0731688E-11;  1.0000000E+04;  0.0000000E+00;  9.9999688E+03; -6.6117048E-02;  0.0000000E+00;  1.0566632E-03;  2.2322901E+01;
  3.9993256E-02;  9.9999998E-03; -2.0000024E-02;1105; -4.8234952E-03;  0.0000000E+00; -1.7903896E-05;  1.0001021E+03;  4.0000001E-01;  8.4639572E+01;3; -2.8450375E+00;  0.0000000E+00; -1.5127307E-02;0; -6.5028518E-02;  1.0002070E+04;  0.0000000E+00;  8.9653784E-11;  1.0000000E+04;  0.0000000E+00;  9.9999736E+03; -6.5950252E-02;  0.0000000E+00;  9.2173211E-04;  2.0367044E+01;
  5.9991255E-02;  9.9999998E-03; -1.8000063E-01;1128; -6.1950069E-03;  0.0000000E+00; -4.4084588E-04;  1.0001097E+03;  4.0000001E-01;  9.0960373E+01;3; -3.3719869E+00;  0.0000000E+00; -2.5586051E-01;0; -6.8342574E-02;  1.0002305E+04;  0.0000000E+00;  6.7634154E-08;  1.0000000E+04;  0.0000000E+00;  9.9998916E+03; -7.1629703E-02;  0.0000000E+00;  3.2871307E-03;  5.8538860E+01;
  5.9991084E-02;  9.9999998E-03; -1.6000050E-01;1129; -6.3183918E-03;  0.0000000E+00; -3.5146257E-04;  1.0001120E+03;  4.0000001E-01;  9.2836868E+01;3; -3.4467182E+00;  0.0000000E+00; -2.1222809E-01;0; -6.9785543E-02;  1.0002349E+04;  0.0000000E+00;  4.3026667E-08;  1.0000000E+04;  0.0000000E+00;  9.9998955E+03; -7.2965935E-02;  0.0000000E+00;  3.1803942E-03;  5.6545654E+01;
  5.9991006E-02;  9.9999998E-03; -1.4000037E-01;1130; -6.3757938E-03;  0.0000000E+00; -2.7072805E-04;  1.0001135E+03;  4.0000001E-01;  9.4022018E+01;3; -3.4872632E+00;  0.0000000E+00; -1.7097160E-01;0; -7.0660800E-02;  1.0002362E+04;  0.0000000E+00;  1.9123908E-08;  1.0000000E+04;  0.0000000E+00;  9.9999063E+03; -7.3553458E-02;  0.0000000E+00;  2.8926593E-03;  5.1802212E+01;
  5.9990987E-02;  9.9999998E-03; -1.2000028E-01;1131; -6.3887211E-03;  0.0000000E+00; -2.0296444E-04;  1.0001141E+03;  4.0000001E-01;  9.4515831E+01;3; -3.5030079E+00;  0.0000000E+00; -1.3484678E-01;0; -7.1118303E-02;  1.0002364E+04;  0.0000000E+00;  6.2146093E-09;  1.0000000E+04;  0.0000000E+00;  9.9999199E+03; -7.3643163E-02;  0.0000000E+00;  2.5248637E-03;  4.5917896E+01;
  5.9991006E-02;  9.9999998E-03; -1.0000020E-01;1132; -6.3748499E-03;  0.0000000E+00; -1.4713714E-04;  1.0001146E+03;  4.0000001E-01;  9.5009644E+01;3; -3.5030880E+00;  0.0000000E+00; -1.0313538E-01;0; -7.1303420E-02;  1.0002354E+04;  0.0000000E+00;  8.8036239E-10;  1.0000000E+04;  0.0000000E+00;  9.9999326E+03; -7.3435269E-02;  0.0000000E+00;  2.1318488E-03;  3.9761654E+01;
  5.9991043E-02;  9.9999998E-03; -8.0000140E-02;1133; -6.3478164E-03;  0.0000000E+00; -1.0284852E-04;  1.0001146E+03;  4.0000001E-01;  9.4910881E+01;3; -3.4947729E+00;  0.0000000E+00; -7.6114282E-02;0; -7.1325511E-02;  1.0002344E+04;  0.0000000E+00; -1.6085053E-10;  1.0000000E+04;  0.0000000E+00;  9.9999453E+03; -7.3085405E-02;  0.0000000E+00;  1.7598933E-03;  3.4022713E+01;
  5.9991084E-02;  9.9999998E-03; -6.0000092E-02;1134; -6.3174916E-03;  0.0000000E+00; -6.8264788E-05;  1.0001144E+03;  4.0000001E-01;  9.4812119E+01;3; -3.4832544E+00;  0.0000000E+00; -5.3281195E-02;0; -7.1266137E-02;  1.0002333E+04;  0.0000000E+00; -9.9170831E-11;  1.0000000E+04;  0.0000000E+00;  9.9999551E+03; -7.2708860E-02;  0.0000000E+00;  1.4427254E-03;  2.9182322E+01;
  5.9991118E-02;  9.9999998E-03; -4.0000055E-02;1135; -6.2911063E-03;  0.0000000E+00; -4.1128347E-05;  1.0001142E+03;  4.0000001E-01;  9.4614594E+01;3; -3.4724431E+00;  0.0000000E+00; -3.3539757E-02;0; -7.1184389E-02;  1.0002324E+04;  0.0000000E+00; -6.3449287E-11;  1.0000000E+04;  0.0000000E+00;  9.9999639E+03; -7.2387069E-02;  0.0000000E+00;  1.2026833E-03;  2.5547293E+01;
  5.9991144E-02;  9.9999998E-03; -2.0000026E-02;1136; -6.2734368E-03;  0.0000000E+00; -1.9275678E-05;  1.0001142E+03;  4.0000001E-01;  9.4614594E+01;3; -3.4649138E+00;  0.0000000E+00; -1.6179688E-02;0; -7.1120083E-02;  1.0002315E+04;  0.0000000E+00;  4.7865475E-11;  1.0000000E+04;  0.0000000E+00;  9.9999678E+03; -7.2173722E-02;  0.0000000E+00;  1.0536360E-03;  2.3301546E+01;
  7.9988830E-02;  9.9999998E-03; -1.8000066E-01;1159; -7.8079584E-03;  0.0000000E+00; -4.4119576E-04;  1.0001251E+03;  4.0000001E-01;  1.0370075E+02;3; -4.0576611E+00;  0.0000000E+00; -2.4449703E-01;0; -7.6063469E-02;  1.0002623E+04;  0.0000000E+00;  1.0172533E-08;  1.0000000E+04;  0.0000000E+00;  9.9998779E+03; -7.9530306E-02;  0.0000000E+00;  3.4668359E-03;  6.5099968E+01;
  7.9988644E-02;  9.9999998E-03; -1.6000052E-01;1160; -7.9438109E-03;  0.0000000E+00; -3.5141403E-04;  1.0001271E+03;  4.0000001E-01;  1.0528096E+02;3; -4.1402168E+00;  0.0000000E+00; -2.0435502E-01;0; -7.7315941E-02;  1.0002656E+04;  0.0000000E+00;  3.3915036E-08;  1.0000000E+04;  0.0000000E+00;  9.9998867E+03; -8.0656417E-02;  0.0000000E+00;  3.3404715E-03;  6.2510963E+01;
  7.9988569E-02;  9.9999998E-03; -1.4000039E-01;1161; -8.0009783E-03;  0.0000000E+00; -2.7036795E-04;  1.0001283E+03;  4.0000001E-01;  1.0626859E+02;3; -4.1833897E+00;  0.0000000E+00; -1.6635756E-01;0; -7.7969588E-02;  1.0002669E+04;  0.0000000E+00;  1.7271677E-08;  1.0000000E+04;  0.0000000E+00;  9.9998965E+03; -8.1017606E-02;  0.0000000E+00;  3.0480151E-03;  5.7235935E+01;
  7.9988562E-02;  9.9999998E-03; -1.2000029E-01;1162; -8.0057187E-03;  0.0000000E+00; -2.0307544E-04;  1.0001286E+03;  4.0000001E-01;  1.0656487E+02;3; -4.1985121E+00;  0.0000000E+00; -1.3275953E-01;0; -7.8214221E-02;  1.0002664E+04;  0.0000000E+00;  5.1043663E-09;  1.0000000E+04;  0.0000000E+00;  9.9999102E+03; -8.0892727E-02;  0.0000000E+00;  2.6785075E-03;  5.0837757E+01;
  7.9988599E-02;  9.9999998E-03; -1.0000020E-01;1163; -7.9799136E-03;  0.0000000E+00; -1.4696005E-04;  1.0001286E+03;  4.0000001E-01;  1.0656487E+02;3; -4.1962910E+00;  0.0000000E+00; -1.0272294E-01;0; -7.8216039E-02;  1.0002650E+04;  0.0000000E+00;  4.4490842E-11;  1.0000000E+04;  0.0000000E+00;  9.9999258E+03; -8.0496006E-02;  0.0000000E+00;  2.2799661E-03;  4.4149040E+01;
  7.9988658E-02;  9.9999998E-03; -8.0000140E-02;1164; -7.9397494E-03;  0.0000000E+00; -1.0283837E-04;  1.0001283E+03;  4.0000001E-01;  1.0626859E+02;3; -4.1847205E+00;  0.0000000E+00; -7.6688707E-02;0; -7.8090549E-02;  1.0002631E+04;  0.0000000E+00; -7.5836615E-10;  1.0000000E+04;  0.0000000E+00;  9.9999395E+03; -7.9989523E-02;  0.0000000E+00;  1.8989726E-03;  3.7893589E+01;
  7.9988718E-02;  9.9999998E-03; -6.0000092E-02;1165; -7.8974077E-03;  0.0000000E+00; -6.8065019E-05;  1.0001281E+03;  4.0000001E-01;  1.0607106E+02;3; -4.1700358E+00;  0.0000000E+00; -5.4061245E-02;0; -7.7919349E-02;  1.0002616E+04;  0.0000000E+00; -5.1141430E-10;  1.0000000E+04;  0.0000000E+00;  9.9999502E+03; -7.9490937E-02;  0.0000000E+00;  1.5715862E-03;  3.2599915E+01;
  7.9988770E-02;  9.9999998E-03; -4.0000055E-02;1166; -7.8614578E-03;  0.0000000E+00; -4.1063442E-05;  1.0001279E+03;  4.0000001E-01;  1.0597230E+02;3; -4.1565590E+00;  0.0000000E+00; -3.4384891E-02;0; -7.7759691E-02;  1.0002601E+04;  0.0000000E+00; -7.7299098E-11;  1.0000000E+04;  0.0000000E+00;  9.9999600E+03; -7.9082191E-02;  0.0000000E+00;  1.3224983E-03;  2.8614033E+01;
  7.9988800E-02;  9.9999998E-03; -2.0000026E-02;1167; -7.8376932E-03;  0.0000000E+00; -1.9231324E-05;  1.0001276E+03;  4.0000001E-01;  1.0577477E+02;3; -4.1473103E+00;  0.0000000E+00; -1.6647682E-02;0; -7.7649549E-02;  1.0002593E+04;  0.0000000E+00;  5.1377865E-12;  1.0000000E+04;  0.0000000E+00;  9.9999658E+03; -7.8816906E-02;  0.0000000E+00;  1.1673541E-03;  2.6147472E+01;
  9.9986099E-02;  9.9999998E-03; -1.8000066E-01;1190; -9.5699048E-03;  0.0000000E+00; -4.2723981E-04;  1.0001437E+03;  4.0000001E-01;  1.1910773E+02;3; -4.8251486E+00;  0.0000000E+00; -2.2884655E-01;0; -8.5265256E-02;  1.0003008E+04;  0.0000000E+00; -8.0421451E-08;  1.0000000E+04;  0.0000000E+00;  9.9998711E+03; -8.8800050E-02;  0.0000000E+00;  3.5347964E-03;  7.1191086E+01;
  9.9985912E-02;  9.9999998E-03; -1.6000052E-01;1191; -9.7110569E-03;  0.0000000E+00; -3.3963288E-04;  1.0001454E+03;  4.0000001E-01;  1.2049040E+02;3; -4.9135222E+00;  0.0000000E+00; -1.9325665E-01;0; -8.6262897E-02;  1.0003032E+04;  0.0000000E+00;  8.9606385E-09;  1.0000000E+04;  0.0000000E+00;  9.9998789E+03; -8.9662634E-02;  0.0000000E+00;  3.3997355E-03;  6.8050949E+01;
  9.9985845E-02;  9.9999998E-03; -1.4000039E-01;1192; -9.7612236E-03;  0.0000000E+00; -2.6203526E-04;  1.0001462E+03;  4.0000001E-01;  1.2108298E+02;3; -4.9576244E+00;  0.0000000E+00; -1.5965560E-01;0; -8.6631939E-02;  1.0003034E+04;  0.0000000E+00;  1.3852288E-08;  1.0000000E+04;  0.0000000E+00;  9.9998896E+03; -8.9755461E-02;  0.0000000E+00;  3.1235202E-03;  6.2397022E+01;
  9.9985860E-02;  9.9999998E-03; -1.2000029E-01;1193; -9.7526303E-03;  0.0000000E+00; -1.9651822E-04;  1.0001461E+03;  4.0000001E-01;  1.2108298E+02;3; -4.9708986E+00;  0.0000000E+00; -1.2885359E-01;0; -8.6607136E-02;  1.0003021E+04;  0.0000000E+00;  3.9945309E-09;  1.0000000E+04;  0.0000000E+00;  9.9999033E+03; -8.9384124E-02;  0.0000000E+00;  2.7769858E-03;  5.5678383E+01;
  9.9985927E-02;  9.9999998E-03; -1.0000020E-01;1194; -9.7104963E-03;  0.0000000E+00; -1.4260726E-04;  1.0001458E+03;  4.0000001E-01;  1.2078669E+02;3; -4.9651790E+00;  0.0000000E+00; -1.0101824E-01;0; -8.6377032E-02;  1.0002996E+04;  0.0000000E+00; -1.0074926E-09;  1.0000000E+04;  0.0000000E+00;  9.9999199E+03; -8.8774040E-02;  0.0000000E+00;  2.3970101E-03;  4.8644386E+01;
  9.9986009E-02;  9.9999998E-03; -8.0000140E-02;1195; -9.6540134E-03;  0.0000000E+00; -9.9649878E-05;  1.0001454E+03;  4.0000001E-01;  1.2049040E+02;3; -4.9496727E+00;  0.0000000E+00; -7.6322258E-02;0; -8.6064473E-02;  1.0002972E+04;  0.0000000E+00; -1.5588352E-09;  1.0000000E+04;  0.0000000E+00;  9.9999336E+03; -8.8092171E-02;  0.0000000E+00;  2.0276941E-03;  4.2026604E+01;
  9.9986091E-02;  9.9999998E-03; -6.0000092E-02;1196; -9.5972186E-03;  0.0000000E+00; -6.6179025E-05;  1.0001447E+03;  4.0000001E-01;  1.1989783E+02;3; -4.9312172E+00;  0.0000000E+00; -5.4502320E-02;0; -8.5751377E-02;  1.0002948E+04;  0.0000000E+00; -1.1546983E-09;  1.0000000E+04;  0.0000000E+00;  9.9999443E+03; -8.7457649E-02;  0.0000000E+00;  1.7062692E-03;  3.6393120E+01;
  9.9986158E-02;  9.9999998E-03; -4.0000055E-02;1197; -9.5500741E-03;  0.0000000E+00; -3.9962692E-05;  1.0001443E+03;  4.0000001E-01;  1.1960154E+02;3; -4.9147148E+00;  0.0000000E+00; -3.4988634E-02;0; -8.5492775E-02;  1.0002933E+04;  0.0000000E+00; -2.7650682E-10;  1.0000000E+04;  0.0000000E+00;  9.9999541E+03; -8.6952351E-02;  0.0000000E+00;  1.4595727E-03;  3.2132233E+01;
  9.9986203E-02;  9.9999998E-03; -2.0000026E-02;1198; -9.5192315E-03;  0.0000000E+00; -1.8763931E-05;  1.0001442E+03;  4.0000001E-01;  1.1940401E+02;3; -4.9035149E+00;  0.0000000E+00; -1.7109483E-02;0; -8.5324280E-02;  1.0002922E+04;  0.0000000E+00; -8.0164049E-11;  1.0000000E+04;  0.0000000E+00;  9.9999600E+03; -8.6629383E-02;  0.0000000E+00;  1.3051018E-03;  2.9487707E+01;
  1.1998298E-01;  9.9999998E-03; -1.8000068E-01;1221; -1.1523422E-02;  0.0000000E+00; -4.1209208E-04;  1.0001666E+03;  4.0000001E-01;  1.3797139E+02;3; -5.6815653E+00;  0.0000000E+00; -2.1448334E-01;0; -9.6238233E-02;  1.0003470E+04;  0.0000000E+00; -2.1814375E-07;  1.0000000E+04;  0.0000000E+00;  9.9998613E+03; -9.9800251E-02;  0.0000000E+00;  3.5620194E-03;  7.7993172E+01;
  1.1998279E-01;  9.9999998E-03; -1.6000053E-01;1222; -1.1661457E-02;  0.0000000E+00; -3.2994690E-04;  1.0001677E+03;  4.0000001E-01;  1.3886024E+02;3; -5.7732892E+00;  0.0000000E+00; -1.8498537E-01;0; -9.6907318E-02;  1.0003485E+04;  0.0000000E+00; -2.0339030E-08;  1.0000000E+04;  0.0000000E+00;  9.9998662E+03; -1.0034554E-01;  0.0000000E+00;  3.4382173E-03;  7.4408630E+01;
  1.1998276E-01;  9.9999998E-03; -1.4000040E-01;1223; -1.1697336E-02;  0.0000000E+00; -2.5731995E-04;  1.0001678E+03;  4.0000001E-01;  1.3905777E+02;3; -5.8164592E+00;  0.0000000E+00; -1.5628578E-01;0; -9.6932776E-02;  1.0003478E+04;  0.0000000E+00;  1.1814334E-08;  1.0000000E+04;  0.0000000E+00;  9.9998809E+03; -1.0013458E-01;  0.0000000E+00;  3.2018041E-03;  6.8519722E+01;
  1.1998281E-01;  9.9999998E-03; -1.2000030E-01;1224; -1.1669277E-02;  0.0000000E+00; -1.9405385E-04;  1.0001674E+03;  4.0000001E-01;  1.3866272E+02;3; -5.8263035E+00;  0.0000000E+00; -1.2816022E-01;0; -9.6588001E-02;  1.0003452E+04;  0.0000000E+00;  3.5738326E-09;  1.0000000E+04;  0.0000000E+00;  9.9998965E+03; -9.9490747E-02;  0.0000000E+00;  2.9027441E-03;  6.1631031E+01;
  1.1998291E-01;  9.9999998E-03; -1.0000021E-01;1225; -1.1605958E-02;  0.0000000E+00; -1.4229983E-04;  1.0001664E+03;  4.0000001E-01;  1.3787262E+02;3; -5.8159752E+00;  0.0000000E+00; -1.0255421E-01;0; -9.6084237E-02;  1.0003418E+04;  0.0000000E+00; -1.9280630E-09;  1.0000000E+04;  0.0000000E+00;  9.9999092E+03; -9.8646879E-02;  0.0000000E+00;  2.5626393E-03;  5.4361713E+01;
  1.1998302E-01;  9.9999998E-03; -8.0000147E-02;1226; -1.1529346E-02;  0.0000000E+00; -1.0033628E-04;  1.0001656E+03;  4.0000001E-01;  1.3718129E+02;3; -5.7956085E+00;  0.0000000E+00; -7.8784674E-02;0; -9.5551580E-02;  1.0003387E+04;  0.0000000E+00; -2.6401903E-09;  1.0000000E+04;  0.0000000E+00;  9.9999238E+03; -9.7773194E-02;  0.0000000E+00;  2.2216160E-03;  4.7443714E+01;
  1.1998314E-01;  9.9999998E-03; -6.0000096E-02;1227; -1.1455270E-02;  0.0000000E+00; -6.7317502E-05;  1.0001647E+03;  4.0000001E-01;  1.3639119E+02;3; -5.7726994E+00;  0.0000000E+00; -5.7161178E-02;0; -9.5071800E-02;  1.0003357E+04;  0.0000000E+00; -1.6405682E-09;  1.0000000E+04;  0.0000000E+00;  9.9999404E+03; -9.6989878E-02;  0.0000000E+00;  1.9180741E-03;  4.1495361E+01;
  1.1998323E-01;  9.9999998E-03; -4.0000055E-02;1228; -1.1394953E-02;  0.0000000E+00; -4.1086911E-05;  1.0001641E+03;  4.0000001E-01;  1.3589737E+02;3; -5.7526784E+00;  0.0000000E+00; -3.7159823E-02;0; -9.4696999E-02;  1.0003336E+04;  0.0000000E+00; -5.4528781E-10;  1.0000000E+04;  0.0000000E+00;  9.9999473E+03; -9.6378624E-02;  0.0000000E+00;  1.6816244E-03;  3.6963390E+01;
  1.1998329E-01;  9.9999998E-03; -2.0000026E-02;1229; -1.1355878E-02;  0.0000000E+00; -1.9392792E-05;  1.0001636E+03;  4.0000001E-01;  1.3560109E+02;3; -5.7392411E+00;  0.0000000E+00; -1.8295612E-02;0; -9.4459958E-02;  1.0003323E+04;  0.0000000E+00; -2.2005338E-10;  1.0000000E+04;  0.0000000E+00;  9.9999531E+03; -9.5992193E-02;  0.0000000E+00;  1.5322337E-03;  3.4137344E+01;
  1.3997938E-01;  9.9999998E-03; -1.8000071E-01;1252; -1.3721509E-02;  0.0000000E+00; -4.1349287E-04;  1.0001935E+03;  4.0000001E-01;  1.6039050E+02;3; -6.6286254E+00;  0.0000000E+00; -2.0932993E-01;0; -1.0894889E-01;  1.0004025E+04;  0.0000000E+00; -9.7455240E-06;  1.0000000E+04;  0.0000000E+00;  9.9998457E+03; -1.1261638E-01;  0.0000000E+00;  3.6674878E-03;  8.7510490E+01;
  1.3997921E-01;  9.9999998E-03; -1.6000056E-01;1253; -1.3847426E-02;  0.0000000E+00; -3.3870584E-04;  1.0001938E+03;  4.0000001E-01;  1.6058803E+02;3; -6.7211466E+00;  0.0000000E+00; -1.8747294E-01;0; -1.0921239E-01;  1.0004025E+04;  0.0000000E+00; -4.4885439E-08;  1.0000000E+04;  0.0000000E+00;  9.9998525E+03; -1.1277967E-01;  0.0000000E+00;  3.5672751E-03;  8.3350075E+01;
  1.3997921E-01;  9.9999998E-03; -1.4000043E-01;1254; -1.3861313E-02;  0.0000000E+00; -2.7037523E-04;  1.0001933E+03;  4.0000001E-01;  1.6019298E+02;3; -6.7615929E+00;  0.0000000E+00; -1.6322397E-01;0; -1.0883569E-01;  1.0003999E+04;  0.0000000E+00;  1.2259867E-08;  1.0000000E+04;  0.0000000E+00;  9.9998672E+03; -1.1222792E-01;  0.0000000E+00;  3.3922356E-03;  7.7249840E+01;
  1.3997932E-01;  9.9999998E-03; -1.2000033E-01;1255; -1.3807016E-02;  0.0000000E+00; -2.0892337E-04;  1.0001922E+03;  4.0000001E-01;  1.5920535E+02;3; -6.7664609E+00;  0.0000000E+00; -1.3788128E-01;0; -1.0812617E-01;  1.0003962E+04;  0.0000000E+00;  4.8196158E-09;  1.0000000E+04;  0.0000000E+00;  9.9998809E+03; -1.1128804E-01;  0.0000000E+00;  3.1618730E-03;  7.0223495E+01;
  1.3997945E-01;  9.9999998E-03; -1.0000023E-01;1256; -1.3717112E-02;  0.0000000E+00; -1.5669108E-04;  1.0001908E+03;  4.0000001E-01;  1.5811896E+02;3; -6.7503672E+00;  0.0000000E+00; -1.1275548E-01;0; -1.0731538E-01;  1.0003919E+04;  0.0000000E+00; -2.5953406E-09;  1.0000000E+04;  0.0000000E+00;  9.9998955E+03; -1.1019348E-01;  0.0000000E+00;  2.8780997E-03;  6.2698185E+01;
  1.3997962E-01;  9.9999998E-03; -8.0000162E-02;1257; -1.3616068E-02;  0.0000000E+00; -1.1332581E-04;  1.0001895E+03;  4.0000001E-01;  1.5703258E+02;3; -6.7242975E+00;  0.0000000E+00; -8.8565730E-02;0; -1.0653858E-01;  1.0003877E+04;  0.0000000E+00; -3.6733898E-09;  1.0000000E+04;  0.0000000E+00;  9.9999102E+03; -1.0911480E-01;  0.0000000E+00;  2.5762245E-03;  5.5406639E+01;
  1.3997976E-01;  9.9999998E-03; -6.0000107E-02;1258; -1.3521464E-02;  0.0000000E+00; -7.7787277E-05;  1.0001884E+03;  4.0000001E-01;  1.5614371E+02;3; -6.6963744E+00;  0.0000000E+00; -6.5450229E-02;0; -1.0587514E-01;  1.0003843E+04;  0.0000000E+00; -1.8858737E-09;  1.0000000E+04;  0.0000000E+00;  9.9999268E+03; -1.0817202E-01;  0.0000000E+00;  2.2968820E-03;  4.9044960E+01;
  1.3997988E-01;  9.9999998E-03; -4.0000066E-02;1259; -1.3445674E-02;  0.0000000E+00; -4.8407990E-05;  1.0001876E+03;  4.0000001E-01;  1.5535361E+02;3; -6.6723990E+00;  0.0000000E+00; -4.3096285E-02;0; -1.0537279E-01;  1.0003813E+04;  0.0000000E+00; -7.3805745E-10;  1.0000000E+04;  0.0000000E+00;  9.9999365E+03; -1.0744672E-01;  0.0000000E+00;  2.0739255E-03;  4.4147896E+01;
  1.3997996E-01;  9.9999998E-03; -2.0000031E-02;1260; -1.3397012E-02;  0.0000000E+00; -2.3160668E-05;  1.0001871E+03;  4.0000001E-01;  1.5495856E+02;3; -6.6564379E+00;  0.0000000E+00; -2.1395979E-02;0; -1.0506082E-01;  1.0003798E+04;  0.0000000E+00; -1.6458485E-10;  1.0000000E+04;  0.0000000E+00;  9.9999414E+03; -1.0699187E-01;  0.0000000E+00;  1.9310516E-03;  4.1074543E+01;
  1.5997517E-01;  9.9999998E-03; -1.8000081E-01;1283; -1.6207766E-02;  0.0000000E+00; -4.5667164E-04;  1.0002243E+03;  4.0000001E-01;  1.8587126E+02;3; -7.6663857E+00;  0.0000000E+00; -2.2682139E-01;0; -1.2321823E-01;  1.0004669E+04;  0.0000000E+00; -8.2905368E-05;  1.0000000E+04;  0.0000000E+00;  9.9998184E+03; -1.2726142E-01;  0.0000000E+00;  4.0431828E-03;  1.0307106E+02;
  1.5997505E-01;  9.9999998E-03; -1.6000065E-01;1284; -1.6312214E-02;  0.0000000E+00; -3.8780388E-04;  1.0002243E+03;  4.0000001E-01;  1.8587126E+02;3; -7.7576194E+00;  0.0000000E+00; -2.1203335E-01;0; -1.2299813E-01;  1.0004653E+04;  0.0000000E+00; -6.0745066E-08;  1.0000000E+04;  0.0000000E+00;  9.9998291E+03; -1.2694333E-01;  0.0000000E+00;  3.9452049E-03;  9.7478317E+01;
  1.5997511E-01;  9.9999998E-03; -1.4000052E-01;1285; -1.6296281E-02;  0.0000000E+00; -3.2068623E-04;  1.0002230E+03;  4.0000001E-01;  1.8468611E+02;3; -7.7939205E+00;  0.0000000E+00; -1.9123182E-01;0; -1.2217762E-01;  1.0004613E+04;  0.0000000E+00;  2.0380856E-08;  1.0000000E+04;  0.0000000E+00;  9.9998438E+03; -1.2601081E-01;  0.0000000E+00;  3.8331803E-03;  9.0749191E+01;
  1.5997528E-01;  9.9999998E-03; -1.2000040E-01;1286; -1.6209066E-02;  0.0000000E+00; -2.5664011E-04;  1.0002211E+03;  4.0000001E-01;  1.8310591E+02;3; -7.7928457E+00;  0.0000000E+00; -1.6625252E-01;0; -1.2107394E-01;  1.0004562E+04;  0.0000000E+00;  8.0567695E-09;  1.0000000E+04;  0.0000000E+00;  9.9998584E+03; -1.2475369E-01;  0.0000000E+00;  3.6797491E-03;  8.3317444E+01;
  1.5997548E-01;  9.9999998E-03; -1.0000029E-01;1287; -1.6086921E-02;  0.0000000E+00; -1.9870901E-04;  1.0002192E+03;  4.0000001E-01;  1.8162447E+02;3; -7.7701712E+00;  0.0000000E+00; -1.3901345E-01;0; -1.1993722E-01;  1.0004506E+04;  0.0000000E+00; -3.2078551E-09;  1.0000000E+04;  0.0000000E+00;  9.9998770E+03; -1.2339608E-01;  0.0000000E+00;  3.4588554E-03;  7.5280655E+01;
  1.5997569E-01;  9.9999998E-03; -8.0000207E-02;1288; -1.5956830E-02;  0.0000000E+00; -1.4818480E-04;  1.0002174E+03;  4.0000001E-01;  1.8014302E+02;3; -7.7377687E+00;  0.0000000E+00; -1.1114808E-01;0; -1.1890487E-01;  1.0004454E+04;  0.0000000E+00; -4.4993249E-09;  1.0000000E+04;  0.0000000E+00;  9.9998906E+03; -1.2210350E-01;  0.0000000E+00;  3.1986299E-03;  6.7344894E+01;
  1.5997589E-01;  9.9999998E-03; -6.0000140E-02;1289; -1.5838100E-02;  0.0000000E+00; -1.0457351E-04;  1.0002157E+03;  4.0000001E-01;  1.7866159E+02;3; -7.7042789E+00;  0.0000000E+00; -8.3251059E-02;0; -1.1805111E-01;  1.0004411E+04;  0.0000000E+00; -2.9248248E-09;  1.0000000E+04;  0.0000000E+00;  9.9999043E+03; -1.2099401E-01;  0.0000000E+00;  2.9428969E-03;  6.0309593E+01;
  1.5997604E-01;  9.9999998E-03; -4.0000089E-02;1290; -1.5744297E-02;  0.0000000E+00; -6.6566077E-05;  1.0002147E+03;  4.0000001E-01;  1.7787149E+02;3; -7.6760120E+00;  0.0000000E+00; -5.5419005E-02;0; -1.1741781E-01;  1.0004375E+04;  0.0000000E+00; -1.1030072E-09;  1.0000000E+04;  0.0000000E+00;  9.9999180E+03; -1.2014927E-01;  0.0000000E+00;  2.7314601E-03;  5.4832241E+01;
  1.5997612E-01;  9.9999998E-03; -2.0000041E-02;1291; -1.5684510E-02;  0.0000000E+00; -3.2343403E-05;  1.0002141E+03;  4.0000001E-01;  1.7737767E+02;3; -7.6573153E+00;  0.0000000E+00; -2.7705349E-02;0; -1.1702911E-01;  1.0004356E+04;  0.0000000E+00; -2.8126820E-10;  1.0000000E+04;  0.0000000E+00;  9.9999238E+03; -1.1962238E-01;  0.0000000E+00;  2.5932696E-03;  5.1370682E+01;
  1.7997031E-01;  9.9999998E-03; -1.8000102E-01;1314; -1.9011887E-02;  0.0000000E+00; -5.7585863E-04;  1.0002597E+03;  4.0000001E-01;  2.1520375E+02;3; -8.7948008E+00;  0.0000000E+00; -2.8439820E-01;0; -1.3887718E-01;  1.0005426E+04;  0.0000000E+00; -2.4678209E-04;  1.0000000E+04;  0.0000000E+00;  9.9997686E+03; -1.4383367E-01;  0.0000000E+00;  4.9564838E-03;  1.2945297E+02;
  1.7997025E-01;  9.9999998E-03; -1.6000085E-01;1315; -1.9085731E-02;  0.0000000E+00; -5.0468097E-04;  1.0002586E+03;  4.0000001E-01;  2.1421613E+02;3; -8.8833418E+00;  0.0000000E+00; -2.7255210E-01;0; -1.3813859E-01;  1.0005383E+04;  0.0000000E+00; -8.0783695E-07;  1.0000000E+04;  0.0000000E+00;  9.9997871E+03; -1.4292526E-01;  0.0000000E+00;  4.7866772E-03;  1.2045467E+02;
  1.7997038E-01;  9.9999998E-03; -1.4000069E-01;1316; -1.9032750E-02;  0.0000000E+00; -4.2992004E-04;  1.0002565E+03;  4.0000001E-01;  2.1243840E+02;3; -8.9148932E+00;  0.0000000E+00; -2.5133422E-01;0; -1.3687627E-01;  1.0005323E+04;  0.0000000E+00;  3.2808366E-08;  1.0000000E+04;  0.0000000E+00;  9.9998057E+03; -1.4157195E-01;  0.0000000E+00;  4.6956874E-03;  1.1181513E+02;
  1.7997061E-01;  9.9999998E-03; -1.2000053E-01;1317; -1.8906355E-02;  0.0000000E+00; -3.5408497E-04;  1.0002538E+03;  4.0000001E-01;  2.1026563E+02;3; -8.9075899E+00;  0.0000000E+00; -2.2226201E-01;0; -1.3538107E-01;  1.0005254E+04;  0.0000000E+00;  1.3635362E-08;  1.0000000E+04;  0.0000000E+00;  9.9998184E+03; -1.3997990E-01;  0.0000000E+00;  4.5988257E-03;  1.0313367E+02;
  1.7997089E-01;  9.9999998E-03; -1.0000040E-01;1318; -1.8746419E-02;  0.0000000E+00; -2.8173052E-04;  1.0002513E+03;  4.0000001E-01;  2.0819160E+02;3; -8.8780632E+00;  0.0000000E+00; -1.8848781E-01;0; -1.3392259E-01;  1.0005185E+04;  0.0000000E+00; -2.6435258E-09;  1.0000000E+04;  0.0000000E+00;  9.9998389E+03; -1.3835131E-01;  0.0000000E+00;  4.4287173E-03;  9.3932091E+01;
  1.7997117E-01;  9.9999998E-03; -8.0000296E-02;1319; -1.8582577E-02;  0.0000000E+00; -2.1519072E-04;  1.0002490E+03;  4.0000001E-01;  2.0621635E+02;3; -8.8390026E+00;  0.0000000E+00; -1.5219106E-01;0; -1.3264084E-01;  1.0005122E+04;  0.0000000E+00; -4.7896789E-09;  1.0000000E+04;  0.0000000E+00;  9.9998545E+03; -1.3684091E-01;  0.0000000E+00;  4.2000664E-03;  8.4793709E+01;
  1.7997141E-01;  9.9999998E-03; -6.0000204E-02;1320; -1.8435951E-02;  0.0000000E+00; -1.5519219E-04;  1.0002472E+03;  4.0000001E-01;  2.0483368E+02;3; -8.7996702E+00;  0.0000000E+00; -1.1482658E-01;0; -1.3160329E-01;  1.0005069E+04;  0.0000000E+00; -2.6823186E-09;  1.0000000E+04;  0.0000000E+00;  9.9998750E+03; -1.3556191E-01;  0.0000000E+00;  3.9586280E-03;  7.6613686E+01;
  1.7997159E-01;  9.9999998E-03; -4.0000126E-02;1321; -1.8321412E-02;  0.0000000E+00; -1.0041911E-04;  1.0002457E+03;  4.0000001E-01;  2.0354977E+02;3; -8.7668219E+00;  0.0000000E+00; -7.6904595E-02;0; -1.3084425E-01;  1.0005027E+04;  0.0000000E+00; -9.3990338E-10;  1.0000000E+04;  0.0000000E+00;  9.9998877E+03; -1.3459516E-01;  0.0000000E+00;  3.7509005E-03;  7.0194397E+01;
  1.7997171E-01;  9.9999998E-03; -2.0000061E-02;1322; -1.8248858E-02;  0.0000000E+00; -4.9291099E-05;  1.0002450E+03;  4.0000001E-01;  2.0295720E+02;3; -8.7452173E+00;  0.0000000E+00; -3.8539819E-02;0; -1.3038240E-01;  1.0005003E+04;  0.0000000E+00; -1.2111233E-10;  1.0000000E+04;  0.0000000E+00;  9.9998955E+03; -1.3399455E-01;  0.0000000E+00;  3.6121404E-03;  6.6116554E+01;
  1.9996467E-01;  9.9999998E-03; -1.8000138E-01;1345; -2.2162445E-02;  0.0000000E+00; -8.0171035E-04;  1.0002993E+03;  4.0000001E-01;  2.4799295E+02;3; -1.0013885E+01;  0.0000000E+00; -3.9561152E-01;0; -1.5572441E-01;  1.0006303E+04;  0.0000000E+00; -4.2924288E-04;  1.0000000E+04;  0.0000000E+00;  9.9996855E+03; -1.6243418E-01;  0.0000000E+00;  6.7097703E-03;  1.7225760E+02;
  1.9996469E-01;  9.9999998E-03; -1.6000116E-01;1346; -2.2197489E-02;  0.0000000E+00; -7.1581308E-04;  1.0002973E+03;  4.0000001E-01;  2.4631398E+02;3; -1.0098964E+01;  0.0000000E+00; -3.8275522E-01;0; -1.5452796E-01;  1.0006230E+04;  0.0000000E+00; -3.3243014E-06;  1.0000000E+04;  0.0000000E+00;  9.9997168E+03; -1.6086619E-01;  0.0000000E+00;  6.3382233E-03;  1.5667334E+02;
  1.9996491E-01;  9.9999998E-03; -1.4000095E-01;1347; -2.2100888E-02;  0.0000000E+00; -6.1969127E-04;  1.0002943E+03;  4.0000001E-01;  2.4384492E+02;3; -1.0126400E+01;  0.0000000E+00; -3.5440207E-01;0; -1.5288642E-01;  1.0006146E+04;  0.0000000E+00;  5.0893480E-08;  1.0000000E+04;  0.0000000E+00;  9.9997432E+03; -1.5905742E-01;  0.0000000E+00;  6.1710090E-03;  1.4373282E+02;
  1.9996524E-01;  9.9999998E-03; -1.2000075E-01;1348; -2.1929681E-02;  0.0000000E+00; -5.1824382E-04;  1.0002913E+03;  4.0000001E-01;  2.4127708E+02;3; -1.0113502E+01;  0.0000000E+00; -3.1480637E-01;0; -1.5104754E-01;  1.0006059E+04;  0.0000000E+00;  2.0279836E-08;  1.0000000E+04;  0.0000000E+00;  9.9997646E+03; -1.5711708E-01;  0.0000000E+00;  6.0695456E-03;  1.3214607E+02;
  1.9996561E-01;  9.9999998E-03; -1.0000058E-01;1349; -2.1726767E-02;  0.0000000E+00; -4.1855089E-04;  1.0002880E+03;  4.0000001E-01;  2.3861050E+02;3; -1.0077598E+01;  0.0000000E+00; -2.6772586E-01;0; -1.4930299E-01;  1.0005974E+04;  0.0000000E+00; -1.9766764E-09;  1.0000000E+04;  0.0000000E+00;  9.9997881E+03; -1.5521421E-01;  0.0000000E+00;  5.9112222E-03;  1.2056602E+02;
  1.9996595E-01;  9.9999998E-03; -8.0000430E-02;1350; -2.1524532E-02;  0.0000000E+00; -3.2434094E-04;  1.0002853E+03;  4.0000001E-01;  2.3633896E+02;3; -1.0031968E+01;  0.0000000E+00; -2.1728913E-01;0; -1.4779864E-01;  1.0005899E+04;  0.0000000E+00; -4.5019561E-09;  1.0000000E+04;  0.0000000E+00;  9.9998105E+03; -1.5348575E-01;  0.0000000E+00;  5.6871097E-03;  1.0928333E+02;
  1.9996627E-01;  9.9999998E-03; -6.0000300E-02;1351; -2.1346252E-02;  0.0000000E+00; -2.3653406E-04;  1.0002831E+03;  4.0000001E-01;  2.3456123E+02;3; -9.9867668E+00;  0.0000000E+00; -1.6426115E-01;0; -1.4659792E-01;  1.0005833E+04;  0.0000000E+00; -2.1519586E-09;  1.0000000E+04;  0.0000000E+00;  9.9998301E+03; -1.5203810E-01;  0.0000000E+00;  5.4401695E-03;  9.9225716E+01;
  1.9996649E-01;  9.9999998E-03; -4.0000189E-02;1352; -2.1208158E-02;  0.0000000E+00; -1.5445388E-04;  1.0002816E+03;  4.0000001E-01;  2.3327731E+02;3; -9.9492970E+00;  0.0000000E+00; -1.0992260E-01;0; -1.4572798E-01;  1.0005783E+04;  0.0000000E+00; -5.2100640E-10;  1.0000000E+04;  0.0000000E+00;  9.9998467E+03; -1.5095000E-01;  0.0000000E+00;  5.2220277E-03;  9.1331497E+01;
  1.9996664E-01;  9.9999998E-03; -2.0000093E-02;1353; -2.1121135E-02;  0.0000000E+00; -7.6267221E-05;  1.0002806E+03;  4.0000001E-01;  2.3248721E+02;3; -9.9247274E+00;  0.0000000E+00; -5.5013675E-02;0; -1.4520173E-01;  1.0005753E+04;  0.0000000E+00;  2.5583544E-11;  1.0000000E+04;  0.0000000E+00;  9.9998584E+03; -1.5027580E-01;  0.0000000E+00;  5.0740712E-03;  8.6311478E+01;
  2.1995816E-01;  9.9999998E-03; -1.8000193E-01;1376; -2.5692921E-02;  0.0000000E+00; -1.1587809E-03;  1.0003430E+03;  4.0000001E-01;  2.8414008E+02;3; -1.1324914E+01;  0.0000000E+00; -5.6990910E-01;0; -1.7354438E-01;  1.0007306E+04;  0.0000000E+00; -4.8714713E-04;  1.0000000E+04;  0.0000000E+00;  9.9995576E+03; -1.8310012E-01;  0.0000000E+00;  9.5557496E-03;  2.3655241E+02;
  2.1995828E-01;  9.9999998E-03; -1.6000164E-01;1377; -2.5683239E-02;  0.0000000E+00; -1.0380353E-03;  1.0003405E+03;  4.0000001E-01;  2.8206604E+02;3; -1.1407698E+01;  0.0000000E+00; -5.4858178E-01;0; -1.7205733E-01;  1.0007204E+04;  0.0000000E+00; -3.7391533E-06;  1.0000000E+04;  0.0000000E+00;  9.9996074E+03; -1.8087284E-01;  0.0000000E+00;  8.8155083E-03;  2.1031680E+02;
  2.1995860E-01;  9.9999998E-03; -1.4000134E-01;1378; -2.5537111E-02;  0.0000000E+00; -9.0529199E-04;  1.0003370E+03;  4.0000001E-01;  2.7920193E+02;3; -1.1432345E+01;  0.0000000E+00; -5.0755972E-01;0; -1.7015861E-01;  1.0007094E+04;  0.0000000E+00;  5.7757838E-08;  1.0000000E+04;  0.0000000E+00;  9.9996523E+03; -1.7859177E-01;  0.0000000E+00;  8.4331650E-03;  1.8974480E+02;
  2.1995905E-01;  9.9999998E-03; -1.2000108E-01;1379; -2.5315920E-02;  0.0000000E+00; -7.6304807E-04;  1.0003331E+03;  4.0000001E-01;  2.7594278E+02;3; -1.1415491E+01;  0.0000000E+00; -4.5090607E-01;0; -1.6807032E-01;  1.0006981E+04;  0.0000000E+00;  2.3342501E-08;  1.0000000E+04;  0.0000000E+00;  9.9996836E+03; -1.7629804E-01;  0.0000000E+00;  8.2277255E-03;  1.7277222E+02;
  2.1995951E-01;  9.9999998E-03; -1.0000084E-01;1380; -2.5065430E-02;  0.0000000E+00; -6.1954540E-04;  1.0003294E+03;  4.0000001E-01;  2.7288113E+02;3; -1.1374553E+01;  0.0000000E+00; -3.8268629E-01;0; -1.6610776E-01;  1.0006877E+04;  0.0000000E+00; -8.3705215E-10;  1.0000000E+04;  0.0000000E+00;  9.9997158E+03; -1.7412205E-01;  0.0000000E+00;  8.0142962E-03;  1.5698128E+02;
  2.1995996E-01;  9.9999998E-03; -8.0000624E-02;1381; -2.4820421E-02;  0.0000000E+00; -4.8307530E-04;  1.0003262E+03;  4.0000001E-01;  2.7031329E+02;3; -1.1323077E+01;  0.0000000E+00; -3.0909666E-01;0; -1.6442965E-01;  1.0006783E+04;  0.0000000E+00; -4.0651074E-09;  1.0000000E+04;  0.0000000E+00;  9.9997461E+03; -1.7217951E-01;  0.0000000E+00;  7.7498532E-03;  1.4218066E+02;
  2.1996033E-01;  9.9999998E-03; -6.0000442E-02;1382; -2.4606708E-02;  0.0000000E+00; -3.5452849E-04;  1.0003239E+03;  4.0000001E-01;  2.6833804E+02;3; -1.1272356E+01;  0.0000000E+00; -2.3374107E-01;0; -1.6310024E-01;  1.0006709E+04;  0.0000000E+00; -1.7777197E-09;  1.0000000E+04;  0.0000000E+00;  9.9997734E+03; -1.7056727E-01;  0.0000000E+00;  7.4670282E-03;  1.2922369E+02;
  2.1996062E-01;  9.9999998E-03; -4.0000279E-02;1383; -2.4442276E-02;  0.0000000E+00; -2.3260512E-04;  1.0003221E+03;  4.0000001E-01;  2.6685660E+02;3; -1.1230406E+01;  0.0000000E+00; -1.5670718E-01;0; -1.6214302E-01;  1.0006650E+04;  0.0000000E+00; -1.4163777E-09;  1.0000000E+04;  0.0000000E+00;  9.9997910E+03; -1.6936147E-01;  0.0000000E+00;  7.2184447E-03;  1.1913795E+02;
  2.1996079E-01;  9.9999998E-03; -2.0000136E-02;1384; -2.4339050E-02;  0.0000000E+00; -1.1528833E-04;  1.0003210E+03;  4.0000001E-01;  2.6596774E+02;3; -1.1202852E+01;  0.0000000E+00; -7.9206474E-02;0; -1.6156666E-01;  1.0006617E+04;  0.0000000E+00;  3.7525008E-10;  1.0000000E+04;  0.0000000E+00;  9.9998057E+03; -1.6861638E-01;  0.0000000E+00;  7.0497184E-03;  1.1274774E+02;
  2.3995063E-01;  9.9999998E-03; -1.8000269E-01;1407; -2.9646730E-02;  0.0000000E+00; -1.6555920E-03;  1.0003912E+03;  4.0000001E-01;  3.2413895E+02;3; -1.2730886E+01;  0.0000000E+00; -8.1223285E-01;0; -1.9225103E-01;  1.0008452E+04;  0.0000000E+00; -3.5708022E-04;  1.0000000E+04;  0.0000000E+00;  9.9993701E+03; -2.0584475E-01;  0.0000000E+00;  1.3593715E-02;  3.2523523E+02;
  2.3995088E-01;  9.9999998E-03; -1.6000229E-01;1408; -2.9583557E-02;  0.0000000E+00; -1.4872461E-03;  1.0003885E+03;  4.0000001E-01;  3.2186740E+02;3; -1.2813346E+01;  0.0000000E+00; -7.7694345E-01;0; -1.9069417E-01;  1.0008314E+04;  0.0000000E+00; -1.0479555E-06;  1.0000000E+04;  0.0000000E+00;  9.9994609E+03; -2.0302387E-01;  0.0000000E+00;  1.2329698E-02;  2.8420920E+02;
  2.3995134E-01;  9.9999998E-03; -1.4000189E-01;1409; -2.9383553E-02;  0.0000000E+00; -1.2952829E-03;  1.0003847E+03;  4.0000001E-01;  3.1870700E+02;3; -1.2838298E+01;  0.0000000E+00; -7.1421337E-01;0; -1.8869546E-01;  1.0008175E+04;  0.0000000E+00;  5.2784415E-08;  1.0000000E+04;  0.0000000E+00;  9.9995254E+03; -2.0028515E-01;  0.0000000E+00;  1.1589693E-02;  2.5231743E+02;
  2.3995191E-01;  9.9999998E-03; -1.2000152E-01;1410; -2.9108249E-02;  0.0000000E+00; -1.0920248E-03;  1.0003804E+03;  4.0000001E-01;  3.1515152E+02;3; -1.2820874E+01;  0.0000000E+00; -6.2784117E-01;0; -1.8648401E-01;  1.0008036E+04;  0.0000000E+00;  1.8711189E-08;  1.0000000E+04;  0.0000000E+00;  9.9995762E+03; -1.9764847E-01;  0.0000000E+00;  1.1164451E-02;  2.2694273E+02;
  2.3995249E-01;  9.9999998E-03; -1.0000118E-01;1411; -2.8805189E-02;  0.0000000E+00; -8.9204946E-04;  1.0003764E+03;  4.0000001E-01;  3.1189236E+02;3; -1.2776301E+01;  0.0000000E+00; -5.3359497E-01;0; -1.8439682E-01;  1.0007911E+04;  0.0000000E+00; -1.9409061E-09;  1.0000000E+04;  0.0000000E+00;  9.9996201E+03; -1.9520861E-01;  0.0000000E+00;  1.0811796E-02;  2.0460655E+02;
  2.3995304E-01;  9.9999998E-03; -8.0000885E-02;1412; -2.8513292E-02;  0.0000000E+00; -6.9870800E-04;  1.0003731E+03;  4.0000001E-01;  3.0912701E+02;3; -1.2720138E+01;  0.0000000E+00; -4.3480149E-01;0; -1.8261150E-01;  1.0007802E+04;  0.0000000E+00; -2.5204416E-09;  1.0000000E+04;  0.0000000E+00;  9.9996602E+03; -1.9306089E-01;  0.0000000E+00;  1.0449402E-02;  1.8452698E+02;
  2.3995350E-01;  9.9999998E-03; -6.0000628E-02;1413; -2.8260769E-02;  0.0000000E+00; -5.1390036E-04;  1.0003703E+03;  4.0000001E-01;  3.0675671E+02;3; -1.2664937E+01;  0.0000000E+00; -3.2894844E-01;0; -1.8120010E-01;  1.0007711E+04;  0.0000000E+00;  3.7349260E-10;  1.0000000E+04;  0.0000000E+00;  9.9996953E+03; -1.9129252E-01;  0.0000000E+00;  1.0092421E-02;  1.6737874E+02;
  2.3995386E-01;  9.9999998E-03; -4.0000401E-02;1414; -2.8067425E-02;  0.0000000E+00; -3.3744812E-04;  1.0003683E+03;  4.0000001E-01;  3.0517651E+02;3; -1.2619153E+01;  0.0000000E+00; -2.1990485E-01;0; -1.8018706E-01;  1.0007647E+04;  0.0000000E+00;  1.0230993E-09;  1.0000000E+04;  0.0000000E+00;  9.9997217E+03; -1.8997617E-01;  0.0000000E+00;  9.7891102E-03;  1.5421217E+02;
  2.3995407E-01;  9.9999998E-03; -2.0000195E-02;1415; -2.7946463E-02;  0.0000000E+00; -1.6714734E-04;  1.0003671E+03;  4.0000001E-01;  3.0418887E+02;3; -1.2589221E+01;  0.0000000E+00; -1.0981295E-01;0; -1.7957877E-01;  1.0007604E+04;  0.0000000E+00;  6.6177980E-10;  1.0000000E+04;  0.0000000E+00;  9.9997383E+03; -1.8916488E-01;  0.0000000E+00;  9.5861051E-03;  1.4592834E+02;
  2.5994194E-01;  9.9999998E-03; -1.8000372E-01;1438; -3.4071207E-02;  0.0000000E+00; -2.3286005E-03;  1.0004448E+03;  4.0000001E-01;  3.6848334E+02;3; -1.4235512E+01;  0.0000000E+00; -1.1423396E+00;0; -2.1196884E-01;  1.0009750E+04;  0.0000000E+00; -1.4808014E-04;  1.0000000E+04;  0.0000000E+00;  9.9991436E+03; -2.3067527E-01;  0.0000000E+00;  1.8706428E-02;  4.3796915E+02;
  2.5994235E-01;  9.9999998E-03; -1.6000313E-01;1439; -3.3948258E-02;  0.0000000E+00; -2.0630360E-03;  1.0004420E+03;  4.0000001E-01;  3.6621179E+02;3; -1.4323017E+01;  0.0000000E+00; -1.0634905E+00;0; -2.1053405E-01;  1.0009577E+04;  0.0000000E+00;  5.9253377E-08;  1.0000000E+04;  0.0000000E+00;  9.9992666E+03; -2.2737466E-01;  0.0000000E+00;  1.6840605E-02;  3.7903299E+02;
  2.5994298E-01;  9.9999998E-03; -1.4000258E-01;1440; -3.3686936E-02;  0.0000000E+00; -1.7936395E-03;  1.0004382E+03;  4.0000001E-01;  3.6305139E+02;3; -1.4351650E+01;  0.0000000E+00; -9.7159106E-01;0; -2.0858976E-01;  1.0009405E+04;  0.0000000E+00;  2.7546278E-08;  1.0000000E+04;  0.0000000E+00;  9.9993613E+03; -2.2423472E-01;  0.0000000E+00;  1.5644958E-02;  3.3254224E+02;
  2.5994369E-01;  9.9999998E-03; -1.2000208E-01;1441; -3.3351935E-02;  0.0000000E+00; -1.5118776E-03;  1.0004339E+03;  4.0000001E-01;  3.5949591E+02;3; -1.4335302E+01;  0.0000000E+00; -8.5566223E-01;0; -2.0638698E-01;  1.0009242E+04;  0.0000000E+00;  7.0058550E-09;  1.0000000E+04;  0.0000000E+00;  9.9994375E+03; -2.2128832E-01;  0.0000000E+00;  1.4901343E-02;  2.9571371E+02;
  2.5994441E-01;  9.9999998E-03; -1.0000162E-01;1442; -3.2992426E-02;  0.0000000E+00; -1.2360550E-03;  1.0004295E+03;  4.0000001E-01;  3.5584171E+02;3; -1.4290324E+01;  0.0000000E+00; -7.2559506E-01;0; -2.0427768E-01;  1.0009096E+04;  0.0000000E+00; -2.4090130E-09;  1.0000000E+04;  0.0000000E+00;  9.9995000E+03; -2.1860582E-01;  0.0000000E+00;  1.4328142E-02;  2.6427243E+02;
  2.5994509E-01;  9.9999998E-03; -8.0001213E-02;1443; -3.2649789E-02;  0.0000000E+00; -9.6949068E-04;  1.0004258E+03;  4.0000001E-01;  3.5278006E+02;3; -1.4231769E+01;  0.0000000E+00; -5.8737206E-01;0; -2.0246135E-01;  1.0008965E+04;  0.0000000E+00; -6.8671446E-10;  1.0000000E+04;  0.0000000E+00;  9.9995547E+03; -2.1626937E-01;  0.0000000E+00;  1.3808023E-02;  2.3690695E+02;
  2.5994566E-01;  9.9999998E-03; -6.0000863E-02;1444; -3.2355238E-02;  0.0000000E+00; -7.1509462E-04;  1.0004229E+03;  4.0000001E-01;  3.5040976E+02;3; -1.4173545E+01;  0.0000000E+00; -4.4386271E-01;0; -2.0102280E-01;  1.0008863E+04;  0.0000000E+00;  2.8974303E-09;  1.0000000E+04;  0.0000000E+00;  9.9996016E+03; -2.1435890E-01;  0.0000000E+00;  1.3336097E-02;  2.1407869E+02;
  2.5994608E-01;  9.9999998E-03; -4.0000550E-02;1445; -3.2130640E-02;  0.0000000E+00; -4.7123330E-04;  1.0004208E+03;  4.0000001E-01;  3.4863205E+02;3; -1.4124349E+01;  0.0000000E+00; -3.0051437E-01;0; -1.9999096E-01;  1.0008783E+04;  0.0000000E+00;  2.5214502E-09;  1.0000000E+04;  0.0000000E+00;  9.9996348E+03; -2.1294317E-01;  0.0000000E+00;  1.2952210E-02;  1.9680730E+02;
  2.5994635E-01;  9.9999998E-03; -2.0000268E-02;1446; -3.1990539E-02;  0.0000000E+00; -2.3382534E-04;  1.0004195E+03;  4.0000001E-01;  3.4754565E+02;3; -1.4092498E+01;  0.0000000E+00; -1.5115750E-01;0; -1.9937260E-01;  1.0008736E+04;  0.0000000E+00;  1.2098553E-09;  1.0000000E+04;  0.0000000E+00;  9.9996582E+03; -2.1207331E-01;  0.0000000E+00;  1.2700701E-02;  1.8603043E+02;
  2.7993190E-01;  9.9999998E-03; -1.8000501E-01;1469; -3.9019499E-02;  0.0000000E+00; -3.1711098E-03;  1.0005043E+03;  4.0000001E-01;  4.1776587E+02;3; -1.5847709E+01;  0.0000000E+00; -1.5396692E+00;0; -2.3300612E-01;  1.0011221E+04;  0.0000000E+00; -1.9361589E-05;  1.0000000E+04;  0.0000000E+00;  9.9988701E+03; -2.5759658E-01;  0.0000000E+00;  2.4590461E-02;  5.7155554E+02;
  2.7993253E-01;  9.9999998E-03; -1.6000418E-01;1470; -3.8826693E-02;  0.0000000E+00; -2.7781089E-03;  1.0005021E+03;  4.0000001E-01;  4.1598813E+02;3; -1.5940818E+01;  0.0000000E+00; -1.4165287E+00;0; -2.3180161E-01;  1.0011010E+04;  0.0000000E+00;  2.4181441E-08;  1.0000000E+04;  0.0000000E+00;  9.9990342E+03; -2.5396827E-01;  0.0000000E+00;  2.2166660E-02;  4.9337051E+02;
  2.7993333E-01;  9.9999998E-03; -1.4000343E-01;1471; -3.8497809E-02;  0.0000000E+00; -2.3976481E-03;  1.0004984E+03;  4.0000001E-01;  4.1282773E+02;3; -1.5978261E+01;  0.0000000E+00; -1.2753949E+00;0; -2.3002993E-01;  1.0010805E+04;  0.0000000E+00; -5.3840510E-09;  1.0000000E+04;  0.0000000E+00;  9.9991641E+03; -2.5052783E-01;  0.0000000E+00;  2.0497905E-02;  4.3000522E+02;
  2.7993423E-01;  9.9999998E-03; -1.2000275E-01;1472; -3.8095966E-02;  0.0000000E+00; -2.0220960E-03;  1.0004937E+03;  4.0000001E-01;  4.0907477E+02;3; -1.5965441E+01;  0.0000000E+00; -1.1274438E+00;0; -2.2794510E-01;  1.0010610E+04;  0.0000000E+00; -5.7013496E-09;  1.0000000E+04;  0.0000000E+00;  9.9992656E+03; -2.4732935E-01;  0.0000000E+00;  1.9384248E-02;  3.7911475E+02;
  2.7993515E-01;  9.9999998E-03; -1.0000213E-01;1473; -3.7675496E-02;  0.0000000E+00; -1.6513779E-03;  1.0004893E+03;  4.0000001E-01;  4.0542053E+02;3; -1.5923592E+01;  0.0000000E+00; -9.5602500E-01;0; -2.2590783E-01;  1.0010434E+04;  0.0000000E+00; -7.2163546E-11;  1.0000000E+04;  0.0000000E+00;  9.9993555E+03; -2.4444047E-01;  0.0000000E+00;  1.8532632E-02;  3.3611246E+02;
  2.7993596E-01;  9.9999998E-03; -8.0001608E-02;1474; -3.7278980E-02;  0.0000000E+00; -1.2973335E-03;  1.0004851E+03;  4.0000001E-01;  4.0186508E+02;3; -1.5865995E+01;  0.0000000E+00; -7.7580112E-01;0; -2.2413570E-01;  1.0010285E+04;  0.0000000E+00;  4.8012243E-09;  1.0000000E+04;  0.0000000E+00;  9.9994268E+03; -2.4194095E-01;  0.0000000E+00;  1.7805241E-02;  2.9940817E+02;
  2.7993664E-01;  9.9999998E-03; -6.0001142E-02;1475; -3.6940206E-02;  0.0000000E+00; -9.5805846E-04;  1.0004823E+03;  4.0000001E-01;  3.9959354E+02;3; -1.5807089E+01;  0.0000000E+00; -5.8746982E-01;0; -2.2272748E-01;  1.0010161E+04;  0.0000000E+00;  9.3900310E-09;  1.0000000E+04;  0.0000000E+00;  9.9994893E+03; -2.3990895E-01;  0.0000000E+00;  1.7181471E-02;  2.6932770E+02;
  2.7993715E-01;  9.9999998E-03; -4.0000729E-02;1476; -3.6682788E-02;  0.0000000E+00; -6.3129258E-04;  1.0004800E+03;  4.0000001E-01;  3.9771707E+02;3; -1.5757633E+01;  0.0000000E+00; -3.9371753E-01;0; -2.2171743E-01;  1.0010070E+04;  0.0000000E+00;  7.2302915E-09;  1.0000000E+04;  0.0000000E+00;  9.9995352E+03; -2.3840970E-01;  0.0000000E+00;  1.6692266E-02;  2.4685480E+02;
  2.7993745E-01;  9.9999998E-03; -2.0000355E-02;1477; -3.6522523E-02;  0.0000000E+00; -3.1366400E-04;  1.0004788E+03;  4.0000001E-01;  3.9663068E+02;3; -1.5725111E+01;  0.0000000E+00; -1.9700266E-01;0; -2.2111292E-01;  1.0010016E+04;  0.0000000E+00;  3.8443519E-09;  1.0000000E+04;  0.0000000E+00;  9.9995635E+03; -2.3749116E-01;  0.0000000E+00;  1.6378235E-02;  2.3294057E+02;
  2.9992038E-01;  9.9999998E-03; -1.8000655E-01;1500; -4.4543099E-02;  0.0000000E+00; -4.1530994E-03;  1.0005714E+03;  4.0000001E-01;  4.7336914E+02;3; -1.7569525E+01;  0.0000000E+00; -1.9850950E+00;0; -2.5575170E-01;  1.0012871E+04;  0.0000000E+00;  8.0029241E-07;  1.0000000E+04;  0.0000000E+00;  9.9985605E+03; -2.8663579E-01;  0.0000000E+00;  3.0884085E-02;  7.2178357E+02;
  2.9992121E-01;  9.9999998E-03; -1.6000541E-01;1501; -4.4269789E-02;  0.0000000E+00; -3.6086785E-03;  1.0005692E+03;  4.0000001E-01;  4.7149265E+02;3; -1.7671795E+01;  0.0000000E+00; -1.8121375E+00;0; -2.5481293E-01;  1.0012628E+04;  0.0000000E+00; -2.9005626E-08;  1.0000000E+04;  0.0000000E+00;  9.9987666E+03; -2.8286558E-01;  0.0000000E+00;  2.8052660E-02;  6.2458075E+02;
  2.9992229E-01;  9.9999998E-03; -1.4000441E-01;1502; -4.3864410E-02;  0.0000000E+00; -3.0983228E-03;  1.0005657E+03;  4.0000001E-01;  4.6872729E+02;3; -1.7720003E+01;  0.0000000E+00; -1.6257974E+00;0; -2.5327200E-01;  1.0012386E+04;  0.0000000E+00; -2.9777379E-08;  1.0000000E+04;  0.0000000E+00;  9.9989316E+03; -2.7925062E-01;  0.0000000E+00;  2.5978636E-02;  5.4320392E+02;
  2.9992339E-01;  9.9999998E-03; -1.2000351E-01;1503; -4.3390170E-02;  0.0000000E+00; -2.6100182E-03;  1.0005612E+03;  4.0000001E-01;  4.6487558E+02;3; -1.7717194E+01;  0.0000000E+00; -1.4310607E+00;0; -2.5137454E-01;  1.0012159E+04;  0.0000000E+00; -1.3208143E-08;  1.0000000E+04;  0.0000000E+00;  9.9990703E+03; -2.7587605E-01;  0.0000000E+00;  2.4501516E-02;  4.7633026E+02;
  2.9992449E-01;  9.9999998E-03; -1.0000273E-01;1504; -4.2904261E-02;  0.0000000E+00; -2.1330195E-03;  1.0005568E+03;  4.0000001E-01;  4.6132010E+02;3; -1.7680347E+01;  0.0000000E+00; -1.2248065E+00;0; -2.4948141E-01;  1.0011953E+04;  0.0000000E+00;  9.3218713E-09;  1.0000000E+04;  0.0000000E+00;  9.9991855E+03; -2.7282956E-01;  0.0000000E+00;  2.3348151E-02;  4.1966336E+02;
  2.9992548E-01;  9.9999998E-03; -8.0002047E-02;1505; -4.2451270E-02;  0.0000000E+00; -1.6760573E-03;  1.0005528E+03;  4.0000001E-01;  4.5796219E+02;3; -1.7627539E+01;  0.0000000E+00; -9.9441963E-01;0; -2.4782020E-01;  1.0011777E+04;  0.0000000E+00;  2.2141423E-08;  1.0000000E+04;  0.0000000E+00;  9.9992832E+03; -2.7020225E-01;  0.0000000E+00;  2.2382051E-02;  3.7171628E+02;
  2.9992628E-01;  9.9999998E-03; -6.0001455E-02;1506; -4.2066514E-02;  0.0000000E+00; -1.2389640E-03;  1.0005494E+03;  4.0000001E-01;  4.5519684E+02;3; -1.7571316E+01;  0.0000000E+00; -7.5609785E-01;0; -2.4649709E-01;  1.0011632E+04;  0.0000000E+00;  2.4040929E-08;  1.0000000E+04;  0.0000000E+00;  9.9993633E+03; -2.6807469E-01;  0.0000000E+00;  2.1577600E-02;  3.3285706E+02;
  2.9992691E-01;  9.9999998E-03; -4.0000930E-02;1507; -4.1775443E-02;  0.0000000E+00; -8.1707281E-04;  1.0005471E+03;  4.0000001E-01;  4.5332034E+02;3; -1.7523420E+01;  0.0000000E+00; -5.0916225E-01;0; -2.4554977E-01;  1.0011526E+04;  0.0000000E+00;  1.3376033E-08;  1.0000000E+04;  0.0000000E+00;  9.9994189E+03; -2.6651099E-01;  0.0000000E+00;  2.0961227E-02;  3.0409238E+02;
  2.9992726E-01;  9.9999998E-03; -2.0000454E-02;1508; -4.1594539E-02;  0.0000000E+00; -4.0600877E-04;  1.0005459E+03;  4.0000001E-01;  4.5223395E+02;3; -1.7491688E+01;  0.0000000E+00; -2.5588888E-01;0; -2.4498416E-01;  1.0011466E+04;  0.0000000E+00;  4.4146597E-09;  1.0000000E+04;  0.0000000E+00;  9.9994551E+03; -2.6555544E-01;  0.0000000E+00;  2.0571278E-02;  2.8639328E+02;
  3.1990713E-01;  9.9999998E-03; -1.8000828E-01;1531; -5.0685216E-02;  0.0000000E+00; -5.2212644E-03;  1.0006472E+03;  4.0000001E-01;  5.3618219E+02;3; -1.9393745E+01;  0.0000000E+00; -2.4609027E+00;0; -2.8058428E-01;  1.0014722E+04;  0.0000000E+00;  5.5912346E-07;  1.0000000E+04;  0.0000000E+00;  9.9982334E+03; -3.1788862E-01;  0.0000000E+00;  3.7304334E-02;  8.8542200E+02;
  3.1990826E-01;  9.9999998E-03; -1.6000679E-01;1532; -5.0326645E-02;  0.0000000E+00; -4.5242761E-03;  1.0006453E+03;  4.0000001E-01;  5.3460199E+02;3; -1.9515638E+01;  0.0000000E+00; -2.2355170E+00;0; -2.7989918E-01;  1.0014446E+04;  0.0000000E+00; -6.6342892E-08;  1.0000000E+04;  0.0000000E+00;  9.9984688E+03; -3.1416294E-01;  0.0000000E+00;  3.4263764E-02;  7.7006366E+02;
  3.1990960E-01;  9.9999998E-03; -1.4000551E-01;1533; -4.9837884E-02;  0.0000000E+00; -3.8750605E-03;  1.0006418E+03;  4.0000001E-01;  5.3173785E+02;3; -1.9580013E+01;  0.0000000E+00; -2.0045271E+00;0; -2.7858818E-01;  1.0014168E+04;  0.0000000E+00; -4.1066830E-08;  1.0000000E+04;  0.0000000E+00;  9.9986748E+03; -3.1049606E-01;  0.0000000E+00;  3.1907871E-02;  6.7029620E+02;
  3.1991097E-01;  9.9999998E-03; -1.2000438E-01;1534; -4.9286664E-02;  0.0000000E+00; -3.2599822E-03;  1.0006371E+03;  4.0000001E-01;  5.2788611E+02;3; -1.9591572E+01;  0.0000000E+00; -1.7636405E+00;0; -2.7690443E-01;  1.0013903E+04;  0.0000000E+00; -1.1902604E-09;  1.0000000E+04;  0.0000000E+00;  9.9988486E+03; -3.0702472E-01;  0.0000000E+00;  3.0120296E-02;  5.8615289E+02;
  3.1991228E-01;  9.9999998E-03; -1.0000339E-01;1535; -4.8731878E-02;  0.0000000E+00; -2.6689880E-03;  1.0006325E+03;  4.0000001E-01;  5.2403436E+02;3; -1.9566063E+01;  0.0000000E+00; -1.5137912E+00;0; -2.7520198E-01;  1.0013663E+04;  0.0000000E+00;  3.6814274E-08;  1.0000000E+04;  0.0000000E+00;  9.9989932E+03; -3.0387491E-01;  0.0000000E+00;  2.8672935E-02;  5.1416931E+02;
  3.1991348E-01;  9.9999998E-03; -8.0002539E-02;1536; -4.8221327E-02;  0.0000000E+00; -2.0999881E-03;  1.0006285E+03;  4.0000001E-01;  5.2077521E+02;3; -1.9523739E+01;  0.0000000E+00; -1.2354679E+00;0; -2.7370495E-01;  1.0013457E+04;  0.0000000E+00;  4.9391822E-08;  1.0000000E+04;  0.0000000E+00;  9.9991172E+03; -3.0115873E-01;  0.0000000E+00;  2.7453788E-02;  4.5336487E+02;
  3.1991443E-01;  9.9999998E-03; -6.0001802E-02;1537; -4.7790319E-02;  0.0000000E+00; -1.5543652E-03;  1.0006251E+03;  4.0000001E-01;  5.1791107E+02;3; -1.9475576E+01;  0.0000000E+00; -9.4358575E-01;0; -2.7251750E-01;  1.0013292E+04;  0.0000000E+00;  4.4830323E-08;  1.0000000E+04;  0.0000000E+00;  9.9992168E+03; -2.9896480E-01;  0.0000000E+00;  2.6447309E-02;  4.0437610E+02;
  3.1991515E-01;  9.9999998E-03; -4.0001154E-02;1538; -4.7465414E-02;  0.0000000E+00; -1.0260475E-03;  1.0006227E+03;  4.0000001E-01;  5.1583710E+02;3; -1.9433256E+01;  0.0000000E+00; -6.3747168E-01;0; -2.7167249E-01;  1.0013173E+04;  0.0000000E+00;  2.4999482E-08;  1.0000000E+04;  0.0000000E+00;  9.9992891E+03; -2.9735661E-01;  0.0000000E+00;  2.5684126E-02;  3.6833185E+02;
  3.1991559E-01;  9.9999998E-03; -2.0000562E-02;1539; -4.7263939E-02;  0.0000000E+00; -5.1008351E-04;  1.0006215E+03;  4.0000001E-01;  5.1484943E+02;3; -1.9404772E+01;  0.0000000E+00; -3.2083347E-01;0; -2.7117127E-01;  1.0013101E+04;  0.0000000E+00;  7.8147533E-09;  1.0000000E+04;  0.0000000E+00;  9.9993340E+03; -2.9637635E-01;  0.0000000E+00;  2.5205089E-02;  3.4625488E+02;
  3.3989194E-01;  9.9999998E-03; -1.8001014E-01;1562; -5.7492331E-02;  0.0000000E+00; -6.3415566E-03;  1.0007334E+03;  4.0000001E-01;  6.0758746E+02;3; -2.1319441E+01;  0.0000000E+00; -2.9210470E+00;0; -3.0782580E-01;  1.0016800E+04;  0.0000000E+00;  3.5658866E-07;  1.0000000E+04;  0.0000000E+00;  9.9978750E+03; -3.5153934E-01;  0.0000000E+00;  4.3713529E-02;  1.0610249E+03;
  3.3989340E-01;  9.9999998E-03; -1.6000830E-01;1563; -5.7045866E-02;  0.0000000E+00; -5.4954295E-03;  1.0007315E+03;  4.0000001E-01;  6.0600726E+02;3; -2.1467791E+01;  0.0000000E+00; -2.6561539E+00;0; -3.0733347E-01;  1.0016487E+04;  0.0000000E+00; -8.8491646E-08;  1.0000000E+04;  0.0000000E+00;  9.9981504E+03; -3.4798861E-01;  0.0000000E+00;  4.0655140E-02;  9.2815192E+02;
  3.3989507E-01;  9.9999998E-03; -1.4000671E-01;1564; -5.6470551E-02;  0.0000000E+00; -4.7082342E-03;  1.0007277E+03;  4.0000001E-01;  6.0284686E+02;3; -2.1555923E+01;  0.0000000E+00; -2.3922660E+00;0; -3.0621088E-01;  1.0016169E+04;  0.0000000E+00; -3.1125403E-08;  1.0000000E+04;  0.0000000E+00;  9.9983926E+03; -3.4436193E-01;  0.0000000E+00;  3.8151059E-02;  8.0979510E+02;
  3.3989674E-01;  9.9999998E-03; -1.2000531E-01;1565; -5.5840377E-02;  0.0000000E+00; -3.9618784E-03;  1.0007231E+03;  4.0000001E-01;  5.9909387E+02;3; -2.1589466E+01;  0.0000000E+00; -2.1130967E+00;0; -3.0473536E-01;  1.0015863E+04;  0.0000000E+00;  3.0217617E-08;  1.0000000E+04;  0.0000000E+00;  9.9986016E+03; -3.4086025E-01;  0.0000000E+00;  3.6124870E-02;  7.0752039E+02;
  3.3989835E-01;  9.9999998E-03; -1.0000411E-01;1566; -5.5216953E-02;  0.0000000E+00; -3.2458056E-03;  1.0007180E+03;  4.0000001E-01;  5.9484711E+02;3; -2.1586357E+01;  0.0000000E+00; -1.8136543E+00;0; -3.0324969E-01;  1.0015585E+04;  0.0000000E+00;  8.2904272E-08;  1.0000000E+04;  0.0000000E+00;  9.9987822E+03; -3.3765647E-01;  0.0000000E+00;  3.4406781E-02;  6.1902759E+02;
  3.3989975E-01;  9.9999998E-03; -8.0003068E-02;1567; -5.4648239E-02;  0.0000000E+00; -2.5578414E-03;  1.0007139E+03;  4.0000001E-01;  5.9148920E+02;3; -2.1559401E+01;  0.0000000E+00; -1.4943975E+00;0; -3.0195922E-01;  1.0015347E+04;  0.0000000E+00;  9.2773575E-08;  1.0000000E+04;  0.0000000E+00;  9.9989355E+03; -3.3488753E-01;  0.0000000E+00;  3.2928333E-02;  5.4415063E+02;
  3.3990088E-01;  9.9999998E-03; -6.0002174E-02;1568; -5.4171722E-02;  0.0000000E+00; -1.8942223E-03;  1.0007103E+03;  4.0000001E-01;  5.8852631E+02;3; -2.1526386E+01;  0.0000000E+00; -1.1446857E+00;0; -3.0095187E-01;  1.0015153E+04;  0.0000000E+00;  7.2149298E-08;  1.0000000E+04;  0.0000000E+00;  9.9990547E+03; -3.3265269E-01;  0.0000000E+00;  3.1700812E-02;  4.8399283E+02;
  3.3990175E-01;  9.9999998E-03; -4.0001389E-02;1569; -5.3813640E-02;  0.0000000E+00; -1.2510684E-03;  1.0007077E+03;  4.0000001E-01;  5.8635352E+02;3; -2.1494825E+01;  0.0000000E+00; -7.7638340E-01;0; -3.0024636E-01;  1.0015013E+04;  0.0000000E+00;  3.8251152E-08;  1.0000000E+04;  0.0000000E+00;  9.9991445E+03; -3.3101711E-01;  0.0000000E+00;  3.0770734E-02;  4.3990384E+02;
  3.3990225E-01;  9.9999998E-03; -2.0000676E-02;1570; -5.3591974E-02;  0.0000000E+00; -6.2184816E-04;  1.0007064E+03;  4.0000001E-01;  5.8516840E+02;3; -2.1473106E+01;  0.0000000E+00; -3.9216423E-01;0; -2.9983273E-01;  1.0014928E+04;  0.0000000E+00;  1.2408817E-08;  1.0000000E+04;  0.0000000E+00;  9.9992021E+03; -3.3002111E-01;  0.0000000E+00;  3.0188395E-02;  4.1298999E+02;
  3.5987458E-01;  9.9999998E-03; -1.8001212E-01;1593; -6.5010920E-02;  0.0000000E+00; -7.4914489E-03;  1.0008311E+03;  4.0000001E-01;  6.8857275E+02;3; -2.3337782E+01;  0.0000000E+00; -3.3410199E+00;0; -3.3767200E-01;  1.0019137E+04;  0.0000000E+00;  1.9348865E-07;  1.0000000E+04;  0.0000000E+00;  9.9974961E+03; -3.8779840E-01;  0.0000000E+00;  5.0126418E-02;  1.2488835E+03;
  3.5987642E-01;  9.9999998E-03; -1.6000991E-01;1594; -6.4478286E-02;  0.0000000E+00; -6.5113446E-03;  1.0008287E+03;  4.0000001E-01;  6.8649872E+02;3; -2.3519026E+01;  0.0000000E+00; -3.0731225E+00;0; -3.3728704E-01;  1.0018777E+04;  0.0000000E+00; -8.8564050E-08;  1.0000000E+04;  0.0000000E+00;  9.9978076E+03; -3.8447547E-01;  0.0000000E+00;  4.7188424E-02;  1.0982444E+03;
  3.5987848E-01;  9.9999998E-03; -1.4000797E-01;1595; -6.3818417E-02;  0.0000000E+00; -5.5838386E-03;  1.0008245E+03;  4.0000001E-01;  6.8314081E+02;3; -2.3645071E+01;  0.0000000E+00; -2.7819445E+00;0; -3.3629408E-01;  1.0018407E+04;  0.0000000E+00; -6.6662493E-09;  1.0000000E+04;  0.0000000E+00;  9.9980869E+03; -3.8093704E-01;  0.0000000E+00;  4.4642955E-02;  9.6092493E+02;
  3.5988051E-01;  9.9999998E-03; -1.2000630E-01;1596; -6.3110150E-02;  0.0000000E+00; -4.6987291E-03;  1.0008190E+03;  4.0000001E-01;  6.7859772E+02;3; -2.3712034E+01;  0.0000000E+00; -2.4750392E+00;0; -3.3500549E-01;  1.0018054E+04;  0.0000000E+00;  5.8143751E-08;  1.0000000E+04;  0.0000000E+00;  9.9983350E+03; -3.7744620E-01;  0.0000000E+00;  4.2440720E-02;  8.3998688E+02;
  3.5988241E-01;  9.9999998E-03; -1.0000486E-01;1597; -6.2418643E-02;  0.0000000E+00; -3.8494025E-03;  1.0008137E+03;  4.0000001E-01;  6.7405463E+02;3; -2.3739578E+01;  0.0000000E+00; -2.1273382E+00;0; -3.3374816E-01;  1.0017732E+04;  0.0000000E+00;  1.2045332E-07;  1.0000000E+04;  0.0000000E+00;  9.9985479E+03; -3.7422043E-01;  0.0000000E+00;  4.0472258E-02;  7.3432880E+02;
  3.5988405E-01;  9.9999998E-03; -8.0003627E-02;1598; -6.1793879E-02;  0.0000000E+00; -3.0353211E-03;  1.0008091E+03;  4.0000001E-01;  6.7040045E+02;3; -2.3739136E+01;  0.0000000E+00; -1.7637812E+00;0; -3.3269647E-01;  1.0017457E+04;  0.0000000E+00;  1.3288295E-07;  1.0000000E+04;  0.0000000E+00;  9.9987324E+03; -3.7142208E-01;  0.0000000E+00;  3.8725618E-02;  6.4472144E+02;
  3.5988542E-01;  9.9999998E-03; -6.0002562E-02;1599; -6.1273538E-02;  0.0000000E+00; -2.2476530E-03;  1.0008054E+03;  4.0000001E-01;  6.6724005E+02;3; -2.3729864E+01;  0.0000000E+00; -1.3554924E+00;0; -3.3190644E-01;  1.0017235E+04;  0.0000000E+00;  1.0222007E-07;  1.0000000E+04;  0.0000000E+00;  9.9988779E+03; -3.6916122E-01;  0.0000000E+00;  3.7254769E-02;  5.7284460E+02;
  3.5988641E-01;  9.9999998E-03; -4.0001631E-02;1600; -6.0883556E-02;  0.0000000E+00; -1.4844950E-03;  1.0008027E+03;  4.0000001E-01;  6.6506726E+02;3; -2.3716127E+01;  0.0000000E+00; -9.2150038E-01;0; -3.3137146E-01;  1.0017074E+04;  0.0000000E+00;  4.9471513E-08;  1.0000000E+04;  0.0000000E+00;  9.9989883E+03; -3.6750621E-01;  0.0000000E+00;  3.6134746E-02;  5.2032227E+02;
  3.5988700E-01;  9.9999998E-03; -2.0000793E-02;1601; -6.0642458E-02;  0.0000000E+00; -7.3779270E-04;  1.0008011E+03;  4.0000001E-01;  6.6368457E+02;3; -2.3705507E+01;  0.0000000E+00; -4.6609429E-01;0; -3.3106640E-01;  1.0016977E+04;  0.0000000E+00;  1.5823504E-08;  1.0000000E+04;  0.0000000E+00;  9.9990518E+03; -3.6649922E-01;  0.0000000E+00;  3.5432804E-02;  4.8834836E+02;
  3.7985480E-01;  9.9999998E-03; -1.8001422E-01;1624; -7.3290698E-02;  0.0000000E+00; -8.6682392E-03;  1.0009417E+03;  4.0000001E-01;  7.8012549E+02;3; -2.5443199E+01;  0.0000000E+00; -3.7388654E+00;0; -3.7019423E-01;  1.0021747E+04;  0.0000000E+00;  1.7457239E-08;  1.0000000E+04;  0.0000000E+00;  9.9970977E+03; -4.2684346E-01;  0.0000000E+00;  5.6649230E-02;  1.4499540E+03;
  3.7985709E-01;  9.9999998E-03; -1.6001160E-01;1625; -7.2677337E-02;  0.0000000E+00; -7.5522712E-03;  1.0009383E+03;  4.0000001E-01;  7.7736017E+02;3; -2.5668987E+01;  0.0000000E+00; -3.4700968E+00;0; -3.6982819E-01;  1.0021334E+04;  0.0000000E+00; -7.8095290E-08;  1.0000000E+04;  0.0000000E+00;  9.9974443E+03; -4.2373079E-01;  0.0000000E+00;  5.3902593E-02;  1.2803812E+03;
  3.7985957E-01;  9.9999998E-03; -1.4000933E-01;1626; -7.1937248E-02;  0.0000000E+00; -6.4814161E-03;  1.0009330E+03;  4.0000001E-01;  7.7301459E+02;3; -2.5843451E+01;  0.0000000E+00; -3.1634736E+00;0; -3.6890250E-01;  1.0020908E+04;  0.0000000E+00; -1.0787335E-08;  1.0000000E+04;  0.0000000E+00;  9.9977627E+03; -4.2028221E-01;  0.0000000E+00;  5.1379710E-02;  1.1236981E+03;
  3.7986201E-01;  9.9999998E-03; -1.2000734E-01;1627; -7.1154565E-02;  0.0000000E+00; -5.4526534E-03;  1.0009266E+03;  4.0000001E-01;  7.6768140E+02;3; -2.5960209E+01;  0.0000000E+00; -2.8389542E+00;0; -3.6777046E-01;  1.0020498E+04;  0.0000000E+00;  3.7844476E-08;  1.0000000E+04;  0.0000000E+00;  9.9980469E+03; -4.1681120E-01;  0.0000000E+00;  4.9040738E-02;  9.8415112E+02;
  3.7986425E-01;  9.9999998E-03; -1.0000565E-01;1628; -7.0397928E-02;  0.0000000E+00; -4.4615506E-03;  1.0009206E+03;  4.0000001E-01;  7.6264453E+02;3; -2.6032253E+01;  0.0000000E+00; -2.4544315E+00;0; -3.6674103E-01;  1.0020124E+04;  0.0000000E+00;  1.0740103E-07;  1.0000000E+04;  0.0000000E+00;  9.9982959E+03; -4.1357106E-01;  0.0000000E+00;  4.6830021E-02;  8.6151147E+02;
  3.7986621E-01;  9.9999998E-03; -8.0004208E-02;1629; -6.9718838E-02;  0.0000000E+00; -3.5134067E-03;  1.0009153E+03;  4.0000001E-01;  7.5829895E+02;3; -2.6069590E+01;  0.0000000E+00; -2.0273731E+00;0; -3.6594573E-01;  1.0019806E+04;  0.0000000E+00;  1.4322804E-07;  1.0000000E+04;  0.0000000E+00;  9.9985088E+03; -4.1074479E-01;  0.0000000E+00;  4.4799067E-02;  7.5736609E+02;
  3.7986779E-01;  9.9999998E-03; -6.0002971E-02;1630; -6.9156796E-02;  0.0000000E+00; -2.6022908E-03;  1.0009109E+03;  4.0000001E-01;  7.5474353E+02;3; -2.6091337E+01;  0.0000000E+00; -1.5621482E+00;0; -3.6539721E-01;  1.0019553E+04;  0.0000000E+00;  1.0486322E-07;  1.0000000E+04;  0.0000000E+00;  9.9986748E+03; -4.0845487E-01;  0.0000000E+00;  4.3057658E-02;  6.7396106E+02;
  3.7986895E-01;  9.9999998E-03; -4.0001892E-02;1631; -6.8737023E-02;  0.0000000E+00; -1.7189921E-03;  1.0009080E+03;  4.0000001E-01;  7.5227448E+02;3; -2.6104589E+01;  0.0000000E+00; -1.0660422E+00;0; -3.6505455E-01;  1.0019365E+04;  0.0000000E+00;  5.6840793E-08;  1.0000000E+04;  0.0000000E+00;  9.9988018E+03; -4.0677565E-01;  0.0000000E+00;  4.1721120E-02;  6.1318286E+02;
  3.7986967E-01;  9.9999998E-03; -2.0000920E-02;1632; -6.8477355E-02;  0.0000000E+00; -8.5411884E-04;  1.0009061E+03;  4.0000001E-01;  7.5069427E+02;3; -2.6109949E+01;  0.0000000E+00; -5.4017884E-01;0; -3.6487120E-01;  1.0019250E+04;  0.0000000E+00;  1.6701655E-08;  1.0000000E+04;  0.0000000E+00;  9.9988760E+03; -4.0575245E-01;  0.0000000E+00;  4.0881261E-02;  5.7627740E+02;
  3.9983231E-01;  9.9999998E-03; -1.8001647E-01;1655; -8.2382992E-02;  0.0000000E+00; -9.8662823E-03;  1.0010663E+03;  4.0000001E-01;  8.8343091E+02;3; -2.7625731E+01;  0.0000000E+00; -4.0979624E+00;0; -4.0538174E-01;  1.0024668E+04;  0.0000000E+00; -1.7261635E-07;  1.0000000E+04;  0.0000000E+00;  9.9966719E+03; -4.6877766E-01;  0.0000000E+00;  6.3395925E-02;  1.6646052E+03;
  3.9983511E-01;  9.9999998E-03; -1.6001344E-01;1656; -8.1695169E-02;  0.0000000E+00; -8.6061107E-03;  1.0010613E+03;  4.0000001E-01;  8.7928290E+02;3; -2.7909363E+01;  0.0000000E+00; -3.8328950E+00;0; -4.0494278E-01;  1.0024183E+04;  0.0000000E+00; -7.7828410E-08;  1.0000000E+04;  0.0000000E+00;  9.9970576E+03; -4.6580487E-01;  0.0000000E+00;  6.0862090E-02;  1.4747511E+03;
  3.9983809E-01;  9.9999998E-03; -1.4001077E-01;1657; -8.0879867E-02;  0.0000000E+00; -7.3826066E-03;  1.0010544E+03;  4.0000001E-01;  8.7355469E+02;3; -2.8148275E+01;  0.0000000E+00; -3.5285318E+00;0; -4.0401477E-01;  1.0023689E+04;  0.0000000E+00; -1.0287629E-07;  1.0000000E+04;  0.0000000E+00;  9.9974131E+03; -4.6240932E-01;  0.0000000E+00;  5.8394566E-02;  1.2990331E+03;
  3.9984098E-01;  9.9999998E-03; -1.2000847E-01;1658; -8.0026992E-02;  0.0000000E+00; -6.2016845E-03;  1.0010466E+03;  4.0000001E-01;  8.6703638E+02;3; -2.8326168E+01;  0.0000000E+00; -3.1690185E+00;0; -4.0299165E-01;  1.0023212E+04;  0.0000000E+00; -1.3307702E-07;  1.0000000E+04;  0.0000000E+00;  9.9977314E+03; -4.5893425E-01;  0.0000000E+00;  5.5942591E-02;  1.1422048E+03;
  3.9984366E-01;  9.9999998E-03; -1.0000651E-01;1659; -7.9209246E-02;  0.0000000E+00; -5.0682849E-03;  1.0010389E+03;  4.0000001E-01;  8.6071558E+02;3; -2.8459234E+01;  0.0000000E+00; -2.7534063E+00;0; -4.0216553E-01;  1.0022779E+04;  0.0000000E+00; -3.2959168E-08;  1.0000000E+04;  0.0000000E+00;  9.9980107E+03; -4.5565802E-01;  0.0000000E+00;  5.3492501E-02;  1.0041884E+03;
  3.9984596E-01;  9.9999998E-03; -8.0004849E-02;1660; -7.8480050E-02;  0.0000000E+00; -3.9851293E-03;  1.0010326E+03;  4.0000001E-01;  8.5548114E+02;3; -2.8554333E+01;  0.0000000E+00; -2.2820539E+00;0; -4.0162048E-01;  1.0022412E+04;  0.0000000E+00;  4.9351584E-08;  1.0000000E+04;  0.0000000E+00;  9.9982490E+03; -4.5278090E-01;  0.0000000E+00;  5.1160429E-02;  8.8700684E+02;
  3.9984781E-01;  9.9999998E-03; -6.0003426E-02;1661; -7.7877142E-02;  0.0000000E+00; -2.9474529E-03;  1.0010274E+03;  4.0000001E-01;  8.5113556E+02;3; -2.8616066E+01;  0.0000000E+00; -1.7596165E+00;0; -4.0131569E-01;  1.0022116E+04;  0.0000000E+00;  5.2050336E-08;  1.0000000E+04;  0.0000000E+00;  9.9984414E+03; -4.5043701E-01;  0.0000000E+00;  4.9121309E-02;  7.9332642E+02;
  3.9984918E-01;  9.9999998E-03; -4.0002182E-02;1662; -7.7428840E-02;  0.0000000E+00; -1.9454336E-03;  1.0010236E+03;  4.0000001E-01;  8.4797516E+02;3; -2.8662445E+01;  0.0000000E+00; -1.1944561E+00;0; -4.0117097E-01;  1.0021905E+04;  0.0000000E+00;  2.5677130E-08;  1.0000000E+04;  0.0000000E+00;  9.9985811E+03; -4.4871226E-01;  0.0000000E+00;  4.7541302E-02;  7.2523859E+02;
  3.9985001E-01;  9.9999998E-03; -2.0001061E-02;1663; -7.7152289E-02;  0.0000000E+00; -9.6796575E-04;  1.0010215E+03;  4.0000001E-01;  8.4629620E+02;3; -2.8691721E+01;  0.0000000E+00; -6.1006820E-01;0; -4.0111366E-01;  1.0021773E+04;  0.0000000E+00;  1.0427670E-08;  1.0000000E+04;  0.0000000E+00;  9.9986641E+03; -4.4765839E-01;  0.0000000E+00;  4.6544723E-02;  6.8399664E+02;
  4.1980684E-01;  9.9999998E-03; -1.8001893E-01;1686; -9.2341915E-02;  0.0000000E+00; -1.1087962E-02;  1.0012059E+03;  4.0000001E-01;  9.9908154E+02;3; -2.9877518E+01;  0.0000000E+00; -4.4076824E+00;0; -4.4316435E-01;  1.0027913E+04;  0.0000000E+00; -2.5177340E-07;  1.0000000E+04;  0.0000000E+00;  9.9962197E+03; -5.1358712E-01;  0.0000000E+00;  7.0422783E-02;  1.8920203E+03;
  4.1981024E-01;  9.9999998E-03; -1.6001545E-01;1687; -9.1585197E-02;  0.0000000E+00; -9.6682403E-03;  1.0011984E+03;  4.0000001E-01;  9.9285956E+02;3; -3.0235146E+01;  0.0000000E+00; -4.1592145E+00;0; -4.4253632E-01;  1.0027337E+04;  0.0000000E+00; -1.0665568E-07;  1.0000000E+04;  0.0000000E+00;  9.9966484E+03; -5.1064807E-01;  0.0000000E+00;  6.8111755E-02;  1.6817188E+03;
  4.1981378E-01;  9.9999998E-03; -1.4001240E-01;1688; -9.0697631E-02;  0.0000000E+00; -8.2813604E-03;  1.0011890E+03;  4.0000001E-01;  9.8505731E+02;3; -3.0547899E+01;  0.0000000E+00; -3.8387811E+00;0; -4.4150198E-01;  1.0026762E+04;  0.0000000E+00; -3.7644094E-07;  1.0000000E+04;  0.0000000E+00;  9.9970342E+03; -5.0723886E-01;  0.0000000E+00;  6.5736897E-02;  1.4892983E+03;
  4.1981724E-01;  9.9999998E-03; -1.2000977E-01;1689; -8.9779057E-02;  0.0000000E+00; -6.9446769E-03;  1.0011786E+03;  4.0000001E-01;  9.7646497E+02;3; -3.0807903E+01;  0.0000000E+00; -3.4570522E+00;0; -4.4050044E-01;  1.0026209E+04;  0.0000000E+00; -5.0577211E-07;  1.0000000E+04;  0.0000000E+00;  9.9973809E+03; -5.0371104E-01;  0.0000000E+00;  6.3210599E-02;  1.3188318E+03;
  4.1982037E-01;  9.9999998E-03; -1.0000751E-01;1690; -8.8903487E-02;  0.0000000E+00; -5.6657204E-03;  1.0011689E+03;  4.0000001E-01;  9.6846521E+02;3; -3.1018055E+01;  0.0000000E+00; -3.0140245E+00;0; -4.3981144E-01;  1.0025714E+04;  0.0000000E+00; -3.5295116E-07;  1.0000000E+04;  0.0000000E+00;  9.9976836E+03; -5.0035369E-01;  0.0000000E+00;  6.0542248E-02;  1.1692330E+03;
  4.1982308E-01;  9.9999998E-03; -8.0005608E-02;1691; -8.8125579E-02;  0.0000000E+00; -4.4477764E-03;  1.0011608E+03;  4.0000001E-01;  9.6165057E+02;3; -3.1184853E+01;  0.0000000E+00; -2.5041041E+00;0; -4.3947077E-01;  1.0025290E+04;  0.0000000E+00; -1.6462428E-07;  1.0000000E+04;  0.0000000E+00;  9.9979404E+03; -4.9737948E-01;  0.0000000E+00;  5.7908699E-02;  1.0423447E+03;
  4.1982526E-01;  9.9999998E-03; -6.0003974E-02;1692; -8.7483965E-02;  0.0000000E+00; -3.2850830E-03;  1.0011544E+03;  4.0000001E-01;  9.5631738E+02;3; -3.1303736E+01;  0.0000000E+00; -1.9346344E+00;0; -4.3938240E-01;  1.0024953E+04;  0.0000000E+00; -7.6628005E-08;  1.0000000E+04;  0.0000000E+00;  9.9981465E+03; -4.9493888E-01;  0.0000000E+00;  5.5556469E-02;  9.4102289E+02;
  4.1982684E-01;  9.9999998E-03; -4.0002540E-02;1693; -8.7007761E-02;  0.0000000E+00; -2.1658293E-03;  1.0011497E+03;  4.0000001E-01;  9.5246570E+02;3; -3.1394817E+01;  0.0000000E+00; -1.3128518E+00;0; -4.3941861E-01;  1.0024707E+04;  0.0000000E+00; -3.0752012E-08;  1.0000000E+04;  0.0000000E+00;  9.9982949E+03; -4.9313146E-01;  0.0000000E+00;  5.3712860E-02;  8.6751550E+02;
  4.1982779E-01;  9.9999998E-03; -2.0001238E-02;1694; -8.6713776E-02;  0.0000000E+00; -1.0759847E-03;  1.0011467E+03;  4.0000001E-01;  9.4999658E+02;3; -3.1450155E+01;  0.0000000E+00; -6.6361582E-01;0; -4.3947846E-01;  1.0024562E+04;  0.0000000E+00; -9.2746788E-09;  1.0000000E+04;  0.0000000E+00;  9.9983896E+03; -4.9202231E-01;  0.0000000E+00;  5.2543856E-02;  8.2307782E+02;
  4.3977803E-01;  9.9999998E-03; -1.8002172E-01;1717; -1.0322608E-01;  0.0000000E+00; -1.2341451E-02;  1.0013602E+03;  4.0000001E-01;  1.1268799E+03;3; -3.2189278E+01;  0.0000000E+00; -4.6530099E+00;0; -4.8332331E-01;  1.0031486E+04;  0.0000000E+00; -6.5487619E-08;  1.0000000E+04;  0.0000000E+00;  9.9957520E+03; -5.6102532E-01;  0.0000000E+00;  7.7702008E-02;  2.1308352E+03;
  4.3978214E-01;  9.9999998E-03; -1.6001780E-01;1718; -1.0240182E-01;  0.0000000E+00; -1.0748644E-02;  1.0013494E+03;  4.0000001E-01;  1.1179912E+03;3; -3.2634609E+01;  0.0000000E+00; -4.4086876E+00;0; -4.8232996E-01;  1.0030809E+04;  0.0000000E+00; -1.2159629E-07;  1.0000000E+04;  0.0000000E+00;  9.9962090E+03; -5.5799258E-01;  0.0000000E+00;  7.5662628E-02;  1.9028308E+03;
  4.3978640E-01;  9.9999998E-03; -1.4001437E-01;1719; -1.0144393E-01;  0.0000000E+00; -9.1908714E-03;  1.0013362E+03;  4.0000001E-01;  1.1070286E+03;3; -3.3039894E+01;  0.0000000E+00; -4.0799298E+00;0; -4.8102060E-01;  1.0030132E+04;  0.0000000E+00; -7.5073581E-07;  1.0000000E+04;  0.0000000E+00;  9.9966172E+03; -5.5449325E-01;  0.0000000E+00;  7.3472641E-02;  1.6995636E+03;
  4.3979049E-01;  9.9999998E-03; -1.2001137E-01;1720; -1.0046002E-01;  0.0000000E+00; -7.6926867E-03;  1.0013225E+03;  4.0000001E-01;  1.0956709E+03;3; -3.3398098E+01;  0.0000000E+00; -3.6802082E+00;0; -4.7988647E-01;  1.0029499E+04;  0.0000000E+00; -1.0286102E-06;  1.0000000E+04;  0.0000000E+00;  9.9969756E+03; -5.5085588E-01;  0.0000000E+00;  7.0969395E-02;  1.5225383E+03;
  4.3979418E-01;  9.9999998E-03; -1.0000881E-01;1721; -9.9527299E-02;  0.0000000E+00; -6.2648444E-03;  1.0013098E+03;  4.0000001E-01;  1.0851033E+03;3; -3.3703587E+01;  0.0000000E+00; -3.2163823E+00;0; -4.7920823E-01;  1.0028929E+04;  0.0000000E+00; -7.9079030E-07;  1.0000000E+04;  0.0000000E+00;  9.9972871E+03; -5.4736382E-01;  0.0000000E+00;  6.8155572E-02;  1.3680520E+03;
  4.3979731E-01;  9.9999998E-03; -8.0006614E-02;1722; -9.8701522E-02;  0.0000000E+00; -4.9108015E-03;  1.0012993E+03;  4.0000001E-01;  1.0764122E+03;3; -3.3958317E+01;  0.0000000E+00; -2.6758525E+00;0; -4.7897840E-01;  1.0028448E+04;  0.0000000E+00; -4.5101976E-07;  1.0000000E+04;  0.0000000E+00;  9.9975566E+03; -5.4423857E-01;  0.0000000E+00;  6.5260187E-02;  1.2370013E+03;
  4.3979985E-01;  9.9999998E-03; -6.0004715E-02;1723; -9.8021425E-02;  0.0000000E+00; -3.6230963E-03;  1.0012910E+03;  4.0000001E-01;  1.0694989E+03;3; -3.4150352E+01;  0.0000000E+00; -2.0710845E+00;0; -4.7903988E-01;  1.0028066E+04;  0.0000000E+00; -2.2982830E-07;  1.0000000E+04;  0.0000000E+00;  9.9977715E+03; -5.4164690E-01;  0.0000000E+00;  6.2607013E-02;  1.1322319E+03;
  4.3980169E-01;  9.9999998E-03; -4.0003031E-02;1724; -9.7516745E-02;  0.0000000E+00; -2.3864429E-03;  1.0012849E+03;  4.0000001E-01;  1.0644619E+03;3; -3.4297222E+01;  0.0000000E+00; -1.4071461E+00;0; -4.7921398E-01;  1.0027791E+04;  0.0000000E+00; -1.0677103E-07;  1.0000000E+04;  0.0000000E+00;  9.9979248E+03; -5.3971052E-01;  0.0000000E+00;  6.0496550E-02;  1.0561991E+03;
  4.3980280E-01;  9.9999998E-03; -2.0001482E-02;1725; -9.7205319E-02;  0.0000000E+00; -1.1847047E-03;  1.0012811E+03;  4.0000001E-01;  1.0613015E+03;3; -3.4387352E+01;  0.0000000E+00; -7.0823503E-01;0; -4.7936666E-01;  1.0027622E+04;  0.0000000E+00; -2.6348129E-08;  1.0000000E+04;  0.0000000E+00;  9.9980195E+03; -5.3851467E-01;  0.0000000E+00;  5.9148025E-02;  1.0102610E+03;
  4.5974553E-01;  9.9999998E-03; -1.8002509E-01;1748; -1.1510000E-01;  0.0000000E+00; -1.3653313E-02;  1.0015305E+03;  4.0000072E-01;  1.2680106E+03;3; -3.4551720E+01;  0.0000000E+00; -4.8124480E+00;0; -5.2518427E-01;  1.0035352E+04;  0.0000000E+00;  1.2940554E-06;  1.0000000E+04;  0.0000000E+00;  9.9952549E+03; -6.1033362E-01;  0.0000000E+00;  8.5149355E-02;  2.3814233E+03;
  4.5975047E-01;  9.9999998E-03; -1.6002074E-01;1749; -1.1420596E-01;  0.0000000E+00; -1.1885217E-02;  1.0015143E+03;  4.0000069E-01;  1.2545790E+03;3; -3.5097195E+01;  0.0000000E+00; -4.5654063E+00;0; -5.2355790E-01;  1.0034550E+04;  0.0000000E+00;  4.0141398E-07;  1.0000000E+04;  0.0000000E+00;  9.9957344E+03; -6.0707700E-01;  0.0000000E+00;  8.3519079E-02;  2.1429731E+03;
  4.5975554E-01;  9.9999998E-03; -1.4001691E-01;1750; -1.1317494E-01;  0.0000000E+00; -1.0152263E-02;  1.0014957E+03;  4.0000078E-01;  1.2391720E+03;3; -3.5613117E+01;  0.0000000E+00; -4.2328067E+00;0; -5.2171570E-01;  1.0033771E+04;  0.0000000E+00; -8.3840030E-07;  1.0000000E+04;  0.0000000E+00;  9.9961445E+03; -6.0342652E-01;  0.0000000E+00;  8.1710838E-02;  1.9394924E+03;
  4.5976037E-01;  9.9999998E-03; -1.2001354E-01;1751; -1.1212293E-01;  0.0000000E+00; -8.4844064E-03;  1.0014772E+03;  4.0000078E-01;  1.2237651E+03;3; -3.6086246E+01;  0.0000000E+00; -3.8173757E+00;0; -5.2021593E-01;  1.0033050E+04;  0.0000000E+00; -1.3900419E-06;  1.0000000E+04;  0.0000000E+00;  9.9964893E+03; -5.9964508E-01;  0.0000000E+00;  7.9429127E-02;  1.7671923E+03;
  4.5976469E-01;  9.9999998E-03; -1.0001060E-01;1752; -1.1113106E-01;  0.0000000E+00; -6.8992367E-03;  1.0014605E+03;  4.0000069E-01;  1.2100371E+03;3; -3.6505096E+01;  0.0000000E+00; -3.3373933E+00;0; -5.1935756E-01;  1.0032411E+04;  0.0000000E+00; -1.1208382E-06;  1.0000000E+04;  0.0000000E+00;  9.9967920E+03; -5.9598464E-01;  0.0000000E+00;  7.6627068E-02;  1.6177268E+03;
  4.5976838E-01;  9.9999998E-03; -8.0008052E-02;1753; -1.1025566E-01;  0.0000000E+00; -5.4012132E-03;  1.0014465E+03;  4.0000066E-01;  1.1983832E+03;3; -3.6864704E+01;  0.0000000E+00; -2.7785439E+00;0; -5.1909393E-01;  1.0031870E+04;  0.0000000E+00; -6.6867142E-07;  1.0000000E+04;  0.0000000E+00;  9.9970547E+03; -5.9266645E-01;  0.0000000E+00;  7.3572516E-02;  1.4902903E+03;
  4.5977131E-01;  9.9999998E-03; -6.0005795E-02;1754; -1.0953543E-01;  0.0000000E+00; -3.9801910E-03;  1.0014357E+03;  4.0000063E-01;  1.1894945E+03;3; -3.7151386E+01;  0.0000000E+00; -2.1410563E+00;0; -5.1920247E-01;  1.0031443E+04;  0.0000000E+00; -3.4405753E-07;  1.0000000E+04;  0.0000000E+00;  9.9972598E+03; -5.8987665E-01;  0.0000000E+00;  7.0674174E-02;  1.3877108E+03;
  4.5977345E-01;  9.9999998E-03; -4.0003750E-02;1755; -1.0899898E-01;  0.0000000E+00; -2.6220735E-03;  1.0014278E+03;  4.0000063E-01;  1.1828774E+03;3; -3.7360172E+01;  0.0000000E+00; -1.4631536E+00;0; -5.1944572E-01;  1.0031136E+04;  0.0000000E+00; -1.5228603E-07;  1.0000000E+04;  0.0000000E+00;  9.9974160E+03; -5.8776695E-01;  0.0000000E+00;  6.8321213E-02;  1.3129109E+03;
  4.5977473E-01;  9.9999998E-03; -2.0001844E-02;1756; -1.0866847E-01;  0.0000000E+00; -1.3012507E-03;  1.0014233E+03;  4.0000069E-01;  1.1791245E+03;3; -3.7492378E+01;  0.0000000E+00; -7.3359221E-01;0; -5.1965237E-01;  1.0030948E+04;  0.0000000E+00; -4.0688754E-08;  1.0000000E+04;  0.0000000E+00;  9.9975088E+03; -5.8645308E-01;  0.0000000E+00;  6.6800728E-02;  1.2676147E+03;
  4.7970888E-01;  9.9999998E-03; -1.8002942E-01;1779; -1.2803186E-01;  0.0000000E+00; -1.5085971E-02;  1.0017096E+03;  4.0000212E-01;  1.4163507E+03;3; -3.6954105E+01;  0.0000000E+00; -4.8589039E+00;0; -5.6704736E-01;  1.0039405E+04;  0.0000000E+00;  6.0390075E-06;  1.0000000E+04;  0.0000000E+00;  9.9947275E+03; -6.5975845E-01;  0.0000000E+00;  9.2711091E-02;  2.6499094E+03;
  4.7971484E-01;  9.9999998E-03; -1.6002472E-01;1780; -1.2706281E-01;  0.0000000E+00; -1.3157421E-02;  1.0016867E+03;  4.0000218E-01;  1.3973883E+03;3; -3.7614204E+01;  0.0000000E+00; -4.6116495E+00;0; -5.6442928E-01;  1.0038470E+04;  0.0000000E+00;  3.1648467E-06;  1.0000000E+04;  0.0000000E+00;  9.9952021E+03; -6.5617192E-01;  0.0000000E+00;  9.1742605E-02;  2.4133484E+03;
  4.7972086E-01;  9.9999998E-03; -1.4002046E-01;1781; -1.2595274E-01;  0.0000000E+00; -1.1246865E-02;  1.0016616E+03;  4.0000209E-01;  1.3765496E+03;3; -3.8256294E+01;  0.0000000E+00; -4.2755718E+00;0; -5.6170976E-01;  1.0037588E+04;  0.0000000E+00;  6.3097855E-07;  1.0000000E+04;  0.0000000E+00;  9.9955762E+03; -6.5235382E-01;  0.0000000E+00;  9.0644054E-02;  2.2252778E+03;
  4.7972652E-01;  9.9999998E-03; -1.2001663E-01;1782; -1.2482633E-01;  0.0000000E+00; -9.3960762E-03;  1.0016364E+03;  4.0000212E-01;  1.3557107E+03;3; -3.8856602E+01;  0.0000000E+00; -3.8590591E+00;0; -5.5953878E-01;  1.0036783E+04;  0.0000000E+00; -8.2770663E-07;  1.0000000E+04;  0.0000000E+00;  9.9958809E+03; -6.4844602E-01;  0.0000000E+00;  8.8907242E-02;  2.0730591E+03;
  4.7973159E-01;  9.9999998E-03; -1.0001321E-01;1783; -1.2377058E-01;  0.0000000E+00; -7.6306751E-03;  1.0016144E+03;  4.0000218E-01;  1.3375383E+03;3; -3.9410332E+01;  0.0000000E+00; -3.3564754E+00;0; -5.5825531E-01;  1.0036079E+04;  0.0000000E+00; -9.5573500E-07;  1.0000000E+04;  0.0000000E+00;  9.9961436E+03; -6.4463341E-01;  0.0000000E+00;  8.6378105E-02;  1.9413717E+03;
  4.7973585E-01;  9.9999998E-03; -8.0010161E-02;1784; -1.2283973E-01;  0.0000000E+00; -5.9679239E-03;  1.0015965E+03;  4.0000200E-01;  1.3226252E+03;3; -3.9891335E+01;  0.0000000E+00; -2.7923374E+00;0; -5.5777466E-01;  1.0035485E+04;  0.0000000E+00; -6.1889733E-07;  1.0000000E+04;  0.0000000E+00;  9.9963750E+03; -6.4112157E-01;  0.0000000E+00;  8.3346933E-02;  1.8270828E+03;
  4.7973925E-01;  9.9999998E-03; -6.0007401E-02;1785; -1.2207419E-01;  0.0000000E+00; -4.3958970E-03;  1.0015826E+03;  4.0000215E-01;  1.3111688E+03;3; -4.0285442E+01;  0.0000000E+00; -2.1526015E+00;0; -5.5779994E-01;  1.0035016E+04;  0.0000000E+00; -3.2460630E-07;  1.0000000E+04;  0.0000000E+00;  9.9965684E+03; -6.3811690E-01;  0.0000000E+00;  8.0316953E-02;  1.7333152E+03;
  4.7974169E-01;  9.9999998E-03; -4.0004835E-02;1786; -1.2150230E-01;  0.0000000E+00; -2.8922642E-03;  1.0015728E+03;  4.0000209E-01;  1.3029716E+03;3; -4.0574532E+01;  0.0000000E+00; -1.4526825E+00;0; -5.5802643E-01;  1.0034676E+04;  0.0000000E+00; -1.4416845E-07;  1.0000000E+04;  0.0000000E+00;  9.9967119E+03; -6.3581079E-01;  0.0000000E+00;  7.7784374E-02;  1.6640057E+03;
  4.7974321E-01;  9.9999998E-03; -2.0002389E-02;1787; -1.2114841E-01;  0.0000000E+00; -1.4370357E-03;  1.0015669E+03;  4.0000203E-01;  1.2981322E+03;3; -4.0750050E+01;  0.0000000E+00; -7.3924065E-01;0; -5.5823666E-01;  1.0034469E+04;  0.0000000E+00; -4.1298161E-08;  1.0000000E+04;  0.0000000E+00;  9.9968008E+03; -6.3435847E-01;  0.0000000E+00;  7.6121829E-02;  1.6217140E+03;
  4.9966773E-01;  9.9999998E-03; -1.8003537E-01;1810; -1.4208142E-01;  0.0000000E+00; -1.6751161E-02;  1.0018871E+03;  4.0000489E-01;  1.5635052E+03;3; -3.9386337E+01;  0.0000000E+00; -4.7667122E+00;0; -6.0547841E-01;  1.0043417E+04;  0.0000000E+00;  1.8480989E-05;  1.0000000E+04;  0.0000000E+00;  9.9941318E+03; -7.0598018E-01;  0.0000000E+00;  1.0050178E-01;  2.9537075E+03;
  4.9967483E-01;  9.9999998E-03; -1.6003032E-01;1811; -1.4103292E-01;  0.0000000E+00; -1.4689657E-02;  1.0018553E+03;  4.0000474E-01;  1.5371357E+03;3; -4.0174442E+01;  0.0000000E+00; -4.5272446E+00;0; -6.0147762E-01;  1.0042353E+04;  0.0000000E+00;  1.2011073E-05;  1.0000000E+04;  0.0000000E+00;  9.9945645E+03; -7.0201480E-01;  0.0000000E+00;  1.0053716E-01;  2.7346609E+03;
  4.9968192E-01;  9.9999998E-03; -1.4002559E-01;1812; -1.3983889E-01;  0.0000000E+00; -1.2595317E-02;  1.0018217E+03;  4.0000480E-01;  1.5091859E+03;3; -4.0957844E+01;  0.0000000E+00; -4.1880751E+00;0; -5.9749949E-01;  1.0041374E+04;  0.0000000E+00;  6.5965478E-06;  1.0000000E+04;  0.0000000E+00;  9.9948633E+03; -6.9808084E-01;  0.0000000E+00;  1.0058134E-01;  2.5808250E+03;
  4.9968854E-01;  9.9999998E-03; -1.2002114E-01;1813; -1.3863234E-01;  0.0000000E+00; -1.0532497E-02;  1.0017896E+03;  4.0000474E-01;  1.4826189E+03;3; -4.1704910E+01;  0.0000000E+00; -3.7649281E+00;0; -5.9431624E-01;  1.0040500E+04;  0.0000000E+00;  2.3212287E-06;  1.0000000E+04;  0.0000000E+00;  9.9950869E+03; -6.9413775E-01;  0.0000000E+00;  9.9821486E-02;  2.4665586E+03;
  4.9969438E-01;  9.9999998E-03; -1.0001704E-01;1814; -1.3750260E-01;  0.0000000E+00; -8.5534835E-03;  1.0017614E+03;  4.0000477E-01;  1.4593110E+03;3; -4.2399292E+01;  0.0000000E+00; -3.2615299E+00;0; -5.9233361E-01;  1.0039740E+04;  0.0000000E+00;  4.2410747E-07;  1.0000000E+04;  0.0000000E+00;  9.9952881E+03; -6.9026178E-01;  0.0000000E+00;  9.7928144E-02;  2.3670173E+03;
  4.9969929E-01;  9.9999998E-03; -8.0013275E-02;1815; -1.3650845E-01;  0.0000000E+00; -6.6835741E-03;  1.0017386E+03;  4.0000480E-01;  1.4404474E+03;3; -4.3018822E+01;  0.0000000E+00; -2.6898773E+00;0; -5.9143108E-01;  1.0039104E+04;  0.0000000E+00; -7.5714311E-08;  1.0000000E+04;  0.0000000E+00;  9.9954688E+03; -6.8662161E-01;  0.0000000E+00;  9.5190503E-02;  2.2762180E+03;
  4.9970320E-01;  9.9999998E-03; -6.0009763E-02;1816; -1.3568814E-01;  0.0000000E+00; -4.9191988E-03;  1.0017218E+03;  4.0000474E-01;  1.4265220E+03;3; -4.3529484E+01;  0.0000000E+00; -2.0706220E+00;0; -5.9122807E-01;  1.0038598E+04;  0.0000000E+00; -1.1604133E-07;  1.0000000E+04;  0.0000000E+00;  9.9956309E+03; -6.8344218E-01;  0.0000000E+00;  9.2214093E-02;  2.1981667E+03;
  4.9970603E-01;  9.9999998E-03; -4.0006429E-02;1817; -1.3507414E-01;  0.0000000E+00; -3.2353981E-03;  1.0017094E+03;  4.0000486E-01;  1.4162507E+03;3; -4.3911110E+01;  0.0000000E+00; -1.4002178E+00;0; -5.9133732E-01;  1.0038231E+04;  0.0000000E+00; -6.8509763E-08;  1.0000000E+04;  0.0000000E+00;  9.9957559E+03; -6.8095624E-01;  0.0000000E+00;  8.9618944E-02;  2.1386248E+03;
  4.9970776E-01;  9.9999998E-03; -2.0003194E-02;1818; -1.3469340E-01;  0.0000000E+00; -1.6044045E-03;  1.0017026E+03;  4.0000489E-01;  1.4106212E+03;3; -4.4146938E+01;  0.0000000E+00; -6.9731641E-01;0; -5.9149253E-01;  1.0038008E+04;  0.0000000E+00; -1.5541904E-08;  1.0000000E+04;  0.0000000E+00;  9.9958311E+03; -6.7937034E-01;  0.0000000E+00;  8.7877832E-02;  2.1016460E+03;
  5.1962179E-01;  9.9999998E-03; -1.8004376E-01;1841; -1.5726954E-01;  0.0000000E+00; -1.8811755E-02;  1.0020511E+03;  4.0001333E-01;  1.6993009E+03;3; -4.1839169E+01;  0.0000000E+00; -4.5243349E+00;0; -6.3473231E-01;  1.0047017E+04;  0.0000000E+00;  4.2181036E-05;  1.0000000E+04;  0.0000000E+00;  9.9933818E+03; -7.4372411E-01;  0.0000000E+00;  1.0899182E-01;  3.3286831E+03;
  5.1963013E-01;  9.9999998E-03; -1.6003832E-01;1842; -1.5614265E-01;  0.0000000E+00; -1.6637744E-02;  1.0020104E+03;  4.0001345E-01;  1.6655242E+03;3; -4.2762428E+01;  0.0000000E+00; -4.2747598E+00;0; -6.2909019E-01;  1.0045833E+04;  0.0000000E+00;  3.1420976E-05;  1.0000000E+04;  0.0000000E+00;  9.9937490E+03; -7.3943406E-01;  0.0000000E+00;  1.1034387E-01;  3.1403906E+03;
  5.1963836E-01;  9.9999998E-03; -1.4003292E-01;1843; -1.5486859E-01;  0.0000000E+00; -1.4346204E-02;  1.0019676E+03;  4.0001342E-01;  1.6300686E+03;3; -4.3706657E+01;  0.0000000E+00; -3.9434476E+00;0; -6.2355304E-01;  1.0044779E+04;  0.0000000E+00;  2.1390411E-05;  1.0000000E+04;  0.0000000E+00;  9.9939404E+03; -7.3551625E-01;  0.0000000E+00;  1.1196318E-01;  3.0379216E+03;
  5.1964599E-01;  9.9999998E-03; -1.2002762E-01;1844; -1.5357828E-01;  0.0000000E+00; -1.2029111E-02;  1.0019269E+03;  4.0001333E-01;  1.5963907E+03;3; -4.4613525E+01;  0.0000000E+00; -3.5135531E+00;0; -6.1905879E-01;  1.0043855E+04;  0.0000000E+00;  1.1040878E-05;  1.0000000E+04;  0.0000000E+00;  9.9940479E+03; -7.3170763E-01;  0.0000000E+00;  1.1264884E-01;  2.9785208E+03;
  5.1965272E-01;  9.9999998E-03; -1.0002255E-01;1845; -1.5236686E-01;  0.0000000E+00; -9.7766537E-03;  1.0018922E+03;  4.0001336E-01;  1.5676510E+03;3; -4.5463196E+01;  0.0000000E+00; -3.0162470E+00;0; -6.1611688E-01;  1.0043060E+04;  0.0000000E+00;  4.5411166E-06;  1.0000000E+04;  0.0000000E+00;  9.9941523E+03; -7.2793823E-01;  0.0000000E+00;  1.1182135E-01;  2.9248794E+03;
  5.1965833E-01;  9.9999998E-03; -8.0017738E-02;1846; -1.5129675E-01;  0.0000000E+00; -7.6383958E-03;  1.0018647E+03;  4.0001333E-01;  1.5449357E+03;3; -4.6223225E+01;  0.0000000E+00; -2.4670591E+00;0; -6.1458808E-01;  1.0042393E+04;  0.0000000E+00;  1.5621620E-06;  1.0000000E+04;  0.0000000E+00;  9.9942715E+03; -7.2431880E-01;  0.0000000E+00;  1.0973071E-01;  2.8673533E+03;
  5.1966280E-01;  9.9999998E-03; -6.0013145E-02;1847; -1.5041035E-01;  0.0000000E+00; -5.6191604E-03;  1.0018441E+03;  4.0001345E-01;  1.5277511E+03;3; -4.6857323E+01;  0.0000000E+00; -1.8820672E+00;0; -6.1399972E-01;  1.0041863E+04;  0.0000000E+00;  4.7281702E-07;  1.0000000E+04;  0.0000000E+00;  9.9943848E+03; -7.2107780E-01;  0.0000000E+00;  1.0707805E-01;  2.8113862E+03;
  5.1966602E-01;  9.9999998E-03; -4.0008705E-02;1848; -1.4974280E-01;  0.0000000E+00; -3.6958547E-03;  1.0018297E+03;  4.0001342E-01;  1.5158997E+03;3; -4.7334038E+01;  0.0000000E+00; -1.2700933E+00;0; -6.1388034E-01;  1.0041480E+04;  0.0000000E+00;  1.1175873E-07;  1.0000000E+04;  0.0000000E+00;  9.9944805E+03; -7.1849096E-01;  0.0000000E+00;  1.0461064E-01;  2.7654465E+03;
  5.1966798E-01;  9.9999998E-03; -2.0004338E-02;1849; -1.4932641E-01;  0.0000000E+00; -1.8340311E-03;  1.0018215E+03;  4.0001333E-01;  1.5090851E+03;3; -4.7627571E+01;  0.0000000E+00; -6.4346391E-01;0; -6.1391258E-01;  1.0041247E+04;  0.0000000E+00;  1.9782501E-08;  1.0000000E+04;  0.0000000E+00;  9.9945420E+03; -7.1681702E-01;  0.0000000E+00;  1.0290444E-01;  2.7358013E+03;
  5.3957123E-01;  9.9999998E-03; -1.8005553E-01;1872; -1.7350829E-01;  0.0000000E+00; -2.1474695E-02;  1.0021885E+03;  4.0003586E-01;  1.8130715E+03;3; -4.4293819E+01;  0.0000000E+00; -4.1283259E+00;0; -6.4655459E-01;  1.0049654E+04;  0.0000000E+00;  7.1795686E-05;  1.0000000E+04;  0.0000000E+00;  9.9923535E+03; -7.6576602E-01;  0.0000000E+00;  1.1921141E-01;  3.8364221E+03;
  5.3958082E-01;  9.9999998E-03; -1.6004947E-01;1873; -1.7232123E-01;  0.0000000E+00; -1.9155731E-02;  1.0021406E+03;  4.0003607E-01;  1.7733693E+03;3; -4.5370144E+01;  0.0000000E+00; -3.8700678E+00;0; -6.3942486E-01;  1.0048389E+04;  0.0000000E+00;  5.8611273E-05;  1.0000000E+04;  0.0000000E+00;  9.9926484E+03; -7.6138365E-01;  0.0000000E+00;  1.2195881E-01;  3.6806934E+03;
  5.3959024E-01;  9.9999998E-03; -1.4004311E-01;1874; -1.7098297E-01;  0.0000000E+00; -1.6644198E-02;  1.0020898E+03;  4.0003574E-01;  1.7312966E+03;3; -4.6481880E+01;  0.0000000E+00; -3.5178728E+00;0; -6.3234091E-01;  1.0047300E+04;  0.0000000E+00;  4.6660018E-05;  1.0000000E+04;  0.0000000E+00;  9.9927217E+03; -7.5772220E-01;  0.0000000E+00;  1.2538128E-01;  3.6364458E+03;
  5.3959894E-01;  9.9999998E-03; -1.2003659E-01;1875; -1.6961488E-01;  0.0000000E+00; -1.4017367E-02;  1.0020414E+03;  4.0003586E-01;  1.6911993E+03;3; -4.7562378E+01;  0.0000000E+00; -3.0705342E+00;0; -6.2643051E-01;  1.0046356E+04;  0.0000000E+00;  2.8331506E-05;  1.0000000E+04;  0.0000000E+00;  9.9926934E+03; -7.5430185E-01;  0.0000000E+00;  1.2787136E-01;  3.6418743E+03;
  5.3960657E-01;  9.9999998E-03; -1.0003014E-01;1876; -1.6831754E-01;  0.0000000E+00; -1.1420316E-02;  1.0020004E+03;  4.0003598E-01;  1.6572252E+03;3; -4.8576607E+01;  0.0000000E+00; -2.5740323E+00;0; -6.2236506E-01;  1.0045549E+04;  0.0000000E+00;  1.3687286E-05;  1.0000000E+04;  0.0000000E+00;  9.9926826E+03; -7.5089622E-01;  0.0000000E+00;  1.2853117E-01;  3.6439646E+03;
  5.3961295E-01;  9.9999998E-03; -8.0023862E-02;1877; -1.6716109E-01;  0.0000000E+00; -8.9332545E-03;  1.0019683E+03;  4.0003601E-01;  1.6306582E+03;3; -4.9485710E+01;  0.0000000E+00; -2.0583699E+00;0; -6.2003779E-01;  1.0044872E+04;  0.0000000E+00;  5.4795987E-06;  1.0000000E+04;  0.0000000E+00;  9.9927148E+03; -7.4754077E-01;  0.0000000E+00;  1.2750298E-01;  3.6273145E+03;
  5.3961796E-01;  9.9999998E-03; -6.0017783E-02;1878; -1.6619512E-01;  0.0000000E+00; -6.5742224E-03;  1.0019448E+03;  4.0003604E-01;  1.6112021E+03;3; -5.0246017E+01;  0.0000000E+00; -1.5368917E+00;0; -6.1890715E-01;  1.0044336E+04;  0.0000000E+00;  1.8602950E-06;  1.0000000E+04;  0.0000000E+00;  9.9927734E+03; -7.4444890E-01;  0.0000000E+00;  1.2554173E-01;  3.5985359E+03;
  5.3962165E-01;  9.9999998E-03; -4.0011816E-02;1879; -1.6546305E-01;  0.0000000E+00; -4.3230886E-03;  1.0019283E+03;  4.0003604E-01;  1.5975730E+03;3; -5.0818893E+01;  0.0000000E+00; -1.0196177E+00;0; -6.1843061E-01;  1.0043948E+04;  0.0000000E+00;  5.6520145E-07;  1.0000000E+04;  0.0000000E+00;  9.9928311E+03; -7.4192256E-01;  0.0000000E+00;  1.2349192E-01;  3.5693186E+03;
  5.3962386E-01;  9.9999998E-03; -2.0005899E-02;1880; -1.6500421E-01;  0.0000000E+00; -2.1440764E-03;  1.0019187E+03;  4.0003595E-01;  1.5895732E+03;3; -5.1174835E+01;  0.0000000E+00; -5.0850737E-01;0; -6.1825413E-01;  1.0043710E+04;  0.0000000E+00;  1.2028349E-07;  1.0000000E+04;  0.0000000E+00;  9.9928760E+03; -7.4026150E-01;  0.0000000E+00;  1.2200739E-01;  3.5486887E+03;
  5.5951703E-01;  9.9999998E-03; -1.8007164E-01;1903; -1.9046339E-01;  0.0000000E+00; -2.4950173E-02;  1.0023164E+03;  4.0009671E-01;  1.9190385E+03;3; -4.6686352E+01;  0.0000000E+00; -3.5991256E+00;0; -6.3048023E-01;  1.0050633E+04;  0.0000000E+00;  8.6278313E-05;  1.0000000E+04;  0.0000000E+00;  9.9908594E+03; -7.6328105E-01;  0.0000000E+00;  1.3280083E-01;  4.5641934E+03;
  5.5952787E-01;  9.9999998E-03; -1.6006453E-01;1904; -1.8925862E-01;  0.0000000E+00; -2.2433219E-02;  1.0022664E+03;  4.0009686E-01;  1.8776573E+03;3; -4.7942181E+01;  0.0000000E+00; -3.2922368E+00;0; -6.2271649E-01;  1.0049365E+04;  0.0000000E+00;  7.2772666E-05;  1.0000000E+04;  0.0000000E+00;  9.9911201E+03; -7.5932759E-01;  0.0000000E+00;  1.3661112E-01;  4.4239663E+03;
  5.5953836E-01;  9.9999998E-03; -1.4005676E-01;1905; -1.8789929E-01;  0.0000000E+00; -1.9603303E-02;  1.0022114E+03;  4.0009680E-01;  1.8321282E+03;3; -4.9237366E+01;  0.0000000E+00; -2.8730216E+00;0; -6.1471963E-01;  1.0048287E+04;  0.0000000E+00;  7.1114242E-05;  1.0000000E+04;  0.0000000E+00;  9.9910986E+03; -7.5635362E-01;  0.0000000E+00;  1.4163399E-01;  4.4255977E+03;
  5.5954808E-01;  9.9999998E-03; -1.2004855E-01;1906; -1.8648589E-01;  0.0000000E+00; -1.6601304E-02;  1.0021580E+03;  4.0009686E-01;  1.7877842E+03;3; -5.0500523E+01;  0.0000000E+00; -2.3972757E+00;0; -6.0774171E-01;  1.0047364E+04;  0.0000000E+00;  5.1400548E-05;  1.0000000E+04;  0.0000000E+00;  9.9909473E+03; -7.5372088E-01;  0.0000000E+00;  1.4597914E-01;  4.4913970E+03;
  5.5955660E-01;  9.9999998E-03; -1.0004025E-01;1907; -1.8511392E-01;  0.0000000E+00; -1.3579019E-02;  1.0021124E+03;  4.0009686E-01;  1.7500573E+03;3; -5.1682468E+01;  0.0000000E+00; -1.9074107E+00;0; -6.0264570E-01;  1.0046582E+04;  0.0000000E+00;  2.8398494E-05;  1.0000000E+04;  0.0000000E+00;  9.9908135E+03; -7.5107324E-01;  0.0000000E+00;  1.4842756E-01;  4.5507900E+03;
  5.5956376E-01;  9.9999998E-03; -8.0032028E-02;1908; -1.8386817E-01;  0.0000000E+00; -1.0655628E-02;  1.0020767E+03;  4.0009683E-01;  1.7204287E+03;3; -5.2741638E+01;  0.0000000E+00; -1.4449681E+00;0; -5.9945190E-01;  1.0045932E+04;  0.0000000E+00;  1.2518677E-05;  1.0000000E+04;  0.0000000E+00;  9.9907520E+03; -7.4836361E-01;  0.0000000E+00;  1.4891171E-01;  4.5786592E+03;
  5.5956942E-01;  9.9999998E-03; -6.0023930E-02;1909; -1.8281202E-01;  0.0000000E+00; -7.8653870E-03;  1.0020505E+03;  4.0009695E-01;  1.6987999E+03;3; -5.3629261E+01;  0.0000000E+00; -1.0310040E+00;0; -5.9763432E-01;  1.0045413E+04;  0.0000000E+00;  4.5706024E-06;  1.0000000E+04;  0.0000000E+00;  9.9907461E+03; -7.4576479E-01;  0.0000000E+00;  1.4813046E-01;  4.5804561E+03;
  5.5957353E-01;  9.9999998E-03; -4.0015925E-02;1910; -1.8200427E-01;  0.0000000E+00; -5.1849512E-03;  1.0020327E+03;  4.0009704E-01;  1.6840844E+03;3; -5.4302834E+01;  0.0000000E+00; -6.5006161E-01;0; -5.9664375E-01;  1.0045036E+04;  0.0000000E+00;  1.4394609E-06;  1.0000000E+04;  0.0000000E+00;  9.9907656E+03; -7.4357426E-01;  0.0000000E+00;  1.4693052E-01;  4.5704727E+03;
  5.5957603E-01;  9.9999998E-03; -2.0007955E-02;1911; -1.8149558E-01;  0.0000000E+00; -2.5737716E-03;  1.0020222E+03;  4.0009695E-01;  1.6753933E+03;3; -5.4717388E+01;  0.0000000E+00; -3.1295362E-01;0; -5.9614021E-01;  1.0044805E+04;  0.0000000E+00;  3.0434910E-07;  1.0000000E+04;  0.0000000E+00;  9.9907920E+03; -7.4210417E-01;  0.0000000E+00;  1.4596397E-01;  4.5604111E+03;
  5.7946140E-01;  9.9999998E-03; -1.8009268E-01;1934; -2.0744170E-01;  0.0000000E+00; -2.9327651E-02;  1.0025355E+03;  4.0025818E-01;  2.1005554E+03;3; -4.8925320E+01;  0.0000000E+00; -2.8312252E+00;0; -5.7393330E-01;  1.0049094E+04;  0.0000000E+00;  5.4242882E-05;  1.0000000E+04;  0.0000000E+00;  9.9886943E+03; -7.2559750E-01;  0.0000000E+00;  1.5166420E-01;  5.6089546E+03;
  5.7947332E-01;  9.9999998E-03; -1.6008377E-01;1935; -2.0630717E-01;  0.0000000E+00; -2.6469182E-02;  1.0024921E+03;  4.0025809E-01;  2.0646064E+03;3; -5.0393879E+01;  0.0000000E+00; -2.4603248E+00;0; -5.6714827E-01;  1.0047918E+04;  0.0000000E+00;  3.5920941E-05;  1.0000000E+04;  0.0000000E+00;  9.9889951E+03; -7.2301435E-01;  0.0000000E+00;  1.5586610E-01;  5.4497539E+03;
  5.7948482E-01;  9.9999998E-03; -1.4007393E-01;1936; -2.0498817E-01;  0.0000000E+00; -2.3223344E-02;  1.0024406E+03;  4.0025824E-01;  2.0219414E+03;3; -5.1889648E+01;  0.0000000E+00; -1.9853007E+00;0; -5.5963546E-01;  1.0046935E+04;  0.0000000E+00;  6.6857196E-05;  1.0000000E+04;  0.0000000E+00;  9.9889434E+03; -7.2145230E-01;  0.0000000E+00;  1.6181685E-01;  5.4638936E+03;
  5.7949543E-01;  9.9999998E-03; -1.2006350E-01;1937; -2.0356767E-01;  0.0000000E+00; -1.9768514E-02;  1.0023877E+03;  4.0025827E-01;  1.9780914E+03;3; -5.3336224E+01;  0.0000000E+00; -1.4789690E+00;0; -5.5256993E-01;  1.0046097E+04;  0.0000000E+00;  6.5912041E-05;  1.0000000E+04;  0.0000000E+00;  9.9887158E+03; -7.2022682E-01;  0.0000000E+00;  1.6765691E-01;  5.5670215E+03;
  5.7950485E-01;  9.9999998E-03; -1.0005278E-01;1938; -2.0214869E-01;  0.0000000E+00; -1.6241351E-02;  1.0023408E+03;  4.0025830E-01;  1.9392782E+03;3; -5.4685932E+01;  0.0000000E+00; -1.0087513E+00;0; -5.4691827E-01;  1.0045387E+04;  0.0000000E+00;  4.3556091E-05;  1.0000000E+04;  0.0000000E+00;  9.9884824E+03; -7.1890348E-01;  0.0000000E+00;  1.7198524E-01;  5.6731021E+03;
  5.7951272E-01;  9.9999998E-03; -8.0042072E-02;1939; -2.0082256E-01;  0.0000000E+00; -1.2794090E-02;  1.0023037E+03;  4.0025830E-01;  1.9085634E+03;3; -5.5885311E+01;  0.0000000E+00; -6.1909187E-01;0; -5.4292333E-01;  1.0044801E+04;  0.0000000E+00;  2.1170383E-05;  1.0000000E+04;  0.0000000E+00;  9.9883320E+03; -7.1736377E-01;  0.0000000E+00;  1.7444046E-01;  5.7430103E+03;
  5.7951897E-01;  9.9999998E-03; -6.0031474E-02;1940; -1.9967130E-01;  0.0000000E+00; -9.4761252E-03;  1.0022767E+03;  4.0025842E-01;  1.8862433E+03;3; -5.6878048E+01;  0.0000000E+00; -3.3660284E-01;0; -5.4024678E-01;  1.0044326E+04;  0.0000000E+00;  8.0876516E-06;  1.0000000E+04;  0.0000000E+00;  9.9882607E+03; -7.1572006E-01;  0.0000000E+00;  1.7547327E-01;  5.7763281E+03;
  5.7952350E-01;  9.9999998E-03; -4.0020972E-02;1941; -1.9877650E-01;  0.0000000E+00; -6.2717111E-03;  1.0022585E+03;  4.0025848E-01;  1.8711328E+03;3; -5.7632492E+01;  0.0000000E+00; -1.8069418E-01;0; -5.3848630E-01;  1.0043982E+04;  0.0000000E+00;  2.5732666E-06;  1.0000000E+04;  0.0000000E+00;  9.9882363E+03; -7.1422797E-01;  0.0000000E+00;  1.7574166E-01;  5.7874526E+03;
  5.7952631E-01;  9.9999998E-03; -2.0010494E-02;1942; -1.9820952E-01;  0.0000000E+00; -3.1234731E-03;  1.0022474E+03;  4.0025836E-01;  1.8618492E+03;3; -5.8117294E+01;  0.0000000E+00; -6.7402475E-02;0; -5.3744328E-01;  1.0043768E+04;  0.0000000E+00;  5.4736142E-07;  1.0000000E+04;  0.0000000E+00;  9.9882324E+03; -7.1318048E-01;  0.0000000E+00;  1.7573719E-01;  5.7895571E+03;
  5.9940737E-01;  9.9999998E-03; -1.8011756E-01;1965; -2.2350745E-01;  0.0000000E+00; -3.4406748E-02;  1.0031459E+03;  4.0066791E-01;  2.6063010E+03;3; -5.0901394E+01;  0.0000000E+00; -1.8098832E+00;0; -4.5958543E-01;  1.0043818E+04;  0.0000000E+00; -5.2782252E-05;  1.0000000E+04;  0.0000000E+00;  9.9856953E+03; -6.3672853E-01;  0.0000000E+00;  1.7714311E-01;  7.0430313E+03;
  5.9942043E-01;  9.9999998E-03; -1.6010669E-01;1966; -2.2241302E-01;  0.0000000E+00; -3.1223807E-02;  1.0031215E+03;  4.0066820E-01;  2.5860549E+03;3; -5.2564964E+01;  0.0000000E+00; -1.4011436E+00;0; -4.5592535E-01;  1.0042896E+04;  0.0000000E+00; -9.1382324E-05;  1.0000000E+04;  0.0000000E+00;  9.9861113E+03; -6.3712227E-01;  0.0000000E+00;  1.8119694E-01;  6.8278989E+03;
  5.9943300E-01;  9.9999998E-03; -1.4009462E-01;1967; -2.2116047E-01;  0.0000000E+00; -2.7550865E-02;  1.0030829E+03;  4.0066829E-01;  2.5541553E+03;3; -5.4276966E+01;  0.0000000E+00; -8.3328164E-01;0; -4.5072663E-01;  1.0042107E+04;  0.0000000E+00; -2.9423161E-06;  1.0000000E+04;  0.0000000E+00;  9.9861260E+03; -6.3803285E-01;  0.0000000E+00;  1.8730621E-01;  6.8108506E+03;
  5.9944451E-01;  9.9999998E-03; -1.2008151E-01;1968; -2.1976776E-01;  0.0000000E+00; -2.3575090E-02;  1.0030380E+03;  4.0066832E-01;  2.5169224E+03;3; -5.5897804E+01;  0.0000000E+00; -2.5833318E-01;0; -4.4494891E-01;  1.0041436E+04;  0.0000000E+00;  4.5884357E-05;  1.0000000E+04;  0.0000000E+00;  9.9858936E+03; -6.3902688E-01;  0.0000000E+00;  1.9407795E-01;  6.9146816E+03;
  5.9945464E-01;  9.9999998E-03; -1.0006787E-01;1969; -2.1832953E-01;  0.0000000E+00; -1.9486507E-02;  1.0029956E+03;  4.0066841E-01;  2.4817634E+03;3; -5.7400558E+01;  0.0000000E+00;  1.9152401E-01;0; -4.3947673E-01;  1.0040861E+04;  0.0000000E+00;  4.5248235E-05;  1.0000000E+04;  0.0000000E+00;  9.9856152E+03; -6.3970256E-01;  0.0000000E+00;  2.0022583E-01;  7.0447432E+03;
  5.9946316E-01;  9.9999998E-03; -8.0054156E-02;1970; -2.1694738E-01;  0.0000000E+00; -1.5437194E-02;  1.0029604E+03;  4.0066868E-01;  2.4526289E+03;3; -5.8709015E+01;  0.0000000E+00;  5.1576608E-01;0; -4.3478402E-01;  1.0040378E+04;  0.0000000E+00;  2.4948797E-05;  1.0000000E+04;  0.0000000E+00;  9.9853936E+03; -6.3990486E-01;  0.0000000E+00;  2.0512083E-01;  7.1466567E+03;
  5.9946996E-01;  9.9999998E-03; -6.0040578E-02;1971; -2.1571785E-01;  0.0000000E+00; -1.1493952E-02;  1.0029343E+03;  4.0066880E-01;  2.4310002E+03;3; -5.9780239E+01;  0.0000000E+00;  5.8195430E-01;0; -4.3094179E-01;  1.0039987E+04;  0.0000000E+00;  9.4619008E-06;  1.0000000E+04;  0.0000000E+00;  9.9852549E+03; -6.3968933E-01;  0.0000000E+00;  2.0874754E-01;  7.2087856E+03;
  5.9947497E-01;  9.9999998E-03; -4.0027104E-02;1972; -2.1474171E-01;  0.0000000E+00; -7.6382682E-03;  1.0029163E+03;  4.0066865E-01;  2.4159888E+03;3; -6.0586784E+01;  0.0000000E+00;  4.6051544E-01;0; -4.2795831E-01;  1.0039695E+04;  0.0000000E+00;  2.8123779E-06;  1.0000000E+04;  0.0000000E+00;  9.9851855E+03; -6.3925552E-01;  0.0000000E+00;  2.1129723E-01;  7.2414663E+03;
  5.9947801E-01;  9.9999998E-03; -2.0013589E-02;1973; -2.1412183E-01;  0.0000000E+00; -3.8120665E-03;  1.0029055E+03;  4.0066874E-01;  2.4071001E+03;3; -6.1134975E+01;  0.0000000E+00;  2.7791792E-01;0; -4.2600065E-01;  1.0039517E+04;  0.0000000E+00;  5.6943151E-07;  1.0000000E+04;  0.0000000E+00;  9.9851523E+03; -6.3885754E-01;  0.0000000E+00;  2.1285687E-01;  7.2569736E+03;
  6.1935812E-01;  9.9999998E-03; -1.8014598E-01;1996; -2.3768388E-01;  0.0000000E+00; -3.9845128E-02;  1.0047689E+03;  4.0160778E-01;  3.9509072E+03;3; -5.2518482E+01;  0.0000000E+00; -4.7012648E-01;0; -2.6272184E-01;  1.0033222E+04;  0.0000000E+00; -2.2089944E-04;  1.0000000E+04;  0.0000000E+00;  9.9818320E+03; -4.7187841E-01;  0.0000000E+00;  2.0915659E-01;  8.8756475E+03;
  6.1937261E-01;  9.9999998E-03; -1.6013303E-01;1997; -2.3656993E-01;  0.0000000E+00; -3.6333714E-02;  1.0047745E+03;  4.0160823E-01;  3.9555491E+03;3; -5.4367119E+01;  0.0000000E+00;  3.4906343E-02;0; -2.6424670E-01;  1.0032746E+04;  0.0000000E+00; -3.1933258E-04;  1.0000000E+04;  0.0000000E+00;  9.9824043E+03; -4.7753957E-01;  0.0000000E+00;  2.1329285E-01;  8.5862705E+03;
  6.1938608E-01;  9.9999998E-03; -1.4011833E-01;1998; -2.3537064E-01;  0.0000000E+00; -3.2264475E-02;  1.0047601E+03;  4.0160865E-01;  3.9435991E+03;3; -5.6259617E+01;  0.0000000E+00;  6.5187478E-01;0; -2.6301563E-01;  1.0032290E+04;  0.0000000E+00; -1.6296364E-04;  1.0000000E+04;  0.0000000E+00;  9.9825518E+03; -4.8234156E-01;  0.0000000E+00;  2.1932591E-01;  8.5041387E+03;
  6.1939830E-01;  9.9999998E-03; -1.2010214E-01;1999; -2.3402356E-01;  0.0000000E+00; -2.7831499E-02;  1.0047322E+03;  4.0160868E-01;  3.9203904E+03;3; -5.8023239E+01;  0.0000000E+00;  1.2330956E+00;0; -2.5971997E-01;  1.0031878E+04;  0.0000000E+00; -3.7705398E-05;  1.0000000E+04;  0.0000000E+00;  9.9823926E+03; -4.8649102E-01;  0.0000000E+00;  2.2677107E-01;  8.5731523E+03;
  6.1940897E-01;  9.9999998E-03; -1.0008529E-01;2000; -2.3259793E-01;  0.0000000E+00; -2.3233555E-02;  1.0047001E+03;  4.0160897E-01;  3.8938237E+03;3; -5.9599358E+01;  0.0000000E+00;  1.6721790E+00;0; -2.5504315E-01;  1.0031503E+04;  0.0000000E+00;  9.9071503E-06;  1.0000000E+04;  0.0000000E+00;  9.9821172E+03; -4.8985493E-01;  0.0000000E+00;  2.3481177E-01;  8.6998447E+03;
  6.1941803E-01;  9.9999998E-03; -8.0068335E-02;2001; -2.3121424E-01;  0.0000000E+00; -1.8610794E-02;  1.0046712E+03;  4.0160912E-01;  3.8699238E+03;3; -6.0983738E+01;  0.0000000E+00;  1.9285026E+00;0; -2.4961711E-01;  1.0031179E+04;  0.0000000E+00;  9.2080500E-06;  1.0000000E+04;  0.0000000E+00;  9.9818584E+03; -4.9232563E-01;  0.0000000E+00;  2.4270852E-01;  8.8180732E+03;
  6.1942536E-01;  9.9999998E-03; -6.0051341E-02;2002; -2.2996537E-01;  0.0000000E+00; -1.3992071E-02;  1.0046486E+03;  4.0160930E-01;  3.8511594E+03;3; -6.2119915E+01;  0.0000000E+00;  1.8054249E+00;0; -2.4408975E-01;  1.0030908E+04;  0.0000000E+00;  9.9609565E-07;  1.0000000E+04;  0.0000000E+00;  9.9816689E+03; -4.9394190E-01;  0.0000000E+00;  2.4985215E-01;  8.9023936E+03;
  6.1943078E-01;  9.9999998E-03; -4.0034346E-02;2003; -2.2895074E-01;  0.0000000E+00; -9.3552396E-03;  1.0046323E+03;  4.0160936E-01;  3.8377280E+03;3; -6.2991455E+01;  0.0000000E+00;  1.3476918E+00;0; -2.3919681E-01;  1.0030699E+04;  0.0000000E+00; -1.0408404E-06;  1.0000000E+04;  0.0000000E+00;  9.9815518E+03; -4.9486229E-01;  0.0000000E+00;  2.5566548E-01;  8.9549258E+03;
  6.1943406E-01;  9.9999998E-03; -2.0017257E-02;2004; -2.2828628E-01;  0.0000000E+00; -4.6905880E-03;  1.0046225E+03;  4.0160945E-01;  3.8295308E+03;3; -6.3512787E+01;  0.0000000E+00;  7.3125666E-01;0; -2.3576924E-01;  1.0030569E+04;  0.0000000E+00; -3.7335832E-07;  1.0000000E+04;  0.0000000E+00;  9.9814824E+03; -4.9529603E-01;  0.0000000E+00;  2.5952679E-01;  8.9840781E+03;
  6.3931650E-01;  9.9999998E-03; -1.8017790E-01;2027; -2.4926062E-01;  0.0000000E+00; -4.5477390E-02;  1.0079792E+03;  4.0333599E-01;  6.6104692E+03;3; -5.3747292E+01;  0.0000000E+00;  1.1964611E+00;0;  4.2245075E-02;  1.0015808E+04;  0.0000000E+00; -3.2063283E-04;  1.0000000E+04;  0.0000000E+00;  9.9772695E+03; -2.0342520E-01;  0.0000000E+00;  2.4567027E-01;  1.1022753E+04;
  6.3933200E-01;  9.9999998E-03; -1.6016199E-01;2028; -2.4815758E-01;  0.0000000E+00; -4.1469540E-02;  1.0080231E+03;  4.0333632E-01;  6.6468130E+03;3; -5.5735508E+01;  0.0000000E+00;  1.8412633E+00;0;  3.4958512E-02;  1.0015973E+04;  0.0000000E+00; -5.6769070E-04;  1.0000000E+04;  0.0000000E+00;  9.9779512E+03; -2.1641904E-01;  0.0000000E+00;  2.5137755E-01;  1.0678759E+04;
  6.3934606E-01;  9.9999998E-03; -1.4014405E-01;2029; -2.4704258E-01;  0.0000000E+00; -3.6988083E-02;  1.0080399E+03;  4.0333676E-01;  6.6606392E+03;3; -5.7730038E+01;  0.0000000E+00;  2.5236075E+00;0;  3.1714827E-02;  1.0015988E+04;  0.0000000E+00; -3.8196973E-04;  1.0000000E+04;  0.0000000E+00;  9.9782432E+03; -2.2649935E-01;  0.0000000E+00;  2.5821418E-01;  1.0528870E+04;
  6.3935870E-01;  9.9999998E-03; -1.2012430E-01;2030; -2.4580613E-01;  0.0000000E+00; -3.2204628E-02;  1.0080355E+03;  4.0333715E-01;  6.6569849E+03;3; -5.9571583E+01;  0.0000000E+00;  3.0604029E+00;0;  3.2237545E-02;  1.0015938E+04;  0.0000000E+00; -1.8941528E-04;  1.0000000E+04;  0.0000000E+00;  9.9781836E+03; -2.3467760E-01;  0.0000000E+00;  2.6691514E-01;  1.0547632E+04;
  6.3936996E-01;  9.9999998E-03; -1.0010366E-01;2031; -2.4444276E-01;  0.0000000E+00; -2.7149988E-02;  1.0080201E+03;  4.0333757E-01;  6.6443438E+03;3; -6.1236931E+01;  0.0000000E+00;  3.3796241E+00;0;  3.6144286E-02;  1.0015850E+04;  0.0000000E+00; -8.1819737E-05;  1.0000000E+04;  0.0000000E+00;  9.9779463E+03; -2.4129635E-01;  0.0000000E+00;  2.7744064E-01;  1.0652163E+04;
  6.3937962E-01;  9.9999998E-03; -8.0082968E-02;2032; -2.4305271E-01;  0.0000000E+00; -2.1901594E-02;  1.0080021E+03;  4.0333784E-01;  6.6294312E+03;3; -6.2673374E+01;  0.0000000E+00;  3.4012394E+00;0;  4.2737767E-02;  1.0015744E+04;  0.0000000E+00; -4.3927452E-05;  1.0000000E+04;  0.0000000E+00;  9.9776797E+03; -2.4642591E-01;  0.0000000E+00;  2.8916368E-01;  1.0771878E+04;
  6.3938743E-01;  9.9999998E-03; -6.0062353E-02;2033; -2.4179953E-01;  0.0000000E+00; -1.6550509E-02;  1.0079855E+03;  4.0333796E-01;  6.6157036E+03;3; -6.3864029E+01;  0.0000000E+00;  2.9270213E+00;0;  5.0754219E-02;  1.0015637E+04;  0.0000000E+00; -2.8151093E-05;  1.0000000E+04;  0.0000000E+00;  9.9774541E+03; -2.5014758E-01;  0.0000000E+00;  3.0090180E-01;  1.0870047E+04;
  6.3939321E-01;  9.9999998E-03; -4.0041789E-02;2034; -2.4075352E-01;  0.0000000E+00; -1.1075568E-02;  1.0079734E+03;  4.0333816E-01;  6.6056299E+03;3; -6.4745712E+01;  0.0000000E+00;  2.1807301E+00;0;  5.8482051E-02;  1.0015545E+04;  0.0000000E+00; -1.3971970E-05;  1.0000000E+04;  0.0000000E+00;  9.9772930E+03; -2.5260910E-01;  0.0000000E+00;  3.1109115E-01;  1.0939145E+04;
  6.3939667E-01;  9.9999998E-03; -2.0021008E-02;2035; -2.4007459E-01;  0.0000000E+00; -5.5475561E-03;  1.0079654E+03;  4.0333822E-01;  6.5990132E+03;3; -6.5195717E+01;  0.0000000E+00;  1.2295573E+00;0;  6.4099133E-02;  1.0015484E+04;  0.0000000E+00; -3.5037051E-06;  1.0000000E+04;  0.0000000E+00;  9.9771924E+03; -2.5398993E-01;  0.0000000E+00;  3.1808907E-01;  1.0981232E+04;
  6.5928656E-01;  9.9999998E-03; -1.8021628E-01;2058; -2.5749591E-01;  0.0000000E+00; -5.1896907E-02;  1.0119385E+03;  4.0552020E-01;  9.8904619E+03;3; -5.4528385E+01;  0.0000000E+00;  3.0941138E+00;0;  4.6662226E-01;  9.9911172E+03;  0.0000000E+00; -1.4218006E-04;  1.0000000E+04;  0.0000000E+00;  9.9723799E+03;  1.8386522E-01;  0.0000000E+00;  2.8275704E-01;  1.3303081E+04;
  6.5930235E-01;  9.9999998E-03; -1.6019583E-01;2059; -2.5653556E-01;  0.0000000E+00; -4.7007725E-02;  1.0120189E+03;  4.0552068E-01;  9.9570254E+03;3; -5.6654060E+01;  0.0000000E+00;  3.9990246E+00;0;  4.5604920E-01;  9.9920244E+03;  0.0000000E+00; -6.5248460E-04;  1.0000000E+04;  0.0000000E+00;  9.9730352E+03;  1.6320419E-01;  0.0000000E+00;  2.9284501E-01;  1.2969515E+04;
  6.5931654E-01;  9.9999998E-03; -1.4017396E-01;2060; -2.5554979E-01;  0.0000000E+00; -4.1998979E-02;  1.0120674E+03;  4.0552098E-01;  9.9972197E+03;3; -5.8760014E+01;  0.0000000E+00;  4.8726182E+00;0;  4.5009404E-01;  9.9926230E+03;  0.0000000E+00; -5.4428587E-04;  1.0000000E+04;  0.0000000E+00;  9.9733730E+03;  1.4739220E-01;  0.0000000E+00;  3.0270183E-01;  1.2793996E+04;
  6.5932918E-01;  9.9999998E-03; -1.2014978E-01;2061; -2.5444049E-01;  0.0000000E+00; -3.6646094E-02;  1.0120883E+03;  4.0552106E-01;  1.0014503E+04;3; -6.0676029E+01;  0.0000000E+00;  5.4584394E+00;0;  4.4919860E-01;  9.9930234E+03;  0.0000000E+00; -3.5539168E-04;  1.0000000E+04;  0.0000000E+00;  9.9733770E+03;  1.3485336E-01;  0.0000000E+00;  3.1434524E-01;  1.2781457E+04;
  6.5934044E-01;  9.9999998E-03; -1.0012474E-01;2062; -2.5322670E-01;  0.0000000E+00; -3.0999150E-02;  1.0120925E+03;  4.0552139E-01;  1.0017958E+04;3; -6.2365879E+01;  0.0000000E+00;  5.5707273E+00;0;  4.5346820E-01;  9.9932949E+03;  0.0000000E+00; -2.1564346E-04;  1.0000000E+04;  0.0000000E+00;  9.9731758E+03;  1.2478308E-01;  0.0000000E+00;  3.2868513E-01;  1.2865892E+04;
  6.5935034E-01;  9.9999998E-03; -8.0099933E-02;2063; -2.5193805E-01;  0.0000000E+00; -2.5170695E-02;  1.0120886E+03;  4.0552169E-01;  1.0014699E+04;3; -6.3783909E+01;  0.0000000E+00;  5.3742042E+00;0;  4.6233237E-01;  9.9934746E+03;  0.0000000E+00; -1.3593721E-04;  1.0000000E+04;  0.0000000E+00;  9.9729063E+03;  1.1689039E-01;  0.0000000E+00;  3.4544197E-01;  1.2981694E+04;
  6.5935844E-01;  9.9999998E-03; -6.0075410E-02;2064; -2.5075066E-01;  0.0000000E+00; -1.9215990E-02;  1.0120820E+03;  4.0552184E-01;  1.0009267E+04;3; -6.4989876E+01;  0.0000000E+00;  4.6128817E+00;0;  4.7402069E-01;  9.9935869E+03;  0.0000000E+00; -8.1767532E-05;  1.0000000E+04;  0.0000000E+00;  9.9726494E+03;  1.1101342E-01;  0.0000000E+00;  3.6300728E-01;  1.3088231E+04;
  6.5936434E-01;  9.9999998E-03; -4.0050708E-02;2065; -2.4975380E-01;  0.0000000E+00; -1.2984904E-02;  1.0120751E+03;  4.0552199E-01;  1.0003638E+04;3; -6.5813828E+01;  0.0000000E+00;  3.4620266E+00;0;  4.8573089E-01;  9.9936504E+03;  0.0000000E+00; -3.7965354E-05;  1.0000000E+04;  0.0000000E+00;  9.9724473E+03;  1.0698906E-01;  0.0000000E+00;  3.7874183E-01;  1.3170995E+04;
  6.5936792E-01;  9.9999998E-03; -2.0025512E-02;2066; -2.4911553E-01;  0.0000000E+00; -6.5277717E-03;  1.0120699E+03;  4.0552199E-01;  9.9992920E+03;3; -6.6313133E+01;  0.0000000E+00;  1.8290905E+00;0;  4.9439162E-01;  9.9936797E+03;  0.0000000E+00; -9.4217721E-06;  1.0000000E+04;  0.0000000E+00;  9.9723105E+03;  1.0465340E-01;  0.0000000E+00;  3.8973823E-01;  1.3225120E+04;
  6.7927563E-01;  9.9999998E-03; -1.8026957E-01;2089; -2.6040754E-01;  0.0000000E+00; -6.2664047E-02;  1.0145350E+03;  4.0727481E-01;  1.2041342E+04;3; -5.4645531E+01;  0.0000000E+00;  4.8530850E+00;0;  9.9038517E-01;  9.9607119E+03;  0.0000000E+00;  3.5595748E-04;  1.0000000E+04;  0.0000000E+00;  9.9676660E+03;  6.7474604E-01;  0.0000000E+00;  3.1563911E-01;  1.5473504E+04;
  6.7929107E-01;  9.9999998E-03; -1.6024265E-01;2090; -2.5968647E-01;  0.0000000E+00; -5.6280173E-02;  1.0146386E+03;  4.0727472E-01;  1.2127162E+04;3; -5.7007656E+01;  0.0000000E+00;  6.2082353E+00;0;  9.8239589E-01;  9.9623203E+03;  0.0000000E+00; -4.3835337E-04;  1.0000000E+04;  0.0000000E+00;  9.9680967E+03;  6.4890474E-01;  0.0000000E+00;  3.3349115E-01;  1.5247685E+04;
  6.7930466E-01;  9.9999998E-03; -1.4021546E-01;2091; -2.5899586E-01;  0.0000000E+00; -5.0432436E-02;  1.0147103E+03;  4.0727460E-01;  1.2186515E+04;3; -5.9249290E+01;  0.0000000E+00;  7.3643475E+00;0;  9.7822464E-01;  9.9635225E+03;  0.0000000E+00; -5.2081392E-04;  1.0000000E+04;  0.0000000E+00;  9.9683096E+03;  6.2869596E-01;  0.0000000E+00;  3.4952864E-01;  1.5129824E+04;
  6.7931670E-01;  9.9999998E-03; -1.2018602E-01;2092; -2.5821239E-01;  0.0000000E+00; -4.4465702E-02;  1.0147532E+03;  4.0727451E-01;  1.2222065E+04;3; -6.1286381E+01;  0.0000000E+00;  8.0555363E+00;0;  9.7921556E-01;  9.9644277E+03;  0.0000000E+00; -4.3766398E-04;  1.0000000E+04;  0.0000000E+00;  9.9682588E+03;  6.1255598E-01;  0.0000000E+00;  3.6665958E-01;  1.5140271E+04;
  6.7932761E-01;  9.9999998E-03; -1.0015561E-01;2093; -2.5727153E-01;  0.0000000E+00; -3.8220435E-02;  1.0147770E+03;  4.0727451E-01;  1.2241718E+04;3; -6.3103268E+01;  0.0000000E+00;  8.1664648E+00;0;  9.8627985E-01;  9.9651133E+03;  0.0000000E+00; -3.2869424E-04;  1.0000000E+04;  0.0000000E+00;  9.9680293E+03;  5.9953523E-01;  0.0000000E+00;  3.8674459E-01;  1.5231887E+04;
  6.7933708E-01;  9.9999998E-03; -8.0125451E-02;2094; -2.5625163E-01;  0.0000000E+00; -3.1776428E-02;  1.0147881E+03;  4.0727448E-01;  1.2251001E+04;3; -6.4550713E+01;  0.0000000E+00;  7.7586708E+00;0;  9.9925339E-01;  9.9656299E+03;  0.0000000E+00; -2.3064425E-04;  1.0000000E+04;  0.0000000E+00;  9.9677363E+03;  5.8923221E-01;  0.0000000E+00;  4.1002122E-01;  1.5353019E+04;
  6.7934483E-01;  9.9999998E-03; -6.0095385E-02;2095; -2.5533614E-01;  0.0000000E+00; -2.4878426E-02;  1.0147926E+03;  4.0727451E-01;  1.2254655E+04;3; -6.5748459E+01;  0.0000000E+00;  6.5927367E+00;0;  1.0160933E+00;  9.9660059E+03;  0.0000000E+00; -1.4088785E-04;  1.0000000E+04;  0.0000000E+00;  9.9674482E+03;  5.8145386E-01;  0.0000000E+00;  4.3463939E-01;  1.5469095E+04;
  6.7935055E-01;  9.9999998E-03; -4.0064756E-02;2096; -2.5462985E-01;  0.0000000E+00; -1.7298544E-02;  1.0147928E+03;  4.0727445E-01;  1.2254853E+04;3; -6.6612686E+01;  0.0000000E+00;  4.8520532E+00;0;  1.0329773E+00;  9.9662617E+03;  0.0000000E+00; -6.4903179E-05;  1.0000000E+04;  0.0000000E+00;  9.9672012E+03;  5.7604671E-01;  0.0000000E+00;  4.5693067E-01;  1.5564888E+04;
  6.7935401E-01;  9.9999998E-03; -2.0032847E-02;2097; -2.5424695E-01;  0.0000000E+00; -8.9522004E-03;  1.0147913E+03;  4.0727440E-01;  1.2253668E+04;3; -6.7222443E+01;  0.0000000E+00;  2.5216522E+00;0;  1.0454981E+00;  9.9664033E+03;  0.0000000E+00; -1.6109181E-05;  1.0000000E+04;  0.0000000E+00;  9.9670313E+03;  5.7286966E-01;  0.0000000E+00;  4.7262841E-01;  1.5630781E+04;
  6.9929910E-01;  9.9999998E-03; -1.8034266E-01;2120; -2.5350770E-01;  0.0000000E+00; -8.2442380E-02;  1.0151053E+03;  4.0824094E-01;  1.2513545E+04;3; -5.3449600E+01;  0.0000000E+00;  5.0557380E+00;0;  1.5520329E+00;  9.9286523E+03;  0.0000000E+00;  8.5109536E-04;  1.0000000E+04;  0.0000000E+00;  9.9636553E+03;  1.2116451E+00;  0.0000000E+00;  3.4038785E-01;  1.7300398E+04;
  6.9931263E-01;  9.9999998E-03; -1.6030757E-01;2121; -2.5362521E-01;  0.0000000E+00; -7.3846810E-02;  1.0152130E+03;  4.0824023E-01;  1.2602721E+04;3; -5.6218159E+01;  0.0000000E+00;  7.2028456E+00;0;  1.5542028E+00;  9.9307813E+03;  0.0000000E+00; -4.5892593E-05;  1.0000000E+04;  0.0000000E+00;  9.9636543E+03;  1.1857524E+00;  0.0000000E+00;  3.6845034E-01;  1.7275916E+04;
  6.9932365E-01;  9.9999998E-03; -1.4027162E-01;2122; -2.5398391E-01;  0.0000000E+00; -6.5927692E-02;  1.0152936E+03;  4.0823990E-01;  1.2669479E+04;3; -5.8788620E+01;  0.0000000E+00;  8.8074236E+00;0;  1.5580177E+00;  9.9325029E+03;  0.0000000E+00; -3.1143473E-04;  1.0000000E+04;  0.0000000E+00;  9.9635371E+03;  1.1643510E+00;  0.0000000E+00;  3.9366668E-01;  1.7313135E+04;
  6.9933289E-01;  9.9999998E-03; -1.2023316E-01;2123; -2.5442249E-01;  0.0000000E+00; -5.8315869E-02;  1.0153503E+03;  4.0823954E-01;  1.2716486E+04;3; -6.0920456E+01;  0.0000000E+00;  9.5752621E+00;0;  1.5654464E+00;  9.9338955E+03;  0.0000000E+00; -3.7448076E-04;  1.0000000E+04;  0.0000000E+00;  9.9632764E+03;  1.1465716E+00;  0.0000000E+00;  4.1887474E-01;  1.7419945E+04;
  6.9934177E-01;  9.9999998E-03; -1.0019433E-01;2124; -2.5442046E-01;  0.0000000E+00; -5.0735772E-02;  1.0153890E+03;  4.0823910E-01;  1.2748581E+04;3; -6.2724209E+01;  0.0000000E+00;  9.3921413E+00;0;  1.5784794E+00;  9.9350156E+03;  0.0000000E+00; -3.4321463E-04;  1.0000000E+04;  0.0000000E+00;  9.9629287E+03;  1.1318178E+00;  0.0000000E+00;  4.4666156E-01;  1.7564213E+04;
  6.9935018E-01;  9.9999998E-03; -8.0156311E-02;2125; -2.5413173E-01;  0.0000000E+00; -4.2866297E-02;  1.0154150E+03;  4.0823901E-01;  1.2770012E+04;3; -6.4356857E+01;  0.0000000E+00;  8.3947153E+00;0;  1.5976450E+00;  9.9359053E+03;  0.0000000E+00; -2.6418755E-04;  1.0000000E+04;  0.0000000E+00;  9.9625596E+03;  1.1198502E+00;  0.0000000E+00;  4.7779495E-01;  1.7713830E+04;
  6.9935727E-01;  9.9999998E-03; -6.0118597E-02;2126; -2.5379762E-01;  0.0000000E+00; -3.3933770E-02;  1.0154313E+03;  4.0823877E-01;  1.2783541E+04;3; -6.5878723E+01;  0.0000000E+00;  6.8036408E+00;0;  1.6209359E+00;  9.9365791E+03;  0.0000000E+00; -1.6552469E-04;  1.0000000E+04;  0.0000000E+00;  9.9622119E+03;  1.1106002E+00;  0.0000000E+00;  5.1033568E-01;  1.7849436E+04;
  6.9936258E-01;  9.9999998E-03; -4.0080324E-02;2127; -2.5353357E-01;  0.0000000E+00; -2.3699144E-02;  1.0154398E+03;  4.0823862E-01;  1.2790651E+04;3; -6.7079933E+01;  0.0000000E+00;  4.7855606E+00;0;  1.6437893E+00;  9.9370518E+03;  0.0000000E+00; -7.6468204E-05;  1.0000000E+04;  0.0000000E+00;  9.9619180E+03;  1.1040456E+00;  0.0000000E+00;  5.3974372E-01;  1.7962273E+04;
  6.9936568E-01;  9.9999998E-03; -2.0040728E-02;2128; -2.5344604E-01;  0.0000000E+00; -1.2208926E-02;  1.0154434E+03;  4.0823841E-01;  1.2793613E+04;3; -6.7826897E+01;  0.0000000E+00;  2.5422869E+00;0;  1.6606064E+00;  9.9373340E+03;  0.0000000E+00; -1.9017307E-05;  1.0000000E+04;  0.0000000E+00;  9.9617070E+03;  1.1001422E+00;  0.0000000E+00;  5.6046420E-01;  1.8041564E+04;
  7.1940386E-01;  9.9999998E-03; -1.8042412E-01;2151; -2.2462200E-01;  0.0000000E+00; -1.1361590E-01;  1.0145917E+03;  4.0866625E-01;  1.2087682E+04;3; -4.7950325E+01;  0.0000000E+00;  6.6926253E-01;0;  2.0554731E+00;  9.9008643E+03;  0.0000000E+00;  9.4339118E-04;  1.0000000E+04;  0.0000000E+00;  9.9606787E+03;  1.6996911E+00;  0.0000000E+00;  3.5578200E-01;  1.8637809E+04;
  7.1941662E-01;  9.9999998E-03; -1.6038319E-01;2152; -2.2532147E-01;  0.0000000E+00; -1.0397083E-01;  1.0146851E+03;  4.0866539E-01;  1.2165104E+04;3; -5.0974579E+01;  0.0000000E+00;  3.1156836E+00;0;  2.0736732E+00;  9.9032393E+03;  0.0000000E+00;  2.3650078E-04;  1.0000000E+04;  0.0000000E+00;  9.9601602E+03;  1.6798775E+00;  0.0000000E+00;  3.9379582E-01;  1.8861607E+04;
  7.1942860E-01;  9.9999998E-03; -1.4033772E-01;2153; -2.2620490E-01;  0.0000000E+00; -9.3615949E-02;  1.0147610E+03;  4.0866488E-01;  1.2227910E+04;3; -5.4223969E+01;  0.0000000E+00;  4.8393869E+00;0;  2.0908158E+00;  9.9053379E+03;  0.0000000E+00; -6.1191065E-05;  1.0000000E+04;  0.0000000E+00;  9.9595645E+03;  1.6613797E+00;  0.0000000E+00;  4.2943615E-01;  1.9122633E+04;
  7.1943986E-01;  9.9999998E-03; -1.2028734E-01;2154; -2.2684696E-01;  0.0000000E+00; -8.2294963E-02;  1.0148219E+03;  4.0866426E-01;  1.2278371E+04;3; -5.7533287E+01;  0.0000000E+00;  5.5293970E+00;0;  2.1087301E+00;  9.9071514E+03;  0.0000000E+00; -1.9992051E-04;  1.0000000E+04;  0.0000000E+00;  9.9589580E+03;  1.6445622E+00;  0.0000000E+00;  4.6416777E-01;  1.9389807E+04;
  7.1945065E-01;  9.9999998E-03; -1.0023709E-01;2155; -2.2662075E-01;  0.0000000E+00; -7.0548110E-02;  1.0148707E+03;  4.0866369E-01;  1.2318860E+04;3; -6.0434357E+01;  0.0000000E+00;  5.5375276E+00;0;  2.1304247E+00;  9.9086865E+03;  0.0000000E+00; -2.3511786E-04;  1.0000000E+04;  0.0000000E+00;  9.9583926E+03;  1.6295781E+00;  0.0000000E+00;  5.0084662E-01;  1.9635777E+04;
  7.1946043E-01;  9.9999998E-03; -8.0189012E-02;2156; -2.2572380E-01;  0.0000000E+00; -5.8483142E-02;  1.0149088E+03;  4.0866357E-01;  1.2350362E+04;3; -6.2743412E+01;  0.0000000E+00;  5.0466394E+00;0;  2.1572387E+00;  9.9099570E+03;  0.0000000E+00; -1.9925747E-04;  1.0000000E+04;  0.0000000E+00;  9.9578809E+03;  1.6166826E+00;  0.0000000E+00;  5.4055613E-01;  1.9846531E+04;
  7.1946865E-01;  9.9999998E-03; -6.0142614E-02;2157; -2.2456124E-01;  0.0000000E+00; -4.5695800E-02;  1.0149363E+03;  4.0866303E-01;  1.2373174E+04;3; -6.4575836E+01;  0.0000000E+00;  4.1069636E+00;0;  2.1875224E+00;  9.9109482E+03;  0.0000000E+00; -1.2859955E-04;  1.0000000E+04;  0.0000000E+00;  9.9574355E+03;  1.6062144E+00;  0.0000000E+00;  5.8130789E-01;  2.0021713E+04;
  7.1947497E-01;  9.9999998E-03; -4.0096279E-02;2158; -2.2342815E-01;  0.0000000E+00; -3.1658325E-02;  1.0149533E+03;  4.0866271E-01;  1.2387196E+04;3; -6.5803497E+01;  0.0000000E+00;  2.9209864E+00;0;  2.2163754E+00;  9.9116621E+03;  0.0000000E+00; -5.9452155E-05;  1.0000000E+04;  0.0000000E+00;  9.9570654E+03;  1.5985057E+00;  0.0000000E+00;  6.1786956E-01;  2.0163443E+04;
  7.1947896E-01;  9.9999998E-03; -2.0048730E-02;2159; -2.2264732E-01;  0.0000000E+00; -1.6276708E-02;  1.0149618E+03;  4.0866259E-01;  1.2394307E+04;3; -6.6553650E+01;  0.0000000E+00;  1.5166186E+00;0;  2.2373619E+00;  9.9120928E+03;  0.0000000E+00; -1.4638427E-05;  1.0000000E+04;  0.0000000E+00;  9.9568047E+03;  1.5937982E+00;  0.0000000E+00;  6.4356387E-01;  2.0262383E+04;
  7.3961449E-01;  9.9999998E-03; -1.8044628E-01;2182; -1.4661768E-01;  0.0000000E+00; -1.1725660E-01;  1.0139962E+03;  4.0883443E-01;  1.1593986E+04;3; -3.0975248E+01;  0.0000000E+00;  2.6738994E+00;0;  2.3984485E+00;  9.8828965E+03;  0.0000000E+00;  6.4215943E-04;  1.0000000E+04;  0.0000000E+00;  9.9588555E+03;  2.0367272E+00;  0.0000000E+00;  3.6172116E-01;  1.9447170E+04;
  7.3962218E-01;  9.9999998E-03; -1.6040581E-01;2183; -1.4800219E-01;  0.0000000E+00; -1.0833064E-01;  1.0140613E+03;  4.0883386E-01;  1.1647902E+04;3; -3.3509430E+01;  0.0000000E+00;  5.1228366E+00;0;  2.4357371E+00;  9.8852490E+03;  0.0000000E+00;  2.7886278E-04;  1.0000000E+04;  0.0000000E+00;  9.9578115E+03;  2.0273316E+00;  0.0000000E+00;  4.0840548E-01;  1.9923027E+04;
  7.3963034E-01;  9.9999998E-03; -1.4035897E-01;2184; -1.4899440E-01;  0.0000000E+00; -9.7985394E-02;  1.0141226E+03;  4.0883300E-01;  1.1698659E+04;3; -3.6191902E+01;  0.0000000E+00;  6.7735219E+00;0;  2.4675293E+00;  9.8875410E+03;  0.0000000E+00;  9.5014053E-05;  1.0000000E+04;  0.0000000E+00;  9.9567344E+03;  2.0146754E+00;  0.0000000E+00;  4.5285401E-01;  2.0414613E+04;
  7.3963839E-01;  9.9999998E-03; -1.2030641E-01;2185; -1.4955829E-01;  0.0000000E+00; -8.6334869E-02;  1.0141790E+03;  4.0883240E-01;  1.1745368E+04;3; -3.8794140E+01;  0.0000000E+00;  7.4642992E+00;0;  2.4969835E+00;  9.8896650E+03;  0.0000000E+00; -1.9492521E-05;  1.0000000E+04;  0.0000000E+00;  9.9557383E+03;  2.0006356E+00;  0.0000000E+00;  4.9634784E-01;  2.0868072E+04;
  7.3964590E-01;  9.9999998E-03; -1.0025392E-01;2186; -1.4967617E-01;  0.0000000E+00; -7.4450947E-02;  1.0142308E+03;  4.0883186E-01;  1.1788323E+04;3; -4.1150311E+01;  0.0000000E+00;  7.2820110E+00;0;  2.5280905E+00;  9.8915479E+03;  0.0000000E+00; -7.5079675E-05;  1.0000000E+04;  0.0000000E+00;  9.9548760E+03;  1.9865037E+00;  0.0000000E+00;  5.4158688E-01;  2.1248381E+04;
  7.3965269E-01;  9.9999998E-03; -8.0203377E-02;2187; -1.4940821E-01;  0.0000000E+00; -6.2208120E-02;  1.0142753E+03;  4.0883142E-01;  1.1825156E+04;3; -4.3156231E+01;  0.0000000E+00;  6.4407110E+00;0;  2.5628736E+00;  9.8931396E+03;  0.0000000E+00; -7.9370926E-05;  1.0000000E+04;  0.0000000E+00;  9.9541641E+03;  1.9732850E+00;  0.0000000E+00;  5.8958864E-01;  2.1550563E+04;
  7.3965847E-01;  9.9999998E-03; -6.0154080E-02;2188; -1.4888832E-01;  0.0000000E+00; -4.8942540E-02;  1.0143099E+03;  4.0883085E-01;  1.1853793E+04;3; -4.4751213E+01;  0.0000000E+00;  5.1620412E+00;0;  2.6000268E+00;  9.8944199E+03;  0.0000000E+00; -5.4389719E-05;  1.0000000E+04;  0.0000000E+00;  9.9535742E+03;  1.9618857E+00;  0.0000000E+00;  6.3814116E-01;  2.1789199E+04;
  7.3966300E-01;  9.9999998E-03; -4.0104337E-02;2189; -1.4830440E-01;  0.0000000E+00; -3.4090061E-02;  1.0143325E+03;  4.0883058E-01;  1.1872555E+04;3; -4.5903740E+01;  0.0000000E+00;  3.5974274E+00;0;  2.6344655E+00;  9.8953496E+03;  0.0000000E+00; -2.4921643E-05;  1.0000000E+04;  0.0000000E+00;  9.9530977E+03;  1.9531019E+00;  0.0000000E+00;  6.8136364E-01;  2.1976297E+04;
  7.3966593E-01;  9.9999998E-03; -2.0052901E-02;2190; -1.4785367E-01;  0.0000000E+00; -1.7578386E-02;  1.0143444E+03;  4.0883049E-01;  1.1882430E+04;3; -4.6599453E+01;  0.0000000E+00;  1.8466583E+00;0;  2.6591918E+00;  9.8959160E+03;  0.0000000E+00; -5.9508689E-06;  1.0000000E+04;  0.0000000E+00;  9.9527646E+03;  1.9475629E+00;  0.0000000E+00;  7.1162891E-01;  2.2104344E+04;
  7.5978434E-01;  9.9999998E-03; -1.8045288E-01;2213; -8.3765902E-02;  0.0000000E+00; -1.1449623E-01;  1.0137750E+03;  4.0889782E-01;  1.1410141E+04;3; -1.8284557E+01;  0.0000000E+00;  6.1392131E+00;0;  2.5430074E+00;  9.8764961E+03;  0.0000000E+00;  2.6383498E-04;  1.0000000E+04;  0.0000000E+00;  9.9579150E+03;  2.1790683E+00;  0.0000000E+00;  3.6393893E-01;  1.9867164E+04;
  7.5978702E-01;  9.9999998E-03; -1.6041480E-01;2214; -8.5659593E-02;  0.0000000E+00; -1.0689516E-01;  1.0138111E+03;  4.0889710E-01;  1.1440061E+04;3; -2.0123018E+01;  0.0000000E+00;  8.3935280E+00;0;  2.5953727E+00;  9.8786230E+03;  0.0000000E+00;  1.6961698E-04;  1.0000000E+04;  0.0000000E+00;  9.9565273E+03;  2.1807821E+00;  0.0000000E+00;  4.1459072E-01;  2.0508406E+04;
  7.5979054E-01;  9.9999998E-03; -1.4036913E-01;2215; -8.7252572E-02;  0.0000000E+00; -9.7660407E-02;  1.0138535E+03;  4.0889645E-01;  1.1475113E+04;3; -2.2152134E+01;  0.0000000E+00;  9.7461472E+00;0;  2.6389389E+00;  9.8809150E+03;  0.0000000E+00;  1.1469146E-04;  1.0000000E+04;  0.0000000E+00;  9.9550811E+03;  2.1748793E+00;  0.0000000E+00;  4.6405947E-01;  2.1178191E+04;
  7.5979429E-01;  9.9999998E-03; -1.2031681E-01;2216; -8.8497877E-02;  0.0000000E+00; -8.6913548E-02;  1.0138991E+03;  4.0889579E-01;  1.1512933E+04;3; -2.4198132E+01;  0.0000000E+00;  1.0034759E+01;0;  2.6782632E+00;  9.8831719E+03;  0.0000000E+00;  6.3391148E-05;  1.0000000E+04;  0.0000000E+00;  9.9537314E+03;  2.1646271E+00;  0.0000000E+00;  5.1363623E-01;  2.1798102E+04;
  7.5979805E-01;  9.9999998E-03; -1.0026385E-01;2217; -8.9358769E-02;  0.0000000E+00; -7.5669155E-02;  1.0139459E+03;  4.0889513E-01;  1.1551640E+04;3; -2.6116264E+01;  0.0000000E+00;  9.4085550E+00;0;  2.7180152E+00;  9.8852490E+03;  0.0000000E+00;  2.4971740E-05;  1.0000000E+04;  0.0000000E+00;  9.9525850E+03;  2.1524551E+00;  0.0000000E+00;  5.6556022E-01;  2.2314531E+04;
  7.5980169E-01;  9.9999998E-03; -8.0212265E-02;2218; -8.9846984E-02;  0.0000000E+00; -6.3764773E-02;  1.0139890E+03;  4.0889463E-01;  1.1587386E+04;3; -2.7800962E+01;  0.0000000E+00;  8.1206913E+00;0;  2.7604809E+00;  9.8870449E+03;  0.0000000E+00;  5.9426116E-06;  1.0000000E+04;  0.0000000E+00;  9.9516484E+03;  2.1400728E+00;  0.0000000E+00;  6.2040812E-01;  2.2720266E+04;
  7.5980490E-01;  9.9999998E-03; -6.0161427E-02;2219; -9.0026148E-02;  0.0000000E+00; -5.0515540E-02;  1.0140240E+03;  4.0889412E-01;  1.1616416E+04;3; -2.9175543E+01;  0.0000000E+00;  6.4056373E+00;0;  2.8043275E+00;  9.8885010E+03;  0.0000000E+00;  1.0210707E-06;  1.0000000E+04;  0.0000000E+00;  9.9508857E+03;  2.1288235E+00;  0.0000000E+00;  6.7550397E-01;  2.3036568E+04;
  7.5980747E-01;  9.9999998E-03; -4.0109623E-02;2220; -9.0009339E-02;  0.0000000E+00; -3.5361294E-02;  1.0140472E+03;  4.0889394E-01;  1.1635671E+04;3; -3.0188139E+01;  0.0000000E+00;  4.4181833E+00;0;  2.8441429E+00;  9.8895723E+03;  0.0000000E+00;  1.0201850E-06;  1.0000000E+04;  0.0000000E+00;  9.9502803E+03;  2.1198387E+00;  0.0000000E+00;  7.2430420E-01;  2.3280568E+04;
  7.5980920E-01;  9.9999998E-03; -2.0055676E-02;2221; -8.9928523E-02;  0.0000000E+00; -1.8287297E-02;  1.0140596E+03;  4.0889367E-01;  1.1645842E+04;3; -3.0807182E+01;  0.0000000E+00;  2.2547455E+00;0;  2.8724093E+00;  9.8902285E+03;  0.0000000E+00;  5.8539456E-07;  1.0000000E+04;  0.0000000E+00;  9.9498691E+03;  2.1140375E+00;  0.0000000E+00;  7.5837195E-01;  2.3444799E+04;
  7.7991086E-01;  9.9999998E-03; -1.8045282E-01;2244; -3.8234018E-02;  0.0000000E+00; -1.1116732E-01;  1.0139333E+03;  4.0892056E-01;  1.1540497E+04;3; -1.0252885E+01;  0.0000000E+00;  8.5303555E+00;0;  2.5377166E+00;  9.8788779E+03;  0.0000000E+00;  4.2891272E-05;  1.0000000E+04;  0.0000000E+00;  9.9575361E+03;  2.1710932E+00;  0.0000000E+00;  3.6662346E-01;  2.0038949E+04;
  7.7991045E-01;  9.9999998E-03; -1.6041686E-01;2245; -3.9809242E-02;  0.0000000E+00; -1.0447114E-01;  1.0139492E+03;  4.0891987E-01;  1.1553629E+04;3; -1.1185363E+01;  0.0000000E+00;  1.0746189E+01;0;  2.5971534E+00;  9.8807236E+03;  0.0000000E+00;  5.4897610E-05;  1.0000000E+04;  0.0000000E+00;  9.9560244E+03;  2.1805723E+00;  0.0000000E+00;  4.1658124E-01;  2.0738121E+04;
  7.7991062E-01;  9.9999998E-03; -1.4037256E-01;2246; -4.1303761E-02;  0.0000000E+00; -9.6065119E-02;  1.0139755E+03;  4.0891919E-01;  1.1575450E+04;3; -1.2340093E+01;  0.0000000E+00;  1.1971986E+01;0;  2.6466007E+00;  9.8829004E+03;  0.0000000E+00;  5.9529000E-05;  1.0000000E+04;  0.0000000E+00;  9.9543799E+03;  2.1796775E+00;  0.0000000E+00;  4.6692324E-01;  2.1504074E+04;
  7.7991122E-01;  9.9999998E-03; -1.2032093E-01;2247; -4.2650353E-02;  0.0000000E+00; -8.6032003E-02;  1.0140088E+03;  4.0891847E-01;  1.1602997E+04;3; -1.3605031E+01;  0.0000000E+00;  1.2050980E+01;0;  2.6917419E+00;  9.8851465E+03;  0.0000000E+00;  5.0812185E-05;  1.0000000E+04;  0.0000000E+00;  9.9528018E+03;  2.1726439E+00;  0.0000000E+00;  5.1909810E-01;  2.2236732E+04;
  7.7991199E-01;  9.9999998E-03; -1.0026819E-01;2248; -4.3777287E-02;  0.0000000E+00; -7.5356245E-02;  1.0140461E+03;  4.0891799E-01;  1.1634001E+04;3; -1.4868993E+01;  0.0000000E+00;  1.1161461E+01;0;  2.7374976E+00;  9.8872646E+03;  0.0000000E+00;  3.6967074E-05;  1.0000000E+04;  0.0000000E+00;  9.9514307E+03;  2.1626506E+00;  0.0000000E+00;  5.7484692E-01;  2.2859770E+04;
  7.7991301E-01;  9.9999998E-03; -8.0216438E-02;2249; -4.4638563E-02;  0.0000000E+00; -6.3858479E-02;  1.0140823E+03;  4.0891737E-01;  1.1663918E+04;3; -1.6036236E+01;  0.0000000E+00;  9.5726738E+00;0;  2.7859607E+00;  9.8891182E+03;  0.0000000E+00;  2.4480301E-05;  1.0000000E+04;  0.0000000E+00;  9.9502988E+03;  2.1518056E+00;  0.0000000E+00;  6.3415509E-01;  2.3356268E+04;
  7.7991402E-01;  9.9999998E-03; -6.0165066E-02;2250; -4.5225453E-02;  0.0000000E+00; -5.0834935E-02;  1.0141118E+03;  4.0891695E-01;  1.1688307E+04;3; -1.7025745E+01;  0.0000000E+00;  7.5244575E+00;0;  2.8353899E+00;  9.8906299E+03;  0.0000000E+00;  1.4902091E-05;  1.0000000E+04;  0.0000000E+00;  9.9493779E+03;  2.1416183E+00;  0.0000000E+00;  6.9377154E-01;  2.3746434E+04;
  7.7991498E-01;  9.9999998E-03; -4.0112343E-02;2251; -4.5574121E-02;  0.0000000E+00; -3.5715055E-02;  1.0141315E+03;  4.0891674E-01;  1.1704598E+04;3; -1.7775089E+01;  0.0000000E+00;  5.1788721E+00;0;  2.8798132E+00;  9.8917451E+03;  0.0000000E+00;  7.4869026E-06;  1.0000000E+04;  0.0000000E+00;  9.9486484E+03;  2.1333051E+00;  0.0000000E+00;  7.4650812E-01;  2.4046869E+04;
  7.7991563E-01;  9.9999998E-03; -2.0057138E-02;2252; -4.5746014E-02;  0.0000000E+00; -1.8511510E-02;  1.0141410E+03;  4.0891641E-01;  1.1712497E+04;3; -1.8241396E+01;  0.0000000E+00;  2.6397800E+00;0;  2.9111362E+00;  9.8924336E+03;  0.0000000E+00;  2.1022900E-06;  1.0000000E+04;  0.0000000E+00;  9.9481572E+03;  2.1278570E+00;  0.0000000E+00;  7.8327906E-01;  2.4247504E+04;
  8.0001420E-01;  9.9999998E-03; -1.8044916E-01;2275; -7.9433282E-04;  0.0000000E+00; -1.0859541E-01;  1.0142974E+03;  4.0892705E-01;  1.1840965E+04;3; -3.6348388E+00;  0.0000000E+00;  9.4909821E+00;0;  2.4591649E+00;  9.8856992E+03;  0.0000000E+00; -7.9656784E-06;  1.0000000E+04;  0.0000000E+00;  9.9574688E+03;  2.0876317E+00;  0.0000000E+00;  3.7153307E-01;  2.0060004E+04;
  8.0001163E-01;  9.9999998E-03; -1.6041441E-01;2276; -1.8037052E-03;  0.0000000E+00; -1.0219392E-01;  1.0143066E+03;  4.0892631E-01;  1.1848567E+04;3; -3.7256234E+00;  0.0000000E+00;  1.1833502E+01;0;  2.5167348E+00;  9.8873486E+03;  0.0000000E+00;  3.2272715E-06;  1.0000000E+04;  0.0000000E+00;  9.9560273E+03;  2.0988705E+00;  0.0000000E+00;  4.1786438E-01;  2.0729311E+04;
  8.0000943E-01;  9.9999998E-03; -1.4037111E-01;2277; -2.9270935E-03;  0.0000000E+00; -9.4140306E-02;  1.0143254E+03;  4.0892562E-01;  1.1864166E+04;3; -4.0159321E+00;  0.0000000E+00;  1.3126429E+01;0;  2.5649462E+00;  9.8894121E+03;  0.0000000E+00;  1.0134786E-05;  1.0000000E+04;  0.0000000E+00;  9.9543594E+03;  2.0990336E+00;  0.0000000E+00;  4.6591267E-01;  2.1510398E+04;
  8.0000752E-01;  9.9999998E-03; -1.2032023E-01;2278; -4.0828101E-03;  0.0000000E+00; -8.4462464E-02;  1.0143502E+03;  4.0892491E-01;  1.1884703E+04;3; -4.4604096E+00;  0.0000000E+00;  1.3215232E+01;0;  2.6103637E+00;  9.8915830E+03;  0.0000000E+00;  1.2020206E-05;  1.0000000E+04;  0.0000000E+00;  9.9526855E+03;  2.0928853E+00;  0.0000000E+00;  5.1747847E-01;  2.2289314E+04;
  8.0000597E-01;  9.9999998E-03; -1.0026804E-01;2279; -5.1798332E-03;  0.0000000E+00; -7.4138314E-02;  1.0143786E+03;  4.0892437E-01;  1.1908200E+04;3; -4.9956441E+00;  0.0000000E+00;  1.2275134E+01;0;  2.6578870E+00;  9.8936475E+03;  0.0000000E+00;  1.0793760E-05;  1.0000000E+04;  0.0000000E+00;  9.9511943E+03;  2.0838962E+00;  0.0000000E+00;  5.7399088E-01;  2.2970242E+04;
  8.0000484E-01;  9.9999998E-03; -8.0216706E-02;2280; -6.1351163E-03;  0.0000000E+00; -6.2981412E-02;  1.0144065E+03;  4.0892392E-01;  1.1931303E+04;3; -5.5522943E+00;  0.0000000E+00;  1.0569859E+01;0;  2.7091718E+00;  9.8954590E+03;  0.0000000E+00;  8.2419119E-06;  1.0000000E+04;  0.0000000E+00;  9.9499414E+03;  2.0742006E+00;  0.0000000E+00;  6.3497114E-01;  2.3525113E+04;
  8.0000412E-01;  9.9999998E-03; -6.0165565E-02;2281; -6.8896529E-03;  0.0000000E+00; -5.0263483E-02;  1.0144283E+03;  4.0892348E-01;  1.1949469E+04;3; -6.0625486E+00;  0.0000000E+00;  8.3393917E+00;0;  2.7618287E+00;  9.8969336E+03;  0.0000000E+00;  5.3561880E-06;  1.0000000E+04;  0.0000000E+00;  9.9489043E+03;  2.0651629E+00;  0.0000000E+00;  6.9666576E-01;  2.3968477E+04;
  8.0000365E-01;  9.9999998E-03; -4.0112853E-02;2282; -7.4214539E-03;  0.0000000E+00; -3.5388753E-02;  1.0144416E+03;  4.0892315E-01;  1.1960427E+04;3; -6.4694805E+00;  0.0000000E+00;  5.7559414E+00;0;  2.8091822E+00;  9.8980264E+03;  0.0000000E+00;  2.6950211E-06;  1.0000000E+04;  0.0000000E+00;  9.9480820E+03;  2.0578122E+00;  0.0000000E+00;  7.5137001E-01;  2.4312260E+04;
  8.0000347E-01;  9.9999998E-03; -2.0057453E-02;2283; -7.7327765E-03;  0.0000000E+00; -1.8367803E-02;  1.0144473E+03;  4.0892282E-01;  1.1965067E+04;3; -6.7308712E+00;  0.0000000E+00;  2.9388986E+00;0;  2.8425422E+00;  9.8986982E+03;  0.0000000E+00;  7.3731223E-07;  1.0000000E+04;  0.0000000E+00;  9.9475293E+03;  2.0529974E+00;  0.0000000E+00;  7.8954494E-01;  2.4541746E+04;
  8.2011312E-01;  9.9999998E-03; -1.8044320E-01;2306;  3.6496338E-02;  0.0000000E+00; -1.0708962E-01;  1.0146896E+03;  4.0891513E-01;  1.2164290E+04;3;  3.9567800E+00;  0.0000000E+00;  9.1160069E+00;0;  2.3614786E+00;  9.8937275E+03;  0.0000000E+00;  2.2039425E-05;  1.0000000E+04;  0.0000000E+00;  9.9576289E+03;  1.9834044E+00;  0.0000000E+00;  3.7807408E-01;  1.9964139E+04;
  8.2010853E-01;  9.9999998E-03; -1.6040878E-01;2307;  3.5774063E-02;  0.0000000E+00; -1.0046843E-01;  1.0147060E+03;  4.0891427E-01;  1.2177913E+04;3;  4.4438539E+00;  0.0000000E+00;  1.1679527E+01;0;  2.4099107E+00;  9.8953516E+03;  0.0000000E+00;  2.2302343E-06;  1.0000000E+04;  0.0000000E+00;  9.9563584E+03;  1.9900593E+00;  0.0000000E+00;  4.1985148E-01;  2.0553439E+04;
  8.2010406E-01;  9.9999998E-03; -1.4036603E-01;2308;  3.4882531E-02;  0.0000000E+00; -9.2336327E-02;  1.0147278E+03;  4.0891364E-01;  1.2195978E+04;3;  4.8243341E+00;  0.0000000E+00;  1.3177110E+01;0;  2.4506416E+00;  9.8973711E+03;  0.0000000E+00; -4.1892740E-06;  1.0000000E+04;  0.0000000E+00;  9.9547871E+03;  1.9866681E+00;  0.0000000E+00;  4.6397364E-01;  2.1290564E+04;
  8.2010007E-01;  9.9999998E-03; -1.2031583E-01;2309;  3.3902142E-02;  0.0000000E+00; -8.2675219E-02;  1.0147510E+03;  4.0891305E-01;  1.2215229E+04;3;  5.0782523E+00;  0.0000000E+00;  1.3447887E+01;0;  2.4909031E+00;  9.8994824E+03;  0.0000000E+00; -5.6789991E-06;  1.0000000E+04;  0.0000000E+00;  9.9531416E+03;  1.9782205E+00;  0.0000000E+00;  5.1268262E-01;  2.2056385E+04;
  8.2009655E-01;  9.9999998E-03; -1.0026440E-01;2310;  3.2908753E-02;  0.0000000E+00; -7.2475731E-02;  1.0147748E+03;  4.0891242E-01;  1.2234873E+04;3;  5.2116637E+00;  0.0000000E+00;  1.2637294E+01;0;  2.5355108E+00;  9.9014668E+03;  0.0000000E+00; -5.7001257E-06;  1.0000000E+04;  0.0000000E+00;  9.9516416E+03;  1.9681206E+00;  0.0000000E+00;  5.6739026E-01;  2.2743719E+04;
  8.2009369E-01;  9.9999998E-03; -8.0213882E-02;2311;  3.1983916E-02;  0.0000000E+00; -6.1549835E-02;  1.0147966E+03;  4.0891206E-01;  1.2252938E+04;3;  5.2516789E+00;  0.0000000E+00;  1.0987435E+01;0;  2.5856776E+00;  9.9031973E+03;  0.0000000E+00; -4.9407422E-06;  1.0000000E+04;  0.0000000E+00;  9.9503525E+03;  1.9582349E+00;  0.0000000E+00;  6.2744278E-01;  2.3316404E+04;
  8.2009149E-01;  9.9999998E-03; -6.0163539E-02;2312;  3.1198652E-02;  0.0000000E+00; -4.9141597E-02;  1.0148120E+03;  4.0891165E-01;  1.2265672E+04;3;  5.2335944E+00;  0.0000000E+00;  8.7346125E+00;0;  2.6383922E+00;  9.9045938E+03;  0.0000000E+00; -3.5337873E-06;  1.0000000E+04;  0.0000000E+00;  9.9492686E+03;  1.9495735E+00;  0.0000000E+00;  6.8881869E-01;  2.3782709E+04;
  8.2008994E-01;  9.9999998E-03; -4.0111564E-02;2313;  3.0604117E-02;  0.0000000E+00; -3.4622569E-02;  1.0148198E+03;  4.0891129E-01;  1.2272089E+04;3;  5.1920838E+00;  0.0000000E+00;  6.0611520E+00;0;  2.6863241E+00;  9.9056250E+03;  0.0000000E+00; -1.8696669E-06;  1.0000000E+04;  0.0000000E+00;  9.9484014E+03;  1.9427993E+00;  0.0000000E+00;  7.4352485E-01;  2.4148479E+04;
  8.2008904E-01;  9.9999998E-03; -2.0056831E-02;2314;  3.0234028E-02;  0.0000000E+00; -1.7980160E-02;  1.0148216E+03;  4.0891111E-01;  1.2273668E+04;3;  5.1548977E+00;  0.0000000E+00;  3.1046019E+00;0;  2.7202673E+00;  9.9062539E+03;  0.0000000E+00; -5.2125785E-07;  1.0000000E+04;  0.0000000E+00;  9.9478125E+03;  1.9384638E+00;  0.0000000E+00;  7.8180361E-01;  2.4393775E+04;
  8.4021634E-01;  9.9999998E-03; -1.8043472E-01;2337;  7.6877028E-02;  0.0000000E+00; -1.0613731E-01;  1.0147728E+03;  4.0876985E-01;  1.2231166E+04;3;  1.3253160E+01;  0.0000000E+00;  7.8145962E+00;0;  2.2563910E+00;  9.9019697E+03;  0.0000000E+00;  6.8763089E-05;  1.0000000E+04;  0.0000000E+00;  9.9580381E+03;  1.8721912E+00;  0.0000000E+00;  3.8419992E-01;  1.9734668E+04;
  8.4020919E-01;  9.9999998E-03; -1.6040029E-01;2338;  7.5903185E-02;  0.0000000E+00; -9.9080123E-02;  1.0148071E+03;  4.0876913E-01;  1.2259593E+04;3;  1.3991589E+01;  0.0000000E+00;  1.0587273E+01;0;  2.2914069E+00;  9.9037373E+03;  0.0000000E+00;  1.9415193E-05;  1.0000000E+04;  0.0000000E+00;  9.9569629E+03;  1.8694407E+00;  0.0000000E+00;  4.2196622E-01;  2.0230799E+04;
  8.4020233E-01;  9.9999998E-03; -1.4035791E-01;2339;  7.4873209E-02;  0.0000000E+00; -9.0635195E-02;  1.0148398E+03;  4.0876842E-01;  1.2286735E+04;3;  1.4770706E+01;  0.0000000E+00;  1.2334015E+01;0;  2.3206897E+00;  9.9058154E+03;  0.0000000E+00;  4.0468349E-06;  1.0000000E+04;  0.0000000E+00;  9.9555469E+03;  1.8587976E+00;  0.0000000E+00;  4.6189213E-01;  2.0893578E+04;
  8.4019619E-01;  9.9999998E-03; -1.2030843E-01;2340;  7.3851898E-02;  0.0000000E+00; -8.0800645E-02;  1.0148680E+03;  4.0876800E-01;  1.2310029E+04;3;  1.5514611E+01;  0.0000000E+00;  1.2869523E+01;0;  2.3518424E+00;  9.9079150E+03;  0.0000000E+00; -1.2252308E-06;  1.0000000E+04;  0.0000000E+00;  9.9540234E+03;  1.8452349E+00;  0.0000000E+00;  5.0660765E-01;  2.1605801E+04;
  8.4019089E-01;  9.9999998E-03; -1.0025799E-01;2341;  7.2868042E-02;  0.0000000E+00; -7.0590623E-02;  1.0148930E+03;  4.0876743E-01;  1.2330756E+04;3;  1.6171591E+01;  0.0000000E+00;  1.2294079E+01;0;  2.3896306E+00;  9.9098428E+03;  0.0000000E+00; -3.6277879E-06;  1.0000000E+04;  0.0000000E+00;  9.9525977E+03;  1.8318516E+00;  0.0000000E+00;  5.5777901E-01;  2.2257832E+04;
  8.4018648E-01;  9.9999998E-03; -8.0208614E-02;2342;  7.1960971E-02;  0.0000000E+00; -5.9819184E-02;  1.0149130E+03;  4.0876707E-01;  1.2347240E+04;3;  1.6715418E+01;  0.0000000E+00;  1.0821149E+01;0;  2.4350154E+00;  9.9114932E+03;  0.0000000E+00; -4.5389202E-06;  1.0000000E+04;  0.0000000E+00;  9.9513525E+03;  1.8201243E+00;  0.0000000E+00;  6.1489123E-01;  2.2810699E+04;
  8.4018308E-01;  9.9999998E-03; -6.0159530E-02;2343;  7.1177855E-02;  0.0000000E+00; -4.7708351E-02;  1.0149254E+03;  4.0876651E-01;  1.2357505E+04;3;  1.7136196E+01;  0.0000000E+00;  8.6804857E+00;0;  2.4845862E+00;  9.9128115E+03;  0.0000000E+00; -3.9000593E-06;  1.0000000E+04;  0.0000000E+00;  9.9502871E+03;  1.8106332E+00;  0.0000000E+00;  6.7395312E-01;  2.3268662E+04;
  8.4018058E-01;  9.9999998E-03; -4.0108860E-02;2344;  7.0567533E-02;  0.0000000E+00; -3.3599168E-02;  1.0149297E+03;  4.0876627E-01;  1.2361060E+04;3;  1.7432686E+01;  0.0000000E+00;  6.0614262E+00;0;  2.5306108E+00;  9.9137695E+03;  0.0000000E+00; -2.2411407E-06;  1.0000000E+04;  0.0000000E+00;  9.9494268E+03;  1.8036307E+00;  0.0000000E+00;  7.2698015E-01;  2.3632793E+04;
  8.4017903E-01;  9.9999998E-03; -2.0055465E-02;2345;  7.0177026E-02;  0.0000000E+00; -1.7446952E-02;  1.0149290E+03;  4.0876609E-01;  1.2360566E+04;3;  1.7607929E+01;  0.0000000E+00;  3.1162179E+00;0;  2.5635505E+00;  9.9143496E+03;  0.0000000E+00; -6.4017257E-07;  1.0000000E+04;  0.0000000E+00;  9.9488398E+03;  1.7993138E+00;  0.0000000E+00;  7.6423657E-01;  2.3878963E+04;
  8.6032206E-01;  9.9999998E-03; -1.8042289E-01;2368;  1.1920837E-01;  0.0000000E+00; -1.0493568E-01;  1.0145773E+03;  4.0848485E-01;  1.2066596E+04;3;  2.3702299E+01;  0.0000000E+00;  6.0723944E+00;0;  2.1223164E+00;  9.9112627E+03;  0.0000000E+00;  1.1070401E-04;  1.0000000E+04;  0.0000000E+00;  9.9587725E+03;  1.7346126E+00;  0.0000000E+00;  3.8770381E-01;  1.9335635E+04;
  8.6031175E-01;  9.9999998E-03; -1.6038857E-01;2369;  1.1748029E-01;  0.0000000E+00; -9.7472787E-02;  1.0146340E+03;  4.0848407E-01;  1.2113567E+04;3;  2.4425377E+01;  0.0000000E+00;  8.9758825E+00;0;  2.1425362E+00;  9.9133008E+03;  0.0000000E+00;  3.1613905E-05;  1.0000000E+04;  0.0000000E+00;  9.9578701E+03;  1.7199686E+00;  0.0000000E+00;  4.2256749E-01;  1.9749301E+04;
  8.6030221E-01;  9.9999998E-03; -1.4034675E-01;2370;  1.1593174E-01;  0.0000000E+00; -8.8707194E-02;  1.0146821E+03;  4.0848348E-01;  1.2153336E+04;3;  2.5356251E+01;  0.0000000E+00;  1.0930294E+01;0;  2.1589634E+00;  9.9155117E+03;  0.0000000E+00;  1.1934808E-05;  1.0000000E+04;  0.0000000E+00;  9.9566270E+03;  1.7001762E+00;  0.0000000E+00;  4.5878723E-01;  2.0331176E+04;
  8.6029381E-01;  9.9999998E-03; -1.2029826E-01;2371;  1.1460762E-01;  0.0000000E+00; -7.8695193E-02;  1.0147201E+03;  4.0848300E-01;  1.2184815E+04;3;  2.6378801E+01;  0.0000000E+00;  1.1720978E+01;0;  2.1791508E+00;  9.9176377E+03;  0.0000000E+00;  6.1069195E-06;  1.0000000E+04;  0.0000000E+00;  9.9552520E+03;  1.6799176E+00;  0.0000000E+00;  4.9923319E-01;  2.0969869E+04;
  8.6028671E-01;  9.9999998E-03; -1.0024913E-01;2372;  1.1346945E-01;  0.0000000E+00; -6.8471834E-02;  1.0147502E+03;  4.0848264E-01;  1.2209782E+04;3;  2.7390291E+01;  0.0000000E+00;  1.1403111E+01;0;  2.2078233E+00;  9.9195332E+03;  0.0000000E+00;  3.1325994E-06;  1.0000000E+04;  0.0000000E+00;  9.9539629E+03;  1.6618587E+00;  0.0000000E+00;  5.4596472E-01;  2.1560215E+04;
  8.6028093E-01;  9.9999998E-03; -8.0201291E-02;2373;  1.1249037E-01;  0.0000000E+00; -5.7856083E-02;  1.0147723E+03;  4.0848222E-01;  1.2228038E+04;3;  2.8309834E+01;  0.0000000E+00;  1.0163862E+01;0;  2.2458739E+00;  9.9211230E+03;  0.0000000E+00;  7.1969288E-07;  1.0000000E+04;  0.0000000E+00;  9.9528223E+03;  1.6470367E+00;  0.0000000E+00;  5.9883726E-01;  2.2065451E+04;
  8.6027634E-01;  9.9999998E-03; -6.0153864E-02;2374;  1.1166975E-01;  0.0000000E+00; -4.6060365E-02;  1.0147848E+03;  4.0848193E-01;  1.2238399E+04;3;  2.9077606E+01;  0.0000000E+00;  8.2250080E+00;0;  2.2898130E+00;  9.9223672E+03;  0.0000000E+00; -6.4851508E-07;  1.0000000E+04;  0.0000000E+00;  9.9518340E+03;  1.6356412E+00;  0.0000000E+00;  6.5417171E-01;  2.2489439E+04;
  8.6027306E-01;  9.9999998E-03; -4.0104985E-02;2375;  1.1103361E-01;  0.0000000E+00; -3.2406684E-02;  1.0147888E+03;  4.0848154E-01;  1.2241657E+04;3;  2.9651785E+01;  0.0000000E+00;  5.7775002E+00;0;  2.3318470E+00;  9.9232646E+03;  0.0000000E+00; -7.0032195E-07;  1.0000000E+04;  0.0000000E+00;  9.9510234E+03;  1.6275793E+00;  0.0000000E+00;  7.0426756E-01;  2.2831369E+04;
  8.6027098E-01;  9.9999998E-03; -2.0053493E-02;2376;  1.1062478E-01;  0.0000000E+00; -1.6819773E-02;  1.0147873E+03;  4.0848145E-01;  1.2240473E+04;3;  3.0005562E+01;  0.0000000E+00;  2.9805899E+00;0;  2.3623996E+00;  9.9238027E+03;  0.0000000E+00; -2.3930821E-07;  1.0000000E+04;  0.0000000E+00;  9.9504619E+03;  1.6227585E+00;  0.0000000E+00;  7.3964107E-01;  2.3065039E+04;
  8.8042319E-01;  9.9999998E-03; -1.8040697E-01;2399;  1.6045015E-01;  0.0000000E+00; -1.0276570E-01;  1.0142165E+03;  4.0807599E-01;  1.1764438E+04;3;  3.4378044E+01;  0.0000000E+00;  4.3046656E+00;0;  1.9295133E+00;  9.9229834E+03;  0.0000000E+00;  1.2966929E-04;  1.0000000E+04;  0.0000000E+00;  9.9599043E+03;  1.5423841E+00;  0.0000000E+00;  3.8712919E-01;  1.8739430E+04;
  8.8040954E-01;  9.9999998E-03; -1.6037323E-01;2400;  1.5769459E-01;  0.0000000E+00; -9.5080107E-02;  1.0142962E+03;  4.0807524E-01;  1.1830338E+04;3;  3.4943008E+01;  0.0000000E+00;  7.2387624E+00;0;  1.9355204E+00;  9.9253369E+03;  0.0000000E+00;  2.1183383E-05;  1.0000000E+04;  0.0000000E+00;  9.9591338E+03;  1.5155206E+00;  0.0000000E+00;  4.1999981E-01;  1.9090104E+04;
  8.8039720E-01;  9.9999998E-03; -1.4033239E-01;2401;  1.5539637E-01;  0.0000000E+00; -8.6151563E-02;  1.0143599E+03;  4.0807503E-01;  1.1883116E+04;3;  3.5866848E+01;  0.0000000E+00;  9.3073635E+00;0;  1.9397867E+00;  9.9276953E+03;  0.0000000E+00;  2.8587774E-06;  1.0000000E+04;  0.0000000E+00;  9.9580430E+03;  1.4866307E+00;  0.0000000E+00;  4.5315599E-01;  1.9598324E+04;
  8.8038659E-01;  9.9999998E-03; -1.2028536E-01;2402;  1.5358169E-01;  0.0000000E+00; -7.6103739E-02;  1.0144077E+03;  4.0807450E-01;  1.1922677E+04;3;  3.7008518E+01;  0.0000000E+00;  1.0278711E+01;0;  1.9492569E+00;  9.9298555E+03;  0.0000000E+00;  1.1106151E-06;  1.0000000E+04;  0.0000000E+00;  9.9568350E+03;  1.4597431E+00;  0.0000000E+00;  4.8951370E-01;  2.0159367E+04;
  8.8037777E-01;  9.9999998E-03; -1.0023799E-01;2403;  1.5214328E-01;  0.0000000E+00; -6.5977782E-02;  1.0144440E+03;  4.0807411E-01;  1.1952667E+04;3;  3.8225437E+01;  0.0000000E+00;  1.0175887E+01;0;  1.9683945E+00;  9.9317129E+03;  0.0000000E+00;  1.2820395E-06;  1.0000000E+04;  0.0000000E+00;  9.9556982E+03;  1.4368834E+00;  0.0000000E+00;  5.3151101E-01;  2.0676287E+04;
  8.8037056E-01;  9.9999998E-03; -8.0192074E-02;2404;  1.5098558E-01;  0.0000000E+00; -5.5599000E-02;  1.0144697E+03;  4.0807378E-01;  1.1973878E+04;3;  3.9391369E+01;  0.0000000E+00;  9.1687756E+00;0;  1.9981217E+00;  9.9332373E+03;  0.0000000E+00;  4.8037509E-07;  1.0000000E+04;  0.0000000E+00;  9.9546973E+03;  1.4186329E+00;  0.0000000E+00;  5.7948881E-01;  2.1118021E+04;
  8.8036495E-01;  9.9999998E-03; -6.0146734E-02;2405;  1.5005653E-01;  0.0000000E+00; -4.4185359E-02;  1.0144844E+03;  4.0807348E-01;  1.1986111E+04;3;  4.0402023E+01;  0.0000000E+00;  7.4717507E+00;0;  2.0351305E+00;  9.9344092E+03;  0.0000000E+00; -4.2279419E-07;  1.0000000E+04;  0.0000000E+00;  9.9538213E+03;  1.4048705E+00;  0.0000000E+00;  6.3025987E-01;  2.1491355E+04;
  8.8036084E-01;  9.9999998E-03; -4.0100090E-02;2406;  1.4935257E-01;  0.0000000E+00; -3.1054934E-02;  1.0144890E+03;  4.0807328E-01;  1.1989960E+04;3;  4.1178204E+01;  0.0000000E+00;  5.2721615E+00;0;  2.0719116E+00;  9.9352480E+03;  0.0000000E+00; -5.0874496E-07;  1.0000000E+04;  0.0000000E+00;  9.9530879E+03;  1.3952892E+00;  0.0000000E+00;  6.7662233E-01;  2.1796695E+04;
  8.8035834E-01;  9.9999998E-03; -2.0050993E-02;2407;  1.4890450E-01;  0.0000000E+00; -1.6109476E-02;  1.0144884E+03;  4.0807313E-01;  1.1989467E+04;3;  4.1665226E+01;  0.0000000E+00;  2.7269979E+00;0;  2.0991743E+00;  9.9357480E+03;  0.0000000E+00; -1.6078900E-07;  1.0000000E+04;  0.0000000E+00;  9.9525752E+03;  1.3896321E+00;  0.0000000E+00;  7.0954221E-01;  2.2008250E+04;
  9.0051234E-01;  9.9999998E-03; -1.8038669E-01;2430;  1.9768594E-01;  0.0000000E+00; -9.9216193E-02;  1.0137734E+03;  4.0756586E-01;  1.1393111E+04;3;  4.4587391E+01;  0.0000000E+00;  2.7805433E+00;0;  1.6657398E+00;  9.9376680E+03;  0.0000000E+00;  1.0000009E-04;  1.0000000E+04;  0.0000000E+00;  9.9614434E+03;  1.2837301E+00;  0.0000000E+00;  3.8200963E-01;  1.7940785E+04;
  9.0049553E-01;  9.9999998E-03; -1.6035412E-01;2431;  1.9390374E-01;  0.0000000E+00; -9.1544509E-02;  1.0138725E+03;  4.0756521E-01;  1.1475060E+04;3;  4.4977074E+01;  0.0000000E+00;  5.6555743E+00;0;  1.6594703E+00;  9.9403076E+03;  0.0000000E+00; -1.6425436E-05;  1.0000000E+04;  0.0000000E+00;  9.9607656E+03;  1.2461416E+00;  0.0000000E+00;  4.1332877E-01;  1.8247324E+04;
  9.0048057E-01;  9.9999998E-03; -1.4031482E-01;2432;  1.9081098E-01;  0.0000000E+00; -8.2682148E-02;  1.0139472E+03;  4.0756491E-01;  1.1536891E+04;3;  4.5831432E+01;  0.0000000E+00;  7.7327576E+00;0;  1.6539445E+00;  9.9427510E+03;  0.0000000E+00; -2.2736966E-05;  1.0000000E+04;  0.0000000E+00;  9.9598057E+03;  1.2100435E+00;  0.0000000E+00;  4.4390088E-01;  1.8694266E+04;
  9.0046781E-01;  9.9999998E-03; -1.2026981E-01;2433;  1.8842025E-01;  0.0000000E+00; -7.2808579E-02;  1.0140008E+03;  4.0756464E-01;  1.1581169E+04;3;  4.6996086E+01;  0.0000000E+00;  8.7844706E+00;0;  1.6547818E+00;  9.9448740E+03;  0.0000000E+00; -1.5953650E-05;  1.0000000E+04;  0.0000000E+00;  9.9587441E+03;  1.1782755E+00;  0.0000000E+00;  4.7650632E-01;  1.9182705E+04;
  9.0045726E-01;  9.9999998E-03; -1.0022467E-01;2434;  1.8657413E-01;  0.0000000E+00; -6.2951811E-02;  1.0140405E+03;  4.0756416E-01;  1.1614008E+04;3;  4.8304760E+01;  0.0000000E+00;  8.8204079E+00;0;  1.6658025E+00;  9.9466406E+03;  0.0000000E+00; -1.0294562E-05;  1.0000000E+04;  0.0000000E+00;  9.9577725E+03;  1.1519570E+00;  0.0000000E+00;  5.1384538E-01;  1.9624988E+04;
  9.0044874E-01;  9.9999998E-03; -8.0181122E-02;2435;  1.8512759E-01;  0.0000000E+00; -5.2944601E-02;  1.0140681E+03;  4.0756389E-01;  1.1636887E+04;3;  4.9602222E+01;  0.0000000E+00;  8.0044785E+00;0;  1.6878872E+00;  9.9480547E+03;  0.0000000E+00; -7.0841347E-06;  1.0000000E+04;  0.0000000E+00;  9.9569160E+03;  1.1311502E+00;  0.0000000E+00;  5.5673689E-01;  1.9997484E+04;
  9.0044206E-01;  9.9999998E-03; -6.0138270E-02;2436;  1.8399511E-01;  0.0000000E+00; -4.2023022E-02;  1.0140841E+03;  4.0756375E-01;  1.1650103E+04;3;  5.0753899E+01;  0.0000000E+00;  6.5469913E+00;0;  1.7180607E+00;  9.9491309E+03;  0.0000000E+00; -4.8434822E-06;  1.0000000E+04;  0.0000000E+00;  9.9561689E+03;  1.1154987E+00;  0.0000000E+00;  6.0256207E-01;  2.0312107E+04;
  9.0043718E-01;  9.9999998E-03; -4.0094282E-02;2437;  1.8315373E-01;  0.0000000E+00; -2.9513983E-02;  1.0140903E+03;  4.0756357E-01;  1.1655231E+04;3;  5.1653324E+01;  0.0000000E+00;  4.6288295E+00;0;  1.7493708E+00;  9.9498896E+03;  0.0000000E+00; -2.5232519E-06;  1.0000000E+04;  0.0000000E+00;  9.9555313E+03;  1.1046096E+00;  0.0000000E+00;  6.4476115E-01;  2.0572945E+04;
  9.0043420E-01;  9.9999998E-03; -2.0048030E-02;2438;  1.8262523E-01;  0.0000000E+00; -1.5304447E-02;  1.0140902E+03;  4.0756357E-01;  1.1655134E+04;3;  5.2224243E+01;  0.0000000E+00;  2.3967724E+00;0;  1.7730895E+00;  9.9503408E+03;  0.0000000E+00; -6.5587074E-07;  1.0000000E+04;  0.0000000E+00;  9.9550850E+03;  1.0981892E+00;  0.0000000E+00;  6.7490029E-01;  2.0756715E+04;
  9.2057610E-01;  9.9999998E-03; -1.8036270E-01;2461;  2.2661322E-01;  0.0000000E+00; -9.4318122E-02;  1.0132597E+03;  4.0698060E-01;  1.0962081E+04;3;  5.3946182E+01;  0.0000000E+00;  1.6176444E+00;0;  1.3501253E+00;  9.9543027E+03;  0.0000000E+00;  2.9020037E-05;  1.0000000E+04;  0.0000000E+00;  9.9633486E+03;  9.7749257E-01;  0.0000000E+00;  3.7263274E-01;  1.6957271E+04;
  9.2055362E-01;  9.9999998E-03; -1.6033170E-01;2462;  2.2102971E-01;  0.0000000E+00; -8.6826108E-02;  1.0133698E+03;  4.0698034E-01;  1.1053152E+04;3;  5.4213856E+01;  0.0000000E+00;  4.3665614E+00;0;  1.3350320E+00;  9.9570908E+03;  0.0000000E+00; -5.6977406E-05;  1.0000000E+04;  0.0000000E+00;  9.9627334E+03;  9.3249446E-01;  0.0000000E+00;  4.0253758E-01;  1.7234900E+04;
  9.2053413E-01;  9.9999998E-03; -1.4029439E-01;2463;  2.1644253E-01;  0.0000000E+00; -7.8214586E-02;  1.0134469E+03;  4.0697998E-01;  1.1116923E+04;3;  5.4981518E+01;  0.0000000E+00;  6.3628235E+00;0;  1.3235290E+00;  9.9594834E+03;  0.0000000E+00; -4.3894805E-05;  1.0000000E+04;  0.0000000E+00;  9.9618711E+03;  8.9267665E-01;  0.0000000E+00;  4.3085238E-01;  1.7633266E+04;
  9.2051774E-01;  9.9999998E-03; -1.2025192E-01;2464;  2.1277748E-01;  0.0000000E+00; -6.8715326E-02;  1.0134991E+03;  4.0697974E-01;  1.1160096E+04;3;  5.6051426E+01;  0.0000000E+00;  7.3992615E+00;0;  1.3192669E+00;  9.9614512E+03;  0.0000000E+00; -2.9820743E-05;  1.0000000E+04;  0.0000000E+00;  9.9609453E+03;  8.5917389E-01;  0.0000000E+00;  4.6009302E-01;  1.8058059E+04;
  9.2050403E-01;  9.9999998E-03; -1.0020956E-01;2465;  2.0983110E-01;  0.0000000E+00; -5.9313599E-02;  1.0135369E+03;  4.0697959E-01;  1.1191342E+04;3;  5.7289757E+01;  0.0000000E+00;  7.4935074E+00;0;  1.3250279E+00;  9.9630254E+03;  0.0000000E+00; -2.0977790E-05;  1.0000000E+04;  0.0000000E+00;  9.9601133E+03;  8.3197385E-01;  0.0000000E+00;  4.9305415E-01;  1.8430449E+04;
  9.2049283E-01;  9.9999998E-03; -8.0168881E-02;2466;  2.0745845E-01;  0.0000000E+00; -4.9837310E-02;  1.0135626E+03;  4.0697938E-01;  1.1212534E+04;3;  5.8493187E+01;  0.0000000E+00;  6.8137383E+00;0;  1.3415138E+00;  9.9642510E+03;  0.0000000E+00; -1.4996276E-05;  1.0000000E+04;  0.0000000E+00;  9.9594033E+03;  8.1056470E-01;  0.0000000E+00;  5.3094906E-01;  1.8734639E+04;
  9.2048401E-01;  9.9999998E-03; -6.0128942E-02;2467;  2.0561038E-01;  0.0000000E+00; -3.9540462E-02;  1.0135776E+03;  4.0697908E-01;  1.1224955E+04;3;  5.9557388E+01;  0.0000000E+00;  5.5680861E+00;0;  1.3661411E+00;  9.9651709E+03;  0.0000000E+00; -9.7818856E-06;  1.0000000E+04;  0.0000000E+00;  9.9587900E+03;  7.9440314E-01;  0.0000000E+00;  5.7173795E-01;  1.8988703E+04;
  9.2047769E-01;  9.9999998E-03; -4.0087949E-02;2468;  2.0427154E-01;  0.0000000E+00; -2.7765142E-02;  1.0135829E+03;  4.0697911E-01;  1.1229393E+04;3;  6.0371445E+01;  0.0000000E+00;  3.9333389E+00;0;  1.3926830E+00;  9.9658145E+03;  0.0000000E+00; -4.8135407E-06;  1.0000000E+04;  0.0000000E+00;  9.9582578E+03;  7.8309560E-01;  0.0000000E+00;  6.0958743E-01;  1.9201895E+04;
  9.2047387E-01;  9.9999998E-03; -2.0044813E-02;2469;  2.0346829E-01;  0.0000000E+00; -1.4396248E-02;  1.0135827E+03;  4.0697894E-01;  1.1229197E+04;3;  6.0890202E+01;  0.0000000E+00;  2.0352983E+00;0;  1.4131689E+00;  9.9661943E+03;  0.0000000E+00; -1.2448467E-06;  1.0000000E+04;  0.0000000E+00;  9.9578750E+03;  7.7639848E-01;  0.0000000E+00;  6.3677037E-01;  1.9355012E+04;
  9.4059342E-01;  9.9999998E-03; -1.8033691E-01;2492;  2.3781759E-01;  0.0000000E+00; -8.8950202E-02;  1.0126295E+03;  4.0634903E-01;  1.0433405E+04;3;  6.0853725E+01;  0.0000000E+00;  5.9509748E-01;0;  1.0266123E+00;  9.9706738E+03;  0.0000000E+00; -2.6931024E-05;  1.0000000E+04;  0.0000000E+00;  9.9655391E+03;  6.6699660E-01;  0.0000000E+00;  3.5961565E-01;  1.5821198E+04;
  9.4056815E-01;  9.9999998E-03; -1.6030729E-01;2493;  2.3103790E-01;  0.0000000E+00; -8.1483833E-02;  1.0127401E+03;  4.0634882E-01;  1.0524807E+04;3;  6.0707100E+01;  0.0000000E+00;  3.1881316E+00;0;  1.0069990E+00;  9.9734395E+03;  0.0000000E+00; -6.2117484E-05;  1.0000000E+04;  0.0000000E+00;  9.9649590E+03;  6.1882609E-01;  0.0000000E+00;  3.8817298E-01;  1.6080939E+04;
  9.4054663E-01;  9.9999998E-03; -1.4027213E-01;2494;  2.2532520E-01;  0.0000000E+00; -7.3126622E-02;  1.0128109E+03;  4.0634865E-01;  1.0583314E+04;3;  6.0958786E+01;  0.0000000E+00;  5.0635352E+00;0;  9.9371028E-01;  9.9756328E+03;  0.0000000E+00; -3.7871279E-05;  1.0000000E+04;  0.0000000E+00;  9.9641660E+03;  5.7915366E-01;  0.0000000E+00;  4.1455662E-01;  1.6442076E+04;
  9.4052851E-01;  9.9999998E-03; -1.2023254E-01;2495;  2.2062290E-01;  0.0000000E+00; -6.4082988E-02;  1.0128552E+03;  4.0634844E-01;  1.0619857E+04;3;  6.1443180E+01;  0.0000000E+00;  6.0608182E+00;0;  9.8809689E-01;  9.9773369E+03;  0.0000000E+00; -2.5840387E-05;  1.0000000E+04;  0.0000000E+00;  9.9633457E+03;  5.4720294E-01;  0.0000000E+00;  4.4089395E-01;  1.6813402E+04;
  9.4051349E-01;  9.9999998E-03; -1.0019327E-01;2496;  2.1678805E-01;  0.0000000E+00; -5.5208825E-02;  1.0128852E+03;  4.0634844E-01;  1.0644683E+04;3;  6.2043491E+01;  0.0000000E+00;  6.1824174E+00;0;  9.9166942E-01;  9.9786318E+03;  0.0000000E+00; -2.0130545E-05;  1.0000000E+04;  0.0000000E+00;  9.9626475E+03;  5.2177256E-01;  0.0000000E+00;  4.6989682E-01;  1.7123752E+04;
  9.4050127E-01;  9.9999998E-03; -8.0155700E-02;2497;  2.1372049E-01;  0.0000000E+00; -4.6309985E-02;  1.0129058E+03;  4.0634826E-01;  1.0661627E+04;3;  6.2651546E+01;  0.0000000E+00;  5.6531892E+00;0;  1.0048561E+00;  9.9796143E+03;  0.0000000E+00; -1.5493730E-05;  1.0000000E+04;  0.0000000E+00;  9.9620713E+03;  5.0180590E-01;  0.0000000E+00;  5.0305027E-01;  1.7364500E+04;
  9.4049180E-01;  9.9999998E-03; -6.0118865E-02;2498;  2.1138057E-01;  0.0000000E+00; -3.6686260E-02;  1.0129171E+03;  4.0634814E-01;  1.0671086E+04;3;  6.3250511E+01;  0.0000000E+00;  4.6362486E+00;0;  1.0255026E+00;  9.9803350E+03;  0.0000000E+00; -1.0394007E-05;  1.0000000E+04;  0.0000000E+00;  9.9615850E+03;  4.8662865E-01;  0.0000000E+00;  5.3887391E-01;  1.7559863E+04;
  9.4048506E-01;  9.9999998E-03; -4.0081073E-02;2499;  2.0973910E-01;  0.0000000E+00; -2.5731649E-02;  1.0129210E+03;  4.0634814E-01;  1.0674239E+04;3;  6.3762810E+01;  0.0000000E+00;  3.2820292E+00;0;  1.0482240E+00;  9.9808340E+03;  0.0000000E+00; -5.0591616E-06;  1.0000000E+04;  0.0000000E+00;  9.9611611E+03;  4.7590938E-01;  0.0000000E+00;  5.7231462E-01;  1.7724992E+04;
  9.4048101E-01;  9.9999998E-03; -2.0041298E-02;2500;  2.0876628E-01;  0.0000000E+00; -1.3328995E-02;  1.0129196E+03;  4.0634808E-01;  1.0673158E+04;3;  6.4112579E+01;  0.0000000E+00;  1.7007511E+00;0;  1.0659560E+00;  9.9811270E+03;  0.0000000E+00; -1.2743178E-06;  1.0000000E+04;  0.0000000E+00;  9.9608486E+03;  4.6951261E-01;  0.0000000E+00;  5.9644336E-01;  1.7846102E+04;
  9.6059388E-01;  9.9999998E-03; -1.8031064E-01;2523;  2.4036995E-01;  0.0000000E+00; -8.3630018E-02;  1.0118370E+03;  4.0569854E-01;  9.7689795E+03;3;  6.3515045E+01;  0.0000000E+00; -6.4944577E-01;0;  7.3903155E-01;  9.9846455E+03;  0.0000000E+00; -2.7215996E-05;  1.0000000E+04;  0.0000000E+00;  9.9679102E+03;  3.9572564E-01;  0.0000000E+00;  3.4330595E-01;  1.4568275E+04;
  9.6056777E-01;  9.9999998E-03; -1.6028246E-01;2524;  2.3315655E-01;  0.0000000E+00; -7.6175369E-02;  1.0119410E+03;  4.0569821E-01;  9.8547842E+03;3;  6.3105858E+01;  0.0000000E+00;  1.8709221E+00;0;  7.1878529E-01;  9.9872637E+03;  0.0000000E+00; -2.5119218E-05;  1.0000000E+04;  0.0000000E+00;  9.9673457E+03;  3.4802926E-01;  0.0000000E+00;  3.7075606E-01;  1.4818683E+04;
  9.6054566E-01;  9.9999998E-03; -1.4024951E-01;2525;  2.2702666E-01;  0.0000000E+00; -6.8042047E-02;  1.0120005E+03;  4.0569821E-01;  9.9039873E+03;3;  6.3029434E+01;  0.0000000E+00;  3.7025452E+00;0;  7.0694965E-01;  9.9891895E+03;  0.0000000E+00; -8.4000112E-06;  1.0000000E+04;  0.0000000E+00;  9.9666006E+03;  3.1125045E-01;  0.0000000E+00;  3.9569920E-01;  1.5152782E+04;
  9.6052706E-01;  9.9999998E-03; -1.2021286E-01;2526;  2.2192444E-01;  0.0000000E+00; -5.9442040E-02;  1.0120333E+03;  4.0569812E-01;  9.9310537E+03;3;  6.3124783E+01;  0.0000000E+00;  4.6919651E+00;0;  7.0265603E-01;  9.9905762E+03;  0.0000000E+00; -7.7704108E-06;  1.0000000E+04;  0.0000000E+00;  9.9658682E+03;  2.8290698E-01;  0.0000000E+00;  4.1974905E-01;  1.5481481E+04;
  9.6051157E-01;  9.9999998E-03; -1.0017663E-01;2527;  2.1776499E-01;  0.0000000E+00; -5.1058251E-02;  1.0120538E+03;  4.0569803E-01;  9.9479834E+03;3;  6.3454391E+01;  0.0000000E+00;  4.8772211E+00;0;  7.0615786E-01;  9.9915801E+03;  0.0000000E+00; -9.5912683E-06;  1.0000000E+04;  0.0000000E+00;  9.9652705E+03;  2.6078242E-01;  0.0000000E+00;  4.4537544E-01;  1.5739977E+04;
  9.6049905E-01;  9.9999998E-03; -8.0142029E-02;2528;  2.1441622E-01;  0.0000000E+00; -4.2684313E-02;  1.0120678E+03;  4.0569803E-01;  9.9595020E+03;3;  6.3899754E+01;  0.0000000E+00;  4.4840655E+00;0;  7.1762836E-01;  9.9923076E+03;  0.0000000E+00; -9.2755636E-06;  1.0000000E+04;  0.0000000E+00;  9.9648164E+03;  2.4342324E-01;  0.0000000E+00;  4.7420511E-01;  1.5925294E+04;
  9.6048933E-01;  9.9999998E-03; -6.0108241E-02;2529;  2.1183655E-01;  0.0000000E+00; -3.3717103E-02;  1.0120751E+03;  4.0569797E-01;  9.9655088E+03;3;  6.4310356E+01;  0.0000000E+00;  3.6802597E+00;0;  7.3537892E-01;  9.9928330E+03;  0.0000000E+00; -6.7620681E-06;  1.0000000E+04;  0.0000000E+00;  9.9644453E+03;  2.3010047E-01;  0.0000000E+00;  5.0527847E-01;  1.6066838E+04;
  9.6048248E-01;  9.9999998E-03; -4.0073730E-02;2530;  2.1002397E-01;  0.0000000E+00; -2.3610288E-02;  1.0120768E+03;  4.0569797E-01;  9.9669883E+03;3;  6.4648582E+01;  0.0000000E+00;  2.6035864E+00;0;  7.5493503E-01;  9.9931895E+03;  0.0000000E+00; -3.3222534E-06;  1.0000000E+04;  0.0000000E+00;  9.9641270E+03;  2.2057877E-01;  0.0000000E+00;  5.3435624E-01;  1.6185702E+04;
  9.6047843E-01;  9.9999998E-03; -2.0037554E-02;2531;  2.0895760E-01;  0.0000000E+00; -1.2237580E-02;  1.0120750E+03;  4.0569782E-01;  9.9654170E+03;3;  6.4879883E+01;  0.0000000E+00;  1.3437651E+00;0;  7.7023375E-01;  9.9933936E+03;  0.0000000E+00; -8.0090666E-07;  1.0000000E+04;  0.0000000E+00;  9.9638857E+03;  2.1484132E-01;  0.0000000E+00;  5.5539244E-01;  1.6274727E+04;
  9.8058832E-01;  9.9999998E-03; -1.8028523E-01;2554;  2.4016440E-01;  0.0000000E+00; -7.8644738E-02;  1.0108826E+03;  4.0505391E-01;  8.9693164E+03;3;  6.4530151E+01;  0.0000000E+00; -1.8930755E+00;0;  5.1231837E-01;  9.9950664E+03;  0.0000000E+00; -1.5041451E-06;  1.0000000E+04;  0.0000000E+00;  9.9703857E+03;  1.8856241E-01;  0.0000000E+00;  3.2375595E-01;  1.3235341E+04;
  9.8056161E-01;  9.9999998E-03; -1.6025878E-01;2555;  2.3267215E-01;  0.0000000E+00; -7.1423605E-02;  1.0109776E+03;  4.0505376E-01;  9.0476416E+03;3;  6.4033142E+01;  0.0000000E+00;  4.9279517E-01;0;  4.9393624E-01;  9.9975195E+03;  0.0000000E+00;  1.4882343E-05;  1.0000000E+04;  0.0000000E+00;  9.9698184E+03;  1.4338252E-01;  0.0000000E+00;  3.5055372E-01;  1.3482396E+04;
  9.8053902E-01;  9.9999998E-03; -1.4022797E-01;2556;  2.2627960E-01;  0.0000000E+00; -6.3521594E-02;  1.0110262E+03;  4.0505376E-01;  9.0876445E+03;3;  6.3794483E+01;  0.0000000E+00;  2.2594419E+00;0;  4.8517734E-01;  9.9991943E+03;  0.0000000E+00;  1.6020440E-05;  1.0000000E+04;  0.0000000E+00;  9.9691035E+03;  1.1042937E-01;  0.0000000E+00;  3.7474796E-01;  1.3797816E+04;
  9.8052007E-01;  9.9999998E-03; -1.2019405E-01;2557;  2.2096187E-01;  0.0000000E+00; -5.5274885E-02;  1.0110487E+03;  4.0505373E-01;  9.1062275E+03;3;  6.3786411E+01;  0.0000000E+00;  3.2000256E+00;0;  4.8329893E-01;  1.0000320E+04;  0.0000000E+00;  7.0377814E-06;  1.0000000E+04;  0.0000000E+00;  9.9684268E+03;  8.5989915E-02;  0.0000000E+00;  3.9730901E-01;  1.4094646E+04;
  9.8050439E-01;  9.9999998E-03; -1.0016064E-01;2558;  2.1658540E-01;  0.0000000E+00; -4.7250226E-02;  1.0110609E+03;  4.0505373E-01;  9.1163584E+03;3;  6.4036339E+01;  0.0000000E+00;  3.5064952E+00;0;  4.8753688E-01;  1.0001084E+04;  0.0000000E+00;  3.0895441E-07;  1.0000000E+04;  0.0000000E+00;  9.9679063E+03;  6.7203164E-02;  0.0000000E+00;  4.2033371E-01;  1.4313375E+04;
  9.8049176E-01;  9.9999998E-03; -8.0128908E-02;2559;  2.1304150E-01;  0.0000000E+00; -3.9328851E-02;  1.0110696E+03;  4.0505382E-01;  9.1234414E+03;3;  6.4332573E+01;  0.0000000E+00;  3.3090632E+00;0;  4.9789509E-01;  1.0001611E+04;  0.0000000E+00; -2.6645314E-06;  1.0000000E+04;  0.0000000E+00;  9.9675488E+03;  5.2435581E-02;  0.0000000E+00;  4.4545951E-01;  1.4454551E+04;
  9.8048204E-01;  9.9999998E-03; -6.0098052E-02;2560;  2.1028987E-01;  0.0000000E+00; -3.0949835E-02;  1.0110746E+03;  4.0505368E-01;  9.1275742E+03;3;  6.4657700E+01;  0.0000000E+00;  2.7508867E+00;0;  5.1317489E-01;  1.0001977E+04;  0.0000000E+00; -2.7413214E-06;  1.0000000E+04;  0.0000000E+00;  9.9672813E+03;  4.0992618E-02;  0.0000000E+00;  4.7218224E-01;  1.4550689E+04;
  9.8047513E-01;  9.9999998E-03; -4.0066652E-02;2561;  2.0832565E-01;  0.0000000E+00; -2.1591781E-02;  1.0110750E+03;  4.0505365E-01;  9.1279736E+03;3;  6.4925934E+01;  0.0000000E+00;  1.9432851E+00;0;  5.2980906E-01;  1.0002217E+04;  0.0000000E+00; -1.4586204E-06;  1.0000000E+04;  0.0000000E+00;  9.9670547E+03;  3.2727219E-02;  0.0000000E+00;  4.9708185E-01;  1.4627935E+04;
  9.8047101E-01;  9.9999998E-03; -2.0033866E-02;2562;  2.0715070E-01;  0.0000000E+00; -1.1144980E-02;  1.0110732E+03;  4.0505370E-01;  9.1265029E+03;3;  6.5114769E+01;  0.0000000E+00;  1.0042492E+00;0;  5.4278105E-01;  1.0002356E+04;  0.0000000E+00; -3.3051143E-07;  1.0000000E+04;  0.0000000E+00;  9.9668828E+03;  2.7704969E-02;  0.0000000E+00;  5.1507610E-01;  1.4686685E+04;
  1.0005798E+00;  9.9999998E-03; -1.8026108E-01;2585;  2.3877420E-01;  0.0000000E+00; -7.3668756E-02;  1.0098138E+03;  4.0443632E-01;  8.0738726E+03;3;  6.4983139E+01;  0.0000000E+00; -2.8762143E+00;0;  3.4940955E-01;  1.0001912E+04;  0.0000000E+00; -1.4503872E-04;  1.0000000E+04;  0.0000000E+00;  9.9728721E+03;  4.8331849E-02;  0.0000000E+00;  3.0107769E-01;  1.1863705E+04;
  1.0005527E+00;  9.9999998E-03; -1.6023706E-01;2586;  2.3099512E-01;  0.0000000E+00; -6.7059614E-02;  1.0099022E+03;  4.0443638E-01;  8.1466670E+03;3;  6.4362862E+01;  0.0000000E+00; -7.1217334E-01;0;  3.3389002E-01;  1.0004233E+04;  0.0000000E+00;  8.0610462E-06;  1.0000000E+04;  0.0000000E+00;  9.9723057E+03;  6.2095118E-03;  0.0000000E+00;  3.2768050E-01;  1.2106123E+04;
  1.0005292E+00;  9.9999998E-03; -1.4020869E-01;2587;  2.2429505E-01;  0.0000000E+00; -5.9671149E-02;  1.0099439E+03;  4.0443632E-01;  8.1810132E+03;3;  6.4193039E+01;  0.0000000E+00;  8.8471711E-01;0;  3.2831377E-01;  1.0005758E+04;  0.0000000E+00;  7.0683427E-06;  1.0000000E+04;  0.0000000E+00;  9.9716055E+03; -2.3548029E-02;  0.0000000E+00;  3.5186180E-01;  1.2406480E+04;
  1.0005099E+00;  9.9999998E-03; -1.2017763E-01;2588;  2.1868086E-01;  0.0000000E+00; -5.1910646E-02;  1.0099603E+03;  4.0443626E-01;  8.1944658E+03;3;  6.4161392E+01;  0.0000000E+00;  1.8640308E+00;0;  3.2864448E-01;  1.0006731E+04;  0.0000000E+00;  4.6455134E-06;  1.0000000E+04;  0.0000000E+00;  9.9709629E+03; -4.5175251E-02;  0.0000000E+00;  3.7381974E-01;  1.2679878E+04;
  1.0004941E+00;  9.9999998E-03; -1.0014687E-01;2589;  2.1408165E-01;  0.0000000E+00; -4.4267364E-02;  1.0099686E+03;  4.0443644E-01;  8.2013447E+03;3;  6.4226456E+01;  0.0000000E+00;  2.2377307E+00;0;  3.3343041E-01;  1.0007356E+04;  0.0000000E+00;  3.0671029E-06;  1.0000000E+04;  0.0000000E+00;  9.9704990E+03; -6.1730020E-02;  0.0000000E+00;  3.9516044E-01;  1.2871420E+04;
  1.0004816E+00;  9.9999998E-03; -8.0117568E-02;2590;  2.1035793E-01;  0.0000000E+00; -3.6702666E-02;  1.0099745E+03;  4.0443641E-01;  8.2061611E+03;3;  6.4404778E+01;  0.0000000E+00;  2.1391995E+00;0;  3.4261173E-01;  1.0007768E+04;  0.0000000E+00;  9.1405684E-07;  1.0000000E+04;  0.0000000E+00;  9.9702051E+03; -7.4783124E-02;  0.0000000E+00;  4.1739485E-01;  1.2982376E+04;
  1.0004718E+00;  9.9999998E-03; -6.0089052E-02;2591;  2.0741576E-01;  0.0000000E+00; -2.8684951E-02;  1.0099784E+03;  4.0443641E-01;  8.2094053E+03;3;  6.4626083E+01;  0.0000000E+00;  1.7549980E+00;0;  3.5543987E-01;  1.0008035E+04;  0.0000000E+00; -5.6650561E-07;  1.0000000E+04;  0.0000000E+00;  9.9700098E+03; -8.4929116E-02;  0.0000000E+00;  4.4036898E-01;  1.3045186E+04;
  1.0004648E+00;  9.9999998E-03; -4.0060293E-02;2592;  2.0527208E-01;  0.0000000E+00; -1.9871967E-02;  1.0099795E+03;  4.0443641E-01;  8.2102939E+03;3;  6.4801170E+01;  0.0000000E+00;  1.2609471E+00;0;  3.6917585E-01;  1.0008207E+04;  0.0000000E+00; -6.2516244E-07;  1.0000000E+04;  0.0000000E+00;  9.9698633E+03; -9.2274800E-02;  0.0000000E+00;  4.6145067E-01;  1.3088986E+04;
  1.0004605E+00;  9.9999998E-03; -2.0030556E-02;2593;  2.0397188E-01;  0.0000000E+00; -1.0216901E-02;  1.0099785E+03;  4.0443653E-01;  8.2094150E+03;3;  6.4920830E+01;  0.0000000E+00;  6.5688705E-01;0;  3.7982583E-01;  1.0008304E+04;  0.0000000E+00; -1.9052320E-07;  1.0000000E+04;  0.0000000E+00;  9.9697549E+03; -9.6748061E-02;  0.0000000E+00;  4.7657388E-01;  1.3121813E+04;
  1.0205698E+00;  9.9999998E-03; -1.8023871E-01;2616;  2.3664178E-01;  0.0000000E+00; -6.9263183E-02;  1.0087016E+03;  4.0386271E-01;  7.1416045E+03;3;  6.5210960E+01;  0.0000000E+00; -3.7832565E+00;0;  2.3886907E-01;  1.0005851E+04;  0.0000000E+00; -2.8941932E-03;  1.0000000E+04;  0.0000000E+00;  9.9752695E+03; -3.7130114E-02;  0.0000000E+00;  2.7599919E-01;  1.0504532E+04;
  1.0205418E+00;  9.9999998E-03; -1.6021647E-01;2617;  2.2855614E-01;  0.0000000E+00; -6.2837705E-02;  1.0087885E+03;  4.0386263E-01;  7.2129565E+03;3;  6.4447540E+01;  0.0000000E+00; -1.7398297E+00;0;  2.2606167E-01;  1.0008101E+04;  0.0000000E+00; -1.5191631E-04;  1.0000000E+04;  0.0000000E+00;  9.9747412E+03; -7.6261550E-02;  0.0000000E+00;  3.0232322E-01;  1.0725100E+04;
  1.0205176E+00;  9.9999998E-03; -1.4019065E-01;2618;  2.2158520E-01;  0.0000000E+00; -5.5904940E-02;  1.0088293E+03;  4.0386260E-01;  7.2465396E+03;3;  6.4275032E+01;  0.0000000E+00; -1.7577764E-01;0;  2.2270295E-01;  1.0009594E+04;  0.0000000E+00; -4.4780929E-05;  1.0000000E+04;  0.0000000E+00;  9.9740635E+03; -1.0431180E-01;  0.0000000E+00;  3.2701474E-01;  1.1005517E+04;
  1.0204979E+00;  9.9999998E-03; -1.2016233E-01;2619;  2.1573776E-01;  0.0000000E+00; -4.8652198E-02;  1.0088465E+03;  4.0386271E-01;  7.2606479E+03;3;  6.4196411E+01;  0.0000000E+00;  8.0008310E-01;0;  2.2423913E-01;  1.0010544E+04;  0.0000000E+00; -1.6674729E-05;  1.0000000E+04;  0.0000000E+00;  9.9734482E+03; -1.2492348E-01;  0.0000000E+00;  3.4916261E-01;  1.1258541E+04;
  1.0204819E+00;  9.9999998E-03; -1.0013393E-01;2620;  2.1096024E-01;  0.0000000E+00; -4.1345879E-02;  1.0088550E+03;  4.0386274E-01;  7.2676108E+03;3;  6.4216255E+01;  0.0000000E+00;  1.1618530E+00;0;  2.2888383E-01;  1.0011152E+04;  0.0000000E+00;  4.5944020E-07;  1.0000000E+04;  0.0000000E+00;  9.9730137E+03; -1.4087084E-01;  0.0000000E+00;  3.6975467E-01;  1.1433189E+04;
  1.0204693E+00;  9.9999998E-03; -8.0106884E-02;2621;  2.0704406E-01;  0.0000000E+00; -3.4075066E-02;  1.0088613E+03;  4.0386289E-01;  7.2728091E+03;3;  6.4335831E+01;  0.0000000E+00;  1.1729298E+00;0;  2.3657866E-01;  1.0011538E+04;  0.0000000E+00;  4.0718974E-06;  1.0000000E+04;  0.0000000E+00;  9.9727520E+03; -1.5344475E-01;  0.0000000E+00;  3.9002341E-01;  1.1528417E+04;
  1.0204595E+00;  9.9999998E-03; -6.0080767E-02;2622;  2.0391926E-01;  0.0000000E+00; -2.6524054E-02;  1.0088661E+03;  4.0386283E-01;  7.2767324E+03;3;  6.4457993E+01;  0.0000000E+00;  9.7839946E-01;0;  2.4689555E-01;  1.0011778E+04;  0.0000000E+00;  1.9109375E-06;  1.0000000E+04;  0.0000000E+00;  9.9726035E+03; -1.6312325E-01;  0.0000000E+00;  4.1001880E-01;  1.1572465E+04;
  1.0204524E+00;  9.9999998E-03; -4.0054530E-02;2623;  2.0160733E-01;  0.0000000E+00; -1.8327579E-02;  1.0088684E+03;  4.0386280E-01;  7.2786963E+03;3;  6.4564796E+01;  0.0000000E+00;  6.7768794E-01;0;  2.5777560E-01;  1.0011920E+04;  0.0000000E+00;  1.4544398E-07;  1.0000000E+04;  0.0000000E+00;  9.9725127E+03; -1.7005181E-01;  0.0000000E+00;  4.2782742E-01;  1.1594402E+04;
  1.0204481E+00;  9.9999998E-03; -2.0027567E-02;2624;  2.0017783E-01;  0.0000000E+00; -9.3958192E-03;  1.0088691E+03;  4.0386283E-01;  7.2791895E+03;3;  6.4647293E+01;  0.0000000E+00;  3.4618473E-01;0;  2.6615492E-01;  1.0011995E+04;  0.0000000E+00; -1.1130025E-07;  1.0000000E+04;  0.0000000E+00;  9.9724482E+03; -1.7423737E-01;  0.0000000E+00;  4.4039229E-01;  1.1608452E+04;
  1.0405585E+00;  9.9999998E-03; -1.8021783E-01;2647;  2.3408751E-01;  0.0000000E+00; -6.4716108E-02;  1.0076164E+03;  4.0334427E-01;  6.2308560E+03;3;  6.5227974E+01;  0.0000000E+00; -4.4368367E+00;0;  1.6452225E-01;  1.0007799E+04;  0.0000000E+00; -1.6772907E-02;  1.0000000E+04;  0.0000000E+00;  9.9774727E+03; -8.5283503E-02;  0.0000000E+00;  2.4980575E-01;  9.2112539E+03;
  1.0405289E+00;  9.9999998E-03; -1.6019696E-01;2648;  2.2546564E-01;  0.0000000E+00; -5.8851197E-02;  1.0077048E+03;  4.0334418E-01;  6.3032529E+03;3;  6.4521347E+01;  0.0000000E+00; -2.7512538E+00;0;  1.5379637E-01;  1.0009971E+04;  0.0000000E+00; -1.7271524E-03;  1.0000000E+04;  0.0000000E+00;  9.9770547E+03; -1.2121228E-01;  0.0000000E+00;  2.7500865E-01;  9.3784717E+03;
  1.0405042E+00;  9.9999998E-03; -1.4017391E-01;2649;  2.1811512E-01;  0.0000000E+00; -5.2541200E-02;  1.0077529E+03;  4.0334409E-01;  6.3425845E+03;3;  6.4125031E+01;  0.0000000E+00; -1.3227515E+00;0;  1.5118881E-01;  1.0011543E+04;  0.0000000E+00; -1.3478760E-04;  1.0000000E+04;  0.0000000E+00;  9.9764453E+03; -1.4898463E-01;  0.0000000E+00;  3.0017343E-01;  9.6218721E+03;
  1.0404838E+00;  9.9999998E-03; -1.2014819E-01;2650;  2.1199098E-01;  0.0000000E+00; -4.5650765E-02;  1.0077767E+03;  4.0334412E-01;  6.3621128E+03;3;  6.3949627E+01;  0.0000000E+00; -3.8252047E-01;0;  1.5263048E-01;  1.0012591E+04;  0.0000000E+00; -5.5261786E-05;  1.0000000E+04;  0.0000000E+00;  9.9758662E+03; -1.7038599E-01;  0.0000000E+00;  3.2301646E-01;  9.8499980E+03;
  1.0404676E+00;  9.9999998E-03; -1.0012227E-01;2651;  2.0698191E-01;  0.0000000E+00; -3.8647685E-02;  1.0077899E+03;  4.0334421E-01;  6.3729580E+03;3;  6.3997993E+01;  0.0000000E+00;  1.8496522E-01;0;  1.5638596E-01;  1.0013281E+04;  0.0000000E+00; -5.4950542E-06;  1.0000000E+04;  0.0000000E+00;  9.9754424E+03; -1.8727949E-01;  0.0000000E+00;  3.4366545E-01;  1.0012905E+04;
  1.0404547E+00;  9.9999998E-03; -8.0097318E-02;2652;  2.0285404E-01;  0.0000000E+00; -3.1635940E-02;  1.0077988E+03;  4.0334424E-01;  6.3801895E+03;3;  6.4082596E+01;  0.0000000E+00;  4.2480889E-01;0;  1.6237333E-01;  1.0013716E+04;  0.0000000E+00;  9.9454564E-06;  1.0000000E+04;  0.0000000E+00;  9.9751855E+03; -2.0053139E-01;  0.0000000E+00;  3.6290473E-01;  1.0104441E+04;
  1.0404449E+00;  9.9999998E-03; -6.0073238E-02;2653;  1.9953044E-01;  0.0000000E+00; -2.4451798E-02;  1.0078055E+03;  4.0334433E-01;  6.3856626E+03;3;  6.4129326E+01;  0.0000000E+00;  3.9607331E-01;0;  1.7027013E-01;  1.0013980E+04;  0.0000000E+00;  7.8302255E-06;  1.0000000E+04;  0.0000000E+00;  9.9750518E+03; -2.1053232E-01;  0.0000000E+00;  3.8080245E-01;  1.0144340E+04;
  1.0404377E+00;  9.9999998E-03; -4.0049203E-02;2654;  1.9704217E-01;  0.0000000E+00; -1.6783588E-02;  1.0078099E+03;  4.0334427E-01;  6.3892793E+03;3;  6.4155518E+01;  0.0000000E+00;  2.6823142E-01;0;  1.7850295E-01;  1.0014133E+04;  0.0000000E+00;  2.8932484E-06;  1.0000000E+04;  0.0000000E+00;  9.9749893E+03; -2.1753645E-01;  0.0000000E+00;  3.9603940E-01;  1.0157820E+04;
  1.0404334E+00;  9.9999998E-03; -2.0024795E-02;2655;  1.9549251E-01;  0.0000000E+00; -8.5728588E-03;  1.0078117E+03;  4.0334427E-01;  6.3907476E+03;3;  6.4145905E+01;  0.0000000E+00;  1.2105818E-01;0;  1.8479371E-01;  1.0014214E+04;  0.0000000E+00;  4.7952187E-07;  1.0000000E+04;  0.0000000E+00;  9.9749512E+03; -2.2169617E-01;  0.0000000E+00;  4.0648988E-01;  1.0162284E+04;
  1.0605460E+00;  9.9999998E-03; -1.8019712E-01;2678;  2.3119810E-01;  0.0000000E+00; -5.9750084E-02;  1.0066097E+03;  4.0288761E-01;  5.3841582E+03;3;  6.5283333E+01;  0.0000000E+00; -4.8518066E+00;0;  1.1287169E-01;  1.0008539E+04;  0.0000000E+00; -5.8397193E-02;  1.0000000E+04;  0.0000000E+00;  9.9793818E+03; -1.1140938E-01;  0.0000000E+00;  2.2428107E-01;  8.0299326E+03;
  1.0605149E+00;  9.9999998E-03; -1.6017835E-01;2679;  2.2189143E-01;  0.0000000E+00; -5.4664265E-02;  1.0067000E+03;  4.0288764E-01;  5.4576108E+03;3;  6.4304276E+01;  0.0000000E+00; -3.4011421E+00;0;  1.0372904E-01;  1.0010541E+04;  0.0000000E+00; -9.4376113E-03;  1.0000000E+04;  0.0000000E+00;  9.9791719E+03; -1.4314348E-01;  0.0000000E+00;  2.4687251E-01;  8.1084287E+03;
  1.0604892E+00;  9.9999998E-03; -1.4015782E-01;2680;  2.1408845E-01;  0.0000000E+00; -4.9045824E-02;  1.0067603E+03;  4.0288767E-01;  5.5067817E+03;3;  6.3887302E+01;  0.0000000E+00; -2.2316675E+00;0;  1.0048293E-01;  1.0012212E+04;  0.0000000E+00; -4.0432124E-04;  1.0000000E+04;  0.0000000E+00;  9.9787012E+03; -1.7116554E-01;  0.0000000E+00;  2.7164847E-01;  8.2877266E+03;
  1.0604681E+00;  9.9999998E-03; -1.2013520E-01;2681;  2.0753154E-01;  0.0000000E+00; -4.2886753E-02;  1.0067969E+03;  4.0288770E-01;  5.5367192E+03;3;  6.3690250E+01;  0.0000000E+00; -1.3614712E+00;0;  1.0058632E-01;  1.0013451E+04;  0.0000000E+00; -1.2040865E-04;  1.0000000E+04;  0.0000000E+00;  9.9781943E+03; -1.9460148E-01;  0.0000000E+00;  2.9518780E-01;  8.4784268E+03;
  1.0604514E+00;  9.9999998E-03; -1.0011166E-01;2682;  2.0214680E-01;  0.0000000E+00; -3.6247361E-02;  1.0068192E+03;  4.0288764E-01;  5.5548037E+03;3;  6.3568001E+01;  0.0000000E+00; -8.3135092E-01;0;  1.0285552E-01;  1.0014296E+04;  0.0000000E+00; -2.4970084E-05;  1.0000000E+04;  0.0000000E+00;  9.9777900E+03; -2.1352421E-01;  0.0000000E+00;  3.1637973E-01;  8.6270059E+03;
  1.0604384E+00;  9.9999998E-03; -8.0088675E-02;2683;  1.9779491E-01;  0.0000000E+00; -2.9415427E-02;  1.0068332E+03;  4.0288776E-01;  5.5662803E+03;3;  6.3471008E+01;  0.0000000E+00; -4.4799921E-01;0;  1.0706991E-01;  1.0014847E+04;  0.0000000E+00;  1.3267597E-05;  1.0000000E+04;  0.0000000E+00;  9.9775215E+03; -2.2830057E-01;  0.0000000E+00;  3.3537048E-01;  8.7204160E+03;
  1.0604284E+00;  9.9999998E-03; -6.0066331E-02;2684;  1.9432798E-01;  0.0000000E+00; -2.2429680E-02;  1.0068423E+03;  4.0288776E-01;  5.5737715E+03;3;  6.3485611E+01;  0.0000000E+00; -1.0674007E-01;0;  1.1280708E-01;  1.0015186E+04;  0.0000000E+00;  1.6016598E-05;  1.0000000E+04;  0.0000000E+00;  9.9773672E+03; -2.3924641E-01;  0.0000000E+00;  3.5205349E-01;  8.7670645E+03;
  1.0604212E+00;  9.9999998E-03; -4.0044323E-02;2685;  1.9171174E-01;  0.0000000E+00; -1.5252353E-02;  1.0068484E+03;  4.0288773E-01;  5.5787339E+03;3;  6.3461559E+01;  0.0000000E+00; -3.2857917E-02;0;  1.1878593E-01;  1.0015379E+04;  0.0000000E+00;  7.9936344E-06;  1.0000000E+04;  0.0000000E+00;  9.9772949E+03; -2.4673529E-01;  0.0000000E+00;  3.6552122E-01;  8.7844453E+03;
  1.0604168E+00;  9.9999998E-03; -2.0022228E-02;2686;  1.9006926E-01;  0.0000000E+00; -7.7356142E-03;  1.0068515E+03;  4.0288776E-01;  5.5812642E+03;3;  6.3418434E+01;  0.0000000E+00; -1.5491259E-02;0;  1.2332073E-01;  1.0015472E+04;  0.0000000E+00;  1.8775744E-06;  1.0000000E+04;  0.0000000E+00;  9.9772617E+03; -2.5109369E-01;  0.0000000E+00;  3.7441441E-01;  8.7888994E+03;
  1.0805335E+00;  9.9999998E-03; -1.8017597E-01;2709;  2.2797042E-01;  0.0000000E+00; -5.4121844E-02;  1.0057111E+03;  4.0249559E-01;  4.6255708E+03;3;  6.5340324E+01;  0.0000000E+00; -5.1234837E+00;0;  7.5692654E-02;  1.0008576E+04;  0.0000000E+00; -1.5459085E-01;  1.0000000E+04;  0.0000000E+00;  9.9809404E+03; -1.2559609E-01;  0.0000000E+00;  2.0128874E-01;  7.0013755E+03;
  1.0805010E+00;  9.9999998E-03; -1.6016053E-01;2710;  2.1808802E-01;  0.0000000E+00; -5.0237555E-02;  1.0057969E+03;  4.0249568E-01;  4.6951377E+03;3;  6.4062805E+01;  0.0000000E+00; -3.9396110E+00;0;  6.8461299E-02;  1.0010234E+04;  0.0000000E+00; -3.7300810E-02;  1.0000000E+04;  0.0000000E+00;  9.9809922E+03; -1.5132383E-01;  0.0000000E+00;  2.1978512E-01;  6.9575098E+03;
  1.0804734E+00;  9.9999998E-03; -1.4014231E-01;2711;  2.0956981E-01;  0.0000000E+00; -4.5333266E-02;  1.0058699E+03;  4.0249574E-01;  4.7543672E+03;3;  6.3460732E+01;  0.0000000E+00; -2.9023840E+00;0;  6.4019233E-02;  1.0011926E+04;  0.0000000E+00; -3.2831517E-03;  1.0000000E+04;  0.0000000E+00;  9.9807529E+03; -1.7853539E-01;  0.0000000E+00;  2.4255462E-01;  7.0440747E+03;
  1.0804516E+00;  9.9999998E-03; -1.2012295E-01;2712;  2.0260321E-01;  0.0000000E+00; -3.9919063E-02;  1.0059239E+03;  4.0249568E-01;  4.7980430E+03;3;  6.3122879E+01;  0.0000000E+00; -2.0537970E+00;0;  6.1834574E-02;  1.0013382E+04;  0.0000000E+00; -2.3100000E-04;  1.0000000E+04;  0.0000000E+00;  9.9803789E+03; -2.0420653E-01;  0.0000000E+00;  2.6604110E-01;  7.1778071E+03;
  1.0804343E+00;  9.9999998E-03; -1.0010206E-01;2713;  1.9682245E-01;  0.0000000E+00; -3.3871643E-02;  1.0059598E+03;  4.0249556E-01;  4.8272295E+03;3;  6.2903149E+01;  0.0000000E+00; -1.4283282E+00;0;  6.2001452E-02;  1.0014449E+04;  0.0000000E+00; -8.2159000E-05;  1.0000000E+04;  0.0000000E+00;  9.9800273E+03; -2.2571151E-01;  0.0000000E+00;  2.8771296E-01;  7.3008853E+03;
  1.0804210E+00;  9.9999998E-03; -8.0081038E-02;2714;  1.9215882E-01;  0.0000000E+00; -2.7462095E-02;  1.0059821E+03;  4.0249565E-01;  4.8453071E+03;3;  6.2728813E+01;  0.0000000E+00; -1.0020417E+00;0;  6.4291924E-02;  1.0015168E+04;  0.0000000E+00; -4.2484630E-06;  1.0000000E+04;  0.0000000E+00;  9.9797529E+03; -2.4256322E-01;  0.0000000E+00;  3.0685514E-01;  7.3922041E+03;
  1.0804108E+00;  9.9999998E-03; -6.0060378E-02;2715;  1.8847205E-01;  0.0000000E+00; -2.0788150E-02;  1.0059957E+03;  4.0249565E-01;  4.8563296E+03;3;  6.2547108E+01;  0.0000000E+00; -6.7987406E-01;0;  6.8097740E-02;  1.0015615E+04;  0.0000000E+00;  1.6718463E-05;  1.0000000E+04;  0.0000000E+00;  9.9795742E+03; -2.5492778E-01;  0.0000000E+00;  3.2302552E-01;  7.4486567E+03;
  1.0804037E+00;  9.9999998E-03; -4.0040094E-02;2716;  1.8575884E-01;  0.0000000E+00; -1.3950843E-02;  1.0060038E+03;  4.0249574E-01;  4.8628110E+03;3;  6.2378635E+01;  0.0000000E+00; -3.8366166E-01;0;  7.2257280E-02;  1.0015877E+04;  0.0000000E+00;  1.1814617E-05;  1.0000000E+04;  0.0000000E+00;  9.9794727E+03; -2.6324287E-01;  0.0000000E+00;  3.3550015E-01;  7.4773257E+03;
  1.0803993E+00;  9.9999998E-03; -2.0020034E-02;2717;  1.8407112E-01;  0.0000000E+00; -7.0212479E-03;  1.0060081E+03;  4.0249565E-01;  4.8662939E+03;3;  6.2372082E+01;  0.0000000E+00; -1.2461190E-01;0;  7.5432390E-02;  1.0016011E+04;  0.0000000E+00;  3.3469350E-06;  1.0000000E+04;  0.0000000E+00;  9.9794238E+03; -2.6799902E-01;  0.0000000E+00;  3.4343141E-01;  7.4889868E+03;
  1.1005225E+00;  9.9999998E-03; -1.8015562E-01;2739;  2.2501346E-01;  0.0000000E+00; -4.8166487E-02;  1.0049301E+03;  4.0216655E-01;  3.9629094E+03;3;  6.5649956E+01;  0.0000000E+00; -5.1292577E+00;0;  4.9142167E-02;  1.0008201E+04;  0.0000000E+00; -3.3953232E-01;  1.0000000E+04;  0.0000000E+00;  9.9821309E+03; -1.3316163E-01;  0.0000000E+00;  1.8230380E-01;  6.1822729E+03;
  1.1004870E+00;  9.9999998E-03; -1.6014151E-01;2740;  2.1414438E-01;  0.0000000E+00; -4.5007952E-02;  1.0050024E+03;  4.0216678E-01;  4.0212322E+03;3;  6.3826145E+01;  0.0000000E+00; -4.3033719E+00;0;  4.5002744E-02;  1.0009314E+04;  0.0000000E+00; -1.1308556E-01;  1.0000000E+04;  0.0000000E+00;  9.9824512E+03; -1.5084791E-01;  0.0000000E+00;  1.9585066E-01;  5.9604707E+03;
  1.1004585E+00;  9.9999998E-03; -1.4012729E-01;2741;  2.0506594E-01;  0.0000000E+00; -4.1334093E-02;  1.0050809E+03;  4.0216675E-01;  4.0843362E+03;3;  6.2887684E+01;  0.0000000E+00; -3.3703742E+00;0;  4.0181607E-02;  1.0010829E+04;  0.0000000E+00; -2.0663721E-02;  1.0000000E+04;  0.0000000E+00;  9.9824971E+03; -1.7476723E-01;  0.0000000E+00;  2.1494883E-01;  5.9342896E+03;
  1.1004354E+00;  9.9999998E-03; -1.2011060E-01;2742;  1.9743787E-01;  0.0000000E+00; -3.6711626E-02;  1.0051526E+03;  4.0216666E-01;  4.1419697E+03;3;  6.2373047E+01;  0.0000000E+00; -2.6512148E+00;0;  3.5576552E-02;  1.0012419E+04;  0.0000000E+00; -1.4311352E-03;  1.0000000E+04;  0.0000000E+00;  9.9823389E+03; -2.0119894E-01;  0.0000000E+00;  2.3677549E-01;  5.9898525E+03;
  1.1004174E+00;  9.9999998E-03; -1.0009292E-01;2743;  1.9126198E-01;  0.0000000E+00; -3.1404469E-02;  1.0052067E+03;  4.0216660E-01;  4.1855078E+03;3;  6.1998009E+01;  0.0000000E+00; -1.9720774E+00;0;  3.2912418E-02;  1.0013741E+04;  0.0000000E+00; -1.9790124E-04;  1.0000000E+04;  0.0000000E+00;  9.9820967E+03; -2.2526483E-01;  0.0000000E+00;  2.5817725E-01;  6.0705879E+03;
  1.1004034E+00;  9.9999998E-03; -8.0073982E-02;2744;  1.8624555E-01;  0.0000000E+00; -2.5432730E-02;  1.0052424E+03;  4.0216672E-01;  4.2142817E+03;3;  6.1681141E+01;  0.0000000E+00; -1.4072170E+00;0;  3.2757282E-02;  1.0014687E+04;  0.0000000E+00; -6.7034183E-05;  1.0000000E+04;  0.0000000E+00;  9.9818633E+03; -2.4454650E-01;  0.0000000E+00;  2.7730379E-01;  6.1469946E+03;
  1.1003932E+00;  9.9999998E-03; -6.0055103E-02;2745;  1.8235233E-01;  0.0000000E+00; -1.9208090E-02;  1.0052639E+03;  4.0216666E-01;  4.2314541E+03;3;  6.1422092E+01;  0.0000000E+00; -9.4170696E-01;0;  3.4490198E-02;  1.0015311E+04;  0.0000000E+00; -7.7349414E-06;  1.0000000E+04;  0.0000000E+00;  9.9816689E+03; -2.5875169E-01;  0.0000000E+00;  2.9324189E-01;  6.2063545E+03;
  1.1003859E+00;  9.9999998E-03; -4.0036451E-02;2746;  1.7950100E-01;  0.0000000E+00; -1.2828084E-02;  1.0052759E+03;  4.0216672E-01;  4.2412417E+03;3;  6.1215061E+01;  0.0000000E+00; -5.7470667E-01;0;  3.6988199E-02;  1.0015676E+04;  0.0000000E+00;  5.8223532E-06;  1.0000000E+04;  0.0000000E+00;  9.9815410E+03; -2.6824963E-01;  0.0000000E+00;  3.0523783E-01;  6.2451128E+03;
  1.1003815E+00;  9.9999998E-03; -2.0018123E-02;2747;  1.7774998E-01;  0.0000000E+00; -6.4105126E-03;  1.0052817E+03;  4.0216681E-01;  4.2458501E+03;3;  6.1073982E+01;  0.0000000E+00; -2.7312961E-01;0;  3.9054066E-02;  1.0015867E+04;  0.0000000E+00;  2.7309311E-06;  1.0000000E+04;  0.0000000E+00;  9.9814688E+03; -2.7362460E-01;  0.0000000E+00;  3.1267866E-01;  6.2656978E+03;
  1.1205142E+00;  9.9999998E-03; -1.8013665E-01;2768;  2.2252052E-01;  0.0000000E+00; -4.1947484E-02;  1.0042719E+03;  4.0189689E-01;  3.3999641E+03;3;  6.6526787E+01;  0.0000000E+00; -4.8964891E+00;0;  3.0330628E-02;  1.0007633E+04;  0.0000000E+00; -6.5285724E-01;  1.0000000E+04;  0.0000000E+00;  9.9830107E+03; -1.3744898E-01;  0.0000000E+00;  1.6777961E-01;  5.6748350E+03;
  1.1204753E+00;  9.9999998E-03; -1.6012309E-01;2769;  2.1063283E-01;  0.0000000E+00; -3.9321885E-02;  1.0043192E+03;  4.0189716E-01;  3.4377065E+03;3;  6.3803211E+01;  0.0000000E+00; -4.2307515E+00;0;  3.0897453E-02;  1.0008052E+04;  0.0000000E+00; -2.8483433E-01;  1.0000000E+04;  0.0000000E+00;  9.9835225E+03; -1.4590283E-01;  0.0000000E+00;  1.7680028E-01;  5.1662900E+03;
  1.1204445E+00;  9.9999998E-03; -1.4011092E-01;2770;  2.0071116E-01;  0.0000000E+00; -3.6594510E-02;  1.0043904E+03;  4.0189704E-01;  3.4944106E+03;3;  6.2370449E+01;  0.0000000E+00; -3.6900327E+00;0;  2.7884558E-02;  1.0009143E+04;  0.0000000E+00; -8.5700847E-02;  1.0000000E+04;  0.0000000E+00;  9.9838457E+03; -1.6338073E-01;  0.0000000E+00;  1.9126529E-01;  4.9907188E+03;
  1.1204203E+00;  9.9999998E-03; -1.2009814E-01;2771;  1.9249116E-01;  0.0000000E+00; -3.3094544E-02;  1.0044712E+03;  4.0189722E-01;  3.5587891E+03;3;  6.1544804E+01;  0.0000000E+00; -2.9737909E+00;0;  2.2235498E-02;  1.0010636E+04;  0.0000000E+00; -1.5168427E-02;  1.0000000E+04;  0.0000000E+00;  9.9839658E+03; -1.8730147E-01;  0.0000000E+00;  2.0953697E-01;  4.9542451E+03;
  1.1204013E+00;  9.9999998E-03; -1.0008313E-01;2772;  1.8573214E-01;  0.0000000E+00; -2.8637769E-02;  1.0045437E+03;  4.0189710E-01;  3.6165171E+03;3;  6.0960903E+01;  0.0000000E+00; -2.4061866E+00;0;  1.6782224E-02;  1.0012132E+04;  0.0000000E+00; -1.3137725E-03;  1.0000000E+04;  0.0000000E+00;  9.9839150E+03; -2.1230118E-01;  0.0000000E+00;  2.2908340E-01;  4.9753325E+03;
  1.1203870E+00;  9.9999998E-03; -8.0067113E-02;2773;  1.8036999E-01;  0.0000000E+00; -2.3409208E-02;  1.0045976E+03;  4.0189710E-01;  3.6594346E+03;3;  6.0473228E+01;  0.0000000E+00; -1.7631247E+00;0;  1.3466030E-02;  1.0013341E+04;  0.0000000E+00; -1.8258991E-04;  1.0000000E+04;  0.0000000E+00;  9.9837822E+03; -2.3391157E-01;  0.0000000E+00;  2.4737760E-01;  5.0201851E+03;
  1.1203761E+00;  9.9999998E-03; -6.0050070E-02;2774;  1.7621183E-01;  0.0000000E+00; -1.7628506E-02;  1.0046323E+03;  4.0189725E-01;  3.6870686E+03;3;  6.0095051E+01;  0.0000000E+00; -1.2006228E+00;0;  1.2521923E-02;  1.0014188E+04;  0.0000000E+00; -7.0916460E-05;  1.0000000E+04;  0.0000000E+00;  9.9836289E+03; -2.5027746E-01;  0.0000000E+00;  2.6279938E-01;  5.0683169E+03;
  1.1203687E+00;  9.9999998E-03; -4.0033195E-02;2775;  1.7324086E-01;  0.0000000E+00; -1.1732168E-02;  1.0046523E+03;  4.0189710E-01;  3.7030247E+03;3;  5.9806881E+01;  0.0000000E+00; -6.8120617E-01;0;  1.3022035E-02;  1.0014719E+04;  0.0000000E+00; -1.9283900E-05;  1.0000000E+04;  0.0000000E+00;  9.9834980E+03; -2.6134667E-01;  0.0000000E+00;  2.7436870E-01;  5.1075557E+03;
  1.1203643E+00;  9.9999998E-03; -2.0016495E-02;2776;  1.7142779E-01;  0.0000000E+00; -5.8207386E-03;  1.0046622E+03;  4.0189704E-01;  3.7109099E+03;3;  5.9639931E+01;  0.0000000E+00; -2.4135262E-01;0;  1.3852477E-02;  1.0015004E+04;  0.0000000E+00; -2.8634245E-06;  1.0000000E+04;  0.0000000E+00;  9.9834150E+03; -2.6763105E-01;  0.0000000E+00;  2.8148353E-01;  5.1321528E+03;
  1.1405088E+00;  9.9999998E-03; -1.8012013E-01;2796;  2.2055562E-01;  0.0000000E+00; -3.5830632E-02;  1.0037384E+03;  4.0168083E-01;  2.9372188E+03;3;  6.8133141E+01;  0.0000000E+00; -4.5566726E+00;0;  1.5936196E-02;  1.0007067E+04;  0.0000000E+00; -1.1181815E+00;  1.0000000E+04;  0.0000000E+00;  9.9837080E+03; -1.4090684E-01;  0.0000000E+00;  1.5684304E-01;  5.5739941E+03;
  1.1404665E+00;  9.9999998E-03; -1.6010639E-01;2797;  2.0779359E-01;  0.0000000E+00; -3.3581983E-02;  1.0037527E+03;  4.0168071E-01;  2.9485496E+03;3;  6.4316818E+01;  0.0000000E+00; -3.9690013E+00;0;  2.2093907E-02;  1.0006777E+04;  0.0000000E+00; -6.0949373E-01;  1.0000000E+04;  0.0000000E+00;  9.9842783E+03; -1.4105694E-01;  0.0000000E+00;  1.6315085E-01;  4.6841431E+03;
  1.1404330E+00;  9.9999998E-03; -1.4009492E-01;2798;  1.9689542E-01;  0.0000000E+00; -3.1253826E-02;  1.0038013E+03;  4.0168086E-01;  2.9868376E+03;3;  6.2095158E+01;  0.0000000E+00; -3.5466392E+00;0;  2.3388430E-02;  1.0007220E+04;  0.0000000E+00; -2.5943446E-01;  1.0000000E+04;  0.0000000E+00;  9.9847959E+03; -1.4980933E-01;  0.0000000E+00;  1.7319776E-01;  4.2531167E+03;
  1.1404068E+00;  9.9999998E-03; -1.2008442E-01;2799;  1.8794699E-01;  0.0000000E+00; -2.8758671E-02;  1.0038754E+03;  4.0168083E-01;  3.0450627E+03;3;  6.0777992E+01;  0.0000000E+00; -3.1465552E+00;0;  1.9503608E-02;  1.0008318E+04;  0.0000000E+00; -8.2016684E-02;  1.0000000E+04;  0.0000000E+00;  9.9851768E+03; -1.6728204E-01;  0.0000000E+00;  1.8678565E-01;  4.0949187E+03;
  1.1403869E+00;  9.9999998E-03; -1.0007304E-01;2800;  1.8063815E-01;  0.0000000E+00; -2.5403878E-02;  1.0039556E+03;  4.0168071E-01;  3.1081467E+03;3;  5.9885796E+01;  0.0000000E+00; -2.5130367E+00;0;  1.3077587E-02;  1.0009720E+04;  0.0000000E+00; -1.8154474E-02;  1.0000000E+04;  0.0000000E+00;  9.9853809E+03; -1.8947431E-01;  0.0000000E+00;  2.0255190E-01;  4.0451003E+03;
  1.1403717E+00;  9.9999998E-03; -8.0059417E-02;2801;  1.7478268E-01;  0.0000000E+00; -2.1048667E-02;  1.0040255E+03;  4.0168083E-01;  3.1630723E+03;3;  5.9225231E+01;  0.0000000E+00; -2.0191729E+00;0;  7.0671141E-03;  1.0011067E+04;  0.0000000E+00; -2.5530066E-03;  1.0000000E+04;  0.0000000E+00;  9.9854238E+03; -2.1137294E-01;  0.0000000E+00;  2.1844006E-01;  4.0438462E+03;
  1.1403606E+00;  9.9999998E-03; -6.0044974E-02;2802;  1.7036927E-01;  0.0000000E+00; -1.6032275E-02;  1.0040764E+03;  4.0168080E-01;  3.2030955E+03;3;  5.8693264E+01;  0.0000000E+00; -1.3968651E+00;0;  2.9733479E-03;  1.0012141E+04;  0.0000000E+00; -2.6100880E-04;  1.0000000E+04;  0.0000000E+00;  9.9853721E+03; -2.2947563E-01;  0.0000000E+00;  2.3244898E-01;  4.0656819E+03;
  1.1403530E+00;  9.9999998E-03; -4.0029876E-02;2803;  1.6722776E-01;  0.0000000E+00; -1.0632982E-02;  1.0041089E+03;  4.0168080E-01;  3.2286860E+03;3;  5.8299755E+01;  0.0000000E+00; -8.0681938E-01;0;  8.7322295E-04;  1.0012875E+04;  0.0000000E+00; -6.3157277E-05;  1.0000000E+04;  0.0000000E+00;  9.9852900E+03; -2.4228953E-01;  0.0000000E+00;  2.4316275E-01;  4.0925437E+03;
  1.1403484E+00;  9.9999998E-03; -2.0014914E-02;2804;  1.6537419E-01;  0.0000000E+00; -5.2546421E-03;  1.0041260E+03;  4.0168071E-01;  3.2421855E+03;3;  5.8147999E+01;  0.0000000E+00; -3.2833284E-01;0;  5.5402517E-05;  1.0013281E+04;  0.0000000E+00; -1.4029491E-05;  1.0000000E+04;  0.0000000E+00;  9.9852266E+03; -2.4972700E-01;  0.0000000E+00;  2.4978240E-01;  4.1126030E+03;
  1.1605085E+00;  9.9999998E-03; -1.8010852E-01;2823;  2.1922845E-01;  0.0000000E+00; -3.0501144E-02;  1.0033177E+03;  4.0151098E-01;  2.5637576E+03;3;  7.0825813E+01;  0.0000000E+00; -4.0797443E+00;0;  4.2238683E-03;  1.0006535E+04;  0.0000000E+00; -1.7078646E+00;  1.0000000E+04;  0.0000000E+00;  9.9843115E+03; -1.4402971E-01;  0.0000000E+00;  1.4825357E-01;  5.7761646E+03;
  1.1604617E+00;  9.9999998E-03; -1.6009292E-01;2824;  2.0573606E-01;  0.0000000E+00; -2.8182607E-02;  1.0033099E+03;  4.0151116E-01;  2.5577900E+03;3;  6.5643951E+01;  0.0000000E+00; -3.5873597E+00;0;  1.3616070E-02;  1.0005813E+04;  0.0000000E+00; -1.1154919E+00;  1.0000000E+04;  0.0000000E+00;  9.9848701E+03; -1.4014854E-01;  0.0000000E+00;  1.5376461E-01;  4.6261807E+03;
  1.1604247E+00;  9.9999998E-03; -1.4008076E-01;2825;  1.9389232E-01;  0.0000000E+00; -2.6020886E-02;  1.0033242E+03;  4.0151131E-01;  2.5690256E+03;3;  6.2415932E+01;  0.0000000E+00; -3.2360907E+00;0;  2.0586982E-02;  1.0005513E+04;  0.0000000E+00; -6.0795754E-01;  1.0000000E+04;  0.0000000E+00;  9.9854463E+03; -1.4018138E-01;  0.0000000E+00;  1.6076836E-01;  3.8299592E+03;
  1.1603962E+00;  9.9999998E-03; -1.2007093E-01;2826;  1.8409759E-01;  0.0000000E+00; -2.3824392E-02;  1.0033732E+03;  4.0151116E-01;  2.6068665E+03;3;  6.0436699E+01;  0.0000000E+00; -2.8608942E+00;0;  2.1387815E-02;  1.0005938E+04;  0.0000000E+00; -2.7308610E-01;  1.0000000E+04;  0.0000000E+00;  9.9859990E+03; -1.4841482E-01;  0.0000000E+00;  1.6980264E-01;  3.4449446E+03;
  1.1603745E+00;  9.9999998E-03; -1.0006163E-01;2827;  1.7615415E-01;  0.0000000E+00; -2.1446243E-02;  1.0034434E+03;  4.0151110E-01;  2.6611838E+03;3;  5.9039532E+01;  0.0000000E+00; -2.4958086E+00;0;  1.7131850E-02;  1.0006911E+04;  0.0000000E+00; -1.0017709E-01;  1.0000000E+04;  0.0000000E+00;  9.9864248E+03; -1.6361342E-01;  0.0000000E+00;  1.8074527E-01;  3.2927383E+03;
  1.1603585E+00;  9.9999998E-03; -8.0051348E-02;2828;  1.6985199E-01;  0.0000000E+00; -1.8252693E-02;  1.0035157E+03;  4.0151116E-01;  2.7171477E+03;3;  5.8077587E+01;  0.0000000E+00; -1.9733094E+00;0;  1.0705709E-02;  1.0008096E+04;  0.0000000E+00; -2.9490270E-02;  1.0000000E+04;  0.0000000E+00;  9.9866826E+03; -1.8183394E-01;  0.0000000E+00;  1.9253965E-01;  3.2359905E+03;
  1.1603467E+00;  9.9999998E-03; -6.0039088E-02;2829;  1.6504037E-01;  0.0000000E+00; -1.4074553E-02;  1.0035768E+03;  4.0151104E-01;  2.7643496E+03;3;  5.7310280E+01;  0.0000000E+00; -1.4741077E+00;0;  4.6400428E-03;  1.0009197E+04;  0.0000000E+00; -6.4576366E-03;  1.0000000E+04;  0.0000000E+00;  9.9867998E+03; -1.9901834E-01;  0.0000000E+00;  2.0365839E-01;  3.2213059E+03;
  1.1603389E+00;  9.9999998E-03; -4.0026262E-02;2830;  1.6174166E-01;  0.0000000E+00; -9.4522089E-03;  1.0036203E+03;  4.0151104E-01;  2.7979983E+03;3;  5.6835213E+01;  0.0000000E+00; -8.8126761E-01;0;  1.2791157E-04;  1.0010047E+04;  0.0000000E+00; -9.7444310E-04;  1.0000000E+04;  0.0000000E+00;  9.9868232E+03; -2.1248773E-01;  0.0000000E+00;  2.1261564E-01;  3.2255466E+03;
  1.1603343E+00;  9.9999998E-03; -2.0013200E-02;2831;  1.5982004E-01;  0.0000000E+00; -4.6775341E-03;  1.0036458E+03;  4.0151104E-01;  2.8177271E+03;3;  5.6666222E+01;  0.0000000E+00; -4.3275827E-01;0; -2.5271028E-03;  1.0010567E+04;  0.0000000E+00; -6.1111255E-05;  1.0000000E+04;  0.0000000E+00;  9.9868115E+03; -2.2083458E-01;  0.0000000E+00;  2.1830748E-01;  3.2336965E+03;
  1.1805176E+00;  9.9999998E-03; -1.8010545E-01;2849;  2.1915923E-01;  0.0000000E+00; -2.6843978E-02;  1.0029441E+03;  4.0138069E-01;  2.2276663E+03;3;  7.4982162E+01;  0.0000000E+00; -3.2402337E+00;0;  3.7040859E-03;  1.0005310E+04;  0.0000000E+00; -2.3278842E+00;  1.0000000E+04;  0.0000000E+00;  9.9845908E+03; -1.3945304E-01;  0.0000000E+00;  1.4315712E-01;  5.9470078E+03;
  1.1804636E+00;  9.9999998E-03; -1.6008589E-01;2850;  2.0473340E-01;  0.0000000E+00; -2.3994969E-02;  1.0029747E+03;  4.0138054E-01;  2.2509907E+03;3;  6.8461258E+01;  0.0000000E+00; -3.0191958E+00;0;  4.3377280E-03;  1.0005151E+04;  0.0000000E+00; -1.7533803E+00;  1.0000000E+04;  0.0000000E+00;  9.9853467E+03; -1.4308472E-01;  0.0000000E+00;  1.4742245E-01;  4.8483857E+03;
  1.1804209E+00;  9.9999998E-03; -1.4007072E-01;2851;  1.9183041E-01;  0.0000000E+00; -2.1413360E-02;  1.0029683E+03;  4.0138078E-01;  2.2462322E+03;3;  6.3889374E+01;  0.0000000E+00; -2.7364697E+00;0;  1.3249904E-02;  1.0004399E+04;  0.0000000E+00; -1.1484866E+00;  1.0000000E+04;  0.0000000E+00;  9.9859619E+03; -1.3904500E-01;  0.0000000E+00;  1.5229490E-01;  3.8139800E+03;
  1.1803889E+00;  9.9999998E-03; -1.2005962E-01;2852;  1.8115368E-01;  0.0000000E+00; -1.9194143E-02;  1.0029795E+03;  4.0138078E-01;  2.2547961E+03;3;  6.0795521E+01;  0.0000000E+00; -2.5131917E+00;0;  2.0159051E-02;  1.0004018E+04;  0.0000000E+00; -6.5132624E-01;  1.0000000E+04;  0.0000000E+00;  9.9865645E+03; -1.3774514E-01;  0.0000000E+00;  1.5790419E-01;  3.1082551E+03;
  1.1803652E+00;  9.9999998E-03; -1.0005084E-01;2853;  1.7247902E-01;  0.0000000E+00; -1.7055083E-02;  1.0030188E+03;  4.0138072E-01;  2.2846304E+03;3;  5.8736015E+01;  0.0000000E+00; -2.1159582E+00;0;  2.1195263E-02;  1.0004254E+04;  0.0000000E+00; -3.1820458E-01;  1.0000000E+04;  0.0000000E+00;  9.9871143E+03; -1.4307927E-01;  0.0000000E+00;  1.6427453E-01;  2.7506489E+03;
  1.1803476E+00;  9.9999998E-03; -8.0042265E-02;2854;  1.6565256E-01;  0.0000000E+00; -1.4755432E-02;  1.0030743E+03;  4.0138075E-01;  2.3266289E+03;3;  5.7238403E+01;  0.0000000E+00; -1.7578574E+00;0;  1.7685592E-02;  1.0004928E+04;  0.0000000E+00; -1.3224494E-01;  1.0000000E+04;  0.0000000E+00;  9.9875449E+03; -1.5364318E-01;  0.0000000E+00;  1.7132877E-01;  2.6014226E+03;
  1.1803350E+00;  9.9999998E-03; -6.0032800E-02;2855;  1.6057061E-01;  0.0000000E+00; -1.1774305E-02;  1.0031299E+03;  4.0138063E-01;  2.3687954E+03;3;  5.6294247E+01;  0.0000000E+00; -1.3664191E+00;0;  1.2190625E-02;  1.0005760E+04;  0.0000000E+00; -4.4701625E-02;  1.0000000E+04;  0.0000000E+00;  9.9878252E+03; -1.6618516E-01;  0.0000000E+00;  1.7837578E-01;  2.5426274E+03;
  1.1803268E+00;  9.9999998E-03; -4.0022250E-02;2856;  1.5700358E-01;  0.0000000E+00; -7.9818722E-03;  1.0031751E+03;  4.0138078E-01;  2.4030117E+03;3;  5.5625340E+01;  0.0000000E+00; -8.5594797E-01;0;  6.8751872E-03;  1.0006506E+04;  0.0000000E+00; -1.1209780E-02;  1.0000000E+04;  0.0000000E+00;  9.9879805E+03; -1.7758380E-01;  0.0000000E+00;  1.8445899E-01;  2.5207056E+03;
  1.1803221E+00;  9.9999998E-03; -2.0011162E-02;2857;  1.5497813E-01;  0.0000000E+00; -4.0017129E-03;  1.0032043E+03;  4.0138075E-01;  2.4251294E+03;3;  5.5379520E+01;  0.0000000E+00; -4.9258161E-01;0;  3.1756014E-03;  1.0007013E+04;  0.0000000E+00; -1.5261205E-03;  1.0000000E+04;  0.0000000E+00;  9.9880527E+03; -1.8537721E-01;  0.0000000E+00;  1.8855281E-01;  2.5139165E+03;
  1.2005322E+00;  9.9999998E-03; -1.8010820E-01;2873;  2.2004305E-01;  0.0000000E+00; -2.4907872E-02;  1.0025314E+03;  4.0128249E-01;  1.8658921E+03;3;  8.1443504E+01;  0.0000000E+00; -2.6653900E+00;0;  3.3145517E-02;  1.0002112E+04;  0.0000000E+00; -2.6962979E+00;  1.0000000E+04;  0.0000000E+00;  9.9844512E+03; -1.1002263E-01;  0.0000000E+00;  1.4316815E-01;  5.5025371E+03;
  1.2004775E+00;  9.9999998E-03; -1.6008893E-01;2874;  2.0575623E-01;  0.0000000E+00; -2.2107318E-02;  1.0026533E+03;  4.0128258E-01;  1.9559365E+03;3;  7.2875839E+01;  0.0000000E+00; -2.2134130E+00;0;  1.1427492E-02;  1.0003599E+04;  0.0000000E+00; -2.4035239E+00;  1.0000000E+04;  0.0000000E+00;  9.9853857E+03; -1.3550439E-01;  0.0000000E+00;  1.4693189E-01;  4.9812651E+03;
  1.2004262E+00;  9.9999998E-03; -1.4006919E-01;2875;  1.9113742E-01;  0.0000000E+00; -1.8505104E-02;  1.0027045E+03;  4.0128255E-01;  1.9937830E+03;3;  6.6743332E+01;  0.0000000E+00; -2.0265651E+00;0;  3.1469762E-03;  1.0003679E+04;  0.0000000E+00; -1.7949699E+00;  1.0000000E+04;  0.0000000E+00;  9.9863184E+03; -1.4382310E-01;  0.0000000E+00;  1.4697008E-01;  3.9940601E+03;
  1.2003871E+00;  9.9999998E-03; -1.2005369E-01;2876;  1.7920937E-01;  0.0000000E+00; -1.5547544E-02;  1.0027020E+03;  4.0128261E-01;  1.9920497E+03;3;  6.2550865E+01;  0.0000000E+00; -1.9297729E+00;0;  1.0074839E-02;  1.0002920E+04;  0.0000000E+00; -1.1881104E+00;  1.0000000E+04;  0.0000000E+00;  9.9870176E+03; -1.3901033E-01;  0.0000000E+00;  1.4908516E-01;  3.0988740E+03;
  1.2003596E+00;  9.9999998E-03; -1.0004281E-01;2877;  1.6970503E-01;  0.0000000E+00; -1.3144380E-02;  1.0027001E+03;  4.0128264E-01;  1.9907228E+03;3;  5.9414413E+01;  0.0000000E+00; -1.6959897E+00;0;  1.7340451E-02;  1.0002312E+04;  0.0000000E+00; -6.9393855E-01;  1.0000000E+04;  0.0000000E+00;  9.9875869E+03; -1.3446276E-01;  0.0000000E+00;  1.5180321E-01;  2.4846853E+03;
  1.2003400E+00;  9.9999998E-03; -8.0034599E-02;2878;  1.6241571E-01;  0.0000000E+00; -1.1063646E-02;  1.0027185E+03;  4.0128258E-01;  2.0043146E+03;3;  5.7252304E+01;  0.0000000E+00; -1.2957752E+00;0;  1.9882977E-02;  1.0002197E+04;  0.0000000E+00; -3.4966761E-01;  1.0000000E+04;  0.0000000E+00;  9.9880674E+03; -1.3485797E-01;  0.0000000E+00;  1.5474094E-01;  2.1616145E+03;
  1.2003261E+00;  9.9999998E-03; -6.0026623E-02;2879;  1.5691932E-01;  0.0000000E+00; -8.9261672E-03;  1.0027503E+03;  4.0128264E-01;  2.0278226E+03;3;  5.5868389E+01;  0.0000000E+00; -9.9631828E-01;0;  1.8124670E-02;  1.0002458E+04;  0.0000000E+00; -1.4609435E-01;  1.0000000E+04;  0.0000000E+00;  9.9884404E+03; -1.3960806E-01;  0.0000000E+00;  1.5773273E-01;  2.0263518E+03;
  1.2003170E+00;  9.9999998E-03; -4.0018067E-02;2880;  1.5313192E-01;  0.0000000E+00; -6.2732617E-03;  1.0027830E+03;  4.0128255E-01;  2.0519329E+03;3;  5.4955280E+01;  0.0000000E+00; -7.5701916E-01;0;  1.4422938E-02;  1.0002859E+04;  0.0000000E+00; -4.6675581E-02;  1.0000000E+04;  0.0000000E+00;  9.9886943E+03; -1.4606050E-01;  0.0000000E+00;  1.6048343E-01;  1.9748245E+03;
  1.2003119E+00;  9.9999998E-03; -2.0009136E-02;2881;  1.5101112E-01;  0.0000000E+00; -3.1932453E-03;  1.0028067E+03;  4.0128258E-01;  2.0694392E+03;3;  5.4668369E+01;  0.0000000E+00; -3.8278809E-01;0;  1.1137724E-02;  1.0003194E+04;  0.0000000E+00; -8.7223798E-03;  1.0000000E+04;  0.0000000E+00;  9.9888369E+03; -1.5135561E-01;  0.0000000E+00;  1.6249333E-01;  1.9549568E+03;
  1.2205423E+00;  9.9999998E-03; -1.8011233E-01;2896;  2.1931320E-01;  0.0000000E+00; -2.3962969E-02;  1.0020767E+03;  4.0121028E-01;  1.4827543E+03;3;  9.0675240E+01;  0.0000000E+00; -2.9898798E+00;0;  9.1806844E-02;  9.9969277E+03;  0.0000000E+00; -2.1319654E+00;  1.0000000E+04;  0.0000000E+00;  9.9841660E+03; -5.3933725E-02;  0.0000000E+00;  1.4574057E-01;  3.7832144E+03;
  1.2204956E+00;  9.9999998E-03; -1.6009559E-01;2897;  2.0692655E-01;  0.0000000E+00; -2.1193573E-02;  1.0022577E+03;  4.0121028E-01;  1.6121790E+03;3;  8.0030876E+01;  0.0000000E+00; -1.7374908E+00;0;  5.0299019E-02;  9.9996426E+03;  0.0000000E+00; -2.6639538E+00;  1.0000000E+04;  0.0000000E+00;  9.9850615E+03; -9.9096864E-02;  0.0000000E+00;  1.4939588E-01;  4.3908169E+03;
  1.2204453E+00;  9.9999998E-03; -1.4007753E-01;2898;  1.9303454E-01;  0.0000000E+00; -1.8186990E-02;  1.0024002E+03;  4.0121019E-01;  1.7140529E+03;3;  7.2075180E+01;  0.0000000E+00; -1.3121911E+00;0;  1.8763497E-02;  1.0001413E+04;  0.0000000E+00; -2.3638117E+00;  1.0000000E+04;  0.0000000E+00;  9.9861260E+03; -1.2991104E-01;  0.0000000E+00;  1.4867453E-01;  3.9548726E+03;
  1.2203984E+00;  9.9999998E-03; -1.2005889E-01;2899;  1.7936456E-01;  0.0000000E+00; -1.4328729E-02;  1.0024732E+03;  4.0121028E-01;  1.7663821E+03;3;  6.5921127E+01;  0.0000000E+00; -1.0359775E+00;0;  2.2448748E-03;  1.0001859E+04;  0.0000000E+00; -1.7493570E+00;  1.0000000E+04;  0.0000000E+00;  9.9871309E+03; -1.4227323E-01;  0.0000000E+00;  1.4451811E-01;  3.1423726E+03;
  1.2203621E+00;  9.9999998E-03; -1.0004273E-01;2900;  1.6822743E-01;  0.0000000E+00; -1.0827630E-02;  1.0024811E+03;  4.0121034E-01;  1.7721130E+03;3;  6.1633114E+01;  0.0000000E+00; -9.8128414E-01;0;  3.8437247E-03;  1.0001279E+04;  0.0000000E+00; -1.1365432E+00;  1.0000000E+04;  0.0000000E+00;  9.9878613E+03; -1.3831107E-01;  0.0000000E+00;  1.4215480E-01;  2.4033691E+03;
  1.2203374E+00;  9.9999998E-03; -8.0031157E-02;2901;  1.6009718E-01;  0.0000000E+00; -8.1991898E-03;  1.0024658E+03;  4.0121028E-01;  1.7612046E+03;3;  5.8574097E+01;  0.0000000E+00; -8.2439131E-01;0;  1.1238500E-02;  1.0000477E+04;  0.0000000E+00; -6.4430481E-01;  1.0000000E+04;  0.0000000E+00;  9.9883525E+03; -1.3025522E-01;  0.0000000E+00;  1.4149372E-01;  1.9109736E+03;
  1.2203211E+00;  9.9999998E-03; -6.0022708E-02;2902;  1.5421957E-01;  0.0000000E+00; -6.2384470E-03;  1.0024598E+03;  4.0121025E-01;  1.7569968E+03;3;  5.6546974E+01;  0.0000000E+00; -4.6982357E-01;0;  1.5635431E-02;  9.9999951E+03;  0.0000000E+00; -3.0581224E-01;  1.0000000E+04;  0.0000000E+00;  9.9887119E+03; -1.2580469E-01;  0.0000000E+00;  1.4144012E-01;  1.6663563E+03;
  1.2203107E+00;  9.9999998E-03; -4.0015373E-02;2903;  1.5019347E-01;  0.0000000E+00; -4.4247122E-03;  1.0024654E+03;  4.0121031E-01;  1.7610306E+03;3;  5.5467445E+01;  0.0000000E+00; -2.2630735E-01;0;  1.6048342E-02;  9.9998477E+03;  0.0000000E+00; -1.1208902E-01;  1.0000000E+04;  0.0000000E+00;  9.9889775E+03; -1.2547480E-01;  0.0000000E+00;  1.4152314E-01;  1.5732355E+03;
  1.2203047E+00;  9.9999998E-03; -2.0007806E-02;2904;  1.4778170E-01;  0.0000000E+00; -2.2994496E-03;  1.0024743E+03;  4.0121031E-01;  1.7674351E+03;3;  5.4670547E+01;  0.0000000E+00; -1.0733083E-01;0;  1.4886200E-02;  9.9998584E+03;  0.0000000E+00; -2.3758318E-02;  1.0000000E+04;  0.0000000E+00;  9.9891406E+03; -1.2675251E-01;  0.0000000E+00;  1.4163871E-01;  1.5414503E+03;
  1.2405354E+00;  9.9999998E-03; -1.8011123E-01;2917;  2.1408814E-01;  0.0000000E+00; -2.2361556E-02;  1.0018127E+03;  4.0115827E-01;  1.2466128E+03;3;  1.0104860E+02;  0.0000000E+00; -4.1392169E+00;0;  1.2277889E-01;  9.9936514E+03;  0.0000000E+00; -1.5124521E-02;  1.0000000E+04;  0.0000000E+00;  9.9847725E+03; -1.5258878E-02;  0.0000000E+00;  1.3803777E-01;  1.6729729E+03;
  1.2405015E+00;  9.9999998E-03; -1.6009864E-01;2918;  2.0447370E-01;  0.0000000E+00; -1.9630132E-02;  1.0019036E+03;  4.0115806E-01;  1.3092540E+03;3;  8.9389221E+01;  0.0000000E+00; -2.0450513E+00;0;  9.0754703E-02;  9.9951104E+03;  0.0000000E+00; -1.6765163E+00;  1.0000000E+04;  0.0000000E+00;  9.9851250E+03; -5.2315306E-02;  0.0000000E+00;  1.4307001E-01;  2.5486042E+03;
  1.2404634E+00;  9.9999998E-03; -1.4008549E-01;2919;  1.9356440E-01;  0.0000000E+00; -1.7624417E-02;  1.0020145E+03;  4.0115818E-01;  1.3856090E+03;3;  7.9674683E+01;  0.0000000E+00; -9.6280152E-01;0;  6.3530549E-02;  9.9967051E+03;  0.0000000E+00; -2.2787855E+00;  1.0000000E+04;  0.0000000E+00;  9.9857432E+03; -8.5538164E-02;  0.0000000E+00;  1.4906871E-01;  3.0835962E+03;
  1.2404228E+00;  9.9999998E-03; -1.2007067E-01;2920;  1.8149209E-01;  0.0000000E+00; -1.4985306E-02;  1.0021296E+03;  4.0115815E-01;  1.4648522E+03;3;  7.1649612E+01;  0.0000000E+00; -1.8323348E-01;0;  3.1742446E-02;  9.9981064E+03;  0.0000000E+00; -2.0870035E+00;  1.0000000E+04;  0.0000000E+00;  9.9866318E+03; -1.1494014E-01;  0.0000000E+00;  1.4668259E-01;  2.8553552E+03;
  1.2403829E+00;  9.9999998E-03; -1.0005458E-01;2921;  1.6967285E-01;  0.0000000E+00; -1.1605891E-02;  1.0022188E+03;  4.0115818E-01;  1.5263112E+03;3;  6.5721947E+01;  0.0000000E+00;  1.2089051E-01;0;  9.5715970E-03;  9.9989883E+03;  0.0000000E+00; -1.5134104E+00;  1.0000000E+04;  0.0000000E+00;  9.9875273E+03; -1.3014190E-01;  0.0000000E+00;  1.3971350E-01;  2.2719128E+03;
  1.2403495E+00;  9.9999998E-03; -8.0038942E-02;2922;  1.5985391E-01;  0.0000000E+00; -7.9380386E-03;  1.0022571E+03;  4.0115809E-01;  1.5528223E+03;3;  6.1481617E+01;  0.0000000E+00;  2.9133135E-01;0;  2.0131618E-03;  9.9990605E+03;  0.0000000E+00; -9.1658908E-01;  1.0000000E+04;  0.0000000E+00;  9.9882119E+03; -1.3105482E-01;  0.0000000E+00;  1.3306798E-01;  1.7377786E+03;
  1.2403259E+00;  9.9999998E-03; -6.0025878E-02;2923;  1.5279862E-01;  0.0000000E+00; -4.9977968E-03;  1.0022560E+03;  4.0115803E-01;  1.5521580E+03;3;  5.8771000E+01;  0.0000000E+00;  2.5342205E-01;0;  4.5431778E-03;  9.9986104E+03;  0.0000000E+00; -4.6359438E-01;  1.0000000E+04;  0.0000000E+00;  9.9886396E+03; -1.2464999E-01;  0.0000000E+00;  1.2919317E-01;  1.4237914E+03;
  1.2403115E+00;  9.9999998E-03; -4.0016185E-02;2924;  1.4825064E-01;  0.0000000E+00; -3.1039470E-03;  1.0022437E+03;  4.0115800E-01;  1.5436730E+03;3;  5.7256058E+01;  0.0000000E+00;  2.9367626E-01;0;  8.3611459E-03;  9.9981162E+03;  0.0000000E+00; -1.8255557E-01;  1.0000000E+04;  0.0000000E+00;  9.9888848E+03; -1.1897939E-01;  0.0000000E+00;  1.2734054E-01;  1.2954420E+03;
  1.2403038E+00;  9.9999998E-03; -2.0008102E-02;2925;  1.4562489E-01;  0.0000000E+00; -1.6888344E-03;  1.0022366E+03;  4.0115812E-01;  1.5388578E+03;3;  5.6618309E+01;  0.0000000E+00;  2.9941985E-01;0;  9.7815320E-03;  9.9978223E+03;  0.0000000E+00; -4.1221663E-02;  1.0000000E+04;  0.0000000E+00;  9.9890332E+03; -1.1655167E-01;  0.0000000E+00;  1.2633321E-01;  1.2540474E+03;
  1.2604882E+00;  9.9999998E-03; -1.6009578E-01;2936;  1.9751251E-01;  0.0000000E+00; -1.7411551E-02;  1.0018344E+03;  4.0112132E-01;  1.2086420E+03;3;  9.9271988E+01;  0.0000000E+00; -2.8319778E+00;0;  8.1321239E-02;  9.9945938E+03;  0.0000000E+00;  6.3269794E-01;  1.0000000E+04;  0.0000000E+00;  9.9861016E+03; -4.4079453E-02;  0.0000000E+00;  1.2540069E-01;  1.3822085E+03;
  1.2604624E+00;  9.9999998E-03; -1.4008652E-01;2937;  1.8933596E-01;  0.0000000E+00; -1.5450562E-02;  1.0017997E+03;  4.0112120E-01;  1.1858546E+03;3;  8.8931061E+01;  0.0000000E+00; -1.1993418E+00;0;  8.0378890E-02;  9.9939521E+03;  0.0000000E+00; -8.0537140E-01;  1.0000000E+04;  0.0000000E+00;  9.9860459E+03; -5.4222081E-02;  0.0000000E+00;  1.3460097E-01;  1.4406127E+03;
  1.2604336E+00;  9.9999998E-03; -1.2007573E-01;2938;  1.7950474E-01;  0.0000000E+00; -1.3247679E-02;  1.0018245E+03;  4.0112126E-01;  1.2022715E+03;3;  7.9611229E+01;  0.0000000E+00;  2.7605107E-01;0;  5.5978321E-02;  9.9940977E+03;  0.0000000E+00; -1.4521817E+00;  1.0000000E+04;  0.0000000E+00;  9.9863926E+03; -8.1094645E-02;  0.0000000E+00;  1.3707297E-01;  1.7874781E+03;
  1.2604049E+00;  9.9999998E-03; -1.0006449E-01;2939;  1.7007256E-01;  0.0000000E+00; -1.1651061E-02;  1.0018582E+03;  4.0112132E-01;  1.2245035E+03;3;  7.2252769E+01;  0.0000000E+00;  1.0013926E+00;0;  4.1220374E-02;  9.9942676E+03;  0.0000000E+00; -1.4169011E+00;  1.0000000E+04;  0.0000000E+00;  9.9868955E+03; -9.6280657E-02;  0.0000000E+00;  1.3750103E-01;  1.7300989E+03;
  1.2603780E+00;  9.9999998E-03; -8.0051102E-02;2940;  1.6105777E-01;  0.0000000E+00; -9.3500474E-03;  1.0019022E+03;  4.0112117E-01;  1.2536467E+03;3;  6.6377708E+01;  0.0000000E+00;  1.6043941E+00;0;  2.3551226E-02;  9.9944912E+03;  0.0000000E+00; -1.0084081E+00;  1.0000000E+04;  0.0000000E+00;  9.9875508E+03; -1.0778582E-01;  0.0000000E+00;  1.3133705E-01;  1.4275861E+03;
  1.2603550E+00;  9.9999998E-03; -6.0036950E-02;2941;  1.5381438E-01;  0.0000000E+00; -6.9032279E-03;  1.0019371E+03;  4.0112129E-01;  1.2766541E+03;3;  6.2686489E+01;  0.0000000E+00;  1.6615360E+00;0;  1.4338948E-02;  9.9946309E+03;  0.0000000E+00; -5.5427516E-01;  1.0000000E+04;  0.0000000E+00;  9.9881006E+03; -1.1001898E-01;  0.0000000E+00;  1.2435793E-01;  1.1596696E+03;
  1.2603378E+00;  9.9999998E-03; -4.0023312E-02;2942;  1.4817925E-01;  0.0000000E+00; -4.2608464E-03;  1.0019578E+03;  4.0112135E-01;  1.2903750E+03;3;  6.0361954E+01;  0.0000000E+00;  1.5032790E+00;0;  6.8308562E-03;  9.9946836E+03;  0.0000000E+00; -2.2664787E-01;  1.0000000E+04;  0.0000000E+00;  9.9884541E+03; -1.1203102E-01;  0.0000000E+00;  1.1886188E-01;  1.0323566E+03;
  1.2603278E+00;  9.9999998E-03; -2.0011328E-02;2943;  1.4474386E-01;  0.0000000E+00; -2.0683159E-03;  1.0019655E+03;  4.0112126E-01;  1.2955116E+03;3;  5.9595631E+01;  0.0000000E+00;  1.2017694E+00;0;  2.2073537E-03;  9.9946572E+03;  0.0000000E+00; -5.2368775E-02;  1.0000000E+04;  0.0000000E+00;  9.9886406E+03; -1.1380490E-01;  0.0000000E+00;  1.1601225E-01;  9.9395862E+02;
  1.2804229E+00;  9.9999998E-03; -1.2007456E-01;2953;  1.7326082E-01;  0.0000000E+00; -1.0653974E-02;  1.0018275E+03;  4.0109563E-01;  1.1486473E+03;3;  8.8577515E+01;  0.0000000E+00;  2.0913863E-01;0;  3.2571591E-02;  9.9950762E+03;  0.0000000E+00;  2.8020877E-01;  1.0000000E+04;  0.0000000E+00;  9.9867549E+03; -8.2857795E-02;  0.0000000E+00;  1.1542939E-01;  1.0063591E+03;
  1.2804031E+00;  9.9999998E-03; -1.0006624E-01;2954;  1.6560096E-01;  0.0000000E+00; -9.2396941E-03;  1.0017476E+03;  4.0109563E-01;  1.0984987E+03;3;  8.0560661E+01;  0.0000000E+00;  1.2878039E+00;0;  3.4424849E-02;  9.9935439E+03;  0.0000000E+00; -3.2528618E-01;  1.0000000E+04;  0.0000000E+00;  9.9866885E+03; -8.6952753E-02;  0.0000000E+00;  1.2137760E-01;  9.7373584E+02;
  1.2803836E+00;  9.9999998E-03; -8.0054402E-02;2955;  1.5780810E-01;  0.0000000E+00; -7.4151554E-03;  1.0017291E+03;  4.0109551E-01;  1.0869364E+03;3;  7.3994949E+01;  0.0000000E+00;  2.2251148E+00;0;  1.9655675E-02;  9.9927510E+03;  0.0000000E+00; -4.6030083E-01;  1.0000000E+04;  0.0000000E+00;  9.9871123E+03; -1.0026331E-01;  0.0000000E+00;  1.1991898E-01;  9.4376410E+02;
  1.2803687E+00;  9.9999998E-03; -6.0040906E-02;2956;  1.5135004E-01;  0.0000000E+00; -5.9981095E-03;  1.0016931E+03;  4.0109563E-01;  1.0642700E+03;3;  6.9442375E+01;  0.0000000E+00;  2.5158944E+00;0;  1.1718914E-02;  9.9915605E+03;  0.0000000E+00; -3.2947332E-01;  1.0000000E+04;  0.0000000E+00;  9.9875859E+03; -1.0518593E-01;  0.0000000E+00;  1.1690485E-01;  8.4300128E+02;
  1.2803580E+00;  9.9999998E-03; -4.0026382E-02;2957;  1.4600238E-01;  0.0000000E+00; -4.2761932E-03;  1.0016606E+03;  4.0109566E-01;  1.0439139E+03;3;  6.6307014E+01;  0.0000000E+00;  2.3438325E+00;0; -9.2568994E-04;  9.9905508E+03;  0.0000000E+00; -1.5242112E-01;  1.0000000E+04;  0.0000000E+00;  9.9879512E+03; -1.1318880E-01;  0.0000000E+00;  1.1226311E-01;  7.5710059E+02;
  1.2803519E+00;  9.9999998E-03; -2.0012667E-02;2958;  1.4240272E-01;  0.0000000E+00; -2.1689269E-03;  1.0016345E+03;  4.0109560E-01;  1.0275175E+03;3;  6.4437302E+01;  0.0000000E+00;  1.6834135E+00;0; -1.2999497E-02;  9.9898291E+03;  0.0000000E+00; -3.7091196E-02;  1.0000000E+04;  0.0000000E+00;  9.9881426E+03; -1.2168752E-01;  0.0000000E+00;  1.0868803E-01;  7.1289581E+02;
  1.3003703E+00;  9.9999998E-03; -8.0054216E-02;2966;  1.5165226E-01;  0.0000000E+00; -5.1200627E-03;  1.0018903E+03;  4.0107805E-01;  1.1303025E+03;3;  8.2258972E+01;  0.0000000E+00;  2.5782270E+00;0; -2.4676763E-02;  9.9971475E+03;  0.0000000E+00;  5.1819521E-01;  1.0000000E+04;  0.0000000E+00;  9.9867949E+03; -1.2793057E-01;  0.0000000E+00;  1.0325380E-01;  9.1796057E+02;
  1.3003579E+00;  9.9999998E-03; -6.0040645E-02;2967;  1.4598791E-01;  0.0000000E+00; -3.4323165E-03;  1.0018510E+03;  4.0107813E-01;  1.1068146E+03;3;  7.7574272E+01;  0.0000000E+00;  3.2027879E+00;0; -2.9979639E-02;  9.9959316E+03;  0.0000000E+00;  1.8377565E-01;  1.0000000E+04;  0.0000000E+00;  9.9872285E+03; -1.3333690E-01;  0.0000000E+00;  1.0335726E-01;  8.0952472E+02;
  1.3003489E+00;  9.9999998E-03; -4.0026106E-02;2968;  1.4109112E-01;  0.0000000E+00; -2.0339859E-03;  1.0018137E+03;  4.0107828E-01;  1.0845990E+03;3;  7.4449944E+01;  0.0000000E+00;  3.2083132E+00;0; -4.2812549E-02;  9.9948789E+03;  0.0000000E+00;  4.7418535E-02;  1.0000000E+04;  0.0000000E+00;  9.9875391E+03; -1.4561386E-01;  0.0000000E+00;  1.0280132E-01;  7.4855316E+02;
  1.3003435E+00;  9.9999998E-03; -2.0012427E-02;2969;  1.3773747E-01;  0.0000000E+00; -7.8484381E-04;  1.0017816E+03;  4.0107816E-01;  1.0653665E+03;3;  7.3201988E+01;  0.0000000E+00;  2.1696086E+00;0; -5.6526914E-02;  9.9940918E+03;  0.0000000E+00;  7.1756523E-03;  1.0000000E+04;  0.0000000E+00;  9.9876797E+03; -1.5842117E-01;  0.0000000E+00;  1.0189426E-01;  7.1417194E+02;
 -3.4660798E-06;  9.9999998E-03; -1.4750358E-13;1045; -2.5167125E-03;  0.0000000E+00; -1.0143246E-10;  1.0000760E+03;  4.0000001E-01;  6.2911793E+01;3; -1.8057060E+00;  0.0000000E+00;  1.1019438E-08;0; -4.9971994E-02;  1.0001537E+04;  0.0000000E+00;  1.3313940E-16;  1.0000000E+04;  0.0000000E+00;  9.9999854E+03; -5.0508484E-02;  0.0000000E+00;  5.3649000E-04;  1.2934058E+01;
 -3.4681409E-06;  9.9999998E-03;  2.0000013E-02;1046; -2.5184336E-03;  0.0000000E+00;  1.0017658E-05;  1.0000760E+03;  4.0000001E-01;  6.2911793E+01;3; -1.8067923E+00;  0.0000000E+00;  9.4347512E-03;0; -4.9975514E-02;  1.0001537E+04;  0.0000000E+00; -9.1793118E-12;  1.0000000E+04;  0.0000000E+00;  9.9999844E+03; -5.0541192E-02;  0.0000000E+00;  5.6567870E-04;  1.3336917E+01;
 -3.4737934E-06;  9.9999998E-03;  4.0000029E-02;1047; -2.5231764E-03;  0.0000000E+00;  2.1888312E-05;  1.0000760E+03;  4.0000001E-01;  6.2911793E+01;3; -1.8097315E+00;  0.0000000E+00;  2.0131340E-02;0; -4.9978960E-02;  1.0001541E+04;  0.0000000E+00;  2.4488599E-12;  1.0000000E+04;  0.0000000E+00;  9.9999814E+03; -5.0630972E-02;  0.0000000E+00;  6.5201166E-04;  1.4529991E+01;
 -3.4815434E-06;  9.9999998E-03;  6.0000047E-02;1048; -2.5298053E-03;  0.0000000E+00;  3.7050959E-05;  1.0000760E+03;  4.0000001E-01;  6.2911793E+01;3; -1.8137488E+00;  0.0000000E+00;  3.2942001E-02;0; -4.9960546E-02;  1.0001544E+04;  0.0000000E+00; -1.1070041E-10;  1.0000000E+04;  0.0000000E+00;  9.9999766E+03; -5.0752200E-02;  0.0000000E+00;  7.9165434E-04;  1.6464363E+01;
 -3.4885779E-06;  9.9999998E-03;  8.0000073E-02;1049; -2.5361311E-03;  0.0000000E+00;  5.7610370E-05;  1.0000759E+03;  4.0000001E-01;  6.2813030E+01;3; -1.8171988E+00;  0.0000000E+00;  4.9441822E-02;0; -4.9882941E-02;  1.0001545E+04;  0.0000000E+00; -2.8731936E-10;  1.0000000E+04;  0.0000000E+00;  9.9999717E+03; -5.0860576E-02;  0.0000000E+00;  9.7763620E-04;  1.9048584E+01;
 -3.4910368E-06;  9.9999998E-03;  1.0000011E-01;1050; -2.5392368E-03;  0.0000000E+00;  8.4122446E-05;  1.0000754E+03;  4.0000001E-01;  6.2417980E+01;3; -1.8180571E+00;  0.0000000E+00;  6.9660828E-02;0; -4.9692009E-02;  1.0001545E+04;  0.0000000E+00; -5.9297084E-10;  1.0000000E+04;  0.0000000E+00;  9.9999629E+03; -5.0890602E-02;  0.0000000E+00;  1.1985945E-03;  2.2128845E+01;
 -3.4829939E-06;  9.9999998E-03;  1.2000016E-01;1051; -2.5345902E-03;  0.0000000E+00;  1.1867379E-04;  1.0000750E+03;  4.0000001E-01;  6.2121689E+01;3; -1.8130374E+00;  0.0000000E+00;  9.5239162E-02;0; -4.9316406E-02;  1.0001542E+04;  0.0000000E+00; -1.1269214E-09;  1.0000000E+04;  0.0000000E+00;  9.9999570E+03; -5.0752975E-02;  0.0000000E+00;  1.4365683E-03;  2.5455637E+01;
 -3.4572879E-06;  9.9999998E-03;  1.4000021E-01;1052; -2.5168667E-03;  0.0000000E+00;  1.6118951E-04;  1.0000737E+03;  4.0000001E-01;  6.1035301E+01;3; -1.7984838E+00;  0.0000000E+00;  1.2563398E-01;0; -4.8668079E-02;  1.0001527E+04;  0.0000000E+00; -1.7383983E-09;  1.0000000E+04;  0.0000000E+00;  9.9999492E+03; -5.0332353E-02;  0.0000000E+00;  1.6642730E-03;  2.8643566E+01;
  1.9995097E-02;  9.9999998E-03;  1.8741473E-14;1075; -3.5325324E-03;  0.0000000E+00;  9.5301586E-11;  1.0000900E+03;  4.0000001E-01;  7.4565781E+01;3; -2.2791758E+00;  0.0000000E+00; -5.5263240E-07;0; -5.8343381E-02;  1.0001821E+04;  0.0000000E+00; -2.2297687E-16;  1.0000000E+04;  0.0000000E+00;  9.9999795E+03; -5.9061076E-02;  0.0000000E+00;  7.1769574E-04;  1.6507639E+01;
  1.9995093E-02;  9.9999998E-03;  2.0000018E-02;1076; -3.5354057E-03;  0.0000000E+00;  1.4623086E-05;  1.0000900E+03;  4.0000001E-01;  7.4565781E+01;3; -2.2807674E+00;  0.0000000E+00;  1.2851897E-02;0; -5.8350086E-02;  1.0001822E+04;  0.0000000E+00;  1.3888951E-12;  1.0000000E+04;  0.0000000E+00;  9.9999785E+03; -5.9106071E-02;  0.0000000E+00;  7.5598311E-04;  1.7046522E+01;
  1.9995084E-02;  9.9999998E-03;  4.0000040E-02;1077; -3.5434561E-03;  0.0000000E+00;  3.1488969E-05;  1.0000900E+03;  4.0000001E-01;  7.4565781E+01;3; -2.2851229E+00;  0.0000000E+00;  2.7016416E-02;0; -5.8362439E-02;  1.0001826E+04;  0.0000000E+00; -4.5347788E-11;  1.0000000E+04;  0.0000000E+00;  9.9999746E+03; -5.9231628E-02;  0.0000000E+00;  8.6918729E-04;  1.8642410E+01;
  1.9995069E-02;  9.9999998E-03;  6.0000069E-02;1078; -3.5550951E-03;  0.0000000E+00;  5.2667270E-05;  1.0000900E+03;  4.0000001E-01;  7.4565781E+01;3; -2.2912416E+00;  0.0000000E+00;  4.3608051E-02;0; -5.8356956E-02;  1.0001831E+04;  0.0000000E+00; -4.6329589E-11;  1.0000000E+04;  0.0000000E+00;  9.9999688E+03; -5.9409052E-02;  0.0000000E+00;  1.0520964E-03;  2.1229034E+01;
  1.9995054E-02;  9.9999998E-03;  8.0000110E-02;1079; -3.5673943E-03;  0.0000000E+00;  8.0442871E-05;  1.0000900E+03;  4.0000001E-01;  7.4565781E+01;3; -2.2971945E+00;  0.0000000E+00;  6.4112373E-02;0; -5.8293208E-02;  1.0001836E+04;  0.0000000E+00; -1.4333839E-11;  1.0000000E+04;  0.0000000E+00;  9.9999619E+03; -5.9588421E-02;  0.0000000E+00;  1.2952123E-03;  2.4682125E+01;
  1.9995045E-02;  9.9999998E-03;  1.0000016E-01;1080; -3.5762154E-03;  0.0000000E+00;  1.1627081E-04;  1.0000895E+03;  4.0000001E-01;  7.4170731E+01;3; -2.3003945E+00;  0.0000000E+00;  8.8968053E-02;0; -5.8112234E-02;  1.0001838E+04;  0.0000000E+00;  4.8110604E-10;  1.0000000E+04;  0.0000000E+00;  9.9999521E+03; -5.9695248E-02;  0.0000000E+00;  1.5830119E-03;  2.8791677E+01;
  1.9995047E-02;  9.9999998E-03;  1.2000022E-01;1081; -3.5755092E-03;  0.0000000E+00;  1.6170042E-04;  1.0000891E+03;  4.0000001E-01;  7.3775681E+01;3; -2.2969408E+00;  0.0000000E+00;  1.1931568E-01;0; -5.7735819E-02;  1.0001836E+04;  0.0000000E+00;  2.5333542E-09;  1.0000000E+04;  0.0000000E+00;  9.9999424E+03; -5.9627052E-02;  0.0000000E+00;  1.8912347E-03;  3.3219868E+01;
  1.9995075E-02;  9.9999998E-03;  1.4000030E-01;1082; -3.5571773E-03;  0.0000000E+00;  2.1878844E-04;  1.0000879E+03;  4.0000001E-01;  7.2788055E+01;3; -2.2817631E+00;  0.0000000E+00;  1.5615340E-01;0; -5.7065804E-02;  1.0001826E+04;  0.0000000E+00;  8.1626093E-09;  1.0000000E+04;  0.0000000E+00;  9.9999336E+03; -5.9249833E-02;  0.0000000E+00;  2.1840313E-03;  3.7455490E+01;
  3.9993260E-02;  9.9999998E-03; -7.0639878E-14;1106; -4.8191142E-03;  0.0000000E+00; -2.1164109E-10;  1.0001021E+03;  4.0000001E-01;  8.4639572E+01;3; -2.8429193E+00;  0.0000000E+00;  8.1672533E-07;0; -6.5015346E-02;  1.0002070E+04;  0.0000000E+00;  2.9445681E-17;  1.0000000E+04;  0.0000000E+00;  9.9999736E+03; -6.5891415E-02;  0.0000000E+00;  8.7607052E-04;  1.9706499E+01;
  3.9993256E-02;  9.9999998E-03;  2.0000024E-02;1107; -4.8234924E-03;  0.0000000E+00;  1.7904029E-05;  1.0001021E+03;  4.0000001E-01;  8.4639572E+01;3; -2.8450294E+00;  0.0000000E+00;  1.5127130E-02;0; -6.5028526E-02;  1.0002070E+04;  0.0000000E+00;  1.0294667E-12;  1.0000000E+04;  0.0000000E+00;  9.9999736E+03; -6.5950260E-02;  0.0000000E+00;  9.2173193E-04;  2.0367044E+01;
  3.9993238E-02;  9.9999998E-03;  4.0000051E-02;1108; -4.8359237E-03;  0.0000000E+00;  3.8154034E-05;  1.0001022E+03;  4.0000001E-01;  8.4738335E+01;3; -2.8509574E+00;  0.0000000E+00;  3.1369053E-02;0; -6.5060385E-02;  1.0002075E+04;  0.0000000E+00;  7.8298916E-11;  1.0000000E+04;  0.0000000E+00;  9.9999688E+03; -6.6117048E-02;  0.0000000E+00;  1.0566622E-03;  2.2322905E+01;
  3.9993215E-02;  9.9999998E-03;  6.0000084E-02;1109; -4.8542046E-03;  0.0000000E+00;  6.3584921E-05;  1.0001022E+03;  4.0000001E-01;  8.4738335E+01;3; -2.8593760E+00;  0.0000000E+00;  5.0230831E-02;0; -6.5087251E-02;  1.0002083E+04;  0.0000000E+00; -2.1675054E-11;  1.0000000E+04;  0.0000000E+00;  9.9999619E+03; -6.6361636E-02;  0.0000000E+00;  1.2743837E-03;  2.5491453E+01;
  3.9993189E-02;  9.9999998E-03;  8.0000125E-02;1110; -4.8746015E-03;  0.0000000E+00;  9.5967778E-05;  1.0001022E+03;  4.0000001E-01;  8.4738335E+01;3; -2.8680587E+00;  0.0000000E+00;  7.2595879E-02;0; -6.5068066E-02;  1.0002093E+04;  0.0000000E+00;  1.0546723E-10;  1.0000000E+04;  0.0000000E+00;  9.9999531E+03; -6.6631123E-02;  0.0000000E+00;  1.5630551E-03;  2.9717237E+01;
  3.9993167E-02;  9.9999998E-03;  1.0000019E-01;1111; -4.8912428E-03;  0.0000000E+00;  1.3790790E-04;  1.0001021E+03;  4.0000001E-01;  8.4639572E+01;3; -2.8736429E+00;  0.0000000E+00;  9.9641860E-02;0; -6.4942814E-02;  1.0002099E+04;  0.0000000E+00;  1.2606750E-09;  1.0000000E+04;  0.0000000E+00;  9.9999404E+03; -6.6846192E-02;  0.0000000E+00;  1.9033749E-03;  3.4738045E+01;
  3.9993163E-02;  9.9999998E-03;  1.2000026E-01;1112; -4.8965658E-03;  0.0000000E+00;  1.9012534E-04;  1.0001014E+03;  4.0000001E-01;  8.4046989E+01;3; -2.8718233E+00;  0.0000000E+00;  1.3142699E-01;0; -6.4630613E-02;  1.0002100E+04;  0.0000000E+00;  5.2780531E-09;  1.0000000E+04;  0.0000000E+00;  9.9999287E+03; -6.6896215E-02;  0.0000000E+00;  2.2656007E-03;  4.0136272E+01;
  3.9993189E-02;  9.9999998E-03;  1.4000034E-01;1113; -4.8795771E-03;  0.0000000E+00;  2.5489886E-04;  1.0001006E+03;  4.0000001E-01;  8.3355652E+01;3; -2.8562727E+00;  0.0000000E+00;  1.6915846E-01;0; -6.4026959E-02;  1.0002093E+04;  0.0000000E+00;  1.6989190E-08;  1.0000000E+04;  0.0000000E+00;  9.9999189E+03; -6.6634178E-02;  0.0000000E+00;  2.6072178E-03;  4.5295448E+01;
  5.9991151E-02;  9.9999998E-03; -4.0440234E-13;1137; -6.2672482E-03;  0.0000000E+00; -8.2735846E-10;  1.0001142E+03;  4.0000001E-01;  9.4614594E+01;3; -3.4622545E+00;  0.0000000E+00; -5.4396060E-07;0; -7.1096174E-02;  1.0002312E+04;  0.0000000E+00; -4.0226272E-16;  1.0000000E+04;  0.0000000E+00;  9.9999707E+03; -7.2099328E-02;  0.0000000E+00;  1.0031527E-03;  2.2542791E+01;
  5.9991144E-02;  9.9999998E-03;  2.0000026E-02;1138; -6.2734378E-03;  0.0000000E+00;  1.9276296E-05;  1.0001142E+03;  4.0000001E-01;  9.4614594E+01;3; -3.4649115E+00;  0.0000000E+00;  1.6179930E-02;0; -7.1120098E-02;  1.0002315E+04;  0.0000000E+00; -7.4995260E-11;  1.0000000E+04;  0.0000000E+00;  9.9999678E+03; -7.2173737E-02;  0.0000000E+00;  1.0536350E-03;  2.3301548E+01;
  5.9991118E-02;  9.9999998E-03;  4.0000055E-02;1139; -6.2911073E-03;  0.0000000E+00;  4.1128496E-05;  1.0001142E+03;  4.0000001E-01;  9.4614594E+01;3; -3.4724445E+00;  0.0000000E+00;  3.3539504E-02;0; -7.1184404E-02;  1.0002324E+04;  0.0000000E+00; -6.4853345E-11;  1.0000000E+04;  0.0000000E+00;  9.9999639E+03; -7.2387084E-02;  0.0000000E+00;  1.2026823E-03;  2.5547295E+01;
  5.9991084E-02;  9.9999998E-03;  6.0000092E-02;1140; -6.3174940E-03;  0.0000000E+00;  6.8264730E-05;  1.0001144E+03;  4.0000001E-01;  9.4812119E+01;3; -3.4832554E+00;  0.0000000E+00;  5.3280734E-02;0; -7.1266174E-02;  1.0002333E+04;  0.0000000E+00; -1.1832789E-11;  1.0000000E+04;  0.0000000E+00;  9.9999551E+03; -7.2708897E-02;  0.0000000E+00;  1.4427251E-03;  2.9182323E+01;
  5.9991043E-02;  9.9999998E-03;  8.0000140E-02;1141; -6.3478164E-03;  0.0000000E+00;  1.0284871E-04;  1.0001146E+03;  4.0000001E-01;  9.4910881E+01;3; -3.4947739E+00;  0.0000000E+00;  7.6114967E-02;0; -7.1325526E-02;  1.0002344E+04;  0.0000000E+00; -1.8920132E-10;  1.0000000E+04;  0.0000000E+00;  9.9999453E+03; -7.3085420E-02;  0.0000000E+00;  1.7598923E-03;  3.4022724E+01;
  5.9991006E-02;  9.9999998E-03;  1.0000020E-01;1142; -6.3748485E-03;  0.0000000E+00;  1.4713728E-04;  1.0001146E+03;  4.0000001E-01;  9.5009644E+01;3; -3.5030832E+00;  0.0000000E+00;  1.0313657E-01;0; -7.1303412E-02;  1.0002354E+04;  0.0000000E+00;  8.9871982E-10;  1.0000000E+04;  0.0000000E+00;  9.9999326E+03; -7.3435262E-02;  0.0000000E+00;  2.1318479E-03;  3.9761665E+01;
  5.9990987E-02;  9.9999998E-03;  1.2000028E-01;1143; -6.3887201E-03;  0.0000000E+00;  2.0296406E-04;  1.0001141E+03;  4.0000001E-01;  9.4515831E+01;3; -3.5030088E+00;  0.0000000E+00;  1.3484675E-01;0; -7.1118318E-02;  1.0002364E+04;  0.0000000E+00;  5.9332192E-09;  1.0000000E+04;  0.0000000E+00;  9.9999199E+03; -7.3643178E-02;  0.0000000E+00;  2.5248628E-03;  4.5917896E+01;
  5.9991006E-02;  9.9999998E-03;  1.4000037E-01;1144; -6.3757948E-03;  0.0000000E+00;  2.7072817E-04;  1.0001135E+03;  4.0000001E-01;  9.4022018E+01;3; -3.4872656E+00;  0.0000000E+00;  1.7097281E-01;0; -7.0660815E-02;  1.0002362E+04;  0.0000000E+00;  1.9103892E-08;  1.0000000E+04;  0.0000000E+00;  9.9999063E+03; -7.3553473E-02;  0.0000000E+00;  2.8926595E-03;  5.1802219E+01;
  7.9988815E-02;  9.9999998E-03;  1.5012868E-13;1168; -7.8294063E-03;  0.0000000E+00; -2.9219410E-10;  1.0001276E+03;  4.0000001E-01;  1.0567601E+02;3; -4.1440535E+00;  0.0000000E+00; -9.9526187E-07;0; -7.7610485E-02;  1.0002590E+04;  0.0000000E+00;  1.6976015E-16;  1.0000000E+04;  0.0000000E+00;  9.9999658E+03; -7.8725219E-02;  0.0000000E+00;  1.1147343E-03;  2.5313482E+01;
  7.9988800E-02;  9.9999998E-03;  2.0000026E-02;1169; -7.8376932E-03;  0.0000000E+00;  1.9230447E-05;  1.0001276E+03;  4.0000001E-01;  1.0577477E+02;3; -4.1473112E+00;  0.0000000E+00;  1.6642144E-02;0; -7.7649556E-02;  1.0002593E+04;  0.0000000E+00; -9.7970999E-11;  1.0000000E+04;  0.0000000E+00;  9.9999658E+03; -7.8816913E-02;  0.0000000E+00;  1.1673539E-03;  2.6147478E+01;
  7.9988770E-02;  9.9999998E-03;  4.0000055E-02;1170; -7.8614578E-03;  0.0000000E+00;  4.1062904E-05;  1.0001279E+03;  4.0000001E-01;  1.0597230E+02;3; -4.1565609E+00;  0.0000000E+00;  3.4383625E-02;0; -7.7759683E-02;  1.0002601E+04;  0.0000000E+00; -2.8383934E-10;  1.0000000E+04;  0.0000000E+00;  9.9999600E+03; -7.9082184E-02;  0.0000000E+00;  1.3224967E-03;  2.8614035E+01;
  7.9988718E-02;  9.9999998E-03;  6.0000092E-02;1171; -7.8974059E-03;  0.0000000E+00;  6.8065281E-05;  1.0001281E+03;  4.0000001E-01;  1.0607106E+02;3; -4.1700311E+00;  0.0000000E+00;  5.4061729E-02;0; -7.7919312E-02;  1.0002616E+04;  0.0000000E+00; -5.3815435E-10;  1.0000000E+04;  0.0000000E+00;  9.9999502E+03; -7.9490900E-02;  0.0000000E+00;  1.5715851E-03;  3.2599922E+01;
  7.9988658E-02;  9.9999998E-03;  8.0000140E-02;1172; -7.9397466E-03;  0.0000000E+00;  1.0283863E-04;  1.0001283E+03;  4.0000001E-01;  1.0626859E+02;3; -4.1847186E+00;  0.0000000E+00;  7.6689646E-02;0; -7.8090549E-02;  1.0002631E+04;  0.0000000E+00; -8.2767615E-10;  1.0000000E+04;  0.0000000E+00;  9.9999395E+03; -7.9989523E-02;  0.0000000E+00;  1.8989713E-03;  3.7893600E+01;
  7.9988599E-02;  9.9999998E-03;  1.0000020E-01;1173; -7.9799136E-03;  0.0000000E+00;  1.4696000E-04;  1.0001286E+03;  4.0000001E-01;  1.0656487E+02;3; -4.1962852E+00;  0.0000000E+00;  1.0272283E-01;0; -7.8216009E-02;  1.0002650E+04;  0.0000000E+00; -8.1021891E-11;  1.0000000E+04;  0.0000000E+00;  9.9999258E+03; -8.0495976E-02;  0.0000000E+00;  2.2799645E-03;  4.4149055E+01;
  7.9988562E-02;  9.9999998E-03;  1.2000029E-01;1174; -8.0057196E-03;  0.0000000E+00;  2.0307522E-04;  1.0001286E+03;  4.0000001E-01;  1.0656487E+02;3; -4.1985159E+00;  0.0000000E+00;  1.3275906E-01;0; -7.8214243E-02;  1.0002664E+04;  0.0000000E+00;  5.0447917E-09;  1.0000000E+04;  0.0000000E+00;  9.9999102E+03; -8.0892749E-02;  0.0000000E+00;  2.6785063E-03;  5.0837769E+01;
  7.9988569E-02;  9.9999998E-03;  1.4000039E-01;1175; -8.0009792E-03;  0.0000000E+00;  2.7036844E-04;  1.0001283E+03;  4.0000001E-01;  1.0626859E+02;3; -4.1833906E+00;  0.0000000E+00;  1.6636151E-01;0; -7.7969596E-02;  1.0002669E+04;  0.0000000E+00;  1.7640195E-08;  1.0000000E+04;  0.0000000E+00;  9.9998965E+03; -8.1017606E-02;  0.0000000E+00;  3.0480139E-03;  5.7235935E+01;
  9.9986218E-02;  9.9999998E-03; -3.5526199E-13;1199; -9.5085269E-03;  0.0000000E+00; -2.7801950E-10;  1.0001440E+03;  4.0000001E-01;  1.1930525E+02;3; -4.8995628E+00;  0.0000000E+00; -1.7156930E-06;0; -8.5265942E-02;  1.0002918E+04;  0.0000000E+00;  5.4297221E-16;  1.0000000E+04;  0.0000000E+00;  9.9999619E+03; -8.6518534E-02;  0.0000000E+00;  1.2525887E-03;  2.8592358E+01;
  9.9986203E-02;  9.9999998E-03;  2.0000026E-02;1200; -9.5192296E-03;  0.0000000E+00;  1.8763161E-05;  1.0001442E+03;  4.0000001E-01;  1.1940401E+02;3; -4.9035149E+00;  0.0000000E+00;  1.7106760E-02;0; -8.5324265E-02;  1.0002922E+04;  0.0000000E+00; -9.2137513E-11;  1.0000000E+04;  0.0000000E+00;  9.9999600E+03; -8.6629368E-02;  0.0000000E+00;  1.3051014E-03;  2.9487711E+01;
  9.9986158E-02;  9.9999998E-03;  4.0000055E-02;1201; -9.5500732E-03;  0.0000000E+00;  3.9961473E-05;  1.0001443E+03;  4.0000001E-01;  1.1960154E+02;3; -4.9147072E+00;  0.0000000E+00;  3.4986373E-02;0; -8.5492805E-02;  1.0002933E+04;  0.0000000E+00; -1.9276274E-10;  1.0000000E+04;  0.0000000E+00;  9.9999541E+03; -8.6952373E-02;  0.0000000E+00;  1.4595716E-03;  3.2132236E+01;
  9.9986091E-02;  9.9999998E-03;  6.0000092E-02;1202; -9.5972205E-03;  0.0000000E+00;  6.6178960E-05;  1.0001447E+03;  4.0000001E-01;  1.1989783E+02;3; -4.9312196E+00;  0.0000000E+00;  5.4502733E-02;0; -8.5751332E-02;  1.0002948E+04;  0.0000000E+00; -1.0545073E-09;  1.0000000E+04;  0.0000000E+00;  9.9999443E+03; -8.7457597E-02;  0.0000000E+00;  1.7062675E-03;  3.6393135E+01;
  9.9986009E-02;  9.9999998E-03;  8.0000140E-02;1203; -9.6540162E-03;  0.0000000E+00;  9.9649653E-05;  1.0001454E+03;  4.0000001E-01;  1.2049040E+02;3; -4.9496779E+00;  0.0000000E+00;  7.6322310E-02;0; -8.6064465E-02;  1.0002972E+04;  0.0000000E+00; -1.6049555E-09;  1.0000000E+04;  0.0000000E+00;  9.9999336E+03; -8.8092156E-02;  0.0000000E+00;  2.0276918E-03;  4.2026608E+01;
  9.9985927E-02;  9.9999998E-03;  1.0000020E-01;1204; -9.7104954E-03;  0.0000000E+00;  1.4260723E-04;  1.0001458E+03;  4.0000001E-01;  1.2078669E+02;3; -4.9651747E+00;  0.0000000E+00;  1.0101693E-01;0; -8.6377047E-02;  1.0002996E+04;  0.0000000E+00; -1.0492920E-09;  1.0000000E+04;  0.0000000E+00;  9.9999199E+03; -8.8774055E-02;  0.0000000E+00;  2.3970094E-03;  4.8644405E+01;
  9.9985860E-02;  9.9999998E-03;  1.2000029E-01;1205; -9.7526312E-03;  0.0000000E+00;  1.9651887E-04;  1.0001461E+03;  4.0000001E-01;  1.2108298E+02;3; -4.9709029E+00;  0.0000000E+00;  1.2885579E-01;0; -8.6607166E-02;  1.0003021E+04;  0.0000000E+00;  3.7500389E-09;  1.0000000E+04;  0.0000000E+00;  9.9999033E+03; -8.9384153E-02;  0.0000000E+00;  2.7769851E-03;  5.5678383E+01;
  9.9985845E-02;  9.9999998E-03;  1.4000039E-01;1206; -9.7612236E-03;  0.0000000E+00;  2.6203485E-04;  1.0001462E+03;  4.0000001E-01;  1.2108298E+02;3; -4.9576235E+00;  0.0000000E+00;  1.5965414E-01;0; -8.6631931E-02;  1.0003034E+04;  0.0000000E+00;  1.4044973E-08;  1.0000000E+04;  0.0000000E+00;  9.9998896E+03; -8.9755446E-02;  0.0000000E+00;  3.1235171E-03;  6.2397030E+01;
  1.1998331E-01;  9.9999998E-03; -7.1712054E-13;1230; -1.1342379E-02;  0.0000000E+00; -4.0034628E-10;  1.0001635E+03;  4.0000001E-01;  1.3540356E+02;3; -5.7345214E+00;  0.0000000E+00;  1.2142982E-06;0; -9.4379067E-02;  1.0003318E+04;  0.0000000E+00;  4.0087036E-16;  1.0000000E+04;  0.0000000E+00;  9.9999551E+03; -9.5860302E-02;  0.0000000E+00;  1.4812363E-03;  3.3178356E+01;
  1.1998329E-01;  9.9999998E-03;  2.0000026E-02;1231; -1.1355878E-02;  0.0000000E+00;  1.9392863E-05;  1.0001636E+03;  4.0000001E-01;  1.3560109E+02;3; -5.7392468E+00;  0.0000000E+00;  1.8297583E-02;0; -9.4459996E-02;  1.0003323E+04;  0.0000000E+00; -1.9726530E-10;  1.0000000E+04;  0.0000000E+00;  9.9999531E+03; -9.5992230E-02;  0.0000000E+00;  1.5322330E-03;  3.4137348E+01;
  1.1998323E-01;  9.9999998E-03;  4.0000055E-02;1232; -1.1394953E-02;  0.0000000E+00;  4.1085892E-05;  1.0001641E+03;  4.0000001E-01;  1.3589737E+02;3; -5.7526836E+00;  0.0000000E+00;  3.7155103E-02;0; -9.4696984E-02;  1.0003336E+04;  0.0000000E+00; -5.3845606E-10;  1.0000000E+04;  0.0000000E+00;  9.9999473E+03; -9.6378610E-02;  0.0000000E+00;  1.6816228E-03;  3.6963398E+01;
  1.1998314E-01;  9.9999998E-03;  6.0000096E-02;1233; -1.1455270E-02;  0.0000000E+00;  6.7317385E-05;  1.0001647E+03;  4.0000001E-01;  1.3639119E+02;3; -5.7727084E+00;  0.0000000E+00;  5.7162628E-02;0; -9.5071793E-02;  1.0003357E+04;  0.0000000E+00; -1.7419308E-09;  1.0000000E+04;  0.0000000E+00;  9.9999404E+03; -9.6989870E-02;  0.0000000E+00;  1.9180740E-03;  4.1495380E+01;
  1.1998302E-01;  9.9999998E-03;  8.0000147E-02;1234; -1.1529345E-02;  0.0000000E+00;  1.0033585E-04;  1.0001656E+03;  4.0000001E-01;  1.3718129E+02;3; -5.7956100E+00;  0.0000000E+00;  7.8784019E-02;0; -9.5551580E-02;  1.0003387E+04;  0.0000000E+00; -2.6305180E-09;  1.0000000E+04;  0.0000000E+00;  9.9999238E+03; -9.7773194E-02;  0.0000000E+00;  2.2216144E-03;  4.7443722E+01;
  1.1998291E-01;  9.9999998E-03;  1.0000021E-01;1235; -1.1605956E-02;  0.0000000E+00;  1.4229941E-04;  1.0001664E+03;  4.0000001E-01;  1.3787262E+02;3; -5.8159738E+00;  0.0000000E+00;  1.0255367E-01;0; -9.6084215E-02;  1.0003418E+04;  0.0000000E+00; -1.6896284E-09;  1.0000000E+04;  0.0000000E+00;  9.9999092E+03; -9.8646849E-02;  0.0000000E+00;  2.5626379E-03;  5.4361725E+01;
  1.1998281E-01;  9.9999998E-03;  1.2000030E-01;1236; -1.1669278E-02;  0.0000000E+00;  1.9405391E-04;  1.0001674E+03;  4.0000001E-01;  1.3866272E+02;3; -5.8263011E+00;  0.0000000E+00;  1.2816033E-01;0; -9.6587978E-02;  1.0003452E+04;  0.0000000E+00;  3.4049796E-09;  1.0000000E+04;  0.0000000E+00;  9.9998965E+03; -9.9490725E-02;  0.0000000E+00;  2.9027427E-03;  6.1631035E+01;
  1.1998276E-01;  9.9999998E-03;  1.4000040E-01;1237; -1.1697335E-02;  0.0000000E+00;  2.5731866E-04;  1.0001678E+03;  4.0000001E-01;  1.3905777E+02;3; -5.8164477E+00;  0.0000000E+00;  1.5628031E-01;0; -9.6932761E-02;  1.0003478E+04;  0.0000000E+00;  1.0307985E-08;  1.0000000E+04;  0.0000000E+00;  9.9998809E+03; -1.0013457E-01;  0.0000000E+00;  3.2018053E-03;  6.8519730E+01;
  1.3997997E-01;  9.9999998E-03;  7.2068640E-14;1261; -1.3380267E-02;  0.0000000E+00;  1.4845604E-09;  1.0001867E+03;  4.0000001E-01;  1.5466226E+02;3; -6.6508532E+00;  0.0000000E+00;  3.0962101E-06;0; -1.0495508E-01;  1.0003794E+04;  0.0000000E+00; -6.3304394E-16;  1.0000000E+04;  0.0000000E+00;  9.9999434E+03; -1.0683703E-01;  0.0000000E+00;  1.8819586E-03;  4.0028351E+01;
  1.3997996E-01;  9.9999998E-03;  2.0000031E-02;1262; -1.3397013E-02;  0.0000000E+00;  2.3161949E-05;  1.0001871E+03;  4.0000001E-01;  1.5495856E+02;3; -6.6564322E+00;  0.0000000E+00;  2.1397874E-02;0; -1.0506079E-01;  1.0003798E+04;  0.0000000E+00;  1.2034178E-10;  1.0000000E+04;  0.0000000E+00;  9.9999414E+03; -1.0699183E-01;  0.0000000E+00;  1.9310514E-03;  4.1074551E+01;
  1.3997988E-01;  9.9999998E-03;  4.0000066E-02;1263; -1.3445677E-02;  0.0000000E+00;  4.8406702E-05;  1.0001876E+03;  4.0000001E-01;  1.5535361E+02;3; -6.6723962E+00;  0.0000000E+00;  4.3091860E-02;0; -1.0537279E-01;  1.0003813E+04;  0.0000000E+00; -9.1697672E-10;  1.0000000E+04;  0.0000000E+00;  9.9999365E+03; -1.0744672E-01;  0.0000000E+00;  2.0739245E-03;  4.4147900E+01;
  1.3997976E-01;  9.9999998E-03;  6.0000107E-02;1264; -1.3521462E-02;  0.0000000E+00;  7.7787852E-05;  1.0001884E+03;  4.0000001E-01;  1.5614371E+02;3; -6.6963744E+00;  0.0000000E+00;  6.5450139E-02;0; -1.0587509E-01;  1.0003843E+04;  0.0000000E+00; -2.0183573E-09;  1.0000000E+04;  0.0000000E+00;  9.9999268E+03; -1.0817197E-01;  0.0000000E+00;  2.2968815E-03;  4.9044971E+01;
  1.3997962E-01;  9.9999998E-03;  8.0000162E-02;1265; -1.3616068E-02;  0.0000000E+00;  1.1332550E-04;  1.0001895E+03;  4.0000001E-01;  1.5703258E+02;3; -6.7243071E+00;  0.0000000E+00;  8.8564016E-02;0; -1.0653859E-01;  1.0003877E+04;  0.0000000E+00; -3.6149062E-09;  1.0000000E+04;  0.0000000E+00;  9.9999102E+03; -1.0911481E-01;  0.0000000E+00;  2.5762226E-03;  5.5406654E+01;
  1.3997945E-01;  9.9999998E-03;  1.0000023E-01;1266; -1.3717114E-02;  0.0000000E+00;  1.5669093E-04;  1.0001908E+03;  4.0000001E-01;  1.5811896E+02;3; -6.7503667E+00;  0.0000000E+00;  1.1275520E-01;0; -1.0731539E-01;  1.0003919E+04;  0.0000000E+00; -3.0002909E-09;  1.0000000E+04;  0.0000000E+00;  9.9998955E+03; -1.1019349E-01;  0.0000000E+00;  2.8780981E-03;  6.2698200E+01;
  1.3997932E-01;  9.9999998E-03;  1.2000033E-01;1267; -1.3807016E-02;  0.0000000E+00;  2.0892215E-04;  1.0001922E+03;  4.0000001E-01;  1.5920535E+02;3; -6.7664609E+00;  0.0000000E+00;  1.3787881E-01;0; -1.0812614E-01;  1.0003962E+04;  0.0000000E+00;  4.6512358E-09;  1.0000000E+04;  0.0000000E+00;  9.9998809E+03; -1.1128801E-01;  0.0000000E+00;  3.1618718E-03;  7.0223518E+01;
  1.3997921E-01;  9.9999998E-03;  1.4000043E-01;1268; -1.3861312E-02;  0.0000000E+00;  2.7037493E-04;  1.0001933E+03;  4.0000001E-01;  1.6019298E+02;3; -6.7615957E+00;  0.0000000E+00;  1.6322851E-01;0; -1.0883560E-01;  1.0003999E+04;  0.0000000E+00;  1.0506263E-08;  1.0000000E+04;  0.0000000E+00;  9.9998672E+03; -1.1222783E-01;  0.0000000E+00;  3.3922365E-03;  7.7249870E+01;
  1.5997615E-01;  9.9999998E-03; -4.2497405E-13;1292; -1.5664008E-02;  0.0000000E+00; -2.1974487E-09;  1.0002138E+03;  4.0000001E-01;  1.7718015E+02;3; -7.6507983E+00;  0.0000000E+00; -2.4414803E-06;0; -1.1689804E-01;  1.0004351E+04;  0.0000000E+00;  6.8213527E-16;  1.0000000E+04;  0.0000000E+00;  9.9999277E+03; -1.1944340E-01;  0.0000000E+00;  2.5453623E-03;  5.0188477E+01;
  1.5997612E-01;  9.9999998E-03;  2.0000041E-02;1293; -1.5684508E-02;  0.0000000E+00;  3.2343189E-05;  1.0002141E+03;  4.0000001E-01;  1.7737767E+02;3; -7.6573110E+00;  0.0000000E+00;  2.7703559E-02;0; -1.1702907E-01;  1.0004356E+04;  0.0000000E+00; -3.6433030E-11;  1.0000000E+04;  0.0000000E+00;  9.9999238E+03; -1.1962234E-01;  0.0000000E+00;  2.5932700E-03;  5.1370701E+01;
  1.5997604E-01;  9.9999998E-03;  4.0000089E-02;1294; -1.5744297E-02;  0.0000000E+00;  6.6566230E-05;  1.0002147E+03;  4.0000001E-01;  1.7787149E+02;3; -7.6760149E+00;  0.0000000E+00;  5.5417996E-02;0; -1.1741781E-01;  1.0004375E+04;  0.0000000E+00; -7.3145462E-10;  1.0000000E+04;  0.0000000E+00;  9.9999180E+03; -1.2014927E-01;  0.0000000E+00;  2.7314611E-03;  5.4832253E+01;
  1.5997589E-01;  9.9999998E-03;  6.0000140E-02;1295; -1.5838098E-02;  0.0000000E+00;  1.0457349E-04;  1.0002157E+03;  4.0000001E-01;  1.7866159E+02;3; -7.7042799E+00;  0.0000000E+00;  8.3253592E-02;0; -1.1805110E-01;  1.0004411E+04;  0.0000000E+00; -2.6982718E-09;  1.0000000E+04;  0.0000000E+00;  9.9999043E+03; -1.2099400E-01;  0.0000000E+00;  2.9428971E-03;  6.0309620E+01;
  1.5997569E-01;  9.9999998E-03;  8.0000207E-02;1296; -1.5956828E-02;  0.0000000E+00;  1.4818460E-04;  1.0002174E+03;  4.0000001E-01;  1.8014302E+02;3; -7.7377610E+00;  0.0000000E+00;  1.1114928E-01;0; -1.1890475E-01;  1.0004454E+04;  0.0000000E+00; -4.3501318E-09;  1.0000000E+04;  0.0000000E+00;  9.9998906E+03; -1.2210339E-01;  0.0000000E+00;  3.1986297E-03;  6.7344917E+01;
  1.5997548E-01;  9.9999998E-03;  1.0000029E-01;1297; -1.6086923E-02;  0.0000000E+00;  1.9870905E-04;  1.0002192E+03;  4.0000001E-01;  1.8162447E+02;3; -7.7701721E+00;  0.0000000E+00;  1.3901366E-01;0; -1.1993724E-01;  1.0004506E+04;  0.0000000E+00; -3.6450509E-09;  1.0000000E+04;  0.0000000E+00;  9.9998770E+03; -1.2339609E-01;  0.0000000E+00;  3.4588536E-03;  7.5280685E+01;
  1.5997528E-01;  9.9999998E-03;  1.2000040E-01;1298; -1.6209064E-02;  0.0000000E+00;  2.5664055E-04;  1.0002211E+03;  4.0000001E-01;  1.8310591E+02;3; -7.7928410E+00;  0.0000000E+00;  1.6625257E-01;0; -1.2107393E-01;  1.0004562E+04;  0.0000000E+00;  7.6444699E-09;  1.0000000E+04;  0.0000000E+00;  9.9998584E+03; -1.2475368E-01;  0.0000000E+00;  3.6797479E-03;  8.3317482E+01;
  1.5997511E-01;  9.9999998E-03;  1.4000052E-01;1299; -1.6296281E-02;  0.0000000E+00;  3.2068547E-04;  1.0002230E+03;  4.0000001E-01;  1.8468611E+02;3; -7.7939196E+00;  0.0000000E+00;  1.9123763E-01;0; -1.2217759E-01;  1.0004613E+04;  0.0000000E+00;  1.9443965E-08;  1.0000000E+04;  0.0000000E+00;  9.9998438E+03; -1.2601078E-01;  0.0000000E+00;  3.8331787E-03;  9.0749214E+01;
  1.7997175E-01;  9.9999998E-03;  4.5213686E-13;1323; -1.8224040E-02;  0.0000000E+00; -1.1180099E-10;  1.0002446E+03;  4.0000001E-01;  2.0266090E+02;3; -8.7377005E+00;  0.0000000E+00;  1.4089710E-06;0; -1.3022736E-01;  1.0004993E+04;  0.0000000E+00;  8.9138762E-16;  1.0000000E+04;  0.0000000E+00;  9.9998965E+03; -1.3379093E-01;  0.0000000E+00;  3.5635645E-03;  6.4720520E+01;
  1.7997171E-01;  9.9999998E-03;  2.0000061E-02;1324; -1.8248860E-02;  0.0000000E+00;  4.9292204E-05;  1.0002450E+03;  4.0000001E-01;  2.0295720E+02;3; -8.7452278E+00;  0.0000000E+00;  3.8538225E-02;0; -1.3038236E-01;  1.0005003E+04;  0.0000000E+00;  1.2713601E-10;  1.0000000E+04;  0.0000000E+00;  9.9998955E+03; -1.3399450E-01;  0.0000000E+00;  3.6121416E-03;  6.6116570E+01;
  1.7997159E-01;  9.9999998E-03;  4.0000126E-02;1325; -1.8321412E-02;  0.0000000E+00;  1.0041822E-04;  1.0002457E+03;  4.0000001E-01;  2.0354977E+02;3; -8.7668152E+00;  0.0000000E+00;  7.6900750E-02;0; -1.3084428E-01;  1.0005027E+04;  0.0000000E+00; -3.3232800E-10;  1.0000000E+04;  0.0000000E+00;  9.9998877E+03; -1.3459519E-01;  0.0000000E+00;  3.7509005E-03;  7.0194420E+01;
  1.7997141E-01;  9.9999998E-03;  6.0000204E-02;1326; -1.8435953E-02;  0.0000000E+00;  1.5519145E-04;  1.0002472E+03;  4.0000001E-01;  2.0483368E+02;3; -8.7996683E+00;  0.0000000E+00;  1.1482587E-01;0; -1.3160335E-01;  1.0005069E+04;  0.0000000E+00; -2.9277030E-09;  1.0000000E+04;  0.0000000E+00;  9.9998750E+03; -1.3556197E-01;  0.0000000E+00;  3.9586294E-03;  7.6613716E+01;
  1.7997117E-01;  9.9999998E-03;  8.0000296E-02;1327; -1.8582575E-02;  0.0000000E+00;  2.1519023E-04;  1.0002490E+03;  4.0000001E-01;  2.0621635E+02;3; -8.8389988E+00;  0.0000000E+00;  1.5219136E-01;0; -1.3264081E-01;  1.0005122E+04;  0.0000000E+00; -5.2291638E-09;  1.0000000E+04;  0.0000000E+00;  9.9998545E+03; -1.3684088E-01;  0.0000000E+00;  4.2000669E-03;  8.4793762E+01;
  1.7997089E-01;  9.9999998E-03;  1.0000040E-01;1328; -1.8746419E-02;  0.0000000E+00;  2.8172976E-04;  1.0002513E+03;  4.0000001E-01;  2.0819160E+02;3; -8.8780689E+00;  0.0000000E+00;  1.8848442E-01;0; -1.3392270E-01;  1.0005185E+04;  0.0000000E+00; -2.4994855E-09;  1.0000000E+04;  0.0000000E+00;  9.9998389E+03; -1.3835141E-01;  0.0000000E+00;  4.4287145E-03;  9.3932121E+01;
  1.7997061E-01;  9.9999998E-03;  1.2000053E-01;1329; -1.8906360E-02;  0.0000000E+00;  3.5408567E-04;  1.0002538E+03;  4.0000001E-01;  2.1026563E+02;3; -8.9075871E+00;  0.0000000E+00;  2.2226532E-01;0; -1.3538100E-01;  1.0005254E+04;  0.0000000E+00;  1.2898992E-08;  1.0000000E+04;  0.0000000E+00;  9.9998184E+03; -1.3997982E-01;  0.0000000E+00;  4.5988243E-03;  1.0313371E+02;
  1.7997038E-01;  9.9999998E-03;  1.4000069E-01;1330; -1.9032756E-02;  0.0000000E+00;  4.2992234E-04;  1.0002565E+03;  4.0000001E-01;  2.1243840E+02;3; -8.9149027E+00;  0.0000000E+00;  2.5134438E-01;0; -1.3687626E-01;  1.0005323E+04;  0.0000000E+00;  3.4200927E-08;  1.0000000E+04;  0.0000000E+00;  9.9998057E+03; -1.4157194E-01;  0.0000000E+00;  4.6956865E-03;  1.1181513E+02;
  1.9996668E-01;  9.9999998E-03; -9.2111507E-13;1354; -2.1091443E-02;  0.0000000E+00; -1.8094646E-09;  1.0002802E+03;  4.0000001E-01;  2.3219093E+02;3; -9.9162369E+00;  0.0000000E+00; -3.3723140E-06;0; -1.4502566E-01;  1.0005745E+04;  0.0000000E+00; -1.7410373E-16;  1.0000000E+04;  0.0000000E+00;  9.9998604E+03; -1.5004754E-01;  0.0000000E+00;  5.0218878E-03;  8.4591629E+01;
  1.9996664E-01;  9.9999998E-03;  2.0000093E-02;1355; -2.1121131E-02;  0.0000000E+00;  7.6263379E-05;  1.0002806E+03;  4.0000001E-01;  2.3248721E+02;3; -9.9247227E+00;  0.0000000E+00;  5.5005252E-02;0; -1.4520177E-01;  1.0005753E+04;  0.0000000E+00; -1.6969517E-10;  1.0000000E+04;  0.0000000E+00;  9.9998584E+03; -1.5027584E-01;  0.0000000E+00;  5.0740703E-03;  8.6311493E+01;
  1.9996649E-01;  9.9999998E-03;  4.0000189E-02;1356; -2.1208160E-02;  0.0000000E+00;  1.5445327E-04;  1.0002816E+03;  4.0000001E-01;  2.3327731E+02;3; -9.9492874E+00;  0.0000000E+00;  1.0991601E-01;0; -1.4572799E-01;  1.0005783E+04;  0.0000000E+00; -6.4639571E-10;  1.0000000E+04;  0.0000000E+00;  9.9998467E+03; -1.5095001E-01;  0.0000000E+00;  5.2220267E-03;  9.1331520E+01;
  1.9996627E-01;  9.9999998E-03;  6.0000300E-02;1357; -2.1346245E-02;  0.0000000E+00;  2.3653339E-04;  1.0002831E+03;  4.0000001E-01;  2.3456123E+02;3; -9.9867477E+00;  0.0000000E+00;  1.6425958E-01;0; -1.4659788E-01;  1.0005833E+04;  0.0000000E+00; -2.5969777E-09;  1.0000000E+04;  0.0000000E+00;  9.9998301E+03; -1.5203805E-01;  0.0000000E+00;  5.4401727E-03;  9.9225731E+01;
  1.9996595E-01;  9.9999998E-03;  8.0000430E-02;1358; -2.1524534E-02;  0.0000000E+00;  3.2434106E-04;  1.0002853E+03;  4.0000001E-01;  2.3633896E+02;3; -1.0031974E+01;  0.0000000E+00;  2.1729027E-01;0; -1.4779866E-01;  1.0005899E+04;  0.0000000E+00; -5.2968394E-09;  1.0000000E+04;  0.0000000E+00;  9.9998105E+03; -1.5348577E-01;  0.0000000E+00;  5.6871106E-03;  1.0928335E+02;
  1.9996561E-01;  9.9999998E-03;  1.0000058E-01;1359; -2.1726770E-02;  0.0000000E+00;  4.1855089E-04;  1.0002880E+03;  4.0000001E-01;  2.3861050E+02;3; -1.0077610E+01;  0.0000000E+00;  2.6772729E-01;0; -1.4930308E-01;  1.0005974E+04;  0.0000000E+00; -1.7936328E-09;  1.0000000E+04;  0.0000000E+00;  9.9997881E+03; -1.5521429E-01;  0.0000000E+00;  5.9112157E-03;  1.2056606E+02;
  1.9996524E-01;  9.9999998E-03;  1.2000075E-01;1360; -2.1929679E-02;  0.0000000E+00;  5.1824586E-04;  1.0002913E+03;  4.0000001E-01;  2.4127708E+02;3; -1.0113503E+01;  0.0000000E+00;  3.1480983E-01;0; -1.5104742E-01;  1.0006059E+04;  0.0000000E+00;  1.7675823E-08;  1.0000000E+04;  0.0000000E+00;  9.9997646E+03; -1.5711696E-01;  0.0000000E+00;  6.0695433E-03;  1.3214612E+02;
  1.9996491E-01;  9.9999998E-03;  1.4000095E-01;1361; -2.2100888E-02;  0.0000000E+00;  6.1969156E-04;  1.0002943E+03;  4.0000001E-01;  2.4384492E+02;3; -1.0126386E+01;  0.0000000E+00;  3.5439721E-01;0; -1.5288638E-01;  1.0006146E+04;  0.0000000E+00;  4.8177657E-08;  1.0000000E+04;  0.0000000E+00;  9.9997432E+03; -1.5905738E-01;  0.0000000E+00;  6.1710058E-03;  1.4373282E+02;
  2.1996085E-01;  9.9999998E-03; -1.6170129E-12;1385; -2.4303915E-02;  0.0000000E+00; -3.2776672E-09;  1.0003207E+03;  4.0000001E-01;  2.6577023E+02;3; -1.1193374E+01;  0.0000000E+00; -5.6517056E-06;0; -1.6137429E-01;  1.0006606E+04;  0.0000000E+00;  1.9777925E-15;  1.0000000E+04;  0.0000000E+00;  9.9998096E+03; -1.6836442E-01;  0.0000000E+00;  6.9901310E-03;  1.1056123E+02;
  2.1996079E-01;  9.9999998E-03;  2.0000136E-02;1386; -2.4339052E-02;  0.0000000E+00;  1.1528830E-04;  1.0003210E+03;  4.0000001E-01;  2.6596774E+02;3; -1.1202854E+01;  0.0000000E+00;  7.9214856E-02;0; -1.6156662E-01;  1.0006617E+04;  0.0000000E+00;  8.4090977E-11;  1.0000000E+04;  0.0000000E+00;  9.9998057E+03; -1.6861634E-01;  0.0000000E+00;  7.0497189E-03;  1.1274776E+02;
  2.1996062E-01;  9.9999998E-03;  4.0000279E-02;1387; -2.4442282E-02;  0.0000000E+00;  2.3260521E-04;  1.0003221E+03;  4.0000001E-01;  2.6685660E+02;3; -1.1230416E+01;  0.0000000E+00;  1.5670836E-01;0; -1.6214292E-01;  1.0006650E+04;  0.0000000E+00; -2.5531430E-10;  1.0000000E+04;  0.0000000E+00;  9.9997910E+03; -1.6936135E-01;  0.0000000E+00;  7.2184424E-03;  1.1913799E+02;
  2.1996033E-01;  9.9999998E-03;  6.0000442E-02;1388; -2.4606710E-02;  0.0000000E+00;  3.5452846E-04;  1.0003239E+03;  4.0000001E-01;  2.6833804E+02;3; -1.1272343E+01;  0.0000000E+00;  2.3374122E-01;0; -1.6310029E-01;  1.0006709E+04;  0.0000000E+00; -1.9229172E-09;  1.0000000E+04;  0.0000000E+00;  9.9997734E+03; -1.7056732E-01;  0.0000000E+00;  7.4670264E-03;  1.2922377E+02;
  2.1995996E-01;  9.9999998E-03;  8.0000624E-02;1389; -2.4820413E-02;  0.0000000E+00;  4.8307530E-04;  1.0003262E+03;  4.0000001E-01;  2.7031329E+02;3; -1.1323071E+01;  0.0000000E+00;  3.0909422E-01;0; -1.6442959E-01;  1.0006783E+04;  0.0000000E+00; -3.8793235E-09;  1.0000000E+04;  0.0000000E+00;  9.9997461E+03; -1.7217945E-01;  0.0000000E+00;  7.7498499E-03;  1.4218071E+02;
  2.1995951E-01;  9.9999998E-03;  1.0000084E-01;1390; -2.5065431E-02;  0.0000000E+00;  6.1954604E-04;  1.0003294E+03;  4.0000001E-01;  2.7288113E+02;3; -1.1374561E+01;  0.0000000E+00;  3.8268727E-01;0; -1.6610779E-01;  1.0006877E+04;  0.0000000E+00; -1.2420650E-09;  1.0000000E+04;  0.0000000E+00;  9.9997158E+03; -1.7412208E-01;  0.0000000E+00;  8.0142980E-03;  1.5698131E+02;
  2.1995905E-01;  9.9999998E-03;  1.2000108E-01;1391; -2.5315918E-02;  0.0000000E+00;  7.6304621E-04;  1.0003331E+03;  4.0000001E-01;  2.7594278E+02;3; -1.1415497E+01;  0.0000000E+00;  4.5090264E-01;0; -1.6807027E-01;  1.0006981E+04;  0.0000000E+00;  2.1860409E-08;  1.0000000E+04;  0.0000000E+00;  9.9996836E+03; -1.7629799E-01;  0.0000000E+00;  8.2277209E-03;  1.7277223E+02;
  2.1995860E-01;  9.9999998E-03;  1.4000134E-01;1392; -2.5537113E-02;  0.0000000E+00;  9.0529112E-04;  1.0003370E+03;  4.0000001E-01;  2.7920193E+02;3; -1.1432347E+01;  0.0000000E+00;  5.0755787E-01;0; -1.7015857E-01;  1.0007094E+04;  0.0000000E+00;  6.1395347E-08;  1.0000000E+04;  0.0000000E+00;  9.9996523E+03; -1.7859171E-01;  0.0000000E+00;  8.4331557E-03;  1.8974483E+02;
  2.3995414E-01;  9.9999998E-03; -7.3761960E-13;1416; -2.7905302E-02;  0.0000000E+00; -1.9651800E-09;  1.0003667E+03;  4.0000001E-01;  3.0379382E+02;3; -1.2578732E+01;  0.0000000E+00; -8.3298974E-06;0; -1.7937610E-01;  1.0007593E+04;  0.0000000E+00; -1.8464461E-15;  1.0000000E+04;  0.0000000E+00;  9.9997451E+03; -1.8889086E-01;  0.0000000E+00;  9.5147695E-03;  1.4310193E+02;
  2.3995407E-01;  9.9999998E-03;  2.0000195E-02;1417; -2.7946455E-02;  0.0000000E+00;  1.6714535E-04;  1.0003671E+03;  4.0000001E-01;  3.0418887E+02;3; -1.2589228E+01;  0.0000000E+00;  1.0981506E-01;0; -1.7957881E-01;  1.0007604E+04;  0.0000000E+00;  1.0345126E-09;  1.0000000E+04;  0.0000000E+00;  9.9997383E+03; -1.8916492E-01;  0.0000000E+00;  9.5861061E-03;  1.4592836E+02;
  2.3995386E-01;  9.9999998E-03;  4.0000401E-02;1418; -2.8067425E-02;  0.0000000E+00;  3.3744751E-04;  1.0003683E+03;  4.0000001E-01;  3.0517651E+02;3; -1.2619148E+01;  0.0000000E+00;  2.1989809E-01;0; -1.8018700E-01;  1.0007647E+04;  0.0000000E+00;  1.8428907E-09;  1.0000000E+04;  0.0000000E+00;  9.9997217E+03; -1.8997613E-01;  0.0000000E+00;  9.7891176E-03;  1.5421222E+02;
  2.3995350E-01;  9.9999998E-03;  6.0000628E-02;1419; -2.8260769E-02;  0.0000000E+00;  5.1389990E-04;  1.0003703E+03;  4.0000001E-01;  3.0675671E+02;3; -1.2664942E+01;  0.0000000E+00;  3.2894707E-01;0; -1.8120007E-01;  1.0007711E+04;  0.0000000E+00;  2.5067090E-10;  1.0000000E+04;  0.0000000E+00;  9.9996953E+03; -1.9129249E-01;  0.0000000E+00;  1.0092421E-02;  1.6737880E+02;
  2.3995304E-01;  9.9999998E-03;  8.0000885E-02;1420; -2.8513288E-02;  0.0000000E+00;  6.9870759E-04;  1.0003731E+03;  4.0000001E-01;  3.0912701E+02;3; -1.2720140E+01;  0.0000000E+00;  4.3480161E-01;0; -1.8261139E-01;  1.0007802E+04;  0.0000000E+00; -3.1856588E-09;  1.0000000E+04;  0.0000000E+00;  9.9996602E+03; -1.9306079E-01;  0.0000000E+00;  1.0449399E-02;  1.8452705E+02;
  2.3995249E-01;  9.9999998E-03;  1.0000118E-01;1421; -2.8805183E-02;  0.0000000E+00;  8.9204841E-04;  1.0003764E+03;  4.0000001E-01;  3.1189236E+02;3; -1.2776298E+01;  0.0000000E+00;  5.3359240E-01;0; -1.8439686E-01;  1.0007911E+04;  0.0000000E+00; -7.6114542E-10;  1.0000000E+04;  0.0000000E+00;  9.9996201E+03; -1.9520865E-01;  0.0000000E+00;  1.0811794E-02;  2.0460654E+02;
  2.3995191E-01;  9.9999998E-03;  1.2000152E-01;1422; -2.9108247E-02;  0.0000000E+00;  1.0920248E-03;  1.0003804E+03;  4.0000001E-01;  3.1515152E+02;3; -1.2820869E+01;  0.0000000E+00;  6.2784296E-01;0; -1.8648407E-01;  1.0008036E+04;  0.0000000E+00;  1.8981970E-08;  1.0000000E+04;  0.0000000E+00;  9.9995762E+03; -1.9764851E-01;  0.0000000E+00;  1.1164437E-02;  2.2694270E+02;
  2.3995134E-01;  9.9999998E-03;  1.4000189E-01;1423; -2.9383553E-02;  0.0000000E+00;  1.2952812E-03;  1.0003847E+03;  4.0000001E-01;  3.1870700E+02;3; -1.2838292E+01;  0.0000000E+00;  7.1420544E-01;0; -1.8869542E-01;  1.0008175E+04;  0.0000000E+00;  5.6202836E-08;  1.0000000E+04;  0.0000000E+00;  9.9995254E+03; -2.0028511E-01;  0.0000000E+00;  1.1589686E-02;  2.5231743E+02;
  2.5994644E-01;  9.9999998E-03; -6.7315749E-13;1447; -3.1942952E-02;  0.0000000E+00; -1.1770603E-09;  1.0004191E+03;  4.0000001E-01;  3.4724936E+02;3; -1.4081486E+01;  0.0000000E+00; -7.0598835E-06;0; -1.9916673E-01;  1.0008720E+04;  0.0000000E+00; -1.2338771E-16;  1.0000000E+04;  0.0000000E+00;  9.9996670E+03; -2.1177983E-01;  0.0000000E+00;  1.2613096E-02;  1.8236676E+02;
  2.5994635E-01;  9.9999998E-03;  2.0000268E-02;1448; -3.1990543E-02;  0.0000000E+00;  2.3382554E-04;  1.0004195E+03;  4.0000001E-01;  3.4754565E+02;3; -1.4092501E+01;  0.0000000E+00;  1.5115722E-01;0; -1.9937257E-01;  1.0008736E+04;  0.0000000E+00; -5.0058763E-11;  1.0000000E+04;  0.0000000E+00;  9.9996582E+03; -2.1207327E-01;  0.0000000E+00;  1.2700691E-02;  1.8603047E+02;
  2.5994608E-01;  9.9999998E-03;  4.0000550E-02;1449; -3.2130636E-02;  0.0000000E+00;  4.7123467E-04;  1.0004208E+03;  4.0000001E-01;  3.4863205E+02;3; -1.4124348E+01;  0.0000000E+00;  3.0051744E-01;0; -1.9999090E-01;  1.0008783E+04;  0.0000000E+00;  2.8469187E-09;  1.0000000E+04;  0.0000000E+00;  9.9996348E+03; -2.1294311E-01;  0.0000000E+00;  1.2952212E-02;  1.9680734E+02;
  2.5994566E-01;  9.9999998E-03;  6.0000863E-02;1450; -3.2355241E-02;  0.0000000E+00;  7.1509357E-04;  1.0004229E+03;  4.0000001E-01;  3.5040976E+02;3; -1.4173542E+01;  0.0000000E+00;  4.4385901E-01;0; -2.0102270E-01;  1.0008863E+04;  0.0000000E+00;  3.8729810E-09;  1.0000000E+04;  0.0000000E+00;  9.9996016E+03; -2.1435879E-01;  0.0000000E+00;  1.3336098E-02;  2.1407874E+02;
  2.5994509E-01;  9.9999998E-03;  8.0001213E-02;1451; -3.2649789E-02;  0.0000000E+00;  9.6949149E-04;  1.0004258E+03;  4.0000001E-01;  3.5278006E+02;3; -1.4231763E+01;  0.0000000E+00;  5.8737355E-01;0; -2.0246132E-01;  1.0008965E+04;  0.0000000E+00; -1.2146762E-09;  1.0000000E+04;  0.0000000E+00;  9.9995547E+03; -2.1626934E-01;  0.0000000E+00;  1.3808023E-02;  2.3690697E+02;
  2.5994441E-01;  9.9999998E-03;  1.0000162E-01;1452; -3.2992423E-02;  0.0000000E+00;  1.2360545E-03;  1.0004295E+03;  4.0000001E-01;  3.5584171E+02;3; -1.4290313E+01;  0.0000000E+00;  7.2559392E-01;0; -2.0427772E-01;  1.0009096E+04;  0.0000000E+00; -2.7139355E-09;  1.0000000E+04;  0.0000000E+00;  9.9995000E+03; -2.1860586E-01;  0.0000000E+00;  1.4328131E-02;  2.6427243E+02;
  2.5994369E-01;  9.9999998E-03;  1.2000208E-01;1453; -3.3351939E-02;  0.0000000E+00;  1.5118769E-03;  1.0004339E+03;  4.0000001E-01;  3.5949591E+02;3; -1.4335313E+01;  0.0000000E+00;  8.5565835E-01;0; -2.0638706E-01;  1.0009242E+04;  0.0000000E+00;  2.9514768E-09;  1.0000000E+04;  0.0000000E+00;  9.9994375E+03; -2.2128838E-01;  0.0000000E+00;  1.4901332E-02;  2.9571371E+02;
  2.5994298E-01;  9.9999998E-03;  1.4000258E-01;1454; -3.3686943E-02;  0.0000000E+00;  1.7936403E-03;  1.0004382E+03;  4.0000001E-01;  3.6305139E+02;3; -1.4351655E+01;  0.0000000E+00;  9.7159451E-01;0; -2.0858981E-01;  1.0009405E+04;  0.0000000E+00;  2.6767617E-08;  1.0000000E+04;  0.0000000E+00;  9.9993613E+03; -2.2423476E-01;  0.0000000E+00;  1.5644949E-02;  3.3254224E+02;
  2.7993757E-01;  9.9999998E-03; -6.5298559E-13;1478; -3.6468189E-02;  0.0000000E+00;  1.0521127E-11;  1.0004783E+03;  4.0000001E-01;  3.9633438E+02;3; -1.5714032E+01;  0.0000000E+00;  4.3713590E-06;0; -2.2091180E-01;  1.0009997E+04;  0.0000000E+00; -1.4298364E-15;  1.0000000E+04;  0.0000000E+00;  9.9995732E+03; -2.3718165E-01;  0.0000000E+00;  1.6269846E-02;  2.2822745E+02;
  2.7993745E-01;  9.9999998E-03;  2.0000355E-02;1479; -3.6522526E-02;  0.0000000E+00;  3.1366394E-04;  1.0004788E+03;  4.0000001E-01;  3.9663068E+02;3; -1.5725132E+01;  0.0000000E+00;  1.9699699E-01;0; -2.2111294E-01;  1.0010016E+04;  0.0000000E+00;  3.0101264E-09;  1.0000000E+04;  0.0000000E+00;  9.9995635E+03; -2.3749116E-01;  0.0000000E+00;  1.6378229E-02;  2.3294057E+02;
  2.7993715E-01;  9.9999998E-03;  4.0000729E-02;1480; -3.6682788E-02;  0.0000000E+00;  6.3129317E-04;  1.0004800E+03;  4.0000001E-01;  3.9771707E+02;3; -1.5757636E+01;  0.0000000E+00;  3.9371687E-01;0; -2.2171745E-01;  1.0010070E+04;  0.0000000E+00;  7.3632247E-09;  1.0000000E+04;  0.0000000E+00;  9.9995352E+03; -2.3840971E-01;  0.0000000E+00;  1.6692270E-02;  2.4685490E+02;
  2.7993664E-01;  9.9999998E-03;  6.0001142E-02;1481; -3.6940202E-02;  0.0000000E+00;  9.5805823E-04;  1.0004823E+03;  4.0000001E-01;  3.9959354E+02;3; -1.5807078E+01;  0.0000000E+00;  5.8746636E-01;0; -2.2272761E-01;  1.0010161E+04;  0.0000000E+00;  1.0111957E-08;  1.0000000E+04;  0.0000000E+00;  9.9994893E+03; -2.3990908E-01;  0.0000000E+00;  1.7181465E-02;  2.6932782E+02;
  2.7993596E-01;  9.9999998E-03;  8.0001608E-02;1482; -3.7278987E-02;  0.0000000E+00;  1.2973341E-03;  1.0004851E+03;  4.0000001E-01;  4.0186508E+02;3; -1.5866004E+01;  0.0000000E+00;  7.7580214E-01;0; -2.2413583E-01;  1.0010285E+04;  0.0000000E+00;  6.5921753E-09;  1.0000000E+04;  0.0000000E+00;  9.9994268E+03; -2.4194106E-01;  0.0000000E+00;  1.7805239E-02;  2.9940823E+02;
  2.7993515E-01;  9.9999998E-03;  1.0000213E-01;1483; -3.7675500E-02;  0.0000000E+00;  1.6513788E-03;  1.0004893E+03;  4.0000001E-01;  4.0542053E+02;3; -1.5923597E+01;  0.0000000E+00;  9.5602643E-01;0; -2.2590786E-01;  1.0010434E+04;  0.0000000E+00; -1.4780727E-09;  1.0000000E+04;  0.0000000E+00;  9.9993555E+03; -2.4444048E-01;  0.0000000E+00;  1.8532611E-02;  3.3611234E+02;
  2.7993423E-01;  9.9999998E-03;  1.2000275E-01;1484; -3.8095962E-02;  0.0000000E+00;  2.0220969E-03;  1.0004937E+03;  4.0000001E-01;  4.0907477E+02;3; -1.5965450E+01;  0.0000000E+00;  1.1274505E+00;0; -2.2794509E-01;  1.0010610E+04;  0.0000000E+00; -6.5457595E-09;  1.0000000E+04;  0.0000000E+00;  9.9992656E+03; -2.4732932E-01;  0.0000000E+00;  1.9384228E-02;  3.7911462E+02;
  2.7993333E-01;  9.9999998E-03;  1.4000343E-01;1485; -3.8497809E-02;  0.0000000E+00;  2.3976464E-03;  1.0004984E+03;  4.0000001E-01;  4.1282773E+02;3; -1.5978234E+01;  0.0000000E+00;  1.2753839E+00;0; -2.3002994E-01;  1.0010805E+04;  0.0000000E+00; -1.0917964E-08;  1.0000000E+04;  0.0000000E+00;  9.9991641E+03; -2.5052783E-01;  0.0000000E+00;  2.0497892E-02;  4.3000522E+02;
  2.9992738E-01;  9.9999998E-03; -4.7818574E-13;1509; -4.1533243E-02;  0.0000000E+00; -3.3006894E-10;  1.0005454E+03;  4.0000001E-01;  4.5183890E+02;3; -1.7480549E+01;  0.0000000E+00; -6.3601547E-06;0; -2.4479644E-01;  1.0011442E+04;  0.0000000E+00; -1.9753537E-15;  1.0000000E+04;  0.0000000E+00;  9.9994697E+03; -2.6523405E-01;  0.0000000E+00;  2.0437609E-02;  2.8041681E+02;
  2.9992726E-01;  9.9999998E-03;  2.0000454E-02;1510; -4.1594531E-02;  0.0000000E+00;  4.0600551E-04;  1.0005459E+03;  4.0000001E-01;  4.5223395E+02;3; -1.7491686E+01;  0.0000000E+00;  2.5587723E-01;0; -2.4498399E-01;  1.0011466E+04;  0.0000000E+00;  4.3186810E-09;  1.0000000E+04;  0.0000000E+00;  9.9994551E+03; -2.6555526E-01;  0.0000000E+00;  2.0571275E-02;  2.8639331E+02;
  2.9992691E-01;  9.9999998E-03;  4.0000930E-02;1511; -4.1775439E-02;  0.0000000E+00;  8.1707351E-04;  1.0005471E+03;  4.0000001E-01;  4.5332034E+02;3; -1.7523420E+01;  0.0000000E+00;  5.0916553E-01;0; -2.4554969E-01;  1.0011526E+04;  0.0000000E+00;  1.4117675E-08;  1.0000000E+04;  0.0000000E+00;  9.9994189E+03; -2.6651093E-01;  0.0000000E+00;  2.0961238E-02;  3.0409250E+02;
  2.9992628E-01;  9.9999998E-03;  6.0001455E-02;1512; -4.2066514E-02;  0.0000000E+00;  1.2389646E-03;  1.0005494E+03;  4.0000001E-01;  4.5519684E+02;3; -1.7571327E+01;  0.0000000E+00;  7.5609595E-01;0; -2.4649698E-01;  1.0011632E+04;  0.0000000E+00;  2.2571809E-08;  1.0000000E+04;  0.0000000E+00;  9.9993633E+03; -2.6807457E-01;  0.0000000E+00;  2.1577589E-02;  3.3285718E+02;
  2.9992548E-01;  9.9999998E-03;  8.0002047E-02;1513; -4.2451259E-02;  0.0000000E+00;  1.6760571E-03;  1.0005528E+03;  4.0000001E-01;  4.5796219E+02;3; -1.7627520E+01;  0.0000000E+00;  9.9442047E-01;0; -2.4782002E-01;  1.0011777E+04;  0.0000000E+00;  2.2141812E-08;  1.0000000E+04;  0.0000000E+00;  9.9992832E+03; -2.7020207E-01;  0.0000000E+00;  2.2382047E-02;  3.7171625E+02;
  2.9992449E-01;  9.9999998E-03;  1.0000273E-01;1514; -4.2904261E-02;  0.0000000E+00;  2.1330190E-03;  1.0005568E+03;  4.0000001E-01;  4.6132010E+02;3; -1.7680332E+01;  0.0000000E+00;  1.2248050E+00;0; -2.4948134E-01;  1.0011953E+04;  0.0000000E+00;  1.1138399E-08;  1.0000000E+04;  0.0000000E+00;  9.9991855E+03; -2.7282947E-01;  0.0000000E+00;  2.3348138E-02;  4.1966333E+02;
  2.9992339E-01;  9.9999998E-03;  1.2000351E-01;1515; -4.3390170E-02;  0.0000000E+00;  2.6100178E-03;  1.0005612E+03;  4.0000001E-01;  4.6487558E+02;3; -1.7717207E+01;  0.0000000E+00;  1.4310659E+00;0; -2.5137448E-01;  1.0012159E+04;  0.0000000E+00; -1.0461870E-08;  1.0000000E+04;  0.0000000E+00;  9.9990703E+03; -2.7587596E-01;  0.0000000E+00;  2.4501488E-02;  4.7633008E+02;
  2.9992229E-01;  9.9999998E-03;  1.4000441E-01;1516; -4.3864407E-02;  0.0000000E+00;  3.0983204E-03;  1.0005657E+03;  4.0000001E-01;  4.6872729E+02;3; -1.7720009E+01;  0.0000000E+00;  1.6258011E+00;0; -2.5327188E-01;  1.0012386E+04;  0.0000000E+00; -2.8340864E-08;  1.0000000E+04;  0.0000000E+00;  9.9989316E+03; -2.7925050E-01;  0.0000000E+00;  2.5978616E-02;  5.4320374E+02;
  3.1991574E-01;  9.9999998E-03; -2.2573033E-12;1540; -4.7195729E-02;  0.0000000E+00; -5.8448557E-09;  1.0006209E+03;  4.0000001E-01;  5.1445441E+02;3; -1.9394684E+01;  0.0000000E+00; -1.5462341E-05;0; -2.7100539E-01;  1.0013075E+04;  0.0000000E+00;  7.7883748E-16;  1.0000000E+04;  0.0000000E+00;  9.9993496E+03; -2.9604694E-01;  0.0000000E+00;  2.5041537E-02;  3.3881839E+02;
  3.1991559E-01;  9.9999998E-03;  2.0000562E-02;1541; -4.7263928E-02;  0.0000000E+00;  5.1008188E-04;  1.0006215E+03;  4.0000001E-01;  5.1484943E+02;3; -1.9404741E+01;  0.0000000E+00;  3.2083523E-01;0; -2.7117112E-01;  1.0013101E+04;  0.0000000E+00;  6.8120767E-09;  1.0000000E+04;  0.0000000E+00;  9.9993340E+03; -2.9637620E-01;  0.0000000E+00;  2.5205085E-02;  3.4625497E+02;
  3.1991515E-01;  9.9999998E-03;  4.0001154E-02;1542; -4.7465414E-02;  0.0000000E+00;  1.0260502E-03;  1.0006227E+03;  4.0000001E-01;  5.1583710E+02;3; -1.9433243E+01;  0.0000000E+00;  6.3747001E-01;0; -2.7167249E-01;  1.0013173E+04;  0.0000000E+00;  2.4058634E-08;  1.0000000E+04;  0.0000000E+00;  9.9992891E+03; -2.9735664E-01;  0.0000000E+00;  2.5684133E-02;  3.6833194E+02;
  3.1991443E-01;  9.9999998E-03;  6.0001802E-02;1543; -4.7790322E-02;  0.0000000E+00;  1.5543664E-03;  1.0006251E+03;  4.0000001E-01;  5.1791107E+02;3; -1.9475592E+01;  0.0000000E+00;  9.4359225E-01;0; -2.7251765E-01;  1.0013292E+04;  0.0000000E+00;  4.3737217E-08;  1.0000000E+04;  0.0000000E+00;  9.9992168E+03; -2.9896498E-01;  0.0000000E+00;  2.6447313E-02;  4.0437622E+02;
  3.1991348E-01;  9.9999998E-03;  8.0002539E-02;1544; -4.8221331E-02;  0.0000000E+00;  2.0999881E-03;  1.0006285E+03;  4.0000001E-01;  5.2077521E+02;3; -1.9523752E+01;  0.0000000E+00;  1.2354674E+00;0; -2.7370501E-01;  1.0013457E+04;  0.0000000E+00;  5.0889955E-08;  1.0000000E+04;  0.0000000E+00;  9.9991172E+03; -3.0115879E-01;  0.0000000E+00;  2.7453784E-02;  4.5336487E+02;
  3.1991228E-01;  9.9999998E-03;  1.0000339E-01;1545; -4.8731871E-02;  0.0000000E+00;  2.6689868E-03;  1.0006325E+03;  4.0000001E-01;  5.2403436E+02;3; -1.9566057E+01;  0.0000000E+00;  1.5137863E+00;0; -2.7520218E-01;  1.0013663E+04;  0.0000000E+00;  3.6045954E-08;  1.0000000E+04;  0.0000000E+00;  9.9989932E+03; -3.0387509E-01;  0.0000000E+00;  2.8672906E-02;  5.1416907E+02;
  3.1991097E-01;  9.9999998E-03;  1.2000438E-01;1546; -4.9286660E-02;  0.0000000E+00;  3.2599831E-03;  1.0006371E+03;  4.0000001E-01;  5.2788611E+02;3; -1.9591593E+01;  0.0000000E+00;  1.7636477E+00;0; -2.7690446E-01;  1.0013903E+04;  0.0000000E+00;  2.7344411E-09;  1.0000000E+04;  0.0000000E+00;  9.9988486E+03; -3.0702472E-01;  0.0000000E+00;  3.0120250E-02;  5.8615259E+02;
  3.1990960E-01;  9.9999998E-03;  1.4000551E-01;1547; -4.9837880E-02;  0.0000000E+00;  3.8750598E-03;  1.0006418E+03;  4.0000001E-01;  5.3173785E+02;3; -1.9580032E+01;  0.0000000E+00;  2.0045328E+00;0; -2.7858815E-01;  1.0014168E+04;  0.0000000E+00; -4.2178677E-08;  1.0000000E+04;  0.0000000E+00;  9.9986748E+03; -3.1049597E-01;  0.0000000E+00;  3.1907838E-02;  6.7029584E+02;
  3.3990243E-01;  9.9999998E-03;  7.3093075E-14;1571; -5.3516924E-02;  0.0000000E+00;  1.2758722E-09;  1.0007059E+03;  4.0000001E-01;  5.8477332E+02;3; -2.1465412E+01;  0.0000000E+00; -2.4834644E-06;0; -2.9969695E-01;  1.0014901E+04;  0.0000000E+00;  3.6344971E-16;  1.0000000E+04;  0.0000000E+00;  9.9992197E+03; -3.2968688E-01;  0.0000000E+00;  2.9989924E-02;  4.0394125E+02;
  3.3990225E-01;  9.9999998E-03;  2.0000676E-02;1572; -5.3591974E-02;  0.0000000E+00;  6.2184816E-04;  1.0007064E+03;  4.0000001E-01;  5.8516840E+02;3; -2.1473095E+01;  0.0000000E+00;  3.9217290E-01;0; -2.9983285E-01;  1.0014928E+04;  0.0000000E+00;  1.0003523E-08;  1.0000000E+04;  0.0000000E+00;  9.9992021E+03; -3.3002123E-01;  0.0000000E+00;  3.0188393E-02;  4.1299008E+02;
  3.3990175E-01;  9.9999998E-03;  4.0001389E-02;1573; -5.3813644E-02;  0.0000000E+00;  1.2510694E-03;  1.0007077E+03;  4.0000001E-01;  5.8635352E+02;3; -2.1494825E+01;  0.0000000E+00;  7.7637649E-01;0; -3.0024645E-01;  1.0015013E+04;  0.0000000E+00;  3.9265263E-08;  1.0000000E+04;  0.0000000E+00;  9.9991445E+03; -3.3101720E-01;  0.0000000E+00;  3.0770756E-02;  4.3990390E+02;
  3.3990088E-01;  9.9999998E-03;  6.0002174E-02;1574; -5.4171722E-02;  0.0000000E+00;  1.8942244E-03;  1.0007103E+03;  4.0000001E-01;  5.8852631E+02;3; -2.1526398E+01;  0.0000000E+00;  1.1446820E+00;0; -3.0095175E-01;  1.0015153E+04;  0.0000000E+00;  7.3706452E-08;  1.0000000E+04;  0.0000000E+00;  9.9990547E+03; -3.3265254E-01;  0.0000000E+00;  3.1700801E-02;  4.8399292E+02;
  3.3989975E-01;  9.9999998E-03;  8.0003068E-02;1575; -5.4648239E-02;  0.0000000E+00;  2.5578425E-03;  1.0007139E+03;  4.0000001E-01;  5.9148920E+02;3; -2.1559399E+01;  0.0000000E+00;  1.4943888E+00;0; -3.0195919E-01;  1.0015347E+04;  0.0000000E+00;  9.2582169E-08;  1.0000000E+04;  0.0000000E+00;  9.9989355E+03; -3.3488750E-01;  0.0000000E+00;  3.2928329E-02;  5.4415063E+02;
  3.3989835E-01;  9.9999998E-03;  1.0000411E-01;1576; -5.5216957E-02;  0.0000000E+00;  3.2458073E-03;  1.0007180E+03;  4.0000001E-01;  5.9484711E+02;3; -2.1586411E+01;  0.0000000E+00;  1.8136452E+00;0; -3.0324969E-01;  1.0015585E+04;  0.0000000E+00;  8.1122614E-08;  1.0000000E+04;  0.0000000E+00;  9.9987822E+03; -3.3765644E-01;  0.0000000E+00;  3.4406748E-02;  6.1902734E+02;
  3.3989674E-01;  9.9999998E-03;  1.2000531E-01;1577; -5.5840373E-02;  0.0000000E+00;  3.9618807E-03;  1.0007231E+03;  4.0000001E-01;  5.9909387E+02;3; -2.1589476E+01;  0.0000000E+00;  2.1130929E+00;0; -3.0473542E-01;  1.0015863E+04;  0.0000000E+00;  2.7277563E-08;  1.0000000E+04;  0.0000000E+00;  9.9986016E+03; -3.4086022E-01;  0.0000000E+00;  3.6124803E-02;  7.0752008E+02;
  3.3989507E-01;  9.9999998E-03;  1.4000671E-01;1578; -5.6470547E-02;  0.0000000E+00;  4.7082375E-03;  1.0007277E+03;  4.0000001E-01;  6.0284686E+02;3; -2.1555927E+01;  0.0000000E+00;  2.3922703E+00;0; -3.0621088E-01;  1.0016169E+04;  0.0000000E+00; -3.0287211E-08;  1.0000000E+04;  0.0000000E+00;  9.9983926E+03; -3.4436187E-01;  0.0000000E+00;  3.8151003E-02;  8.0979468E+02;
  3.5988721E-01;  9.9999998E-03; -2.7919878E-12;1602; -6.0560912E-02;  0.0000000E+00; -3.7611989E-09;  1.0008005E+03;  4.0000001E-01;  6.6319080E+02;3; -2.3701488E+01;  0.0000000E+00;  5.9732538E-06;0; -3.3096728E-01;  1.0016944E+04;  0.0000000E+00; -4.9350744E-16;  1.0000000E+04;  0.0000000E+00;  9.9990732E+03; -3.6616090E-01;  0.0000000E+00;  3.5193633E-02;  4.7761542E+02;
  3.5988700E-01;  9.9999998E-03;  2.0000793E-02;1603; -6.0642458E-02;  0.0000000E+00;  7.3779636E-04;  1.0008011E+03;  4.0000001E-01;  6.6368457E+02;3; -2.3705511E+01;  0.0000000E+00;  4.6609247E-01;0; -3.3106610E-01;  1.0016977E+04;  0.0000000E+00;  1.4811592E-08;  1.0000000E+04;  0.0000000E+00;  9.9990518E+03; -3.6649889E-01;  0.0000000E+00;  3.5432793E-02;  4.8834842E+02;
  3.5988641E-01;  9.9999998E-03;  4.0001631E-02;1604; -6.0883544E-02;  0.0000000E+00;  1.4844959E-03;  1.0008027E+03;  4.0000001E-01;  6.6506726E+02;3; -2.3716122E+01;  0.0000000E+00;  9.2149508E-01;0; -3.3137146E-01;  1.0017074E+04;  0.0000000E+00;  5.2525372E-08;  1.0000000E+04;  0.0000000E+00;  9.9989883E+03; -3.6750621E-01;  0.0000000E+00;  3.6134753E-02;  5.2032251E+02;
  3.5988542E-01;  9.9999998E-03;  6.0002562E-02;1605; -6.1273545E-02;  0.0000000E+00;  2.2476551E-03;  1.0008054E+03;  4.0000001E-01;  6.6724005E+02;3; -2.3729851E+01;  0.0000000E+00;  1.3554859E+00;0; -3.3190647E-01;  1.0017235E+04;  0.0000000E+00;  1.0099698E-07;  1.0000000E+04;  0.0000000E+00;  9.9988779E+03; -3.6916122E-01;  0.0000000E+00;  3.7254747E-02;  5.7284473E+02;
  3.5988405E-01;  9.9999998E-03;  8.0003627E-02;1606; -6.1793886E-02;  0.0000000E+00;  3.0353237E-03;  1.0008091E+03;  4.0000001E-01;  6.7040045E+02;3; -2.3739136E+01;  0.0000000E+00;  1.7637737E+00;0; -3.3269659E-01;  1.0017457E+04;  0.0000000E+00;  1.3815527E-07;  1.0000000E+04;  0.0000000E+00;  9.9987324E+03; -3.7142220E-01;  0.0000000E+00;  3.8725603E-02;  6.4472131E+02;
  3.5988241E-01;  9.9999998E-03;  1.0000486E-01;1607; -6.2418643E-02;  0.0000000E+00;  3.8494032E-03;  1.0008137E+03;  4.0000001E-01;  6.7405463E+02;3; -2.3739613E+01;  0.0000000E+00;  2.1273205E+00;0; -3.3374864E-01;  1.0017732E+04;  0.0000000E+00;  1.1668779E-07;  1.0000000E+04;  0.0000000E+00;  9.9985479E+03; -3.7422085E-01;  0.0000000E+00;  4.0472224E-02;  7.3432861E+02;
  3.5988051E-01;  9.9999998E-03;  1.2000630E-01;1608; -6.3110150E-02;  0.0000000E+00;  4.6987301E-03;  1.0008190E+03;  4.0000001E-01;  6.7859772E+02;3; -2.3712044E+01;  0.0000000E+00;  2.4750390E+00;0; -3.3500558E-01;  1.0018054E+04;  0.0000000E+00;  6.1487867E-08;  1.0000000E+04;  0.0000000E+00;  9.9983350E+03; -3.7744623E-01;  0.0000000E+00;  4.2440668E-02;  8.3998633E+02;
  3.5987848E-01;  9.9999998E-03;  1.4000797E-01;1609; -6.3818417E-02;  0.0000000E+00;  5.5838386E-03;  1.0008245E+03;  4.0000001E-01;  6.8314081E+02;3; -2.3645103E+01;  0.0000000E+00;  2.7819524E+00;0; -3.3629403E-01;  1.0018407E+04;  0.0000000E+00; -4.3262842E-09;  1.0000000E+04;  0.0000000E+00;  9.9980869E+03; -3.8093692E-01;  0.0000000E+00;  4.4642888E-02;  9.6092432E+02;
  3.7986991E-01;  9.9999998E-03; -2.5594343E-13;1633; -6.8389535E-02;  0.0000000E+00; -2.1373128E-09;  1.0009053E+03;  4.0000001E-01;  7.5000293E+02;3; -2.6111374E+01;  0.0000000E+00; -3.5145713E-06;0; -3.6481392E-01;  1.0019213E+04;  0.0000000E+00;  1.1161091E-15;  1.0000000E+04;  0.0000000E+00;  9.9989014E+03; -4.0540883E-01;  0.0000000E+00;  4.0594902E-02;  5.6390778E+02;
  3.7986967E-01;  9.9999998E-03;  2.0000920E-02;1634; -6.8477355E-02;  0.0000000E+00;  8.5411960E-04;  1.0009061E+03;  4.0000001E-01;  7.5069427E+02;3; -2.6109955E+01;  0.0000000E+00;  5.4016852E-01;0; -3.6487123E-01;  1.0019250E+04;  0.0000000E+00;  1.5372109E-08;  1.0000000E+04;  0.0000000E+00;  9.9988760E+03; -4.0575248E-01;  0.0000000E+00;  4.0881254E-02;  5.7627734E+02;
  3.7986895E-01;  9.9999998E-03;  4.0001892E-02;1635; -6.8737023E-02;  0.0000000E+00;  1.7189929E-03;  1.0009080E+03;  4.0000001E-01;  7.5227448E+02;3; -2.6104586E+01;  0.0000000E+00;  1.0660257E+00;0; -3.6505467E-01;  1.0019365E+04;  0.0000000E+00;  5.3728026E-08;  1.0000000E+04;  0.0000000E+00;  9.9988018E+03; -4.0677577E-01;  0.0000000E+00;  4.1721106E-02;  6.1318292E+02;
  3.7986779E-01;  9.9999998E-03;  6.0002971E-02;1636; -6.9156796E-02;  0.0000000E+00;  2.6022941E-03;  1.0009109E+03;  4.0000001E-01;  7.5474353E+02;3; -2.6091345E+01;  0.0000000E+00;  1.5621421E+00;0; -3.6539721E-01;  1.0019553E+04;  0.0000000E+00;  1.0447151E-07;  1.0000000E+04;  0.0000000E+00;  9.9986748E+03; -4.0845487E-01;  0.0000000E+00;  4.3057643E-02;  6.7396112E+02;
  3.7986621E-01;  9.9999998E-03;  8.0004208E-02;1637; -6.9718830E-02;  0.0000000E+00;  3.5134107E-03;  1.0009153E+03;  4.0000001E-01;  7.5829895E+02;3; -2.6069588E+01;  0.0000000E+00;  2.0273590E+00;0; -3.6594579E-01;  1.0019806E+04;  0.0000000E+00;  1.4087588E-07;  1.0000000E+04;  0.0000000E+00;  9.9985088E+03; -4.1074485E-01;  0.0000000E+00;  4.4799048E-02;  7.5736597E+02;
  3.7986425E-01;  9.9999998E-03;  1.0000565E-01;1638; -7.0397921E-02;  0.0000000E+00;  4.4615529E-03;  1.0009206E+03;  4.0000001E-01;  7.6264453E+02;3; -2.6032309E+01;  0.0000000E+00;  2.4544082E+00;0; -3.6674100E-01;  1.0020124E+04;  0.0000000E+00;  1.0861214E-07;  1.0000000E+04;  0.0000000E+00;  9.9982959E+03; -4.1357097E-01;  0.0000000E+00;  4.6829972E-02;  8.6151105E+02;
  3.7986201E-01;  9.9999998E-03;  1.2000734E-01;1639; -7.1154580E-02;  0.0000000E+00;  5.4526576E-03;  1.0009266E+03;  4.0000001E-01;  7.6768140E+02;3; -2.5960215E+01;  0.0000000E+00;  2.8389456E+00;0; -3.6777064E-01;  1.0020498E+04;  0.0000000E+00;  3.8264858E-08;  1.0000000E+04;  0.0000000E+00;  9.9980469E+03; -4.1681129E-01;  0.0000000E+00;  4.9040653E-02;  9.8415063E+02;
  3.7985957E-01;  9.9999998E-03;  1.4000933E-01;1640; -7.1937248E-02;  0.0000000E+00;  6.4814151E-03;  1.0009330E+03;  4.0000001E-01;  7.7301459E+02;3; -2.5843454E+01;  0.0000000E+00;  3.1634927E+00;0; -3.6890280E-01;  1.0020908E+04;  0.0000000E+00; -7.6959692E-09;  1.0000000E+04;  0.0000000E+00;  9.9977627E+03; -4.2028245E-01;  0.0000000E+00;  5.1379643E-02;  1.1236974E+03;
  3.9985028E-01;  9.9999998E-03; -2.4876030E-12;1664; -7.7058509E-02;  0.0000000E+00; -1.2276117E-09;  1.0010208E+03;  4.0000001E-01;  8.4570367E+02;3; -2.8700773E+01;  0.0000000E+00;  8.9235764E-06;0; -4.0109962E-01;  1.0021732E+04;  0.0000000E+00; -1.2175890E-15;  1.0000000E+04;  0.0000000E+00;  9.9986914E+03; -4.4730425E-01;  0.0000000E+00;  4.6204615E-02;  6.7019373E+02;
  3.9985001E-01;  9.9999998E-03;  2.0001061E-02;1665; -7.7152275E-02;  0.0000000E+00;  9.6796622E-04;  1.0010215E+03;  4.0000001E-01;  8.4629620E+02;3; -2.8691664E+01;  0.0000000E+00;  6.1007804E-01;0; -4.0111381E-01;  1.0021773E+04;  0.0000000E+00;  8.8506216E-09;  1.0000000E+04;  0.0000000E+00;  9.9986641E+03; -4.4765851E-01;  0.0000000E+00;  4.6544716E-02;  6.8399664E+02;
  3.9984918E-01;  9.9999998E-03;  4.0002182E-02;1666; -7.7428818E-02;  0.0000000E+00;  1.9454376E-03;  1.0010236E+03;  4.0000001E-01;  8.4797516E+02;3; -2.8662390E+01;  0.0000000E+00;  1.1944612E+00;0; -4.0117094E-01;  1.0021905E+04;  0.0000000E+00;  2.9173982E-08;  1.0000000E+04;  0.0000000E+00;  9.9985811E+03; -4.4871226E-01;  0.0000000E+00;  4.7541309E-02;  7.2523895E+02;
  3.9984781E-01;  9.9999998E-03;  6.0003426E-02;1667; -7.7877127E-02;  0.0000000E+00;  2.9474595E-03;  1.0010274E+03;  4.0000001E-01;  8.5113556E+02;3; -2.8616056E+01;  0.0000000E+00;  1.7596033E+00;0; -4.0131572E-01;  1.0022116E+04;  0.0000000E+00;  5.2441180E-08;  1.0000000E+04;  0.0000000E+00;  9.9984414E+03; -4.5043704E-01;  0.0000000E+00;  4.9121317E-02;  7.9332660E+02;
  3.9984596E-01;  9.9999998E-03;  8.0004849E-02;1668; -7.8480057E-02;  0.0000000E+00;  3.9851354E-03;  1.0010326E+03;  4.0000001E-01;  8.5548114E+02;3; -2.8554331E+01;  0.0000000E+00;  2.2820342E+00;0; -4.0162036E-01;  1.0022412E+04;  0.0000000E+00;  4.5833250E-08;  1.0000000E+04;  0.0000000E+00;  9.9982490E+03; -4.5278078E-01;  0.0000000E+00;  5.1160429E-02;  8.8700684E+02;
  3.9984366E-01;  9.9999998E-03;  1.0000651E-01;1669; -7.9209231E-02;  0.0000000E+00;  5.0682896E-03;  1.0010389E+03;  4.0000001E-01;  8.6071558E+02;3; -2.8459253E+01;  0.0000000E+00;  2.7533875E+00;0; -4.0216586E-01;  1.0022779E+04;  0.0000000E+00; -2.8710033E-08;  1.0000000E+04;  0.0000000E+00;  9.9980107E+03; -4.5565832E-01;  0.0000000E+00;  5.3492457E-02;  1.0041880E+03;
  3.9984098E-01;  9.9999998E-03;  1.2000847E-01;1670; -8.0026984E-02;  0.0000000E+00;  6.2016882E-03;  1.0010466E+03;  4.0000001E-01;  8.6703638E+02;3; -2.8326191E+01;  0.0000000E+00;  3.1690240E+00;0; -4.0299177E-01;  1.0023212E+04;  0.0000000E+00; -1.2815759E-07;  1.0000000E+04;  0.0000000E+00;  9.9977314E+03; -4.5893431E-01;  0.0000000E+00;  5.5942550E-02;  1.1422041E+03;
  3.9983809E-01;  9.9999998E-03;  1.4001077E-01;1671; -8.0879837E-02;  0.0000000E+00;  7.3826024E-03;  1.0010544E+03;  4.0000001E-01;  8.7355469E+02;3; -2.8148235E+01;  0.0000000E+00;  3.5285327E+00;0; -4.0401474E-01;  1.0023689E+04;  0.0000000E+00; -1.1354370E-07;  1.0000000E+04;  0.0000000E+00;  9.9974131E+03; -4.6240923E-01;  0.0000000E+00;  5.8394488E-02;  1.2990322E+03;
  4.1982812E-01;  9.9999998E-03; -2.7778060E-12;1695; -8.6614825E-02;  0.0000000E+00; -1.6370257E-09;  1.0011459E+03;  4.0000001E-01;  9.4930530E+02;3; -3.1471210E+01;  0.0000000E+00; -1.3595161E-05;0; -4.3950447E-01;  1.0024510E+04;  0.0000000E+00; -2.6476181E-15;  1.0000000E+04;  0.0000000E+00;  9.9984199E+03; -4.9164870E-01;  0.0000000E+00;  5.2144229E-02;  8.0822430E+02;
  4.1982779E-01;  9.9999998E-03;  2.0001238E-02;1696; -8.6713776E-02;  0.0000000E+00;  1.0759810E-03;  1.0011467E+03;  4.0000001E-01;  9.4999658E+02;3; -3.1450115E+01;  0.0000000E+00;  6.6360229E-01;0; -4.3947846E-01;  1.0024562E+04;  0.0000000E+00; -9.8960875E-09;  1.0000000E+04;  0.0000000E+00;  9.9983896E+03; -4.9202234E-01;  0.0000000E+00;  5.2543879E-02;  8.2307794E+02;
  4.1982684E-01;  9.9999998E-03;  4.0002540E-02;1697; -8.7007761E-02;  0.0000000E+00;  2.1658363E-03;  1.0011497E+03;  4.0000001E-01;  9.5246570E+02;3; -3.1394836E+01;  0.0000000E+00;  1.3128469E+00;0; -4.3941867E-01;  1.0024707E+04;  0.0000000E+00; -2.8472234E-08;  1.0000000E+04;  0.0000000E+00;  9.9982949E+03; -4.9313152E-01;  0.0000000E+00;  5.3712834E-02;  8.6751556E+02;
  4.1982526E-01;  9.9999998E-03;  6.0003974E-02;1698; -8.7483987E-02;  0.0000000E+00;  3.2850855E-03;  1.0011544E+03;  4.0000001E-01;  9.5631738E+02;3; -3.1303728E+01;  0.0000000E+00;  1.9346223E+00;0; -4.3938237E-01;  1.0024953E+04;  0.0000000E+00; -6.6896405E-08;  1.0000000E+04;  0.0000000E+00;  9.9981465E+03; -4.9493882E-01;  0.0000000E+00;  5.5556457E-02;  9.4102325E+02;
  4.1982308E-01;  9.9999998E-03;  8.0005608E-02;1699; -8.8125579E-02;  0.0000000E+00;  4.4477829E-03;  1.0011608E+03;  4.0000001E-01;  9.6165057E+02;3; -3.1184864E+01;  0.0000000E+00;  2.5040841E+00;0; -4.3947089E-01;  1.0025290E+04;  0.0000000E+00; -1.6431882E-07;  1.0000000E+04;  0.0000000E+00;  9.9979404E+03; -4.9737954E-01;  0.0000000E+00;  5.7908662E-02;  1.0423447E+03;
  4.1982037E-01;  9.9999998E-03;  1.0000751E-01;1700; -8.8903494E-02;  0.0000000E+00;  5.6657256E-03;  1.0011689E+03;  4.0000001E-01;  9.6846521E+02;3; -3.1018028E+01;  0.0000000E+00;  3.0140018E+00;0; -4.3981138E-01;  1.0025714E+04;  0.0000000E+00; -3.5262596E-07;  1.0000000E+04;  0.0000000E+00;  9.9976836E+03; -5.0035357E-01;  0.0000000E+00;  6.0542189E-02;  1.1692325E+03;
  4.1981724E-01;  9.9999998E-03;  1.2000977E-01;1701; -8.9779072E-02;  0.0000000E+00;  6.9446838E-03;  1.0011786E+03;  4.0000001E-01;  9.7646497E+02;3; -3.0807962E+01;  0.0000000E+00;  3.4570494E+00;0; -4.4050074E-01;  1.0026209E+04;  0.0000000E+00; -5.0596253E-07;  1.0000000E+04;  0.0000000E+00;  9.9973809E+03; -5.0371128E-01;  0.0000000E+00;  6.3210540E-02;  1.3188311E+03;
  4.1981378E-01;  9.9999998E-03;  1.4001240E-01;1702; -9.0697646E-02;  0.0000000E+00;  8.2813632E-03;  1.0011890E+03;  4.0000001E-01;  9.8505731E+02;3; -3.0547873E+01;  0.0000000E+00;  3.8388042E+00;0; -4.4150236E-01;  1.0026762E+04;  0.0000000E+00; -3.7613546E-07;  1.0000000E+04;  0.0000000E+00;  9.9970342E+03; -5.0723916E-01;  0.0000000E+00;  6.5736808E-02;  1.4892976E+03;
  4.3980318E-01;  9.9999998E-03;  1.0020727E-13;1726; -9.7100399E-02;  0.0000000E+00; -1.8992294E-09;  1.0012798E+03;  4.0000001E-01;  1.0603140E+03;3; -3.4421314E+01;  0.0000000E+00; -1.5722606E-05;0; -4.7942466E-01;  1.0027568E+04;  0.0000000E+00;  1.3752840E-15;  1.0000000E+04;  0.0000000E+00;  9.9980498E+03; -5.3811026E-01;  0.0000000E+00;  5.8685616E-02;  9.9491571E+02;
  4.3980280E-01;  9.9999998E-03;  2.0001482E-02;1727; -9.7205326E-02;  0.0000000E+00;  1.1847033E-03;  1.0012811E+03;  4.0000001E-01;  1.0613015E+03;3; -3.4387318E+01;  0.0000000E+00;  7.0823950E-01;0; -4.7936633E-01;  1.0027622E+04;  0.0000000E+00; -2.7202811E-08;  1.0000000E+04;  0.0000000E+00;  9.9980195E+03; -5.3851438E-01;  0.0000000E+00;  5.9148040E-02;  1.0102612E+03;
  4.3980169E-01;  9.9999998E-03;  4.0003031E-02;1728; -9.7516753E-02;  0.0000000E+00;  2.3864454E-03;  1.0012849E+03;  4.0000001E-01;  1.0644619E+03;3; -3.4297291E+01;  0.0000000E+00;  1.4071451E+00;0; -4.7921401E-01;  1.0027791E+04;  0.0000000E+00; -1.0568412E-07;  1.0000000E+04;  0.0000000E+00;  9.9979248E+03; -5.3971058E-01;  0.0000000E+00;  6.0496584E-02;  1.0561995E+03;
  4.3979985E-01;  9.9999998E-03;  6.0004715E-02;1729; -9.8021403E-02;  0.0000000E+00;  3.6231009E-03;  1.0012910E+03;  4.0000001E-01;  1.0694989E+03;3; -3.4150414E+01;  0.0000000E+00;  2.0710783E+00;0; -4.7903991E-01;  1.0028066E+04;  0.0000000E+00; -2.3388071E-07;  1.0000000E+04;  0.0000000E+00;  9.9977715E+03; -5.4164690E-01;  0.0000000E+00;  6.2607005E-02;  1.1322322E+03;
  4.3979731E-01;  9.9999998E-03;  8.0006614E-02;1730; -9.8701537E-02;  0.0000000E+00;  4.9108048E-03;  1.0012993E+03;  4.0000001E-01;  1.0764122E+03;3; -3.3958317E+01;  0.0000000E+00;  2.6758311E+00;0; -4.7897837E-01;  1.0028448E+04;  0.0000000E+00; -4.5394091E-07;  1.0000000E+04;  0.0000000E+00;  9.9975566E+03; -5.4423851E-01;  0.0000000E+00;  6.5260150E-02;  1.2370015E+03;
  4.3979418E-01;  9.9999998E-03;  1.0000881E-01;1731; -9.9527314E-02;  0.0000000E+00;  6.2648482E-03;  1.0013098E+03;  4.0000001E-01;  1.0851033E+03;3; -3.3703598E+01;  0.0000000E+00;  3.2163599E+00;0; -4.7920862E-01;  1.0028929E+04;  0.0000000E+00; -7.8222092E-07;  1.0000000E+04;  0.0000000E+00;  9.9972871E+03; -5.4736412E-01;  0.0000000E+00;  6.8155490E-02;  1.3680515E+03;
  4.3979049E-01;  9.9999998E-03;  1.2001137E-01;1732; -1.0046002E-01;  0.0000000E+00;  7.6926886E-03;  1.0013225E+03;  4.0000001E-01;  1.0956709E+03;3; -3.3398079E+01;  0.0000000E+00;  3.6801960E+00;0; -4.7988674E-01;  1.0029499E+04;  0.0000000E+00; -1.0375891E-06;  1.0000000E+04;  0.0000000E+00;  9.9969756E+03; -5.5085605E-01;  0.0000000E+00;  7.0969321E-02;  1.5225378E+03;
  4.3978640E-01;  9.9999998E-03;  1.4001437E-01;1733; -1.0144393E-01;  0.0000000E+00;  9.1908704E-03;  1.0013362E+03;  4.0000001E-01;  1.1070286E+03;3; -3.3039829E+01;  0.0000000E+00;  4.0799298E+00;0; -4.8102063E-01;  1.0030132E+04;  0.0000000E+00; -7.5102508E-07;  1.0000000E+04;  0.0000000E+00;  9.9966172E+03; -5.5449319E-01;  0.0000000E+00;  7.3472552E-02;  1.6995629E+03;
  4.5977518E-01;  9.9999998E-03;  7.6301196E-12;1757; -1.0855726E-01;  0.0000000E+00;  2.7930183E-09;  1.0014217E+03;  4.0000072E-01;  1.1778406E+03;3; -3.7542194E+01;  0.0000000E+00; -3.0737883E-06;0; -5.1972955E-01;  1.0030884E+04;  0.0000000E+00; -5.2871864E-15;  1.0000000E+04;  0.0000000E+00;  9.9975371E+03; -5.8600634E-01;  0.0000000E+00;  6.6276774E-02;  1.2524735E+03;
  4.5977473E-01;  9.9999998E-03;  2.0001844E-02;1758; -1.0866847E-01;  0.0000000E+00;  1.3012466E-03;  1.0014233E+03;  4.0000069E-01;  1.1791245E+03;3; -3.7492332E+01;  0.0000000E+00;  7.3357838E-01;0; -5.1965249E-01;  1.0030948E+04;  0.0000000E+00; -4.0387999E-08;  1.0000000E+04;  0.0000000E+00;  9.9975088E+03; -5.8645326E-01;  0.0000000E+00;  6.6800743E-02;  1.2676146E+03;
  4.5977345E-01;  9.9999998E-03;  4.0003750E-02;1759; -1.0899897E-01;  0.0000000E+00;  2.6220751E-03;  1.0014278E+03;  4.0000063E-01;  1.1828774E+03;3; -3.7360134E+01;  0.0000000E+00;  1.4631350E+00;0; -5.1944602E-01;  1.0031136E+04;  0.0000000E+00; -1.5067708E-07;  1.0000000E+04;  0.0000000E+00;  9.9974160E+03; -5.8776724E-01;  0.0000000E+00;  6.8321221E-02;  1.3129113E+03;
  4.5977131E-01;  9.9999998E-03;  6.0005795E-02;1760; -1.0953543E-01;  0.0000000E+00;  3.9801947E-03;  1.0014357E+03;  4.0000063E-01;  1.1894945E+03;3; -3.7151379E+01;  0.0000000E+00;  2.1410463E+00;0; -5.1920211E-01;  1.0031443E+04;  0.0000000E+00; -3.4713338E-07;  1.0000000E+04;  0.0000000E+00;  9.9972598E+03; -5.8987629E-01;  0.0000000E+00;  7.0674203E-02;  1.3877108E+03;
  4.5976838E-01;  9.9999998E-03;  8.0008052E-02;1761; -1.1025567E-01;  0.0000000E+00;  5.4012164E-03;  1.0014465E+03;  4.0000066E-01;  1.1983832E+03;3; -3.6864697E+01;  0.0000000E+00;  2.7785251E+00;0; -5.1909363E-01;  1.0031870E+04;  0.0000000E+00; -6.6890959E-07;  1.0000000E+04;  0.0000000E+00;  9.9970547E+03; -5.9266615E-01;  0.0000000E+00;  7.3572524E-02;  1.4902899E+03;
  4.5976469E-01;  9.9999998E-03;  1.0001060E-01;1762; -1.1113107E-01;  0.0000000E+00;  6.8992381E-03;  1.0014605E+03;  4.0000069E-01;  1.2100371E+03;3; -3.6505127E+01;  0.0000000E+00;  3.3373761E+00;0; -5.1935786E-01;  1.0032411E+04;  0.0000000E+00; -1.1117517E-06;  1.0000000E+04;  0.0000000E+00;  9.9967920E+03; -5.9598488E-01;  0.0000000E+00;  7.6627009E-02;  1.6177264E+03;
  4.5976037E-01;  9.9999998E-03;  1.2001354E-01;1763; -1.1212292E-01;  0.0000000E+00;  8.4844064E-03;  1.0014772E+03;  4.0000078E-01;  1.2237651E+03;3; -3.6086208E+01;  0.0000000E+00;  3.8173673E+00;0; -5.2021593E-01;  1.0033050E+04;  0.0000000E+00; -1.3878575E-06;  1.0000000E+04;  0.0000000E+00;  9.9964893E+03; -5.9964502E-01;  0.0000000E+00;  7.9429090E-02;  1.7671917E+03;
  4.5975554E-01;  9.9999998E-03;  1.4001691E-01;1764; -1.1317494E-01;  0.0000000E+00;  1.0152263E-02;  1.0014957E+03;  4.0000078E-01;  1.2391720E+03;3; -3.5613083E+01;  0.0000000E+00;  4.2327929E+00;0; -5.2171582E-01;  1.0033771E+04;  0.0000000E+00; -8.4333232E-07;  1.0000000E+04;  0.0000000E+00;  9.9961445E+03; -6.0342658E-01;  0.0000000E+00;  8.1710748E-02;  1.9394919E+03;
  4.7974372E-01;  9.9999998E-03; -5.2319694E-13;1788; -1.2102957E-01;  0.0000000E+00;  1.6575910E-09;  1.0015651E+03;  4.0000212E-01;  1.2966508E+03;3; -4.0814533E+01;  0.0000000E+00; -2.9546395E-06;0; -5.5831689E-01;  1.0034400E+04;  0.0000000E+00;  2.5230598E-15;  1.0000000E+04;  0.0000000E+00;  9.9968281E+03; -6.3386172E-01;  0.0000000E+00;  7.5544827E-02;  1.6075320E+03;
  4.7974321E-01;  9.9999998E-03;  2.0002389E-02;1789; -1.2114841E-01;  0.0000000E+00;  1.4370311E-03;  1.0015669E+03;  4.0000203E-01;  1.2981322E+03;3; -4.0750019E+01;  0.0000000E+00;  7.3922306E-01;0; -5.5823648E-01;  1.0034469E+04;  0.0000000E+00; -3.8909146E-08;  1.0000000E+04;  0.0000000E+00;  9.9968008E+03; -6.3435835E-01;  0.0000000E+00;  7.6121889E-02;  1.6217141E+03;
  4.7974169E-01;  9.9999998E-03;  4.0004835E-02;1790; -1.2150232E-01;  0.0000000E+00;  2.8922688E-03;  1.0015728E+03;  4.0000209E-01;  1.3029716E+03;3; -4.0574574E+01;  0.0000000E+00;  1.4526882E+00;0; -5.5802649E-01;  1.0034676E+04;  0.0000000E+00; -1.5112363E-07;  1.0000000E+04;  0.0000000E+00;  9.9967119E+03; -6.3581091E-01;  0.0000000E+00;  7.7784412E-02;  1.6640060E+03;
  4.7973925E-01;  9.9999998E-03;  6.0007401E-02;1791; -1.2207421E-01;  0.0000000E+00;  4.3958980E-03;  1.0015826E+03;  4.0000215E-01;  1.3111688E+03;3; -4.0285473E+01;  0.0000000E+00;  2.1525912E+00;0; -5.5780017E-01;  1.0035016E+04;  0.0000000E+00; -3.2229588E-07;  1.0000000E+04;  0.0000000E+00;  9.9965684E+03; -6.3811707E-01;  0.0000000E+00;  8.0316886E-02;  1.7333153E+03;
  4.7973585E-01;  9.9999998E-03;  8.0010161E-02;1792; -1.2283976E-01;  0.0000000E+00;  5.9679262E-03;  1.0015965E+03;  4.0000200E-01;  1.3226252E+03;3; -3.9891388E+01;  0.0000000E+00;  2.7923317E+00;0; -5.5777490E-01;  1.0035485E+04;  0.0000000E+00; -6.2131886E-07;  1.0000000E+04;  0.0000000E+00;  9.9963750E+03; -6.4112180E-01;  0.0000000E+00;  8.3346888E-02;  1.8270828E+03;
  4.7973159E-01;  9.9999998E-03;  1.0001321E-01;1793; -1.2377059E-01;  0.0000000E+00;  7.6306779E-03;  1.0016144E+03;  4.0000218E-01;  1.3375383E+03;3; -3.9410343E+01;  0.0000000E+00;  3.3564737E+00;0; -5.5825555E-01;  1.0036079E+04;  0.0000000E+00; -9.5830535E-07;  1.0000000E+04;  0.0000000E+00;  9.9961436E+03; -6.4463365E-01;  0.0000000E+00;  8.6378075E-02;  1.9413712E+03;
  4.7972652E-01;  9.9999998E-03;  1.2001663E-01;1794; -1.2482634E-01;  0.0000000E+00;  9.3960790E-03;  1.0016364E+03;  4.0000212E-01;  1.3557107E+03;3; -3.8856560E+01;  0.0000000E+00;  3.8590524E+00;0; -5.5953896E-01;  1.0036783E+04;  0.0000000E+00; -8.2265279E-07;  1.0000000E+04;  0.0000000E+00;  9.9958809E+03; -6.4844614E-01;  0.0000000E+00;  8.8907160E-02;  2.0730588E+03;
  4.7972086E-01;  9.9999998E-03;  1.4002046E-01;1795; -1.2595275E-01;  0.0000000E+00;  1.1246878E-02;  1.0016616E+03;  4.0000209E-01;  1.3765496E+03;3; -3.8256260E+01;  0.0000000E+00;  4.2755694E+00;0; -5.6171018E-01;  1.0037588E+04;  0.0000000E+00;  6.2926358E-07;  1.0000000E+04;  0.0000000E+00;  9.9955762E+03; -6.5235418E-01;  0.0000000E+00;  9.0644024E-02;  2.2252773E+03;
  4.9970832E-01;  9.9999998E-03;  3.9687996E-13;1819; -1.3456316E-01;  0.0000000E+00; -3.5804530E-09;  1.0017001E+03;  4.0000495E-01;  1.4084485E+03;3; -4.4223415E+01;  0.0000000E+00; -7.5773733E-06;0; -5.9155750E-01;  1.0037939E+04;  0.0000000E+00; -2.7741854E-15;  1.0000000E+04;  0.0000000E+00;  9.9958564E+03; -6.7882538E-01;  0.0000000E+00;  8.7267876E-02;  2.0891523E+03;
  4.9970776E-01;  9.9999998E-03;  2.0003194E-02;1820; -1.3469340E-01;  0.0000000E+00;  1.6044033E-03;  1.0017026E+03;  4.0000489E-01;  1.4106212E+03;3; -4.4146954E+01;  0.0000000E+00;  6.9730848E-01;0; -5.9149241E-01;  1.0038008E+04;  0.0000000E+00; -1.7753088E-08;  1.0000000E+04;  0.0000000E+00;  9.9958311E+03; -6.7937028E-01;  0.0000000E+00;  8.7877899E-02;  2.1016462E+03;
  4.9970603E-01;  9.9999998E-03;  4.0006429E-02;1821; -1.3507418E-01;  0.0000000E+00;  3.2353983E-03;  1.0017094E+03;  4.0000486E-01;  1.4162507E+03;3; -4.3911179E+01;  0.0000000E+00;  1.4002281E+00;0; -5.9133738E-01;  1.0038231E+04;  0.0000000E+00; -6.0503524E-08;  1.0000000E+04;  0.0000000E+00;  9.9957559E+03; -6.8095636E-01;  0.0000000E+00;  8.9618959E-02;  2.1386252E+03;
  4.9970320E-01;  9.9999998E-03;  6.0009763E-02;1822; -1.3568814E-01;  0.0000000E+00;  4.9191993E-03;  1.0017218E+03;  4.0000474E-01;  1.4265220E+03;3; -4.3529442E+01;  0.0000000E+00;  2.0706198E+00;0; -5.9122813E-01;  1.0038598E+04;  0.0000000E+00; -1.1429758E-07;  1.0000000E+04;  0.0000000E+00;  9.9956309E+03; -6.8344223E-01;  0.0000000E+00;  9.2214085E-02;  2.1981665E+03;
  4.9969929E-01;  9.9999998E-03;  8.0013275E-02;1823; -1.3650846E-01;  0.0000000E+00;  6.6835759E-03;  1.0017386E+03;  4.0000480E-01;  1.4404474E+03;3; -4.3018780E+01;  0.0000000E+00;  2.6898704E+00;0; -5.9143120E-01;  1.0039104E+04;  0.0000000E+00; -7.6979525E-08;  1.0000000E+04;  0.0000000E+00;  9.9954688E+03; -6.8662167E-01;  0.0000000E+00;  9.5190458E-02;  2.2762180E+03;
  4.9969438E-01;  9.9999998E-03;  1.0001704E-01;1824; -1.3750261E-01;  0.0000000E+00;  8.5534863E-03;  1.0017614E+03;  4.0000477E-01;  1.4593110E+03;3; -4.2399269E+01;  0.0000000E+00;  3.2615249E+00;0; -5.9233403E-01;  1.0039740E+04;  0.0000000E+00;  4.2581263E-07;  1.0000000E+04;  0.0000000E+00;  9.9952881E+03; -6.9026214E-01;  0.0000000E+00;  9.7928092E-02;  2.3670171E+03;
  4.9968854E-01;  9.9999998E-03;  1.2002114E-01;1825; -1.3863239E-01;  0.0000000E+00;  1.0532501E-02;  1.0017896E+03;  4.0000474E-01;  1.4826189E+03;3; -4.1704990E+01;  0.0000000E+00;  3.7649283E+00;0; -5.9431690E-01;  1.0040500E+04;  0.0000000E+00;  2.3197413E-06;  1.0000000E+04;  0.0000000E+00;  9.9950869E+03; -6.9413835E-01;  0.0000000E+00;  9.9821433E-02;  2.4665581E+03;
  4.9968192E-01;  9.9999998E-03;  1.4002559E-01;1826; -1.3983892E-01;  0.0000000E+00;  1.2595311E-02;  1.0018217E+03;  4.0000480E-01;  1.5091859E+03;3; -4.0957878E+01;  0.0000000E+00;  4.1880784E+00;0; -5.9749973E-01;  1.0041374E+04;  0.0000000E+00;  6.5929266E-06;  1.0000000E+04;  0.0000000E+00;  9.9948633E+03; -6.9808108E-01;  0.0000000E+00;  1.0058136E-01;  2.5808240E+03;
  5.1966864E-01;  9.9999998E-03;  1.0588728E-13;1850; -1.4918508E-01;  0.0000000E+00;  2.9549241E-09;  1.0018185E+03;  4.0001336E-01;  1.5066160E+03;3; -4.7727512E+01;  0.0000000E+00; -3.4776895E-07;0; -6.1393821E-01;  1.0041169E+04;  0.0000000E+00; -1.0813223E-14;  1.0000000E+04;  0.0000000E+00;  9.9945625E+03; -7.1623743E-01;  0.0000000E+00;  1.0229924E-01;  2.7256262E+03;
  5.1966798E-01;  9.9999998E-03;  2.0004338E-02;1851; -1.4932640E-01;  0.0000000E+00;  1.8340265E-03;  1.0018215E+03;  4.0001333E-01;  1.5090851E+03;3; -4.7627548E+01;  0.0000000E+00;  6.4343649E-01;0; -6.1391270E-01;  1.0041247E+04;  0.0000000E+00;  1.8495763E-08;  1.0000000E+04;  0.0000000E+00;  9.9945420E+03; -7.1681714E-01;  0.0000000E+00;  1.0290442E-01;  2.7358013E+03;
  5.1966602E-01;  9.9999998E-03;  4.0008705E-02;1852; -1.4974280E-01;  0.0000000E+00;  3.6958572E-03;  1.0018297E+03;  4.0001342E-01;  1.5158997E+03;3; -4.7333984E+01;  0.0000000E+00;  1.2700869E+00;0; -6.1388004E-01;  1.0041480E+04;  0.0000000E+00;  1.2337699E-07;  1.0000000E+04;  0.0000000E+00;  9.9944805E+03; -7.1849072E-01;  0.0000000E+00;  1.0461069E-01;  2.7654463E+03;
  5.1966280E-01;  9.9999998E-03;  6.0013145E-02;1853; -1.5041034E-01;  0.0000000E+00;  5.6191622E-03;  1.0018441E+03;  4.0001345E-01;  1.5277511E+03;3; -4.6857300E+01;  0.0000000E+00;  1.8820651E+00;0; -6.1399943E-01;  1.0041863E+04;  0.0000000E+00;  4.6695669E-07;  1.0000000E+04;  0.0000000E+00;  9.9943848E+03; -7.2107744E-01;  0.0000000E+00;  1.0707802E-01;  2.8113865E+03;
  5.1965833E-01;  9.9999998E-03;  8.0017738E-02;1854; -1.5129673E-01;  0.0000000E+00;  7.6383972E-03;  1.0018647E+03;  4.0001333E-01;  1.5449357E+03;3; -4.6223267E+01;  0.0000000E+00;  2.4670601E+00;0; -6.1458838E-01;  1.0042393E+04;  0.0000000E+00;  1.5531965E-06;  1.0000000E+04;  0.0000000E+00;  9.9942715E+03; -7.2431904E-01;  0.0000000E+00;  1.0973064E-01;  2.8673528E+03;
  5.1965272E-01;  9.9999998E-03;  1.0002255E-01;1855; -1.5236686E-01;  0.0000000E+00;  9.7766565E-03;  1.0018922E+03;  4.0001336E-01;  1.5676510E+03;3; -4.5463112E+01;  0.0000000E+00;  3.0162506E+00;0; -6.1611760E-01;  1.0043060E+04;  0.0000000E+00;  4.5396396E-06;  1.0000000E+04;  0.0000000E+00;  9.9941523E+03; -7.2793883E-01;  0.0000000E+00;  1.1182126E-01;  2.9248794E+03;
  5.1964599E-01;  9.9999998E-03;  1.2002762E-01;1856; -1.5357830E-01;  0.0000000E+00;  1.2029109E-02;  1.0019269E+03;  4.0001333E-01;  1.5963907E+03;3; -4.4613552E+01;  0.0000000E+00;  3.5135365E+00;0; -6.1905909E-01;  1.0043855E+04;  0.0000000E+00;  1.1029091E-05;  1.0000000E+04;  0.0000000E+00;  9.9940479E+03; -7.3170793E-01;  0.0000000E+00;  1.1264881E-01;  2.9785208E+03;
  5.1963836E-01;  9.9999998E-03;  1.4003292E-01;1857; -1.5486859E-01;  0.0000000E+00;  1.4346202E-02;  1.0019676E+03;  4.0001342E-01;  1.6300686E+03;3; -4.3706730E+01;  0.0000000E+00;  3.9434624E+00;0; -6.2355340E-01;  1.0044780E+04;  0.0000000E+00;  2.1395339E-05;  1.0000000E+04;  0.0000000E+00;  9.9939404E+03; -7.3551655E-01;  0.0000000E+00;  1.1196313E-01;  3.0379209E+03;
  5.3962463E-01;  9.9999998E-03;  6.2366839E-12;1881; -1.6484763E-01;  0.0000000E+00;  4.0881409E-09;  1.0019155E+03;  4.0003601E-01;  1.5869067E+03;3; -5.1295464E+01;  0.0000000E+00; -6.0819875E-06;0; -6.1821038E-01;  1.0043630E+04;  0.0000000E+00; -5.5620753E-15;  1.0000000E+04;  0.0000000E+00;  9.9928936E+03; -7.3968208E-01;  0.0000000E+00;  1.2147171E-01;  3.5413650E+03;
  5.3962386E-01;  9.9999998E-03;  2.0005899E-02;1882; -1.6500419E-01;  0.0000000E+00;  2.1440734E-03;  1.0019187E+03;  4.0003595E-01;  1.5895732E+03;3; -5.1174835E+01;  0.0000000E+00;  5.0849932E-01;0; -6.1825418E-01;  1.0043710E+04;  0.0000000E+00;  1.1617524E-07;  1.0000000E+04;  0.0000000E+00;  9.9928760E+03; -7.4026161E-01;  0.0000000E+00;  1.2200743E-01;  3.5486882E+03;
  5.3962165E-01;  9.9999998E-03;  4.0011816E-02;1883; -1.6546303E-01;  0.0000000E+00;  4.3230909E-03;  1.0019283E+03;  4.0003604E-01;  1.5975730E+03;3; -5.0818882E+01;  0.0000000E+00;  1.0196224E+00;0; -6.1843073E-01;  1.0043948E+04;  0.0000000E+00;  5.6363291E-07;  1.0000000E+04;  0.0000000E+00;  9.9928311E+03; -7.4192262E-01;  0.0000000E+00;  1.2349185E-01;  3.5693186E+03;
  5.3961796E-01;  9.9999998E-03;  6.0017783E-02;1884; -1.6619511E-01;  0.0000000E+00;  6.5742233E-03;  1.0019448E+03;  4.0003604E-01;  1.6112021E+03;3; -5.0245972E+01;  0.0000000E+00;  1.5368896E+00;0; -6.1890733E-01;  1.0044336E+04;  0.0000000E+00;  1.8729390E-06;  1.0000000E+04;  0.0000000E+00;  9.9927734E+03; -7.4444902E-01;  0.0000000E+00;  1.2554170E-01;  3.5985364E+03;
  5.3961295E-01;  9.9999998E-03;  8.0023862E-02;1885; -1.6716106E-01;  0.0000000E+00;  8.9332573E-03;  1.0019683E+03;  4.0003601E-01;  1.6306582E+03;3; -4.9485630E+01;  0.0000000E+00;  2.0583744E+00;0; -6.2003785E-01;  1.0044872E+04;  0.0000000E+00;  5.4770035E-06;  1.0000000E+04;  0.0000000E+00;  9.9927148E+03; -7.4754077E-01;  0.0000000E+00;  1.2750292E-01;  3.6273149E+03;
  5.3960657E-01;  9.9999998E-03;  1.0003014E-01;1886; -1.6831754E-01;  0.0000000E+00;  1.1420317E-02;  1.0020004E+03;  4.0003598E-01;  1.6572252E+03;3; -4.8576641E+01;  0.0000000E+00;  2.5740318E+00;0; -6.2236506E-01;  1.0045549E+04;  0.0000000E+00;  1.3686148E-05;  1.0000000E+04;  0.0000000E+00;  9.9926826E+03; -7.5089616E-01;  0.0000000E+00;  1.2853110E-01;  3.6439639E+03;
  5.3959894E-01;  9.9999998E-03;  1.2003659E-01;1887; -1.6961488E-01;  0.0000000E+00;  1.4017362E-02;  1.0020414E+03;  4.0003586E-01;  1.6911993E+03;3; -4.7562439E+01;  0.0000000E+00;  3.0705245E+00;0; -6.2643015E-01;  1.0046356E+04;  0.0000000E+00;  2.8341352E-05;  1.0000000E+04;  0.0000000E+00;  9.9926934E+03; -7.5430149E-01;  0.0000000E+00;  1.2787132E-01;  3.6418743E+03;
  5.3959024E-01;  9.9999998E-03;  1.4004311E-01;1888; -1.7098296E-01;  0.0000000E+00;  1.6644197E-02;  1.0020898E+03;  4.0003574E-01;  1.7312966E+03;3; -4.6481701E+01;  0.0000000E+00;  3.5178759E+00;0; -6.3234115E-01;  1.0047300E+04;  0.0000000E+00;  4.6648485E-05;  1.0000000E+04;  0.0000000E+00;  9.9927217E+03; -7.5772238E-01;  0.0000000E+00;  1.2538125E-01;  3.6364458E+03;
  5.5957687E-01;  9.9999998E-03; -4.0884644E-12;1912; -1.8132141E-01;  0.0000000E+00;  2.9520877E-09;  1.0020186E+03;  4.0009689E-01;  1.6723318E+03;3; -5.4858063E+01;  0.0000000E+00;  1.3052457E-05;0; -5.9598315E-01;  1.0044728E+04;  0.0000000E+00; -8.3557496E-15;  1.0000000E+04;  0.0000000E+00;  9.9907979E+03; -7.4158639E-01;  0.0000000E+00;  1.4560322E-01;  4.5564761E+03;
  5.5957603E-01;  9.9999998E-03;  2.0007955E-02;1913; -1.8149562E-01;  0.0000000E+00;  2.5737786E-03;  1.0020222E+03;  4.0009695E-01;  1.6753933E+03;3; -5.4717377E+01;  0.0000000E+00;  3.1297019E-01;0; -5.9613991E-01;  1.0044805E+04;  0.0000000E+00;  3.0110323E-07;  1.0000000E+04;  0.0000000E+00;  9.9907920E+03; -7.4210382E-01;  0.0000000E+00;  1.4596394E-01;  4.5604111E+03;
  5.5957353E-01;  9.9999998E-03;  4.0015925E-02;1914; -1.8200424E-01;  0.0000000E+00;  5.1849550E-03;  1.0020327E+03;  4.0009704E-01;  1.6840844E+03;3; -5.4302784E+01;  0.0000000E+00;  6.5006202E-01;0; -5.9664398E-01;  1.0045036E+04;  0.0000000E+00;  1.4329861E-06;  1.0000000E+04;  0.0000000E+00;  9.9907656E+03; -7.4357444E-01;  0.0000000E+00;  1.4693044E-01;  4.5704722E+03;
  5.5956942E-01;  9.9999998E-03;  6.0023930E-02;1915; -1.8281202E-01;  0.0000000E+00;  7.8653926E-03;  1.0020505E+03;  4.0009695E-01;  1.6987999E+03;3; -5.3629162E+01;  0.0000000E+00;  1.0310082E+00;0; -5.9763443E-01;  1.0045413E+04;  0.0000000E+00;  4.5776210E-06;  1.0000000E+04;  0.0000000E+00;  9.9907461E+03; -7.4576491E-01;  0.0000000E+00;  1.4813046E-01;  4.5804561E+03;
  5.5956376E-01;  9.9999998E-03;  8.0032028E-02;1916; -1.8386814E-01;  0.0000000E+00;  1.0655629E-02;  1.0020767E+03;  4.0009683E-01;  1.7204287E+03;3; -5.2741543E+01;  0.0000000E+00;  1.4449556E+00;0; -5.9945214E-01;  1.0045932E+04;  0.0000000E+00;  1.2521345E-05;  1.0000000E+04;  0.0000000E+00;  9.9907520E+03; -7.4836373E-01;  0.0000000E+00;  1.4891161E-01;  4.5786592E+03;
  5.5955660E-01;  9.9999998E-03;  1.0004025E-01;1917; -1.8511395E-01;  0.0000000E+00;  1.3579020E-02;  1.0021124E+03;  4.0009686E-01;  1.7500573E+03;3; -5.1682442E+01;  0.0000000E+00;  1.9074057E+00;0; -6.0264593E-01;  1.0046582E+04;  0.0000000E+00;  2.8401824E-05;  1.0000000E+04;  0.0000000E+00;  9.9908135E+03; -7.5107336E-01;  0.0000000E+00;  1.4842744E-01;  4.5507900E+03;
  5.5954808E-01;  9.9999998E-03;  1.2004855E-01;1918; -1.8648593E-01;  0.0000000E+00;  1.6601302E-02;  1.0021580E+03;  4.0009686E-01;  1.7877842E+03;3; -5.0500587E+01;  0.0000000E+00;  2.3972757E+00;0; -6.0774142E-01;  1.0047364E+04;  0.0000000E+00;  5.1392606E-05;  1.0000000E+04;  0.0000000E+00;  9.9909473E+03; -7.5372058E-01;  0.0000000E+00;  1.4597915E-01;  4.4913975E+03;
  5.5953836E-01;  9.9999998E-03;  1.4005676E-01;1919; -1.8789935E-01;  0.0000000E+00;  1.9603305E-02;  1.0022114E+03;  4.0009680E-01;  1.8321282E+03;3; -4.9237408E+01;  0.0000000E+00;  2.8730102E+00;0; -6.1471957E-01;  1.0048287E+04;  0.0000000E+00;  7.1188770E-05;  1.0000000E+04;  0.0000000E+00;  9.9910986E+03; -7.5635350E-01;  0.0000000E+00;  1.4163393E-01;  4.4255977E+03;
  5.7952726E-01;  9.9999998E-03; -5.9381173E-13;1943; -1.9801350E-01;  0.0000000E+00;  8.2258661E-10;  1.0022437E+03;  4.0025839E-01;  1.8588864E+03;3; -5.8273422E+01;  0.0000000E+00;  2.1158048E-06;0; -5.3709131E-01;  1.0043697E+04;  0.0000000E+00; -3.8743905E-15;  1.0000000E+04;  0.0000000E+00;  9.9882314E+03; -7.1280372E-01;  0.0000000E+00;  1.7571242E-01;  5.7896299E+03;
  5.7952631E-01;  9.9999998E-03;  2.0010494E-02;1944; -1.9820951E-01;  0.0000000E+00;  3.1234752E-03;  1.0022474E+03;  4.0025836E-01;  1.8618492E+03;3; -5.8117287E+01;  0.0000000E+00;  6.7405216E-02;0; -5.3744316E-01;  1.0043768E+04;  0.0000000E+00;  5.4613793E-07;  1.0000000E+04;  0.0000000E+00;  9.9882324E+03; -7.1318036E-01;  0.0000000E+00;  1.7573722E-01;  5.7895557E+03;
  5.7952350E-01;  9.9999998E-03;  4.0020972E-02;1945; -1.9877647E-01;  0.0000000E+00;  6.2717143E-03;  1.0022585E+03;  4.0025848E-01;  1.8711328E+03;3; -5.7632431E+01;  0.0000000E+00;  1.8070240E-01;0; -5.3848654E-01;  1.0043982E+04;  0.0000000E+00;  2.5771315E-06;  1.0000000E+04;  0.0000000E+00;  9.9882363E+03; -7.1422821E-01;  0.0000000E+00;  1.7574167E-01;  5.7874517E+03;
  5.7951897E-01;  9.9999998E-03;  6.0031474E-02;1946; -1.9967131E-01;  0.0000000E+00;  9.4761299E-03;  1.0022767E+03;  4.0025842E-01;  1.8862433E+03;3; -5.6878132E+01;  0.0000000E+00;  3.3661532E-01;0; -5.4024696E-01;  1.0044326E+04;  0.0000000E+00;  8.1153958E-06;  1.0000000E+04;  0.0000000E+00;  9.9882607E+03; -7.1572012E-01;  0.0000000E+00;  1.7547315E-01;  5.7763271E+03;
  5.7951272E-01;  9.9999998E-03;  8.0042072E-02;1947; -2.0082259E-01;  0.0000000E+00;  1.2794092E-02;  1.0023037E+03;  4.0025830E-01;  1.9085634E+03;3; -5.5885384E+01;  0.0000000E+00;  6.1908871E-01;0; -5.4292297E-01;  1.0044801E+04;  0.0000000E+00;  2.1170990E-05;  1.0000000E+04;  0.0000000E+00;  9.9883320E+03; -7.1736342E-01;  0.0000000E+00;  1.7444046E-01;  5.7430103E+03;
  5.7950485E-01;  9.9999998E-03;  1.0005278E-01;1948; -2.0214872E-01;  0.0000000E+00;  1.6241351E-02;  1.0023408E+03;  4.0025830E-01;  1.9392782E+03;3; -5.4685871E+01;  0.0000000E+00;  1.0087428E+00;0; -5.4691821E-01;  1.0045387E+04;  0.0000000E+00;  4.3560482E-05;  1.0000000E+04;  0.0000000E+00;  9.9884824E+03; -7.1890348E-01;  0.0000000E+00;  1.7198528E-01;  5.6731016E+03;
  5.7949543E-01;  9.9999998E-03;  1.2006350E-01;1949; -2.0356767E-01;  0.0000000E+00;  1.9768514E-02;  1.0023877E+03;  4.0025827E-01;  1.9780914E+03;3; -5.3336246E+01;  0.0000000E+00;  1.4789754E+00;0; -5.5256987E-01;  1.0046097E+04;  0.0000000E+00;  6.5882705E-05;  1.0000000E+04;  0.0000000E+00;  9.9887158E+03; -7.2022676E-01;  0.0000000E+00;  1.6765687E-01;  5.5670220E+03;
  5.7948482E-01;  9.9999998E-03;  1.4007393E-01;1950; -2.0498815E-01;  0.0000000E+00;  2.3223339E-02;  1.0024406E+03;  4.0025824E-01;  2.0219414E+03;3; -5.1889618E+01;  0.0000000E+00;  1.9852939E+00;0; -5.5963570E-01;  1.0046935E+04;  0.0000000E+00;  6.6851542E-05;  1.0000000E+04;  0.0000000E+00;  9.9889434E+03; -7.2145247E-01;  0.0000000E+00;  1.6181679E-01;  5.4638940E+03;
  5.9947902E-01;  9.9999998E-03;  9.6781342E-12;1974; -2.1390517E-01;  0.0000000E+00;  1.2027652E-09;  1.0029019E+03;  4.0066883E-01;  2.4041375E+03;3; -6.1312943E+01;  0.0000000E+00;  6.5050699E-07;0; -4.2530972E-01;  1.0039456E+04;  0.0000000E+00; -4.6214067E-15;  1.0000000E+04;  0.0000000E+00;  9.9851406E+03; -6.3869894E-01;  0.0000000E+00;  2.1338922E-01;  7.2616401E+03;
  5.9947801E-01;  9.9999998E-03;  2.0013589E-02;1975; -2.1412185E-01;  0.0000000E+00;  3.8120707E-03;  1.0029055E+03;  4.0066874E-01;  2.4071001E+03;3; -6.1134968E+01;  0.0000000E+00; -2.7792573E-01;0; -4.2600012E-01;  1.0039517E+04;  0.0000000E+00;  5.7390781E-07;  1.0000000E+04;  0.0000000E+00;  9.9851523E+03; -6.3885707E-01;  0.0000000E+00;  2.1285695E-01;  7.2569736E+03;
  5.9947497E-01;  9.9999998E-03;  4.0027104E-02;1976; -2.1474168E-01;  0.0000000E+00;  7.6382724E-03;  1.0029163E+03;  4.0066865E-01;  2.4159888E+03;3; -6.0586777E+01;  0.0000000E+00; -4.6051365E-01;0; -4.2795825E-01;  1.0039695E+04;  0.0000000E+00;  2.7883993E-06;  1.0000000E+04;  0.0000000E+00;  9.9851855E+03; -6.3925552E-01;  0.0000000E+00;  2.1129729E-01;  7.2414648E+03;
  5.9946996E-01;  9.9999998E-03;  6.0040578E-02;1977; -2.1571787E-01;  0.0000000E+00;  1.1493954E-02;  1.0029343E+03;  4.0066880E-01;  2.4310002E+03;3; -5.9780258E+01;  0.0000000E+00; -5.8195966E-01;0; -4.3094185E-01;  1.0039987E+04;  0.0000000E+00;  9.4673724E-06;  1.0000000E+04;  0.0000000E+00;  9.9852549E+03; -6.3968933E-01;  0.0000000E+00;  2.0874748E-01;  7.2087856E+03;
  5.9946316E-01;  9.9999998E-03;  8.0054156E-02;1978; -2.1694739E-01;  0.0000000E+00;  1.5437194E-02;  1.0029604E+03;  4.0066868E-01;  2.4526289E+03;3; -5.8708900E+01;  0.0000000E+00; -5.1576197E-01;0; -4.3478435E-01;  1.0040378E+04;  0.0000000E+00;  2.4939314E-05;  1.0000000E+04;  0.0000000E+00;  9.9853936E+03; -6.3990510E-01;  0.0000000E+00;  2.0512076E-01;  7.1466572E+03;
  5.9945464E-01;  9.9999998E-03;  1.0006787E-01;1979; -2.1832955E-01;  0.0000000E+00;  1.9486506E-02;  1.0029956E+03;  4.0066841E-01;  2.4817634E+03;3; -5.7400517E+01;  0.0000000E+00; -1.9152236E-01;0; -4.3947637E-01;  1.0040861E+04;  0.0000000E+00;  4.5209461E-05;  1.0000000E+04;  0.0000000E+00;  9.9856152E+03; -6.3970214E-01;  0.0000000E+00;  2.0022579E-01;  7.0447432E+03;
  5.9944451E-01;  9.9999998E-03;  1.2008151E-01;1980; -2.1976778E-01;  0.0000000E+00;  2.3575094E-02;  1.0030380E+03;  4.0066832E-01;  2.5169224E+03;3; -5.5897873E+01;  0.0000000E+00;  2.5833726E-01;0; -4.4494915E-01;  1.0041436E+04;  0.0000000E+00;  4.5853012E-05;  1.0000000E+04;  0.0000000E+00;  9.9858936E+03; -6.3902700E-01;  0.0000000E+00;  1.9407786E-01;  6.9146807E+03;
  5.9943300E-01;  9.9999998E-03;  1.4009462E-01;1981; -2.2116049E-01;  0.0000000E+00;  2.7550865E-02;  1.0030829E+03;  4.0066829E-01;  2.5541553E+03;3; -5.4277008E+01;  0.0000000E+00;  8.3328122E-01;0; -4.5072722E-01;  1.0042107E+04;  0.0000000E+00; -2.8942040E-06;  1.0000000E+04;  0.0000000E+00;  9.9861260E+03; -6.3803339E-01;  0.0000000E+00;  1.8730615E-01;  6.8108506E+03;
  6.1943519E-01;  9.9999998E-03; -2.0328038E-12;2005; -2.2805563E-01;  0.0000000E+00;  1.1543755E-09;  1.0046191E+03;  4.0160939E-01;  3.8267656E+03;3; -6.3681137E+01;  0.0000000E+00;  4.5266461E-06;0; -2.3453045E-01;  1.0030524E+04;  0.0000000E+00; -7.2727460E-15;  1.0000000E+04;  0.0000000E+00;  9.9814600E+03; -4.9541935E-01;  0.0000000E+00;  2.6088890E-01;  8.9936563E+03;
  6.1943406E-01;  9.9999998E-03;  2.0017257E-02;2006; -2.2828625E-01;  0.0000000E+00;  4.6905926E-03;  1.0046225E+03;  4.0160945E-01;  3.8295308E+03;3; -6.3512691E+01;  0.0000000E+00; -7.3125947E-01;0; -2.3576942E-01;  1.0030569E+04;  0.0000000E+00; -3.7085758E-07;  1.0000000E+04;  0.0000000E+00;  9.9814824E+03; -4.9529624E-01;  0.0000000E+00;  2.5952682E-01;  8.9840771E+03;
  6.1943078E-01;  9.9999998E-03;  4.0034346E-02;2007; -2.2895072E-01;  0.0000000E+00;  9.3552433E-03;  1.0046323E+03;  4.0160936E-01;  3.8377280E+03;3; -6.2991283E+01;  0.0000000E+00; -1.3476958E+00;0; -2.3919675E-01;  1.0030699E+04;  0.0000000E+00; -1.0521320E-06;  1.0000000E+04;  0.0000000E+00;  9.9815518E+03; -4.9486202E-01;  0.0000000E+00;  2.5566527E-01;  8.9549258E+03;
  6.1942536E-01;  9.9999998E-03;  6.0051341E-02;2008; -2.2996536E-01;  0.0000000E+00;  1.3992073E-02;  1.0046486E+03;  4.0160930E-01;  3.8511594E+03;3; -6.2119930E+01;  0.0000000E+00; -1.8054215E+00;0; -2.4408990E-01;  1.0030908E+04;  0.0000000E+00;  1.0060555E-06;  1.0000000E+04;  0.0000000E+00;  9.9816689E+03; -4.9394187E-01;  0.0000000E+00;  2.4985197E-01;  8.9023936E+03;
  6.1941803E-01;  9.9999998E-03;  8.0068335E-02;2009; -2.3121423E-01;  0.0000000E+00;  1.8610792E-02;  1.0046712E+03;  4.0160912E-01;  3.8699238E+03;3; -6.0983696E+01;  0.0000000E+00; -1.9284928E+00;0; -2.4961683E-01;  1.0031179E+04;  0.0000000E+00;  9.2297742E-06;  1.0000000E+04;  0.0000000E+00;  9.9818584E+03; -4.9232554E-01;  0.0000000E+00;  2.4270871E-01;  8.8180732E+03;
  6.1940897E-01;  9.9999998E-03;  1.0008529E-01;2010; -2.3259793E-01;  0.0000000E+00;  2.3233553E-02;  1.0047001E+03;  4.0160897E-01;  3.8938237E+03;3; -5.9599445E+01;  0.0000000E+00; -1.6721728E+00;0; -2.5504318E-01;  1.0031503E+04;  0.0000000E+00;  9.8918208E-06;  1.0000000E+04;  0.0000000E+00;  9.9821172E+03; -4.8985493E-01;  0.0000000E+00;  2.3481175E-01;  8.6998447E+03;
  6.1939830E-01;  9.9999998E-03;  1.2010214E-01;2011; -2.3402357E-01;  0.0000000E+00;  2.7831502E-02;  1.0047322E+03;  4.0160868E-01;  3.9203904E+03;3; -5.8023144E+01;  0.0000000E+00; -1.2330962E+00;0; -2.5972027E-01;  1.0031878E+04;  0.0000000E+00; -3.7684993E-05;  1.0000000E+04;  0.0000000E+00;  9.9823926E+03; -4.8649120E-01;  0.0000000E+00;  2.2677094E-01;  8.5731514E+03;
  6.1938608E-01;  9.9999998E-03;  1.4011833E-01;2012; -2.3537064E-01;  0.0000000E+00;  3.2264482E-02;  1.0047601E+03;  4.0160865E-01;  3.9435991E+03;3; -5.6259682E+01;  0.0000000E+00; -6.5187514E-01;0; -2.6301575E-01;  1.0032290E+04;  0.0000000E+00; -1.6300200E-04;  1.0000000E+04;  0.0000000E+00;  9.9825518E+03; -4.8234165E-01;  0.0000000E+00;  2.1932589E-01;  8.5041396E+03;
  6.3939780E-01;  9.9999998E-03;  2.6997274E-11;2036; -2.3985940E-01;  0.0000000E+00;  7.3606605E-09;  1.0079626E+03;  4.0333840E-01;  6.5966426E+03;3; -6.5348045E+01;  0.0000000E+00; -7.7338482E-06;0;  6.6157460E-02;  1.0015463E+04;  0.0000000E+00;  2.9606393E-16;  1.0000000E+04;  0.0000000E+00;  9.9771553E+03; -2.5443336E-01;  0.0000000E+00;  3.2059082E-01;  1.0995711E+04;
  6.3939667E-01;  9.9999998E-03;  2.0021008E-02;2037; -2.4007459E-01;  0.0000000E+00;  5.5475603E-03;  1.0079654E+03;  4.0333822E-01;  6.5990132E+03;3; -6.5195724E+01;  0.0000000E+00; -1.2295549E+00;0;  6.4099014E-02;  1.0015484E+04;  0.0000000E+00; -3.4959814E-06;  1.0000000E+04;  0.0000000E+00;  9.9771924E+03; -2.5399005E-01;  0.0000000E+00;  3.1808907E-01;  1.0981233E+04;
  6.3939321E-01;  9.9999998E-03;  4.0041789E-02;2038; -2.4075358E-01;  0.0000000E+00;  1.1075579E-02;  1.0079734E+03;  4.0333816E-01;  6.6056299E+03;3; -6.4745789E+01;  0.0000000E+00; -2.1807320E+00;0;  5.8482021E-02;  1.0015545E+04;  0.0000000E+00; -1.3963745E-05;  1.0000000E+04;  0.0000000E+00;  9.9772930E+03; -2.5260904E-01;  0.0000000E+00;  3.1109107E-01;  1.0939145E+04;
  6.3938743E-01;  9.9999998E-03;  6.0062353E-02;2039; -2.4179952E-01;  0.0000000E+00;  1.6550511E-02;  1.0079855E+03;  4.0333796E-01;  6.6157036E+03;3; -6.3863949E+01;  0.0000000E+00; -2.9270217E+00;0;  5.0753951E-02;  1.0015637E+04;  0.0000000E+00; -2.8145681E-05;  1.0000000E+04;  0.0000000E+00;  9.9774541E+03; -2.5014758E-01;  0.0000000E+00;  3.0090153E-01;  1.0870047E+04;
  6.3937962E-01;  9.9999998E-03;  8.0082968E-02;2040; -2.4305269E-01;  0.0000000E+00;  2.1901600E-02;  1.0080021E+03;  4.0333784E-01;  6.6294312E+03;3; -6.2673321E+01;  0.0000000E+00; -3.4012382E+00;0;  4.2737573E-02;  1.0015744E+04;  0.0000000E+00; -4.3894557E-05;  1.0000000E+04;  0.0000000E+00;  9.9776797E+03; -2.4642605E-01;  0.0000000E+00;  2.8916362E-01;  1.0771878E+04;
  6.3936996E-01;  9.9999998E-03;  1.0010366E-01;2041; -2.4444279E-01;  0.0000000E+00;  2.7149986E-02;  1.0080201E+03;  4.0333757E-01;  6.6443438E+03;3; -6.1236961E+01;  0.0000000E+00; -3.3796146E+00;0;  3.6144063E-02;  1.0015850E+04;  0.0000000E+00; -8.1883605E-05;  1.0000000E+04;  0.0000000E+00;  9.9779463E+03; -2.4129646E-01;  0.0000000E+00;  2.7744052E-01;  1.0652167E+04;
  6.3935870E-01;  9.9999998E-03;  1.2012430E-01;2042; -2.4580616E-01;  0.0000000E+00;  3.2204632E-02;  1.0080355E+03;  4.0333715E-01;  6.6569849E+03;3; -5.9571609E+01;  0.0000000E+00; -3.0604107E+00;0;  3.2237500E-02;  1.0015938E+04;  0.0000000E+00; -1.8926238E-04;  1.0000000E+04;  0.0000000E+00;  9.9781836E+03; -2.3467758E-01;  0.0000000E+00;  2.6691508E-01;  1.0547635E+04;
  6.3934606E-01;  9.9999998E-03;  1.4014405E-01;2043; -2.4704263E-01;  0.0000000E+00;  3.6988098E-02;  1.0080399E+03;  4.0333676E-01;  6.6606392E+03;3; -5.7730137E+01;  0.0000000E+00; -2.5236068E+00;0;  3.1714931E-02;  1.0015988E+04;  0.0000000E+00; -3.8174342E-04;  1.0000000E+04;  0.0000000E+00;  9.9782432E+03; -2.2649954E-01;  0.0000000E+00;  2.5821447E-01;  1.0528868E+04;
  6.5936905E-01;  9.9999998E-03; -7.7281940E-12;2067; -2.4891612E-01;  0.0000000E+00; -7.8870537E-09;  1.0120681E+03;  4.0552202E-01;  9.9977119E+03;3; -6.6418488E+01;  0.0000000E+00; -1.2428238E-05;0;  4.9758595E-01;  9.9936895E+03;  0.0000000E+00;  1.3861821E-14;  1.0000000E+04;  0.0000000E+00;  9.9722637E+03;  1.0388796E-01;  0.0000000E+00;  3.9369801E-01;  1.3244381E+04;
  6.5936792E-01;  9.9999998E-03;  2.0025512E-02;2068; -2.4911556E-01;  0.0000000E+00;  6.5277866E-03;  1.0120699E+03;  4.0552199E-01;  9.9992920E+03;3; -6.6313164E+01;  0.0000000E+00; -1.8290926E+00;0;  4.9439135E-01;  9.9936797E+03;  0.0000000E+00; -9.4334573E-06;  1.0000000E+04;  0.0000000E+00;  9.9723105E+03;  1.0465346E-01;  0.0000000E+00;  3.8973790E-01;  1.3225121E+04;
  6.5936434E-01;  9.9999998E-03;  4.0050708E-02;2069; -2.4975383E-01;  0.0000000E+00;  1.2984916E-02;  1.0120751E+03;  4.0552199E-01;  1.0003638E+04;3; -6.5813843E+01;  0.0000000E+00; -3.4620154E+00;0;  4.8573074E-01;  9.9936504E+03;  0.0000000E+00; -3.7873226E-05;  1.0000000E+04;  0.0000000E+00;  9.9724473E+03;  1.0698906E-01;  0.0000000E+00;  3.7874168E-01;  1.3170996E+04;
  6.5935844E-01;  9.9999998E-03;  6.0075410E-02;2070; -2.5075069E-01;  0.0000000E+00;  1.9215999E-02;  1.0120820E+03;  4.0552184E-01;  1.0009267E+04;3; -6.4989876E+01;  0.0000000E+00; -4.6128778E+00;0;  4.7402081E-01;  9.9935869E+03;  0.0000000E+00; -8.1734230E-05;  1.0000000E+04;  0.0000000E+00;  9.9726494E+03;  1.1101352E-01;  0.0000000E+00;  3.6300728E-01;  1.3088232E+04;
  6.5935034E-01;  9.9999998E-03;  8.0099933E-02;2071; -2.5193805E-01;  0.0000000E+00;  2.5170697E-02;  1.0120886E+03;  4.0552169E-01;  1.0014699E+04;3; -6.3783878E+01;  0.0000000E+00; -5.3741956E+00;0;  4.6233243E-01;  9.9934746E+03;  0.0000000E+00; -1.3595061E-04;  1.0000000E+04;  0.0000000E+00;  9.9729063E+03;  1.1689056E-01;  0.0000000E+00;  3.4544188E-01;  1.2981694E+04;
  6.5934044E-01;  9.9999998E-03;  1.0012474E-01;2072; -2.5322673E-01;  0.0000000E+00;  3.0999156E-02;  1.0120925E+03;  4.0552139E-01;  1.0017958E+04;3; -6.2365868E+01;  0.0000000E+00; -5.5707321E+00;0;  4.5346835E-01;  9.9932949E+03;  0.0000000E+00; -2.1555233E-04;  1.0000000E+04;  0.0000000E+00;  9.9731758E+03;  1.2478315E-01;  0.0000000E+00;  3.2868519E-01;  1.2865893E+04;
  6.5932918E-01;  9.9999998E-03;  1.2014978E-01;2073; -2.5444049E-01;  0.0000000E+00;  3.6646109E-02;  1.0120883E+03;  4.0552106E-01;  1.0014503E+04;3; -6.0675995E+01;  0.0000000E+00; -5.4584341E+00;0;  4.4919848E-01;  9.9930234E+03;  0.0000000E+00; -3.5544729E-04;  1.0000000E+04;  0.0000000E+00;  9.9733770E+03;  1.3485329E-01;  0.0000000E+00;  3.1434518E-01;  1.2781458E+04;
  6.5931654E-01;  9.9999998E-03;  1.4017396E-01;2074; -2.5554979E-01;  0.0000000E+00;  4.1998986E-02;  1.0120674E+03;  4.0552098E-01;  9.9972197E+03;3; -5.8760059E+01;  0.0000000E+00; -4.8725915E+00;0;  4.5009395E-01;  9.9926230E+03;  0.0000000E+00; -5.4441794E-04;  1.0000000E+04;  0.0000000E+00;  9.9733730E+03;  1.4739212E-01;  0.0000000E+00;  3.0270183E-01;  1.2793996E+04;
  6.7935520E-01;  9.9999998E-03;  9.3903975E-13;2098; -2.5411627E-01;  0.0000000E+00;  4.5615911E-09;  1.0147909E+03;  4.0727460E-01;  1.2253272E+04;3; -6.7388031E+01;  0.0000000E+00; -7.9245656E-06;0;  1.0501245E+00;  9.9664492E+03;  0.0000000E+00;  4.4007095E-14;  1.0000000E+04;  0.0000000E+00;  9.9669688E+03;  5.7182246E-01;  0.0000000E+00;  4.7830206E-01;  1.5654828E+04;
  6.7935401E-01;  9.9999998E-03;  2.0032847E-02;2099; -2.5424698E-01;  0.0000000E+00;  8.9522097E-03;  1.0147913E+03;  4.0727440E-01;  1.2253668E+04;3; -6.7222389E+01;  0.0000000E+00; -2.5216656E+00;0;  1.0454981E+00;  9.9664033E+03;  0.0000000E+00; -1.6121383E-05;  1.0000000E+04;  0.0000000E+00;  9.9670313E+03;  5.7286966E-01;  0.0000000E+00;  4.7262847E-01;  1.5630783E+04;
  6.7935055E-01;  9.9999998E-03;  4.0064756E-02;2100; -2.5462985E-01;  0.0000000E+00;  1.7298557E-02;  1.0147928E+03;  4.0727445E-01;  1.2254853E+04;3; -6.6612633E+01;  0.0000000E+00; -4.8520675E+00;0;  1.0329773E+00;  9.9662617E+03;  0.0000000E+00; -6.4878506E-05;  1.0000000E+04;  0.0000000E+00;  9.9672012E+03;  5.7604665E-01;  0.0000000E+00;  4.5693064E-01;  1.5564892E+04;
  6.7934483E-01;  9.9999998E-03;  6.0095385E-02;2101; -2.5533611E-01;  0.0000000E+00;  2.4878437E-02;  1.0147926E+03;  4.0727451E-01;  1.2254655E+04;3; -6.5748344E+01;  0.0000000E+00; -6.5927348E+00;0;  1.0160929E+00;  9.9660059E+03;  0.0000000E+00; -1.4089850E-04;  1.0000000E+04;  0.0000000E+00;  9.9674482E+03;  5.8145350E-01;  0.0000000E+00;  4.3463936E-01;  1.5469095E+04;
  6.7933708E-01;  9.9999998E-03;  8.0125451E-02;2102; -2.5625166E-01;  0.0000000E+00;  3.1776432E-02;  1.0147881E+03;  4.0727448E-01;  1.2251001E+04;3; -6.4550743E+01;  0.0000000E+00; -7.7586670E+00;0;  9.9925327E-01;  9.9656299E+03;  0.0000000E+00; -2.3068742E-04;  1.0000000E+04;  0.0000000E+00;  9.9677363E+03;  5.8923203E-01;  0.0000000E+00;  4.1002128E-01;  1.5353017E+04;
  6.7932761E-01;  9.9999998E-03;  1.0015561E-01;2103; -2.5727156E-01;  0.0000000E+00;  3.8220443E-02;  1.0147770E+03;  4.0727451E-01;  1.2241718E+04;3; -6.3103230E+01;  0.0000000E+00; -8.1664534E+00;0;  9.8627907E-01;  9.9651133E+03;  0.0000000E+00; -3.2865256E-04;  1.0000000E+04;  0.0000000E+00;  9.9680293E+03;  5.9953457E-01;  0.0000000E+00;  3.8674450E-01;  1.5231889E+04;
  6.7931670E-01;  9.9999998E-03;  1.2018602E-01;2104; -2.5821239E-01;  0.0000000E+00;  4.4465698E-02;  1.0147532E+03;  4.0727451E-01;  1.2222065E+04;3; -6.1286430E+01;  0.0000000E+00; -8.0555172E+00;0;  9.7921526E-01;  9.9644277E+03;  0.0000000E+00; -4.3755444E-04;  1.0000000E+04;  0.0000000E+00;  9.9682588E+03;  6.1255580E-01;  0.0000000E+00;  3.6665949E-01;  1.5140272E+04;
  6.7930466E-01;  9.9999998E-03;  1.4021546E-01;2105; -2.5899589E-01;  0.0000000E+00;  5.0432432E-02;  1.0147103E+03;  4.0727460E-01;  1.2186515E+04;3; -5.9249294E+01;  0.0000000E+00; -7.3643560E+00;0;  9.7822464E-01;  9.9635225E+03;  0.0000000E+00; -5.2081794E-04;  1.0000000E+04;  0.0000000E+00;  9.9683096E+03;  6.2869585E-01;  0.0000000E+00;  3.4952876E-01;  1.5129824E+04;
  6.9936669E-01;  9.9999998E-03;  2.2355255E-11;2129; -2.5348753E-01;  0.0000000E+00;  4.7780535E-09;  1.0154442E+03;  4.0823844E-01;  1.2794206E+04;3; -6.8015701E+01;  0.0000000E+00;  5.5278724E-06;0;  1.6668017E+00;  9.9374268E+03;  0.0000000E+00;  1.2870035E-14;  1.0000000E+04;  0.0000000E+00;  9.9616328E+03;  1.0988454E+00;  0.0000000E+00;  5.6795633E-01;  1.8070857E+04;
  6.9936568E-01;  9.9999998E-03;  2.0040728E-02;2130; -2.5344601E-01;  0.0000000E+00;  1.2208920E-02;  1.0154434E+03;  4.0823841E-01;  1.2793613E+04;3; -6.7826866E+01;  0.0000000E+00; -2.5422869E+00;0;  1.6606061E+00;  9.9373330E+03;  0.0000000E+00; -1.9001118E-05;  1.0000000E+04;  0.0000000E+00;  9.9617070E+03;  1.1001419E+00;  0.0000000E+00;  5.6046420E-01;  1.8041563E+04;
  6.9936258E-01;  9.9999998E-03;  4.0080324E-02;2131; -2.5353360E-01;  0.0000000E+00;  2.3699129E-02;  1.0154398E+03;  4.0823862E-01;  1.2790651E+04;3; -6.7079979E+01;  0.0000000E+00; -4.7855554E+00;0;  1.6437898E+00;  9.9370518E+03;  0.0000000E+00; -7.6440781E-05;  1.0000000E+04;  0.0000000E+00;  9.9619180E+03;  1.1040460E+00;  0.0000000E+00;  5.3974384E-01;  1.7962277E+04;
  6.9935727E-01;  9.9999998E-03;  6.0118597E-02;2132; -2.5379759E-01;  0.0000000E+00;  3.3933785E-02;  1.0154313E+03;  4.0823877E-01;  1.2783541E+04;3; -6.5878731E+01;  0.0000000E+00; -6.8036289E+00;0;  1.6209363E+00;  9.9365791E+03;  0.0000000E+00; -1.6555715E-04;  1.0000000E+04;  0.0000000E+00;  9.9622119E+03;  1.1106005E+00;  0.0000000E+00;  5.1033580E-01;  1.7849432E+04;
  6.9935018E-01;  9.9999998E-03;  8.0156311E-02;2133; -2.5413179E-01;  0.0000000E+00;  4.2866305E-02;  1.0154150E+03;  4.0823901E-01;  1.2770012E+04;3; -6.4357018E+01;  0.0000000E+00; -8.3947029E+00;0;  1.5976456E+00;  9.9359053E+03;  0.0000000E+00; -2.6417285E-04;  1.0000000E+04;  0.0000000E+00;  9.9625596E+03;  1.1198506E+00;  0.0000000E+00;  4.7779503E-01;  1.7713832E+04;
  6.9934177E-01;  9.9999998E-03;  1.0019433E-01;2134; -2.5442049E-01;  0.0000000E+00;  5.0735757E-02;  1.0153890E+03;  4.0823910E-01;  1.2748581E+04;3; -6.2724247E+01;  0.0000000E+00; -9.3921309E+00;0;  1.5784788E+00;  9.9350156E+03;  0.0000000E+00; -3.4326751E-04;  1.0000000E+04;  0.0000000E+00;  9.9629287E+03;  1.1318173E+00;  0.0000000E+00;  4.4666144E-01;  1.7564213E+04;
  6.9933289E-01;  9.9999998E-03;  1.2023316E-01;2135; -2.5442249E-01;  0.0000000E+00;  5.8315892E-02;  1.0153503E+03;  4.0823954E-01;  1.2716486E+04;3; -6.0920429E+01;  0.0000000E+00; -9.5752535E+00;0;  1.5654470E+00;  9.9338955E+03;  0.0000000E+00; -3.7436068E-04;  1.0000000E+04;  0.0000000E+00;  9.9632764E+03;  1.1465720E+00;  0.0000000E+00;  4.1887495E-01;  1.7419941E+04;
  6.9932365E-01;  9.9999998E-03;  1.4027162E-01;2136; -2.5398391E-01;  0.0000000E+00;  6.5927699E-02;  1.0152936E+03;  4.0823990E-01;  1.2669479E+04;3; -5.8788563E+01;  0.0000000E+00; -8.8073978E+00;0;  1.5580182E+00;  9.9325029E+03;  0.0000000E+00; -3.1150327E-04;  1.0000000E+04;  0.0000000E+00;  9.9635371E+03;  1.1643515E+00;  0.0000000E+00;  3.9366677E-01;  1.7313137E+04;
  7.1948034E-01;  9.9999998E-03; -1.7013540E-11;2160; -2.2236797E-01;  0.0000000E+00; -7.7341396E-09;  1.0149641E+03;  4.0866268E-01;  1.2396183E+04;3; -6.6810051E+01;  0.0000000E+00; -3.8091202E-06;0;  2.2450628E+00;  9.9122334E+03;  0.0000000E+00;  2.2466326E-14;  1.0000000E+04;  0.0000000E+00;  9.9567090E+03;  1.5922178E+00;  0.0000000E+00;  6.5284508E-01;  2.0298875E+04;
  7.1947896E-01;  9.9999998E-03;  2.0048730E-02;2161; -2.2264723E-01;  0.0000000E+00;  1.6276699E-02;  1.0149618E+03;  4.0866259E-01;  1.2394307E+04;3; -6.6553635E+01;  0.0000000E+00; -1.5166175E+00;0;  2.2373614E+00;  9.9120928E+03;  0.0000000E+00; -1.4647691E-05;  1.0000000E+04;  0.0000000E+00;  9.9568047E+03;  1.5937976E+00;  0.0000000E+00;  6.4356381E-01;  2.0262379E+04;
  7.1947497E-01;  9.9999998E-03;  4.0096279E-02;2162; -2.2342820E-01;  0.0000000E+00;  3.1658340E-02;  1.0149533E+03;  4.0866271E-01;  1.2387196E+04;3; -6.5803528E+01;  0.0000000E+00; -2.9209831E+00;0;  2.2163754E+00;  9.9116621E+03;  0.0000000E+00; -5.9452541E-05;  1.0000000E+04;  0.0000000E+00;  9.9570654E+03;  1.5985057E+00;  0.0000000E+00;  6.1786962E-01;  2.0163441E+04;
  7.1946865E-01;  9.9999998E-03;  6.0142614E-02;2163; -2.2456135E-01;  0.0000000E+00;  4.5695763E-02;  1.0149363E+03;  4.0866303E-01;  1.2373174E+04;3; -6.4575836E+01;  0.0000000E+00; -4.1069584E+00;0;  2.1875219E+00;  9.9109482E+03;  0.0000000E+00; -1.2860348E-04;  1.0000000E+04;  0.0000000E+00;  9.9574355E+03;  1.6062138E+00;  0.0000000E+00;  5.8130813E-01;  2.0021711E+04;
  7.1946043E-01;  9.9999998E-03;  8.0189012E-02;2164; -2.2572383E-01;  0.0000000E+00;  5.8483150E-02;  1.0149088E+03;  4.0866357E-01;  1.2350362E+04;3; -6.2743431E+01;  0.0000000E+00; -5.0466275E+00;0;  2.1572387E+00;  9.9099570E+03;  0.0000000E+00; -1.9926550E-04;  1.0000000E+04;  0.0000000E+00;  9.9578809E+03;  1.6166826E+00;  0.0000000E+00;  5.4055601E-01;  1.9846531E+04;
  7.1945065E-01;  9.9999998E-03;  1.0023709E-01;2165; -2.2662069E-01;  0.0000000E+00;  7.0548117E-02;  1.0148707E+03;  4.0866369E-01;  1.2318860E+04;3; -6.0434418E+01;  0.0000000E+00; -5.5375066E+00;0;  2.1304255E+00;  9.9086865E+03;  0.0000000E+00; -2.3508692E-04;  1.0000000E+04;  0.0000000E+00;  9.9583926E+03;  1.6295792E+00;  0.0000000E+00;  5.0084633E-01;  1.9635777E+04;
  7.1943986E-01;  9.9999998E-03;  1.2028734E-01;2166; -2.2684699E-01;  0.0000000E+00;  8.2294993E-02;  1.0148219E+03;  4.0866426E-01;  1.2278371E+04;3; -5.7533146E+01;  0.0000000E+00; -5.5293875E+00;0;  2.1087294E+00;  9.9071514E+03;  0.0000000E+00; -1.9991431E-04;  1.0000000E+04;  0.0000000E+00;  9.9589580E+03;  1.6445615E+00;  0.0000000E+00;  4.6416771E-01;  1.9389809E+04;
  7.1942860E-01;  9.9999998E-03;  1.4033772E-01;2167; -2.2620493E-01;  0.0000000E+00;  9.3615897E-02;  1.0147610E+03;  4.0866488E-01;  1.2227910E+04;3; -5.4223991E+01;  0.0000000E+00; -4.8393655E+00;0;  2.0908163E+00;  9.9053379E+03;  0.0000000E+00; -6.1214290E-05;  1.0000000E+04;  0.0000000E+00;  9.9595645E+03;  1.6613797E+00;  0.0000000E+00;  4.2943656E-01;  1.9122637E+04;
  7.3966688E-01;  9.9999998E-03;  5.0451525E-11;2191; -1.4768502E-01;  0.0000000E+00;  5.2416951E-09;  1.0143479E+03;  4.0883029E-01;  1.1885294E+04;3; -4.6832119E+01;  0.0000000E+00; -7.0600508E-06;0;  2.6682169E+00;  9.8961055E+03;  0.0000000E+00;  1.9493114E-15;  1.0000000E+04;  0.0000000E+00;  9.9526475E+03;  1.9456723E+00;  0.0000000E+00;  7.2254461E-01;  2.2151094E+04;
  7.3966593E-01;  9.9999998E-03;  2.0052901E-02;2192; -1.4785370E-01;  0.0000000E+00;  1.7578343E-02;  1.0143444E+03;  4.0883049E-01;  1.1882430E+04;3; -4.6599598E+01;  0.0000000E+00; -1.8466601E+00;0;  2.6591930E+00;  9.8959160E+03;  0.0000000E+00; -5.9476706E-06;  1.0000000E+04;  0.0000000E+00;  9.9527646E+03;  1.9475644E+00;  0.0000000E+00;  7.1162856E-01;  2.2104344E+04;
  7.3966300E-01;  9.9999998E-03;  4.0104337E-02;2193; -1.4830436E-01;  0.0000000E+00;  3.4090072E-02;  1.0143325E+03;  4.0883058E-01;  1.1872555E+04;3; -4.5903790E+01;  0.0000000E+00; -3.5974233E+00;0;  2.6344657E+00;  9.8953496E+03;  0.0000000E+00; -2.4946674E-05;  1.0000000E+04;  0.0000000E+00;  9.9530977E+03;  1.9531019E+00;  0.0000000E+00;  6.8136376E-01;  2.1976297E+04;
  7.3965847E-01;  9.9999998E-03;  6.0154080E-02;2194; -1.4888829E-01;  0.0000000E+00;  4.8942540E-02;  1.0143099E+03;  4.0883085E-01;  1.1853793E+04;3; -4.4751244E+01;  0.0000000E+00; -5.1620326E+00;0;  2.6000268E+00;  9.8944199E+03;  0.0000000E+00; -5.4414304E-05;  1.0000000E+04;  0.0000000E+00;  9.9535742E+03;  1.9618862E+00;  0.0000000E+00;  6.3814068E-01;  2.1789195E+04;
  7.3965269E-01;  9.9999998E-03;  8.0203377E-02;2195; -1.4940824E-01;  0.0000000E+00;  6.2208120E-02;  1.0142753E+03;  4.0883142E-01;  1.1825156E+04;3; -4.3156197E+01;  0.0000000E+00; -6.4406967E+00;0;  2.5628743E+00;  9.8931396E+03;  0.0000000E+00; -7.9377052E-05;  1.0000000E+04;  0.0000000E+00;  9.9541641E+03;  1.9732854E+00;  0.0000000E+00;  5.8958876E-01;  2.1550566E+04;
  7.3964590E-01;  9.9999998E-03;  1.0025392E-01;2196; -1.4967608E-01;  0.0000000E+00;  7.4450925E-02;  1.0142308E+03;  4.0883186E-01;  1.1788323E+04;3; -4.1150322E+01;  0.0000000E+00; -7.2819929E+00;0;  2.5280895E+00;  9.8915479E+03;  0.0000000E+00; -7.5103053E-05;  1.0000000E+04;  0.0000000E+00;  9.9548760E+03;  1.9865028E+00;  0.0000000E+00;  5.4158688E-01;  2.1248381E+04;
  7.3963839E-01;  9.9999998E-03;  1.2030641E-01;2197; -1.4955828E-01;  0.0000000E+00;  8.6334892E-02;  1.0141790E+03;  4.0883240E-01;  1.1745368E+04;3; -3.8794075E+01;  0.0000000E+00; -7.4642773E+00;0;  2.4969831E+00;  9.8896650E+03;  0.0000000E+00; -1.9495001E-05;  1.0000000E+04;  0.0000000E+00;  9.9557383E+03;  2.0006349E+00;  0.0000000E+00;  4.9634817E-01;  2.0868072E+04;
  7.3963034E-01;  9.9999998E-03;  1.4035897E-01;2198; -1.4899445E-01;  0.0000000E+00;  9.7985409E-02;  1.0141226E+03;  4.0883300E-01;  1.1698659E+04;3; -3.6191952E+01;  0.0000000E+00; -6.7735071E+00;0;  2.4675288E+00;  9.8875410E+03;  0.0000000E+00;  9.4956958E-05;  1.0000000E+04;  0.0000000E+00;  9.9567344E+03;  2.0146749E+00;  0.0000000E+00;  4.5285395E-01;  2.0414619E+04;
  7.5980979E-01;  9.9999998E-03;  1.2710631E-10;2222; -8.9888506E-02;  0.0000000E+00;  2.6001697E-08;  1.0140632E+03;  4.0889341E-01;  1.1648902E+04;3; -3.1015430E+01;  0.0000000E+00; -1.6071222E-05;0;  2.8826742E+00;  9.8904492E+03;  0.0000000E+00; -1.1526943E-14;  1.0000000E+04;  0.0000000E+00;  9.9497178E+03;  2.1120300E+00;  0.0000000E+00;  7.7064431E-01;  2.3504178E+04;
  7.5980920E-01;  9.9999998E-03;  2.0055676E-02;2223; -8.9928582E-02;  0.0000000E+00;  1.8287348E-02;  1.0140596E+03;  4.0889367E-01;  1.1645842E+04;3; -3.0807215E+01;  0.0000000E+00; -2.2547472E+00;0;  2.8724089E+00;  9.8902285E+03;  0.0000000E+00;  5.9040508E-07;  1.0000000E+04;  0.0000000E+00;  9.9498691E+03;  2.1140368E+00;  0.0000000E+00;  7.5837207E-01;  2.3444799E+04;
  7.5980747E-01;  9.9999998E-03;  4.0109623E-02;2224; -9.0009354E-02;  0.0000000E+00;  3.5361290E-02;  1.0140472E+03;  4.0889394E-01;  1.1635671E+04;3; -3.0188128E+01;  0.0000000E+00; -4.4181905E+00;0;  2.8441446E+00;  9.8895723E+03;  0.0000000E+00;  1.0318457E-06;  1.0000000E+04;  0.0000000E+00;  9.9502803E+03;  2.1198404E+00;  0.0000000E+00;  7.2430414E-01;  2.3280564E+04;
  7.5980490E-01;  9.9999998E-03;  6.0161427E-02;2225; -9.0026096E-02;  0.0000000E+00;  5.0515536E-02;  1.0140240E+03;  4.0889412E-01;  1.1616416E+04;3; -2.9175465E+01;  0.0000000E+00; -6.4056325E+00;0;  2.8043280E+00;  9.8885010E+03;  0.0000000E+00;  1.0158548E-06;  1.0000000E+04;  0.0000000E+00;  9.9508857E+03;  2.1288238E+00;  0.0000000E+00;  6.7550415E-01;  2.3036564E+04;
  7.5980169E-01;  9.9999998E-03;  8.0212265E-02;2226; -8.9846924E-02;  0.0000000E+00;  6.3764758E-02;  1.0139890E+03;  4.0889463E-01;  1.1587386E+04;3; -2.7800953E+01;  0.0000000E+00; -8.1206741E+00;0;  2.7604828E+00;  9.8870449E+03;  0.0000000E+00;  5.9454183E-06;  1.0000000E+04;  0.0000000E+00;  9.9516484E+03;  2.1400747E+00;  0.0000000E+00;  6.2040794E-01;  2.2720266E+04;
  7.5979805E-01;  9.9999998E-03;  1.0026385E-01;2227; -8.9358807E-02;  0.0000000E+00;  7.5669155E-02;  1.0139459E+03;  4.0889513E-01;  1.1551640E+04;3; -2.6116320E+01;  0.0000000E+00; -9.4085407E+00;0;  2.7180166E+00;  9.8852490E+03;  0.0000000E+00;  2.4976074E-05;  1.0000000E+04;  0.0000000E+00;  9.9525850E+03;  2.1524565E+00;  0.0000000E+00;  5.6556016E-01;  2.2314531E+04;
  7.5979429E-01;  9.9999998E-03;  1.2031681E-01;2228; -8.8497914E-02;  0.0000000E+00;  8.6913519E-02;  1.0138991E+03;  4.0889579E-01;  1.1512933E+04;3; -2.4198086E+01;  0.0000000E+00; -1.0034737E+01;0;  2.6782637E+00;  9.8831719E+03;  0.0000000E+00;  6.3426538E-05;  1.0000000E+04;  0.0000000E+00;  9.9537314E+03;  2.1646276E+00;  0.0000000E+00;  5.1363623E-01;  2.1798100E+04;
  7.5979054E-01;  9.9999998E-03;  1.4036913E-01;2229; -8.7252580E-02;  0.0000000E+00;  9.7660400E-02;  1.0138535E+03;  4.0889645E-01;  1.1475113E+04;3; -2.2152098E+01;  0.0000000E+00; -9.7461319E+00;0;  2.6389382E+00;  9.8809150E+03;  0.0000000E+00;  1.1468005E-04;  1.0000000E+04;  0.0000000E+00;  9.9550811E+03;  2.1748786E+00;  0.0000000E+00;  4.6405953E-01;  2.1178199E+04;
  7.7991587E-01;  9.9999998E-03; -2.1832008E-11;2253; -4.5796048E-02;  0.0000000E+00; -1.6773420E-08;  1.0141436E+03;  4.0891638E-01;  1.1714669E+04;3; -1.8399527E+01;  0.0000000E+00; -7.3831325E-06;0;  2.9224761E+00;  9.8926650E+03;  0.0000000E+00; -2.6642498E-16;  1.0000000E+04;  0.0000000E+00;  9.9479775E+03;  2.1259587E+00;  0.0000000E+00;  7.9651737E-01;  2.4319613E+04;
  7.7991563E-01;  9.9999998E-03;  2.0057138E-02;2254; -4.5746025E-02;  0.0000000E+00;  1.8511493E-02;  1.0141410E+03;  4.0891641E-01;  1.1712497E+04;3; -1.8241425E+01;  0.0000000E+00; -2.6398003E+00;0;  2.9111366E+00;  9.8924336E+03;  0.0000000E+00;  2.0998737E-06;  1.0000000E+04;  0.0000000E+00;  9.9481572E+03;  2.1278579E+00;  0.0000000E+00;  7.8327882E-01;  2.4247500E+04;
  7.7991498E-01;  9.9999998E-03;  4.0112343E-02;2255; -4.5574084E-02;  0.0000000E+00;  3.5715044E-02;  1.0141315E+03;  4.0891674E-01;  1.1704598E+04;3; -1.7775051E+01;  0.0000000E+00; -5.1788740E+00;0;  2.8798137E+00;  9.8917451E+03;  0.0000000E+00;  7.4873233E-06;  1.0000000E+04;  0.0000000E+00;  9.9486484E+03;  2.1333058E+00;  0.0000000E+00;  7.4650776E-01;  2.4046871E+04;
  7.7991402E-01;  9.9999998E-03;  6.0165066E-02;2256; -4.5225464E-02;  0.0000000E+00;  5.0834917E-02;  1.0141118E+03;  4.0891695E-01;  1.1688307E+04;3; -1.7025698E+01;  0.0000000E+00; -7.5244474E+00;0;  2.8353910E+00;  9.8906299E+03;  0.0000000E+00;  1.4904091E-05;  1.0000000E+04;  0.0000000E+00;  9.9493779E+03;  2.1416199E+00;  0.0000000E+00;  6.9377124E-01;  2.3746432E+04;
  7.7991301E-01;  9.9999998E-03;  8.0216438E-02;2257; -4.4638522E-02;  0.0000000E+00;  6.3858472E-02;  1.0140823E+03;  4.0891737E-01;  1.1663918E+04;3; -1.6036180E+01;  0.0000000E+00; -9.5726528E+00;0;  2.7859612E+00;  9.8891182E+03;  0.0000000E+00;  2.4484503E-05;  1.0000000E+04;  0.0000000E+00;  9.9502988E+03;  2.1518059E+00;  0.0000000E+00;  6.3415527E-01;  2.3356268E+04;
  7.7991199E-01;  9.9999998E-03;  1.0026819E-01;2258; -4.3777321E-02;  0.0000000E+00;  7.5356208E-02;  1.0140461E+03;  4.0891799E-01;  1.1634001E+04;3; -1.4869114E+01;  0.0000000E+00; -1.1161441E+01;0;  2.7374976E+00;  9.8872646E+03;  0.0000000E+00;  3.6951729E-05;  1.0000000E+04;  0.0000000E+00;  9.9514307E+03;  2.1626506E+00;  0.0000000E+00;  5.7484692E-01;  2.2859768E+04;
  7.7991122E-01;  9.9999998E-03;  1.2032093E-01;2259; -4.2650383E-02;  0.0000000E+00;  8.6032026E-02;  1.0140088E+03;  4.0891847E-01;  1.1602997E+04;3; -1.3604999E+01;  0.0000000E+00; -1.2050967E+01;0;  2.6917424E+00;  9.8851465E+03;  0.0000000E+00;  5.0803785E-05;  1.0000000E+04;  0.0000000E+00;  9.9528018E+03;  2.1726441E+00;  0.0000000E+00;  5.1909840E-01;  2.2236734E+04;
  7.7991062E-01;  9.9999998E-03;  1.4037256E-01;2260; -4.1303821E-02;  0.0000000E+00;  9.6065097E-02;  1.0139755E+03;  4.0891919E-01;  1.1575450E+04;3; -1.2340017E+01;  0.0000000E+00; -1.1971963E+01;0;  2.6466012E+00;  9.8829004E+03;  0.0000000E+00;  5.9557526E-05;  1.0000000E+04;  0.0000000E+00;  9.9543799E+03;  2.1796780E+00;  0.0000000E+00;  4.6692333E-01;  2.1504074E+04;
  8.0000341E-01;  9.9999998E-03; -1.4564000E-10;2284; -7.8348238E-03;  0.0000000E+00; -4.5096979E-08;  1.0144487E+03;  4.0892282E-01;  1.1966252E+04;3; -6.8209457E+00;  0.0000000E+00; -2.3631699E-05;0;  2.8546143E+00;  9.8989219E+03;  0.0000000E+00;  8.5882153E-15;  1.0000000E+04;  0.0000000E+00;  9.9473271E+03;  2.0513201E+00;  0.0000000E+00;  8.0329430E-01;  2.4624080E+04;
  8.0000347E-01;  9.9999998E-03;  2.0057453E-02;2285; -7.7326931E-03;  0.0000000E+00;  1.8367801E-02;  1.0144473E+03;  4.0892282E-01;  1.1965067E+04;3; -6.7308979E+00;  0.0000000E+00; -2.9388971E+00;0;  2.8425422E+00;  9.8986982E+03;  0.0000000E+00;  7.3664017E-07;  1.0000000E+04;  0.0000000E+00;  9.9475293E+03;  2.0529971E+00;  0.0000000E+00;  7.8954494E-01;  2.4541742E+04;
  8.0000365E-01;  9.9999998E-03;  4.0112853E-02;2286; -7.4214255E-03;  0.0000000E+00;  3.5388745E-02;  1.0144416E+03;  4.0892315E-01;  1.1960427E+04;3; -6.4694939E+00;  0.0000000E+00; -5.7559366E+00;0;  2.8091817E+00;  9.8980264E+03;  0.0000000E+00;  2.6960897E-06;  1.0000000E+04;  0.0000000E+00;  9.9480820E+03;  2.0578115E+00;  0.0000000E+00;  7.5137013E-01;  2.4312260E+04;
  8.0000412E-01;  9.9999998E-03;  6.0165565E-02;2287; -6.8896809E-03;  0.0000000E+00;  5.0263468E-02;  1.0144283E+03;  4.0892348E-01;  1.1949469E+04;3; -6.0625024E+00;  0.0000000E+00; -8.3393860E+00;0;  2.7618287E+00;  9.8969336E+03;  0.0000000E+00;  5.3562662E-06;  1.0000000E+04;  0.0000000E+00;  9.9489043E+03;  2.0651627E+00;  0.0000000E+00;  6.9666606E-01;  2.3968473E+04;
  8.0000484E-01;  9.9999998E-03;  8.0216706E-02;2288; -6.1350674E-03;  0.0000000E+00;  6.2981427E-02;  1.0144065E+03;  4.0892392E-01;  1.1931303E+04;3; -5.5522852E+00;  0.0000000E+00; -1.0569846E+01;0;  2.7091720E+00;  9.8954590E+03;  0.0000000E+00;  8.2439838E-06;  1.0000000E+04;  0.0000000E+00;  9.9499414E+03;  2.0742011E+00;  0.0000000E+00;  6.3497084E-01;  2.3525107E+04;
  8.0000597E-01;  9.9999998E-03;  1.0026804E-01;2289; -5.1798187E-03;  0.0000000E+00;  7.4138299E-02;  1.0143786E+03;  4.0892437E-01;  1.1908200E+04;3; -4.9956813E+00;  0.0000000E+00; -1.2275104E+01;0;  2.6578875E+00;  9.8936484E+03;  0.0000000E+00;  1.0791159E-05;  1.0000000E+04;  0.0000000E+00;  9.9511943E+03;  2.0838966E+00;  0.0000000E+00;  5.7399088E-01;  2.2970244E+04;
  8.0000752E-01;  9.9999998E-03;  1.2032023E-01;2290; -4.0827715E-03;  0.0000000E+00;  8.4462464E-02;  1.0143502E+03;  4.0892491E-01;  1.1884703E+04;3; -4.4605470E+00;  0.0000000E+00; -1.3215186E+01;0;  2.6103656E+00;  9.8915830E+03;  0.0000000E+00;  1.2021696E-05;  1.0000000E+04;  0.0000000E+00;  9.9526855E+03;  2.0928872E+00;  0.0000000E+00;  5.1747841E-01;  2.2289318E+04;
  8.0000943E-01;  9.9999998E-03;  1.4037111E-01;2291; -2.9271103E-03;  0.0000000E+00;  9.4140299E-02;  1.0143254E+03;  4.0892562E-01;  1.1864166E+04;3; -4.0159378E+00;  0.0000000E+00; -1.3126398E+01;0;  2.5649481E+00;  9.8894121E+03;  0.0000000E+00;  1.0129073E-05;  1.0000000E+04;  0.0000000E+00;  9.9543594E+03;  2.0990353E+00;  0.0000000E+00;  4.6591282E-01;  2.1510406E+04;
  8.2008874E-01;  9.9999998E-03;  2.6412558E-11;2315;  3.0108485E-02;  0.0000000E+00;  4.9444377E-09;  1.0148215E+03;  4.0891093E-01;  1.2273569E+04;3;  5.1405201E+00;  0.0000000E+00;  1.6477403E-05;0;  2.7325761E+00;  9.9064648E+03;  0.0000000E+00;  1.7668653E-15;  1.0000000E+04;  0.0000000E+00;  9.9476006E+03;  1.9369677E+00;  0.0000000E+00;  7.9560840E-01;  2.4481893E+04;
  8.2008904E-01;  9.9999998E-03;  2.0056831E-02;2316;  3.0234046E-02;  0.0000000E+00;  1.7980108E-02;  1.0148216E+03;  4.0891111E-01;  1.2273668E+04;3;  5.1549067E+00;  0.0000000E+00; -3.1045954E+00;0;  2.7202678E+00;  9.9062539E+03;  0.0000000E+00; -5.2140751E-07;  1.0000000E+04;  0.0000000E+00;  9.9478125E+03;  1.9384638E+00;  0.0000000E+00;  7.8180391E-01;  2.4393771E+04;
  8.2008994E-01;  9.9999998E-03;  4.0111564E-02;2317;  3.0604165E-02;  0.0000000E+00;  3.4622565E-02;  1.0148198E+03;  4.0891129E-01;  1.2272089E+04;3;  5.1921825E+00;  0.0000000E+00; -6.0611529E+00;0;  2.6863239E+00;  9.9056250E+03;  0.0000000E+00; -1.8660759E-06;  1.0000000E+04;  0.0000000E+00;  9.9484014E+03;  1.9427996E+00;  0.0000000E+00;  7.4352437E-01;  2.4148475E+04;
  8.2009149E-01;  9.9999998E-03;  6.0163543E-02;2318;  3.1198623E-02;  0.0000000E+00;  4.9141612E-02;  1.0148120E+03;  4.0891165E-01;  1.2265672E+04;3;  5.2336245E+00;  0.0000000E+00; -8.7346048E+00;0;  2.6383922E+00;  9.9045938E+03;  0.0000000E+00; -3.5312107E-06;  1.0000000E+04;  0.0000000E+00;  9.9492686E+03;  1.9495738E+00;  0.0000000E+00;  6.8881845E-01;  2.3782705E+04;
  8.2009369E-01;  9.9999998E-03;  8.0213882E-02;2319;  3.1983927E-02;  0.0000000E+00;  6.1549775E-02;  1.0147966E+03;  4.0891206E-01;  1.2252938E+04;3;  5.2517014E+00;  0.0000000E+00; -1.0987423E+01;0;  2.5856767E+00;  9.9031973E+03;  0.0000000E+00; -4.9452842E-06;  1.0000000E+04;  0.0000000E+00;  9.9503525E+03;  1.9582340E+00;  0.0000000E+00;  6.2744278E-01;  2.3316402E+04;
  8.2009655E-01;  9.9999998E-03;  1.0026440E-01;2320;  3.2908790E-02;  0.0000000E+00;  7.2475746E-02;  1.0147748E+03;  4.0891242E-01;  1.2234873E+04;3;  5.2116365E+00;  0.0000000E+00; -1.2637265E+01;0;  2.5355110E+00;  9.9014668E+03;  0.0000000E+00; -5.7033767E-06;  1.0000000E+04;  0.0000000E+00;  9.9516416E+03;  1.9681212E+00;  0.0000000E+00;  5.6738991E-01;  2.2743717E+04;
  8.2010007E-01;  9.9999998E-03;  1.2031583E-01;2321;  3.3902105E-02;  0.0000000E+00;  8.2675159E-02;  1.0147510E+03;  4.0891305E-01;  1.2215229E+04;3;  5.0781031E+00;  0.0000000E+00; -1.3447857E+01;0;  2.4909048E+00;  9.8994824E+03;  0.0000000E+00; -5.6972822E-06;  1.0000000E+04;  0.0000000E+00;  9.9531416E+03;  1.9782219E+00;  0.0000000E+00;  5.1268280E-01;  2.2056387E+04;
  8.2010406E-01;  9.9999998E-03;  1.4036603E-01;2322;  3.4882568E-02;  0.0000000E+00;  9.2336312E-02;  1.0147278E+03;  4.0891364E-01;  1.2195978E+04;3;  4.8243976E+00;  0.0000000E+00; -1.3177078E+01;0;  2.4506421E+00;  9.8973711E+03;  0.0000000E+00; -4.1763469E-06;  1.0000000E+04;  0.0000000E+00;  9.9547871E+03;  1.9866681E+00;  0.0000000E+00;  4.6397391E-01;  2.1290564E+04;
  8.4017855E-01;  9.9999998E-03;  1.3702017E-10;2346;  7.0042372E-02;  0.0000000E+00;  3.7915736E-08;  1.0149282E+03;  4.0876591E-01;  1.2359875E+04;3;  1.7665897E+01;  0.0000000E+00;  4.9429218E-06;0;  2.5755501E+00;  9.9145449E+03;  0.0000000E+00;  8.9311035E-15;  1.0000000E+04;  0.0000000E+00;  9.9486240E+03;  1.7978523E+00;  0.0000000E+00;  7.7769780E-01;  2.3967709E+04;
  8.4017903E-01;  9.9999998E-03;  2.0055465E-02;2347;  7.0177048E-02;  0.0000000E+00;  1.7446952E-02;  1.0149290E+03;  4.0876609E-01;  1.2360566E+04;3;  1.7607977E+01;  0.0000000E+00; -3.1162050E+00;0;  2.5635502E+00;  9.9143496E+03;  0.0000000E+00; -6.3913814E-07;  1.0000000E+04;  0.0000000E+00;  9.9488398E+03;  1.7993139E+00;  0.0000000E+00;  7.6423633E-01;  2.3878961E+04;
  8.4018058E-01;  9.9999998E-03;  4.0108860E-02;2348;  7.0567481E-02;  0.0000000E+00;  3.3599168E-02;  1.0149297E+03;  4.0876627E-01;  1.2361060E+04;3;  1.7432638E+01;  0.0000000E+00; -6.0614161E+00;0;  2.5306120E+00;  9.9137695E+03;  0.0000000E+00; -2.2493748E-06;  1.0000000E+04;  0.0000000E+00;  9.9494268E+03;  1.8036314E+00;  0.0000000E+00;  7.2698051E-01;  2.3632793E+04;
  8.4018308E-01;  9.9999998E-03;  6.0159530E-02;2349;  7.1177803E-02;  0.0000000E+00;  4.7708336E-02;  1.0149254E+03;  4.0876651E-01;  1.2357505E+04;3;  1.7136143E+01;  0.0000000E+00; -8.6804838E+00;0;  2.4845867E+00;  9.9128115E+03;  0.0000000E+00; -3.8953322E-06;  1.0000000E+04;  0.0000000E+00;  9.9502871E+03;  1.8106334E+00;  0.0000000E+00;  6.7395341E-01;  2.3268656E+04;
  8.4018648E-01;  9.9999998E-03;  8.0208614E-02;2350;  7.1960963E-02;  0.0000000E+00;  5.9819181E-02;  1.0149130E+03;  4.0876707E-01;  1.2347240E+04;3;  1.6715410E+01;  0.0000000E+00; -1.0821143E+01;0;  2.4350157E+00;  9.9114932E+03;  0.0000000E+00; -4.5373658E-06;  1.0000000E+04;  0.0000000E+00;  9.9513525E+03;  1.8201245E+00;  0.0000000E+00;  6.1489105E-01;  2.2810699E+04;
  8.4019089E-01;  9.9999998E-03;  1.0025799E-01;2351;  7.2867982E-02;  0.0000000E+00;  7.0590600E-02;  1.0148930E+03;  4.0876743E-01;  1.2330756E+04;3;  1.6171568E+01;  0.0000000E+00; -1.2294056E+01;0;  2.3896313E+00;  9.9098428E+03;  0.0000000E+00; -3.6198637E-06;  1.0000000E+04;  0.0000000E+00;  9.9525977E+03;  1.8318520E+00;  0.0000000E+00;  5.5777919E-01;  2.2257840E+04;
  8.4019619E-01;  9.9999998E-03;  1.2030843E-01;2352;  7.3852018E-02;  0.0000000E+00;  8.0800630E-02;  1.0148680E+03;  4.0876800E-01;  1.2310029E+04;3;  1.5514625E+01;  0.0000000E+00; -1.2869480E+01;0;  2.3518414E+00;  9.9079150E+03;  0.0000000E+00; -1.2280276E-06;  1.0000000E+04;  0.0000000E+00;  9.9540234E+03;  1.8452342E+00;  0.0000000E+00;  5.0660741E-01;  2.1605799E+04;
  8.4020233E-01;  9.9999998E-03;  1.4035791E-01;2353;  7.4873231E-02;  0.0000000E+00;  9.0635285E-02;  1.0148398E+03;  4.0876842E-01;  1.2286735E+04;3;  1.4770665E+01;  0.0000000E+00; -1.2333979E+01;0;  2.3206906E+00;  9.9058154E+03;  0.0000000E+00;  4.0481145E-06;  1.0000000E+04;  0.0000000E+00;  9.9555469E+03;  1.8587984E+00;  0.0000000E+00;  4.6189219E-01;  2.0893580E+04;
  8.6027032E-01;  9.9999998E-03;  8.4464359E-11;2377;  1.1048296E-01;  0.0000000E+00;  3.4856686E-08;  1.0147862E+03;  4.0848148E-01;  1.2239585E+04;3;  3.0124916E+01;  0.0000000E+00;  2.4399298E-05;0;  2.3736045E+00;  9.9239854E+03;  0.0000000E+00;  1.7495740E-14;  1.0000000E+04;  0.0000000E+00;  9.9502588E+03;  1.6211520E+00;  0.0000000E+00;  7.5245249E-01;  2.3149750E+04;
  8.6027098E-01;  9.9999998E-03;  2.0053493E-02;2378;  1.1062472E-01;  0.0000000E+00;  1.6819760E-02;  1.0147873E+03;  4.0848145E-01;  1.2240473E+04;3;  3.0005484E+01;  0.0000000E+00; -2.9805691E+00;0;  2.3623993E+00;  9.9238027E+03;  0.0000000E+00; -2.3412947E-07;  1.0000000E+04;  0.0000000E+00;  9.9504619E+03;  1.6227586E+00;  0.0000000E+00;  7.3964077E-01;  2.3065041E+04;
  8.6027306E-01;  9.9999998E-03;  4.0104982E-02;2379;  1.1103363E-01;  0.0000000E+00;  3.2406695E-02;  1.0147888E+03;  4.0848154E-01;  1.2241657E+04;3;  2.9651726E+01;  0.0000000E+00; -5.7774930E+00;0;  2.3318458E+00;  9.9232646E+03;  0.0000000E+00; -7.0343884E-07;  1.0000000E+04;  0.0000000E+00;  9.9510234E+03;  1.6275784E+00;  0.0000000E+00;  7.0426750E-01;  2.2831365E+04;
  8.6027634E-01;  9.9999998E-03;  6.0153864E-02;2380;  1.1166978E-01;  0.0000000E+00;  4.6060361E-02;  1.0147848E+03;  4.0848193E-01;  1.2238399E+04;3;  2.9077604E+01;  0.0000000E+00; -8.2250118E+00;0;  2.2898133E+00;  9.9223672E+03;  0.0000000E+00; -6.3684729E-07;  1.0000000E+04;  0.0000000E+00;  9.9518340E+03;  1.6356416E+00;  0.0000000E+00;  6.5417165E-01;  2.2489436E+04;
  8.6028093E-01;  9.9999998E-03;  8.0201291E-02;2381;  1.1249045E-01;  0.0000000E+00;  5.7856072E-02;  1.0147723E+03;  4.0848222E-01;  1.2228038E+04;3;  2.8309948E+01;  0.0000000E+00; -1.0163862E+01;0;  2.2458735E+00;  9.9211230E+03;  0.0000000E+00;  7.1732728E-07;  1.0000000E+04;  0.0000000E+00;  9.9528223E+03;  1.6470363E+00;  0.0000000E+00;  5.9883720E-01;  2.2065451E+04;
  8.6028671E-01;  9.9999998E-03;  1.0024913E-01;2382;  1.1346949E-01;  0.0000000E+00;  6.8471827E-02;  1.0147502E+03;  4.0848264E-01;  1.2209782E+04;3;  2.7390265E+01;  0.0000000E+00; -1.1403091E+01;0;  2.2078228E+00;  9.9195332E+03;  0.0000000E+00;  3.1229877E-06;  1.0000000E+04;  0.0000000E+00;  9.9539629E+03;  1.6618582E+00;  0.0000000E+00;  5.4596466E-01;  2.1560217E+04;
  8.6029381E-01;  9.9999998E-03;  1.2029826E-01;2383;  1.1460771E-01;  0.0000000E+00;  7.8695178E-02;  1.0147201E+03;  4.0848300E-01;  1.2184815E+04;3;  2.6378798E+01;  0.0000000E+00; -1.1720951E+01;0;  2.1791511E+00;  9.9176377E+03;  0.0000000E+00;  6.1062751E-06;  1.0000000E+04;  0.0000000E+00;  9.9552520E+03;  1.6799178E+00;  0.0000000E+00;  4.9923313E-01;  2.0969871E+04;
  8.6030221E-01;  9.9999998E-03;  1.4034675E-01;2384;  1.1593180E-01;  0.0000000E+00;  8.8707209E-02;  1.0146821E+03;  4.0848348E-01;  1.2153336E+04;3;  2.5356243E+01;  0.0000000E+00; -1.0930264E+01;0;  2.1589632E+00;  9.9155117E+03;  0.0000000E+00;  1.1927945E-05;  1.0000000E+04;  0.0000000E+00;  9.9566270E+03;  1.7001762E+00;  0.0000000E+00;  4.5878708E-01;  2.0331178E+04;
  8.8035750E-01;  9.9999998E-03; -1.1396369E-10;2408;  1.4874972E-01;  0.0000000E+00; -1.2243058E-08;  1.0144875E+03;  4.0807313E-01;  1.1988679E+04;3;  4.1831173E+01;  0.0000000E+00;  2.6714226E-05;0;  2.1092587E+00;  9.9359180E+03;  0.0000000E+00;  1.1206904E-14;  1.0000000E+04;  0.0000000E+00;  9.9523906E+03;  1.3877616E+00;  0.0000000E+00;  7.2149694E-01;  2.2085531E+04;
  8.8035834E-01;  9.9999998E-03;  2.0050993E-02;2409;  1.4890453E-01;  0.0000000E+00;  1.6109476E-02;  1.0144883E+03;  4.0807310E-01;  1.1989368E+04;3;  4.1665192E+01;  0.0000000E+00; -2.7269638E+00;0;  2.0991740E+00;  9.9357480E+03;  0.0000000E+00; -1.6263722E-07;  1.0000000E+04;  0.0000000E+00;  9.9525752E+03;  1.3896319E+00;  0.0000000E+00;  7.0954216E-01;  2.2008250E+04;
  8.8036084E-01;  9.9999998E-03;  4.0100090E-02;2410;  1.4935257E-01;  0.0000000E+00;  3.1054910E-02;  1.0144890E+03;  4.0807328E-01;  1.1989960E+04;3;  4.1178192E+01;  0.0000000E+00; -5.2721581E+00;0;  2.0719104E+00;  9.9352480E+03;  0.0000000E+00; -5.2145617E-07;  1.0000000E+04;  0.0000000E+00;  9.9530879E+03;  1.3952886E+00;  0.0000000E+00;  6.7662185E-01;  2.1796693E+04;
  8.8036495E-01;  9.9999998E-03;  6.0146734E-02;2411;  1.5005650E-01;  0.0000000E+00;  4.4185344E-02;  1.0144844E+03;  4.0807348E-01;  1.1986111E+04;3;  4.0402004E+01;  0.0000000E+00; -7.4717541E+00;0;  2.0351305E+00;  9.9344092E+03;  0.0000000E+00; -4.2172070E-07;  1.0000000E+04;  0.0000000E+00;  9.9538213E+03;  1.4048705E+00;  0.0000000E+00;  6.3025993E-01;  2.1491355E+04;
  8.8037056E-01;  9.9999998E-03;  8.0192074E-02;2412;  1.5098561E-01;  0.0000000E+00;  5.5598993E-02;  1.0144697E+03;  4.0807378E-01;  1.1973878E+04;3;  3.9391384E+01;  0.0000000E+00; -9.1687775E+00;0;  1.9981216E+00;  9.9332373E+03;  0.0000000E+00;  4.8430553E-07;  1.0000000E+04;  0.0000000E+00;  9.9546973E+03;  1.4186329E+00;  0.0000000E+00;  5.7948875E-01;  2.1118023E+04;
  8.8037777E-01;  9.9999998E-03;  1.0023799E-01;2413;  1.5214334E-01;  0.0000000E+00;  6.5977797E-02;  1.0144440E+03;  4.0807411E-01;  1.1952667E+04;3;  3.8225376E+01;  0.0000000E+00; -1.0175881E+01;0;  1.9683940E+00;  9.9317129E+03;  0.0000000E+00;  1.2806497E-06;  1.0000000E+04;  0.0000000E+00;  9.9556982E+03;  1.4368830E+00;  0.0000000E+00;  5.3151113E-01;  2.0676285E+04;
  8.8038659E-01;  9.9999998E-03;  1.2028536E-01;2414;  1.5358172E-01;  0.0000000E+00;  7.6103754E-02;  1.0144077E+03;  4.0807450E-01;  1.1922677E+04;3;  3.7008617E+01;  0.0000000E+00; -1.0278698E+01;0;  1.9492569E+00;  9.9298555E+03;  0.0000000E+00;  1.1458083E-06;  1.0000000E+04;  0.0000000E+00;  9.9568350E+03;  1.4597428E+00;  0.0000000E+00;  4.8951405E-01;  2.0159371E+04;
  8.8039720E-01;  9.9999998E-03;  1.4033239E-01;2415;  1.5539648E-01;  0.0000000E+00;  8.6151600E-02;  1.0143599E+03;  4.0807503E-01;  1.1883116E+04;3;  3.5866772E+01;  0.0000000E+00; -9.3073282E+00;0;  1.9397869E+00;  9.9276953E+03;  0.0000000E+00;  2.8427019E-06;  1.0000000E+04;  0.0000000E+00;  9.9580430E+03;  1.4866310E+00;  0.0000000E+00;  4.5315591E-01;  1.9598326E+04;
  9.0043324E-01;  9.9999998E-03; -1.2874272E-10;2439;  1.8244386E-01;  0.0000000E+00; -6.1361147E-09;  1.0140890E+03;  4.0756360E-01;  1.1654147E+04;3;  5.2419743E+01;  0.0000000E+00;  2.1830579E-05;0;  1.7819448E+00;  9.9504873E+03;  0.0000000E+00;  1.1384662E-14;  1.0000000E+04;  0.0000000E+00;  9.9549189E+03;  1.0960681E+00;  0.0000000E+00;  6.8587655E-01;  2.0824500E+04;
  9.0043420E-01;  9.9999998E-03;  2.0048030E-02;2440;  1.8262517E-01;  0.0000000E+00;  1.5304481E-02;  1.0140902E+03;  4.0756357E-01;  1.1655134E+04;3;  5.2224232E+01;  0.0000000E+00; -2.3967392E+00;0;  1.7730899E+00;  9.9503408E+03;  0.0000000E+00; -6.6050336E-07;  1.0000000E+04;  0.0000000E+00;  9.9550850E+03;  1.0981899E+00;  0.0000000E+00;  6.7490000E-01;  2.0756713E+04;
  9.0043718E-01;  9.9999998E-03;  4.0094282E-02;2441;  1.8315372E-01;  0.0000000E+00;  2.9514028E-02;  1.0140903E+03;  4.0756357E-01;  1.1655231E+04;3;  5.1653286E+01;  0.0000000E+00; -4.6288257E+00;0;  1.7493708E+00;  9.9498896E+03;  0.0000000E+00; -2.5251115E-06;  1.0000000E+04;  0.0000000E+00;  9.9555313E+03;  1.1046095E+00;  0.0000000E+00;  6.4476138E-01;  2.0572941E+04;
  9.0044206E-01;  9.9999998E-03;  6.0138270E-02;2442;  1.8399517E-01;  0.0000000E+00;  4.2023040E-02;  1.0140841E+03;  4.0756375E-01;  1.1650103E+04;3;  5.0753925E+01;  0.0000000E+00; -6.5469961E+00;0;  1.7180605E+00;  9.9491309E+03;  0.0000000E+00; -4.8516404E-06;  1.0000000E+04;  0.0000000E+00;  9.9561689E+03;  1.1154982E+00;  0.0000000E+00;  6.0256225E-01;  2.0312109E+04;
  9.0044874E-01;  9.9999998E-03;  8.0181122E-02;2443;  1.8512763E-01;  0.0000000E+00;  5.2944589E-02;  1.0140681E+03;  4.0756389E-01;  1.1636887E+04;3;  4.9602245E+01;  0.0000000E+00; -8.0044813E+00;0;  1.6878867E+00;  9.9480547E+03;  0.0000000E+00; -7.0931005E-06;  1.0000000E+04;  0.0000000E+00;  9.9569160E+03;  1.1311499E+00;  0.0000000E+00;  5.5673683E-01;  1.9997482E+04;
  9.0045726E-01;  9.9999998E-03;  1.0022467E-01;2444;  1.8657407E-01;  0.0000000E+00;  6.2951818E-02;  1.0140405E+03;  4.0756416E-01;  1.1614008E+04;3;  4.8304813E+01;  0.0000000E+00; -8.8204050E+00;0;  1.6658027E+00;  9.9466406E+03;  0.0000000E+00; -1.0314186E-05;  1.0000000E+04;  0.0000000E+00;  9.9577725E+03;  1.1519575E+00;  0.0000000E+00;  5.1384526E-01;  1.9624986E+04;
  9.0046781E-01;  9.9999998E-03;  1.2026981E-01;2445;  1.8842021E-01;  0.0000000E+00;  7.2808594E-02;  1.0140008E+03;  4.0756464E-01;  1.1581169E+04;3;  4.6995964E+01;  0.0000000E+00; -8.7844648E+00;0;  1.6547824E+00;  9.9448740E+03;  0.0000000E+00; -1.5956934E-05;  1.0000000E+04;  0.0000000E+00;  9.9587441E+03;  1.1782759E+00;  0.0000000E+00;  4.7650647E-01;  1.9182709E+04;
  9.0048057E-01;  9.9999998E-03;  1.4031482E-01;2446;  1.9081099E-01;  0.0000000E+00;  8.2682170E-02;  1.0139472E+03;  4.0756491E-01;  1.1536891E+04;3;  4.5831436E+01;  0.0000000E+00; -7.7327390E+00;0;  1.6539440E+00;  9.9427510E+03;  0.0000000E+00; -2.2690259E-05;  1.0000000E+04;  0.0000000E+00;  9.9598057E+03;  1.2100434E+00;  0.0000000E+00;  4.4390056E-01;  1.8694266E+04;
  9.2047262E-01;  9.9999998E-03; -1.5609618E-11;2470;  2.0319739E-01;  0.0000000E+00;  5.1713398E-09;  1.0135818E+03;  4.0697899E-01;  1.1228408E+04;3;  6.1059719E+01;  0.0000000E+00;  1.7037539E-05;0;  1.4208772E+00;  9.9663203E+03;  0.0000000E+00; -3.3672846E-14;  1.0000000E+04;  0.0000000E+00;  9.9577344E+03;  7.7418041E-01;  0.0000000E+00;  6.4669687E-01;  1.9412160E+04;
  9.2047387E-01;  9.9999998E-03;  2.0044813E-02;2471;  2.0346829E-01;  0.0000000E+00;  1.4396285E-02;  1.0135827E+03;  4.0697894E-01;  1.1229197E+04;3;  6.0890282E+01;  0.0000000E+00; -2.0352764E+00;0;  1.4131689E+00;  9.9661943E+03;  0.0000000E+00; -1.2494289E-06;  1.0000000E+04;  0.0000000E+00;  9.9578760E+03;  7.7639842E-01;  0.0000000E+00;  6.3677049E-01;  1.9355008E+04;
  9.2047769E-01;  9.9999998E-03;  4.0087949E-02;2472;  2.0427151E-01;  0.0000000E+00;  2.7765131E-02;  1.0135829E+03;  4.0697911E-01;  1.1229393E+04;3;  6.0371372E+01;  0.0000000E+00; -3.9333317E+00;0;  1.3926828E+00;  9.9658145E+03;  0.0000000E+00; -4.8115380E-06;  1.0000000E+04;  0.0000000E+00;  9.9582578E+03;  7.8309548E-01;  0.0000000E+00;  6.0958737E-01;  1.9201896E+04;
  9.2048401E-01;  9.9999998E-03;  6.0128942E-02;2473;  2.0561033E-01;  0.0000000E+00;  3.9540473E-02;  1.0135776E+03;  4.0697908E-01;  1.1224955E+04;3;  5.9557251E+01;  0.0000000E+00; -5.5680871E+00;0;  1.3661408E+00;  9.9651709E+03;  0.0000000E+00; -9.7789916E-06;  1.0000000E+04;  0.0000000E+00;  9.9587900E+03;  7.9440284E-01;  0.0000000E+00;  5.7173800E-01;  1.8988703E+04;
  9.2049283E-01;  9.9999998E-03;  8.0168881E-02;2474;  2.0745844E-01;  0.0000000E+00;  4.9837284E-02;  1.0135626E+03;  4.0697938E-01;  1.1212534E+04;3;  5.8493191E+01;  0.0000000E+00; -6.8137417E+00;0;  1.3415129E+00;  9.9642510E+03;  0.0000000E+00; -1.4999794E-05;  1.0000000E+04;  0.0000000E+00;  9.9594033E+03;  8.1056434E-01;  0.0000000E+00;  5.3094864E-01;  1.8734643E+04;
  9.2050403E-01;  9.9999998E-03;  1.0020956E-01;2475;  2.0983110E-01;  0.0000000E+00;  5.9313595E-02;  1.0135369E+03;  4.0697959E-01;  1.1191342E+04;3;  5.7289745E+01;  0.0000000E+00; -7.4935112E+00;0;  1.3250277E+00;  9.9630254E+03;  0.0000000E+00; -2.0978045E-05;  1.0000000E+04;  0.0000000E+00;  9.9601133E+03;  8.3197337E-01;  0.0000000E+00;  4.9305433E-01;  1.8430449E+04;
  9.2051774E-01;  9.9999998E-03;  1.2025192E-01;2476;  2.1277753E-01;  0.0000000E+00;  6.8715379E-02;  1.0134991E+03;  4.0697974E-01;  1.1160096E+04;3;  5.6051422E+01;  0.0000000E+00; -7.3992605E+00;0;  1.3192667E+00;  9.9614512E+03;  0.0000000E+00; -2.9762021E-05;  1.0000000E+04;  0.0000000E+00;  9.9609453E+03;  8.5917366E-01;  0.0000000E+00;  4.6009299E-01;  1.8058061E+04;
  9.2053413E-01;  9.9999998E-03;  1.4029439E-01;2477;  2.1644248E-01;  0.0000000E+00;  7.8214645E-02;  1.0134469E+03;  4.0697998E-01;  1.1116923E+04;3;  5.4981434E+01;  0.0000000E+00; -6.3628135E+00;0;  1.3235289E+00;  9.9594834E+03;  0.0000000E+00; -4.3834014E-05;  1.0000000E+04;  0.0000000E+00;  9.9618711E+03;  8.9267665E-01;  0.0000000E+00;  4.3085220E-01;  1.7633266E+04;
  9.4047970E-01;  9.9999998E-03;  8.4625772E-11;2501;  2.0844355E-01;  0.0000000E+00;  3.1635171E-08;  1.0129185E+03;  4.0634805E-01;  1.0672175E+04;3;  6.4238533E+01;  0.0000000E+00;  7.5086864E-06;0;  1.0726609E+00;  9.9812207E+03;  0.0000000E+00; -7.8763688E-15;  1.0000000E+04;  0.0000000E+00;  9.9607314E+03;  4.6738511E-01;  0.0000000E+00;  6.0527581E-01;  1.7891934E+04;
  9.4048101E-01;  9.9999998E-03;  2.0041298E-02;2502;  2.0876627E-01;  0.0000000E+00;  1.3329021E-02;  1.0129196E+03;  4.0634808E-01;  1.0673158E+04;3;  6.4112549E+01;  0.0000000E+00; -1.7007375E+00;0;  1.0659559E+00;  9.9811270E+03;  0.0000000E+00; -1.2733191E-06;  1.0000000E+04;  0.0000000E+00;  9.9608486E+03;  4.6951246E-01;  0.0000000E+00;  5.9644347E-01;  1.7846098E+04;
  9.4048506E-01;  9.9999998E-03;  4.0081073E-02;2503;  2.0973907E-01;  0.0000000E+00;  2.5731659E-02;  1.0129210E+03;  4.0634814E-01;  1.0674239E+04;3;  6.3762657E+01;  0.0000000E+00; -3.2820237E+00;0;  1.0482237E+00;  9.9808340E+03;  0.0000000E+00; -5.0523472E-06;  1.0000000E+04;  0.0000000E+00;  9.9611611E+03;  4.7590929E-01;  0.0000000E+00;  5.7231444E-01;  1.7724994E+04;
  9.4049180E-01;  9.9999998E-03;  6.0118865E-02;2504;  2.1138059E-01;  0.0000000E+00;  3.6686268E-02;  1.0129171E+03;  4.0634814E-01;  1.0671086E+04;3;  6.3250416E+01;  0.0000000E+00; -4.6362491E+00;0;  1.0255023E+00;  9.9803350E+03;  0.0000000E+00; -1.0380302E-05;  1.0000000E+04;  0.0000000E+00;  9.9615850E+03;  4.8662847E-01;  0.0000000E+00;  5.3887385E-01;  1.7559863E+04;
  9.4050127E-01;  9.9999998E-03;  8.0155700E-02;2505;  2.1372049E-01;  0.0000000E+00;  4.6310008E-02;  1.0129058E+03;  4.0634826E-01;  1.0661627E+04;3;  6.2651508E+01;  0.0000000E+00; -5.6531997E+00;0;  1.0048562E+00;  9.9796143E+03;  0.0000000E+00; -1.5498592E-05;  1.0000000E+04;  0.0000000E+00;  9.9620713E+03;  5.0180584E-01;  0.0000000E+00;  5.0305039E-01;  1.7364498E+04;
  9.4051349E-01;  9.9999998E-03;  1.0019327E-01;2506;  2.1678804E-01;  0.0000000E+00;  5.5208825E-02;  1.0128852E+03;  4.0634844E-01;  1.0644683E+04;3;  6.2043503E+01;  0.0000000E+00; -6.1824188E+00;0;  9.9166942E-01;  9.9786318E+03;  0.0000000E+00; -2.0120877E-05;  1.0000000E+04;  0.0000000E+00;  9.9626475E+03;  5.2177244E-01;  0.0000000E+00;  4.6989697E-01;  1.7123752E+04;
  9.4052851E-01;  9.9999998E-03;  1.2023254E-01;2507;  2.2062287E-01;  0.0000000E+00;  6.4082950E-02;  1.0128552E+03;  4.0634844E-01;  1.0619857E+04;3;  6.1443241E+01;  0.0000000E+00; -6.0608211E+00;0;  9.8809695E-01;  9.9773369E+03;  0.0000000E+00; -2.5863674E-05;  1.0000000E+04;  0.0000000E+00;  9.9633457E+03;  5.4720300E-01;  0.0000000E+00;  4.4089395E-01;  1.6813402E+04;
  9.4054663E-01;  9.9999998E-03;  1.4027213E-01;2508;  2.2532520E-01;  0.0000000E+00;  7.3126644E-02;  1.0128109E+03;  4.0634865E-01;  1.0583314E+04;3;  6.0958721E+01;  0.0000000E+00; -5.0635290E+00;0;  9.9370974E-01;  9.9756328E+03;  0.0000000E+00; -3.7937079E-05;  1.0000000E+04;  0.0000000E+00;  9.9641660E+03;  5.7915318E-01;  0.0000000E+00;  4.1455656E-01;  1.6442076E+04;
  9.6047705E-01;  9.9999998E-03;  2.1900195E-11;2532;  2.0859684E-01;  0.0000000E+00;  1.4320890E-08;  1.0120737E+03;  4.0569788E-01;  9.9643350E+03;3;  6.4962173E+01;  0.0000000E+00;  4.9576192E-06;0;  7.7602863E-01;  9.9934629E+03;  0.0000000E+00;  1.3279084E-15;  1.0000000E+04;  0.0000000E+00;  9.9637959E+03;  2.1292359E-01;  0.0000000E+00;  5.6310505E-01;  1.6308967E+04;
  9.6047843E-01;  9.9999998E-03;  2.0037554E-02;2533;  2.0895755E-01;  0.0000000E+00;  1.2237613E-02;  1.0120750E+03;  4.0569782E-01;  9.9654170E+03;3;  6.4879814E+01;  0.0000000E+00; -1.3437579E+00;0;  7.7023381E-01;  9.9933936E+03;  0.0000000E+00; -8.0553752E-07;  1.0000000E+04;  0.0000000E+00;  9.9638857E+03;  2.1484131E-01;  0.0000000E+00;  5.5539250E-01;  1.6274725E+04;
  9.6048248E-01;  9.9999998E-03;  4.0073734E-02;2534;  2.1002391E-01;  0.0000000E+00;  2.3610299E-02;  1.0120768E+03;  4.0569797E-01;  9.9669883E+03;3;  6.4648453E+01;  0.0000000E+00; -2.6035824E+00;0;  7.5493461E-01;  9.9931895E+03;  0.0000000E+00; -3.3099302E-06;  1.0000000E+04;  0.0000000E+00;  9.9641270E+03;  2.2057861E-01;  0.0000000E+00;  5.3435600E-01;  1.6185700E+04;
  9.6048933E-01;  9.9999998E-03;  6.0108241E-02;2535;  2.1183649E-01;  0.0000000E+00;  3.3717088E-02;  1.0120751E+03;  4.0569797E-01;  9.9655088E+03;3;  6.4310219E+01;  0.0000000E+00; -3.6802585E+00;0;  7.3537874E-01;  9.9928330E+03;  0.0000000E+00; -6.7598617E-06;  1.0000000E+04;  0.0000000E+00;  9.9644453E+03;  2.3010036E-01;  0.0000000E+00;  5.0527841E-01;  1.6066841E+04;
  9.6049905E-01;  9.9999998E-03;  8.0142029E-02;2536;  2.1441616E-01;  0.0000000E+00;  4.2684313E-02;  1.0120678E+03;  4.0569803E-01;  9.9595020E+03;3;  6.3899734E+01;  0.0000000E+00; -4.4840722E+00;0;  7.1762806E-01;  9.9923076E+03;  0.0000000E+00; -9.2689279E-06;  1.0000000E+04;  0.0000000E+00;  9.9648164E+03;  2.4342293E-01;  0.0000000E+00;  4.7420514E-01;  1.5925294E+04;
  9.6051157E-01;  9.9999998E-03;  1.0017663E-01;2537;  2.1776496E-01;  0.0000000E+00;  5.1058277E-02;  1.0120538E+03;  4.0569803E-01;  9.9479834E+03;3;  6.3454327E+01;  0.0000000E+00; -4.8772268E+00;0;  7.0615757E-01;  9.9915801E+03;  0.0000000E+00; -9.5934593E-06;  1.0000000E+04;  0.0000000E+00;  9.9652705E+03;  2.6078215E-01;  0.0000000E+00;  4.4537544E-01;  1.5739979E+04;
  9.6052706E-01;  9.9999998E-03;  1.2021286E-01;2538;  2.2192439E-01;  0.0000000E+00;  5.9442028E-02;  1.0120333E+03;  4.0569812E-01;  9.9310537E+03;3;  6.3124825E+01;  0.0000000E+00; -4.6919675E+00;0;  7.0265603E-01;  9.9905762E+03;  0.0000000E+00; -7.7861732E-06;  1.0000000E+04;  0.0000000E+00;  9.9658682E+03;  2.8290689E-01;  0.0000000E+00;  4.1974917E-01;  1.5481480E+04;
  9.6054566E-01;  9.9999998E-03;  1.4024951E-01;2539;  2.2702669E-01;  0.0000000E+00;  6.8042062E-02;  1.0120005E+03;  4.0569821E-01;  9.9039873E+03;3;  6.3029404E+01;  0.0000000E+00; -3.7025480E+00;0;  7.0694947E-01;  9.9891895E+03;  0.0000000E+00; -8.4299581E-06;  1.0000000E+04;  0.0000000E+00;  9.9666006E+03;  3.1125036E-01;  0.0000000E+00;  3.9569908E-01;  1.5152784E+04;
  9.8046958E-01;  9.9999998E-03; -2.8299764E-11;2563;  2.0675814E-01;  0.0000000E+00; -7.0863311E-09;  1.0110723E+03;  4.0505368E-01;  9.1257178E+03;3;  6.5181961E+01;  0.0000000E+00;  9.4499046E-06;0;  5.4768986E-01;  1.0002403E+04;  0.0000000E+00;  1.4530073E-14;  1.0000000E+04;  0.0000000E+00;  9.9668193E+03;  2.6018091E-02;  0.0000000E+00;  5.2167177E-01;  1.4709689E+04;
  9.8047101E-01;  9.9999998E-03;  2.0033866E-02;2564;  2.0715065E-01;  0.0000000E+00;  1.1144957E-02;  1.0110732E+03;  4.0505370E-01;  9.1265029E+03;3;  6.5114700E+01;  0.0000000E+00; -1.0042411E+00;0;  5.4278064E-01;  1.0002356E+04;  0.0000000E+00; -3.4105440E-07;  1.0000000E+04;  0.0000000E+00;  9.9668828E+03;  2.7704960E-02;  0.0000000E+00;  5.1507568E-01;  1.4686683E+04;
  9.8047513E-01;  9.9999998E-03;  4.0066652E-02;2565;  2.0832568E-01;  0.0000000E+00;  2.1591801E-02;  1.0110750E+03;  4.0505365E-01;  9.1279736E+03;3;  6.4926018E+01;  0.0000000E+00; -1.9432862E+00;0;  5.2980876E-01;  1.0002217E+04;  0.0000000E+00; -1.4542885E-06;  1.0000000E+04;  0.0000000E+00;  9.9670547E+03;  3.2727223E-02;  0.0000000E+00;  4.9708155E-01;  1.4627938E+04;
  9.8048204E-01;  9.9999998E-03;  6.0098052E-02;2566;  2.1028985E-01;  0.0000000E+00;  3.0949838E-02;  1.0110746E+03;  4.0505368E-01;  9.1275742E+03;3;  6.4657829E+01;  0.0000000E+00; -2.7508864E+00;0;  5.1317471E-01;  1.0001977E+04;  0.0000000E+00; -2.7588055E-06;  1.0000000E+04;  0.0000000E+00;  9.9672813E+03;  4.0992577E-02;  0.0000000E+00;  4.7218212E-01;  1.4550691E+04;
  9.8049176E-01;  9.9999998E-03;  8.0128908E-02;2567;  2.1304148E-01;  0.0000000E+00;  3.9328858E-02;  1.0110696E+03;  4.0505382E-01;  9.1234414E+03;3;  6.4332443E+01;  0.0000000E+00; -3.3090718E+00;0;  4.9789497E-01;  1.0001611E+04;  0.0000000E+00; -2.6500327E-06;  1.0000000E+04;  0.0000000E+00;  9.9675488E+03;  5.2435536E-02;  0.0000000E+00;  4.4545943E-01;  1.4454551E+04;
  9.8050439E-01;  9.9999998E-03;  1.0016064E-01;2568;  2.1658540E-01;  0.0000000E+00;  4.7250226E-02;  1.0110609E+03;  4.0505373E-01;  9.1163584E+03;3;  6.4036430E+01;  0.0000000E+00; -3.5064993E+00;0;  4.8753667E-01;  1.0001084E+04;  0.0000000E+00;  3.2512440E-07;  1.0000000E+04;  0.0000000E+00;  9.9679063E+03;  6.7203090E-02;  0.0000000E+00;  4.2033359E-01;  1.4313377E+04;
  9.8052007E-01;  9.9999998E-03;  1.2019405E-01;2569;  2.2096185E-01;  0.0000000E+00;  5.5274881E-02;  1.0110487E+03;  4.0505373E-01;  9.1062275E+03;3;  6.3786407E+01;  0.0000000E+00; -3.2000384E+00;0;  4.8329863E-01;  1.0000320E+04;  0.0000000E+00;  6.9977164E-06;  1.0000000E+04;  0.0000000E+00;  9.9684268E+03;  8.5989766E-02;  0.0000000E+00;  3.9730886E-01;  1.4094646E+04;
  9.8053902E-01;  9.9999998E-03;  1.4022797E-01;2570;  2.2627959E-01;  0.0000000E+00;  6.3521594E-02;  1.0110262E+03;  4.0505376E-01;  9.0876445E+03;3;  6.3794453E+01;  0.0000000E+00; -2.2594492E+00;0;  4.8517725E-01;  9.9991943E+03;  0.0000000E+00;  1.5930753E-05;  1.0000000E+04;  0.0000000E+00;  9.9691035E+03;  1.1042919E-01;  0.0000000E+00;  3.7474805E-01;  1.3797814E+04;
  1.0004591E+00;  9.9999998E-03;  5.9648653E-12;2594;  2.0353641E-01;  0.0000000E+00;  4.9482596E-09;  1.0099777E+03;  4.0443644E-01;  8.2088281E+03;3;  6.4970192E+01;  0.0000000E+00;  1.6626727E-06;0;  3.8384876E-01;  1.0008333E+04;  0.0000000E+00; -1.0219471E-15;  1.0000000E+04;  0.0000000E+00;  9.9697129E+03; -9.8252706E-02;  0.0000000E+00;  4.8210147E-01;  1.3134931E+04;
  1.0004605E+00;  9.9999998E-03;  2.0030556E-02;2595;  2.0397186E-01;  0.0000000E+00;  1.0216911E-02;  1.0099785E+03;  4.0443653E-01;  8.2094150E+03;3;  6.4920753E+01;  0.0000000E+00; -6.5688854E-01;0;  3.7982586E-01;  1.0008304E+04;  0.0000000E+00; -1.9367432E-07;  1.0000000E+04;  0.0000000E+00;  9.9697549E+03; -9.6747987E-02;  0.0000000E+00;  4.7657385E-01;  1.3121813E+04;
  1.0004648E+00;  9.9999998E-03;  4.0060293E-02;2596;  2.0527203E-01;  0.0000000E+00;  1.9871973E-02;  1.0099795E+03;  4.0443641E-01;  8.2102939E+03;3;  6.4801186E+01;  0.0000000E+00; -1.2609442E+00;0;  3.6917543E-01;  1.0008207E+04;  0.0000000E+00; -6.2117982E-07;  1.0000000E+04;  0.0000000E+00;  9.9698633E+03; -9.2274770E-02;  0.0000000E+00;  4.6145019E-01;  1.3088989E+04;
  1.0004718E+00;  9.9999998E-03;  6.0089052E-02;2597;  2.0741577E-01;  0.0000000E+00;  2.8684957E-02;  1.0099784E+03;  4.0443641E-01;  8.2094053E+03;3;  6.4626167E+01;  0.0000000E+00; -1.7550009E+00;0;  3.5544002E-01;  1.0008035E+04;  0.0000000E+00; -5.5477926E-07;  1.0000000E+04;  0.0000000E+00;  9.9700098E+03; -8.4929012E-02;  0.0000000E+00;  4.4036904E-01;  1.3045187E+04;
  1.0004816E+00;  9.9999998E-03;  8.0117568E-02;2598;  2.1035793E-01;  0.0000000E+00;  3.6702670E-02;  1.0099745E+03;  4.0443641E-01;  8.2061611E+03;3;  6.4404793E+01;  0.0000000E+00; -2.1392012E+00;0;  3.4261179E-01;  1.0007768E+04;  0.0000000E+00;  9.3304408E-07;  1.0000000E+04;  0.0000000E+00;  9.9702051E+03; -7.4783072E-02;  0.0000000E+00;  4.1739488E-01;  1.2982376E+04;
  1.0004941E+00;  9.9999998E-03;  1.0014687E-01;2599;  2.1408163E-01;  0.0000000E+00;  4.4267379E-02;  1.0099686E+03;  4.0443644E-01;  8.2013447E+03;3;  6.4226318E+01;  0.0000000E+00; -2.2377279E+00;0;  3.3343041E-01;  1.0007356E+04;  0.0000000E+00;  3.0654346E-06;  1.0000000E+04;  0.0000000E+00;  9.9704990E+03; -6.1729975E-02;  0.0000000E+00;  3.9516038E-01;  1.2871418E+04;
  1.0005099E+00;  9.9999998E-03;  1.2017763E-01;2600;  2.1868083E-01;  0.0000000E+00;  5.1910643E-02;  1.0099603E+03;  4.0443626E-01;  8.1944658E+03;3;  6.4161369E+01;  0.0000000E+00; -1.8640308E+00;0;  3.2864445E-01;  1.0006730E+04;  0.0000000E+00;  4.6661462E-06;  1.0000000E+04;  0.0000000E+00;  9.9709629E+03; -4.5175247E-02;  0.0000000E+00;  3.7381971E-01;  1.2679878E+04;
  1.0005292E+00;  9.9999998E-03;  1.4020869E-01;2601;  2.2429505E-01;  0.0000000E+00;  5.9671156E-02;  1.0099439E+03;  4.0443632E-01;  8.1810132E+03;3;  6.4193031E+01;  0.0000000E+00; -8.8471454E-01;0;  3.2831395E-01;  1.0005758E+04;  0.0000000E+00;  7.1070622E-06;  1.0000000E+04;  0.0000000E+00;  9.9716055E+03; -2.3548055E-02;  0.0000000E+00;  3.5186201E-01;  1.2406480E+04;
  1.0204467E+00;  9.9999998E-03;  2.1106682E-11;2625;  1.9969340E-01;  0.0000000E+00;  5.1150022E-09;  1.0088690E+03;  4.0386271E-01;  7.2791914E+03;3;  6.4678169E+01;  0.0000000E+00; -2.8015711E-06;0;  2.6931196E-01;  1.0012021E+04;  0.0000000E+00;  1.2148470E-14;  1.0000000E+04;  0.0000000E+00;  9.9724268E+03; -1.7563964E-01;  0.0000000E+00;  4.4495162E-01;  1.1614058E+04;
  1.0204481E+00;  9.9999998E-03;  2.0027567E-02;2626;  2.0017782E-01;  0.0000000E+00;  9.3958229E-03;  1.0088691E+03;  4.0386283E-01;  7.2791895E+03;3;  6.4647247E+01;  0.0000000E+00; -3.4617990E-01;0;  2.6615489E-01;  1.0011995E+04;  0.0000000E+00; -1.2169235E-07;  1.0000000E+04;  0.0000000E+00;  9.9724482E+03; -1.7423739E-01;  0.0000000E+00;  4.4039229E-01;  1.1608451E+04;
  1.0204524E+00;  9.9999998E-03;  4.0054530E-02;2627;  2.0160733E-01;  0.0000000E+00;  1.8327564E-02;  1.0088684E+03;  4.0386280E-01;  7.2786963E+03;3;  6.4564857E+01;  0.0000000E+00; -6.7767984E-01;0;  2.5777537E-01;  1.0011920E+04;  0.0000000E+00;  1.5551689E-07;  1.0000000E+04;  0.0000000E+00;  9.9725127E+03; -1.7005186E-01;  0.0000000E+00;  4.2782721E-01;  1.1594405E+04;
  1.0204595E+00;  9.9999998E-03;  6.0080767E-02;2628;  2.0391928E-01;  0.0000000E+00;  2.6524058E-02;  1.0088661E+03;  4.0386283E-01;  7.2767324E+03;3;  6.4458061E+01;  0.0000000E+00; -9.7840381E-01;0;  2.4689578E-01;  1.0011778E+04;  0.0000000E+00;  1.9180370E-06;  1.0000000E+04;  0.0000000E+00;  9.9726035E+03; -1.6312312E-01;  0.0000000E+00;  4.1001889E-01;  1.1572465E+04;
  1.0204693E+00;  9.9999998E-03;  8.0106884E-02;2629;  2.0704408E-01;  0.0000000E+00;  3.4075078E-02;  1.0088613E+03;  4.0386289E-01;  7.2728091E+03;3;  6.4335876E+01;  0.0000000E+00; -1.1729274E+00;0;  2.3657842E-01;  1.0011538E+04;  0.0000000E+00;  4.0745745E-06;  1.0000000E+04;  0.0000000E+00;  9.9727520E+03; -1.5344481E-01;  0.0000000E+00;  3.9002323E-01;  1.1528417E+04;
  1.0204819E+00;  9.9999998E-03;  1.0013393E-01;2630;  2.1096021E-01;  0.0000000E+00;  4.1345872E-02;  1.0088550E+03;  4.0386274E-01;  7.2676108E+03;3;  6.4216301E+01;  0.0000000E+00; -1.1618469E+00;0;  2.2888401E-01;  1.0011152E+04;  0.0000000E+00;  4.4495610E-07;  1.0000000E+04;  0.0000000E+00;  9.9730137E+03; -1.4087075E-01;  0.0000000E+00;  3.6975476E-01;  1.1433190E+04;
  1.0204979E+00;  9.9999998E-03;  1.2016233E-01;2631;  2.1573770E-01;  0.0000000E+00;  4.8652198E-02;  1.0088465E+03;  4.0386271E-01;  7.2606479E+03;3;  6.4196289E+01;  0.0000000E+00; -8.0008680E-01;0;  2.2423926E-01;  1.0010544E+04;  0.0000000E+00; -1.6630365E-05;  1.0000000E+04;  0.0000000E+00;  9.9734482E+03; -1.2492346E-01;  0.0000000E+00;  3.4916273E-01;  1.1258539E+04;
  1.0205176E+00;  9.9999998E-03;  1.4019065E-01;2632;  2.2158521E-01;  0.0000000E+00;  5.5904947E-02;  1.0088293E+03;  4.0386260E-01;  7.2465396E+03;3;  6.4275070E+01;  0.0000000E+00;  1.7576739E-01;0;  2.2270292E-01;  1.0009594E+04;  0.0000000E+00; -4.4878136E-05;  1.0000000E+04;  0.0000000E+00;  9.9740635E+03; -1.0431171E-01;  0.0000000E+00;  3.2701463E-01;  1.1005520E+04;
  1.0404319E+00;  9.9999998E-03;  1.5404882E-11;2656;  1.9496778E-01;  0.0000000E+00;  2.9863572E-09;  1.0078123E+03;  4.0334427E-01;  6.3912373E+03;3;  6.4154900E+01;  0.0000000E+00; -4.7671820E-06;0;  1.8715405E-01;  1.0014237E+04;  0.0000000E+00; -3.7627795E-16;  1.0000000E+04;  0.0000000E+00;  9.9749385E+03; -2.2307745E-01;  0.0000000E+00;  4.1023150E-01;  1.0163619E+04;
  1.0404334E+00;  9.9999998E-03;  2.0024795E-02;2657;  1.9549249E-01;  0.0000000E+00;  8.5728746E-03;  1.0078117E+03;  4.0334427E-01;  6.3907476E+03;3;  6.4145844E+01;  0.0000000E+00; -1.2105228E-01;0;  1.8479377E-01;  1.0014214E+04;  0.0000000E+00;  4.8520764E-07;  1.0000000E+04;  0.0000000E+00;  9.9749512E+03; -2.2169608E-01;  0.0000000E+00;  4.0648985E-01;  1.0162282E+04;
  1.0404377E+00;  9.9999998E-03;  4.0049203E-02;2658;  1.9704215E-01;  0.0000000E+00;  1.6783576E-02;  1.0078099E+03;  4.0334427E-01;  6.3892793E+03;3;  6.4155396E+01;  0.0000000E+00; -2.6822436E-01;0;  1.7850311E-01;  1.0014133E+04;  0.0000000E+00;  2.9031355E-06;  1.0000000E+04;  0.0000000E+00;  9.9749893E+03; -2.1753632E-01;  0.0000000E+00;  3.9603943E-01;  1.0157818E+04;
  1.0404449E+00;  9.9999998E-03;  6.0073238E-02;2659;  1.9953042E-01;  0.0000000E+00;  2.4451800E-02;  1.0078055E+03;  4.0334433E-01;  6.3856626E+03;3;  6.4129211E+01;  0.0000000E+00; -3.9607358E-01;0;  1.7027017E-01;  1.0013980E+04;  0.0000000E+00;  7.8364210E-06;  1.0000000E+04;  0.0000000E+00;  9.9750518E+03; -2.1053228E-01;  0.0000000E+00;  3.8080245E-01;  1.0144340E+04;
  1.0404547E+00;  9.9999998E-03;  8.0097318E-02;2660;  2.0285405E-01;  0.0000000E+00;  3.1635951E-02;  1.0077988E+03;  4.0334424E-01;  6.3801895E+03;3;  6.4082451E+01;  0.0000000E+00; -4.2480671E-01;0;  1.6237330E-01;  1.0013716E+04;  0.0000000E+00;  9.9377694E-06;  1.0000000E+04;  0.0000000E+00;  9.9751855E+03; -2.0053148E-01;  0.0000000E+00;  3.6290479E-01;  1.0104441E+04;
  1.0404676E+00;  9.9999998E-03;  1.0012227E-01;2661;  2.0698190E-01;  0.0000000E+00;  3.8647681E-02;  1.0077899E+03;  4.0334421E-01;  6.3729580E+03;3;  6.3997997E+01;  0.0000000E+00; -1.8495910E-01;0;  1.5638593E-01;  1.0013281E+04;  0.0000000E+00; -5.5241489E-06;  1.0000000E+04;  0.0000000E+00;  9.9754424E+03; -1.8727943E-01;  0.0000000E+00;  3.4366536E-01;  1.0012905E+04;
  1.0404838E+00;  9.9999998E-03;  1.2014819E-01;2662;  2.1199103E-01;  0.0000000E+00;  4.5650765E-02;  1.0077767E+03;  4.0334412E-01;  6.3621128E+03;3;  6.3949665E+01;  0.0000000E+00;  3.8252255E-01;0;  1.5263027E-01;  1.0012591E+04;  0.0000000E+00; -5.5297685E-05;  1.0000000E+04;  0.0000000E+00;  9.9758662E+03; -1.7038593E-01;  0.0000000E+00;  3.2301620E-01;  9.8499980E+03;
  1.0405042E+00;  9.9999998E-03;  1.4017391E-01;2663;  2.1811514E-01;  0.0000000E+00;  5.2541181E-02;  1.0077529E+03;  4.0334409E-01;  6.3425845E+03;3;  6.4125099E+01;  0.0000000E+00;  1.3227540E+00;0;  1.5118879E-01;  1.0011543E+04;  0.0000000E+00; -1.3470222E-04;  1.0000000E+04;  0.0000000E+00;  9.9764453E+03; -1.4898461E-01;  0.0000000E+00;  3.0017340E-01;  9.6218740E+03;
  1.0604154E+00;  9.9999998E-03;  3.6317373E-11;2687;  1.8950960E-01;  0.0000000E+00;  1.0884301E-08;  1.0068526E+03;  4.0288770E-01;  5.5821401E+03;3;  6.3406002E+01;  0.0000000E+00;  9.8334567E-09;0;  1.2501264E-01;  1.0015501E+04;  0.0000000E+00;  1.3718402E-15;  1.0000000E+04;  0.0000000E+00;  9.9772539E+03; -2.5252479E-01;  0.0000000E+00;  3.7753743E-01;  8.7895547E+03;
  1.0604168E+00;  9.9999998E-03;  2.0022228E-02;2688;  1.9006930E-01;  0.0000000E+00;  7.7356161E-03;  1.0068515E+03;  4.0288776E-01;  5.5812642E+03;3;  6.3418468E+01;  0.0000000E+00;  1.5492587E-02;0;  1.2332061E-01;  1.0015472E+04;  0.0000000E+00;  1.8947462E-06;  1.0000000E+04;  0.0000000E+00;  9.9772617E+03; -2.5109378E-01;  0.0000000E+00;  3.7441438E-01;  8.7888994E+03;
  1.0604212E+00;  9.9999998E-03;  4.0044323E-02;2689;  1.9171172E-01;  0.0000000E+00;  1.5252351E-02;  1.0068484E+03;  4.0288773E-01;  5.5787339E+03;3;  6.3461514E+01;  0.0000000E+00;  3.2865286E-02;0;  1.1878604E-01;  1.0015379E+04;  0.0000000E+00;  7.9952051E-06;  1.0000000E+04;  0.0000000E+00;  9.9772949E+03; -2.4673527E-01;  0.0000000E+00;  3.6552131E-01;  8.7844453E+03;
  1.0604284E+00;  9.9999998E-03;  6.0066331E-02;2690;  1.9432798E-01;  0.0000000E+00;  2.2429679E-02;  1.0068423E+03;  4.0288776E-01;  5.5737715E+03;3;  6.3485710E+01;  0.0000000E+00;  1.0673331E-01;0;  1.1280686E-01;  1.0015186E+04;  0.0000000E+00;  1.6011414E-05;  1.0000000E+04;  0.0000000E+00;  9.9773672E+03; -2.3924646E-01;  0.0000000E+00;  3.5205331E-01;  8.7670645E+03;
  1.0604384E+00;  9.9999998E-03;  8.0088675E-02;2691;  1.9779493E-01;  0.0000000E+00;  2.9415429E-02;  1.0068332E+03;  4.0288776E-01;  5.5662803E+03;3;  6.3471092E+01;  0.0000000E+00;  4.4799531E-01;0;  1.0707022E-01;  1.0014847E+04;  0.0000000E+00;  1.3289770E-05;  1.0000000E+04;  0.0000000E+00;  9.9775215E+03; -2.2830044E-01;  0.0000000E+00;  3.3537066E-01;  8.7204160E+03;
  1.0604514E+00;  9.9999998E-03;  1.0011166E-01;2692;  2.0214683E-01;  0.0000000E+00;  3.6247369E-02;  1.0068192E+03;  4.0288764E-01;  5.5548037E+03;3;  6.3568108E+01;  0.0000000E+00;  8.3135325E-01;0;  1.0285556E-01;  1.0014296E+04;  0.0000000E+00; -2.4957304E-05;  1.0000000E+04;  0.0000000E+00;  9.9777900E+03; -2.1352422E-01;  0.0000000E+00;  3.1637979E-01;  8.6270059E+03;
  1.0604681E+00;  9.9999998E-03;  1.2013520E-01;2693;  2.0753157E-01;  0.0000000E+00;  4.2886756E-02;  1.0067969E+03;  4.0288770E-01;  5.5367192E+03;3;  6.3690350E+01;  0.0000000E+00;  1.3614641E+00;0;  1.0058644E-01;  1.0013451E+04;  0.0000000E+00; -1.2045975E-04;  1.0000000E+04;  0.0000000E+00;  9.9781943E+03; -1.9460151E-01;  0.0000000E+00;  2.9518795E-01;  8.4784258E+03;
  1.0604892E+00;  9.9999998E-03;  1.4015782E-01;2694;  2.1408847E-01;  0.0000000E+00;  4.9045820E-02;  1.0067603E+03;  4.0288767E-01;  5.5067817E+03;3;  6.3887333E+01;  0.0000000E+00;  2.2316527E+00;0;  1.0048313E-01;  1.0012212E+04;  0.0000000E+00; -4.0428503E-04;  1.0000000E+04;  0.0000000E+00;  9.9787012E+03; -1.7116536E-01;  0.0000000E+00;  2.7164850E-01;  8.2877256E+03;
  1.0803978E+00;  9.9999998E-03;  1.0421226E-11;2718;  1.8348727E-01;  0.0000000E+00;  6.8746289E-09;  1.0060093E+03;  4.0249580E-01;  4.8672617E+03;3;  6.2342751E+01;  0.0000000E+00;  1.1074371E-06;0;  7.6614946E-02;  1.0016048E+04;  0.0000000E+00; -1.3749062E-15;  1.0000000E+04;  0.0000000E+00;  9.9794092E+03; -2.6954389E-01;  0.0000000E+00;  3.4615883E-01;  7.4919175E+03;
  1.0803993E+00;  9.9999998E-03;  2.0020034E-02;2719;  1.8407112E-01;  0.0000000E+00;  7.0212497E-03;  1.0060081E+03;  4.0249565E-01;  4.8662939E+03;3;  6.2372078E+01;  0.0000000E+00;  1.2461814E-01;0;  7.5432330E-02;  1.0016011E+04;  0.0000000E+00;  3.3493059E-06;  1.0000000E+04;  0.0000000E+00;  9.9794238E+03; -2.6799890E-01;  0.0000000E+00;  3.4343123E-01;  7.4889883E+03;
  1.0804037E+00;  9.9999998E-03;  4.0040094E-02;2720;  1.8575884E-01;  0.0000000E+00;  1.3950855E-02;  1.0060038E+03;  4.0249574E-01;  4.8628110E+03;3;  6.2378605E+01;  0.0000000E+00;  3.8365644E-01;0;  7.2257310E-02;  1.0015877E+04;  0.0000000E+00;  1.1813800E-05;  1.0000000E+04;  0.0000000E+00;  9.9794727E+03; -2.6324287E-01;  0.0000000E+00;  3.3550018E-01;  7.4773276E+03;
  1.0804108E+00;  9.9999998E-03;  6.0060378E-02;2721;  1.8847199E-01;  0.0000000E+00;  2.0788146E-02;  1.0059957E+03;  4.0249565E-01;  4.8563296E+03;3;  6.2547024E+01;  0.0000000E+00;  6.7988551E-01;0;  6.8097562E-02;  1.0015615E+04;  0.0000000E+00;  1.6697219E-05;  1.0000000E+04;  0.0000000E+00;  9.9795742E+03; -2.5492778E-01;  0.0000000E+00;  3.2302535E-01;  7.4486567E+03;
  1.0804210E+00;  9.9999998E-03;  8.0081038E-02;2722;  1.9215880E-01;  0.0000000E+00;  2.7462099E-02;  1.0059821E+03;  4.0249565E-01;  4.8453071E+03;3;  6.2728825E+01;  0.0000000E+00;  1.0020483E+00;0;  6.4291909E-02;  1.0015168E+04;  0.0000000E+00; -4.2411807E-06;  1.0000000E+04;  0.0000000E+00;  9.9797529E+03; -2.4256320E-01;  0.0000000E+00;  3.0685511E-01;  7.3922041E+03;
  1.0804343E+00;  9.9999998E-03;  1.0010206E-01;2723;  1.9682243E-01;  0.0000000E+00;  3.3871643E-02;  1.0059598E+03;  4.0249556E-01;  4.8272295E+03;3;  6.2903233E+01;  0.0000000E+00;  1.4283271E+00;0;  6.2001437E-02;  1.0014449E+04;  0.0000000E+00; -8.2170242E-05;  1.0000000E+04;  0.0000000E+00;  9.9800273E+03; -2.2571149E-01;  0.0000000E+00;  2.8771293E-01;  7.3008843E+03;
  1.0804516E+00;  9.9999998E-03;  1.2012295E-01;2724;  2.0260322E-01;  0.0000000E+00;  3.9919056E-02;  1.0059239E+03;  4.0249568E-01;  4.7980430E+03;3;  6.3122845E+01;  0.0000000E+00;  2.0538142E+00;0;  6.1834753E-02;  1.0013382E+04;  0.0000000E+00; -2.3085639E-04;  1.0000000E+04;  0.0000000E+00;  9.9803789E+03; -2.0420650E-01;  0.0000000E+00;  2.6604125E-01;  7.1778071E+03;
  1.0804734E+00;  9.9999998E-03;  1.4014231E-01;2725;  2.0956981E-01;  0.0000000E+00;  4.5333259E-02;  1.0058699E+03;  4.0249574E-01;  4.7543672E+03;3;  6.3460743E+01;  0.0000000E+00;  2.9023740E+00;0;  6.4019471E-02;  1.0011926E+04;  0.0000000E+00; -3.2831570E-03;  1.0000000E+04;  0.0000000E+00;  9.9807529E+03; -1.7853536E-01;  0.0000000E+00;  2.4255483E-01;  7.0440747E+03;
  1.1003801E+00;  9.9999998E-03; -6.5548777E-12;2748;  1.7715827E-01;  0.0000000E+00;  2.2241458E-09;  1.0052833E+03;  4.0216655E-01;  4.2471938E+03;3;  6.1042519E+01;  0.0000000E+00;  1.3229474E-06;0;  3.9840490E-02;  1.0015926E+04;  0.0000000E+00;  5.5057734E-15;  1.0000000E+04;  0.0000000E+00;  9.9814482E+03; -2.7535674E-01;  0.0000000E+00;  3.1519723E-01;  6.2719937E+03;
  1.1003815E+00;  9.9999998E-03;  2.0018123E-02;2749;  1.7775002E-01;  0.0000000E+00;  6.4105201E-03;  1.0052817E+03;  4.0216681E-01;  4.2458501E+03;3;  6.1073982E+01;  0.0000000E+00;  2.7313033E-01;0;  3.9053977E-02;  1.0015867E+04;  0.0000000E+00;  2.7332458E-06;  1.0000000E+04;  0.0000000E+00;  9.9814688E+03; -2.7362472E-01;  0.0000000E+00;  3.1267869E-01;  6.2656982E+03;
  1.1003859E+00;  9.9999998E-03;  4.0036451E-02;2750;  1.7950100E-01;  0.0000000E+00;  1.2828087E-02;  1.0052759E+03;  4.0216672E-01;  4.2412417E+03;3;  6.1215195E+01;  0.0000000E+00;  5.7470042E-01;0;  3.6988080E-02;  1.0015676E+04;  0.0000000E+00;  5.8361111E-06;  1.0000000E+04;  0.0000000E+00;  9.9815410E+03; -2.6824966E-01;  0.0000000E+00;  3.0523774E-01;  6.2451128E+03;
  1.1003932E+00;  9.9999998E-03;  6.0055103E-02;2751;  1.8235232E-01;  0.0000000E+00;  1.9208089E-02;  1.0052639E+03;  4.0216666E-01;  4.2314541E+03;3;  6.1422138E+01;  0.0000000E+00;  9.4170672E-01;0;  3.4490436E-02;  1.0015311E+04;  0.0000000E+00; -7.7331715E-06;  1.0000000E+04;  0.0000000E+00;  9.9816689E+03; -2.5875157E-01;  0.0000000E+00;  2.9324201E-01;  6.2063540E+03;
  1.1004034E+00;  9.9999998E-03;  8.0073982E-02;2752;  1.8624553E-01;  0.0000000E+00;  2.5432726E-02;  1.0052424E+03;  4.0216672E-01;  4.2142817E+03;3;  6.1681187E+01;  0.0000000E+00;  1.4072113E+00;0;  3.2757163E-02;  1.0014687E+04;  0.0000000E+00; -6.7014233E-05;  1.0000000E+04;  0.0000000E+00;  9.9818633E+03; -2.4454662E-01;  0.0000000E+00;  2.7730379E-01;  6.1469946E+03;
  1.1004174E+00;  9.9999998E-03;  1.0009292E-01;2753;  1.9126193E-01;  0.0000000E+00;  3.1404473E-02;  1.0052067E+03;  4.0216660E-01;  4.1855078E+03;3;  6.1997944E+01;  0.0000000E+00;  1.9720808E+00;0;  3.2912523E-02;  1.0013741E+04;  0.0000000E+00; -1.9788003E-04;  1.0000000E+04;  0.0000000E+00;  9.9820967E+03; -2.2526470E-01;  0.0000000E+00;  2.5817722E-01;  6.0705879E+03;
  1.1004354E+00;  9.9999998E-03;  1.2011060E-01;2754;  1.9743790E-01;  0.0000000E+00;  3.6711633E-02;  1.0051526E+03;  4.0216666E-01;  4.1419697E+03;3;  6.2373016E+01;  0.0000000E+00;  2.6512458E+00;0;  3.5576478E-02;  1.0012419E+04;  0.0000000E+00; -1.4311047E-03;  1.0000000E+04;  0.0000000E+00;  9.9823389E+03; -2.0119897E-01;  0.0000000E+00;  2.3677544E-01;  5.9898525E+03;
  1.1004585E+00;  9.9999998E-03;  1.4012729E-01;2755;  2.0506598E-01;  0.0000000E+00;  4.1334089E-02;  1.0050809E+03;  4.0216675E-01;  4.0843362E+03;3;  6.2887722E+01;  0.0000000E+00;  3.3703856E+00;0;  4.0181786E-02;  1.0010829E+04;  0.0000000E+00; -2.0663824E-02;  1.0000000E+04;  0.0000000E+00;  9.9824971E+03; -1.7476712E-01;  0.0000000E+00;  2.1494891E-01;  5.9342896E+03;
  1.1203629E+00;  9.9999998E-03; -1.7585568E-11;2777;  1.7082858E-01;  0.0000000E+00; -2.1439436E-10;  1.0046652E+03;  4.0189707E-01;  3.7133799E+03;3;  5.9705990E+01;  0.0000000E+00;  1.6505241E-05;0;  1.4220893E-02;  1.0015091E+04;  0.0000000E+00; -1.2453482E-15;  1.0000000E+04;  0.0000000E+00;  9.9833848E+03; -2.6965421E-01;  0.0000000E+00;  2.8387511E-01;  5.1404194E+03;
  1.1203643E+00;  9.9999998E-03;  2.0016495E-02;2778;  1.7142779E-01;  0.0000000E+00;  5.8207456E-03;  1.0046622E+03;  4.0189704E-01;  3.7109099E+03;3;  5.9639965E+01;  0.0000000E+00;  2.4135111E-01;0;  1.3852268E-02;  1.0015004E+04;  0.0000000E+00; -2.8492821E-06;  1.0000000E+04;  0.0000000E+00;  9.9834150E+03; -2.6763108E-01;  0.0000000E+00;  2.8148335E-01;  5.1321514E+03;
  1.1203687E+00;  9.9999998E-03;  4.0033195E-02;2779;  1.7324089E-01;  0.0000000E+00;  1.1732166E-02;  1.0046523E+03;  4.0189710E-01;  3.7030247E+03;3;  5.9806961E+01;  0.0000000E+00;  6.8120092E-01;0;  1.3022214E-02;  1.0014719E+04;  0.0000000E+00; -1.9296816E-05;  1.0000000E+04;  0.0000000E+00;  9.9834980E+03; -2.6134646E-01;  0.0000000E+00;  2.7436867E-01;  5.1075537E+03;
  1.1203761E+00;  9.9999998E-03;  6.0050070E-02;2780;  1.7621182E-01;  0.0000000E+00;  1.7628510E-02;  1.0046323E+03;  4.0189725E-01;  3.6870686E+03;3;  6.0095013E+01;  0.0000000E+00;  1.2006307E+00;0;  1.2522012E-02;  1.0014188E+04;  0.0000000E+00; -7.0898444E-05;  1.0000000E+04;  0.0000000E+00;  9.9836289E+03; -2.5027740E-01;  0.0000000E+00;  2.6279941E-01;  5.0683169E+03;
  1.1203870E+00;  9.9999998E-03;  8.0067113E-02;2781;  1.8036996E-01;  0.0000000E+00;  2.3409206E-02;  1.0045976E+03;  4.0189710E-01;  3.6594346E+03;3;  6.0473225E+01;  0.0000000E+00;  1.7631167E+00;0;  1.3466164E-02;  1.0013341E+04;  0.0000000E+00; -1.8260920E-04;  1.0000000E+04;  0.0000000E+00;  9.9837822E+03; -2.3391141E-01;  0.0000000E+00;  2.4737757E-01;  5.0201851E+03;
  1.1204013E+00;  9.9999998E-03;  1.0008313E-01;2782;  1.8573216E-01;  0.0000000E+00;  2.8637763E-02;  1.0045437E+03;  4.0189710E-01;  3.6165171E+03;3;  6.0961010E+01;  0.0000000E+00;  2.4061730E+00;0;  1.6782075E-02;  1.0012132E+04;  0.0000000E+00; -1.3137687E-03;  1.0000000E+04;  0.0000000E+00;  9.9839150E+03; -2.1230125E-01;  0.0000000E+00;  2.2908333E-01;  4.9753320E+03;
  1.1204203E+00;  9.9999998E-03;  1.2009814E-01;2783;  1.9249117E-01;  0.0000000E+00;  3.3094548E-02;  1.0044712E+03;  4.0189722E-01;  3.5587891E+03;3;  6.1544716E+01;  0.0000000E+00;  2.9737995E+00;0;  2.2235468E-02;  1.0010636E+04;  0.0000000E+00; -1.5168436E-02;  1.0000000E+04;  0.0000000E+00;  9.9839658E+03; -1.8730149E-01;  0.0000000E+00;  2.0953695E-01;  4.9542451E+03;
  1.1204445E+00;  9.9999998E-03;  1.4011092E-01;2784;  2.0071116E-01;  0.0000000E+00;  3.6594510E-02;  1.0043904E+03;  4.0189704E-01;  3.4944106E+03;3;  6.2370464E+01;  0.0000000E+00;  3.6900446E+00;0;  2.7884617E-02;  1.0009143E+04;  0.0000000E+00; -8.5700870E-02;  1.0000000E+04;  0.0000000E+00;  9.9838457E+03; -1.6338086E-01;  0.0000000E+00;  1.9126548E-01;  4.9907178E+03;
  1.1403470E+00;  9.9999998E-03;  8.7126816E-12;2805;  1.6478409E-01;  0.0000000E+00;  2.4016489E-09;  1.0041317E+03;  4.0168083E-01;  3.2465916E+03;3;  5.8147079E+01;  0.0000000E+00; -6.1748651E-06;0; -1.3852119E-04;  1.0013413E+04;  0.0000000E+00; -5.9678985E-15;  1.0000000E+04;  0.0000000E+00;  9.9851992E+03; -2.5214589E-01;  0.0000000E+00;  2.5200737E-01;  4.1198916E+03;
  1.1403484E+00;  9.9999998E-03;  2.0014914E-02;2806;  1.6537416E-01;  0.0000000E+00;  5.2546449E-03;  1.0041260E+03;  4.0168071E-01;  3.2421855E+03;3;  5.8147972E+01;  0.0000000E+00;  3.2832786E-01;0;  5.5268407E-05;  1.0013281E+04;  0.0000000E+00; -1.4015950E-05;  1.0000000E+04;  0.0000000E+00;  9.9852266E+03; -2.4972710E-01;  0.0000000E+00;  2.4978237E-01;  4.1126021E+03;
  1.1403530E+00;  9.9999998E-03;  4.0029876E-02;2807;  1.6722776E-01;  0.0000000E+00;  1.0632988E-02;  1.0041089E+03;  4.0168080E-01;  3.2286860E+03;3;  5.8299770E+01;  0.0000000E+00;  8.0681062E-01;0;  8.7328255E-04;  1.0012875E+04;  0.0000000E+00; -6.3146857E-05;  1.0000000E+04;  0.0000000E+00;  9.9852900E+03; -2.4228945E-01;  0.0000000E+00;  2.4316274E-01;  4.0925430E+03;
  1.1403606E+00;  9.9999998E-03;  6.0044974E-02;2808;  1.7036925E-01;  0.0000000E+00;  1.6032279E-02;  1.0040764E+03;  4.0168080E-01;  3.2030955E+03;3;  5.8693153E+01;  0.0000000E+00;  1.3968759E+00;0;  2.9733330E-03;  1.0012141E+04;  0.0000000E+00; -2.6100033E-04;  1.0000000E+04;  0.0000000E+00;  9.9853721E+03; -2.2947566E-01;  0.0000000E+00;  2.3244900E-01;  4.0656819E+03;
  1.1403717E+00;  9.9999998E-03;  8.0059417E-02;2809;  1.7478266E-01;  0.0000000E+00;  2.1048667E-02;  1.0040255E+03;  4.0168083E-01;  3.1630723E+03;3;  5.9225216E+01;  0.0000000E+00;  2.0191770E+00;0;  7.0670545E-03;  1.0011067E+04;  0.0000000E+00; -2.5529894E-03;  1.0000000E+04;  0.0000000E+00;  9.9854238E+03; -2.1137290E-01;  0.0000000E+00;  2.1843995E-01;  4.0438462E+03;
  1.1403869E+00;  9.9999998E-03;  1.0007304E-01;2810;  1.8063815E-01;  0.0000000E+00;  2.5403878E-02;  1.0039556E+03;  4.0168071E-01;  3.1081467E+03;3;  5.9885780E+01;  0.0000000E+00;  2.5130310E+00;0;  1.3077408E-02;  1.0009720E+04;  0.0000000E+00; -1.8154483E-02;  1.0000000E+04;  0.0000000E+00;  9.9853809E+03; -1.8947437E-01;  0.0000000E+00;  2.0255178E-01;  4.0451003E+03;
  1.1404068E+00;  9.9999998E-03;  1.2008442E-01;2811;  1.8794703E-01;  0.0000000E+00;  2.8758673E-02;  1.0038754E+03;  4.0168083E-01;  3.0450627E+03;3;  6.0778046E+01;  0.0000000E+00;  3.1465573E+00;0;  1.9503638E-02;  1.0008318E+04;  0.0000000E+00; -8.2016662E-02;  1.0000000E+04;  0.0000000E+00;  9.9851768E+03; -1.6728202E-01;  0.0000000E+00;  1.8678565E-01;  4.0949185E+03;
  1.1404330E+00;  9.9999998E-03;  1.4009492E-01;2812;  1.9689544E-01;  0.0000000E+00;  3.1253837E-02;  1.0038013E+03;  4.0168086E-01;  2.9868376E+03;3;  6.2095177E+01;  0.0000000E+00;  3.5466623E+00;0;  2.3388356E-02;  1.0007220E+04;  0.0000000E+00; -2.5943452E-01;  1.0000000E+04;  0.0000000E+00;  9.9847959E+03; -1.4980939E-01;  0.0000000E+00;  1.7319775E-01;  4.2531167E+03;
  1.1603328E+00;  9.9999998E-03;  1.1717787E-11;2832;  1.5921612E-01;  0.0000000E+00;  2.8140941E-09;  1.0036541E+03;  4.0151110E-01;  2.8241804E+03;3;  5.6616749E+01;  0.0000000E+00; -5.6983481E-06;0; -3.4012049E-03;  1.0010737E+04;  0.0000000E+00; -5.0412669E-15;  1.0000000E+04;  0.0000000E+00;  9.9868066E+03; -2.2364463E-01;  0.0000000E+00;  2.2024342E-01;  3.2373105E+03;
  1.1603343E+00;  9.9999998E-03;  2.0013200E-02;2833;  1.5982002E-01;  0.0000000E+00;  4.6775374E-03;  1.0036458E+03;  4.0151104E-01;  2.8177271E+03;3;  5.6666210E+01;  0.0000000E+00;  4.3274224E-01;0; -2.5270879E-03;  1.0010567E+04;  0.0000000E+00; -6.1122439E-05;  1.0000000E+04;  0.0000000E+00;  9.9868115E+03; -2.2083460E-01;  0.0000000E+00;  2.1830751E-01;  3.2336970E+03;
  1.1603389E+00;  9.9999998E-03;  4.0026262E-02;2834;  1.6174166E-01;  0.0000000E+00;  9.4522107E-03;  1.0036203E+03;  4.0151104E-01;  2.7979983E+03;3;  5.6835205E+01;  0.0000000E+00;  8.8126868E-01;0;  1.2773275E-04;  1.0010047E+04;  0.0000000E+00; -9.7450404E-04;  1.0000000E+04;  0.0000000E+00;  9.9868232E+03; -2.1248771E-01;  0.0000000E+00;  2.1261545E-01;  3.2255459E+03;
  1.1603467E+00;  9.9999998E-03;  6.0039088E-02;2835;  1.6504039E-01;  0.0000000E+00;  1.4074551E-02;  1.0035768E+03;  4.0151104E-01;  2.7643496E+03;3;  5.7310276E+01;  0.0000000E+00;  1.4741071E+00;0;  4.6399087E-03;  1.0009197E+04;  0.0000000E+00; -6.4576576E-03;  1.0000000E+04;  0.0000000E+00;  9.9867998E+03; -1.9901833E-01;  0.0000000E+00;  2.0365824E-01;  3.2213052E+03;
  1.1603585E+00;  9.9999998E-03;  8.0051348E-02;2836;  1.6985202E-01;  0.0000000E+00;  1.8252693E-02;  1.0035157E+03;  4.0151116E-01;  2.7171477E+03;3;  5.8077656E+01;  0.0000000E+00;  1.9733030E+00;0;  1.0705590E-02;  1.0008096E+04;  0.0000000E+00; -2.9490283E-02;  1.0000000E+04;  0.0000000E+00;  9.9866826E+03; -1.8183403E-01;  0.0000000E+00;  1.9253962E-01;  3.2359897E+03;
  1.1603745E+00;  9.9999998E-03;  1.0006163E-01;2837;  1.7615412E-01;  0.0000000E+00;  2.1446245E-02;  1.0034434E+03;  4.0151110E-01;  2.6611838E+03;3;  5.9039558E+01;  0.0000000E+00;  2.4957886E+00;0;  1.7131850E-02;  1.0006911E+04;  0.0000000E+00; -1.0017712E-01;  1.0000000E+04;  0.0000000E+00;  9.9864248E+03; -1.6361347E-01;  0.0000000E+00;  1.8074532E-01;  3.2927388E+03;
  1.1603962E+00;  9.9999998E-03;  1.2007093E-01;2838;  1.8409757E-01;  0.0000000E+00;  2.3824394E-02;  1.0033732E+03;  4.0151116E-01;  2.6068665E+03;3;  6.0436649E+01;  0.0000000E+00;  2.8608911E+00;0;  2.1387786E-02;  1.0005938E+04;  0.0000000E+00; -2.7308601E-01;  1.0000000E+04;  0.0000000E+00;  9.9859990E+03; -1.4841489E-01;  0.0000000E+00;  1.6980268E-01;  3.4449443E+03;
  1.1604247E+00;  9.9999998E-03;  1.4008076E-01;2839;  1.9389232E-01;  0.0000000E+00;  2.6020892E-02;  1.0033242E+03;  4.0151131E-01;  2.5690256E+03;3;  6.2415874E+01;  0.0000000E+00;  3.2360988E+00;0;  2.0586789E-02;  1.0005513E+04;  0.0000000E+00; -6.0795748E-01;  1.0000000E+04;  0.0000000E+00;  9.9854463E+03; -1.4018142E-01;  0.0000000E+00;  1.6076821E-01;  3.8299590E+03;
  1.1803205E+00;  9.9999998E-03;  5.3478051E-12;2858;  1.5435073E-01;  0.0000000E+00;  2.3429707E-09;  1.0032141E+03;  4.0138063E-01;  2.4325317E+03;3;  5.5279739E+01;  0.0000000E+00;  2.9148650E-06;0;  1.8463135E-03;  1.0007191E+04;  0.0000000E+00; -4.2098431E-15;  1.0000000E+04;  0.0000000E+00;  9.9880732E+03; -1.8813758E-01;  0.0000000E+00;  1.8998389E-01;  2.5126243E+03;
  1.1803221E+00;  9.9999998E-03;  2.0011162E-02;2859;  1.5497811E-01;  0.0000000E+00;  4.0017245E-03;  1.0032043E+03;  4.0138075E-01;  2.4251294E+03;3;  5.5379490E+01;  0.0000000E+00;  4.9258074E-01;0;  3.1755567E-03;  1.0007013E+04;  0.0000000E+00; -1.5260992E-03;  1.0000000E+04;  0.0000000E+00;  9.9880527E+03; -1.8537723E-01;  0.0000000E+00;  1.8855278E-01;  2.5139163E+03;
  1.1803268E+00;  9.9999998E-03;  4.0022250E-02;2860;  1.5700355E-01;  0.0000000E+00;  7.9818778E-03;  1.0031751E+03;  4.0138078E-01;  2.4030117E+03;3;  5.5625282E+01;  0.0000000E+00;  8.5593742E-01;0;  6.8750083E-03;  1.0006506E+04;  0.0000000E+00; -1.1209791E-02;  1.0000000E+04;  0.0000000E+00;  9.9879805E+03; -1.7758383E-01;  0.0000000E+00;  1.8445884E-01;  2.5207051E+03;
  1.1803350E+00;  9.9999998E-03;  6.0032800E-02;2861;  1.6057059E-01;  0.0000000E+00;  1.1774312E-02;  1.0031299E+03;  4.0138063E-01;  2.3687954E+03;3;  5.6294292E+01;  0.0000000E+00;  1.3664113E+00;0;  1.2190416E-02;  1.0005760E+04;  0.0000000E+00; -4.4701654E-02;  1.0000000E+04;  0.0000000E+00;  9.9878252E+03; -1.6618526E-01;  0.0000000E+00;  1.7837568E-01;  2.5426265E+03;
  1.1803476E+00;  9.9999998E-03;  8.0042265E-02;2862;  1.6565257E-01;  0.0000000E+00;  1.4755436E-02;  1.0030743E+03;  4.0138075E-01;  2.3266289E+03;3;  5.7238369E+01;  0.0000000E+00;  1.7578748E+00;0;  1.7685547E-02;  1.0004928E+04;  0.0000000E+00; -1.3224496E-01;  1.0000000E+04;  0.0000000E+00;  9.9875449E+03; -1.5364324E-01;  0.0000000E+00;  1.7132878E-01;  2.6014226E+03;
  1.1803652E+00;  9.9999998E-03;  1.0005084E-01;2863;  1.7247900E-01;  0.0000000E+00;  1.7055079E-02;  1.0030188E+03;  4.0138072E-01;  2.2846304E+03;3;  5.8736034E+01;  0.0000000E+00;  2.1159575E+00;0;  2.1195129E-02;  1.0004254E+04;  0.0000000E+00; -3.1820464E-01;  1.0000000E+04;  0.0000000E+00;  9.9871143E+03; -1.4307940E-01;  0.0000000E+00;  1.6427453E-01;  2.7506492E+03;
  1.1803889E+00;  9.9999998E-03;  1.2005962E-01;2864;  1.8115368E-01;  0.0000000E+00;  1.9194143E-02;  1.0029795E+03;  4.0138078E-01;  2.2547961E+03;3;  6.0795609E+01;  0.0000000E+00;  2.5131655E+00;0;  2.0158991E-02;  1.0004018E+04;  0.0000000E+00; -6.5132654E-01;  1.0000000E+04;  0.0000000E+00;  9.9865645E+03; -1.3774519E-01;  0.0000000E+00;  1.5790418E-01;  3.1082551E+03;
  1.1804209E+00;  9.9999998E-03;  1.4007072E-01;2865;  1.9183041E-01;  0.0000000E+00;  2.1413369E-02;  1.0029683E+03;  4.0138078E-01;  2.2462322E+03;3;  6.3889359E+01;  0.0000000E+00;  2.7364624E+00;0;  1.3249844E-02;  1.0004399E+04;  0.0000000E+00; -1.1484870E+00;  1.0000000E+04;  0.0000000E+00;  9.9859619E+03; -1.3904507E-01;  0.0000000E+00;  1.5229492E-01;  3.8139805E+03;
  1.2003103E+00;  9.9999998E-03;  9.0816365E-12;2882;  1.5026473E-01;  0.0000000E+00;  3.6947270E-09;  1.0028152E+03;  4.0128252E-01;  2.0756848E+03;3;  5.4340355E+01;  0.0000000E+00; -1.4387188E-06;0;  9.8784715E-03;  1.0003316E+04;  0.0000000E+00; -6.9992471E-15;  1.0000000E+04;  0.0000000E+00;  9.9888770E+03; -1.5334766E-01;  0.0000000E+00;  1.6322613E-01;  1.9495543E+03;
  1.2003119E+00;  9.9999998E-03;  2.0009136E-02;2883;  1.5101112E-01;  0.0000000E+00;  3.1932557E-03;  1.0028067E+03;  4.0128258E-01;  2.0694392E+03;3;  5.4668343E+01;  0.0000000E+00;  3.8277116E-01;0;  1.1137649E-02;  1.0003194E+04;  0.0000000E+00; -8.7223789E-03;  1.0000000E+04;  0.0000000E+00;  9.9888369E+03; -1.5135558E-01;  0.0000000E+00;  1.6249323E-01;  1.9549562E+03;
  1.2003170E+00;  9.9999998E-03;  4.0018067E-02;2884;  1.5313192E-01;  0.0000000E+00;  6.2732766E-03;  1.0027830E+03;  4.0128255E-01;  2.0519329E+03;3;  5.4955280E+01;  0.0000000E+00;  7.5701839E-01;0;  1.4422610E-02;  1.0002859E+04;  0.0000000E+00; -4.6675548E-02;  1.0000000E+04;  0.0000000E+00;  9.9886943E+03; -1.4606068E-01;  0.0000000E+00;  1.6048329E-01;  1.9748240E+03;
  1.2003261E+00;  9.9999998E-03;  6.0026623E-02;2885;  1.5691927E-01;  0.0000000E+00;  8.9261644E-03;  1.0027503E+03;  4.0128264E-01;  2.0278226E+03;3;  5.5868401E+01;  0.0000000E+00;  9.9631500E-01;0;  1.8124491E-02;  1.0002458E+04;  0.0000000E+00; -1.4609441E-01;  1.0000000E+04;  0.0000000E+00;  9.9884404E+03; -1.3960811E-01;  0.0000000E+00;  1.5773261E-01;  2.0263514E+03;
  1.2003400E+00;  9.9999998E-03;  8.0034599E-02;2886;  1.6241567E-01;  0.0000000E+00;  1.1063658E-02;  1.0027185E+03;  4.0128258E-01;  2.0043146E+03;3;  5.7252270E+01;  0.0000000E+00;  1.2957871E+00;0;  1.9882783E-02;  1.0002197E+04;  0.0000000E+00; -3.4966767E-01;  1.0000000E+04;  0.0000000E+00;  9.9880674E+03; -1.3485806E-01;  0.0000000E+00;  1.5474084E-01;  2.1616143E+03;
  1.2003596E+00;  9.9999998E-03;  1.0004281E-01;2887;  1.6970503E-01;  0.0000000E+00;  1.3144389E-02;  1.0027001E+03;  4.0128264E-01;  1.9907228E+03;3;  5.9414314E+01;  0.0000000E+00;  1.6960186E+00;0;  1.7340302E-02;  1.0002312E+04;  0.0000000E+00; -6.9393849E-01;  1.0000000E+04;  0.0000000E+00;  9.9875869E+03; -1.3446282E-01;  0.0000000E+00;  1.5180312E-01;  2.4846853E+03;
  1.2003871E+00;  9.9999998E-03;  1.2005369E-01;2888;  1.7920938E-01;  0.0000000E+00;  1.5547557E-02;  1.0027020E+03;  4.0128261E-01;  1.9920497E+03;3;  6.2550861E+01;  0.0000000E+00;  1.9297888E+00;0;  1.0074660E-02;  1.0002920E+04;  0.0000000E+00; -1.1881106E+00;  1.0000000E+04;  0.0000000E+00;  9.9870176E+03; -1.3901043E-01;  0.0000000E+00;  1.4908509E-01;  3.0988740E+03;
  1.2004262E+00;  9.9999998E-03;  1.4006919E-01;2889;  1.9113742E-01;  0.0000000E+00;  1.8505104E-02;  1.0027045E+03;  4.0128255E-01;  1.9937830E+03;3;  6.6743378E+01;  0.0000000E+00;  2.0265477E+00;0;  3.1469911E-03;  1.0003679E+04;  0.0000000E+00; -1.7949709E+00;  1.0000000E+04;  0.0000000E+00;  9.9863184E+03; -1.4382319E-01;  0.0000000E+00;  1.4697018E-01;  3.9940615E+03;
  1.2203028E+00;  9.9999998E-03;  9.2368621E-12;2905;  1.4699832E-01;  0.0000000E+00;  7.1996813E-09;  1.0024781E+03;  4.0121022E-01;  1.7701660E+03;3;  5.4771141E+01;  0.0000000E+00; -7.4862328E-08;0;  1.4215037E-02;  9.9998809E+03;  0.0000000E+00;  5.2167933E-15;  1.0000000E+04;  0.0000000E+00;  9.9891934E+03; -1.2748778E-01;  0.0000000E+00;  1.4170282E-01;  1.5334886E+03;
  1.2203047E+00;  9.9999998E-03;  2.0007806E-02;2906;  1.4778171E-01;  0.0000000E+00;  2.2994610E-03;  1.0024743E+03;  4.0121031E-01;  1.7674351E+03;3;  5.4670544E+01;  0.0000000E+00;  1.0733178E-01;0;  1.4886200E-02;  9.9998584E+03;  0.0000000E+00; -2.3758311E-02;  1.0000000E+04;  0.0000000E+00;  9.9891406E+03; -1.2675247E-01;  0.0000000E+00;  1.4163867E-01;  1.5414503E+03;
  1.2203107E+00;  9.9999998E-03;  4.0015373E-02;2907;  1.5019347E-01;  0.0000000E+00;  4.4247247E-03;  1.0024654E+03;  4.0121031E-01;  1.7610306E+03;3;  5.5467361E+01;  0.0000000E+00;  2.2630700E-01;0;  1.6048148E-02;  9.9998477E+03;  0.0000000E+00; -1.1208906E-01;  1.0000000E+04;  0.0000000E+00;  9.9889775E+03; -1.2547484E-01;  0.0000000E+00;  1.4152299E-01;  1.5732349E+03;
  1.2203211E+00;  9.9999998E-03;  6.0022708E-02;2908;  1.5421955E-01;  0.0000000E+00;  6.2384508E-03;  1.0024598E+03;  4.0121025E-01;  1.7569968E+03;3;  5.6546959E+01;  0.0000000E+00;  4.6981466E-01;0;  1.5635207E-02;  9.9999951E+03;  0.0000000E+00; -3.0581242E-01;  1.0000000E+04;  0.0000000E+00;  9.9887119E+03; -1.2580478E-01;  0.0000000E+00;  1.4143999E-01;  1.6663561E+03;
  1.2203374E+00;  9.9999998E-03;  8.0031157E-02;2909;  1.6009718E-01;  0.0000000E+00;  8.1992019E-03;  1.0024658E+03;  4.0121028E-01;  1.7612046E+03;3;  5.8574123E+01;  0.0000000E+00;  8.2439685E-01;0;  1.1238292E-02;  1.0000477E+04;  0.0000000E+00; -6.4430499E-01;  1.0000000E+04;  0.0000000E+00;  9.9883525E+03; -1.3025528E-01;  0.0000000E+00;  1.4149357E-01;  1.9109736E+03;
  1.2203621E+00;  9.9999998E-03;  1.0004273E-01;2910;  1.6822742E-01;  0.0000000E+00;  1.0827628E-02;  1.0024811E+03;  4.0121034E-01;  1.7721130E+03;3;  6.1633137E+01;  0.0000000E+00;  9.8128486E-01;0;  3.8434714E-03;  1.0001279E+04;  0.0000000E+00; -1.1365430E+00;  1.0000000E+04;  0.0000000E+00;  9.9878613E+03; -1.3831113E-01;  0.0000000E+00;  1.4215460E-01;  2.4033689E+03;
  1.2203984E+00;  9.9999998E-03;  1.2005889E-01;2911;  1.7936455E-01;  0.0000000E+00;  1.4328735E-02;  1.0024732E+03;  4.0121028E-01;  1.7663821E+03;3;  6.5921089E+01;  0.0000000E+00;  1.0359809E+00;0;  2.2446811E-03;  1.0001859E+04;  0.0000000E+00; -1.7493576E+00;  1.0000000E+04;  0.0000000E+00;  9.9871309E+03; -1.4227335E-01;  0.0000000E+00;  1.4451803E-01;  3.1423730E+03;
  1.2204453E+00;  9.9999998E-03;  1.4007753E-01;2912;  1.9303453E-01;  0.0000000E+00;  1.8186990E-02;  1.0024002E+03;  4.0121019E-01;  1.7140529E+03;3;  7.2075142E+01;  0.0000000E+00;  1.3122070E+00;0;  1.8763483E-02;  1.0001413E+04;  0.0000000E+00; -2.3638127E+00;  1.0000000E+04;  0.0000000E+00;  9.9861260E+03; -1.2991108E-01;  0.0000000E+00;  1.4867456E-01;  3.9548735E+03;
  1.2403014E+00;  9.9999998E-03;  1.1320597E-11;2926;  1.4463051E-01;  0.0000000E+00;  9.5963397E-09;  1.0022344E+03;  4.0115815E-01;  1.5373889E+03;3;  5.6127228E+01;  0.0000000E+00; -1.9625877E-06;0;  9.8695084E-03;  9.9977275E+03;  0.0000000E+00;  2.5424609E-14;  1.0000000E+04;  0.0000000E+00;  9.9890850E+03; -1.1607661E-01;  0.0000000E+00;  1.2594612E-01;  1.2445642E+03;
  1.2403038E+00;  9.9999998E-03;  2.0008102E-02;2927;  1.4562489E-01;  0.0000000E+00;  1.6888469E-03;  1.0022366E+03;  4.0115812E-01;  1.5388578E+03;3;  5.6618317E+01;  0.0000000E+00; -2.9942816E-01;0;  9.7815022E-03;  9.9978223E+03;  0.0000000E+00; -4.1221686E-02;  1.0000000E+04;  0.0000000E+00;  9.9890332E+03; -1.1655165E-01;  0.0000000E+00;  1.2633315E-01;  1.2540468E+03;
  1.2403115E+00;  9.9999998E-03;  4.0016185E-02;2928;  1.4825064E-01;  0.0000000E+00;  3.1039550E-03;  1.0022437E+03;  4.0115800E-01;  1.5436730E+03;3;  5.7256035E+01;  0.0000000E+00; -2.9368395E-01;0;  8.3609521E-03;  9.9981162E+03;  0.0000000E+00; -1.8255565E-01;  1.0000000E+04;  0.0000000E+00;  9.9888848E+03; -1.1897944E-01;  0.0000000E+00;  1.2734039E-01;  1.2954413E+03;
  1.2403259E+00;  9.9999998E-03;  6.0025878E-02;2929;  1.5279867E-01;  0.0000000E+00;  4.9977358E-03;  1.0022560E+03;  4.0115806E-01;  1.5521580E+03;3;  5.8771076E+01;  0.0000000E+00; -2.5340468E-01;0;  4.5425519E-03;  9.9986104E+03;  0.0000000E+00; -4.6359420E-01;  1.0000000E+04;  0.0000000E+00;  9.9886396E+03; -1.2465037E-01;  0.0000000E+00;  1.2919292E-01;  1.4237910E+03;
  1.2403495E+00;  9.9999998E-03;  8.0038942E-02;2930;  1.5985388E-01;  0.0000000E+00;  7.9380414E-03;  1.0022571E+03;  4.0115809E-01;  1.5528223E+03;3;  6.1481606E+01;  0.0000000E+00; -2.9134256E-01;0;  2.0128638E-03;  9.9990605E+03;  0.0000000E+00; -9.1658914E-01;  1.0000000E+04;  0.0000000E+00;  9.9882119E+03; -1.3105498E-01;  0.0000000E+00;  1.3306785E-01;  1.7377783E+03;
  1.2403829E+00;  9.9999998E-03;  1.0005458E-01;2931;  1.6967282E-01;  0.0000000E+00;  1.1605892E-02;  1.0022188E+03;  4.0115818E-01;  1.5263112E+03;3;  6.5721970E+01;  0.0000000E+00; -1.2088537E-01;0;  9.5712841E-03;  9.9989883E+03;  0.0000000E+00; -1.5134106E+00;  1.0000000E+04;  0.0000000E+00;  9.9875273E+03; -1.3014212E-01;  0.0000000E+00;  1.3971341E-01;  2.2719126E+03;
  1.2404228E+00;  9.9999998E-03;  1.2007067E-01;2932;  1.8149211E-01;  0.0000000E+00;  1.4985314E-02;  1.0021296E+03;  4.0115815E-01;  1.4648522E+03;3;  7.1649551E+01;  0.0000000E+00;  1.8325037E-01;0;  3.1742543E-02;  9.9981064E+03;  0.0000000E+00; -2.0870039E+00;  1.0000000E+04;  0.0000000E+00;  9.9866318E+03; -1.1494005E-01;  0.0000000E+00;  1.4668259E-01;  2.8553552E+03;
  1.2404634E+00;  9.9999998E-03;  1.4008549E-01;2933;  1.9356439E-01;  0.0000000E+00;  1.7624417E-02;  1.0020145E+03;  4.0115818E-01;  1.3856090E+03;3;  7.9674644E+01;  0.0000000E+00;  9.6280313E-01;0;  6.3530572E-02;  9.9967051E+03;  0.0000000E+00; -2.2787855E+00;  1.0000000E+04;  0.0000000E+00;  9.9857432E+03; -8.5538186E-02;  0.0000000E+00;  1.4906876E-01;  3.0835967E+03;
  1.2603245E+00;  9.9999998E-03;  9.9776723E-12;2944;  1.4340964E-01;  0.0000000E+00;  5.6763989E-09;  1.0019678E+03;  4.0112120E-01;  1.2970142E+03;3;  5.9087364E+01;  0.0000000E+00; -1.0843796E-05;0; -2.8844178E-04;  9.9946406E+03;  0.0000000E+00; -2.0357983E-14;  1.0000000E+04;  0.0000000E+00;  9.9886992E+03; -1.1538678E-01;  0.0000000E+00;  1.1509834E-01;  9.8646051E+02;
  1.2603278E+00;  9.9999998E-03;  2.0011328E-02;2945;  1.4474386E-01;  0.0000000E+00;  2.0683180E-03;  1.0019655E+03;  4.0112126E-01;  1.2955116E+03;3;  5.9595562E+01;  0.0000000E+00; -1.2017831E+00;0;  2.2071376E-03;  9.9946572E+03;  0.0000000E+00; -5.2368794E-02;  1.0000000E+04;  0.0000000E+00;  9.9886406E+03; -1.1380496E-01;  0.0000000E+00;  1.1601210E-01;  9.9395831E+02;
  1.2603378E+00;  9.9999998E-03;  4.0023312E-02;2946;  1.4817926E-01;  0.0000000E+00;  4.2608487E-03;  1.0019578E+03;  4.0112135E-01;  1.2903750E+03;3;  6.0361973E+01;  0.0000000E+00; -1.5032710E+00;0;  6.8305507E-03;  9.9946836E+03;  0.0000000E+00; -2.2664787E-01;  1.0000000E+04;  0.0000000E+00;  9.9884541E+03; -1.1203110E-01;  0.0000000E+00;  1.1886165E-01;  1.0323563E+03;
  1.2603550E+00;  9.9999998E-03;  6.0036950E-02;2947;  1.5381438E-01;  0.0000000E+00;  6.9032200E-03;  1.0019371E+03;  4.0112129E-01;  1.2766541E+03;3;  6.2686493E+01;  0.0000000E+00; -1.6615398E+00;0;  1.4338575E-02;  9.9946309E+03;  0.0000000E+00; -5.5427521E-01;  1.0000000E+04;  0.0000000E+00;  9.9881006E+03; -1.1001913E-01;  0.0000000E+00;  1.2435771E-01;  1.1596691E+03;
  1.2603780E+00;  9.9999998E-03;  8.0051102E-02;2948;  1.6105776E-01;  0.0000000E+00;  9.3500298E-03;  1.0019022E+03;  4.0112117E-01;  1.2536467E+03;3;  6.6377731E+01;  0.0000000E+00; -1.6043811E+00;0;  2.3550719E-02;  9.9944912E+03;  0.0000000E+00; -1.0084078E+00;  1.0000000E+04;  0.0000000E+00;  9.9875508E+03; -1.0778613E-01;  0.0000000E+00;  1.3133685E-01;  1.4275857E+03;
  1.2604049E+00;  9.9999998E-03;  1.0006449E-01;2949;  1.7007253E-01;  0.0000000E+00;  1.1651049E-02;  1.0018582E+03;  4.0112132E-01;  1.2245035E+03;3;  7.2252708E+01;  0.0000000E+00; -1.0013735E+00;0;  4.1220106E-02;  9.9942676E+03;  0.0000000E+00; -1.4169014E+00;  1.0000000E+04;  0.0000000E+00;  9.9868955E+03; -9.6280791E-02;  0.0000000E+00;  1.3750090E-01;  1.7300985E+03;
  1.2604336E+00;  9.9999998E-03;  1.2007573E-01;2950;  1.7950472E-01;  0.0000000E+00;  1.3247662E-02;  1.0018245E+03;  4.0112126E-01;  1.2022715E+03;3;  7.9611298E+01;  0.0000000E+00; -2.7606350E-01;0;  5.5977702E-02;  9.9940977E+03;  0.0000000E+00; -1.4521819E+00;  1.0000000E+04;  0.0000000E+00;  9.9863926E+03; -8.1095204E-02;  0.0000000E+00;  1.3707291E-01;  1.7874783E+03;
  1.2604624E+00;  9.9999998E-03;  1.4008652E-01;2951;  1.8933596E-01;  0.0000000E+00;  1.5450561E-02;  1.0017997E+03;  4.0112120E-01;  1.1858546E+03;3;  8.8931053E+01;  0.0000000E+00;  1.1993409E+00;0;  8.0378905E-02;  9.9939521E+03;  0.0000000E+00; -8.0537164E-01;  1.0000000E+04;  0.0000000E+00;  9.9860459E+03; -5.4222148E-02;  0.0000000E+00;  1.3460106E-01;  1.4406124E+03;
  1.2803499E+00;  9.9999998E-03;  1.6228503E-11;2959;  1.4103353E-01;  0.0000000E+00;  5.9850769E-09;  1.0016247E+03;  4.0109566E-01;  1.0213775E+03;3;  6.3875473E+01;  0.0000000E+00; -1.4026009E-05;0; -1.8784054E-02;  9.9895830E+03;  0.0000000E+00; -1.1989097E-14;  1.0000000E+04;  0.0000000E+00;  9.9881992E+03; -1.2623324E-01;  0.0000000E+00;  1.0744918E-01;  7.0037506E+02;
  1.2803519E+00;  9.9999998E-03;  2.0012667E-02;2960;  1.4240274E-01;  0.0000000E+00;  2.1689376E-03;  1.0016345E+03;  4.0109560E-01;  1.0275175E+03;3;  6.4437378E+01;  0.0000000E+00; -1.6834280E+00;0; -1.2999862E-02;  9.9898291E+03;  0.0000000E+00; -3.7091248E-02;  1.0000000E+04;  0.0000000E+00;  9.9881426E+03; -1.2168776E-01;  0.0000000E+00;  1.0868790E-01;  7.1289587E+02;
  1.2803580E+00;  9.9999998E-03;  4.0026382E-02;2961;  1.4600238E-01;  0.0000000E+00;  4.2761895E-03;  1.0016606E+03;  4.0109566E-01;  1.0439139E+03;3;  6.6307022E+01;  0.0000000E+00; -2.3438430E+00;0; -9.2604756E-04;  9.9905508E+03;  0.0000000E+00; -1.5242121E-01;  1.0000000E+04;  0.0000000E+00;  9.9879512E+03; -1.1318891E-01;  0.0000000E+00;  1.1226287E-01;  7.5710004E+02;
  1.2803687E+00;  9.9999998E-03;  6.0040906E-02;2962;  1.5135001E-01;  0.0000000E+00;  5.9980936E-03;  1.0016931E+03;  4.0109563E-01;  1.0642700E+03;3;  6.9442345E+01;  0.0000000E+00; -2.5159063E+00;0;  1.1718266E-02;  9.9915605E+03;  0.0000000E+00; -3.2947338E-01;  1.0000000E+04;  0.0000000E+00;  9.9875859E+03; -1.0518630E-01;  0.0000000E+00;  1.1690456E-01;  8.4300110E+02;
  1.2803836E+00;  9.9999998E-03;  8.0054402E-02;2963;  1.5780810E-01;  0.0000000E+00;  7.4151442E-03;  1.0017291E+03;  4.0109551E-01;  1.0869364E+03;3;  7.3994888E+01;  0.0000000E+00; -2.2250910E+00;0;  1.9655548E-02;  9.9927510E+03;  0.0000000E+00; -4.6030080E-01;  1.0000000E+04;  0.0000000E+00;  9.9871123E+03; -1.0026322E-01;  0.0000000E+00;  1.1991876E-01;  9.4376379E+02;
  1.2804031E+00;  9.9999998E-03;  1.0006624E-01;2964;  1.6560094E-01;  0.0000000E+00;  9.2396783E-03;  1.0017476E+03;  4.0109563E-01;  1.0984987E+03;3;  8.0560677E+01;  0.0000000E+00; -1.2878087E+00;0;  3.4424260E-02;  9.9935439E+03;  0.0000000E+00; -3.2528618E-01;  1.0000000E+04;  0.0000000E+00;  9.9866885E+03; -8.6953133E-02;  0.0000000E+00;  1.2137739E-01;  9.7373535E+02;
  1.2804229E+00;  9.9999998E-03;  1.2007456E-01;2965;  1.7326081E-01;  0.0000000E+00;  1.0653965E-02;  1.0018275E+03;  4.0109563E-01;  1.1486473E+03;3;  8.8577522E+01;  0.0000000E+00; -2.0913661E-01;0;  3.2571286E-02;  9.9950762E+03;  0.0000000E+00;  2.8020871E-01;  1.0000000E+04;  0.0000000E+00;  9.9867549E+03; -8.2857959E-02;  0.0000000E+00;  1.1542924E-01;  1.0063588E+03;
  1.3003418E+00;  9.9999998E-03;  1.2580530E-11;2970;  1.3666180E-01;  0.0000000E+00;  6.5113794E-09;  1.0017689E+03;  4.0107825E-01;  1.0577435E+03;3;  7.3163643E+01;  0.0000000E+00; -6.3819753E-06;0; -6.1441936E-02;  9.9938057E+03;  0.0000000E+00; -2.6513915E-14;  1.0000000E+04;  0.0000000E+00;  9.9877129E+03; -1.6304113E-01;  0.0000000E+00;  1.0159919E-01;  7.0290454E+02;
  1.3003435E+00;  9.9999998E-03;  2.0012427E-02;2971;  1.3773745E-01;  0.0000000E+00;  7.8484527E-04;  1.0017816E+03;  4.0107816E-01;  1.0653665E+03;3;  7.3202065E+01;  0.0000000E+00; -2.1696095E+00;0; -5.6527510E-02;  9.9940918E+03;  0.0000000E+00;  7.1756174E-03;  1.0000000E+04;  0.0000000E+00;  9.9876797E+03; -1.5842164E-01;  0.0000000E+00;  1.0189413E-01;  7.1417206E+02;
  1.3003489E+00;  9.9999998E-03;  4.0026106E-02;2972;  1.4109111E-01;  0.0000000E+00;  2.0339815E-03;  1.0018137E+03;  4.0107828E-01;  1.0845990E+03;3;  7.4449982E+01;  0.0000000E+00; -3.2083366E+00;0; -4.2813182E-02;  9.9948789E+03;  0.0000000E+00;  4.7418568E-02;  1.0000000E+04;  0.0000000E+00;  9.9875391E+03; -1.4561428E-01;  0.0000000E+00;  1.0280110E-01;  7.4855280E+02;
  1.3003579E+00;  9.9999998E-03;  6.0040645E-02;2973;  1.4598793E-01;  0.0000000E+00;  3.4323034E-03;  1.0018510E+03;  4.0107813E-01;  1.1068146E+03;3;  7.7574303E+01;  0.0000000E+00; -3.2027924E+00;0; -2.9980026E-02;  9.9959316E+03;  0.0000000E+00;  1.8377554E-01;  1.0000000E+04;  0.0000000E+00;  9.9872285E+03; -1.3333699E-01;  0.0000000E+00;  1.0335696E-01;  8.0952441E+02;
  1.3003703E+00;  9.9999998E-03;  8.0054216E-02;2974;  1.5165225E-01;  0.0000000E+00;  5.1200455E-03;  1.0018903E+03;  4.0107805E-01;  1.1303025E+03;3;  8.2258926E+01;  0.0000000E+00; -2.5782201E+00;0; -2.4677105E-02;  9.9971475E+03;  0.0000000E+00;  5.1819515E-01;  1.0000000E+04;  0.0000000E+00;  9.9867949E+03; -1.2793066E-01;  0.0000000E+00;  1.0325355E-01;  9.1796027E+02;
 -3.4046843E-06;  9.9999998E-03;  1.6000028E-01;1053; -2.4789933E-03;  0.0000000E+00;  2.1216302E-04;  1.0000724E+03;  4.0000001E-01;  5.9948914E+01;3; -1.7693281E+00;  0.0000000E+00;  1.6164953E-01;0; -4.7649212E-02;  1.0001506E+04;  0.0000000E+00; -4.6911177E-09;  1.0000000E+04;  0.0000000E+00;  9.9999453E+03; -4.9487650E-02;  0.0000000E+00;  1.8384389E-03;  3.1078573E+01;
 -3.3135479E-06;  9.9999998E-03;  1.8000036E-01;1054; -2.4124081E-03;  0.0000000E+00;  2.7306136E-04;  1.0000701E+03;  4.0000001E-01;  5.8072422E+01;3; -1.7204852E+00;  0.0000000E+00;  2.0396984E-01;0; -4.6164334E-02;  1.0001458E+04;  0.0000000E+00; -5.7311049E-09;  1.0000000E+04;  0.0000000E+00;  9.9999414E+03; -4.8050590E-02;  0.0000000E+00;  1.8862548E-03;  3.1729790E+01;
 -3.1737056E-06;  9.9999998E-03;  2.0000046E-01;1055; -2.3095834E-03;  0.0000000E+00;  3.3831928E-04;  1.0000670E+03;  4.0000001E-01;  5.5504593E+01;3; -1.6490712E+00;  0.0000000E+00;  2.4922949E-01;0; -4.4116281E-02;  1.0001393E+04;  0.0000000E+00;  8.0436582E-09;  1.0000000E+04;  0.0000000E+00;  9.9999492E+03; -4.5813940E-02;  0.0000000E+00;  1.6976610E-03;  2.9031839E+01;
 -2.9711141E-06;  9.9999998E-03;  2.2000055E-01;1056; -2.1601566E-03;  0.0000000E+00;  4.0697487E-04;  1.0000630E+03;  4.0000001E-01;  5.2146664E+01;3; -1.5519114E+00;  0.0000000E+00;  2.9842097E-01;0; -4.1382026E-02;  1.0001296E+04;  0.0000000E+00;  1.8720606E-08;  1.0000000E+04;  0.0000000E+00;  9.9999639E+03; -4.2551361E-02;  0.0000000E+00;  1.1693352E-03;  2.1489761E+01;
 -2.6968603E-06;  9.9999998E-03;  2.4000065E-01;1057; -1.9571297E-03;  0.0000000E+00;  4.7033688E-04;  1.0000576E+03;  4.0000001E-01;  4.7702347E+01;3; -1.4270439E+00;  0.0000000E+00;  3.4835362E-01;0; -3.7820064E-02;  1.0001161E+04;  0.0000000E+00; -5.2364837E-09;  1.0000000E+04;  0.0000000E+00;  9.9999922E+03; -3.8090605E-02;  0.0000000E+00;  2.7054222E-04;  8.6202793E+00;
 -2.3446805E-06;  9.9999998E-03;  2.6000071E-01;1058; -1.6976771E-03;  0.0000000E+00;  5.1911600E-04;  1.0000507E+03;  4.0000001E-01;  4.1974113E+01;3; -1.2724895E+00;  0.0000000E+00;  3.9368451E-01;0; -3.3319890E-02;  1.0000991E+04;  0.0000000E+00; -1.1038289E-07;  1.0000000E+04;  0.0000000E+00;  1.0000025E+04; -3.2422382E-02;  0.0000000E+00; -8.9750922E-04;  8.1878319E+00;
 -1.9276167E-06;  9.9999998E-03;  2.8000075E-01;1059; -1.3914353E-03;  0.0000000E+00;  5.3831632E-04;  1.0000425E+03;  4.0000001E-01;  3.5258255E+01;3; -1.0860436E+00;  0.0000000E+00;  4.2485583E-01;0; -2.7877290E-02;  1.0000788E+04;  0.0000000E+00; -3.0930195E-07;  1.0000000E+04;  0.0000000E+00;  1.0000063E+04; -2.5820591E-02;  0.0000000E+00; -2.0566983E-03;  2.5056528E+01;
  1.9995136E-02;  9.9999998E-03;  1.6000038E-01;1083; -3.5123064E-03;  0.0000000E+00;  2.8493814E-04;  1.0000863E+03;  4.0000001E-01;  7.1504143E+01;3; -2.2494912E+00;  0.0000000E+00;  1.9748461E-01;0; -5.5989955E-02;  1.0001803E+04;  0.0000000E+00;  1.8575754E-08;  1.0000000E+04;  0.0000000E+00;  9.9999258E+03; -5.8398876E-02;  0.0000000E+00;  2.4089213E-03;  4.0738026E+01;
  1.9995254E-02;  9.9999998E-03;  1.8000050E-01;1084; -3.4270647E-03;  0.0000000E+00;  3.6324904E-04;  1.0000837E+03;  4.0000001E-01;  6.9331360E+01;3; -2.1925321E+00;  0.0000000E+00;  2.4584153E-01;0; -5.4400899E-02;  1.0001755E+04;  0.0000000E+00;  4.2739607E-08;  1.0000000E+04;  0.0000000E+00;  9.9999238E+03; -5.6875624E-02;  0.0000000E+00;  2.4747271E-03;  4.1745823E+01;
  1.9995444E-02;  9.9999998E-03;  2.0000061E-01;1085; -3.2877580E-03;  0.0000000E+00;  4.4912260E-04;  1.0000804E+03;  4.0000001E-01;  6.6664772E+01;3; -2.1064782E+00;  0.0000000E+00;  2.9895252E-01;0; -5.2186809E-02;  1.0001682E+04;  0.0000000E+00;  8.8920643E-08;  1.0000000E+04;  0.0000000E+00;  9.9999297E+03; -5.4427475E-02;  0.0000000E+00;  2.2406634E-03;  3.8425602E+01;
  1.9995729E-02;  9.9999998E-03;  2.2000074E-01;1086; -3.0792626E-03;  0.0000000E+00;  5.3370674E-04;  1.0000759E+03;  4.0000001E-01;  6.2911793E+01;3; -1.9892049E+00;  0.0000000E+00;  3.5293400E-01;0; -4.9195118E-02;  1.0001569E+04;  0.0000000E+00;  1.5150822E-07;  1.0000000E+04;  0.0000000E+00;  9.9999492E+03; -5.0768733E-02;  0.0000000E+00;  1.5736131E-03;  2.8798559E+01;
  1.9996127E-02;  9.9999998E-03;  2.4000084E-01;1087; -2.7869234E-03;  0.0000000E+00;  6.0473423E-04;  1.0000698E+03;  4.0000001E-01;  5.7776134E+01;3; -1.8372512E+00;  0.0000000E+00;  4.0474677E-01;0; -4.5241691E-02;  1.0001412E+04;  0.0000000E+00;  1.7356726E-07;  1.0000000E+04;  0.0000000E+00;  9.9999854E+03; -4.5670807E-02;  0.0000000E+00;  4.2911479E-04;  1.2151688E+01;
  1.9996654E-02;  9.9999998E-03;  2.6000091E-01;1088; -2.4000863E-03;  0.0000000E+00;  6.5007224E-04;  1.0000621E+03;  4.0000001E-01;  5.1455326E+01;3; -1.6426330E+00;  0.0000000E+00;  4.4839430E-01;0; -4.0174294E-02;  1.0001211E+04;  0.0000000E+00;  8.2208111E-08;  1.0000000E+04;  0.0000000E+00;  1.0000031E+04; -3.9098524E-02;  0.0000000E+00; -1.0757715E-03;  9.8739796E+00;
  1.9997310E-02;  9.9999998E-03;  2.8000093E-01;1089; -1.9220962E-03;  0.0000000E+00;  6.5506279E-04;  1.0000527E+03;  4.0000001E-01;  4.3653080E+01;3; -1.3885188E+00;  0.0000000E+00;  4.7629380E-01;0; -3.3965286E-02;  1.0000973E+04;  0.0000000E+00; -1.3893295E-07;  1.0000000E+04;  0.0000000E+00;  1.0000078E+04; -3.1359322E-02;  0.0000000E+00; -2.6059640E-03;  3.2488811E+01;
  1.9998077E-02;  9.9999998E-03;  3.0000100E-01;1090; -1.3644868E-03;  0.0000000E+00;  7.0447847E-04;  1.0000415E+03;  4.0000001E-01;  3.4369392E+01;3; -1.0509584E+00;  0.0000000E+00;  5.5090189E-01;0; -2.6807198E-02;  1.0000718E+04;  0.0000000E+00; -3.9745586E-07;  1.0000000E+04;  0.0000000E+00;  1.0000114E+04; -2.3173170E-02;  0.0000000E+00; -3.6340286E-03;  4.8254856E+01;
  3.9993260E-02;  9.9999998E-03;  1.6000046E-01;1114; -4.8271320E-03;  0.0000000E+00;  3.3088255E-04;  1.0000988E+03;  4.0000001E-01;  8.1874214E+01;3; -2.8197103E+00;  0.0000000E+00;  2.1167512E-01;0; -6.3004866E-02;  1.0002070E+04;  0.0000000E+00;  3.7367549E-08;  1.0000000E+04;  0.0000000E+00;  9.9999092E+03; -6.5876432E-02;  0.0000000E+00;  2.8715665E-03;  4.9366211E+01;
  3.9993405E-02;  9.9999998E-03;  1.8000059E-01;1115; -4.7215857E-03;  0.0000000E+00;  4.1745606E-04;  1.0000964E+03;  4.0000001E-01;  7.9898964E+01;3; -2.7537298E+00;  0.0000000E+00;  2.5900850E-01;0; -6.1441075E-02;  1.0002026E+04;  0.0000000E+00;  7.5710190E-08;  1.0000000E+04;  0.0000000E+00;  9.9999063E+03; -6.4398058E-02;  0.0000000E+00;  2.9569825E-03;  5.0819748E+01;
  3.9993655E-02;  9.9999998E-03;  2.0000072E-01;1116; -4.5417096E-03;  0.0000000E+00;  5.1021733E-04;  1.0000930E+03;  4.0000001E-01;  7.7034843E+01;3; -2.6526675E+00;  0.0000000E+00;  3.0920112E-01;0; -5.9203230E-02;  1.0001947E+04;  0.0000000E+00;  1.3099425E-07;  1.0000000E+04;  0.0000000E+00;  9.9999131E+03; -6.1901845E-02;  0.0000000E+00;  2.6986147E-03;  4.7167267E+01;
  3.9994039E-02;  9.9999998E-03;  2.2000085E-01;1117; -4.2625037E-03;  0.0000000E+00;  6.0131680E-04;  1.0000882E+03;  4.0000001E-01;  7.3084343E+01;3; -2.5136523E+00;  0.0000000E+00;  3.6073542E-01;0; -5.6099914E-02;  1.0001830E+04;  0.0000000E+00;  1.9594020E-07;  1.0000000E+04;  0.0000000E+00;  9.9999375E+03; -5.8035500E-02;  0.0000000E+00;  1.9355853E-03;  3.5935234E+01;
  3.9994583E-02;  9.9999998E-03;  2.4000096E-01;1118; -3.8638634E-03;  0.0000000E+00;  6.7181385E-04;  1.0000817E+03;  4.0000001E-01;  6.7751160E+01;3; -2.3355522E+00;  0.0000000E+00;  4.0748501E-01;0; -5.1890403E-02;  1.0001655E+04;  0.0000000E+00;  2.0925734E-07;  1.0000000E+04;  0.0000000E+00;  9.9999785E+03; -5.2496035E-02;  0.0000000E+00;  6.0563127E-04;  1.6105463E+01;
  3.9995324E-02;  9.9999998E-03;  2.6000103E-01;1119; -3.3271047E-03;  0.0000000E+00;  7.2034070E-04;  1.0000731E+03;  4.0000001E-01;  6.0541489E+01;3; -2.1048450E+00;  0.0000000E+00;  4.5299959E-01;0; -4.6363138E-02;  1.0001427E+04;  0.0000000E+00;  9.2552007E-08;  1.0000000E+04;  0.0000000E+00;  1.0000034E+04; -4.5193523E-02;  0.0000000E+00; -1.1696132E-03;  1.0564842E+01;
  3.9996237E-02;  9.9999998E-03;  2.8000107E-01;1120; -2.6660590E-03;  0.0000000E+00;  7.3571596E-04;  1.0000623E+03;  4.0000001E-01;  5.1554089E+01;3; -1.8025541E+00;  0.0000000E+00;  4.9390006E-01;0; -3.9455239E-02;  1.0001151E+04;  0.0000000E+00; -1.6162471E-07;  1.0000000E+04;  0.0000000E+00;  1.0000094E+04; -3.6435060E-02;  0.0000000E+00; -3.0201776E-03;  3.8598221E+01;
  3.9997302E-02;  9.9999998E-03;  3.0000111E-01;1121; -1.8975122E-03;  0.0000000E+00;  7.6944754E-04;  1.0000497E+03;  4.0000001E-01;  4.1184013E+01;3; -1.3882728E+00;  0.0000000E+00;  5.6561017E-01;0; -3.1405684E-02;  1.0000856E+04;  0.0000000E+00; -3.9724253E-07;  1.0000000E+04;  0.0000000E+00;  1.0000140E+04; -2.7043547E-02;  0.0000000E+00; -4.3621371E-03;  5.9473114E+01;
  5.9991084E-02;  9.9999998E-03;  1.6000050E-01;1145; -6.3183927E-03;  0.0000000E+00;  3.5146301E-04;  1.0001120E+03;  4.0000001E-01;  9.2836868E+01;3; -3.4467196E+00;  0.0000000E+00;  2.1223038E-01;0; -6.9785543E-02;  1.0002349E+04;  0.0000000E+00;  4.2746318E-08;  1.0000000E+04;  0.0000000E+00;  9.9998955E+03; -7.2965935E-02;  0.0000000E+00;  3.1803953E-03;  5.6545662E+01;
  5.9991255E-02;  9.9999998E-03;  1.8000063E-01;1146; -6.1950060E-03;  0.0000000E+00;  4.4084620E-04;  1.0001097E+03;  4.0000001E-01;  9.0960373E+01;3; -3.3719878E+00;  0.0000000E+00;  2.5586161E-01;0; -6.8342589E-02;  1.0002305E+04;  0.0000000E+00;  6.4110907E-08;  1.0000000E+04;  0.0000000E+00;  9.9998916E+03; -7.1629718E-02;  0.0000000E+00;  3.2871319E-03;  5.8538879E+01;
  5.9991561E-02;  9.9999998E-03;  2.0000078E-01;1147; -5.9756357E-03;  0.0000000E+00;  5.3765340E-04;  1.0001063E+03;  4.0000001E-01;  8.8096260E+01;3; -3.2557402E+00;  0.0000000E+00;  3.0239794E-01;0; -6.6168882E-02;  1.0002230E+04;  0.0000000E+00;  7.9929158E-08;  1.0000000E+04;  0.0000000E+00;  9.9998975E+03; -6.9201291E-02;  0.0000000E+00;  3.0324105E-03;  5.4930962E+01;
  5.9992041E-02;  9.9999998E-03;  2.2000092E-01;1148; -5.6262789E-03;  0.0000000E+00;  6.3145906E-04;  1.0001014E+03;  4.0000001E-01;  8.3948227E+01;3; -3.0968549E+00;  0.0000000E+00;  3.4940171E-01;0; -6.3023157E-02;  1.0002105E+04;  0.0000000E+00;  5.3006040E-08;  1.0000000E+04;  0.0000000E+00;  9.9999238E+03; -6.5252125E-02;  0.0000000E+00;  2.2289660E-03;  4.2729851E+01;
  5.9992749E-02;  9.9999998E-03;  2.4000104E-01;1149; -5.1173596E-03;  0.0000000E+00;  7.0373435E-04;  1.0000944E+03;  4.0000001E-01;  7.8220001E+01;3; -2.8946557E+00;  0.0000000E+00;  3.9253271E-01;0; -5.8594931E-02;  1.0001916E+04;  0.0000000E+00; -7.0789902E-08;  1.0000000E+04;  0.0000000E+00;  9.9999717E+03; -5.9384845E-02;  0.0000000E+00;  7.8991253E-04;  2.0495949E+01;
  5.9993707E-02;  9.9999998E-03;  2.6000112E-01;1150; -4.4272994E-03;  0.0000000E+00;  7.5131864E-04;  1.0000848E+03;  4.0000001E-01;  7.0318985E+01;3; -2.6379869E+00;  0.0000000E+00;  4.3431497E-01;0; -5.2601993E-02;  1.0001659E+04;  0.0000000E+00; -3.3706954E-07;  1.0000000E+04;  0.0000000E+00;  1.0000035E+04; -5.1428784E-02;  0.0000000E+00; -1.1732082E-03;  1.0079271E+01;
  5.9994906E-02;  9.9999998E-03;  2.8000116E-01;1151; -3.5695382E-03;  0.0000000E+00;  7.6544535E-04;  1.0000728E+03;  4.0000001E-01;  6.0245201E+01;3; -2.2951913E+00;  0.0000000E+00;  4.7588420E-01;0; -4.4952080E-02;  1.0001346E+04;  0.0000000E+00; -2.8280301E-06;  1.0000000E+04;  0.0000000E+00;  1.0000104E+04; -4.1678198E-02;  0.0000000E+00; -3.2738838E-03;  4.3001068E+01;
  5.9996333E-02;  9.9999998E-03;  3.0000120E-01;1152; -2.5545424E-03;  0.0000000E+00;  8.1009557E-04;  1.0000582E+03;  4.0000001E-01;  4.8196159E+01;3; -1.7981625E+00;  0.0000000E+00;  5.6128454E-01;0; -3.5939217E-02;  1.0001004E+04;  0.0000000E+00; -9.2059618E-06;  1.0000000E+04;  0.0000000E+00;  1.0000160E+04; -3.1067278E-02;  0.0000000E+00; -4.8719374E-03;  6.8540810E+01;
  7.9988644E-02;  9.9999998E-03;  1.6000052E-01;1176; -7.9438090E-03;  0.0000000E+00;  3.5141333E-04;  1.0001271E+03;  4.0000001E-01;  1.0528096E+02;3; -4.1402197E+00;  0.0000000E+00;  2.0435518E-01;0; -7.7315979E-02;  1.0002656E+04;  0.0000000E+00;  2.9090932E-08;  1.0000000E+04;  0.0000000E+00;  9.9998867E+03; -8.0656447E-02;  0.0000000E+00;  3.3404704E-03;  6.2510967E+01;
  7.9988830E-02;  9.9999998E-03;  1.8000066E-01;1177; -7.8079584E-03;  0.0000000E+00;  4.4119556E-04;  1.0001251E+03;  4.0000001E-01;  1.0370075E+02;3; -4.0576644E+00;  0.0000000E+00;  2.4449612E-01;0; -7.6063477E-02;  1.0002623E+04;  0.0000000E+00;  1.4298054E-08;  1.0000000E+04;  0.0000000E+00;  9.9998779E+03; -7.9530314E-02;  0.0000000E+00;  3.4668376E-03;  6.5099983E+01;
  7.9989187E-02;  9.9999998E-03;  2.0000081E-01;1178; -7.5558890E-03;  0.0000000E+00;  5.3765904E-04;  1.0001217E+03;  4.0000001E-01;  1.0083664E+02;3; -3.9278526E+00;  0.0000000E+00;  2.8597134E-01;0; -7.4006535E-02;  1.0002549E+04;  0.0000000E+00; -8.7026827E-08;  1.0000000E+04;  0.0000000E+00;  9.9998877E+03; -7.7246040E-02;  0.0000000E+00;  3.2395055E-03;  6.1864052E+01;
  7.9989761E-02;  9.9999998E-03;  2.2000097E-01;1179; -7.1427873E-03;  0.0000000E+00;  6.3184201E-04;  1.0001169E+03;  4.0000001E-01;  9.6787369E+01;3; -3.7504432E+00;  0.0000000E+00;  3.2770425E-01;0; -7.0841745E-02;  1.0002423E+04;  0.0000000E+00; -3.5562886E-07;  1.0000000E+04;  0.0000000E+00;  9.9999131E+03; -7.3288411E-02;  0.0000000E+00;  2.4466650E-03;  4.9271030E+01;
  7.9990625E-02;  9.9999998E-03;  2.4000108E-01;1180; -6.5291165E-03;  0.0000000E+00;  7.0300419E-04;  1.0001092E+03;  4.0000001E-01;  9.0466560E+01;3; -3.5296793E+00;  0.0000000E+00;  3.6321843E-01;0; -6.6178739E-02;  1.0002222E+04;  0.0000000E+00; -1.9648474E-05;  1.0000000E+04;  0.0000000E+00;  9.9999639E+03; -6.7150183E-02;  0.0000000E+00;  9.7144698E-04;  2.5357719E+01;
  7.9991810E-02;  9.9999998E-03;  2.6000118E-01;1181; -5.6846645E-03;  0.0000000E+00;  7.5090956E-04;  1.0000986E+03;  4.0000001E-01;  8.1676689E+01;3; -3.2485211E+00;  0.0000000E+00;  4.0221071E-01;0; -5.9684005E-02;  1.0001938E+04;  0.0000000E+00; -1.7742158E-04;  1.0000000E+04;  0.0000000E+00;  1.0000033E+04; -5.8585942E-02;  0.0000000E+00; -1.0980624E-03;  8.4683104E+00;
  7.9993330E-02;  9.9999998E-03;  2.8000122E-01;1182; -4.6171336E-03;  0.0000000E+00;  7.6972478E-04;  1.0000851E+03;  4.0000001E-01;  7.0516510E+01;3; -2.8653641E+00;  0.0000000E+00;  4.4553995E-01;0; -5.1241480E-02;  1.0001589E+04;  0.0000000E+00; -5.1178865E-04;  1.0000000E+04;  0.0000000E+00;  1.0000113E+04; -4.7864892E-02;  0.0000000E+00; -3.3765878E-03;  4.5788490E+01;
  7.9995163E-02;  9.9999998E-03;  3.0000132E-01;1183; -3.3271590E-03;  0.0000000E+00;  8.4772159E-04;  1.0000685E+03;  4.0000001E-01;  5.6788509E+01;3; -2.2786598E+00;  0.0000000E+00;  5.5698586E-01;0; -4.1164093E-02;  1.0001191E+04;  0.0000000E+00; -9.1430504E-04;  1.0000000E+04;  0.0000000E+00;  1.0000177E+04; -3.5988454E-02;  0.0000000E+00; -5.1756371E-03;  7.5717880E+01;
  9.9985912E-02;  9.9999998E-03;  1.6000052E-01;1207; -9.7110579E-03;  0.0000000E+00;  3.3963248E-04;  1.0001454E+03;  4.0000001E-01;  1.2049040E+02;3; -4.9135199E+00;  0.0000000E+00;  1.9325778E-01;0; -8.6262882E-02;  1.0003032E+04;  0.0000000E+00;  8.5247347E-09;  1.0000000E+04;  0.0000000E+00;  9.9998789E+03; -8.9662619E-02;  0.0000000E+00;  3.3997344E-03;  6.8050964E+01;
  9.9986099E-02;  9.9999998E-03;  1.8000066E-01;1208; -9.5699057E-03;  0.0000000E+00;  4.2724123E-04;  1.0001437E+03;  4.0000001E-01;  1.1910773E+02;3; -4.8251519E+00;  0.0000000E+00;  2.2885194E-01;0; -8.5265212E-02;  1.0003008E+04;  0.0000000E+00; -7.7514656E-08;  1.0000000E+04;  0.0000000E+00;  9.9998711E+03; -8.8800013E-02;  0.0000000E+00;  3.5347990E-03;  7.1191093E+01;
  9.9986486E-02;  9.9999998E-03;  2.0000082E-01;1209; -9.2939967E-03;  0.0000000E+00;  5.1873235E-04;  1.0001407E+03;  4.0000001E-01;  1.1653989E+02;3; -4.6845713E+00;  0.0000000E+00;  2.6344094E-01;0; -8.3376132E-02;  1.0002941E+04;  0.0000000E+00; -3.8557943E-07;  1.0000000E+04;  0.0000000E+00;  9.9998770E+03; -8.6719498E-02;  0.0000000E+00;  3.3433666E-03;  6.8479492E+01;
  9.9987149E-02;  9.9999998E-03;  2.2000098E-01;1210; -8.8257622E-03;  0.0000000E+00;  6.0984405E-04;  1.0001357E+03;  4.0000001E-01;  1.1239187E+02;3; -4.4918070E+00;  0.0000000E+00;  2.9780871E-01;0; -8.0233477E-02;  1.0002809E+04;  0.0000000E+00; -7.2831535E-05;  1.0000000E+04;  0.0000000E+00;  9.9999033E+03; -8.2829103E-02;  0.0000000E+00;  2.5956247E-03;  5.5886566E+01;
  9.9988163E-02;  9.9999998E-03;  2.4000111E-01;1211; -8.1154648E-03;  0.0000000E+00;  6.7602668E-04;  1.0001277E+03;  4.0000001E-01;  1.0577477E+02;3; -4.2547269E+00;  0.0000000E+00;  3.2516718E-01;0; -7.5437717E-02;  1.0002602E+04;  0.0000000E+00; -6.5509166E-04;  1.0000000E+04;  0.0000000E+00;  9.9999551E+03; -7.6579951E-02;  0.0000000E+00;  1.1422316E-03;  3.1041121E+01;
  9.9989593E-02;  9.9999998E-03;  2.6000121E-01;1212; -7.1179261E-03;  0.0000000E+00;  7.2604656E-04;  1.0001166E+03;  4.0000001E-01;  9.6589844E+01;3; -3.9528821E+00;  0.0000000E+00;  3.6034703E-01;0; -6.8631418E-02;  1.0002301E+04;  0.0000000E+00; -2.3878950E-03;  1.0000000E+04;  0.0000000E+00;  1.0000031E+04; -6.7661561E-02;  0.0000000E+00; -9.6985442E-04;  1.3582420E+01;
  9.9991448E-02;  9.9999998E-03;  2.8000128E-01;1213; -5.8311475E-03;  0.0000000E+00;  7.5985130E-04;  1.0001016E+03;  4.0000001E-01;  8.4145752E+01;3; -3.5301766E+00;  0.0000000E+00;  4.0969515E-01;0; -5.9600055E-02;  1.0001908E+04;  0.0000000E+00; -5.1910467E-03;  1.0000000E+04;  0.0000000E+00;  1.0000119E+04; -5.6222182E-02;  0.0000000E+00; -3.3778730E-03;  5.4244904E+01;
  9.9993750E-02;  9.9999998E-03;  3.0000144E-01;1214; -4.2365906E-03;  0.0000000E+00;  8.9630374E-04;  1.0000826E+03;  4.0000001E-01;  6.8442497E+01;3; -2.8443408E+00;  0.0000000E+00;  5.6193590E-01;0; -4.8506860E-02;  1.0001464E+04;  0.0000000E+00; -8.2094138E-03;  1.0000000E+04;  0.0000000E+00;  1.0000190E+04; -4.3165453E-02;  0.0000000E+00; -5.3414055E-03;  9.1695541E+01;
  1.1998279E-01;  9.9999998E-03;  1.6000053E-01;1238; -1.1661459E-02;  0.0000000E+00;  3.2994669E-04;  1.0001677E+03;  4.0000001E-01;  1.3886024E+02;3; -5.7732964E+00;  0.0000000E+00;  1.8498510E-01;0; -9.6907333E-02;  1.0003485E+04;  0.0000000E+00; -2.2374918E-08;  1.0000000E+04;  0.0000000E+00;  9.9998662E+03; -1.0034555E-01;  0.0000000E+00;  3.4382185E-03;  7.4408661E+01;
  1.1998298E-01;  9.9999998E-03;  1.8000068E-01;1239; -1.1523421E-02;  0.0000000E+00;  4.1209138E-04;  1.0001666E+03;  4.0000001E-01;  1.3797139E+02;3; -5.6815643E+00;  0.0000000E+00;  2.1447679E-01;0; -9.6238203E-02;  1.0003470E+04;  0.0000000E+00; -2.1418353E-07;  1.0000000E+04;  0.0000000E+00;  9.9998613E+03; -9.9800222E-02;  0.0000000E+00;  3.5620194E-03;  7.7993195E+01;
  1.1998339E-01;  9.9999998E-03;  2.0000082E-01;1240; -1.1232393E-02;  0.0000000E+00;  4.9409264E-04;  1.0001639E+03;  4.0000001E-01;  1.3579861E+02;3; -5.5332303E+00;  0.0000000E+00;  2.4006398E-01;0; -9.4609529E-02;  1.0003410E+04;  0.0000000E+00; -5.7397327E-05;  1.0000000E+04;  0.0000000E+00;  9.9998643E+03; -9.8012231E-02;  0.0000000E+00;  3.4027016E-03;  7.5881500E+01;
  1.1998413E-01;  9.9999998E-03;  2.2000100E-01;1241; -1.0717928E-02;  0.0000000E+00;  5.7703949E-04;  1.0001588E+03;  4.0000001E-01;  1.3155182E+02;3; -5.3294692E+00;  0.0000000E+00;  2.6437515E-01;0; -9.1702349E-02;  1.0003290E+04;  0.0000000E+00; -8.2493381E-04;  1.0000000E+04;  0.0000000E+00;  9.9998896E+03; -9.4424434E-02;  0.0000000E+00;  2.7220841E-03;  6.3777454E+01;
  1.1998528E-01;  9.9999998E-03;  2.4000111E-01;1242; -9.9173123E-03;  0.0000000E+00;  6.3643639E-04;  1.0001514E+03;  4.0000001E-01;  1.2542854E+02;3; -5.0777717E+00;  0.0000000E+00;  2.8596115E-01;0; -8.7214306E-02;  1.0003083E+04;  0.0000000E+00; -4.1616326E-03;  1.0000000E+04;  0.0000000E+00;  9.9999443E+03; -8.8537700E-02;  0.0000000E+00;  1.3233920E-03;  4.3547474E+01;
  1.1998696E-01;  9.9999998E-03;  2.6000124E-01;1243; -8.7677957E-03;  0.0000000E+00;  6.9203181E-04;  1.0001407E+03;  4.0000001E-01;  1.1663866E+02;3; -4.7642317E+00;  0.0000000E+00;  3.1561613E-01;0; -8.0770425E-02;  1.0002783E+04;  0.0000000E+00; -1.2029581E-02;  1.0000000E+04;  0.0000000E+00;  1.0000025E+04; -7.9958074E-02;  0.0000000E+00; -8.1235194E-04;  6.2371441E+01;
  1.1998918E-01;  9.9999998E-03;  2.8000134E-01;1244; -7.2535546E-03;  0.0000000E+00;  7.5519754E-04;  1.0001252E+03;  4.0000001E-01;  1.0370075E+02;3; -4.3074899E+00;  0.0000000E+00;  3.7917900E-01;0; -7.1908250E-02;  1.0002383E+04;  0.0000000E+00; -2.3981379E-02;  1.0000000E+04;  0.0000000E+00;  1.0000122E+04; -6.8553321E-02;  0.0000000E+00; -3.3549257E-03;  1.3312599E+02;
  1.1999203E-01;  9.9999998E-03;  3.0000165E-01;1245; -5.3214561E-03;  0.0000000E+00;  9.7923400E-04;  1.0001050E+03;  4.0000001E-01;  8.7009872E+01;3; -3.5146608E+00;  0.0000000E+00;  5.9300518E-01;0; -6.0138360E-02;  1.0001896E+04;  0.0000000E+00; -3.5073042E-02;  1.0000000E+04;  0.0000000E+00;  1.0000204E+04; -5.4669987E-02;  0.0000000E+00; -5.4683709E-03;  2.0127634E+02;
  1.3997921E-01;  9.9999998E-03;  1.6000056E-01;1269; -1.3847425E-02;  0.0000000E+00;  3.3870744E-04;  1.0001938E+03;  4.0000001E-01;  1.6058803E+02;3; -6.7211404E+00;  0.0000000E+00;  1.8747428E-01;0; -1.0921241E-01;  1.0004025E+04;  0.0000000E+00; -4.4011877E-08;  1.0000000E+04;  0.0000000E+00;  9.9998525E+03; -1.1277968E-01;  0.0000000E+00;  3.5672749E-03;  8.3350075E+01;
  1.3997938E-01;  9.9999998E-03;  1.8000071E-01;1270; -1.3721510E-02;  0.0000000E+00;  4.1349372E-04;  1.0001935E+03;  4.0000001E-01;  1.6039050E+02;3; -6.6286306E+00;  0.0000000E+00;  2.0933808E-01;0; -1.0894891E-01;  1.0004025E+04;  0.0000000E+00; -9.7479606E-06;  1.0000000E+04;  0.0000000E+00;  9.9998457E+03; -1.1261640E-01;  0.0000000E+00;  3.6674880E-03;  8.7510513E+01;
  1.3997979E-01;  9.9999998E-03;  2.0000087E-01;1271; -1.3424126E-02;  0.0000000E+00;  4.8436408E-04;  1.0001913E+03;  4.0000001E-01;  1.5851401E+02;3; -6.4755778E+00;  0.0000000E+00;  2.2490516E-01;0; -1.0776962E-01;  1.0003980E+04;  0.0000000E+00; -4.4041834E-04;  1.0000000E+04;  0.0000000E+00;  9.9998477E+03; -1.1131672E-01;  0.0000000E+00;  3.5470964E-03;  8.6460449E+01;
  1.3998058E-01;  9.9999998E-03;  2.2000103E-01;1272; -1.2870832E-02;  0.0000000E+00;  5.5748428E-04;  1.0001876E+03;  4.0000001E-01;  1.5535361E+02;3; -6.2638474E+00;  0.0000000E+00;  2.4071378E-01;0; -1.0554975E-01;  1.0003879E+04;  0.0000000E+00; -3.5326709E-03;  1.0000000E+04;  0.0000000E+00;  9.9998721E+03; -1.0849686E-01;  0.0000000E+00;  2.9471091E-03;  7.7225716E+01;
  1.3998188E-01;  9.9999998E-03;  2.4000114E-01;1273; -1.1986432E-02;  0.0000000E+00;  6.0571183E-04;  1.0001818E+03;  4.0000001E-01;  1.5061301E+02;3; -6.0113974E+00;  0.0000000E+00;  2.4841380E-01;0; -1.0222835E-01;  1.0003709E+04;  0.0000000E+00; -1.4342478E-02;  1.0000000E+04;  0.0000000E+00;  9.9999277E+03; -1.0381825E-01;  0.0000000E+00;  1.5899009E-03;  8.8783325E+01;
  1.3998382E-01;  9.9999998E-03;  2.6000130E-01;1274; -1.0679918E-02;  0.0000000E+00;  6.7939656E-04;  1.0001734E+03;  4.0000001E-01;  1.4369962E+02;3; -5.6878214E+00;  0.0000000E+00;  2.8482246E-01;0; -9.7473823E-02;  1.0003453E+04;  0.0000000E+00; -3.7998244E-02;  1.0000000E+04;  0.0000000E+00;  1.0000019E+04; -9.6843526E-02;  0.0000000E+00; -6.3029910E-04;  1.9735962E+02;
  1.3998643E-01;  9.9999998E-03;  2.8000149E-01;1275; -8.9345938E-03;  0.0000000E+00;  7.8368449E-04;  1.0001608E+03;  4.0000001E-01;  1.3323077E+02;3; -5.2105079E+00;  0.0000000E+00;  3.7189865E-01;0; -9.0355970E-02;  1.0003088E+04;  0.0000000E+00; -7.2923906E-02;  1.0000000E+04;  0.0000000E+00;  1.0000130E+04; -8.6954802E-02;  0.0000000E+00; -3.4011698E-03;  3.8156537E+02;
  1.3998987E-01;  9.9999998E-03;  3.0000195E-01;1276; -6.6363020E-03;  0.0000000E+00;  1.1240242E-03;  1.0001405E+03;  4.0000001E-01;  1.1644113E+02;3; -4.3120155E+00;  0.0000000E+00;  6.7086887E-01;0; -7.8874692E-02;  1.0002589E+04;  0.0000000E+00; -1.0386973E-01;  1.0000000E+04;  0.0000000E+00;  1.0000224E+04; -7.3217042E-02;  0.0000000E+00; -5.6576543E-03;  5.4687366E+02;
  1.5997505E-01;  9.9999998E-03;  1.6000065E-01;1300; -1.6312214E-02;  0.0000000E+00;  3.8780394E-04;  1.0002243E+03;  4.0000001E-01;  1.8587126E+02;3; -7.7576165E+00;  0.0000000E+00;  2.1203655E-01;0; -1.2299811E-01;  1.0004653E+04;  0.0000000E+00; -5.9588732E-08;  1.0000000E+04;  0.0000000E+00;  9.9998291E+03; -1.2694332E-01;  0.0000000E+00;  3.9452058E-03;  9.7478325E+01;
  1.5997517E-01;  9.9999998E-03;  1.8000081E-01;1301; -1.6207766E-02;  0.0000000E+00;  4.5667271E-04;  1.0002243E+03;  4.0000001E-01;  1.8587126E+02;3; -7.6663837E+00;  0.0000000E+00;  2.2682327E-01;0; -1.2321819E-01;  1.0004669E+04;  0.0000000E+00; -8.2904415E-05;  1.0000000E+04;  0.0000000E+00;  9.9998184E+03; -1.2726137E-01;  0.0000000E+00;  4.0431814E-03;  1.0307108E+02;
  1.5997559E-01;  9.9999998E-03;  2.0000097E-01;1302; -1.5913181E-02;  0.0000000E+00;  5.2048580E-04;  1.0002236E+03;  4.0000001E-01;  1.8527869E+02;3; -7.5118322E+00;  0.0000000E+00;  2.3329681E-01;0; -1.2272559E-01;  1.0004654E+04;  0.0000000E+00; -1.4900023E-03;  1.0000000E+04;  0.0000000E+00;  9.9998145E+03; -1.2672390E-01;  0.0000000E+00;  3.9983098E-03;  1.0451006E+02;
  1.5997644E-01;  9.9999998E-03;  2.2000113E-01;1303; -1.5330362E-02;  0.0000000E+00;  5.8318989E-04;  1.0002217E+03;  4.0000001E-01;  1.8369849E+02;3; -7.2999592E+00;  0.0000000E+00;  2.3756045E-01;0; -1.2176383E-01;  1.0004600E+04;  0.0000000E+00; -9.3392367E-03;  1.0000000E+04;  0.0000000E+00;  9.9998350E+03; -1.2525140E-01;  0.0000000E+00;  3.4875623E-03;  1.0618954E+02;
  1.5997787E-01;  9.9999998E-03;  2.4000126E-01;1304; -1.4361783E-02;  0.0000000E+00;  6.2631193E-04;  1.0002198E+03;  4.0000001E-01;  1.8211829E+02;3; -7.0468712E+00;  0.0000000E+00;  2.3981166E-01;0; -1.2071630E-01;  1.0004497E+04;  0.0000000E+00; -3.4332588E-02;  1.0000000E+04;  0.0000000E+00;  9.9998965E+03; -1.2281668E-01;  0.0000000E+00;  2.1003797E-03;  1.9045955E+02;
  1.5998006E-01;  9.9999998E-03;  2.6000145E-01;1305; -1.2898627E-02;  0.0000000E+00;  7.1724429E-04;  1.0002171E+03;  4.0000001E-01;  1.7984674E+02;3; -6.7209949E+00;  0.0000000E+00;  2.8926420E-01;0; -1.1947917E-01;  1.0004344E+04;  0.0000000E+00; -8.8012047E-02;  1.0000000E+04;  0.0000000E+00;  1.0000001E+04; -1.1910412E-01;  0.0000000E+00; -3.7504407E-04;  4.5811118E+02;
  1.5998307E-01;  9.9999998E-03;  2.8000170E-01;1306; -1.0925696E-02;  0.0000000E+00;  8.5787784E-04;  1.0002115E+03;  4.0000001E-01;  1.7530367E+02;3; -6.2523961E+00;  0.0000000E+00;  3.9252758E-01;0; -1.1658141E-01;  1.0004089E+04;  0.0000000E+00; -1.6793567E-01;  1.0000000E+04;  0.0000000E+00;  1.0000137E+04; -1.1297767E-01;  0.0000000E+00; -3.6037404E-03;  8.7476166E+02;
  1.5998712E-01;  9.9999998E-03;  3.0000231E-01;1307; -8.2742758E-03;  0.0000000E+00;  1.2967631E-03;  1.0001946E+03;  4.0000001E-01;  1.6118060E+02;3; -5.2901564E+00;  0.0000000E+00;  7.6241970E-01;0; -1.0752091E-01;  1.0003647E+04;  0.0000000E+00; -2.4110036E-01;  1.0000000E+04;  0.0000000E+00;  1.0000247E+04; -1.0146988E-01;  0.0000000E+00; -6.0510300E-03;  1.2575677E+03;
  1.7997025E-01;  9.9999998E-03;  1.6000085E-01;1331; -1.9085733E-02;  0.0000000E+00;  5.0467992E-04;  1.0002586E+03;  4.0000001E-01;  2.1421613E+02;3; -8.8833323E+00;  0.0000000E+00;  2.7254567E-01;0; -1.3813864E-01;  1.0005383E+04;  0.0000000E+00; -8.0884473E-07;  1.0000000E+04;  0.0000000E+00;  9.9997871E+03; -1.4292531E-01;  0.0000000E+00;  4.7866753E-03;  1.2045469E+02;
  1.7997031E-01;  9.9999998E-03;  1.8000102E-01;1332; -1.9011883E-02;  0.0000000E+00;  5.7586021E-04;  1.0002597E+03;  4.0000001E-01;  2.1520375E+02;3; -8.7948008E+00;  0.0000000E+00;  2.8440046E-01;0; -1.3887718E-01;  1.0005426E+04;  0.0000000E+00; -2.4678657E-04;  1.0000000E+04;  0.0000000E+00;  9.9997686E+03; -1.4383367E-01;  0.0000000E+00;  4.9564843E-03;  1.2945299E+02;
  1.7997068E-01;  9.9999998E-03;  2.0000118E-01;1333; -1.8732022E-02;  0.0000000E+00;  6.3714979E-04;  1.0002602E+03;  4.0000001E-01;  2.1559880E+02;3; -8.6422338E+00;  0.0000000E+00;  2.8385967E-01;0; -1.3923097E-01;  1.0005445E+04;  0.0000000E+00; -3.1839742E-03;  1.0000000E+04;  0.0000000E+00;  9.9997578E+03; -1.4429466E-01;  0.0000000E+00;  5.0636972E-03;  1.3606882E+02;
  1.7997156E-01;  9.9999998E-03;  2.2000135E-01;1334; -1.8130958E-02;  0.0000000E+00;  6.8997603E-04;  1.0002612E+03;  4.0000001E-01;  2.1638892E+02;3; -8.4331446E+00;  0.0000000E+00;  2.8009903E-01;0; -1.3993199E-01;  1.0005453E+04;  0.0000000E+00; -1.7734285E-02;  1.0000000E+04;  0.0000000E+00;  9.9997725E+03; -1.4459759E-01;  0.0000000E+00;  4.6656020E-03;  1.5814384E+02;
  1.7997313E-01;  9.9999998E-03;  2.4000150E-01;1335; -1.7078834E-02;  0.0000000E+00;  7.2802330E-04;  1.0002643E+03;  4.0000001E-01;  2.1895674E+02;3; -8.1889582E+00;  0.0000000E+00;  2.7091670E-01;0; -1.4201747E-01;  1.0005451E+04;  0.0000000E+00; -6.2362406E-02;  1.0000000E+04;  0.0000000E+00;  9.9998350E+03; -1.4515974E-01;  0.0000000E+00;  3.1422647E-03;  3.3937494E+02;
  1.7997557E-01;  9.9999998E-03;  2.6000169E-01;1336; -1.5476331E-02;  0.0000000E+00;  8.0400653E-04;  1.0002707E+03;  4.0000001E-01;  2.2428992E+02;3; -7.8894334E+00;  0.0000000E+00;  3.1281424E-01;0; -1.4594936E-01;  1.0005447E+04;  0.0000000E+00; -1.5884754E-01;  1.0000000E+04;  0.0000000E+00;  9.9999688E+03; -1.4604416E-01;  0.0000000E+00;  9.4798161E-05;  8.2877246E+02;
  1.7997897E-01;  9.9999998E-03;  2.8000194E-01;1337; -1.3295417E-02;  0.0000000E+00;  9.4550697E-04;  1.0002767E+03;  4.0000001E-01;  2.2922804E+02;3; -7.4615817E+00;  0.0000000E+00;  4.1308880E-01;0; -1.5002266E-01;  1.0005389E+04;  0.0000000E+00; -3.0708724E-01;  1.0000000E+04;  0.0000000E+00;  1.0000147E+04; -1.4593010E-01;  0.0000000E+00; -4.0925667E-03;  1.6014275E+03;
  1.7998350E-01;  9.9999998E-03;  3.0000255E-01;1338; -1.0407796E-02;  0.0000000E+00;  1.3372723E-03;  1.0002703E+03;  4.0000001E-01;  2.2389487E+02;3; -6.5634460E+00;  0.0000000E+00;  7.3773670E-01;0; -1.4714646E-01;  1.0005106E+04;  0.0000000E+00; -4.5044836E-01;  1.0000000E+04;  0.0000000E+00;  1.0000300E+04; -1.3984029E-01;  0.0000000E+00; -7.3061706E-03;  2.3504309E+03;
  1.9996469E-01;  9.9999998E-03;  1.6000116E-01;1362; -2.2197491E-02;  0.0000000E+00;  7.1581255E-04;  1.0002973E+03;  4.0000001E-01;  2.4631398E+02;3; -1.0098961E+01;  0.0000000E+00;  3.8275537E-01;0; -1.5452801E-01;  1.0006230E+04;  0.0000000E+00; -3.3208191E-06;  1.0000000E+04;  0.0000000E+00;  9.9997168E+03; -1.6086623E-01;  0.0000000E+00;  6.3382210E-03;  1.5667337E+02;
  1.9996467E-01;  9.9999998E-03;  1.8000138E-01;1363; -2.2162445E-02;  0.0000000E+00;  8.0170808E-04;  1.0002993E+03;  4.0000001E-01;  2.4799295E+02;3; -1.0013887E+01;  0.0000000E+00;  3.9560598E-01;0; -1.5572438E-01;  1.0006303E+04;  0.0000000E+00; -4.2924564E-04;  1.0000000E+04;  0.0000000E+00;  9.9996855E+03; -1.6243415E-01;  0.0000000E+00;  6.7097661E-03;  1.7225763E+02;
  1.9996499E-01;  9.9999998E-03;  2.0000157E-01;1364; -2.1909362E-02;  0.0000000E+00;  8.6740794E-04;  1.0003010E+03;  4.0000001E-01;  2.4937563E+02;3; -9.8652601E+00;  0.0000000E+00;  3.9243063E-01;0; -1.5686874E-01;  1.0006364E+04;  0.0000000E+00; -4.8478274E-03;  1.0000000E+04;  0.0000000E+00;  9.9996543E+03; -1.6396888E-01;  0.0000000E+00;  7.1001374E-03;  1.8750493E+02;
  1.9996586E-01;  9.9999998E-03;  2.2000176E-01;1365; -2.1303501E-02;  0.0000000E+00;  9.1063953E-04;  1.0003044E+03;  4.0000001E-01;  2.5223975E+02;3; -9.6697750E+00;  0.0000000E+00;  3.7354803E-01;0; -1.5917534E-01;  1.0006435E+04;  0.0000000E+00; -2.5634442E-02;  1.0000000E+04;  0.0000000E+00;  9.9996563E+03; -1.6607092E-01;  0.0000000E+00;  6.8955799E-03;  2.2836859E+02;
  1.9996755E-01;  9.9999998E-03;  2.4000189E-01;1366; -2.0195074E-02;  0.0000000E+00;  9.1419276E-04;  1.0003132E+03;  4.0000001E-01;  2.5954819E+02;3; -9.4499369E+00;  0.0000000E+00;  3.4692121E-01;0; -1.6443588E-01;  1.0006538E+04;  0.0000000E+00; -8.8780828E-02;  1.0000000E+04;  0.0000000E+00;  9.9997324E+03; -1.6957182E-01;  0.0000000E+00;  5.1359343E-03;  4.8784375E+02;
  1.9997020E-01;  9.9999998E-03;  2.6000202E-01;1367; -1.8480295E-02;  0.0000000E+00;  9.3332288E-04;  1.0003294E+03;  4.0000001E-01;  2.7288113E+02;3; -9.2118835E+00;  0.0000000E+00;  3.5172606E-01;0; -1.7402068E-01;  1.0006690E+04;  0.0000000E+00; -2.2754623E-01;  1.0000000E+04;  0.0000000E+00;  9.9999023E+03; -1.7502522E-01;  0.0000000E+00;  1.0045404E-03;  1.1908389E+03;
  1.9997390E-01;  9.9999998E-03;  2.8000224E-01;1368; -1.6157962E-02;  0.0000000E+00;  1.0218651E-03;  1.0003503E+03;  4.0000001E-01;  2.9016458E+02;3; -8.8891573E+00;  0.0000000E+00;  4.2317486E-01;0; -1.8654086E-01;  1.0006846E+04;  0.0000000E+00; -4.4747975E-01;  1.0000000E+04;  0.0000000E+00;  1.0000164E+04; -1.8138698E-01;  0.0000000E+00; -5.1538823E-03;  2.3387715E+03;
  1.9997875E-01;  9.9999998E-03;  3.0000263E-01;1369; -1.3193748E-02;  0.0000000E+00;  1.2223281E-03;  1.0003603E+03;  4.0000001E-01;  2.9846066E+02;3; -8.2246475E+00;  0.0000000E+00;  5.8395767E-01;0; -1.9363748E-01;  1.0006795E+04;  0.0000000E+00; -6.6604638E-01;  1.0000000E+04;  0.0000000E+00;  1.0000408E+04; -1.8282390E-01;  0.0000000E+00; -1.0813581E-02;  3.4847957E+03;
  2.1995828E-01;  9.9999998E-03;  1.6000164E-01;1393; -2.5683239E-02;  0.0000000E+00;  1.0380330E-03;  1.0003405E+03;  4.0000001E-01;  2.8206604E+02;3; -1.1407692E+01;  0.0000000E+00;  5.4856920E-01;0; -1.7205736E-01;  1.0007204E+04;  0.0000000E+00; -3.7336299E-06;  1.0000000E+04;  0.0000000E+00;  9.9996074E+03; -1.8087287E-01;  0.0000000E+00;  8.8155046E-03;  2.1031680E+02;
  2.1995816E-01;  9.9999998E-03;  1.8000193E-01;1394; -2.5692925E-02;  0.0000000E+00;  1.1587812E-03;  1.0003430E+03;  4.0000001E-01;  2.8414008E+02;3; -1.1324926E+01;  0.0000000E+00;  5.6992096E-01;0; -1.7354433E-01;  1.0007306E+04;  0.0000000E+00; -4.8713840E-04;  1.0000000E+04;  0.0000000E+00;  9.9995576E+03; -1.8310007E-01;  0.0000000E+00;  9.5557487E-03;  2.3655241E+02;
  2.1995839E-01;  9.9999998E-03;  2.0000218E-01;1395; -2.5478523E-02;  0.0000000E+00;  1.2390295E-03;  1.0003455E+03;  4.0000001E-01;  2.8621408E+02;3; -1.1182021E+01;  0.0000000E+00;  5.7074964E-01;0; -1.7517231E-01;  1.0007410E+04;  0.0000000E+00; -5.4573319E-03;  1.0000000E+04;  0.0000000E+00;  9.9995010E+03; -1.8558460E-01;  0.0000000E+00;  1.0412296E-02;  2.6420465E+02;
  2.1995923E-01;  9.9999998E-03;  2.2000240E-01;1396; -2.4892781E-02;  0.0000000E+00;  1.2707600E-03;  1.0003508E+03;  4.0000001E-01;  2.9055963E+02;3; -1.1010650E+01;  0.0000000E+00;  5.3414035E-01;0; -1.7848706E-01;  1.0007537E+04;  0.0000000E+00; -2.8722331E-02;  1.0000000E+04;  0.0000000E+00;  9.9994805E+03; -1.8905726E-01;  0.0000000E+00;  1.0570196E-02;  3.1134091E+02;
  2.1996096E-01;  9.9999998E-03;  2.4000251E-01;1397; -2.3757787E-02;  0.0000000E+00;  1.2563209E-03;  1.0003631E+03;  4.0000001E-01;  3.0083096E+02;3; -1.0831670E+01;  0.0000000E+00;  5.0343966E-01;0; -1.8588543E-01;  1.0007713E+04;  0.0000000E+00; -9.9964671E-02;  1.0000000E+04;  0.0000000E+00;  9.9995518E+03; -1.9451413E-01;  0.0000000E+00;  8.6287018E-03;  5.7550366E+02;
  2.1996380E-01;  9.9999998E-03;  2.6000270E-01;1398; -2.1954859E-02;  0.0000000E+00;  1.2687113E-03;  1.0003866E+03;  4.0000001E-01;  3.2028720E+02;3; -1.0684145E+01;  0.0000000E+00;  4.9551868E-01;0; -1.9960074E-01;  1.0007958E+04;  0.0000000E+00; -2.5963172E-01;  1.0000000E+04;  0.0000000E+00;  9.9997734E+03; -2.0272672E-01;  0.0000000E+00;  3.1259784E-03;  1.3665177E+03;
  2.1996774E-01;  9.9999998E-03;  2.8000307E-01;1399; -1.9549495E-02;  0.0000000E+00;  1.3936724E-03;  1.0004186E+03;  4.0000001E-01;  3.4675558E+02;3; -1.0541777E+01;  0.0000000E+00;  5.8764839E-01;0; -2.1843651E-01;  1.0008243E+04;  0.0000000E+00; -5.1832688E-01;  1.0000000E+04;  0.0000000E+00;  1.0000127E+04; -2.1287453E-01;  0.0000000E+00; -5.5619762E-03;  2.7160129E+03;
  2.1997319E-01;  9.9999998E-03;  3.0000401E-01;1400; -1.6340770E-02;  0.0000000E+00;  1.8264593E-03;  1.0004352E+03;  4.0000001E-01;  3.6058234E+02;3; -1.0041771E+01;  0.0000000E+00;  8.6815262E-01;0; -2.3021521E-01;  1.0008298E+04;  0.0000000E+00; -7.8498948E-01;  1.0000000E+04;  0.0000000E+00;  1.0000404E+04; -2.1806574E-01;  0.0000000E+00; -1.2149462E-02;  4.1188506E+03;
  2.3995088E-01;  9.9999998E-03;  1.6000229E-01;1424; -2.9583555E-02;  0.0000000E+00;  1.4872462E-03;  1.0003885E+03;  4.0000001E-01;  3.2186740E+02;3; -1.2813348E+01;  0.0000000E+00;  7.7694184E-01;0; -1.9069421E-01;  1.0008314E+04;  0.0000000E+00; -1.0405022E-06;  1.0000000E+04;  0.0000000E+00;  9.9994609E+03; -2.0302390E-01;  0.0000000E+00;  1.2329686E-02;  2.8420920E+02;
  2.3995063E-01;  9.9999998E-03;  1.8000269E-01;1425; -2.9646732E-02;  0.0000000E+00;  1.6555920E-03;  1.0003912E+03;  4.0000001E-01;  3.2413895E+02;3; -1.2730892E+01;  0.0000000E+00;  8.1223780E-01;0; -1.9225107E-01;  1.0008452E+04;  0.0000000E+00; -3.5707495E-04;  1.0000000E+04;  0.0000000E+00;  9.9993701E+03; -2.0584477E-01;  0.0000000E+00;  1.3593704E-02;  3.2523511E+02;
  2.3995075E-01;  9.9999998E-03;  2.0000307E-01;1426; -2.9478880E-02;  0.0000000E+00;  1.7981748E-03;  1.0003937E+03;  4.0000001E-01;  3.2611420E+02;3; -1.2593349E+01;  0.0000000E+00;  8.3678269E-01;0; -1.9392282E-01;  1.0008598E+04;  0.0000000E+00; -4.5154081E-03;  1.0000000E+04;  0.0000000E+00;  9.9992822E+03; -2.0902795E-01;  0.0000000E+00;  1.5105134E-02;  3.6958069E+02;
  2.3995151E-01;  9.9999998E-03;  2.2000343E-01;1427; -2.8941037E-02;  0.0000000E+00;  1.8848891E-03;  1.0003990E+03;  4.0000001E-01;  3.3055850E+02;3; -1.2456516E+01;  0.0000000E+00;  8.1660408E-01;0; -1.9730289E-01;  1.0008758E+04;  0.0000000E+00; -2.4851078E-02;  1.0000000E+04;  0.0000000E+00;  9.9992275E+03; -2.1321937E-01;  0.0000000E+00;  1.5916483E-02;  4.1728311E+02;
  2.3995318E-01;  9.9999998E-03;  2.4000378E-01;1428; -2.7836261E-02;  0.0000000E+00;  1.9830533E-03;  1.0004118E+03;  4.0000001E-01;  3.4112610E+02;3; -1.2358272E+01;  0.0000000E+00;  8.4136915E-01;0; -2.0490390E-01;  1.0008963E+04;  0.0000000E+00; -8.8760823E-02;  1.0000000E+04;  0.0000000E+00;  9.9992744E+03; -2.1928403E-01;  0.0000000E+00;  1.4380120E-02;  5.9827942E+02;
  2.3995613E-01;  9.9999998E-03;  2.6000452E-01;1429; -2.6007922E-02;  0.0000000E+00;  2.2990704E-03;  1.0004349E+03;  4.0000001E-01;  3.6028604E+02;3; -1.2354046E+01;  0.0000000E+00;  9.8883772E-01;0; -2.1850477E-01;  1.0009229E+04;  0.0000000E+00; -2.3596817E-01;  1.0000000E+04;  0.0000000E+00;  9.9994727E+03; -2.2783385E-01;  0.0000000E+00;  9.3290806E-03;  1.2706467E+03;
  2.3996024E-01;  9.9999998E-03;  2.8000605E-01;1430; -2.3530345E-02;  0.0000000E+00;  3.0975526E-03;  1.0004617E+03;  4.0000001E-01;  3.8250763E+02;3; -1.2399328E+01;  0.0000000E+00;  1.5011492E+00;0; -2.3384203E-01;  1.0009511E+04;  0.0000000E+00; -4.8228160E-01;  1.0000000E+04;  0.0000000E+00;  9.9997227E+03; -2.3794265E-01;  0.0000000E+00;  4.1006180E-03;  2.5393523E+03;
  2.3996609E-01;  9.9999998E-03;  3.0000892E-01;1431; -2.0129932E-02;  0.0000000E+00;  4.5647202E-03;  1.0004575E+03;  4.0000001E-01;  3.7895218E+02;3; -1.2091084E+01;  0.0000000E+00;  2.4538088E+00;0; -2.3439535E-01;  1.0009550E+04;  0.0000000E+00; -7.5371593E-01;  1.0000000E+04;  0.0000000E+00;  9.9996045E+03; -2.4293701E-01;  0.0000000E+00;  8.5416641E-03;  3.9687969E+03;
  2.5994235E-01;  9.9999998E-03;  1.6000313E-01;1455; -3.3948258E-02;  0.0000000E+00;  2.0630350E-03;  1.0004420E+03;  4.0000001E-01;  3.6621179E+02;3; -1.4323011E+01;  0.0000000E+00;  1.0634845E+00;0; -2.1053402E-01;  1.0009577E+04;  0.0000000E+00;  7.0486692E-08;  1.0000000E+04;  0.0000000E+00;  9.9992666E+03; -2.2737461E-01;  0.0000000E+00;  1.6840592E-02;  3.7903293E+02;
  2.5994194E-01;  9.9999998E-03;  1.8000372E-01;1456; -3.4071203E-02;  0.0000000E+00;  2.3285977E-03;  1.0004448E+03;  4.0000001E-01;  3.6848334E+02;3; -1.4235504E+01;  0.0000000E+00;  1.1423347E+00;0; -2.1196887E-01;  1.0009750E+04;  0.0000000E+00; -1.4807031E-04;  1.0000000E+04;  0.0000000E+00;  9.9991436E+03; -2.3067528E-01;  0.0000000E+00;  1.8706409E-02;  4.3796912E+02;
  2.5994191E-01;  9.9999998E-03;  2.0000434E-01;1457; -3.3967461E-02;  0.0000000E+00;  2.5948160E-03;  1.0004467E+03;  4.0000001E-01;  3.7006354E+02;3; -1.4110046E+01;  0.0000000E+00;  1.2012103E+00;0; -2.1331440E-01;  1.0009930E+04;  0.0000000E+00; -2.6160427E-03;  1.0000000E+04;  0.0000000E+00;  9.9990068E+03; -2.3428875E-01;  0.0000000E+00;  2.0974357E-02;  5.0274710E+02;
  2.5994250E-01;  9.9999998E-03;  2.2000502E-01;1458; -3.3506460E-02;  0.0000000E+00;  2.8489793E-03;  1.0004504E+03;  4.0000001E-01;  3.7312515E+02;3; -1.4012926E+01;  0.0000000E+00;  1.2602544E+00;0; -2.1588512E-01;  1.0010116E+04;  0.0000000E+00; -1.6184799E-02;  1.0000000E+04;  0.0000000E+00;  9.9988994E+03; -2.3863350E-01;  0.0000000E+00;  2.2748381E-02;  5.6102460E+02;
  2.5994399E-01;  9.9999998E-03;  2.4000585E-01;1459; -3.2510575E-02;  0.0000000E+00;  3.1978996E-03;  1.0004598E+03;  4.0000001E-01;  3.8092740E+02;3; -1.4037022E+01;  0.0000000E+00;  1.4029731E+00;0; -2.2168757E-01;  1.0010317E+04;  0.0000000E+00; -6.1135463E-02;  1.0000000E+04;  0.0000000E+00;  9.9988818E+03; -2.4428318E-01;  0.0000000E+00;  2.2595610E-02;  6.4865710E+02;
  2.5994676E-01;  9.9999998E-03;  2.6000741E-01;1460; -3.0797433E-02;  0.0000000E+00;  3.9571198E-03;  1.0004759E+03;  4.0000001E-01;  3.9426038E+02;3; -1.4238273E+01;  0.0000000E+00;  1.8074861E+00;0; -2.3096180E-01;  1.0010551E+04;  0.0000000E+00; -1.6838586E-01;  1.0000000E+04;  0.0000000E+00;  9.9989688E+03; -2.5160274E-01;  0.0000000E+00;  2.0640945E-02;  1.0287813E+03;
  2.5995085E-01;  9.9999998E-03;  2.8001019E-01;1461; -2.8368579E-02;  0.0000000E+00;  5.3679976E-03;  1.0004857E+03;  4.0000001E-01;  4.0235889E+02;3; -1.4576538E+01;  0.0000000E+00;  2.6518869E+00;0; -2.3689750E-01;  1.0010770E+04;  0.0000000E+00; -3.5258242E-01;  1.0000000E+04;  0.0000000E+00;  9.9989443E+03; -2.5980592E-01;  0.0000000E+00;  2.2908416E-02;  1.9329783E+03;
  2.5995657E-01;  9.9999998E-03;  3.0001393E-01;1462; -2.5095928E-02;  0.0000000E+00;  7.0788907E-03;  1.0004641E+03;  4.0000001E-01;  3.8448288E+02;3; -1.4709626E+01;  0.0000000E+00;  3.7735577E+00;0; -2.2995380E-01;  1.0010791E+04;  0.0000000E+00; -5.5811441E-01;  1.0000000E+04;  0.0000000E+00;  9.9984941E+03; -2.6434377E-01;  0.0000000E+00;  3.4389973E-02;  3.0356592E+03;
  2.7993253E-01;  9.9999998E-03;  1.6000418E-01;1486; -3.8826697E-02;  0.0000000E+00;  2.7781089E-03;  1.0005021E+03;  4.0000001E-01;  4.1598813E+02;3; -1.5940818E+01;  0.0000000E+00;  1.4165330E+00;0; -2.3180149E-01;  1.0011010E+04;  0.0000000E+00;  2.9251039E-08;  1.0000000E+04;  0.0000000E+00;  9.9990342E+03; -2.5396815E-01;  0.0000000E+00;  2.2166651E-02;  4.9337045E+02;
  2.7993190E-01;  9.9999998E-03;  1.8000501E-01;1487; -3.9019499E-02;  0.0000000E+00;  3.1711098E-03;  1.0005043E+03;  4.0000001E-01;  4.1776587E+02;3; -1.5847691E+01;  0.0000000E+00;  1.5396851E+00;0; -2.3300606E-01;  1.0011221E+04;  0.0000000E+00; -1.9352879E-05;  1.0000000E+04;  0.0000000E+00;  9.9988701E+03; -2.5759649E-01;  0.0000000E+00;  2.4590433E-02;  5.7155548E+02;
  2.7993169E-01;  9.9999998E-03;  2.0000596E-01;1488; -3.8996179E-02;  0.0000000E+00;  3.5932953E-03;  1.0005056E+03;  4.0000001E-01;  4.1885226E+02;3; -1.5732179E+01;  0.0000000E+00;  1.6555440E+00;0; -2.3387757E-01;  1.0011425E+04;  0.0000000E+00; -9.3028700E-04;  1.0000000E+04;  0.0000000E+00;  9.9986895E+03; -2.6141018E-01;  0.0000000E+00;  2.7532615E-02;  6.5769989E+02;
  2.7993205E-01;  9.9999998E-03;  2.2000709E-01;1489; -3.8632710E-02;  0.0000000E+00;  4.0880446E-03;  1.0005075E+03;  4.0000001E-01;  4.2043246E+02;3; -1.5685646E+01;  0.0000000E+00;  1.8264445E+00;0; -2.3525168E-01;  1.0011626E+04;  0.0000000E+00; -7.4493433E-03;  1.0000000E+04;  0.0000000E+00;  9.9985234E+03; -2.6556635E-01;  0.0000000E+00;  3.0314667E-02;  7.3704724E+02;
  2.7993327E-01;  9.9999998E-03;  2.4000852E-01;1490; -3.7781611E-02;  0.0000000E+00;  4.7197398E-03;  1.0005120E+03;  4.0000001E-01;  4.2418542E+02;3; -1.5840011E+01;  0.0000000E+00;  2.0886524E+00;0; -2.3835540E-01;  1.0011820E+04;  0.0000000E+00; -3.1486750E-02;  1.0000000E+04;  0.0000000E+00;  9.9984248E+03; -2.7033928E-01;  0.0000000E+00;  3.1983882E-02;  8.0084674E+02;
  2.7993572E-01;  9.9999998E-03;  2.6001075E-01;1491; -3.6267366E-02;  0.0000000E+00;  5.7629552E-03;  1.0005190E+03;  4.0000001E-01;  4.3001242E+02;3; -1.6311041E+01;  0.0000000E+00;  2.6261485E+00;0; -2.4243060E-01;  1.0012007E+04;  0.0000000E+00; -9.1951512E-02;  1.0000000E+04;  0.0000000E+00;  9.9983750E+03; -2.7591082E-01;  0.0000000E+00;  3.3480227E-02;  9.4126715E+02;
  2.7993947E-01;  9.9999998E-03;  2.8001410E-01;1492; -3.4053344E-02;  0.0000000E+00;  7.2950870E-03;  1.0005150E+03;  4.0000001E-01;  4.2665451E+02;3; -1.7071486E+01;  0.0000000E+00;  3.5141184E+00;0; -2.4181288E-01;  1.0012164E+04;  0.0000000E+00; -1.9819222E-01;  1.0000000E+04;  0.0000000E+00;  9.9981416E+03; -2.8183964E-01;  0.0000000E+00;  4.0026747E-02;  1.3900317E+03;
  2.7994478E-01;  9.9999998E-03;  3.0001786E-01;1493; -3.1058554E-02;  0.0000000E+00;  8.8420287E-03;  1.0004904E+03;  4.0000001E-01;  4.0621063E+02;3; -1.7781540E+01;  0.0000000E+00;  4.6457195E+00;0; -2.3465334E-01;  1.0012180E+04;  0.0000000E+00; -3.1666768E-01;  1.0000000E+04;  0.0000000E+00;  9.9976318E+03; -2.8574756E-01;  0.0000000E+00;  5.1094223E-02;  2.0337114E+03;
  2.9992121E-01;  9.9999998E-03;  1.6000541E-01;1517; -4.4269785E-02;  0.0000000E+00;  3.6086766E-03;  1.0005692E+03;  4.0000001E-01;  4.7149265E+02;3; -1.7671799E+01;  0.0000000E+00;  1.8121394E+00;0; -2.5481284E-01;  1.0012628E+04;  0.0000000E+00; -1.7757083E-08;  1.0000000E+04;  0.0000000E+00;  9.9987666E+03; -2.8286546E-01;  0.0000000E+00;  2.8052619E-02;  6.2458051E+02;
  2.9992038E-01;  9.9999998E-03;  1.8000655E-01;1518; -4.4543099E-02;  0.0000000E+00;  4.1530984E-03;  1.0005714E+03;  4.0000001E-01;  4.7336914E+02;3; -1.7569510E+01;  0.0000000E+00;  1.9850941E+00;0; -2.5575164E-01;  1.0012871E+04;  0.0000000E+00;  7.9908773E-07;  1.0000000E+04;  0.0000000E+00;  9.9985605E+03; -2.8663573E-01;  0.0000000E+00;  3.0884087E-02;  7.2178351E+02;
  2.9991990E-01;  9.9999998E-03;  2.0000787E-01;1519; -4.4602513E-02;  0.0000000E+00;  4.7474322E-03;  1.0005720E+03;  4.0000001E-01;  4.7386298E+02;3; -1.7453854E+01;  0.0000000E+00;  2.1695745E+00;0; -2.5618842E-01;  1.0013104E+04;  0.0000000E+00; -1.3618980E-04;  1.0000000E+04;  0.0000000E+00;  9.9983428E+03; -2.9044726E-01;  0.0000000E+00;  3.4258846E-02;  8.2728705E+02;
  2.9991999E-01;  9.9999998E-03;  2.2000945E-01;1520; -4.4339534E-02;  0.0000000E+00;  5.4421904E-03;  1.0005721E+03;  4.0000001E-01;  4.7396173E+02;3; -1.7444872E+01;  0.0000000E+00;  2.4011180E+00;0; -2.5654715E-01;  1.0013316E+04;  0.0000000E+00; -2.0724840E-03;  1.0000000E+04;  0.0000000E+00;  9.9981348E+03; -2.9424554E-01;  0.0000000E+00;  3.7698384E-02;  9.2788837E+02;
  2.9992098E-01;  9.9999998E-03;  2.4001141E-01;1521; -4.3605424E-02;  0.0000000E+00;  6.3081454E-03;  1.0005731E+03;  4.0000001E-01;  4.7475183E+02;3; -1.7727427E+01;  0.0000000E+00;  2.7526143E+00;0; -2.5735724E-01;  1.0013504E+04;  0.0000000E+00; -1.1132408E-02;  1.0000000E+04;  0.0000000E+00;  9.9979639E+03; -2.9807833E-01;  0.0000000E+00;  4.0721104E-02;  1.0088828E+03;
  2.9992309E-01;  9.9999998E-03;  2.6001406E-01;1522; -4.2262968E-02;  0.0000000E+00;  7.4695451E-03;  1.0005734E+03;  4.0000001E-01;  4.7504813E+02;3; -1.8464954E+01;  0.0000000E+00;  3.3440540E+00;0; -2.5770977E-01;  1.0013660E+04;  0.0000000E+00; -3.6423404E-02;  1.0000000E+04;  0.0000000E+00;  9.9978174E+03; -3.0199945E-01;  0.0000000E+00;  4.4289671E-02;  1.0925635E+03;
  2.9992652E-01;  9.9999998E-03;  2.8001761E-01;1523; -4.0255200E-02;  0.0000000E+00;  8.9215878E-03;  1.0005638E+03;  4.0000001E-01;  4.6704834E+02;3; -1.9660204E+01;  0.0000000E+00;  4.2233891E+00;0; -2.5433064E-01;  1.0013766E+04;  0.0000000E+00; -8.3424084E-02;  1.0000000E+04;  0.0000000E+00;  9.9975117E+03; -3.0584565E-01;  0.0000000E+00;  5.1515006E-02;  1.2939797E+03;
  2.9993144E-01;  9.9999998E-03;  3.0002141E-01;1524; -3.7544932E-02;  0.0000000E+00;  1.0317955E-02;  1.0005415E+03;  4.0000001E-01;  4.4857974E+02;3; -2.1006001E+01;  0.0000000E+00;  5.3462868E+00;0; -2.4880192E-01;  1.0013782E+04;  0.0000000E+00; -1.3687414E-01;  1.0000000E+04;  0.0000000E+00;  9.9970547E+03; -3.0866975E-01;  0.0000000E+00;  5.9867829E-02;  1.6060873E+03;
  3.1990826E-01;  9.9999998E-03;  1.6000679E-01;1548; -5.0326638E-02;  0.0000000E+00;  4.5242766E-03;  1.0006453E+03;  4.0000001E-01;  5.3460199E+02;3; -1.9515614E+01;  0.0000000E+00;  2.2355192E+00;0; -2.7989918E-01;  1.0014446E+04;  0.0000000E+00; -7.5918010E-08;  1.0000000E+04;  0.0000000E+00;  9.9984688E+03; -3.1416291E-01;  0.0000000E+00;  3.4263719E-02;  7.7006335E+02;
  3.1990713E-01;  9.9999998E-03;  1.8000828E-01;1549; -5.0685219E-02;  0.0000000E+00;  5.2212635E-03;  1.0006472E+03;  4.0000001E-01;  5.3618219E+02;3; -1.9393740E+01;  0.0000000E+00;  2.4609039E+00;0; -2.8058434E-01;  1.0014722E+04;  0.0000000E+00;  5.6302343E-07;  1.0000000E+04;  0.0000000E+00;  9.9982334E+03; -3.1788865E-01;  0.0000000E+00;  3.7304301E-02;  8.8542169E+02;
  3.1990635E-01;  9.9999998E-03;  2.0000999E-01;1550; -5.0827682E-02;  0.0000000E+00;  5.9830924E-03;  1.0006476E+03;  4.0000001E-01;  5.3647845E+02;3; -1.9273676E+01;  0.0000000E+00;  2.6781330E+00;0; -2.8068629E-01;  1.0014982E+04;  0.0000000E+00;  5.6534604E-06;  1.0000000E+04;  0.0000000E+00;  9.9979766E+03; -3.2150313E-01;  0.0000000E+00;  4.0816832E-02;  1.0075028E+03;
  3.1990620E-01;  9.9999998E-03;  2.2001196E-01;1551; -5.0644517E-02;  0.0000000E+00;  6.8311403E-03;  1.0006468E+03;  4.0000001E-01;  5.3588586E+02;3; -1.9294973E+01;  0.0000000E+00;  2.9498272E+00;0; -2.8040123E-01;  1.0015212E+04;  0.0000000E+00; -1.9562278E-04;  1.0000000E+04;  0.0000000E+00;  9.9977324E+03; -3.2483685E-01;  0.0000000E+00;  4.4435620E-02;  1.1237457E+03;
  3.1990698E-01;  9.9999998E-03;  2.4001436E-01;1552; -4.9975693E-02;  0.0000000E+00;  7.8380946E-03;  1.0006457E+03;  4.0000001E-01;  5.3489825E+02;3; -1.9679247E+01;  0.0000000E+00;  3.3498650E+00;0; -2.7990997E-01;  1.0015396E+04;  0.0000000E+00; -2.0940453E-03;  1.0000000E+04;  0.0000000E+00;  9.9975264E+03; -3.2780987E-01;  0.0000000E+00;  4.7899902E-02;  1.2210627E+03;
  3.1990892E-01;  9.9999998E-03;  2.6001734E-01;1553; -4.8710648E-02;  0.0000000E+00;  9.0332441E-03;  1.0006435E+03;  4.0000001E-01;  5.3312054E+02;3; -2.0651220E+01;  0.0000000E+00;  3.9640985E+00;0; -2.7856946E-01;  1.0015533E+04;  0.0000000E+00; -8.9934804E-03;  1.0000000E+04;  0.0000000E+00;  9.9973447E+03; -3.3041975E-01;  0.0000000E+00;  5.1850297E-02;  1.3070554E+03;
  3.1991223E-01;  9.9999998E-03;  2.8002104E-01;1554; -4.6803322E-02;  0.0000000E+00;  1.0406840E-02;  1.0006333E+03;  4.0000001E-01;  5.2472571E+02;3; -2.2253008E+01;  0.0000000E+00;  4.8424745E+00;0; -2.7464372E-01;  1.0015617E+04;  0.0000000E+00; -2.3526594E-02;  1.0000000E+04;  0.0000000E+00;  9.9970508E+03; -3.3264348E-01;  0.0000000E+00;  5.7999756E-02;  1.4487574E+03;
  3.1991696E-01;  9.9999998E-03;  3.0002496E-01;1555; -4.4253517E-02;  0.0000000E+00;  1.1737069E-02;  1.0006144E+03;  4.0000001E-01;  5.0902246E+02;3; -2.4191969E+01;  0.0000000E+00;  6.0038891E+00;0; -2.7029258E-01;  1.0015640E+04;  0.0000000E+00; -4.1809686E-02;  1.0000000E+04;  0.0000000E+00;  9.9966582E+03; -3.3424538E-01;  0.0000000E+00;  6.3952804E-02;  1.6450327E+03;
  3.3989340E-01;  9.9999998E-03;  1.6000830E-01;1579; -5.7045866E-02;  0.0000000E+00;  5.4954300E-03;  1.0007315E+03;  4.0000001E-01;  6.0600726E+02;3; -2.1467787E+01;  0.0000000E+00;  2.6561759E+00;0; -3.0733350E-01;  1.0016487E+04;  0.0000000E+00; -8.5870660E-08;  1.0000000E+04;  0.0000000E+00;  9.9981504E+03; -3.4798858E-01;  0.0000000E+00;  4.0655080E-02;  9.2815155E+02;
  3.3989194E-01;  9.9999998E-03;  1.8001014E-01;1580; -5.7492334E-02;  0.0000000E+00;  6.3415500E-03;  1.0007334E+03;  4.0000001E-01;  6.0758746E+02;3; -2.1319471E+01;  0.0000000E+00;  2.9210372E+00;0; -3.0782583E-01;  1.0016800E+04;  0.0000000E+00;  3.6310007E-07;  1.0000000E+04;  0.0000000E+00;  9.9978750E+03; -3.5153934E-01;  0.0000000E+00;  4.3713499E-02;  1.0610247E+03;
  3.3989087E-01;  9.9999998E-03;  2.0001224E-01;1581; -5.7713952E-02;  0.0000000E+00;  7.2509572E-03;  1.0007336E+03;  4.0000001E-01;  6.0778503E+02;3; -2.1178722E+01;  0.0000000E+00;  3.1747949E+00;0; -3.0767038E-01;  1.0017085E+04;  0.0000000E+00;  5.1278134E-06;  1.0000000E+04;  0.0000000E+00;  9.9975869E+03; -3.5479724E-01;  0.0000000E+00;  4.7126848E-02;  1.1980797E+03;
  3.3989048E-01;  9.9999998E-03;  2.2001462E-01;1582; -5.7588987E-02;  0.0000000E+00;  8.2162684E-03;  1.0007324E+03;  4.0000001E-01;  6.0669861E+02;3; -2.1223579E+01;  0.0000000E+00;  3.4512899E+00;0; -3.0700245E-01;  1.0017330E+04;  0.0000000E+00;  2.2559076E-05;  1.0000000E+04;  0.0000000E+00;  9.9973271E+03; -3.5756814E-01;  0.0000000E+00;  5.0565694E-02;  1.3259342E+03;
  3.3989108E-01;  9.9999998E-03;  2.4001738E-01;1583; -5.6939408E-02;  0.0000000E+00;  9.3059232E-03;  1.0007307E+03;  4.0000001E-01;  6.0531592E+02;3; -2.1698202E+01;  0.0000000E+00;  3.8695831E+00;0; -3.0596083E-01;  1.0017517E+04;  0.0000000E+00; -1.6579110E-05;  1.0000000E+04;  0.0000000E+00;  9.9971084E+03; -3.5974175E-01;  0.0000000E+00;  5.3780898E-02;  1.4309734E+03;
  3.3989298E-01;  9.9999998E-03;  2.6002061E-01;1584; -5.5660766E-02;  0.0000000E+00;  1.0514563E-02;  1.0007285E+03;  4.0000001E-01;  6.0353821E+02;3; -2.2879524E+01;  0.0000000E+00;  4.5091200E+00;0; -3.0425632E-01;  1.0017647E+04;  0.0000000E+00; -7.4209733E-04;  1.0000000E+04;  0.0000000E+00;  9.9969326E+03; -3.6131886E-01;  0.0000000E+00;  5.7062529E-02;  1.5132531E+03;
  3.3989638E-01;  9.9999998E-03;  2.8002459E-01;1585; -5.3704102E-02;  0.0000000E+00;  1.1878525E-02;  1.0007194E+03;  4.0000001E-01;  5.9603223E+02;3; -2.4844368E+01;  0.0000000E+00;  5.4170899E+00;0; -3.0055529E-01;  1.0017720E+04;  0.0000000E+00; -2.9866106E-03;  1.0000000E+04;  0.0000000E+00;  9.9966777E+03; -3.6237246E-01;  0.0000000E+00;  6.1817158E-02;  1.6334907E+03;
  3.3990139E-01;  9.9999998E-03;  3.0002877E-01;1586; -5.1100008E-02;  0.0000000E+00;  1.3213297E-02;  1.0007037E+03;  4.0000001E-01;  5.8299561E+02;3; -2.7277697E+01;  0.0000000E+00;  6.6642842E+00;0; -2.9676300E-01;  1.0017750E+04;  0.0000000E+00; -6.4127301E-03;  1.0000000E+04;  0.0000000E+00;  9.9963320E+03; -3.6297846E-01;  0.0000000E+00;  6.6215470E-02;  1.7961761E+03;
  3.5987642E-01;  9.9999998E-03;  1.6000991E-01;1610; -6.4478286E-02;  0.0000000E+00;  6.5113436E-03;  1.0008287E+03;  4.0000001E-01;  6.8649872E+02;3; -2.3519018E+01;  0.0000000E+00;  3.0731468E+00;0; -3.3728728E-01;  1.0018777E+04;  0.0000000E+00; -8.7475300E-08;  1.0000000E+04;  0.0000000E+00;  9.9978076E+03; -3.8447562E-01;  0.0000000E+00;  4.7188349E-02;  1.0982438E+03;
  3.5987458E-01;  9.9999998E-03;  1.8001212E-01;1611; -6.5010905E-02;  0.0000000E+00;  7.4914438E-03;  1.0008311E+03;  4.0000001E-01;  6.8857275E+02;3; -2.3337805E+01;  0.0000000E+00;  3.3410251E+00;0; -3.3767238E-01;  1.0019137E+04;  0.0000000E+00;  1.9262050E-07;  1.0000000E+04;  0.0000000E+00;  9.9974961E+03; -3.8779876E-01;  0.0000000E+00;  5.0126366E-02;  1.2488831E+03;
  3.5987315E-01;  9.9999998E-03;  2.0001464E-01;1612; -6.5308481E-02;  0.0000000E+00;  8.5256072E-03;  1.0008314E+03;  4.0000001E-01;  6.8877026E+02;3; -2.3175411E+01;  0.0000000E+00;  3.6091347E+00;0; -3.3735561E-01;  1.0019454E+04;  0.0000000E+00;  4.8546826E-06;  1.0000000E+04;  0.0000000E+00;  9.9971855E+03; -3.9064321E-01;  0.0000000E+00;  5.3287584E-02;  1.4010461E+03;
  3.5987249E-01;  9.9999998E-03;  2.2001743E-01;1613; -6.5227583E-02;  0.0000000E+00;  9.6003441E-03;  1.0008303E+03;  4.0000001E-01;  6.8788141E+02;3; -2.3230434E+01;  0.0000000E+00;  3.8997786E+00;0; -3.3642966E-01;  1.0019717E+04;  0.0000000E+00;  2.3628651E-05;  1.0000000E+04;  0.0000000E+00;  9.9968994E+03; -3.9281055E-01;  0.0000000E+00;  5.6380913E-02;  1.5401841E+03;
  3.5987297E-01;  9.9999998E-03;  2.4002056E-01;1614; -6.4576857E-02;  0.0000000E+00;  1.0751331E-02;  1.0008287E+03;  4.0000001E-01;  6.8649872E+02;3; -2.3793051E+01;  0.0000000E+00;  4.3264294E+00;0; -3.3515209E-01;  1.0019912E+04;  0.0000000E+00;  6.7054381E-05;  1.0000000E+04;  0.0000000E+00;  9.9966709E+03; -3.9422044E-01;  0.0000000E+00;  5.9068356E-02;  1.6500847E+03;
  3.5987493E-01;  9.9999998E-03;  2.6002410E-01;1615; -6.3227162E-02;  0.0000000E+00;  1.1982240E-02;  1.0008271E+03;  4.0000001E-01;  6.8521484E+02;3; -2.5185242E+01;  0.0000000E+00;  4.9995818E+00;0; -3.3356446E-01;  1.0020034E+04;  0.0000000E+00;  1.3200889E-04;  1.0000000E+04;  0.0000000E+00;  9.9965156E+03; -3.9491895E-01;  0.0000000E+00;  6.1354481E-02;  1.7233920E+03;
  3.5987866E-01;  9.9999998E-03;  2.8002843E-01;1616; -6.1117496E-02;  0.0000000E+00;  1.3393901E-02;  1.0008194E+03;  4.0000001E-01;  6.7889404E+02;3; -2.7490999E+01;  0.0000000E+00;  5.9896312E+00;0; -3.3007425E-01;  1.0020104E+04;  0.0000000E+00;  1.5930866E-04;  1.0000000E+04;  0.0000000E+00;  9.9963008E+03; -3.9505216E-01;  0.0000000E+00;  6.4977929E-02;  1.8245758E+03;
  3.5988420E-01;  9.9999998E-03;  3.0003303E-01;1617; -5.8279503E-02;  0.0000000E+00;  1.4781610E-02;  1.0008049E+03;  4.0000001E-01;  6.6684497E+02;3; -3.0364754E+01;  0.0000000E+00;  7.3351169E+00;0; -3.2624832E-01;  1.0020125E+04;  0.0000000E+00;  2.7648162E-05;  1.0000000E+04;  0.0000000E+00;  9.9959863E+03; -3.9483759E-01;  0.0000000E+00;  6.8589263E-02;  1.9740811E+03;
  3.7985709E-01;  9.9999998E-03;  1.6001160E-01;1641; -7.2677337E-02;  0.0000000E+00;  7.5522698E-03;  1.0009383E+03;  4.0000001E-01;  7.7736017E+02;3; -2.5668991E+01;  0.0000000E+00;  3.4701052E+00;0; -3.6982834E-01;  1.0021334E+04;  0.0000000E+00; -7.6360656E-08;  1.0000000E+04;  0.0000000E+00;  9.9974443E+03; -4.2373091E-01;  0.0000000E+00;  5.3902555E-02;  1.2803804E+03;
  3.7985480E-01;  9.9999998E-03;  1.8001422E-01;1642; -7.3290706E-02;  0.0000000E+00;  8.6682308E-03;  1.0009417E+03;  4.0000001E-01;  7.8012549E+02;3; -2.5443230E+01;  0.0000000E+00;  3.7388723E+00;0; -3.7019426E-01;  1.0021747E+04;  0.0000000E+00;  1.4258310E-08;  1.0000000E+04;  0.0000000E+00;  9.9970977E+03; -4.2684346E-01;  0.0000000E+00;  5.6649197E-02;  1.4499534E+03;
  3.7985298E-01;  9.9999998E-03;  2.0001717E-01;1643; -7.3656268E-02;  0.0000000E+00;  9.8224198E-03;  1.0009427E+03;  4.0000001E-01;  7.8101434E+02;3; -2.5246342E+01;  0.0000000E+00;  3.9929328E+00;0; -3.6982164E-01;  1.0022115E+04;  0.0000000E+00;  4.7200865E-06;  1.0000000E+04;  0.0000000E+00;  9.9967490E+03; -4.2931956E-01;  0.0000000E+00;  5.9497919E-02;  1.6191038E+03;
  3.7985200E-01;  9.9999998E-03;  2.2002041E-01;1644; -7.3611692E-02;  0.0000000E+00;  1.1001459E-02;  1.0009421E+03;  4.0000001E-01;  7.8052057E+02;3; -2.5312748E+01;  0.0000000E+00;  4.2956839E+00;0; -3.6876202E-01;  1.0022416E+04;  0.0000000E+00;  2.5942449E-05;  1.0000000E+04;  0.0000000E+00;  9.9964385E+03; -4.3096116E-01;  0.0000000E+00;  6.2199160E-02;  1.7718445E+03;
  3.7985235E-01;  9.9999998E-03;  2.4002397E-01;1645; -7.2950847E-02;  0.0000000E+00;  1.2217284E-02;  1.0009407E+03;  4.0000001E-01;  7.7933539E+02;3; -2.5970242E+01;  0.0000000E+00;  4.7365561E+00;0; -3.6737263E-01;  1.0022633E+04;  0.0000000E+00;  7.7666657E-05;  1.0000000E+04;  0.0000000E+00;  9.9961963E+03; -4.3172300E-01;  0.0000000E+00;  6.4350359E-02;  1.8890144E+03;
  3.7985441E-01;  9.9999998E-03;  2.6002792E-01;1646; -7.1507476E-02;  0.0000000E+00;  1.3486379E-02;  1.0009404E+03;  4.0000001E-01;  7.7903912E+02;3; -2.7588884E+01;  0.0000000E+00;  5.4431682E+00;0; -3.6599475E-01;  1.0022768E+04;  0.0000000E+00;  1.5821017E-04;  1.0000000E+04;  0.0000000E+00;  9.9960557E+03; -4.3170306E-01;  0.0000000E+00;  6.5708295E-02;  1.9567081E+03;
  3.7985849E-01;  9.9999998E-03;  2.8003269E-01;1647; -6.9203705E-02;  0.0000000E+00;  1.4970967E-02;  1.0009341E+03;  4.0000001E-01;  7.7390344E+02;3; -3.0254313E+01;  0.0000000E+00;  6.5364709E+00;0; -3.6263245E-01;  1.0022830E+04;  0.0000000E+00;  2.1899026E-04;  1.0000000E+04;  0.0000000E+00;  9.9958691E+03; -4.3110114E-01;  0.0000000E+00;  6.8468705E-02;  2.0449960E+03;
  3.7986478E-01;  9.9999998E-03;  3.0003783E-01;1648; -6.6059887E-02;  0.0000000E+00;  1.6453020E-02;  1.0009195E+03;  4.0000001E-01;  7.6175568E+02;3; -3.3581028E+01;  0.0000000E+00;  8.0120163E+00;0; -3.5826617E-01;  1.0022843E+04;  0.0000000E+00;  1.5875684E-04;  1.0000000E+04;  0.0000000E+00;  9.9955645E+03; -4.3018597E-01;  0.0000000E+00;  7.1919799E-02;  2.1909622E+03;
  3.9983511E-01;  9.9999998E-03;  1.6001344E-01;1672; -8.1695169E-02;  0.0000000E+00;  8.6061070E-03;  1.0010613E+03;  4.0000001E-01;  8.7928290E+02;3; -2.7909370E+01;  0.0000000E+00;  3.8329012E+00;0; -4.0494278E-01;  1.0024183E+04;  0.0000000E+00; -9.0203159E-08;  1.0000000E+04;  0.0000000E+00;  9.9970576E+03; -4.6580482E-01;  0.0000000E+00;  6.0862042E-02;  1.4747506E+03;
  3.9983231E-01;  9.9999998E-03;  1.8001647E-01;1673; -8.2382992E-02;  0.0000000E+00;  9.8662786E-03;  1.0010663E+03;  4.0000001E-01;  8.8343091E+02;3; -2.7625738E+01;  0.0000000E+00;  4.0980010E+00;0; -4.0538180E-01;  1.0024668E+04;  0.0000000E+00; -1.6296367E-07;  1.0000000E+04;  0.0000000E+00;  9.9966719E+03; -4.6877766E-01;  0.0000000E+00;  6.3395858E-02;  1.6646044E+03;
  3.9983001E-01;  9.9999998E-03;  2.0001990E-01;1674; -8.2809627E-02;  0.0000000E+00;  1.1153165E-02;  1.0010687E+03;  4.0000001E-01;  8.8540619E+02;3; -2.7388083E+01;  0.0000000E+00;  4.3448839E+00;0; -4.0506607E-01;  1.0025104E+04;  0.0000000E+00;  4.6704381E-06;  1.0000000E+04;  0.0000000E+00;  9.9962881E+03; -4.7100389E-01;  0.0000000E+00;  6.5937802E-02;  1.8537660E+03;
  3.9982873E-01;  9.9999998E-03;  2.2002363E-01;1675; -8.2792260E-02;  0.0000000E+00;  1.2444232E-02;  1.0010692E+03;  4.0000001E-01;  8.8580127E+02;3; -2.7458864E+01;  0.0000000E+00;  4.6336489E+00;0; -4.0399653E-01;  1.0025464E+04;  0.0000000E+00;  2.9379105E-05;  1.0000000E+04;  0.0000000E+00;  9.9959365E+03; -4.7228977E-01;  0.0000000E+00;  6.8293244E-02;  2.0243563E+03;
  3.9982888E-01;  9.9999998E-03;  2.4002768E-01;1676; -8.2109317E-02;  0.0000000E+00;  1.3738744E-02;  1.0010688E+03;  4.0000001E-01;  8.8550494E+02;3; -2.8222925E+01;  0.0000000E+00;  5.0988302E+00;0; -4.0262097E-01;  1.0025725E+04;  0.0000000E+00;  9.2739676E-05;  1.0000000E+04;  0.0000000E+00;  9.9956709E+03; -4.7262189E-01;  0.0000000E+00;  7.0000902E-02;  2.1539739E+03;
  3.9983106E-01;  9.9999998E-03;  2.6003212E-01;1677; -8.0558449E-02;  0.0000000E+00;  1.5063056E-02;  1.0010700E+03;  4.0000001E-01;  8.8649255E+02;3; -3.0084848E+01;  0.0000000E+00;  5.8523903E+00;0; -4.0153110E-01;  1.0025893E+04;  0.0000000E+00;  1.9454176E-04;  1.0000000E+04;  0.0000000E+00;  9.9955303E+03; -4.7213605E-01;  0.0000000E+00;  7.0604935E-02;  2.2232085E+03;
  3.9983556E-01;  9.9999998E-03;  2.8003749E-01;1678; -7.8043491E-02;  0.0000000E+00;  1.6632054E-02;  1.0010654E+03;  4.0000001E-01;  8.8264081E+02;3; -3.3144833E+01;  0.0000000E+00;  7.0519147E+00;0; -3.9839137E-01;  1.0025972E+04;  0.0000000E+00;  2.7417758E-04;  1.0000000E+04;  0.0000000E+00;  9.9953525E+03; -4.7106797E-01;  0.0000000E+00;  7.2676592E-02;  2.3070222E+03;
  3.9984262E-01;  9.9999998E-03;  3.0004326E-01;1679; -7.4571207E-02;  0.0000000E+00;  1.8230682E-02;  1.0010505E+03;  4.0000001E-01;  8.7039429E+02;3; -3.6977859E+01;  0.0000000E+00;  8.6551924E+00;0; -3.9344695E-01;  1.0025997E+04;  0.0000000E+00;  1.9904788E-04;  1.0000000E+04;  0.0000000E+00;  9.9950332E+03; -4.6971217E-01;  0.0000000E+00;  7.6265223E-02;  2.4583159E+03;
  4.1981024E-01;  9.9999998E-03;  1.6001545E-01;1703; -9.1585197E-02;  0.0000000E+00;  9.6682301E-03;  1.0011984E+03;  4.0000001E-01;  9.9285956E+02;3; -3.0235168E+01;  0.0000000E+00;  4.1592059E+00;0; -4.4253695E-01;  1.0027337E+04;  0.0000000E+00; -1.0604388E-07;  1.0000000E+04;  0.0000000E+00;  9.9966484E+03; -5.1064861E-01;  0.0000000E+00;  6.8111643E-02;  1.6817181E+03;
  4.1980684E-01;  9.9999998E-03;  1.8001893E-01;1704; -9.2341930E-02;  0.0000000E+00;  1.1087952E-02;  1.0012059E+03;  4.0000001E-01;  9.9908154E+02;3; -2.9877506E+01;  0.0000000E+00;  4.4077077E+00;0; -4.4316435E-01;  1.0027913E+04;  0.0000000E+00; -2.4557860E-07;  1.0000000E+04;  0.0000000E+00;  9.9962197E+03; -5.1358706E-01;  0.0000000E+00;  7.0422709E-02;  1.8920197E+03;
  4.1980401E-01;  9.9999998E-03;  2.0002285E-01;1705; -9.2822842E-02;  0.0000000E+00;  1.2523985E-02;  1.0012104E+03;  4.0000001E-01;  1.0028345E+03;3; -2.9588919E+01;  0.0000000E+00;  4.6474833E+00;0; -4.4304079E-01;  1.0028441E+04;  0.0000000E+00;  4.9210830E-06;  1.0000000E+04;  0.0000000E+00;  9.9957910E+03; -5.1573265E-01;  0.0000000E+00;  7.2691865E-02;  2.1040720E+03;
  4.1980228E-01;  9.9999998E-03;  2.2002715E-01;1706; -9.2823908E-02;  0.0000000E+00;  1.3947044E-02;  1.0012130E+03;  4.0000001E-01;  1.0049086E+03;3; -2.9662876E+01;  0.0000000E+00;  4.9306931E+00;0; -4.4211331E-01;  1.0028883E+04;  0.0000000E+00;  3.4336881E-05;  1.0000000E+04;  0.0000000E+00;  9.9953994E+03; -5.1690388E-01;  0.0000000E+00;  7.4790560E-02;  2.2974319E+03;
  4.1980225E-01;  9.9999998E-03;  2.4003179E-01;1707; -9.2105307E-02;  0.0000000E+00;  1.5340912E-02;  1.0012148E+03;  4.0000001E-01;  1.0064888E+03;3; -3.0541500E+01;  0.0000000E+00;  5.4105573E+00;0; -4.4089299E-01;  1.0029228E+04;  0.0000000E+00;  1.1297094E-04;  1.0000000E+04;  0.0000000E+00;  9.9950957E+03; -5.1710594E-01;  0.0000000E+00;  7.6212958E-02;  2.4458457E+03;
  4.1980448E-01;  9.9999998E-03;  2.6003686E-01;1708; -9.0433449E-02;  0.0000000E+00;  1.6741157E-02;  1.0012183E+03;  4.0000001E-01;  1.0093529E+03;3; -3.2665955E+01;  0.0000000E+00;  6.2130694E+00;0; -4.4018614E-01;  1.0029456E+04;  0.0000000E+00;  2.4214695E-04;  1.0000000E+04;  0.0000000E+00;  9.9949355E+03; -5.1649004E-01;  0.0000000E+00;  7.6303884E-02;  2.5259460E+03;
  4.1980940E-01;  9.9999998E-03;  2.8004295E-01;1709; -8.7691449E-02;  0.0000000E+00;  1.8399583E-02;  1.0012157E+03;  4.0000001E-01;  1.0071801E+03;3; -3.6155907E+01;  0.0000000E+00;  7.5278225E+00;0; -4.3755296E-01;  1.0029595E+04;  0.0000000E+00;  3.4342392E-04;  1.0000000E+04;  0.0000000E+00;  9.9947461E+03; -5.1530218E-01;  0.0000000E+00;  7.7749230E-02;  2.6165881E+03;
  4.1981733E-01;  9.9999998E-03;  3.0004948E-01;1710; -8.3864920E-02;  0.0000000E+00;  2.0132888E-02;  1.0012017E+03;  4.0000001E-01;  9.9562488E+02;3; -4.0536095E+01;  0.0000000E+00;  9.2924614E+00;0; -4.3235350E-01;  1.0029657E+04;  0.0000000E+00;  2.4111602E-04;  1.0000000E+04;  0.0000000E+00;  9.9944033E+03; -5.1384091E-01;  0.0000000E+00;  8.1487432E-02;  2.7806125E+03;
  4.3978214E-01;  9.9999998E-03;  1.6001780E-01;1734; -1.0240185E-01;  0.0000000E+00;  1.0748638E-02;  1.0013494E+03;  4.0000001E-01;  1.1179912E+03;3; -3.2634621E+01;  0.0000000E+00;  4.4086976E+00;0; -4.8233011E-01;  1.0030809E+04;  0.0000000E+00; -1.2038160E-07;  1.0000000E+04;  0.0000000E+00;  9.9962090E+03; -5.5799264E-01;  0.0000000E+00;  7.5662531E-02;  1.9028301E+03;
  4.3977803E-01;  9.9999998E-03;  1.8002172E-01;1735; -1.0322609E-01;  0.0000000E+00;  1.2341440E-02;  1.0013602E+03;  4.0000001E-01;  1.1268799E+03;3; -3.2189278E+01;  0.0000000E+00;  4.6529994E+00;0; -4.8332337E-01;  1.0031486E+04;  0.0000000E+00; -5.0265378E-08;  1.0000000E+04;  0.0000000E+00;  9.9957520E+03; -5.6102532E-01;  0.0000000E+00;  7.7701963E-02;  2.1308345E+03;
  4.3977454E-01;  9.9999998E-03;  2.0002614E-01;1736; -1.0375686E-01;  0.0000000E+00;  1.3940323E-02;  1.0013685E+03;  4.0000001E-01;  1.1337932E+03;3; -3.1839264E+01;  0.0000000E+00;  4.8863869E+00;0; -4.8358804E-01;  1.0032130E+04;  0.0000000E+00;  6.2726667E-06;  1.0000000E+04;  0.0000000E+00;  9.9952744E+03; -5.6330180E-01;  0.0000000E+00;  7.9713754E-02;  2.3667600E+03;
  4.3977231E-01;  9.9999998E-03;  2.2003102E-01;1737; -1.0376900E-01;  0.0000000E+00;  1.5513101E-02;  1.0013748E+03;  4.0000001E-01;  1.1390276E+03;3; -3.1914209E+01;  0.0000000E+00;  5.1702685E+00;0; -4.8302877E-01;  1.0032696E+04;  0.0000000E+00;  4.2589072E-05;  1.0000000E+04;  0.0000000E+00;  9.9948281E+03; -5.6466532E-01;  0.0000000E+00;  8.1636563E-02;  2.5865466E+03;
  4.3977198E-01;  9.9999998E-03;  2.4003631E-01;1738; -1.0300133E-01;  0.0000000E+00;  1.7030444E-02;  1.0013802E+03;  4.0000001E-01;  1.1434719E+03;3; -3.2913918E+01;  0.0000000E+00;  5.6593451E+00;0; -4.8219138E-01;  1.0033156E+04;  0.0000000E+00;  1.4133452E-04;  1.0000000E+04;  0.0000000E+00;  9.9944785E+03; -5.6512547E-01;  0.0000000E+00;  8.2934089E-02;  2.7585562E+03;
  4.3977425E-01;  9.9999998E-03;  2.6004219E-01;1739; -1.0119421E-01;  0.0000000E+00;  1.8539876E-02;  1.0013875E+03;  4.0000001E-01;  1.1494965E+03;3; -3.5322159E+01;  0.0000000E+00;  6.5152063E+00;0; -4.8200873E-01;  1.0033498E+04;  0.0000000E+00;  3.0458078E-04;  1.0000000E+04;  0.0000000E+00;  9.9942773E+03; -5.6481618E-01;  0.0000000E+00;  8.2807451E-02;  2.8583369E+03;
  4.3977961E-01;  9.9999998E-03;  2.8004920E-01;1740; -9.8210439E-02;  0.0000000E+00;  2.0298446E-02;  1.0013873E+03;  4.0000001E-01;  1.1492990E+03;3; -3.9281040E+01;  0.0000000E+00;  7.9467630E+00;0; -4.8019829E-01;  1.0033733E+04;  0.0000000E+00;  4.2799473E-04;  1.0000000E+04;  0.0000000E+00;  9.9940430E+03; -5.6395674E-01;  0.0000000E+00;  8.3758444E-02;  2.9732737E+03;
  4.3978843E-01;  9.9999998E-03;  3.0005667E-01;1741; -9.4006032E-02;  0.0000000E+00;  2.2172587E-02;  1.0013749E+03;  4.0000001E-01;  1.1390276E+03;3; -4.4257778E+01;  0.0000000E+00;  9.8968906E+00;0; -4.7534081E-01;  1.0033876E+04;  0.0000000E+00;  2.7555044E-04;  1.0000000E+04;  0.0000000E+00;  9.9936514E+03; -5.6282759E-01;  0.0000000E+00;  8.7486766E-02;  3.1608357E+03;
  4.5975047E-01;  9.9999998E-03;  1.6002074E-01;1765; -1.1420596E-01;  0.0000000E+00;  1.1885212E-02;  1.0015143E+03;  4.0000069E-01;  1.2545790E+03;3; -3.5097176E+01;  0.0000000E+00;  4.5654130E+00;0; -5.2355808E-01;  1.0034550E+04;  0.0000000E+00;  4.0141893E-07;  1.0000000E+04;  0.0000000E+00;  9.9957344E+03; -6.0707706E-01;  0.0000000E+00;  8.3518974E-02;  2.1429722E+03;
  4.5974553E-01;  9.9999998E-03;  1.8002509E-01;1766; -1.1510000E-01;  0.0000000E+00;  1.3653311E-02;  1.0015305E+03;  4.0000072E-01;  1.2680106E+03;3; -3.4551670E+01;  0.0000000E+00;  4.8124752E+00;0; -5.2518457E-01;  1.0035352E+04;  0.0000000E+00;  1.2932151E-06;  1.0000000E+04;  0.0000000E+00;  9.9952549E+03; -6.1033392E-01;  0.0000000E+00;  8.5149325E-02;  2.3814221E+03;
  4.5974123E-01;  9.9999998E-03;  2.0002995E-01;1767; -1.1568079E-01;  0.0000000E+00;  1.5413718E-02;  1.0015436E+03;  4.0000075E-01;  1.2788745E+03;3; -3.4128922E+01;  0.0000000E+00;  5.0401878E+00;0; -5.2612805E-01;  1.0036140E+04;  0.0000000E+00;  1.0553294E-05;  1.0000000E+04;  0.0000000E+00;  9.9947402E+03; -6.1298323E-01;  0.0000000E+00;  8.6855151E-02;  2.6385349E+03;
  4.5973831E-01;  9.9999998E-03;  2.2003536E-01;1768; -1.1570054E-01;  0.0000000E+00;  1.7138403E-02;  1.0015551E+03;  4.0000075E-01;  1.2883557E+03;3; -3.4200516E+01;  0.0000000E+00;  5.3249664E+00;0; -5.2628511E-01;  1.0036867E+04;  0.0000000E+00;  5.8085927E-05;  1.0000000E+04;  0.0000000E+00;  9.9942432E+03; -6.1490923E-01;  0.0000000E+00;  8.8624135E-02;  2.8849678E+03;
  4.5973760E-01;  9.9999998E-03;  2.4004133E-01;1769; -1.1487564E-01;  0.0000000E+00;  1.8797716E-02;  1.0015668E+03;  4.0000063E-01;  1.2981332E+03;3; -3.5328094E+01;  0.0000000E+00;  5.8293428E+00;0; -5.2624059E-01;  1.0037495E+04;  0.0000000E+00;  1.8457633E-04;  1.0000000E+04;  0.0000000E+00;  9.9938477E+03; -6.1610830E-01;  0.0000000E+00;  8.9867733E-02;  3.0805183E+03;
  4.5973977E-01;  9.9999998E-03;  2.6004818E-01;1770; -1.1292060E-01;  0.0000000E+00;  2.0465227E-02;  1.0015798E+03;  4.0000078E-01;  1.3088983E+03;3; -3.8045799E+01;  0.0000000E+00;  6.7413678E+00;0; -5.2685153E-01;  1.0038004E+04;  0.0000000E+00;  3.9059028E-04;  1.0000000E+04;  0.0000000E+00;  9.9936006E+03; -6.1666161E-01;  0.0000000E+00;  8.9810103E-02;  3.2032100E+03;
  4.5974553E-01;  9.9999998E-03;  2.8005645E-01;1771; -1.0968401E-01;  0.0000000E+00;  2.2358742E-02;  1.0015825E+03;  4.0000075E-01;  1.3110710E+03;3; -4.2517067E+01;  0.0000000E+00;  8.2920399E+00;0; -5.2610427E-01;  1.0038388E+04;  0.0000000E+00;  5.3327775E-04;  1.0000000E+04;  0.0000000E+00;  9.9932695E+03; -6.1671984E-01;  0.0000000E+00;  9.0615585E-02;  3.3660273E+03;
  4.5975527E-01;  9.9999998E-03;  3.0006510E-01;1772; -1.0507996E-01;  0.0000000E+00;  2.4381895E-02;  1.0015725E+03;  4.0000063E-01;  1.3027750E+03;3; -4.8144302E+01;  0.0000000E+00;  1.0451842E+01;0; -5.2228510E-01;  1.0038669E+04;  0.0000000E+00;  2.9151165E-04;  1.0000000E+04;  0.0000000E+00;  9.9927861E+03; -6.1650759E-01;  0.0000000E+00;  9.4222493E-02;  3.6007297E+03;
  4.7971484E-01;  9.9999998E-03;  1.6002472E-01;1796; -1.2706281E-01;  0.0000000E+00;  1.3157424E-02;  1.0016867E+03;  4.0000218E-01;  1.3973883E+03;3; -3.7614117E+01;  0.0000000E+00;  4.6116452E+00;0; -5.6442916E-01;  1.0038470E+04;  0.0000000E+00;  3.1688110E-06;  1.0000000E+04;  0.0000000E+00;  9.9952021E+03; -6.5617168E-01;  0.0000000E+00;  9.1742508E-02;  2.4133477E+03;
  4.7970888E-01;  9.9999998E-03;  1.8002942E-01;1797; -1.2803188E-01;  0.0000000E+00;  1.5085968E-02;  1.0017096E+03;  4.0000212E-01;  1.4163507E+03;3; -3.6954128E+01;  0.0000000E+00;  4.8588953E+00;0; -5.6704700E-01;  1.0039405E+04;  0.0000000E+00;  6.0465354E-06;  1.0000000E+04;  0.0000000E+00;  9.9947275E+03; -6.5975809E-01;  0.0000000E+00;  9.2711084E-02;  2.6499092E+03;
  4.7970361E-01;  9.9999998E-03;  2.0003462E-01;1798; -1.2866816E-01;  0.0000000E+00;  1.6982289E-02;  1.0017302E+03;  4.0000206E-01;  1.4334366E+03;3; -3.6448460E+01;  0.0000000E+00;  5.0818591E+00;0; -5.6905520E-01;  1.0040358E+04;  0.0000000E+00;  2.1611713E-05;  1.0000000E+04;  0.0000000E+00;  9.9941846E+03; -6.6302490E-01;  0.0000000E+00;  9.3969733E-02;  2.9209780E+03;
  4.7969985E-01;  9.9999998E-03;  2.2004040E-01;1799; -1.2869991E-01;  0.0000000E+00;  1.8832590E-02;  1.0017492E+03;  4.0000206E-01;  1.4491398E+03;3; -3.6513142E+01;  0.0000000E+00;  5.3642669E+00;0; -5.7041031E-01;  1.0041283E+04;  0.0000000E+00;  8.8075925E-05;  1.0000000E+04;  0.0000000E+00;  9.9936465E+03; -6.6591436E-01;  0.0000000E+00;  9.5504031E-02;  3.1892805E+03;
  4.7969851E-01;  9.9999998E-03;  2.4004696E-01;1800; -1.2782185E-01;  0.0000000E+00;  2.0627614E-02;  1.0017705E+03;  4.0000200E-01;  1.4668182E+03;3; -3.7777634E+01;  0.0000000E+00;  5.8940711E+00;0; -5.7182926E-01;  1.0042133E+04;  0.0000000E+00;  2.5576758E-04;  1.0000000E+04;  0.0000000E+00;  9.9932236E+03; -6.6839492E-01;  0.0000000E+00;  9.6565671E-02;  3.3993115E+03;
  4.7970045E-01;  9.9999998E-03;  2.6005492E-01;1801; -1.2571774E-01;  0.0000000E+00;  2.2509025E-02;  1.0017937E+03;  4.0000215E-01;  1.4860769E+03;3; -4.0835297E+01;  0.0000000E+00;  6.8651185E+00;0; -5.7378983E-01;  1.0042865E+04;  0.0000000E+00;  5.1879411E-04;  1.0000000E+04;  0.0000000E+00;  9.9929570E+03; -6.7046070E-01;  0.0000000E+00;  9.6670896E-02;  3.5338860E+03;
  4.7970641E-01;  9.9999998E-03;  2.8006488E-01;1802; -1.2223239E-01;  0.0000000E+00;  2.4611678E-02;  1.0018000E+03;  4.0000203E-01;  1.4913114E+03;3; -4.5870441E+01;  0.0000000E+00;  8.5362196E+00;0; -5.7421827E-01;  1.0043470E+04;  0.0000000E+00;  6.7394355E-04;  1.0000000E+04;  0.0000000E+00;  9.9924824E+03; -6.7214864E-01;  0.0000000E+00;  9.7930379E-02;  3.7681462E+03;
  4.7971699E-01;  9.9999998E-03;  3.0007505E-01;1803; -1.1722814E-01;  0.0000000E+00;  2.6803859E-02;  1.0017916E+03;  4.0000206E-01;  1.4842992E+03;3; -5.2213436E+01;  0.0000000E+00;  1.0940489E+01;0; -5.7212436E-01;  1.0043952E+04;  0.0000000E+00;  2.8098613E-04;  1.0000000E+04;  0.0000000E+00;  9.9918281E+03; -6.7357290E-01;  0.0000000E+00;  1.0144854E-01;  4.0869741E+03;
  4.9967483E-01;  9.9999998E-03;  1.6003032E-01;1827; -1.4103293E-01;  0.0000000E+00;  1.4689647E-02;  1.0018553E+03;  4.0000474E-01;  1.5371357E+03;3; -4.0174458E+01;  0.0000000E+00;  4.5272012E+00;0; -6.0147727E-01;  1.0042353E+04;  0.0000000E+00;  1.2009796E-05;  1.0000000E+04;  0.0000000E+00;  9.9945645E+03; -7.0201439E-01;  0.0000000E+00;  1.0053713E-01;  2.7346604E+03;
  4.9966773E-01;  9.9999998E-03;  1.8003537E-01;1828; -1.4208144E-01;  0.0000000E+00;  1.6751157E-02;  1.0018871E+03;  4.0000489E-01;  1.5635052E+03;3; -3.9386307E+01;  0.0000000E+00;  4.7667098E+00;0; -6.0547817E-01;  1.0043417E+04;  0.0000000E+00;  1.8473333E-05;  1.0000000E+04;  0.0000000E+00;  9.9941318E+03; -7.0597994E-01;  0.0000000E+00;  1.0050179E-01;  2.9537078E+03;
  4.9966130E-01;  9.9999998E-03;  2.0004074E-01;1829; -1.4278252E-01;  0.0000000E+00;  1.8733948E-02;  1.0019160E+03;  4.0000492E-01;  1.5874056E+03;3; -3.8790306E+01;  0.0000000E+00;  4.9845214E+00;0; -6.0895681E-01;  1.0044549E+04;  0.0000000E+00;  4.5427518E-05;  1.0000000E+04;  0.0000000E+00;  9.9935830E+03; -7.1005672E-01;  0.0000000E+00;  1.0109988E-01;  3.2285229E+03;
  4.9965644E-01;  9.9999998E-03;  2.2004665E-01;1830; -1.4284424E-01;  0.0000000E+00;  2.0655185E-02;  1.0019453E+03;  4.0000480E-01;  1.6116024E+03;3; -3.8853065E+01;  0.0000000E+00;  5.2834544E+00;0; -6.1204326E-01;  1.0045698E+04;  0.0000000E+00;  1.4464399E-04;  1.0000000E+04;  0.0000000E+00;  9.9930176E+03; -7.1425945E-01;  0.0000000E+00;  1.0221620E-01;  3.5097747E+03;
  4.9965420E-01;  9.9999998E-03;  2.4005355E-01;1831; -1.4193843E-01;  0.0000000E+00;  2.2533109E-02;  1.0019800E+03;  4.0000489E-01;  1.6403423E+03;3; -4.0264328E+01;  0.0000000E+00;  5.8104544E+00;0; -6.1581182E-01;  1.0046808E+04;  0.0000000E+00;  3.7880131E-04;  1.0000000E+04;  0.0000000E+00;  9.9926113E+03; -7.1851802E-01;  0.0000000E+00;  1.0270619E-01;  3.7143542E+03;
  4.9965557E-01;  9.9999998E-03;  2.6006258E-01;1832; -1.3971227E-01;  0.0000000E+00;  2.4663793E-02;  1.0020194E+03;  4.0000483E-01;  1.6730326E+03;3; -4.3697701E+01;  0.0000000E+00;  6.8495178E+00;0; -6.2014610E-01;  1.0047814E+04;  0.0000000E+00;  7.2579284E-04;  1.0000000E+04;  0.0000000E+00;  9.9924004E+03; -7.2272074E-01;  0.0000000E+00;  1.0257465E-01;  3.8234299E+03;
  4.9966136E-01;  9.9999998E-03;  2.8007475E-01;1833; -1.3602318E-01;  0.0000000E+00;  2.7092930E-02;  1.0020317E+03;  4.0000492E-01;  1.6832051E+03;3; -4.9364925E+01;  0.0000000E+00;  8.6516380E+00;0; -6.2180734E-01;  1.0048696E+04;  0.0000000E+00;  8.8414201E-04;  1.0000000E+04;  0.0000000E+00;  9.9917588E+03; -7.2675020E-01;  0.0000000E+00;  1.0494286E-01;  4.1367627E+03;
  4.9967229E-01;  9.9999998E-03;  3.0008698E-01;1834; -1.3068515E-01;  0.0000000E+00;  2.9492095E-02;  1.0020233E+03;  4.0000480E-01;  1.6762917E+03;3; -5.6523884E+01;  0.0000000E+00;  1.1341725E+01;0; -6.2201732E-01;  1.0049442E+04;  0.0000000E+00;  2.4751193E-04;  1.0000000E+04;  0.0000000E+00;  9.9908428E+03; -7.3053581E-01;  0.0000000E+00;  1.0851848E-01;  4.5877920E+03;
  5.1963013E-01;  9.9999998E-03;  1.6003832E-01;1858; -1.5614264E-01;  0.0000000E+00;  1.6637735E-02;  1.0020104E+03;  4.0001345E-01;  1.6655242E+03;3; -4.2762375E+01;  0.0000000E+00;  4.2747564E+00;0; -6.2909007E-01;  1.0045833E+04;  0.0000000E+00;  3.1426385E-05;  1.0000000E+04;  0.0000000E+00;  9.9937490E+03; -7.3943388E-01;  0.0000000E+00;  1.1034382E-01;  3.1403904E+03;
  5.1962179E-01;  9.9999998E-03;  1.8004376E-01;1859; -1.5726952E-01;  0.0000000E+00;  1.8811753E-02;  1.0020511E+03;  4.0001333E-01;  1.6993009E+03;3; -4.1839146E+01;  0.0000000E+00;  4.5243368E+00;0; -6.3473237E-01;  1.0047017E+04;  0.0000000E+00;  4.2171054E-05;  1.0000000E+04;  0.0000000E+00;  9.9933818E+03; -7.4372417E-01;  0.0000000E+00;  1.0899181E-01;  3.3286831E+03;
  5.1961404E-01;  9.9999998E-03;  2.0004922E-01;1860; -1.5804479E-01;  0.0000000E+00;  2.0829543E-02;  1.0020891E+03;  4.0001333E-01;  1.7307072E+03;3; -4.1147655E+01;  0.0000000E+00;  4.7349696E+00;0; -6.3990670E-01;  1.0048318E+04;  0.0000000E+00;  8.8350826E-05;  1.0000000E+04;  0.0000000E+00;  9.9928428E+03; -7.4865377E-01;  0.0000000E+00;  1.0874708E-01;  3.5993313E+03;
  5.1960784E-01;  9.9999998E-03;  2.2005501E-01;1861; -1.5817152E-01;  0.0000000E+00;  2.2743048E-02;  1.0021288E+03;  4.0001330E-01;  1.7636937E+03;3; -4.1212059E+01;  0.0000000E+00;  5.0073814E+00;0; -6.4505339E-01;  1.0049688E+04;  0.0000000E+00;  2.4740573E-04;  1.0000000E+04;  0.0000000E+00;  9.9922803E+03; -7.5430995E-01;  0.0000000E+00;  1.0925654E-01;  3.8851563E+03;
  5.1960433E-01;  9.9999998E-03;  2.4006185E-01;1862; -1.5728532E-01;  0.0000000E+00;  2.4602899E-02;  1.0021803E+03;  4.0001333E-01;  1.8063590E+03;3; -4.2787296E+01;  0.0000000E+00;  5.5361209E+00;0; -6.5208364E-01;  1.0051062E+04;  0.0000000E+00;  5.9959327E-04;  1.0000000E+04;  0.0000000E+00;  9.9919424E+03; -7.6059341E-01;  0.0000000E+00;  1.0850980E-01;  4.0563936E+03;
  5.1960456E-01;  9.9999998E-03;  2.6007161E-01;1863; -1.5501517E-01;  0.0000000E+00;  2.6963482E-02;  1.0022449E+03;  4.0001324E-01;  1.8598881E+03;3; -4.6645374E+01;  0.0000000E+00;  6.6529260E+00;0; -6.6031033E-01;  1.0052363E+04;  0.0000000E+00;  1.0840427E-03;  1.0000000E+04;  0.0000000E+00;  9.9919258E+03; -7.6729709E-01;  0.0000000E+00;  1.0698675E-01;  4.0699619E+03;
  5.1960945E-01;  9.9999998E-03;  2.8008652E-01;1864; -1.5124708E-01;  0.0000000E+00;  2.9859312E-02;  1.0022677E+03;  4.0001333E-01;  1.8787516E+03;3; -5.3038498E+01;  0.0000000E+00;  8.6091328E+00;0; -6.6341287E-01;  1.0053560E+04;  0.0000000E+00;  1.2312818E-03;  1.0000000E+04;  0.0000000E+00;  9.9911836E+03; -7.7412826E-01;  0.0000000E+00;  1.1071540E-01;  4.4330132E+03;
  5.1961970E-01;  9.9999998E-03;  3.0010143E-01;1865; -1.4578140E-01;  0.0000000E+00;  3.2521613E-02;  1.0022565E+03;  4.0001333E-01;  1.8694680E+03;3; -6.1173512E+01;  0.0000000E+00;  1.1638324E+01;0; -6.6636652E-01;  1.0054606E+04;  0.0000000E+00;  2.1534759E-04;  1.0000000E+04;  0.0000000E+00;  9.9899219E+03; -7.8075188E-01;  0.0000000E+00;  1.1438538E-01;  5.0567832E+03;
  5.3958082E-01;  9.9999998E-03;  1.6004947E-01;1889; -1.7232125E-01;  0.0000000E+00;  1.9155743E-02;  1.0021406E+03;  4.0003607E-01;  1.7733693E+03;3; -4.5370136E+01;  0.0000000E+00;  3.8701122E+00;0; -6.3942474E-01;  1.0048389E+04;  0.0000000E+00;  5.8570105E-05;  1.0000000E+04;  0.0000000E+00;  9.9926484E+03; -7.6138353E-01;  0.0000000E+00;  1.2195877E-01;  3.6806934E+03;
  5.3957123E-01;  9.9999998E-03;  1.8005553E-01;1890; -1.7350826E-01;  0.0000000E+00;  2.1474697E-02;  1.0021885E+03;  4.0003586E-01;  1.8130715E+03;3; -4.4293789E+01;  0.0000000E+00;  4.1283226E+00;0; -6.4655459E-01;  1.0049654E+04;  0.0000000E+00;  7.1829207E-05;  1.0000000E+04;  0.0000000E+00;  9.9923535E+03; -7.6576602E-01;  0.0000000E+00;  1.1921144E-01;  3.8364216E+03;
  5.3956205E-01;  9.9999998E-03;  2.0006125E-01;1891; -1.7435575E-01;  0.0000000E+00;  2.3525909E-02;  1.0022332E+03;  4.0003598E-01;  1.8502061E+03;3; -4.3496754E+01;  0.0000000E+00;  4.3307514E+00;0; -6.5315908E-01;  1.0051079E+04;  0.0000000E+00;  1.5441641E-04;  1.0000000E+04;  0.0000000E+00;  9.9918242E+03; -7.7130085E-01;  0.0000000E+00;  1.1814176E-01;  4.1047202E+03;
  5.3955430E-01;  9.9999998E-03;  2.2006679E-01;1892; -1.7457043E-01;  0.0000000E+00;  2.5348201E-02;  1.0022817E+03;  4.0003601E-01;  1.8903033E+03;3; -4.3562603E+01;  0.0000000E+00;  4.5426373E+00;0; -6.6020036E-01;  1.0052628E+04;  0.0000000E+00;  4.3161155E-04;  1.0000000E+04;  0.0000000E+00;  9.9912549E+03; -7.7813941E-01;  0.0000000E+00;  1.1793908E-01;  4.3926587E+03;
  5.3954911E-01;  9.9999998E-03;  2.4007310E-01;1893; -1.7378405E-01;  0.0000000E+00;  2.7038269E-02;  1.0023513E+03;  4.0003595E-01;  1.9479803E+03;3; -4.5331810E+01;  0.0000000E+00;  5.0498719E+00;0; -6.7106074E-01;  1.0054220E+04;  0.0000000E+00;  1.0054936E-03;  1.0000000E+04;  0.0000000E+00;  9.9910576E+03; -7.8617555E-01;  0.0000000E+00;  1.1511479E-01;  4.4989824E+03;
  5.3954744E-01;  9.9999998E-03;  2.6008311E-01;1894; -1.7161120E-01;  0.0000000E+00;  2.9523974E-02;  1.0024490E+03;  4.0003592E-01;  2.0288663E+03;3; -4.9666637E+01;  0.0000000E+00;  6.2555780E+00;0; -6.8509501E-01;  1.0055785E+04;  0.0000000E+00;  1.7254009E-03;  1.0000000E+04;  0.0000000E+00;  9.9914395E+03; -7.9514921E-01;  0.0000000E+00;  1.1005422E-01;  4.3196729E+03;
  5.3955013E-01;  9.9999998E-03;  2.8010094E-01;1895; -1.6800664E-01;  0.0000000E+00;  3.3015102E-02;  1.0024905E+03;  4.0003586E-01;  2.0633342E+03;3; -5.6916233E+01;  0.0000000E+00;  8.3949137E+00;0; -6.9015074E-01;  1.0057262E+04;  0.0000000E+00;  1.8272961E-03;  1.0000000E+04;  0.0000000E+00;  9.9907969E+03; -8.0461580E-01;  0.0000000E+00;  1.1446506E-01;  4.6364170E+03;
  5.3955781E-01;  9.9999998E-03;  3.0011919E-01;1896; -1.6282175E-01;  0.0000000E+00;  3.6004990E-02;  1.0024758E+03;  4.0003589E-01;  2.0510879E+03;3; -6.6258110E+01;  0.0000000E+00;  1.1819847E+01;0; -6.9616008E-01;  1.0058587E+04;  0.0000000E+00;  2.3484955E-04;  1.0000000E+04;  0.0000000E+00;  9.9891729E+03; -8.1394333E-01;  0.0000000E+00;  1.1778322E-01;  5.4388345E+03;
  5.5952787E-01;  9.9999998E-03;  1.6006453E-01;1920; -1.8925862E-01;  0.0000000E+00;  2.2433219E-02;  1.0022664E+03;  4.0009686E-01;  1.8776573E+03;3; -4.7942127E+01;  0.0000000E+00;  3.2922404E+00;0; -6.2271649E-01;  1.0049365E+04;  0.0000000E+00;  7.2821167E-05;  1.0000000E+04;  0.0000000E+00;  9.9911201E+03; -7.5932759E-01;  0.0000000E+00;  1.3661109E-01;  4.4239668E+03;
  5.5951703E-01;  9.9999998E-03;  1.8007164E-01;1921; -1.9046338E-01;  0.0000000E+00;  2.4950169E-02;  1.0023164E+03;  4.0009671E-01;  1.9190385E+03;3; -4.6686295E+01;  0.0000000E+00;  3.5991359E+00;0; -6.3048041E-01;  1.0050633E+04;  0.0000000E+00;  8.6189844E-05;  1.0000000E+04;  0.0000000E+00;  9.9908594E+03; -7.6328117E-01;  0.0000000E+00;  1.3280076E-01;  4.5641929E+03;
  5.5950648E-01;  9.9999998E-03;  2.0007798E-01;1922; -1.9135544E-01;  0.0000000E+00;  2.7078003E-02;  1.0023618E+03;  4.0009677E-01;  1.9566666E+03;3; -4.5766521E+01;  0.0000000E+00;  3.7644835E+00;0; -6.3754058E-01;  1.0052103E+04;  0.0000000E+00;  2.4611602E-04;  1.0000000E+04;  0.0000000E+00;  9.9903057E+03; -7.6874268E-01;  0.0000000E+00;  1.3120212E-01;  4.8457388E+03;
  5.5949712E-01;  9.9999998E-03;  2.2008352E-01;1923; -1.9164854E-01;  0.0000000E+00;  2.8829807E-02;  1.0024128E+03;  4.0009686E-01;  1.9989366E+03;3; -4.5826088E+01;  0.0000000E+00;  3.9375701E+00;0; -6.4551020E-01;  1.0053715E+04;  0.0000000E+00;  7.5645000E-04;  1.0000000E+04;  0.0000000E+00;  9.9897236E+03; -7.7587366E-01;  0.0000000E+00;  1.3036343E-01;  5.1420640E+03;
  5.5948979E-01;  9.9999998E-03;  2.4008897E-01;1924; -1.9103155E-01;  0.0000000E+00;  3.0220056E-02;  1.0024973E+03;  4.0009671E-01;  2.0688599E+03;3; -4.7835922E+01;  0.0000000E+00;  4.3724971E+00;0; -6.5984243E-01;  1.0055407E+04;  0.0000000E+00;  1.7358367E-03;  1.0000000E+04;  0.0000000E+00;  9.9897236E+03; -7.8452885E-01;  0.0000000E+00;  1.2468644E-01;  5.1534814E+03;
  5.5948526E-01;  9.9999998E-03;  2.6009873E-01;1925; -1.8918635E-01;  0.0000000E+00;  3.2616377E-02;  1.0026321E+03;  4.0009663E-01;  2.1806582E+03;3; -5.2708115E+01;  0.0000000E+00;  5.6501560E+00;0; -6.8116421E-01;  1.0057100E+04;  0.0000000E+00;  2.8474112E-03;  1.0000000E+04;  0.0000000E+00;  9.9907197E+03; -7.9446942E-01;  0.0000000E+00;  1.1330519E-01;  4.6776104E+03;
  5.5948412E-01;  9.9999998E-03;  2.8011942E-01;1926; -1.8608363E-01;  0.0000000E+00;  3.6761429E-02;  1.0027020E+03;  4.0009665E-01;  2.2385325E+03;3; -6.0947849E+01;  0.0000000E+00;  8.0047121E+00;0; -6.8904179E-01;  1.0058737E+04;  0.0000000E+00;  2.8242704E-03;  1.0000000E+04;  0.0000000E+00;  9.9904775E+03; -8.0524629E-01;  0.0000000E+00;  1.1620452E-01;  4.7983276E+03;
  5.5948651E-01;  9.9999998E-03;  3.0014142E-01;1927; -1.8177521E-01;  0.0000000E+00;  4.0128529E-02;  1.0026850E+03;  4.0009663E-01;  2.2244097E+03;3; -7.1765945E+01;  0.0000000E+00;  1.1885464E+01;0; -6.9806087E-01;  1.0060234E+04;  0.0000000E+00;  3.7525326E-04;  1.0000000E+04;  0.0000000E+00;  9.9886357E+03; -8.1604379E-01;  0.0000000E+00;  1.1798292E-01;  5.7122446E+03;
  5.7947332E-01;  9.9999998E-03;  1.6008377E-01;1951; -2.0630719E-01;  0.0000000E+00;  2.6469184E-02;  1.0024921E+03;  4.0025809E-01;  2.0646064E+03;3; -5.0393925E+01;  0.0000000E+00;  2.4603264E+00;0; -5.6714869E-01;  1.0047918E+04;  0.0000000E+00;  3.5896155E-05;  1.0000000E+04;  0.0000000E+00;  9.9889951E+03; -7.2301477E-01;  0.0000000E+00;  1.5586610E-01;  5.4497539E+03;
  5.7946140E-01;  9.9999998E-03;  1.8009268E-01;1952; -2.0744172E-01;  0.0000000E+00;  2.9327651E-02;  1.0025355E+03;  4.0025818E-01;  2.1005554E+03;3; -4.8925358E+01;  0.0000000E+00;  2.8312299E+00;0; -5.7393336E-01;  1.0049094E+04;  0.0000000E+00;  5.4209195E-05;  1.0000000E+04;  0.0000000E+00;  9.9886943E+03; -7.2559762E-01;  0.0000000E+00;  1.5166423E-01;  5.6089556E+03;
  5.7944965E-01;  9.9999998E-03;  2.0010017E-01;1953; -2.0827486E-01;  0.0000000E+00;  3.1659231E-02;  1.0025712E+03;  4.0025815E-01;  2.1301838E+03;3; -4.7822495E+01;  0.0000000E+00;  3.0816829E+00;0; -5.7970184E-01;  1.0050452E+04;  0.0000000E+00;  3.6638923E-04;  1.0000000E+04;  0.0000000E+00;  9.9880615E+03; -7.2962064E-01;  0.0000000E+00;  1.4991881E-01;  5.9282520E+03;
  5.7943869E-01;  9.9999998E-03;  2.2010629E-01;1954; -2.0861091E-01;  0.0000000E+00;  3.3402994E-02;  1.0026148E+03;  4.0025800E-01;  2.1663306E+03;3; -4.7827148E+01;  0.0000000E+00;  3.2978649E+00;0; -5.8668667E-01;  1.0051938E+04;  0.0000000E+00;  1.2944507E-03;  1.0000000E+04;  0.0000000E+00;  9.9874482E+03; -7.3502636E-01;  0.0000000E+00;  1.4833969E-01;  6.2389351E+03;
  5.7942891E-01;  9.9999998E-03;  2.4011134E-01;1955; -2.0826378E-01;  0.0000000E+00;  3.4573227E-02;  1.0027039E+03;  4.0025797E-01;  2.2401052E+03;3; -5.0118565E+01;  0.0000000E+00;  3.6252456E+00;0; -6.0225594E-01;  1.0053487E+04;  0.0000000E+00;  2.9691991E-03;  1.0000000E+04;  0.0000000E+00;  9.9876807E+03; -7.4164289E-01;  0.0000000E+00;  1.3938698E-01;  6.1381885E+03;
  5.7942098E-01;  9.9999998E-03;  2.6012117E-01;1956; -2.0691431E-01;  0.0000000E+00;  3.6791857E-02;  1.0028691E+03;  4.0025795E-01;  2.3769885E+03;3; -5.5646091E+01;  0.0000000E+00;  4.8147879E+00;0; -6.2960112E-01;  1.0055056E+04;  0.0000000E+00;  4.7167456E-03;  1.0000000E+04;  0.0000000E+00;  9.9894072E+03; -7.4950397E-01;  0.0000000E+00;  1.1990288E-01;  5.3102202E+03;
  5.7941455E-01;  9.9999998E-03;  2.8014448E-01;1957; -2.0464404E-01;  0.0000000E+00;  4.1472826E-02;  1.0029694E+03;  4.0025786E-01;  2.4600469E+03;3; -6.4942863E+01;  0.0000000E+00;  7.4696970E+00;0; -6.4091474E-01;  1.0056600E+04;  0.0000000E+00;  4.4421204E-03;  1.0000000E+04;  0.0000000E+00;  9.9898594E+03; -7.5851518E-01;  0.0000000E+00;  1.1760046E-01;  5.0907202E+03;
  5.7940871E-01;  9.9999998E-03;  3.0017000E-01;1958; -2.0185935E-01;  0.0000000E+00;  4.5216195E-02;  1.0029542E+03;  4.0025771E-01;  2.4474053E+03;3; -7.7455330E+01;  0.0000000E+00;  1.1923805E+01;0; -6.5218806E-01;  1.0058036E+04;  0.0000000E+00;  7.5590290E-04;  1.0000000E+04;  0.0000000E+00;  9.9881162E+03; -7.6799607E-01;  0.0000000E+00;  1.1580804E-01;  5.9591270E+03;
  5.9942043E-01;  9.9999998E-03;  1.6010669E-01;1982; -2.2241306E-01;  0.0000000E+00;  3.1223811E-02;  1.0031215E+03;  4.0066820E-01;  2.5860549E+03;3; -5.2565006E+01;  0.0000000E+00;  1.4011461E+00;0; -4.5592546E-01;  1.0042896E+04;  0.0000000E+00; -9.1282447E-05;  1.0000000E+04;  0.0000000E+00;  9.9861113E+03; -6.3712239E-01;  0.0000000E+00;  1.8119693E-01;  6.8278989E+03;
  5.9940737E-01;  9.9999998E-03;  1.8011756E-01;1983; -2.2350748E-01;  0.0000000E+00;  3.4406751E-02;  1.0031459E+03;  4.0066791E-01;  2.6063010E+03;3; -5.0901337E+01;  0.0000000E+00;  1.8098931E+00;0; -4.5958549E-01;  1.0043818E+04;  0.0000000E+00; -5.2874391E-05;  1.0000000E+04;  0.0000000E+00;  9.9856953E+03; -6.3672858E-01;  0.0000000E+00;  1.7714308E-01;  7.0430313E+03;
  5.9939444E-01;  9.9999998E-03;  2.0012712E-01;1984; -2.2429450E-01;  0.0000000E+00;  3.6995653E-02;  1.0031597E+03;  4.0066788E-01;  2.6176584E+03;3; -4.9626442E+01;  0.0000000E+00;  2.1399674E+00;0; -4.6158916E-01;  1.0044847E+04;  0.0000000E+00;  5.2269537E-04;  1.0000000E+04;  0.0000000E+00;  9.9849512E+03; -6.3676894E-01;  0.0000000E+00;  1.7517976E-01;  7.4159961E+03;
  5.9938198E-01;  9.9999998E-03;  2.2013506E-01;1985; -2.2465552E-01;  0.0000000E+00;  3.8949430E-02;  1.0031816E+03;  4.0066794E-01;  2.6358306E+03;3; -4.9556499E+01;  0.0000000E+00;  2.3813469E+00;0; -4.6478766E-01;  1.0045917E+04;  0.0000000E+00;  2.1391246E-03;  1.0000000E+04;  0.0000000E+00;  9.9843271E+03; -6.3689584E-01;  0.0000000E+00;  1.7210816E-01;  7.7311567E+03;
  5.9937018E-01;  9.9999998E-03;  2.4014167E-01;1986; -2.2436067E-01;  0.0000000E+00;  4.0352758E-02;  1.0032595E+03;  4.0066761E-01;  2.7003215E+03;3; -5.1960964E+01;  0.0000000E+00;  2.9342415E+00;0; -4.7807723E-01;  1.0046991E+04;  0.0000000E+00;  4.9256147E-03;  1.0000000E+04;  0.0000000E+00;  9.9848145E+03; -6.3722205E-01;  0.0000000E+00;  1.5914483E-01;  7.5074136E+03;
  5.9935892E-01;  9.9999998E-03;  2.6015407E-01;1987; -2.2341990E-01;  0.0000000E+00;  4.3062836E-02;  1.0034275E+03;  4.0066734E-01;  2.8395742E+03;3; -5.8260899E+01;  0.0000000E+00;  3.9251926E+00;0; -5.0358164E-01;  1.0048072E+04;  0.0000000E+00;  7.6605855E-03;  1.0000000E+04;  0.0000000E+00;  9.9870781E+03; -6.3843328E-01;  0.0000000E+00;  1.3485163E-01;  6.4185806E+03;
  5.9934646E-01;  9.9999998E-03;  2.8018007E-01;1988; -2.2231737E-01;  0.0000000E+00;  4.7779933E-02;  1.0035381E+03;  4.0066713E-01;  2.9312244E+03;3; -6.8631401E+01;  0.0000000E+00;  6.8338332E+00;0; -5.1810515E-01;  1.0049157E+04;  0.0000000E+00;  6.9821314E-03;  1.0000000E+04;  0.0000000E+00;  9.9881953E+03; -6.4109111E-01;  0.0000000E+00;  1.2298593E-01;  5.8785693E+03;
  5.9933108E-01;  9.9999998E-03;  3.0020797E-01;1989; -2.2143981E-01;  0.0000000E+00;  5.1693764E-02;  1.0035287E+03;  4.0066683E-01;  2.9234224E+03;3; -8.2939362E+01;  0.0000000E+00;  1.2084048E+01;0; -5.3092909E-01;  1.0050199E+04;  0.0000000E+00;  1.5339802E-03;  1.0000000E+04;  0.0000000E+00;  9.9869697E+03; -6.4495617E-01;  0.0000000E+00;  1.1402711E-01;  6.4957700E+03;
  6.1937261E-01;  9.9999998E-03;  1.6013303E-01;2013; -2.3656993E-01;  0.0000000E+00;  3.6333714E-02;  1.0047745E+03;  4.0160823E-01;  3.9555491E+03;3; -5.4367069E+01;  0.0000000E+00; -3.4910716E-02;0; -2.6424670E-01;  1.0032746E+04;  0.0000000E+00; -3.1932388E-04;  1.0000000E+04;  0.0000000E+00;  9.9824043E+03; -4.7753957E-01;  0.0000000E+00;  2.1329288E-01;  8.5862705E+03;
  6.1935812E-01;  9.9999998E-03;  1.8014598E-01;2014; -2.3768388E-01;  0.0000000E+00;  3.9845128E-02;  1.0047689E+03;  4.0160778E-01;  3.9509072E+03;3; -5.2518383E+01;  0.0000000E+00;  4.7011459E-01;0; -2.6272207E-01;  1.0033222E+04;  0.0000000E+00; -2.2083250E-04;  1.0000000E+04;  0.0000000E+00;  9.9818320E+03; -4.7187853E-01;  0.0000000E+00;  2.0915645E-01;  8.8756475E+03;
  6.1934364E-01;  9.9999998E-03;  2.0015804E-01;2015; -2.3857562E-01;  0.0000000E+00;  4.2865336E-02;  1.0047477E+03;  4.0160757E-01;  3.9333279E+03;3; -5.1105434E+01;  0.0000000E+00;  8.2520479E-01;0; -2.5867188E-01;  1.0033652E+04;  0.0000000E+00;  7.7743188E-04;  1.0000000E+04;  0.0000000E+00;  9.9810029E+03; -4.6460041E-01;  0.0000000E+00;  2.0592852E-01;  9.2910049E+03;
  6.1932975E-01;  9.9999998E-03;  2.2016977E-01;2016; -2.3895711E-01;  0.0000000E+00;  4.5521960E-02;  1.0047354E+03;  4.0160736E-01;  3.9231555E+03;3; -5.0998516E+01;  0.0000000E+00;  1.2703439E+00;0; -2.5568414E-01;  1.0033983E+04;  0.0000000E+00;  3.4133620E-03;  1.0000000E+04;  0.0000000E+00;  9.9804482E+03; -4.5533755E-01;  0.0000000E+00;  1.9965343E-01;  9.5733457E+03;
  6.1931562E-01;  9.9999998E-03;  2.4018131E-01;2017; -2.3896106E-01;  0.0000000E+00;  4.7580823E-02;  1.0047834E+03;  4.0160692E-01;  3.9628572E+03;3; -5.3520187E+01;  0.0000000E+00;  1.9687194E+00;0; -2.6373175E-01;  1.0034217E+04;  0.0000000E+00;  7.7362712E-03;  1.0000000E+04;  0.0000000E+00;  9.9811719E+03; -4.4487840E-01;  0.0000000E+00;  1.8114665E-01;  9.2355850E+03;
  6.1930150E-01;  9.9999998E-03;  2.6020038E-01;2018; -2.3826072E-01;  0.0000000E+00;  5.1588032E-02;  1.0049090E+03;  4.0160641E-01;  4.0669507E+03;3; -6.0042507E+01;  0.0000000E+00;  3.7000141E+00;0; -2.8033680E-01;  1.0034439E+04;  0.0000000E+00;  1.1684521E-02;  1.0000000E+04;  0.0000000E+00;  9.9834541E+03; -4.3477938E-01;  0.0000000E+00;  1.5444259E-01;  8.1345098E+03;
  6.1928576E-01;  9.9999998E-03;  2.8023180E-01;2019; -2.3751786E-01;  0.0000000E+00;  5.6980208E-02;  1.0049593E+03;  4.0160576E-01;  4.1086274E+03;3; -7.1603294E+01;  0.0000000E+00;  6.4486074E+00;0; -2.8189987E-01;  1.0034700E+04;  0.0000000E+00;  1.0467315E-02;  1.0000000E+04;  0.0000000E+00;  9.9841943E+03; -4.2632374E-01;  0.0000000E+00;  1.4442386E-01;  7.7754214E+03;
  6.1926252E-01;  9.9999998E-03;  3.0025995E-01;2020; -2.3844209E-01;  0.0000000E+00;  6.0373675E-02;  1.0049470E+03;  4.0160507E-01;  4.0984551E+03;3; -8.7547081E+01;  0.0000000E+00;  1.2247757E+01;0; -2.9544607E-01;  1.0034979E+04;  0.0000000E+00;  2.7380234E-03;  1.0000000E+04;  0.0000000E+00;  9.9837061E+03; -4.1975331E-01;  0.0000000E+00;  1.2430725E-01;  8.0355044E+03;
  6.3933200E-01;  9.9999998E-03;  1.6016199E-01;2044; -2.4815758E-01;  0.0000000E+00;  4.1469552E-02;  1.0080231E+03;  4.0333632E-01;  6.6468130E+03;3; -5.5735481E+01;  0.0000000E+00; -1.8412733E+00;0;  3.4958586E-02;  1.0015973E+04;  0.0000000E+00; -5.6773459E-04;  1.0000000E+04;  0.0000000E+00;  9.9779512E+03; -2.1641906E-01;  0.0000000E+00;  2.5137764E-01;  1.0678759E+04;
  6.3931650E-01;  9.9999998E-03;  1.8017790E-01;2045; -2.4926059E-01;  0.0000000E+00;  4.5477398E-02;  1.0079792E+03;  4.0333599E-01;  6.6104692E+03;3; -5.3747288E+01;  0.0000000E+00; -1.1964619E+00;0;  4.2244598E-02;  1.0015808E+04;  0.0000000E+00; -3.2070905E-04;  1.0000000E+04;  0.0000000E+00;  9.9772695E+03; -2.0342553E-01;  0.0000000E+00;  2.4567012E-01;  1.1022753E+04;
  6.3930011E-01;  9.9999998E-03;  2.0019357E-01;2046; -2.5034955E-01;  0.0000000E+00;  4.9254593E-02;  1.0079163E+03;  4.0333539E-01;  6.5583242E+03;3; -5.2209606E+01;  0.0000000E+00; -6.6925496E-01;0;  5.2570254E-02;  1.0015412E+04;  0.0000000E+00;  1.2713481E-03;  1.0000000E+04;  0.0000000E+00;  9.9764512E+03; -1.8629974E-01;  0.0000000E+00;  2.3886999E-01;  1.1433309E+04;
  6.3928419E-01;  9.9999998E-03;  2.2021168E-01;2047; -2.5101292E-01;  0.0000000E+00;  5.3048067E-02;  1.0078630E+03;  4.0333498E-01;  6.5141787E+03;3; -5.2045250E+01;  0.0000000E+00; -1.3943747E-02;0;  6.1539531E-02;  1.0014748E+04;  0.0000000E+00;  5.1301215E-03;  1.0000000E+04;  0.0000000E+00;  9.9760801E+03; -1.6498713E-01;  0.0000000E+00;  2.2652666E-01;  1.1628384E+04;
  6.3926917E-01;  9.9999998E-03;  2.4023670E-01;2048; -2.5114962E-01;  0.0000000E+00;  5.7733800E-02;  1.0078468E+03;  4.0333432E-01;  6.5007476E+03;3; -5.4795155E+01;  0.0000000E+00;  1.1706226E+00;0;  6.4283878E-02;  1.0013904E+04;  0.0000000E+00;  1.1045951E-02;  1.0000000E+04;  0.0000000E+00;  9.9766201E+03; -1.4104193E-01;  0.0000000E+00;  2.0532581E-01;  1.1381092E+04;
  6.3925457E-01;  9.9999998E-03;  2.6026973E-01;2049; -2.5043839E-01;  0.0000000E+00;  6.3885234E-02;  1.0078375E+03;  4.0333366E-01;  6.4930439E+03;3; -6.1659309E+01;  0.0000000E+00;  3.5655975E+00;0;  7.0067577E-02;  1.0013014E+04;  0.0000000E+00;  1.5960945E-02;  1.0000000E+04;  0.0000000E+00;  9.9773320E+03; -1.1677685E-01;  0.0000000E+00;  1.8684442E-01;  1.1042910E+04;
  6.3923723E-01;  9.9999998E-03;  2.8030312E-01;2050; -2.4963133E-01;  0.0000000E+00;  6.9492280E-02;  1.0077761E+03;  4.0333286E-01;  6.4421831E+03;3; -7.4005249E+01;  0.0000000E+00;  6.5563745E+00;0;  9.1893524E-02;  1.0012171E+04;  0.0000000E+00;  1.3810081E-02;  1.0000000E+04;  0.0000000E+00;  9.9769688E+03; -9.4008207E-02;  0.0000000E+00;  1.8590173E-01;  1.1213580E+04;
  6.3921171E-01;  9.9999998E-03;  3.0032900E-01;2051; -2.5069648E-01;  0.0000000E+00;  7.1538828E-02;  1.0077345E+03;  4.0333158E-01;  6.4077158E+03;3; -9.0756790E+01;  0.0000000E+00;  1.2620638E+01;0;  7.8399934E-02;  1.0011399E+04;  0.0000000E+00;  3.9217700E-03;  1.0000000E+04;  0.0000000E+00;  9.9769736E+03; -7.3370911E-02;  0.0000000E+00;  1.5177085E-01;  1.1239054E+04;
  6.5930235E-01;  9.9999998E-03;  1.6019583E-01;2075; -2.5653559E-01;  0.0000000E+00;  4.7007725E-02;  1.0120189E+03;  4.0552068E-01;  9.9570254E+03;3; -5.6654068E+01;  0.0000000E+00; -3.9990604E+00;0;  4.5604891E-01;  9.9920244E+03;  0.0000000E+00; -6.5231911E-04;  1.0000000E+04;  0.0000000E+00;  9.9730352E+03;  1.6320406E-01;  0.0000000E+00;  2.9284483E-01;  1.2969513E+04;
  6.5928656E-01;  9.9999998E-03;  1.8021628E-01;2076; -2.5749591E-01;  0.0000000E+00;  5.1896919E-02;  1.0119385E+03;  4.0552020E-01;  9.8904619E+03;3; -5.4528305E+01;  0.0000000E+00; -3.0941331E+00;0;  4.6662229E-01;  9.9911172E+03;  0.0000000E+00; -1.4225423E-04;  1.0000000E+04;  0.0000000E+00;  9.9723799E+03;  1.8386520E-01;  0.0000000E+00;  2.8275707E-01;  1.3303083E+04;
  6.5926993E-01;  9.9999998E-03;  2.0023967E-01;2077; -2.5841770E-01;  0.0000000E+00;  5.7342038E-02;  1.0118374E+03;  4.0552002E-01;  9.8066162E+03;3; -5.2847904E+01;  0.0000000E+00; -2.1179736E+00;0;  4.7999212E-01;  9.9898066E+03;  0.0000000E+00;  2.0774039E-03;  1.0000000E+04;  0.0000000E+00;  9.9717080E+03;  2.1065208E-01;  0.0000000E+00;  2.6934004E-01;  1.3643785E+04;
  6.5925437E-01;  9.9999998E-03;  2.2027230E-01;2078; -2.5877067E-01;  0.0000000E+00;  6.4346641E-02;  1.0117357E+03;  4.0551963E-01;  9.7223750E+03;3; -5.2569599E+01;  0.0000000E+00; -7.6754415E-01;0;  4.9377301E-01;  9.9881143E+03;  0.0000000E+00;  6.9258218E-03;  1.0000000E+04;  0.0000000E+00;  9.9714033E+03;  2.4321178E-01;  0.0000000E+00;  2.5056124E-01;  1.3810657E+04;
  6.5924120E-01;  9.9999998E-03;  2.4031803E-01;2079; -2.5818947E-01;  0.0000000E+00;  7.3440351E-02;  1.0116091E+03;  4.0551934E-01;  9.6174941E+03;3; -5.5155487E+01;  0.0000000E+00;  1.4707859E+00;0;  5.1466429E-01;  9.9861602E+03;  0.0000000E+00;  1.3758470E-02;  1.0000000E+04;  0.0000000E+00;  9.9708506E+03;  2.7958456E-01;  0.0000000E+00;  2.3507972E-01;  1.4091742E+04;
  6.5922689E-01;  9.9999998E-03;  2.6036093E-01;2080; -2.5738898E-01;  0.0000000E+00;  8.0171570E-02;  1.0114162E+03;  4.0551922E-01;  9.4577021E+03;3; -6.2094112E+01;  0.0000000E+00;  4.2526436E+00;0;  5.4644644E-01;  9.9841182E+03;  0.0000000E+00;  1.8606899E-02;  1.0000000E+04;  0.0000000E+00;  9.9690732E+03;  3.1720454E-01;  0.0000000E+00;  2.2924188E-01;  1.4970977E+04;
  6.5920860E-01;  9.9999998E-03;  2.8038713E-01;2081; -2.5615531E-01;  0.0000000E+00;  8.4985837E-02;  1.0112626E+03;  4.0551880E-01;  9.3304033E+03;3; -7.4889740E+01;  0.0000000E+00;  7.3710036E+00;0;  5.9612250E-01;  9.9821113E+03;  0.0000000E+00;  1.4927990E-02;  1.0000000E+04;  0.0000000E+00;  9.9680537E+03;  3.5411629E-01;  0.0000000E+00;  2.4200618E-01;  1.5443074E+04;
  6.5918469E-01;  9.9999998E-03;  3.0040950E-01;2082; -2.5675243E-01;  0.0000000E+00;  8.4241062E-02;  1.0111685E+03;  4.0551752E-01;  9.2524824E+03;3; -9.2353691E+01;  0.0000000E+00;  1.2853727E+01;0;  5.7165080E-01;  9.9802041E+03;  0.0000000E+00;  3.7300445E-03;  1.0000000E+04;  0.0000000E+00;  9.9681572E+03;  3.8909486E-01;  0.0000000E+00;  1.8255593E-01;  1.5449374E+04;
  6.7929107E-01;  9.9999998E-03;  1.6024265E-01;2106; -2.5968650E-01;  0.0000000E+00;  5.6280214E-02;  1.0146386E+03;  4.0727472E-01;  1.2127162E+04;3; -5.7007679E+01;  0.0000000E+00; -6.2082419E+00;0;  9.8239553E-01;  9.9623203E+03;  0.0000000E+00; -4.3834109E-04;  1.0000000E+04;  0.0000000E+00;  9.9680967E+03;  6.4890444E-01;  0.0000000E+00;  3.3349109E-01;  1.5247685E+04;
  6.7927563E-01;  9.9999998E-03;  1.8026957E-01;2107; -2.6040760E-01;  0.0000000E+00;  6.2664047E-02;  1.0145350E+03;  4.0727481E-01;  1.2041342E+04;3; -5.4645653E+01;  0.0000000E+00; -4.8530836E+00;0;  9.9038512E-01;  9.9607119E+03;  0.0000000E+00;  3.5590227E-04;  1.0000000E+04;  0.0000000E+00;  9.9676660E+03;  6.7474598E-01;  0.0000000E+00;  3.1563914E-01;  1.5473506E+04;
  6.7925984E-01;  9.9999998E-03;  2.0030311E-01;2108; -2.6094967E-01;  0.0000000E+00;  7.0391923E-02;  1.0144099E+03;  4.0727508E-01;  1.1937647E+04;3; -5.2794880E+01;  0.0000000E+00; -3.2491879E+00;0;  1.0004246E+00;  9.9586279E+03;  0.0000000E+00;  2.9176597E-03;  1.0000000E+04;  0.0000000E+00;  9.9672881E+03;  7.0713699E-01;  0.0000000E+00;  2.9328761E-01;  1.5679939E+04;
  6.7924678E-01;  9.9999998E-03;  2.2035214E-01;2109; -2.6050672E-01;  0.0000000E+00;  8.1121229E-02;  1.0142643E+03;  4.0727520E-01;  1.1817065E+04;3; -5.2250946E+01;  0.0000000E+00; -8.6607289E-01;0;  1.0150568E+00;  9.9561211E+03;  0.0000000E+00;  7.9201991E-03;  1.0000000E+04;  0.0000000E+00;  9.9669180E+03;  7.4555683E-01;  0.0000000E+00;  2.6950002E-01;  1.5879780E+04;
  6.7923737E-01;  9.9999998E-03;  2.4041303E-01;2110; -2.5887209E-01;  0.0000000E+00;  9.2884958E-02;  1.0140299E+03;  4.0727586E-01;  1.1622810E+04;3; -5.4372490E+01;  0.0000000E+00;  1.7941176E+00;0;  1.0508064E+00;  9.9533252E+03;  0.0000000E+00;  1.4256620E-02;  1.0000000E+04;  0.0000000E+00;  9.9650732E+03;  7.8835475E-01;  0.0000000E+00;  2.6245162E-01;  1.6792666E+04;
  6.7922378E-01;  9.9999998E-03;  2.6045004E-01;2111; -2.5807905E-01;  0.0000000E+00;  9.6716955E-02;  1.0137361E+03;  4.0727657E-01;  1.1379473E+04;3; -6.1093536E+01;  0.0000000E+00;  5.2271624E+00;0;  1.0891030E+00;  9.9503965E+03;  0.0000000E+00;  1.7489349E-02;  1.0000000E+04;  0.0000000E+00;  9.9621738E+03;  8.3342510E-01;  0.0000000E+00;  2.5567785E-01;  1.8224787E+04;
  6.7920649E-01;  9.9999998E-03;  2.8046519E-01;2112; -2.5554377E-01;  0.0000000E+00;  9.9735826E-02;  1.0135589E+03;  4.0727672E-01;  1.1232622E+04;3; -7.3067024E+01;  0.0000000E+00;  7.1916513E+00;0;  1.1530426E+00;  9.9474648E+03;  0.0000000E+00;  1.1883864E-02;  1.0000000E+04;  0.0000000E+00;  9.9615967E+03;  8.7904447E-01;  0.0000000E+00;  2.7399814E-01;  1.8468443E+04;
  6.7919481E-01;  9.9999998E-03;  3.0048430E-01;2113; -2.5219777E-01;  0.0000000E+00;  9.4467454E-02;  1.0134258E+03;  4.0727627E-01;  1.1122409E+04;3; -8.9021942E+01;  0.0000000E+00;  1.1524247E+01;0;  1.0854396E+00;  9.9446973E+03;  0.0000000E+00;  1.3980537E-03;  1.0000000E+04;  0.0000000E+00;  9.9617549E+03;  9.2273843E-01;  0.0000000E+00;  1.6270110E-01;  1.8514840E+04;
  6.9931263E-01;  9.9999998E-03;  1.6030757E-01;2137; -2.5362530E-01;  0.0000000E+00;  7.3846817E-02;  1.0152130E+03;  4.0824023E-01;  1.2602721E+04;3; -5.6218231E+01;  0.0000000E+00; -7.2028694E+00;0;  1.5542024E+00;  9.9307813E+03;  0.0000000E+00; -4.5892361E-05;  1.0000000E+04;  0.0000000E+00;  9.9636543E+03;  1.1857520E+00;  0.0000000E+00;  3.6845043E-01;  1.7275920E+04;
  6.9929910E-01;  9.9999998E-03;  1.8034266E-01;2138; -2.5350776E-01;  0.0000000E+00;  8.2442366E-02;  1.0151053E+03;  4.0824094E-01;  1.2513545E+04;3; -5.3449585E+01;  0.0000000E+00; -5.0557356E+00;0;  1.5520332E+00;  9.9286523E+03;  0.0000000E+00;  8.5130509E-04;  1.0000000E+04;  0.0000000E+00;  9.9636553E+03;  1.2116452E+00;  0.0000000E+00;  3.4038788E-01;  1.7300402E+04;
  6.9928604E-01;  9.9999998E-03;  2.0038600E-01;2139; -2.5305918E-01;  0.0000000E+00;  9.2896521E-02;  1.0149755E+03;  4.0824148E-01;  1.2405902E+04;3; -5.1138912E+01;  0.0000000E+00; -2.4244475E+00;0;  1.5519550E+00;  9.9261270E+03;  0.0000000E+00;  3.1840974E-03;  1.0000000E+04;  0.0000000E+00;  9.9636182E+03;  1.2422276E+00;  0.0000000E+00;  3.0972743E-01;  1.7343996E+04;
  6.9927758E-01;  9.9999998E-03;  2.2044380E-01;2140; -2.5125957E-01;  0.0000000E+00;  1.0527449E-01;  1.0148050E+03;  4.0824214E-01;  1.2264683E+04;3; -4.9881836E+01;  0.0000000E+00;  2.4944174E-01;0;  1.5631218E+00;  9.9232676E+03;  0.0000000E+00;  7.2948788E-03;  1.0000000E+04;  0.0000000E+00;  9.9630996E+03;  1.2770249E+00;  0.0000000E+00;  2.8609690E-01;  1.7615508E+04;
  6.9927329E-01;  9.9999998E-03;  2.4050109E-01;2141; -2.4889152E-01;  0.0000000E+00;  1.1331887E-01;  1.0145245E+03;  4.0824339E-01;  1.2032411E+04;3; -5.1251274E+01;  0.0000000E+00;  1.9381796E+00;0;  1.5976827E+00;  9.9201846E+03;  0.0000000E+00;  1.1903560E-02;  1.0000000E+04;  0.0000000E+00;  9.9606309E+03;  1.3153592E+00;  0.0000000E+00;  2.8232354E-01;  1.8833432E+04;
  6.9926202E-01;  9.9999998E-03;  2.6052317E-01;2142; -2.4870169E-01;  0.0000000E+00;  1.1025725E-01;  1.0142297E+03;  4.0824458E-01;  1.1788189E+04;3; -5.7803795E+01;  0.0000000E+00;  5.3743558E+00;0;  1.6100662E+00;  9.9169844E+03;  0.0000000E+00;  1.2883927E-02;  1.0000000E+04;  0.0000000E+00;  9.9579854E+03;  1.3561919E+00;  0.0000000E+00;  2.5387424E-01;  2.0167563E+04;
  6.9926357E-01;  9.9999998E-03;  2.8052571E-01;2143; -2.3977351E-01;  0.0000000E+00;  1.1175433E-01;  1.0141269E+03;  4.0824515E-01;  1.1702964E+04;3; -6.7032852E+01;  0.0000000E+00;  8.4012308E+00;0;  1.6670599E+00;  9.9138037E+03;  0.0000000E+00;  7.6086586E-03;  1.0000000E+04;  0.0000000E+00;  9.9591016E+03;  1.3980222E+00;  0.0000000E+00;  2.6903769E-01;  1.9566375E+04;
  6.9931072E-01;  9.9999998E-03;  3.0054218E-01;2144; -2.1432079E-01;  0.0000000E+00;  1.0468887E-01;  1.0140199E+03;  4.0824538E-01;  1.1614282E+04;3; -7.2280060E+01;  0.0000000E+00;  1.2651426E+01;0;  1.5821664E+00;  9.9109189E+03;  0.0000000E+00;  4.0968517E-03;  1.0000000E+04;  0.0000000E+00;  9.9598262E+03;  1.4367518E+00;  0.0000000E+00;  1.4541458E-01;  1.9346648E+04;
  7.1941662E-01;  9.9999998E-03;  1.6038319E-01;2168; -2.2532149E-01;  0.0000000E+00;  1.0397083E-01;  1.0146851E+03;  4.0866539E-01;  1.2165104E+04;3; -5.0974529E+01;  0.0000000E+00; -3.1156898E+00;0;  2.0736742E+00;  9.9032393E+03;  0.0000000E+00;  2.3658991E-04;  1.0000000E+04;  0.0000000E+00;  9.9601602E+03;  1.6798780E+00;  0.0000000E+00;  3.9379618E-01;  1.8861607E+04;
  7.1940386E-01;  9.9999998E-03;  1.8042412E-01;2169; -2.2462206E-01;  0.0000000E+00;  1.1361590E-01;  1.0145917E+03;  4.0866625E-01;  1.2087682E+04;3; -4.7950302E+01;  0.0000000E+00; -6.6926700E-01;0;  2.0554738E+00;  9.9008643E+03;  0.0000000E+00;  9.4326568E-04;  1.0000000E+04;  0.0000000E+00;  9.9606787E+03;  1.6996913E+00;  0.0000000E+00;  3.5578251E-01;  1.8637809E+04;
  7.1939290E-01;  9.9999998E-03;  2.0047189E-01;2170; -2.2307447E-01;  0.0000000E+00;  1.2398305E-01;  1.0144772E+03;  4.0866709E-01;  1.1992880E+04;3; -4.5089008E+01;  0.0000000E+00;  9.4347149E-01;0;  2.0404415E+00;  9.8983057E+03;  0.0000000E+00;  2.5450571E-03;  1.0000000E+04;  0.0000000E+00;  9.9609736E+03;  1.7199044E+00;  0.0000000E+00;  3.2053703E-01;  1.8521158E+04;
  7.1938819E-01;  9.9999998E-03;  2.2052228E-01;2171; -2.1988811E-01;  0.0000000E+00;  1.2947251E-01;  1.0143197E+03;  4.0866774E-01;  1.1862329E+04;3; -4.3759140E+01;  0.0000000E+00;  8.8299793E-01;0;  2.0373566E+00;  9.8956758E+03;  0.0000000E+00;  5.2230959E-03;  1.0000000E+04;  0.0000000E+00;  9.9604834E+03;  1.7398858E+00;  0.0000000E+00;  2.9747081E-01;  1.8779211E+04;
  7.1939725E-01;  9.9999998E-03;  2.4056233E-01;2172; -2.1196927E-01;  0.0000000E+00;  1.2839951E-01;  1.0140773E+03;  4.0866894E-01;  1.1661565E+04;3; -4.4346569E+01;  0.0000000E+00;  1.8007020E+00;0;  2.0458491E+00;  9.8930498E+03;  0.0000000E+00;  8.2704220E-03;  1.0000000E+04;  0.0000000E+00;  9.9583105E+03;  1.7599517E+00;  0.0000000E+00;  2.8589740E-01;  1.9860818E+04;
  7.1942329E-01;  9.9999998E-03;  2.6057023E-01;2173; -1.9524422E-01;  0.0000000E+00;  1.2110236E-01;  1.0138796E+03;  4.0867046E-01;  1.1497834E+04;3; -4.4701866E+01;  0.0000000E+00;  5.6752710E+00;0;  2.0256028E+00;  9.8904668E+03;  0.0000000E+00;  1.0427258E-02;  1.0000000E+04;  0.0000000E+00;  9.9569443E+03;  1.7803866E+00;  0.0000000E+00;  2.4521619E-01;  2.0575121E+04;
  7.1946841E-01;  9.9999998E-03;  2.8056833E-01;2174; -1.7009395E-01;  0.0000000E+00;  1.1980303E-01;  1.0138828E+03;  4.0867075E-01;  1.1500400E+04;3; -4.4718117E+01;  0.0000000E+00;  7.4427872E+00;0;  2.0371809E+00;  9.8880498E+03;  0.0000000E+00;  1.1025604E-02;  1.0000000E+04;  0.0000000E+00;  9.9593711E+03;  1.7998716E+00;  0.0000000E+00;  2.3730929E-01;  1.9358514E+04;
  7.1952671E-01;  9.9999998E-03;  3.0058506E-01;2175; -1.4268409E-01;  0.0000000E+00;  1.1189736E-01;  1.0138268E+03;  4.0867072E-01;  1.1454085E+04;3; -4.5592171E+01;  0.0000000E+00;  1.4104077E+01;0;  1.9150951E+00;  9.8860146E+03;  0.0000000E+00;  7.8782924E-03;  1.0000000E+04;  0.0000000E+00;  9.9602715E+03;  1.8152864E+00;  0.0000000E+00;  9.9808738E-02;  1.9070334E+04;
  7.3962218E-01;  9.9999998E-03;  1.6040581E-01;2199; -1.4800228E-01;  0.0000000E+00;  1.0833064E-01;  1.0140613E+03;  4.0883386E-01;  1.1647902E+04;3; -3.3509460E+01;  0.0000000E+00; -5.1228232E+00;0;  2.4357381E+00;  9.8852490E+03;  0.0000000E+00;  2.7887872E-04;  1.0000000E+04;  0.0000000E+00;  9.9578115E+03;  2.0273323E+00;  0.0000000E+00;  4.0840566E-01;  1.9923031E+04;
  7.3961449E-01;  9.9999998E-03;  1.8044628E-01;2200; -1.4661777E-01;  0.0000000E+00;  1.1725662E-01;  1.0139962E+03;  4.0883443E-01;  1.1593986E+04;3; -3.0975254E+01;  0.0000000E+00; -2.6738958E+00;0;  2.3984482E+00;  9.8828965E+03;  0.0000000E+00;  6.4194767E-04;  1.0000000E+04;  0.0000000E+00;  9.9588555E+03;  2.0367272E+00;  0.0000000E+00;  3.6172113E-01;  1.9447176E+04;
  7.3960876E-01;  9.9999998E-03;  2.0049138E-01;2201; -1.4446443E-01;  0.0000000E+00;  1.2652968E-01;  1.0139280E+03;  4.0883541E-01;  1.1537503E+04;3; -2.8791805E+01;  0.0000000E+00; -1.4116798E-01;0;  2.3579898E+00;  9.8806709E+03;  0.0000000E+00;  1.4414646E-03;  1.0000000E+04;  0.0000000E+00;  9.9597285E+03;  2.0407085E+00;  0.0000000E+00;  3.1728131E-01;  1.9057072E+04;
  7.3960942E-01;  9.9999998E-03;  2.2053796E-01;2202; -1.3994324E-01;  0.0000000E+00;  1.3092211E-01;  1.0138445E+03;  4.0883616E-01;  1.1468279E+04;3; -2.7097630E+01;  0.0000000E+00;  6.7544645E-01;0;  2.3203523E+00;  9.8787246E+03;  0.0000000E+00;  2.9037162E-03;  1.0000000E+04;  0.0000000E+00;  9.9600166E+03;  2.0382648E+00;  0.0000000E+00;  2.8208759E-01;  1.8948084E+04;
  7.3962098E-01;  9.9999998E-03;  2.4057461E-01;2203; -1.3135138E-01;  0.0000000E+00;  1.2948717E-01;  1.0137225E+03;  4.0883714E-01;  1.1367160E+04;3; -2.6073116E+01;  0.0000000E+00;  1.8526716E+00;0;  2.2824986E+00;  9.8771318E+03;  0.0000000E+00;  4.9936967E-03;  1.0000000E+04;  0.0000000E+00;  9.9591777E+03;  2.0301356E+00;  0.0000000E+00;  2.5236303E-01;  1.9393236E+04;
  7.3964363E-01;  9.9999998E-03;  2.6058593E-01;2204; -1.1848700E-01;  0.0000000E+00;  1.2449903E-01;  1.0136625E+03;  4.0883818E-01;  1.1317489E+04;3; -2.6053387E+01;  0.0000000E+00;  5.9448295E+00;0;  2.2215202E+00;  9.8758623E+03;  0.0000000E+00;  7.1860431E-03;  1.0000000E+04;  0.0000000E+00;  9.9592207E+03;  2.0181289E+00;  0.0000000E+00;  2.0339134E-01;  1.9422561E+04;
  7.3967510E-01;  9.9999998E-03;  2.8059667E-01;2205; -1.0234123E-01;  0.0000000E+00;  1.2703270E-01;  1.0136764E+03;  4.0883827E-01;  1.1329042E+04;3; -2.6283056E+01;  0.0000000E+00;  5.1290445E+00;0;  2.2372000E+00;  9.8748877E+03;  0.0000000E+00;  7.5130593E-03;  1.0000000E+04;  0.0000000E+00;  9.9604453E+03;  2.0040438E+00;  0.0000000E+00;  2.3315628E-01;  1.8769707E+04;
  7.3971373E-01;  9.9999998E-03;  3.0061680E-01;2206; -8.5291430E-02;  0.0000000E+00;  1.1571325E-01;  1.0136548E+03;  4.0883806E-01;  1.1311168E+04;3; -2.6960091E+01;  0.0000000E+00;  1.1670567E+01;0;  2.0325172E+00;  9.8741699E+03;  0.0000000E+00;  1.7293884E-03;  1.0000000E+04;  0.0000000E+00;  9.9607227E+03;  1.9896539E+00;  0.0000000E+00;  4.2863213E-02;  1.8868150E+04;
  7.5978702E-01;  9.9999998E-03;  1.6041480E-01;2230; -8.5659593E-02;  0.0000000E+00;  1.0689512E-01;  1.0138111E+03;  4.0889710E-01;  1.1440061E+04;3; -2.0122934E+01;  0.0000000E+00; -8.3935099E+00;0;  2.5953736E+00;  9.8786230E+03;  0.0000000E+00;  1.6965102E-04;  1.0000000E+04;  0.0000000E+00;  9.9565273E+03;  2.1807828E+00;  0.0000000E+00;  4.1459078E-01;  2.0508406E+04;
  7.5978434E-01;  9.9999998E-03;  1.8045288E-01;2231; -8.3765984E-02;  0.0000000E+00;  1.1449627E-01;  1.0137750E+03;  4.0889782E-01;  1.1410141E+04;3; -1.8284611E+01;  0.0000000E+00; -6.1392069E+00;0;  2.5430081E+00;  9.8764961E+03;  0.0000000E+00;  2.6393344E-04;  1.0000000E+04;  0.0000000E+00;  9.9579150E+03;  2.1790688E+00;  0.0000000E+00;  3.6393920E-01;  1.9867166E+04;
  7.5978327E-01;  9.9999998E-03;  2.0049439E-01;2232; -8.1425786E-02;  0.0000000E+00;  1.2242564E-01;  1.0137515E+03;  4.0889877E-01;  1.1390688E+04;3; -1.6811338E+01;  0.0000000E+00; -3.3401237E+00;0;  2.4814167E+00;  9.8747852E+03;  0.0000000E+00;  4.9743027E-04;  1.0000000E+04;  0.0000000E+00;  9.9591416E+03;  2.1666915E+00;  0.0000000E+00;  3.1472525E-01;  1.9309697E+04;
  7.5978619E-01;  9.9999998E-03;  2.2053847E-01;2233; -7.7860668E-02;  0.0000000E+00;  1.2755348E-01;  1.0137382E+03;  4.0889946E-01;  1.1379728E+04;3; -1.5776482E+01;  0.0000000E+00; -6.3564724E-01;0;  2.4139512E+00;  9.8736758E+03;  0.0000000E+00;  9.8754885E-04;  1.0000000E+04;  0.0000000E+00;  9.9599697E+03;  2.1424956E+00;  0.0000000E+00;  2.7145559E-01;  1.8945564E+04;
  7.5979501E-01;  9.9999998E-03;  2.4057466E-01;2234; -7.2373725E-02;  0.0000000E+00;  1.2771568E-01;  1.0137230E+03;  4.0890011E-01;  1.1367088E+04;3; -1.5358065E+01;  0.0000000E+00;  1.9389253E+00;0;  2.3374095E+00;  9.8732031E+03;  0.0000000E+00;  1.7634273E-03;  1.0000000E+04;  0.0000000E+00;  9.9601074E+03;  2.1080143E+00;  0.0000000E+00;  2.2939505E-01;  1.8926727E+04;
  7.5980937E-01;  9.9999998E-03;  2.6059207E-01;2235; -6.5005906E-02;  0.0000000E+00;  1.2611800E-01;  1.0137729E+03;  4.0890080E-01;  1.1408362E+04;3; -1.5559169E+01;  0.0000000E+00;  6.5492811E+00;0;  2.2461431E+00;  9.8732754E+03;  0.0000000E+00;  2.4601328E-03;  1.0000000E+04;  0.0000000E+00;  9.9609814E+03;  2.0669558E+00;  0.0000000E+00;  1.7918727E-01;  1.8550629E+04;
  7.5982708E-01;  9.9999998E-03;  2.8061718E-01;2236; -5.6596369E-02;  0.0000000E+00;  1.3341127E-01;  1.0137599E+03;  4.0890065E-01;  1.1397697E+04;3; -1.6178553E+01;  0.0000000E+00;  3.4978497E+00;0;  2.2833424E+00;  9.8736924E+03;  0.0000000E+00;  1.5035481E-03;  1.0000000E+04;  0.0000000E+00;  9.9602891E+03;  2.0240674E+00;  0.0000000E+00;  2.5927487E-01;  1.8795322E+04;
  7.5984919E-01;  9.9999998E-03;  3.0063969E-01;2237; -4.7671810E-02;  0.0000000E+00;  1.1879685E-01;  1.0137863E+03;  4.0890041E-01;  1.1419421E+04;3; -1.6980648E+01;  0.0000000E+00;  9.1923170E+00;0;  2.0004284E+00;  9.8742188E+03;  0.0000000E+00; -3.7671025E-03;  1.0000000E+04;  0.0000000E+00;  9.9602715E+03;  1.9848146E+00;  0.0000000E+00;  1.5613807E-02;  1.9122939E+04;
  7.7991045E-01;  9.9999998E-03;  1.6041686E-01;2261; -3.9809238E-02;  0.0000000E+00;  1.0447107E-01;  1.0139492E+03;  4.0891987E-01;  1.1553629E+04;3; -1.1185317E+01;  0.0000000E+00; -1.0746172E+01;0;  2.5971534E+00;  9.8807236E+03;  0.0000000E+00;  5.4920947E-05;  1.0000000E+04;  0.0000000E+00;  9.9560244E+03;  2.1805720E+00;  0.0000000E+00;  4.1658136E-01;  2.0738125E+04;
  7.7991086E-01;  9.9999998E-03;  1.8045282E-01;2262; -3.8234029E-02;  0.0000000E+00;  1.1116736E-01;  1.0139333E+03;  4.0892065E-01;  1.1540497E+04;3; -1.0252882E+01;  0.0000000E+00; -8.5303469E+00;0;  2.5377178E+00;  9.8788779E+03;  0.0000000E+00;  4.2925949E-05;  1.0000000E+04;  0.0000000E+00;  9.9575361E+03;  2.1710942E+00;  0.0000000E+00;  3.6662358E-01;  2.0038951E+04;
  7.7991229E-01;  9.9999998E-03;  2.0049210E-01;2263; -3.6556963E-02;  0.0000000E+00;  1.1842695E-01;  1.0139384E+03;  4.0892133E-01;  1.1544644E+04;3; -9.6289349E+00;  0.0000000E+00; -5.6783137E+00;0;  2.4655733E+00;  9.8776523E+03;  0.0000000E+00;  4.7449517E-05;  1.0000000E+04;  0.0000000E+00;  9.9588320E+03;  2.1476669E+00;  0.0000000E+00;  3.1790629E-01;  1.9446502E+04;
  7.7991551E-01;  9.9999998E-03;  2.2053565E-01;2264; -3.4526668E-02;  0.0000000E+00;  1.2425876E-01;  1.0139678E+03;  4.0892190E-01;  1.1569131E+04;3; -9.3728161E+00;  0.0000000E+00; -2.2484007E+00;0;  2.3819251E+00;  9.8772227E+03;  0.0000000E+00;  9.1869057E-05;  1.0000000E+04;  0.0000000E+00;  9.9598135E+03;  2.1092317E+00;  0.0000000E+00;  2.7269343E-01;  1.9012840E+04;
  7.7992088E-01;  9.9999998E-03;  2.4057318E-01;2265; -3.2057300E-02;  0.0000000E+00;  1.2654430E-01;  1.0140140E+03;  4.0892240E-01;  1.1607341E+04;3; -9.5181808E+00;  0.0000000E+00;  1.8764724E+00;0;  2.2856038E+00;  9.8776074E+03;  0.0000000E+00;  1.6140706E-04;  1.0000000E+04;  0.0000000E+00;  9.9603037E+03;  2.0580397E+00;  0.0000000E+00;  2.2756408E-01;  1.8824523E+04;
  7.7992749E-01;  9.9999998E-03;  2.6059625E-01;2266; -2.9349601E-02;  0.0000000E+00;  1.2875091E-01;  1.0141195E+03;  4.0892297E-01;  1.1694724E+04;3; -1.0051037E+01;  0.0000000E+00;  8.2199373E+00;0;  2.1870074E+00;  9.8786348E+03;  0.0000000E+00;  6.8480200E-05;  1.0000000E+04;  0.0000000E+00;  9.9613115E+03;  1.9990438E+00;  0.0000000E+00;  1.8796360E-01;  1.8374410E+04;
  7.7993405E-01;  9.9999998E-03;  2.8063059E-01;2267; -2.6719838E-02;  0.0000000E+00;  1.3745573E-01;  1.0140850E+03;  4.0892291E-01;  1.1666188E+04;3; -1.0887121E+01;  0.0000000E+00;  2.1128092E+00;0;  2.2257247E+00;  9.8800342E+03;  0.0000000E+00; -7.8807160E-04;  1.0000000E+04;  0.0000000E+00;  9.9592119E+03;  1.9385440E+00;  0.0000000E+00;  2.8718072E-01;  1.9301922E+04;
  7.7994257E-01;  9.9999998E-03;  3.0065468E-01;2268; -2.3790134E-02;  0.0000000E+00;  1.2117349E-01;  1.0141521E+03;  4.0892249E-01;  1.1721679E+04;3; -1.1770676E+01;  0.0000000E+00;  8.0324678E+00;0;  1.8951186E+00;  9.8814648E+03;  0.0000000E+00; -3.1725697E-03;  1.0000000E+04;  0.0000000E+00;  9.9590889E+03;  1.8835210E+00;  0.0000000E+00;  1.1597631E-02;  1.9728740E+04;
  8.0001163E-01;  9.9999998E-03;  1.6041441E-01;2292; -1.8036456E-03;  0.0000000E+00;  1.0219391E-01;  1.0143066E+03;  4.0892631E-01;  1.1848567E+04;3; -3.7255666E+00;  0.0000000E+00; -1.1833478E+01;0;  2.5167363E+00;  9.8873486E+03;  0.0000000E+00;  3.2355867E-06;  1.0000000E+04;  0.0000000E+00;  9.9560273E+03;  2.0988717E+00;  0.0000000E+00;  4.1786450E-01;  2.0729316E+04;
  8.0001420E-01;  9.9999998E-03;  1.8044916E-01;2293; -7.9424342E-04;  0.0000000E+00;  1.0859536E-01;  1.0142974E+03;  4.0892705E-01;  1.1840965E+04;3; -3.6347556E+00;  0.0000000E+00; -9.4909735E+00;0;  2.4591651E+00;  9.8856992E+03;  0.0000000E+00; -7.9611091E-06;  1.0000000E+04;  0.0000000E+00;  9.9574688E+03;  2.0876317E+00;  0.0000000E+00;  3.7153327E-01;  2.0060014E+04;
  8.0001694E-01;  9.9999998E-03;  2.0048775E-01;2294;  1.9831648E-05;  0.0000000E+00;  1.1597443E-01;  1.0143104E+03;  4.0892774E-01;  1.1851825E+04;3; -3.7531176E+00;  0.0000000E+00; -6.4174581E+00;0;  2.3876941E+00;  9.8847529E+03;  0.0000000E+00; -2.1433530E-05;  1.0000000E+04;  0.0000000E+00;  9.9586436E+03;  2.0612814E+00;  0.0000000E+00;  3.2641259E-01;  1.9528234E+04;
  8.0001968E-01;  9.9999998E-03;  2.2053339E-01;2295;  5.1049667E-04;  0.0000000E+00;  1.2325188E-01;  1.0143510E+03;  4.0892836E-01;  1.1885393E+04;3; -4.0706244E+00;  0.0000000E+00; -2.5918195E+00;0;  2.3028393E+00;  9.8846934E+03;  0.0000000E+00; -4.1334835E-05;  1.0000000E+04;  0.0000000E+00;  9.9594688E+03;  2.0186744E+00;  0.0000000E+00;  2.8416494E-01;  1.9169361E+04;
  8.0002147E-01;  9.9999998E-03;  2.4057323E-01;2296;  3.6449757E-04;  0.0000000E+00;  1.2715009E-01;  1.0144111E+03;  4.0892869E-01;  1.1935151E+04;3; -4.5754666E+00;  0.0000000E+00;  2.2129042E+00;0;  2.2047970E+00;  9.8855078E+03;  0.0000000E+00; -8.2609447E-05;  1.0000000E+04;  0.0000000E+00;  9.9598105E+03;  1.9623282E+00;  0.0000000E+00;  2.4246879E-01;  1.9053984E+04;
  8.0002129E-01;  9.9999998E-03;  2.6059985E-01;2297; -6.9086574E-04;  0.0000000E+00;  1.3122638E-01;  1.0145229E+03;  4.0892917E-01;  1.2027759E+04;3; -5.2351179E+00;  0.0000000E+00;  8.8465500E+00;0;  2.1109726E+00;  9.8869971E+03;  0.0000000E+00; -1.7493780E-04;  1.0000000E+04;  0.0000000E+00;  9.9604775E+03;  1.8976277E+00;  0.0000000E+00;  2.1334493E-01;  1.8760086E+04;
  8.0001909E-01;  9.9999998E-03;  2.8063762E-01;2298; -2.4012439E-03;  0.0000000E+00;  1.3928065E-01;  1.0144790E+03;  4.0892923E-01;  1.1991427E+04;3; -5.9841003E+00;  0.0000000E+00;  9.7477627E-01;0;  2.1385834E+00;  9.8888682E+03;  0.0000000E+00; -3.4564297E-04;  1.0000000E+04;  0.0000000E+00;  9.9577246E+03;  1.8311981E+00;  0.0000000E+00;  3.0738527E-01;  2.0022469E+04;
  8.0001640E-01;  9.9999998E-03;  3.0066225E-01;2299; -4.1129333E-03;  0.0000000E+00;  1.2255005E-01;  1.0145764E+03;  4.0892881E-01;  1.2071989E+04;3; -6.6918182E+00;  0.0000000E+00;  7.9230556E+00;0;  1.7859415E+00;  9.8907676E+03;  0.0000000E+00; -5.5298320E-04;  1.0000000E+04;  0.0000000E+00;  9.9577314E+03;  1.7699344E+00;  0.0000000E+00;  1.6007014E-02;  2.0406867E+04;
  8.2010853E-01;  9.9999998E-03;  1.6040878E-01;2323;  3.5774108E-02;  0.0000000E+00;  1.0046844E-01;  1.0147060E+03;  4.0891427E-01;  1.2177913E+04;3;  4.4439621E+00;  0.0000000E+00; -1.1679495E+01;0;  2.4099109E+00;  9.8953516E+03;  0.0000000E+00;  2.2233319E-06;  1.0000000E+04;  0.0000000E+00;  9.9563584E+03;  1.9900593E+00;  0.0000000E+00;  4.1985175E-01;  2.0553447E+04;
  8.2011312E-01;  9.9999998E-03;  1.8044320E-01;2324;  3.6496527E-02;  0.0000000E+00;  1.0708962E-01;  1.0146896E+03;  4.0891513E-01;  1.2164290E+04;3;  3.9568801E+00;  0.0000000E+00; -9.1160021E+00;0;  2.3614783E+00;  9.8937275E+03;  0.0000000E+00;  2.2062599E-05;  1.0000000E+04;  0.0000000E+00;  9.9576289E+03;  1.9834043E+00;  0.0000000E+00;  3.7807417E-01;  1.9964143E+04;
  8.2011735E-01;  9.9999998E-03;  2.0048213E-01;2325;  3.6850829E-02;  0.0000000E+00;  1.1504009E-01;  1.0146921E+03;  4.0891570E-01;  1.2166362E+04;3;  3.4114392E+00;  0.0000000E+00; -5.7629676E+00;0;  2.2994320E+00;  9.8928027E+03;  0.0000000E+00;  6.5805296E-05;  1.0000000E+04;  0.0000000E+00;  9.9585801E+03;  1.9621285E+00;  0.0000000E+00;  3.3730361E-01;  1.9537252E+04;
  8.2011992E-01;  9.9999998E-03;  2.2053161E-01;2326;  3.6312953E-02;  0.0000000E+00;  1.2426320E-01;  1.0147174E+03;  4.0891626E-01;  1.2187389E+04;3;  2.8606329E+00;  0.0000000E+00; -1.6002640E+00;0;  2.2248356E+00;  9.8927549E+03;  0.0000000E+00;  1.3528371E-04;  1.0000000E+04;  0.0000000E+00;  9.9590908E+03;  1.9245546E+00;  0.0000000E+00;  3.0028114E-01;  1.9327621E+04;
  8.2011861E-01;  9.9999998E-03;  2.4057443E-01;2327;  3.4131434E-02;  0.0000000E+00;  1.2930089E-01;  1.0147540E+03;  4.0891686E-01;  1.2217596E+04;3;  2.3427107E+00;  0.0000000E+00;  3.2218530E+00;0;  2.1387594E+00;  9.8935771E+03;  0.0000000E+00;  2.1476965E-04;  1.0000000E+04;  0.0000000E+00;  9.9589648E+03;  1.8729059E+00;  0.0000000E+00;  2.6585358E-01;  1.9436916E+04;
  8.2011265E-01;  9.9999998E-03;  2.6060185E-01;2328;  3.0052442E-02;  0.0000000E+00;  1.3268065E-01;  1.0148395E+03;  4.0891731E-01;  1.2288475E+04;3;  1.8877499E+00;  0.0000000E+00;  8.6413383E+00;0;  2.0511708E+00;  9.8950615E+03;  0.0000000E+00;  2.8213020E-04;  1.0000000E+04;  0.0000000E+00;  9.9591230E+03;  1.8124137E+00;  0.0000000E+00;  2.3875709E-01;  1.9392904E+04;
  8.2010388E-01;  9.9999998E-03;  2.8063831E-01;2329;  2.4793217E-02;  0.0000000E+00;  1.3929033E-01;  1.0147977E+03;  4.0891725E-01;  1.2253825E+04;3;  1.5196991E+00;  0.0000000E+00;  3.5411835E-01;0;  2.0656531E+00;  9.8969365E+03;  0.0000000E+00;  2.9482081E-04;  1.0000000E+04;  0.0000000E+00;  9.9564111E+03;  1.7494135E+00;  0.0000000E+00;  3.1623966E-01;  2.0657326E+04;
  8.2009095E-01;  9.9999998E-03;  3.0066267E-01;2330;  1.8866945E-02;  0.0000000E+00;  1.2282901E-01;  1.0149096E+03;  4.0891680E-01;  1.2346521E+04;3;  1.2246125E+00;  0.0000000E+00;  8.1245575E+00;0;  1.7116994E+00;  9.8988818E+03;  0.0000000E+00;  1.8785293E-04;  1.0000000E+04;  0.0000000E+00;  9.9566533E+03;  1.6900862E+00;  0.0000000E+00;  2.1613162E-02;  2.0924893E+04;
  8.4020919E-01;  9.9999998E-03;  1.6040029E-01;2354;  7.5903244E-02;  0.0000000E+00;  9.9080130E-02;  1.0148071E+03;  4.0876913E-01;  1.2259593E+04;3;  1.3991581E+01;  0.0000000E+00; -1.0587251E+01;0;  2.2914076E+00;  9.9037373E+03;  0.0000000E+00;  1.9399729E-05;  1.0000000E+04;  0.0000000E+00;  9.9569629E+03;  1.8694414E+00;  0.0000000E+00;  4.2196631E-01;  2.0230803E+04;
  8.4021634E-01;  9.9999998E-03;  1.8043472E-01;2355;  7.6877162E-02;  0.0000000E+00;  1.0613729E-01;  1.0147728E+03;  4.0876985E-01;  1.2231166E+04;3;  1.3253233E+01;  0.0000000E+00; -7.8145823E+00;0;  2.2563913E+00;  9.9019697E+03;  0.0000000E+00;  6.8717229E-05;  1.0000000E+04;  0.0000000E+00;  9.9580381E+03;  1.8721915E+00;  0.0000000E+00;  3.8419977E-01;  1.9734672E+04;
  8.4022290E-01;  9.9999998E-03;  2.0047408E-01;2356;  7.7448361E-02;  0.0000000E+00;  1.1468543E-01;  1.0147526E+03;  4.0877044E-01;  1.2214386E+04;3;  1.2639089E+01;  0.0000000E+00; -4.2868705E+00;0;  2.2088580E+00;  9.9008115E+03;  0.0000000E+00;  1.9690716E-04;  1.0000000E+04;  0.0000000E+00;  9.9587686E+03;  1.8619273E+00;  0.0000000E+00;  3.4693071E-01;  1.9412016E+04;
  8.4022623E-01;  9.9999998E-03;  2.2052582E-01;2357;  7.6634862E-02;  0.0000000E+00;  1.2509553E-01;  1.0147487E+03;  4.0877104E-01;  1.2211227E+04;3;  1.2212724E+01;  0.0000000E+00; -6.2800996E-02;0;  2.1499894E+00;  9.9004736E+03;  0.0000000E+00;  4.3821658E-04;  1.0000000E+04;  0.0000000E+00;  9.9590088E+03;  1.8360817E+00;  0.0000000E+00;  3.1390753E-01;  1.9331785E+04;
  8.4022260E-01;  9.9999998E-03;  2.4057026E-01;2358;  7.2981685E-02;  0.0000000E+00;  1.3035746E-01;  1.0147486E+03;  4.0877163E-01;  1.2211128E+04;3;  1.1944195E+01;  0.0000000E+00;  3.8414173E+00;0;  2.0801926E+00;  9.9009570E+03;  0.0000000E+00;  7.5894239E-04;  1.0000000E+04;  0.0000000E+00;  9.9584941E+03;  1.7960719E+00;  0.0000000E+00;  2.8412068E-01;  1.9622314E+04;
  8.4021205E-01;  9.9999998E-03;  2.6059660E-01;2359;  6.6421740E-02;  0.0000000E+00;  1.3220645E-01;  1.0148051E+03;  4.0877214E-01;  1.2257914E+04;3;  1.2001782E+01;  0.0000000E+00;  8.2184954E+00;0;  1.9982513E+00;  9.9020850E+03;  0.0000000E+00;  1.0161742E-03;  1.0000000E+04;  0.0000000E+00;  9.9584385E+03;  1.7465488E+00;  0.0000000E+00;  2.5170255E-01;  1.9692203E+04;
  8.4019756E-01;  9.9999998E-03;  2.8063059E-01;2360;  5.7805285E-02;  0.0000000E+00;  1.3754585E-01;  1.0147672E+03;  4.0877229E-01;  1.2226529E+04;3;  1.2179935E+01;  0.0000000E+00;  2.8137329E-01;0;  2.0036027E+00;  9.9036064E+03;  0.0000000E+00;  8.5326930E-04;  1.0000000E+04;  0.0000000E+00;  9.9561553E+03;  1.6933552E+00;  0.0000000E+00;  3.1024745E-01;  2.0764023E+04;
  8.4017533E-01;  9.9999998E-03;  3.0065456E-01;2361;  4.7601391E-02;  0.0000000E+00;  1.2190693E-01;  1.0148788E+03;  4.0877190E-01;  1.2318915E+04;3;  1.2414389E+01;  0.0000000E+00;  8.7347555E+00;0;  1.6630422E+00;  9.9052598E+03;  0.0000000E+00; -2.5913160E-04;  1.0000000E+04;  0.0000000E+00;  9.9566816E+03;  1.6420107E+00;  0.0000000E+00;  2.1031449E-02;  2.0879373E+04;
  8.6031175E-01;  9.9999998E-03;  1.6038857E-01;2385;  1.1748035E-01;  0.0000000E+00;  9.7472817E-02;  1.0146340E+03;  4.0848407E-01;  1.2113567E+04;3;  2.4425238E+01;  0.0000000E+00; -8.9758501E+00;0;  2.1425362E+00;  9.9133008E+03;  0.0000000E+00;  3.1610125E-05;  1.0000000E+04;  0.0000000E+00;  9.9578701E+03;  1.7199689E+00;  0.0000000E+00;  4.2256734E-01;  1.9749307E+04;
  8.6032206E-01;  9.9999998E-03;  1.8042289E-01;2386;  1.1920849E-01;  0.0000000E+00;  1.0493570E-01;  1.0145773E+03;  4.0848485E-01;  1.2066596E+04;3;  2.3702347E+01;  0.0000000E+00; -6.0723720E+00;0;  2.1223156E+00;  9.9112627E+03;  0.0000000E+00;  1.1064574E-04;  1.0000000E+04;  0.0000000E+00;  9.9587725E+03;  1.7346117E+00;  0.0000000E+00;  3.8770381E-01;  1.9335635E+04;
  8.6033165E-01;  9.9999998E-03;  2.0046221E-01;2387;  1.2059648E-01;  0.0000000E+00;  1.1387528E-01;  1.0145273E+03;  4.0848544E-01;  1.2025248E+04;3;  2.3284145E+01;  0.0000000E+00; -2.5031822E+00;0;  2.0913100E+00;  9.9096943E+03;  0.0000000E+00;  3.5803384E-04;  1.0000000E+04;  0.0000000E+00;  9.9593311E+03;  1.7386744E+00;  0.0000000E+00;  3.5263568E-01;  1.9093273E+04;
  8.6033696E-01;  9.9999998E-03;  2.2051415E-01;2388;  1.2015167E-01;  0.0000000E+00;  1.2466861E-01;  1.0144875E+03;  4.0848595E-01;  1.1992288E+04;3;  2.3183905E+01;  0.0000000E+00;  1.4479918E+00;0;  2.0503962E+00;  9.9088330E+03;  0.0000000E+00;  8.8129542E-04;  1.0000000E+04;  0.0000000E+00;  9.9593994E+03;  1.7286251E+00;  0.0000000E+00;  3.2177114E-01;  1.9095047E+04;
  8.6033171E-01;  9.9999998E-03;  2.4055845E-01;2389;  1.1545195E-01;  0.0000000E+00;  1.2952125E-01;  1.0144481E+03;  4.0848660E-01;  1.1959726E+04;3;  2.3242439E+01;  0.0000000E+00;  4.1473494E+00;0;  1.9981859E+00;  9.9087246E+03;  0.0000000E+00;  1.6279893E-03;  1.0000000E+04;  0.0000000E+00;  9.9587051E+03;  1.7046744E+00;  0.0000000E+00;  2.9351145E-01;  1.9469744E+04;
  8.6031747E-01;  9.9999998E-03;  2.6058325E-01;2390;  1.0666152E-01;  0.0000000E+00;  1.3002716E-01;  1.0144745E+03;  4.0848723E-01;  1.1981536E+04;3;  2.3696985E+01;  0.0000000E+00;  7.4473963E+00;0;  1.9248649E+00;  9.9092412E+03;  0.0000000E+00;  2.2666033E-03;  1.0000000E+04;  0.0000000E+00;  9.9586631E+03;  1.6704510E+00;  0.0000000E+00;  2.5441387E-01;  1.9538236E+04;
  8.6029798E-01;  9.9999998E-03;  2.8061512E-01;2391;  9.4795808E-02;  0.0000000E+00;  1.3462912E-01;  1.0144328E+03;  4.0848732E-01;  1.1947001E+04;3;  2.4739353E+01;  0.0000000E+00;  7.4881142E-01;0;  1.9283111E+00;  9.9101768E+03;  0.0000000E+00;  2.0670064E-03;  1.0000000E+04;  0.0000000E+00;  9.9568857E+03;  1.6310961E+00;  0.0000000E+00;  2.9721493E-01;  2.0373859E+04;
  8.6026663E-01;  9.9999998E-03;  3.0063874E-01;2392;  8.0125161E-02;  0.0000000E+00;  1.1996569E-01;  1.0145300E+03;  4.0848705E-01;  1.2027528E+04;3;  2.5531303E+01;  0.0000000E+00;  9.4727745E+00;0;  1.6110177E+00;  9.9113086E+03;  0.0000000E+00;  9.9722158E-05;  1.0000000E+04;  0.0000000E+00;  9.9576533E+03;  1.5916204E+00;  0.0000000E+00;  1.9397290E-02;  2.0351521E+04;
  8.8040954E-01;  9.9999998E-03;  1.6037323E-01;2416;  1.5769453E-01;  0.0000000E+00;  9.5080130E-02;  1.0142962E+03;  4.0807524E-01;  1.1830338E+04;3;  3.4942913E+01;  0.0000000E+00; -7.2387395E+00;0;  1.9355187E+00;  9.9253379E+03;  0.0000000E+00;  2.1150487E-05;  1.0000000E+04;  0.0000000E+00;  9.9591338E+03;  1.5155189E+00;  0.0000000E+00;  4.1999981E-01;  1.9090107E+04;
  8.8042319E-01;  9.9999998E-03;  1.8040697E-01;2417;  1.6045021E-01;  0.0000000E+00;  1.0276570E-01;  1.0142165E+03;  4.0807599E-01;  1.1764438E+04;3;  3.4378056E+01;  0.0000000E+00; -4.3046517E+00;0;  1.9295127E+00;  9.9229834E+03;  0.0000000E+00;  1.2966874E-04;  1.0000000E+04;  0.0000000E+00;  9.9599043E+03;  1.5423836E+00;  0.0000000E+00;  3.8712916E-01;  1.8739426E+04;
  8.8043624E-01;  9.9999998E-03;  2.0044550E-01;2418;  1.6296420E-01;  0.0000000E+00;  1.1182515E-01;  1.0141346E+03;  4.0807655E-01;  1.1696664E+04;3;  3.4267765E+01;  0.0000000E+00; -7.9024762E-01;0;  1.9152778E+00;  9.9209063E+03;  0.0000000E+00;  5.2802160E-04;  1.0000000E+04;  0.0000000E+00;  9.9603516E+03;  1.5619229E+00;  0.0000000E+00;  3.5335490E-01;  1.8549473E+04;
  8.8044399E-01;  9.9999998E-03;  2.2049606E-01;2419;  1.6317211E-01;  0.0000000E+00;  1.2246690E-01;  1.0140559E+03;  4.0807709E-01;  1.1631555E+04;3;  3.4533558E+01;  0.0000000E+00;  2.7336111E+00;0;  1.8933127E+00;  9.9193643E+03;  0.0000000E+00;  1.4362782E-03;  1.0000000E+04;  0.0000000E+00;  9.9603242E+03;  1.5698333E+00;  0.0000000E+00;  3.2347938E-01;  1.8589238E+04;
  8.8043779E-01;  9.9999998E-03;  2.4053885E-01;2420;  1.5769491E-01;  0.0000000E+00;  1.2686382E-01;  1.0139761E+03;  4.0807787E-01;  1.1565462E+04;3;  3.4982426E+01;  0.0000000E+00;  4.7792344E+00;0;  1.8600450E+00;  9.9184766E+03;  0.0000000E+00;  2.7869712E-03;  1.0000000E+04;  0.0000000E+00;  9.9596221E+03;  1.5648723E+00;  0.0000000E+00;  2.9517272E-01;  1.8966824E+04;
  8.8042015E-01;  9.9999998E-03;  2.6056254E-01;2421;  1.4676291E-01;  0.0000000E+00;  1.2667063E-01;  1.0139672E+03;  4.0807852E-01;  1.1558166E+04;3;  3.5717911E+01;  0.0000000E+00;  7.3023133E+00;0;  1.8011645E+00;  9.9182031E+03;  0.0000000E+00;  4.0262211E-03;  1.0000000E+04;  0.0000000E+00;  9.9596855E+03;  1.5490808E+00;  0.0000000E+00;  2.5208366E-01;  1.8986277E+04;
  8.8039649E-01;  9.9999998E-03;  2.8059307E-01;2422;  1.3167946E-01;  0.0000000E+00;  1.3081445E-01;  1.0139080E+03;  4.0807867E-01;  1.1509143E+04;3;  3.7181854E+01;  0.0000000E+00;  1.5664399E+00;0;  1.8090341E+00;  9.9183828E+03;  0.0000000E+00;  4.0426180E-03;  1.0000000E+04;  0.0000000E+00;  9.9583027E+03;  1.5264426E+00;  0.0000000E+00;  2.8259146E-01;  1.9634910E+04;
  8.8035691E-01;  9.9999998E-03;  3.0061638E-01;2423;  1.1294925E-01;  0.0000000E+00;  1.1755542E-01;  1.0139792E+03;  4.0807864E-01;  1.1568044E+04;3;  3.9212776E+01;  0.0000000E+00;  1.1217134E+01;0;  1.5251858E+00;  9.9188633E+03;  0.0000000E+00;  1.7383567E-03;  1.0000000E+04;  0.0000000E+00;  9.9592012E+03;  1.5013958E+00;  0.0000000E+00;  2.3790047E-02;  1.9516348E+04;
  9.0049553E-01;  9.9999998E-03;  1.6035412E-01;2447;  1.9390380E-01;  0.0000000E+00;  9.1544516E-02;  1.0138725E+03;  4.0756521E-01;  1.1475060E+04;3;  4.4977123E+01;  0.0000000E+00; -5.6555552E+00;0;  1.6594696E+00;  9.9403076E+03;  0.0000000E+00; -1.6458196E-05;  1.0000000E+04;  0.0000000E+00;  9.9607656E+03;  1.2461410E+00;  0.0000000E+00;  4.1332862E-01;  1.8247322E+04;
  9.0051234E-01;  9.9999998E-03;  1.8038669E-01;2448;  1.9768602E-01;  0.0000000E+00;  9.9216163E-02;  1.0137734E+03;  4.0756586E-01;  1.1393111E+04;3;  4.4587376E+01;  0.0000000E+00; -2.7805326E+00;0;  1.6657379E+00;  9.9376680E+03;  0.0000000E+00;  9.9965066E-05;  1.0000000E+04;  0.0000000E+00;  9.9614434E+03;  1.2837284E+00;  0.0000000E+00;  3.8200954E-01;  1.7940781E+04;
  9.0052867E-01;  9.9999998E-03;  2.0042367E-01;2449;  2.0130232E-01;  0.0000000E+00;  1.0814270E-01;  1.0136614E+03;  4.0756634E-01;  1.1300416E+04;3;  4.4752796E+01;  0.0000000E+00;  6.3235366E-01;0;  1.6675266E+00;  9.9350615E+03;  0.0000000E+00;  6.2292314E-04;  1.0000000E+04;  0.0000000E+00;  9.9618281E+03;  1.3183165E+00;  0.0000000E+00;  3.4921017E-01;  1.7780262E+04;
  9.0053791E-01;  9.9999998E-03;  2.2047059E-01;2450;  2.0181571E-01;  0.0000000E+00;  1.1793356E-01;  1.0135439E+03;  4.0756676E-01;  1.1203286E+04;3;  4.5158417E+01;  0.0000000E+00;  3.5846441E+00;0;  1.6645670E+00;  9.9327588E+03;  0.0000000E+00;  1.9087601E-03;  1.0000000E+04;  0.0000000E+00;  9.9618135E+03;  1.3452005E+00;  0.0000000E+00;  3.1936648E-01;  1.7811820E+04;
  9.0053058E-01;  9.9999998E-03;  2.4051175E-01;2451;  1.9549865E-01;  0.0000000E+00;  1.2239686E-01;  1.0134230E+03;  4.0756750E-01;  1.1103300E+04;3;  4.5645222E+01;  0.0000000E+00;  5.2863474E+00;0;  1.6527171E+00;  9.9309619E+03;  0.0000000E+00;  3.9025226E-03;  1.0000000E+04;  0.0000000E+00;  9.9612002E+03;  1.3614517E+00;  0.0000000E+00;  2.9126537E-01;  1.8136455E+04;
  9.0051061E-01;  9.9999998E-03;  2.6053554E-01;2452;  1.8293884E-01;  0.0000000E+00;  1.2264405E-01;  1.0133706E+03;  4.0756825E-01;  1.1059918E+04;3;  4.6890373E+01;  0.0000000E+00;  8.0211020E+00;0;  1.6167510E+00;  9.9297500E+03;  0.0000000E+00;  5.8265394E-03;  1.0000000E+04;  0.0000000E+00;  9.9613369E+03;  1.3668554E+00;  0.0000000E+00;  2.4989563E-01;  1.8114332E+04;
  9.0048414E-01;  9.9999998E-03;  2.8056559E-01;2453;  1.6470346E-01;  0.0000000E+00;  1.2626393E-01;  1.0132766E+03;  4.0756851E-01;  1.0982123E+04;3;  4.8220058E+01;  0.0000000E+00;  2.7300420E+00;0;  1.6347514E+00;  9.9290645E+03;  0.0000000E+00;  6.1920718E-03;  1.0000000E+04;  0.0000000E+00;  9.9601416E+03;  1.3636367E+00;  0.0000000E+00;  2.7111471E-01;  1.8674947E+04;
  9.0043825E-01;  9.9999998E-03;  3.0058882E-01;2454;  1.4314683E-01;  0.0000000E+00;  1.1492781E-01;  1.0133081E+03;  4.0756860E-01;  1.1008168E+04;3;  5.2085014E+01;  0.0000000E+00;  1.2834701E+01;0;  1.3971536E+00;  9.9287764E+03;  0.0000000E+00;  3.8385706E-03;  1.0000000E+04;  0.0000000E+00;  9.9610088E+03;  1.3554081E+00;  0.0000000E+00;  4.1745573E-02;  1.8525670E+04;
  9.2055362E-01;  9.9999998E-03;  1.6033170E-01;2478;  2.2102980E-01;  0.0000000E+00;  8.6826086E-02;  1.0133698E+03;  4.0698034E-01;  1.1053152E+04;3;  5.4213879E+01;  0.0000000E+00; -4.3665538E+00;0;  1.3350317E+00;  9.9570908E+03;  0.0000000E+00; -5.6955778E-05;  1.0000000E+04;  0.0000000E+00;  9.9627334E+03;  9.3249416E-01;  0.0000000E+00;  4.0253755E-01;  1.7234900E+04;
  9.2057610E-01;  9.9999998E-03;  1.8036270E-01;2479;  2.2661328E-01;  0.0000000E+00;  9.4318181E-02;  1.0132597E+03;  4.0698060E-01;  1.0962081E+04;3;  5.3946014E+01;  0.0000000E+00; -1.6176442E+00;0;  1.3501251E+00;  9.9543027E+03;  0.0000000E+00;  2.8941133E-05;  1.0000000E+04;  0.0000000E+00;  9.9633486E+03;  9.7749239E-01;  0.0000000E+00;  3.7263268E-01;  1.6957270E+04;
  9.2059892E-01;  9.9999998E-03;  2.0039739E-01;2480;  2.3221290E-01;  0.0000000E+00;  1.0286824E-01;  1.0131233E+03;  4.0698102E-01;  1.0849329E+04;3;  5.4251114E+01;  0.0000000E+00;  1.6386620E+00;0;  1.3655690E+00;  9.9512588E+03;  0.0000000E+00;  5.7168602E-04;  1.0000000E+04;  0.0000000E+00;  9.9637031E+03;  1.0247822E+00;  0.0000000E+00;  3.4078684E-01;  1.6808859E+04;
  9.2061138E-01;  9.9999998E-03;  2.2043855E-01;2481;  2.3326123E-01;  0.0000000E+00;  1.1115053E-01;  1.0129737E+03;  4.0698153E-01;  1.0725640E+04;3;  5.4539364E+01;  0.0000000E+00;  4.1578484E+00;0;  1.3800721E+00;  9.9482100E+03;  0.0000000E+00;  2.0538075E-03;  1.0000000E+04;  0.0000000E+00;  9.9637832E+03;  1.0699917E+00;  0.0000000E+00;  3.1008035E-01;  1.6791344E+04;
  9.2060292E-01;  9.9999998E-03;  2.4047829E-01;2482;  2.2591093E-01;  0.0000000E+00;  1.1609482E-01;  1.0128129E+03;  4.0698218E-01;  1.0592792E+04;3;  5.4695820E+01;  0.0000000E+00;  5.6889114E+00;0;  1.3903266E+00;  9.9454580E+03;  0.0000000E+00;  4.5152763E-03;  1.0000000E+04;  0.0000000E+00;  9.9633457E+03;  1.1084641E+00;  0.0000000E+00;  2.8186250E-01;  1.7023256E+04;
  9.2058253E-01;  9.9999998E-03;  2.6050365E-01;2483;  2.1229649E-01;  0.0000000E+00;  1.1756143E-01;  1.0127068E+03;  4.0698284E-01;  1.0505087E+04;3;  5.5853943E+01;  0.0000000E+00;  8.7302647E+00;0;  1.3829830E+00;  9.9432119E+03;  0.0000000E+00;  7.0251920E-03;  1.0000000E+04;  0.0000000E+00;  9.9634590E+03;  1.1370183E+00;  0.0000000E+00;  2.4596469E-01;  1.7003471E+04;
  9.2055362E-01;  9.9999998E-03;  2.8053382E-01;2484;  1.9170712E-01;  0.0000000E+00;  1.2142137E-01;  1.0125649E+03;  4.0698332E-01;  1.0387721E+04;3;  5.7731678E+01;  0.0000000E+00;  4.4730306E+00;0;  1.4221873E+00;  9.9415537E+03;  0.0000000E+00;  7.8599304E-03;  1.0000000E+04;  0.0000000E+00;  9.9622754E+03;  1.1555252E+00;  0.0000000E+00;  2.6666209E-01;  1.7546248E+04;
  9.2050463E-01;  9.9999998E-03;  3.0055720E-01;2485;  1.6885412E-01;  0.0000000E+00;  1.1204424E-01;  1.0125427E+03;  4.0698358E-01;  1.0369307E+04;3;  6.3560196E+01;  0.0000000E+00;  1.3948049E+01;0;  1.2374506E+00;  9.9404170E+03;  0.0000000E+00;  5.4328782E-03;  1.0000000E+04;  0.0000000E+00;  9.9629258E+03;  1.1662900E+00;  0.0000000E+00;  7.1160555E-02;  1.7454336E+04;
  9.4056815E-01;  9.9999998E-03;  1.6030729E-01;2509;  2.3103790E-01;  0.0000000E+00;  8.1483833E-02;  1.0127401E+03;  4.0634882E-01;  1.0524807E+04;3;  6.0707127E+01;  0.0000000E+00; -3.1881328E+00;0;  1.0069987E+00;  9.9734395E+03;  0.0000000E+00; -6.2070307E-05;  1.0000000E+04;  0.0000000E+00;  9.9649590E+03;  6.1882561E-01;  0.0000000E+00;  3.8817307E-01;  1.6080941E+04;
  9.4059342E-01;  9.9999998E-03;  1.8033691E-01;2510;  2.3781762E-01;  0.0000000E+00;  8.8950232E-02;  1.0126295E+03;  4.0634903E-01;  1.0433405E+04;3;  6.0853706E+01;  0.0000000E+00; -5.9509099E-01;0;  1.0266119E+00;  9.9706738E+03;  0.0000000E+00; -2.6987660E-05;  1.0000000E+04;  0.0000000E+00;  9.9655391E+03;  6.6699636E-01;  0.0000000E+00;  3.5961556E-01;  1.5821200E+04;
  9.4062191E-01;  9.9999998E-03;  2.0036921E-01;2511;  2.4545942E-01;  0.0000000E+00;  9.7170427E-02;  1.0124796E+03;  4.0634936E-01;  1.0309505E+04;3;  6.1563267E+01;  0.0000000E+00;  2.5200911E+00;0;  1.0517652E+00;  9.9673770E+03;  0.0000000E+00;  4.2256052E-04;  1.0000000E+04;  0.0000000E+00;  9.9658770E+03;  7.2275478E-01;  0.0000000E+00;  3.2901049E-01;  1.5676604E+04;
  9.4064808E-01;  9.9999998E-03;  2.2040580E-01;2512;  2.5167739E-01;  0.0000000E+00;  1.0445461E-01;  1.0123028E+03;  4.0634969E-01;  1.0163447E+04;3;  6.2455482E+01;  0.0000000E+00;  4.9046721E+00;0;  1.0813575E+00;  9.9637529E+03;  0.0000000E+00;  1.8520827E-03;  1.0000000E+04;  0.0000000E+00;  9.9660225E+03;  7.8261566E-01;  0.0000000E+00;  2.9874179E-01;  1.5624549E+04;
  9.4065285E-01;  9.9999998E-03;  2.4044089E-01;2513;  2.4818286E-01;  0.0000000E+00;  1.0844990E-01;  1.0121152E+03;  4.0635011E-01;  1.0008438E+04;3;  6.2171780E+01;  0.0000000E+00;  6.0091310E+00;0;  1.1086392E+00;  9.9601318E+03;  0.0000000E+00;  4.3732612E-03;  1.0000000E+04;  0.0000000E+00;  9.9659150E+03;  8.4112132E-01;  0.0000000E+00;  2.6751789E-01;  1.5695283E+04;
  9.4063407E-01;  9.9999998E-03;  2.6046851E-01;2514;  2.3396417E-01;  0.0000000E+00;  1.1139364E-01;  1.0119538E+03;  4.0635085E-01;  9.8752012E+03;3;  6.2948475E+01;  0.0000000E+00;  9.3734531E+00;0;  1.1302013E+00;  9.9568818E+03;  0.0000000E+00;  7.2836429E-03;  1.0000000E+04;  0.0000000E+00;  9.9659346E+03;  8.9245778E-01;  0.0000000E+00;  2.3774362E-01;  1.5703632E+04;
  9.4060338E-01;  9.9999998E-03;  2.8049856E-01;2515;  2.1191309E-01;  0.0000000E+00;  1.1629070E-01;  1.0117622E+03;  4.0635121E-01;  9.7169561E+03;3;  6.5887665E+01;  0.0000000E+00;  7.2994099E+00;0;  1.1985121E+00;  9.9542188E+03;  0.0000000E+00;  8.8342298E-03;  1.0000000E+04;  0.0000000E+00;  9.9647725E+03;  9.3337113E-01;  0.0000000E+00;  2.6514092E-01;  1.6214421E+04;
  9.4055289E-01;  9.9999998E-03;  3.0052242E-01;2516;  1.8899371E-01;  0.0000000E+00;  1.0891143E-01;  1.0116724E+03;  4.0635163E-01;  9.6427236E+03;3;  7.3551132E+01;  0.0000000E+00;  1.5581834E+01;0;  1.0700964E+00;  9.9521709E+03;  0.0000000E+00;  6.0112090E-03;  1.0000000E+04;  0.0000000E+00;  9.9649873E+03;  9.6417123E-01;  0.0000000E+00;  1.0592510E-01;  1.6280795E+04;
  9.6056777E-01;  9.9999998E-03;  1.6028246E-01;2540;  2.3315655E-01;  0.0000000E+00;  7.6175407E-02;  1.0119410E+03;  4.0569821E-01;  9.8547842E+03;3;  6.3105789E+01;  0.0000000E+00; -1.8709265E+00;0;  7.1878499E-01;  9.9872637E+03;  0.0000000E+00; -2.5118279E-05;  1.0000000E+04;  0.0000000E+00;  9.9673457E+03;  3.4802881E-01;  0.0000000E+00;  3.7075618E-01;  1.4818685E+04;
  9.6059388E-01;  9.9999998E-03;  1.8031064E-01;2541;  2.4037005E-01;  0.0000000E+00;  8.3630063E-02;  1.0118370E+03;  4.0569854E-01;  9.7689795E+03;3;  6.3515057E+01;  0.0000000E+00;  6.4944649E-01;0;  7.3903131E-01;  9.9846455E+03;  0.0000000E+00; -2.7205395E-05;  1.0000000E+04;  0.0000000E+00;  9.9679102E+03;  3.9572540E-01;  0.0000000E+00;  3.4330595E-01;  1.4568275E+04;
  9.6062344E-01;  9.9999998E-03;  2.0034026E-01;2542;  2.4857019E-01;  0.0000000E+00;  9.1480173E-02;  1.0116835E+03;  4.0569869E-01;  9.6423447E+03;3;  6.4650085E+01;  0.0000000E+00;  3.6413434E+00;0;  7.6935291E-01;  9.9812715E+03;  0.0000000E+00;  2.6818499E-04;  1.0000000E+04;  0.0000000E+00;  9.9682578E+03;  4.5530659E-01;  0.0000000E+00;  3.1404632E-01;  1.4420820E+04;
  9.6065396E-01;  9.9999998E-03;  2.2037543E-01;2543;  2.5672668E-01;  0.0000000E+00;  9.9136285E-02;  1.0114878E+03;  4.0569890E-01;  9.4807842E+03;3;  6.6815216E+01;  0.0000000E+00;  6.3213115E+00;0;  8.1114513E-01;  9.9772891E+03;  0.0000000E+00;  1.6906001E-03;  1.0000000E+04;  0.0000000E+00;  9.9683750E+03;  5.2449369E-01;  0.0000000E+00;  2.8665143E-01;  1.4373156E+04;
  9.6067542E-01;  9.9999998E-03;  2.4040572E-01;2544;  2.6027420E-01;  0.0000000E+00;  1.0202799E-01;  1.0112758E+03;  4.0569919E-01;  9.3057510E+03;3;  6.8538391E+01;  0.0000000E+00;  7.1134443E+00;0;  8.5397726E-01;  9.9730273E+03;  0.0000000E+00;  6.1541363E-03;  1.0000000E+04;  0.0000000E+00;  9.9684395E+03;  5.9789038E-01;  0.0000000E+00;  2.5608689E-01;  1.4355997E+04;
  9.6066850E-01;  9.9999998E-03;  2.6043129E-01;2545;  2.4980164E-01;  0.0000000E+00;  1.0474419E-01;  1.0110820E+03;  4.0569976E-01;  9.1457861E+03;3;  6.9380783E+01;  0.0000000E+00;  1.0361402E+01;0;  8.9513791E-01;  9.9689131E+03;  0.0000000E+00;  1.2720051E-02;  1.0000000E+04;  0.0000000E+00;  9.9686904E+03;  6.6848606E-01;  0.0000000E+00;  2.2665183E-01;  1.4248767E+04;
  9.6063823E-01;  9.9999998E-03;  2.8046119E-01;2546;  2.2739679E-01;  0.0000000E+00;  1.1085069E-01;  1.0108430E+03;  4.0570015E-01;  8.9486436E+03;3;  7.3260742E+01;  0.0000000E+00;  1.0377052E+01;0;  9.9503708E-01;  9.9653076E+03;  0.0000000E+00;  1.5702596E-02;  1.0000000E+04;  0.0000000E+00;  9.9675234E+03;  7.2993898E-01;  0.0000000E+00;  2.6509812E-01;  1.4727775E+04;
  9.6058810E-01;  9.9999998E-03;  3.0048525E-01;2547;  2.0496070E-01;  0.0000000E+00;  1.0516912E-01;  1.0106864E+03;  4.0570065E-01;  8.8193955E+03;3;  8.2311386E+01;  0.0000000E+00;  1.6851011E+01;0;  9.1965789E-01;  9.9623633E+03;  0.0000000E+00;  5.3257574E-03;  1.0000000E+04;  0.0000000E+00;  9.9673154E+03;  7.7973896E-01;  0.0000000E+00;  1.3991891E-01;  1.4947976E+04;
  9.8056161E-01;  9.9999998E-03;  1.6025878E-01;2571;  2.3267213E-01;  0.0000000E+00;  7.1423613E-02;  1.0109776E+03;  4.0505376E-01;  9.0476416E+03;3;  6.4033066E+01;  0.0000000E+00; -4.9279565E-01;0;  4.9393621E-01;  9.9975195E+03;  0.0000000E+00;  1.4860314E-05;  1.0000000E+04;  0.0000000E+00;  9.9698184E+03;  1.4338240E-01;  0.0000000E+00;  3.5055381E-01;  1.3482396E+04;
  9.8058832E-01;  9.9999998E-03;  1.8028523E-01;2572;  2.4016441E-01;  0.0000000E+00;  7.8644775E-02;  1.0108826E+03;  4.0505391E-01;  8.9693164E+03;3;  6.4530067E+01;  0.0000000E+00;  1.8930737E+00;0;  5.1231825E-01;  9.9950664E+03;  0.0000000E+00; -1.4635000E-06;  1.0000000E+04;  0.0000000E+00;  9.9703857E+03;  1.8856241E-01;  0.0000000E+00;  3.2375586E-01;  1.3235340E+04;
  9.8061877E-01;  9.9999998E-03;  2.0031179E-01;2573;  2.4868973E-01;  0.0000000E+00;  8.5785761E-02;  1.0107311E+03;  4.0505391E-01;  8.8444189E+03;3;  6.5729172E+01;  0.0000000E+00;  4.6411476E+00;0;  5.4394805E-01;  9.9917246E+03;  0.0000000E+00;  5.0295726E-04;  1.0000000E+04;  0.0000000E+00;  9.9707393E+03;  2.4830201E-01;  0.0000000E+00;  2.9564607E-01;  1.3082227E+04;
  9.8065144E-01;  9.9999998E-03;  2.2034460E-01;2574;  2.5759166E-01;  0.0000000E+00;  9.3282014E-02;  1.0105271E+03;  4.0505421E-01;  8.6762910E+03;3;  6.8405251E+01;  0.0000000E+00;  7.4981322E+00;0;  5.9215283E-01;  9.9875791E+03;  0.0000000E+00;  5.3604976E-03;  1.0000000E+04;  0.0000000E+00;  9.9708467E+03;  3.2143176E-01;  0.0000000E+00;  2.7072108E-01;  1.3035244E+04;
  9.8067909E-01;  9.9999998E-03;  2.4037270E-01;2575;  2.6413357E-01;  0.0000000E+00;  9.6619934E-02;  1.0102934E+03;  4.0505430E-01;  8.4836035E+03;3;  7.2860863E+01;  0.0000000E+00;  9.3345432E+00;0;  6.4923871E-01;  9.9829355E+03;  0.0000000E+00;  1.9517271E-02;  1.0000000E+04;  0.0000000E+00;  9.9708721E+03;  4.0347427E-01;  0.0000000E+00;  2.4576443E-01;  1.3024551E+04;
  9.8068905E-01;  9.9999998E-03;  2.6039398E-01;2576;  2.6108986E-01;  0.0000000E+00;  9.8050967E-02;  1.0100857E+03;  4.0505472E-01;  8.3124453E+03;3;  7.5752640E+01;  0.0000000E+00;  1.1478673E+01;0;  7.0216417E-01;  9.9781982E+03;  0.0000000E+00;  3.6692102E-02;  1.0000000E+04;  0.0000000E+00;  9.9714785E+03;  4.8744613E-01;  0.0000000E+00;  2.1471803E-01;  1.2752686E+04;
  9.8066586E-01;  9.9999998E-03;  2.8042260E-01;2577;  2.4092942E-01;  0.0000000E+00;  1.0473421E-01;  1.0098168E+03;  4.0505505E-01;  8.0909063E+03;3;  8.0177643E+01;  0.0000000E+00;  1.2501074E+01;0;  8.2500827E-01;  9.9738232E+03;  0.0000000E+00;  4.0863186E-02;  1.0000000E+04;  0.0000000E+00;  9.9704854E+03;  5.6442267E-01;  0.0000000E+00;  2.6058558E-01;  1.3122957E+04;
  9.8061907E-01;  9.9999998E-03;  3.0044657E-01;2578;  2.1949759E-01;  0.0000000E+00;  1.0014451E-01;  1.0096080E+03;  4.0505561E-01;  7.9187998E+03;3;  9.0357948E+01;  0.0000000E+00;  1.7312366E+01;0;  7.8729820E-01;  9.9701338E+03;  0.0000000E+00;  3.2634251E-03;  1.0000000E+04;  0.0000000E+00;  9.9699834E+03;  6.2912941E-01;  0.0000000E+00;  1.5816882E-01;  1.3442693E+04;
  1.0005527E+00;  9.9999998E-03;  1.6023706E-01;2602;  2.3099510E-01;  0.0000000E+00;  6.7059591E-02;  1.0099022E+03;  4.0443638E-01;  8.1466670E+03;3;  6.4362762E+01;  0.0000000E+00;  7.1217871E-01;0;  3.3388990E-01;  1.0004233E+04;  0.0000000E+00;  8.0041536E-06;  1.0000000E+04;  0.0000000E+00;  9.9723057E+03;  6.2094098E-03;  0.0000000E+00;  3.2768050E-01;  1.2106125E+04;
  1.0005798E+00;  9.9999998E-03;  1.8026108E-01;2603;  2.3877421E-01;  0.0000000E+00;  7.3668763E-02;  1.0098138E+03;  4.0443632E-01;  8.0738726E+03;3;  6.4983185E+01;  0.0000000E+00;  2.8762145E+00;0;  3.4940964E-01;  1.0001912E+04;  0.0000000E+00; -1.4502634E-04;  1.0000000E+04;  0.0000000E+00;  9.9728721E+03;  4.8331868E-02;  0.0000000E+00;  3.0107778E-01;  1.1863707E+04;
  1.0006109E+00;  9.9999998E-03;  2.0028530E-01;2604;  2.4762329E-01;  0.0000000E+00;  8.0458723E-02;  1.0096663E+03;  4.0443638E-01;  7.9524312E+03;3;  6.6372406E+01;  0.0000000E+00;  5.4036045E+00;0;  3.7988624E-01;  9.9986523E+03;  0.0000000E+00;  5.7196448E-04;  1.0000000E+04;  0.0000000E+00;  9.9732100E+03;  1.0558352E-01;  0.0000000E+00;  2.7430272E-01;  1.1718280E+04;
  1.0006450E+00;  9.9999998E-03;  2.2031341E-01;2605;  2.5700486E-01;  0.0000000E+00;  8.6862013E-02;  1.0094633E+03;  4.0443653E-01;  7.7854814E+03;3;  6.9206192E+01;  0.0000000E+00;  7.9535332E+00;0;  4.2922255E-01;  9.9945381E+03;  0.0000000E+00;  1.1744902E-02;  1.0000000E+04;  0.0000000E+00;  9.9733125E+03;  1.7773077E-01;  0.0000000E+00;  2.5149179E-01;  1.1668975E+04;
  1.0006775E+00;  9.9999998E-03;  2.4033980E-01;2606;  2.6496592E-01;  0.0000000E+00;  9.0079360E-02;  1.0092211E+03;  4.0443662E-01;  7.5861704E+03;3;  7.4779030E+01;  0.0000000E+00;  1.0344084E+01;0;  4.9225274E-01;  9.9897725E+03;  0.0000000E+00;  4.4144448E-02;  1.0000000E+04;  0.0000000E+00;  9.9732803E+03;  2.6197508E-01;  0.0000000E+00;  2.3027766E-01;  1.1675923E+04;
  1.0006980E+00;  9.9999998E-03;  2.6035744E-01;2607;  2.6743346E-01;  0.0000000E+00;  9.0946667E-02;  1.0090090E+03;  4.0443677E-01;  7.4116821E+03;3;  8.1781418E+01;  0.0000000E+00;  1.2833060E+01;0;  5.5155945E-01;  9.9846816E+03;  0.0000000E+00;  8.0218703E-02;  1.0000000E+04;  0.0000000E+00;  9.9741631E+03;  3.5278770E-01;  0.0000000E+00;  1.9877177E-01;  1.1283427E+04;
  1.0006902E+00;  9.9999998E-03;  2.8038359E-01;2608;  2.5336885E-01;  0.0000000E+00;  9.7791083E-02;  1.0087389E+03;  4.0443715E-01;  7.1894541E+03;3;  8.6944107E+01;  0.0000000E+00;  1.3569790E+01;0;  6.8585658E-01;  9.9797764E+03;  0.0000000E+00;  8.1418730E-02;  1.0000000E+04;  0.0000000E+00;  9.9736914E+03;  4.3880060E-01;  0.0000000E+00;  2.4705596E-01;  1.1401662E+04;
  1.0006530E+00;  9.9999998E-03;  3.0040741E-01;2609;  2.3456554E-01;  0.0000000E+00;  9.3852706E-02;  1.0084990E+03;  4.0443748E-01;  6.9921572E+03;3;  9.8803497E+01;  0.0000000E+00;  1.7368332E+01;0;  6.6870993E-01;  9.9756016E+03;  0.0000000E+00; -7.5792158E-03;  1.0000000E+04;  0.0000000E+00;  9.9730586E+03;  5.1170057E-01;  0.0000000E+00;  1.5700936E-01;  1.1747693E+04;
  1.0205418E+00;  9.9999998E-03;  1.6021647E-01;2633;  2.2855617E-01;  0.0000000E+00;  6.2837705E-02;  1.0087885E+03;  4.0386263E-01;  7.2129565E+03;3;  6.4447578E+01;  0.0000000E+00;  1.7398449E+00;0;  2.2606170E-01;  1.0008101E+04;  0.0000000E+00; -1.5198691E-04;  1.0000000E+04;  0.0000000E+00;  9.9747412E+03; -7.6261543E-02;  0.0000000E+00;  3.0232325E-01;  1.0725097E+04;
  1.0205698E+00;  9.9999998E-03;  1.8023871E-01;2634;  2.3664176E-01;  0.0000000E+00;  6.9263175E-02;  1.0087016E+03;  4.0386271E-01;  7.1416045E+03;3;  6.5211021E+01;  0.0000000E+00;  3.7832425E+00;0;  2.3886910E-01;  1.0005851E+04;  0.0000000E+00; -2.8942095E-03;  1.0000000E+04;  0.0000000E+00;  9.9752695E+03; -3.7130084E-02;  0.0000000E+00;  2.7599919E-01;  1.0504531E+04;
  1.0206020E+00;  9.9999998E-03;  2.0026112E-01;2635;  2.4595758E-01;  0.0000000E+00;  7.5471163E-02;  1.0085593E+03;  4.0386271E-01;  7.0247539E+03;3;  6.6678032E+01;  0.0000000E+00;  6.0334311E+00;0;  2.6664293E-01;  1.0002771E+04;  0.0000000E+00; -8.9418450E-03;  1.0000000E+04;  0.0000000E+00;  9.9755264E+03;  1.5342412E-02;  0.0000000E+00;  2.5130051E-01;  1.0395601E+04;
  1.0206378E+00;  9.9999998E-03;  2.2028455E-01;2636;  2.5583035E-01;  0.0000000E+00;  8.0563717E-02;  1.0083647E+03;  4.0386266E-01;  6.8650488E+03;3;  6.9838310E+01;  0.0000000E+00;  8.3574371E+00;0;  3.1338447E-01;  9.9988936E+03;  0.0000000E+00;  1.4723735E-03;  1.0000000E+04;  0.0000000E+00;  9.9755508E+03;  8.1924111E-02;  0.0000000E+00;  2.3146038E-01;  1.0375085E+04;
  1.0206745E+00;  9.9999998E-03;  2.4030760E-01;2637;  2.6478714E-01;  0.0000000E+00;  8.2950346E-02;  1.0081299E+03;  4.0386277E-01;  6.6723726E+03;3;  7.5770172E+01;  0.0000000E+00;  1.0398458E+01;0;  3.7500337E-01;  9.9942959E+03;  0.0000000E+00;  5.0832562E-02;  1.0000000E+04;  0.0000000E+00;  9.9755039E+03;  1.6212758E-01;  0.0000000E+00;  2.1287578E-01;  1.0384303E+04;
  1.0207028E+00;  9.9999998E-03;  2.6032239E-01;2638;  2.7047208E-01;  0.0000000E+00;  8.3224908E-02;  1.0079285E+03;  4.0386286E-01;  6.5070024E+03;3;  8.5431076E+01;  0.0000000E+00;  1.3355621E+01;0;  4.3222353E-01;  9.9891504E+03;  0.0000000E+00;  1.0930050E-01;  1.0000000E+04;  0.0000000E+00;  9.9766514E+03;  2.5305891E-01;  0.0000000E+00;  1.7916462E-01;  9.8911523E+03;
  1.0207140E+00;  9.9999998E-03;  2.8034544E-01;2639;  2.6618946E-01;  0.0000000E+00;  9.0182461E-02;  1.0076791E+03;  4.0386280E-01;  6.3023188E+03;3;  9.5026825E+01;  0.0000000E+00;  1.4568523E+01;0;  5.6912994E-01;  9.9838945E+03;  0.0000000E+00;  9.9530049E-02;  1.0000000E+04;  0.0000000E+00;  9.9769590E+03;  3.4385484E-01;  0.0000000E+00;  2.2527511E-01;  9.6602314E+03;
  1.0206956E+00;  9.9999998E-03;  3.0036882E-01;2640;  2.5137174E-01;  0.0000000E+00;  8.6259142E-02;  1.0074310E+03;  4.0386286E-01;  6.0987373E+03;3;  1.0796043E+02;  0.0000000E+00;  1.6905075E+01;0;  5.5267179E-01;  9.9793740E+03;  0.0000000E+00; -2.8100919E-02;  1.0000000E+04;  0.0000000E+00;  9.9765303E+03;  4.1837421E-01;  0.0000000E+00;  1.3429759E-01;  9.8989912E+03;
  1.0405289E+00;  9.9999998E-03;  1.6019696E-01;2664;  2.2546566E-01;  0.0000000E+00;  5.8851194E-02;  1.0077048E+03;  4.0334418E-01;  6.3032529E+03;3;  6.4521454E+01;  0.0000000E+00;  2.7512593E+00;0;  1.5379646E-01;  1.0009971E+04;  0.0000000E+00; -1.7271591E-03;  1.0000000E+04;  0.0000000E+00;  9.9770547E+03; -1.2121219E-01;  0.0000000E+00;  2.7500865E-01;  9.3784707E+03;
  1.0405585E+00;  9.9999998E-03;  1.8021783E-01;2665;  2.3408748E-01;  0.0000000E+00;  6.4716108E-02;  1.0076164E+03;  4.0334427E-01;  6.2308560E+03;3;  6.5227768E+01;  0.0000000E+00;  4.4368677E+00;0;  1.6452242E-01;  1.0007799E+04;  0.0000000E+00; -1.6772967E-02;  1.0000000E+04;  0.0000000E+00;  9.9774727E+03; -8.5283414E-02;  0.0000000E+00;  2.4980584E-01;  9.2112539E+03;
  1.0405921E+00;  9.9999998E-03;  2.0023711E-01;2666;  2.4394009E-01;  0.0000000E+00;  6.9865130E-02;  1.0074825E+03;  4.0334412E-01;  6.1212993E+03;3;  6.6943497E+01;  0.0000000E+00;  6.3640971E+00;0;  1.8832411E-01;  1.0005036E+04;  0.0000000E+00; -5.0382409E-02;  1.0000000E+04;  0.0000000E+00;  9.9775781E+03; -3.9871320E-02;  0.0000000E+00;  2.2819543E-01;  9.1681055E+03;
  1.0406307E+00;  9.9999998E-03;  2.2025792E-01;2667;  2.5454247E-01;  0.0000000E+00;  7.4120864E-02;  1.0073043E+03;  4.0334412E-01;  5.9754604E+03;3;  7.0544998E+01;  0.0000000E+00;  8.4027386E+00;0;  2.2966383E-01;  1.0001654E+04;  0.0000000E+00; -6.6352919E-02;  1.0000000E+04;  0.0000000E+00;  9.9774326E+03;  1.6957212E-02;  0.0000000E+00;  2.1270663E-01;  9.2162881E+03;
  1.0406716E+00;  9.9999998E-03;  2.4027771E-01;2668;  2.6440188E-01;  0.0000000E+00;  7.5847909E-02;  1.0070912E+03;  4.0334409E-01;  5.8011445E+03;3;  7.6951653E+01;  0.0000000E+00;  1.0274482E+01;0;  2.8473914E-01;  9.9975410E+03;  0.0000000E+00; -2.1114822E-02;  1.0000000E+04;  0.0000000E+00;  9.9773291E+03;  8.7360024E-02;  0.0000000E+00;  1.9737911E-01;  9.2356787E+03;
  1.0407084E+00;  9.9999998E-03;  2.6029068E-01;2669;  2.7253726E-01;  0.0000000E+00;  7.6141156E-02;  1.0069094E+03;  4.0334398E-01;  5.6522881E+03;3;  8.8149178E+01;  0.0000000E+00;  1.3383254E+01;0;  3.3848208E-01;  9.9926328E+03;  0.0000000E+00;  4.6539582E-02;  1.0000000E+04;  0.0000000E+00;  9.9786348E+03;  1.7211282E-01;  0.0000000E+00;  1.6636926E-01;  8.6804482E+03;
  1.0407416E+00;  9.9999998E-03;  2.8031024E-01;2670;  2.7881509E-01;  0.0000000E+00;  8.1162311E-02;  1.0066832E+03;  4.0334380E-01;  5.4671606E+03;3;  1.0359400E+02;  0.0000000E+00;  1.5066718E+01;0;  4.5704502E-01;  9.9869668E+03;  0.0000000E+00;  1.2639114E-02;  1.0000000E+04;  0.0000000E+00;  9.9798281E+03;  2.6923290E-01;  0.0000000E+00;  1.8781212E-01;  8.1029849E+03;
  1.0407542E+00;  9.9999998E-03;  3.0033177E-01;2671;  2.7278629E-01;  0.0000000E+00;  7.7988379E-02;  1.0064240E+03;  4.0334377E-01;  5.2552378E+03;3;  1.1750477E+02;  0.0000000E+00;  1.5027190E+01;0;  4.5165384E-01;  9.9814453E+03;  0.0000000E+00;  1.1043451E-02;  1.0000000E+04;  0.0000000E+00;  9.9802061E+03;  3.5123917E-01;  0.0000000E+00;  1.0041467E-01;  7.9972202E+03;
  1.0605149E+00;  9.9999998E-03;  1.6017835E-01;2695;  2.2189145E-01;  0.0000000E+00;  5.4664258E-02;  1.0067000E+03;  4.0288764E-01;  5.4576108E+03;3;  6.4304390E+01;  0.0000000E+00;  3.4011245E+00;0;  1.0372923E-01;  1.0010541E+04;  0.0000000E+00; -9.4375350E-03;  1.0000000E+04;  0.0000000E+00;  9.9791719E+03; -1.4314334E-01;  0.0000000E+00;  2.4687257E-01;  8.1084287E+03;
  1.0605460E+00;  9.9999998E-03;  1.8019712E-01;2696;  2.3119813E-01;  0.0000000E+00;  5.9750095E-02;  1.0066097E+03;  4.0288761E-01;  5.3841582E+03;3;  6.5283257E+01;  0.0000000E+00;  4.8518343E+00;0;  1.1287192E-01;  1.0008539E+04;  0.0000000E+00; -5.8397200E-02;  1.0000000E+04;  0.0000000E+00;  9.9793818E+03; -1.1140931E-01;  0.0000000E+00;  2.2428122E-01;  8.0299326E+03;
  1.0605822E+00;  9.9999998E-03;  2.0021404E-01;2697;  2.4172892E-01;  0.0000000E+00;  6.4011395E-02;  1.0064906E+03;  4.0288755E-01;  5.2870063E+03;3;  6.7403076E+01;  0.0000000E+00;  6.6348791E+00;0;  1.3183752E-01;  1.0006290E+04;  0.0000000E+00; -1.5522686E-01;  1.0000000E+04;  0.0000000E+00;  9.9792666E+03; -7.5364739E-02;  0.0000000E+00;  2.0720226E-01;  8.0942241E+03;
  1.0606247E+00;  9.9999998E-03;  2.2023305E-01;2698;  2.5322914E-01;  0.0000000E+00;  6.7449011E-02;  1.0063387E+03;  4.0288746E-01;  5.1632417E+03;3;  7.1432175E+01;  0.0000000E+00;  8.3551464E+00;0;  1.6543749E-01;  1.0003651E+04;  0.0000000E+00; -2.3879053E-01;  1.0000000E+04;  0.0000000E+00;  9.9789014E+03; -3.1536903E-02;  0.0000000E+00;  1.9697440E-01;  8.2591699E+03;
  1.0606698E+00;  9.9999998E-03;  2.4025136E-01;2699;  2.6401800E-01;  0.0000000E+00;  6.8823293E-02;  1.0061549E+03;  4.0288725E-01;  5.0134531E+03;3;  7.8706963E+01;  0.0000000E+00;  1.0017049E+01;0;  2.1072266E-01;  1.0000298E+04;  0.0000000E+00; -2.3758535E-01;  1.0000000E+04;  0.0000000E+00;  9.9786221E+03;  2.4847358E-02;  0.0000000E+00;  1.8587530E-01;  8.3462002E+03;
  1.0607176E+00;  9.9999998E-03;  2.6026392E-01;2700;  2.7478626E-01;  0.0000000E+00;  6.9234528E-02;  1.0059855E+03;  4.0288711E-01;  4.8754141E+03;3;  9.1372986E+01;  0.0000000E+00;  1.3033532E+01;0;  2.5888148E-01;  9.9957285E+03;  0.0000000E+00; -2.0658170E-01;  1.0000000E+04;  0.0000000E+00;  9.9798359E+03;  1.0031334E-01;  0.0000000E+00;  1.5856814E-01;  7.8324917E+03;
  1.0607674E+00;  9.9999998E-03;  2.8028062E-01;2701;  2.8617480E-01;  0.0000000E+00;  7.2856501E-02;  1.0057558E+03;  4.0288699E-01;  4.6882437E+03;3;  1.0895310E+02;  0.0000000E+00;  1.6233335E+01;0;  3.6112341E-01;  9.9894023E+03;  0.0000000E+00; -2.2724527E-01;  1.0000000E+04;  0.0000000E+00;  9.9816289E+03;  2.0302667E-01;  0.0000000E+00;  1.5809675E-01;  7.0727466E+03;
  1.0608112E+00;  9.9999998E-03;  3.0029765E-01;2702;  2.9273897E-01;  0.0000000E+00;  7.2488680E-02;  1.0054471E+03;  4.0288690E-01;  4.4368057E+03;3;  1.2942667E+02;  0.0000000E+00;  1.9543493E+01;0;  4.1899151E-01;  9.9813682E+03;  0.0000000E+00;  3.2042831E-01;  1.0000000E+04;  0.0000000E+00;  9.9835674E+03;  3.1887633E-01;  0.0000000E+00;  1.0011517E-01;  6.3690459E+03;
  1.0805010E+00;  9.9999998E-03;  1.6016053E-01;2726;  2.1808803E-01;  0.0000000E+00;  5.0237555E-02;  1.0057969E+03;  4.0249568E-01;  4.6951377E+03;3;  6.4062836E+01;  0.0000000E+00;  3.9396002E+00;0;  6.8461359E-02;  1.0010234E+04;  0.0000000E+00; -3.7300859E-02;  1.0000000E+04;  0.0000000E+00;  9.9809922E+03; -1.5132380E-01;  0.0000000E+00;  2.1978515E-01;  6.9575103E+03;
  1.0805335E+00;  9.9999998E-03;  1.8017597E-01;2727;  2.2797047E-01;  0.0000000E+00;  5.4121848E-02;  1.0057111E+03;  4.0249559E-01;  4.6255708E+03;3;  6.5340248E+01;  0.0000000E+00;  5.1235003E+00;0;  7.5692609E-02;  1.0008576E+04;  0.0000000E+00; -1.5459090E-01;  1.0000000E+04;  0.0000000E+00;  9.9809404E+03; -1.2559606E-01;  0.0000000E+00;  2.0128867E-01;  7.0013755E+03;
  1.0805732E+00;  9.9999998E-03;  2.0019193E-01;2728;  2.3957554E-01;  0.0000000E+00;  5.7655260E-02;  1.0056146E+03;  4.0249550E-01;  4.5474014E+03;3;  6.8085373E+01;  0.0000000E+00;  6.5488815E+00;0;  8.8859312E-02;  1.0007035E+04;  0.0000000E+00; -3.5556880E-01;  1.0000000E+04;  0.0000000E+00;  9.9805781E+03; -1.0071497E-01;  0.0000000E+00;  1.8957429E-01;  7.2450371E+03;
  1.0806198E+00;  9.9999998E-03;  2.2021043E-01;2729;  2.5198811E-01;  0.0000000E+00;  6.0749959E-02;  1.0054966E+03;  4.0249524E-01;  4.4517490E+03;3;  7.2999222E+01;  0.0000000E+00;  8.0619440E+00;0;  1.1396944E-01;  1.0005312E+04;  0.0000000E+00; -5.4641896E-01;  1.0000000E+04;  0.0000000E+00;  9.9799717E+03; -7.1311750E-02;  0.0000000E+00;  1.8528119E-01;  7.6361992E+03;
  1.0806693E+00;  9.9999998E-03;  2.4022673E-01;2730;  2.6338810E-01;  0.0000000E+00;  6.1456956E-02;  1.0053555E+03;  4.0249521E-01;  4.3373657E+03;3;  8.1451004E+01;  0.0000000E+00;  9.5741434E+00;0;  1.4482707E-01;  1.0002831E+04;  0.0000000E+00; -6.2362641E-01;  1.0000000E+04;  0.0000000E+00;  9.9796641E+03; -3.0506751E-02;  0.0000000E+00;  1.7533381E-01;  7.8233442E+03;
  1.0807252E+00;  9.9999998E-03;  2.6023939E-01;2731;  2.7570146E-01;  0.0000000E+00;  6.2058240E-02;  1.0051995E+03;  4.0249488E-01;  4.2110049E+03;3;  9.5351410E+01;  0.0000000E+00;  1.2498666E+01;0;  1.8403965E-01;  9.9985098E+03;  0.0000000E+00; -6.4432788E-01;  1.0000000E+04;  0.0000000E+00;  9.9809043E+03;  3.5137720E-02;  0.0000000E+00;  1.4890192E-01;  7.3955771E+03;
  1.0807846E+00;  9.9999998E-03;  2.8025556E-01;2732;  2.8943434E-01;  0.0000000E+00;  6.5267533E-02;  1.0049286E+03;  4.0249494E-01;  3.9914800E+03;3;  1.1492463E+02;  0.0000000E+00;  1.6321985E+01;0;  2.8301817E-01;  9.9912432E+03;  0.0000000E+00; -4.8172733E-01;  1.0000000E+04;  0.0000000E+00;  9.9828047E+03;  1.4382534E-01;  0.0000000E+00;  1.3919283E-01;  6.4381543E+03;
  1.0808392E+00;  9.9999998E-03;  3.0026940E-01;2733;  2.9865852E-01;  0.0000000E+00;  6.5821275E-02;  1.0045397E+03;  4.0249470E-01;  3.6764902E+03;3;  1.3706328E+02;  0.0000000E+00;  2.0992477E+01;0;  3.6650303E-01;  9.9806230E+03;  0.0000000E+00;  1.1199346E+00;  1.0000000E+04;  0.0000000E+00;  9.9857344E+03;  2.7970561E-01;  0.0000000E+00;  8.6797409E-02;  6.7391797E+03;
  1.1004870E+00;  9.9999998E-03;  1.6014151E-01;2756;  2.1414439E-01;  0.0000000E+00;  4.5007952E-02;  1.0050024E+03;  4.0216678E-01;  4.0212322E+03;3;  6.3826000E+01;  0.0000000E+00;  4.3033948E+00;0;  4.5002788E-02;  1.0009314E+04;  0.0000000E+00; -1.1308568E-01;  1.0000000E+04;  0.0000000E+00;  9.9824512E+03; -1.5084799E-01;  0.0000000E+00;  1.9585077E-01;  5.9604702E+03;
  1.1005225E+00;  9.9999998E-03;  1.8015562E-01;2757;  2.2501348E-01;  0.0000000E+00;  4.8166495E-02;  1.0049301E+03;  4.0216655E-01;  3.9629094E+03;3;  6.5649902E+01;  0.0000000E+00;  5.1292591E+00;0;  4.9142241E-02;  1.0008201E+04;  0.0000000E+00; -3.3953241E-01;  1.0000000E+04;  0.0000000E+00;  9.9821309E+03; -1.3316165E-01;  0.0000000E+00;  1.8230389E-01;  6.1822729E+03;
  1.1005661E+00;  9.9999998E-03;  2.0017137E-01;2758;  2.3764993E-01;  0.0000000E+00;  5.1167767E-02;  1.0048651E+03;  4.0216652E-01;  3.9106116E+03;3;  6.9352470E+01;  0.0000000E+00;  6.2358494E+00;0;  5.5892333E-02;  1.0007485E+04;  0.0000000E+00; -6.7403334E-01;  1.0000000E+04;  0.0000000E+00;  9.9815615E+03; -1.1994992E-01;  0.0000000E+00;  1.7584226E-01;  6.7261221E+03;
  1.1006165E+00;  9.9999998E-03;  2.2018865E-01;2759;  2.5064969E-01;  0.0000000E+00;  5.3272579E-02;  1.0047881E+03;  4.0216643E-01;  3.8486262E+03;3;  7.5369896E+01;  0.0000000E+00;  7.3964043E+00;0;  6.9991477E-02;  1.0006658E+04;  0.0000000E+00; -9.8356199E-01;  1.0000000E+04;  0.0000000E+00;  9.9808760E+03; -1.0391466E-01;  0.0000000E+00;  1.7390613E-01;  7.4304653E+03;
  1.1006700E+00;  9.9999998E-03;  2.4020310E-01;2760;  2.6223338E-01;  0.0000000E+00;  5.3215839E-02;  1.0046945E+03;  4.0216622E-01;  3.7733198E+03;3;  8.5205223E+01;  0.0000000E+00;  8.8211403E+00;0;  8.0833085E-02;  1.0004844E+04;  0.0000000E+00; -1.1298912E+00;  1.0000000E+04;  0.0000000E+00;  9.9808516E+03; -7.6564945E-02;  0.0000000E+00;  1.5739803E-01;  7.7168970E+03;
  1.1007282E+00;  9.9999998E-03;  2.6021555E-01;2761;  2.7480549E-01;  0.0000000E+00;  5.4424848E-02;  1.0045635E+03;  4.0216601E-01;  3.6680190E+03;3;  1.0050512E+02;  0.0000000E+00;  1.1965427E+01;0;  1.1056500E-01;  1.0000591E+04;  0.0000000E+00; -1.0839396E+00;  1.0000000E+04;  0.0000000E+00;  9.9825088E+03; -1.8436560E-02;  0.0000000E+00;  1.2900156E-01;  7.1257808E+03;
  1.1007905E+00;  9.9999998E-03;  2.8023276E-01;2762;  2.8932017E-01;  0.0000000E+00;  5.8099680E-02;  1.0042311E+03;  4.0216601E-01;  3.4006968E+03;3;  1.2167452E+02;  0.0000000E+00;  1.6315380E+01;0;  2.1795383E-01;  9.9922705E+03;  0.0000000E+00; -3.9415231E-01;  1.0000000E+04;  0.0000000E+00;  9.9842432E+03;  9.8164141E-02;  0.0000000E+00;  1.1978969E-01;  5.3730879E+03;
  1.1204753E+00;  9.9999998E-03;  1.6012309E-01;2785;  2.1063283E-01;  0.0000000E+00;  3.9321870E-02;  1.0043192E+03;  4.0189716E-01;  3.4377065E+03;3;  6.3803230E+01;  0.0000000E+00;  4.2307453E+00;0;  3.0897468E-02;  1.0008052E+04;  0.0000000E+00; -2.8483450E-01;  1.0000000E+04;  0.0000000E+00;  9.9835225E+03; -1.4590286E-01;  0.0000000E+00;  1.7680033E-01;  5.1662896E+03;
  1.1205142E+00;  9.9999998E-03;  1.8013665E-01;2786;  2.2252053E-01;  0.0000000E+00;  4.1947488E-02;  1.0042719E+03;  4.0189689E-01;  3.3999641E+03;3;  6.6526810E+01;  0.0000000E+00;  4.8964767E+00;0;  3.0330613E-02;  1.0007633E+04;  0.0000000E+00; -6.5285730E-01;  1.0000000E+04;  0.0000000E+00;  9.9830107E+03; -1.3744904E-01;  0.0000000E+00;  1.6777965E-01;  5.6748364E+03;
  1.1205612E+00;  9.9999998E-03;  2.0015211E-01;2787;  2.3589759E-01;  0.0000000E+00;  4.4281252E-02;  1.0042431E+03;  4.0189686E-01;  3.3770083E+03;3;  7.1411522E+01;  0.0000000E+00;  5.7726851E+00;0;  2.9753581E-02;  1.0007697E+04;  0.0000000E+00; -1.1169256E+00;  1.0000000E+04;  0.0000000E+00;  9.9823848E+03; -1.3422014E-01;  0.0000000E+00;  1.6397372E-01;  6.5977251E+03;
  1.1206152E+00;  9.9999998E-03;  2.2016843E-01;2788;  2.4907501E-01;  0.0000000E+00;  4.5452863E-02;  1.0042040E+03;  4.0189660E-01;  3.3457869E+03;3;  7.8753555E+01;  0.0000000E+00;  6.7282825E+00;0;  3.0890584E-02;  1.0007451E+04;  0.0000000E+00; -1.5046424E+00;  1.0000000E+04;  0.0000000E+00;  9.9818652E+03; -1.2736604E-01;  0.0000000E+00;  1.5825662E-01;  7.5342666E+03;
  1.1206710E+00;  9.9999998E-03;  2.4018167E-01;2789;  2.6043922E-01;  0.0000000E+00;  4.5240402E-02;  1.0041482E+03;  4.0189660E-01;  3.3012822E+03;3;  9.0392296E+01;  0.0000000E+00;  8.3600512E+00;0;  2.2764176E-02;  1.0005764E+04;  0.0000000E+00; -1.6176811E+00;  1.0000000E+04;  0.0000000E+00;  9.9824570E+03; -1.0738933E-01;  0.0000000E+00;  1.3015351E-01;  7.6709351E+03;
  1.1207291E+00;  9.9999998E-03;  2.6019636E-01;2790;  2.7326107E-01;  0.0000000E+00;  4.8049249E-02;  1.0039943E+03;  4.0189648E-01;  3.1786057E+03;3;  1.0718340E+02;  0.0000000E+00;  1.1964811E+01;0;  6.3795194E-02;  1.0001065E+04;  0.0000000E+00; -1.2669402E+00;  1.0000000E+04;  0.0000000E+00;  9.9841074E+03; -4.6153385E-02;  0.0000000E+00;  1.0994858E-01;  6.4480610E+03;
  1.1207852E+00;  9.9999998E-03;  2.8021336E-01;2791;  2.8621858E-01;  0.0000000E+00;  5.1741745E-02;  1.0036378E+03;  4.0189636E-01;  2.8948621E+03;3;  1.2941266E+02;  0.0000000E+00;  1.6435919E+01;0;  1.7050698E-01;  9.9923389E+03;  0.0000000E+00;  3.8244894E-01;  1.0000000E+04;  0.0000000E+00;  9.9857539E+03;  7.0481963E-02;  0.0000000E+00;  1.0002501E-01;  4.3972896E+03;
  1.1404665E+00;  9.9999998E-03;  1.6010639E-01;2813;  2.0779358E-01;  0.0000000E+00;  3.3581972E-02;  1.0037527E+03;  4.0168071E-01;  2.9485496E+03;3;  6.4316856E+01;  0.0000000E+00;  3.9689939E+00;0;  2.2093892E-02;  1.0006777E+04;  0.0000000E+00; -6.0949385E-01;  1.0000000E+04;  0.0000000E+00;  9.9842783E+03; -1.4105693E-01;  0.0000000E+00;  1.6315082E-01;  4.6841436E+03;
  1.1405088E+00;  9.9999998E-03;  1.8012013E-01;2814;  2.2055560E-01;  0.0000000E+00;  3.5830632E-02;  1.0037384E+03;  4.0168083E-01;  2.9372188E+03;3;  6.8133118E+01;  0.0000000E+00;  4.5566692E+00;0;  1.5936181E-02;  1.0007067E+04;  0.0000000E+00; -1.1181812E+00;  1.0000000E+04;  0.0000000E+00;  9.9837080E+03; -1.4090686E-01;  0.0000000E+00;  1.5684304E-01;  5.5739932E+03;
  1.1405602E+00;  9.9999998E-03;  2.0013651E-01;2815;  2.3436427E-01;  0.0000000E+00;  3.7853345E-02;  1.0037356E+03;  4.0168053E-01;  2.9348606E+03;3;  7.4386230E+01;  0.0000000E+00;  5.3013296E+00;0;  9.5801651E-03;  1.0007591E+04;  0.0000000E+00; -1.6602633E+00;  1.0000000E+04;  0.0000000E+00;  9.9831436E+03; -1.4294812E-01;  0.0000000E+00;  1.5252829E-01;  6.7640659E+03;
  1.1406175E+00;  9.9999998E-03;  2.2015308E-01;2816;  2.4726158E-01;  0.0000000E+00;  3.8443744E-02;  1.0037029E+03;  4.0168041E-01;  2.9091699E+03;3;  8.3411324E+01;  0.0000000E+00;  5.9510875E+00;0; -3.2314658E-04;  1.0007222E+04;  0.0000000E+00; -2.0248833E+00;  1.0000000E+04;  0.0000000E+00;  9.9828760E+03; -1.3814789E-01;  0.0000000E+00;  1.3782474E-01;  7.6384487E+03;
  1.1406721E+00;  9.9999998E-03;  2.4016656E-01;2817;  2.5840187E-01;  0.0000000E+00;  3.9295252E-02;  1.0036425E+03;  4.0168026E-01;  2.8614790E+03;3;  9.6894829E+01;  0.0000000E+00;  8.1356001E+00;0; -8.2105622E-03;  1.0004966E+04;  0.0000000E+00; -1.8658290E+00;  1.0000000E+04;  0.0000000E+00;  9.9839385E+03; -1.1405178E-01;  0.0000000E+00;  1.0584122E-01;  7.0875493E+03;
  1.1407272E+00;  9.9999998E-03;  2.6018369E-01;2818;  2.7136731E-01;  0.0000000E+00;  4.3426000E-02;  1.0034147E+03;  4.0168026E-01;  2.6824988E+03;3;  1.1552961E+02;  0.0000000E+00;  1.2025250E+01;0;  6.3550830E-02;  9.9993564E+03;  0.0000000E+00; -8.0062675E-01;  1.0000000E+04;  0.0000000E+00;  9.9850225E+03; -3.7799828E-02;  0.0000000E+00;  1.0135066E-01;  4.6797314E+03;
  1.1604617E+00;  9.9999998E-03;  1.6009292E-01;2840;  2.0573607E-01;  0.0000000E+00;  2.8182609E-02;  1.0033099E+03;  4.0151116E-01;  2.5577900E+03;3;  6.5643860E+01;  0.0000000E+00;  3.5873790E+00;0;  1.3615981E-02;  1.0005813E+04;  0.0000000E+00; -1.1154920E+00;  1.0000000E+04;  0.0000000E+00;  9.9848701E+03; -1.4014859E-01;  0.0000000E+00;  1.5376458E-01;  4.6261807E+03;
  1.1605085E+00;  9.9999998E-03;  1.8010852E-01;2841;  2.1922843E-01;  0.0000000E+00;  3.0501150E-02;  1.0033177E+03;  4.0151098E-01;  2.5637576E+03;3;  7.0825821E+01;  0.0000000E+00;  4.0797315E+00;0;  4.2238384E-03;  1.0006535E+04;  0.0000000E+00; -1.7078650E+00;  1.0000000E+04;  0.0000000E+00;  9.9843115E+03; -1.4402972E-01;  0.0000000E+00;  1.4825356E-01;  5.7761655E+03;
  1.1605649E+00;  9.9999998E-03;  2.0012711E-01;2842;  2.3314811E-01;  0.0000000E+00;  3.2387871E-02;  1.0032966E+03;  4.0151092E-01;  2.5473186E+03;3;  7.8392265E+01;  0.0000000E+00;  4.5178776E+00;0; -2.2056103E-03;  1.0006700E+04;  0.0000000E+00; -2.2224000E+00;  1.0000000E+04;  0.0000000E+00;  9.9837451E+03; -1.4252168E-01;  0.0000000E+00;  1.4031607E-01;  6.9041812E+03;
  1.1606220E+00;  9.9999998E-03;  2.2014354E-01;2843;  2.4544059E-01;  0.0000000E+00;  3.3120424E-02;  1.0032289E+03;  4.0151075E-01;  2.4948643E+03;3;  8.9302376E+01;  0.0000000E+00;  5.2363977E+00;0; -1.2854896E-02;  1.0005356E+04;  0.0000000E+00; -2.3292081E+00;  1.0000000E+04;  0.0000000E+00;  9.9837520E+03; -1.2956077E-01;  0.0000000E+00;  1.1670587E-01;  7.1355713E+03;
  1.1606746E+00;  9.9999998E-03;  2.4015975E-01;2844;  2.5722361E-01;  0.0000000E+00;  3.6054362E-02;  1.0030795E+03;  4.0151072E-01;  2.3793347E+03;3;  1.0478212E+02;  0.0000000E+00;  8.1360435E+00;0;  1.7144337E-02;  1.0001750E+04;  0.0000000E+00; -1.5336460E+00;  1.0000000E+04;  0.0000000E+00;  9.9843828E+03; -8.3596438E-02;  0.0000000E+00;  1.0074078E-01;  5.4079751E+03;
  1.1607186E+00;  9.9999998E-03;  2.6017421E-01;2845;  2.6766920E-01;  0.0000000E+00;  3.9722383E-02;  1.0028679E+03;  4.0151072E-01;  2.2156658E+03;3;  1.2492950E+02;  0.0000000E+00;  1.2237427E+01;0;  8.8255636E-02;  9.9961650E+03;  0.0000000E+00;  7.1797115E-01;  1.0000000E+04;  0.0000000E+00;  9.9857520E+03; -7.1394225E-03;  0.0000000E+00;  9.5395058E-02;  3.7670747E+03;
  1.1804636E+00;  9.9999998E-03;  1.6008589E-01;2866;  2.0473339E-01;  0.0000000E+00;  2.3994958E-02;  1.0029747E+03;  4.0138054E-01;  2.2509907E+03;3;  6.8461288E+01;  0.0000000E+00;  3.0191956E+00;0;  4.3376684E-03;  1.0005151E+04;  0.0000000E+00; -1.7533804E+00;  1.0000000E+04;  0.0000000E+00;  9.9853467E+03; -1.4308475E-01;  0.0000000E+00;  1.4742242E-01;  4.8483867E+03;
  1.1805176E+00;  9.9999998E-03;  1.8010545E-01;2867;  2.1915923E-01;  0.0000000E+00;  2.6843980E-02;  1.0029441E+03;  4.0138069E-01;  2.2276663E+03;3;  7.4982132E+01;  0.0000000E+00;  3.2402511E+00;0;  3.7041306E-03;  1.0005310E+04;  0.0000000E+00; -2.3278842E+00;  1.0000000E+04;  0.0000000E+00;  9.9845908E+03; -1.3945302E-01;  0.0000000E+00;  1.4315715E-01;  5.9470078E+03;
  1.1805743E+00;  9.9999998E-03;  2.0012444E-01;2868;  2.3273303E-01;  0.0000000E+00;  2.8827233E-02;  1.0028511E+03;  4.0138054E-01;  2.1571665E+03;3;  8.4302414E+01;  0.0000000E+00;  3.7506957E+00;0;  1.0132656E-02;  1.0004104E+04;  0.0000000E+00; -2.5695829E+00;  1.0000000E+04;  0.0000000E+00;  9.9839512E+03; -1.2178795E-01;  0.0000000E+00;  1.3192061E-01;  6.4560356E+03;
  1.1806267E+00;  9.9999998E-03;  2.2014059E-01;2869;  2.4428298E-01;  0.0000000E+00;  3.0620305E-02;  1.0027122E+03;  4.0138051E-01;  2.0519644E+03;3;  9.7203430E+01;  0.0000000E+00;  5.3525095E+00;0;  2.2356056E-02;  1.0001302E+04;  0.0000000E+00; -1.9698949E+00;  1.0000000E+04;  0.0000000E+00;  9.9839912E+03; -8.8752992E-02;  0.0000000E+00;  1.1110905E-01;  5.3653394E+03;
  1.1806706E+00;  9.9999998E-03;  2.4015608E-01;2870;  2.5477728E-01;  0.0000000E+00;  3.4359396E-02;  1.0025239E+03;  4.0138048E-01;  1.9093682E+03;3;  1.1483965E+02;  0.0000000E+00;  8.8495731E+00;0;  8.1148773E-02;  9.9970752E+03;  0.0000000E+00; -1.4531259E-02;  1.0000000E+04;  0.0000000E+00;  9.9844619E+03; -2.7715696E-02;  0.0000000E+00;  1.0886447E-01;  3.0937568E+03;
  1.2004775E+00;  9.9999998E-03;  1.6008893E-01;2890;  2.0575623E-01;  0.0000000E+00;  2.2107307E-02;  1.0026533E+03;  4.0128258E-01;  1.9559365E+03;3;  7.2875900E+01;  0.0000000E+00;  2.2133973E+00;0;  1.1427224E-02;  1.0003599E+04;  0.0000000E+00; -2.4035244E+00;  1.0000000E+04;  0.0000000E+00;  9.9853857E+03; -1.3550463E-01;  0.0000000E+00;  1.4693186E-01;  4.9812651E+03;
  1.2005322E+00;  9.9999998E-03;  1.8010820E-01;2891;  2.2004306E-01;  0.0000000E+00;  2.4907880E-02;  1.0025314E+03;  4.0128249E-01;  1.8658921E+03;3;  8.1443527E+01;  0.0000000E+00;  2.6654086E+00;0;  3.3145599E-02;  1.0002112E+04;  0.0000000E+00; -2.6962972E+00;  1.0000000E+04;  0.0000000E+00;  9.9844512E+03; -1.1002257E-01;  0.0000000E+00;  1.4316817E-01;  5.5025371E+03;
  1.2005841E+00;  9.9999998E-03;  2.0012635E-01;2892;  2.3286217E-01;  0.0000000E+00;  2.7631123E-02;  1.0023406E+03;  4.0128252E-01;  1.7251727E+03;3;  9.3125923E+01;  0.0000000E+00;  4.0085688E+00;0;  7.1406871E-02;  9.9990615E+03;  0.0000000E+00; -2.1576698E+00;  1.0000000E+04;  0.0000000E+00;  9.9836992E+03; -6.4411491E-02;  0.0000000E+00;  1.3581836E-01;  4.7375010E+03;
  1.2006252E+00;  9.9999998E-03;  2.2014000E-01;2893;  2.4188381E-01;  0.0000000E+00;  2.9816356E-02;  1.0021964E+03;  4.0128261E-01;  1.6186754E+03;3;  1.0755752E+02;  0.0000000E+00;  6.3650770E+00;0;  9.5677018E-02;  9.9959170E+03;  0.0000000E+00; -2.8279206E-01;  1.0000000E+04;  0.0000000E+00;  9.9839658E+03; -2.3883481E-02;  0.0000000E+00;  1.1956050E-01;  2.7145769E+03;
  1.2204956E+00;  9.9999998E-03;  1.6009559E-01;2913;  2.0692655E-01;  0.0000000E+00;  2.1193573E-02;  1.0022577E+03;  4.0121028E-01;  1.6121790E+03;3;  8.0030899E+01;  0.0000000E+00;  1.7374830E+00;0;  5.0298974E-02;  9.9996426E+03;  0.0000000E+00; -2.6639540E+00;  1.0000000E+04;  0.0000000E+00;  9.9850615E+03; -9.9096939E-02;  0.0000000E+00;  1.4939591E-01;  4.3908174E+03;
  1.2205423E+00;  9.9999998E-03;  1.8011233E-01;2914;  2.1931322E-01;  0.0000000E+00;  2.3962963E-02;  1.0020767E+03;  4.0121028E-01;  1.4827543E+03;3;  9.0675209E+01;  0.0000000E+00;  2.9898930E+00;0;  9.1806874E-02;  9.9969277E+03;  0.0000000E+00; -2.1319652E+00;  1.0000000E+04;  0.0000000E+00;  9.9841660E+03; -5.3933639E-02;  0.0000000E+00;  1.4574051E-01;  3.7832136E+03;
  1.2205836E+00;  9.9999998E-03;  2.0012784E-01;2915;  2.2986144E-01;  0.0000000E+00;  2.7080301E-02;  1.0018771E+03;  4.0121043E-01;  1.3402562E+03;3;  1.0369631E+02;  0.0000000E+00;  5.2478361E+00;0;  1.4520982E-01;  9.9935635E+03;  0.0000000E+00; -2.9284698E-01;  1.0000000E+04;  0.0000000E+00;  9.9835527E+03;  2.2147801E-03;  0.0000000E+00;  1.4299504E-01;  2.2569199E+03;
  1.2206054E+00;  9.9999998E-03;  2.2013235E-01;2916;  2.3375301E-01;  0.0000000E+00;  2.7116520E-02;  1.0019984E+03;  4.0121025E-01;  1.4266759E+03;3;  1.1708324E+02;  0.0000000E+00;  7.3604717E+00;0;  8.8384703E-02;  9.9937910E+03;  0.0000000E+00;  2.5245183E+00;  1.0000000E+04;  0.0000000E+00;  9.9857363E+03; -1.3196213E-02;  0.0000000E+00;  1.0158092E-01;  4.1193052E+03;
  1.2405015E+00;  9.9999998E-03;  1.6009864E-01;2934;  2.0447373E-01;  0.0000000E+00;  1.9630127E-02;  1.0019036E+03;  4.0115806E-01;  1.3092540E+03;3;  8.9389214E+01;  0.0000000E+00;  2.0450675E+00;0;  9.0754911E-02;  9.9951104E+03;  0.0000000E+00; -1.6765168E+00;  1.0000000E+04;  0.0000000E+00;  9.9851250E+03; -5.2315194E-02;  0.0000000E+00;  1.4307010E-01;  2.5486045E+03;
  1.2405354E+00;  9.9999998E-03;  1.8011123E-01;2935;  2.1408814E-01;  0.0000000E+00;  2.2361556E-02;  1.0018127E+03;  4.0115827E-01;  1.2466128E+03;3;  1.0104858E+02;  0.0000000E+00;  4.1392336E+00;0;  1.2277903E-01;  9.9936514E+03;  0.0000000E+00; -1.5124681E-02;  1.0000000E+04;  0.0000000E+00;  9.9847725E+03; -1.5258788E-02;  0.0000000E+00;  1.3803782E-01;  1.6729728E+03;
  1.2604882E+00;  9.9999998E-03;  1.6009578E-01;2952;  1.9751252E-01;  0.0000000E+00;  1.7411543E-02;  1.0018344E+03;  4.0112132E-01;  1.2086420E+03;3;  9.9272018E+01;  0.0000000E+00;  2.8319731E+00;0;  8.1321210E-02;  9.9945938E+03;  0.0000000E+00;  6.3269770E-01;  1.0000000E+04;  0.0000000E+00;  9.9861016E+03; -4.4079494E-02;  0.0000000E+00;  1.2540071E-01;  1.3822083E+03;
