TimeStep;Np;Nbound;Nfixed;Nmoving;Nfloat;Nfluid
0.00301806;2975;1031;1031;0;0;1944

Pos.x;Pos.y;Pos.z;Idp;Vel.x;Vel.y;Vel.z;Rhop;Mass;Press;Type;Acec.x;Acec.y;Acec.z;CellOffSpring;GradVel;Qfxx;Qfxy;Qfxz;Qfyy;Qfyz;Qfzz;StrainDot.x;StrainDot.y;StrainDot.z;VonMises3D;
 -2.2000000E-01;  9.9999998E-03; -3.8000000E-01;0;  0.0000000E+00;  0.0000000E+00;  0.0000000E+00;  1.0000000E+03;  4.0000001E-01;  0.0000000E+00;0;  0.0000000E+00;  0.0000000E+00;  0.0000000E+00;0;  0.0000000E+00;  1.0000000E+04;  0.0000000E+00;  0.0000000E+00;  1.0000000E+04;  0.0000000E+00;  1.0000000E+04;  0.0000000E+00;  0.0000000E+00;  0.0000000E+00;  0.0000000E+00;
 -2.2000000E-01;  9.9999998E-03; -3.6000001E-01;1;  0.0000000E+00;  0.0000000E+00;  0.0000000E+00;  1.0000000E+03;  4.0000001E-01;  0.0000000E+00;0;  0.0000000E+00;  0.0000000E+00;  0.0000000E+00;0;  0.0000000E+00;  1.0000000E+04;  0.0000000E+00;  0.0000000E+00;  1.0000000E+04;  0.0000000E+00;  1.0000000E+04;  0.0000000E+00;  0.0000000E+00;  0.0000000E+00;  0.0000000E+00;
 -2.0000000E-01;  9.9999998E-03; -4.0000001E-01;39;  0.0000000E+00;  0.0000000E+00;  0.0000000E+00;  1.0000000E+03;  4.0000001E-01;  0.0000000E+00;0;  0.0000000E+00;  0.0000000E+00;  0.0000000E+00;0;  0.0000000E+00;  1.0000000E+04;  0.0000000E+00;  0.0000000E+00;  1.0000000E+04;  0.0000000E+00;  1.0000000E+04;  0.0000000E+00;  0.0000000E+00;  0.0000000E+00;  0.0000000E+00;
 -2.0000000E-01;  9.9999998E-03; -3.8000000E-01;40;  0.0000000E+00;  0.0000000E+00;  0.0000000E+00;  1.0000000E+03;  4.0000001E-01;  0.0000000E+00;0;  0.0000000E+00;  0.0000000E+00;  0.0000000E+00;0;  0.0000000E+00;  1.0000000E+04;  0.0000000E+00;  0.0000000E+00;  1.0000000E+04;  0.0000000E+00;  1.0000000E+04;  0.0000000E+00;  0.0000000E+00;  0.0000000E+00;  0.0000000E+00;
 -2.0000000E-01;  9.9999998E-03; -3.6000001E-01;41;  0.0000000E+00;  0.0000000E+00;  0.0000000E+00;  1.0000000E+03;  4.0000001E-01;  0.0000000E+00;0;  0.0000000E+00;  0.0000000E+00;  0.0000000E+00;0;  0.0000000E+00;  1.0000000E+04;  0.0000000E+00;  0.0000000E+00;  1.0000000E+04;  0.0000000E+00;  1.0000000E+04;  0.0000000E+00;  0.0000000E+00;  0.0000000E+00;  0.0000000E+00;
 -1.8000001E-01;  9.9999998E-03; -4.0000001E-01;80;  0.0000000E+00;  0.0000000E+00;  0.0000000E+00;  1.0000000E+03;  4.0000001E-01;  0.0000000E+00;0;  0.0000000E+00;  0.0000000E+00;  0.0000000E+00;0;  0.0000000E+00;  1.0000000E+04;  0.0000000E+00;  0.0000000E+00;  1.0000000E+04;  0.0000000E+00;  1.0000000E+04;  0.0000000E+00;  0.0000000E+00;  0.0000000E+00;  0.0000000E+00;
 -1.8000001E-01;  9.9999998E-03; -3.8000000E-01;81;  0.0000000E+00;  0.0000000E+00;  0.0000000E+00;  1.0000000E+03;  4.0000001E-01;  0.0000000E+00;0;  0.0000000E+00;  0.0000000E+00;  0.0000000E+00;0;  0.0000000E+00;  1.0000000E+04;  0.0000000E+00;  0.0000000E+00;  1.0000000E+04;  0.0000000E+00;  1.0000000E+04;  0.0000000E+00;  0.0000000E+00;  0.0000000E+00;  0.0000000E+00;
 -1.8000001E-01;  9.9999998E-03; -3.6000001E-01;82;  0.0000000E+00;  0.0000000E+00;  0.0000000E+00;  1.0000000E+03;  4.0000001E-01;  0.0000000E+00;0;  0.0000000E+00;  0.0000000E+00;  0.0000000E+00;0;  0.0000000E+00;  1.0000000E+04;  0.0000000E+00;  0.0000000E+00;  1.0000000E+04;  0.0000000E+00;  1.0000000E+04;  0.0000000E+00;  0.0000000E+00;  0.0000000E+00;  0.0000000E+00;
 -1.6000000E-01;  9.9999998E-03; -4.0000001E-01;121;  0.0000000E+00;  0.0000000E+00;  0.0000000E+00;  1.0000000E+03;  4.0000001E-01;  0.0000000E+00;0;  0.0000000E+00;  0.0000000E+00;  0.0000000E+00;0;  0.0000000E+00;  1.0000000E+04;  0.0000000E+00;  0.0000000E+00;  1.0000000E+04;  0.0000000E+00;  1.0000000E+04;  0.0000000E+00;  0.0000000E+00;  0.0000000E+00;  0.0000000E+00;
 -1.6000000E-01;  9.9999998E-03; -3.8000000E-01;122;  0.0000000E+00;  0.0000000E+00;  0.0000000E+00;  1.0000000E+03;  4.0000001E-01;  0.0000000E+00;0;  0.0000000E+00;  0.0000000E+00;  0.0000000E+00;0;  0.0000000E+00;  1.0000000E+04;  0.0000000E+00;  0.0000000E+00;  1.0000000E+04;  0.0000000E+00;  1.0000000E+04;  0.0000000E+00;  0.0000000E+00;  0.0000000E+00;  0.0000000E+00;
 -1.6000000E-01;  9.9999998E-03; -3.6000001E-01;123;  0.0000000E+00;  0.0000000E+00;  0.0000000E+00;  1.0000000E+03;  4.0000001E-01;  0.0000000E+00;0;  0.0000000E+00;  0.0000000E+00;  0.0000000E+00;0;  0.0000000E+00;  1.0000000E+04;  0.0000000E+00;  0.0000000E+00;  1.0000000E+04;  0.0000000E+00;  1.0000000E+04;  0.0000000E+00;  0.0000000E+00;  0.0000000E+00;  0.0000000E+00;
 -1.4000000E-01;  9.9999998E-03; -4.0000001E-01;162;  0.0000000E+00;  0.0000000E+00;  0.0000000E+00;  1.0000000E+03;  4.0000001E-01;  0.0000000E+00;0;  0.0000000E+00;  0.0000000E+00;  0.0000000E+00;0;  0.0000000E+00;  1.0000000E+04;  0.0000000E+00;  0.0000000E+00;  1.0000000E+04;  0.0000000E+00;  1.0000000E+04;  0.0000000E+00;  0.0000000E+00;  0.0000000E+00;  0.0000000E+00;
 -1.4000000E-01;  9.9999998E-03; -3.8000000E-01;163;  0.0000000E+00;  0.0000000E+00;  0.0000000E+00;  1.0000000E+03;  4.0000001E-01;  0.0000000E+00;0;  0.0000000E+00;  0.0000000E+00;  0.0000000E+00;0;  0.0000000E+00;  1.0000000E+04;  0.0000000E+00;  0.0000000E+00;  1.0000000E+04;  0.0000000E+00;  1.0000000E+04;  0.0000000E+00;  0.0000000E+00;  0.0000000E+00;  0.0000000E+00;
 -1.4000000E-01;  9.9999998E-03; -3.6000001E-01;164;  0.0000000E+00;  0.0000000E+00;  0.0000000E+00;  1.0000000E+03;  4.0000001E-01;  0.0000000E+00;0;  0.0000000E+00;  0.0000000E+00;  0.0000000E+00;0; -1.0609186E-08;  1.0000000E+04;  0.0000000E+00;  0.0000000E+00;  1.0000000E+04;  0.0000000E+00;  1.0000000E+04; -8.4016367E-09;  0.0000000E+00; -2.2075488E-09;  7.9320662E-06;
 -1.2000000E-01;  9.9999998E-03; -4.0000001E-01;203;  0.0000000E+00;  0.0000000E+00;  0.0000000E+00;  1.0000000E+03;  4.0000001E-01;  0.0000000E+00;0;  0.0000000E+00;  0.0000000E+00;  0.0000000E+00;0; -2.3439631E-26;  1.0000000E+04;  0.0000000E+00;  0.0000000E+00;  1.0000000E+04;  0.0000000E+00;  1.0000000E+04; -1.6590732E-26;  0.0000000E+00; -6.8488973E-27;  0.0000000E+00;
 -1.2000000E-01;  9.9999998E-03; -3.8000000E-01;204;  0.0000000E+00;  0.0000000E+00;  0.0000000E+00;  1.0000000E+03;  4.0000001E-01;  0.0000000E+00;0;  0.0000000E+00;  0.0000000E+00;  0.0000000E+00;0; -5.6833834E-08;  1.0000000E+04;  0.0000000E+00;  0.0000000E+00;  1.0000000E+04;  0.0000000E+00;  1.0000000E+04; -4.0459312E-08;  0.0000000E+00; -1.6374520E-08;  5.9658840E-05;
 -1.2000000E-01;  9.9999998E-03; -3.6000001E-01;205;  0.0000000E+00;  0.0000000E+00;  0.0000000E+00;  1.0000000E+03;  4.0000001E-01;  0.0000000E+00;0;  0.0000000E+00;  0.0000000E+00;  0.0000000E+00;0; -3.8485999E-07;  1.0000000E+04;  0.0000000E+00;  0.0000000E+00;  1.0000000E+04;  0.0000000E+00;  1.0000000E+04; -2.9212782E-07;  0.0000000E+00; -9.2732165E-08;  3.3604534E-04;
 -1.0000000E-01;  9.9999998E-03; -4.0000001E-01;244;  0.0000000E+00;  0.0000000E+00;  0.0000000E+00;  1.0000000E+03;  4.0000001E-01;  0.0000000E+00;0;  0.0000000E+00;  0.0000000E+00;  0.0000000E+00;0; -1.0685338E-07;  1.0000000E+04;  0.0000000E+00;  0.0000000E+00;  1.0000000E+04;  0.0000000E+00;  1.0000000E+04; -7.1436666E-08;  0.0000000E+00; -3.5416715E-08;  1.3041667E-04;
 -1.0000000E-01;  9.9999998E-03; -3.8000000E-01;245;  0.0000000E+00;  0.0000000E+00;  0.0000000E+00;  1.0000000E+03;  4.0000001E-01;  0.0000000E+00;0;  0.0000000E+00;  0.0000000E+00;  0.0000000E+00;0; -7.7429252E-07;  1.0000000E+04;  0.0000000E+00;  0.0000000E+00;  1.0000000E+04;  0.0000000E+00;  1.0000000E+04; -5.2312561E-07;  0.0000000E+00; -2.5116694E-07;  9.2370290E-04;
 -1.0000000E-01;  9.9999998E-03; -3.6000001E-01;246;  0.0000000E+00;  0.0000000E+00;  0.0000000E+00;  1.0000000E+03;  4.0000001E-01;  0.0000000E+00;0;  0.0000000E+00;  0.0000000E+00;  0.0000000E+00;0; -2.4403532E-06;  1.0000000E+04;  0.0000000E+00;  0.0000000E+00;  1.0000000E+04;  0.0000000E+00;  1.0000000E+04; -1.7809501E-06;  0.0000000E+00; -6.5940316E-07;  2.4157879E-03;
 -7.9999998E-02;  9.9999998E-03; -4.0000001E-01;285;  0.0000000E+00;  0.0000000E+00;  0.0000000E+00;  1.0000000E+03;  4.0000001E-01;  0.0000000E+00;0;  0.0000000E+00;  0.0000000E+00;  0.0000000E+00;0; -9.1408691E-07;  1.0000000E+04;  0.0000000E+00;  0.0000000E+00;  1.0000000E+04;  0.0000000E+00;  1.0000000E+04; -5.7719512E-07;  0.0000000E+00; -3.3689179E-07;  1.2512627E-03;
 -7.9999998E-02;  9.9999998E-03; -3.8000000E-01;286;  0.0000000E+00;  0.0000000E+00;  0.0000000E+00;  1.0000000E+03;  4.0000001E-01;  0.0000000E+00;0;  0.0000000E+00;  0.0000000E+00;  0.0000000E+00;0; -3.4758975E-06;  1.0000000E+04;  0.0000000E+00;  0.0000000E+00;  1.0000000E+04;  0.0000000E+00;  1.0000000E+04; -2.2404470E-06;  0.0000000E+00; -1.2354506E-06;  4.5925537E-03;
 -7.9999998E-02;  9.9999998E-03; -3.6000001E-01;287;  0.0000000E+00;  0.0000000E+00;  0.0000000E+00;  1.0000000E+03;  4.0000001E-01;  0.0000000E+00;0;  0.0000000E+00;  0.0000000E+00;  0.0000000E+00;0; -8.3699224E-06;  1.0000000E+04;  0.0000000E+00;  0.0000000E+00;  1.0000000E+04;  0.0000000E+00;  1.0000000E+04; -5.8898358E-06;  0.0000000E+00; -2.4800868E-06;  9.1868723E-03;
 -5.9999999E-02;  9.9999998E-03; -4.0000001E-01;326;  0.0000000E+00;  0.0000000E+00;  0.0000000E+00;  1.0000000E+03;  4.0000001E-01;  0.0000000E+00;0;  0.0000000E+00;  0.0000000E+00;  0.0000000E+00;0; -3.3339629E-06;  1.0000000E+04;  0.0000000E+00;  0.0000000E+00;  1.0000000E+04;  0.0000000E+00;  1.0000000E+04; -1.9921392E-06;  0.0000000E+00; -1.3418236E-06;  5.0403140E-03;
 -5.9999999E-02;  9.9999998E-03; -3.8000000E-01;327;  0.0000000E+00;  0.0000000E+00;  0.0000000E+00;  1.0000000E+03;  4.0000001E-01;  0.0000000E+00;0;  0.0000000E+00;  0.0000000E+00;  0.0000000E+00;0; -9.7945849E-06;  1.0000000E+04;  0.0000000E+00;  0.0000000E+00;  1.0000000E+04;  0.0000000E+00;  1.0000000E+04; -6.0177576E-06;  0.0000000E+00; -3.7768273E-06;  1.4214233E-02;
 -5.9999999E-02;  9.9999998E-03; -3.6000001E-01;328;  0.0000000E+00;  0.0000000E+00;  0.0000000E+00;  1.0000000E+03;  4.0000001E-01;  0.0000000E+00;0;  0.0000000E+00;  0.0000000E+00;  0.0000000E+00;0; -2.0655909E-05;  1.0000000E+04;  0.0000000E+00;  0.0000000E+00;  1.0000000E+04;  0.0000000E+00;  1.0000000E+04; -1.3997064E-05;  0.0000000E+00; -6.6588441E-06;  2.4995675E-02;
 -3.9999999E-02;  9.9999998E-03; -4.0000001E-01;367;  0.0000000E+00;  0.0000000E+00;  0.0000000E+00;  1.0000000E+03;  4.0000001E-01;  0.0000000E+00;0;  0.0000000E+00;  0.0000000E+00;  0.0000000E+00;0; -8.1436920E-06;  1.0000000E+04;  0.0000000E+00;  0.0000000E+00;  1.0000000E+04;  0.0000000E+00;  1.0000000E+04; -4.5800530E-06;  0.0000000E+00; -3.5636394E-06;  1.3571623E-02;
 -3.9999999E-02;  9.9999998E-03; -3.8000000E-01;368;  0.0000000E+00;  0.0000000E+00;  0.0000000E+00;  1.0000000E+03;  4.0000001E-01;  0.0000000E+00;0;  0.0000000E+00;  0.0000000E+00;  0.0000000E+00;0; -2.1023430E-05;  1.0000000E+04;  0.0000000E+00;  0.0000000E+00;  1.0000000E+04;  0.0000000E+00;  1.0000000E+04; -1.2250767E-05;  0.0000000E+00; -8.7726630E-06;  3.3502690E-02;
 -3.9999999E-02;  9.9999998E-03; -3.6000001E-01;369;  0.0000000E+00;  0.0000000E+00;  0.0000000E+00;  1.0000000E+03;  4.0000001E-01;  0.0000000E+00;0;  0.0000000E+00;  0.0000000E+00;  0.0000000E+00;0; -4.1147716E-05;  1.0000000E+04;  0.0000000E+00;  0.0000000E+00;  1.0000000E+04;  0.0000000E+00;  1.0000000E+04; -2.6732268E-05;  0.0000000E+00; -1.4415449E-05;  5.4954708E-02;
 -2.0000000E-02;  9.9999998E-03; -4.0000001E-01;408;  0.0000000E+00;  0.0000000E+00;  0.0000000E+00;  1.0000000E+03;  4.0000001E-01;  0.0000000E+00;0;  0.0000000E+00;  0.0000000E+00;  0.0000000E+00;0; -1.5644468E-05;  1.0000000E+04;  0.0000000E+00;  0.0000000E+00;  1.0000000E+04;  0.0000000E+00;  1.0000000E+04; -8.2259266E-06;  0.0000000E+00; -7.4185414E-06;  2.8728342E-02;
 -2.0000000E-02;  9.9999998E-03; -3.8000000E-01;409;  0.0000000E+00;  0.0000000E+00;  0.0000000E+00;  1.0000000E+03;  4.0000001E-01;  0.0000000E+00;0;  0.0000000E+00;  0.0000000E+00;  0.0000000E+00;0; -3.7670849E-05;  1.0000000E+04;  0.0000000E+00;  0.0000000E+00;  1.0000000E+04;  0.0000000E+00;  1.0000000E+04; -2.0715348E-05;  0.0000000E+00; -1.6955502E-05;  6.5892875E-02;
 -2.0000000E-02;  9.9999998E-03; -3.6000001E-01;410;  0.0000000E+00;  0.0000000E+00;  0.0000000E+00;  1.0000000E+03;  4.0000001E-01;  0.0000000E+00;0;  0.0000000E+00;  0.0000000E+00;  0.0000000E+00;0; -7.0527880E-05;  1.0000000E+04;  0.0000000E+00;  0.0000000E+00;  1.0000000E+04;  0.0000000E+00;  1.0000000E+04; -4.3754109E-05;  0.0000000E+00; -2.6773771E-05;  1.0393838E-01;
  0.0000000E+00;  9.9999998E-03; -4.0000001E-01;449;  0.0000000E+00;  0.0000000E+00;  0.0000000E+00;  1.0000000E+03;  4.0000001E-01;  0.0000000E+00;0;  0.0000000E+00;  0.0000000E+00;  0.0000000E+00;0; -2.5659745E-05;  1.0000000E+04;  0.0000000E+00;  0.0000000E+00;  1.0000000E+04;  0.0000000E+00;  1.0000000E+04; -1.2568365E-05;  0.0000000E+00; -1.3091380E-05;  5.1734369E-02;
  0.0000000E+00;  9.9999998E-03; -3.8000000E-01;450;  0.0000000E+00;  0.0000000E+00;  0.0000000E+00;  1.0000000E+03;  4.0000001E-01;  0.0000000E+00;0;  0.0000000E+00;  0.0000000E+00;  0.0000000E+00;0; -5.9521721E-05;  1.0000000E+04;  0.0000000E+00;  0.0000000E+00;  1.0000000E+04;  0.0000000E+00;  1.0000000E+04; -3.0838892E-05;  0.0000000E+00; -2.8682827E-05;  1.1382587E-01;
  0.0000000E+00;  9.9999998E-03; -3.6000001E-01;451;  0.0000000E+00;  0.0000000E+00;  0.0000000E+00;  1.0000000E+03;  4.0000001E-01;  0.0000000E+00;0;  0.0000000E+00;  0.0000000E+00;  0.0000000E+00;0; -1.0844921E-04;  1.0000000E+04;  0.0000000E+00;  0.0000000E+00;  1.0000000E+04;  0.0000000E+00;  1.0000000E+04; -6.4186177E-05;  0.0000000E+00; -4.4263037E-05;  1.7557818E-01;
  2.0000000E-02;  9.9999998E-03; -4.0000001E-01;461;  0.0000000E+00;  0.0000000E+00;  0.0000000E+00;  1.0000000E+03;  4.0000001E-01;  0.0000000E+00;0;  0.0000000E+00;  0.0000000E+00;  0.0000000E+00;0; -3.7901940E-05;  1.0000000E+04;  0.0000000E+00;  0.0000000E+00;  1.0000000E+04;  0.0000000E+00;  1.0000000E+04; -1.7358074E-05;  0.0000000E+00; -2.0543865E-05;  8.3193570E-02;
  2.0000000E-02;  9.9999998E-03; -3.8000000E-01;462;  0.0000000E+00;  0.0000000E+00;  0.0000000E+00;  1.0000000E+03;  4.0000001E-01;  0.0000000E+00;0;  0.0000000E+00;  0.0000000E+00;  0.0000000E+00;0; -8.6289438E-05;  1.0000000E+04;  0.0000000E+00;  0.0000000E+00;  1.0000000E+04;  0.0000000E+00;  1.0000000E+04; -4.2340511E-05;  0.0000000E+00; -4.3948927E-05;  1.7882913E-01;
  2.0000000E-02;  9.9999998E-03; -3.6000001E-01;463;  0.0000000E+00;  0.0000000E+00;  0.0000000E+00;  1.0000001E+03;  4.0000001E-01;  9.8762624E-02;0;  0.0000000E+00;  0.0000000E+00;  0.0000000E+00;0; -1.5461084E-04;  1.0000000E+04;  0.0000000E+00;  0.0000000E+00;  1.0000000E+04;  0.0000000E+00;  1.0000000E+04; -8.7728004E-05;  0.0000000E+00; -6.6882829E-05;  2.7218693E-01;
  3.9999999E-02;  9.9999998E-03; -4.0000001E-01;471;  0.0000000E+00;  0.0000000E+00;  0.0000000E+00;  1.0000000E+03;  4.0000001E-01;  0.0000000E+00;0;  0.0000000E+00;  0.0000000E+00;  0.0000000E+00;0; -5.2515421E-05;  1.0000000E+04;  0.0000000E+00;  0.0000000E+00;  1.0000000E+04;  0.0000000E+00;  1.0000000E+04; -2.2811419E-05;  0.0000000E+00; -2.9704002E-05;  1.2381473E-01;
  3.9999999E-02;  9.9999998E-03; -3.8000000E-01;472;  0.0000000E+00;  0.0000000E+00;  0.0000000E+00;  1.0000001E+03;  4.0000001E-01;  9.8762624E-02;0;  0.0000000E+00;  0.0000000E+00;  0.0000000E+00;0; -1.1859932E-04;  1.0000000E+04;  0.0000000E+00;  0.0000000E+00;  1.0000000E+04;  0.0000000E+00;  1.0000000E+04; -5.5875436E-05;  0.0000000E+00; -6.2723877E-05;  2.6283443E-01;
  3.9999999E-02;  9.9999998E-03; -3.6000001E-01;473;  0.0000000E+00;  0.0000000E+00;  0.0000000E+00;  1.0000001E+03;  4.0000001E-01;  9.8762624E-02;0;  0.0000000E+00;  0.0000000E+00;  0.0000000E+00;0; -2.1043571E-04;  1.0000000E+04;  0.0000000E+00;  0.0000000E+00;  1.0000000E+04;  0.0000000E+00;  1.0000000E+04; -1.1584708E-04;  0.0000000E+00; -9.4588620E-05;  3.9663857E-01;
  5.9999999E-02;  9.9999998E-03; -4.0000001E-01;481;  0.0000000E+00;  0.0000000E+00;  0.0000000E+00;  1.0000000E+03;  4.0000001E-01;  0.0000000E+00;0;  0.0000000E+00;  0.0000000E+00;  0.0000000E+00;0; -7.0552844E-05;  1.0000000E+04;  0.0000000E+00;  0.0000000E+00;  1.0000000E+04;  0.0000000E+00;  1.0000000E+04; -2.9811457E-05;  0.0000000E+00; -4.0741386E-05;  1.7550839E-01;
  5.9999999E-02;  9.9999998E-03; -3.8000000E-01;482;  0.0000000E+00;  0.0000000E+00;  0.0000000E+00;  1.0000001E+03;  4.0000001E-01;  9.8762624E-02;0;  0.0000000E+00;  0.0000000E+00;  0.0000000E+00;0; -1.5886308E-04;  1.0000000E+04;  0.0000000E+00;  0.0000000E+00;  1.0000000E+04;  0.0000000E+00;  1.0000000E+04; -7.3402109E-05;  0.0000000E+00; -8.5460983E-05;  3.7024462E-01;
  5.9999999E-02;  9.9999998E-03; -3.6000001E-01;483;  0.0000000E+00;  0.0000000E+00;  0.0000000E+00;  1.0000001E+03;  4.0000001E-01;  9.8762624E-02;0;  0.0000000E+00;  0.0000000E+00;  0.0000000E+00;0; -2.8040266E-04;  1.0000000E+04;  0.0000000E+00;  0.0000000E+00;  1.0000000E+04;  0.0000000E+00;  1.0000000E+04; -1.5230713E-04;  0.0000000E+00; -1.2809555E-04;  5.5562967E-01;
  7.9999998E-02;  9.9999998E-03; -4.0000001E-01;491;  0.0000000E+00;  0.0000000E+00;  0.0000000E+00;  1.0000000E+03;  4.0000001E-01;  0.0000000E+00;0;  0.0000000E+00;  0.0000000E+00;  0.0000000E+00;0; -9.4403164E-05;  1.0000000E+04;  0.0000000E+00;  0.0000000E+00;  1.0000000E+04;  0.0000000E+00;  1.0000000E+04; -4.0118772E-05;  0.0000000E+00; -5.4284395E-05;  2.4247898E-01;
  7.9999998E-02;  9.9999998E-03; -3.8000000E-01;492;  0.0000000E+00;  0.0000000E+00;  0.0000000E+00;  1.0000001E+03;  4.0000001E-01;  9.8762624E-02;0;  0.0000000E+00;  0.0000000E+00;  0.0000000E+00;0; -2.1237270E-04;  1.0000000E+04;  0.0000000E+00;  0.0000000E+00;  1.0000000E+04;  0.0000000E+00;  1.0000000E+04; -9.8864570E-05;  0.0000000E+00; -1.1350813E-04;  5.0987250E-01;
  7.9999998E-02;  9.9999998E-03; -3.6000001E-01;493;  0.0000000E+00;  0.0000000E+00;  0.0000000E+00;  1.0000002E+03;  4.0000001E-01;  1.9752525E-01;0;  0.0000000E+00;  0.0000000E+00;  0.0000000E+00;0; -3.7411065E-04;  1.0000000E+04;  0.0000000E+00;  0.0000000E+00;  1.0000000E+04;  0.0000000E+00;  1.0000000E+04; -2.0457641E-04;  0.0000000E+00; -1.6953424E-04;  7.6349562E-01;
  1.0000000E-01;  9.9999998E-03; -4.0000001E-01;501;  0.0000000E+00;  0.0000000E+00;  0.0000000E+00;  1.0000001E+03;  4.0000001E-01;  9.8762624E-02;0;  0.0000000E+00;  0.0000000E+00;  0.0000000E+00;0; -1.2866569E-04;  1.0000000E+04;  0.0000000E+00;  0.0000000E+00;  1.0000000E+04;  0.0000000E+00;  1.0000000E+04; -5.6966379E-05;  0.0000000E+00; -7.1699316E-05;  3.4018338E-01;
  1.0000000E-01;  9.9999998E-03; -3.8000000E-01;502;  0.0000000E+00;  0.0000000E+00;  0.0000000E+00;  1.0000001E+03;  4.0000001E-01;  9.8762624E-02;0;  0.0000000E+00;  0.0000000E+00;  0.0000000E+00;0; -2.8930054E-04;  1.0000000E+04;  0.0000000E+00;  0.0000000E+00;  1.0000000E+04;  0.0000000E+00;  1.0000000E+04; -1.3954139E-04;  0.0000000E+00; -1.4975916E-04;  6.9848949E-01;
  1.0000000E-01;  9.9999998E-03; -3.6000001E-01;503;  0.0000000E+00;  0.0000000E+00;  0.0000000E+00;  1.0000002E+03;  4.0000001E-01;  1.9752525E-01;0;  0.0000000E+00;  0.0000000E+00;  0.0000000E+00;0; -5.0970144E-04;  1.0000000E+04;  0.0000000E+00;  0.0000000E+00;  1.0000000E+04;  0.0000000E+00;  1.0000000E+04; -2.8630384E-04;  0.0000000E+00; -2.2339758E-04;  1.0517890E+00;
  1.2000000E-01;  9.9999998E-03; -4.0000001E-01;511;  0.0000000E+00;  0.0000000E+00;  0.0000000E+00;  1.0000001E+03;  4.0000001E-01;  9.8762624E-02;0;  0.0000000E+00;  0.0000000E+00;  0.0000000E+00;0; -1.8213045E-04;  1.0000000E+04;  0.0000000E+00;  0.0000000E+00;  1.0000000E+04;  0.0000000E+00;  1.0000000E+04; -8.6099077E-05;  0.0000000E+00; -9.6031370E-05;  6.0001892E-01;
  1.2000000E-01;  9.9999998E-03; -3.8000000E-01;512;  0.0000000E+00;  0.0000000E+00;  0.0000000E+00;  1.0000002E+03;  4.0000001E-01;  1.9752525E-01;0;  0.0000000E+00;  0.0000000E+00;  0.0000000E+00;0; -4.0849281E-04;  1.0000000E+04;  0.0000000E+00;  0.0000000E+00;  1.0000000E+04;  0.0000000E+00;  1.0000000E+04; -2.0808309E-04;  0.0000000E+00; -2.0040973E-04;  1.0017308E+00;
  1.2000000E-01;  9.9999998E-03; -3.6000001E-01;513;  0.0000000E+00;  0.0000000E+00;  0.0000000E+00;  1.0000004E+03;  4.0000001E-01;  3.9505050E-01;0;  0.0000000E+00;  0.0000000E+00;  0.0000000E+00;0; -7.1944785E-04;  1.0000000E+04;  0.0000000E+00;  0.0000000E+00;  1.0000000E+04;  0.0000000E+00;  1.0000000E+04; -4.2066429E-04;  0.0000000E+00; -2.9878359E-04;  1.4913265E+00;
  1.4000000E-01;  9.9999998E-03; -4.0000001E-01;521;  0.0000000E+00;  0.0000000E+00;  0.0000000E+00;  1.0000001E+03;  4.0000001E-01;  9.8762624E-02;0;  0.0000000E+00;  0.0000000E+00;  0.0000000E+00;0; -2.7269131E-04;  1.0000000E+04;  0.0000000E+00;  0.0000000E+00;  1.0000000E+04;  0.0000000E+00;  1.0000000E+04; -1.3789615E-04;  0.0000000E+00; -1.3479516E-04;  1.6255107E+00;
  1.4000000E-01;  9.9999998E-03; -3.8000000E-01;522;  0.0000000E+00;  0.0000000E+00;  0.0000000E+00;  1.0000004E+03;  4.0000001E-01;  3.9505050E-01;0;  0.0000000E+00;  0.0000000E+00;  0.0000000E+00;0; -6.0431450E-04;  1.0000000E+04;  0.0000000E+00;  0.0000000E+00;  1.0000000E+04;  0.0000000E+00;  1.0000000E+04; -3.2571808E-04;  0.0000000E+00; -2.7859645E-04;  1.8206029E+00;
  1.4000000E-01;  9.9999998E-03; -3.6000001E-01;523;  0.0000000E+00;  0.0000000E+00;  0.0000000E+00;  1.0000007E+03;  4.0000001E-01;  5.9257573E-01;0;  0.0000000E+00;  0.0000000E+00;  0.0000000E+00;0; -1.0577582E-03;  1.0000000E+04;  0.0000000E+00;  0.0000000E+00;  1.0000000E+04;  0.0000000E+00;  1.0000000E+04; -6.4450194E-04;  0.0000000E+00; -4.1325635E-04;  2.2158203E+00;
  1.6000000E-01;  9.9999998E-03; -4.0000001E-01;531;  0.0000000E+00;  0.0000000E+00;  0.0000000E+00;  1.0000002E+03;  4.0000001E-01;  1.9752525E-01;0;  0.0000000E+00;  0.0000000E+00;  0.0000000E+00;0; -4.3567910E-04;  1.0000000E+04;  0.0000000E+00;  0.0000000E+00;  1.0000000E+04;  0.0000000E+00;  1.0000000E+04; -2.2921900E-04;  0.0000000E+00; -2.0646008E-04;  4.8882818E+00;
  1.6000000E-01;  9.9999998E-03; -3.8000000E-01;532;  0.0000000E+00;  0.0000000E+00;  0.0000000E+00;  1.0000007E+03;  4.0000001E-01;  5.9257573E-01;0;  0.0000000E+00;  0.0000000E+00;  0.0000000E+00;0; -9.3134807E-04;  1.0000000E+04;  0.0000000E+00;  0.0000000E+00;  1.0000000E+04;  0.0000000E+00;  1.0000000E+04; -5.2066485E-04;  0.0000000E+00; -4.1068325E-04;  4.5034356E+00;
  1.6000000E-01;  9.9999998E-03; -3.6000001E-01;533;  0.0000000E+00;  0.0000000E+00;  0.0000000E+00;  1.0000011E+03;  4.0000001E-01;  8.8886362E-01;0;  0.0000000E+00;  0.0000000E+00;  0.0000000E+00;0; -1.6003731E-03;  1.0000000E+04;  0.0000000E+00;  0.0000000E+00;  1.0000000E+04;  0.0000000E+00;  1.0000000E+04; -1.0019682E-03;  0.0000000E+00; -5.9840496E-04;  3.3797493E+00;
  1.8000001E-01;  9.9999998E-03; -4.0000001E-01;541;  0.0000000E+00;  0.0000000E+00;  0.0000000E+00;  1.0000004E+03;  4.0000001E-01;  3.9505050E-01;0;  0.0000000E+00;  0.0000000E+00;  0.0000000E+00;0; -7.3226303E-04;  1.0000000E+04;  0.0000000E+00;  0.0000000E+00;  1.0000000E+04;  0.0000000E+00;  1.0000000E+04; -3.7767249E-04;  0.0000000E+00; -3.5459053E-04;  1.3186071E+01;
  1.8000001E-01;  9.9999998E-03; -3.8000000E-01;542;  0.0000000E+00;  0.0000000E+00;  0.0000000E+00;  1.0000010E+03;  4.0000001E-01;  7.9010099E-01;0;  0.0000000E+00;  0.0000000E+00;  0.0000000E+00;0; -1.4539398E-03;  1.0000000E+04;  0.0000000E+00;  0.0000000E+00;  1.0000000E+04;  0.0000000E+00;  1.0000000E+04; -8.0704648E-04;  0.0000000E+00; -6.4689340E-04;  1.1283209E+01;
  1.8000001E-01;  9.9999998E-03; -3.6000001E-01;543;  0.0000000E+00;  0.0000000E+00;  0.0000000E+00;  1.0000016E+03;  4.0000001E-01;  1.3826767E+00;0;  0.0000000E+00;  0.0000000E+00;  0.0000000E+00;0; -2.4136752E-03;  1.0000000E+04;  0.0000000E+00;  0.0000000E+00;  1.0000000E+04;  0.0000000E+00;  1.0000000E+04; -1.5063725E-03;  0.0000000E+00; -9.0730283E-04;  5.0377059E+00;
  2.0000000E-01;  9.9999998E-03; -3.8000000E-01;551;  0.0000000E+00;  0.0000000E+00;  0.0000000E+00;  1.0000016E+03;  4.0000001E-01;  1.2839141E+00;0;  0.0000000E+00;  0.0000000E+00;  0.0000000E+00;0; -2.2365125E-03;  1.0000000E+04;  0.0000000E+00;  0.0000000E+00;  1.0000000E+04;  0.0000000E+00;  1.0000000E+04; -1.1639323E-03;  0.0000000E+00; -1.0725803E-03;  2.3895870E+01;
  2.0000000E-01;  9.9999998E-03; -3.6000001E-01;552;  0.0000000E+00;  0.0000000E+00;  0.0000000E+00;  1.0000024E+03;  4.0000001E-01;  1.9752525E+00;0;  0.0000000E+00;  0.0000000E+00;  0.0000000E+00;0; -3.5330902E-03;  1.0000000E+04;  0.0000000E+00;  0.0000000E+00;  1.0000000E+04;  0.0000000E+00;  1.0000000E+04; -2.1119623E-03;  0.0000000E+00; -1.4211279E-03;  7.6814518E+00;
 -2.2000000E-01;  9.9999998E-03; -3.4000000E-01;2;  0.0000000E+00;  0.0000000E+00;  0.0000000E+00;  1.0000000E+03;  4.0000001E-01;  0.0000000E+00;0;  0.0000000E+00;  0.0000000E+00;  0.0000000E+00;0;  0.0000000E+00;  1.0000000E+04;  0.0000000E+00;  0.0000000E+00;  1.0000000E+04;  0.0000000E+00;  1.0000000E+04;  0.0000000E+00;  0.0000000E+00;  0.0000000E+00;  0.0000000E+00;
 -2.2000000E-01;  9.9999998E-03; -3.1999999E-01;3;  0.0000000E+00;  0.0000000E+00;  0.0000000E+00;  1.0000000E+03;  4.0000001E-01;  0.0000000E+00;0;  0.0000000E+00;  0.0000000E+00;  0.0000000E+00;0;  0.0000000E+00;  1.0000000E+04;  0.0000000E+00;  0.0000000E+00;  1.0000000E+04;  0.0000000E+00;  1.0000000E+04;  0.0000000E+00;  0.0000000E+00;  0.0000000E+00;  0.0000000E+00;
 -2.2000000E-01;  9.9999998E-03; -3.0000001E-01;4;  0.0000000E+00;  0.0000000E+00;  0.0000000E+00;  1.0000000E+03;  4.0000001E-01;  0.0000000E+00;0;  0.0000000E+00;  0.0000000E+00;  0.0000000E+00;0;  0.0000000E+00;  1.0000000E+04;  0.0000000E+00;  0.0000000E+00;  1.0000000E+04;  0.0000000E+00;  1.0000000E+04;  0.0000000E+00;  0.0000000E+00;  0.0000000E+00;  0.0000000E+00;
 -2.2000000E-01;  9.9999998E-03; -2.8000000E-01;5;  0.0000000E+00;  0.0000000E+00;  0.0000000E+00;  1.0000000E+03;  4.0000001E-01;  0.0000000E+00;0;  0.0000000E+00;  0.0000000E+00;  0.0000000E+00;0;  0.0000000E+00;  1.0000000E+04;  0.0000000E+00;  0.0000000E+00;  1.0000000E+04;  0.0000000E+00;  1.0000000E+04;  0.0000000E+00;  0.0000000E+00;  0.0000000E+00;  0.0000000E+00;
 -2.2000000E-01;  9.9999998E-03; -2.5999999E-01;6;  0.0000000E+00;  0.0000000E+00;  0.0000000E+00;  1.0000000E+03;  4.0000001E-01;  0.0000000E+00;0;  0.0000000E+00;  0.0000000E+00;  0.0000000E+00;0;  0.0000000E+00;  1.0000000E+04;  0.0000000E+00;  0.0000000E+00;  1.0000000E+04;  0.0000000E+00;  1.0000000E+04;  0.0000000E+00;  0.0000000E+00;  0.0000000E+00;  0.0000000E+00;
 -2.2000000E-01;  9.9999998E-03; -2.3999999E-01;7;  0.0000000E+00;  0.0000000E+00;  0.0000000E+00;  1.0000000E+03;  4.0000001E-01;  0.0000000E+00;0;  0.0000000E+00;  0.0000000E+00;  0.0000000E+00;0;  0.0000000E+00;  1.0000000E+04;  0.0000000E+00;  0.0000000E+00;  1.0000000E+04;  0.0000000E+00;  1.0000000E+04;  0.0000000E+00;  0.0000000E+00;  0.0000000E+00;  0.0000000E+00;
 -2.2000000E-01;  9.9999998E-03; -2.2000000E-01;8;  0.0000000E+00;  0.0000000E+00;  0.0000000E+00;  1.0000000E+03;  4.0000001E-01;  0.0000000E+00;0;  0.0000000E+00;  0.0000000E+00;  0.0000000E+00;0;  0.0000000E+00;  1.0000000E+04;  0.0000000E+00;  0.0000000E+00;  1.0000000E+04;  0.0000000E+00;  1.0000000E+04;  0.0000000E+00;  0.0000000E+00;  0.0000000E+00;  0.0000000E+00;
 -2.2000000E-01;  9.9999998E-03; -2.0000000E-01;9;  0.0000000E+00;  0.0000000E+00;  0.0000000E+00;  1.0000000E+03;  4.0000001E-01;  0.0000000E+00;0;  0.0000000E+00;  0.0000000E+00;  0.0000000E+00;0;  0.0000000E+00;  1.0000000E+04;  0.0000000E+00;  0.0000000E+00;  1.0000000E+04;  0.0000000E+00;  1.0000000E+04;  0.0000000E+00;  0.0000000E+00;  0.0000000E+00;  0.0000000E+00;
 -2.0000000E-01;  9.9999998E-03; -3.4000000E-01;42;  0.0000000E+00;  0.0000000E+00;  0.0000000E+00;  1.0000000E+03;  4.0000001E-01;  0.0000000E+00;0;  0.0000000E+00;  0.0000000E+00;  0.0000000E+00;0;  0.0000000E+00;  1.0000000E+04;  0.0000000E+00;  0.0000000E+00;  1.0000000E+04;  0.0000000E+00;  1.0000000E+04;  0.0000000E+00;  0.0000000E+00;  0.0000000E+00;  0.0000000E+00;
 -2.0000000E-01;  9.9999998E-03; -3.1999999E-01;43;  0.0000000E+00;  0.0000000E+00;  0.0000000E+00;  1.0000000E+03;  4.0000001E-01;  0.0000000E+00;0;  0.0000000E+00;  0.0000000E+00;  0.0000000E+00;0;  0.0000000E+00;  1.0000000E+04;  0.0000000E+00;  0.0000000E+00;  1.0000000E+04;  0.0000000E+00;  1.0000000E+04;  0.0000000E+00;  0.0000000E+00;  0.0000000E+00;  0.0000000E+00;
 -2.0000000E-01;  9.9999998E-03; -3.0000001E-01;44;  0.0000000E+00;  0.0000000E+00;  0.0000000E+00;  1.0000000E+03;  4.0000001E-01;  0.0000000E+00;0;  0.0000000E+00;  0.0000000E+00;  0.0000000E+00;0;  0.0000000E+00;  1.0000000E+04;  0.0000000E+00;  0.0000000E+00;  1.0000000E+04;  0.0000000E+00;  1.0000000E+04;  0.0000000E+00;  0.0000000E+00;  0.0000000E+00;  0.0000000E+00;
 -2.0000000E-01;  9.9999998E-03; -2.8000000E-01;45;  0.0000000E+00;  0.0000000E+00;  0.0000000E+00;  1.0000000E+03;  4.0000001E-01;  0.0000000E+00;0;  0.0000000E+00;  0.0000000E+00;  0.0000000E+00;0;  0.0000000E+00;  1.0000000E+04;  0.0000000E+00;  0.0000000E+00;  1.0000000E+04;  0.0000000E+00;  1.0000000E+04;  0.0000000E+00;  0.0000000E+00;  0.0000000E+00;  0.0000000E+00;
 -2.0000000E-01;  9.9999998E-03; -2.5999999E-01;46;  0.0000000E+00;  0.0000000E+00;  0.0000000E+00;  1.0000000E+03;  4.0000001E-01;  0.0000000E+00;0;  0.0000000E+00;  0.0000000E+00;  0.0000000E+00;0;  0.0000000E+00;  1.0000000E+04;  0.0000000E+00;  0.0000000E+00;  1.0000000E+04;  0.0000000E+00;  1.0000000E+04;  0.0000000E+00;  0.0000000E+00;  0.0000000E+00;  0.0000000E+00;
 -2.0000000E-01;  9.9999998E-03; -2.3999999E-01;47;  0.0000000E+00;  0.0000000E+00;  0.0000000E+00;  1.0000000E+03;  4.0000001E-01;  0.0000000E+00;0;  0.0000000E+00;  0.0000000E+00;  0.0000000E+00;0;  0.0000000E+00;  1.0000000E+04;  0.0000000E+00;  0.0000000E+00;  1.0000000E+04;  0.0000000E+00;  1.0000000E+04;  0.0000000E+00;  0.0000000E+00;  0.0000000E+00;  0.0000000E+00;
 -2.0000000E-01;  9.9999998E-03; -2.2000000E-01;48;  0.0000000E+00;  0.0000000E+00;  0.0000000E+00;  1.0000000E+03;  4.0000001E-01;  0.0000000E+00;0;  0.0000000E+00;  0.0000000E+00;  0.0000000E+00;0;  0.0000000E+00;  1.0000000E+04;  0.0000000E+00;  0.0000000E+00;  1.0000000E+04;  0.0000000E+00;  1.0000000E+04;  0.0000000E+00;  0.0000000E+00;  0.0000000E+00;  0.0000000E+00;
 -2.0000000E-01;  9.9999998E-03; -2.0000000E-01;49;  0.0000000E+00;  0.0000000E+00;  0.0000000E+00;  1.0000000E+03;  4.0000001E-01;  0.0000000E+00;0;  0.0000000E+00;  0.0000000E+00;  0.0000000E+00;0;  0.0000000E+00;  1.0000000E+04;  0.0000000E+00;  0.0000000E+00;  1.0000000E+04;  0.0000000E+00;  1.0000000E+04;  0.0000000E+00;  0.0000000E+00;  0.0000000E+00;  0.0000000E+00;
 -1.8000001E-01;  9.9999998E-03; -3.4000000E-01;83;  0.0000000E+00;  0.0000000E+00;  0.0000000E+00;  1.0000000E+03;  4.0000001E-01;  0.0000000E+00;0;  0.0000000E+00;  0.0000000E+00;  0.0000000E+00;0;  0.0000000E+00;  1.0000000E+04;  0.0000000E+00;  0.0000000E+00;  1.0000000E+04;  0.0000000E+00;  1.0000000E+04;  0.0000000E+00;  0.0000000E+00;  0.0000000E+00;  0.0000000E+00;
 -1.8000001E-01;  9.9999998E-03; -3.1999999E-01;84;  0.0000000E+00;  0.0000000E+00;  0.0000000E+00;  1.0000000E+03;  4.0000001E-01;  0.0000000E+00;0;  0.0000000E+00;  0.0000000E+00;  0.0000000E+00;0;  0.0000000E+00;  1.0000000E+04;  0.0000000E+00;  0.0000000E+00;  1.0000000E+04;  0.0000000E+00;  1.0000000E+04;  0.0000000E+00;  0.0000000E+00;  0.0000000E+00;  0.0000000E+00;
 -1.8000001E-01;  9.9999998E-03; -3.0000001E-01;85;  0.0000000E+00;  0.0000000E+00;  0.0000000E+00;  1.0000000E+03;  4.0000001E-01;  0.0000000E+00;0;  0.0000000E+00;  0.0000000E+00;  0.0000000E+00;0;  0.0000000E+00;  1.0000000E+04;  0.0000000E+00;  0.0000000E+00;  1.0000000E+04;  0.0000000E+00;  1.0000000E+04;  0.0000000E+00;  0.0000000E+00;  0.0000000E+00;  0.0000000E+00;
 -1.8000001E-01;  9.9999998E-03; -2.8000000E-01;86;  0.0000000E+00;  0.0000000E+00;  0.0000000E+00;  1.0000000E+03;  4.0000001E-01;  0.0000000E+00;0;  0.0000000E+00;  0.0000000E+00;  0.0000000E+00;0;  0.0000000E+00;  1.0000000E+04;  0.0000000E+00;  0.0000000E+00;  1.0000000E+04;  0.0000000E+00;  1.0000000E+04;  0.0000000E+00;  0.0000000E+00;  0.0000000E+00;  0.0000000E+00;
 -1.8000001E-01;  9.9999998E-03; -2.5999999E-01;87;  0.0000000E+00;  0.0000000E+00;  0.0000000E+00;  1.0000000E+03;  4.0000001E-01;  0.0000000E+00;0;  0.0000000E+00;  0.0000000E+00;  0.0000000E+00;0;  0.0000000E+00;  1.0000000E+04;  0.0000000E+00;  0.0000000E+00;  1.0000000E+04;  0.0000000E+00;  1.0000000E+04;  0.0000000E+00;  0.0000000E+00;  0.0000000E+00;  0.0000000E+00;
 -1.8000001E-01;  9.9999998E-03; -2.3999999E-01;88;  0.0000000E+00;  0.0000000E+00;  0.0000000E+00;  1.0000000E+03;  4.0000001E-01;  0.0000000E+00;0;  0.0000000E+00;  0.0000000E+00;  0.0000000E+00;0;  0.0000000E+00;  1.0000000E+04;  0.0000000E+00;  0.0000000E+00;  1.0000000E+04;  0.0000000E+00;  1.0000000E+04;  0.0000000E+00;  0.0000000E+00;  0.0000000E+00;  0.0000000E+00;
 -1.8000001E-01;  9.9999998E-03; -2.2000000E-01;89;  0.0000000E+00;  0.0000000E+00;  0.0000000E+00;  1.0000000E+03;  4.0000001E-01;  0.0000000E+00;0;  0.0000000E+00;  0.0000000E+00;  0.0000000E+00;0;  0.0000000E+00;  1.0000000E+04;  0.0000000E+00;  0.0000000E+00;  1.0000000E+04;  0.0000000E+00;  1.0000000E+04;  0.0000000E+00;  0.0000000E+00;  0.0000000E+00;  0.0000000E+00;
 -1.8000001E-01;  9.9999998E-03; -2.0000000E-01;90;  0.0000000E+00;  0.0000000E+00;  0.0000000E+00;  1.0000000E+03;  4.0000001E-01;  0.0000000E+00;0;  0.0000000E+00;  0.0000000E+00;  0.0000000E+00;0;  0.0000000E+00;  1.0000000E+04;  0.0000000E+00;  0.0000000E+00;  1.0000000E+04;  0.0000000E+00;  1.0000000E+04;  0.0000000E+00;  0.0000000E+00;  0.0000000E+00;  0.0000000E+00;
 -1.6000000E-01;  9.9999998E-03; -3.4000000E-01;124;  0.0000000E+00;  0.0000000E+00;  0.0000000E+00;  1.0000000E+03;  4.0000001E-01;  0.0000000E+00;0;  0.0000000E+00;  0.0000000E+00;  0.0000000E+00;0;  0.0000000E+00;  1.0000000E+04;  0.0000000E+00;  0.0000000E+00;  1.0000000E+04;  0.0000000E+00;  1.0000000E+04;  0.0000000E+00;  0.0000000E+00;  0.0000000E+00;  0.0000000E+00;
 -1.6000000E-01;  9.9999998E-03; -3.1999999E-01;125;  0.0000000E+00;  0.0000000E+00;  0.0000000E+00;  1.0000000E+03;  4.0000001E-01;  0.0000000E+00;0;  0.0000000E+00;  0.0000000E+00;  0.0000000E+00;0; -1.9043060E-09;  1.0000000E+04;  0.0000000E+00;  0.0000000E+00;  1.0000000E+04;  0.0000000E+00;  1.0000000E+04; -1.7546709E-09;  0.0000000E+00; -1.4963517E-10;  5.0299627E-07;
 -1.6000000E-01;  9.9999998E-03; -3.0000001E-01;126;  0.0000000E+00;  0.0000000E+00;  0.0000000E+00;  1.0000000E+03;  4.0000001E-01;  0.0000000E+00;0;  0.0000000E+00;  0.0000000E+00;  0.0000000E+00;0; -1.2097374E-08;  1.0000000E+04;  0.0000000E+00;  0.0000000E+00;  1.0000000E+04;  0.0000000E+00;  1.0000000E+04; -1.1591583E-08;  0.0000000E+00; -5.0579069E-10;  1.5623627E-06;
 -1.6000000E-01;  9.9999998E-03; -2.8000000E-01;127;  0.0000000E+00;  0.0000000E+00;  0.0000000E+00;  1.0000000E+03;  4.0000001E-01;  0.0000000E+00;0;  0.0000000E+00;  0.0000000E+00;  0.0000000E+00;0; -2.8488804E-08;  1.0000000E+04;  0.0000000E+00;  0.0000000E+00;  1.0000000E+04;  0.0000000E+00;  1.0000000E+04; -2.8030044E-08;  0.0000000E+00; -4.5876011E-10;  8.7928021E-07;
 -1.6000000E-01;  9.9999998E-03; -2.5999999E-01;128;  0.0000000E+00;  0.0000000E+00;  0.0000000E+00;  1.0000000E+03;  4.0000001E-01;  0.0000000E+00;0;  0.0000000E+00;  0.0000000E+00;  0.0000000E+00;0; -4.2313832E-08;  1.0000000E+04;  0.0000000E+00;  0.0000000E+00;  1.0000000E+04;  0.0000000E+00;  1.0000000E+04; -4.2254907E-08;  0.0000000E+00; -5.8926856E-11;  1.1294316E-06;
 -1.6000000E-01;  9.9999998E-03; -2.3999999E-01;129;  0.0000000E+00;  0.0000000E+00;  0.0000000E+00;  1.0000000E+03;  4.0000001E-01;  0.0000000E+00;0;  0.0000000E+00;  0.0000000E+00;  0.0000000E+00;0; -4.9795055E-08;  1.0000000E+04;  0.0000000E+00;  0.0000000E+00;  1.0000000E+04;  0.0000000E+00;  1.0000000E+04; -4.9898020E-08;  0.0000000E+00;  1.0296607E-10;  1.9668109E-06;
 -1.6000000E-01;  9.9999998E-03; -2.2000000E-01;130;  0.0000000E+00;  0.0000000E+00;  0.0000000E+00;  1.0000000E+03;  4.0000001E-01;  0.0000000E+00;0;  0.0000000E+00;  0.0000000E+00;  0.0000000E+00;0; -5.4961863E-08;  1.0000000E+04;  0.0000000E+00;  0.0000000E+00;  1.0000000E+04;  0.0000000E+00;  1.0000000E+04; -5.5082683E-08;  0.0000000E+00;  1.2081967E-10;  2.2003358E-06;
 -1.6000000E-01;  9.9999998E-03; -2.0000000E-01;131;  0.0000000E+00;  0.0000000E+00;  0.0000000E+00;  1.0000000E+03;  4.0000001E-01;  0.0000000E+00;0;  0.0000000E+00;  0.0000000E+00;  0.0000000E+00;0; -5.9070668E-08;  1.0000000E+04;  0.0000000E+00;  0.0000000E+00;  1.0000000E+04;  0.0000000E+00;  1.0000000E+04; -5.9196395E-08;  0.0000000E+00;  1.2572596E-10;  2.3564710E-06;
 -1.4000000E-01;  9.9999998E-03; -3.4000000E-01;165;  0.0000000E+00;  0.0000000E+00;  0.0000000E+00;  1.0000000E+03;  4.0000001E-01;  0.0000000E+00;0;  0.0000000E+00;  0.0000000E+00;  0.0000000E+00;0; -9.1483898E-08;  1.0000000E+04;  0.0000000E+00;  0.0000000E+00;  1.0000000E+04;  0.0000000E+00;  1.0000000E+04; -7.7487982E-08;  0.0000000E+00; -1.3995914E-08;  4.9523296E-05;
 -1.4000000E-01;  9.9999998E-03; -3.1999999E-01;166;  0.0000000E+00;  0.0000000E+00;  0.0000000E+00;  1.0000000E+03;  4.0000001E-01;  0.0000000E+00;0;  0.0000000E+00;  0.0000000E+00;  0.0000000E+00;0; -2.9709133E-07;  1.0000000E+04;  0.0000000E+00;  0.0000000E+00;  1.0000000E+04;  0.0000000E+00;  1.0000000E+04; -2.6675644E-07;  0.0000000E+00; -3.0334874E-08;  1.0520712E-04;
 -1.4000000E-01;  9.9999998E-03; -3.0000001E-01;167;  0.0000000E+00;  0.0000000E+00;  0.0000000E+00;  1.0000000E+03;  4.0000001E-01;  0.0000000E+00;0;  0.0000000E+00;  0.0000000E+00;  0.0000000E+00;0; -6.3108035E-07;  1.0000000E+04;  0.0000000E+00;  0.0000000E+00;  1.0000000E+04;  0.0000000E+00;  1.0000000E+04; -5.9167968E-07;  0.0000000E+00; -3.9400650E-08;  1.2826391E-04;
 -1.4000000E-01;  9.9999998E-03; -2.8000000E-01;168;  0.0000000E+00;  0.0000000E+00;  0.0000000E+00;  1.0000000E+03;  4.0000001E-01;  0.0000000E+00;0;  0.0000000E+00;  0.0000000E+00;  0.0000000E+00;0; -1.0395445E-06;  1.0000000E+04;  0.0000000E+00;  0.0000000E+00;  1.0000000E+04;  0.0000000E+00;  1.0000000E+04; -1.0051181E-06;  0.0000000E+00; -3.4426400E-08;  9.5766030E-05;
 -1.4000000E-01;  9.9999998E-03; -2.5999999E-01;169;  0.0000000E+00;  0.0000000E+00;  0.0000000E+00;  1.0000000E+03;  4.0000001E-01;  0.0000000E+00;0;  0.0000000E+00;  0.0000000E+00;  0.0000000E+00;0; -1.4383334E-06;  1.0000000E+04;  0.0000000E+00;  0.0000000E+00;  1.0000000E+04;  0.0000000E+00;  1.0000000E+04; -1.4207620E-06;  0.0000000E+00; -1.7571352E-08;  2.0283222E-05;
 -1.4000000E-01;  9.9999998E-03; -2.3999999E-01;170;  0.0000000E+00;  0.0000000E+00;  0.0000000E+00;  1.0000000E+03;  4.0000001E-01;  0.0000000E+00;0;  0.0000000E+00;  0.0000000E+00;  0.0000000E+00;0; -1.7611975E-06;  1.0000000E+04;  0.0000000E+00;  0.0000000E+00;  1.0000000E+04;  0.0000000E+00;  1.0000000E+04; -1.7628237E-06;  0.0000000E+00;  1.6262123E-09;  6.1252518E-05;
 -1.4000000E-01;  9.9999998E-03; -2.2000000E-01;171;  0.0000000E+00;  0.0000000E+00;  0.0000000E+00;  1.0000000E+03;  4.0000001E-01;  0.0000000E+00;0;  0.0000000E+00;  0.0000000E+00;  0.0000000E+00;0; -1.9893046E-06;  1.0000000E+04;  0.0000000E+00;  0.0000000E+00;  1.0000000E+04;  0.0000000E+00;  1.0000000E+04; -2.0021528E-06;  0.0000000E+00;  1.2848308E-08;  1.1027331E-04;
 -1.4000000E-01;  9.9999998E-03; -2.0000000E-01;172;  0.0000000E+00;  0.0000000E+00;  0.0000000E+00;  1.0000000E+03;  4.0000001E-01;  0.0000000E+00;0;  0.0000000E+00;  0.0000000E+00;  0.0000000E+00;0; -2.1483847E-06;  1.0000000E+04;  0.0000000E+00;  0.0000000E+00;  1.0000000E+04;  0.0000000E+00;  1.0000000E+04; -2.1634983E-06;  0.0000000E+00;  1.5113489E-08;  1.2405957E-04;
 -1.2000000E-01;  9.9999998E-03; -3.4000000E-01;206;  0.0000000E+00;  0.0000000E+00;  0.0000000E+00;  1.0000000E+03;  4.0000001E-01;  0.0000000E+00;0;  0.0000000E+00;  0.0000000E+00;  0.0000000E+00;0; -1.1510531E-06;  1.0000000E+04;  0.0000000E+00;  0.0000000E+00;  1.0000000E+04;  0.0000000E+00;  1.0000000E+04; -9.4694144E-07;  0.0000000E+00; -2.0411166E-07;  7.3282182E-04;
 -1.2000000E-01;  9.9999998E-03; -3.1999999E-01;207;  0.0000000E+00;  0.0000000E+00;  0.0000000E+00;  1.0000000E+03;  4.0000001E-01;  0.0000000E+00;0;  0.0000000E+00;  0.0000000E+00;  0.0000000E+00;0; -2.4303060E-06;  1.0000000E+04;  0.0000000E+00;  0.0000000E+00;  1.0000000E+04;  0.0000000E+00;  1.0000000E+04; -2.1392254E-06;  0.0000000E+00; -2.9108062E-07;  1.0188078E-03;
 -1.2000000E-01;  9.9999998E-03; -3.0000001E-01;208;  0.0000000E+00;  0.0000000E+00;  0.0000000E+00;  1.0000000E+03;  4.0000001E-01;  0.0000000E+00;0;  0.0000000E+00;  0.0000000E+00;  0.0000000E+00;0; -4.1688518E-06;  1.0000000E+04;  0.0000000E+00;  0.0000000E+00;  1.0000000E+04;  0.0000000E+00;  1.0000000E+04; -3.8561680E-06;  0.0000000E+00; -3.1268362E-07;  1.0410504E-03;
 -1.2000000E-01;  9.9999998E-03; -2.8000000E-01;209;  0.0000000E+00;  0.0000000E+00;  0.0000000E+00;  1.0000000E+03;  4.0000001E-01;  0.0000000E+00;0;  0.0000000E+00;  0.0000000E+00;  0.0000000E+00;0; -6.1546366E-06;  1.0000000E+04;  0.0000000E+00;  0.0000000E+00;  1.0000000E+04;  0.0000000E+00;  1.0000000E+04; -5.8979599E-06;  0.0000000E+00; -2.5667654E-07;  7.6685514E-04;
 -1.2000000E-01;  9.9999998E-03; -2.5999999E-01;210;  0.0000000E+00;  0.0000000E+00;  0.0000000E+00;  1.0000000E+03;  4.0000001E-01;  0.0000000E+00;0;  0.0000000E+00;  0.0000000E+00;  0.0000000E+00;0; -8.0887830E-06;  1.0000000E+04;  0.0000000E+00;  0.0000000E+00;  1.0000000E+04;  0.0000000E+00;  1.0000000E+04; -7.9477359E-06;  0.0000000E+00; -1.4104712E-07;  2.7372336E-04;
 -1.2000000E-01;  9.9999998E-03; -2.3999999E-01;211;  0.0000000E+00;  0.0000000E+00;  0.0000000E+00;  1.0000000E+03;  4.0000001E-01;  0.0000000E+00;0;  0.0000000E+00;  0.0000000E+00;  0.0000000E+00;0; -9.7363654E-06;  1.0000000E+04;  0.0000000E+00;  0.0000000E+00;  1.0000000E+04;  0.0000000E+00;  1.0000000E+04; -9.7257889E-06;  0.0000000E+00; -1.0576620E-08;  2.6465658E-04;
 -1.2000000E-01;  9.9999998E-03; -2.2000000E-01;212;  0.0000000E+00;  0.0000000E+00;  0.0000000E+00;  1.0000000E+03;  4.0000001E-01;  0.0000000E+00;0;  0.0000000E+00;  0.0000000E+00;  0.0000000E+00;0; -1.1017124E-05;  1.0000000E+04;  0.0000000E+00;  0.0000000E+00;  1.0000000E+04;  0.0000000E+00;  1.0000000E+04; -1.1104540E-05;  0.0000000E+00;  8.7416517E-08;  6.7042984E-04;
 -1.2000000E-01;  9.9999998E-03; -2.0000000E-01;213;  0.0000000E+00;  0.0000000E+00;  0.0000000E+00;  1.0000000E+03;  4.0000001E-01;  0.0000000E+00;0;  0.0000000E+00;  0.0000000E+00;  0.0000000E+00;0; -1.1970898E-05;  1.0000000E+04;  0.0000000E+00;  0.0000000E+00;  1.0000000E+04;  0.0000000E+00;  1.0000000E+04; -1.2105517E-05;  0.0000000E+00;  1.3461973E-07;  8.7840296E-04;
 -1.0000000E-01;  9.9999998E-03; -3.4000000E-01;247;  0.0000000E+00;  0.0000000E+00;  0.0000000E+00;  1.0000000E+03;  4.0000001E-01;  0.0000000E+00;0;  0.0000000E+00;  0.0000000E+00;  0.0000000E+00;0; -5.3327358E-06;  1.0000000E+04;  0.0000000E+00;  0.0000000E+00;  1.0000000E+04;  0.0000000E+00;  1.0000000E+04; -4.2680867E-06;  0.0000000E+00; -1.0646489E-06;  3.8569437E-03;
 -1.0000000E-01;  9.9999998E-03; -3.1999999E-01;248;  0.0000000E+00;  0.0000000E+00;  0.0000000E+00;  1.0000000E+03;  4.0000001E-01;  0.0000000E+00;0;  0.0000000E+00;  0.0000000E+00;  0.0000000E+00;0; -9.5541291E-06;  1.0000000E+04;  0.0000000E+00;  0.0000000E+00;  1.0000000E+04;  0.0000000E+00;  1.0000000E+04; -8.2557481E-06;  0.0000000E+00; -1.2983805E-06;  4.6019536E-03;
 -1.0000000E-01;  9.9999998E-03; -3.0000001E-01;249;  0.0000000E+00;  0.0000000E+00;  0.0000000E+00;  1.0000000E+03;  4.0000001E-01;  0.0000000E+00;0;  0.0000000E+00;  0.0000000E+00;  0.0000000E+00;0; -1.4933493E-05;  1.0000000E+04;  0.0000000E+00;  0.0000000E+00;  1.0000000E+04;  0.0000000E+00;  1.0000000E+04; -1.3648562E-05;  0.0000000E+00; -1.2849308E-06;  4.3747900E-03;
 -1.0000000E-01;  9.9999998E-03; -2.8000000E-01;250;  0.0000000E+00;  0.0000000E+00;  0.0000000E+00;  1.0000000E+03;  4.0000001E-01;  0.0000000E+00;0;  0.0000000E+00;  0.0000000E+00;  0.0000000E+00;0; -2.0897109E-05;  1.0000000E+04;  0.0000000E+00;  0.0000000E+00;  1.0000000E+04;  0.0000000E+00;  1.0000000E+04; -1.9881516E-05;  0.0000000E+00; -1.0155923E-06;  3.1658409E-03;
 -1.0000000E-01;  9.9999998E-03; -2.5999999E-01;251;  0.0000000E+00;  0.0000000E+00;  0.0000000E+00;  1.0000000E+03;  4.0000001E-01;  0.0000000E+00;0;  0.0000000E+00;  0.0000000E+00;  0.0000000E+00;0; -2.6658441E-05;  1.0000000E+04;  0.0000000E+00;  0.0000000E+00;  1.0000000E+04;  0.0000000E+00;  1.0000000E+04; -2.6102281E-05;  0.0000000E+00; -5.5616044E-07;  1.2527022E-03;
 -1.0000000E-01;  9.9999998E-03; -2.3999999E-01;252;  0.0000000E+00;  0.0000000E+00;  0.0000000E+00;  1.0000000E+03;  4.0000001E-01;  0.0000000E+00;0;  0.0000000E+00;  0.0000000E+00;  0.0000000E+00;0; -3.1629257E-05;  1.0000000E+04;  0.0000000E+00;  0.0000000E+00;  1.0000000E+04;  0.0000000E+00;  1.0000000E+04; -3.1577667E-05;  0.0000000E+00; -5.1589485E-08;  7.9841173E-04;
 -1.0000000E-01;  9.9999998E-03; -2.2000000E-01;253;  0.0000000E+00;  0.0000000E+00;  0.0000000E+00;  1.0000000E+03;  4.0000001E-01;  0.0000000E+00;0;  0.0000000E+00;  0.0000000E+00;  0.0000000E+00;0; -3.5615547E-05;  1.0000000E+04;  0.0000000E+00;  0.0000000E+00;  1.0000000E+04;  0.0000000E+00;  1.0000000E+04; -3.5959143E-05;  0.0000000E+00;  3.4359616E-07;  2.4050442E-03;
 -1.0000000E-01;  9.9999998E-03; -2.0000000E-01;254;  0.0000000E+00;  0.0000000E+00;  0.0000000E+00;  1.0000000E+03;  4.0000001E-01;  0.0000000E+00;0;  0.0000000E+00;  0.0000000E+00;  0.0000000E+00;0; -3.8698756E-05;  1.0000000E+04;  0.0000000E+00;  0.0000000E+00;  1.0000000E+04;  0.0000000E+00;  1.0000000E+04; -3.9262512E-05;  0.0000000E+00;  5.6375535E-07;  3.3319222E-03;
 -7.9999998E-02;  9.9999998E-03; -3.4000000E-01;288;  0.0000000E+00;  0.0000000E+00;  0.0000000E+00;  1.0000000E+03;  4.0000001E-01;  0.0000000E+00;0;  0.0000000E+00;  0.0000000E+00;  0.0000000E+00;0; -1.5872962E-05;  1.0000000E+04;  0.0000000E+00;  0.0000000E+00;  1.0000000E+04;  0.0000000E+00;  1.0000000E+04; -1.2379934E-05;  0.0000000E+00; -3.4930281E-06;  1.2812963E-02;
 -7.9999998E-02;  9.9999998E-03; -3.1999999E-01;289;  0.0000000E+00;  0.0000000E+00;  0.0000000E+00;  1.0000000E+03;  4.0000001E-01;  0.0000000E+00;0;  0.0000000E+00;  0.0000000E+00;  0.0000000E+00;0; -2.6185955E-05;  1.0000000E+04;  0.0000000E+00;  0.0000000E+00;  1.0000000E+04;  0.0000000E+00;  1.0000000E+04; -2.2237404E-05;  0.0000000E+00; -3.9485512E-06;  1.4212810E-02;
 -7.9999998E-02;  9.9999998E-03; -3.0000001E-01;290;  0.0000000E+00;  0.0000000E+00;  0.0000000E+00;  1.0000000E+03;  4.0000001E-01;  0.0000000E+00;0;  0.0000000E+00;  0.0000000E+00;  0.0000000E+00;0; -3.8921775E-05;  1.0000000E+04;  0.0000000E+00;  0.0000000E+00;  1.0000000E+04;  0.0000000E+00;  1.0000000E+04; -3.5179666E-05;  0.0000000E+00; -3.7421087E-06;  1.3002643E-02;
 -7.9999998E-02;  9.9999998E-03; -2.8000000E-01;291;  0.0000000E+00;  0.0000000E+00;  0.0000000E+00;  1.0000000E+03;  4.0000001E-01;  0.0000000E+00;0;  0.0000000E+00;  0.0000000E+00;  0.0000000E+00;0; -5.2781372E-05;  1.0000000E+04;  0.0000000E+00;  0.0000000E+00;  1.0000000E+04;  0.0000000E+00;  1.0000000E+04; -4.9895858E-05;  0.0000000E+00; -2.8855129E-06;  9.2835929E-03;
 -7.9999998E-02;  9.9999998E-03; -2.5999999E-01;292;  0.0000000E+00;  0.0000000E+00;  0.0000000E+00;  1.0000000E+03;  4.0000001E-01;  0.0000000E+00;0;  0.0000000E+00;  0.0000000E+00;  0.0000000E+00;0; -6.6053188E-05;  1.0000000E+04;  0.0000000E+00;  0.0000000E+00;  1.0000000E+04;  0.0000000E+00;  1.0000000E+04; -6.4497726E-05;  0.0000000E+00; -1.5554641E-06;  3.8009372E-03;
 -7.9999998E-02;  9.9999998E-03; -2.3999999E-01;293;  0.0000000E+00;  0.0000000E+00;  0.0000000E+00;  1.0000000E+03;  4.0000001E-01;  0.0000000E+00;0;  0.0000000E+00;  0.0000000E+00;  0.0000000E+00;0; -7.7515862E-05;  1.0000000E+04;  0.0000000E+00;  0.0000000E+00;  1.0000000E+04;  0.0000000E+00;  1.0000000E+04; -7.7392433E-05;  0.0000000E+00; -1.2343233E-07;  1.9873772E-03;
 -7.9999998E-02;  9.9999998E-03; -2.2000000E-01;294;  0.0000000E+00;  0.0000000E+00;  0.0000000E+00;  1.0000000E+03;  4.0000001E-01;  0.0000000E+00;0;  0.0000000E+00;  0.0000000E+00;  0.0000000E+00;0; -8.6815162E-05;  1.0000000E+04;  0.0000000E+00;  0.0000000E+00;  1.0000000E+04;  0.0000000E+00;  1.0000000E+04; -8.7828004E-05;  0.0000000E+00;  1.0128407E-06;  6.5727369E-03;
 -7.9999998E-02;  9.9999998E-03; -2.0000000E-01;295;  0.0000000E+00;  0.0000000E+00;  0.0000000E+00;  1.0000000E+03;  4.0000001E-01;  0.0000000E+00;0;  0.0000000E+00;  0.0000000E+00;  0.0000000E+00;0; -9.4141236E-05;  1.0000000E+04;  0.0000000E+00;  0.0000000E+00;  1.0000000E+04;  0.0000000E+00;  1.0000000E+04; -9.5816649E-05;  0.0000000E+00;  1.6754108E-06;  9.3125449E-03;
 -5.9999999E-02;  9.9999998E-03; -3.4000000E-01;329;  0.0000000E+00;  0.0000000E+00;  0.0000000E+00;  1.0000000E+03;  4.0000001E-01;  0.0000000E+00;0;  0.0000000E+00;  0.0000000E+00;  0.0000000E+00;0; -3.6237958E-05;  1.0000000E+04;  0.0000000E+00;  0.0000000E+00;  1.0000000E+04;  0.0000000E+00;  1.0000000E+04; -2.7503900E-05;  0.0000000E+00; -8.7340586E-06;  3.2506995E-02;
 -5.9999999E-02;  9.9999998E-03; -3.1999999E-01;330;  0.0000000E+00;  0.0000000E+00;  0.0000000E+00;  1.0000000E+03;  4.0000001E-01;  0.0000000E+00;0;  0.0000000E+00;  0.0000000E+00;  0.0000000E+00;0; -5.6952085E-05;  1.0000000E+04;  0.0000000E+00;  0.0000000E+00;  1.0000000E+04;  0.0000000E+00;  1.0000000E+04; -4.7478716E-05;  0.0000000E+00; -9.4733687E-06;  3.4667265E-02;
 -5.9999999E-02;  9.9999998E-03; -3.0000001E-01;331;  0.0000000E+00;  0.0000000E+00;  0.0000000E+00;  1.0000000E+03;  4.0000001E-01;  0.0000000E+00;0;  0.0000000E+00;  0.0000000E+00;  0.0000000E+00;0; -8.2047947E-05;  1.0000000E+04;  0.0000000E+00;  0.0000000E+00;  1.0000000E+04;  0.0000000E+00;  1.0000000E+04; -7.3297226E-05;  0.0000000E+00; -8.7507206E-06;  3.1024782E-02;
 -5.9999999E-02;  9.9999998E-03; -2.8000000E-01;332;  0.0000000E+00;  0.0000000E+00;  0.0000000E+00;  1.0000000E+03;  4.0000001E-01;  0.0000000E+00;0;  0.0000000E+00;  0.0000000E+00;  0.0000000E+00;0; -1.0898128E-04;  1.0000000E+04;  0.0000000E+00;  0.0000000E+00;  1.0000000E+04;  0.0000000E+00;  1.0000000E+04; -1.0235969E-04;  0.0000000E+00; -6.6215857E-06;  2.1916227E-02;
 -5.9999999E-02;  9.9999998E-03; -2.5999999E-01;333;  0.0000000E+00;  0.0000000E+00;  0.0000000E+00;  1.0000001E+03;  4.0000001E-01;  9.8762624E-02;0;  0.0000000E+00;  0.0000000E+00;  0.0000000E+00;0; -1.3448232E-04;  1.0000000E+04;  0.0000000E+00;  0.0000000E+00;  1.0000000E+04;  0.0000000E+00;  1.0000000E+04; -1.3099119E-04;  0.0000000E+00; -3.4911311E-06;  9.0510203E-03;
 -5.9999999E-02;  9.9999998E-03; -2.3999999E-01;334;  0.0000000E+00;  0.0000000E+00;  0.0000000E+00;  1.0000001E+03;  4.0000001E-01;  9.8762624E-02;0;  0.0000000E+00;  0.0000000E+00;  0.0000000E+00;0; -1.5638060E-04;  1.0000000E+04;  0.0000000E+00;  0.0000000E+00;  1.0000000E+04;  0.0000000E+00;  1.0000000E+04; -1.5619640E-04;  0.0000000E+00; -1.8420296E-07;  4.3137725E-03;
 -5.9999999E-02;  9.9999998E-03; -2.2000000E-01;335;  0.0000000E+00;  0.0000000E+00;  0.0000000E+00;  1.0000001E+03;  4.0000001E-01;  9.8762624E-02;0;  0.0000000E+00;  0.0000000E+00;  0.0000000E+00;0; -1.7419524E-04;  1.0000000E+04;  0.0000000E+00;  0.0000000E+00;  1.0000000E+04;  0.0000000E+00;  1.0000000E+04; -1.7663493E-04;  0.0000000E+00;  2.4396827E-06;  1.4890576E-02;
 -5.9999999E-02;  9.9999998E-03; -2.0000000E-01;336;  0.0000000E+00;  0.0000000E+00;  0.0000000E+00;  1.0000001E+03;  4.0000001E-01;  9.8762624E-02;0;  0.0000000E+00;  0.0000000E+00;  0.0000000E+00;0; -1.8836418E-04;  1.0000000E+04;  0.0000000E+00;  0.0000000E+00;  1.0000000E+04;  0.0000000E+00;  1.0000000E+04; -1.9236165E-04;  0.0000000E+00;  3.9974720E-06;  2.1284502E-02;
 -3.9999999E-02;  9.9999998E-03; -3.4000000E-01;370;  0.0000000E+00;  0.0000000E+00;  0.0000000E+00;  1.0000000E+03;  4.0000001E-01;  0.0000000E+00;0;  0.0000000E+00;  0.0000000E+00;  0.0000000E+00;0; -6.8836853E-05;  1.0000000E+04;  0.0000000E+00;  0.0000000E+00;  1.0000000E+04;  0.0000000E+00;  1.0000000E+04; -5.0659113E-05;  0.0000000E+00; -1.8177740E-05;  6.8782426E-02;
 -3.9999999E-02;  9.9999998E-03; -3.1999999E-01;371;  0.0000000E+00;  0.0000000E+00;  0.0000000E+00;  1.0000000E+03;  4.0000001E-01;  0.0000000E+00;0;  0.0000000E+00;  0.0000000E+00;  0.0000000E+00;0; -1.0485019E-04;  1.0000000E+04;  0.0000000E+00;  0.0000000E+00;  1.0000000E+04;  0.0000000E+00;  1.0000000E+04; -8.5587541E-05;  0.0000000E+00; -1.9262645E-05;  7.1786210E-02;
 -3.9999999E-02;  9.9999998E-03; -3.0000001E-01;372;  0.0000000E+00;  0.0000000E+00;  0.0000000E+00;  1.0000001E+03;  4.0000001E-01;  9.8762624E-02;0;  0.0000000E+00;  0.0000000E+00;  0.0000000E+00;0; -1.4786399E-04;  1.0000000E+04;  0.0000000E+00;  0.0000000E+00;  1.0000000E+04;  0.0000000E+00;  1.0000000E+04; -1.3035978E-04;  0.0000000E+00; -1.7504208E-05;  6.3394986E-02;
 -3.9999999E-02;  9.9999998E-03; -2.8000000E-01;373;  0.0000000E+00;  0.0000000E+00;  0.0000000E+00;  1.0000001E+03;  4.0000001E-01;  9.8762624E-02;0;  0.0000000E+00;  0.0000000E+00;  0.0000000E+00;0; -1.9335847E-04;  1.0000000E+04;  0.0000000E+00;  0.0000000E+00;  1.0000000E+04;  0.0000000E+00;  1.0000000E+04; -1.8034298E-04;  0.0000000E+00; -1.3015495E-05;  4.4299759E-02;
 -3.9999999E-02;  9.9999998E-03; -2.5999999E-01;374;  0.0000000E+00;  0.0000000E+00;  0.0000000E+00;  1.0000001E+03;  4.0000001E-01;  9.8762624E-02;0;  0.0000000E+00;  0.0000000E+00;  0.0000000E+00;0; -2.3576150E-04;  1.0000000E+04;  0.0000000E+00;  0.0000000E+00;  1.0000000E+04;  0.0000000E+00;  1.0000000E+04; -2.2910409E-04;  0.0000000E+00; -6.6574194E-06;  1.8130040E-02;
 -3.9999999E-02;  9.9999998E-03; -2.3999999E-01;375;  0.0000000E+00;  0.0000000E+00;  0.0000000E+00;  1.0000001E+03;  4.0000001E-01;  9.8762624E-02;0;  0.0000000E+00;  0.0000000E+00;  0.0000000E+00;0; -2.7180160E-04;  1.0000000E+04;  0.0000000E+00;  0.0000000E+00;  1.0000000E+04;  0.0000000E+00;  1.0000000E+04; -2.7170617E-04;  0.0000000E+00; -9.5442296E-08;  8.4975576E-03;
 -3.9999999E-02;  9.9999998E-03; -2.2000000E-01;376;  0.0000000E+00;  0.0000000E+00;  0.0000000E+00;  1.0000001E+03;  4.0000001E-01;  9.8762624E-02;0;  0.0000000E+00;  0.0000000E+00;  0.0000000E+00;0; -3.0108017E-04;  1.0000000E+04;  0.0000000E+00;  0.0000000E+00;  1.0000000E+04;  0.0000000E+00;  1.0000000E+04; -3.0613982E-04;  0.0000000E+00;  5.0596382E-06;  2.9355854E-02;
 -3.9999999E-02;  9.9999998E-03; -2.0000000E-01;377;  0.0000000E+00;  0.0000000E+00;  0.0000000E+00;  1.0000001E+03;  4.0000001E-01;  9.8762624E-02;0;  0.0000000E+00;  0.0000000E+00;  0.0000000E+00;0; -3.2448719E-04;  1.0000000E+04;  0.0000000E+00;  0.0000000E+00;  1.0000000E+04;  0.0000000E+00;  1.0000000E+04; -3.3261755E-04;  0.0000000E+00;  8.1303560E-06;  4.1953672E-02;
 -2.0000000E-02;  9.9999998E-03; -3.4000000E-01;411;  0.0000000E+00;  0.0000000E+00;  0.0000000E+00;  1.0000000E+03;  4.0000001E-01;  0.0000000E+00;0;  0.0000000E+00;  0.0000000E+00;  0.0000000E+00;0; -1.1440915E-04;  1.0000000E+04;  0.0000000E+00;  0.0000000E+00;  1.0000000E+04;  0.0000000E+00;  1.0000000E+04; -8.1380953E-05;  0.0000000E+00; -3.3028202E-05;  1.2738116E-01;
 -2.0000000E-02;  9.9999998E-03; -3.1999999E-01;412;  0.0000000E+00;  0.0000000E+00;  0.0000000E+00;  1.0000001E+03;  4.0000001E-01;  9.8762624E-02;0;  0.0000000E+00;  0.0000000E+00;  0.0000000E+00;0; -1.7045633E-04;  1.0000000E+04;  0.0000000E+00;  0.0000000E+00;  1.0000000E+04;  0.0000000E+00;  1.0000000E+04; -1.3592390E-04;  0.0000000E+00; -3.4532437E-05;  1.3135722E-01;
 -2.0000000E-02;  9.9999998E-03; -3.0000001E-01;413;  0.0000000E+00;  0.0000000E+00;  0.0000000E+00;  1.0000001E+03;  4.0000001E-01;  9.8762624E-02;0;  0.0000000E+00;  0.0000000E+00;  0.0000000E+00;0; -2.3633681E-04;  1.0000000E+04;  0.0000000E+00;  0.0000000E+00;  1.0000000E+04;  0.0000000E+00;  1.0000000E+04; -2.0533804E-04;  0.0000000E+00; -3.0998770E-05;  1.1489180E-01;
 -2.0000000E-02;  9.9999998E-03; -2.8000000E-01;414;  0.0000000E+00;  0.0000000E+00;  0.0000000E+00;  1.0000001E+03;  4.0000001E-01;  9.8762624E-02;0;  0.0000000E+00;  0.0000000E+00;  0.0000000E+00;0; -3.0469662E-04;  1.0000000E+04;  0.0000000E+00;  0.0000000E+00;  1.0000000E+04;  0.0000000E+00;  1.0000000E+04; -2.8209222E-04;  0.0000000E+00; -2.2604390E-05;  7.9165064E-02;
 -2.0000000E-02;  9.9999998E-03; -2.5999999E-01;415;  0.0000000E+00;  0.0000000E+00;  0.0000000E+00;  1.0000002E+03;  4.0000001E-01;  1.9752525E-01;0;  0.0000000E+00;  0.0000000E+00;  0.0000000E+00;0; -3.6711042E-04;  1.0000000E+04;  0.0000000E+00;  0.0000000E+00;  1.0000000E+04;  0.0000000E+00;  1.0000000E+04; -3.5600358E-04;  0.0000000E+00; -1.1106847E-05;  3.1563908E-02;
 -2.0000000E-02;  9.9999998E-03; -2.3999999E-01;416;  0.0000000E+00;  0.0000000E+00;  0.0000000E+00;  1.0000002E+03;  4.0000001E-01;  1.9752525E-01;0;  0.0000000E+00;  0.0000000E+00;  0.0000000E+00;0; -4.1957191E-04;  1.0000000E+04;  0.0000000E+00;  0.0000000E+00;  1.0000000E+04;  0.0000000E+00;  1.0000000E+04; -4.1997890E-04;  0.0000000E+00;  4.0698615E-07;  1.5563809E-02;
 -2.0000000E-02;  9.9999998E-03; -2.2000000E-01;417;  0.0000000E+00;  0.0000000E+00;  0.0000000E+00;  1.0000002E+03;  4.0000001E-01;  1.9752525E-01;0;  0.0000000E+00;  0.0000000E+00;  0.0000000E+00;0; -4.6207494E-04;  1.0000000E+04;  0.0000000E+00;  0.0000000E+00;  1.0000000E+04;  0.0000000E+00;  1.0000000E+04; -4.7138482E-04;  0.0000000E+00;  9.3098834E-06;  5.1905967E-02;
 -2.0000000E-02;  9.9999998E-03; -2.0000000E-01;418;  0.0000000E+00;  0.0000000E+00;  0.0000000E+00;  1.0000002E+03;  4.0000001E-01;  1.9752525E-01;0;  0.0000000E+00;  0.0000000E+00;  0.0000000E+00;0; -4.9613212E-04;  1.0000000E+04;  0.0000000E+00;  0.0000000E+00;  1.0000000E+04;  0.0000000E+00;  1.0000000E+04; -5.1071774E-04;  0.0000000E+00;  1.4585594E-05;  7.3675402E-02;
  0.0000000E+00;  9.9999998E-03; -3.4000000E-01;452;  0.0000000E+00;  0.0000000E+00;  0.0000000E+00;  1.0000001E+03;  4.0000001E-01;  9.8762624E-02;0;  0.0000000E+00;  0.0000000E+00;  0.0000000E+00;0; -1.7222640E-04;  1.0000000E+04;  0.0000000E+00;  0.0000000E+00;  1.0000000E+04;  0.0000000E+00;  1.0000000E+04; -1.1830169E-04;  0.0000000E+00; -5.3924708E-05;  2.1266878E-01;
  0.0000000E+00;  9.9999998E-03; -3.1999999E-01;453;  0.0000000E+00;  0.0000000E+00;  0.0000000E+00;  1.0000001E+03;  4.0000001E-01;  9.8762624E-02;0;  0.0000000E+00;  0.0000000E+00;  0.0000000E+00;0; -2.5220407E-04;  1.0000000E+04;  0.0000000E+00;  0.0000000E+00;  1.0000000E+04;  0.0000000E+00;  1.0000000E+04; -1.9631349E-04;  0.0000000E+00; -5.5890592E-05;  2.1766734E-01;
  0.0000000E+00;  9.9999998E-03; -3.0000001E-01;454;  0.0000000E+00;  0.0000000E+00;  0.0000000E+00;  1.0000001E+03;  4.0000001E-01;  9.8762624E-02;0;  0.0000000E+00;  0.0000000E+00;  0.0000000E+00;0; -3.4397256E-04;  1.0000000E+04;  0.0000000E+00;  0.0000000E+00;  1.0000000E+04;  0.0000000E+00;  1.0000000E+04; -2.9450937E-04;  0.0000000E+00; -4.9463182E-05;  1.8812291E-01;
  2.0000000E-02;  9.9999998E-03; -3.4000000E-01;464;  0.0000000E+00;  0.0000000E+00;  0.0000000E+00;  1.0000001E+03;  4.0000001E-01;  9.8762624E-02;0;  0.0000000E+00;  0.0000000E+00;  0.0000000E+00;0; -2.4178369E-04;  1.0000000E+04;  0.0000000E+00;  0.0000000E+00;  1.0000000E+04;  0.0000000E+00;  1.0000000E+04; -1.6099746E-04;  0.0000000E+00; -8.0786238E-05;  3.2710260E-01;
  2.0000000E-02;  9.9999998E-03; -3.1999999E-01;465;  0.0000000E+00;  0.0000000E+00;  0.0000000E+00;  1.0000002E+03;  4.0000001E-01;  1.9752525E-01;0;  0.0000000E+00;  0.0000000E+00;  0.0000000E+00;0; -3.4899320E-04;  1.0000000E+04;  0.0000000E+00;  0.0000000E+00;  1.0000000E+04;  0.0000000E+00;  1.0000000E+04; -2.6588768E-04;  0.0000000E+00; -8.3105522E-05;  3.3265659E-01;
  3.9999999E-02;  9.9999998E-03; -3.4000000E-01;474;  0.0000000E+00;  0.0000000E+00;  0.0000000E+00;  1.0000001E+03;  4.0000001E-01;  9.8762624E-02;0;  0.0000000E+00;  0.0000000E+00;  0.0000000E+00;0; -3.2566313E-04;  1.0000000E+04;  0.0000000E+00;  0.0000000E+00;  1.0000000E+04;  0.0000000E+00;  1.0000000E+04; -2.1226831E-04;  0.0000000E+00; -1.1339482E-04;  4.7343183E-01;
  3.9999999E-02;  9.9999998E-03; -3.1999999E-01;475;  0.0000000E+00;  0.0000000E+00;  0.0000000E+00;  1.0000002E+03;  4.0000001E-01;  1.9752525E-01;0;  0.0000000E+00;  0.0000000E+00;  0.0000000E+00;0; -4.6511731E-04;  1.0000000E+04;  0.0000000E+00;  0.0000000E+00;  1.0000000E+04;  0.0000000E+00;  1.0000000E+04; -3.4946823E-04;  0.0000000E+00; -1.1564907E-04;  4.7784275E-01;
  5.9999999E-02;  9.9999998E-03; -3.4000000E-01;484;  0.0000000E+00;  0.0000000E+00;  0.0000000E+00;  1.0000002E+03;  4.0000001E-01;  1.9752525E-01;0;  0.0000000E+00;  0.0000000E+00;  0.0000000E+00;0; -4.3125640E-04;  1.0000000E+04;  0.0000000E+00;  0.0000000E+00;  1.0000000E+04;  0.0000000E+00;  1.0000000E+04; -2.7867794E-04;  0.0000000E+00; -1.5257846E-04;  6.5936738E-01;
  5.9999999E-02;  9.9999998E-03; -3.1999999E-01;485;  0.0000000E+00;  0.0000000E+00;  0.0000000E+00;  1.0000004E+03;  4.0000001E-01;  2.9628786E-01;0;  0.0000000E+00;  0.0000000E+00;  0.0000000E+00;0; -6.1211502E-04;  1.0000000E+04;  0.0000000E+00;  0.0000000E+00;  1.0000000E+04;  0.0000000E+00;  1.0000000E+04; -4.5771623E-04;  0.0000000E+00; -1.5439882E-04;  6.6087466E-01;
  7.9999998E-02;  9.9999998E-03; -3.4000000E-01;494;  0.0000000E+00;  0.0000000E+00;  0.0000000E+00;  1.0000003E+03;  4.0000001E-01;  2.9628786E-01;0;  0.0000000E+00;  0.0000000E+00;  0.0000000E+00;0; -5.7338341E-04;  1.0000000E+04;  0.0000000E+00;  0.0000000E+00;  1.0000000E+04;  0.0000000E+00;  1.0000000E+04; -3.7241730E-04;  0.0000000E+00; -2.0096608E-04;  9.0258867E-01;
  7.9999998E-02;  9.9999998E-03; -3.1999999E-01;495;  0.0000000E+00;  0.0000000E+00;  0.0000000E+00;  1.0000005E+03;  4.0000001E-01;  3.9505050E-01;0;  0.0000000E+00;  0.0000000E+00;  0.0000000E+00;0; -8.0985937E-04;  1.0000000E+04;  0.0000000E+00;  0.0000000E+00;  1.0000000E+04;  0.0000000E+00;  1.0000000E+04; -6.0786301E-04;  0.0000000E+00; -2.0199636E-04;  8.9879084E-01;
  1.0000000E-01;  9.9999998E-03; -3.4000000E-01;504;  0.0000000E+00;  0.0000000E+00;  0.0000000E+00;  1.0000004E+03;  4.0000001E-01;  3.9505050E-01;0;  0.0000000E+00;  0.0000000E+00;  0.0000000E+00;0; -7.7938649E-04;  1.0000000E+04;  0.0000000E+00;  0.0000000E+00;  1.0000000E+04;  0.0000000E+00;  1.0000000E+04; -5.1540049E-04;  0.0000000E+00; -2.6398600E-04;  1.2636561E+00;
  1.0000000E-01;  9.9999998E-03; -3.1999999E-01;505;  0.0000000E+00;  0.0000000E+00;  0.0000000E+00;  1.0000007E+03;  4.0000001E-01;  5.9257573E-01;0;  0.0000000E+00;  0.0000000E+00;  0.0000000E+00;0; -1.0938649E-03;  1.0000000E+04;  0.0000000E+00;  0.0000000E+00;  1.0000000E+04;  0.0000000E+00;  1.0000000E+04; -8.3017437E-04;  0.0000000E+00; -2.6369060E-04;  1.2687684E+00;
  1.2000000E-01;  9.9999998E-03; -3.4000000E-01;514;  0.0000000E+00;  0.0000000E+00;  0.0000000E+00;  1.0000007E+03;  4.0000001E-01;  5.9257573E-01;0;  0.0000000E+00;  0.0000000E+00;  0.0000000E+00;0; -1.0960896E-03;  1.0000000E+04;  0.0000000E+00;  0.0000000E+00;  1.0000000E+04;  0.0000000E+00;  1.0000000E+04; -7.4385211E-04;  0.0000000E+00; -3.5223746E-04;  2.0330894E+00;
  1.2000000E-01;  9.9999998E-03; -3.1999999E-01;515;  0.0000000E+00;  0.0000000E+00;  0.0000000E+00;  1.0000010E+03;  4.0000001E-01;  7.9010099E-01;0;  0.0000000E+00;  0.0000000E+00;  0.0000000E+00;0; -1.5225746E-03;  1.0000000E+04;  0.0000000E+00;  0.0000000E+00;  1.0000000E+04;  0.0000000E+00;  1.0000000E+04; -1.1730662E-03;  0.0000000E+00; -3.4950834E-04;  2.2837219E+00;
  1.4000000E-01;  9.9999998E-03; -3.4000000E-01;524;  0.0000000E+00;  0.0000000E+00;  0.0000000E+00;  1.0000011E+03;  4.0000001E-01;  8.8886362E-01;0;  0.0000000E+00;  0.0000000E+00;  0.0000000E+00;0; -1.5988632E-03;  1.0000000E+04;  0.0000000E+00;  0.0000000E+00;  1.0000000E+04;  0.0000000E+00;  1.0000000E+04; -1.1132183E-03;  0.0000000E+00; -4.8564488E-04;  4.1477733E+00;
  1.4000000E-01;  9.9999998E-03; -3.1999999E-01;525;  0.0000000E+00;  0.0000000E+00;  0.0000000E+00;  1.0000014E+03;  4.0000001E-01;  1.1851515E+00;0;  0.0000000E+00;  0.0000000E+00;  0.0000000E+00;0; -2.1854981E-03;  1.0000000E+04;  0.0000000E+00;  0.0000000E+00;  1.0000000E+04;  0.0000000E+00;  1.0000000E+04; -1.7072471E-03;  0.0000000E+00; -4.7825093E-04;  5.5527391E+00;
  1.6000000E-01;  9.9999998E-03; -3.4000000E-01;534;  0.0000000E+00;  0.0000000E+00;  0.0000000E+00;  1.0000016E+03;  4.0000001E-01;  1.2839141E+00;0;  0.0000000E+00;  0.0000000E+00;  0.0000000E+00;0; -2.3885483E-03;  1.0000000E+04;  0.0000000E+00;  0.0000000E+00;  1.0000000E+04;  0.0000000E+00;  1.0000000E+04; -1.6887661E-03;  0.0000000E+00; -6.9978234E-04;  9.2722683E+00;
  1.6000000E-01;  9.9999998E-03; -3.1999999E-01;535;  0.0000000E+00;  0.0000000E+00;  0.0000000E+00;  1.0000021E+03;  4.0000001E-01;  1.7777272E+00;0;  0.0000000E+00;  0.0000000E+00;  0.0000000E+00;0; -3.1991843E-03;  1.0000000E+04;  0.0000000E+00;  0.0000000E+00;  1.0000000E+04;  0.0000000E+00;  1.0000000E+04; -2.5148629E-03;  0.0000000E+00; -6.8432128E-04;  1.3768409E+01;
  1.8000001E-01;  9.9999998E-03; -3.4000000E-01;544;  0.0000000E+00;  0.0000000E+00;  0.0000000E+00;  1.0000024E+03;  4.0000001E-01;  1.9752525E+00;0;  0.0000000E+00;  0.0000000E+00;  0.0000000E+00;0; -3.5487930E-03;  1.0000000E+04;  0.0000000E+00;  0.0000000E+00;  1.0000000E+04;  0.0000000E+00;  1.0000000E+04; -2.4952991E-03;  0.0000000E+00; -1.0534941E-03;  1.8893091E+01;
  1.8000001E-01;  9.9999998E-03; -3.1999999E-01;545;  0.0000000E+00;  0.0000000E+00;  0.0000000E+00;  1.0000032E+03;  4.0000001E-01;  2.6665909E+00;0;  0.0000000E+00;  0.0000000E+00;  0.0000000E+00;0; -4.6661566E-03;  1.0000000E+04;  0.0000000E+00;  0.0000000E+00;  1.0000000E+04;  0.0000000E+00;  1.0000000E+04; -3.6392498E-03;  0.0000000E+00; -1.0269067E-03;  2.9949244E+01;
  2.0000000E-01;  9.9999998E-03; -3.4000000E-01;553;  0.0000000E+00;  0.0000000E+00;  0.0000000E+00;  1.0000036E+03;  4.0000001E-01;  2.9628787E+00;0;  0.0000000E+00;  0.0000000E+00;  0.0000000E+00;0; -5.1019406E-03;  1.0000000E+04;  0.0000000E+00;  0.0000000E+00;  1.0000000E+04;  0.0000000E+00;  1.0000000E+04; -3.4704374E-03;  0.0000000E+00; -1.6315035E-03;  3.2020493E+01;
  2.0000000E-01;  9.9999998E-03; -3.1999999E-01;554;  0.0000000E+00;  0.0000000E+00;  0.0000000E+00;  1.0000047E+03;  4.0000001E-01;  3.8517423E+00;0;  0.0000000E+00;  0.0000000E+00;  0.0000000E+00;0; -6.6219382E-03;  1.0000000E+04;  0.0000000E+00;  0.0000000E+00;  1.0000000E+04;  0.0000000E+00;  1.0000000E+04; -5.0289906E-03;  0.0000000E+00; -1.5929476E-03;  5.4009518E+01;
 -2.2000000E-01;  9.9999998E-03; -1.8000001E-01;10;  0.0000000E+00;  0.0000000E+00;  0.0000000E+00;  1.0000000E+03;  4.0000001E-01;  0.0000000E+00;0;  0.0000000E+00;  0.0000000E+00;  0.0000000E+00;0;  0.0000000E+00;  1.0000000E+04;  0.0000000E+00;  0.0000000E+00;  1.0000000E+04;  0.0000000E+00;  1.0000000E+04;  0.0000000E+00;  0.0000000E+00;  0.0000000E+00;  0.0000000E+00;
 -2.2000000E-01;  9.9999998E-03; -1.6000000E-01;11;  0.0000000E+00;  0.0000000E+00;  0.0000000E+00;  1.0000000E+03;  4.0000001E-01;  0.0000000E+00;0;  0.0000000E+00;  0.0000000E+00;  0.0000000E+00;0;  0.0000000E+00;  1.0000000E+04;  0.0000000E+00;  0.0000000E+00;  1.0000000E+04;  0.0000000E+00;  1.0000000E+04;  0.0000000E+00;  0.0000000E+00;  0.0000000E+00;  0.0000000E+00;
 -2.2000000E-01;  9.9999998E-03; -1.4000000E-01;12;  0.0000000E+00;  0.0000000E+00;  0.0000000E+00;  1.0000000E+03;  4.0000001E-01;  0.0000000E+00;0;  0.0000000E+00;  0.0000000E+00;  0.0000000E+00;0;  0.0000000E+00;  1.0000000E+04;  0.0000000E+00;  0.0000000E+00;  1.0000000E+04;  0.0000000E+00;  1.0000000E+04;  0.0000000E+00;  0.0000000E+00;  0.0000000E+00;  0.0000000E+00;
 -2.2000000E-01;  9.9999998E-03; -1.2000000E-01;13;  0.0000000E+00;  0.0000000E+00;  0.0000000E+00;  1.0000000E+03;  4.0000001E-01;  0.0000000E+00;0;  0.0000000E+00;  0.0000000E+00;  0.0000000E+00;0;  0.0000000E+00;  1.0000000E+04;  0.0000000E+00;  0.0000000E+00;  1.0000000E+04;  0.0000000E+00;  1.0000000E+04;  0.0000000E+00;  0.0000000E+00;  0.0000000E+00;  0.0000000E+00;
 -2.2000000E-01;  9.9999998E-03; -1.0000000E-01;14;  0.0000000E+00;  0.0000000E+00;  0.0000000E+00;  1.0000000E+03;  4.0000001E-01;  0.0000000E+00;0;  0.0000000E+00;  0.0000000E+00;  0.0000000E+00;0;  0.0000000E+00;  1.0000000E+04;  0.0000000E+00;  0.0000000E+00;  1.0000000E+04;  0.0000000E+00;  1.0000000E+04;  0.0000000E+00;  0.0000000E+00;  0.0000000E+00;  0.0000000E+00;
 -2.2000000E-01;  9.9999998E-03; -7.9999998E-02;15;  0.0000000E+00;  0.0000000E+00;  0.0000000E+00;  1.0000000E+03;  4.0000001E-01;  0.0000000E+00;0;  0.0000000E+00;  0.0000000E+00;  0.0000000E+00;0;  0.0000000E+00;  1.0000000E+04;  0.0000000E+00;  0.0000000E+00;  1.0000000E+04;  0.0000000E+00;  1.0000000E+04;  0.0000000E+00;  0.0000000E+00;  0.0000000E+00;  0.0000000E+00;
 -2.2000000E-01;  9.9999998E-03; -5.9999999E-02;16;  0.0000000E+00;  0.0000000E+00;  0.0000000E+00;  1.0000000E+03;  4.0000001E-01;  0.0000000E+00;0;  0.0000000E+00;  0.0000000E+00;  0.0000000E+00;0;  0.0000000E+00;  1.0000000E+04;  0.0000000E+00;  0.0000000E+00;  1.0000000E+04;  0.0000000E+00;  1.0000000E+04;  0.0000000E+00;  0.0000000E+00;  0.0000000E+00;  0.0000000E+00;
 -2.2000000E-01;  9.9999998E-03; -3.9999999E-02;17;  0.0000000E+00;  0.0000000E+00;  0.0000000E+00;  1.0000000E+03;  4.0000001E-01;  0.0000000E+00;0;  0.0000000E+00;  0.0000000E+00;  0.0000000E+00;0;  0.0000000E+00;  1.0000000E+04;  0.0000000E+00;  0.0000000E+00;  1.0000000E+04;  0.0000000E+00;  1.0000000E+04;  0.0000000E+00;  0.0000000E+00;  0.0000000E+00;  0.0000000E+00;
 -2.2000000E-01;  9.9999998E-03; -2.0000000E-02;18;  0.0000000E+00;  0.0000000E+00;  0.0000000E+00;  1.0000000E+03;  4.0000001E-01;  0.0000000E+00;0;  0.0000000E+00;  0.0000000E+00;  0.0000000E+00;0;  0.0000000E+00;  1.0000000E+04;  0.0000000E+00;  0.0000000E+00;  1.0000000E+04;  0.0000000E+00;  1.0000000E+04;  0.0000000E+00;  0.0000000E+00;  0.0000000E+00;  0.0000000E+00;
 -2.0000000E-01;  9.9999998E-03; -1.8000001E-01;50;  0.0000000E+00;  0.0000000E+00;  0.0000000E+00;  1.0000000E+03;  4.0000001E-01;  0.0000000E+00;0;  0.0000000E+00;  0.0000000E+00;  0.0000000E+00;0;  0.0000000E+00;  1.0000000E+04;  0.0000000E+00;  0.0000000E+00;  1.0000000E+04;  0.0000000E+00;  1.0000000E+04;  0.0000000E+00;  0.0000000E+00;  0.0000000E+00;  0.0000000E+00;
 -2.0000000E-01;  9.9999998E-03; -1.6000000E-01;51;  0.0000000E+00;  0.0000000E+00;  0.0000000E+00;  1.0000000E+03;  4.0000001E-01;  0.0000000E+00;0;  0.0000000E+00;  0.0000000E+00;  0.0000000E+00;0;  0.0000000E+00;  1.0000000E+04;  0.0000000E+00;  0.0000000E+00;  1.0000000E+04;  0.0000000E+00;  1.0000000E+04;  0.0000000E+00;  0.0000000E+00;  0.0000000E+00;  0.0000000E+00;
 -2.0000000E-01;  9.9999998E-03; -1.4000000E-01;52;  0.0000000E+00;  0.0000000E+00;  0.0000000E+00;  1.0000000E+03;  4.0000001E-01;  0.0000000E+00;0;  0.0000000E+00;  0.0000000E+00;  0.0000000E+00;0;  0.0000000E+00;  1.0000000E+04;  0.0000000E+00;  0.0000000E+00;  1.0000000E+04;  0.0000000E+00;  1.0000000E+04;  0.0000000E+00;  0.0000000E+00;  0.0000000E+00;  0.0000000E+00;
 -2.0000000E-01;  9.9999998E-03; -1.2000000E-01;53;  0.0000000E+00;  0.0000000E+00;  0.0000000E+00;  1.0000000E+03;  4.0000001E-01;  0.0000000E+00;0;  0.0000000E+00;  0.0000000E+00;  0.0000000E+00;0;  0.0000000E+00;  1.0000000E+04;  0.0000000E+00;  0.0000000E+00;  1.0000000E+04;  0.0000000E+00;  1.0000000E+04;  0.0000000E+00;  0.0000000E+00;  0.0000000E+00;  0.0000000E+00;
 -2.0000000E-01;  9.9999998E-03; -1.0000000E-01;54;  0.0000000E+00;  0.0000000E+00;  0.0000000E+00;  1.0000000E+03;  4.0000001E-01;  0.0000000E+00;0;  0.0000000E+00;  0.0000000E+00;  0.0000000E+00;0;  0.0000000E+00;  1.0000000E+04;  0.0000000E+00;  0.0000000E+00;  1.0000000E+04;  0.0000000E+00;  1.0000000E+04;  0.0000000E+00;  0.0000000E+00;  0.0000000E+00;  0.0000000E+00;
 -2.0000000E-01;  9.9999998E-03; -7.9999998E-02;55;  0.0000000E+00;  0.0000000E+00;  0.0000000E+00;  1.0000000E+03;  4.0000001E-01;  0.0000000E+00;0;  0.0000000E+00;  0.0000000E+00;  0.0000000E+00;0;  0.0000000E+00;  1.0000000E+04;  0.0000000E+00;  0.0000000E+00;  1.0000000E+04;  0.0000000E+00;  1.0000000E+04;  0.0000000E+00;  0.0000000E+00;  0.0000000E+00;  0.0000000E+00;
 -2.0000000E-01;  9.9999998E-03; -5.9999999E-02;56;  0.0000000E+00;  0.0000000E+00;  0.0000000E+00;  1.0000000E+03;  4.0000001E-01;  0.0000000E+00;0;  0.0000000E+00;  0.0000000E+00;  0.0000000E+00;0;  0.0000000E+00;  1.0000000E+04;  0.0000000E+00;  0.0000000E+00;  1.0000000E+04;  0.0000000E+00;  1.0000000E+04;  0.0000000E+00;  0.0000000E+00;  0.0000000E+00;  0.0000000E+00;
 -2.0000000E-01;  9.9999998E-03; -3.9999999E-02;57;  0.0000000E+00;  0.0000000E+00;  0.0000000E+00;  1.0000000E+03;  4.0000001E-01;  0.0000000E+00;0;  0.0000000E+00;  0.0000000E+00;  0.0000000E+00;0;  0.0000000E+00;  1.0000000E+04;  0.0000000E+00;  0.0000000E+00;  1.0000000E+04;  0.0000000E+00;  1.0000000E+04;  0.0000000E+00;  0.0000000E+00;  0.0000000E+00;  0.0000000E+00;
 -2.0000000E-01;  9.9999998E-03; -2.0000000E-02;58;  0.0000000E+00;  0.0000000E+00;  0.0000000E+00;  1.0000000E+03;  4.0000001E-01;  0.0000000E+00;0;  0.0000000E+00;  0.0000000E+00;  0.0000000E+00;0;  0.0000000E+00;  1.0000000E+04;  0.0000000E+00;  0.0000000E+00;  1.0000000E+04;  0.0000000E+00;  1.0000000E+04;  0.0000000E+00;  0.0000000E+00;  0.0000000E+00;  0.0000000E+00;
 -1.8000001E-01;  9.9999998E-03; -1.8000001E-01;91;  0.0000000E+00;  0.0000000E+00;  0.0000000E+00;  1.0000000E+03;  4.0000001E-01;  0.0000000E+00;0;  0.0000000E+00;  0.0000000E+00;  0.0000000E+00;0;  0.0000000E+00;  1.0000000E+04;  0.0000000E+00;  0.0000000E+00;  1.0000000E+04;  0.0000000E+00;  1.0000000E+04;  0.0000000E+00;  0.0000000E+00;  0.0000000E+00;  0.0000000E+00;
 -1.8000001E-01;  9.9999998E-03; -1.6000000E-01;92;  0.0000000E+00;  0.0000000E+00;  0.0000000E+00;  1.0000000E+03;  4.0000001E-01;  0.0000000E+00;0;  0.0000000E+00;  0.0000000E+00;  0.0000000E+00;0;  0.0000000E+00;  1.0000000E+04;  0.0000000E+00;  0.0000000E+00;  1.0000000E+04;  0.0000000E+00;  1.0000000E+04;  0.0000000E+00;  0.0000000E+00;  0.0000000E+00;  0.0000000E+00;
 -1.8000001E-01;  9.9999998E-03; -1.4000000E-01;93;  0.0000000E+00;  0.0000000E+00;  0.0000000E+00;  1.0000000E+03;  4.0000001E-01;  0.0000000E+00;0;  0.0000000E+00;  0.0000000E+00;  0.0000000E+00;0;  0.0000000E+00;  1.0000000E+04;  0.0000000E+00;  0.0000000E+00;  1.0000000E+04;  0.0000000E+00;  1.0000000E+04;  0.0000000E+00;  0.0000000E+00;  0.0000000E+00;  0.0000000E+00;
 -1.8000001E-01;  9.9999998E-03; -1.2000000E-01;94;  0.0000000E+00;  0.0000000E+00;  0.0000000E+00;  1.0000000E+03;  4.0000001E-01;  0.0000000E+00;0;  0.0000000E+00;  0.0000000E+00;  0.0000000E+00;0;  0.0000000E+00;  1.0000000E+04;  0.0000000E+00;  0.0000000E+00;  1.0000000E+04;  0.0000000E+00;  1.0000000E+04;  0.0000000E+00;  0.0000000E+00;  0.0000000E+00;  0.0000000E+00;
 -1.8000001E-01;  9.9999998E-03; -1.0000000E-01;95;  0.0000000E+00;  0.0000000E+00;  0.0000000E+00;  1.0000000E+03;  4.0000001E-01;  0.0000000E+00;0;  0.0000000E+00;  0.0000000E+00;  0.0000000E+00;0;  0.0000000E+00;  1.0000000E+04;  0.0000000E+00;  0.0000000E+00;  1.0000000E+04;  0.0000000E+00;  1.0000000E+04;  0.0000000E+00;  0.0000000E+00;  0.0000000E+00;  0.0000000E+00;
 -1.8000001E-01;  9.9999998E-03; -7.9999998E-02;96;  0.0000000E+00;  0.0000000E+00;  0.0000000E+00;  1.0000000E+03;  4.0000001E-01;  0.0000000E+00;0;  0.0000000E+00;  0.0000000E+00;  0.0000000E+00;0;  0.0000000E+00;  1.0000000E+04;  0.0000000E+00;  0.0000000E+00;  1.0000000E+04;  0.0000000E+00;  1.0000000E+04;  0.0000000E+00;  0.0000000E+00;  0.0000000E+00;  0.0000000E+00;
 -1.8000001E-01;  9.9999998E-03; -5.9999999E-02;97;  0.0000000E+00;  0.0000000E+00;  0.0000000E+00;  1.0000000E+03;  4.0000001E-01;  0.0000000E+00;0;  0.0000000E+00;  0.0000000E+00;  0.0000000E+00;0;  0.0000000E+00;  1.0000000E+04;  0.0000000E+00;  0.0000000E+00;  1.0000000E+04;  0.0000000E+00;  1.0000000E+04;  0.0000000E+00;  0.0000000E+00;  0.0000000E+00;  0.0000000E+00;
 -1.8000001E-01;  9.9999998E-03; -3.9999999E-02;98;  0.0000000E+00;  0.0000000E+00;  0.0000000E+00;  1.0000000E+03;  4.0000001E-01;  0.0000000E+00;0;  0.0000000E+00;  0.0000000E+00;  0.0000000E+00;0;  0.0000000E+00;  1.0000000E+04;  0.0000000E+00;  0.0000000E+00;  1.0000000E+04;  0.0000000E+00;  1.0000000E+04;  0.0000000E+00;  0.0000000E+00;  0.0000000E+00;  0.0000000E+00;
 -1.8000001E-01;  9.9999998E-03; -2.0000000E-02;99;  0.0000000E+00;  0.0000000E+00;  0.0000000E+00;  1.0000000E+03;  4.0000001E-01;  0.0000000E+00;0;  0.0000000E+00;  0.0000000E+00;  0.0000000E+00;0;  0.0000000E+00;  1.0000000E+04;  0.0000000E+00;  0.0000000E+00;  1.0000000E+04;  0.0000000E+00;  1.0000000E+04;  0.0000000E+00;  0.0000000E+00;  0.0000000E+00;  0.0000000E+00;
 -1.6000000E-01;  9.9999998E-03; -1.8000001E-01;132;  0.0000000E+00;  0.0000000E+00;  0.0000000E+00;  1.0000000E+03;  4.0000001E-01;  0.0000000E+00;0;  0.0000000E+00;  0.0000000E+00;  0.0000000E+00;0; -6.2267723E-08;  1.0000000E+04;  0.0000000E+00;  0.0000000E+00;  1.0000000E+04;  0.0000000E+00;  1.0000000E+04; -6.2388814E-08;  0.0000000E+00;  1.2109275E-10;  2.4502940E-06;
 -1.6000000E-01;  9.9999998E-03; -1.6000000E-01;133;  0.0000000E+00;  0.0000000E+00;  0.0000000E+00;  1.0000000E+03;  4.0000001E-01;  0.0000000E+00;0;  0.0000000E+00;  0.0000000E+00;  0.0000000E+00;0; -6.4704899E-08;  1.0000000E+04;  0.0000000E+00;  0.0000000E+00;  1.0000000E+04;  0.0000000E+00;  1.0000000E+04; -6.4815580E-08;  0.0000000E+00;  1.1068382E-10;  2.5001843E-06;
 -1.6000000E-01;  9.9999998E-03; -1.4000000E-01;134;  0.0000000E+00;  0.0000000E+00;  0.0000000E+00;  1.0000000E+03;  4.0000001E-01;  0.0000000E+00;0;  0.0000000E+00;  0.0000000E+00;  0.0000000E+00;0; -6.6529545E-08;  1.0000000E+04;  0.0000000E+00;  0.0000000E+00;  1.0000000E+04;  0.0000000E+00;  1.0000000E+04; -6.6628395E-08;  0.0000000E+00;  9.8849984E-11;  2.5264021E-06;
 -1.6000000E-01;  9.9999998E-03; -1.2000000E-01;135;  0.0000000E+00;  0.0000000E+00;  0.0000000E+00;  1.0000000E+03;  4.0000001E-01;  0.0000000E+00;0;  0.0000000E+00;  0.0000000E+00;  0.0000000E+00;0; -6.7875675E-08;  1.0000000E+04;  0.0000000E+00;  0.0000000E+00;  1.0000000E+04;  0.0000000E+00;  1.0000000E+04; -6.7963597E-08;  0.0000000E+00;  8.7921018E-11;  2.5401330E-06;
 -1.6000000E-01;  9.9999998E-03; -1.0000000E-01;136;  0.0000000E+00;  0.0000000E+00;  0.0000000E+00;  1.0000000E+03;  4.0000001E-01;  0.0000000E+00;0;  0.0000000E+00;  0.0000000E+00;  0.0000000E+00;0; -6.8855392E-08;  1.0000000E+04;  0.0000000E+00;  0.0000000E+00;  1.0000000E+04;  0.0000000E+00;  1.0000000E+04; -6.8933389E-08;  0.0000000E+00;  7.7993723E-11;  2.5439278E-06;
 -1.6000000E-01;  9.9999998E-03; -7.9999998E-02;137;  0.0000000E+00;  0.0000000E+00;  0.0000000E+00;  1.0000000E+03;  4.0000001E-01;  0.0000000E+00;0;  0.0000000E+00;  0.0000000E+00;  0.0000000E+00;0; -6.9554389E-08;  1.0000000E+04;  0.0000000E+00;  0.0000000E+00;  1.0000000E+04;  0.0000000E+00;  1.0000000E+04; -6.9623965E-08;  0.0000000E+00;  6.9579627E-11;  2.5418747E-06;
 -1.6000000E-01;  9.9999998E-03; -5.9999999E-02;138;  0.0000000E+00;  0.0000000E+00;  0.0000000E+00;  1.0000000E+03;  4.0000001E-01;  0.0000000E+00;0;  0.0000000E+00;  0.0000000E+00;  0.0000000E+00;0; -7.0038141E-08;  1.0000000E+04;  0.0000000E+00;  0.0000000E+00;  1.0000000E+04;  0.0000000E+00;  1.0000000E+04; -7.0100761E-08;  0.0000000E+00;  6.2618237E-11;  2.5361053E-06;
 -1.6000000E-01;  9.9999998E-03; -3.9999999E-02;139;  0.0000000E+00;  0.0000000E+00;  0.0000000E+00;  1.0000000E+03;  4.0000001E-01;  0.0000000E+00;0;  0.0000000E+00;  0.0000000E+00;  0.0000000E+00;0; -7.0353714E-08;  1.0000000E+04;  0.0000000E+00;  0.0000000E+00;  1.0000000E+04;  0.0000000E+00;  1.0000000E+04; -7.0410778E-08;  0.0000000E+00;  5.7062494E-11;  2.5286849E-06;
 -1.6000000E-01;  9.9999998E-03; -2.0000000E-02;140;  0.0000000E+00;  0.0000000E+00;  0.0000000E+00;  1.0000000E+03;  4.0000001E-01;  0.0000000E+00;0;  0.0000000E+00;  0.0000000E+00;  0.0000000E+00;0; -7.0531463E-08;  1.0000000E+04;  0.0000000E+00;  0.0000000E+00;  1.0000000E+04;  0.0000000E+00;  1.0000000E+04; -7.0585017E-08;  0.0000000E+00;  5.3555067E-11;  2.5230918E-06;
 -1.4000000E-01;  9.9999998E-03; -1.8000001E-01;173;  0.0000000E+00;  0.0000000E+00;  0.0000000E+00;  1.0000000E+03;  4.0000001E-01;  0.0000000E+00;0;  0.0000000E+00;  0.0000000E+00;  0.0000000E+00;0; -2.2708280E-06;  1.0000000E+04;  0.0000000E+00;  0.0000000E+00;  1.0000000E+04;  0.0000000E+00;  1.0000000E+04; -2.2856616E-06;  0.0000000E+00;  1.4833678E-08;  1.2750379E-04;
 -1.4000000E-01;  9.9999998E-03; -1.6000000E-01;174;  0.0000000E+00;  0.0000000E+00;  0.0000000E+00;  1.0000000E+03;  4.0000001E-01;  0.0000000E+00;0;  0.0000000E+00;  0.0000000E+00;  0.0000000E+00;0; -2.3655309E-06;  1.0000000E+04;  0.0000000E+00;  0.0000000E+00;  1.0000000E+04;  0.0000000E+00;  1.0000000E+04; -2.3793702E-06;  0.0000000E+00;  1.3839406E-08;  1.2758402E-04;
 -1.4000000E-01;  9.9999998E-03; -1.4000000E-01;175;  0.0000000E+00;  0.0000000E+00;  0.0000000E+00;  1.0000000E+03;  4.0000001E-01;  0.0000000E+00;0;  0.0000000E+00;  0.0000000E+00;  0.0000000E+00;0; -2.4374417E-06;  1.0000000E+04;  0.0000000E+00;  0.0000000E+00;  1.0000000E+04;  0.0000000E+00;  1.0000000E+04; -2.4499711E-06;  0.0000000E+00;  1.2529512E-08;  1.2583047E-04;
 -1.4000000E-01;  9.9999998E-03; -1.2000000E-01;176;  0.0000000E+00;  0.0000000E+00;  0.0000000E+00;  1.0000000E+03;  4.0000001E-01;  0.0000000E+00;0;  0.0000000E+00;  0.0000000E+00;  0.0000000E+00;0; -2.4911051E-06;  1.0000000E+04;  0.0000000E+00;  0.0000000E+00;  1.0000000E+04;  0.0000000E+00;  1.0000000E+04; -2.5022944E-06;  0.0000000E+00;  1.1189177E-08;  1.2333746E-04;
 -1.4000000E-01;  9.9999998E-03; -1.0000000E-01;177;  0.0000000E+00;  0.0000000E+00;  0.0000000E+00;  1.0000000E+03;  4.0000001E-01;  0.0000000E+00;0;  0.0000000E+00;  0.0000000E+00;  0.0000000E+00;0; -2.5304785E-06;  1.0000000E+04;  0.0000000E+00;  0.0000000E+00;  1.0000000E+04;  0.0000000E+00;  1.0000000E+04; -2.5404420E-06;  0.0000000E+00;  9.9634265E-09;  1.2066992E-04;
 -1.4000000E-01;  9.9999998E-03; -7.9999998E-02;178;  0.0000000E+00;  0.0000000E+00;  0.0000000E+00;  1.0000000E+03;  4.0000001E-01;  0.0000000E+00;0;  0.0000000E+00;  0.0000000E+00;  0.0000000E+00;0; -2.5587949E-06;  1.0000000E+04;  0.0000000E+00;  0.0000000E+00;  1.0000000E+04;  0.0000000E+00;  1.0000000E+04; -2.5676984E-06;  0.0000000E+00;  8.9036103E-09;  1.1807633E-04;
 -1.4000000E-01;  9.9999998E-03; -5.9999999E-02;179;  0.0000000E+00;  0.0000000E+00;  0.0000000E+00;  1.0000000E+03;  4.0000001E-01;  0.0000000E+00;0;  0.0000000E+00;  0.0000000E+00;  0.0000000E+00;0; -2.5785362E-06;  1.0000000E+04;  0.0000000E+00;  0.0000000E+00;  1.0000000E+04;  0.0000000E+00;  1.0000000E+04; -2.5865647E-06;  0.0000000E+00;  8.0285512E-09;  1.1572464E-04;
 -1.4000000E-01;  9.9999998E-03; -3.9999999E-02;180;  0.0000000E+00;  0.0000000E+00;  0.0000000E+00;  1.0000000E+03;  4.0000001E-01;  0.0000000E+00;0;  0.0000000E+00;  0.0000000E+00;  0.0000000E+00;0; -2.5914778E-06;  1.0000000E+04;  0.0000000E+00;  0.0000000E+00;  1.0000000E+04;  0.0000000E+00;  1.0000000E+04; -2.5988443E-06;  0.0000000E+00;  7.3664310E-09;  1.1382495E-04;
 -1.4000000E-01;  9.9999998E-03; -2.0000000E-02;181;  0.0000000E+00;  0.0000000E+00;  0.0000000E+00;  1.0000000E+03;  4.0000001E-01;  0.0000000E+00;0;  0.0000000E+00;  0.0000000E+00;  0.0000000E+00;0; -2.5988024E-06;  1.0000000E+04;  0.0000000E+00;  0.0000000E+00;  1.0000000E+04;  0.0000000E+00;  1.0000000E+04; -2.6057505E-06;  0.0000000E+00;  6.9481740E-09;  1.1257584E-04;
 -1.2000000E-01;  9.9999998E-03; -1.8000001E-01;214;  0.0000000E+00;  0.0000000E+00;  0.0000000E+00;  1.0000000E+03;  4.0000001E-01;  0.0000000E+00;0;  0.0000000E+00;  0.0000000E+00;  0.0000000E+00;0; -1.2681793E-05;  1.0000000E+04;  0.0000000E+00;  0.0000000E+00;  1.0000000E+04;  0.0000000E+00;  1.0000000E+04; -1.2823029E-05;  0.0000000E+00;  1.4123616E-07;  9.2978560E-04;
 -1.2000000E-01;  9.9999998E-03; -1.6000000E-01;215;  0.0000000E+00;  0.0000000E+00;  0.0000000E+00;  1.0000000E+03;  4.0000001E-01;  0.0000000E+00;0;  0.0000000E+00;  0.0000000E+00;  0.0000000E+00;0; -1.3228119E-05;  1.0000000E+04;  0.0000000E+00;  0.0000000E+00;  1.0000000E+04;  0.0000000E+00;  1.0000000E+04; -1.3361707E-05;  0.0000000E+00;  1.3358759E-07;  9.2449755E-04;
 -1.2000000E-01;  9.9999998E-03; -1.4000000E-01;216;  0.0000000E+00;  0.0000000E+00;  0.0000000E+00;  1.0000000E+03;  4.0000001E-01;  0.0000000E+00;0;  0.0000000E+00;  0.0000000E+00;  0.0000000E+00;0; -1.3646193E-05;  1.0000000E+04;  0.0000000E+00;  0.0000000E+00;  1.0000000E+04;  0.0000000E+00;  1.0000000E+04; -1.3768394E-05;  0.0000000E+00;  1.2220048E-07;  9.0185506E-04;
 -1.2000000E-01;  9.9999998E-03; -1.2000000E-01;217;  0.0000000E+00;  0.0000000E+00;  0.0000000E+00;  1.0000000E+03;  4.0000001E-01;  0.0000000E+00;0;  0.0000000E+00;  0.0000000E+00;  0.0000000E+00;0; -1.3960425E-05;  1.0000000E+04;  0.0000000E+00;  0.0000000E+00;  1.0000000E+04;  0.0000000E+00;  1.0000000E+04; -1.4070258E-05;  0.0000000E+00;  1.0983204E-07;  8.7193551E-04;
 -1.2000000E-01;  9.9999998E-03; -1.0000000E-01;218;  0.0000000E+00;  0.0000000E+00;  0.0000000E+00;  1.0000000E+03;  4.0000001E-01;  0.0000000E+00;0;  0.0000000E+00;  0.0000000E+00;  0.0000000E+00;0; -1.4192382E-05;  1.0000000E+04;  0.0000000E+00;  0.0000000E+00;  1.0000000E+04;  0.0000000E+00;  1.0000000E+04; -1.4290503E-05;  0.0000000E+00;  9.8121284E-08;  8.4080867E-04;
 -1.2000000E-01;  9.9999998E-03; -7.9999998E-02;219;  0.0000000E+00;  0.0000000E+00;  0.0000000E+00;  1.0000000E+03;  4.0000001E-01;  0.0000000E+00;0;  0.0000000E+00;  0.0000000E+00;  0.0000000E+00;0; -1.4359983E-05;  1.0000000E+04;  0.0000000E+00;  0.0000000E+00;  1.0000000E+04;  0.0000000E+00;  1.0000000E+04; -1.4447853E-05;  0.0000000E+00;  8.7869587E-08;  8.1165304E-04;
 -1.2000000E-01;  9.9999998E-03; -5.9999999E-02;220;  0.0000000E+00;  0.0000000E+00;  0.0000000E+00;  1.0000000E+03;  4.0000001E-01;  0.0000000E+00;0;  0.0000000E+00;  0.0000000E+00;  0.0000000E+00;0; -1.4477252E-05;  1.0000000E+04;  0.0000000E+00;  0.0000000E+00;  1.0000000E+04;  0.0000000E+00;  1.0000000E+04; -1.4556705E-05;  0.0000000E+00;  7.9452185E-08;  7.8634138E-04;
 -1.2000000E-01;  9.9999998E-03; -3.9999999E-02;221;  0.0000000E+00;  0.0000000E+00;  0.0000000E+00;  1.0000000E+03;  4.0000001E-01;  0.0000000E+00;0;  0.0000000E+00;  0.0000000E+00;  0.0000000E+00;0; -1.4554368E-05;  1.0000000E+04;  0.0000000E+00;  0.0000000E+00;  1.0000000E+04;  0.0000000E+00;  1.0000000E+04; -1.4627504E-05;  0.0000000E+00;  7.3136157E-08;  7.6651800E-04;
 -1.2000000E-01;  9.9999998E-03; -2.0000000E-02;222;  0.0000000E+00;  0.0000000E+00;  0.0000000E+00;  1.0000000E+03;  4.0000001E-01;  0.0000000E+00;0;  0.0000000E+00;  0.0000000E+00;  0.0000000E+00;0; -1.4598092E-05;  1.0000000E+04;  0.0000000E+00;  0.0000000E+00;  1.0000000E+04;  0.0000000E+00;  1.0000000E+04; -1.4667286E-05;  0.0000000E+00;  6.9193753E-08;  7.5379794E-04;
 -1.0000000E-01;  9.9999998E-03; -1.8000001E-01;255;  0.0000000E+00;  0.0000000E+00;  0.0000000E+00;  1.0000000E+03;  4.0000001E-01;  0.0000000E+00;0;  0.0000000E+00;  0.0000000E+00;  0.0000000E+00;0; -4.1055926E-05;  1.0000000E+04;  0.0000000E+00;  0.0000000E+00;  1.0000000E+04;  0.0000000E+00;  1.0000000E+04; -4.1689036E-05;  0.0000000E+00;  6.3310881E-07;  3.6804518E-03;
 -1.0000000E-01;  9.9999998E-03; -1.6000000E-01;256;  0.0000000E+00;  0.0000000E+00;  0.0000000E+00;  1.0000000E+03;  4.0000001E-01;  0.0000000E+00;0;  0.0000000E+00;  0.0000000E+00;  0.0000000E+00;0; -4.2861247E-05;  1.0000000E+04;  0.0000000E+00;  0.0000000E+00;  1.0000000E+04;  0.0000000E+00;  1.0000000E+04; -4.3474785E-05;  0.0000000E+00;  6.1353620E-07;  3.6867822E-03;
 -1.0000000E-01;  9.9999998E-03; -1.4000000E-01;257;  0.0000000E+00;  0.0000000E+00;  0.0000000E+00;  1.0000000E+03;  4.0000001E-01;  0.0000000E+00;0;  0.0000000E+00;  0.0000000E+00;  0.0000000E+00;0; -4.4245673E-05;  1.0000000E+04;  0.0000000E+00;  0.0000000E+00;  1.0000000E+04;  0.0000000E+00;  1.0000000E+04; -4.4811732E-05;  0.0000000E+00;  5.6605808E-07;  3.5789469E-03;
 -1.0000000E-01;  9.9999998E-03; -1.2000000E-01;258;  0.0000000E+00;  0.0000000E+00;  0.0000000E+00;  1.0000000E+03;  4.0000001E-01;  0.0000000E+00;0;  0.0000000E+00;  0.0000000E+00;  0.0000000E+00;0; -4.5291472E-05;  1.0000000E+04;  0.0000000E+00;  0.0000000E+00;  1.0000000E+04;  0.0000000E+00;  1.0000000E+04; -4.5803168E-05;  0.0000000E+00;  5.1169781E-07;  3.4339144E-03;
 -1.0000000E-01;  9.9999998E-03; -1.0000000E-01;259;  0.0000000E+00;  0.0000000E+00;  0.0000000E+00;  1.0000000E+03;  4.0000001E-01;  0.0000000E+00;0;  0.0000000E+00;  0.0000000E+00;  0.0000000E+00;0; -4.6066823E-05;  1.0000000E+04;  0.0000000E+00;  0.0000000E+00;  1.0000000E+04;  0.0000000E+00;  1.0000000E+04; -4.6525583E-05;  0.0000000E+00;  4.5876169E-07;  3.2818399E-03;
 -1.0000000E-01;  9.9999998E-03; -7.9999998E-02;260;  0.0000000E+00;  0.0000000E+00;  0.0000000E+00;  1.0000000E+03;  4.0000001E-01;  0.0000000E+00;0;  0.0000000E+00;  0.0000000E+00;  0.0000000E+00;0; -4.6629066E-05;  1.0000000E+04;  0.0000000E+00;  0.0000000E+00;  1.0000000E+04;  0.0000000E+00;  1.0000000E+04; -4.7040874E-05;  0.0000000E+00;  4.1180772E-07;  3.1399643E-03;
 -1.0000000E-01;  9.9999998E-03; -5.9999999E-02;261;  0.0000000E+00;  0.0000000E+00;  0.0000000E+00;  1.0000000E+03;  4.0000001E-01;  0.0000000E+00;0;  0.0000000E+00;  0.0000000E+00;  0.0000000E+00;0; -4.7023543E-05;  1.0000000E+04;  0.0000000E+00;  0.0000000E+00;  1.0000000E+04;  0.0000000E+00;  1.0000000E+04; -4.7396716E-05;  0.0000000E+00;  3.7317238E-07;  3.0183366E-03;
 -1.0000000E-01;  9.9999998E-03; -3.9999999E-02;262;  0.0000000E+00;  0.0000000E+00;  0.0000000E+00;  1.0000000E+03;  4.0000001E-01;  0.0000000E+00;0;  0.0000000E+00;  0.0000000E+00;  0.0000000E+00;0; -4.7283469E-05;  1.0000000E+04;  0.0000000E+00;  0.0000000E+00;  1.0000000E+04;  0.0000000E+00;  1.0000000E+04; -4.7627778E-05;  0.0000000E+00;  3.4430838E-07;  2.9244528E-03;
 -1.0000000E-01;  9.9999998E-03; -2.0000000E-02;263;  0.0000000E+00;  0.0000000E+00;  0.0000000E+00;  1.0000000E+03;  4.0000001E-01;  0.0000000E+00;0;  0.0000000E+00;  0.0000000E+00;  0.0000000E+00;0; -4.7431069E-05;  1.0000000E+04;  0.0000000E+00;  0.0000000E+00;  1.0000000E+04;  0.0000000E+00;  1.0000000E+04; -4.7757465E-05;  0.0000000E+00;  3.2639483E-07;  2.8648612E-03;
 -7.9999998E-02;  9.9999998E-03; -1.8000001E-01;296;  0.0000000E+00;  0.0000000E+00;  0.0000000E+00;  1.0000000E+03;  4.0000001E-01;  0.0000000E+00;0;  0.0000000E+00;  0.0000000E+00;  0.0000000E+00;0; -9.9847915E-05;  1.0000000E+04;  0.0000000E+00;  0.0000000E+00;  1.0000000E+04;  0.0000000E+00;  1.0000000E+04; -1.0176923E-04;  0.0000000E+00;  1.9213217E-06;  1.0453212E-02;
 -7.9999998E-02;  9.9999998E-03; -1.6000000E-01;297;  0.0000000E+00;  0.0000000E+00;  0.0000000E+00;  1.0000000E+03;  4.0000001E-01;  0.0000000E+00;0;  0.0000000E+00;  0.0000000E+00;  0.0000000E+00;0; -1.0426562E-04;  1.0000000E+04;  0.0000000E+00;  0.0000000E+00;  1.0000000E+04;  0.0000000E+00;  1.0000000E+04; -1.0617211E-04;  0.0000000E+00;  1.9064912E-06;  1.0595562E-02;
 -7.9999998E-02;  9.9999998E-03; -1.4000000E-01;298;  0.0000000E+00;  0.0000000E+00;  0.0000000E+00;  1.0000000E+03;  4.0000001E-01;  0.0000000E+00;0;  0.0000000E+00;  0.0000000E+00;  0.0000000E+00;0; -1.0765933E-04;  1.0000000E+04;  0.0000000E+00;  0.0000000E+00;  1.0000000E+04;  0.0000000E+00;  1.0000000E+04; -1.0943275E-04;  0.0000000E+00;  1.7734166E-06;  1.0273670E-02;
 -7.9999998E-02;  9.9999998E-03; -1.2000000E-01;299;  0.0000000E+00;  0.0000000E+00;  0.0000000E+00;  1.0000000E+03;  4.0000001E-01;  0.0000000E+00;0;  0.0000000E+00;  0.0000000E+00;  0.0000000E+00;0; -1.1023038E-04;  1.0000000E+04;  0.0000000E+00;  0.0000000E+00;  1.0000000E+04;  0.0000000E+00;  1.0000000E+04; -1.1184137E-04;  0.0000000E+00;  1.6109880E-06;  9.8151928E-03;
 -7.9999998E-02;  9.9999998E-03; -1.0000000E-01;300;  0.0000000E+00;  0.0000000E+00;  0.0000000E+00;  1.0000000E+03;  4.0000001E-01;  0.0000000E+00;0;  0.0000000E+00;  0.0000000E+00;  0.0000000E+00;0; -1.1214199E-04;  1.0000000E+04;  0.0000000E+00;  0.0000000E+00;  1.0000000E+04;  0.0000000E+00;  1.0000000E+04; -1.1359101E-04;  0.0000000E+00;  1.4490240E-06;  9.3281437E-03;
 -7.9999998E-02;  9.9999998E-03; -7.9999998E-02;301;  0.0000000E+00;  0.0000000E+00;  0.0000000E+00;  1.0000000E+03;  4.0000001E-01;  0.0000000E+00;0;  0.0000000E+00;  0.0000000E+00;  0.0000000E+00;0; -1.1353150E-04;  1.0000000E+04;  0.0000000E+00;  0.0000000E+00;  1.0000000E+04;  0.0000000E+00;  1.0000000E+04; -1.1483511E-04;  0.0000000E+00;  1.3036220E-06;  8.8723619E-03;
 -7.9999998E-02;  9.9999998E-03; -5.9999999E-02;302;  0.0000000E+00;  0.0000000E+00;  0.0000000E+00;  1.0000000E+03;  4.0000001E-01;  0.0000000E+00;0;  0.0000000E+00;  0.0000000E+00;  0.0000000E+00;0; -1.1450813E-04;  1.0000000E+04;  0.0000000E+00;  0.0000000E+00;  1.0000000E+04;  0.0000000E+00;  1.0000000E+04; -1.1569163E-04;  0.0000000E+00;  1.1834920E-06;  8.4831724E-03;
 -7.9999998E-02;  9.9999998E-03; -3.9999999E-02;303;  0.0000000E+00;  0.0000000E+00;  0.0000000E+00;  1.0000001E+03;  4.0000001E-01;  9.8762624E-02;0;  0.0000000E+00;  0.0000000E+00;  0.0000000E+00;0; -1.1515256E-04;  1.0000000E+04;  0.0000000E+00;  0.0000000E+00;  1.0000000E+04;  0.0000000E+00;  1.0000000E+04; -1.1624638E-04;  0.0000000E+00;  1.0938189E-06;  8.1848651E-03;
 -7.9999998E-02;  9.9999998E-03; -2.0000000E-02;304;  0.0000000E+00;  0.0000000E+00;  0.0000000E+00;  1.0000001E+03;  4.0000001E-01;  9.8762624E-02;0;  0.0000000E+00;  0.0000000E+00;  0.0000000E+00;0; -1.1551882E-04;  1.0000000E+04;  0.0000000E+00;  0.0000000E+00;  1.0000000E+04;  0.0000000E+00;  1.0000000E+04; -1.1655713E-04;  0.0000000E+00;  1.0383112E-06;  7.9967091E-03;
 -5.9999999E-02;  9.9999998E-03; -1.8000001E-01;337;  0.0000000E+00;  0.0000000E+00;  0.0000000E+00;  1.0000001E+03;  4.0000001E-01;  9.8762624E-02;0;  0.0000000E+00;  0.0000000E+00;  0.0000000E+00;0; -1.9953595E-04;  1.0000000E+04;  0.0000000E+00;  0.0000000E+00;  1.0000000E+04;  0.0000000E+00;  1.0000000E+04; -2.0414345E-04;  0.0000000E+00;  4.6074997E-06;  2.4020102E-02;
 -5.9999999E-02;  9.9999998E-03; -1.6000000E-01;338;  0.0000000E+00;  0.0000000E+00;  0.0000000E+00;  1.0000001E+03;  4.0000001E-01;  9.8762624E-02;0;  0.0000000E+00;  0.0000000E+00;  0.0000000E+00;0; -2.0827189E-04;  1.0000000E+04;  0.0000000E+00;  0.0000000E+00;  1.0000000E+04;  0.0000000E+00;  1.0000000E+04; -2.1288793E-04;  0.0000000E+00;  4.6160403E-06;  2.4449563E-02;
 -5.9999999E-02;  9.9999998E-03; -1.4000000E-01;339;  0.0000000E+00;  0.0000000E+00;  0.0000000E+00;  1.0000001E+03;  4.0000001E-01;  9.8762624E-02;0;  0.0000000E+00;  0.0000000E+00;  0.0000000E+00;0; -2.1501322E-04;  1.0000000E+04;  0.0000000E+00;  0.0000000E+00;  1.0000000E+04;  0.0000000E+00;  1.0000000E+04; -2.1934290E-04;  0.0000000E+00;  4.3296814E-06;  2.3731904E-02;
 -5.9999999E-02;  9.9999998E-03; -1.2000000E-01;340;  0.0000000E+00;  0.0000000E+00;  0.0000000E+00;  1.0000001E+03;  4.0000001E-01;  9.8762624E-02;0;  0.0000000E+00;  0.0000000E+00;  0.0000000E+00;0; -2.2012953E-04;  1.0000000E+04;  0.0000000E+00;  0.0000000E+00;  1.0000000E+04;  0.0000000E+00;  1.0000000E+04; -2.2407807E-04;  0.0000000E+00;  3.9485471E-06;  2.2607721E-02;
 -5.9999999E-02;  9.9999998E-03; -1.0000000E-01;341;  0.0000000E+00;  0.0000000E+00;  0.0000000E+00;  1.0000001E+03;  4.0000001E-01;  9.8762624E-02;0;  0.0000000E+00;  0.0000000E+00;  0.0000000E+00;0; -2.2393891E-04;  1.0000000E+04;  0.0000000E+00;  0.0000000E+00;  1.0000000E+04;  0.0000000E+00;  1.0000000E+04; -2.2750015E-04;  0.0000000E+00;  3.5612388E-06;  2.1400262E-02;
 -5.9999999E-02;  9.9999998E-03; -7.9999998E-02;342;  0.0000000E+00;  0.0000000E+00;  0.0000000E+00;  1.0000001E+03;  4.0000001E-01;  9.8762624E-02;0;  0.0000000E+00;  0.0000000E+00;  0.0000000E+00;0; -2.2671162E-04;  1.0000000E+04;  0.0000000E+00;  0.0000000E+00;  1.0000000E+04;  0.0000000E+00;  1.0000000E+04; -2.2992158E-04;  0.0000000E+00;  3.2099638E-06;  2.0265691E-02;
 -5.9999999E-02;  9.9999998E-03; -5.9999999E-02;343;  0.0000000E+00;  0.0000000E+00;  0.0000000E+00;  1.0000001E+03;  4.0000001E-01;  9.8762624E-02;0;  0.0000000E+00;  0.0000000E+00;  0.0000000E+00;0; -2.2866261E-04;  1.0000000E+04;  0.0000000E+00;  0.0000000E+00;  1.0000000E+04;  0.0000000E+00;  1.0000000E+04; -2.3158110E-04;  0.0000000E+00;  2.9184862E-06;  1.9297894E-02;
 -5.9999999E-02;  9.9999998E-03; -3.9999999E-02;344;  0.0000000E+00;  0.0000000E+00;  0.0000000E+00;  1.0000001E+03;  4.0000001E-01;  9.8762624E-02;0;  0.0000000E+00;  0.0000000E+00;  0.0000000E+00;0; -2.2995107E-04;  1.0000000E+04;  0.0000000E+00;  0.0000000E+00;  1.0000000E+04;  0.0000000E+00;  1.0000000E+04; -2.3265180E-04;  0.0000000E+00;  2.7007338E-06;  1.8558729E-02;
 -5.9999999E-02;  9.9999998E-03; -2.0000000E-02;345;  0.0000000E+00;  0.0000000E+00;  0.0000000E+00;  1.0000001E+03;  4.0000001E-01;  9.8762624E-02;0;  0.0000000E+00;  0.0000000E+00;  0.0000000E+00;0; -2.3068397E-04;  1.0000000E+04;  0.0000000E+00;  0.0000000E+00;  1.0000000E+04;  0.0000000E+00;  1.0000000E+04; -2.3325003E-04;  0.0000000E+00;  2.5660488E-06;  1.8094262E-02;
 -3.9999999E-02;  9.9999998E-03; -1.8000001E-01;378;  0.0000000E+00;  0.0000000E+00;  0.0000000E+00;  1.0000001E+03;  4.0000001E-01;  9.8762624E-02;0;  0.0000000E+00;  0.0000000E+00;  0.0000000E+00;0; -3.4309371E-04;  1.0000000E+04;  0.0000000E+00;  0.0000000E+00;  1.0000000E+04;  0.0000000E+00;  1.0000000E+04; -3.5244698E-04;  0.0000000E+00;  9.3532817E-06;  4.7349256E-02;
 -3.9999999E-02;  9.9999998E-03; -1.6000000E-01;379;  0.0000000E+00;  0.0000000E+00;  0.0000000E+00;  1.0000002E+03;  4.0000001E-01;  1.9752525E-01;0;  0.0000000E+00;  0.0000000E+00;  0.0000000E+00;0; -3.5775441E-04;  1.0000000E+04;  0.0000000E+00;  0.0000000E+00;  1.0000000E+04;  0.0000000E+00;  1.0000000E+04; -3.6714706E-04;  0.0000000E+00;  9.3926374E-06;  4.8177514E-02;
 -3.9999999E-02;  9.9999998E-03; -1.4000000E-01;380;  0.0000000E+00;  0.0000000E+00;  0.0000000E+00;  1.0000002E+03;  4.0000001E-01;  1.9752525E-01;0;  0.0000000E+00;  0.0000000E+00;  0.0000000E+00;0; -3.6911402E-04;  1.0000000E+04;  0.0000000E+00;  0.0000000E+00;  1.0000000E+04;  0.0000000E+00;  1.0000000E+04; -3.7796531E-04;  0.0000000E+00;  8.8512888E-06;  4.6747625E-02;
 -3.9999999E-02;  9.9999998E-03; -1.2000000E-01;381;  0.0000000E+00;  0.0000000E+00;  0.0000000E+00;  1.0000002E+03;  4.0000001E-01;  1.9752525E-01;0;  0.0000000E+00;  0.0000000E+00;  0.0000000E+00;0; -3.7774595E-04;  1.0000000E+04;  0.0000000E+00;  0.0000000E+00;  1.0000000E+04;  0.0000000E+00;  1.0000000E+04; -3.8584106E-04;  0.0000000E+00;  8.0951031E-06;  4.4423595E-02;
 -3.9999999E-02;  9.9999998E-03; -1.0000000E-01;382;  0.0000000E+00;  0.0000000E+00;  0.0000000E+00;  1.0000002E+03;  4.0000001E-01;  1.9752525E-01;0;  0.0000000E+00;  0.0000000E+00;  0.0000000E+00;0; -3.8417408E-04;  1.0000000E+04;  0.0000000E+00;  0.0000000E+00;  1.0000000E+04;  0.0000000E+00;  1.0000000E+04; -3.9148986E-04;  0.0000000E+00;  7.3157803E-06;  4.1910112E-02;
 -3.9999999E-02;  9.9999998E-03; -7.9999998E-02;383;  0.0000000E+00;  0.0000000E+00;  0.0000000E+00;  1.0000002E+03;  4.0000001E-01;  1.9752525E-01;0;  0.0000000E+00;  0.0000000E+00;  0.0000000E+00;0; -3.8885450E-04;  1.0000000E+04;  0.0000000E+00;  0.0000000E+00;  1.0000000E+04;  0.0000000E+00;  1.0000000E+04; -3.9545796E-04;  0.0000000E+00;  6.6034695E-06;  3.9541725E-02;
 -3.9999999E-02;  9.9999998E-03; -5.9999999E-02;384;  0.0000000E+00;  0.0000000E+00;  0.0000000E+00;  1.0000002E+03;  4.0000001E-01;  1.9752525E-01;0;  0.0000000E+00;  0.0000000E+00;  0.0000000E+00;0; -3.9214946E-04;  1.0000000E+04;  0.0000000E+00;  0.0000000E+00;  1.0000000E+04;  0.0000000E+00;  1.0000000E+04; -3.9815964E-04;  0.0000000E+00;  6.0101615E-06;  3.7521962E-02;
 -3.9999999E-02;  9.9999998E-03; -3.9999999E-02;385;  0.0000000E+00;  0.0000000E+00;  0.0000000E+00;  1.0000002E+03;  4.0000001E-01;  1.9752525E-01;0;  0.0000000E+00;  0.0000000E+00;  0.0000000E+00;0; -3.9432652E-04;  1.0000000E+04;  0.0000000E+00;  0.0000000E+00;  1.0000000E+04;  0.0000000E+00;  1.0000000E+04; -3.9989286E-04;  0.0000000E+00;  5.5663349E-06;  3.5982482E-02;
 -3.9999999E-02;  9.9999998E-03; -2.0000000E-02;386;  0.0000000E+00;  0.0000000E+00;  0.0000000E+00;  1.0000002E+03;  4.0000001E-01;  1.9752525E-01;0;  0.0000000E+00;  0.0000000E+00;  0.0000000E+00;0; -3.9556556E-04;  1.0000000E+04;  0.0000000E+00;  0.0000000E+00;  1.0000000E+04;  0.0000000E+00;  1.0000000E+04; -4.0085736E-04;  0.0000000E+00;  5.2918062E-06;  3.5017416E-02;
 -2.0000000E-02;  9.9999998E-03; -1.8000001E-01;419;  0.0000000E+00;  0.0000000E+00;  0.0000000E+00;  1.0000002E+03;  4.0000001E-01;  1.9752525E-01;0;  0.0000000E+00;  0.0000000E+00;  0.0000000E+00;0; -5.2333670E-04;  1.0000000E+04;  0.0000000E+00;  0.0000000E+00;  1.0000000E+04;  0.0000000E+00;  1.0000000E+04; -5.4001727E-04;  0.0000000E+00;  1.6680582E-05;  8.2872443E-02;
 -2.0000000E-02;  9.9999998E-03; -1.6000000E-01;420;  0.0000000E+00;  0.0000000E+00;  0.0000000E+00;  1.0000002E+03;  4.0000001E-01;  1.9752525E-01;0;  0.0000000E+00;  0.0000000E+00;  0.0000000E+00;0; -5.4487813E-04;  1.0000000E+04;  0.0000000E+00;  0.0000000E+00;  1.0000000E+04;  0.0000000E+00;  1.0000000E+04; -5.6160986E-04;  0.0000000E+00;  1.6731743E-05;  8.4090598E-02;
 -2.0000000E-02;  9.9999998E-03; -1.4000000E-01;421;  0.0000000E+00;  0.0000000E+00;  0.0000000E+00;  1.0000002E+03;  4.0000001E-01;  1.9752525E-01;0;  0.0000000E+00;  0.0000000E+00;  0.0000000E+00;0; -5.6160556E-04;  1.0000000E+04;  0.0000000E+00;  0.0000000E+00;  1.0000000E+04;  0.0000000E+00;  1.0000000E+04; -5.7739567E-04;  0.0000000E+00;  1.5790129E-05;  8.1425279E-02;
 -2.0000000E-02;  9.9999998E-03; -1.2000000E-01;422;  0.0000000E+00;  0.0000000E+00;  0.0000000E+00;  1.0000002E+03;  4.0000001E-01;  1.9752525E-01;0;  0.0000000E+00;  0.0000000E+00;  0.0000000E+00;0; -5.7431130E-04;  1.0000000E+04;  0.0000000E+00;  0.0000000E+00;  1.0000000E+04;  0.0000000E+00;  1.0000000E+04; -5.8877957E-04;  0.0000000E+00;  1.4468294E-05;  7.7189438E-02;
 -2.0000000E-02;  9.9999998E-03; -1.0000000E-01;423;  0.0000000E+00;  0.0000000E+00;  0.0000000E+00;  1.0000003E+03;  4.0000001E-01;  2.9628786E-01;0;  0.0000000E+00;  0.0000000E+00;  0.0000000E+00;0; -5.8376329E-04;  1.0000000E+04;  0.0000000E+00;  0.0000000E+00;  1.0000000E+04;  0.0000000E+00;  1.0000000E+04; -5.9685577E-04;  0.0000000E+00;  1.3092466E-05;  7.2594240E-02;
 -2.0000000E-02;  9.9999998E-03; -7.9999998E-02;424;  0.0000000E+00;  0.0000000E+00;  0.0000000E+00;  1.0000004E+03;  4.0000001E-01;  2.9628786E-01;0;  0.0000000E+00;  0.0000000E+00;  0.0000000E+00;0; -5.9064070E-04;  1.0000000E+04;  0.0000000E+00;  0.0000000E+00;  1.0000000E+04;  0.0000000E+00;  1.0000000E+04; -6.0246879E-04;  0.0000000E+00;  1.1828114E-05;  6.8259530E-02;
 -2.0000000E-02;  9.9999998E-03; -5.9999999E-02;425;  0.0000000E+00;  0.0000000E+00;  0.0000000E+00;  1.0000004E+03;  4.0000001E-01;  2.9628786E-01;0;  0.0000000E+00;  0.0000000E+00;  0.0000000E+00;0; -5.9548084E-04;  1.0000000E+04;  0.0000000E+00;  0.0000000E+00;  1.0000000E+04;  0.0000000E+00;  1.0000000E+04; -6.0625264E-04;  0.0000000E+00;  1.0771812E-05;  6.4563982E-02;
 -2.0000000E-02;  9.9999998E-03; -3.9999999E-02;426;  0.0000000E+00;  0.0000000E+00;  0.0000000E+00;  1.0000004E+03;  4.0000001E-01;  2.9628786E-01;0;  0.0000000E+00;  0.0000000E+00;  0.0000000E+00;0; -5.9867912E-04;  1.0000000E+04;  0.0000000E+00;  0.0000000E+00;  1.0000000E+04;  0.0000000E+00;  1.0000000E+04; -6.0865970E-04;  0.0000000E+00;  9.9805748E-06;  6.1751064E-02;
 -2.0000000E-02;  9.9999998E-03; -2.0000000E-02;427;  0.0000000E+00;  0.0000000E+00;  0.0000000E+00;  1.0000004E+03;  4.0000001E-01;  2.9628786E-01;0;  0.0000000E+00;  0.0000000E+00;  0.0000000E+00;0; -6.0049980E-04;  1.0000000E+04;  0.0000000E+00;  0.0000000E+00;  1.0000000E+04;  0.0000000E+00;  1.0000000E+04; -6.0999079E-04;  0.0000000E+00;  9.4910083E-06;  5.9990689E-02;
 -2.2000000E-01;  9.9999998E-03;  0.0000000E+00;19;  0.0000000E+00;  0.0000000E+00;  0.0000000E+00;  1.0000000E+03;  4.0000001E-01;  0.0000000E+00;0;  0.0000000E+00;  0.0000000E+00;  0.0000000E+00;0;  0.0000000E+00;  1.0000000E+04;  0.0000000E+00;  0.0000000E+00;  1.0000000E+04;  0.0000000E+00;  1.0000000E+04;  0.0000000E+00;  0.0000000E+00;  0.0000000E+00;  0.0000000E+00;
 -2.2000000E-01;  9.9999998E-03;  2.0000000E-02;20;  0.0000000E+00;  0.0000000E+00;  0.0000000E+00;  1.0000000E+03;  4.0000001E-01;  0.0000000E+00;0;  0.0000000E+00;  0.0000000E+00;  0.0000000E+00;0;  0.0000000E+00;  1.0000000E+04;  0.0000000E+00;  0.0000000E+00;  1.0000000E+04;  0.0000000E+00;  1.0000000E+04;  0.0000000E+00;  0.0000000E+00;  0.0000000E+00;  0.0000000E+00;
 -2.2000000E-01;  9.9999998E-03;  3.9999999E-02;21;  0.0000000E+00;  0.0000000E+00;  0.0000000E+00;  1.0000000E+03;  4.0000001E-01;  0.0000000E+00;0;  0.0000000E+00;  0.0000000E+00;  0.0000000E+00;0;  0.0000000E+00;  1.0000000E+04;  0.0000000E+00;  0.0000000E+00;  1.0000000E+04;  0.0000000E+00;  1.0000000E+04;  0.0000000E+00;  0.0000000E+00;  0.0000000E+00;  0.0000000E+00;
 -2.2000000E-01;  9.9999998E-03;  5.9999999E-02;22;  0.0000000E+00;  0.0000000E+00;  0.0000000E+00;  1.0000000E+03;  4.0000001E-01;  0.0000000E+00;0;  0.0000000E+00;  0.0000000E+00;  0.0000000E+00;0;  0.0000000E+00;  1.0000000E+04;  0.0000000E+00;  0.0000000E+00;  1.0000000E+04;  0.0000000E+00;  1.0000000E+04;  0.0000000E+00;  0.0000000E+00;  0.0000000E+00;  0.0000000E+00;
 -2.2000000E-01;  9.9999998E-03;  7.9999998E-02;23;  0.0000000E+00;  0.0000000E+00;  0.0000000E+00;  1.0000000E+03;  4.0000001E-01;  0.0000000E+00;0;  0.0000000E+00;  0.0000000E+00;  0.0000000E+00;0;  0.0000000E+00;  1.0000000E+04;  0.0000000E+00;  0.0000000E+00;  1.0000000E+04;  0.0000000E+00;  1.0000000E+04;  0.0000000E+00;  0.0000000E+00;  0.0000000E+00;  0.0000000E+00;
 -2.2000000E-01;  9.9999998E-03;  1.0000000E-01;24;  0.0000000E+00;  0.0000000E+00;  0.0000000E+00;  1.0000000E+03;  4.0000001E-01;  0.0000000E+00;0;  0.0000000E+00;  0.0000000E+00;  0.0000000E+00;0;  0.0000000E+00;  1.0000000E+04;  0.0000000E+00;  0.0000000E+00;  1.0000000E+04;  0.0000000E+00;  1.0000000E+04;  0.0000000E+00;  0.0000000E+00;  0.0000000E+00;  0.0000000E+00;
 -2.2000000E-01;  9.9999998E-03;  1.2000000E-01;25;  0.0000000E+00;  0.0000000E+00;  0.0000000E+00;  1.0000000E+03;  4.0000001E-01;  0.0000000E+00;0;  0.0000000E+00;  0.0000000E+00;  0.0000000E+00;0;  0.0000000E+00;  1.0000000E+04;  0.0000000E+00;  0.0000000E+00;  1.0000000E+04;  0.0000000E+00;  1.0000000E+04;  0.0000000E+00;  0.0000000E+00;  0.0000000E+00;  0.0000000E+00;
 -2.2000000E-01;  9.9999998E-03;  1.4000000E-01;26;  0.0000000E+00;  0.0000000E+00;  0.0000000E+00;  1.0000000E+03;  4.0000001E-01;  0.0000000E+00;0;  0.0000000E+00;  0.0000000E+00;  0.0000000E+00;0;  0.0000000E+00;  1.0000000E+04;  0.0000000E+00;  0.0000000E+00;  1.0000000E+04;  0.0000000E+00;  1.0000000E+04;  0.0000000E+00;  0.0000000E+00;  0.0000000E+00;  0.0000000E+00;
 -2.0000000E-01;  9.9999998E-03;  0.0000000E+00;59;  0.0000000E+00;  0.0000000E+00;  0.0000000E+00;  1.0000000E+03;  4.0000001E-01;  0.0000000E+00;0;  0.0000000E+00;  0.0000000E+00;  0.0000000E+00;0;  0.0000000E+00;  1.0000000E+04;  0.0000000E+00;  0.0000000E+00;  1.0000000E+04;  0.0000000E+00;  1.0000000E+04;  0.0000000E+00;  0.0000000E+00;  0.0000000E+00;  0.0000000E+00;
 -2.0000000E-01;  9.9999998E-03;  2.0000000E-02;60;  0.0000000E+00;  0.0000000E+00;  0.0000000E+00;  1.0000000E+03;  4.0000001E-01;  0.0000000E+00;0;  0.0000000E+00;  0.0000000E+00;  0.0000000E+00;0;  0.0000000E+00;  1.0000000E+04;  0.0000000E+00;  0.0000000E+00;  1.0000000E+04;  0.0000000E+00;  1.0000000E+04;  0.0000000E+00;  0.0000000E+00;  0.0000000E+00;  0.0000000E+00;
 -2.0000000E-01;  9.9999998E-03;  3.9999999E-02;61;  0.0000000E+00;  0.0000000E+00;  0.0000000E+00;  1.0000000E+03;  4.0000001E-01;  0.0000000E+00;0;  0.0000000E+00;  0.0000000E+00;  0.0000000E+00;0;  0.0000000E+00;  1.0000000E+04;  0.0000000E+00;  0.0000000E+00;  1.0000000E+04;  0.0000000E+00;  1.0000000E+04;  0.0000000E+00;  0.0000000E+00;  0.0000000E+00;  0.0000000E+00;
 -2.0000000E-01;  9.9999998E-03;  5.9999999E-02;62;  0.0000000E+00;  0.0000000E+00;  0.0000000E+00;  1.0000000E+03;  4.0000001E-01;  0.0000000E+00;0;  0.0000000E+00;  0.0000000E+00;  0.0000000E+00;0;  0.0000000E+00;  1.0000000E+04;  0.0000000E+00;  0.0000000E+00;  1.0000000E+04;  0.0000000E+00;  1.0000000E+04;  0.0000000E+00;  0.0000000E+00;  0.0000000E+00;  0.0000000E+00;
 -2.0000000E-01;  9.9999998E-03;  7.9999998E-02;63;  0.0000000E+00;  0.0000000E+00;  0.0000000E+00;  1.0000000E+03;  4.0000001E-01;  0.0000000E+00;0;  0.0000000E+00;  0.0000000E+00;  0.0000000E+00;0;  0.0000000E+00;  1.0000000E+04;  0.0000000E+00;  0.0000000E+00;  1.0000000E+04;  0.0000000E+00;  1.0000000E+04;  0.0000000E+00;  0.0000000E+00;  0.0000000E+00;  0.0000000E+00;
 -2.0000000E-01;  9.9999998E-03;  1.0000000E-01;64;  0.0000000E+00;  0.0000000E+00;  0.0000000E+00;  1.0000000E+03;  4.0000001E-01;  0.0000000E+00;0;  0.0000000E+00;  0.0000000E+00;  0.0000000E+00;0;  0.0000000E+00;  1.0000000E+04;  0.0000000E+00;  0.0000000E+00;  1.0000000E+04;  0.0000000E+00;  1.0000000E+04;  0.0000000E+00;  0.0000000E+00;  0.0000000E+00;  0.0000000E+00;
 -2.0000000E-01;  9.9999998E-03;  1.2000000E-01;65;  0.0000000E+00;  0.0000000E+00;  0.0000000E+00;  1.0000000E+03;  4.0000001E-01;  0.0000000E+00;0;  0.0000000E+00;  0.0000000E+00;  0.0000000E+00;0;  0.0000000E+00;  1.0000000E+04;  0.0000000E+00;  0.0000000E+00;  1.0000000E+04;  0.0000000E+00;  1.0000000E+04;  0.0000000E+00;  0.0000000E+00;  0.0000000E+00;  0.0000000E+00;
 -2.0000000E-01;  9.9999998E-03;  1.4000000E-01;66;  0.0000000E+00;  0.0000000E+00;  0.0000000E+00;  1.0000000E+03;  4.0000001E-01;  0.0000000E+00;0;  0.0000000E+00;  0.0000000E+00;  0.0000000E+00;0;  0.0000000E+00;  1.0000000E+04;  0.0000000E+00;  0.0000000E+00;  1.0000000E+04;  0.0000000E+00;  1.0000000E+04;  0.0000000E+00;  0.0000000E+00;  0.0000000E+00;  0.0000000E+00;
 -1.8000001E-01;  9.9999998E-03;  0.0000000E+00;100;  0.0000000E+00;  0.0000000E+00;  0.0000000E+00;  1.0000000E+03;  4.0000001E-01;  0.0000000E+00;0;  0.0000000E+00;  0.0000000E+00;  0.0000000E+00;0;  0.0000000E+00;  1.0000000E+04;  0.0000000E+00;  0.0000000E+00;  1.0000000E+04;  0.0000000E+00;  1.0000000E+04;  0.0000000E+00;  0.0000000E+00;  0.0000000E+00;  0.0000000E+00;
 -1.8000001E-01;  9.9999998E-03;  2.0000000E-02;101;  0.0000000E+00;  0.0000000E+00;  0.0000000E+00;  1.0000000E+03;  4.0000001E-01;  0.0000000E+00;0;  0.0000000E+00;  0.0000000E+00;  0.0000000E+00;0;  0.0000000E+00;  1.0000000E+04;  0.0000000E+00;  0.0000000E+00;  1.0000000E+04;  0.0000000E+00;  1.0000000E+04;  0.0000000E+00;  0.0000000E+00;  0.0000000E+00;  0.0000000E+00;
 -1.8000001E-01;  9.9999998E-03;  3.9999999E-02;102;  0.0000000E+00;  0.0000000E+00;  0.0000000E+00;  1.0000000E+03;  4.0000001E-01;  0.0000000E+00;0;  0.0000000E+00;  0.0000000E+00;  0.0000000E+00;0;  0.0000000E+00;  1.0000000E+04;  0.0000000E+00;  0.0000000E+00;  1.0000000E+04;  0.0000000E+00;  1.0000000E+04;  0.0000000E+00;  0.0000000E+00;  0.0000000E+00;  0.0000000E+00;
 -1.8000001E-01;  9.9999998E-03;  5.9999999E-02;103;  0.0000000E+00;  0.0000000E+00;  0.0000000E+00;  1.0000000E+03;  4.0000001E-01;  0.0000000E+00;0;  0.0000000E+00;  0.0000000E+00;  0.0000000E+00;0;  0.0000000E+00;  1.0000000E+04;  0.0000000E+00;  0.0000000E+00;  1.0000000E+04;  0.0000000E+00;  1.0000000E+04;  0.0000000E+00;  0.0000000E+00;  0.0000000E+00;  0.0000000E+00;
 -1.8000001E-01;  9.9999998E-03;  7.9999998E-02;104;  0.0000000E+00;  0.0000000E+00;  0.0000000E+00;  1.0000000E+03;  4.0000001E-01;  0.0000000E+00;0;  0.0000000E+00;  0.0000000E+00;  0.0000000E+00;0;  0.0000000E+00;  1.0000000E+04;  0.0000000E+00;  0.0000000E+00;  1.0000000E+04;  0.0000000E+00;  1.0000000E+04;  0.0000000E+00;  0.0000000E+00;  0.0000000E+00;  0.0000000E+00;
 -1.8000001E-01;  9.9999998E-03;  1.0000000E-01;105;  0.0000000E+00;  0.0000000E+00;  0.0000000E+00;  1.0000000E+03;  4.0000001E-01;  0.0000000E+00;0;  0.0000000E+00;  0.0000000E+00;  0.0000000E+00;0;  0.0000000E+00;  1.0000000E+04;  0.0000000E+00;  0.0000000E+00;  1.0000000E+04;  0.0000000E+00;  1.0000000E+04;  0.0000000E+00;  0.0000000E+00;  0.0000000E+00;  0.0000000E+00;
 -1.8000001E-01;  9.9999998E-03;  1.2000000E-01;106;  0.0000000E+00;  0.0000000E+00;  0.0000000E+00;  1.0000000E+03;  4.0000001E-01;  0.0000000E+00;0;  0.0000000E+00;  0.0000000E+00;  0.0000000E+00;0;  0.0000000E+00;  1.0000000E+04;  0.0000000E+00;  0.0000000E+00;  1.0000000E+04;  0.0000000E+00;  1.0000000E+04;  0.0000000E+00;  0.0000000E+00;  0.0000000E+00;  0.0000000E+00;
 -1.8000001E-01;  9.9999998E-03;  1.4000000E-01;107;  0.0000000E+00;  0.0000000E+00;  0.0000000E+00;  1.0000000E+03;  4.0000001E-01;  0.0000000E+00;0;  0.0000000E+00;  0.0000000E+00;  0.0000000E+00;0;  0.0000000E+00;  1.0000000E+04;  0.0000000E+00;  0.0000000E+00;  1.0000000E+04;  0.0000000E+00;  1.0000000E+04;  0.0000000E+00;  0.0000000E+00;  0.0000000E+00;  0.0000000E+00;
 -1.6000000E-01;  9.9999998E-03;  0.0000000E+00;141;  0.0000000E+00;  0.0000000E+00;  0.0000000E+00;  1.0000000E+03;  4.0000001E-01;  0.0000000E+00;0;  0.0000000E+00;  0.0000000E+00;  0.0000000E+00;0; -7.0588790E-08;  1.0000000E+04;  0.0000000E+00;  0.0000000E+00;  1.0000000E+04;  0.0000000E+00;  1.0000000E+04; -7.0641192E-08;  0.0000000E+00;  5.2404043E-11;  2.5211432E-06;
 -1.6000000E-01;  9.9999998E-03;  2.0000000E-02;142;  0.0000000E+00;  0.0000000E+00;  0.0000000E+00;  1.0000000E+03;  4.0000001E-01;  0.0000000E+00;0;  0.0000000E+00;  0.0000000E+00;  0.0000000E+00;0; -7.0531478E-08;  1.0000000E+04;  0.0000000E+00;  0.0000000E+00;  1.0000000E+04;  0.0000000E+00;  1.0000000E+04; -7.0585031E-08;  0.0000000E+00;  5.3554938E-11;  2.5230920E-06;
 -1.6000000E-01;  9.9999998E-03;  3.9999999E-02;143;  0.0000000E+00;  0.0000000E+00;  0.0000000E+00;  1.0000000E+03;  4.0000001E-01;  0.0000000E+00;0;  0.0000000E+00;  0.0000000E+00;  0.0000000E+00;0; -7.0353728E-08;  1.0000000E+04;  0.0000000E+00;  0.0000000E+00;  1.0000000E+04;  0.0000000E+00;  1.0000000E+04; -7.0410792E-08;  0.0000000E+00;  5.7062445E-11;  2.5286852E-06;
 -1.6000000E-01;  9.9999998E-03;  5.9999999E-02;144;  0.0000000E+00;  0.0000000E+00;  0.0000000E+00;  1.0000000E+03;  4.0000001E-01;  0.0000000E+00;0;  0.0000000E+00;  0.0000000E+00;  0.0000000E+00;0; -7.0038148E-08;  1.0000000E+04;  0.0000000E+00;  0.0000000E+00;  1.0000000E+04;  0.0000000E+00;  1.0000000E+04; -7.0100768E-08;  0.0000000E+00;  6.2618320E-11;  2.5361057E-06;
 -1.6000000E-01;  9.9999998E-03;  7.9999998E-02;145;  0.0000000E+00;  0.0000000E+00;  0.0000000E+00;  1.0000000E+03;  4.0000001E-01;  0.0000000E+00;0;  0.0000000E+00;  0.0000000E+00;  0.0000000E+00;0; -6.9554389E-08;  1.0000000E+04;  0.0000000E+00;  0.0000000E+00;  1.0000000E+04;  0.0000000E+00;  1.0000000E+04; -6.9623965E-08;  0.0000000E+00;  6.9579724E-11;  2.5418749E-06;
 -1.6000000E-01;  9.9999998E-03;  1.0000000E-01;146;  0.0000000E+00;  0.0000000E+00;  0.0000000E+00;  1.0000000E+03;  4.0000001E-01;  0.0000000E+00;0;  0.0000000E+00;  0.0000000E+00;  0.0000000E+00;0; -6.8855400E-08;  1.0000000E+04;  0.0000000E+00;  0.0000000E+00;  1.0000000E+04;  0.0000000E+00;  1.0000000E+04; -6.8933396E-08;  0.0000000E+00;  7.7993903E-11;  2.5439285E-06;
 -1.6000000E-01;  9.9999998E-03;  1.2000000E-01;147;  0.0000000E+00;  0.0000000E+00;  0.0000000E+00;  1.0000000E+03;  4.0000001E-01;  0.0000000E+00;0;  0.0000000E+00;  0.0000000E+00;  0.0000000E+00;0; -6.7875675E-08;  1.0000000E+04;  0.0000000E+00;  0.0000000E+00;  1.0000000E+04;  0.0000000E+00;  1.0000000E+04; -6.7963597E-08;  0.0000000E+00;  8.7921309E-11;  2.5401334E-06;
 -1.6000000E-01;  9.9999998E-03;  1.4000000E-01;148;  0.0000000E+00;  0.0000000E+00;  0.0000000E+00;  1.0000000E+03;  4.0000001E-01;  0.0000000E+00;0;  0.0000000E+00;  0.0000000E+00;  0.0000000E+00;0; -6.6529523E-08;  1.0000000E+04;  0.0000000E+00;  0.0000000E+00;  1.0000000E+04;  0.0000000E+00;  1.0000000E+04; -6.6628374E-08;  0.0000000E+00;  9.8850039E-11;  2.5264017E-06;
 -1.4000000E-01;  9.9999998E-03;  0.0000000E+00;182;  0.0000000E+00;  0.0000000E+00;  0.0000000E+00;  1.0000000E+03;  4.0000001E-01;  0.0000000E+00;0;  0.0000000E+00;  0.0000000E+00;  0.0000000E+00;0; -2.6011735E-06;  1.0000000E+04;  0.0000000E+00;  0.0000000E+00;  1.0000000E+04;  0.0000000E+00;  1.0000000E+04; -2.6079774E-06;  0.0000000E+00;  6.8040125E-09;  1.1213742E-04;
 -1.4000000E-01;  9.9999998E-03;  2.0000000E-02;183;  0.0000000E+00;  0.0000000E+00;  0.0000000E+00;  1.0000000E+03;  4.0000001E-01;  0.0000000E+00;0;  0.0000000E+00;  0.0000000E+00;  0.0000000E+00;0; -2.5988027E-06;  1.0000000E+04;  0.0000000E+00;  0.0000000E+00;  1.0000000E+04;  0.0000000E+00;  1.0000000E+04; -2.6057508E-06;  0.0000000E+00;  6.9481709E-09;  1.1257586E-04;
 -1.4000000E-01;  9.9999998E-03;  3.9999999E-02;184;  0.0000000E+00;  0.0000000E+00;  0.0000000E+00;  1.0000000E+03;  4.0000001E-01;  0.0000000E+00;0;  0.0000000E+00;  0.0000000E+00;  0.0000000E+00;0; -2.5914776E-06;  1.0000000E+04;  0.0000000E+00;  0.0000000E+00;  1.0000000E+04;  0.0000000E+00;  1.0000000E+04; -2.5988440E-06;  0.0000000E+00;  7.3664306E-09;  1.1382495E-04;
 -1.4000000E-01;  9.9999998E-03;  5.9999999E-02;185;  0.0000000E+00;  0.0000000E+00;  0.0000000E+00;  1.0000000E+03;  4.0000001E-01;  0.0000000E+00;0;  0.0000000E+00;  0.0000000E+00;  0.0000000E+00;0; -2.5785362E-06;  1.0000000E+04;  0.0000000E+00;  0.0000000E+00;  1.0000000E+04;  0.0000000E+00;  1.0000000E+04; -2.5865647E-06;  0.0000000E+00;  8.0285547E-09;  1.1572467E-04;
 -1.4000000E-01;  9.9999998E-03;  7.9999998E-02;186;  0.0000000E+00;  0.0000000E+00;  0.0000000E+00;  1.0000000E+03;  4.0000001E-01;  0.0000000E+00;0;  0.0000000E+00;  0.0000000E+00;  0.0000000E+00;0; -2.5587949E-06;  1.0000000E+04;  0.0000000E+00;  0.0000000E+00;  1.0000000E+04;  0.0000000E+00;  1.0000000E+04; -2.5676986E-06;  0.0000000E+00;  8.9036245E-09;  1.1807638E-04;
 -1.4000000E-01;  9.9999998E-03;  1.0000000E-01;187;  0.0000000E+00;  0.0000000E+00;  0.0000000E+00;  1.0000000E+03;  4.0000001E-01;  0.0000000E+00;0;  0.0000000E+00;  0.0000000E+00;  0.0000000E+00;0; -2.5304785E-06;  1.0000000E+04;  0.0000000E+00;  0.0000000E+00;  1.0000000E+04;  0.0000000E+00;  1.0000000E+04; -2.5404420E-06;  0.0000000E+00;  9.9634461E-09;  1.2066997E-04;
 -1.4000000E-01;  9.9999998E-03;  1.2000000E-01;188;  0.0000000E+00;  0.0000000E+00;  0.0000000E+00;  1.0000000E+03;  4.0000001E-01;  0.0000000E+00;0;  0.0000000E+00;  0.0000000E+00;  0.0000000E+00;0; -2.4911049E-06;  1.0000000E+04;  0.0000000E+00;  0.0000000E+00;  1.0000000E+04;  0.0000000E+00;  1.0000000E+04; -2.5022941E-06;  0.0000000E+00;  1.1189192E-08;  1.2333749E-04;
 -1.4000000E-01;  9.9999998E-03;  1.4000000E-01;189;  0.0000000E+00;  0.0000000E+00;  0.0000000E+00;  1.0000000E+03;  4.0000001E-01;  0.0000000E+00;0;  0.0000000E+00;  0.0000000E+00;  0.0000000E+00;0; -2.4374417E-06;  1.0000000E+04;  0.0000000E+00;  0.0000000E+00;  1.0000000E+04;  0.0000000E+00;  1.0000000E+04; -2.4499711E-06;  0.0000000E+00;  1.2529519E-08;  1.2583048E-04;
 -1.2000000E-01;  9.9999998E-03;  0.0000000E+00;223;  0.0000000E+00;  0.0000000E+00;  0.0000000E+00;  1.0000000E+03;  4.0000001E-01;  0.0000000E+00;0;  0.0000000E+00;  0.0000000E+00;  0.0000000E+00;0; -1.4612256E-05;  1.0000000E+04;  0.0000000E+00;  0.0000000E+00;  1.0000000E+04;  0.0000000E+00;  1.0000000E+04; -1.4680106E-05;  0.0000000E+00;  6.7849768E-08;  7.4940361E-04;
 -1.2000000E-01;  9.9999998E-03;  2.0000000E-02;224;  0.0000000E+00;  0.0000000E+00;  0.0000000E+00;  1.0000000E+03;  4.0000001E-01;  0.0000000E+00;0;  0.0000000E+00;  0.0000000E+00;  0.0000000E+00;0; -1.4598088E-05;  1.0000000E+04;  0.0000000E+00;  0.0000000E+00;  1.0000000E+04;  0.0000000E+00;  1.0000000E+04; -1.4667281E-05;  0.0000000E+00;  6.9193746E-08;  7.5379794E-04;
 -1.2000000E-01;  9.9999998E-03;  3.9999999E-02;225;  0.0000000E+00;  0.0000000E+00;  0.0000000E+00;  1.0000000E+03;  4.0000001E-01;  0.0000000E+00;0;  0.0000000E+00;  0.0000000E+00;  0.0000000E+00;0; -1.4554366E-05;  1.0000000E+04;  0.0000000E+00;  0.0000000E+00;  1.0000000E+04;  0.0000000E+00;  1.0000000E+04; -1.4627502E-05;  0.0000000E+00;  7.3136142E-08;  7.6651806E-04;
 -1.2000000E-01;  9.9999998E-03;  5.9999999E-02;226;  0.0000000E+00;  0.0000000E+00;  0.0000000E+00;  1.0000000E+03;  4.0000001E-01;  0.0000000E+00;0;  0.0000000E+00;  0.0000000E+00;  0.0000000E+00;0; -1.4477248E-05;  1.0000000E+04;  0.0000000E+00;  0.0000000E+00;  1.0000000E+04;  0.0000000E+00;  1.0000000E+04; -1.4556700E-05;  0.0000000E+00;  7.9452249E-08;  7.8634149E-04;
 -1.2000000E-01;  9.9999998E-03;  7.9999998E-02;227;  0.0000000E+00;  0.0000000E+00;  0.0000000E+00;  1.0000000E+03;  4.0000001E-01;  0.0000000E+00;0;  0.0000000E+00;  0.0000000E+00;  0.0000000E+00;0; -1.4359985E-05;  1.0000000E+04;  0.0000000E+00;  0.0000000E+00;  1.0000000E+04;  0.0000000E+00;  1.0000000E+04; -1.4447854E-05;  0.0000000E+00;  8.7869708E-08;  8.1165339E-04;
 -1.2000000E-01;  9.9999998E-03;  1.0000000E-01;228;  0.0000000E+00;  0.0000000E+00;  0.0000000E+00;  1.0000000E+03;  4.0000001E-01;  0.0000000E+00;0;  0.0000000E+00;  0.0000000E+00;  0.0000000E+00;0; -1.4192384E-05;  1.0000000E+04;  0.0000000E+00;  0.0000000E+00;  1.0000000E+04;  0.0000000E+00;  1.0000000E+04; -1.4290506E-05;  0.0000000E+00;  9.8121419E-08;  8.4080902E-04;
 -1.2000000E-01;  9.9999998E-03;  1.2000000E-01;229;  0.0000000E+00;  0.0000000E+00;  0.0000000E+00;  1.0000000E+03;  4.0000001E-01;  0.0000000E+00;0;  0.0000000E+00;  0.0000000E+00;  0.0000000E+00;0; -1.3960432E-05;  1.0000000E+04;  0.0000000E+00;  0.0000000E+00;  1.0000000E+04;  0.0000000E+00;  1.0000000E+04; -1.4070264E-05;  0.0000000E+00;  1.0983216E-07;  8.7193598E-04;
 -1.2000000E-01;  9.9999998E-03;  1.4000000E-01;230;  0.0000000E+00;  0.0000000E+00;  0.0000000E+00;  1.0000000E+03;  4.0000001E-01;  0.0000000E+00;0;  0.0000000E+00;  0.0000000E+00;  0.0000000E+00;0; -1.3646192E-05;  1.0000000E+04;  0.0000000E+00;  0.0000000E+00;  1.0000000E+04;  0.0000000E+00;  1.0000000E+04; -1.3768393E-05;  0.0000000E+00;  1.2220053E-07;  9.0185506E-04;
 -1.0000000E-01;  9.9999998E-03;  0.0000000E+00;264;  0.0000000E+00;  0.0000000E+00;  0.0000000E+00;  1.0000000E+03;  4.0000001E-01;  0.0000000E+00;0;  0.0000000E+00;  0.0000000E+00;  0.0000000E+00;0; -4.7478909E-05;  1.0000000E+04;  0.0000000E+00;  0.0000000E+00;  1.0000000E+04;  0.0000000E+00;  1.0000000E+04; -4.7799225E-05;  0.0000000E+00;  3.2031534E-07;  2.8444091E-03;
 -1.0000000E-01;  9.9999998E-03;  2.0000000E-02;265;  0.0000000E+00;  0.0000000E+00;  0.0000000E+00;  1.0000000E+03;  4.0000001E-01;  0.0000000E+00;0;  0.0000000E+00;  0.0000000E+00;  0.0000000E+00;0; -4.7431076E-05;  1.0000000E+04;  0.0000000E+00;  0.0000000E+00;  1.0000000E+04;  0.0000000E+00;  1.0000000E+04; -4.7757472E-05;  0.0000000E+00;  3.2639485E-07;  2.8648609E-03;
 -1.0000000E-01;  9.9999998E-03;  3.9999999E-02;266;  0.0000000E+00;  0.0000000E+00;  0.0000000E+00;  1.0000000E+03;  4.0000001E-01;  0.0000000E+00;0;  0.0000000E+00;  0.0000000E+00;  0.0000000E+00;0; -4.7283469E-05;  1.0000000E+04;  0.0000000E+00;  0.0000000E+00;  1.0000000E+04;  0.0000000E+00;  1.0000000E+04; -4.7627778E-05;  0.0000000E+00;  3.4430843E-07;  2.9244525E-03;
 -1.0000000E-01;  9.9999998E-03;  5.9999999E-02;267;  0.0000000E+00;  0.0000000E+00;  0.0000000E+00;  1.0000000E+03;  4.0000001E-01;  0.0000000E+00;0;  0.0000000E+00;  0.0000000E+00;  0.0000000E+00;0; -4.7023550E-05;  1.0000000E+04;  0.0000000E+00;  0.0000000E+00;  1.0000000E+04;  0.0000000E+00;  1.0000000E+04; -4.7396723E-05;  0.0000000E+00;  3.7317253E-07;  3.0183373E-03;
 -1.0000000E-01;  9.9999998E-03;  7.9999998E-02;268;  0.0000000E+00;  0.0000000E+00;  0.0000000E+00;  1.0000000E+03;  4.0000001E-01;  0.0000000E+00;0;  0.0000000E+00;  0.0000000E+00;  0.0000000E+00;0; -4.6629073E-05;  1.0000000E+04;  0.0000000E+00;  0.0000000E+00;  1.0000000E+04;  0.0000000E+00;  1.0000000E+04; -4.7040881E-05;  0.0000000E+00;  4.1180817E-07;  3.1399655E-03;
 -1.0000000E-01;  9.9999998E-03;  1.0000000E-01;269;  0.0000000E+00;  0.0000000E+00;  0.0000000E+00;  1.0000000E+03;  4.0000001E-01;  0.0000000E+00;0;  0.0000000E+00;  0.0000000E+00;  0.0000000E+00;0; -4.6066816E-05;  1.0000000E+04;  0.0000000E+00;  0.0000000E+00;  1.0000000E+04;  0.0000000E+00;  1.0000000E+04; -4.6525580E-05;  0.0000000E+00;  4.5876212E-07;  3.2818406E-03;
 -1.0000000E-01;  9.9999998E-03;  1.2000000E-01;270;  0.0000000E+00;  0.0000000E+00;  0.0000000E+00;  1.0000000E+03;  4.0000001E-01;  0.0000000E+00;0;  0.0000000E+00;  0.0000000E+00;  0.0000000E+00;0; -4.5291476E-05;  1.0000000E+04;  0.0000000E+00;  0.0000000E+00;  1.0000000E+04;  0.0000000E+00;  1.0000000E+04; -4.5803175E-05;  0.0000000E+00;  5.1169815E-07;  3.4339156E-03;
 -1.0000000E-01;  9.9999998E-03;  1.4000000E-01;271;  0.0000000E+00;  0.0000000E+00;  0.0000000E+00;  1.0000000E+03;  4.0000001E-01;  0.0000000E+00;0;  0.0000000E+00;  0.0000000E+00;  0.0000000E+00;0; -4.4245677E-05;  1.0000000E+04;  0.0000000E+00;  0.0000000E+00;  1.0000000E+04;  0.0000000E+00;  1.0000000E+04; -4.4811735E-05;  0.0000000E+00;  5.6605836E-07;  3.5789481E-03;
 -7.9999998E-02;  9.9999998E-03;  0.0000000E+00;305;  0.0000000E+00;  0.0000000E+00;  0.0000000E+00;  1.0000001E+03;  4.0000001E-01;  9.8762624E-02;0;  0.0000000E+00;  0.0000000E+00;  0.0000000E+00;0; -1.1563765E-04;  1.0000000E+04;  0.0000000E+00;  0.0000000E+00;  1.0000000E+04;  0.0000000E+00;  1.0000000E+04; -1.1665715E-04;  0.0000000E+00;  1.0195023E-06;  7.9323277E-03;
 -7.9999998E-02;  9.9999998E-03;  2.0000000E-02;306;  0.0000000E+00;  0.0000000E+00;  0.0000000E+00;  1.0000001E+03;  4.0000001E-01;  9.8762624E-02;0;  0.0000000E+00;  0.0000000E+00;  0.0000000E+00;0; -1.1551882E-04;  1.0000000E+04;  0.0000000E+00;  0.0000000E+00;  1.0000000E+04;  0.0000000E+00;  1.0000000E+04; -1.1655713E-04;  0.0000000E+00;  1.0383112E-06;  7.9967091E-03;
 -7.9999998E-02;  9.9999998E-03;  3.9999999E-02;307;  0.0000000E+00;  0.0000000E+00;  0.0000000E+00;  1.0000001E+03;  4.0000001E-01;  9.8762624E-02;0;  0.0000000E+00;  0.0000000E+00;  0.0000000E+00;0; -1.1515261E-04;  1.0000000E+04;  0.0000000E+00;  0.0000000E+00;  1.0000000E+04;  0.0000000E+00;  1.0000000E+04; -1.1624643E-04;  0.0000000E+00;  1.0938195E-06;  8.1848670E-03;
 -7.9999998E-02;  9.9999998E-03;  5.9999999E-02;308;  0.0000000E+00;  0.0000000E+00;  0.0000000E+00;  1.0000000E+03;  4.0000001E-01;  0.0000000E+00;0;  0.0000000E+00;  0.0000000E+00;  0.0000000E+00;0; -1.1450814E-04;  1.0000000E+04;  0.0000000E+00;  0.0000000E+00;  1.0000000E+04;  0.0000000E+00;  1.0000000E+04; -1.1569163E-04;  0.0000000E+00;  1.1834924E-06;  8.4831752E-03;
 -7.9999998E-02;  9.9999998E-03;  7.9999998E-02;309;  0.0000000E+00;  0.0000000E+00;  0.0000000E+00;  1.0000000E+03;  4.0000001E-01;  0.0000000E+00;0;  0.0000000E+00;  0.0000000E+00;  0.0000000E+00;0; -1.1353149E-04;  1.0000000E+04;  0.0000000E+00;  0.0000000E+00;  1.0000000E+04;  0.0000000E+00;  1.0000000E+04; -1.1483511E-04;  0.0000000E+00;  1.3036229E-06;  8.8723646E-03;
 -7.9999998E-02;  9.9999998E-03;  1.0000000E-01;310;  0.0000000E+00;  0.0000000E+00;  0.0000000E+00;  1.0000000E+03;  4.0000001E-01;  0.0000000E+00;0;  0.0000000E+00;  0.0000000E+00;  0.0000000E+00;0; -1.1214198E-04;  1.0000000E+04;  0.0000000E+00;  0.0000000E+00;  1.0000000E+04;  0.0000000E+00;  1.0000000E+04; -1.1359101E-04;  0.0000000E+00;  1.4490255E-06;  9.3281483E-03;
 -7.9999998E-02;  9.9999998E-03;  1.2000000E-01;311;  0.0000000E+00;  0.0000000E+00;  0.0000000E+00;  1.0000000E+03;  4.0000001E-01;  0.0000000E+00;0;  0.0000000E+00;  0.0000000E+00;  0.0000000E+00;0; -1.1023039E-04;  1.0000000E+04;  0.0000000E+00;  0.0000000E+00;  1.0000000E+04;  0.0000000E+00;  1.0000000E+04; -1.1184138E-04;  0.0000000E+00;  1.6109886E-06;  9.8151965E-03;
 -7.9999998E-02;  9.9999998E-03;  1.4000000E-01;312;  0.0000000E+00;  0.0000000E+00;  0.0000000E+00;  1.0000000E+03;  4.0000001E-01;  0.0000000E+00;0;  0.0000000E+00;  0.0000000E+00;  0.0000000E+00;0; -1.0765930E-04;  1.0000000E+04;  0.0000000E+00;  0.0000000E+00;  1.0000000E+04;  0.0000000E+00;  1.0000000E+04; -1.0943272E-04;  0.0000000E+00;  1.7734172E-06;  1.0273673E-02;
 -5.9999999E-02;  9.9999998E-03;  0.0000000E+00;346;  0.0000000E+00;  0.0000000E+00;  0.0000000E+00;  1.0000001E+03;  4.0000001E-01;  9.8762624E-02;0;  0.0000000E+00;  0.0000000E+00;  0.0000000E+00;0; -2.3092184E-04;  1.0000000E+04;  0.0000000E+00;  0.0000000E+00;  1.0000000E+04;  0.0000000E+00;  1.0000000E+04; -2.3344228E-04;  0.0000000E+00;  2.5204326E-06;  1.7935647E-02;
 -5.9999999E-02;  9.9999998E-03;  2.0000000E-02;347;  0.0000000E+00;  0.0000000E+00;  0.0000000E+00;  1.0000001E+03;  4.0000001E-01;  9.8762624E-02;0;  0.0000000E+00;  0.0000000E+00;  0.0000000E+00;0; -2.3068406E-04;  1.0000000E+04;  0.0000000E+00;  0.0000000E+00;  1.0000000E+04;  0.0000000E+00;  1.0000000E+04; -2.3325012E-04;  0.0000000E+00;  2.5660490E-06;  1.8094262E-02;
 -5.9999999E-02;  9.9999998E-03;  3.9999999E-02;348;  0.0000000E+00;  0.0000000E+00;  0.0000000E+00;  1.0000001E+03;  4.0000001E-01;  9.8762624E-02;0;  0.0000000E+00;  0.0000000E+00;  0.0000000E+00;0; -2.2995114E-04;  1.0000000E+04;  0.0000000E+00;  0.0000000E+00;  1.0000000E+04;  0.0000000E+00;  1.0000000E+04; -2.3265187E-04;  0.0000000E+00;  2.7007341E-06;  1.8558728E-02;
 -5.9999999E-02;  9.9999998E-03;  5.9999999E-02;349;  0.0000000E+00;  0.0000000E+00;  0.0000000E+00;  1.0000001E+03;  4.0000001E-01;  9.8762624E-02;0;  0.0000000E+00;  0.0000000E+00;  0.0000000E+00;0; -2.2866255E-04;  1.0000000E+04;  0.0000000E+00;  0.0000000E+00;  1.0000000E+04;  0.0000000E+00;  1.0000000E+04; -2.3158104E-04;  0.0000000E+00;  2.9184873E-06;  1.9297894E-02;
 -5.9999999E-02;  9.9999998E-03;  7.9999998E-02;350;  0.0000000E+00;  0.0000000E+00;  0.0000000E+00;  1.0000001E+03;  4.0000001E-01;  9.8762624E-02;0;  0.0000000E+00;  0.0000000E+00;  0.0000000E+00;0; -2.2671164E-04;  1.0000000E+04;  0.0000000E+00;  0.0000000E+00;  1.0000000E+04;  0.0000000E+00;  1.0000000E+04; -2.2992160E-04;  0.0000000E+00;  3.2099656E-06;  2.0265698E-02;
 -5.9999999E-02;  9.9999998E-03;  1.0000000E-01;351;  0.0000000E+00;  0.0000000E+00;  0.0000000E+00;  1.0000001E+03;  4.0000001E-01;  9.8762624E-02;0;  0.0000000E+00;  0.0000000E+00;  0.0000000E+00;0; -2.2393890E-04;  1.0000000E+04;  0.0000000E+00;  0.0000000E+00;  1.0000000E+04;  0.0000000E+00;  1.0000000E+04; -2.2750015E-04;  0.0000000E+00;  3.5612406E-06;  2.1400265E-02;
 -5.9999999E-02;  9.9999998E-03;  1.2000000E-01;352;  0.0000000E+00;  0.0000000E+00;  0.0000000E+00;  1.0000001E+03;  4.0000001E-01;  9.8762624E-02;0;  0.0000000E+00;  0.0000000E+00;  0.0000000E+00;0; -2.2012953E-04;  1.0000000E+04;  0.0000000E+00;  0.0000000E+00;  1.0000000E+04;  0.0000000E+00;  1.0000000E+04; -2.2407807E-04;  0.0000000E+00;  3.9485494E-06;  2.2607727E-02;
 -5.9999999E-02;  9.9999998E-03;  1.4000000E-01;353;  0.0000000E+00;  0.0000000E+00;  0.0000000E+00;  1.0000001E+03;  4.0000001E-01;  9.8762624E-02;0;  0.0000000E+00;  0.0000000E+00;  0.0000000E+00;0; -2.1501319E-04;  1.0000000E+04;  0.0000000E+00;  0.0000000E+00;  1.0000000E+04;  0.0000000E+00;  1.0000000E+04; -2.1934288E-04;  0.0000000E+00;  4.3296836E-06;  2.3731906E-02;
 -3.9999999E-02;  9.9999998E-03;  0.0000000E+00;387;  0.0000000E+00;  0.0000000E+00;  0.0000000E+00;  1.0000002E+03;  4.0000001E-01;  1.9752525E-01;0;  0.0000000E+00;  0.0000000E+00;  0.0000000E+00;0; -3.9596768E-04;  1.0000000E+04;  0.0000000E+00;  0.0000000E+00;  1.0000000E+04;  0.0000000E+00;  1.0000000E+04; -4.0116653E-04;  0.0000000E+00;  5.1988491E-06;  3.4688346E-02;
 -3.9999999E-02;  9.9999998E-03;  2.0000000E-02;388;  0.0000000E+00;  0.0000000E+00;  0.0000000E+00;  1.0000002E+03;  4.0000001E-01;  1.9752525E-01;0;  0.0000000E+00;  0.0000000E+00;  0.0000000E+00;0; -3.9556567E-04;  1.0000000E+04;  0.0000000E+00;  0.0000000E+00;  1.0000000E+04;  0.0000000E+00;  1.0000000E+04; -4.0085748E-04;  0.0000000E+00;  5.2918058E-06;  3.5017412E-02;
 -3.9999999E-02;  9.9999998E-03;  3.9999999E-02;389;  0.0000000E+00;  0.0000000E+00;  0.0000000E+00;  1.0000002E+03;  4.0000001E-01;  1.9752525E-01;0;  0.0000000E+00;  0.0000000E+00;  0.0000000E+00;0; -3.9432661E-04;  1.0000000E+04;  0.0000000E+00;  0.0000000E+00;  1.0000000E+04;  0.0000000E+00;  1.0000000E+04; -3.9989295E-04;  0.0000000E+00;  5.5663354E-06;  3.5982482E-02;
 -3.9999999E-02;  9.9999998E-03;  5.9999999E-02;390;  0.0000000E+00;  0.0000000E+00;  0.0000000E+00;  1.0000002E+03;  4.0000001E-01;  1.9752525E-01;0;  0.0000000E+00;  0.0000000E+00;  0.0000000E+00;0; -3.9214946E-04;  1.0000000E+04;  0.0000000E+00;  0.0000000E+00;  1.0000000E+04;  0.0000000E+00;  1.0000000E+04; -3.9815964E-04;  0.0000000E+00;  6.0101634E-06;  3.7521973E-02;
 -3.9999999E-02;  9.9999998E-03;  7.9999998E-02;391;  0.0000000E+00;  0.0000000E+00;  0.0000000E+00;  1.0000002E+03;  4.0000001E-01;  1.9752525E-01;0;  0.0000000E+00;  0.0000000E+00;  0.0000000E+00;0; -3.8885456E-04;  1.0000000E+04;  0.0000000E+00;  0.0000000E+00;  1.0000000E+04;  0.0000000E+00;  1.0000000E+04; -3.9545805E-04;  0.0000000E+00;  6.6034740E-06;  3.9541733E-02;
 -3.9999999E-02;  9.9999998E-03;  1.0000000E-01;392;  0.0000000E+00;  0.0000000E+00;  0.0000000E+00;  1.0000002E+03;  4.0000001E-01;  1.9752525E-01;0;  0.0000000E+00;  0.0000000E+00;  0.0000000E+00;0; -3.8417405E-04;  1.0000000E+04;  0.0000000E+00;  0.0000000E+00;  1.0000000E+04;  0.0000000E+00;  1.0000000E+04; -3.9148983E-04;  0.0000000E+00;  7.3157858E-06;  4.1910119E-02;
 -3.9999999E-02;  9.9999998E-03;  1.2000000E-01;393;  0.0000000E+00;  0.0000000E+00;  0.0000000E+00;  1.0000002E+03;  4.0000001E-01;  1.9752525E-01;0;  0.0000000E+00;  0.0000000E+00;  0.0000000E+00;0; -3.7774592E-04;  1.0000000E+04;  0.0000000E+00;  0.0000000E+00;  1.0000000E+04;  0.0000000E+00;  1.0000000E+04; -3.8584103E-04;  0.0000000E+00;  8.0951077E-06;  4.4423606E-02;
 -3.9999999E-02;  9.9999998E-03;  1.4000000E-01;394;  0.0000000E+00;  0.0000000E+00;  0.0000000E+00;  1.0000002E+03;  4.0000001E-01;  1.9752525E-01;0;  0.0000000E+00;  0.0000000E+00;  0.0000000E+00;0; -3.6911407E-04;  1.0000000E+04;  0.0000000E+00;  0.0000000E+00;  1.0000000E+04;  0.0000000E+00;  1.0000000E+04; -3.7796536E-04;  0.0000000E+00;  8.8512925E-06;  4.6747632E-02;
 -2.0000000E-02;  9.9999998E-03;  0.0000000E+00;428;  0.0000000E+00;  0.0000000E+00;  0.0000000E+00;  1.0000004E+03;  4.0000001E-01;  2.9628786E-01;0;  0.0000000E+00;  0.0000000E+00;  0.0000000E+00;0; -6.0109096E-04;  1.0000000E+04;  0.0000000E+00;  0.0000000E+00;  1.0000000E+04;  0.0000000E+00;  1.0000000E+04; -6.1041623E-04;  0.0000000E+00;  9.3252602E-06;  5.9391133E-02;
 -2.0000000E-02;  9.9999998E-03;  2.0000000E-02;429;  0.0000000E+00;  0.0000000E+00;  0.0000000E+00;  1.0000004E+03;  4.0000001E-01;  2.9628786E-01;0;  0.0000000E+00;  0.0000000E+00;  0.0000000E+00;0; -6.0049986E-04;  1.0000000E+04;  0.0000000E+00;  0.0000000E+00;  1.0000000E+04;  0.0000000E+00;  1.0000000E+04; -6.0999085E-04;  0.0000000E+00;  9.4910047E-06;  5.9990682E-02;
 -2.0000000E-02;  9.9999998E-03;  3.9999999E-02;430;  0.0000000E+00;  0.0000000E+00;  0.0000000E+00;  1.0000004E+03;  4.0000001E-01;  2.9628786E-01;0;  0.0000000E+00;  0.0000000E+00;  0.0000000E+00;0; -5.9867918E-04;  1.0000000E+04;  0.0000000E+00;  0.0000000E+00;  1.0000000E+04;  0.0000000E+00;  1.0000000E+04; -6.0865976E-04;  0.0000000E+00;  9.9805775E-06;  6.1751068E-02;
 -2.0000000E-02;  9.9999998E-03;  5.9999999E-02;431;  0.0000000E+00;  0.0000000E+00;  0.0000000E+00;  1.0000004E+03;  4.0000001E-01;  2.9628786E-01;0;  0.0000000E+00;  0.0000000E+00;  0.0000000E+00;0; -5.9548079E-04;  1.0000000E+04;  0.0000000E+00;  0.0000000E+00;  1.0000000E+04;  0.0000000E+00;  1.0000000E+04; -6.0625258E-04;  0.0000000E+00;  1.0771822E-05;  6.4563990E-02;
 -2.0000000E-02;  9.9999998E-03;  7.9999998E-02;432;  0.0000000E+00;  0.0000000E+00;  0.0000000E+00;  1.0000004E+03;  4.0000001E-01;  2.9628786E-01;0;  0.0000000E+00;  0.0000000E+00;  0.0000000E+00;0; -5.9064070E-04;  1.0000000E+04;  0.0000000E+00;  0.0000000E+00;  1.0000000E+04;  0.0000000E+00;  1.0000000E+04; -6.0246879E-04;  0.0000000E+00;  1.1828115E-05;  6.8259530E-02;
 -2.0000000E-02;  9.9999998E-03;  1.0000000E-01;433;  0.0000000E+00;  0.0000000E+00;  0.0000000E+00;  1.0000003E+03;  4.0000001E-01;  2.9628786E-01;0;  0.0000000E+00;  0.0000000E+00;  0.0000000E+00;0; -5.8376335E-04;  1.0000000E+04;  0.0000000E+00;  0.0000000E+00;  1.0000000E+04;  0.0000000E+00;  1.0000000E+04; -5.9685583E-04;  0.0000000E+00;  1.3092465E-05;  7.2594248E-02;
 -2.0000000E-02;  9.9999998E-03;  1.2000000E-01;434;  0.0000000E+00;  0.0000000E+00;  0.0000000E+00;  1.0000002E+03;  4.0000001E-01;  1.9752525E-01;0;  0.0000000E+00;  0.0000000E+00;  0.0000000E+00;0; -5.7431124E-04;  1.0000000E+04;  0.0000000E+00;  0.0000000E+00;  1.0000000E+04;  0.0000000E+00;  1.0000000E+04; -5.8877957E-04;  0.0000000E+00;  1.4468301E-05;  7.7189445E-02;
 -2.0000000E-02;  9.9999998E-03;  1.4000000E-01;435;  0.0000000E+00;  0.0000000E+00;  0.0000000E+00;  1.0000002E+03;  4.0000001E-01;  1.9752525E-01;0;  0.0000000E+00;  0.0000000E+00;  0.0000000E+00;0; -5.6160585E-04;  1.0000000E+04;  0.0000000E+00;  0.0000000E+00;  1.0000000E+04;  0.0000000E+00;  1.0000000E+04; -5.7739596E-04;  0.0000000E+00;  1.5790134E-05;  8.1425294E-02;
 -2.2000000E-01;  9.9999998E-03;  1.6000000E-01;27;  0.0000000E+00;  0.0000000E+00;  0.0000000E+00;  1.0000000E+03;  4.0000001E-01;  0.0000000E+00;0;  0.0000000E+00;  0.0000000E+00;  0.0000000E+00;0;  0.0000000E+00;  1.0000000E+04;  0.0000000E+00;  0.0000000E+00;  1.0000000E+04;  0.0000000E+00;  1.0000000E+04;  0.0000000E+00;  0.0000000E+00;  0.0000000E+00;  0.0000000E+00;
 -2.2000000E-01;  9.9999998E-03;  1.8000001E-01;28;  0.0000000E+00;  0.0000000E+00;  0.0000000E+00;  1.0000000E+03;  4.0000001E-01;  0.0000000E+00;0;  0.0000000E+00;  0.0000000E+00;  0.0000000E+00;0;  0.0000000E+00;  1.0000000E+04;  0.0000000E+00;  0.0000000E+00;  1.0000000E+04;  0.0000000E+00;  1.0000000E+04;  0.0000000E+00;  0.0000000E+00;  0.0000000E+00;  0.0000000E+00;
 -2.2000000E-01;  9.9999998E-03;  2.0000000E-01;29;  0.0000000E+00;  0.0000000E+00;  0.0000000E+00;  1.0000000E+03;  4.0000001E-01;  0.0000000E+00;0;  0.0000000E+00;  0.0000000E+00;  0.0000000E+00;0;  0.0000000E+00;  1.0000000E+04;  0.0000000E+00;  0.0000000E+00;  1.0000000E+04;  0.0000000E+00;  1.0000000E+04;  0.0000000E+00;  0.0000000E+00;  0.0000000E+00;  0.0000000E+00;
 -2.2000000E-01;  9.9999998E-03;  2.2000000E-01;30;  0.0000000E+00;  0.0000000E+00;  0.0000000E+00;  1.0000000E+03;  4.0000001E-01;  0.0000000E+00;0;  0.0000000E+00;  0.0000000E+00;  0.0000000E+00;0;  0.0000000E+00;  1.0000000E+04;  0.0000000E+00;  0.0000000E+00;  1.0000000E+04;  0.0000000E+00;  1.0000000E+04;  0.0000000E+00;  0.0000000E+00;  0.0000000E+00;  0.0000000E+00;
 -2.2000000E-01;  9.9999998E-03;  2.3999999E-01;31;  0.0000000E+00;  0.0000000E+00;  0.0000000E+00;  1.0000000E+03;  4.0000001E-01;  0.0000000E+00;0;  0.0000000E+00;  0.0000000E+00;  0.0000000E+00;0;  0.0000000E+00;  1.0000000E+04;  0.0000000E+00;  0.0000000E+00;  1.0000000E+04;  0.0000000E+00;  1.0000000E+04;  0.0000000E+00;  0.0000000E+00;  0.0000000E+00;  0.0000000E+00;
 -2.2000000E-01;  9.9999998E-03;  2.5999999E-01;32;  0.0000000E+00;  0.0000000E+00;  0.0000000E+00;  1.0000000E+03;  4.0000001E-01;  0.0000000E+00;0;  0.0000000E+00;  0.0000000E+00;  0.0000000E+00;0;  0.0000000E+00;  1.0000000E+04;  0.0000000E+00;  0.0000000E+00;  1.0000000E+04;  0.0000000E+00;  1.0000000E+04;  0.0000000E+00;  0.0000000E+00;  0.0000000E+00;  0.0000000E+00;
 -2.2000000E-01;  9.9999998E-03;  2.8000000E-01;33;  0.0000000E+00;  0.0000000E+00;  0.0000000E+00;  1.0000000E+03;  4.0000001E-01;  0.0000000E+00;0;  0.0000000E+00;  0.0000000E+00;  0.0000000E+00;0;  0.0000000E+00;  1.0000000E+04;  0.0000000E+00;  0.0000000E+00;  1.0000000E+04;  0.0000000E+00;  1.0000000E+04;  0.0000000E+00;  0.0000000E+00;  0.0000000E+00;  0.0000000E+00;
 -2.2000000E-01;  9.9999998E-03;  3.0000001E-01;34;  0.0000000E+00;  0.0000000E+00;  0.0000000E+00;  1.0000000E+03;  4.0000001E-01;  0.0000000E+00;0;  0.0000000E+00;  0.0000000E+00;  0.0000000E+00;0;  0.0000000E+00;  1.0000000E+04;  0.0000000E+00;  0.0000000E+00;  1.0000000E+04;  0.0000000E+00;  1.0000000E+04;  0.0000000E+00;  0.0000000E+00;  0.0000000E+00;  0.0000000E+00;
 -2.2000000E-01;  9.9999998E-03;  3.1999999E-01;35;  0.0000000E+00;  0.0000000E+00;  0.0000000E+00;  1.0000000E+03;  4.0000001E-01;  0.0000000E+00;0;  0.0000000E+00;  0.0000000E+00;  0.0000000E+00;0;  0.0000000E+00;  1.0000000E+04;  0.0000000E+00;  0.0000000E+00;  1.0000000E+04;  0.0000000E+00;  1.0000000E+04;  0.0000000E+00;  0.0000000E+00;  0.0000000E+00;  0.0000000E+00;
 -2.0000000E-01;  9.9999998E-03;  1.6000000E-01;67;  0.0000000E+00;  0.0000000E+00;  0.0000000E+00;  1.0000000E+03;  4.0000001E-01;  0.0000000E+00;0;  0.0000000E+00;  0.0000000E+00;  0.0000000E+00;0;  0.0000000E+00;  1.0000000E+04;  0.0000000E+00;  0.0000000E+00;  1.0000000E+04;  0.0000000E+00;  1.0000000E+04;  0.0000000E+00;  0.0000000E+00;  0.0000000E+00;  0.0000000E+00;
 -2.0000000E-01;  9.9999998E-03;  1.8000001E-01;68;  0.0000000E+00;  0.0000000E+00;  0.0000000E+00;  1.0000000E+03;  4.0000001E-01;  0.0000000E+00;0;  0.0000000E+00;  0.0000000E+00;  0.0000000E+00;0;  0.0000000E+00;  1.0000000E+04;  0.0000000E+00;  0.0000000E+00;  1.0000000E+04;  0.0000000E+00;  1.0000000E+04;  0.0000000E+00;  0.0000000E+00;  0.0000000E+00;  0.0000000E+00;
 -2.0000000E-01;  9.9999998E-03;  2.0000000E-01;69;  0.0000000E+00;  0.0000000E+00;  0.0000000E+00;  1.0000000E+03;  4.0000001E-01;  0.0000000E+00;0;  0.0000000E+00;  0.0000000E+00;  0.0000000E+00;0;  0.0000000E+00;  1.0000000E+04;  0.0000000E+00;  0.0000000E+00;  1.0000000E+04;  0.0000000E+00;  1.0000000E+04;  0.0000000E+00;  0.0000000E+00;  0.0000000E+00;  0.0000000E+00;
 -2.0000000E-01;  9.9999998E-03;  2.2000000E-01;70;  0.0000000E+00;  0.0000000E+00;  0.0000000E+00;  1.0000000E+03;  4.0000001E-01;  0.0000000E+00;0;  0.0000000E+00;  0.0000000E+00;  0.0000000E+00;0;  0.0000000E+00;  1.0000000E+04;  0.0000000E+00;  0.0000000E+00;  1.0000000E+04;  0.0000000E+00;  1.0000000E+04;  0.0000000E+00;  0.0000000E+00;  0.0000000E+00;  0.0000000E+00;
 -2.0000000E-01;  9.9999998E-03;  2.3999999E-01;71;  0.0000000E+00;  0.0000000E+00;  0.0000000E+00;  1.0000000E+03;  4.0000001E-01;  0.0000000E+00;0;  0.0000000E+00;  0.0000000E+00;  0.0000000E+00;0;  0.0000000E+00;  1.0000000E+04;  0.0000000E+00;  0.0000000E+00;  1.0000000E+04;  0.0000000E+00;  1.0000000E+04;  0.0000000E+00;  0.0000000E+00;  0.0000000E+00;  0.0000000E+00;
 -2.0000000E-01;  9.9999998E-03;  2.5999999E-01;72;  0.0000000E+00;  0.0000000E+00;  0.0000000E+00;  1.0000000E+03;  4.0000001E-01;  0.0000000E+00;0;  0.0000000E+00;  0.0000000E+00;  0.0000000E+00;0;  0.0000000E+00;  1.0000000E+04;  0.0000000E+00;  0.0000000E+00;  1.0000000E+04;  0.0000000E+00;  1.0000000E+04;  0.0000000E+00;  0.0000000E+00;  0.0000000E+00;  0.0000000E+00;
 -2.0000000E-01;  9.9999998E-03;  2.8000000E-01;73;  0.0000000E+00;  0.0000000E+00;  0.0000000E+00;  1.0000000E+03;  4.0000001E-01;  0.0000000E+00;0;  0.0000000E+00;  0.0000000E+00;  0.0000000E+00;0;  0.0000000E+00;  1.0000000E+04;  0.0000000E+00;  0.0000000E+00;  1.0000000E+04;  0.0000000E+00;  1.0000000E+04;  0.0000000E+00;  0.0000000E+00;  0.0000000E+00;  0.0000000E+00;
 -2.0000000E-01;  9.9999998E-03;  3.0000001E-01;74;  0.0000000E+00;  0.0000000E+00;  0.0000000E+00;  1.0000000E+03;  4.0000001E-01;  0.0000000E+00;0;  0.0000000E+00;  0.0000000E+00;  0.0000000E+00;0;  0.0000000E+00;  1.0000000E+04;  0.0000000E+00;  0.0000000E+00;  1.0000000E+04;  0.0000000E+00;  1.0000000E+04;  0.0000000E+00;  0.0000000E+00;  0.0000000E+00;  0.0000000E+00;
 -2.0000000E-01;  9.9999998E-03;  3.1999999E-01;75;  0.0000000E+00;  0.0000000E+00;  0.0000000E+00;  1.0000000E+03;  4.0000001E-01;  0.0000000E+00;0;  0.0000000E+00;  0.0000000E+00;  0.0000000E+00;0;  0.0000000E+00;  1.0000000E+04;  0.0000000E+00;  0.0000000E+00;  1.0000000E+04;  0.0000000E+00;  1.0000000E+04;  0.0000000E+00;  0.0000000E+00;  0.0000000E+00;  0.0000000E+00;
 -1.8000001E-01;  9.9999998E-03;  1.6000000E-01;108;  0.0000000E+00;  0.0000000E+00;  0.0000000E+00;  1.0000000E+03;  4.0000001E-01;  0.0000000E+00;0;  0.0000000E+00;  0.0000000E+00;  0.0000000E+00;0;  0.0000000E+00;  1.0000000E+04;  0.0000000E+00;  0.0000000E+00;  1.0000000E+04;  0.0000000E+00;  1.0000000E+04;  0.0000000E+00;  0.0000000E+00;  0.0000000E+00;  0.0000000E+00;
 -1.8000001E-01;  9.9999998E-03;  1.8000001E-01;109;  0.0000000E+00;  0.0000000E+00;  0.0000000E+00;  1.0000000E+03;  4.0000001E-01;  0.0000000E+00;0;  0.0000000E+00;  0.0000000E+00;  0.0000000E+00;0;  0.0000000E+00;  1.0000000E+04;  0.0000000E+00;  0.0000000E+00;  1.0000000E+04;  0.0000000E+00;  1.0000000E+04;  0.0000000E+00;  0.0000000E+00;  0.0000000E+00;  0.0000000E+00;
 -1.8000001E-01;  9.9999998E-03;  2.0000000E-01;110;  0.0000000E+00;  0.0000000E+00;  0.0000000E+00;  1.0000000E+03;  4.0000001E-01;  0.0000000E+00;0;  0.0000000E+00;  0.0000000E+00;  0.0000000E+00;0;  0.0000000E+00;  1.0000000E+04;  0.0000000E+00;  0.0000000E+00;  1.0000000E+04;  0.0000000E+00;  1.0000000E+04;  0.0000000E+00;  0.0000000E+00;  0.0000000E+00;  0.0000000E+00;
 -1.8000001E-01;  9.9999998E-03;  2.2000000E-01;111;  0.0000000E+00;  0.0000000E+00;  0.0000000E+00;  1.0000000E+03;  4.0000001E-01;  0.0000000E+00;0;  0.0000000E+00;  0.0000000E+00;  0.0000000E+00;0;  0.0000000E+00;  1.0000000E+04;  0.0000000E+00;  0.0000000E+00;  1.0000000E+04;  0.0000000E+00;  1.0000000E+04;  0.0000000E+00;  0.0000000E+00;  0.0000000E+00;  0.0000000E+00;
 -1.8000001E-01;  9.9999998E-03;  2.3999999E-01;112;  0.0000000E+00;  0.0000000E+00;  0.0000000E+00;  1.0000000E+03;  4.0000001E-01;  0.0000000E+00;0;  0.0000000E+00;  0.0000000E+00;  0.0000000E+00;0;  0.0000000E+00;  1.0000000E+04;  0.0000000E+00;  0.0000000E+00;  1.0000000E+04;  0.0000000E+00;  1.0000000E+04;  0.0000000E+00;  0.0000000E+00;  0.0000000E+00;  0.0000000E+00;
 -1.8000001E-01;  9.9999998E-03;  2.5999999E-01;113;  0.0000000E+00;  0.0000000E+00;  0.0000000E+00;  1.0000000E+03;  4.0000001E-01;  0.0000000E+00;0;  0.0000000E+00;  0.0000000E+00;  0.0000000E+00;0;  0.0000000E+00;  1.0000000E+04;  0.0000000E+00;  0.0000000E+00;  1.0000000E+04;  0.0000000E+00;  1.0000000E+04;  0.0000000E+00;  0.0000000E+00;  0.0000000E+00;  0.0000000E+00;
 -1.8000001E-01;  9.9999998E-03;  2.8000000E-01;114;  0.0000000E+00;  0.0000000E+00;  0.0000000E+00;  1.0000000E+03;  4.0000001E-01;  0.0000000E+00;0;  0.0000000E+00;  0.0000000E+00;  0.0000000E+00;0;  0.0000000E+00;  1.0000000E+04;  0.0000000E+00;  0.0000000E+00;  1.0000000E+04;  0.0000000E+00;  1.0000000E+04;  0.0000000E+00;  0.0000000E+00;  0.0000000E+00;  0.0000000E+00;
 -1.8000001E-01;  9.9999998E-03;  3.0000001E-01;115;  0.0000000E+00;  0.0000000E+00;  0.0000000E+00;  1.0000000E+03;  4.0000001E-01;  0.0000000E+00;0;  0.0000000E+00;  0.0000000E+00;  0.0000000E+00;0;  0.0000000E+00;  1.0000000E+04;  0.0000000E+00;  0.0000000E+00;  1.0000000E+04;  0.0000000E+00;  1.0000000E+04;  0.0000000E+00;  0.0000000E+00;  0.0000000E+00;  0.0000000E+00;
 -1.8000001E-01;  9.9999998E-03;  3.1999999E-01;116;  0.0000000E+00;  0.0000000E+00;  0.0000000E+00;  1.0000000E+03;  4.0000001E-01;  0.0000000E+00;0;  0.0000000E+00;  0.0000000E+00;  0.0000000E+00;0;  0.0000000E+00;  1.0000000E+04;  0.0000000E+00;  0.0000000E+00;  1.0000000E+04;  0.0000000E+00;  1.0000000E+04;  0.0000000E+00;  0.0000000E+00;  0.0000000E+00;  0.0000000E+00;
 -1.6000000E-01;  9.9999998E-03;  1.6000000E-01;149;  0.0000000E+00;  0.0000000E+00;  0.0000000E+00;  1.0000000E+03;  4.0000001E-01;  0.0000000E+00;0;  0.0000000E+00;  0.0000000E+00;  0.0000000E+00;0; -6.4704878E-08;  1.0000000E+04;  0.0000000E+00;  0.0000000E+00;  1.0000000E+04;  0.0000000E+00;  1.0000000E+04; -6.4815559E-08;  0.0000000E+00;  1.1068366E-10;  2.5001839E-06;
 -1.6000000E-01;  9.9999998E-03;  1.8000001E-01;150;  0.0000000E+00;  0.0000000E+00;  0.0000000E+00;  1.0000000E+03;  4.0000001E-01;  0.0000000E+00;0;  0.0000000E+00;  0.0000000E+00;  0.0000000E+00;0; -6.2267723E-08;  1.0000000E+04;  0.0000000E+00;  0.0000000E+00;  1.0000000E+04;  0.0000000E+00;  1.0000000E+04; -6.2388814E-08;  0.0000000E+00;  1.2109264E-10;  2.4502945E-06;
 -1.6000000E-01;  9.9999998E-03;  2.0000000E-01;151;  0.0000000E+00;  0.0000000E+00;  0.0000000E+00;  1.0000000E+03;  4.0000001E-01;  0.0000000E+00;0;  0.0000000E+00;  0.0000000E+00;  0.0000000E+00;0; -5.9070700E-08;  1.0000000E+04;  0.0000000E+00;  0.0000000E+00;  1.0000000E+04;  0.0000000E+00;  1.0000000E+04; -5.9196427E-08;  0.0000000E+00;  1.2572578E-10;  2.3564714E-06;
 -1.6000000E-01;  9.9999998E-03;  2.2000000E-01;152;  0.0000000E+00;  0.0000000E+00;  0.0000000E+00;  1.0000000E+03;  4.0000001E-01;  0.0000000E+00;0;  0.0000000E+00;  0.0000000E+00;  0.0000000E+00;0; -5.4961866E-08;  1.0000000E+04;  0.0000000E+00;  0.0000000E+00;  1.0000000E+04;  0.0000000E+00;  1.0000000E+04; -5.5082687E-08;  0.0000000E+00;  1.2081963E-10;  2.2003358E-06;
 -1.6000000E-01;  9.9999998E-03;  2.3999999E-01;153;  0.0000000E+00;  0.0000000E+00;  0.0000000E+00;  1.0000000E+03;  4.0000001E-01;  0.0000000E+00;0;  0.0000000E+00;  0.0000000E+00;  0.0000000E+00;0; -4.9795052E-08;  1.0000000E+04;  0.0000000E+00;  0.0000000E+00;  1.0000000E+04;  0.0000000E+00;  1.0000000E+04; -4.9898016E-08;  0.0000000E+00;  1.0296614E-10;  1.9668109E-06;
 -1.6000000E-01;  9.9999998E-03;  2.5999999E-01;154;  0.0000000E+00;  0.0000000E+00;  0.0000000E+00;  1.0000000E+03;  4.0000001E-01;  0.0000000E+00;0;  0.0000000E+00;  0.0000000E+00;  0.0000000E+00;0; -4.2313843E-08;  1.0000000E+04;  0.0000000E+00;  0.0000000E+00;  1.0000000E+04;  0.0000000E+00;  1.0000000E+04; -4.2254918E-08;  0.0000000E+00; -5.8926808E-11;  1.1294325E-06;
 -1.6000000E-01;  9.9999998E-03;  2.8000000E-01;155;  0.0000000E+00;  0.0000000E+00;  0.0000000E+00;  1.0000000E+03;  4.0000001E-01;  0.0000000E+00;0;  0.0000000E+00;  0.0000000E+00;  0.0000000E+00;0; -2.8488806E-08;  1.0000000E+04;  0.0000000E+00;  0.0000000E+00;  1.0000000E+04;  0.0000000E+00;  1.0000000E+04; -2.8030046E-08;  0.0000000E+00; -4.5876020E-10;  8.7928004E-07;
 -1.6000000E-01;  9.9999998E-03;  3.0000001E-01;156;  0.0000000E+00;  0.0000000E+00;  0.0000000E+00;  1.0000000E+03;  4.0000001E-01;  0.0000000E+00;0;  0.0000000E+00;  0.0000000E+00;  0.0000000E+00;0; -1.2097376E-08;  1.0000000E+04;  0.0000000E+00;  0.0000000E+00;  1.0000000E+04;  0.0000000E+00;  1.0000000E+04; -1.1591585E-08;  0.0000000E+00; -5.0579069E-10;  1.5623625E-06;
 -1.6000000E-01;  9.9999998E-03;  3.1999999E-01;157;  0.0000000E+00;  0.0000000E+00;  0.0000000E+00;  1.0000000E+03;  4.0000001E-01;  0.0000000E+00;0;  0.0000000E+00;  0.0000000E+00;  0.0000000E+00;0; -1.9043065E-09;  1.0000000E+04;  0.0000000E+00;  0.0000000E+00;  1.0000000E+04;  0.0000000E+00;  1.0000000E+04; -1.7546714E-09;  0.0000000E+00; -1.4963517E-10;  5.0299604E-07;
 -1.4000000E-01;  9.9999998E-03;  1.6000000E-01;190;  0.0000000E+00;  0.0000000E+00;  0.0000000E+00;  1.0000000E+03;  4.0000001E-01;  0.0000000E+00;0;  0.0000000E+00;  0.0000000E+00;  0.0000000E+00;0; -2.3655309E-06;  1.0000000E+04;  0.0000000E+00;  0.0000000E+00;  1.0000000E+04;  0.0000000E+00;  1.0000000E+04; -2.3793702E-06;  0.0000000E+00;  1.3839399E-08;  1.2758399E-04;
 -1.4000000E-01;  9.9999998E-03;  1.8000001E-01;191;  0.0000000E+00;  0.0000000E+00;  0.0000000E+00;  1.0000000E+03;  4.0000001E-01;  0.0000000E+00;0;  0.0000000E+00;  0.0000000E+00;  0.0000000E+00;0; -2.2708284E-06;  1.0000000E+04;  0.0000000E+00;  0.0000000E+00;  1.0000000E+04;  0.0000000E+00;  1.0000000E+04; -2.2856620E-06;  0.0000000E+00;  1.4833661E-08;  1.2750379E-04;
 -1.4000000E-01;  9.9999998E-03;  2.0000000E-01;192;  0.0000000E+00;  0.0000000E+00;  0.0000000E+00;  1.0000000E+03;  4.0000001E-01;  0.0000000E+00;0;  0.0000000E+00;  0.0000000E+00;  0.0000000E+00;0; -2.1483847E-06;  1.0000000E+04;  0.0000000E+00;  0.0000000E+00;  1.0000000E+04;  0.0000000E+00;  1.0000000E+04; -2.1634983E-06;  0.0000000E+00;  1.5113475E-08;  1.2405956E-04;
 -1.4000000E-01;  9.9999998E-03;  2.2000000E-01;193;  0.0000000E+00;  0.0000000E+00;  0.0000000E+00;  1.0000000E+03;  4.0000001E-01;  0.0000000E+00;0;  0.0000000E+00;  0.0000000E+00;  0.0000000E+00;0; -1.9893048E-06;  1.0000000E+04;  0.0000000E+00;  0.0000000E+00;  1.0000000E+04;  0.0000000E+00;  1.0000000E+04; -2.0021530E-06;  0.0000000E+00;  1.2848308E-08;  1.1027329E-04;
 -1.4000000E-01;  9.9999998E-03;  2.3999999E-01;194;  0.0000000E+00;  0.0000000E+00;  0.0000000E+00;  1.0000000E+03;  4.0000001E-01;  0.0000000E+00;0;  0.0000000E+00;  0.0000000E+00;  0.0000000E+00;0; -1.7611975E-06;  1.0000000E+04;  0.0000000E+00;  0.0000000E+00;  1.0000000E+04;  0.0000000E+00;  1.0000000E+04; -1.7628237E-06;  0.0000000E+00;  1.6262172E-09;  6.1252533E-05;
 -1.4000000E-01;  9.9999998E-03;  2.5999999E-01;195;  0.0000000E+00;  0.0000000E+00;  0.0000000E+00;  1.0000000E+03;  4.0000001E-01;  0.0000000E+00;0;  0.0000000E+00;  0.0000000E+00;  0.0000000E+00;0; -1.4383332E-06;  1.0000000E+04;  0.0000000E+00;  0.0000000E+00;  1.0000000E+04;  0.0000000E+00;  1.0000000E+04; -1.4207619E-06;  0.0000000E+00; -1.7571349E-08;  2.0283200E-05;
 -1.4000000E-01;  9.9999998E-03;  2.8000000E-01;196;  0.0000000E+00;  0.0000000E+00;  0.0000000E+00;  1.0000000E+03;  4.0000001E-01;  0.0000000E+00;0;  0.0000000E+00;  0.0000000E+00;  0.0000000E+00;0; -1.0395446E-06;  1.0000000E+04;  0.0000000E+00;  0.0000000E+00;  1.0000000E+04;  0.0000000E+00;  1.0000000E+04; -1.0051182E-06;  0.0000000E+00; -3.4426407E-08;  9.5766045E-05;
 -1.4000000E-01;  9.9999998E-03;  3.0000001E-01;197;  0.0000000E+00;  0.0000000E+00;  0.0000000E+00;  1.0000000E+03;  4.0000001E-01;  0.0000000E+00;0;  0.0000000E+00;  0.0000000E+00;  0.0000000E+00;0; -6.3108058E-07;  1.0000000E+04;  0.0000000E+00;  0.0000000E+00;  1.0000000E+04;  0.0000000E+00;  1.0000000E+04; -5.9167991E-07;  0.0000000E+00; -3.9400650E-08;  1.2826391E-04;
 -1.4000000E-01;  9.9999998E-03;  3.1999999E-01;198;  0.0000000E+00;  0.0000000E+00;  0.0000000E+00;  1.0000000E+03;  4.0000001E-01;  0.0000000E+00;0;  0.0000000E+00;  0.0000000E+00;  0.0000000E+00;0; -2.9709133E-07;  1.0000000E+04;  0.0000000E+00;  0.0000000E+00;  1.0000000E+04;  0.0000000E+00;  1.0000000E+04; -2.6675644E-07;  0.0000000E+00; -3.0334874E-08;  1.0520707E-04;
 -1.2000000E-01;  9.9999998E-03;  1.6000000E-01;231;  0.0000000E+00;  0.0000000E+00;  0.0000000E+00;  1.0000000E+03;  4.0000001E-01;  0.0000000E+00;0;  0.0000000E+00;  0.0000000E+00;  0.0000000E+00;0; -1.3228118E-05;  1.0000000E+04;  0.0000000E+00;  0.0000000E+00;  1.0000000E+04;  0.0000000E+00;  1.0000000E+04; -1.3361706E-05;  0.0000000E+00;  1.3358753E-07;  9.2449755E-04;
 -1.2000000E-01;  9.9999998E-03;  1.8000001E-01;232;  0.0000000E+00;  0.0000000E+00;  0.0000000E+00;  1.0000000E+03;  4.0000001E-01;  0.0000000E+00;0;  0.0000000E+00;  0.0000000E+00;  0.0000000E+00;0; -1.2681794E-05;  1.0000000E+04;  0.0000000E+00;  0.0000000E+00;  1.0000000E+04;  0.0000000E+00;  1.0000000E+04; -1.2823030E-05;  0.0000000E+00;  1.4123609E-07;  9.2978560E-04;
 -1.2000000E-01;  9.9999998E-03;  2.0000000E-01;233;  0.0000000E+00;  0.0000000E+00;  0.0000000E+00;  1.0000000E+03;  4.0000001E-01;  0.0000000E+00;0;  0.0000000E+00;  0.0000000E+00;  0.0000000E+00;0; -1.1970900E-05;  1.0000000E+04;  0.0000000E+00;  0.0000000E+00;  1.0000000E+04;  0.0000000E+00;  1.0000000E+04; -1.2105520E-05;  0.0000000E+00;  1.3461963E-07;  8.7840285E-04;
 -1.2000000E-01;  9.9999998E-03;  2.2000000E-01;234;  0.0000000E+00;  0.0000000E+00;  0.0000000E+00;  1.0000000E+03;  4.0000001E-01;  0.0000000E+00;0;  0.0000000E+00;  0.0000000E+00;  0.0000000E+00;0; -1.1017122E-05;  1.0000000E+04;  0.0000000E+00;  0.0000000E+00;  1.0000000E+04;  0.0000000E+00;  1.0000000E+04; -1.1104538E-05;  0.0000000E+00;  8.7416517E-08;  6.7042990E-04;
 -1.2000000E-01;  9.9999998E-03;  2.3999999E-01;235;  0.0000000E+00;  0.0000000E+00;  0.0000000E+00;  1.0000000E+03;  4.0000001E-01;  0.0000000E+00;0;  0.0000000E+00;  0.0000000E+00;  0.0000000E+00;0; -9.7363636E-06;  1.0000000E+04;  0.0000000E+00;  0.0000000E+00;  1.0000000E+04;  0.0000000E+00;  1.0000000E+04; -9.7257871E-06;  0.0000000E+00; -1.0576598E-08;  2.6465653E-04;
 -1.2000000E-01;  9.9999998E-03;  2.5999999E-01;236;  0.0000000E+00;  0.0000000E+00;  0.0000000E+00;  1.0000000E+03;  4.0000001E-01;  0.0000000E+00;0;  0.0000000E+00;  0.0000000E+00;  0.0000000E+00;0; -8.0887821E-06;  1.0000000E+04;  0.0000000E+00;  0.0000000E+00;  1.0000000E+04;  0.0000000E+00;  1.0000000E+04; -7.9477350E-06;  0.0000000E+00; -1.4104710E-07;  2.7372327E-04;
 -1.2000000E-01;  9.9999998E-03;  2.8000000E-01;237;  0.0000000E+00;  0.0000000E+00;  0.0000000E+00;  1.0000000E+03;  4.0000001E-01;  0.0000000E+00;0;  0.0000000E+00;  0.0000000E+00;  0.0000000E+00;0; -6.1546380E-06;  1.0000000E+04;  0.0000000E+00;  0.0000000E+00;  1.0000000E+04;  0.0000000E+00;  1.0000000E+04; -5.8979613E-06;  0.0000000E+00; -2.5667660E-07;  7.6685514E-04;
 -1.2000000E-01;  9.9999998E-03;  3.0000001E-01;238;  0.0000000E+00;  0.0000000E+00;  0.0000000E+00;  1.0000000E+03;  4.0000001E-01;  0.0000000E+00;0;  0.0000000E+00;  0.0000000E+00;  0.0000000E+00;0; -4.1688518E-06;  1.0000000E+04;  0.0000000E+00;  0.0000000E+00;  1.0000000E+04;  0.0000000E+00;  1.0000000E+04; -3.8561680E-06;  0.0000000E+00; -3.1268365E-07;  1.0410503E-03;
 -1.2000000E-01;  9.9999998E-03;  3.1999999E-01;239;  0.0000000E+00;  0.0000000E+00;  0.0000000E+00;  1.0000000E+03;  4.0000001E-01;  0.0000000E+00;0;  0.0000000E+00;  0.0000000E+00;  0.0000000E+00;0; -2.4303067E-06;  1.0000000E+04;  0.0000000E+00;  0.0000000E+00;  1.0000000E+04;  0.0000000E+00;  1.0000000E+04; -2.1392261E-06;  0.0000000E+00; -2.9108065E-07;  1.0188075E-03;
 -1.0000000E-01;  9.9999998E-03;  1.6000000E-01;272;  0.0000000E+00;  0.0000000E+00;  0.0000000E+00;  1.0000000E+03;  4.0000001E-01;  0.0000000E+00;0;  0.0000000E+00;  0.0000000E+00;  0.0000000E+00;0; -4.2861251E-05;  1.0000000E+04;  0.0000000E+00;  0.0000000E+00;  1.0000000E+04;  0.0000000E+00;  1.0000000E+04; -4.3474789E-05;  0.0000000E+00;  6.1353614E-07;  3.6867827E-03;
 -1.0000000E-01;  9.9999998E-03;  1.8000001E-01;273;  0.0000000E+00;  0.0000000E+00;  0.0000000E+00;  1.0000000E+03;  4.0000001E-01;  0.0000000E+00;0;  0.0000000E+00;  0.0000000E+00;  0.0000000E+00;0; -4.1055919E-05;  1.0000000E+04;  0.0000000E+00;  0.0000000E+00;  1.0000000E+04;  0.0000000E+00;  1.0000000E+04; -4.1689029E-05;  0.0000000E+00;  6.3310875E-07;  3.6804518E-03;
 -1.0000000E-01;  9.9999998E-03;  2.0000000E-01;274;  0.0000000E+00;  0.0000000E+00;  0.0000000E+00;  1.0000000E+03;  4.0000001E-01;  0.0000000E+00;0;  0.0000000E+00;  0.0000000E+00;  0.0000000E+00;0; -3.8698756E-05;  1.0000000E+04;  0.0000000E+00;  0.0000000E+00;  1.0000000E+04;  0.0000000E+00;  1.0000000E+04; -3.9262512E-05;  0.0000000E+00;  5.6375507E-07;  3.3319220E-03;
 -1.0000000E-01;  9.9999998E-03;  2.2000000E-01;275;  0.0000000E+00;  0.0000000E+00;  0.0000000E+00;  1.0000000E+03;  4.0000001E-01;  0.0000000E+00;0;  0.0000000E+00;  0.0000000E+00;  0.0000000E+00;0; -3.5615540E-05;  1.0000000E+04;  0.0000000E+00;  0.0000000E+00;  1.0000000E+04;  0.0000000E+00;  1.0000000E+04; -3.5959136E-05;  0.0000000E+00;  3.4359621E-07;  2.4050442E-03;
 -1.0000000E-01;  9.9999998E-03;  2.3999999E-01;276;  0.0000000E+00;  0.0000000E+00;  0.0000000E+00;  1.0000000E+03;  4.0000001E-01;  0.0000000E+00;0;  0.0000000E+00;  0.0000000E+00;  0.0000000E+00;0; -3.1629257E-05;  1.0000000E+04;  0.0000000E+00;  0.0000000E+00;  1.0000000E+04;  0.0000000E+00;  1.0000000E+04; -3.1577667E-05;  0.0000000E+00; -5.1589513E-08;  7.9841207E-04;
 -1.0000000E-01;  9.9999998E-03;  2.5999999E-01;277;  0.0000000E+00;  0.0000000E+00;  0.0000000E+00;  1.0000000E+03;  4.0000001E-01;  0.0000000E+00;0;  0.0000000E+00;  0.0000000E+00;  0.0000000E+00;0; -2.6658437E-05;  1.0000000E+04;  0.0000000E+00;  0.0000000E+00;  1.0000000E+04;  0.0000000E+00;  1.0000000E+04; -2.6102278E-05;  0.0000000E+00; -5.5616050E-07;  1.2527021E-03;
 -1.0000000E-01;  9.9999998E-03;  2.8000000E-01;278;  0.0000000E+00;  0.0000000E+00;  0.0000000E+00;  1.0000000E+03;  4.0000001E-01;  0.0000000E+00;0;  0.0000000E+00;  0.0000000E+00;  0.0000000E+00;0; -2.0897111E-05;  1.0000000E+04;  0.0000000E+00;  0.0000000E+00;  1.0000000E+04;  0.0000000E+00;  1.0000000E+04; -1.9881518E-05;  0.0000000E+00; -1.0155923E-06;  3.1658409E-03;
 -1.0000000E-01;  9.9999998E-03;  3.0000001E-01;279;  0.0000000E+00;  0.0000000E+00;  0.0000000E+00;  1.0000000E+03;  4.0000001E-01;  0.0000000E+00;0;  0.0000000E+00;  0.0000000E+00;  0.0000000E+00;0; -1.4933496E-05;  1.0000000E+04;  0.0000000E+00;  0.0000000E+00;  1.0000000E+04;  0.0000000E+00;  1.0000000E+04; -1.3648566E-05;  0.0000000E+00; -1.2849308E-06;  4.3747895E-03;
 -1.0000000E-01;  9.9999998E-03;  3.1999999E-01;280;  0.0000000E+00;  0.0000000E+00;  0.0000000E+00;  1.0000000E+03;  4.0000001E-01;  0.0000000E+00;0;  0.0000000E+00;  0.0000000E+00;  0.0000000E+00;0; -9.5541309E-06;  1.0000000E+04;  0.0000000E+00;  0.0000000E+00;  1.0000000E+04;  0.0000000E+00;  1.0000000E+04; -8.2557499E-06;  0.0000000E+00; -1.2983807E-06;  4.6019526E-03;
 -7.9999998E-02;  9.9999998E-03;  1.6000000E-01;313;  0.0000000E+00;  0.0000000E+00;  0.0000000E+00;  1.0000000E+03;  4.0000001E-01;  0.0000000E+00;0;  0.0000000E+00;  0.0000000E+00;  0.0000000E+00;0; -1.0426562E-04;  1.0000000E+04;  0.0000000E+00;  0.0000000E+00;  1.0000000E+04;  0.0000000E+00;  1.0000000E+04; -1.0617211E-04;  0.0000000E+00;  1.9064915E-06;  1.0595564E-02;
 -7.9999998E-02;  9.9999998E-03;  1.8000001E-01;314;  0.0000000E+00;  0.0000000E+00;  0.0000000E+00;  1.0000000E+03;  4.0000001E-01;  0.0000000E+00;0;  0.0000000E+00;  0.0000000E+00;  0.0000000E+00;0; -9.9847923E-05;  1.0000000E+04;  0.0000000E+00;  0.0000000E+00;  1.0000000E+04;  0.0000000E+00;  1.0000000E+04; -1.0176924E-04;  0.0000000E+00;  1.9213221E-06;  1.0453212E-02;
 -7.9999998E-02;  9.9999998E-03;  2.0000000E-01;315;  0.0000000E+00;  0.0000000E+00;  0.0000000E+00;  1.0000000E+03;  4.0000001E-01;  0.0000000E+00;0;  0.0000000E+00;  0.0000000E+00;  0.0000000E+00;0; -9.4141251E-05;  1.0000000E+04;  0.0000000E+00;  0.0000000E+00;  1.0000000E+04;  0.0000000E+00;  1.0000000E+04; -9.5816664E-05;  0.0000000E+00;  1.6754108E-06;  9.3125449E-03;
 -7.9999998E-02;  9.9999998E-03;  2.2000000E-01;316;  0.0000000E+00;  0.0000000E+00;  0.0000000E+00;  1.0000000E+03;  4.0000001E-01;  0.0000000E+00;0;  0.0000000E+00;  0.0000000E+00;  0.0000000E+00;0; -8.6815162E-05;  1.0000000E+04;  0.0000000E+00;  0.0000000E+00;  1.0000000E+04;  0.0000000E+00;  1.0000000E+04; -8.7828004E-05;  0.0000000E+00;  1.0128415E-06;  6.5727378E-03;
 -7.9999998E-02;  9.9999998E-03;  2.3999999E-01;317;  0.0000000E+00;  0.0000000E+00;  0.0000000E+00;  1.0000000E+03;  4.0000001E-01;  0.0000000E+00;0;  0.0000000E+00;  0.0000000E+00;  0.0000000E+00;0; -7.7515855E-05;  1.0000000E+04;  0.0000000E+00;  0.0000000E+00;  1.0000000E+04;  0.0000000E+00;  1.0000000E+04; -7.7392426E-05;  0.0000000E+00; -1.2343214E-07;  1.9873786E-03;
 -7.9999998E-02;  9.9999998E-03;  2.5999999E-01;318;  0.0000000E+00;  0.0000000E+00;  0.0000000E+00;  1.0000000E+03;  4.0000001E-01;  0.0000000E+00;0;  0.0000000E+00;  0.0000000E+00;  0.0000000E+00;0; -6.6053188E-05;  1.0000000E+04;  0.0000000E+00;  0.0000000E+00;  1.0000000E+04;  0.0000000E+00;  1.0000000E+04; -6.4497726E-05;  0.0000000E+00; -1.5554640E-06;  3.8009360E-03;
 -7.9999998E-02;  9.9999998E-03;  2.8000000E-01;319;  0.0000000E+00;  0.0000000E+00;  0.0000000E+00;  1.0000000E+03;  4.0000001E-01;  0.0000000E+00;0;  0.0000000E+00;  0.0000000E+00;  0.0000000E+00;0; -5.2781379E-05;  1.0000000E+04;  0.0000000E+00;  0.0000000E+00;  1.0000000E+04;  0.0000000E+00;  1.0000000E+04; -4.9895865E-05;  0.0000000E+00; -2.8855136E-06;  9.2835920E-03;
 -7.9999998E-02;  9.9999998E-03;  3.0000001E-01;320;  0.0000000E+00;  0.0000000E+00;  0.0000000E+00;  1.0000000E+03;  4.0000001E-01;  0.0000000E+00;0;  0.0000000E+00;  0.0000000E+00;  0.0000000E+00;0; -3.8921782E-05;  1.0000000E+04;  0.0000000E+00;  0.0000000E+00;  1.0000000E+04;  0.0000000E+00;  1.0000000E+04; -3.5179673E-05;  0.0000000E+00; -3.7421075E-06;  1.3002641E-02;
 -7.9999998E-02;  9.9999998E-03;  3.1999999E-01;321;  0.0000000E+00;  0.0000000E+00;  0.0000000E+00;  1.0000000E+03;  4.0000001E-01;  0.0000000E+00;0;  0.0000000E+00;  0.0000000E+00;  0.0000000E+00;0; -2.6185960E-05;  1.0000000E+04;  0.0000000E+00;  0.0000000E+00;  1.0000000E+04;  0.0000000E+00;  1.0000000E+04; -2.2237409E-05;  0.0000000E+00; -3.9485503E-06;  1.4212808E-02;
 -5.9999999E-02;  9.9999998E-03;  1.6000000E-01;354;  0.0000000E+00;  0.0000000E+00;  0.0000000E+00;  1.0000001E+03;  4.0000001E-01;  9.8762624E-02;0;  0.0000000E+00;  0.0000000E+00;  0.0000000E+00;0; -2.0827180E-04;  1.0000000E+04;  0.0000000E+00;  0.0000000E+00;  1.0000000E+04;  0.0000000E+00;  1.0000000E+04; -2.1288784E-04;  0.0000000E+00;  4.6160403E-06;  2.4449563E-02;
 -5.9999999E-02;  9.9999998E-03;  1.8000001E-01;355;  0.0000000E+00;  0.0000000E+00;  0.0000000E+00;  1.0000001E+03;  4.0000001E-01;  9.8762624E-02;0;  0.0000000E+00;  0.0000000E+00;  0.0000000E+00;0; -1.9953599E-04;  1.0000000E+04;  0.0000000E+00;  0.0000000E+00;  1.0000000E+04;  0.0000000E+00;  1.0000000E+04; -2.0414349E-04;  0.0000000E+00;  4.6074992E-06;  2.4020102E-02;
 -5.9999999E-02;  9.9999998E-03;  2.0000000E-01;356;  0.0000000E+00;  0.0000000E+00;  0.0000000E+00;  1.0000001E+03;  4.0000001E-01;  9.8762624E-02;0;  0.0000000E+00;  0.0000000E+00;  0.0000000E+00;0; -1.8836423E-04;  1.0000000E+04;  0.0000000E+00;  0.0000000E+00;  1.0000000E+04;  0.0000000E+00;  1.0000000E+04; -1.9236169E-04;  0.0000000E+00;  3.9974730E-06;  2.1284502E-02;
 -5.9999999E-02;  9.9999998E-03;  2.2000000E-01;357;  0.0000000E+00;  0.0000000E+00;  0.0000000E+00;  1.0000001E+03;  4.0000001E-01;  9.8762624E-02;0;  0.0000000E+00;  0.0000000E+00;  0.0000000E+00;0; -1.7419527E-04;  1.0000000E+04;  0.0000000E+00;  0.0000000E+00;  1.0000000E+04;  0.0000000E+00;  1.0000000E+04; -1.7663496E-04;  0.0000000E+00;  2.4396832E-06;  1.4890579E-02;
 -5.9999999E-02;  9.9999998E-03;  2.3999999E-01;358;  0.0000000E+00;  0.0000000E+00;  0.0000000E+00;  1.0000001E+03;  4.0000001E-01;  9.8762624E-02;0;  0.0000000E+00;  0.0000000E+00;  0.0000000E+00;0; -1.5638059E-04;  1.0000000E+04;  0.0000000E+00;  0.0000000E+00;  1.0000000E+04;  0.0000000E+00;  1.0000000E+04; -1.5619639E-04;  0.0000000E+00; -1.8420246E-07;  4.3137772E-03;
 -5.9999999E-02;  9.9999998E-03;  2.5999999E-01;359;  0.0000000E+00;  0.0000000E+00;  0.0000000E+00;  1.0000001E+03;  4.0000001E-01;  9.8762624E-02;0;  0.0000000E+00;  0.0000000E+00;  0.0000000E+00;0; -1.3448237E-04;  1.0000000E+04;  0.0000000E+00;  0.0000000E+00;  1.0000000E+04;  0.0000000E+00;  1.0000000E+04; -1.3099123E-04;  0.0000000E+00; -3.4911316E-06;  9.0510184E-03;
 -5.9999999E-02;  9.9999998E-03;  2.8000000E-01;360;  0.0000000E+00;  0.0000000E+00;  0.0000000E+00;  1.0000000E+03;  4.0000001E-01;  0.0000000E+00;0;  0.0000000E+00;  0.0000000E+00;  0.0000000E+00;0; -1.0898127E-04;  1.0000000E+04;  0.0000000E+00;  0.0000000E+00;  1.0000000E+04;  0.0000000E+00;  1.0000000E+04; -1.0235969E-04;  0.0000000E+00; -6.6215875E-06;  2.1916233E-02;
 -5.9999999E-02;  9.9999998E-03;  3.0000001E-01;361;  0.0000000E+00;  0.0000000E+00;  0.0000000E+00;  1.0000000E+03;  4.0000001E-01;  0.0000000E+00;0;  0.0000000E+00;  0.0000000E+00;  0.0000000E+00;0; -8.2047947E-05;  1.0000000E+04;  0.0000000E+00;  0.0000000E+00;  1.0000000E+04;  0.0000000E+00;  1.0000000E+04; -7.3297226E-05;  0.0000000E+00; -8.7507224E-06;  3.1024788E-02;
 -5.9999999E-02;  9.9999998E-03;  3.1999999E-01;362;  0.0000000E+00;  0.0000000E+00;  0.0000000E+00;  1.0000000E+03;  4.0000001E-01;  0.0000000E+00;0;  0.0000000E+00;  0.0000000E+00;  0.0000000E+00;0; -5.6952100E-05;  1.0000000E+04;  0.0000000E+00;  0.0000000E+00;  1.0000000E+04;  0.0000000E+00;  1.0000000E+04; -4.7478730E-05;  0.0000000E+00; -9.4733678E-06;  3.4667257E-02;
 -3.9999999E-02;  9.9999998E-03;  1.6000000E-01;395;  0.0000000E+00;  0.0000000E+00;  0.0000000E+00;  1.0000002E+03;  4.0000001E-01;  1.9752525E-01;0;  0.0000000E+00;  0.0000000E+00;  0.0000000E+00;0; -3.5775444E-04;  1.0000000E+04;  0.0000000E+00;  0.0000000E+00;  1.0000000E+04;  0.0000000E+00;  1.0000000E+04; -3.6714709E-04;  0.0000000E+00;  9.3926365E-06;  4.8177529E-02;
 -3.9999999E-02;  9.9999998E-03;  1.8000001E-01;396;  0.0000000E+00;  0.0000000E+00;  0.0000000E+00;  1.0000001E+03;  4.0000001E-01;  9.8762624E-02;0;  0.0000000E+00;  0.0000000E+00;  0.0000000E+00;0; -3.4309353E-04;  1.0000000E+04;  0.0000000E+00;  0.0000000E+00;  1.0000000E+04;  0.0000000E+00;  1.0000000E+04; -3.5244680E-04;  0.0000000E+00;  9.3532863E-06;  4.7349259E-02;
 -3.9999999E-02;  9.9999998E-03;  2.0000000E-01;397;  0.0000000E+00;  0.0000000E+00;  0.0000000E+00;  1.0000001E+03;  4.0000001E-01;  9.8762624E-02;0;  0.0000000E+00;  0.0000000E+00;  0.0000000E+00;0; -3.2448719E-04;  1.0000000E+04;  0.0000000E+00;  0.0000000E+00;  1.0000000E+04;  0.0000000E+00;  1.0000000E+04; -3.3261755E-04;  0.0000000E+00;  8.1303588E-06;  4.1953690E-02;
 -3.9999999E-02;  9.9999998E-03;  2.2000000E-01;398;  0.0000000E+00;  0.0000000E+00;  0.0000000E+00;  1.0000001E+03;  4.0000001E-01;  9.8762624E-02;0;  0.0000000E+00;  0.0000000E+00;  0.0000000E+00;0; -3.0108026E-04;  1.0000000E+04;  0.0000000E+00;  0.0000000E+00;  1.0000000E+04;  0.0000000E+00;  1.0000000E+04; -3.0613990E-04;  0.0000000E+00;  5.0596454E-06;  2.9355869E-02;
 -3.9999999E-02;  9.9999998E-03;  2.3999999E-01;399;  0.0000000E+00;  0.0000000E+00;  0.0000000E+00;  1.0000001E+03;  4.0000001E-01;  9.8762624E-02;0;  0.0000000E+00;  0.0000000E+00;  0.0000000E+00;0; -2.7180157E-04;  1.0000000E+04;  0.0000000E+00;  0.0000000E+00;  1.0000000E+04;  0.0000000E+00;  1.0000000E+04; -2.7170614E-04;  0.0000000E+00; -9.5440278E-08;  8.4975660E-03;
 -3.9999999E-02;  9.9999998E-03;  2.5999999E-01;400;  0.0000000E+00;  0.0000000E+00;  0.0000000E+00;  1.0000001E+03;  4.0000001E-01;  9.8762624E-02;0;  0.0000000E+00;  0.0000000E+00;  0.0000000E+00;0; -2.3576150E-04;  1.0000000E+04;  0.0000000E+00;  0.0000000E+00;  1.0000000E+04;  0.0000000E+00;  1.0000000E+04; -2.2910409E-04;  0.0000000E+00; -6.6574203E-06;  1.8130040E-02;
 -3.9999999E-02;  9.9999998E-03;  2.8000000E-01;401;  0.0000000E+00;  0.0000000E+00;  0.0000000E+00;  1.0000001E+03;  4.0000001E-01;  9.8762624E-02;0;  0.0000000E+00;  0.0000000E+00;  0.0000000E+00;0; -1.9335843E-04;  1.0000000E+04;  0.0000000E+00;  0.0000000E+00;  1.0000000E+04;  0.0000000E+00;  1.0000000E+04; -1.8034293E-04;  0.0000000E+00; -1.3015499E-05;  4.4299774E-02;
 -3.9999999E-02;  9.9999998E-03;  3.0000001E-01;402;  0.0000000E+00;  0.0000000E+00;  0.0000000E+00;  1.0000001E+03;  4.0000001E-01;  9.8762624E-02;0;  0.0000000E+00;  0.0000000E+00;  0.0000000E+00;0; -1.4786400E-04;  1.0000000E+04;  0.0000000E+00;  0.0000000E+00;  1.0000000E+04;  0.0000000E+00;  1.0000000E+04; -1.3035980E-04;  0.0000000E+00; -1.7504210E-05;  6.3394994E-02;
 -3.9999999E-02;  9.9999998E-03;  3.1999999E-01;403;  0.0000000E+00;  0.0000000E+00;  0.0000000E+00;  1.0000000E+03;  4.0000001E-01;  0.0000000E+00;0;  0.0000000E+00;  0.0000000E+00;  0.0000000E+00;0; -1.0485020E-04;  1.0000000E+04;  0.0000000E+00;  0.0000000E+00;  1.0000000E+04;  0.0000000E+00;  1.0000000E+04; -8.5587562E-05;  0.0000000E+00; -1.9262643E-05;  7.1786202E-02;
 -2.0000000E-02;  9.9999998E-03;  1.6000000E-01;436;  0.0000000E+00;  0.0000000E+00;  0.0000000E+00;  1.0000002E+03;  4.0000001E-01;  1.9752525E-01;0;  0.0000000E+00;  0.0000000E+00;  0.0000000E+00;0; -5.4487836E-04;  1.0000000E+04;  0.0000000E+00;  0.0000000E+00;  1.0000000E+04;  0.0000000E+00;  1.0000000E+04; -5.6161010E-04;  0.0000000E+00;  1.6731750E-05;  8.4090613E-02;
 -2.0000000E-02;  9.9999998E-03;  1.8000001E-01;437;  0.0000000E+00;  0.0000000E+00;  0.0000000E+00;  1.0000002E+03;  4.0000001E-01;  1.9752525E-01;0;  0.0000000E+00;  0.0000000E+00;  0.0000000E+00;0; -5.2333658E-04;  1.0000000E+04;  0.0000000E+00;  0.0000000E+00;  1.0000000E+04;  0.0000000E+00;  1.0000000E+04; -5.4001715E-04;  0.0000000E+00;  1.6680588E-05;  8.2872473E-02;
 -2.0000000E-02;  9.9999998E-03;  2.0000000E-01;438;  0.0000000E+00;  0.0000000E+00;  0.0000000E+00;  1.0000002E+03;  4.0000001E-01;  1.9752525E-01;0;  0.0000000E+00;  0.0000000E+00;  0.0000000E+00;0; -4.9613207E-04;  1.0000000E+04;  0.0000000E+00;  0.0000000E+00;  1.0000000E+04;  0.0000000E+00;  1.0000000E+04; -5.1071768E-04;  0.0000000E+00;  1.4585600E-05;  7.3675424E-02;
 -2.0000000E-02;  9.9999998E-03;  2.2000000E-01;439;  0.0000000E+00;  0.0000000E+00;  0.0000000E+00;  1.0000002E+03;  4.0000001E-01;  1.9752525E-01;0;  0.0000000E+00;  0.0000000E+00;  0.0000000E+00;0; -4.6207500E-04;  1.0000000E+04;  0.0000000E+00;  0.0000000E+00;  1.0000000E+04;  0.0000000E+00;  1.0000000E+04; -4.7138488E-04;  0.0000000E+00;  9.3098924E-06;  5.1905993E-02;
 -2.0000000E-02;  9.9999998E-03;  2.3999999E-01;440;  0.0000000E+00;  0.0000000E+00;  0.0000000E+00;  1.0000002E+03;  4.0000001E-01;  1.9752525E-01;0;  0.0000000E+00;  0.0000000E+00;  0.0000000E+00;0; -4.1957197E-04;  1.0000000E+04;  0.0000000E+00;  0.0000000E+00;  1.0000000E+04;  0.0000000E+00;  1.0000000E+04; -4.1997895E-04;  0.0000000E+00;  4.0699118E-07;  1.5563831E-02;
 -2.0000000E-02;  9.9999998E-03;  2.5999999E-01;441;  0.0000000E+00;  0.0000000E+00;  0.0000000E+00;  1.0000002E+03;  4.0000001E-01;  1.9752525E-01;0;  0.0000000E+00;  0.0000000E+00;  0.0000000E+00;0; -3.6711051E-04;  1.0000000E+04;  0.0000000E+00;  0.0000000E+00;  1.0000000E+04;  0.0000000E+00;  1.0000000E+04; -3.5600367E-04;  0.0000000E+00; -1.1106847E-05;  3.1563908E-02;
 -2.0000000E-02;  9.9999998E-03;  2.8000000E-01;442;  0.0000000E+00;  0.0000000E+00;  0.0000000E+00;  1.0000001E+03;  4.0000001E-01;  9.8762624E-02;0;  0.0000000E+00;  0.0000000E+00;  0.0000000E+00;0; -3.0469673E-04;  1.0000000E+04;  0.0000000E+00;  0.0000000E+00;  1.0000000E+04;  0.0000000E+00;  1.0000000E+04; -2.8209234E-04;  0.0000000E+00; -2.2604396E-05;  7.9165071E-02;
 -2.0000000E-02;  9.9999998E-03;  3.0000001E-01;443;  0.0000000E+00;  0.0000000E+00;  0.0000000E+00;  1.0000001E+03;  4.0000001E-01;  9.8762624E-02;0;  0.0000000E+00;  0.0000000E+00;  0.0000000E+00;0; -2.3633687E-04;  1.0000000E+04;  0.0000000E+00;  0.0000000E+00;  1.0000000E+04;  0.0000000E+00;  1.0000000E+04; -2.0533809E-04;  0.0000000E+00; -3.0998777E-05;  1.1489181E-01;
 -2.0000000E-02;  9.9999998E-03;  3.1999999E-01;444;  0.0000000E+00;  0.0000000E+00;  0.0000000E+00;  1.0000001E+03;  4.0000001E-01;  9.8762624E-02;0;  0.0000000E+00;  0.0000000E+00;  0.0000000E+00;0; -1.7045633E-04;  1.0000000E+04;  0.0000000E+00;  0.0000000E+00;  1.0000000E+04;  0.0000000E+00;  1.0000000E+04; -1.3592391E-04;  0.0000000E+00; -3.4532426E-05;  1.3135719E-01;
  0.0000000E+00;  9.9999998E-03;  3.0000001E-01;455;  0.0000000E+00;  0.0000000E+00;  0.0000000E+00;  1.0000001E+03;  4.0000001E-01;  9.8762624E-02;0;  0.0000000E+00;  0.0000000E+00;  0.0000000E+00;0; -3.4397264E-04;  1.0000000E+04;  0.0000000E+00;  0.0000000E+00;  1.0000000E+04;  0.0000000E+00;  1.0000000E+04; -2.9450943E-04;  0.0000000E+00; -4.9463197E-05;  1.8812293E-01;
  0.0000000E+00;  9.9999998E-03;  3.1999999E-01;456;  0.0000000E+00;  0.0000000E+00;  0.0000000E+00;  1.0000001E+03;  4.0000001E-01;  9.8762624E-02;0;  0.0000000E+00;  0.0000000E+00;  0.0000000E+00;0; -2.5220407E-04;  1.0000000E+04;  0.0000000E+00;  0.0000000E+00;  1.0000000E+04;  0.0000000E+00;  1.0000000E+04; -1.9631349E-04;  0.0000000E+00; -5.5890585E-05;  2.1766731E-01;
  2.0000000E-02;  9.9999998E-03;  3.1999999E-01;466;  0.0000000E+00;  0.0000000E+00;  0.0000000E+00;  1.0000002E+03;  4.0000001E-01;  1.9752525E-01;0;  0.0000000E+00;  0.0000000E+00;  0.0000000E+00;0; -3.4899329E-04;  1.0000000E+04;  0.0000000E+00;  0.0000000E+00;  1.0000000E+04;  0.0000000E+00;  1.0000000E+04; -2.6588773E-04;  0.0000000E+00; -8.3105551E-05;  3.3265659E-01;
  3.9999999E-02;  9.9999998E-03;  3.1999999E-01;476;  0.0000000E+00;  0.0000000E+00;  0.0000000E+00;  1.0000002E+03;  4.0000001E-01;  1.9752525E-01;0;  0.0000000E+00;  0.0000000E+00;  0.0000000E+00;0; -4.6511739E-04;  1.0000000E+04;  0.0000000E+00;  0.0000000E+00;  1.0000000E+04;  0.0000000E+00;  1.0000000E+04; -3.4946829E-04;  0.0000000E+00; -1.1564910E-04;  4.7784290E-01;
  5.9999999E-02;  9.9999998E-03;  3.1999999E-01;486;  0.0000000E+00;  0.0000000E+00;  0.0000000E+00;  1.0000004E+03;  4.0000001E-01;  2.9628786E-01;0;  0.0000000E+00;  0.0000000E+00;  0.0000000E+00;0; -6.1211508E-04;  1.0000000E+04;  0.0000000E+00;  0.0000000E+00;  1.0000000E+04;  0.0000000E+00;  1.0000000E+04; -4.5771626E-04;  0.0000000E+00; -1.5439882E-04;  6.6087478E-01;
  7.9999998E-02;  9.9999998E-03;  3.1999999E-01;496;  0.0000000E+00;  0.0000000E+00;  0.0000000E+00;  1.0000005E+03;  4.0000001E-01;  3.9505050E-01;0;  0.0000000E+00;  0.0000000E+00;  0.0000000E+00;0; -8.0985948E-04;  1.0000000E+04;  0.0000000E+00;  0.0000000E+00;  1.0000000E+04;  0.0000000E+00;  1.0000000E+04; -6.0786313E-04;  0.0000000E+00; -2.0199637E-04;  8.9879090E-01;
  1.0000000E-01;  9.9999998E-03;  3.1999999E-01;506;  0.0000000E+00;  0.0000000E+00;  0.0000000E+00;  1.0000007E+03;  4.0000001E-01;  5.9257573E-01;0;  0.0000000E+00;  0.0000000E+00;  0.0000000E+00;0; -1.0938650E-03;  1.0000000E+04;  0.0000000E+00;  0.0000000E+00;  1.0000000E+04;  0.0000000E+00;  1.0000000E+04; -8.3017431E-04;  0.0000000E+00; -2.6369074E-04;  1.2687683E+00;
  1.2000000E-01;  9.9999998E-03;  3.1999999E-01;516;  0.0000000E+00;  0.0000000E+00;  0.0000000E+00;  1.0000010E+03;  4.0000001E-01;  7.9010099E-01;0;  0.0000000E+00;  0.0000000E+00;  0.0000000E+00;0; -1.5225746E-03;  1.0000000E+04;  0.0000000E+00;  0.0000000E+00;  1.0000000E+04;  0.0000000E+00;  1.0000000E+04; -1.1730662E-03;  0.0000000E+00; -3.4950834E-04;  2.2837212E+00;
  1.4000000E-01;  9.9999998E-03;  3.1999999E-01;526;  0.0000000E+00;  0.0000000E+00;  0.0000000E+00;  1.0000014E+03;  4.0000001E-01;  1.1851515E+00;0;  0.0000000E+00;  0.0000000E+00;  0.0000000E+00;0; -2.1854979E-03;  1.0000000E+04;  0.0000000E+00;  0.0000000E+00;  1.0000000E+04;  0.0000000E+00;  1.0000000E+04; -1.7072469E-03;  0.0000000E+00; -4.7825102E-04;  5.5527401E+00;
  1.6000000E-01;  9.9999998E-03;  3.1999999E-01;536;  0.0000000E+00;  0.0000000E+00;  0.0000000E+00;  1.0000021E+03;  4.0000001E-01;  1.7777272E+00;0;  0.0000000E+00;  0.0000000E+00;  0.0000000E+00;0; -3.1991850E-03;  1.0000000E+04;  0.0000000E+00;  0.0000000E+00;  1.0000000E+04;  0.0000000E+00;  1.0000000E+04; -2.5148636E-03;  0.0000000E+00; -6.8432145E-04;  1.3768414E+01;
  1.8000001E-01;  9.9999998E-03;  3.1999999E-01;546;  0.0000000E+00;  0.0000000E+00;  0.0000000E+00;  1.0000032E+03;  4.0000001E-01;  2.6665909E+00;0;  0.0000000E+00;  0.0000000E+00;  0.0000000E+00;0; -4.6661575E-03;  1.0000000E+04;  0.0000000E+00;  0.0000000E+00;  1.0000000E+04;  0.0000000E+00;  1.0000000E+04; -3.6392512E-03;  0.0000000E+00; -1.0269064E-03;  2.9949247E+01;
  2.0000000E-01;  9.9999998E-03;  3.1999999E-01;555;  0.0000000E+00;  0.0000000E+00;  0.0000000E+00;  1.0000047E+03;  4.0000001E-01;  3.8517423E+00;0;  0.0000000E+00;  0.0000000E+00;  0.0000000E+00;0; -6.6219424E-03;  1.0000000E+04;  0.0000000E+00;  0.0000000E+00;  1.0000000E+04;  0.0000000E+00;  1.0000000E+04; -5.0289943E-03;  0.0000000E+00; -1.5929481E-03;  5.4009525E+01;
 -2.2000000E-01;  9.9999998E-03;  3.4000000E-01;36;  0.0000000E+00;  0.0000000E+00;  0.0000000E+00;  1.0000000E+03;  4.0000001E-01;  0.0000000E+00;0;  0.0000000E+00;  0.0000000E+00;  0.0000000E+00;0;  0.0000000E+00;  1.0000000E+04;  0.0000000E+00;  0.0000000E+00;  1.0000000E+04;  0.0000000E+00;  1.0000000E+04;  0.0000000E+00;  0.0000000E+00;  0.0000000E+00;  0.0000000E+00;
 -2.2000000E-01;  9.9999998E-03;  3.6000001E-01;37;  0.0000000E+00;  0.0000000E+00;  0.0000000E+00;  1.0000000E+03;  4.0000001E-01;  0.0000000E+00;0;  0.0000000E+00;  0.0000000E+00;  0.0000000E+00;0;  0.0000000E+00;  1.0000000E+04;  0.0000000E+00;  0.0000000E+00;  1.0000000E+04;  0.0000000E+00;  1.0000000E+04;  0.0000000E+00;  0.0000000E+00;  0.0000000E+00;  0.0000000E+00;
 -2.2000000E-01;  9.9999998E-03;  3.8000000E-01;38;  0.0000000E+00;  0.0000000E+00;  0.0000000E+00;  1.0000000E+03;  4.0000001E-01;  0.0000000E+00;0;  0.0000000E+00;  0.0000000E+00;  0.0000000E+00;0;  0.0000000E+00;  1.0000000E+04;  0.0000000E+00;  0.0000000E+00;  1.0000000E+04;  0.0000000E+00;  1.0000000E+04;  0.0000000E+00;  0.0000000E+00;  0.0000000E+00;  0.0000000E+00;
 -2.0000000E-01;  9.9999998E-03;  3.4000000E-01;76;  0.0000000E+00;  0.0000000E+00;  0.0000000E+00;  1.0000000E+03;  4.0000001E-01;  0.0000000E+00;0;  0.0000000E+00;  0.0000000E+00;  0.0000000E+00;0;  0.0000000E+00;  1.0000000E+04;  0.0000000E+00;  0.0000000E+00;  1.0000000E+04;  0.0000000E+00;  1.0000000E+04;  0.0000000E+00;  0.0000000E+00;  0.0000000E+00;  0.0000000E+00;
 -2.0000000E-01;  9.9999998E-03;  3.6000001E-01;77;  0.0000000E+00;  0.0000000E+00;  0.0000000E+00;  1.0000000E+03;  4.0000001E-01;  0.0000000E+00;0;  0.0000000E+00;  0.0000000E+00;  0.0000000E+00;0;  0.0000000E+00;  1.0000000E+04;  0.0000000E+00;  0.0000000E+00;  1.0000000E+04;  0.0000000E+00;  1.0000000E+04;  0.0000000E+00;  0.0000000E+00;  0.0000000E+00;  0.0000000E+00;
 -2.0000000E-01;  9.9999998E-03;  3.8000000E-01;78;  0.0000000E+00;  0.0000000E+00;  0.0000000E+00;  1.0000000E+03;  4.0000001E-01;  0.0000000E+00;0;  0.0000000E+00;  0.0000000E+00;  0.0000000E+00;0;  0.0000000E+00;  1.0000000E+04;  0.0000000E+00;  0.0000000E+00;  1.0000000E+04;  0.0000000E+00;  1.0000000E+04;  0.0000000E+00;  0.0000000E+00;  0.0000000E+00;  0.0000000E+00;
 -2.0000000E-01;  9.9999998E-03;  4.0000001E-01;79;  0.0000000E+00;  0.0000000E+00;  0.0000000E+00;  1.0000000E+03;  4.0000001E-01;  0.0000000E+00;0;  0.0000000E+00;  0.0000000E+00;  0.0000000E+00;0;  0.0000000E+00;  1.0000000E+04;  0.0000000E+00;  0.0000000E+00;  1.0000000E+04;  0.0000000E+00;  1.0000000E+04;  0.0000000E+00;  0.0000000E+00;  0.0000000E+00;  0.0000000E+00;
 -1.8000001E-01;  9.9999998E-03;  3.4000000E-01;117;  0.0000000E+00;  0.0000000E+00;  0.0000000E+00;  1.0000000E+03;  4.0000001E-01;  0.0000000E+00;0;  0.0000000E+00;  0.0000000E+00;  0.0000000E+00;0;  0.0000000E+00;  1.0000000E+04;  0.0000000E+00;  0.0000000E+00;  1.0000000E+04;  0.0000000E+00;  1.0000000E+04;  0.0000000E+00;  0.0000000E+00;  0.0000000E+00;  0.0000000E+00;
 -1.8000001E-01;  9.9999998E-03;  3.6000001E-01;118;  0.0000000E+00;  0.0000000E+00;  0.0000000E+00;  1.0000000E+03;  4.0000001E-01;  0.0000000E+00;0;  0.0000000E+00;  0.0000000E+00;  0.0000000E+00;0;  0.0000000E+00;  1.0000000E+04;  0.0000000E+00;  0.0000000E+00;  1.0000000E+04;  0.0000000E+00;  1.0000000E+04;  0.0000000E+00;  0.0000000E+00;  0.0000000E+00;  0.0000000E+00;
 -1.8000001E-01;  9.9999998E-03;  3.8000000E-01;119;  0.0000000E+00;  0.0000000E+00;  0.0000000E+00;  1.0000000E+03;  4.0000001E-01;  0.0000000E+00;0;  0.0000000E+00;  0.0000000E+00;  0.0000000E+00;0;  0.0000000E+00;  1.0000000E+04;  0.0000000E+00;  0.0000000E+00;  1.0000000E+04;  0.0000000E+00;  1.0000000E+04;  0.0000000E+00;  0.0000000E+00;  0.0000000E+00;  0.0000000E+00;
 -1.8000001E-01;  9.9999998E-03;  4.0000001E-01;120;  0.0000000E+00;  0.0000000E+00;  0.0000000E+00;  1.0000000E+03;  4.0000001E-01;  0.0000000E+00;0;  0.0000000E+00;  0.0000000E+00;  0.0000000E+00;0;  0.0000000E+00;  1.0000000E+04;  0.0000000E+00;  0.0000000E+00;  1.0000000E+04;  0.0000000E+00;  1.0000000E+04;  0.0000000E+00;  0.0000000E+00;  0.0000000E+00;  0.0000000E+00;
 -1.6000000E-01;  9.9999998E-03;  3.4000000E-01;158;  0.0000000E+00;  0.0000000E+00;  0.0000000E+00;  1.0000000E+03;  4.0000001E-01;  0.0000000E+00;0;  0.0000000E+00;  0.0000000E+00;  0.0000000E+00;0;  0.0000000E+00;  1.0000000E+04;  0.0000000E+00;  0.0000000E+00;  1.0000000E+04;  0.0000000E+00;  1.0000000E+04;  0.0000000E+00;  0.0000000E+00;  0.0000000E+00;  0.0000000E+00;
 -1.6000000E-01;  9.9999998E-03;  3.6000001E-01;159;  0.0000000E+00;  0.0000000E+00;  0.0000000E+00;  1.0000000E+03;  4.0000001E-01;  0.0000000E+00;0;  0.0000000E+00;  0.0000000E+00;  0.0000000E+00;0;  0.0000000E+00;  1.0000000E+04;  0.0000000E+00;  0.0000000E+00;  1.0000000E+04;  0.0000000E+00;  1.0000000E+04;  0.0000000E+00;  0.0000000E+00;  0.0000000E+00;  0.0000000E+00;
 -1.6000000E-01;  9.9999998E-03;  3.8000000E-01;160;  0.0000000E+00;  0.0000000E+00;  0.0000000E+00;  1.0000000E+03;  4.0000001E-01;  0.0000000E+00;0;  0.0000000E+00;  0.0000000E+00;  0.0000000E+00;0;  0.0000000E+00;  1.0000000E+04;  0.0000000E+00;  0.0000000E+00;  1.0000000E+04;  0.0000000E+00;  1.0000000E+04;  0.0000000E+00;  0.0000000E+00;  0.0000000E+00;  0.0000000E+00;
 -1.6000000E-01;  9.9999998E-03;  4.0000001E-01;161;  0.0000000E+00;  0.0000000E+00;  0.0000000E+00;  1.0000000E+03;  4.0000001E-01;  0.0000000E+00;0;  0.0000000E+00;  0.0000000E+00;  0.0000000E+00;0;  0.0000000E+00;  1.0000000E+04;  0.0000000E+00;  0.0000000E+00;  1.0000000E+04;  0.0000000E+00;  1.0000000E+04;  0.0000000E+00;  0.0000000E+00;  0.0000000E+00;  0.0000000E+00;
 -1.4000000E-01;  9.9999998E-03;  3.4000000E-01;199;  0.0000000E+00;  0.0000000E+00;  0.0000000E+00;  1.0000000E+03;  4.0000001E-01;  0.0000000E+00;0;  0.0000000E+00;  0.0000000E+00;  0.0000000E+00;0; -9.1483912E-08;  1.0000000E+04;  0.0000000E+00;  0.0000000E+00;  1.0000000E+04;  0.0000000E+00;  1.0000000E+04; -7.7487996E-08;  0.0000000E+00; -1.3995912E-08;  4.9523282E-05;
 -1.4000000E-01;  9.9999998E-03;  3.6000001E-01;200;  0.0000000E+00;  0.0000000E+00;  0.0000000E+00;  1.0000000E+03;  4.0000001E-01;  0.0000000E+00;0;  0.0000000E+00;  0.0000000E+00;  0.0000000E+00;0; -1.0609188E-08;  1.0000000E+04;  0.0000000E+00;  0.0000000E+00;  1.0000000E+04;  0.0000000E+00;  1.0000000E+04; -8.4016394E-09;  0.0000000E+00; -2.2075486E-09;  7.9320653E-06;
 -1.4000000E-01;  9.9999998E-03;  3.8000000E-01;201;  0.0000000E+00;  0.0000000E+00;  0.0000000E+00;  1.0000000E+03;  4.0000001E-01;  0.0000000E+00;0;  0.0000000E+00;  0.0000000E+00;  0.0000000E+00;0;  0.0000000E+00;  1.0000000E+04;  0.0000000E+00;  0.0000000E+00;  1.0000000E+04;  0.0000000E+00;  1.0000000E+04;  0.0000000E+00;  0.0000000E+00;  0.0000000E+00;  0.0000000E+00;
 -1.4000000E-01;  9.9999998E-03;  4.0000001E-01;202;  0.0000000E+00;  0.0000000E+00;  0.0000000E+00;  1.0000000E+03;  4.0000001E-01;  0.0000000E+00;0;  0.0000000E+00;  0.0000000E+00;  0.0000000E+00;0;  0.0000000E+00;  1.0000000E+04;  0.0000000E+00;  0.0000000E+00;  1.0000000E+04;  0.0000000E+00;  1.0000000E+04;  0.0000000E+00;  0.0000000E+00;  0.0000000E+00;  0.0000000E+00;
 -1.2000000E-01;  9.9999998E-03;  3.4000000E-01;240;  0.0000000E+00;  0.0000000E+00;  0.0000000E+00;  1.0000000E+03;  4.0000001E-01;  0.0000000E+00;0;  0.0000000E+00;  0.0000000E+00;  0.0000000E+00;0; -1.1510531E-06;  1.0000000E+04;  0.0000000E+00;  0.0000000E+00;  1.0000000E+04;  0.0000000E+00;  1.0000000E+04; -9.4694150E-07;  0.0000000E+00; -2.0411164E-07;  7.3282170E-04;
 -1.2000000E-01;  9.9999998E-03;  3.6000001E-01;241;  0.0000000E+00;  0.0000000E+00;  0.0000000E+00;  1.0000000E+03;  4.0000001E-01;  0.0000000E+00;0;  0.0000000E+00;  0.0000000E+00;  0.0000000E+00;0; -3.8486007E-07;  1.0000000E+04;  0.0000000E+00;  0.0000000E+00;  1.0000000E+04;  0.0000000E+00;  1.0000000E+04; -2.9212794E-07;  0.0000000E+00; -9.2732151E-08;  3.3604528E-04;
 -1.2000000E-01;  9.9999998E-03;  3.8000000E-01;242;  0.0000000E+00;  0.0000000E+00;  0.0000000E+00;  1.0000000E+03;  4.0000001E-01;  0.0000000E+00;0;  0.0000000E+00;  0.0000000E+00;  0.0000000E+00;0; -5.6833848E-08;  1.0000000E+04;  0.0000000E+00;  0.0000000E+00;  1.0000000E+04;  0.0000000E+00;  1.0000000E+04; -4.0459327E-08;  0.0000000E+00; -1.6374520E-08;  5.9658840E-05;
 -1.2000000E-01;  9.9999998E-03;  4.0000001E-01;243;  0.0000000E+00;  0.0000000E+00;  0.0000000E+00;  1.0000000E+03;  4.0000001E-01;  0.0000000E+00;0;  0.0000000E+00;  0.0000000E+00;  0.0000000E+00;0; -2.3439629E-26;  1.0000000E+04;  0.0000000E+00;  0.0000000E+00;  1.0000000E+04;  0.0000000E+00;  1.0000000E+04; -1.6590732E-26;  0.0000000E+00; -6.8488965E-27;  0.0000000E+00;
 -1.0000000E-01;  9.9999998E-03;  3.4000000E-01;281;  0.0000000E+00;  0.0000000E+00;  0.0000000E+00;  1.0000000E+03;  4.0000001E-01;  0.0000000E+00;0;  0.0000000E+00;  0.0000000E+00;  0.0000000E+00;0; -5.3327376E-06;  1.0000000E+04;  0.0000000E+00;  0.0000000E+00;  1.0000000E+04;  0.0000000E+00;  1.0000000E+04; -4.2680886E-06;  0.0000000E+00; -1.0646488E-06;  3.8569432E-03;
 -1.0000000E-01;  9.9999998E-03;  3.6000001E-01;282;  0.0000000E+00;  0.0000000E+00;  0.0000000E+00;  1.0000000E+03;  4.0000001E-01;  0.0000000E+00;0;  0.0000000E+00;  0.0000000E+00;  0.0000000E+00;0; -2.4403537E-06;  1.0000000E+04;  0.0000000E+00;  0.0000000E+00;  1.0000000E+04;  0.0000000E+00;  1.0000000E+04; -1.7809505E-06;  0.0000000E+00; -6.5940327E-07;  2.4157879E-03;
 -1.0000000E-01;  9.9999998E-03;  3.8000000E-01;283;  0.0000000E+00;  0.0000000E+00;  0.0000000E+00;  1.0000000E+03;  4.0000001E-01;  0.0000000E+00;0;  0.0000000E+00;  0.0000000E+00;  0.0000000E+00;0; -7.7429263E-07;  1.0000000E+04;  0.0000000E+00;  0.0000000E+00;  1.0000000E+04;  0.0000000E+00;  1.0000000E+04; -5.2312572E-07;  0.0000000E+00; -2.5116694E-07;  9.2370290E-04;
 -1.0000000E-01;  9.9999998E-03;  4.0000001E-01;284;  0.0000000E+00;  0.0000000E+00;  0.0000000E+00;  1.0000000E+03;  4.0000001E-01;  0.0000000E+00;0;  0.0000000E+00;  0.0000000E+00;  0.0000000E+00;0; -1.0685339E-07;  1.0000000E+04;  0.0000000E+00;  0.0000000E+00;  1.0000000E+04;  0.0000000E+00;  1.0000000E+04; -7.1436681E-08;  0.0000000E+00; -3.5416715E-08;  1.3041668E-04;
 -7.9999998E-02;  9.9999998E-03;  3.4000000E-01;322;  0.0000000E+00;  0.0000000E+00;  0.0000000E+00;  1.0000000E+03;  4.0000001E-01;  0.0000000E+00;0;  0.0000000E+00;  0.0000000E+00;  0.0000000E+00;0; -1.5872964E-05;  1.0000000E+04;  0.0000000E+00;  0.0000000E+00;  1.0000000E+04;  0.0000000E+00;  1.0000000E+04; -1.2379936E-05;  0.0000000E+00; -3.4930276E-06;  1.2812959E-02;
 -7.9999998E-02;  9.9999998E-03;  3.6000001E-01;323;  0.0000000E+00;  0.0000000E+00;  0.0000000E+00;  1.0000000E+03;  4.0000001E-01;  0.0000000E+00;0;  0.0000000E+00;  0.0000000E+00;  0.0000000E+00;0; -8.3699233E-06;  1.0000000E+04;  0.0000000E+00;  0.0000000E+00;  1.0000000E+04;  0.0000000E+00;  1.0000000E+04; -5.8898363E-06;  0.0000000E+00; -2.4800866E-06;  9.1868732E-03;
 -7.9999998E-02;  9.9999998E-03;  3.8000000E-01;324;  0.0000000E+00;  0.0000000E+00;  0.0000000E+00;  1.0000000E+03;  4.0000001E-01;  0.0000000E+00;0;  0.0000000E+00;  0.0000000E+00;  0.0000000E+00;0; -3.4758978E-06;  1.0000000E+04;  0.0000000E+00;  0.0000000E+00;  1.0000000E+04;  0.0000000E+00;  1.0000000E+04; -2.2404472E-06;  0.0000000E+00; -1.2354506E-06;  4.5925537E-03;
 -7.9999998E-02;  9.9999998E-03;  4.0000001E-01;325;  0.0000000E+00;  0.0000000E+00;  0.0000000E+00;  1.0000000E+03;  4.0000001E-01;  0.0000000E+00;0;  0.0000000E+00;  0.0000000E+00;  0.0000000E+00;0; -9.1408720E-07;  1.0000000E+04;  0.0000000E+00;  0.0000000E+00;  1.0000000E+04;  0.0000000E+00;  1.0000000E+04; -5.7719535E-07;  0.0000000E+00; -3.3689184E-07;  1.2512631E-03;
 -5.9999999E-02;  9.9999998E-03;  3.4000000E-01;363;  0.0000000E+00;  0.0000000E+00;  0.0000000E+00;  1.0000000E+03;  4.0000001E-01;  0.0000000E+00;0;  0.0000000E+00;  0.0000000E+00;  0.0000000E+00;0; -3.6237965E-05;  1.0000000E+04;  0.0000000E+00;  0.0000000E+00;  1.0000000E+04;  0.0000000E+00;  1.0000000E+04; -2.7503907E-05;  0.0000000E+00; -8.7340595E-06;  3.2506999E-02;
 -5.9999999E-02;  9.9999998E-03;  3.6000001E-01;364;  0.0000000E+00;  0.0000000E+00;  0.0000000E+00;  1.0000000E+03;  4.0000001E-01;  0.0000000E+00;0;  0.0000000E+00;  0.0000000E+00;  0.0000000E+00;0; -2.0655913E-05;  1.0000000E+04;  0.0000000E+00;  0.0000000E+00;  1.0000000E+04;  0.0000000E+00;  1.0000000E+04; -1.3997066E-05;  0.0000000E+00; -6.6588459E-06;  2.4995683E-02;
 -5.9999999E-02;  9.9999998E-03;  3.8000000E-01;365;  0.0000000E+00;  0.0000000E+00;  0.0000000E+00;  1.0000000E+03;  4.0000001E-01;  0.0000000E+00;0;  0.0000000E+00;  0.0000000E+00;  0.0000000E+00;0; -9.7945849E-06;  1.0000000E+04;  0.0000000E+00;  0.0000000E+00;  1.0000000E+04;  0.0000000E+00;  1.0000000E+04; -6.0177581E-06;  0.0000000E+00; -3.7768264E-06;  1.4214228E-02;
 -5.9999999E-02;  9.9999998E-03;  4.0000001E-01;366;  0.0000000E+00;  0.0000000E+00;  0.0000000E+00;  1.0000000E+03;  4.0000001E-01;  0.0000000E+00;0;  0.0000000E+00;  0.0000000E+00;  0.0000000E+00;0; -3.3339638E-06;  1.0000000E+04;  0.0000000E+00;  0.0000000E+00;  1.0000000E+04;  0.0000000E+00;  1.0000000E+04; -1.9921401E-06;  0.0000000E+00; -1.3418236E-06;  5.0403140E-03;
 -3.9999999E-02;  9.9999998E-03;  3.4000000E-01;404;  0.0000000E+00;  0.0000000E+00;  0.0000000E+00;  1.0000000E+03;  4.0000001E-01;  0.0000000E+00;0;  0.0000000E+00;  0.0000000E+00;  0.0000000E+00;0; -6.8836860E-05;  1.0000000E+04;  0.0000000E+00;  0.0000000E+00;  1.0000000E+04;  0.0000000E+00;  1.0000000E+04; -5.0659120E-05;  0.0000000E+00; -1.8177736E-05;  6.8782426E-02;
 -3.9999999E-02;  9.9999998E-03;  3.6000001E-01;405;  0.0000000E+00;  0.0000000E+00;  0.0000000E+00;  1.0000000E+03;  4.0000001E-01;  0.0000000E+00;0;  0.0000000E+00;  0.0000000E+00;  0.0000000E+00;0; -4.1147727E-05;  1.0000000E+04;  0.0000000E+00;  0.0000000E+00;  1.0000000E+04;  0.0000000E+00;  1.0000000E+04; -2.6732274E-05;  0.0000000E+00; -1.4415454E-05;  5.4954723E-02;
 -3.9999999E-02;  9.9999998E-03;  3.8000000E-01;406;  0.0000000E+00;  0.0000000E+00;  0.0000000E+00;  1.0000000E+03;  4.0000001E-01;  0.0000000E+00;0;  0.0000000E+00;  0.0000000E+00;  0.0000000E+00;0; -2.1023436E-05;  1.0000000E+04;  0.0000000E+00;  0.0000000E+00;  1.0000000E+04;  0.0000000E+00;  1.0000000E+04; -1.2250770E-05;  0.0000000E+00; -8.7726648E-06;  3.3502690E-02;
 -3.9999999E-02;  9.9999998E-03;  4.0000001E-01;407;  0.0000000E+00;  0.0000000E+00;  0.0000000E+00;  1.0000000E+03;  4.0000001E-01;  0.0000000E+00;0;  0.0000000E+00;  0.0000000E+00;  0.0000000E+00;0; -8.1436956E-06;  1.0000000E+04;  0.0000000E+00;  0.0000000E+00;  1.0000000E+04;  0.0000000E+00;  1.0000000E+04; -4.5800562E-06;  0.0000000E+00; -3.5636399E-06;  1.3571624E-02;
 -2.0000000E-02;  9.9999998E-03;  3.4000000E-01;445;  0.0000000E+00;  0.0000000E+00;  0.0000000E+00;  1.0000000E+03;  4.0000001E-01;  0.0000000E+00;0;  0.0000000E+00;  0.0000000E+00;  0.0000000E+00;0; -1.1440918E-04;  1.0000000E+04;  0.0000000E+00;  0.0000000E+00;  1.0000000E+04;  0.0000000E+00;  1.0000000E+04; -8.1380975E-05;  0.0000000E+00; -3.3028206E-05;  1.2738116E-01;
 -2.0000000E-02;  9.9999998E-03;  3.6000001E-01;446;  0.0000000E+00;  0.0000000E+00;  0.0000000E+00;  1.0000000E+03;  4.0000001E-01;  0.0000000E+00;0;  0.0000000E+00;  0.0000000E+00;  0.0000000E+00;0; -7.0527894E-05;  1.0000000E+04;  0.0000000E+00;  0.0000000E+00;  1.0000000E+04;  0.0000000E+00;  1.0000000E+04; -4.3754124E-05;  0.0000000E+00; -2.6773772E-05;  1.0393838E-01;
 -2.0000000E-02;  9.9999998E-03;  3.8000000E-01;447;  0.0000000E+00;  0.0000000E+00;  0.0000000E+00;  1.0000000E+03;  4.0000001E-01;  0.0000000E+00;0;  0.0000000E+00;  0.0000000E+00;  0.0000000E+00;0; -3.7670849E-05;  1.0000000E+04;  0.0000000E+00;  0.0000000E+00;  1.0000000E+04;  0.0000000E+00;  1.0000000E+04; -2.0715344E-05;  0.0000000E+00; -1.6955502E-05;  6.5892875E-02;
 -2.0000000E-02;  9.9999998E-03;  4.0000001E-01;448;  0.0000000E+00;  0.0000000E+00;  0.0000000E+00;  1.0000000E+03;  4.0000001E-01;  0.0000000E+00;0;  0.0000000E+00;  0.0000000E+00;  0.0000000E+00;0; -1.5644473E-05;  1.0000000E+04;  0.0000000E+00;  0.0000000E+00;  1.0000000E+04;  0.0000000E+00;  1.0000000E+04; -8.2259294E-06;  0.0000000E+00; -7.4185427E-06;  2.8728342E-02;
  0.0000000E+00;  9.9999998E-03;  3.4000000E-01;457;  0.0000000E+00;  0.0000000E+00;  0.0000000E+00;  1.0000001E+03;  4.0000001E-01;  9.8762624E-02;0;  0.0000000E+00;  0.0000000E+00;  0.0000000E+00;0; -1.7222646E-04;  1.0000000E+04;  0.0000000E+00;  0.0000000E+00;  1.0000000E+04;  0.0000000E+00;  1.0000000E+04; -1.1830173E-04;  0.0000000E+00; -5.3924723E-05;  2.1266879E-01;
  0.0000000E+00;  9.9999998E-03;  3.6000001E-01;458;  0.0000000E+00;  0.0000000E+00;  0.0000000E+00;  1.0000000E+03;  4.0000001E-01;  0.0000000E+00;0;  0.0000000E+00;  0.0000000E+00;  0.0000000E+00;0; -1.0844925E-04;  1.0000000E+04;  0.0000000E+00;  0.0000000E+00;  1.0000000E+04;  0.0000000E+00;  1.0000000E+04; -6.4186199E-05;  0.0000000E+00; -4.4263052E-05;  1.7557818E-01;
  0.0000000E+00;  9.9999998E-03;  3.8000000E-01;459;  0.0000000E+00;  0.0000000E+00;  0.0000000E+00;  1.0000000E+03;  4.0000001E-01;  0.0000000E+00;0;  0.0000000E+00;  0.0000000E+00;  0.0000000E+00;0; -5.9521713E-05;  1.0000000E+04;  0.0000000E+00;  0.0000000E+00;  1.0000000E+04;  0.0000000E+00;  1.0000000E+04; -3.0838892E-05;  0.0000000E+00; -2.8682824E-05;  1.1382587E-01;
  0.0000000E+00;  9.9999998E-03;  4.0000001E-01;460;  0.0000000E+00;  0.0000000E+00;  0.0000000E+00;  1.0000000E+03;  4.0000001E-01;  0.0000000E+00;0;  0.0000000E+00;  0.0000000E+00;  0.0000000E+00;0; -2.5659752E-05;  1.0000000E+04;  0.0000000E+00;  0.0000000E+00;  1.0000000E+04;  0.0000000E+00;  1.0000000E+04; -1.2568370E-05;  0.0000000E+00; -1.3091382E-05;  5.1734366E-02;
  2.0000000E-02;  9.9999998E-03;  3.4000000E-01;467;  0.0000000E+00;  0.0000000E+00;  0.0000000E+00;  1.0000001E+03;  4.0000001E-01;  9.8762624E-02;0;  0.0000000E+00;  0.0000000E+00;  0.0000000E+00;0; -2.4178380E-04;  1.0000000E+04;  0.0000000E+00;  0.0000000E+00;  1.0000000E+04;  0.0000000E+00;  1.0000000E+04; -1.6099753E-04;  0.0000000E+00; -8.0786260E-05;  3.2710266E-01;
  2.0000000E-02;  9.9999998E-03;  3.6000001E-01;468;  0.0000000E+00;  0.0000000E+00;  0.0000000E+00;  1.0000001E+03;  4.0000001E-01;  9.8762624E-02;0;  0.0000000E+00;  0.0000000E+00;  0.0000000E+00;0; -1.5461085E-04;  1.0000000E+04;  0.0000000E+00;  0.0000000E+00;  1.0000000E+04;  0.0000000E+00;  1.0000000E+04; -8.7728011E-05;  0.0000000E+00; -6.6882843E-05;  2.7218693E-01;
  2.0000000E-02;  9.9999998E-03;  3.8000000E-01;469;  0.0000000E+00;  0.0000000E+00;  0.0000000E+00;  1.0000000E+03;  4.0000001E-01;  0.0000000E+00;0;  0.0000000E+00;  0.0000000E+00;  0.0000000E+00;0; -8.6289423E-05;  1.0000000E+04;  0.0000000E+00;  0.0000000E+00;  1.0000000E+04;  0.0000000E+00;  1.0000000E+04; -4.2340500E-05;  0.0000000E+00; -4.3948923E-05;  1.7882912E-01;
  2.0000000E-02;  9.9999998E-03;  4.0000001E-01;470;  0.0000000E+00;  0.0000000E+00;  0.0000000E+00;  1.0000000E+03;  4.0000001E-01;  0.0000000E+00;0;  0.0000000E+00;  0.0000000E+00;  0.0000000E+00;0; -3.7901940E-05;  1.0000000E+04;  0.0000000E+00;  0.0000000E+00;  1.0000000E+04;  0.0000000E+00;  1.0000000E+04; -1.7358077E-05;  0.0000000E+00; -2.0543865E-05;  8.3193570E-02;
  3.9999999E-02;  9.9999998E-03;  3.4000000E-01;477;  0.0000000E+00;  0.0000000E+00;  0.0000000E+00;  1.0000001E+03;  4.0000001E-01;  9.8762624E-02;0;  0.0000000E+00;  0.0000000E+00;  0.0000000E+00;0; -3.2566313E-04;  1.0000000E+04;  0.0000000E+00;  0.0000000E+00;  1.0000000E+04;  0.0000000E+00;  1.0000000E+04; -2.1226829E-04;  0.0000000E+00; -1.1339483E-04;  4.7343189E-01;
  3.9999999E-02;  9.9999998E-03;  3.6000001E-01;478;  0.0000000E+00;  0.0000000E+00;  0.0000000E+00;  1.0000001E+03;  4.0000001E-01;  9.8762624E-02;0;  0.0000000E+00;  0.0000000E+00;  0.0000000E+00;0; -2.1043574E-04;  1.0000000E+04;  0.0000000E+00;  0.0000000E+00;  1.0000000E+04;  0.0000000E+00;  1.0000000E+04; -1.1584708E-04;  0.0000000E+00; -9.4588657E-05;  3.9663863E-01;
  3.9999999E-02;  9.9999998E-03;  3.8000000E-01;479;  0.0000000E+00;  0.0000000E+00;  0.0000000E+00;  1.0000001E+03;  4.0000001E-01;  9.8762624E-02;0;  0.0000000E+00;  0.0000000E+00;  0.0000000E+00;0; -1.1859930E-04;  1.0000000E+04;  0.0000000E+00;  0.0000000E+00;  1.0000000E+04;  0.0000000E+00;  1.0000000E+04; -5.5875429E-05;  0.0000000E+00; -6.2723877E-05;  2.6283440E-01;
  3.9999999E-02;  9.9999998E-03;  4.0000001E-01;480;  0.0000000E+00;  0.0000000E+00;  0.0000000E+00;  1.0000000E+03;  4.0000001E-01;  0.0000000E+00;0;  0.0000000E+00;  0.0000000E+00;  0.0000000E+00;0; -5.2515432E-05;  1.0000000E+04;  0.0000000E+00;  0.0000000E+00;  1.0000000E+04;  0.0000000E+00;  1.0000000E+04; -2.2811424E-05;  0.0000000E+00; -2.9704008E-05;  1.2381473E-01;
  5.9999999E-02;  9.9999998E-03;  3.4000000E-01;487;  0.0000000E+00;  0.0000000E+00;  0.0000000E+00;  1.0000002E+03;  4.0000001E-01;  1.9752525E-01;0;  0.0000000E+00;  0.0000000E+00;  0.0000000E+00;0; -4.3125640E-04;  1.0000000E+04;  0.0000000E+00;  0.0000000E+00;  1.0000000E+04;  0.0000000E+00;  1.0000000E+04; -2.7867794E-04;  0.0000000E+00; -1.5257846E-04;  6.5936744E-01;
  5.9999999E-02;  9.9999998E-03;  3.6000001E-01;488;  0.0000000E+00;  0.0000000E+00;  0.0000000E+00;  1.0000001E+03;  4.0000001E-01;  9.8762624E-02;0;  0.0000000E+00;  0.0000000E+00;  0.0000000E+00;0; -2.8040272E-04;  1.0000000E+04;  0.0000000E+00;  0.0000000E+00;  1.0000000E+04;  0.0000000E+00;  1.0000000E+04; -1.5230716E-04;  0.0000000E+00; -1.2809558E-04;  5.5562979E-01;
  5.9999999E-02;  9.9999998E-03;  3.8000000E-01;489;  0.0000000E+00;  0.0000000E+00;  0.0000000E+00;  1.0000001E+03;  4.0000001E-01;  9.8762624E-02;0;  0.0000000E+00;  0.0000000E+00;  0.0000000E+00;0; -1.5886308E-04;  1.0000000E+04;  0.0000000E+00;  0.0000000E+00;  1.0000000E+04;  0.0000000E+00;  1.0000000E+04; -7.3402094E-05;  0.0000000E+00; -8.5460983E-05;  3.7024462E-01;
  5.9999999E-02;  9.9999998E-03;  4.0000001E-01;490;  0.0000000E+00;  0.0000000E+00;  0.0000000E+00;  1.0000000E+03;  4.0000001E-01;  0.0000000E+00;0;  0.0000000E+00;  0.0000000E+00;  0.0000000E+00;0; -7.0552851E-05;  1.0000000E+04;  0.0000000E+00;  0.0000000E+00;  1.0000000E+04;  0.0000000E+00;  1.0000000E+04; -2.9811459E-05;  0.0000000E+00; -4.0741390E-05;  1.7550839E-01;
  7.9999998E-02;  9.9999998E-03;  3.4000000E-01;497;  0.0000000E+00;  0.0000000E+00;  0.0000000E+00;  1.0000003E+03;  4.0000001E-01;  2.9628786E-01;0;  0.0000000E+00;  0.0000000E+00;  0.0000000E+00;0; -5.7338353E-04;  1.0000000E+04;  0.0000000E+00;  0.0000000E+00;  1.0000000E+04;  0.0000000E+00;  1.0000000E+04; -3.7241739E-04;  0.0000000E+00; -2.0096615E-04;  9.0258884E-01;
  7.9999998E-02;  9.9999998E-03;  3.6000001E-01;498;  0.0000000E+00;  0.0000000E+00;  0.0000000E+00;  1.0000002E+03;  4.0000001E-01;  1.9752525E-01;0;  0.0000000E+00;  0.0000000E+00;  0.0000000E+00;0; -3.7411068E-04;  1.0000000E+04;  0.0000000E+00;  0.0000000E+00;  1.0000000E+04;  0.0000000E+00;  1.0000000E+04; -2.0457643E-04;  0.0000000E+00; -1.6953425E-04;  7.6349568E-01;
  7.9999998E-02;  9.9999998E-03;  3.8000000E-01;499;  0.0000000E+00;  0.0000000E+00;  0.0000000E+00;  1.0000001E+03;  4.0000001E-01;  9.8762624E-02;0;  0.0000000E+00;  0.0000000E+00;  0.0000000E+00;0; -2.1237266E-04;  1.0000000E+04;  0.0000000E+00;  0.0000000E+00;  1.0000000E+04;  0.0000000E+00;  1.0000000E+04; -9.8864541E-05;  0.0000000E+00; -1.1350811E-04;  5.0987238E-01;
  7.9999998E-02;  9.9999998E-03;  4.0000001E-01;500;  0.0000000E+00;  0.0000000E+00;  0.0000000E+00;  1.0000000E+03;  4.0000001E-01;  0.0000000E+00;0;  0.0000000E+00;  0.0000000E+00;  0.0000000E+00;0; -9.4403178E-05;  1.0000000E+04;  0.0000000E+00;  0.0000000E+00;  1.0000000E+04;  0.0000000E+00;  1.0000000E+04; -4.0118772E-05;  0.0000000E+00; -5.4284403E-05;  2.4247898E-01;
  1.0000000E-01;  9.9999998E-03;  3.4000000E-01;507;  0.0000000E+00;  0.0000000E+00;  0.0000000E+00;  1.0000004E+03;  4.0000001E-01;  3.9505050E-01;0;  0.0000000E+00;  0.0000000E+00;  0.0000000E+00;0; -7.7938655E-04;  1.0000000E+04;  0.0000000E+00;  0.0000000E+00;  1.0000000E+04;  0.0000000E+00;  1.0000000E+04; -5.1540049E-04;  0.0000000E+00; -2.6398606E-04;  1.2636563E+00;
  1.0000000E-01;  9.9999998E-03;  3.6000001E-01;508;  0.0000000E+00;  0.0000000E+00;  0.0000000E+00;  1.0000002E+03;  4.0000001E-01;  1.9752525E-01;0;  0.0000000E+00;  0.0000000E+00;  0.0000000E+00;0; -5.0970161E-04;  1.0000000E+04;  0.0000000E+00;  0.0000000E+00;  1.0000000E+04;  0.0000000E+00;  1.0000000E+04; -2.8630396E-04;  0.0000000E+00; -2.2339767E-04;  1.0517893E+00;
  1.0000000E-01;  9.9999998E-03;  3.8000000E-01;509;  0.0000000E+00;  0.0000000E+00;  0.0000000E+00;  1.0000001E+03;  4.0000001E-01;  9.8762624E-02;0;  0.0000000E+00;  0.0000000E+00;  0.0000000E+00;0; -2.8930051E-04;  1.0000000E+04;  0.0000000E+00;  0.0000000E+00;  1.0000000E+04;  0.0000000E+00;  1.0000000E+04; -1.3954136E-04;  0.0000000E+00; -1.4975916E-04;  6.9848949E-01;
  1.0000000E-01;  9.9999998E-03;  4.0000001E-01;510;  0.0000000E+00;  0.0000000E+00;  0.0000000E+00;  1.0000001E+03;  4.0000001E-01;  9.8762624E-02;0;  0.0000000E+00;  0.0000000E+00;  0.0000000E+00;0; -1.2866571E-04;  1.0000000E+04;  0.0000000E+00;  0.0000000E+00;  1.0000000E+04;  0.0000000E+00;  1.0000000E+04; -5.6966383E-05;  0.0000000E+00; -7.1699316E-05;  3.4018341E-01;
  1.2000000E-01;  9.9999998E-03;  3.4000000E-01;517;  0.0000000E+00;  0.0000000E+00;  0.0000000E+00;  1.0000007E+03;  4.0000001E-01;  5.9257573E-01;0;  0.0000000E+00;  0.0000000E+00;  0.0000000E+00;0; -1.0960898E-03;  1.0000000E+04;  0.0000000E+00;  0.0000000E+00;  1.0000000E+04;  0.0000000E+00;  1.0000000E+04; -7.4385235E-04;  0.0000000E+00; -3.5223746E-04;  2.0330894E+00;
  1.2000000E-01;  9.9999998E-03;  3.6000001E-01;518;  0.0000000E+00;  0.0000000E+00;  0.0000000E+00;  1.0000004E+03;  4.0000001E-01;  3.9505050E-01;0;  0.0000000E+00;  0.0000000E+00;  0.0000000E+00;0; -7.1944797E-04;  1.0000000E+04;  0.0000000E+00;  0.0000000E+00;  1.0000000E+04;  0.0000000E+00;  1.0000000E+04; -4.2066429E-04;  0.0000000E+00; -2.9878365E-04;  1.4913266E+00;
  1.2000000E-01;  9.9999998E-03;  3.8000000E-01;519;  0.0000000E+00;  0.0000000E+00;  0.0000000E+00;  1.0000002E+03;  4.0000001E-01;  1.9752525E-01;0;  0.0000000E+00;  0.0000000E+00;  0.0000000E+00;0; -4.0849275E-04;  1.0000000E+04;  0.0000000E+00;  0.0000000E+00;  1.0000000E+04;  0.0000000E+00;  1.0000000E+04; -2.0808306E-04;  0.0000000E+00; -2.0040969E-04;  1.0017307E+00;
  1.2000000E-01;  9.9999998E-03;  4.0000001E-01;520;  0.0000000E+00;  0.0000000E+00;  0.0000000E+00;  1.0000001E+03;  4.0000001E-01;  9.8762624E-02;0;  0.0000000E+00;  0.0000000E+00;  0.0000000E+00;0; -1.8213048E-04;  1.0000000E+04;  0.0000000E+00;  0.0000000E+00;  1.0000000E+04;  0.0000000E+00;  1.0000000E+04; -8.6099091E-05;  0.0000000E+00; -9.6031385E-05;  6.0001904E-01;
  1.4000000E-01;  9.9999998E-03;  3.4000000E-01;527;  0.0000000E+00;  0.0000000E+00;  0.0000000E+00;  1.0000011E+03;  4.0000001E-01;  8.8886362E-01;0;  0.0000000E+00;  0.0000000E+00;  0.0000000E+00;0; -1.5988634E-03;  1.0000000E+04;  0.0000000E+00;  0.0000000E+00;  1.0000000E+04;  0.0000000E+00;  1.0000000E+04; -1.1132185E-03;  0.0000000E+00; -4.8564491E-04;  4.1477728E+00;
  1.4000000E-01;  9.9999998E-03;  3.6000001E-01;528;  0.0000000E+00;  0.0000000E+00;  0.0000000E+00;  1.0000007E+03;  4.0000001E-01;  5.9257573E-01;0;  0.0000000E+00;  0.0000000E+00;  0.0000000E+00;0; -1.0577583E-03;  1.0000000E+04;  0.0000000E+00;  0.0000000E+00;  1.0000000E+04;  0.0000000E+00;  1.0000000E+04; -6.4450200E-04;  0.0000000E+00; -4.1325638E-04;  2.2158206E+00;
  1.4000000E-01;  9.9999998E-03;  3.8000000E-01;529;  0.0000000E+00;  0.0000000E+00;  0.0000000E+00;  1.0000004E+03;  4.0000001E-01;  3.9505050E-01;0;  0.0000000E+00;  0.0000000E+00;  0.0000000E+00;0; -6.0431455E-04;  1.0000000E+04;  0.0000000E+00;  0.0000000E+00;  1.0000000E+04;  0.0000000E+00;  1.0000000E+04; -3.2571808E-04;  0.0000000E+00; -2.7859648E-04;  1.8206021E+00;
  1.4000000E-01;  9.9999998E-03;  4.0000001E-01;530;  0.0000000E+00;  0.0000000E+00;  0.0000000E+00;  1.0000001E+03;  4.0000001E-01;  9.8762624E-02;0;  0.0000000E+00;  0.0000000E+00;  0.0000000E+00;0; -2.7269134E-04;  1.0000000E+04;  0.0000000E+00;  0.0000000E+00;  1.0000000E+04;  0.0000000E+00;  1.0000000E+04; -1.3789618E-04;  0.0000000E+00; -1.3479516E-04;  1.6255108E+00;
  1.6000000E-01;  9.9999998E-03;  3.4000000E-01;537;  0.0000000E+00;  0.0000000E+00;  0.0000000E+00;  1.0000016E+03;  4.0000001E-01;  1.2839141E+00;0;  0.0000000E+00;  0.0000000E+00;  0.0000000E+00;0; -2.3885488E-03;  1.0000000E+04;  0.0000000E+00;  0.0000000E+00;  1.0000000E+04;  0.0000000E+00;  1.0000000E+04; -1.6887664E-03;  0.0000000E+00; -6.9978234E-04;  9.2722702E+00;
  1.6000000E-01;  9.9999998E-03;  3.6000001E-01;538;  0.0000000E+00;  0.0000000E+00;  0.0000000E+00;  1.0000011E+03;  4.0000001E-01;  8.8886362E-01;0;  0.0000000E+00;  0.0000000E+00;  0.0000000E+00;0; -1.6003735E-03;  1.0000000E+04;  0.0000000E+00;  0.0000000E+00;  1.0000000E+04;  0.0000000E+00;  1.0000000E+04; -1.0019686E-03;  0.0000000E+00; -5.9840491E-04;  3.3797500E+00;
  1.6000000E-01;  9.9999998E-03;  3.8000000E-01;539;  0.0000000E+00;  0.0000000E+00;  0.0000000E+00;  1.0000007E+03;  4.0000001E-01;  5.9257573E-01;0;  0.0000000E+00;  0.0000000E+00;  0.0000000E+00;0; -9.3134830E-04;  1.0000000E+04;  0.0000000E+00;  0.0000000E+00;  1.0000000E+04;  0.0000000E+00;  1.0000000E+04; -5.2066497E-04;  0.0000000E+00; -4.1068331E-04;  4.5034366E+00;
  1.6000000E-01;  9.9999998E-03;  4.0000001E-01;540;  0.0000000E+00;  0.0000000E+00;  0.0000000E+00;  1.0000002E+03;  4.0000001E-01;  1.9752525E-01;0;  0.0000000E+00;  0.0000000E+00;  0.0000000E+00;0; -4.3567916E-04;  1.0000000E+04;  0.0000000E+00;  0.0000000E+00;  1.0000000E+04;  0.0000000E+00;  1.0000000E+04; -2.2921906E-04;  0.0000000E+00; -2.0646010E-04;  4.8882823E+00;
  1.8000001E-01;  9.9999998E-03;  3.4000000E-01;547;  0.0000000E+00;  0.0000000E+00;  0.0000000E+00;  1.0000024E+03;  4.0000001E-01;  1.9752525E+00;0;  0.0000000E+00;  0.0000000E+00;  0.0000000E+00;0; -3.5487935E-03;  1.0000000E+04;  0.0000000E+00;  0.0000000E+00;  1.0000000E+04;  0.0000000E+00;  1.0000000E+04; -2.4952993E-03;  0.0000000E+00; -1.0534942E-03;  1.8893095E+01;
  1.8000001E-01;  9.9999998E-03;  3.6000001E-01;548;  0.0000000E+00;  0.0000000E+00;  0.0000000E+00;  1.0000016E+03;  4.0000001E-01;  1.3826767E+00;0;  0.0000000E+00;  0.0000000E+00;  0.0000000E+00;0; -2.4136761E-03;  1.0000000E+04;  0.0000000E+00;  0.0000000E+00;  1.0000000E+04;  0.0000000E+00;  1.0000000E+04; -1.5063733E-03;  0.0000000E+00; -9.0730283E-04;  5.0377045E+00;
  1.8000001E-01;  9.9999998E-03;  3.8000000E-01;549;  0.0000000E+00;  0.0000000E+00;  0.0000000E+00;  1.0000010E+03;  4.0000001E-01;  7.9010099E-01;0;  0.0000000E+00;  0.0000000E+00;  0.0000000E+00;0; -1.4539401E-03;  1.0000000E+04;  0.0000000E+00;  0.0000000E+00;  1.0000000E+04;  0.0000000E+00;  1.0000000E+04; -8.0704672E-04;  0.0000000E+00; -6.4689334E-04;  1.1283209E+01;
  1.8000001E-01;  9.9999998E-03;  4.0000001E-01;550;  0.0000000E+00;  0.0000000E+00;  0.0000000E+00;  1.0000004E+03;  4.0000001E-01;  3.9505050E-01;0;  0.0000000E+00;  0.0000000E+00;  0.0000000E+00;0; -7.3226326E-04;  1.0000000E+04;  0.0000000E+00;  0.0000000E+00;  1.0000000E+04;  0.0000000E+00;  1.0000000E+04; -3.7767267E-04;  0.0000000E+00; -3.5459059E-04;  1.3186078E+01;
  2.0000000E-01;  9.9999998E-03;  3.4000000E-01;556;  0.0000000E+00;  0.0000000E+00;  0.0000000E+00;  1.0000036E+03;  4.0000001E-01;  2.9628787E+00;0;  0.0000000E+00;  0.0000000E+00;  0.0000000E+00;0; -5.1019411E-03;  1.0000000E+04;  0.0000000E+00;  0.0000000E+00;  1.0000000E+04;  0.0000000E+00;  1.0000000E+04; -3.4704376E-03;  0.0000000E+00; -1.6315033E-03;  3.2020493E+01;
  2.0000000E-01;  9.9999998E-03;  3.6000001E-01;557;  0.0000000E+00;  0.0000000E+00;  0.0000000E+00;  1.0000024E+03;  4.0000001E-01;  1.9752525E+00;0;  0.0000000E+00;  0.0000000E+00;  0.0000000E+00;0; -3.5330909E-03;  1.0000000E+04;  0.0000000E+00;  0.0000000E+00;  1.0000000E+04;  0.0000000E+00;  1.0000000E+04; -2.1119628E-03;  0.0000000E+00; -1.4211281E-03;  7.6814518E+00;
  2.0000000E-01;  9.9999998E-03;  3.8000000E-01;558;  0.0000000E+00;  0.0000000E+00;  0.0000000E+00;  1.0000016E+03;  4.0000001E-01;  1.2839141E+00;0;  0.0000000E+00;  0.0000000E+00;  0.0000000E+00;0; -2.2365132E-03;  1.0000000E+04;  0.0000000E+00;  0.0000000E+00;  1.0000000E+04;  0.0000000E+00;  1.0000000E+04; -1.1639326E-03;  0.0000000E+00; -1.0725806E-03;  2.3895878E+01;
  1.9200000E+00;  9.9999998E-03; -3.6000001E-01;559;  0.0000000E+00;  0.0000000E+00;  0.0000000E+00;  1.0000000E+03;  4.0000001E-01;  0.0000000E+00;0;  0.0000000E+00;  0.0000000E+00;  0.0000000E+00;0;  0.0000000E+00;  1.0000000E+04;  0.0000000E+00;  0.0000000E+00;  1.0000000E+04;  0.0000000E+00;  1.0000000E+04;  0.0000000E+00;  0.0000000E+00;  0.0000000E+00;  0.0000000E+00;
  1.9200000E+00;  9.9999998E-03; -3.4000000E-01;560;  0.0000000E+00;  0.0000000E+00;  0.0000000E+00;  1.0000000E+03;  4.0000001E-01;  0.0000000E+00;0;  0.0000000E+00;  0.0000000E+00;  0.0000000E+00;0;  0.0000000E+00;  1.0000000E+04;  0.0000000E+00;  0.0000000E+00;  1.0000000E+04;  0.0000000E+00;  1.0000000E+04;  0.0000000E+00;  0.0000000E+00;  0.0000000E+00;  0.0000000E+00;
  1.9200000E+00;  9.9999998E-03; -3.1999999E-01;561;  0.0000000E+00;  0.0000000E+00;  0.0000000E+00;  1.0000000E+03;  4.0000001E-01;  0.0000000E+00;0;  0.0000000E+00;  0.0000000E+00;  0.0000000E+00;0;  0.0000000E+00;  1.0000000E+04;  0.0000000E+00;  0.0000000E+00;  1.0000000E+04;  0.0000000E+00;  1.0000000E+04;  0.0000000E+00;  0.0000000E+00;  0.0000000E+00;  0.0000000E+00;
  1.9400001E+00;  9.9999998E-03; -3.8000000E-01;562;  0.0000000E+00;  0.0000000E+00;  0.0000000E+00;  1.0000000E+03;  4.0000001E-01;  0.0000000E+00;0;  0.0000000E+00;  0.0000000E+00;  0.0000000E+00;0;  0.0000000E+00;  1.0000000E+04;  0.0000000E+00;  0.0000000E+00;  1.0000000E+04;  0.0000000E+00;  1.0000000E+04;  0.0000000E+00;  0.0000000E+00;  0.0000000E+00;  0.0000000E+00;
  1.9400001E+00;  9.9999998E-03; -3.6000001E-01;563;  0.0000000E+00;  0.0000000E+00;  0.0000000E+00;  1.0000000E+03;  4.0000001E-01;  0.0000000E+00;0;  0.0000000E+00;  0.0000000E+00;  0.0000000E+00;0;  0.0000000E+00;  1.0000000E+04;  0.0000000E+00;  0.0000000E+00;  1.0000000E+04;  0.0000000E+00;  1.0000000E+04;  0.0000000E+00;  0.0000000E+00;  0.0000000E+00;  0.0000000E+00;
  1.9400001E+00;  9.9999998E-03; -3.4000000E-01;564;  0.0000000E+00;  0.0000000E+00;  0.0000000E+00;  1.0000000E+03;  4.0000001E-01;  0.0000000E+00;0;  0.0000000E+00;  0.0000000E+00;  0.0000000E+00;0;  0.0000000E+00;  1.0000000E+04;  0.0000000E+00;  0.0000000E+00;  1.0000000E+04;  0.0000000E+00;  1.0000000E+04;  0.0000000E+00;  0.0000000E+00;  0.0000000E+00;  0.0000000E+00;
  1.9400001E+00;  9.9999998E-03; -3.1999999E-01;565;  0.0000000E+00;  0.0000000E+00;  0.0000000E+00;  1.0000000E+03;  4.0000001E-01;  0.0000000E+00;0;  0.0000000E+00;  0.0000000E+00;  0.0000000E+00;0;  0.0000000E+00;  1.0000000E+04;  0.0000000E+00;  0.0000000E+00;  1.0000000E+04;  0.0000000E+00;  1.0000000E+04;  0.0000000E+00;  0.0000000E+00;  0.0000000E+00;  0.0000000E+00;
  1.9400001E+00;  9.9999998E-03; -3.0000001E-01;566;  0.0000000E+00;  0.0000000E+00;  0.0000000E+00;  1.0000000E+03;  4.0000001E-01;  0.0000000E+00;0;  0.0000000E+00;  0.0000000E+00;  0.0000000E+00;0;  0.0000000E+00;  1.0000000E+04;  0.0000000E+00;  0.0000000E+00;  1.0000000E+04;  0.0000000E+00;  1.0000000E+04;  0.0000000E+00;  0.0000000E+00;  0.0000000E+00;  0.0000000E+00;
  1.9400001E+00;  9.9999998E-03; -2.8000000E-01;567;  0.0000000E+00;  0.0000000E+00;  0.0000000E+00;  1.0000000E+03;  4.0000001E-01;  0.0000000E+00;0;  0.0000000E+00;  0.0000000E+00;  0.0000000E+00;0;  0.0000000E+00;  1.0000000E+04;  0.0000000E+00;  0.0000000E+00;  1.0000000E+04;  0.0000000E+00;  1.0000000E+04;  0.0000000E+00;  0.0000000E+00;  0.0000000E+00;  0.0000000E+00;
  1.9400001E+00;  9.9999998E-03; -2.5999999E-01;568;  0.0000000E+00;  0.0000000E+00;  0.0000000E+00;  1.0000000E+03;  4.0000001E-01;  0.0000000E+00;0;  0.0000000E+00;  0.0000000E+00;  0.0000000E+00;0;  0.0000000E+00;  1.0000000E+04;  0.0000000E+00;  0.0000000E+00;  1.0000000E+04;  0.0000000E+00;  1.0000000E+04;  0.0000000E+00;  0.0000000E+00;  0.0000000E+00;  0.0000000E+00;
  1.9400001E+00;  9.9999998E-03; -2.3999999E-01;569;  0.0000000E+00;  0.0000000E+00;  0.0000000E+00;  1.0000000E+03;  4.0000001E-01;  0.0000000E+00;0;  0.0000000E+00;  0.0000000E+00;  0.0000000E+00;0;  0.0000000E+00;  1.0000000E+04;  0.0000000E+00;  0.0000000E+00;  1.0000000E+04;  0.0000000E+00;  1.0000000E+04;  0.0000000E+00;  0.0000000E+00;  0.0000000E+00;  0.0000000E+00;
  1.9400001E+00;  9.9999998E-03; -2.2000000E-01;570;  0.0000000E+00;  0.0000000E+00;  0.0000000E+00;  1.0000000E+03;  4.0000001E-01;  0.0000000E+00;0;  0.0000000E+00;  0.0000000E+00;  0.0000000E+00;0;  0.0000000E+00;  1.0000000E+04;  0.0000000E+00;  0.0000000E+00;  1.0000000E+04;  0.0000000E+00;  1.0000000E+04;  0.0000000E+00;  0.0000000E+00;  0.0000000E+00;  0.0000000E+00;
  1.9600000E+00;  9.9999998E-03; -3.8000000E-01;571;  0.0000000E+00;  0.0000000E+00;  0.0000000E+00;  1.0000000E+03;  4.0000001E-01;  0.0000000E+00;0;  0.0000000E+00;  0.0000000E+00;  0.0000000E+00;0;  0.0000000E+00;  1.0000000E+04;  0.0000000E+00;  0.0000000E+00;  1.0000000E+04;  0.0000000E+00;  1.0000000E+04;  0.0000000E+00;  0.0000000E+00;  0.0000000E+00;  0.0000000E+00;
  1.9600000E+00;  9.9999998E-03; -3.6000001E-01;572;  0.0000000E+00;  0.0000000E+00;  0.0000000E+00;  1.0000000E+03;  4.0000001E-01;  0.0000000E+00;0;  0.0000000E+00;  0.0000000E+00;  0.0000000E+00;0;  0.0000000E+00;  1.0000000E+04;  0.0000000E+00;  0.0000000E+00;  1.0000000E+04;  0.0000000E+00;  1.0000000E+04;  0.0000000E+00;  0.0000000E+00;  0.0000000E+00;  0.0000000E+00;
  1.9600000E+00;  9.9999998E-03; -3.4000000E-01;573;  0.0000000E+00;  0.0000000E+00;  0.0000000E+00;  1.0000000E+03;  4.0000001E-01;  0.0000000E+00;0;  0.0000000E+00;  0.0000000E+00;  0.0000000E+00;0;  0.0000000E+00;  1.0000000E+04;  0.0000000E+00;  0.0000000E+00;  1.0000000E+04;  0.0000000E+00;  1.0000000E+04;  0.0000000E+00;  0.0000000E+00;  0.0000000E+00;  0.0000000E+00;
  1.9600000E+00;  9.9999998E-03; -3.1999999E-01;574;  0.0000000E+00;  0.0000000E+00;  0.0000000E+00;  1.0000000E+03;  4.0000001E-01;  0.0000000E+00;0;  0.0000000E+00;  0.0000000E+00;  0.0000000E+00;0;  0.0000000E+00;  1.0000000E+04;  0.0000000E+00;  0.0000000E+00;  1.0000000E+04;  0.0000000E+00;  1.0000000E+04;  0.0000000E+00;  0.0000000E+00;  0.0000000E+00;  0.0000000E+00;
  1.9600000E+00;  9.9999998E-03; -3.0000001E-01;575;  0.0000000E+00;  0.0000000E+00;  0.0000000E+00;  1.0000000E+03;  4.0000001E-01;  0.0000000E+00;0;  0.0000000E+00;  0.0000000E+00;  0.0000000E+00;0;  0.0000000E+00;  1.0000000E+04;  0.0000000E+00;  0.0000000E+00;  1.0000000E+04;  0.0000000E+00;  1.0000000E+04;  0.0000000E+00;  0.0000000E+00;  0.0000000E+00;  0.0000000E+00;
  1.9600000E+00;  9.9999998E-03; -2.8000000E-01;576;  0.0000000E+00;  0.0000000E+00;  0.0000000E+00;  1.0000000E+03;  4.0000001E-01;  0.0000000E+00;0;  0.0000000E+00;  0.0000000E+00;  0.0000000E+00;0;  0.0000000E+00;  1.0000000E+04;  0.0000000E+00;  0.0000000E+00;  1.0000000E+04;  0.0000000E+00;  1.0000000E+04;  0.0000000E+00;  0.0000000E+00;  0.0000000E+00;  0.0000000E+00;
  1.9600000E+00;  9.9999998E-03; -2.5999999E-01;577;  0.0000000E+00;  0.0000000E+00;  0.0000000E+00;  1.0000000E+03;  4.0000001E-01;  0.0000000E+00;0;  0.0000000E+00;  0.0000000E+00;  0.0000000E+00;0;  0.0000000E+00;  1.0000000E+04;  0.0000000E+00;  0.0000000E+00;  1.0000000E+04;  0.0000000E+00;  1.0000000E+04;  0.0000000E+00;  0.0000000E+00;  0.0000000E+00;  0.0000000E+00;
  1.9600000E+00;  9.9999998E-03; -2.3999999E-01;578;  0.0000000E+00;  0.0000000E+00;  0.0000000E+00;  1.0000000E+03;  4.0000001E-01;  0.0000000E+00;0;  0.0000000E+00;  0.0000000E+00;  0.0000000E+00;0;  0.0000000E+00;  1.0000000E+04;  0.0000000E+00;  0.0000000E+00;  1.0000000E+04;  0.0000000E+00;  1.0000000E+04;  0.0000000E+00;  0.0000000E+00;  0.0000000E+00;  0.0000000E+00;
  1.9600000E+00;  9.9999998E-03; -2.2000000E-01;579;  0.0000000E+00;  0.0000000E+00;  0.0000000E+00;  1.0000000E+03;  4.0000001E-01;  0.0000000E+00;0;  0.0000000E+00;  0.0000000E+00;  0.0000000E+00;0;  0.0000000E+00;  1.0000000E+04;  0.0000000E+00;  0.0000000E+00;  1.0000000E+04;  0.0000000E+00;  1.0000000E+04;  0.0000000E+00;  0.0000000E+00;  0.0000000E+00;  0.0000000E+00;
  1.9600000E+00;  9.9999998E-03; -2.0000000E-01;580;  0.0000000E+00;  0.0000000E+00;  0.0000000E+00;  1.0000000E+03;  4.0000001E-01;  0.0000000E+00;0;  0.0000000E+00;  0.0000000E+00;  0.0000000E+00;0;  0.0000000E+00;  1.0000000E+04;  0.0000000E+00;  0.0000000E+00;  1.0000000E+04;  0.0000000E+00;  1.0000000E+04;  0.0000000E+00;  0.0000000E+00;  0.0000000E+00;  0.0000000E+00;
  1.9600000E+00;  9.9999998E-03; -1.8000001E-01;581;  0.0000000E+00;  0.0000000E+00;  0.0000000E+00;  1.0000000E+03;  4.0000001E-01;  0.0000000E+00;0;  0.0000000E+00;  0.0000000E+00;  0.0000000E+00;0;  0.0000000E+00;  1.0000000E+04;  0.0000000E+00;  0.0000000E+00;  1.0000000E+04;  0.0000000E+00;  1.0000000E+04;  0.0000000E+00;  0.0000000E+00;  0.0000000E+00;  0.0000000E+00;
  1.9600000E+00;  9.9999998E-03; -1.6000000E-01;582;  0.0000000E+00;  0.0000000E+00;  0.0000000E+00;  1.0000000E+03;  4.0000001E-01;  0.0000000E+00;0;  0.0000000E+00;  0.0000000E+00;  0.0000000E+00;0;  0.0000000E+00;  1.0000000E+04;  0.0000000E+00;  0.0000000E+00;  1.0000000E+04;  0.0000000E+00;  1.0000000E+04;  0.0000000E+00;  0.0000000E+00;  0.0000000E+00;  0.0000000E+00;
  1.9600000E+00;  9.9999998E-03; -1.4000000E-01;583;  0.0000000E+00;  0.0000000E+00;  0.0000000E+00;  1.0000000E+03;  4.0000001E-01;  0.0000000E+00;0;  0.0000000E+00;  0.0000000E+00;  0.0000000E+00;0;  0.0000000E+00;  1.0000000E+04;  0.0000000E+00;  0.0000000E+00;  1.0000000E+04;  0.0000000E+00;  1.0000000E+04;  0.0000000E+00;  0.0000000E+00;  0.0000000E+00;  0.0000000E+00;
  1.9600000E+00;  9.9999998E-03; -1.2000000E-01;584;  0.0000000E+00;  0.0000000E+00;  0.0000000E+00;  1.0000000E+03;  4.0000001E-01;  0.0000000E+00;0;  0.0000000E+00;  0.0000000E+00;  0.0000000E+00;0;  0.0000000E+00;  1.0000000E+04;  0.0000000E+00;  0.0000000E+00;  1.0000000E+04;  0.0000000E+00;  1.0000000E+04;  0.0000000E+00;  0.0000000E+00;  0.0000000E+00;  0.0000000E+00;
  1.9800000E+00;  9.9999998E-03; -3.8000000E-01;585;  0.0000000E+00;  0.0000000E+00;  0.0000000E+00;  1.0000000E+03;  4.0000001E-01;  0.0000000E+00;0;  0.0000000E+00;  0.0000000E+00;  0.0000000E+00;0;  0.0000000E+00;  1.0000000E+04;  0.0000000E+00;  0.0000000E+00;  1.0000000E+04;  0.0000000E+00;  1.0000000E+04;  0.0000000E+00;  0.0000000E+00;  0.0000000E+00;  0.0000000E+00;
  1.9800000E+00;  9.9999998E-03; -3.6000001E-01;586;  0.0000000E+00;  0.0000000E+00;  0.0000000E+00;  1.0000000E+03;  4.0000001E-01;  0.0000000E+00;0;  0.0000000E+00;  0.0000000E+00;  0.0000000E+00;0;  0.0000000E+00;  1.0000000E+04;  0.0000000E+00;  0.0000000E+00;  1.0000000E+04;  0.0000000E+00;  1.0000000E+04;  0.0000000E+00;  0.0000000E+00;  0.0000000E+00;  0.0000000E+00;
  1.9800000E+00;  9.9999998E-03; -3.4000000E-01;587;  0.0000000E+00;  0.0000000E+00;  0.0000000E+00;  1.0000000E+03;  4.0000001E-01;  0.0000000E+00;0;  0.0000000E+00;  0.0000000E+00;  0.0000000E+00;0;  0.0000000E+00;  1.0000000E+04;  0.0000000E+00;  0.0000000E+00;  1.0000000E+04;  0.0000000E+00;  1.0000000E+04;  0.0000000E+00;  0.0000000E+00;  0.0000000E+00;  0.0000000E+00;
  1.9800000E+00;  9.9999998E-03; -3.1999999E-01;588;  0.0000000E+00;  0.0000000E+00;  0.0000000E+00;  1.0000000E+03;  4.0000001E-01;  0.0000000E+00;0;  0.0000000E+00;  0.0000000E+00;  0.0000000E+00;0;  0.0000000E+00;  1.0000000E+04;  0.0000000E+00;  0.0000000E+00;  1.0000000E+04;  0.0000000E+00;  1.0000000E+04;  0.0000000E+00;  0.0000000E+00;  0.0000000E+00;  0.0000000E+00;
  1.9800000E+00;  9.9999998E-03; -3.0000001E-01;589;  0.0000000E+00;  0.0000000E+00;  0.0000000E+00;  1.0000000E+03;  4.0000001E-01;  0.0000000E+00;0;  0.0000000E+00;  0.0000000E+00;  0.0000000E+00;0;  0.0000000E+00;  1.0000000E+04;  0.0000000E+00;  0.0000000E+00;  1.0000000E+04;  0.0000000E+00;  1.0000000E+04;  0.0000000E+00;  0.0000000E+00;  0.0000000E+00;  0.0000000E+00;
  1.9800000E+00;  9.9999998E-03; -2.8000000E-01;590;  0.0000000E+00;  0.0000000E+00;  0.0000000E+00;  1.0000000E+03;  4.0000001E-01;  0.0000000E+00;0;  0.0000000E+00;  0.0000000E+00;  0.0000000E+00;0;  0.0000000E+00;  1.0000000E+04;  0.0000000E+00;  0.0000000E+00;  1.0000000E+04;  0.0000000E+00;  1.0000000E+04;  0.0000000E+00;  0.0000000E+00;  0.0000000E+00;  0.0000000E+00;
  1.9800000E+00;  9.9999998E-03; -2.5999999E-01;591;  0.0000000E+00;  0.0000000E+00;  0.0000000E+00;  1.0000000E+03;  4.0000001E-01;  0.0000000E+00;0;  0.0000000E+00;  0.0000000E+00;  0.0000000E+00;0;  0.0000000E+00;  1.0000000E+04;  0.0000000E+00;  0.0000000E+00;  1.0000000E+04;  0.0000000E+00;  1.0000000E+04;  0.0000000E+00;  0.0000000E+00;  0.0000000E+00;  0.0000000E+00;
  1.9800000E+00;  9.9999998E-03; -2.3999999E-01;592;  0.0000000E+00;  0.0000000E+00;  0.0000000E+00;  1.0000000E+03;  4.0000001E-01;  0.0000000E+00;0;  0.0000000E+00;  0.0000000E+00;  0.0000000E+00;0;  0.0000000E+00;  1.0000000E+04;  0.0000000E+00;  0.0000000E+00;  1.0000000E+04;  0.0000000E+00;  1.0000000E+04;  0.0000000E+00;  0.0000000E+00;  0.0000000E+00;  0.0000000E+00;
  1.9800000E+00;  9.9999998E-03; -2.2000000E-01;593;  0.0000000E+00;  0.0000000E+00;  0.0000000E+00;  1.0000000E+03;  4.0000001E-01;  0.0000000E+00;0;  0.0000000E+00;  0.0000000E+00;  0.0000000E+00;0;  0.0000000E+00;  1.0000000E+04;  0.0000000E+00;  0.0000000E+00;  1.0000000E+04;  0.0000000E+00;  1.0000000E+04;  0.0000000E+00;  0.0000000E+00;  0.0000000E+00;  0.0000000E+00;
  1.9800000E+00;  9.9999998E-03; -2.0000000E-01;594;  0.0000000E+00;  0.0000000E+00;  0.0000000E+00;  1.0000000E+03;  4.0000001E-01;  0.0000000E+00;0;  0.0000000E+00;  0.0000000E+00;  0.0000000E+00;0;  0.0000000E+00;  1.0000000E+04;  0.0000000E+00;  0.0000000E+00;  1.0000000E+04;  0.0000000E+00;  1.0000000E+04;  0.0000000E+00;  0.0000000E+00;  0.0000000E+00;  0.0000000E+00;
  1.9800000E+00;  9.9999998E-03; -1.8000001E-01;595;  0.0000000E+00;  0.0000000E+00;  0.0000000E+00;  1.0000000E+03;  4.0000001E-01;  0.0000000E+00;0;  0.0000000E+00;  0.0000000E+00;  0.0000000E+00;0;  0.0000000E+00;  1.0000000E+04;  0.0000000E+00;  0.0000000E+00;  1.0000000E+04;  0.0000000E+00;  1.0000000E+04;  0.0000000E+00;  0.0000000E+00;  0.0000000E+00;  0.0000000E+00;
  1.9800000E+00;  9.9999998E-03; -1.6000000E-01;596;  0.0000000E+00;  0.0000000E+00;  0.0000000E+00;  1.0000000E+03;  4.0000001E-01;  0.0000000E+00;0;  0.0000000E+00;  0.0000000E+00;  0.0000000E+00;0;  0.0000000E+00;  1.0000000E+04;  0.0000000E+00;  0.0000000E+00;  1.0000000E+04;  0.0000000E+00;  1.0000000E+04;  0.0000000E+00;  0.0000000E+00;  0.0000000E+00;  0.0000000E+00;
  1.9800000E+00;  9.9999998E-03; -1.4000000E-01;597;  0.0000000E+00;  0.0000000E+00;  0.0000000E+00;  1.0000000E+03;  4.0000001E-01;  0.0000000E+00;0;  0.0000000E+00;  0.0000000E+00;  0.0000000E+00;0;  0.0000000E+00;  1.0000000E+04;  0.0000000E+00;  0.0000000E+00;  1.0000000E+04;  0.0000000E+00;  1.0000000E+04;  0.0000000E+00;  0.0000000E+00;  0.0000000E+00;  0.0000000E+00;
  1.9800000E+00;  9.9999998E-03; -1.2000000E-01;598;  0.0000000E+00;  0.0000000E+00;  0.0000000E+00;  1.0000000E+03;  4.0000001E-01;  0.0000000E+00;0;  0.0000000E+00;  0.0000000E+00;  0.0000000E+00;0;  0.0000000E+00;  1.0000000E+04;  0.0000000E+00;  0.0000000E+00;  1.0000000E+04;  0.0000000E+00;  1.0000000E+04;  0.0000000E+00;  0.0000000E+00;  0.0000000E+00;  0.0000000E+00;
  1.9800000E+00;  9.9999998E-03; -1.0000000E-01;599;  0.0000000E+00;  0.0000000E+00;  0.0000000E+00;  1.0000000E+03;  4.0000001E-01;  0.0000000E+00;0;  0.0000000E+00;  0.0000000E+00;  0.0000000E+00;0;  0.0000000E+00;  1.0000000E+04;  0.0000000E+00;  0.0000000E+00;  1.0000000E+04;  0.0000000E+00;  1.0000000E+04;  0.0000000E+00;  0.0000000E+00;  0.0000000E+00;  0.0000000E+00;
  1.9800000E+00;  9.9999998E-03; -7.9999998E-02;600;  0.0000000E+00;  0.0000000E+00;  0.0000000E+00;  1.0000000E+03;  4.0000001E-01;  0.0000000E+00;0;  0.0000000E+00;  0.0000000E+00;  0.0000000E+00;0;  0.0000000E+00;  1.0000000E+04;  0.0000000E+00;  0.0000000E+00;  1.0000000E+04;  0.0000000E+00;  1.0000000E+04;  0.0000000E+00;  0.0000000E+00;  0.0000000E+00;  0.0000000E+00;
  1.9800000E+00;  9.9999998E-03; -5.9999999E-02;601;  0.0000000E+00;  0.0000000E+00;  0.0000000E+00;  1.0000000E+03;  4.0000001E-01;  0.0000000E+00;0;  0.0000000E+00;  0.0000000E+00;  0.0000000E+00;0;  0.0000000E+00;  1.0000000E+04;  0.0000000E+00;  0.0000000E+00;  1.0000000E+04;  0.0000000E+00;  1.0000000E+04;  0.0000000E+00;  0.0000000E+00;  0.0000000E+00;  0.0000000E+00;
  1.9800000E+00;  9.9999998E-03; -3.9999999E-02;602;  0.0000000E+00;  0.0000000E+00;  0.0000000E+00;  1.0000000E+03;  4.0000001E-01;  0.0000000E+00;0;  0.0000000E+00;  0.0000000E+00;  0.0000000E+00;0;  0.0000000E+00;  1.0000000E+04;  0.0000000E+00;  0.0000000E+00;  1.0000000E+04;  0.0000000E+00;  1.0000000E+04;  0.0000000E+00;  0.0000000E+00;  0.0000000E+00;  0.0000000E+00;
  1.9800000E+00;  9.9999998E-03; -2.0000000E-02;603;  0.0000000E+00;  0.0000000E+00;  0.0000000E+00;  1.0000000E+03;  4.0000001E-01;  0.0000000E+00;0;  0.0000000E+00;  0.0000000E+00;  0.0000000E+00;0;  0.0000000E+00;  1.0000000E+04;  0.0000000E+00;  0.0000000E+00;  1.0000000E+04;  0.0000000E+00;  1.0000000E+04;  0.0000000E+00;  0.0000000E+00;  0.0000000E+00;  0.0000000E+00;
  2.0000000E+00;  9.9999998E-03; -3.8000000E-01;604;  0.0000000E+00;  0.0000000E+00;  0.0000000E+00;  1.0000000E+03;  4.0000001E-01;  0.0000000E+00;0;  0.0000000E+00;  0.0000000E+00;  0.0000000E+00;0;  0.0000000E+00;  1.0000000E+04;  0.0000000E+00;  0.0000000E+00;  1.0000000E+04;  0.0000000E+00;  1.0000000E+04;  0.0000000E+00;  0.0000000E+00;  0.0000000E+00;  0.0000000E+00;
  2.0000000E+00;  9.9999998E-03; -3.6000001E-01;605;  0.0000000E+00;  0.0000000E+00;  0.0000000E+00;  1.0000000E+03;  4.0000001E-01;  0.0000000E+00;0;  0.0000000E+00;  0.0000000E+00;  0.0000000E+00;0;  0.0000000E+00;  1.0000000E+04;  0.0000000E+00;  0.0000000E+00;  1.0000000E+04;  0.0000000E+00;  1.0000000E+04;  0.0000000E+00;  0.0000000E+00;  0.0000000E+00;  0.0000000E+00;
  2.0000000E+00;  9.9999998E-03; -3.4000000E-01;606;  0.0000000E+00;  0.0000000E+00;  0.0000000E+00;  1.0000000E+03;  4.0000001E-01;  0.0000000E+00;0;  0.0000000E+00;  0.0000000E+00;  0.0000000E+00;0;  0.0000000E+00;  1.0000000E+04;  0.0000000E+00;  0.0000000E+00;  1.0000000E+04;  0.0000000E+00;  1.0000000E+04;  0.0000000E+00;  0.0000000E+00;  0.0000000E+00;  0.0000000E+00;
  2.0000000E+00;  9.9999998E-03; -3.1999999E-01;607;  0.0000000E+00;  0.0000000E+00;  0.0000000E+00;  1.0000000E+03;  4.0000001E-01;  0.0000000E+00;0;  0.0000000E+00;  0.0000000E+00;  0.0000000E+00;0;  0.0000000E+00;  1.0000000E+04;  0.0000000E+00;  0.0000000E+00;  1.0000000E+04;  0.0000000E+00;  1.0000000E+04;  0.0000000E+00;  0.0000000E+00;  0.0000000E+00;  0.0000000E+00;
  2.0000000E+00;  9.9999998E-03; -3.0000001E-01;608;  0.0000000E+00;  0.0000000E+00;  0.0000000E+00;  1.0000000E+03;  4.0000001E-01;  0.0000000E+00;0;  0.0000000E+00;  0.0000000E+00;  0.0000000E+00;0;  0.0000000E+00;  1.0000000E+04;  0.0000000E+00;  0.0000000E+00;  1.0000000E+04;  0.0000000E+00;  1.0000000E+04;  0.0000000E+00;  0.0000000E+00;  0.0000000E+00;  0.0000000E+00;
  2.0000000E+00;  9.9999998E-03; -2.8000000E-01;609;  0.0000000E+00;  0.0000000E+00;  0.0000000E+00;  1.0000000E+03;  4.0000001E-01;  0.0000000E+00;0;  0.0000000E+00;  0.0000000E+00;  0.0000000E+00;0;  0.0000000E+00;  1.0000000E+04;  0.0000000E+00;  0.0000000E+00;  1.0000000E+04;  0.0000000E+00;  1.0000000E+04;  0.0000000E+00;  0.0000000E+00;  0.0000000E+00;  0.0000000E+00;
  2.0000000E+00;  9.9999998E-03; -2.5999999E-01;610;  0.0000000E+00;  0.0000000E+00;  0.0000000E+00;  1.0000000E+03;  4.0000001E-01;  0.0000000E+00;0;  0.0000000E+00;  0.0000000E+00;  0.0000000E+00;0;  0.0000000E+00;  1.0000000E+04;  0.0000000E+00;  0.0000000E+00;  1.0000000E+04;  0.0000000E+00;  1.0000000E+04;  0.0000000E+00;  0.0000000E+00;  0.0000000E+00;  0.0000000E+00;
  2.0000000E+00;  9.9999998E-03; -2.3999999E-01;611;  0.0000000E+00;  0.0000000E+00;  0.0000000E+00;  1.0000000E+03;  4.0000001E-01;  0.0000000E+00;0;  0.0000000E+00;  0.0000000E+00;  0.0000000E+00;0;  0.0000000E+00;  1.0000000E+04;  0.0000000E+00;  0.0000000E+00;  1.0000000E+04;  0.0000000E+00;  1.0000000E+04;  0.0000000E+00;  0.0000000E+00;  0.0000000E+00;  0.0000000E+00;
  2.0000000E+00;  9.9999998E-03; -2.2000000E-01;612;  0.0000000E+00;  0.0000000E+00;  0.0000000E+00;  1.0000000E+03;  4.0000001E-01;  0.0000000E+00;0;  0.0000000E+00;  0.0000000E+00;  0.0000000E+00;0;  0.0000000E+00;  1.0000000E+04;  0.0000000E+00;  0.0000000E+00;  1.0000000E+04;  0.0000000E+00;  1.0000000E+04;  0.0000000E+00;  0.0000000E+00;  0.0000000E+00;  0.0000000E+00;
  2.0000000E+00;  9.9999998E-03; -2.0000000E-01;613;  0.0000000E+00;  0.0000000E+00;  0.0000000E+00;  1.0000000E+03;  4.0000001E-01;  0.0000000E+00;0;  0.0000000E+00;  0.0000000E+00;  0.0000000E+00;0;  0.0000000E+00;  1.0000000E+04;  0.0000000E+00;  0.0000000E+00;  1.0000000E+04;  0.0000000E+00;  1.0000000E+04;  0.0000000E+00;  0.0000000E+00;  0.0000000E+00;  0.0000000E+00;
  2.0000000E+00;  9.9999998E-03; -1.8000001E-01;614;  0.0000000E+00;  0.0000000E+00;  0.0000000E+00;  1.0000000E+03;  4.0000001E-01;  0.0000000E+00;0;  0.0000000E+00;  0.0000000E+00;  0.0000000E+00;0;  0.0000000E+00;  1.0000000E+04;  0.0000000E+00;  0.0000000E+00;  1.0000000E+04;  0.0000000E+00;  1.0000000E+04;  0.0000000E+00;  0.0000000E+00;  0.0000000E+00;  0.0000000E+00;
  2.0000000E+00;  9.9999998E-03; -1.6000000E-01;615;  0.0000000E+00;  0.0000000E+00;  0.0000000E+00;  1.0000000E+03;  4.0000001E-01;  0.0000000E+00;0;  0.0000000E+00;  0.0000000E+00;  0.0000000E+00;0;  0.0000000E+00;  1.0000000E+04;  0.0000000E+00;  0.0000000E+00;  1.0000000E+04;  0.0000000E+00;  1.0000000E+04;  0.0000000E+00;  0.0000000E+00;  0.0000000E+00;  0.0000000E+00;
  2.0000000E+00;  9.9999998E-03; -1.4000000E-01;616;  0.0000000E+00;  0.0000000E+00;  0.0000000E+00;  1.0000000E+03;  4.0000001E-01;  0.0000000E+00;0;  0.0000000E+00;  0.0000000E+00;  0.0000000E+00;0;  0.0000000E+00;  1.0000000E+04;  0.0000000E+00;  0.0000000E+00;  1.0000000E+04;  0.0000000E+00;  1.0000000E+04;  0.0000000E+00;  0.0000000E+00;  0.0000000E+00;  0.0000000E+00;
  2.0000000E+00;  9.9999998E-03; -1.2000000E-01;617;  0.0000000E+00;  0.0000000E+00;  0.0000000E+00;  1.0000000E+03;  4.0000001E-01;  0.0000000E+00;0;  0.0000000E+00;  0.0000000E+00;  0.0000000E+00;0;  0.0000000E+00;  1.0000000E+04;  0.0000000E+00;  0.0000000E+00;  1.0000000E+04;  0.0000000E+00;  1.0000000E+04;  0.0000000E+00;  0.0000000E+00;  0.0000000E+00;  0.0000000E+00;
  2.0000000E+00;  9.9999998E-03; -1.0000000E-01;618;  0.0000000E+00;  0.0000000E+00;  0.0000000E+00;  1.0000000E+03;  4.0000001E-01;  0.0000000E+00;0;  0.0000000E+00;  0.0000000E+00;  0.0000000E+00;0;  0.0000000E+00;  1.0000000E+04;  0.0000000E+00;  0.0000000E+00;  1.0000000E+04;  0.0000000E+00;  1.0000000E+04;  0.0000000E+00;  0.0000000E+00;  0.0000000E+00;  0.0000000E+00;
  2.0000000E+00;  9.9999998E-03; -7.9999998E-02;619;  0.0000000E+00;  0.0000000E+00;  0.0000000E+00;  1.0000000E+03;  4.0000001E-01;  0.0000000E+00;0;  0.0000000E+00;  0.0000000E+00;  0.0000000E+00;0;  0.0000000E+00;  1.0000000E+04;  0.0000000E+00;  0.0000000E+00;  1.0000000E+04;  0.0000000E+00;  1.0000000E+04;  0.0000000E+00;  0.0000000E+00;  0.0000000E+00;  0.0000000E+00;
  2.0000000E+00;  9.9999998E-03; -5.9999999E-02;620;  0.0000000E+00;  0.0000000E+00;  0.0000000E+00;  1.0000000E+03;  4.0000001E-01;  0.0000000E+00;0;  0.0000000E+00;  0.0000000E+00;  0.0000000E+00;0;  0.0000000E+00;  1.0000000E+04;  0.0000000E+00;  0.0000000E+00;  1.0000000E+04;  0.0000000E+00;  1.0000000E+04;  0.0000000E+00;  0.0000000E+00;  0.0000000E+00;  0.0000000E+00;
  2.0000000E+00;  9.9999998E-03; -3.9999999E-02;621;  0.0000000E+00;  0.0000000E+00;  0.0000000E+00;  1.0000000E+03;  4.0000001E-01;  0.0000000E+00;0;  0.0000000E+00;  0.0000000E+00;  0.0000000E+00;0;  0.0000000E+00;  1.0000000E+04;  0.0000000E+00;  0.0000000E+00;  1.0000000E+04;  0.0000000E+00;  1.0000000E+04;  0.0000000E+00;  0.0000000E+00;  0.0000000E+00;  0.0000000E+00;
  2.0000000E+00;  9.9999998E-03; -2.0000000E-02;622;  0.0000000E+00;  0.0000000E+00;  0.0000000E+00;  1.0000000E+03;  4.0000001E-01;  0.0000000E+00;0;  0.0000000E+00;  0.0000000E+00;  0.0000000E+00;0;  0.0000000E+00;  1.0000000E+04;  0.0000000E+00;  0.0000000E+00;  1.0000000E+04;  0.0000000E+00;  1.0000000E+04;  0.0000000E+00;  0.0000000E+00;  0.0000000E+00;  0.0000000E+00;
  2.0000000E+00;  9.9999998E-03;  0.0000000E+00;623;  0.0000000E+00;  0.0000000E+00;  0.0000000E+00;  1.0000000E+03;  4.0000001E-01;  0.0000000E+00;0;  0.0000000E+00;  0.0000000E+00;  0.0000000E+00;0;  0.0000000E+00;  1.0000000E+04;  0.0000000E+00;  0.0000000E+00;  1.0000000E+04;  0.0000000E+00;  1.0000000E+04;  0.0000000E+00;  0.0000000E+00;  0.0000000E+00;  0.0000000E+00;
  2.0000000E+00;  9.9999998E-03;  2.0000000E-02;624;  0.0000000E+00;  0.0000000E+00;  0.0000000E+00;  1.0000000E+03;  4.0000001E-01;  0.0000000E+00;0;  0.0000000E+00;  0.0000000E+00;  0.0000000E+00;0;  0.0000000E+00;  1.0000000E+04;  0.0000000E+00;  0.0000000E+00;  1.0000000E+04;  0.0000000E+00;  1.0000000E+04;  0.0000000E+00;  0.0000000E+00;  0.0000000E+00;  0.0000000E+00;
  2.0000000E+00;  9.9999998E-03;  3.9999999E-02;625;  0.0000000E+00;  0.0000000E+00;  0.0000000E+00;  1.0000000E+03;  4.0000001E-01;  0.0000000E+00;0;  0.0000000E+00;  0.0000000E+00;  0.0000000E+00;0;  0.0000000E+00;  1.0000000E+04;  0.0000000E+00;  0.0000000E+00;  1.0000000E+04;  0.0000000E+00;  1.0000000E+04;  0.0000000E+00;  0.0000000E+00;  0.0000000E+00;  0.0000000E+00;
  2.0000000E+00;  9.9999998E-03;  5.9999999E-02;626;  0.0000000E+00;  0.0000000E+00;  0.0000000E+00;  1.0000000E+03;  4.0000001E-01;  0.0000000E+00;0;  0.0000000E+00;  0.0000000E+00;  0.0000000E+00;0;  0.0000000E+00;  1.0000000E+04;  0.0000000E+00;  0.0000000E+00;  1.0000000E+04;  0.0000000E+00;  1.0000000E+04;  0.0000000E+00;  0.0000000E+00;  0.0000000E+00;  0.0000000E+00;
  2.0000000E+00;  9.9999998E-03;  7.9999998E-02;627;  0.0000000E+00;  0.0000000E+00;  0.0000000E+00;  1.0000000E+03;  4.0000001E-01;  0.0000000E+00;0;  0.0000000E+00;  0.0000000E+00;  0.0000000E+00;0;  0.0000000E+00;  1.0000000E+04;  0.0000000E+00;  0.0000000E+00;  1.0000000E+04;  0.0000000E+00;  1.0000000E+04;  0.0000000E+00;  0.0000000E+00;  0.0000000E+00;  0.0000000E+00;
  2.0200000E+00;  9.9999998E-03; -4.0000001E-01;628;  0.0000000E+00;  0.0000000E+00;  0.0000000E+00;  1.0000000E+03;  4.0000001E-01;  0.0000000E+00;0;  0.0000000E+00;  0.0000000E+00;  0.0000000E+00;0;  0.0000000E+00;  1.0000000E+04;  0.0000000E+00;  0.0000000E+00;  1.0000000E+04;  0.0000000E+00;  1.0000000E+04;  0.0000000E+00;  0.0000000E+00;  0.0000000E+00;  0.0000000E+00;
  2.0200000E+00;  9.9999998E-03; -3.8000000E-01;629;  0.0000000E+00;  0.0000000E+00;  0.0000000E+00;  1.0000000E+03;  4.0000001E-01;  0.0000000E+00;0;  0.0000000E+00;  0.0000000E+00;  0.0000000E+00;0;  0.0000000E+00;  1.0000000E+04;  0.0000000E+00;  0.0000000E+00;  1.0000000E+04;  0.0000000E+00;  1.0000000E+04;  0.0000000E+00;  0.0000000E+00;  0.0000000E+00;  0.0000000E+00;
  2.0200000E+00;  9.9999998E-03; -3.6000001E-01;630;  0.0000000E+00;  0.0000000E+00;  0.0000000E+00;  1.0000000E+03;  4.0000001E-01;  0.0000000E+00;0;  0.0000000E+00;  0.0000000E+00;  0.0000000E+00;0;  0.0000000E+00;  1.0000000E+04;  0.0000000E+00;  0.0000000E+00;  1.0000000E+04;  0.0000000E+00;  1.0000000E+04;  0.0000000E+00;  0.0000000E+00;  0.0000000E+00;  0.0000000E+00;
  2.0200000E+00;  9.9999998E-03; -3.4000000E-01;631;  0.0000000E+00;  0.0000000E+00;  0.0000000E+00;  1.0000000E+03;  4.0000001E-01;  0.0000000E+00;0;  0.0000000E+00;  0.0000000E+00;  0.0000000E+00;0;  0.0000000E+00;  1.0000000E+04;  0.0000000E+00;  0.0000000E+00;  1.0000000E+04;  0.0000000E+00;  1.0000000E+04;  0.0000000E+00;  0.0000000E+00;  0.0000000E+00;  0.0000000E+00;
  2.0200000E+00;  9.9999998E-03; -3.1999999E-01;632;  0.0000000E+00;  0.0000000E+00;  0.0000000E+00;  1.0000000E+03;  4.0000001E-01;  0.0000000E+00;0;  0.0000000E+00;  0.0000000E+00;  0.0000000E+00;0;  0.0000000E+00;  1.0000000E+04;  0.0000000E+00;  0.0000000E+00;  1.0000000E+04;  0.0000000E+00;  1.0000000E+04;  0.0000000E+00;  0.0000000E+00;  0.0000000E+00;  0.0000000E+00;
  2.0200000E+00;  9.9999998E-03; -3.0000001E-01;633;  0.0000000E+00;  0.0000000E+00;  0.0000000E+00;  1.0000000E+03;  4.0000001E-01;  0.0000000E+00;0;  0.0000000E+00;  0.0000000E+00;  0.0000000E+00;0;  0.0000000E+00;  1.0000000E+04;  0.0000000E+00;  0.0000000E+00;  1.0000000E+04;  0.0000000E+00;  1.0000000E+04;  0.0000000E+00;  0.0000000E+00;  0.0000000E+00;  0.0000000E+00;
  2.0200000E+00;  9.9999998E-03; -2.8000000E-01;634;  0.0000000E+00;  0.0000000E+00;  0.0000000E+00;  1.0000000E+03;  4.0000001E-01;  0.0000000E+00;0;  0.0000000E+00;  0.0000000E+00;  0.0000000E+00;0;  0.0000000E+00;  1.0000000E+04;  0.0000000E+00;  0.0000000E+00;  1.0000000E+04;  0.0000000E+00;  1.0000000E+04;  0.0000000E+00;  0.0000000E+00;  0.0000000E+00;  0.0000000E+00;
  2.0200000E+00;  9.9999998E-03; -2.5999999E-01;635;  0.0000000E+00;  0.0000000E+00;  0.0000000E+00;  1.0000000E+03;  4.0000001E-01;  0.0000000E+00;0;  0.0000000E+00;  0.0000000E+00;  0.0000000E+00;0;  0.0000000E+00;  1.0000000E+04;  0.0000000E+00;  0.0000000E+00;  1.0000000E+04;  0.0000000E+00;  1.0000000E+04;  0.0000000E+00;  0.0000000E+00;  0.0000000E+00;  0.0000000E+00;
  2.0200000E+00;  9.9999998E-03; -2.3999999E-01;636;  0.0000000E+00;  0.0000000E+00;  0.0000000E+00;  1.0000000E+03;  4.0000001E-01;  0.0000000E+00;0;  0.0000000E+00;  0.0000000E+00;  0.0000000E+00;0;  0.0000000E+00;  1.0000000E+04;  0.0000000E+00;  0.0000000E+00;  1.0000000E+04;  0.0000000E+00;  1.0000000E+04;  0.0000000E+00;  0.0000000E+00;  0.0000000E+00;  0.0000000E+00;
  2.0200000E+00;  9.9999998E-03; -2.2000000E-01;637;  0.0000000E+00;  0.0000000E+00;  0.0000000E+00;  1.0000000E+03;  4.0000001E-01;  0.0000000E+00;0;  0.0000000E+00;  0.0000000E+00;  0.0000000E+00;0;  0.0000000E+00;  1.0000000E+04;  0.0000000E+00;  0.0000000E+00;  1.0000000E+04;  0.0000000E+00;  1.0000000E+04;  0.0000000E+00;  0.0000000E+00;  0.0000000E+00;  0.0000000E+00;
  2.0200000E+00;  9.9999998E-03; -2.0000000E-01;638;  0.0000000E+00;  0.0000000E+00;  0.0000000E+00;  1.0000000E+03;  4.0000001E-01;  0.0000000E+00;0;  0.0000000E+00;  0.0000000E+00;  0.0000000E+00;0;  0.0000000E+00;  1.0000000E+04;  0.0000000E+00;  0.0000000E+00;  1.0000000E+04;  0.0000000E+00;  1.0000000E+04;  0.0000000E+00;  0.0000000E+00;  0.0000000E+00;  0.0000000E+00;
  2.0200000E+00;  9.9999998E-03; -1.8000001E-01;639;  0.0000000E+00;  0.0000000E+00;  0.0000000E+00;  1.0000000E+03;  4.0000001E-01;  0.0000000E+00;0;  0.0000000E+00;  0.0000000E+00;  0.0000000E+00;0;  0.0000000E+00;  1.0000000E+04;  0.0000000E+00;  0.0000000E+00;  1.0000000E+04;  0.0000000E+00;  1.0000000E+04;  0.0000000E+00;  0.0000000E+00;  0.0000000E+00;  0.0000000E+00;
  2.0200000E+00;  9.9999998E-03; -1.6000000E-01;640;  0.0000000E+00;  0.0000000E+00;  0.0000000E+00;  1.0000000E+03;  4.0000001E-01;  0.0000000E+00;0;  0.0000000E+00;  0.0000000E+00;  0.0000000E+00;0;  0.0000000E+00;  1.0000000E+04;  0.0000000E+00;  0.0000000E+00;  1.0000000E+04;  0.0000000E+00;  1.0000000E+04;  0.0000000E+00;  0.0000000E+00;  0.0000000E+00;  0.0000000E+00;
  2.0200000E+00;  9.9999998E-03; -1.4000000E-01;641;  0.0000000E+00;  0.0000000E+00;  0.0000000E+00;  1.0000000E+03;  4.0000001E-01;  0.0000000E+00;0;  0.0000000E+00;  0.0000000E+00;  0.0000000E+00;0;  0.0000000E+00;  1.0000000E+04;  0.0000000E+00;  0.0000000E+00;  1.0000000E+04;  0.0000000E+00;  1.0000000E+04;  0.0000000E+00;  0.0000000E+00;  0.0000000E+00;  0.0000000E+00;
  2.0200000E+00;  9.9999998E-03; -1.2000000E-01;642;  0.0000000E+00;  0.0000000E+00;  0.0000000E+00;  1.0000000E+03;  4.0000001E-01;  0.0000000E+00;0;  0.0000000E+00;  0.0000000E+00;  0.0000000E+00;0;  0.0000000E+00;  1.0000000E+04;  0.0000000E+00;  0.0000000E+00;  1.0000000E+04;  0.0000000E+00;  1.0000000E+04;  0.0000000E+00;  0.0000000E+00;  0.0000000E+00;  0.0000000E+00;
  2.0200000E+00;  9.9999998E-03; -1.0000000E-01;643;  0.0000000E+00;  0.0000000E+00;  0.0000000E+00;  1.0000000E+03;  4.0000001E-01;  0.0000000E+00;0;  0.0000000E+00;  0.0000000E+00;  0.0000000E+00;0;  0.0000000E+00;  1.0000000E+04;  0.0000000E+00;  0.0000000E+00;  1.0000000E+04;  0.0000000E+00;  1.0000000E+04;  0.0000000E+00;  0.0000000E+00;  0.0000000E+00;  0.0000000E+00;
  2.0200000E+00;  9.9999998E-03; -7.9999998E-02;644;  0.0000000E+00;  0.0000000E+00;  0.0000000E+00;  1.0000000E+03;  4.0000001E-01;  0.0000000E+00;0;  0.0000000E+00;  0.0000000E+00;  0.0000000E+00;0;  0.0000000E+00;  1.0000000E+04;  0.0000000E+00;  0.0000000E+00;  1.0000000E+04;  0.0000000E+00;  1.0000000E+04;  0.0000000E+00;  0.0000000E+00;  0.0000000E+00;  0.0000000E+00;
  2.0200000E+00;  9.9999998E-03; -5.9999999E-02;645;  0.0000000E+00;  0.0000000E+00;  0.0000000E+00;  1.0000000E+03;  4.0000001E-01;  0.0000000E+00;0;  0.0000000E+00;  0.0000000E+00;  0.0000000E+00;0;  0.0000000E+00;  1.0000000E+04;  0.0000000E+00;  0.0000000E+00;  1.0000000E+04;  0.0000000E+00;  1.0000000E+04;  0.0000000E+00;  0.0000000E+00;  0.0000000E+00;  0.0000000E+00;
  2.0200000E+00;  9.9999998E-03; -3.9999999E-02;646;  0.0000000E+00;  0.0000000E+00;  0.0000000E+00;  1.0000000E+03;  4.0000001E-01;  0.0000000E+00;0;  0.0000000E+00;  0.0000000E+00;  0.0000000E+00;0;  0.0000000E+00;  1.0000000E+04;  0.0000000E+00;  0.0000000E+00;  1.0000000E+04;  0.0000000E+00;  1.0000000E+04;  0.0000000E+00;  0.0000000E+00;  0.0000000E+00;  0.0000000E+00;
  2.0200000E+00;  9.9999998E-03; -2.0000000E-02;647;  0.0000000E+00;  0.0000000E+00;  0.0000000E+00;  1.0000000E+03;  4.0000001E-01;  0.0000000E+00;0;  0.0000000E+00;  0.0000000E+00;  0.0000000E+00;0;  0.0000000E+00;  1.0000000E+04;  0.0000000E+00;  0.0000000E+00;  1.0000000E+04;  0.0000000E+00;  1.0000000E+04;  0.0000000E+00;  0.0000000E+00;  0.0000000E+00;  0.0000000E+00;
  2.0200000E+00;  9.9999998E-03;  0.0000000E+00;648;  0.0000000E+00;  0.0000000E+00;  0.0000000E+00;  1.0000000E+03;  4.0000001E-01;  0.0000000E+00;0;  0.0000000E+00;  0.0000000E+00;  0.0000000E+00;0;  0.0000000E+00;  1.0000000E+04;  0.0000000E+00;  0.0000000E+00;  1.0000000E+04;  0.0000000E+00;  1.0000000E+04;  0.0000000E+00;  0.0000000E+00;  0.0000000E+00;  0.0000000E+00;
  2.0200000E+00;  9.9999998E-03;  2.0000000E-02;649;  0.0000000E+00;  0.0000000E+00;  0.0000000E+00;  1.0000000E+03;  4.0000001E-01;  0.0000000E+00;0;  0.0000000E+00;  0.0000000E+00;  0.0000000E+00;0;  0.0000000E+00;  1.0000000E+04;  0.0000000E+00;  0.0000000E+00;  1.0000000E+04;  0.0000000E+00;  1.0000000E+04;  0.0000000E+00;  0.0000000E+00;  0.0000000E+00;  0.0000000E+00;
  2.0200000E+00;  9.9999998E-03;  3.9999999E-02;650;  0.0000000E+00;  0.0000000E+00;  0.0000000E+00;  1.0000000E+03;  4.0000001E-01;  0.0000000E+00;0;  0.0000000E+00;  0.0000000E+00;  0.0000000E+00;0;  0.0000000E+00;  1.0000000E+04;  0.0000000E+00;  0.0000000E+00;  1.0000000E+04;  0.0000000E+00;  1.0000000E+04;  0.0000000E+00;  0.0000000E+00;  0.0000000E+00;  0.0000000E+00;
  2.0200000E+00;  9.9999998E-03;  5.9999999E-02;651;  0.0000000E+00;  0.0000000E+00;  0.0000000E+00;  1.0000000E+03;  4.0000001E-01;  0.0000000E+00;0;  0.0000000E+00;  0.0000000E+00;  0.0000000E+00;0;  0.0000000E+00;  1.0000000E+04;  0.0000000E+00;  0.0000000E+00;  1.0000000E+04;  0.0000000E+00;  1.0000000E+04;  0.0000000E+00;  0.0000000E+00;  0.0000000E+00;  0.0000000E+00;
  2.0200000E+00;  9.9999998E-03;  7.9999998E-02;652;  0.0000000E+00;  0.0000000E+00;  0.0000000E+00;  1.0000000E+03;  4.0000001E-01;  0.0000000E+00;0;  0.0000000E+00;  0.0000000E+00;  0.0000000E+00;0;  0.0000000E+00;  1.0000000E+04;  0.0000000E+00;  0.0000000E+00;  1.0000000E+04;  0.0000000E+00;  1.0000000E+04;  0.0000000E+00;  0.0000000E+00;  0.0000000E+00;  0.0000000E+00;
  2.0200000E+00;  9.9999998E-03;  1.0000000E-01;653;  0.0000000E+00;  0.0000000E+00;  0.0000000E+00;  1.0000000E+03;  4.0000001E-01;  0.0000000E+00;0;  0.0000000E+00;  0.0000000E+00;  0.0000000E+00;0;  0.0000000E+00;  1.0000000E+04;  0.0000000E+00;  0.0000000E+00;  1.0000000E+04;  0.0000000E+00;  1.0000000E+04;  0.0000000E+00;  0.0000000E+00;  0.0000000E+00;  0.0000000E+00;
  2.0200000E+00;  9.9999998E-03;  1.2000000E-01;654;  0.0000000E+00;  0.0000000E+00;  0.0000000E+00;  1.0000000E+03;  4.0000001E-01;  0.0000000E+00;0;  0.0000000E+00;  0.0000000E+00;  0.0000000E+00;0;  0.0000000E+00;  1.0000000E+04;  0.0000000E+00;  0.0000000E+00;  1.0000000E+04;  0.0000000E+00;  1.0000000E+04;  0.0000000E+00;  0.0000000E+00;  0.0000000E+00;  0.0000000E+00;
  2.0200000E+00;  9.9999998E-03;  1.4000000E-01;655;  0.0000000E+00;  0.0000000E+00;  0.0000000E+00;  1.0000000E+03;  4.0000001E-01;  0.0000000E+00;0;  0.0000000E+00;  0.0000000E+00;  0.0000000E+00;0;  0.0000000E+00;  1.0000000E+04;  0.0000000E+00;  0.0000000E+00;  1.0000000E+04;  0.0000000E+00;  1.0000000E+04;  0.0000000E+00;  0.0000000E+00;  0.0000000E+00;  0.0000000E+00;
  2.0200000E+00;  9.9999998E-03;  1.6000000E-01;656;  0.0000000E+00;  0.0000000E+00;  0.0000000E+00;  1.0000000E+03;  4.0000001E-01;  0.0000000E+00;0;  0.0000000E+00;  0.0000000E+00;  0.0000000E+00;0;  0.0000000E+00;  1.0000000E+04;  0.0000000E+00;  0.0000000E+00;  1.0000000E+04;  0.0000000E+00;  1.0000000E+04;  0.0000000E+00;  0.0000000E+00;  0.0000000E+00;  0.0000000E+00;
  2.0200000E+00;  9.9999998E-03;  1.8000001E-01;657;  0.0000000E+00;  0.0000000E+00;  0.0000000E+00;  1.0000000E+03;  4.0000001E-01;  0.0000000E+00;0;  0.0000000E+00;  0.0000000E+00;  0.0000000E+00;0;  0.0000000E+00;  1.0000000E+04;  0.0000000E+00;  0.0000000E+00;  1.0000000E+04;  0.0000000E+00;  1.0000000E+04;  0.0000000E+00;  0.0000000E+00;  0.0000000E+00;  0.0000000E+00;
  2.0400000E+00;  9.9999998E-03; -4.0000001E-01;658;  0.0000000E+00;  0.0000000E+00;  0.0000000E+00;  1.0000000E+03;  4.0000001E-01;  0.0000000E+00;0;  0.0000000E+00;  0.0000000E+00;  0.0000000E+00;0;  0.0000000E+00;  1.0000000E+04;  0.0000000E+00;  0.0000000E+00;  1.0000000E+04;  0.0000000E+00;  1.0000000E+04;  0.0000000E+00;  0.0000000E+00;  0.0000000E+00;  0.0000000E+00;
  2.0400000E+00;  9.9999998E-03; -3.8000000E-01;659;  0.0000000E+00;  0.0000000E+00;  0.0000000E+00;  1.0000000E+03;  4.0000001E-01;  0.0000000E+00;0;  0.0000000E+00;  0.0000000E+00;  0.0000000E+00;0;  0.0000000E+00;  1.0000000E+04;  0.0000000E+00;  0.0000000E+00;  1.0000000E+04;  0.0000000E+00;  1.0000000E+04;  0.0000000E+00;  0.0000000E+00;  0.0000000E+00;  0.0000000E+00;
  2.0400000E+00;  9.9999998E-03; -3.6000001E-01;660;  0.0000000E+00;  0.0000000E+00;  0.0000000E+00;  1.0000000E+03;  4.0000001E-01;  0.0000000E+00;0;  0.0000000E+00;  0.0000000E+00;  0.0000000E+00;0;  0.0000000E+00;  1.0000000E+04;  0.0000000E+00;  0.0000000E+00;  1.0000000E+04;  0.0000000E+00;  1.0000000E+04;  0.0000000E+00;  0.0000000E+00;  0.0000000E+00;  0.0000000E+00;
  2.0400000E+00;  9.9999998E-03; -3.4000000E-01;661;  0.0000000E+00;  0.0000000E+00;  0.0000000E+00;  1.0000000E+03;  4.0000001E-01;  0.0000000E+00;0;  0.0000000E+00;  0.0000000E+00;  0.0000000E+00;0;  0.0000000E+00;  1.0000000E+04;  0.0000000E+00;  0.0000000E+00;  1.0000000E+04;  0.0000000E+00;  1.0000000E+04;  0.0000000E+00;  0.0000000E+00;  0.0000000E+00;  0.0000000E+00;
  2.0400000E+00;  9.9999998E-03; -3.1999999E-01;662;  0.0000000E+00;  0.0000000E+00;  0.0000000E+00;  1.0000000E+03;  4.0000001E-01;  0.0000000E+00;0;  0.0000000E+00;  0.0000000E+00;  0.0000000E+00;0;  0.0000000E+00;  1.0000000E+04;  0.0000000E+00;  0.0000000E+00;  1.0000000E+04;  0.0000000E+00;  1.0000000E+04;  0.0000000E+00;  0.0000000E+00;  0.0000000E+00;  0.0000000E+00;
  2.0400000E+00;  9.9999998E-03; -3.0000001E-01;663;  0.0000000E+00;  0.0000000E+00;  0.0000000E+00;  1.0000000E+03;  4.0000001E-01;  0.0000000E+00;0;  0.0000000E+00;  0.0000000E+00;  0.0000000E+00;0;  0.0000000E+00;  1.0000000E+04;  0.0000000E+00;  0.0000000E+00;  1.0000000E+04;  0.0000000E+00;  1.0000000E+04;  0.0000000E+00;  0.0000000E+00;  0.0000000E+00;  0.0000000E+00;
  2.0400000E+00;  9.9999998E-03; -2.8000000E-01;664;  0.0000000E+00;  0.0000000E+00;  0.0000000E+00;  1.0000000E+03;  4.0000001E-01;  0.0000000E+00;0;  0.0000000E+00;  0.0000000E+00;  0.0000000E+00;0;  0.0000000E+00;  1.0000000E+04;  0.0000000E+00;  0.0000000E+00;  1.0000000E+04;  0.0000000E+00;  1.0000000E+04;  0.0000000E+00;  0.0000000E+00;  0.0000000E+00;  0.0000000E+00;
  2.0400000E+00;  9.9999998E-03; -2.5999999E-01;665;  0.0000000E+00;  0.0000000E+00;  0.0000000E+00;  1.0000000E+03;  4.0000001E-01;  0.0000000E+00;0;  0.0000000E+00;  0.0000000E+00;  0.0000000E+00;0;  0.0000000E+00;  1.0000000E+04;  0.0000000E+00;  0.0000000E+00;  1.0000000E+04;  0.0000000E+00;  1.0000000E+04;  0.0000000E+00;  0.0000000E+00;  0.0000000E+00;  0.0000000E+00;
  2.0400000E+00;  9.9999998E-03; -2.3999999E-01;666;  0.0000000E+00;  0.0000000E+00;  0.0000000E+00;  1.0000000E+03;  4.0000001E-01;  0.0000000E+00;0;  0.0000000E+00;  0.0000000E+00;  0.0000000E+00;0;  0.0000000E+00;  1.0000000E+04;  0.0000000E+00;  0.0000000E+00;  1.0000000E+04;  0.0000000E+00;  1.0000000E+04;  0.0000000E+00;  0.0000000E+00;  0.0000000E+00;  0.0000000E+00;
  2.0400000E+00;  9.9999998E-03; -2.2000000E-01;667;  0.0000000E+00;  0.0000000E+00;  0.0000000E+00;  1.0000000E+03;  4.0000001E-01;  0.0000000E+00;0;  0.0000000E+00;  0.0000000E+00;  0.0000000E+00;0;  0.0000000E+00;  1.0000000E+04;  0.0000000E+00;  0.0000000E+00;  1.0000000E+04;  0.0000000E+00;  1.0000000E+04;  0.0000000E+00;  0.0000000E+00;  0.0000000E+00;  0.0000000E+00;
  2.0400000E+00;  9.9999998E-03; -2.0000000E-01;668;  0.0000000E+00;  0.0000000E+00;  0.0000000E+00;  1.0000000E+03;  4.0000001E-01;  0.0000000E+00;0;  0.0000000E+00;  0.0000000E+00;  0.0000000E+00;0;  0.0000000E+00;  1.0000000E+04;  0.0000000E+00;  0.0000000E+00;  1.0000000E+04;  0.0000000E+00;  1.0000000E+04;  0.0000000E+00;  0.0000000E+00;  0.0000000E+00;  0.0000000E+00;
  2.0400000E+00;  9.9999998E-03; -1.8000001E-01;669;  0.0000000E+00;  0.0000000E+00;  0.0000000E+00;  1.0000000E+03;  4.0000001E-01;  0.0000000E+00;0;  0.0000000E+00;  0.0000000E+00;  0.0000000E+00;0;  0.0000000E+00;  1.0000000E+04;  0.0000000E+00;  0.0000000E+00;  1.0000000E+04;  0.0000000E+00;  1.0000000E+04;  0.0000000E+00;  0.0000000E+00;  0.0000000E+00;  0.0000000E+00;
  2.0400000E+00;  9.9999998E-03; -1.6000000E-01;670;  0.0000000E+00;  0.0000000E+00;  0.0000000E+00;  1.0000000E+03;  4.0000001E-01;  0.0000000E+00;0;  0.0000000E+00;  0.0000000E+00;  0.0000000E+00;0;  0.0000000E+00;  1.0000000E+04;  0.0000000E+00;  0.0000000E+00;  1.0000000E+04;  0.0000000E+00;  1.0000000E+04;  0.0000000E+00;  0.0000000E+00;  0.0000000E+00;  0.0000000E+00;
  2.0400000E+00;  9.9999998E-03; -1.4000000E-01;671;  0.0000000E+00;  0.0000000E+00;  0.0000000E+00;  1.0000000E+03;  4.0000001E-01;  0.0000000E+00;0;  0.0000000E+00;  0.0000000E+00;  0.0000000E+00;0;  0.0000000E+00;  1.0000000E+04;  0.0000000E+00;  0.0000000E+00;  1.0000000E+04;  0.0000000E+00;  1.0000000E+04;  0.0000000E+00;  0.0000000E+00;  0.0000000E+00;  0.0000000E+00;
  2.0400000E+00;  9.9999998E-03; -1.2000000E-01;672;  0.0000000E+00;  0.0000000E+00;  0.0000000E+00;  1.0000000E+03;  4.0000001E-01;  0.0000000E+00;0;  0.0000000E+00;  0.0000000E+00;  0.0000000E+00;0;  0.0000000E+00;  1.0000000E+04;  0.0000000E+00;  0.0000000E+00;  1.0000000E+04;  0.0000000E+00;  1.0000000E+04;  0.0000000E+00;  0.0000000E+00;  0.0000000E+00;  0.0000000E+00;
  2.0400000E+00;  9.9999998E-03; -1.0000000E-01;673;  0.0000000E+00;  0.0000000E+00;  0.0000000E+00;  1.0000000E+03;  4.0000001E-01;  0.0000000E+00;0;  0.0000000E+00;  0.0000000E+00;  0.0000000E+00;0;  0.0000000E+00;  1.0000000E+04;  0.0000000E+00;  0.0000000E+00;  1.0000000E+04;  0.0000000E+00;  1.0000000E+04;  0.0000000E+00;  0.0000000E+00;  0.0000000E+00;  0.0000000E+00;
  2.0400000E+00;  9.9999998E-03; -7.9999998E-02;674;  0.0000000E+00;  0.0000000E+00;  0.0000000E+00;  1.0000000E+03;  4.0000001E-01;  0.0000000E+00;0;  0.0000000E+00;  0.0000000E+00;  0.0000000E+00;0;  0.0000000E+00;  1.0000000E+04;  0.0000000E+00;  0.0000000E+00;  1.0000000E+04;  0.0000000E+00;  1.0000000E+04;  0.0000000E+00;  0.0000000E+00;  0.0000000E+00;  0.0000000E+00;
  2.0400000E+00;  9.9999998E-03; -5.9999999E-02;675;  0.0000000E+00;  0.0000000E+00;  0.0000000E+00;  1.0000000E+03;  4.0000001E-01;  0.0000000E+00;0;  0.0000000E+00;  0.0000000E+00;  0.0000000E+00;0;  0.0000000E+00;  1.0000000E+04;  0.0000000E+00;  0.0000000E+00;  1.0000000E+04;  0.0000000E+00;  1.0000000E+04;  0.0000000E+00;  0.0000000E+00;  0.0000000E+00;  0.0000000E+00;
  2.0400000E+00;  9.9999998E-03; -3.9999999E-02;676;  0.0000000E+00;  0.0000000E+00;  0.0000000E+00;  1.0000000E+03;  4.0000001E-01;  0.0000000E+00;0;  0.0000000E+00;  0.0000000E+00;  0.0000000E+00;0;  0.0000000E+00;  1.0000000E+04;  0.0000000E+00;  0.0000000E+00;  1.0000000E+04;  0.0000000E+00;  1.0000000E+04;  0.0000000E+00;  0.0000000E+00;  0.0000000E+00;  0.0000000E+00;
  2.0400000E+00;  9.9999998E-03; -2.0000000E-02;677;  0.0000000E+00;  0.0000000E+00;  0.0000000E+00;  1.0000000E+03;  4.0000001E-01;  0.0000000E+00;0;  0.0000000E+00;  0.0000000E+00;  0.0000000E+00;0;  0.0000000E+00;  1.0000000E+04;  0.0000000E+00;  0.0000000E+00;  1.0000000E+04;  0.0000000E+00;  1.0000000E+04;  0.0000000E+00;  0.0000000E+00;  0.0000000E+00;  0.0000000E+00;
  2.0400000E+00;  9.9999998E-03;  0.0000000E+00;678;  0.0000000E+00;  0.0000000E+00;  0.0000000E+00;  1.0000000E+03;  4.0000001E-01;  0.0000000E+00;0;  0.0000000E+00;  0.0000000E+00;  0.0000000E+00;0;  0.0000000E+00;  1.0000000E+04;  0.0000000E+00;  0.0000000E+00;  1.0000000E+04;  0.0000000E+00;  1.0000000E+04;  0.0000000E+00;  0.0000000E+00;  0.0000000E+00;  0.0000000E+00;
  2.0400000E+00;  9.9999998E-03;  2.0000000E-02;679;  0.0000000E+00;  0.0000000E+00;  0.0000000E+00;  1.0000000E+03;  4.0000001E-01;  0.0000000E+00;0;  0.0000000E+00;  0.0000000E+00;  0.0000000E+00;0;  0.0000000E+00;  1.0000000E+04;  0.0000000E+00;  0.0000000E+00;  1.0000000E+04;  0.0000000E+00;  1.0000000E+04;  0.0000000E+00;  0.0000000E+00;  0.0000000E+00;  0.0000000E+00;
  2.0400000E+00;  9.9999998E-03;  3.9999999E-02;680;  0.0000000E+00;  0.0000000E+00;  0.0000000E+00;  1.0000000E+03;  4.0000001E-01;  0.0000000E+00;0;  0.0000000E+00;  0.0000000E+00;  0.0000000E+00;0;  0.0000000E+00;  1.0000000E+04;  0.0000000E+00;  0.0000000E+00;  1.0000000E+04;  0.0000000E+00;  1.0000000E+04;  0.0000000E+00;  0.0000000E+00;  0.0000000E+00;  0.0000000E+00;
  2.0400000E+00;  9.9999998E-03;  5.9999999E-02;681;  0.0000000E+00;  0.0000000E+00;  0.0000000E+00;  1.0000000E+03;  4.0000001E-01;  0.0000000E+00;0;  0.0000000E+00;  0.0000000E+00;  0.0000000E+00;0;  0.0000000E+00;  1.0000000E+04;  0.0000000E+00;  0.0000000E+00;  1.0000000E+04;  0.0000000E+00;  1.0000000E+04;  0.0000000E+00;  0.0000000E+00;  0.0000000E+00;  0.0000000E+00;
  2.0400000E+00;  9.9999998E-03;  7.9999998E-02;682;  0.0000000E+00;  0.0000000E+00;  0.0000000E+00;  1.0000000E+03;  4.0000001E-01;  0.0000000E+00;0;  0.0000000E+00;  0.0000000E+00;  0.0000000E+00;0;  0.0000000E+00;  1.0000000E+04;  0.0000000E+00;  0.0000000E+00;  1.0000000E+04;  0.0000000E+00;  1.0000000E+04;  0.0000000E+00;  0.0000000E+00;  0.0000000E+00;  0.0000000E+00;
  2.0400000E+00;  9.9999998E-03;  1.0000000E-01;683;  0.0000000E+00;  0.0000000E+00;  0.0000000E+00;  1.0000000E+03;  4.0000001E-01;  0.0000000E+00;0;  0.0000000E+00;  0.0000000E+00;  0.0000000E+00;0;  0.0000000E+00;  1.0000000E+04;  0.0000000E+00;  0.0000000E+00;  1.0000000E+04;  0.0000000E+00;  1.0000000E+04;  0.0000000E+00;  0.0000000E+00;  0.0000000E+00;  0.0000000E+00;
  2.0400000E+00;  9.9999998E-03;  1.2000000E-01;684;  0.0000000E+00;  0.0000000E+00;  0.0000000E+00;  1.0000000E+03;  4.0000001E-01;  0.0000000E+00;0;  0.0000000E+00;  0.0000000E+00;  0.0000000E+00;0;  0.0000000E+00;  1.0000000E+04;  0.0000000E+00;  0.0000000E+00;  1.0000000E+04;  0.0000000E+00;  1.0000000E+04;  0.0000000E+00;  0.0000000E+00;  0.0000000E+00;  0.0000000E+00;
  2.0400000E+00;  9.9999998E-03;  1.4000000E-01;685;  0.0000000E+00;  0.0000000E+00;  0.0000000E+00;  1.0000000E+03;  4.0000001E-01;  0.0000000E+00;0;  0.0000000E+00;  0.0000000E+00;  0.0000000E+00;0;  0.0000000E+00;  1.0000000E+04;  0.0000000E+00;  0.0000000E+00;  1.0000000E+04;  0.0000000E+00;  1.0000000E+04;  0.0000000E+00;  0.0000000E+00;  0.0000000E+00;  0.0000000E+00;
  2.0400000E+00;  9.9999998E-03;  1.6000000E-01;686;  0.0000000E+00;  0.0000000E+00;  0.0000000E+00;  1.0000000E+03;  4.0000001E-01;  0.0000000E+00;0;  0.0000000E+00;  0.0000000E+00;  0.0000000E+00;0;  0.0000000E+00;  1.0000000E+04;  0.0000000E+00;  0.0000000E+00;  1.0000000E+04;  0.0000000E+00;  1.0000000E+04;  0.0000000E+00;  0.0000000E+00;  0.0000000E+00;  0.0000000E+00;
  2.0400000E+00;  9.9999998E-03;  1.8000001E-01;687;  0.0000000E+00;  0.0000000E+00;  0.0000000E+00;  1.0000000E+03;  4.0000001E-01;  0.0000000E+00;0;  0.0000000E+00;  0.0000000E+00;  0.0000000E+00;0;  0.0000000E+00;  1.0000000E+04;  0.0000000E+00;  0.0000000E+00;  1.0000000E+04;  0.0000000E+00;  1.0000000E+04;  0.0000000E+00;  0.0000000E+00;  0.0000000E+00;  0.0000000E+00;
  2.0400000E+00;  9.9999998E-03;  2.0000000E-01;688;  0.0000000E+00;  0.0000000E+00;  0.0000000E+00;  1.0000000E+03;  4.0000001E-01;  0.0000000E+00;0;  0.0000000E+00;  0.0000000E+00;  0.0000000E+00;0;  0.0000000E+00;  1.0000000E+04;  0.0000000E+00;  0.0000000E+00;  1.0000000E+04;  0.0000000E+00;  1.0000000E+04;  0.0000000E+00;  0.0000000E+00;  0.0000000E+00;  0.0000000E+00;
  2.0400000E+00;  9.9999998E-03;  2.2000000E-01;689;  0.0000000E+00;  0.0000000E+00;  0.0000000E+00;  1.0000000E+03;  4.0000001E-01;  0.0000000E+00;0;  0.0000000E+00;  0.0000000E+00;  0.0000000E+00;0;  0.0000000E+00;  1.0000000E+04;  0.0000000E+00;  0.0000000E+00;  1.0000000E+04;  0.0000000E+00;  1.0000000E+04;  0.0000000E+00;  0.0000000E+00;  0.0000000E+00;  0.0000000E+00;
  2.0400000E+00;  9.9999998E-03;  2.3999999E-01;690;  0.0000000E+00;  0.0000000E+00;  0.0000000E+00;  1.0000000E+03;  4.0000001E-01;  0.0000000E+00;0;  0.0000000E+00;  0.0000000E+00;  0.0000000E+00;0;  0.0000000E+00;  1.0000000E+04;  0.0000000E+00;  0.0000000E+00;  1.0000000E+04;  0.0000000E+00;  1.0000000E+04;  0.0000000E+00;  0.0000000E+00;  0.0000000E+00;  0.0000000E+00;
  2.0400000E+00;  9.9999998E-03;  2.5999999E-01;691;  0.0000000E+00;  0.0000000E+00;  0.0000000E+00;  1.0000000E+03;  4.0000001E-01;  0.0000000E+00;0;  0.0000000E+00;  0.0000000E+00;  0.0000000E+00;0;  0.0000000E+00;  1.0000000E+04;  0.0000000E+00;  0.0000000E+00;  1.0000000E+04;  0.0000000E+00;  1.0000000E+04;  0.0000000E+00;  0.0000000E+00;  0.0000000E+00;  0.0000000E+00;
  2.0400000E+00;  9.9999998E-03;  2.8000000E-01;692;  0.0000000E+00;  0.0000000E+00;  0.0000000E+00;  1.0000000E+03;  4.0000001E-01;  0.0000000E+00;0;  0.0000000E+00;  0.0000000E+00;  0.0000000E+00;0;  0.0000000E+00;  1.0000000E+04;  0.0000000E+00;  0.0000000E+00;  1.0000000E+04;  0.0000000E+00;  1.0000000E+04;  0.0000000E+00;  0.0000000E+00;  0.0000000E+00;  0.0000000E+00;
  2.0599999E+00;  9.9999998E-03; -4.0000001E-01;693;  0.0000000E+00;  0.0000000E+00;  0.0000000E+00;  1.0000000E+03;  4.0000001E-01;  0.0000000E+00;0;  0.0000000E+00;  0.0000000E+00;  0.0000000E+00;0;  0.0000000E+00;  1.0000000E+04;  0.0000000E+00;  0.0000000E+00;  1.0000000E+04;  0.0000000E+00;  1.0000000E+04;  0.0000000E+00;  0.0000000E+00;  0.0000000E+00;  0.0000000E+00;
  2.0599999E+00;  9.9999998E-03; -3.8000000E-01;694;  0.0000000E+00;  0.0000000E+00;  0.0000000E+00;  1.0000000E+03;  4.0000001E-01;  0.0000000E+00;0;  0.0000000E+00;  0.0000000E+00;  0.0000000E+00;0;  0.0000000E+00;  1.0000000E+04;  0.0000000E+00;  0.0000000E+00;  1.0000000E+04;  0.0000000E+00;  1.0000000E+04;  0.0000000E+00;  0.0000000E+00;  0.0000000E+00;  0.0000000E+00;
  2.0599999E+00;  9.9999998E-03; -3.6000001E-01;695;  0.0000000E+00;  0.0000000E+00;  0.0000000E+00;  1.0000000E+03;  4.0000001E-01;  0.0000000E+00;0;  0.0000000E+00;  0.0000000E+00;  0.0000000E+00;0;  0.0000000E+00;  1.0000000E+04;  0.0000000E+00;  0.0000000E+00;  1.0000000E+04;  0.0000000E+00;  1.0000000E+04;  0.0000000E+00;  0.0000000E+00;  0.0000000E+00;  0.0000000E+00;
  2.0599999E+00;  9.9999998E-03; -3.4000000E-01;696;  0.0000000E+00;  0.0000000E+00;  0.0000000E+00;  1.0000000E+03;  4.0000001E-01;  0.0000000E+00;0;  0.0000000E+00;  0.0000000E+00;  0.0000000E+00;0;  0.0000000E+00;  1.0000000E+04;  0.0000000E+00;  0.0000000E+00;  1.0000000E+04;  0.0000000E+00;  1.0000000E+04;  0.0000000E+00;  0.0000000E+00;  0.0000000E+00;  0.0000000E+00;
  2.0599999E+00;  9.9999998E-03; -3.1999999E-01;697;  0.0000000E+00;  0.0000000E+00;  0.0000000E+00;  1.0000000E+03;  4.0000001E-01;  0.0000000E+00;0;  0.0000000E+00;  0.0000000E+00;  0.0000000E+00;0;  0.0000000E+00;  1.0000000E+04;  0.0000000E+00;  0.0000000E+00;  1.0000000E+04;  0.0000000E+00;  1.0000000E+04;  0.0000000E+00;  0.0000000E+00;  0.0000000E+00;  0.0000000E+00;
  2.0599999E+00;  9.9999998E-03; -3.0000001E-01;698;  0.0000000E+00;  0.0000000E+00;  0.0000000E+00;  1.0000000E+03;  4.0000001E-01;  0.0000000E+00;0;  0.0000000E+00;  0.0000000E+00;  0.0000000E+00;0;  0.0000000E+00;  1.0000000E+04;  0.0000000E+00;  0.0000000E+00;  1.0000000E+04;  0.0000000E+00;  1.0000000E+04;  0.0000000E+00;  0.0000000E+00;  0.0000000E+00;  0.0000000E+00;
  2.0599999E+00;  9.9999998E-03; -2.8000000E-01;699;  0.0000000E+00;  0.0000000E+00;  0.0000000E+00;  1.0000000E+03;  4.0000001E-01;  0.0000000E+00;0;  0.0000000E+00;  0.0000000E+00;  0.0000000E+00;0;  0.0000000E+00;  1.0000000E+04;  0.0000000E+00;  0.0000000E+00;  1.0000000E+04;  0.0000000E+00;  1.0000000E+04;  0.0000000E+00;  0.0000000E+00;  0.0000000E+00;  0.0000000E+00;
  2.0599999E+00;  9.9999998E-03; -2.5999999E-01;700;  0.0000000E+00;  0.0000000E+00;  0.0000000E+00;  1.0000000E+03;  4.0000001E-01;  0.0000000E+00;0;  0.0000000E+00;  0.0000000E+00;  0.0000000E+00;0;  0.0000000E+00;  1.0000000E+04;  0.0000000E+00;  0.0000000E+00;  1.0000000E+04;  0.0000000E+00;  1.0000000E+04;  0.0000000E+00;  0.0000000E+00;  0.0000000E+00;  0.0000000E+00;
  2.0599999E+00;  9.9999998E-03; -2.3999999E-01;701;  0.0000000E+00;  0.0000000E+00;  0.0000000E+00;  1.0000000E+03;  4.0000001E-01;  0.0000000E+00;0;  0.0000000E+00;  0.0000000E+00;  0.0000000E+00;0;  0.0000000E+00;  1.0000000E+04;  0.0000000E+00;  0.0000000E+00;  1.0000000E+04;  0.0000000E+00;  1.0000000E+04;  0.0000000E+00;  0.0000000E+00;  0.0000000E+00;  0.0000000E+00;
  2.0599999E+00;  9.9999998E-03; -2.2000000E-01;702;  0.0000000E+00;  0.0000000E+00;  0.0000000E+00;  1.0000000E+03;  4.0000001E-01;  0.0000000E+00;0;  0.0000000E+00;  0.0000000E+00;  0.0000000E+00;0;  0.0000000E+00;  1.0000000E+04;  0.0000000E+00;  0.0000000E+00;  1.0000000E+04;  0.0000000E+00;  1.0000000E+04;  0.0000000E+00;  0.0000000E+00;  0.0000000E+00;  0.0000000E+00;
  2.0599999E+00;  9.9999998E-03; -2.0000000E-01;703;  0.0000000E+00;  0.0000000E+00;  0.0000000E+00;  1.0000000E+03;  4.0000001E-01;  0.0000000E+00;0;  0.0000000E+00;  0.0000000E+00;  0.0000000E+00;0;  0.0000000E+00;  1.0000000E+04;  0.0000000E+00;  0.0000000E+00;  1.0000000E+04;  0.0000000E+00;  1.0000000E+04;  0.0000000E+00;  0.0000000E+00;  0.0000000E+00;  0.0000000E+00;
  2.0599999E+00;  9.9999998E-03; -1.8000001E-01;704;  0.0000000E+00;  0.0000000E+00;  0.0000000E+00;  1.0000000E+03;  4.0000001E-01;  0.0000000E+00;0;  0.0000000E+00;  0.0000000E+00;  0.0000000E+00;0;  0.0000000E+00;  1.0000000E+04;  0.0000000E+00;  0.0000000E+00;  1.0000000E+04;  0.0000000E+00;  1.0000000E+04;  0.0000000E+00;  0.0000000E+00;  0.0000000E+00;  0.0000000E+00;
  2.0599999E+00;  9.9999998E-03; -1.6000000E-01;705;  0.0000000E+00;  0.0000000E+00;  0.0000000E+00;  1.0000000E+03;  4.0000001E-01;  0.0000000E+00;0;  0.0000000E+00;  0.0000000E+00;  0.0000000E+00;0;  0.0000000E+00;  1.0000000E+04;  0.0000000E+00;  0.0000000E+00;  1.0000000E+04;  0.0000000E+00;  1.0000000E+04;  0.0000000E+00;  0.0000000E+00;  0.0000000E+00;  0.0000000E+00;
  2.0599999E+00;  9.9999998E-03; -1.4000000E-01;706;  0.0000000E+00;  0.0000000E+00;  0.0000000E+00;  1.0000000E+03;  4.0000001E-01;  0.0000000E+00;0;  0.0000000E+00;  0.0000000E+00;  0.0000000E+00;0;  0.0000000E+00;  1.0000000E+04;  0.0000000E+00;  0.0000000E+00;  1.0000000E+04;  0.0000000E+00;  1.0000000E+04;  0.0000000E+00;  0.0000000E+00;  0.0000000E+00;  0.0000000E+00;
  2.0599999E+00;  9.9999998E-03; -1.2000000E-01;707;  0.0000000E+00;  0.0000000E+00;  0.0000000E+00;  1.0000000E+03;  4.0000001E-01;  0.0000000E+00;0;  0.0000000E+00;  0.0000000E+00;  0.0000000E+00;0;  0.0000000E+00;  1.0000000E+04;  0.0000000E+00;  0.0000000E+00;  1.0000000E+04;  0.0000000E+00;  1.0000000E+04;  0.0000000E+00;  0.0000000E+00;  0.0000000E+00;  0.0000000E+00;
  2.0599999E+00;  9.9999998E-03; -1.0000000E-01;708;  0.0000000E+00;  0.0000000E+00;  0.0000000E+00;  1.0000000E+03;  4.0000001E-01;  0.0000000E+00;0;  0.0000000E+00;  0.0000000E+00;  0.0000000E+00;0;  0.0000000E+00;  1.0000000E+04;  0.0000000E+00;  0.0000000E+00;  1.0000000E+04;  0.0000000E+00;  1.0000000E+04;  0.0000000E+00;  0.0000000E+00;  0.0000000E+00;  0.0000000E+00;
  2.0599999E+00;  9.9999998E-03; -7.9999998E-02;709;  0.0000000E+00;  0.0000000E+00;  0.0000000E+00;  1.0000000E+03;  4.0000001E-01;  0.0000000E+00;0;  0.0000000E+00;  0.0000000E+00;  0.0000000E+00;0;  0.0000000E+00;  1.0000000E+04;  0.0000000E+00;  0.0000000E+00;  1.0000000E+04;  0.0000000E+00;  1.0000000E+04;  0.0000000E+00;  0.0000000E+00;  0.0000000E+00;  0.0000000E+00;
  2.0599999E+00;  9.9999998E-03; -5.9999999E-02;710;  0.0000000E+00;  0.0000000E+00;  0.0000000E+00;  1.0000000E+03;  4.0000001E-01;  0.0000000E+00;0;  0.0000000E+00;  0.0000000E+00;  0.0000000E+00;0;  0.0000000E+00;  1.0000000E+04;  0.0000000E+00;  0.0000000E+00;  1.0000000E+04;  0.0000000E+00;  1.0000000E+04;  0.0000000E+00;  0.0000000E+00;  0.0000000E+00;  0.0000000E+00;
  2.0599999E+00;  9.9999998E-03; -3.9999999E-02;711;  0.0000000E+00;  0.0000000E+00;  0.0000000E+00;  1.0000000E+03;  4.0000001E-01;  0.0000000E+00;0;  0.0000000E+00;  0.0000000E+00;  0.0000000E+00;0;  0.0000000E+00;  1.0000000E+04;  0.0000000E+00;  0.0000000E+00;  1.0000000E+04;  0.0000000E+00;  1.0000000E+04;  0.0000000E+00;  0.0000000E+00;  0.0000000E+00;  0.0000000E+00;
  2.0599999E+00;  9.9999998E-03; -2.0000000E-02;712;  0.0000000E+00;  0.0000000E+00;  0.0000000E+00;  1.0000000E+03;  4.0000001E-01;  0.0000000E+00;0;  0.0000000E+00;  0.0000000E+00;  0.0000000E+00;0;  0.0000000E+00;  1.0000000E+04;  0.0000000E+00;  0.0000000E+00;  1.0000000E+04;  0.0000000E+00;  1.0000000E+04;  0.0000000E+00;  0.0000000E+00;  0.0000000E+00;  0.0000000E+00;
  2.0599999E+00;  9.9999998E-03;  0.0000000E+00;713;  0.0000000E+00;  0.0000000E+00;  0.0000000E+00;  1.0000000E+03;  4.0000001E-01;  0.0000000E+00;0;  0.0000000E+00;  0.0000000E+00;  0.0000000E+00;0;  0.0000000E+00;  1.0000000E+04;  0.0000000E+00;  0.0000000E+00;  1.0000000E+04;  0.0000000E+00;  1.0000000E+04;  0.0000000E+00;  0.0000000E+00;  0.0000000E+00;  0.0000000E+00;
  2.0599999E+00;  9.9999998E-03;  2.0000000E-02;714;  0.0000000E+00;  0.0000000E+00;  0.0000000E+00;  1.0000000E+03;  4.0000001E-01;  0.0000000E+00;0;  0.0000000E+00;  0.0000000E+00;  0.0000000E+00;0;  0.0000000E+00;  1.0000000E+04;  0.0000000E+00;  0.0000000E+00;  1.0000000E+04;  0.0000000E+00;  1.0000000E+04;  0.0000000E+00;  0.0000000E+00;  0.0000000E+00;  0.0000000E+00;
  2.0599999E+00;  9.9999998E-03;  3.9999999E-02;715;  0.0000000E+00;  0.0000000E+00;  0.0000000E+00;  1.0000000E+03;  4.0000001E-01;  0.0000000E+00;0;  0.0000000E+00;  0.0000000E+00;  0.0000000E+00;0;  0.0000000E+00;  1.0000000E+04;  0.0000000E+00;  0.0000000E+00;  1.0000000E+04;  0.0000000E+00;  1.0000000E+04;  0.0000000E+00;  0.0000000E+00;  0.0000000E+00;  0.0000000E+00;
  2.0599999E+00;  9.9999998E-03;  5.9999999E-02;716;  0.0000000E+00;  0.0000000E+00;  0.0000000E+00;  1.0000000E+03;  4.0000001E-01;  0.0000000E+00;0;  0.0000000E+00;  0.0000000E+00;  0.0000000E+00;0;  0.0000000E+00;  1.0000000E+04;  0.0000000E+00;  0.0000000E+00;  1.0000000E+04;  0.0000000E+00;  1.0000000E+04;  0.0000000E+00;  0.0000000E+00;  0.0000000E+00;  0.0000000E+00;
  2.0599999E+00;  9.9999998E-03;  7.9999998E-02;717;  0.0000000E+00;  0.0000000E+00;  0.0000000E+00;  1.0000000E+03;  4.0000001E-01;  0.0000000E+00;0;  0.0000000E+00;  0.0000000E+00;  0.0000000E+00;0;  0.0000000E+00;  1.0000000E+04;  0.0000000E+00;  0.0000000E+00;  1.0000000E+04;  0.0000000E+00;  1.0000000E+04;  0.0000000E+00;  0.0000000E+00;  0.0000000E+00;  0.0000000E+00;
  2.0599999E+00;  9.9999998E-03;  1.0000000E-01;718;  0.0000000E+00;  0.0000000E+00;  0.0000000E+00;  1.0000000E+03;  4.0000001E-01;  0.0000000E+00;0;  0.0000000E+00;  0.0000000E+00;  0.0000000E+00;0;  0.0000000E+00;  1.0000000E+04;  0.0000000E+00;  0.0000000E+00;  1.0000000E+04;  0.0000000E+00;  1.0000000E+04;  0.0000000E+00;  0.0000000E+00;  0.0000000E+00;  0.0000000E+00;
  2.0599999E+00;  9.9999998E-03;  1.2000000E-01;719;  0.0000000E+00;  0.0000000E+00;  0.0000000E+00;  1.0000000E+03;  4.0000001E-01;  0.0000000E+00;0;  0.0000000E+00;  0.0000000E+00;  0.0000000E+00;0;  0.0000000E+00;  1.0000000E+04;  0.0000000E+00;  0.0000000E+00;  1.0000000E+04;  0.0000000E+00;  1.0000000E+04;  0.0000000E+00;  0.0000000E+00;  0.0000000E+00;  0.0000000E+00;
  2.0599999E+00;  9.9999998E-03;  1.4000000E-01;720;  0.0000000E+00;  0.0000000E+00;  0.0000000E+00;  1.0000000E+03;  4.0000001E-01;  0.0000000E+00;0;  0.0000000E+00;  0.0000000E+00;  0.0000000E+00;0;  0.0000000E+00;  1.0000000E+04;  0.0000000E+00;  0.0000000E+00;  1.0000000E+04;  0.0000000E+00;  1.0000000E+04;  0.0000000E+00;  0.0000000E+00;  0.0000000E+00;  0.0000000E+00;
  2.0599999E+00;  9.9999998E-03;  1.6000000E-01;721;  0.0000000E+00;  0.0000000E+00;  0.0000000E+00;  1.0000000E+03;  4.0000001E-01;  0.0000000E+00;0;  0.0000000E+00;  0.0000000E+00;  0.0000000E+00;0;  0.0000000E+00;  1.0000000E+04;  0.0000000E+00;  0.0000000E+00;  1.0000000E+04;  0.0000000E+00;  1.0000000E+04;  0.0000000E+00;  0.0000000E+00;  0.0000000E+00;  0.0000000E+00;
  2.0599999E+00;  9.9999998E-03;  1.8000001E-01;722;  0.0000000E+00;  0.0000000E+00;  0.0000000E+00;  1.0000000E+03;  4.0000001E-01;  0.0000000E+00;0;  0.0000000E+00;  0.0000000E+00;  0.0000000E+00;0;  0.0000000E+00;  1.0000000E+04;  0.0000000E+00;  0.0000000E+00;  1.0000000E+04;  0.0000000E+00;  1.0000000E+04;  0.0000000E+00;  0.0000000E+00;  0.0000000E+00;  0.0000000E+00;
  2.0599999E+00;  9.9999998E-03;  2.0000000E-01;723;  0.0000000E+00;  0.0000000E+00;  0.0000000E+00;  1.0000000E+03;  4.0000001E-01;  0.0000000E+00;0;  0.0000000E+00;  0.0000000E+00;  0.0000000E+00;0;  0.0000000E+00;  1.0000000E+04;  0.0000000E+00;  0.0000000E+00;  1.0000000E+04;  0.0000000E+00;  1.0000000E+04;  0.0000000E+00;  0.0000000E+00;  0.0000000E+00;  0.0000000E+00;
  2.0599999E+00;  9.9999998E-03;  2.2000000E-01;724;  0.0000000E+00;  0.0000000E+00;  0.0000000E+00;  1.0000000E+03;  4.0000001E-01;  0.0000000E+00;0;  0.0000000E+00;  0.0000000E+00;  0.0000000E+00;0;  0.0000000E+00;  1.0000000E+04;  0.0000000E+00;  0.0000000E+00;  1.0000000E+04;  0.0000000E+00;  1.0000000E+04;  0.0000000E+00;  0.0000000E+00;  0.0000000E+00;  0.0000000E+00;
  2.0599999E+00;  9.9999998E-03;  2.3999999E-01;725;  0.0000000E+00;  0.0000000E+00;  0.0000000E+00;  1.0000000E+03;  4.0000001E-01;  0.0000000E+00;0;  0.0000000E+00;  0.0000000E+00;  0.0000000E+00;0;  0.0000000E+00;  1.0000000E+04;  0.0000000E+00;  0.0000000E+00;  1.0000000E+04;  0.0000000E+00;  1.0000000E+04;  0.0000000E+00;  0.0000000E+00;  0.0000000E+00;  0.0000000E+00;
  2.0599999E+00;  9.9999998E-03;  2.5999999E-01;726;  0.0000000E+00;  0.0000000E+00;  0.0000000E+00;  1.0000000E+03;  4.0000001E-01;  0.0000000E+00;0;  0.0000000E+00;  0.0000000E+00;  0.0000000E+00;0;  0.0000000E+00;  1.0000000E+04;  0.0000000E+00;  0.0000000E+00;  1.0000000E+04;  0.0000000E+00;  1.0000000E+04;  0.0000000E+00;  0.0000000E+00;  0.0000000E+00;  0.0000000E+00;
  2.0599999E+00;  9.9999998E-03;  2.8000000E-01;727;  0.0000000E+00;  0.0000000E+00;  0.0000000E+00;  1.0000000E+03;  4.0000001E-01;  0.0000000E+00;0;  0.0000000E+00;  0.0000000E+00;  0.0000000E+00;0;  0.0000000E+00;  1.0000000E+04;  0.0000000E+00;  0.0000000E+00;  1.0000000E+04;  0.0000000E+00;  1.0000000E+04;  0.0000000E+00;  0.0000000E+00;  0.0000000E+00;  0.0000000E+00;
  2.0599999E+00;  9.9999998E-03;  3.0000001E-01;728;  0.0000000E+00;  0.0000000E+00;  0.0000000E+00;  1.0000000E+03;  4.0000001E-01;  0.0000000E+00;0;  0.0000000E+00;  0.0000000E+00;  0.0000000E+00;0;  0.0000000E+00;  1.0000000E+04;  0.0000000E+00;  0.0000000E+00;  1.0000000E+04;  0.0000000E+00;  1.0000000E+04;  0.0000000E+00;  0.0000000E+00;  0.0000000E+00;  0.0000000E+00;
  2.0599999E+00;  9.9999998E-03;  3.1999999E-01;729;  0.0000000E+00;  0.0000000E+00;  0.0000000E+00;  1.0000000E+03;  4.0000001E-01;  0.0000000E+00;0;  0.0000000E+00;  0.0000000E+00;  0.0000000E+00;0;  0.0000000E+00;  1.0000000E+04;  0.0000000E+00;  0.0000000E+00;  1.0000000E+04;  0.0000000E+00;  1.0000000E+04;  0.0000000E+00;  0.0000000E+00;  0.0000000E+00;  0.0000000E+00;
  2.0599999E+00;  9.9999998E-03;  3.4000000E-01;730;  0.0000000E+00;  0.0000000E+00;  0.0000000E+00;  1.0000000E+03;  4.0000001E-01;  0.0000000E+00;0;  0.0000000E+00;  0.0000000E+00;  0.0000000E+00;0;  0.0000000E+00;  1.0000000E+04;  0.0000000E+00;  0.0000000E+00;  1.0000000E+04;  0.0000000E+00;  1.0000000E+04;  0.0000000E+00;  0.0000000E+00;  0.0000000E+00;  0.0000000E+00;
  2.0599999E+00;  9.9999998E-03;  3.6000001E-01;731;  0.0000000E+00;  0.0000000E+00;  0.0000000E+00;  1.0000000E+03;  4.0000001E-01;  0.0000000E+00;0;  0.0000000E+00;  0.0000000E+00;  0.0000000E+00;0;  0.0000000E+00;  1.0000000E+04;  0.0000000E+00;  0.0000000E+00;  1.0000000E+04;  0.0000000E+00;  1.0000000E+04;  0.0000000E+00;  0.0000000E+00;  0.0000000E+00;  0.0000000E+00;
  2.0599999E+00;  9.9999998E-03;  3.8000000E-01;732;  0.0000000E+00;  0.0000000E+00;  0.0000000E+00;  1.0000000E+03;  4.0000001E-01;  0.0000000E+00;0;  0.0000000E+00;  0.0000000E+00;  0.0000000E+00;0;  0.0000000E+00;  1.0000000E+04;  0.0000000E+00;  0.0000000E+00;  1.0000000E+04;  0.0000000E+00;  1.0000000E+04;  0.0000000E+00;  0.0000000E+00;  0.0000000E+00;  0.0000000E+00;
  2.0799999E+00;  9.9999998E-03; -4.0000001E-01;733;  0.0000000E+00;  0.0000000E+00;  0.0000000E+00;  1.0000000E+03;  4.0000001E-01;  0.0000000E+00;0;  0.0000000E+00;  0.0000000E+00;  0.0000000E+00;0;  0.0000000E+00;  1.0000000E+04;  0.0000000E+00;  0.0000000E+00;  1.0000000E+04;  0.0000000E+00;  1.0000000E+04;  0.0000000E+00;  0.0000000E+00;  0.0000000E+00;  0.0000000E+00;
  2.0799999E+00;  9.9999998E-03; -3.8000000E-01;734;  0.0000000E+00;  0.0000000E+00;  0.0000000E+00;  1.0000000E+03;  4.0000001E-01;  0.0000000E+00;0;  0.0000000E+00;  0.0000000E+00;  0.0000000E+00;0;  0.0000000E+00;  1.0000000E+04;  0.0000000E+00;  0.0000000E+00;  1.0000000E+04;  0.0000000E+00;  1.0000000E+04;  0.0000000E+00;  0.0000000E+00;  0.0000000E+00;  0.0000000E+00;
  2.0799999E+00;  9.9999998E-03; -3.6000001E-01;735;  0.0000000E+00;  0.0000000E+00;  0.0000000E+00;  1.0000000E+03;  4.0000001E-01;  0.0000000E+00;0;  0.0000000E+00;  0.0000000E+00;  0.0000000E+00;0;  0.0000000E+00;  1.0000000E+04;  0.0000000E+00;  0.0000000E+00;  1.0000000E+04;  0.0000000E+00;  1.0000000E+04;  0.0000000E+00;  0.0000000E+00;  0.0000000E+00;  0.0000000E+00;
  2.0799999E+00;  9.9999998E-03; -3.4000000E-01;736;  0.0000000E+00;  0.0000000E+00;  0.0000000E+00;  1.0000000E+03;  4.0000001E-01;  0.0000000E+00;0;  0.0000000E+00;  0.0000000E+00;  0.0000000E+00;0;  0.0000000E+00;  1.0000000E+04;  0.0000000E+00;  0.0000000E+00;  1.0000000E+04;  0.0000000E+00;  1.0000000E+04;  0.0000000E+00;  0.0000000E+00;  0.0000000E+00;  0.0000000E+00;
  2.0799999E+00;  9.9999998E-03; -3.1999999E-01;737;  0.0000000E+00;  0.0000000E+00;  0.0000000E+00;  1.0000000E+03;  4.0000001E-01;  0.0000000E+00;0;  0.0000000E+00;  0.0000000E+00;  0.0000000E+00;0;  0.0000000E+00;  1.0000000E+04;  0.0000000E+00;  0.0000000E+00;  1.0000000E+04;  0.0000000E+00;  1.0000000E+04;  0.0000000E+00;  0.0000000E+00;  0.0000000E+00;  0.0000000E+00;
  2.0799999E+00;  9.9999998E-03; -3.0000001E-01;738;  0.0000000E+00;  0.0000000E+00;  0.0000000E+00;  1.0000000E+03;  4.0000001E-01;  0.0000000E+00;0;  0.0000000E+00;  0.0000000E+00;  0.0000000E+00;0;  0.0000000E+00;  1.0000000E+04;  0.0000000E+00;  0.0000000E+00;  1.0000000E+04;  0.0000000E+00;  1.0000000E+04;  0.0000000E+00;  0.0000000E+00;  0.0000000E+00;  0.0000000E+00;
  2.0799999E+00;  9.9999998E-03; -2.8000000E-01;739;  0.0000000E+00;  0.0000000E+00;  0.0000000E+00;  1.0000000E+03;  4.0000001E-01;  0.0000000E+00;0;  0.0000000E+00;  0.0000000E+00;  0.0000000E+00;0;  0.0000000E+00;  1.0000000E+04;  0.0000000E+00;  0.0000000E+00;  1.0000000E+04;  0.0000000E+00;  1.0000000E+04;  0.0000000E+00;  0.0000000E+00;  0.0000000E+00;  0.0000000E+00;
  2.0799999E+00;  9.9999998E-03; -2.5999999E-01;740;  0.0000000E+00;  0.0000000E+00;  0.0000000E+00;  1.0000000E+03;  4.0000001E-01;  0.0000000E+00;0;  0.0000000E+00;  0.0000000E+00;  0.0000000E+00;0;  0.0000000E+00;  1.0000000E+04;  0.0000000E+00;  0.0000000E+00;  1.0000000E+04;  0.0000000E+00;  1.0000000E+04;  0.0000000E+00;  0.0000000E+00;  0.0000000E+00;  0.0000000E+00;
  2.0799999E+00;  9.9999998E-03; -2.3999999E-01;741;  0.0000000E+00;  0.0000000E+00;  0.0000000E+00;  1.0000000E+03;  4.0000001E-01;  0.0000000E+00;0;  0.0000000E+00;  0.0000000E+00;  0.0000000E+00;0;  0.0000000E+00;  1.0000000E+04;  0.0000000E+00;  0.0000000E+00;  1.0000000E+04;  0.0000000E+00;  1.0000000E+04;  0.0000000E+00;  0.0000000E+00;  0.0000000E+00;  0.0000000E+00;
  2.0799999E+00;  9.9999998E-03; -2.2000000E-01;742;  0.0000000E+00;  0.0000000E+00;  0.0000000E+00;  1.0000000E+03;  4.0000001E-01;  0.0000000E+00;0;  0.0000000E+00;  0.0000000E+00;  0.0000000E+00;0;  0.0000000E+00;  1.0000000E+04;  0.0000000E+00;  0.0000000E+00;  1.0000000E+04;  0.0000000E+00;  1.0000000E+04;  0.0000000E+00;  0.0000000E+00;  0.0000000E+00;  0.0000000E+00;
  2.0799999E+00;  9.9999998E-03; -2.0000000E-01;743;  0.0000000E+00;  0.0000000E+00;  0.0000000E+00;  1.0000000E+03;  4.0000001E-01;  0.0000000E+00;0;  0.0000000E+00;  0.0000000E+00;  0.0000000E+00;0;  0.0000000E+00;  1.0000000E+04;  0.0000000E+00;  0.0000000E+00;  1.0000000E+04;  0.0000000E+00;  1.0000000E+04;  0.0000000E+00;  0.0000000E+00;  0.0000000E+00;  0.0000000E+00;
  2.0799999E+00;  9.9999998E-03; -1.8000001E-01;744;  0.0000000E+00;  0.0000000E+00;  0.0000000E+00;  1.0000000E+03;  4.0000001E-01;  0.0000000E+00;0;  0.0000000E+00;  0.0000000E+00;  0.0000000E+00;0;  0.0000000E+00;  1.0000000E+04;  0.0000000E+00;  0.0000000E+00;  1.0000000E+04;  0.0000000E+00;  1.0000000E+04;  0.0000000E+00;  0.0000000E+00;  0.0000000E+00;  0.0000000E+00;
  2.0799999E+00;  9.9999998E-03; -1.6000000E-01;745;  0.0000000E+00;  0.0000000E+00;  0.0000000E+00;  1.0000000E+03;  4.0000001E-01;  0.0000000E+00;0;  0.0000000E+00;  0.0000000E+00;  0.0000000E+00;0;  0.0000000E+00;  1.0000000E+04;  0.0000000E+00;  0.0000000E+00;  1.0000000E+04;  0.0000000E+00;  1.0000000E+04;  0.0000000E+00;  0.0000000E+00;  0.0000000E+00;  0.0000000E+00;
  2.0799999E+00;  9.9999998E-03; -1.4000000E-01;746;  0.0000000E+00;  0.0000000E+00;  0.0000000E+00;  1.0000000E+03;  4.0000001E-01;  0.0000000E+00;0;  0.0000000E+00;  0.0000000E+00;  0.0000000E+00;0;  0.0000000E+00;  1.0000000E+04;  0.0000000E+00;  0.0000000E+00;  1.0000000E+04;  0.0000000E+00;  1.0000000E+04;  0.0000000E+00;  0.0000000E+00;  0.0000000E+00;  0.0000000E+00;
  2.0799999E+00;  9.9999998E-03; -1.2000000E-01;747;  0.0000000E+00;  0.0000000E+00;  0.0000000E+00;  1.0000000E+03;  4.0000001E-01;  0.0000000E+00;0;  0.0000000E+00;  0.0000000E+00;  0.0000000E+00;0;  0.0000000E+00;  1.0000000E+04;  0.0000000E+00;  0.0000000E+00;  1.0000000E+04;  0.0000000E+00;  1.0000000E+04;  0.0000000E+00;  0.0000000E+00;  0.0000000E+00;  0.0000000E+00;
  2.0799999E+00;  9.9999998E-03; -1.0000000E-01;748;  0.0000000E+00;  0.0000000E+00;  0.0000000E+00;  1.0000000E+03;  4.0000001E-01;  0.0000000E+00;0;  0.0000000E+00;  0.0000000E+00;  0.0000000E+00;0;  0.0000000E+00;  1.0000000E+04;  0.0000000E+00;  0.0000000E+00;  1.0000000E+04;  0.0000000E+00;  1.0000000E+04;  0.0000000E+00;  0.0000000E+00;  0.0000000E+00;  0.0000000E+00;
  2.0799999E+00;  9.9999998E-03; -7.9999998E-02;749;  0.0000000E+00;  0.0000000E+00;  0.0000000E+00;  1.0000000E+03;  4.0000001E-01;  0.0000000E+00;0;  0.0000000E+00;  0.0000000E+00;  0.0000000E+00;0;  0.0000000E+00;  1.0000000E+04;  0.0000000E+00;  0.0000000E+00;  1.0000000E+04;  0.0000000E+00;  1.0000000E+04;  0.0000000E+00;  0.0000000E+00;  0.0000000E+00;  0.0000000E+00;
  2.0799999E+00;  9.9999998E-03; -5.9999999E-02;750;  0.0000000E+00;  0.0000000E+00;  0.0000000E+00;  1.0000000E+03;  4.0000001E-01;  0.0000000E+00;0;  0.0000000E+00;  0.0000000E+00;  0.0000000E+00;0;  0.0000000E+00;  1.0000000E+04;  0.0000000E+00;  0.0000000E+00;  1.0000000E+04;  0.0000000E+00;  1.0000000E+04;  0.0000000E+00;  0.0000000E+00;  0.0000000E+00;  0.0000000E+00;
  2.0799999E+00;  9.9999998E-03; -3.9999999E-02;751;  0.0000000E+00;  0.0000000E+00;  0.0000000E+00;  1.0000000E+03;  4.0000001E-01;  0.0000000E+00;0;  0.0000000E+00;  0.0000000E+00;  0.0000000E+00;0;  0.0000000E+00;  1.0000000E+04;  0.0000000E+00;  0.0000000E+00;  1.0000000E+04;  0.0000000E+00;  1.0000000E+04;  0.0000000E+00;  0.0000000E+00;  0.0000000E+00;  0.0000000E+00;
  2.0799999E+00;  9.9999998E-03; -2.0000000E-02;752;  0.0000000E+00;  0.0000000E+00;  0.0000000E+00;  1.0000000E+03;  4.0000001E-01;  0.0000000E+00;0;  0.0000000E+00;  0.0000000E+00;  0.0000000E+00;0;  0.0000000E+00;  1.0000000E+04;  0.0000000E+00;  0.0000000E+00;  1.0000000E+04;  0.0000000E+00;  1.0000000E+04;  0.0000000E+00;  0.0000000E+00;  0.0000000E+00;  0.0000000E+00;
  2.0799999E+00;  9.9999998E-03;  0.0000000E+00;753;  0.0000000E+00;  0.0000000E+00;  0.0000000E+00;  1.0000000E+03;  4.0000001E-01;  0.0000000E+00;0;  0.0000000E+00;  0.0000000E+00;  0.0000000E+00;0;  0.0000000E+00;  1.0000000E+04;  0.0000000E+00;  0.0000000E+00;  1.0000000E+04;  0.0000000E+00;  1.0000000E+04;  0.0000000E+00;  0.0000000E+00;  0.0000000E+00;  0.0000000E+00;
  2.0799999E+00;  9.9999998E-03;  2.0000000E-02;754;  0.0000000E+00;  0.0000000E+00;  0.0000000E+00;  1.0000000E+03;  4.0000001E-01;  0.0000000E+00;0;  0.0000000E+00;  0.0000000E+00;  0.0000000E+00;0;  0.0000000E+00;  1.0000000E+04;  0.0000000E+00;  0.0000000E+00;  1.0000000E+04;  0.0000000E+00;  1.0000000E+04;  0.0000000E+00;  0.0000000E+00;  0.0000000E+00;  0.0000000E+00;
  2.0799999E+00;  9.9999998E-03;  3.9999999E-02;755;  0.0000000E+00;  0.0000000E+00;  0.0000000E+00;  1.0000000E+03;  4.0000001E-01;  0.0000000E+00;0;  0.0000000E+00;  0.0000000E+00;  0.0000000E+00;0;  0.0000000E+00;  1.0000000E+04;  0.0000000E+00;  0.0000000E+00;  1.0000000E+04;  0.0000000E+00;  1.0000000E+04;  0.0000000E+00;  0.0000000E+00;  0.0000000E+00;  0.0000000E+00;
  2.0799999E+00;  9.9999998E-03;  5.9999999E-02;756;  0.0000000E+00;  0.0000000E+00;  0.0000000E+00;  1.0000000E+03;  4.0000001E-01;  0.0000000E+00;0;  0.0000000E+00;  0.0000000E+00;  0.0000000E+00;0;  0.0000000E+00;  1.0000000E+04;  0.0000000E+00;  0.0000000E+00;  1.0000000E+04;  0.0000000E+00;  1.0000000E+04;  0.0000000E+00;  0.0000000E+00;  0.0000000E+00;  0.0000000E+00;
  2.0799999E+00;  9.9999998E-03;  7.9999998E-02;757;  0.0000000E+00;  0.0000000E+00;  0.0000000E+00;  1.0000000E+03;  4.0000001E-01;  0.0000000E+00;0;  0.0000000E+00;  0.0000000E+00;  0.0000000E+00;0;  0.0000000E+00;  1.0000000E+04;  0.0000000E+00;  0.0000000E+00;  1.0000000E+04;  0.0000000E+00;  1.0000000E+04;  0.0000000E+00;  0.0000000E+00;  0.0000000E+00;  0.0000000E+00;
  2.0799999E+00;  9.9999998E-03;  1.0000000E-01;758;  0.0000000E+00;  0.0000000E+00;  0.0000000E+00;  1.0000000E+03;  4.0000001E-01;  0.0000000E+00;0;  0.0000000E+00;  0.0000000E+00;  0.0000000E+00;0;  0.0000000E+00;  1.0000000E+04;  0.0000000E+00;  0.0000000E+00;  1.0000000E+04;  0.0000000E+00;  1.0000000E+04;  0.0000000E+00;  0.0000000E+00;  0.0000000E+00;  0.0000000E+00;
  2.0799999E+00;  9.9999998E-03;  1.2000000E-01;759;  0.0000000E+00;  0.0000000E+00;  0.0000000E+00;  1.0000000E+03;  4.0000001E-01;  0.0000000E+00;0;  0.0000000E+00;  0.0000000E+00;  0.0000000E+00;0;  0.0000000E+00;  1.0000000E+04;  0.0000000E+00;  0.0000000E+00;  1.0000000E+04;  0.0000000E+00;  1.0000000E+04;  0.0000000E+00;  0.0000000E+00;  0.0000000E+00;  0.0000000E+00;
  2.0799999E+00;  9.9999998E-03;  1.4000000E-01;760;  0.0000000E+00;  0.0000000E+00;  0.0000000E+00;  1.0000000E+03;  4.0000001E-01;  0.0000000E+00;0;  0.0000000E+00;  0.0000000E+00;  0.0000000E+00;0;  0.0000000E+00;  1.0000000E+04;  0.0000000E+00;  0.0000000E+00;  1.0000000E+04;  0.0000000E+00;  1.0000000E+04;  0.0000000E+00;  0.0000000E+00;  0.0000000E+00;  0.0000000E+00;
  2.0799999E+00;  9.9999998E-03;  1.6000000E-01;761;  0.0000000E+00;  0.0000000E+00;  0.0000000E+00;  1.0000000E+03;  4.0000001E-01;  0.0000000E+00;0;  0.0000000E+00;  0.0000000E+00;  0.0000000E+00;0;  0.0000000E+00;  1.0000000E+04;  0.0000000E+00;  0.0000000E+00;  1.0000000E+04;  0.0000000E+00;  1.0000000E+04;  0.0000000E+00;  0.0000000E+00;  0.0000000E+00;  0.0000000E+00;
  2.0799999E+00;  9.9999998E-03;  1.8000001E-01;762;  0.0000000E+00;  0.0000000E+00;  0.0000000E+00;  1.0000000E+03;  4.0000001E-01;  0.0000000E+00;0;  0.0000000E+00;  0.0000000E+00;  0.0000000E+00;0;  0.0000000E+00;  1.0000000E+04;  0.0000000E+00;  0.0000000E+00;  1.0000000E+04;  0.0000000E+00;  1.0000000E+04;  0.0000000E+00;  0.0000000E+00;  0.0000000E+00;  0.0000000E+00;
  2.0799999E+00;  9.9999998E-03;  2.0000000E-01;763;  0.0000000E+00;  0.0000000E+00;  0.0000000E+00;  1.0000000E+03;  4.0000001E-01;  0.0000000E+00;0;  0.0000000E+00;  0.0000000E+00;  0.0000000E+00;0;  0.0000000E+00;  1.0000000E+04;  0.0000000E+00;  0.0000000E+00;  1.0000000E+04;  0.0000000E+00;  1.0000000E+04;  0.0000000E+00;  0.0000000E+00;  0.0000000E+00;  0.0000000E+00;
  2.0799999E+00;  9.9999998E-03;  2.2000000E-01;764;  0.0000000E+00;  0.0000000E+00;  0.0000000E+00;  1.0000000E+03;  4.0000001E-01;  0.0000000E+00;0;  0.0000000E+00;  0.0000000E+00;  0.0000000E+00;0;  0.0000000E+00;  1.0000000E+04;  0.0000000E+00;  0.0000000E+00;  1.0000000E+04;  0.0000000E+00;  1.0000000E+04;  0.0000000E+00;  0.0000000E+00;  0.0000000E+00;  0.0000000E+00;
  2.0799999E+00;  9.9999998E-03;  2.3999999E-01;765;  0.0000000E+00;  0.0000000E+00;  0.0000000E+00;  1.0000000E+03;  4.0000001E-01;  0.0000000E+00;0;  0.0000000E+00;  0.0000000E+00;  0.0000000E+00;0;  0.0000000E+00;  1.0000000E+04;  0.0000000E+00;  0.0000000E+00;  1.0000000E+04;  0.0000000E+00;  1.0000000E+04;  0.0000000E+00;  0.0000000E+00;  0.0000000E+00;  0.0000000E+00;
  2.0799999E+00;  9.9999998E-03;  2.5999999E-01;766;  0.0000000E+00;  0.0000000E+00;  0.0000000E+00;  1.0000000E+03;  4.0000001E-01;  0.0000000E+00;0;  0.0000000E+00;  0.0000000E+00;  0.0000000E+00;0;  0.0000000E+00;  1.0000000E+04;  0.0000000E+00;  0.0000000E+00;  1.0000000E+04;  0.0000000E+00;  1.0000000E+04;  0.0000000E+00;  0.0000000E+00;  0.0000000E+00;  0.0000000E+00;
  2.0799999E+00;  9.9999998E-03;  2.8000000E-01;767;  0.0000000E+00;  0.0000000E+00;  0.0000000E+00;  1.0000000E+03;  4.0000001E-01;  0.0000000E+00;0;  0.0000000E+00;  0.0000000E+00;  0.0000000E+00;0;  0.0000000E+00;  1.0000000E+04;  0.0000000E+00;  0.0000000E+00;  1.0000000E+04;  0.0000000E+00;  1.0000000E+04;  0.0000000E+00;  0.0000000E+00;  0.0000000E+00;  0.0000000E+00;
  2.0799999E+00;  9.9999998E-03;  3.0000001E-01;768;  0.0000000E+00;  0.0000000E+00;  0.0000000E+00;  1.0000000E+03;  4.0000001E-01;  0.0000000E+00;0;  0.0000000E+00;  0.0000000E+00;  0.0000000E+00;0;  0.0000000E+00;  1.0000000E+04;  0.0000000E+00;  0.0000000E+00;  1.0000000E+04;  0.0000000E+00;  1.0000000E+04;  0.0000000E+00;  0.0000000E+00;  0.0000000E+00;  0.0000000E+00;
  2.0799999E+00;  9.9999998E-03;  3.1999999E-01;769;  0.0000000E+00;  0.0000000E+00;  0.0000000E+00;  1.0000000E+03;  4.0000001E-01;  0.0000000E+00;0;  0.0000000E+00;  0.0000000E+00;  0.0000000E+00;0;  0.0000000E+00;  1.0000000E+04;  0.0000000E+00;  0.0000000E+00;  1.0000000E+04;  0.0000000E+00;  1.0000000E+04;  0.0000000E+00;  0.0000000E+00;  0.0000000E+00;  0.0000000E+00;
  2.0799999E+00;  9.9999998E-03;  3.4000000E-01;770;  0.0000000E+00;  0.0000000E+00;  0.0000000E+00;  1.0000000E+03;  4.0000001E-01;  0.0000000E+00;0;  0.0000000E+00;  0.0000000E+00;  0.0000000E+00;0;  0.0000000E+00;  1.0000000E+04;  0.0000000E+00;  0.0000000E+00;  1.0000000E+04;  0.0000000E+00;  1.0000000E+04;  0.0000000E+00;  0.0000000E+00;  0.0000000E+00;  0.0000000E+00;
  2.0799999E+00;  9.9999998E-03;  3.6000001E-01;771;  0.0000000E+00;  0.0000000E+00;  0.0000000E+00;  1.0000000E+03;  4.0000001E-01;  0.0000000E+00;0;  0.0000000E+00;  0.0000000E+00;  0.0000000E+00;0;  0.0000000E+00;  1.0000000E+04;  0.0000000E+00;  0.0000000E+00;  1.0000000E+04;  0.0000000E+00;  1.0000000E+04;  0.0000000E+00;  0.0000000E+00;  0.0000000E+00;  0.0000000E+00;
  2.0799999E+00;  9.9999998E-03;  3.8000000E-01;772;  0.0000000E+00;  0.0000000E+00;  0.0000000E+00;  1.0000000E+03;  4.0000001E-01;  0.0000000E+00;0;  0.0000000E+00;  0.0000000E+00;  0.0000000E+00;0;  0.0000000E+00;  1.0000000E+04;  0.0000000E+00;  0.0000000E+00;  1.0000000E+04;  0.0000000E+00;  1.0000000E+04;  0.0000000E+00;  0.0000000E+00;  0.0000000E+00;  0.0000000E+00;
  2.0799999E+00;  9.9999998E-03;  4.0000001E-01;773;  0.0000000E+00;  0.0000000E+00;  0.0000000E+00;  1.0000000E+03;  4.0000001E-01;  0.0000000E+00;0;  0.0000000E+00;  0.0000000E+00;  0.0000000E+00;0;  0.0000000E+00;  1.0000000E+04;  0.0000000E+00;  0.0000000E+00;  1.0000000E+04;  0.0000000E+00;  1.0000000E+04;  0.0000000E+00;  0.0000000E+00;  0.0000000E+00;  0.0000000E+00;
  2.0999999E+00;  9.9999998E-03; -4.0000001E-01;774;  0.0000000E+00;  0.0000000E+00;  0.0000000E+00;  1.0000000E+03;  4.0000001E-01;  0.0000000E+00;0;  0.0000000E+00;  0.0000000E+00;  0.0000000E+00;0;  0.0000000E+00;  1.0000000E+04;  0.0000000E+00;  0.0000000E+00;  1.0000000E+04;  0.0000000E+00;  1.0000000E+04;  0.0000000E+00;  0.0000000E+00;  0.0000000E+00;  0.0000000E+00;
  2.0999999E+00;  9.9999998E-03; -3.8000000E-01;775;  0.0000000E+00;  0.0000000E+00;  0.0000000E+00;  1.0000000E+03;  4.0000001E-01;  0.0000000E+00;0;  0.0000000E+00;  0.0000000E+00;  0.0000000E+00;0;  0.0000000E+00;  1.0000000E+04;  0.0000000E+00;  0.0000000E+00;  1.0000000E+04;  0.0000000E+00;  1.0000000E+04;  0.0000000E+00;  0.0000000E+00;  0.0000000E+00;  0.0000000E+00;
  2.0999999E+00;  9.9999998E-03; -3.6000001E-01;776;  0.0000000E+00;  0.0000000E+00;  0.0000000E+00;  1.0000000E+03;  4.0000001E-01;  0.0000000E+00;0;  0.0000000E+00;  0.0000000E+00;  0.0000000E+00;0;  0.0000000E+00;  1.0000000E+04;  0.0000000E+00;  0.0000000E+00;  1.0000000E+04;  0.0000000E+00;  1.0000000E+04;  0.0000000E+00;  0.0000000E+00;  0.0000000E+00;  0.0000000E+00;
  2.0999999E+00;  9.9999998E-03; -3.4000000E-01;777;  0.0000000E+00;  0.0000000E+00;  0.0000000E+00;  1.0000000E+03;  4.0000001E-01;  0.0000000E+00;0;  0.0000000E+00;  0.0000000E+00;  0.0000000E+00;0;  0.0000000E+00;  1.0000000E+04;  0.0000000E+00;  0.0000000E+00;  1.0000000E+04;  0.0000000E+00;  1.0000000E+04;  0.0000000E+00;  0.0000000E+00;  0.0000000E+00;  0.0000000E+00;
  2.0999999E+00;  9.9999998E-03; -3.1999999E-01;778;  0.0000000E+00;  0.0000000E+00;  0.0000000E+00;  1.0000000E+03;  4.0000001E-01;  0.0000000E+00;0;  0.0000000E+00;  0.0000000E+00;  0.0000000E+00;0;  0.0000000E+00;  1.0000000E+04;  0.0000000E+00;  0.0000000E+00;  1.0000000E+04;  0.0000000E+00;  1.0000000E+04;  0.0000000E+00;  0.0000000E+00;  0.0000000E+00;  0.0000000E+00;
  2.0999999E+00;  9.9999998E-03; -3.0000001E-01;779;  0.0000000E+00;  0.0000000E+00;  0.0000000E+00;  1.0000000E+03;  4.0000001E-01;  0.0000000E+00;0;  0.0000000E+00;  0.0000000E+00;  0.0000000E+00;0;  0.0000000E+00;  1.0000000E+04;  0.0000000E+00;  0.0000000E+00;  1.0000000E+04;  0.0000000E+00;  1.0000000E+04;  0.0000000E+00;  0.0000000E+00;  0.0000000E+00;  0.0000000E+00;
  2.0999999E+00;  9.9999998E-03; -2.8000000E-01;780;  0.0000000E+00;  0.0000000E+00;  0.0000000E+00;  1.0000000E+03;  4.0000001E-01;  0.0000000E+00;0;  0.0000000E+00;  0.0000000E+00;  0.0000000E+00;0;  0.0000000E+00;  1.0000000E+04;  0.0000000E+00;  0.0000000E+00;  1.0000000E+04;  0.0000000E+00;  1.0000000E+04;  0.0000000E+00;  0.0000000E+00;  0.0000000E+00;  0.0000000E+00;
  2.0999999E+00;  9.9999998E-03; -2.5999999E-01;781;  0.0000000E+00;  0.0000000E+00;  0.0000000E+00;  1.0000000E+03;  4.0000001E-01;  0.0000000E+00;0;  0.0000000E+00;  0.0000000E+00;  0.0000000E+00;0;  0.0000000E+00;  1.0000000E+04;  0.0000000E+00;  0.0000000E+00;  1.0000000E+04;  0.0000000E+00;  1.0000000E+04;  0.0000000E+00;  0.0000000E+00;  0.0000000E+00;  0.0000000E+00;
  2.0999999E+00;  9.9999998E-03; -2.3999999E-01;782;  0.0000000E+00;  0.0000000E+00;  0.0000000E+00;  1.0000000E+03;  4.0000001E-01;  0.0000000E+00;0;  0.0000000E+00;  0.0000000E+00;  0.0000000E+00;0;  0.0000000E+00;  1.0000000E+04;  0.0000000E+00;  0.0000000E+00;  1.0000000E+04;  0.0000000E+00;  1.0000000E+04;  0.0000000E+00;  0.0000000E+00;  0.0000000E+00;  0.0000000E+00;
  2.0999999E+00;  9.9999998E-03; -2.2000000E-01;783;  0.0000000E+00;  0.0000000E+00;  0.0000000E+00;  1.0000000E+03;  4.0000001E-01;  0.0000000E+00;0;  0.0000000E+00;  0.0000000E+00;  0.0000000E+00;0;  0.0000000E+00;  1.0000000E+04;  0.0000000E+00;  0.0000000E+00;  1.0000000E+04;  0.0000000E+00;  1.0000000E+04;  0.0000000E+00;  0.0000000E+00;  0.0000000E+00;  0.0000000E+00;
  2.0999999E+00;  9.9999998E-03; -2.0000000E-01;784;  0.0000000E+00;  0.0000000E+00;  0.0000000E+00;  1.0000000E+03;  4.0000001E-01;  0.0000000E+00;0;  0.0000000E+00;  0.0000000E+00;  0.0000000E+00;0;  0.0000000E+00;  1.0000000E+04;  0.0000000E+00;  0.0000000E+00;  1.0000000E+04;  0.0000000E+00;  1.0000000E+04;  0.0000000E+00;  0.0000000E+00;  0.0000000E+00;  0.0000000E+00;
  2.0999999E+00;  9.9999998E-03; -1.8000001E-01;785;  0.0000000E+00;  0.0000000E+00;  0.0000000E+00;  1.0000000E+03;  4.0000001E-01;  0.0000000E+00;0;  0.0000000E+00;  0.0000000E+00;  0.0000000E+00;0;  0.0000000E+00;  1.0000000E+04;  0.0000000E+00;  0.0000000E+00;  1.0000000E+04;  0.0000000E+00;  1.0000000E+04;  0.0000000E+00;  0.0000000E+00;  0.0000000E+00;  0.0000000E+00;
  2.0999999E+00;  9.9999998E-03; -1.6000000E-01;786;  0.0000000E+00;  0.0000000E+00;  0.0000000E+00;  1.0000000E+03;  4.0000001E-01;  0.0000000E+00;0;  0.0000000E+00;  0.0000000E+00;  0.0000000E+00;0;  0.0000000E+00;  1.0000000E+04;  0.0000000E+00;  0.0000000E+00;  1.0000000E+04;  0.0000000E+00;  1.0000000E+04;  0.0000000E+00;  0.0000000E+00;  0.0000000E+00;  0.0000000E+00;
  2.0999999E+00;  9.9999998E-03; -1.4000000E-01;787;  0.0000000E+00;  0.0000000E+00;  0.0000000E+00;  1.0000000E+03;  4.0000001E-01;  0.0000000E+00;0;  0.0000000E+00;  0.0000000E+00;  0.0000000E+00;0;  0.0000000E+00;  1.0000000E+04;  0.0000000E+00;  0.0000000E+00;  1.0000000E+04;  0.0000000E+00;  1.0000000E+04;  0.0000000E+00;  0.0000000E+00;  0.0000000E+00;  0.0000000E+00;
  2.0999999E+00;  9.9999998E-03; -1.2000000E-01;788;  0.0000000E+00;  0.0000000E+00;  0.0000000E+00;  1.0000000E+03;  4.0000001E-01;  0.0000000E+00;0;  0.0000000E+00;  0.0000000E+00;  0.0000000E+00;0;  0.0000000E+00;  1.0000000E+04;  0.0000000E+00;  0.0000000E+00;  1.0000000E+04;  0.0000000E+00;  1.0000000E+04;  0.0000000E+00;  0.0000000E+00;  0.0000000E+00;  0.0000000E+00;
  2.0999999E+00;  9.9999998E-03; -1.0000000E-01;789;  0.0000000E+00;  0.0000000E+00;  0.0000000E+00;  1.0000000E+03;  4.0000001E-01;  0.0000000E+00;0;  0.0000000E+00;  0.0000000E+00;  0.0000000E+00;0;  0.0000000E+00;  1.0000000E+04;  0.0000000E+00;  0.0000000E+00;  1.0000000E+04;  0.0000000E+00;  1.0000000E+04;  0.0000000E+00;  0.0000000E+00;  0.0000000E+00;  0.0000000E+00;
  2.0999999E+00;  9.9999998E-03; -7.9999998E-02;790;  0.0000000E+00;  0.0000000E+00;  0.0000000E+00;  1.0000000E+03;  4.0000001E-01;  0.0000000E+00;0;  0.0000000E+00;  0.0000000E+00;  0.0000000E+00;0;  0.0000000E+00;  1.0000000E+04;  0.0000000E+00;  0.0000000E+00;  1.0000000E+04;  0.0000000E+00;  1.0000000E+04;  0.0000000E+00;  0.0000000E+00;  0.0000000E+00;  0.0000000E+00;
  2.0999999E+00;  9.9999998E-03; -5.9999999E-02;791;  0.0000000E+00;  0.0000000E+00;  0.0000000E+00;  1.0000000E+03;  4.0000001E-01;  0.0000000E+00;0;  0.0000000E+00;  0.0000000E+00;  0.0000000E+00;0;  0.0000000E+00;  1.0000000E+04;  0.0000000E+00;  0.0000000E+00;  1.0000000E+04;  0.0000000E+00;  1.0000000E+04;  0.0000000E+00;  0.0000000E+00;  0.0000000E+00;  0.0000000E+00;
  2.0999999E+00;  9.9999998E-03; -3.9999999E-02;792;  0.0000000E+00;  0.0000000E+00;  0.0000000E+00;  1.0000000E+03;  4.0000001E-01;  0.0000000E+00;0;  0.0000000E+00;  0.0000000E+00;  0.0000000E+00;0;  0.0000000E+00;  1.0000000E+04;  0.0000000E+00;  0.0000000E+00;  1.0000000E+04;  0.0000000E+00;  1.0000000E+04;  0.0000000E+00;  0.0000000E+00;  0.0000000E+00;  0.0000000E+00;
  2.0999999E+00;  9.9999998E-03; -2.0000000E-02;793;  0.0000000E+00;  0.0000000E+00;  0.0000000E+00;  1.0000000E+03;  4.0000001E-01;  0.0000000E+00;0;  0.0000000E+00;  0.0000000E+00;  0.0000000E+00;0;  0.0000000E+00;  1.0000000E+04;  0.0000000E+00;  0.0000000E+00;  1.0000000E+04;  0.0000000E+00;  1.0000000E+04;  0.0000000E+00;  0.0000000E+00;  0.0000000E+00;  0.0000000E+00;
  2.0999999E+00;  9.9999998E-03;  0.0000000E+00;794;  0.0000000E+00;  0.0000000E+00;  0.0000000E+00;  1.0000000E+03;  4.0000001E-01;  0.0000000E+00;0;  0.0000000E+00;  0.0000000E+00;  0.0000000E+00;0;  0.0000000E+00;  1.0000000E+04;  0.0000000E+00;  0.0000000E+00;  1.0000000E+04;  0.0000000E+00;  1.0000000E+04;  0.0000000E+00;  0.0000000E+00;  0.0000000E+00;  0.0000000E+00;
  2.0999999E+00;  9.9999998E-03;  2.0000000E-02;795;  0.0000000E+00;  0.0000000E+00;  0.0000000E+00;  1.0000000E+03;  4.0000001E-01;  0.0000000E+00;0;  0.0000000E+00;  0.0000000E+00;  0.0000000E+00;0;  0.0000000E+00;  1.0000000E+04;  0.0000000E+00;  0.0000000E+00;  1.0000000E+04;  0.0000000E+00;  1.0000000E+04;  0.0000000E+00;  0.0000000E+00;  0.0000000E+00;  0.0000000E+00;
  2.0999999E+00;  9.9999998E-03;  3.9999999E-02;796;  0.0000000E+00;  0.0000000E+00;  0.0000000E+00;  1.0000000E+03;  4.0000001E-01;  0.0000000E+00;0;  0.0000000E+00;  0.0000000E+00;  0.0000000E+00;0;  0.0000000E+00;  1.0000000E+04;  0.0000000E+00;  0.0000000E+00;  1.0000000E+04;  0.0000000E+00;  1.0000000E+04;  0.0000000E+00;  0.0000000E+00;  0.0000000E+00;  0.0000000E+00;
  2.0999999E+00;  9.9999998E-03;  5.9999999E-02;797;  0.0000000E+00;  0.0000000E+00;  0.0000000E+00;  1.0000000E+03;  4.0000001E-01;  0.0000000E+00;0;  0.0000000E+00;  0.0000000E+00;  0.0000000E+00;0;  0.0000000E+00;  1.0000000E+04;  0.0000000E+00;  0.0000000E+00;  1.0000000E+04;  0.0000000E+00;  1.0000000E+04;  0.0000000E+00;  0.0000000E+00;  0.0000000E+00;  0.0000000E+00;
  2.0999999E+00;  9.9999998E-03;  7.9999998E-02;798;  0.0000000E+00;  0.0000000E+00;  0.0000000E+00;  1.0000000E+03;  4.0000001E-01;  0.0000000E+00;0;  0.0000000E+00;  0.0000000E+00;  0.0000000E+00;0;  0.0000000E+00;  1.0000000E+04;  0.0000000E+00;  0.0000000E+00;  1.0000000E+04;  0.0000000E+00;  1.0000000E+04;  0.0000000E+00;  0.0000000E+00;  0.0000000E+00;  0.0000000E+00;
  2.0999999E+00;  9.9999998E-03;  1.0000000E-01;799;  0.0000000E+00;  0.0000000E+00;  0.0000000E+00;  1.0000000E+03;  4.0000001E-01;  0.0000000E+00;0;  0.0000000E+00;  0.0000000E+00;  0.0000000E+00;0;  0.0000000E+00;  1.0000000E+04;  0.0000000E+00;  0.0000000E+00;  1.0000000E+04;  0.0000000E+00;  1.0000000E+04;  0.0000000E+00;  0.0000000E+00;  0.0000000E+00;  0.0000000E+00;
  2.0999999E+00;  9.9999998E-03;  1.2000000E-01;800;  0.0000000E+00;  0.0000000E+00;  0.0000000E+00;  1.0000000E+03;  4.0000001E-01;  0.0000000E+00;0;  0.0000000E+00;  0.0000000E+00;  0.0000000E+00;0;  0.0000000E+00;  1.0000000E+04;  0.0000000E+00;  0.0000000E+00;  1.0000000E+04;  0.0000000E+00;  1.0000000E+04;  0.0000000E+00;  0.0000000E+00;  0.0000000E+00;  0.0000000E+00;
  2.0999999E+00;  9.9999998E-03;  1.4000000E-01;801;  0.0000000E+00;  0.0000000E+00;  0.0000000E+00;  1.0000000E+03;  4.0000001E-01;  0.0000000E+00;0;  0.0000000E+00;  0.0000000E+00;  0.0000000E+00;0;  0.0000000E+00;  1.0000000E+04;  0.0000000E+00;  0.0000000E+00;  1.0000000E+04;  0.0000000E+00;  1.0000000E+04;  0.0000000E+00;  0.0000000E+00;  0.0000000E+00;  0.0000000E+00;
  2.0999999E+00;  9.9999998E-03;  1.6000000E-01;802;  0.0000000E+00;  0.0000000E+00;  0.0000000E+00;  1.0000000E+03;  4.0000001E-01;  0.0000000E+00;0;  0.0000000E+00;  0.0000000E+00;  0.0000000E+00;0;  0.0000000E+00;  1.0000000E+04;  0.0000000E+00;  0.0000000E+00;  1.0000000E+04;  0.0000000E+00;  1.0000000E+04;  0.0000000E+00;  0.0000000E+00;  0.0000000E+00;  0.0000000E+00;
  2.0999999E+00;  9.9999998E-03;  1.8000001E-01;803;  0.0000000E+00;  0.0000000E+00;  0.0000000E+00;  1.0000000E+03;  4.0000001E-01;  0.0000000E+00;0;  0.0000000E+00;  0.0000000E+00;  0.0000000E+00;0;  0.0000000E+00;  1.0000000E+04;  0.0000000E+00;  0.0000000E+00;  1.0000000E+04;  0.0000000E+00;  1.0000000E+04;  0.0000000E+00;  0.0000000E+00;  0.0000000E+00;  0.0000000E+00;
  2.0999999E+00;  9.9999998E-03;  2.0000000E-01;804;  0.0000000E+00;  0.0000000E+00;  0.0000000E+00;  1.0000000E+03;  4.0000001E-01;  0.0000000E+00;0;  0.0000000E+00;  0.0000000E+00;  0.0000000E+00;0;  0.0000000E+00;  1.0000000E+04;  0.0000000E+00;  0.0000000E+00;  1.0000000E+04;  0.0000000E+00;  1.0000000E+04;  0.0000000E+00;  0.0000000E+00;  0.0000000E+00;  0.0000000E+00;
  2.0999999E+00;  9.9999998E-03;  2.2000000E-01;805;  0.0000000E+00;  0.0000000E+00;  0.0000000E+00;  1.0000000E+03;  4.0000001E-01;  0.0000000E+00;0;  0.0000000E+00;  0.0000000E+00;  0.0000000E+00;0;  0.0000000E+00;  1.0000000E+04;  0.0000000E+00;  0.0000000E+00;  1.0000000E+04;  0.0000000E+00;  1.0000000E+04;  0.0000000E+00;  0.0000000E+00;  0.0000000E+00;  0.0000000E+00;
  2.0999999E+00;  9.9999998E-03;  2.3999999E-01;806;  0.0000000E+00;  0.0000000E+00;  0.0000000E+00;  1.0000000E+03;  4.0000001E-01;  0.0000000E+00;0;  0.0000000E+00;  0.0000000E+00;  0.0000000E+00;0;  0.0000000E+00;  1.0000000E+04;  0.0000000E+00;  0.0000000E+00;  1.0000000E+04;  0.0000000E+00;  1.0000000E+04;  0.0000000E+00;  0.0000000E+00;  0.0000000E+00;  0.0000000E+00;
  2.0999999E+00;  9.9999998E-03;  2.5999999E-01;807;  0.0000000E+00;  0.0000000E+00;  0.0000000E+00;  1.0000000E+03;  4.0000001E-01;  0.0000000E+00;0;  0.0000000E+00;  0.0000000E+00;  0.0000000E+00;0;  0.0000000E+00;  1.0000000E+04;  0.0000000E+00;  0.0000000E+00;  1.0000000E+04;  0.0000000E+00;  1.0000000E+04;  0.0000000E+00;  0.0000000E+00;  0.0000000E+00;  0.0000000E+00;
  2.0999999E+00;  9.9999998E-03;  2.8000000E-01;808;  0.0000000E+00;  0.0000000E+00;  0.0000000E+00;  1.0000000E+03;  4.0000001E-01;  0.0000000E+00;0;  0.0000000E+00;  0.0000000E+00;  0.0000000E+00;0;  0.0000000E+00;  1.0000000E+04;  0.0000000E+00;  0.0000000E+00;  1.0000000E+04;  0.0000000E+00;  1.0000000E+04;  0.0000000E+00;  0.0000000E+00;  0.0000000E+00;  0.0000000E+00;
  2.0999999E+00;  9.9999998E-03;  3.0000001E-01;809;  0.0000000E+00;  0.0000000E+00;  0.0000000E+00;  1.0000000E+03;  4.0000001E-01;  0.0000000E+00;0;  0.0000000E+00;  0.0000000E+00;  0.0000000E+00;0;  0.0000000E+00;  1.0000000E+04;  0.0000000E+00;  0.0000000E+00;  1.0000000E+04;  0.0000000E+00;  1.0000000E+04;  0.0000000E+00;  0.0000000E+00;  0.0000000E+00;  0.0000000E+00;
  2.0999999E+00;  9.9999998E-03;  3.1999999E-01;810;  0.0000000E+00;  0.0000000E+00;  0.0000000E+00;  1.0000000E+03;  4.0000001E-01;  0.0000000E+00;0;  0.0000000E+00;  0.0000000E+00;  0.0000000E+00;0;  0.0000000E+00;  1.0000000E+04;  0.0000000E+00;  0.0000000E+00;  1.0000000E+04;  0.0000000E+00;  1.0000000E+04;  0.0000000E+00;  0.0000000E+00;  0.0000000E+00;  0.0000000E+00;
  2.0999999E+00;  9.9999998E-03;  3.4000000E-01;811;  0.0000000E+00;  0.0000000E+00;  0.0000000E+00;  1.0000000E+03;  4.0000001E-01;  0.0000000E+00;0;  0.0000000E+00;  0.0000000E+00;  0.0000000E+00;0;  0.0000000E+00;  1.0000000E+04;  0.0000000E+00;  0.0000000E+00;  1.0000000E+04;  0.0000000E+00;  1.0000000E+04;  0.0000000E+00;  0.0000000E+00;  0.0000000E+00;  0.0000000E+00;
  2.0999999E+00;  9.9999998E-03;  3.6000001E-01;812;  0.0000000E+00;  0.0000000E+00;  0.0000000E+00;  1.0000000E+03;  4.0000001E-01;  0.0000000E+00;0;  0.0000000E+00;  0.0000000E+00;  0.0000000E+00;0;  0.0000000E+00;  1.0000000E+04;  0.0000000E+00;  0.0000000E+00;  1.0000000E+04;  0.0000000E+00;  1.0000000E+04;  0.0000000E+00;  0.0000000E+00;  0.0000000E+00;  0.0000000E+00;
  2.0999999E+00;  9.9999998E-03;  3.8000000E-01;813;  0.0000000E+00;  0.0000000E+00;  0.0000000E+00;  1.0000000E+03;  4.0000001E-01;  0.0000000E+00;0;  0.0000000E+00;  0.0000000E+00;  0.0000000E+00;0;  0.0000000E+00;  1.0000000E+04;  0.0000000E+00;  0.0000000E+00;  1.0000000E+04;  0.0000000E+00;  1.0000000E+04;  0.0000000E+00;  0.0000000E+00;  0.0000000E+00;  0.0000000E+00;
  2.0999999E+00;  9.9999998E-03;  4.0000001E-01;814;  0.0000000E+00;  0.0000000E+00;  0.0000000E+00;  1.0000000E+03;  4.0000001E-01;  0.0000000E+00;0;  0.0000000E+00;  0.0000000E+00;  0.0000000E+00;0;  0.0000000E+00;  1.0000000E+04;  0.0000000E+00;  0.0000000E+00;  1.0000000E+04;  0.0000000E+00;  1.0000000E+04;  0.0000000E+00;  0.0000000E+00;  0.0000000E+00;  0.0000000E+00;
  2.1199999E+00;  9.9999998E-03; -4.1999999E-01;815;  0.0000000E+00;  0.0000000E+00;  0.0000000E+00;  1.0000000E+03;  4.0000001E-01;  0.0000000E+00;0;  0.0000000E+00;  0.0000000E+00;  0.0000000E+00;0;  0.0000000E+00;  1.0000000E+04;  0.0000000E+00;  0.0000000E+00;  1.0000000E+04;  0.0000000E+00;  1.0000000E+04;  0.0000000E+00;  0.0000000E+00;  0.0000000E+00;  0.0000000E+00;
  2.1199999E+00;  9.9999998E-03; -4.0000001E-01;816;  0.0000000E+00;  0.0000000E+00;  0.0000000E+00;  1.0000000E+03;  4.0000001E-01;  0.0000000E+00;0;  0.0000000E+00;  0.0000000E+00;  0.0000000E+00;0;  0.0000000E+00;  1.0000000E+04;  0.0000000E+00;  0.0000000E+00;  1.0000000E+04;  0.0000000E+00;  1.0000000E+04;  0.0000000E+00;  0.0000000E+00;  0.0000000E+00;  0.0000000E+00;
  2.1199999E+00;  9.9999998E-03; -3.8000000E-01;817;  0.0000000E+00;  0.0000000E+00;  0.0000000E+00;  1.0000000E+03;  4.0000001E-01;  0.0000000E+00;0;  0.0000000E+00;  0.0000000E+00;  0.0000000E+00;0;  0.0000000E+00;  1.0000000E+04;  0.0000000E+00;  0.0000000E+00;  1.0000000E+04;  0.0000000E+00;  1.0000000E+04;  0.0000000E+00;  0.0000000E+00;  0.0000000E+00;  0.0000000E+00;
  2.1199999E+00;  9.9999998E-03; -3.6000001E-01;818;  0.0000000E+00;  0.0000000E+00;  0.0000000E+00;  1.0000000E+03;  4.0000001E-01;  0.0000000E+00;0;  0.0000000E+00;  0.0000000E+00;  0.0000000E+00;0;  0.0000000E+00;  1.0000000E+04;  0.0000000E+00;  0.0000000E+00;  1.0000000E+04;  0.0000000E+00;  1.0000000E+04;  0.0000000E+00;  0.0000000E+00;  0.0000000E+00;  0.0000000E+00;
  2.1199999E+00;  9.9999998E-03; -3.4000000E-01;819;  0.0000000E+00;  0.0000000E+00;  0.0000000E+00;  1.0000000E+03;  4.0000001E-01;  0.0000000E+00;0;  0.0000000E+00;  0.0000000E+00;  0.0000000E+00;0;  0.0000000E+00;  1.0000000E+04;  0.0000000E+00;  0.0000000E+00;  1.0000000E+04;  0.0000000E+00;  1.0000000E+04;  0.0000000E+00;  0.0000000E+00;  0.0000000E+00;  0.0000000E+00;
  2.1199999E+00;  9.9999998E-03; -3.1999999E-01;820;  0.0000000E+00;  0.0000000E+00;  0.0000000E+00;  1.0000000E+03;  4.0000001E-01;  0.0000000E+00;0;  0.0000000E+00;  0.0000000E+00;  0.0000000E+00;0;  0.0000000E+00;  1.0000000E+04;  0.0000000E+00;  0.0000000E+00;  1.0000000E+04;  0.0000000E+00;  1.0000000E+04;  0.0000000E+00;  0.0000000E+00;  0.0000000E+00;  0.0000000E+00;
  2.1199999E+00;  9.9999998E-03; -3.0000001E-01;821;  0.0000000E+00;  0.0000000E+00;  0.0000000E+00;  1.0000000E+03;  4.0000001E-01;  0.0000000E+00;0;  0.0000000E+00;  0.0000000E+00;  0.0000000E+00;0;  0.0000000E+00;  1.0000000E+04;  0.0000000E+00;  0.0000000E+00;  1.0000000E+04;  0.0000000E+00;  1.0000000E+04;  0.0000000E+00;  0.0000000E+00;  0.0000000E+00;  0.0000000E+00;
  2.1199999E+00;  9.9999998E-03; -2.8000000E-01;822;  0.0000000E+00;  0.0000000E+00;  0.0000000E+00;  1.0000000E+03;  4.0000001E-01;  0.0000000E+00;0;  0.0000000E+00;  0.0000000E+00;  0.0000000E+00;0;  0.0000000E+00;  1.0000000E+04;  0.0000000E+00;  0.0000000E+00;  1.0000000E+04;  0.0000000E+00;  1.0000000E+04;  0.0000000E+00;  0.0000000E+00;  0.0000000E+00;  0.0000000E+00;
  2.1199999E+00;  9.9999998E-03; -2.5999999E-01;823;  0.0000000E+00;  0.0000000E+00;  0.0000000E+00;  1.0000000E+03;  4.0000001E-01;  0.0000000E+00;0;  0.0000000E+00;  0.0000000E+00;  0.0000000E+00;0;  0.0000000E+00;  1.0000000E+04;  0.0000000E+00;  0.0000000E+00;  1.0000000E+04;  0.0000000E+00;  1.0000000E+04;  0.0000000E+00;  0.0000000E+00;  0.0000000E+00;  0.0000000E+00;
  2.1199999E+00;  9.9999998E-03; -2.3999999E-01;824;  0.0000000E+00;  0.0000000E+00;  0.0000000E+00;  1.0000000E+03;  4.0000001E-01;  0.0000000E+00;0;  0.0000000E+00;  0.0000000E+00;  0.0000000E+00;0;  0.0000000E+00;  1.0000000E+04;  0.0000000E+00;  0.0000000E+00;  1.0000000E+04;  0.0000000E+00;  1.0000000E+04;  0.0000000E+00;  0.0000000E+00;  0.0000000E+00;  0.0000000E+00;
  2.1199999E+00;  9.9999998E-03; -2.2000000E-01;825;  0.0000000E+00;  0.0000000E+00;  0.0000000E+00;  1.0000000E+03;  4.0000001E-01;  0.0000000E+00;0;  0.0000000E+00;  0.0000000E+00;  0.0000000E+00;0;  0.0000000E+00;  1.0000000E+04;  0.0000000E+00;  0.0000000E+00;  1.0000000E+04;  0.0000000E+00;  1.0000000E+04;  0.0000000E+00;  0.0000000E+00;  0.0000000E+00;  0.0000000E+00;
  2.1199999E+00;  9.9999998E-03; -2.0000000E-01;826;  0.0000000E+00;  0.0000000E+00;  0.0000000E+00;  1.0000000E+03;  4.0000001E-01;  0.0000000E+00;0;  0.0000000E+00;  0.0000000E+00;  0.0000000E+00;0;  0.0000000E+00;  1.0000000E+04;  0.0000000E+00;  0.0000000E+00;  1.0000000E+04;  0.0000000E+00;  1.0000000E+04;  0.0000000E+00;  0.0000000E+00;  0.0000000E+00;  0.0000000E+00;
  2.1199999E+00;  9.9999998E-03; -1.8000001E-01;827;  0.0000000E+00;  0.0000000E+00;  0.0000000E+00;  1.0000000E+03;  4.0000001E-01;  0.0000000E+00;0;  0.0000000E+00;  0.0000000E+00;  0.0000000E+00;0;  0.0000000E+00;  1.0000000E+04;  0.0000000E+00;  0.0000000E+00;  1.0000000E+04;  0.0000000E+00;  1.0000000E+04;  0.0000000E+00;  0.0000000E+00;  0.0000000E+00;  0.0000000E+00;
  2.1199999E+00;  9.9999998E-03; -1.6000000E-01;828;  0.0000000E+00;  0.0000000E+00;  0.0000000E+00;  1.0000000E+03;  4.0000001E-01;  0.0000000E+00;0;  0.0000000E+00;  0.0000000E+00;  0.0000000E+00;0;  0.0000000E+00;  1.0000000E+04;  0.0000000E+00;  0.0000000E+00;  1.0000000E+04;  0.0000000E+00;  1.0000000E+04;  0.0000000E+00;  0.0000000E+00;  0.0000000E+00;  0.0000000E+00;
  2.1199999E+00;  9.9999998E-03; -1.4000000E-01;829;  0.0000000E+00;  0.0000000E+00;  0.0000000E+00;  1.0000000E+03;  4.0000001E-01;  0.0000000E+00;0;  0.0000000E+00;  0.0000000E+00;  0.0000000E+00;0;  0.0000000E+00;  1.0000000E+04;  0.0000000E+00;  0.0000000E+00;  1.0000000E+04;  0.0000000E+00;  1.0000000E+04;  0.0000000E+00;  0.0000000E+00;  0.0000000E+00;  0.0000000E+00;
  2.1199999E+00;  9.9999998E-03; -1.2000000E-01;830;  0.0000000E+00;  0.0000000E+00;  0.0000000E+00;  1.0000000E+03;  4.0000001E-01;  0.0000000E+00;0;  0.0000000E+00;  0.0000000E+00;  0.0000000E+00;0;  0.0000000E+00;  1.0000000E+04;  0.0000000E+00;  0.0000000E+00;  1.0000000E+04;  0.0000000E+00;  1.0000000E+04;  0.0000000E+00;  0.0000000E+00;  0.0000000E+00;  0.0000000E+00;
  2.1199999E+00;  9.9999998E-03; -1.0000000E-01;831;  0.0000000E+00;  0.0000000E+00;  0.0000000E+00;  1.0000000E+03;  4.0000001E-01;  0.0000000E+00;0;  0.0000000E+00;  0.0000000E+00;  0.0000000E+00;0;  0.0000000E+00;  1.0000000E+04;  0.0000000E+00;  0.0000000E+00;  1.0000000E+04;  0.0000000E+00;  1.0000000E+04;  0.0000000E+00;  0.0000000E+00;  0.0000000E+00;  0.0000000E+00;
  2.1199999E+00;  9.9999998E-03; -7.9999998E-02;832;  0.0000000E+00;  0.0000000E+00;  0.0000000E+00;  1.0000000E+03;  4.0000001E-01;  0.0000000E+00;0;  0.0000000E+00;  0.0000000E+00;  0.0000000E+00;0;  0.0000000E+00;  1.0000000E+04;  0.0000000E+00;  0.0000000E+00;  1.0000000E+04;  0.0000000E+00;  1.0000000E+04;  0.0000000E+00;  0.0000000E+00;  0.0000000E+00;  0.0000000E+00;
  2.1199999E+00;  9.9999998E-03; -5.9999999E-02;833;  0.0000000E+00;  0.0000000E+00;  0.0000000E+00;  1.0000000E+03;  4.0000001E-01;  0.0000000E+00;0;  0.0000000E+00;  0.0000000E+00;  0.0000000E+00;0;  0.0000000E+00;  1.0000000E+04;  0.0000000E+00;  0.0000000E+00;  1.0000000E+04;  0.0000000E+00;  1.0000000E+04;  0.0000000E+00;  0.0000000E+00;  0.0000000E+00;  0.0000000E+00;
  2.1199999E+00;  9.9999998E-03; -3.9999999E-02;834;  0.0000000E+00;  0.0000000E+00;  0.0000000E+00;  1.0000000E+03;  4.0000001E-01;  0.0000000E+00;0;  0.0000000E+00;  0.0000000E+00;  0.0000000E+00;0;  0.0000000E+00;  1.0000000E+04;  0.0000000E+00;  0.0000000E+00;  1.0000000E+04;  0.0000000E+00;  1.0000000E+04;  0.0000000E+00;  0.0000000E+00;  0.0000000E+00;  0.0000000E+00;
  2.1199999E+00;  9.9999998E-03; -2.0000000E-02;835;  0.0000000E+00;  0.0000000E+00;  0.0000000E+00;  1.0000000E+03;  4.0000001E-01;  0.0000000E+00;0;  0.0000000E+00;  0.0000000E+00;  0.0000000E+00;0;  0.0000000E+00;  1.0000000E+04;  0.0000000E+00;  0.0000000E+00;  1.0000000E+04;  0.0000000E+00;  1.0000000E+04;  0.0000000E+00;  0.0000000E+00;  0.0000000E+00;  0.0000000E+00;
  2.1199999E+00;  9.9999998E-03;  0.0000000E+00;836;  0.0000000E+00;  0.0000000E+00;  0.0000000E+00;  1.0000000E+03;  4.0000001E-01;  0.0000000E+00;0;  0.0000000E+00;  0.0000000E+00;  0.0000000E+00;0;  0.0000000E+00;  1.0000000E+04;  0.0000000E+00;  0.0000000E+00;  1.0000000E+04;  0.0000000E+00;  1.0000000E+04;  0.0000000E+00;  0.0000000E+00;  0.0000000E+00;  0.0000000E+00;
  2.1199999E+00;  9.9999998E-03;  2.0000000E-02;837;  0.0000000E+00;  0.0000000E+00;  0.0000000E+00;  1.0000000E+03;  4.0000001E-01;  0.0000000E+00;0;  0.0000000E+00;  0.0000000E+00;  0.0000000E+00;0;  0.0000000E+00;  1.0000000E+04;  0.0000000E+00;  0.0000000E+00;  1.0000000E+04;  0.0000000E+00;  1.0000000E+04;  0.0000000E+00;  0.0000000E+00;  0.0000000E+00;  0.0000000E+00;
  2.1199999E+00;  9.9999998E-03;  3.9999999E-02;838;  0.0000000E+00;  0.0000000E+00;  0.0000000E+00;  1.0000000E+03;  4.0000001E-01;  0.0000000E+00;0;  0.0000000E+00;  0.0000000E+00;  0.0000000E+00;0;  0.0000000E+00;  1.0000000E+04;  0.0000000E+00;  0.0000000E+00;  1.0000000E+04;  0.0000000E+00;  1.0000000E+04;  0.0000000E+00;  0.0000000E+00;  0.0000000E+00;  0.0000000E+00;
  2.1199999E+00;  9.9999998E-03;  5.9999999E-02;839;  0.0000000E+00;  0.0000000E+00;  0.0000000E+00;  1.0000000E+03;  4.0000001E-01;  0.0000000E+00;0;  0.0000000E+00;  0.0000000E+00;  0.0000000E+00;0;  0.0000000E+00;  1.0000000E+04;  0.0000000E+00;  0.0000000E+00;  1.0000000E+04;  0.0000000E+00;  1.0000000E+04;  0.0000000E+00;  0.0000000E+00;  0.0000000E+00;  0.0000000E+00;
  2.1199999E+00;  9.9999998E-03;  7.9999998E-02;840;  0.0000000E+00;  0.0000000E+00;  0.0000000E+00;  1.0000000E+03;  4.0000001E-01;  0.0000000E+00;0;  0.0000000E+00;  0.0000000E+00;  0.0000000E+00;0;  0.0000000E+00;  1.0000000E+04;  0.0000000E+00;  0.0000000E+00;  1.0000000E+04;  0.0000000E+00;  1.0000000E+04;  0.0000000E+00;  0.0000000E+00;  0.0000000E+00;  0.0000000E+00;
  2.1199999E+00;  9.9999998E-03;  1.0000000E-01;841;  0.0000000E+00;  0.0000000E+00;  0.0000000E+00;  1.0000000E+03;  4.0000001E-01;  0.0000000E+00;0;  0.0000000E+00;  0.0000000E+00;  0.0000000E+00;0;  0.0000000E+00;  1.0000000E+04;  0.0000000E+00;  0.0000000E+00;  1.0000000E+04;  0.0000000E+00;  1.0000000E+04;  0.0000000E+00;  0.0000000E+00;  0.0000000E+00;  0.0000000E+00;
  2.1199999E+00;  9.9999998E-03;  1.2000000E-01;842;  0.0000000E+00;  0.0000000E+00;  0.0000000E+00;  1.0000000E+03;  4.0000001E-01;  0.0000000E+00;0;  0.0000000E+00;  0.0000000E+00;  0.0000000E+00;0;  0.0000000E+00;  1.0000000E+04;  0.0000000E+00;  0.0000000E+00;  1.0000000E+04;  0.0000000E+00;  1.0000000E+04;  0.0000000E+00;  0.0000000E+00;  0.0000000E+00;  0.0000000E+00;
  2.1199999E+00;  9.9999998E-03;  1.4000000E-01;843;  0.0000000E+00;  0.0000000E+00;  0.0000000E+00;  1.0000000E+03;  4.0000001E-01;  0.0000000E+00;0;  0.0000000E+00;  0.0000000E+00;  0.0000000E+00;0;  0.0000000E+00;  1.0000000E+04;  0.0000000E+00;  0.0000000E+00;  1.0000000E+04;  0.0000000E+00;  1.0000000E+04;  0.0000000E+00;  0.0000000E+00;  0.0000000E+00;  0.0000000E+00;
  2.1199999E+00;  9.9999998E-03;  1.6000000E-01;844;  0.0000000E+00;  0.0000000E+00;  0.0000000E+00;  1.0000000E+03;  4.0000001E-01;  0.0000000E+00;0;  0.0000000E+00;  0.0000000E+00;  0.0000000E+00;0;  0.0000000E+00;  1.0000000E+04;  0.0000000E+00;  0.0000000E+00;  1.0000000E+04;  0.0000000E+00;  1.0000000E+04;  0.0000000E+00;  0.0000000E+00;  0.0000000E+00;  0.0000000E+00;
  2.1199999E+00;  9.9999998E-03;  1.8000001E-01;845;  0.0000000E+00;  0.0000000E+00;  0.0000000E+00;  1.0000000E+03;  4.0000001E-01;  0.0000000E+00;0;  0.0000000E+00;  0.0000000E+00;  0.0000000E+00;0;  0.0000000E+00;  1.0000000E+04;  0.0000000E+00;  0.0000000E+00;  1.0000000E+04;  0.0000000E+00;  1.0000000E+04;  0.0000000E+00;  0.0000000E+00;  0.0000000E+00;  0.0000000E+00;
  2.1199999E+00;  9.9999998E-03;  2.0000000E-01;846;  0.0000000E+00;  0.0000000E+00;  0.0000000E+00;  1.0000000E+03;  4.0000001E-01;  0.0000000E+00;0;  0.0000000E+00;  0.0000000E+00;  0.0000000E+00;0;  0.0000000E+00;  1.0000000E+04;  0.0000000E+00;  0.0000000E+00;  1.0000000E+04;  0.0000000E+00;  1.0000000E+04;  0.0000000E+00;  0.0000000E+00;  0.0000000E+00;  0.0000000E+00;
  2.1199999E+00;  9.9999998E-03;  2.2000000E-01;847;  0.0000000E+00;  0.0000000E+00;  0.0000000E+00;  1.0000000E+03;  4.0000001E-01;  0.0000000E+00;0;  0.0000000E+00;  0.0000000E+00;  0.0000000E+00;0;  0.0000000E+00;  1.0000000E+04;  0.0000000E+00;  0.0000000E+00;  1.0000000E+04;  0.0000000E+00;  1.0000000E+04;  0.0000000E+00;  0.0000000E+00;  0.0000000E+00;  0.0000000E+00;
  2.1199999E+00;  9.9999998E-03;  2.3999999E-01;848;  0.0000000E+00;  0.0000000E+00;  0.0000000E+00;  1.0000000E+03;  4.0000001E-01;  0.0000000E+00;0;  0.0000000E+00;  0.0000000E+00;  0.0000000E+00;0;  0.0000000E+00;  1.0000000E+04;  0.0000000E+00;  0.0000000E+00;  1.0000000E+04;  0.0000000E+00;  1.0000000E+04;  0.0000000E+00;  0.0000000E+00;  0.0000000E+00;  0.0000000E+00;
  2.1199999E+00;  9.9999998E-03;  2.5999999E-01;849;  0.0000000E+00;  0.0000000E+00;  0.0000000E+00;  1.0000000E+03;  4.0000001E-01;  0.0000000E+00;0;  0.0000000E+00;  0.0000000E+00;  0.0000000E+00;0;  0.0000000E+00;  1.0000000E+04;  0.0000000E+00;  0.0000000E+00;  1.0000000E+04;  0.0000000E+00;  1.0000000E+04;  0.0000000E+00;  0.0000000E+00;  0.0000000E+00;  0.0000000E+00;
  2.1199999E+00;  9.9999998E-03;  2.8000000E-01;850;  0.0000000E+00;  0.0000000E+00;  0.0000000E+00;  1.0000000E+03;  4.0000001E-01;  0.0000000E+00;0;  0.0000000E+00;  0.0000000E+00;  0.0000000E+00;0;  0.0000000E+00;  1.0000000E+04;  0.0000000E+00;  0.0000000E+00;  1.0000000E+04;  0.0000000E+00;  1.0000000E+04;  0.0000000E+00;  0.0000000E+00;  0.0000000E+00;  0.0000000E+00;
  2.1199999E+00;  9.9999998E-03;  3.0000001E-01;851;  0.0000000E+00;  0.0000000E+00;  0.0000000E+00;  1.0000000E+03;  4.0000001E-01;  0.0000000E+00;0;  0.0000000E+00;  0.0000000E+00;  0.0000000E+00;0;  0.0000000E+00;  1.0000000E+04;  0.0000000E+00;  0.0000000E+00;  1.0000000E+04;  0.0000000E+00;  1.0000000E+04;  0.0000000E+00;  0.0000000E+00;  0.0000000E+00;  0.0000000E+00;
  2.1199999E+00;  9.9999998E-03;  3.1999999E-01;852;  0.0000000E+00;  0.0000000E+00;  0.0000000E+00;  1.0000000E+03;  4.0000001E-01;  0.0000000E+00;0;  0.0000000E+00;  0.0000000E+00;  0.0000000E+00;0;  0.0000000E+00;  1.0000000E+04;  0.0000000E+00;  0.0000000E+00;  1.0000000E+04;  0.0000000E+00;  1.0000000E+04;  0.0000000E+00;  0.0000000E+00;  0.0000000E+00;  0.0000000E+00;
  2.1199999E+00;  9.9999998E-03;  3.4000000E-01;853;  0.0000000E+00;  0.0000000E+00;  0.0000000E+00;  1.0000000E+03;  4.0000001E-01;  0.0000000E+00;0;  0.0000000E+00;  0.0000000E+00;  0.0000000E+00;0;  0.0000000E+00;  1.0000000E+04;  0.0000000E+00;  0.0000000E+00;  1.0000000E+04;  0.0000000E+00;  1.0000000E+04;  0.0000000E+00;  0.0000000E+00;  0.0000000E+00;  0.0000000E+00;
  2.1199999E+00;  9.9999998E-03;  3.6000001E-01;854;  0.0000000E+00;  0.0000000E+00;  0.0000000E+00;  1.0000000E+03;  4.0000001E-01;  0.0000000E+00;0;  0.0000000E+00;  0.0000000E+00;  0.0000000E+00;0;  0.0000000E+00;  1.0000000E+04;  0.0000000E+00;  0.0000000E+00;  1.0000000E+04;  0.0000000E+00;  1.0000000E+04;  0.0000000E+00;  0.0000000E+00;  0.0000000E+00;  0.0000000E+00;
  2.1199999E+00;  9.9999998E-03;  3.8000000E-01;855;  0.0000000E+00;  0.0000000E+00;  0.0000000E+00;  1.0000000E+03;  4.0000001E-01;  0.0000000E+00;0;  0.0000000E+00;  0.0000000E+00;  0.0000000E+00;0;  0.0000000E+00;  1.0000000E+04;  0.0000000E+00;  0.0000000E+00;  1.0000000E+04;  0.0000000E+00;  1.0000000E+04;  0.0000000E+00;  0.0000000E+00;  0.0000000E+00;  0.0000000E+00;
  2.1199999E+00;  9.9999998E-03;  4.0000001E-01;856;  0.0000000E+00;  0.0000000E+00;  0.0000000E+00;  1.0000000E+03;  4.0000001E-01;  0.0000000E+00;0;  0.0000000E+00;  0.0000000E+00;  0.0000000E+00;0;  0.0000000E+00;  1.0000000E+04;  0.0000000E+00;  0.0000000E+00;  1.0000000E+04;  0.0000000E+00;  1.0000000E+04;  0.0000000E+00;  0.0000000E+00;  0.0000000E+00;  0.0000000E+00;
  2.1400001E+00;  9.9999998E-03; -3.8000000E-01;857;  0.0000000E+00;  0.0000000E+00;  0.0000000E+00;  1.0000000E+03;  4.0000001E-01;  0.0000000E+00;0;  0.0000000E+00;  0.0000000E+00;  0.0000000E+00;0;  0.0000000E+00;  1.0000000E+04;  0.0000000E+00;  0.0000000E+00;  1.0000000E+04;  0.0000000E+00;  1.0000000E+04;  0.0000000E+00;  0.0000000E+00;  0.0000000E+00;  0.0000000E+00;
  2.1400001E+00;  9.9999998E-03; -3.6000001E-01;858;  0.0000000E+00;  0.0000000E+00;  0.0000000E+00;  1.0000000E+03;  4.0000001E-01;  0.0000000E+00;0;  0.0000000E+00;  0.0000000E+00;  0.0000000E+00;0;  0.0000000E+00;  1.0000000E+04;  0.0000000E+00;  0.0000000E+00;  1.0000000E+04;  0.0000000E+00;  1.0000000E+04;  0.0000000E+00;  0.0000000E+00;  0.0000000E+00;  0.0000000E+00;
  2.1400001E+00;  9.9999998E-03; -3.4000000E-01;859;  0.0000000E+00;  0.0000000E+00;  0.0000000E+00;  1.0000000E+03;  4.0000001E-01;  0.0000000E+00;0;  0.0000000E+00;  0.0000000E+00;  0.0000000E+00;0;  0.0000000E+00;  1.0000000E+04;  0.0000000E+00;  0.0000000E+00;  1.0000000E+04;  0.0000000E+00;  1.0000000E+04;  0.0000000E+00;  0.0000000E+00;  0.0000000E+00;  0.0000000E+00;
  2.1400001E+00;  9.9999998E-03; -3.1999999E-01;860;  0.0000000E+00;  0.0000000E+00;  0.0000000E+00;  1.0000000E+03;  4.0000001E-01;  0.0000000E+00;0;  0.0000000E+00;  0.0000000E+00;  0.0000000E+00;0;  0.0000000E+00;  1.0000000E+04;  0.0000000E+00;  0.0000000E+00;  1.0000000E+04;  0.0000000E+00;  1.0000000E+04;  0.0000000E+00;  0.0000000E+00;  0.0000000E+00;  0.0000000E+00;
  2.1400001E+00;  9.9999998E-03; -3.0000001E-01;861;  0.0000000E+00;  0.0000000E+00;  0.0000000E+00;  1.0000000E+03;  4.0000001E-01;  0.0000000E+00;0;  0.0000000E+00;  0.0000000E+00;  0.0000000E+00;0;  0.0000000E+00;  1.0000000E+04;  0.0000000E+00;  0.0000000E+00;  1.0000000E+04;  0.0000000E+00;  1.0000000E+04;  0.0000000E+00;  0.0000000E+00;  0.0000000E+00;  0.0000000E+00;
  2.1400001E+00;  9.9999998E-03; -2.8000000E-01;862;  0.0000000E+00;  0.0000000E+00;  0.0000000E+00;  1.0000000E+03;  4.0000001E-01;  0.0000000E+00;0;  0.0000000E+00;  0.0000000E+00;  0.0000000E+00;0;  0.0000000E+00;  1.0000000E+04;  0.0000000E+00;  0.0000000E+00;  1.0000000E+04;  0.0000000E+00;  1.0000000E+04;  0.0000000E+00;  0.0000000E+00;  0.0000000E+00;  0.0000000E+00;
  2.1400001E+00;  9.9999998E-03; -2.5999999E-01;863;  0.0000000E+00;  0.0000000E+00;  0.0000000E+00;  1.0000000E+03;  4.0000001E-01;  0.0000000E+00;0;  0.0000000E+00;  0.0000000E+00;  0.0000000E+00;0;  0.0000000E+00;  1.0000000E+04;  0.0000000E+00;  0.0000000E+00;  1.0000000E+04;  0.0000000E+00;  1.0000000E+04;  0.0000000E+00;  0.0000000E+00;  0.0000000E+00;  0.0000000E+00;
  2.1400001E+00;  9.9999998E-03; -2.3999999E-01;864;  0.0000000E+00;  0.0000000E+00;  0.0000000E+00;  1.0000000E+03;  4.0000001E-01;  0.0000000E+00;0;  0.0000000E+00;  0.0000000E+00;  0.0000000E+00;0;  0.0000000E+00;  1.0000000E+04;  0.0000000E+00;  0.0000000E+00;  1.0000000E+04;  0.0000000E+00;  1.0000000E+04;  0.0000000E+00;  0.0000000E+00;  0.0000000E+00;  0.0000000E+00;
  2.1400001E+00;  9.9999998E-03; -2.2000000E-01;865;  0.0000000E+00;  0.0000000E+00;  0.0000000E+00;  1.0000000E+03;  4.0000001E-01;  0.0000000E+00;0;  0.0000000E+00;  0.0000000E+00;  0.0000000E+00;0;  0.0000000E+00;  1.0000000E+04;  0.0000000E+00;  0.0000000E+00;  1.0000000E+04;  0.0000000E+00;  1.0000000E+04;  0.0000000E+00;  0.0000000E+00;  0.0000000E+00;  0.0000000E+00;
  2.1400001E+00;  9.9999998E-03; -2.0000000E-01;866;  0.0000000E+00;  0.0000000E+00;  0.0000000E+00;  1.0000000E+03;  4.0000001E-01;  0.0000000E+00;0;  0.0000000E+00;  0.0000000E+00;  0.0000000E+00;0;  0.0000000E+00;  1.0000000E+04;  0.0000000E+00;  0.0000000E+00;  1.0000000E+04;  0.0000000E+00;  1.0000000E+04;  0.0000000E+00;  0.0000000E+00;  0.0000000E+00;  0.0000000E+00;
  2.1400001E+00;  9.9999998E-03; -1.8000001E-01;867;  0.0000000E+00;  0.0000000E+00;  0.0000000E+00;  1.0000000E+03;  4.0000001E-01;  0.0000000E+00;0;  0.0000000E+00;  0.0000000E+00;  0.0000000E+00;0;  0.0000000E+00;  1.0000000E+04;  0.0000000E+00;  0.0000000E+00;  1.0000000E+04;  0.0000000E+00;  1.0000000E+04;  0.0000000E+00;  0.0000000E+00;  0.0000000E+00;  0.0000000E+00;
  2.1400001E+00;  9.9999998E-03; -1.6000000E-01;868;  0.0000000E+00;  0.0000000E+00;  0.0000000E+00;  1.0000000E+03;  4.0000001E-01;  0.0000000E+00;0;  0.0000000E+00;  0.0000000E+00;  0.0000000E+00;0;  0.0000000E+00;  1.0000000E+04;  0.0000000E+00;  0.0000000E+00;  1.0000000E+04;  0.0000000E+00;  1.0000000E+04;  0.0000000E+00;  0.0000000E+00;  0.0000000E+00;  0.0000000E+00;
  2.1400001E+00;  9.9999998E-03; -1.4000000E-01;869;  0.0000000E+00;  0.0000000E+00;  0.0000000E+00;  1.0000000E+03;  4.0000001E-01;  0.0000000E+00;0;  0.0000000E+00;  0.0000000E+00;  0.0000000E+00;0;  0.0000000E+00;  1.0000000E+04;  0.0000000E+00;  0.0000000E+00;  1.0000000E+04;  0.0000000E+00;  1.0000000E+04;  0.0000000E+00;  0.0000000E+00;  0.0000000E+00;  0.0000000E+00;
  2.1400001E+00;  9.9999998E-03; -1.2000000E-01;870;  0.0000000E+00;  0.0000000E+00;  0.0000000E+00;  1.0000000E+03;  4.0000001E-01;  0.0000000E+00;0;  0.0000000E+00;  0.0000000E+00;  0.0000000E+00;0;  0.0000000E+00;  1.0000000E+04;  0.0000000E+00;  0.0000000E+00;  1.0000000E+04;  0.0000000E+00;  1.0000000E+04;  0.0000000E+00;  0.0000000E+00;  0.0000000E+00;  0.0000000E+00;
  2.1400001E+00;  9.9999998E-03; -1.0000000E-01;871;  0.0000000E+00;  0.0000000E+00;  0.0000000E+00;  1.0000000E+03;  4.0000001E-01;  0.0000000E+00;0;  0.0000000E+00;  0.0000000E+00;  0.0000000E+00;0;  0.0000000E+00;  1.0000000E+04;  0.0000000E+00;  0.0000000E+00;  1.0000000E+04;  0.0000000E+00;  1.0000000E+04;  0.0000000E+00;  0.0000000E+00;  0.0000000E+00;  0.0000000E+00;
  2.1400001E+00;  9.9999998E-03; -7.9999998E-02;872;  0.0000000E+00;  0.0000000E+00;  0.0000000E+00;  1.0000000E+03;  4.0000001E-01;  0.0000000E+00;0;  0.0000000E+00;  0.0000000E+00;  0.0000000E+00;0;  0.0000000E+00;  1.0000000E+04;  0.0000000E+00;  0.0000000E+00;  1.0000000E+04;  0.0000000E+00;  1.0000000E+04;  0.0000000E+00;  0.0000000E+00;  0.0000000E+00;  0.0000000E+00;
  2.1400001E+00;  9.9999998E-03; -5.9999999E-02;873;  0.0000000E+00;  0.0000000E+00;  0.0000000E+00;  1.0000000E+03;  4.0000001E-01;  0.0000000E+00;0;  0.0000000E+00;  0.0000000E+00;  0.0000000E+00;0;  0.0000000E+00;  1.0000000E+04;  0.0000000E+00;  0.0000000E+00;  1.0000000E+04;  0.0000000E+00;  1.0000000E+04;  0.0000000E+00;  0.0000000E+00;  0.0000000E+00;  0.0000000E+00;
  2.1400001E+00;  9.9999998E-03; -3.9999999E-02;874;  0.0000000E+00;  0.0000000E+00;  0.0000000E+00;  1.0000000E+03;  4.0000001E-01;  0.0000000E+00;0;  0.0000000E+00;  0.0000000E+00;  0.0000000E+00;0;  0.0000000E+00;  1.0000000E+04;  0.0000000E+00;  0.0000000E+00;  1.0000000E+04;  0.0000000E+00;  1.0000000E+04;  0.0000000E+00;  0.0000000E+00;  0.0000000E+00;  0.0000000E+00;
  2.1400001E+00;  9.9999998E-03; -2.0000000E-02;875;  0.0000000E+00;  0.0000000E+00;  0.0000000E+00;  1.0000000E+03;  4.0000001E-01;  0.0000000E+00;0;  0.0000000E+00;  0.0000000E+00;  0.0000000E+00;0;  0.0000000E+00;  1.0000000E+04;  0.0000000E+00;  0.0000000E+00;  1.0000000E+04;  0.0000000E+00;  1.0000000E+04;  0.0000000E+00;  0.0000000E+00;  0.0000000E+00;  0.0000000E+00;
  2.1400001E+00;  9.9999998E-03;  0.0000000E+00;876;  0.0000000E+00;  0.0000000E+00;  0.0000000E+00;  1.0000000E+03;  4.0000001E-01;  0.0000000E+00;0;  0.0000000E+00;  0.0000000E+00;  0.0000000E+00;0;  0.0000000E+00;  1.0000000E+04;  0.0000000E+00;  0.0000000E+00;  1.0000000E+04;  0.0000000E+00;  1.0000000E+04;  0.0000000E+00;  0.0000000E+00;  0.0000000E+00;  0.0000000E+00;
  2.1400001E+00;  9.9999998E-03;  2.0000000E-02;877;  0.0000000E+00;  0.0000000E+00;  0.0000000E+00;  1.0000000E+03;  4.0000001E-01;  0.0000000E+00;0;  0.0000000E+00;  0.0000000E+00;  0.0000000E+00;0;  0.0000000E+00;  1.0000000E+04;  0.0000000E+00;  0.0000000E+00;  1.0000000E+04;  0.0000000E+00;  1.0000000E+04;  0.0000000E+00;  0.0000000E+00;  0.0000000E+00;  0.0000000E+00;
  2.1400001E+00;  9.9999998E-03;  3.9999999E-02;878;  0.0000000E+00;  0.0000000E+00;  0.0000000E+00;  1.0000000E+03;  4.0000001E-01;  0.0000000E+00;0;  0.0000000E+00;  0.0000000E+00;  0.0000000E+00;0;  0.0000000E+00;  1.0000000E+04;  0.0000000E+00;  0.0000000E+00;  1.0000000E+04;  0.0000000E+00;  1.0000000E+04;  0.0000000E+00;  0.0000000E+00;  0.0000000E+00;  0.0000000E+00;
  2.1400001E+00;  9.9999998E-03;  5.9999999E-02;879;  0.0000000E+00;  0.0000000E+00;  0.0000000E+00;  1.0000000E+03;  4.0000001E-01;  0.0000000E+00;0;  0.0000000E+00;  0.0000000E+00;  0.0000000E+00;0;  0.0000000E+00;  1.0000000E+04;  0.0000000E+00;  0.0000000E+00;  1.0000000E+04;  0.0000000E+00;  1.0000000E+04;  0.0000000E+00;  0.0000000E+00;  0.0000000E+00;  0.0000000E+00;
  2.1400001E+00;  9.9999998E-03;  7.9999998E-02;880;  0.0000000E+00;  0.0000000E+00;  0.0000000E+00;  1.0000000E+03;  4.0000001E-01;  0.0000000E+00;0;  0.0000000E+00;  0.0000000E+00;  0.0000000E+00;0;  0.0000000E+00;  1.0000000E+04;  0.0000000E+00;  0.0000000E+00;  1.0000000E+04;  0.0000000E+00;  1.0000000E+04;  0.0000000E+00;  0.0000000E+00;  0.0000000E+00;  0.0000000E+00;
  2.1400001E+00;  9.9999998E-03;  1.0000000E-01;881;  0.0000000E+00;  0.0000000E+00;  0.0000000E+00;  1.0000000E+03;  4.0000001E-01;  0.0000000E+00;0;  0.0000000E+00;  0.0000000E+00;  0.0000000E+00;0;  0.0000000E+00;  1.0000000E+04;  0.0000000E+00;  0.0000000E+00;  1.0000000E+04;  0.0000000E+00;  1.0000000E+04;  0.0000000E+00;  0.0000000E+00;  0.0000000E+00;  0.0000000E+00;
  2.1400001E+00;  9.9999998E-03;  1.2000000E-01;882;  0.0000000E+00;  0.0000000E+00;  0.0000000E+00;  1.0000000E+03;  4.0000001E-01;  0.0000000E+00;0;  0.0000000E+00;  0.0000000E+00;  0.0000000E+00;0;  0.0000000E+00;  1.0000000E+04;  0.0000000E+00;  0.0000000E+00;  1.0000000E+04;  0.0000000E+00;  1.0000000E+04;  0.0000000E+00;  0.0000000E+00;  0.0000000E+00;  0.0000000E+00;
  2.1400001E+00;  9.9999998E-03;  1.4000000E-01;883;  0.0000000E+00;  0.0000000E+00;  0.0000000E+00;  1.0000000E+03;  4.0000001E-01;  0.0000000E+00;0;  0.0000000E+00;  0.0000000E+00;  0.0000000E+00;0;  0.0000000E+00;  1.0000000E+04;  0.0000000E+00;  0.0000000E+00;  1.0000000E+04;  0.0000000E+00;  1.0000000E+04;  0.0000000E+00;  0.0000000E+00;  0.0000000E+00;  0.0000000E+00;
  2.1400001E+00;  9.9999998E-03;  1.6000000E-01;884;  0.0000000E+00;  0.0000000E+00;  0.0000000E+00;  1.0000000E+03;  4.0000001E-01;  0.0000000E+00;0;  0.0000000E+00;  0.0000000E+00;  0.0000000E+00;0;  0.0000000E+00;  1.0000000E+04;  0.0000000E+00;  0.0000000E+00;  1.0000000E+04;  0.0000000E+00;  1.0000000E+04;  0.0000000E+00;  0.0000000E+00;  0.0000000E+00;  0.0000000E+00;
  2.1400001E+00;  9.9999998E-03;  1.8000001E-01;885;  0.0000000E+00;  0.0000000E+00;  0.0000000E+00;  1.0000000E+03;  4.0000001E-01;  0.0000000E+00;0;  0.0000000E+00;  0.0000000E+00;  0.0000000E+00;0;  0.0000000E+00;  1.0000000E+04;  0.0000000E+00;  0.0000000E+00;  1.0000000E+04;  0.0000000E+00;  1.0000000E+04;  0.0000000E+00;  0.0000000E+00;  0.0000000E+00;  0.0000000E+00;
  2.1400001E+00;  9.9999998E-03;  2.0000000E-01;886;  0.0000000E+00;  0.0000000E+00;  0.0000000E+00;  1.0000000E+03;  4.0000001E-01;  0.0000000E+00;0;  0.0000000E+00;  0.0000000E+00;  0.0000000E+00;0;  0.0000000E+00;  1.0000000E+04;  0.0000000E+00;  0.0000000E+00;  1.0000000E+04;  0.0000000E+00;  1.0000000E+04;  0.0000000E+00;  0.0000000E+00;  0.0000000E+00;  0.0000000E+00;
  2.1400001E+00;  9.9999998E-03;  2.2000000E-01;887;  0.0000000E+00;  0.0000000E+00;  0.0000000E+00;  1.0000000E+03;  4.0000001E-01;  0.0000000E+00;0;  0.0000000E+00;  0.0000000E+00;  0.0000000E+00;0;  0.0000000E+00;  1.0000000E+04;  0.0000000E+00;  0.0000000E+00;  1.0000000E+04;  0.0000000E+00;  1.0000000E+04;  0.0000000E+00;  0.0000000E+00;  0.0000000E+00;  0.0000000E+00;
  2.1400001E+00;  9.9999998E-03;  2.3999999E-01;888;  0.0000000E+00;  0.0000000E+00;  0.0000000E+00;  1.0000000E+03;  4.0000001E-01;  0.0000000E+00;0;  0.0000000E+00;  0.0000000E+00;  0.0000000E+00;0;  0.0000000E+00;  1.0000000E+04;  0.0000000E+00;  0.0000000E+00;  1.0000000E+04;  0.0000000E+00;  1.0000000E+04;  0.0000000E+00;  0.0000000E+00;  0.0000000E+00;  0.0000000E+00;
  2.1400001E+00;  9.9999998E-03;  2.5999999E-01;889;  0.0000000E+00;  0.0000000E+00;  0.0000000E+00;  1.0000000E+03;  4.0000001E-01;  0.0000000E+00;0;  0.0000000E+00;  0.0000000E+00;  0.0000000E+00;0;  0.0000000E+00;  1.0000000E+04;  0.0000000E+00;  0.0000000E+00;  1.0000000E+04;  0.0000000E+00;  1.0000000E+04;  0.0000000E+00;  0.0000000E+00;  0.0000000E+00;  0.0000000E+00;
  2.1400001E+00;  9.9999998E-03;  2.8000000E-01;890;  0.0000000E+00;  0.0000000E+00;  0.0000000E+00;  1.0000000E+03;  4.0000001E-01;  0.0000000E+00;0;  0.0000000E+00;  0.0000000E+00;  0.0000000E+00;0;  0.0000000E+00;  1.0000000E+04;  0.0000000E+00;  0.0000000E+00;  1.0000000E+04;  0.0000000E+00;  1.0000000E+04;  0.0000000E+00;  0.0000000E+00;  0.0000000E+00;  0.0000000E+00;
  2.1400001E+00;  9.9999998E-03;  3.0000001E-01;891;  0.0000000E+00;  0.0000000E+00;  0.0000000E+00;  1.0000000E+03;  4.0000001E-01;  0.0000000E+00;0;  0.0000000E+00;  0.0000000E+00;  0.0000000E+00;0;  0.0000000E+00;  1.0000000E+04;  0.0000000E+00;  0.0000000E+00;  1.0000000E+04;  0.0000000E+00;  1.0000000E+04;  0.0000000E+00;  0.0000000E+00;  0.0000000E+00;  0.0000000E+00;
  2.1400001E+00;  9.9999998E-03;  3.1999999E-01;892;  0.0000000E+00;  0.0000000E+00;  0.0000000E+00;  1.0000000E+03;  4.0000001E-01;  0.0000000E+00;0;  0.0000000E+00;  0.0000000E+00;  0.0000000E+00;0;  0.0000000E+00;  1.0000000E+04;  0.0000000E+00;  0.0000000E+00;  1.0000000E+04;  0.0000000E+00;  1.0000000E+04;  0.0000000E+00;  0.0000000E+00;  0.0000000E+00;  0.0000000E+00;
  2.1400001E+00;  9.9999998E-03;  3.4000000E-01;893;  0.0000000E+00;  0.0000000E+00;  0.0000000E+00;  1.0000000E+03;  4.0000001E-01;  0.0000000E+00;0;  0.0000000E+00;  0.0000000E+00;  0.0000000E+00;0;  0.0000000E+00;  1.0000000E+04;  0.0000000E+00;  0.0000000E+00;  1.0000000E+04;  0.0000000E+00;  1.0000000E+04;  0.0000000E+00;  0.0000000E+00;  0.0000000E+00;  0.0000000E+00;
  2.1400001E+00;  9.9999998E-03;  3.6000001E-01;894;  0.0000000E+00;  0.0000000E+00;  0.0000000E+00;  1.0000000E+03;  4.0000001E-01;  0.0000000E+00;0;  0.0000000E+00;  0.0000000E+00;  0.0000000E+00;0;  0.0000000E+00;  1.0000000E+04;  0.0000000E+00;  0.0000000E+00;  1.0000000E+04;  0.0000000E+00;  1.0000000E+04;  0.0000000E+00;  0.0000000E+00;  0.0000000E+00;  0.0000000E+00;
  2.1400001E+00;  9.9999998E-03;  3.8000000E-01;895;  0.0000000E+00;  0.0000000E+00;  0.0000000E+00;  1.0000000E+03;  4.0000001E-01;  0.0000000E+00;0;  0.0000000E+00;  0.0000000E+00;  0.0000000E+00;0;  0.0000000E+00;  1.0000000E+04;  0.0000000E+00;  0.0000000E+00;  1.0000000E+04;  0.0000000E+00;  1.0000000E+04;  0.0000000E+00;  0.0000000E+00;  0.0000000E+00;  0.0000000E+00;
  2.1400001E+00;  9.9999998E-03;  4.0000001E-01;896;  0.0000000E+00;  0.0000000E+00;  0.0000000E+00;  1.0000000E+03;  4.0000001E-01;  0.0000000E+00;0;  0.0000000E+00;  0.0000000E+00;  0.0000000E+00;0;  0.0000000E+00;  1.0000000E+04;  0.0000000E+00;  0.0000000E+00;  1.0000000E+04;  0.0000000E+00;  1.0000000E+04;  0.0000000E+00;  0.0000000E+00;  0.0000000E+00;  0.0000000E+00;
  2.1600001E+00;  9.9999998E-03; -2.8000000E-01;897;  0.0000000E+00;  0.0000000E+00;  0.0000000E+00;  1.0000000E+03;  4.0000001E-01;  0.0000000E+00;0;  0.0000000E+00;  0.0000000E+00;  0.0000000E+00;0;  0.0000000E+00;  1.0000000E+04;  0.0000000E+00;  0.0000000E+00;  1.0000000E+04;  0.0000000E+00;  1.0000000E+04;  0.0000000E+00;  0.0000000E+00;  0.0000000E+00;  0.0000000E+00;
  2.1600001E+00;  9.9999998E-03; -2.5999999E-01;898;  0.0000000E+00;  0.0000000E+00;  0.0000000E+00;  1.0000000E+03;  4.0000001E-01;  0.0000000E+00;0;  0.0000000E+00;  0.0000000E+00;  0.0000000E+00;0;  0.0000000E+00;  1.0000000E+04;  0.0000000E+00;  0.0000000E+00;  1.0000000E+04;  0.0000000E+00;  1.0000000E+04;  0.0000000E+00;  0.0000000E+00;  0.0000000E+00;  0.0000000E+00;
  2.1600001E+00;  9.9999998E-03; -2.3999999E-01;899;  0.0000000E+00;  0.0000000E+00;  0.0000000E+00;  1.0000000E+03;  4.0000001E-01;  0.0000000E+00;0;  0.0000000E+00;  0.0000000E+00;  0.0000000E+00;0;  0.0000000E+00;  1.0000000E+04;  0.0000000E+00;  0.0000000E+00;  1.0000000E+04;  0.0000000E+00;  1.0000000E+04;  0.0000000E+00;  0.0000000E+00;  0.0000000E+00;  0.0000000E+00;
  2.1600001E+00;  9.9999998E-03; -2.2000000E-01;900;  0.0000000E+00;  0.0000000E+00;  0.0000000E+00;  1.0000000E+03;  4.0000001E-01;  0.0000000E+00;0;  0.0000000E+00;  0.0000000E+00;  0.0000000E+00;0;  0.0000000E+00;  1.0000000E+04;  0.0000000E+00;  0.0000000E+00;  1.0000000E+04;  0.0000000E+00;  1.0000000E+04;  0.0000000E+00;  0.0000000E+00;  0.0000000E+00;  0.0000000E+00;
  2.1600001E+00;  9.9999998E-03; -2.0000000E-01;901;  0.0000000E+00;  0.0000000E+00;  0.0000000E+00;  1.0000000E+03;  4.0000001E-01;  0.0000000E+00;0;  0.0000000E+00;  0.0000000E+00;  0.0000000E+00;0;  0.0000000E+00;  1.0000000E+04;  0.0000000E+00;  0.0000000E+00;  1.0000000E+04;  0.0000000E+00;  1.0000000E+04;  0.0000000E+00;  0.0000000E+00;  0.0000000E+00;  0.0000000E+00;
  2.1600001E+00;  9.9999998E-03; -1.8000001E-01;902;  0.0000000E+00;  0.0000000E+00;  0.0000000E+00;  1.0000000E+03;  4.0000001E-01;  0.0000000E+00;0;  0.0000000E+00;  0.0000000E+00;  0.0000000E+00;0;  0.0000000E+00;  1.0000000E+04;  0.0000000E+00;  0.0000000E+00;  1.0000000E+04;  0.0000000E+00;  1.0000000E+04;  0.0000000E+00;  0.0000000E+00;  0.0000000E+00;  0.0000000E+00;
  2.1600001E+00;  9.9999998E-03; -1.6000000E-01;903;  0.0000000E+00;  0.0000000E+00;  0.0000000E+00;  1.0000000E+03;  4.0000001E-01;  0.0000000E+00;0;  0.0000000E+00;  0.0000000E+00;  0.0000000E+00;0;  0.0000000E+00;  1.0000000E+04;  0.0000000E+00;  0.0000000E+00;  1.0000000E+04;  0.0000000E+00;  1.0000000E+04;  0.0000000E+00;  0.0000000E+00;  0.0000000E+00;  0.0000000E+00;
  2.1600001E+00;  9.9999998E-03; -1.4000000E-01;904;  0.0000000E+00;  0.0000000E+00;  0.0000000E+00;  1.0000000E+03;  4.0000001E-01;  0.0000000E+00;0;  0.0000000E+00;  0.0000000E+00;  0.0000000E+00;0;  0.0000000E+00;  1.0000000E+04;  0.0000000E+00;  0.0000000E+00;  1.0000000E+04;  0.0000000E+00;  1.0000000E+04;  0.0000000E+00;  0.0000000E+00;  0.0000000E+00;  0.0000000E+00;
  2.1600001E+00;  9.9999998E-03; -1.2000000E-01;905;  0.0000000E+00;  0.0000000E+00;  0.0000000E+00;  1.0000000E+03;  4.0000001E-01;  0.0000000E+00;0;  0.0000000E+00;  0.0000000E+00;  0.0000000E+00;0;  0.0000000E+00;  1.0000000E+04;  0.0000000E+00;  0.0000000E+00;  1.0000000E+04;  0.0000000E+00;  1.0000000E+04;  0.0000000E+00;  0.0000000E+00;  0.0000000E+00;  0.0000000E+00;
  2.1600001E+00;  9.9999998E-03; -1.0000000E-01;906;  0.0000000E+00;  0.0000000E+00;  0.0000000E+00;  1.0000000E+03;  4.0000001E-01;  0.0000000E+00;0;  0.0000000E+00;  0.0000000E+00;  0.0000000E+00;0;  0.0000000E+00;  1.0000000E+04;  0.0000000E+00;  0.0000000E+00;  1.0000000E+04;  0.0000000E+00;  1.0000000E+04;  0.0000000E+00;  0.0000000E+00;  0.0000000E+00;  0.0000000E+00;
  2.1600001E+00;  9.9999998E-03; -7.9999998E-02;907;  0.0000000E+00;  0.0000000E+00;  0.0000000E+00;  1.0000000E+03;  4.0000001E-01;  0.0000000E+00;0;  0.0000000E+00;  0.0000000E+00;  0.0000000E+00;0;  0.0000000E+00;  1.0000000E+04;  0.0000000E+00;  0.0000000E+00;  1.0000000E+04;  0.0000000E+00;  1.0000000E+04;  0.0000000E+00;  0.0000000E+00;  0.0000000E+00;  0.0000000E+00;
  2.1600001E+00;  9.9999998E-03; -5.9999999E-02;908;  0.0000000E+00;  0.0000000E+00;  0.0000000E+00;  1.0000000E+03;  4.0000001E-01;  0.0000000E+00;0;  0.0000000E+00;  0.0000000E+00;  0.0000000E+00;0;  0.0000000E+00;  1.0000000E+04;  0.0000000E+00;  0.0000000E+00;  1.0000000E+04;  0.0000000E+00;  1.0000000E+04;  0.0000000E+00;  0.0000000E+00;  0.0000000E+00;  0.0000000E+00;
  2.1600001E+00;  9.9999998E-03; -3.9999999E-02;909;  0.0000000E+00;  0.0000000E+00;  0.0000000E+00;  1.0000000E+03;  4.0000001E-01;  0.0000000E+00;0;  0.0000000E+00;  0.0000000E+00;  0.0000000E+00;0;  0.0000000E+00;  1.0000000E+04;  0.0000000E+00;  0.0000000E+00;  1.0000000E+04;  0.0000000E+00;  1.0000000E+04;  0.0000000E+00;  0.0000000E+00;  0.0000000E+00;  0.0000000E+00;
  2.1600001E+00;  9.9999998E-03; -2.0000000E-02;910;  0.0000000E+00;  0.0000000E+00;  0.0000000E+00;  1.0000000E+03;  4.0000001E-01;  0.0000000E+00;0;  0.0000000E+00;  0.0000000E+00;  0.0000000E+00;0;  0.0000000E+00;  1.0000000E+04;  0.0000000E+00;  0.0000000E+00;  1.0000000E+04;  0.0000000E+00;  1.0000000E+04;  0.0000000E+00;  0.0000000E+00;  0.0000000E+00;  0.0000000E+00;
  2.1600001E+00;  9.9999998E-03;  0.0000000E+00;911;  0.0000000E+00;  0.0000000E+00;  0.0000000E+00;  1.0000000E+03;  4.0000001E-01;  0.0000000E+00;0;  0.0000000E+00;  0.0000000E+00;  0.0000000E+00;0;  0.0000000E+00;  1.0000000E+04;  0.0000000E+00;  0.0000000E+00;  1.0000000E+04;  0.0000000E+00;  1.0000000E+04;  0.0000000E+00;  0.0000000E+00;  0.0000000E+00;  0.0000000E+00;
  2.1600001E+00;  9.9999998E-03;  2.0000000E-02;912;  0.0000000E+00;  0.0000000E+00;  0.0000000E+00;  1.0000000E+03;  4.0000001E-01;  0.0000000E+00;0;  0.0000000E+00;  0.0000000E+00;  0.0000000E+00;0;  0.0000000E+00;  1.0000000E+04;  0.0000000E+00;  0.0000000E+00;  1.0000000E+04;  0.0000000E+00;  1.0000000E+04;  0.0000000E+00;  0.0000000E+00;  0.0000000E+00;  0.0000000E+00;
  2.1600001E+00;  9.9999998E-03;  3.9999999E-02;913;  0.0000000E+00;  0.0000000E+00;  0.0000000E+00;  1.0000000E+03;  4.0000001E-01;  0.0000000E+00;0;  0.0000000E+00;  0.0000000E+00;  0.0000000E+00;0;  0.0000000E+00;  1.0000000E+04;  0.0000000E+00;  0.0000000E+00;  1.0000000E+04;  0.0000000E+00;  1.0000000E+04;  0.0000000E+00;  0.0000000E+00;  0.0000000E+00;  0.0000000E+00;
  2.1600001E+00;  9.9999998E-03;  5.9999999E-02;914;  0.0000000E+00;  0.0000000E+00;  0.0000000E+00;  1.0000000E+03;  4.0000001E-01;  0.0000000E+00;0;  0.0000000E+00;  0.0000000E+00;  0.0000000E+00;0;  0.0000000E+00;  1.0000000E+04;  0.0000000E+00;  0.0000000E+00;  1.0000000E+04;  0.0000000E+00;  1.0000000E+04;  0.0000000E+00;  0.0000000E+00;  0.0000000E+00;  0.0000000E+00;
  2.1600001E+00;  9.9999998E-03;  7.9999998E-02;915;  0.0000000E+00;  0.0000000E+00;  0.0000000E+00;  1.0000000E+03;  4.0000001E-01;  0.0000000E+00;0;  0.0000000E+00;  0.0000000E+00;  0.0000000E+00;0;  0.0000000E+00;  1.0000000E+04;  0.0000000E+00;  0.0000000E+00;  1.0000000E+04;  0.0000000E+00;  1.0000000E+04;  0.0000000E+00;  0.0000000E+00;  0.0000000E+00;  0.0000000E+00;
  2.1600001E+00;  9.9999998E-03;  1.0000000E-01;916;  0.0000000E+00;  0.0000000E+00;  0.0000000E+00;  1.0000000E+03;  4.0000001E-01;  0.0000000E+00;0;  0.0000000E+00;  0.0000000E+00;  0.0000000E+00;0;  0.0000000E+00;  1.0000000E+04;  0.0000000E+00;  0.0000000E+00;  1.0000000E+04;  0.0000000E+00;  1.0000000E+04;  0.0000000E+00;  0.0000000E+00;  0.0000000E+00;  0.0000000E+00;
  2.1600001E+00;  9.9999998E-03;  1.2000000E-01;917;  0.0000000E+00;  0.0000000E+00;  0.0000000E+00;  1.0000000E+03;  4.0000001E-01;  0.0000000E+00;0;  0.0000000E+00;  0.0000000E+00;  0.0000000E+00;0;  0.0000000E+00;  1.0000000E+04;  0.0000000E+00;  0.0000000E+00;  1.0000000E+04;  0.0000000E+00;  1.0000000E+04;  0.0000000E+00;  0.0000000E+00;  0.0000000E+00;  0.0000000E+00;
  2.1600001E+00;  9.9999998E-03;  1.4000000E-01;918;  0.0000000E+00;  0.0000000E+00;  0.0000000E+00;  1.0000000E+03;  4.0000001E-01;  0.0000000E+00;0;  0.0000000E+00;  0.0000000E+00;  0.0000000E+00;0;  0.0000000E+00;  1.0000000E+04;  0.0000000E+00;  0.0000000E+00;  1.0000000E+04;  0.0000000E+00;  1.0000000E+04;  0.0000000E+00;  0.0000000E+00;  0.0000000E+00;  0.0000000E+00;
  2.1600001E+00;  9.9999998E-03;  1.6000000E-01;919;  0.0000000E+00;  0.0000000E+00;  0.0000000E+00;  1.0000000E+03;  4.0000001E-01;  0.0000000E+00;0;  0.0000000E+00;  0.0000000E+00;  0.0000000E+00;0;  0.0000000E+00;  1.0000000E+04;  0.0000000E+00;  0.0000000E+00;  1.0000000E+04;  0.0000000E+00;  1.0000000E+04;  0.0000000E+00;  0.0000000E+00;  0.0000000E+00;  0.0000000E+00;
  2.1600001E+00;  9.9999998E-03;  1.8000001E-01;920;  0.0000000E+00;  0.0000000E+00;  0.0000000E+00;  1.0000000E+03;  4.0000001E-01;  0.0000000E+00;0;  0.0000000E+00;  0.0000000E+00;  0.0000000E+00;0;  0.0000000E+00;  1.0000000E+04;  0.0000000E+00;  0.0000000E+00;  1.0000000E+04;  0.0000000E+00;  1.0000000E+04;  0.0000000E+00;  0.0000000E+00;  0.0000000E+00;  0.0000000E+00;
  2.1600001E+00;  9.9999998E-03;  2.0000000E-01;921;  0.0000000E+00;  0.0000000E+00;  0.0000000E+00;  1.0000000E+03;  4.0000001E-01;  0.0000000E+00;0;  0.0000000E+00;  0.0000000E+00;  0.0000000E+00;0;  0.0000000E+00;  1.0000000E+04;  0.0000000E+00;  0.0000000E+00;  1.0000000E+04;  0.0000000E+00;  1.0000000E+04;  0.0000000E+00;  0.0000000E+00;  0.0000000E+00;  0.0000000E+00;
  2.1600001E+00;  9.9999998E-03;  2.2000000E-01;922;  0.0000000E+00;  0.0000000E+00;  0.0000000E+00;  1.0000000E+03;  4.0000001E-01;  0.0000000E+00;0;  0.0000000E+00;  0.0000000E+00;  0.0000000E+00;0;  0.0000000E+00;  1.0000000E+04;  0.0000000E+00;  0.0000000E+00;  1.0000000E+04;  0.0000000E+00;  1.0000000E+04;  0.0000000E+00;  0.0000000E+00;  0.0000000E+00;  0.0000000E+00;
  2.1600001E+00;  9.9999998E-03;  2.3999999E-01;923;  0.0000000E+00;  0.0000000E+00;  0.0000000E+00;  1.0000000E+03;  4.0000001E-01;  0.0000000E+00;0;  0.0000000E+00;  0.0000000E+00;  0.0000000E+00;0;  0.0000000E+00;  1.0000000E+04;  0.0000000E+00;  0.0000000E+00;  1.0000000E+04;  0.0000000E+00;  1.0000000E+04;  0.0000000E+00;  0.0000000E+00;  0.0000000E+00;  0.0000000E+00;
  2.1600001E+00;  9.9999998E-03;  2.5999999E-01;924;  0.0000000E+00;  0.0000000E+00;  0.0000000E+00;  1.0000000E+03;  4.0000001E-01;  0.0000000E+00;0;  0.0000000E+00;  0.0000000E+00;  0.0000000E+00;0;  0.0000000E+00;  1.0000000E+04;  0.0000000E+00;  0.0000000E+00;  1.0000000E+04;  0.0000000E+00;  1.0000000E+04;  0.0000000E+00;  0.0000000E+00;  0.0000000E+00;  0.0000000E+00;
  2.1600001E+00;  9.9999998E-03;  2.8000000E-01;925;  0.0000000E+00;  0.0000000E+00;  0.0000000E+00;  1.0000000E+03;  4.0000001E-01;  0.0000000E+00;0;  0.0000000E+00;  0.0000000E+00;  0.0000000E+00;0;  0.0000000E+00;  1.0000000E+04;  0.0000000E+00;  0.0000000E+00;  1.0000000E+04;  0.0000000E+00;  1.0000000E+04;  0.0000000E+00;  0.0000000E+00;  0.0000000E+00;  0.0000000E+00;
  2.1600001E+00;  9.9999998E-03;  3.0000001E-01;926;  0.0000000E+00;  0.0000000E+00;  0.0000000E+00;  1.0000000E+03;  4.0000001E-01;  0.0000000E+00;0;  0.0000000E+00;  0.0000000E+00;  0.0000000E+00;0;  0.0000000E+00;  1.0000000E+04;  0.0000000E+00;  0.0000000E+00;  1.0000000E+04;  0.0000000E+00;  1.0000000E+04;  0.0000000E+00;  0.0000000E+00;  0.0000000E+00;  0.0000000E+00;
  2.1600001E+00;  9.9999998E-03;  3.1999999E-01;927;  0.0000000E+00;  0.0000000E+00;  0.0000000E+00;  1.0000000E+03;  4.0000001E-01;  0.0000000E+00;0;  0.0000000E+00;  0.0000000E+00;  0.0000000E+00;0;  0.0000000E+00;  1.0000000E+04;  0.0000000E+00;  0.0000000E+00;  1.0000000E+04;  0.0000000E+00;  1.0000000E+04;  0.0000000E+00;  0.0000000E+00;  0.0000000E+00;  0.0000000E+00;
  2.1600001E+00;  9.9999998E-03;  3.4000000E-01;928;  0.0000000E+00;  0.0000000E+00;  0.0000000E+00;  1.0000000E+03;  4.0000001E-01;  0.0000000E+00;0;  0.0000000E+00;  0.0000000E+00;  0.0000000E+00;0;  0.0000000E+00;  1.0000000E+04;  0.0000000E+00;  0.0000000E+00;  1.0000000E+04;  0.0000000E+00;  1.0000000E+04;  0.0000000E+00;  0.0000000E+00;  0.0000000E+00;  0.0000000E+00;
  2.1600001E+00;  9.9999998E-03;  3.6000001E-01;929;  0.0000000E+00;  0.0000000E+00;  0.0000000E+00;  1.0000000E+03;  4.0000001E-01;  0.0000000E+00;0;  0.0000000E+00;  0.0000000E+00;  0.0000000E+00;0;  0.0000000E+00;  1.0000000E+04;  0.0000000E+00;  0.0000000E+00;  1.0000000E+04;  0.0000000E+00;  1.0000000E+04;  0.0000000E+00;  0.0000000E+00;  0.0000000E+00;  0.0000000E+00;
  2.1600001E+00;  9.9999998E-03;  3.8000000E-01;930;  0.0000000E+00;  0.0000000E+00;  0.0000000E+00;  1.0000000E+03;  4.0000001E-01;  0.0000000E+00;0;  0.0000000E+00;  0.0000000E+00;  0.0000000E+00;0;  0.0000000E+00;  1.0000000E+04;  0.0000000E+00;  0.0000000E+00;  1.0000000E+04;  0.0000000E+00;  1.0000000E+04;  0.0000000E+00;  0.0000000E+00;  0.0000000E+00;  0.0000000E+00;
  2.1600001E+00;  9.9999998E-03;  4.0000001E-01;931;  0.0000000E+00;  0.0000000E+00;  0.0000000E+00;  1.0000000E+03;  4.0000001E-01;  0.0000000E+00;0;  0.0000000E+00;  0.0000000E+00;  0.0000000E+00;0;  0.0000000E+00;  1.0000000E+04;  0.0000000E+00;  0.0000000E+00;  1.0000000E+04;  0.0000000E+00;  1.0000000E+04;  0.0000000E+00;  0.0000000E+00;  0.0000000E+00;  0.0000000E+00;
  2.1800001E+00;  9.9999998E-03; -1.8000001E-01;932;  0.0000000E+00;  0.0000000E+00;  0.0000000E+00;  1.0000000E+03;  4.0000001E-01;  0.0000000E+00;0;  0.0000000E+00;  0.0000000E+00;  0.0000000E+00;0;  0.0000000E+00;  1.0000000E+04;  0.0000000E+00;  0.0000000E+00;  1.0000000E+04;  0.0000000E+00;  1.0000000E+04;  0.0000000E+00;  0.0000000E+00;  0.0000000E+00;  0.0000000E+00;
  2.1800001E+00;  9.9999998E-03; -1.6000000E-01;933;  0.0000000E+00;  0.0000000E+00;  0.0000000E+00;  1.0000000E+03;  4.0000001E-01;  0.0000000E+00;0;  0.0000000E+00;  0.0000000E+00;  0.0000000E+00;0;  0.0000000E+00;  1.0000000E+04;  0.0000000E+00;  0.0000000E+00;  1.0000000E+04;  0.0000000E+00;  1.0000000E+04;  0.0000000E+00;  0.0000000E+00;  0.0000000E+00;  0.0000000E+00;
  2.1800001E+00;  9.9999998E-03; -1.4000000E-01;934;  0.0000000E+00;  0.0000000E+00;  0.0000000E+00;  1.0000000E+03;  4.0000001E-01;  0.0000000E+00;0;  0.0000000E+00;  0.0000000E+00;  0.0000000E+00;0;  0.0000000E+00;  1.0000000E+04;  0.0000000E+00;  0.0000000E+00;  1.0000000E+04;  0.0000000E+00;  1.0000000E+04;  0.0000000E+00;  0.0000000E+00;  0.0000000E+00;  0.0000000E+00;
  2.1800001E+00;  9.9999998E-03; -1.2000000E-01;935;  0.0000000E+00;  0.0000000E+00;  0.0000000E+00;  1.0000000E+03;  4.0000001E-01;  0.0000000E+00;0;  0.0000000E+00;  0.0000000E+00;  0.0000000E+00;0;  0.0000000E+00;  1.0000000E+04;  0.0000000E+00;  0.0000000E+00;  1.0000000E+04;  0.0000000E+00;  1.0000000E+04;  0.0000000E+00;  0.0000000E+00;  0.0000000E+00;  0.0000000E+00;
  2.1800001E+00;  9.9999998E-03; -1.0000000E-01;936;  0.0000000E+00;  0.0000000E+00;  0.0000000E+00;  1.0000000E+03;  4.0000001E-01;  0.0000000E+00;0;  0.0000000E+00;  0.0000000E+00;  0.0000000E+00;0;  0.0000000E+00;  1.0000000E+04;  0.0000000E+00;  0.0000000E+00;  1.0000000E+04;  0.0000000E+00;  1.0000000E+04;  0.0000000E+00;  0.0000000E+00;  0.0000000E+00;  0.0000000E+00;
  2.1800001E+00;  9.9999998E-03; -7.9999998E-02;937;  0.0000000E+00;  0.0000000E+00;  0.0000000E+00;  1.0000000E+03;  4.0000001E-01;  0.0000000E+00;0;  0.0000000E+00;  0.0000000E+00;  0.0000000E+00;0;  0.0000000E+00;  1.0000000E+04;  0.0000000E+00;  0.0000000E+00;  1.0000000E+04;  0.0000000E+00;  1.0000000E+04;  0.0000000E+00;  0.0000000E+00;  0.0000000E+00;  0.0000000E+00;
  2.1800001E+00;  9.9999998E-03; -5.9999999E-02;938;  0.0000000E+00;  0.0000000E+00;  0.0000000E+00;  1.0000000E+03;  4.0000001E-01;  0.0000000E+00;0;  0.0000000E+00;  0.0000000E+00;  0.0000000E+00;0;  0.0000000E+00;  1.0000000E+04;  0.0000000E+00;  0.0000000E+00;  1.0000000E+04;  0.0000000E+00;  1.0000000E+04;  0.0000000E+00;  0.0000000E+00;  0.0000000E+00;  0.0000000E+00;
  2.1800001E+00;  9.9999998E-03; -3.9999999E-02;939;  0.0000000E+00;  0.0000000E+00;  0.0000000E+00;  1.0000000E+03;  4.0000001E-01;  0.0000000E+00;0;  0.0000000E+00;  0.0000000E+00;  0.0000000E+00;0;  0.0000000E+00;  1.0000000E+04;  0.0000000E+00;  0.0000000E+00;  1.0000000E+04;  0.0000000E+00;  1.0000000E+04;  0.0000000E+00;  0.0000000E+00;  0.0000000E+00;  0.0000000E+00;
  2.1800001E+00;  9.9999998E-03; -2.0000000E-02;940;  0.0000000E+00;  0.0000000E+00;  0.0000000E+00;  1.0000000E+03;  4.0000001E-01;  0.0000000E+00;0;  0.0000000E+00;  0.0000000E+00;  0.0000000E+00;0;  0.0000000E+00;  1.0000000E+04;  0.0000000E+00;  0.0000000E+00;  1.0000000E+04;  0.0000000E+00;  1.0000000E+04;  0.0000000E+00;  0.0000000E+00;  0.0000000E+00;  0.0000000E+00;
  2.1800001E+00;  9.9999998E-03;  0.0000000E+00;941;  0.0000000E+00;  0.0000000E+00;  0.0000000E+00;  1.0000000E+03;  4.0000001E-01;  0.0000000E+00;0;  0.0000000E+00;  0.0000000E+00;  0.0000000E+00;0;  0.0000000E+00;  1.0000000E+04;  0.0000000E+00;  0.0000000E+00;  1.0000000E+04;  0.0000000E+00;  1.0000000E+04;  0.0000000E+00;  0.0000000E+00;  0.0000000E+00;  0.0000000E+00;
  2.1800001E+00;  9.9999998E-03;  2.0000000E-02;942;  0.0000000E+00;  0.0000000E+00;  0.0000000E+00;  1.0000000E+03;  4.0000001E-01;  0.0000000E+00;0;  0.0000000E+00;  0.0000000E+00;  0.0000000E+00;0;  0.0000000E+00;  1.0000000E+04;  0.0000000E+00;  0.0000000E+00;  1.0000000E+04;  0.0000000E+00;  1.0000000E+04;  0.0000000E+00;  0.0000000E+00;  0.0000000E+00;  0.0000000E+00;
  2.1800001E+00;  9.9999998E-03;  3.9999999E-02;943;  0.0000000E+00;  0.0000000E+00;  0.0000000E+00;  1.0000000E+03;  4.0000001E-01;  0.0000000E+00;0;  0.0000000E+00;  0.0000000E+00;  0.0000000E+00;0;  0.0000000E+00;  1.0000000E+04;  0.0000000E+00;  0.0000000E+00;  1.0000000E+04;  0.0000000E+00;  1.0000000E+04;  0.0000000E+00;  0.0000000E+00;  0.0000000E+00;  0.0000000E+00;
  2.1800001E+00;  9.9999998E-03;  5.9999999E-02;944;  0.0000000E+00;  0.0000000E+00;  0.0000000E+00;  1.0000000E+03;  4.0000001E-01;  0.0000000E+00;0;  0.0000000E+00;  0.0000000E+00;  0.0000000E+00;0;  0.0000000E+00;  1.0000000E+04;  0.0000000E+00;  0.0000000E+00;  1.0000000E+04;  0.0000000E+00;  1.0000000E+04;  0.0000000E+00;  0.0000000E+00;  0.0000000E+00;  0.0000000E+00;
  2.1800001E+00;  9.9999998E-03;  7.9999998E-02;945;  0.0000000E+00;  0.0000000E+00;  0.0000000E+00;  1.0000000E+03;  4.0000001E-01;  0.0000000E+00;0;  0.0000000E+00;  0.0000000E+00;  0.0000000E+00;0;  0.0000000E+00;  1.0000000E+04;  0.0000000E+00;  0.0000000E+00;  1.0000000E+04;  0.0000000E+00;  1.0000000E+04;  0.0000000E+00;  0.0000000E+00;  0.0000000E+00;  0.0000000E+00;
  2.1800001E+00;  9.9999998E-03;  1.0000000E-01;946;  0.0000000E+00;  0.0000000E+00;  0.0000000E+00;  1.0000000E+03;  4.0000001E-01;  0.0000000E+00;0;  0.0000000E+00;  0.0000000E+00;  0.0000000E+00;0;  0.0000000E+00;  1.0000000E+04;  0.0000000E+00;  0.0000000E+00;  1.0000000E+04;  0.0000000E+00;  1.0000000E+04;  0.0000000E+00;  0.0000000E+00;  0.0000000E+00;  0.0000000E+00;
  2.1800001E+00;  9.9999998E-03;  1.2000000E-01;947;  0.0000000E+00;  0.0000000E+00;  0.0000000E+00;  1.0000000E+03;  4.0000001E-01;  0.0000000E+00;0;  0.0000000E+00;  0.0000000E+00;  0.0000000E+00;0;  0.0000000E+00;  1.0000000E+04;  0.0000000E+00;  0.0000000E+00;  1.0000000E+04;  0.0000000E+00;  1.0000000E+04;  0.0000000E+00;  0.0000000E+00;  0.0000000E+00;  0.0000000E+00;
  2.1800001E+00;  9.9999998E-03;  1.4000000E-01;948;  0.0000000E+00;  0.0000000E+00;  0.0000000E+00;  1.0000000E+03;  4.0000001E-01;  0.0000000E+00;0;  0.0000000E+00;  0.0000000E+00;  0.0000000E+00;0;  0.0000000E+00;  1.0000000E+04;  0.0000000E+00;  0.0000000E+00;  1.0000000E+04;  0.0000000E+00;  1.0000000E+04;  0.0000000E+00;  0.0000000E+00;  0.0000000E+00;  0.0000000E+00;
  2.1800001E+00;  9.9999998E-03;  1.6000000E-01;949;  0.0000000E+00;  0.0000000E+00;  0.0000000E+00;  1.0000000E+03;  4.0000001E-01;  0.0000000E+00;0;  0.0000000E+00;  0.0000000E+00;  0.0000000E+00;0;  0.0000000E+00;  1.0000000E+04;  0.0000000E+00;  0.0000000E+00;  1.0000000E+04;  0.0000000E+00;  1.0000000E+04;  0.0000000E+00;  0.0000000E+00;  0.0000000E+00;  0.0000000E+00;
  2.1800001E+00;  9.9999998E-03;  1.8000001E-01;950;  0.0000000E+00;  0.0000000E+00;  0.0000000E+00;  1.0000000E+03;  4.0000001E-01;  0.0000000E+00;0;  0.0000000E+00;  0.0000000E+00;  0.0000000E+00;0;  0.0000000E+00;  1.0000000E+04;  0.0000000E+00;  0.0000000E+00;  1.0000000E+04;  0.0000000E+00;  1.0000000E+04;  0.0000000E+00;  0.0000000E+00;  0.0000000E+00;  0.0000000E+00;
  2.1800001E+00;  9.9999998E-03;  2.0000000E-01;951;  0.0000000E+00;  0.0000000E+00;  0.0000000E+00;  1.0000000E+03;  4.0000001E-01;  0.0000000E+00;0;  0.0000000E+00;  0.0000000E+00;  0.0000000E+00;0;  0.0000000E+00;  1.0000000E+04;  0.0000000E+00;  0.0000000E+00;  1.0000000E+04;  0.0000000E+00;  1.0000000E+04;  0.0000000E+00;  0.0000000E+00;  0.0000000E+00;  0.0000000E+00;
  2.1800001E+00;  9.9999998E-03;  2.2000000E-01;952;  0.0000000E+00;  0.0000000E+00;  0.0000000E+00;  1.0000000E+03;  4.0000001E-01;  0.0000000E+00;0;  0.0000000E+00;  0.0000000E+00;  0.0000000E+00;0;  0.0000000E+00;  1.0000000E+04;  0.0000000E+00;  0.0000000E+00;  1.0000000E+04;  0.0000000E+00;  1.0000000E+04;  0.0000000E+00;  0.0000000E+00;  0.0000000E+00;  0.0000000E+00;
  2.1800001E+00;  9.9999998E-03;  2.3999999E-01;953;  0.0000000E+00;  0.0000000E+00;  0.0000000E+00;  1.0000000E+03;  4.0000001E-01;  0.0000000E+00;0;  0.0000000E+00;  0.0000000E+00;  0.0000000E+00;0;  0.0000000E+00;  1.0000000E+04;  0.0000000E+00;  0.0000000E+00;  1.0000000E+04;  0.0000000E+00;  1.0000000E+04;  0.0000000E+00;  0.0000000E+00;  0.0000000E+00;  0.0000000E+00;
  2.1800001E+00;  9.9999998E-03;  2.5999999E-01;954;  0.0000000E+00;  0.0000000E+00;  0.0000000E+00;  1.0000000E+03;  4.0000001E-01;  0.0000000E+00;0;  0.0000000E+00;  0.0000000E+00;  0.0000000E+00;0;  0.0000000E+00;  1.0000000E+04;  0.0000000E+00;  0.0000000E+00;  1.0000000E+04;  0.0000000E+00;  1.0000000E+04;  0.0000000E+00;  0.0000000E+00;  0.0000000E+00;  0.0000000E+00;
  2.1800001E+00;  9.9999998E-03;  2.8000000E-01;955;  0.0000000E+00;  0.0000000E+00;  0.0000000E+00;  1.0000000E+03;  4.0000001E-01;  0.0000000E+00;0;  0.0000000E+00;  0.0000000E+00;  0.0000000E+00;0;  0.0000000E+00;  1.0000000E+04;  0.0000000E+00;  0.0000000E+00;  1.0000000E+04;  0.0000000E+00;  1.0000000E+04;  0.0000000E+00;  0.0000000E+00;  0.0000000E+00;  0.0000000E+00;
  2.1800001E+00;  9.9999998E-03;  3.0000001E-01;956;  0.0000000E+00;  0.0000000E+00;  0.0000000E+00;  1.0000000E+03;  4.0000001E-01;  0.0000000E+00;0;  0.0000000E+00;  0.0000000E+00;  0.0000000E+00;0;  0.0000000E+00;  1.0000000E+04;  0.0000000E+00;  0.0000000E+00;  1.0000000E+04;  0.0000000E+00;  1.0000000E+04;  0.0000000E+00;  0.0000000E+00;  0.0000000E+00;  0.0000000E+00;
  2.1800001E+00;  9.9999998E-03;  3.1999999E-01;957;  0.0000000E+00;  0.0000000E+00;  0.0000000E+00;  1.0000000E+03;  4.0000001E-01;  0.0000000E+00;0;  0.0000000E+00;  0.0000000E+00;  0.0000000E+00;0;  0.0000000E+00;  1.0000000E+04;  0.0000000E+00;  0.0000000E+00;  1.0000000E+04;  0.0000000E+00;  1.0000000E+04;  0.0000000E+00;  0.0000000E+00;  0.0000000E+00;  0.0000000E+00;
  2.1800001E+00;  9.9999998E-03;  3.4000000E-01;958;  0.0000000E+00;  0.0000000E+00;  0.0000000E+00;  1.0000000E+03;  4.0000001E-01;  0.0000000E+00;0;  0.0000000E+00;  0.0000000E+00;  0.0000000E+00;0;  0.0000000E+00;  1.0000000E+04;  0.0000000E+00;  0.0000000E+00;  1.0000000E+04;  0.0000000E+00;  1.0000000E+04;  0.0000000E+00;  0.0000000E+00;  0.0000000E+00;  0.0000000E+00;
  2.1800001E+00;  9.9999998E-03;  3.6000001E-01;959;  0.0000000E+00;  0.0000000E+00;  0.0000000E+00;  1.0000000E+03;  4.0000001E-01;  0.0000000E+00;0;  0.0000000E+00;  0.0000000E+00;  0.0000000E+00;0;  0.0000000E+00;  1.0000000E+04;  0.0000000E+00;  0.0000000E+00;  1.0000000E+04;  0.0000000E+00;  1.0000000E+04;  0.0000000E+00;  0.0000000E+00;  0.0000000E+00;  0.0000000E+00;
  2.1800001E+00;  9.9999998E-03;  3.8000000E-01;960;  0.0000000E+00;  0.0000000E+00;  0.0000000E+00;  1.0000000E+03;  4.0000001E-01;  0.0000000E+00;0;  0.0000000E+00;  0.0000000E+00;  0.0000000E+00;0;  0.0000000E+00;  1.0000000E+04;  0.0000000E+00;  0.0000000E+00;  1.0000000E+04;  0.0000000E+00;  1.0000000E+04;  0.0000000E+00;  0.0000000E+00;  0.0000000E+00;  0.0000000E+00;
  2.1800001E+00;  9.9999998E-03;  4.0000001E-01;961;  0.0000000E+00;  0.0000000E+00;  0.0000000E+00;  1.0000000E+03;  4.0000001E-01;  0.0000000E+00;0;  0.0000000E+00;  0.0000000E+00;  0.0000000E+00;0;  0.0000000E+00;  1.0000000E+04;  0.0000000E+00;  0.0000000E+00;  1.0000000E+04;  0.0000000E+00;  1.0000000E+04;  0.0000000E+00;  0.0000000E+00;  0.0000000E+00;  0.0000000E+00;
  2.2000000E+00;  9.9999998E-03; -7.9999998E-02;962;  0.0000000E+00;  0.0000000E+00;  0.0000000E+00;  1.0000000E+03;  4.0000001E-01;  0.0000000E+00;0;  0.0000000E+00;  0.0000000E+00;  0.0000000E+00;0;  0.0000000E+00;  1.0000000E+04;  0.0000000E+00;  0.0000000E+00;  1.0000000E+04;  0.0000000E+00;  1.0000000E+04;  0.0000000E+00;  0.0000000E+00;  0.0000000E+00;  0.0000000E+00;
  2.2000000E+00;  9.9999998E-03; -5.9999999E-02;963;  0.0000000E+00;  0.0000000E+00;  0.0000000E+00;  1.0000000E+03;  4.0000001E-01;  0.0000000E+00;0;  0.0000000E+00;  0.0000000E+00;  0.0000000E+00;0;  0.0000000E+00;  1.0000000E+04;  0.0000000E+00;  0.0000000E+00;  1.0000000E+04;  0.0000000E+00;  1.0000000E+04;  0.0000000E+00;  0.0000000E+00;  0.0000000E+00;  0.0000000E+00;
  2.2000000E+00;  9.9999998E-03; -3.9999999E-02;964;  0.0000000E+00;  0.0000000E+00;  0.0000000E+00;  1.0000000E+03;  4.0000001E-01;  0.0000000E+00;0;  0.0000000E+00;  0.0000000E+00;  0.0000000E+00;0;  0.0000000E+00;  1.0000000E+04;  0.0000000E+00;  0.0000000E+00;  1.0000000E+04;  0.0000000E+00;  1.0000000E+04;  0.0000000E+00;  0.0000000E+00;  0.0000000E+00;  0.0000000E+00;
  2.2000000E+00;  9.9999998E-03; -2.0000000E-02;965;  0.0000000E+00;  0.0000000E+00;  0.0000000E+00;  1.0000000E+03;  4.0000001E-01;  0.0000000E+00;0;  0.0000000E+00;  0.0000000E+00;  0.0000000E+00;0;  0.0000000E+00;  1.0000000E+04;  0.0000000E+00;  0.0000000E+00;  1.0000000E+04;  0.0000000E+00;  1.0000000E+04;  0.0000000E+00;  0.0000000E+00;  0.0000000E+00;  0.0000000E+00;
  2.2000000E+00;  9.9999998E-03;  0.0000000E+00;966;  0.0000000E+00;  0.0000000E+00;  0.0000000E+00;  1.0000000E+03;  4.0000001E-01;  0.0000000E+00;0;  0.0000000E+00;  0.0000000E+00;  0.0000000E+00;0;  0.0000000E+00;  1.0000000E+04;  0.0000000E+00;  0.0000000E+00;  1.0000000E+04;  0.0000000E+00;  1.0000000E+04;  0.0000000E+00;  0.0000000E+00;  0.0000000E+00;  0.0000000E+00;
  2.2000000E+00;  9.9999998E-03;  2.0000000E-02;967;  0.0000000E+00;  0.0000000E+00;  0.0000000E+00;  1.0000000E+03;  4.0000001E-01;  0.0000000E+00;0;  0.0000000E+00;  0.0000000E+00;  0.0000000E+00;0;  0.0000000E+00;  1.0000000E+04;  0.0000000E+00;  0.0000000E+00;  1.0000000E+04;  0.0000000E+00;  1.0000000E+04;  0.0000000E+00;  0.0000000E+00;  0.0000000E+00;  0.0000000E+00;
  2.2000000E+00;  9.9999998E-03;  3.9999999E-02;968;  0.0000000E+00;  0.0000000E+00;  0.0000000E+00;  1.0000000E+03;  4.0000001E-01;  0.0000000E+00;0;  0.0000000E+00;  0.0000000E+00;  0.0000000E+00;0;  0.0000000E+00;  1.0000000E+04;  0.0000000E+00;  0.0000000E+00;  1.0000000E+04;  0.0000000E+00;  1.0000000E+04;  0.0000000E+00;  0.0000000E+00;  0.0000000E+00;  0.0000000E+00;
  2.2000000E+00;  9.9999998E-03;  5.9999999E-02;969;  0.0000000E+00;  0.0000000E+00;  0.0000000E+00;  1.0000000E+03;  4.0000001E-01;  0.0000000E+00;0;  0.0000000E+00;  0.0000000E+00;  0.0000000E+00;0;  0.0000000E+00;  1.0000000E+04;  0.0000000E+00;  0.0000000E+00;  1.0000000E+04;  0.0000000E+00;  1.0000000E+04;  0.0000000E+00;  0.0000000E+00;  0.0000000E+00;  0.0000000E+00;
  2.2000000E+00;  9.9999998E-03;  7.9999998E-02;970;  0.0000000E+00;  0.0000000E+00;  0.0000000E+00;  1.0000000E+03;  4.0000001E-01;  0.0000000E+00;0;  0.0000000E+00;  0.0000000E+00;  0.0000000E+00;0;  0.0000000E+00;  1.0000000E+04;  0.0000000E+00;  0.0000000E+00;  1.0000000E+04;  0.0000000E+00;  1.0000000E+04;  0.0000000E+00;  0.0000000E+00;  0.0000000E+00;  0.0000000E+00;
  2.2000000E+00;  9.9999998E-03;  1.0000000E-01;971;  0.0000000E+00;  0.0000000E+00;  0.0000000E+00;  1.0000000E+03;  4.0000001E-01;  0.0000000E+00;0;  0.0000000E+00;  0.0000000E+00;  0.0000000E+00;0;  0.0000000E+00;  1.0000000E+04;  0.0000000E+00;  0.0000000E+00;  1.0000000E+04;  0.0000000E+00;  1.0000000E+04;  0.0000000E+00;  0.0000000E+00;  0.0000000E+00;  0.0000000E+00;
  2.2000000E+00;  9.9999998E-03;  1.2000000E-01;972;  0.0000000E+00;  0.0000000E+00;  0.0000000E+00;  1.0000000E+03;  4.0000001E-01;  0.0000000E+00;0;  0.0000000E+00;  0.0000000E+00;  0.0000000E+00;0;  0.0000000E+00;  1.0000000E+04;  0.0000000E+00;  0.0000000E+00;  1.0000000E+04;  0.0000000E+00;  1.0000000E+04;  0.0000000E+00;  0.0000000E+00;  0.0000000E+00;  0.0000000E+00;
  2.2000000E+00;  9.9999998E-03;  1.4000000E-01;973;  0.0000000E+00;  0.0000000E+00;  0.0000000E+00;  1.0000000E+03;  4.0000001E-01;  0.0000000E+00;0;  0.0000000E+00;  0.0000000E+00;  0.0000000E+00;0;  0.0000000E+00;  1.0000000E+04;  0.0000000E+00;  0.0000000E+00;  1.0000000E+04;  0.0000000E+00;  1.0000000E+04;  0.0000000E+00;  0.0000000E+00;  0.0000000E+00;  0.0000000E+00;
  2.2000000E+00;  9.9999998E-03;  1.6000000E-01;974;  0.0000000E+00;  0.0000000E+00;  0.0000000E+00;  1.0000000E+03;  4.0000001E-01;  0.0000000E+00;0;  0.0000000E+00;  0.0000000E+00;  0.0000000E+00;0;  0.0000000E+00;  1.0000000E+04;  0.0000000E+00;  0.0000000E+00;  1.0000000E+04;  0.0000000E+00;  1.0000000E+04;  0.0000000E+00;  0.0000000E+00;  0.0000000E+00;  0.0000000E+00;
  2.2000000E+00;  9.9999998E-03;  1.8000001E-01;975;  0.0000000E+00;  0.0000000E+00;  0.0000000E+00;  1.0000000E+03;  4.0000001E-01;  0.0000000E+00;0;  0.0000000E+00;  0.0000000E+00;  0.0000000E+00;0;  0.0000000E+00;  1.0000000E+04;  0.0000000E+00;  0.0000000E+00;  1.0000000E+04;  0.0000000E+00;  1.0000000E+04;  0.0000000E+00;  0.0000000E+00;  0.0000000E+00;  0.0000000E+00;
  2.2000000E+00;  9.9999998E-03;  2.0000000E-01;976;  0.0000000E+00;  0.0000000E+00;  0.0000000E+00;  1.0000000E+03;  4.0000001E-01;  0.0000000E+00;0;  0.0000000E+00;  0.0000000E+00;  0.0000000E+00;0;  0.0000000E+00;  1.0000000E+04;  0.0000000E+00;  0.0000000E+00;  1.0000000E+04;  0.0000000E+00;  1.0000000E+04;  0.0000000E+00;  0.0000000E+00;  0.0000000E+00;  0.0000000E+00;
  2.2000000E+00;  9.9999998E-03;  2.2000000E-01;977;  0.0000000E+00;  0.0000000E+00;  0.0000000E+00;  1.0000000E+03;  4.0000001E-01;  0.0000000E+00;0;  0.0000000E+00;  0.0000000E+00;  0.0000000E+00;0;  0.0000000E+00;  1.0000000E+04;  0.0000000E+00;  0.0000000E+00;  1.0000000E+04;  0.0000000E+00;  1.0000000E+04;  0.0000000E+00;  0.0000000E+00;  0.0000000E+00;  0.0000000E+00;
  2.2000000E+00;  9.9999998E-03;  2.3999999E-01;978;  0.0000000E+00;  0.0000000E+00;  0.0000000E+00;  1.0000000E+03;  4.0000001E-01;  0.0000000E+00;0;  0.0000000E+00;  0.0000000E+00;  0.0000000E+00;0;  0.0000000E+00;  1.0000000E+04;  0.0000000E+00;  0.0000000E+00;  1.0000000E+04;  0.0000000E+00;  1.0000000E+04;  0.0000000E+00;  0.0000000E+00;  0.0000000E+00;  0.0000000E+00;
  2.2000000E+00;  9.9999998E-03;  2.5999999E-01;979;  0.0000000E+00;  0.0000000E+00;  0.0000000E+00;  1.0000000E+03;  4.0000001E-01;  0.0000000E+00;0;  0.0000000E+00;  0.0000000E+00;  0.0000000E+00;0;  0.0000000E+00;  1.0000000E+04;  0.0000000E+00;  0.0000000E+00;  1.0000000E+04;  0.0000000E+00;  1.0000000E+04;  0.0000000E+00;  0.0000000E+00;  0.0000000E+00;  0.0000000E+00;
  2.2000000E+00;  9.9999998E-03;  2.8000000E-01;980;  0.0000000E+00;  0.0000000E+00;  0.0000000E+00;  1.0000000E+03;  4.0000001E-01;  0.0000000E+00;0;  0.0000000E+00;  0.0000000E+00;  0.0000000E+00;0;  0.0000000E+00;  1.0000000E+04;  0.0000000E+00;  0.0000000E+00;  1.0000000E+04;  0.0000000E+00;  1.0000000E+04;  0.0000000E+00;  0.0000000E+00;  0.0000000E+00;  0.0000000E+00;
  2.2000000E+00;  9.9999998E-03;  3.0000001E-01;981;  0.0000000E+00;  0.0000000E+00;  0.0000000E+00;  1.0000000E+03;  4.0000001E-01;  0.0000000E+00;0;  0.0000000E+00;  0.0000000E+00;  0.0000000E+00;0;  0.0000000E+00;  1.0000000E+04;  0.0000000E+00;  0.0000000E+00;  1.0000000E+04;  0.0000000E+00;  1.0000000E+04;  0.0000000E+00;  0.0000000E+00;  0.0000000E+00;  0.0000000E+00;
  2.2000000E+00;  9.9999998E-03;  3.1999999E-01;982;  0.0000000E+00;  0.0000000E+00;  0.0000000E+00;  1.0000000E+03;  4.0000001E-01;  0.0000000E+00;0;  0.0000000E+00;  0.0000000E+00;  0.0000000E+00;0;  0.0000000E+00;  1.0000000E+04;  0.0000000E+00;  0.0000000E+00;  1.0000000E+04;  0.0000000E+00;  1.0000000E+04;  0.0000000E+00;  0.0000000E+00;  0.0000000E+00;  0.0000000E+00;
  2.2000000E+00;  9.9999998E-03;  3.4000000E-01;983;  0.0000000E+00;  0.0000000E+00;  0.0000000E+00;  1.0000000E+03;  4.0000001E-01;  0.0000000E+00;0;  0.0000000E+00;  0.0000000E+00;  0.0000000E+00;0;  0.0000000E+00;  1.0000000E+04;  0.0000000E+00;  0.0000000E+00;  1.0000000E+04;  0.0000000E+00;  1.0000000E+04;  0.0000000E+00;  0.0000000E+00;  0.0000000E+00;  0.0000000E+00;
  2.2000000E+00;  9.9999998E-03;  3.6000001E-01;984;  0.0000000E+00;  0.0000000E+00;  0.0000000E+00;  1.0000000E+03;  4.0000001E-01;  0.0000000E+00;0;  0.0000000E+00;  0.0000000E+00;  0.0000000E+00;0;  0.0000000E+00;  1.0000000E+04;  0.0000000E+00;  0.0000000E+00;  1.0000000E+04;  0.0000000E+00;  1.0000000E+04;  0.0000000E+00;  0.0000000E+00;  0.0000000E+00;  0.0000000E+00;
  2.2000000E+00;  9.9999998E-03;  3.8000000E-01;985;  0.0000000E+00;  0.0000000E+00;  0.0000000E+00;  1.0000000E+03;  4.0000001E-01;  0.0000000E+00;0;  0.0000000E+00;  0.0000000E+00;  0.0000000E+00;0;  0.0000000E+00;  1.0000000E+04;  0.0000000E+00;  0.0000000E+00;  1.0000000E+04;  0.0000000E+00;  1.0000000E+04;  0.0000000E+00;  0.0000000E+00;  0.0000000E+00;  0.0000000E+00;
  2.2200000E+00;  9.9999998E-03;  2.0000000E-02;986;  0.0000000E+00;  0.0000000E+00;  0.0000000E+00;  1.0000000E+03;  4.0000001E-01;  0.0000000E+00;0;  0.0000000E+00;  0.0000000E+00;  0.0000000E+00;0;  0.0000000E+00;  1.0000000E+04;  0.0000000E+00;  0.0000000E+00;  1.0000000E+04;  0.0000000E+00;  1.0000000E+04;  0.0000000E+00;  0.0000000E+00;  0.0000000E+00;  0.0000000E+00;
  2.2200000E+00;  9.9999998E-03;  3.9999999E-02;987;  0.0000000E+00;  0.0000000E+00;  0.0000000E+00;  1.0000000E+03;  4.0000001E-01;  0.0000000E+00;0;  0.0000000E+00;  0.0000000E+00;  0.0000000E+00;0;  0.0000000E+00;  1.0000000E+04;  0.0000000E+00;  0.0000000E+00;  1.0000000E+04;  0.0000000E+00;  1.0000000E+04;  0.0000000E+00;  0.0000000E+00;  0.0000000E+00;  0.0000000E+00;
  2.2200000E+00;  9.9999998E-03;  5.9999999E-02;988;  0.0000000E+00;  0.0000000E+00;  0.0000000E+00;  1.0000000E+03;  4.0000001E-01;  0.0000000E+00;0;  0.0000000E+00;  0.0000000E+00;  0.0000000E+00;0;  0.0000000E+00;  1.0000000E+04;  0.0000000E+00;  0.0000000E+00;  1.0000000E+04;  0.0000000E+00;  1.0000000E+04;  0.0000000E+00;  0.0000000E+00;  0.0000000E+00;  0.0000000E+00;
  2.2200000E+00;  9.9999998E-03;  7.9999998E-02;989;  0.0000000E+00;  0.0000000E+00;  0.0000000E+00;  1.0000000E+03;  4.0000001E-01;  0.0000000E+00;0;  0.0000000E+00;  0.0000000E+00;  0.0000000E+00;0;  0.0000000E+00;  1.0000000E+04;  0.0000000E+00;  0.0000000E+00;  1.0000000E+04;  0.0000000E+00;  1.0000000E+04;  0.0000000E+00;  0.0000000E+00;  0.0000000E+00;  0.0000000E+00;
  2.2200000E+00;  9.9999998E-03;  1.0000000E-01;990;  0.0000000E+00;  0.0000000E+00;  0.0000000E+00;  1.0000000E+03;  4.0000001E-01;  0.0000000E+00;0;  0.0000000E+00;  0.0000000E+00;  0.0000000E+00;0;  0.0000000E+00;  1.0000000E+04;  0.0000000E+00;  0.0000000E+00;  1.0000000E+04;  0.0000000E+00;  1.0000000E+04;  0.0000000E+00;  0.0000000E+00;  0.0000000E+00;  0.0000000E+00;
  2.2200000E+00;  9.9999998E-03;  1.2000000E-01;991;  0.0000000E+00;  0.0000000E+00;  0.0000000E+00;  1.0000000E+03;  4.0000001E-01;  0.0000000E+00;0;  0.0000000E+00;  0.0000000E+00;  0.0000000E+00;0;  0.0000000E+00;  1.0000000E+04;  0.0000000E+00;  0.0000000E+00;  1.0000000E+04;  0.0000000E+00;  1.0000000E+04;  0.0000000E+00;  0.0000000E+00;  0.0000000E+00;  0.0000000E+00;
  2.2200000E+00;  9.9999998E-03;  1.4000000E-01;992;  0.0000000E+00;  0.0000000E+00;  0.0000000E+00;  1.0000000E+03;  4.0000001E-01;  0.0000000E+00;0;  0.0000000E+00;  0.0000000E+00;  0.0000000E+00;0;  0.0000000E+00;  1.0000000E+04;  0.0000000E+00;  0.0000000E+00;  1.0000000E+04;  0.0000000E+00;  1.0000000E+04;  0.0000000E+00;  0.0000000E+00;  0.0000000E+00;  0.0000000E+00;
  2.2200000E+00;  9.9999998E-03;  1.6000000E-01;993;  0.0000000E+00;  0.0000000E+00;  0.0000000E+00;  1.0000000E+03;  4.0000001E-01;  0.0000000E+00;0;  0.0000000E+00;  0.0000000E+00;  0.0000000E+00;0;  0.0000000E+00;  1.0000000E+04;  0.0000000E+00;  0.0000000E+00;  1.0000000E+04;  0.0000000E+00;  1.0000000E+04;  0.0000000E+00;  0.0000000E+00;  0.0000000E+00;  0.0000000E+00;
  2.2200000E+00;  9.9999998E-03;  1.8000001E-01;994;  0.0000000E+00;  0.0000000E+00;  0.0000000E+00;  1.0000000E+03;  4.0000001E-01;  0.0000000E+00;0;  0.0000000E+00;  0.0000000E+00;  0.0000000E+00;0;  0.0000000E+00;  1.0000000E+04;  0.0000000E+00;  0.0000000E+00;  1.0000000E+04;  0.0000000E+00;  1.0000000E+04;  0.0000000E+00;  0.0000000E+00;  0.0000000E+00;  0.0000000E+00;
  2.2200000E+00;  9.9999998E-03;  2.0000000E-01;995;  0.0000000E+00;  0.0000000E+00;  0.0000000E+00;  1.0000000E+03;  4.0000001E-01;  0.0000000E+00;0;  0.0000000E+00;  0.0000000E+00;  0.0000000E+00;0;  0.0000000E+00;  1.0000000E+04;  0.0000000E+00;  0.0000000E+00;  1.0000000E+04;  0.0000000E+00;  1.0000000E+04;  0.0000000E+00;  0.0000000E+00;  0.0000000E+00;  0.0000000E+00;
  2.2200000E+00;  9.9999998E-03;  2.2000000E-01;996;  0.0000000E+00;  0.0000000E+00;  0.0000000E+00;  1.0000000E+03;  4.0000001E-01;  0.0000000E+00;0;  0.0000000E+00;  0.0000000E+00;  0.0000000E+00;0;  0.0000000E+00;  1.0000000E+04;  0.0000000E+00;  0.0000000E+00;  1.0000000E+04;  0.0000000E+00;  1.0000000E+04;  0.0000000E+00;  0.0000000E+00;  0.0000000E+00;  0.0000000E+00;
  2.2200000E+00;  9.9999998E-03;  2.3999999E-01;997;  0.0000000E+00;  0.0000000E+00;  0.0000000E+00;  1.0000000E+03;  4.0000001E-01;  0.0000000E+00;0;  0.0000000E+00;  0.0000000E+00;  0.0000000E+00;0;  0.0000000E+00;  1.0000000E+04;  0.0000000E+00;  0.0000000E+00;  1.0000000E+04;  0.0000000E+00;  1.0000000E+04;  0.0000000E+00;  0.0000000E+00;  0.0000000E+00;  0.0000000E+00;
  2.2200000E+00;  9.9999998E-03;  2.5999999E-01;998;  0.0000000E+00;  0.0000000E+00;  0.0000000E+00;  1.0000000E+03;  4.0000001E-01;  0.0000000E+00;0;  0.0000000E+00;  0.0000000E+00;  0.0000000E+00;0;  0.0000000E+00;  1.0000000E+04;  0.0000000E+00;  0.0000000E+00;  1.0000000E+04;  0.0000000E+00;  1.0000000E+04;  0.0000000E+00;  0.0000000E+00;  0.0000000E+00;  0.0000000E+00;
  2.2200000E+00;  9.9999998E-03;  2.8000000E-01;999;  0.0000000E+00;  0.0000000E+00;  0.0000000E+00;  1.0000000E+03;  4.0000001E-01;  0.0000000E+00;0;  0.0000000E+00;  0.0000000E+00;  0.0000000E+00;0;  0.0000000E+00;  1.0000000E+04;  0.0000000E+00;  0.0000000E+00;  1.0000000E+04;  0.0000000E+00;  1.0000000E+04;  0.0000000E+00;  0.0000000E+00;  0.0000000E+00;  0.0000000E+00;
  2.2200000E+00;  9.9999998E-03;  3.0000001E-01;1000;  0.0000000E+00;  0.0000000E+00;  0.0000000E+00;  1.0000000E+03;  4.0000001E-01;  0.0000000E+00;0;  0.0000000E+00;  0.0000000E+00;  0.0000000E+00;0;  0.0000000E+00;  1.0000000E+04;  0.0000000E+00;  0.0000000E+00;  1.0000000E+04;  0.0000000E+00;  1.0000000E+04;  0.0000000E+00;  0.0000000E+00;  0.0000000E+00;  0.0000000E+00;
  2.2200000E+00;  9.9999998E-03;  3.1999999E-01;1001;  0.0000000E+00;  0.0000000E+00;  0.0000000E+00;  1.0000000E+03;  4.0000001E-01;  0.0000000E+00;0;  0.0000000E+00;  0.0000000E+00;  0.0000000E+00;0;  0.0000000E+00;  1.0000000E+04;  0.0000000E+00;  0.0000000E+00;  1.0000000E+04;  0.0000000E+00;  1.0000000E+04;  0.0000000E+00;  0.0000000E+00;  0.0000000E+00;  0.0000000E+00;
  2.2200000E+00;  9.9999998E-03;  3.4000000E-01;1002;  0.0000000E+00;  0.0000000E+00;  0.0000000E+00;  1.0000000E+03;  4.0000001E-01;  0.0000000E+00;0;  0.0000000E+00;  0.0000000E+00;  0.0000000E+00;0;  0.0000000E+00;  1.0000000E+04;  0.0000000E+00;  0.0000000E+00;  1.0000000E+04;  0.0000000E+00;  1.0000000E+04;  0.0000000E+00;  0.0000000E+00;  0.0000000E+00;  0.0000000E+00;
  2.2200000E+00;  9.9999998E-03;  3.6000001E-01;1003;  0.0000000E+00;  0.0000000E+00;  0.0000000E+00;  1.0000000E+03;  4.0000001E-01;  0.0000000E+00;0;  0.0000000E+00;  0.0000000E+00;  0.0000000E+00;0;  0.0000000E+00;  1.0000000E+04;  0.0000000E+00;  0.0000000E+00;  1.0000000E+04;  0.0000000E+00;  1.0000000E+04;  0.0000000E+00;  0.0000000E+00;  0.0000000E+00;  0.0000000E+00;
  2.2200000E+00;  9.9999998E-03;  3.8000000E-01;1004;  0.0000000E+00;  0.0000000E+00;  0.0000000E+00;  1.0000000E+03;  4.0000001E-01;  0.0000000E+00;0;  0.0000000E+00;  0.0000000E+00;  0.0000000E+00;0;  0.0000000E+00;  1.0000000E+04;  0.0000000E+00;  0.0000000E+00;  1.0000000E+04;  0.0000000E+00;  1.0000000E+04;  0.0000000E+00;  0.0000000E+00;  0.0000000E+00;  0.0000000E+00;
  2.2400000E+00;  9.9999998E-03;  1.2000000E-01;1005;  0.0000000E+00;  0.0000000E+00;  0.0000000E+00;  1.0000000E+03;  4.0000001E-01;  0.0000000E+00;0;  0.0000000E+00;  0.0000000E+00;  0.0000000E+00;0;  0.0000000E+00;  1.0000000E+04;  0.0000000E+00;  0.0000000E+00;  1.0000000E+04;  0.0000000E+00;  1.0000000E+04;  0.0000000E+00;  0.0000000E+00;  0.0000000E+00;  0.0000000E+00;
  2.2400000E+00;  9.9999998E-03;  1.4000000E-01;1006;  0.0000000E+00;  0.0000000E+00;  0.0000000E+00;  1.0000000E+03;  4.0000001E-01;  0.0000000E+00;0;  0.0000000E+00;  0.0000000E+00;  0.0000000E+00;0;  0.0000000E+00;  1.0000000E+04;  0.0000000E+00;  0.0000000E+00;  1.0000000E+04;  0.0000000E+00;  1.0000000E+04;  0.0000000E+00;  0.0000000E+00;  0.0000000E+00;  0.0000000E+00;
  2.2400000E+00;  9.9999998E-03;  1.6000000E-01;1007;  0.0000000E+00;  0.0000000E+00;  0.0000000E+00;  1.0000000E+03;  4.0000001E-01;  0.0000000E+00;0;  0.0000000E+00;  0.0000000E+00;  0.0000000E+00;0;  0.0000000E+00;  1.0000000E+04;  0.0000000E+00;  0.0000000E+00;  1.0000000E+04;  0.0000000E+00;  1.0000000E+04;  0.0000000E+00;  0.0000000E+00;  0.0000000E+00;  0.0000000E+00;
  2.2400000E+00;  9.9999998E-03;  1.8000001E-01;1008;  0.0000000E+00;  0.0000000E+00;  0.0000000E+00;  1.0000000E+03;  4.0000001E-01;  0.0000000E+00;0;  0.0000000E+00;  0.0000000E+00;  0.0000000E+00;0;  0.0000000E+00;  1.0000000E+04;  0.0000000E+00;  0.0000000E+00;  1.0000000E+04;  0.0000000E+00;  1.0000000E+04;  0.0000000E+00;  0.0000000E+00;  0.0000000E+00;  0.0000000E+00;
  2.2400000E+00;  9.9999998E-03;  2.0000000E-01;1009;  0.0000000E+00;  0.0000000E+00;  0.0000000E+00;  1.0000000E+03;  4.0000001E-01;  0.0000000E+00;0;  0.0000000E+00;  0.0000000E+00;  0.0000000E+00;0;  0.0000000E+00;  1.0000000E+04;  0.0000000E+00;  0.0000000E+00;  1.0000000E+04;  0.0000000E+00;  1.0000000E+04;  0.0000000E+00;  0.0000000E+00;  0.0000000E+00;  0.0000000E+00;
  2.2400000E+00;  9.9999998E-03;  2.2000000E-01;1010;  0.0000000E+00;  0.0000000E+00;  0.0000000E+00;  1.0000000E+03;  4.0000001E-01;  0.0000000E+00;0;  0.0000000E+00;  0.0000000E+00;  0.0000000E+00;0;  0.0000000E+00;  1.0000000E+04;  0.0000000E+00;  0.0000000E+00;  1.0000000E+04;  0.0000000E+00;  1.0000000E+04;  0.0000000E+00;  0.0000000E+00;  0.0000000E+00;  0.0000000E+00;
  2.2400000E+00;  9.9999998E-03;  2.3999999E-01;1011;  0.0000000E+00;  0.0000000E+00;  0.0000000E+00;  1.0000000E+03;  4.0000001E-01;  0.0000000E+00;0;  0.0000000E+00;  0.0000000E+00;  0.0000000E+00;0;  0.0000000E+00;  1.0000000E+04;  0.0000000E+00;  0.0000000E+00;  1.0000000E+04;  0.0000000E+00;  1.0000000E+04;  0.0000000E+00;  0.0000000E+00;  0.0000000E+00;  0.0000000E+00;
  2.2400000E+00;  9.9999998E-03;  2.5999999E-01;1012;  0.0000000E+00;  0.0000000E+00;  0.0000000E+00;  1.0000000E+03;  4.0000001E-01;  0.0000000E+00;0;  0.0000000E+00;  0.0000000E+00;  0.0000000E+00;0;  0.0000000E+00;  1.0000000E+04;  0.0000000E+00;  0.0000000E+00;  1.0000000E+04;  0.0000000E+00;  1.0000000E+04;  0.0000000E+00;  0.0000000E+00;  0.0000000E+00;  0.0000000E+00;
  2.2400000E+00;  9.9999998E-03;  2.8000000E-01;1013;  0.0000000E+00;  0.0000000E+00;  0.0000000E+00;  1.0000000E+03;  4.0000001E-01;  0.0000000E+00;0;  0.0000000E+00;  0.0000000E+00;  0.0000000E+00;0;  0.0000000E+00;  1.0000000E+04;  0.0000000E+00;  0.0000000E+00;  1.0000000E+04;  0.0000000E+00;  1.0000000E+04;  0.0000000E+00;  0.0000000E+00;  0.0000000E+00;  0.0000000E+00;
  2.2400000E+00;  9.9999998E-03;  3.0000001E-01;1014;  0.0000000E+00;  0.0000000E+00;  0.0000000E+00;  1.0000000E+03;  4.0000001E-01;  0.0000000E+00;0;  0.0000000E+00;  0.0000000E+00;  0.0000000E+00;0;  0.0000000E+00;  1.0000000E+04;  0.0000000E+00;  0.0000000E+00;  1.0000000E+04;  0.0000000E+00;  1.0000000E+04;  0.0000000E+00;  0.0000000E+00;  0.0000000E+00;  0.0000000E+00;
  2.2400000E+00;  9.9999998E-03;  3.1999999E-01;1015;  0.0000000E+00;  0.0000000E+00;  0.0000000E+00;  1.0000000E+03;  4.0000001E-01;  0.0000000E+00;0;  0.0000000E+00;  0.0000000E+00;  0.0000000E+00;0;  0.0000000E+00;  1.0000000E+04;  0.0000000E+00;  0.0000000E+00;  1.0000000E+04;  0.0000000E+00;  1.0000000E+04;  0.0000000E+00;  0.0000000E+00;  0.0000000E+00;  0.0000000E+00;
  2.2400000E+00;  9.9999998E-03;  3.4000000E-01;1016;  0.0000000E+00;  0.0000000E+00;  0.0000000E+00;  1.0000000E+03;  4.0000001E-01;  0.0000000E+00;0;  0.0000000E+00;  0.0000000E+00;  0.0000000E+00;0;  0.0000000E+00;  1.0000000E+04;  0.0000000E+00;  0.0000000E+00;  1.0000000E+04;  0.0000000E+00;  1.0000000E+04;  0.0000000E+00;  0.0000000E+00;  0.0000000E+00;  0.0000000E+00;
  2.2400000E+00;  9.9999998E-03;  3.6000001E-01;1017;  0.0000000E+00;  0.0000000E+00;  0.0000000E+00;  1.0000000E+03;  4.0000001E-01;  0.0000000E+00;0;  0.0000000E+00;  0.0000000E+00;  0.0000000E+00;0;  0.0000000E+00;  1.0000000E+04;  0.0000000E+00;  0.0000000E+00;  1.0000000E+04;  0.0000000E+00;  1.0000000E+04;  0.0000000E+00;  0.0000000E+00;  0.0000000E+00;  0.0000000E+00;
  2.2400000E+00;  9.9999998E-03;  3.8000000E-01;1018;  0.0000000E+00;  0.0000000E+00;  0.0000000E+00;  1.0000000E+03;  4.0000001E-01;  0.0000000E+00;0;  0.0000000E+00;  0.0000000E+00;  0.0000000E+00;0;  0.0000000E+00;  1.0000000E+04;  0.0000000E+00;  0.0000000E+00;  1.0000000E+04;  0.0000000E+00;  1.0000000E+04;  0.0000000E+00;  0.0000000E+00;  0.0000000E+00;  0.0000000E+00;
  2.2600000E+00;  9.9999998E-03;  2.2000000E-01;1019;  0.0000000E+00;  0.0000000E+00;  0.0000000E+00;  1.0000000E+03;  4.0000001E-01;  0.0000000E+00;0;  0.0000000E+00;  0.0000000E+00;  0.0000000E+00;0;  0.0000000E+00;  1.0000000E+04;  0.0000000E+00;  0.0000000E+00;  1.0000000E+04;  0.0000000E+00;  1.0000000E+04;  0.0000000E+00;  0.0000000E+00;  0.0000000E+00;  0.0000000E+00;
  2.2600000E+00;  9.9999998E-03;  2.3999999E-01;1020;  0.0000000E+00;  0.0000000E+00;  0.0000000E+00;  1.0000000E+03;  4.0000001E-01;  0.0000000E+00;0;  0.0000000E+00;  0.0000000E+00;  0.0000000E+00;0;  0.0000000E+00;  1.0000000E+04;  0.0000000E+00;  0.0000000E+00;  1.0000000E+04;  0.0000000E+00;  1.0000000E+04;  0.0000000E+00;  0.0000000E+00;  0.0000000E+00;  0.0000000E+00;
  2.2600000E+00;  9.9999998E-03;  2.5999999E-01;1021;  0.0000000E+00;  0.0000000E+00;  0.0000000E+00;  1.0000000E+03;  4.0000001E-01;  0.0000000E+00;0;  0.0000000E+00;  0.0000000E+00;  0.0000000E+00;0;  0.0000000E+00;  1.0000000E+04;  0.0000000E+00;  0.0000000E+00;  1.0000000E+04;  0.0000000E+00;  1.0000000E+04;  0.0000000E+00;  0.0000000E+00;  0.0000000E+00;  0.0000000E+00;
  2.2600000E+00;  9.9999998E-03;  2.8000000E-01;1022;  0.0000000E+00;  0.0000000E+00;  0.0000000E+00;  1.0000000E+03;  4.0000001E-01;  0.0000000E+00;0;  0.0000000E+00;  0.0000000E+00;  0.0000000E+00;0;  0.0000000E+00;  1.0000000E+04;  0.0000000E+00;  0.0000000E+00;  1.0000000E+04;  0.0000000E+00;  1.0000000E+04;  0.0000000E+00;  0.0000000E+00;  0.0000000E+00;  0.0000000E+00;
  2.2600000E+00;  9.9999998E-03;  3.0000001E-01;1023;  0.0000000E+00;  0.0000000E+00;  0.0000000E+00;  1.0000000E+03;  4.0000001E-01;  0.0000000E+00;0;  0.0000000E+00;  0.0000000E+00;  0.0000000E+00;0;  0.0000000E+00;  1.0000000E+04;  0.0000000E+00;  0.0000000E+00;  1.0000000E+04;  0.0000000E+00;  1.0000000E+04;  0.0000000E+00;  0.0000000E+00;  0.0000000E+00;  0.0000000E+00;
  2.2600000E+00;  9.9999998E-03;  3.1999999E-01;1024;  0.0000000E+00;  0.0000000E+00;  0.0000000E+00;  1.0000000E+03;  4.0000001E-01;  0.0000000E+00;0;  0.0000000E+00;  0.0000000E+00;  0.0000000E+00;0;  0.0000000E+00;  1.0000000E+04;  0.0000000E+00;  0.0000000E+00;  1.0000000E+04;  0.0000000E+00;  1.0000000E+04;  0.0000000E+00;  0.0000000E+00;  0.0000000E+00;  0.0000000E+00;
  2.2600000E+00;  9.9999998E-03;  3.4000000E-01;1025;  0.0000000E+00;  0.0000000E+00;  0.0000000E+00;  1.0000000E+03;  4.0000001E-01;  0.0000000E+00;0;  0.0000000E+00;  0.0000000E+00;  0.0000000E+00;0;  0.0000000E+00;  1.0000000E+04;  0.0000000E+00;  0.0000000E+00;  1.0000000E+04;  0.0000000E+00;  1.0000000E+04;  0.0000000E+00;  0.0000000E+00;  0.0000000E+00;  0.0000000E+00;
  2.2600000E+00;  9.9999998E-03;  3.6000001E-01;1026;  0.0000000E+00;  0.0000000E+00;  0.0000000E+00;  1.0000000E+03;  4.0000001E-01;  0.0000000E+00;0;  0.0000000E+00;  0.0000000E+00;  0.0000000E+00;0;  0.0000000E+00;  1.0000000E+04;  0.0000000E+00;  0.0000000E+00;  1.0000000E+04;  0.0000000E+00;  1.0000000E+04;  0.0000000E+00;  0.0000000E+00;  0.0000000E+00;  0.0000000E+00;
  2.2600000E+00;  9.9999998E-03;  3.8000000E-01;1027;  0.0000000E+00;  0.0000000E+00;  0.0000000E+00;  1.0000000E+03;  4.0000001E-01;  0.0000000E+00;0;  0.0000000E+00;  0.0000000E+00;  0.0000000E+00;0;  0.0000000E+00;  1.0000000E+04;  0.0000000E+00;  0.0000000E+00;  1.0000000E+04;  0.0000000E+00;  1.0000000E+04;  0.0000000E+00;  0.0000000E+00;  0.0000000E+00;  0.0000000E+00;
  2.2800000E+00;  9.9999998E-03;  3.1999999E-01;1028;  0.0000000E+00;  0.0000000E+00;  0.0000000E+00;  1.0000000E+03;  4.0000001E-01;  0.0000000E+00;0;  0.0000000E+00;  0.0000000E+00;  0.0000000E+00;0;  0.0000000E+00;  1.0000000E+04;  0.0000000E+00;  0.0000000E+00;  1.0000000E+04;  0.0000000E+00;  1.0000000E+04;  0.0000000E+00;  0.0000000E+00;  0.0000000E+00;  0.0000000E+00;
  2.2800000E+00;  9.9999998E-03;  3.4000000E-01;1029;  0.0000000E+00;  0.0000000E+00;  0.0000000E+00;  1.0000000E+03;  4.0000001E-01;  0.0000000E+00;0;  0.0000000E+00;  0.0000000E+00;  0.0000000E+00;0;  0.0000000E+00;  1.0000000E+04;  0.0000000E+00;  0.0000000E+00;  1.0000000E+04;  0.0000000E+00;  1.0000000E+04;  0.0000000E+00;  0.0000000E+00;  0.0000000E+00;  0.0000000E+00;
  2.2800000E+00;  9.9999998E-03;  3.6000001E-01;1030;  0.0000000E+00;  0.0000000E+00;  0.0000000E+00;  1.0000000E+03;  4.0000001E-01;  0.0000000E+00;0;  0.0000000E+00;  0.0000000E+00;  0.0000000E+00;0;  0.0000000E+00;  1.0000000E+04;  0.0000000E+00;  0.0000000E+00;  1.0000000E+04;  0.0000000E+00;  1.0000000E+04;  0.0000000E+00;  0.0000000E+00;  0.0000000E+00;  0.0000000E+00;
 -9.2878105E-09;  9.9999998E-03; -2.8000000E-01;1031; -2.1105583E-05;  0.0000000E+00; -7.9898282E-06;  1.0000002E+03;  4.0000001E-01;  1.9752525E-01;3; -3.6642902E-02;  0.0000000E+00; -1.3948416E-02;0; -4.3580486E-04;  1.0000004E+04;  0.0000000E+00;  3.6729508E-12;  1.0000000E+04;  0.0000000E+00;  1.0000000E+04; -4.0105035E-04;  0.0000000E+00; -3.4754510E-05;  1.2541915E-01;
 -1.1231980E-08;  9.9999998E-03; -2.5999999E-01;1032; -2.5494166E-05;  0.0000000E+00; -7.7143613E-06;  1.0000002E+03;  4.0000001E-01;  1.9752525E-01;3; -4.3656044E-02;  0.0000000E+00; -1.3280474E-02;0; -5.1908719E-04;  1.0000006E+04;  0.0000000E+00; -1.7275063E-11;  1.0000000E+04;  0.0000000E+00;  1.0000000E+04; -5.0256855E-04;  0.0000000E+00; -1.6518623E-05;  4.8793435E-02;
 -1.2876431E-08;  9.9999998E-03; -2.4000001E-01;1033; -2.9197945E-05;  0.0000000E+00; -7.0886331E-06;  1.0000004E+03;  4.0000001E-01;  2.9628786E-01;3; -4.9521603E-02;  0.0000000E+00; -1.2058658E-02;0; -5.8822159E-04;  1.0000007E+04;  0.0000000E+00;  1.1416873E-11;  1.0000000E+04;  0.0000000E+00;  1.0000000E+04; -5.8983930E-04;  0.0000000E+00;  1.6176955E-06;  2.6550218E-02;
 -1.4200316E-08;  9.9999998E-03; -2.2000000E-01;1034; -3.2149557E-05;  0.0000000E+00; -6.3227712E-06;  1.0000004E+03;  4.0000001E-01;  2.9628786E-01;3; -5.4186977E-02;  0.0000000E+00; -1.0654024E-02;0; -6.4396119E-04;  1.0000008E+04;  0.0000000E+00;  5.4572718E-11;  1.0000000E+04;  0.0000000E+00;  1.0000000E+04; -6.5940357E-04;  0.0000000E+00;  1.5442401E-05;  8.3826773E-02;
 -1.5254004E-08;  9.9999998E-03; -2.0000000E-01;1035; -3.4463093E-05;  0.0000000E+00; -5.4726224E-06;  1.0000004E+03;  4.0000001E-01;  2.9628786E-01;3; -5.7849891E-02;  0.0000000E+00; -9.1500338E-03;0; -6.8854674E-04;  1.0000008E+04;  0.0000000E+00; -3.0753591E-11;  1.0000000E+04;  0.0000000E+00;  1.0000000E+04; -7.1210851E-04;  0.0000000E+00;  2.3561739E-05;  1.1774347E-01;
  1.9999990E-02;  9.9999998E-03; -3.0000001E-01;1060; -2.2696830E-05;  0.0000000E+00; -1.1287502E-05;  1.0000002E+03;  4.0000001E-01;  1.9752525E-01;3; -3.8787786E-02;  0.0000000E+00; -1.9436006E-02;0; -4.6501664E-04;  1.0000004E+04;  0.0000000E+00; -3.2893667E-11;  1.0000000E+04;  0.0000000E+00;  1.0000000E+04; -3.9656076E-04;  0.0000000E+00; -6.8455876E-05;  2.6866096E-01;
  1.9999987E-02;  9.9999998E-03; -2.8000000E-01;1061; -3.0945441E-05;  0.0000000E+00; -1.0888372E-05;  1.0000004E+03;  4.0000001E-01;  2.9628786E-01;3; -5.1931679E-02;  0.0000000E+00; -1.8240331E-02;0; -5.8595539E-04;  1.0000006E+04;  0.0000000E+00;  2.7580804E-12;  1.0000000E+04;  0.0000000E+00;  1.0000000E+04; -5.3652818E-04;  0.0000000E+00; -4.9427221E-05;  1.8429537E-01;
  1.9999983E-02;  9.9999998E-03; -2.5999999E-01;1062; -3.7980153E-05;  0.0000000E+00; -1.0705480E-05;  1.0000004E+03;  4.0000001E-01;  3.9505050E-01;3; -6.2738061E-02;  0.0000000E+00; -1.7659904E-02;0; -6.9114985E-04;  1.0000008E+04;  0.0000000E+00; -3.4546657E-11;  1.0000000E+04;  0.0000000E+00;  1.0000000E+04; -6.6863693E-04;  0.0000000E+00; -2.2512933E-05;  6.8848349E-02;
  1.9999981E-02;  9.9999998E-03; -2.4000001E-01;1063; -4.3678661E-05;  0.0000000E+00; -1.0007995E-05;  1.0000004E+03;  4.0000001E-01;  3.9505050E-01;3; -7.1343280E-02;  0.0000000E+00; -1.6306859E-02;0; -7.7738019E-04;  1.0000009E+04;  0.0000000E+00; -2.2043327E-11;  1.0000000E+04;  0.0000000E+00;  1.0000000E+04; -7.8109279E-04;  0.0000000E+00;  3.7125756E-06;  4.2567890E-02;
  1.9999979E-02;  9.9999998E-03; -2.2000000E-01;1064; -4.8100443E-05;  0.0000000E+00; -9.0364574E-06;  1.0000005E+03;  4.0000001E-01;  3.9505050E-01;3; -7.7996016E-02;  0.0000000E+00; -1.4580988E-02;0; -8.4611314E-04;  1.0000011E+04;  0.0000000E+00;  6.4817859E-11;  1.0000000E+04;  0.0000000E+00;  1.0000000E+04; -8.6958520E-04;  0.0000000E+00;  2.3472057E-05;  1.2626201E-01;
  1.9999977E-02;  9.9999998E-03; -2.0000000E-01;1065; -5.1491686E-05;  0.0000000E+00; -7.8493749E-06;  1.0000005E+03;  4.0000001E-01;  3.9505050E-01;3; -8.3109297E-02;  0.0000000E+00; -1.2565780E-02;0; -9.0063381E-04;  1.0000011E+04;  0.0000000E+00; -7.6543589E-12;  1.0000000E+04;  0.0000000E+00;  1.0000000E+04; -9.3557616E-04;  0.0000000E+00;  3.4942357E-05;  1.7514420E-01;
  3.9999984E-02;  9.9999998E-03; -3.0000001E-01;1091; -3.3328877E-05;  0.0000000E+00; -1.4369976E-05;  1.0000004E+03;  4.0000001E-01;  2.9628786E-01;3; -5.5481207E-02;  0.0000000E+00; -2.3745682E-02;0; -6.1364047E-04;  1.0000007E+04;  0.0000000E+00;  3.7284346E-11;  1.0000000E+04;  0.0000000E+00;  1.0000001E+04; -5.1937829E-04;  0.0000000E+00; -9.4262170E-05;  3.8230252E-01;
  3.9999980E-02;  9.9999998E-03; -2.8000000E-01;1092; -4.5298657E-05;  0.0000000E+00; -1.4291571E-05;  1.0000004E+03;  4.0000001E-01;  3.9505050E-01;3; -7.3806003E-02;  0.0000000E+00; -2.2925928E-02;0; -7.6699414E-04;  1.0000008E+04;  0.0000000E+00; -5.4042651E-12;  1.0000000E+04;  0.0000000E+00;  1.0000000E+04; -7.0054212E-04;  0.0000000E+00; -6.6452019E-05;  2.5660285E-01;
  3.9999973E-02;  9.9999998E-03; -2.6000002E-01;1093; -5.5493107E-05;  0.0000000E+00; -1.3940795E-05;  1.0000005E+03;  4.0000001E-01;  3.9505050E-01;3; -8.8778190E-02;  0.0000000E+00; -2.1950154E-02;0; -8.9873082E-04;  1.0000011E+04;  0.0000000E+00; -5.1175880E-11;  1.0000000E+04;  0.0000000E+00;  1.0000000E+04; -8.6974783E-04;  0.0000000E+00; -2.8983010E-05;  9.1357715E-02;
  3.9999969E-02;  9.9999998E-03; -2.4000001E-01;1094; -6.3773288E-05;  0.0000000E+00; -1.3024040E-05;  1.0000006E+03;  4.0000001E-01;  4.9381313E-01;3; -1.0072217E-01;  0.0000000E+00; -2.0216662E-02;0; -1.0047852E-03;  1.0000011E+04;  0.0000000E+00; -8.4079185E-13;  1.0000000E+04;  0.0000000E+00;  1.0000000E+04; -1.0116674E-03;  0.0000000E+00;  6.8822246E-06;  6.5548956E-02;
  3.9999969E-02;  9.9999998E-03; -2.2000000E-01;1095; -7.0125454E-05;  0.0000000E+00; -1.1791383E-05;  1.0000007E+03;  4.0000001E-01;  5.9257573E-01;3; -1.0985216E-01;  0.0000000E+00; -1.8118721E-02;0; -1.0877801E-03;  1.0000014E+04;  0.0000000E+00;  4.8218422E-11;  1.0000000E+04;  0.0000000E+00;  1.0000000E+04; -1.1213399E-03;  0.0000000E+00;  3.3559765E-05;  1.8191716E-01;
  3.9999966E-02;  9.9999998E-03; -2.0000000E-01;1096; -7.4912772E-05;  0.0000000E+00; -1.0264308E-05;  1.0000007E+03;  4.0000001E-01;  5.9257573E-01;3; -1.1676183E-01;  0.0000000E+00; -1.5640639E-02;0; -1.1525962E-03;  1.0000015E+04;  0.0000000E+00;  2.5452173E-11;  1.0000000E+04;  0.0000000E+00;  1.0000000E+04; -1.2013916E-03;  0.0000000E+00;  4.8795315E-05;  2.4871096E-01;
  5.9999976E-02;  9.9999998E-03; -3.0000001E-01;1122; -4.7614707E-05;  0.0000000E+00; -1.8258017E-05;  1.0000004E+03;  4.0000001E-01;  3.9505050E-01;3; -7.7447928E-02;  0.0000000E+00; -2.8992280E-02;0; -8.0318085E-04;  1.0000008E+04;  0.0000000E+00; -6.1331114E-08;  1.0000000E+04;  0.0000000E+00;  1.0000001E+04; -6.7846384E-04;  0.0000000E+00; -1.2471704E-04;  5.2431625E-01;
  5.9999969E-02;  9.9999998E-03; -2.8000000E-01;1123; -6.4540523E-05;  0.0000000E+00; -1.8170153E-05;  1.0000006E+03;  4.0000001E-01;  4.9381313E-01;3; -1.0246007E-01;  0.0000000E+00; -2.7906567E-02;0; -9.9860784E-04;  1.0000011E+04;  0.0000000E+00; -1.6274038E-08;  1.0000000E+04;  0.0000000E+00;  1.0000000E+04; -9.1224728E-04;  0.0000000E+00; -8.6360604E-05;  3.4595206E-01;
  5.9999965E-02;  9.9999998E-03; -2.6000002E-01;1124; -7.8712284E-05;  0.0000000E+00; -1.7745457E-05;  1.0000007E+03;  4.0000001E-01;  5.9257573E-01;3; -1.2242734E-01;  0.0000000E+00; -2.6681773E-02;0; -1.1642196E-03;  1.0000014E+04;  0.0000000E+00; -7.1237814E-11;  1.0000000E+04;  0.0000000E+00;  1.0000000E+04; -1.1282088E-03;  0.0000000E+00; -3.6010788E-05;  1.1644679E-01;
  5.9999958E-02;  9.9999998E-03; -2.4000001E-01;1125; -9.0146081E-05;  0.0000000E+00; -1.6524835E-05;  1.0000008E+03;  4.0000001E-01;  6.9133836E-01;3; -1.3824549E-01;  0.0000000E+00; -2.4441548E-02;0; -1.2949753E-03;  1.0000016E+04;  0.0000000E+00; -6.2914000E-11;  1.0000000E+04;  0.0000000E+00;  1.0000000E+04; -1.3064228E-03;  0.0000000E+00;  1.1447428E-05;  9.8482363E-02;
  5.9999954E-02;  9.9999998E-03; -2.2000001E-01;1126; -9.8817378E-05;  0.0000000E+00; -1.4937067E-05;  1.0000009E+03;  4.0000001E-01;  6.9133836E-01;3; -1.5020666E-01;  0.0000000E+00; -2.1849031E-02;0; -1.3950423E-03;  1.0000019E+04;  0.0000000E+00; -1.8712052E-12;  1.0000000E+04;  0.0000000E+00;  1.0000000E+04; -1.4412769E-03;  0.0000000E+00;  4.6234618E-05;  2.5567141E-01;
  5.9999950E-02;  9.9999998E-03; -2.0000000E-01;1127; -1.0525312E-04;  0.0000000E+00; -1.2990384E-05;  1.0000009E+03;  4.0000001E-01;  6.9133836E-01;3; -1.5912768E-01;  0.0000000E+00; -1.8833911E-02;0; -1.4715625E-03;  1.0000019E+04;  0.0000000E+00; -6.0669803E-11;  1.0000000E+04;  0.0000000E+00;  1.0000000E+04; -1.5372507E-03;  0.0000000E+00;  6.5688175E-05;  3.4403476E-01;
  7.9999968E-02;  9.9999998E-03; -3.0000001E-01;1153; -6.6529967E-05;  0.0000000E+00; -2.3327022E-05;  1.0000007E+03;  4.0000001E-01;  5.9257573E-01;3; -1.0597707E-01;  0.0000000E+00; -3.5742156E-02;0; -1.0582170E-03;  1.0000011E+04;  0.0000000E+00; -7.2399816E-06;  1.0000000E+04;  0.0000000E+00;  1.0000002E+04; -8.9673221E-04;  0.0000000E+00; -1.6148484E-04;  7.0564008E-01;
  7.9999961E-02;  9.9999998E-03; -2.8000000E-01;1154; -8.9847104E-05;  0.0000000E+00; -2.2962538E-05;  1.0000009E+03;  4.0000001E-01;  6.9133836E-01;3; -1.3938445E-01;  0.0000000E+00; -3.3822469E-02;0; -1.3074032E-03;  1.0000015E+04;  0.0000000E+00; -4.1428648E-06;  1.0000000E+04;  0.0000000E+00;  1.0000001E+04; -1.1973880E-03;  0.0000000E+00; -1.1001510E-04;  4.5779496E-01;
  7.9999946E-02;  9.9999998E-03; -2.6000002E-01;1155; -1.0904055E-04;  0.0000000E+00; -2.2314191E-05;  1.0000009E+03;  4.0000001E-01;  7.9010099E-01;3; -1.6544682E-01;  0.0000000E+00; -3.2103643E-02;0; -1.5152365E-03;  1.0000019E+04;  0.0000000E+00; -1.4837698E-06;  1.0000000E+04;  0.0000000E+00;  1.0000000E+04; -1.4715713E-03;  0.0000000E+00; -4.3665117E-05;  1.4395186E-01;
  7.9999939E-02;  9.9999998E-03; -2.4000001E-01;1156; -1.2430563E-04;  0.0000000E+00; -2.0685387E-05;  1.0000010E+03;  4.0000001E-01;  8.8886362E-01;3; -1.8577556E-01;  0.0000000E+00; -2.9204812E-02;0; -1.6765082E-03;  1.0000021E+04;  0.0000000E+00; -1.6790260E-07;  1.0000000E+04;  0.0000000E+00;  1.0000000E+04; -1.6944993E-03;  0.0000000E+00;  1.7991111E-05;  1.4619493E-01;
  7.9999939E-02;  9.9999998E-03; -2.2000001E-01;1157; -1.3569844E-04;  0.0000000E+00; -1.8656976E-05;  1.0000012E+03;  4.0000001E-01;  9.8762625E-01;3; -2.0090193E-01;  0.0000000E+00; -2.6009589E-02;0; -1.7974580E-03;  1.0000022E+04;  0.0000000E+00; -1.0892707E-10;  1.0000000E+04;  0.0000000E+00;  1.0000000E+04; -1.8599513E-03;  0.0000000E+00;  6.2493215E-05;  3.5525572E-01;
  7.9999931E-02;  9.9999998E-03; -2.0000000E-01;1158; -1.4401336E-04;  0.0000000E+00; -1.6191234E-05;  1.0000012E+03;  4.0000001E-01;  9.8762625E-01;3; -2.1199450E-01;  0.0000000E+00; -2.2351898E-02;0; -1.8877226E-03;  1.0000024E+04;  0.0000000E+00; -7.0201692E-11;  1.0000000E+04;  0.0000000E+00;  1.0000000E+04; -1.9745259E-03;  0.0000000E+00;  8.6803215E-05;  4.7015670E-01;
  9.9999957E-02;  9.9999998E-03; -3.0000001E-01;1184; -9.1752867E-05;  0.0000000E+00; -3.0036623E-05;  1.0000009E+03;  4.0000001E-01;  6.9133836E-01;3; -1.4335677E-01;  0.0000000E+00; -4.4502020E-02;0; -1.4257145E-03;  1.0000016E+04;  0.0000000E+00; -7.1703762E-05;  1.0000000E+04;  0.0000000E+00;  1.0000002E+04; -1.2186371E-03;  0.0000000E+00; -2.0707742E-04;  9.8612559E-01;
  9.9999942E-02;  9.9999998E-03; -2.8000000E-01;1185; -1.2324615E-04;  0.0000000E+00; -2.9003220E-05;  1.0000012E+03;  4.0000001E-01;  9.8762625E-01;3; -1.8721768E-01;  0.0000000E+00; -4.1038916E-02;0; -1.7382043E-03;  1.0000021E+04;  0.0000000E+00; -4.6482928E-05;  1.0000000E+04;  0.0000000E+00;  1.0000001E+04; -1.5997883E-03;  0.0000000E+00; -1.3841591E-04;  6.2797105E-01;
  9.9999927E-02;  9.9999998E-03; -2.6000002E-01;1186; -1.4868454E-04;  0.0000000E+00; -2.7886870E-05;  1.0000013E+03;  4.0000001E-01;  1.0863888E+00;3; -2.2056553E-01;  0.0000000E+00; -3.8422231E-02;0; -1.9914664E-03;  1.0000025E+04;  0.0000000E+00; -2.2218617E-05;  1.0000000E+04;  0.0000000E+00;  1.0000000E+04; -1.9400199E-03;  0.0000000E+00; -5.1446397E-05;  1.9407220E-01;
  9.9999920E-02;  9.9999998E-03; -2.4000001E-01;1187; -1.6855463E-04;  0.0000000E+00; -2.5697995E-05;  1.0000013E+03;  4.0000001E-01;  1.0863888E+00;3; -2.4604249E-01;  0.0000000E+00; -3.4665421E-02;0; -2.1841722E-03;  1.0000029E+04;  0.0000000E+00; -6.4514406E-06;  1.0000000E+04;  0.0000000E+00;  1.0000000E+04; -2.2121696E-03;  0.0000000E+00;  2.7997463E-05;  2.2061455E-01;
  9.9999912E-02;  9.9999998E-03; -2.2000001E-01;1188; -1.8310304E-04;  0.0000000E+00; -2.3139371E-05;  1.0000015E+03;  4.0000001E-01;  1.1851515E+00;3; -2.6461914E-01;  0.0000000E+00; -3.0787274E-02;0; -2.3272764E-03;  1.0000030E+04;  0.0000000E+00; -7.7407833E-07;  1.0000000E+04;  0.0000000E+00;  1.0000000E+04; -2.4115422E-03;  0.0000000E+00;  8.4265943E-05;  4.9397576E-01;
  9.9999905E-02;  9.9999998E-03; -2.0000000E-01;1189; -1.9352778E-04;  0.0000000E+00; -2.0049398E-05;  1.0000016E+03;  4.0000001E-01;  1.2839141E+00;3; -2.7798909E-01;  0.0000000E+00; -2.6386106E-02;0; -2.4329475E-03;  1.0000033E+04;  0.0000000E+00; -3.8366990E-11;  1.0000000E+04;  0.0000000E+00;  9.9999990E+03; -2.5471572E-03;  0.0000000E+00;  1.1420962E-04;  6.4131945E-01;
  1.1999994E-01;  9.9999998E-03; -3.0000001E-01;1215; -1.2578593E-04;  0.0000000E+00; -3.8985883E-05;  1.0000013E+03;  4.0000001E-01;  1.0863888E+00;3; -1.9291240E-01;  0.0000000E+00; -5.5970430E-02;0; -1.9880182E-03;  1.0000021E+04;  0.0000000E+00; -3.3954534E-04;  1.0000000E+04;  0.0000000E+00;  1.0000003E+04; -1.7232837E-03;  0.0000000E+00; -2.6473452E-04;  1.9053885E+00;
  1.1999992E-01;  9.9999998E-03; -2.8000003E-01;1216; -1.6760772E-04;  0.0000000E+00; -3.6810852E-05;  1.0000015E+03;  4.0000001E-01;  1.2839141E+00;3; -2.4953669E-01;  0.0000000E+00; -5.0101385E-02;0; -2.3657768E-03;  1.0000029E+04;  0.0000000E+00; -2.3826472E-04;  1.0000000E+04;  0.0000000E+00;  1.0000002E+04; -2.1938665E-03;  0.0000000E+00; -1.7191036E-04;  1.2714013E+00;
  1.1999990E-01;  9.9999998E-03; -2.6000002E-01;1217; -2.0071199E-04;  0.0000000E+00; -3.4852954E-05;  1.0000018E+03;  4.0000001E-01;  1.4814394E+00;3; -2.9138654E-01;  0.0000000E+00; -4.6000019E-02;0; -2.6527883E-03;  1.0000034E+04;  0.0000000E+00; -1.2425466E-04;  1.0000000E+04;  0.0000000E+00;  1.0000000E+04; -2.5958905E-03;  0.0000000E+00; -5.6897698E-05;  5.6144321E-01;
  1.1999989E-01;  9.9999998E-03; -2.4000002E-01;1218; -2.2604388E-04;  0.0000000E+00; -3.1898453E-05;  1.0000018E+03;  4.0000001E-01;  1.4814394E+00;3; -3.2256669E-01;  0.0000000E+00; -4.1120984E-02;0; -2.8646302E-03;  1.0000038E+04;  0.0000000E+00; -4.5563447E-05;  1.0000000E+04;  0.0000000E+00;  1.0000000E+04; -2.9102077E-03;  0.0000000E+00;  4.5577515E-05;  3.9374155E-01;
  1.1999988E-01;  9.9999998E-03; -2.2000001E-01;1219; -2.4423428E-04;  0.0000000E+00; -2.8658098E-05;  1.0000020E+03;  4.0000001E-01;  1.6789646E+00;3; -3.4479010E-01;  0.0000000E+00; -3.6424454E-02;0; -3.0223005E-03;  1.0000041E+04;  0.0000000E+00; -9.8483670E-06;  1.0000000E+04;  0.0000000E+00;  9.9999990E+03; -3.1382693E-03;  0.0000000E+00;  1.1596871E-04;  7.0019591E-01;
  1.1999987E-01;  9.9999998E-03; -2.0000002E-01;1220; -2.5699675E-04;  0.0000000E+00; -2.4822244E-05;  1.0000021E+03;  4.0000001E-01;  1.7777272E+00;3; -3.6042306E-01;  0.0000000E+00; -3.1180084E-02;0; -3.1409576E-03;  1.0000043E+04;  0.0000000E+00; -7.7260978E-07;  1.0000000E+04;  0.0000000E+00;  9.9999980E+03; -3.2928064E-03;  0.0000000E+00;  1.5184894E-04;  8.8235366E-01;
  1.3999991E-01;  9.9999998E-03; -3.0000004E-01;1246; -1.7215800E-04;  0.0000000E+00; -5.1161231E-05;  1.0000019E+03;  4.0000001E-01;  1.5802020E+00;3; -2.5924218E-01;  0.0000000E+00; -7.1305633E-02;0; -2.8736372E-03;  1.0000034E+04;  0.0000000E+00; -1.1222467E-03;  1.0000000E+04;  0.0000000E+00;  1.0000004E+04; -2.5355746E-03;  0.0000000E+00; -3.3806276E-04;  5.0839138E+00;
  1.3999988E-01;  9.9999998E-03; -2.8000003E-01;1247; -2.2678563E-04;  0.0000000E+00; -4.7185684E-05;  1.0000021E+03;  4.0000001E-01;  1.7777272E+00;3; -3.3084491E-01;  0.0000000E+00; -6.1966166E-02;0; -3.2975485E-03;  1.0000041E+04;  0.0000000E+00; -8.0948160E-04;  1.0000000E+04;  0.0000000E+00;  1.0000002E+04; -3.0886033E-03;  0.0000000E+00; -2.0894517E-04;  3.6097972E+00;
  1.3999987E-01;  9.9999998E-03; -2.6000002E-01;1248; -2.6914236E-04;  0.0000000E+00; -4.3869579E-05;  1.0000024E+03;  4.0000001E-01;  1.9752525E+00;3; -3.8234773E-01;  0.0000000E+00; -5.5529349E-02;0; -3.5791227E-03;  1.0000047E+04;  0.0000000E+00; -4.3787633E-04;  1.0000000E+04;  0.0000000E+00;  1.0000000E+04; -3.5256899E-03;  0.0000000E+00; -5.3432850E-05;  1.8964520E+00;
  1.3999985E-01;  9.9999998E-03; -2.4000002E-01;1249; -3.0083273E-04;  0.0000000E+00; -3.9909981E-05;  1.0000025E+03;  4.0000001E-01;  2.0740151E+00;3; -4.1958454E-01;  0.0000000E+00; -4.9230408E-02;0; -3.7757349E-03;  1.0000052E+04;  0.0000000E+00; -1.7474162E-04;  1.0000000E+04;  0.0000000E+00;  1.0000000E+04; -3.8557248E-03;  0.0000000E+00;  7.9989877E-05;  9.4747746E-01;
  1.3999984E-01;  9.9999998E-03; -2.2000001E-01;1250; -3.2319585E-04;  0.0000000E+00; -3.5743109E-05;  1.0000026E+03;  4.0000001E-01;  2.1727777E+00;3; -4.4555670E-01;  0.0000000E+00; -4.3430217E-02;0; -3.9269971E-03;  1.0000055E+04;  0.0000000E+00; -4.6795187E-05;  1.0000000E+04;  0.0000000E+00;  9.9999980E+03; -4.0939436E-03;  0.0000000E+00;  1.6694641E-04;  1.0445025E+00;
  1.3999982E-01;  9.9999998E-03; -2.0000002E-01;1251; -3.3852944E-04;  0.0000000E+00; -3.0960487E-05;  1.0000027E+03;  4.0000001E-01;  2.2715404E+00;3; -4.6330106E-01;  0.0000000E+00; -3.7200760E-02;0; -4.0494204E-03;  1.0000058E+04;  0.0000000E+00; -6.6119151E-06;  1.0000000E+04;  0.0000000E+00;  9.9999980E+03; -4.2569167E-03;  0.0000000E+00;  2.0749627E-04;  1.2395127E+00;
  1.5999988E-01;  9.9999998E-03; -3.0000004E-01;1277; -2.3585465E-04;  0.0000000E+00; -6.7282468E-05;  1.0000028E+03;  4.0000001E-01;  2.3703029E+00;3; -3.4871310E-01;  0.0000000E+00; -9.1064900E-02;0; -4.2480896E-03;  1.0000053E+04;  0.0000000E+00; -2.9295485E-03;  1.0000000E+04;  0.0000000E+00;  1.0000006E+04; -3.8176789E-03;  0.0000000E+00; -4.3041073E-04;  1.2850595E+01;
  1.5999985E-01;  9.9999998E-03; -2.8000003E-01;1278; -3.0573559E-04;  0.0000000E+00; -6.1035840E-05;  1.0000032E+03;  4.0000001E-01;  2.6665909E+00;3; -4.3685284E-01;  0.0000000E+00; -7.7501178E-02;0; -4.6552946E-03;  1.0000061E+04;  0.0000000E+00; -2.1001026E-03;  1.0000000E+04;  0.0000000E+00;  1.0000003E+04; -4.4117374E-03;  0.0000000E+00; -2.4355709E-04;  9.1827888E+00;
  1.5999982E-01;  9.9999998E-03; -2.6000002E-01;1279; -3.5890518E-04;  0.0000000E+00; -5.5893852E-05;  1.0000033E+03;  4.0000001E-01;  2.7653534E+00;3; -4.9859625E-01;  0.0000000E+00; -6.8065211E-02;0; -4.8527988E-03;  1.0000067E+04;  0.0000000E+00; -1.1396342E-03;  1.0000000E+04;  0.0000000E+00;  1.0000000E+04; -4.8258365E-03;  0.0000000E+00; -2.6962342E-05;  4.9671607E+00;
  1.5999979E-01;  9.9999998E-03; -2.4000002E-01;1280; -3.9786080E-04;  0.0000000E+00; -5.0796967E-05;  1.0000035E+03;  4.0000001E-01;  2.8641162E+00;3; -5.4194027E-01;  0.0000000E+00; -6.0245059E-02;0; -4.9756044E-03;  1.0000071E+04;  0.0000000E+00; -4.6758648E-04;  1.0000000E+04;  0.0000000E+00;  9.9999980E+03; -5.1245005E-03;  0.0000000E+00;  1.4889604E-04;  2.2787137E+00;
  1.5999977E-01;  9.9999998E-03; -2.2000003E-01;1281; -4.2499730E-04;  0.0000000E+00; -4.5340152E-05;  1.0000036E+03;  4.0000001E-01;  2.9628787E+00;3; -5.7166463E-01;  0.0000000E+00; -5.2939139E-02;0; -5.0880769E-03;  1.0000075E+04;  0.0000000E+00; -1.3723012E-04;  1.0000000E+04;  0.0000000E+00;  9.9999971E+03; -5.3421026E-03;  0.0000000E+00;  2.5402557E-04;  1.6795686E+00;
  1.5999977E-01;  9.9999998E-03; -2.0000002E-01;1282; -4.4318265E-04;  0.0000000E+00; -3.9107752E-05;  1.0000037E+03;  4.0000001E-01;  3.0616415E+00;3; -5.9134763E-01;  0.0000000E+00; -4.5168709E-02;0; -5.2004438E-03;  1.0000076E+04;  0.0000000E+00; -2.4593093E-05;  1.0000000E+04;  0.0000000E+00;  9.9999961E+03; -5.4952013E-03;  0.0000000E+00;  2.9475751E-04;  1.7938479E+00;
  1.7999983E-01;  9.9999998E-03; -3.0000004E-01;1308; -3.2406926E-04;  0.0000000E+00; -8.7279921E-05;  1.0000043E+03;  4.0000001E-01;  3.5554545E+00;3; -4.7053161E-01;  0.0000000E+00; -1.1405987E-01;0; -6.2377881E-03;  1.0000078E+04;  0.0000000E+00; -6.2266239E-03;  1.0000000E+04;  0.0000000E+00;  1.0000007E+04; -5.6941081E-03;  0.0000000E+00; -5.4367987E-04;  2.7312616E+01;
  1.7999978E-01;  9.9999998E-03; -2.8000006E-01;1309; -4.1104064E-04;  0.0000000E+00; -7.8800775E-05;  1.0000045E+03;  4.0000001E-01;  3.6542170E+00;3; -5.7489616E-01;  0.0000000E+00; -9.6772403E-02;0; -6.5142890E-03;  1.0000087E+04;  0.0000000E+00; -4.3652984E-03;  1.0000000E+04;  0.0000000E+00;  1.0000003E+04; -6.2530204E-03;  0.0000000E+00; -2.6126840E-04;  1.9154465E+01;
  1.7999974E-01;  9.9999998E-03; -2.6000005E-01;1310; -4.7612740E-04;  0.0000000E+00; -7.2166455E-05;  1.0000045E+03;  4.0000001E-01;  3.7529798E+00;3; -6.4628863E-01;  0.0000000E+00; -8.4940687E-02;0; -6.5189470E-03;  1.0000092E+04;  0.0000000E+00; -2.3298105E-03;  1.0000000E+04;  0.0000000E+00;  1.0000000E+04; -6.5685273E-03;  0.0000000E+00;  4.9580296E-05;  1.0259658E+01;
  1.7999972E-01;  9.9999998E-03; -2.4000004E-01;1311; -5.2344770E-04;  0.0000000E+00; -6.5537046E-05;  1.0000046E+03;  4.0000001E-01;  3.7529798E+00;3; -6.9572419E-01;  0.0000000E+00; -7.5209007E-02;0; -6.5027345E-03;  1.0000096E+04;  0.0000000E+00; -9.5491862E-04;  1.0000000E+04;  0.0000000E+00;  9.9999961E+03; -6.7848014E-03;  0.0000000E+00;  2.8206699E-04;  4.5912561E+00;
  1.7999971E-01;  9.9999998E-03; -2.2000003E-01;1312; -5.5596151E-04;  0.0000000E+00; -5.8267498E-05;  1.0000046E+03;  4.0000001E-01;  3.8517423E+00;3; -7.2903746E-01;  0.0000000E+00; -6.5767720E-02;0; -6.5469309E-03;  1.0000099E+04;  0.0000000E+00; -2.8971551E-04;  1.0000000E+04;  0.0000000E+00;  9.9999951E+03; -6.9502909E-03;  0.0000000E+00;  4.0335982E-04;  2.7937667E+00;
  1.7999969E-01;  9.9999998E-03; -2.0000003E-01;1313; -5.7711138E-04;  0.0000000E+00; -5.0082799E-05;  1.0000048E+03;  4.0000001E-01;  3.9505050E+00;3; -7.5011176E-01;  0.0000000E+00; -5.6040101E-02;0; -6.6394540E-03;  1.0000100E+04;  0.0000000E+00; -5.7569745E-05;  1.0000000E+04;  0.0000000E+00;  9.9999941E+03; -7.0734760E-03;  0.0000000E+00;  4.3402213E-04;  2.6681273E+00;
  1.9999976E-01;  9.9999998E-03; -3.0000007E-01;1339; -4.4566329E-04;  0.0000000E+00; -1.1229764E-04;  1.0000062E+03;  4.0000001E-01;  5.1356564E+00;3; -6.3555127E-01;  0.0000000E+00; -1.4072180E-01;0; -8.7748235E-03;  1.0000112E+04;  0.0000000E+00; -1.0642528E-02;  1.0000000E+04;  0.0000000E+00;  1.0000011E+04; -8.1025735E-03;  0.0000000E+00; -6.7225000E-04;  4.7023548E+01;
  1.9999970E-01;  9.9999998E-03; -2.8000006E-01;1340; -5.5126881E-04;  0.0000000E+00; -1.0142497E-04;  1.0000062E+03;  4.0000001E-01;  5.1356564E+00;3; -7.5460827E-01;  0.0000000E+00; -1.1990157E-01;0; -8.8172248E-03;  1.0000123E+04;  0.0000000E+00; -7.3082475E-03;  1.0000000E+04;  0.0000000E+00;  1.0000003E+04; -8.5840244E-03;  0.0000000E+00; -2.3320061E-04;  3.2331867E+01;
  1.9999966E-01;  9.9999998E-03; -2.6000005E-01;1341; -6.2903244E-04;  0.0000000E+00; -9.3449322E-05;  1.0000061E+03;  4.0000001E-01;  5.0368938E+00;3; -8.3384544E-01;  0.0000000E+00; -1.0638058E-01;0; -8.5485242E-03;  1.0000127E+04;  0.0000000E+00; -3.8128051E-03;  1.0000000E+04;  0.0000000E+00;  9.9999971E+03; -8.7688584E-03;  0.0000000E+00;  2.2033375E-04;  1.6999632E+01;
  1.9999963E-01;  9.9999998E-03; -2.4000005E-01;1342; -6.8568141E-04;  0.0000000E+00; -8.4893669E-05;  1.0000060E+03;  4.0000001E-01;  4.9381313E+00;3; -8.8862842E-01;  0.0000000E+00; -9.4644889E-02;0; -8.3622374E-03;  1.0000129E+04;  0.0000000E+00; -1.5378969E-03;  1.0000000E+04;  0.0000000E+00;  9.9999932E+03; -8.8851983E-03;  0.0000000E+00;  5.2296079E-04;  7.5922351E+00;
  1.9999960E-01;  9.9999998E-03; -2.2000004E-01;1343; -7.2372385E-04;  0.0000000E+00; -7.5834978E-05;  1.0000060E+03;  4.0000001E-01;  4.9381313E+00;3; -9.2434454E-01;  0.0000000E+00; -8.3578840E-02;0; -8.3352653E-03;  1.0000132E+04;  0.0000000E+00; -4.6716354E-04;  1.0000000E+04;  0.0000000E+00;  9.9999902E+03; -8.9855744E-03;  0.0000000E+00;  6.5030932E-04;  4.4918637E+00;
  1.9999959E-01;  9.9999998E-03; -2.0000003E-01;1344; -7.4789528E-04;  0.0000000E+00; -6.4750100E-05;  1.0000062E+03;  4.0000001E-01;  5.1356564E+00;3; -9.4613969E-01;  0.0000000E+00; -7.0741922E-02;0; -8.4142704E-03;  1.0000132E+04;  0.0000000E+00; -9.6020332E-05;  1.0000000E+04;  0.0000000E+00;  9.9999902E+03; -9.0658218E-03;  0.0000000E+00;  6.5155118E-04;  4.0167198E+00;
  2.1999967E-01;  9.9999998E-03; -3.0000010E-01;1370; -6.0247834E-04;  0.0000000E+00; -1.7844068E-04;  1.0000082E+03;  4.0000001E-01;  6.8146210E+00;3; -8.4198117E-01;  0.0000000E+00; -2.2190487E-01;0; -1.1323029E-02;  1.0000153E+04;  0.0000000E+00; -1.4606257E-02;  1.0000000E+04;  0.0000000E+00;  1.0000009E+04; -1.0752768E-02;  0.0000000E+00; -5.7026057E-04;  6.5068726E+01;
  2.1999960E-01;  9.9999998E-03; -2.8000009E-01;1371; -7.3488092E-04;  0.0000000E+00; -1.4656907E-04;  1.0000082E+03;  4.0000001E-01;  6.8146210E+00;3; -9.8355442E-01;  0.0000000E+00; -1.7036378E-01;0; -1.1318472E-02;  1.0000162E+04;  0.0000000E+00; -9.8396204E-03;  1.0000000E+04;  0.0000000E+00;  1.0000000E+04; -1.1280183E-02;  0.0000000E+00; -3.8289494E-05;  4.3959831E+01;
  2.1999954E-01;  9.9999998E-03; -2.6000008E-01;1372; -8.2758465E-04;  0.0000000E+00; -1.2816608E-04;  1.0000080E+03;  4.0000001E-01;  6.6170959E+00;3; -1.0705308E+00;  0.0000000E+00; -1.4269626E-01;0; -1.0847016E-02;  1.0000166E+04;  0.0000000E+00; -5.0151139E-03;  1.0000000E+04;  0.0000000E+00;  9.9999932E+03; -1.1411809E-02;  0.0000000E+00;  5.6479324E-04;  2.2780493E+01;
  2.1999949E-01;  9.9999998E-03; -2.4000007E-01;1373; -8.9437276E-04;  0.0000000E+00; -1.1311626E-04;  1.0000079E+03;  4.0000001E-01;  6.5183330E+00;3; -1.1293150E+00;  0.0000000E+00; -1.2342333E-01;0; -1.0543410E-02;  1.0000171E+04;  0.0000000E+00; -1.9723589E-03;  1.0000000E+04;  0.0000000E+00;  9.9999883E+03; -1.1471390E-02;  0.0000000E+00;  9.2797959E-04;  1.0546727E+01;
  2.1999946E-01;  9.9999998E-03; -2.2000006E-01;1374; -9.3808130E-04;  0.0000000E+00; -9.9446916E-05;  1.0000079E+03;  4.0000001E-01;  6.5183330E+00;3; -1.1660640E+00;  0.0000000E+00; -1.0746951E-01;0; -1.0487759E-02;  1.0000173E+04;  0.0000000E+00; -5.8664090E-04;  1.0000000E+04;  0.0000000E+00;  9.9999844E+03; -1.1522228E-02;  0.0000000E+00;  1.0344690E-03;  6.8390741E+00;
  2.1999945E-01;  9.9999998E-03; -2.0000005E-01;1375; -9.6474460E-04;  0.0000000E+00; -8.4270083E-05;  1.0000080E+03;  4.0000001E-01;  6.6170959E+00;3; -1.1869030E+00;  0.0000000E+00; -9.0555683E-02;0; -1.0581215E-02;  1.0000173E+04;  0.0000000E+00; -1.1877056E-04;  1.0000000E+04;  0.0000000E+00;  9.9999873E+03; -1.1556887E-02;  0.0000000E+00;  9.7567233E-04;  6.0107131E+00;
  2.3999953E-01;  9.9999998E-03; -3.0000019E-01;1401; -8.3154574E-04;  0.0000000E+00; -3.2933883E-04;  1.0000098E+03;  4.0000001E-01;  8.0985355E+00;3; -1.1361384E+00;  0.0000000E+00; -4.2011267E-01;0; -1.3338960E-02;  1.0000203E+04;  0.0000000E+00; -1.6077496E-02;  1.0000000E+04;  0.0000000E+00;  9.9999971E+03; -1.3715543E-02;  0.0000000E+00;  3.7658331E-04;  7.2273552E+01;
  2.3999944E-01;  9.9999998E-03; -2.8000015E-01;1402; -9.8179688E-04;  0.0000000E+00; -2.4390501E-04;  1.0000103E+03;  4.0000001E-01;  8.5923481E+00;3; -1.2837291E+00;  0.0000000E+00; -2.8771967E-01;0; -1.3733052E-02;  1.0000213E+04;  0.0000000E+00; -1.0671357E-02;  1.0000000E+04;  0.0000000E+00;  9.9999932E+03; -1.4366980E-02;  0.0000000E+00;  6.3392770E-04;  4.8345970E+01;
  2.3999937E-01;  9.9999998E-03; -2.6000011E-01;1403; -1.0869440E-03;  0.0000000E+00; -1.9219793E-04;  1.0000101E+03;  4.0000001E-01;  8.3948231E+00;3; -1.3709403E+00;  0.0000000E+00; -2.1471156E-01;0; -1.3347077E-02;  1.0000219E+04;  0.0000000E+00; -5.2996865E-03;  1.0000000E+04;  0.0000000E+00;  9.9999824E+03; -1.4559966E-02;  0.0000000E+00;  1.2128886E-03;  2.5148045E+01;
  2.3999932E-01;  9.9999998E-03; -2.4000010E-01;1404; -1.1629801E-03;  0.0000000E+00; -1.5768771E-04;  1.0000101E+03;  4.0000001E-01;  8.2960606E+00;3; -1.4297739E+00;  0.0000000E+00; -1.7105094E-01;0; -1.3074687E-02;  1.0000223E+04;  0.0000000E+00; -2.0111436E-03;  1.0000000E+04;  0.0000000E+00;  9.9999785E+03; -1.4632059E-02;  0.0000000E+00;  1.5573729E-03;  1.3188271E+01;
  2.3999929E-01;  9.9999998E-03; -2.2000009E-01;1405; -1.2109812E-03;  0.0000000E+00; -1.3332261E-04;  1.0000101E+03;  4.0000001E-01;  8.2960606E+00;3; -1.4639202E+00;  0.0000000E+00; -1.4284633E-01;0; -1.3068466E-02;  1.0000225E+04;  0.0000000E+00; -5.7260896E-04;  1.0000000E+04;  0.0000000E+00;  9.9999775E+03; -1.4659690E-02;  0.0000000E+00;  1.5912242E-03;  1.0066863E+01;
  2.3999928E-01;  9.9999998E-03; -2.0000006E-01;1406; -1.2390254E-03;  0.0000000E+00; -1.1058973E-04;  1.0000102E+03;  4.0000001E-01;  8.4935856E+00;3; -1.4813566E+00;  0.0000000E+00; -1.1772816E-01;0; -1.3217547E-02;  1.0000228E+04;  0.0000000E+00; -1.0866936E-04;  1.0000000E+04;  0.0000000E+00;  9.9999795E+03; -1.4648431E-02;  0.0000000E+00;  1.4308840E-03;  8.8298321E+00;
  2.5999933E-01;  9.9999998E-03; -3.0000031E-01;1432; -1.1580553E-03;  0.0000000E+00; -5.2283797E-04;  1.0000118E+03;  4.0000001E-01;  9.7774992E+00;3; -1.5484104E+00;  0.0000000E+00; -6.6240096E-01;0; -1.5264914E-02;  1.0000261E+04;  0.0000000E+00; -1.4131002E-02;  1.0000000E+04;  0.0000000E+00;  9.9999756E+03; -1.7362760E-02;  0.0000000E+00;  2.0978458E-03;  6.5129990E+01;
  2.5999922E-01;  9.9999998E-03; -2.8000024E-01;1433; -1.3162806E-03;  0.0000000E+00; -3.8622456E-04;  1.0000126E+03;  4.0000001E-01;  1.0468838E+01;3; -1.6805357E+00;  0.0000000E+00; -4.5775193E-01;0; -1.6199719E-02;  1.0000277E+04;  0.0000000E+00; -9.2729712E-03;  1.0000000E+04;  0.0000000E+00;  9.9999736E+03; -1.8115336E-02;  0.0000000E+00;  1.9156167E-03;  4.3785858E+01;
  2.5999916E-01;  9.9999998E-03; -2.6000017E-01;1434; -1.4280205E-03;  0.0000000E+00; -2.8767492E-04;  1.0000126E+03;  4.0000001E-01;  1.0468838E+01;3; -1.7555424E+00;  0.0000000E+00; -3.2314736E-01;0; -1.6169801E-02;  1.0000285E+04;  0.0000000E+00; -4.4629546E-03;  1.0000000E+04;  0.0000000E+00;  9.9999678E+03; -1.8410539E-02;  0.0000000E+00;  2.2407384E-03;  2.4552128E+01;
  2.5999910E-01;  9.9999998E-03; -2.4000014E-01;1435; -1.5080400E-03;  0.0000000E+00; -2.2376805E-04;  1.0000126E+03;  4.0000001E-01;  1.0468838E+01;3; -1.8040895E+00;  0.0000000E+00; -2.4318281E-01;0; -1.6075440E-02;  1.0000290E+04;  0.0000000E+00; -1.6081500E-03;  1.0000000E+04;  0.0000000E+00;  9.9999658E+03; -1.8523220E-02;  0.0000000E+00;  2.4477795E-03;  1.6725624E+01;
  2.5999907E-01;  9.9999998E-03; -2.2000012E-01;1436; -1.5571428E-03;  0.0000000E+00; -1.8159220E-04;  1.0000128E+03;  4.0000001E-01;  1.0666363E+01;3; -1.8294828E+00;  0.0000000E+00; -1.9433349E-01;0; -1.6191013E-02;  1.0000294E+04;  0.0000000E+00; -4.2451016E-04;  1.0000000E+04;  0.0000000E+00;  9.9999658E+03; -1.8532325E-02;  0.0000000E+00;  2.3413124E-03;  1.4565010E+01;
  2.5999904E-01;  9.9999998E-03; -2.0000009E-01;1437; -1.5846322E-03;  0.0000000E+00; -1.4568408E-04;  1.0000132E+03;  4.0000001E-01;  1.0962650E+01;3; -1.8400069E+00;  0.0000000E+00; -1.5432264E-01;0; -1.6430203E-02;  1.0000293E+04;  0.0000000E+00; -7.0314789E-05;  1.0000000E+04;  0.0000000E+00;  9.9999707E+03; -1.8463273E-02;  0.0000000E+00;  2.0330702E-03;  1.2641918E+01;
  2.7999905E-01;  9.9999998E-03; -3.0000046E-01;1463; -1.5915072E-03;  0.0000000E+00; -7.3289295E-04;  1.0000145E+03;  4.0000001E-01;  1.1950276E+01;3; -2.0835896E+00;  0.0000000E+00; -9.0521747E-01;0; -1.7955374E-02;  1.0000347E+04;  0.0000000E+00; -9.9223619E-03;  1.0000000E+04;  0.0000000E+00;  9.9999443E+03; -2.2114990E-02;  0.0000000E+00;  4.1596163E-03;  5.0909248E+01;
  2.7999893E-01;  9.9999998E-03; -2.8000036E-01;1464; -1.7530225E-03;  0.0000000E+00; -5.5368699E-04;  1.0000155E+03;  4.0000001E-01;  1.2839140E+01;3; -2.1843088E+00;  0.0000000E+00; -6.4550126E-01;0; -1.9255809E-02;  1.0000362E+04;  0.0000000E+00; -6.3729179E-03;  1.0000000E+04;  0.0000000E+00;  9.9999482E+03; -2.2881603E-02;  0.0000000E+00;  3.6257938E-03;  3.6247688E+01;
  2.7999887E-01;  9.9999998E-03; -2.6000026E-01;1465; -1.8672324E-03;  0.0000000E+00; -4.0935073E-04;  1.0000159E+03;  4.0000001E-01;  1.3234191E+01;3; -2.2360802E+00;  0.0000000E+00; -4.5648995E-01;0; -1.9617269E-02;  1.0000370E+04;  0.0000000E+00; -2.9248630E-03;  1.0000000E+04;  0.0000000E+00;  9.9999463E+03; -2.3225844E-02;  0.0000000E+00;  3.6085746E-03;  2.5875011E+01;
  2.7999881E-01;  9.9999998E-03; -2.4000020E-01;1466; -1.9468400E-03;  0.0000000E+00; -3.1097446E-04;  1.0000161E+03;  4.0000001E-01;  1.3332953E+01;3; -2.2648060E+00;  0.0000000E+00; -3.3787814E-01;0; -1.9751392E-02;  1.0000375E+04;  0.0000000E+00; -9.7207306E-04;  1.0000000E+04;  0.0000000E+00;  9.9999463E+03; -2.3341522E-02;  0.0000000E+00;  3.5901289E-03;  2.2760710E+01;
  2.7999878E-01;  9.9999998E-03; -2.2000016E-01;1467; -1.9935328E-03;  0.0000000E+00; -2.4402767E-04;  1.0000165E+03;  4.0000001E-01;  1.3629241E+01;3; -2.2748313E+00;  0.0000000E+00; -2.6036239E-01;0; -2.0014539E-02;  1.0000377E+04;  0.0000000E+00; -2.2468432E-04;  1.0000000E+04;  0.0000000E+00;  9.9999502E+03; -2.3300804E-02;  0.0000000E+00;  3.2862644E-03;  2.0598425E+01;
  2.7999875E-01;  9.9999998E-03; -2.0000012E-01;1468; -2.0181113E-03;  0.0000000E+00; -1.8987380E-04;  1.0000168E+03;  4.0000001E-01;  1.3925529E+01;3; -2.2745178E+00;  0.0000000E+00; -1.9995520E-01;0; -2.0354547E-02;  1.0000377E+04;  0.0000000E+00; -2.8319211E-05;  1.0000000E+04;  0.0000000E+00;  9.9999580E+03; -2.3144335E-02;  0.0000000E+00;  2.7897870E-03;  1.7586557E+01;
  2.9999870E-01;  9.9999998E-03; -3.0000061E-01;1494; -2.1372556E-03;  0.0000000E+00; -9.6105103E-04;  1.0000185E+03;  4.0000001E-01;  1.5308204E+01;3; -2.7355814E+00;  0.0000000E+00; -1.1472918E+00;0; -2.2002481E-02;  1.0000459E+04;  0.0000000E+00; -5.3946120E-03;  1.0000000E+04;  0.0000000E+00;  9.9999121E+03; -2.8317781E-02;  0.0000000E+00;  6.3152993E-03;  4.3630035E+01;
  2.9999858E-01;  9.9999998E-03; -2.8000048E-01;1495; -2.3041212E-03;  0.0000000E+00; -7.4022269E-04;  1.0000196E+03;  4.0000001E-01;  1.6197067E+01;3; -2.7997611E+00;  0.0000000E+00; -8.4148145E-01;0; -2.3425817E-02;  1.0000473E+04;  0.0000000E+00; -3.3126792E-03;  1.0000000E+04;  0.0000000E+00;  9.9999199E+03; -2.8959140E-02;  0.0000000E+00;  5.5333227E-03;  3.6620598E+01;
  2.9999849E-01;  9.9999998E-03; -2.6000035E-01;1496; -2.4196759E-03;  0.0000000E+00; -5.5070233E-04;  1.0000201E+03;  4.0000001E-01;  1.6690880E+01;3; -2.8189447E+00;  0.0000000E+00; -6.0400683E-01;0; -2.4028689E-02;  1.0000481E+04;  0.0000000E+00; -1.3973429E-03;  1.0000000E+04;  0.0000000E+00;  9.9999219E+03; -2.9241784E-02;  0.0000000E+00;  5.2130958E-03;  3.3174072E+01;
  2.9999843E-01;  9.9999998E-03; -2.4000026E-01;1497; -2.4976896E-03;  0.0000000E+00; -4.1538748E-04;  1.0000204E+03;  4.0000001E-01;  1.6987167E+01;3; -2.8218555E+00;  0.0000000E+00; -4.4571516E-01;0; -2.4329344E-02;  1.0000484E+04;  0.0000000E+00; -4.0558231E-04;  1.0000000E+04;  0.0000000E+00;  9.9999258E+03; -2.9283868E-02;  0.0000000E+00;  4.9545243E-03;  3.1499949E+01;
  2.9999840E-01;  9.9999998E-03; -2.2000021E-01;1498; -2.5402829E-03;  0.0000000E+00; -3.2031006E-04;  1.0000209E+03;  4.0000001E-01;  1.7283455E+01;3; -2.8131530E+00;  0.0000000E+00; -3.4030548E-01;0; -2.4716271E-02;  1.0000485E+04;  0.0000000E+00; -7.2702867E-05;  1.0000000E+04;  0.0000000E+00;  9.9999346E+03; -2.9140847E-02;  0.0000000E+00;  4.4245757E-03;  2.8272573E+01;
  2.9999837E-01;  9.9999998E-03; -2.0000015E-01;1499; -2.5592837E-03;  0.0000000E+00; -2.4300162E-04;  1.0000213E+03;  4.0000001E-01;  1.7678505E+01;3; -2.7980511E+00;  0.0000000E+00; -2.5463861E-01;0; -2.5147816E-02;  1.0000483E+04;  0.0000000E+00; -4.8960565E-06;  1.0000000E+04;  0.0000000E+00;  9.9999443E+03; -2.8854690E-02;  0.0000000E+00;  3.7068743E-03;  2.3805494E+01;
  3.1999823E-01;  9.9999998E-03; -3.0000082E-01;1525; -2.8026728E-03;  0.0000000E+00; -1.2195081E-03;  1.0000240E+03;  4.0000001E-01;  1.9851282E+01;3; -3.4996698E+00;  0.0000000E+00; -1.4056612E+00;0; -2.7597729E-02;  1.0000605E+04;  0.0000000E+00; -2.0340499E-03;  1.0000000E+04;  0.0000000E+00;  9.9998750E+03; -3.6119681E-02;  0.0000000E+00;  8.5219517E-03;  5.1762051E+01;
  3.1999809E-01;  9.9999998E-03; -2.8000063E-01;1526; -2.9835526E-03;  0.0000000E+00; -9.4994262E-04;  1.0000251E+03;  4.0000001E-01;  2.0740147E+01;3; -3.5283985E+00;  0.0000000E+00; -1.0472280E+00;0; -2.8949143E-02;  1.0000615E+04;  0.0000000E+00; -1.1354416E-03;  1.0000000E+04;  0.0000000E+00;  9.9998848E+03; -3.6516741E-02;  0.0000000E+00;  7.5675976E-03;  4.7433937E+01;
  3.1999800E-01;  9.9999998E-03; -2.6000047E-01;1527; -3.1052267E-03;  0.0000000E+00; -7.1160565E-04;  1.0000256E+03;  4.0000001E-01;  2.1233959E+01;3; -3.5145013E+00;  0.0000000E+00; -7.6389641E-01;0; -2.9635189E-02;  1.0000621E+04;  0.0000000E+00; -4.1321028E-04;  1.0000000E+04;  0.0000000E+00;  9.9998916E+03; -3.6643852E-02;  0.0000000E+00;  7.0086620E-03;  4.5052677E+01;
  3.1999794E-01;  9.9999998E-03; -2.4000035E-01;1528; -3.1834864E-03;  0.0000000E+00; -5.3492608E-04;  1.0000261E+03;  4.0000001E-01;  2.1629009E+01;3; -3.4893720E+00;  0.0000000E+00; -5.6454349E-01;0; -3.0012814E-02;  1.0000624E+04;  0.0000000E+00; -9.0983049E-05;  1.0000000E+04;  0.0000000E+00;  9.9998975E+03; -3.6547005E-02;  0.0000000E+00;  6.5341904E-03;  4.2583012E+01;
  3.1999791E-01;  9.9999998E-03; -2.2000027E-01;1529; -3.2212092E-03;  0.0000000E+00; -4.0832767E-04;  1.0000266E+03;  4.0000001E-01;  2.2024059E+01;3; -3.4582469E+00;  0.0000000E+00; -4.2705938E-01;0; -3.0481610E-02;  1.0000623E+04;  0.0000000E+00; -8.6955351E-06;  1.0000000E+04;  0.0000000E+00;  9.9999102E+03; -3.6250263E-02;  0.0000000E+00;  5.7686521E-03;  3.7763191E+01;
  3.1999788E-01;  9.9999998E-03; -2.0000020E-01;1530; -3.2320628E-03;  0.0000000E+00; -3.0511306E-04;  1.0000272E+03;  4.0000001E-01;  2.2517874E+01;3; -3.4247849E+00;  0.0000000E+00; -3.1721050E-01;0; -3.0989392E-02;  1.0000618E+04;  0.0000000E+00; -2.5367952E-09;  1.0000000E+04;  0.0000000E+00;  9.9999268E+03; -3.5784490E-02;  0.0000000E+00;  4.7950987E-03;  3.1486851E+01;
  3.3999765E-01;  9.9999998E-03; -3.0000106E-01;1556; -3.6080708E-03;  0.0000000E+00; -1.5262536E-03;  1.0000311E+03;  4.0000001E-01;  2.5777037E+01;3; -4.3877254E+00;  0.0000000E+00; -1.6948613E+00;0; -3.4545973E-02;  1.0000790E+04;  0.0000000E+00; -3.7202673E-04;  1.0000000E+04;  0.0000000E+00;  9.9998311E+03; -4.5545887E-02;  0.0000000E+00;  1.0999916E-02;  6.9222824E+01;
  3.3999750E-01;  9.9999998E-03; -2.8000084E-01;1557; -3.8165557E-03;  0.0000000E+00; -1.1940592E-03;  1.0000322E+03;  4.0000001E-01;  2.6665901E+01;3; -4.3855329E+00;  0.0000000E+00; -1.2732886E+00;0; -3.5860352E-02;  1.0000795E+04;  0.0000000E+00; -1.7531592E-04;  1.0000000E+04;  0.0000000E+00;  9.9998486E+03; -4.5693297E-02;  0.0000000E+00;  9.8329457E-03;  6.3773102E+01;
  3.3999738E-01;  9.9999998E-03; -2.6000062E-01;1558; -3.9527356E-03;  0.0000000E+00; -8.9822558E-04;  1.0000328E+03;  4.0000001E-01;  2.7159714E+01;3; -4.3391714E+00;  0.0000000E+00; -9.3949139E-01;0; -3.6573105E-02;  1.0000798E+04;  0.0000000E+00; -4.4727145E-05;  1.0000000E+04;  0.0000000E+00;  9.9998574E+03; -4.5644335E-02;  0.0000000E+00;  9.0712300E-03;  6.0116253E+01;
  3.3999729E-01;  9.9999998E-03; -2.4000046E-01;1559; -4.0343800E-03;  0.0000000E+00; -6.7211781E-04;  1.0000332E+03;  4.0000001E-01;  2.7554764E+01;3; -4.2841907E+00;  0.0000000E+00; -6.9569314E-01;0; -3.6997903E-02;  1.0000798E+04;  0.0000000E+00; -3.6011018E-06;  1.0000000E+04;  0.0000000E+00;  9.9998682E+03; -4.5373760E-02;  0.0000000E+00;  8.3758580E-03;  5.6162323E+01;
  3.3999726E-01;  9.9999998E-03; -2.2000034E-01;1560; -4.0664910E-03;  0.0000000E+00; -5.0793390E-04;  1.0000338E+03;  4.0000001E-01;  2.8048576E+01;3; -4.2282577E+00;  0.0000000E+00; -5.2207458E-01;0; -3.7526827E-02;  1.0000793E+04;  0.0000000E+00;  2.6915787E-08;  1.0000000E+04;  0.0000000E+00;  9.9998848E+03; -4.4871677E-02;  0.0000000E+00;  7.3448503E-03;  4.9385704E+01;
  3.3999723E-01;  9.9999998E-03; -2.0000026E-01;1561; -4.0648854E-03;  0.0000000E+00; -3.7520187E-04;  1.0000345E+03;  4.0000001E-01;  2.8641151E+01;3; -4.1701183E+00;  0.0000000E+00; -3.8360122E-01;0; -3.8091104E-02;  1.0000783E+04;  0.0000000E+00; -2.0908688E-09;  1.0000000E+04;  0.0000000E+00;  9.9999033E+03; -4.4158664E-02;  0.0000000E+00;  6.0675596E-03;  4.0859028E+01;
  3.5999691E-01;  9.9999998E-03; -3.0000135E-01;1587; -4.5914324E-03;  0.0000000E+00; -1.8957843E-03;  1.0000398E+03;  4.0000001E-01;  3.2986702E+01;3; -5.4287419E+00;  0.0000000E+00; -2.0285819E+00;0; -4.2827092E-02;  1.0001018E+04;  0.0000000E+00; -5.2851105E-06;  1.0000000E+04;  0.0000000E+00;  9.9997783E+03; -5.6812976E-02;  0.0000000E+00;  1.3985883E-02;  9.2239449E+01;
  3.5999671E-01;  9.9999998E-03; -2.8000107E-01;1588; -4.8426636E-03;  0.0000000E+00; -1.4846077E-03;  1.0000409E+03;  4.0000001E-01;  3.3875565E+01;3; -5.3981071E+00;  0.0000000E+00; -1.5300276E+00;0; -4.4278603E-02;  1.0001021E+04;  0.0000000E+00; -2.0031722E-07;  1.0000000E+04;  0.0000000E+00;  9.9997988E+03; -5.6801654E-02;  0.0000000E+00;  1.2523050E-02;  8.4321068E+01;
  3.5999659E-01;  9.9999998E-03; -2.6000080E-01;1589; -5.0013093E-03;  0.0000000E+00; -1.1165480E-03;  1.0000417E+03;  4.0000001E-01;  3.4566902E+01;3; -5.3172755E+00;  0.0000000E+00; -1.1365634E+00;0; -4.5085162E-02;  1.0001019E+04;  0.0000000E+00;  5.4144994E-07;  1.0000000E+04;  0.0000000E+00;  9.9998145E+03; -5.6583997E-02;  0.0000000E+00;  1.1498834E-02;  7.8600487E+01;
  3.5999650E-01;  9.9999998E-03; -2.4000058E-01;1590; -5.0882683E-03;  0.0000000E+00; -8.3123875E-04;  1.0000422E+03;  4.0000001E-01;  3.4961952E+01;3; -5.2291265E+00;  0.0000000E+00; -8.4388489E-01;0; -4.5552358E-02;  1.0001016E+04;  0.0000000E+00;  1.9429315E-07;  1.0000000E+04;  0.0000000E+00;  9.9998291E+03; -5.6091953E-02;  0.0000000E+00;  1.0539596E-02;  7.2761528E+01;
  3.5999644E-01;  9.9999998E-03; -2.2000043E-01;1591; -5.1112678E-03;  0.0000000E+00; -6.2075641E-04;  1.0000428E+03;  4.0000001E-01;  3.5455765E+01;3; -5.1411896E+00;  0.0000000E+00; -6.2602395E-01;0; -4.6116475E-02;  1.0001006E+04;  0.0000000E+00;  3.7051901E-08;  1.0000000E+04;  0.0000000E+00;  9.9998525E+03; -5.5297907E-02;  0.0000000E+00;  9.1814334E-03;  6.3507023E+01;
  3.5999644E-01;  9.9999998E-03; -2.0000032E-01;1592; -5.0907908E-03;  0.0000000E+00; -4.5264277E-04;  1.0000436E+03;  4.0000001E-01;  3.6147102E+01;3; -5.0524383E+00;  0.0000000E+00; -4.5334834E-01;0; -4.6697903E-02;  1.0000993E+04;  0.0000000E+00; -3.7957948E-09;  1.0000000E+04;  0.0000000E+00;  9.9998789E+03; -5.4230146E-02;  0.0000000E+00;  7.5322422E-03;  5.2157200E+01;
  3.7999597E-01;  9.9999998E-03; -3.0000174E-01;1618; -5.8069248E-03;  0.0000000E+00; -2.3462102E-03;  1.0000506E+03;  4.0000001E-01;  4.1875328E+01;3; -6.6664977E+00;  0.0000000E+00; -2.4179356E+00;0; -5.2798841E-02;  1.0001304E+04;  0.0000000E+00;  1.4306995E-06;  1.0000000E+04;  0.0000000E+00;  9.9997090E+03; -7.0552081E-02;  0.0000000E+00;  1.7753240E-02;  1.2255548E+02;
  3.7999570E-01;  9.9999998E-03; -2.8000134E-01;1619; -6.1123683E-03;  0.0000000E+00; -1.8351077E-03;  1.0000521E+03;  4.0000001E-01;  4.3159241E+01;3; -6.6002383E+00;  0.0000000E+00; -1.8279514E+00;0; -5.4561108E-02;  1.0001304E+04;  0.0000000E+00;  1.4156852E-06;  1.0000000E+04;  0.0000000E+00;  9.9997393E+03; -7.0382461E-02;  0.0000000E+00;  1.5821351E-02;  1.1024473E+02;
  3.7999555E-01;  9.9999998E-03; -2.6000100E-01;1620; -6.2983832E-03;  0.0000000E+00; -1.3732346E-03;  1.0000530E+03;  4.0000001E-01;  4.3850578E+01;3; -6.4766073E+00;  0.0000000E+00; -1.3596562E+00;0; -5.5545498E-02;  1.0001300E+04;  0.0000000E+00;  7.8522140E-07;  1.0000000E+04;  0.0000000E+00;  9.9997627E+03; -6.9920197E-02;  0.0000000E+00;  1.4374699E-02;  1.0120566E+02;
  3.7999547E-01;  9.9999998E-03; -2.4000072E-01;1621; -6.3889595E-03;  0.0000000E+00; -1.0134329E-03;  1.0000536E+03;  4.0000001E-01;  4.4443153E+01;3; -6.3466396E+00;  0.0000000E+00; -1.0060716E+00;0; -5.6027312E-02;  1.0001288E+04;  0.0000000E+00;  2.7722896E-07;  1.0000000E+04;  0.0000000E+00;  9.9997832E+03; -6.9081470E-02;  0.0000000E+00;  1.3054159E-02;  9.2804207E+01;
  3.7999541E-01;  9.9999998E-03; -2.2000054E-01;1622; -6.3961581E-03;  0.0000000E+00; -7.4761931E-04;  1.0000543E+03;  4.0000001E-01;  4.4936966E+01;3; -6.2189274E+00;  0.0000000E+00; -7.3771340E-01;0; -5.6559544E-02;  1.0001271E+04;  0.0000000E+00;  5.0984465E-08;  1.0000000E+04;  0.0000000E+00;  9.9998135E+03; -6.7845292E-02;  0.0000000E+00;  1.1285749E-02;  8.0434303E+01;
  3.7999541E-01;  9.9999998E-03; -2.0000039E-01;1623; -6.3471007E-03;  0.0000000E+00; -5.3914764E-04;  1.0000549E+03;  4.0000001E-01;  4.5430779E+01;3; -6.0911064E+00;  0.0000000E+00; -5.2669328E-01;0; -5.7081200E-02;  1.0001250E+04;  0.0000000E+00; -4.1800812E-09;  1.0000000E+04;  0.0000000E+00;  9.9998477E+03; -6.6268891E-02;  0.0000000E+00;  9.1876918E-03;  6.5625084E+01;
  3.9999476E-01;  9.9999998E-03; -3.0000225E-01;1649; -7.3142084E-03;  0.0000000E+00; -2.8966197E-03;  1.0000642E+03;  4.0000001E-01;  5.3233009E+01;3; -8.1399593E+00;  0.0000000E+00; -2.8772523E+00;0; -6.4968452E-02;  1.0001668E+04;  0.0000000E+00;  1.9681363E-06;  1.0000000E+04;  0.0000000E+00;  9.9996172E+03; -8.7472126E-02;  0.0000000E+00;  2.2503670E-02;  1.6173709E+02;
  3.9999443E-01;  9.9999998E-03; -2.8000173E-01;1650; -7.6836236E-03;  0.0000000E+00; -2.2569788E-03;  1.0000664E+03;  4.0000001E-01;  5.5010735E+01;3; -8.0256948E+00;  0.0000000E+00; -2.1761212E+00;0; -6.7194283E-02;  1.0001662E+04;  0.0000000E+00;  2.0208522E-06;  1.0000000E+04;  0.0000000E+00;  9.9996650E+03; -8.6999699E-02;  0.0000000E+00;  1.9805415E-02;  1.4224684E+02;
  3.9999422E-01;  9.9999998E-03; -2.6000124E-01;1651; -7.8990282E-03;  0.0000000E+00; -1.6733266E-03;  1.0000674E+03;  4.0000001E-01;  5.5899597E+01;3; -7.8464956E+00;  0.0000000E+00; -1.6130561E+00;0; -6.8420656E-02;  1.0001650E+04;  0.0000000E+00;  1.1204850E-06;  1.0000000E+04;  0.0000000E+00;  9.9997012E+03; -8.6114593E-02;  0.0000000E+00;  1.7693939E-02;  1.2815314E+02;
  3.9999413E-01;  9.9999998E-03; -2.4000089E-01;1652; -7.9873493E-03;  0.0000000E+00; -1.2210887E-03;  1.0000678E+03;  4.0000001E-01;  5.6195885E+01;3; -7.6633930E+00;  0.0000000E+00; -1.1835519E+00;0; -6.8828151E-02;  1.0001629E+04;  0.0000000E+00;  3.8875839E-07;  1.0000000E+04;  0.0000000E+00;  9.9997285E+03; -8.4727205E-02;  0.0000000E+00;  1.5899055E-02;  1.1653052E+02;
  3.9999411E-01;  9.9999998E-03; -2.2000065E-01;1653; -7.9671275E-03;  0.0000000E+00; -8.9102669E-04;  1.0000684E+03;  4.0000001E-01;  5.6590935E+01;3; -7.4856033E+00;  0.0000000E+00; -8.5654151E-01;0; -6.9198653E-02;  1.0001601E+04;  0.0000000E+00;  7.4463081E-08;  1.0000000E+04;  0.0000000E+00;  9.9997686E+03; -8.2837433E-02;  0.0000000E+00;  1.3638777E-02;  1.0044314E+02;
  3.9999413E-01;  9.9999998E-03; -2.0000048E-01;1654; -7.8746472E-03;  0.0000000E+00; -6.3830399E-04;  1.0000689E+03;  4.0000001E-01;  5.7084751E+01;3; -7.3061109E+00;  0.0000000E+00; -6.0365474E-01;0; -6.9530264E-02;  1.0001566E+04;  0.0000000E+00; -3.8483772E-09;  1.0000000E+04;  0.0000000E+00;  9.9998145E+03; -8.0549337E-02;  0.0000000E+00;  1.1019077E-02;  8.1564171E+01;
  4.1999316E-01;  9.9999998E-03; -3.0000287E-01;1680; -9.1830920E-03;  0.0000000E+00; -3.5680626E-03;  1.0000818E+03;  4.0000001E-01;  6.7849846E+01;3; -9.8911915E+00;  0.0000000E+00; -3.4178667E+00;0; -7.9808772E-02;  1.0002132E+04;  0.0000000E+00;  2.5464856E-06;  1.0000000E+04;  0.0000000E+00;  9.9995049E+03; -1.0818885E-01;  0.0000000E+00;  2.8380072E-02;  2.1133028E+02;
  4.1999277E-01;  9.9999998E-03; -2.8000215E-01;1681; -9.6262302E-03;  0.0000000E+00; -2.7593756E-03;  1.0000846E+03;  4.0000001E-01;  7.0121384E+01;3; -9.7116966E+00;  0.0000000E+00; -2.5814867E+00;0; -8.2775280E-02;  1.0002115E+04;  0.0000000E+00;  2.8115651E-06;  1.0000000E+04;  0.0000000E+00;  9.9995811E+03; -1.0718412E-01;  0.0000000E+00;  2.4408840E-02;  1.8008470E+02;
  4.1999257E-01;  9.9999998E-03; -2.6000154E-01;1682; -9.8695708E-03;  0.0000000E+00; -2.0195756E-03;  1.0000858E+03;  4.0000001E-01;  7.1109009E+01;3; -9.4599533E+00;  0.0000000E+00; -1.8992928E+00;0; -8.4263653E-02;  1.0002087E+04;  0.0000000E+00;  1.5904266E-06;  1.0000000E+04;  0.0000000E+00;  9.9996299E+03; -1.0561427E-01;  0.0000000E+00;  2.1350618E-02;  1.5916792E+02;
  4.1999248E-01;  9.9999998E-03; -2.4000110E-01;1683; -9.9432226E-03;  0.0000000E+00; -1.4564134E-03;  1.0000858E+03;  4.0000001E-01;  7.1109009E+01;3; -9.2085533E+00;  0.0000000E+00; -1.3768958E+00;0; -8.4402293E-02;  1.0002049E+04;  0.0000000E+00;  5.6050948E-07;  1.0000000E+04;  0.0000000E+00;  9.9996660E+03; -1.0339741E-01;  0.0000000E+00;  1.8995119E-02;  1.4406094E+02;
  4.1999248E-01;  9.9999998E-03; -2.2000080E-01;1684; -9.8763062E-03;  0.0000000E+00; -1.0566389E-03;  1.0000860E+03;  4.0000001E-01;  7.1207771E+01;3; -8.9638405E+00;  0.0000000E+00; -9.8396045E-01;0; -8.4383786E-02;  1.0002001E+04;  0.0000000E+00;  1.1099038E-07;  1.0000000E+04;  0.0000000E+00;  9.9997168E+03; -1.0057576E-01;  0.0000000E+00;  1.6191971E-02;  1.2389571E+02;
  4.1999254E-01;  9.9999998E-03; -2.0000060E-01;1685; -9.7188484E-03;  0.0000000E+00; -7.5848267E-04;  1.0000861E+03;  4.0000001E-01;  7.1306534E+01;3; -8.7170038E+00;  0.0000000E+00; -6.8597519E-01;0; -8.4320687E-02;  1.0001953E+04;  0.0000000E+00;  1.5638210E-09;  1.0000000E+04;  0.0000000E+00;  9.9997725E+03; -9.7324595E-02;  0.0000000E+00;  1.3003906E-02;  1.0048999E+02;
  4.3999112E-01;  9.9999998E-03; -3.0000365E-01;1711; -1.1503644E-02;  0.0000000E+00; -4.3829395E-03;  1.0001039E+03;  4.0000001E-01;  8.6022118E+01;3; -1.1969514E+01;  0.0000000E+00; -4.0575027E+00;0; -9.7903661E-02;  1.0002712E+04;  0.0000000E+00;  2.9611449E-06;  1.0000000E+04;  0.0000000E+00;  9.9993672E+03; -1.3325500E-01;  0.0000000E+00;  3.5351343E-02;  2.7089044E+02;
  4.3999064E-01;  9.9999998E-03; -2.8000271E-01;1712; -1.2027512E-02;  0.0000000E+00; -3.3534977E-03;  1.0001077E+03;  4.0000001E-01;  8.9281281E+01;3; -1.1701529E+01;  0.0000000E+00; -3.0543191E+00;0; -1.0194792E-01;  1.0002673E+04;  0.0000000E+00;  3.8729909E-06;  1.0000000E+04;  0.0000000E+00;  9.9994834E+03; -1.3138621E-01;  0.0000000E+00;  2.9438285E-02;  2.2230345E+02;
  4.3999040E-01;  9.9999998E-03; -2.6000190E-01;1713; -1.2291024E-02;  0.0000000E+00; -2.4131089E-03;  1.0001088E+03;  4.0000001E-01;  9.0071381E+01;3; -1.1355672E+01;  0.0000000E+00; -2.2171896E+00;0; -1.0366178E-01;  1.0002622E+04;  0.0000000E+00;  2.3041775E-06;  1.0000000E+04;  0.0000000E+00;  9.9995537E+03; -1.2877227E-01;  0.0000000E+00;  2.5110498E-02;  1.9349161E+02;
  4.3999037E-01;  9.9999998E-03; -2.4000134E-01;1714; -1.2327349E-02;  0.0000000E+00; -1.7241139E-03;  1.0001078E+03;  4.0000001E-01;  8.9380043E+01;3; -1.1014279E+01;  0.0000000E+00; -1.5833913E+00;0; -1.0315766E-01;  1.0002560E+04;  0.0000000E+00;  8.5323211E-07;  1.0000000E+04;  0.0000000E+00;  9.9995977E+03; -1.2536174E-01;  0.0000000E+00;  2.2204079E-02;  1.7572989E+02;
  4.3999043E-01;  9.9999998E-03; -2.2000100E-01;1715; -1.2185539E-02;  0.0000000E+00; -1.2553496E-03;  1.0001072E+03;  4.0000001E-01;  8.8886230E+01;3; -1.0680231E+01;  0.0000000E+00; -1.1267081E+00;0; -1.0238967E-01;  1.0002488E+04;  0.0000000E+00;  1.9521428E-07;  1.0000000E+04;  0.0000000E+00;  9.9996563E+03; -1.2126872E-01;  0.0000000E+00;  1.8879050E-02;  1.5160172E+02;
  4.3999058E-01;  9.9999998E-03; -2.0000076E-01;1716; -1.1932799E-02;  0.0000000E+00; -9.1743056E-04;  1.0001068E+03;  4.0000001E-01;  8.8491180E+01;3; -1.0344902E+01;  0.0000000E+00; -7.8415734E-01;0; -1.0163054E-01;  1.0002415E+04;  0.0000000E+00;  2.1863913E-08;  1.0000000E+04;  0.0000000E+00;  9.9997246E+03; -1.1676636E-01;  0.0000000E+00;  1.5135828E-02;  1.2348123E+02;
  4.5998847E-01;  9.9999998E-03; -3.0000460E-01;1742; -1.4392785E-02;  0.0000000E+00; -5.3695845E-03;  1.0001321E+03;  4.0000030E-01;  1.0942876E+02;3; -1.4436046E+01;  0.0000000E+00; -4.8197579E+00;0; -1.1971732E-01;  1.0003415E+04;  0.0000000E+00;  3.0553247E-06;  1.0000000E+04;  0.0000000E+00;  9.9992129E+03; -1.6293581E-01;  0.0000000E+00;  4.3218486E-02;  3.3930652E+02;
  4.5998794E-01;  9.9999998E-03; -2.8000334E-01;1743; -1.4995943E-02;  0.0000000E+00; -4.0486204E-03;  1.0001373E+03;  4.0000033E-01;  1.1367554E+02;3; -1.4047652E+01;  0.0000000E+00; -3.6037583E+00;0; -1.2534150E-01;  1.0003348E+04;  0.0000000E+00;  5.4529282E-06;  1.0000000E+04;  0.0000000E+00;  9.9993838E+03; -1.5976736E-01;  0.0000000E+00;  3.4425858E-02;  2.6640234E+02;
  4.5998770E-01;  9.9999998E-03; -2.6000232E-01;1744; -1.5259855E-02;  0.0000000E+00; -2.8592646E-03;  1.0001375E+03;  4.0000033E-01;  1.1397182E+02;3; -1.3578749E+01;  0.0000000E+00; -2.5607202E+00;0; -1.2703174E-01;  1.0003267E+04;  0.0000000E+00;  3.5223579E-06;  1.0000000E+04;  0.0000000E+00;  9.9994717E+03; -1.5566161E-01;  0.0000000E+00;  2.8629869E-02;  2.3089362E+02;
  4.5998770E-01;  9.9999998E-03; -2.4000165E-01;1745; -1.5221800E-02;  0.0000000E+00; -2.0400174E-03;  1.0001351E+03;  4.0000027E-01;  1.1189782E+02;3; -1.3114737E+01;  0.0000000E+00; -1.8028909E+00;0; -1.2525494E-01;  1.0003170E+04;  0.0000000E+00;  1.4281781E-06;  1.0000000E+04;  0.0000000E+00;  9.9995166E+03; -1.5063009E-01;  0.0000000E+00;  2.5375141E-02;  2.1300948E+02;
  4.5998788E-01;  9.9999998E-03; -2.2000125E-01;1746; -1.4966713E-02;  0.0000000E+00; -1.5079997E-03;  1.0001331E+03;  4.0000033E-01;  1.1031762E+02;3; -1.2661306E+01;  0.0000000E+00; -1.2883556E+00;0; -1.2322588E-01;  1.0003065E+04;  0.0000000E+00;  4.0225947E-07;  1.0000000E+04;  0.0000000E+00;  9.9995840E+03; -1.4489138E-01;  0.0000000E+00;  2.1665508E-02;  1.8565317E+02;
  4.5998812E-01;  9.9999998E-03; -2.0000100E-01;1747; -1.4578518E-02;  0.0000000E+00; -1.1492296E-03;  1.0001317E+03;  4.0000033E-01;  1.0913247E+02;3; -1.2207985E+01;  0.0000000E+00; -9.1532481E-01;0; -1.2136527E-01;  1.0002961E+04;  0.0000000E+00;  8.8874643E-08;  1.0000000E+04;  0.0000000E+00;  9.9996631E+03; -1.3884200E-01;  0.0000000E+00;  1.7476728E-02;  1.5279761E+02;
  4.7998500E-01;  9.9999998E-03; -3.0000582E-01;1773; -1.8010363E-02;  0.0000000E+00; -6.5702205E-03;  1.0001670E+03;  4.0000090E-01;  1.3836604E+02;3; -1.7375557E+01;  0.0000000E+00; -5.7438164E+00;0; -1.4532775E-01;  1.0004250E+04;  0.0000000E+00;  2.8068332E-06;  1.0000000E+04;  0.0000000E+00;  9.9990469E+03; -1.9683114E-01;  0.0000000E+00;  5.1503398E-02;  4.1210944E+02;
  4.7998443E-01;  9.9999998E-03; -2.8000414E-01;1774; -1.8662320E-02;  0.0000000E+00; -4.8540877E-03;  1.0001739E+03;  4.0000087E-01;  1.4409425E+02;3; -1.6813173E+01;  0.0000000E+00; -4.2350931E+00;0; -1.5325212E-01;  1.0004141E+04;  0.0000000E+00;  8.1935186E-06;  1.0000000E+04;  0.0000000E+00;  9.9992910E+03; -1.9187109E-01;  0.0000000E+00;  3.8618974E-02;  3.0880862E+02;
  4.7998425E-01;  9.9999998E-03; -2.6000282E-01;1775; -1.8882222E-02;  0.0000000E+00; -3.3764476E-03;  1.0001720E+03;  4.0000096E-01;  1.4251405E+02;3; -1.6177069E+01;  0.0000000E+00; -2.9375110E+00;0; -1.5425387E-01;  1.0004013E+04;  0.0000000E+00;  5.8533979E-06;  1.0000000E+04;  0.0000000E+00;  9.9993857E+03; -1.8578938E-01;  0.0000000E+00;  3.1535503E-02;  2.7283905E+02;
  4.7998440E-01;  9.9999998E-03; -2.4000208E-01;1776; -1.8713793E-02;  0.0000000E+00; -2.4401976E-03;  1.0001667E+03;  4.0000087E-01;  1.3816852E+02;3; -1.5542750E+01;  0.0000000E+00; -2.0396590E+00;0; -1.5024370E-01;  1.0003871E+04;  0.0000000E+00;  2.6152927E-06;  1.0000000E+04;  0.0000000E+00;  9.9994170E+03; -1.7870319E-01;  0.0000000E+00;  2.8459482E-02;  2.6025897E+02;
  4.7998470E-01;  9.9999998E-03; -2.2000164E-01;1777; -1.8295189E-02;  0.0000000E+00; -1.8657240E-03;  1.0001630E+03;  4.0000090E-01;  1.3500812E+02;3; -1.4932207E+01;  0.0000000E+00; -1.4863520E+00;0; -1.4630283E-01;  1.0003726E+04;  0.0000000E+00;  8.7655417E-07;  1.0000000E+04;  0.0000000E+00;  9.9994883E+03; -1.7096598E-01;  0.0000000E+00;  2.4663148E-02;  2.3085521E+02;
  4.7998509E-01;  9.9999998E-03; -2.0000137E-01;1778; -1.7726084E-02;  0.0000000E+00; -1.5060705E-03;  1.0001605E+03;  4.0000084E-01;  1.3293411E+02;3; -1.4320847E+01;  0.0000000E+00; -1.1129562E+00;0; -1.4287743E-01;  1.0003586E+04;  0.0000000E+00;  2.8059640E-07;  1.0000000E+04;  0.0000000E+00;  9.9995791E+03; -1.6311364E-01;  0.0000000E+00;  2.0236202E-02;  1.9286185E+02;
  4.9998042E-01;  9.9999998E-03; -3.0000737E-01;1804; -2.2549460E-02;  0.0000000E+00; -8.0093462E-03;  1.0002085E+03;  4.0000206E-01;  1.7273517E+02;3; -2.0878496E+01;  0.0000000E+00; -6.8321505E+00;0; -1.7423128E-01;  1.0005176E+04;  0.0000000E+00;  2.7516087E-06;  1.0000000E+04;  0.0000000E+00;  9.9988896E+03; -2.3339574E-01;  0.0000000E+00;  5.9164461E-02;  4.8235056E+02;
  4.9997994E-01;  9.9999998E-03; -2.8000510E-01;1805; -2.3174979E-02;  0.0000000E+00; -5.7841907E-03;  1.0002165E+03;  4.0000215E-01;  1.7935223E+02;3; -2.0067663E+01;  0.0000000E+00; -4.9510555E+00;0; -1.8517840E-01;  1.0005015E+04;  0.0000000E+00;  1.3982843E-05;  1.0000000E+04;  0.0000000E+00;  9.9992119E+03; -2.2619963E-01;  0.0000000E+00;  4.1021224E-02;  3.4681409E+02;
  4.9997997E-01;  9.9999998E-03; -2.6000351E-01;1806; -2.3258124E-02;  0.0000000E+00; -3.9876872E-03;  1.0002108E+03;  4.0000212E-01;  1.7461165E+02;3; -1.9186558E+01;  0.0000000E+00; -3.3283615E+00;0; -1.8421541E-01;  1.0004833E+04;  0.0000000E+00;  1.0908189E-05;  1.0000000E+04;  0.0000000E+00;  9.9992793E+03; -2.1772787E-01;  0.0000000E+00;  3.3512458E-02;  3.2578244E+02;
  4.9998033E-01;  9.9999998E-03; -2.4000271E-01;1807; -2.2885712E-02;  0.0000000E+00; -3.0032180E-03;  1.0002012E+03;  4.0000212E-01;  1.6671066E+02;3; -1.8326168E+01;  0.0000000E+00; -2.3546164E+00;0; -1.7658004E-01;  1.0004643E+04;  0.0000000E+00;  5.2237297E-06;  1.0000000E+04;  0.0000000E+00;  9.9992793E+03; -2.0825289E-01;  0.0000000E+00;  3.1672843E-02;  3.2762216E+02;
  4.9998081E-01;  9.9999998E-03; -2.2000225E-01;1808; -2.2239313E-02;  0.0000000E+00; -2.4192429E-03;  1.0001952E+03;  4.0000209E-01;  1.6167380E+02;3; -1.7507318E+01;  0.0000000E+00; -1.7682053E+00;0; -1.7000285E-01;  1.0004448E+04;  0.0000000E+00;  1.9202535E-06;  1.0000000E+04;  0.0000000E+00;  9.9993506E+03; -1.9828139E-01;  0.0000000E+00;  2.8278539E-02;  2.9710529E+02;
  4.9998134E-01;  9.9999998E-03; -2.0000196E-01;1809; -2.1441283E-02;  0.0000000E+00; -2.0808778E-03;  1.0001913E+03;  4.0000212E-01;  1.5851340E+02;3; -1.6695766E+01;  0.0000000E+00; -1.4254407E+00;0; -1.6458814E-01;  1.0004267E+04;  0.0000000E+00;  7.3489957E-07;  1.0000000E+04;  0.0000000E+00;  9.9994541E+03; -1.8848175E-01;  0.0000000E+00;  2.3893613E-02;  2.5190974E+02;
  5.1997441E-01;  9.9999998E-03; -3.0000934E-01;1835; -2.8250286E-02;  0.0000000E+00; -9.7369794E-03;  1.0002584E+03;  4.0000585E-01;  2.1411626E+02;3; -2.5062920E+01;  0.0000000E+00; -8.0980864E+00;0; -2.0469569E-01;  1.0006122E+04;  0.0000000E+00;  5.4502561E-06;  1.0000000E+04;  0.0000000E+00;  9.9987529E+03; -2.6943886E-01;  0.0000000E+00;  6.4743176E-02;  5.4396527E+02;
  5.1997435E-01;  9.9999998E-03; -2.8000638E-01;1836; -2.8679043E-02;  0.0000000E+00; -6.9013773E-03;  1.0002669E+03;  4.0000591E-01;  2.2112836E+02;3; -2.3881203E+01;  0.0000000E+00; -5.7509656E+00;0; -2.1879497E-01;  1.0005903E+04;  0.0000000E+00;  2.7756454E-05;  1.0000000E+04;  0.0000000E+00;  9.9991387E+03; -2.5977004E-01;  0.0000000E+00;  4.0975060E-02;  3.8655618E+02;
  5.1997471E-01;  9.9999998E-03; -2.6000449E-01;1837; -2.8481353E-02;  0.0000000E+00; -4.8097139E-03;  1.0002538E+03;  4.0000591E-01;  2.1026453E+02;3; -2.2657806E+01;  0.0000000E+00; -3.7815573E+00;0; -2.1381912E-01;  1.0005663E+04;  0.0000000E+00;  2.2778877E-05;  1.0000000E+04;  0.0000000E+00;  9.9991182E+03; -2.4873066E-01;  0.0000000E+00;  3.4911543E-02;  4.0680783E+02;
  5.1997536E-01;  9.9999998E-03; -2.4000369E-01;1838; -2.7793296E-02;  0.0000000E+00; -3.8412574E-03;  1.0002384E+03;  4.0000588E-01;  1.9752422E+02;3; -2.1494993E+01;  0.0000000E+00; -2.7564964E+00;0; -2.0102042E-01;  1.0005418E+04;  0.0000000E+00;  1.1253336E-05;  1.0000000E+04;  0.0000000E+00;  9.9990586E+03; -2.3679169E-01;  0.0000000E+00;  3.5771273E-02;  4.3533774E+02;
  5.1997608E-01;  9.9999998E-03; -2.2000322E-01;1839; -2.6838606E-02;  0.0000000E+00; -3.3112827E-03;  1.0002299E+03;  4.0000591E-01;  1.9051212E+02;3; -2.0389877E+01;  0.0000000E+00; -2.2027600E+00;0; -1.9116588E-01;  1.0005175E+04;  0.0000000E+00;  4.1584890E-06;  1.0000000E+04;  0.0000000E+00;  9.9991289E+03; -2.2460471E-01;  0.0000000E+00;  3.3438828E-02;  4.0273889E+02;
  5.1997679E-01;  9.9999998E-03; -2.0000288E-01;1840; -2.5767116E-02;  0.0000000E+00; -3.0091177E-03;  1.0002253E+03;  4.0000594E-01;  1.8666039E+02;3; -1.9328650E+01;  0.0000000E+00; -1.9447725E+00;0; -1.8356742E-01;  1.0004953E+04;  0.0000000E+00;  1.5603041E-06;  1.0000000E+04;  0.0000000E+00;  9.9992568E+03; -2.1293084E-01;  0.0000000E+00;  2.9363427E-02;  3.4443582E+02;
  5.3996676E-01;  9.9999998E-03; -3.0001202E-01;1866; -3.5328858E-02;  0.0000000E+00; -1.1840513E-02;  1.0003188E+03;  4.0001556E-01;  2.6408939E+02;3; -3.0029217E+01;  0.0000000E+00; -9.5186262E+00;0; -2.3300910E-01;  1.0006946E+04;  0.0000000E+00;  1.6635744E-05;  1.0000000E+04;  0.0000000E+00;  9.9986465E+03; -2.9976571E-01;  0.0000000E+00;  6.6756606E-02;  5.9715735E+02;
  5.3996742E-01;  9.9999998E-03; -2.8000820E-01;1867; -3.5261102E-02;  0.0000000E+00; -8.3205765E-03;  1.0003246E+03;  4.0001556E-01;  2.6892871E+02;3; -2.8289974E+01;  0.0000000E+00; -6.6468678E+00;0; -2.4966282E-01;  1.0006679E+04;  0.0000000E+00;  6.1100109E-05;  1.0000000E+04;  0.0000000E+00;  9.9990342E+03; -2.8781718E-01;  0.0000000E+00;  3.8154360E-02;  4.4626276E+02;
  5.3996849E-01;  9.9999998E-03; -2.6000607E-01;1868; -3.4559041E-02;  0.0000000E+00; -6.0183555E-03;  1.0003003E+03;  4.0001556E-01;  2.4878128E+02;3; -2.6600256E+01;  0.0000000E+00; -4.3523979E+00;0; -2.3769897E-01;  1.0006391E+04;  0.0000000E+00;  5.1676820E-05;  1.0000000E+04;  0.0000000E+00;  9.9988350E+03; -2.7449811E-01;  0.0000000E+00;  3.6799125E-02;  5.4806940E+02;
  5.3996962E-01;  9.9999998E-03; -2.4000525E-01;1869; -3.3407241E-02;  0.0000000E+00; -5.1740403E-03;  1.0002778E+03;  4.0001562E-01;  2.3011528E+02;3; -2.5016859E+01;  0.0000000E+00; -3.3564367E+00;0; -2.1813600E-01;  1.0006098E+04;  0.0000000E+00;  2.5647436E-05;  1.0000000E+04;  0.0000000E+00;  9.9986807E+03; -2.6048663E-01;  0.0000000E+00;  4.2350639E-02;  6.1652020E+02;
  5.3997058E-01;  9.9999998E-03; -2.2000475E-01;1870; -3.2067969E-02;  0.0000000E+00; -4.7503114E-03;  1.0002676E+03;  4.0001562E-01;  2.2172052E+02;3; -2.3550140E+01;  0.0000000E+00; -2.9030485E+00;0; -2.0473540E-01;  1.0005814E+04;  0.0000000E+00;  8.8683537E-06;  1.0000000E+04;  0.0000000E+00;  9.9987617E+03; -2.4652331E-01;  0.0000000E+00;  4.1787911E-02;  5.7682141E+02;
  5.3997147E-01;  9.9999998E-03; -2.0000425E-01;1871; -3.0691907E-02;  0.0000000E+00; -4.4512036E-03;  1.0002636E+03;  4.0001559E-01;  2.1836261E+02;3; -2.2194138E+01;  0.0000000E+00; -2.7769456E+00;0; -1.9523431E-01;  1.0005556E+04;  0.0000000E+00;  2.7373649E-06;  1.0000000E+04;  0.0000000E+00;  9.9989375E+03; -2.3338279E-01;  0.0000000E+00;  3.8148474E-02;  4.9358359E+02;
  5.5995721E-01;  9.9999998E-03; -3.0001581E-01;1897; -4.3827984E-02;  0.0000000E+00; -1.4484677E-02;  1.0004040E+03;  4.0004191E-01;  3.3470334E+02;3; -3.5751633E+01;  0.0000000E+00; -1.1073300E+01;0; -2.5274950E-01;  1.0007460E+04;  0.0000000E+00;  4.6508707E-05;  1.0000000E+04;  0.0000000E+00;  9.9985176E+03; -3.1708556E-01;  0.0000000E+00;  6.4336054E-02;  6.6691168E+02;
  5.5995935E-01;  9.9999998E-03; -2.8001103E-01;1898; -4.2841896E-02;  0.0000000E+00; -1.0293517E-02;  1.0004031E+03;  4.0004191E-01;  3.3391327E+02;3; -3.3252850E+01;  0.0000000E+00; -7.6280680E+00;0; -2.6980764E-01;  1.0007162E+04;  0.0000000E+00;  1.3742781E-04;  1.0000000E+04;  0.0000000E+00;  9.9987988E+03; -3.0373025E-01;  0.0000000E+00;  3.3922620E-02;  5.7182660E+02;
  5.5996144E-01;  9.9999998E-03; -2.6000860E-01;1899; -4.1344669E-02;  0.0000000E+00; -7.9197083E-03;  1.0003637E+03;  4.0004188E-01;  3.0132190E+02;3; -3.0941843E+01;  0.0000000E+00; -5.1209836E+00;0; -2.4768800E-01;  1.0006849E+04;  0.0000000E+00;  1.1870415E-04;  1.0000000E+04;  0.0000000E+00;  9.9983271E+03; -2.8914127E-01;  0.0000000E+00;  4.1453280E-02;  7.9701172E+02;
  5.5996305E-01;  9.9999998E-03; -2.4000765E-01;1900; -3.9568726E-02;  0.0000000E+00; -7.2999238E-03;  1.0003345E+03;  4.0004194E-01;  2.7712527E+02;3; -2.8825777E+01;  0.0000000E+00; -4.2428851E+00;0; -2.2026955E-01;  1.0006535E+04;  0.0000000E+00;  5.8758425E-05;  1.0000000E+04;  0.0000000E+00;  9.9980566E+03; -2.7413481E-01;  0.0000000E+00;  5.3865265E-02;  9.1320044E+02;
  5.5996436E-01;  9.9999998E-03; -2.2000693E-01;1901; -3.7789859E-02;  0.0000000E+00; -6.9894572E-03;  1.0003246E+03;  4.0004200E-01;  2.6892807E+02;3; -2.6902237E+01;  0.0000000E+00; -4.0503893E+00;0; -2.0378703E-01;  1.0006231E+04;  0.0000000E+00;  1.8659677E-05;  1.0000000E+04;  0.0000000E+00;  9.9981650E+03; -2.5941679E-01;  0.0000000E+00;  5.5629756E-02;  8.5718207E+02;
  5.5996543E-01;  9.9999998E-03; -2.0000616E-01;1902; -3.6102839E-02;  0.0000000E+00; -6.5975664E-03;  1.0003239E+03;  4.0004188E-01;  2.6833551E+02;3; -2.5184448E+01;  0.0000000E+00; -4.1553030E+00;0; -1.9333896E-01;  1.0005954E+04;  0.0000000E+00;  3.7196990E-06;  1.0000000E+04;  0.0000000E+00;  9.9984258E+03; -2.4566004E-01;  0.0000000E+00;  5.2321080E-02;  7.3081891E+02;
  5.7994622E-01;  9.9999998E-03; -3.0002147E-01;1928; -5.3435557E-02;  0.0000000E+00; -1.7950747E-02;  1.0005609E+03;  4.0011185E-01;  4.6467215E+02;3; -4.1994209E+01;  0.0000000E+00; -1.2650272E+01;0; -2.5351459E-01;  1.0007410E+04;  0.0000000E+00;  1.0917734E-04;  1.0000000E+04;  0.0000000E+00;  9.9982041E+03; -3.1229746E-01;  0.0000000E+00;  5.8782887E-02;  8.2802118E+02;
  5.7995045E-01;  9.9999998E-03; -2.8001574E-01;1929; -5.1060952E-02;  0.0000000E+00; -1.3256690E-02;  1.0005484E+03;  4.0011182E-01;  4.5430222E+02;3; -3.8564960E+01;  0.0000000E+00; -8.7573948E+00;0; -2.6751989E-01;  1.0007128E+04;  0.0000000E+00;  2.9358050E-04;  1.0000000E+04;  0.0000000E+00;  9.9982402E+03; -2.9920733E-01;  0.0000000E+00;  3.1687450E-02;  8.5279022E+02;
  5.7995373E-01;  9.9999998E-03; -2.6001257E-01;1930; -4.8466448E-02;  0.0000000E+00; -1.0983327E-02;  1.0004952E+03;  4.0011185E-01;  4.1025464E+02;3; -3.5458378E+01;  0.0000000E+00; -6.2226782E+00;0; -2.3258890E-01;  1.0006829E+04;  0.0000000E+00;  2.5723752E-04;  1.0000000E+04;  0.0000000E+00;  9.9974766E+03; -2.8517041E-01;  0.0000000E+00;  5.2581508E-02;  1.2051467E+03;
  5.7995594E-01;  9.9999998E-03; -2.4001098E-01;1931; -4.5953359E-02;  0.0000000E+00; -1.0551848E-02;  1.0004611E+03;  4.0011185E-01;  3.8200891E+02;3; -3.2602364E+01;  0.0000000E+00; -5.8732514E+00;0; -1.9807088E-01;  1.0006533E+04;  0.0000000E+00;  1.2729954E-04;  1.0000000E+04;  0.0000000E+00;  9.9970938E+03; -2.7099779E-01;  0.0000000E+00;  7.2926916E-02;  1.3663622E+03;
  5.7995749E-01;  9.9999998E-03; -2.2000979E-01;1932; -4.3733474E-02;  0.0000000E+00; -1.0228384E-02;  1.0004544E+03;  4.0011182E-01;  3.7647827E+02;3; -2.9994228E+01;  0.0000000E+00; -6.3009310E+00;0; -1.7988704E-01;  1.0006248E+04;  0.0000000E+00;  3.7884409E-05;  1.0000000E+04;  0.0000000E+00;  9.9972451E+03; -2.5718832E-01;  0.0000000E+00;  7.7301279E-02;  1.2835988E+03;
  5.7995880E-01;  9.9999998E-03; -2.0000853E-01;1933; -4.1837595E-02;  0.0000000E+00; -9.4392877E-03;  1.0004608E+03;  4.0011185E-01;  3.8171262E+02;3; -2.8044836E+01;  0.0000000E+00; -6.3248124E+00;0; -1.7007594E-01;  1.0005979E+04;  0.0000000E+00;  3.6845686E-06;  1.0000000E+04;  0.0000000E+00;  9.9976416E+03; -2.4417169E-01;  0.0000000E+00;  7.4095756E-02;  1.0904244E+03;
  5.9993482E-01;  9.9999998E-03; -3.0003035E-01;1959; -6.3325383E-02;  0.0000000E+00; -2.2682479E-02;  1.0009192E+03;  4.0028945E-01;  7.6154535E+02;3; -4.8271961E+01;  0.0000000E+00; -1.4171727E+01;0; -2.2081277E-01;  1.0006546E+04;  0.0000000E+00;  2.1498815E-04;  1.0000000E+04;  0.0000000E+00;  9.9973574E+03; -2.7557799E-01;  0.0000000E+00;  5.4765228E-02;  1.2518992E+03;
  5.9994125E-01;  9.9999998E-03; -2.8002349E-01;1960; -5.9249815E-02;  0.0000000E+00; -1.7966183E-02;  1.0008936E+03;  4.0028948E-01;  7.4031171E+02;3; -4.3768005E+01;  0.0000000E+00; -1.0033596E+01;0; -2.2489898E-01;  1.0006330E+04;  0.0000000E+00;  5.5950426E-04;  1.0000000E+04;  0.0000000E+00;  9.9970625E+03; -2.6502597E-01;  0.0000000E+00;  4.0126998E-02;  1.4251370E+03;
  5.9994560E-01;  9.9999998E-03; -2.6001850E-01;1961; -5.5422310E-02;  0.0000000E+00; -1.5771614E-02;  1.0008374E+03;  4.0028951E-01;  6.9379535E+02;3; -3.9622528E+01;  0.0000000E+00; -8.2465019E+00;0; -1.7982900E-01;  1.0006104E+04;  0.0000000E+00;  4.9534452E-04;  1.0000000E+04;  0.0000000E+00;  9.9961709E+03; -2.5391549E-01;  0.0000000E+00;  7.4086495E-02;  1.8241693E+03;
  5.9994847E-01;  9.9999998E-03; -2.4001551E-01;1962; -5.2266967E-02;  0.0000000E+00; -1.5023629E-02;  1.0008032E+03;  4.0028951E-01;  6.6535217E+02;3; -3.5593330E+01;  0.0000000E+00; -8.6902380E+00;0; -1.4207742E-01;  1.0005878E+04;  0.0000000E+00;  2.4697292E-04;  1.0000000E+04;  0.0000000E+00;  9.9957129E+03; -2.4288316E-01;  0.0000000E+00;  1.0080574E-01;  2.0129457E+03;
  5.9995037E-01;  9.9999998E-03; -2.2001323E-01;1963; -4.9878068E-02;  0.0000000E+00; -1.4043608E-02;  1.0008035E+03;  4.0028957E-01;  6.6564850E+02;3; -3.2970177E+01;  0.0000000E+00; -8.8828974E+00;0; -1.2393869E-01;  1.0005656E+04;  0.0000000E+00;  7.1369534E-05;  1.0000000E+04;  0.0000000E+00;  9.9959434E+03; -2.3208387E-01;  0.0000000E+00;  1.0814518E-01;  1.8862739E+03;
  5.9995204E-01;  9.9999998E-03; -2.0001137E-01;1964; -4.7686860E-02;  0.0000000E+00; -1.2852311E-02;  1.0008217E+03;  4.0028954E-01;  6.8075891E+02;3; -3.0980904E+01;  0.0000000E+00; -8.7343254E+00;0; -1.1627861E-01;  1.0005435E+04;  0.0000000E+00;  2.0110874E-06;  1.0000000E+04;  0.0000000E+00;  9.9965254E+03; -2.2159827E-01;  0.0000000E+00;  1.0531966E-01;  1.5999352E+03;
  6.1992455E-01;  9.9999998E-03; -3.0004439E-01;1990; -7.2318144E-02;  0.0000000E+00; -2.9205406E-02;  1.0017393E+03;  4.0069616E-01;  1.4409127E+03;3; -5.3919312E+01;  0.0000000E+00; -1.5233932E+01;0; -1.3672690E-01;  1.0004692E+04;  0.0000000E+00;  3.5087863E-04;  1.0000000E+04;  0.0000000E+00;  9.9952881E+03; -1.9891210E-01;  0.0000000E+00;  6.2185198E-02;  2.2634973E+03;
  6.1993253E-01;  9.9999998E-03; -2.8003642E-01;1991; -6.6723451E-02;  0.0000000E+00; -2.5251823E-02;  1.0017058E+03;  4.0069613E-01;  1.4131611E+03;3; -4.8166065E+01;  0.0000000E+00; -1.1708570E+01;0; -1.2445448E-01;  1.0004591E+04;  0.0000000E+00;  9.0333610E-04;  1.0000000E+04;  0.0000000E+00;  9.9947217E+03; -1.9325989E-01;  0.0000000E+00;  6.8805419E-02;  2.5453511E+03;
  6.1993754E-01;  9.9999998E-03; -2.6002824E-01;1992; -6.2063646E-02;  0.0000000E+00; -2.2631111E-02;  1.0016702E+03;  4.0069625E-01;  1.3836318E+03;3; -4.2383984E+01;  0.0000000E+00; -1.1213151E+01;0; -7.9987697E-02;  1.0004489E+04;  0.0000000E+00;  8.0881920E-04;  1.0000000E+04;  0.0000000E+00;  9.9941182E+03; -1.8743747E-01;  0.0000000E+00;  1.0744978E-01;  2.7943259E+03;
  6.1994070E-01;  9.9999998E-03; -2.4002182E-01;1993; -5.8720220E-02;  0.0000000E+00; -2.0560671E-02;  1.0016517E+03;  4.0069628E-01;  1.3683240E+03;3; -3.8586815E+01;  0.0000000E+00; -1.1534474E+01;0; -4.4034302E-02;  1.0004383E+04;  0.0000000E+00;  4.1079245E-04;  1.0000000E+04;  0.0000000E+00;  9.9938574E+03; -1.8181697E-01;  0.0000000E+00;  1.3778266E-01;  2.8808674E+03;
  6.1994338E-01;  9.9999998E-03; -2.2001775E-01;1994; -5.5802729E-02;  0.0000000E+00; -1.8816065E-02;  1.0016649E+03;  4.0069628E-01;  1.3792864E+03;3; -3.5826111E+01;  0.0000000E+00; -1.1775518E+01;0; -2.6879147E-02;  1.0004269E+04;  0.0000000E+00;  1.1989530E-04;  1.0000000E+04;  0.0000000E+00;  9.9942324E+03; -1.7615199E-01;  0.0000000E+00;  1.4927284E-01;  2.6771145E+03;
  6.1994553E-01;  9.9999998E-03; -2.0001481E-01;1995; -5.3282630E-02;  0.0000000E+00; -1.6917299E-02;  1.0017000E+03;  4.0069631E-01;  1.4083219E+03;3; -3.3764580E+01;  0.0000000E+00; -1.1513645E+01;0; -2.3431093E-02;  1.0004137E+04;  0.0000000E+00;  9.8653288E-08;  1.0000000E+04;  0.0000000E+00;  9.9950625E+03; -1.7010497E-01;  0.0000000E+00;  1.4667387E-01;  2.2657971E+03;
  6.3991719E-01;  9.9999998E-03; -3.0006543E-01;2021; -7.9269871E-02;  0.0000000E+00; -3.8012479E-02;  1.0032556E+03;  4.0144116E-01;  2.6971216E+03;3; -5.8764999E+01;  0.0000000E+00; -1.4950346E+01;0;  1.4181249E-02;  1.0001846E+04;  0.0000000E+00;  4.5892899E-04;  1.0000000E+04;  0.0000000E+00;  9.9912471E+03; -8.0056243E-02;  0.0000000E+00;  9.4237491E-02;  4.2214487E+03;
  6.3992602E-01;  9.9999998E-03; -2.8005731E-01;2022; -7.2847493E-02;  0.0000000E+00; -3.5892740E-02;  1.0032174E+03;  4.0144128E-01;  2.6655186E+03;3; -5.1974770E+01;  0.0000000E+00; -1.1822416E+01;0;  5.1887386E-02;  1.0001895E+04;  0.0000000E+00;  1.1976433E-03;  1.0000000E+04;  0.0000000E+00;  9.9904375E+03; -8.1098042E-02;  0.0000000E+00;  1.3298543E-01;  4.5836357E+03;
  6.3993120E-01;  9.9999998E-03; -2.6004541E-01;2023; -6.7616679E-02;  0.0000000E+00; -3.3957668E-02;  1.0032381E+03;  4.0144125E-01;  2.6826040E+03;3; -4.5708698E+01;  0.0000000E+00; -1.3305854E+01;0;  9.1673091E-02;  1.0001944E+04;  0.0000000E+00;  1.0972797E-03;  1.0000000E+04;  0.0000000E+00;  9.9908018E+03; -8.2319319E-02;  0.0000000E+00;  1.7399241E-01;  4.3463462E+03;
  6.3993436E-01;  9.9999998E-03; -2.4003291E-01;2024; -6.4063668E-02;  0.0000000E+00; -2.9381145E-02;  1.0032692E+03;  4.0144131E-01;  2.7083801E+03;3; -4.1339096E+01;  0.0000000E+00; -1.4627871E+01;0;  1.0705962E-01;  1.0001990E+04;  0.0000000E+00;  5.7100493E-04;  1.0000000E+04;  0.0000000E+00;  9.9913809E+03; -8.3744489E-02;  0.0000000E+00;  1.9080411E-01;  4.0329053E+03;
  6.3993704E-01;  9.9999998E-03; -2.2002429E-01;2025; -6.1070468E-02;  0.0000000E+00; -2.5174694E-02;  1.0033089E+03;  4.0144128E-01;  2.7412671E+03;3; -3.8401775E+01;  0.0000000E+00; -1.5116842E+01;0;  1.1539921E-01;  1.0002013E+04;  0.0000000E+00;  1.7225943E-04;  1.0000000E+04;  0.0000000E+00;  9.9921504E+03; -8.4736362E-02;  0.0000000E+00;  2.0013557E-01;  3.6356704E+03;
  6.3993961E-01;  9.9999998E-03; -2.0001915E-01;2026; -5.8245327E-02;  0.0000000E+00; -2.1909745E-02;  1.0033666E+03;  4.0144116E-01;  2.7890667E+03;3; -3.6198944E+01;  0.0000000E+00; -1.4824085E+01;0;  1.1235563E-01;  1.0002005E+04;  0.0000000E+00;  1.0344097E-06;  1.0000000E+04;  0.0000000E+00;  9.9933057E+03; -8.4582478E-02;  0.0000000E+00;  1.9693811E-01;  3.0620415E+03;
  6.5991414E-01;  9.9999998E-03; -3.0009091E-01;2052; -8.3152674E-02;  0.0000000E+00; -4.8029602E-02;  1.0051471E+03;  4.0237731E-01;  4.2640913E+03;3; -6.2070335E+01;  0.0000000E+00; -1.3350125E+01;0;  2.1279207E-01;  9.9982598E+03;  0.0000000E+00;  4.5536394E-04;  1.0000000E+04;  0.0000000E+00;  9.9859287E+03;  7.3332340E-02;  0.0000000E+00;  1.3945973E-01;  6.7997480E+03;
  6.5992302E-01;  9.9999998E-03; -2.8008437E-01;2053; -7.6231867E-02;  0.0000000E+00; -4.9441770E-02;  1.0050934E+03;  4.0237740E-01;  4.2195513E+03;3; -5.5077366E+01;  0.0000000E+00; -1.0138445E+01;0;  2.9643580E-01;  9.9984580E+03;  0.0000000E+00;  1.2674471E-03;  1.0000000E+04;  0.0000000E+00;  9.9846563E+03;  6.4976357E-02;  0.0000000E+00;  2.3145944E-01;  7.3219707E+03;
  6.5992796E-01;  9.9999998E-03; -2.6006925E-01;2054; -7.0295677E-02;  0.0000000E+00; -5.0499439E-02;  1.0051926E+03;  4.0237731E-01;  4.3018169E+03;3; -4.7325668E+01;  0.0000000E+00; -1.6958183E+01;0;  3.3253631E-01;  9.9986631E+03;  0.0000000E+00;  1.2006211E-03;  1.0000000E+04;  0.0000000E+00;  9.9864336E+03;  5.6129545E-02;  0.0000000E+00;  2.7640676E-01;  6.3696001E+03;
  6.5993029E-01;  9.9999998E-03; -2.4004897E-01;2055; -6.7232095E-02;  0.0000000E+00; -4.2880915E-02;  1.0053023E+03;  4.0237719E-01;  4.3926743E+03;3; -4.2451782E+01;  0.0000000E+00; -1.9842163E+01;0;  3.0834767E-01;  9.9988555E+03;  0.0000000E+00;  6.4171694E-04;  1.0000000E+04;  0.0000000E+00;  9.9884268E+03;  4.7294937E-02;  0.0000000E+00;  2.6105273E-01;  5.3950757E+03;
  6.5993273E-01;  9.9999998E-03; -2.2003406E-01;2056; -6.4517505E-02;  0.0000000E+00; -3.4679323E-02;  1.0053806E+03;  4.0237719E-01;  4.4575586E+03;3; -3.9562237E+01;  0.0000000E+00; -1.9994059E+01;0;  2.9830319E-01;  9.9990186E+03;  0.0000000E+00;  2.0351376E-04;  1.0000000E+04;  0.0000000E+00;  9.9898271E+03;  3.9366797E-02;  0.0000000E+00;  2.5893638E-01;  4.6999697E+03;
  6.5993536E-01;  9.9999998E-03; -2.0002519E-01;2057; -6.1729990E-02;  0.0000000E+00; -2.8686469E-02;  1.0054650E+03;  4.0237713E-01;  4.5274795E+03;3; -3.7544559E+01;  0.0000000E+00; -1.9187788E+01;0;  2.8587750E-01;  9.9991377E+03;  0.0000000E+00;  6.4631968E-06;  1.0000000E+04;  0.0000000E+00;  9.9913867E+03;  3.3201762E-02;  0.0000000E+00;  2.5267574E-01;  3.9276406E+03;
  6.7991853E-01;  9.9999998E-03; -3.0011371E-01;2083; -8.0924898E-02;  0.0000000E+00; -5.7513647E-02;  1.0066008E+03;  4.0312389E-01;  5.4683677E+03;3; -6.2748192E+01;  0.0000000E+00; -1.2689333E+01;0;  4.1355467E-01;  9.9944531E+03;  0.0000000E+00;  3.7449368E-04;  1.0000000E+04;  0.0000000E+00;  9.9815576E+03;  2.4128449E-01;  0.0000000E+00;  1.7227019E-01;  8.9214160E+03;
  6.7992485E-01;  9.9999998E-03; -2.8010914E-01;2084; -7.5471476E-02;  0.0000000E+00; -6.2275186E-02;  1.0065156E+03;  4.0312400E-01;  5.3977563E+03;3; -5.5739025E+01;  0.0000000E+00; -9.1318941E+00;0;  5.4299021E-01;  9.9947646E+03;  0.0000000E+00;  1.0456902E-03;  1.0000000E+04;  0.0000000E+00;  9.9795566E+03;  2.2688571E-01;  0.0000000E+00;  3.1610447E-01;  9.7400723E+03;
  6.7992884E-01;  9.9999998E-03; -2.6009223E-01;2085; -6.9787301E-02;  0.0000000E+00; -6.7258373E-02;  1.0066696E+03;  4.0312368E-01;  5.5253501E+03;3; -4.6668888E+01;  0.0000000E+00; -1.9886459E+01;0;  5.9017718E-01;  9.9950889E+03;  0.0000000E+00;  1.0298785E-03;  1.0000000E+04;  0.0000000E+00;  9.9823057E+03;  2.1164499E-01;  0.0000000E+00;  3.7853220E-01;  8.2727969E+03;
  6.7992997E-01;  9.9999998E-03; -2.4006543E-01;2086; -6.7870647E-02;  0.0000000E+00; -5.8307130E-02;  1.0068474E+03;  4.0312341E-01;  5.6725967E+03;3; -4.2438702E+01;  0.0000000E+00; -2.7921364E+01;0;  5.3107458E-01;  9.9953916E+03;  0.0000000E+00;  5.6888786E-04;  1.0000000E+04;  0.0000000E+00;  9.9855449E+03;  1.9673811E-01;  0.0000000E+00;  3.3433646E-01;  6.7150498E+03;
  6.7993182E-01;  9.9999998E-03; -2.2004442E-01;2087; -6.5890104E-02;  0.0000000E+00; -4.5978509E-02;  1.0069623E+03;  4.0312332E-01;  5.7677983E+03;3; -4.0377926E+01;  0.0000000E+00; -2.7518545E+01;0;  5.0110251E-01;  9.9956631E+03;  0.0000000E+00;  1.9113625E-04;  1.0000000E+04;  0.0000000E+00;  9.9875596E+03;  1.8307157E-01;  0.0000000E+00;  3.1803095E-01;  5.7334976E+03;
  6.7993426E-01;  9.9999998E-03; -2.0003177E-01;2088; -6.3289292E-02;  0.0000000E+00; -3.6864717E-02;  1.0070718E+03;  4.0312323E-01;  5.8584575E+03;3; -3.8594658E+01;  0.0000000E+00; -2.5526382E+01;0;  4.7939694E-01;  9.9958896E+03;  0.0000000E+00;  1.2553830E-05;  1.0000000E+04;  0.0000000E+00;  9.9895137E+03;  1.7136891E-01;  0.0000000E+00;  3.0802801E-01;  4.7708970E+03;
  6.9993365E-01;  9.9999998E-03; -3.0012935E-01;2114; -6.7240871E-02;  0.0000000E+00; -6.5056272E-02;  1.0073412E+03;  4.0353212E-01;  6.0815249E+03;3; -5.4102253E+01;  0.0000000E+00; -1.3688773E+01;0;  5.7213277E-01;  9.9911299E+03;  0.0000000E+00;  3.3815505E-04;  1.0000000E+04;  0.0000000E+00;  9.9793408E+03;  3.9371625E-01;  0.0000000E+00;  1.7841652E-01;  1.0003121E+04;
  6.9993430E-01;  9.9999998E-03; -2.8012598E-01;2115; -6.7498438E-02;  0.0000000E+00; -7.1804933E-02;  1.0072153E+03;  4.0353203E-01;  5.9772397E+03;3; -5.1101112E+01;  0.0000000E+00; -9.7798138E+00;0;  7.3581827E-01;  9.9914775E+03;  0.0000000E+00;  7.1564806E-04;  1.0000000E+04;  0.0000000E+00;  9.9765000E+03;  3.7671369E-01;  0.0000000E+00;  3.5910454E-01;  1.1192584E+04;
  6.9993615E-01;  9.9999998E-03; -2.6010862E-01;2116; -6.4217508E-02;  0.0000000E+00; -8.0197804E-02;  1.0073779E+03;  4.0353170E-01;  6.1120405E+03;3; -4.3712658E+01;  0.0000000E+00; -2.3581184E+01;0;  8.0646169E-01;  9.9918486E+03;  0.0000000E+00;  7.0157775E-04;  1.0000000E+04;  0.0000000E+00;  9.9793779E+03;  3.5832334E-01;  0.0000000E+00;  4.4813839E-01;  9.6240801E+03;
  6.9993651E-01;  9.9999998E-03; -2.4007805E-01;2117; -6.3699268E-02;  0.0000000E+00; -7.1212031E-02;  1.0075889E+03;  4.0353155E-01;  6.2867378E+03;3; -4.1276646E+01;  0.0000000E+00; -3.6217392E+01;0;  7.3273695E-01;  9.9922031E+03;  0.0000000E+00;  3.9783205E-04;  1.0000000E+04;  0.0000000E+00;  9.9832197E+03;  3.4020892E-01;  0.0000000E+00;  3.9252803E-01;  7.7791309E+03;
  6.9993764E-01;  9.9999998E-03; -2.2005309E-01;2118; -6.2570438E-02;  0.0000000E+00; -5.6123201E-02;  1.0077258E+03;  4.0353125E-01;  6.4001084E+03;3; -4.0211082E+01;  0.0000000E+00; -3.5260391E+01;0;  6.9160396E-01;  9.9925322E+03;  0.0000000E+00;  1.4019680E-04;  1.0000000E+04;  0.0000000E+00;  9.9856152E+03;  3.2312968E-01;  0.0000000E+00;  3.6847427E-01;  6.6178369E+03;
  6.9993967E-01;  9.9999998E-03; -2.0003779E-01;2119; -6.0332835E-02;  0.0000000E+00; -4.4727281E-02;  1.0078544E+03;  4.0353104E-01;  6.5067637E+03;3; -3.8660168E+01;  0.0000000E+00; -3.2265240E+01;0;  6.6419256E-01;  9.9928311E+03;  0.0000000E+00;  1.4090018E-05;  1.0000000E+04;  0.0000000E+00;  9.9878750E+03;  3.0756375E-01;  0.0000000E+00;  3.5662884E-01;  5.5057192E+03;
  7.1995324E-01;  9.9999998E-03; -3.0013865E-01;2145; -4.7420315E-02;  0.0000000E+00; -6.9871373E-02;  1.0076432E+03;  4.0371037E-01;  6.3315967E+03;3; -3.8143166E+01;  0.0000000E+00; -1.5206753E+01;0;  6.5788215E-01;  9.9888965E+03;  0.0000000E+00;  2.3215986E-04;  1.0000000E+04;  0.0000000E+00;  9.9787354E+03;  5.0112653E-01;  0.0000000E+00;  1.5675561E-01;  1.0323695E+04;
  7.1995217E-01;  9.9999998E-03; -2.8013477E-01;2146; -4.9246497E-02;  0.0000000E+00; -7.6637551E-02;  1.0074896E+03;  4.0371048E-01;  6.2043052E+03;3; -3.7110283E+01;  0.0000000E+00; -1.0496666E+01;0;  8.3736098E-01;  9.9892139E+03;  0.0000000E+00;  4.5673602E-04;  1.0000000E+04;  0.0000000E+00;  9.9753740E+03;  4.8534715E-01;  0.0000000E+00;  3.5201380E-01;  1.1754474E+04;
  7.1995187E-01;  9.9999998E-03; -2.6011723E-01;2147; -4.9909990E-02;  0.0000000E+00; -8.7132484E-02;  1.0076290E+03;  4.0371010E-01;  6.3198452E+03;3; -3.5633469E+01;  0.0000000E+00; -2.6536512E+01;0;  9.4150913E-01;  9.9895576E+03;  0.0000000E+00;  4.0702507E-04;  1.0000000E+04;  0.0000000E+00;  9.9778174E+03;  4.6775904E-01;  0.0000000E+00;  4.7375011E-01;  1.0354744E+04;
  7.1995223E-01;  9.9999998E-03; -2.4008502E-01;2148; -4.9893606E-02;  0.0000000E+00; -7.8607149E-02;  1.0078400E+03;  4.0370971E-01;  6.4945376E+03;3; -3.5039734E+01;  0.0000000E+00; -4.1939785E+01;0;  8.7506950E-01;  9.9899053E+03;  0.0000000E+00;  2.2792431E-04;  1.0000000E+04;  0.0000000E+00;  9.9816631E+03;  4.4970787E-01;  0.0000000E+00;  4.2536163E-01;  8.4974736E+03;
  7.1995342E-01;  9.9999998E-03; -2.2005840E-01;2149; -4.8622843E-02;  0.0000000E+00; -6.2493116E-02;  1.0079828E+03;  4.0370953E-01;  6.6129414E+03;3; -3.3702423E+01;  0.0000000E+00; -4.0505211E+01;0;  8.3590078E-01;  9.9902432E+03;  0.0000000E+00;  8.0940546E-05;  1.0000000E+04;  0.0000000E+00;  9.9841631E+03;  4.3175793E-01;  0.0000000E+00;  4.0414289E-01;  7.2806797E+03;
  7.1995515E-01;  9.9999998E-03; -2.0004189E-01;2150; -4.6607826E-02;  0.0000000E+00; -5.0103839E-02;  1.0081219E+03;  4.0370935E-01;  6.7281855E+03;3; -3.2089447E+01;  0.0000000E+00; -3.6976894E+01;0;  8.0814695E-01;  9.9905723E+03;  0.0000000E+00;  1.0539928E-05;  1.0000000E+04;  0.0000000E+00;  9.9866035E+03;  4.1428539E-01;  0.0000000E+00;  3.9386156E-01;  6.0757681E+03;
  7.3997104E-01;  9.9999998E-03; -3.0014396E-01;2176; -2.9391889E-02;  0.0000000E+00; -7.2826773E-02;  1.0077763E+03;  4.0378052E-01;  6.4415659E+03;3; -2.3580458E+01;  0.0000000E+00; -1.6511017E+01;0;  6.7998475E-01;  9.9880098E+03;  0.0000000E+00;  7.3685398E-05;  1.0000000E+04;  0.0000000E+00;  9.9787939E+03;  5.4914963E-01;  0.0000000E+00;  1.3083513E-01;  1.0322252E+04;
  7.3997015E-01;  9.9999998E-03; -2.8013921E-01;2177; -3.0764522E-02;  0.0000000E+00; -7.8990325E-02;  1.0076024E+03;  4.0378061E-01;  6.2975903E+03;3; -2.3093340E+01;  0.0000000E+00; -1.0887300E+01;0;  8.6676288E-01;  9.9882568E+03;  0.0000000E+00;  2.1262075E-04;  1.0000000E+04;  0.0000000E+00;  9.9751074E+03;  5.3675264E-01;  0.0000000E+00;  3.3001021E-01;  1.1911323E+04;
  7.3996979E-01;  9.9999998E-03; -2.6012096E-01;2178; -3.1522993E-02;  0.0000000E+00; -8.9472674E-02;  1.0077180E+03;  4.0378037E-01;  6.3932778E+03;3; -2.2569540E+01;  0.0000000E+00; -2.6577898E+01;0;  9.9328816E-01;  9.9885313E+03;  0.0000000E+00;  1.8633055E-04;  1.0000000E+04;  0.0000000E+00;  9.9771318E+03;  5.2248722E-01;  0.0000000E+00;  4.7080097E-01;  1.0694030E+04;
  7.3996997E-01;  9.9999998E-03; -2.4008819E-01;2179; -3.1657919E-02;  0.0000000E+00; -8.1320316E-02;  1.0079143E+03;  4.0377998E-01;  6.5559165E+03;3; -2.2459610E+01;  0.0000000E+00; -4.2989403E+01;0;  9.4518036E-01;  9.9888320E+03;  0.0000000E+00;  9.9978533E-05;  1.0000000E+04;  0.0000000E+00;  9.9807344E+03;  5.0678366E-01;  0.0000000E+00;  4.3839669E-01;  8.9351045E+03;
  7.3997080E-01;  9.9999998E-03; -2.2006117E-01;2180; -3.0853320E-02;  0.0000000E+00; -6.5429255E-02;  1.0080540E+03;  4.0377972E-01;  6.6716499E+03;3; -2.1688013E+01;  0.0000000E+00; -4.2224358E+01;0;  9.1554379E-01;  9.9891484E+03;  0.0000000E+00;  3.4523520E-05;  1.0000000E+04;  0.0000000E+00;  9.9831973E+03;  4.8990890E-01;  0.0000000E+00;  4.2563486E-01;  7.7245034E+03;
  7.3997194E-01;  9.9999998E-03; -2.0004430E-01;2181; -2.9519465E-02;  0.0000000E+00; -5.2995708E-02;  1.0081979E+03;  4.0377951E-01;  6.7908394E+03;3; -2.0672058E+01;  0.0000000E+00; -3.9025490E+01;0;  8.9099777E-01;  9.9894766E+03;  0.0000000E+00;  5.4509846E-06;  1.0000000E+04;  0.0000000E+00;  9.9857295E+03;  4.7226703E-01;  0.0000000E+00;  4.1873074E-01;  6.4686245E+03;
  7.5998503E-01;  9.9999998E-03; -3.0014688E-01;2207; -1.5276073E-02;  0.0000000E+00; -7.4737199E-02;  1.0078646E+03;  4.0380701E-01;  6.5144136E+03;3; -1.2250525E+01;  0.0000000E+00; -1.7842194E+01;0;  6.5797579E-01;  9.9882656E+03;  0.0000000E+00; -2.0729423E-05;  1.0000000E+04;  0.0000000E+00;  9.9789834E+03;  5.4401392E-01;  0.0000000E+00;  1.1396185E-01;  1.0244167E+04;
  7.5998443E-01;  9.9999998E-03; -2.8014135E-01;2208; -1.6169190E-02;  0.0000000E+00; -8.0199480E-02;  1.0076784E+03;  4.0380710E-01;  6.3601763E+03;3; -1.2163424E+01;  0.0000000E+00; -1.1302547E+01;0;  8.4698904E-01;  9.9884385E+03;  0.0000000E+00;  5.1168801E-05;  1.0000000E+04;  0.0000000E+00;  9.9751221E+03;  5.3546792E-01;  0.0000000E+00;  3.1152114E-01;  1.1923337E+04;
  7.5998414E-01;  9.9999998E-03; -2.6012257E-01;2209; -1.6736159E-02;  0.0000000E+00; -9.0333283E-02;  1.0077747E+03;  4.0380684E-01;  6.4399609E+03;3; -1.2090086E+01;  0.0000000E+00; -2.6346508E+01;0;  9.8837900E-01;  9.9886436E+03;  0.0000000E+00;  5.1638413E-05;  1.0000000E+04;  0.0000000E+00;  9.9768418E+03;  5.2510571E-01;  0.0000000E+00;  4.6327332E-01;  1.0843970E+04;
  7.5998414E-01;  9.9999998E-03; -2.4008968E-01;2210; -1.6938688E-02;  0.0000000E+00; -8.2448080E-02;  1.0079570E+03;  4.0380654E-01;  6.5909399E+03;3; -1.2193583E+01;  0.0000000E+00; -4.3205303E+01;0;  9.5567930E-01;  9.9888818E+03;  0.0000000E+00;  2.7289710E-05;  1.0000000E+04;  0.0000000E+00;  9.9802217E+03;  5.1257956E-01;  0.0000000E+00;  4.4309977E-01;  9.1782373E+03;
  7.5998455E-01;  9.9999998E-03; -2.2006264E-01;2211; -1.6584488E-02;  0.0000000E+00; -6.6919275E-02;  1.0080923E+03;  4.0380636E-01;  6.7031128E+03;3; -1.1908575E+01;  0.0000000E+00; -4.2934750E+01;0;  9.3490463E-01;  9.9891621E+03;  0.0000000E+00;  9.2075607E-06;  1.0000000E+04;  0.0000000E+00;  9.9826309E+03;  4.9782547E-01;  0.0000000E+00;  4.3707916E-01;  7.9850103E+03;
  7.5998521E-01;  9.9999998E-03; -2.0004573E-01;2212; -1.5890876E-02;  0.0000000E+00; -5.4653451E-02;  1.0082374E+03;  4.0380609E-01;  6.8231851E+03;3; -1.1439183E+01;  0.0000000E+00; -4.0100323E+01;0;  9.1420007E-01;  9.9894668E+03;  0.0000000E+00;  1.9287058E-06;  1.0000000E+04;  0.0000000E+00;  9.9852090E+03;  4.8124564E-01;  0.0000000E+00;  4.3295446E-01;  6.7028096E+03;
  7.7999538E-01;  9.9999998E-03; -3.0014831E-01;2238; -4.8280964E-03;  0.0000000E+00; -7.5898208E-02;  1.0079415E+03;  4.0381667E-01;  6.5776611E+03;3; -3.9790742E+00;  0.0000000E+00; -1.8922997E+01;0;  6.1329401E-01;  9.9892061E+03;  0.0000000E+00; -3.0522289E-05;  1.0000000E+04;  0.0000000E+00;  9.9790928E+03;  5.0559741E-01;  0.0000000E+00;  1.0769662E-01;  1.0190894E+04;
  7.7999508E-01;  9.9999998E-03; -2.8014228E-01;2239; -5.2677221E-03;  0.0000000E+00; -8.0834754E-02;  1.0077496E+03;  4.0381688E-01;  6.4186943E+03;3; -4.0860434E+00;  0.0000000E+00; -1.1731505E+01;0;  8.0249757E-01;  9.9893154E+03;  0.0000000E+00; -6.2817412E-06;  1.0000000E+04;  0.0000000E+00;  9.9751807E+03;  5.0037283E-01;  0.0000000E+00;  3.0212474E-01;  1.1899337E+04;
  7.7999490E-01;  9.9999998E-03; -2.6012310E-01;2240; -5.5925502E-03;  0.0000000E+00; -9.0569831E-02;  1.0078356E+03;  4.0381655E-01;  6.4899824E+03;3; -4.2037754E+00;  0.0000000E+00; -2.6247198E+01;0;  9.5089352E-01;  9.9894580E+03;  0.0000000E+00;  1.2111240E-06;  1.0000000E+04;  0.0000000E+00;  9.9767520E+03;  4.9333414E-01;  0.0000000E+00;  4.5755938E-01;  1.0889685E+04;
  7.7999485E-01;  9.9999998E-03; -2.4009018E-01;2241; -5.8124387E-03;  0.0000000E+00; -8.2717352E-02;  1.0080087E+03;  4.0381622E-01;  6.6333486E+03;3; -4.4257531E+00;  0.0000000E+00; -4.3033123E+01;0;  9.2741609E-01;  9.9896494E+03;  0.0000000E+00;  1.2839467E-06;  1.0000000E+04;  0.0000000E+00;  9.9800020E+03;  4.8372141E-01;  0.0000000E+00;  4.4369465E-01;  9.2803008E+03;
  7.7999490E-01;  9.9999998E-03; -2.2006324E-01;2242; -5.7881330E-03;  0.0000000E+00; -6.7463949E-02;  1.0081401E+03;  4.0381598E-01;  6.7421567E+03;3; -4.4576082E+00;  0.0000000E+00; -4.3077759E+01;0;  9.1271234E-01;  9.9898857E+03;  0.0000000E+00;  5.6134957E-07;  1.0000000E+04;  0.0000000E+00;  9.9823760E+03;  4.7125599E-01;  0.0000000E+00;  4.4145635E-01;  8.1008159E+03;
  7.7999508E-01;  9.9999998E-03; -2.0004639E-01;2243; -5.5995197E-03;  0.0000000E+00; -5.5380147E-02;  1.0082847E+03;  4.0381578E-01;  6.8619248E+03;3; -4.3827715E+00;  0.0000000E+00; -4.0495388E+01;0;  8.9526892E-01;  9.9901631E+03;  0.0000000E+00;  3.9420269E-07;  1.0000000E+04;  0.0000000E+00;  9.9849727E+03;  4.5630682E-01;  0.0000000E+00;  4.3896210E-01;  6.8084185E+03;
  8.0000359E-01;  9.9999998E-03; -3.0014870E-01;2269;  3.4127480E-03;  0.0000000E+00; -7.6454744E-02;  1.0080046E+03;  4.0381914E-01;  6.6293892E+03;3;  2.5076425E+00;  0.0000000E+00; -1.9575577E+01;0;  5.6653392E-01;  9.9903486E+03;  0.0000000E+00; -7.9990568E-06;  1.0000000E+04;  0.0000000E+00;  9.9790791E+03;  4.5566031E-01;  0.0000000E+00;  1.1087359E-01;  1.0182746E+04;
  8.0000353E-01;  9.9999998E-03; -2.8014243E-01;2270;  3.3783440E-03;  0.0000000E+00; -8.1153125E-02;  1.0078126E+03;  4.0381935E-01;  6.4703384E+03;3;  2.3069942E+00;  0.0000000E+00; -1.2146557E+01;0;  7.5506532E-01;  9.9904160E+03;  0.0000000E+00; -4.6373307E-06;  1.0000000E+04;  0.0000000E+00;  9.9752080E+03;  4.5270962E-01;  0.0000000E+00;  3.0235568E-01;  1.1873783E+04;
  8.0000341E-01;  9.9999998E-03; -2.6012298E-01;2271;  3.2799528E-03;  0.0000000E+00; -9.0527050E-02;  1.0078966E+03;  4.0381905E-01;  6.5399419E+03;3;  2.0982597E+00;  0.0000000E+00; -2.6413282E+01;0;  9.0332997E-01;  9.9905186E+03;  0.0000000E+00; -1.3620177E-06;  1.0000000E+04;  0.0000000E+00;  9.9767764E+03;  4.4790158E-01;  0.0000000E+00;  4.5542842E-01;  1.0868990E+04;
  8.0000329E-01;  9.9999998E-03; -2.4009004E-01;2272;  3.0916729E-03;  0.0000000E+00; -8.2511164E-02;  1.0080662E+03;  4.0381873E-01;  6.6803330E+03;3;  1.8282962E+00;  0.0000000E+00; -4.2803761E+01;0;  8.8271230E-01;  9.9906719E+03;  0.0000000E+00; -2.0368383E-09;  1.0000000E+04;  0.0000000E+00;  9.9799951E+03;  4.4039351E-01;  0.0000000E+00;  4.4231880E-01;  9.2769893E+03;
  8.0000311E-01;  9.9999998E-03; -2.2006319E-01;2273;  2.8749732E-03;  0.0000000E+00; -6.7356750E-02;  1.0081952E+03;  4.0381855E-01;  6.7871567E+03;3;  1.5847319E+00;  0.0000000E+00; -4.2887356E+01;0;  8.7083721E-01;  9.9908760E+03;  0.0000000E+00;  1.1400966E-07;  1.0000000E+04;  0.0000000E+00;  9.9823545E+03;  4.2982221E-01;  0.0000000E+00;  4.4101498E-01;  8.1045425E+03;
  8.0000299E-01;  9.9999998E-03; -2.0004643E-01;2274;  2.6670434E-03;  0.0000000E+00; -5.5396624E-02;  1.0083383E+03;  4.0381828E-01;  6.9056304E+03;3;  1.3707502E+00;  0.0000000E+00; -4.0409531E+01;0;  8.5549903E-01;  9.9911230E+03;  0.0000000E+00; -1.3225719E-08;  1.0000000E+04;  0.0000000E+00;  9.9849502E+03;  4.1650647E-01;  0.0000000E+00;  4.3899256E-01;  6.8134541E+03;
  8.2001102E-01;  9.9999998E-03; -3.0014822E-01;2300;  1.1000348E-02;  0.0000000E+00; -7.6394729E-02;  1.0080412E+03;  4.0381506E-01;  6.6587832E+03;3;  8.5879993E+00;  0.0000000E+00; -1.9633154E+01;0;  5.2887911E-01;  9.9913887E+03;  0.0000000E+00;  8.9675796E-06;  1.0000000E+04;  0.0000000E+00;  9.9789648E+03;  4.0865424E-01;  0.0000000E+00;  1.2022484E-01;  1.0211104E+04;
  8.2001120E-01;  9.9999998E-03; -2.8014195E-01;2301;  1.1313261E-02;  0.0000000E+00; -8.1111751E-02;  1.0078533E+03;  4.0381521E-01;  6.5033057E+03;3;  8.2406063E+00;  0.0000000E+00; -1.2429614E+01;0;  7.1604079E-01;  9.9914365E+03;  0.0000000E+00;  1.8046248E-05;  1.0000000E+04;  0.0000000E+00;  9.9751973E+03;  4.0679055E-01;  0.0000000E+00;  3.0925024E-01;  1.1850241E+04;
  8.2001120E-01;  9.9999998E-03; -2.6012242E-01;2302;  1.1378691E-02;  0.0000000E+00; -9.0244189E-02;  1.0079422E+03;  4.0381488E-01;  6.5768491E+03;3;  7.8750434E+00;  0.0000000E+00; -2.6618172E+01;0;  8.5931492E-01;  9.9915205E+03;  0.0000000E+00;  1.6799640E-05;  1.0000000E+04;  0.0000000E+00;  9.9768867E+03;  4.0306425E-01;  0.0000000E+00;  4.5625067E-01;  1.0796576E+04;
  8.2001102E-01;  9.9999998E-03; -2.4008943E-01;2303;  1.1251921E-02;  0.0000000E+00; -8.1950039E-02;  1.0081136E+03;  4.0381464E-01;  6.7188027E+03;3;  7.6122522E+00;  0.0000000E+00; -4.2543587E+01;0;  8.3624828E-01;  9.9916523E+03;  0.0000000E+00;  9.4352836E-06;  1.0000000E+04;  0.0000000E+00;  9.9801592E+03;  3.9672476E-01;  0.0000000E+00;  4.3952355E-01;  9.1868428E+03;
  8.2001066E-01;  9.9999998E-03; -2.2006266E-01;2304;  1.0831795E-02;  0.0000000E+00; -6.6733368E-02;  1.0082419E+03;  4.0381435E-01;  6.8250210E+03;3;  7.1841187E+00;  0.0000000E+00; -4.2450020E+01;0;  8.2427955E-01;  9.9918340E+03;  0.0000000E+00;  3.0750396E-06;  1.0000000E+04;  0.0000000E+00;  9.9825205E+03;  3.8740507E-01;  0.0000000E+00;  4.3687445E-01;  8.0156221E+03;
  8.2001019E-01;  9.9999998E-03; -2.0004600E-01;2305;  1.0283006E-02;  0.0000000E+00; -5.4829329E-02;  1.0083828E+03;  4.0381414E-01;  6.9417031E+03;3;  6.7212553E+00;  0.0000000E+00; -3.9947174E+01;0;  8.0979502E-01;  9.9920605E+03;  0.0000000E+00;  1.0583980E-07;  1.0000000E+04;  0.0000000E+00;  9.9851006E+03;  3.7537012E-01;  0.0000000E+00;  4.3442488E-01;  6.7356914E+03;
  8.4001863E-01;  9.9999998E-03; -3.0014586E-01;2331;  1.8781122E-02;  0.0000000E+00; -7.5408638E-02;  1.0079408E+03;  4.0375340E-01;  6.5745771E+03;3;  1.4963135E+01;  0.0000000E+00; -1.9437269E+01;0;  4.9577117E-01;  9.9922578E+03;  0.0000000E+00;  2.2971277E-05;  1.0000000E+04;  0.0000000E+00;  9.9791572E+03;  3.6861303E-01;  0.0000000E+00;  1.2715814E-01;  1.0084462E+04;
  8.4001899E-01;  9.9999998E-03; -2.8013965E-01;2332;  1.9377517E-02;  0.0000000E+00; -8.0073602E-02;  1.0077590E+03;  4.0375349E-01;  6.4240605E+03;3;  1.4366517E+01;  0.0000000E+00; -1.2589841E+01;0;  6.7871279E-01;  9.9923047E+03;  0.0000000E+00;  5.4793330E-05;  1.0000000E+04;  0.0000000E+00;  9.9755117E+03;  3.6682016E-01;  0.0000000E+00;  3.1189263E-01;  1.1664660E+04;
  8.4001905E-01;  9.9999998E-03; -2.6012027E-01;2333;  1.9534707E-02;  0.0000000E+00; -8.8867269E-02;  1.0078507E+03;  4.0375325E-01;  6.5000591E+03;3;  1.3637922E+01;  0.0000000E+00; -2.6605480E+01;0;  8.1553173E-01;  9.9923848E+03;  0.0000000E+00;  4.9429502E-05;  1.0000000E+04;  0.0000000E+00;  9.9772598E+03;  3.6322337E-01;  0.0000000E+00;  4.5230839E-01;  1.0592164E+04;
  8.4001875E-01;  9.9999998E-03; -2.4008775E-01;2334;  1.9470725E-02;  0.0000000E+00; -8.0459110E-02;  1.0080215E+03;  4.0375286E-01;  6.6414956E+03;3;  1.3482075E+01;  0.0000000E+00; -4.1879166E+01;0;  7.9012090E-01;  9.9925088E+03;  0.0000000E+00;  2.6720183E-05;  1.0000000E+04;  0.0000000E+00;  9.9805273E+03;  3.5721195E-01;  0.0000000E+00;  4.3290895E-01;  8.9930352E+03;
  8.4001821E-01;  9.9999998E-03; -2.2006138E-01;2335;  1.8844310E-02;  0.0000000E+00; -6.5382227E-02;  1.0081481E+03;  4.0375268E-01;  6.7462158E+03;3;  1.2845245E+01;  0.0000000E+00; -4.1621902E+01;0;  7.7731359E-01;  9.9926807E+03;  0.0000000E+00;  8.7099233E-06;  1.0000000E+04;  0.0000000E+00;  9.9828721E+03;  3.4844950E-01;  0.0000000E+00;  4.2886409E-01;  7.8375962E+03;
  8.4001750E-01;  9.9999998E-03; -2.0004502E-01;2336;  1.7968226E-02;  0.0000000E+00; -5.3658344E-02;  1.0082864E+03;  4.0375248E-01;  6.8607075E+03;3;  1.2127173E+01;  0.0000000E+00; -3.9097862E+01;0;  7.6288104E-01;  9.9928906E+03;  0.0000000E+00;  7.1728482E-07;  1.0000000E+04;  0.0000000E+00;  9.9854092E+03;  3.3716965E-01;  0.0000000E+00;  4.2571136E-01;  6.5821221E+03;
  8.6002630E-01;  9.9999998E-03; -3.0014160E-01;2362;  2.6714975E-02;  0.0000000E+00; -7.3439315E-02;  1.0077048E+03;  4.0363196E-01;  6.3777280E+03;3;  2.1540466E+01;  0.0000000E+00; -1.8988527E+01;0;  4.6179074E-01;  9.9930508E+03;  0.0000000E+00;  4.8516460E-05;  1.0000000E+04;  0.0000000E+00;  9.9796953E+03;  3.3184758E-01;  0.0000000E+00;  1.2994318E-01;  9.7851709E+03;
  8.6002684E-01;  9.9999998E-03; -2.8013548E-01;2363;  2.7530765E-02;  0.0000000E+00; -7.7936500E-02;  1.0075306E+03;  4.0363210E-01;  6.2335601E+03;3;  2.0686211E+01;  0.0000000E+00; -1.2636420E+01;0;  6.3745511E-01;  9.9931055E+03;  0.0000000E+00;  1.1086778E-04;  1.0000000E+04;  0.0000000E+00;  9.9761865E+03;  3.2941940E-01;  0.0000000E+00;  3.0803573E-01;  1.1299181E+04;
  8.6002690E-01;  9.9999998E-03; -2.6011652E-01;2364;  2.7701864E-02;  0.0000000E+00; -8.6229578E-02;  1.0076221E+03;  4.0363181E-01;  6.3093447E+03;3;  1.9261997E+01;  0.0000000E+00; -2.6019117E+01;0;  7.6717567E-01;  9.9931924E+03;  0.0000000E+00;  9.8526420E-05;  1.0000000E+04;  0.0000000E+00;  9.9779258E+03;  3.2525048E-01;  0.0000000E+00;  4.4192520E-01;  1.0245996E+04;
  8.6002660E-01;  9.9999998E-03; -2.4008492E-01;2365;  2.7733890E-02;  0.0000000E+00; -7.7951871E-02;  1.0077890E+03;  4.0363157E-01;  6.4474932E+03;3;  1.9414883E+01;  0.0000000E+00; -4.0711483E+01;0;  7.4052262E-01;  9.9933232E+03;  0.0000000E+00;  5.2989959E-05;  1.0000000E+04;  0.0000000E+00;  9.9811143E+03;  3.1886297E-01;  0.0000000E+00;  4.2165965E-01;  8.6931660E+03;
  8.6002582E-01;  9.9999998E-03; -2.2005937E-01;2366;  2.6886683E-02;  0.0000000E+00; -6.3270099E-02;  1.0079126E+03;  4.0363133E-01;  6.5498218E+03;3;  1.8536655E+01;  0.0000000E+00; -4.0351749E+01;0;  7.2666460E-01;  9.9934951E+03;  0.0000000E+00;  1.7496086E-05;  1.0000000E+04;  0.0000000E+00;  9.9834004E+03;  3.0998114E-01;  0.0000000E+00;  4.1668347E-01;  7.5712856E+03;
  8.6002481E-01;  9.9999998E-03; -2.0004351E-01;2367;  2.5683345E-02;  0.0000000E+00; -5.1890019E-02;  1.0080472E+03;  4.0363115E-01;  6.6612290E+03;3;  1.7545752E+01;  0.0000000E+00; -3.7849327E+01;0;  7.1169245E-01;  9.9937012E+03;  0.0000000E+00;  1.9043093E-06;  1.0000000E+04;  0.0000000E+00;  9.9858672E+03;  2.9886210E-01;  0.0000000E+00;  4.1283038E-01;  6.3546362E+03;
  8.8003361E-01;  9.9999998E-03; -3.0013558E-01;2393;  3.4338165E-02;  0.0000000E+00; -7.0616737E-02;  1.0073550E+03;  4.0345776E-01;  6.0863760E+03;3;  2.7921818E+01;  0.0000000E+00; -1.8366961E+01;0;  4.2253530E-01;  9.9938887E+03;  0.0000000E+00;  8.8674278E-05;  1.0000000E+04;  0.0000000E+00;  9.9805420E+03;  2.9268828E-01;  0.0000000E+00;  1.2984702E-01;  9.3300342E+03;
  8.8003427E-01;  9.9999998E-03; -2.8012952E-01;2394;  3.5247955E-02;  0.0000000E+00; -7.4774794E-02;  1.0071903E+03;  4.0345791E-01;  5.9501431E+03;3;  2.6714437E+01;  0.0000000E+00; -1.2519464E+01;0;  5.8749163E-01;  9.9939600E+03;  0.0000000E+00;  1.8452093E-04;  1.0000000E+04;  0.0000000E+00;  9.9772070E+03;  2.8914019E-01;  0.0000000E+00;  2.9835144E-01;  1.0764115E+04;
  8.8003439E-01;  9.9999998E-03; -2.6011124E-01;2395;  3.5406131E-02;  0.0000000E+00; -8.2419291E-02;  1.0072791E+03;  4.0345764E-01;  6.0235371E+03;3;  2.4593218E+01;  0.0000000E+00; -2.5069258E+01;0;  7.0864159E-01;  9.9940703E+03;  0.0000000E+00;  1.6149844E-04;  1.0000000E+04;  0.0000000E+00;  9.9788721E+03;  2.8383946E-01;  0.0000000E+00;  4.2480212E-01;  9.7630439E+03;
  8.8003397E-01;  9.9999998E-03; -2.4008103E-01;2396;  3.5548799E-02;  0.0000000E+00; -7.4457310E-02;  1.0074393E+03;  4.0345740E-01;  6.1562188E+03;3;  2.5052576E+01;  0.0000000E+00; -3.9029804E+01;0;  6.8196976E-01;  9.9942158E+03;  0.0000000E+00;  8.6519001E-05;  1.0000000E+04;  0.0000000E+00;  9.9819092E+03;  2.7643117E-01;  0.0000000E+00;  4.0553862E-01;  8.2897783E+03;
  8.8003302E-01;  9.9999998E-03; -2.2005662E-01;2397;  3.4476530E-02;  0.0000000E+00; -6.0414750E-02;  1.0075590E+03;  4.0345719E-01;  6.2551621E+03;3;  2.3920351E+01;  0.0000000E+00; -3.8626129E+01;0;  6.6693228E-01;  9.9944014E+03;  0.0000000E+00;  2.8759454E-05;  1.0000000E+04;  0.0000000E+00;  9.9840996E+03;  2.6675543E-01;  0.0000000E+00;  4.0017685E-01;  7.2189248E+03;
  8.8003176E-01;  9.9999998E-03; -2.0004152E-01;2398;  3.2956071E-02;  0.0000000E+00; -4.9546167E-02;  1.0076892E+03;  4.0345696E-01;  6.3629844E+03;3;  2.2654037E+01;  0.0000000E+00; -3.6200195E+01;0;  6.5094334E-01;  9.9946191E+03;  0.0000000E+00;  3.3922267E-06;  1.0000000E+04;  0.0000000E+00;  9.9864775E+03;  2.5519681E-01;  0.0000000E+00;  3.9574653E-01;  6.0554717E+03;
  9.0004003E-01;  9.9999998E-03; -3.0012807E-01;2424;  4.1069523E-02;  0.0000000E+00; -6.7169413E-02;  1.0069144E+03;  4.0324029E-01;  5.7194512E+03;3;  3.3725101E+01;  0.0000000E+00; -1.7984716E+01;0;  3.7655914E-01;  9.9948311E+03;  0.0000000E+00;  1.3461109E-04;  1.0000000E+04;  0.0000000E+00;  9.9816367E+03;  2.4862054E-01;  0.0000000E+00;  1.2793860E-01;  8.7461563E+03;
  9.0004069E-01;  9.9999998E-03; -2.8012207E-01;2425;  4.1935861E-02;  0.0000000E+00; -7.0765220E-02;  1.0067621E+03;  4.0324038E-01;  5.5934302E+03;3;  3.2012043E+01;  0.0000000E+00; -1.2304196E+01;0;  5.2765346E-01;  9.9949346E+03;  0.0000000E+00;  2.6367666E-04;  1.0000000E+04;  0.0000000E+00;  9.9785127E+03;  2.4349713E-01;  0.0000000E+00;  2.8415635E-01;  1.0083795E+04;
  9.0004075E-01;  9.9999998E-03; -2.6010460E-01;2426;  4.1935947E-02;  0.0000000E+00; -7.7542074E-02;  1.0068467E+03;  4.0324020E-01;  5.6635405E+03;3;  2.8955500E+01;  0.0000000E+00; -2.3690180E+01;0;  6.3803905E-01;  9.9950732E+03;  0.0000000E+00;  2.2778391E-04;  1.0000000E+04;  0.0000000E+00;  9.9800664E+03;  2.3650046E-01;  0.0000000E+00;  4.0153861E-01;  9.1577275E+03;
  9.0004039E-01;  9.9999998E-03; -2.4007617E-01;2427;  4.2314306E-02;  0.0000000E+00; -7.0081756E-02;  1.0069979E+03;  4.0323988E-01;  5.7884766E+03;3;  2.9965805E+01;  0.0000000E+00; -3.6877731E+01;0;  6.1225796E-01;  9.9952490E+03;  0.0000000E+00;  1.2085196E-04;  1.0000000E+04;  0.0000000E+00;  9.9828936E+03;  2.2740537E-01;  0.0000000E+00;  3.8485259E-01;  7.7920586E+03;
  9.0003926E-01;  9.9999998E-03; -2.2005326E-01;2428;  4.1031759E-02;  0.0000000E+00; -5.6885477E-02;  1.0071127E+03;  4.0323976E-01;  5.8834355E+03;3;  2.8596102E+01;  0.0000000E+00; -3.6473473E+01;0;  5.9584498E-01;  9.9954648E+03;  0.0000000E+00;  3.9904295E-05;  1.0000000E+04;  0.0000000E+00;  9.9849639E+03;  2.1627511E-01;  0.0000000E+00;  3.7956986E-01;  6.7876333E+03;
  9.0003777E-01;  9.9999998E-03; -2.0003907E-01;2429;  3.9225250E-02;  0.0000000E+00; -4.6680488E-02;  1.0072381E+03;  4.0323964E-01;  5.9872700E+03;3;  2.7077457E+01;  0.0000000E+00; -3.4176899E+01;0;  5.7847524E-01;  9.9957021E+03;  0.0000000E+00;  4.5759480E-06;  1.0000000E+04;  0.0000000E+00;  9.9872207E+03;  2.0376009E-01;  0.0000000E+00;  3.7471515E-01;  5.6906382E+03;
  9.2004502E-01;  9.9999998E-03; -3.0011943E-01;2455;  4.6390336E-02;  0.0000000E+00; -6.3159347E-02;  1.0064053E+03;  4.0299067E-01;  5.2954966E+03;3;  3.8364590E+01;  0.0000000E+00; -1.7404497E+01;0;  3.2682878E-01;  9.9958223E+03;  0.0000000E+00;  1.7326965E-04;  1.0000000E+04;  0.0000000E+00;  9.9829141E+03;  2.0210031E-01;  0.0000000E+00;  1.2472849E-01;  8.0668818E+03;
  9.2004538E-01;  9.9999998E-03; -2.8011343E-01;2456;  4.6910848E-02;  0.0000000E+00; -6.6101313E-02;  1.0062686E+03;  4.0299073E-01;  5.1824556E+03;3;  3.6245922E+01;  0.0000000E+00; -1.2160130E+01;0;  4.6094555E-01;  9.9959668E+03;  0.0000000E+00;  3.3487155E-04;  1.0000000E+04;  0.0000000E+00;  9.9800576E+03;  1.9487467E-01;  0.0000000E+00;  2.6607087E-01;  9.2828604E+03;
  9.2004561E-01;  9.9999998E-03; -2.6009691E-01;2457;  4.6847321E-02;  0.0000000E+00; -7.1826741E-02;  1.0063479E+03;  4.0299055E-01;  5.2479937E+03;3;  3.2284962E+01;  0.0000000E+00; -2.2028526E+01;0;  5.5892968E-01;  9.9961514E+03;  0.0000000E+00;  2.8231466E-04;  1.0000000E+04;  0.0000000E+00;  9.9814590E+03;  1.8554437E-01;  0.0000000E+00;  3.7338531E-01;  8.4534199E+03;
  9.2004526E-01;  9.9999998E-03; -2.4007055E-01;2458;  4.7501516E-02;  0.0000000E+00; -6.4947456E-02;  1.0064888E+03;  4.0299040E-01;  5.3644844E+03;3;  3.3634090E+01;  0.0000000E+00; -3.4136692E+01;0;  5.3442186E-01;  9.9963789E+03;  0.0000000E+00;  1.4713107E-04;  1.0000000E+04;  0.0000000E+00;  9.9840332E+03;  1.7408226E-01;  0.0000000E+00;  3.6033961E-01;  7.2160586E+03;
  9.2004395E-01;  9.9999998E-03; -2.2004937E-01;2459;  4.6035111E-02;  0.0000000E+00; -5.2805100E-02;  1.0065984E+03;  4.0299019E-01;  5.4551548E+03;3;  3.2200371E+01;  0.0000000E+00; -3.3963409E+01;0;  5.1645541E-01;  9.9966338E+03;  0.0000000E+00;  4.7619385E-05;  1.0000000E+04;  0.0000000E+00;  9.9859551E+03;  1.6093720E-01;  0.0000000E+00;  3.5551822E-01;  6.2902617E+03;
  9.2004210E-01;  9.9999998E-03; -2.0003629E-01;2460;  4.3743346E-02;  0.0000000E+00; -4.3394890E-02;  1.0067180E+03;  4.0299007E-01;  5.5539058E+03;3;  3.0249199E+01;  0.0000000E+00; -3.1844500E+01;0;  4.9754754E-01;  9.9969014E+03;  0.0000000E+00;  4.9846349E-06;  1.0000000E+04;  0.0000000E+00;  9.9880713E+03;  1.4716905E-01;  0.0000000E+00;  3.5037848E-01;  5.2709854E+03;
  9.4004828E-01;  9.9999998E-03; -3.0011007E-01;2486;  4.9982712E-02;  0.0000000E+00; -5.8750737E-02;  1.0058473E+03;  4.0272084E-01;  4.8306040E+03;3;  4.1541576E+01;  0.0000000E+00; -1.6588022E+01;0;  2.7970898E-01;  9.9967295E+03;  0.0000000E+00;  1.9598032E-04;  1.0000000E+04;  0.0000000E+00;  9.9843066E+03;  1.5890720E-01;  0.0000000E+00;  1.2080178E-01;  7.3245581E+03;
  9.4004846E-01;  9.9999998E-03; -2.8010404E-01;2487;  5.0269093E-02;  0.0000000E+00; -6.1065167E-02;  1.0057279E+03;  4.0272096E-01;  4.7319258E+03;3;  3.8998753E+01;  0.0000000E+00; -1.1798177E+01;0;  3.9612782E-01;  9.9969336E+03;  0.0000000E+00;  4.2359982E-04;  1.0000000E+04;  0.0000000E+00;  9.9817344E+03;  1.4899892E-01;  0.0000000E+00;  2.4712889E-01;  8.4103252E+03;
  9.4004881E-01;  9.9999998E-03; -2.6008856E-01;2488;  5.0189748E-02;  0.0000000E+00; -6.5774038E-02;  1.0058026E+03;  4.0272078E-01;  4.7936733E+03;3;  3.4855995E+01;  0.0000000E+00; -2.0577635E+01;0;  4.8009151E-01;  9.9971826E+03;  0.0000000E+00;  3.2261264E-04;  1.0000000E+04;  0.0000000E+00;  9.9829775E+03;  1.3670279E-01;  0.0000000E+00;  3.4338874E-01;  7.6800620E+03;
  9.4004840E-01;  9.9999998E-03; -2.4006441E-01;2489;  5.0847970E-02;  0.0000000E+00; -5.9344791E-02;  1.0059331E+03;  4.0272057E-01;  4.9014121E+03;3;  3.6050076E+01;  0.0000000E+00; -3.1228418E+01;0;  4.5550075E-01;  9.9974736E+03;  0.0000000E+00;  1.5780864E-04;  1.0000000E+04;  0.0000000E+00;  9.9852832E+03;  1.2232605E-01;  0.0000000E+00;  3.3317471E-01;  6.5822715E+03;
  9.4004637E-01;  9.9999998E-03; -2.2004515E-01;2490;  4.8430752E-02;  0.0000000E+00; -4.8358627E-02;  1.0060369E+03;  4.0272051E-01;  4.9871895E+03;3;  3.3740463E+01;  0.0000000E+00; -3.1220232E+01;0;  4.3592551E-01;  9.9977842E+03;  0.0000000E+00;  4.9841590E-05;  1.0000000E+04;  0.0000000E+00;  9.9870420E+03;  1.0687396E-01;  0.0000000E+00;  3.2905155E-01;  5.7446563E+03;
  9.4004369E-01;  9.9999998E-03; -2.0003331E-01;2491;  4.5243919E-02;  0.0000000E+00; -3.9858598E-02;  1.0061503E+03;  4.0272036E-01;  5.0809443E+03;3;  3.1100250E+01;  0.0000000E+00; -2.9318354E+01;0;  4.1557568E-01;  9.9980830E+03;  0.0000000E+00;  4.7430417E-06;  1.0000000E+04;  0.0000000E+00;  9.9890020E+03;  9.1846816E-02;  0.0000000E+00;  3.2372886E-01;  4.8118374E+03;
  9.6005040E-01;  9.9999998E-03; -3.0010036E-01;2517;  5.2460492E-02;  0.0000000E+00; -5.4193344E-02;  1.0052596E+03;  4.0244260E-01;  4.3407813E+03;3;  4.3788486E+01;  0.0000000E+00; -1.5670750E+01;0;  2.4191239E-01;  9.9974268E+03;  0.0000000E+00;  1.9215974E-04;  1.0000000E+04;  0.0000000E+00;  9.9857432E+03;  1.2469077E-01;  0.0000000E+00;  1.1722163E-01;  6.5513970E+03;
  9.6005052E-01;  9.9999998E-03; -2.8009444E-01;2518;  5.2618541E-02;  0.0000000E+00; -5.5921882E-02;  1.0051579E+03;  4.0244260E-01;  4.2568604E+03;3;  4.1051414E+01;  0.0000000E+00; -1.1415181E+01;0;  3.4015763E-01;  9.9977041E+03;  0.0000000E+00;  1.9122055E-03;  1.0000000E+04;  0.0000000E+00;  9.9834414E+03;  1.1160073E-01;  0.0000000E+00;  2.2855690E-01;  7.5114038E+03;
  9.6005052E-01;  9.9999998E-03; -2.6007998E-01;2519;  5.2343614E-02;  0.0000000E+00; -5.9724126E-02;  1.0052296E+03;  4.0244254E-01;  4.3159888E+03;3;  3.6909348E+01;  0.0000000E+00; -1.9387835E+01;0;  4.0969920E-01;  9.9980352E+03;  0.0000000E+00;  1.6235156E-03;  1.0000000E+04;  0.0000000E+00;  9.9845488E+03;  9.5950507E-02;  0.0000000E+00;  3.1374869E-01;  6.8726504E+03;
  9.6004945E-01;  9.9999998E-03; -2.4005803E-01;2520;  5.1946796E-02;  0.0000000E+00; -5.3579651E-02;  1.0053505E+03;  4.0244243E-01;  4.4157495E+03;3;  3.6958908E+01;  0.0000000E+00; -2.8531336E+01;0;  3.8323373E-01;  9.9984004E+03;  0.0000000E+00;  6.2455924E-04;  1.0000000E+04;  0.0000000E+00;  9.9865898E+03;  7.8478247E-02;  0.0000000E+00;  3.0475548E-01;  5.9150366E+03;
  9.6004665E-01;  9.9999998E-03; -2.2004075E-01;2521;  4.8610918E-02;  0.0000000E+00; -4.3732516E-02;  1.0054484E+03;  4.0244225E-01;  4.4966216E+03;3;  3.3746185E+01;  0.0000000E+00; -2.8364883E+01;0;  3.6212730E-01;  9.9987676E+03;  0.0000000E+00;  8.9442161E-05;  1.0000000E+04;  0.0000000E+00;  9.9881738E+03;  6.0734313E-02;  0.0000000E+00;  3.0139300E-01;  5.1717524E+03;
  9.6004361E-01;  9.9999998E-03; -2.0003022E-01;2522;  4.5066327E-02;  0.0000000E+00; -3.6192369E-02;  1.0055552E+03;  4.0244225E-01;  4.5847744E+03;3;  3.0951042E+01;  0.0000000E+00; -2.6681734E+01;0;  3.4050137E-01;  9.9991016E+03;  0.0000000E+00;  4.1626927E-06;  1.0000000E+04;  0.0000000E+00;  9.9899678E+03;  4.4542942E-02;  0.0000000E+00;  2.9595843E-01;  4.3313159E+03;
  9.8005229E-01;  9.9999998E-03; -3.0009067E-01;2548;  5.4544076E-02;  0.0000000E+00; -4.9534298E-02;  1.0046658E+03;  4.0216675E-01;  3.8454973E+03;3;  4.5665699E+01;  0.0000000E+00; -1.4634056E+01;0;  2.1337342E-01;  9.9978643E+03;  0.0000000E+00;  1.0669973E-04;  1.0000000E+04;  0.0000000E+00;  9.9872002E+03;  1.0170250E-01;  0.0000000E+00;  1.1167092E-01;  5.7650918E+03;
  9.8005193E-01;  9.9999998E-03; -2.8008494E-01;2549;  5.4401219E-02;  0.0000000E+00; -5.0796602E-02;  1.0045801E+03;  4.0216669E-01;  3.7748538E+03;3;  4.2591103E+01;  0.0000000E+00; -1.0885745E+01;0;  2.9573226E-01;  9.9982246E+03;  0.0000000E+00;  7.5631058E-03;  1.0000000E+04;  0.0000000E+00;  9.9851377E+03;  8.5294470E-02;  0.0000000E+00;  2.1043779E-01;  6.6118149E+03;
  9.8005128E-01;  9.9999998E-03; -2.6007152E-01;2550;  5.3616557E-02;  0.0000000E+00; -5.3816732E-02;  1.0046489E+03;  4.0216660E-01;  3.8316440E+03;3;  3.8622219E+01;  0.0000000E+00; -1.8432936E+01;0;  3.5171512E-01;  9.9986367E+03;  0.0000000E+00;  7.3398673E-03;  1.0000000E+04;  0.0000000E+00;  9.9861016E+03;  6.6363700E-02;  0.0000000E+00;  2.8535143E-01;  6.0634717E+03;
  9.8004931E-01;  9.9999998E-03; -2.4005170E-01;2551;  5.1803846E-02;  0.0000000E+00; -4.7759797E-02;  1.0047607E+03;  4.0216652E-01;  3.9237070E+03;3;  3.6844830E+01;  0.0000000E+00; -2.5555397E+01;0;  3.2268596E-01;  9.9990771E+03;  0.0000000E+00;  3.5705450E-03;  1.0000000E+04;  0.0000000E+00;  9.9878896E+03;  4.6089694E-02;  0.0000000E+00;  2.7659628E-01;  5.2434766E+03;
  9.8004597E-01;  9.9999998E-03; -2.2003640E-01;2552;  4.7997434E-02;  0.0000000E+00; -3.9122980E-02;  1.0048526E+03;  4.0216646E-01;  3.9995586E+03;3;  3.3431160E+01;  0.0000000E+00; -2.5515965E+01;0;  3.0039543E-01;  9.9995000E+03;  0.0000000E+00;  9.0807176E-04;  1.0000000E+04;  0.0000000E+00;  9.9892979E+03;  2.6393924E-02;  0.0000000E+00;  2.7400151E-01;  4.5951416E+03;
  9.8004276E-01;  9.9999998E-03; -2.0002717E-01;2553;  4.4264987E-02;  0.0000000E+00; -3.2540131E-02;  1.0049527E+03;  4.0216643E-01;  4.0819937E+03;3;  3.0518534E+01;  0.0000000E+00; -2.4071941E+01;0;  2.7761284E-01;  9.9998711E+03;  0.0000000E+00;  7.9917438E-05;  1.0000000E+04;  0.0000000E+00;  9.9909199E+03;  9.2125162E-03;  0.0000000E+00;  2.6840031E-01;  3.8491091E+03;
  1.0000547E+00;  9.9999998E-03; -3.0008122E-01;2579;  5.6913301E-02;  0.0000000E+00; -4.4802818E-02;  1.0040901E+03;  4.0190217E-01;  3.3649963E+03;3;  4.7545868E+01;  0.0000000E+00; -1.3336302E+01;0;  1.9049013E-01;  9.9980801E+03;  0.0000000E+00; -1.3475992E-03;  1.0000000E+04;  0.0000000E+00;  9.9886777E+03;  8.8292599E-02;  0.0000000E+00;  1.0219753E-01;  4.9715122E+03;
  1.0000535E+00;  9.9999998E-03; -2.8007573E-01;2580;  5.6171805E-02;  0.0000000E+00; -4.5700289E-02;  1.0040177E+03;  4.0190223E-01;  3.3054644E+03;3;  4.4162952E+01;  0.0000000E+00; -1.0287933E+01;0;  2.5987676E-01;  9.9985254E+03;  0.0000000E+00;  1.7672779E-02;  1.0000000E+04;  0.0000000E+00;  9.9867988E+03;  6.8756521E-02;  0.0000000E+00;  1.9112024E-01;  5.7254341E+03;
  1.0000516E+00;  9.9999998E-03; -2.6006344E-01;2581;  5.4414034E-02;  0.0000000E+00; -4.8044384E-02;  1.0040813E+03;  4.0190211E-01;  3.3577397E+03;3;  4.0045605E+01;  0.0000000E+00; -1.7540039E+01;0;  3.0493414E-01;  9.9990117E+03;  0.0000000E+00;  1.8629594E-02;  1.0000000E+04;  0.0000000E+00;  9.9875811E+03;  4.6984896E-02;  0.0000000E+00;  2.5794926E-01;  5.2827993E+03;
  1.0000489E+00;  9.9999998E-03; -2.4004577E-01;2582;  5.1315457E-02;  0.0000000E+00; -4.2245861E-02;  1.0041835E+03;  4.0190202E-01;  3.4418899E+03;3;  3.6509209E+01;  0.0000000E+00; -2.2689579E+01;0;  2.7525491E-01;  9.9995117E+03;  0.0000000E+00;  9.7869476E-03;  1.0000000E+04;  0.0000000E+00;  9.9891182E+03;  2.4629228E-02;  0.0000000E+00;  2.5062567E-01;  4.5964497E+03;
  1.0000449E+00;  9.9999998E-03; -2.2003229E-01;2583;  4.6975702E-02;  0.0000000E+00; -3.4724995E-02;  1.0042693E+03;  4.0190202E-01;  3.5125066E+03;3;  3.2852406E+01;  0.0000000E+00; -2.2762110E+01;0;  2.5219664E-01;  9.9999785E+03;  0.0000000E+00;  2.8141639E-03;  1.0000000E+04;  0.0000000E+00;  9.9903613E+03;  3.7683002E-03;  0.0000000E+00;  2.4842834E-01;  4.0381133E+03;
  1.0000414E+00;  9.9999998E-03; -2.0002426E-01;2584;  4.3096900E-02;  0.0000000E+00; -2.9083807E-02;  1.0043625E+03;  4.0190187E-01;  3.5892031E+03;3;  2.9926750E+01;  0.0000000E+00; -2.1608578E+01;0;  2.2862977E-01;  1.0000375E+04;  0.0000000E+00;  3.3634822E-04;  1.0000000E+04;  0.0000000E+00;  9.9918223E+03; -1.3883547E-02;  0.0000000E+00;  2.4251331E-01;  3.3849670E+03;
  1.0200584E+00;  9.9999998E-03; -3.0007231E-01;2610;  6.0256738E-02;  0.0000000E+00; -4.0197033E-02;  1.0035535E+03;  4.0165621E-01;  2.9165303E+03;3;  4.9996601E+01;  0.0000000E+00; -1.1784881E+01;0;  1.7081484E-01;  9.9981641E+03;  0.0000000E+00; -4.6966099E-03;  1.0000000E+04;  0.0000000E+00;  9.9901455E+03;  8.0931462E-02;  0.0000000E+00;  8.9883380E-02;  4.1894160E+03;
  1.0200558E+00;  9.9999998E-03; -2.8006709E-01;2611;  5.8421731E-02;  0.0000000E+00; -4.0620238E-02;  1.0034918E+03;  4.0165627E-01;  2.8658499E+03;3;  4.5706543E+01;  0.0000000E+00; -9.2998867E+00;0;  2.2773477E-01;  9.9986982E+03;  0.0000000E+00;  2.5548788E-02;  1.0000000E+04;  0.0000000E+00;  9.9883838E+03;  5.8124986E-02;  0.0000000E+00;  1.6960979E-01;  4.8775571E+03;
  1.0200523E+00;  9.9999998E-03; -2.6005614E-01;2612;  5.5226509E-02;  0.0000000E+00; -4.2504419E-02;  1.0035468E+03;  4.0165630E-01;  2.9110535E+03;3;  4.0977512E+01;  0.0000000E+00; -1.6229450E+01;0;  2.6623744E-01;  9.9992529E+03;  0.0000000E+00;  2.9534589E-02;  1.0000000E+04;  0.0000000E+00;  9.9889258E+03;  3.3908248E-02;  0.0000000E+00;  2.3232920E-01;  4.5606489E+03;
  1.0200483E+00;  9.9999998E-03; -2.4004063E-01;2613;  5.0757747E-02;  0.0000000E+00; -3.7340377E-02;  1.0036386E+03;  4.0165618E-01;  2.9863926E+03;3;  3.6195847E+01;  0.0000000E+00; -2.0079060E+01;0;  2.3906252E-01;  9.9997891E+03;  0.0000000E+00;  1.5144124E-02;  1.0000000E+04;  0.0000000E+00;  9.9902227E+03;  1.0543250E-02;  0.0000000E+00;  2.2851926E-01;  3.9976394E+03;
  1.0200436E+00;  9.9999998E-03; -2.2002876E-01;2614;  4.5801774E-02;  0.0000000E+00; -3.0864820E-02;  1.0037178E+03;  4.0165612E-01;  3.0513608E+03;3;  3.2272751E+01;  0.0000000E+00; -2.0343390E+01;0;  2.1607386E-01;  1.0000268E+04;  0.0000000E+00;  3.2898076E-03;  1.0000000E+04;  0.0000000E+00;  9.9913213E+03; -1.0129018E-02;  0.0000000E+00;  2.2620288E-01;  3.5200359E+03;
  1.0200399E+00;  9.9999998E-03; -2.0002171E-01;2615;  4.1784015E-02;  0.0000000E+00; -2.5970811E-02;  1.0038036E+03;  4.0165609E-01;  3.1218076E+03;3;  2.9321535E+01;  0.0000000E+00; -1.9379467E+01;0;  1.9244580E-01;  1.0000669E+04;  0.0000000E+00; -3.3079213E-04;  1.0000000E+04;  0.0000000E+00;  9.9926318E+03; -2.7163805E-02;  0.0000000E+00;  2.1960960E-01;  2.9551248E+03;
  1.0400642E+00;  9.9999998E-03; -3.0006447E-01;2641;  6.5713175E-02;  0.0000000E+00; -3.6614232E-02;  1.0030623E+03;  4.0143389E-01;  2.5053467E+03;3;  5.3783398E+01;  0.0000000E+00; -1.1274430E+01;0;  1.6476570E-01;  9.9981240E+03;  0.0000000E+00; -1.2024295E-03;  1.0000000E+04;  0.0000000E+00;  9.9914668E+03;  7.9871207E-02;  0.0000000E+00;  8.4894493E-02;  3.4693489E+03;
  1.0400593E+00;  9.9999998E-03; -2.8005949E-01;2642;  6.1665967E-02;  0.0000000E+00; -3.6400300E-02;  1.0030144E+03;  4.0143391E-01;  2.4661436E+03;3;  4.7480331E+01;  0.0000000E+00; -9.3111887E+00;0;  2.0241311E-01;  9.9988252E+03;  0.0000000E+00;  1.5858831E-02;  1.0000000E+04;  0.0000000E+00;  9.9898164E+03;  5.0459951E-02;  0.0000000E+00;  1.5195316E-01;  4.0965015E+03;
  1.0400536E+00;  9.9999998E-03; -2.6004997E-01;2643;  5.6209151E-02;  0.0000000E+00; -3.7612308E-02;  1.0030598E+03;  4.0143391E-01;  2.5032061E+03;3;  4.1394550E+01;  0.0000000E+00; -1.4605454E+01;0;  2.3431200E-01;  9.9994639E+03;  0.0000000E+00;  2.4917301E-02;  1.0000000E+04;  0.0000000E+00;  9.9900801E+03;  2.2786306E-02;  0.0000000E+00;  2.1152569E-01;  3.9161436E+03;
  1.0400478E+00;  9.9999998E-03; -2.4003656E-01;2644;  5.0217528E-02;  0.0000000E+00; -3.3335745E-02;  1.0031415E+03;  4.0143394E-01;  2.5701118E+03;3;  3.5985554E+01;  0.0000000E+00; -1.7955736E+01;0;  2.1104386E-01;  1.0000008E+04;  0.0000000E+00;  9.4686216E-03;  1.0000000E+04;  0.0000000E+00;  9.9911641E+03; -5.0345063E-04;  0.0000000E+00;  2.1154732E-01;  3.4602500E+03;
  1.0400423E+00;  9.9999998E-03; -2.2002600E-01;2645;  4.4649575E-02;  0.0000000E+00; -2.7656272E-02;  1.0032134E+03;  4.0143386E-01;  2.6289229E+03;3;  3.1799154E+01;  0.0000000E+00; -1.8174528E+01;0;  1.8902609E-01;  1.0000453E+04;  0.0000000E+00; -4.1402415E-03;  1.0000000E+04;  0.0000000E+00;  9.9921523E+03; -1.9120097E-02;  0.0000000E+00;  2.0814618E-01;  3.0516025E+03;
  1.0400383E+00;  9.9999998E-03; -2.0001948E-01;2646;  4.0393684E-02;  0.0000000E+00; -2.3110574E-02;  1.0032904E+03;  4.0143380E-01;  2.6919268E+03;3;  2.8652271E+01;  0.0000000E+00; -1.7207796E+01;0;  1.6651869E-01;  1.0000813E+04;  0.0000000E+00; -5.2737291E-03;  1.0000000E+04;  0.0000000E+00;  9.9933271E+03; -3.3921059E-02;  0.0000000E+00;  2.0043975E-01;  2.5682534E+03;
  1.0600708E+00;  9.9999998E-03; -3.0005786E-01;2672;  7.1128115E-02;  0.0000000E+00; -3.4670807E-02;  1.0026188E+03;  4.0123814E-01;  2.1332661E+03;3;  5.7227013E+01;  0.0000000E+00; -1.3700673E+01;0;  1.8167652E-01;  9.9978809E+03;  0.0000000E+00;  3.9162006E-02;  1.0000000E+04;  0.0000000E+00;  9.9926270E+03;  8.7535061E-02;  0.0000000E+00;  9.4141461E-02;  2.8123955E+03;
  1.0600632E+00;  9.9999998E-03; -2.8005329E-01;2673;  6.4558096E-02;  0.0000000E+00; -3.3556625E-02;  1.0025908E+03;  4.0123817E-01;  2.1104497E+03;3;  4.8814213E+01;  0.0000000E+00; -1.0797064E+01;0;  1.8933395E-01;  9.9989160E+03;  0.0000000E+00; -2.2361415E-02;  1.0000000E+04;  0.0000000E+00;  9.9910303E+03;  4.4187501E-02;  0.0000000E+00;  1.4514644E-01;  3.4050701E+03;
  1.0600551E+00;  9.9999998E-03; -2.6004526E-01;2674;  5.7277903E-02;  0.0000000E+00; -3.3832613E-02;  1.0026290E+03;  4.0123811E-01;  2.1415286E+03;3;  4.2133186E+01;  0.0000000E+00; -1.3468849E+01;0;  2.0895241E-01;  9.9996973E+03;  0.0000000E+00; -1.2414722E-02;  1.0000000E+04;  0.0000000E+00;  9.9910078E+03;  1.1268758E-02;  0.0000000E+00;  1.9768365E-01;  3.3590227E+03;
  1.0600474E+00;  9.9999998E-03; -2.4003373E-01;2675;  4.9817055E-02;  0.0000000E+00; -3.0270977E-02;  1.0027024E+03;  4.0123808E-01;  2.2013513E+03;3;  3.6042419E+01;  0.0000000E+00; -1.6110338E+01;0;  1.8849573E-01;  1.0000237E+04;  0.0000000E+00; -1.8727686E-02;  1.0000000E+04;  0.0000000E+00;  9.9919336E+03; -1.1444822E-02;  0.0000000E+00;  1.9994055E-01;  2.9906917E+03;
  1.0600412E+00;  9.9999998E-03; -2.2002402E-01;2676;  4.3709397E-02;  0.0000000E+00; -2.5047280E-02;  1.0027667E+03;  4.0123811E-01;  2.2536963E+03;3;  3.1593735E+01;  0.0000000E+00; -1.6193905E+01;0;  1.6803364E-01;  1.0000602E+04;  0.0000000E+00; -2.7208289E-02;  1.0000000E+04;  0.0000000E+00;  9.9928516E+03; -2.6157226E-02;  0.0000000E+00;  1.9419087E-01;  2.6353462E+03;
  1.0600368E+00;  9.9999998E-03; -2.0001769E-01;2677;  3.9022569E-02;  0.0000000E+00; -2.0669660E-02;  1.0028334E+03;  4.0123808E-01;  2.3081765E+03;3;  2.7986067E+01;  0.0000000E+00; -1.5275712E+01;0;  1.4822958E-01;  1.0000879E+04;  0.0000000E+00; -1.9520428E-02;  1.0000000E+04;  0.0000000E+00;  9.9939053E+03; -3.6973491E-02;  0.0000000E+00;  1.8520308E-01;  2.2263447E+03;
  1.0800755E+00;  9.9999998E-03; -3.0005243E-01;2703;  7.4583746E-02;  0.0000000E+00; -3.3291362E-02;  1.0022264E+03;  4.0106994E-01;  1.8032595E+03;3;  6.0817013E+01;  0.0000000E+00; -1.5213335E+01;0;  2.0964095E-01;  9.9974492E+03;  0.0000000E+00;  1.6413470E-01;  1.0000000E+04;  0.0000000E+00;  9.9936113E+03;  1.0130028E-01;  0.0000000E+00;  1.0834068E-01;  2.3106501E+03;
  1.0800661E+00;  9.9999998E-03; -2.8004852E-01;2704;  6.6567726E-02;  0.0000000E+00; -3.1474724E-02;  1.0022226E+03;  4.0107006E-01;  1.8001752E+03;3;  5.1101646E+01;  0.0000000E+00; -1.1778003E+01;0;  1.8400869E-01;  9.9989561E+03;  0.0000000E+00; -6.8097815E-02;  1.0000000E+04;  0.0000000E+00;  9.9920244E+03;  3.9958753E-02;  0.0000000E+00;  1.4404994E-01;  2.8207188E+03;
  1.0800565E+00;  9.9999998E-03; -2.6004189E-01;2705;  5.8299724E-02;  0.0000000E+00; -3.0836562E-02;  1.0022569E+03;  4.0106994E-01;  1.8279890E+03;3;  4.3617817E+01;  0.0000000E+00; -1.2081005E+01;0;  1.8875343E-01;  9.9999258E+03;  0.0000000E+00; -8.4965184E-02;  1.0000000E+04;  0.0000000E+00;  9.9917432E+03;  4.4901465E-04;  0.0000000E+00;  1.8830441E-01;  2.8943386E+03;
  1.0800472E+00;  9.9999998E-03; -2.4003208E-01;2706;  4.9704175E-02;  0.0000000E+00; -2.7974565E-02;  1.0023245E+03;  4.0107000E-01;  1.8827416E+03;3;  3.6744850E+01;  0.0000000E+00; -1.4310164E+01;0;  1.7032872E-01;  1.0000479E+04;  0.0000000E+00; -7.4715443E-02;  1.0000000E+04;  0.0000000E+00;  9.9925352E+03; -2.2488711E-02;  0.0000000E+00;  1.9281743E-01;  2.5959622E+03;
  1.0800403E+00;  9.9999998E-03; -2.2002287E-01;2707;  4.2982463E-02;  0.0000000E+00; -2.3124937E-02;  1.0023821E+03;  4.0106988E-01;  1.9293824E+03;3;  3.1425156E+01;  0.0000000E+00; -1.4606592E+01;0;  1.5153335E-01;  1.0000736E+04;  0.0000000E+00; -7.0389718E-02;  1.0000000E+04;  0.0000000E+00;  9.9934258E+03; -3.2397240E-02;  0.0000000E+00;  1.8393059E-01;  2.2760547E+03;
  1.0800354E+00;  9.9999998E-03; -2.0001647E-01;2708;  3.7795350E-02;  0.0000000E+00; -1.8772915E-02;  1.0024374E+03;  4.0107000E-01;  1.9742841E+03;3;  2.7469778E+01;  0.0000000E+00; -1.3654038E+01;0;  1.3554528E-01;  1.0000889E+04;  0.0000000E+00; -4.7823805E-02;  1.0000000E+04;  0.0000000E+00;  9.9943750E+03; -3.7980042E-02;  0.0000000E+00;  1.7352532E-01;  1.9285619E+03;
  1.1000670E+00;  9.9999998E-03; -2.8004459E-01;2734;  6.7179747E-02;  0.0000000E+00; -2.9486071E-02;  1.0019177E+03;  4.0092894E-01;  1.5416035E+03;3;  5.3379425E+01;  0.0000000E+00; -1.2251703E+01;0;  1.7658181E-01;  9.9989521E+03;  0.0000000E+00; -5.9443731E-02;  1.0000000E+04;  0.0000000E+00;  9.9929824E+03;  3.8926903E-02;  0.0000000E+00;  1.3765492E-01;  2.2710046E+03;
  1.1000574E+00;  9.9999998E-03; -2.6003933E-01;2735;  5.9028994E-02;  0.0000000E+00; -2.8208191E-02;  1.0019455E+03;  4.0092897E-01;  1.5639384E+03;3;  4.5403149E+01;  0.0000000E+00; -1.0854636E+01;0;  1.7030013E-01;  1.0000069E+04;  0.0000000E+00; -1.6484718E-01;  1.0000000E+04;  0.0000000E+00;  9.9924150E+03; -5.7099238E-03;  0.0000000E+00;  1.7601006E-01;  2.4934958E+03;
  1.1000476E+00;  9.9999998E-03; -2.4003123E-01;2736;  5.0214142E-02;  0.0000000E+00; -2.5895724E-02;  1.0020051E+03;  4.0092891E-01;  1.6118599E+03;3;  3.8422421E+01;  0.0000000E+00; -1.1860120E+01;0;  1.5610868E-01;  1.0000661E+04;  0.0000000E+00; -1.5292186E-01;  1.0000000E+04;  0.0000000E+00;  9.9930127E+03; -3.0329518E-02;  0.0000000E+00;  1.8643819E-01;  2.2805442E+03;
  1.1000400E+00;  9.9999998E-03; -2.2002251E-01;2737;  4.2606205E-02;  0.0000000E+00; -2.1754971E-02;  1.0020579E+03;  4.0092903E-01;  1.6543181E+03;3;  3.1936895E+01;  0.0000000E+00; -1.2929914E+01;0;  1.3936430E-01;  1.0000832E+04;  0.0000000E+00; -1.3137677E-01;  1.0000000E+04;  0.0000000E+00;  9.9938936E+03; -3.7388686E-02;  0.0000000E+00;  1.7675298E-01;  1.9814381E+03;
  1.1000344E+00;  9.9999998E-03; -2.0001586E-01;2738;  3.6880903E-02;  0.0000000E+00; -1.7367812E-02;  1.0021027E+03;  4.0092894E-01;  1.6902583E+03;3;  2.7249355E+01;  0.0000000E+00; -1.2195596E+01;0;  1.2702894E-01;  1.0000859E+04;  0.0000000E+00; -9.2079423E-02;  1.0000000E+04;  0.0000000E+00;  9.9947588E+03; -3.7536345E-02;  0.0000000E+00;  1.6456528E-01;  1.6761787E+03;
  1.1200665E+00;  9.9999998E-03; -2.8004113E-01;2763;  6.6626966E-02;  0.0000000E+00; -2.7935565E-02;  1.0016727E+03;  4.0081325E-01;  1.3313199E+03;3;  5.5158604E+01;  0.0000000E+00; -1.3220141E+01;0;  1.7311434E-01;  9.9988379E+03;  0.0000000E+00;  5.8379285E-02;  1.0000000E+04;  0.0000000E+00;  9.9939717E+03;  4.3417003E-02;  0.0000000E+00;  1.2969734E-01;  1.7503003E+03;
  1.1200577E+00;  9.9999998E-03; -2.6003712E-01;2764;  5.9308443E-02;  0.0000000E+00; -2.6154200E-02;  1.0016907E+03;  4.0081325E-01;  1.3457490E+03;3;  4.7018833E+01;  0.0000000E+00; -1.0727847E+01;0;  1.5744998E-01;  1.0000019E+04;  0.0000000E+00; -1.9866954E-01;  1.0000000E+04;  0.0000000E+00;  9.9931523E+03; -3.4193529E-03;  0.0000000E+00;  1.6086933E-01;  2.0747661E+03;
  1.1200484E+00;  9.9999998E-03; -2.4003071E-01;2765;  5.1098187E-02;  0.0000000E+00; -2.4089571E-02;  1.0017377E+03;  4.0081328E-01;  1.3831407E+03;3;  3.9970646E+01;  0.0000000E+00; -1.0266657E+01;0;  1.4693922E-01;  1.0000668E+04;  0.0000000E+00; -2.3411521E-01;  1.0000000E+04;  0.0000000E+00;  9.9934375E+03; -3.0413784E-02;  0.0000000E+00;  1.7735301E-01;  2.0170398E+03;
  1.1200401E+00;  9.9999998E-03; -2.2002277E-01;2766;  4.2902038E-02;  0.0000000E+00; -2.0605266E-02;  1.0017883E+03;  4.0081325E-01;  1.4233788E+03;3;  3.3129890E+01;  0.0000000E+00; -1.0885671E+01;0;  1.3163614E-01;  1.0000847E+04;  0.0000000E+00; -2.0220408E-01;  1.0000000E+04;  0.0000000E+00;  9.9942637E+03; -3.8911782E-02;  0.0000000E+00;  1.7054792E-01;  1.7509009E+03;
  1.1200339E+00;  9.9999998E-03; -2.0001586E-01;2767;  3.6394782E-02;  0.0000000E+00; -1.6405074E-02;  1.0018257E+03;  4.0081328E-01;  1.4531780E+03;3;  2.7504255E+01;  0.0000000E+00; -1.0731771E+01;0;  1.2155855E-01;  1.0000781E+04;  0.0000000E+00; -1.4994477E-01;  1.0000000E+04;  0.0000000E+00;  9.9950801E+03; -3.5860080E-02;  0.0000000E+00;  1.5741862E-01;  1.4711442E+03;
  1.1400577E+00;  9.9999998E-03; -2.6003519E-01;2792;  5.9023403E-02;  0.0000000E+00; -2.4812311E-02;  1.0014834E+03;  4.0072060E-01;  1.1656178E+03;3;  4.8603153E+01;  0.0000000E+00; -1.1384045E+01;0;  1.5587972E-01;  9.9997139E+03;  0.0000000E+00; -1.2237002E-01;  1.0000000E+04;  0.0000000E+00;  9.9939414E+03;  8.9643337E-03;  0.0000000E+00;  1.4691539E-01;  1.5884719E+03;
  1.1400495E+00;  9.9999998E-03; -2.4003029E-01;2793;  5.1873319E-02;  0.0000000E+00; -2.2835299E-02;  1.0015154E+03;  4.0072054E-01;  1.1907281E+03;3;  4.1440571E+01;  0.0000000E+00; -9.8336554E+00;0;  1.4622423E-01;  1.0000415E+04;  0.0000000E+00; -2.7804279E-01;  1.0000000E+04;  0.0000000E+00;  9.9938789E+03; -2.0145059E-02;  0.0000000E+00;  1.6636929E-01;  1.7324314E+03;
  1.1400410E+00;  9.9999998E-03; -2.2002350E-01;2794;  4.3915145E-02;  0.0000000E+00; -1.9851128E-02;  1.0015634E+03;  4.0072051E-01;  1.2284846E+03;3;  3.4642315E+01;  0.0000000E+00; -9.5719461E+00;0;  1.3072129E-01;  1.0000699E+04;  0.0000000E+00; -2.7148864E-01;  1.0000000E+04;  0.0000000E+00;  9.9945498E+03; -3.3666238E-02;  0.0000000E+00;  1.6438752E-01;  1.5621846E+03;
  1.1400340E+00;  9.9999998E-03; -2.0001654E-01;2795;  3.6597647E-02;  0.0000000E+00; -1.5881164E-02;  1.0016003E+03;  4.0072051E-01;  1.2574352E+03;3;  2.8319126E+01;  0.0000000E+00; -9.3093987E+00;0;  1.1896270E-01;  1.0000645E+04;  0.0000000E+00; -2.1462664E-01;  1.0000000E+04;  0.0000000E+00;  9.9953398E+03; -3.2332547E-02;  0.0000000E+00;  1.5129524E-01;  1.3088854E+03;
  1.1600571E+00;  9.9999998E-03; -2.6003340E-01;2819;  5.8113374E-02;  0.0000000E+00; -2.3923868E-02;  1.0013142E+03;  4.0064776E-01;  1.0156250E+03;3;  5.0001041E+01;  0.0000000E+00; -1.2421986E+01;0;  1.6429779E-01;  9.9991729E+03;  0.0000000E+00;  1.0719301E-01;  1.0000000E+04;  0.0000000E+00;  9.9947373E+03;  2.9589353E-02;  0.0000000E+00;  1.3470843E-01;  1.1889575E+03;
  1.1600504E+00;  9.9999998E-03; -2.4002987E-01;2820;  5.2354001E-02;  0.0000000E+00; -2.2151824E-02;  1.0013305E+03;  4.0064779E-01;  1.0282531E+03;3;  4.3120678E+01;  0.0000000E+00; -1.0344444E+01;0;  1.5638429E-01;  9.9998691E+03;  0.0000000E+00; -2.2347297E-01;  1.0000000E+04;  0.0000000E+00;  9.9943652E+03;  1.1375116E-03;  0.0000000E+00;  1.5524678E-01;  1.3528292E+03;
  1.1600428E+00;  9.9999998E-03; -2.2002444E-01;2821;  4.5300383E-02;  0.0000000E+00; -1.9564649E-02;  1.0013727E+03;  4.0064776E-01;  1.0608744E+03;3;  3.6380547E+01;  0.0000000E+00; -9.1300850E+00;0;  1.4009614E-01;  1.0000298E+04;  0.0000000E+00; -3.1325236E-01;  1.0000000E+04;  0.0000000E+00;  9.9947803E+03; -1.8055165E-02;  0.0000000E+00;  1.5815131E-01;  1.3608663E+03;
  1.1600353E+00;  9.9999998E-03; -2.0001796E-01;2822;  3.7811793E-02;  0.0000000E+00; -1.5972575E-02;  1.0014148E+03;  4.0064785E-01;  1.0934038E+03;3;  2.9859865E+01;  0.0000000E+00; -8.4571915E+00;0;  1.2260677E-01;  1.0000394E+04;  0.0000000E+00; -2.7610186E-01;  1.0000000E+04;  0.0000000E+00;  9.9955225E+03; -2.3924815E-02;  0.0000000E+00;  1.4653158E-01;  1.1718090E+03;
  1.1800507E+00;  9.9999998E-03; -2.4002936E-01;2846;  5.2066751E-02;  0.0000000E+00; -2.1722181E-02;  1.0011802E+03;  4.0059185E-01;  8.9311389E+02;3;  4.4579147E+01;  0.0000000E+00; -1.1236647E+01;0;  1.7273152E-01;  9.9991436E+03;  0.0000000E+00; -1.9699838E-03;  1.0000000E+04;  0.0000000E+00;  9.9948799E+03;  2.8527411E-02;  0.0000000E+00;  1.4420411E-01;  9.6149261E+02;
  1.1800445E+00;  9.9999998E-03; -2.2002529E-01;2847;  4.6511501E-02;  0.0000000E+00; -1.9628156E-02;  1.0012101E+03;  4.0059185E-01;  9.1576404E+02;3;  3.8379608E+01;  0.0000000E+00; -9.5594931E+00;0;  1.6048875E-01;  9.9996133E+03;  0.0000000E+00; -2.6402625E-01;  1.0000000E+04;  0.0000000E+00;  9.9950078E+03;  8.6945165E-03;  0.0000000E+00;  1.5179424E-01;  1.0697440E+03;
  1.1800376E+00;  9.9999998E-03; -2.0001973E-01;2848;  3.9793015E-02;  0.0000000E+00; -1.6557490E-02;  1.0012557E+03;  4.0059188E-01;  9.5023364E+02;3;  3.1990175E+01;  0.0000000E+00; -8.3671103E+00;0;  1.3801767E-01;  9.9999023E+03;  0.0000000E+00; -3.1246459E-01;  1.0000000E+04;  0.0000000E+00;  9.9956279E+03; -5.3418959E-03;  0.0000000E+00;  1.4335957E-01;  1.0186265E+03;
  1.2000457E+00;  9.9999998E-03; -2.2002570E-01;2871;  4.6881840E-02;  0.0000000E+00; -1.9650504E-02;  1.0010772E+03;  4.0054974E-01;  7.9415198E+02;3;  4.0065895E+01;  0.0000000E+00; -1.0349732E+01;0;  1.8423904E-01;  9.9987832E+03;  0.0000000E+00; -3.7766915E-02;  1.0000000E+04;  0.0000000E+00;  9.9952822E+03;  4.0423278E-02;  0.0000000E+00;  1.4381577E-01;  7.3595013E+02;
  1.2000403E+00;  9.9999998E-03; -2.0002128E-01;2872;  4.1638415E-02;  0.0000000E+00; -1.7321276E-02;  1.0011152E+03;  4.0054974E-01;  8.2219440E+02;3;  3.4177822E+01;  0.0000000E+00; -9.0009327E+00;0;  1.6562811E-01;  9.9991006E+03;  0.0000000E+00; -2.6203483E-01;  1.0000000E+04;  0.0000000E+00;  9.9957246E+03;  2.4684466E-02;  0.0000000E+00;  1.4094363E-01;  7.8509015E+02;
  1.2200456E+00;  9.9999998E-03; -2.2002552E-01;2894;  4.5682363E-02;  0.0000000E+00; -1.9272067E-02;  1.0009831E+03;  4.0051872E-01;  7.0216071E+02;3;  4.0632576E+01;  0.0000000E+00; -1.0898814E+01;0;  1.9327733E-01;  9.9981494E+03;  0.0000000E+00;  3.6937323E-01;  1.0000000E+04;  0.0000000E+00;  9.9955840E+03;  5.9754808E-02;  0.0000000E+00;  1.3352253E-01;  7.3737524E+02;
  1.2200422E+00;  9.9999998E-03; -2.0002227E-01;2895;  4.2497329E-02;  0.0000000E+00; -1.7818553E-02;  1.0010012E+03;  4.0051877E-01;  7.1502118E+02;3;  3.6096699E+01;  0.0000000E+00; -1.0008816E+01;0;  1.9335687E-01;  9.9982373E+03;  0.0000000E+00; -3.6290340E-02;  1.0000000E+04;  0.0000000E+00;  9.9958604E+03;  5.6616709E-02;  0.0000000E+00;  1.3674016E-01;  5.1785364E+02;
 -1.6072326E-08;  9.9999998E-03; -1.8000001E-01;1036; -3.6224323E-05;  0.0000000E+00; -4.6304044E-06;  1.0000004E+03;  4.0000001E-01;  3.9505050E-01;3; -6.0627349E-02;  0.0000000E+00; -7.6898145E-03;0; -7.2419632E-04;  1.0000008E+04;  0.0000000E+00; -2.7397938E-11;  1.0000000E+04;  0.0000000E+00;  1.0000000E+04; -7.5093179E-04;  0.0000000E+00;  2.6735450E-05;  1.3173294E-01;
 -1.6700019E-08;  9.9999998E-03; -1.6000000E-01;1037; -3.7542846E-05;  0.0000000E+00; -3.8319026E-06;  1.0000004E+03;  4.0000001E-01;  3.9505050E-01;3; -6.2676452E-02;  0.0000000E+00; -6.3125133E-03;0; -7.5247290E-04;  1.0000009E+04;  0.0000000E+00; -6.5562378E-12;  1.0000000E+04;  0.0000000E+00;  1.0000000E+04; -7.7921315E-04;  0.0000000E+00;  2.6740237E-05;  1.3313453E-01;
 -1.7172143E-08;  9.9999998E-03; -1.4000000E-01;1038; -3.8503131E-05;  0.0000000E+00; -3.1311874E-06;  1.0000004E+03;  4.0000001E-01;  3.9505050E-01;3; -6.4122282E-02;  0.0000000E+00; -5.1075434E-03;0; -7.7441568E-04;  1.0000009E+04;  0.0000000E+00;  1.6346411E-12;  1.0000000E+04;  0.0000000E+00;  1.0000000E+04; -7.9964311E-04;  0.0000000E+00;  2.5227411E-05;  1.2852381E-01;
 -1.7527512E-08;  9.9999998E-03; -1.2000000E-01;1039; -3.9201164E-05;  0.0000000E+00; -2.5000729E-06;  1.0000004E+03;  4.0000001E-01;  3.9505050E-01;3; -6.5129019E-02;  0.0000000E+00; -4.0268041E-03;0; -7.9103169E-04;  1.0000009E+04;  0.0000000E+00; -1.1962257E-13;  1.0000000E+04;  0.0000000E+00;  1.0000000E+04; -8.1416930E-04;  0.0000000E+00;  2.3137605E-05;  1.2151968E-01;
 -1.7791729E-08;  9.9999998E-03; -1.0000000E-01;1040; -3.9702983E-05;  0.0000000E+00; -1.9439169E-06;  1.0000004E+03;  4.0000001E-01;  3.9505050E-01;3; -6.5818228E-02;  0.0000000E+00; -3.0796244E-03;0; -8.0335845E-04;  1.0000009E+04;  0.0000000E+00; -1.7783037E-12;  1.0000000E+04;  0.0000000E+00;  1.0000000E+04; -8.2430977E-04;  0.0000000E+00;  2.0951342E-05;  1.1393471E-01;
 -1.7984251E-08;  9.9999998E-03; -7.9999998E-02;1041; -4.0057010E-05;  0.0000000E+00; -1.4600499E-06;  1.0000005E+03;  4.0000001E-01;  3.9505050E-01;3; -6.6280514E-02;  0.0000000E+00; -2.2761917E-03;0; -8.1230886E-04;  1.0000010E+04;  0.0000000E+00;  6.6651539E-14;  1.0000000E+04;  0.0000000E+00;  1.0000000E+04; -8.3124352E-04;  0.0000000E+00;  1.8934634E-05;  1.0678092E-01;
 -1.8119859E-08;  9.9999998E-03; -5.9999999E-02;1042; -4.0298986E-05;  0.0000000E+00; -1.0348125E-06;  1.0000005E+03;  4.0000001E-01;  3.9505050E-01;3; -6.6581078E-02;  0.0000000E+00; -1.5918626E-03;0; -8.1859954E-04;  1.0000011E+04;  0.0000000E+00;  1.9095864E-12;  1.0000000E+04;  0.0000000E+00;  1.0000000E+04; -8.3584536E-04;  0.0000000E+00;  1.7245817E-05;  1.0068562E-01;
 -1.8209086E-08;  9.9999998E-03; -3.9999999E-02;1043; -4.0454135E-05;  0.0000000E+00; -6.5979151E-07;  1.0000005E+03;  4.0000001E-01;  3.9505050E-01;3; -6.6765063E-02;  0.0000000E+00; -1.0045924E-03;0; -8.2275458E-04;  1.0000011E+04;  0.0000000E+00;  1.9936485E-12;  1.0000000E+04;  0.0000000E+00;  1.0000000E+04; -8.3873392E-04;  0.0000000E+00;  1.5979353E-05;  9.6051916E-02;
 -1.8259563E-08;  9.9999998E-03; -2.0000000E-02;1044; -4.0540097E-05;  0.0000000E+00; -3.2165636E-07;  1.0000005E+03;  4.0000001E-01;  3.9505050E-01;3; -6.6863246E-02;  0.0000000E+00; -4.8636616E-04;0; -8.2511915E-04;  1.0000011E+04;  0.0000000E+00; -8.2654516E-13;  1.0000000E+04;  0.0000000E+00;  1.0000000E+04; -8.4031472E-04;  0.0000000E+00;  1.5195566E-05;  9.3156353E-02;
  1.9999975E-02;  9.9999998E-03; -1.8000001E-01;1066; -5.4010558E-05;  0.0000000E+00; -6.6588191E-06;  1.0000005E+03;  4.0000001E-01;  3.9505050E-01;3; -8.6894564E-02;  0.0000000E+00; -1.0574408E-02;0; -9.4402389E-04;  1.0000011E+04;  0.0000000E+00; -1.1204013E-11;  1.0000000E+04;  0.0000000E+00;  1.0000000E+04; -9.8333240E-04;  0.0000000E+00;  3.9308510E-05;  1.9466293E-01;
  1.9999975E-02;  9.9999998E-03; -1.6000000E-01;1067; -5.5853507E-05;  0.0000000E+00; -5.5325645E-06;  1.0000005E+03;  4.0000001E-01;  4.9381313E-01;3; -8.9608289E-02;  0.0000000E+00; -8.7119127E-03;0; -9.7833201E-04;  1.0000012E+04;  0.0000000E+00;  1.9890001E-11;  1.0000000E+04;  0.0000000E+00;  1.0000000E+04; -1.0174962E-03;  0.0000000E+00;  3.9164268E-05;  1.9582295E-01;
  1.9999973E-02;  9.9999998E-03; -1.4000000E-01;1068; -5.7174741E-05;  0.0000000E+00; -4.5393745E-06;  1.0000005E+03;  4.0000001E-01;  4.9381313E-01;3; -9.1476806E-02;  0.0000000E+00; -7.0819971E-03;0; -1.0048153E-03;  1.0000012E+04;  0.0000000E+00; -2.5649532E-12;  1.0000000E+04;  0.0000000E+00;  1.0000000E+04; -1.0417190E-03;  0.0000000E+00;  3.6903690E-05;  1.8841863E-01;
  1.9999973E-02;  9.9999998E-03; -1.2000000E-01;1069; -5.8125537E-05;  0.0000000E+00; -3.6334222E-06;  1.0000006E+03;  4.0000001E-01;  4.9381313E-01;3; -9.2754431E-02;  0.0000000E+00; -5.5999882E-03;0; -1.0247268E-03;  1.0000012E+04;  0.0000000E+00;  4.6779650E-12;  1.0000000E+04;  0.0000000E+00;  1.0000000E+04; -1.0585801E-03;  0.0000000E+00;  3.3853357E-05;  1.7768934E-01;
  1.9999973E-02;  9.9999998E-03; -1.0000000E-01;1070; -5.8795187E-05;  0.0000000E+00; -2.8446366E-06;  1.0000007E+03;  4.0000001E-01;  5.9257573E-01;3; -9.3600303E-02;  0.0000000E+00; -4.3268576E-03;0; -1.0394162E-03;  1.0000013E+04;  0.0000000E+00; -2.5513270E-12;  1.0000000E+04;  0.0000000E+00;  1.0000000E+04; -1.0700723E-03;  0.0000000E+00;  3.0656083E-05;  1.6612083E-01;
  1.9999973E-02;  9.9999998E-03; -7.9999998E-02;1071; -5.9258233E-05;  0.0000000E+00; -2.1498777E-06;  1.0000007E+03;  4.0000001E-01;  5.9257573E-01;3; -9.4150119E-02;  0.0000000E+00; -3.2317536E-03;0; -1.0500374E-03;  1.0000013E+04;  0.0000000E+00; -1.2866403E-12;  1.0000000E+04;  0.0000000E+00;  1.0000000E+04; -1.0777356E-03;  0.0000000E+00;  2.7698154E-05;  1.5521786E-01;
  1.9999973E-02;  9.9999998E-03; -6.0000002E-02;1072; -5.9569818E-05;  0.0000000E+00; -1.5298563E-06;  1.0000007E+03;  4.0000001E-01;  5.9257573E-01;3; -9.4497874E-02;  0.0000000E+00; -2.2779573E-03;0; -1.0574802E-03;  1.0000013E+04;  0.0000000E+00;  2.7304065E-13;  1.0000000E+04;  0.0000000E+00;  1.0000000E+04; -1.0826965E-03;  0.0000000E+00;  2.5216270E-05;  1.4593561E-01;
  1.9999973E-02;  9.9999998E-03; -3.9999999E-02;1073; -5.9766113E-05;  0.0000000E+00; -9.7983434E-07;  1.0000007E+03;  4.0000001E-01;  5.9257573E-01;3; -9.4703615E-02;  0.0000000E+00; -1.4491563E-03;0; -1.0623867E-03;  1.0000013E+04;  0.0000000E+00;  5.3546534E-13;  1.0000000E+04;  0.0000000E+00;  1.0000000E+04; -1.0857403E-03;  0.0000000E+00;  2.3353623E-05;  1.3888900E-01;
  1.9999973E-02;  9.9999998E-03; -2.0000000E-02;1074; -5.9873641E-05;  0.0000000E+00; -4.7825398E-07;  1.0000007E+03;  4.0000001E-01;  5.9257573E-01;3; -9.4811171E-02;  0.0000000E+00; -7.0397521E-04;0; -1.0651764E-03;  1.0000013E+04;  0.0000000E+00;  9.3762149E-14;  1.0000000E+04;  0.0000000E+00;  1.0000000E+04; -1.0873772E-03;  0.0000000E+00;  2.2200787E-05;  1.3449210E-01;
  3.9999966E-02;  9.9999998E-03; -1.8000001E-01;1097; -7.8397774E-05;  0.0000000E+00; -8.7362505E-06;  1.0000007E+03;  4.0000001E-01;  5.9257573E-01;3; -1.2176893E-01;  0.0000000E+00; -1.3206099E-02;0; -1.2035940E-03;  1.0000015E+04;  0.0000000E+00; -7.6974503E-12;  1.0000000E+04;  0.0000000E+00;  1.0000000E+04; -1.2579635E-03;  0.0000000E+00;  5.4369393E-05;  2.7427810E-01;
  3.9999962E-02;  9.9999998E-03; -1.6000000E-01;1098; -8.0900892E-05;  0.0000000E+00; -7.2775238E-06;  1.0000007E+03;  4.0000001E-01;  5.9257573E-01;3; -1.2527722E-01;  0.0000000E+00; -1.0906250E-02;0; -1.2435380E-03;  1.0000015E+04;  0.0000000E+00; -9.2834776E-12;  1.0000000E+04;  0.0000000E+00;  1.0000000E+04; -1.2974472E-03;  0.0000000E+00;  5.3909247E-05;  2.7448767E-01;
  3.9999962E-02;  9.9999998E-03; -1.4000000E-01;1099; -8.2664534E-05;  0.0000000E+00; -5.9853319E-06;  1.0000007E+03;  4.0000001E-01;  5.9257573E-01;3; -1.2763008E-01;  0.0000000E+00; -8.8867294E-03;0; -1.2740217E-03;  1.0000016E+04;  0.0000000E+00; -4.7863042E-12;  1.0000000E+04;  0.0000000E+00;  1.0000000E+04; -1.3247193E-03;  0.0000000E+00;  5.0697603E-05;  2.6321408E-01;
  3.9999962E-02;  9.9999998E-03; -1.2000000E-01;1100; -8.3905717E-05;  0.0000000E+00; -4.8108104E-06;  1.0000007E+03;  4.0000001E-01;  5.9257573E-01;3; -1.2918101E-01;  0.0000000E+00; -7.0674908E-03;0; -1.2966562E-03;  1.0000016E+04;  0.0000000E+00;  9.3953257E-12;  1.0000000E+04;  0.0000000E+00;  1.0000000E+04; -1.3431351E-03;  0.0000000E+00;  4.6478901E-05;  2.4758781E-01;
  3.9999962E-02;  9.9999998E-03; -1.0000000E-01;1101; -8.4758714E-05;  0.0000000E+00; -3.7802631E-06;  1.0000009E+03;  4.0000001E-01;  6.9133836E-01;3; -1.3016595E-01;  0.0000000E+00; -5.4951105E-03;0; -1.3131985E-03;  1.0000017E+04;  0.0000000E+00;  4.7383842E-12;  1.0000000E+04;  0.0000000E+00;  1.0000000E+04; -1.3552562E-03;  0.0000000E+00;  4.2057713E-05;  2.3083445E-01;
  3.9999962E-02;  9.9999998E-03; -7.9999998E-02;1102; -8.5334410E-05;  0.0000000E+00; -2.8639397E-06;  1.0000009E+03;  4.0000001E-01;  6.9133836E-01;3; -1.3077116E-01;  0.0000000E+00; -4.1245660E-03;0; -1.3250728E-03;  1.0000017E+04;  0.0000000E+00;  2.9959889E-12;  1.0000000E+04;  0.0000000E+00;  1.0000000E+04; -1.3630312E-03;  0.0000000E+00;  3.7958325E-05;  2.1506414E-01;
  3.9999962E-02;  9.9999998E-03; -6.0000002E-02;1103; -8.5713233E-05;  0.0000000E+00; -2.0437478E-06;  1.0000009E+03;  4.0000001E-01;  6.9133836E-01;3; -1.3112891E-01;  0.0000000E+00; -2.9222062E-03;0; -1.3333472E-03;  1.0000017E+04;  0.0000000E+00; -1.7508603E-12;  1.0000000E+04;  0.0000000E+00;  1.0000000E+04; -1.3678599E-03;  0.0000000E+00;  3.4512745E-05;  2.0165080E-01;
  3.9999962E-02;  9.9999998E-03; -3.9999999E-02;1104; -8.5947744E-05;  0.0000000E+00; -1.3120547E-06;  1.0000009E+03;  4.0000001E-01;  6.9133836E-01;3; -1.3132654E-01;  0.0000000E+00; -1.8673807E-03;0; -1.3387814E-03;  1.0000017E+04;  0.0000000E+00; -1.4604274E-12;  1.0000000E+04;  0.0000000E+00;  1.0000000E+04; -1.3707066E-03;  0.0000000E+00;  3.1925123E-05;  1.9148283E-01;
  3.9999958E-02;  9.9999998E-03; -2.0000000E-02;1105; -8.6074695E-05;  0.0000000E+00; -6.4081649E-07;  1.0000009E+03;  4.0000001E-01;  6.9133836E-01;3; -1.3142405E-01;  0.0000000E+00; -9.0905617E-04;0; -1.3418635E-03;  1.0000017E+04;  0.0000000E+00; -5.1944987E-14;  1.0000000E+04;  0.0000000E+00;  1.0000000E+04; -1.3721872E-03;  0.0000000E+00;  3.0323579E-05;  1.8514770E-01;
  5.9999950E-02;  9.9999998E-03; -1.8000001E-01;1128; -1.0986040E-04;  0.0000000E+00; -1.1048543E-05;  1.0000009E+03;  4.0000001E-01;  7.9010099E-01;3; -1.6548204E-01;  0.0000000E+00; -1.5882116E-02;0; -1.5307290E-03;  1.0000020E+04;  0.0000000E+00; -2.1931575E-11;  1.0000000E+04;  0.0000000E+00;  1.0000000E+04; -1.6031582E-03;  0.0000000E+00;  7.2429233E-05;  3.7610763E-01;
  5.9999947E-02;  9.9999998E-03; -1.6000001E-01;1129; -1.1310841E-04;  0.0000000E+00; -9.2082428E-06;  1.0000010E+03;  4.0000001E-01;  7.9010099E-01;3; -1.6982892E-01;  0.0000000E+00; -1.3120016E-02;0; -1.5763503E-03;  1.0000021E+04;  0.0000000E+00;  2.5554363E-12;  1.0000000E+04;  0.0000000E+00;  1.0000000E+04; -1.6477570E-03;  0.0000000E+00;  7.1406670E-05;  3.7427217E-01;
  5.9999947E-02;  9.9999998E-03; -1.4000000E-01;1130; -1.1535404E-04;  0.0000000E+00; -7.5704615E-06;  1.0000010E+03;  4.0000001E-01;  7.9010099E-01;3; -1.7265292E-01;  0.0000000E+00; -1.0683727E-02;0; -1.6105456E-03;  1.0000021E+04;  0.0000000E+00;  5.8316962E-12;  1.0000000E+04;  0.0000000E+00;  1.0000000E+04; -1.6775150E-03;  0.0000000E+00;  6.6969384E-05;  3.5760394E-01;
  5.9999947E-02;  9.9999998E-03; -1.2000000E-01;1131; -1.1689230E-04;  0.0000000E+00; -6.0916677E-06;  1.0000010E+03;  4.0000001E-01;  7.9010099E-01;3; -1.7442136E-01;  0.0000000E+00; -8.5188281E-03;0; -1.6354868E-03;  1.0000021E+04;  0.0000000E+00;  7.3596831E-13;  1.0000000E+04;  0.0000000E+00;  1.0000000E+04; -1.6967845E-03;  0.0000000E+00;  6.1297622E-05;  3.3541179E-01;
  5.9999943E-02;  9.9999998E-03; -1.0000000E-01;1132; -1.1791847E-04;  0.0000000E+00; -4.7913727E-06;  1.0000010E+03;  4.0000001E-01;  8.8886362E-01;3; -1.7546865E-01;  0.0000000E+00; -6.6421069E-03;0; -1.6534665E-03;  1.0000021E+04;  0.0000000E+00;  5.5173726E-12;  1.0000000E+04;  0.0000000E+00;  1.0000000E+04; -1.7088319E-03;  0.0000000E+00;  5.5365392E-05;  3.1178695E-01;
  5.9999943E-02;  9.9999998E-03; -7.9999998E-02;1133; -1.1859164E-04;  0.0000000E+00; -3.6320419E-06;  1.0000010E+03;  4.0000001E-01;  8.8886362E-01;3; -1.7605533E-01;  0.0000000E+00; -4.9917302E-03;0; -1.6662268E-03;  1.0000021E+04;  0.0000000E+00;  7.5732541E-13;  1.0000000E+04;  0.0000000E+00;  1.0000000E+04; -1.7160836E-03;  0.0000000E+00;  4.9856833E-05;  2.8959346E-01;
  5.9999943E-02;  9.9999998E-03; -6.0000002E-02;1134; -1.1902237E-04;  0.0000000E+00; -2.5954737E-06;  1.0000010E+03;  4.0000001E-01;  8.8886362E-01;3; -1.7635928E-01;  0.0000000E+00; -3.5448216E-03;0; -1.6750405E-03;  1.0000021E+04;  0.0000000E+00;  5.0058568E-13;  1.0000000E+04;  0.0000000E+00;  1.0000000E+04; -1.7202600E-03;  0.0000000E+00;  4.5219509E-05;  2.7074128E-01;
  5.9999943E-02;  9.9999998E-03; -3.9999999E-02;1135; -1.1928262E-04;  0.0000000E+00; -1.6687218E-06;  1.0000010E+03;  4.0000001E-01;  8.8886362E-01;3; -1.7650032E-01;  0.0000000E+00; -2.2709076E-03;0; -1.6807902E-03;  1.0000021E+04;  0.0000000E+00; -2.0712447E-12;  1.0000000E+04;  0.0000000E+00;  1.0000000E+04; -1.7225249E-03;  0.0000000E+00;  4.1734653E-05;  2.5647327E-01;
  5.9999943E-02;  9.9999998E-03; -2.0000000E-02;1136; -1.1942120E-04;  0.0000000E+00; -8.1492351E-07;  1.0000010E+03;  4.0000001E-01;  8.8886362E-01;3; -1.7655778E-01;  0.0000000E+00; -1.1058436E-03;0; -1.6840369E-03;  1.0000021E+04;  0.0000000E+00; -4.5844172E-13;  1.0000000E+04;  0.0000000E+00;  1.0000000E+04; -1.7236148E-03;  0.0000000E+00;  3.9577779E-05;  2.4759813E-01;
  7.9999931E-02;  9.9999998E-03; -1.8000001E-01;1159; -1.4985471E-04;  0.0000000E+00; -1.3749381E-05;  1.0000012E+03;  4.0000001E-01;  9.8762625E-01;3; -2.1972704E-01;  0.0000000E+00; -1.8810121E-02;0; -1.9559863E-03;  1.0000024E+04;  0.0000000E+00; -7.7656596E-12;  1.0000000E+04;  0.0000000E+00;  9.9999990E+03; -2.0506678E-03;  0.0000000E+00;  9.4681498E-05;  5.0931013E-01;
  7.9999924E-02;  9.9999998E-03; -1.6000001E-01;1160; -1.5388781E-04;  0.0000000E+00; -1.1452898E-05;  1.0000013E+03;  4.0000001E-01;  1.0863888E+00;3; -2.2485884E-01;  0.0000000E+00; -1.5523298E-02;0; -2.0075543E-03;  1.0000025E+04;  0.0000000E+00; -2.6986260E-11;  1.0000000E+04;  0.0000000E+00;  9.9999990E+03; -2.1003182E-03;  0.0000000E+00;  9.2764036E-05;  5.0380570E-01;
  7.9999924E-02;  9.9999998E-03; -1.4000000E-01;1161; -1.5661983E-04;  0.0000000E+00; -9.3929193E-06;  1.0000013E+03;  4.0000001E-01;  1.0863888E+00;3; -2.2806278E-01;  0.0000000E+00; -1.2594917E-02;0; -2.0453199E-03;  1.0000026E+04;  0.0000000E+00; -1.3257898E-11;  1.0000000E+04;  0.0000000E+00;  1.0000000E+04; -2.1320134E-03;  0.0000000E+00;  8.6693537E-05;  4.7941971E-01;
  7.9999924E-02;  9.9999998E-03; -1.2000000E-01;1162; -1.5843722E-04;  0.0000000E+00; -7.5500420E-06;  1.0000013E+03;  4.0000001E-01;  1.0863888E+00;3; -2.2993667E-01;  0.0000000E+00; -1.0033806E-02;0; -2.0722647E-03;  1.0000028E+04;  0.0000000E+00; -4.5474132E-12;  1.0000000E+04;  0.0000000E+00;  1.0000000E+04; -2.1513901E-03;  0.0000000E+00;  7.9125326E-05;  4.4808486E-01;
  7.9999924E-02;  9.9999998E-03; -1.0000000E-01;1163; -1.5961086E-04;  0.0000000E+00; -5.9315794E-06;  1.0000013E+03;  4.0000001E-01;  1.0863888E+00;3; -2.3093337E-01;  0.0000000E+00; -7.8173233E-03;0; -2.0913279E-03;  1.0000029E+04;  0.0000000E+00;  7.8592731E-13;  1.0000000E+04;  0.0000000E+00;  1.0000000E+04; -2.1625659E-03;  0.0000000E+00;  7.1237970E-05;  4.1502091E-01;
  7.9999924E-02;  9.9999998E-03; -8.0000006E-02;1164; -1.6035353E-04;  0.0000000E+00; -4.4910166E-06;  1.0000013E+03;  4.0000001E-01;  1.0863888E+00;3; -2.3140015E-01;  0.0000000E+00; -5.8662905E-03;0; -2.1046416E-03;  1.0000029E+04;  0.0000000E+00; -7.3678971E-12;  1.0000000E+04;  0.0000000E+00;  1.0000000E+04; -2.1685497E-03;  0.0000000E+00;  6.3908017E-05;  3.8405856E-01;
  7.9999924E-02;  9.9999998E-03; -6.0000002E-02;1165; -1.6081009E-04;  0.0000000E+00; -3.2095625E-06;  1.0000013E+03;  4.0000001E-01;  1.0863888E+00;3; -2.3156826E-01;  0.0000000E+00; -4.1664615E-03;0; -2.1137162E-03;  1.0000029E+04;  0.0000000E+00; -6.0101806E-12;  1.0000000E+04;  0.0000000E+00;  1.0000000E+04; -2.1714456E-03;  0.0000000E+00;  5.7729449E-05;  3.5781023E-01;
  7.9999924E-02;  9.9999998E-03; -4.0000003E-02;1166; -1.6107512E-04;  0.0000000E+00; -2.0650409E-06;  1.0000013E+03;  4.0000001E-01;  1.0863888E+00;3; -2.3159125E-01;  0.0000000E+00; -2.6717864E-03;0; -2.1195738E-03;  1.0000029E+04;  0.0000000E+00; -2.7762037E-12;  1.0000000E+04;  0.0000000E+00;  1.0000000E+04; -2.1726575E-03;  0.0000000E+00;  5.3083782E-05;  3.3798629E-01;
  7.9999924E-02;  9.9999998E-03; -2.0000001E-02;1167; -1.6121237E-04;  0.0000000E+00; -1.0075257E-06;  1.0000013E+03;  4.0000001E-01;  1.0863888E+00;3; -2.3157144E-01;  0.0000000E+00; -1.2988860E-03;0; -2.1228576E-03;  1.0000029E+04;  0.0000000E+00; -2.0641003E-13;  1.0000000E+04;  0.0000000E+00;  1.0000000E+04; -2.1730664E-03;  0.0000000E+00;  5.0208680E-05;  3.2567900E-01;
  9.9999905E-02;  9.9999998E-03; -1.8000001E-01;1190; -2.0069245E-04;  0.0000000E+00; -1.7005597E-05;  1.0000016E+03;  4.0000001E-01;  1.2839141E+00;3; -2.8705311E-01;  0.0000000E+00; -2.2162812E-02;0; -2.5111507E-03;  1.0000034E+04;  0.0000000E+00; -3.0699717E-11;  1.0000000E+04;  0.0000000E+00;  9.9999990E+03; -2.6343158E-03;  0.0000000E+00;  1.2316497E-04;  6.8781263E-01;
  9.9999897E-02;  9.9999998E-03; -1.6000001E-01;1191; -2.0551891E-04;  0.0000000E+00; -1.4158190E-05;  1.0000016E+03;  4.0000001E-01;  1.3826767E+00;3; -2.9283586E-01;  0.0000000E+00; -1.8271562E-02;0; -2.5688095E-03;  1.0000035E+04;  0.0000000E+00; -2.6322632E-11;  1.0000000E+04;  0.0000000E+00;  9.9999990E+03; -2.6886761E-03;  0.0000000E+00;  1.1986647E-04;  6.7595786E-01;
  9.9999897E-02;  9.9999998E-03; -1.4000000E-01;1192; -2.0870927E-04;  0.0000000E+00; -1.1571175E-05;  1.0000017E+03;  4.0000001E-01;  1.3826767E+00;3; -2.9627031E-01;  0.0000000E+00; -1.4748434E-02;0; -2.6099572E-03;  1.0000036E+04;  0.0000000E+00; -2.9351438E-11;  1.0000000E+04;  0.0000000E+00;  9.9999990E+03; -2.7214729E-03;  0.0000000E+00;  1.1151559E-04;  6.4010596E-01;
  9.9999897E-02;  9.9999998E-03; -1.2000000E-01;1193; -2.1075753E-04;  0.0000000E+00; -9.2784385E-06;  1.0000017E+03;  4.0000001E-01;  1.3826767E+00;3; -2.9809326E-01;  0.0000000E+00; -1.1710887E-02;0; -2.6385586E-03;  1.0000036E+04;  0.0000000E+00; -9.1185904E-12;  1.0000000E+04;  0.0000000E+00;  9.9999990E+03; -2.7399051E-03;  0.0000000E+00;  1.0134657E-04;  5.9557772E-01;
  9.9999897E-02;  9.9999998E-03; -1.0000000E-01;1194; -2.1202574E-04;  0.0000000E+00; -7.2693724E-06;  1.0000018E+03;  4.0000001E-01;  1.4814394E+00;3; -2.9889283E-01;  0.0000000E+00; -9.0893274E-03;0; -2.6583155E-03;  1.0000036E+04;  0.0000000E+00; -8.9746448E-12;  1.0000000E+04;  0.0000000E+00;  1.0000000E+04; -2.7491122E-03;  0.0000000E+00;  9.0796624E-05;  5.4908597E-01;
  9.9999897E-02;  9.9999998E-03; -8.0000006E-02;1195; -2.1278851E-04;  0.0000000E+00; -5.4882053E-06;  1.0000018E+03;  4.0000001E-01;  1.4814394E+00;3; -2.9911289E-01;  0.0000000E+00; -6.7915348E-03;0; -2.6718120E-03;  1.0000036E+04;  0.0000000E+00; -1.7900761E-13;  1.0000000E+04;  0.0000000E+00;  1.0000000E+04; -2.7528033E-03;  0.0000000E+00;  8.0991413E-05;  5.0574982E-01;
  9.9999897E-02;  9.9999998E-03; -6.0000002E-02;1196; -2.1322859E-04;  0.0000000E+00; -3.9173815E-06;  1.0000018E+03;  4.0000001E-01;  1.4814394E+00;3; -2.9904166E-01;  0.0000000E+00; -4.8145461E-03;0; -2.6808330E-03;  1.0000036E+04;  0.0000000E+00; -1.7916475E-12;  1.0000000E+04;  0.0000000E+00;  1.0000000E+04; -2.7535532E-03;  0.0000000E+00;  7.2720235E-05;  4.6912992E-01;
  9.9999897E-02;  9.9999998E-03; -4.0000003E-02;1197; -2.1346688E-04;  0.0000000E+00; -2.5185504E-06;  1.0000018E+03;  4.0000001E-01;  1.4814394E+00;3; -2.9887289E-01;  0.0000000E+00; -3.0807073E-03;0; -2.6865634E-03;  1.0000037E+04;  0.0000000E+00; -6.8813645E-13;  1.0000000E+04;  0.0000000E+00;  1.0000000E+04; -2.7530640E-03;  0.0000000E+00;  6.6500659E-05;  4.4155616E-01;
  9.9999897E-02;  9.9999998E-03; -2.0000001E-02;1198; -2.1358277E-04;  0.0000000E+00; -1.2278903E-06;  1.0000018E+03;  4.0000001E-01;  1.4814394E+00;3; -2.9872945E-01;  0.0000000E+00; -1.4972034E-03;0; -2.6897402E-03;  1.0000037E+04;  0.0000000E+00;  5.4432560E-13;  1.0000000E+04;  0.0000000E+00;  1.0000000E+04; -2.7523928E-03;  0.0000000E+00;  6.2652740E-05;  4.2448044E-01;
  1.1999987E-01;  9.9999998E-03; -1.8000001E-01;1221; -2.6556462E-04;  0.0000000E+00; -2.1040052E-05;  1.0000021E+03;  4.0000001E-01;  1.7777272E+00;3; -3.7069258E-01;  0.0000000E+00; -2.6158895E-02;0; -3.2291317E-03;  1.0000044E+04;  0.0000000E+00; -4.0332859E-11;  1.0000000E+04;  0.0000000E+00;  9.9999980E+03; -3.3903907E-03;  0.0000000E+00;  1.6125890E-04;  9.3325955E-01;
  1.1999986E-01;  9.9999998E-03; -1.6000001E-01;1222; -2.7116630E-04;  0.0000000E+00; -1.7511824E-05;  1.0000021E+03;  4.0000001E-01;  1.7777272E+00;3; -3.7692761E-01;  0.0000000E+00; -2.1561675E-02;0; -3.2927191E-03;  1.0000045E+04;  0.0000000E+00; -1.0168590E-10;  1.0000000E+04;  0.0000000E+00;  9.9999980E+03; -3.4483084E-03;  0.0000000E+00;  1.5558921E-04;  9.0934336E-01;
  1.1999986E-01;  9.9999998E-03; -1.4000000E-01;1223; -2.7475072E-04;  0.0000000E+00; -1.4255229E-05;  1.0000023E+03;  4.0000001E-01;  1.8764899E+00;3; -3.8036874E-01;  0.0000000E+00; -1.7311737E-02;0; -3.3368217E-03;  1.0000047E+04;  0.0000000E+00; -5.1525881E-11;  1.0000000E+04;  0.0000000E+00;  9.9999980E+03; -3.4806607E-03;  0.0000000E+00;  1.4383908E-04;  8.5552001E-01;
  1.1999986E-01;  9.9999998E-03; -1.2000000E-01;1224; -2.7694387E-04;  0.0000000E+00; -1.1388826E-05;  1.0000023E+03;  4.0000001E-01;  1.8764899E+00;3; -3.8191792E-01;  0.0000000E+00; -1.3669969E-02;0; -3.3665195E-03;  1.0000047E+04;  0.0000000E+00;  3.5954419E-12;  1.0000000E+04;  0.0000000E+00;  9.9999990E+03; -3.4964501E-03;  0.0000000E+00;  1.2993057E-04;  7.9130596E-01;
  1.1999986E-01;  9.9999998E-03; -1.0000000E-01;1225; -2.7821821E-04;  0.0000000E+00; -8.8863208E-06;  1.0000023E+03;  4.0000001E-01;  1.8764899E+00;3; -3.8231969E-01;  0.0000000E+00; -1.0545205E-02;0; -3.3864079E-03;  1.0000047E+04;  0.0000000E+00;  2.2509462E-12;  1.0000000E+04;  0.0000000E+00;  9.9999990E+03; -3.5020085E-03;  0.0000000E+00;  1.1560058E-04;  7.2520149E-01;
  1.1999986E-01;  9.9999998E-03; -8.0000006E-02;1226; -2.7892136E-04;  0.0000000E+00; -6.6784178E-06;  1.0000023E+03;  4.0000001E-01;  1.8764899E+00;3; -3.8212690E-01;  0.0000000E+00; -7.8244386E-03;0; -3.3995847E-03;  1.0000048E+04;  0.0000000E+00; -1.6381625E-12;  1.0000000E+04;  0.0000000E+00;  9.9999990E+03; -3.5018851E-03;  0.0000000E+00;  1.0230036E-04;  6.6401029E-01;
  1.1999986E-01;  9.9999998E-03; -6.0000002E-02;1227; -2.7927849E-04;  0.0000000E+00; -4.7542280E-06;  1.0000023E+03;  4.0000001E-01;  1.8764899E+00;3; -3.8168296E-01;  0.0000000E+00; -5.5237599E-03;0; -3.4081405E-03;  1.0000048E+04;  0.0000000E+00; -8.5969063E-13;  1.0000000E+04;  0.0000000E+00;  1.0000000E+04; -3.4992278E-03;  0.0000000E+00;  9.1087357E-05;  6.1256325E-01;
  1.1999986E-01;  9.9999998E-03; -4.0000003E-02;1228; -2.7944191E-04;  0.0000000E+00; -3.0492613E-06;  1.0000023E+03;  4.0000001E-01;  1.8764899E+00;3; -3.8122723E-01;  0.0000000E+00; -3.5155918E-03;0; -3.4134360E-03;  1.0000048E+04;  0.0000000E+00; -5.2150246E-12;  1.0000000E+04;  0.0000000E+00;  1.0000000E+04; -3.4960986E-03;  0.0000000E+00;  8.2662496E-05;  5.7399255E-01;
  1.1999986E-01;  9.9999998E-03; -2.0000001E-02;1229; -2.7950664E-04;  0.0000000E+00; -1.4850154E-06;  1.0000023E+03;  4.0000001E-01;  1.8764899E+00;3; -3.8090125E-01;  0.0000000E+00; -1.7064664E-03;0; -3.4163150E-03;  1.0000048E+04;  0.0000000E+00; -1.6205134E-12;  1.0000000E+04;  0.0000000E+00;  1.0000000E+04; -3.4937700E-03;  0.0000000E+00;  7.7455181E-05;  5.5018735E-01;
  1.3999982E-01;  9.9999998E-03; -1.8000002E-01;1252; -3.4856534E-04;  0.0000000E+00; -2.6186550E-05;  1.0000028E+03;  4.0000001E-01;  2.3703029E+00;3; -4.7454780E-01;  0.0000000E+00; -3.1143121E-02;0; -4.1452143E-03;  1.0000061E+04;  0.0000000E+00; -1.7027401E-07;  1.0000000E+04;  0.0000000E+00;  9.9999980E+03; -4.3600230E-03;  0.0000000E+00;  2.1480839E-04;  1.2812182E+00;
  1.3999982E-01;  9.9999998E-03; -1.6000001E-01;1253; -3.5488361E-04;  0.0000000E+00; -2.1759812E-05;  1.0000029E+03;  4.0000001E-01;  2.3703029E+00;3; -4.8091993E-01;  0.0000000E+00; -2.5645817E-02;0; -4.2144200E-03;  1.0000061E+04;  0.0000000E+00; -1.3523056E-10;  1.0000000E+04;  0.0000000E+00;  9.9999980E+03; -4.4187438E-03;  0.0000000E+00;  2.0432373E-04;  1.2315049E+00;
  1.3999982E-01;  9.9999998E-03; -1.4000002E-01;1254; -3.5874624E-04;  0.0000000E+00; -1.7631332E-05;  1.0000029E+03;  4.0000001E-01;  2.4690657E+00;3; -4.8402736E-01;  0.0000000E+00; -2.0482445E-02;0; -4.2607766E-03;  1.0000061E+04;  0.0000000E+00; -2.3811772E-11;  1.0000000E+04;  0.0000000E+00;  9.9999980E+03; -4.4478299E-03;  0.0000000E+00;  1.8705316E-04;  1.1475420E+00;
  1.3999981E-01;  9.9999998E-03; -1.2000000E-01;1255; -3.6094533E-04;  0.0000000E+00; -1.4012397E-05;  1.0000030E+03;  4.0000001E-01;  2.4690657E+00;3; -4.8498583E-01;  0.0000000E+00; -1.6055966E-02;0; -4.2907023E-03;  1.0000061E+04;  0.0000000E+00; -2.2907424E-11;  1.0000000E+04;  0.0000000E+00;  9.9999980E+03; -4.4581965E-03;  0.0000000E+00;  1.6749396E-04;  1.0528747E+00;
  1.3999981E-01;  9.9999998E-03; -1.0000001E-01;1256; -3.6208730E-04;  0.0000000E+00; -1.0866121E-05;  1.0000031E+03;  4.0000001E-01;  2.5678282E+00;3; -4.8472109E-01;  0.0000000E+00; -1.2265784E-02;0; -4.3098819E-03;  1.0000062E+04;  0.0000000E+00; -6.8922220E-12;  1.0000000E+04;  0.0000000E+00;  9.9999980E+03; -4.4575091E-03;  0.0000000E+00;  1.4762720E-04;  9.5756656E-01;
  1.3999981E-01;  9.9999998E-03; -8.0000006E-02;1257; -3.6260529E-04;  0.0000000E+00; -8.1198550E-06;  1.0000031E+03;  4.0000001E-01;  2.5678282E+00;3; -4.8387882E-01;  0.0000000E+00; -9.0322169E-03;0; -4.3220161E-03;  1.0000062E+04;  0.0000000E+00; -5.4729229E-12;  1.0000000E+04;  0.0000000E+00;  9.9999990E+03; -4.4513009E-03;  0.0000000E+00;  1.2928482E-04;  8.7033480E-01;
  1.3999981E-01;  9.9999998E-03; -6.0000002E-02;1258; -3.6277861E-04;  0.0000000E+00; -5.7551460E-06;  1.0000031E+03;  4.0000001E-01;  2.5678282E+00;3; -4.8287728E-01;  0.0000000E+00; -6.3311611E-03;0; -4.3295133E-03;  1.0000062E+04;  0.0000000E+00; -5.3575894E-12;  1.0000000E+04;  0.0000000E+00;  9.9999990E+03; -4.4433810E-03;  0.0000000E+00;  1.1386754E-04;  7.9756171E-01;
  1.3999981E-01;  9.9999998E-03; -4.0000003E-02;1259; -3.6279301E-04;  0.0000000E+00; -3.6772644E-06;  1.0000031E+03;  4.0000001E-01;  2.5678282E+00;3; -4.8199913E-01;  0.0000000E+00; -4.0010898E-03;0; -4.3339380E-03;  1.0000063E+04;  0.0000000E+00; -6.3169229E-13;  1.0000000E+04;  0.0000000E+00;  9.9999990E+03; -4.4362494E-03;  0.0000000E+00;  1.0231129E-04;  7.4333024E-01;
  1.3999981E-01;  9.9999998E-03; -2.0000001E-02;1260; -3.6276210E-04;  0.0000000E+00; -1.7876724E-06;  1.0000031E+03;  4.0000001E-01;  2.5678282E+00;3; -4.8141015E-01;  0.0000000E+00; -1.9350747E-03;0; -4.3362495E-03;  1.0000063E+04;  0.0000000E+00; -4.7886491E-12;  1.0000000E+04;  0.0000000E+00;  9.9999990E+03; -4.4314316E-03;  0.0000000E+00;  9.5181909E-05;  7.1000642E-01;
  1.5999976E-01;  9.9999998E-03; -1.8000002E-01;1283; -4.5468728E-04;  0.0000000E+00; -3.2930584E-05;  1.0000037E+03;  4.0000001E-01;  3.0616415E+00;3; -6.0318327E-01;  0.0000000E+00; -3.7668381E-02;0; -5.2999798E-03;  1.0000077E+04;  0.0000000E+00; -1.6222164E-06;  1.0000000E+04;  0.0000000E+00;  9.9999961E+03; -5.5936282E-03;  0.0000000E+00;  2.9364825E-04;  1.7898110E+00;
  1.5999976E-01;  9.9999998E-03; -1.6000001E-01;1284; -4.6158777E-04;  0.0000000E+00; -2.7258513E-05;  1.0000038E+03;  4.0000001E-01;  3.1604040E+00;3; -6.0923499E-01;  0.0000000E+00; -3.0915299E-02;0; -5.3743981E-03;  1.0000080E+04;  0.0000000E+00; -2.8494521E-10;  1.0000000E+04;  0.0000000E+00;  9.9999971E+03; -5.6472500E-03;  0.0000000E+00;  2.7285187E-04;  1.6839373E+00;
  1.5999976E-01;  9.9999998E-03; -1.4000002E-01;1285; -4.6554094E-04;  0.0000000E+00; -2.1938587E-05;  1.0000039E+03;  4.0000001E-01;  3.2591665E+00;3; -6.1154127E-01;  0.0000000E+00; -2.4516031E-02;0; -5.4223794E-03;  1.0000080E+04;  0.0000000E+00; -3.2716264E-11;  1.0000000E+04;  0.0000000E+00;  9.9999971E+03; -5.6683100E-03;  0.0000000E+00;  2.4593080E-04;  1.5466384E+00;
  1.5999976E-01;  9.9999998E-03; -1.2000001E-01;1286; -4.6753496E-04;  0.0000000E+00; -1.7304514E-05;  1.0000040E+03;  4.0000001E-01;  3.2591665E+00;3; -6.1145574E-01;  0.0000000E+00; -1.9046117E-02;0; -5.4514389E-03;  1.0000080E+04;  0.0000000E+00;  5.6866439E-12;  1.0000000E+04;  0.0000000E+00;  9.9999971E+03; -5.6688776E-03;  0.0000000E+00;  2.1743859E-04;  1.4032949E+00;
  1.5999974E-01;  9.9999998E-03; -1.0000001E-01;1287; -4.6833753E-04;  0.0000000E+00; -1.3309080E-05;  1.0000040E+03;  4.0000001E-01;  3.2591665E+00;3; -6.1011422E-01;  0.0000000E+00; -1.4384058E-02;0; -5.4687657E-03;  1.0000080E+04;  0.0000000E+00;  1.6693795E-12;  1.0000000E+04;  0.0000000E+00;  9.9999980E+03; -5.6580459E-03;  0.0000000E+00;  1.8928028E-04;  1.2639042E+00;
  1.5999974E-01;  9.9999998E-03; -8.0000006E-02;1288; -4.6848759E-04;  0.0000000E+00; -9.8672217E-06;  1.0000040E+03;  4.0000001E-01;  3.2591665E+00;3; -6.0827994E-01;  0.0000000E+00; -1.0470710E-02;0; -5.4788156E-03;  1.0000081E+04;  0.0000000E+00; -1.2389750E-12;  1.0000000E+04;  0.0000000E+00;  9.9999980E+03; -5.6424183E-03;  0.0000000E+00;  1.6360242E-04;  1.1386192E+00;
  1.5999974E-01;  9.9999998E-03; -6.0000002E-02;1289; -4.6832630E-04;  0.0000000E+00; -6.9484940E-06;  1.0000040E+03;  4.0000001E-01;  3.2591665E+00;3; -6.0644656E-01;  0.0000000E+00; -7.2592688E-03;0; -5.4844110E-03;  1.0000081E+04;  0.0000000E+00;  1.3095133E-12;  1.0000000E+04;  0.0000000E+00;  9.9999980E+03; -5.6265807E-03;  0.0000000E+00;  1.4216977E-04;  1.0353011E+00;
  1.5999974E-01;  9.9999998E-03; -4.0000003E-02;1290; -4.6808104E-04;  0.0000000E+00; -4.4162971E-06;  1.0000040E+03;  4.0000001E-01;  3.3579292E+00;3; -6.0494912E-01;  0.0000000E+00; -4.5426833E-03;0; -5.4873331E-03;  1.0000080E+04;  0.0000000E+00; -9.8161895E-12;  1.0000000E+04;  0.0000000E+00;  9.9999990E+03; -5.6135138E-03;  0.0000000E+00;  1.2618072E-04;  9.5893663E-01;
  1.5999974E-01;  9.9999998E-03; -2.0000001E-02;1291; -4.6788674E-04;  0.0000000E+00; -2.1406399E-06;  1.0000040E+03;  4.0000001E-01;  3.3579292E+00;3; -6.0397869E-01;  0.0000000E+00; -2.1837212E-03;0; -5.4886905E-03;  1.0000080E+04;  0.0000000E+00; -5.1050011E-12;  1.0000000E+04;  0.0000000E+00;  9.9999990E+03; -5.6050387E-03;  0.0000000E+00;  1.1634814E-04;  9.1227382E-01;
  1.7999968E-01;  9.9999998E-03; -1.8000002E-01;1314; -5.8995734E-04;  0.0000000E+00; -4.1952720E-05;  1.0000048E+03;  4.0000001E-01;  3.9505050E+00;3; -7.6192605E-01;  0.0000000E+00; -4.6532463E-02;0; -6.7412648E-03;  1.0000103E+04;  0.0000000E+00; -5.2118039E-06;  1.0000000E+04;  0.0000000E+00;  9.9999941E+03; -7.1537192E-03;  0.0000000E+00;  4.1245448E-04;  2.5457449E+00;
  1.7999968E-01;  9.9999998E-03; -1.6000003E-01;1315; -5.9721543E-04;  0.0000000E+00; -3.4436751E-05;  1.0000049E+03;  4.0000001E-01;  4.0492678E+00;3; -7.6703489E-01;  0.0000000E+00; -3.7868626E-02;0; -6.8216813E-03;  1.0000103E+04;  0.0000000E+00; -2.0287192E-08;  1.0000000E+04;  0.0000000E+00;  9.9999951E+03; -7.1927398E-03;  0.0000000E+00;  3.7105853E-04;  2.3266308E+00;
  1.7999966E-01;  9.9999998E-03; -1.4000002E-01;1316; -6.0095830E-04;  0.0000000E+00; -2.7462171E-05;  1.0000051E+03;  4.0000001E-01;  4.1480303E+00;3; -7.6789188E-01;  0.0000000E+00; -2.9721614E-02;0; -6.8713096E-03;  1.0000103E+04;  0.0000000E+00; -4.6688719E-11;  1.0000000E+04;  0.0000000E+00;  9.9999961E+03; -7.1983216E-03;  0.0000000E+00;  3.2701195E-04;  2.0944984E+00;
  1.7999966E-01;  9.9999998E-03; -1.2000001E-01;1317; -6.0242938E-04;  0.0000000E+00; -2.1439737E-05;  1.0000051E+03;  4.0000001E-01;  4.1480303E+00;3; -7.6612943E-01;  0.0000000E+00; -2.2809567E-02;0; -6.8984339E-03;  1.0000103E+04;  0.0000000E+00; -2.0265634E-12;  1.0000000E+04;  0.0000000E+00;  9.9999961E+03; -7.1825339E-03;  0.0000000E+00;  2.8409989E-04;  1.8723401E+00;
  1.7999966E-01;  9.9999998E-03; -1.0000001E-01;1318; -6.0258940E-04;  0.0000000E+00; -1.6311506E-05;  1.0000051E+03;  4.0000001E-01;  4.1480303E+00;3; -7.6313180E-01;  0.0000000E+00; -1.6971452E-02;0; -6.9124671E-03;  1.0000104E+04;  0.0000000E+00;  9.3899298E-12;  1.0000000E+04;  0.0000000E+00;  9.9999971E+03; -7.1558775E-03;  0.0000000E+00;  2.4341042E-04;  1.6661255E+00;
  1.7999966E-01;  9.9999998E-03; -8.0000006E-02;1319; -6.0210360E-04;  0.0000000E+00; -1.1965035E-05;  1.0000051E+03;  4.0000001E-01;  4.1480303E+00;3; -7.5981605E-01;  0.0000000E+00; -1.2156795E-02;0; -6.9190231E-03;  1.0000104E+04;  0.0000000E+00; -9.7271358E-12;  1.0000000E+04;  0.0000000E+00;  9.9999971E+03; -7.1261050E-03;  0.0000000E+00;  2.0708200E-04;  1.4855236E+00;
  1.7999966E-01;  9.9999998E-03; -6.0000006E-02;1320; -6.0138956E-04;  0.0000000E+00; -8.3501773E-06;  1.0000051E+03;  4.0000001E-01;  4.1480303E+00;3; -7.5676847E-01;  0.0000000E+00; -8.3003528E-03;0; -6.9214907E-03;  1.0000104E+04;  0.0000000E+00; -7.8746844E-12;  1.0000000E+04;  0.0000000E+00;  9.9999980E+03; -7.0986166E-03;  0.0000000E+00;  1.7712584E-04;  1.3389666E+00;
  1.7999966E-01;  9.9999998E-03; -4.0000003E-02;1321; -6.0072372E-04;  0.0000000E+00; -5.2684391E-06;  1.0000051E+03;  4.0000001E-01;  4.1480303E+00;3; -7.5437659E-01;  0.0000000E+00; -5.1236562E-03;0; -6.9219996E-03;  1.0000103E+04;  0.0000000E+00; -1.1385302E-11;  1.0000000E+04;  0.0000000E+00;  9.9999980E+03; -7.0769503E-03;  0.0000000E+00;  1.5495086E-04;  1.2318120E+00;
  1.7999966E-01;  9.9999998E-03; -2.0000001E-02;1322; -6.0026796E-04;  0.0000000E+00; -2.5429281E-06;  1.0000051E+03;  4.0000001E-01;  4.1480303E+00;3; -7.5285923E-01;  0.0000000E+00; -2.4422684E-03;0; -6.9218366E-03;  1.0000103E+04;  0.0000000E+00; -3.4234965E-12;  1.0000000E+04;  0.0000000E+00;  9.9999980E+03; -7.0632170E-03;  0.0000000E+00;  1.4138040E-04;  1.1667904E+00;
  1.9999957E-01;  9.9999998E-03; -1.8000004E-01;1345; -7.6176971E-04;  0.0000000E+00; -5.3941814E-05;  1.0000063E+03;  4.0000001E-01;  5.2344189E+00;3; -9.5699549E-01;  0.0000000E+00; -5.8507405E-02;0; -8.5244160E-03;  1.0000136E+04;  0.0000000E+00; -9.7254497E-06;  1.0000000E+04;  0.0000000E+00;  9.9999932E+03; -9.1144349E-03;  0.0000000E+00;  5.9001922E-04;  3.6631088E+00;
  1.9999957E-01;  9.9999998E-03; -1.6000003E-01;1346; -7.6902792E-04;  0.0000000E+00; -4.3736462E-05;  1.0000064E+03;  4.0000001E-01;  5.3331819E+00;3; -9.6034342E-01;  0.0000000E+00; -4.6974346E-02;0; -8.6145913E-03;  1.0000137E+04;  0.0000000E+00; -9.2667136E-08;  1.0000000E+04;  0.0000000E+00;  9.9999932E+03; -9.1263251E-03;  0.0000000E+00;  5.1173399E-04;  3.2386506E+00;
  1.9999957E-01;  9.9999998E-03; -1.4000002E-01;1347; -7.7209505E-04;  0.0000000E+00; -3.4505996E-05;  1.0000066E+03;  4.0000001E-01;  5.4319444E+00;3; -9.5886570E-01;  0.0000000E+00; -3.6409765E-02;0; -8.6669875E-03;  1.0000137E+04;  0.0000000E+00; -5.8162440E-11;  1.0000000E+04;  0.0000000E+00;  9.9999941E+03; -9.1055660E-03;  0.0000000E+00;  4.3857825E-04;  2.8448610E+00;
  1.9999957E-01;  9.9999998E-03; -1.2000002E-01;1348; -7.7257509E-04;  0.0000000E+00; -2.6583302E-05;  1.0000067E+03;  4.0000001E-01;  5.5307069E+00;3; -9.5458537E-01;  0.0000000E+00; -2.7480315E-02;0; -8.6913016E-03;  1.0000137E+04;  0.0000000E+00; -3.6918510E-11;  1.0000000E+04;  0.0000000E+00;  9.9999951E+03; -9.0640150E-03;  0.0000000E+00;  3.7271308E-04;  2.4970727E+00;
  1.9999956E-01;  9.9999998E-03; -1.0000002E-01;1349; -7.7164755E-04;  0.0000000E+00; -1.9951005E-05;  1.0000067E+03;  4.0000001E-01;  5.5307069E+00;3; -9.4916934E-01;  0.0000000E+00; -2.0038208E-02;0; -8.7002767E-03;  1.0000137E+04;  0.0000000E+00; -3.0155639E-12;  1.0000000E+04;  0.0000000E+00;  9.9999961E+03; -9.0135289E-03;  0.0000000E+00;  3.1325250E-04;  2.1906259E+00;
  1.9999956E-01;  9.9999998E-03; -8.0000006E-02;1350; -7.7014067E-04;  0.0000000E+00; -1.4436345E-05;  1.0000067E+03;  4.0000001E-01;  5.5307069E+00;3; -9.4372016E-01;  0.0000000E+00; -1.4048181E-02;0; -8.7013887E-03;  1.0000137E+04;  0.0000000E+00; -4.8899973E-12;  1.0000000E+04;  0.0000000E+00;  9.9999971E+03; -8.9630494E-03;  0.0000000E+00;  2.6166067E-04;  1.9307113E+00;
  1.9999956E-01;  9.9999998E-03; -6.0000006E-02;1351; -7.6856307E-04;  0.0000000E+00; -9.9574545E-06;  1.0000067E+03;  4.0000001E-01;  5.5307069E+00;3; -9.3894082E-01;  0.0000000E+00; -9.3998350E-03;0; -8.6989878E-03;  1.0000136E+04;  0.0000000E+00; -1.0664659E-11;  1.0000000E+04;  0.0000000E+00;  9.9999971E+03; -8.9188330E-03;  0.0000000E+00;  2.1984556E-04;  1.7240646E+00;
  1.9999956E-01;  9.9999998E-03; -4.0000003E-02;1352; -7.6725119E-04;  0.0000000E+00; -6.2238037E-06;  1.0000067E+03;  4.0000001E-01;  5.5307069E+00;3; -9.3528348E-01;  0.0000000E+00; -5.7030790E-03;0; -8.6957281E-03;  1.0000135E+04;  0.0000000E+00; -1.0299980E-11;  1.0000000E+04;  0.0000000E+00;  9.9999971E+03; -8.8849571E-03;  0.0000000E+00;  1.8922905E-04;  1.5750164E+00;
  1.9999956E-01;  9.9999998E-03; -2.0000001E-02;1353; -7.6639786E-04;  0.0000000E+00; -2.9872192E-06;  1.0000067E+03;  4.0000001E-01;  5.5307069E+00;3; -9.3299538E-01;  0.0000000E+00; -2.6861618E-03;0; -8.6932005E-03;  1.0000134E+04;  0.0000000E+00; -5.9091404E-12;  1.0000000E+04;  0.0000000E+00;  9.9999980E+03; -8.8638198E-03;  0.0000000E+00;  1.7061879E-04;  1.4853488E+00;
  2.1999943E-01;  9.9999998E-03; -1.8000004E-01;1376; -9.7915018E-04;  0.0000000E+00; -6.9507900E-05;  1.0000082E+03;  4.0000001E-01;  6.8146210E+00;3; -1.1956174E+00;  0.0000000E+00; -7.4197948E-02;0; -1.0715058E-02;  1.0000176E+04;  0.0000000E+00; -1.1863274E-05;  1.0000000E+04;  0.0000000E+00;  9.9999883E+03; -1.1561736E-02;  0.0000000E+00;  8.4667775E-04;  5.2732544E+00;
  2.1999943E-01;  9.9999998E-03; -1.6000004E-01;1377; -9.8580727E-04;  0.0000000E+00; -5.5590746E-05;  1.0000083E+03;  4.0000001E-01;  6.9133835E+00;3; -1.1960815E+00;  0.0000000E+00; -5.8660712E-02;0; -1.0822117E-02;  1.0000177E+04;  0.0000000E+00; -1.1089124E-07;  1.0000000E+04;  0.0000000E+00;  9.9999893E+03; -1.1531179E-02;  0.0000000E+00;  7.0906163E-04;  4.5127120E+00;
  2.1999943E-01;  9.9999998E-03; -1.4000003E-01;1378; -9.8751776E-04;  0.0000000E+00; -4.3327251E-05;  1.0000083E+03;  4.0000001E-01;  6.9133835E+00;3; -1.1911263E+00;  0.0000000E+00; -4.4794049E-02;0; -1.0879442E-02;  1.0000176E+04;  0.0000000E+00; -5.2038214E-11;  1.0000000E+04;  0.0000000E+00;  9.9999932E+03; -1.1469339E-02;  0.0000000E+00;  5.8989733E-04;  3.8611259E+00;
  2.1999943E-01;  9.9999998E-03; -1.2000002E-01;1379; -9.8634080E-04;  0.0000000E+00; -3.2845008E-05;  1.0000083E+03;  4.0000001E-01;  6.9133835E+00;3; -1.1832665E+00;  0.0000000E+00; -3.3060629E-02;0; -1.0900104E-02;  1.0000176E+04;  0.0000000E+00; -3.1952841E-12;  1.0000000E+04;  0.0000000E+00;  9.9999932E+03; -1.1389120E-02;  0.0000000E+00;  4.8901624E-04;  3.3208337E+00;
  2.1999943E-01;  9.9999998E-03; -1.0000002E-01;1380; -9.8369399E-04;  0.0000000E+00; -2.4266748E-05;  1.0000084E+03;  4.0000001E-01;  6.9133835E+00;3; -1.1744430E+00;  0.0000000E+00; -2.3545228E-02;0; -1.0901691E-02;  1.0000175E+04;  0.0000000E+00;  1.6378652E-11;  1.0000000E+04;  0.0000000E+00;  9.9999941E+03; -1.1303888E-02;  0.0000000E+00;  4.0219634E-04;  2.8679378E+00;
  2.1999943E-01;  9.9999998E-03; -8.0000013E-02;1381; -9.8062668E-04;  0.0000000E+00; -1.7276781E-05;  1.0000084E+03;  4.0000001E-01;  6.9133835E+00;3; -1.1660179E+00;  0.0000000E+00; -1.6071076E-02;0; -1.0894584E-02;  1.0000174E+04;  0.0000000E+00; -2.0529550E-12;  1.0000000E+04;  0.0000000E+00;  9.9999951E+03; -1.1223841E-02;  0.0000000E+00;  3.2925693E-04;  2.4969523E+00;
  2.1999943E-01;  9.9999998E-03; -6.0000010E-02;1382; -9.7775494E-04;  0.0000000E+00; -1.1747147E-05;  1.0000084E+03;  4.0000001E-01;  7.0121465E+00;3; -1.1588275E+00;  0.0000000E+00; -1.0465393E-02;0; -1.0884747E-02;  1.0000174E+04;  0.0000000E+00; -1.5015385E-11;  1.0000000E+04;  0.0000000E+00;  9.9999971E+03; -1.1156119E-02;  0.0000000E+00;  2.7137285E-04;  2.2089031E+00;
  2.1999943E-01;  9.9999998E-03; -4.0000007E-02;1383; -9.7548845E-04;  0.0000000E+00; -7.2566395E-06;  1.0000084E+03;  4.0000001E-01;  7.0121465E+00;3; -1.1534170E+00;  0.0000000E+00; -6.1997012E-03;0; -1.0875705E-02;  1.0000173E+04;  0.0000000E+00; -1.9273057E-11;  1.0000000E+04;  0.0000000E+00;  9.9999971E+03; -1.1105278E-02;  0.0000000E+00;  2.2957327E-04;  2.0044625E+00;
  2.1999943E-01;  9.9999998E-03; -2.0000003E-02;1384; -9.7405090E-04;  0.0000000E+00; -3.4587890E-06;  1.0000085E+03;  4.0000001E-01;  7.0121465E+00;3; -1.1500666E+00;  0.0000000E+00; -2.8755511E-03;0; -1.0869553E-02;  1.0000173E+04;  0.0000000E+00; -7.9024383E-12;  1.0000000E+04;  0.0000000E+00;  9.9999971E+03; -1.1073936E-02;  0.0000000E+00;  2.0438206E-04;  1.8827283E+00;
  2.3999926E-01;  9.9999998E-03; -1.8000005E-01;1407; -1.2530356E-03;  0.0000000E+00; -8.9490110E-05;  1.0000104E+03;  4.0000001E-01;  8.6911106E+00;3; -1.4861865E+00;  0.0000000E+00; -9.4440199E-02;0; -1.3394892E-02;  1.0000228E+04;  0.0000000E+00; -9.4237876E-06;  1.0000000E+04;  0.0000000E+00;  9.9999814E+03; -1.4595585E-02;  0.0000000E+00;  1.2006923E-03;  7.5097675E+00;
  2.3999925E-01;  9.9999998E-03; -1.6000004E-01;1408; -1.2580793E-03;  0.0000000E+00; -7.0416558E-05;  1.0000107E+03;  4.0000001E-01;  8.8886366E+00;3; -1.4821596E+00;  0.0000000E+00; -7.3243469E-02;0; -1.3527174E-02;  1.0000228E+04;  0.0000000E+00; -3.4517704E-08;  1.0000000E+04;  0.0000000E+00;  9.9999873E+03; -1.4503505E-02;  0.0000000E+00;  9.7633043E-04;  6.2458887E+00;
  2.3999925E-01;  9.9999998E-03; -1.4000003E-01;1409; -1.2574055E-03;  0.0000000E+00; -5.4092139E-05;  1.0000107E+03;  4.0000001E-01;  8.8886366E+00;3; -1.4721892E+00;  0.0000000E+00; -5.4904517E-02;0; -1.3591651E-02;  1.0000227E+04;  0.0000000E+00; -7.2996826E-12;  1.0000000E+04;  0.0000000E+00;  9.9999893E+03; -1.4381494E-02;  0.0000000E+00;  7.8984309E-04;  5.2111316E+00;
  2.3999925E-01;  9.9999998E-03; -1.2000003E-01;1410; -1.2535998E-03;  0.0000000E+00; -4.0261330E-05;  1.0000107E+03;  4.0000001E-01;  8.8886366E+00;3; -1.4593424E+00;  0.0000000E+00; -3.9475728E-02;0; -1.3607105E-02;  1.0000224E+04;  0.0000000E+00;  3.8660623E-11;  1.0000000E+04;  0.0000000E+00;  9.9999912E+03; -1.4245588E-02;  0.0000000E+00;  6.3848286E-04;  4.3907442E+00;
  2.3999925E-01;  9.9999998E-03; -1.0000002E-01;1411; -1.2483476E-03;  0.0000000E+00; -2.9243625E-05;  1.0000107E+03;  4.0000001E-01;  8.8886366E+00;3; -1.4458331E+00;  0.0000000E+00; -2.7357008E-02;0; -1.3597764E-02;  1.0000224E+04;  0.0000000E+00;  1.1806704E-11;  1.0000000E+04;  0.0000000E+00;  9.9999932E+03; -1.4111175E-02;  0.0000000E+00;  5.1341136E-04;  3.7319458E+00;
  2.3999925E-01;  9.9999998E-03; -8.0000013E-02;1412; -1.2429720E-03;  0.0000000E+00; -2.0442061E-05;  1.0000108E+03;  4.0000001E-01;  8.9873991E+00;3; -1.4333473E+00;  0.0000000E+00; -1.8048262E-02;0; -1.3578315E-02;  1.0000223E+04;  0.0000000E+00; -3.7106841E-12;  1.0000000E+04;  0.0000000E+00;  9.9999941E+03; -1.3989951E-02;  0.0000000E+00;  4.1163634E-04;  3.2104506E+00;
  2.3999925E-01;  9.9999998E-03; -6.0000010E-02;1413; -1.2382197E-03;  0.0000000E+00; -1.3675589E-05;  1.0000108E+03;  4.0000001E-01;  8.9873991E+00;3; -1.4228863E+00;  0.0000000E+00; -1.1346950E-02;0; -1.3557228E-02;  1.0000221E+04;  0.0000000E+00; -3.9432429E-12;  1.0000000E+04;  0.0000000E+00;  9.9999951E+03; -1.3889947E-02;  0.0000000E+00;  3.3271892E-04;  2.8157029E+00;
  2.3999925E-01;  9.9999998E-03; -4.0000007E-02;1414; -1.2345802E-03;  0.0000000E+00; -8.3293071E-06;  1.0000108E+03;  4.0000001E-01;  8.9873991E+00;3; -1.4150938E+00;  0.0000000E+00; -6.4976574E-03;0; -1.3539436E-02;  1.0000222E+04;  0.0000000E+00; -2.1915568E-11;  1.0000000E+04;  0.0000000E+00;  9.9999951E+03; -1.3816076E-02;  0.0000000E+00;  2.7664003E-04;  2.5405693E+00;
  2.3999925E-01;  9.9999998E-03; -2.0000003E-02;1415; -1.2323092E-03;  0.0000000E+00; -3.9380702E-06;  1.0000108E+03;  4.0000001E-01;  8.9873991E+00;3; -1.4103049E+00;  0.0000000E+00; -2.9532237E-03;0; -1.3527796E-02;  1.0000222E+04;  0.0000000E+00; -6.3026862E-12;  1.0000000E+04;  0.0000000E+00;  9.9999971E+03; -1.3770984E-02;  0.0000000E+00;  2.4318761E-04;  2.3786731E+00;
  2.5999904E-01;  9.9999998E-03; -1.8000007E-01;1438; -1.5965678E-03;  0.0000000E+00; -1.1490680E-04;  1.0000135E+03;  4.0000001E-01;  1.1160175E+01;3; -1.8383503E+00;  0.0000000E+00; -1.2025202E-01;0; -1.6666384E-02;  1.0000293E+04;  0.0000000E+00; -4.3014584E-06;  1.0000000E+04;  0.0000000E+00;  9.9999766E+03; -1.8331852E-02;  0.0000000E+00;  1.6654670E-03;  1.0496485E+01;
  2.5999904E-01;  9.9999998E-03; -1.6000006E-01;1439; -1.5984023E-03;  0.0000000E+00; -8.8568690E-05;  1.0000137E+03;  4.0000001E-01;  1.1357701E+01;3; -1.8275545E+00;  0.0000000E+00; -9.0938762E-02;0; -1.6829880E-02;  1.0000292E+04;  0.0000000E+00; -3.9306616E-10;  1.0000000E+04;  0.0000000E+00;  9.9999814E+03; -1.8153738E-02;  0.0000000E+00;  1.3238575E-03;  8.5311422E+00;
  2.5999904E-01;  9.9999998E-03; -1.4000005E-01;1440; -1.5937884E-03;  0.0000000E+00; -6.6854576E-05;  1.0000138E+03;  4.0000001E-01;  1.1456464E+01;3; -1.8104663E+00;  0.0000000E+00; -6.6621654E-02;0; -1.6901925E-02;  1.0000292E+04;  0.0000000E+00;  3.8824196E-12;  1.0000000E+04;  0.0000000E+00;  9.9999844E+03; -1.7947335E-02;  0.0000000E+00;  1.0454090E-03;  6.9614782E+00;
  2.5999904E-01;  9.9999998E-03; -1.2000003E-01;1441; -1.5859244E-03;  0.0000000E+00; -4.8788563E-05;  1.0000139E+03;  4.0000001E-01;  1.1456464E+01;3; -1.7907151E+00;  0.0000000E+00; -4.6419419E-02;0; -1.6908418E-02;  1.0000289E+04;  0.0000000E+00;  6.3457947E-11;  1.0000000E+04;  0.0000000E+00;  9.9999893E+03; -1.7733857E-02;  0.0000000E+00;  8.2543842E-04;  5.7549233E+00;
  2.5999904E-01;  9.9999998E-03; -1.0000002E-01;1442; -1.5768192E-03;  0.0000000E+00; -3.4782941E-05;  1.0000139E+03;  4.0000001E-01;  1.1456464E+01;3; -1.7708371E+00;  0.0000000E+00; -3.1115929E-02;0; -1.6882274E-02;  1.0000288E+04;  0.0000000E+00;  4.8819900E-11;  1.0000000E+04;  0.0000000E+00;  9.9999902E+03; -1.7531725E-02;  0.0000000E+00;  6.4945017E-04;  4.8194389E+00;
  2.5999904E-01;  9.9999998E-03; -8.0000021E-02;1443; -1.5681126E-03;  0.0000000E+00; -2.3861909E-05;  1.0000139E+03;  4.0000001E-01;  1.1456464E+01;3; -1.7528989E+00;  0.0000000E+00; -1.9744335E-02;0; -1.6844181E-02;  1.0000286E+04;  0.0000000E+00;  9.4084835E-12;  1.0000000E+04;  0.0000000E+00;  9.9999922E+03; -1.7354563E-02;  0.0000000E+00;  5.1038183E-04;  4.1020689E+00;
  2.5999904E-01;  9.9999998E-03; -6.0000014E-02;1444; -1.5606814E-03;  0.0000000E+00; -1.5687194E-05;  1.0000139E+03;  4.0000001E-01;  1.1555226E+01;3; -1.7380362E+00;  0.0000000E+00; -1.1849725E-02;0; -1.6806170E-02;  1.0000286E+04;  0.0000000E+00; -1.9634913E-11;  1.0000000E+04;  0.0000000E+00;  9.9999941E+03; -1.7211253E-02;  0.0000000E+00;  4.0508341E-04;  3.5729823E+00;
  2.5999904E-01;  9.9999998E-03; -4.0000007E-02;1445; -1.5551127E-03;  0.0000000E+00; -9.4025190E-06;  1.0000139E+03;  4.0000001E-01;  1.1555226E+01;3; -1.7270553E+00;  0.0000000E+00; -6.4603202E-03;0; -1.6775252E-02;  1.0000284E+04;  0.0000000E+00; -2.0227937E-11;  1.0000000E+04;  0.0000000E+00;  9.9999951E+03; -1.7106829E-02;  0.0000000E+00;  3.3157723E-04;  3.2114134E+00;
  2.5999904E-01;  9.9999998E-03; -2.0000003E-02;1446; -1.5516805E-03;  0.0000000E+00; -4.4071130E-06;  1.0000139E+03;  4.0000001E-01;  1.1555226E+01;3; -1.7203417E+00;  0.0000000E+00; -2.8411569E-03;0; -1.6755382E-02;  1.0000284E+04;  0.0000000E+00; -2.1590217E-13;  1.0000000E+04;  0.0000000E+00;  9.9999951E+03; -1.7043626E-02;  0.0000000E+00;  2.8824370E-04;  3.0014834E+00;
  2.7999875E-01;  9.9999998E-03; -1.8000010E-01;1469; -2.0255905E-03;  0.0000000E+00; -1.4617461E-04;  1.0000172E+03;  4.0000001E-01;  1.4221817E+01;3; -2.2631607E+00;  0.0000000E+00; -1.5195632E-01;0; -2.0654378E-02;  1.0000377E+04;  0.0000000E+00; -6.5199652E-07;  1.0000000E+04;  0.0000000E+00;  9.9999668E+03; -2.2903714E-02;  0.0000000E+00;  2.2493352E-03;  1.4347164E+01;
  2.7999872E-01;  9.9999998E-03; -1.6000007E-01;1470; -2.0217800E-03;  0.0000000E+00; -1.1017970E-04;  1.0000175E+03;  4.0000001E-01;  1.4518105E+01;3; -2.2424293E+00;  0.0000000E+00; -1.1169241E-01;0; -2.0850036E-02;  1.0000375E+04;  0.0000000E+00; -3.0805666E-10;  1.0000000E+04;  0.0000000E+00;  9.9999736E+03; -2.2608072E-02;  0.0000000E+00;  1.7580359E-03;  1.1454014E+01;
  2.7999872E-01;  9.9999998E-03; -1.4000006E-01;1471; -2.0109476E-03;  0.0000000E+00; -8.1561455E-05;  1.0000176E+03;  4.0000001E-01;  1.4518105E+01;3; -2.2153671E+00;  0.0000000E+00; -7.9676010E-02;0; -2.0925861E-02;  1.0000371E+04;  0.0000000E+00; -2.6754942E-11;  1.0000000E+04;  0.0000000E+00;  9.9999814E+03; -2.2286600E-02;  0.0000000E+00;  1.3607390E-03;  9.1746120E+00;
  2.7999872E-01;  9.9999998E-03; -1.2000004E-01;1472; -1.9969752E-03;  0.0000000E+00; -5.8338363E-05;  1.0000176E+03;  4.0000001E-01;  1.4518105E+01;3; -2.1861522E+00;  0.0000000E+00; -5.3683762E-02;0; -2.0915315E-02;  1.0000367E+04;  0.0000000E+00;  6.0850221E-11;  1.0000000E+04;  0.0000000E+00;  9.9999834E+03; -2.1967782E-02;  0.0000000E+00;  1.0524666E-03;  7.4617319E+00;
  2.7999875E-01;  9.9999998E-03; -1.0000003E-01;1473; -1.9822770E-03;  0.0000000E+00; -4.0782201E-05;  1.0000176E+03;  4.0000001E-01;  1.4518105E+01;3; -2.1576746E+00;  0.0000000E+00; -3.4539361E-02;0; -2.0862529E-02;  1.0000365E+04;  0.0000000E+00;  8.5232585E-12;  1.0000000E+04;  0.0000000E+00;  9.9999893E+03; -2.1674633E-02;  0.0000000E+00;  8.1210362E-04;  6.1716132E+00;
  2.7999875E-01;  9.9999998E-03; -8.0000021E-02;1474; -1.9688362E-03;  0.0000000E+00; -2.7430982E-05;  1.0000175E+03;  4.0000001E-01;  1.4518105E+01;3; -2.1324165E+00;  0.0000000E+00; -2.0704461E-02;0; -2.0796068E-02;  1.0000363E+04;  0.0000000E+00; -3.7410046E-13;  1.0000000E+04;  0.0000000E+00;  9.9999912E+03; -2.1423230E-02;  0.0000000E+00;  6.2716135E-04;  5.2107430E+00;
  2.7999875E-01;  9.9999998E-03; -6.0000014E-02;1475; -1.9576710E-03;  0.0000000E+00; -1.7744578E-05;  1.0000175E+03;  4.0000001E-01;  1.4518105E+01;3; -2.1117513E+00;  0.0000000E+00; -1.1729970E-02;0; -2.0732787E-02;  1.0000360E+04;  0.0000000E+00; -2.1383338E-11;  1.0000000E+04;  0.0000000E+00;  9.9999922E+03; -2.1223228E-02;  0.0000000E+00;  4.9044163E-04;  4.5202961E+00;
  2.7999875E-01;  9.9999998E-03; -4.0000010E-02;1476; -1.9494363E-03;  0.0000000E+00; -1.0461667E-05;  1.0000175E+03;  4.0000001E-01;  1.4518105E+01;3; -2.0965638E+00;  0.0000000E+00; -5.9232716E-03;0; -2.0682413E-02;  1.0000359E+04;  0.0000000E+00; -2.4995863E-11;  1.0000000E+04;  0.0000000E+00;  9.9999932E+03; -2.1079237E-02;  0.0000000E+00;  3.9682389E-04;  4.0583110E+00;
  2.7999875E-01;  9.9999998E-03; -2.0000005E-02;1477; -1.9444111E-03;  0.0000000E+00; -4.8568850E-06;  1.0000175E+03;  4.0000001E-01;  1.4518105E+01;3; -2.0873208E+00;  0.0000000E+00; -2.4435897E-03;0; -2.0650405E-02;  1.0000358E+04;  0.0000000E+00; -1.3526515E-11;  1.0000000E+04;  0.0000000E+00;  9.9999941E+03; -2.0992780E-02;  0.0000000E+00;  3.4237446E-04;  3.7940636E+00;
  2.9999834E-01;  9.9999998E-03; -1.8000013E-01;1500; -2.5589792E-03;  0.0000000E+00; -1.8308259E-04;  1.0000218E+03;  4.0000001E-01;  1.8073557E+01;3; -2.7724986E+00;  0.0000000E+00; -1.8820056E-01;0; -2.5506757E-02;  1.0000481E+04;  0.0000000E+00; -2.0685922E-09;  1.0000000E+04;  0.0000000E+00;  9.9999551E+03; -2.8464453E-02;  0.0000000E+00;  2.9576963E-03;  1.9177288E+01;
  2.9999834E-01;  9.9999998E-03; -1.6000009E-01;1501; -2.5462520E-03;  0.0000000E+00; -1.3525937E-04;  1.0000220E+03;  4.0000001E-01;  1.8271082E+01;3; -2.7379937E+00;  0.0000000E+00; -1.3485622E-01;0; -2.5728891E-02;  1.0000478E+04;  0.0000000E+00; -6.5721467E-10;  1.0000000E+04;  0.0000000E+00;  9.9999658E+03; -2.8010450E-02;  0.0000000E+00;  2.2815603E-03;  1.5095353E+01;
  2.9999834E-01;  9.9999998E-03; -1.4000008E-01;1502; -2.5260111E-03;  0.0000000E+00; -9.8116885E-05;  1.0000223E+03;  4.0000001E-01;  1.8468607E+01;3; -2.6972520E+00;  0.0000000E+00; -9.3549900E-02;0; -2.5797341E-02;  1.0000472E+04;  0.0000000E+00;  3.7158686E-11;  1.0000000E+04;  0.0000000E+00;  9.9999746E+03; -2.7534418E-02;  0.0000000E+00;  1.7370764E-03;  1.1911356E+01;
  2.9999837E-01;  9.9999998E-03; -1.2000005E-01;1503; -2.5030943E-03;  0.0000000E+00; -6.8842950E-05;  1.0000223E+03;  4.0000001E-01;  1.8468607E+01;3; -2.6552474E+00;  0.0000000E+00; -6.0840767E-02;0; -2.5754688E-02;  1.0000468E+04;  0.0000000E+00;  5.6364420E-11;  1.0000000E+04;  0.0000000E+00;  9.9999814E+03; -2.7075181E-02;  0.0000000E+00;  1.3204926E-03;  9.5636730E+00;
  2.9999837E-01;  9.9999998E-03; -1.0000004E-01;1504; -2.4804245E-03;  0.0000000E+00; -4.7191195E-05;  1.0000225E+03;  4.0000001E-01;  1.8567369E+01;3; -2.6152651E+00;  0.0000000E+00; -3.7251890E-02;0; -2.5659382E-02;  1.0000464E+04;  0.0000000E+00;  4.0782616E-12;  1.0000000E+04;  0.0000000E+00;  9.9999844E+03; -2.6662244E-02;  0.0000000E+00;  1.0028603E-03;  7.8399415E+00;
  2.9999837E-01;  9.9999998E-03; -8.0000028E-02;1505; -2.4603631E-03;  0.0000000E+00; -3.1176827E-05;  1.0000223E+03;  4.0000001E-01;  1.8468607E+01;3; -2.5803401E+00;  0.0000000E+00; -2.0806668E-02;0; -2.5549974E-02;  1.0000460E+04;  0.0000000E+00;  2.8617057E-11;  1.0000000E+04;  0.0000000E+00;  9.9999883E+03; -2.6314566E-02;  0.0000000E+00;  7.6459209E-04;  6.5909929E+00;
  2.9999837E-01;  9.9999998E-03; -6.0000017E-02;1506; -2.4440729E-03;  0.0000000E+00; -1.9860001E-05;  1.0000223E+03;  4.0000001E-01;  1.8468607E+01;3; -2.5520759E+00;  0.0000000E+00; -1.0778018E-02;0; -2.5449352E-02;  1.0000456E+04;  0.0000000E+00; -8.6000729E-12;  1.0000000E+04;  0.0000000E+00;  9.9999912E+03; -2.6042087E-02;  0.0000000E+00;  5.9273420E-04;  5.7168746E+00;
  2.9999837E-01;  9.9999998E-03; -4.0000010E-02;1507; -2.4322113E-03;  0.0000000E+00; -1.1557746E-05;  1.0000222E+03;  4.0000001E-01;  1.8369844E+01;3; -2.5314186E+00;  0.0000000E+00; -4.7803055E-03;0; -2.5370656E-02;  1.0000452E+04;  0.0000000E+00; -3.0522952E-11;  1.0000000E+04;  0.0000000E+00;  9.9999912E+03; -2.5848184E-02;  0.0000000E+00;  4.7752744E-04;  5.1450787E+00;
  2.9999837E-01;  9.9999998E-03; -2.0000005E-02;1508; -2.4250404E-03;  0.0000000E+00; -5.3141671E-06;  1.0000222E+03;  4.0000001E-01;  1.8369844E+01;3; -2.5188978E+00;  0.0000000E+00; -1.7143183E-03;0; -2.5321113E-02;  1.0000452E+04;  0.0000000E+00;  1.0153600E-11;  1.0000000E+04;  0.0000000E+00;  9.9999932E+03; -2.5732676E-02;  0.0000000E+00;  4.1156204E-04;  4.8234739E+00;
  3.1999788E-01;  9.9999998E-03; -1.8000016E-01;1531; -3.2197530E-03;  0.0000000E+00; -2.2558037E-04;  1.0000276E+03;  4.0000001E-01;  2.2912924E+01;3; -3.3803499E+00;  0.0000000E+00; -2.2924751E-01;0; -3.1396396E-02;  1.0000613E+04;  0.0000000E+00; -2.6651794E-09;  1.0000000E+04;  0.0000000E+00;  9.9999424E+03; -3.5191260E-02;  0.0000000E+00;  3.7948631E-03;  2.5115505E+01;
  3.1999788E-01;  9.9999998E-03; -1.6000012E-01;1532; -3.1934706E-03;  0.0000000E+00; -1.6333070E-04;  1.0000279E+03;  4.0000001E-01;  2.3110449E+01;3; -3.3269639E+00;  0.0000000E+00; -1.5987490E-01;0; -3.1629335E-02;  1.0000605E+04;  0.0000000E+00; -6.7611494E-10;  1.0000000E+04;  0.0000000E+00;  9.9999551E+03; -3.4523841E-02;  0.0000000E+00;  2.8945045E-03;  1.9540424E+01;
  3.1999788E-01;  9.9999998E-03; -1.4000009E-01;1533; -3.1595319E-03;  0.0000000E+00; -1.1612913E-04;  1.0000282E+03;  4.0000001E-01;  2.3406736E+01;3; -3.2676270E+00;  0.0000000E+00; -1.0701697E-01;0; -3.1668339E-02;  1.0000598E+04;  0.0000000E+00;  4.9062338E-11;  1.0000000E+04;  0.0000000E+00;  9.9999668E+03; -3.3841960E-02;  0.0000000E+00;  2.1736219E-03;  1.5240675E+01;
  3.1999788E-01;  9.9999998E-03; -1.2000006E-01;1534; -3.1238948E-03;  0.0000000E+00; -8.0211328E-05;  1.0000282E+03;  4.0000001E-01;  2.3406736E+01;3; -3.2084782E+00;  0.0000000E+00; -6.6918708E-02;0; -3.1568598E-02;  1.0000589E+04;  0.0000000E+00;  9.7376352E-12;  1.0000000E+04;  0.0000000E+00;  9.9999756E+03; -3.3198491E-02;  0.0000000E+00;  1.6298933E-03;  1.2129121E+01;
  3.1999791E-01;  9.9999998E-03; -1.0000005E-01;1535; -3.0901663E-03;  0.0000000E+00; -5.4164295E-05;  1.0000281E+03;  4.0000001E-01;  2.3307974E+01;3; -3.1534564E+00;  0.0000000E+00; -3.9002273E-02;0; -3.1406589E-02;  1.0000583E+04;  0.0000000E+00; -2.3459824E-11;  1.0000000E+04;  0.0000000E+00;  9.9999814E+03; -3.2630991E-02;  0.0000000E+00;  1.2244008E-03;  9.8995781E+00;
  3.1999791E-01;  9.9999998E-03; -8.0000035E-02;1536; -3.0610440E-03;  0.0000000E+00; -3.5344910E-05;  1.0000281E+03;  4.0000001E-01;  2.3307974E+01;3; -3.1058888E+00;  0.0000000E+00; -1.9952772E-02;0; -3.1233218E-02;  1.0000578E+04;  0.0000000E+00; -7.0284410E-11;  1.0000000E+04;  0.0000000E+00;  9.9999844E+03; -3.2161292E-02;  0.0000000E+00;  9.2807430E-04;  8.3272371E+00;
  3.1999791E-01;  9.9999998E-03; -6.0000021E-02;1537; -3.0378420E-03;  0.0000000E+00; -2.2272188E-05;  1.0000280E+03;  4.0000001E-01;  2.3209211E+01;3; -3.0677664E+00;  0.0000000E+00; -8.8749109E-03;0; -3.1078478E-02;  1.0000575E+04;  0.0000000E+00; -4.2763258E-11;  1.0000000E+04;  0.0000000E+00;  9.9999873E+03; -3.1798456E-02;  0.0000000E+00;  7.1997778E-04;  7.2561641E+00;
  3.1999794E-01;  9.9999998E-03; -4.0000014E-02;1538; -3.0211611E-03;  0.0000000E+00; -1.2906987E-05;  1.0000280E+03;  4.0000001E-01;  2.3110449E+01;3; -3.0401130E+00;  0.0000000E+00; -3.0737373E-03;0; -3.0959392E-02;  1.0000572E+04;  0.0000000E+00; -1.1308884E-11;  1.0000000E+04;  0.0000000E+00;  9.9999893E+03; -3.1543214E-02;  0.0000000E+00;  5.8382202E-04;  6.5724306E+00;
  3.1999794E-01;  9.9999998E-03; -2.0000007E-02;1539; -3.0111570E-03;  0.0000000E+00; -5.9090785E-06;  1.0000279E+03;  4.0000001E-01;  2.3110449E+01;3; -3.0233984E+00;  0.0000000E+00; -6.9645495E-04;0; -3.0885125E-02;  1.0000570E+04;  0.0000000E+00;  1.3054635E-11;  1.0000000E+04;  0.0000000E+00;  9.9999902E+03; -3.1392440E-02;  0.0000000E+00;  5.0731527E-04;  6.1951008E+00;
  3.3999723E-01;  9.9999998E-03; -1.8000019E-01;1562; -4.0350799E-03;  0.0000000E+00; -2.7296561E-04;  1.0000350E+03;  4.0000001E-01;  2.9036203E+01;3; -4.1016846E+00;  0.0000000E+00; -2.7277038E-01;0; -3.8522251E-02;  1.0000775E+04;  0.0000000E+00; -3.1301941E-09;  1.0000000E+04;  0.0000000E+00;  9.9999258E+03; -4.3285526E-02;  0.0000000E+00;  4.7632735E-03;  3.2304821E+01;
  3.3999726E-01;  9.9999998E-03; -1.6000015E-01;1563; -3.9891414E-03;  0.0000000E+00; -1.9461031E-04;  1.0000354E+03;  4.0000001E-01;  2.9332491E+01;3; -4.0232668E+00;  0.0000000E+00; -1.8582383E-01;0; -3.8734645E-02;  1.0000765E+04;  0.0000000E+00; -4.4810261E-10;  1.0000000E+04;  0.0000000E+00;  9.9999443E+03; -4.2330001E-02;  0.0000000E+00;  3.5953554E-03;  2.4893261E+01;
  3.3999726E-01;  9.9999998E-03; -1.4000010E-01;1564; -3.9359140E-03;  0.0000000E+00; -1.3600707E-04;  1.0000356E+03;  4.0000001E-01;  2.9431253E+01;3; -3.9394090E+00;  0.0000000E+00; -1.2020930E-01;0; -3.8707059E-02;  1.0000753E+04;  0.0000000E+00;  4.6657109E-11;  1.0000000E+04;  0.0000000E+00;  9.9999580E+03; -4.1376427E-02;  0.0000000E+00;  2.6693689E-03;  1.9259438E+01;
  3.3999729E-01;  9.9999998E-03; -1.2000008E-01;1565; -3.8826643E-03;  0.0000000E+00; -9.3027149E-05;  1.0000356E+03;  4.0000001E-01;  2.9431253E+01;3; -3.8576589E+00;  0.0000000E+00; -7.1917735E-02;0; -3.8512044E-02;  1.0000742E+04;  0.0000000E+00; -6.0645960E-11;  1.0000000E+04;  0.0000000E+00;  9.9999688E+03; -4.0495090E-02;  0.0000000E+00;  1.9830465E-03;  1.5265751E+01;
  3.3999732E-01;  9.9999998E-03; -1.0000005E-01;1566; -3.8339677E-03;  0.0000000E+00; -6.2391686E-05;  1.0000355E+03;  4.0000001E-01;  2.9332491E+01;3; -3.7831223E+00;  0.0000000E+00; -3.9901778E-02;0; -3.8248617E-02;  1.0000732E+04;  0.0000000E+00; -1.8141974E-10;  1.0000000E+04;  0.0000000E+00;  9.9999756E+03; -3.9732244E-02;  0.0000000E+00;  1.4836267E-03;  1.2474134E+01;
  3.3999732E-01;  9.9999998E-03; -8.0000043E-02;1567; -3.7927658E-03;  0.0000000E+00; -4.0699084E-05;  1.0000354E+03;  4.0000001E-01;  2.9332491E+01;3; -3.7192845E+00;  0.0000000E+00; -1.8435473E-02;0; -3.7982300E-02;  1.0000726E+04;  0.0000000E+00; -7.2837680E-11;  1.0000000E+04;  0.0000000E+00;  9.9999814E+03; -3.9111391E-02;  0.0000000E+00;  1.1290915E-03;  1.0557940E+01;
  3.3999735E-01;  9.9999998E-03; -6.0000028E-02;1568; -3.7604843E-03;  0.0000000E+00; -2.5715686E-05;  1.0000353E+03;  4.0000001E-01;  2.9233728E+01;3; -3.6685848E+00;  0.0000000E+00; -6.5513602E-03;0; -3.7751202E-02;  1.0000719E+04;  0.0000000E+00; -4.9646412E-11;  1.0000000E+04;  0.0000000E+00;  9.9999844E+03; -3.8638845E-02;  0.0000000E+00;  8.8764192E-04;  9.2883701E+00;
  3.3999735E-01;  9.9999998E-03; -4.0000018E-02;1569; -3.7375409E-03;  0.0000000E+00; -1.5045296E-05;  1.0000351E+03;  4.0000001E-01;  2.9036203E+01;3; -3.6320682E+00;  0.0000000E+00; -1.1481534E-03;0; -3.7576187E-02;  1.0000715E+04;  0.0000000E+00; -5.3031649E-11;  1.0000000E+04;  0.0000000E+00;  9.9999863E+03; -3.8310397E-02;  0.0000000E+00;  7.3421001E-04;  8.4988060E+00;
  3.3999735E-01;  9.9999998E-03; -2.0000009E-02;1570; -3.7238819E-03;  0.0000000E+00; -6.9292587E-06;  1.0000351E+03;  4.0000001E-01;  2.9036203E+01;3; -3.6100667E+00;  0.0000000E+00;  4.1277058E-04;0; -3.7468009E-02;  1.0000714E+04;  0.0000000E+00; -2.8154800E-11;  1.0000000E+04;  0.0000000E+00;  9.9999873E+03; -3.8118027E-02;  0.0000000E+00;  6.5002014E-04;  8.0722027E+00;
  3.5999644E-01;  9.9999998E-03; -1.8000023E-01;1593; -5.0359168E-03;  0.0000000E+00; -3.2556223E-04;  1.0000442E+03;  4.0000001E-01;  3.6640919E+01;3; -4.9528980E+00;  0.0000000E+00; -3.1803897E-01;0; -4.7105845E-02;  1.0000979E+04;  0.0000000E+00; -3.9677102E-09;  1.0000000E+04;  0.0000000E+00;  9.9999063E+03; -5.2968659E-02;  0.0000000E+00;  5.8628134E-03;  4.0914124E+01;
  3.5999647E-01;  9.9999998E-03; -1.6000018E-01;1594; -4.9622934E-03;  0.0000000E+00; -2.2984162E-04;  1.0000444E+03;  4.0000001E-01;  3.6739681E+01;3; -4.8416824E+00;  0.0000000E+00; -2.1181765E-01;0; -4.7244720E-02;  1.0000961E+04;  0.0000000E+00; -1.9598619E-10;  1.0000000E+04;  0.0000000E+00;  9.9999297E+03; -5.1627040E-02;  0.0000000E+00;  4.3823193E-03;  3.1301771E+01;
  3.5999650E-01;  9.9999998E-03; -1.4000012E-01;1595; -4.8826844E-03;  0.0000000E+00; -1.5902563E-04;  1.0000446E+03;  4.0000001E-01;  3.6937206E+01;3; -4.7262235E+00;  0.0000000E+00; -1.3325837E-01;0; -4.7093775E-02;  1.0000943E+04;  0.0000000E+00; -1.5232021E-10;  1.0000000E+04;  0.0000000E+00;  9.9999473E+03; -5.0320178E-02;  0.0000000E+00;  3.2264031E-03;  2.4128561E+01;
  3.5999656E-01;  9.9999998E-03; -1.2000009E-01;1596; -4.8057078E-03;  0.0000000E+00; -1.0893922E-04;  1.0000444E+03;  4.0000001E-01;  3.6838444E+01;3; -4.6153359E+00;  0.0000000E+00; -7.7139109E-02;0; -4.6748679E-02;  1.0000929E+04;  0.0000000E+00; -2.2852152E-11;  1.0000000E+04;  0.0000000E+00;  9.9999609E+03; -4.9137626E-02;  0.0000000E+00;  2.3889460E-03;  1.9161566E+01;
  3.5999656E-01;  9.9999998E-03; -1.0000007E-01;1597; -4.7372985E-03;  0.0000000E+00; -7.3582225E-05;  1.0000442E+03;  4.0000001E-01;  3.6640919E+01;3; -4.5157404E+00;  0.0000000E+00; -4.0784169E-02;0; -4.6336468E-02;  1.0000916E+04;  0.0000000E+00; -2.4943683E-10;  1.0000000E+04;  0.0000000E+00;  9.9999697E+03; -4.8133351E-02;  0.0000000E+00;  1.7968825E-03;  1.5776340E+01;
  3.5999659E-01;  9.9999998E-03; -8.0000050E-02;1598; -4.6804552E-03;  0.0000000E+00; -4.8969352E-05;  1.0000441E+03;  4.0000001E-01;  3.6542156E+01;3; -4.4314008E+00;  0.0000000E+00; -1.7497528E-02;0; -4.5939524E-02;  1.0000905E+04;  0.0000000E+00; -9.0918897E-11;  1.0000000E+04;  0.0000000E+00;  9.9999756E+03; -4.7329962E-02;  0.0000000E+00;  1.3904403E-03;  1.3512705E+01;
  3.5999662E-01;  9.9999998E-03; -6.0000036E-02;1599; -4.6365871E-03;  0.0000000E+00; -3.1664167E-05;  1.0000439E+03;  4.0000001E-01;  3.6443390E+01;3; -4.3649540E+00;  0.0000000E+00; -4.9643400E-03;0; -4.5604110E-02;  1.0000898E+04;  0.0000000E+00; -1.1889440E-11;  1.0000000E+04;  0.0000000E+00;  9.9999785E+03; -4.6727721E-02;  0.0000000E+00;  1.1236100E-03;  1.2052720E+01;
  3.5999662E-01;  9.9999998E-03; -4.0000021E-02;1600; -4.6057324E-03;  0.0000000E+00; -1.9038016E-05;  1.0000438E+03;  4.0000001E-01;  3.6344627E+01;3; -4.3173966E+00;  0.0000000E+00;  1.3166260E-04;0; -4.5354243E-02;  1.0000895E+04;  0.0000000E+00;  7.6888468E-11;  1.0000000E+04;  0.0000000E+00;  9.9999814E+03; -4.6314422E-02;  0.0000000E+00;  9.6017733E-04;  1.1168269E+01;
  3.5999665E-01;  9.9999998E-03; -2.0000011E-02;1601; -4.5875045E-03;  0.0000000E+00; -8.9333598E-06;  1.0000438E+03;  4.0000001E-01;  3.6245865E+01;3; -4.2888737E+00;  0.0000000E+00;  1.1413445E-03;0; -4.5201279E-02;  1.0000892E+04;  0.0000000E+00; -4.3690329E-11;  1.0000000E+04;  0.0000000E+00;  9.9999824E+03; -4.6074566E-02;  0.0000000E+00;  8.7328797E-04;  1.0700925E+01;
  3.7999547E-01;  9.9999998E-03; -1.8000029E-01;1624; -6.2559485E-03;  0.0000000E+00; -3.8438945E-04;  1.0000555E+03;  4.0000001E-01;  4.5924591E+01;3; -5.9498329E+00;  0.0000000E+00; -3.6094829E-01;0; -5.7386026E-02;  1.0001225E+04;  0.0000000E+00; -3.7882351E-09;  1.0000000E+04;  0.0000000E+00;  9.9998838E+03; -6.4475909E-02;  0.0000000E+00;  7.0898826E-03;  5.1166466E+01;
  3.7999550E-01;  9.9999998E-03; -1.6000022E-01;1625; -6.1443066E-03;  0.0000000E+00; -2.7192943E-04;  1.0000557E+03;  4.0000001E-01;  4.6122116E+01;3; -5.7972279E+00;  0.0000000E+00; -2.4018131E-01;0; -5.7369556E-02;  1.0001200E+04;  0.0000000E+00; -3.3536435E-10;  1.0000000E+04;  0.0000000E+00;  9.9999141E+03; -6.2626243E-02;  0.0000000E+00;  5.2566864E-03;  3.9008926E+01;
  3.7999555E-01;  9.9999998E-03; -1.4000016E-01;1626; -6.0292729E-03;  0.0000000E+00; -1.8862871E-04;  1.0000557E+03;  4.0000001E-01;  4.6122116E+01;3; -5.6415687E+00;  0.0000000E+00; -1.4759541E-01;0; -5.7013590E-02;  1.0001178E+04;  0.0000000E+00; -2.4590446E-10;  1.0000000E+04;  0.0000000E+00;  9.9999355E+03; -6.0869876E-02;  0.0000000E+00;  3.8562850E-03;  3.0137117E+01;
  3.7999561E-01;  9.9999998E-03; -1.2000012E-01;1627; -5.9211119E-03;  0.0000000E+00; -1.3169082E-04;  1.0000554E+03;  4.0000001E-01;  4.5825829E+01;3; -5.4936919E+00;  0.0000000E+00; -8.5014753E-02;0; -5.6443874E-02;  1.0001156E+04;  0.0000000E+00; -7.2719386E-10;  1.0000000E+04;  0.0000000E+00;  9.9999512E+03; -5.9314888E-02;  0.0000000E+00;  2.8710139E-03;  2.4150820E+01;
  3.7999564E-01;  9.9999998E-03; -1.0000009E-01;1628; -5.8273324E-03;  0.0000000E+00; -9.1410722E-05;  1.0000551E+03;  4.0000001E-01;  4.5628304E+01;3; -5.3627129E+00;  0.0000000E+00; -4.4385184E-02;0; -5.5821676E-02;  1.0001140E+04;  0.0000000E+00; -3.4101330E-10;  1.0000000E+04;  0.0000000E+00;  9.9999609E+03; -5.8019675E-02;  0.0000000E+00;  2.1979986E-03;  2.0168512E+01;
  3.7999567E-01;  9.9999998E-03; -8.0000065E-02;1629; -5.7507926E-03;  0.0000000E+00; -6.3424006E-05;  1.0000547E+03;  4.0000001E-01;  4.5332016E+01;3; -5.2529898E+00;  0.0000000E+00; -1.9878006E-02;0; -5.5247918E-02;  1.0001128E+04;  0.0000000E+00; -1.8402167E-10;  1.0000000E+04;  0.0000000E+00;  9.9999678E+03; -5.7001673E-02;  0.0000000E+00;  1.7537565E-03;  1.7563883E+01;
  3.7999570E-01;  9.9999998E-03; -6.0000047E-02;1630; -5.6925663E-03;  0.0000000E+00; -4.2832435E-05;  1.0000546E+03;  4.0000001E-01;  4.5233253E+01;3; -5.1672463E+00;  0.0000000E+00; -6.5103839E-03;0; -5.4775633E-02;  1.0001119E+04;  0.0000000E+00;  1.3866251E-10;  1.0000000E+04;  0.0000000E+00;  9.9999717E+03; -5.6250419E-02;  0.0000000E+00;  1.4747850E-03;  1.5919600E+01;
  3.7999570E-01;  9.9999998E-03; -4.0000033E-02;1631; -5.6520551E-03;  0.0000000E+00; -2.6773005E-05;  1.0000544E+03;  4.0000001E-01;  4.5134491E+01;3; -5.1062737E+00;  0.0000000E+00; -9.7749394E-04;0; -5.4429792E-02;  1.0001112E+04;  0.0000000E+00; -1.1143535E-10;  1.0000000E+04;  0.0000000E+00;  9.9999746E+03; -5.5741679E-02;  0.0000000E+00;  1.3118883E-03;  1.4944615E+01;
  3.7999573E-01;  9.9999998E-03; -2.0000016E-02;1632; -5.6282971E-03;  0.0000000E+00; -1.2916785E-05;  1.0000542E+03;  4.0000001E-01;  4.4936966E+01;3; -5.0698743E+00;  0.0000000E+00;  5.2355678E-04;0; -5.4220293E-02;  1.0001108E+04;  0.0000000E+00; -1.4746314E-11;  1.0000000E+04;  0.0000000E+00;  9.9999756E+03; -5.5449311E-02;  0.0000000E+00;  1.2290179E-03;  1.4439194E+01;
  3.9999419E-01;  9.9999998E-03; -1.8000036E-01;1655; -7.7318647E-03;  0.0000000E+00; -4.5546092E-04;  1.0000695E+03;  4.0000001E-01;  5.7578564E+01;3; -7.1111836E+00;  0.0000000E+00; -4.0811446E-01;0; -6.9606900E-02;  1.0001529E+04;  0.0000000E+00; -4.1847348E-09;  1.0000000E+04;  0.0000000E+00;  9.9998574E+03; -7.8047171E-02;  0.0000000E+00;  8.4402673E-03;  6.3416561E+01;
  3.9999428E-01;  9.9999998E-03; -1.6000026E-01;1656; -7.5683938E-03;  0.0000000E+00; -3.2612763E-04;  1.0000695E+03;  4.0000001E-01;  5.7578564E+01;3; -6.9050026E+00;  0.0000000E+00; -2.7142727E-01;0; -6.9315657E-02;  1.0001493E+04;  0.0000000E+00; -4.0440729E-10;  1.0000000E+04;  0.0000000E+00;  9.9998945E+03; -7.5546913E-02;  0.0000000E+00;  6.2312591E-03;  4.8452423E+01;
  3.9999437E-01;  9.9999998E-03; -1.4000021E-01;1657; -7.4060438E-03;  0.0000000E+00; -2.3172014E-04;  1.0000692E+03;  4.0000001E-01;  5.7282276E+01;3; -6.6978540E+00;  0.0000000E+00; -1.6770312E-01;0; -6.8643145E-02;  1.0001464E+04;  0.0000000E+00; -6.9031464E-10;  1.0000000E+04;  0.0000000E+00;  9.9999209E+03; -7.3234767E-02;  0.0000000E+00;  4.5916243E-03;  3.7807526E+01;
  3.9999443E-01;  9.9999998E-03; -1.2000016E-01;1658; -7.2577903E-03;  0.0000000E+00; -1.6777942E-04;  1.0000687E+03;  4.0000001E-01;  5.6887222E+01;3; -6.5039759E+00;  0.0000000E+00; -1.0002028E-01;0; -6.7753084E-02;  1.0001436E+04;  0.0000000E+00; -7.2054490E-10;  1.0000000E+04;  0.0000000E+00;  9.9999385E+03; -7.1232513E-02;  0.0000000E+00;  3.4794286E-03;  3.0810946E+01;
  3.9999449E-01;  9.9999998E-03; -1.0000012E-01;1659; -7.1320003E-03;  0.0000000E+00; -1.2256105E-04;  1.0000682E+03;  4.0000001E-01;  5.6492172E+01;3; -6.3343973E+00;  0.0000000E+00; -5.6815673E-02;0; -6.6847004E-02;  1.0001413E+04;  0.0000000E+00; -7.0582173E-10;  1.0000000E+04;  0.0000000E+00;  9.9999482E+03; -6.9596685E-02;  0.0000000E+00;  2.7496840E-03;  2.6243759E+01;
  3.9999455E-01;  9.9999998E-03; -8.0000095E-02;1660; -7.0312773E-03;  0.0000000E+00; -8.9610796E-05;  1.0000677E+03;  4.0000001E-01;  5.6097122E+01;3; -6.1938510E+00;  0.0000000E+00; -3.0479383E-02;0; -6.6044033E-02;  1.0001399E+04;  0.0000000E+00; -1.3766846E-10;  1.0000000E+04;  0.0000000E+00;  9.9999561E+03; -6.8333223E-02;  0.0000000E+00;  2.2891937E-03;  2.3290379E+01;
  3.9999458E-01;  9.9999998E-03; -6.0000069E-02;1661; -6.9557684E-03;  0.0000000E+00; -6.3700092E-05;  1.0000674E+03;  4.0000001E-01;  5.5899597E+01;3; -6.0850015E+00;  0.0000000E+00; -1.5527149E-02;0; -6.5400600E-02;  1.0001387E+04;  0.0000000E+00; -6.0985217E-11;  1.0000000E+04;  0.0000000E+00;  9.9999609E+03; -6.7415506E-02;  0.0000000E+00;  2.0149052E-03;  2.1438948E+01;
  3.9999458E-01;  9.9999998E-03; -4.0000044E-02;1662; -6.9038495E-03;  0.0000000E+00; -4.1366060E-05;  1.0000671E+03;  4.0000001E-01;  5.5603310E+01;3; -6.0081372E+00;  0.0000000E+00; -7.5925058E-03;0; -6.4938039E-02;  1.0001380E+04;  0.0000000E+00;  9.3859698E-11;  1.0000000E+04;  0.0000000E+00;  9.9999648E+03; -6.6802412E-02;  0.0000000E+00;  1.8643738E-03;  2.0347834E+01;
  3.9999461E-01;  9.9999998E-03; -2.0000022E-02;1663; -6.8736412E-03;  0.0000000E+00; -2.0455493E-05;  1.0000671E+03;  4.0000001E-01;  5.5603310E+01;3; -5.9624825E+00;  0.0000000E+00; -3.0080997E-03;0; -6.4661160E-02;  1.0001376E+04;  0.0000000E+00;  1.0104319E-10;  1.0000000E+04;  0.0000000E+00;  9.9999658E+03; -6.6453673E-02;  0.0000000E+00;  1.7925120E-03;  1.9785604E+01;
  4.1999266E-01;  9.9999998E-03; -1.8000045E-01;1686; -9.5035937E-03;  0.0000000E+00; -5.5000698E-04;  1.0000863E+03;  4.0000001E-01;  7.1504059E+01;3; -8.4530592E+00;  0.0000000E+00; -4.6561298E-01;0; -8.3984874E-02;  1.0001899E+04;  0.0000000E+00; -1.4301561E-09;  1.0000000E+04;  0.0000000E+00;  9.9998262E+03; -9.3906984E-02;  0.0000000E+00;  9.9221105E-03;  7.8322678E+01;
  4.1999277E-01;  9.9999998E-03; -1.6000035E-01;1687; -9.2699444E-03;  0.0000000E+00; -4.0488882E-04;  1.0000861E+03;  4.0000001E-01;  7.1306534E+01;3; -8.1775236E+00;  0.0000000E+00; -3.1417498E-01;0; -8.3254218E-02;  1.0001851E+04;  0.0000000E+00;  1.0450797E-09;  1.0000000E+04;  0.0000000E+00;  9.9998701E+03; -9.0602078E-02;  0.0000000E+00;  7.3478576E-03;  6.0434799E+01;
  4.1999289E-01;  9.9999998E-03; -1.4000027E-01;1688; -9.0457369E-03;  0.0000000E+00; -3.0087799E-04;  1.0000856E+03;  4.0000001E-01;  7.0911484E+01;3; -7.9062247E+00;  0.0000000E+00; -2.0307109E-01;0; -8.2121737E-02;  1.0001809E+04;  0.0000000E+00; -6.2564648E-10;  1.0000000E+04;  0.0000000E+00;  9.9998994E+03; -8.7626658E-02;  0.0000000E+00;  5.5049183E-03;  4.8049217E+01;
  4.1999298E-01;  9.9999998E-03; -1.2000022E-01;1689; -8.8465940E-03;  0.0000000E+00; -2.2927218E-04;  1.0000847E+03;  4.0000001E-01;  7.0220146E+01;3; -7.6558909E+00;  0.0000000E+00; -1.3195799E-01;0; -8.0796883E-02;  1.0001774E+04;  0.0000000E+00; -6.8274048E-10;  1.0000000E+04;  0.0000000E+00;  9.9999199E+03; -8.5105456E-02;  0.0000000E+00;  4.3085702E-03;  4.0089043E+01;
  4.1999307E-01;  9.9999998E-03; -1.0000017E-01;1690; -8.6812796E-03;  0.0000000E+00; -1.7749840E-04;  1.0000840E+03;  4.0000001E-01;  6.9627571E+01;3; -7.4397025E+00;  0.0000000E+00; -8.7745734E-02;0; -7.9525635E-02;  1.0001748E+04;  0.0000000E+00; -4.7438120E-10;  1.0000000E+04;  0.0000000E+00;  9.9999336E+03; -8.3083645E-02;  0.0000000E+00;  3.5580134E-03;  3.4921741E+01;
  4.1999313E-01;  9.9999998E-03; -8.0000140E-02;1691; -8.5514812E-03;  0.0000000E+00; -1.3636459E-04;  1.0000834E+03;  4.0000001E-01;  6.9034996E+01;3; -7.2625318E+00;  0.0000000E+00; -5.7906646E-02;0; -7.8441240E-02;  1.0001728E+04;  0.0000000E+00; -5.6117760E-10;  1.0000000E+04;  0.0000000E+00;  9.9999385E+03; -8.1547648E-02;  0.0000000E+00;  3.1064088E-03;  3.1545439E+01;
  4.1999319E-01;  9.9999998E-03; -6.0000103E-02;1692; -8.4557468E-03;  0.0000000E+00; -1.0096297E-04;  1.0000828E+03;  4.0000001E-01;  6.8639946E+01;3; -7.1267648E+00;  0.0000000E+00; -3.8772877E-02;0; -7.7596471E-02;  1.0001713E+04;  0.0000000E+00; -1.9861082E-10;  1.0000000E+04;  0.0000000E+00;  9.9999453E+03; -8.0448791E-02;  0.0000000E+00;  2.8523209E-03;  2.9385798E+01;
  4.1999319E-01;  9.9999998E-03; -4.0000066E-02;1693; -8.3907442E-03;  0.0000000E+00; -6.7366520E-05;  1.0000825E+03;  4.0000001E-01;  6.8343658E+01;3; -7.0315943E+00;  0.0000000E+00; -2.4423607E-02;0; -7.7001572E-02;  1.0001702E+04;  0.0000000E+00; -1.6583092E-10;  1.0000000E+04;  0.0000000E+00;  9.9999473E+03; -7.9724386E-02;  0.0000000E+00;  2.7228182E-03;  2.8084028E+01;
  4.1999322E-01;  9.9999998E-03; -2.0000033E-02;1694; -8.3532538E-03;  0.0000000E+00; -3.3830100E-05;  1.0000823E+03;  4.0000001E-01;  6.8146133E+01;3; -6.9753489E+00;  0.0000000E+00; -1.1862099E-02;0; -7.6650240E-02;  1.0001698E+04;  0.0000000E+00; -1.1231318E-11;  1.0000000E+04;  0.0000000E+00;  9.9999492E+03; -7.9316430E-02;  0.0000000E+00;  2.6661921E-03;  2.7400236E+01;
  4.3999076E-01;  9.9999998E-03; -1.8000059E-01;1717; -1.1617911E-02;  0.0000000E+00; -6.8880979E-04;  1.0001064E+03;  4.0000001E-01;  8.8096130E+01;3; -9.9905605E+00;  0.0000000E+00; -5.4493260E-01;0; -1.0062975E-01;  1.0002345E+04;  0.0000000E+00;  4.5804702E-09;  1.0000000E+04;  0.0000000E+00;  9.9997881E+03; -1.1221422E-01;  0.0000000E+00;  1.1584461E-02;  9.7145470E+01;
  4.3999094E-01;  9.9999998E-03; -1.6000047E-01;1718; -1.1291618E-02;  0.0000000E+00; -5.2970828E-04;  1.0001058E+03;  4.0000001E-01;  8.7602318E+01;3; -9.6280546E+00;  0.0000000E+00; -3.8535312E-01;0; -9.9247687E-02;  1.0002280E+04;  0.0000000E+00;  4.9410178E-09;  1.0000000E+04;  0.0000000E+00;  9.9998369E+03; -1.0795430E-01;  0.0000000E+00;  8.7066144E-03;  7.6367126E+01;
  4.3999109E-01;  9.9999998E-03; -1.4000039E-01;1719; -1.0987549E-02;  0.0000000E+00; -4.1672282E-04;  1.0001046E+03;  4.0000001E-01;  8.6713455E+01;3; -9.2763958E+00;  0.0000000E+00; -2.7055049E-01;0; -9.7484782E-02;  1.0002224E+04;  0.0000000E+00;  3.8992303E-09;  1.0000000E+04;  0.0000000E+00;  9.9998701E+03; -1.0421988E-01;  0.0000000E+00;  6.7350902E-03;  6.2346973E+01;
  4.3999124E-01;  9.9999998E-03; -1.2000032E-01;1720; -1.0724997E-02;  0.0000000E+00; -3.3478145E-04;  1.0001036E+03;  4.0000001E-01;  8.5824593E+01;3; -8.9578867E+00;  0.0000000E+00; -1.9734965E-01;0; -9.5602080E-02;  1.0002182E+04;  0.0000000E+00;  2.2116378E-09;  1.0000000E+04;  0.0000000E+00;  9.9998916E+03; -1.0112065E-01;  0.0000000E+00;  5.5185696E-03;  5.3438263E+01;
  4.3999133E-01;  9.9999998E-03; -1.0000025E-01;1721; -1.0511720E-02;  0.0000000E+00; -2.7144307E-04;  1.0001025E+03;  4.0000001E-01;  8.4935730E+01;3; -8.6866045E+00;  0.0000000E+00; -1.5092407E-01;0; -9.3888409E-02;  1.0002146E+04;  0.0000000E+00;  9.9692654E-10;  1.0000000E+04;  0.0000000E+00;  9.9999063E+03; -9.8676592E-02;  0.0000000E+00;  4.7881845E-03;  4.7540112E+01;
  4.3999141E-01;  9.9999998E-03; -8.0000199E-02;1722; -1.0347719E-02;  0.0000000E+00; -2.1621122E-04;  1.0001019E+03;  4.0000001E-01;  8.4441917E+01;3; -8.4673262E+00;  0.0000000E+00; -1.1484721E-01;0; -9.2482269E-02;  1.0002121E+04;  0.0000000E+00;  9.8166952E-10;  1.0000000E+04;  0.0000000E+00;  9.9999160E+03; -9.6847177E-02;  0.0000000E+00;  4.3649045E-03;  4.3511868E+01;
  4.3999147E-01;  9.9999998E-03; -6.0000151E-02;1723; -1.0228843E-02;  0.0000000E+00; -1.6398047E-04;  1.0001013E+03;  4.0000001E-01;  8.3849342E+01;3; -8.3010902E+00;  0.0000000E+00; -8.6081810E-02;0; -9.1419905E-02;  1.0002104E+04;  0.0000000E+00;  4.8459525E-10;  1.0000000E+04;  0.0000000E+00;  9.9999238E+03; -9.5555753E-02;  0.0000000E+00;  4.1358438E-03;  4.0788540E+01;
  4.3999150E-01;  9.9999998E-03; -4.0000100E-02;1724; -1.0149234E-02;  0.0000000E+00; -1.1096754E-04;  1.0001009E+03;  4.0000001E-01;  8.3553055E+01;3; -8.1854315E+00;  0.0000000E+00; -5.8334731E-02;0; -9.0689488E-02;  1.0002093E+04;  0.0000000E+00;  7.9591819E-11;  1.0000000E+04;  0.0000000E+00;  9.9999248E+03; -9.4714589E-02;  0.0000000E+00;  4.0251007E-03;  3.9055191E+01;
  4.3999153E-01;  9.9999998E-03; -2.0000052E-02;1725; -1.0103764E-02;  0.0000000E+00; -5.6126821E-05;  1.0001006E+03;  4.0000001E-01;  8.3355530E+01;3; -8.1174936E+00;  0.0000000E+00; -2.9571790E-02;0; -9.0265393E-02;  1.0002087E+04;  0.0000000E+00; -2.6430644E-10;  1.0000000E+04;  0.0000000E+00;  9.9999277E+03; -9.4245501E-02;  0.0000000E+00;  3.9801085E-03;  3.8103748E+01;
  4.5998839E-01;  9.9999998E-03; -1.8000081E-01;1748; -1.4131189E-02;  0.0000000E+00; -9.0763957E-04;  1.0001309E+03;  4.0000030E-01;  1.0844113E+02;3; -1.1736353E+01;  0.0000000E+00; -6.7135513E-01;0; -1.1938485E-01;  1.0002864E+04;  0.0000000E+00;  3.6342225E-08;  1.0000000E+04;  0.0000000E+00;  9.9997334E+03; -1.3294886E-01;  0.0000000E+00;  1.3564011E-02;  1.2218731E+02;
  4.5998865E-01;  9.9999998E-03; -1.6000068E-01;1749; -1.3686134E-02;  0.0000000E+00; -7.3534803E-04;  1.0001294E+03;  4.0000030E-01;  1.0715722E+02;3; -1.1266788E+01;  0.0000000E+00; -5.0878602E-01;0; -1.1710294E-01;  1.0002782E+04;  0.0000000E+00;  2.9581683E-08;  1.0000000E+04;  0.0000000E+00;  9.9997900E+03; -1.2760851E-01;  0.0000000E+00;  1.0505571E-02;  9.8556938E+01;
  4.5998886E-01;  9.9999998E-03; -1.4000057E-01;1750; -1.3282407E-02;  0.0000000E+00; -6.1071949E-04;  1.0001278E+03;  4.0000036E-01;  1.0587331E+02;3; -1.0817588E+01;  0.0000000E+00; -3.9710265E-01;0; -1.1452813E-01;  1.0002713E+04;  0.0000000E+00;  2.1037579E-08;  1.0000000E+04;  0.0000000E+00;  9.9998281E+03; -1.2304610E-01;  0.0000000E+00;  8.5179685E-03;  8.2934624E+01;
  4.5998904E-01;  9.9999998E-03; -1.2000047E-01;1751; -1.2942741E-02;  0.0000000E+00; -5.1080750E-04;  1.0001262E+03;  4.0000033E-01;  1.0458940E+02;3; -1.0419059E+01;  0.0000000E+00; -3.2082400E-01;0; -1.1197429E-01;  1.0002660E+04;  0.0000000E+00;  1.2738167E-08;  1.0000000E+04;  0.0000000E+00;  9.9998516E+03; -1.1933044E-01;  0.0000000E+00;  7.3561519E-03;  7.2913788E+01;
  4.5998919E-01;  9.9999998E-03; -1.0000038E-01;1752; -1.2672585E-02;  0.0000000E+00; -4.2586174E-04;  1.0001250E+03;  4.0000027E-01;  1.0360178E+02;3; -1.0084501E+01;  0.0000000E+00; -2.6784006E-01;0; -1.0976497E-01;  1.0002618E+04;  0.0000000E+00;  6.7312476E-09;  1.0000000E+04;  0.0000000E+00;  9.9998682E+03; -1.1644195E-01;  0.0000000E+00;  6.6769761E-03;  6.5900436E+01;
  4.5998928E-01;  9.9999998E-03; -8.0000304E-02;1753; -1.2469100E-02;  0.0000000E+00; -3.4571401E-04;  1.0001240E+03;  4.0000027E-01;  1.0271291E+02;3; -9.8179636E+00;  0.0000000E+00; -2.1979524E-01;0; -1.0802552E-01;  1.0002587E+04;  0.0000000E+00;  2.6890548E-09;  1.0000000E+04;  0.0000000E+00;  9.9998799E+03; -1.1430521E-01;  0.0000000E+00;  6.2796916E-03;  6.0713547E+01;
  4.5998937E-01;  9.9999998E-03; -6.0000226E-02;1754; -1.2324305E-02;  0.0000000E+00; -2.6483028E-04;  1.0001234E+03;  4.0000024E-01;  1.0221910E+02;3; -9.6183510E+00;  0.0000000E+00; -1.7151390E-01;0; -1.0675764E-01;  1.0002566E+04;  0.0000000E+00;  1.0964711E-09;  1.0000000E+04;  0.0000000E+00;  9.9998867E+03; -1.1281309E-01;  0.0000000E+00;  6.0554524E-03;  5.6916771E+01;
  4.5998940E-01;  9.9999998E-03; -4.0000152E-02;1755; -1.2228808E-02;  0.0000000E+00; -1.8013996E-04;  1.0001229E+03;  4.0000030E-01;  1.0182405E+02;3; -9.4807301E+00;  0.0000000E+00; -1.1916695E-01;0; -1.0591123E-01;  1.0002554E+04;  0.0000000E+00;  4.1334874E-10;  1.0000000E+04;  0.0000000E+00;  9.9998926E+03; -1.1185046E-01;  0.0000000E+00;  5.9392313E-03;  5.4331024E+01;
  4.5998943E-01;  9.9999998E-03; -2.0000076E-02;1756; -1.2174850E-02;  0.0000000E+00; -9.1294656E-05;  1.0001227E+03;  4.0000033E-01;  1.0172529E+02;3; -9.4003382E+00;  0.0000000E+00; -6.1054040E-02;0; -1.0543024E-01;  1.0002546E+04;  0.0000000E+00; -1.3800798E-10;  1.0000000E+04;  0.0000000E+00;  9.9998955E+03; -1.1131781E-01;  0.0000000E+00;  5.8875671E-03;  5.2839478E+01;
  4.7998545E-01;  9.9999998E-03; -1.8000115E-01;1779; -1.7110281E-02;  0.0000000E+00; -1.2598203E-03;  1.0001583E+03;  4.0000099E-01;  1.3115639E+02;3; -1.3705698E+01;  0.0000000E+00; -8.7685305E-01;0; -1.3957286E-01;  1.0003464E+04;  0.0000000E+00;  1.4959294E-07;  1.0000000E+04;  0.0000000E+00;  9.9996592E+03; -1.5572031E-01;  0.0000000E+00;  1.6147453E-02;  1.5739090E+02;
  4.7998580E-01;  9.9999998E-03; -1.6000099E-01;1780; -1.6518088E-02;  0.0000000E+00; -1.0741815E-03;  1.0001564E+03;  4.0000099E-01;  1.2957619E+02;3; -1.3103261E+01;  0.0000000E+00; -7.2400355E-01;0; -1.3613707E-01;  1.0003359E+04;  0.0000000E+00;  1.1451208E-07;  1.0000000E+04;  0.0000000E+00;  9.9997256E+03; -1.4922018E-01;  0.0000000E+00;  1.3083109E-02;  1.3050256E+02;
  4.7998613E-01;  9.9999998E-03; -1.4000084E-01;1781; -1.5995080E-02;  0.0000000E+00; -9.2606794E-04;  1.0001541E+03;  4.0000093E-01;  1.2769971E+02;3; -1.2540436E+01;  0.0000000E+00; -6.1733425E-01;0; -1.3258700E-01;  1.0003274E+04;  0.0000000E+00;  8.1188048E-08;  1.0000000E+04;  0.0000000E+00;  9.9997656E+03; -1.4379866E-01;  0.0000000E+00;  1.1211663E-02;  1.1289478E+02;
  4.7998637E-01;  9.9999998E-03; -1.2000070E-01;1782; -1.5564065E-02;  0.0000000E+00; -7.9360273E-04;  1.0001521E+03;  4.0000090E-01;  1.2602074E+02;3; -1.2050137E+01;  0.0000000E+00; -5.3797382E-01;0; -1.2928712E-01;  1.0003208E+04;  0.0000000E+00;  4.7791801E-08;  1.0000000E+04;  0.0000000E+00;  9.9997930E+03; -1.3945431E-01;  0.0000000E+00;  1.0167181E-02;  1.0117029E+02;
  4.7998655E-01;  9.9999998E-03; -1.0000057E-01;1783; -1.5228265E-02;  0.0000000E+00; -6.6870981E-04;  1.0001506E+03;  4.0000093E-01;  1.2483560E+02;3; -1.1645241E+01;  0.0000000E+00; -4.6755379E-01;0; -1.2657756E-01;  1.0003159E+04;  0.0000000E+00;  2.2254852E-08;  1.0000000E+04;  0.0000000E+00;  9.9998105E+03; -1.3611321E-01;  0.0000000E+00;  9.5356526E-03;  9.2216995E+01;
  4.7998667E-01;  9.9999998E-03; -8.0000453E-02;1784; -1.4980286E-02;  0.0000000E+00; -5.4455944E-04;  1.0001495E+03;  4.0000093E-01;  1.2384798E+02;3; -1.1327643E+01;  0.0000000E+00; -3.9264664E-01;0; -1.2454361E-01;  1.0003122E+04;  0.0000000E+00;  8.1322344E-09;  1.0000000E+04;  0.0000000E+00;  9.9998242E+03; -1.3366134E-01;  0.0000000E+00;  9.1177309E-03;  8.4944221E+01;
  4.7998676E-01;  9.9999998E-03; -6.0000338E-02;1785; -1.4807003E-02;  0.0000000E+00; -4.1666874E-04;  1.0001490E+03;  4.0000096E-01;  1.2345293E+02;3; -1.1092601E+01;  0.0000000E+00; -3.0889300E-01;0; -1.2312633E-01;  1.0003098E+04;  0.0000000E+00;  2.1367881E-09;  1.0000000E+04;  0.0000000E+00;  9.9998369E+03; -1.3196075E-01;  0.0000000E+00;  8.8344179E-03;  7.9198227E+01;
  4.7998679E-01;  9.9999998E-03; -4.0000223E-02;1786; -1.4694543E-02;  0.0000000E+00; -2.8261499E-04;  1.0001485E+03;  4.0000093E-01;  1.2305788E+02;3; -1.0932055E+01;  0.0000000E+00; -2.1421939E-01;0; -1.2221775E-01;  1.0003080E+04;  0.0000000E+00;  7.1361406E-10;  1.0000000E+04;  0.0000000E+00;  9.9998457E+03; -1.3087060E-01;  0.0000000E+00;  8.6528426E-03;  7.5059143E+01;
  4.7998682E-01;  9.9999998E-03; -2.0000113E-02;1787; -1.4631729E-02;  0.0000000E+00; -1.4295295E-04;  1.0001482E+03;  4.0000090E-01;  1.2276159E+02;3; -1.0838838E+01;  0.0000000E+00; -1.0998509E-01;0; -1.2171707E-01;  1.0003072E+04;  0.0000000E+00; -1.2962650E-10;  1.0000000E+04;  0.0000000E+00;  9.9998516E+03; -1.3027036E-01;  0.0000000E+00;  8.5532935E-03;  7.2579788E+01;
  4.9998185E-01;  9.9999998E-03; -1.8000171E-01;1810; -2.0621596E-02;  0.0000000E+00; -1.8325928E-03;  1.0001883E+03;  4.0000206E-01;  1.5604434E+02;3; -1.5905669E+01;  0.0000000E+00; -1.2321222E+00;0; -1.5967385E-01;  1.0004112E+04;  0.0000000E+00;  4.4645827E-07;  1.0000000E+04;  0.0000000E+00;  9.9995527E+03; -1.7952006E-01;  0.0000000E+00;  1.9846205E-02;  2.0923004E+02;
  4.9998233E-01;  9.9999998E-03; -1.6000147E-01;1811; -1.9856954E-02;  0.0000000E+00; -1.6177646E-03;  1.0001855E+03;  4.0000212E-01;  1.5367406E+02;3; -1.5144767E+01;  0.0000000E+00; -1.0907379E+00;0; -1.5488921E-01;  1.0003984E+04;  0.0000000E+00;  3.6149390E-07;  1.0000000E+04;  0.0000000E+00;  9.9996240E+03; -1.7184463E-01;  0.0000000E+00;  1.6955426E-02;  1.7722948E+02;
  4.9998271E-01;  9.9999998E-03; -1.4000125E-01;1812; -1.9196810E-02;  0.0000000E+00; -1.4217815E-03;  1.0001827E+03;  4.0000206E-01;  1.5140253E+02;3; -1.4454268E+01;  0.0000000E+00; -9.8916221E-01;0; -1.5026683E-01;  1.0003882E+04;  0.0000000E+00;  2.6539951E-07;  1.0000000E+04;  0.0000000E+00;  9.9996699E+03; -1.6557431E-01;  0.0000000E+00;  1.5307480E-02;  1.5618053E+02;
  4.9998301E-01;  9.9999998E-03; -1.2000103E-01;1813; -1.8661883E-02;  0.0000000E+00; -1.2261994E-03;  1.0001804E+03;  4.0000209E-01;  1.4942728E+02;3; -1.3863898E+01;  0.0000000E+00; -8.9364123E-01;0; -1.4622021E-01;  1.0003804E+04;  0.0000000E+00;  1.5290422E-07;  1.0000000E+04;  0.0000000E+00;  9.9997012E+03; -1.6061236E-01;  0.0000000E+00;  1.4392146E-02;  1.4134641E+02;
  4.9998325E-01;  9.9999998E-03; -1.0000084E-01;1814; -1.8252274E-02;  0.0000000E+00; -1.0297110E-03;  1.0001788E+03;  4.0000209E-01;  1.4814337E+02;3; -1.3383841E+01;  0.0000000E+00; -7.8342247E-01;0; -1.4308184E-01;  1.0003744E+04;  0.0000000E+00;  7.1314410E-08;  1.0000000E+04;  0.0000000E+00;  9.9997275E+03; -1.5682030E-01;  0.0000000E+00;  1.3738454E-02;  1.2896140E+02;
  4.9998340E-01;  9.9999998E-03; -8.0000661E-02;1815; -1.7955381E-02;  0.0000000E+00; -8.3276210E-04;  1.0001777E+03;  4.0000200E-01;  1.4715575E+02;3; -1.3013656E+01;  0.0000000E+00; -6.5924823E-01;0; -1.4086357E-01;  1.0003701E+04;  0.0000000E+00;  2.7141944E-08;  1.0000000E+04;  0.0000000E+00;  9.9997520E+03; -1.5404615E-01;  0.0000000E+00;  1.3182585E-02;  1.1810316E+02;
  4.9998352E-01;  9.9999998E-03; -6.0000487E-02;1816; -1.7751561E-02;  0.0000000E+00; -6.3205714E-04;  1.0001772E+03;  4.0000203E-01;  1.4685945E+02;3; -1.2742702E+01;  0.0000000E+00; -5.1658660E-01;0; -1.3941385E-01;  1.0003673E+04;  0.0000000E+00;  7.2300130E-09;  1.0000000E+04;  0.0000000E+00;  9.9997705E+03; -1.5212564E-01;  0.0000000E+00;  1.2711798E-02;  1.0905573E+02;
  4.9998358E-01;  9.9999998E-03; -4.0000323E-02;1817; -1.7621316E-02;  0.0000000E+00; -4.2590662E-04;  1.0001769E+03;  4.0000212E-01;  1.4656317E+02;3; -1.2559031E+01;  0.0000000E+00; -3.5585979E-01;0; -1.3854237E-01;  1.0003653E+04;  0.0000000E+00;  2.0377777E-09;  1.0000000E+04;  0.0000000E+00;  9.9997861E+03; -1.5089644E-01;  0.0000000E+00;  1.2354078E-02;  1.0230044E+02;
  4.9998361E-01;  9.9999998E-03; -2.0000162E-02;1818; -1.7549438E-02;  0.0000000E+00; -2.1460489E-04;  1.0001771E+03;  4.0000215E-01;  1.4676070E+02;3; -1.2452835E+01;  0.0000000E+00; -1.8134983E-01;0; -1.3808757E-01;  1.0003644E+04;  0.0000000E+00; -1.9025739E-10;  1.0000000E+04;  0.0000000E+00;  9.9997939E+03; -1.5022065E-01;  0.0000000E+00;  1.2133082E-02;  9.8160431E+01;
  5.1997745E-01;  9.9999998E-03; -1.8000253E-01;1841; -2.4715308E-02;  0.0000000E+00; -2.7337787E-03;  1.0002220E+03;  4.0000585E-01;  1.8389505E+02;3; -1.8327198E+01;  0.0000000E+00; -1.7999648E+00;0; -1.7698811E-01;  1.0004765E+04;  0.0000000E+00;  1.0053407E-06;  1.0000000E+04;  0.0000000E+00;  9.9993818E+03; -2.0248687E-01;  0.0000000E+00;  2.5498768E-02;  2.8824167E+02;
  5.1997805E-01;  9.9999998E-03; -1.6000217E-01;1842; -2.3761619E-02;  0.0000000E+00; -2.4558676E-03;  1.0002189E+03;  4.0000597E-01;  1.8142599E+02;3; -1.7395508E+01;  0.0000000E+00; -1.6868287E+00;0; -1.7085719E-01;  1.0004610E+04;  0.0000000E+00;  8.9534882E-07;  1.0000000E+04;  0.0000000E+00;  9.9994736E+03; -1.9371277E-01;  0.0000000E+00;  2.2855576E-02;  2.4595657E+02;
  5.1997858E-01;  9.9999998E-03; -1.4000183E-01;1843; -2.2950357E-02;  0.0000000E+00; -2.1640174E-03;  1.0002159E+03;  4.0000585E-01;  1.7885818E+02;3; -1.6570309E+01;  0.0000000E+00; -1.5756067E+00;0; -1.6522309E-01;  1.0004489E+04;  0.0000000E+00;  6.9112946E-07;  1.0000000E+04;  0.0000000E+00;  9.9995342E+03; -1.8664926E-01;  0.0000000E+00;  2.1426167E-02;  2.1770721E+02;
  5.1997894E-01;  9.9999998E-03; -1.2000151E-01;1844; -2.2300651E-02;  0.0000000E+00; -1.8553237E-03;  1.0002134E+03;  4.0000594E-01;  1.7678418E+02;3; -1.5874735E+01;  0.0000000E+00; -1.4318730E+00;0; -1.6055559E-01;  1.0004396E+04;  0.0000000E+00;  4.1492586E-07;  1.0000000E+04;  0.0000000E+00;  9.9995752E+03; -1.8109924E-01;  0.0000000E+00;  2.0543654E-02;  1.9691884E+02;
  5.1997924E-01;  9.9999998E-03; -1.0000122E-01;1845; -2.1809792E-02;  0.0000000E+00; -1.5434693E-03;  1.0002119E+03;  4.0000594E-01;  1.7559903E+02;3; -1.5317689E+01;  0.0000000E+00; -1.2515073E+00;0; -1.5716626E-01;  1.0004327E+04;  0.0000000E+00;  2.0255949E-07;  1.0000000E+04;  0.0000000E+00;  9.9996152E+03; -1.7686146E-01;  0.0000000E+00;  1.9695209E-02;  1.7865120E+02;
  5.1997942E-01;  9.9999998E-03; -8.0000937E-02;1846; -2.1459199E-02;  0.0000000E+00; -1.2343526E-03;  1.0002110E+03;  4.0000591E-01;  1.7480893E+02;3; -1.4893421E+01;  0.0000000E+00; -1.0389227E+00;0; -1.5496466E-01;  1.0004275E+04;  0.0000000E+00;  8.0302364E-08;  1.0000000E+04;  0.0000000E+00;  9.9996514E+03; -1.7375296E-01;  0.0000000E+00;  1.8788304E-02;  1.6198346E+02;
  5.1997954E-01;  9.9999998E-03; -6.0000688E-02;1847; -2.1222033E-02;  0.0000000E+00; -9.2826941E-04;  1.0002109E+03;  4.0000597E-01;  1.7471017E+02;3; -1.4583871E+01;  0.0000000E+00; -8.0758226E-01;0; -1.5367422E-01;  1.0004243E+04;  0.0000000E+00;  2.6034009E-08;  1.0000000E+04;  0.0000000E+00;  9.9996826E+03; -1.7159179E-01;  0.0000000E+00;  1.7917575E-02;  1.4770064E+02;
  5.1997960E-01;  9.9999998E-03; -4.0000454E-02;1848; -2.1073056E-02;  0.0000000E+00; -6.2049972E-04;  1.0002109E+03;  4.0000591E-01;  1.7471017E+02;3; -1.4376038E+01;  0.0000000E+00; -5.5269492E-01;0; -1.5299504E-01;  1.0004221E+04;  0.0000000E+00;  6.4796537E-09;  1.0000000E+04;  0.0000000E+00;  9.9997070E+03; -1.7020237E-01;  0.0000000E+00;  1.7207343E-02;  1.3682394E+02;
  5.1997966E-01;  9.9999998E-03; -2.0000225E-02;1849; -2.0991845E-02;  0.0000000E+00; -3.1118252E-04;  1.0002112E+03;  4.0000591E-01;  1.7500645E+02;3; -1.4256556E+01;  0.0000000E+00; -2.8130984E-01;0; -1.5268609E-01;  1.0004209E+04;  0.0000000E+00;  8.6162932E-10;  1.0000000E+04;  0.0000000E+00;  9.9997197E+03; -1.6943565E-01;  0.0000000E+00;  1.6749557E-02;  1.3007069E+02;
  5.3997231E-01;  9.9999998E-03; -1.8000372E-01;1872; -2.9397683E-02;  0.0000000E+00; -4.0934221E-03;  1.0002614E+03;  4.0001553E-01;  2.1658490E+02;3; -2.0952736E+01;  0.0000000E+00; -2.7180958E+00;0; -1.8738969E-01;  1.0005336E+04;  0.0000000E+00;  1.6133282E-06;  1.0000000E+04;  0.0000000E+00;  9.9991133E+03; -2.2177523E-01;  0.0000000E+00;  3.4385543E-02;  4.1094943E+02;
  5.3997302E-01;  9.9999998E-03; -1.6000319E-01;1873; -2.8248664E-02;  0.0000000E+00; -3.6714694E-03;  1.0002593E+03;  4.0001556E-01;  2.1480719E+02;3; -1.9847052E+01;  0.0000000E+00; -2.6115394E+00;0; -1.8032113E-01;  1.0005158E+04;  0.0000000E+00;  1.6451239E-06;  1.0000000E+04;  0.0000000E+00;  9.9992490E+03; -2.1211468E-01;  0.0000000E+00;  3.1793546E-02;  3.4728082E+02;
  5.3997362E-01;  9.9999998E-03; -1.4000265E-01;1874; -2.7278984E-02;  0.0000000E+00; -3.1993142E-03;  1.0002568E+03;  4.0001550E-01;  2.1273318E+02;3; -1.8885223E+01;  0.0000000E+00; -2.4352562E+00;0; -1.7405590E-01;  1.0005020E+04;  0.0000000E+00;  1.4124034E-06;  1.0000000E+04;  0.0000000E+00;  9.9993389E+03; -2.0438115E-01;  0.0000000E+00;  3.0325256E-02;  3.0383279E+02;
  5.3997409E-01;  9.9999998E-03; -1.2000215E-01;1875; -2.6506351E-02;  0.0000000E+00; -2.7043258E-03;  1.0002548E+03;  4.0001553E-01;  2.1115300E+02;3; -1.8090033E+01;  0.0000000E+00; -2.1705468E+00;0; -1.6911688E-01;  1.0004912E+04;  0.0000000E+00;  9.0231583E-07;  1.0000000E+04;  0.0000000E+00;  9.9994043E+03; -1.9830148E-01;  0.0000000E+00;  2.9184598E-02;  2.7173083E+02;
  5.3997445E-01;  9.9999998E-03; -1.0000170E-01;1876; -2.5926337E-02;  0.0000000E+00; -2.2191198E-03;  1.0002537E+03;  4.0001553E-01;  2.1016537E+02;3; -1.7456734E+01;  0.0000000E+00; -1.8654647E+00;0; -1.6581079E-01;  1.0004831E+04;  0.0000000E+00;  4.6009521E-07;  1.0000000E+04;  0.0000000E+00;  9.9994639E+03; -1.9363351E-01;  0.0000000E+00;  2.7822716E-02;  2.4371545E+02;
  5.3997469E-01;  9.9999998E-03; -8.0001302E-02;1877; -2.5516592E-02;  0.0000000E+00; -1.7517745E-03;  1.0002535E+03;  4.0001556E-01;  2.0996785E+02;3; -1.6975672E+01;  0.0000000E+00; -1.5272419E+00;0; -1.6394697E-01;  1.0004771E+04;  0.0000000E+00;  1.9225517E-07;  1.0000000E+04;  0.0000000E+00;  9.9995195E+03; -1.9017956E-01;  0.0000000E+00;  2.6232585E-02;  2.1810323E+02;
  5.3997481E-01;  9.9999998E-03; -6.0000949E-02;1878; -2.5243549E-02;  0.0000000E+00; -1.3018129E-03;  1.0002539E+03;  4.0001559E-01;  2.1036290E+02;3; -1.6628391E+01;  0.0000000E+00; -1.1648663E+00;0; -1.6310182E-01;  1.0004729E+04;  0.0000000E+00;  6.5377712E-08;  1.0000000E+04;  0.0000000E+00;  9.9995693E+03; -1.8775168E-01;  0.0000000E+00;  2.4649866E-02;  1.9596643E+02;
  5.3997493E-01;  9.9999998E-03; -4.0000618E-02;1879; -2.5073916E-02;  0.0000000E+00; -8.6312345E-04;  1.0002545E+03;  4.0001553E-01;  2.1085670E+02;3; -1.6394962E+01;  0.0000000E+00; -7.8449321E-01;0; -1.6283910E-01;  1.0004705E+04;  0.0000000E+00;  1.8725903E-08;  1.0000000E+04;  0.0000000E+00;  9.9996055E+03; -1.8617256E-01;  0.0000000E+00;  2.3333460E-02;  1.7894536E+02;
  5.3997493E-01;  9.9999998E-03; -2.0000305E-02;1880; -2.4981897E-02;  0.0000000E+00; -4.3047610E-04;  1.0002548E+03;  4.0001553E-01;  2.1115300E+02;3; -1.6260159E+01;  0.0000000E+00; -3.9318150E-01;0; -1.6281821E-01;  1.0004689E+04;  0.0000000E+00;  3.3369369E-09;  1.0000000E+04;  0.0000000E+00;  9.9996299E+03; -1.8529254E-01;  0.0000000E+00;  2.2474330E-02;  1.6829433E+02;
  5.5996639E-01;  9.9999998E-03; -1.8000533E-01;1903; -3.4584623E-02;  0.0000000E+00; -6.0216547E-03;  1.0003254E+03;  4.0004188E-01;  2.6952063E+02;3; -2.3713587E+01;  0.0000000E+00; -4.1318269E+00;0; -1.8526967E-01;  1.0005714E+04;  0.0000000E+00;  1.3622199E-06;  1.0000000E+04;  0.0000000E+00;  9.9986963E+03; -2.3351285E-01;  0.0000000E+00;  4.8243184E-02;  6.0040692E+02;
  5.5996722E-01;  9.9999998E-03; -1.6000451E-01;1904; -3.3248305E-02;  0.0000000E+00; -5.3284043E-03;  1.0003264E+03;  4.0004188E-01;  2.7040948E+02;3; -2.2460426E+01;  0.0000000E+00; -3.9240954E+00;0; -1.7828304E-01;  1.0005519E+04;  0.0000000E+00;  2.1035348E-06;  1.0000000E+04;  0.0000000E+00;  9.9989131E+03; -2.2337280E-01;  0.0000000E+00;  4.5089770E-02;  4.9597418E+02;
  5.5996799E-01;  9.9999998E-03; -1.4000373E-01;1905; -3.2114051E-02;  0.0000000E+00; -4.5822440E-03;  1.0003262E+03;  4.0004188E-01;  2.7031073E+02;3; -2.1385632E+01;  0.0000000E+00; -3.5869689E+00;0; -1.7228520E-01;  1.0005361E+04;  0.0000000E+00;  2.2137947E-06;  1.0000000E+04;  0.0000000E+00;  9.9990664E+03; -2.1520922E-01;  0.0000000E+00;  4.2924017E-02;  4.2297021E+02;
  5.5996859E-01;  9.9999998E-03; -1.2000299E-01;1906; -3.1208849E-02;  0.0000000E+00; -3.8256373E-03;  1.0003256E+03;  4.0004191E-01;  2.6981693E+02;3; -2.0488897E+01;  0.0000000E+00; -3.1625066E+00;0; -1.6779736E-01;  1.0005238E+04;  0.0000000E+00;  1.5672638E-06;  1.0000000E+04;  0.0000000E+00;  9.9991768E+03; -2.0872852E-01;  0.0000000E+00;  4.0931169E-02;  3.7027594E+02;
  5.5996901E-01;  9.9999998E-03; -1.0000233E-01;1907; -3.0533215E-02;  0.0000000E+00; -3.0962965E-03;  1.0003257E+03;  4.0004194E-01;  2.6981693E+02;3; -1.9777084E+01;  0.0000000E+00; -2.6877561E+00;0; -1.6515800E-01;  1.0005147E+04;  0.0000000E+00;  8.4067989E-07;  1.0000000E+04;  0.0000000E+00;  9.9992686E+03; -2.0369120E-01;  0.0000000E+00;  3.8533203E-02;  3.2653345E+02;
  5.5996931E-01;  9.9999998E-03; -8.0001764E-02;1908; -3.0060718E-02;  0.0000000E+00; -2.4105334E-03;  1.0003264E+03;  4.0004191E-01;  2.7040948E+02;3; -1.9238951E+01;  0.0000000E+00; -2.1751852E+00;0; -1.6412677E-01;  1.0005077E+04;  0.0000000E+00;  3.6150360E-07;  1.0000000E+04;  0.0000000E+00;  9.9993535E+03; -1.9990997E-01;  0.0000000E+00;  3.5783205E-02;  2.8765335E+02;
  5.5996943E-01;  9.9999998E-03; -6.0001262E-02;1909; -2.9749479E-02;  0.0000000E+00; -1.7673413E-03;  1.0003279E+03;  4.0004197E-01;  2.7169339E+02;3; -1.8852013E+01;  0.0000000E+00; -1.6402693E+00;0; -1.6414414E-01;  1.0005030E+04;  0.0000000E+00;  1.2402400E-07;  1.0000000E+04;  0.0000000E+00;  9.9994297E+03; -1.9720857E-01;  0.0000000E+00;  3.3064421E-02;  2.5424413E+02;
  5.5996954E-01;  9.9999998E-03; -4.0000815E-02;1910; -2.9558381E-02;  0.0000000E+00; -1.1576335E-03;  1.0003292E+03;  4.0004200E-01;  2.7268100E+02;3; -1.8593950E+01;  0.0000000E+00; -1.0907246E+00;0; -1.6461818E-01;  1.0005001E+04;  0.0000000E+00;  3.3773134E-08;  1.0000000E+04;  0.0000000E+00;  9.9994854E+03; -1.9542135E-01;  0.0000000E+00;  3.0803179E-02;  2.2846979E+02;
  5.5996960E-01;  9.9999998E-03; -2.0000400E-02;1911; -2.9455325E-02;  0.0000000E+00; -5.7271461E-04;  1.0003303E+03;  4.0004194E-01;  2.7356985E+02;3; -1.8445028E+01;  0.0000000E+00; -5.4293334E-01;0; -1.6508664E-01;  1.0004984E+04;  0.0000000E+00;  5.4925988E-09;  1.0000000E+04;  0.0000000E+00;  9.9995244E+03; -1.9441076E-01;  0.0000000E+00;  2.9324118E-02;  2.1226457E+02;
  5.7995999E-01;  9.9999998E-03; -1.8000735E-01;1934; -4.0116485E-02;  0.0000000E+00; -8.4840301E-03;  1.0004703E+03;  4.0011185E-01;  3.8961353E+02;3; -2.6558073E+01;  0.0000000E+00; -5.9973378E+00;0; -1.6344944E-01;  1.0005740E+04;  0.0000000E+00; -1.5190731E-06;  1.0000000E+04;  0.0000000E+00;  9.9980713E+03; -2.3248063E-01;  0.0000000E+00;  6.9031186E-02;  8.8299841E+02;
  5.7996106E-01;  9.9999998E-03; -1.6000617E-01;1935; -3.8577225E-02;  0.0000000E+00; -7.4138390E-03;  1.0004781E+03;  4.0011185E-01;  3.9603302E+02;3; -2.5195364E+01;  0.0000000E+00; -5.5697579E+00;0; -1.5827200E-01;  1.0005535E+04;  0.0000000E+00;  1.0388131E-06;  1.0000000E+04;  0.0000000E+00;  9.9984316E+03; -2.2253577E-01;  0.0000000E+00;  6.4263783E-02;  7.0955756E+02;
  5.7996196E-01;  9.9999998E-03; -1.4000505E-01;1936; -3.7257224E-02;  0.0000000E+00; -6.3091163E-03;  1.0004829E+03;  4.0011188E-01;  4.0008221E+02;3; -2.4002832E+01;  0.0000000E+00; -5.0195265E+00;0; -1.5410522E-01;  1.0005372E+04;  0.0000000E+00;  2.5382863E-06;  1.0000000E+04;  0.0000000E+00;  9.9986895E+03; -2.1437618E-01;  0.0000000E+00;  6.0270965E-02;  5.8519647E+02;
  5.7996267E-01;  9.9999998E-03; -1.2000401E-01;1937; -3.6203936E-02;  0.0000000E+00; -5.2031418E-03;  1.0004857E+03;  4.0011185E-01;  4.0235373E+02;3; -2.3001236E+01;  0.0000000E+00; -4.3735352E+00;0; -1.5132146E-01;  1.0005239E+04;  0.0000000E+00;  2.1407559E-06;  1.0000000E+04;  0.0000000E+00;  9.9988750E+03; -2.0776929E-01;  0.0000000E+00;  5.6447830E-02;  4.9768335E+02;
  5.7996315E-01;  9.9999998E-03; -1.0000309E-01;1938; -3.5423517E-02;  0.0000000E+00; -4.1551255E-03;  1.0004880E+03;  4.0011185E-01;  4.0432898E+02;3; -2.2211073E+01;  0.0000000E+00; -3.6639285E+00;0; -1.5030223E-01;  1.0005140E+04;  0.0000000E+00;  1.2192256E-06;  1.0000000E+04;  0.0000000E+00;  9.9990195E+03; -2.0253347E-01;  0.0000000E+00;  5.2231230E-02;  4.2945465E+02;
  5.7996351E-01;  9.9999998E-03; -8.0002300E-02;1939; -3.4881756E-02;  0.0000000E+00; -3.1930308E-03;  1.0004907E+03;  4.0011182E-01;  4.0650171E+02;3; -2.1615093E+01;  0.0000000E+00; -2.9344845E+00;0; -1.5085459E-01;  1.0005065E+04;  0.0000000E+00;  5.2418568E-07;  1.0000000E+04;  0.0000000E+00;  9.9991484E+03; -1.9852854E-01;  0.0000000E+00;  4.7673959E-02;  3.7148624E+02;
  5.7996368E-01;  9.9999998E-03; -6.0001630E-02;1940; -3.4527190E-02;  0.0000000E+00; -2.3143229E-03;  1.0004936E+03;  4.0011185E-01;  4.0897076E+02;3; -2.1179884E+01;  0.0000000E+00; -2.2037179E+00;0; -1.5233810E-01;  1.0005013E+04;  0.0000000E+00;  1.7250581E-07;  1.0000000E+04;  0.0000000E+00;  9.9992598E+03; -1.9561185E-01;  0.0000000E+00;  4.3273743E-02;  3.2247580E+02;
  5.7996380E-01;  9.9999998E-03; -4.0001038E-02;1941; -3.4310546E-02;  0.0000000E+00; -1.5028440E-03;  1.0004962E+03;  4.0011188E-01;  4.1104474E+02;3; -2.0891197E+01;  0.0000000E+00; -1.4596412E+00;0; -1.5400359E-01;  1.0004978E+04;  0.0000000E+00;  4.3062087E-08;  1.0000000E+04;  0.0000000E+00;  9.9993477E+03; -1.9364476E-01;  0.0000000E+00;  3.9641164E-02;  2.8471796E+02;
  5.7996386E-01;  9.9999998E-03; -2.0000506E-02;1942; -3.4193136E-02;  0.0000000E+00; -7.4226531E-04;  1.0004978E+03;  4.0011185E-01;  4.1242740E+02;3; -2.0720659E+01;  0.0000000E+00; -7.3896253E-01;0; -1.5524554E-01;  1.0004958E+04;  0.0000000E+00;  6.5239449E-09;  1.0000000E+04;  0.0000000E+00;  9.9994014E+03; -1.9251433E-01;  0.0000000E+00;  3.7268784E-02;  2.6091360E+02;
  5.9995353E-01;  9.9999998E-03; -1.8000968E-01;1965; -4.5702353E-02;  0.0000000E+00; -1.1429309E-02;  1.0008442E+03;  4.0028948E-01;  6.9942474E+02;3; -2.9371166E+01;  0.0000000E+00; -8.2537889E+00;0; -1.1332919E-01;  1.0005226E+04;  0.0000000E+00; -8.8864153E-06;  1.0000000E+04;  0.0000000E+00;  9.9971846E+03; -2.1175405E-01;  0.0000000E+00;  9.8424867E-02;  1.2803921E+03;
  5.9995484E-01;  9.9999998E-03; -1.6000809E-01;1966; -4.3917727E-02;  0.0000000E+00; -9.9078845E-03;  1.0008638E+03;  4.0028954E-01;  7.1562152E+02;3; -2.7900248E+01;  0.0000000E+00; -7.6307645E+00;0; -1.1232806E-01;  1.0005039E+04;  0.0000000E+00; -2.9047146E-06;  1.0000000E+04;  0.0000000E+00;  9.9977617E+03; -2.0299637E-01;  0.0000000E+00;  9.0668313E-02;  1.0032377E+03;
  5.9995592E-01;  9.9999998E-03; -1.4000657E-01;1967; -4.2378593E-02;  0.0000000E+00; -8.3510010E-03;  1.0008773E+03;  4.0028954E-01;  7.2678149E+02;3; -2.6597145E+01;  0.0000000E+00; -6.8001556E+00;0; -1.1220833E-01;  1.0004882E+04;  0.0000000E+00;  1.5808869E-06;  1.0000000E+04;  0.0000000E+00;  9.9981875E+03; -1.9553630E-01;  0.0000000E+00;  8.3327971E-02;  7.9961829E+02;
  5.9995681E-01;  9.9999998E-03; -1.2000516E-01;1968; -4.1167196E-02;  0.0000000E+00; -6.7816526E-03;  1.0008860E+03;  4.0028948E-01;  7.3399103E+02;3; -2.5496336E+01;  0.0000000E+00; -5.8290811E+00;0; -1.1296052E-01;  1.0004753E+04;  0.0000000E+00;  2.2354159E-06;  1.0000000E+04;  0.0000000E+00;  9.9984883E+03; -1.8929878E-01;  0.0000000E+00;  7.6338254E-02;  6.5856812E+02;
  5.9995741E-01;  9.9999998E-03; -1.0000393E-01;1969; -4.0272251E-02;  0.0000000E+00; -5.3204228E-03;  1.0008925E+03;  4.0028951E-01;  7.3932410E+02;3; -2.4635164E+01;  0.0000000E+00; -4.7635288E+00;0; -1.1495972E-01;  1.0004652E+04;  0.0000000E+00;  1.4170197E-06;  1.0000000E+04;  0.0000000E+00;  9.9987158E+03; -1.8421942E-01;  0.0000000E+00;  6.9259703E-02;  5.5434125E+02;
  5.9995782E-01;  9.9999998E-03; -8.0002889E-02;1970; -3.9649606E-02;  0.0000000E+00; -4.0256502E-03;  1.0008979E+03;  4.0028954E-01;  7.4396588E+02;3; -2.3978621E+01;  0.0000000E+00; -3.7331483E+00;0; -1.1816657E-01;  1.0004577E+04;  0.0000000E+00;  6.0421212E-07;  1.0000000E+04;  0.0000000E+00;  9.9989033E+03; -1.8024558E-01;  0.0000000E+00;  6.2079005E-02;  4.6994260E+02;
  5.9995806E-01;  9.9999998E-03; -6.0002018E-02;1971; -3.9234743E-02;  0.0000000E+00; -2.8887077E-03;  1.0009033E+03;  4.0028962E-01;  7.4831134E+02;3; -2.3490463E+01;  0.0000000E+00; -2.7684791E+00;0; -1.2195197E-01;  1.0004521E+04;  0.0000000E+00;  1.7866799E-07;  1.0000000E+04;  0.0000000E+00;  9.9990625E+03; -1.7729166E-01;  0.0000000E+00;  5.5339690E-02;  4.0013153E+02;
  5.9995818E-01;  9.9999998E-03; -4.0001273E-02;1972; -3.8976979E-02;  0.0000000E+00; -1.8661596E-03;  1.0009076E+03;  4.0028954E-01;  7.5186676E+02;3; -2.3143011E+01;  0.0000000E+00; -1.8470274E+00;0; -1.2543075E-01;  1.0004484E+04;  0.0000000E+00;  3.1503795E-08;  1.0000000E+04;  0.0000000E+00;  9.9991875E+03; -1.7526242E-01;  0.0000000E+00;  4.9831670E-02;  3.4660867E+02;
  5.9995824E-01;  9.9999998E-03; -2.0000618E-02;1973; -3.8841181E-02;  0.0000000E+00; -9.1472769E-04;  1.0009105E+03;  4.0028954E-01;  7.5433575E+02;3; -2.2951120E+01;  0.0000000E+00; -9.2252648E-01;0; -1.2783410E-01;  1.0004465E+04;  0.0000000E+00;  2.9038274E-09;  1.0000000E+04;  0.0000000E+00;  9.9992656E+03; -1.7407890E-01;  0.0000000E+00;  4.6244796E-02;  3.1282916E+02;
  6.1994731E-01;  9.9999998E-03; -1.8001243E-01;1996; -5.1000509E-02;  0.0000000E+00; -1.4950883E-02;  1.0017411E+03;  4.0069619E-01;  1.4424929E+03;3; -3.2021809E+01;  0.0000000E+00; -1.0928688E+01;0; -2.6628092E-02;  1.0003995E+04;  0.0000000E+00; -2.0283831E-05;  1.0000000E+04;  0.0000000E+00;  9.9960244E+03; -1.6371550E-01;  0.0000000E+00;  1.3708740E-01;  1.7985389E+03;
  6.1994898E-01;  9.9999998E-03; -1.6001035E-01;1997; -4.8931517E-02;  0.0000000E+00; -1.2929926E-02;  1.0017775E+03;  4.0069622E-01;  1.4726149E+03;3; -3.0445435E+01;  0.0000000E+00; -1.0058597E+01;0; -3.2512814E-02;  1.0003855E+04;  0.0000000E+00; -9.9527288E-06;  1.0000000E+04;  0.0000000E+00;  9.9968906E+03; -1.5739964E-01;  0.0000000E+00;  1.2488683E-01;  1.3819935E+03;
  6.1995029E-01;  9.9999998E-03; -1.4000833E-01;1998; -4.7183909E-02;  0.0000000E+00; -1.0795315E-02;  1.0018043E+03;  4.0069637E-01;  1.4948359E+03;3; -2.9027374E+01;  0.0000000E+00; -8.9434662E+00;0; -3.9049581E-02;  1.0003729E+04;  0.0000000E+00; -9.9073816E-07;  1.0000000E+04;  0.0000000E+00;  9.9975508E+03; -1.5158552E-01;  0.0000000E+00;  1.1253594E-01;  1.0695360E+03;
  6.1995131E-01;  9.9999998E-03; -1.2000643E-01;1999; -4.5808695E-02;  0.0000000E+00; -8.6282380E-03;  1.0018221E+03;  4.0069622E-01;  1.5095511E+03;3; -2.7869261E+01;  0.0000000E+00; -7.5725760E+00;0; -4.5583799E-02;  1.0003620E+04;  0.0000000E+00;  1.6024833E-06;  1.0000000E+04;  0.0000000E+00;  9.9980137E+03; -1.4645562E-01;  0.0000000E+00;  1.0087182E-01;  8.5446783E+02;
  6.1995208E-01;  9.9999998E-03; -1.0000479E-01;2000; -4.4775303E-02;  0.0000000E+00; -6.6352724E-03;  1.0018345E+03;  4.0069628E-01;  1.5198223E+03;3; -2.6904663E+01;  0.0000000E+00; -6.1435976E+00;0; -5.2372530E-02;  1.0003529E+04;  0.0000000E+00;  1.2857961E-06;  1.0000000E+04;  0.0000000E+00;  9.9983516E+03; -1.4211316E-01;  0.0000000E+00;  8.9740634E-02;  7.0136877E+02;
  6.1995256E-01;  9.9999998E-03; -8.0003440E-02;2001; -4.4053324E-02;  0.0000000E+00; -4.9037589E-03;  1.0018447E+03;  4.0069625E-01;  1.5282169E+03;3; -2.6164742E+01;  0.0000000E+00; -4.7358489E+00;0; -5.9594393E-02;  1.0003462E+04;  0.0000000E+00;  5.2961497E-07;  1.0000000E+04;  0.0000000E+00;  9.9986201E+03; -1.3861828E-01;  0.0000000E+00;  7.9023883E-02;  5.8236926E+02;
  6.1995286E-01;  9.9999998E-03; -6.0002360E-02;2002; -4.3568976E-02;  0.0000000E+00; -3.4511199E-03;  1.0018534E+03;  4.0069628E-01;  1.5354264E+03;3; -2.5648849E+01;  0.0000000E+00; -3.4451509E+00;0; -6.6734970E-02;  1.0003413E+04;  0.0000000E+00;  1.1722248E-07;  1.0000000E+04;  0.0000000E+00;  9.9988398E+03; -1.3596347E-01;  0.0000000E+00;  6.9228500E-02;  4.8610489E+02;
  6.1995304E-01;  9.9999998E-03; -4.0001478E-02;2003; -4.3254055E-02;  0.0000000E+00; -2.2034389E-03;  1.0018601E+03;  4.0069625E-01;  1.5410557E+03;3; -2.5264948E+01;  0.0000000E+00; -2.2606261E+00;0; -7.2804801E-02;  1.0003380E+04;  0.0000000E+00;  3.4832462E-10;  1.0000000E+04;  0.0000000E+00;  9.9990117E+03; -1.3410781E-01;  0.0000000E+00;  6.1303012E-02;  4.1278305E+02;
  6.1995310E-01;  9.9999998E-03; -2.0000711E-02;2004; -4.3081000E-02;  0.0000000E+00; -1.0745419E-03;  1.0018645E+03;  4.0069619E-01;  1.5447098E+03;3; -2.5040621E+01;  0.0000000E+00; -1.1153423E+00;0; -7.6853380E-02;  1.0003358E+04;  0.0000000E+00; -5.7536971E-09;  1.0000000E+04;  0.0000000E+00;  9.9991172E+03; -1.3301142E-01;  0.0000000E+00;  5.6158036E-02;  3.6650867E+02;
  6.3994193E-01;  9.9999998E-03; -1.8001576E-01;2027; -5.5610444E-02;  0.0000000E+00; -1.9129708E-02;  1.0034311E+03;  4.0144119E-01;  2.8424956E+03;3; -3.4336552E+01;  0.0000000E+00; -1.4070650E+01;0;  1.0088228E-01;  1.0001961E+04;  0.0000000E+00; -3.1071329E-05;  1.0000000E+04;  0.0000000E+00;  9.9946318E+03; -8.3035335E-02;  0.0000000E+00;  1.8391761E-01;  2.4177578E+03;
  6.3994378E-01;  9.9999998E-03; -1.6001295E-01;2028; -5.3298011E-02;  0.0000000E+00; -1.6367376E-02;  1.0034891E+03;  4.0144128E-01;  2.8904927E+03;3; -3.2597336E+01;  0.0000000E+00; -1.2852243E+01;0;  8.5676722E-02;  1.0001896E+04;  0.0000000E+00; -1.7549772E-05;  1.0000000E+04;  0.0000000E+00;  9.9958506E+03; -8.0410607E-02;  0.0000000E+00;  1.6608733E-01;  1.8331368E+03;
  6.3994533E-01;  9.9999998E-03; -1.4001031E-01;2029; -5.1401537E-02;  0.0000000E+00; -1.3492712E-02;  1.0035328E+03;  4.0144119E-01;  2.9267373E+03;3; -3.1155186E+01;  0.0000000E+00; -1.1256465E+01;0;  7.0012197E-02;  1.0001822E+04;  0.0000000E+00; -4.2688644E-06;  1.0000000E+04;  0.0000000E+00;  9.9967979E+03; -7.7298224E-02;  0.0000000E+00;  1.4731042E-01;  1.3874304E+03;
  6.3994646E-01;  9.9999998E-03; -1.2000785E-01;2030; -4.9874797E-02;  0.0000000E+00; -1.0628940E-02;  1.0035626E+03;  4.0144113E-01;  2.9514272E+03;3; -2.9922899E+01;  0.0000000E+00; -9.3940048E+00;0;  5.5456348E-02;  1.0001754E+04;  0.0000000E+00;  4.5495958E-07;  1.0000000E+04;  0.0000000E+00;  9.9974600E+03; -7.4172206E-02;  0.0000000E+00;  1.2962855E-01;  1.0808076E+03;
  6.3994735E-01;  9.9999998E-03; -1.0000572E-01;2031; -4.8690841E-02;  0.0000000E+00; -8.0428831E-03;  1.0035836E+03;  4.0144122E-01;  2.9688088E+03;3; -2.8879532E+01;  0.0000000E+00; -7.5458946E+00;0;  4.2017169E-02;  1.0001693E+04;  0.0000000E+00;  8.7097754E-07;  1.0000000E+04;  0.0000000E+00;  9.9979307E+03; -7.1326688E-02;  0.0000000E+00;  1.1334386E-01;  8.6738745E+02;
  6.3994795E-01;  9.9999998E-03; -8.0004007E-02;2032; -4.7827605E-02;  0.0000000E+00; -5.8556921E-03;  1.0035996E+03;  4.0144119E-01;  2.9821414E+03;3; -2.8029007E+01;  0.0000000E+00; -5.8444014E+00;0;  2.9304549E-02;  1.0001646E+04;  0.0000000E+00;  3.2799124E-07;  1.0000000E+04;  0.0000000E+00;  9.9982988E+03; -6.8931714E-02;  0.0000000E+00;  9.8236263E-02;  7.0635052E+02;
  6.3994837E-01;  9.9999998E-03; -6.0002681E-02;2033; -4.7235943E-02;  0.0000000E+00; -4.0530879E-03;  1.0036125E+03;  4.0144116E-01;  2.9928076E+03;3; -2.7431953E+01;  0.0000000E+00; -4.2240047E+00;0;  1.7660253E-02;  1.0001610E+04;  0.0000000E+00;  1.0045181E-08;  1.0000000E+04;  0.0000000E+00;  9.9985928E+03; -6.7057058E-02;  0.0000000E+00;  8.4717311E-02;  5.7845868E+02;
  6.3994861E-01;  9.9999998E-03; -4.0001646E-02;2034; -4.6855051E-02;  0.0000000E+00; -2.5543042E-03;  1.0036226E+03;  4.0144116E-01;  3.0012021E+03;3; -2.7013836E+01;  0.0000000E+00; -2.7509513E+00;0;  8.1537366E-03;  1.0001585E+04;  0.0000000E+00; -4.7611742E-08;  1.0000000E+04;  0.0000000E+00;  9.9988203E+03; -6.5718547E-02;  0.0000000E+00;  7.3872283E-02;  4.8164273E+02;
  6.3994873E-01;  9.9999998E-03; -2.0000784E-02;2035; -4.6643127E-02;  0.0000000E+00; -1.2365609E-03;  1.0036291E+03;  4.0144119E-01;  3.0065352E+03;3; -2.6747417E+01;  0.0000000E+00; -1.3616507E+00;0;  1.9341484E-03;  1.0001571E+04;  0.0000000E+00; -1.6448833E-08;  1.0000000E+04;  0.0000000E+00;  9.9989629E+03; -6.4916104E-02;  0.0000000E+00;  6.6850252E-02;  4.2056018E+02;
  6.5993786E-01;  9.9999998E-03; -1.8001989E-01;2058; -5.9041865E-02;  0.0000000E+00; -2.4292152E-02;  1.0055552E+03;  4.0237698E-01;  4.6021411E+03;3; -3.5784641E+01;  0.0000000E+00; -1.7921215E+01;0;  2.6488632E-01;  9.9992070E+03;  0.0000000E+00; -3.4625828E-05;  1.0000000E+04;  0.0000000E+00;  9.9931143E+03;  2.9231941E-02;  0.0000000E+00;  2.3565437E-01;  3.0901123E+03;
  6.5993989E-01;  9.9999998E-03; -1.6001612E-01;2059; -5.6669381E-02;  0.0000000E+00; -2.0535478E-02;  1.0056370E+03;  4.0237701E-01;  4.6699883E+03;3; -3.4182720E+01;  0.0000000E+00; -1.6257921E+01;0;  2.3897003E-01;  9.9992354E+03;  0.0000000E+00; -2.1165286E-05;  1.0000000E+04;  0.0000000E+00;  9.9947129E+03;  2.7306691E-02;  0.0000000E+00;  2.1166334E-01;  2.3240002E+03;
  6.5994155E-01;  9.9999998E-03; -1.4001273E-01;2060; -5.4700844E-02;  0.0000000E+00; -1.6776199E-02;  1.0057002E+03;  4.0237692E-01;  4.7223301E+03;3; -3.2787964E+01;  0.0000000E+00; -1.4112802E+01;0;  2.1254703E-01;  9.9992344E+03;  0.0000000E+00; -6.2741155E-06;  1.0000000E+04;  0.0000000E+00;  9.9959688E+03;  2.6813354E-02;  0.0000000E+00;  1.8573368E-01;  1.7329872E+03;
  6.5994281E-01;  9.9999998E-03; -1.2000956E-01;2061; -5.3086676E-02;  0.0000000E+00; -1.3073493E-02;  1.0057441E+03;  4.0237689E-01;  4.7586733E+03;3; -3.1543514E+01;  0.0000000E+00; -1.1701530E+01;0;  1.8832600E-01;  9.9992227E+03;  0.0000000E+00; -4.7877558E-07;  1.0000000E+04;  0.0000000E+00;  9.9968564E+03;  2.7074199E-02;  0.0000000E+00;  1.6125180E-01;  1.3253816E+03;
  6.5994382E-01;  9.9999998E-03; -1.0000686E-01;2062; -5.1792748E-02;  0.0000000E+00; -9.7558601E-03;  1.0057746E+03;  4.0237686E-01;  4.7839551E+03;3; -3.0477064E+01;  0.0000000E+00; -9.2841158E+00;0;  1.6674428E-01;  9.9992070E+03;  0.0000000E+00;  4.2609776E-07;  1.0000000E+04;  0.0000000E+00;  9.9974795E+03;  2.7642932E-02;  0.0000000E+00;  1.3910134E-01;  1.0449056E+03;
  6.5994453E-01;  9.9999998E-03; -8.0004722E-02;2063; -5.0797004E-02;  0.0000000E+00; -6.9982088E-03;  1.0057979E+03;  4.0237686E-01;  4.8032134E+03;3; -2.9580429E+01;  0.0000000E+00; -7.0738430E+00;0;  1.4728405E-01;  9.9991943E+03;  0.0000000E+00;  1.1080054E-07;  1.0000000E+04;  0.0000000E+00;  9.9979541E+03;  2.8273720E-02;  0.0000000E+00;  1.1901033E-01;  8.3710266E+02;
  6.5994501E-01;  9.9999998E-03; -6.0003098E-02;2064; -5.0083611E-02;  0.0000000E+00; -4.7839470E-03;  1.0058163E+03;  4.0237680E-01;  4.8185205E+03;3; -2.8897018E+01;  0.0000000E+00; -5.0963802E+00;0;  1.3013244E-01;  9.9991807E+03;  0.0000000E+00; -8.7666450E-08;  1.0000000E+04;  0.0000000E+00;  9.9983320E+03;  2.8841950E-02;  0.0000000E+00;  1.0129049E-01;  6.7410559E+02;
  6.5994537E-01;  9.9999998E-03; -4.0001869E-02;2065; -4.9613487E-02;  0.0000000E+00; -2.9858609E-03;  1.0058304E+03;  4.0237686E-01;  4.8301743E+03;3; -2.8415545E+01;  0.0000000E+00; -3.3226063E+00;0;  1.1644652E-01;  9.9991729E+03;  0.0000000E+00; -8.3808388E-08;  1.0000000E+04;  0.0000000E+00;  9.9986211E+03;  2.9284600E-02;  0.0000000E+00;  8.7161928E-02;  5.5123004E+02;
  6.5994555E-01;  9.9999998E-03; -2.0000879E-02;2066; -4.9348481E-02;  0.0000000E+00; -1.4369332E-03;  1.0058394E+03;  4.0237686E-01;  4.8375811E+03;3; -2.8143591E+01;  0.0000000E+00; -1.6461693E+00;0;  1.0759522E-01;  9.9991680E+03;  0.0000000E+00; -2.4452612E-08;  1.0000000E+04;  0.0000000E+00;  9.9988027E+03;  2.9565142E-02;  0.0000000E+00;  7.8030080E-02;  4.7370697E+02;
  6.7993683E-01;  9.9999998E-03; -1.8002458E-01;2089; -6.0532656E-02;  0.0000000E+00; -3.0610176E-02;  1.0071865E+03;  4.0312305E-01;  5.9534614E+03;3; -3.6914009E+01;  0.0000000E+00; -2.3232723E+01;0;  4.4939858E-01;  9.9960654E+03;  0.0000000E+00; -2.8248929E-05;  1.0000000E+04;  0.0000000E+00;  9.9916162E+03;  1.6212323E-01;  0.0000000E+00;  2.8727534E-01;  3.7486646E+03;
  6.7993897E-01;  9.9999998E-03; -1.6001973E-01;2090; -5.8047570E-02;  0.0000000E+00; -2.5588034E-02;  1.0072914E+03;  4.0312299E-01;  6.0404663E+03;3; -3.5258335E+01;  0.0000000E+00; -2.0760153E+01;0;  4.1293931E-01;  9.9961865E+03;  0.0000000E+00; -1.8199344E-05;  1.0000000E+04;  0.0000000E+00;  9.9935840E+03;  1.5541413E-01;  0.0000000E+00;  2.5752518E-01;  2.8081497E+03;
  6.7994064E-01;  9.9999998E-03; -1.4001545E-01;2091; -5.5995613E-02;  0.0000000E+00; -2.0703578E-02;  1.0073740E+03;  4.0312287E-01;  6.1088062E+03;3; -3.3779812E+01;  0.0000000E+00; -1.7803511E+01;0;  3.7550485E-01;  9.9962695E+03;  0.0000000E+00; -5.5995524E-06;  1.0000000E+04;  0.0000000E+00;  9.9951426E+03;  1.5080595E-01;  0.0000000E+00;  2.2469889E-01;  2.0764412E+03;
  6.7994195E-01;  9.9999998E-03; -1.2001149E-01;2092; -5.4333091E-02;  0.0000000E+00; -1.5953880E-02;  1.0074320E+03;  4.0312281E-01;  6.1569009E+03;3; -3.2494987E+01;  0.0000000E+00; -1.4598624E+01;0;  3.4108800E-01;  9.9963262E+03;  0.0000000E+00; -5.8622322E-07;  1.0000000E+04;  0.0000000E+00;  9.9962451E+03;  1.4761125E-01;  0.0000000E+00;  1.9347677E-01;  1.5698754E+03;
  6.7994297E-01;  9.9999998E-03; -1.0000811E-01;2093; -5.2997544E-02;  0.0000000E+00; -1.1737431E-02;  1.0074731E+03;  4.0312275E-01;  6.1909717E+03;3; -3.1373243E+01;  0.0000000E+00; -1.1439300E+01;0;  3.1072164E-01;  9.9963652E+03;  0.0000000E+00;  2.2954123E-07;  1.0000000E+04;  0.0000000E+00;  9.9970215E+03;  1.4533915E-01;  0.0000000E+00;  1.6538250E-01;  1.2227002E+03;
  6.7994368E-01;  9.9999998E-03; -8.0005474E-02;2094; -5.1976454E-02;  0.0000000E+00; -8.2932664E-03;  1.0075040E+03;  4.0312269E-01;  6.2165498E+03;3; -3.0440180E+01;  0.0000000E+00; -8.6094036E+00;0;  2.8388745E-01;  9.9963906E+03;  0.0000000E+00;  5.9662439E-09;  1.0000000E+04;  0.0000000E+00;  9.9976064E+03;  1.4371932E-01;  0.0000000E+00;  1.4016813E-01;  9.6768506E+02;
  6.7994422E-01;  9.9999998E-03; -6.0003523E-02;2095; -5.1237535E-02;  0.0000000E+00; -5.5953162E-03;  1.0075281E+03;  4.0312272E-01;  6.2365977E+03;3; -2.9751410E+01;  0.0000000E+00; -6.1528735E+00;0;  2.6069501E-01;  9.9964111E+03;  0.0000000E+00; -1.2311685E-07;  1.0000000E+04;  0.0000000E+00;  9.9980693E+03;  1.4259645E-01;  0.0000000E+00;  1.1809856E-01;  7.6885895E+02;
  6.7994452E-01;  9.9999998E-03; -4.0002089E-02;2096; -5.0737895E-02;  0.0000000E+00; -3.4511068E-03;  1.0075464E+03;  4.0312266E-01;  6.2517075E+03;3; -2.9230972E+01;  0.0000000E+00; -3.9702520E+00;0;  2.4242696E-01;  9.9964248E+03;  0.0000000E+00; -8.6945086E-08;  1.0000000E+04;  0.0000000E+00;  9.9984219E+03;  1.4186846E-01;  0.0000000E+00;  1.0055850E-01;  6.1921387E+02;
  6.7994469E-01;  9.9999998E-03; -2.0000976E-02;2097; -5.0457198E-02;  0.0000000E+00; -1.6507438E-03;  1.0075579E+03;  4.0312272E-01;  6.2611880E+03;3; -2.8927073E+01;  0.0000000E+00; -1.9504538E+00;0;  2.3069370E-01;  9.9964307E+03;  0.0000000E+00; -2.5473971E-08;  1.0000000E+04;  0.0000000E+00;  9.9986426E+03;  1.4146256E-01;  0.0000000E+00;  8.9231133E-02;  5.2473969E+02;
  6.9994187E-01;  9.9999998E-03; -1.8002898E-01;2120; -5.7749771E-02;  0.0000000E+00; -3.6843546E-02;  1.0079890E+03;  4.0353087E-01;  6.6181592E+03;3; -3.6862808E+01;  0.0000000E+00; -2.9040981E+01;0;  6.2740743E-01;  9.9930840E+03;  0.0000000E+00; -1.6506259E-05;  1.0000000E+04;  0.0000000E+00;  9.9902979E+03;  2.9405198E-01;  0.0000000E+00;  3.3335546E-01;  4.3279697E+03;
  6.9994378E-01;  9.9999998E-03; -1.6002317E-01;2121; -5.5361178E-02;  0.0000000E+00; -3.0630769E-02;  1.0081138E+03;  4.0353066E-01;  6.7215557E+03;3; -3.5164410E+01;  0.0000000E+00; -2.5624153E+01;0;  5.8213276E-01;  9.9932900E+03;  0.0000000E+00; -1.0797660E-05;  1.0000000E+04;  0.0000000E+00;  9.9925732E+03;  2.8299600E-01;  0.0000000E+00;  2.9913676E-01;  3.2389705E+03;
  6.9994539E-01;  9.9999998E-03; -1.4001808E-01;2122; -5.3375743E-02;  0.0000000E+00; -2.4606267E-02;  1.0082131E+03;  4.0353060E-01;  6.8038184E+03;3; -3.3678284E+01;  0.0000000E+00; -2.1699593E+01;0;  5.3493130E-01;  9.9934492E+03;  0.0000000E+00; -2.8977465E-06;  1.0000000E+04;  0.0000000E+00;  9.9943896E+03;  2.7432433E-01;  0.0000000E+00;  2.6060700E-01;  2.3867463E+03;
  6.9994658E-01;  9.9999998E-03; -1.2001330E-01;2123; -5.1774770E-02;  0.0000000E+00; -1.8749841E-02;  1.0082841E+03;  4.0353054E-01;  6.8626763E+03;3; -3.2387554E+01;  0.0000000E+00; -1.7516418E+01;0;  4.9112549E-01;  9.9935713E+03;  0.0000000E+00;  4.0171866E-08;  1.0000000E+04;  0.0000000E+00;  9.9956826E+03;  2.6755983E-01;  0.0000000E+00;  2.2356567E-01;  1.7943931E+03;
  6.9994748E-01;  9.9999998E-03; -1.0000924E-01;2124; -5.0527122E-02;  0.0000000E+00; -1.3597938E-02;  1.0083347E+03;  4.0353039E-01;  6.9045479E+03;3; -3.1258944E+01;  0.0000000E+00; -1.3549294E+01;0;  4.5245767E-01;  9.9936631E+03;  0.0000000E+00;  3.2009729E-07;  1.0000000E+04;  0.0000000E+00;  9.9965918E+03;  2.6230475E-01;  0.0000000E+00;  1.9015293E-01;  1.3882031E+03;
  6.9994813E-01;  9.9999998E-03; -8.0006085E-02;2125; -4.9595982E-02;  0.0000000E+00; -9.4308769E-03;  1.0083725E+03;  4.0353045E-01;  6.9359521E+03;3; -3.0336407E+01;  0.0000000E+00; -1.0069869E+01;0;  4.1853634E-01;  9.9937334E+03;  0.0000000E+00;  3.7537365E-08;  1.0000000E+04;  0.0000000E+00;  9.9972783E+03;  2.5831822E-01;  0.0000000E+00;  1.6021812E-01;  1.0902750E+03;
  6.9994855E-01;  9.9999998E-03; -6.0003806E-02;2126; -4.8930824E-02;  0.0000000E+00; -6.2342449E-03;  1.0084023E+03;  4.0353045E-01;  6.9605420E+03;3; -2.9616907E+01;  0.0000000E+00; -7.1159034E+00;0;  3.8948783E-01;  9.9937822E+03;  0.0000000E+00; -8.9220556E-08;  1.0000000E+04;  0.0000000E+00;  9.9978213E+03;  2.5542516E-01;  0.0000000E+00;  1.3406268E-01;  8.5813214E+02;
  6.9994879E-01;  9.9999998E-03; -4.0002197E-02;2127; -4.8498619E-02;  0.0000000E+00; -3.7823631E-03;  1.0084246E+03;  4.0353042E-01;  6.9790093E+03;3; -2.9121613E+01;  0.0000000E+00; -4.5553246E+00;0;  3.6676416E-01;  9.9938135E+03;  0.0000000E+00; -6.8358744E-08;  1.0000000E+04;  0.0000000E+00;  9.9982344E+03;  2.5347918E-01;  0.0000000E+00;  1.1328497E-01;  6.8325574E+02;
  6.9994891E-01;  9.9999998E-03; -2.0001005E-02;2128; -4.8257884E-02;  0.0000000E+00; -1.7892395E-03;  1.0084387E+03;  4.0353036E-01;  6.9907607E+03;3; -2.8831894E+01;  0.0000000E+00; -2.2286336E+00;0;  3.5222733E-01;  9.9938330E+03;  0.0000000E+00; -1.9491926E-08;  1.0000000E+04;  0.0000000E+00;  9.9984941E+03;  2.5236312E-01;  0.0000000E+00;  9.9864222E-02;  5.7269836E+02;
  7.1995693E-01;  9.9999998E-03; -1.8003225E-01;2151; -4.4342749E-02;  0.0000000E+00; -4.1386373E-02;  1.0082707E+03;  4.0370911E-01;  6.8514282E+03;3; -3.0339878E+01;  0.0000000E+00; -3.3254646E+01;0;  7.6783526E-01;  9.9908750E+03;  0.0000000E+00; -6.3153971E-06;  1.0000000E+04;  0.0000000E+00;  9.9892578E+03;  3.9796972E-01;  0.0000000E+00;  3.6986554E-01;  4.7841348E+03;
  7.1995860E-01;  9.9999998E-03; -1.6002582E-01;2152; -4.2212330E-02;  0.0000000E+00; -3.4417354E-02;  1.0084100E+03;  4.0370893E-01;  6.9667710E+03;3; -2.8649477E+01;  0.0000000E+00; -2.9270199E+01;0;  7.1649176E-01;  9.9911406E+03;  0.0000000E+00; -3.7913019E-06;  1.0000000E+04;  0.0000000E+00;  9.9917656E+03;  3.8358203E-01;  0.0000000E+00;  3.3290973E-01;  3.5836289E+03;
  7.1995997E-01;  9.9999998E-03; -1.4002013E-01;2153; -4.0402304E-02;  0.0000000E+00; -2.7610989E-02;  1.0085220E+03;  4.0370882E-01;  7.0595977E+03;3; -2.7125139E+01;  0.0000000E+00; -2.4676840E+01;0;  6.6192091E-01;  9.9913574E+03;  0.0000000E+00; -2.5914073E-07;  1.0000000E+04;  0.0000000E+00;  9.9937744E+03;  3.7150326E-01;  0.0000000E+00;  2.9041764E-01;  2.6406619E+03;
  7.1996099E-01;  9.9999998E-03; -1.2001479E-01;2154; -3.8965493E-02;  0.0000000E+00; -2.0988528E-02;  1.0086031E+03;  4.0370867E-01;  7.1267495E+03;3; -2.5831114E+01;  0.0000000E+00; -1.9824253E+01;0;  6.1068428E-01;  9.9915332E+03;  0.0000000E+00;  6.9683722E-07;  1.0000000E+04;  0.0000000E+00;  9.9952100E+03;  3.6161786E-01;  0.0000000E+00;  2.4906640E-01;  1.9829977E+03;
  7.1996176E-01;  9.9999998E-03; -1.0001025E-01;2155; -3.7888527E-02;  0.0000000E+00; -1.5180137E-02;  1.0086611E+03;  4.0370858E-01;  7.1747432E+03;3; -2.4793272E+01;  0.0000000E+00; -1.5279594E+01;0;  5.6523550E-01;  9.9916699E+03;  0.0000000E+00;  4.5597855E-07;  1.0000000E+04;  0.0000000E+00;  9.9962256E+03;  3.5373333E-01;  0.0000000E+00;  2.1150218E-01;  1.5306755E+03;
  7.1996224E-01;  9.9999998E-03; -8.0006726E-02;2156; -3.7120473E-02;  0.0000000E+00; -1.0486339E-02;  1.0087048E+03;  4.0370861E-01;  7.2109849E+03;3; -2.3995142E+01;  0.0000000E+00; -1.1311579E+01;0;  5.2539063E-01;  9.9917744E+03;  0.0000000E+00;  1.1463180E-07;  1.0000000E+04;  0.0000000E+00;  9.9969951E+03;  3.4767964E-01;  0.0000000E+00;  1.7771100E-01;  1.1978804E+03;
  7.1996254E-01;  9.9999998E-03; -6.0004182E-02;2157; -3.6597781E-02;  0.0000000E+00; -6.8978309E-03;  1.0087391E+03;  4.0370849E-01;  7.2394258E+03;3; -2.3408386E+01;  0.0000000E+00; -7.9568076E+00;0;  4.9137717E-01;  9.9918457E+03;  0.0000000E+00; -2.8952421E-08;  1.0000000E+04;  0.0000000E+00;  9.9976035E+03;  3.4326461E-01;  0.0000000E+00;  1.4811255E-01;  9.3774579E+02;
  7.1996278E-01;  9.9999998E-03; -4.0002402E-02;2158; -3.6263309E-02;  0.0000000E+00; -4.1682138E-03;  1.0087650E+03;  4.0370849E-01;  7.2608550E+03;3; -2.3006243E+01;  0.0000000E+00; -5.0797324E+00;0;  4.6484813E-01;  9.9918945E+03;  0.0000000E+00; -3.3528686E-08;  1.0000000E+04;  0.0000000E+00;  9.9980664E+03;  3.4028780E-01;  0.0000000E+00;  1.2456033E-01;  7.4125250E+02;
  7.1996284E-01;  9.9999998E-03; -2.0001093E-02;2159; -3.6076799E-02;  0.0000000E+00; -1.9666238E-03;  1.0087812E+03;  4.0370852E-01;  7.2742852E+03;3; -2.2770430E+01;  0.0000000E+00; -2.4822493E+00;0;  4.4791007E-01;  9.9919229E+03;  0.0000000E+00; -1.0919323E-08;  1.0000000E+04;  0.0000000E+00;  9.9983604E+03;  3.3857864E-01;  0.0000000E+00;  1.0933143E-01;  6.1678998E+02;
  7.3997319E-01;  9.9999998E-03; -1.8003434E-01;2182; -2.7988717E-02;  0.0000000E+00; -4.4061273E-02;  1.0083549E+03;  4.0377924E-01;  6.9208916E+03;3; -1.9527082E+01;  0.0000000E+00; -3.5355289E+01;0;  8.5001159E-01;  9.9897959E+03;  0.0000000E+00; -9.0450919E-07;  1.0000000E+04;  0.0000000E+00;  9.9885283E+03;  4.5472726E-01;  0.0000000E+00;  3.9528432E-01;  5.1032822E+03;
  7.3997432E-01;  9.9999998E-03; -1.6002759E-01;2183; -2.6515042E-02;  0.0000000E+00; -3.6769234E-02;  1.0085034E+03;  4.0377909E-01;  7.0438335E+03;3; -1.8373697E+01;  0.0000000E+00; -3.1246380E+01;0;  7.9554999E-01;  9.9900908E+03;  0.0000000E+00;  1.3550298E-08;  1.0000000E+04;  0.0000000E+00;  9.9911885E+03;  4.3838876E-01;  0.0000000E+00;  3.5716122E-01;  3.8297014E+03;
  7.3997527E-01;  9.9999998E-03; -1.4002156E-01;2184; -2.5234230E-02;  0.0000000E+00; -2.9559962E-02;  1.0086235E+03;  4.0377885E-01;  7.1433721E+03;3; -1.7305471E+01;  0.0000000E+00; -2.6417271E+01;0;  7.3652494E-01;  9.9903477E+03;  0.0000000E+00;  9.6016618E-07;  1.0000000E+04;  0.0000000E+00;  9.9933223E+03;  4.2404169E-01;  0.0000000E+00;  3.1248325E-01;  2.8276355E+03;
  7.3997605E-01;  9.9999998E-03; -1.2001586E-01;2185; -2.4199868E-02;  0.0000000E+00; -2.2507343E-02;  1.0087111E+03;  4.0377885E-01;  7.2159521E+03;3; -1.6382864E+01;  0.0000000E+00; -2.1274204E+01;0;  6.8045247E-01;  9.9905586E+03;  0.0000000E+00;  8.6456907E-07;  1.0000000E+04;  0.0000000E+00;  9.9948545E+03;  4.1196224E-01;  0.0000000E+00;  2.6849023E-01;  2.1270466E+03;
  7.3997658E-01;  9.9999998E-03; -1.0001100E-01;2186; -2.3415253E-02;  0.0000000E+00; -1.6300770E-02;  1.0087742E+03;  4.0377876E-01;  7.2681899E+03;3; -1.5629849E+01;  0.0000000E+00; -1.6430925E+01;0;  6.3036412E-01;  9.9907236E+03;  0.0000000E+00;  4.4665074E-07;  1.0000000E+04;  0.0000000E+00;  9.9959404E+03;  4.0220723E-01;  0.0000000E+00;  2.2815691E-01;  1.6432781E+03;
  7.3997694E-01;  9.9999998E-03; -8.0007225E-02;2187; -2.2850662E-02;  0.0000000E+00; -1.1274583E-02;  1.0088219E+03;  4.0377861E-01;  7.3076895E+03;3; -1.5043052E+01;  0.0000000E+00; -1.2186186E+01;0;  5.8630228E-01;  9.9908467E+03;  0.0000000E+00;  1.4024000E-07;  1.0000000E+04;  0.0000000E+00;  9.9967656E+03;  3.9469671E-01;  0.0000000E+00;  1.9160554E-01;  1.2853624E+03;
  7.3997718E-01;  9.9999998E-03; -6.0004495E-02;2188; -2.2462741E-02;  0.0000000E+00; -7.4253320E-03;  1.0088596E+03;  4.0377861E-01;  7.3389927E+03;3; -1.4606179E+01;  0.0000000E+00; -8.5859127E+00;0;  5.4865640E-01;  9.9909375E+03;  0.0000000E+00;  1.3780019E-08;  1.0000000E+04;  0.0000000E+00;  9.9974268E+03;  3.8922855E-01;  0.0000000E+00;  1.5942787E-01;  1.0041290E+03;
  7.3997736E-01;  9.9999998E-03; -4.0002581E-02;2189; -2.2211716E-02;  0.0000000E+00; -4.4918284E-03;  1.0088878E+03;  4.0377861E-01;  7.3622974E+03;3; -1.4302939E+01;  0.0000000E+00; -5.4884338E+00;0;  5.1930088E-01;  9.9909941E+03;  0.0000000E+00; -8.4696978E-09;  1.0000000E+04;  0.0000000E+00;  9.9979307E+03;  3.8555309E-01;  0.0000000E+00;  1.3374777E-01;  7.9092926E+02;
  7.3997742E-01;  9.9999998E-03; -2.0001177E-02;2190; -2.2070352E-02;  0.0000000E+00; -2.1209384E-03;  1.0089057E+03;  4.0377864E-01;  7.3771099E+03;3; -1.4123376E+01;  0.0000000E+00; -2.6842771E+00;0;  5.0056446E-01;  9.9910273E+03;  0.0000000E+00; -3.6730565E-09;  1.0000000E+04;  0.0000000E+00;  9.9982510E+03;  3.8344765E-01;  0.0000000E+00;  1.1711681E-01;  6.5560022E+02;
  7.5998592E-01;  9.9999998E-03; -1.8003567E-01;2213; -1.5040454E-02;  0.0000000E+00; -4.5709893E-02;  1.0083981E+03;  4.0380573E-01;  6.9563901E+03;3; -1.0845539E+01;  0.0000000E+00; -3.6581985E+01;0;  8.7425500E-01;  9.9897822E+03;  0.0000000E+00;  6.5308689E-07;  1.0000000E+04;  0.0000000E+00;  9.9880889E+03;  4.6385077E-01;  0.0000000E+00;  4.1040424E-01;  5.2961357E+03;
  7.5998658E-01;  9.9999998E-03; -1.6002876E-01;2214; -1.4181307E-02;  0.0000000E+00; -3.8286068E-02;  1.0085510E+03;  4.0380555E-01;  7.0829795E+03;3; -1.0200010E+01;  0.0000000E+00; -3.2478489E+01;0;  8.1911474E-01;  9.9900830E+03;  0.0000000E+00;  9.1587049E-07;  1.0000000E+04;  0.0000000E+00;  9.9908301E+03;  4.4695351E-01;  0.0000000E+00;  3.7216124E-01;  3.9824365E+03;
  7.5998718E-01;  9.9999998E-03; -1.4002250E-01;2215; -1.3407234E-02;  0.0000000E+00; -3.0852251E-02;  1.0086752E+03;  4.0380540E-01;  7.1858706E+03;3; -9.5704956E+00;  0.0000000E+00; -2.7548080E+01;0;  7.5833893E-01;  9.9903525E+03;  0.0000000E+00;  9.1550737E-07;  1.0000000E+04;  0.0000000E+00;  9.9930342E+03;  4.3162754E-01;  0.0000000E+00;  3.2671139E-01;  2.9487261E+03;
  7.5998765E-01;  9.9999998E-03; -1.2001658E-01;2216; -1.2768285E-02;  0.0000000E+00; -2.3531083E-02;  1.0087661E+03;  4.0380529E-01;  7.2611128E+03;3; -9.0091543E+00;  0.0000000E+00; -2.2239954E+01;0;  6.9999385E-01;  9.9905762E+03;  0.0000000E+00;  6.0554299E-07;  1.0000000E+04;  0.0000000E+00;  9.9946143E+03;  4.1848078E-01;  0.0000000E+00;  2.8151304E-01;  2.2249734E+03;
  7.5998801E-01;  9.9999998E-03; -1.0001151E-01;2217; -1.2276925E-02;  0.0000000E+00; -1.7064631E-02;  1.0088319E+03;  4.0380523E-01;  7.3156196E+03;3; -8.5409842E+00;  0.0000000E+00; -1.7211605E+01;0;  6.4747047E-01;  9.9907539E+03;  0.0000000E+00;  2.9630712E-07;  1.0000000E+04;  0.0000000E+00;  9.9957422E+03;  4.0778863E-01;  0.0000000E+00;  2.3968187E-01;  1.7231973E+03;
  7.5998825E-01;  9.9999998E-03; -8.0007561E-02;2218; -1.1919122E-02;  0.0000000E+00; -1.1817714E-02;  1.0088820E+03;  4.0380517E-01;  7.3571904E+03;3; -8.1691904E+00;  0.0000000E+00; -1.2788749E+01;0;  6.0099769E-01;  9.9908887E+03;  0.0000000E+00;  1.0617799E-07;  1.0000000E+04;  0.0000000E+00;  9.9966064E+03;  3.9955118E-01;  0.0000000E+00;  2.0144647E-01;  1.3496288E+03;
  7.5998837E-01;  9.9999998E-03; -6.0004711E-02;2219; -1.1669680E-02;  0.0000000E+00; -7.7933818E-03;  1.0089216E+03;  4.0380514E-01;  7.3899736E+03;3; -7.8871207E+00;  0.0000000E+00; -9.0261030E+00;0;  5.6115174E-01;  9.9909854E+03;  0.0000000E+00;  2.6699229E-08;  1.0000000E+04;  0.0000000E+00;  9.9972998E+03;  3.9356756E-01;  0.0000000E+00;  1.6758421E-01;  1.0544066E+03;
  7.5998849E-01;  9.9999998E-03; -4.0002711E-02;2220; -1.1505586E-02;  0.0000000E+00; -4.7204732E-03;  1.0089516E+03;  4.0380511E-01;  7.4147583E+03;3; -7.6876469E+00;  0.0000000E+00; -5.7783303E+00;0;  5.3002894E-01;  9.9910459E+03;  0.0000000E+00;  2.9928340E-09;  1.0000000E+04;  0.0000000E+00;  9.9978320E+03;  3.8955981E-01;  0.0000000E+00;  1.4046913E-01;  8.2977344E+02;
  7.5998855E-01;  9.9999998E-03; -2.0001234E-02;2221; -1.1411821E-02;  0.0000000E+00; -2.2309176E-03;  1.0089705E+03;  4.0380514E-01;  7.4304585E+03;3; -7.5677533E+00;  0.0000000E+00; -2.8287432E+00;0;  5.1015097E-01;  9.9910830E+03;  0.0000000E+00;  6.3581383E-11;  1.0000000E+04;  0.0000000E+00;  9.9981709E+03;  3.8727129E-01;  0.0000000E+00;  1.2287966E-01;  6.8690918E+02;
  7.7999538E-01;  9.9999998E-03; -1.8003632E-01;2244; -5.3063980E-03;  0.0000000E+00; -4.6510354E-02;  1.0084460E+03;  4.0381545E-01;  6.9956147E+03;3; -4.2152233E+00;  0.0000000E+00; -3.7125355E+01;0;  8.5710859E-01;  9.9904580E+03;  0.0000000E+00;  4.9336501E-07;  1.0000000E+04;  0.0000000E+00;  9.9878877E+03;  4.3992266E-01;  0.0000000E+00;  4.1718593E-01;  5.3849346E+03;
  7.7999562E-01;  9.9999998E-03; -1.6002937E-01;2245; -4.9703033E-03;  0.0000000E+00; -3.9069686E-02;  1.0086001E+03;  4.0381533E-01;  7.1231831E+03;3; -3.9860764E+00;  0.0000000E+00; -3.3080624E+01;0;  8.0285120E-01;  9.9907490E+03;  0.0000000E+00;  5.2638194E-07;  1.0000000E+04;  0.0000000E+00;  9.9906572E+03;  4.2349732E-01;  0.0000000E+00;  3.7935391E-01;  4.0561953E+03;
  7.7999592E-01;  9.9999998E-03; -1.4002302E-01;2246; -4.6447571E-03;  0.0000000E+00; -3.1544201E-02;  1.0087252E+03;  4.0381515E-01;  7.2267573E+03;3; -3.7356386E+00;  0.0000000E+00; -2.8132744E+01;0;  7.4229705E-01;  9.9910117E+03;  0.0000000E+00;  4.1573998E-07;  1.0000000E+04;  0.0000000E+00;  9.9928828E+03;  4.0826288E-01;  0.0000000E+00;  3.3403417E-01;  3.0115588E+03;
  7.7999610E-01;  9.9999998E-03; -1.2001698E-01;2247; -4.3657045E-03;  0.0000000E+00; -2.4090314E-02;  1.0088170E+03;  4.0381503E-01;  7.3027852E+03;3; -3.4981768E+00;  0.0000000E+00; -2.2756622E+01;0;  6.8368757E-01;  9.9912344E+03;  0.0000000E+00;  2.5126675E-07;  1.0000000E+04;  0.0000000E+00;  9.9944834E+03;  3.9504167E-01;  0.0000000E+00;  2.8864586E-01;  2.2797029E+03;
  7.7999628E-01;  9.9999998E-03; -1.0001180E-01;2248; -4.1460325E-03;  0.0000000E+00; -1.7488074E-02;  1.0088835E+03;  4.0381494E-01;  7.3579790E+03;3; -3.2917678E+00;  0.0000000E+00; -1.7640263E+01;0;  6.3054037E-01;  9.9914150E+03;  0.0000000E+00;  1.2030728E-07;  1.0000000E+04;  0.0000000E+00;  9.9956279E+03;  3.8424727E-01;  0.0000000E+00;  2.4629310E-01;  1.7705945E+03;
  7.7999640E-01;  9.9999998E-03; -8.0007754E-02;2249; -3.9821872E-03;  0.0000000E+00; -1.2123829E-02;  1.0089346E+03;  4.0381485E-01;  7.4002383E+03;3; -3.1212807E+00;  0.0000000E+00; -1.3128112E+01;0;  5.8320296E-01;  9.9915479E+03;  0.0000000E+00;  4.6635659E-08;  1.0000000E+04;  0.0000000E+00;  9.9965098E+03;  3.7592998E-01;  0.0000000E+00;  2.0727299E-01;  1.3894415E+03;
  7.7999645E-01;  9.9999998E-03; -6.0004834E-02;2250; -3.8643416E-03;  0.0000000E+00; -8.0050547E-03;  1.0089751E+03;  4.0381479E-01;  7.4338091E+03;3; -2.9864361E+00;  0.0000000E+00; -9.2804165E+00;0;  5.4242355E-01;  9.9916426E+03;  0.0000000E+00;  1.4423577E-08;  1.0000000E+04;  0.0000000E+00;  9.9972217E+03;  3.6989948E-01;  0.0000000E+00;  1.7252405E-01;  1.0866962E+03;
  7.7999651E-01;  9.9999998E-03; -4.0002782E-02;2251; -3.7840179E-03;  0.0000000E+00; -4.8546549E-03;  1.0090057E+03;  4.0381485E-01;  7.4591846E+03;3; -2.8871984E+00;  0.0000000E+00; -5.9494319E+00;0;  5.1048458E-01;  9.9917031E+03;  0.0000000E+00;  3.7377594E-09;  1.0000000E+04;  0.0000000E+00;  9.9977705E+03;  3.6587015E-01;  0.0000000E+00;  1.4461443E-01;  8.5561511E+02;
  7.7999651E-01;  9.9999998E-03; -2.0001270E-02;2252; -3.7367258E-03;  0.0000000E+00; -2.2964587E-03;  1.0090251E+03;  4.0381479E-01;  7.4751797E+03;3; -2.8258193E+00;  0.0000000E+00; -2.9153247E+00;0;  4.9005908E-01;  9.9917393E+03;  0.0000000E+00;  8.0883250E-10;  1.0000000E+04;  0.0000000E+00;  9.9981191E+03;  3.6357552E-01;  0.0000000E+00;  1.2648357E-01;  7.0842010E+02;
  8.0000287E-01;  9.9999998E-03; -1.8003644E-01;2275;  2.5034507E-03;  0.0000000E+00; -4.6620954E-02;  1.0084984E+03;  4.0381798E-01;  7.0383208E+03;3;  1.2047881E+00;  0.0000000E+00; -3.7139378E+01;0;  8.1912243E-01;  9.9913965E+03;  0.0000000E+00; -3.0260455E-08;  1.0000000E+04;  0.0000000E+00;  9.9878623E+03;  4.0145287E-01;  0.0000000E+00;  4.1766956E-01;  5.3914131E+03;
  8.0000281E-01;  9.9999998E-03; -1.6002952E-01;2276;  2.3947377E-03;  0.0000000E+00; -3.9230227E-02;  1.0086512E+03;  4.0381777E-01;  7.1647915E+03;3;  1.0901067E+00;  0.0000000E+00; -3.3164948E+01;0;  7.6646245E-01;  9.9916670E+03;  0.0000000E+00;  1.3213106E-08;  1.0000000E+04;  0.0000000E+00;  9.9906309E+03;  3.8604128E-01;  0.0000000E+00;  3.8042113E-01;  4.0658579E+03;
  8.0000275E-01;  9.9999998E-03; -1.4002316E-01;2277;  2.3288119E-03;  0.0000000E+00; -3.1710997E-02;  1.0087753E+03;  4.0381762E-01;  7.2675674E+03;3;  1.0161703E+00;  0.0000000E+00; -2.8250034E+01;0;  7.0726430E-01;  9.9919170E+03;  0.0000000E+00;  3.3693080E-08;  1.0000000E+04;  0.0000000E+00;  9.9928496E+03;  3.7156206E-01;  0.0000000E+00;  3.3570227E-01;  3.0250129E+03;
  8.0000269E-01;  9.9999998E-03; -1.2001709E-01;2278;  2.2889469E-03;  0.0000000E+00; -2.4236064E-02;  1.0088662E+03;  4.0381747E-01;  7.3428970E+03;3;  9.7010213E-01;  0.0000000E+00; -2.2878918E+01;0;  6.4966357E-01;  9.9921279E+03;  0.0000000E+00;  2.7542674E-08;  1.0000000E+04;  0.0000000E+00;  9.9944443E+03;  3.5892412E-01;  0.0000000E+00;  2.9073948E-01;  2.2957983E+03;
  8.0000269E-01;  9.9999998E-03; -1.0001188E-01;2279;  2.2655507E-03;  0.0000000E+00; -1.7605010E-02;  1.0089323E+03;  4.0381739E-01;  7.3976909E+03;3;  9.4405276E-01;  0.0000000E+00; -1.7754251E+01;0;  5.9712392E-01;  9.9922959E+03;  0.0000000E+00;  1.4688662E-08;  1.0000000E+04;  0.0000000E+00;  9.9955889E+03;  3.4858787E-01;  0.0000000E+00;  2.4853607E-01;  1.7873418E+03;
  8.0000269E-01;  9.9999998E-03; -8.0007814E-02;2280;  2.2543690E-03;  0.0000000E+00; -1.2214283E-02;  1.0089832E+03;  4.0381739E-01;  7.4398477E+03;3;  9.3347687E-01;  0.0000000E+00; -1.3228608E+01;0;  5.5003977E-01;  9.9924248E+03;  0.0000000E+00;  6.2620349E-09;  1.0000000E+04;  0.0000000E+00;  9.9964756E+03;  3.4062105E-01;  0.0000000E+00;  2.0941868E-01;  1.4051074E+03;
  8.0000269E-01;  9.9999998E-03; -6.0004875E-02;2281;  2.2522088E-03;  0.0000000E+00; -8.0727469E-03;  1.0090237E+03;  4.0381742E-01;  7.4734150E+03;3;  9.3412822E-01;  0.0000000E+00; -9.3635197E+00;0;  5.0928366E-01;  9.9925137E+03;  0.0000000E+00;  2.5329403E-09;  1.0000000E+04;  0.0000000E+00;  9.9971934E+03;  3.3484682E-01;  0.0000000E+00;  1.7443681E-01;  1.1003729E+03;
  8.0000269E-01;  9.9999998E-03; -4.0002808E-02;2282;  2.2551357E-03;  0.0000000E+00; -4.9008410E-03;  1.0090545E+03;  4.0381736E-01;  7.4988872E+03;3;  9.4068795E-01;  0.0000000E+00; -6.0098820E+00;0;  4.7726962E-01;  9.9925723E+03;  0.0000000E+00;  9.0373714E-10;  1.0000000E+04;  0.0000000E+00;  9.9977441E+03;  3.3099291E-01;  0.0000000E+00;  1.4627671E-01;  8.6724927E+02;
  8.0000269E-01;  9.9999998E-03; -2.0001283E-02;2283;  2.2590386E-03;  0.0000000E+00; -2.3201695E-03;  1.0090740E+03;  4.0381724E-01;  7.5149795E+03;3;  9.4748396E-01;  0.0000000E+00; -2.9474182E+00;0;  4.5676398E-01;  9.9926064E+03;  0.0000000E+00;  2.9173919E-10;  1.0000000E+04;  0.0000000E+00;  9.9980977E+03;  3.2879981E-01;  0.0000000E+00;  1.2796415E-01;  7.1859357E+02;
  8.2000977E-01;  9.9999998E-03; -1.8003610E-01;2306;  9.7192209E-03;  0.0000000E+00; -4.6150312E-02;  1.0085405E+03;  4.0381387E-01;  7.0723042E+03;3;  6.2644486E+00;  0.0000000E+00; -3.6723721E+01;0;  7.7481884E-01;  9.9923105E+03;  0.0000000E+00; -4.7534959E-07;  1.0000000E+04;  0.0000000E+00;  9.9879863E+03;  3.6154971E-01;  0.0000000E+00;  4.1326913E-01;  5.3299302E+03;
  8.2000935E-01;  9.9999998E-03; -1.6002925E-01;2307;  9.2159882E-03;  0.0000000E+00; -3.8856801E-02;  1.0086906E+03;  4.0381366E-01;  7.1965879E+03;3;  5.8468227E+00;  0.0000000E+00; -3.2817394E+01;0;  7.2390831E-01;  9.9925615E+03;  0.0000000E+00; -2.8155503E-07;  1.0000000E+04;  0.0000000E+00;  9.9907227E+03;  3.4726807E-01;  0.0000000E+00;  3.7664023E-01;  4.0218208E+03;
  8.2000905E-01;  9.9999998E-03; -1.4002296E-01;2308;  8.8022156E-03;  0.0000000E+00; -3.1423170E-02;  1.0088123E+03;  4.0381348E-01;  7.2973765E+03;3;  5.4864330E+00;  0.0000000E+00; -2.7970652E+01;0;  6.6656113E-01;  9.9927920E+03;  0.0000000E+00; -9.1529657E-08;  1.0000000E+04;  0.0000000E+00;  9.9929141E+03;  3.3379644E-01;  0.0000000E+00;  3.3276469E-01;  2.9960071E+03;
  8.2000881E-01;  9.9999998E-03; -1.2001694E-01;2309;  8.4793903E-03;  0.0000000E+00; -2.4021842E-02;  1.0089014E+03;  4.0381336E-01;  7.3711177E+03;3;  5.1902652E+00;  0.0000000E+00; -2.2662706E+01;0;  6.1062968E-01;  9.9929883E+03;  0.0000000E+00; -1.9625164E-08;  1.0000000E+04;  0.0000000E+00;  9.9944844E+03;  3.2202742E-01;  0.0000000E+00;  2.8860223E-01;  2.2776055E+03;
  8.2000864E-01;  9.9999998E-03; -1.0001177E-01;2310;  8.2403803E-03;  0.0000000E+00; -1.7453738E-02;  1.0089662E+03;  4.0381324E-01;  7.4248188E+03;3;  4.9588881E+00;  0.0000000E+00; -1.7595495E+01;0;  5.5940896E-01;  9.9931455E+03;  0.0000000E+00; -2.3861293E-09;  1.0000000E+04;  0.0000000E+00;  9.9956182E+03;  3.1239739E-01;  0.0000000E+00;  2.4701157E-01;  1.7760663E+03;
  8.2000858E-01;  9.9999998E-03; -8.0007747E-02;2311;  8.0733029E-03;  0.0000000E+00; -1.2114708E-02;  1.0090163E+03;  4.0381324E-01;  7.4662798E+03;3;  4.7875199E+00;  0.0000000E+00; -1.3119844E+01;0;  5.1328933E-01;  9.9932646E+03;  0.0000000E+00; -7.1595679E-10;  1.0000000E+04;  0.0000000E+00;  9.9964932E+03;  3.0496925E-01;  0.0000000E+00;  2.0832010E-01;  1.3981031E+03;
  8.2000846E-01;  9.9999998E-03; -6.0004834E-02;2312;  7.9634832E-03;  0.0000000E+00; -8.0123497E-03;  1.0090564E+03;  4.0381324E-01;  7.4995469E+03;3;  4.6680317E+00;  0.0000000E+00; -9.2949362E+00;0;  4.7320825E-01;  9.9933467E+03;  0.0000000E+00; -6.8139777E-10;  1.0000000E+04;  0.0000000E+00;  9.9972051E+03;  2.9957861E-01;  0.0000000E+00;  1.7362966E-01;  1.0960892E+03;
  8.2000846E-01;  9.9999998E-03; -4.0002789E-02;2313;  7.8963889E-03;  0.0000000E+00; -4.8679169E-03;  1.0090867E+03;  4.0381321E-01;  7.5246206E+03;3;  4.5909028E+00;  0.0000000E+00; -5.9711757E+00;0;  4.4164133E-01;  9.9934033E+03;  0.0000000E+00; -6.6115358E-10;  1.0000000E+04;  0.0000000E+00;  9.9977549E+03;  2.9597497E-01;  0.0000000E+00;  1.4566638E-01;  8.6473657E+02;
  8.2000840E-01;  9.9999998E-03; -2.0001274E-02;2314;  7.8606810E-03;  0.0000000E+00; -2.3060020E-03;  1.0091060E+03;  4.0381315E-01;  7.5405142E+03;3;  4.5479755E+00;  0.0000000E+00; -2.9302666E+00;0;  4.2139286E-01;  9.9934336E+03;  0.0000000E+00; -1.6148557E-10;  1.0000000E+04;  0.0000000E+00;  9.9981055E+03;  2.9392183E-01;  0.0000000E+00;  1.2747104E-01;  7.1712140E+02;
  8.4001672E-01;  9.9999998E-03; -1.8003532E-01;2337;  1.7027128E-02;  0.0000000E+00; -4.5148682E-02;  1.0084405E+03;  4.0375227E-01;  6.9883257E+03;3;  1.1386477E+01;  0.0000000E+00; -3.5920452E+01;0;  7.2886288E-01;  9.9931279E+03;  0.0000000E+00; -8.2546848E-07;  1.0000000E+04;  0.0000000E+00;  9.9882412E+03;  3.2423890E-01;  0.0000000E+00;  4.0462396E-01;  5.2069473E+03;
  8.4001607E-01;  9.9999998E-03; -1.6002862E-01;2338;  1.6157825E-02;  0.0000000E+00; -3.8012881E-02;  1.0085871E+03;  4.0375203E-01;  7.1097266E+03;3;  1.0682753E+01;  0.0000000E+00; -3.2093697E+01;0;  6.7961633E-01;  9.9933604E+03;  0.0000000E+00; -4.1928953E-07;  1.0000000E+04;  0.0000000E+00;  9.9909189E+03;  3.1091660E-01;  0.0000000E+00;  3.6869976E-01;  3.9294326E+03;
  8.4001553E-01;  9.9999998E-03; -1.4002247E-01;2339;  1.5427232E-02;  0.0000000E+00; -3.0739000E-02;  1.0087054E+03;  4.0375179E-01;  7.2076362E+03;3;  1.0059645E+01;  0.0000000E+00; -2.7349617E+01;0;  6.2429029E-01;  9.9935771E+03;  0.0000000E+00; -4.5781377E-08;  1.0000000E+04;  0.0000000E+00;  9.9930576E+03;  2.9840466E-01;  0.0000000E+00;  3.2588562E-01;  2.9288970E+03;
  8.4001511E-01;  9.9999998E-03; -1.2001657E-01;2340;  1.4850289E-02;  0.0000000E+00; -2.3495544E-02;  1.0087919E+03;  4.0375173E-01;  7.2792925E+03;3;  9.5385065E+00;  0.0000000E+00; -2.2156368E+01;0;  5.7034278E-01;  9.9937598E+03;  0.0000000E+00;  5.0105200E-08;  1.0000000E+04;  0.0000000E+00;  9.9945957E+03;  2.8751054E-01;  0.0000000E+00;  2.8283224E-01;  2.2286877E+03;
  8.4001482E-01;  9.9999998E-03; -1.0001152E-01;2341;  1.4418876E-02;  0.0000000E+00; -1.7070111E-02;  1.0088549E+03;  4.0375164E-01;  7.3314058E+03;3;  9.1239376E+00;  0.0000000E+00; -1.7202723E+01;0;  5.2084351E-01;  9.9939063E+03;  0.0000000E+00;  4.0274269E-08;  1.0000000E+04;  0.0000000E+00;  9.9957031E+03;  2.7860913E-01;  0.0000000E+00;  2.4223436E-01;  1.7396692E+03;
  8.4001458E-01;  9.9999998E-03; -8.0007575E-02;2342;  1.4112859E-02;  0.0000000E+00; -1.1849840E-02;  1.0089035E+03;  4.0375164E-01;  7.3716753E+03;3;  8.8095427E+00;  0.0000000E+00; -1.2830503E+01;0;  4.7613832E-01;  9.9940166E+03;  0.0000000E+00;  1.6634583E-08;  1.0000000E+04;  0.0000000E+00;  9.9965586E+03;  2.7173781E-01;  0.0000000E+00;  2.0440051E-01;  1.3707069E+03;
  8.4001446E-01;  9.9999998E-03; -6.0004734E-02;2343;  1.3906782E-02;  0.0000000E+00; -7.8398436E-03;  1.0089425E+03;  4.0375155E-01;  7.4039497E+03;3;  8.5828667E+00;  0.0000000E+00; -9.0944023E+00;0;  4.3717575E-01;  9.9940938E+03;  0.0000000E+00;  2.9041101E-09;  1.0000000E+04;  0.0000000E+00;  9.9972549E+03;  2.6673824E-01;  0.0000000E+00;  1.7043753E-01;  1.0755560E+03;
  8.4001440E-01;  9.9999998E-03; -4.0002730E-02;2344;  1.3776762E-02;  0.0000000E+00; -4.7652819E-03;  1.0089722E+03;  4.0375149E-01;  7.4286250E+03;3;  8.4307442E+00;  0.0000000E+00; -5.8454919E+00;0;  4.0642858E-01;  9.9941465E+03;  0.0000000E+00; -2.4771638E-10;  1.0000000E+04;  0.0000000E+00;  9.9977939E+03;  2.6338378E-01;  0.0000000E+00;  1.4304481E-01;  8.4932507E+02;
  8.4001434E-01;  9.9999998E-03; -2.0001248E-02;2345;  1.3705323E-02;  0.0000000E+00; -2.2582661E-03;  1.0089910E+03;  4.0375152E-01;  7.4441206E+03;3;  8.3431911E+00;  0.0000000E+00; -2.8698301E+00;0;  3.8668373E-01;  9.9941738E+03;  0.0000000E+00;  3.2054571E-11;  1.0000000E+04;  0.0000000E+00;  9.9981396E+03;  2.6146588E-01;  0.0000000E+00;  1.2521785E-01;  7.0494720E+02;
  8.6002380E-01;  9.9999998E-03; -1.8003413E-01;2368;  2.4377463E-02;  0.0000000E+00; -4.3646123E-02;  1.0081969E+03;  4.0363091E-01;  6.7851685E+03;3;  1.6518518E+01;  0.0000000E+00; -3.4744041E+01;0;  6.7825663E-01;  9.9939307E+03;  0.0000000E+00; -1.2412168E-06;  1.0000000E+04;  0.0000000E+00;  9.9886172E+03;  2.8636703E-01;  0.0000000E+00;  3.9188963E-01;  5.0247070E+03;
  8.6002284E-01;  9.9999998E-03; -1.6002765E-01;2369;  2.3163848E-02;  0.0000000E+00; -3.6739528E-02;  1.0083386E+03;  4.0363064E-01;  6.9023970E+03;3;  1.5539027E+01;  0.0000000E+00; -3.1023857E+01;0;  6.3058650E-01;  9.9941563E+03;  0.0000000E+00; -5.7473221E-07;  1.0000000E+04;  0.0000000E+00;  9.9912119E+03;  2.7370435E-01;  0.0000000E+00;  3.5688213E-01;  3.7912478E+03;
  8.6002207E-01;  9.9999998E-03; -1.4002171E-01;2370;  2.2142502E-02;  0.0000000E+00; -2.9700585E-02;  1.0084529E+03;  4.0363047E-01;  6.9970288E+03;3;  1.4671389E+01;  0.0000000E+00; -2.6422911E+01;0;  5.7740617E-01;  9.9943604E+03;  0.0000000E+00;  2.3275499E-08;  1.0000000E+04;  0.0000000E+00;  9.9932832E+03;  2.6197305E-01;  0.0000000E+00;  3.1543314E-01;  2.8265730E+03;
  8.6002153E-01;  9.9999998E-03; -1.2001601E-01;2371;  2.1336397E-02;  0.0000000E+00; -2.2693509E-02;  1.0085364E+03;  4.0363047E-01;  7.0662021E+03;3;  1.3945886E+01;  0.0000000E+00; -2.1394354E+01;0;  5.2569389E-01;  9.9945322E+03;  0.0000000E+00;  1.4266793E-07;  1.0000000E+04;  0.0000000E+00;  9.9947686E+03;  2.5185281E-01;  0.0000000E+00;  2.7384105E-01;  2.1521084E+03;
  8.6002111E-01;  9.9999998E-03; -1.0001113E-01;2372;  2.0733070E-02;  0.0000000E+00; -1.6481986E-02;  1.0085970E+03;  4.0363035E-01;  7.1163301E+03;3;  1.3367304E+01;  0.0000000E+00; -1.6604843E+01;0;  4.7824034E-01;  9.9946680E+03;  0.0000000E+00;  9.1939334E-08;  1.0000000E+04;  0.0000000E+00;  9.9958359E+03;  2.4362424E-01;  0.0000000E+00;  2.3461610E-01;  1.6811433E+03;
  8.6002082E-01;  9.9999998E-03; -8.0007315E-02;2373;  2.0303313E-02;  0.0000000E+00; -1.1439393E-02;  1.0086439E+03;  4.0363038E-01;  7.1551104E+03;3;  1.2925428E+01;  0.0000000E+00; -1.2382809E+01;0;  4.3531555E-01;  9.9947734E+03;  0.0000000E+00;  3.5017472E-08;  1.0000000E+04;  0.0000000E+00;  9.9966650E+03;  2.3727818E-01;  0.0000000E+00;  1.9803737E-01;  1.3256511E+03;
  8.6002064E-01;  9.9999998E-03; -6.0004570E-02;2374;  2.0011595E-02;  0.0000000E+00; -7.5682439E-03;  1.0086814E+03;  4.0363029E-01;  7.1861938E+03;3;  1.2603478E+01;  0.0000000E+00; -8.7777529E+00;0;  3.9783755E-01;  9.9948467E+03;  0.0000000E+00;  7.1899184E-09;  1.0000000E+04;  0.0000000E+00;  9.9973379E+03;  2.3264851E-01;  0.0000000E+00;  1.6518904E-01;  1.0411604E+03;
  8.6002052E-01;  9.9999998E-03; -4.0002637E-02;2375;  1.9825598E-02;  0.0000000E+00; -4.6007885E-03;  1.0087101E+03;  4.0363026E-01;  7.2098765E+03;3;  1.2384809E+01;  0.0000000E+00; -5.6431298E+00;0;  3.6822367E-01;  9.9948945E+03;  0.0000000E+00; -9.0054703E-10;  1.0000000E+04;  0.0000000E+00;  9.9978604E+03;  2.2952805E-01;  0.0000000E+00;  1.3869563E-01;  8.2308423E+02;
  8.6002046E-01;  9.9999998E-03; -2.0001205E-02;2376;  1.9722292E-02;  0.0000000E+00; -2.1806154E-03;  1.0087282E+03;  4.0363020E-01;  7.2249741E+03;3;  1.2257561E+01;  0.0000000E+00; -2.7709603E+00;0;  3.4919298E-01;  9.9949219E+03;  0.0000000E+00; -9.5116796E-11;  1.0000000E+04;  0.0000000E+00;  9.9981934E+03;  2.2773586E-01;  0.0000000E+00;  1.2145713E-01;  6.8392883E+02;
  8.8003045E-01;  9.9999998E-03; -1.8003257E-01;2399;  3.1307131E-02;  0.0000000E+00; -4.1673657E-02;  1.0078333E+03;  4.0345681E-01;  6.4822495E+03;3;  2.1348988E+01;  0.0000000E+00; -3.3207863E+01;0;  6.1784190E-01;  9.9948486E+03;  0.0000000E+00; -1.8130796E-06;  1.0000000E+04;  0.0000000E+00;  9.9891152E+03;  2.4269612E-01;  0.0000000E+00;  3.7514579E-01;  4.7855190E+03;
  8.8002926E-01;  9.9999998E-03; -1.6002640E-01;2400;  2.9777706E-02;  0.0000000E+00; -3.5074092E-02;  1.0079694E+03;  4.0345660E-01;  6.5948081E+03;3;  2.0111378E+01;  0.0000000E+00; -2.9632605E+01;0;  5.7180703E-01;  9.9950693E+03;  0.0000000E+00; -8.9292547E-07;  1.0000000E+04;  0.0000000E+00;  9.9915986E+03;  2.3043019E-01;  0.0000000E+00;  3.4137681E-01;  3.6098145E+03;
  8.8002831E-01;  9.9999998E-03; -1.4002071E-01;2401;  2.8495153E-02;  0.0000000E+00; -2.8344920E-02;  1.0080786E+03;  4.0345648E-01;  6.6851694E+03;3;  1.9021196E+01;  0.0000000E+00; -2.5219879E+01;0;  5.2104521E-01;  9.9952666E+03;  0.0000000E+00;  6.5143886E-09;  1.0000000E+04;  0.0000000E+00;  9.9935771E+03;  2.1935514E-01;  0.0000000E+00;  3.0169010E-01;  2.6919004E+03;
  8.8002759E-01;  9.9999998E-03; -1.2001527E-01;2402;  2.7486170E-02;  0.0000000E+00; -2.1647267E-02;  1.0081581E+03;  4.0345642E-01;  6.7509673E+03;3;  1.8113358E+01;  0.0000000E+00; -2.0404802E+01;0;  4.7194615E-01;  9.9954277E+03;  0.0000000E+00;  1.7474568E-07;  1.0000000E+04;  0.0000000E+00;  9.9949961E+03;  2.0997310E-01;  0.0000000E+00;  2.6197305E-01;  2.0509355E+03;
  8.8002706E-01;  9.9999998E-03; -1.0001061E-01;2403;  2.6731947E-02;  0.0000000E+00; -1.5713587E-02;  1.0082159E+03;  4.0345627E-01;  6.7988115E+03;3;  1.7390059E+01;  0.0000000E+00; -1.5825739E+01;0;  4.2694804E-01;  9.9955566E+03;  0.0000000E+00;  1.1014396E-07;  1.0000000E+04;  0.0000000E+00;  9.9960156E+03;  2.0242646E-01;  0.0000000E+00;  2.2452158E-01;  1.6035532E+03;
  8.8002670E-01;  9.9999998E-03; -8.0006972E-02;2404;  2.6194151E-02;  0.0000000E+00; -1.0900718E-02;  1.0082604E+03;  4.0345633E-01;  6.8357061E+03;3;  1.6836588E+01;  0.0000000E+00; -1.1795534E+01;0;  3.8621604E-01;  9.9956514E+03;  0.0000000E+00;  3.7573027E-08;  1.0000000E+04;  0.0000000E+00;  9.9968066E+03;  1.9663231E-01;  0.0000000E+00;  1.8958373E-01;  1.2658152E+03;
  8.8002646E-01;  9.9999998E-03; -6.0004354E-02;2405;  2.5827823E-02;  0.0000000E+00; -7.2092908E-03;  1.0082963E+03;  4.0345633E-01;  6.8653003E+03;3;  1.6431509E+01;  0.0000000E+00; -8.3588524E+00;0;  3.5061359E-01;  9.9957197E+03;  0.0000000E+00;  4.8083177E-09;  1.0000000E+04;  0.0000000E+00;  9.9974512E+03;  1.9240332E-01;  0.0000000E+00;  1.5821028E-01;  9.9552582E+02;
  8.8002634E-01;  9.9999998E-03; -4.0002510E-02;2406;  2.5593122E-02;  0.0000000E+00; -4.3817284E-03;  1.0083235E+03;  4.0345627E-01;  6.8877920E+03;3;  1.6154825E+01;  0.0000000E+00; -5.3731833E+00;0;  3.2246011E-01;  9.9957676E+03;  0.0000000E+00; -1.3785569E-10;  1.0000000E+04;  0.0000000E+00;  9.9979473E+03;  1.8954316E-01;  0.0000000E+00;  1.3291696E-01;  7.8840143E+02;
  8.8002628E-01;  9.9999998E-03; -2.0001147E-02;2407;  2.5462184E-02;  0.0000000E+00; -2.0766526E-03;  1.0083407E+03;  4.0345624E-01;  6.9020962E+03;3;  1.5993127E+01;  0.0000000E+00; -2.6383815E+00;0;  3.0436173E-01;  9.9957920E+03;  0.0000000E+00; -5.0040105E-10;  1.0000000E+04;  0.0000000E+00;  9.9982637E+03;  1.8789408E-01;  0.0000000E+00;  1.1646766E-01;  6.5629449E+02;
  9.0003622E-01;  9.9999998E-03; -1.8003069E-01;2430;  3.7271123E-02;  0.0000000E+00; -3.9280381E-02;  1.0073757E+03;  4.0323946E-01;  6.1010640E+03;3;  2.5522741E+01;  0.0000000E+00; -3.1342243E+01;0;  5.4566020E-01;  9.9959404E+03;  0.0000000E+00; -2.6375053E-06;  1.0000000E+04;  0.0000000E+00;  9.9897188E+03;  1.9096641E-01;  0.0000000E+00;  3.5469377E-01;  4.4944824E+03;
  9.0003479E-01;  9.9999998E-03; -1.6002487E-01;2431;  3.5463385E-02;  0.0000000E+00; -3.3063430E-02;  1.0075049E+03;  4.0323928E-01;  6.2079551E+03;3;  2.4055210E+01;  0.0000000E+00; -2.7953867E+01;0;  5.0155532E-01;  9.9961602E+03;  0.0000000E+00; -1.3550397E-06;  1.0000000E+04;  0.0000000E+00;  9.9920693E+03;  1.7902648E-01;  0.0000000E+00;  3.2252884E-01;  3.3895061E+03;
  9.0003365E-01;  9.9999998E-03; -1.4001952E-01;2432;  3.3951137E-02;  0.0000000E+00; -2.6713740E-02;  1.0076083E+03;  4.0323919E-01;  6.2934482E+03;3;  2.2767750E+01;  0.0000000E+00; -2.3774063E+01;0;  4.5371401E-01;  9.9963467E+03;  0.0000000E+00; -1.3789189E-07;  1.0000000E+04;  0.0000000E+00;  9.9939375E+03;  1.6867985E-01;  0.0000000E+00;  2.8503418E-01;  2.5287217E+03;
  9.0003282E-01;  9.9999998E-03; -1.2001439E-01;2433;  3.2762185E-02;  0.0000000E+00; -2.0390969E-02;  1.0076829E+03;  4.0323913E-01;  6.3551772E+03;3;  2.1697535E+01;  0.0000000E+00; -1.9217493E+01;0;  4.0779585E-01;  9.9964971E+03;  0.0000000E+00;  1.2715110E-07;  1.0000000E+04;  0.0000000E+00;  9.9952715E+03;  1.6017674E-01;  0.0000000E+00;  2.4761912E-01;  1.9286293E+03;
  9.0003216E-01;  9.9999998E-03; -1.0000999E-01;2434;  3.1870257E-02;  0.0000000E+00; -1.4791282E-02;  1.0077371E+03;  4.0323901E-01;  6.4000435E+03;3;  2.0842964E+01;  0.0000000E+00; -1.4890354E+01;0;  3.6581022E-01;  9.9966133E+03;  0.0000000E+00;  7.3922294E-08;  1.0000000E+04;  0.0000000E+00;  9.9962344E+03;  1.5347284E-01;  0.0000000E+00;  2.1233737E-01;  1.5100233E+03;
  9.0003175E-01;  9.9999998E-03; -8.0006562E-02;2435;  3.1231461E-02;  0.0000000E+00; -1.0253315E-02;  1.0077787E+03;  4.0323898E-01;  6.4344575E+03;3;  2.0185146E+01;  0.0000000E+00; -1.1088416E+01;0;  3.2779002E-01;  9.9967021E+03;  0.0000000E+00;  1.4906885E-08;  1.0000000E+04;  0.0000000E+00;  9.9969785E+03;  1.4838383E-01;  0.0000000E+00;  1.7940621E-01;  1.1939987E+03;
  9.0003151E-01;  9.9999998E-03; -6.0004096E-02;2436;  3.0794526E-02;  0.0000000E+00; -6.7771734E-03;  1.0078123E+03;  4.0323904E-01;  6.4621665E+03;3;  1.9702957E+01;  0.0000000E+00; -7.8524313E+00;0;  2.9452699E-01;  9.9967627E+03;  0.0000000E+00; -3.8467132E-09;  1.0000000E+04;  0.0000000E+00;  9.9975830E+03;  1.4468686E-01;  0.0000000E+00;  1.4984015E-01;  9.4113770E+02;
  9.0003133E-01;  9.9999998E-03; -4.0002361E-02;2437;  3.0513557E-02;  0.0000000E+00; -4.1177389E-03;  1.0078380E+03;  4.0323898E-01;  6.4834658E+03;3;  1.9372147E+01;  0.0000000E+00; -5.0457821E+00;0;  2.6820934E-01;  9.9968057E+03;  0.0000000E+00; -2.2291675E-09;  1.0000000E+04;  0.0000000E+00;  9.9980488E+03;  1.4218836E-01;  0.0000000E+00;  1.2602100E-01;  7.4749744E+02;
  9.0003121E-01;  9.9999998E-03; -2.0001078E-02;2438;  3.0355822E-02;  0.0000000E+00; -1.9511692E-03;  1.0078541E+03;  4.0323904E-01;  6.4967778E+03;3;  1.9178572E+01;  0.0000000E+00; -2.4773810E+00;0;  2.5128913E-01;  9.9968291E+03;  0.0000000E+00; -8.5588986E-10;  1.0000000E+04;  0.0000000E+00;  9.9983496E+03;  1.4074659E-01;  0.0000000E+00;  1.1054253E-01;  6.2408978E+02;
  9.2004013E-01;  9.9999998E-03; -1.8002854E-01;2461;  4.1271918E-02;  0.0000000E+00; -3.6561582E-02;  1.0068483E+03;  4.0298989E-01;  5.6616255E+03;3;  2.8273987E+01;  0.0000000E+00; -2.9208658E+01;0;  4.6523488E-01;  9.9971504E+03;  0.0000000E+00; -3.4222935E-06;  1.0000000E+04;  0.0000000E+00;  9.9904141E+03;  1.3407217E-01;  0.0000000E+00;  3.3116272E-01;  4.1604229E+03;
  9.2003834E-01;  9.9999998E-03; -1.6002317E-01;2462;  3.9016206E-02;  0.0000000E+00; -3.0787352E-02;  1.0069694E+03;  4.0298977E-01;  5.7618555E+03;3;  2.6433165E+01;  0.0000000E+00; -2.6035666E+01;0;  4.2359030E-01;  9.9973662E+03;  0.0000000E+00; -1.7774162E-06;  1.0000000E+04;  0.0000000E+00;  9.9926074E+03;  1.2265502E-01;  0.0000000E+00;  3.0093530E-01;  3.1371804E+03;
  9.2003697E-01;  9.9999998E-03; -1.4001819E-01;2463;  3.7177127E-02;  0.0000000E+00; -2.4875540E-02;  1.0070654E+03;  4.0298969E-01;  5.8411914E+03;3;  2.4878483E+01;  0.0000000E+00; -2.2126995E+01;0;  3.7934625E-01;  9.9975391E+03;  0.0000000E+00; -3.0154249E-07;  1.0000000E+04;  0.0000000E+00;  9.9943477E+03;  1.1333226E-01;  0.0000000E+00;  2.6601398E-01;  2.3422629E+03;
  9.2003590E-01;  9.9999998E-03; -1.2001342E-01;2464;  3.5722643E-02;  0.0000000E+00; -1.8991958E-02;  1.0071343E+03;  4.0298960E-01;  5.8981553E+03;3;  2.3587616E+01;  0.0000000E+00; -1.7875011E+01;0;  3.3730382E-01;  9.9976729E+03;  0.0000000E+00;  3.5325339E-08;  1.0000000E+04;  0.0000000E+00;  9.9955889E+03;  1.0602814E-01;  0.0000000E+00;  2.3127568E-01;  1.7892349E+03;
  9.2003512E-01;  9.9999998E-03; -1.0000934E-01;2465;  3.4589492E-02;  0.0000000E+00; -1.3791101E-02;  1.0071843E+03;  4.0298957E-01;  5.9394502E+03;3;  2.2533773E+01;  0.0000000E+00; -1.3842959E+01;0;  2.9898500E-01;  9.9977715E+03;  0.0000000E+00;  1.9821970E-08;  1.0000000E+04;  0.0000000E+00;  9.9964795E+03;  1.0047338E-01;  0.0000000E+00;  1.9851163E-01;  1.4037905E+03;
  9.2003453E-01;  9.9999998E-03; -8.0006167E-02;2466;  3.3735115E-02;  0.0000000E+00; -9.5871761E-03;  1.0072225E+03;  4.0298951E-01;  5.9710859E+03;3;  2.1705946E+01;  0.0000000E+00; -1.0311923E+01;0;  2.6426959E-01;  9.9978438E+03;  0.0000000E+00; -8.2951495E-09;  1.0000000E+04;  0.0000000E+00;  9.9971680E+03;  9.6362084E-02;  0.0000000E+00;  1.6790751E-01;  1.1128390E+03;
  9.2003411E-01;  9.9999998E-03; -6.0003877E-02;2467;  3.3118013E-02;  0.0000000E+00; -6.3635209E-03;  1.0072534E+03;  4.0298951E-01;  5.9966113E+03;3;  2.1067371E+01;  0.0000000E+00; -7.3150592E+00;0;  2.3386195E-01;  9.9978945E+03;  0.0000000E+00; -6.3703802E-09;  1.0000000E+04;  0.0000000E+00;  9.9977314E+03;  9.3425505E-02;  0.0000000E+00;  1.4043646E-01;  8.8014337E+02;
  9.2003387E-01;  9.9999998E-03; -4.0002253E-02;2468;  3.2712396E-02;  0.0000000E+00; -3.8841064E-03;  1.0072767E+03;  4.0298951E-01;  6.0159277E+03;3;  2.0629055E+01;  0.0000000E+00; -4.7082028E+00;0;  2.0978764E-01;  9.9979277E+03;  0.0000000E+00;  1.5055607E-09;  1.0000000E+04;  0.0000000E+00;  9.9981641E+03;  9.1462046E-02;  0.0000000E+00;  1.1832560E-01;  7.0212848E+02;
  9.2003369E-01;  9.9999998E-03; -2.0001037E-02;2469;  3.2482952E-02;  0.0000000E+00; -1.8469229E-03;  1.0072916E+03;  4.0298945E-01;  6.0281484E+03;3;  2.0373714E+01;  0.0000000E+00; -2.3139925E+00;0;  1.9430861E-01;  9.9979453E+03;  0.0000000E+00;  1.5406828E-09;  1.0000000E+04;  0.0000000E+00;  9.9984404E+03;  9.0336204E-02;  0.0000000E+00;  1.0397240E-01;  5.8880994E+02;
  9.4004124E-01;  9.9999998E-03; -1.8002631E-01;2492;  4.2252332E-02;  0.0000000E+00; -3.3664137E-02;  1.0062723E+03;  4.0272021E-01;  5.1816914E+03;3;  2.8795021E+01;  0.0000000E+00; -2.6896568E+01;0;  3.8412476E-01;  9.9983428E+03;  0.0000000E+00; -3.6010090E-06;  1.0000000E+04;  0.0000000E+00;  9.9911709E+03;  7.8648269E-02;  0.0000000E+00;  3.0547649E-01;  3.7956165E+03;
  9.4003922E-01;  9.9999998E-03; -1.6002138E-01;2493;  3.9737564E-02;  0.0000000E+00; -2.8358134E-02;  1.0063843E+03;  4.0272009E-01;  5.2742642E+03;3;  2.6823133E+01;  0.0000000E+00; -2.3951551E+01;0;  3.4548342E-01;  9.9985498E+03;  0.0000000E+00; -1.7969902E-06;  1.0000000E+04;  0.0000000E+00;  9.9931943E+03;  6.8059579E-02;  0.0000000E+00;  2.7742383E-01;  2.8620564E+03;
  9.4003767E-01;  9.9999998E-03; -1.4001681E-01;2494;  3.7729487E-02;  0.0000000E+00; -2.2920467E-02;  1.0064724E+03;  4.0272000E-01;  5.3469434E+03;3;  2.5174618E+01;  0.0000000E+00; -2.0342894E+01;0;  3.0543244E-01;  9.9987031E+03;  0.0000000E+00; -3.5921602E-07;  1.0000000E+04;  0.0000000E+00;  9.9947930E+03;  6.0090851E-02;  0.0000000E+00;  2.4534158E-01;  2.1391313E+03;
  9.4003648E-01;  9.9999998E-03; -1.2001243E-01;2495;  3.6139835E-02;  0.0000000E+00; -1.7520856E-02;  1.0065350E+03;  4.0271997E-01;  5.3986465E+03;3;  2.3812572E+01;  0.0000000E+00; -1.6427891E+01;0;  2.6784128E-01;  9.9988135E+03;  0.0000000E+00; -2.9454421E-08;  1.0000000E+04;  0.0000000E+00;  9.9959277E+03;  5.4297194E-02;  0.0000000E+00;  2.1354410E-01;  1.6374642E+03;
  9.4003558E-01;  9.9999998E-03; -1.0000870E-01;2496;  3.4908857E-02;  0.0000000E+00; -1.2757589E-02;  1.0065798E+03;  4.0271991E-01;  5.4357744E+03;3;  2.2702951E+01;  0.0000000E+00; -1.2730144E+01;0;  2.3372337E-01;  9.9988887E+03;  0.0000000E+00; -1.8933067E-08;  1.0000000E+04;  0.0000000E+00;  9.9967461E+03;  5.0168626E-02;  0.0000000E+00;  1.8355475E-01;  1.2882919E+03;
  9.4003487E-01;  9.9999998E-03; -8.0005795E-02;2497;  3.3978473E-02;  0.0000000E+00; -8.9104613E-03;  1.0066143E+03;  4.0271994E-01;  5.4641372E+03;3;  2.1841980E+01;  0.0000000E+00; -9.4854927E+00;0;  2.0279689E-01;  9.9989424E+03;  0.0000000E+00; -1.7568016E-08;  1.0000000E+04;  0.0000000E+00;  9.9973750E+03;  4.7274787E-02;  0.0000000E+00;  1.5552211E-01;  1.0248767E+03;
  9.4003445E-01;  9.9999998E-03; -6.0003687E-02;2498;  3.3305924E-02;  0.0000000E+00; -5.9546665E-03;  1.0066418E+03;  4.0271991E-01;  5.4869849E+03;3;  2.1204824E+01;  0.0000000E+00; -6.7395892E+00;0;  1.7566311E-01;  9.9989775E+03;  0.0000000E+00;  4.6141069E-09;  1.0000000E+04;  0.0000000E+00;  9.9978896E+03;  4.5297775E-02;  0.0000000E+00;  1.3036534E-01;  8.1438068E+02;
  9.4003415E-01;  9.9999998E-03; -4.0002175E-02;2499;  3.2851811E-02;  0.0000000E+00; -3.6575361E-03;  1.0066629E+03;  4.0271991E-01;  5.5043174E+03;3;  2.0728210E+01;  0.0000000E+00; -4.3404827E+00;0;  1.5416038E-01;  9.9990000E+03;  0.0000000E+00;  1.1882248E-08;  1.0000000E+04;  0.0000000E+00;  9.9982871E+03;  4.4021174E-02;  0.0000000E+00;  1.1013921E-01;  6.5357092E+02;
  9.4003397E-01;  9.9999998E-03; -2.0001011E-02;2500;  3.2598745E-02;  0.0000000E+00; -1.7473497E-03;  1.0066761E+03;  4.0271994E-01;  5.5153477E+03;3;  2.0465601E+01;  0.0000000E+00; -2.1361094E+00;0;  1.4033192E-01;  9.9990137E+03;  0.0000000E+00;  5.8080039E-09;  1.0000000E+04;  0.0000000E+00;  9.9985361E+03;  4.3306708E-02;  0.0000000E+00;  9.7025216E-02;  5.5135370E+02;
  9.6004099E-01;  9.9999998E-03; -1.8002400E-01;2523;  4.1958347E-02;  0.0000000E+00; -3.0660309E-02;  1.0056686E+03;  4.0244213E-01;  4.6782393E+03;3;  2.8630445E+01;  0.0000000E+00; -2.4495138E+01;0;  3.1010470E-01;  9.9993740E+03;  0.0000000E+00; -2.7846404E-06;  1.0000000E+04;  0.0000000E+00;  9.9919502E+03;  3.1351693E-02;  0.0000000E+00;  2.7875301E-01;  3.4147939E+03;
  9.6003884E-01;  9.9999998E-03; -1.6001955E-01;2524;  3.9380014E-02;  0.0000000E+00; -2.5853558E-02;  1.0057712E+03;  4.0244195E-01;  4.7630469E+03;3;  2.6634359E+01;  0.0000000E+00; -2.1809055E+01;0;  2.7466619E-01;  9.9995703E+03;  0.0000000E+00; -1.2344203E-06;  1.0000000E+04;  0.0000000E+00;  9.9937979E+03;  2.1691112E-02;  0.0000000E+00;  2.5297508E-01;  2.5751655E+03;
  9.6003723E-01;  9.9999998E-03; -1.4001538E-01;2525;  3.7315130E-02;  0.0000000E+00; -2.0901484E-02;  1.0058508E+03;  4.0244195E-01;  4.8286689E+03;3;  2.4970179E+01;  0.0000000E+00; -1.8512270E+01;0;  2.3899467E-01;  9.9997021E+03;  0.0000000E+00; -2.1611794E-07;  1.0000000E+04;  0.0000000E+00;  9.9952490E+03;  1.5160575E-02;  0.0000000E+00;  2.2383410E-01;  1.9270867E+03;
  9.6003598E-01;  9.9999998E-03; -1.2001140E-01;2526;  3.5689641E-02;  0.0000000E+00; -1.6001251E-02;  1.0059067E+03;  4.0244183E-01;  4.8748110E+03;3;  2.3599943E+01;  0.0000000E+00; -1.4949876E+01;0;  2.0602915E-01;  9.9997861E+03;  0.0000000E+00; -3.7942012E-08;  1.0000000E+04;  0.0000000E+00;  9.9962822E+03;  1.0939471E-02;  0.0000000E+00;  1.9508968E-01;  1.4786520E+03;
  9.6003503E-01;  9.9999998E-03; -1.0000801E-01;2527;  3.4436528E-02;  0.0000000E+00; -1.1679929E-02;  1.0059465E+03;  4.0244192E-01;  4.9076714E+03;3;  2.2500910E+01;  0.0000000E+00; -1.1576338E+01;0;  1.7628615E-01;  9.9998379E+03;  0.0000000E+00; -3.3672400E-08;  1.0000000E+04;  0.0000000E+00;  9.9970186E+03;  8.2789483E-03;  0.0000000E+00;  1.6800719E-01;  1.1672235E+03;
  9.6003437E-01;  9.9999998E-03; -8.0005370E-02;2528;  3.3488274E-02;  0.0000000E+00; -8.1855757E-03;  1.0059767E+03;  4.0244183E-01;  4.9326611E+03;3;  2.1597046E+01;  0.0000000E+00; -8.6462736E+00;0;  1.4932287E-01;  9.9998672E+03;  0.0000000E+00; -1.3429692E-08;  1.0000000E+04;  0.0000000E+00;  9.9975889E+03;  6.6316156E-03;  0.0000000E+00;  1.4269125E-01;  9.3267969E+02;
  9.6003389E-01;  9.9999998E-03; -6.0003445E-02;2529;  3.2819528E-02;  0.0000000E+00; -5.4859943E-03;  1.0060008E+03;  4.0244186E-01;  4.9524365E+03;3;  2.0928888E+01;  0.0000000E+00; -6.1453710E+00;0;  1.2562165E-01;  9.9998877E+03;  0.0000000E+00;  1.3258495E-08;  1.0000000E+04;  0.0000000E+00;  9.9980508E+03;  5.6370725E-03;  0.0000000E+00;  1.1998457E-01;  7.4556775E+02;
  9.6003360E-01;  9.9999998E-03; -4.0002044E-02;2530;  3.2377362E-02;  0.0000000E+00; -3.3770103E-03;  1.0060194E+03;  4.0244189E-01;  4.9677842E+03;3;  2.0478060E+01;  0.0000000E+00; -3.9564316E+00;0;  1.0681814E-01;  9.9998984E+03;  0.0000000E+00;  1.9664464E-08;  1.0000000E+04;  0.0000000E+00;  9.9984102E+03;  5.0664912E-03;  0.0000000E+00;  1.0175165E-01;  6.0289038E+02;
  9.6003342E-01;  9.9999998E-03; -2.0000955E-02;2531;  3.2125864E-02;  0.0000000E+00; -1.6152898E-03;  1.0060311E+03;  4.0244177E-01;  4.9774258E+03;3;  2.0211315E+01;  0.0000000E+00; -1.9423753E+00;0;  9.4723083E-02;  9.9999033E+03;  0.0000000E+00;  7.4666335E-09;  1.0000000E+04;  0.0000000E+00;  9.9986357E+03;  4.7771283E-03;  0.0000000E+00;  8.9945957E-02;  5.1235205E+02;
  9.8004001E-01;  9.9999998E-03; -1.8002169E-01;2554;  4.1082799E-02;  0.0000000E+00; -2.7673678E-02;  1.0050574E+03;  4.0216628E-01;  4.1683584E+03;3;  2.8158325E+01;  0.0000000E+00; -2.2134666E+01;0;  2.4813966E-01;  1.0000154E+04;  0.0000000E+00; -1.2956463E-06;  1.0000000E+04;  0.0000000E+00;  9.9927236E+03; -4.0759887E-03;  0.0000000E+00;  2.5221565E-01;  3.0339929E+03;
  9.8003787E-01;  9.9999998E-03; -1.6001770E-01;2555;  3.8467649E-02;  0.0000000E+00; -2.3345698E-02;  1.0051510E+03;  4.0216622E-01;  4.2454873E+03;3;  2.6147434E+01;  0.0000000E+00; -1.9679329E+01;0;  2.1559814E-01;  1.0000350E+04;  0.0000000E+00; -3.5977206E-07;  1.0000000E+04;  0.0000000E+00;  9.9943955E+03; -1.3046211E-02;  0.0000000E+00;  2.2864434E-01;  2.2886023E+03;
  9.8003620E-01;  9.9999998E-03; -1.4001393E-01;2556;  3.6395997E-02;  0.0000000E+00; -1.8894384E-02;  1.0052227E+03;  4.0216616E-01;  4.3045371E+03;3;  2.4479162E+01;  0.0000000E+00; -1.6695181E+01;0;  1.8394464E-01;  1.0000464E+04;  0.0000000E+00; -2.6204926E-08;  1.0000000E+04;  0.0000000E+00;  9.9957061E+03; -1.8406063E-02;  0.0000000E+00;  2.0235071E-01;  1.7146389E+03;
  9.8003495E-01;  9.9999998E-03; -1.2001037E-01;2557;  3.4771703E-02;  0.0000000E+00; -1.4494244E-02;  1.0052723E+03;  4.0216616E-01;  4.3454111E+03;3;  2.3123089E+01;  0.0000000E+00; -1.3481563E+01;0;  1.5526883E-01;  1.0000525E+04;  0.0000000E+00; -5.4779544E-08;  1.0000000E+04;  0.0000000E+00;  9.9966338E+03; -2.1319544E-02;  0.0000000E+00;  1.7658837E-01;  1.3185735E+03;
  9.8003405E-01;  9.9999998E-03; -1.0000733E-01;2558;  3.3522651E-02;  0.0000000E+00; -1.0612899E-02;  1.0053069E+03;  4.0216607E-01;  4.3739043E+03;3;  2.1994934E+01;  0.0000000E+00; -1.0462153E+01;0;  1.2963820E-01;  1.0000557E+04;  0.0000000E+00; -5.6650642E-08;  1.0000000E+04;  0.0000000E+00;  9.9972920E+03; -2.2758637E-02;  0.0000000E+00;  1.5239683E-01;  1.0444740E+03;
  9.8003340E-01;  9.9999998E-03; -8.0004945E-02;2559;  3.2613002E-02;  0.0000000E+00; -7.4619553E-03;  1.0053334E+03;  4.0216610E-01;  4.3958149E+03;3;  2.1104212E+01;  0.0000000E+00; -7.8123384E+00;0;  1.0645391E-01;  1.0000571E+04;  0.0000000E+00; -9.7790718E-09;  1.0000000E+04;  0.0000000E+00;  9.9978027E+03; -2.3375303E-02;  0.0000000E+00;  1.2982921E-01;  8.3887280E+02;
  9.8003298E-01;  9.9999998E-03; -6.0003199E-02;2560;  3.1995621E-02;  0.0000000E+00; -5.0145192E-03;  1.0053544E+03;  4.0216604E-01;  4.4131074E+03;3;  2.0463131E+01;  0.0000000E+00; -5.5368185E+00;0;  8.6060643E-02;  1.0000575E+04;  0.0000000E+00;  2.2637273E-08;  1.0000000E+04;  0.0000000E+00;  9.9982148E+03; -2.3563443E-02;  0.0000000E+00;  1.0962409E-01;  6.7544788E+02;
  9.8003274E-01;  9.9999998E-03; -4.0001918E-02;2561;  3.1595640E-02;  0.0000000E+00; -3.0977204E-03;  1.0053702E+03;  4.0216601E-01;  4.4261753E+03;3;  2.0046412E+01;  0.0000000E+00; -3.5404186E+00;0;  6.9873102E-02;  1.0000576E+04;  0.0000000E+00;  2.4534639E-08;  1.0000000E+04;  0.0000000E+00;  9.9985303E+03; -2.3557050E-02;  0.0000000E+00;  9.3430154E-02;  5.5118884E+02;
  9.8003256E-01;  9.9999998E-03; -2.0000903E-02;2562;  3.1368814E-02;  0.0000000E+00; -1.4858340E-03;  1.0053803E+03;  4.0216610E-01;  4.4344282E+03;3;  1.9791237E+01;  0.0000000E+00; -1.7269731E+00;0;  5.9462301E-02;  1.0000577E+04;  0.0000000E+00;  8.5978922E-09;  1.0000000E+04;  0.0000000E+00;  9.9987305E+03; -2.3499386E-02;  0.0000000E+00;  8.2961686E-02;  4.7249945E+02;
  1.0000386E+00;  9.9999998E-03; -1.8001948E-01;2585;  3.9868467E-02;  0.0000000E+00; -2.4811070E-02;  1.0044594E+03;  4.0190184E-01;  3.6688425E+03;3;  2.7527643E+01;  0.0000000E+00; -1.9873392E+01;0;  1.9985007E-01;  1.0000678E+04;  0.0000000E+00;  3.5421153E-06;  1.0000000E+04;  0.0000000E+00;  9.9934473E+03; -2.7257873E-02;  0.0000000E+00;  2.2710794E-01;  2.6690530E+03;
  1.0000366E+00;  9.9999998E-03; -1.6001594E-01;2586;  3.7269656E-02;  0.0000000E+00; -2.0977309E-02;  1.0045447E+03;  4.0190181E-01;  3.7390662E+03;3;  2.5490587E+01;  0.0000000E+00; -1.7684261E+01;0;  1.6951245E-01;  1.0000873E+04;  0.0000000E+00;  1.6229711E-07;  1.0000000E+04;  0.0000000E+00;  9.9949531E+03; -3.5964958E-02;  0.0000000E+00;  2.0547742E-01;  2.0144446E+03;
  1.0000349E+00;  9.9999998E-03; -1.4001259E-01;2587;  3.5190348E-02;  0.0000000E+00; -1.7007582E-02;  1.0046094E+03;  4.0190169E-01;  3.7923223E+03;3;  2.3794666E+01;  0.0000000E+00; -1.5012192E+01;0;  1.4103340E-01;  1.0000983E+04;  0.0000000E+00; -1.1815544E-07;  1.0000000E+04;  0.0000000E+00;  9.9961348E+03; -4.0695533E-02;  0.0000000E+00;  1.8172893E-01;  1.5104120E+03;
  1.0000337E+00;  9.9999998E-03; -1.2000941E-01;2588;  3.3597674E-02;  0.0000000E+00; -1.3090380E-02;  1.0046538E+03;  4.0190169E-01;  3.8288071E+03;3;  2.2430510E+01;  0.0000000E+00; -1.2157022E+01;0;  1.1585655E-01;  1.0001035E+04;  0.0000000E+00; -1.9532941E-07;  1.0000000E+04;  0.0000000E+00;  9.9969688E+03; -4.2824917E-02;  0.0000000E+00;  1.5868147E-01;  1.1631028E+03;
  1.0000328E+00;  9.9999998E-03; -1.0000669E-01;2589;  3.2413829E-02;  0.0000000E+00; -9.6125696E-03;  1.0046843E+03;  4.0190175E-01;  3.8539153E+03;3;  2.1353897E+01;  0.0000000E+00; -9.4231853E+00;0;  9.3697950E-02;  1.0001053E+04;  0.0000000E+00; -1.0853367E-07;  1.0000000E+04;  0.0000000E+00;  9.9975586E+03; -4.3506071E-02;  0.0000000E+00;  1.3720402E-01;  9.2395270E+02;
  1.0000322E+00;  9.9999998E-03; -8.0004573E-02;2590;  3.1569336E-02;  0.0000000E+00; -6.7858999E-03;  1.0047072E+03;  4.0190169E-01;  3.8727458E+03;3;  2.0549240E+01;  0.0000000E+00; -6.9966350E+00;0;  7.3821962E-02;  1.0001056E+04;  0.0000000E+00; -1.2590019E-08;  1.0000000E+04;  0.0000000E+00;  9.9980078E+03; -4.3477189E-02;  0.0000000E+00;  1.1729915E-01;  7.4604095E+02;
  1.0000318E+00;  9.9999998E-03; -6.0003001E-02;2591;  3.0984795E-02;  0.0000000E+00; -4.5985361E-03;  1.0047253E+03;  4.0190169E-01;  3.8876538E+03;3;  1.9953096E+01;  0.0000000E+00; -4.9349055E+00;0;  5.6405850E-02;  1.0001053E+04;  0.0000000E+00;  3.1417159E-08;  1.0000000E+04;  0.0000000E+00;  9.9983691E+03; -4.3159537E-02;  0.0000000E+00;  9.9565387E-02;  6.0571295E+02;
  1.0000316E+00;  9.9999998E-03; -4.0001821E-02;2592;  3.0604517E-02;  0.0000000E+00; -2.8683832E-03;  1.0047390E+03;  4.0190169E-01;  3.8988345E+03;3;  1.9533140E+01;  0.0000000E+00; -3.1786344E+00;0;  4.2605925E-02;  1.0001050E+04;  0.0000000E+00;  2.8748138E-08;  1.0000000E+04;  0.0000000E+00;  9.9986465E+03; -4.2793322E-02;  0.0000000E+00;  8.5399248E-02;  4.9955035E+02;
  1.0000315E+00;  9.9999998E-03; -2.0000860E-02;2593;  3.0396115E-02;  0.0000000E+00; -1.3831975E-03;  1.0047476E+03;  4.0190172E-01;  3.9059944E+03;3;  1.9292358E+01;  0.0000000E+00; -1.5736392E+00;0;  3.3737946E-02;  1.0001048E+04;  0.0000000E+00;  9.3318100E-09;  1.0000000E+04;  0.0000000E+00;  9.9988223E+03; -4.2521138E-02;  0.0000000E+00;  7.6259084E-02;  4.3250519E+02;
  1.0200372E+00;  9.9999998E-03; -1.8001743E-01;2616;  3.8550880E-02;  0.0000000E+00; -2.2125447E-02;  1.0038923E+03;  4.0165603E-01;  3.1946028E+03;3;  2.6829895E+01;  0.0000000E+00; -1.7770041E+01;0;  1.6440336E-01;  1.0000974E+04;  0.0000000E+00; -2.2280485E-04;  1.0000000E+04;  0.0000000E+00;  9.9940928E+03; -4.0186848E-02;  0.0000000E+00;  2.0459022E-01;  2.3333960E+03;
  1.0200351E+00;  9.9999998E-03; -1.6001430E-01;2617;  3.5935361E-02;  0.0000000E+00; -1.8734721E-02;  1.0039709E+03;  4.0165597E-01;  3.2590808E+03;3;  2.4763329E+01;  0.0000000E+00; -1.5805915E+01;0;  1.3551708E-01;  1.0001182E+04;  0.0000000E+00; -7.4962409E-06;  1.0000000E+04;  0.0000000E+00;  9.9954512E+03; -4.8904344E-02;  0.0000000E+00;  1.8442142E-01;  1.7632905E+03;
  1.0200335E+00;  9.9999998E-03; -1.4001133E-01;2618;  3.3842769E-02;  0.0000000E+00; -1.5227846E-02;  1.0040301E+03;  4.0165597E-01;  3.3077083E+03;3;  2.3047009E+01;  0.0000000E+00; -1.3432174E+01;0;  1.0907942E-01;  1.0001295E+04;  0.0000000E+00; -8.2271947E-07;  1.0000000E+04;  0.0000000E+00;  9.9965186E+03; -5.3645778E-02;  0.0000000E+00;  1.6272520E-01;  1.3222550E+03;
  1.0200323E+00;  9.9999998E-03; -1.2000853E-01;2619;  3.2265555E-02;  0.0000000E+00; -1.1774285E-02;  1.0040706E+03;  4.0165594E-01;  3.3409749E+03;3;  2.1700460E+01;  0.0000000E+00; -1.0878291E+01;0;  8.6310670E-02;  1.0001347E+04;  0.0000000E+00; -5.8777624E-07;  1.0000000E+04;  0.0000000E+00;  9.9972705E+03; -5.5632580E-02;  0.0000000E+00;  1.4194325E-01;  1.0177485E+03;
  1.0200313E+00;  9.9999998E-03; -1.0000613E-01;2620;  3.1114124E-02;  0.0000000E+00; -8.7076603E-03;  1.0040982E+03;  4.0165594E-01;  3.3635764E+03;3;  2.0660494E+01;  0.0000000E+00; -8.4218550E+00;0;  6.6739835E-02;  1.0001365E+04;  0.0000000E+00; -2.2701090E-07;  1.0000000E+04;  0.0000000E+00;  9.9978037E+03; -5.6106366E-02;  0.0000000E+00;  1.2284620E-01;  8.0935138E+02;
  1.0200309E+00;  9.9999998E-03; -8.0004252E-02;2621;  3.0309543E-02;  0.0000000E+00; -6.2149442E-03;  1.0041183E+03;  4.0165600E-01;  3.3801118E+03;3;  1.9870710E+01;  0.0000000E+00; -6.2789378E+00;0;  4.9529243E-02;  1.0001370E+04;  0.0000000E+00; -2.0309971E-08;  1.0000000E+04;  0.0000000E+00;  9.9982031E+03; -5.5869337E-02;  0.0000000E+00;  1.0539858E-01;  6.5655627E+02;
  1.0200305E+00;  9.9999998E-03; -6.0002830E-02;2622;  2.9765662E-02;  0.0000000E+00; -4.2554955E-03;  1.0041340E+03;  4.0165594E-01;  3.3930269E+03;3;  1.9291338E+01;  0.0000000E+00; -4.4692283E+00;0;  3.4644939E-02;  1.0001365E+04;  0.0000000E+00;  4.4658805E-08;  1.0000000E+04;  0.0000000E+00;  9.9985176E+03; -5.5376619E-02;  0.0000000E+00;  9.0021558E-02;  5.3781812E+02;
  1.0200303E+00;  9.9999998E-03; -4.0001728E-02;2623;  2.9421894E-02;  0.0000000E+00; -2.6664441E-03;  1.0041457E+03;  4.0165597E-01;  3.4026155E+03;3;  1.8913113E+01;  0.0000000E+00; -2.9014933E+00;0;  2.2928823E-02;  1.0001358E+04;  0.0000000E+00;  3.6175376E-08;  1.0000000E+04;  0.0000000E+00;  9.9987568E+03; -5.4884341E-02;  0.0000000E+00;  7.7813163E-02;  4.4883463E+02;
  1.0200301E+00;  9.9999998E-03; -2.0000819E-02;2624;  2.9224386E-02;  0.0000000E+00; -1.2856118E-03;  1.0041531E+03;  4.0165597E-01;  3.4086816E+03;3;  1.8685907E+01;  0.0000000E+00; -1.4418339E+00;0;  1.5418924E-02;  1.0001354E+04;  0.0000000E+00;  1.1272828E-08;  1.0000000E+04;  0.0000000E+00;  9.9989072E+03; -5.4538265E-02;  0.0000000E+00;  6.9957189E-02;  3.9289758E+02;
  1.0400356E+00;  9.9999998E-03; -1.8001562E-01;2647;  3.7105825E-02;  0.0000000E+00; -1.9710587E-02;  1.0033705E+03;  4.0143383E-01;  2.7574661E+03;3;  2.6067598E+01;  0.0000000E+00; -1.5827971E+01;0;  1.3984099E-01;  1.0001103E+04;  0.0000000E+00; -1.7930820E-03;  1.0000000E+04;  0.0000000E+00;  9.9946387E+03; -4.5681573E-02;  0.0000000E+00;  1.8552256E-01;  2.0353000E+03;
  1.0400335E+00;  9.9999998E-03; -1.6001277E-01;2648;  3.4420136E-02;  0.0000000E+00; -1.6637025E-02;  1.0034428E+03;  4.0143374E-01;  2.8165684E+03;3;  2.3943064E+01;  0.0000000E+00; -1.4036229E+01;0;  1.1195754E-01;  1.0001314E+04;  0.0000000E+00; -1.5700361E-04;  1.0000000E+04;  0.0000000E+00;  9.9958652E+03; -5.4289743E-02;  0.0000000E+00;  1.6624728E-01;  1.5424032E+03;
  1.0400318E+00;  9.9999998E-03; -1.4001018E-01;2649;  3.2344859E-02;  0.0000000E+00; -1.3593320E-02;  1.0034983E+03;  4.0143362E-01;  2.8620166E+03;3;  2.2225420E+01;  0.0000000E+00; -1.1967216E+01;0;  8.6421356E-02;  1.0001448E+04;  0.0000000E+00; -2.4846893E-06;  1.0000000E+04;  0.0000000E+00;  9.9968428E+03; -5.9549898E-02;  0.0000000E+00;  1.4597125E-01;  1.1562234E+03;
  1.0400306E+00;  9.9999998E-03; -1.2000773E-01;2650;  3.0769372E-02;  0.0000000E+00; -1.0578626E-02;  1.0035366E+03;  4.0143368E-01;  2.8933232E+03;3;  2.0872774E+01;  0.0000000E+00; -9.6930876E+00;0;  6.4841114E-02;  1.0001514E+04;  0.0000000E+00; -1.3702276E-06;  1.0000000E+04;  0.0000000E+00;  9.9975361E+03; -6.2025644E-02;  0.0000000E+00;  1.2686676E-01;  8.8713593E+02;
  1.0400298E+00;  9.9999998E-03; -1.0000563E-01;2651;  2.9649917E-02;  0.0000000E+00; -7.9126339E-03;  1.0035623E+03;  4.0143362E-01;  2.9143896E+03;3;  1.9862020E+01;  0.0000000E+00; -7.5527153E+00;0;  4.6850890E-02;  1.0001542E+04;  0.0000000E+00; -4.5096323E-07;  1.0000000E+04;  0.0000000E+00;  9.9980225E+03; -6.2826663E-02;  0.0000000E+00;  1.0967755E-01;  7.0391614E+02;
  1.0400292E+00;  9.9999998E-03; -8.0003962E-02;2652;  2.8875170E-02;  0.0000000E+00; -5.7107238E-03;  1.0035806E+03;  4.0143362E-01;  2.9293115E+03;3;  1.9097925E+01;  0.0000000E+00; -5.6686449E+00;0;  3.1569310E-02;  1.0001551E+04;  0.0000000E+00; -3.6209883E-08;  1.0000000E+04;  0.0000000E+00;  9.9983789E+03; -6.2788412E-02;  0.0000000E+00;  9.4357722E-02;  5.7246436E+02;
  1.0400288E+00;  9.9999998E-03; -6.0002666E-02;2653;  2.8366804E-02;  0.0000000E+00; -3.9427569E-03;  1.0035944E+03;  4.0143371E-01;  2.9406245E+03;3;  1.8548952E+01;  0.0000000E+00; -4.0534058E+00;0;  1.8708598E-02;  1.0001550E+04;  0.0000000E+00;  6.9131382E-08;  1.0000000E+04;  0.0000000E+00;  9.9986553E+03; -6.2418450E-02;  0.0000000E+00;  8.1127048E-02;  4.7290170E+02;
  1.0400287E+00;  9.9999998E-03; -4.0001638E-02;2654;  2.8043645E-02;  0.0000000E+00; -2.4757667E-03;  1.0036046E+03;  4.0143365E-01;  2.9490122E+03;3;  1.8177794E+01;  0.0000000E+00; -2.6429482E+00;0;  8.7386928E-03;  1.0001547E+04;  0.0000000E+00;  4.9917581E-08;  1.0000000E+04;  0.0000000E+00;  9.9988633E+03; -6.2006209E-02;  0.0000000E+00;  7.0744902E-02;  3.9959409E+02;
  1.0400286E+00;  9.9999998E-03; -2.0000778E-02;2655;  2.7859619E-02;  0.0000000E+00; -1.1899688E-03;  1.0036109E+03;  4.0143365E-01;  2.9540835E+03;3;  1.7940678E+01;  0.0000000E+00; -1.2996535E+00;0;  2.3894720E-03;  1.0001545E+04;  0.0000000E+00;  1.4278368E-08;  1.0000000E+04;  0.0000000E+00;  9.9989893E+03; -6.1708320E-02;  0.0000000E+00;  6.4097792E-02;  3.5392145E+02;
  1.0600338E+00;  9.9999998E-03; -1.8001406E-01;2678;  3.5566054E-02;  0.0000000E+00; -1.7532887E-02;  1.0029039E+03;  4.0123799E-01;  2.3654724E+03;3;  2.5290462E+01;  0.0000000E+00; -1.4003733E+01;0;  1.2408941E-01;  1.0001113E+04;  0.0000000E+00; -7.1426043E-03;  1.0000000E+04;  0.0000000E+00;  9.9950752E+03; -4.6172611E-02;  0.0000000E+00;  1.7026202E-01;  1.7762981E+03;
  1.0600317E+00;  9.9999998E-03; -1.6001138E-01;2679;  3.2842249E-02;  0.0000000E+00; -1.4723508E-02;  1.0029700E+03;  4.0123802E-01;  2.4193691E+03;3;  2.3101610E+01;  0.0000000E+00; -1.2385592E+01;0;  9.7347505E-02;  1.0001316E+04;  0.0000000E+00; -1.0318616E-03;  1.0000000E+04;  0.0000000E+00;  9.9961895E+03; -5.4094635E-02;  0.0000000E+00;  1.5144214E-01;  1.3541068E+03;
  1.0600300E+00;  9.9999998E-03; -1.4000912E-01;2680;  3.0741865E-02;  0.0000000E+00; -1.2089164E-02;  1.0030229E+03;  4.0123799E-01;  2.4624863E+03;3;  2.1342834E+01;  0.0000000E+00; -1.0582299E+01;0;  7.1894743E-02;  1.0001470E+04;  0.0000000E+00; -2.0088251E-05;  1.0000000E+04;  0.0000000E+00;  9.9970938E+03; -6.0054816E-02;  0.0000000E+00;  1.3194956E-01;  1.0155994E+03;
  1.0600288E+00;  9.9999998E-03; -1.2000701E-01;2681;  2.9178750E-02;  0.0000000E+00; -9.5114568E-03;  1.0030605E+03;  4.0123793E-01;  2.4930767E+03;3;  2.0008152E+01;  0.0000000E+00; -8.6627760E+00;0;  5.0303228E-02;  1.0001563E+04;  0.0000000E+00; -2.7796407E-06;  1.0000000E+04;  0.0000000E+00;  9.9977529E+03; -6.3563593E-02;  0.0000000E+00;  1.1386682E-01;  7.7452301E+02;
  1.0600280E+00;  9.9999998E-03; -1.0000519E-01;2682;  2.8068459E-02;  0.0000000E+00; -7.2028032E-03;  1.0030861E+03;  4.0123796E-01;  2.5139553E+03;3;  1.8996500E+01;  0.0000000E+00; -6.7991843E+00;0;  3.2823324E-02;  1.0001609E+04;  0.0000000E+00; -9.0683722E-07;  1.0000000E+04;  0.0000000E+00;  9.9982109E+03; -6.5183066E-02;  0.0000000E+00;  9.8006390E-02;  6.1033911E+02;
  1.0600274E+00;  9.9999998E-03; -8.0003701E-02;2683;  2.7318668E-02;  0.0000000E+00; -5.2569597E-03;  1.0031036E+03;  4.0123799E-01;  2.5282307E+03;3;  1.8257635E+01;  0.0000000E+00; -5.1268120E+00;0;  1.8650614E-02;  1.0001635E+04;  0.0000000E+00; -1.0486887E-07;  1.0000000E+04;  0.0000000E+00;  9.9985391E+03; -6.5711945E-02;  0.0000000E+00;  8.4362559E-02;  4.9557974E+02;
  1.0600271E+00;  9.9999998E-03; -6.0002510E-02;2684;  2.6835775E-02;  0.0000000E+00; -3.6580393E-03;  1.0031161E+03;  4.0123799E-01;  2.5384275E+03;3;  1.7726431E+01;  0.0000000E+00; -3.7029743E+00;0;  7.2426274E-03;  1.0001643E+04;  0.0000000E+00;  8.7747857E-08;  1.0000000E+04;  0.0000000E+00;  9.9987813E+03; -6.5719046E-02;  0.0000000E+00;  7.2961673E-02;  4.1192874E+02;
  1.0600269E+00;  9.9999998E-03; -4.0001549E-02;2685;  2.6533244E-02;  0.0000000E+00; -2.2987253E-03;  1.0031251E+03;  4.0123796E-01;  2.5457107E+03;3;  1.7391068E+01;  0.0000000E+00; -2.4060962E+00;0; -1.3478175E-03;  1.0001647E+04;  0.0000000E+00;  7.0707962E-08;  1.0000000E+04;  0.0000000E+00;  9.9989570E+03; -6.5552346E-02;  0.0000000E+00;  6.4204529E-02;  3.5218289E+02;
  1.0600268E+00;  9.9999998E-03; -2.0000739E-02;2686;  2.6362868E-02;  0.0000000E+00; -1.1064651E-03;  1.0031306E+03;  4.0123791E-01;  2.5501777E+03;3;  1.7178541E+01;  0.0000000E+00; -1.1790512E+00;0; -6.7399144E-03;  1.0001646E+04;  0.0000000E+00;  2.0462982E-08;  1.0000000E+04;  0.0000000E+00;  9.9990635E+03; -6.5396681E-02;  0.0000000E+00;  5.8656767E-02;  3.1559277E+02;
  1.0800321E+00;  9.9999998E-03; -1.8001270E-01;2709;  3.4048568E-02;  0.0000000E+00; -1.5598085E-02;  1.0024970E+03;  4.0106997E-01;  2.0224679E+03;3;  2.4532427E+01;  0.0000000E+00; -1.2339430E+01;0;  1.1527713E-01;  1.0001039E+04;  0.0000000E+00; -2.0187829E-02;  1.0000000E+04;  0.0000000E+00;  9.9954092E+03; -4.3331429E-02;  0.0000000E+00;  1.5860856E-01;  1.5524083E+03;
  1.0800298E+00;  9.9999998E-03; -1.6001020E-01;2710;  3.1289600E-02;  0.0000000E+00; -1.3074943E-02;  1.0025560E+03;  4.0106997E-01;  2.0702646E+03;3;  2.2272280E+01;  0.0000000E+00; -1.0942647E+01;0;  9.0500399E-02;  1.0001211E+04;  0.0000000E+00; -4.4620838E-03;  1.0000000E+04;  0.0000000E+00;  9.9964180E+03; -4.9632490E-02;  0.0000000E+00;  1.4013289E-01;  1.1953591E+03;
  1.0800282E+00;  9.9999998E-03; -1.4000812E-01;2711;  2.9133298E-02;  0.0000000E+00; -1.0697154E-02;  1.0026069E+03;  4.0107000E-01;  2.1114954E+03;3;  2.0484768E+01;  0.0000000E+00; -9.3451691E+00;0;  6.5017164E-02;  1.0001376E+04;  0.0000000E+00; -3.1865982E-04;  1.0000000E+04;  0.0000000E+00;  9.9972676E+03; -5.5952914E-02;  0.0000000E+00;  1.2097008E-01;  8.9988269E+02;
  1.0800270E+00;  9.9999998E-03; -1.2000635E-01;2712;  2.7580634E-02;  0.0000000E+00; -8.5477419E-03;  1.0026452E+03;  4.0107000E-01;  2.1425874E+03;3;  1.9130219E+01;  0.0000000E+00; -7.7420807E+00;0;  4.2479154E-02;  1.0001501E+04;  0.0000000E+00; -5.1400639E-06;  1.0000000E+04;  0.0000000E+00;  9.9979082E+03; -6.0814667E-02;  0.0000000E+00;  1.0329382E-01;  6.8134839E+02;
  1.0800261E+00;  9.9999998E-03; -1.0000477E-01;2713;  2.6466530E-02;  0.0000000E+00; -6.5505072E-03;  1.0026718E+03;  4.0106991E-01;  2.1641201E+03;3;  1.8124132E+01;  0.0000000E+00; -6.1293669E+00;0;  2.4410971E-02;  1.0001583E+04;  0.0000000E+00; -1.8912999E-06;  1.0000000E+04;  0.0000000E+00;  9.9983574E+03; -6.3723698E-02;  0.0000000E+00;  8.8134669E-02;  5.3065424E+02;
  1.0800256E+00;  9.9999998E-03; -8.0003448E-02;2714;  2.5731744E-02;  0.0000000E+00; -4.8463908E-03;  1.0026898E+03;  4.0106997E-01;  2.1786040E+03;3;  1.7376932E+01;  0.0000000E+00; -4.6615982E+00;0;  1.0403626E-02;  1.0001627E+04;  0.0000000E+00; -3.8558321E-07;  1.0000000E+04;  0.0000000E+00;  9.9986699E+03; -6.5208763E-02;  0.0000000E+00;  7.5612389E-02;  4.2767392E+02;
  1.0800252E+00;  9.9999998E-03; -6.0002368E-02;2715;  2.5262162E-02;  0.0000000E+00; -3.3946303E-03;  1.0027020E+03;  4.0106988E-01;  2.1885496E+03;3;  1.6911505E+01;  0.0000000E+00; -3.3939362E+00;0; -2.4989992E-04;  1.0001652E+04;  0.0000000E+00;  4.5091497E-08;  1.0000000E+04;  0.0000000E+00;  9.9988916E+03; -6.5859012E-02;  0.0000000E+00;  6.5609112E-02;  3.5600137E+02;
  1.0800251E+00;  9.9999998E-03; -4.0001471E-02;2716;  2.4965288E-02;  0.0000000E+00; -2.1391071E-03;  1.0027104E+03;  4.0107000E-01;  2.1954050E+03;3;  1.6589798E+01;  0.0000000E+00; -2.1940441E+00;0; -7.9087391E-03;  1.0001666E+04;  0.0000000E+00;  7.6108158E-08;  1.0000000E+04;  0.0000000E+00;  9.9990449E+03; -6.6095516E-02;  0.0000000E+00;  5.8186777E-02;  3.0705774E+02;
  1.0800250E+00;  9.9999998E-03; -2.0000705E-02;2717;  2.4802865E-02;  0.0000000E+00; -1.0303570E-03;  1.0027154E+03;  4.0106994E-01;  2.1993643E+03;3;  1.6399658E+01;  0.0000000E+00; -1.0677485E+00;0; -1.2583364E-02;  1.0001672E+04;  0.0000000E+00;  2.4286772E-08;  1.0000000E+04;  0.0000000E+00;  9.9991367E+03; -6.6162370E-02;  0.0000000E+00;  5.3579006E-02;  2.7795242E+02;
  1.1000307E+00;  9.9999998E-03; -1.8001170E-01;2739;  3.2746017E-02;  0.0000000E+00; -1.4011977E-02;  1.0021501E+03;  4.0092885E-01;  1.7284017E+03;3;  2.3931425E+01;  0.0000000E+00; -1.0884641E+01;0;  1.1168917E-01;  1.0000899E+04;  0.0000000E+00; -4.5407187E-02;  1.0000000E+04;  0.0000000E+00;  9.9956689E+03; -3.8186524E-02;  0.0000000E+00;  1.4987569E-01;  1.3585598E+03;
  1.1000282E+00;  9.9999998E-03; -1.6000910E-01;2740;  2.9787498E-02;  0.0000000E+00; -1.1512096E-02;  1.0022008E+03;  4.0092891E-01;  1.7692275E+03;3;  2.1485683E+01;  0.0000000E+00; -9.5635366E+00;0;  9.0197310E-02;  1.0001009E+04;  0.0000000E+00; -1.4135984E-02;  1.0000000E+04;  0.0000000E+00;  9.9965703E+03; -4.1792706E-02;  0.0000000E+00;  1.3199002E-01;  1.0590699E+03;
  1.1000265E+00;  9.9999998E-03; -1.4000723E-01;2741;  2.7644092E-02;  0.0000000E+00; -9.4665084E-03;  1.0022487E+03;  4.0092891E-01;  1.8076571E+03;3;  1.9673840E+01;  0.0000000E+00; -8.2664137E+00;0;  6.5454394E-02;  1.0001167E+04;  0.0000000E+00; -2.2971062E-03;  1.0000000E+04;  0.0000000E+00;  9.9973662E+03; -4.7637448E-02;  0.0000000E+00;  1.1309184E-01;  8.0434070E+02;
  1.1000252E+00;  9.9999998E-03; -1.2000568E-01;2742;  2.6040819E-02;  0.0000000E+00; -7.5960183E-03;  1.0022881E+03;  4.0092883E-01;  1.8393781E+03;3;  1.8284721E+01;  0.0000000E+00; -6.8670969E+00;0;  4.1782971E-02;  1.0001325E+04;  0.0000000E+00; -1.1333579E-04;  1.0000000E+04;  0.0000000E+00;  9.9979971E+03; -5.3645227E-02;  0.0000000E+00;  9.5428199E-02;  6.0662714E+02;
  1.1000243E+00;  9.9999998E-03; -1.0000436E-01;2743;  2.4942210E-02;  0.0000000E+00; -5.9407032E-03;  1.0023171E+03;  4.0092880E-01;  1.8626656E+03;3;  1.7278530E+01;  0.0000000E+00; -5.5130153E+00;0;  2.2161514E-02;  1.0001446E+04;  0.0000000E+00; -3.8318508E-06;  1.0000000E+04;  0.0000000E+00;  9.9984541E+03; -5.8231145E-02;  0.0000000E+00;  8.0392659E-02;  4.6583710E+02;
  1.1000237E+00;  9.9999998E-03; -8.0003209E-02;2744;  2.4195870E-02;  0.0000000E+00; -4.4498234E-03;  1.0023370E+03;  4.0092885E-01;  1.8786698E+03;3;  1.6561325E+01;  0.0000000E+00; -4.2445679E+00;0;  7.2518028E-03;  1.0001527E+04;  0.0000000E+00; -1.1782034E-06;  1.0000000E+04;  0.0000000E+00;  9.9987695E+03; -6.1131399E-02;  0.0000000E+00;  6.8383202E-02;  3.7037238E+02;
  1.1000234E+00;  9.9999998E-03; -6.0002234E-02;2745;  2.3719845E-02;  0.0000000E+00; -3.1478563E-03;  1.0023502E+03;  4.0092885E-01;  1.8893073E+03;3;  1.6109694E+01;  0.0000000E+00; -3.0975547E+00;0; -3.5552494E-03;  1.0001577E+04;  0.0000000E+00; -2.0218984E-07;  1.0000000E+04;  0.0000000E+00;  9.9989824E+03; -6.2793605E-02;  0.0000000E+00;  5.9238356E-02;  3.0656610E+02;
  1.1000233E+00;  9.9999998E-03; -4.0001400E-02;2746;  2.3418466E-02;  0.0000000E+00; -1.9936957E-03;  1.0023587E+03;  4.0092888E-01;  1.8961115E+03;3;  1.5799877E+01;  0.0000000E+00; -1.9948224E+00;0; -1.0919694E-02;  1.0001606E+04;  0.0000000E+00;  1.4901662E-08;  1.0000000E+04;  0.0000000E+00;  9.9991230E+03; -6.3671730E-02;  0.0000000E+00;  5.2752037E-02;  2.6516107E+02;
  1.1000232E+00;  9.9999998E-03; -2.0000674E-02;2747;  2.3254517E-02;  0.0000000E+00; -9.6439349E-04;  1.0023633E+03;  4.0092885E-01;  1.8998491E+03;3;  1.5621201E+01;  0.0000000E+00; -9.7604197E-01;0; -1.5233729E-02;  1.0001619E+04;  0.0000000E+00;  1.5129860E-08;  1.0000000E+04;  0.0000000E+00;  9.9992041E+03; -6.4084023E-02;  0.0000000E+00;  4.8850294E-02;  2.4150876E+02;
  1.1200296E+00;  9.9999998E-03; -1.8001117E-01;2768;  3.1792715E-02;  0.0000000E+00; -1.2827735E-02;  1.0018619E+03;  4.0081325E-01;  1.4820269E+03;3;  2.3619705E+01;  0.0000000E+00; -9.5963640E+00;0;  1.1129265E-01;  1.0000708E+04;  0.0000000E+00; -8.6524665E-02;  1.0000000E+04;  0.0000000E+00;  9.9958721E+03; -3.1766128E-02;  0.0000000E+00;  1.4305878E-01;  1.1938214E+03;
  1.1200268E+00;  9.9999998E-03; -1.6000827E-01;2769;  2.8551571E-02;  0.0000000E+00; -1.0206231E-02;  1.0019031E+03;  4.0081337E-01;  1.5148599E+03;3;  2.0884041E+01;  0.0000000E+00; -8.3225965E+00;0;  9.4527416E-02;  1.0000735E+04;  0.0000000E+00; -3.6009718E-02;  1.0000000E+04;  0.0000000E+00;  9.9966660E+03; -3.1719603E-02;  0.0000000E+00;  1.2624702E-01;  9.3871997E+02;
  1.1200249E+00;  9.9999998E-03; -1.4000639E-01;2770;  2.6271153E-02;  0.0000000E+00; -8.2679717E-03;  1.0019462E+03;  4.0081337E-01;  1.5491155E+03;3;  1.8938580E+01;  0.0000000E+00; -7.1538267E+00;0;  7.2153285E-02;  1.0000857E+04;  0.0000000E+00; -1.0008045E-02;  1.0000000E+04;  0.0000000E+00;  9.9974033E+03; -3.5829734E-02;  0.0000000E+00;  1.0798302E-01;  7.2132269E+02;
  1.1200236E+00;  9.9999998E-03; -1.2000506E-01;2771;  2.4673097E-02;  0.0000000E+00; -6.7031705E-03;  1.0019856E+03;  4.0081331E-01;  1.5804291E+03;3;  1.7542353E+01;  0.0000000E+00; -6.0372825E+00;0;  4.8343286E-02;  1.0001025E+04;  0.0000000E+00; -1.5702705E-03;  1.0000000E+04;  0.0000000E+00;  9.9980234E+03; -4.2015538E-02;  0.0000000E+00;  9.0358824E-02;  5.4590631E+02;
  1.1200228E+00;  9.9999998E-03; -1.0000393E-01;2772;  2.3529295E-02;  0.0000000E+00; -5.2991817E-03;  1.0020172E+03;  4.0081328E-01;  1.6056698E+03;3;  1.6494770E+01;  0.0000000E+00; -4.8790326E+00;0;  2.7031146E-02;  1.0001186E+04;  0.0000000E+00; -9.8096702E-05;  1.0000000E+04;  0.0000000E+00;  9.9984941E+03; -4.8079759E-02;  0.0000000E+00;  7.5110905E-02;  4.1500040E+02;
  1.1200222E+00;  9.9999998E-03; -8.0002964E-02;2773;  2.2784373E-02;  0.0000000E+00; -4.0571531E-03;  1.0020401E+03;  4.0081331E-01;  1.6238884E+03;3;  1.5814521E+01;  0.0000000E+00; -3.8344855E+00;0;  1.0295037E-02;  1.0001312E+04;  0.0000000E+00; -2.8752659E-06;  1.0000000E+04;  0.0000000E+00;  9.9988232E+03; -5.2753333E-02;  0.0000000E+00;  6.3048370E-02;  3.2449185E+02;
  1.1200217E+00;  9.9999998E-03; -6.0002092E-02;2774;  2.2283053E-02;  0.0000000E+00; -2.9004265E-03;  1.0020554E+03;  4.0081334E-01;  1.6360344E+03;3;  1.5354346E+01;  0.0000000E+00; -2.8038979E+00;0; -1.6985536E-03;  1.0001396E+04;  0.0000000E+00; -9.1671069E-07;  1.0000000E+04;  0.0000000E+00;  9.9990469E+03; -5.5863280E-02;  0.0000000E+00;  5.4164726E-02;  2.6505670E+02;
  1.1200215E+00;  9.9999998E-03; -4.0001333E-02;2775;  2.1969490E-02;  0.0000000E+00; -1.8603572E-03;  1.0020649E+03;  4.0081328E-01;  1.6436256E+03;3;  1.5049672E+01;  0.0000000E+00; -1.8237319E+00;0; -9.6158832E-03;  1.0001448E+04;  0.0000000E+00; -2.1534052E-07;  1.0000000E+04;  0.0000000E+00;  9.9991855E+03; -5.7735574E-02;  0.0000000E+00;  4.8119690E-02;  2.2793385E+02;
  1.1200213E+00;  9.9999998E-03; -2.0000646E-02;2776;  2.1796521E-02;  0.0000000E+00; -9.0360263E-04;  1.0020702E+03;  4.0081331E-01;  1.6478005E+03;3;  1.4878081E+01;  0.0000000E+00; -8.8997149E-01;0; -1.4101867E-02;  1.0001477E+04;  0.0000000E+00; -2.8936737E-08;  1.0000000E+04;  0.0000000E+00;  9.9992627E+03; -5.8709376E-02;  0.0000000E+00;  4.4607509E-02;  2.0750928E+02;
  1.1400290E+00;  9.9999998E-03; -1.8001126E-01;2796;  3.1284247E-02;  0.0000000E+00; -1.2148702E-02;  1.0016282E+03;  4.0072057E-01;  1.2794524E+03;3;  2.3656021E+01;  0.0000000E+00; -8.5011864E+00;0;  1.1204596E-01;  1.0000492E+04;  0.0000000E+00; -1.4297022E-01;  1.0000000E+04;  0.0000000E+00;  9.9960518E+03; -2.5166379E-02;  0.0000000E+00;  1.3721234E-01;  1.0608813E+03;
  1.1400257E+00;  9.9999998E-03; -1.6000785E-01;2797;  2.7661771E-02;  0.0000000E+00; -9.2813559E-03;  1.0016592E+03;  4.0072057E-01;  1.3037163E+03;3;  2.0546553E+01;  0.0000000E+00; -7.2768879E+00;0;  1.0083705E-01;  1.0000422E+04;  0.0000000E+00; -7.5765349E-02;  1.0000000E+04;  0.0000000E+00;  9.9967422E+03; -2.0992225E-02;  0.0000000E+00;  1.2182928E-01;  8.3481512E+02;
  1.1400236E+00;  9.9999998E-03; -1.4000577E-01;2798;  2.5179790E-02;  0.0000000E+00; -7.2852173E-03;  1.0016954E+03;  4.0072057E-01;  1.3321943E+03;3;  1.8402496E+01;  0.0000000E+00; -6.1848674E+00;0;  8.2855299E-02;  1.0000477E+04;  0.0000000E+00; -3.0681077E-02;  1.0000000E+04;  0.0000000E+00;  9.9974072E+03; -2.1988921E-02;  0.0000000E+00;  1.0484422E-01;  6.4512274E+02;
  1.1400223E+00;  9.9999998E-03; -1.2000445E-01;2799;  2.3456786E-02;  0.0000000E+00; -5.8255270E-03;  1.0017321E+03;  4.0072057E-01;  1.3610466E+03;3;  1.6892109E+01;  0.0000000E+00; -5.1901422E+00;0;  6.0965151E-02;  1.0000619E+04;  0.0000000E+00; -9.0539185E-03;  1.0000000E+04;  0.0000000E+00;  9.9980000E+03; -2.6787451E-02;  0.0000000E+00;  8.7752603E-02;  4.9218845E+02;
  1.1400213E+00;  9.9999998E-03; -1.0000349E-01;2800;  2.2312835E-02;  0.0000000E+00; -4.6709534E-03;  1.0017646E+03;  4.0072045E-01;  1.3865261E+03;3;  1.5849172E+01;  0.0000000E+00; -4.2774129E+00;0;  3.9295178E-02;  1.0000790E+04;  0.0000000E+00; -1.8257601E-03;  1.0000000E+04;  0.0000000E+00;  9.9984785E+03; -3.3114310E-02;  0.0000000E+00;  7.2409488E-02;  3.7404846E+02;
  1.1400207E+00;  9.9999998E-03; -8.0002651E-02;2801;  2.1520691E-02;  0.0000000E+00; -3.6094585E-03;  1.0017902E+03;  4.0072048E-01;  1.4066661E+03;3;  1.5138988E+01;  0.0000000E+00; -3.3818996E+00;0;  2.0906422E-02;  1.0000950E+04;  0.0000000E+00; -2.1685025E-04;  1.0000000E+04;  0.0000000E+00;  9.9988291E+03; -3.9093312E-02;  0.0000000E+00;  5.9999734E-02;  2.8894745E+02;
  1.1400203E+00;  9.9999998E-03; -6.0001917E-02;2802;  2.1002870E-02;  0.0000000E+00; -2.6342163E-03;  1.0018083E+03;  4.0072057E-01;  1.4209048E+03;3;  1.4671818E+01;  0.0000000E+00; -2.5125103E+00;0;  7.0883706E-03;  1.0001074E+04;  0.0000000E+00; -1.0903037E-05;  1.0000000E+04;  0.0000000E+00;  9.9990674E+03; -4.3759193E-02;  0.0000000E+00;  5.0847564E-02;  2.3198508E+02;
  1.1400200E+00;  9.9999998E-03; -4.0001236E-02;2803;  2.0674121E-02;  0.0000000E+00; -1.7039295E-03;  1.0018201E+03;  4.0072060E-01;  1.4301785E+03;3;  1.4371552E+01;  0.0000000E+00; -1.6441641E+00;0; -2.1761507E-03;  1.0001160E+04;  0.0000000E+00; -7.7288541E-07;  1.0000000E+04;  0.0000000E+00;  9.9992188E+03; -4.6893001E-02;  0.0000000E+00;  4.4716850E-02;  1.9660298E+02;
  1.1400199E+00;  9.9999998E-03; -2.0000607E-02;2804;  2.0496482E-02;  0.0000000E+00; -8.4044231E-04;  1.0018265E+03;  4.0072051E-01;  1.4352369E+03;3;  1.4204333E+01;  0.0000000E+00; -8.1528729E-01;0; -7.4147880E-03;  1.0001207E+04;  0.0000000E+00; -1.5455950E-07;  1.0000000E+04;  0.0000000E+00;  9.9993018E+03; -4.8641037E-02;  0.0000000E+00;  4.1226249E-02;  1.7744702E+02;
  1.1600293E+00;  9.9999998E-03; -1.8001215E-01;2823;  3.1529550E-02;  0.0000000E+00; -1.2102373E-02;  1.0014427E+03;  4.0064782E-01;  1.1150607E+03;3;  2.4313602E+01;  0.0000000E+00; -7.6430464E+00;0;  1.1334983E-01;  1.0000262E+04;  0.0000000E+00; -2.0684104E-01;  1.0000000E+04;  0.0000000E+00;  9.9962080E+03; -1.8657522E-02;  0.0000000E+00;  1.3200735E-01;  9.5477380E+02;
  1.1600254E+00;  9.9999998E-03; -1.6000807E-01;2824;  2.7260887E-02;  0.0000000E+00; -8.9167161E-03;  1.0014659E+03;  4.0064782E-01;  1.1329382E+03;3;  2.0569502E+01;  0.0000000E+00; -6.5225406E+00;0;  1.0650174E-01;  1.0000115E+04;  0.0000000E+00; -1.3303104E-01;  1.0000000E+04;  0.0000000E+00;  9.9968203E+03; -1.1277296E-02;  0.0000000E+00;  1.1777904E-01;  7.5295807E+02;
  1.1600229E+00;  9.9999998E-03; -1.4000554E-01;2825;  2.4437703E-02;  0.0000000E+00; -6.6612391E-03;  1.0014933E+03;  4.0064791E-01;  1.1541311E+03;3;  1.8101765E+01;  0.0000000E+00; -5.3948994E+00;0;  9.4460145E-02;  1.0000075E+04;  0.0000000E+00; -7.0706300E-02;  1.0000000E+04;  0.0000000E+00;  9.9974063E+03; -8.1065418E-03;  0.0000000E+00;  1.0256669E-01;  5.7921625E+02;
  1.1600212E+00;  9.9999998E-03; -1.2000401E-01;2826;  2.2535145E-02;  0.0000000E+00; -5.1371278E-03;  1.0015242E+03;  4.0064782E-01;  1.1779949E+03;3;  1.6447206E+01;  0.0000000E+00; -4.4908032E+00;0;  7.6984830E-02;  1.0000147E+04;  0.0000000E+00; -3.0625250E-02;  1.0000000E+04;  0.0000000E+00;  9.9979521E+03; -9.7807646E-03;  0.0000000E+00;  8.6765595E-02;  4.4181940E+02;
  1.1600201E+00;  9.9999998E-03; -1.0000303E-01;2827;  2.1267252E-02;  0.0000000E+00; -4.0292302E-03;  1.0015545E+03;  4.0064770E-01;  1.2013976E+03;3;  1.5316777E+01;  0.0000000E+00; -3.6645105E+00;0;  5.7385739E-02;  1.0000286E+04;  0.0000000E+00; -1.0733891E-02;  1.0000000E+04;  0.0000000E+00;  9.9984170E+03; -1.4511305E-02;  0.0000000E+00;  7.1897045E-02;  3.3696674E+02;
  1.1600194E+00;  9.9999998E-03; -8.0002315E-02;2828;  2.0440171E-02;  0.0000000E+00; -3.1471341E-03;  1.0015804E+03;  4.0064776E-01;  1.2214832E+03;3;  1.4567767E+01;  0.0000000E+00; -2.9397569E+00;0;  3.9074786E-02;  1.0000444E+04;  0.0000000E+00; -2.9907760E-03;  1.0000000E+04;  0.0000000E+00;  9.9987813E+03; -2.0251827E-02;  0.0000000E+00;  5.9326611E-02;  2.5960034E+02;
  1.1600189E+00;  9.9999998E-03; -6.0001671E-02;2829;  1.9893007E-02;  0.0000000E+00; -2.3069163E-03;  1.0016006E+03;  4.0064770E-01;  1.2370538E+03;3;  1.4084608E+01;  0.0000000E+00; -2.2013197E+00;0;  2.4209807E-02;  1.0000584E+04;  0.0000000E+00; -6.1055319E-04;  1.0000000E+04;  0.0000000E+00;  9.9990420E+03; -2.5512202E-02;  0.0000000E+00;  4.9722008E-02;  2.0576405E+02;
  1.1600187E+00;  9.9999998E-03; -4.0001094E-02;2830;  1.9547746E-02;  0.0000000E+00; -1.5140763E-03;  1.0016144E+03;  4.0064785E-01;  1.2477416E+03;3;  1.3776110E+01;  0.0000000E+00; -1.4555738E+00;0;  1.3604218E-02;  1.0000690E+04;  0.0000000E+00; -8.2318787E-05;  1.0000000E+04;  0.0000000E+00;  9.9992119E+03; -2.9521087E-02;  0.0000000E+00;  4.3125305E-02;  1.7117337E+02;
  1.1600186E+00;  9.9999998E-03; -2.0000538E-02;2831;  1.9364024E-02;  0.0000000E+00; -7.4844295E-04;  1.0016224E+03;  4.0064779E-01;  1.2539146E+03;3;  1.3613994E+01;  0.0000000E+00; -7.2722191E-01;0;  7.3583499E-03;  1.0000757E+04;  0.0000000E+00; -3.4720690E-06;  1.0000000E+04;  0.0000000E+00;  9.9993047E+03; -3.1963099E-02;  0.0000000E+00;  3.9321449E-02;  1.5209366E+02;
  1.1800311E+00;  9.9999998E-03; -1.8001401E-01;2849;  3.3138674E-02;  0.0000000E+00; -1.2892035E-02;  1.0012917E+03;  4.0059185E-01;  9.7748602E+02;3;  2.6117832E+01;  0.0000000E+00; -7.2625623E+00;0;  1.2038457E-01;  9.9999424E+03;  0.0000000E+00; -2.6671296E-01;  1.0000000E+04;  0.0000000E+00;  9.9963086E+03; -8.4020151E-03;  0.0000000E+00;  1.2878658E-01;  8.6026495E+02;
  1.1800259E+00;  9.9999998E-03; -1.6000929E-01;2850;  2.7783960E-02;  0.0000000E+00; -9.3761859E-03;  1.0013155E+03;  4.0059182E-01;  9.9553510E+02;3;  2.1332642E+01;  0.0000000E+00; -6.1360784E+00;0;  1.1129504E-01;  9.9998271E+03;  0.0000000E+00; -1.9735242E-01;  1.0000000E+04;  0.0000000E+00;  9.9968965E+03; -2.9201491E-03;  0.0000000E+00;  1.1421519E-01;  6.8851398E+02;
  1.1800226E+00;  9.9999998E-03; -1.4000604E-01;2851;  2.4241345E-02;  0.0000000E+00; -6.6533987E-03;  1.0013358E+03;  4.0059185E-01;  1.0108759E+03;3;  1.8222845E+01;  0.0000000E+00; -4.9574533E+00;0;  1.0407797E-01;  9.9997061E+03;  0.0000000E+00; -1.2797730E-01;  1.0000000E+04;  0.0000000E+00;  9.9974219E+03;  3.7711479E-03;  0.0000000E+00;  1.0030682E-01;  5.3081879E+02;
  1.1800206E+00;  9.9999998E-03; -1.2000403E-01;2852;  2.1975320E-02;  0.0000000E+00; -4.8275571E-03;  1.0013586E+03;  4.0059185E-01;  1.0281998E+03;3;  1.6258923E+01;  0.0000000E+00; -3.9722340E+00;0;  9.2931665E-02;  9.9996738E+03;  0.0000000E+00; -7.1626671E-02;  1.0000000E+04;  0.0000000E+00;  9.9979072E+03;  6.6141193E-03;  0.0000000E+00;  8.6317547E-02;  4.0084418E+02;
  1.1800193E+00;  9.9999998E-03; -1.0000281E-01;2853;  2.0508114E-02;  0.0000000E+00; -3.5992973E-03;  1.0013830E+03;  4.0059176E-01;  1.0466056E+03;3;  1.4984894E+01;  0.0000000E+00; -3.1955860E+00;0;  7.8143582E-02;  9.9997314E+03;  0.0000000E+00; -3.4361273E-02;  1.0000000E+04;  0.0000000E+00;  9.9983398E+03;  5.4428112E-03;  0.0000000E+00;  7.2700769E-02;  3.0281876E+02;
  1.1800184E+00;  9.9999998E-03; -8.0002010E-02;2854;  1.9555885E-02;  0.0000000E+00; -2.6955674E-03;  1.0014061E+03;  4.0059182E-01;  1.0641089E+03;3;  1.4138202E+01;  0.0000000E+00; -2.4968557E+00;0;  6.2479317E-02;  9.9998389E+03;  0.0000000E+00; -1.3971636E-02;  1.0000000E+04;  0.0000000E+00;  9.9986963E+03;  1.8955806E-03;  0.0000000E+00;  6.0583737E-02;  2.3217204E+02;
  1.1800178E+00;  9.9999998E-03; -6.0001418E-02;2855;  1.8949546E-02;  0.0000000E+00; -1.9636450E-03;  1.0014255E+03;  4.0059179E-01;  1.0788148E+03;3;  1.3598761E+01;  0.0000000E+00; -1.8805258E+00;0;  4.8490636E-02;  9.9999561E+03;  0.0000000E+00; -4.6084081E-03;  1.0000000E+04;  0.0000000E+00;  9.9989658E+03; -2.3306254E-03;  0.0000000E+00;  5.0821260E-02;  1.8270097E+02;
  1.1800176E+00;  9.9999998E-03; -4.0000919E-02;2856;  1.8599641E-02;  0.0000000E+00; -1.2949732E-03;  1.0014398E+03;  4.0059179E-01;  1.0896412E+03;3;  1.3284336E+01;  0.0000000E+00; -1.2576598E+00;0;  3.7723221E-02;  1.0000056E+04;  0.0000000E+00; -1.1264712E-03;  1.0000000E+04;  0.0000000E+00;  9.9991523E+03; -6.0535218E-03;  0.0000000E+00;  4.3776743E-02;  1.4984657E+02;
  1.1800174E+00;  9.9999998E-03; -2.0000445E-02;2857;  1.8394675E-02;  0.0000000E+00; -6.3416956E-04;  1.0014486E+03;  4.0059179E-01;  1.0963175E+03;3;  1.3108174E+01;  0.0000000E+00; -6.2584937E-01;0;  3.1010799E-02;  1.0000121E+04;  0.0000000E+00; -1.4987236E-04;  1.0000000E+04;  0.0000000E+00;  9.9992607E+03; -8.5400203E-03;  0.0000000E+00;  3.9550819E-02;  1.3100366E+02;
  1.2000345E+00;  9.9999998E-03; -1.8001623E-01;2873;  3.5787277E-02;  0.0000000E+00; -1.4175023E-02;  1.0011583E+03;  4.0054980E-01;  8.5392938E+02;3;  2.8578808E+01;  0.0000000E+00; -7.6443095E+00;0;  1.4139539E-01;  9.9993428E+03;  0.0000000E+00; -3.0232820E-01;  1.0000000E+04;  0.0000000E+00;  9.9963428E+03;  1.3388606E-02;  0.0000000E+00;  1.2800679E-01;  7.4378113E+02;
  1.2000287E+00;  9.9999998E-03; -1.6001157E-01;2874;  2.9944280E-02;  0.0000000E+00; -1.0843845E-02;  1.0011918E+03;  4.0054971E-01;  8.7872144E+02;3;  2.3289848E+01;  0.0000000E+00; -6.4228106E+00;0;  1.2307342E-01;  9.9994336E+03;  0.0000000E+00; -2.5613773E-01;  1.0000000E+04;  0.0000000E+00;  9.9969219E+03;  9.8747024E-03;  0.0000000E+00;  1.1319872E-01;  6.2520148E+02;
  1.2000239E+00;  9.9999998E-03; -1.4000773E-01;2875;  2.5250683E-02;  0.0000000E+00; -7.7214958E-03;  1.0012142E+03;  4.0054977E-01;  8.9525079E+02;3;  1.9178894E+01;  0.0000000E+00; -5.0958467E+00;0;  1.1294687E-01;  9.9993682E+03;  0.0000000E+00; -1.8897627E-01;  1.0000000E+04;  0.0000000E+00;  9.9974326E+03;  1.3965378E-02;  0.0000000E+00;  9.8981492E-02;  4.9252615E+02;
  1.2000208E+00;  9.9999998E-03; -1.2000493E-01;2876;  2.2084925E-02;  0.0000000E+00; -5.2693584E-03;  1.0012314E+03;  4.0054974E-01;  9.0791113E+02;3;  1.6532211E+01;  0.0000000E+00; -3.8467963E+00;0;  1.0588855E-01;  9.9992656E+03;  0.0000000E+00; -1.2451984E-01;  1.0000000E+04;  0.0000000E+00;  9.9978789E+03;  1.9893927E-02;  0.0000000E+00;  8.5994616E-02;  3.7263046E+02;
  1.2000189E+00;  9.9999998E-03; -1.0000316E-01;2877;  2.0169040E-02;  0.0000000E+00; -3.6383281E-03;  1.0012480E+03;  4.0054977E-01;  9.2013049E+02;3;  1.4932079E+01;  0.0000000E+00; -2.9238956E+00;0;  9.7485855E-02;  9.9992139E+03;  0.0000000E+00; -7.2512671E-02;  1.0000000E+04;  0.0000000E+00;  9.9982646E+03;  2.3502793E-02;  0.0000000E+00;  7.3983058E-02;  2.7703528E+02;
  1.2000178E+00;  9.9999998E-03; -8.0002062E-02;2878;  1.8999895E-02;  0.0000000E+00; -2.5554730E-03;  1.0012651E+03;  4.0054971E-01;  9.3270038E+02;3;  1.3939179E+01;  0.0000000E+00; -2.2325377E+00;0;  8.7021694E-02;  9.9992275E+03;  0.0000000E+00; -3.6380362E-02;  1.0000000E+04;  0.0000000E+00;  9.9985918E+03;  2.3997063E-02;  0.0000000E+00;  6.3024633E-02;  2.0764226E+02;
  1.2000171E+00;  9.9999998E-03; -6.0001325E-02;2879;  1.8257048E-02;  0.0000000E+00; -1.7451474E-03;  1.0012808E+03;  4.0054980E-01;  9.4430298E+02;3;  1.3290984E+01;  0.0000000E+00; -1.6179155E+00;0;  7.6228023E-02;  9.9992773E+03;  0.0000000E+00; -1.5116228E-02;  1.0000000E+04;  0.0000000E+00;  9.9988516E+03;  2.2509655E-02;  0.0000000E+00;  5.3718369E-02;  1.6061566E+02;
  1.2000166E+00;  9.9999998E-03; -4.0000800E-02;2880;  1.7821319E-02;  0.0000000E+00; -1.1021855E-03;  1.0012933E+03;  4.0054971E-01;  9.5353210E+02;3;  1.2913569E+01;  0.0000000E+00; -1.0613165E+00;0;  6.7050353E-02;  9.9993369E+03;  0.0000000E+00; -4.8008617E-03;  1.0000000E+04;  0.0000000E+00;  9.9990449E+03;  2.0419996E-02;  0.0000000E+00;  4.6630353E-02;  1.3011754E+02;
  1.2000165E+00;  9.9999998E-03; -2.0000376E-02;2881;  1.7599586E-02;  0.0000000E+00; -5.3300476E-04;  1.0013014E+03;  4.0054977E-01;  9.5950897E+02;3;  1.2724469E+01;  0.0000000E+00; -5.2345407E-01;0;  6.0944550E-02;  9.9993828E+03;  0.0000000E+00; -8.9277967E-04;  1.0000000E+04;  0.0000000E+00;  9.9991621E+03;  1.8761685E-02;  0.0000000E+00;  4.2182866E-02;  1.1248636E+02;
  1.2200379E+00;  9.9999998E-03; -1.8001820E-01;2896;  3.8113926E-02;  0.0000000E+00; -1.5446877E-02;  1.0010357E+03;  4.0051872E-01;  7.3971777E+02;3;  3.0736069E+01;  0.0000000E+00; -8.7731609E+00;0;  1.7483237E-01;  9.9984336E+03;  0.0000000E+00; -2.4586506E-01;  1.0000000E+04;  0.0000000E+00;  9.9963555E+03;  4.6579070E-02;  0.0000000E+00;  1.2825331E-01;  5.5177606E+02;
  1.2200330E+00;  9.9999998E-03; -1.6001396E-01;2897;  3.3323899E-02;  0.0000000E+00; -1.2544964E-02;  1.0010743E+03;  4.0051880E-01;  7.6731049E+02;3;  2.5913101E+01;  0.0000000E+00; -7.4070988E+00;0;  1.5271212E-01;  9.9986563E+03;  0.0000000E+00; -2.8330976E-01;  1.0000000E+04;  0.0000000E+00;  9.9969043E+03;  3.8194839E-02;  0.0000000E+00;  1.1451728E-01;  5.2814197E+02;
  1.2200278E+00;  9.9999998E-03; -1.4001019E-01;2898;  2.8274434E-02;  0.0000000E+00; -9.6761268E-03;  1.0011074E+03;  4.0051872E-01;  7.9090228E+02;3;  2.1366032E+01;  0.0000000E+00; -6.0918255E+00;0;  1.3315780E-01;  9.9988252E+03;  0.0000000E+00; -2.3882110E-01;  1.0000000E+04;  0.0000000E+00;  9.9973926E+03;  3.2481279E-02;  0.0000000E+00;  1.0067652E-01;  4.4295557E+02;
  1.2200233E+00;  9.9999998E-03; -1.2000711E-01;2899;  2.3956418E-02;  0.0000000E+00; -6.9967126E-03;  1.0011304E+03;  4.0051872E-01;  8.0734131E+02;3;  1.7891432E+01;  0.0000000E+00; -4.5884457E+00;0;  1.2068336E-01;  9.9988594E+03;  0.0000000E+00; -1.7367709E-01;  1.0000000E+04;  0.0000000E+00;  9.9978164E+03;  3.2917593E-02;  0.0000000E+00;  8.7765768E-02;  3.4450595E+02;
  1.2200201E+00;  9.9999998E-03; -1.0000462E-01;2900;  2.0947138E-02;  0.0000000E+00; -4.7013476E-03;  1.0011451E+03;  4.0051875E-01;  8.1790375E+02;3;  1.5511545E+01;  0.0000000E+00; -3.2560189E+00;0;  1.1358774E-01;  9.9987930E+03;  0.0000000E+00; -1.1234023E-01;  1.0000000E+04;  0.0000000E+00;  9.9981768E+03;  3.7394468E-02;  0.0000000E+00;  7.6193266E-02;  2.5579469E+02;
  1.2200181E+00;  9.9999998E-03; -8.0002859E-02;2901;  1.9099889E-02;  0.0000000E+00; -3.0501094E-03;  1.0011563E+03;  4.0051869E-01;  8.2591022E+02;3;  1.4088123E+01;  0.0000000E+00; -2.2808487E+00;0;  1.0799085E-01;  9.9987178E+03;  0.0000000E+00; -6.3584834E-02;  1.0000000E+04;  0.0000000E+00;  9.9984775E+03;  4.1731231E-02;  0.0000000E+00;  6.6259615E-02;  1.8717210E+02;
  1.2200170E+00;  9.9999998E-03; -6.0001690E-02;2902;  1.8037744E-02;  0.0000000E+00; -1.9226938E-03;  1.0011664E+03;  4.0051872E-01;  8.3314935E+02;3;  1.3255630E+01;  0.0000000E+00; -1.5750617E+00;0;  1.0204519E-01;  9.9986758E+03;  0.0000000E+00; -3.0182192E-02;  1.0000000E+04;  0.0000000E+00;  9.9987197E+03;  4.4197392E-02;  0.0000000E+00;  5.7847794E-02;  1.4025630E+02;
  1.2200164E+00;  9.9999998E-03; -4.0000934E-02;2903;  1.7450592E-02;  0.0000000E+00; -1.1347000E-03;  1.0011750E+03;  4.0051877E-01;  8.3928070E+02;3;  1.2778323E+01;  0.0000000E+00; -1.0021328E+00;0;  9.6227661E-02;  9.9986680E+03;  0.0000000E+00; -1.1065597E-02;  1.0000000E+04;  0.0000000E+00;  9.9989014E+03;  4.5009561E-02;  0.0000000E+00;  5.1218104E-02;  1.1117961E+02;
  1.2200161E+00;  9.9999998E-03; -2.0000415E-02;2904;  1.7147234E-02;  0.0000000E+00; -5.2657357E-04;  1.0011810E+03;  4.0051869E-01;  8.4353833E+02;3;  1.2526871E+01;  0.0000000E+00; -4.8744094E-01;0;  9.1919139E-02;  9.9986709E+03;  0.0000000E+00; -2.3462058E-03;  1.0000000E+04;  0.0000000E+00;  9.9990166E+03;  4.5024291E-02;  0.0000000E+00;  4.6894852E-02;  9.5128326E+01;
  1.2400392E+00;  9.9999998E-03; -1.8001966E-01;2917;  3.8525820E-02;  0.0000000E+00; -1.6126633E-02;  1.0009518E+03;  4.0049633E-01;  6.5483209E+02;3;  3.2463409E+01;  0.0000000E+00; -9.5600128E+00;0;  1.9363813E-01;  9.9978770E+03;  0.0000000E+00; -1.6845439E-03;  1.0000000E+04;  0.0000000E+00;  9.9963516E+03;  6.6691294E-02;  0.0000000E+00;  1.2694684E-01;  3.5617078E+02;
  1.2400362E+00;  9.9999998E-03; -1.6001607E-01;2918;  3.5470936E-02;  0.0000000E+00; -1.3959613E-02;  1.0009727E+03;  4.0049633E-01;  6.6910535E+02;3;  2.8114384E+01;  0.0000000E+00; -8.5689430E+00;0;  1.8605126E-01;  9.9978018E+03;  0.0000000E+00; -1.9124956E-01;  1.0000000E+04;  0.0000000E+00;  9.9968408E+03;  6.9209069E-02;  0.0000000E+00;  1.1684220E-01;  3.5773438E+02;
  1.2400328E+00;  9.9999998E-03; -1.4001250E-01;2919;  3.2065172E-02;  0.0000000E+00; -1.1379593E-02;  1.0010001E+03;  4.0049636E-01;  6.8797217E+02;3;  2.4171768E+01;  0.0000000E+00; -7.3473077E+00;0;  1.7209348E-01;  9.9978740E+03;  0.0000000E+00; -2.3726569E-01;  1.0000000E+04;  0.0000000E+00;  9.9973154E+03;  6.8428949E-02;  0.0000000E+00;  1.0366452E-01;  3.4736328E+02;
  1.2400287E+00;  9.9999998E-03; -1.2000938E-01;2920;  2.8294649E-02;  0.0000000E+00; -8.8847196E-03;  1.0010286E+03;  4.0049636E-01;  7.0757806E+02;3;  2.0731516E+01;  0.0000000E+00; -5.9314141E+00;0;  1.5518856E-01;  9.9980420E+03;  0.0000000E+00; -2.0338708E-01;  1.0000000E+04;  0.0000000E+00;  9.9977178E+03;  6.3601710E-02;  0.0000000E+00;  9.1586851E-02;  2.9320242E+02;
  1.2400248E+00;  9.9999998E-03; -1.0000678E-01;2921;  2.4558386E-02;  0.0000000E+00; -6.6435733E-03;  1.0010518E+03;  4.0049630E-01;  7.2357562E+02;3;  1.7660173E+01;  0.0000000E+00; -4.5567217E+00;0;  1.4018710E-01;  9.9981738E+03;  0.0000000E+00; -1.4279257E-01;  1.0000000E+04;  0.0000000E+00;  9.9980547E+03;  5.9328791E-02;  0.0000000E+00;  8.0858313E-02;  2.2452931E+02;
  1.2400215E+00;  9.9999998E-03; -8.0004632E-02;2922;  2.1487804E-02;  0.0000000E+00; -4.6592336E-03;  1.0010681E+03;  4.0049633E-01;  7.3473389E+02;3;  1.5325062E+01;  0.0000000E+00; -3.2552352E+00;0;  1.2982056E-01;  9.9982148E+03;  0.0000000E+00; -8.5532628E-02;  1.0000000E+04;  0.0000000E+00;  9.9983340E+03;  5.8478169E-02;  0.0000000E+00;  7.1342394E-02;  1.6409518E+02;
  1.2400193E+00;  9.9999998E-03; -6.0002901E-02;2923;  1.9422151E-02;  0.0000000E+00; -2.9772713E-03;  1.0010784E+03;  4.0049627E-01;  7.4195416E+02;3;  1.3857530E+01;  0.0000000E+00; -2.1222708E+00;0;  1.2352308E-01;  9.9981934E+03;  0.0000000E+00; -4.3036841E-02;  1.0000000E+04;  0.0000000E+00;  9.9985635E+03;  6.0239568E-02;  0.0000000E+00;  6.3283511E-02;  1.2055029E+02;
  1.2400179E+00;  9.9999998E-03; -4.0001616E-02;2924;  1.8257564E-02;  0.0000000E+00; -1.6951526E-03;  1.0010850E+03;  4.0049630E-01;  7.4646674E+02;3;  1.3089096E+01;  0.0000000E+00; -1.2431070E+00;0;  1.1955622E-01;  9.9981533E+03;  0.0000000E+00; -1.6834853E-02;  1.0000000E+04;  0.0000000E+00;  9.9987334E+03;  6.2521599E-02;  0.0000000E+00;  5.7034615E-02;  9.3593361E+01;
  1.2400173E+00;  9.9999998E-03; -2.0000709E-02;2925;  1.7699862E-02;  0.0000000E+00; -7.5795461E-04;  1.0010892E+03;  4.0049633E-01;  7.4933813E+02;3;  1.2735465E+01;  0.0000000E+00; -5.7372159E-01;0;  1.1703657E-01;  9.9981270E+03;  0.0000000E+00; -3.7774735E-03;  1.0000000E+04;  0.0000000E+00;  9.9988447E+03;  6.4067923E-02;  0.0000000E+00;  5.2968644E-02;  7.9269577E+01;
  1.2600366E+00;  9.9999998E-03; -1.6001765E-01;2936;  3.5120595E-02;  0.0000000E+00; -1.4611590E-02;  1.0009237E+03;  4.0048060E-01;  6.0879755E+02;3;  2.9488764E+01;  0.0000000E+00; -9.0671673E+00;0;  1.8881777E-01;  9.9977344E+03;  0.0000000E+00;  8.2084879E-02;  1.0000000E+04;  0.0000000E+00;  9.9967246E+03;  7.0604138E-02;  0.0000000E+00;  1.1821362E-01;  2.5692090E+02;
  1.2600350E+00;  9.9999998E-03; -1.4001463E-01;2937;  3.3314940E-02;  0.0000000E+00; -1.2811752E-02;  1.0009257E+03;  4.0048054E-01;  6.1013519E+02;3;  2.6116119E+01;  0.0000000E+00; -8.3792448E+00;0;  1.9497216E-01;  9.9973379E+03;  0.0000000E+00; -9.4500251E-02;  1.0000000E+04;  0.0000000E+00;  9.9971582E+03;  8.5818902E-02;  0.0000000E+00;  1.0915325E-01;  2.1026807E+02;
  1.2600330E+00;  9.9999998E-03; -1.2001161E-01;2938;  3.1462729E-02;  0.0000000E+00; -1.0519442E-02;  1.0009359E+03;  4.0048051E-01;  6.1673749E+02;3;  2.3465414E+01;  0.0000000E+00; -7.1052561E+00;0;  1.9457111E-01;  9.9971426E+03;  0.0000000E+00; -1.5631434E-01;  1.0000000E+04;  0.0000000E+00;  9.9975566E+03;  9.7163551E-02;  0.0000000E+00;  9.7407550E-02;  1.9989577E+02;
  1.2600305E+00;  9.9999998E-03; -1.0000879E-01;2939;  2.9243840E-02;  0.0000000E+00; -8.1732506E-03;  1.0009529E+03;  4.0048054E-01;  6.2805444E+02;3;  2.1190920E+01;  0.0000000E+00; -5.5519781E+00;0;  1.8634966E-01;  9.9971445E+03;  0.0000000E+00; -1.3915534E-01;  1.0000000E+04;  0.0000000E+00;  9.9978984E+03;  9.9743918E-02;  0.0000000E+00;  8.6605750E-02;  1.6661821E+02;
  1.2600280E+00;  9.9999998E-03; -8.0006227E-02;2940;  2.6939293E-02;  0.0000000E+00; -5.9441635E-03;  1.0009708E+03;  4.0048048E-01;  6.3976440E+02;3;  1.9118189E+01;  0.0000000E+00; -4.0938983E+00;0;  1.7527448E-01;  9.9972197E+03;  0.0000000E+00; -9.2149578E-02;  1.0000000E+04;  0.0000000E+00;  9.9981787E+03;  9.8172605E-02;  0.0000000E+00;  7.7101871E-02;  1.2268666E+02;
  1.2600259E+00;  9.9999998E-03; -6.0004022E-02;2941;  2.4988484E-02;  0.0000000E+00; -3.9349818E-03;  1.0009844E+03;  4.0048054E-01;  6.4880261E+02;3;  1.7469225E+01;  0.0000000E+00; -2.7671471E+00;0;  1.6592912E-01;  9.9972686E+03;  0.0000000E+00; -4.8095580E-02;  1.0000000E+04;  0.0000000E+00;  9.9984004E+03;  9.6677892E-02;  0.0000000E+00;  6.9251232E-02;  8.6588707E+01;
  1.2600244E+00;  9.9999998E-03; -4.0002301E-02;2942;  2.3629148E-02;  0.0000000E+00; -2.3021430E-03;  1.0009933E+03;  4.0048060E-01;  6.5461871E+02;3;  1.6357542E+01;  0.0000000E+00; -1.6564196E+00;0;  1.5975054E-01;  9.9972793E+03;  0.0000000E+00; -1.9108137E-02;  1.0000000E+04;  0.0000000E+00;  9.9985645E+03;  9.6421808E-02;  0.0000000E+00;  6.3328728E-02;  6.4145187E+01;
  1.2600236E+00;  9.9999998E-03; -2.0001028E-02;2943;  2.2858482E-02;  0.0000000E+00; -1.0428049E-03;  1.0009980E+03;  4.0048048E-01;  6.5776263E+02;3;  1.5739229E+01;  0.0000000E+00; -7.6406771E-01;0;  1.5621084E-01;  9.9972773E+03;  0.0000000E+00; -4.3361895E-03;  1.0000000E+04;  0.0000000E+00;  9.9986660E+03;  9.6682146E-02;  0.0000000E+00;  5.9528701E-02;  5.2696259E+01;
  1.2800336E+00;  9.9999998E-03; -1.2001372E-01;2953;  3.1212801E-02;  0.0000000E+00; -1.1868161E-02;  1.0009044E+03;  4.0046957E-01;  5.6847565E+02;3;  2.4713089E+01;  0.0000000E+00; -8.0296383E+00;0;  1.9204761E-01;  9.9973457E+03;  0.0000000E+00;  3.7012096E-02;  1.0000000E+04;  0.0000000E+00;  9.9972715E+03;  8.5061766E-02;  0.0000000E+00;  1.0698584E-01;  1.4446671E+02;
  1.2800330E+00;  9.9999998E-03; -1.0001090E-01;2954;  3.0557171E-02;  0.0000000E+00; -9.7750891E-03;  1.0008964E+03;  4.0046951E-01;  5.6345563E+02;3;  2.2866306E+01;  0.0000000E+00; -6.8822150E+00;0;  2.0390359E-01;  9.9968164E+03;  0.0000000E+00; -3.8457945E-02;  1.0000000E+04;  0.0000000E+00;  9.9976445E+03;  1.0793458E-01;  0.0000000E+00;  9.5969014E-02;  1.0212358E+02;
  1.2800322E+00;  9.9999998E-03; -8.0007978E-02;2955;  2.9769698E-02;  0.0000000E+00; -7.2862571E-03;  1.0008968E+03;  4.0046948E-01;  5.6375659E+02;3;  2.1519707E+01;  0.0000000E+00; -5.0967255E+00;0;  2.0759249E-01;  9.9964932E+03;  0.0000000E+00; -4.9413901E-02;  1.0000000E+04;  0.0000000E+00;  9.9979756E+03;  1.2294934E-01;  0.0000000E+00;  8.4643140E-02;  7.2308792E+01;
  1.2800313E+00;  9.9999998E-03; -6.0005199E-02;2956;  2.9115140E-02;  0.0000000E+00; -4.8440471E-03;  1.0008984E+03;  4.0046945E-01;  5.6473193E+02;3;  2.0673342E+01;  0.0000000E+00; -3.4140654E+00;0;  2.0968252E-01;  9.9962725E+03;  0.0000000E+00; -3.1406928E-02;  1.0000000E+04;  0.0000000E+00;  9.9982295E+03;  1.3411219E-01;  0.0000000E+00;  7.5570323E-02;  4.4389126E+01;
  1.2800307E+00;  9.9999998E-03; -4.0002972E-02;2957;  2.8548986E-02;  0.0000000E+00; -2.8178690E-03;  1.0008995E+03;  4.0046948E-01;  5.6540723E+02;3;  1.9965673E+01;  0.0000000E+00; -2.0111654E+00;0;  2.1038432E-01;  9.9961289E+03;  0.0000000E+00; -1.3229946E-02;  1.0000000E+04;  0.0000000E+00;  9.9983984E+03;  1.4094459E-01;  0.0000000E+00;  6.9439739E-02;  2.4178272E+01;
  1.2800304E+00;  9.9999998E-03; -2.0001320E-02;2958;  2.8203221E-02;  0.0000000E+00; -1.2672382E-03;  1.0009001E+03;  4.0046945E-01;  5.6585742E+02;3;  1.9557444E+01;  0.0000000E+00; -9.1497672E-01;0;  2.1072935E-01;  9.9960371E+03;  0.0000000E+00; -3.0443701E-03;  1.0000000E+04;  0.0000000E+00;  9.9984971E+03;  1.4492097E-01;  0.0000000E+00;  6.5808371E-02;  1.2850818E+01;
  1.3000318E+00;  9.9999998E-03; -8.0009773E-02;2966;  2.8809104E-02;  0.0000000E+00; -8.6099561E-03;  1.0009084E+03;  4.0046203E-01;  5.4316168E+02;3;  2.2358587E+01;  0.0000000E+00; -6.2696199E+00;0;  1.7939787E-01;  9.9973945E+03;  0.0000000E+00;  7.2736248E-02;  1.0000000E+04;  0.0000000E+00;  9.9976729E+03;  8.3650887E-02;  0.0000000E+00;  9.5746979E-02;  9.0544800E+01;
  1.3000320E+00;  9.9999998E-03; -6.0006410E-02;2967;  2.8904723E-02;  0.0000000E+00; -5.7615489E-03;  1.0008995E+03;  4.0046203E-01;  5.3781519E+02;3;  2.1659903E+01;  0.0000000E+00; -4.2405276E+00;0;  1.8808429E-01;  9.9968574E+03;  0.0000000E+00;  2.2116790E-02;  1.0000000E+04;  0.0000000E+00;  9.9980352E+03;  1.0524839E-01;  0.0000000E+00;  8.2835898E-02;  4.5882092E+01;
  1.3000321E+00;  9.9999998E-03; -4.0003650E-02;2968;  2.8999383E-02;  0.0000000E+00; -3.3280998E-03;  1.0008899E+03;  4.0046206E-01;  5.3211249E+02;3;  2.1308807E+01;  0.0000000E+00; -2.4634581E+00;0;  1.9689482E-01;  9.9964590E+03;  0.0000000E+00;  4.9252314E-03;  1.0000000E+04;  0.0000000E+00;  9.9982432E+03;  1.2167706E-01;  0.0000000E+00;  7.5217754E-02;  2.0402269E+01;
  1.3000323E+00;  9.9999998E-03; -2.0001611E-02;2969;  2.9029148E-02;  0.0000000E+00; -1.4834151E-03;  1.0008835E+03;  4.0046203E-01;  5.2833453E+02;3;  2.1093042E+01;  0.0000000E+00; -1.1049063E+00;0;  2.0266998E-01;  9.9962256E+03;  0.0000000E+00;  6.7345856E-04;  1.0000000E+04;  0.0000000E+00;  9.9983496E+03;  1.3128637E-01;  0.0000000E+00;  7.1383610E-02;  7.1559854E+00;
 -1.8275978E-08;  9.9999998E-03; -1.1676729E-16;1045; -4.0567797E-05;  0.0000000E+00; -3.2306318E-14;  1.0000005E+03;  4.0000001E-01;  3.9505050E-01;3; -6.6894285E-02;  0.0000000E+00; -1.2549108E-09;0; -8.2588708E-04;  1.0000011E+04;  0.0000000E+00; -7.6965827E-19;  1.0000000E+04;  0.0000000E+00;  1.0000000E+04; -8.4081735E-04;  0.0000000E+00;  1.4930260E-05;  9.2171200E-02;
 -1.8259563E-08;  9.9999998E-03;  2.0000000E-02;1046; -4.0540093E-05;  0.0000000E+00;  3.2165374E-07;  1.0000005E+03;  4.0000001E-01;  3.9505050E-01;3; -6.6863209E-02;  0.0000000E+00;  4.8635772E-04;0; -8.2511932E-04;  1.0000011E+04;  0.0000000E+00; -4.8676682E-13;  1.0000000E+04;  0.0000000E+00;  1.0000000E+04; -8.4031490E-04;  0.0000000E+00;  1.5195568E-05;  9.3156345E-02;
 -1.8209095E-08;  9.9999998E-03;  3.9999999E-02;1047; -4.0454157E-05;  0.0000000E+00;  6.5978821E-07;  1.0000005E+03;  4.0000001E-01;  3.9505050E-01;3; -6.6765092E-02;  0.0000000E+00;  1.0045941E-03;0; -8.2275475E-04;  1.0000011E+04;  0.0000000E+00; -1.5799633E-12;  1.0000000E+04;  0.0000000E+00;  1.0000000E+04; -8.3873409E-04;  0.0000000E+00;  1.5979362E-05;  9.6051931E-02;
 -1.8119861E-08;  9.9999998E-03;  5.9999999E-02;1048; -4.0298986E-05;  0.0000000E+00;  1.0348098E-06;  1.0000005E+03;  4.0000001E-01;  3.9505050E-01;3; -6.6581070E-02;  0.0000000E+00;  1.5918538E-03;0; -8.1859971E-04;  1.0000011E+04;  0.0000000E+00; -1.2450070E-13;  1.0000000E+04;  0.0000000E+00;  1.0000000E+04; -8.3584554E-04;  0.0000000E+00;  1.7245824E-05;  1.0068560E-01;
 -1.7984247E-08;  9.9999998E-03;  7.9999998E-02;1049; -4.0056992E-05;  0.0000000E+00;  1.4600473E-06;  1.0000005E+03;  4.0000001E-01;  3.9505050E-01;3; -6.6280454E-02;  0.0000000E+00;  2.2761838E-03;0; -8.1230869E-04;  1.0000010E+04;  0.0000000E+00;  2.7526998E-12;  1.0000000E+04;  0.0000000E+00;  1.0000000E+04; -8.3124335E-04;  0.0000000E+00;  1.8934647E-05;  1.0678092E-01;
 -1.7791722E-08;  9.9999998E-03;  1.0000000E-01;1050; -3.9702973E-05;  0.0000000E+00;  1.9439151E-06;  1.0000004E+03;  4.0000001E-01;  3.9505050E-01;3; -6.5818235E-02;  0.0000000E+00;  3.0796225E-03;0; -8.0335862E-04;  1.0000009E+04;  0.0000000E+00; -5.6505820E-12;  1.0000000E+04;  0.0000000E+00;  1.0000000E+04; -8.2431000E-04;  0.0000000E+00;  2.0951353E-05;  1.1393476E-01;
 -1.7527514E-08;  9.9999998E-03;  1.2000000E-01;1051; -3.9201168E-05;  0.0000000E+00;  2.5000695E-06;  1.0000004E+03;  4.0000001E-01;  3.9505050E-01;3; -6.5128990E-02;  0.0000000E+00;  4.0267915E-03;0; -7.9103163E-04;  1.0000009E+04;  0.0000000E+00; -1.2715958E-11;  1.0000000E+04;  0.0000000E+00;  1.0000000E+04; -8.1416924E-04;  0.0000000E+00;  2.3137609E-05;  1.2151971E-01;
 -1.7172150E-08;  9.9999998E-03;  1.4000000E-01;1052; -3.8503160E-05;  0.0000000E+00;  3.1311893E-06;  1.0000004E+03;  4.0000001E-01;  3.9505050E-01;3; -6.4122379E-02;  0.0000000E+00;  5.1075323E-03;0; -7.7441544E-04;  1.0000009E+04;  0.0000000E+00;  8.7866268E-12;  1.0000000E+04;  0.0000000E+00;  1.0000000E+04; -7.9964288E-04;  0.0000000E+00;  2.5227413E-05;  1.2852381E-01;
  1.9999973E-02;  9.9999998E-03;  1.1134349E-15;1075; -5.9908045E-05;  0.0000000E+00; -2.0994526E-12;  1.0000007E+03;  4.0000001E-01;  5.9257573E-01;3; -9.4844967E-02;  0.0000000E+00; -2.0396328E-08;0; -1.0660816E-03;  1.0000013E+04;  0.0000000E+00;  1.1137129E-18;  1.0000000E+04;  0.0000000E+00;  1.0000000E+04; -1.0878922E-03;  0.0000000E+00;  2.1810605E-05;  1.3299754E-01;
  1.9999973E-02;  9.9999998E-03;  2.0000000E-02;1076; -5.9873651E-05;  0.0000000E+00;  4.7824824E-07;  1.0000007E+03;  4.0000001E-01;  5.9257573E-01;3; -9.4811179E-02;  0.0000000E+00;  7.0397370E-04;0; -1.0651764E-03;  1.0000013E+04;  0.0000000E+00; -1.8658577E-12;  1.0000000E+04;  0.0000000E+00;  1.0000000E+04; -1.0873772E-03;  0.0000000E+00;  2.2200784E-05;  1.3449208E-01;
  1.9999973E-02;  9.9999998E-03;  3.9999999E-02;1077; -5.9766098E-05;  0.0000000E+00;  9.7983229E-07;  1.0000007E+03;  4.0000001E-01;  5.9257573E-01;3; -9.4703645E-02;  0.0000000E+00;  1.4491624E-03;0; -1.0623867E-03;  1.0000013E+04;  0.0000000E+00; -6.5818249E-13;  1.0000000E+04;  0.0000000E+00;  1.0000000E+04; -1.0857403E-03;  0.0000000E+00;  2.3353618E-05;  1.3888901E-01;
  1.9999973E-02;  9.9999998E-03;  6.0000002E-02;1078; -5.9569804E-05;  0.0000000E+00;  1.5298534E-06;  1.0000007E+03;  4.0000001E-01;  5.9257573E-01;3; -9.4497822E-02;  0.0000000E+00;  2.2779466E-03;0; -1.0574802E-03;  1.0000013E+04;  0.0000000E+00; -1.1055114E-12;  1.0000000E+04;  0.0000000E+00;  1.0000000E+04; -1.0826965E-03;  0.0000000E+00;  2.5216275E-05;  1.4593564E-01;
  1.9999973E-02;  9.9999998E-03;  7.9999998E-02;1079; -5.9258251E-05;  0.0000000E+00;  2.1498740E-06;  1.0000007E+03;  4.0000001E-01;  5.9257573E-01;3; -9.4150141E-02;  0.0000000E+00;  3.2317475E-03;0; -1.0500379E-03;  1.0000013E+04;  0.0000000E+00; -1.1087074E-12;  1.0000000E+04;  0.0000000E+00;  1.0000000E+04; -1.0777360E-03;  0.0000000E+00;  2.7698155E-05;  1.5521786E-01;
  1.9999973E-02;  9.9999998E-03;  1.0000000E-01;1080; -5.8795198E-05;  0.0000000E+00;  2.8446379E-06;  1.0000007E+03;  4.0000001E-01;  5.9257573E-01;3; -9.3600325E-02;  0.0000000E+00;  4.3268637E-03;0; -1.0394163E-03;  1.0000013E+04;  0.0000000E+00;  1.1121288E-12;  1.0000000E+04;  0.0000000E+00;  1.0000000E+04; -1.0700724E-03;  0.0000000E+00;  3.0656094E-05;  1.6612084E-01;
  1.9999973E-02;  9.9999998E-03;  1.2000000E-01;1081; -5.8125537E-05;  0.0000000E+00;  3.6334188E-06;  1.0000006E+03;  4.0000001E-01;  4.9381313E-01;3; -9.2754453E-02;  0.0000000E+00;  5.5999737E-03;0; -1.0247271E-03;  1.0000012E+04;  0.0000000E+00; -7.1339427E-12;  1.0000000E+04;  0.0000000E+00;  1.0000000E+04; -1.0585805E-03;  0.0000000E+00;  3.3853383E-05;  1.7768937E-01;
  1.9999973E-02;  9.9999998E-03;  1.4000000E-01;1082; -5.7174741E-05;  0.0000000E+00;  4.5393722E-06;  1.0000005E+03;  4.0000001E-01;  4.9381313E-01;3; -9.1476806E-02;  0.0000000E+00;  7.0819939E-03;0; -1.0048155E-03;  1.0000012E+04;  0.0000000E+00; -2.5086560E-12;  1.0000000E+04;  0.0000000E+00;  1.0000000E+04; -1.0417191E-03;  0.0000000E+00;  3.6903693E-05;  1.8841869E-01;
  3.9999958E-02;  9.9999998E-03; -5.0749476E-16;1106; -8.6114989E-05;  0.0000000E+00;  5.0986949E-12;  1.0000009E+03;  4.0000001E-01;  6.9133836E-01;3; -1.3145357E-01;  0.0000000E+00;  3.1073984E-08;0; -1.3428627E-03;  1.0000017E+04;  0.0000000E+00;  2.5471693E-18;  1.0000000E+04;  0.0000000E+00;  1.0000000E+04; -1.3726443E-03;  0.0000000E+00;  2.9781613E-05;  1.8299636E-01;
  3.9999958E-02;  9.9999998E-03;  2.0000000E-02;1107; -8.6074702E-05;  0.0000000E+00;  6.4081763E-07;  1.0000009E+03;  4.0000001E-01;  6.9133836E-01;3; -1.3142416E-01;  0.0000000E+00;  9.0905163E-04;0; -1.3418630E-03;  1.0000017E+04;  0.0000000E+00; -1.1344649E-12;  1.0000000E+04;  0.0000000E+00;  1.0000000E+04; -1.3721866E-03;  0.0000000E+00;  3.0323581E-05;  1.8514770E-01;
  3.9999962E-02;  9.9999998E-03;  3.9999999E-02;1108; -8.5947737E-05;  0.0000000E+00;  1.3120542E-06;  1.0000009E+03;  4.0000001E-01;  6.9133836E-01;3; -1.3132647E-01;  0.0000000E+00;  1.8673803E-03;0; -1.3387807E-03;  1.0000017E+04;  0.0000000E+00; -4.0925919E-13;  1.0000000E+04;  0.0000000E+00;  1.0000000E+04; -1.3707059E-03;  0.0000000E+00;  3.1925116E-05;  1.9148278E-01;
  3.9999962E-02;  9.9999998E-03;  6.0000002E-02;1109; -8.5713255E-05;  0.0000000E+00;  2.0437478E-06;  1.0000009E+03;  4.0000001E-01;  6.9133836E-01;3; -1.3112897E-01;  0.0000000E+00;  2.9222148E-03;0; -1.3333469E-03;  1.0000017E+04;  0.0000000E+00; -2.3026982E-12;  1.0000000E+04;  0.0000000E+00;  1.0000000E+04; -1.3678597E-03;  0.0000000E+00;  3.4512745E-05;  2.0165078E-01;
  3.9999962E-02;  9.9999998E-03;  7.9999998E-02;1110; -8.5334417E-05;  0.0000000E+00;  2.8639349E-06;  1.0000009E+03;  4.0000001E-01;  6.9133836E-01;3; -1.3077116E-01;  0.0000000E+00;  4.1245613E-03;0; -1.3250723E-03;  1.0000017E+04;  0.0000000E+00; -1.1318047E-12;  1.0000000E+04;  0.0000000E+00;  1.0000000E+04; -1.3630306E-03;  0.0000000E+00;  3.7958340E-05;  2.1506414E-01;
  3.9999962E-02;  9.9999998E-03;  1.0000000E-01;1111; -8.4758693E-05;  0.0000000E+00;  3.7802613E-06;  1.0000009E+03;  4.0000001E-01;  6.9133836E-01;3; -1.3016582E-01;  0.0000000E+00;  5.4951129E-03;0; -1.3131987E-03;  1.0000017E+04;  0.0000000E+00;  5.9173009E-12;  1.0000000E+04;  0.0000000E+00;  1.0000000E+04; -1.3552564E-03;  0.0000000E+00;  4.2057716E-05;  2.3083451E-01;
  3.9999962E-02;  9.9999998E-03;  1.2000000E-01;1112; -8.3905747E-05;  0.0000000E+00;  4.8108091E-06;  1.0000007E+03;  4.0000001E-01;  5.9257573E-01;3; -1.2918109E-01;  0.0000000E+00;  7.0674932E-03;0; -1.2966563E-03;  1.0000016E+04;  0.0000000E+00;  5.9585509E-12;  1.0000000E+04;  0.0000000E+00;  1.0000000E+04; -1.3431353E-03;  0.0000000E+00;  4.6478890E-05;  2.4758779E-01;
  3.9999962E-02;  9.9999998E-03;  1.4000000E-01;1113; -8.2664541E-05;  0.0000000E+00;  5.9853251E-06;  1.0000007E+03;  4.0000001E-01;  5.9257573E-01;3; -1.2763013E-01;  0.0000000E+00;  8.8867191E-03;0; -1.2740217E-03;  1.0000016E+04;  0.0000000E+00; -4.0688572E-12;  1.0000000E+04;  0.0000000E+00;  1.0000000E+04; -1.3247193E-03;  0.0000000E+00;  5.0697628E-05;  2.6321414E-01;
  5.9999943E-02;  9.9999998E-03;  6.6129461E-16;1137; -1.1946481E-04;  0.0000000E+00; -8.9734001E-12;  1.0000010E+03;  4.0000001E-01;  8.8886362E-01;3; -1.7657292E-01;  0.0000000E+00; -4.6195659E-08;0; -1.6850873E-03;  1.0000021E+04;  0.0000000E+00;  2.3856481E-19;  1.0000000E+04;  0.0000000E+00;  1.0000000E+04; -1.7239354E-03;  0.0000000E+00;  3.8848033E-05;  2.4458730E-01;
  5.9999943E-02;  9.9999998E-03;  2.0000000E-02;1138; -1.1942122E-04;  0.0000000E+00;  8.1492720E-07;  1.0000010E+03;  4.0000001E-01;  8.8886362E-01;3; -1.7655781E-01;  0.0000000E+00;  1.1058379E-03;0; -1.6840369E-03;  1.0000021E+04;  0.0000000E+00; -4.7718979E-13;  1.0000000E+04;  0.0000000E+00;  1.0000000E+04; -1.7236148E-03;  0.0000000E+00;  3.9577793E-05;  2.4759811E-01;
  5.9999943E-02;  9.9999998E-03;  3.9999999E-02;1139; -1.1928261E-04;  0.0000000E+00;  1.6687130E-06;  1.0000010E+03;  4.0000001E-01;  8.8886362E-01;3; -1.7650019E-01;  0.0000000E+00;  2.2709155E-03;0; -1.6807902E-03;  1.0000021E+04;  0.0000000E+00;  4.0349608E-13;  1.0000000E+04;  0.0000000E+00;  1.0000000E+04; -1.7225249E-03;  0.0000000E+00;  4.1734656E-05;  2.5647327E-01;
  5.9999943E-02;  9.9999998E-03;  6.0000002E-02;1140; -1.1902241E-04;  0.0000000E+00;  2.5954678E-06;  1.0000010E+03;  4.0000001E-01;  8.8886362E-01;3; -1.7635930E-01;  0.0000000E+00;  3.5448133E-03;0; -1.6750399E-03;  1.0000021E+04;  0.0000000E+00; -2.5105921E-13;  1.0000000E+04;  0.0000000E+00;  1.0000000E+04; -1.7202594E-03;  0.0000000E+00;  4.5219509E-05;  2.7074125E-01;
  5.9999943E-02;  9.9999998E-03;  7.9999998E-02;1141; -1.1859163E-04;  0.0000000E+00;  3.6320378E-06;  1.0000010E+03;  4.0000001E-01;  8.8886362E-01;3; -1.7605530E-01;  0.0000000E+00;  4.9917190E-03;0; -1.6662269E-03;  1.0000021E+04;  0.0000000E+00;  7.8805419E-13;  1.0000000E+04;  0.0000000E+00;  1.0000000E+04; -1.7160837E-03;  0.0000000E+00;  4.9856826E-05;  2.8959349E-01;
  5.9999943E-02;  9.9999998E-03;  1.0000000E-01;1142; -1.1791853E-04;  0.0000000E+00;  4.7913686E-06;  1.0000010E+03;  4.0000001E-01;  8.8886362E-01;3; -1.7546883E-01;  0.0000000E+00;  6.6420953E-03;0; -1.6534665E-03;  1.0000021E+04;  0.0000000E+00;  4.4049582E-12;  1.0000000E+04;  0.0000000E+00;  1.0000000E+04; -1.7088319E-03;  0.0000000E+00;  5.5365377E-05;  3.1178695E-01;
  5.9999947E-02;  9.9999998E-03;  1.2000000E-01;1143; -1.1689233E-04;  0.0000000E+00;  6.0916623E-06;  1.0000010E+03;  4.0000001E-01;  7.9010099E-01;3; -1.7442141E-01;  0.0000000E+00;  8.5188104E-03;0; -1.6354875E-03;  1.0000021E+04;  0.0000000E+00;  9.2468708E-13;  1.0000000E+04;  0.0000000E+00;  1.0000000E+04; -1.6967852E-03;  0.0000000E+00;  6.1297629E-05;  3.3541185E-01;
  5.9999947E-02;  9.9999998E-03;  1.4000000E-01;1144; -1.1535409E-04;  0.0000000E+00;  7.5704634E-06;  1.0000010E+03;  4.0000001E-01;  7.9010099E-01;3; -1.7265305E-01;  0.0000000E+00;  1.0683721E-02;0; -1.6105461E-03;  1.0000021E+04;  0.0000000E+00;  2.1740889E-11;  1.0000000E+04;  0.0000000E+00;  1.0000000E+04; -1.6775155E-03;  0.0000000E+00;  6.6969362E-05;  3.5760403E-01;
  7.9999924E-02;  9.9999998E-03; -2.0331859E-15;1168; -1.6125468E-04;  0.0000000E+00; -2.0913367E-12;  1.0000013E+03;  4.0000001E-01;  1.0863888E+00;3; -2.3155923E-01;  0.0000000E+00;  2.0609058E-08;0; -2.1239168E-03;  1.0000029E+04;  0.0000000E+00;  2.1276151E-17;  1.0000000E+04;  0.0000000E+00;  1.0000000E+04; -2.1731530E-03;  0.0000000E+00;  4.9236121E-05;  3.2150882E-01;
  7.9999924E-02;  9.9999998E-03;  2.0000001E-02;1169; -1.6121233E-04;  0.0000000E+00;  1.0075415E-06;  1.0000013E+03;  4.0000001E-01;  1.0863888E+00;3; -2.3157144E-01;  0.0000000E+00;  1.2989645E-03;0; -2.1228588E-03;  1.0000029E+04;  0.0000000E+00; -1.2172763E-12;  1.0000000E+04;  0.0000000E+00;  1.0000000E+04; -2.1730675E-03;  0.0000000E+00;  5.0208688E-05;  3.2567897E-01;
  7.9999924E-02;  9.9999998E-03;  4.0000003E-02;1170; -1.6107515E-04;  0.0000000E+00;  2.0650245E-06;  1.0000013E+03;  4.0000001E-01;  1.0863888E+00;3; -2.3159131E-01;  0.0000000E+00;  2.6717500E-03;0; -2.1195731E-03;  1.0000029E+04;  0.0000000E+00; -2.6262751E-12;  1.0000000E+04;  0.0000000E+00;  1.0000000E+04; -2.1726568E-03;  0.0000000E+00;  5.3083819E-05;  3.3798641E-01;
  7.9999924E-02;  9.9999998E-03;  6.0000002E-02;1171; -1.6081001E-04;  0.0000000E+00;  3.2095609E-06;  1.0000013E+03;  4.0000001E-01;  1.0863888E+00;3; -2.3156805E-01;  0.0000000E+00;  4.1664676E-03;0; -2.1137155E-03;  1.0000029E+04;  0.0000000E+00; -3.1404785E-12;  1.0000000E+04;  0.0000000E+00;  1.0000000E+04; -2.1714449E-03;  0.0000000E+00;  5.7729438E-05;  3.5781023E-01;
  7.9999924E-02;  9.9999998E-03;  8.0000006E-02;1172; -1.6035356E-04;  0.0000000E+00;  4.4910066E-06;  1.0000013E+03;  4.0000001E-01;  1.0863888E+00;3; -2.3140024E-01;  0.0000000E+00;  5.8662640E-03;0; -2.1046421E-03;  1.0000029E+04;  0.0000000E+00; -8.8325267E-12;  1.0000000E+04;  0.0000000E+00;  1.0000000E+04; -2.1685502E-03;  0.0000000E+00;  6.3908003E-05;  3.8405851E-01;
  7.9999924E-02;  9.9999998E-03;  1.0000000E-01;1173; -1.5961088E-04;  0.0000000E+00;  5.9315703E-06;  1.0000013E+03;  4.0000001E-01;  1.0863888E+00;3; -2.3093343E-01;  0.0000000E+00;  7.8173121E-03;0; -2.0913281E-03;  1.0000029E+04;  0.0000000E+00;  5.0611746E-12;  1.0000000E+04;  0.0000000E+00;  1.0000000E+04; -2.1625662E-03;  0.0000000E+00;  7.1237948E-05;  4.1502085E-01;
  7.9999924E-02;  9.9999998E-03;  1.2000000E-01;1174; -1.5843713E-04;  0.0000000E+00;  7.5500352E-06;  1.0000013E+03;  4.0000001E-01;  1.0863888E+00;3; -2.2993650E-01;  0.0000000E+00;  1.0033801E-02;0; -2.0722658E-03;  1.0000028E+04;  0.0000000E+00; -7.2315322E-12;  1.0000000E+04;  0.0000000E+00;  1.0000000E+04; -2.1513912E-03;  0.0000000E+00;  7.9125333E-05;  4.4808486E-01;
  7.9999924E-02;  9.9999998E-03;  1.4000000E-01;1175; -1.5661985E-04;  0.0000000E+00;  9.3929266E-06;  1.0000013E+03;  4.0000001E-01;  1.0863888E+00;3; -2.2806273E-01;  0.0000000E+00;  1.2594949E-02;0; -2.0453217E-03;  1.0000026E+04;  0.0000000E+00; -1.5487988E-12;  1.0000000E+04;  0.0000000E+00;  1.0000000E+04; -2.1320153E-03;  0.0000000E+00;  8.6693493E-05;  4.7941965E-01;
  9.9999897E-02;  9.9999998E-03; -1.2021316E-15;1199; -2.1361689E-04;  0.0000000E+00; -1.6422207E-11;  1.0000018E+03;  4.0000001E-01;  1.4814394E+00;3; -2.9867426E-01;  0.0000000E+00; -6.7120560E-08;0; -2.6907590E-03;  1.0000037E+04;  0.0000000E+00; -3.4762977E-18;  1.0000000E+04;  0.0000000E+00;  1.0000000E+04; -2.7521106E-03;  0.0000000E+00;  6.1351602E-05;  4.1870332E-01;
  9.9999897E-02;  9.9999998E-03;  2.0000001E-02;1200; -2.1358280E-04;  0.0000000E+00;  1.2279218E-06;  1.0000018E+03;  4.0000001E-01;  1.4814394E+00;3; -2.9872951E-01;  0.0000000E+00;  1.4973100E-03;0; -2.6897406E-03;  1.0000037E+04;  0.0000000E+00; -1.7861912E-12;  1.0000000E+04;  0.0000000E+00;  1.0000000E+04; -2.7523935E-03;  0.0000000E+00;  6.2652776E-05;  4.2448050E-01;
  9.9999897E-02;  9.9999998E-03;  4.0000003E-02;1201; -2.1346693E-04;  0.0000000E+00;  2.5185639E-06;  1.0000018E+03;  4.0000001E-01;  1.4814394E+00;3; -2.9887301E-01;  0.0000000E+00;  3.0807499E-03;0; -2.6865629E-03;  1.0000037E+04;  0.0000000E+00;  3.3617202E-12;  1.0000000E+04;  0.0000000E+00;  1.0000000E+04; -2.7530636E-03;  0.0000000E+00;  6.6500696E-05;  4.4155601E-01;
  9.9999897E-02;  9.9999998E-03;  6.0000002E-02;1202; -2.1322854E-04;  0.0000000E+00;  3.9173706E-06;  1.0000018E+03;  4.0000001E-01;  1.4814394E+00;3; -2.9904154E-01;  0.0000000E+00;  4.8145130E-03;0; -2.6808332E-03;  1.0000036E+04;  0.0000000E+00; -5.0053533E-12;  1.0000000E+04;  0.0000000E+00;  1.0000000E+04; -2.7535534E-03;  0.0000000E+00;  7.2720286E-05;  4.6912980E-01;
  9.9999897E-02;  9.9999998E-03;  8.0000006E-02;1203; -2.1278854E-04;  0.0000000E+00;  5.4881930E-06;  1.0000018E+03;  4.0000001E-01;  1.4814394E+00;3; -2.9911304E-01;  0.0000000E+00;  6.7914831E-03;0; -2.6718113E-03;  1.0000036E+04;  0.0000000E+00; -5.9369831E-12;  1.0000000E+04;  0.0000000E+00;  1.0000000E+04; -2.7528026E-03;  0.0000000E+00;  8.0991369E-05;  5.0574976E-01;
  9.9999897E-02;  9.9999998E-03;  1.0000000E-01;1204; -2.1202571E-04;  0.0000000E+00;  7.2693592E-06;  1.0000018E+03;  4.0000001E-01;  1.4814394E+00;3; -2.9889256E-01;  0.0000000E+00;  9.0892781E-03;0; -2.6583150E-03;  1.0000036E+04;  0.0000000E+00; -1.4437041E-12;  1.0000000E+04;  0.0000000E+00;  1.0000000E+04; -2.7491115E-03;  0.0000000E+00;  9.0796595E-05;  5.4908586E-01;
  9.9999897E-02;  9.9999998E-03;  1.2000000E-01;1205; -2.1075748E-04;  0.0000000E+00;  9.2784321E-06;  1.0000017E+03;  4.0000001E-01;  1.3826767E+00;3; -2.9809311E-01;  0.0000000E+00;  1.1710917E-02;0; -2.6385589E-03;  1.0000036E+04;  0.0000000E+00; -2.6087774E-11;  1.0000000E+04;  0.0000000E+00;  9.9999990E+03; -2.7399054E-03;  0.0000000E+00;  1.0134652E-04;  5.9557772E-01;
  9.9999897E-02;  9.9999998E-03;  1.4000000E-01;1206; -2.0870924E-04;  0.0000000E+00;  1.1571189E-05;  1.0000017E+03;  4.0000001E-01;  1.3826767E+00;3; -2.9627034E-01;  0.0000000E+00;  1.4748470E-02;0; -2.6099579E-03;  1.0000036E+04;  0.0000000E+00;  3.3201298E-13;  1.0000000E+04;  0.0000000E+00;  9.9999990E+03; -2.7214736E-03;  0.0000000E+00;  1.1151563E-04;  6.4010608E-01;
  1.1999986E-01;  9.9999998E-03;  2.9020458E-15;1230; -2.7952265E-04;  0.0000000E+00;  1.8086876E-11;  1.0000023E+03;  4.0000001E-01;  1.8764899E+00;3; -3.8078323E-01;  0.0000000E+00;  5.9299339E-08;0; -3.4172260E-03;  1.0000048E+04;  0.0000000E+00; -1.9118341E-17;  1.0000000E+04;  0.0000000E+00;  1.0000000E+04; -3.4929216E-03;  0.0000000E+00;  7.5695454E-05;  5.4214829E-01;
  1.1999986E-01;  9.9999998E-03;  2.0000001E-02;1231; -2.7950670E-04;  0.0000000E+00;  1.4850369E-06;  1.0000023E+03;  4.0000001E-01;  1.8764899E+00;3; -3.8090113E-01;  0.0000000E+00;  1.7065292E-03;0; -3.4163150E-03;  1.0000048E+04;  0.0000000E+00;  5.6059714E-13;  1.0000000E+04;  0.0000000E+00;  1.0000000E+04; -3.4937703E-03;  0.0000000E+00;  7.7455239E-05;  5.5018723E-01;
  1.1999986E-01;  9.9999998E-03;  4.0000003E-02;1232; -2.7944183E-04;  0.0000000E+00;  3.0492274E-06;  1.0000023E+03;  4.0000001E-01;  1.8764899E+00;3; -3.8122714E-01;  0.0000000E+00;  3.5155194E-03;0; -3.4134362E-03;  1.0000048E+04;  0.0000000E+00;  1.2315885E-12;  1.0000000E+04;  0.0000000E+00;  1.0000000E+04; -3.4960988E-03;  0.0000000E+00;  8.2662584E-05;  5.7399243E-01;
  1.1999986E-01;  9.9999998E-03;  6.0000002E-02;1233; -2.7927849E-04;  0.0000000E+00;  4.7542158E-06;  1.0000023E+03;  4.0000001E-01;  1.8764899E+00;3; -3.8168278E-01;  0.0000000E+00;  5.5237291E-03;0; -3.4081400E-03;  1.0000048E+04;  0.0000000E+00; -1.5097072E-12;  1.0000000E+04;  0.0000000E+00;  1.0000000E+04; -3.4992273E-03;  0.0000000E+00;  9.1087371E-05;  6.1256325E-01;
  1.1999986E-01;  9.9999998E-03;  8.0000006E-02;1234; -2.7892148E-04;  0.0000000E+00;  6.6784119E-06;  1.0000023E+03;  4.0000001E-01;  1.8764899E+00;3; -3.8212731E-01;  0.0000000E+00;  7.8244358E-03;0; -3.3995854E-03;  1.0000048E+04;  0.0000000E+00; -8.0843223E-12;  1.0000000E+04;  0.0000000E+00;  9.9999990E+03; -3.5018858E-03;  0.0000000E+00;  1.0230039E-04;  6.6401017E-01;
  1.1999986E-01;  9.9999998E-03;  1.0000000E-01;1235; -2.7821827E-04;  0.0000000E+00;  8.8863117E-06;  1.0000023E+03;  4.0000001E-01;  1.8764899E+00;3; -3.8231978E-01;  0.0000000E+00;  1.0545163E-02;0; -3.3864086E-03;  1.0000047E+04;  0.0000000E+00; -4.5743825E-12;  1.0000000E+04;  0.0000000E+00;  9.9999990E+03; -3.5020092E-03;  0.0000000E+00;  1.1560055E-04;  7.2520131E-01;
  1.1999986E-01;  9.9999998E-03;  1.2000000E-01;1236; -2.7694379E-04;  0.0000000E+00;  1.1388834E-05;  1.0000023E+03;  4.0000001E-01;  1.8764899E+00;3; -3.8191772E-01;  0.0000000E+00;  1.3670047E-02;0; -3.3665211E-03;  1.0000047E+04;  0.0000000E+00; -1.6409965E-11;  1.0000000E+04;  0.0000000E+00;  9.9999990E+03; -3.4964515E-03;  0.0000000E+00;  1.2993050E-04;  7.9130572E-01;
  1.1999986E-01;  9.9999998E-03;  1.4000000E-01;1237; -2.7475072E-04;  0.0000000E+00;  1.4255230E-05;  1.0000023E+03;  4.0000001E-01;  1.8764899E+00;3; -3.8036862E-01;  0.0000000E+00;  1.7311832E-02;0; -3.3368214E-03;  1.0000047E+04;  0.0000000E+00;  5.4316891E-11;  1.0000000E+04;  0.0000000E+00;  9.9999980E+03; -3.4806605E-03;  0.0000000E+00;  1.4383905E-04;  8.5552001E-01;
  1.3999981E-01;  9.9999998E-03; -1.8376780E-14;1261; -3.6274490E-04;  0.0000000E+00; -2.2531893E-11;  1.0000031E+03;  4.0000001E-01;  2.5678282E+00;3; -4.8120236E-01;  0.0000000E+00;  3.7736569E-08;0; -4.3369653E-03;  1.0000063E+04;  0.0000000E+00; -1.9268502E-17;  1.0000000E+04;  0.0000000E+00;  9.9999990E+03; -4.4297404E-03;  0.0000000E+00;  9.2775263E-05;  6.9877917E-01;
  1.3999981E-01;  9.9999998E-03;  2.0000001E-02;1262; -3.6276208E-04;  0.0000000E+00;  1.7876384E-06;  1.0000031E+03;  4.0000001E-01;  2.5678282E+00;3; -4.8141012E-01;  0.0000000E+00;  1.9349164E-03;0; -4.3362491E-03;  1.0000063E+04;  0.0000000E+00;  2.5639566E-12;  1.0000000E+04;  0.0000000E+00;  9.9999990E+03; -4.4314312E-03;  0.0000000E+00;  9.5182011E-05;  7.1000630E-01;
  1.3999981E-01;  9.9999998E-03;  4.0000003E-02;1263; -3.6279304E-04;  0.0000000E+00;  3.6772651E-06;  1.0000031E+03;  4.0000001E-01;  2.5678282E+00;3; -4.8199901E-01;  0.0000000E+00;  4.0010600E-03;0; -4.3339366E-03;  1.0000063E+04;  0.0000000E+00; -8.5153580E-13;  1.0000000E+04;  0.0000000E+00;  9.9999990E+03; -4.4362480E-03;  0.0000000E+00;  1.0231134E-04;  7.4333024E-01;
  1.3999981E-01;  9.9999998E-03;  6.0000002E-02;1264; -3.6277864E-04;  0.0000000E+00;  5.7551379E-06;  1.0000031E+03;  4.0000001E-01;  2.5678282E+00;3; -4.8287711E-01;  0.0000000E+00;  6.3310550E-03;0; -4.3295119E-03;  1.0000062E+04;  0.0000000E+00; -3.5436949E-12;  1.0000000E+04;  0.0000000E+00;  9.9999990E+03; -4.4433796E-03;  0.0000000E+00;  1.1386759E-04;  7.9756159E-01;
  1.3999981E-01;  9.9999998E-03;  8.0000006E-02;1265; -3.6260541E-04;  0.0000000E+00;  8.1198523E-06;  1.0000031E+03;  4.0000001E-01;  2.5678282E+00;3; -4.8387894E-01;  0.0000000E+00;  9.0322150E-03;0; -4.3220152E-03;  1.0000062E+04;  0.0000000E+00; -9.2474821E-12;  1.0000000E+04;  0.0000000E+00;  9.9999990E+03; -4.4513000E-03;  0.0000000E+00;  1.2928488E-04;  8.7033480E-01;
  1.3999981E-01;  9.9999998E-03;  1.0000001E-01;1266; -3.6208730E-04;  0.0000000E+00;  1.0866120E-05;  1.0000031E+03;  4.0000001E-01;  2.5678282E+00;3; -4.8472109E-01;  0.0000000E+00;  1.2265768E-02;0; -4.3098805E-03;  1.0000062E+04;  0.0000000E+00; -7.8775163E-12;  1.0000000E+04;  0.0000000E+00;  9.9999980E+03; -4.4575077E-03;  0.0000000E+00;  1.4762716E-04;  9.5756644E-01;
  1.3999981E-01;  9.9999998E-03;  1.2000000E-01;1267; -3.6094541E-04;  0.0000000E+00;  1.4012367E-05;  1.0000030E+03;  4.0000001E-01;  2.4690657E+00;3; -4.8498607E-01;  0.0000000E+00;  1.6055906E-02;0; -4.2907032E-03;  1.0000061E+04;  0.0000000E+00; -2.1458365E-11;  1.0000000E+04;  0.0000000E+00;  9.9999980E+03; -4.4581969E-03;  0.0000000E+00;  1.6749384E-04;  1.0528743E+00;
  1.3999982E-01;  9.9999998E-03;  1.4000002E-01;1268; -3.5874621E-04;  0.0000000E+00;  1.7631368E-05;  1.0000029E+03;  4.0000001E-01;  2.4690657E+00;3; -4.8402712E-01;  0.0000000E+00;  2.0482514E-02;0; -4.2607784E-03;  1.0000061E+04;  0.0000000E+00;  1.4984012E-11;  1.0000000E+04;  0.0000000E+00;  9.9999980E+03; -4.4478313E-03;  0.0000000E+00;  1.8705304E-04;  1.1475420E+00;
  1.5999974E-01;  9.9999998E-03; -4.8708392E-15;1292; -4.6781366E-04;  0.0000000E+00; -1.3847281E-11;  1.0000040E+03;  4.0000001E-01;  3.3579292E+00;3; -6.0364294E-01;  0.0000000E+00; -2.1321114E-09;0; -5.4890802E-03;  1.0000080E+04;  0.0000000E+00; -6.5962750E-17;  1.0000000E+04;  0.0000000E+00;  9.9999990E+03; -5.6021148E-03;  0.0000000E+00;  1.1303445E-04;  8.9659756E-01;
  1.5999974E-01;  9.9999998E-03;  2.0000001E-02;1293; -4.6788668E-04;  0.0000000E+00;  2.1406099E-06;  1.0000040E+03;  4.0000001E-01;  3.3579292E+00;3; -6.0397881E-01;  0.0000000E+00;  2.1836546E-03;0; -5.4886919E-03;  1.0000080E+04;  0.0000000E+00;  6.2733743E-13;  1.0000000E+04;  0.0000000E+00;  9.9999990E+03; -5.6050401E-03;  0.0000000E+00;  1.1634824E-04;  9.1227359E-01;
  1.5999974E-01;  9.9999998E-03;  4.0000003E-02;1294; -4.6808104E-04;  0.0000000E+00;  4.4162798E-06;  1.0000040E+03;  4.0000001E-01;  3.3579292E+00;3; -6.0494900E-01;  0.0000000E+00;  4.5427680E-03;0; -5.4873335E-03;  1.0000080E+04;  0.0000000E+00;  4.3843735E-12;  1.0000000E+04;  0.0000000E+00;  9.9999990E+03; -5.6135142E-03;  0.0000000E+00;  1.2618081E-04;  9.5893633E-01;
  1.5999974E-01;  9.9999998E-03;  6.0000002E-02;1295; -4.6832647E-04;  0.0000000E+00;  6.9484854E-06;  1.0000040E+03;  4.0000001E-01;  3.2591665E+00;3; -6.0644728E-01;  0.0000000E+00;  7.2591882E-03;0; -5.4844087E-03;  1.0000081E+04;  0.0000000E+00; -3.2162211E-12;  1.0000000E+04;  0.0000000E+00;  9.9999980E+03; -5.6265783E-03;  0.0000000E+00;  1.4216985E-04;  1.0353004E+00;
  1.5999974E-01;  9.9999998E-03;  8.0000006E-02;1296; -4.6848741E-04;  0.0000000E+00;  9.8672062E-06;  1.0000040E+03;  4.0000001E-01;  3.2591665E+00;3; -6.0827959E-01;  0.0000000E+00;  1.0470648E-02;0; -5.4788170E-03;  1.0000081E+04;  0.0000000E+00; -5.9926552E-12;  1.0000000E+04;  0.0000000E+00;  9.9999980E+03; -5.6424192E-03;  0.0000000E+00;  1.6360240E-04;  1.1386192E+00;
  1.5999974E-01;  9.9999998E-03;  1.0000001E-01;1297; -4.6833741E-04;  0.0000000E+00;  1.3309095E-05;  1.0000040E+03;  4.0000001E-01;  3.2591665E+00;3; -6.1011392E-01;  0.0000000E+00;  1.4384147E-02;0; -5.4687653E-03;  1.0000080E+04;  0.0000000E+00;  7.0348874E-12;  1.0000000E+04;  0.0000000E+00;  9.9999980E+03; -5.6580459E-03;  0.0000000E+00;  1.8928037E-04;  1.2639040E+00;
  1.5999976E-01;  9.9999998E-03;  1.2000001E-01;1298; -4.6753485E-04;  0.0000000E+00;  1.7304506E-05;  1.0000040E+03;  4.0000001E-01;  3.2591665E+00;3; -6.1145568E-01;  0.0000000E+00;  1.9046253E-02;0; -5.4514371E-03;  1.0000080E+04;  0.0000000E+00;  2.4561393E-11;  1.0000000E+04;  0.0000000E+00;  9.9999971E+03; -5.6688758E-03;  0.0000000E+00;  2.1743859E-04;  1.4032944E+00;
  1.5999976E-01;  9.9999998E-03;  1.4000002E-01;1299; -4.6554100E-04;  0.0000000E+00;  2.1938557E-05;  1.0000039E+03;  4.0000001E-01;  3.2591665E+00;3; -6.1154175E-01;  0.0000000E+00;  2.4515970E-02;0; -5.4223826E-03;  1.0000080E+04;  0.0000000E+00; -4.9528357E-11;  1.0000000E+04;  0.0000000E+00;  9.9999971E+03; -5.6683132E-03;  0.0000000E+00;  2.4593083E-04;  1.5466379E+00;
  1.7999966E-01;  9.9999998E-03;  9.1139746E-15;1323; -6.0010643E-04;  0.0000000E+00;  2.1657710E-11;  1.0000051E+03;  4.0000001E-01;  4.1480303E+00;3; -7.5234115E-01;  0.0000000E+00;  3.2307383E-08;0; -6.9217077E-03;  1.0000103E+04;  0.0000000E+00; -4.1005891E-17;  1.0000000E+04;  0.0000000E+00;  9.9999980E+03; -7.0585259E-03;  0.0000000E+00;  1.3681805E-04;  1.1450230E+00;
  1.7999966E-01;  9.9999998E-03;  2.0000001E-02;1324; -6.0026790E-04;  0.0000000E+00;  2.5429351E-06;  1.0000051E+03;  4.0000001E-01;  4.1480303E+00;3; -7.5285923E-01;  0.0000000E+00;  2.4421602E-03;0; -6.9218371E-03;  1.0000103E+04;  0.0000000E+00;  1.3708521E-12;  1.0000000E+04;  0.0000000E+00;  9.9999980E+03; -7.0632175E-03;  0.0000000E+00;  1.4138051E-04;  1.1667904E+00;
  1.7999966E-01;  9.9999998E-03;  4.0000003E-02;1325; -6.0072372E-04;  0.0000000E+00;  5.2684172E-06;  1.0000051E+03;  4.0000001E-01;  4.1480303E+00;3; -7.5437623E-01;  0.0000000E+00;  5.1236050E-03;0; -6.9219996E-03;  1.0000103E+04;  0.0000000E+00; -2.9774809E-12;  1.0000000E+04;  0.0000000E+00;  9.9999980E+03; -7.0769507E-03;  0.0000000E+00;  1.5495095E-04;  1.2318120E+00;
  1.7999966E-01;  9.9999998E-03;  6.0000006E-02;1326; -6.0138968E-04;  0.0000000E+00;  8.3501473E-06;  1.0000051E+03;  4.0000001E-01;  4.1480303E+00;3; -7.5676852E-01;  0.0000000E+00;  8.3003510E-03;0; -6.9214921E-03;  1.0000104E+04;  0.0000000E+00; -1.1595109E-11;  1.0000000E+04;  0.0000000E+00;  9.9999980E+03; -7.0986180E-03;  0.0000000E+00;  1.7712600E-04;  1.3389666E+00;
  1.7999966E-01;  9.9999998E-03;  8.0000006E-02;1327; -6.0210394E-04;  0.0000000E+00;  1.1965027E-05;  1.0000051E+03;  4.0000001E-01;  4.1480303E+00;3; -7.5981671E-01;  0.0000000E+00;  1.2156878E-02;0; -6.9190226E-03;  1.0000104E+04;  0.0000000E+00; -1.2514584E-11;  1.0000000E+04;  0.0000000E+00;  9.9999971E+03; -7.1261046E-03;  0.0000000E+00;  2.0708200E-04;  1.4855233E+00;
  1.7999966E-01;  9.9999998E-03;  1.0000001E-01;1328; -6.0258934E-04;  0.0000000E+00;  1.6311487E-05;  1.0000051E+03;  4.0000001E-01;  4.1480303E+00;3; -7.6313186E-01;  0.0000000E+00;  1.6971359E-02;0; -6.9124661E-03;  1.0000104E+04;  0.0000000E+00;  1.4128250E-12;  1.0000000E+04;  0.0000000E+00;  9.9999971E+03; -7.1558766E-03;  0.0000000E+00;  2.4341047E-04;  1.6661249E+00;
  1.7999966E-01;  9.9999998E-03;  1.2000001E-01;1329; -6.0242921E-04;  0.0000000E+00;  2.1439739E-05;  1.0000051E+03;  4.0000001E-01;  4.1480303E+00;3; -7.6612872E-01;  0.0000000E+00;  2.2809587E-02;0; -6.8984348E-03;  1.0000103E+04;  0.0000000E+00; -2.6753747E-11;  1.0000000E+04;  0.0000000E+00;  9.9999961E+03; -7.1825348E-03;  0.0000000E+00;  2.8409981E-04;  1.8723396E+00;
  1.7999966E-01;  9.9999998E-03;  1.4000002E-01;1330; -6.0095836E-04;  0.0000000E+00;  2.7462080E-05;  1.0000051E+03;  4.0000001E-01;  4.1480303E+00;3; -7.6789194E-01;  0.0000000E+00;  2.9721415E-02;0; -6.8713166E-03;  1.0000103E+04;  0.0000000E+00;  6.2986634E-12;  1.0000000E+04;  0.0000000E+00;  9.9999961E+03; -7.1983286E-03;  0.0000000E+00;  3.2701201E-04;  2.0944982E+00;
  1.9999956E-01;  9.9999998E-03;  1.0706718E-15;1354; -7.6610257E-04;  0.0000000E+00; -4.2383926E-11;  1.0000067E+03;  4.0000001E-01;  5.5307069E+00;3; -9.3221980E-01;  0.0000000E+00; -1.8885956E-07;0; -8.6922720E-03;  1.0000134E+04;  0.0000000E+00; -1.9302933E-17;  1.0000000E+04;  0.0000000E+00;  9.9999980E+03; -8.8566542E-03;  0.0000000E+00;  1.6438223E-04;  1.4554576E+00;
  1.9999956E-01;  9.9999998E-03;  2.0000001E-02;1355; -7.6639798E-04;  0.0000000E+00;  2.9871314E-06;  1.0000067E+03;  4.0000001E-01;  5.5307069E+00;3; -9.3299556E-01;  0.0000000E+00;  2.6860659E-03;0; -8.6932033E-03;  1.0000134E+04;  0.0000000E+00;  1.2719502E-12;  1.0000000E+04;  0.0000000E+00;  9.9999980E+03; -8.8638226E-03;  0.0000000E+00;  1.7061889E-04;  1.4853488E+00;
  1.9999956E-01;  9.9999998E-03;  4.0000003E-02;1356; -7.6725113E-04;  0.0000000E+00;  6.2237800E-06;  1.0000067E+03;  4.0000001E-01;  5.5307069E+00;3; -9.3528324E-01;  0.0000000E+00;  5.7030646E-03;0; -8.6957300E-03;  1.0000135E+04;  0.0000000E+00; -1.0715542E-12;  1.0000000E+04;  0.0000000E+00;  9.9999971E+03; -8.8849589E-03;  0.0000000E+00;  1.8922918E-04;  1.5750166E+00;
  1.9999956E-01;  9.9999998E-03;  6.0000006E-02;1357; -7.6856301E-04;  0.0000000E+00;  9.9574409E-06;  1.0000067E+03;  4.0000001E-01;  5.5307069E+00;3; -9.3894064E-01;  0.0000000E+00;  9.3998285E-03;0; -8.6989952E-03;  1.0000136E+04;  0.0000000E+00; -1.4456114E-11;  1.0000000E+04;  0.0000000E+00;  9.9999971E+03; -8.9188404E-03;  0.0000000E+00;  2.1984552E-04;  1.7240642E+00;
  1.9999956E-01;  9.9999998E-03;  8.0000006E-02;1358; -7.7014067E-04;  0.0000000E+00;  1.4436343E-05;  1.0000067E+03;  4.0000001E-01;  5.5307069E+00;3; -9.4372004E-01;  0.0000000E+00;  1.4048233E-02;0; -8.7013924E-03;  1.0000137E+04;  0.0000000E+00; -1.5585411E-11;  1.0000000E+04;  0.0000000E+00;  9.9999971E+03; -8.9630531E-03;  0.0000000E+00;  2.6166072E-04;  1.9307106E+00;
  1.9999956E-01;  9.9999998E-03;  1.0000002E-01;1359; -7.7164749E-04;  0.0000000E+00;  1.9951016E-05;  1.0000067E+03;  4.0000001E-01;  5.5307069E+00;3; -9.4916946E-01;  0.0000000E+00;  2.0038279E-02;0; -8.7002795E-03;  1.0000137E+04;  0.0000000E+00; -2.6344583E-11;  1.0000000E+04;  0.0000000E+00;  9.9999961E+03; -9.0135317E-03;  0.0000000E+00;  3.1325236E-04;  2.1906259E+00;
  1.9999957E-01;  9.9999998E-03;  1.2000002E-01;1360; -7.7257538E-04;  0.0000000E+00;  2.6583262E-05;  1.0000067E+03;  4.0000001E-01;  5.5307069E+00;3; -9.5458615E-01;  0.0000000E+00;  2.7480325E-02;0; -8.6913044E-03;  1.0000137E+04;  0.0000000E+00; -1.6318506E-11;  1.0000000E+04;  0.0000000E+00;  9.9999951E+03; -9.0640169E-03;  0.0000000E+00;  3.7271294E-04;  2.4970725E+00;
  1.9999957E-01;  9.9999998E-03;  1.4000002E-01;1361; -7.7209511E-04;  0.0000000E+00;  3.4505996E-05;  1.0000066E+03;  4.0000001E-01;  5.4319444E+00;3; -9.5886540E-01;  0.0000000E+00;  3.6409881E-02;0; -8.6669913E-03;  1.0000137E+04;  0.0000000E+00; -1.2649042E-10;  1.0000000E+04;  0.0000000E+00;  9.9999941E+03; -9.1055688E-03;  0.0000000E+00;  4.3857790E-04;  2.8448610E+00;
  2.1999943E-01;  9.9999998E-03;  6.6641630E-15;1385; -9.7355933E-04;  0.0000000E+00;  9.0316386E-11;  1.0000085E+03;  4.0000001E-01;  7.0121465E+00;3; -1.1489350E+00;  0.0000000E+00;  3.0158725E-07;0; -1.0867389E-02;  1.0000173E+04;  0.0000000E+00; -1.2416523E-17;  1.0000000E+04;  0.0000000E+00;  9.9999971E+03; -1.1063363E-02;  0.0000000E+00;  1.9597472E-04;  1.8423513E+00;
  2.1999943E-01;  9.9999998E-03;  2.0000003E-02;1386; -9.7405084E-04;  0.0000000E+00;  3.4588438E-06;  1.0000085E+03;  4.0000001E-01;  7.0121465E+00;3; -1.1500659E+00;  0.0000000E+00;  2.8756324E-03;0; -1.0869552E-02;  1.0000173E+04;  0.0000000E+00;  1.4251079E-12;  1.0000000E+04;  0.0000000E+00;  9.9999971E+03; -1.1073935E-02;  0.0000000E+00;  2.0438206E-04;  1.8827281E+00;
  2.1999943E-01;  9.9999998E-03;  4.0000007E-02;1387; -9.7548851E-04;  0.0000000E+00;  7.2566477E-06;  1.0000084E+03;  4.0000001E-01;  7.0121465E+00;3; -1.1534160E+00;  0.0000000E+00;  6.1997450E-03;0; -1.0875703E-02;  1.0000173E+04;  0.0000000E+00;  3.2849556E-12;  1.0000000E+04;  0.0000000E+00;  9.9999971E+03; -1.1105276E-02;  0.0000000E+00;  2.2957333E-04;  2.0044627E+00;
  2.1999943E-01;  9.9999998E-03;  6.0000010E-02;1388; -9.7775529E-04;  0.0000000E+00;  1.1747076E-05;  1.0000084E+03;  4.0000001E-01;  7.0121465E+00;3; -1.1588290E+00;  0.0000000E+00;  1.0465264E-02;0; -1.0884742E-02;  1.0000174E+04;  0.0000000E+00; -8.3954024E-12;  1.0000000E+04;  0.0000000E+00;  9.9999971E+03; -1.1156115E-02;  0.0000000E+00;  2.7137293E-04;  2.2089024E+00;
  2.1999943E-01;  9.9999998E-03;  8.0000013E-02;1389; -9.8062668E-04;  0.0000000E+00;  1.7276754E-05;  1.0000084E+03;  4.0000001E-01;  6.9133835E+00;3; -1.1660177E+00;  0.0000000E+00;  1.6071118E-02;0; -1.0894581E-02;  1.0000174E+04;  0.0000000E+00; -7.4422413E-12;  1.0000000E+04;  0.0000000E+00;  9.9999951E+03; -1.1223838E-02;  0.0000000E+00;  3.2925705E-04;  2.4969523E+00;
  2.1999943E-01;  9.9999998E-03;  1.0000002E-01;1390; -9.8369375E-04;  0.0000000E+00;  2.4266696E-05;  1.0000084E+03;  4.0000001E-01;  6.9133835E+00;3; -1.1744426E+00;  0.0000000E+00;  2.3545174E-02;0; -1.0901690E-02;  1.0000175E+04;  0.0000000E+00; -7.8452019E-12;  1.0000000E+04;  0.0000000E+00;  9.9999941E+03; -1.1303886E-02;  0.0000000E+00;  4.0219634E-04;  2.8679378E+00;
  2.1999943E-01;  9.9999998E-03;  1.2000002E-01;1391; -9.8634080E-04;  0.0000000E+00;  3.2844924E-05;  1.0000083E+03;  4.0000001E-01;  6.9133835E+00;3; -1.1832665E+00;  0.0000000E+00;  3.3060614E-02;0; -1.0900108E-02;  1.0000176E+04;  0.0000000E+00; -4.3437143E-11;  1.0000000E+04;  0.0000000E+00;  9.9999932E+03; -1.1389124E-02;  0.0000000E+00;  4.8901606E-04;  3.3208330E+00;
  2.1999943E-01;  9.9999998E-03;  1.4000003E-01;1392; -9.8751788E-04;  0.0000000E+00;  4.3327265E-05;  1.0000083E+03;  4.0000001E-01;  6.9133835E+00;3; -1.1911268E+00;  0.0000000E+00;  4.4794150E-02;0; -1.0879440E-02;  1.0000176E+04;  0.0000000E+00; -6.2675373E-12;  1.0000000E+04;  0.0000000E+00;  9.9999932E+03; -1.1469337E-02;  0.0000000E+00;  5.8989739E-04;  3.8611245E+00;
  2.3999925E-01;  9.9999998E-03; -3.9132343E-14;1416; -1.2315392E-03;  0.0000000E+00;  4.0719463E-11;  1.0000108E+03;  4.0000001E-01;  8.9873991E+00;3; -1.4086914E+00;  0.0000000E+00;  3.5230721E-07;0; -1.3523762E-02;  1.0000222E+04;  0.0000000E+00; -2.6325450E-17;  1.0000000E+04;  0.0000000E+00;  9.9999971E+03; -1.3755840E-02;  0.0000000E+00;  2.3207859E-04;  2.3252928E+00;
  2.3999925E-01;  9.9999998E-03;  2.0000003E-02;1417; -1.2323095E-03;  0.0000000E+00;  3.9380575E-06;  1.0000108E+03;  4.0000001E-01;  8.9873991E+00;3; -1.4103044E+00;  0.0000000E+00;  2.9530842E-03;0; -1.3527795E-02;  1.0000222E+04;  0.0000000E+00; -2.7772974E-13;  1.0000000E+04;  0.0000000E+00;  9.9999971E+03; -1.3770983E-02;  0.0000000E+00;  2.4318763E-04;  2.3786733E+00;
  2.3999925E-01;  9.9999998E-03;  4.0000007E-02;1418; -1.2345803E-03;  0.0000000E+00;  8.3292034E-06;  1.0000108E+03;  4.0000001E-01;  8.9873991E+00;3; -1.4150932E+00;  0.0000000E+00;  6.4973799E-03;0; -1.3539444E-02;  1.0000222E+04;  0.0000000E+00; -1.2525763E-11;  1.0000000E+04;  0.0000000E+00;  9.9999951E+03; -1.3816084E-02;  0.0000000E+00;  2.7664000E-04;  2.5405693E+00;
  2.3999925E-01;  9.9999998E-03;  6.0000010E-02;1419; -1.2382197E-03;  0.0000000E+00;  1.3675533E-05;  1.0000108E+03;  4.0000001E-01;  8.9873991E+00;3; -1.4228864E+00;  0.0000000E+00;  1.1346925E-02;0; -1.3557233E-02;  1.0000221E+04;  0.0000000E+00; -1.1211926E-11;  1.0000000E+04;  0.0000000E+00;  9.9999951E+03; -1.3889952E-02;  0.0000000E+00;  3.3271895E-04;  2.8157027E+00;
  2.3999925E-01;  9.9999998E-03;  8.0000013E-02;1420; -1.2429722E-03;  0.0000000E+00;  2.0442056E-05;  1.0000108E+03;  4.0000001E-01;  8.9873991E+00;3; -1.4333487E+00;  0.0000000E+00;  1.8048266E-02;0; -1.3578319E-02;  1.0000223E+04;  0.0000000E+00; -4.2223243E-12;  1.0000000E+04;  0.0000000E+00;  9.9999941E+03; -1.3989955E-02;  0.0000000E+00;  4.1163617E-04;  3.2104504E+00;
  2.3999925E-01;  9.9999998E-03;  1.0000002E-01;1421; -1.2483477E-03;  0.0000000E+00;  2.9243620E-05;  1.0000107E+03;  4.0000001E-01;  8.8886366E+00;3; -1.4458337E+00;  0.0000000E+00;  2.7357005E-02;0; -1.3597766E-02;  1.0000224E+04;  0.0000000E+00;  4.0079455E-12;  1.0000000E+04;  0.0000000E+00;  9.9999932E+03; -1.4111177E-02;  0.0000000E+00;  5.1341159E-04;  3.7319455E+00;
  2.3999925E-01;  9.9999998E-03;  1.2000003E-01;1422; -1.2535999E-03;  0.0000000E+00;  4.0261271E-05;  1.0000107E+03;  4.0000001E-01;  8.8886366E+00;3; -1.4593433E+00;  0.0000000E+00;  3.9475527E-02;0; -1.3607108E-02;  1.0000224E+04;  0.0000000E+00;  7.3967325E-11;  1.0000000E+04;  0.0000000E+00;  9.9999912E+03; -1.4245591E-02;  0.0000000E+00;  6.3848292E-04;  4.3907428E+00;
  2.3999925E-01;  9.9999998E-03;  1.4000003E-01;1423; -1.2574054E-03;  0.0000000E+00;  5.4092157E-05;  1.0000107E+03;  4.0000001E-01;  8.8886366E+00;3; -1.4721899E+00;  0.0000000E+00;  5.4904677E-02;0; -1.3591652E-02;  1.0000227E+04;  0.0000000E+00; -8.9295051E-11;  1.0000000E+04;  0.0000000E+00;  9.9999893E+03; -1.4381495E-02;  0.0000000E+00;  7.8984309E-04;  5.2111311E+00;
  2.5999904E-01;  9.9999998E-03; -2.9209331E-14;1447; -1.5505232E-03;  0.0000000E+00; -1.0288691E-10;  1.0000139E+03;  4.0000001E-01;  1.1555226E+01;3; -1.7180845E+00;  0.0000000E+00; -5.1396228E-08;0; -1.6748555E-02;  1.0000283E+04;  0.0000000E+00;  3.4179467E-17;  1.0000000E+04;  0.0000000E+00;  9.9999961E+03; -1.7022494E-02;  0.0000000E+00;  2.7393852E-04;  2.9327383E+00;
  2.5999904E-01;  9.9999998E-03;  2.0000003E-02;1448; -1.5516802E-03;  0.0000000E+00;  4.4073008E-06;  1.0000139E+03;  4.0000001E-01;  1.1555226E+01;3; -1.7203403E+00;  0.0000000E+00;  2.8413392E-03;0; -1.6755382E-02;  1.0000284E+04;  0.0000000E+00;  7.7957822E-12;  1.0000000E+04;  0.0000000E+00;  9.9999951E+03; -1.7043626E-02;  0.0000000E+00;  2.8824390E-04;  3.0014837E+00;
  2.5999904E-01;  9.9999998E-03;  4.0000007E-02;1449; -1.5551129E-03;  0.0000000E+00;  9.4025090E-06;  1.0000139E+03;  4.0000001E-01;  1.1555226E+01;3; -1.7270558E+00;  0.0000000E+00;  6.4603044E-03;0; -1.6775260E-02;  1.0000284E+04;  0.0000000E+00; -1.1336144E-12;  1.0000000E+04;  0.0000000E+00;  9.9999951E+03; -1.7106837E-02;  0.0000000E+00;  3.3157735E-04;  3.2114136E+00;
  2.5999904E-01;  9.9999998E-03;  6.0000014E-02;1450; -1.5606818E-03;  0.0000000E+00;  1.5687199E-05;  1.0000139E+03;  4.0000001E-01;  1.1555226E+01;3; -1.7380366E+00;  0.0000000E+00;  1.1849759E-02;0; -1.6806176E-02;  1.0000286E+04;  0.0000000E+00; -9.1311177E-12;  1.0000000E+04;  0.0000000E+00;  9.9999941E+03; -1.7211260E-02;  0.0000000E+00;  4.0508379E-04;  3.5729828E+00;
  2.5999904E-01;  9.9999998E-03;  8.0000021E-02;1451; -1.5681125E-03;  0.0000000E+00;  2.3861887E-05;  1.0000139E+03;  4.0000001E-01;  1.1456464E+01;3; -1.7528987E+00;  0.0000000E+00;  1.9744189E-02;0; -1.6844189E-02;  1.0000286E+04;  0.0000000E+00;  7.1189051E-13;  1.0000000E+04;  0.0000000E+00;  9.9999922E+03; -1.7354570E-02;  0.0000000E+00;  5.1038177E-04;  4.1020699E+00;
  2.5999904E-01;  9.9999998E-03;  1.0000002E-01;1452; -1.5768190E-03;  0.0000000E+00;  3.4782930E-05;  1.0000139E+03;  4.0000001E-01;  1.1456464E+01;3; -1.7708358E+00;  0.0000000E+00;  3.1115755E-02;0; -1.6882282E-02;  1.0000288E+04;  0.0000000E+00;  3.2343420E-11;  1.0000000E+04;  0.0000000E+00;  9.9999902E+03; -1.7531732E-02;  0.0000000E+00;  6.4945058E-04;  4.8194389E+00;
  2.5999904E-01;  9.9999998E-03;  1.2000003E-01;1453; -1.5859245E-03;  0.0000000E+00;  4.8788574E-05;  1.0000139E+03;  4.0000001E-01;  1.1456464E+01;3; -1.7907147E+00;  0.0000000E+00;  4.6419706E-02;0; -1.6908418E-02;  1.0000289E+04;  0.0000000E+00;  4.5125449E-11;  1.0000000E+04;  0.0000000E+00;  9.9999893E+03; -1.7733857E-02;  0.0000000E+00;  8.2543830E-04;  5.7549233E+00;
  2.5999904E-01;  9.9999998E-03;  1.4000005E-01;1454; -1.5937887E-03;  0.0000000E+00;  6.6854780E-05;  1.0000138E+03;  4.0000001E-01;  1.1456464E+01;3; -1.8104661E+00;  0.0000000E+00;  6.6622503E-02;0; -1.6901931E-02;  1.0000292E+04;  0.0000000E+00; -2.2076443E-11;  1.0000000E+04;  0.0000000E+00;  9.9999844E+03; -1.7947339E-02;  0.0000000E+00;  1.0454083E-03;  6.9614763E+00;
  2.7999875E-01;  9.9999998E-03; -4.2777397E-14;1478; -1.9427249E-03;  0.0000000E+00; -1.1897412E-10;  1.0000175E+03;  4.0000001E-01;  1.4518105E+01;3; -2.0842166E+00;  0.0000000E+00; -3.6485392E-07;0; -2.0639472E-02;  1.0000358E+04;  0.0000000E+00;  1.1049866E-16;  1.0000000E+04;  0.0000000E+00;  9.9999951E+03; -2.0963997E-02;  0.0000000E+00;  3.2452529E-04;  3.7082121E+00;
  2.7999875E-01;  9.9999998E-03;  2.0000005E-02;1479; -1.9444107E-03;  0.0000000E+00;  4.8566740E-06;  1.0000175E+03;  4.0000001E-01;  1.4518105E+01;3; -2.0873196E+00;  0.0000000E+00;  2.4426531E-03;0; -2.0650402E-02;  1.0000358E+04;  0.0000000E+00;  8.9174996E-12;  1.0000000E+04;  0.0000000E+00;  9.9999941E+03; -2.0992776E-02;  0.0000000E+00;  3.4237464E-04;  3.7940636E+00;
  2.7999875E-01;  9.9999998E-03;  4.0000010E-02;1480; -1.9494361E-03;  0.0000000E+00;  1.0461482E-05;  1.0000175E+03;  4.0000001E-01;  1.4518105E+01;3; -2.0965638E+00;  0.0000000E+00;  5.9230998E-03;0; -2.0682404E-02;  1.0000359E+04;  0.0000000E+00;  3.4450940E-12;  1.0000000E+04;  0.0000000E+00;  9.9999932E+03; -2.1079227E-02;  0.0000000E+00;  3.9682424E-04;  4.0583119E+00;
  2.7999875E-01;  9.9999998E-03;  6.0000014E-02;1481; -1.9576717E-03;  0.0000000E+00;  1.7744522E-05;  1.0000175E+03;  4.0000001E-01;  1.4518105E+01;3; -2.1117523E+00;  0.0000000E+00;  1.1730002E-02;0; -2.0732785E-02;  1.0000360E+04;  0.0000000E+00; -2.7636311E-12;  1.0000000E+04;  0.0000000E+00;  9.9999922E+03; -2.1223227E-02;  0.0000000E+00;  4.9044169E-04;  4.5202961E+00;
  2.7999875E-01;  9.9999998E-03;  8.0000021E-02;1482; -1.9688362E-03;  0.0000000E+00;  2.7430995E-05;  1.0000175E+03;  4.0000001E-01;  1.4518105E+01;3; -2.1324165E+00;  0.0000000E+00;  2.0704415E-02;0; -2.0796070E-02;  1.0000363E+04;  0.0000000E+00; -8.3969645E-12;  1.0000000E+04;  0.0000000E+00;  9.9999912E+03; -2.1423232E-02;  0.0000000E+00;  6.2716176E-04;  5.2107434E+00;
  2.7999875E-01;  9.9999998E-03;  1.0000003E-01;1483; -1.9822780E-03;  0.0000000E+00;  4.0782186E-05;  1.0000176E+03;  4.0000001E-01;  1.4518105E+01;3; -2.1576772E+00;  0.0000000E+00;  3.4539312E-02;0; -2.0862538E-02;  1.0000365E+04;  0.0000000E+00; -3.8858011E-11;  1.0000000E+04;  0.0000000E+00;  9.9999893E+03; -2.1674640E-02;  0.0000000E+00;  8.1210304E-04;  6.1716118E+00;
  2.7999872E-01;  9.9999998E-03;  1.2000004E-01;1484; -1.9969754E-03;  0.0000000E+00;  5.8338359E-05;  1.0000176E+03;  4.0000001E-01;  1.4518105E+01;3; -2.1861541E+00;  0.0000000E+00;  5.3683799E-02;0; -2.0915324E-02;  1.0000367E+04;  0.0000000E+00;  1.3062313E-11;  1.0000000E+04;  0.0000000E+00;  9.9999834E+03; -2.1967791E-02;  0.0000000E+00;  1.0524663E-03;  7.4617300E+00;
  2.7999872E-01;  9.9999998E-03;  1.4000006E-01;1485; -2.0109478E-03;  0.0000000E+00;  8.1561491E-05;  1.0000176E+03;  4.0000001E-01;  1.4518105E+01;3; -2.2153673E+00;  0.0000000E+00;  7.9676151E-02;0; -2.0925874E-02;  1.0000371E+04;  0.0000000E+00;  1.2559792E-10;  1.0000000E+04;  0.0000000E+00;  9.9999814E+03; -2.2286613E-02;  0.0000000E+00;  1.3607393E-03;  9.1746120E+00;
  2.9999837E-01;  9.9999998E-03; -2.1245348E-14;1509; -2.4226455E-03;  0.0000000E+00; -3.6782143E-11;  1.0000222E+03;  4.0000001E-01;  1.8369844E+01;3; -2.5147080E+00;  0.0000000E+00; -8.9381729E-08;0; -2.5304249E-02;  1.0000452E+04;  0.0000000E+00; -4.5955280E-17;  1.0000000E+04;  0.0000000E+00;  9.9999932E+03; -2.5694368E-02;  0.0000000E+00;  3.9012026E-04;  4.7199454E+00;
  2.9999837E-01;  9.9999998E-03;  2.0000005E-02;1510; -2.4250404E-03;  0.0000000E+00;  5.3140752E-06;  1.0000222E+03;  4.0000001E-01;  1.8369844E+01;3; -2.5188980E+00;  0.0000000E+00;  1.7144380E-03;0; -2.5321122E-02;  1.0000452E+04;  0.0000000E+00;  8.0662655E-12;  1.0000000E+04;  0.0000000E+00;  9.9999932E+03; -2.5732685E-02;  0.0000000E+00;  4.1156236E-04;  4.8234744E+00;
  2.9999837E-01;  9.9999998E-03;  4.0000010E-02;1511; -2.4322115E-03;  0.0000000E+00;  1.1557543E-05;  1.0000222E+03;  4.0000001E-01;  1.8369844E+01;3; -2.5314202E+00;  0.0000000E+00;  4.7799372E-03;0; -2.5370650E-02;  1.0000452E+04;  0.0000000E+00; -1.9248016E-11;  1.0000000E+04;  0.0000000E+00;  9.9999912E+03; -2.5848178E-02;  0.0000000E+00;  4.7752779E-04;  5.1450791E+00;
  2.9999837E-01;  9.9999998E-03;  6.0000017E-02;1512; -2.4440733E-03;  0.0000000E+00;  1.9859823E-05;  1.0000223E+03;  4.0000001E-01;  1.8468607E+01;3; -2.5520785E+00;  0.0000000E+00;  1.0777636E-02;0; -2.5449349E-02;  1.0000456E+04;  0.0000000E+00;  1.1366852E-11;  1.0000000E+04;  0.0000000E+00;  9.9999912E+03; -2.6042083E-02;  0.0000000E+00;  5.9273478E-04;  5.7168756E+00;
  2.9999837E-01;  9.9999998E-03;  8.0000028E-02;1513; -2.4603624E-03;  0.0000000E+00;  3.1176773E-05;  1.0000223E+03;  4.0000001E-01;  1.8468607E+01;3; -2.5803375E+00;  0.0000000E+00;  2.0806501E-02;0; -2.5549967E-02;  1.0000460E+04;  0.0000000E+00;  1.8299908E-11;  1.0000000E+04;  0.0000000E+00;  9.9999883E+03; -2.6314558E-02;  0.0000000E+00;  7.6459220E-04;  6.5909944E+00;
  2.9999837E-01;  9.9999998E-03;  1.0000004E-01;1514; -2.4804242E-03;  0.0000000E+00;  4.7191075E-05;  1.0000225E+03;  4.0000001E-01;  1.8567369E+01;3; -2.6152651E+00;  0.0000000E+00;  3.7251551E-02;0; -2.5659386E-02;  1.0000464E+04;  0.0000000E+00; -4.1428139E-11;  1.0000000E+04;  0.0000000E+00;  9.9999844E+03; -2.6662247E-02;  0.0000000E+00;  1.0028607E-03;  7.8399410E+00;
  2.9999837E-01;  9.9999998E-03;  1.2000005E-01;1515; -2.5030950E-03;  0.0000000E+00;  6.8842957E-05;  1.0000223E+03;  4.0000001E-01;  1.8468607E+01;3; -2.6552489E+00;  0.0000000E+00;  6.0840260E-02;0; -2.5754685E-02;  1.0000468E+04;  0.0000000E+00;  2.4395019E-11;  1.0000000E+04;  0.0000000E+00;  9.9999814E+03; -2.7075177E-02;  0.0000000E+00;  1.3204928E-03;  9.5636730E+00;
  2.9999834E-01;  9.9999998E-03;  1.4000008E-01;1516; -2.5260109E-03;  0.0000000E+00;  9.8116885E-05;  1.0000223E+03;  4.0000001E-01;  1.8468607E+01;3; -2.6972518E+00;  0.0000000E+00;  9.3549833E-02;0; -2.5797345E-02;  1.0000472E+04;  0.0000000E+00;  1.1074467E-10;  1.0000000E+04;  0.0000000E+00;  9.9999746E+03; -2.7534422E-02;  0.0000000E+00;  1.7370771E-03;  1.1911356E+01;
  3.1999794E-01;  9.9999998E-03; -5.0927358E-14;1540; -3.0078280E-03;  0.0000000E+00;  1.6723503E-10;  1.0000279E+03;  4.0000001E-01;  2.3110449E+01;3; -3.0178137E+00;  0.0000000E+00;  1.6552888E-06;0; -3.0859934E-02;  1.0000569E+04;  0.0000000E+00; -5.0475235E-18;  1.0000000E+04;  0.0000000E+00;  9.9999902E+03; -3.1342641E-02;  0.0000000E+00;  4.8270705E-04;  6.0749235E+00;
  3.1999794E-01;  9.9999998E-03;  2.0000007E-02;1541; -3.0111568E-03;  0.0000000E+00;  5.9090653E-06;  1.0000279E+03;  4.0000001E-01;  2.3110449E+01;3; -3.0233991E+00;  0.0000000E+00;  6.9664564E-04;0; -3.0885121E-02;  1.0000570E+04;  0.0000000E+00; -4.5296909E-12;  1.0000000E+04;  0.0000000E+00;  9.9999902E+03; -3.1392436E-02;  0.0000000E+00;  5.0731527E-04;  6.1951017E+00;
  3.1999794E-01;  9.9999998E-03;  4.0000014E-02;1542; -3.0211615E-03;  0.0000000E+00;  1.2906554E-05;  1.0000280E+03;  4.0000001E-01;  2.3110449E+01;3; -3.0401146E+00;  0.0000000E+00;  3.0727084E-03;0; -3.0959403E-02;  1.0000572E+04;  0.0000000E+00; -3.8922900E-11;  1.0000000E+04;  0.0000000E+00;  9.9999893E+03; -3.1543225E-02;  0.0000000E+00;  5.8382167E-04;  6.5724330E+00;
  3.1999791E-01;  9.9999998E-03;  6.0000021E-02;1543; -3.0378420E-03;  0.0000000E+00;  2.2271892E-05;  1.0000280E+03;  4.0000001E-01;  2.3209211E+01;3; -3.0677655E+00;  0.0000000E+00;  8.8743893E-03;0; -3.1078478E-02;  1.0000575E+04;  0.0000000E+00;  1.6408045E-11;  1.0000000E+04;  0.0000000E+00;  9.9999873E+03; -3.1798456E-02;  0.0000000E+00;  7.1997801E-04;  7.2561655E+00;
  3.1999791E-01;  9.9999998E-03;  8.0000035E-02;1544; -3.0610440E-03;  0.0000000E+00;  3.5344863E-05;  1.0000281E+03;  4.0000001E-01;  2.3307974E+01;3; -3.1058898E+00;  0.0000000E+00;  1.9952567E-02;0; -3.1233214E-02;  1.0000578E+04;  0.0000000E+00; -3.6683722E-11;  1.0000000E+04;  0.0000000E+00;  9.9999844E+03; -3.2161288E-02;  0.0000000E+00;  9.2807465E-04;  8.3272381E+00;
  3.1999791E-01;  9.9999998E-03;  1.0000005E-01;1545; -3.0901665E-03;  0.0000000E+00;  5.4164248E-05;  1.0000281E+03;  4.0000001E-01;  2.3307974E+01;3; -3.1534579E+00;  0.0000000E+00;  3.9002165E-02;0; -3.1406589E-02;  1.0000583E+04;  0.0000000E+00; -1.0062800E-11;  1.0000000E+04;  0.0000000E+00;  9.9999814E+03; -3.2630991E-02;  0.0000000E+00;  1.2244008E-03;  9.8995771E+00;
  3.1999788E-01;  9.9999998E-03;  1.2000006E-01;1546; -3.1238939E-03;  0.0000000E+00;  8.0211204E-05;  1.0000282E+03;  4.0000001E-01;  2.3406736E+01;3; -3.2084739E+00;  0.0000000E+00;  6.6918164E-02;0; -3.1568576E-02;  1.0000589E+04;  0.0000000E+00; -1.2165370E-10;  1.0000000E+04;  0.0000000E+00;  9.9999756E+03; -3.3198468E-02;  0.0000000E+00;  1.6298940E-03;  1.2129121E+01;
  3.1999788E-01;  9.9999998E-03;  1.4000009E-01;1547; -3.1595321E-03;  0.0000000E+00;  1.1612896E-04;  1.0000282E+03;  4.0000001E-01;  2.3406736E+01;3; -3.2676315E+00;  0.0000000E+00;  1.0701677E-01;0; -3.1668335E-02;  1.0000598E+04;  0.0000000E+00;  2.7503649E-11;  1.0000000E+04;  0.0000000E+00;  9.9999668E+03; -3.3841956E-02;  0.0000000E+00;  2.1736219E-03;  1.5240680E+01;
  3.3999735E-01;  9.9999998E-03;  5.0632709E-14;1571; -3.7193538E-03;  0.0000000E+00;  1.2315363E-11;  1.0000351E+03;  4.0000001E-01;  2.9036203E+01;3; -3.6027293E+00;  0.0000000E+00;  3.6960341E-07;0; -3.7431475E-02;  1.0000714E+04;  0.0000000E+00; -4.2093991E-17;  1.0000000E+04;  0.0000000E+00;  9.9999883E+03; -3.8054783E-02;  0.0000000E+00;  6.2330870E-04;  7.9379811E+00;
  3.3999735E-01;  9.9999998E-03;  2.0000009E-02;1572; -3.7238828E-03;  0.0000000E+00;  6.9288685E-06;  1.0000351E+03;  4.0000001E-01;  2.9036203E+01;3; -3.6100669E+00;  0.0000000E+00; -4.1418360E-04;0; -3.7467990E-02;  1.0000714E+04;  0.0000000E+00; -5.8707835E-12;  1.0000000E+04;  0.0000000E+00;  9.9999873E+03; -3.8118009E-02;  0.0000000E+00;  6.5002026E-04;  8.0722036E+00;
  3.3999735E-01;  9.9999998E-03;  4.0000018E-02;1573; -3.7375407E-03;  0.0000000E+00;  1.5044878E-05;  1.0000351E+03;  4.0000001E-01;  2.9036203E+01;3; -3.6320660E+00;  0.0000000E+00;  1.1470115E-03;0; -3.7576180E-02;  1.0000715E+04;  0.0000000E+00; -4.1604841E-11;  1.0000000E+04;  0.0000000E+00;  9.9999863E+03; -3.8310390E-02;  0.0000000E+00;  7.3421060E-04;  8.4988060E+00;
  3.3999735E-01;  9.9999998E-03;  6.0000028E-02;1574; -3.7604847E-03;  0.0000000E+00;  2.5715592E-05;  1.0000353E+03;  4.0000001E-01;  2.9233728E+01;3; -3.6685853E+00;  0.0000000E+00;  6.5516704E-03;0; -3.7751179E-02;  1.0000719E+04;  0.0000000E+00;  1.9382806E-11;  1.0000000E+04;  0.0000000E+00;  9.9999844E+03; -3.8638823E-02;  0.0000000E+00;  8.8764203E-04;  9.2883711E+00;
  3.3999732E-01;  9.9999998E-03;  8.0000043E-02;1575; -3.7927658E-03;  0.0000000E+00;  4.0699080E-05;  1.0000354E+03;  4.0000001E-01;  2.9332491E+01;3; -3.7192848E+00;  0.0000000E+00;  1.8435361E-02;0; -3.7982300E-02;  1.0000726E+04;  0.0000000E+00; -1.2063453E-10;  1.0000000E+04;  0.0000000E+00;  9.9999814E+03; -3.9111391E-02;  0.0000000E+00;  1.1290911E-03;  1.0557940E+01;
  3.3999732E-01;  9.9999998E-03;  1.0000005E-01;1576; -3.8339677E-03;  0.0000000E+00;  6.2391511E-05;  1.0000355E+03;  4.0000001E-01;  2.9332491E+01;3; -3.7831194E+00;  0.0000000E+00;  3.9901480E-02;0; -3.8248606E-02;  1.0000732E+04;  0.0000000E+00; -1.9170286E-10;  1.0000000E+04;  0.0000000E+00;  9.9999756E+03; -3.9732233E-02;  0.0000000E+00;  1.4836265E-03;  1.2474137E+01;
  3.3999729E-01;  9.9999998E-03;  1.2000008E-01;1577; -3.8826647E-03;  0.0000000E+00;  9.3026858E-05;  1.0000356E+03;  4.0000001E-01;  2.9431253E+01;3; -3.8576574E+00;  0.0000000E+00;  7.1916930E-02;0; -3.8511999E-02;  1.0000742E+04;  0.0000000E+00; -1.7037285E-10;  1.0000000E+04;  0.0000000E+00;  9.9999688E+03; -4.0495045E-02;  0.0000000E+00;  1.9830468E-03;  1.5265753E+01;
  3.3999726E-01;  9.9999998E-03;  1.4000010E-01;1578; -3.9359140E-03;  0.0000000E+00;  1.3600633E-04;  1.0000356E+03;  4.0000001E-01;  2.9431253E+01;3; -3.9394102E+00;  0.0000000E+00;  1.2020698E-01;0; -3.8707044E-02;  1.0000753E+04;  0.0000000E+00;  2.0278529E-10;  1.0000000E+04;  0.0000000E+00;  9.9999580E+03; -4.1376416E-02;  0.0000000E+00;  2.6693712E-03;  1.9259438E+01;
  3.5999665E-01;  9.9999998E-03; -7.7918676E-14;1602; -4.5814794E-03;  0.0000000E+00; -5.0007898E-10;  1.0000437E+03;  4.0000001E-01;  3.6245865E+01;3; -4.2793870E+00;  0.0000000E+00; -1.2636435E-06;0; -4.5149859E-02;  1.0000892E+04;  0.0000000E+00;  2.6573920E-16;  1.0000000E+04;  0.0000000E+00;  9.9999834E+03; -4.5996096E-02;  0.0000000E+00;  8.4623555E-04;  1.0555822E+01;
  3.5999665E-01;  9.9999998E-03;  2.0000011E-02;1603; -4.5875041E-03;  0.0000000E+00;  8.9339746E-06;  1.0000438E+03;  4.0000001E-01;  3.6245865E+01;3; -4.2888732E+00;  0.0000000E+00; -1.1377438E-03;0; -4.5201298E-02;  1.0000892E+04;  0.0000000E+00;  1.5426941E-11;  1.0000000E+04;  0.0000000E+00;  9.9999824E+03; -4.6074584E-02;  0.0000000E+00;  8.7328802E-04;  1.0700925E+01;
  3.5999662E-01;  9.9999998E-03;  4.0000021E-02;1604; -4.6057329E-03;  0.0000000E+00;  1.9037861E-05;  1.0000438E+03;  4.0000001E-01;  3.6344627E+01;3; -4.3173938E+00;  0.0000000E+00; -1.3083871E-04;0; -4.5354277E-02;  1.0000895E+04;  0.0000000E+00;  4.6021180E-11;  1.0000000E+04;  0.0000000E+00;  9.9999814E+03; -4.6314456E-02;  0.0000000E+00;  9.6017733E-04;  1.1168269E+01;
  3.5999662E-01;  9.9999998E-03;  6.0000036E-02;1605; -4.6365862E-03;  0.0000000E+00;  3.1664309E-05;  1.0000439E+03;  4.0000001E-01;  3.6443390E+01;3; -4.3649535E+00;  0.0000000E+00;  4.9647922E-03;0; -4.5604110E-02;  1.0000898E+04;  0.0000000E+00;  2.5846351E-11;  1.0000000E+04;  0.0000000E+00;  9.9999785E+03; -4.6727721E-02;  0.0000000E+00;  1.1236096E-03;  1.2052722E+01;
  3.5999659E-01;  9.9999998E-03;  8.0000050E-02;1606; -4.6804547E-03;  0.0000000E+00;  4.8969214E-05;  1.0000441E+03;  4.0000001E-01;  3.6542156E+01;3; -4.4313970E+00;  0.0000000E+00;  1.7496960E-02;0; -4.5939531E-02;  1.0000905E+04;  0.0000000E+00; -1.1925375E-10;  1.0000000E+04;  0.0000000E+00;  9.9999756E+03; -4.7329970E-02;  0.0000000E+00;  1.3904398E-03;  1.3512705E+01;
  3.5999656E-01;  9.9999998E-03;  1.0000007E-01;1607; -4.7372989E-03;  0.0000000E+00;  7.3582327E-05;  1.0000442E+03;  4.0000001E-01;  3.6640919E+01;3; -4.5157461E+00;  0.0000000E+00;  4.0784501E-02;0; -4.6336468E-02;  1.0000916E+04;  0.0000000E+00; -1.7544602E-10;  1.0000000E+04;  0.0000000E+00;  9.9999697E+03; -4.8133351E-02;  0.0000000E+00;  1.7968825E-03;  1.5776340E+01;
  3.5999656E-01;  9.9999998E-03;  1.2000009E-01;1608; -4.8057069E-03;  0.0000000E+00;  1.0893925E-04;  1.0000444E+03;  4.0000001E-01;  3.6838444E+01;3; -4.6153345E+00;  0.0000000E+00;  7.7138729E-02;0; -4.6748679E-02;  1.0000929E+04;  0.0000000E+00; -2.5464197E-10;  1.0000000E+04;  0.0000000E+00;  9.9999609E+03; -4.9137626E-02;  0.0000000E+00;  2.3889453E-03;  1.9161566E+01;
  3.5999650E-01;  9.9999998E-03;  1.4000012E-01;1609; -4.8826840E-03;  0.0000000E+00;  1.5902554E-04;  1.0000446E+03;  4.0000001E-01;  3.6937206E+01;3; -4.7262244E+00;  0.0000000E+00;  1.3325840E-01;0; -4.7093760E-02;  1.0000943E+04;  0.0000000E+00; -3.9402684E-10;  1.0000000E+04;  0.0000000E+00;  9.9999473E+03; -5.0320163E-02;  0.0000000E+00;  3.2264043E-03;  2.4128565E+01;
  3.7999573E-01;  9.9999998E-03; -2.7669928E-15;1633; -5.6204777E-03;  0.0000000E+00; -4.1126244E-10;  1.0000541E+03;  4.0000001E-01;  4.4838203E+01;3; -5.0578036E+00;  0.0000000E+00; -1.0202934E-06;0; -5.4150254E-02;  1.0001107E+04;  0.0000000E+00; -1.0645000E-16;  1.0000000E+04;  0.0000000E+00;  9.9999756E+03; -5.5354178E-02;  0.0000000E+00;  1.2039244E-03;  1.4284118E+01;
  3.7999573E-01;  9.9999998E-03;  2.0000016E-02;1634; -5.6282966E-03;  0.0000000E+00;  1.2916536E-05;  1.0000542E+03;  4.0000001E-01;  4.4936966E+01;3; -5.0698752E+00;  0.0000000E+00; -5.2542344E-04;0; -5.4220304E-02;  1.0001108E+04;  0.0000000E+00; -7.4124068E-11;  1.0000000E+04;  0.0000000E+00;  9.9999756E+03; -5.5449322E-02;  0.0000000E+00;  1.2290177E-03;  1.4439195E+01;
  3.7999570E-01;  9.9999998E-03;  4.0000033E-02;1635; -5.6520551E-03;  0.0000000E+00;  2.6772695E-05;  1.0000544E+03;  4.0000001E-01;  4.5134491E+01;3; -5.1062737E+00;  0.0000000E+00;  9.7538647E-04;0; -5.4429792E-02;  1.0001112E+04;  0.0000000E+00;  1.4559852E-11;  1.0000000E+04;  0.0000000E+00;  9.9999746E+03; -5.5741679E-02;  0.0000000E+00;  1.3118882E-03;  1.4944613E+01;
  3.7999570E-01;  9.9999998E-03;  6.0000047E-02;1636; -5.6925672E-03;  0.0000000E+00;  4.2832384E-05;  1.0000546E+03;  4.0000001E-01;  4.5233253E+01;3; -5.1672459E+00;  0.0000000E+00;  6.5103373E-03;0; -5.4775644E-02;  1.0001119E+04;  0.0000000E+00; -2.2692946E-11;  1.0000000E+04;  0.0000000E+00;  9.9999717E+03; -5.6250427E-02;  0.0000000E+00;  1.4747845E-03;  1.5919598E+01;
  3.7999567E-01;  9.9999998E-03;  8.0000065E-02;1637; -5.7507930E-03;  0.0000000E+00;  6.3423984E-05;  1.0000547E+03;  4.0000001E-01;  4.5332016E+01;3; -5.2529898E+00;  0.0000000E+00;  1.9878149E-02;0; -5.5247910E-02;  1.0001128E+04;  0.0000000E+00; -2.7040464E-10;  1.0000000E+04;  0.0000000E+00;  9.9999678E+03; -5.7001665E-02;  0.0000000E+00;  1.7537551E-03;  1.7563881E+01;
  3.7999564E-01;  9.9999998E-03;  1.0000009E-01;1638; -5.8273328E-03;  0.0000000E+00;  9.1410875E-05;  1.0000551E+03;  4.0000001E-01;  4.5628304E+01;3; -5.3627119E+00;  0.0000000E+00;  4.4386644E-02;0; -5.5821698E-02;  1.0001140E+04;  0.0000000E+00; -4.5964385E-10;  1.0000000E+04;  0.0000000E+00;  9.9999609E+03; -5.8019698E-02;  0.0000000E+00;  2.1980000E-03;  2.0168512E+01;
  3.7999561E-01;  9.9999998E-03;  1.2000012E-01;1639; -5.9211119E-03;  0.0000000E+00;  1.3169124E-04;  1.0000554E+03;  4.0000001E-01;  4.5825829E+01;3; -5.4936910E+00;  0.0000000E+00;  8.5015900E-02;0; -5.6443874E-02;  1.0001156E+04;  0.0000000E+00; -2.7163410E-10;  1.0000000E+04;  0.0000000E+00;  9.9999512E+03; -5.9314892E-02;  0.0000000E+00;  2.8710163E-03;  2.4150822E+01;
  3.7999555E-01;  9.9999998E-03;  1.4000016E-01;1640; -6.0292734E-03;  0.0000000E+00;  1.8862887E-04;  1.0000557E+03;  4.0000001E-01;  4.6122116E+01;3; -5.6415677E+00;  0.0000000E+00;  1.4759554E-01;0; -5.7013620E-02;  1.0001178E+04;  0.0000000E+00; -5.0136150E-12;  1.0000000E+04;  0.0000000E+00;  9.9999355E+03; -6.0869906E-02;  0.0000000E+00;  3.8562862E-03;  3.0137121E+01;
  3.9999461E-01;  9.9999998E-03;  1.1147584E-13;1664; -6.8637393E-03;  0.0000000E+00; -9.6950148E-12;  1.0000670E+03;  4.0000001E-01;  5.5504547E+01;3; -5.9473677E+00;  0.0000000E+00; -6.3637890E-07;0; -6.4569108E-02;  1.0001374E+04;  0.0000000E+00; -4.5325522E-16;  1.0000000E+04;  0.0000000E+00;  9.9999658E+03; -6.6340797E-02;  0.0000000E+00;  1.7716885E-03;  1.9613815E+01;
  3.9999461E-01;  9.9999998E-03;  2.0000022E-02;1665; -6.8736412E-03;  0.0000000E+00;  2.0455949E-05;  1.0000671E+03;  4.0000001E-01;  5.5603310E+01;3; -5.9624810E+00;  0.0000000E+00;  3.0071025E-03;0; -6.4661138E-02;  1.0001376E+04;  0.0000000E+00;  4.9788989E-11;  1.0000000E+04;  0.0000000E+00;  9.9999658E+03; -6.6453651E-02;  0.0000000E+00;  1.7925117E-03;  1.9785603E+01;
  3.9999458E-01;  9.9999998E-03;  4.0000044E-02;1666; -6.9038505E-03;  0.0000000E+00;  4.1365929E-05;  1.0000671E+03;  4.0000001E-01;  5.5603310E+01;3; -6.0081415E+00;  0.0000000E+00;  7.5932629E-03;0; -6.4938039E-02;  1.0001380E+04;  0.0000000E+00;  4.8975348E-11;  1.0000000E+04;  0.0000000E+00;  9.9999648E+03; -6.6802412E-02;  0.0000000E+00;  1.8643726E-03;  2.0347834E+01;
  3.9999458E-01;  9.9999998E-03;  6.0000069E-02;1667; -6.9557694E-03;  0.0000000E+00;  6.3699474E-05;  1.0000674E+03;  4.0000001E-01;  5.5899597E+01;3; -6.0850058E+00;  0.0000000E+00;  1.5526011E-02;0; -6.5400586E-02;  1.0001387E+04;  0.0000000E+00; -4.3760700E-11;  1.0000000E+04;  0.0000000E+00;  9.9999609E+03; -6.7415491E-02;  0.0000000E+00;  2.0149036E-03;  2.1438942E+01;
  3.9999455E-01;  9.9999998E-03;  8.0000095E-02;1668; -7.0312792E-03;  0.0000000E+00;  8.9610570E-05;  1.0000677E+03;  4.0000001E-01;  5.6097122E+01;3; -6.1938553E+00;  0.0000000E+00;  3.0478712E-02;0; -6.6044062E-02;  1.0001399E+04;  0.0000000E+00; -2.4728480E-10;  1.0000000E+04;  0.0000000E+00;  9.9999561E+03; -6.8333253E-02;  0.0000000E+00;  2.2891937E-03;  2.3290377E+01;
  3.9999449E-01;  9.9999998E-03;  1.0000012E-01;1669; -7.1320008E-03;  0.0000000E+00;  1.2256113E-04;  1.0000682E+03;  4.0000001E-01;  5.6492172E+01;3; -6.3343973E+00;  0.0000000E+00;  5.6816347E-02;0; -6.6847004E-02;  1.0001413E+04;  0.0000000E+00; -7.9630624E-10;  1.0000000E+04;  0.0000000E+00;  9.9999482E+03; -6.9596693E-02;  0.0000000E+00;  2.7496857E-03;  2.6243759E+01;
  3.9999443E-01;  9.9999998E-03;  1.2000016E-01;1670; -7.2577917E-03;  0.0000000E+00;  1.6777939E-04;  1.0000687E+03;  4.0000001E-01;  5.6887222E+01;3; -6.5039763E+00;  0.0000000E+00;  1.0002108E-01;0; -6.7753062E-02;  1.0001436E+04;  0.0000000E+00; -1.2697249E-10;  1.0000000E+04;  0.0000000E+00;  9.9999385E+03; -7.1232490E-02;  0.0000000E+00;  3.4794300E-03;  3.0810949E+01;
  3.9999437E-01;  9.9999998E-03;  1.4000021E-01;1671; -7.4060438E-03;  0.0000000E+00;  2.3171952E-04;  1.0000692E+03;  4.0000001E-01;  5.7282276E+01;3; -6.6978559E+00;  0.0000000E+00;  1.6770172E-01;0; -6.8643160E-02;  1.0001464E+04;  0.0000000E+00; -5.2030108E-10;  1.0000000E+04;  0.0000000E+00;  9.9999209E+03; -7.3234789E-02;  0.0000000E+00;  4.5916280E-03;  3.7807529E+01;
  4.1999322E-01;  9.9999998E-03; -3.1325534E-13;1695; -8.3410256E-03;  0.0000000E+00; -8.1219886E-10;  1.0000823E+03;  4.0000001E-01;  6.8146133E+01;3; -6.9567938E+00;  0.0000000E+00; -1.2046016E-06;0; -7.6534323E-02;  1.0001695E+04;  0.0000000E+00;  9.2074943E-17;  1.0000000E+04;  0.0000000E+00;  9.9999502E+03; -7.9185210E-02;  0.0000000E+00;  2.6508882E-03;  2.7188917E+01;
  4.1999322E-01;  9.9999998E-03;  2.0000033E-02;1696; -8.3532548E-03;  0.0000000E+00;  3.3830718E-05;  1.0000823E+03;  4.0000001E-01;  6.8146133E+01;3; -6.9753494E+00;  0.0000000E+00;  1.1863224E-02;0; -7.6650247E-02;  1.0001698E+04;  0.0000000E+00; -8.0690517E-11;  1.0000000E+04;  0.0000000E+00;  9.9999492E+03; -7.9316437E-02;  0.0000000E+00;  2.6661919E-03;  2.7400234E+01;
  4.1999319E-01;  9.9999998E-03;  4.0000066E-02;1697; -8.3907442E-03;  0.0000000E+00;  6.7366156E-05;  1.0000825E+03;  4.0000001E-01;  6.8343658E+01;3; -7.0315909E+00;  0.0000000E+00;  2.4421014E-02;0; -7.7001557E-02;  1.0001702E+04;  0.0000000E+00; -1.7481883E-10;  1.0000000E+04;  0.0000000E+00;  9.9999473E+03; -7.9724379E-02;  0.0000000E+00;  2.7228205E-03;  2.8084023E+01;
  4.1999319E-01;  9.9999998E-03;  6.0000103E-02;1698; -8.4557487E-03;  0.0000000E+00;  1.0096269E-04;  1.0000828E+03;  4.0000001E-01;  6.8639946E+01;3; -7.1267715E+00;  0.0000000E+00;  3.8772780E-02;0; -7.7596478E-02;  1.0001713E+04;  0.0000000E+00; -1.0810440E-10;  1.0000000E+04;  0.0000000E+00;  9.9999453E+03; -8.0448799E-02;  0.0000000E+00;  2.8523202E-03;  2.9385794E+01;
  4.1999313E-01;  9.9999998E-03;  8.0000140E-02;1699; -8.5514830E-03;  0.0000000E+00;  1.3636422E-04;  1.0000834E+03;  4.0000001E-01;  6.9034996E+01;3; -7.2625332E+00;  0.0000000E+00;  5.7905927E-02;0; -7.8441277E-02;  1.0001728E+04;  0.0000000E+00; -1.8808093E-10;  1.0000000E+04;  0.0000000E+00;  9.9999385E+03; -8.1547685E-02;  0.0000000E+00;  3.1064085E-03;  3.1545437E+01;
  4.1999307E-01;  9.9999998E-03;  1.0000017E-01;1700; -8.6812805E-03;  0.0000000E+00;  1.7749863E-04;  1.0000840E+03;  4.0000001E-01;  6.9627571E+01;3; -7.4397035E+00;  0.0000000E+00;  8.7746777E-02;0; -7.9525612E-02;  1.0001748E+04;  0.0000000E+00; -2.2154395E-10;  1.0000000E+04;  0.0000000E+00;  9.9999336E+03; -8.3083622E-02;  0.0000000E+00;  3.5580127E-03;  3.4921745E+01;
  4.1999298E-01;  9.9999998E-03;  1.2000022E-01;1701; -8.8465950E-03;  0.0000000E+00;  2.2927225E-04;  1.0000847E+03;  4.0000001E-01;  7.0220146E+01;3; -7.6558905E+00;  0.0000000E+00;  1.3195996E-01;0; -8.0796905E-02;  1.0001774E+04;  0.0000000E+00;  1.0953208E-11;  1.0000000E+04;  0.0000000E+00;  9.9999199E+03; -8.5105479E-02;  0.0000000E+00;  4.3085725E-03;  4.0089046E+01;
  4.1999289E-01;  9.9999998E-03;  1.4000027E-01;1702; -9.0457378E-03;  0.0000000E+00;  3.0087706E-04;  1.0000856E+03;  4.0000001E-01;  7.0911484E+01;3; -7.9062328E+00;  0.0000000E+00;  2.0306909E-01;0; -8.2121737E-02;  1.0001809E+04;  0.0000000E+00; -3.3177566E-10;  1.0000000E+04;  0.0000000E+00;  9.9998994E+03; -8.7626658E-02;  0.0000000E+00;  5.5049220E-03;  4.8049236E+01;
  4.3999153E-01;  9.9999998E-03; -2.6006267E-13;1726; -1.0089007E-02;  0.0000000E+00; -1.2261454E-09;  1.0001006E+03;  4.0000001E-01;  8.3355530E+01;3; -8.0951138E+00;  0.0000000E+00; -4.6324503E-06;0; -9.0126552E-02;  1.0002086E+04;  0.0000000E+00; -6.4332351E-17;  1.0000000E+04;  0.0000000E+00;  9.9999277E+03; -9.4095312E-02;  0.0000000E+00;  3.9687618E-03;  3.7802162E+01;
  4.3999153E-01;  9.9999998E-03;  2.0000052E-02;1727; -1.0103764E-02;  0.0000000E+00;  5.6126995E-05;  1.0001006E+03;  4.0000001E-01;  8.3355530E+01;3; -8.1174908E+00;  0.0000000E+00;  2.9571421E-02;0; -9.0265393E-02;  1.0002087E+04;  0.0000000E+00;  6.1759105E-11;  1.0000000E+04;  0.0000000E+00;  9.9999277E+03; -9.4245501E-02;  0.0000000E+00;  3.9801076E-03;  3.8103745E+01;
  4.3999150E-01;  9.9999998E-03;  4.0000100E-02;1728; -1.0149238E-02;  0.0000000E+00;  1.1096676E-04;  1.0001009E+03;  4.0000001E-01;  8.3553055E+01;3; -8.1854401E+00;  0.0000000E+00;  5.8333885E-02;0; -9.0689503E-02;  1.0002093E+04;  0.0000000E+00;  1.8505669E-10;  1.0000000E+04;  0.0000000E+00;  9.9999248E+03; -9.4714604E-02;  0.0000000E+00;  4.0250984E-03;  3.9055187E+01;
  4.3999147E-01;  9.9999998E-03;  6.0000151E-02;1729; -1.0228842E-02;  0.0000000E+00;  1.6398010E-04;  1.0001013E+03;  4.0000001E-01;  8.3849342E+01;3; -8.3010845E+00;  0.0000000E+00;  8.6080775E-02;0; -9.1419950E-02;  1.0002104E+04;  0.0000000E+00;  4.9821108E-10;  1.0000000E+04;  0.0000000E+00;  9.9999238E+03; -9.5555797E-02;  0.0000000E+00;  4.1358434E-03;  4.0788536E+01;
  4.3999141E-01;  9.9999998E-03;  8.0000199E-02;1730; -1.0347717E-02;  0.0000000E+00;  2.1621102E-04;  1.0001019E+03;  4.0000001E-01;  8.4441917E+01;3; -8.4673252E+00;  0.0000000E+00;  1.1484701E-01;0; -9.2482276E-02;  1.0002121E+04;  0.0000000E+00;  9.4734887E-10;  1.0000000E+04;  0.0000000E+00;  9.9999160E+03; -9.6847177E-02;  0.0000000E+00;  4.3649031E-03;  4.3511868E+01;
  4.3999133E-01;  9.9999998E-03;  1.0000025E-01;1731; -1.0511721E-02;  0.0000000E+00;  2.7144264E-04;  1.0001025E+03;  4.0000001E-01;  8.4935730E+01;3; -8.6866055E+00;  0.0000000E+00;  1.5092315E-01;0; -9.3888439E-02;  1.0002146E+04;  0.0000000E+00;  1.5224006E-09;  1.0000000E+04;  0.0000000E+00;  9.9999063E+03; -9.8676622E-02;  0.0000000E+00;  4.7881855E-03;  4.7540115E+01;
  4.3999124E-01;  9.9999998E-03;  1.2000032E-01;1732; -1.0724999E-02;  0.0000000E+00;  3.3478061E-04;  1.0001036E+03;  4.0000001E-01;  8.5824593E+01;3; -8.9579000E+00;  0.0000000E+00;  1.9734536E-01;0; -9.5602013E-02;  1.0002182E+04;  0.0000000E+00;  2.0061104E-09;  1.0000000E+04;  0.0000000E+00;  9.9998916E+03; -1.0112058E-01;  0.0000000E+00;  5.5185696E-03;  5.3438282E+01;
  4.3999109E-01;  9.9999998E-03;  1.4000039E-01;1733; -1.0987549E-02;  0.0000000E+00;  4.1672291E-04;  1.0001046E+03;  4.0000001E-01;  8.6713455E+01;3; -9.2763882E+00;  0.0000000E+00;  2.7055332E-01;0; -9.7484812E-02;  1.0002224E+04;  0.0000000E+00;  2.8760729E-09;  1.0000000E+04;  0.0000000E+00;  9.9998701E+03; -1.0421991E-01;  0.0000000E+00;  6.7350953E-03;  6.2346985E+01;
  4.5998943E-01;  9.9999998E-03;  2.0567089E-13;1757; -1.2157435E-02;  0.0000000E+00;  7.0234868E-10;  1.0001227E+03;  4.0000033E-01;  1.0162653E+02;3; -9.3739319E+00;  0.0000000E+00;  1.3495394E-06;0; -1.0527466E-01;  1.0002544E+04;  0.0000000E+00; -6.2436133E-16;  1.0000000E+04;  0.0000000E+00;  9.9998955E+03; -1.1114813E-01;  0.0000000E+00;  5.8734720E-03;  5.2353802E+01;
  4.5998943E-01;  9.9999998E-03;  2.0000076E-02;1758; -1.2174852E-02;  0.0000000E+00;  9.1294649E-05;  1.0001227E+03;  4.0000033E-01;  1.0172529E+02;3; -9.4003391E+00;  0.0000000E+00;  6.1056975E-02;0; -1.0543026E-01;  1.0002546E+04;  0.0000000E+00;  7.4213254E-11;  1.0000000E+04;  0.0000000E+00;  9.9998955E+03; -1.1131783E-01;  0.0000000E+00;  5.8875647E-03;  5.2839462E+01;
  4.5998940E-01;  9.9999998E-03;  4.0000152E-02;1759; -1.2228805E-02;  0.0000000E+00;  1.8014037E-04;  1.0001229E+03;  4.0000030E-01;  1.0182405E+02;3; -9.4807234E+00;  0.0000000E+00;  1.1916760E-01;0; -1.0591119E-01;  1.0002554E+04;  0.0000000E+00;  1.7460461E-10;  1.0000000E+04;  0.0000000E+00;  9.9998926E+03; -1.1185042E-01;  0.0000000E+00;  5.9392294E-03;  5.4331013E+01;
  4.5998937E-01;  9.9999998E-03;  6.0000226E-02;1760; -1.2324305E-02;  0.0000000E+00;  2.6482999E-04;  1.0001234E+03;  4.0000024E-01;  1.0221910E+02;3; -9.6183615E+00;  0.0000000E+00;  1.7151387E-01;0; -1.0675757E-01;  1.0002566E+04;  0.0000000E+00;  1.0030667E-09;  1.0000000E+04;  0.0000000E+00;  9.9998867E+03; -1.1281302E-01;  0.0000000E+00;  6.0554538E-03;  5.6916752E+01;
  4.5998928E-01;  9.9999998E-03;  8.0000304E-02;1761; -1.2469100E-02;  0.0000000E+00;  3.4571378E-04;  1.0001240E+03;  4.0000027E-01;  1.0271291E+02;3; -9.8179588E+00;  0.0000000E+00;  2.1979550E-01;0; -1.0802550E-01;  1.0002587E+04;  0.0000000E+00;  2.2032085E-09;  1.0000000E+04;  0.0000000E+00;  9.9998799E+03; -1.1430519E-01;  0.0000000E+00;  6.2796930E-03;  6.0713547E+01;
  4.5998919E-01;  9.9999998E-03;  1.0000038E-01;1762; -1.2672587E-02;  0.0000000E+00;  4.2586107E-04;  1.0001250E+03;  4.0000027E-01;  1.0360178E+02;3; -1.0084500E+01;  0.0000000E+00;  2.6783949E-01;0; -1.0976498E-01;  1.0002618E+04;  0.0000000E+00;  7.2947772E-09;  1.0000000E+04;  0.0000000E+00;  9.9998682E+03; -1.1644196E-01;  0.0000000E+00;  6.6769808E-03;  6.5900429E+01;
  4.5998904E-01;  9.9999998E-03;  1.2000047E-01;1763; -1.2942739E-02;  0.0000000E+00;  5.1080692E-04;  1.0001262E+03;  4.0000033E-01;  1.0458940E+02;3; -1.0419057E+01;  0.0000000E+00;  3.2082367E-01;0; -1.1197432E-01;  1.0002660E+04;  0.0000000E+00;  1.2506271E-08;  1.0000000E+04;  0.0000000E+00;  9.9998516E+03; -1.1933048E-01;  0.0000000E+00;  7.3561566E-03;  7.2913803E+01;
  4.5998886E-01;  9.9999998E-03;  1.4000057E-01;1764; -1.3282406E-02;  0.0000000E+00;  6.1071938E-04;  1.0001278E+03;  4.0000036E-01;  1.0587331E+02;3; -1.0817584E+01;  0.0000000E+00;  3.9710456E-01;0; -1.1452807E-01;  1.0002713E+04;  0.0000000E+00;  2.1745063E-08;  1.0000000E+04;  0.0000000E+00;  9.9998281E+03; -1.2304605E-01;  0.0000000E+00;  8.5179722E-03;  8.2934608E+01;
  4.7998682E-01;  9.9999998E-03;  3.3546665E-13;1788; -1.4611567E-02;  0.0000000E+00; -3.8078510E-10;  1.0001482E+03;  4.0000093E-01;  1.2276159E+02;3; -1.0808291E+01;  0.0000000E+00; -2.5805284E-06;0; -1.2155789E-01;  1.0003070E+04;  0.0000000E+00;  1.4250465E-16;  1.0000000E+04;  0.0000000E+00;  9.9998545E+03; -1.3007978E-01;  0.0000000E+00;  8.5218884E-03;  7.1756805E+01;
  4.7998682E-01;  9.9999998E-03;  2.0000113E-02;1789; -1.4631727E-02;  0.0000000E+00;  1.4295062E-04;  1.0001482E+03;  4.0000090E-01;  1.2276159E+02;3; -1.0838839E+01;  0.0000000E+00;  1.0997928E-01;0; -1.2171707E-01;  1.0003072E+04;  0.0000000E+00;  2.1660887E-11;  1.0000000E+04;  0.0000000E+00;  9.9998516E+03; -1.3027036E-01;  0.0000000E+00;  8.5532973E-03;  7.2579788E+01;
  4.7998679E-01;  9.9999998E-03;  4.0000223E-02;1790; -1.4694542E-02;  0.0000000E+00;  2.8261522E-04;  1.0001485E+03;  4.0000093E-01;  1.2305788E+02;3; -1.0932051E+01;  0.0000000E+00;  2.1422440E-01;0; -1.2221774E-01;  1.0003080E+04;  0.0000000E+00;  7.6438361E-10;  1.0000000E+04;  0.0000000E+00;  9.9998457E+03; -1.3087058E-01;  0.0000000E+00;  8.6528454E-03;  7.5059151E+01;
  4.7998676E-01;  9.9999998E-03;  6.0000338E-02;1791; -1.4807002E-02;  0.0000000E+00;  4.1666854E-04;  1.0001490E+03;  4.0000096E-01;  1.2345293E+02;3; -1.1092601E+01;  0.0000000E+00;  3.0889240E-01;0; -1.2312628E-01;  1.0003098E+04;  0.0000000E+00;  2.0744135E-09;  1.0000000E+04;  0.0000000E+00;  9.9998369E+03; -1.3196070E-01;  0.0000000E+00;  8.8344198E-03;  7.9198235E+01;
  4.7998667E-01;  9.9999998E-03;  8.0000453E-02;1792; -1.4980284E-02;  0.0000000E+00;  5.4455915E-04;  1.0001495E+03;  4.0000093E-01;  1.2384798E+02;3; -1.1327637E+01;  0.0000000E+00;  3.9264706E-01;0; -1.2454366E-01;  1.0003122E+04;  0.0000000E+00;  8.3283940E-09;  1.0000000E+04;  0.0000000E+00;  9.9998242E+03; -1.3366139E-01;  0.0000000E+00;  9.1177328E-03;  8.4944214E+01;
  4.7998655E-01;  9.9999998E-03;  1.0000057E-01;1793; -1.5228268E-02;  0.0000000E+00;  6.6870992E-04;  1.0001506E+03;  4.0000093E-01;  1.2483560E+02;3; -1.1645236E+01;  0.0000000E+00;  4.6755466E-01;0; -1.2657762E-01;  1.0003159E+04;  0.0000000E+00;  2.0925587E-08;  1.0000000E+04;  0.0000000E+00;  9.9998105E+03; -1.3611327E-01;  0.0000000E+00;  9.5356544E-03;  9.2217010E+01;
  4.7998637E-01;  9.9999998E-03;  1.2000070E-01;1794; -1.5564067E-02;  0.0000000E+00;  7.9360284E-04;  1.0001521E+03;  4.0000090E-01;  1.2602074E+02;3; -1.2050143E+01;  0.0000000E+00;  5.3797704E-01;0; -1.2928718E-01;  1.0003208E+04;  0.0000000E+00;  4.6777004E-08;  1.0000000E+04;  0.0000000E+00;  9.9997930E+03; -1.3945436E-01;  0.0000000E+00;  1.0167183E-02;  1.0117027E+02;
  4.7998613E-01;  9.9999998E-03;  1.4000084E-01;1795; -1.5995080E-02;  0.0000000E+00;  9.2606794E-04;  1.0001541E+03;  4.0000093E-01;  1.2769971E+02;3; -1.2540437E+01;  0.0000000E+00;  6.1733389E-01;0; -1.3258696E-01;  1.0003274E+04;  0.0000000E+00;  8.3424389E-08;  1.0000000E+04;  0.0000000E+00;  9.9997656E+03; -1.4379862E-01;  0.0000000E+00;  1.1211664E-02;  1.1289478E+02;
  4.9998361E-01;  9.9999998E-03;  3.7457019E-13;1819; -1.7526455E-02;  0.0000000E+00;  8.2496487E-10;  1.0001771E+03;  4.0000215E-01;  1.4666193E+02;3; -1.2418288E+01;  0.0000000E+00;  6.5598588E-06;0; -1.3794756E-01;  1.0003643E+04;  0.0000000E+00; -1.4511299E-15;  1.0000000E+04;  0.0000000E+00;  9.9997949E+03; -1.5000629E-01;  0.0000000E+00;  1.2058729E-02;  9.6770355E+01;
  4.9998361E-01;  9.9999998E-03;  2.0000162E-02;1820; -1.7549437E-02;  0.0000000E+00;  2.1460450E-04;  1.0001771E+03;  4.0000215E-01;  1.4676070E+02;3; -1.2452820E+01;  0.0000000E+00;  1.8134958E-01;0; -1.3808756E-01;  1.0003644E+04;  0.0000000E+00;  3.4401490E-10;  1.0000000E+04;  0.0000000E+00;  9.9997939E+03; -1.5022063E-01;  0.0000000E+00;  1.2133081E-02;  9.8160446E+01;
  4.9998358E-01;  9.9999998E-03;  4.0000323E-02;1821; -1.7621314E-02;  0.0000000E+00;  4.2590595E-04;  1.0001769E+03;  4.0000212E-01;  1.4656317E+02;3; -1.2559028E+01;  0.0000000E+00;  3.5586056E-01;0; -1.3854235E-01;  1.0003653E+04;  0.0000000E+00;  2.0168602E-09;  1.0000000E+04;  0.0000000E+00;  9.9997861E+03; -1.5089643E-01;  0.0000000E+00;  1.2354072E-02;  1.0230042E+02;
  4.9998352E-01;  9.9999998E-03;  6.0000487E-02;1822; -1.7751563E-02;  0.0000000E+00;  6.3205633E-04;  1.0001772E+03;  4.0000203E-01;  1.4685945E+02;3; -1.2742707E+01;  0.0000000E+00;  5.1658368E-01;0; -1.3941379E-01;  1.0003673E+04;  0.0000000E+00;  7.4410851E-09;  1.0000000E+04;  0.0000000E+00;  9.9997705E+03; -1.5212560E-01;  0.0000000E+00;  1.2711802E-02;  1.0905574E+02;
  4.9998340E-01;  9.9999998E-03;  8.0000661E-02;1823; -1.7955381E-02;  0.0000000E+00;  8.3276222E-04;  1.0001777E+03;  4.0000200E-01;  1.4715575E+02;3; -1.3013656E+01;  0.0000000E+00;  6.5925044E-01;0; -1.4086360E-01;  1.0003701E+04;  0.0000000E+00;  2.7115600E-08;  1.0000000E+04;  0.0000000E+00;  9.9997520E+03; -1.5404619E-01;  0.0000000E+00;  1.3182594E-02;  1.1810317E+02;
  4.9998325E-01;  9.9999998E-03;  1.0000084E-01;1824; -1.8252276E-02;  0.0000000E+00;  1.0297105E-03;  1.0001788E+03;  4.0000209E-01;  1.4814337E+02;3; -1.3383842E+01;  0.0000000E+00;  7.8342295E-01;0; -1.4308201E-01;  1.0003744E+04;  0.0000000E+00;  7.0633753E-08;  1.0000000E+04;  0.0000000E+00;  9.9997275E+03; -1.5682046E-01;  0.0000000E+00;  1.3738457E-02;  1.2896140E+02;
  4.9998301E-01;  9.9999998E-03;  1.2000103E-01;1825; -1.8661883E-02;  0.0000000E+00;  1.2261987E-03;  1.0001804E+03;  4.0000209E-01;  1.4942728E+02;3; -1.3863885E+01;  0.0000000E+00;  8.9363706E-01;0; -1.4622027E-01;  1.0003804E+04;  0.0000000E+00;  1.5377562E-07;  1.0000000E+04;  0.0000000E+00;  9.9997012E+03; -1.6061242E-01;  0.0000000E+00;  1.4392155E-02;  1.4134641E+02;
  4.9998271E-01;  9.9999998E-03;  1.4000125E-01;1826; -1.9196808E-02;  0.0000000E+00;  1.4217802E-03;  1.0001827E+03;  4.0000206E-01;  1.5140253E+02;3; -1.4454269E+01;  0.0000000E+00;  9.8915887E-01;0; -1.5026677E-01;  1.0003882E+04;  0.0000000E+00;  2.6497705E-07;  1.0000000E+04;  0.0000000E+00;  9.9996699E+03; -1.6557425E-01;  0.0000000E+00;  1.5307479E-02;  1.5618054E+02;
  5.1997966E-01;  9.9999998E-03;  6.4881030E-14;1850; -2.0965984E-02;  0.0000000E+00; -4.9173438E-10;  1.0002112E+03;  4.0000591E-01;  1.7500645E+02;3; -1.4217702E+01;  0.0000000E+00;  2.8147319E-06;0; -1.5259957E-01;  1.0004205E+04;  0.0000000E+00;  2.6189099E-16;  1.0000000E+04;  0.0000000E+00;  9.9997246E+03; -1.6919187E-01;  0.0000000E+00;  1.6592301E-02;  1.2778813E+02;
  5.1997966E-01;  9.9999998E-03;  2.0000225E-02;1851; -2.0991843E-02;  0.0000000E+00;  3.1118176E-04;  1.0002112E+03;  4.0000591E-01;  1.7500645E+02;3; -1.4256560E+01;  0.0000000E+00;  2.8131557E-01;0; -1.5268609E-01;  1.0004209E+04;  0.0000000E+00;  7.8723467E-10;  1.0000000E+04;  0.0000000E+00;  9.9997197E+03; -1.6943567E-01;  0.0000000E+00;  1.6749570E-02;  1.3007068E+02;
  5.1997960E-01;  9.9999998E-03;  4.0000454E-02;1852; -2.1073053E-02;  0.0000000E+00;  6.2049914E-04;  1.0002109E+03;  4.0000591E-01;  1.7471017E+02;3; -1.4376035E+01;  0.0000000E+00;  5.5269367E-01;0; -1.5299499E-01;  1.0004221E+04;  0.0000000E+00;  5.5785514E-09;  1.0000000E+04;  0.0000000E+00;  9.9997070E+03; -1.7020234E-01;  0.0000000E+00;  1.7207351E-02;  1.3682394E+02;
  5.1997954E-01;  9.9999998E-03;  6.0000688E-02;1853; -2.1222038E-02;  0.0000000E+00;  9.2826918E-04;  1.0002109E+03;  4.0000597E-01;  1.7471017E+02;3; -1.4583874E+01;  0.0000000E+00;  8.0758244E-01;0; -1.5367432E-01;  1.0004243E+04;  0.0000000E+00;  2.5917215E-08;  1.0000000E+04;  0.0000000E+00;  9.9996826E+03; -1.7159191E-01;  0.0000000E+00;  1.7917583E-02;  1.4770067E+02;
  5.1997942E-01;  9.9999998E-03;  8.0000937E-02;1854; -2.1459199E-02;  0.0000000E+00;  1.2343522E-03;  1.0002110E+03;  4.0000591E-01;  1.7480893E+02;3; -1.4893432E+01;  0.0000000E+00;  1.0389231E+00;0; -1.5496472E-01;  1.0004275E+04;  0.0000000E+00;  7.9404174E-08;  1.0000000E+04;  0.0000000E+00;  9.9996514E+03; -1.7375302E-01;  0.0000000E+00;  1.8788302E-02;  1.6198347E+02;
  5.1997924E-01;  9.9999998E-03;  1.0000122E-01;1855; -2.1809794E-02;  0.0000000E+00;  1.5434691E-03;  1.0002119E+03;  4.0000594E-01;  1.7559903E+02;3; -1.5317669E+01;  0.0000000E+00;  1.2515100E+00;0; -1.5716624E-01;  1.0004327E+04;  0.0000000E+00;  2.0428831E-07;  1.0000000E+04;  0.0000000E+00;  9.9996152E+03; -1.7686146E-01;  0.0000000E+00;  1.9695222E-02;  1.7865125E+02;
  5.1997894E-01;  9.9999998E-03;  1.2000151E-01;1856; -2.2300657E-02;  0.0000000E+00;  1.8553236E-03;  1.0002134E+03;  4.0000594E-01;  1.7678418E+02;3; -1.5874740E+01;  0.0000000E+00;  1.4318771E+00;0; -1.6055557E-01;  1.0004396E+04;  0.0000000E+00;  4.1967755E-07;  1.0000000E+04;  0.0000000E+00;  9.9995752E+03; -1.8109924E-01;  0.0000000E+00;  2.0543661E-02;  1.9691888E+02;
  5.1997858E-01;  9.9999998E-03;  1.4000183E-01;1857; -2.2950361E-02;  0.0000000E+00;  2.1640169E-03;  1.0002159E+03;  4.0000585E-01;  1.7885818E+02;3; -1.6570309E+01;  0.0000000E+00;  1.5756058E+00;0; -1.6522309E-01;  1.0004489E+04;  0.0000000E+00;  6.8771965E-07;  1.0000000E+04;  0.0000000E+00;  9.9995342E+03; -1.8664928E-01;  0.0000000E+00;  2.1426184E-02;  2.1770723E+02;
  5.3997499E-01;  9.9999998E-03; -1.1658408E-12;1881; -2.4953080E-02;  0.0000000E+00; -1.8424563E-09;  1.0002551E+03;  4.0001565E-01;  2.1135051E+02;3; -1.6215725E+01;  0.0000000E+00;  9.7908332E-07;0; -1.6283372E-01;  1.0004684E+04;  0.0000000E+00;  6.0090058E-16;  1.0000000E+04;  0.0000000E+00;  9.9996377E+03; -1.8501101E-01;  0.0000000E+00;  2.2177288E-02;  1.6467940E+02;
  5.3997493E-01;  9.9999998E-03;  2.0000305E-02;1882; -2.4981894E-02;  0.0000000E+00;  4.3047458E-04;  1.0002548E+03;  4.0001553E-01;  2.1115300E+02;3; -1.6260155E+01;  0.0000000E+00;  3.9317274E-01;0; -1.6281819E-01;  1.0004689E+04;  0.0000000E+00;  3.4734231E-09;  1.0000000E+04;  0.0000000E+00;  9.9996299E+03; -1.8529251E-01;  0.0000000E+00;  2.2474311E-02;  1.6829433E+02;
  5.3997493E-01;  9.9999998E-03;  4.0000618E-02;1883; -2.5073918E-02;  0.0000000E+00;  8.6312182E-04;  1.0002545E+03;  4.0001553E-01;  2.1085670E+02;3; -1.6394974E+01;  0.0000000E+00;  7.8449422E-01;0; -1.6283919E-01;  1.0004705E+04;  0.0000000E+00;  1.7800703E-08;  1.0000000E+04;  0.0000000E+00;  9.9996055E+03; -1.8617266E-01;  0.0000000E+00;  2.3333475E-02;  1.7894536E+02;
  5.3997481E-01;  9.9999998E-03;  6.0000949E-02;1884; -2.5243549E-02;  0.0000000E+00;  1.3018118E-03;  1.0002539E+03;  4.0001559E-01;  2.1036290E+02;3; -1.6628389E+01;  0.0000000E+00;  1.1648641E+00;0; -1.6310185E-01;  1.0004729E+04;  0.0000000E+00;  6.5808024E-08;  1.0000000E+04;  0.0000000E+00;  9.9995693E+03; -1.8775171E-01;  0.0000000E+00;  2.4649864E-02;  1.9596646E+02;
  5.3997469E-01;  9.9999998E-03;  8.0001302E-02;1885; -2.5516594E-02;  0.0000000E+00;  1.7517736E-03;  1.0002535E+03;  4.0001556E-01;  2.0996785E+02;3; -1.6975677E+01;  0.0000000E+00;  1.5272419E+00;0; -1.6394679E-01;  1.0004771E+04;  0.0000000E+00;  1.9167349E-07;  1.0000000E+04;  0.0000000E+00;  9.9995195E+03; -1.9017939E-01;  0.0000000E+00;  2.6232598E-02;  2.1810324E+02;
  5.3997445E-01;  9.9999998E-03;  1.0000170E-01;1886; -2.5926340E-02;  0.0000000E+00;  2.2191193E-03;  1.0002537E+03;  4.0001553E-01;  2.1016537E+02;3; -1.7456730E+01;  0.0000000E+00;  1.8654652E+00;0; -1.6581067E-01;  1.0004831E+04;  0.0000000E+00;  4.6537281E-07;  1.0000000E+04;  0.0000000E+00;  9.9994639E+03; -1.9363341E-01;  0.0000000E+00;  2.7822725E-02;  2.4371545E+02;
  5.3997409E-01;  9.9999998E-03;  1.2000215E-01;1887; -2.6506353E-02;  0.0000000E+00;  2.7043282E-03;  1.0002548E+03;  4.0001553E-01;  2.1115300E+02;3; -1.8090021E+01;  0.0000000E+00;  2.1705561E+00;0; -1.6911688E-01;  1.0004912E+04;  0.0000000E+00;  8.9748625E-07;  1.0000000E+04;  0.0000000E+00;  9.9994043E+03; -1.9830149E-01;  0.0000000E+00;  2.9184615E-02;  2.7173090E+02;
  5.3997362E-01;  9.9999998E-03;  1.4000265E-01;1888; -2.7278988E-02;  0.0000000E+00;  3.1993166E-03;  1.0002568E+03;  4.0001550E-01;  2.1273318E+02;3; -1.8885229E+01;  0.0000000E+00;  2.4352629E+00;0; -1.7405593E-01;  1.0005020E+04;  0.0000000E+00;  1.4107064E-06;  1.0000000E+04;  0.0000000E+00;  9.9993389E+03; -2.0438118E-01;  0.0000000E+00;  3.0325245E-02;  3.0383282E+02;
  5.5996960E-01;  9.9999998E-03; -2.3632136E-12;1912; -2.9423013E-02;  0.0000000E+00; -1.5180958E-10;  1.0003305E+03;  4.0004191E-01;  2.7376740E+02;3; -1.8395761E+01;  0.0000000E+00;  1.0518377E-05;0; -1.6527258E-01;  1.0004978E+04;  0.0000000E+00; -1.7638003E-15;  1.0000000E+04;  0.0000000E+00;  9.9995342E+03; -1.9408448E-01;  0.0000000E+00;  2.8811900E-02;  2.0674872E+02;
  5.5996960E-01;  9.9999998E-03;  2.0000400E-02;1913; -2.9455323E-02;  0.0000000E+00;  5.7271600E-04;  1.0003303E+03;  4.0004194E-01;  2.7356985E+02;3; -1.8445021E+01;  0.0000000E+00;  5.4294062E-01;0; -1.6508655E-01;  1.0004984E+04;  0.0000000E+00;  5.3064211E-09;  1.0000000E+04;  0.0000000E+00;  9.9995244E+03; -1.9441068E-01;  0.0000000E+00;  2.9324133E-02;  2.1226456E+02;
  5.5996954E-01;  9.9999998E-03;  4.0000815E-02;1914; -2.9558383E-02;  0.0000000E+00;  1.1576344E-03;  1.0003292E+03;  4.0004200E-01;  2.7268100E+02;3; -1.8593958E+01;  0.0000000E+00;  1.0907279E+00;0; -1.6461818E-01;  1.0005001E+04;  0.0000000E+00;  3.4017813E-08;  1.0000000E+04;  0.0000000E+00;  9.9994854E+03; -1.9542135E-01;  0.0000000E+00;  3.0803176E-02;  2.2846983E+02;
  5.5996943E-01;  9.9999998E-03;  6.0001262E-02;1915; -2.9749477E-02;  0.0000000E+00;  1.7673408E-03;  1.0003279E+03;  4.0004197E-01;  2.7169339E+02;3; -1.8852007E+01;  0.0000000E+00;  1.6402673E+00;0; -1.6414404E-01;  1.0005030E+04;  0.0000000E+00;  1.2426385E-07;  1.0000000E+04;  0.0000000E+00;  9.9994297E+03; -1.9720848E-01;  0.0000000E+00;  3.3064440E-02;  2.5424413E+02;
  5.5996931E-01;  9.9999998E-03;  8.0001764E-02;1916; -3.0060716E-02;  0.0000000E+00;  2.4105334E-03;  1.0003264E+03;  4.0004191E-01;  2.7040948E+02;3; -1.9238945E+01;  0.0000000E+00;  2.1751869E+00;0; -1.6412681E-01;  1.0005077E+04;  0.0000000E+00;  3.6097990E-07;  1.0000000E+04;  0.0000000E+00;  9.9993535E+03; -1.9991000E-01;  0.0000000E+00;  3.5783194E-02;  2.8765338E+02;
  5.5996901E-01;  9.9999998E-03;  1.0000233E-01;1917; -3.0533209E-02;  0.0000000E+00;  3.0962965E-03;  1.0003257E+03;  4.0004194E-01;  2.6981693E+02;3; -1.9777073E+01;  0.0000000E+00;  2.6877580E+00;0; -1.6515799E-01;  1.0005147E+04;  0.0000000E+00;  8.4041756E-07;  1.0000000E+04;  0.0000000E+00;  9.9992686E+03; -2.0369120E-01;  0.0000000E+00;  3.8533214E-02;  3.2653351E+02;
  5.5996859E-01;  9.9999998E-03;  1.2000299E-01;1918; -3.1208850E-02;  0.0000000E+00;  3.8256375E-03;  1.0003256E+03;  4.0004191E-01;  2.6981693E+02;3; -2.0488884E+01;  0.0000000E+00;  3.1625042E+00;0; -1.6779742E-01;  1.0005238E+04;  0.0000000E+00;  1.5620045E-06;  1.0000000E+04;  0.0000000E+00;  9.9991768E+03; -2.0872860E-01;  0.0000000E+00;  4.0931188E-02;  3.7027591E+02;
  5.5996799E-01;  9.9999998E-03;  1.4000373E-01;1919; -3.2114051E-02;  0.0000000E+00;  4.5822458E-03;  1.0003262E+03;  4.0004188E-01;  2.7031073E+02;3; -2.1385618E+01;  0.0000000E+00;  3.5869656E+00;0; -1.7228508E-01;  1.0005361E+04;  0.0000000E+00;  2.2238858E-06;  1.0000000E+04;  0.0000000E+00;  9.9990664E+03; -2.1520910E-01;  0.0000000E+00;  4.2924009E-02;  4.2297031E+02;
  5.7996386E-01;  9.9999998E-03;  3.7569347E-14;1943; -3.4156594E-02;  0.0000000E+00;  1.7939039E-09;  1.0004984E+03;  4.0011188E-01;  4.1292120E+02;3; -2.0664381E+01;  0.0000000E+00;  4.6290406E-06;0; -1.5569890E-01;  1.0004952E+04;  0.0000000E+00;  4.9201539E-16;  1.0000000E+04;  0.0000000E+00;  9.9994189E+03; -1.9214609E-01;  0.0000000E+00;  3.6447197E-02;  2.5279410E+02;
  5.7996386E-01;  9.9999998E-03;  2.0000506E-02;1944; -3.4193132E-02;  0.0000000E+00;  7.4226403E-04;  1.0004978E+03;  4.0011185E-01;  4.1242740E+02;3; -2.0720655E+01;  0.0000000E+00;  7.3895818E-01;0; -1.5524565E-01;  1.0004958E+04;  0.0000000E+00;  6.0737300E-09;  1.0000000E+04;  0.0000000E+00;  9.9994014E+03; -1.9251442E-01;  0.0000000E+00;  3.7268776E-02;  2.6091364E+02;
  5.7996380E-01;  9.9999998E-03;  4.0001038E-02;1945; -3.4310538E-02;  0.0000000E+00;  1.5028464E-03;  1.0004962E+03;  4.0011188E-01;  4.1104474E+02;3; -2.0891188E+01;  0.0000000E+00;  1.4596480E+00;0; -1.5400359E-01;  1.0004978E+04;  0.0000000E+00;  4.2922952E-08;  1.0000000E+04;  0.0000000E+00;  9.9993477E+03; -1.9364478E-01;  0.0000000E+00;  3.9641187E-02;  2.8471796E+02;
  5.7996368E-01;  9.9999998E-03;  6.0001630E-02;1946; -3.4527190E-02;  0.0000000E+00;  2.3143215E-03;  1.0004936E+03;  4.0011185E-01;  4.0897076E+02;3; -2.1179918E+01;  0.0000000E+00;  2.2037160E+00;0; -1.5233800E-01;  1.0005013E+04;  0.0000000E+00;  1.7293502E-07;  1.0000000E+04;  0.0000000E+00;  9.9992598E+03; -1.9561176E-01;  0.0000000E+00;  4.3273766E-02;  3.2247577E+02;
  5.7996351E-01;  9.9999998E-03;  8.0002300E-02;1947; -3.4881752E-02;  0.0000000E+00;  3.1930311E-03;  1.0004907E+03;  4.0011182E-01;  4.0650171E+02;3; -2.1615084E+01;  0.0000000E+00;  2.9344847E+00;0; -1.5085462E-01;  1.0005065E+04;  0.0000000E+00;  5.2601200E-07;  1.0000000E+04;  0.0000000E+00;  9.9991484E+03; -1.9852859E-01;  0.0000000E+00;  4.7673963E-02;  3.7148630E+02;
  5.7996315E-01;  9.9999998E-03;  1.0000309E-01;1948; -3.5423521E-02;  0.0000000E+00;  4.1551231E-03;  1.0004880E+03;  4.0011185E-01;  4.0432898E+02;3; -2.2211088E+01;  0.0000000E+00;  3.6639259E+00;0; -1.5030217E-01;  1.0005140E+04;  0.0000000E+00;  1.2210224E-06;  1.0000000E+04;  0.0000000E+00;  9.9990195E+03; -2.0253341E-01;  0.0000000E+00;  5.2231241E-02;  4.2945456E+02;
  5.7996267E-01;  9.9999998E-03;  1.2000401E-01;1949; -3.6203932E-02;  0.0000000E+00;  5.2031409E-03;  1.0004857E+03;  4.0011185E-01;  4.0235373E+02;3; -2.3001236E+01;  0.0000000E+00;  4.3735323E+00;0; -1.5132146E-01;  1.0005239E+04;  0.0000000E+00;  2.1479616E-06;  1.0000000E+04;  0.0000000E+00;  9.9988750E+03; -2.0776927E-01;  0.0000000E+00;  5.6447815E-02;  4.9768323E+02;
  5.7996196E-01;  9.9999998E-03;  1.4000505E-01;1950; -3.7257224E-02;  0.0000000E+00;  6.3091167E-03;  1.0004829E+03;  4.0011188E-01;  4.0008221E+02;3; -2.4002825E+01;  0.0000000E+00;  5.0195265E+00;0; -1.5410507E-01;  1.0005372E+04;  0.0000000E+00;  2.5283016E-06;  1.0000000E+04;  0.0000000E+00;  9.9986895E+03; -2.1437603E-01;  0.0000000E+00;  6.0270969E-02;  5.8519659E+02;
  5.9995824E-01;  9.9999998E-03;  1.7304304E-12;1974; -3.8797952E-02;  0.0000000E+00;  4.0582333E-09;  1.0009114E+03;  4.0028954E-01;  7.5502710E+02;3; -2.2894402E+01;  0.0000000E+00; -5.6051067E-07;0; -1.2868676E-01;  1.0004458E+04;  0.0000000E+00;  9.0582127E-16;  1.0000000E+04;  0.0000000E+00;  9.9992920E+03; -1.7369008E-01;  0.0000000E+00;  4.5003328E-02;  3.0128998E+02;
  5.9995824E-01;  9.9999998E-03;  2.0000618E-02;1975; -3.8841177E-02;  0.0000000E+00;  9.1472571E-04;  1.0009105E+03;  4.0028954E-01;  7.5433575E+02;3; -2.2951124E+01;  0.0000000E+00;  9.2253113E-01;0; -1.2783417E-01;  1.0004465E+04;  0.0000000E+00;  1.5480153E-09;  1.0000000E+04;  0.0000000E+00;  9.9992656E+03; -1.7407894E-01;  0.0000000E+00;  4.6244774E-02;  3.1282913E+02;
  5.9995818E-01;  9.9999998E-03;  4.0001273E-02;1976; -3.8976979E-02;  0.0000000E+00;  1.8661626E-03;  1.0009076E+03;  4.0028954E-01;  7.5186676E+02;3; -2.3142998E+01;  0.0000000E+00;  1.8470414E+00;0; -1.2543075E-01;  1.0004484E+04;  0.0000000E+00;  3.2466744E-08;  1.0000000E+04;  0.0000000E+00;  9.9991875E+03; -1.7526241E-01;  0.0000000E+00;  4.9831655E-02;  3.4660867E+02;
  5.9995806E-01;  9.9999998E-03;  6.0002018E-02;1977; -3.9234743E-02;  0.0000000E+00;  2.8887074E-03;  1.0009033E+03;  4.0028962E-01;  7.4831134E+02;3; -2.3490450E+01;  0.0000000E+00;  2.7684808E+00;0; -1.2195189E-01;  1.0004521E+04;  0.0000000E+00;  1.7820246E-07;  1.0000000E+04;  0.0000000E+00;  9.9990625E+03; -1.7729156E-01;  0.0000000E+00;  5.5339672E-02;  4.0013153E+02;
  5.9995782E-01;  9.9999998E-03;  8.0002889E-02;1978; -3.9649602E-02;  0.0000000E+00;  4.0256493E-03;  1.0008979E+03;  4.0028954E-01;  7.4396588E+02;3; -2.3978619E+01;  0.0000000E+00;  3.7331505E+00;0; -1.1816660E-01;  1.0004577E+04;  0.0000000E+00;  6.0227558E-07;  1.0000000E+04;  0.0000000E+00;  9.9989033E+03; -1.8024562E-01;  0.0000000E+00;  6.2079031E-02;  4.6994263E+02;
  5.9995741E-01;  9.9999998E-03;  1.0000393E-01;1979; -4.0272247E-02;  0.0000000E+00;  5.3204224E-03;  1.0008925E+03;  4.0028951E-01;  7.3932410E+02;3; -2.4635172E+01;  0.0000000E+00;  4.7635312E+00;0; -1.1495970E-01;  1.0004652E+04;  0.0000000E+00;  1.4170207E-06;  1.0000000E+04;  0.0000000E+00;  9.9987158E+03; -1.8421941E-01;  0.0000000E+00;  6.9259703E-02;  5.5434125E+02;
  5.9995681E-01;  9.9999998E-03;  1.2000516E-01;1980; -4.1167192E-02;  0.0000000E+00;  6.7816516E-03;  1.0008860E+03;  4.0028948E-01;  7.3399103E+02;3; -2.5496334E+01;  0.0000000E+00;  5.8290844E+00;0; -1.1296061E-01;  1.0004753E+04;  0.0000000E+00;  2.2325989E-06;  1.0000000E+04;  0.0000000E+00;  9.9984883E+03; -1.8929888E-01;  0.0000000E+00;  7.6338269E-02;  6.5856793E+02;
  5.9995592E-01;  9.9999998E-03;  1.4000657E-01;1981; -4.2378582E-02;  0.0000000E+00;  8.3509991E-03;  1.0008773E+03;  4.0028954E-01;  7.2678149E+02;3; -2.6597132E+01;  0.0000000E+00;  6.8001409E+00;0; -1.1220834E-01;  1.0004882E+04;  0.0000000E+00;  1.5793001E-06;  1.0000000E+04;  0.0000000E+00;  9.9981875E+03; -1.9553624E-01;  0.0000000E+00;  8.3327904E-02;  7.9961841E+02;
  6.1995316E-01;  9.9999998E-03; -6.0987633E-14;2005; -4.3024685E-02;  0.0000000E+00; -2.2170892E-09;  1.0018660E+03;  4.0069619E-01;  1.5458950E+03;3; -2.4965870E+01;  0.0000000E+00; -3.7577120E-06;0; -7.8270182E-02;  1.0003354E+04;  0.0000000E+00; -3.3693120E-16;  1.0000000E+04;  0.0000000E+00;  9.9991543E+03; -1.3264881E-01;  0.0000000E+00;  5.4378632E-02;  3.5068420E+02;
  6.1995310E-01;  9.9999998E-03;  2.0000711E-02;2006; -4.3081008E-02;  0.0000000E+00;  1.0745467E-03;  1.0018645E+03;  4.0069619E-01;  1.5447098E+03;3; -2.5040630E+01;  0.0000000E+00;  1.1153576E+00;0; -7.6853484E-02;  1.0003358E+04;  0.0000000E+00; -5.7603247E-09;  1.0000000E+04;  0.0000000E+00;  9.9991172E+03; -1.3301152E-01;  0.0000000E+00;  5.6158036E-02;  3.6650854E+02;
  6.1995304E-01;  9.9999998E-03;  4.0001478E-02;2007; -4.3254059E-02;  0.0000000E+00;  2.2034321E-03;  1.0018601E+03;  4.0069625E-01;  1.5410557E+03;3; -2.5264959E+01;  0.0000000E+00;  2.2606111E+00;0; -7.2804645E-02;  1.0003380E+04;  0.0000000E+00; -9.4979502E-10;  1.0000000E+04;  0.0000000E+00;  9.9990117E+03; -1.3410766E-01;  0.0000000E+00;  6.1303016E-02;  4.1278317E+02;
  6.1995286E-01;  9.9999998E-03;  6.0002360E-02;2008; -4.3568980E-02;  0.0000000E+00;  3.4511208E-03;  1.0018534E+03;  4.0069628E-01;  1.5354264E+03;3; -2.5648840E+01;  0.0000000E+00;  3.4451571E+00;0; -6.6734955E-02;  1.0003413E+04;  0.0000000E+00;  1.1751126E-07;  1.0000000E+04;  0.0000000E+00;  9.9988398E+03; -1.3596343E-01;  0.0000000E+00;  6.9228470E-02;  4.8610489E+02;
  6.1995256E-01;  9.9999998E-03;  8.0003440E-02;2009; -4.4053327E-02;  0.0000000E+00;  4.9037561E-03;  1.0018447E+03;  4.0069625E-01;  1.5282169E+03;3; -2.6164738E+01;  0.0000000E+00;  4.7358499E+00;0; -5.9594408E-02;  1.0003462E+04;  0.0000000E+00;  5.2941618E-07;  1.0000000E+04;  0.0000000E+00;  9.9986201E+03; -1.3861829E-01;  0.0000000E+00;  7.9023883E-02;  5.8236914E+02;
  6.1995208E-01;  9.9999998E-03;  1.0000479E-01;2010; -4.4775315E-02;  0.0000000E+00;  6.6352752E-03;  1.0018345E+03;  4.0069628E-01;  1.5198223E+03;3; -2.6904703E+01;  0.0000000E+00;  6.1436038E+00;0; -5.2372403E-02;  1.0003529E+04;  0.0000000E+00;  1.2845888E-06;  1.0000000E+04;  0.0000000E+00;  9.9983516E+03; -1.4211310E-01;  0.0000000E+00;  8.9740701E-02;  7.0136865E+02;
  6.1995131E-01;  9.9999998E-03;  1.2000643E-01;2011; -4.5808699E-02;  0.0000000E+00;  8.6282343E-03;  1.0018221E+03;  4.0069622E-01;  1.5095511E+03;3; -2.7869221E+01;  0.0000000E+00;  7.5725751E+00;0; -4.5583814E-02;  1.0003620E+04;  0.0000000E+00;  1.6005640E-06;  1.0000000E+04;  0.0000000E+00;  9.9980137E+03; -1.4645559E-01;  0.0000000E+00;  1.0087177E-01;  8.5446790E+02;
  6.1995029E-01;  9.9999998E-03;  1.4000833E-01;2012; -4.7183909E-02;  0.0000000E+00;  1.0795315E-02;  1.0018043E+03;  4.0069637E-01;  1.4948359E+03;3; -2.9027386E+01;  0.0000000E+00;  8.9434671E+00;0; -3.9049663E-02;  1.0003729E+04;  0.0000000E+00; -1.0026531E-06;  1.0000000E+04;  0.0000000E+00;  9.9975508E+03; -1.5158558E-01;  0.0000000E+00;  1.1253592E-01;  1.0695360E+03;
  6.3994879E-01;  9.9999998E-03;  4.2435342E-13;2036; -4.6577714E-02;  0.0000000E+00;  1.8620703E-09;  1.0036313E+03;  4.0144128E-01;  3.0084116E+03;3; -2.6667625E+01;  0.0000000E+00; -6.3853804E-06;0; -2.2575259E-04;  1.0001566E+04;  0.0000000E+00; -2.6876149E-16;  1.0000000E+04;  0.0000000E+00;  9.9990107E+03; -6.4648606E-02;  0.0000000E+00;  6.4422853E-02;  3.9965518E+02;
  6.3994873E-01;  9.9999998E-03;  2.0000784E-02;2037; -4.6643116E-02;  0.0000000E+00;  1.2365683E-03;  1.0036291E+03;  4.0144119E-01;  3.0065352E+03;3; -2.6747400E+01;  0.0000000E+00;  1.3616891E+00;0;  1.9341856E-03;  1.0001571E+04;  0.0000000E+00; -1.6606531E-08;  1.0000000E+04;  0.0000000E+00;  9.9989629E+03; -6.4916074E-02;  0.0000000E+00;  6.6850260E-02;  4.2056015E+02;
  6.3994861E-01;  9.9999998E-03;  4.0001646E-02;2038; -4.6855059E-02;  0.0000000E+00;  2.5543028E-03;  1.0036226E+03;  4.0144116E-01;  3.0012021E+03;3; -2.7013840E+01;  0.0000000E+00;  2.7509527E+00;0;  8.1537217E-03;  1.0001585E+04;  0.0000000E+00; -4.5787971E-08;  1.0000000E+04;  0.0000000E+00;  9.9988203E+03; -6.5718532E-02;  0.0000000E+00;  7.3872253E-02;  4.8164273E+02;
  6.3994837E-01;  9.9999998E-03;  6.0002681E-02;2039; -4.7235928E-02;  0.0000000E+00;  4.0530805E-03;  1.0036125E+03;  4.0144116E-01;  2.9928076E+03;3; -2.7431931E+01;  0.0000000E+00;  4.2240095E+00;0;  1.7660275E-02;  1.0001610E+04;  0.0000000E+00;  1.0239695E-08;  1.0000000E+04;  0.0000000E+00;  9.9985928E+03; -6.7057058E-02;  0.0000000E+00;  8.4717333E-02;  5.7845874E+02;
  6.3994795E-01;  9.9999998E-03;  8.0004007E-02;2040; -4.7827609E-02;  0.0000000E+00;  5.8556888E-03;  1.0035996E+03;  4.0144119E-01;  2.9821414E+03;3; -2.8029047E+01;  0.0000000E+00;  5.8443937E+00;0;  2.9304579E-02;  1.0001646E+04;  0.0000000E+00;  3.2913437E-07;  1.0000000E+04;  0.0000000E+00;  9.9982988E+03; -6.8931699E-02;  0.0000000E+00;  9.8236278E-02;  7.0635034E+02;
  6.3994735E-01;  9.9999998E-03;  1.0000572E-01;2041; -4.8690844E-02;  0.0000000E+00;  8.0428841E-03;  1.0035836E+03;  4.0144122E-01;  2.9688088E+03;3; -2.8879522E+01;  0.0000000E+00;  7.5459032E+00;0;  4.2017117E-02;  1.0001693E+04;  0.0000000E+00;  8.7080309E-07;  1.0000000E+04;  0.0000000E+00;  9.9979307E+03; -7.1326695E-02;  0.0000000E+00;  1.1334381E-01;  8.6738751E+02;
  6.3994646E-01;  9.9999998E-03;  1.2000785E-01;2042; -4.9874801E-02;  0.0000000E+00;  1.0628945E-02;  1.0035626E+03;  4.0144113E-01;  2.9514272E+03;3; -2.9922935E+01;  0.0000000E+00;  9.3940210E+00;0;  5.5456392E-02;  1.0001754E+04;  0.0000000E+00;  4.6485835E-07;  1.0000000E+04;  0.0000000E+00;  9.9974600E+03; -7.4172206E-02;  0.0000000E+00;  1.2962860E-01;  1.0808079E+03;
  6.3994533E-01;  9.9999998E-03;  1.4001031E-01;2043; -5.1401533E-02;  0.0000000E+00;  1.3492710E-02;  1.0035328E+03;  4.0144119E-01;  2.9267373E+03;3; -3.1155180E+01;  0.0000000E+00;  1.1256469E+01;0;  7.0012197E-02;  1.0001822E+04;  0.0000000E+00; -4.2710267E-06;  1.0000000E+04;  0.0000000E+00;  9.9967979E+03; -7.7298239E-02;  0.0000000E+00;  1.4731044E-01;  1.3874302E+03;
  6.5994561E-01;  9.9999998E-03;  2.0230144E-12;2067; -4.9262144E-02;  0.0000000E+00;  7.6732505E-09;  1.0058423E+03;  4.0237689E-01;  4.8400498E+03;3; -2.8049807E+01;  0.0000000E+00;  1.8123304E-05;0;  1.0453557E-01;  9.9991660E+03;  0.0000000E+00;  1.0196865E-16;  1.0000000E+04;  0.0000000E+00;  9.9988652E+03;  2.9661236E-02;  0.0000000E+00;  7.4874334E-02;  4.4715543E+02;
  6.5994555E-01;  9.9999998E-03;  2.0000879E-02;2068; -4.9348481E-02;  0.0000000E+00;  1.4369463E-03;  1.0058394E+03;  4.0237686E-01;  4.8375811E+03;3; -2.8143599E+01;  0.0000000E+00;  1.6461900E+00;0;  1.0759521E-01;  9.9991680E+03;  0.0000000E+00; -2.4068894E-08;  1.0000000E+04;  0.0000000E+00;  9.9988027E+03;  2.9565139E-02;  0.0000000E+00;  7.8030072E-02;  4.7370685E+02;
  6.5994537E-01;  9.9999998E-03;  4.0001869E-02;2069; -4.9613491E-02;  0.0000000E+00;  2.9858476E-03;  1.0058304E+03;  4.0237686E-01;  4.8301743E+03;3; -2.8415539E+01;  0.0000000E+00;  3.3225949E+00;0;  1.1644653E-01;  9.9991729E+03;  0.0000000E+00; -8.1842522E-08;  1.0000000E+04;  0.0000000E+00;  9.9986211E+03;  2.9284632E-02;  0.0000000E+00;  8.7161899E-02;  5.5123016E+02;
  6.5994501E-01;  9.9999998E-03;  6.0003098E-02;2070; -5.0083619E-02;  0.0000000E+00;  4.7839452E-03;  1.0058163E+03;  4.0237680E-01;  4.8185205E+03;3; -2.8897024E+01;  0.0000000E+00;  5.0963783E+00;0;  1.3013244E-01;  9.9991807E+03;  0.0000000E+00; -8.9625878E-08;  1.0000000E+04;  0.0000000E+00;  9.9983320E+03;  2.8841943E-02;  0.0000000E+00;  1.0129049E-01;  6.7410571E+02;
  6.5994453E-01;  9.9999998E-03;  8.0004722E-02;2071; -5.0797008E-02;  0.0000000E+00;  6.9982065E-03;  1.0057979E+03;  4.0237686E-01;  4.8032134E+03;3; -2.9580423E+01;  0.0000000E+00;  7.0738463E+00;0;  1.4728408E-01;  9.9991943E+03;  0.0000000E+00;  1.1271742E-07;  1.0000000E+04;  0.0000000E+00;  9.9979541E+03;  2.8273700E-02;  0.0000000E+00;  1.1901037E-01;  8.3710291E+02;
  6.5994382E-01;  9.9999998E-03;  1.0000686E-01;2072; -5.1792748E-02;  0.0000000E+00;  9.7558638E-03;  1.0057746E+03;  4.0237686E-01;  4.7839551E+03;3; -3.0477051E+01;  0.0000000E+00;  9.2841120E+00;0;  1.6674441E-01;  9.9992070E+03;  0.0000000E+00;  4.2758379E-07;  1.0000000E+04;  0.0000000E+00;  9.9974795E+03;  2.7642984E-02;  0.0000000E+00;  1.3910143E-01;  1.0449060E+03;
  6.5994281E-01;  9.9999998E-03;  1.2000956E-01;2073; -5.3086679E-02;  0.0000000E+00;  1.3073493E-02;  1.0057441E+03;  4.0237689E-01;  4.7586733E+03;3; -3.1543503E+01;  0.0000000E+00;  1.1701539E+01;0;  1.8832609E-01;  9.9992227E+03;  0.0000000E+00; -4.7586215E-07;  1.0000000E+04;  0.0000000E+00;  9.9968564E+03;  2.7074212E-02;  0.0000000E+00;  1.6125187E-01;  1.3253818E+03;
  6.5994155E-01;  9.9999998E-03;  1.4001273E-01;2074; -5.4700859E-02;  0.0000000E+00;  1.6776200E-02;  1.0057002E+03;  4.0237692E-01;  4.7223301E+03;3; -3.2788006E+01;  0.0000000E+00;  1.4112811E+01;0;  2.1254696E-01;  9.9992344E+03;  0.0000000E+00; -6.2420681E-06;  1.0000000E+04;  0.0000000E+00;  9.9959688E+03;  2.6813360E-02;  0.0000000E+00;  1.8573360E-01;  1.7329871E+03;
  6.7994475E-01;  9.9999998E-03;  3.8666063E-12;2098; -5.0368223E-02;  0.0000000E+00;  4.8106403E-09;  1.0075620E+03;  4.0312278E-01;  6.2645459E+03;3; -2.8832197E+01;  0.0000000E+00;  2.1074840E-05;0;  2.2664964E-01;  9.9964316E+03;  0.0000000E+00;  1.2787994E-15;  1.0000000E+04;  0.0000000E+00;  9.9987207E+03;  1.4133260E-01;  0.0000000E+00;  8.5317045E-02;  4.9235623E+02;
  6.7994469E-01;  9.9999998E-03;  2.0000976E-02;2099; -5.0457198E-02;  0.0000000E+00;  1.6507187E-03;  1.0075579E+03;  4.0312272E-01;  6.2611880E+03;3; -2.8927069E+01;  0.0000000E+00;  1.9504250E+00;0;  2.3069376E-01;  9.9964307E+03;  0.0000000E+00; -2.5437556E-08;  1.0000000E+04;  0.0000000E+00;  9.9986426E+03;  1.4146259E-01;  0.0000000E+00;  8.9231156E-02;  5.2473969E+02;
  6.7994452E-01;  9.9999998E-03;  4.0002089E-02;2100; -5.0737895E-02;  0.0000000E+00;  3.4511078E-03;  1.0075464E+03;  4.0312266E-01;  6.2517075E+03;3; -2.9230961E+01;  0.0000000E+00;  3.9702358E+00;0;  2.4242699E-01;  9.9964248E+03;  0.0000000E+00; -8.6722821E-08;  1.0000000E+04;  0.0000000E+00;  9.9984219E+03;  1.4186853E-01;  0.0000000E+00;  1.0055845E-01;  6.1921411E+02;
  6.7994422E-01;  9.9999998E-03;  6.0003523E-02;2101; -5.1237542E-02;  0.0000000E+00;  5.5953115E-03;  1.0075281E+03;  4.0312272E-01;  6.2365977E+03;3; -2.9751434E+01;  0.0000000E+00;  6.1528778E+00;0;  2.6069510E-01;  9.9964111E+03;  0.0000000E+00; -1.2586230E-07;  1.0000000E+04;  0.0000000E+00;  9.9980693E+03;  1.4259653E-01;  0.0000000E+00;  1.1809859E-01;  7.6885895E+02;
  6.7994368E-01;  9.9999998E-03;  8.0005474E-02;2102; -5.1976446E-02;  0.0000000E+00;  8.2932580E-03;  1.0075040E+03;  4.0312269E-01;  6.2165498E+03;3; -3.0440159E+01;  0.0000000E+00;  8.6094122E+00;0;  2.8388762E-01;  9.9963906E+03;  0.0000000E+00;  5.1749929E-09;  1.0000000E+04;  0.0000000E+00;  9.9976064E+03;  1.4371935E-01;  0.0000000E+00;  1.4016828E-01;  9.6768518E+02;
  6.7994297E-01;  9.9999998E-03;  1.0000811E-01;2103; -5.2997537E-02;  0.0000000E+00;  1.1737433E-02;  1.0074731E+03;  4.0312275E-01;  6.1909717E+03;3; -3.1373270E+01;  0.0000000E+00;  1.1439292E+01;0;  3.1072164E-01;  9.9963652E+03;  0.0000000E+00;  2.3046110E-07;  1.0000000E+04;  0.0000000E+00;  9.9970215E+03;  1.4533916E-01;  0.0000000E+00;  1.6538249E-01;  1.2227007E+03;
  6.7994195E-01;  9.9999998E-03;  1.2001149E-01;2104; -5.4333109E-02;  0.0000000E+00;  1.5953878E-02;  1.0074320E+03;  4.0312281E-01;  6.1569009E+03;3; -3.2495022E+01;  0.0000000E+00;  1.4598614E+01;0;  3.4108806E-01;  9.9963262E+03;  0.0000000E+00; -5.9273827E-07;  1.0000000E+04;  0.0000000E+00;  9.9962451E+03;  1.4761128E-01;  0.0000000E+00;  1.9347678E-01;  1.5698750E+03;
  6.7994064E-01;  9.9999998E-03;  1.4001545E-01;2105; -5.5995610E-02;  0.0000000E+00;  2.0703573E-02;  1.0073740E+03;  4.0312287E-01;  6.1088062E+03;3; -3.3779778E+01;  0.0000000E+00;  1.7803473E+01;0;  3.7550473E-01;  9.9962695E+03;  0.0000000E+00; -5.5980036E-06;  1.0000000E+04;  0.0000000E+00;  9.9951426E+03;  1.5080595E-01;  0.0000000E+00;  2.2469877E-01;  2.0764407E+03;
  6.9994897E-01;  9.9999998E-03;  8.2222605E-12;2129; -4.8181515E-02;  0.0000000E+00;  9.3868113E-09;  1.0084434E+03;  4.0353033E-01;  6.9946123E+03;3; -2.8735798E+01;  0.0000000E+00;  1.6735867E-05;0;  3.4722579E-01;  9.9938389E+03;  0.0000000E+00; -1.1616134E-16;  1.0000000E+04;  0.0000000E+00;  9.9985850E+03;  2.5200012E-01;  0.0000000E+00;  9.5225655E-02;  5.3476563E+02;
  6.9994891E-01;  9.9999998E-03;  2.0001005E-02;2130; -4.8257891E-02;  0.0000000E+00;  1.7892200E-03;  1.0084387E+03;  4.0353036E-01;  6.9907607E+03;3; -2.8831928E+01;  0.0000000E+00;  2.2286222E+00;0;  3.5222745E-01;  9.9938330E+03;  0.0000000E+00; -1.9575706E-08;  1.0000000E+04;  0.0000000E+00;  9.9984941E+03;  2.5236320E-01;  0.0000000E+00;  9.9864244E-02;  5.7269855E+02;
  6.9994879E-01;  9.9999998E-03;  4.0002197E-02;2131; -4.8498612E-02;  0.0000000E+00;  3.7823597E-03;  1.0084246E+03;  4.0353042E-01;  6.9790093E+03;3; -2.9121590E+01;  0.0000000E+00;  4.5553207E+00;0;  3.6676431E-01;  9.9938135E+03;  0.0000000E+00; -6.6188399E-08;  1.0000000E+04;  0.0000000E+00;  9.9982344E+03;  2.5347933E-01;  0.0000000E+00;  1.1328499E-01;  6.8325574E+02;
  6.9994855E-01;  9.9999998E-03;  6.0003806E-02;2132; -4.8930820E-02;  0.0000000E+00;  6.2342477E-03;  1.0084023E+03;  4.0353045E-01;  6.9605420E+03;3; -2.9616867E+01;  0.0000000E+00;  7.1158834E+00;0;  3.8948798E-01;  9.9937822E+03;  0.0000000E+00; -8.8892072E-08;  1.0000000E+04;  0.0000000E+00;  9.9978213E+03;  2.5542524E-01;  0.0000000E+00;  1.3406272E-01;  8.5813232E+02;
  6.9994813E-01;  9.9999998E-03;  8.0006085E-02;2133; -4.9595982E-02;  0.0000000E+00;  9.4308835E-03;  1.0083725E+03;  4.0353045E-01;  6.9359521E+03;3; -3.0336420E+01;  0.0000000E+00;  1.0069875E+01;0;  4.1853634E-01;  9.9937334E+03;  0.0000000E+00;  3.7433693E-08;  1.0000000E+04;  0.0000000E+00;  9.9972783E+03;  2.5831822E-01;  0.0000000E+00;  1.6021812E-01;  1.0902753E+03;
  6.9994748E-01;  9.9999998E-03;  1.0000924E-01;2134; -5.0527126E-02;  0.0000000E+00;  1.3597935E-02;  1.0083347E+03;  4.0353039E-01;  6.9045479E+03;3; -3.1258963E+01;  0.0000000E+00;  1.3549297E+01;0;  4.5245779E-01;  9.9936631E+03;  0.0000000E+00;  3.2242639E-07;  1.0000000E+04;  0.0000000E+00;  9.9965918E+03;  2.6230478E-01;  0.0000000E+00;  1.9015302E-01;  1.3882030E+03;
  6.9994658E-01;  9.9999998E-03;  1.2001330E-01;2135; -5.1774770E-02;  0.0000000E+00;  1.8749859E-02;  1.0082841E+03;  4.0353054E-01;  6.8626763E+03;3; -3.2387524E+01;  0.0000000E+00;  1.7516430E+01;0;  4.9112546E-01;  9.9935713E+03;  0.0000000E+00;  3.7375340E-08;  1.0000000E+04;  0.0000000E+00;  9.9956826E+03;  2.6755989E-01;  0.0000000E+00;  2.2356558E-01;  1.7943931E+03;
  6.9994539E-01;  9.9999998E-03;  1.4001808E-01;2136; -5.3375747E-02;  0.0000000E+00;  2.4606271E-02;  1.0082131E+03;  4.0353060E-01;  6.8038184E+03;3; -3.3678291E+01;  0.0000000E+00;  2.1699596E+01;0;  5.3493130E-01;  9.9934492E+03;  0.0000000E+00; -2.9049143E-06;  1.0000000E+04;  0.0000000E+00;  9.9943896E+03;  2.7432436E-01;  0.0000000E+00;  2.6060694E-01;  2.3867463E+03;
  7.1996289E-01;  9.9999998E-03;  3.3637561E-12;2160; -3.6016803E-02;  0.0000000E+00;  2.2614642E-10;  1.0087867E+03;  4.0370849E-01;  7.2788276E+03;3; -2.2692602E+01;  0.0000000E+00;  5.5847922E-06;0;  4.4208726E-01;  9.9919307E+03;  0.0000000E+00; -2.6495843E-15;  1.0000000E+04;  0.0000000E+00;  9.9984629E+03;  3.3802226E-01;  0.0000000E+00;  1.0406499E-01;  5.7404315E+02;
  7.1996284E-01;  9.9999998E-03;  2.0001093E-02;2161; -3.6076814E-02;  0.0000000E+00;  1.9666278E-03;  1.0087812E+03;  4.0370852E-01;  7.2742852E+03;3; -2.2770462E+01;  0.0000000E+00;  2.4822810E+00;0;  4.4791013E-01;  9.9919229E+03;  0.0000000E+00; -1.0591846E-08;  1.0000000E+04;  0.0000000E+00;  9.9983604E+03;  3.3857873E-01;  0.0000000E+00;  1.0933141E-01;  6.1679022E+02;
  7.1996278E-01;  9.9999998E-03;  4.0002402E-02;2162; -3.6263313E-02;  0.0000000E+00;  4.1682059E-03;  1.0087650E+03;  4.0370849E-01;  7.2608550E+03;3; -2.3006256E+01;  0.0000000E+00;  5.0797153E+00;0;  4.6484855E-01;  9.9918945E+03;  0.0000000E+00; -3.4012810E-08;  1.0000000E+04;  0.0000000E+00;  9.9980664E+03;  3.4028816E-01;  0.0000000E+00;  1.2456039E-01;  7.4125275E+02;
  7.1996254E-01;  9.9999998E-03;  6.0004182E-02;2163; -3.6597785E-02;  0.0000000E+00;  6.8978192E-03;  1.0087391E+03;  4.0370849E-01;  7.2394258E+03;3; -2.3408411E+01;  0.0000000E+00;  7.9567900E+00;0;  4.9137712E-01;  9.9918457E+03;  0.0000000E+00; -2.8682505E-08;  1.0000000E+04;  0.0000000E+00;  9.9976035E+03;  3.4326455E-01;  0.0000000E+00;  1.4811257E-01;  9.3774609E+02;
  7.1996224E-01;  9.9999998E-03;  8.0006726E-02;2164; -3.7120454E-02;  0.0000000E+00;  1.0486334E-02;  1.0087048E+03;  4.0370861E-01;  7.2109849E+03;3; -2.3995123E+01;  0.0000000E+00;  1.1311566E+01;0;  5.2539045E-01;  9.9917744E+03;  0.0000000E+00;  1.1599574E-07;  1.0000000E+04;  0.0000000E+00;  9.9969951E+03;  3.4767938E-01;  0.0000000E+00;  1.7771105E-01;  1.1978804E+03;
  7.1996176E-01;  9.9999998E-03;  1.0001025E-01;2165; -3.7888523E-02;  0.0000000E+00;  1.5180133E-02;  1.0086611E+03;  4.0370858E-01;  7.1747432E+03;3; -2.4793291E+01;  0.0000000E+00;  1.5279582E+01;0;  5.6523561E-01;  9.9916699E+03;  0.0000000E+00;  4.5298319E-07;  1.0000000E+04;  0.0000000E+00;  9.9962256E+03;  3.5373345E-01;  0.0000000E+00;  2.1150216E-01;  1.5306757E+03;
  7.1996099E-01;  9.9999998E-03;  1.2001479E-01;2166; -3.8965501E-02;  0.0000000E+00;  2.0988557E-02;  1.0086031E+03;  4.0370867E-01;  7.1267495E+03;3; -2.5831131E+01;  0.0000000E+00;  1.9824284E+01;0;  6.1068416E-01;  9.9915332E+03;  0.0000000E+00;  6.9505711E-07;  1.0000000E+04;  0.0000000E+00;  9.9952100E+03;  3.6161777E-01;  0.0000000E+00;  2.4906640E-01;  1.9829976E+03;
  7.1995997E-01;  9.9999998E-03;  1.4002013E-01;2167; -4.0402312E-02;  0.0000000E+00;  2.7610993E-02;  1.0085220E+03;  4.0370882E-01;  7.0595977E+03;3; -2.7125166E+01;  0.0000000E+00;  2.4676867E+01;0;  6.6192091E-01;  9.9913574E+03;  0.0000000E+00; -2.7122988E-07;  1.0000000E+04;  0.0000000E+00;  9.9937744E+03;  3.7150326E-01;  0.0000000E+00;  2.9041764E-01;  2.6406619E+03;
  7.3997742E-01;  9.9999998E-03;  3.2138639E-13;2191; -2.2024592E-02;  0.0000000E+00; -4.7134225E-09;  1.0089119E+03;  4.0377855E-01;  7.3822446E+03;3; -1.4063724E+01;  0.0000000E+00; -1.7508457E-05;0;  4.9412501E-01;  9.9910381E+03;  0.0000000E+00;  9.9186817E-16;  1.0000000E+04;  0.0000000E+00;  9.9983623E+03;  3.8276330E-01;  0.0000000E+00;  1.1136170E-01;  6.0907715E+02;
  7.3997742E-01;  9.9999998E-03;  2.0001177E-02;2192; -2.2070343E-02;  0.0000000E+00;  2.1209077E-03;  1.0089057E+03;  4.0377864E-01;  7.3771099E+03;3; -1.4123362E+01;  0.0000000E+00;  2.6842635E+00;0;  5.0056463E-01;  9.9910273E+03;  0.0000000E+00; -3.9280796E-09;  1.0000000E+04;  0.0000000E+00;  9.9982510E+03;  3.8344777E-01;  0.0000000E+00;  1.1711687E-01;  6.5560022E+02;
  7.3997736E-01;  9.9999998E-03;  4.0002581E-02;2193; -2.2211714E-02;  0.0000000E+00;  4.4918270E-03;  1.0088878E+03;  4.0377861E-01;  7.3622974E+03;3; -1.4302948E+01;  0.0000000E+00;  5.4884720E+00;0;  5.1930070E-01;  9.9909941E+03;  0.0000000E+00; -7.5249327E-09;  1.0000000E+04;  0.0000000E+00;  9.9979307E+03;  3.8555297E-01;  0.0000000E+00;  1.3374776E-01;  7.9092926E+02;
  7.3997718E-01;  9.9999998E-03;  6.0004495E-02;2194; -2.2462728E-02;  0.0000000E+00;  7.4253385E-03;  1.0088596E+03;  4.0377861E-01;  7.3389927E+03;3; -1.4606175E+01;  0.0000000E+00;  8.5859270E+00;0;  5.4865640E-01;  9.9909375E+03;  0.0000000E+00;  1.5480941E-08;  1.0000000E+04;  0.0000000E+00;  9.9974268E+03;  3.8922846E-01;  0.0000000E+00;  1.5942794E-01;  1.0041293E+03;
  7.3997694E-01;  9.9999998E-03;  8.0007225E-02;2195; -2.2850670E-02;  0.0000000E+00;  1.1274594E-02;  1.0088219E+03;  4.0377861E-01;  7.3076895E+03;3; -1.5043039E+01;  0.0000000E+00;  1.2186209E+01;0;  5.8630264E-01;  9.9908467E+03;  0.0000000E+00;  1.4311429E-07;  1.0000000E+04;  0.0000000E+00;  9.9967656E+03;  3.9469692E-01;  0.0000000E+00;  1.9160572E-01;  1.2853625E+03;
  7.3997658E-01;  9.9999998E-03;  1.0001100E-01;2196; -2.3415249E-02;  0.0000000E+00;  1.6300764E-02;  1.0087742E+03;  4.0377876E-01;  7.2681899E+03;3; -1.5629885E+01;  0.0000000E+00;  1.6430901E+01;0;  6.3036430E-01;  9.9907236E+03;  0.0000000E+00;  4.4817415E-07;  1.0000000E+04;  0.0000000E+00;  9.9959404E+03;  4.0220740E-01;  0.0000000E+00;  2.2815686E-01;  1.6432783E+03;
  7.3997605E-01;  9.9999998E-03;  1.2001586E-01;2197; -2.4199843E-02;  0.0000000E+00;  2.2507371E-02;  1.0087111E+03;  4.0377885E-01;  7.2159521E+03;3; -1.6382832E+01;  0.0000000E+00;  2.1274248E+01;0;  6.8045223E-01;  9.9905586E+03;  0.0000000E+00;  8.6583088E-07;  1.0000000E+04;  0.0000000E+00;  9.9948545E+03;  4.1196215E-01;  0.0000000E+00;  2.6849011E-01;  2.1270464E+03;
  7.3997527E-01;  9.9999998E-03;  1.4002156E-01;2198; -2.5234235E-02;  0.0000000E+00;  2.9559966E-02;  1.0086235E+03;  4.0377885E-01;  7.1433721E+03;3; -1.7305464E+01;  0.0000000E+00;  2.6417242E+01;0;  7.3652494E-01;  9.9903477E+03;  0.0000000E+00;  9.4669554E-07;  1.0000000E+04;  0.0000000E+00;  9.9933223E+03;  4.2404160E-01;  0.0000000E+00;  3.1248334E-01;  2.8276357E+03;
  7.5998855E-01;  9.9999998E-03;  1.3804983E-11;2222; -1.1381218E-02;  0.0000000E+00;  1.8053818E-08;  1.0089769E+03;  4.0380502E-01;  7.4356919E+03;3; -7.5276594E+00;  0.0000000E+00;  7.4804411E-06;0;  5.0331765E-01;  9.9910928E+03;  0.0000000E+00;  3.6009802E-15;  1.0000000E+04;  0.0000000E+00;  9.9982871E+03;  3.8652882E-01;  0.0000000E+00;  1.1678882E-01;  6.3775647E+02;
  7.5998855E-01;  9.9999998E-03;  2.0001234E-02;2223; -1.1411813E-02;  0.0000000E+00;  2.2309178E-03;  1.0089705E+03;  4.0380514E-01;  7.4304585E+03;3; -7.5677304E+00;  0.0000000E+00;  2.8287427E+00;0;  5.1015109E-01;  9.9910830E+03;  0.0000000E+00; -1.8435382E-10;  1.0000000E+04;  0.0000000E+00;  9.9981709E+03;  3.8727140E-01;  0.0000000E+00;  1.2287966E-01;  6.8690930E+02;
  7.5998849E-01;  9.9999998E-03;  4.0002711E-02;2224; -1.1505583E-02;  0.0000000E+00;  4.7204550E-03;  1.0089516E+03;  4.0380511E-01;  7.4147583E+03;3; -7.6876264E+00;  0.0000000E+00;  5.7782993E+00;0;  5.3002906E-01;  9.9910459E+03;  0.0000000E+00;  3.0147207E-09;  1.0000000E+04;  0.0000000E+00;  9.9978320E+03;  3.8955984E-01;  0.0000000E+00;  1.4046919E-01;  8.2977362E+02;
  7.5998837E-01;  9.9999998E-03;  6.0004711E-02;2225; -1.1669675E-02;  0.0000000E+00;  7.7933874E-03;  1.0089216E+03;  4.0380514E-01;  7.3899736E+03;3; -7.8871274E+00;  0.0000000E+00;  9.0261288E+00;0;  5.6115174E-01;  9.9909854E+03;  0.0000000E+00;  2.5746948E-08;  1.0000000E+04;  0.0000000E+00;  9.9972998E+03;  3.9356753E-01;  0.0000000E+00;  1.6758424E-01;  1.0544070E+03;
  7.5998825E-01;  9.9999998E-03;  8.0007561E-02;2226; -1.1919120E-02;  0.0000000E+00;  1.1817709E-02;  1.0088820E+03;  4.0380517E-01;  7.3571904E+03;3; -8.1692295E+00;  0.0000000E+00;  1.2788731E+01;0;  6.0099763E-01;  9.9908887E+03;  0.0000000E+00;  1.0533666E-07;  1.0000000E+04;  0.0000000E+00;  9.9966064E+03;  3.9955112E-01;  0.0000000E+00;  2.0144652E-01;  1.3496284E+03;
  7.5998801E-01;  9.9999998E-03;  1.0001151E-01;2227; -1.2276939E-02;  0.0000000E+00;  1.7064640E-02;  1.0088319E+03;  4.0380523E-01;  7.3156196E+03;3; -8.5409698E+00;  0.0000000E+00;  1.7211630E+01;0;  6.4747053E-01;  9.9907539E+03;  0.0000000E+00;  2.9444186E-07;  1.0000000E+04;  0.0000000E+00;  9.9957422E+03;  4.0778869E-01;  0.0000000E+00;  2.3968183E-01;  1.7231969E+03;
  7.5998765E-01;  9.9999998E-03;  1.2001658E-01;2228; -1.2768278E-02;  0.0000000E+00;  2.3531072E-02;  1.0087661E+03;  4.0380529E-01;  7.2611128E+03;3; -9.0091524E+00;  0.0000000E+00;  2.2239939E+01;0;  6.9999397E-01;  9.9905762E+03;  0.0000000E+00;  6.0922702E-07;  1.0000000E+04;  0.0000000E+00;  9.9946143E+03;  4.1848078E-01;  0.0000000E+00;  2.8151315E-01;  2.2249731E+03;
  7.5998718E-01;  9.9999998E-03;  1.4002250E-01;2229; -1.3407249E-02;  0.0000000E+00;  3.0852253E-02;  1.0086752E+03;  4.0380540E-01;  7.1858706E+03;3; -9.5705214E+00;  0.0000000E+00;  2.7548077E+01;0;  7.5833881E-01;  9.9903525E+03;  0.0000000E+00;  9.1214253E-07;  1.0000000E+04;  0.0000000E+00;  9.9930342E+03;  4.3162757E-01;  0.0000000E+00;  3.2671124E-01;  2.9487258E+03;
  7.7999651E-01;  9.9999998E-03; -7.5392019E-12;2253; -3.7210023E-03;  0.0000000E+00; -2.5694278E-09;  1.0090317E+03;  4.0381476E-01;  7.4806104E+03;3; -2.8049369E+00;  0.0000000E+00; -1.9011379E-05;0;  4.8303366E-01;  9.9917490E+03;  0.0000000E+00; -1.3015600E-15;  1.0000000E+04;  0.0000000E+00;  9.9982383E+03;  3.6283186E-01;  0.0000000E+00;  1.2020178E-01;  6.5774634E+02;
  7.7999651E-01;  9.9999998E-03;  2.0001270E-02;2254; -3.7367174E-03;  0.0000000E+00;  2.2964536E-03;  1.0090251E+03;  4.0381479E-01;  7.4751797E+03;3; -2.8257973E+00;  0.0000000E+00;  2.9153285E+00;0;  4.9005884E-01;  9.9917393E+03;  0.0000000E+00;  7.2204470E-10;  1.0000000E+04;  0.0000000E+00;  9.9981191E+03;  3.6357525E-01;  0.0000000E+00;  1.2648357E-01;  7.0842035E+02;
  7.7999651E-01;  9.9999998E-03;  4.0002782E-02;2255; -3.7840211E-03;  0.0000000E+00;  4.8546488E-03;  1.0090057E+03;  4.0381485E-01;  7.4591846E+03;3; -2.8872197E+00;  0.0000000E+00;  5.9494576E+00;0;  5.1048422E-01;  9.9917031E+03;  0.0000000E+00;  3.6592998E-09;  1.0000000E+04;  0.0000000E+00;  9.9977705E+03;  3.6586973E-01;  0.0000000E+00;  1.4461449E-01;  8.5561499E+02;
  7.7999645E-01;  9.9999998E-03;  6.0004834E-02;2256; -3.8643493E-03;  0.0000000E+00;  8.0050426E-03;  1.0089751E+03;  4.0381479E-01;  7.4338091E+03;3; -2.9864523E+00;  0.0000000E+00;  9.2803965E+00;0;  5.4242307E-01;  9.9916426E+03;  0.0000000E+00;  1.4927044E-08;  1.0000000E+04;  0.0000000E+00;  9.9972217E+03;  3.6989903E-01;  0.0000000E+00;  1.7252405E-01;  1.0866960E+03;
  7.7999640E-01;  9.9999998E-03;  8.0007754E-02;2257; -3.9821719E-03;  0.0000000E+00;  1.2123819E-02;  1.0089346E+03;  4.0381485E-01;  7.4002383E+03;3; -3.1212921E+00;  0.0000000E+00;  1.3128103E+01;0;  5.8320302E-01;  9.9915479E+03;  0.0000000E+00;  4.6854566E-08;  1.0000000E+04;  0.0000000E+00;  9.9965098E+03;  3.7593001E-01;  0.0000000E+00;  2.0727302E-01;  1.3894417E+03;
  7.7999628E-01;  9.9999998E-03;  1.0001180E-01;2258; -4.1460372E-03;  0.0000000E+00;  1.7488077E-02;  1.0088835E+03;  4.0381494E-01;  7.3579790E+03;3; -3.2917783E+00;  0.0000000E+00;  1.7640289E+01;0;  6.3054067E-01;  9.9914150E+03;  0.0000000E+00;  1.2111981E-07;  1.0000000E+04;  0.0000000E+00;  9.9956279E+03;  3.8424754E-01;  0.0000000E+00;  2.4629313E-01;  1.7705947E+03;
  7.7999610E-01;  9.9999998E-03;  1.2001698E-01;2259; -4.3656961E-03;  0.0000000E+00;  2.4090325E-02;  1.0088170E+03;  4.0381503E-01;  7.3027852E+03;3; -3.4981697E+00;  0.0000000E+00;  2.2756626E+01;0;  6.8368751E-01;  9.9912344E+03;  0.0000000E+00;  2.5359881E-07;  1.0000000E+04;  0.0000000E+00;  9.9944834E+03;  3.9504164E-01;  0.0000000E+00;  2.8864586E-01;  2.2797029E+03;
  7.7999592E-01;  9.9999998E-03;  1.4002302E-01;2260; -4.6447767E-03;  0.0000000E+00;  3.1544175E-02;  1.0087252E+03;  4.0381515E-01;  7.2267573E+03;3; -3.7356474E+00;  0.0000000E+00;  2.8132717E+01;0;  7.4229729E-01;  9.9910117E+03;  0.0000000E+00;  4.1422058E-07;  1.0000000E+04;  0.0000000E+00;  9.9928828E+03;  4.0826291E-01;  0.0000000E+00;  3.3403441E-01;  3.0115591E+03;
  8.0000269E-01;  9.9999998E-03; -1.4841120E-11;2284;  2.2607229E-03;  0.0000000E+00; -1.4155956E-08;  1.0090807E+03;  4.0381727E-01;  7.5206074E+03;3;  9.5030427E-01;  0.0000000E+00; -1.2239849E-05;0;  4.4970661E-01;  9.9926152E+03;  0.0000000E+00;  2.0733240E-15;  1.0000000E+04;  0.0000000E+00;  9.9982188E+03;  3.2808962E-01;  0.0000000E+00;  1.2161700E-01;  6.6739618E+02;
  8.0000269E-01;  9.9999998E-03;  2.0001283E-02;2285;  2.2590477E-03;  0.0000000E+00;  2.3201860E-03;  1.0090740E+03;  4.0381724E-01;  7.5149795E+03;3;  9.4750237E-01;  0.0000000E+00;  2.9474094E+00;0;  4.5676389E-01;  9.9926064E+03;  0.0000000E+00;  1.9511658E-10;  1.0000000E+04;  0.0000000E+00;  9.9980977E+03;  3.2879966E-01;  0.0000000E+00;  1.2796423E-01;  7.1859363E+02;
  8.0000269E-01;  9.9999998E-03;  4.0002808E-02;2286;  2.2551485E-03;  0.0000000E+00;  4.9008327E-03;  1.0090545E+03;  4.0381736E-01;  7.4988872E+03;3;  9.4069725E-01;  0.0000000E+00;  6.0099001E+00;0;  4.7726959E-01;  9.9925723E+03;  0.0000000E+00;  9.2890989E-10;  1.0000000E+04;  0.0000000E+00;  9.9977441E+03;  3.3099279E-01;  0.0000000E+00;  1.4627680E-01;  8.6724915E+02;
  8.0000269E-01;  9.9999998E-03;  6.0004875E-02;2287;  2.2521988E-03;  0.0000000E+00;  8.0727460E-03;  1.0090237E+03;  4.0381742E-01;  7.4734150E+03;3;  9.3413240E-01;  0.0000000E+00;  9.3635464E+00;0;  5.0928396E-01;  9.9925137E+03;  0.0000000E+00;  2.6256173E-09;  1.0000000E+04;  0.0000000E+00;  9.9971934E+03;  3.3484703E-01;  0.0000000E+00;  1.7443691E-01;  1.1003728E+03;
  8.0000269E-01;  9.9999998E-03;  8.0007814E-02;2288;  2.2543629E-03;  0.0000000E+00;  1.2214282E-02;  1.0089832E+03;  4.0381739E-01;  7.4398477E+03;3;  9.3345666E-01;  0.0000000E+00;  1.3228624E+01;0;  5.5003983E-01;  9.9924248E+03;  0.0000000E+00;  6.2710992E-09;  1.0000000E+04;  0.0000000E+00;  9.9964756E+03;  3.4062114E-01;  0.0000000E+00;  2.0941870E-01;  1.4051074E+03;
  8.0000269E-01;  9.9999998E-03;  1.0001188E-01;2289;  2.2655576E-03;  0.0000000E+00;  1.7604999E-02;  1.0089323E+03;  4.0381739E-01;  7.3976909E+03;3;  9.4405109E-01;  0.0000000E+00;  1.7754230E+01;0;  5.9712386E-01;  9.9922969E+03;  0.0000000E+00;  1.4670631E-08;  1.0000000E+04;  0.0000000E+00;  9.9955889E+03;  3.4858775E-01;  0.0000000E+00;  2.4853611E-01;  1.7873409E+03;
  8.0000269E-01;  9.9999998E-03;  1.2001709E-01;2290;  2.2889457E-03;  0.0000000E+00;  2.4236046E-02;  1.0088662E+03;  4.0381747E-01;  7.3428970E+03;3;  9.7010881E-01;  0.0000000E+00;  2.2878887E+01;0;  6.4966351E-01;  9.9921279E+03;  0.0000000E+00;  2.7389003E-08;  1.0000000E+04;  0.0000000E+00;  9.9944443E+03;  3.5892412E-01;  0.0000000E+00;  2.9073939E-01;  2.2957983E+03;
  8.0000275E-01;  9.9999998E-03;  1.4002316E-01;2291;  2.3288277E-03;  0.0000000E+00;  3.1711005E-02;  1.0087753E+03;  4.0381762E-01;  7.2675674E+03;3;  1.0161675E+00;  0.0000000E+00;  2.8250072E+01;0;  7.0726454E-01;  9.9919170E+03;  0.0000000E+00;  3.3737592E-08;  1.0000000E+04;  0.0000000E+00;  9.9928496E+03;  3.7156239E-01;  0.0000000E+00;  3.3570212E-01;  3.0250132E+03;
  8.2000840E-01;  9.9999998E-03;  1.0254729E-12;2315;  7.8495322E-03;  0.0000000E+00; -4.6117621E-09;  1.0091126E+03;  4.0381312E-01;  7.5460420E+03;3;  4.5342770E+00;  0.0000000E+00; -1.8014689E-06;0;  4.1441956E-01;  9.9934434E+03;  0.0000000E+00;  3.3053095E-15;  1.0000000E+04;  0.0000000E+00;  9.9982266E+03;  2.9325640E-01;  0.0000000E+00;  1.2116317E-01;  6.6627136E+02;
  8.2000840E-01;  9.9999998E-03;  2.0001274E-02;2316;  7.8606922E-03;  0.0000000E+00;  2.3059982E-03;  1.0091060E+03;  4.0381315E-01;  7.5405142E+03;3;  4.5479937E+00;  0.0000000E+00;  2.9302402E+00;0;  4.2139274E-01;  9.9934336E+03;  0.0000000E+00; -2.6653554E-10;  1.0000000E+04;  0.0000000E+00;  9.9981055E+03;  2.9392174E-01;  0.0000000E+00;  1.2747101E-01;  7.1712128E+02;
  8.2000846E-01;  9.9999998E-03;  4.0002789E-02;2317;  7.8963796E-03;  0.0000000E+00;  4.8679081E-03;  1.0090867E+03;  4.0381321E-01;  7.5246206E+03;3;  4.5908804E+00;  0.0000000E+00;  5.9711318E+00;0;  4.4164109E-01;  9.9934033E+03;  0.0000000E+00; -5.0863874E-10;  1.0000000E+04;  0.0000000E+00;  9.9977549E+03;  2.9597479E-01;  0.0000000E+00;  1.4566630E-01;  8.6473700E+02;
  8.2000846E-01;  9.9999998E-03;  6.0004838E-02;2318;  7.9634683E-03;  0.0000000E+00;  8.0123628E-03;  1.0090564E+03;  4.0381324E-01;  7.4995469E+03;3;  4.6680398E+00;  0.0000000E+00;  9.2949429E+00;0;  4.7320828E-01;  9.9933467E+03;  0.0000000E+00; -6.0808741E-10;  1.0000000E+04;  0.0000000E+00;  9.9972051E+03;  2.9957861E-01;  0.0000000E+00;  1.7362967E-01;  1.0960891E+03;
  8.2000858E-01;  9.9999998E-03;  8.0007747E-02;2319;  8.0733076E-03;  0.0000000E+00;  1.2114702E-02;  1.0090163E+03;  4.0381324E-01;  7.4662798E+03;3;  4.7875595E+00;  0.0000000E+00;  1.3119861E+01;0;  5.1328921E-01;  9.9932646E+03;  0.0000000E+00; -5.2391208E-10;  1.0000000E+04;  0.0000000E+00;  9.9964932E+03;  3.0496910E-01;  0.0000000E+00;  2.0832014E-01;  1.3981030E+03;
  8.2000864E-01;  9.9999998E-03;  1.0001177E-01;2320;  8.2403822E-03;  0.0000000E+00;  1.7453736E-02;  1.0089662E+03;  4.0381324E-01;  7.4248188E+03;3;  4.9588819E+00;  0.0000000E+00;  1.7595490E+01;0;  5.5940896E-01;  9.9931455E+03;  0.0000000E+00; -1.8000422E-09;  1.0000000E+04;  0.0000000E+00;  9.9956182E+03;  3.1239742E-01;  0.0000000E+00;  2.4701154E-01;  1.7760665E+03;
  8.2000881E-01;  9.9999998E-03;  1.2001694E-01;2321;  8.4793903E-03;  0.0000000E+00;  2.4021847E-02;  1.0089014E+03;  4.0381336E-01;  7.3711177E+03;3;  5.1902828E+00;  0.0000000E+00;  2.2662714E+01;0;  6.1062974E-01;  9.9929883E+03;  0.0000000E+00; -1.8359414E-08;  1.0000000E+04;  0.0000000E+00;  9.9944844E+03;  3.2202742E-01;  0.0000000E+00;  2.8860232E-01;  2.2776050E+03;
  8.2000905E-01;  9.9999998E-03;  1.4002296E-01;2322;  8.8022090E-03;  0.0000000E+00;  3.1423166E-02;  1.0088123E+03;  4.0381348E-01;  7.2973765E+03;3;  5.4864187E+00;  0.0000000E+00;  2.7970680E+01;0;  6.6656125E-01;  9.9927920E+03;  0.0000000E+00; -9.1437812E-08;  1.0000000E+04;  0.0000000E+00;  9.9929141E+03;  3.3379662E-01;  0.0000000E+00;  3.3276463E-01;  2.9960066E+03;
  8.4001434E-01;  9.9999998E-03; -1.8086173E-13;2346;  1.3682555E-02;  0.0000000E+00;  5.4661431E-09;  1.0089975E+03;  4.0375146E-01;  7.4494502E+03;3;  8.3146029E+00;  0.0000000E+00;  9.1717229E-06;0;  3.7988058E-01;  9.9941836E+03;  0.0000000E+00;  3.8012605E-16;  1.0000000E+04;  0.0000000E+00;  9.9982568E+03;  2.6084301E-01;  0.0000000E+00;  1.1903756E-01;  6.5521069E+02;
  8.4001434E-01;  9.9999998E-03;  2.0001248E-02;2347;  1.3705325E-02;  0.0000000E+00;  2.2582349E-03;  1.0089910E+03;  4.0375152E-01;  7.4441206E+03;3;  8.3431950E+00;  0.0000000E+00;  2.8698061E+00;0;  3.8668388E-01;  9.9941738E+03;  0.0000000E+00; -3.4938780E-10;  1.0000000E+04;  0.0000000E+00;  9.9981396E+03;  2.6146603E-01;  0.0000000E+00;  1.2521785E-01;  7.0494714E+02;
  8.4001440E-01;  9.9999998E-03;  4.0002730E-02;2348;  1.3776766E-02;  0.0000000E+00;  4.7652577E-03;  1.0089722E+03;  4.0375149E-01;  7.4286250E+03;3;  8.4307394E+00;  0.0000000E+00;  5.8454814E+00;0;  4.0642887E-01;  9.9941465E+03;  0.0000000E+00;  4.4630848E-11;  1.0000000E+04;  0.0000000E+00;  9.9977939E+03;  2.6338395E-01;  0.0000000E+00;  1.4304490E-01;  8.4932532E+02;
  8.4001446E-01;  9.9999998E-03;  6.0004734E-02;2349;  1.3906801E-02;  0.0000000E+00;  7.8398362E-03;  1.0089425E+03;  4.0375155E-01;  7.4039497E+03;3;  8.5828590E+00;  0.0000000E+00;  9.0943861E+00;0;  4.3717569E-01;  9.9940938E+03;  0.0000000E+00;  3.4257903E-09;  1.0000000E+04;  0.0000000E+00;  9.9972549E+03;  2.6673815E-01;  0.0000000E+00;  1.7043754E-01;  1.0755562E+03;
  8.4001458E-01;  9.9999998E-03;  8.0007575E-02;2350;  1.4112845E-02;  0.0000000E+00;  1.1849837E-02;  1.0089035E+03;  4.0375164E-01;  7.3716753E+03;3;  8.8095303E+00;  0.0000000E+00;  1.2830503E+01;0;  4.7613841E-01;  9.9940166E+03;  0.0000000E+00;  1.6695870E-08;  1.0000000E+04;  0.0000000E+00;  9.9965586E+03;  2.7173790E-01;  0.0000000E+00;  2.0440049E-01;  1.3707069E+03;
  8.4001482E-01;  9.9999998E-03;  1.0001152E-01;2351;  1.4418876E-02;  0.0000000E+00;  1.7070102E-02;  1.0088549E+03;  4.0375164E-01;  7.3314058E+03;3;  9.1239586E+00;  0.0000000E+00;  1.7202703E+01;0;  5.2084351E-01;  9.9939063E+03;  0.0000000E+00;  3.9953104E-08;  1.0000000E+04;  0.0000000E+00;  9.9957031E+03;  2.7860910E-01;  0.0000000E+00;  2.4223441E-01;  1.7396688E+03;
  8.4001511E-01;  9.9999998E-03;  1.2001657E-01;2352;  1.4850284E-02;  0.0000000E+00;  2.3495542E-02;  1.0087919E+03;  4.0375173E-01;  7.2792925E+03;3;  9.5385027E+00;  0.0000000E+00;  2.2156391E+01;0;  5.7034296E-01;  9.9937598E+03;  0.0000000E+00;  4.8134584E-08;  1.0000000E+04;  0.0000000E+00;  9.9945957E+03;  2.8751054E-01;  0.0000000E+00;  2.8283241E-01;  2.2286877E+03;
  8.4001553E-01;  9.9999998E-03;  1.4002247E-01;2353;  1.5427223E-02;  0.0000000E+00;  3.0739011E-02;  1.0087054E+03;  4.0375179E-01;  7.2076362E+03;3;  1.0059611E+01;  0.0000000E+00;  2.7349640E+01;0;  6.2429011E-01;  9.9935771E+03;  0.0000000E+00; -4.6183573E-08;  1.0000000E+04;  0.0000000E+00;  9.9930576E+03;  2.9840451E-01;  0.0000000E+00;  3.2588556E-01;  2.9288965E+03;
  8.6002046E-01;  9.9999998E-03;  1.0259105E-11;2377;  1.9689132E-02;  0.0000000E+00;  3.3102334E-09;  1.0087344E+03;  4.0363029E-01;  7.2301055E+03;3;  1.2215718E+01;  0.0000000E+00;  6.4241467E-06;0;  3.4263399E-01;  9.9949316E+03;  0.0000000E+00; -2.3709760E-16;  1.0000000E+04;  0.0000000E+00;  9.9983076E+03;  2.2715212E-01;  0.0000000E+00;  1.1548186E-01;  6.3599750E+02;
  8.6002046E-01;  9.9999998E-03;  2.0001205E-02;2378;  1.9722294E-02;  0.0000000E+00;  2.1806059E-03;  1.0087282E+03;  4.0363020E-01;  7.2249741E+03;3;  1.2257565E+01;  0.0000000E+00;  2.7709558E+00;0;  3.4919301E-01;  9.9949219E+03;  0.0000000E+00; -1.5691069E-10;  1.0000000E+04;  0.0000000E+00;  9.9981934E+03;  2.2773586E-01;  0.0000000E+00;  1.2145715E-01;  6.8392908E+02;
  8.6002052E-01;  9.9999998E-03;  4.0002637E-02;2379;  1.9825589E-02;  0.0000000E+00;  4.6007899E-03;  1.0087101E+03;  4.0363026E-01;  7.2098765E+03;3;  1.2384805E+01;  0.0000000E+00;  5.6431513E+00;0;  3.6822367E-01;  9.9948945E+03;  0.0000000E+00; -1.7881319E-10;  1.0000000E+04;  0.0000000E+00;  9.9978604E+03;  2.2952799E-01;  0.0000000E+00;  1.3869567E-01;  8.2308429E+02;
  8.6002064E-01;  9.9999998E-03;  6.0004570E-02;2380;  2.0011608E-02;  0.0000000E+00;  7.5682341E-03;  1.0086814E+03;  4.0363029E-01;  7.1861938E+03;3;  1.2603472E+01;  0.0000000E+00;  8.7777605E+00;0;  3.9783758E-01;  9.9948467E+03;  0.0000000E+00;  7.6394340E-09;  1.0000000E+04;  0.0000000E+00;  9.9973379E+03;  2.3264855E-01;  0.0000000E+00;  1.6518901E-01;  1.0411608E+03;
  8.6002082E-01;  9.9999998E-03;  8.0007315E-02;2381;  2.0303322E-02;  0.0000000E+00;  1.1439394E-02;  1.0086439E+03;  4.0363038E-01;  7.1551104E+03;3;  1.2925447E+01;  0.0000000E+00;  1.2382794E+01;0;  4.3531573E-01;  9.9947734E+03;  0.0000000E+00;  3.5215958E-08;  1.0000000E+04;  0.0000000E+00;  9.9966650E+03;  2.3727834E-01;  0.0000000E+00;  1.9803737E-01;  1.3256511E+03;
  8.6002111E-01;  9.9999998E-03;  1.0001113E-01;2382;  2.0733064E-02;  0.0000000E+00;  1.6481990E-02;  1.0085970E+03;  4.0363035E-01;  7.1163301E+03;3;  1.3367317E+01;  0.0000000E+00;  1.6604837E+01;0;  4.7824043E-01;  9.9946680E+03;  0.0000000E+00;  9.2612375E-08;  1.0000000E+04;  0.0000000E+00;  9.9958359E+03;  2.4362437E-01;  0.0000000E+00;  2.3461607E-01;  1.6811436E+03;
  8.6002153E-01;  9.9999998E-03;  1.2001601E-01;2383;  2.1336380E-02;  0.0000000E+00;  2.2693500E-02;  1.0085364E+03;  4.0363047E-01;  7.0662021E+03;3;  1.3945889E+01;  0.0000000E+00;  2.1394337E+01;0;  5.2569389E-01;  9.9945322E+03;  0.0000000E+00;  1.4000778E-07;  1.0000000E+04;  0.0000000E+00;  9.9947686E+03;  2.5185278E-01;  0.0000000E+00;  2.7384111E-01;  2.1521079E+03;
  8.6002207E-01;  9.9999998E-03;  1.4002171E-01;2384;  2.2142496E-02;  0.0000000E+00;  2.9700587E-02;  1.0084529E+03;  4.0363047E-01;  6.9970288E+03;3;  1.4671368E+01;  0.0000000E+00;  2.6422947E+01;0;  5.7740599E-01;  9.9943604E+03;  0.0000000E+00;  2.8422342E-08;  1.0000000E+04;  0.0000000E+00;  9.9932832E+03;  2.6197299E-01;  0.0000000E+00;  3.1543300E-01;  2.8265728E+03;
  8.8002622E-01;  9.9999998E-03; -5.3433013E-12;2408;  2.5420040E-02;  0.0000000E+00; -1.6327579E-08;  1.0083468E+03;  4.0345621E-01;  6.9071270E+03;3;  1.5939834E+01;  0.0000000E+00; -1.7620972E-05;0;  2.9812333E-01;  9.9958037E+03;  0.0000000E+00; -5.6965962E-16;  1.0000000E+04;  0.0000000E+00;  9.9983750E+03;  1.8735555E-01;  0.0000000E+00;  1.1076778E-01;  6.1080530E+02;
  8.8002628E-01;  9.9999998E-03;  2.0001147E-02;2409;  2.5462188E-02;  0.0000000E+00;  2.0766256E-03;  1.0083407E+03;  4.0345624E-01;  6.9020962E+03;3;  1.5993134E+01;  0.0000000E+00;  2.6383383E+00;0;  3.0436167E-01;  9.9957920E+03;  0.0000000E+00; -5.9727306E-10;  1.0000000E+04;  0.0000000E+00;  9.9982637E+03;  1.8789402E-01;  0.0000000E+00;  1.1646765E-01;  6.5629492E+02;
  8.8002634E-01;  9.9999998E-03;  4.0002510E-02;2410;  2.5593121E-02;  0.0000000E+00;  4.3817121E-03;  1.0083235E+03;  4.0345627E-01;  6.8877920E+03;3;  1.6154861E+01;  0.0000000E+00;  5.3731532E+00;0;  3.2246023E-01;  9.9957676E+03;  0.0000000E+00; -8.1195423E-10;  1.0000000E+04;  0.0000000E+00;  9.9979473E+03;  1.8954313E-01;  0.0000000E+00;  1.3291709E-01;  7.8840179E+02;
  8.8002646E-01;  9.9999998E-03;  6.0004354E-02;2411;  2.5827849E-02;  0.0000000E+00;  7.2092866E-03;  1.0082963E+03;  4.0345633E-01;  6.8653003E+03;3;  1.6431520E+01;  0.0000000E+00;  8.3588552E+00;0;  3.5061353E-01;  9.9957197E+03;  0.0000000E+00;  4.5847957E-09;  1.0000000E+04;  0.0000000E+00;  9.9974512E+03;  1.9240336E-01;  0.0000000E+00;  1.5821019E-01;  9.9552612E+02;
  8.8002670E-01;  9.9999998E-03;  8.0006972E-02;2412;  2.6194157E-02;  0.0000000E+00;  1.0900721E-02;  1.0082604E+03;  4.0345633E-01;  6.8357061E+03;3;  1.6836578E+01;  0.0000000E+00;  1.1795540E+01;0;  3.8621601E-01;  9.9956514E+03;  0.0000000E+00;  3.6557378E-08;  1.0000000E+04;  0.0000000E+00;  9.9968066E+03;  1.9663231E-01;  0.0000000E+00;  1.8958370E-01;  1.2658148E+03;
  8.8002706E-01;  9.9999998E-03;  1.0001061E-01;2413;  2.6731953E-02;  0.0000000E+00;  1.5713591E-02;  1.0082159E+03;  4.0345627E-01;  6.7988115E+03;3;  1.7390072E+01;  0.0000000E+00;  1.5825756E+01;0;  4.2694801E-01;  9.9955566E+03;  0.0000000E+00;  1.1150855E-07;  1.0000000E+04;  0.0000000E+00;  9.9960156E+03;  2.0242651E-01;  0.0000000E+00;  2.2452150E-01;  1.6035527E+03;
  8.8002759E-01;  9.9999998E-03;  1.2001527E-01;2414;  2.7486175E-02;  0.0000000E+00;  2.1647248E-02;  1.0081581E+03;  4.0345642E-01;  6.7509673E+03;3;  1.8113365E+01;  0.0000000E+00;  2.0404766E+01;0;  4.7194627E-01;  9.9954277E+03;  0.0000000E+00;  1.7977419E-07;  1.0000000E+04;  0.0000000E+00;  9.9949961E+03;  2.0997322E-01;  0.0000000E+00;  2.6197305E-01;  2.0509353E+03;
  8.8002831E-01;  9.9999998E-03;  1.4002071E-01;2415;  2.8495176E-02;  0.0000000E+00;  2.8344940E-02;  1.0080786E+03;  4.0345648E-01;  6.6851694E+03;3;  1.9021238E+01;  0.0000000E+00;  2.5219908E+01;0;  5.2104545E-01;  9.9952666E+03;  0.0000000E+00;  1.1217042E-08;  1.0000000E+04;  0.0000000E+00;  9.9935771E+03;  2.1935521E-01;  0.0000000E+00;  3.0169022E-01;  2.6919006E+03;
  9.0003121E-01;  9.9999998E-03; -2.6942473E-11;2439;  3.0304901E-02;  0.0000000E+00; -2.1126665E-08;  1.0078596E+03;  4.0323901E-01;  6.5013140E+03;3;  1.9114496E+01;  0.0000000E+00; -2.2166467E-05;0;  2.4545738E-01;  9.9968340E+03;  0.0000000E+00;  6.0572855E-17;  1.0000000E+04;  0.0000000E+00;  9.9984531E+03;  1.4027566E-01;  0.0000000E+00;  1.0518173E-01;  5.8161792E+02;
  9.0003121E-01;  9.9999998E-03;  2.0001078E-02;2440;  3.0355826E-02;  0.0000000E+00;  1.9511873E-03;  1.0078541E+03;  4.0323904E-01;  6.4967778E+03;3;  1.9178587E+01;  0.0000000E+00;  2.4773872E+00;0;  2.5128919E-01;  9.9968291E+03;  0.0000000E+00; -2.6412161E-10;  1.0000000E+04;  0.0000000E+00;  9.9983496E+03;  1.4074661E-01;  0.0000000E+00;  1.1054257E-01;  6.2408990E+02;
  9.0003133E-01;  9.9999998E-03;  4.0002361E-02;2441;  3.0513547E-02;  0.0000000E+00;  4.1177524E-03;  1.0078380E+03;  4.0323898E-01;  6.4834658E+03;3;  1.9372128E+01;  0.0000000E+00;  5.0457850E+00;0;  2.6820940E-01;  9.9968057E+03;  0.0000000E+00; -2.3074849E-09;  1.0000000E+04;  0.0000000E+00;  9.9980488E+03;  1.4218841E-01;  0.0000000E+00;  1.2602100E-01;  7.4749725E+02;
  9.0003151E-01;  9.9999998E-03;  6.0004096E-02;2442;  3.0794550E-02;  0.0000000E+00;  6.7771664E-03;  1.0078123E+03;  4.0323904E-01;  6.4621665E+03;3;  1.9702991E+01;  0.0000000E+00;  7.8524423E+00;0;  2.9452717E-01;  9.9967627E+03;  0.0000000E+00; -4.2974513E-09;  1.0000000E+04;  0.0000000E+00;  9.9975830E+03;  1.4468694E-01;  0.0000000E+00;  1.4984022E-01;  9.4113757E+02;
  9.0003175E-01;  9.9999998E-03;  8.0006562E-02;2443;  3.1231446E-02;  0.0000000E+00;  1.0253311E-02;  1.0077787E+03;  4.0323898E-01;  6.4344575E+03;3;  2.0185131E+01;  0.0000000E+00;  1.1088403E+01;0;  3.2779005E-01;  9.9967021E+03;  0.0000000E+00;  1.4004342E-08;  1.0000000E+04;  0.0000000E+00;  9.9969785E+03;  1.4838377E-01;  0.0000000E+00;  1.7940629E-01;  1.1939984E+03;
  9.0003216E-01;  9.9999998E-03;  1.0000999E-01;2444;  3.1870261E-02;  0.0000000E+00;  1.4791281E-02;  1.0077371E+03;  4.0323901E-01;  6.4000435E+03;3;  2.0842979E+01;  0.0000000E+00;  1.4890353E+01;0;  3.6581025E-01;  9.9966133E+03;  0.0000000E+00;  7.5659251E-08;  1.0000000E+04;  0.0000000E+00;  9.9962344E+03;  1.5347283E-01;  0.0000000E+00;  2.1233742E-01;  1.5100231E+03;
  9.0003282E-01;  9.9999998E-03;  1.2001439E-01;2445;  3.2762174E-02;  0.0000000E+00;  2.0390967E-02;  1.0076829E+03;  4.0323913E-01;  6.3551772E+03;3;  2.1697502E+01;  0.0000000E+00;  1.9217495E+01;0;  4.0779576E-01;  9.9964971E+03;  0.0000000E+00;  1.2806363E-07;  1.0000000E+04;  0.0000000E+00;  9.9952715E+03;  1.6017665E-01;  0.0000000E+00;  2.4761911E-01;  1.9286287E+03;
  9.0003365E-01;  9.9999998E-03;  1.4001952E-01;2446;  3.3951126E-02;  0.0000000E+00;  2.6713740E-02;  1.0076083E+03;  4.0323919E-01;  6.2934482E+03;3;  2.2767723E+01;  0.0000000E+00;  2.3774078E+01;0;  4.5371383E-01;  9.9963467E+03;  0.0000000E+00; -1.3158645E-07;  1.0000000E+04;  0.0000000E+00;  9.9939375E+03;  1.6867967E-01;  0.0000000E+00;  2.8503418E-01;  2.5287219E+03;
  9.2003369E-01;  9.9999998E-03; -4.4708399E-12;2470;  3.2408677E-02;  0.0000000E+00;  3.5045742E-09;  1.0072968E+03;  4.0298957E-01;  6.0324849E+03;3;  2.0287724E+01;  0.0000000E+00; -2.6360503E-06;0;  1.8897414E-01;  9.9979521E+03;  0.0000000E+00;  1.0615373E-15;  1.0000000E+04;  0.0000000E+00;  9.9985371E+03;  8.9969561E-02;  0.0000000E+00;  9.9004574E-02;  5.4983984E+02;
  9.2003369E-01;  9.9999998E-03;  2.0001037E-02;2471;  3.2482941E-02;  0.0000000E+00;  1.8469159E-03;  1.0072916E+03;  4.0298945E-01;  6.0281484E+03;3;  2.0373741E+01;  0.0000000E+00;  2.3139877E+00;0;  1.9430852E-01;  9.9979453E+03;  0.0000000E+00;  1.1960782E-09;  1.0000000E+04;  0.0000000E+00;  9.9984404E+03;  9.0336181E-02;  0.0000000E+00;  1.0397234E-01;  5.8881030E+02;
  9.2003387E-01;  9.9999998E-03;  4.0002253E-02;2472;  3.2712396E-02;  0.0000000E+00;  3.8840906E-03;  1.0072767E+03;  4.0298951E-01;  6.0159277E+03;3;  2.0629070E+01;  0.0000000E+00;  4.7081857E+00;0;  2.0978767E-01;  9.9979277E+03;  0.0000000E+00;  1.8177618E-09;  1.0000000E+04;  0.0000000E+00;  9.9981641E+03;  9.1462046E-02;  0.0000000E+00;  1.1832563E-01;  7.0212848E+02;
  9.2003411E-01;  9.9999998E-03;  6.0003877E-02;2473;  3.3118010E-02;  0.0000000E+00;  6.3635199E-03;  1.0072534E+03;  4.0298951E-01;  5.9966113E+03;3;  2.1067362E+01;  0.0000000E+00;  7.3150592E+00;0;  2.3386189E-01;  9.9978945E+03;  0.0000000E+00; -6.8760357E-09;  1.0000000E+04;  0.0000000E+00;  9.9977314E+03;  9.3425468E-02;  0.0000000E+00;  1.4043643E-01;  8.8014368E+02;
  9.2003453E-01;  9.9999998E-03;  8.0006167E-02;2474;  3.3735126E-02;  0.0000000E+00;  9.5871715E-03;  1.0072225E+03;  4.0298951E-01;  5.9710859E+03;3;  2.1705961E+01;  0.0000000E+00;  1.0311922E+01;0;  2.6426947E-01;  9.9978438E+03;  0.0000000E+00; -7.8534041E-09;  1.0000000E+04;  0.0000000E+00;  9.9971680E+03;  9.6362084E-02;  0.0000000E+00;  1.6790739E-01;  1.1128387E+03;
  9.2003512E-01;  9.9999998E-03;  1.0000934E-01;2475;  3.4589503E-02;  0.0000000E+00;  1.3791096E-02;  1.0071843E+03;  4.0298957E-01;  5.9394502E+03;3;  2.2533781E+01;  0.0000000E+00;  1.3842939E+01;0;  2.9898503E-01;  9.9977715E+03;  0.0000000E+00;  1.8526405E-08;  1.0000000E+04;  0.0000000E+00;  9.9964795E+03;  1.0047338E-01;  0.0000000E+00;  1.9851166E-01;  1.4037899E+03;
  9.2003590E-01;  9.9999998E-03;  1.2001342E-01;2476;  3.5722658E-02;  0.0000000E+00;  1.8991966E-02;  1.0071343E+03;  4.0298960E-01;  5.8981553E+03;3;  2.3587646E+01;  0.0000000E+00;  1.7875042E+01;0;  3.3730385E-01;  9.9976729E+03;  0.0000000E+00;  3.3568679E-08;  1.0000000E+04;  0.0000000E+00;  9.9955889E+03;  1.0602821E-01;  0.0000000E+00;  2.3127565E-01;  1.7892343E+03;
  9.2003697E-01;  9.9999998E-03;  1.4001819E-01;2477;  3.7177142E-02;  0.0000000E+00;  2.4875544E-02;  1.0070654E+03;  4.0298969E-01;  5.8411914E+03;3;  2.4878525E+01;  0.0000000E+00;  2.2127020E+01;0;  3.7934643E-01;  9.9975391E+03;  0.0000000E+00; -3.1632459E-07;  1.0000000E+04;  0.0000000E+00;  9.9943477E+03;  1.1333229E-01;  0.0000000E+00;  2.6601413E-01;  2.3422627E+03;
  9.4003391E-01;  9.9999998E-03;  6.5103877E-12;2501;  3.2517079E-02;  0.0000000E+00;  9.2834513E-09;  1.0066808E+03;  4.0271989E-01;  5.5190898E+03;3;  2.0384024E+01;  0.0000000E+00; -1.7230224E-05;0;  1.3556677E-01;  9.9990166E+03;  0.0000000E+00;  8.7875444E-16;  1.0000000E+04;  0.0000000E+00;  9.9986250E+03;  4.3076918E-02;  0.0000000E+00;  9.2489846E-02;  5.1623376E+02;
  9.4003397E-01;  9.9999998E-03;  2.0001011E-02;2502;  3.2598749E-02;  0.0000000E+00;  1.7473744E-03;  1.0066761E+03;  4.0271994E-01;  5.5153477E+03;3;  2.0465586E+01;  0.0000000E+00;  2.1361318E+00;0;  1.4033186E-01;  9.9990137E+03;  0.0000000E+00;  4.8770228E-09;  1.0000000E+04;  0.0000000E+00;  9.9985361E+03;  4.3306679E-02;  0.0000000E+00;  9.7025193E-02;  5.5135382E+02;
  9.4003415E-01;  9.9999998E-03;  4.0002175E-02;2503;  3.2851808E-02;  0.0000000E+00;  3.6575345E-03;  1.0066629E+03;  4.0271991E-01;  5.5043174E+03;3;  2.0728224E+01;  0.0000000E+00;  4.3404756E+00;0;  1.5416031E-01;  9.9990000E+03;  0.0000000E+00;  1.2596214E-08;  1.0000000E+04;  0.0000000E+00;  9.9982871E+03;  4.4021167E-02;  0.0000000E+00;  1.1013914E-01;  6.5357104E+02;
  9.4003445E-01;  9.9999998E-03;  6.0003687E-02;2504;  3.3305928E-02;  0.0000000E+00;  5.9546693E-03;  1.0066418E+03;  4.0271991E-01;  5.4869849E+03;3;  2.1204824E+01;  0.0000000E+00;  6.7395678E+00;0;  1.7566311E-01;  9.9989775E+03;  0.0000000E+00;  3.2585428E-09;  1.0000000E+04;  0.0000000E+00;  9.9978896E+03;  4.5297757E-02;  0.0000000E+00;  1.3036536E-01;  8.1438007E+02;
  9.4003487E-01;  9.9999998E-03;  8.0005795E-02;2505;  3.3978466E-02;  0.0000000E+00;  8.9104557E-03;  1.0066143E+03;  4.0271994E-01;  5.4641372E+03;3;  2.1841946E+01;  0.0000000E+00;  9.4854927E+00;0;  2.0279682E-01;  9.9989424E+03;  0.0000000E+00; -1.6163893E-08;  1.0000000E+04;  0.0000000E+00;  9.9973750E+03;  4.7274768E-02;  0.0000000E+00;  1.5552205E-01;  1.0248763E+03;
  9.4003558E-01;  9.9999998E-03;  1.0000870E-01;2506;  3.4908853E-02;  0.0000000E+00;  1.2757577E-02;  1.0065798E+03;  4.0271991E-01;  5.4357744E+03;3;  2.2702938E+01;  0.0000000E+00;  1.2730119E+01;0;  2.3372330E-01;  9.9988887E+03;  0.0000000E+00; -1.9594264E-08;  1.0000000E+04;  0.0000000E+00;  9.9967461E+03;  5.0168622E-02;  0.0000000E+00;  1.8355468E-01;  1.2882917E+03;
  9.4003648E-01;  9.9999998E-03;  1.2001243E-01;2507;  3.6139835E-02;  0.0000000E+00;  1.7520834E-02;  1.0065350E+03;  4.0271997E-01;  5.3986465E+03;3;  2.3812586E+01;  0.0000000E+00;  1.6427872E+01;0;  2.6784128E-01;  9.9988135E+03;  0.0000000E+00; -2.9219379E-08;  1.0000000E+04;  0.0000000E+00;  9.9959277E+03;  5.4297149E-02;  0.0000000E+00;  2.1354415E-01;  1.6374642E+03;
  9.4003767E-01;  9.9999998E-03;  1.4001681E-01;2508;  3.7729502E-02;  0.0000000E+00;  2.2920474E-02;  1.0064724E+03;  4.0272000E-01;  5.3469434E+03;3;  2.5174660E+01;  0.0000000E+00;  2.0342937E+01;0;  3.0543235E-01;  9.9987031E+03;  0.0000000E+00; -3.5095096E-07;  1.0000000E+04;  0.0000000E+00;  9.9947930E+03;  6.0090818E-02;  0.0000000E+00;  2.4534152E-01;  2.1391316E+03;
  9.6003342E-01;  9.9999998E-03; -6.6968978E-12;2532;  3.2044318E-02;  0.0000000E+00;  5.3554974E-09;  1.0060350E+03;  4.0244183E-01;  4.9806729E+03;3;  2.0120428E+01;  0.0000000E+00;  1.4980033E-05;0;  9.0555824E-02;  9.9999072E+03;  0.0000000E+00;  1.9548752E-15;  1.0000000E+04;  0.0000000E+00;  9.9987139E+03;  4.6893149E-03;  0.0000000E+00;  8.5866511E-02;  4.8127643E+02;
  9.6003342E-01;  9.9999998E-03;  2.0000955E-02;2533;  3.2125864E-02;  0.0000000E+00;  1.6152889E-03;  1.0060311E+03;  4.0244177E-01;  4.9774258E+03;3;  2.0211300E+01;  0.0000000E+00;  1.9423887E+00;0;  9.4723068E-02;  9.9999033E+03;  0.0000000E+00;  7.4422379E-09;  1.0000000E+04;  0.0000000E+00;  9.9986357E+03;  4.7771288E-03;  0.0000000E+00;  8.9945942E-02;  5.1235205E+02;
  9.6003360E-01;  9.9999998E-03;  4.0002044E-02;2534;  3.2377366E-02;  0.0000000E+00;  3.3770225E-03;  1.0060194E+03;  4.0244189E-01;  4.9677842E+03;3;  2.0478081E+01;  0.0000000E+00;  3.9564126E+00;0;  1.0681811E-01;  9.9998984E+03;  0.0000000E+00;  2.0593333E-08;  1.0000000E+04;  0.0000000E+00;  9.9984102E+03;  5.0664884E-03;  0.0000000E+00;  1.0175162E-01;  6.0289026E+02;
  9.6003389E-01;  9.9999998E-03;  6.0003445E-02;2535;  3.2819532E-02;  0.0000000E+00;  5.4859906E-03;  1.0060008E+03;  4.0244186E-01;  4.9524365E+03;3;  2.0928858E+01;  0.0000000E+00;  6.1453533E+00;0;  1.2562165E-01;  9.9998877E+03;  0.0000000E+00;  1.4882431E-08;  1.0000000E+04;  0.0000000E+00;  9.9980508E+03;  5.6370664E-03;  0.0000000E+00;  1.1998458E-01;  7.4556750E+02;
  9.6003437E-01;  9.9999998E-03;  8.0005370E-02;2536;  3.3488281E-02;  0.0000000E+00;  8.1855739E-03;  1.0059767E+03;  4.0244183E-01;  4.9326611E+03;3;  2.1597065E+01;  0.0000000E+00;  8.6462669E+00;0;  1.4932284E-01;  9.9998672E+03;  0.0000000E+00; -1.1356533E-08;  1.0000000E+04;  0.0000000E+00;  9.9975889E+03;  6.6316240E-03;  0.0000000E+00;  1.4269121E-01;  9.3267932E+02;
  9.6003503E-01;  9.9999998E-03;  1.0000801E-01;2537;  3.4436516E-02;  0.0000000E+00;  1.1679942E-02;  1.0059465E+03;  4.0244192E-01;  4.9076714E+03;3;  2.2500908E+01;  0.0000000E+00;  1.1576345E+01;0;  1.7628618E-01;  9.9998379E+03;  0.0000000E+00; -3.3792805E-08;  1.0000000E+04;  0.0000000E+00;  9.9970186E+03;  8.2789399E-03;  0.0000000E+00;  1.6800724E-01;  1.1672235E+03;
  9.6003598E-01;  9.9999998E-03;  1.2001140E-01;2538;  3.5689633E-02;  0.0000000E+00;  1.6001256E-02;  1.0059067E+03;  4.0244183E-01;  4.8748110E+03;3;  2.3599920E+01;  0.0000000E+00;  1.4949884E+01;0;  2.0602915E-01;  9.9997861E+03;  0.0000000E+00; -3.3825955E-08;  1.0000000E+04;  0.0000000E+00;  9.9962822E+03;  1.0939457E-02;  0.0000000E+00;  1.9508968E-01;  1.4786517E+03;
  9.6003723E-01;  9.9999998E-03;  1.4001538E-01;2539;  3.7315141E-02;  0.0000000E+00;  2.0901484E-02;  1.0058508E+03;  4.0244195E-01;  4.8286689E+03;3;  2.4970148E+01;  0.0000000E+00;  1.8512262E+01;0;  2.3899476E-01;  9.9997021E+03;  0.0000000E+00; -2.1308719E-07;  1.0000000E+04;  0.0000000E+00;  9.9952490E+03;  1.5160565E-02;  0.0000000E+00;  2.2383420E-01;  1.9270872E+03;
  9.8003256E-01;  9.9999998E-03;  2.2503663E-12;2563;  3.1295180E-02;  0.0000000E+00;  9.3955617E-09;  1.0053839E+03;  4.0216610E-01;  4.4374741E+03;3;  1.9698704E+01;  0.0000000E+00;  1.7601065E-05;0;  5.5875838E-02;  1.0000577E+04;  0.0000000E+00;  1.1516437E-15;  1.0000000E+04;  0.0000000E+00;  9.9988018E+03; -2.3471443E-02;  0.0000000E+00;  7.9347283E-02;  4.4551807E+02;
  9.8003256E-01;  9.9999998E-03;  2.0000903E-02;2564;  3.1368814E-02;  0.0000000E+00;  1.4858381E-03;  1.0053803E+03;  4.0216610E-01;  4.4344282E+03;3;  1.9791285E+01;  0.0000000E+00;  1.7269704E+00;0;  5.9462231E-02;  1.0000577E+04;  0.0000000E+00;  9.5900337E-09;  1.0000000E+04;  0.0000000E+00;  9.9987305E+03; -2.3499381E-02;  0.0000000E+00;  8.2961611E-02;  4.7249936E+02;
  9.8003274E-01;  9.9999998E-03;  4.0001918E-02;2565;  3.1595647E-02;  0.0000000E+00;  3.0977293E-03;  1.0053702E+03;  4.0216601E-01;  4.4261753E+03;3;  2.0046480E+01;  0.0000000E+00;  3.5404372E+00;0;  6.9873065E-02;  1.0000576E+04;  0.0000000E+00;  2.5016877E-08;  1.0000000E+04;  0.0000000E+00;  9.9985303E+03; -2.3557048E-02;  0.0000000E+00;  9.3430109E-02;  5.5118872E+02;
  9.8003298E-01;  9.9999998E-03;  6.0003199E-02;2566;  3.1995628E-02;  0.0000000E+00;  5.0145192E-03;  1.0053544E+03;  4.0216604E-01;  4.4131074E+03;3;  2.0463192E+01;  0.0000000E+00;  5.5368180E+00;0;  8.6060584E-02;  1.0000575E+04;  0.0000000E+00;  2.2856014E-08;  1.0000000E+04;  0.0000000E+00;  9.9982148E+03; -2.3563448E-02;  0.0000000E+00;  1.0962404E-01;  6.7544727E+02;
  9.8003340E-01;  9.9999998E-03;  8.0004945E-02;2567;  3.2613005E-02;  0.0000000E+00;  7.4619586E-03;  1.0053334E+03;  4.0216610E-01;  4.3958149E+03;3;  2.1104242E+01;  0.0000000E+00;  7.8123469E+00;0;  1.0645382E-01;  1.0000571E+04;  0.0000000E+00; -9.8006074E-09;  1.0000000E+04;  0.0000000E+00;  9.9978027E+03; -2.3375306E-02;  0.0000000E+00;  1.2982912E-01;  8.3887256E+02;
  9.8003405E-01;  9.9999998E-03;  1.0000733E-01;2568;  3.3522654E-02;  0.0000000E+00;  1.0612894E-02;  1.0053069E+03;  4.0216607E-01;  4.3739043E+03;3;  2.1994928E+01;  0.0000000E+00;  1.0462152E+01;0;  1.2963815E-01;  1.0000557E+04;  0.0000000E+00; -5.6431990E-08;  1.0000000E+04;  0.0000000E+00;  9.9972920E+03; -2.2758646E-02;  0.0000000E+00;  1.5239680E-01;  1.0444735E+03;
  9.8003495E-01;  9.9999998E-03;  1.2001037E-01;2569;  3.4771699E-02;  0.0000000E+00;  1.4494238E-02;  1.0052723E+03;  4.0216616E-01;  4.3454111E+03;3;  2.3123104E+01;  0.0000000E+00;  1.3481554E+01;0;  1.5526858E-01;  1.0000525E+04;  0.0000000E+00; -5.3093515E-08;  1.0000000E+04;  0.0000000E+00;  9.9966338E+03; -2.1319561E-02;  0.0000000E+00;  1.7658815E-01;  1.3185732E+03;
  9.8003620E-01;  9.9999998E-03;  1.4001393E-01;2570;  3.6396001E-02;  0.0000000E+00;  1.8894373E-02;  1.0052227E+03;  4.0216616E-01;  4.3045371E+03;3;  2.4479176E+01;  0.0000000E+00;  1.6695169E+01;0;  1.8394470E-01;  1.0000464E+04;  0.0000000E+00; -1.6823570E-08;  1.0000000E+04;  0.0000000E+00;  9.9957061E+03; -1.8406071E-02;  0.0000000E+00;  2.0235077E-01;  1.7146388E+03;
  1.0000315E+00;  9.9999998E-03; -2.2549636E-12;2594;  3.0331330E-02;  0.0000000E+00; -2.6132030E-09;  1.0047505E+03;  4.0190178E-01;  3.9083481E+03;3;  1.9248100E+01;  0.0000000E+00;  9.0198882E-06;0;  3.0684084E-02;  1.0001046E+04;  0.0000000E+00;  1.5465853E-16;  1.0000000E+04;  0.0000000E+00;  9.9988838E+03; -4.2421877E-02;  0.0000000E+00;  7.3105961E-02;  4.0954367E+02;
  1.0000315E+00;  9.9999998E-03;  2.0000860E-02;2595;  3.0396111E-02;  0.0000000E+00;  1.3832025E-03;  1.0047476E+03;  4.0190172E-01;  3.9059944E+03;3;  1.9292372E+01;  0.0000000E+00;  1.5736388E+00;0;  3.3737943E-02;  1.0001048E+04;  0.0000000E+00;  9.1890318E-09;  1.0000000E+04;  0.0000000E+00;  9.9988223E+03; -4.2521141E-02;  0.0000000E+00;  7.6259084E-02;  4.3250507E+02;
  1.0000316E+00;  9.9999998E-03;  4.0001821E-02;2596;  3.0604519E-02;  0.0000000E+00;  2.8683909E-03;  1.0047390E+03;  4.0190169E-01;  3.8988345E+03;3;  1.9533115E+01;  0.0000000E+00;  3.1786366E+00;0;  4.2605877E-02;  1.0001050E+04;  0.0000000E+00;  2.7552710E-08;  1.0000000E+04;  0.0000000E+00;  9.9986465E+03; -4.2793326E-02;  0.0000000E+00;  8.5399203E-02;  4.9954987E+02;
  1.0000318E+00;  9.9999998E-03;  6.0003001E-02;2597;  3.0984797E-02;  0.0000000E+00;  4.5985337E-03;  1.0047253E+03;  4.0190169E-01;  3.8876538E+03;3;  1.9953098E+01;  0.0000000E+00;  4.9349031E+00;0;  5.6405813E-02;  1.0001053E+04;  0.0000000E+00;  3.1228655E-08;  1.0000000E+04;  0.0000000E+00;  9.9983691E+03; -4.3159522E-02;  0.0000000E+00;  9.9565335E-02;  6.0571259E+02;
  1.0000322E+00;  9.9999998E-03;  8.0004573E-02;2598;  3.1569343E-02;  0.0000000E+00;  6.7858952E-03;  1.0047072E+03;  4.0190169E-01;  3.8727458E+03;3;  2.0549246E+01;  0.0000000E+00;  6.9966254E+00;0;  7.3821947E-02;  1.0001056E+04;  0.0000000E+00; -1.2252888E-08;  1.0000000E+04;  0.0000000E+00;  9.9980078E+03; -4.3477181E-02;  0.0000000E+00;  1.1729912E-01;  7.4604065E+02;
  1.0000328E+00;  9.9999998E-03;  1.0000669E-01;2599;  3.2413840E-02;  0.0000000E+00;  9.6125696E-03;  1.0046843E+03;  4.0190175E-01;  3.8539153E+03;3;  2.1353909E+01;  0.0000000E+00;  9.4231825E+00;0;  9.3697943E-02;  1.0001053E+04;  0.0000000E+00; -1.0887981E-07;  1.0000000E+04;  0.0000000E+00;  9.9975586E+03; -4.3506093E-02;  0.0000000E+00;  1.3720404E-01;  9.2395239E+02;
  1.0000337E+00;  9.9999998E-03;  1.2000941E-01;2600;  3.3597678E-02;  0.0000000E+00;  1.3090377E-02;  1.0046538E+03;  4.0190169E-01;  3.8288071E+03;3;  2.2430506E+01;  0.0000000E+00;  1.2157007E+01;0;  1.1585642E-01;  1.0001035E+04;  0.0000000E+00; -1.9750625E-07;  1.0000000E+04;  0.0000000E+00;  9.9969688E+03; -4.2824928E-02;  0.0000000E+00;  1.5868135E-01;  1.1631025E+03;
  1.0000349E+00;  9.9999998E-03;  1.4001259E-01;2601;  3.5190344E-02;  0.0000000E+00;  1.7007574E-02;  1.0046094E+03;  4.0190169E-01;  3.7923223E+03;3;  2.3794628E+01;  0.0000000E+00;  1.5012202E+01;0;  1.4103326E-01;  1.0000983E+04;  0.0000000E+00; -1.2343646E-07;  1.0000000E+04;  0.0000000E+00;  9.9961348E+03; -4.0695529E-02;  0.0000000E+00;  1.8172880E-01;  1.5104122E+03;
  1.0200301E+00;  9.9999998E-03;  3.0697641E-12;2625;  2.9154861E-02;  0.0000000E+00;  1.5271642E-09;  1.0041556E+03;  4.0165594E-01;  3.4107363E+03;3;  1.8583445E+01;  0.0000000E+00; -7.3170813E-06;0;  1.2834594E-02;  1.0001354E+04;  0.0000000E+00; -5.1660995E-16;  1.0000000E+04;  0.0000000E+00;  9.9989609E+03; -5.4414831E-02;  0.0000000E+00;  6.7249425E-02;  3.7377505E+02;
  1.0200301E+00;  9.9999998E-03;  2.0000819E-02;2626;  2.9224394E-02;  0.0000000E+00;  1.2856157E-03;  1.0041531E+03;  4.0165597E-01;  3.4086816E+03;3;  1.8685926E+01;  0.0000000E+00;  1.4418333E+00;0;  1.5418965E-02;  1.0001354E+04;  0.0000000E+00;  1.1045397E-08;  1.0000000E+04;  0.0000000E+00;  9.9989072E+03; -5.4538246E-02;  0.0000000E+00;  6.9957212E-02;  3.9289758E+02;
  1.0200303E+00;  9.9999998E-03;  4.0001728E-02;2627;  2.9421886E-02;  0.0000000E+00;  2.6664480E-03;  1.0041457E+03;  4.0165597E-01;  3.4026155E+03;3;  1.8913090E+01;  0.0000000E+00;  2.9014821E+00;0;  2.2928789E-02;  1.0001358E+04;  0.0000000E+00;  3.4219664E-08;  1.0000000E+04;  0.0000000E+00;  9.9987568E+03; -5.4884344E-02;  0.0000000E+00;  7.7813134E-02;  4.4883438E+02;
  1.0200305E+00;  9.9999998E-03;  6.0002830E-02;2628;  2.9765679E-02;  0.0000000E+00;  4.2555020E-03;  1.0041340E+03;  4.0165594E-01;  3.3930269E+03;3;  1.9291376E+01;  0.0000000E+00;  4.4692430E+00;0;  3.4644905E-02;  1.0001365E+04;  0.0000000E+00;  4.4808932E-08;  1.0000000E+04;  0.0000000E+00;  9.9985176E+03; -5.5376623E-02;  0.0000000E+00;  9.0021528E-02;  5.3781787E+02;
  1.0200309E+00;  9.9999998E-03;  8.0004252E-02;2629;  3.0309543E-02;  0.0000000E+00;  6.2149460E-03;  1.0041183E+03;  4.0165600E-01;  3.3801118E+03;3;  1.9870686E+01;  0.0000000E+00;  6.2789383E+00;0;  4.9529195E-02;  1.0001370E+04;  0.0000000E+00; -1.9275390E-08;  1.0000000E+04;  0.0000000E+00;  9.9982031E+03; -5.5869341E-02;  0.0000000E+00;  1.0539854E-01;  6.5655603E+02;
  1.0200313E+00;  9.9999998E-03;  1.0000613E-01;2630;  3.1114113E-02;  0.0000000E+00;  8.7076621E-03;  1.0040982E+03;  4.0165594E-01;  3.3635764E+03;3;  2.0660482E+01;  0.0000000E+00;  8.4218645E+00;0;  6.6739753E-02;  1.0001365E+04;  0.0000000E+00; -2.2871454E-07;  1.0000000E+04;  0.0000000E+00;  9.9978037E+03; -5.6106355E-02;  0.0000000E+00;  1.2284611E-01;  8.0935089E+02;
  1.0200323E+00;  9.9999998E-03;  1.2000853E-01;2631;  3.2265559E-02;  0.0000000E+00;  1.1774288E-02;  1.0040706E+03;  4.0165594E-01;  3.3409749E+03;3;  2.1700464E+01;  0.0000000E+00;  1.0878292E+01;0;  8.6310543E-02;  1.0001347E+04;  0.0000000E+00; -5.9296929E-07;  1.0000000E+04;  0.0000000E+00;  9.9972705E+03; -5.5632584E-02;  0.0000000E+00;  1.4194313E-01;  1.0177482E+03;
  1.0200335E+00;  9.9999998E-03;  1.4001133E-01;2632;  3.3842787E-02;  0.0000000E+00;  1.5227847E-02;  1.0040301E+03;  4.0165597E-01;  3.3077083E+03;3;  2.3047031E+01;  0.0000000E+00;  1.3432163E+01;0;  1.0907941E-01;  1.0001295E+04;  0.0000000E+00; -8.3045586E-07;  1.0000000E+04;  0.0000000E+00;  9.9965186E+03; -5.3645771E-02;  0.0000000E+00;  1.6272518E-01;  1.3222552E+03;
  1.0400286E+00;  9.9999998E-03;  3.2702142E-12;2656;  2.7802305E-02;  0.0000000E+00;  4.9695665E-09;  1.0036130E+03;  4.0143359E-01;  2.9558389E+03;3;  1.7871681E+01;  0.0000000E+00;  1.0706106E-05;0;  2.0913407E-04;  1.0001546E+04;  0.0000000E+00;  7.5816438E-18;  1.0000000E+04;  0.0000000E+00;  9.9990342E+03; -6.1601266E-02;  0.0000000E+00;  6.1810400E-02;  3.3836240E+02;
  1.0400286E+00;  9.9999998E-03;  2.0000778E-02;2657;  2.7859624E-02;  0.0000000E+00;  1.1899781E-03;  1.0036109E+03;  4.0143365E-01;  2.9540835E+03;3;  1.7940683E+01;  0.0000000E+00;  1.2996885E+00;0;  2.3894943E-03;  1.0001545E+04;  0.0000000E+00;  1.4751248E-08;  1.0000000E+04;  0.0000000E+00;  9.9989893E+03; -6.1708268E-02;  0.0000000E+00;  6.4097762E-02;  3.5392130E+02;
  1.0400287E+00;  9.9999998E-03;  4.0001638E-02;2658;  2.8043643E-02;  0.0000000E+00;  2.4757653E-03;  1.0036046E+03;  4.0143365E-01;  2.9490122E+03;3;  1.8177790E+01;  0.0000000E+00;  2.6429319E+00;0;  8.7386295E-03;  1.0001547E+04;  0.0000000E+00;  4.9800615E-08;  1.0000000E+04;  0.0000000E+00;  9.9988633E+03; -6.2006228E-02;  0.0000000E+00;  7.0744857E-02;  3.9959384E+02;
  1.0400288E+00;  9.9999998E-03;  6.0002666E-02;2659;  2.8366802E-02;  0.0000000E+00;  3.9427583E-03;  1.0035944E+03;  4.0143371E-01;  2.9406245E+03;3;  1.8548948E+01;  0.0000000E+00;  4.0534143E+00;0;  1.8708572E-02;  1.0001550E+04;  0.0000000E+00;  6.8993337E-08;  1.0000000E+04;  0.0000000E+00;  9.9986553E+03; -6.2418461E-02;  0.0000000E+00;  8.1127033E-02;  4.7290143E+02;
  1.0400292E+00;  9.9999998E-03;  8.0003962E-02;2660;  2.8875167E-02;  0.0000000E+00;  5.7107247E-03;  1.0035806E+03;  4.0143362E-01;  2.9293115E+03;3;  1.9097946E+01;  0.0000000E+00;  5.6686525E+00;0;  3.1569287E-02;  1.0001551E+04;  0.0000000E+00; -3.4304428E-08;  1.0000000E+04;  0.0000000E+00;  9.9983789E+03; -6.2788405E-02;  0.0000000E+00;  9.4357692E-02;  5.7246411E+02;
  1.0400298E+00;  9.9999998E-03;  1.0000563E-01;2661;  2.9649917E-02;  0.0000000E+00;  7.9126311E-03;  1.0035623E+03;  4.0143362E-01;  2.9143896E+03;3;  1.9862007E+01;  0.0000000E+00;  7.5527101E+00;0;  4.6850860E-02;  1.0001542E+04;  0.0000000E+00; -4.4865226E-07;  1.0000000E+04;  0.0000000E+00;  9.9980225E+03; -6.2826678E-02;  0.0000000E+00;  1.0967754E-01;  7.0391595E+02;
  1.0400306E+00;  9.9999998E-03;  1.2000773E-01;2662;  3.0769372E-02;  0.0000000E+00;  1.0578625E-02;  1.0035366E+03;  4.0143368E-01;  2.8933232E+03;3;  2.0872749E+01;  0.0000000E+00;  9.6930895E+00;0;  6.4841099E-02;  1.0001514E+04;  0.0000000E+00; -1.3774202E-06;  1.0000000E+04;  0.0000000E+00;  9.9975361E+03; -6.2025644E-02;  0.0000000E+00;  1.2686674E-01;  8.8713593E+02;
  1.0400318E+00;  9.9999998E-03;  1.4001018E-01;2663;  3.2344863E-02;  0.0000000E+00;  1.3593317E-02;  1.0034983E+03;  4.0143362E-01;  2.8620166E+03;3;  2.2225441E+01;  0.0000000E+00;  1.1967225E+01;0;  8.6421385E-02;  1.0001448E+04;  0.0000000E+00; -2.4798444E-06;  1.0000000E+04;  0.0000000E+00;  9.9968428E+03; -5.9549898E-02;  0.0000000E+00;  1.4597128E-01;  1.1562235E+03;
  1.0600268E+00;  9.9999998E-03;  2.3425428E-12;2687;  2.6309304E-02;  0.0000000E+00;  4.1222656E-09;  1.0031324E+03;  4.0123788E-01;  2.5517314E+03;3;  1.7113722E+01;  0.0000000E+00;  2.0407679E-05;0; -8.5813105E-03;  1.0001646E+04;  0.0000000E+00;  5.7383973E-16;  1.0000000E+04;  0.0000000E+00;  9.9991016E+03; -6.5336712E-02;  0.0000000E+00;  5.6755401E-02;  3.0321707E+02;
  1.0600268E+00;  9.9999998E-03;  2.0000739E-02;2688;  2.6362872E-02;  0.0000000E+00;  1.1064711E-03;  1.0031306E+03;  4.0123791E-01;  2.5501777E+03;3;  1.7178555E+01;  0.0000000E+00;  1.1790670E+00;0; -6.7399330E-03;  1.0001646E+04;  0.0000000E+00;  2.1191866E-08;  1.0000000E+04;  0.0000000E+00;  9.9990635E+03; -6.5396726E-02;  0.0000000E+00;  5.8656793E-02;  3.1559268E+02;
  1.0600269E+00;  9.9999998E-03;  4.0001549E-02;2689;  2.6533246E-02;  0.0000000E+00;  2.2987281E-03;  1.0031251E+03;  4.0123796E-01;  2.5457107E+03;3;  1.7391087E+01;  0.0000000E+00;  2.4060788E+00;0; -1.3478547E-03;  1.0001647E+04;  0.0000000E+00;  6.9913732E-08;  1.0000000E+04;  0.0000000E+00;  9.9989570E+03; -6.5552346E-02;  0.0000000E+00;  6.4204492E-02;  3.5218283E+02;
  1.0600271E+00;  9.9999998E-03;  6.0002510E-02;2690;  2.6835771E-02;  0.0000000E+00;  3.6580402E-03;  1.0031161E+03;  4.0123799E-01;  2.5384275E+03;3;  1.7726423E+01;  0.0000000E+00;  3.7029800E+00;0;  7.2425529E-03;  1.0001643E+04;  0.0000000E+00;  8.6491184E-08;  1.0000000E+04;  0.0000000E+00;  9.9987813E+03; -6.5719061E-02;  0.0000000E+00;  7.2961614E-02;  4.1192856E+02;
  1.0600274E+00;  9.9999998E-03;  8.0003701E-02;2691;  2.7318671E-02;  0.0000000E+00;  5.2569625E-03;  1.0031036E+03;  4.0123799E-01;  2.5282307E+03;3;  1.8257624E+01;  0.0000000E+00;  5.1268144E+00;0;  1.8650651E-02;  1.0001635E+04;  0.0000000E+00; -1.0628586E-07;  1.0000000E+04;  0.0000000E+00;  9.9985391E+03; -6.5711945E-02;  0.0000000E+00;  8.4362596E-02;  4.9557962E+02;
  1.0600280E+00;  9.9999998E-03;  1.0000519E-01;2692;  2.8068457E-02;  0.0000000E+00;  7.2028004E-03;  1.0030861E+03;  4.0123796E-01;  2.5139553E+03;3;  1.8996506E+01;  0.0000000E+00;  6.7991796E+00;0;  3.2823280E-02;  1.0001609E+04;  0.0000000E+00; -9.1034065E-07;  1.0000000E+04;  0.0000000E+00;  9.9982109E+03; -6.5183096E-02;  0.0000000E+00;  9.8006375E-02;  6.1033893E+02;
  1.0600288E+00;  9.9999998E-03;  1.2000701E-01;2693;  2.9178757E-02;  0.0000000E+00;  9.5114596E-03;  1.0030605E+03;  4.0123793E-01;  2.4930767E+03;3;  2.0008160E+01;  0.0000000E+00;  8.6627684E+00;0;  5.0303198E-02;  1.0001563E+04;  0.0000000E+00; -2.7754966E-06;  1.0000000E+04;  0.0000000E+00;  9.9977529E+03; -6.3563578E-02;  0.0000000E+00;  1.1386678E-01;  7.7452301E+02;
  1.0600300E+00;  9.9999998E-03;  1.4000912E-01;2694;  3.0741863E-02;  0.0000000E+00;  1.2089162E-02;  1.0030229E+03;  4.0123799E-01;  2.4624863E+03;3;  2.1342854E+01;  0.0000000E+00;  1.0582299E+01;0;  7.1894765E-02;  1.0001470E+04;  0.0000000E+00; -2.0085936E-05;  1.0000000E+04;  0.0000000E+00;  9.9970938E+03; -6.0054783E-02;  0.0000000E+00;  1.3194954E-01;  1.0155994E+03;
  1.0800250E+00;  9.9999998E-03; -1.8652833E-12;2718;  2.4750836E-02;  0.0000000E+00; -2.9114151E-09;  1.0027169E+03;  4.0106997E-01;  2.2006196E+03;3;  1.6336088E+01;  0.0000000E+00; -5.8902078E-06;0; -1.4160413E-02;  1.0001675E+04;  0.0000000E+00;  1.2698426E-15;  1.0000000E+04;  0.0000000E+00;  9.9991660E+03; -6.6173911E-02;  0.0000000E+00;  5.2013498E-02;  2.6823999E+02;
  1.0800250E+00;  9.9999998E-03;  2.0000705E-02;2719;  2.4802864E-02;  0.0000000E+00;  1.0303648E-03;  1.0027154E+03;  4.0106994E-01;  2.1993643E+03;3;  1.6399652E+01;  0.0000000E+00;  1.0677584E+00;0; -1.2583338E-02;  1.0001672E+04;  0.0000000E+00;  2.4698865E-08;  1.0000000E+04;  0.0000000E+00;  9.9991367E+03; -6.6162385E-02;  0.0000000E+00;  5.3579047E-02;  2.7795224E+02;
  1.0800251E+00;  9.9999998E-03;  4.0001471E-02;2720;  2.4965288E-02;  0.0000000E+00;  2.1391043E-03;  1.0027104E+03;  4.0107000E-01;  2.1954050E+03;3;  1.6589785E+01;  0.0000000E+00;  2.1940224E+00;0; -7.9087280E-03;  1.0001666E+04;  0.0000000E+00;  7.6273345E-08;  1.0000000E+04;  0.0000000E+00;  9.9990449E+03; -6.6095486E-02;  0.0000000E+00;  5.8186758E-02;  3.0705765E+02;
  1.0800252E+00;  9.9999998E-03;  6.0002368E-02;2721;  2.5262155E-02;  0.0000000E+00;  3.3946317E-03;  1.0027020E+03;  4.0106988E-01;  2.1885496E+03;3;  1.6911488E+01;  0.0000000E+00;  3.3939338E+00;0; -2.4998188E-04;  1.0001652E+04;  0.0000000E+00;  4.6409465E-08;  1.0000000E+04;  0.0000000E+00;  9.9988916E+03; -6.5859079E-02;  0.0000000E+00;  6.5609097E-02;  3.5600128E+02;
  1.0800256E+00;  9.9999998E-03;  8.0003448E-02;2722;  2.5731748E-02;  0.0000000E+00;  4.8463903E-03;  1.0026898E+03;  4.0106997E-01;  2.1786040E+03;3;  1.7376961E+01;  0.0000000E+00;  4.6615949E+00;0;  1.0403603E-02;  1.0001627E+04;  0.0000000E+00; -3.8386787E-07;  1.0000000E+04;  0.0000000E+00;  9.9986699E+03; -6.5208748E-02;  0.0000000E+00;  7.5612351E-02;  4.2767374E+02;
  1.0800261E+00;  9.9999998E-03;  1.0000477E-01;2723;  2.6466534E-02;  0.0000000E+00;  6.5505067E-03;  1.0026718E+03;  4.0106991E-01;  2.1641201E+03;3;  1.8124123E+01;  0.0000000E+00;  6.1293616E+00;0;  2.4410985E-02;  1.0001583E+04;  0.0000000E+00; -1.8917220E-06;  1.0000000E+04;  0.0000000E+00;  9.9983574E+03; -6.3723698E-02;  0.0000000E+00;  8.8134684E-02;  5.3065405E+02;
  1.0800270E+00;  9.9999998E-03;  1.2000635E-01;2724;  2.7580641E-02;  0.0000000E+00;  8.5477438E-03;  1.0026452E+03;  4.0107000E-01;  2.1425874E+03;3;  1.9130232E+01;  0.0000000E+00;  7.7420802E+00;0;  4.2479072E-02;  1.0001501E+04;  0.0000000E+00; -5.1390575E-06;  1.0000000E+04;  0.0000000E+00;  9.9979082E+03; -6.0814712E-02;  0.0000000E+00;  1.0329378E-01;  6.8134845E+02;
  1.0800282E+00;  9.9999998E-03;  1.4000812E-01;2725;  2.9133303E-02;  0.0000000E+00;  1.0697154E-02;  1.0026069E+03;  4.0107000E-01;  2.1114954E+03;3;  2.0484768E+01;  0.0000000E+00;  9.3451719E+00;0;  6.5017194E-02;  1.0001376E+04;  0.0000000E+00; -3.1865880E-04;  1.0000000E+04;  0.0000000E+00;  9.9972676E+03; -5.5952899E-02;  0.0000000E+00;  1.2097009E-01;  8.9988257E+02;
  1.1000230E+00;  9.9999998E-03; -1.8175911E-13;2748;  2.3201471E-02;  0.0000000E+00; -2.4564425E-10;  1.0023649E+03;  4.0092883E-01;  1.9010950E+03;3;  1.5562884E+01;  0.0000000E+00;  6.7405927E-07;0; -1.6658820E-02;  1.0001624E+04;  0.0000000E+00; -1.1792814E-15;  1.0000000E+04;  0.0000000E+00;  9.9992314E+03; -6.4203687E-02;  0.0000000E+00;  4.7544867E-02;  2.3377689E+02;
  1.1000232E+00;  9.9999998E-03;  2.0000674E-02;2749;  2.3254521E-02;  0.0000000E+00;  9.6439390E-04;  1.0023633E+03;  4.0092885E-01;  1.8998491E+03;3;  1.5621203E+01;  0.0000000E+00;  9.7604167E-01;0; -1.5233710E-02;  1.0001619E+04;  0.0000000E+00;  1.4865948E-08;  1.0000000E+04;  0.0000000E+00;  9.9992041E+03; -6.4084031E-02;  0.0000000E+00;  4.8850320E-02;  2.4150873E+02;
  1.1000233E+00;  9.9999998E-03;  4.0001400E-02;2750;  2.3418469E-02;  0.0000000E+00;  1.9936960E-03;  1.0023587E+03;  4.0092888E-01;  1.8961115E+03;3;  1.5799870E+01;  0.0000000E+00;  1.9948239E+00;0; -1.0919705E-02;  1.0001606E+04;  0.0000000E+00;  1.4931297E-08;  1.0000000E+04;  0.0000000E+00;  9.9991230E+03; -6.3671730E-02;  0.0000000E+00;  5.2752025E-02;  2.6516101E+02;
  1.1000234E+00;  9.9999998E-03;  6.0002234E-02;2751;  2.3719853E-02;  0.0000000E+00;  3.1478563E-03;  1.0023502E+03;  4.0092885E-01;  1.8893073E+03;3;  1.6109715E+01;  0.0000000E+00;  3.0975595E+00;0; -3.5552643E-03;  1.0001577E+04;  0.0000000E+00; -2.0150726E-07;  1.0000000E+04;  0.0000000E+00;  9.9989824E+03; -6.2793612E-02;  0.0000000E+00;  5.9238348E-02;  3.0656598E+02;
  1.1000237E+00;  9.9999998E-03;  8.0003209E-02;2752;  2.4195878E-02;  0.0000000E+00;  4.4498248E-03;  1.0023370E+03;  4.0092885E-01;  1.8786698E+03;3;  1.6561359E+01;  0.0000000E+00;  4.2445683E+00;0;  7.2518215E-03;  1.0001527E+04;  0.0000000E+00; -1.1787057E-06;  1.0000000E+04;  0.0000000E+00;  9.9987695E+03; -6.1131380E-02;  0.0000000E+00;  6.8383202E-02;  3.7037228E+02;
  1.1000243E+00;  9.9999998E-03;  1.0000436E-01;2753;  2.4942212E-02;  0.0000000E+00;  5.9407079E-03;  1.0023171E+03;  4.0092880E-01;  1.8626656E+03;3;  1.7278526E+01;  0.0000000E+00;  5.5130172E+00;0;  2.2161517E-02;  1.0001446E+04;  0.0000000E+00; -3.8341777E-06;  1.0000000E+04;  0.0000000E+00;  9.9984541E+03; -5.8231127E-02;  0.0000000E+00;  8.0392644E-02;  4.6583710E+02;
  1.1000252E+00;  9.9999998E-03;  1.2000568E-01;2754;  2.6040820E-02;  0.0000000E+00;  7.5960150E-03;  1.0022881E+03;  4.0092883E-01;  1.8393781E+03;3;  1.8284718E+01;  0.0000000E+00;  6.8670950E+00;0;  4.1782912E-02;  1.0001325E+04;  0.0000000E+00; -1.1332377E-04;  1.0000000E+04;  0.0000000E+00;  9.9979971E+03; -5.3645235E-02;  0.0000000E+00;  9.5428146E-02;  6.0662701E+02;
  1.1000265E+00;  9.9999998E-03;  1.4000723E-01;2755;  2.7644088E-02;  0.0000000E+00;  9.4665131E-03;  1.0022487E+03;  4.0092891E-01;  1.8076571E+03;3;  1.9673820E+01;  0.0000000E+00;  8.2664070E+00;0;  6.5454364E-02;  1.0001167E+04;  0.0000000E+00; -2.2971195E-03;  1.0000000E+04;  0.0000000E+00;  9.9973662E+03; -4.7637451E-02;  0.0000000E+00;  1.1309181E-01;  8.0434082E+02;
  1.1200213E+00;  9.9999998E-03; -2.0836087E-12;2777;  2.1743072E-02;  0.0000000E+00; -2.3962008E-09;  1.0020718E+03;  4.0081328E-01;  1.6491290E+03;3;  1.4827398E+01;  0.0000000E+00; -2.8684444E-06;0; -1.5553981E-02;  1.0001485E+04;  0.0000000E+00;  1.1086025E-16;  1.0000000E+04;  0.0000000E+00;  9.9992871E+03; -5.9008468E-02;  0.0000000E+00;  4.3454487E-02;  2.0097583E+02;
  1.1200213E+00;  9.9999998E-03;  2.0000646E-02;2778;  2.1796523E-02;  0.0000000E+00;  9.0360432E-04;  1.0020702E+03;  4.0081331E-01;  1.6478005E+03;3;  1.4878093E+01;  0.0000000E+00;  8.8996679E-01;0; -1.4101844E-02;  1.0001477E+04;  0.0000000E+00; -2.9051286E-08;  1.0000000E+04;  0.0000000E+00;  9.9992627E+03; -5.8709353E-02;  0.0000000E+00;  4.4607509E-02;  2.0750929E+02;
  1.1200215E+00;  9.9999998E-03;  4.0001333E-02;2779;  2.1969486E-02;  0.0000000E+00;  1.8603571E-03;  1.0020649E+03;  4.0081328E-01;  1.6436256E+03;3;  1.5049657E+01;  0.0000000E+00;  1.8237312E+00;0; -9.6158534E-03;  1.0001448E+04;  0.0000000E+00; -2.1422815E-07;  1.0000000E+04;  0.0000000E+00;  9.9991855E+03; -5.7735547E-02;  0.0000000E+00;  4.8119694E-02;  2.2793381E+02;
  1.1200217E+00;  9.9999998E-03;  6.0002092E-02;2780;  2.2283047E-02;  0.0000000E+00;  2.9004263E-03;  1.0020554E+03;  4.0081334E-01;  1.6360344E+03;3;  1.5354335E+01;  0.0000000E+00;  2.8039081E+00;0; -1.6985498E-03;  1.0001396E+04;  0.0000000E+00; -9.1761427E-07;  1.0000000E+04;  0.0000000E+00;  9.9990469E+03; -5.5863276E-02;  0.0000000E+00;  5.4164726E-02;  2.6505661E+02;
  1.1200222E+00;  9.9999998E-03;  8.0002964E-02;2781;  2.2784367E-02;  0.0000000E+00;  4.0571559E-03;  1.0020401E+03;  4.0081331E-01;  1.6238884E+03;3;  1.5814519E+01;  0.0000000E+00;  3.8344898E+00;0;  1.0294981E-02;  1.0001312E+04;  0.0000000E+00; -2.8771210E-06;  1.0000000E+04;  0.0000000E+00;  9.9988232E+03; -5.2753374E-02;  0.0000000E+00;  6.3048355E-02;  3.2449173E+02;
  1.1200228E+00;  9.9999998E-03;  1.0000393E-01;2782;  2.3529295E-02;  0.0000000E+00;  5.2991840E-03;  1.0020172E+03;  4.0081328E-01;  1.6056698E+03;3;  1.6494783E+01;  0.0000000E+00;  4.8790383E+00;0;  2.7031165E-02;  1.0001186E+04;  0.0000000E+00; -9.8091987E-05;  1.0000000E+04;  0.0000000E+00;  9.9984941E+03; -4.8079755E-02;  0.0000000E+00;  7.5110920E-02;  4.1500052E+02;
  1.1200236E+00;  9.9999998E-03;  1.2000506E-01;2783;  2.4673099E-02;  0.0000000E+00;  6.7031686E-03;  1.0019856E+03;  4.0081331E-01;  1.5804291E+03;3;  1.7542385E+01;  0.0000000E+00;  6.0372820E+00;0;  4.8343293E-02;  1.0001025E+04;  0.0000000E+00; -1.5702719E-03;  1.0000000E+04;  0.0000000E+00;  9.9980234E+03; -4.2015553E-02;  0.0000000E+00;  9.0358846E-02;  5.4590625E+02;
  1.1200249E+00;  9.9999998E-03;  1.4000639E-01;2784;  2.6271150E-02;  0.0000000E+00;  8.2679698E-03;  1.0019462E+03;  4.0081337E-01;  1.5491155E+03;3;  1.8938568E+01;  0.0000000E+00;  7.1538301E+00;0;  7.2153300E-02;  1.0000857E+04;  0.0000000E+00; -1.0008053E-02;  1.0000000E+04;  0.0000000E+00;  9.9974033E+03; -3.5829734E-02;  0.0000000E+00;  1.0798303E-01;  7.2132257E+02;
  1.1400198E+00;  9.9999998E-03; -2.3067544E-12;2805;  2.0435903E-02;  0.0000000E+00; -1.4435712E-09;  1.0018287E+03;  4.0072051E-01;  1.4369231E+03;3;  1.4153522E+01;  0.0000000E+00; -2.2962922E-06;0; -9.1028363E-03;  1.0001222E+04;  0.0000000E+00; -1.2465328E-15;  1.0000000E+04;  0.0000000E+00;  9.9993252E+03; -4.9198020E-02;  0.0000000E+00;  4.0095184E-02;  1.7139015E+02;
  1.1400199E+00;  9.9999998E-03;  2.0000607E-02;2806;  2.0496488E-02;  0.0000000E+00;  8.4044004E-04;  1.0018265E+03;  4.0072051E-01;  1.4352369E+03;3;  1.4204335E+01;  0.0000000E+00;  8.1527466E-01;0; -7.4147955E-03;  1.0001207E+04;  0.0000000E+00; -1.5403340E-07;  1.0000000E+04;  0.0000000E+00;  9.9993018E+03; -4.8641037E-02;  0.0000000E+00;  4.1226242E-02;  1.7744699E+02;
  1.1400200E+00;  9.9999998E-03;  4.0001236E-02;2807;  2.0674115E-02;  0.0000000E+00;  1.7039320E-03;  1.0018201E+03;  4.0072060E-01;  1.4301785E+03;3;  1.4371548E+01;  0.0000000E+00;  1.6441753E+00;0; -2.1761730E-03;  1.0001160E+04;  0.0000000E+00; -7.7075924E-07;  1.0000000E+04;  0.0000000E+00;  9.9992188E+03; -4.6892993E-02;  0.0000000E+00;  4.4716820E-02;  1.9660301E+02;
  1.1400203E+00;  9.9999998E-03;  6.0001917E-02;2808;  2.1002863E-02;  0.0000000E+00;  2.6342159E-03;  1.0018083E+03;  4.0072057E-01;  1.4209048E+03;3;  1.4671803E+01;  0.0000000E+00;  2.5125127E+00;0;  7.0883669E-03;  1.0001074E+04;  0.0000000E+00; -1.0900762E-05;  1.0000000E+04;  0.0000000E+00;  9.9990674E+03; -4.3759190E-02;  0.0000000E+00;  5.0847556E-02;  2.3198505E+02;
  1.1400207E+00;  9.9999998E-03;  8.0002651E-02;2809;  2.1520691E-02;  0.0000000E+00;  3.6094585E-03;  1.0017902E+03;  4.0072048E-01;  1.4066661E+03;3;  1.5138993E+01;  0.0000000E+00;  3.3818967E+00;0;  2.0906441E-02;  1.0000950E+04;  0.0000000E+00; -2.1685405E-04;  1.0000000E+04;  0.0000000E+00;  9.9988291E+03; -3.9093297E-02;  0.0000000E+00;  5.9999738E-02;  2.8894742E+02;
  1.1400213E+00;  9.9999998E-03;  1.0000349E-01;2810;  2.2312837E-02;  0.0000000E+00;  4.6709538E-03;  1.0017646E+03;  4.0072045E-01;  1.3865261E+03;3;  1.5849159E+01;  0.0000000E+00;  4.2774119E+00;0;  3.9295159E-02;  1.0000790E+04;  0.0000000E+00; -1.8257634E-03;  1.0000000E+04;  0.0000000E+00;  9.9984785E+03; -3.3114299E-02;  0.0000000E+00;  7.2409458E-02;  3.7404843E+02;
  1.1400223E+00;  9.9999998E-03;  1.2000445E-01;2811;  2.3456790E-02;  0.0000000E+00;  5.8255279E-03;  1.0017321E+03;  4.0072057E-01;  1.3610466E+03;3;  1.6892099E+01;  0.0000000E+00;  5.1901464E+00;0;  6.0965143E-02;  1.0000619E+04;  0.0000000E+00; -9.0539167E-03;  1.0000000E+04;  0.0000000E+00;  9.9980000E+03; -2.6787452E-02;  0.0000000E+00;  8.7752596E-02;  4.9218839E+02;
  1.1400236E+00;  9.9999998E-03;  1.4000577E-01;2812;  2.5179790E-02;  0.0000000E+00;  7.2852168E-03;  1.0016954E+03;  4.0072057E-01;  1.3321943E+03;3;  1.8402487E+01;  0.0000000E+00;  6.1848593E+00;0;  8.2855262E-02;  1.0000477E+04;  0.0000000E+00; -3.0681107E-02;  1.0000000E+04;  0.0000000E+00;  9.9974072E+03; -2.1988923E-02;  0.0000000E+00;  1.0484418E-01;  6.4512268E+02;
  1.1600184E+00;  9.9999998E-03; -7.5994880E-13;2832;  1.9303909E-02;  0.0000000E+00;  2.5622029E-09;  1.0016250E+03;  4.0064779E-01;  1.2558494E+03;3;  1.3562481E+01;  0.0000000E+00;  9.5840514E-06;0;  5.3020269E-03;  1.0000776E+04;  0.0000000E+00; -6.8918052E-16;  1.0000000E+04;  0.0000000E+00;  9.9993359E+03; -3.2779630E-02;  0.0000000E+00;  3.8081657E-02;  1.4600887E+02;
  1.1600186E+00;  9.9999998E-03;  2.0000538E-02;2833;  1.9364022E-02;  0.0000000E+00;  7.4844441E-04;  1.0016224E+03;  4.0064779E-01;  1.2539146E+03;3;  1.3613974E+01;  0.0000000E+00;  7.2722590E-01;0;  7.3583014E-03;  1.0000757E+04;  0.0000000E+00; -3.4724230E-06;  1.0000000E+04;  0.0000000E+00;  9.9993047E+03; -3.1963132E-02;  0.0000000E+00;  3.9321434E-02;  1.5209372E+02;
  1.1600187E+00;  9.9999998E-03;  4.0001094E-02;2834;  1.9547749E-02;  0.0000000E+00;  1.5140750E-03;  1.0016144E+03;  4.0064785E-01;  1.2477416E+03;3;  1.3776117E+01;  0.0000000E+00;  1.4555727E+00;0;  1.3604222E-02;  1.0000690E+04;  0.0000000E+00; -8.2317863E-05;  1.0000000E+04;  0.0000000E+00;  9.9992119E+03; -2.9521087E-02;  0.0000000E+00;  4.3125309E-02;  1.7117334E+02;
  1.1600189E+00;  9.9999998E-03;  6.0001671E-02;2835;  1.9893011E-02;  0.0000000E+00;  2.3069161E-03;  1.0016006E+03;  4.0064770E-01;  1.2370538E+03;3;  1.4084620E+01;  0.0000000E+00;  2.2013164E+00;0;  2.4209773E-02;  1.0000584E+04;  0.0000000E+00; -6.1055238E-04;  1.0000000E+04;  0.0000000E+00;  9.9990420E+03; -2.5512213E-02;  0.0000000E+00;  4.9721986E-02;  2.0576405E+02;
  1.1600194E+00;  9.9999998E-03;  8.0002315E-02;2836;  2.0440172E-02;  0.0000000E+00;  3.1471334E-03;  1.0015804E+03;  4.0064776E-01;  1.2214832E+03;3;  1.4567778E+01;  0.0000000E+00;  2.9397531E+00;0;  3.9074775E-02;  1.0000444E+04;  0.0000000E+00; -2.9907813E-03;  1.0000000E+04;  0.0000000E+00;  9.9987813E+03; -2.0251829E-02;  0.0000000E+00;  5.9326604E-02;  2.5960037E+02;
  1.1600201E+00;  9.9999998E-03;  1.0000303E-01;2837;  2.1267248E-02;  0.0000000E+00;  4.0292302E-03;  1.0015545E+03;  4.0064770E-01;  1.2013976E+03;3;  1.5316759E+01;  0.0000000E+00;  3.6645119E+00;0;  5.7385728E-02;  1.0000286E+04;  0.0000000E+00; -1.0733899E-02;  1.0000000E+04;  0.0000000E+00;  9.9984170E+03; -1.4511304E-02;  0.0000000E+00;  7.1897030E-02;  3.3696677E+02;
  1.1600212E+00;  9.9999998E-03;  1.2000401E-01;2838;  2.2535147E-02;  0.0000000E+00;  5.1371297E-03;  1.0015242E+03;  4.0064782E-01;  1.1779949E+03;3;  1.6447201E+01;  0.0000000E+00;  4.4908085E+00;0;  7.6984830E-02;  1.0000147E+04;  0.0000000E+00; -3.0625258E-02;  1.0000000E+04;  0.0000000E+00;  9.9979521E+03; -9.7807553E-03;  0.0000000E+00;  8.6765587E-02;  4.4181940E+02;
  1.1600229E+00;  9.9999998E-03;  1.4000554E-01;2839;  2.4437696E-02;  0.0000000E+00;  6.6612414E-03;  1.0014933E+03;  4.0064791E-01;  1.1541311E+03;3;  1.8101736E+01;  0.0000000E+00;  5.3949080E+00;0;  9.4460219E-02;  1.0000075E+04;  0.0000000E+00; -7.0706323E-02;  1.0000000E+04;  0.0000000E+00;  9.9974063E+03; -8.1065288E-03;  0.0000000E+00;  1.0256675E-01;  5.7921625E+02;
  1.1800174E+00;  9.9999998E-03; -6.5495049E-13;2858;  1.8335985E-02;  0.0000000E+00;  1.0871946E-09;  1.0014515E+03;  4.0059176E-01;  1.0984828E+03;3;  1.3045816E+01;  0.0000000E+00;  6.9119706E-06;0;  2.8736766E-02;  1.0000145E+04;  0.0000000E+00;  9.1218895E-16;  1.0000000E+04;  0.0000000E+00;  9.9992959E+03; -9.4081676E-03;  0.0000000E+00;  3.8144935E-02;  1.2486216E+02;
  1.1800174E+00;  9.9999998E-03;  2.0000445E-02;2859;  1.8394681E-02;  0.0000000E+00;  6.3417072E-04;  1.0014486E+03;  4.0059179E-01;  1.0963175E+03;3;  1.3108186E+01;  0.0000000E+00;  6.2585086E-01;0;  3.1010807E-02;  1.0000121E+04;  0.0000000E+00; -1.4987112E-04;  1.0000000E+04;  0.0000000E+00;  9.9992607E+03; -8.5400166E-03;  0.0000000E+00;  3.9550822E-02;  1.3100366E+02;
  1.1800176E+00;  9.9999998E-03;  4.0000919E-02;2860;  1.8599637E-02;  0.0000000E+00;  1.2949706E-03;  1.0014398E+03;  4.0059179E-01;  1.0896412E+03;3;  1.3284312E+01;  0.0000000E+00;  1.2576544E+00;0;  3.7723247E-02;  1.0000056E+04;  0.0000000E+00; -1.1264746E-03;  1.0000000E+04;  0.0000000E+00;  9.9991523E+03; -6.0535106E-03;  0.0000000E+00;  4.3776758E-02;  1.4984656E+02;
  1.1800178E+00;  9.9999998E-03;  6.0001418E-02;2861;  1.8949550E-02;  0.0000000E+00;  1.9636441E-03;  1.0014255E+03;  4.0059179E-01;  1.0788148E+03;3;  1.3598773E+01;  0.0000000E+00;  1.8805279E+00;0;  4.8490636E-02;  9.9999561E+03;  0.0000000E+00; -4.6084169E-03;  1.0000000E+04;  0.0000000E+00;  9.9989658E+03; -2.3306224E-03;  0.0000000E+00;  5.0821260E-02;  1.8270097E+02;
  1.1800184E+00;  9.9999998E-03;  8.0002010E-02;2862;  1.9555883E-02;  0.0000000E+00;  2.6955670E-03;  1.0014061E+03;  4.0059182E-01;  1.0641089E+03;3;  1.4138202E+01;  0.0000000E+00;  2.4968553E+00;0;  6.2479336E-02;  9.9998389E+03;  0.0000000E+00; -1.3971643E-02;  1.0000000E+04;  0.0000000E+00;  9.9986963E+03;  1.8955942E-03;  0.0000000E+00;  6.0583740E-02;  2.3217207E+02;
  1.1800193E+00;  9.9999998E-03;  1.0000281E-01;2863;  2.0508114E-02;  0.0000000E+00;  3.5992956E-03;  1.0013830E+03;  4.0059176E-01;  1.0466056E+03;3;  1.4984902E+01;  0.0000000E+00;  3.1955838E+00;0;  7.8143589E-02;  9.9997314E+03;  0.0000000E+00; -3.4361258E-02;  1.0000000E+04;  0.0000000E+00;  9.9983398E+03;  5.4428237E-03;  0.0000000E+00;  7.2700769E-02;  3.0281879E+02;
  1.1800206E+00;  9.9999998E-03;  1.2000403E-01;2864;  2.1975324E-02;  0.0000000E+00;  4.8275567E-03;  1.0013586E+03;  4.0059185E-01;  1.0281998E+03;3;  1.6258930E+01;  0.0000000E+00;  3.9722316E+00;0;  9.2931688E-02;  9.9996738E+03;  0.0000000E+00; -7.1626723E-02;  1.0000000E+04;  0.0000000E+00;  9.9979072E+03;  6.6141216E-03;  0.0000000E+00;  8.6317569E-02;  4.0084427E+02;
  1.1800226E+00;  9.9999998E-03;  1.4000604E-01;2865;  2.4241345E-02;  0.0000000E+00;  6.6533983E-03;  1.0013358E+03;  4.0059185E-01;  1.0108759E+03;3;  1.8222857E+01;  0.0000000E+00;  4.9574523E+00;0;  1.0407797E-01;  9.9997061E+03;  0.0000000E+00; -1.2797733E-01;  1.0000000E+04;  0.0000000E+00;  9.9974219E+03;  3.7711586E-03;  0.0000000E+00;  1.0030682E-01;  5.3081879E+02;
  1.2000164E+00;  9.9999998E-03; -1.1451985E-12;2882;  1.7531099E-02;  0.0000000E+00; -2.5566249E-09;  1.0013042E+03;  4.0054965E-01;  9.6153064E+02;3;  1.2661090E+01;  0.0000000E+00;  4.3014006E-07;0;  5.8822624E-02;  9.9993994E+03;  0.0000000E+00;  1.1208561E-15;  1.0000000E+04;  0.0000000E+00;  9.9991982E+03;  1.8147962E-02;  0.0000000E+00;  4.0674660E-02;  1.0668944E+02;
  1.2000165E+00;  9.9999998E-03;  2.0000376E-02;2883;  1.7599594E-02;  0.0000000E+00;  5.3300807E-04;  1.0013014E+03;  4.0054977E-01;  9.5950897E+02;3;  1.2724482E+01;  0.0000000E+00;  5.2345252E-01;0;  6.0944557E-02;  9.9993828E+03;  0.0000000E+00; -8.9277979E-04;  1.0000000E+04;  0.0000000E+00;  9.9991621E+03;  1.8761693E-02;  0.0000000E+00;  4.2182863E-02;  1.1248637E+02;
  1.2000166E+00;  9.9999998E-03;  4.0000800E-02;2884;  1.7821321E-02;  0.0000000E+00;  1.1021839E-03;  1.0012933E+03;  4.0054971E-01;  9.5353210E+02;3;  1.2913575E+01;  0.0000000E+00;  1.0613215E+00;0;  6.7050368E-02;  9.9993369E+03;  0.0000000E+00; -4.8008622E-03;  1.0000000E+04;  0.0000000E+00;  9.9990449E+03;  2.0420011E-02;  0.0000000E+00;  4.6630356E-02;  1.3011751E+02;
  1.2000171E+00;  9.9999998E-03;  6.0001325E-02;2885;  1.8257050E-02;  0.0000000E+00;  1.7451468E-03;  1.0012808E+03;  4.0054980E-01;  9.4430298E+02;3;  1.3290988E+01;  0.0000000E+00;  1.6179186E+00;0;  7.6228060E-02;  9.9992773E+03;  0.0000000E+00; -1.5116238E-02;  1.0000000E+04;  0.0000000E+00;  9.9988516E+03;  2.2509677E-02;  0.0000000E+00;  5.3718381E-02;  1.6061565E+02;
  1.2000178E+00;  9.9999998E-03;  8.0002062E-02;2886;  1.8999895E-02;  0.0000000E+00;  2.5554728E-03;  1.0012651E+03;  4.0054971E-01;  9.3270038E+02;3;  1.3939174E+01;  0.0000000E+00;  2.2325394E+00;0;  8.7021716E-02;  9.9992275E+03;  0.0000000E+00; -3.6380380E-02;  1.0000000E+04;  0.0000000E+00;  9.9985918E+03;  2.3997083E-02;  0.0000000E+00;  6.3024633E-02;  2.0764227E+02;
  1.2000189E+00;  9.9999998E-03;  1.0000316E-01;2887;  2.0169040E-02;  0.0000000E+00;  3.6383267E-03;  1.0012480E+03;  4.0054977E-01;  9.2013049E+02;3;  1.4932080E+01;  0.0000000E+00;  2.9238942E+00;0;  9.7485840E-02;  9.9992139E+03;  0.0000000E+00; -7.2512664E-02;  1.0000000E+04;  0.0000000E+00;  9.9982646E+03;  2.3502802E-02;  0.0000000E+00;  7.3983036E-02;  2.7703534E+02;
  1.2000208E+00;  9.9999998E-03;  1.2000493E-01;2888;  2.2084923E-02;  0.0000000E+00;  5.2693579E-03;  1.0012314E+03;  4.0054974E-01;  9.0791113E+02;3;  1.6532211E+01;  0.0000000E+00;  3.8467898E+00;0;  1.0588850E-01;  9.9992656E+03;  0.0000000E+00; -1.2451982E-01;  1.0000000E+04;  0.0000000E+00;  9.9978789E+03;  1.9893927E-02;  0.0000000E+00;  8.5994571E-02;  3.7263052E+02;
  1.2000239E+00;  9.9999998E-03;  1.4000773E-01;2889;  2.5250683E-02;  0.0000000E+00;  7.7214986E-03;  1.0012142E+03;  4.0054977E-01;  8.9525079E+02;3;  1.9178888E+01;  0.0000000E+00;  5.0958452E+00;0;  1.1294691E-01;  9.9993682E+03;  0.0000000E+00; -1.8897632E-01;  1.0000000E+04;  0.0000000E+00;  9.9974326E+03;  1.3965385E-02;  0.0000000E+00;  9.8981529E-02;  4.9252631E+02;
  1.2200160E+00;  9.9999998E-03;  1.1532760E-13;2905;  1.7052976E-02;  0.0000000E+00;  7.2415418E-10;  1.0011831E+03;  4.0051872E-01;  8.4507111E+02;3;  1.2445892E+01;  0.0000000E+00;  2.7337082E-06;0;  9.0350270E-02;  9.9986738E+03;  0.0000000E+00;  1.2349692E-15;  1.0000000E+04;  0.0000000E+00;  9.9990547E+03;  4.4951685E-02;  0.0000000E+00;  4.5398582E-02;  8.9954422E+01;
  1.2200161E+00;  9.9999998E-03;  2.0000415E-02;2906;  1.7147236E-02;  0.0000000E+00;  5.2657066E-04;  1.0011810E+03;  4.0051869E-01;  8.4353833E+02;3;  1.2526869E+01;  0.0000000E+00;  4.8743978E-01;0;  9.1919146E-02;  9.9986709E+03;  0.0000000E+00; -2.3462041E-03;  1.0000000E+04;  0.0000000E+00;  9.9990166E+03;  4.5024298E-02;  0.0000000E+00;  4.6894848E-02;  9.5128288E+01;
  1.2200164E+00;  9.9999998E-03;  4.0000934E-02;2907;  1.7450592E-02;  0.0000000E+00;  1.1347012E-03;  1.0011750E+03;  4.0051877E-01;  8.3928070E+02;3;  1.2778310E+01;  0.0000000E+00;  1.0021361E+00;0;  9.6227653E-02;  9.9986680E+03;  0.0000000E+00; -1.1065606E-02;  1.0000000E+04;  0.0000000E+00;  9.9989014E+03;  4.5009561E-02;  0.0000000E+00;  5.1218092E-02;  1.1117961E+02;
  1.2200170E+00;  9.9999998E-03;  6.0001690E-02;2908;  1.8037744E-02;  0.0000000E+00;  1.9226932E-03;  1.0011664E+03;  4.0051872E-01;  8.3314935E+02;3;  1.3255636E+01;  0.0000000E+00;  1.5750626E+00;0;  1.0204518E-01;  9.9986758E+03;  0.0000000E+00; -3.0182207E-02;  1.0000000E+04;  0.0000000E+00;  9.9987197E+03;  4.4197399E-02;  0.0000000E+00;  5.7847779E-02;  1.4025632E+02;
  1.2200181E+00;  9.9999998E-03;  8.0002859E-02;2909;  1.9099893E-02;  0.0000000E+00;  3.0501103E-03;  1.0011563E+03;  4.0051869E-01;  8.2591022E+02;3;  1.4088119E+01;  0.0000000E+00;  2.2808499E+00;0;  1.0799088E-01;  9.9987178E+03;  0.0000000E+00; -6.3584864E-02;  1.0000000E+04;  0.0000000E+00;  9.9984775E+03;  4.1731250E-02;  0.0000000E+00;  6.6259623E-02;  1.8717210E+02;
  1.2200201E+00;  9.9999998E-03;  1.0000462E-01;2910;  2.0947140E-02;  0.0000000E+00;  4.7013485E-03;  1.0011451E+03;  4.0051875E-01;  8.1790375E+02;3;  1.5511544E+01;  0.0000000E+00;  3.2560194E+00;0;  1.1358778E-01;  9.9987930E+03;  0.0000000E+00; -1.1234025E-01;  1.0000000E+04;  0.0000000E+00;  9.9981768E+03;  3.7394486E-02;  0.0000000E+00;  7.6193295E-02;  2.5579471E+02;
  1.2200233E+00;  9.9999998E-03;  1.2000711E-01;2911;  2.3956420E-02;  0.0000000E+00;  6.9967117E-03;  1.0011304E+03;  4.0051872E-01;  8.0734131E+02;3;  1.7891436E+01;  0.0000000E+00;  4.5884442E+00;0;  1.2068333E-01;  9.9988594E+03;  0.0000000E+00; -1.7367713E-01;  1.0000000E+04;  0.0000000E+00;  9.9978164E+03;  3.2917604E-02;  0.0000000E+00;  8.7765731E-02;  3.4450589E+02;
  1.2200278E+00;  9.9999998E-03;  1.4001019E-01;2912;  2.8274443E-02;  0.0000000E+00;  9.6761296E-03;  1.0011074E+03;  4.0051872E-01;  7.9090228E+02;3;  2.1366035E+01;  0.0000000E+00;  6.0918283E+00;0;  1.3315783E-01;  9.9988252E+03;  0.0000000E+00; -2.3882121E-01;  1.0000000E+04;  0.0000000E+00;  9.9973926E+03;  3.2481331E-02;  0.0000000E+00;  1.0067651E-01;  4.4295563E+02;
  1.2400171E+00;  9.9999998E-03; -1.2603315E-12;2926;  1.7535374E-02;  0.0000000E+00; -1.1218838E-09;  1.0010906E+03;  4.0049636E-01;  7.5032257E+02;3;  1.2628716E+01;  0.0000000E+00; -6.3545303E-07;0;  1.1613369E-01;  9.9981172E+03;  0.0000000E+00;  1.1695347E-15;  1.0000000E+04;  0.0000000E+00;  9.9988799E+03;  6.4581938E-02;  0.0000000E+00;  5.1551752E-02;  7.4789337E+01;
  1.2400173E+00;  9.9999998E-03;  2.0000709E-02;2927;  1.7699864E-02;  0.0000000E+00;  7.5795513E-04;  1.0010892E+03;  4.0049633E-01;  7.4933813E+02;3;  1.2735472E+01;  0.0000000E+00;  5.7372278E-01;0;  1.1703658E-01;  9.9981270E+03;  0.0000000E+00; -3.7774763E-03;  1.0000000E+04;  0.0000000E+00;  9.9988447E+03;  6.4067945E-02;  0.0000000E+00;  5.2968636E-02;  7.9269516E+01;
  1.2400179E+00;  9.9999998E-03;  4.0001616E-02;2928;  1.8257566E-02;  0.0000000E+00;  1.6951530E-03;  1.0010850E+03;  4.0049630E-01;  7.4646674E+02;3;  1.3089103E+01;  0.0000000E+00;  1.2431090E+00;0;  1.1955622E-01;  9.9981533E+03;  0.0000000E+00; -1.6834870E-02;  1.0000000E+04;  0.0000000E+00;  9.9987334E+03;  6.2521607E-02;  0.0000000E+00;  5.7034608E-02;  9.3593346E+01;
  1.2400193E+00;  9.9999998E-03;  6.0002901E-02;2929;  1.9422147E-02;  0.0000000E+00;  2.9772704E-03;  1.0010784E+03;  4.0049627E-01;  7.4195416E+02;3;  1.3857529E+01;  0.0000000E+00;  2.1222706E+00;0;  1.2352312E-01;  9.9981934E+03;  0.0000000E+00; -4.3036852E-02;  1.0000000E+04;  0.0000000E+00;  9.9985635E+03;  6.0239572E-02;  0.0000000E+00;  6.3283540E-02;  1.2055029E+02;
  1.2400215E+00;  9.9999998E-03;  8.0004632E-02;2930;  2.1487806E-02;  0.0000000E+00;  4.6592336E-03;  1.0010681E+03;  4.0049633E-01;  7.3473389E+02;3;  1.5325064E+01;  0.0000000E+00;  3.2552357E+00;0;  1.2982059E-01;  9.9982148E+03;  0.0000000E+00; -8.5532665E-02;  1.0000000E+04;  0.0000000E+00;  9.9983340E+03;  5.8478188E-02;  0.0000000E+00;  7.1342401E-02;  1.6409520E+02;
  1.2400248E+00;  9.9999998E-03;  1.0000678E-01;2931;  2.4558388E-02;  0.0000000E+00;  6.6435714E-03;  1.0010518E+03;  4.0049630E-01;  7.2357562E+02;3;  1.7660179E+01;  0.0000000E+00;  4.5567203E+00;0;  1.4018711E-01;  9.9981738E+03;  0.0000000E+00; -1.4279260E-01;  1.0000000E+04;  0.0000000E+00;  9.9980547E+03;  5.9328821E-02;  0.0000000E+00;  8.0858290E-02;  2.2452931E+02;
  1.2400287E+00;  9.9999998E-03;  1.2000938E-01;2932;  2.8294658E-02;  0.0000000E+00;  8.8847186E-03;  1.0010286E+03;  4.0049636E-01;  7.0757806E+02;3;  2.0731527E+01;  0.0000000E+00;  5.9314151E+00;0;  1.5518862E-01;  9.9980420E+03;  0.0000000E+00; -2.0338713E-01;  1.0000000E+04;  0.0000000E+00;  9.9977178E+03;  6.3601770E-02;  0.0000000E+00;  9.1586843E-02;  2.9320245E+02;
  1.2400328E+00;  9.9999998E-03;  1.4001250E-01;2933;  3.2065175E-02;  0.0000000E+00;  1.1379593E-02;  1.0010001E+03;  4.0049636E-01;  6.8797217E+02;3;  2.4171778E+01;  0.0000000E+00;  7.3473091E+00;0;  1.7209339E-01;  9.9978740E+03;  0.0000000E+00; -2.3726565E-01;  1.0000000E+04;  0.0000000E+00;  9.9973154E+03;  6.8428911E-02;  0.0000000E+00;  1.0366449E-01;  3.4736325E+02;
  1.2600234E+00;  9.9999998E-03; -7.7119967E-13;2944;  2.2613194E-02;  0.0000000E+00; -1.1190258E-10;  1.0009998E+03;  4.0048054E-01;  6.5894153E+02;3;  1.5544264E+01;  0.0000000E+00; -3.6752317E-07;0;  1.5504818E-01;  9.9972734E+03;  0.0000000E+00; -3.1479418E-15;  1.0000000E+04;  0.0000000E+00;  9.9987012E+03;  9.6842468E-02;  0.0000000E+00;  5.8205713E-02;  4.9221481E+01;
  1.2600236E+00;  9.9999998E-03;  2.0001028E-02;2945;  2.2858487E-02;  0.0000000E+00;  1.0428044E-03;  1.0009980E+03;  4.0048048E-01;  6.5776263E+02;3;  1.5739237E+01;  0.0000000E+00;  7.6406705E-01;0;  1.5621082E-01;  9.9972773E+03;  0.0000000E+00; -4.3362030E-03;  1.0000000E+04;  0.0000000E+00;  9.9986660E+03;  9.6682161E-02;  0.0000000E+00;  5.9528667E-02;  5.2696243E+01;
  1.2600244E+00;  9.9999998E-03;  4.0002301E-02;2946;  2.3629148E-02;  0.0000000E+00;  2.3021430E-03;  1.0009933E+03;  4.0048060E-01;  6.5461871E+02;3;  1.6357536E+01;  0.0000000E+00;  1.6564218E+00;0;  1.5975052E-01;  9.9972793E+03;  0.0000000E+00; -1.9108154E-02;  1.0000000E+04;  0.0000000E+00;  9.9985645E+03;  9.6421786E-02;  0.0000000E+00;  6.3328736E-02;  6.4145149E+01;
  1.2600259E+00;  9.9999998E-03;  6.0004022E-02;2947;  2.4988491E-02;  0.0000000E+00;  3.9349822E-03;  1.0009844E+03;  4.0048054E-01;  6.4880261E+02;3;  1.7469231E+01;  0.0000000E+00;  2.7671466E+00;0;  1.6592918E-01;  9.9972686E+03;  0.0000000E+00; -4.8095632E-02;  1.0000000E+04;  0.0000000E+00;  9.9984004E+03;  9.6677959E-02;  0.0000000E+00;  6.9251224E-02;  8.6588692E+01;
  1.2600280E+00;  9.9999998E-03;  8.0006227E-02;2948;  2.6939297E-02;  0.0000000E+00;  5.9441631E-03;  1.0009708E+03;  4.0048048E-01;  6.3976440E+02;3;  1.9118191E+01;  0.0000000E+00;  4.0938988E+00;0;  1.7527452E-01;  9.9972197E+03;  0.0000000E+00; -9.2149638E-02;  1.0000000E+04;  0.0000000E+00;  9.9981787E+03;  9.8172650E-02;  0.0000000E+00;  7.7101879E-02;  1.2268670E+02;
  1.2600305E+00;  9.9999998E-03;  1.0000879E-01;2949;  2.9243845E-02;  0.0000000E+00;  8.1732515E-03;  1.0009529E+03;  4.0048054E-01;  6.2805444E+02;3;  2.1190928E+01;  0.0000000E+00;  5.5519762E+00;0;  1.8634969E-01;  9.9971445E+03;  0.0000000E+00; -1.3915545E-01;  1.0000000E+04;  0.0000000E+00;  9.9978984E+03;  9.9743925E-02;  0.0000000E+00;  8.6605757E-02;  1.6661827E+02;
  1.2600330E+00;  9.9999998E-03;  1.2001161E-01;2950;  3.1462729E-02;  0.0000000E+00;  1.0519443E-02;  1.0009359E+03;  4.0048051E-01;  6.1673749E+02;3;  2.3465416E+01;  0.0000000E+00;  7.1052547E+00;0;  1.9457114E-01;  9.9971426E+03;  0.0000000E+00; -1.5631440E-01;  1.0000000E+04;  0.0000000E+00;  9.9975566E+03;  9.7163588E-02;  0.0000000E+00;  9.7407557E-02;  1.9989581E+02;
  1.2600350E+00;  9.9999998E-03;  1.4001463E-01;2951;  3.3314943E-02;  0.0000000E+00;  1.2811752E-02;  1.0009257E+03;  4.0048054E-01;  6.1013519E+02;3;  2.6116125E+01;  0.0000000E+00;  8.3792486E+00;0;  1.9497213E-01;  9.9973379E+03;  0.0000000E+00; -9.4500236E-02;  1.0000000E+04;  0.0000000E+00;  9.9971582E+03;  8.5818879E-02;  0.0000000E+00;  1.0915324E-01;  2.1026802E+02;
  1.2800303E+00;  9.9999998E-03;  1.1235639E-12;2959;  2.8086632E-02;  0.0000000E+00;  1.3271108E-09;  1.0009003E+03;  4.0046951E-01;  5.6593250E+02;3;  1.9423868E+01;  0.0000000E+00;  2.3788307E-06;0;  2.1078765E-01;  9.9960107E+03;  0.0000000E+00; -5.8180834E-15;  1.0000000E+04;  0.0000000E+00;  9.9985293E+03;  1.4620858E-01;  0.0000000E+00;  6.4579062E-02;  9.3860884E+00;
  1.2800304E+00;  9.9999998E-03;  2.0001320E-02;2960;  2.8203217E-02;  0.0000000E+00;  1.2672404E-03;  1.0009001E+03;  4.0046945E-01;  5.6585742E+02;3;  1.9557442E+01;  0.0000000E+00;  9.1497761E-01;0;  2.1072927E-01;  9.9960371E+03;  0.0000000E+00; -3.0443645E-03;  1.0000000E+04;  0.0000000E+00;  9.9984971E+03;  1.4492092E-01;  0.0000000E+00;  6.5808356E-02;  1.2850821E+01;
  1.2800307E+00;  9.9999998E-03;  4.0002972E-02;2961;  2.8548984E-02;  0.0000000E+00;  2.8178710E-03;  1.0008995E+03;  4.0046948E-01;  5.6540723E+02;3;  1.9965675E+01;  0.0000000E+00;  2.0111675E+00;0;  2.1038426E-01;  9.9961289E+03;  0.0000000E+00; -1.3229953E-02;  1.0000000E+04;  0.0000000E+00;  9.9983984E+03;  1.4094453E-01;  0.0000000E+00;  6.9439739E-02;  2.4178261E+01;
  1.2800313E+00;  9.9999998E-03;  6.0005199E-02;2962;  2.9115142E-02;  0.0000000E+00;  4.8440462E-03;  1.0008984E+03;  4.0046945E-01;  5.6473193E+02;3;  2.0673355E+01;  0.0000000E+00;  3.4140644E+00;0;  2.0968249E-01;  9.9962725E+03;  0.0000000E+00; -3.1406958E-02;  1.0000000E+04;  0.0000000E+00;  9.9982295E+03;  1.3411218E-01;  0.0000000E+00;  7.5570315E-02;  4.4389111E+01;
  1.2800322E+00;  9.9999998E-03;  8.0007978E-02;2963;  2.9769698E-02;  0.0000000E+00;  7.2862562E-03;  1.0008968E+03;  4.0046948E-01;  5.6375659E+02;3;  2.1519707E+01;  0.0000000E+00;  5.0967236E+00;0;  2.0759243E-01;  9.9964932E+03;  0.0000000E+00; -4.9413901E-02;  1.0000000E+04;  0.0000000E+00;  9.9979756E+03;  1.2294932E-01;  0.0000000E+00;  8.4643111E-02;  7.2308769E+01;
  1.2800330E+00;  9.9999998E-03;  1.0001090E-01;2964;  3.0557174E-02;  0.0000000E+00;  9.7750900E-03;  1.0008964E+03;  4.0046951E-01;  5.6345563E+02;3;  2.2866314E+01;  0.0000000E+00;  6.8822198E+00;0;  2.0390365E-01;  9.9968164E+03;  0.0000000E+00; -3.8457960E-02;  1.0000000E+04;  0.0000000E+00;  9.9976445E+03;  1.0793462E-01;  0.0000000E+00;  9.5969029E-02;  1.0212354E+02;
  1.2800336E+00;  9.9999998E-03;  1.2001372E-01;2965;  3.1212801E-02;  0.0000000E+00;  1.1868158E-02;  1.0009044E+03;  4.0046957E-01;  5.6847565E+02;3;  2.4713081E+01;  0.0000000E+00;  8.0296345E+00;0;  1.9204758E-01;  9.9973457E+03;  0.0000000E+00;  3.7012041E-02;  1.0000000E+04;  0.0000000E+00;  9.9972715E+03;  8.5061766E-02;  0.0000000E+00;  1.0698581E-01;  1.4446672E+02;
  1.3000323E+00;  9.9999998E-03;  7.6856945E-13;2970;  2.9032324E-02;  0.0000000E+00;  8.8641250E-10;  1.0008813E+03;  4.0046206E-01;  5.2698022E+02;3;  2.1018513E+01;  0.0000000E+00; -9.6095027E-07;0;  2.0459077E-01;  9.9961494E+03;  0.0000000E+00; -1.1679685E-14;  1.0000000E+04;  0.0000000E+00;  9.9983809E+03;  1.3440087E-01;  0.0000000E+00;  7.0189901E-02;  2.9818664E+00;
  1.3000323E+00;  9.9999998E-03;  2.0001611E-02;2971;  2.9029148E-02;  0.0000000E+00;  1.4834137E-03;  1.0008835E+03;  4.0046203E-01;  5.2833453E+02;3;  2.1093042E+01;  0.0000000E+00;  1.1049069E+00;0;  2.0266998E-01;  9.9962256E+03;  0.0000000E+00;  6.7345332E-04;  1.0000000E+04;  0.0000000E+00;  9.9983496E+03;  1.3128640E-01;  0.0000000E+00;  7.1383588E-02;  7.1560006E+00;
  1.3000321E+00;  9.9999998E-03;  4.0003650E-02;2972;  2.8999384E-02;  0.0000000E+00;  3.3281005E-03;  1.0008899E+03;  4.0046206E-01;  5.3211249E+02;3;  2.1308815E+01;  0.0000000E+00;  2.4634569E+00;0;  1.9689487E-01;  9.9964590E+03;  0.0000000E+00;  4.9252454E-03;  1.0000000E+04;  0.0000000E+00;  9.9982432E+03;  1.2167709E-01;  0.0000000E+00;  7.5217776E-02;  2.0402273E+01;
  1.3000320E+00;  9.9999998E-03;  6.0006410E-02;2973;  2.8904725E-02;  0.0000000E+00;  5.7615493E-03;  1.0008995E+03;  4.0046203E-01;  5.3781519E+02;3;  2.1659897E+01;  0.0000000E+00;  4.2405262E+00;0;  1.8808433E-01;  9.9968574E+03;  0.0000000E+00;  2.2116825E-02;  1.0000000E+04;  0.0000000E+00;  9.9980352E+03;  1.0524842E-01;  0.0000000E+00;  8.2835913E-02;  4.5882095E+01;
  1.3000318E+00;  9.9999998E-03;  8.0009773E-02;2974;  2.8809108E-02;  0.0000000E+00;  8.6099561E-03;  1.0009084E+03;  4.0046203E-01;  5.4316168E+02;3;  2.2358593E+01;  0.0000000E+00;  6.2696199E+00;0;  1.7939790E-01;  9.9973945E+03;  0.0000000E+00;  7.2736263E-02;  1.0000000E+04;  0.0000000E+00;  9.9976729E+03;  8.3650909E-02;  0.0000000E+00;  9.5746987E-02;  9.0544807E+01;
 -1.6700017E-08;  9.9999998E-03;  1.6000000E-01;1053; -3.7542850E-05;  0.0000000E+00;  3.8319049E-06;  1.0000004E+03;  4.0000001E-01;  3.9505050E-01;3; -6.2676504E-02;  0.0000000E+00;  6.3125198E-03;0; -7.5247290E-04;  1.0000009E+04;  0.0000000E+00;  1.3276165E-11;  1.0000000E+04;  0.0000000E+00;  1.0000000E+04; -7.7921315E-04;  0.0000000E+00;  2.6740254E-05;  1.3313457E-01;
 -1.6072331E-08;  9.9999998E-03;  1.8000001E-01;1054; -3.6224323E-05;  0.0000000E+00;  4.6304071E-06;  1.0000004E+03;  4.0000001E-01;  3.9505050E-01;3; -6.0627304E-02;  0.0000000E+00;  7.6898150E-03;0; -7.2419643E-04;  1.0000008E+04;  0.0000000E+00; -1.2028442E-11;  1.0000000E+04;  0.0000000E+00;  1.0000000E+04; -7.5093191E-04;  0.0000000E+00;  2.6735472E-05;  1.3173296E-01;
 -1.5254001E-08;  9.9999998E-03;  2.0000000E-01;1055; -3.4463079E-05;  0.0000000E+00;  5.4726247E-06;  1.0000004E+03;  4.0000001E-01;  2.9628786E-01;3; -5.7849854E-02;  0.0000000E+00;  9.1500450E-03;0; -6.8854669E-04;  1.0000008E+04;  0.0000000E+00; -3.0589264E-12;  1.0000000E+04;  0.0000000E+00;  1.0000000E+04; -7.1210845E-04;  0.0000000E+00;  2.3561754E-05;  1.1774351E-01;
 -1.4200318E-08;  9.9999998E-03;  2.2000000E-01;1056; -3.2149561E-05;  0.0000000E+00;  6.3227712E-06;  1.0000004E+03;  4.0000001E-01;  2.9628786E-01;3; -5.4186985E-02;  0.0000000E+00;  1.0654029E-02;0; -6.4396107E-04;  1.0000008E+04;  0.0000000E+00;  1.1481790E-11;  1.0000000E+04;  0.0000000E+00;  1.0000000E+04; -6.5940351E-04;  0.0000000E+00;  1.5442409E-05;  8.3826795E-02;
 -1.2876431E-08;  9.9999998E-03;  2.4000001E-01;1057; -2.9197945E-05;  0.0000000E+00;  7.0886335E-06;  1.0000004E+03;  4.0000001E-01;  2.9628786E-01;3; -4.9521580E-02;  0.0000000E+00;  1.2058659E-02;0; -5.8822165E-04;  1.0000007E+04;  0.0000000E+00; -1.7936755E-12;  1.0000000E+04;  0.0000000E+00;  1.0000000E+04; -5.8983936E-04;  0.0000000E+00;  1.6177055E-06;  2.6550239E-02;
 -1.1231980E-08;  9.9999998E-03;  2.5999999E-01;1058; -2.5494168E-05;  0.0000000E+00;  7.7143568E-06;  1.0000002E+03;  4.0000001E-01;  1.9752525E-01;3; -4.3656044E-02;  0.0000000E+00;  1.3280459E-02;0; -5.1908725E-04;  1.0000006E+04;  0.0000000E+00;  1.6092270E-11;  1.0000000E+04;  0.0000000E+00;  1.0000000E+04; -5.0256861E-04;  0.0000000E+00; -1.6518619E-05;  4.8793416E-02;
 -9.2878105E-09;  9.9999998E-03;  2.8000000E-01;1059; -2.1105581E-05;  0.0000000E+00;  7.9898291E-06;  1.0000002E+03;  4.0000001E-01;  1.9752525E-01;3; -3.6642890E-02;  0.0000000E+00;  1.3948422E-02;0; -4.3580480E-04;  1.0000004E+04;  0.0000000E+00; -6.8647871E-13;  1.0000000E+04;  0.0000000E+00;  1.0000000E+04; -4.0105029E-04;  0.0000000E+00; -3.4754514E-05;  1.2541918E-01;
  1.9999975E-02;  9.9999998E-03;  1.6000000E-01;1083; -5.5853499E-05;  0.0000000E+00;  5.5325600E-06;  1.0000005E+03;  4.0000001E-01;  4.9381313E-01;3; -8.9608341E-02;  0.0000000E+00;  8.7118996E-03;0; -9.7833190E-04;  1.0000012E+04;  0.0000000E+00; -1.0691039E-11;  1.0000000E+04;  0.0000000E+00;  1.0000000E+04; -1.0174962E-03;  0.0000000E+00;  3.9164290E-05;  1.9582295E-01;
  1.9999975E-02;  9.9999998E-03;  1.8000001E-01;1084; -5.4010554E-05;  0.0000000E+00;  6.6588150E-06;  1.0000005E+03;  4.0000001E-01;  3.9505050E-01;3; -8.6894557E-02;  0.0000000E+00;  1.0574393E-02;0; -9.4402401E-04;  1.0000011E+04;  0.0000000E+00; -3.0009464E-11;  1.0000000E+04;  0.0000000E+00;  1.0000000E+04; -9.8333252E-04;  0.0000000E+00;  3.9308532E-05;  1.9466299E-01;
  1.9999977E-02;  9.9999998E-03;  2.0000000E-01;1085; -5.1491697E-05;  0.0000000E+00;  7.8493758E-06;  1.0000005E+03;  4.0000001E-01;  3.9505050E-01;3; -8.3109297E-02;  0.0000000E+00;  1.2565787E-02;0; -9.0063404E-04;  1.0000011E+04;  0.0000000E+00; -1.0219247E-11;  1.0000000E+04;  0.0000000E+00;  1.0000000E+04; -9.3557645E-04;  0.0000000E+00;  3.4942386E-05;  1.7514428E-01;
  1.9999979E-02;  9.9999998E-03;  2.2000000E-01;1086; -4.8100428E-05;  0.0000000E+00;  9.0364620E-06;  1.0000005E+03;  4.0000001E-01;  3.9505050E-01;3; -7.7995971E-02;  0.0000000E+00;  1.4581003E-02;0; -8.4611331E-04;  1.0000011E+04;  0.0000000E+00; -3.7080001E-12;  1.0000000E+04;  0.0000000E+00;  1.0000000E+04; -8.6958538E-04;  0.0000000E+00;  2.3472086E-05;  1.2626207E-01;
  1.9999981E-02;  9.9999998E-03;  2.4000001E-01;1087; -4.3678665E-05;  0.0000000E+00;  1.0007996E-05;  1.0000004E+03;  4.0000001E-01;  3.9505050E-01;3; -7.1343280E-02;  0.0000000E+00;  1.6306859E-02;0; -7.7738042E-04;  1.0000009E+04;  0.0000000E+00; -2.2409175E-11;  1.0000000E+04;  0.0000000E+00;  1.0000000E+04; -7.8109303E-04;  0.0000000E+00;  3.7125956E-06;  4.2567942E-02;
  1.9999983E-02;  9.9999998E-03;  2.5999999E-01;1088; -3.7980146E-05;  0.0000000E+00;  1.0705480E-05;  1.0000004E+03;  4.0000001E-01;  3.9505050E-01;3; -6.2738039E-02;  0.0000000E+00;  1.7659904E-02;0; -6.9114973E-04;  1.0000008E+04;  0.0000000E+00; -1.8695481E-11;  1.0000000E+04;  0.0000000E+00;  1.0000000E+04; -6.6863681E-04;  0.0000000E+00; -2.2512930E-05;  6.8848312E-02;
  1.9999987E-02;  9.9999998E-03;  2.8000000E-01;1089; -3.0945455E-05;  0.0000000E+00;  1.0888374E-05;  1.0000004E+03;  4.0000001E-01;  2.9628786E-01;3; -5.1931705E-02;  0.0000000E+00;  1.8240333E-02;0; -5.8595551E-04;  1.0000006E+04;  0.0000000E+00;  2.1142352E-12;  1.0000000E+04;  0.0000000E+00;  1.0000000E+04; -5.3652830E-04;  0.0000000E+00; -4.9427221E-05;  1.8429534E-01;
  1.9999990E-02;  9.9999998E-03;  3.0000001E-01;1090; -2.2696822E-05;  0.0000000E+00;  1.1287502E-05;  1.0000002E+03;  4.0000001E-01;  1.9752525E-01;3; -3.8787752E-02;  0.0000000E+00;  1.9436002E-02;0; -4.6501678E-04;  1.0000004E+04;  0.0000000E+00; -4.8441823E-11;  1.0000000E+04;  0.0000000E+00;  1.0000000E+04; -3.9656088E-04;  0.0000000E+00; -6.8455898E-05;  2.6866099E-01;
  3.9999962E-02;  9.9999998E-03;  1.6000000E-01;1114; -8.0900892E-05;  0.0000000E+00;  7.2775279E-06;  1.0000007E+03;  4.0000001E-01;  5.9257573E-01;3; -1.2527718E-01;  0.0000000E+00;  1.0906281E-02;0; -1.2435383E-03;  1.0000015E+04;  0.0000000E+00; -2.3657474E-11;  1.0000000E+04;  0.0000000E+00;  1.0000000E+04; -1.2974476E-03;  0.0000000E+00;  5.3909229E-05;  2.7448779E-01;
  3.9999966E-02;  9.9999998E-03;  1.8000001E-01;1115; -7.8397767E-05;  0.0000000E+00;  8.7362532E-06;  1.0000007E+03;  4.0000001E-01;  5.9257573E-01;3; -1.2176895E-01;  0.0000000E+00;  1.3206106E-02;0; -1.2035944E-03;  1.0000015E+04;  0.0000000E+00; -3.7962258E-11;  1.0000000E+04;  0.0000000E+00;  1.0000000E+04; -1.2579638E-03;  0.0000000E+00;  5.4369430E-05;  2.7427819E-01;
  3.9999966E-02;  9.9999998E-03;  2.0000000E-01;1116; -7.4912794E-05;  0.0000000E+00;  1.0264309E-05;  1.0000007E+03;  4.0000001E-01;  5.9257573E-01;3; -1.1676189E-01;  0.0000000E+00;  1.5640639E-02;0; -1.1525967E-03;  1.0000015E+04;  0.0000000E+00; -7.0755125E-12;  1.0000000E+04;  0.0000000E+00;  1.0000000E+04; -1.2013919E-03;  0.0000000E+00;  4.8795300E-05;  2.4871105E-01;
  3.9999969E-02;  9.9999998E-03;  2.2000000E-01;1117; -7.0125439E-05;  0.0000000E+00;  1.1791379E-05;  1.0000007E+03;  4.0000001E-01;  5.9257573E-01;3; -1.0985214E-01;  0.0000000E+00;  1.8118717E-02;0; -1.0877805E-03;  1.0000014E+04;  0.0000000E+00;  1.3987794E-11;  1.0000000E+04;  0.0000000E+00;  1.0000000E+04; -1.1213402E-03;  0.0000000E+00;  3.3559794E-05;  1.8191724E-01;
  3.9999969E-02;  9.9999998E-03;  2.4000001E-01;1118; -6.3773281E-05;  0.0000000E+00;  1.3024037E-05;  1.0000006E+03;  4.0000001E-01;  4.9381313E-01;3; -1.0072216E-01;  0.0000000E+00;  2.0216644E-02;0; -1.0047855E-03;  1.0000011E+04;  0.0000000E+00;  1.0200375E-11;  1.0000000E+04;  0.0000000E+00;  1.0000000E+04; -1.0116678E-03;  0.0000000E+00;  6.8822610E-06;  6.5549031E-02;
  3.9999973E-02;  9.9999998E-03;  2.6000002E-01;1119; -5.5493096E-05;  0.0000000E+00;  1.3940797E-05;  1.0000005E+03;  4.0000001E-01;  3.9505050E-01;3; -8.8778131E-02;  0.0000000E+00;  2.1950172E-02;0; -8.9873112E-04;  1.0000011E+04;  0.0000000E+00; -6.7409675E-11;  1.0000000E+04;  0.0000000E+00;  1.0000000E+04; -8.6974812E-04;  0.0000000E+00; -2.8983002E-05;  9.1357663E-02;
  3.9999980E-02;  9.9999998E-03;  2.8000000E-01;1120; -4.5298671E-05;  0.0000000E+00;  1.4291573E-05;  1.0000004E+03;  4.0000001E-01;  3.9505050E-01;3; -7.3806025E-02;  0.0000000E+00;  2.2925932E-02;0; -7.6699414E-04;  1.0000008E+04;  0.0000000E+00; -6.0835434E-11;  1.0000000E+04;  0.0000000E+00;  1.0000000E+04; -7.0054212E-04;  0.0000000E+00; -6.6451998E-05;  2.5660279E-01;
  3.9999984E-02;  9.9999998E-03;  3.0000001E-01;1121; -3.3328874E-05;  0.0000000E+00;  1.4369984E-05;  1.0000004E+03;  4.0000001E-01;  2.9628786E-01;3; -5.5481177E-02;  0.0000000E+00;  2.3745701E-02;0; -6.1364035E-04;  1.0000007E+04;  0.0000000E+00; -5.3693217E-11;  1.0000000E+04;  0.0000000E+00;  1.0000001E+04; -5.1937823E-04;  0.0000000E+00; -9.4262148E-05;  3.8230246E-01;
  5.9999947E-02;  9.9999998E-03;  1.6000001E-01;1145; -1.1310843E-04;  0.0000000E+00;  9.2082382E-06;  1.0000010E+03;  4.0000001E-01;  7.9010099E-01;3; -1.6982900E-01;  0.0000000E+00;  1.3119988E-02;0; -1.5763512E-03;  1.0000021E+04;  0.0000000E+00;  1.9381930E-11;  1.0000000E+04;  0.0000000E+00;  1.0000000E+04; -1.6477579E-03;  0.0000000E+00;  7.1406670E-05;  3.7427214E-01;
  5.9999950E-02;  9.9999998E-03;  1.8000001E-01;1146; -1.0986041E-04;  0.0000000E+00;  1.1048548E-05;  1.0000009E+03;  4.0000001E-01;  7.9010099E-01;3; -1.6548210E-01;  0.0000000E+00;  1.5882136E-02;0; -1.5307294E-03;  1.0000020E+04;  0.0000000E+00;  2.7794325E-12;  1.0000000E+04;  0.0000000E+00;  1.0000000E+04; -1.6031587E-03;  0.0000000E+00;  7.2429255E-05;  3.7610766E-01;
  5.9999950E-02;  9.9999998E-03;  2.0000000E-01;1147; -1.0525319E-04;  0.0000000E+00;  1.2990388E-05;  1.0000009E+03;  4.0000001E-01;  6.9133836E-01;3; -1.5912785E-01;  0.0000000E+00;  1.8833937E-02;0; -1.4715631E-03;  1.0000019E+04;  0.0000000E+00; -3.0841277E-11;  1.0000000E+04;  0.0000000E+00;  1.0000000E+04; -1.5372514E-03;  0.0000000E+00;  6.5688240E-05;  3.4403485E-01;
  5.9999954E-02;  9.9999998E-03;  2.2000001E-01;1148; -9.8817378E-05;  0.0000000E+00;  1.4937069E-05;  1.0000009E+03;  4.0000001E-01;  6.9133836E-01;3; -1.5020666E-01;  0.0000000E+00;  2.1849021E-02;0; -1.3950429E-03;  1.0000019E+04;  0.0000000E+00;  1.3970710E-11;  1.0000000E+04;  0.0000000E+00;  1.0000000E+04; -1.4412774E-03;  0.0000000E+00;  4.6234622E-05;  2.5567147E-01;
  5.9999958E-02;  9.9999998E-03;  2.4000001E-01;1149; -9.0146073E-05;  0.0000000E+00;  1.6524838E-05;  1.0000008E+03;  4.0000001E-01;  6.9133836E-01;3; -1.3824552E-01;  0.0000000E+00;  2.4441550E-02;0; -1.2949759E-03;  1.0000016E+04;  0.0000000E+00; -5.6309967E-11;  1.0000000E+04;  0.0000000E+00;  1.0000000E+04; -1.3064233E-03;  0.0000000E+00;  1.1447471E-05;  9.8482519E-02;
  5.9999965E-02;  9.9999998E-03;  2.6000002E-01;1150; -7.8712321E-05;  0.0000000E+00;  1.7745457E-05;  1.0000007E+03;  4.0000001E-01;  5.9257573E-01;3; -1.2242745E-01;  0.0000000E+00;  2.6681762E-02;0; -1.1642200E-03;  1.0000014E+04;  0.0000000E+00; -5.8284884E-11;  1.0000000E+04;  0.0000000E+00;  1.0000000E+04; -1.1282093E-03;  0.0000000E+00; -3.6010744E-05;  1.1644672E-01;
  5.9999969E-02;  9.9999998E-03;  2.8000000E-01;1151; -6.4540523E-05;  0.0000000E+00;  1.8170145E-05;  1.0000006E+03;  4.0000001E-01;  4.9381313E-01;3; -1.0246011E-01;  0.0000000E+00;  2.7906526E-02;0; -9.9860795E-04;  1.0000011E+04;  0.0000000E+00; -1.6418392E-08;  1.0000000E+04;  0.0000000E+00;  1.0000000E+04; -9.1224734E-04;  0.0000000E+00; -8.6360582E-05;  3.4595194E-01;
  5.9999976E-02;  9.9999998E-03;  3.0000001E-01;1152; -4.7614707E-05;  0.0000000E+00;  1.8258026E-05;  1.0000004E+03;  4.0000001E-01;  3.9505050E-01;3; -7.7447906E-02;  0.0000000E+00;  2.8992299E-02;0; -8.0318097E-04;  1.0000008E+04;  0.0000000E+00; -6.1392377E-08;  1.0000000E+04;  0.0000000E+00;  1.0000001E+04; -6.7846390E-04;  0.0000000E+00; -1.2471706E-04;  5.2431625E-01;
  7.9999924E-02;  9.9999998E-03;  1.6000001E-01;1176; -1.5388784E-04;  0.0000000E+00;  1.1452924E-05;  1.0000013E+03;  4.0000001E-01;  1.0863888E+00;3; -2.2485892E-01;  0.0000000E+00;  1.5523359E-02;0; -2.0075543E-03;  1.0000025E+04;  0.0000000E+00; -1.2604066E-11;  1.0000000E+04;  0.0000000E+00;  9.9999990E+03; -2.1003184E-03;  0.0000000E+00;  9.2764036E-05;  5.0380570E-01;
  7.9999931E-02;  9.9999998E-03;  1.8000001E-01;1177; -1.4985472E-04;  0.0000000E+00;  1.3749382E-05;  1.0000012E+03;  4.0000001E-01;  9.8762625E-01;3; -2.1972704E-01;  0.0000000E+00;  1.8810142E-02;0; -1.9559872E-03;  1.0000024E+04;  0.0000000E+00; -5.7100475E-12;  1.0000000E+04;  0.0000000E+00;  9.9999990E+03; -2.0506687E-03;  0.0000000E+00;  9.4681607E-05;  5.0931025E-01;
  7.9999931E-02;  9.9999998E-03;  2.0000000E-01;1178; -1.4401345E-04;  0.0000000E+00;  1.6191218E-05;  1.0000012E+03;  4.0000001E-01;  9.8762625E-01;3; -2.1199468E-01;  0.0000000E+00;  2.2351874E-02;0; -1.8877235E-03;  1.0000024E+04;  0.0000000E+00; -7.1175087E-11;  1.0000000E+04;  0.0000000E+00;  1.0000000E+04; -1.9745268E-03;  0.0000000E+00;  8.6803288E-05;  4.7015679E-01;
  7.9999939E-02;  9.9999998E-03;  2.2000001E-01;1179; -1.3569844E-04;  0.0000000E+00;  1.8656978E-05;  1.0000012E+03;  4.0000001E-01;  9.8762625E-01;3; -2.0090169E-01;  0.0000000E+00;  2.6009588E-02;0; -1.7974582E-03;  1.0000022E+04;  0.0000000E+00; -2.1705580E-11;  1.0000000E+04;  0.0000000E+00;  1.0000000E+04; -1.8599514E-03;  0.0000000E+00;  6.2493273E-05;  3.5525587E-01;
  7.9999939E-02;  9.9999998E-03;  2.4000001E-01;1180; -1.2430565E-04;  0.0000000E+00;  2.0685382E-05;  1.0000010E+03;  4.0000001E-01;  8.8886362E-01;3; -1.8577561E-01;  0.0000000E+00;  2.9204806E-02;0; -1.6765083E-03;  1.0000021E+04;  0.0000000E+00; -1.6790081E-07;  1.0000000E+04;  0.0000000E+00;  1.0000000E+04; -1.6944995E-03;  0.0000000E+00;  1.7991162E-05;  1.4619514E-01;
  7.9999946E-02;  9.9999998E-03;  2.6000002E-01;1181; -1.0904052E-04;  0.0000000E+00;  2.2314192E-05;  1.0000009E+03;  4.0000001E-01;  7.9010099E-01;3; -1.6544679E-01;  0.0000000E+00;  3.2103654E-02;0; -1.5152369E-03;  1.0000019E+04;  0.0000000E+00; -1.4838132E-06;  1.0000000E+04;  0.0000000E+00;  1.0000000E+04; -1.4715719E-03;  0.0000000E+00; -4.3665059E-05;  1.4395164E-01;
  7.9999961E-02;  9.9999998E-03;  2.8000000E-01;1182; -8.9847126E-05;  0.0000000E+00;  2.2962538E-05;  1.0000009E+03;  4.0000001E-01;  6.9133836E-01;3; -1.3938446E-01;  0.0000000E+00;  3.3822469E-02;0; -1.3074032E-03;  1.0000015E+04;  0.0000000E+00; -4.1429789E-06;  1.0000000E+04;  0.0000000E+00;  1.0000001E+04; -1.1973880E-03;  0.0000000E+00; -1.1001510E-04;  4.5779493E-01;
  7.9999968E-02;  9.9999998E-03;  3.0000001E-01;1183; -6.6529967E-05;  0.0000000E+00;  2.3327029E-05;  1.0000007E+03;  4.0000001E-01;  5.9257573E-01;3; -1.0597707E-01;  0.0000000E+00;  3.5742179E-02;0; -1.0582173E-03;  1.0000011E+04;  0.0000000E+00; -7.2400899E-06;  1.0000000E+04;  0.0000000E+00;  1.0000002E+04; -8.9673244E-04;  0.0000000E+00; -1.6148482E-04;  7.0563996E-01;
  9.9999897E-02;  9.9999998E-03;  1.6000001E-01;1207; -2.0551895E-04;  0.0000000E+00;  1.4158171E-05;  1.0000016E+03;  4.0000001E-01;  1.3826767E+00;3; -2.9283604E-01;  0.0000000E+00;  1.8271575E-02;0; -2.5688095E-03;  1.0000035E+04;  0.0000000E+00; -6.0906440E-11;  1.0000000E+04;  0.0000000E+00;  9.9999990E+03; -2.6886761E-03;  0.0000000E+00;  1.1986646E-04;  6.7595792E-01;
  9.9999905E-02;  9.9999998E-03;  1.8000001E-01;1208; -2.0069249E-04;  0.0000000E+00;  1.7005606E-05;  1.0000016E+03;  4.0000001E-01;  1.2839141E+00;3; -2.8705329E-01;  0.0000000E+00;  2.2162857E-02;0; -2.5111511E-03;  1.0000034E+04;  0.0000000E+00; -3.6530272E-11;  1.0000000E+04;  0.0000000E+00;  9.9999990E+03; -2.6343162E-03;  0.0000000E+00;  1.2316497E-04;  6.8781275E-01;
  9.9999905E-02;  9.9999998E-03;  2.0000000E-01;1209; -1.9352783E-04;  0.0000000E+00;  2.0049400E-05;  1.0000016E+03;  4.0000001E-01;  1.2839141E+00;3; -2.7798912E-01;  0.0000000E+00;  2.6386127E-02;0; -2.4329473E-03;  1.0000033E+04;  0.0000000E+00;  3.0602554E-12;  1.0000000E+04;  0.0000000E+00;  9.9999990E+03; -2.5471570E-03;  0.0000000E+00;  1.1420967E-04;  6.4131957E-01;
  9.9999912E-02;  9.9999998E-03;  2.2000001E-01;1210; -1.8310308E-04;  0.0000000E+00;  2.3139375E-05;  1.0000015E+03;  4.0000001E-01;  1.1851515E+00;3; -2.6461920E-01;  0.0000000E+00;  3.0787311E-02;0; -2.3272764E-03;  1.0000030E+04;  0.0000000E+00; -7.7403769E-07;  1.0000000E+04;  0.0000000E+00;  1.0000000E+04; -2.4115425E-03;  0.0000000E+00;  8.4266023E-05;  4.9397597E-01;
  9.9999920E-02;  9.9999998E-03;  2.4000001E-01;1211; -1.6855460E-04;  0.0000000E+00;  2.5697991E-05;  1.0000013E+03;  4.0000001E-01;  1.0863888E+00;3; -2.4604255E-01;  0.0000000E+00;  3.4665421E-02;0; -2.1841719E-03;  1.0000029E+04;  0.0000000E+00; -6.4514134E-06;  1.0000000E+04;  0.0000000E+00;  1.0000000E+04; -2.2121693E-03;  0.0000000E+00;  2.7997514E-05;  2.2061478E-01;
  9.9999927E-02;  9.9999998E-03;  2.6000002E-01;1212; -1.4868457E-04;  0.0000000E+00;  2.7886857E-05;  1.0000013E+03;  4.0000001E-01;  1.0863888E+00;3; -2.2056553E-01;  0.0000000E+00;  3.8422219E-02;0; -1.9914666E-03;  1.0000025E+04;  0.0000000E+00; -2.2218572E-05;  1.0000000E+04;  0.0000000E+00;  1.0000000E+04; -1.9400204E-03;  0.0000000E+00; -5.1446325E-05;  1.9407205E-01;
  9.9999942E-02;  9.9999998E-03;  2.8000000E-01;1213; -1.2324617E-04;  0.0000000E+00;  2.9003222E-05;  1.0000012E+03;  4.0000001E-01;  9.8762625E-01;3; -1.8721762E-01;  0.0000000E+00;  4.1038908E-02;0; -1.7382044E-03;  1.0000021E+04;  0.0000000E+00; -4.6482990E-05;  1.0000000E+04;  0.0000000E+00;  1.0000001E+04; -1.5997884E-03;  0.0000000E+00; -1.3841591E-04;  6.2797093E-01;
  9.9999957E-02;  9.9999998E-03;  3.0000001E-01;1214; -9.1752881E-05;  0.0000000E+00;  3.0036630E-05;  1.0000009E+03;  4.0000001E-01;  6.9133836E-01;3; -1.4335681E-01;  0.0000000E+00;  4.4501998E-02;0; -1.4257147E-03;  1.0000016E+04;  0.0000000E+00; -7.1703798E-05;  1.0000000E+04;  0.0000000E+00;  1.0000002E+04; -1.2186373E-03;  0.0000000E+00; -2.0707739E-04;  9.8612577E-01;
  1.1999986E-01;  9.9999998E-03;  1.6000001E-01;1238; -2.7116633E-04;  0.0000000E+00;  1.7511855E-05;  1.0000021E+03;  4.0000001E-01;  1.7777272E+00;3; -3.7692755E-01;  0.0000000E+00;  2.1561783E-02;0; -3.2927194E-03;  1.0000045E+04;  0.0000000E+00;  4.0844494E-11;  1.0000000E+04;  0.0000000E+00;  9.9999980E+03; -3.4483087E-03;  0.0000000E+00;  1.5558921E-04;  9.0934348E-01;
  1.1999987E-01;  9.9999998E-03;  1.8000001E-01;1239; -2.6556468E-04;  0.0000000E+00;  2.1040034E-05;  1.0000021E+03;  4.0000001E-01;  1.7777272E+00;3; -3.7069279E-01;  0.0000000E+00;  2.6158851E-02;0; -3.2291315E-03;  1.0000044E+04;  0.0000000E+00; -1.1103303E-10;  1.0000000E+04;  0.0000000E+00;  9.9999980E+03; -3.3903904E-03;  0.0000000E+00;  1.6125900E-04;  9.3325973E-01;
  1.1999987E-01;  9.9999998E-03;  2.0000002E-01;1240; -2.5699678E-04;  0.0000000E+00;  2.4822226E-05;  1.0000021E+03;  4.0000001E-01;  1.7777272E+00;3; -3.6042306E-01;  0.0000000E+00;  3.1180095E-02;0; -3.1409585E-03;  1.0000043E+04;  0.0000000E+00; -7.7258539E-07;  1.0000000E+04;  0.0000000E+00;  9.9999980E+03; -3.2928076E-03;  0.0000000E+00;  1.5184902E-04;  8.8235426E-01;
  1.1999988E-01;  9.9999998E-03;  2.2000001E-01;1241; -2.4423425E-04;  0.0000000E+00;  2.8658100E-05;  1.0000020E+03;  4.0000001E-01;  1.6789646E+00;3; -3.4478992E-01;  0.0000000E+00;  3.6424488E-02;0; -3.0223015E-03;  1.0000041E+04;  0.0000000E+00; -9.8482406E-06;  1.0000000E+04;  0.0000000E+00;  9.9999990E+03; -3.1382702E-03;  0.0000000E+00;  1.1596880E-04;  7.0019609E-01;
  1.1999989E-01;  9.9999998E-03;  2.4000002E-01;1242; -2.2604398E-04;  0.0000000E+00;  3.1898453E-05;  1.0000018E+03;  4.0000001E-01;  1.4814394E+00;3; -3.2256684E-01;  0.0000000E+00;  4.1120991E-02;0; -2.8646311E-03;  1.0000038E+04;  0.0000000E+00; -4.5563400E-05;  1.0000000E+04;  0.0000000E+00;  1.0000000E+04; -2.9102087E-03;  0.0000000E+00;  4.5577610E-05;  3.9374149E-01;
  1.1999990E-01;  9.9999998E-03;  2.6000002E-01;1243; -2.0071203E-04;  0.0000000E+00;  3.4852957E-05;  1.0000018E+03;  4.0000001E-01;  1.4814394E+00;3; -2.9138660E-01;  0.0000000E+00;  4.6000026E-02;0; -2.6527890E-03;  1.0000034E+04;  0.0000000E+00; -1.2425482E-04;  1.0000000E+04;  0.0000000E+00;  1.0000000E+04; -2.5958915E-03;  0.0000000E+00; -5.6897603E-05;  5.6144381E-01;
  1.1999992E-01;  9.9999998E-03;  2.8000003E-01;1244; -1.6760771E-04;  0.0000000E+00;  3.6810841E-05;  1.0000015E+03;  4.0000001E-01;  1.2839141E+00;3; -2.4953654E-01;  0.0000000E+00;  5.0101437E-02;0; -2.3657777E-03;  1.0000029E+04;  0.0000000E+00; -2.3826469E-04;  1.0000000E+04;  0.0000000E+00;  1.0000002E+04; -2.1938672E-03;  0.0000000E+00; -1.7191039E-04;  1.2714013E+00;
  1.1999994E-01;  9.9999998E-03;  3.0000001E-01;1245; -1.2578594E-04;  0.0000000E+00;  3.8985891E-05;  1.0000013E+03;  4.0000001E-01;  1.0863888E+00;3; -1.9291238E-01;  0.0000000E+00;  5.5970401E-02;0; -1.9880182E-03;  1.0000021E+04;  0.0000000E+00; -3.3954525E-04;  1.0000000E+04;  0.0000000E+00;  1.0000003E+04; -1.7232838E-03;  0.0000000E+00; -2.6473447E-04;  1.9053875E+00;
  1.3999982E-01;  9.9999998E-03;  1.6000001E-01;1269; -3.5488358E-04;  0.0000000E+00;  2.1759861E-05;  1.0000029E+03;  4.0000001E-01;  2.3703029E+00;3; -4.8091978E-01;  0.0000000E+00;  2.5646187E-02;0; -4.2144195E-03;  1.0000061E+04;  0.0000000E+00;  1.0668109E-11;  1.0000000E+04;  0.0000000E+00;  9.9999980E+03; -4.4187433E-03;  0.0000000E+00;  2.0432365E-04;  1.2315048E+00;
  1.3999982E-01;  9.9999998E-03;  1.8000002E-01;1270; -3.4856543E-04;  0.0000000E+00;  2.6186553E-05;  1.0000028E+03;  4.0000001E-01;  2.3703029E+00;3; -4.7454777E-01;  0.0000000E+00;  3.1143177E-02;0; -4.1452148E-03;  1.0000061E+04;  0.0000000E+00; -1.7022623E-07;  1.0000000E+04;  0.0000000E+00;  9.9999980E+03; -4.3600234E-03;  0.0000000E+00;  2.1480845E-04;  1.2812186E+00;
  1.3999982E-01;  9.9999998E-03;  2.0000002E-01;1271; -3.3852950E-04;  0.0000000E+00;  3.0960458E-05;  1.0000027E+03;  4.0000001E-01;  2.2715404E+00;3; -4.6330103E-01;  0.0000000E+00;  3.7200667E-02;0; -4.0494213E-03;  1.0000058E+04;  0.0000000E+00; -6.6118755E-06;  1.0000000E+04;  0.0000000E+00;  9.9999980E+03; -4.2569176E-03;  0.0000000E+00;  2.0749633E-04;  1.2395128E+00;
  1.3999984E-01;  9.9999998E-03;  2.2000001E-01;1272; -3.2319588E-04;  0.0000000E+00;  3.5743094E-05;  1.0000026E+03;  4.0000001E-01;  2.1727777E+00;3; -4.4555673E-01;  0.0000000E+00;  4.3430261E-02;0; -3.9269971E-03;  1.0000055E+04;  0.0000000E+00; -4.6795176E-05;  1.0000000E+04;  0.0000000E+00;  9.9999980E+03; -4.0939436E-03;  0.0000000E+00;  1.6694653E-04;  1.0445029E+00;
  1.3999985E-01;  9.9999998E-03;  2.4000002E-01;1273; -3.0083279E-04;  0.0000000E+00;  3.9909974E-05;  1.0000025E+03;  4.0000001E-01;  2.0740151E+00;3; -4.1958460E-01;  0.0000000E+00;  4.9230386E-02;0; -3.7757368E-03;  1.0000052E+04;  0.0000000E+00; -1.7474171E-04;  1.0000000E+04;  0.0000000E+00;  1.0000000E+04; -3.8557267E-03;  0.0000000E+00;  7.9989957E-05;  9.4747758E-01;
  1.3999987E-01;  9.9999998E-03;  2.6000002E-01;1274; -2.6914236E-04;  0.0000000E+00;  4.3869579E-05;  1.0000024E+03;  4.0000001E-01;  1.9752525E+00;3; -3.8234788E-01;  0.0000000E+00;  5.5529356E-02;0; -3.5791232E-03;  1.0000047E+04;  0.0000000E+00; -4.3787633E-04;  1.0000000E+04;  0.0000000E+00;  1.0000000E+04; -3.5256904E-03;  0.0000000E+00; -5.3432792E-05;  1.8964522E+00;
  1.3999988E-01;  9.9999998E-03;  2.8000003E-01;1275; -2.2678560E-04;  0.0000000E+00;  4.7185666E-05;  1.0000021E+03;  4.0000001E-01;  1.7777272E+00;3; -3.3084476E-01;  0.0000000E+00;  6.1966091E-02;0; -3.2975483E-03;  1.0000041E+04;  0.0000000E+00; -8.0948183E-04;  1.0000000E+04;  0.0000000E+00;  1.0000002E+04; -3.0886033E-03;  0.0000000E+00; -2.0894512E-04;  3.6097982E+00;
  1.3999991E-01;  9.9999998E-03;  3.0000004E-01;1276; -1.7215798E-04;  0.0000000E+00;  5.1161202E-05;  1.0000019E+03;  4.0000001E-01;  1.5802020E+00;3; -2.5924200E-01;  0.0000000E+00;  7.1305498E-02;0; -2.8736372E-03;  1.0000034E+04;  0.0000000E+00; -1.1222470E-03;  1.0000000E+04;  0.0000000E+00;  1.0000004E+04; -2.5355744E-03;  0.0000000E+00; -3.3806276E-04;  5.0839157E+00;
  1.5999976E-01;  9.9999998E-03;  1.6000001E-01;1300; -4.6158777E-04;  0.0000000E+00;  2.7258504E-05;  1.0000038E+03;  4.0000001E-01;  3.1604040E+00;3; -6.0923505E-01;  0.0000000E+00;  3.0915344E-02;0; -5.3743995E-03;  1.0000080E+04;  0.0000000E+00; -9.1699141E-11;  1.0000000E+04;  0.0000000E+00;  9.9999971E+03; -5.6472514E-03;  0.0000000E+00;  2.7285199E-04;  1.6839368E+00;
  1.5999976E-01;  9.9999998E-03;  1.8000002E-01;1301; -4.5468737E-04;  0.0000000E+00;  3.2930544E-05;  1.0000037E+03;  4.0000001E-01;  3.0616415E+00;3; -6.0318357E-01;  0.0000000E+00;  3.7668254E-02;0; -5.2999789E-03;  1.0000077E+04;  0.0000000E+00; -1.6220824E-06;  1.0000000E+04;  0.0000000E+00;  9.9999961E+03; -5.5936272E-03;  0.0000000E+00;  2.9364842E-04;  1.7898116E+00;
  1.5999977E-01;  9.9999998E-03;  2.0000002E-01;1302; -4.4318277E-04;  0.0000000E+00;  3.9107759E-05;  1.0000037E+03;  4.0000001E-01;  3.0616415E+00;3; -5.9134758E-01;  0.0000000E+00;  4.5168638E-02;0; -5.2004415E-03;  1.0000076E+04;  0.0000000E+00; -2.4592910E-05;  1.0000000E+04;  0.0000000E+00;  9.9999961E+03; -5.4951990E-03;  0.0000000E+00;  2.9475760E-04;  1.7938484E+00;
  1.5999977E-01;  9.9999998E-03;  2.2000003E-01;1303; -4.2499730E-04;  0.0000000E+00;  4.5340144E-05;  1.0000036E+03;  4.0000001E-01;  2.9628787E+00;3; -5.7166451E-01;  0.0000000E+00;  5.2939136E-02;0; -5.0880769E-03;  1.0000075E+04;  0.0000000E+00; -1.3722983E-04;  1.0000000E+04;  0.0000000E+00;  9.9999971E+03; -5.3421026E-03;  0.0000000E+00;  2.5402560E-04;  1.6795692E+00;
  1.5999979E-01;  9.9999998E-03;  2.4000002E-01;1304; -3.9786080E-04;  0.0000000E+00;  5.0796956E-05;  1.0000035E+03;  4.0000001E-01;  2.8641162E+00;3; -5.4194021E-01;  0.0000000E+00;  6.0245033E-02;0; -4.9756039E-03;  1.0000071E+04;  0.0000000E+00; -4.6758648E-04;  1.0000000E+04;  0.0000000E+00;  9.9999980E+03; -5.1245000E-03;  0.0000000E+00;  1.4889610E-04;  2.2787137E+00;
  1.5999982E-01;  9.9999998E-03;  2.6000002E-01;1305; -3.5890518E-04;  0.0000000E+00;  5.5893852E-05;  1.0000033E+03;  4.0000001E-01;  2.7653534E+00;3; -4.9859595E-01;  0.0000000E+00;  6.8065256E-02;0; -4.8528006E-03;  1.0000067E+04;  0.0000000E+00; -1.1396343E-03;  1.0000000E+04;  0.0000000E+00;  1.0000000E+04; -4.8258384E-03;  0.0000000E+00; -2.6962167E-05;  4.9671617E+00;
  1.5999985E-01;  9.9999998E-03;  2.8000003E-01;1306; -3.0573562E-04;  0.0000000E+00;  6.1035847E-05;  1.0000032E+03;  4.0000001E-01;  2.6665909E+00;3; -4.3685287E-01;  0.0000000E+00;  7.7501133E-02;0; -4.6552946E-03;  1.0000061E+04;  0.0000000E+00; -2.1001031E-03;  1.0000000E+04;  0.0000000E+00;  1.0000003E+04; -4.4117374E-03;  0.0000000E+00; -2.4355709E-04;  9.1827917E+00;
  1.5999988E-01;  9.9999998E-03;  3.0000004E-01;1307; -2.3585468E-04;  0.0000000E+00;  6.7282468E-05;  1.0000028E+03;  4.0000001E-01;  2.3703029E+00;3; -3.4871304E-01;  0.0000000E+00;  9.1064841E-02;0; -4.2480896E-03;  1.0000053E+04;  0.0000000E+00; -2.9295485E-03;  1.0000000E+04;  0.0000000E+00;  1.0000006E+04; -3.8176789E-03;  0.0000000E+00; -4.3041067E-04;  1.2850597E+01;
  1.7999968E-01;  9.9999998E-03;  1.6000003E-01;1331; -5.9721555E-04;  0.0000000E+00;  3.4436704E-05;  1.0000049E+03;  4.0000001E-01;  4.0492678E+00;3; -7.6703477E-01;  0.0000000E+00;  3.7868567E-02;0; -6.8216799E-03;  1.0000103E+04;  0.0000000E+00; -2.0122670E-08;  1.0000000E+04;  0.0000000E+00;  9.9999951E+03; -7.1927384E-03;  0.0000000E+00;  3.7105870E-04;  2.3266308E+00;
  1.7999968E-01;  9.9999998E-03;  1.8000002E-01;1332; -5.8995740E-04;  0.0000000E+00;  4.1952640E-05;  1.0000048E+03;  4.0000001E-01;  3.9505050E+00;3; -7.6192605E-01;  0.0000000E+00;  4.6532229E-02;0; -6.7412672E-03;  1.0000103E+04;  0.0000000E+00; -5.2117794E-06;  1.0000000E+04;  0.0000000E+00;  9.9999941E+03; -7.1537215E-03;  0.0000000E+00;  4.1245457E-04;  2.5457451E+00;
  1.7999969E-01;  9.9999998E-03;  2.0000003E-01;1333; -5.7711144E-04;  0.0000000E+00;  5.0082752E-05;  1.0000048E+03;  4.0000001E-01;  3.9505050E+00;3; -7.5011188E-01;  0.0000000E+00;  5.6040019E-02;0; -6.6394573E-03;  1.0000100E+04;  0.0000000E+00; -5.7569829E-05;  1.0000000E+04;  0.0000000E+00;  9.9999941E+03; -7.0734797E-03;  0.0000000E+00;  4.3402216E-04;  2.6681280E+00;
  1.7999971E-01;  9.9999998E-03;  2.2000003E-01;1334; -5.5596163E-04;  0.0000000E+00;  5.8267513E-05;  1.0000046E+03;  4.0000001E-01;  3.8517423E+00;3; -7.2903752E-01;  0.0000000E+00;  6.5767787E-02;0; -6.5469304E-03;  1.0000099E+04;  0.0000000E+00; -2.8971527E-04;  1.0000000E+04;  0.0000000E+00;  9.9999951E+03; -6.9502904E-03;  0.0000000E+00;  4.0335994E-04;  2.7937672E+00;
  1.7999972E-01;  9.9999998E-03;  2.4000004E-01;1335; -5.2344776E-04;  0.0000000E+00;  6.5537053E-05;  1.0000046E+03;  4.0000001E-01;  3.7529798E+00;3; -6.9572449E-01;  0.0000000E+00;  7.5209044E-02;0; -6.5027354E-03;  1.0000096E+04;  0.0000000E+00; -9.5491851E-04;  1.0000000E+04;  0.0000000E+00;  9.9999961E+03; -6.7848023E-03;  0.0000000E+00;  2.8206708E-04;  4.5912571E+00;
  1.7999974E-01;  9.9999998E-03;  2.6000005E-01;1336; -4.7612740E-04;  0.0000000E+00;  7.2166447E-05;  1.0000045E+03;  4.0000001E-01;  3.7529798E+00;3; -6.4628869E-01;  0.0000000E+00;  8.4940672E-02;0; -6.5189479E-03;  1.0000092E+04;  0.0000000E+00; -2.3298105E-03;  1.0000000E+04;  0.0000000E+00;  1.0000000E+04; -6.5685282E-03;  0.0000000E+00;  4.9580529E-05;  1.0259660E+01;
  1.7999978E-01;  9.9999998E-03;  2.8000006E-01;1337; -4.1104059E-04;  0.0000000E+00;  7.8800760E-05;  1.0000045E+03;  4.0000001E-01;  3.6542170E+00;3; -5.7489634E-01;  0.0000000E+00;  9.6772283E-02;0; -6.5142894E-03;  1.0000087E+04;  0.0000000E+00; -4.3652994E-03;  1.0000000E+04;  0.0000000E+00;  1.0000003E+04; -6.2530213E-03;  0.0000000E+00; -2.6126823E-04;  1.9154467E+01;
  1.7999983E-01;  9.9999998E-03;  3.0000004E-01;1338; -3.2406932E-04;  0.0000000E+00;  8.7279957E-05;  1.0000043E+03;  4.0000001E-01;  3.5554545E+00;3; -4.7053191E-01;  0.0000000E+00;  1.1406016E-01;0; -6.2377900E-03;  1.0000078E+04;  0.0000000E+00; -6.2266239E-03;  1.0000000E+04;  0.0000000E+00;  1.0000007E+04; -5.6941099E-03;  0.0000000E+00; -5.4367993E-04;  2.7312616E+01;
  1.9999957E-01;  9.9999998E-03;  1.6000003E-01;1362; -7.6902803E-04;  0.0000000E+00;  4.3736603E-05;  1.0000064E+03;  4.0000001E-01;  5.3331819E+00;3; -9.6034330E-01;  0.0000000E+00;  4.6974652E-02;0; -8.6145895E-03;  1.0000137E+04;  0.0000000E+00; -9.2598043E-08;  1.0000000E+04;  0.0000000E+00;  9.9999932E+03; -9.1263233E-03;  0.0000000E+00;  5.1173370E-04;  3.2386510E+00;
  1.9999957E-01;  9.9999998E-03;  1.8000004E-01;1363; -7.6176983E-04;  0.0000000E+00;  5.3941887E-05;  1.0000063E+03;  4.0000001E-01;  5.2344189E+00;3; -9.5699531E-01;  0.0000000E+00;  5.8507707E-02;0; -8.5244160E-03;  1.0000136E+04;  0.0000000E+00; -9.7250841E-06;  1.0000000E+04;  0.0000000E+00;  9.9999932E+03; -9.1144359E-03;  0.0000000E+00;  5.9001957E-04;  3.6631095E+00;
  1.9999959E-01;  9.9999998E-03;  2.0000003E-01;1364; -7.4789539E-04;  0.0000000E+00;  6.4750107E-05;  1.0000062E+03;  4.0000001E-01;  5.1356564E+00;3; -9.4613945E-01;  0.0000000E+00;  7.0742019E-02;0; -8.4142694E-03;  1.0000132E+04;  0.0000000E+00; -9.6019612E-05;  1.0000000E+04;  0.0000000E+00;  9.9999902E+03; -9.0658208E-03;  0.0000000E+00;  6.5155129E-04;  4.0167217E+00;
  1.9999960E-01;  9.9999998E-03;  2.2000004E-01;1365; -7.2372402E-04;  0.0000000E+00;  7.5834949E-05;  1.0000060E+03;  4.0000001E-01;  4.9381313E+00;3; -9.2434490E-01;  0.0000000E+00;  8.3578706E-02;0; -8.3352653E-03;  1.0000132E+04;  0.0000000E+00; -4.6716351E-04;  1.0000000E+04;  0.0000000E+00;  9.9999902E+03; -8.9855753E-03;  0.0000000E+00;  6.5030996E-04;  4.4918647E+00;
  1.9999963E-01;  9.9999998E-03;  2.4000005E-01;1366; -6.8568141E-04;  0.0000000E+00;  8.4893654E-05;  1.0000060E+03;  4.0000001E-01;  4.9381313E+00;3; -8.8862890E-01;  0.0000000E+00;  9.4644934E-02;0; -8.3622374E-03;  1.0000129E+04;  0.0000000E+00; -1.5378975E-03;  1.0000000E+04;  0.0000000E+00;  9.9999932E+03; -8.8851983E-03;  0.0000000E+00;  5.2296103E-04;  7.5922370E+00;
  1.9999966E-01;  9.9999998E-03;  2.6000005E-01;1367; -6.2903250E-04;  0.0000000E+00;  9.3449300E-05;  1.0000061E+03;  4.0000001E-01;  5.0368938E+00;3; -8.3384585E-01;  0.0000000E+00;  1.0638049E-01;0; -8.5485242E-03;  1.0000127E+04;  0.0000000E+00; -3.8128064E-03;  1.0000000E+04;  0.0000000E+00;  9.9999971E+03; -8.7688584E-03;  0.0000000E+00;  2.2033395E-04;  1.6999634E+01;
  1.9999970E-01;  9.9999998E-03;  2.8000006E-01;1368; -5.5126887E-04;  0.0000000E+00;  1.0142496E-04;  1.0000062E+03;  4.0000001E-01;  5.1356564E+00;3; -7.5460815E-01;  0.0000000E+00;  1.1990157E-01;0; -8.8172276E-03;  1.0000123E+04;  0.0000000E+00; -7.3082503E-03;  1.0000000E+04;  0.0000000E+00;  1.0000003E+04; -8.5840272E-03;  0.0000000E+00; -2.3320036E-04;  3.2331879E+01;
  1.9999976E-01;  9.9999998E-03;  3.0000007E-01;1369; -4.4566346E-04;  0.0000000E+00;  1.1229768E-04;  1.0000062E+03;  4.0000001E-01;  5.1356564E+00;3; -6.3555175E-01;  0.0000000E+00;  1.4072192E-01;0; -8.7748254E-03;  1.0000112E+04;  0.0000000E+00; -1.0642530E-02;  1.0000000E+04;  0.0000000E+00;  1.0000011E+04; -8.1025753E-03;  0.0000000E+00; -6.7225011E-04;  4.7023567E+01;
  2.1999943E-01;  9.9999998E-03;  1.6000004E-01;1393; -9.8580727E-04;  0.0000000E+00;  5.5590619E-05;  1.0000083E+03;  4.0000001E-01;  6.9133835E+00;3; -1.1960813E+00;  0.0000000E+00;  5.8660358E-02;0; -1.0822116E-02;  1.0000177E+04;  0.0000000E+00; -1.1094404E-07;  1.0000000E+04;  0.0000000E+00;  9.9999893E+03; -1.1531179E-02;  0.0000000E+00;  7.0906227E-04;  4.5127125E+00;
  2.1999943E-01;  9.9999998E-03;  1.8000004E-01;1394; -9.7915030E-04;  0.0000000E+00;  6.9507914E-05;  1.0000082E+03;  4.0000001E-01;  6.8146210E+00;3; -1.1956179E+00;  0.0000000E+00;  7.4197814E-02;0; -1.0715059E-02;  1.0000176E+04;  0.0000000E+00; -1.1863154E-05;  1.0000000E+04;  0.0000000E+00;  9.9999883E+03; -1.1561736E-02;  0.0000000E+00;  8.4667781E-04;  5.2732558E+00;
  2.1999945E-01;  9.9999998E-03;  2.0000005E-01;1395; -9.6474477E-04;  0.0000000E+00;  8.4270061E-05;  1.0000080E+03;  4.0000001E-01;  6.6170959E+00;3; -1.1869034E+00;  0.0000000E+00;  9.0555459E-02;0; -1.0581217E-02;  1.0000173E+04;  0.0000000E+00; -1.1877025E-04;  1.0000000E+04;  0.0000000E+00;  9.9999873E+03; -1.1556890E-02;  0.0000000E+00;  9.7567326E-04;  6.0107145E+00;
  2.1999946E-01;  9.9999998E-03;  2.2000006E-01;1396; -9.3808147E-04;  0.0000000E+00;  9.9446930E-05;  1.0000079E+03;  4.0000001E-01;  6.5183330E+00;3; -1.1660644E+00;  0.0000000E+00;  1.0746959E-01;0; -1.0487763E-02;  1.0000173E+04;  0.0000000E+00; -5.8664032E-04;  1.0000000E+04;  0.0000000E+00;  9.9999844E+03; -1.1522233E-02;  0.0000000E+00;  1.0344690E-03;  6.8390741E+00;
  2.1999949E-01;  9.9999998E-03;  2.4000007E-01;1397; -8.9437293E-04;  0.0000000E+00;  1.1311629E-04;  1.0000079E+03;  4.0000001E-01;  6.5183330E+00;3; -1.1293156E+00;  0.0000000E+00;  1.2342346E-01;0; -1.0543416E-02;  1.0000171E+04;  0.0000000E+00; -1.9723589E-03;  1.0000000E+04;  0.0000000E+00;  9.9999883E+03; -1.1471396E-02;  0.0000000E+00;  9.2798012E-04;  1.0546725E+01;
  2.1999954E-01;  9.9999998E-03;  2.6000008E-01;1398; -8.2758494E-04;  0.0000000E+00;  1.2816607E-04;  1.0000080E+03;  4.0000001E-01;  6.6170959E+00;3; -1.0705311E+00;  0.0000000E+00;  1.4269629E-01;0; -1.0847018E-02;  1.0000166E+04;  0.0000000E+00; -5.0151139E-03;  1.0000000E+04;  0.0000000E+00;  9.9999932E+03; -1.1411811E-02;  0.0000000E+00;  5.6479347E-04;  2.2780493E+01;
  2.1999960E-01;  9.9999998E-03;  2.8000009E-01;1399; -7.3488121E-04;  0.0000000E+00;  1.4656913E-04;  1.0000082E+03;  4.0000001E-01;  6.8146210E+00;3; -9.8355514E-01;  0.0000000E+00;  1.7036387E-01;0; -1.1318479E-02;  1.0000162E+04;  0.0000000E+00; -9.8396242E-03;  1.0000000E+04;  0.0000000E+00;  1.0000000E+04; -1.1280189E-02;  0.0000000E+00; -3.8289261E-05;  4.3959839E+01;
  2.1999967E-01;  9.9999998E-03;  3.0000010E-01;1400; -6.0247834E-04;  0.0000000E+00;  1.7844074E-04;  1.0000082E+03;  4.0000001E-01;  6.8146210E+00;3; -8.4198147E-01;  0.0000000E+00;  2.2190505E-01;0; -1.1323029E-02;  1.0000153E+04;  0.0000000E+00; -1.4606261E-02;  1.0000000E+04;  0.0000000E+00;  1.0000009E+04; -1.0752768E-02;  0.0000000E+00; -5.7026057E-04;  6.5068733E+01;
  2.3999925E-01;  9.9999998E-03;  1.6000004E-01;1424; -1.2580794E-03;  0.0000000E+00;  7.0416529E-05;  1.0000107E+03;  4.0000001E-01;  8.8886366E+00;3; -1.4821601E+00;  0.0000000E+00;  7.3243596E-02;0; -1.3527181E-02;  1.0000228E+04;  0.0000000E+00; -3.4522351E-08;  1.0000000E+04;  0.0000000E+00;  9.9999873E+03; -1.4503512E-02;  0.0000000E+00;  9.7633066E-04;  6.2458911E+00;
  2.3999926E-01;  9.9999998E-03;  1.8000005E-01;1425; -1.2530355E-03;  0.0000000E+00;  8.9490000E-05;  1.0000104E+03;  4.0000001E-01;  8.6911106E+00;3; -1.4861860E+00;  0.0000000E+00;  9.4440095E-02;0; -1.3394899E-02;  1.0000228E+04;  0.0000000E+00; -9.4236721E-06;  1.0000000E+04;  0.0000000E+00;  9.9999814E+03; -1.4595591E-02;  0.0000000E+00;  1.2006925E-03;  7.5097694E+00;
  2.3999928E-01;  9.9999998E-03;  2.0000006E-01;1426; -1.2390256E-03;  0.0000000E+00;  1.1058974E-04;  1.0000102E+03;  4.0000001E-01;  8.4935856E+00;3; -1.4813572E+00;  0.0000000E+00;  1.1772825E-01;0; -1.3217546E-02;  1.0000228E+04;  0.0000000E+00; -1.0866942E-04;  1.0000000E+04;  0.0000000E+00;  9.9999795E+03; -1.4648430E-02;  0.0000000E+00;  1.4308839E-03;  8.8298330E+00;
  2.3999929E-01;  9.9999998E-03;  2.2000009E-01;1427; -1.2109814E-03;  0.0000000E+00;  1.3332261E-04;  1.0000101E+03;  4.0000001E-01;  8.2960606E+00;3; -1.4639204E+00;  0.0000000E+00;  1.4284639E-01;0; -1.3068466E-02;  1.0000225E+04;  0.0000000E+00; -5.7260902E-04;  1.0000000E+04;  0.0000000E+00;  9.9999775E+03; -1.4659690E-02;  0.0000000E+00;  1.5912246E-03;  1.0066864E+01;
  2.3999932E-01;  9.9999998E-03;  2.4000010E-01;1428; -1.1629803E-03;  0.0000000E+00;  1.5768770E-04;  1.0000101E+03;  4.0000001E-01;  8.2960606E+00;3; -1.4297743E+00;  0.0000000E+00;  1.7105091E-01;0; -1.3074691E-02;  1.0000223E+04;  0.0000000E+00; -2.0111429E-03;  1.0000000E+04;  0.0000000E+00;  9.9999785E+03; -1.4632065E-02;  0.0000000E+00;  1.5573737E-03;  1.3188272E+01;
  2.3999937E-01;  9.9999998E-03;  2.6000011E-01;1429; -1.0869441E-03;  0.0000000E+00;  1.9219796E-04;  1.0000101E+03;  4.0000001E-01;  8.3948231E+00;3; -1.3709396E+00;  0.0000000E+00;  2.1471141E-01;0; -1.3347086E-02;  1.0000219E+04;  0.0000000E+00; -5.2996888E-03;  1.0000000E+04;  0.0000000E+00;  9.9999824E+03; -1.4559976E-02;  0.0000000E+00;  1.2128893E-03;  2.5148054E+01;
  2.3999944E-01;  9.9999998E-03;  2.8000015E-01;1430; -9.8179688E-04;  0.0000000E+00;  2.4390494E-04;  1.0000103E+03;  4.0000001E-01;  8.5923481E+00;3; -1.2837294E+00;  0.0000000E+00;  2.8771928E-01;0; -1.3733062E-02;  1.0000213E+04;  0.0000000E+00; -1.0671359E-02;  1.0000000E+04;  0.0000000E+00;  9.9999932E+03; -1.4366990E-02;  0.0000000E+00;  6.3392828E-04;  4.8345985E+01;
  2.3999953E-01;  9.9999998E-03;  3.0000019E-01;1431; -8.3154574E-04;  0.0000000E+00;  3.2933889E-04;  1.0000098E+03;  4.0000001E-01;  8.0985355E+00;3; -1.1361387E+00;  0.0000000E+00;  4.2011279E-01;0; -1.3338962E-02;  1.0000203E+04;  0.0000000E+00; -1.6077502E-02;  1.0000000E+04;  0.0000000E+00;  9.9999971E+03; -1.3715546E-02;  0.0000000E+00;  3.7658412E-04;  7.2273582E+01;
  2.5999904E-01;  9.9999998E-03;  1.6000006E-01;1455; -1.5984023E-03;  0.0000000E+00;  8.8568457E-05;  1.0000137E+03;  4.0000001E-01;  1.1357701E+01;3; -1.8275551E+00;  0.0000000E+00;  9.0938509E-02;0; -1.6829895E-02;  1.0000292E+04;  0.0000000E+00; -3.2800698E-10;  1.0000000E+04;  0.0000000E+00;  9.9999814E+03; -1.8153753E-02;  0.0000000E+00;  1.3238575E-03;  8.5311441E+00;
  2.5999904E-01;  9.9999998E-03;  1.8000007E-01;1456; -1.5965676E-03;  0.0000000E+00;  1.1490672E-04;  1.0000135E+03;  4.0000001E-01;  1.1160175E+01;3; -1.8383507E+00;  0.0000000E+00;  1.2025172E-01;0; -1.6666390E-02;  1.0000293E+04;  0.0000000E+00; -4.3011105E-06;  1.0000000E+04;  0.0000000E+00;  9.9999766E+03; -1.8331857E-02;  0.0000000E+00;  1.6654672E-03;  1.0496488E+01;
  2.5999904E-01;  9.9999998E-03;  2.0000009E-01;1457; -1.5846323E-03;  0.0000000E+00;  1.4568417E-04;  1.0000132E+03;  4.0000001E-01;  1.0962650E+01;3; -1.8400068E+00;  0.0000000E+00;  1.5432328E-01;0; -1.6430207E-02;  1.0000293E+04;  0.0000000E+00; -7.0313567E-05;  1.0000000E+04;  0.0000000E+00;  9.9999707E+03; -1.8463276E-02;  0.0000000E+00;  2.0330702E-03;  1.2641922E+01;
  2.5999907E-01;  9.9999998E-03;  2.2000012E-01;1458; -1.5571428E-03;  0.0000000E+00;  1.8159219E-04;  1.0000128E+03;  4.0000001E-01;  1.0666363E+01;3; -1.8294824E+00;  0.0000000E+00;  1.9433345E-01;0; -1.6191019E-02;  1.0000294E+04;  0.0000000E+00; -4.2450975E-04;  1.0000000E+04;  0.0000000E+00;  9.9999658E+03; -1.8532330E-02;  0.0000000E+00;  2.3413117E-03;  1.4565019E+01;
  2.5999910E-01;  9.9999998E-03;  2.4000014E-01;1459; -1.5080404E-03;  0.0000000E+00;  2.2376799E-04;  1.0000126E+03;  4.0000001E-01;  1.0468838E+01;3; -1.8040901E+00;  0.0000000E+00;  2.4318263E-01;0; -1.6075440E-02;  1.0000290E+04;  0.0000000E+00; -1.6081500E-03;  1.0000000E+04;  0.0000000E+00;  9.9999658E+03; -1.8523220E-02;  0.0000000E+00;  2.4477793E-03;  1.6725628E+01;
  2.5999916E-01;  9.9999998E-03;  2.6000017E-01;1460; -1.4280207E-03;  0.0000000E+00;  2.8767483E-04;  1.0000126E+03;  4.0000001E-01;  1.0468838E+01;3; -1.7555419E+00;  0.0000000E+00;  3.2314730E-01;0; -1.6169807E-02;  1.0000285E+04;  0.0000000E+00; -4.4629555E-03;  1.0000000E+04;  0.0000000E+00;  9.9999678E+03; -1.8410547E-02;  0.0000000E+00;  2.2407395E-03;  2.4552135E+01;
  2.5999922E-01;  9.9999998E-03;  2.8000024E-01;1461; -1.3162807E-03;  0.0000000E+00;  3.8622462E-04;  1.0000126E+03;  4.0000001E-01;  1.0468838E+01;3; -1.6805358E+00;  0.0000000E+00;  4.5775178E-01;0; -1.6199719E-02;  1.0000277E+04;  0.0000000E+00; -9.2729721E-03;  1.0000000E+04;  0.0000000E+00;  9.9999736E+03; -1.8115336E-02;  0.0000000E+00;  1.9156168E-03;  4.3785873E+01;
  2.5999933E-01;  9.9999998E-03;  3.0000031E-01;1462; -1.1580557E-03;  0.0000000E+00;  5.2283809E-04;  1.0000118E+03;  4.0000001E-01;  9.7774992E+00;3; -1.5484116E+00;  0.0000000E+00;  6.6240102E-01;0; -1.5264918E-02;  1.0000261E+04;  0.0000000E+00; -1.4131010E-02;  1.0000000E+04;  0.0000000E+00;  9.9999756E+03; -1.7362764E-02;  0.0000000E+00;  2.0978462E-03;  6.5130028E+01;
  2.7999872E-01;  9.9999998E-03;  1.6000007E-01;1486; -2.0217807E-03;  0.0000000E+00;  1.1017983E-04;  1.0000175E+03;  4.0000001E-01;  1.4518105E+01;3; -2.2424312E+00;  0.0000000E+00;  1.1169297E-01;0; -2.0850042E-02;  1.0000375E+04;  0.0000000E+00; -3.7876821E-10;  1.0000000E+04;  0.0000000E+00;  9.9999736E+03; -2.2608077E-02;  0.0000000E+00;  1.7580360E-03;  1.1454017E+01;
  2.7999875E-01;  9.9999998E-03;  1.8000010E-01;1487; -2.0255905E-03;  0.0000000E+00;  1.4617464E-04;  1.0000172E+03;  4.0000001E-01;  1.4221817E+01;3; -2.2631600E+00;  0.0000000E+00;  1.5195625E-01;0; -2.0654382E-02;  1.0000377E+04;  0.0000000E+00; -6.5224276E-07;  1.0000000E+04;  0.0000000E+00;  9.9999668E+03; -2.2903718E-02;  0.0000000E+00;  2.2493359E-03;  1.4347169E+01;
  2.7999875E-01;  9.9999998E-03;  2.0000012E-01;1488; -2.0181120E-03;  0.0000000E+00;  1.8987400E-04;  1.0000168E+03;  4.0000001E-01;  1.3925529E+01;3; -2.2745183E+00;  0.0000000E+00;  1.9995612E-01;0; -2.0354558E-02;  1.0000377E+04;  0.0000000E+00; -2.8318167E-05;  1.0000000E+04;  0.0000000E+00;  9.9999580E+03; -2.3144346E-02;  0.0000000E+00;  2.7897879E-03;  1.7586563E+01;
  2.7999878E-01;  9.9999998E-03;  2.2000016E-01;1489; -1.9935332E-03;  0.0000000E+00;  2.4402756E-04;  1.0000165E+03;  4.0000001E-01;  1.3629241E+01;3; -2.2748327E+00;  0.0000000E+00;  2.6036239E-01;0; -2.0014556E-02;  1.0000377E+04;  0.0000000E+00; -2.2468431E-04;  1.0000000E+04;  0.0000000E+00;  9.9999502E+03; -2.3300821E-02;  0.0000000E+00;  3.2862644E-03;  2.0598427E+01;
  2.7999881E-01;  9.9999998E-03;  2.4000020E-01;1490; -1.9468408E-03;  0.0000000E+00;  3.1097449E-04;  1.0000161E+03;  4.0000001E-01;  1.3332953E+01;3; -2.2648084E+00;  0.0000000E+00;  3.3787823E-01;0; -1.9751396E-02;  1.0000375E+04;  0.0000000E+00; -9.7207300E-04;  1.0000000E+04;  0.0000000E+00;  9.9999463E+03; -2.3341525E-02;  0.0000000E+00;  3.5901293E-03;  2.2760714E+01;
  2.7999887E-01;  9.9999998E-03;  2.6000026E-01;1491; -1.8672324E-03;  0.0000000E+00;  4.0935079E-04;  1.0000159E+03;  4.0000001E-01;  1.3234191E+01;3; -2.2360787E+00;  0.0000000E+00;  4.5649001E-01;0; -1.9617280E-02;  1.0000370E+04;  0.0000000E+00; -2.9248623E-03;  1.0000000E+04;  0.0000000E+00;  9.9999463E+03; -2.3225853E-02;  0.0000000E+00;  3.6085730E-03;  2.5875013E+01;
  2.7999893E-01;  9.9999998E-03;  2.8000036E-01;1492; -1.7530231E-03;  0.0000000E+00;  5.5368693E-04;  1.0000155E+03;  4.0000001E-01;  1.2839140E+01;3; -2.1843100E+00;  0.0000000E+00;  6.4550138E-01;0; -1.9255823E-02;  1.0000362E+04;  0.0000000E+00; -6.3729226E-03;  1.0000000E+04;  0.0000000E+00;  9.9999482E+03; -2.2881616E-02;  0.0000000E+00;  3.6257929E-03;  3.6247688E+01;
  2.7999905E-01;  9.9999998E-03;  3.0000046E-01;1493; -1.5915075E-03;  0.0000000E+00;  7.3289283E-04;  1.0000145E+03;  4.0000001E-01;  1.1950276E+01;3; -2.0835900E+00;  0.0000000E+00;  9.0521723E-01;0; -1.7955376E-02;  1.0000347E+04;  0.0000000E+00; -9.9223647E-03;  1.0000000E+04;  0.0000000E+00;  9.9999443E+03; -2.2114990E-02;  0.0000000E+00;  4.1596144E-03;  5.0909264E+01;
  2.9999834E-01;  9.9999998E-03;  1.6000009E-01;1517; -2.5462520E-03;  0.0000000E+00;  1.3525893E-04;  1.0000220E+03;  4.0000001E-01;  1.8271082E+01;3; -2.7379920E+00;  0.0000000E+00;  1.3485527E-01;0; -2.5728881E-02;  1.0000478E+04;  0.0000000E+00; -7.0254230E-10;  1.0000000E+04;  0.0000000E+00;  9.9999658E+03; -2.8010443E-02;  0.0000000E+00;  2.2815613E-03;  1.5095352E+01;
  2.9999834E-01;  9.9999998E-03;  1.8000013E-01;1518; -2.5589794E-03;  0.0000000E+00;  1.8308248E-04;  1.0000218E+03;  4.0000001E-01;  1.8073557E+01;3; -2.7725000E+00;  0.0000000E+00;  1.8820088E-01;0; -2.5506763E-02;  1.0000481E+04;  0.0000000E+00; -2.1128495E-09;  1.0000000E+04;  0.0000000E+00;  9.9999551E+03; -2.8464461E-02;  0.0000000E+00;  2.9576973E-03;  1.9177301E+01;
  2.9999837E-01;  9.9999998E-03;  2.0000015E-01;1519; -2.5592851E-03;  0.0000000E+00;  2.4300147E-04;  1.0000213E+03;  4.0000001E-01;  1.7678505E+01;3; -2.7980525E+00;  0.0000000E+00;  2.5463754E-01;0; -2.5147822E-02;  1.0000483E+04;  0.0000000E+00; -4.8947381E-06;  1.0000000E+04;  0.0000000E+00;  9.9999443E+03; -2.8854696E-02;  0.0000000E+00;  3.7068741E-03;  2.3805492E+01;
  2.9999840E-01;  9.9999998E-03;  2.2000021E-01;1520; -2.5402831E-03;  0.0000000E+00;  3.2031012E-04;  1.0000209E+03;  4.0000001E-01;  1.7283455E+01;3; -2.8131533E+00;  0.0000000E+00;  3.4030560E-01;0; -2.4716273E-02;  1.0000485E+04;  0.0000000E+00; -7.2702758E-05;  1.0000000E+04;  0.0000000E+00;  9.9999346E+03; -2.9140847E-02;  0.0000000E+00;  4.4245748E-03;  2.8272581E+01;
  2.9999843E-01;  9.9999998E-03;  2.4000026E-01;1521; -2.4976907E-03;  0.0000000E+00;  4.1538753E-04;  1.0000204E+03;  4.0000001E-01;  1.6987167E+01;3; -2.8218586E+00;  0.0000000E+00;  4.4571528E-01;0; -2.4329351E-02;  1.0000484E+04;  0.0000000E+00; -4.0558210E-04;  1.0000000E+04;  0.0000000E+00;  9.9999258E+03; -2.9283877E-02;  0.0000000E+00;  4.9545257E-03;  3.1499945E+01;
  2.9999849E-01;  9.9999998E-03;  2.6000035E-01;1522; -2.4196764E-03;  0.0000000E+00;  5.5070239E-04;  1.0000201E+03;  4.0000001E-01;  1.6690880E+01;3; -2.8189428E+00;  0.0000000E+00;  6.0400677E-01;0; -2.4028704E-02;  1.0000481E+04;  0.0000000E+00; -1.3973424E-03;  1.0000000E+04;  0.0000000E+00;  9.9999219E+03; -2.9241797E-02;  0.0000000E+00;  5.2130935E-03;  3.3174076E+01;
  2.9999858E-01;  9.9999998E-03;  2.8000048E-01;1523; -2.3041214E-03;  0.0000000E+00;  7.4022257E-04;  1.0000196E+03;  4.0000001E-01;  1.6197067E+01;3; -2.7997608E+00;  0.0000000E+00;  8.4148103E-01;0; -2.3425829E-02;  1.0000473E+04;  0.0000000E+00; -3.3126790E-03;  1.0000000E+04;  0.0000000E+00;  9.9999199E+03; -2.8959151E-02;  0.0000000E+00;  5.5333227E-03;  3.6620605E+01;
  2.9999870E-01;  9.9999998E-03;  3.0000061E-01;1524; -2.1372556E-03;  0.0000000E+00;  9.6105103E-04;  1.0000185E+03;  4.0000001E-01;  1.5308204E+01;3; -2.7355804E+00;  0.0000000E+00;  1.1472919E+00;0; -2.2002503E-02;  1.0000459E+04;  0.0000000E+00; -5.3946101E-03;  1.0000000E+04;  0.0000000E+00;  9.9999121E+03; -2.8317802E-02;  0.0000000E+00;  6.3152988E-03;  4.3630032E+01;
  3.1999788E-01;  9.9999998E-03;  1.6000012E-01;1548; -3.1934709E-03;  0.0000000E+00;  1.6333039E-04;  1.0000279E+03;  4.0000001E-01;  2.3110449E+01;3; -3.3269625E+00;  0.0000000E+00;  1.5987433E-01;0; -3.1629346E-02;  1.0000605E+04;  0.0000000E+00; -4.9368443E-10;  1.0000000E+04;  0.0000000E+00;  9.9999551E+03; -3.4523852E-02;  0.0000000E+00;  2.8945040E-03;  1.9540428E+01;
  3.1999788E-01;  9.9999998E-03;  1.8000016E-01;1549; -3.2197533E-03;  0.0000000E+00;  2.2558030E-04;  1.0000276E+03;  4.0000001E-01;  2.2912924E+01;3; -3.3803484E+00;  0.0000000E+00;  2.2924720E-01;0; -3.1396400E-02;  1.0000613E+04;  0.0000000E+00; -2.4944722E-09;  1.0000000E+04;  0.0000000E+00;  9.9999424E+03; -3.5191264E-02;  0.0000000E+00;  3.7948631E-03;  2.5115509E+01;
  3.1999788E-01;  9.9999998E-03;  2.0000020E-01;1550; -3.2320637E-03;  0.0000000E+00;  3.0511306E-04;  1.0000272E+03;  4.0000001E-01;  2.2517874E+01;3; -3.4247875E+00;  0.0000000E+00;  3.1720960E-01;0; -3.0989416E-02;  1.0000618E+04;  0.0000000E+00; -1.3457032E-09;  1.0000000E+04;  0.0000000E+00;  9.9999268E+03; -3.5784513E-02;  0.0000000E+00;  4.7950959E-03;  3.1486864E+01;
  3.1999791E-01;  9.9999998E-03;  2.2000027E-01;1551; -3.2212106E-03;  0.0000000E+00;  4.0832770E-04;  1.0000266E+03;  4.0000001E-01;  2.2024059E+01;3; -3.4582486E+00;  0.0000000E+00;  4.2705923E-01;0; -3.0481622E-02;  1.0000623E+04;  0.0000000E+00; -8.6949240E-06;  1.0000000E+04;  0.0000000E+00;  9.9999102E+03; -3.6250275E-02;  0.0000000E+00;  5.7686539E-03;  3.7763195E+01;
  3.1999794E-01;  9.9999998E-03;  2.4000035E-01;1552; -3.1834859E-03;  0.0000000E+00;  5.3492613E-04;  1.0000261E+03;  4.0000001E-01;  2.1629009E+01;3; -3.4893703E+00;  0.0000000E+00;  5.6454378E-01;0; -3.0012812E-02;  1.0000624E+04;  0.0000000E+00; -9.0982168E-05;  1.0000000E+04;  0.0000000E+00;  9.9998975E+03; -3.6547005E-02;  0.0000000E+00;  6.5341932E-03;  4.2583019E+01;
  3.1999800E-01;  9.9999998E-03;  2.6000047E-01;1553; -3.1052274E-03;  0.0000000E+00;  7.1160553E-04;  1.0000256E+03;  4.0000001E-01;  2.1233959E+01;3; -3.5145025E+00;  0.0000000E+00;  7.6389623E-01;0; -2.9635195E-02;  1.0000621E+04;  0.0000000E+00; -4.1321022E-04;  1.0000000E+04;  0.0000000E+00;  9.9998916E+03; -3.6643859E-02;  0.0000000E+00;  7.0086634E-03;  4.5052673E+01;
  3.1999809E-01;  9.9999998E-03;  2.8000063E-01;1554; -2.9835531E-03;  0.0000000E+00;  9.4994274E-04;  1.0000251E+03;  4.0000001E-01;  2.0740147E+01;3; -3.5284004E+00;  0.0000000E+00;  1.0472283E+00;0; -2.8949142E-02;  1.0000615E+04;  0.0000000E+00; -1.1354408E-03;  1.0000000E+04;  0.0000000E+00;  9.9998848E+03; -3.6516741E-02;  0.0000000E+00;  7.5675994E-03;  4.7433933E+01;
  3.1999823E-01;  9.9999998E-03;  3.0000082E-01;1555; -2.8026733E-03;  0.0000000E+00;  1.2195081E-03;  1.0000240E+03;  4.0000001E-01;  1.9851282E+01;3; -3.4996696E+00;  0.0000000E+00;  1.4056612E+00;0; -2.7597751E-02;  1.0000605E+04;  0.0000000E+00; -2.0340497E-03;  1.0000000E+04;  0.0000000E+00;  9.9998750E+03; -3.6119699E-02;  0.0000000E+00;  8.5219480E-03;  5.1762043E+01;
  3.3999726E-01;  9.9999998E-03;  1.6000015E-01;1579; -3.9891405E-03;  0.0000000E+00;  1.9461050E-04;  1.0000354E+03;  4.0000001E-01;  2.9332491E+01;3; -4.0232654E+00;  0.0000000E+00;  1.8582410E-01;0; -3.8734633E-02;  1.0000765E+04;  0.0000000E+00; -5.3315363E-10;  1.0000000E+04;  0.0000000E+00;  9.9999443E+03; -4.2329989E-02;  0.0000000E+00;  3.5953557E-03;  2.4893263E+01;
  3.3999723E-01;  9.9999998E-03;  1.8000019E-01;1580; -4.0350808E-03;  0.0000000E+00;  2.7296523E-04;  1.0000350E+03;  4.0000001E-01;  2.9036203E+01;3; -4.1016855E+00;  0.0000000E+00;  2.7276924E-01;0; -3.8522251E-02;  1.0000775E+04;  0.0000000E+00; -3.3775467E-09;  1.0000000E+04;  0.0000000E+00;  9.9999258E+03; -4.3285526E-02;  0.0000000E+00;  4.7632735E-03;  3.2304829E+01;
  3.3999723E-01;  9.9999998E-03;  2.0000026E-01;1581; -4.0648864E-03;  0.0000000E+00;  3.7520187E-04;  1.0000345E+03;  4.0000001E-01;  2.8641151E+01;3; -4.1701212E+00;  0.0000000E+00;  3.8360271E-01;0; -3.8091104E-02;  1.0000783E+04;  0.0000000E+00; -2.5876297E-09;  1.0000000E+04;  0.0000000E+00;  9.9999033E+03; -4.4158664E-02;  0.0000000E+00;  6.0675596E-03;  4.0859035E+01;
  3.3999726E-01;  9.9999998E-03;  2.2000034E-01;1582; -4.0664915E-03;  0.0000000E+00;  5.0793379E-04;  1.0000338E+03;  4.0000001E-01;  2.8048576E+01;3; -4.2282553E+00;  0.0000000E+00;  5.2207446E-01;0; -3.7526816E-02;  1.0000793E+04;  0.0000000E+00;  2.6999015E-08;  1.0000000E+04;  0.0000000E+00;  9.9998848E+03; -4.4871666E-02;  0.0000000E+00;  7.3448513E-03;  4.9385731E+01;
  3.3999729E-01;  9.9999998E-03;  2.4000046E-01;1583; -4.0343804E-03;  0.0000000E+00;  6.7211787E-04;  1.0000332E+03;  4.0000001E-01;  2.7554764E+01;3; -4.2841916E+00;  0.0000000E+00;  6.9569331E-01;0; -3.6997940E-02;  1.0000798E+04;  0.0000000E+00; -3.6002555E-06;  1.0000000E+04;  0.0000000E+00;  9.9998682E+03; -4.5373797E-02;  0.0000000E+00;  8.3758570E-03;  5.6162331E+01;
  3.3999738E-01;  9.9999998E-03;  2.6000062E-01;1584; -3.9527356E-03;  0.0000000E+00;  8.9822558E-04;  1.0000328E+03;  4.0000001E-01;  2.7159714E+01;3; -4.3391705E+00;  0.0000000E+00;  9.3949181E-01;0; -3.6573116E-02;  1.0000798E+04;  0.0000000E+00; -4.4724395E-05;  1.0000000E+04;  0.0000000E+00;  9.9998574E+03; -4.5644350E-02;  0.0000000E+00;  9.0712346E-03;  6.0116261E+01;
  3.3999750E-01;  9.9999998E-03;  2.8000084E-01;1585; -3.8165562E-03;  0.0000000E+00;  1.1940593E-03;  1.0000322E+03;  4.0000001E-01;  2.6665901E+01;3; -4.3855329E+00;  0.0000000E+00;  1.2732884E+00;0; -3.5860367E-02;  1.0000795E+04;  0.0000000E+00; -1.7531351E-04;  1.0000000E+04;  0.0000000E+00;  9.9998486E+03; -4.5693316E-02;  0.0000000E+00;  9.8329475E-03;  6.3773106E+01;
  3.3999765E-01;  9.9999998E-03;  3.0000106E-01;1586; -3.6080712E-03;  0.0000000E+00;  1.5262538E-03;  1.0000311E+03;  4.0000001E-01;  2.5777037E+01;3; -4.3877258E+00;  0.0000000E+00;  1.6948617E+00;0; -3.4545980E-02;  1.0000790E+04;  0.0000000E+00; -3.7203258E-04;  1.0000000E+04;  0.0000000E+00;  9.9998311E+03; -4.5545891E-02;  0.0000000E+00;  1.0999912E-02;  6.9222824E+01;
  3.5999647E-01;  9.9999998E-03;  1.6000018E-01;1610; -4.9622944E-03;  0.0000000E+00;  2.2984156E-04;  1.0000444E+03;  4.0000001E-01;  3.6739681E+01;3; -4.8416858E+00;  0.0000000E+00;  2.1181859E-01;0; -4.7244702E-02;  1.0000961E+04;  0.0000000E+00;  1.0282224E-10;  1.0000000E+04;  0.0000000E+00;  9.9999297E+03; -5.1627021E-02;  0.0000000E+00;  4.3823207E-03;  3.1301765E+01;
  3.5999644E-01;  9.9999998E-03;  1.8000023E-01;1611; -5.0359173E-03;  0.0000000E+00;  3.2556205E-04;  1.0000442E+03;  4.0000001E-01;  3.6640919E+01;3; -4.9528980E+00;  0.0000000E+00;  3.1803834E-01;0; -4.7105860E-02;  1.0000979E+04;  0.0000000E+00; -3.4965624E-09;  1.0000000E+04;  0.0000000E+00;  9.9999063E+03; -5.2968670E-02;  0.0000000E+00;  5.8628111E-03;  4.0914146E+01;
  3.5999644E-01;  9.9999998E-03;  2.0000032E-01;1612; -5.0907913E-03;  0.0000000E+00;  4.5264259E-04;  1.0000436E+03;  4.0000001E-01;  3.6147102E+01;3; -5.0524373E+00;  0.0000000E+00;  4.5334733E-01;0; -4.6697900E-02;  1.0000993E+04;  0.0000000E+00; -2.8733562E-09;  1.0000000E+04;  0.0000000E+00;  9.9998789E+03; -5.4230142E-02;  0.0000000E+00;  7.5322427E-03;  5.2157211E+01;
  3.5999644E-01;  9.9999998E-03;  2.2000043E-01;1613; -5.1112687E-03;  0.0000000E+00;  6.2075641E-04;  1.0000428E+03;  4.0000001E-01;  3.5455765E+01;3; -5.1411886E+00;  0.0000000E+00;  6.2602419E-01;0; -4.6116475E-02;  1.0001006E+04;  0.0000000E+00;  3.8146386E-08;  1.0000000E+04;  0.0000000E+00;  9.9998525E+03; -5.5297907E-02;  0.0000000E+00;  9.1814334E-03;  6.3507046E+01;
  3.5999650E-01;  9.9999998E-03;  2.4000058E-01;1614; -5.0882688E-03;  0.0000000E+00;  8.3123875E-04;  1.0000422E+03;  4.0000001E-01;  3.4961952E+01;3; -5.2291288E+00;  0.0000000E+00;  8.4388465E-01;0; -4.5552354E-02;  1.0001016E+04;  0.0000000E+00;  1.9568007E-07;  1.0000000E+04;  0.0000000E+00;  9.9998291E+03; -5.6091953E-02;  0.0000000E+00;  1.0539598E-02;  7.2761551E+01;
  3.5999659E-01;  9.9999998E-03;  2.6000080E-01;1615; -5.0013093E-03;  0.0000000E+00;  1.1165480E-03;  1.0000417E+03;  4.0000001E-01;  3.4566902E+01;3; -5.3172798E+00;  0.0000000E+00;  1.1365629E+00;0; -4.5085192E-02;  1.0001019E+04;  0.0000000E+00;  5.4277280E-07;  1.0000000E+04;  0.0000000E+00;  9.9998145E+03; -5.6584030E-02;  0.0000000E+00;  1.1498840E-02;  7.8600517E+01;
  3.5999671E-01;  9.9999998E-03;  2.8000107E-01;1616; -4.8426646E-03;  0.0000000E+00;  1.4846079E-03;  1.0000409E+03;  4.0000001E-01;  3.3875565E+01;3; -5.3981085E+00;  0.0000000E+00;  1.5300280E+00;0; -4.4278599E-02;  1.0001021E+04;  0.0000000E+00; -2.0249875E-07;  1.0000000E+04;  0.0000000E+00;  9.9997988E+03; -5.6801654E-02;  0.0000000E+00;  1.2523054E-02;  8.4321083E+01;
  3.5999691E-01;  9.9999998E-03;  3.0000135E-01;1617; -4.5914324E-03;  0.0000000E+00;  1.8957843E-03;  1.0000398E+03;  4.0000001E-01;  3.2986702E+01;3; -5.4287395E+00;  0.0000000E+00;  2.0285816E+00;0; -4.2827092E-02;  1.0001018E+04;  0.0000000E+00; -5.2897230E-06;  1.0000000E+04;  0.0000000E+00;  9.9997783E+03; -5.6812976E-02;  0.0000000E+00;  1.3985885E-02;  9.2239479E+01;
  3.7999550E-01;  9.9999998E-03;  1.6000022E-01;1641; -6.1443066E-03;  0.0000000E+00;  2.7192946E-04;  1.0000557E+03;  4.0000001E-01;  4.6122116E+01;3; -5.7972283E+00;  0.0000000E+00;  2.4018036E-01;0; -5.7369575E-02;  1.0001200E+04;  0.0000000E+00;  1.0132850E-10;  1.0000000E+04;  0.0000000E+00;  9.9999141E+03; -6.2626265E-02;  0.0000000E+00;  5.2566892E-03;  3.9008938E+01;
  3.7999547E-01;  9.9999998E-03;  1.8000029E-01;1642; -6.2559494E-03;  0.0000000E+00;  3.8438916E-04;  1.0000555E+03;  4.0000001E-01;  4.5924591E+01;3; -5.9498315E+00;  0.0000000E+00;  3.6094964E-01;0; -5.7386037E-02;  1.0001225E+04;  0.0000000E+00; -4.2539114E-09;  1.0000000E+04;  0.0000000E+00;  9.9998838E+03; -6.4475924E-02;  0.0000000E+00;  7.0898882E-03;  5.1166473E+01;
  3.7999541E-01;  9.9999998E-03;  2.0000039E-01;1643; -6.3471012E-03;  0.0000000E+00;  5.3914764E-04;  1.0000549E+03;  4.0000001E-01;  4.5430779E+01;3; -6.0911016E+00;  0.0000000E+00;  5.2669275E-01;0; -5.7081208E-02;  1.0001250E+04;  0.0000000E+00; -3.1874492E-09;  1.0000000E+04;  0.0000000E+00;  9.9998477E+03; -6.6268899E-02;  0.0000000E+00;  9.1876928E-03;  6.5625107E+01;
  3.7999541E-01;  9.9999998E-03;  2.2000054E-01;1644; -6.3961591E-03;  0.0000000E+00;  7.4761931E-04;  1.0000543E+03;  4.0000001E-01;  4.4936966E+01;3; -6.2189269E+00;  0.0000000E+00;  7.3771381E-01;0; -5.6559559E-02;  1.0001271E+04;  0.0000000E+00;  5.1157045E-08;  1.0000000E+04;  0.0000000E+00;  9.9998135E+03; -6.7845307E-02;  0.0000000E+00;  1.1285749E-02;  8.0434303E+01;
  3.7999547E-01;  9.9999998E-03;  2.4000072E-01;1645; -6.3889613E-03;  0.0000000E+00;  1.0134329E-03;  1.0000536E+03;  4.0000001E-01;  4.4443153E+01;3; -6.3466425E+00;  0.0000000E+00;  1.0060713E+00;0; -5.6027301E-02;  1.0001288E+04;  0.0000000E+00;  2.7613314E-07;  1.0000000E+04;  0.0000000E+00;  9.9997832E+03; -6.9081463E-02;  0.0000000E+00;  1.3054163E-02;  9.2804245E+01;
  3.7999555E-01;  9.9999998E-03;  2.6000100E-01;1646; -6.2983846E-03;  0.0000000E+00;  1.3732347E-03;  1.0000530E+03;  4.0000001E-01;  4.3850578E+01;3; -6.4766068E+00;  0.0000000E+00;  1.3596559E+00;0; -5.5545509E-02;  1.0001300E+04;  0.0000000E+00;  7.8467286E-07;  1.0000000E+04;  0.0000000E+00;  9.9997627E+03; -6.9920205E-02;  0.0000000E+00;  1.4374697E-02;  1.0120568E+02;
  3.7999570E-01;  9.9999998E-03;  2.8000134E-01;1647; -6.1123692E-03;  0.0000000E+00;  1.8351080E-03;  1.0000521E+03;  4.0000001E-01;  4.3159241E+01;3; -6.6002388E+00;  0.0000000E+00;  1.8279523E+00;0; -5.4561108E-02;  1.0001304E+04;  0.0000000E+00;  1.4104122E-06;  1.0000000E+04;  0.0000000E+00;  9.9997393E+03; -7.0382468E-02;  0.0000000E+00;  1.5821358E-02;  1.1024477E+02;
  3.7999597E-01;  9.9999998E-03;  3.0000174E-01;1648; -5.8069248E-03;  0.0000000E+00;  2.3462104E-03;  1.0000506E+03;  4.0000001E-01;  4.1875328E+01;3; -6.6664982E+00;  0.0000000E+00;  2.4179366E+00;0; -5.2798856E-02;  1.0001304E+04;  0.0000000E+00;  1.4317494E-06;  1.0000000E+04;  0.0000000E+00;  9.9997090E+03; -7.0552096E-02;  0.0000000E+00;  1.7753240E-02;  1.2255550E+02;
  3.9999428E-01;  9.9999998E-03;  1.6000026E-01;1672; -7.5683934E-03;  0.0000000E+00;  3.2612702E-04;  1.0000695E+03;  4.0000001E-01;  5.7578564E+01;3; -6.9050012E+00;  0.0000000E+00;  2.7142289E-01;0; -6.9315650E-02;  1.0001493E+04;  0.0000000E+00;  9.9041042E-10;  1.0000000E+04;  0.0000000E+00;  9.9998945E+03; -7.5546913E-02;  0.0000000E+00;  6.2312633E-03;  4.8452438E+01;
  3.9999419E-01;  9.9999998E-03;  1.8000036E-01;1673; -7.7318647E-03;  0.0000000E+00;  4.5546150E-04;  1.0000695E+03;  4.0000001E-01;  5.7578564E+01;3; -7.1111784E+00;  0.0000000E+00;  4.0811658E-01;0; -6.9606937E-02;  1.0001529E+04;  0.0000000E+00; -2.9478782E-09;  1.0000000E+04;  0.0000000E+00;  9.9998574E+03; -7.8047208E-02;  0.0000000E+00;  8.4402692E-03;  6.3416573E+01;
  3.9999413E-01;  9.9999998E-03;  2.0000048E-01;1674; -7.8746481E-03;  0.0000000E+00;  6.3830387E-04;  1.0000689E+03;  4.0000001E-01;  5.7084751E+01;3; -7.3061094E+00;  0.0000000E+00;  6.0365528E-01;0; -6.9530278E-02;  1.0001566E+04;  0.0000000E+00; -3.0383267E-09;  1.0000000E+04;  0.0000000E+00;  9.9998145E+03; -8.0549352E-02;  0.0000000E+00;  1.1019074E-02;  8.1564178E+01;
  3.9999411E-01;  9.9999998E-03;  2.2000065E-01;1675; -7.9671284E-03;  0.0000000E+00;  8.9102658E-04;  1.0000684E+03;  4.0000001E-01;  5.6590935E+01;3; -7.4856048E+00;  0.0000000E+00;  8.5654122E-01;0; -6.9198638E-02;  1.0001601E+04;  0.0000000E+00;  7.4171091E-08;  1.0000000E+04;  0.0000000E+00;  9.9997686E+03; -8.2837418E-02;  0.0000000E+00;  1.3638781E-02;  1.0044316E+02;
  3.9999413E-01;  9.9999998E-03;  2.4000089E-01;1676; -7.9873493E-03;  0.0000000E+00;  1.2210887E-03;  1.0000678E+03;  4.0000001E-01;  5.6195885E+01;3; -7.6633935E+00;  0.0000000E+00;  1.1835514E+00;0; -6.8828180E-02;  1.0001629E+04;  0.0000000E+00;  3.9044548E-07;  1.0000000E+04;  0.0000000E+00;  9.9997285E+03; -8.4727228E-02;  0.0000000E+00;  1.5899047E-02;  1.1653052E+02;
  3.9999422E-01;  9.9999998E-03;  2.6000124E-01;1677; -7.8990292E-03;  0.0000000E+00;  1.6733266E-03;  1.0000674E+03;  4.0000001E-01;  5.5899597E+01;3; -7.8464952E+00;  0.0000000E+00;  1.6130557E+00;0; -6.8420701E-02;  1.0001650E+04;  0.0000000E+00;  1.1237458E-06;  1.0000000E+04;  0.0000000E+00;  9.9997012E+03; -8.6114652E-02;  0.0000000E+00;  1.7693950E-02;  1.2815318E+02;
  3.9999443E-01;  9.9999998E-03;  2.8000173E-01;1678; -7.6836231E-03;  0.0000000E+00;  2.2569795E-03;  1.0000664E+03;  4.0000001E-01;  5.5010735E+01;3; -8.0256929E+00;  0.0000000E+00;  2.1761217E+00;0; -6.7194283E-02;  1.0001662E+04;  0.0000000E+00;  2.0173245E-06;  1.0000000E+04;  0.0000000E+00;  9.9996650E+03; -8.6999692E-02;  0.0000000E+00;  1.9805411E-02;  1.4224684E+02;
  3.9999476E-01;  9.9999998E-03;  3.0000225E-01;1679; -7.3142103E-03;  0.0000000E+00;  2.8966204E-03;  1.0000642E+03;  4.0000001E-01;  5.3233009E+01;3; -8.1399612E+00;  0.0000000E+00;  2.8772519E+00;0; -6.4968437E-02;  1.0001668E+04;  0.0000000E+00;  1.9640688E-06;  1.0000000E+04;  0.0000000E+00;  9.9996172E+03; -8.7472118E-02;  0.0000000E+00;  2.2503678E-02;  1.6173712E+02;
  4.1999277E-01;  9.9999998E-03;  1.6000035E-01;1703; -9.2699463E-03;  0.0000000E+00;  4.0488792E-04;  1.0000861E+03;  4.0000001E-01;  7.1306534E+01;3; -8.1775274E+00;  0.0000000E+00;  3.1417564E-01;0; -8.3254188E-02;  1.0001851E+04;  0.0000000E+00;  1.9706119E-09;  1.0000000E+04;  0.0000000E+00;  9.9998701E+03; -9.0602055E-02;  0.0000000E+00;  7.3478636E-03;  6.0434807E+01;
  4.1999266E-01;  9.9999998E-03;  1.8000045E-01;1704; -9.5035946E-03;  0.0000000E+00;  5.5000692E-04;  1.0000863E+03;  4.0000001E-01;  7.1504059E+01;3; -8.4530582E+00;  0.0000000E+00;  4.6561345E-01;0; -8.3984949E-02;  1.0001899E+04;  0.0000000E+00; -1.3903363E-09;  1.0000000E+04;  0.0000000E+00;  9.9998262E+03; -9.3907058E-02;  0.0000000E+00;  9.9221105E-03;  7.8322685E+01;
  4.1999254E-01;  9.9999998E-03;  2.0000060E-01;1705; -9.7188465E-03;  0.0000000E+00;  7.5848238E-04;  1.0000861E+03;  4.0000001E-01;  7.1306534E+01;3; -8.7170000E+00;  0.0000000E+00;  6.8597347E-01;0; -8.4320754E-02;  1.0001953E+04;  0.0000000E+00;  3.0823928E-09;  1.0000000E+04;  0.0000000E+00;  9.9997725E+03; -9.7324662E-02;  0.0000000E+00;  1.3003906E-02;  1.0049001E+02;
  4.1999248E-01;  9.9999998E-03;  2.2000080E-01;1706; -9.8763071E-03;  0.0000000E+00;  1.0566383E-03;  1.0000860E+03;  4.0000001E-01;  7.1207771E+01;3; -8.9638424E+00;  0.0000000E+00;  9.8396063E-01;0; -8.4383816E-02;  1.0002001E+04;  0.0000000E+00;  1.1204673E-07;  1.0000000E+04;  0.0000000E+00;  9.9997168E+03; -1.0057578E-01;  0.0000000E+00;  1.6191971E-02;  1.2389571E+02;
  4.1999248E-01;  9.9999998E-03;  2.4000110E-01;1707; -9.9432226E-03;  0.0000000E+00;  1.4564135E-03;  1.0000858E+03;  4.0000001E-01;  7.1109009E+01;3; -9.2085476E+00;  0.0000000E+00;  1.3768953E+00;0; -8.4402286E-02;  1.0002049E+04;  0.0000000E+00;  5.5874619E-07;  1.0000000E+04;  0.0000000E+00;  9.9996660E+03; -1.0339741E-01;  0.0000000E+00;  1.8995121E-02;  1.4406099E+02;
  4.1999257E-01;  9.9999998E-03;  2.6000154E-01;1708; -9.8695736E-03;  0.0000000E+00;  2.0195758E-03;  1.0000858E+03;  4.0000001E-01;  7.1109009E+01;3; -9.4599543E+00;  0.0000000E+00;  1.8992934E+00;0; -8.4263720E-02;  1.0002087E+04;  0.0000000E+00;  1.5889173E-06;  1.0000000E+04;  0.0000000E+00;  9.9996299E+03; -1.0561435E-01;  0.0000000E+00;  2.1350628E-02;  1.5916795E+02;
  4.1999277E-01;  9.9999998E-03;  2.8000215E-01;1709; -9.6262321E-03;  0.0000000E+00;  2.7593758E-03;  1.0000846E+03;  4.0000001E-01;  7.0121384E+01;3; -9.7117004E+00;  0.0000000E+00;  2.5814869E+00;0; -8.2775265E-02;  1.0002115E+04;  0.0000000E+00;  2.8123670E-06;  1.0000000E+04;  0.0000000E+00;  9.9995811E+03; -1.0718411E-01;  0.0000000E+00;  2.4408851E-02;  1.8008479E+02;
  4.1999316E-01;  9.9999998E-03;  3.0000287E-01;1710; -9.1830939E-03;  0.0000000E+00;  3.5680626E-03;  1.0000818E+03;  4.0000001E-01;  6.7849846E+01;3; -9.8911915E+00;  0.0000000E+00;  3.4178667E+00;0; -7.9808749E-02;  1.0002132E+04;  0.0000000E+00;  2.5480524E-06;  1.0000000E+04;  0.0000000E+00;  9.9995049E+03; -1.0818882E-01;  0.0000000E+00;  2.8380075E-02;  2.1133029E+02;
  4.3999094E-01;  9.9999998E-03;  1.6000047E-01;1734; -1.1291620E-02;  0.0000000E+00;  5.2970881E-04;  1.0001058E+03;  4.0000001E-01;  8.7602318E+01;3; -9.6280613E+00;  0.0000000E+00;  3.8535523E-01;0; -9.9247716E-02;  1.0002280E+04;  0.0000000E+00;  6.9516513E-09;  1.0000000E+04;  0.0000000E+00;  9.9998369E+03; -1.0795433E-01;  0.0000000E+00;  8.7066162E-03;  7.6367126E+01;
  4.3999076E-01;  9.9999998E-03;  1.8000059E-01;1735; -1.1617913E-02;  0.0000000E+00;  6.8880897E-04;  1.0001064E+03;  4.0000001E-01;  8.8096130E+01;3; -9.9905567E+00;  0.0000000E+00;  5.4493165E-01;0; -1.0062972E-01;  1.0002345E+04;  0.0000000E+00;  4.7362212E-09;  1.0000000E+04;  0.0000000E+00;  9.9997881E+03; -1.1221417E-01;  0.0000000E+00;  1.1584455E-02;  9.7145531E+01;
  4.3999058E-01;  9.9999998E-03;  2.0000076E-01;1736; -1.1932801E-02;  0.0000000E+00;  9.1743114E-04;  1.0001068E+03;  4.0000001E-01;  8.8491180E+01;3; -1.0344909E+01;  0.0000000E+00;  7.8416020E-01;0; -1.0163052E-01;  1.0002415E+04;  0.0000000E+00;  2.4699307E-08;  1.0000000E+04;  0.0000000E+00;  9.9997246E+03; -1.1676635E-01;  0.0000000E+00;  1.5135826E-02;  1.2348125E+02;
  4.3999043E-01;  9.9999998E-03;  2.2000100E-01;1737; -1.2185541E-02;  0.0000000E+00;  1.2553498E-03;  1.0001072E+03;  4.0000001E-01;  8.8886230E+01;3; -1.0680228E+01;  0.0000000E+00;  1.1267080E+00;0; -1.0238967E-01;  1.0002488E+04;  0.0000000E+00;  1.9603880E-07;  1.0000000E+04;  0.0000000E+00;  9.9996563E+03; -1.2126872E-01;  0.0000000E+00;  1.8879050E-02;  1.5160170E+02;
  4.3999037E-01;  9.9999998E-03;  2.4000134E-01;1738; -1.2327352E-02;  0.0000000E+00;  1.7241138E-03;  1.0001078E+03;  4.0000001E-01;  8.9380043E+01;3; -1.1014283E+01;  0.0000000E+00;  1.5833913E+00;0; -1.0315771E-01;  1.0002560E+04;  0.0000000E+00;  8.5295005E-07;  1.0000000E+04;  0.0000000E+00;  9.9995977E+03; -1.2536179E-01;  0.0000000E+00;  2.2204075E-02;  1.7572989E+02;
  4.3999040E-01;  9.9999998E-03;  2.6000190E-01;1739; -1.2291027E-02;  0.0000000E+00;  2.4131087E-03;  1.0001088E+03;  4.0000001E-01;  9.0071381E+01;3; -1.1355674E+01;  0.0000000E+00;  2.2171888E+00;0; -1.0366178E-01;  1.0002622E+04;  0.0000000E+00;  2.3045902E-06;  1.0000000E+04;  0.0000000E+00;  9.9995537E+03; -1.2877227E-01;  0.0000000E+00;  2.5110492E-02;  1.9349165E+02;
  4.3999064E-01;  9.9999998E-03;  2.8000271E-01;1740; -1.2027512E-02;  0.0000000E+00;  3.3534979E-03;  1.0001077E+03;  4.0000001E-01;  8.9281281E+01;3; -1.1701529E+01;  0.0000000E+00;  3.0543206E+00;0; -1.0194787E-01;  1.0002673E+04;  0.0000000E+00;  3.8827570E-06;  1.0000000E+04;  0.0000000E+00;  9.9994834E+03; -1.3138616E-01;  0.0000000E+00;  2.9438289E-02;  2.2230345E+02;
  4.3999112E-01;  9.9999998E-03;  3.0000365E-01;1741; -1.1503644E-02;  0.0000000E+00;  4.3829395E-03;  1.0001039E+03;  4.0000001E-01;  8.6022118E+01;3; -1.1969514E+01;  0.0000000E+00;  4.0575008E+00;0; -9.7903624E-02;  1.0002712E+04;  0.0000000E+00;  2.9684513E-06;  1.0000000E+04;  0.0000000E+00;  9.9993672E+03; -1.3325498E-01;  0.0000000E+00;  3.5351351E-02;  2.7089047E+02;
  4.5998865E-01;  9.9999998E-03;  1.6000068E-01;1765; -1.3686134E-02;  0.0000000E+00;  7.3534762E-04;  1.0001294E+03;  4.0000030E-01;  1.0715722E+02;3; -1.1266785E+01;  0.0000000E+00;  5.0878841E-01;0; -1.1710291E-01;  1.0002782E+04;  0.0000000E+00;  2.9021400E-08;  1.0000000E+04;  0.0000000E+00;  9.9997900E+03; -1.2760848E-01;  0.0000000E+00;  1.0505566E-02;  9.8556938E+01;
  4.5998839E-01;  9.9999998E-03;  1.8000081E-01;1766; -1.4131189E-02;  0.0000000E+00;  9.0763991E-04;  1.0001309E+03;  4.0000030E-01;  1.0844113E+02;3; -1.1736353E+01;  0.0000000E+00;  6.7135179E-01;0; -1.1938486E-01;  1.0002864E+04;  0.0000000E+00;  3.4677068E-08;  1.0000000E+04;  0.0000000E+00;  9.9997334E+03; -1.3294888E-01;  0.0000000E+00;  1.3564010E-02;  1.2218736E+02;
  4.5998812E-01;  9.9999998E-03;  2.0000100E-01;1767; -1.4578518E-02;  0.0000000E+00;  1.1492301E-03;  1.0001317E+03;  4.0000033E-01;  1.0913247E+02;3; -1.2207976E+01;  0.0000000E+00;  9.1532481E-01;0; -1.2136525E-01;  1.0002961E+04;  0.0000000E+00;  9.1519752E-08;  1.0000000E+04;  0.0000000E+00;  9.9996631E+03; -1.3884197E-01;  0.0000000E+00;  1.7476724E-02;  1.5279764E+02;
  4.5998788E-01;  9.9999998E-03;  2.2000125E-01;1768; -1.4966711E-02;  0.0000000E+00;  1.5080000E-03;  1.0001331E+03;  4.0000033E-01;  1.1031762E+02;3; -1.2661299E+01;  0.0000000E+00;  1.2883557E+00;0; -1.2322584E-01;  1.0003065E+04;  0.0000000E+00;  4.0005236E-07;  1.0000000E+04;  0.0000000E+00;  9.9995840E+03; -1.4489134E-01;  0.0000000E+00;  2.1665502E-02;  1.8565321E+02;
  4.5998770E-01;  9.9999998E-03;  2.4000165E-01;1769; -1.5221803E-02;  0.0000000E+00;  2.0400174E-03;  1.0001351E+03;  4.0000027E-01;  1.1189782E+02;3; -1.3114734E+01;  0.0000000E+00;  1.8028908E+00;0; -1.2525499E-01;  1.0003170E+04;  0.0000000E+00;  1.4254368E-06;  1.0000000E+04;  0.0000000E+00;  9.9995166E+03; -1.5063012E-01;  0.0000000E+00;  2.5375130E-02;  2.1300954E+02;
  4.5998770E-01;  9.9999998E-03;  2.6000232E-01;1770; -1.5259854E-02;  0.0000000E+00;  2.8592641E-03;  1.0001375E+03;  4.0000033E-01;  1.1397182E+02;3; -1.3578741E+01;  0.0000000E+00;  2.5607207E+00;0; -1.2703170E-01;  1.0003267E+04;  0.0000000E+00;  3.5203893E-06;  1.0000000E+04;  0.0000000E+00;  9.9994717E+03; -1.5566157E-01;  0.0000000E+00;  2.8629871E-02;  2.3089362E+02;
  4.5998794E-01;  9.9999998E-03;  2.8000334E-01;1771; -1.4995943E-02;  0.0000000E+00;  4.0486208E-03;  1.0001373E+03;  4.0000033E-01;  1.1367554E+02;3; -1.4047642E+01;  0.0000000E+00;  3.6037588E+00;0; -1.2534152E-01;  1.0003348E+04;  0.0000000E+00;  5.4455886E-06;  1.0000000E+04;  0.0000000E+00;  9.9993838E+03; -1.5976739E-01;  0.0000000E+00;  3.4425870E-02;  2.6640240E+02;
  4.5998847E-01;  9.9999998E-03;  3.0000460E-01;1772; -1.4392784E-02;  0.0000000E+00;  5.3695845E-03;  1.0001321E+03;  4.0000030E-01;  1.0942876E+02;3; -1.4436042E+01;  0.0000000E+00;  4.8197560E+00;0; -1.1971735E-01;  1.0003415E+04;  0.0000000E+00;  3.0589381E-06;  1.0000000E+04;  0.0000000E+00;  9.9992129E+03; -1.6293584E-01;  0.0000000E+00;  4.3218486E-02;  3.3930667E+02;
  4.7998580E-01;  9.9999998E-03;  1.6000099E-01;1796; -1.6518088E-02;  0.0000000E+00;  1.0741818E-03;  1.0001564E+03;  4.0000099E-01;  1.2957619E+02;3; -1.3103268E+01;  0.0000000E+00;  7.2401148E-01;0; -1.3613710E-01;  1.0003359E+04;  0.0000000E+00;  1.1833384E-07;  1.0000000E+04;  0.0000000E+00;  9.9997256E+03; -1.4922020E-01;  0.0000000E+00;  1.3083108E-02;  1.3050255E+02;
  4.7998545E-01;  9.9999998E-03;  1.8000115E-01;1797; -1.7110286E-02;  0.0000000E+00;  1.2598190E-03;  1.0001583E+03;  4.0000099E-01;  1.3115639E+02;3; -1.3705708E+01;  0.0000000E+00;  8.7684762E-01;0; -1.3957284E-01;  1.0003464E+04;  0.0000000E+00;  1.4456461E-07;  1.0000000E+04;  0.0000000E+00;  9.9996592E+03; -1.5572031E-01;  0.0000000E+00;  1.6147461E-02;  1.5739093E+02;
  4.7998509E-01;  9.9999998E-03;  2.0000137E-01;1798; -1.7726090E-02;  0.0000000E+00;  1.5060710E-03;  1.0001605E+03;  4.0000084E-01;  1.3293411E+02;3; -1.4320851E+01;  0.0000000E+00;  1.1129578E+00;0; -1.4287737E-01;  1.0003586E+04;  0.0000000E+00;  2.8108767E-07;  1.0000000E+04;  0.0000000E+00;  9.9995791E+03; -1.6311358E-01;  0.0000000E+00;  2.0236209E-02;  1.9286185E+02;
  4.7998470E-01;  9.9999998E-03;  2.2000164E-01;1799; -1.8295189E-02;  0.0000000E+00;  1.8657240E-03;  1.0001630E+03;  4.0000090E-01;  1.3500812E+02;3; -1.4932201E+01;  0.0000000E+00;  1.4863490E+00;0; -1.4630285E-01;  1.0003726E+04;  0.0000000E+00;  8.7052518E-07;  1.0000000E+04;  0.0000000E+00;  9.9994883E+03; -1.7096600E-01;  0.0000000E+00;  2.4663156E-02;  2.3085526E+02;
  4.7998440E-01;  9.9999998E-03;  2.4000208E-01;1800; -1.8713795E-02;  0.0000000E+00;  2.4401976E-03;  1.0001667E+03;  4.0000087E-01;  1.3816852E+02;3; -1.5542748E+01;  0.0000000E+00;  2.0396585E+00;0; -1.5024363E-01;  1.0003871E+04;  0.0000000E+00;  2.6138098E-06;  1.0000000E+04;  0.0000000E+00;  9.9994170E+03; -1.7870310E-01;  0.0000000E+00;  2.8459480E-02;  2.6025909E+02;
  4.7998425E-01;  9.9999998E-03;  2.6000282E-01;1801; -1.8882221E-02;  0.0000000E+00;  3.3764483E-03;  1.0001720E+03;  4.0000096E-01;  1.4251405E+02;3; -1.6177063E+01;  0.0000000E+00;  2.9375119E+00;0; -1.5425384E-01;  1.0004013E+04;  0.0000000E+00;  5.8509254E-06;  1.0000000E+04;  0.0000000E+00;  9.9993857E+03; -1.8578935E-01;  0.0000000E+00;  3.1535503E-02;  2.7283908E+02;
  4.7998443E-01;  9.9999998E-03;  2.8000414E-01;1802; -1.8662326E-02;  0.0000000E+00;  4.8540882E-03;  1.0001739E+03;  4.0000087E-01;  1.4409425E+02;3; -1.6813181E+01;  0.0000000E+00;  4.2350931E+00;0; -1.5325217E-01;  1.0004141E+04;  0.0000000E+00;  8.1890093E-06;  1.0000000E+04;  0.0000000E+00;  9.9992910E+03; -1.9187115E-01;  0.0000000E+00;  3.8618986E-02;  3.0880865E+02;
  4.7998500E-01;  9.9999998E-03;  3.0000582E-01;1803; -1.8010367E-02;  0.0000000E+00;  6.5702205E-03;  1.0001670E+03;  4.0000090E-01;  1.3836604E+02;3; -1.7375570E+01;  0.0000000E+00;  5.7438145E+00;0; -1.4532778E-01;  1.0004250E+04;  0.0000000E+00;  2.8095910E-06;  1.0000000E+04;  0.0000000E+00;  9.9990469E+03; -1.9683118E-01;  0.0000000E+00;  5.1503398E-02;  4.1210956E+02;
  4.9998233E-01;  9.9999998E-03;  1.6000147E-01;1827; -1.9856954E-02;  0.0000000E+00;  1.6177635E-03;  1.0001855E+03;  4.0000212E-01;  1.5367406E+02;3; -1.5144770E+01;  0.0000000E+00;  1.0907317E+00;0; -1.5488932E-01;  1.0003984E+04;  0.0000000E+00;  3.6847987E-07;  1.0000000E+04;  0.0000000E+00;  9.9996240E+03; -1.7184474E-01;  0.0000000E+00;  1.6955424E-02;  1.7722948E+02;
  4.9998185E-01;  9.9999998E-03;  1.8000171E-01;1828; -2.0621598E-02;  0.0000000E+00;  1.8325922E-03;  1.0001883E+03;  4.0000206E-01;  1.5604434E+02;3; -1.5905670E+01;  0.0000000E+00;  1.2321222E+00;0; -1.5967384E-01;  1.0004112E+04;  0.0000000E+00;  4.4421827E-07;  1.0000000E+04;  0.0000000E+00;  9.9995527E+03; -1.7952006E-01;  0.0000000E+00;  1.9846212E-02;  2.0923009E+02;
  4.9998134E-01;  9.9999998E-03;  2.0000196E-01;1829; -2.1441283E-02;  0.0000000E+00;  2.0808789E-03;  1.0001913E+03;  4.0000212E-01;  1.5851340E+02;3; -1.6695766E+01;  0.0000000E+00;  1.4254411E+00;0; -1.6458823E-01;  1.0004267E+04;  0.0000000E+00;  7.3222520E-07;  1.0000000E+04;  0.0000000E+00;  9.9994541E+03; -1.8848184E-01;  0.0000000E+00;  2.3893615E-02;  2.5190979E+02;
  4.9998081E-01;  9.9999998E-03;  2.2000225E-01;1830; -2.2239311E-02;  0.0000000E+00;  2.4192431E-03;  1.0001952E+03;  4.0000209E-01;  1.6167380E+02;3; -1.7507315E+01;  0.0000000E+00;  1.7682040E+00;0; -1.7000277E-01;  1.0004448E+04;  0.0000000E+00;  1.9187935E-06;  1.0000000E+04;  0.0000000E+00;  9.9993506E+03; -1.9828133E-01;  0.0000000E+00;  2.8278554E-02;  2.9710538E+02;
  4.9998033E-01;  9.9999998E-03;  2.4000271E-01;1831; -2.2885712E-02;  0.0000000E+00;  3.0032180E-03;  1.0002012E+03;  4.0000212E-01;  1.6671066E+02;3; -1.8326162E+01;  0.0000000E+00;  2.3546154E+00;0; -1.7658001E-01;  1.0004643E+04;  0.0000000E+00;  5.2303731E-06;  1.0000000E+04;  0.0000000E+00;  9.9992793E+03; -2.0825286E-01;  0.0000000E+00;  3.1672843E-02;  3.2762216E+02;
  4.9997997E-01;  9.9999998E-03;  2.6000351E-01;1832; -2.3258125E-02;  0.0000000E+00;  3.9876867E-03;  1.0002108E+03;  4.0000212E-01;  1.7461165E+02;3; -1.9186537E+01;  0.0000000E+00;  3.3283582E+00;0; -1.8421534E-01;  1.0004833E+04;  0.0000000E+00;  1.0898818E-05;  1.0000000E+04;  0.0000000E+00;  9.9992793E+03; -2.1772783E-01;  0.0000000E+00;  3.3512492E-02;  3.2578253E+02;
  4.9997994E-01;  9.9999998E-03;  2.8000510E-01;1833; -2.3174981E-02;  0.0000000E+00;  5.7841907E-03;  1.0002165E+03;  4.0000215E-01;  1.7935223E+02;3; -2.0067671E+01;  0.0000000E+00;  4.9510546E+00;0; -1.8517846E-01;  1.0005015E+04;  0.0000000E+00;  1.3978091E-05;  1.0000000E+04;  0.0000000E+00;  9.9992119E+03; -2.2619970E-01;  0.0000000E+00;  4.1021246E-02;  3.4681409E+02;
  4.9998042E-01;  9.9999998E-03;  3.0000737E-01;1834; -2.2549463E-02;  0.0000000E+00;  8.0093471E-03;  1.0002085E+03;  4.0000206E-01;  1.7273517E+02;3; -2.0878510E+01;  0.0000000E+00;  6.8321500E+00;0; -1.7423131E-01;  1.0005176E+04;  0.0000000E+00;  2.7629933E-06;  1.0000000E+04;  0.0000000E+00;  9.9988896E+03; -2.3339574E-01;  0.0000000E+00;  5.9164435E-02;  4.8235062E+02;
  5.1997805E-01;  9.9999998E-03;  1.6000217E-01;1858; -2.3761619E-02;  0.0000000E+00;  2.4558674E-03;  1.0002189E+03;  4.0000597E-01;  1.8142599E+02;3; -1.7395500E+01;  0.0000000E+00;  1.6868324E+00;0; -1.7085715E-01;  1.0004610E+04;  0.0000000E+00;  9.0739320E-07;  1.0000000E+04;  0.0000000E+00;  9.9994736E+03; -1.9371273E-01;  0.0000000E+00;  2.2855585E-02;  2.4595662E+02;
  5.1997745E-01;  9.9999998E-03;  1.8000253E-01;1859; -2.4715308E-02;  0.0000000E+00;  2.7337782E-03;  1.0002220E+03;  4.0000585E-01;  1.8389505E+02;3; -1.8327194E+01;  0.0000000E+00;  1.7999668E+00;0; -1.7698805E-01;  1.0004765E+04;  0.0000000E+00;  9.9706654E-07;  1.0000000E+04;  0.0000000E+00;  9.9993818E+03; -2.0248681E-01;  0.0000000E+00;  2.5498765E-02;  2.8824170E+02;
  5.1997679E-01;  9.9999998E-03;  2.0000288E-01;1860; -2.5767116E-02;  0.0000000E+00;  3.0091179E-03;  1.0002253E+03;  4.0000594E-01;  1.8666039E+02;3; -1.9328650E+01;  0.0000000E+00;  1.9447728E+00;0; -1.8356726E-01;  1.0004953E+04;  0.0000000E+00;  1.5671757E-06;  1.0000000E+04;  0.0000000E+00;  9.9992568E+03; -2.1293068E-01;  0.0000000E+00;  2.9363427E-02;  3.4443585E+02;
  5.1997608E-01;  9.9999998E-03;  2.2000322E-01;1861; -2.6838610E-02;  0.0000000E+00;  3.3112851E-03;  1.0002299E+03;  4.0000591E-01;  1.9051212E+02;3; -2.0389883E+01;  0.0000000E+00;  2.2027640E+00;0; -1.9116589E-01;  1.0005175E+04;  0.0000000E+00;  4.1582202E-06;  1.0000000E+04;  0.0000000E+00;  9.9991289E+03; -2.2460473E-01;  0.0000000E+00;  3.3438828E-02;  4.0273895E+02;
  5.1997536E-01;  9.9999998E-03;  2.4000369E-01;1862; -2.7793303E-02;  0.0000000E+00;  3.8412581E-03;  1.0002384E+03;  4.0000588E-01;  1.9752422E+02;3; -2.1494999E+01;  0.0000000E+00;  2.7564993E+00;0; -2.0102051E-01;  1.0005418E+04;  0.0000000E+00;  1.1256262E-05;  1.0000000E+04;  0.0000000E+00;  9.9990586E+03; -2.3679176E-01;  0.0000000E+00;  3.5771247E-02;  4.3533786E+02;
  5.1997471E-01;  9.9999998E-03;  2.6000449E-01;1863; -2.8481353E-02;  0.0000000E+00;  4.8097130E-03;  1.0002538E+03;  4.0000591E-01;  2.1026453E+02;3; -2.2657812E+01;  0.0000000E+00;  3.7815533E+00;0; -2.1381913E-01;  1.0005663E+04;  0.0000000E+00;  2.2778546E-05;  1.0000000E+04;  0.0000000E+00;  9.9991182E+03; -2.4873067E-01;  0.0000000E+00;  3.4911547E-02;  4.0680786E+02;
  5.1997435E-01;  9.9999998E-03;  2.8000638E-01;1864; -2.8679047E-02;  0.0000000E+00;  6.9013773E-03;  1.0002669E+03;  4.0000591E-01;  2.2112836E+02;3; -2.3881207E+01;  0.0000000E+00;  5.7509623E+00;0; -2.1879497E-01;  1.0005903E+04;  0.0000000E+00;  2.7759215E-05;  1.0000000E+04;  0.0000000E+00;  9.9991387E+03; -2.5977007E-01;  0.0000000E+00;  4.0975094E-02;  3.8655618E+02;
  5.1997441E-01;  9.9999998E-03;  3.0000934E-01;1865; -2.8250290E-02;  0.0000000E+00;  9.7369775E-03;  1.0002584E+03;  4.0000585E-01;  2.1411626E+02;3; -2.5062923E+01;  0.0000000E+00;  8.0980806E+00;0; -2.0469573E-01;  1.0006122E+04;  0.0000000E+00;  5.4508755E-06;  1.0000000E+04;  0.0000000E+00;  9.9987529E+03; -2.6943892E-01;  0.0000000E+00;  6.4743191E-02;  5.4396533E+02;
  5.3997302E-01;  9.9999998E-03;  1.6000319E-01;1889; -2.8248664E-02;  0.0000000E+00;  3.6714699E-03;  1.0002593E+03;  4.0001556E-01;  2.1480719E+02;3; -1.9847042E+01;  0.0000000E+00;  2.6115367E+00;0; -1.8032110E-01;  1.0005158E+04;  0.0000000E+00;  1.6559922E-06;  1.0000000E+04;  0.0000000E+00;  9.9992490E+03; -2.1211463E-01;  0.0000000E+00;  3.1793538E-02;  3.4728082E+02;
  5.3997231E-01;  9.9999998E-03;  1.8000372E-01;1890; -2.9397685E-02;  0.0000000E+00;  4.0934212E-03;  1.0002614E+03;  4.0001553E-01;  2.1658490E+02;3; -2.0952751E+01;  0.0000000E+00;  2.7180974E+00;0; -1.8738978E-01;  1.0005336E+04;  0.0000000E+00;  1.6009394E-06;  1.0000000E+04;  0.0000000E+00;  9.9991133E+03; -2.2177531E-01;  0.0000000E+00;  3.4385536E-02;  4.1094949E+02;
  5.3997147E-01;  9.9999998E-03;  2.0000425E-01;1891; -3.0691909E-02;  0.0000000E+00;  4.4512032E-03;  1.0002636E+03;  4.0001559E-01;  2.1836261E+02;3; -2.2194136E+01;  0.0000000E+00;  2.7769463E+00;0; -1.9523434E-01;  1.0005556E+04;  0.0000000E+00;  2.7319422E-06;  1.0000000E+04;  0.0000000E+00;  9.9989375E+03; -2.3338282E-01;  0.0000000E+00;  3.8148481E-02;  4.9358368E+02;
  5.3997058E-01;  9.9999998E-03;  2.2000475E-01;1892; -3.2067969E-02;  0.0000000E+00;  4.7503095E-03;  1.0002676E+03;  4.0001562E-01;  2.2172052E+02;3; -2.3550125E+01;  0.0000000E+00;  2.9030447E+00;0; -2.0473535E-01;  1.0005814E+04;  0.0000000E+00;  8.8765846E-06;  1.0000000E+04;  0.0000000E+00;  9.9987617E+03; -2.4652326E-01;  0.0000000E+00;  4.1787904E-02;  5.7682147E+02;
  5.3996962E-01;  9.9999998E-03;  2.4000525E-01;1893; -3.3407249E-02;  0.0000000E+00;  5.1740399E-03;  1.0002778E+03;  4.0001562E-01;  2.3011528E+02;3; -2.5016865E+01;  0.0000000E+00;  3.3564365E+00;0; -2.1813604E-01;  1.0006098E+04;  0.0000000E+00;  2.5642441E-05;  1.0000000E+04;  0.0000000E+00;  9.9986807E+03; -2.6048669E-01;  0.0000000E+00;  4.2350646E-02;  6.1652032E+02;
  5.3996849E-01;  9.9999998E-03;  2.6000607E-01;1894; -3.4559041E-02;  0.0000000E+00;  6.0183560E-03;  1.0003003E+03;  4.0001556E-01;  2.4878128E+02;3; -2.6600254E+01;  0.0000000E+00;  4.3523974E+00;0; -2.3769906E-01;  1.0006391E+04;  0.0000000E+00;  5.1682542E-05;  1.0000000E+04;  0.0000000E+00;  9.9988350E+03; -2.7449816E-01;  0.0000000E+00;  3.6799103E-02;  5.4806958E+02;
  5.3996742E-01;  9.9999998E-03;  2.8000820E-01;1895; -3.5261109E-02;  0.0000000E+00;  8.3205765E-03;  1.0003246E+03;  4.0001556E-01;  2.6892871E+02;3; -2.8290003E+01;  0.0000000E+00;  6.6468654E+00;0; -2.4966283E-01;  1.0006679E+04;  0.0000000E+00;  6.1074446E-05;  1.0000000E+04;  0.0000000E+00;  9.9990342E+03; -2.8781718E-01;  0.0000000E+00;  3.8154345E-02;  4.4626282E+02;
  5.3996676E-01;  9.9999998E-03;  3.0001202E-01;1896; -3.5328865E-02;  0.0000000E+00;  1.1840515E-02;  1.0003188E+03;  4.0001556E-01;  2.6408939E+02;3; -3.0029232E+01;  0.0000000E+00;  9.5186338E+00;0; -2.3300913E-01;  1.0006946E+04;  0.0000000E+00;  1.6617774E-05;  1.0000000E+04;  0.0000000E+00;  9.9986465E+03; -2.9976571E-01;  0.0000000E+00;  6.6756584E-02;  5.9715741E+02;
  5.5996722E-01;  9.9999998E-03;  1.6000451E-01;1920; -3.3248309E-02;  0.0000000E+00;  5.3284038E-03;  1.0003264E+03;  4.0004188E-01;  2.7040948E+02;3; -2.2460449E+01;  0.0000000E+00;  3.9240878E+00;0; -1.7828326E-01;  1.0005519E+04;  0.0000000E+00;  2.0996347E-06;  1.0000000E+04;  0.0000000E+00;  9.9989131E+03; -2.2337303E-01;  0.0000000E+00;  4.5089770E-02;  4.9597430E+02;
  5.5996639E-01;  9.9999998E-03;  1.8000533E-01;1921; -3.4584627E-02;  0.0000000E+00;  6.0216561E-03;  1.0003254E+03;  4.0004188E-01;  2.6952063E+02;3; -2.3713596E+01;  0.0000000E+00;  4.1318297E+00;0; -1.8526965E-01;  1.0005714E+04;  0.0000000E+00;  1.3489924E-06;  1.0000000E+04;  0.0000000E+00;  9.9986963E+03; -2.3351283E-01;  0.0000000E+00;  4.8243187E-02;  6.0040698E+02;
  5.5996543E-01;  9.9999998E-03;  2.0000616E-01;1922; -3.6102835E-02;  0.0000000E+00;  6.5975678E-03;  1.0003239E+03;  4.0004188E-01;  2.6833551E+02;3; -2.5184429E+01;  0.0000000E+00;  4.1553035E+00;0; -1.9333898E-01;  1.0005954E+04;  0.0000000E+00;  3.7344885E-06;  1.0000000E+04;  0.0000000E+00;  9.9984258E+03; -2.4566005E-01;  0.0000000E+00;  5.2321080E-02;  7.3081915E+02;
  5.5996436E-01;  9.9999998E-03;  2.2000693E-01;1923; -3.7789851E-02;  0.0000000E+00;  6.9894572E-03;  1.0003246E+03;  4.0004200E-01;  2.6892807E+02;3; -2.6902199E+01;  0.0000000E+00;  4.0503912E+00;0; -2.0378694E-01;  1.0006231E+04;  0.0000000E+00;  1.8678506E-05;  1.0000000E+04;  0.0000000E+00;  9.9981650E+03; -2.5941667E-01;  0.0000000E+00;  5.5629738E-02;  8.5718225E+02;
  5.5996305E-01;  9.9999998E-03;  2.4000765E-01;1924; -3.9568722E-02;  0.0000000E+00;  7.2999233E-03;  1.0003345E+03;  4.0004194E-01;  2.7712527E+02;3; -2.8825775E+01;  0.0000000E+00;  4.2428827E+00;0; -2.2026962E-01;  1.0006535E+04;  0.0000000E+00;  5.8772021E-05;  1.0000000E+04;  0.0000000E+00;  9.9980566E+03; -2.7413487E-01;  0.0000000E+00;  5.3865261E-02;  9.1320056E+02;
  5.5996144E-01;  9.9999998E-03;  2.6000860E-01;1925; -4.1344676E-02;  0.0000000E+00;  7.9197083E-03;  1.0003637E+03;  4.0004188E-01;  3.0132190E+02;3; -3.0941847E+01;  0.0000000E+00;  5.1209826E+00;0; -2.4768806E-01;  1.0006849E+04;  0.0000000E+00;  1.1868725E-04;  1.0000000E+04;  0.0000000E+00;  9.9983271E+03; -2.8914133E-01;  0.0000000E+00;  4.1453268E-02;  7.9701190E+02;
  5.5995935E-01;  9.9999998E-03;  2.8001103E-01;1926; -4.2841904E-02;  0.0000000E+00;  1.0293517E-02;  1.0004031E+03;  4.0004191E-01;  3.3391327E+02;3; -3.3252865E+01;  0.0000000E+00;  7.6280651E+00;0; -2.6980764E-01;  1.0007162E+04;  0.0000000E+00;  1.3740790E-04;  1.0000000E+04;  0.0000000E+00;  9.9987988E+03; -3.0373025E-01;  0.0000000E+00;  3.3922613E-02;  5.7182678E+02;
  5.5995721E-01;  9.9999998E-03;  3.0001581E-01;1927; -4.3827988E-02;  0.0000000E+00;  1.4484677E-02;  1.0004040E+03;  4.0004191E-01;  3.3470334E+02;3; -3.5751644E+01;  0.0000000E+00;  1.1073298E+01;0; -2.5274959E-01;  1.0007460E+04;  0.0000000E+00;  4.6522051E-05;  1.0000000E+04;  0.0000000E+00;  9.9985176E+03; -3.1708568E-01;  0.0000000E+00;  6.4336099E-02;  6.6691187E+02;
  5.7996106E-01;  9.9999998E-03;  1.6000617E-01;1951; -3.8577229E-02;  0.0000000E+00;  7.4138381E-03;  1.0004781E+03;  4.0011185E-01;  3.9603302E+02;3; -2.5195377E+01;  0.0000000E+00;  5.5697560E+00;0; -1.5827215E-01;  1.0005535E+04;  0.0000000E+00;  1.0377890E-06;  1.0000000E+04;  0.0000000E+00;  9.9984316E+03; -2.2253594E-01;  0.0000000E+00;  6.4263791E-02;  7.0955750E+02;
  5.7995999E-01;  9.9999998E-03;  1.8000735E-01;1952; -4.0116489E-02;  0.0000000E+00;  8.4840311E-03;  1.0004703E+03;  4.0011185E-01;  3.8961353E+02;3; -2.6558077E+01;  0.0000000E+00;  5.9973311E+00;0; -1.6344945E-01;  1.0005740E+04;  0.0000000E+00; -1.5276045E-06;  1.0000000E+04;  0.0000000E+00;  9.9980713E+03; -2.3248067E-01;  0.0000000E+00;  6.9031224E-02;  8.8299860E+02;
  5.7995880E-01;  9.9999998E-03;  2.0000853E-01;1953; -4.1837603E-02;  0.0000000E+00;  9.4392877E-03;  1.0004608E+03;  4.0011185E-01;  3.8171262E+02;3; -2.8044867E+01;  0.0000000E+00;  6.3248119E+00;0; -1.7007589E-01;  1.0005979E+04;  0.0000000E+00;  3.6658193E-06;  1.0000000E+04;  0.0000000E+00;  9.9976416E+03; -2.4417163E-01;  0.0000000E+00;  7.4095748E-02;  1.0904243E+03;
  5.7995749E-01;  9.9999998E-03;  2.2000979E-01;1954; -4.3733470E-02;  0.0000000E+00;  1.0228383E-02;  1.0004544E+03;  4.0011182E-01;  3.7647827E+02;3; -2.9994246E+01;  0.0000000E+00;  6.3009310E+00;0; -1.7988718E-01;  1.0006248E+04;  0.0000000E+00;  3.7887803E-05;  1.0000000E+04;  0.0000000E+00;  9.9972451E+03; -2.5718844E-01;  0.0000000E+00;  7.7301256E-02;  1.2835988E+03;
  5.7995594E-01;  9.9999998E-03;  2.4001098E-01;1955; -4.5953371E-02;  0.0000000E+00;  1.0551848E-02;  1.0004611E+03;  4.0011185E-01;  3.8200891E+02;3; -3.2602394E+01;  0.0000000E+00;  5.8732514E+00;0; -1.9807096E-01;  1.0006533E+04;  0.0000000E+00;  1.2730203E-04;  1.0000000E+04;  0.0000000E+00;  9.9970938E+03; -2.7099791E-01;  0.0000000E+00;  7.2926953E-02;  1.3663621E+03;
  5.7995373E-01;  9.9999998E-03;  2.6001257E-01;1956; -4.8466448E-02;  0.0000000E+00;  1.0983325E-02;  1.0004952E+03;  4.0011185E-01;  4.1025464E+02;3; -3.5458374E+01;  0.0000000E+00;  6.2226758E+00;0; -2.3258890E-01;  1.0006829E+04;  0.0000000E+00;  2.5728476E-04;  1.0000000E+04;  0.0000000E+00;  9.9974766E+03; -2.8517041E-01;  0.0000000E+00;  5.2581504E-02;  1.2051470E+03;
  5.7995045E-01;  9.9999998E-03;  2.8001574E-01;1957; -5.1060952E-02;  0.0000000E+00;  1.3256690E-02;  1.0005484E+03;  4.0011182E-01;  4.5430222E+02;3; -3.8564968E+01;  0.0000000E+00;  8.7573948E+00;0; -2.6751986E-01;  1.0007128E+04;  0.0000000E+00;  2.9357965E-04;  1.0000000E+04;  0.0000000E+00;  9.9982402E+03; -2.9920736E-01;  0.0000000E+00;  3.1687487E-02;  8.5279041E+02;
  5.7994622E-01;  9.9999998E-03;  3.0002147E-01;1958; -5.3435560E-02;  0.0000000E+00;  1.7950747E-02;  1.0005609E+03;  4.0011185E-01;  4.6467215E+02;3; -4.1994225E+01;  0.0000000E+00;  1.2650269E+01;0; -2.5351453E-01;  1.0007410E+04;  0.0000000E+00;  1.0915162E-04;  1.0000000E+04;  0.0000000E+00;  9.9982041E+03; -3.1229740E-01;  0.0000000E+00;  5.8782879E-02;  8.2802142E+02;
  5.9995484E-01;  9.9999998E-03;  1.6000809E-01;1982; -4.3917719E-02;  0.0000000E+00;  9.9078882E-03;  1.0008638E+03;  4.0028954E-01;  7.1562152E+02;3; -2.7900219E+01;  0.0000000E+00;  7.6307650E+00;0; -1.1232813E-01;  1.0005039E+04;  0.0000000E+00; -2.8880804E-06;  1.0000000E+04;  0.0000000E+00;  9.9977617E+03; -2.0299637E-01;  0.0000000E+00;  9.0668246E-02;  1.0032375E+03;
  5.9995353E-01;  9.9999998E-03;  1.8000968E-01;1983; -4.5702357E-02;  0.0000000E+00;  1.1429309E-02;  1.0008442E+03;  4.0028948E-01;  6.9942474E+02;3; -2.9371181E+01;  0.0000000E+00;  8.2537937E+00;0; -1.1332939E-01;  1.0005226E+04;  0.0000000E+00; -8.8905208E-06;  1.0000000E+04;  0.0000000E+00;  9.9971846E+03; -2.1175423E-01;  0.0000000E+00;  9.8424844E-02;  1.2803921E+03;
  5.9995204E-01;  9.9999998E-03;  2.0001137E-01;1984; -4.7686853E-02;  0.0000000E+00;  1.2852311E-02;  1.0008217E+03;  4.0028954E-01;  6.8075891E+02;3; -3.0980913E+01;  0.0000000E+00;  8.7343140E+00;0; -1.1627849E-01;  1.0005435E+04;  0.0000000E+00;  2.0110031E-06;  1.0000000E+04;  0.0000000E+00;  9.9965254E+03; -2.2159812E-01;  0.0000000E+00;  1.0531963E-01;  1.5999352E+03;
  5.9995037E-01;  9.9999998E-03;  2.2001323E-01;1985; -4.9878076E-02;  0.0000000E+00;  1.4043608E-02;  1.0008035E+03;  4.0028957E-01;  6.6564850E+02;3; -3.2970200E+01;  0.0000000E+00;  8.8829060E+00;0; -1.2393848E-01;  1.0005656E+04;  0.0000000E+00;  7.1356400E-05;  1.0000000E+04;  0.0000000E+00;  9.9959434E+03; -2.3208371E-01;  0.0000000E+00;  1.0814523E-01;  1.8862733E+03;
  5.9994847E-01;  9.9999998E-03;  2.4001551E-01;1986; -5.2266967E-02;  0.0000000E+00;  1.5023627E-02;  1.0008032E+03;  4.0028951E-01;  6.6535217E+02;3; -3.5593346E+01;  0.0000000E+00;  8.6902409E+00;0; -1.4207739E-01;  1.0005878E+04;  0.0000000E+00;  2.4694792E-04;  1.0000000E+04;  0.0000000E+00;  9.9957129E+03; -2.4288316E-01;  0.0000000E+00;  1.0080578E-01;  2.0129460E+03;
  5.9994560E-01;  9.9999998E-03;  2.6001850E-01;1987; -5.5422321E-02;  0.0000000E+00;  1.5771614E-02;  1.0008374E+03;  4.0028951E-01;  6.9379535E+02;3; -3.9622528E+01;  0.0000000E+00;  8.2465038E+00;0; -1.7982906E-01;  1.0006104E+04;  0.0000000E+00;  4.9537735E-04;  1.0000000E+04;  0.0000000E+00;  9.9961709E+03; -2.5391555E-01;  0.0000000E+00;  7.4086480E-02;  1.8241693E+03;
  5.9994125E-01;  9.9999998E-03;  2.8002349E-01;1988; -5.9249826E-02;  0.0000000E+00;  1.7966181E-02;  1.0008936E+03;  4.0028948E-01;  7.4031171E+02;3; -4.3768032E+01;  0.0000000E+00;  1.0033588E+01;0; -2.2489905E-01;  1.0006330E+04;  0.0000000E+00;  5.5950531E-04;  1.0000000E+04;  0.0000000E+00;  9.9970625E+03; -2.6502606E-01;  0.0000000E+00;  4.0127002E-02;  1.4251373E+03;
  5.9993482E-01;  9.9999998E-03;  3.0003035E-01;1989; -6.3325390E-02;  0.0000000E+00;  2.2682481E-02;  1.0009192E+03;  4.0028945E-01;  7.6154535E+02;3; -4.8271965E+01;  0.0000000E+00;  1.4171726E+01;0; -2.2081272E-01;  1.0006546E+04;  0.0000000E+00;  2.1504269E-04;  1.0000000E+04;  0.0000000E+00;  9.9973574E+03; -2.7557799E-01;  0.0000000E+00;  5.4765273E-02;  1.2518992E+03;
  6.1994898E-01;  9.9999998E-03;  1.6001035E-01;2013; -4.8931513E-02;  0.0000000E+00;  1.2929930E-02;  1.0017775E+03;  4.0069622E-01;  1.4726149E+03;3; -3.0445406E+01;  0.0000000E+00;  1.0058608E+01;0; -3.2512709E-02;  1.0003855E+04;  0.0000000E+00; -9.9587105E-06;  1.0000000E+04;  0.0000000E+00;  9.9968906E+03; -1.5739955E-01;  0.0000000E+00;  1.2488684E-01;  1.3819939E+03;
  6.1994731E-01;  9.9999998E-03;  1.8001243E-01;2014; -5.1000517E-02;  0.0000000E+00;  1.4950880E-02;  1.0017411E+03;  4.0069619E-01;  1.4424929E+03;3; -3.2021793E+01;  0.0000000E+00;  1.0928680E+01;0; -2.6628122E-02;  1.0003995E+04;  0.0000000E+00; -2.0301009E-05;  1.0000000E+04;  0.0000000E+00;  9.9960244E+03; -1.6371547E-01;  0.0000000E+00;  1.3708735E-01;  1.7985392E+03;
  6.1994553E-01;  9.9999998E-03;  2.0001481E-01;2015; -5.3282633E-02;  0.0000000E+00;  1.6917299E-02;  1.0017000E+03;  4.0069631E-01;  1.4083219E+03;3; -3.3764618E+01;  0.0000000E+00;  1.1513648E+01;0; -2.3431197E-02;  1.0004137E+04;  0.0000000E+00;  6.4958108E-08;  1.0000000E+04;  0.0000000E+00;  9.9950625E+03; -1.7010504E-01;  0.0000000E+00;  1.4667384E-01;  2.2657969E+03;
  6.1994338E-01;  9.9999998E-03;  2.2001775E-01;2016; -5.5802733E-02;  0.0000000E+00;  1.8816065E-02;  1.0016649E+03;  4.0069628E-01;  1.3792864E+03;3; -3.5826088E+01;  0.0000000E+00;  1.1775531E+01;0; -2.6879147E-02;  1.0004269E+04;  0.0000000E+00;  1.1993197E-04;  1.0000000E+04;  0.0000000E+00;  9.9942324E+03; -1.7615201E-01;  0.0000000E+00;  1.4927286E-01;  2.6771140E+03;
  6.1994070E-01;  9.9999998E-03;  2.4002182E-01;2017; -5.8720220E-02;  0.0000000E+00;  2.0560671E-02;  1.0016517E+03;  4.0069628E-01;  1.3683240E+03;3; -3.8586788E+01;  0.0000000E+00;  1.1534472E+01;0; -4.4034362E-02;  1.0004383E+04;  0.0000000E+00;  4.1078671E-04;  1.0000000E+04;  0.0000000E+00;  9.9938574E+03; -1.8181700E-01;  0.0000000E+00;  1.3778263E-01;  2.8808669E+03;
  6.1993754E-01;  9.9999998E-03;  2.6002824E-01;2018; -6.2063653E-02;  0.0000000E+00;  2.2631109E-02;  1.0016702E+03;  4.0069625E-01;  1.3836318E+03;3; -4.2383991E+01;  0.0000000E+00;  1.1213148E+01;0; -7.9987682E-02;  1.0004489E+04;  0.0000000E+00;  8.0882217E-04;  1.0000000E+04;  0.0000000E+00;  9.9941182E+03; -1.8743750E-01;  0.0000000E+00;  1.0744982E-01;  2.7943264E+03;
  6.1993253E-01;  9.9999998E-03;  2.8003642E-01;2019; -6.6723444E-02;  0.0000000E+00;  2.5251823E-02;  1.0017058E+03;  4.0069613E-01;  1.4131611E+03;3; -4.8166023E+01;  0.0000000E+00;  1.1708569E+01;0; -1.2445441E-01;  1.0004591E+04;  0.0000000E+00;  9.0323959E-04;  1.0000000E+04;  0.0000000E+00;  9.9947217E+03; -1.9325987E-01;  0.0000000E+00;  6.8805456E-02;  2.5453516E+03;
  6.1992455E-01;  9.9999998E-03;  3.0004439E-01;2020; -7.2318159E-02;  0.0000000E+00;  2.9205404E-02;  1.0017393E+03;  4.0069616E-01;  1.4409127E+03;3; -5.3919304E+01;  0.0000000E+00;  1.5233934E+01;0; -1.3672698E-01;  1.0004692E+04;  0.0000000E+00;  3.5080119E-04;  1.0000000E+04;  0.0000000E+00;  9.9952881E+03; -1.9891211E-01;  0.0000000E+00;  6.2185142E-02;  2.2634980E+03;
  6.3994378E-01;  9.9999998E-03;  1.6001295E-01;2044; -5.3298011E-02;  0.0000000E+00;  1.6367383E-02;  1.0034891E+03;  4.0144128E-01;  2.8904927E+03;3; -3.2597336E+01;  0.0000000E+00;  1.2852267E+01;0;  8.5676767E-02;  1.0001896E+04;  0.0000000E+00; -1.7575972E-05;  1.0000000E+04;  0.0000000E+00;  9.9958506E+03; -8.0410592E-02;  0.0000000E+00;  1.6608736E-01;  1.8331366E+03;
  6.3994193E-01;  9.9999998E-03;  1.8001576E-01;2045; -5.5610456E-02;  0.0000000E+00;  1.9129708E-02;  1.0034311E+03;  4.0144119E-01;  2.8424956E+03;3; -3.4336590E+01;  0.0000000E+00;  1.4070635E+01;0;  1.0088225E-01;  1.0001961E+04;  0.0000000E+00; -3.1105264E-05;  1.0000000E+04;  0.0000000E+00;  9.9946318E+03; -8.3035350E-02;  0.0000000E+00;  1.8391760E-01;  2.4177571E+03;
  6.3993961E-01;  9.9999998E-03;  2.0001915E-01;2046; -5.8245324E-02;  0.0000000E+00;  2.1909744E-02;  1.0033666E+03;  4.0144116E-01;  2.7890667E+03;3; -3.6198910E+01;  0.0000000E+00;  1.4824070E+01;0;  1.1235563E-01;  1.0002005E+04;  0.0000000E+00;  1.0728568E-06;  1.0000000E+04;  0.0000000E+00;  9.9933057E+03; -8.4582478E-02;  0.0000000E+00;  1.9693811E-01;  3.0620417E+03;
  6.3993704E-01;  9.9999998E-03;  2.2002429E-01;2047; -6.1070476E-02;  0.0000000E+00;  2.5174700E-02;  1.0033089E+03;  4.0144128E-01;  2.7412671E+03;3; -3.8401752E+01;  0.0000000E+00;  1.5116847E+01;0;  1.1539923E-01;  1.0002013E+04;  0.0000000E+00;  1.7228870E-04;  1.0000000E+04;  0.0000000E+00;  9.9921504E+03; -8.4736392E-02;  0.0000000E+00;  2.0013562E-01;  3.6356704E+03;
  6.3993436E-01;  9.9999998E-03;  2.4003291E-01;2048; -6.4063668E-02;  0.0000000E+00;  2.9381149E-02;  1.0032692E+03;  4.0144131E-01;  2.7083801E+03;3; -4.1339134E+01;  0.0000000E+00;  1.4627888E+01;0;  1.0705959E-01;  1.0001990E+04;  0.0000000E+00;  5.7100877E-04;  1.0000000E+04;  0.0000000E+00;  9.9913809E+03; -8.3744533E-02;  0.0000000E+00;  1.9080412E-01;  4.0329065E+03;
  6.3993120E-01;  9.9999998E-03;  2.6004541E-01;2049; -6.7616679E-02;  0.0000000E+00;  3.3957668E-02;  1.0032381E+03;  4.0144125E-01;  2.6826040E+03;3; -4.5708698E+01;  0.0000000E+00;  1.3305847E+01;0;  9.1673240E-02;  1.0001944E+04;  0.0000000E+00;  1.0972985E-03;  1.0000000E+04;  0.0000000E+00;  9.9908018E+03; -8.2319260E-02;  0.0000000E+00;  1.7399250E-01;  4.3463467E+03;
  6.3992602E-01;  9.9999998E-03;  2.8005731E-01;2050; -7.2847493E-02;  0.0000000E+00;  3.5892744E-02;  1.0032174E+03;  4.0144128E-01;  2.6655186E+03;3; -5.1974751E+01;  0.0000000E+00;  1.1822413E+01;0;  5.1887527E-02;  1.0001895E+04;  0.0000000E+00;  1.1975566E-03;  1.0000000E+04;  0.0000000E+00;  9.9904375E+03; -8.1097990E-02;  0.0000000E+00;  1.3298552E-01;  4.5836357E+03;
  6.3991719E-01;  9.9999998E-03;  3.0006543E-01;2051; -7.9269871E-02;  0.0000000E+00;  3.8012482E-02;  1.0032556E+03;  4.0144116E-01;  2.6971216E+03;3; -5.8765015E+01;  0.0000000E+00;  1.4950336E+01;0;  1.4181294E-02;  1.0001846E+04;  0.0000000E+00;  4.5898466E-04;  1.0000000E+04;  0.0000000E+00;  9.9912471E+03; -8.0056235E-02;  0.0000000E+00;  9.4237529E-02;  4.2214492E+03;
  6.5993989E-01;  9.9999998E-03;  1.6001612E-01;2075; -5.6669373E-02;  0.0000000E+00;  2.0535467E-02;  1.0056370E+03;  4.0237701E-01;  4.6699883E+03;3; -3.4182686E+01;  0.0000000E+00;  1.6257875E+01;0;  2.3896988E-01;  9.9992354E+03;  0.0000000E+00; -2.1143038E-05;  1.0000000E+04;  0.0000000E+00;  9.9947129E+03;  2.7306689E-02;  0.0000000E+00;  2.1166319E-01;  2.3240002E+03;
  6.5993786E-01;  9.9999998E-03;  1.8001989E-01;2076; -5.9041861E-02;  0.0000000E+00;  2.4292143E-02;  1.0055552E+03;  4.0237698E-01;  4.6021411E+03;3; -3.5784611E+01;  0.0000000E+00;  1.7921217E+01;0;  2.6488641E-01;  9.9992070E+03;  0.0000000E+00; -3.4606950E-05;  1.0000000E+04;  0.0000000E+00;  9.9931143E+03;  2.9231954E-02;  0.0000000E+00;  2.3565446E-01;  3.0901121E+03;
  6.5993536E-01;  9.9999998E-03;  2.0002519E-01;2077; -6.1729997E-02;  0.0000000E+00;  2.8686466E-02;  1.0054650E+03;  4.0237713E-01;  4.5274795E+03;3; -3.7544533E+01;  0.0000000E+00;  1.9187782E+01;0;  2.8587741E-01;  9.9991377E+03;  0.0000000E+00;  6.4210781E-06;  1.0000000E+04;  0.0000000E+00;  9.9913867E+03;  3.3201735E-02;  0.0000000E+00;  2.5267568E-01;  3.9276399E+03;
  6.5993273E-01;  9.9999998E-03;  2.2003406E-01;2078; -6.4517505E-02;  0.0000000E+00;  3.4679320E-02;  1.0053806E+03;  4.0237719E-01;  4.4575586E+03;3; -3.9562210E+01;  0.0000000E+00;  1.9994062E+01;0;  2.9830331E-01;  9.9990186E+03;  0.0000000E+00;  2.0350597E-04;  1.0000000E+04;  0.0000000E+00;  9.9898271E+03;  3.9366800E-02;  0.0000000E+00;  2.5893649E-01;  4.6999692E+03;
  6.5993029E-01;  9.9999998E-03;  2.4004897E-01;2079; -6.7232095E-02;  0.0000000E+00;  4.2880919E-02;  1.0053023E+03;  4.0237719E-01;  4.3926743E+03;3; -4.2451805E+01;  0.0000000E+00;  1.9842169E+01;0;  3.0834767E-01;  9.9988555E+03;  0.0000000E+00;  6.4169866E-04;  1.0000000E+04;  0.0000000E+00;  9.9884268E+03;  4.7294933E-02;  0.0000000E+00;  2.6105273E-01;  5.3950757E+03;
  6.5992796E-01;  9.9999998E-03;  2.6006925E-01;2080; -7.0295684E-02;  0.0000000E+00;  5.0499432E-02;  1.0051926E+03;  4.0237731E-01;  4.3018169E+03;3; -4.7325691E+01;  0.0000000E+00;  1.6958187E+01;0;  3.3253631E-01;  9.9986631E+03;  0.0000000E+00;  1.2005899E-03;  1.0000000E+04;  0.0000000E+00;  9.9864336E+03;  5.6129593E-02;  0.0000000E+00;  2.7640671E-01;  6.3696001E+03;
  6.5992302E-01;  9.9999998E-03;  2.8008437E-01;2081; -7.6231867E-02;  0.0000000E+00;  4.9441770E-02;  1.0050934E+03;  4.0237740E-01;  4.2195513E+03;3; -5.5077370E+01;  0.0000000E+00;  1.0138445E+01;0;  2.9643577E-01;  9.9984580E+03;  0.0000000E+00;  1.2674106E-03;  1.0000000E+04;  0.0000000E+00;  9.9846563E+03;  6.4976364E-02;  0.0000000E+00;  2.3145942E-01;  7.3219707E+03;
  6.5991414E-01;  9.9999998E-03;  3.0009091E-01;2082; -8.3152682E-02;  0.0000000E+00;  4.8029598E-02;  1.0051471E+03;  4.0237731E-01;  4.2640913E+03;3; -6.2070362E+01;  0.0000000E+00;  1.3350129E+01;0;  2.1279204E-01;  9.9982598E+03;  0.0000000E+00;  4.5520224E-04;  1.0000000E+04;  0.0000000E+00;  9.9859287E+03;  7.3332407E-02;  0.0000000E+00;  1.3945962E-01;  6.7997480E+03;
  6.7993897E-01;  9.9999998E-03;  1.6001973E-01;2106; -5.8047563E-02;  0.0000000E+00;  2.5588024E-02;  1.0072914E+03;  4.0312299E-01;  6.0404663E+03;3; -3.5258339E+01;  0.0000000E+00;  2.0760126E+01;0;  4.1293892E-01;  9.9961865E+03;  0.0000000E+00; -1.8199051E-05;  1.0000000E+04;  0.0000000E+00;  9.9935840E+03;  1.5541404E-01;  0.0000000E+00;  2.5752488E-01;  2.8081497E+03;
  6.7993683E-01;  9.9999998E-03;  1.8002458E-01;2107; -6.0532663E-02;  0.0000000E+00;  3.0610170E-02;  1.0071865E+03;  4.0312305E-01;  5.9534614E+03;3; -3.6913994E+01;  0.0000000E+00;  2.3232698E+01;0;  4.4939852E-01;  9.9960654E+03;  0.0000000E+00; -2.8224489E-05;  1.0000000E+04;  0.0000000E+00;  9.9916162E+03;  1.6212314E-01;  0.0000000E+00;  2.8727537E-01;  3.7486646E+03;
  6.7993426E-01;  9.9999998E-03;  2.0003177E-01;2108; -6.3289292E-02;  0.0000000E+00;  3.6864705E-02;  1.0070718E+03;  4.0312323E-01;  5.8584575E+03;3; -3.8594654E+01;  0.0000000E+00;  2.5526396E+01;0;  4.7939700E-01;  9.9958896E+03;  0.0000000E+00;  1.2569723E-05;  1.0000000E+04;  0.0000000E+00;  9.9895137E+03;  1.7136894E-01;  0.0000000E+00;  3.0802804E-01;  4.7708960E+03;
  6.7993182E-01;  9.9999998E-03;  2.2004442E-01;2109; -6.5890104E-02;  0.0000000E+00;  4.5978501E-02;  1.0069623E+03;  4.0312332E-01;  5.7677983E+03;3; -4.0377907E+01;  0.0000000E+00;  2.7518543E+01;0;  5.0110257E-01;  9.9956631E+03;  0.0000000E+00;  1.9114565E-04;  1.0000000E+04;  0.0000000E+00;  9.9875596E+03;  1.8307166E-01;  0.0000000E+00;  3.1803092E-01;  5.7334976E+03;
  6.7992997E-01;  9.9999998E-03;  2.4006543E-01;2110; -6.7870647E-02;  0.0000000E+00;  5.8307137E-02;  1.0068474E+03;  4.0312341E-01;  5.6725967E+03;3; -4.2438660E+01;  0.0000000E+00;  2.7921362E+01;0;  5.3107476E-01;  9.9953916E+03;  0.0000000E+00;  5.6892831E-04;  1.0000000E+04;  0.0000000E+00;  9.9855449E+03;  1.9673815E-01;  0.0000000E+00;  3.3433664E-01;  6.7150488E+03;
  6.7992884E-01;  9.9999998E-03;  2.6009223E-01;2111; -6.9787286E-02;  0.0000000E+00;  6.7258380E-02;  1.0066696E+03;  4.0312368E-01;  5.5253501E+03;3; -4.6668930E+01;  0.0000000E+00;  1.9886492E+01;0;  5.9017766E-01;  9.9950889E+03;  0.0000000E+00;  1.0298790E-03;  1.0000000E+04;  0.0000000E+00;  9.9823057E+03;  2.1164507E-01;  0.0000000E+00;  3.7853256E-01;  8.2727979E+03;
  6.7992485E-01;  9.9999998E-03;  2.8010914E-01;2112; -7.5471468E-02;  0.0000000E+00;  6.2275194E-02;  1.0065156E+03;  4.0312400E-01;  5.3977563E+03;3; -5.5739021E+01;  0.0000000E+00;  9.1318884E+00;0;  5.4299021E-01;  9.9947646E+03;  0.0000000E+00;  1.0457092E-03;  1.0000000E+04;  0.0000000E+00;  9.9795566E+03;  2.2688574E-01;  0.0000000E+00;  3.1610450E-01;  9.7400723E+03;
  6.7991853E-01;  9.9999998E-03;  3.0011371E-01;2113; -8.0924898E-02;  0.0000000E+00;  5.7513643E-02;  1.0066008E+03;  4.0312389E-01;  5.4683677E+03;3; -6.2748184E+01;  0.0000000E+00;  1.2689336E+01;0;  4.1355449E-01;  9.9944531E+03;  0.0000000E+00;  3.7463897E-04;  1.0000000E+04;  0.0000000E+00;  9.9815576E+03;  2.4128440E-01;  0.0000000E+00;  1.7227010E-01;  8.9214170E+03;
  6.9994378E-01;  9.9999998E-03;  1.6002317E-01;2137; -5.5361189E-02;  0.0000000E+00;  3.0630745E-02;  1.0081138E+03;  4.0353066E-01;  6.7215557E+03;3; -3.5164433E+01;  0.0000000E+00;  2.5624138E+01;0;  5.8213294E-01;  9.9932900E+03;  0.0000000E+00; -1.0813247E-05;  1.0000000E+04;  0.0000000E+00;  9.9925732E+03;  2.8299600E-01;  0.0000000E+00;  2.9913694E-01;  3.2389700E+03;
  6.9994187E-01;  9.9999998E-03;  1.8002898E-01;2138; -5.7749767E-02;  0.0000000E+00;  3.6843546E-02;  1.0079890E+03;  4.0353087E-01;  6.6181592E+03;3; -3.6862778E+01;  0.0000000E+00;  2.9040985E+01;0;  6.2740755E-01;  9.9930840E+03;  0.0000000E+00; -1.6525530E-05;  1.0000000E+04;  0.0000000E+00;  9.9902979E+03;  2.9405212E-01;  0.0000000E+00;  3.3335546E-01;  4.3279697E+03;
  6.9993967E-01;  9.9999998E-03;  2.0003779E-01;2139; -6.0332842E-02;  0.0000000E+00;  4.4727288E-02;  1.0078544E+03;  4.0353104E-01;  6.5067637E+03;3; -3.8660175E+01;  0.0000000E+00;  3.2265270E+01;0;  6.6419315E-01;  9.9928311E+03;  0.0000000E+00;  1.4093850E-05;  1.0000000E+04;  0.0000000E+00;  9.9878750E+03;  3.0756405E-01;  0.0000000E+00;  3.5662907E-01;  5.5057188E+03;
  6.9993764E-01;  9.9999998E-03;  2.2005309E-01;2140; -6.2570438E-02;  0.0000000E+00;  5.6123205E-02;  1.0077258E+03;  4.0353125E-01;  6.4001084E+03;3; -4.0211067E+01;  0.0000000E+00;  3.5260403E+01;0;  6.9160432E-01;  9.9925322E+03;  0.0000000E+00;  1.4021179E-04;  1.0000000E+04;  0.0000000E+00;  9.9856152E+03;  3.2312998E-01;  0.0000000E+00;  3.6847433E-01;  6.6178379E+03;
  6.9993651E-01;  9.9999998E-03;  2.4007805E-01;2141; -6.3699275E-02;  0.0000000E+00;  7.1212038E-02;  1.0075889E+03;  4.0353155E-01;  6.2867378E+03;3; -4.1276649E+01;  0.0000000E+00;  3.6217419E+01;0;  7.3273724E-01;  9.9922031E+03;  0.0000000E+00;  3.9782282E-04;  1.0000000E+04;  0.0000000E+00;  9.9832197E+03;  3.4020901E-01;  0.0000000E+00;  3.9252824E-01;  7.7791309E+03;
  6.9993615E-01;  9.9999998E-03;  2.6010862E-01;2142; -6.4217493E-02;  0.0000000E+00;  8.0197819E-02;  1.0073779E+03;  4.0353170E-01;  6.1120405E+03;3; -4.3712601E+01;  0.0000000E+00;  2.3581194E+01;0;  8.0646193E-01;  9.9918486E+03;  0.0000000E+00;  7.0157839E-04;  1.0000000E+04;  0.0000000E+00;  9.9793779E+03;  3.5832322E-01;  0.0000000E+00;  4.4813871E-01;  9.6240811E+03;
  6.9993430E-01;  9.9999998E-03;  2.8012598E-01;2143; -6.7498423E-02;  0.0000000E+00;  7.1804933E-02;  1.0072153E+03;  4.0353203E-01;  5.9772397E+03;3; -5.1101059E+01;  0.0000000E+00;  9.7798119E+00;0;  7.3581827E-01;  9.9914775E+03;  0.0000000E+00;  7.1563059E-04;  1.0000000E+04;  0.0000000E+00;  9.9765000E+03;  3.7671363E-01;  0.0000000E+00;  3.5910460E-01;  1.1192585E+04;
  6.9993365E-01;  9.9999998E-03;  3.0012935E-01;2144; -6.7240879E-02;  0.0000000E+00;  6.5056272E-02;  1.0073412E+03;  4.0353212E-01;  6.0815249E+03;3; -5.4102264E+01;  0.0000000E+00;  1.3688777E+01;0;  5.7213283E-01;  9.9911299E+03;  0.0000000E+00;  3.3810915E-04;  1.0000000E+04;  0.0000000E+00;  9.9793408E+03;  3.9371625E-01;  0.0000000E+00;  1.7841657E-01;  1.0003121E+04;
  7.1995860E-01;  9.9999998E-03;  1.6002582E-01;2168; -4.2212326E-02;  0.0000000E+00;  3.4417354E-02;  1.0084100E+03;  4.0370893E-01;  6.9667710E+03;3; -2.8649487E+01;  0.0000000E+00;  2.9270231E+01;0;  7.1649158E-01;  9.9911406E+03;  0.0000000E+00; -3.7862394E-06;  1.0000000E+04;  0.0000000E+00;  9.9917656E+03;  3.8358197E-01;  0.0000000E+00;  3.3290964E-01;  3.5836279E+03;
  7.1995693E-01;  9.9999998E-03;  1.8003225E-01;2169; -4.4342767E-02;  0.0000000E+00;  4.1386351E-02;  1.0082707E+03;  4.0370911E-01;  6.8514282E+03;3; -3.0339882E+01;  0.0000000E+00;  3.3254623E+01;0;  7.6783508E-01;  9.9908750E+03;  0.0000000E+00; -6.3528501E-06;  1.0000000E+04;  0.0000000E+00;  9.9892578E+03;  3.9796972E-01;  0.0000000E+00;  3.6986536E-01;  4.7841333E+03;
  7.1995515E-01;  9.9999998E-03;  2.0004189E-01;2170; -4.6607818E-02;  0.0000000E+00;  5.0103836E-02;  1.0081219E+03;  4.0370935E-01;  6.7281855E+03;3; -3.2089436E+01;  0.0000000E+00;  3.6976894E+01;0;  8.0814707E-01;  9.9905723E+03;  0.0000000E+00;  1.0510574E-05;  1.0000000E+04;  0.0000000E+00;  9.9866035E+03;  4.1428545E-01;  0.0000000E+00;  3.9386162E-01;  6.0757671E+03;
  7.1995342E-01;  9.9999998E-03;  2.2005840E-01;2171; -4.8622839E-02;  0.0000000E+00;  6.2493108E-02;  1.0079828E+03;  4.0370953E-01;  6.6129414E+03;3; -3.3702427E+01;  0.0000000E+00;  4.0505226E+01;0;  8.3590108E-01;  9.9902432E+03;  0.0000000E+00;  8.0954582E-05;  1.0000000E+04;  0.0000000E+00;  9.9841631E+03;  4.3175799E-01;  0.0000000E+00;  4.0414310E-01;  7.2806782E+03;
  7.1995223E-01;  9.9999998E-03;  2.4008502E-01;2172; -4.9893618E-02;  0.0000000E+00;  7.8607135E-02;  1.0078400E+03;  4.0370971E-01;  6.4945376E+03;3; -3.5039776E+01;  0.0000000E+00;  4.1939770E+01;0;  8.7506938E-01;  9.9899053E+03;  0.0000000E+00;  2.2793085E-04;  1.0000000E+04;  0.0000000E+00;  9.9816631E+03;  4.4970772E-01;  0.0000000E+00;  4.2536169E-01;  8.4974756E+03;
  7.1995187E-01;  9.9999998E-03;  2.6011723E-01;2173; -4.9909990E-02;  0.0000000E+00;  8.7132484E-02;  1.0076290E+03;  4.0371010E-01;  6.3198452E+03;3; -3.5633488E+01;  0.0000000E+00;  2.6536537E+01;0;  9.4150960E-01;  9.9895576E+03;  0.0000000E+00;  4.0700953E-04;  1.0000000E+04;  0.0000000E+00;  9.9778174E+03;  4.6775916E-01;  0.0000000E+00;  4.7375047E-01;  1.0354743E+04;
  7.1995217E-01;  9.9999998E-03;  2.8013477E-01;2174; -4.9246494E-02;  0.0000000E+00;  7.6637566E-02;  1.0074896E+03;  4.0371048E-01;  6.2043052E+03;3; -3.7110268E+01;  0.0000000E+00;  1.0496676E+01;0;  8.3736134E-01;  9.9892139E+03;  0.0000000E+00;  4.5676326E-04;  1.0000000E+04;  0.0000000E+00;  9.9753740E+03;  4.8534721E-01;  0.0000000E+00;  3.5201415E-01;  1.1754473E+04;
  7.1995324E-01;  9.9999998E-03;  3.0013865E-01;2175; -4.7420308E-02;  0.0000000E+00;  6.9871373E-02;  1.0076432E+03;  4.0371037E-01;  6.3315967E+03;3; -3.8143147E+01;  0.0000000E+00;  1.5206750E+01;0;  6.5788233E-01;  9.9888965E+03;  0.0000000E+00;  2.3224049E-04;  1.0000000E+04;  0.0000000E+00;  9.9787354E+03;  5.0112653E-01;  0.0000000E+00;  1.5675578E-01;  1.0323695E+04;
  7.3997432E-01;  9.9999998E-03;  1.6002759E-01;2199; -2.6515061E-02;  0.0000000E+00;  3.6769241E-02;  1.0085034E+03;  4.0377909E-01;  7.0438335E+03;3; -1.8373690E+01;  0.0000000E+00;  3.1246408E+01;0;  7.9555011E-01;  9.9900908E+03;  0.0000000E+00;  9.6983674E-09;  1.0000000E+04;  0.0000000E+00;  9.9911885E+03;  4.3838894E-01;  0.0000000E+00;  3.5716119E-01;  3.8297014E+03;
  7.3997319E-01;  9.9999998E-03;  1.8003434E-01;2200; -2.7988706E-02;  0.0000000E+00;  4.4061270E-02;  1.0083549E+03;  4.0377924E-01;  6.9208916E+03;3; -1.9527061E+01;  0.0000000E+00;  3.5355282E+01;0;  8.5001147E-01;  9.9897959E+03;  0.0000000E+00; -9.2165760E-07;  1.0000000E+04;  0.0000000E+00;  9.9885283E+03;  4.5472732E-01;  0.0000000E+00;  3.9528415E-01;  5.1032803E+03;
  7.3997194E-01;  9.9999998E-03;  2.0004430E-01;2201; -2.9519469E-02;  0.0000000E+00;  5.2995700E-02;  1.0081979E+03;  4.0377951E-01;  6.7908394E+03;3; -2.0672037E+01;  0.0000000E+00;  3.9025517E+01;0;  8.9099789E-01;  9.9894766E+03;  0.0000000E+00;  5.4687594E-06;  1.0000000E+04;  0.0000000E+00;  9.9857295E+03;  4.7226706E-01;  0.0000000E+00;  4.1873083E-01;  6.4686240E+03;
  7.3997080E-01;  9.9999998E-03;  2.2006117E-01;2202; -3.0853311E-02;  0.0000000E+00;  6.5429240E-02;  1.0080540E+03;  4.0377972E-01;  6.6716499E+03;3; -2.1688015E+01;  0.0000000E+00;  4.2224373E+01;0;  9.1554368E-01;  9.9891484E+03;  0.0000000E+00;  3.4521916E-05;  1.0000000E+04;  0.0000000E+00;  9.9831973E+03;  4.8990905E-01;  0.0000000E+00;  4.2563465E-01;  7.7245010E+03;
  7.3996997E-01;  9.9999998E-03;  2.4008819E-01;2203; -3.1657916E-02;  0.0000000E+00;  8.1320308E-02;  1.0079143E+03;  4.0377998E-01;  6.5559165E+03;3; -2.2459631E+01;  0.0000000E+00;  4.2989407E+01;0;  9.4518030E-01;  9.9888320E+03;  0.0000000E+00;  9.9965764E-05;  1.0000000E+04;  0.0000000E+00;  9.9807344E+03;  5.0678355E-01;  0.0000000E+00;  4.3839672E-01;  8.9351025E+03;
  7.3996979E-01;  9.9999998E-03;  2.6012096E-01;2204; -3.1522997E-02;  0.0000000E+00;  8.9472681E-02;  1.0077180E+03;  4.0378037E-01;  6.3932778E+03;3; -2.2569563E+01;  0.0000000E+00;  2.6577909E+01;0;  9.9328876E-01;  9.9885313E+03;  0.0000000E+00;  1.8632326E-04;  1.0000000E+04;  0.0000000E+00;  9.9771318E+03;  5.2248734E-01;  0.0000000E+00;  4.7080138E-01;  1.0694033E+04;
  7.3997015E-01;  9.9999998E-03;  2.8013921E-01;2205; -3.0764503E-02;  0.0000000E+00;  7.8990333E-02;  1.0076024E+03;  4.0378061E-01;  6.2975903E+03;3; -2.3093273E+01;  0.0000000E+00;  1.0887298E+01;0;  8.6676300E-01;  9.9882568E+03;  0.0000000E+00;  2.1267154E-04;  1.0000000E+04;  0.0000000E+00;  9.9751074E+03;  5.3675270E-01;  0.0000000E+00;  3.3001027E-01;  1.1911323E+04;
  7.3997104E-01;  9.9999998E-03;  3.0014396E-01;2206; -2.9391894E-02;  0.0000000E+00;  7.2826780E-02;  1.0077763E+03;  4.0378052E-01;  6.4415659E+03;3; -2.3580444E+01;  0.0000000E+00;  1.6511000E+01;0;  6.7998475E-01;  9.9880098E+03;  0.0000000E+00;  7.3621261E-05;  1.0000000E+04;  0.0000000E+00;  9.9787939E+03;  5.4914957E-01;  0.0000000E+00;  1.3083519E-01;  1.0322252E+04;
  7.5998658E-01;  9.9999998E-03;  1.6002876E-01;2230; -1.4181297E-02;  0.0000000E+00;  3.8286056E-02;  1.0085510E+03;  4.0380555E-01;  7.0829795E+03;3; -1.0199978E+01;  0.0000000E+00;  3.2478458E+01;0;  8.1911433E-01;  9.9900830E+03;  0.0000000E+00;  9.0539777E-07;  1.0000000E+04;  0.0000000E+00;  9.9908301E+03;  4.4695348E-01;  0.0000000E+00;  3.7216085E-01;  3.9824355E+03;
  7.5998592E-01;  9.9999998E-03;  1.8003567E-01;2231; -1.5040466E-02;  0.0000000E+00;  4.5709893E-02;  1.0083981E+03;  4.0380573E-01;  6.9563901E+03;3; -1.0845528E+01;  0.0000000E+00;  3.6581993E+01;0;  8.7425500E-01;  9.9897822E+03;  0.0000000E+00;  6.5979532E-07;  1.0000000E+04;  0.0000000E+00;  9.9880889E+03;  4.6385080E-01;  0.0000000E+00;  4.1040421E-01;  5.2961353E+03;
  7.5998521E-01;  9.9999998E-03;  2.0004573E-01;2232; -1.5890868E-02;  0.0000000E+00;  5.4653432E-02;  1.0082374E+03;  4.0380609E-01;  6.8231851E+03;3; -1.1439174E+01;  0.0000000E+00;  4.0100304E+01;0;  9.1420007E-01;  9.9894668E+03;  0.0000000E+00;  1.9309939E-06;  1.0000000E+04;  0.0000000E+00;  9.9852090E+03;  4.8124570E-01;  0.0000000E+00;  4.3295434E-01;  6.7028086E+03;
  7.5998455E-01;  9.9999998E-03;  2.2006264E-01;2233; -1.6584480E-02;  0.0000000E+00;  6.6919260E-02;  1.0080923E+03;  4.0380636E-01;  6.7031128E+03;3; -1.1908588E+01;  0.0000000E+00;  4.2934761E+01;0;  9.3490469E-01;  9.9891621E+03;  0.0000000E+00;  9.2030632E-06;  1.0000000E+04;  0.0000000E+00;  9.9826309E+03;  4.9782535E-01;  0.0000000E+00;  4.3707937E-01;  7.9850098E+03;
  7.5998414E-01;  9.9999998E-03;  2.4008968E-01;2234; -1.6938692E-02;  0.0000000E+00;  8.2448073E-02;  1.0079570E+03;  4.0380654E-01;  6.5909399E+03;3; -1.2193596E+01;  0.0000000E+00;  4.3205307E+01;0;  9.5567977E-01;  9.9888818E+03;  0.0000000E+00;  2.7287919E-05;  1.0000000E+04;  0.0000000E+00;  9.9802217E+03;  5.1257980E-01;  0.0000000E+00;  4.4309995E-01;  9.1782383E+03;
  7.5998414E-01;  9.9999998E-03;  2.6012257E-01;2235; -1.6736163E-02;  0.0000000E+00;  9.0333275E-02;  1.0077747E+03;  4.0380684E-01;  6.4399609E+03;3; -1.2090086E+01;  0.0000000E+00;  2.6346506E+01;0;  9.8837942E-01;  9.9886436E+03;  0.0000000E+00;  5.1628380E-05;  1.0000000E+04;  0.0000000E+00;  9.9768418E+03;  5.2510607E-01;  0.0000000E+00;  4.6327335E-01;  1.0843972E+04;
  7.5998443E-01;  9.9999998E-03;  2.8014135E-01;2236; -1.6169164E-02;  0.0000000E+00;  8.0199480E-02;  1.0076784E+03;  4.0380710E-01;  6.3601763E+03;3; -1.2163365E+01;  0.0000000E+00;  1.1302554E+01;0;  8.4698904E-01;  9.9884385E+03;  0.0000000E+00;  5.1204246E-05;  1.0000000E+04;  0.0000000E+00;  9.9751221E+03;  5.3546780E-01;  0.0000000E+00;  3.1152126E-01;  1.1923337E+04;
  7.5998503E-01;  9.9999998E-03;  3.0014688E-01;2237; -1.5276073E-02;  0.0000000E+00;  7.4737199E-02;  1.0078646E+03;  4.0380701E-01;  6.5144136E+03;3; -1.2250475E+01;  0.0000000E+00;  1.7842224E+01;0;  6.5797579E-01;  9.9882656E+03;  0.0000000E+00; -2.0756603E-05;  1.0000000E+04;  0.0000000E+00;  9.9789834E+03;  5.4401398E-01;  0.0000000E+00;  1.1396181E-01;  1.0244166E+04;
  7.7999562E-01;  9.9999998E-03;  1.6002937E-01;2261; -4.9703135E-03;  0.0000000E+00;  3.9069671E-02;  1.0086001E+03;  4.0381533E-01;  7.1231831E+03;3; -3.9861128E+00;  0.0000000E+00;  3.3080559E+01;0;  8.0285120E-01;  9.9907490E+03;  0.0000000E+00;  5.2915925E-07;  1.0000000E+04;  0.0000000E+00;  9.9906572E+03;  4.2349741E-01;  0.0000000E+00;  3.7935379E-01;  4.0561948E+03;
  7.7999538E-01;  9.9999998E-03;  1.8003632E-01;2262; -5.3063924E-03;  0.0000000E+00;  4.6510350E-02;  1.0084460E+03;  4.0381545E-01;  6.9956147E+03;3; -4.2152038E+00;  0.0000000E+00;  3.7125320E+01;0;  8.5710847E-01;  9.9904580E+03;  0.0000000E+00;  4.9415314E-07;  1.0000000E+04;  0.0000000E+00;  9.9878877E+03;  4.3992290E-01;  0.0000000E+00;  4.1718554E-01;  5.3849336E+03;
  7.7999508E-01;  9.9999998E-03;  2.0004639E-01;2263; -5.5995160E-03;  0.0000000E+00;  5.5380147E-02;  1.0082847E+03;  4.0381578E-01;  6.8619248E+03;3; -4.3826919E+00;  0.0000000E+00;  4.0495411E+01;0;  8.9526904E-01;  9.9901631E+03;  0.0000000E+00;  3.9224608E-07;  1.0000000E+04;  0.0000000E+00;  9.9849727E+03;  4.5630676E-01;  0.0000000E+00;  4.3896231E-01;  6.8084165E+03;
  7.7999490E-01;  9.9999998E-03;  2.2006324E-01;2264; -5.7881442E-03;  0.0000000E+00;  6.7463942E-02;  1.0081401E+03;  4.0381598E-01;  6.7421567E+03;3; -4.4575882E+00;  0.0000000E+00;  4.3077763E+01;0;  9.1271210E-01;  9.9898857E+03;  0.0000000E+00;  5.5518802E-07;  1.0000000E+04;  0.0000000E+00;  9.9823760E+03;  4.7125578E-01;  0.0000000E+00;  4.4145635E-01;  8.1008154E+03;
  7.7999485E-01;  9.9999998E-03;  2.4009018E-01;2265; -5.8124224E-03;  0.0000000E+00;  8.2717359E-02;  1.0080087E+03;  4.0381622E-01;  6.6333486E+03;3; -4.4257207E+00;  0.0000000E+00;  4.3033127E+01;0;  9.2741591E-01;  9.9896494E+03;  0.0000000E+00;  1.2860583E-06;  1.0000000E+04;  0.0000000E+00;  9.9800020E+03;  4.8372129E-01;  0.0000000E+00;  4.4369462E-01;  9.2802998E+03;
  7.7999490E-01;  9.9999998E-03;  2.6012310E-01;2266; -5.5925604E-03;  0.0000000E+00;  9.0569824E-02;  1.0078356E+03;  4.0381655E-01;  6.4899824E+03;3; -4.2037134E+00;  0.0000000E+00;  2.6247204E+01;0;  9.5089328E-01;  9.9894580E+03;  0.0000000E+00;  1.1992124E-06;  1.0000000E+04;  0.0000000E+00;  9.9767520E+03;  4.9333405E-01;  0.0000000E+00;  4.5755926E-01;  1.0889684E+04;
  7.7999508E-01;  9.9999998E-03;  2.8014228E-01;2267; -5.2676923E-03;  0.0000000E+00;  8.0834769E-02;  1.0077496E+03;  4.0381688E-01;  6.4186943E+03;3; -4.0860233E+00;  0.0000000E+00;  1.1731505E+01;0;  8.0249780E-01;  9.9893154E+03;  0.0000000E+00; -6.2768972E-06;  1.0000000E+04;  0.0000000E+00;  9.9751807E+03;  5.0037283E-01;  0.0000000E+00;  3.0212498E-01;  1.1899337E+04;
  7.7999538E-01;  9.9999998E-03;  3.0014831E-01;2268; -4.8280838E-03;  0.0000000E+00;  7.5898215E-02;  1.0079415E+03;  4.0381667E-01;  6.5776611E+03;3; -3.9790783E+00;  0.0000000E+00;  1.8922998E+01;0;  6.1329436E-01;  9.9892061E+03;  0.0000000E+00; -3.0504758E-05;  1.0000000E+04;  0.0000000E+00;  9.9790918E+03;  5.0559753E-01;  0.0000000E+00;  1.0769682E-01;  1.0190894E+04;
  8.0000281E-01;  9.9999998E-03;  1.6002952E-01;2292;  2.3947665E-03;  0.0000000E+00;  3.9230205E-02;  1.0086512E+03;  4.0381777E-01;  7.1647915E+03;3;  1.0901488E+00;  0.0000000E+00;  3.3164925E+01;0;  7.6646256E-01;  9.9916670E+03;  0.0000000E+00;  1.3123231E-08;  1.0000000E+04;  0.0000000E+00;  9.9906309E+03;  3.8604146E-01;  0.0000000E+00;  3.8042107E-01;  4.0658567E+03;
  8.0000287E-01;  9.9999998E-03;  1.8003644E-01;2293;  2.5034547E-03;  0.0000000E+00;  4.6620928E-02;  1.0084984E+03;  4.0381798E-01;  7.0383208E+03;3;  1.2048028E+00;  0.0000000E+00;  3.7139385E+01;0;  8.1912267E-01;  9.9913965E+03;  0.0000000E+00; -3.0396453E-08;  1.0000000E+04;  0.0000000E+00;  9.9878623E+03;  4.0145290E-01;  0.0000000E+00;  4.1766980E-01;  5.3914131E+03;
  8.0000299E-01;  9.9999998E-03;  2.0004643E-01;2294;  2.6670441E-03;  0.0000000E+00;  5.5396624E-02;  1.0083383E+03;  4.0381828E-01;  6.9056304E+03;3;  1.3707571E+00;  0.0000000E+00;  4.0409527E+01;0;  8.5549927E-01;  9.9911230E+03;  0.0000000E+00; -1.4405544E-08;  1.0000000E+04;  0.0000000E+00;  9.9849502E+03;  4.1650665E-01;  0.0000000E+00;  4.3899259E-01;  6.8134541E+03;
  8.0000311E-01;  9.9999998E-03;  2.2006319E-01;2295;  2.8749846E-03;  0.0000000E+00;  6.7356758E-02;  1.0081952E+03;  4.0381855E-01;  6.7871567E+03;3;  1.5847168E+00;  0.0000000E+00;  4.2887356E+01;0;  8.7083691E-01;  9.9908760E+03;  0.0000000E+00;  1.1279425E-07;  1.0000000E+04;  0.0000000E+00;  9.9823545E+03;  4.2982200E-01;  0.0000000E+00;  4.4101492E-01;  8.1045425E+03;
  8.0000329E-01;  9.9999998E-03;  2.4009004E-01;2296;  3.0916783E-03;  0.0000000E+00;  8.2511149E-02;  1.0080662E+03;  4.0381873E-01;  6.6803330E+03;3;  1.8282967E+00;  0.0000000E+00;  4.2803734E+01;0;  8.8271248E-01;  9.9906719E+03;  0.0000000E+00; -2.1315194E-09;  1.0000000E+04;  0.0000000E+00;  9.9799951E+03;  4.4039348E-01;  0.0000000E+00;  4.4231901E-01;  9.2769902E+03;
  8.0000341E-01;  9.9999998E-03;  2.6012298E-01;2297;  3.2799391E-03;  0.0000000E+00;  9.0527043E-02;  1.0078966E+03;  4.0381905E-01;  6.5399419E+03;3;  2.0982575E+00;  0.0000000E+00;  2.6413277E+01;0;  9.0332997E-01;  9.9905186E+03;  0.0000000E+00; -1.3637485E-06;  1.0000000E+04;  0.0000000E+00;  9.9767764E+03;  4.4790179E-01;  0.0000000E+00;  4.5542821E-01;  1.0868988E+04;
  8.0000353E-01;  9.9999998E-03;  2.8014243E-01;2298;  3.3783405E-03;  0.0000000E+00;  8.1153117E-02;  1.0078126E+03;  4.0381935E-01;  6.4703384E+03;3;  2.3070030E+00;  0.0000000E+00;  1.2146561E+01;0;  7.5506508E-01;  9.9904160E+03;  0.0000000E+00; -4.6341243E-06;  1.0000000E+04;  0.0000000E+00;  9.9752080E+03;  4.5270944E-01;  0.0000000E+00;  3.0235565E-01;  1.1873783E+04;
  8.0000359E-01;  9.9999998E-03;  3.0014870E-01;2299;  3.4127287E-03;  0.0000000E+00;  7.6454744E-02;  1.0080046E+03;  4.0381914E-01;  6.6293892E+03;3;  2.5076263E+00;  0.0000000E+00;  1.9575609E+01;0;  5.6653368E-01;  9.9903486E+03;  0.0000000E+00; -7.9985357E-06;  1.0000000E+04;  0.0000000E+00;  9.9790791E+03;  4.5566025E-01;  0.0000000E+00;  1.1087340E-01;  1.0182745E+04;
  8.2000935E-01;  9.9999998E-03;  1.6002925E-01;2323;  9.2159919E-03;  0.0000000E+00;  3.8856797E-02;  1.0086906E+03;  4.0381366E-01;  7.1965879E+03;3;  5.8468099E+00;  0.0000000E+00;  3.2817417E+01;0;  7.2390819E-01;  9.9925615E+03;  0.0000000E+00; -2.7949048E-07;  1.0000000E+04;  0.0000000E+00;  9.9907227E+03;  3.4726822E-01;  0.0000000E+00;  3.7663996E-01;  4.0218215E+03;
  8.2000977E-01;  9.9999998E-03;  1.8003610E-01;2324;  9.7192479E-03;  0.0000000E+00;  4.6150308E-02;  1.0085405E+03;  4.0381387E-01;  7.0723042E+03;3;  6.2644591E+00;  0.0000000E+00;  3.6723705E+01;0;  7.7481854E-01;  9.9923105E+03;  0.0000000E+00; -4.7384265E-07;  1.0000000E+04;  0.0000000E+00;  9.9879863E+03;  3.6154962E-01;  0.0000000E+00;  4.1326892E-01;  5.3299302E+03;
  8.2001019E-01;  9.9999998E-03;  2.0004600E-01;2325;  1.0283003E-02;  0.0000000E+00;  5.4829303E-02;  1.0083828E+03;  4.0381414E-01;  6.9417031E+03;3;  6.7212758E+00;  0.0000000E+00;  3.9947155E+01;0;  8.0979544E-01;  9.9920605E+03;  0.0000000E+00;  1.1266111E-07;  1.0000000E+04;  0.0000000E+00;  9.9851006E+03;  3.7537032E-01;  0.0000000E+00;  4.3442512E-01;  6.7356899E+03;
  8.2001066E-01;  9.9999998E-03;  2.2006266E-01;2326;  1.0831817E-02;  0.0000000E+00;  6.6733360E-02;  1.0082419E+03;  4.0381435E-01;  6.8250210E+03;3;  7.1841655E+00;  0.0000000E+00;  4.2450043E+01;0;  8.2427943E-01;  9.9918340E+03;  0.0000000E+00;  3.0798806E-06;  1.0000000E+04;  0.0000000E+00;  9.9825205E+03;  3.8740498E-01;  0.0000000E+00;  4.3687442E-01;  8.0156216E+03;
  8.2001102E-01;  9.9999998E-03;  2.4008943E-01;2327;  1.1251914E-02;  0.0000000E+00;  8.1950031E-02;  1.0081136E+03;  4.0381464E-01;  6.7188027E+03;3;  7.6122184E+00;  0.0000000E+00;  4.2543591E+01;0;  8.3624816E-01;  9.9916523E+03;  0.0000000E+00;  9.4385787E-06;  1.0000000E+04;  0.0000000E+00;  9.9801592E+03;  3.9672476E-01;  0.0000000E+00;  4.3952340E-01;  9.1868398E+03;
  8.2001120E-01;  9.9999998E-03;  2.6012242E-01;2328;  1.1378706E-02;  0.0000000E+00;  9.0244189E-02;  1.0079422E+03;  4.0381488E-01;  6.5768491E+03;3;  7.8750763E+00;  0.0000000E+00;  2.6618172E+01;0;  8.5931492E-01;  9.9915205E+03;  0.0000000E+00;  1.6809407E-05;  1.0000000E+04;  0.0000000E+00;  9.9768867E+03;  4.0306431E-01;  0.0000000E+00;  4.5625058E-01;  1.0796576E+04;
  8.2001120E-01;  9.9999998E-03;  2.8014195E-01;2329;  1.1313259E-02;  0.0000000E+00;  8.1111759E-02;  1.0078533E+03;  4.0381521E-01;  6.5033057E+03;3;  8.2406263E+00;  0.0000000E+00;  1.2429620E+01;0;  7.1604073E-01;  9.9914365E+03;  0.0000000E+00;  1.8057262E-05;  1.0000000E+04;  0.0000000E+00;  9.9751973E+03;  4.0679038E-01;  0.0000000E+00;  3.0925035E-01;  1.1850240E+04;
  8.2001102E-01;  9.9999998E-03;  3.0014822E-01;2330;  1.1000332E-02;  0.0000000E+00;  7.6394744E-02;  1.0080412E+03;  4.0381506E-01;  6.6587832E+03;3;  8.5880013E+00;  0.0000000E+00;  1.9633169E+01;0;  5.2887923E-01;  9.9913887E+03;  0.0000000E+00;  8.9637624E-06;  1.0000000E+04;  0.0000000E+00;  9.9789648E+03;  4.0865421E-01;  0.0000000E+00;  1.2022499E-01;  1.0211104E+04;
  8.4001607E-01;  9.9999998E-03;  1.6002862E-01;2354;  1.6157832E-02;  0.0000000E+00;  3.8012877E-02;  1.0085871E+03;  4.0375203E-01;  7.1097266E+03;3;  1.0682754E+01;  0.0000000E+00;  3.2093674E+01;0;  6.7961645E-01;  9.9933604E+03;  0.0000000E+00; -4.1879969E-07;  1.0000000E+04;  0.0000000E+00;  9.9909189E+03;  3.1091672E-01;  0.0000000E+00;  3.6869976E-01;  3.9294331E+03;
  8.4001672E-01;  9.9999998E-03;  1.8003532E-01;2355;  1.7027128E-02;  0.0000000E+00;  4.5148674E-02;  1.0084405E+03;  4.0375227E-01;  6.9883257E+03;3;  1.1386457E+01;  0.0000000E+00;  3.5920448E+01;0;  7.2886264E-01;  9.9931279E+03;  0.0000000E+00; -8.3171614E-07;  1.0000000E+04;  0.0000000E+00;  9.9882412E+03;  3.2423890E-01;  0.0000000E+00;  4.0462378E-01;  5.2069468E+03;
  8.4001750E-01;  9.9999998E-03;  2.0004502E-01;2356;  1.7968221E-02;  0.0000000E+00;  5.3658333E-02;  1.0082864E+03;  4.0375248E-01;  6.8607075E+03;3;  1.2127151E+01;  0.0000000E+00;  3.9097836E+01;0;  7.6288104E-01;  9.9928906E+03;  0.0000000E+00;  7.1627443E-07;  1.0000000E+04;  0.0000000E+00;  9.9854092E+03;  3.3716983E-01;  0.0000000E+00;  4.2571124E-01;  6.5821221E+03;
  8.4001821E-01;  9.9999998E-03;  2.2006138E-01;2357;  1.8844338E-02;  0.0000000E+00;  6.5382220E-02;  1.0081481E+03;  4.0375268E-01;  6.7462158E+03;3;  1.2845301E+01;  0.0000000E+00;  4.1621872E+01;0;  7.7731347E-01;  9.9926807E+03;  0.0000000E+00;  8.6894352E-06;  1.0000000E+04;  0.0000000E+00;  9.9828721E+03;  3.4844971E-01;  0.0000000E+00;  4.2886379E-01;  7.8375967E+03;
  8.4001875E-01;  9.9999998E-03;  2.4008775E-01;2358;  1.9470721E-02;  0.0000000E+00;  8.0459096E-02;  1.0080215E+03;  4.0375286E-01;  6.6414956E+03;3;  1.3482076E+01;  0.0000000E+00;  4.1879143E+01;0;  7.9012036E-01;  9.9925088E+03;  0.0000000E+00;  2.6721767E-05;  1.0000000E+04;  0.0000000E+00;  9.9805273E+03;  3.5721171E-01;  0.0000000E+00;  4.3290868E-01;  8.9930342E+03;
  8.4001905E-01;  9.9999998E-03;  2.6012027E-01;2359;  1.9534715E-02;  0.0000000E+00;  8.8867262E-02;  1.0078507E+03;  4.0375325E-01;  6.5000591E+03;3;  1.3637944E+01;  0.0000000E+00;  2.6605484E+01;0;  8.1553161E-01;  9.9923848E+03;  0.0000000E+00;  4.9424059E-05;  1.0000000E+04;  0.0000000E+00;  9.9772598E+03;  3.6322343E-01;  0.0000000E+00;  4.5230818E-01;  1.0592162E+04;
  8.4001899E-01;  9.9999998E-03;  2.8013965E-01;2360;  1.9377502E-02;  0.0000000E+00;  8.0073610E-02;  1.0077590E+03;  4.0375349E-01;  6.4240605E+03;3;  1.4366528E+01;  0.0000000E+00;  1.2589814E+01;0;  6.7871273E-01;  9.9923047E+03;  0.0000000E+00;  5.4792799E-05;  1.0000000E+04;  0.0000000E+00;  9.9755117E+03;  3.6682016E-01;  0.0000000E+00;  3.1189260E-01;  1.1664662E+04;
  8.4001863E-01;  9.9999998E-03;  3.0014586E-01;2361;  1.8781090E-02;  0.0000000E+00;  7.5408638E-02;  1.0079408E+03;  4.0375340E-01;  6.5745771E+03;3;  1.4963132E+01;  0.0000000E+00;  1.9437252E+01;0;  4.9577117E-01;  9.9922578E+03;  0.0000000E+00;  2.2966871E-05;  1.0000000E+04;  0.0000000E+00;  9.9791572E+03;  3.6861300E-01;  0.0000000E+00;  1.2715816E-01;  1.0084463E+04;
  8.6002284E-01;  9.9999998E-03;  1.6002765E-01;2385;  2.3163876E-02;  0.0000000E+00;  3.6739539E-02;  1.0083386E+03;  4.0363064E-01;  6.9023970E+03;3;  1.5539007E+01;  0.0000000E+00;  3.1023832E+01;0;  6.3058656E-01;  9.9941563E+03;  0.0000000E+00; -5.7086402E-07;  1.0000000E+04;  0.0000000E+00;  9.9912119E+03;  2.7370444E-01;  0.0000000E+00;  3.5688213E-01;  3.7912490E+03;
  8.6002380E-01;  9.9999998E-03;  1.8003413E-01;2386;  2.4377460E-02;  0.0000000E+00;  4.3646108E-02;  1.0081969E+03;  4.0363091E-01;  6.7851685E+03;3;  1.6518490E+01;  0.0000000E+00;  3.4744034E+01;0;  6.7825639E-01;  9.9939307E+03;  0.0000000E+00; -1.2310555E-06;  1.0000000E+04;  0.0000000E+00;  9.9886172E+03;  2.8636706E-01;  0.0000000E+00;  3.9188930E-01;  5.0247070E+03;
  8.6002481E-01;  9.9999998E-03;  2.0004351E-01;2387;  2.5683329E-02;  0.0000000E+00;  5.1890038E-02;  1.0080472E+03;  4.0363115E-01;  6.6612290E+03;3;  1.7545742E+01;  0.0000000E+00;  3.7849327E+01;0;  7.1169251E-01;  9.9937012E+03;  0.0000000E+00;  1.8999364E-06;  1.0000000E+04;  0.0000000E+00;  9.9858672E+03;  2.9886210E-01;  0.0000000E+00;  4.1283041E-01;  6.3546382E+03;
  8.6002582E-01;  9.9999998E-03;  2.2005937E-01;2388;  2.6886677E-02;  0.0000000E+00;  6.3270085E-02;  1.0079126E+03;  4.0363133E-01;  6.5498218E+03;3;  1.8536652E+01;  0.0000000E+00;  4.0351727E+01;0;  7.2666454E-01;  9.9934951E+03;  0.0000000E+00;  1.7486225E-05;  1.0000000E+04;  0.0000000E+00;  9.9834004E+03;  3.0998108E-01;  0.0000000E+00;  4.1668350E-01;  7.5712827E+03;
  8.6002660E-01;  9.9999998E-03;  2.4008492E-01;2389;  2.7733911E-02;  0.0000000E+00;  7.7951871E-02;  1.0077890E+03;  4.0363157E-01;  6.4474932E+03;3;  1.9414902E+01;  0.0000000E+00;  4.0711491E+01;0;  7.4052238E-01;  9.9933232E+03;  0.0000000E+00;  5.2979885E-05;  1.0000000E+04;  0.0000000E+00;  9.9811143E+03;  3.1886289E-01;  0.0000000E+00;  4.2165950E-01;  8.6931670E+03;
  8.6002690E-01;  9.9999998E-03;  2.6011652E-01;2390;  2.7701862E-02;  0.0000000E+00;  8.6229600E-02;  1.0076221E+03;  4.0363181E-01;  6.3093447E+03;3;  1.9262035E+01;  0.0000000E+00;  2.6019119E+01;0;  7.6717579E-01;  9.9931924E+03;  0.0000000E+00;  9.8532961E-05;  1.0000000E+04;  0.0000000E+00;  9.9779258E+03;  3.2525057E-01;  0.0000000E+00;  4.4192526E-01;  1.0245997E+04;
  8.6002684E-01;  9.9999998E-03;  2.8013548E-01;2391;  2.7530754E-02;  0.0000000E+00;  7.7936500E-02;  1.0075306E+03;  4.0363210E-01;  6.2335601E+03;3;  2.0686165E+01;  0.0000000E+00;  1.2636445E+01;0;  6.3745505E-01;  9.9931055E+03;  0.0000000E+00;  1.1086980E-04;  1.0000000E+04;  0.0000000E+00;  9.9761865E+03;  3.2941926E-01;  0.0000000E+00;  3.0803579E-01;  1.1299178E+04;
  8.6002630E-01;  9.9999998E-03;  3.0014160E-01;2392;  2.6714951E-02;  0.0000000E+00;  7.3439322E-02;  1.0077048E+03;  4.0363196E-01;  6.3777280E+03;3;  2.1540421E+01;  0.0000000E+00;  1.8988518E+01;0;  4.6179098E-01;  9.9930508E+03;  0.0000000E+00;  4.8551559E-05;  1.0000000E+04;  0.0000000E+00;  9.9796953E+03;  3.3184767E-01;  0.0000000E+00;  1.2994333E-01;  9.7851709E+03;
  8.8002926E-01;  9.9999998E-03;  1.6002640E-01;2416;  2.9777691E-02;  0.0000000E+00;  3.5074059E-02;  1.0079694E+03;  4.0345660E-01;  6.5948081E+03;3;  2.0111345E+01;  0.0000000E+00;  2.9632565E+01;0;  5.7180727E-01;  9.9950693E+03;  0.0000000E+00; -8.9027964E-07;  1.0000000E+04;  0.0000000E+00;  9.9915986E+03;  2.3043016E-01;  0.0000000E+00;  3.4137708E-01;  3.6098149E+03;
  8.8003045E-01;  9.9999998E-03;  1.8003257E-01;2417;  3.1307131E-02;  0.0000000E+00;  4.1673645E-02;  1.0078333E+03;  4.0345681E-01;  6.4822495E+03;3;  2.1348982E+01;  0.0000000E+00;  3.3207867E+01;0;  6.1784202E-01;  9.9948486E+03;  0.0000000E+00; -1.8239147E-06;  1.0000000E+04;  0.0000000E+00;  9.9891152E+03;  2.4269621E-01;  0.0000000E+00;  3.7514579E-01;  4.7855195E+03;
  8.8003176E-01;  9.9999998E-03;  2.0004152E-01;2418;  3.2956082E-02;  0.0000000E+00;  4.9546178E-02;  1.0076892E+03;  4.0345696E-01;  6.3629844E+03;3;  2.2654079E+01;  0.0000000E+00;  3.6200199E+01;0;  6.5094328E-01;  9.9946191E+03;  0.0000000E+00;  3.4055909E-06;  1.0000000E+04;  0.0000000E+00;  9.9864775E+03;  2.5519684E-01;  0.0000000E+00;  3.9574647E-01;  6.0554727E+03;
  8.8003302E-01;  9.9999998E-03;  2.2005662E-01;2419;  3.4476504E-02;  0.0000000E+00;  6.0414754E-02;  1.0075590E+03;  4.0345719E-01;  6.2551621E+03;3;  2.3920364E+01;  0.0000000E+00;  3.8626118E+01;0;  6.6693223E-01;  9.9944014E+03;  0.0000000E+00;  2.8761660E-05;  1.0000000E+04;  0.0000000E+00;  9.9840996E+03;  2.6675543E-01;  0.0000000E+00;  4.0017679E-01;  7.2189258E+03;
  8.8003397E-01;  9.9999998E-03;  2.4008103E-01;2420;  3.5548810E-02;  0.0000000E+00;  7.4457310E-02;  1.0074393E+03;  4.0345740E-01;  6.1562188E+03;3;  2.5052620E+01;  0.0000000E+00;  3.9029797E+01;0;  6.8196952E-01;  9.9942158E+03;  0.0000000E+00;  8.6488413E-05;  1.0000000E+04;  0.0000000E+00;  9.9819092E+03;  2.7643111E-01;  0.0000000E+00;  4.0553838E-01;  8.2897793E+03;
  8.8003439E-01;  9.9999998E-03;  2.6011124E-01;2421;  3.5406113E-02;  0.0000000E+00;  8.2419276E-02;  1.0072791E+03;  4.0345764E-01;  6.0235371E+03;3;  2.4593187E+01;  0.0000000E+00;  2.5069233E+01;0;  7.0864135E-01;  9.9940703E+03;  0.0000000E+00;  1.6151577E-04;  1.0000000E+04;  0.0000000E+00;  9.9788721E+03;  2.8383958E-01;  0.0000000E+00;  4.2480177E-01;  9.7630449E+03;
  8.8003427E-01;  9.9999998E-03;  2.8012952E-01;2422;  3.5247948E-02;  0.0000000E+00;  7.4774779E-02;  1.0071903E+03;  4.0345791E-01;  5.9501431E+03;3;  2.6714432E+01;  0.0000000E+00;  1.2519453E+01;0;  5.8749151E-01;  9.9939600E+03;  0.0000000E+00;  1.8457246E-04;  1.0000000E+04;  0.0000000E+00;  9.9772070E+03;  2.8914028E-01;  0.0000000E+00;  2.9835126E-01;  1.0764119E+04;
  8.8003361E-01;  9.9999998E-03;  3.0013558E-01;2423;  3.4338154E-02;  0.0000000E+00;  7.0616730E-02;  1.0073550E+03;  4.0345776E-01;  6.0863760E+03;3;  2.7921814E+01;  0.0000000E+00;  1.8366961E+01;0;  4.2253518E-01;  9.9938887E+03;  0.0000000E+00;  8.8702131E-05;  1.0000000E+04;  0.0000000E+00;  9.9805420E+03;  2.9268825E-01;  0.0000000E+00;  1.2984695E-01;  9.3300361E+03;
  9.0003479E-01;  9.9999998E-03;  1.6002487E-01;2447;  3.5463393E-02;  0.0000000E+00;  3.3063415E-02;  1.0075049E+03;  4.0323928E-01;  6.2079551E+03;3;  2.4055208E+01;  0.0000000E+00;  2.7953863E+01;0;  5.0155514E-01;  9.9961602E+03;  0.0000000E+00; -1.3527273E-06;  1.0000000E+04;  0.0000000E+00;  9.9920693E+03;  1.7902650E-01;  0.0000000E+00;  3.2252863E-01;  3.3895059E+03;
  9.0003622E-01;  9.9999998E-03;  1.8003069E-01;2448;  3.7271131E-02;  0.0000000E+00;  3.9280362E-02;  1.0073757E+03;  4.0323946E-01;  6.1010640E+03;3;  2.5522758E+01;  0.0000000E+00;  3.1342249E+01;0;  5.4566014E-01;  9.9959404E+03;  0.0000000E+00; -2.6420046E-06;  1.0000000E+04;  0.0000000E+00;  9.9897188E+03;  1.9096646E-01;  0.0000000E+00;  3.5469371E-01;  4.4944819E+03;
  9.0003777E-01;  9.9999998E-03;  2.0003907E-01;2449;  3.9225243E-02;  0.0000000E+00;  4.6680491E-02;  1.0072381E+03;  4.0323964E-01;  5.9872700E+03;3;  2.7077452E+01;  0.0000000E+00;  3.4176876E+01;0;  5.7847524E-01;  9.9957021E+03;  0.0000000E+00;  4.5812540E-06;  1.0000000E+04;  0.0000000E+00;  9.9872207E+03;  2.0376018E-01;  0.0000000E+00;  3.7471509E-01;  5.6906377E+03;
  9.0003926E-01;  9.9999998E-03;  2.2005326E-01;2450;  4.1031763E-02;  0.0000000E+00;  5.6885481E-02;  1.0071127E+03;  4.0323976E-01;  5.8834355E+03;3;  2.8596151E+01;  0.0000000E+00;  3.6473476E+01;0;  5.9584481E-01;  9.9954648E+03;  0.0000000E+00;  3.9889885E-05;  1.0000000E+04;  0.0000000E+00;  9.9849639E+03;  2.1627496E-01;  0.0000000E+00;  3.7956986E-01;  6.7876343E+03;
  9.0004039E-01;  9.9999998E-03;  2.4007617E-01;2451;  4.2314306E-02;  0.0000000E+00;  7.0081763E-02;  1.0069979E+03;  4.0323988E-01;  5.7884766E+03;3;  2.9965813E+01;  0.0000000E+00;  3.6877735E+01;0;  6.1225790E-01;  9.9952490E+03;  0.0000000E+00;  1.2082635E-04;  1.0000000E+04;  0.0000000E+00;  9.9828945E+03;  2.2740535E-01;  0.0000000E+00;  3.8485253E-01;  7.7920576E+03;
  9.0004075E-01;  9.9999998E-03;  2.6010460E-01;2452;  4.1935928E-02;  0.0000000E+00;  7.7542089E-02;  1.0068467E+03;  4.0324020E-01;  5.6635405E+03;3;  2.8955511E+01;  0.0000000E+00;  2.3690207E+01;0;  6.3803923E-01;  9.9950732E+03;  0.0000000E+00;  2.2778851E-04;  1.0000000E+04;  0.0000000E+00;  9.9800664E+03;  2.3650053E-01;  0.0000000E+00;  4.0153873E-01;  9.1577246E+03;
  9.0004069E-01;  9.9999998E-03;  2.8012207E-01;2453;  4.1935872E-02;  0.0000000E+00;  7.0765235E-02;  1.0067621E+03;  4.0324038E-01;  5.5934302E+03;3;  3.2012058E+01;  0.0000000E+00;  1.2304195E+01;0;  5.2765357E-01;  9.9949346E+03;  0.0000000E+00;  2.6364418E-04;  1.0000000E+04;  0.0000000E+00;  9.9785127E+03;  2.4349716E-01;  0.0000000E+00;  2.8415644E-01;  1.0083795E+04;
  9.0004003E-01;  9.9999998E-03;  3.0012807E-01;2454;  4.1069523E-02;  0.0000000E+00;  6.7169413E-02;  1.0069144E+03;  4.0324029E-01;  5.7194512E+03;3;  3.3725094E+01;  0.0000000E+00;  1.7984709E+01;0;  3.7655932E-01;  9.9948311E+03;  0.0000000E+00;  1.3456348E-04;  1.0000000E+04;  0.0000000E+00;  9.9816367E+03;  2.4862066E-01;  0.0000000E+00;  1.2793866E-01;  8.7461572E+03;
  9.2003834E-01;  9.9999998E-03;  1.6002317E-01;2478;  3.9016221E-02;  0.0000000E+00;  3.0787345E-02;  1.0069694E+03;  4.0298977E-01;  5.7618555E+03;3;  2.6433163E+01;  0.0000000E+00;  2.6035648E+01;0;  4.2359033E-01;  9.9973662E+03;  0.0000000E+00; -1.7671870E-06;  1.0000000E+04;  0.0000000E+00;  9.9926074E+03;  1.2265501E-01;  0.0000000E+00;  3.0093533E-01;  3.1371809E+03;
  9.2004013E-01;  9.9999998E-03;  1.8002854E-01;2479;  4.1271936E-02;  0.0000000E+00;  3.6561586E-02;  1.0068483E+03;  4.0298989E-01;  5.6616255E+03;3;  2.8274000E+01;  0.0000000E+00;  2.9208662E+01;0;  4.6523499E-01;  9.9971504E+03;  0.0000000E+00; -3.4437357E-06;  1.0000000E+04;  0.0000000E+00;  9.9904141E+03;  1.3407226E-01;  0.0000000E+00;  3.3116272E-01;  4.1604238E+03;
  9.2004210E-01;  9.9999998E-03;  2.0003629E-01;2480;  4.3743357E-02;  0.0000000E+00;  4.3394890E-02;  1.0067180E+03;  4.0299007E-01;  5.5539058E+03;3;  3.0249208E+01;  0.0000000E+00;  3.1844517E+01;0;  4.9754745E-01;  9.9969014E+03;  0.0000000E+00;  4.9641922E-06;  1.0000000E+04;  0.0000000E+00;  9.9880713E+03;  1.4716889E-01;  0.0000000E+00;  3.5037854E-01;  5.2709858E+03;
  9.2004395E-01;  9.9999998E-03;  2.2004937E-01;2481;  4.6035100E-02;  0.0000000E+00;  5.2805092E-02;  1.0065984E+03;  4.0299019E-01;  5.4551548E+03;3;  3.2200378E+01;  0.0000000E+00;  3.3963402E+01;0;  5.1645541E-01;  9.9966338E+03;  0.0000000E+00;  4.7591624E-05;  1.0000000E+04;  0.0000000E+00;  9.9859551E+03;  1.6093725E-01;  0.0000000E+00;  3.5551813E-01;  6.2902627E+03;
  9.2004526E-01;  9.9999998E-03;  2.4007055E-01;2482;  4.7501504E-02;  0.0000000E+00;  6.4947464E-02;  1.0064888E+03;  4.0299040E-01;  5.3644844E+03;3;  3.3634090E+01;  0.0000000E+00;  3.4136696E+01;0;  5.3442198E-01;  9.9963789E+03;  0.0000000E+00;  1.4711573E-04;  1.0000000E+04;  0.0000000E+00;  9.9840332E+03;  1.7408232E-01;  0.0000000E+00;  3.6033967E-01;  7.2160581E+03;
  9.2004561E-01;  9.9999998E-03;  2.6009691E-01;2483;  4.6847310E-02;  0.0000000E+00;  7.1826756E-02;  1.0063479E+03;  4.0299055E-01;  5.2479937E+03;3;  3.2284962E+01;  0.0000000E+00;  2.2028549E+01;0;  5.5892992E-01;  9.9961514E+03;  0.0000000E+00;  2.8230771E-04;  1.0000000E+04;  0.0000000E+00;  9.9814590E+03;  1.8554454E-01;  0.0000000E+00;  3.7338537E-01;  8.4534189E+03;
  9.2004538E-01;  9.9999998E-03;  2.8011343E-01;2484;  4.6910830E-02;  0.0000000E+00;  6.6101305E-02;  1.0062686E+03;  4.0299073E-01;  5.1824556E+03;3;  3.6245869E+01;  0.0000000E+00;  1.2160145E+01;0;  4.6094561E-01;  9.9959668E+03;  0.0000000E+00;  3.3491178E-04;  1.0000000E+04;  0.0000000E+00;  9.9800576E+03;  1.9487470E-01;  0.0000000E+00;  2.6607090E-01;  9.2828594E+03;
  9.2004502E-01;  9.9999998E-03;  3.0011943E-01;2485;  4.6390343E-02;  0.0000000E+00;  6.3159361E-02;  1.0064053E+03;  4.0299067E-01;  5.2954966E+03;3;  3.8364628E+01;  0.0000000E+00;  1.7404497E+01;0;  3.2682905E-01;  9.9958223E+03;  0.0000000E+00;  1.7333039E-04;  1.0000000E+04;  0.0000000E+00;  9.9829141E+03;  2.0210040E-01;  0.0000000E+00;  1.2472864E-01;  8.0668818E+03;
  9.4003922E-01;  9.9999998E-03;  1.6002138E-01;2509;  3.9737560E-02;  0.0000000E+00;  2.8358132E-02;  1.0063843E+03;  4.0272009E-01;  5.2742642E+03;3;  2.6823112E+01;  0.0000000E+00;  2.3951565E+01;0;  3.4548336E-01;  9.9985498E+03;  0.0000000E+00; -1.7899803E-06;  1.0000000E+04;  0.0000000E+00;  9.9931943E+03;  6.8059549E-02;  0.0000000E+00;  2.7742383E-01;  2.8620571E+03;
  9.4004124E-01;  9.9999998E-03;  1.8002631E-01;2510;  4.2252321E-02;  0.0000000E+00;  3.3664130E-02;  1.0062723E+03;  4.0272021E-01;  5.1816914E+03;3;  2.8795000E+01;  0.0000000E+00;  2.6896568E+01;0;  3.8412502E-01;  9.9983428E+03;  0.0000000E+00; -3.5986709E-06;  1.0000000E+04;  0.0000000E+00;  9.9911709E+03;  7.8648262E-02;  0.0000000E+00;  3.0547675E-01;  3.7956172E+03;
  9.4004369E-01;  9.9999998E-03;  2.0003331E-01;2511;  4.5243923E-02;  0.0000000E+00;  3.9858602E-02;  1.0061503E+03;  4.0272036E-01;  5.0809443E+03;3;  3.1100281E+01;  0.0000000E+00;  2.9318352E+01;0;  4.1557574E-01;  9.9980830E+03;  0.0000000E+00;  4.7134808E-06;  1.0000000E+04;  0.0000000E+00;  9.9890020E+03;  9.1846853E-02;  0.0000000E+00;  3.2372889E-01;  4.8118374E+03;
  9.4004637E-01;  9.9999998E-03;  2.2004515E-01;2512;  4.8430748E-02;  0.0000000E+00;  4.8358627E-02;  1.0060369E+03;  4.0272051E-01;  4.9871895E+03;3;  3.3740440E+01;  0.0000000E+00;  3.1220247E+01;0;  4.3592572E-01;  9.9977842E+03;  0.0000000E+00;  4.9854465E-05;  1.0000000E+04;  0.0000000E+00;  9.9870420E+03;  1.0687406E-01;  0.0000000E+00;  3.2905167E-01;  5.7446572E+03;
  9.4004840E-01;  9.9999998E-03;  2.4006441E-01;2513;  5.0847977E-02;  0.0000000E+00;  5.9344802E-02;  1.0059331E+03;  4.0272057E-01;  4.9014121E+03;3;  3.6050121E+01;  0.0000000E+00;  3.1228432E+01;0;  4.5550093E-01;  9.9974736E+03;  0.0000000E+00;  1.5779570E-04;  1.0000000E+04;  0.0000000E+00;  9.9852832E+03;  1.2232614E-01;  0.0000000E+00;  3.3317479E-01;  6.5822720E+03;
  9.4004881E-01;  9.9999998E-03;  2.6008856E-01;2514;  5.0189752E-02;  0.0000000E+00;  6.5774031E-02;  1.0058026E+03;  4.0272078E-01;  4.7936733E+03;3;  3.4855980E+01;  0.0000000E+00;  2.0577616E+01;0;  4.8009166E-01;  9.9971826E+03;  0.0000000E+00;  3.2260641E-04;  1.0000000E+04;  0.0000000E+00;  9.9829775E+03;  1.3670295E-01;  0.0000000E+00;  3.4338871E-01;  7.6800649E+03;
  9.4004846E-01;  9.9999998E-03;  2.8010404E-01;2515;  5.0269105E-02;  0.0000000E+00;  6.1065160E-02;  1.0057279E+03;  4.0272096E-01;  4.7319258E+03;3;  3.8998791E+01;  0.0000000E+00;  1.1798161E+01;0;  3.9612782E-01;  9.9969336E+03;  0.0000000E+00;  4.2359662E-04;  1.0000000E+04;  0.0000000E+00;  9.9817344E+03;  1.4899898E-01;  0.0000000E+00;  2.4712886E-01;  8.4103262E+03;
  9.4004828E-01;  9.9999998E-03;  3.0011007E-01;2516;  4.9982734E-02;  0.0000000E+00;  5.8750734E-02;  1.0058473E+03;  4.0272084E-01;  4.8306040E+03;3;  4.1541634E+01;  0.0000000E+00;  1.6588024E+01;0;  2.7970904E-01;  9.9967295E+03;  0.0000000E+00;  1.9604649E-04;  1.0000000E+04;  0.0000000E+00;  9.9843066E+03;  1.5890737E-01;  0.0000000E+00;  1.2080167E-01;  7.3245581E+03;
  9.6003884E-01;  9.9999998E-03;  1.6001955E-01;2540;  3.9380018E-02;  0.0000000E+00;  2.5853563E-02;  1.0057712E+03;  4.0244195E-01;  4.7630469E+03;3;  2.6634380E+01;  0.0000000E+00;  2.1809057E+01;0;  2.7466619E-01;  9.9995703E+03;  0.0000000E+00; -1.2358820E-06;  1.0000000E+04;  0.0000000E+00;  9.9937979E+03;  2.1691129E-02;  0.0000000E+00;  2.5297508E-01;  2.5751655E+03;
  9.6004099E-01;  9.9999998E-03;  1.8002400E-01;2541;  4.1958343E-02;  0.0000000E+00;  3.0660303E-02;  1.0056686E+03;  4.0244213E-01;  4.6782393E+03;3;  2.8630421E+01;  0.0000000E+00;  2.4495138E+01;0;  3.1010467E-01;  9.9993740E+03;  0.0000000E+00; -2.7800297E-06;  1.0000000E+04;  0.0000000E+00;  9.9919502E+03;  3.1351723E-02;  0.0000000E+00;  2.7875295E-01;  3.4147942E+03;
  9.6004361E-01;  9.9999998E-03;  2.0003022E-01;2542;  4.5066334E-02;  0.0000000E+00;  3.6192380E-02;  1.0055552E+03;  4.0244225E-01;  4.5847744E+03;3;  3.0951050E+01;  0.0000000E+00;  2.6681744E+01;0;  3.4050122E-01;  9.9991016E+03;  0.0000000E+00;  4.1685689E-06;  1.0000000E+04;  0.0000000E+00;  9.9899678E+03;  4.4542972E-02;  0.0000000E+00;  2.9595825E-01;  4.3313164E+03;
  9.6004665E-01;  9.9999998E-03;  2.2004075E-01;2543;  4.8610922E-02;  0.0000000E+00;  4.3732520E-02;  1.0054484E+03;  4.0244225E-01;  4.4966216E+03;3;  3.3746193E+01;  0.0000000E+00;  2.8364880E+01;0;  3.6212742E-01;  9.9987676E+03;  0.0000000E+00;  8.9444104E-05;  1.0000000E+04;  0.0000000E+00;  9.9881738E+03;  6.0734380E-02;  0.0000000E+00;  3.0139303E-01;  5.1717524E+03;
  9.6004945E-01;  9.9999998E-03;  2.4005803E-01;2544;  5.1946815E-02;  0.0000000E+00;  5.3579647E-02;  1.0053505E+03;  4.0244243E-01;  4.4157495E+03;3;  3.6958908E+01;  0.0000000E+00;  2.8531336E+01;0;  3.8323379E-01;  9.9984004E+03;  0.0000000E+00;  6.2457507E-04;  1.0000000E+04;  0.0000000E+00;  9.9865898E+03;  7.8478321E-02;  0.0000000E+00;  3.0475545E-01;  5.9150366E+03;
  9.6005052E-01;  9.9999998E-03;  2.6007998E-01;2545;  5.2343618E-02;  0.0000000E+00;  5.9724122E-02;  1.0052296E+03;  4.0244254E-01;  4.3159888E+03;3;  3.6909332E+01;  0.0000000E+00;  1.9387842E+01;0;  4.0969941E-01;  9.9980352E+03;  0.0000000E+00;  1.6234764E-03;  1.0000000E+04;  0.0000000E+00;  9.9845488E+03;  9.5950596E-02;  0.0000000E+00;  3.1374881E-01;  6.8726499E+03;
  9.6005052E-01;  9.9999998E-03;  2.8009444E-01;2546;  5.2618552E-02;  0.0000000E+00;  5.5921882E-02;  1.0051579E+03;  4.0244260E-01;  4.2568604E+03;3;  4.1051353E+01;  0.0000000E+00;  1.1415174E+01;0;  3.4015775E-01;  9.9977041E+03;  0.0000000E+00;  1.9120899E-03;  1.0000000E+04;  0.0000000E+00;  9.9834414E+03;  1.1160079E-01;  0.0000000E+00;  2.2855696E-01;  7.5114043E+03;
  9.6005040E-01;  9.9999998E-03;  3.0010036E-01;2547;  5.2460480E-02;  0.0000000E+00;  5.4193348E-02;  1.0052596E+03;  4.0244260E-01;  4.3407813E+03;3;  4.3788483E+01;  0.0000000E+00;  1.5670753E+01;0;  2.4191248E-01;  9.9974268E+03;  0.0000000E+00;  1.9215904E-04;  1.0000000E+04;  0.0000000E+00;  9.9857432E+03;  1.2469088E-01;  0.0000000E+00;  1.1722162E-01;  6.5513970E+03;
  9.8003787E-01;  9.9999998E-03;  1.6001770E-01;2571;  3.8467646E-02;  0.0000000E+00;  2.3345701E-02;  1.0051510E+03;  4.0216622E-01;  4.2454873E+03;3;  2.6147398E+01;  0.0000000E+00;  1.9679356E+01;0;  2.1559823E-01;  1.0000350E+04;  0.0000000E+00; -3.6854217E-07;  1.0000000E+04;  0.0000000E+00;  9.9943955E+03; -1.3046214E-02;  0.0000000E+00;  2.2864445E-01;  2.2886023E+03;
  9.8004001E-01;  9.9999998E-03;  1.8002169E-01;2572;  4.1082796E-02;  0.0000000E+00;  2.7673677E-02;  1.0050574E+03;  4.0216628E-01;  4.1683584E+03;3;  2.8158325E+01;  0.0000000E+00;  2.2134663E+01;0;  2.4813958E-01;  1.0000154E+04;  0.0000000E+00; -1.2883839E-06;  1.0000000E+04;  0.0000000E+00;  9.9927236E+03; -4.0759849E-03;  0.0000000E+00;  2.5221556E-01;  3.0339919E+03;
  9.8004276E-01;  9.9999998E-03;  2.0002717E-01;2573;  4.4264980E-02;  0.0000000E+00;  3.2540135E-02;  1.0049527E+03;  4.0216643E-01;  4.0819937E+03;3;  3.0518538E+01;  0.0000000E+00;  2.4071962E+01;0;  2.7761286E-01;  9.9998711E+03;  0.0000000E+00;  7.9903504E-05;  1.0000000E+04;  0.0000000E+00;  9.9909199E+03;  9.2125311E-03;  0.0000000E+00;  2.6840034E-01;  3.8491091E+03;
  9.8004597E-01;  9.9999998E-03;  2.2003640E-01;2574;  4.7997437E-02;  0.0000000E+00;  3.9122988E-02;  1.0048526E+03;  4.0216646E-01;  3.9995586E+03;3;  3.3431126E+01;  0.0000000E+00;  2.5515968E+01;0;  3.0039558E-01;  9.9995000E+03;  0.0000000E+00;  9.0807420E-04;  1.0000000E+04;  0.0000000E+00;  9.9892979E+03;  2.6393950E-02;  0.0000000E+00;  2.7400163E-01;  4.5951416E+03;
  9.8004931E-01;  9.9999998E-03;  2.4005170E-01;2575;  5.1803853E-02;  0.0000000E+00;  4.7759794E-02;  1.0047607E+03;  4.0216652E-01;  3.9237070E+03;3;  3.6844845E+01;  0.0000000E+00;  2.5555395E+01;0;  3.2268596E-01;  9.9990771E+03;  0.0000000E+00;  3.5705601E-03;  1.0000000E+04;  0.0000000E+00;  9.9878896E+03;  4.6089731E-02;  0.0000000E+00;  2.7659622E-01;  5.2434746E+03;
  9.8005128E-01;  9.9999998E-03;  2.6007152E-01;2576;  5.3616580E-02;  0.0000000E+00;  5.3816728E-02;  1.0046489E+03;  4.0216660E-01;  3.8316440E+03;3;  3.8622208E+01;  0.0000000E+00;  1.8432947E+01;0;  3.5171530E-01;  9.9986367E+03;  0.0000000E+00;  7.3398785E-03;  1.0000000E+04;  0.0000000E+00;  9.9861016E+03;  6.6363752E-02;  0.0000000E+00;  2.8535154E-01;  6.0634707E+03;
  9.8005193E-01;  9.9999998E-03;  2.8008494E-01;2577;  5.4401234E-02;  0.0000000E+00;  5.0796598E-02;  1.0045801E+03;  4.0216669E-01;  3.7748538E+03;3;  4.2591084E+01;  0.0000000E+00;  1.0885746E+01;0;  2.9573232E-01;  9.9982246E+03;  0.0000000E+00;  7.5631076E-03;  1.0000000E+04;  0.0000000E+00;  9.9851377E+03;  8.5294545E-02;  0.0000000E+00;  2.1043777E-01;  6.6118145E+03;
  9.8005229E-01;  9.9999998E-03;  3.0009067E-01;2578;  5.4544087E-02;  0.0000000E+00;  4.9534295E-02;  1.0046658E+03;  4.0216675E-01;  3.8454973E+03;3;  4.5665749E+01;  0.0000000E+00;  1.4634060E+01;0;  2.1337342E-01;  9.9978643E+03;  0.0000000E+00;  1.0675019E-04;  1.0000000E+04;  0.0000000E+00;  9.9872002E+03;  1.0170256E-01;  0.0000000E+00;  1.1167087E-01;  5.7650918E+03;
  1.0000366E+00;  9.9999998E-03;  1.6001594E-01;2602;  3.7269656E-02;  0.0000000E+00;  2.0977303E-02;  1.0045447E+03;  4.0190181E-01;  3.7390662E+03;3;  2.5490612E+01;  0.0000000E+00;  1.7684252E+01;0;  1.6951250E-01;  1.0000873E+04;  0.0000000E+00;  1.5662785E-07;  1.0000000E+04;  0.0000000E+00;  9.9949531E+03; -3.5964951E-02;  0.0000000E+00;  2.0547745E-01;  2.0144451E+03;
  1.0000386E+00;  9.9999998E-03;  1.8001948E-01;2603;  3.9868467E-02;  0.0000000E+00;  2.4811070E-02;  1.0044594E+03;  4.0190184E-01;  3.6688425E+03;3;  2.7527615E+01;  0.0000000E+00;  1.9873381E+01;0;  1.9985011E-01;  1.0000678E+04;  0.0000000E+00;  3.5368523E-06;  1.0000000E+04;  0.0000000E+00;  9.9934473E+03; -2.7257886E-02;  0.0000000E+00;  2.2710800E-01;  2.6690540E+03;
  1.0000414E+00;  9.9999998E-03;  2.0002426E-01;2604;  4.3096911E-02;  0.0000000E+00;  2.9083801E-02;  1.0043625E+03;  4.0190187E-01;  3.5892031E+03;3;  2.9926767E+01;  0.0000000E+00;  2.1608580E+01;0;  2.2862972E-01;  1.0000375E+04;  0.0000000E+00;  3.3636793E-04;  1.0000000E+04;  0.0000000E+00;  9.9918223E+03; -1.3883528E-02;  0.0000000E+00;  2.4251325E-01;  3.3849668E+03;
  1.0000449E+00;  9.9999998E-03;  2.2003229E-01;2605;  4.6975709E-02;  0.0000000E+00;  3.4724988E-02;  1.0042693E+03;  4.0190202E-01;  3.5125066E+03;3;  3.2852436E+01;  0.0000000E+00;  2.2762110E+01;0;  2.5219667E-01;  9.9999785E+03;  0.0000000E+00;  2.8141614E-03;  1.0000000E+04;  0.0000000E+00;  9.9903613E+03;  3.7683216E-03;  0.0000000E+00;  2.4842836E-01;  4.0381140E+03;
  1.0000489E+00;  9.9999998E-03;  2.4004577E-01;2606;  5.1315464E-02;  0.0000000E+00;  4.2245865E-02;  1.0041835E+03;  4.0190202E-01;  3.4418899E+03;3;  3.6509216E+01;  0.0000000E+00;  2.2689571E+01;0;  2.7525488E-01;  9.9995117E+03;  0.0000000E+00;  9.7869430E-03;  1.0000000E+04;  0.0000000E+00;  9.9891182E+03;  2.4629230E-02;  0.0000000E+00;  2.5062564E-01;  4.5964497E+03;
  1.0000516E+00;  9.9999998E-03;  2.6006344E-01;2607;  5.4414049E-02;  0.0000000E+00;  4.8044376E-02;  1.0040813E+03;  4.0190211E-01;  3.3577397E+03;3;  4.0045589E+01;  0.0000000E+00;  1.7540037E+01;0;  3.0493400E-01;  9.9990117E+03;  0.0000000E+00;  1.8629599E-02;  1.0000000E+04;  0.0000000E+00;  9.9875811E+03;  4.6984952E-02;  0.0000000E+00;  2.5794905E-01;  5.2828003E+03;
  1.0000535E+00;  9.9999998E-03;  2.8007573E-01;2608;  5.6171812E-02;  0.0000000E+00;  4.5700293E-02;  1.0040177E+03;  4.0190223E-01;  3.3054644E+03;3;  4.4162910E+01;  0.0000000E+00;  1.0287917E+01;0;  2.5987679E-01;  9.9985254E+03;  0.0000000E+00;  1.7672826E-02;  1.0000000E+04;  0.0000000E+00;  9.9867988E+03;  6.8756528E-02;  0.0000000E+00;  1.9112027E-01;  5.7254341E+03;
  1.0000547E+00;  9.9999998E-03;  3.0008122E-01;2609;  5.6913290E-02;  0.0000000E+00;  4.4802815E-02;  1.0040901E+03;  4.0190217E-01;  3.3649963E+03;3;  4.7545849E+01;  0.0000000E+00;  1.3336291E+01;0;  1.9049013E-01;  9.9980801E+03;  0.0000000E+00; -1.3475863E-03;  1.0000000E+04;  0.0000000E+00;  9.9886777E+03;  8.8292614E-02;  0.0000000E+00;  1.0219752E-01;  4.9715132E+03;
  1.0200351E+00;  9.9999998E-03;  1.6001430E-01;2633;  3.5935353E-02;  0.0000000E+00;  1.8734705E-02;  1.0039709E+03;  4.0165597E-01;  3.2590808E+03;3;  2.4763330E+01;  0.0000000E+00;  1.5805923E+01;0;  1.3551708E-01;  1.0001182E+04;  0.0000000E+00; -7.4834561E-06;  1.0000000E+04;  0.0000000E+00;  9.9954512E+03; -4.8904330E-02;  0.0000000E+00;  1.8442141E-01;  1.7632903E+03;
  1.0200372E+00;  9.9999998E-03;  1.8001743E-01;2634;  3.8550880E-02;  0.0000000E+00;  2.2125451E-02;  1.0038923E+03;  4.0165603E-01;  3.1946028E+03;3;  2.6829878E+01;  0.0000000E+00;  1.7770044E+01;0;  1.6440347E-01;  1.0000974E+04;  0.0000000E+00; -2.2280983E-04;  1.0000000E+04;  0.0000000E+00;  9.9940928E+03; -4.0186845E-02;  0.0000000E+00;  2.0459032E-01;  2.3333958E+03;
  1.0200399E+00;  9.9999998E-03;  2.0002171E-01;2635;  4.1784033E-02;  0.0000000E+00;  2.5970813E-02;  1.0038036E+03;  4.0165609E-01;  3.1218076E+03;3;  2.9321550E+01;  0.0000000E+00;  1.9379475E+01;0;  1.9244584E-01;  1.0000669E+04;  0.0000000E+00; -3.3079355E-04;  1.0000000E+04;  0.0000000E+00;  9.9926318E+03; -2.7163798E-02;  0.0000000E+00;  2.1960965E-01;  2.9551248E+03;
  1.0200436E+00;  9.9999998E-03;  2.2002876E-01;2636;  4.5801781E-02;  0.0000000E+00;  3.0864816E-02;  1.0037178E+03;  4.0165612E-01;  3.0513608E+03;3;  3.2272774E+01;  0.0000000E+00;  2.0343384E+01;0;  2.1607386E-01;  1.0000268E+04;  0.0000000E+00;  3.2898113E-03;  1.0000000E+04;  0.0000000E+00;  9.9913213E+03; -1.0129022E-02;  0.0000000E+00;  2.2620288E-01;  3.5200361E+03;
  1.0200483E+00;  9.9999998E-03;  2.4004063E-01;2637;  5.0757751E-02;  0.0000000E+00;  3.7340377E-02;  1.0036386E+03;  4.0165618E-01;  2.9863926E+03;3;  3.6195850E+01;  0.0000000E+00;  2.0079067E+01;0;  2.3906259E-01;  9.9997891E+03;  0.0000000E+00;  1.5144113E-02;  1.0000000E+04;  0.0000000E+00;  9.9902227E+03;  1.0543244E-02;  0.0000000E+00;  2.2851935E-01;  3.9976382E+03;
  1.0200523E+00;  9.9999998E-03;  2.6005614E-01;2638;  5.5226516E-02;  0.0000000E+00;  4.2504426E-02;  1.0035468E+03;  4.0165630E-01;  2.9110535E+03;3;  4.0977501E+01;  0.0000000E+00;  1.6229439E+01;0;  2.6623738E-01;  9.9992529E+03;  0.0000000E+00;  2.9534582E-02;  1.0000000E+04;  0.0000000E+00;  9.9889258E+03;  3.3908240E-02;  0.0000000E+00;  2.3232915E-01;  4.5606504E+03;
  1.0200558E+00;  9.9999998E-03;  2.8006709E-01;2639;  5.8421731E-02;  0.0000000E+00;  4.0620238E-02;  1.0034918E+03;  4.0165627E-01;  2.8658499E+03;3;  4.5706524E+01;  0.0000000E+00;  9.2998962E+00;0;  2.2773482E-01;  9.9986982E+03;  0.0000000E+00;  2.5548754E-02;  1.0000000E+04;  0.0000000E+00;  9.9883838E+03;  5.8125000E-02;  0.0000000E+00;  1.6960981E-01;  4.8775566E+03;
  1.0200584E+00;  9.9999998E-03;  3.0007231E-01;2640;  6.0256753E-02;  0.0000000E+00;  4.0197033E-02;  1.0035535E+03;  4.0165621E-01;  2.9165303E+03;3;  4.9996597E+01;  0.0000000E+00;  1.1784881E+01;0;  1.7081484E-01;  9.9981641E+03;  0.0000000E+00; -4.6965652E-03;  1.0000000E+04;  0.0000000E+00;  9.9901455E+03;  8.0931462E-02;  0.0000000E+00;  8.9883372E-02;  4.1894165E+03;
  1.0400335E+00;  9.9999998E-03;  1.6001277E-01;2664;  3.4420140E-02;  0.0000000E+00;  1.6637029E-02;  1.0034428E+03;  4.0143374E-01;  2.8165684E+03;3;  2.3943079E+01;  0.0000000E+00;  1.4036222E+01;0;  1.1195752E-01;  1.0001314E+04;  0.0000000E+00; -1.5700165E-04;  1.0000000E+04;  0.0000000E+00;  9.9958652E+03; -5.4289702E-02;  0.0000000E+00;  1.6624722E-01;  1.5424030E+03;
  1.0400356E+00;  9.9999998E-03;  1.8001562E-01;2665;  3.7105832E-02;  0.0000000E+00;  1.9710589E-02;  1.0033705E+03;  4.0143383E-01;  2.7574661E+03;3;  2.6067606E+01;  0.0000000E+00;  1.5827967E+01;0;  1.3984105E-01;  1.0001103E+04;  0.0000000E+00; -1.7930984E-03;  1.0000000E+04;  0.0000000E+00;  9.9946387E+03; -4.5681588E-02;  0.0000000E+00;  1.8552263E-01;  2.0353008E+03;
  1.0400383E+00;  9.9999998E-03;  2.0001948E-01;2666;  4.0393688E-02;  0.0000000E+00;  2.3110569E-02;  1.0032904E+03;  4.0143380E-01;  2.6919268E+03;3;  2.8652328E+01;  0.0000000E+00;  1.7207783E+01;0;  1.6651848E-01;  1.0000813E+04;  0.0000000E+00; -5.2737198E-03;  1.0000000E+04;  0.0000000E+00;  9.9933271E+03; -3.3921085E-02;  0.0000000E+00;  2.0043956E-01;  2.5682537E+03;
  1.0400423E+00;  9.9999998E-03;  2.2002600E-01;2667;  4.4649579E-02;  0.0000000E+00;  2.7656274E-02;  1.0032134E+03;  4.0143386E-01;  2.6289229E+03;3;  3.1799149E+01;  0.0000000E+00;  1.8174520E+01;0;  1.8902597E-01;  1.0000453E+04;  0.0000000E+00; -4.1402420E-03;  1.0000000E+04;  0.0000000E+00;  9.9921523E+03; -1.9120093E-02;  0.0000000E+00;  2.0814607E-01;  3.0516023E+03;
  1.0400478E+00;  9.9999998E-03;  2.4003656E-01;2668;  5.0217532E-02;  0.0000000E+00;  3.3335753E-02;  1.0031415E+03;  4.0143394E-01;  2.5701118E+03;3;  3.5985535E+01;  0.0000000E+00;  1.7955738E+01;0;  2.1104388E-01;  1.0000008E+04;  0.0000000E+00;  9.4686188E-03;  1.0000000E+04;  0.0000000E+00;  9.9911641E+03; -5.0345814E-04;  0.0000000E+00;  2.1154734E-01;  3.4602500E+03;
  1.0400536E+00;  9.9999998E-03;  2.6004997E-01;2669;  5.6209158E-02;  0.0000000E+00;  3.7612308E-02;  1.0030598E+03;  4.0143391E-01;  2.5032061E+03;3;  4.1394554E+01;  0.0000000E+00;  1.4605448E+01;0;  2.3431186E-01;  9.9994639E+03;  0.0000000E+00;  2.4917275E-02;  1.0000000E+04;  0.0000000E+00;  9.9900801E+03;  2.2786295E-02;  0.0000000E+00;  2.1152557E-01;  3.9161436E+03;
  1.0400593E+00;  9.9999998E-03;  2.8005949E-01;2670;  6.1665975E-02;  0.0000000E+00;  3.6400300E-02;  1.0030144E+03;  4.0143391E-01;  2.4661436E+03;3;  4.7480347E+01;  0.0000000E+00;  9.3111963E+00;0;  2.0241310E-01;  9.9988252E+03;  0.0000000E+00;  1.5858833E-02;  1.0000000E+04;  0.0000000E+00;  9.9898164E+03;  5.0459966E-02;  0.0000000E+00;  1.5195313E-01;  4.0965000E+03;
  1.0400642E+00;  9.9999998E-03;  3.0006447E-01;2671;  6.5713167E-02;  0.0000000E+00;  3.6614232E-02;  1.0030623E+03;  4.0143389E-01;  2.5053467E+03;3;  5.3783375E+01;  0.0000000E+00;  1.1274437E+01;0;  1.6476557E-01;  9.9981240E+03;  0.0000000E+00; -1.2024171E-03;  1.0000000E+04;  0.0000000E+00;  9.9914668E+03;  7.9871155E-02;  0.0000000E+00;  8.4894419E-02;  3.4693479E+03;
  1.0600317E+00;  9.9999998E-03;  1.6001138E-01;2695;  3.2842245E-02;  0.0000000E+00;  1.4723505E-02;  1.0029700E+03;  4.0123802E-01;  2.4193691E+03;3;  2.3101585E+01;  0.0000000E+00;  1.2385597E+01;0;  9.7347543E-02;  1.0001316E+04;  0.0000000E+00; -1.0318718E-03;  1.0000000E+04;  0.0000000E+00;  9.9961895E+03; -5.4094639E-02;  0.0000000E+00;  1.5144219E-01;  1.3541071E+03;
  1.0600338E+00;  9.9999998E-03;  1.8001406E-01;2696;  3.5566054E-02;  0.0000000E+00;  1.7532881E-02;  1.0029039E+03;  4.0123799E-01;  2.3654724E+03;3;  2.5290474E+01;  0.0000000E+00;  1.4003736E+01;0;  1.2408938E-01;  1.0001113E+04;  0.0000000E+00; -7.1426309E-03;  1.0000000E+04;  0.0000000E+00;  9.9950752E+03; -4.6172619E-02;  0.0000000E+00;  1.7026199E-01;  1.7762986E+03;
  1.0600368E+00;  9.9999998E-03;  2.0001769E-01;2697;  3.9022584E-02;  0.0000000E+00;  2.0669658E-02;  1.0028334E+03;  4.0123808E-01;  2.3081765E+03;3;  2.7986105E+01;  0.0000000E+00;  1.5275709E+01;0;  1.4822969E-01;  1.0000879E+04;  0.0000000E+00; -1.9520398E-02;  1.0000000E+04;  0.0000000E+00;  9.9939053E+03; -3.6973502E-02;  0.0000000E+00;  1.8520319E-01;  2.2263452E+03;
  1.0600412E+00;  9.9999998E-03;  2.2002402E-01;2698;  4.3709405E-02;  0.0000000E+00;  2.5047278E-02;  1.0027667E+03;  4.0123811E-01;  2.2536963E+03;3;  3.1593769E+01;  0.0000000E+00;  1.6193907E+01;0;  1.6803369E-01;  1.0000602E+04;  0.0000000E+00; -2.7208300E-02;  1.0000000E+04;  0.0000000E+00;  9.9928516E+03; -2.6157239E-02;  0.0000000E+00;  1.9419093E-01;  2.6353462E+03;
  1.0600474E+00;  9.9999998E-03;  2.4003373E-01;2699;  4.9817063E-02;  0.0000000E+00;  3.0270979E-02;  1.0027024E+03;  4.0123808E-01;  2.2013513E+03;3;  3.6042427E+01;  0.0000000E+00;  1.6110340E+01;0;  1.8849565E-01;  1.0000237E+04;  0.0000000E+00; -1.8727692E-02;  1.0000000E+04;  0.0000000E+00;  9.9919336E+03; -1.1444847E-02;  0.0000000E+00;  1.9994050E-01;  2.9906917E+03;
  1.0600551E+00;  9.9999998E-03;  2.6004526E-01;2700;  5.7277918E-02;  0.0000000E+00;  3.3832610E-02;  1.0026290E+03;  4.0123811E-01;  2.1415286E+03;3;  4.2133186E+01;  0.0000000E+00;  1.3468856E+01;0;  2.0895241E-01;  9.9996973E+03;  0.0000000E+00; -1.2414762E-02;  1.0000000E+04;  0.0000000E+00;  9.9910078E+03;  1.1268737E-02;  0.0000000E+00;  1.9768368E-01;  3.3590222E+03;
  1.0600632E+00;  9.9999998E-03;  2.8005329E-01;2701;  6.4558104E-02;  0.0000000E+00;  3.3556622E-02;  1.0025908E+03;  4.0123817E-01;  2.1104497E+03;3;  4.8814224E+01;  0.0000000E+00;  1.0797069E+01;0;  1.8933395E-01;  9.9989160E+03;  0.0000000E+00; -2.2361465E-02;  1.0000000E+04;  0.0000000E+00;  9.9910303E+03;  4.4187509E-02;  0.0000000E+00;  1.4514644E-01;  3.4050706E+03;
  1.0600708E+00;  9.9999998E-03;  3.0005786E-01;2702;  7.1128123E-02;  0.0000000E+00;  3.4670807E-02;  1.0026188E+03;  4.0123814E-01;  2.1332661E+03;3;  5.7227009E+01;  0.0000000E+00;  1.3700685E+01;0;  1.8167636E-01;  9.9978809E+03;  0.0000000E+00;  3.9162036E-02;  1.0000000E+04;  0.0000000E+00;  9.9926270E+03;  8.7534986E-02;  0.0000000E+00;  9.4141372E-02;  2.8123943E+03;
  1.0800298E+00;  9.9999998E-03;  1.6001020E-01;2726;  3.1289604E-02;  0.0000000E+00;  1.3074950E-02;  1.0025560E+03;  4.0106997E-01;  2.0702646E+03;3;  2.2272291E+01;  0.0000000E+00;  1.0942659E+01;0;  9.0500474E-02;  1.0001211E+04;  0.0000000E+00; -4.4621127E-03;  1.0000000E+04;  0.0000000E+00;  9.9964180E+03; -4.9632508E-02;  0.0000000E+00;  1.4013298E-01;  1.1953591E+03;
  1.0800321E+00;  9.9999998E-03;  1.8001270E-01;2727;  3.4048576E-02;  0.0000000E+00;  1.5598081E-02;  1.0024970E+03;  4.0106997E-01;  2.0224679E+03;3;  2.4532425E+01;  0.0000000E+00;  1.2339425E+01;0;  1.1527713E-01;  1.0001039E+04;  0.0000000E+00; -2.0187818E-02;  1.0000000E+04;  0.0000000E+00;  9.9954092E+03; -4.3331444E-02;  0.0000000E+00;  1.5860857E-01;  1.5524081E+03;
  1.0800354E+00;  9.9999998E-03;  2.0001647E-01;2728;  3.7795350E-02;  0.0000000E+00;  1.8772917E-02;  1.0024374E+03;  4.0107000E-01;  1.9742841E+03;3;  2.7469778E+01;  0.0000000E+00;  1.3654044E+01;0;  1.3554539E-01;  1.0000889E+04;  0.0000000E+00; -4.7823824E-02;  1.0000000E+04;  0.0000000E+00;  9.9943750E+03; -3.7980046E-02;  0.0000000E+00;  1.7352544E-01;  1.9285623E+03;
  1.0800403E+00;  9.9999998E-03;  2.2002287E-01;2729;  4.2982463E-02;  0.0000000E+00;  2.3124941E-02;  1.0023821E+03;  4.0106988E-01;  1.9293824E+03;3;  3.1425133E+01;  0.0000000E+00;  1.4606590E+01;0;  1.5153328E-01;  1.0000736E+04;  0.0000000E+00; -7.0389718E-02;  1.0000000E+04;  0.0000000E+00;  9.9934258E+03; -3.2397263E-02;  0.0000000E+00;  1.8393055E-01;  2.2760547E+03;
  1.0800472E+00;  9.9999998E-03;  2.4003208E-01;2730;  4.9704179E-02;  0.0000000E+00;  2.7974570E-02;  1.0023245E+03;  4.0107000E-01;  1.8827416E+03;3;  3.6744820E+01;  0.0000000E+00;  1.4310164E+01;0;  1.7032881E-01;  1.0000479E+04;  0.0000000E+00; -7.4715495E-02;  1.0000000E+04;  0.0000000E+00;  9.9925352E+03; -2.2488717E-02;  0.0000000E+00;  1.9281752E-01;  2.5959624E+03;
  1.0800565E+00;  9.9999998E-03;  2.6004189E-01;2731;  5.8299735E-02;  0.0000000E+00;  3.0836562E-02;  1.0022569E+03;  4.0106994E-01;  1.8279890E+03;3;  4.3617840E+01;  0.0000000E+00;  1.2080999E+01;0;  1.8875332E-01;  9.9999258E+03;  0.0000000E+00; -8.4965222E-02;  1.0000000E+04;  0.0000000E+00;  9.9917432E+03;  4.4899713E-04;  0.0000000E+00;  1.8830432E-01;  2.8943386E+03;
  1.0800661E+00;  9.9999998E-03;  2.8004852E-01;2732;  6.6567726E-02;  0.0000000E+00;  3.1474728E-02;  1.0022226E+03;  4.0107006E-01;  1.8001752E+03;3;  5.1101658E+01;  0.0000000E+00;  1.1778003E+01;0;  1.8400860E-01;  9.9989561E+03;  0.0000000E+00; -6.8097755E-02;  1.0000000E+04;  0.0000000E+00;  9.9920244E+03;  3.9958693E-02;  0.0000000E+00;  1.4404990E-01;  2.8207180E+03;
  1.0800755E+00;  9.9999998E-03;  3.0005243E-01;2733;  7.4583739E-02;  0.0000000E+00;  3.3291362E-02;  1.0022264E+03;  4.0106994E-01;  1.8032595E+03;3;  6.0816994E+01;  0.0000000E+00;  1.5213335E+01;0;  2.0964068E-01;  9.9974492E+03;  0.0000000E+00;  1.6413468E-01;  1.0000000E+04;  0.0000000E+00;  9.9936113E+03;  1.0130008E-01;  0.0000000E+00;  1.0834059E-01;  2.3106494E+03;
  1.1000282E+00;  9.9999998E-03;  1.6000910E-01;2756;  2.9787501E-02;  0.0000000E+00;  1.1512090E-02;  1.0022008E+03;  4.0092891E-01;  1.7692275E+03;3;  2.1485710E+01;  0.0000000E+00;  9.5635204E+00;0;  9.0197310E-02;  1.0001009E+04;  0.0000000E+00; -1.4136002E-02;  1.0000000E+04;  0.0000000E+00;  9.9965703E+03; -4.1792709E-02;  0.0000000E+00;  1.3199002E-01;  1.0590698E+03;
  1.1000307E+00;  9.9999998E-03;  1.8001170E-01;2757;  3.2746017E-02;  0.0000000E+00;  1.4011978E-02;  1.0021501E+03;  4.0092885E-01;  1.7284017E+03;3;  2.3931414E+01;  0.0000000E+00;  1.0884649E+01;0;  1.1168909E-01;  1.0000899E+04;  0.0000000E+00; -4.5407176E-02;  1.0000000E+04;  0.0000000E+00;  9.9956689E+03; -3.8186532E-02;  0.0000000E+00;  1.4987563E-01;  1.3585599E+03;
  1.1000344E+00;  9.9999998E-03;  2.0001586E-01;2758;  3.6880910E-02;  0.0000000E+00;  1.7367810E-02;  1.0021027E+03;  4.0092894E-01;  1.6902583E+03;3;  2.7249363E+01;  0.0000000E+00;  1.2195596E+01;0;  1.2702887E-01;  1.0000859E+04;  0.0000000E+00; -9.2079431E-02;  1.0000000E+04;  0.0000000E+00;  9.9947588E+03; -3.7536353E-02;  0.0000000E+00;  1.6456522E-01;  1.6761786E+03;
  1.1000400E+00;  9.9999998E-03;  2.2002251E-01;2759;  4.2606212E-02;  0.0000000E+00;  2.1754969E-02;  1.0020579E+03;  4.0092903E-01;  1.6543181E+03;3;  3.1936920E+01;  0.0000000E+00;  1.2929913E+01;0;  1.3936441E-01;  1.0000832E+04;  0.0000000E+00; -1.3137680E-01;  1.0000000E+04;  0.0000000E+00;  9.9938936E+03; -3.7388712E-02;  0.0000000E+00;  1.7675312E-01;  1.9814384E+03;
  1.1000476E+00;  9.9999998E-03;  2.4003123E-01;2760;  5.0214164E-02;  0.0000000E+00;  2.5895728E-02;  1.0020051E+03;  4.0092891E-01;  1.6118599E+03;3;  3.8422451E+01;  0.0000000E+00;  1.1860119E+01;0;  1.5610862E-01;  1.0000661E+04;  0.0000000E+00; -1.5292192E-01;  1.0000000E+04;  0.0000000E+00;  9.9930127E+03; -3.0329527E-02;  0.0000000E+00;  1.8643814E-01;  2.2805444E+03;
  1.1000574E+00;  9.9999998E-03;  2.6003933E-01;2761;  5.9028998E-02;  0.0000000E+00;  2.8208191E-02;  1.0019455E+03;  4.0092897E-01;  1.5639384E+03;3;  4.5403137E+01;  0.0000000E+00;  1.0854643E+01;0;  1.7030013E-01;  1.0000069E+04;  0.0000000E+00; -1.6484734E-01;  1.0000000E+04;  0.0000000E+00;  9.9924150E+03; -5.7099420E-03;  0.0000000E+00;  1.7601007E-01;  2.4934958E+03;
  1.1000670E+00;  9.9999998E-03;  2.8004459E-01;2762;  6.7179754E-02;  0.0000000E+00;  2.9486071E-02;  1.0019177E+03;  4.0092894E-01;  1.5416035E+03;3;  5.3379410E+01;  0.0000000E+00;  1.2251704E+01;0;  1.7658189E-01;  9.9989521E+03;  0.0000000E+00; -5.9443723E-02;  1.0000000E+04;  0.0000000E+00;  9.9929824E+03;  3.8926952E-02;  0.0000000E+00;  1.3765495E-01;  2.2710056E+03;
  1.1200268E+00;  9.9999998E-03;  1.6000827E-01;2785;  2.8551571E-02;  0.0000000E+00;  1.0206235E-02;  1.0019031E+03;  4.0081337E-01;  1.5148599E+03;3;  2.0884062E+01;  0.0000000E+00;  8.3225870E+00;0;  9.4527423E-02;  1.0000735E+04;  0.0000000E+00; -3.6009733E-02;  1.0000000E+04;  0.0000000E+00;  9.9966660E+03; -3.1719610E-02;  0.0000000E+00;  1.2624703E-01;  9.3871997E+02;
  1.1200296E+00;  9.9999998E-03;  1.8001117E-01;2786;  3.1792726E-02;  0.0000000E+00;  1.2827730E-02;  1.0018619E+03;  4.0081325E-01;  1.4820269E+03;3;  2.3619711E+01;  0.0000000E+00;  9.5963631E+00;0;  1.1129267E-01;  1.0000708E+04;  0.0000000E+00; -8.6524688E-02;  1.0000000E+04;  0.0000000E+00;  9.9958721E+03; -3.1766124E-02;  0.0000000E+00;  1.4305879E-01;  1.1938210E+03;
  1.1200339E+00;  9.9999998E-03;  2.0001586E-01;2787;  3.6394782E-02;  0.0000000E+00;  1.6405072E-02;  1.0018257E+03;  4.0081328E-01;  1.4531780E+03;3;  2.7504242E+01;  0.0000000E+00;  1.0731765E+01;0;  1.2155845E-01;  1.0000781E+04;  0.0000000E+00; -1.4994477E-01;  1.0000000E+04;  0.0000000E+00;  9.9950801E+03; -3.5860084E-02;  0.0000000E+00;  1.5741853E-01;  1.4711439E+03;
  1.1200401E+00;  9.9999998E-03;  2.2002277E-01;2788;  4.2902045E-02;  0.0000000E+00;  2.0605268E-02;  1.0017883E+03;  4.0081325E-01;  1.4233788E+03;3;  3.3129894E+01;  0.0000000E+00;  1.0885665E+01;0;  1.3163613E-01;  1.0000847E+04;  0.0000000E+00; -2.0220409E-01;  1.0000000E+04;  0.0000000E+00;  9.9942637E+03; -3.8911805E-02;  0.0000000E+00;  1.7054793E-01;  1.7509009E+03;
  1.1200484E+00;  9.9999998E-03;  2.4003071E-01;2789;  5.1098201E-02;  0.0000000E+00;  2.4089575E-02;  1.0017377E+03;  4.0081328E-01;  1.3831407E+03;3;  3.9970669E+01;  0.0000000E+00;  1.0266656E+01;0;  1.4693928E-01;  1.0000668E+04;  0.0000000E+00; -2.3411532E-01;  1.0000000E+04;  0.0000000E+00;  9.9934375E+03; -3.0413799E-02;  0.0000000E+00;  1.7735307E-01;  2.0170405E+03;
  1.1200577E+00;  9.9999998E-03;  2.6003712E-01;2790;  5.9308458E-02;  0.0000000E+00;  2.6154203E-02;  1.0016907E+03;  4.0081325E-01;  1.3457490E+03;3;  4.7018860E+01;  0.0000000E+00;  1.0727845E+01;0;  1.5744993E-01;  1.0000019E+04;  0.0000000E+00; -1.9866960E-01;  1.0000000E+04;  0.0000000E+00;  9.9931523E+03; -3.4194076E-03;  0.0000000E+00;  1.6086935E-01;  2.0747664E+03;
  1.1200665E+00;  9.9999998E-03;  2.8004113E-01;2791;  6.6626959E-02;  0.0000000E+00;  2.7935566E-02;  1.0016727E+03;  4.0081325E-01;  1.3313199E+03;3;  5.5158588E+01;  0.0000000E+00;  1.3220138E+01;0;  1.7311427E-01;  9.9988379E+03;  0.0000000E+00;  5.8379322E-02;  1.0000000E+04;  0.0000000E+00;  9.9939717E+03;  4.3416928E-02;  0.0000000E+00;  1.2969734E-01;  1.7503004E+03;
  1.1400257E+00;  9.9999998E-03;  1.6000785E-01;2813;  2.7661774E-02;  0.0000000E+00;  9.2813587E-03;  1.0016592E+03;  4.0072057E-01;  1.3037163E+03;3;  2.0546574E+01;  0.0000000E+00;  7.2768836E+00;0;  1.0083708E-01;  1.0000422E+04;  0.0000000E+00; -7.5765409E-02;  1.0000000E+04;  0.0000000E+00;  9.9967422E+03; -2.0992231E-02;  0.0000000E+00;  1.2182932E-01;  8.3481500E+02;
  1.1400290E+00;  9.9999998E-03;  1.8001126E-01;2814;  3.1284254E-02;  0.0000000E+00;  1.2148703E-02;  1.0016282E+03;  4.0072057E-01;  1.2794524E+03;3;  2.3656034E+01;  0.0000000E+00;  8.5011835E+00;0;  1.1204578E-01;  1.0000492E+04;  0.0000000E+00; -1.4297019E-01;  1.0000000E+04;  0.0000000E+00;  9.9960518E+03; -2.5166389E-02;  0.0000000E+00;  1.3721217E-01;  1.0608815E+03;
  1.1400340E+00;  9.9999998E-03;  2.0001654E-01;2815;  3.6597647E-02;  0.0000000E+00;  1.5881162E-02;  1.0016003E+03;  4.0072051E-01;  1.2574352E+03;3;  2.8319132E+01;  0.0000000E+00;  9.3093939E+00;0;  1.1896266E-01;  1.0000645E+04;  0.0000000E+00; -2.1462661E-01;  1.0000000E+04;  0.0000000E+00;  9.9953398E+03; -3.2332554E-02;  0.0000000E+00;  1.5129521E-01;  1.3088853E+03;
  1.1400410E+00;  9.9999998E-03;  2.2002350E-01;2816;  4.3915145E-02;  0.0000000E+00;  1.9851124E-02;  1.0015634E+03;  4.0072051E-01;  1.2284846E+03;3;  3.4642342E+01;  0.0000000E+00;  9.5719385E+00;0;  1.3072118E-01;  1.0000699E+04;  0.0000000E+00; -2.7148852E-01;  1.0000000E+04;  0.0000000E+00;  9.9945498E+03; -3.3666279E-02;  0.0000000E+00;  1.6438746E-01;  1.5621841E+03;
  1.1400495E+00;  9.9999998E-03;  2.4003029E-01;2817;  5.1873326E-02;  0.0000000E+00;  2.2835298E-02;  1.0015154E+03;  4.0072054E-01;  1.1907281E+03;3;  4.1440575E+01;  0.0000000E+00;  9.8336582E+00;0;  1.4622426E-01;  1.0000415E+04;  0.0000000E+00; -2.7804279E-01;  1.0000000E+04;  0.0000000E+00;  9.9938789E+03; -2.0145077E-02;  0.0000000E+00;  1.6636933E-01;  1.7324312E+03;
  1.1400577E+00;  9.9999998E-03;  2.6003519E-01;2818;  5.9023410E-02;  0.0000000E+00;  2.4812309E-02;  1.0014834E+03;  4.0072060E-01;  1.1656178E+03;3;  4.8603146E+01;  0.0000000E+00;  1.1384042E+01;0;  1.5587971E-01;  9.9997139E+03;  0.0000000E+00; -1.2237004E-01;  1.0000000E+04;  0.0000000E+00;  9.9939414E+03;  8.9643234E-03;  0.0000000E+00;  1.4691538E-01;  1.5884722E+03;
  1.1600254E+00;  9.9999998E-03;  1.6000807E-01;2840;  2.7260887E-02;  0.0000000E+00;  8.9167180E-03;  1.0014659E+03;  4.0064782E-01;  1.1329382E+03;3;  2.0569490E+01;  0.0000000E+00;  6.5225391E+00;0;  1.0650179E-01;  1.0000115E+04;  0.0000000E+00; -1.3303106E-01;  1.0000000E+04;  0.0000000E+00;  9.9968203E+03; -1.1277286E-02;  0.0000000E+00;  1.1777908E-01;  7.5295831E+02;
  1.1600293E+00;  9.9999998E-03;  1.8001215E-01;2841;  3.1529550E-02;  0.0000000E+00;  1.2102372E-02;  1.0014427E+03;  4.0064782E-01;  1.1150607E+03;3;  2.4313622E+01;  0.0000000E+00;  7.6430421E+00;0;  1.1334983E-01;  1.0000262E+04;  0.0000000E+00; -2.0684107E-01;  1.0000000E+04;  0.0000000E+00;  9.9962080E+03; -1.8657558E-02;  0.0000000E+00;  1.3200739E-01;  9.5477380E+02;
  1.1600353E+00;  9.9999998E-03;  2.0001796E-01;2842;  3.7811801E-02;  0.0000000E+00;  1.5972579E-02;  1.0014148E+03;  4.0064785E-01;  1.0934038E+03;3;  2.9859871E+01;  0.0000000E+00;  8.4571981E+00;0;  1.2260681E-01;  1.0000394E+04;  0.0000000E+00; -2.7610207E-01;  1.0000000E+04;  0.0000000E+00;  9.9955225E+03; -2.3924798E-02;  0.0000000E+00;  1.4653161E-01;  1.1718091E+03;
  1.1600428E+00;  9.9999998E-03;  2.2002444E-01;2843;  4.5300387E-02;  0.0000000E+00;  1.9564653E-02;  1.0013727E+03;  4.0064776E-01;  1.0608744E+03;3;  3.6380543E+01;  0.0000000E+00;  9.1300850E+00;0;  1.4009620E-01;  1.0000298E+04;  0.0000000E+00; -3.1325233E-01;  1.0000000E+04;  0.0000000E+00;  9.9947803E+03; -1.8055169E-02;  0.0000000E+00;  1.5815137E-01;  1.3608661E+03;
  1.1600504E+00;  9.9999998E-03;  2.4002987E-01;2844;  5.2354012E-02;  0.0000000E+00;  2.2151824E-02;  1.0013305E+03;  4.0064779E-01;  1.0282531E+03;3;  4.3120682E+01;  0.0000000E+00;  1.0344440E+01;0;  1.5638427E-01;  9.9998691E+03;  0.0000000E+00; -2.2347303E-01;  1.0000000E+04;  0.0000000E+00;  9.9943652E+03;  1.1375088E-03;  0.0000000E+00;  1.5524676E-01;  1.3528296E+03;
  1.1600571E+00;  9.9999998E-03;  2.6003340E-01;2845;  5.8113363E-02;  0.0000000E+00;  2.3923865E-02;  1.0013142E+03;  4.0064776E-01;  1.0156250E+03;3;  5.0001026E+01;  0.0000000E+00;  1.2421984E+01;0;  1.6429766E-01;  9.9991729E+03;  0.0000000E+00;  1.0719296E-01;  1.0000000E+04;  0.0000000E+00;  9.9947373E+03;  2.9589262E-02;  0.0000000E+00;  1.3470839E-01;  1.1889574E+03;
  1.1800259E+00;  9.9999998E-03;  1.6000929E-01;2866;  2.7783955E-02;  0.0000000E+00;  9.3761832E-03;  1.0013155E+03;  4.0059182E-01;  9.9553510E+02;3;  2.1332621E+01;  0.0000000E+00;  6.1360822E+00;0;  1.1129506E-01;  9.9998271E+03;  0.0000000E+00; -1.9735247E-01;  1.0000000E+04;  0.0000000E+00;  9.9968965E+03; -2.9201380E-03;  0.0000000E+00;  1.1421520E-01;  6.8851392E+02;
  1.1800311E+00;  9.9999998E-03;  1.8001401E-01;2867;  3.3138677E-02;  0.0000000E+00;  1.2892030E-02;  1.0012917E+03;  4.0059185E-01;  9.7748602E+02;3;  2.6117840E+01;  0.0000000E+00;  7.2625580E+00;0;  1.2038453E-01;  9.9999424E+03;  0.0000000E+00; -2.6671293E-01;  1.0000000E+04;  0.0000000E+00;  9.9963086E+03; -8.4020384E-03;  0.0000000E+00;  1.2878656E-01;  8.6026495E+02;
  1.1800376E+00;  9.9999998E-03;  2.0001973E-01;2868;  3.9793018E-02;  0.0000000E+00;  1.6557490E-02;  1.0012557E+03;  4.0059188E-01;  9.5023364E+02;3;  3.1990162E+01;  0.0000000E+00;  8.3671236E+00;0;  1.3801771E-01;  9.9999023E+03;  0.0000000E+00; -3.1246465E-01;  1.0000000E+04;  0.0000000E+00;  9.9956279E+03; -5.3418679E-03;  0.0000000E+00;  1.4335959E-01;  1.0186263E+03;
  1.1800445E+00;  9.9999998E-03;  2.2002529E-01;2869;  4.6511505E-02;  0.0000000E+00;  1.9628158E-02;  1.0012101E+03;  4.0059185E-01;  9.1576404E+02;3;  3.8379620E+01;  0.0000000E+00;  9.5594893E+00;0;  1.6048877E-01;  9.9996133E+03;  0.0000000E+00; -2.6402631E-01;  1.0000000E+04;  0.0000000E+00;  9.9950078E+03;  8.6945007E-03;  0.0000000E+00;  1.5179427E-01;  1.0697441E+03;
  1.1800507E+00;  9.9999998E-03;  2.4002936E-01;2870;  5.2066755E-02;  0.0000000E+00;  2.1722181E-02;  1.0011802E+03;  4.0059185E-01;  8.9311389E+02;3;  4.4579147E+01;  0.0000000E+00;  1.1236654E+01;0;  1.7273152E-01;  9.9991436E+03;  0.0000000E+00; -1.9699496E-03;  1.0000000E+04;  0.0000000E+00;  9.9948799E+03;  2.8527454E-02;  0.0000000E+00;  1.4420407E-01;  9.6149237E+02;
  1.2000287E+00;  9.9999998E-03;  1.6001157E-01;2890;  2.9944280E-02;  0.0000000E+00;  1.0843844E-02;  1.0011918E+03;  4.0054971E-01;  8.7872144E+02;3;  2.3289829E+01;  0.0000000E+00;  6.4228148E+00;0;  1.2307339E-01;  9.9994336E+03;  0.0000000E+00; -2.5613770E-01;  1.0000000E+04;  0.0000000E+00;  9.9969219E+03;  9.8747220E-03;  0.0000000E+00;  1.1319867E-01;  6.2520142E+02;
  1.2000345E+00;  9.9999998E-03;  1.8001623E-01;2891;  3.5787269E-02;  0.0000000E+00;  1.4175020E-02;  1.0011583E+03;  4.0054980E-01;  8.5392938E+02;3;  2.8578802E+01;  0.0000000E+00;  7.6443043E+00;0;  1.4139529E-01;  9.9993428E+03;  0.0000000E+00; -3.0232808E-01;  1.0000000E+04;  0.0000000E+00;  9.9963428E+03;  1.3388561E-02;  0.0000000E+00;  1.2800673E-01;  7.4378082E+02;
  1.2000403E+00;  9.9999998E-03;  2.0002128E-01;2892;  4.1638412E-02;  0.0000000E+00;  1.7321276E-02;  1.0011152E+03;  4.0054974E-01;  8.2219440E+02;3;  3.4177807E+01;  0.0000000E+00;  9.0009336E+00;0;  1.6562808E-01;  9.9991006E+03;  0.0000000E+00; -2.6203480E-01;  1.0000000E+04;  0.0000000E+00;  9.9957246E+03;  2.4684450E-02;  0.0000000E+00;  1.4094363E-01;  7.8509027E+02;
  1.2000457E+00;  9.9999998E-03;  2.2002570E-01;2893;  4.6881847E-02;  0.0000000E+00;  1.9650504E-02;  1.0010772E+03;  4.0054974E-01;  7.9415198E+02;3;  4.0065910E+01;  0.0000000E+00;  1.0349723E+01;0;  1.8423907E-01;  9.9987832E+03;  0.0000000E+00; -3.7766926E-02;  1.0000000E+04;  0.0000000E+00;  9.9952822E+03;  4.0423293E-02;  0.0000000E+00;  1.4381579E-01;  7.3595050E+02;
  1.2200330E+00;  9.9999998E-03;  1.6001396E-01;2913;  3.3323895E-02;  0.0000000E+00;  1.2544964E-02;  1.0010743E+03;  4.0051880E-01;  7.6731049E+02;3;  2.5913092E+01;  0.0000000E+00;  7.4071012E+00;0;  1.5271211E-01;  9.9986563E+03;  0.0000000E+00; -2.8330973E-01;  1.0000000E+04;  0.0000000E+00;  9.9969043E+03;  3.8194820E-02;  0.0000000E+00;  1.1451729E-01;  5.2814197E+02;
  1.2200379E+00;  9.9999998E-03;  1.8001820E-01;2914;  3.8113929E-02;  0.0000000E+00;  1.5446876E-02;  1.0010357E+03;  4.0051872E-01;  7.3971777E+02;3;  3.0736053E+01;  0.0000000E+00;  8.7731543E+00;0;  1.7483246E-01;  9.9984336E+03;  0.0000000E+00; -2.4586527E-01;  1.0000000E+04;  0.0000000E+00;  9.9963555E+03;  4.6579108E-02;  0.0000000E+00;  1.2825336E-01;  5.5177631E+02;
  1.2200422E+00;  9.9999998E-03;  2.0002227E-01;2915;  4.2497337E-02;  0.0000000E+00;  1.7818555E-02;  1.0010012E+03;  4.0051877E-01;  7.1502118E+02;3;  3.6096684E+01;  0.0000000E+00;  1.0008820E+01;0;  1.9335696E-01;  9.9982373E+03;  0.0000000E+00; -3.6290307E-02;  1.0000000E+04;  0.0000000E+00;  9.9958604E+03;  5.6616828E-02;  0.0000000E+00;  1.3674013E-01;  5.1785364E+02;
  1.2200456E+00;  9.9999998E-03;  2.2002552E-01;2916;  4.5682367E-02;  0.0000000E+00;  1.9272067E-02;  1.0009831E+03;  4.0051872E-01;  7.0216071E+02;3;  4.0632572E+01;  0.0000000E+00;  1.0898819E+01;0;  1.9327734E-01;  9.9981494E+03;  0.0000000E+00;  3.6937323E-01;  1.0000000E+04;  0.0000000E+00;  9.9955840E+03;  5.9754819E-02;  0.0000000E+00;  1.3352253E-01;  7.3737524E+02;
  1.2400362E+00;  9.9999998E-03;  1.6001607E-01;2934;  3.5470940E-02;  0.0000000E+00;  1.3959615E-02;  1.0009727E+03;  4.0049633E-01;  6.6910535E+02;3;  2.8114378E+01;  0.0000000E+00;  8.5689487E+00;0;  1.8605138E-01;  9.9978018E+03;  0.0000000E+00; -1.9124967E-01;  1.0000000E+04;  0.0000000E+00;  9.9968408E+03;  6.9209144E-02;  0.0000000E+00;  1.1684224E-01;  3.5773431E+02;
  1.2400392E+00;  9.9999998E-03;  1.8001966E-01;2935;  3.8525816E-02;  0.0000000E+00;  1.6126631E-02;  1.0009518E+03;  4.0049633E-01;  6.5483209E+02;3;  3.2463406E+01;  0.0000000E+00;  9.5600100E+00;0;  1.9363803E-01;  9.9978770E+03;  0.0000000E+00; -1.6845239E-03;  1.0000000E+04;  0.0000000E+00;  9.9963516E+03;  6.6691250E-02;  0.0000000E+00;  1.2694678E-01;  3.5617078E+02;
  1.2600366E+00;  9.9999998E-03;  1.6001765E-01;2952;  3.5120599E-02;  0.0000000E+00;  1.4611591E-02;  1.0009237E+03;  4.0048060E-01;  6.0879755E+02;3;  2.9488762E+01;  0.0000000E+00;  9.0671692E+00;0;  1.8881771E-01;  9.9977344E+03;  0.0000000E+00;  8.2084857E-02;  1.0000000E+04;  0.0000000E+00;  9.9967246E+03;  7.0604086E-02;  0.0000000E+00;  1.1821363E-01;  2.5692081E+02;
