TimeStep;Np;Nbound;Nfixed;Nmoving;Nfloat;Nfluid
0.00116123;2975;1031;1031;0;0;1944

Pos.x;Pos.y;Pos.z;Idp;Vel.x;Vel.y;Vel.z;Rhop;Mass;Press;Type;Acec.x;Acec.y;Acec.z;CellOffSpring;GradVel;Qfxx;Qfxy;Qfxz;Qfyy;Qfyz;Qfzz;StrainDot.x;StrainDot.y;StrainDot.z;VonMises3D;
 -2.2000000E-01;  9.9999998E-03; -3.8000000E-01;0;  0.0000000E+00;  0.0000000E+00;  0.0000000E+00;  1.0000000E+03;  4.0000001E-01;  0.0000000E+00;0;  0.0000000E+00;  0.0000000E+00;  0.0000000E+00;0;  0.0000000E+00;  1.0000000E+04;  0.0000000E+00;  0.0000000E+00;  1.0000000E+04;  0.0000000E+00;  1.0000000E+04;  0.0000000E+00;  0.0000000E+00;  0.0000000E+00;  0.0000000E+00;
 -2.2000000E-01;  9.9999998E-03; -3.6000001E-01;1;  0.0000000E+00;  0.0000000E+00;  0.0000000E+00;  1.0000000E+03;  4.0000001E-01;  0.0000000E+00;0;  0.0000000E+00;  0.0000000E+00;  0.0000000E+00;0;  0.0000000E+00;  1.0000000E+04;  0.0000000E+00;  0.0000000E+00;  1.0000000E+04;  0.0000000E+00;  1.0000000E+04;  0.0000000E+00;  0.0000000E+00;  0.0000000E+00;  0.0000000E+00;
 -2.0000000E-01;  9.9999998E-03; -4.0000001E-01;39;  0.0000000E+00;  0.0000000E+00;  0.0000000E+00;  1.0000000E+03;  4.0000001E-01;  0.0000000E+00;0;  0.0000000E+00;  0.0000000E+00;  0.0000000E+00;0;  0.0000000E+00;  1.0000000E+04;  0.0000000E+00;  0.0000000E+00;  1.0000000E+04;  0.0000000E+00;  1.0000000E+04;  0.0000000E+00;  0.0000000E+00;  0.0000000E+00;  0.0000000E+00;
 -2.0000000E-01;  9.9999998E-03; -3.8000000E-01;40;  0.0000000E+00;  0.0000000E+00;  0.0000000E+00;  1.0000000E+03;  4.0000001E-01;  0.0000000E+00;0;  0.0000000E+00;  0.0000000E+00;  0.0000000E+00;0;  0.0000000E+00;  1.0000000E+04;  0.0000000E+00;  0.0000000E+00;  1.0000000E+04;  0.0000000E+00;  1.0000000E+04;  0.0000000E+00;  0.0000000E+00;  0.0000000E+00;  0.0000000E+00;
 -2.0000000E-01;  9.9999998E-03; -3.6000001E-01;41;  0.0000000E+00;  0.0000000E+00;  0.0000000E+00;  1.0000000E+03;  4.0000001E-01;  0.0000000E+00;0;  0.0000000E+00;  0.0000000E+00;  0.0000000E+00;0;  0.0000000E+00;  1.0000000E+04;  0.0000000E+00;  0.0000000E+00;  1.0000000E+04;  0.0000000E+00;  1.0000000E+04;  0.0000000E+00;  0.0000000E+00;  0.0000000E+00;  0.0000000E+00;
 -1.8000001E-01;  9.9999998E-03; -4.0000001E-01;80;  0.0000000E+00;  0.0000000E+00;  0.0000000E+00;  1.0000000E+03;  4.0000001E-01;  0.0000000E+00;0;  0.0000000E+00;  0.0000000E+00;  0.0000000E+00;0;  0.0000000E+00;  1.0000000E+04;  0.0000000E+00;  0.0000000E+00;  1.0000000E+04;  0.0000000E+00;  1.0000000E+04;  0.0000000E+00;  0.0000000E+00;  0.0000000E+00;  0.0000000E+00;
 -1.8000001E-01;  9.9999998E-03; -3.8000000E-01;81;  0.0000000E+00;  0.0000000E+00;  0.0000000E+00;  1.0000000E+03;  4.0000001E-01;  0.0000000E+00;0;  0.0000000E+00;  0.0000000E+00;  0.0000000E+00;0;  0.0000000E+00;  1.0000000E+04;  0.0000000E+00;  0.0000000E+00;  1.0000000E+04;  0.0000000E+00;  1.0000000E+04;  0.0000000E+00;  0.0000000E+00;  0.0000000E+00;  0.0000000E+00;
 -1.8000001E-01;  9.9999998E-03; -3.6000001E-01;82;  0.0000000E+00;  0.0000000E+00;  0.0000000E+00;  1.0000000E+03;  4.0000001E-01;  0.0000000E+00;0;  0.0000000E+00;  0.0000000E+00;  0.0000000E+00;0;  0.0000000E+00;  1.0000000E+04;  0.0000000E+00;  0.0000000E+00;  1.0000000E+04;  0.0000000E+00;  1.0000000E+04;  0.0000000E+00;  0.0000000E+00;  0.0000000E+00;  0.0000000E+00;
 -1.6000000E-01;  9.9999998E-03; -4.0000001E-01;121;  0.0000000E+00;  0.0000000E+00;  0.0000000E+00;  1.0000000E+03;  4.0000001E-01;  0.0000000E+00;0;  0.0000000E+00;  0.0000000E+00;  0.0000000E+00;0;  0.0000000E+00;  1.0000000E+04;  0.0000000E+00;  0.0000000E+00;  1.0000000E+04;  0.0000000E+00;  1.0000000E+04;  0.0000000E+00;  0.0000000E+00;  0.0000000E+00;  0.0000000E+00;
 -1.6000000E-01;  9.9999998E-03; -3.8000000E-01;122;  0.0000000E+00;  0.0000000E+00;  0.0000000E+00;  1.0000000E+03;  4.0000001E-01;  0.0000000E+00;0;  0.0000000E+00;  0.0000000E+00;  0.0000000E+00;0;  0.0000000E+00;  1.0000000E+04;  0.0000000E+00;  0.0000000E+00;  1.0000000E+04;  0.0000000E+00;  1.0000000E+04;  0.0000000E+00;  0.0000000E+00;  0.0000000E+00;  0.0000000E+00;
 -1.6000000E-01;  9.9999998E-03; -3.6000001E-01;123;  0.0000000E+00;  0.0000000E+00;  0.0000000E+00;  1.0000000E+03;  4.0000001E-01;  0.0000000E+00;0;  0.0000000E+00;  0.0000000E+00;  0.0000000E+00;0;  0.0000000E+00;  1.0000000E+04;  0.0000000E+00;  0.0000000E+00;  1.0000000E+04;  0.0000000E+00;  1.0000000E+04;  0.0000000E+00;  0.0000000E+00;  0.0000000E+00;  0.0000000E+00;
 -1.4000000E-01;  9.9999998E-03; -4.0000001E-01;162;  0.0000000E+00;  0.0000000E+00;  0.0000000E+00;  1.0000000E+03;  4.0000001E-01;  0.0000000E+00;0;  0.0000000E+00;  0.0000000E+00;  0.0000000E+00;0;  0.0000000E+00;  1.0000000E+04;  0.0000000E+00;  0.0000000E+00;  1.0000000E+04;  0.0000000E+00;  1.0000000E+04;  0.0000000E+00;  0.0000000E+00;  0.0000000E+00;  0.0000000E+00;
 -1.4000000E-01;  9.9999998E-03; -3.8000000E-01;163;  0.0000000E+00;  0.0000000E+00;  0.0000000E+00;  1.0000000E+03;  4.0000001E-01;  0.0000000E+00;0;  0.0000000E+00;  0.0000000E+00;  0.0000000E+00;0;  0.0000000E+00;  1.0000000E+04;  0.0000000E+00;  0.0000000E+00;  1.0000000E+04;  0.0000000E+00;  1.0000000E+04;  0.0000000E+00;  0.0000000E+00;  0.0000000E+00;  0.0000000E+00;
 -1.4000000E-01;  9.9999998E-03; -3.6000001E-01;164;  0.0000000E+00;  0.0000000E+00;  0.0000000E+00;  1.0000000E+03;  4.0000001E-01;  0.0000000E+00;0;  0.0000000E+00;  0.0000000E+00;  0.0000000E+00;0; -1.9060272E-12;  1.0000000E+04;  0.0000000E+00;  0.0000000E+00;  1.0000000E+04;  0.0000000E+00;  1.0000000E+04; -1.5912358E-12;  0.0000000E+00; -3.1479130E-13;  6.3543185E-11;
 -1.2000000E-01;  9.9999998E-03; -4.0000001E-01;203;  0.0000000E+00;  0.0000000E+00;  0.0000000E+00;  1.0000000E+03;  4.0000001E-01;  0.0000000E+00;0;  0.0000000E+00;  0.0000000E+00;  0.0000000E+00;0;  0.0000000E+00;  1.0000000E+04;  0.0000000E+00;  0.0000000E+00;  1.0000000E+04;  0.0000000E+00;  1.0000000E+04;  0.0000000E+00;  0.0000000E+00;  0.0000000E+00;  0.0000000E+00;
 -1.2000000E-01;  9.9999998E-03; -3.8000000E-01;204;  0.0000000E+00;  0.0000000E+00;  0.0000000E+00;  1.0000000E+03;  4.0000001E-01;  0.0000000E+00;0;  0.0000000E+00;  0.0000000E+00;  0.0000000E+00;0; -1.1060763E-11;  1.0000000E+04;  0.0000000E+00;  0.0000000E+00;  1.0000000E+04;  0.0000000E+00;  1.0000000E+04; -8.4520871E-12;  0.0000000E+00; -2.6086761E-12;  5.6044613E-10;
 -1.2000000E-01;  9.9999998E-03; -3.6000001E-01;205;  0.0000000E+00;  0.0000000E+00;  0.0000000E+00;  1.0000000E+03;  4.0000001E-01;  0.0000000E+00;0;  0.0000000E+00;  0.0000000E+00;  0.0000000E+00;0; -7.7307785E-11;  1.0000000E+04;  0.0000000E+00;  0.0000000E+00;  1.0000000E+04;  0.0000000E+00;  1.0000000E+04; -6.2379893E-11;  0.0000000E+00; -1.4927889E-11;  3.1870999E-09;
 -1.0000000E-01;  9.9999998E-03; -4.0000001E-01;244;  0.0000000E+00;  0.0000000E+00;  0.0000000E+00;  1.0000000E+03;  4.0000001E-01;  0.0000000E+00;0;  0.0000000E+00;  0.0000000E+00;  0.0000000E+00;0; -2.3369962E-11;  1.0000000E+04;  0.0000000E+00;  0.0000000E+00;  1.0000000E+04;  0.0000000E+00;  1.0000000E+04; -1.6851435E-11;  0.0000000E+00; -6.5185275E-12;  1.4851392E-09;
 -1.0000000E-01;  9.9999998E-03; -3.8000000E-01;245;  0.0000000E+00;  0.0000000E+00;  0.0000000E+00;  1.0000000E+03;  4.0000001E-01;  0.0000000E+00;0;  0.0000000E+00;  0.0000000E+00;  0.0000000E+00;0; -1.6873526E-10;  1.0000000E+04;  0.0000000E+00;  0.0000000E+00;  1.0000000E+04;  0.0000000E+00;  1.0000000E+04; -1.2316989E-10;  0.0000000E+00; -4.5565367E-11;  1.0325536E-08;
 -1.0000000E-01;  9.9999998E-03; -3.6000001E-01;246;  0.0000000E+00;  0.0000000E+00;  0.0000000E+00;  1.0000000E+03;  4.0000001E-01;  0.0000000E+00;0;  0.0000000E+00;  0.0000000E+00;  0.0000000E+00;0; -5.4860122E-10;  1.0000000E+04;  0.0000000E+00;  0.0000000E+00;  1.0000000E+04;  0.0000000E+00;  1.0000000E+04; -4.2849829E-10;  0.0000000E+00; -1.2010293E-10;  2.7098766E-08;
 -7.9999998E-02;  9.9999998E-03; -4.0000001E-01;285;  0.0000000E+00;  0.0000000E+00;  0.0000000E+00;  1.0000000E+03;  4.0000001E-01;  0.0000000E+00;0;  0.0000000E+00;  0.0000000E+00;  0.0000000E+00;0; -2.1820315E-10;  1.0000000E+04;  0.0000000E+00;  0.0000000E+00;  1.0000000E+04;  0.0000000E+00;  1.0000000E+04; -1.4961472E-10;  0.0000000E+00; -6.8588420E-11;  1.6306691E-08;
 -7.9999998E-02;  9.9999998E-03; -3.8000000E-01;286;  0.0000000E+00;  0.0000000E+00;  0.0000000E+00;  1.0000000E+03;  4.0000001E-01;  0.0000000E+00;0;  0.0000000E+00;  0.0000000E+00;  0.0000000E+00;0; -8.5620666E-10;  1.0000000E+04;  0.0000000E+00;  0.0000000E+00;  1.0000000E+04;  0.0000000E+00;  1.0000000E+04; -5.9972788E-10;  0.0000000E+00; -2.5647878E-10;  6.1595721E-08;
 -7.9999998E-02;  9.9999998E-03; -3.6000001E-01;287;  0.0000000E+00;  0.0000000E+00;  0.0000000E+00;  1.0000000E+03;  4.0000001E-01;  0.0000000E+00;0;  0.0000000E+00;  0.0000000E+00;  0.0000000E+00;0; -2.1519055E-09;  1.0000000E+04;  0.0000000E+00;  0.0000000E+00;  1.0000000E+04;  0.0000000E+00;  1.0000000E+04; -1.6306543E-09;  0.0000000E+00; -5.2125132E-10;  1.2528187E-07;
 -5.9999999E-02;  9.9999998E-03; -4.0000001E-01;326;  0.0000000E+00;  0.0000000E+00;  0.0000000E+00;  1.0000000E+03;  4.0000001E-01;  0.0000000E+00;0;  0.0000000E+00;  0.0000000E+00;  0.0000000E+00;0; -9.0731189E-10;  1.0000000E+04;  0.0000000E+00;  0.0000000E+00;  1.0000000E+04;  0.0000000E+00;  1.0000000E+04; -5.9251465E-10;  0.0000000E+00; -3.1479722E-10;  7.9539802E-08;
 -5.9999999E-02;  9.9999998E-03; -3.8000000E-01;327;  0.0000000E+00;  0.0000000E+00;  0.0000000E+00;  1.0000000E+03;  4.0000001E-01;  0.0000000E+00;0;  0.0000000E+00;  0.0000000E+00;  0.0000000E+00;0; -2.8126639E-09;  1.0000000E+04;  0.0000000E+00;  0.0000000E+00;  1.0000000E+04;  0.0000000E+00;  1.0000000E+04; -1.8915181E-09;  0.0000000E+00; -9.2114583E-10;  2.3748429E-07;
 -5.9999999E-02;  9.9999998E-03; -3.6000001E-01;328;  0.0000000E+00;  0.0000000E+00;  0.0000000E+00;  1.0000000E+03;  4.0000001E-01;  0.0000000E+00;0;  0.0000000E+00;  0.0000000E+00;  0.0000000E+00;0; -6.2634737E-09;  1.0000000E+04;  0.0000000E+00;  0.0000000E+00;  1.0000000E+04;  0.0000000E+00;  1.0000000E+04; -4.6057393E-09;  0.0000000E+00; -1.6577344E-09;  4.3035206E-07;
 -3.9999999E-02;  9.9999998E-03; -4.0000001E-01;367;  0.0000000E+00;  0.0000000E+00;  0.0000000E+00;  1.0000000E+03;  4.0000001E-01;  0.0000000E+00;0;  0.0000000E+00;  0.0000000E+00;  0.0000000E+00;0; -2.6362770E-09;  1.0000000E+04;  0.0000000E+00;  0.0000000E+00;  1.0000000E+04;  0.0000000E+00;  1.0000000E+04; -1.6370207E-09;  0.0000000E+00; -9.9925634E-10;  2.7289784E-07;
 -3.9999999E-02;  9.9999998E-03; -3.8000000E-01;368;  0.0000000E+00;  0.0000000E+00;  0.0000000E+00;  1.0000000E+03;  4.0000001E-01;  0.0000000E+00;0;  0.0000000E+00;  0.0000000E+00;  0.0000000E+00;0; -7.3074746E-09;  1.0000000E+04;  0.0000000E+00;  0.0000000E+00;  1.0000000E+04;  0.0000000E+00;  1.0000000E+04; -4.7142081E-09;  0.0000000E+00; -2.5932665E-09;  7.2845398E-07;
 -3.9999999E-02;  9.9999998E-03; -3.6000001E-01;369;  0.0000000E+00;  0.0000000E+00;  0.0000000E+00;  1.0000000E+03;  4.0000001E-01;  0.0000000E+00;0;  0.0000000E+00;  0.0000000E+00;  0.0000000E+00;0; -1.5258435E-08;  1.0000000E+04;  0.0000000E+00;  0.0000000E+00;  1.0000000E+04;  0.0000000E+00;  1.0000000E+04; -1.0879899E-08;  0.0000000E+00; -4.3785353E-09;  1.2449080E-06;
 -2.0000000E-02;  9.9999998E-03; -4.0000001E-01;408;  0.0000000E+00;  0.0000000E+00;  0.0000000E+00;  1.0000000E+03;  4.0000001E-01;  0.0000000E+00;0;  0.0000000E+00;  0.0000000E+00;  0.0000000E+00;0; -6.3043784E-09;  1.0000000E+04;  0.0000000E+00;  0.0000000E+00;  1.0000000E+04;  0.0000000E+00;  1.0000000E+04; -3.7233452E-09;  0.0000000E+00; -2.5810329E-09;  7.7472419E-07;
 -2.0000000E-02;  9.9999998E-03; -3.8000000E-01;409;  0.0000000E+00;  0.0000000E+00;  0.0000000E+00;  1.0000000E+03;  4.0000001E-01;  0.0000000E+00;0;  0.0000000E+00;  0.0000000E+00;  0.0000000E+00;0; -1.6514209E-08;  1.0000000E+04;  0.0000000E+00;  0.0000000E+00;  1.0000000E+04;  0.0000000E+00;  1.0000000E+04; -1.0231218E-08;  0.0000000E+00; -6.2829915E-09;  1.9514594E-06;
 -2.0000000E-02;  9.9999998E-03; -3.6000001E-01;410;  0.0000000E+00;  0.0000000E+00;  0.0000000E+00;  1.0000000E+03;  4.0000001E-01;  0.0000000E+00;0;  0.0000000E+00;  0.0000000E+00;  0.0000000E+00;0; -3.3257592E-08;  1.0000000E+04;  0.0000000E+00;  0.0000000E+00;  1.0000000E+04;  0.0000000E+00;  1.0000000E+04; -2.3015728E-08;  0.0000000E+00; -1.0241864E-08;  3.2318706E-06;
  0.0000000E+00;  9.9999998E-03; -4.0000001E-01;449;  0.0000000E+00;  0.0000000E+00;  0.0000000E+00;  1.0000000E+03;  4.0000001E-01;  0.0000000E+00;0;  0.0000000E+00;  0.0000000E+00;  0.0000000E+00;0; -1.3470926E-08;  1.0000000E+04;  0.0000000E+00;  0.0000000E+00;  1.0000000E+04;  0.0000000E+00;  1.0000000E+04; -7.6007227E-09;  0.0000000E+00; -5.8702034E-09;  1.9662559E-06;
  0.0000000E+00;  9.9999998E-03; -3.8000000E-01;450;  0.0000000E+00;  0.0000000E+00;  0.0000000E+00;  1.0000000E+03;  4.0000001E-01;  0.0000000E+00;0;  0.0000000E+00;  0.0000000E+00;  0.0000000E+00;0; -3.4258967E-08;  1.0000000E+04;  0.0000000E+00;  0.0000000E+00;  1.0000000E+04;  0.0000000E+00;  1.0000000E+04; -2.0469864E-08;  0.0000000E+00; -1.3789105E-08;  4.7971043E-06;
  0.0000000E+00;  9.9999998E-03; -3.6000001E-01;451;  0.0000000E+00;  0.0000000E+00;  0.0000000E+00;  1.0000000E+03;  4.0000001E-01;  0.0000000E+00;0;  0.0000000E+00;  0.0000000E+00;  0.0000000E+00;0; -6.7521839E-08;  1.0000000E+04;  0.0000000E+00;  0.0000000E+00;  1.0000000E+04;  0.0000000E+00;  1.0000000E+04; -4.5493362E-08;  0.0000000E+00; -2.2028473E-08;  7.8026369E-06;
  2.0000000E-02;  9.9999998E-03; -4.0000001E-01;461;  0.0000000E+00;  0.0000000E+00;  0.0000000E+00;  1.0000000E+03;  4.0000001E-01;  0.0000000E+00;0;  0.0000000E+00;  0.0000000E+00;  0.0000000E+00;0; -2.6934902E-08;  1.0000000E+04;  0.0000000E+00;  0.0000000E+00;  1.0000000E+04;  0.0000000E+00;  1.0000000E+04; -1.4636688E-08;  0.0000000E+00; -1.2298214E-08;  4.6511514E-06;
  2.0000000E-02;  9.9999998E-03; -3.8000000E-01;462;  0.0000000E+00;  0.0000000E+00;  0.0000000E+00;  1.0000000E+03;  4.0000001E-01;  0.0000000E+00;0;  0.0000000E+00;  0.0000000E+00;  0.0000000E+00;0; -6.7371516E-08;  1.0000000E+04;  0.0000000E+00;  0.0000000E+00;  1.0000000E+04;  0.0000000E+00;  1.0000000E+04; -3.9080408E-08;  0.0000000E+00; -2.8291105E-08;  1.1128345E-05;
  2.0000000E-02;  9.9999998E-03; -3.6000001E-01;463;  0.0000000E+00;  0.0000000E+00;  0.0000000E+00;  1.0000000E+03;  4.0000001E-01;  0.0000000E+00;0;  0.0000000E+00;  0.0000000E+00;  0.0000000E+00;0; -1.3093839E-07;  1.0000000E+04;  0.0000000E+00;  0.0000000E+00;  1.0000000E+04;  0.0000000E+00;  1.0000000E+04; -8.6303316E-08;  0.0000000E+00; -4.4635069E-08;  1.7887762E-05;
  3.9999999E-02;  9.9999998E-03; -4.0000001E-01;471;  0.0000000E+00;  0.0000000E+00;  0.0000000E+00;  1.0000000E+03;  4.0000001E-01;  0.0000000E+00;0;  0.0000000E+00;  0.0000000E+00;  0.0000000E+00;0; -5.1722679E-08;  1.0000000E+04;  0.0000000E+00;  0.0000000E+00;  1.0000000E+04;  0.0000000E+00;  1.0000000E+04; -2.7325656E-08;  0.0000000E+00; -2.4397025E-08;  1.0488346E-05;
  3.9999999E-02;  9.9999998E-03; -3.8000000E-01;472;  0.0000000E+00;  0.0000000E+00;  0.0000000E+00;  1.0000000E+03;  4.0000001E-01;  0.0000000E+00;0;  0.0000000E+00;  0.0000000E+00;  0.0000000E+00;0; -1.2797986E-07;  1.0000000E+04;  0.0000000E+00;  0.0000000E+00;  1.0000000E+04;  0.0000000E+00;  1.0000000E+04; -7.2598091E-08;  0.0000000E+00; -5.5381772E-08;  2.4745741E-05;
  3.9999999E-02;  9.9999998E-03; -3.6000001E-01;473;  0.0000000E+00;  0.0000000E+00;  0.0000000E+00;  1.0000000E+03;  4.0000001E-01;  0.0000000E+00;0;  0.0000000E+00;  0.0000000E+00;  0.0000000E+00;0; -2.4623404E-07;  1.0000000E+04;  0.0000000E+00;  0.0000000E+00;  1.0000000E+04;  0.0000000E+00;  1.0000000E+04; -1.5960545E-07;  0.0000000E+00; -8.6628603E-08;  3.9412833E-05;
  5.9999999E-02;  9.9999998E-03; -4.0000001E-01;481;  0.0000000E+00;  0.0000000E+00;  0.0000000E+00;  1.0000000E+03;  4.0000001E-01;  0.0000000E+00;0;  0.0000000E+00;  0.0000000E+00;  0.0000000E+00;0; -9.6853327E-08;  1.0000000E+04;  0.0000000E+00;  0.0000000E+00;  1.0000000E+04;  0.0000000E+00;  1.0000000E+04; -5.0253256E-08;  0.0000000E+00; -4.6600075E-08;  2.2801025E-05;
  5.9999999E-02;  9.9999998E-03; -3.8000000E-01;482;  0.0000000E+00;  0.0000000E+00;  0.0000000E+00;  1.0000000E+03;  4.0000001E-01;  0.0000000E+00;0;  0.0000000E+00;  0.0000000E+00;  0.0000000E+00;0; -2.3754740E-07;  1.0000000E+04;  0.0000000E+00;  0.0000000E+00;  1.0000000E+04;  0.0000000E+00;  1.0000000E+04; -1.3276295E-07;  0.0000000E+00; -1.0478444E-07;  5.3169504E-05;
  5.9999999E-02;  9.9999998E-03; -3.6000001E-01;483;  0.0000000E+00;  0.0000000E+00;  0.0000000E+00;  1.0000000E+03;  4.0000001E-01;  0.0000000E+00;0;  0.0000000E+00;  0.0000000E+00;  0.0000000E+00;0; -4.5316142E-07;  1.0000000E+04;  0.0000000E+00;  0.0000000E+00;  1.0000000E+04;  0.0000000E+00;  1.0000000E+04; -2.9031952E-07;  0.0000000E+00; -1.6284190E-07;  8.4009327E-05;
  7.9999998E-02;  9.9999998E-03; -4.0000001E-01;491;  0.0000000E+00;  0.0000000E+00;  0.0000000E+00;  1.0000000E+03;  4.0000001E-01;  0.0000000E+00;0;  0.0000000E+00;  0.0000000E+00;  0.0000000E+00;0; -1.7905845E-07;  1.0000000E+04;  0.0000000E+00;  0.0000000E+00;  1.0000000E+04;  0.0000000E+00;  1.0000000E+04; -9.2495952E-08;  0.0000000E+00; -8.6562494E-08;  4.8060399E-05;
  7.9999998E-02;  9.9999998E-03; -3.8000000E-01;492;  0.0000000E+00;  0.0000000E+00;  0.0000000E+00;  1.0000000E+03;  4.0000001E-01;  0.0000000E+00;0;  0.0000000E+00;  0.0000000E+00;  0.0000000E+00;0; -4.3576878E-07;  1.0000000E+04;  0.0000000E+00;  0.0000000E+00;  1.0000000E+04;  0.0000000E+00;  1.0000000E+04; -2.4255203E-07;  0.0000000E+00; -1.9321675E-07;  1.1086408E-04;
  7.9999998E-02;  9.9999998E-03; -3.6000001E-01;493;  0.0000000E+00;  0.0000000E+00;  0.0000000E+00;  1.0000000E+03;  4.0000001E-01;  0.0000000E+00;0;  0.0000000E+00;  0.0000000E+00;  0.0000000E+00;0; -8.2523900E-07;  1.0000000E+04;  0.0000000E+00;  0.0000000E+00;  1.0000000E+04;  0.0000000E+00;  1.0000000E+04; -5.2640746E-07;  0.0000000E+00; -2.9883151E-07;  1.7416039E-04;
  1.0000000E-01;  9.9999998E-03; -4.0000001E-01;501;  0.0000000E+00;  0.0000000E+00;  0.0000000E+00;  1.0000000E+03;  4.0000001E-01;  0.0000000E+00;0;  0.0000000E+00;  0.0000000E+00;  0.0000000E+00;0; -3.3165912E-07;  1.0000000E+04;  0.0000000E+00;  0.0000000E+00;  1.0000000E+04;  0.0000000E+00;  1.0000000E+04; -1.7386157E-07;  0.0000000E+00; -1.5779754E-07;  1.0084655E-04;
  1.0000000E-01;  9.9999998E-03; -3.8000000E-01;502;  0.0000000E+00;  0.0000000E+00;  0.0000000E+00;  1.0000000E+03;  4.0000001E-01;  0.0000000E+00;0;  0.0000000E+00;  0.0000000E+00;  0.0000000E+00;0; -8.0144787E-07;  1.0000000E+04;  0.0000000E+00;  0.0000000E+00;  1.0000000E+04;  0.0000000E+00;  1.0000000E+04; -4.5123525E-07;  0.0000000E+00; -3.5021264E-07;  2.2561946E-04;
  1.0000000E-01;  9.9999998E-03; -3.6000001E-01;503;  0.0000000E+00;  0.0000000E+00;  0.0000000E+00;  1.0000000E+03;  4.0000001E-01;  0.0000000E+00;0;  0.0000000E+00;  0.0000000E+00;  0.0000000E+00;0; -1.5084601E-06;  1.0000000E+04;  0.0000000E+00;  0.0000000E+00;  1.0000000E+04;  0.0000000E+00;  1.0000000E+04; -9.6862664E-07;  0.0000000E+00; -5.3983342E-07;  3.5484077E-04;
  1.2000000E-01;  9.9999998E-03; -4.0000001E-01;511;  0.0000000E+00;  0.0000000E+00;  0.0000000E+00;  1.0000000E+03;  4.0000001E-01;  0.0000000E+00;0;  0.0000000E+00;  0.0000000E+00;  0.0000000E+00;0; -6.2511589E-07;  1.0000000E+04;  0.0000000E+00;  0.0000000E+00;  1.0000000E+04;  0.0000000E+00;  1.0000000E+04; -3.3872988E-07;  0.0000000E+00; -2.8638601E-07;  2.5219651E-04;
  1.2000000E-01;  9.9999998E-03; -3.8000000E-01;512;  0.0000000E+00;  0.0000000E+00;  0.0000000E+00;  1.0000000E+03;  4.0000001E-01;  0.0000000E+00;0;  0.0000000E+00;  0.0000000E+00;  0.0000000E+00;0; -1.4974637E-06;  1.0000000E+04;  0.0000000E+00;  0.0000000E+00;  1.0000000E+04;  0.0000000E+00;  1.0000000E+04; -8.6616438E-07;  0.0000000E+00; -6.3129926E-07;  4.6575759E-04;
  1.2000000E-01;  9.9999998E-03; -3.6000001E-01;513;  0.0000000E+00;  0.0000000E+00;  0.0000000E+00;  1.0000000E+03;  4.0000001E-01;  0.0000000E+00;0;  0.0000000E+00;  0.0000000E+00;  0.0000000E+00;0; -2.7999299E-06;  1.0000000E+04;  0.0000000E+00;  0.0000000E+00;  1.0000000E+04;  0.0000000E+00;  1.0000000E+04; -1.8304005E-06;  0.0000000E+00; -9.6952954E-07;  7.2178571E-04;
  1.4000000E-01;  9.9999998E-03; -4.0000001E-01;521;  0.0000000E+00;  0.0000000E+00;  0.0000000E+00;  1.0000000E+03;  4.0000001E-01;  0.0000000E+00;0;  0.0000000E+00;  0.0000000E+00;  0.0000000E+00;0; -1.2156488E-06;  1.0000000E+04;  0.0000000E+00;  0.0000000E+00;  1.0000000E+04;  0.0000000E+00;  1.0000000E+04; -6.8645215E-07;  0.0000000E+00; -5.2919660E-07;  9.1244257E-04;
  1.4000000E-01;  9.9999998E-03; -3.8000000E-01;522;  0.0000000E+00;  0.0000000E+00;  0.0000000E+00;  1.0000000E+03;  4.0000001E-01;  0.0000000E+00;0;  0.0000000E+00;  0.0000000E+00;  0.0000000E+00;0; -2.8611407E-06;  1.0000000E+04;  0.0000000E+00;  0.0000000E+00;  1.0000000E+04;  0.0000000E+00;  1.0000000E+04; -1.7142103E-06;  0.0000000E+00; -1.1469306E-06;  1.1482753E-03;
  1.4000000E-01;  9.9999998E-03; -3.6000001E-01;523;  0.0000000E+00;  0.0000000E+00;  0.0000000E+00;  1.0000000E+03;  4.0000001E-01;  0.0000000E+00;0;  0.0000000E+00;  0.0000000E+00;  0.0000000E+00;0; -5.2915902E-06;  1.0000000E+04;  0.0000000E+00;  0.0000000E+00;  1.0000000E+04;  0.0000000E+00;  1.0000000E+04; -3.5441328E-06;  0.0000000E+00; -1.7474573E-06;  1.4790016E-03;
  1.6000000E-01;  9.9999998E-03; -4.0000001E-01;531;  0.0000000E+00;  0.0000000E+00;  0.0000000E+00;  1.0000000E+03;  4.0000001E-01;  0.0000000E+00;0;  0.0000000E+00;  0.0000000E+00;  0.0000000E+00;0; -2.4484884E-06;  1.0000000E+04;  0.0000000E+00;  0.0000000E+00;  1.0000000E+04;  0.0000000E+00;  1.0000000E+04; -1.4231879E-06;  0.0000000E+00; -1.0253004E-06;  3.6382431E-03;
  1.6000000E-01;  9.9999998E-03; -3.8000000E-01;532;  0.0000000E+00;  0.0000000E+00;  0.0000000E+00;  1.0000000E+03;  4.0000001E-01;  0.0000000E+00;0;  0.0000000E+00;  0.0000000E+00;  0.0000000E+00;0; -5.5410919E-06;  1.0000000E+04;  0.0000000E+00;  0.0000000E+00;  1.0000000E+04;  0.0000000E+00;  1.0000000E+04; -3.4131224E-06;  0.0000000E+00; -2.1279698E-06;  3.6943257E-03;
  1.6000000E-01;  9.9999998E-03; -3.6000001E-01;533;  0.0000000E+00;  0.0000000E+00;  0.0000000E+00;  1.0000000E+03;  4.0000001E-01;  0.0000000E+00;0;  0.0000000E+00;  0.0000000E+00;  0.0000000E+00;0; -1.0043568E-05;  1.0000000E+04;  0.0000000E+00;  0.0000000E+00;  1.0000000E+04;  0.0000000E+00;  1.0000000E+04; -6.8607828E-06;  0.0000000E+00; -3.1827853E-06;  2.9916351E-03;
  1.8000001E-01;  9.9999998E-03; -4.0000001E-01;541;  0.0000000E+00;  0.0000000E+00;  0.0000000E+00;  1.0000000E+03;  4.0000001E-01;  0.0000000E+00;0;  0.0000000E+00;  0.0000000E+00;  0.0000000E+00;0; -5.0242716E-06;  1.0000000E+04;  0.0000000E+00;  0.0000000E+00;  1.0000000E+04;  0.0000000E+00;  1.0000000E+04; -2.8849365E-06;  0.0000000E+00; -2.1393350E-06;  1.2876177E-02;
  1.8000001E-01;  9.9999998E-03; -3.8000000E-01;542;  0.0000000E+00;  0.0000000E+00;  0.0000000E+00;  1.0000000E+03;  4.0000001E-01;  0.0000000E+00;0;  0.0000000E+00;  0.0000000E+00;  0.0000000E+00;0; -1.0572712E-05;  1.0000000E+04;  0.0000000E+00;  0.0000000E+00;  1.0000000E+04;  0.0000000E+00;  1.0000000E+04; -6.5038571E-06;  0.0000000E+00; -4.0688551E-06;  1.1993804E-02;
  1.8000001E-01;  9.9999998E-03; -3.6000001E-01;543;  0.0000000E+00;  0.0000000E+00;  0.0000000E+00;  1.0000000E+03;  4.0000001E-01;  0.0000000E+00;0;  0.0000000E+00;  0.0000000E+00;  0.0000000E+00;0; -1.8550503E-05;  1.0000000E+04;  0.0000000E+00;  0.0000000E+00;  1.0000000E+04;  0.0000000E+00;  1.0000000E+04; -1.2682528E-05;  0.0000000E+00; -5.8679748E-06;  5.7245791E-03;
  2.0000000E-01;  9.9999998E-03; -3.8000000E-01;551;  0.0000000E+00;  0.0000000E+00;  0.0000000E+00;  1.0000000E+03;  4.0000001E-01;  0.0000000E+00;0;  0.0000000E+00;  0.0000000E+00;  0.0000000E+00;0; -1.9395866E-05;  1.0000000E+04;  0.0000000E+00;  0.0000000E+00;  1.0000000E+04;  0.0000000E+00;  1.0000000E+04; -1.1414458E-05;  0.0000000E+00; -7.9814090E-06;  3.2699216E-02;
  2.0000000E-01;  9.9999998E-03; -3.6000001E-01;552;  0.0000000E+00;  0.0000000E+00;  0.0000000E+00;  1.0000000E+03;  4.0000001E-01;  0.0000000E+00;0;  0.0000000E+00;  0.0000000E+00;  0.0000000E+00;0; -3.2554930E-05;  1.0000000E+04;  0.0000000E+00;  0.0000000E+00;  1.0000000E+04;  0.0000000E+00;  1.0000000E+04; -2.1654612E-05;  0.0000000E+00; -1.0900318E-05;  1.0886373E-02;
 -2.2000000E-01;  9.9999998E-03; -3.4000000E-01;2;  0.0000000E+00;  0.0000000E+00;  0.0000000E+00;  1.0000000E+03;  4.0000001E-01;  0.0000000E+00;0;  0.0000000E+00;  0.0000000E+00;  0.0000000E+00;0;  0.0000000E+00;  1.0000000E+04;  0.0000000E+00;  0.0000000E+00;  1.0000000E+04;  0.0000000E+00;  1.0000000E+04;  0.0000000E+00;  0.0000000E+00;  0.0000000E+00;  0.0000000E+00;
 -2.2000000E-01;  9.9999998E-03; -3.1999999E-01;3;  0.0000000E+00;  0.0000000E+00;  0.0000000E+00;  1.0000000E+03;  4.0000001E-01;  0.0000000E+00;0;  0.0000000E+00;  0.0000000E+00;  0.0000000E+00;0;  0.0000000E+00;  1.0000000E+04;  0.0000000E+00;  0.0000000E+00;  1.0000000E+04;  0.0000000E+00;  1.0000000E+04;  0.0000000E+00;  0.0000000E+00;  0.0000000E+00;  0.0000000E+00;
 -2.2000000E-01;  9.9999998E-03; -3.0000001E-01;4;  0.0000000E+00;  0.0000000E+00;  0.0000000E+00;  1.0000000E+03;  4.0000001E-01;  0.0000000E+00;0;  0.0000000E+00;  0.0000000E+00;  0.0000000E+00;0;  0.0000000E+00;  1.0000000E+04;  0.0000000E+00;  0.0000000E+00;  1.0000000E+04;  0.0000000E+00;  1.0000000E+04;  0.0000000E+00;  0.0000000E+00;  0.0000000E+00;  0.0000000E+00;
 -2.2000000E-01;  9.9999998E-03; -2.8000000E-01;5;  0.0000000E+00;  0.0000000E+00;  0.0000000E+00;  1.0000000E+03;  4.0000001E-01;  0.0000000E+00;0;  0.0000000E+00;  0.0000000E+00;  0.0000000E+00;0;  0.0000000E+00;  1.0000000E+04;  0.0000000E+00;  0.0000000E+00;  1.0000000E+04;  0.0000000E+00;  1.0000000E+04;  0.0000000E+00;  0.0000000E+00;  0.0000000E+00;  0.0000000E+00;
 -2.2000000E-01;  9.9999998E-03; -2.5999999E-01;6;  0.0000000E+00;  0.0000000E+00;  0.0000000E+00;  1.0000000E+03;  4.0000001E-01;  0.0000000E+00;0;  0.0000000E+00;  0.0000000E+00;  0.0000000E+00;0;  0.0000000E+00;  1.0000000E+04;  0.0000000E+00;  0.0000000E+00;  1.0000000E+04;  0.0000000E+00;  1.0000000E+04;  0.0000000E+00;  0.0000000E+00;  0.0000000E+00;  0.0000000E+00;
 -2.2000000E-01;  9.9999998E-03; -2.3999999E-01;7;  0.0000000E+00;  0.0000000E+00;  0.0000000E+00;  1.0000000E+03;  4.0000001E-01;  0.0000000E+00;0;  0.0000000E+00;  0.0000000E+00;  0.0000000E+00;0;  0.0000000E+00;  1.0000000E+04;  0.0000000E+00;  0.0000000E+00;  1.0000000E+04;  0.0000000E+00;  1.0000000E+04;  0.0000000E+00;  0.0000000E+00;  0.0000000E+00;  0.0000000E+00;
 -2.2000000E-01;  9.9999998E-03; -2.2000000E-01;8;  0.0000000E+00;  0.0000000E+00;  0.0000000E+00;  1.0000000E+03;  4.0000001E-01;  0.0000000E+00;0;  0.0000000E+00;  0.0000000E+00;  0.0000000E+00;0;  0.0000000E+00;  1.0000000E+04;  0.0000000E+00;  0.0000000E+00;  1.0000000E+04;  0.0000000E+00;  1.0000000E+04;  0.0000000E+00;  0.0000000E+00;  0.0000000E+00;  0.0000000E+00;
 -2.2000000E-01;  9.9999998E-03; -2.0000000E-01;9;  0.0000000E+00;  0.0000000E+00;  0.0000000E+00;  1.0000000E+03;  4.0000001E-01;  0.0000000E+00;0;  0.0000000E+00;  0.0000000E+00;  0.0000000E+00;0;  0.0000000E+00;  1.0000000E+04;  0.0000000E+00;  0.0000000E+00;  1.0000000E+04;  0.0000000E+00;  1.0000000E+04;  0.0000000E+00;  0.0000000E+00;  0.0000000E+00;  0.0000000E+00;
 -2.0000000E-01;  9.9999998E-03; -3.4000000E-01;42;  0.0000000E+00;  0.0000000E+00;  0.0000000E+00;  1.0000000E+03;  4.0000001E-01;  0.0000000E+00;0;  0.0000000E+00;  0.0000000E+00;  0.0000000E+00;0;  0.0000000E+00;  1.0000000E+04;  0.0000000E+00;  0.0000000E+00;  1.0000000E+04;  0.0000000E+00;  1.0000000E+04;  0.0000000E+00;  0.0000000E+00;  0.0000000E+00;  0.0000000E+00;
 -2.0000000E-01;  9.9999998E-03; -3.1999999E-01;43;  0.0000000E+00;  0.0000000E+00;  0.0000000E+00;  1.0000000E+03;  4.0000001E-01;  0.0000000E+00;0;  0.0000000E+00;  0.0000000E+00;  0.0000000E+00;0;  0.0000000E+00;  1.0000000E+04;  0.0000000E+00;  0.0000000E+00;  1.0000000E+04;  0.0000000E+00;  1.0000000E+04;  0.0000000E+00;  0.0000000E+00;  0.0000000E+00;  0.0000000E+00;
 -2.0000000E-01;  9.9999998E-03; -3.0000001E-01;44;  0.0000000E+00;  0.0000000E+00;  0.0000000E+00;  1.0000000E+03;  4.0000001E-01;  0.0000000E+00;0;  0.0000000E+00;  0.0000000E+00;  0.0000000E+00;0;  0.0000000E+00;  1.0000000E+04;  0.0000000E+00;  0.0000000E+00;  1.0000000E+04;  0.0000000E+00;  1.0000000E+04;  0.0000000E+00;  0.0000000E+00;  0.0000000E+00;  0.0000000E+00;
 -2.0000000E-01;  9.9999998E-03; -2.8000000E-01;45;  0.0000000E+00;  0.0000000E+00;  0.0000000E+00;  1.0000000E+03;  4.0000001E-01;  0.0000000E+00;0;  0.0000000E+00;  0.0000000E+00;  0.0000000E+00;0;  0.0000000E+00;  1.0000000E+04;  0.0000000E+00;  0.0000000E+00;  1.0000000E+04;  0.0000000E+00;  1.0000000E+04;  0.0000000E+00;  0.0000000E+00;  0.0000000E+00;  0.0000000E+00;
 -2.0000000E-01;  9.9999998E-03; -2.5999999E-01;46;  0.0000000E+00;  0.0000000E+00;  0.0000000E+00;  1.0000000E+03;  4.0000001E-01;  0.0000000E+00;0;  0.0000000E+00;  0.0000000E+00;  0.0000000E+00;0;  0.0000000E+00;  1.0000000E+04;  0.0000000E+00;  0.0000000E+00;  1.0000000E+04;  0.0000000E+00;  1.0000000E+04;  0.0000000E+00;  0.0000000E+00;  0.0000000E+00;  0.0000000E+00;
 -2.0000000E-01;  9.9999998E-03; -2.3999999E-01;47;  0.0000000E+00;  0.0000000E+00;  0.0000000E+00;  1.0000000E+03;  4.0000001E-01;  0.0000000E+00;0;  0.0000000E+00;  0.0000000E+00;  0.0000000E+00;0;  0.0000000E+00;  1.0000000E+04;  0.0000000E+00;  0.0000000E+00;  1.0000000E+04;  0.0000000E+00;  1.0000000E+04;  0.0000000E+00;  0.0000000E+00;  0.0000000E+00;  0.0000000E+00;
 -2.0000000E-01;  9.9999998E-03; -2.2000000E-01;48;  0.0000000E+00;  0.0000000E+00;  0.0000000E+00;  1.0000000E+03;  4.0000001E-01;  0.0000000E+00;0;  0.0000000E+00;  0.0000000E+00;  0.0000000E+00;0;  0.0000000E+00;  1.0000000E+04;  0.0000000E+00;  0.0000000E+00;  1.0000000E+04;  0.0000000E+00;  1.0000000E+04;  0.0000000E+00;  0.0000000E+00;  0.0000000E+00;  0.0000000E+00;
 -2.0000000E-01;  9.9999998E-03; -2.0000000E-01;49;  0.0000000E+00;  0.0000000E+00;  0.0000000E+00;  1.0000000E+03;  4.0000001E-01;  0.0000000E+00;0;  0.0000000E+00;  0.0000000E+00;  0.0000000E+00;0;  0.0000000E+00;  1.0000000E+04;  0.0000000E+00;  0.0000000E+00;  1.0000000E+04;  0.0000000E+00;  1.0000000E+04;  0.0000000E+00;  0.0000000E+00;  0.0000000E+00;  0.0000000E+00;
 -1.8000001E-01;  9.9999998E-03; -3.4000000E-01;83;  0.0000000E+00;  0.0000000E+00;  0.0000000E+00;  1.0000000E+03;  4.0000001E-01;  0.0000000E+00;0;  0.0000000E+00;  0.0000000E+00;  0.0000000E+00;0;  0.0000000E+00;  1.0000000E+04;  0.0000000E+00;  0.0000000E+00;  1.0000000E+04;  0.0000000E+00;  1.0000000E+04;  0.0000000E+00;  0.0000000E+00;  0.0000000E+00;  0.0000000E+00;
 -1.8000001E-01;  9.9999998E-03; -3.1999999E-01;84;  0.0000000E+00;  0.0000000E+00;  0.0000000E+00;  1.0000000E+03;  4.0000001E-01;  0.0000000E+00;0;  0.0000000E+00;  0.0000000E+00;  0.0000000E+00;0;  0.0000000E+00;  1.0000000E+04;  0.0000000E+00;  0.0000000E+00;  1.0000000E+04;  0.0000000E+00;  1.0000000E+04;  0.0000000E+00;  0.0000000E+00;  0.0000000E+00;  0.0000000E+00;
 -1.8000001E-01;  9.9999998E-03; -3.0000001E-01;85;  0.0000000E+00;  0.0000000E+00;  0.0000000E+00;  1.0000000E+03;  4.0000001E-01;  0.0000000E+00;0;  0.0000000E+00;  0.0000000E+00;  0.0000000E+00;0;  0.0000000E+00;  1.0000000E+04;  0.0000000E+00;  0.0000000E+00;  1.0000000E+04;  0.0000000E+00;  1.0000000E+04;  0.0000000E+00;  0.0000000E+00;  0.0000000E+00;  0.0000000E+00;
 -1.8000001E-01;  9.9999998E-03; -2.8000000E-01;86;  0.0000000E+00;  0.0000000E+00;  0.0000000E+00;  1.0000000E+03;  4.0000001E-01;  0.0000000E+00;0;  0.0000000E+00;  0.0000000E+00;  0.0000000E+00;0;  0.0000000E+00;  1.0000000E+04;  0.0000000E+00;  0.0000000E+00;  1.0000000E+04;  0.0000000E+00;  1.0000000E+04;  0.0000000E+00;  0.0000000E+00;  0.0000000E+00;  0.0000000E+00;
 -1.8000001E-01;  9.9999998E-03; -2.5999999E-01;87;  0.0000000E+00;  0.0000000E+00;  0.0000000E+00;  1.0000000E+03;  4.0000001E-01;  0.0000000E+00;0;  0.0000000E+00;  0.0000000E+00;  0.0000000E+00;0;  0.0000000E+00;  1.0000000E+04;  0.0000000E+00;  0.0000000E+00;  1.0000000E+04;  0.0000000E+00;  1.0000000E+04;  0.0000000E+00;  0.0000000E+00;  0.0000000E+00;  0.0000000E+00;
 -1.8000001E-01;  9.9999998E-03; -2.3999999E-01;88;  0.0000000E+00;  0.0000000E+00;  0.0000000E+00;  1.0000000E+03;  4.0000001E-01;  0.0000000E+00;0;  0.0000000E+00;  0.0000000E+00;  0.0000000E+00;0;  0.0000000E+00;  1.0000000E+04;  0.0000000E+00;  0.0000000E+00;  1.0000000E+04;  0.0000000E+00;  1.0000000E+04;  0.0000000E+00;  0.0000000E+00;  0.0000000E+00;  0.0000000E+00;
 -1.8000001E-01;  9.9999998E-03; -2.2000000E-01;89;  0.0000000E+00;  0.0000000E+00;  0.0000000E+00;  1.0000000E+03;  4.0000001E-01;  0.0000000E+00;0;  0.0000000E+00;  0.0000000E+00;  0.0000000E+00;0;  0.0000000E+00;  1.0000000E+04;  0.0000000E+00;  0.0000000E+00;  1.0000000E+04;  0.0000000E+00;  1.0000000E+04;  0.0000000E+00;  0.0000000E+00;  0.0000000E+00;  0.0000000E+00;
 -1.8000001E-01;  9.9999998E-03; -2.0000000E-01;90;  0.0000000E+00;  0.0000000E+00;  0.0000000E+00;  1.0000000E+03;  4.0000001E-01;  0.0000000E+00;0;  0.0000000E+00;  0.0000000E+00;  0.0000000E+00;0;  0.0000000E+00;  1.0000000E+04;  0.0000000E+00;  0.0000000E+00;  1.0000000E+04;  0.0000000E+00;  1.0000000E+04;  0.0000000E+00;  0.0000000E+00;  0.0000000E+00;  0.0000000E+00;
 -1.6000000E-01;  9.9999998E-03; -3.4000000E-01;124;  0.0000000E+00;  0.0000000E+00;  0.0000000E+00;  1.0000000E+03;  4.0000001E-01;  0.0000000E+00;0;  0.0000000E+00;  0.0000000E+00;  0.0000000E+00;0;  0.0000000E+00;  1.0000000E+04;  0.0000000E+00;  0.0000000E+00;  1.0000000E+04;  0.0000000E+00;  1.0000000E+04;  0.0000000E+00;  0.0000000E+00;  0.0000000E+00;  0.0000000E+00;
 -1.6000000E-01;  9.9999998E-03; -3.1999999E-01;125;  0.0000000E+00;  0.0000000E+00;  0.0000000E+00;  1.0000000E+03;  4.0000001E-01;  0.0000000E+00;0;  0.0000000E+00;  0.0000000E+00;  0.0000000E+00;0; -3.5366512E-13;  1.0000000E+04;  0.0000000E+00;  0.0000000E+00;  1.0000000E+04;  0.0000000E+00;  1.0000000E+04; -3.3232751E-13;  0.0000000E+00; -2.1337622E-14;  3.8929259E-12;
 -1.6000000E-01;  9.9999998E-03; -3.0000001E-01;126;  0.0000000E+00;  0.0000000E+00;  0.0000000E+00;  1.0000000E+03;  4.0000001E-01;  0.0000000E+00;0;  0.0000000E+00;  0.0000000E+00;  0.0000000E+00;0; -2.2805217E-12;  1.0000000E+04;  0.0000000E+00;  0.0000000E+00;  1.0000000E+04;  0.0000000E+00;  1.0000000E+04; -2.2092543E-12;  0.0000000E+00; -7.1267340E-14;  1.1222623E-11;
 -1.6000000E-01;  9.9999998E-03; -2.8000000E-01;127;  0.0000000E+00;  0.0000000E+00;  0.0000000E+00;  1.0000000E+03;  4.0000001E-01;  0.0000000E+00;0;  0.0000000E+00;  0.0000000E+00;  0.0000000E+00;0; -5.4729945E-12;  1.0000000E+04;  0.0000000E+00;  0.0000000E+00;  1.0000000E+04;  0.0000000E+00;  1.0000000E+04; -5.4113146E-12;  0.0000000E+00; -6.1679787E-14;  3.5619758E-12;
 -1.6000000E-01;  9.9999998E-03; -2.5999999E-01;128;  0.0000000E+00;  0.0000000E+00;  0.0000000E+00;  1.0000000E+03;  4.0000001E-01;  0.0000000E+00;0;  0.0000000E+00;  0.0000000E+00;  0.0000000E+00;0; -8.3041143E-12;  1.0000000E+04;  0.0000000E+00;  0.0000000E+00;  1.0000000E+04;  0.0000000E+00;  1.0000000E+04; -8.3017360E-12;  0.0000000E+00; -2.3782644E-15;  1.6956842E-11;
 -1.6000000E-01;  9.9999998E-03; -2.3999999E-01;129;  0.0000000E+00;  0.0000000E+00;  0.0000000E+00;  1.0000000E+03;  4.0000001E-01;  0.0000000E+00;0;  0.0000000E+00;  0.0000000E+00;  0.0000000E+00;0; -9.9876080E-12;  1.0000000E+04;  0.0000000E+00;  0.0000000E+00;  1.0000000E+04;  0.0000000E+00;  1.0000000E+04; -1.0007887E-11;  0.0000000E+00;  2.0278501E-14;  2.5143051E-11;
 -1.6000000E-01;  9.9999998E-03; -2.2000000E-01;130;  0.0000000E+00;  0.0000000E+00;  0.0000000E+00;  1.0000000E+03;  4.0000001E-01;  0.0000000E+00;0;  0.0000000E+00;  0.0000000E+00;  0.0000000E+00;0; -1.1221669E-11;  1.0000000E+04;  0.0000000E+00;  0.0000000E+00;  1.0000000E+04;  0.0000000E+00;  1.0000000E+04; -1.1242955E-11;  0.0000000E+00;  2.1286932E-14;  2.7521747E-11;
 -1.6000000E-01;  9.9999998E-03; -2.0000000E-01;131;  0.0000000E+00;  0.0000000E+00;  0.0000000E+00;  1.0000000E+03;  4.0000001E-01;  0.0000000E+00;0;  0.0000000E+00;  0.0000000E+00;  0.0000000E+00;0; -1.2230600E-11;  1.0000000E+04;  0.0000000E+00;  0.0000000E+00;  1.0000000E+04;  0.0000000E+00;  1.0000000E+04; -1.2251063E-11;  0.0000000E+00;  2.0463205E-14;  2.8925189E-11;
 -1.4000000E-01;  9.9999998E-03; -3.4000000E-01;165;  0.0000000E+00;  0.0000000E+00;  0.0000000E+00;  1.0000000E+03;  4.0000001E-01;  0.0000000E+00;0;  0.0000000E+00;  0.0000000E+00;  0.0000000E+00;0; -1.6880620E-11;  1.0000000E+04;  0.0000000E+00;  0.0000000E+00;  1.0000000E+04;  0.0000000E+00;  1.0000000E+04; -1.4878428E-11;  0.0000000E+00; -2.0021912E-12;  3.9488068E-10;
 -1.4000000E-01;  9.9999998E-03; -3.1999999E-01;166;  0.0000000E+00;  0.0000000E+00;  0.0000000E+00;  1.0000000E+03;  4.0000001E-01;  0.0000000E+00;0;  0.0000000E+00;  0.0000000E+00;  0.0000000E+00;0; -5.6383887E-11;  1.0000000E+04;  0.0000000E+00;  0.0000000E+00;  1.0000000E+04;  0.0000000E+00;  1.0000000E+04; -5.2082439E-11;  0.0000000E+00; -4.3014472E-12;  8.1608453E-10;
 -1.4000000E-01;  9.9999998E-03; -3.0000001E-01;167;  0.0000000E+00;  0.0000000E+00;  0.0000000E+00;  1.0000000E+03;  4.0000001E-01;  0.0000000E+00;0;  0.0000000E+00;  0.0000000E+00;  0.0000000E+00;0; -1.2234054E-10;  1.0000000E+04;  0.0000000E+00;  0.0000000E+00;  1.0000000E+04;  0.0000000E+00;  1.0000000E+04; -1.1690400E-10;  0.0000000E+00; -5.4365444E-12;  9.0171859E-10;
 -1.4000000E-01;  9.9999998E-03; -2.8000000E-01;168;  0.0000000E+00;  0.0000000E+00;  0.0000000E+00;  1.0000000E+03;  4.0000001E-01;  0.0000000E+00;0;  0.0000000E+00;  0.0000000E+00;  0.0000000E+00;0; -2.0505625E-10;  1.0000000E+04;  0.0000000E+00;  0.0000000E+00;  1.0000000E+04;  0.0000000E+00;  1.0000000E+04; -2.0057106E-10;  0.0000000E+00; -4.4851909E-12;  4.8559246E-10;
 -1.4000000E-01;  9.9999998E-03; -2.5999999E-01;169;  0.0000000E+00;  0.0000000E+00;  0.0000000E+00;  1.0000000E+03;  4.0000001E-01;  0.0000000E+00;0;  0.0000000E+00;  0.0000000E+00;  0.0000000E+00;0; -2.8845629E-10;  1.0000000E+04;  0.0000000E+00;  0.0000000E+00;  1.0000000E+04;  0.0000000E+00;  1.0000000E+04; -2.8654895E-10;  0.0000000E+00; -1.9073334E-12;  2.6068717E-10;
 -1.4000000E-01;  9.9999998E-03; -2.3999999E-01;170;  0.0000000E+00;  0.0000000E+00;  0.0000000E+00;  1.0000000E+03;  4.0000001E-01;  0.0000000E+00;0;  0.0000000E+00;  0.0000000E+00;  0.0000000E+00;0; -3.5925574E-10;  1.0000000E+04;  0.0000000E+00;  0.0000000E+00;  1.0000000E+04;  0.0000000E+00;  1.0000000E+04; -3.6011447E-10;  0.0000000E+00;  8.5873377E-13;  9.9635500E-10;
 -1.4000000E-01;  9.9999998E-03; -2.2000000E-01;171;  0.0000000E+00;  0.0000000E+00;  0.0000000E+00;  1.0000000E+03;  4.0000001E-01;  0.0000000E+00;0;  0.0000000E+00;  0.0000000E+00;  0.0000000E+00;0; -4.1240245E-10;  1.0000000E+04;  0.0000000E+00;  0.0000000E+00;  1.0000000E+04;  0.0000000E+00;  1.0000000E+04; -4.1475565E-10;  0.0000000E+00;  2.3531886E-12;  1.4022673E-09;
 -1.4000000E-01;  9.9999998E-03; -2.0000000E-01;172;  0.0000000E+00;  0.0000000E+00;  0.0000000E+00;  1.0000000E+03;  4.0000001E-01;  0.0000000E+00;0;  0.0000000E+00;  0.0000000E+00;  0.0000000E+00;0; -4.5161364E-10;  1.0000000E+04;  0.0000000E+00;  0.0000000E+00;  1.0000000E+04;  0.0000000E+00;  1.0000000E+04; -4.5412463E-10;  0.0000000E+00;  2.5109897E-12;  1.4797527E-09;
 -1.2000000E-01;  9.9999998E-03; -3.4000000E-01;206;  0.0000000E+00;  0.0000000E+00;  0.0000000E+00;  1.0000000E+03;  4.0000001E-01;  0.0000000E+00;0;  0.0000000E+00;  0.0000000E+00;  0.0000000E+00;0; -2.3710361E-10;  1.0000000E+04;  0.0000000E+00;  0.0000000E+00;  1.0000000E+04;  0.0000000E+00;  1.0000000E+04; -2.0460834E-10;  0.0000000E+00; -3.2495267E-11;  6.7911508E-09;
 -1.2000000E-01;  9.9999998E-03; -3.1999999E-01;207;  0.0000000E+00;  0.0000000E+00;  0.0000000E+00;  1.0000000E+03;  4.0000001E-01;  0.0000000E+00;0;  0.0000000E+00;  0.0000000E+00;  0.0000000E+00;0; -5.1210314E-10;  1.0000000E+04;  0.0000000E+00;  0.0000000E+00;  1.0000000E+04;  0.0000000E+00;  1.0000000E+04; -4.6694160E-10;  0.0000000E+00; -4.5161555E-11;  8.9026626E-09;
 -1.2000000E-01;  9.9999998E-03; -3.0000001E-01;208;  0.0000000E+00;  0.0000000E+00;  0.0000000E+00;  1.0000000E+03;  4.0000001E-01;  0.0000000E+00;0;  0.0000000E+00;  0.0000000E+00;  0.0000000E+00;0; -8.9441071E-10;  1.0000000E+04;  0.0000000E+00;  0.0000000E+00;  1.0000000E+04;  0.0000000E+00;  1.0000000E+04; -8.4820867E-10;  0.0000000E+00; -4.6202018E-11;  7.9894997E-09;
 -1.2000000E-01;  9.9999998E-03; -2.8000000E-01;209;  0.0000000E+00;  0.0000000E+00;  0.0000000E+00;  1.0000000E+03;  4.0000001E-01;  0.0000000E+00;0;  0.0000000E+00;  0.0000000E+00;  0.0000000E+00;0; -1.3399241E-09;  1.0000000E+04;  0.0000000E+00;  0.0000000E+00;  1.0000000E+04;  0.0000000E+00;  1.0000000E+04; -1.3053766E-09;  0.0000000E+00; -3.4547469E-11;  4.0893759E-09;
 -1.2000000E-01;  9.9999998E-03; -2.5999999E-01;210;  0.0000000E+00;  0.0000000E+00;  0.0000000E+00;  1.0000000E+03;  4.0000001E-01;  0.0000000E+00;0;  0.0000000E+00;  0.0000000E+00;  0.0000000E+00;0; -1.7850171E-09;  1.0000000E+04;  0.0000000E+00;  0.0000000E+00;  1.0000000E+04;  0.0000000E+00;  1.0000000E+04; -1.7704137E-09;  0.0000000E+00; -1.4603464E-11;  1.5061372E-09;
 -1.2000000E-01;  9.9999998E-03; -2.3999999E-01;211;  0.0000000E+00;  0.0000000E+00;  0.0000000E+00;  1.0000000E+03;  4.0000001E-01;  0.0000000E+00;0;  0.0000000E+00;  0.0000000E+00;  0.0000000E+00;0; -2.1785529E-09;  1.0000000E+04;  0.0000000E+00;  0.0000000E+00;  1.0000000E+04;  0.0000000E+00;  1.0000000E+04; -2.1841704E-09;  0.0000000E+00;  5.6176010E-12;  6.8029742E-09;
 -1.2000000E-01;  9.9999998E-03; -2.2000000E-01;212;  0.0000000E+00;  0.0000000E+00;  0.0000000E+00;  1.0000000E+03;  4.0000001E-01;  0.0000000E+00;0;  0.0000000E+00;  0.0000000E+00;  0.0000000E+00;0; -2.4996016E-09;  1.0000000E+04;  0.0000000E+00;  0.0000000E+00;  1.0000000E+04;  0.0000000E+00;  1.0000000E+04; -2.5187474E-09;  0.0000000E+00;  1.9145848E-11;  1.0229780E-08;
 -1.2000000E-01;  9.9999998E-03; -2.0000000E-01;213;  0.0000000E+00;  0.0000000E+00;  0.0000000E+00;  1.0000000E+03;  4.0000001E-01;  0.0000000E+00;0;  0.0000000E+00;  0.0000000E+00;  0.0000000E+00;0; -2.7515572E-09;  1.0000000E+04;  0.0000000E+00;  0.0000000E+00;  1.0000000E+04;  0.0000000E+00;  1.0000000E+04; -2.7759990E-09;  0.0000000E+00;  2.4441702E-11;  1.1581382E-08;
 -1.0000000E-01;  9.9999998E-03; -3.4000000E-01;247;  0.0000000E+00;  0.0000000E+00;  0.0000000E+00;  1.0000000E+03;  4.0000001E-01;  0.0000000E+00;0;  0.0000000E+00;  0.0000000E+00;  0.0000000E+00;0; -1.2367655E-09;  1.0000000E+04;  0.0000000E+00;  0.0000000E+00;  1.0000000E+04;  0.0000000E+00;  1.0000000E+04; -1.0449306E-09;  0.0000000E+00; -1.9183485E-10;  4.2277453E-08;
 -1.0000000E-01;  9.9999998E-03; -3.1999999E-01;248;  0.0000000E+00;  0.0000000E+00;  0.0000000E+00;  1.0000000E+03;  4.0000001E-01;  0.0000000E+00;0;  0.0000000E+00;  0.0000000E+00;  0.0000000E+00;0; -2.2745439E-09;  1.0000000E+04;  0.0000000E+00;  0.0000000E+00;  1.0000000E+04;  0.0000000E+00;  1.0000000E+04; -2.0476141E-09;  0.0000000E+00; -2.2692989E-10;  4.7355552E-08;
 -1.0000000E-01;  9.9999998E-03; -3.0000001E-01;249;  0.0000000E+00;  0.0000000E+00;  0.0000000E+00;  1.0000000E+03;  4.0000001E-01;  0.0000000E+00;0;  0.0000000E+00;  0.0000000E+00;  0.0000000E+00;0; -3.6267829E-09;  1.0000000E+04;  0.0000000E+00;  0.0000000E+00;  1.0000000E+04;  0.0000000E+00;  1.0000000E+04; -3.4152658E-09;  0.0000000E+00; -2.1151704E-10;  3.9134740E-08;
 -1.0000000E-01;  9.9999998E-03; -2.8000000E-01;250;  0.0000000E+00;  0.0000000E+00;  0.0000000E+00;  1.0000000E+03;  4.0000001E-01;  0.0000000E+00;0;  0.0000000E+00;  0.0000000E+00;  0.0000000E+00;0; -5.1542215E-09;  1.0000000E+04;  0.0000000E+00;  0.0000000E+00;  1.0000000E+04;  0.0000000E+00;  1.0000000E+04; -5.0057265E-09;  0.0000000E+00; -1.4849487E-10;  1.9106277E-08;
 -1.0000000E-01;  9.9999998E-03; -2.5999999E-01;251;  0.0000000E+00;  0.0000000E+00;  0.0000000E+00;  1.0000000E+03;  4.0000001E-01;  0.0000000E+00;0;  0.0000000E+00;  0.0000000E+00;  0.0000000E+00;0; -6.6649877E-09;  1.0000000E+04;  0.0000000E+00;  0.0000000E+00;  1.0000000E+04;  0.0000000E+00;  1.0000000E+04; -6.6078827E-09;  0.0000000E+00; -5.7104890E-11;  6.9180146E-09;
 -1.0000000E-01;  9.9999998E-03; -2.3999999E-01;252;  0.0000000E+00;  0.0000000E+00;  0.0000000E+00;  1.0000000E+03;  4.0000001E-01;  0.0000000E+00;0;  0.0000000E+00;  0.0000000E+00;  0.0000000E+00;0; -8.0136804E-09;  1.0000000E+04;  0.0000000E+00;  0.0000000E+00;  1.0000000E+04;  0.0000000E+00;  1.0000000E+04; -8.0452063E-09;  0.0000000E+00;  3.1525775E-11;  3.0626438E-08;
 -1.0000000E-01;  9.9999998E-03; -2.2000000E-01;253;  0.0000000E+00;  0.0000000E+00;  0.0000000E+00;  1.0000000E+03;  4.0000001E-01;  0.0000000E+00;0;  0.0000000E+00;  0.0000000E+00;  0.0000000E+00;0; -9.1433972E-09;  1.0000000E+04;  0.0000000E+00;  0.0000000E+00;  1.0000000E+04;  0.0000000E+00;  1.0000000E+04; -9.2348182E-09;  0.0000000E+00;  9.1420788E-11;  4.5853120E-08;
 -1.0000000E-01;  9.9999998E-03; -2.0000000E-01;254;  0.0000000E+00;  0.0000000E+00;  0.0000000E+00;  1.0000000E+03;  4.0000001E-01;  0.0000000E+00;0;  0.0000000E+00;  0.0000000E+00;  0.0000000E+00;0; -1.0059874E-08;  1.0000000E+04;  0.0000000E+00;  0.0000000E+00;  1.0000000E+04;  0.0000000E+00;  1.0000000E+04; -1.0177455E-08;  0.0000000E+00;  1.1758150E-10;  5.2117336E-08;
 -7.9999998E-02;  9.9999998E-03; -3.4000000E-01;288;  0.0000000E+00;  0.0000000E+00;  0.0000000E+00;  1.0000000E+03;  4.0000001E-01;  0.0000000E+00;0;  0.0000000E+00;  0.0000000E+00;  0.0000000E+00;0; -4.2432489E-09;  1.0000000E+04;  0.0000000E+00;  0.0000000E+00;  1.0000000E+04;  0.0000000E+00;  1.0000000E+04; -3.5144891E-09;  0.0000000E+00; -7.2875966E-10;  1.7195741E-07;
 -7.9999998E-02;  9.9999998E-03; -3.1999999E-01;289;  0.0000000E+00;  0.0000000E+00;  0.0000000E+00;  1.0000000E+03;  4.0000001E-01;  0.0000000E+00;0;  0.0000000E+00;  0.0000000E+00;  0.0000000E+00;0; -7.2213240E-09;  1.0000000E+04;  0.0000000E+00;  0.0000000E+00;  1.0000000E+04;  0.0000000E+00;  1.0000000E+04; -6.4230745E-09;  0.0000000E+00; -7.9824936E-10;  1.7939203E-07;
 -7.9999998E-02;  9.9999998E-03; -3.0000001E-01;290;  0.0000000E+00;  0.0000000E+00;  0.0000000E+00;  1.0000000E+03;  4.0000001E-01;  0.0000000E+00;0;  0.0000000E+00;  0.0000000E+00;  0.0000000E+00;0; -1.0983154E-08;  1.0000000E+04;  0.0000000E+00;  0.0000000E+00;  1.0000000E+04;  0.0000000E+00;  1.0000000E+04; -1.0274850E-08;  0.0000000E+00; -7.0830330E-10;  1.4211831E-07;
 -7.9999998E-02;  9.9999998E-03; -2.8000000E-01;291;  0.0000000E+00;  0.0000000E+00;  0.0000000E+00;  1.0000000E+03;  4.0000001E-01;  0.0000000E+00;0;  0.0000000E+00;  0.0000000E+00;  0.0000000E+00;0; -1.5155505E-08;  1.0000000E+04;  0.0000000E+00;  0.0000000E+00;  1.0000000E+04;  0.0000000E+00;  1.0000000E+04; -1.4678273E-08;  0.0000000E+00; -4.7723309E-10;  6.7374657E-08;
 -7.9999998E-02;  9.9999998E-03; -2.5999999E-01;292;  0.0000000E+00;  0.0000000E+00;  0.0000000E+00;  1.0000000E+03;  4.0000001E-01;  0.0000000E+00;0;  0.0000000E+00;  0.0000000E+00;  0.0000000E+00;0; -1.9249180E-08;  1.0000000E+04;  0.0000000E+00;  0.0000000E+00;  1.0000000E+04;  0.0000000E+00;  1.0000000E+04; -1.9082206E-08;  0.0000000E+00; -1.6697378E-10;  2.4934097E-08;
 -7.9999998E-02;  9.9999998E-03; -2.3999999E-01;293;  0.0000000E+00;  0.0000000E+00;  0.0000000E+00;  1.0000000E+03;  4.0000001E-01;  0.0000000E+00;0;  0.0000000E+00;  0.0000000E+00;  0.0000000E+00;0; -2.2909420E-08;  1.0000000E+04;  0.0000000E+00;  0.0000000E+00;  1.0000000E+04;  0.0000000E+00;  1.0000000E+04; -2.3036032E-08;  0.0000000E+00;  1.2661154E-10;  1.0731272E-07;
 -7.9999998E-02;  9.9999998E-03; -2.2000000E-01;294;  0.0000000E+00;  0.0000000E+00;  0.0000000E+00;  1.0000000E+03;  4.0000001E-01;  0.0000000E+00;0;  0.0000000E+00;  0.0000000E+00;  0.0000000E+00;0; -2.6008522E-08;  1.0000000E+04;  0.0000000E+00;  0.0000000E+00;  1.0000000E+04;  0.0000000E+00;  1.0000000E+04; -2.6332899E-08;  0.0000000E+00;  3.2437614E-10;  1.5959920E-07;
 -7.9999998E-02;  9.9999998E-03; -2.0000000E-01;295;  0.0000000E+00;  0.0000000E+00;  0.0000000E+00;  1.0000000E+03;  4.0000001E-01;  0.0000000E+00;0;  0.0000000E+00;  0.0000000E+00;  0.0000000E+00;0; -2.8563488E-08;  1.0000000E+04;  0.0000000E+00;  0.0000000E+00;  1.0000000E+04;  0.0000000E+00;  1.0000000E+04; -2.8974801E-08;  0.0000000E+00;  4.1131401E-10;  1.8044221E-07;
 -5.9999999E-02;  9.9999998E-03; -3.4000000E-01;329;  0.0000000E+00;  0.0000000E+00;  0.0000000E+00;  1.0000000E+03;  4.0000001E-01;  0.0000000E+00;0;  0.0000000E+00;  0.0000000E+00;  0.0000000E+00;0; -1.1513672E-08;  1.0000000E+04;  0.0000000E+00;  0.0000000E+00;  1.0000000E+04;  0.0000000E+00;  1.0000000E+04; -9.3476578E-09;  0.0000000E+00; -2.1660143E-09;  5.5479774E-07;
 -5.9999999E-02;  9.9999998E-03; -3.1999999E-01;330;  0.0000000E+00;  0.0000000E+00;  0.0000000E+00;  1.0000000E+03;  4.0000001E-01;  0.0000000E+00;0;  0.0000000E+00;  0.0000000E+00;  0.0000000E+00;0; -1.8760186E-08;  1.0000000E+04;  0.0000000E+00;  0.0000000E+00;  1.0000000E+04;  0.0000000E+00;  1.0000000E+04; -1.6483797E-08;  0.0000000E+00; -2.2763880E-09;  5.5804253E-07;
 -5.9999999E-02;  9.9999998E-03; -3.0000001E-01;331;  0.0000000E+00;  0.0000000E+00;  0.0000000E+00;  1.0000000E+03;  4.0000001E-01;  0.0000000E+00;0;  0.0000000E+00;  0.0000000E+00;  0.0000000E+00;0; -2.7746353E-08;  1.0000000E+04;  0.0000000E+00;  0.0000000E+00;  1.0000000E+04;  0.0000000E+00;  1.0000000E+04; -2.5784139E-08;  0.0000000E+00; -1.9622137E-09;  4.3241522E-07;
 -5.9999999E-02;  9.9999998E-03; -2.8000000E-01;332;  0.0000000E+00;  0.0000000E+00;  0.0000000E+00;  1.0000000E+03;  4.0000001E-01;  0.0000000E+00;0;  0.0000000E+00;  0.0000000E+00;  0.0000000E+00;0; -3.7592631E-08;  1.0000000E+04;  0.0000000E+00;  0.0000000E+00;  1.0000000E+04;  0.0000000E+00;  1.0000000E+04; -3.6308215E-08;  0.0000000E+00; -1.2844150E-09;  2.0209524E-07;
 -5.9999999E-02;  9.9999998E-03; -2.5999999E-01;333;  0.0000000E+00;  0.0000000E+00;  0.0000000E+00;  1.0000000E+03;  4.0000001E-01;  0.0000000E+00;0;  0.0000000E+00;  0.0000000E+00;  0.0000000E+00;0; -4.7177419E-08;  1.0000000E+04;  0.0000000E+00;  0.0000000E+00;  1.0000000E+04;  0.0000000E+00;  1.0000000E+04; -4.6764985E-08;  0.0000000E+00; -4.1243481E-10;  7.4488362E-08;
 -5.9999999E-02;  9.9999998E-03; -2.3999999E-01;334;  0.0000000E+00;  0.0000000E+00;  0.0000000E+00;  1.0000000E+03;  4.0000001E-01;  0.0000000E+00;0;  0.0000000E+00;  0.0000000E+00;  0.0000000E+00;0; -5.5728499E-08;  1.0000000E+04;  0.0000000E+00;  0.0000000E+00;  1.0000000E+04;  0.0000000E+00;  1.0000000E+04; -5.6126897E-08;  0.0000000E+00;  3.9839843E-10;  3.1803452E-07;
 -5.9999999E-02;  9.9999998E-03; -2.2000000E-01;335;  0.0000000E+00;  0.0000000E+00;  0.0000000E+00;  1.0000000E+03;  4.0000001E-01;  0.0000000E+00;0;  0.0000000E+00;  0.0000000E+00;  0.0000000E+00;0; -6.3001117E-08;  1.0000000E+04;  0.0000000E+00;  0.0000000E+00;  1.0000000E+04;  0.0000000E+00;  1.0000000E+04; -6.3942409E-08;  0.0000000E+00;  9.4129060E-10;  4.7117925E-07;
 -5.9999999E-02;  9.9999998E-03; -2.0000000E-01;336;  0.0000000E+00;  0.0000000E+00;  0.0000000E+00;  1.0000000E+03;  4.0000001E-01;  0.0000000E+00;0;  0.0000000E+00;  0.0000000E+00;  0.0000000E+00;0; -6.9050458E-08;  1.0000000E+04;  0.0000000E+00;  0.0000000E+00;  1.0000000E+04;  0.0000000E+00;  1.0000000E+04; -7.0228687E-08;  0.0000000E+00;  1.1782266E-09;  5.3042089E-07;
 -3.9999999E-02;  9.9999998E-03; -3.4000000E-01;370;  0.0000000E+00;  0.0000000E+00;  0.0000000E+00;  1.0000000E+03;  4.0000001E-01;  0.0000000E+00;0;  0.0000000E+00;  0.0000000E+00;  0.0000000E+00;0; -2.6934657E-08;  1.0000000E+04;  0.0000000E+00;  0.0000000E+00;  1.0000000E+04;  0.0000000E+00;  1.0000000E+04; -2.1419945E-08;  0.0000000E+00; -5.5147114E-09;  1.5534625E-06;
 -3.9999999E-02;  9.9999998E-03; -3.1999999E-01;371;  0.0000000E+00;  0.0000000E+00;  0.0000000E+00;  1.0000000E+03;  4.0000001E-01;  0.0000000E+00;0;  0.0000000E+00;  0.0000000E+00;  0.0000000E+00;0; -4.2739163E-08;  1.0000000E+04;  0.0000000E+00;  0.0000000E+00;  1.0000000E+04;  0.0000000E+00;  1.0000000E+04; -3.7077154E-08;  0.0000000E+00; -5.6620091E-09;  1.5332131E-06;
 -3.9999999E-02;  9.9999998E-03; -3.0000001E-01;372;  0.0000000E+00;  0.0000000E+00;  0.0000000E+00;  1.0000000E+03;  4.0000001E-01;  0.0000000E+00;0;  0.0000000E+00;  0.0000000E+00;  0.0000000E+00;0; -6.2090919E-08;  1.0000000E+04;  0.0000000E+00;  0.0000000E+00;  1.0000000E+04;  0.0000000E+00;  1.0000000E+04; -5.7298529E-08;  0.0000000E+00; -4.7923900E-09;  1.1746990E-06;
 -3.9999999E-02;  9.9999998E-03; -2.8000000E-01;373;  0.0000000E+00;  0.0000000E+00;  0.0000000E+00;  1.0000000E+03;  4.0000001E-01;  0.0000000E+00;0;  0.0000000E+00;  0.0000000E+00;  0.0000000E+00;0; -8.3073012E-08;  1.0000000E+04;  0.0000000E+00;  0.0000000E+00;  1.0000000E+04;  0.0000000E+00;  1.0000000E+04; -8.0005485E-08;  0.0000000E+00; -3.0675262E-09;  5.4617158E-07;
 -3.9999999E-02;  9.9999998E-03; -2.5999999E-01;374;  0.0000000E+00;  0.0000000E+00;  0.0000000E+00;  1.0000000E+03;  4.0000001E-01;  0.0000000E+00;0;  0.0000000E+00;  0.0000000E+00;  0.0000000E+00;0; -1.0332236E-07;  1.0000000E+04;  0.0000000E+00;  0.0000000E+00;  1.0000000E+04;  0.0000000E+00;  1.0000000E+04; -1.0241268E-07;  0.0000000E+00; -9.0968327E-10;  1.9541021E-07;
 -3.9999999E-02;  9.9999998E-03; -2.3999999E-01;375;  0.0000000E+00;  0.0000000E+00;  0.0000000E+00;  1.0000000E+03;  4.0000001E-01;  0.0000000E+00;0;  0.0000000E+00;  0.0000000E+00;  0.0000000E+00;0; -1.2131645E-07;  1.0000000E+04;  0.0000000E+00;  0.0000000E+00;  1.0000000E+04;  0.0000000E+00;  1.0000000E+04; -1.2238129E-07;  0.0000000E+00;  1.0648533E-09;  8.4131767E-07;
 -3.9999999E-02;  9.9999998E-03; -2.2000000E-01;376;  0.0000000E+00;  0.0000000E+00;  0.0000000E+00;  1.0000000E+03;  4.0000001E-01;  0.0000000E+00;0;  0.0000000E+00;  0.0000000E+00;  0.0000000E+00;0; -1.3664567E-07;  1.0000000E+04;  0.0000000E+00;  0.0000000E+00;  1.0000000E+04;  0.0000000E+00;  1.0000000E+04; -1.3902117E-07;  0.0000000E+00;  2.3755060E-09;  1.2441660E-06;
 -3.9999999E-02;  9.9999998E-03; -2.0000000E-01;377;  0.0000000E+00;  0.0000000E+00;  0.0000000E+00;  1.0000000E+03;  4.0000001E-01;  0.0000000E+00;0;  0.0000000E+00;  0.0000000E+00;  0.0000000E+00;0; -1.4946411E-07;  1.0000000E+04;  0.0000000E+00;  0.0000000E+00;  1.0000000E+04;  0.0000000E+00;  1.0000000E+04; -1.5240531E-07;  0.0000000E+00;  2.9411955E-09;  1.3964335E-06;
 -2.0000000E-02;  9.9999998E-03; -3.4000000E-01;411;  0.0000000E+00;  0.0000000E+00;  0.0000000E+00;  1.0000000E+03;  4.0000001E-01;  0.0000000E+00;0;  0.0000000E+00;  0.0000000E+00;  0.0000000E+00;0; -5.7275699E-08;  1.0000000E+04;  0.0000000E+00;  0.0000000E+00;  1.0000000E+04;  0.0000000E+00;  1.0000000E+04; -4.4636241E-08;  0.0000000E+00; -1.2639457E-08;  3.9635074E-06;
 -2.0000000E-02;  9.9999998E-03; -3.1999999E-01;412;  0.0000000E+00;  0.0000000E+00;  0.0000000E+00;  1.0000000E+03;  4.0000001E-01;  0.0000000E+00;0;  0.0000000E+00;  0.0000000E+00;  0.0000000E+00;0; -8.9328942E-08;  1.0000000E+04;  0.0000000E+00;  0.0000000E+00;  1.0000000E+04;  0.0000000E+00;  1.0000000E+04; -7.6525538E-08;  0.0000000E+00; -1.2803402E-08;  3.8734706E-06;
 -2.0000000E-02;  9.9999998E-03; -3.0000001E-01;413;  0.0000000E+00;  0.0000000E+00;  0.0000000E+00;  1.0000000E+03;  4.0000001E-01;  0.0000000E+00;0;  0.0000000E+00;  0.0000000E+00;  0.0000000E+00;0; -1.2814249E-07;  1.0000000E+04;  0.0000000E+00;  0.0000000E+00;  1.0000000E+04;  0.0000000E+00;  1.0000000E+04; -1.1744109E-07;  0.0000000E+00; -1.0701405E-08;  2.9499988E-06;
 -2.0000000E-02;  9.9999998E-03; -2.8000000E-01;414;  0.0000000E+00;  0.0000000E+00;  0.0000000E+00;  1.0000000E+03;  4.0000001E-01;  0.0000000E+00;0;  0.0000000E+00;  0.0000000E+00;  0.0000000E+00;0; -1.6978171E-07;  1.0000000E+04;  0.0000000E+00;  0.0000000E+00;  1.0000000E+04;  0.0000000E+00;  1.0000000E+04; -1.6306203E-07;  0.0000000E+00; -6.7196928E-09;  1.3697212E-06;
 -2.0000000E-02;  9.9999998E-03; -2.5999999E-01;415;  0.0000000E+00;  0.0000000E+00;  0.0000000E+00;  1.0000000E+03;  4.0000001E-01;  0.0000000E+00;0;  0.0000000E+00;  0.0000000E+00;  0.0000000E+00;0; -2.0961026E-07;  1.0000000E+04;  0.0000000E+00;  0.0000000E+00;  1.0000000E+04;  0.0000000E+00;  1.0000000E+04; -2.0776172E-07;  0.0000000E+00; -1.8485516E-09;  4.7006344E-07;
 -2.0000000E-02;  9.9999998E-03; -2.3999999E-01;416;  0.0000000E+00;  0.0000000E+00;  0.0000000E+00;  1.0000000E+03;  4.0000001E-01;  0.0000000E+00;0;  0.0000000E+00;  0.0000000E+00;  0.0000000E+00;0; -2.4486272E-07;  1.0000000E+04;  0.0000000E+00;  0.0000000E+00;  1.0000000E+04;  0.0000000E+00;  1.0000000E+04; -2.4739992E-07;  0.0000000E+00;  2.5371942E-09;  2.0570553E-06;
 -2.0000000E-02;  9.9999998E-03; -2.2000000E-01;417;  0.0000000E+00;  0.0000000E+00;  0.0000000E+00;  1.0000000E+03;  4.0000001E-01;  0.0000000E+00;0;  0.0000000E+00;  0.0000000E+00;  0.0000000E+00;0; -2.7490361E-07;  1.0000000E+04;  0.0000000E+00;  0.0000000E+00;  1.0000000E+04;  0.0000000E+00;  1.0000000E+04; -2.8032483E-07;  0.0000000E+00;  5.4212106E-09;  3.0404426E-06;
 -2.0000000E-02;  9.9999998E-03; -2.0000000E-01;418;  0.0000000E+00;  0.0000000E+00;  0.0000000E+00;  1.0000000E+03;  4.0000001E-01;  0.0000000E+00;0;  0.0000000E+00;  0.0000000E+00;  0.0000000E+00;0; -3.0009645E-07;  1.0000000E+04;  0.0000000E+00;  0.0000000E+00;  1.0000000E+04;  0.0000000E+00;  1.0000000E+04; -3.0674735E-07;  0.0000000E+00;  6.6509069E-09;  3.4060231E-06;
  0.0000000E+00;  9.9999998E-03; -3.4000000E-01;452;  0.0000000E+00;  0.0000000E+00;  0.0000000E+00;  1.0000000E+03;  4.0000001E-01;  0.0000000E+00;0;  0.0000000E+00;  0.0000000E+00;  0.0000000E+00;0; -1.1441868E-07;  1.0000000E+04;  0.0000000E+00;  0.0000000E+00;  1.0000000E+04;  0.0000000E+00;  1.0000000E+04; -8.7547818E-08;  0.0000000E+00; -2.6870861E-08;  9.4753441E-06;
  0.0000000E+00;  9.9999998E-03; -3.1999999E-01;453;  0.0000000E+00;  0.0000000E+00;  0.0000000E+00;  1.0000000E+03;  4.0000001E-01;  0.0000000E+00;0;  0.0000000E+00;  0.0000000E+00;  0.0000000E+00;0; -1.7629289E-07;  1.0000000E+04;  0.0000000E+00;  0.0000000E+00;  1.0000000E+04;  0.0000000E+00;  1.0000000E+04; -1.4929009E-07;  0.0000000E+00; -2.7002800E-08;  9.2117043E-06;
  0.0000000E+00;  9.9999998E-03; -3.0000001E-01;454;  0.0000000E+00;  0.0000000E+00;  0.0000000E+00;  1.0000000E+03;  4.0000001E-01;  0.0000000E+00;0;  0.0000000E+00;  0.0000000E+00;  0.0000000E+00;0; -2.5038489E-07;  1.0000000E+04;  0.0000000E+00;  0.0000000E+00;  1.0000000E+04;  0.0000000E+00;  1.0000000E+04; -2.2804875E-07;  0.0000000E+00; -2.2336145E-08;  6.9873372E-06;
  2.0000000E-02;  9.9999998E-03; -3.4000000E-01;464;  0.0000000E+00;  0.0000000E+00;  0.0000000E+00;  1.0000000E+03;  4.0000001E-01;  0.0000000E+00;0;  0.0000000E+00;  0.0000000E+00;  0.0000000E+00;0; -2.1933208E-07;  1.0000000E+04;  0.0000000E+00;  0.0000000E+00;  1.0000000E+04;  0.0000000E+00;  1.0000000E+04; -1.6528874E-07;  0.0000000E+00; -5.4043340E-08;  2.1578877E-05;
  2.0000000E-02;  9.9999998E-03; -3.1999999E-01;465;  0.0000000E+00;  0.0000000E+00;  0.0000000E+00;  1.0000000E+03;  4.0000001E-01;  0.0000000E+00;0;  0.0000000E+00;  0.0000000E+00;  0.0000000E+00;0; -3.3479969E-07;  1.0000000E+04;  0.0000000E+00;  0.0000000E+00;  1.0000000E+04;  0.0000000E+00;  1.0000000E+04; -2.8077389E-07;  0.0000000E+00; -5.4025811E-08;  2.0909751E-05;
  3.9999999E-02;  9.9999998E-03; -3.4000000E-01;474;  0.0000000E+00;  0.0000000E+00;  0.0000000E+00;  1.0000000E+03;  4.0000001E-01;  0.0000000E+00;0;  0.0000000E+00;  0.0000000E+00;  0.0000000E+00;0; -4.0884328E-07;  1.0000000E+04;  0.0000000E+00;  0.0000000E+00;  1.0000000E+04;  0.0000000E+00;  1.0000000E+04; -3.0453404E-07;  0.0000000E+00; -1.0430922E-07;  4.7286525E-05;
  3.9999999E-02;  9.9999998E-03; -3.1999999E-01;475;  0.0000000E+00;  0.0000000E+00;  0.0000000E+00;  1.0000000E+03;  4.0000001E-01;  0.0000000E+00;0;  0.0000000E+00;  0.0000000E+00;  0.0000000E+00;0; -6.1947992E-07;  1.0000000E+04;  0.0000000E+00;  0.0000000E+00;  1.0000000E+04;  0.0000000E+00;  1.0000000E+04; -5.1564160E-07;  0.0000000E+00; -1.0383830E-07;  4.5690653E-05;
  5.9999999E-02;  9.9999998E-03; -3.4000000E-01;484;  0.0000000E+00;  0.0000000E+00;  0.0000000E+00;  1.0000000E+03;  4.0000001E-01;  0.0000000E+00;0;  0.0000000E+00;  0.0000000E+00;  0.0000000E+00;0; -7.4662466E-07;  1.0000000E+04;  0.0000000E+00;  0.0000000E+00;  1.0000000E+04;  0.0000000E+00;  1.0000000E+04; -5.5142954E-07;  0.0000000E+00; -1.9519516E-07;  1.0028492E-04;
  5.9999999E-02;  9.9999998E-03; -3.1999999E-01;485;  0.0000000E+00;  0.0000000E+00;  0.0000000E+00;  1.0000000E+03;  4.0000001E-01;  0.0000000E+00;0;  0.0000000E+00;  0.0000000E+00;  0.0000000E+00;0; -1.1239199E-06;  1.0000000E+04;  0.0000000E+00;  0.0000000E+00;  1.0000000E+04;  0.0000000E+00;  1.0000000E+04; -9.3028541E-07;  0.0000000E+00; -1.9363453E-07;  9.6635857E-05;
  7.9999998E-02;  9.9999998E-03; -3.4000000E-01;494;  0.0000000E+00;  0.0000000E+00;  0.0000000E+00;  1.0000000E+03;  4.0000001E-01;  0.0000000E+00;0;  0.0000000E+00;  0.0000000E+00;  0.0000000E+00;0; -1.3492177E-06;  1.0000000E+04;  0.0000000E+00;  0.0000000E+00;  1.0000000E+04;  0.0000000E+00;  1.0000000E+04; -9.9232591E-07;  0.0000000E+00; -3.5689169E-07;  2.0712070E-04;
  7.9999998E-02;  9.9999998E-03; -3.1999999E-01;495;  0.0000000E+00;  0.0000000E+00;  0.0000000E+00;  1.0000000E+03;  4.0000001E-01;  0.0000000E+00;0;  0.0000000E+00;  0.0000000E+00;  0.0000000E+00;0; -2.0148364E-06;  1.0000000E+04;  0.0000000E+00;  0.0000000E+00;  1.0000000E+04;  0.0000000E+00;  1.0000000E+04; -1.6620273E-06;  0.0000000E+00; -3.5280908E-07;  1.9895074E-04;
  1.0000000E-01;  9.9999998E-03; -3.4000000E-01;504;  0.0000000E+00;  0.0000000E+00;  0.0000000E+00;  1.0000000E+03;  4.0000001E-01;  0.0000000E+00;0;  0.0000000E+00;  0.0000000E+00;  0.0000000E+00;0; -2.4465512E-06;  1.0000000E+04;  0.0000000E+00;  0.0000000E+00;  1.0000000E+04;  0.0000000E+00;  1.0000000E+04; -1.8037188E-06;  0.0000000E+00; -6.4283239E-07;  4.2988482E-04;
  1.0000000E-01;  9.9999998E-03; -3.1999999E-01;505;  0.0000000E+00;  0.0000000E+00;  0.0000000E+00;  1.0000000E+03;  4.0000001E-01;  0.0000000E+00;0;  0.0000000E+00;  0.0000000E+00;  0.0000000E+00;0; -3.6140900E-06;  1.0000000E+04;  0.0000000E+00;  0.0000000E+00;  1.0000000E+04;  0.0000000E+00;  1.0000000E+04; -2.9811151E-06;  0.0000000E+00; -6.3297477E-07;  4.2116371E-04;
  1.2000000E-01;  9.9999998E-03; -3.4000000E-01;514;  0.0000000E+00;  0.0000000E+00;  0.0000000E+00;  1.0000000E+03;  4.0000001E-01;  0.0000000E+00;0;  0.0000000E+00;  0.0000000E+00;  0.0000000E+00;0; -4.4990575E-06;  1.0000000E+04;  0.0000000E+00;  0.0000000E+00;  1.0000000E+04;  0.0000000E+00;  1.0000000E+04; -3.3476488E-06;  0.0000000E+00; -1.1514086E-06;  9.9890248E-04;
  1.2000000E-01;  9.9999998E-03; -3.1999999E-01;515;  0.0000000E+00;  0.0000000E+00;  0.0000000E+00;  1.0000000E+03;  4.0000001E-01;  0.0000000E+00;0;  0.0000000E+00;  0.0000000E+00;  0.0000000E+00;0; -6.5488343E-06;  1.0000000E+04;  0.0000000E+00;  0.0000000E+00;  1.0000000E+04;  0.0000000E+00;  1.0000000E+04; -5.4202237E-06;  0.0000000E+00; -1.1286107E-06;  1.1347933E-03;
  1.4000000E-01;  9.9999998E-03; -3.4000000E-01;524;  0.0000000E+00;  0.0000000E+00;  0.0000000E+00;  1.0000000E+03;  4.0000001E-01;  0.0000000E+00;0;  0.0000000E+00;  0.0000000E+00;  0.0000000E+00;0; -8.4029643E-06;  1.0000000E+04;  0.0000000E+00;  0.0000000E+00;  1.0000000E+04;  0.0000000E+00;  1.0000000E+04; -6.3329326E-06;  0.0000000E+00; -2.0700315E-06;  2.8175102E-03;
  1.4000000E-01;  9.9999998E-03; -3.1999999E-01;525;  0.0000000E+00;  0.0000000E+00;  0.0000000E+00;  1.0000000E+03;  4.0000001E-01;  0.0000000E+00;0;  0.0000000E+00;  0.0000000E+00;  0.0000000E+00;0; -1.2001001E-05;  1.0000000E+04;  0.0000000E+00;  0.0000000E+00;  1.0000000E+04;  0.0000000E+00;  1.0000000E+04; -9.9803647E-06;  0.0000000E+00; -2.0206367E-06;  3.8978008E-03;
  1.6000000E-01;  9.9999998E-03; -3.4000000E-01;534;  0.0000000E+00;  0.0000000E+00;  0.0000000E+00;  1.0000000E+03;  4.0000001E-01;  0.0000000E+00;0;  0.0000000E+00;  0.0000000E+00;  0.0000000E+00;0; -1.5730282E-05;  1.0000000E+04;  0.0000000E+00;  0.0000000E+00;  1.0000000E+04;  0.0000000E+00;  1.0000000E+04; -1.1968524E-05;  0.0000000E+00; -3.7617590E-06;  8.3924010E-03;
  1.6000000E-01;  9.9999998E-03; -3.1999999E-01;535;  0.0000000E+00;  0.0000000E+00;  0.0000000E+00;  1.0000000E+03;  4.0000001E-01;  0.0000000E+00;0;  0.0000000E+00;  0.0000000E+00;  0.0000000E+00;0; -2.2002250E-05;  1.0000000E+04;  0.0000000E+00;  0.0000000E+00;  1.0000000E+04;  0.0000000E+00;  1.0000000E+04; -1.8336004E-05;  0.0000000E+00; -3.6662466E-06;  1.2956666E-02;
  1.8000001E-01;  9.9999998E-03; -3.4000000E-01;544;  0.0000000E+00;  0.0000000E+00;  0.0000000E+00;  1.0000000E+03;  4.0000001E-01;  0.0000000E+00;0;  0.0000000E+00;  0.0000000E+00;  0.0000000E+00;0; -2.8676068E-05;  1.0000000E+04;  0.0000000E+00;  0.0000000E+00;  1.0000000E+04;  0.0000000E+00;  1.0000000E+04; -2.1762316E-05;  0.0000000E+00; -6.9137509E-06;  2.2308322E-02;
  1.8000001E-01;  9.9999998E-03; -3.1999999E-01;545;  0.0000000E+00;  0.0000000E+00;  0.0000000E+00;  1.0000000E+03;  4.0000001E-01;  0.0000000E+00;0;  0.0000000E+00;  0.0000000E+00;  0.0000000E+00;0; -3.9457744E-05;  1.0000000E+04;  0.0000000E+00;  0.0000000E+00;  1.0000000E+04;  0.0000000E+00;  1.0000000E+04; -3.2695996E-05;  0.0000000E+00; -6.7617457E-06;  3.6845420E-02;
  2.0000000E-01;  9.9999998E-03; -3.4000000E-01;553;  0.0000000E+00;  0.0000000E+00;  0.0000000E+00;  1.0000000E+03;  4.0000001E-01;  0.0000000E+00;0;  0.0000000E+00;  0.0000000E+00;  0.0000000E+00;0; -4.9638576E-05;  1.0000000E+04;  0.0000000E+00;  0.0000000E+00;  1.0000000E+04;  0.0000000E+00;  1.0000000E+04; -3.6898109E-05;  0.0000000E+00; -1.2740468E-05;  4.8641849E-02;
  2.0000000E-01;  9.9999998E-03; -3.1999999E-01;554;  0.0000000E+00;  0.0000000E+00;  0.0000000E+00;  1.0000000E+03;  4.0000001E-01;  0.0000000E+00;0;  0.0000000E+00;  0.0000000E+00;  0.0000000E+00;0; -6.7705594E-05;  1.0000000E+04;  0.0000000E+00;  0.0000000E+00;  1.0000000E+04;  0.0000000E+00;  1.0000000E+04; -5.5152799E-05;  0.0000000E+00; -1.2552798E-05;  8.5613444E-02;
 -2.2000000E-01;  9.9999998E-03; -1.8000001E-01;10;  0.0000000E+00;  0.0000000E+00;  0.0000000E+00;  1.0000000E+03;  4.0000001E-01;  0.0000000E+00;0;  0.0000000E+00;  0.0000000E+00;  0.0000000E+00;0;  0.0000000E+00;  1.0000000E+04;  0.0000000E+00;  0.0000000E+00;  1.0000000E+04;  0.0000000E+00;  1.0000000E+04;  0.0000000E+00;  0.0000000E+00;  0.0000000E+00;  0.0000000E+00;
 -2.2000000E-01;  9.9999998E-03; -1.6000000E-01;11;  0.0000000E+00;  0.0000000E+00;  0.0000000E+00;  1.0000000E+03;  4.0000001E-01;  0.0000000E+00;0;  0.0000000E+00;  0.0000000E+00;  0.0000000E+00;0;  0.0000000E+00;  1.0000000E+04;  0.0000000E+00;  0.0000000E+00;  1.0000000E+04;  0.0000000E+00;  1.0000000E+04;  0.0000000E+00;  0.0000000E+00;  0.0000000E+00;  0.0000000E+00;
 -2.2000000E-01;  9.9999998E-03; -1.4000000E-01;12;  0.0000000E+00;  0.0000000E+00;  0.0000000E+00;  1.0000000E+03;  4.0000001E-01;  0.0000000E+00;0;  0.0000000E+00;  0.0000000E+00;  0.0000000E+00;0;  0.0000000E+00;  1.0000000E+04;  0.0000000E+00;  0.0000000E+00;  1.0000000E+04;  0.0000000E+00;  1.0000000E+04;  0.0000000E+00;  0.0000000E+00;  0.0000000E+00;  0.0000000E+00;
 -2.2000000E-01;  9.9999998E-03; -1.2000000E-01;13;  0.0000000E+00;  0.0000000E+00;  0.0000000E+00;  1.0000000E+03;  4.0000001E-01;  0.0000000E+00;0;  0.0000000E+00;  0.0000000E+00;  0.0000000E+00;0;  0.0000000E+00;  1.0000000E+04;  0.0000000E+00;  0.0000000E+00;  1.0000000E+04;  0.0000000E+00;  1.0000000E+04;  0.0000000E+00;  0.0000000E+00;  0.0000000E+00;  0.0000000E+00;
 -2.2000000E-01;  9.9999998E-03; -1.0000000E-01;14;  0.0000000E+00;  0.0000000E+00;  0.0000000E+00;  1.0000000E+03;  4.0000001E-01;  0.0000000E+00;0;  0.0000000E+00;  0.0000000E+00;  0.0000000E+00;0;  0.0000000E+00;  1.0000000E+04;  0.0000000E+00;  0.0000000E+00;  1.0000000E+04;  0.0000000E+00;  1.0000000E+04;  0.0000000E+00;  0.0000000E+00;  0.0000000E+00;  0.0000000E+00;
 -2.2000000E-01;  9.9999998E-03; -7.9999998E-02;15;  0.0000000E+00;  0.0000000E+00;  0.0000000E+00;  1.0000000E+03;  4.0000001E-01;  0.0000000E+00;0;  0.0000000E+00;  0.0000000E+00;  0.0000000E+00;0;  0.0000000E+00;  1.0000000E+04;  0.0000000E+00;  0.0000000E+00;  1.0000000E+04;  0.0000000E+00;  1.0000000E+04;  0.0000000E+00;  0.0000000E+00;  0.0000000E+00;  0.0000000E+00;
 -2.2000000E-01;  9.9999998E-03; -5.9999999E-02;16;  0.0000000E+00;  0.0000000E+00;  0.0000000E+00;  1.0000000E+03;  4.0000001E-01;  0.0000000E+00;0;  0.0000000E+00;  0.0000000E+00;  0.0000000E+00;0;  0.0000000E+00;  1.0000000E+04;  0.0000000E+00;  0.0000000E+00;  1.0000000E+04;  0.0000000E+00;  1.0000000E+04;  0.0000000E+00;  0.0000000E+00;  0.0000000E+00;  0.0000000E+00;
 -2.2000000E-01;  9.9999998E-03; -3.9999999E-02;17;  0.0000000E+00;  0.0000000E+00;  0.0000000E+00;  1.0000000E+03;  4.0000001E-01;  0.0000000E+00;0;  0.0000000E+00;  0.0000000E+00;  0.0000000E+00;0;  0.0000000E+00;  1.0000000E+04;  0.0000000E+00;  0.0000000E+00;  1.0000000E+04;  0.0000000E+00;  1.0000000E+04;  0.0000000E+00;  0.0000000E+00;  0.0000000E+00;  0.0000000E+00;
 -2.2000000E-01;  9.9999998E-03; -2.0000000E-02;18;  0.0000000E+00;  0.0000000E+00;  0.0000000E+00;  1.0000000E+03;  4.0000001E-01;  0.0000000E+00;0;  0.0000000E+00;  0.0000000E+00;  0.0000000E+00;0;  0.0000000E+00;  1.0000000E+04;  0.0000000E+00;  0.0000000E+00;  1.0000000E+04;  0.0000000E+00;  1.0000000E+04;  0.0000000E+00;  0.0000000E+00;  0.0000000E+00;  0.0000000E+00;
 -2.0000000E-01;  9.9999998E-03; -1.8000001E-01;50;  0.0000000E+00;  0.0000000E+00;  0.0000000E+00;  1.0000000E+03;  4.0000001E-01;  0.0000000E+00;0;  0.0000000E+00;  0.0000000E+00;  0.0000000E+00;0;  0.0000000E+00;  1.0000000E+04;  0.0000000E+00;  0.0000000E+00;  1.0000000E+04;  0.0000000E+00;  1.0000000E+04;  0.0000000E+00;  0.0000000E+00;  0.0000000E+00;  0.0000000E+00;
 -2.0000000E-01;  9.9999998E-03; -1.6000000E-01;51;  0.0000000E+00;  0.0000000E+00;  0.0000000E+00;  1.0000000E+03;  4.0000001E-01;  0.0000000E+00;0;  0.0000000E+00;  0.0000000E+00;  0.0000000E+00;0;  0.0000000E+00;  1.0000000E+04;  0.0000000E+00;  0.0000000E+00;  1.0000000E+04;  0.0000000E+00;  1.0000000E+04;  0.0000000E+00;  0.0000000E+00;  0.0000000E+00;  0.0000000E+00;
 -2.0000000E-01;  9.9999998E-03; -1.4000000E-01;52;  0.0000000E+00;  0.0000000E+00;  0.0000000E+00;  1.0000000E+03;  4.0000001E-01;  0.0000000E+00;0;  0.0000000E+00;  0.0000000E+00;  0.0000000E+00;0;  0.0000000E+00;  1.0000000E+04;  0.0000000E+00;  0.0000000E+00;  1.0000000E+04;  0.0000000E+00;  1.0000000E+04;  0.0000000E+00;  0.0000000E+00;  0.0000000E+00;  0.0000000E+00;
 -2.0000000E-01;  9.9999998E-03; -1.2000000E-01;53;  0.0000000E+00;  0.0000000E+00;  0.0000000E+00;  1.0000000E+03;  4.0000001E-01;  0.0000000E+00;0;  0.0000000E+00;  0.0000000E+00;  0.0000000E+00;0;  0.0000000E+00;  1.0000000E+04;  0.0000000E+00;  0.0000000E+00;  1.0000000E+04;  0.0000000E+00;  1.0000000E+04;  0.0000000E+00;  0.0000000E+00;  0.0000000E+00;  0.0000000E+00;
 -2.0000000E-01;  9.9999998E-03; -1.0000000E-01;54;  0.0000000E+00;  0.0000000E+00;  0.0000000E+00;  1.0000000E+03;  4.0000001E-01;  0.0000000E+00;0;  0.0000000E+00;  0.0000000E+00;  0.0000000E+00;0;  0.0000000E+00;  1.0000000E+04;  0.0000000E+00;  0.0000000E+00;  1.0000000E+04;  0.0000000E+00;  1.0000000E+04;  0.0000000E+00;  0.0000000E+00;  0.0000000E+00;  0.0000000E+00;
 -2.0000000E-01;  9.9999998E-03; -7.9999998E-02;55;  0.0000000E+00;  0.0000000E+00;  0.0000000E+00;  1.0000000E+03;  4.0000001E-01;  0.0000000E+00;0;  0.0000000E+00;  0.0000000E+00;  0.0000000E+00;0;  0.0000000E+00;  1.0000000E+04;  0.0000000E+00;  0.0000000E+00;  1.0000000E+04;  0.0000000E+00;  1.0000000E+04;  0.0000000E+00;  0.0000000E+00;  0.0000000E+00;  0.0000000E+00;
 -2.0000000E-01;  9.9999998E-03; -5.9999999E-02;56;  0.0000000E+00;  0.0000000E+00;  0.0000000E+00;  1.0000000E+03;  4.0000001E-01;  0.0000000E+00;0;  0.0000000E+00;  0.0000000E+00;  0.0000000E+00;0;  0.0000000E+00;  1.0000000E+04;  0.0000000E+00;  0.0000000E+00;  1.0000000E+04;  0.0000000E+00;  1.0000000E+04;  0.0000000E+00;  0.0000000E+00;  0.0000000E+00;  0.0000000E+00;
 -2.0000000E-01;  9.9999998E-03; -3.9999999E-02;57;  0.0000000E+00;  0.0000000E+00;  0.0000000E+00;  1.0000000E+03;  4.0000001E-01;  0.0000000E+00;0;  0.0000000E+00;  0.0000000E+00;  0.0000000E+00;0;  0.0000000E+00;  1.0000000E+04;  0.0000000E+00;  0.0000000E+00;  1.0000000E+04;  0.0000000E+00;  1.0000000E+04;  0.0000000E+00;  0.0000000E+00;  0.0000000E+00;  0.0000000E+00;
 -2.0000000E-01;  9.9999998E-03; -2.0000000E-02;58;  0.0000000E+00;  0.0000000E+00;  0.0000000E+00;  1.0000000E+03;  4.0000001E-01;  0.0000000E+00;0;  0.0000000E+00;  0.0000000E+00;  0.0000000E+00;0;  0.0000000E+00;  1.0000000E+04;  0.0000000E+00;  0.0000000E+00;  1.0000000E+04;  0.0000000E+00;  1.0000000E+04;  0.0000000E+00;  0.0000000E+00;  0.0000000E+00;  0.0000000E+00;
 -1.8000001E-01;  9.9999998E-03; -1.8000001E-01;91;  0.0000000E+00;  0.0000000E+00;  0.0000000E+00;  1.0000000E+03;  4.0000001E-01;  0.0000000E+00;0;  0.0000000E+00;  0.0000000E+00;  0.0000000E+00;0;  0.0000000E+00;  1.0000000E+04;  0.0000000E+00;  0.0000000E+00;  1.0000000E+04;  0.0000000E+00;  1.0000000E+04;  0.0000000E+00;  0.0000000E+00;  0.0000000E+00;  0.0000000E+00;
 -1.8000001E-01;  9.9999998E-03; -1.6000000E-01;92;  0.0000000E+00;  0.0000000E+00;  0.0000000E+00;  1.0000000E+03;  4.0000001E-01;  0.0000000E+00;0;  0.0000000E+00;  0.0000000E+00;  0.0000000E+00;0;  0.0000000E+00;  1.0000000E+04;  0.0000000E+00;  0.0000000E+00;  1.0000000E+04;  0.0000000E+00;  1.0000000E+04;  0.0000000E+00;  0.0000000E+00;  0.0000000E+00;  0.0000000E+00;
 -1.8000001E-01;  9.9999998E-03; -1.4000000E-01;93;  0.0000000E+00;  0.0000000E+00;  0.0000000E+00;  1.0000000E+03;  4.0000001E-01;  0.0000000E+00;0;  0.0000000E+00;  0.0000000E+00;  0.0000000E+00;0;  0.0000000E+00;  1.0000000E+04;  0.0000000E+00;  0.0000000E+00;  1.0000000E+04;  0.0000000E+00;  1.0000000E+04;  0.0000000E+00;  0.0000000E+00;  0.0000000E+00;  0.0000000E+00;
 -1.8000001E-01;  9.9999998E-03; -1.2000000E-01;94;  0.0000000E+00;  0.0000000E+00;  0.0000000E+00;  1.0000000E+03;  4.0000001E-01;  0.0000000E+00;0;  0.0000000E+00;  0.0000000E+00;  0.0000000E+00;0;  0.0000000E+00;  1.0000000E+04;  0.0000000E+00;  0.0000000E+00;  1.0000000E+04;  0.0000000E+00;  1.0000000E+04;  0.0000000E+00;  0.0000000E+00;  0.0000000E+00;  0.0000000E+00;
 -1.8000001E-01;  9.9999998E-03; -1.0000000E-01;95;  0.0000000E+00;  0.0000000E+00;  0.0000000E+00;  1.0000000E+03;  4.0000001E-01;  0.0000000E+00;0;  0.0000000E+00;  0.0000000E+00;  0.0000000E+00;0;  0.0000000E+00;  1.0000000E+04;  0.0000000E+00;  0.0000000E+00;  1.0000000E+04;  0.0000000E+00;  1.0000000E+04;  0.0000000E+00;  0.0000000E+00;  0.0000000E+00;  0.0000000E+00;
 -1.8000001E-01;  9.9999998E-03; -7.9999998E-02;96;  0.0000000E+00;  0.0000000E+00;  0.0000000E+00;  1.0000000E+03;  4.0000001E-01;  0.0000000E+00;0;  0.0000000E+00;  0.0000000E+00;  0.0000000E+00;0;  0.0000000E+00;  1.0000000E+04;  0.0000000E+00;  0.0000000E+00;  1.0000000E+04;  0.0000000E+00;  1.0000000E+04;  0.0000000E+00;  0.0000000E+00;  0.0000000E+00;  0.0000000E+00;
 -1.8000001E-01;  9.9999998E-03; -5.9999999E-02;97;  0.0000000E+00;  0.0000000E+00;  0.0000000E+00;  1.0000000E+03;  4.0000001E-01;  0.0000000E+00;0;  0.0000000E+00;  0.0000000E+00;  0.0000000E+00;0;  0.0000000E+00;  1.0000000E+04;  0.0000000E+00;  0.0000000E+00;  1.0000000E+04;  0.0000000E+00;  1.0000000E+04;  0.0000000E+00;  0.0000000E+00;  0.0000000E+00;  0.0000000E+00;
 -1.8000001E-01;  9.9999998E-03; -3.9999999E-02;98;  0.0000000E+00;  0.0000000E+00;  0.0000000E+00;  1.0000000E+03;  4.0000001E-01;  0.0000000E+00;0;  0.0000000E+00;  0.0000000E+00;  0.0000000E+00;0;  0.0000000E+00;  1.0000000E+04;  0.0000000E+00;  0.0000000E+00;  1.0000000E+04;  0.0000000E+00;  1.0000000E+04;  0.0000000E+00;  0.0000000E+00;  0.0000000E+00;  0.0000000E+00;
 -1.8000001E-01;  9.9999998E-03; -2.0000000E-02;99;  0.0000000E+00;  0.0000000E+00;  0.0000000E+00;  1.0000000E+03;  4.0000001E-01;  0.0000000E+00;0;  0.0000000E+00;  0.0000000E+00;  0.0000000E+00;0;  0.0000000E+00;  1.0000000E+04;  0.0000000E+00;  0.0000000E+00;  1.0000000E+04;  0.0000000E+00;  1.0000000E+04;  0.0000000E+00;  0.0000000E+00;  0.0000000E+00;  0.0000000E+00;
 -1.6000000E-01;  9.9999998E-03; -1.8000001E-01;132;  0.0000000E+00;  0.0000000E+00;  0.0000000E+00;  1.0000000E+03;  4.0000001E-01;  0.0000000E+00;0;  0.0000000E+00;  0.0000000E+00;  0.0000000E+00;0; -1.3035878E-11;  1.0000000E+04;  0.0000000E+00;  0.0000000E+00;  1.0000000E+04;  0.0000000E+00;  1.0000000E+04; -1.3054487E-11;  0.0000000E+00;  1.8609399E-14;  2.9656947E-11;
 -1.6000000E-01;  9.9999998E-03; -1.6000000E-01;133;  0.0000000E+00;  0.0000000E+00;  0.0000000E+00;  1.0000000E+03;  4.0000001E-01;  0.0000000E+00;0;  0.0000000E+00;  0.0000000E+00;  0.0000000E+00;0; -1.3663204E-11;  1.0000000E+04;  0.0000000E+00;  0.0000000E+00;  1.0000000E+04;  0.0000000E+00;  1.0000000E+04; -1.3679341E-11;  0.0000000E+00;  1.6136596E-14;  2.9921617E-11;
 -1.6000000E-01;  9.9999998E-03; -1.4000000E-01;134;  0.0000000E+00;  0.0000000E+00;  0.0000000E+00;  1.0000000E+03;  4.0000001E-01;  0.0000000E+00;0;  0.0000000E+00;  0.0000000E+00;  0.0000000E+00;0; -1.4139787E-11;  1.0000000E+04;  0.0000000E+00;  0.0000000E+00;  1.0000000E+04;  0.0000000E+00;  1.0000000E+04; -1.4153193E-11;  0.0000000E+00;  1.3406537E-14;  2.9896207E-11;
 -1.6000000E-01;  9.9999998E-03; -1.2000000E-01;135;  0.0000000E+00;  0.0000000E+00;  0.0000000E+00;  1.0000000E+03;  4.0000001E-01;  0.0000000E+00;0;  0.0000000E+00;  0.0000000E+00;  0.0000000E+00;0; -1.4492802E-11;  1.0000000E+04;  0.0000000E+00;  0.0000000E+00;  1.0000000E+04;  0.0000000E+00;  1.0000000E+04; -1.4503540E-11;  0.0000000E+00;  1.0737708E-14;  2.9725413E-11;
 -1.6000000E-01;  9.9999998E-03; -1.0000000E-01;136;  0.0000000E+00;  0.0000000E+00;  0.0000000E+00;  1.0000000E+03;  4.0000001E-01;  0.0000000E+00;0;  0.0000000E+00;  0.0000000E+00;  0.0000000E+00;0; -1.4747580E-11;  1.0000000E+04;  0.0000000E+00;  0.0000000E+00;  1.0000000E+04;  0.0000000E+00;  1.0000000E+04; -1.4755926E-11;  0.0000000E+00;  8.3461028E-15;  2.9507875E-11;
 -1.6000000E-01;  9.9999998E-03; -7.9999998E-02;137;  0.0000000E+00;  0.0000000E+00;  0.0000000E+00;  1.0000000E+03;  4.0000001E-01;  0.0000000E+00;0;  0.0000000E+00;  0.0000000E+00;  0.0000000E+00;0; -1.4926187E-11;  1.0000000E+04;  0.0000000E+00;  0.0000000E+00;  1.0000000E+04;  0.0000000E+00;  1.0000000E+04; -1.4932529E-11;  0.0000000E+00;  6.3423862E-15;  2.9301551E-11;
 -1.6000000E-01;  9.9999998E-03; -5.9999999E-02;138;  0.0000000E+00;  0.0000000E+00;  0.0000000E+00;  1.0000000E+03;  4.0000001E-01;  0.0000000E+00;0;  0.0000000E+00;  0.0000000E+00;  0.0000000E+00;0; -1.5046697E-11;  1.0000000E+04;  0.0000000E+00;  0.0000000E+00;  1.0000000E+04;  0.0000000E+00;  1.0000000E+04; -1.5051477E-11;  0.0000000E+00;  4.7814260E-15;  2.9134375E-11;
 -1.6000000E-01;  9.9999998E-03; -3.9999999E-02;139;  0.0000000E+00;  0.0000000E+00;  0.0000000E+00;  1.0000000E+03;  4.0000001E-01;  0.0000000E+00;0;  0.0000000E+00;  0.0000000E+00;  0.0000000E+00;0; -1.5123028E-11;  1.0000000E+04;  0.0000000E+00;  0.0000000E+00;  1.0000000E+04;  0.0000000E+00;  1.0000000E+04; -1.5126705E-11;  0.0000000E+00;  3.6772800E-15;  2.9015918E-11;
 -1.6000000E-01;  9.9999998E-03; -2.0000000E-02;140;  0.0000000E+00;  0.0000000E+00;  0.0000000E+00;  1.0000000E+03;  4.0000001E-01;  0.0000000E+00;0;  0.0000000E+00;  0.0000000E+00;  0.0000000E+00;0; -1.5164970E-11;  1.0000000E+04;  0.0000000E+00;  0.0000000E+00;  1.0000000E+04;  0.0000000E+00;  1.0000000E+04; -1.5167992E-11;  0.0000000E+00;  3.0224425E-15;  2.8946526E-11;
 -1.4000000E-01;  9.9999998E-03; -1.8000001E-01;173;  0.0000000E+00;  0.0000000E+00;  0.0000000E+00;  1.0000000E+03;  4.0000001E-01;  0.0000000E+00;0;  0.0000000E+00;  0.0000000E+00;  0.0000000E+00;0; -4.8265686E-10;  1.0000000E+04;  0.0000000E+00;  0.0000000E+00;  1.0000000E+04;  0.0000000E+00;  1.0000000E+04; -4.8496940E-10;  0.0000000E+00;  2.3125436E-12;  1.4604814E-09;
 -1.4000000E-01;  9.9999998E-03; -1.6000000E-01;174;  0.0000000E+00;  0.0000000E+00;  0.0000000E+00;  1.0000000E+03;  4.0000001E-01;  0.0000000E+00;0;  0.0000000E+00;  0.0000000E+00;  0.0000000E+00;0; -5.0713478E-10;  1.0000000E+04;  0.0000000E+00;  0.0000000E+00;  1.0000000E+04;  0.0000000E+00;  1.0000000E+04; -5.0916243E-10;  0.0000000E+00;  2.0276300E-12;  1.4126368E-09;
 -1.4000000E-01;  9.9999998E-03; -1.4000000E-01;175;  0.0000000E+00;  0.0000000E+00;  0.0000000E+00;  1.0000000E+03;  4.0000001E-01;  0.0000000E+00;0;  0.0000000E+00;  0.0000000E+00;  0.0000000E+00;0; -5.2598448E-10;  1.0000000E+04;  0.0000000E+00;  0.0000000E+00;  1.0000000E+04;  0.0000000E+00;  1.0000000E+04; -5.2769045E-10;  0.0000000E+00;  1.7059686E-12;  1.3525406E-09;
 -1.4000000E-01;  9.9999998E-03; -1.2000000E-01;176;  0.0000000E+00;  0.0000000E+00;  0.0000000E+00;  1.0000000E+03;  4.0000001E-01;  0.0000000E+00;0;  0.0000000E+00;  0.0000000E+00;  0.0000000E+00;0; -5.4015209E-10;  1.0000000E+04;  0.0000000E+00;  0.0000000E+00;  1.0000000E+04;  0.0000000E+00;  1.0000000E+04; -5.4153654E-10;  0.0000000E+00;  1.3844720E-12;  1.2915906E-09;
 -1.4000000E-01;  9.9999998E-03; -1.0000000E-01;177;  0.0000000E+00;  0.0000000E+00;  0.0000000E+00;  1.0000000E+03;  4.0000001E-01;  0.0000000E+00;0;  0.0000000E+00;  0.0000000E+00;  0.0000000E+00;0; -5.5052934E-10;  1.0000000E+04;  0.0000000E+00;  0.0000000E+00;  1.0000000E+04;  0.0000000E+00;  1.0000000E+04; -5.5161969E-10;  0.0000000E+00;  1.0903494E-12;  1.2371355E-09;
 -1.4000000E-01;  9.9999998E-03; -7.9999998E-02;178;  0.0000000E+00;  0.0000000E+00;  0.0000000E+00;  1.0000000E+03;  4.0000001E-01;  0.0000000E+00;0;  0.0000000E+00;  0.0000000E+00;  0.0000000E+00;0; -5.5791072E-10;  1.0000000E+04;  0.0000000E+00;  0.0000000E+00;  1.0000000E+04;  0.0000000E+00;  1.0000000E+04; -5.5875127E-10;  0.0000000E+00;  8.4054302E-13;  1.1928775E-09;
 -1.4000000E-01;  9.9999998E-03; -5.9999999E-02;179;  0.0000000E+00;  0.0000000E+00;  0.0000000E+00;  1.0000000E+03;  4.0000001E-01;  0.0000000E+00;0;  0.0000000E+00;  0.0000000E+00;  0.0000000E+00;0; -5.6296057E-10;  1.0000000E+04;  0.0000000E+00;  0.0000000E+00;  1.0000000E+04;  0.0000000E+00;  1.0000000E+04; -5.6360433E-10;  0.0000000E+00;  6.4374043E-13;  1.1598118E-09;
 -1.4000000E-01;  9.9999998E-03; -3.9999999E-02;180;  0.0000000E+00;  0.0000000E+00;  0.0000000E+00;  1.0000000E+03;  4.0000001E-01;  0.0000000E+00;0;  0.0000000E+00;  0.0000000E+00;  0.0000000E+00;0; -5.6619903E-10;  1.0000000E+04;  0.0000000E+00;  0.0000000E+00;  1.0000000E+04;  0.0000000E+00;  1.0000000E+04; -5.6670219E-10;  0.0000000E+00;  5.0316760E-13;  1.1374063E-09;
 -1.4000000E-01;  9.9999998E-03; -2.0000000E-02;181;  0.0000000E+00;  0.0000000E+00;  0.0000000E+00;  1.0000000E+03;  4.0000001E-01;  0.0000000E+00;0;  0.0000000E+00;  0.0000000E+00;  0.0000000E+00;0; -5.6799493E-10;  1.0000000E+04;  0.0000000E+00;  0.0000000E+00;  1.0000000E+04;  0.0000000E+00;  1.0000000E+04; -5.6841420E-10;  0.0000000E+00;  4.1925396E-13;  1.1245834E-09;
 -1.2000000E-01;  9.9999998E-03; -1.8000001E-01;214;  0.0000000E+00;  0.0000000E+00;  0.0000000E+00;  1.0000000E+03;  4.0000001E-01;  0.0000000E+00;0;  0.0000000E+00;  0.0000000E+00;  0.0000000E+00;0; -2.9474077E-09;  1.0000000E+04;  0.0000000E+00;  0.0000000E+00;  1.0000000E+04;  0.0000000E+00;  1.0000000E+04; -2.9711020E-09;  0.0000000E+00;  2.3694390E-11;  1.1460032E-08;
 -1.2000000E-01;  9.9999998E-03; -1.6000000E-01;215;  0.0000000E+00;  0.0000000E+00;  0.0000000E+00;  1.0000000E+03;  4.0000001E-01;  0.0000000E+00;0;  0.0000000E+00;  0.0000000E+00;  0.0000000E+00;0; -3.1015637E-09;  1.0000000E+04;  0.0000000E+00;  0.0000000E+00;  1.0000000E+04;  0.0000000E+00;  1.0000000E+04; -3.1225256E-09;  0.0000000E+00;  2.0961852E-11;  1.0842155E-08;
 -1.2000000E-01;  9.9999998E-03; -1.4000000E-01;216;  0.0000000E+00;  0.0000000E+00;  0.0000000E+00;  1.0000000E+03;  4.0000001E-01;  0.0000000E+00;0;  0.0000000E+00;  0.0000000E+00;  0.0000000E+00;0; -3.2214043E-09;  1.0000000E+04;  0.0000000E+00;  0.0000000E+00;  1.0000000E+04;  0.0000000E+00;  1.0000000E+04; -3.2391942E-09;  0.0000000E+00;  1.7789900E-11;  1.0120033E-08;
 -1.2000000E-01;  9.9999998E-03; -1.2000000E-01;217;  0.0000000E+00;  0.0000000E+00;  0.0000000E+00;  1.0000000E+03;  4.0000001E-01;  0.0000000E+00;0;  0.0000000E+00;  0.0000000E+00;  0.0000000E+00;0; -3.3124041E-09;  1.0000000E+04;  0.0000000E+00;  0.0000000E+00;  1.0000000E+04;  0.0000000E+00;  1.0000000E+04; -3.3269780E-09;  0.0000000E+00;  1.4573924E-11;  9.4088657E-09;
 -1.2000000E-01;  9.9999998E-03; -1.0000000E-01;218;  0.0000000E+00;  0.0000000E+00;  0.0000000E+00;  1.0000000E+03;  4.0000001E-01;  0.0000000E+00;0;  0.0000000E+00;  0.0000000E+00;  0.0000000E+00;0; -3.3797851E-09;  1.0000000E+04;  0.0000000E+00;  0.0000000E+00;  1.0000000E+04;  0.0000000E+00;  1.0000000E+04; -3.3913801E-09;  0.0000000E+00;  1.1594886E-11;  8.7796357E-09;
 -1.2000000E-01;  9.9999998E-03; -7.9999998E-02;219;  0.0000000E+00;  0.0000000E+00;  0.0000000E+00;  1.0000000E+03;  4.0000001E-01;  0.0000000E+00;0;  0.0000000E+00;  0.0000000E+00;  0.0000000E+00;0; -3.4282390E-09;  1.0000000E+04;  0.0000000E+00;  0.0000000E+00;  1.0000000E+04;  0.0000000E+00;  1.0000000E+04; -3.4372767E-09;  0.0000000E+00;  9.0377133E-12;  8.2683620E-09;
 -1.2000000E-01;  9.9999998E-03; -5.9999999E-02;220;  0.0000000E+00;  0.0000000E+00;  0.0000000E+00;  1.0000000E+03;  4.0000001E-01;  0.0000000E+00;0;  0.0000000E+00;  0.0000000E+00;  0.0000000E+00;0; -3.4617365E-09;  1.0000000E+04;  0.0000000E+00;  0.0000000E+00;  1.0000000E+04;  0.0000000E+00;  1.0000000E+04; -3.4687422E-09;  0.0000000E+00;  7.0057241E-12;  7.8849274E-09;
 -1.2000000E-01;  9.9999998E-03; -3.9999999E-02;221;  0.0000000E+00;  0.0000000E+00;  0.0000000E+00;  1.0000000E+03;  4.0000001E-01;  0.0000000E+00;0;  0.0000000E+00;  0.0000000E+00;  0.0000000E+00;0; -3.4834124E-09;  1.0000000E+04;  0.0000000E+00;  0.0000000E+00;  1.0000000E+04;  0.0000000E+00;  1.0000000E+04; -3.4889573E-09;  0.0000000E+00;  5.5449425E-12;  7.6237141E-09;
 -1.2000000E-01;  9.9999998E-03; -2.0000000E-02;222;  0.0000000E+00;  0.0000000E+00;  0.0000000E+00;  1.0000000E+03;  4.0000001E-01;  0.0000000E+00;0;  0.0000000E+00;  0.0000000E+00;  0.0000000E+00;0; -3.4955183E-09;  1.0000000E+04;  0.0000000E+00;  0.0000000E+00;  1.0000000E+04;  0.0000000E+00;  1.0000000E+04; -3.5001870E-09;  0.0000000E+00;  4.6687636E-12;  7.4734787E-09;
 -1.0000000E-01;  9.9999998E-03; -1.8000001E-01;255;  0.0000000E+00;  0.0000000E+00;  0.0000000E+00;  1.0000000E+03;  4.0000001E-01;  0.0000000E+00;0;  0.0000000E+00;  0.0000000E+00;  0.0000000E+00;0; -1.0790719E-08;  1.0000000E+04;  0.0000000E+00;  0.0000000E+00;  1.0000000E+04;  0.0000000E+00;  1.0000000E+04; -1.0909632E-08;  0.0000000E+00;  1.1891386E-10;  5.2134368E-08;
 -1.0000000E-01;  9.9999998E-03; -1.6000000E-01;256;  0.0000000E+00;  0.0000000E+00;  0.0000000E+00;  1.0000000E+03;  4.0000001E-01;  0.0000000E+00;0;  0.0000000E+00;  0.0000000E+00;  0.0000000E+00;0; -1.1367457E-08;  1.0000000E+04;  0.0000000E+00;  0.0000000E+00;  1.0000000E+04;  0.0000000E+00;  1.0000000E+04; -1.1474458E-08;  0.0000000E+00;  1.0700093E-10;  4.8954778E-08;
 -1.0000000E-01;  9.9999998E-03; -1.4000000E-01;257;  0.0000000E+00;  0.0000000E+00;  0.0000000E+00;  1.0000000E+03;  4.0000001E-01;  0.0000000E+00;0;  0.0000000E+00;  0.0000000E+00;  0.0000000E+00;0; -1.1818147E-08;  1.0000000E+04;  0.0000000E+00;  0.0000000E+00;  1.0000000E+04;  0.0000000E+00;  1.0000000E+04; -1.1909564E-08;  0.0000000E+00;  9.1416243E-11;  4.4971156E-08;
 -1.0000000E-01;  9.9999998E-03; -1.2000000E-01;258;  0.0000000E+00;  0.0000000E+00;  0.0000000E+00;  1.0000000E+03;  4.0000001E-01;  0.0000000E+00;0;  0.0000000E+00;  0.0000000E+00;  0.0000000E+00;0; -1.2163127E-08;  1.0000000E+04;  0.0000000E+00;  0.0000000E+00;  1.0000000E+04;  0.0000000E+00;  1.0000000E+04; -1.2238553E-08;  0.0000000E+00;  7.5426609E-11;  4.1059135E-08;
 -1.0000000E-01;  9.9999998E-03; -1.0000000E-01;259;  0.0000000E+00;  0.0000000E+00;  0.0000000E+00;  1.0000000E+03;  4.0000001E-01;  0.0000000E+00;0;  0.0000000E+00;  0.0000000E+00;  0.0000000E+00;0; -1.2420754E-08;  1.0000000E+04;  0.0000000E+00;  0.0000000E+00;  1.0000000E+04;  0.0000000E+00;  1.0000000E+04; -1.2481243E-08;  0.0000000E+00;  6.0488274E-11;  3.7592148E-08;
 -1.0000000E-01;  9.9999998E-03; -7.9999998E-02;260;  0.0000000E+00;  0.0000000E+00;  0.0000000E+00;  1.0000000E+03;  4.0000001E-01;  0.0000000E+00;0;  0.0000000E+00;  0.0000000E+00;  0.0000000E+00;0; -1.2607636E-08;  1.0000000E+04;  0.0000000E+00;  0.0000000E+00;  1.0000000E+04;  0.0000000E+00;  1.0000000E+04; -1.2655205E-08;  0.0000000E+00;  4.7568699E-11;  3.4761133E-08;
 -1.0000000E-01;  9.9999998E-03; -5.9999999E-02;261;  0.0000000E+00;  0.0000000E+00;  0.0000000E+00;  1.0000000E+03;  4.0000001E-01;  0.0000000E+00;0;  0.0000000E+00;  0.0000000E+00;  0.0000000E+00;0; -1.2737917E-08;  1.0000000E+04;  0.0000000E+00;  0.0000000E+00;  1.0000000E+04;  0.0000000E+00;  1.0000000E+04; -1.2775155E-08;  0.0000000E+00;  3.7237945E-11;  3.2624371E-08;
 -1.0000000E-01;  9.9999998E-03; -3.9999999E-02;262;  0.0000000E+00;  0.0000000E+00;  0.0000000E+00;  1.0000000E+03;  4.0000001E-01;  0.0000000E+00;0;  0.0000000E+00;  0.0000000E+00;  0.0000000E+00;0; -1.2822843E-08;  1.0000000E+04;  0.0000000E+00;  0.0000000E+00;  1.0000000E+04;  0.0000000E+00;  1.0000000E+04; -1.2852618E-08;  0.0000000E+00;  2.9774735E-11;  3.1159420E-08;
 -1.0000000E-01;  9.9999998E-03; -2.0000000E-02;263;  0.0000000E+00;  0.0000000E+00;  0.0000000E+00;  1.0000000E+03;  4.0000001E-01;  0.0000000E+00;0;  0.0000000E+00;  0.0000000E+00;  0.0000000E+00;0; -1.2870543E-08;  1.0000000E+04;  0.0000000E+00;  0.0000000E+00;  1.0000000E+04;  0.0000000E+00;  1.0000000E+04; -1.2895826E-08;  0.0000000E+00;  2.5282979E-11;  3.0312528E-08;
 -7.9999998E-02;  9.9999998E-03; -1.8000001E-01;296;  0.0000000E+00;  0.0000000E+00;  0.0000000E+00;  1.0000000E+03;  4.0000001E-01;  0.0000000E+00;0;  0.0000000E+00;  0.0000000E+00;  0.0000000E+00;0; -3.0635718E-08;  1.0000000E+04;  0.0000000E+00;  0.0000000E+00;  1.0000000E+04;  0.0000000E+00;  1.0000000E+04; -3.1053517E-08;  0.0000000E+00;  4.1780090E-10;  1.7983965E-07;
 -7.9999998E-02;  9.9999998E-03; -1.6000000E-01;297;  0.0000000E+00;  0.0000000E+00;  0.0000000E+00;  1.0000000E+03;  4.0000001E-01;  0.0000000E+00;0;  0.0000000E+00;  0.0000000E+00;  0.0000000E+00;0; -3.2290703E-08;  1.0000000E+04;  0.0000000E+00;  0.0000000E+00;  1.0000000E+04;  0.0000000E+00;  1.0000000E+04; -3.2671959E-08;  0.0000000E+00;  3.8125680E-10;  1.6845974E-07;
 -7.9999998E-02;  9.9999998E-03; -1.4000000E-01;298;  0.0000000E+00;  0.0000000E+00;  0.0000000E+00;  1.0000000E+03;  4.0000001E-01;  0.0000000E+00;0;  0.0000000E+00;  0.0000000E+00;  0.0000000E+00;0; -3.3590567E-08;  1.0000000E+04;  0.0000000E+00;  0.0000000E+00;  1.0000000E+04;  0.0000000E+00;  1.0000000E+04; -3.3918223E-08;  0.0000000E+00;  3.2765762E-10;  1.5330964E-07;
 -7.9999998E-02;  9.9999998E-03; -1.2000000E-01;299;  0.0000000E+00;  0.0000000E+00;  0.0000000E+00;  1.0000000E+03;  4.0000001E-01;  0.0000000E+00;0;  0.0000000E+00;  0.0000000E+00;  0.0000000E+00;0; -3.4591693E-08;  1.0000000E+04;  0.0000000E+00;  0.0000000E+00;  1.0000000E+04;  0.0000000E+00;  1.0000000E+04; -3.4863529E-08;  0.0000000E+00;  2.7183464E-10;  1.3832567E-07;
 -7.9999998E-02;  9.9999998E-03; -1.0000000E-01;300;  0.0000000E+00;  0.0000000E+00;  0.0000000E+00;  1.0000000E+03;  4.0000001E-01;  0.0000000E+00;0;  0.0000000E+00;  0.0000000E+00;  0.0000000E+00;0; -3.5344431E-08;  1.0000000E+04;  0.0000000E+00;  0.0000000E+00;  1.0000000E+04;  0.0000000E+00;  1.0000000E+04; -3.5563811E-08;  0.0000000E+00;  2.1938006E-10;  1.2500226E-07;
 -7.9999998E-02;  9.9999998E-03; -7.9999998E-02;301;  0.0000000E+00;  0.0000000E+00;  0.0000000E+00;  1.0000000E+03;  4.0000001E-01;  0.0000000E+00;0;  0.0000000E+00;  0.0000000E+00;  0.0000000E+00;0; -3.5894313E-08;  1.0000000E+04;  0.0000000E+00;  0.0000000E+00;  1.0000000E+04;  0.0000000E+00;  1.0000000E+04; -3.6068101E-08;  0.0000000E+00;  1.7378654E-10;  1.1407052E-07;
 -7.9999998E-02;  9.9999998E-03; -5.9999999E-02;302;  0.0000000E+00;  0.0000000E+00;  0.0000000E+00;  1.0000000E+03;  4.0000001E-01;  0.0000000E+00;0;  0.0000000E+00;  0.0000000E+00;  0.0000000E+00;0; -3.6280294E-08;  1.0000000E+04;  0.0000000E+00;  0.0000000E+00;  1.0000000E+04;  0.0000000E+00;  1.0000000E+04; -3.6417465E-08;  0.0000000E+00;  1.3716926E-10;  1.0577324E-07;
 -7.9999998E-02;  9.9999998E-03; -3.9999999E-02;303;  0.0000000E+00;  0.0000000E+00;  0.0000000E+00;  1.0000000E+03;  4.0000001E-01;  0.0000000E+00;0;  0.0000000E+00;  0.0000000E+00;  0.0000000E+00;0; -3.6533436E-08;  1.0000000E+04;  0.0000000E+00;  0.0000000E+00;  1.0000000E+04;  0.0000000E+00;  1.0000000E+04; -3.6644060E-08;  0.0000000E+00;  1.1062328E-10;  1.0005376E-07;
 -7.9999998E-02;  9.9999998E-03; -2.0000000E-02;304;  0.0000000E+00;  0.0000000E+00;  0.0000000E+00;  1.0000000E+03;  4.0000001E-01;  0.0000000E+00;0;  0.0000000E+00;  0.0000000E+00;  0.0000000E+00;0; -3.6676262E-08;  1.0000000E+04;  0.0000000E+00;  0.0000000E+00;  1.0000000E+04;  0.0000000E+00;  1.0000000E+04; -3.6770867E-08;  0.0000000E+00;  9.4606573E-11;  9.6732968E-08;
 -5.9999999E-02;  9.9999998E-03; -1.8000001E-01;337;  0.0000000E+00;  0.0000000E+00;  0.0000000E+00;  1.0000000E+03;  4.0000001E-01;  0.0000000E+00;0;  0.0000000E+00;  0.0000000E+00;  0.0000000E+00;0; -7.4008668E-08;  1.0000000E+04;  0.0000000E+00;  0.0000000E+00;  1.0000000E+04;  0.0000000E+00;  1.0000000E+04; -7.5201811E-08;  0.0000000E+00;  1.1931399E-09;  5.2579793E-07;
 -5.9999999E-02;  9.9999998E-03; -1.6000000E-01;338;  0.0000000E+00;  0.0000000E+00;  0.0000000E+00;  1.0000000E+03;  4.0000001E-01;  0.0000000E+00;0;  0.0000000E+00;  0.0000000E+00;  0.0000000E+00;0; -7.8006103E-08;  1.0000000E+04;  0.0000000E+00;  0.0000000E+00;  1.0000000E+04;  0.0000000E+00;  1.0000000E+04; -7.9098129E-08;  0.0000000E+00;  1.0920268E-09;  4.9011572E-07;
 -5.9999999E-02;  9.9999998E-03; -1.4000000E-01;339;  0.0000000E+00;  0.0000000E+00;  0.0000000E+00;  1.0000000E+03;  4.0000001E-01;  0.0000000E+00;0;  0.0000000E+00;  0.0000000E+00;  0.0000000E+00;0; -8.1166249E-08;  1.0000000E+04;  0.0000000E+00;  0.0000000E+00;  1.0000000E+04;  0.0000000E+00;  1.0000000E+04; -8.2109928E-08;  0.0000000E+00;  9.4368102E-10;  4.4354672E-07;
 -5.9999999E-02;  9.9999998E-03; -1.2000000E-01;340;  0.0000000E+00;  0.0000000E+00;  0.0000000E+00;  1.0000000E+03;  4.0000001E-01;  0.0000000E+00;0;  0.0000000E+00;  0.0000000E+00;  0.0000000E+00;0; -8.3612676E-08;  1.0000000E+04;  0.0000000E+00;  0.0000000E+00;  1.0000000E+04;  0.0000000E+00;  1.0000000E+04; -8.4398948E-08;  0.0000000E+00;  7.8626933E-10;  3.9697488E-07;
 -5.9999999E-02;  9.9999998E-03; -1.0000000E-01;341;  0.0000000E+00;  0.0000000E+00;  0.0000000E+00;  1.0000000E+03;  4.0000001E-01;  0.0000000E+00;0;  0.0000000E+00;  0.0000000E+00;  0.0000000E+00;0; -8.5462510E-08;  1.0000000E+04;  0.0000000E+00;  0.0000000E+00;  1.0000000E+04;  0.0000000E+00;  1.0000000E+04; -8.6100357E-08;  0.0000000E+00;  6.3784455E-10;  3.5544170E-07;
 -5.9999999E-02;  9.9999998E-03; -7.9999998E-02;342;  0.0000000E+00;  0.0000000E+00;  0.0000000E+00;  1.0000000E+03;  4.0000001E-01;  0.0000000E+00;0;  0.0000000E+00;  0.0000000E+00;  0.0000000E+00;0; -8.6821970E-08;  1.0000000E+04;  0.0000000E+00;  0.0000000E+00;  1.0000000E+04;  0.0000000E+00;  1.0000000E+04; -8.7330413E-08;  0.0000000E+00;  5.0844184E-10;  3.2123134E-07;
 -5.9999999E-02;  9.9999998E-03; -5.9999999E-02;343;  0.0000000E+00;  0.0000000E+00;  0.0000000E+00;  1.0000000E+03;  4.0000001E-01;  0.0000000E+00;0;  0.0000000E+00;  0.0000000E+00;  0.0000000E+00;0; -8.7781821E-08;  1.0000000E+04;  0.0000000E+00;  0.0000000E+00;  1.0000000E+04;  0.0000000E+00;  1.0000000E+04; -8.8186042E-08;  0.0000000E+00;  4.0422141E-10;  2.9514794E-07;
 -5.9999999E-02;  9.9999998E-03; -3.9999999E-02;344;  0.0000000E+00;  0.0000000E+00;  0.0000000E+00;  1.0000000E+03;  4.0000001E-01;  0.0000000E+00;0;  0.0000000E+00;  0.0000000E+00;  0.0000000E+00;0; -8.8414652E-08;  1.0000000E+04;  0.0000000E+00;  0.0000000E+00;  1.0000000E+04;  0.0000000E+00;  1.0000000E+04; -8.8743143E-08;  0.0000000E+00;  3.2848890E-10;  2.7708802E-07;
 -5.9999999E-02;  9.9999998E-03; -2.0000000E-02;345;  0.0000000E+00;  0.0000000E+00;  0.0000000E+00;  1.0000000E+03;  4.0000001E-01;  0.0000000E+00;0;  0.0000000E+00;  0.0000000E+00;  0.0000000E+00;0; -8.8773113E-08;  1.0000000E+04;  0.0000000E+00;  0.0000000E+00;  1.0000000E+04;  0.0000000E+00;  1.0000000E+04; -8.9055831E-08;  0.0000000E+00;  2.8271641E-10;  2.6656477E-07;
 -3.9999999E-02;  9.9999998E-03; -1.8000001E-01;378;  0.0000000E+00;  0.0000000E+00;  0.0000000E+00;  1.0000000E+03;  4.0000001E-01;  0.0000000E+00;0;  0.0000000E+00;  0.0000000E+00;  0.0000000E+00;0; -1.6004171E-07;  1.0000000E+04;  0.0000000E+00;  0.0000000E+00;  1.0000000E+04;  0.0000000E+00;  1.0000000E+04; -1.6300834E-07;  0.0000000E+00;  2.9666258E-09;  1.3782274E-06;
 -3.9999999E-02;  9.9999998E-03; -1.6000000E-01;379;  0.0000000E+00;  0.0000000E+00;  0.0000000E+00;  1.0000000E+03;  4.0000001E-01;  0.0000000E+00;0;  0.0000000E+00;  0.0000000E+00;  0.0000000E+00;0; -1.6862577E-07;  1.0000000E+04;  0.0000000E+00;  0.0000000E+00;  1.0000000E+04;  0.0000000E+00;  1.0000000E+04; -1.7133866E-07;  0.0000000E+00;  2.7128830E-09;  1.2783638E-06;
 -3.9999999E-02;  9.9999998E-03; -1.4000000E-01;380;  0.0000000E+00;  0.0000000E+00;  0.0000000E+00;  1.0000000E+03;  4.0000001E-01;  0.0000000E+00;0;  0.0000000E+00;  0.0000000E+00;  0.0000000E+00;0; -1.7544824E-07;  1.0000000E+04;  0.0000000E+00;  0.0000000E+00;  1.0000000E+04;  0.0000000E+00;  1.0000000E+04; -1.7779917E-07;  0.0000000E+00;  2.3509354E-09;  1.1516369E-06;
 -3.9999999E-02;  9.9999998E-03; -1.2000000E-01;381;  0.0000000E+00;  0.0000000E+00;  0.0000000E+00;  1.0000000E+03;  4.0000001E-01;  0.0000000E+00;0;  0.0000000E+00;  0.0000000E+00;  0.0000000E+00;0; -1.8075443E-07;  1.0000000E+04;  0.0000000E+00;  0.0000000E+00;  1.0000000E+04;  0.0000000E+00;  1.0000000E+04; -1.8271989E-07;  0.0000000E+00;  1.9654656E-09;  1.0247892E-06;
 -3.9999999E-02;  9.9999998E-03; -1.0000000E-01;382;  0.0000000E+00;  0.0000000E+00;  0.0000000E+00;  1.0000000E+03;  4.0000001E-01;  0.0000000E+00;0;  0.0000000E+00;  0.0000000E+00;  0.0000000E+00;0; -1.8478624E-07;  1.0000000E+04;  0.0000000E+00;  0.0000000E+00;  1.0000000E+04;  0.0000000E+00;  1.0000000E+04; -1.8638771E-07;  0.0000000E+00;  1.6014570E-09;  9.1141044E-07;
 -3.9999999E-02;  9.9999998E-03; -7.9999998E-02;383;  0.0000000E+00;  0.0000000E+00;  0.0000000E+00;  1.0000000E+03;  4.0000001E-01;  0.0000000E+00;0;  0.0000000E+00;  0.0000000E+00;  0.0000000E+00;0; -1.8776504E-07;  1.0000000E+04;  0.0000000E+00;  0.0000000E+00;  1.0000000E+04;  0.0000000E+00;  1.0000000E+04; -1.8904871E-07;  0.0000000E+00;  1.2836608E-09;  8.1773607E-07;
 -3.9999999E-02;  9.9999998E-03; -5.9999999E-02;384;  0.0000000E+00;  0.0000000E+00;  0.0000000E+00;  1.0000000E+03;  4.0000001E-01;  0.0000000E+00;0;  0.0000000E+00;  0.0000000E+00;  0.0000000E+00;0; -1.8987939E-07;  1.0000000E+04;  0.0000000E+00;  0.0000000E+00;  1.0000000E+04;  0.0000000E+00;  1.0000000E+04; -1.9090670E-07;  0.0000000E+00;  1.0273200E-09;  7.4604986E-07;
 -3.9999999E-02;  9.9999998E-03; -3.9999999E-02;385;  0.0000000E+00;  0.0000000E+00;  0.0000000E+00;  1.0000000E+03;  4.0000001E-01;  0.0000000E+00;0;  0.0000000E+00;  0.0000000E+00;  0.0000000E+00;0; -1.9128005E-07;  1.0000000E+04;  0.0000000E+00;  0.0000000E+00;  1.0000000E+04;  0.0000000E+00;  1.0000000E+04; -1.9212084E-07;  0.0000000E+00;  8.4078761E-10;  6.9622945E-07;
 -3.9999999E-02;  9.9999998E-03; -2.0000000E-02;386;  0.0000000E+00;  0.0000000E+00;  0.0000000E+00;  1.0000000E+03;  4.0000001E-01;  0.0000000E+00;0;  0.0000000E+00;  0.0000000E+00;  0.0000000E+00;0; -1.9207634E-07;  1.0000000E+04;  0.0000000E+00;  0.0000000E+00;  1.0000000E+04;  0.0000000E+00;  1.0000000E+04; -1.9280428E-07;  0.0000000E+00;  7.2793083E-10;  6.6711004E-07;
 -2.0000000E-02;  9.9999998E-03; -1.8000001E-01;419;  0.0000000E+00;  0.0000000E+00;  0.0000000E+00;  1.0000000E+03;  4.0000001E-01;  0.0000000E+00;0;  0.0000000E+00;  0.0000000E+00;  0.0000000E+00;0; -3.2097137E-07;  1.0000000E+04;  0.0000000E+00;  0.0000000E+00;  1.0000000E+04;  0.0000000E+00;  1.0000000E+04; -3.2765467E-07;  0.0000000E+00;  6.6833192E-09;  3.3510582E-06;
 -2.0000000E-02;  9.9999998E-03; -1.6000000E-01;420;  0.0000000E+00;  0.0000000E+00;  0.0000000E+00;  1.0000000E+03;  4.0000001E-01;  0.0000000E+00;0;  0.0000000E+00;  0.0000000E+00;  0.0000000E+00;0; -3.3798452E-07;  1.0000000E+04;  0.0000000E+00;  0.0000000E+00;  1.0000000E+04;  0.0000000E+00;  1.0000000E+04; -3.4408578E-07;  0.0000000E+00;  6.1012728E-09;  3.0961598E-06;
 -2.0000000E-02;  9.9999998E-03; -1.4000000E-01;421;  0.0000000E+00;  0.0000000E+00;  0.0000000E+00;  1.0000000E+03;  4.0000001E-01;  0.0000000E+00;0;  0.0000000E+00;  0.0000000E+00;  0.0000000E+00;0; -3.5155696E-07;  1.0000000E+04;  0.0000000E+00;  0.0000000E+00;  1.0000000E+04;  0.0000000E+00;  1.0000000E+04; -3.5684943E-07;  0.0000000E+00;  5.2924585E-09;  2.7789049E-06;
 -2.0000000E-02;  9.9999998E-03; -1.2000000E-01;422;  0.0000000E+00;  0.0000000E+00;  0.0000000E+00;  1.0000000E+03;  4.0000001E-01;  0.0000000E+00;0;  0.0000000E+00;  0.0000000E+00;  0.0000000E+00;0; -3.6215144E-07;  1.0000000E+04;  0.0000000E+00;  0.0000000E+00;  1.0000000E+04;  0.0000000E+00;  1.0000000E+04; -3.6658841E-07;  0.0000000E+00;  4.4369646E-09;  2.4627950E-06;
 -2.0000000E-02;  9.9999998E-03; -1.0000000E-01;423;  0.0000000E+00;  0.0000000E+00;  0.0000000E+00;  1.0000000E+03;  4.0000001E-01;  0.0000000E+00;0;  0.0000000E+00;  0.0000000E+00;  0.0000000E+00;0; -3.7023560E-07;  1.0000000E+04;  0.0000000E+00;  0.0000000E+00;  1.0000000E+04;  0.0000000E+00;  1.0000000E+04; -3.7386494E-07;  0.0000000E+00;  3.6293457E-09;  2.1798023E-06;
 -2.0000000E-02;  9.9999998E-03; -7.9999998E-02;424;  0.0000000E+00;  0.0000000E+00;  0.0000000E+00;  1.0000000E+03;  4.0000001E-01;  0.0000000E+00;0;  0.0000000E+00;  0.0000000E+00;  0.0000000E+00;0; -3.7623641E-07;  1.0000000E+04;  0.0000000E+00;  0.0000000E+00;  1.0000000E+04;  0.0000000E+00;  1.0000000E+04; -3.7916070E-07;  0.0000000E+00;  2.9242850E-09;  1.9453992E-06;
 -2.0000000E-02;  9.9999998E-03; -5.9999999E-02;425;  0.0000000E+00;  0.0000000E+00;  0.0000000E+00;  1.0000000E+03;  4.0000001E-01;  0.0000000E+00;0;  0.0000000E+00;  0.0000000E+00;  0.0000000E+00;0; -3.8051684E-07;  1.0000000E+04;  0.0000000E+00;  0.0000000E+00;  1.0000000E+04;  0.0000000E+00;  1.0000000E+04; -3.8287217E-07;  0.0000000E+00;  2.3553270E-09;  1.7654377E-06;
 -2.0000000E-02;  9.9999998E-03; -3.9999999E-02;426;  0.0000000E+00;  0.0000000E+00;  0.0000000E+00;  1.0000000E+03;  4.0000001E-01;  0.0000000E+00;0;  0.0000000E+00;  0.0000000E+00;  0.0000000E+00;0; -3.8336475E-07;  1.0000000E+04;  0.0000000E+00;  0.0000000E+00;  1.0000000E+04;  0.0000000E+00;  1.0000000E+04; -3.8530581E-07;  0.0000000E+00;  1.9410606E-09;  1.6399445E-06;
 -2.0000000E-02;  9.9999998E-03; -2.0000000E-02;427;  0.0000000E+00;  0.0000000E+00;  0.0000000E+00;  1.0000000E+03;  4.0000001E-01;  0.0000000E+00;0;  0.0000000E+00;  0.0000000E+00;  0.0000000E+00;0; -3.8498951E-07;  1.0000000E+04;  0.0000000E+00;  0.0000000E+00;  1.0000000E+04;  0.0000000E+00;  1.0000000E+04; -3.8667980E-07;  0.0000000E+00;  1.6902891E-09;  1.5663884E-06;
 -2.2000000E-01;  9.9999998E-03;  0.0000000E+00;19;  0.0000000E+00;  0.0000000E+00;  0.0000000E+00;  1.0000000E+03;  4.0000001E-01;  0.0000000E+00;0;  0.0000000E+00;  0.0000000E+00;  0.0000000E+00;0;  0.0000000E+00;  1.0000000E+04;  0.0000000E+00;  0.0000000E+00;  1.0000000E+04;  0.0000000E+00;  1.0000000E+04;  0.0000000E+00;  0.0000000E+00;  0.0000000E+00;  0.0000000E+00;
 -2.2000000E-01;  9.9999998E-03;  2.0000000E-02;20;  0.0000000E+00;  0.0000000E+00;  0.0000000E+00;  1.0000000E+03;  4.0000001E-01;  0.0000000E+00;0;  0.0000000E+00;  0.0000000E+00;  0.0000000E+00;0;  0.0000000E+00;  1.0000000E+04;  0.0000000E+00;  0.0000000E+00;  1.0000000E+04;  0.0000000E+00;  1.0000000E+04;  0.0000000E+00;  0.0000000E+00;  0.0000000E+00;  0.0000000E+00;
 -2.2000000E-01;  9.9999998E-03;  3.9999999E-02;21;  0.0000000E+00;  0.0000000E+00;  0.0000000E+00;  1.0000000E+03;  4.0000001E-01;  0.0000000E+00;0;  0.0000000E+00;  0.0000000E+00;  0.0000000E+00;0;  0.0000000E+00;  1.0000000E+04;  0.0000000E+00;  0.0000000E+00;  1.0000000E+04;  0.0000000E+00;  1.0000000E+04;  0.0000000E+00;  0.0000000E+00;  0.0000000E+00;  0.0000000E+00;
 -2.2000000E-01;  9.9999998E-03;  5.9999999E-02;22;  0.0000000E+00;  0.0000000E+00;  0.0000000E+00;  1.0000000E+03;  4.0000001E-01;  0.0000000E+00;0;  0.0000000E+00;  0.0000000E+00;  0.0000000E+00;0;  0.0000000E+00;  1.0000000E+04;  0.0000000E+00;  0.0000000E+00;  1.0000000E+04;  0.0000000E+00;  1.0000000E+04;  0.0000000E+00;  0.0000000E+00;  0.0000000E+00;  0.0000000E+00;
 -2.2000000E-01;  9.9999998E-03;  7.9999998E-02;23;  0.0000000E+00;  0.0000000E+00;  0.0000000E+00;  1.0000000E+03;  4.0000001E-01;  0.0000000E+00;0;  0.0000000E+00;  0.0000000E+00;  0.0000000E+00;0;  0.0000000E+00;  1.0000000E+04;  0.0000000E+00;  0.0000000E+00;  1.0000000E+04;  0.0000000E+00;  1.0000000E+04;  0.0000000E+00;  0.0000000E+00;  0.0000000E+00;  0.0000000E+00;
 -2.2000000E-01;  9.9999998E-03;  1.0000000E-01;24;  0.0000000E+00;  0.0000000E+00;  0.0000000E+00;  1.0000000E+03;  4.0000001E-01;  0.0000000E+00;0;  0.0000000E+00;  0.0000000E+00;  0.0000000E+00;0;  0.0000000E+00;  1.0000000E+04;  0.0000000E+00;  0.0000000E+00;  1.0000000E+04;  0.0000000E+00;  1.0000000E+04;  0.0000000E+00;  0.0000000E+00;  0.0000000E+00;  0.0000000E+00;
 -2.2000000E-01;  9.9999998E-03;  1.2000000E-01;25;  0.0000000E+00;  0.0000000E+00;  0.0000000E+00;  1.0000000E+03;  4.0000001E-01;  0.0000000E+00;0;  0.0000000E+00;  0.0000000E+00;  0.0000000E+00;0;  0.0000000E+00;  1.0000000E+04;  0.0000000E+00;  0.0000000E+00;  1.0000000E+04;  0.0000000E+00;  1.0000000E+04;  0.0000000E+00;  0.0000000E+00;  0.0000000E+00;  0.0000000E+00;
 -2.2000000E-01;  9.9999998E-03;  1.4000000E-01;26;  0.0000000E+00;  0.0000000E+00;  0.0000000E+00;  1.0000000E+03;  4.0000001E-01;  0.0000000E+00;0;  0.0000000E+00;  0.0000000E+00;  0.0000000E+00;0;  0.0000000E+00;  1.0000000E+04;  0.0000000E+00;  0.0000000E+00;  1.0000000E+04;  0.0000000E+00;  1.0000000E+04;  0.0000000E+00;  0.0000000E+00;  0.0000000E+00;  0.0000000E+00;
 -2.0000000E-01;  9.9999998E-03;  0.0000000E+00;59;  0.0000000E+00;  0.0000000E+00;  0.0000000E+00;  1.0000000E+03;  4.0000001E-01;  0.0000000E+00;0;  0.0000000E+00;  0.0000000E+00;  0.0000000E+00;0;  0.0000000E+00;  1.0000000E+04;  0.0000000E+00;  0.0000000E+00;  1.0000000E+04;  0.0000000E+00;  1.0000000E+04;  0.0000000E+00;  0.0000000E+00;  0.0000000E+00;  0.0000000E+00;
 -2.0000000E-01;  9.9999998E-03;  2.0000000E-02;60;  0.0000000E+00;  0.0000000E+00;  0.0000000E+00;  1.0000000E+03;  4.0000001E-01;  0.0000000E+00;0;  0.0000000E+00;  0.0000000E+00;  0.0000000E+00;0;  0.0000000E+00;  1.0000000E+04;  0.0000000E+00;  0.0000000E+00;  1.0000000E+04;  0.0000000E+00;  1.0000000E+04;  0.0000000E+00;  0.0000000E+00;  0.0000000E+00;  0.0000000E+00;
 -2.0000000E-01;  9.9999998E-03;  3.9999999E-02;61;  0.0000000E+00;  0.0000000E+00;  0.0000000E+00;  1.0000000E+03;  4.0000001E-01;  0.0000000E+00;0;  0.0000000E+00;  0.0000000E+00;  0.0000000E+00;0;  0.0000000E+00;  1.0000000E+04;  0.0000000E+00;  0.0000000E+00;  1.0000000E+04;  0.0000000E+00;  1.0000000E+04;  0.0000000E+00;  0.0000000E+00;  0.0000000E+00;  0.0000000E+00;
 -2.0000000E-01;  9.9999998E-03;  5.9999999E-02;62;  0.0000000E+00;  0.0000000E+00;  0.0000000E+00;  1.0000000E+03;  4.0000001E-01;  0.0000000E+00;0;  0.0000000E+00;  0.0000000E+00;  0.0000000E+00;0;  0.0000000E+00;  1.0000000E+04;  0.0000000E+00;  0.0000000E+00;  1.0000000E+04;  0.0000000E+00;  1.0000000E+04;  0.0000000E+00;  0.0000000E+00;  0.0000000E+00;  0.0000000E+00;
 -2.0000000E-01;  9.9999998E-03;  7.9999998E-02;63;  0.0000000E+00;  0.0000000E+00;  0.0000000E+00;  1.0000000E+03;  4.0000001E-01;  0.0000000E+00;0;  0.0000000E+00;  0.0000000E+00;  0.0000000E+00;0;  0.0000000E+00;  1.0000000E+04;  0.0000000E+00;  0.0000000E+00;  1.0000000E+04;  0.0000000E+00;  1.0000000E+04;  0.0000000E+00;  0.0000000E+00;  0.0000000E+00;  0.0000000E+00;
 -2.0000000E-01;  9.9999998E-03;  1.0000000E-01;64;  0.0000000E+00;  0.0000000E+00;  0.0000000E+00;  1.0000000E+03;  4.0000001E-01;  0.0000000E+00;0;  0.0000000E+00;  0.0000000E+00;  0.0000000E+00;0;  0.0000000E+00;  1.0000000E+04;  0.0000000E+00;  0.0000000E+00;  1.0000000E+04;  0.0000000E+00;  1.0000000E+04;  0.0000000E+00;  0.0000000E+00;  0.0000000E+00;  0.0000000E+00;
 -2.0000000E-01;  9.9999998E-03;  1.2000000E-01;65;  0.0000000E+00;  0.0000000E+00;  0.0000000E+00;  1.0000000E+03;  4.0000001E-01;  0.0000000E+00;0;  0.0000000E+00;  0.0000000E+00;  0.0000000E+00;0;  0.0000000E+00;  1.0000000E+04;  0.0000000E+00;  0.0000000E+00;  1.0000000E+04;  0.0000000E+00;  1.0000000E+04;  0.0000000E+00;  0.0000000E+00;  0.0000000E+00;  0.0000000E+00;
 -2.0000000E-01;  9.9999998E-03;  1.4000000E-01;66;  0.0000000E+00;  0.0000000E+00;  0.0000000E+00;  1.0000000E+03;  4.0000001E-01;  0.0000000E+00;0;  0.0000000E+00;  0.0000000E+00;  0.0000000E+00;0;  0.0000000E+00;  1.0000000E+04;  0.0000000E+00;  0.0000000E+00;  1.0000000E+04;  0.0000000E+00;  1.0000000E+04;  0.0000000E+00;  0.0000000E+00;  0.0000000E+00;  0.0000000E+00;
 -1.8000001E-01;  9.9999998E-03;  0.0000000E+00;100;  0.0000000E+00;  0.0000000E+00;  0.0000000E+00;  1.0000000E+03;  4.0000001E-01;  0.0000000E+00;0;  0.0000000E+00;  0.0000000E+00;  0.0000000E+00;0;  0.0000000E+00;  1.0000000E+04;  0.0000000E+00;  0.0000000E+00;  1.0000000E+04;  0.0000000E+00;  1.0000000E+04;  0.0000000E+00;  0.0000000E+00;  0.0000000E+00;  0.0000000E+00;
 -1.8000001E-01;  9.9999998E-03;  2.0000000E-02;101;  0.0000000E+00;  0.0000000E+00;  0.0000000E+00;  1.0000000E+03;  4.0000001E-01;  0.0000000E+00;0;  0.0000000E+00;  0.0000000E+00;  0.0000000E+00;0;  0.0000000E+00;  1.0000000E+04;  0.0000000E+00;  0.0000000E+00;  1.0000000E+04;  0.0000000E+00;  1.0000000E+04;  0.0000000E+00;  0.0000000E+00;  0.0000000E+00;  0.0000000E+00;
 -1.8000001E-01;  9.9999998E-03;  3.9999999E-02;102;  0.0000000E+00;  0.0000000E+00;  0.0000000E+00;  1.0000000E+03;  4.0000001E-01;  0.0000000E+00;0;  0.0000000E+00;  0.0000000E+00;  0.0000000E+00;0;  0.0000000E+00;  1.0000000E+04;  0.0000000E+00;  0.0000000E+00;  1.0000000E+04;  0.0000000E+00;  1.0000000E+04;  0.0000000E+00;  0.0000000E+00;  0.0000000E+00;  0.0000000E+00;
 -1.8000001E-01;  9.9999998E-03;  5.9999999E-02;103;  0.0000000E+00;  0.0000000E+00;  0.0000000E+00;  1.0000000E+03;  4.0000001E-01;  0.0000000E+00;0;  0.0000000E+00;  0.0000000E+00;  0.0000000E+00;0;  0.0000000E+00;  1.0000000E+04;  0.0000000E+00;  0.0000000E+00;  1.0000000E+04;  0.0000000E+00;  1.0000000E+04;  0.0000000E+00;  0.0000000E+00;  0.0000000E+00;  0.0000000E+00;
 -1.8000001E-01;  9.9999998E-03;  7.9999998E-02;104;  0.0000000E+00;  0.0000000E+00;  0.0000000E+00;  1.0000000E+03;  4.0000001E-01;  0.0000000E+00;0;  0.0000000E+00;  0.0000000E+00;  0.0000000E+00;0;  0.0000000E+00;  1.0000000E+04;  0.0000000E+00;  0.0000000E+00;  1.0000000E+04;  0.0000000E+00;  1.0000000E+04;  0.0000000E+00;  0.0000000E+00;  0.0000000E+00;  0.0000000E+00;
 -1.8000001E-01;  9.9999998E-03;  1.0000000E-01;105;  0.0000000E+00;  0.0000000E+00;  0.0000000E+00;  1.0000000E+03;  4.0000001E-01;  0.0000000E+00;0;  0.0000000E+00;  0.0000000E+00;  0.0000000E+00;0;  0.0000000E+00;  1.0000000E+04;  0.0000000E+00;  0.0000000E+00;  1.0000000E+04;  0.0000000E+00;  1.0000000E+04;  0.0000000E+00;  0.0000000E+00;  0.0000000E+00;  0.0000000E+00;
 -1.8000001E-01;  9.9999998E-03;  1.2000000E-01;106;  0.0000000E+00;  0.0000000E+00;  0.0000000E+00;  1.0000000E+03;  4.0000001E-01;  0.0000000E+00;0;  0.0000000E+00;  0.0000000E+00;  0.0000000E+00;0;  0.0000000E+00;  1.0000000E+04;  0.0000000E+00;  0.0000000E+00;  1.0000000E+04;  0.0000000E+00;  1.0000000E+04;  0.0000000E+00;  0.0000000E+00;  0.0000000E+00;  0.0000000E+00;
 -1.8000001E-01;  9.9999998E-03;  1.4000000E-01;107;  0.0000000E+00;  0.0000000E+00;  0.0000000E+00;  1.0000000E+03;  4.0000001E-01;  0.0000000E+00;0;  0.0000000E+00;  0.0000000E+00;  0.0000000E+00;0;  0.0000000E+00;  1.0000000E+04;  0.0000000E+00;  0.0000000E+00;  1.0000000E+04;  0.0000000E+00;  1.0000000E+04;  0.0000000E+00;  0.0000000E+00;  0.0000000E+00;  0.0000000E+00;
 -1.6000000E-01;  9.9999998E-03;  0.0000000E+00;141;  0.0000000E+00;  0.0000000E+00;  0.0000000E+00;  1.0000000E+03;  4.0000001E-01;  0.0000000E+00;0;  0.0000000E+00;  0.0000000E+00;  0.0000000E+00;0; -1.5178315E-11;  1.0000000E+04;  0.0000000E+00;  0.0000000E+00;  1.0000000E+04;  0.0000000E+00;  1.0000000E+04; -1.5181120E-11;  0.0000000E+00;  2.8058379E-15;  2.8923811E-11;
 -1.6000000E-01;  9.9999998E-03;  2.0000000E-02;142;  0.0000000E+00;  0.0000000E+00;  0.0000000E+00;  1.0000000E+03;  4.0000001E-01;  0.0000000E+00;0;  0.0000000E+00;  0.0000000E+00;  0.0000000E+00;0; -1.5164975E-11;  1.0000000E+04;  0.0000000E+00;  0.0000000E+00;  1.0000000E+04;  0.0000000E+00;  1.0000000E+04; -1.5167997E-11;  0.0000000E+00;  3.0224732E-15;  2.8946538E-11;
 -1.6000000E-01;  9.9999998E-03;  3.9999999E-02;143;  0.0000000E+00;  0.0000000E+00;  0.0000000E+00;  1.0000000E+03;  4.0000001E-01;  0.0000000E+00;0;  0.0000000E+00;  0.0000000E+00;  0.0000000E+00;0; -1.5123031E-11;  1.0000000E+04;  0.0000000E+00;  0.0000000E+00;  1.0000000E+04;  0.0000000E+00;  1.0000000E+04; -1.5126709E-11;  0.0000000E+00;  3.6773080E-15;  2.9015925E-11;
 -1.6000000E-01;  9.9999998E-03;  5.9999999E-02;144;  0.0000000E+00;  0.0000000E+00;  0.0000000E+00;  1.0000000E+03;  4.0000001E-01;  0.0000000E+00;0;  0.0000000E+00;  0.0000000E+00;  0.0000000E+00;0; -1.5046698E-11;  1.0000000E+04;  0.0000000E+00;  0.0000000E+00;  1.0000000E+04;  0.0000000E+00;  1.0000000E+04; -1.5051479E-11;  0.0000000E+00;  4.7814209E-15;  2.9134382E-11;
 -1.6000000E-01;  9.9999998E-03;  7.9999998E-02;145;  0.0000000E+00;  0.0000000E+00;  0.0000000E+00;  1.0000000E+03;  4.0000001E-01;  0.0000000E+00;0;  0.0000000E+00;  0.0000000E+00;  0.0000000E+00;0; -1.4926184E-11;  1.0000000E+04;  0.0000000E+00;  0.0000000E+00;  1.0000000E+04;  0.0000000E+00;  1.0000000E+04; -1.4932526E-11;  0.0000000E+00;  6.3423688E-15;  2.9301544E-11;
 -1.6000000E-01;  9.9999998E-03;  1.0000000E-01;146;  0.0000000E+00;  0.0000000E+00;  0.0000000E+00;  1.0000000E+03;  4.0000001E-01;  0.0000000E+00;0;  0.0000000E+00;  0.0000000E+00;  0.0000000E+00;0; -1.4747580E-11;  1.0000000E+04;  0.0000000E+00;  0.0000000E+00;  1.0000000E+04;  0.0000000E+00;  1.0000000E+04; -1.4755926E-11;  0.0000000E+00;  8.3461036E-15;  2.9507875E-11;
 -1.6000000E-01;  9.9999998E-03;  1.2000000E-01;147;  0.0000000E+00;  0.0000000E+00;  0.0000000E+00;  1.0000000E+03;  4.0000001E-01;  0.0000000E+00;0;  0.0000000E+00;  0.0000000E+00;  0.0000000E+00;0; -1.4492801E-11;  1.0000000E+04;  0.0000000E+00;  0.0000000E+00;  1.0000000E+04;  0.0000000E+00;  1.0000000E+04; -1.4503539E-11;  0.0000000E+00;  1.0737723E-14;  2.9725424E-11;
 -1.6000000E-01;  9.9999998E-03;  1.4000000E-01;148;  0.0000000E+00;  0.0000000E+00;  0.0000000E+00;  1.0000000E+03;  4.0000001E-01;  0.0000000E+00;0;  0.0000000E+00;  0.0000000E+00;  0.0000000E+00;0; -1.4139781E-11;  1.0000000E+04;  0.0000000E+00;  0.0000000E+00;  1.0000000E+04;  0.0000000E+00;  1.0000000E+04; -1.4153188E-11;  0.0000000E+00;  1.3406533E-14;  2.9896214E-11;
 -1.4000000E-01;  9.9999998E-03;  0.0000000E+00;182;  0.0000000E+00;  0.0000000E+00;  0.0000000E+00;  1.0000000E+03;  4.0000001E-01;  0.0000000E+00;0;  0.0000000E+00;  0.0000000E+00;  0.0000000E+00;0; -5.6856925E-10;  1.0000000E+04;  0.0000000E+00;  0.0000000E+00;  1.0000000E+04;  0.0000000E+00;  1.0000000E+04; -5.6896066E-10;  0.0000000E+00;  3.9139810E-13;  1.1204260E-09;
 -1.4000000E-01;  9.9999998E-03;  2.0000000E-02;183;  0.0000000E+00;  0.0000000E+00;  0.0000000E+00;  1.0000000E+03;  4.0000001E-01;  0.0000000E+00;0;  0.0000000E+00;  0.0000000E+00;  0.0000000E+00;0; -5.6799504E-10;  1.0000000E+04;  0.0000000E+00;  0.0000000E+00;  1.0000000E+04;  0.0000000E+00;  1.0000000E+04; -5.6841432E-10;  0.0000000E+00;  4.1925559E-13;  1.1245835E-09;
 -1.4000000E-01;  9.9999998E-03;  3.9999999E-02;184;  0.0000000E+00;  0.0000000E+00;  0.0000000E+00;  1.0000000E+03;  4.0000001E-01;  0.0000000E+00;0;  0.0000000E+00;  0.0000000E+00;  0.0000000E+00;0; -5.6619903E-10;  1.0000000E+04;  0.0000000E+00;  0.0000000E+00;  1.0000000E+04;  0.0000000E+00;  1.0000000E+04; -5.6670219E-10;  0.0000000E+00;  5.0316939E-13;  1.1374062E-09;
 -1.4000000E-01;  9.9999998E-03;  5.9999999E-02;185;  0.0000000E+00;  0.0000000E+00;  0.0000000E+00;  1.0000000E+03;  4.0000001E-01;  0.0000000E+00;0;  0.0000000E+00;  0.0000000E+00;  0.0000000E+00;0; -5.6296073E-10;  1.0000000E+04;  0.0000000E+00;  0.0000000E+00;  1.0000000E+04;  0.0000000E+00;  1.0000000E+04; -5.6360450E-10;  0.0000000E+00;  6.4374092E-13;  1.1598119E-09;
 -1.4000000E-01;  9.9999998E-03;  7.9999998E-02;186;  0.0000000E+00;  0.0000000E+00;  0.0000000E+00;  1.0000000E+03;  4.0000001E-01;  0.0000000E+00;0;  0.0000000E+00;  0.0000000E+00;  0.0000000E+00;0; -5.5791066E-10;  1.0000000E+04;  0.0000000E+00;  0.0000000E+00;  1.0000000E+04;  0.0000000E+00;  1.0000000E+04; -5.5875121E-10;  0.0000000E+00;  8.4054275E-13;  1.1928775E-09;
 -1.4000000E-01;  9.9999998E-03;  1.0000000E-01;187;  0.0000000E+00;  0.0000000E+00;  0.0000000E+00;  1.0000000E+03;  4.0000001E-01;  0.0000000E+00;0;  0.0000000E+00;  0.0000000E+00;  0.0000000E+00;0; -5.5052929E-10;  1.0000000E+04;  0.0000000E+00;  0.0000000E+00;  1.0000000E+04;  0.0000000E+00;  1.0000000E+04; -5.5161964E-10;  0.0000000E+00;  1.0903493E-12;  1.2371356E-09;
 -1.4000000E-01;  9.9999998E-03;  1.2000000E-01;188;  0.0000000E+00;  0.0000000E+00;  0.0000000E+00;  1.0000000E+03;  4.0000001E-01;  0.0000000E+00;0;  0.0000000E+00;  0.0000000E+00;  0.0000000E+00;0; -5.4015209E-10;  1.0000000E+04;  0.0000000E+00;  0.0000000E+00;  1.0000000E+04;  0.0000000E+00;  1.0000000E+04; -5.4153654E-10;  0.0000000E+00;  1.3844714E-12;  1.2915917E-09;
 -1.4000000E-01;  9.9999998E-03;  1.4000000E-01;189;  0.0000000E+00;  0.0000000E+00;  0.0000000E+00;  1.0000000E+03;  4.0000001E-01;  0.0000000E+00;0;  0.0000000E+00;  0.0000000E+00;  0.0000000E+00;0; -5.2598453E-10;  1.0000000E+04;  0.0000000E+00;  0.0000000E+00;  1.0000000E+04;  0.0000000E+00;  1.0000000E+04; -5.2769050E-10;  0.0000000E+00;  1.7059682E-12;  1.3525416E-09;
 -1.2000000E-01;  9.9999998E-03;  0.0000000E+00;223;  0.0000000E+00;  0.0000000E+00;  0.0000000E+00;  1.0000000E+03;  4.0000001E-01;  0.0000000E+00;0;  0.0000000E+00;  0.0000000E+00;  0.0000000E+00;0; -3.4994039E-09;  1.0000000E+04;  0.0000000E+00;  0.0000000E+00;  1.0000000E+04;  0.0000000E+00;  1.0000000E+04; -3.5037810E-09;  0.0000000E+00;  4.3771753E-12;  7.4246218E-09;
 -1.2000000E-01;  9.9999998E-03;  2.0000000E-02;224;  0.0000000E+00;  0.0000000E+00;  0.0000000E+00;  1.0000000E+03;  4.0000001E-01;  0.0000000E+00;0;  0.0000000E+00;  0.0000000E+00;  0.0000000E+00;0; -3.4955183E-09;  1.0000000E+04;  0.0000000E+00;  0.0000000E+00;  1.0000000E+04;  0.0000000E+00;  1.0000000E+04; -3.5001870E-09;  0.0000000E+00;  4.6687740E-12;  7.4734778E-09;
 -1.2000000E-01;  9.9999998E-03;  3.9999999E-02;225;  0.0000000E+00;  0.0000000E+00;  0.0000000E+00;  1.0000000E+03;  4.0000001E-01;  0.0000000E+00;0;  0.0000000E+00;  0.0000000E+00;  0.0000000E+00;0; -3.4834124E-09;  1.0000000E+04;  0.0000000E+00;  0.0000000E+00;  1.0000000E+04;  0.0000000E+00;  1.0000000E+04; -3.4889573E-09;  0.0000000E+00;  5.5449569E-12;  7.6237132E-09;
 -1.2000000E-01;  9.9999998E-03;  5.9999999E-02;226;  0.0000000E+00;  0.0000000E+00;  0.0000000E+00;  1.0000000E+03;  4.0000001E-01;  0.0000000E+00;0;  0.0000000E+00;  0.0000000E+00;  0.0000000E+00;0; -3.4617358E-09;  1.0000000E+04;  0.0000000E+00;  0.0000000E+00;  1.0000000E+04;  0.0000000E+00;  1.0000000E+04; -3.4687415E-09;  0.0000000E+00;  7.0057341E-12;  7.8849274E-09;
 -1.2000000E-01;  9.9999998E-03;  7.9999998E-02;227;  0.0000000E+00;  0.0000000E+00;  0.0000000E+00;  1.0000000E+03;  4.0000001E-01;  0.0000000E+00;0;  0.0000000E+00;  0.0000000E+00;  0.0000000E+00;0; -3.4282388E-09;  1.0000000E+04;  0.0000000E+00;  0.0000000E+00;  1.0000000E+04;  0.0000000E+00;  1.0000000E+04; -3.4372765E-09;  0.0000000E+00;  9.0377159E-12;  8.2683647E-09;
 -1.2000000E-01;  9.9999998E-03;  1.0000000E-01;228;  0.0000000E+00;  0.0000000E+00;  0.0000000E+00;  1.0000000E+03;  4.0000001E-01;  0.0000000E+00;0;  0.0000000E+00;  0.0000000E+00;  0.0000000E+00;0; -3.3797851E-09;  1.0000000E+04;  0.0000000E+00;  0.0000000E+00;  1.0000000E+04;  0.0000000E+00;  1.0000000E+04; -3.3913801E-09;  0.0000000E+00;  1.1594885E-11;  8.7796419E-09;
 -1.2000000E-01;  9.9999998E-03;  1.2000000E-01;229;  0.0000000E+00;  0.0000000E+00;  0.0000000E+00;  1.0000000E+03;  4.0000001E-01;  0.0000000E+00;0;  0.0000000E+00;  0.0000000E+00;  0.0000000E+00;0; -3.3124039E-09;  1.0000000E+04;  0.0000000E+00;  0.0000000E+00;  1.0000000E+04;  0.0000000E+00;  1.0000000E+04; -3.3269778E-09;  0.0000000E+00;  1.4573918E-11;  9.4088701E-09;
 -1.2000000E-01;  9.9999998E-03;  1.4000000E-01;230;  0.0000000E+00;  0.0000000E+00;  0.0000000E+00;  1.0000000E+03;  4.0000001E-01;  0.0000000E+00;0;  0.0000000E+00;  0.0000000E+00;  0.0000000E+00;0; -3.2214038E-09;  1.0000000E+04;  0.0000000E+00;  0.0000000E+00;  1.0000000E+04;  0.0000000E+00;  1.0000000E+04; -3.2391938E-09;  0.0000000E+00;  1.7789896E-11;  1.0120039E-08;
 -1.0000000E-01;  9.9999998E-03;  0.0000000E+00;264;  0.0000000E+00;  0.0000000E+00;  0.0000000E+00;  1.0000000E+03;  4.0000001E-01;  0.0000000E+00;0;  0.0000000E+00;  0.0000000E+00;  0.0000000E+00;0; -1.2885894E-08;  1.0000000E+04;  0.0000000E+00;  0.0000000E+00;  1.0000000E+04;  0.0000000E+00;  1.0000000E+04; -1.2909680E-08;  0.0000000E+00;  2.3785394E-11;  3.0036322E-08;
 -1.0000000E-01;  9.9999998E-03;  2.0000000E-02;265;  0.0000000E+00;  0.0000000E+00;  0.0000000E+00;  1.0000000E+03;  4.0000001E-01;  0.0000000E+00;0;  0.0000000E+00;  0.0000000E+00;  0.0000000E+00;0; -1.2870537E-08;  1.0000000E+04;  0.0000000E+00;  0.0000000E+00;  1.0000000E+04;  0.0000000E+00;  1.0000000E+04; -1.2895820E-08;  0.0000000E+00;  2.5283017E-11;  3.0312524E-08;
 -1.0000000E-01;  9.9999998E-03;  3.9999999E-02;266;  0.0000000E+00;  0.0000000E+00;  0.0000000E+00;  1.0000000E+03;  4.0000001E-01;  0.0000000E+00;0;  0.0000000E+00;  0.0000000E+00;  0.0000000E+00;0; -1.2822841E-08;  1.0000000E+04;  0.0000000E+00;  0.0000000E+00;  1.0000000E+04;  0.0000000E+00;  1.0000000E+04; -1.2852615E-08;  0.0000000E+00;  2.9774787E-11;  3.1159427E-08;
 -1.0000000E-01;  9.9999998E-03;  5.9999999E-02;267;  0.0000000E+00;  0.0000000E+00;  0.0000000E+00;  1.0000000E+03;  4.0000001E-01;  0.0000000E+00;0;  0.0000000E+00;  0.0000000E+00;  0.0000000E+00;0; -1.2737917E-08;  1.0000000E+04;  0.0000000E+00;  0.0000000E+00;  1.0000000E+04;  0.0000000E+00;  1.0000000E+04; -1.2775155E-08;  0.0000000E+00;  3.7238008E-11;  3.2624381E-08;
 -1.0000000E-01;  9.9999998E-03;  7.9999998E-02;268;  0.0000000E+00;  0.0000000E+00;  0.0000000E+00;  1.0000000E+03;  4.0000001E-01;  0.0000000E+00;0;  0.0000000E+00;  0.0000000E+00;  0.0000000E+00;0; -1.2607634E-08;  1.0000000E+04;  0.0000000E+00;  0.0000000E+00;  1.0000000E+04;  0.0000000E+00;  1.0000000E+04; -1.2655203E-08;  0.0000000E+00;  4.7568730E-11;  3.4761143E-08;
 -1.0000000E-01;  9.9999998E-03;  1.0000000E-01;269;  0.0000000E+00;  0.0000000E+00;  0.0000000E+00;  1.0000000E+03;  4.0000001E-01;  0.0000000E+00;0;  0.0000000E+00;  0.0000000E+00;  0.0000000E+00;0; -1.2420752E-08;  1.0000000E+04;  0.0000000E+00;  0.0000000E+00;  1.0000000E+04;  0.0000000E+00;  1.0000000E+04; -1.2481241E-08;  0.0000000E+00;  6.0488295E-11;  3.7592176E-08;
 -1.0000000E-01;  9.9999998E-03;  1.2000000E-01;270;  0.0000000E+00;  0.0000000E+00;  0.0000000E+00;  1.0000000E+03;  4.0000001E-01;  0.0000000E+00;0;  0.0000000E+00;  0.0000000E+00;  0.0000000E+00;0; -1.2163123E-08;  1.0000000E+04;  0.0000000E+00;  0.0000000E+00;  1.0000000E+04;  0.0000000E+00;  1.0000000E+04; -1.2238550E-08;  0.0000000E+00;  7.5426582E-11;  4.1059167E-08;
 -1.0000000E-01;  9.9999998E-03;  1.4000000E-01;271;  0.0000000E+00;  0.0000000E+00;  0.0000000E+00;  1.0000000E+03;  4.0000001E-01;  0.0000000E+00;0;  0.0000000E+00;  0.0000000E+00;  0.0000000E+00;0; -1.1818146E-08;  1.0000000E+04;  0.0000000E+00;  0.0000000E+00;  1.0000000E+04;  0.0000000E+00;  1.0000000E+04; -1.1909563E-08;  0.0000000E+00;  9.1416229E-11;  4.4971184E-08;
 -7.9999998E-02;  9.9999998E-03;  0.0000000E+00;305;  0.0000000E+00;  0.0000000E+00;  0.0000000E+00;  1.0000000E+03;  4.0000001E-01;  0.0000000E+00;0;  0.0000000E+00;  0.0000000E+00;  0.0000000E+00;0; -3.6722348E-08;  1.0000000E+04;  0.0000000E+00;  0.0000000E+00;  1.0000000E+04;  0.0000000E+00;  1.0000000E+04; -3.6811606E-08;  0.0000000E+00;  8.9259621E-11;  9.5647344E-08;
 -7.9999998E-02;  9.9999998E-03;  2.0000000E-02;306;  0.0000000E+00;  0.0000000E+00;  0.0000000E+00;  1.0000000E+03;  4.0000001E-01;  0.0000000E+00;0;  0.0000000E+00;  0.0000000E+00;  0.0000000E+00;0; -3.6676258E-08;  1.0000000E+04;  0.0000000E+00;  0.0000000E+00;  1.0000000E+04;  0.0000000E+00;  1.0000000E+04; -3.6770864E-08;  0.0000000E+00;  9.4606684E-11;  9.6733004E-08;
 -7.9999998E-02;  9.9999998E-03;  3.9999999E-02;307;  0.0000000E+00;  0.0000000E+00;  0.0000000E+00;  1.0000000E+03;  4.0000001E-01;  0.0000000E+00;0;  0.0000000E+00;  0.0000000E+00;  0.0000000E+00;0; -3.6533432E-08;  1.0000000E+04;  0.0000000E+00;  0.0000000E+00;  1.0000000E+04;  0.0000000E+00;  1.0000000E+04; -3.6644057E-08;  0.0000000E+00;  1.1062347E-10;  1.0005378E-07;
 -7.9999998E-02;  9.9999998E-03;  5.9999999E-02;308;  0.0000000E+00;  0.0000000E+00;  0.0000000E+00;  1.0000000E+03;  4.0000001E-01;  0.0000000E+00;0;  0.0000000E+00;  0.0000000E+00;  0.0000000E+00;0; -3.6280298E-08;  1.0000000E+04;  0.0000000E+00;  0.0000000E+00;  1.0000000E+04;  0.0000000E+00;  1.0000000E+04; -3.6417468E-08;  0.0000000E+00;  1.3716941E-10;  1.0577329E-07;
 -7.9999998E-02;  9.9999998E-03;  7.9999998E-02;309;  0.0000000E+00;  0.0000000E+00;  0.0000000E+00;  1.0000000E+03;  4.0000001E-01;  0.0000000E+00;0;  0.0000000E+00;  0.0000000E+00;  0.0000000E+00;0; -3.5894313E-08;  1.0000000E+04;  0.0000000E+00;  0.0000000E+00;  1.0000000E+04;  0.0000000E+00;  1.0000000E+04; -3.6068101E-08;  0.0000000E+00;  1.7378668E-10;  1.1407059E-07;
 -7.9999998E-02;  9.9999998E-03;  1.0000000E-01;310;  0.0000000E+00;  0.0000000E+00;  0.0000000E+00;  1.0000000E+03;  4.0000001E-01;  0.0000000E+00;0;  0.0000000E+00;  0.0000000E+00;  0.0000000E+00;0; -3.5344428E-08;  1.0000000E+04;  0.0000000E+00;  0.0000000E+00;  1.0000000E+04;  0.0000000E+00;  1.0000000E+04; -3.5563808E-08;  0.0000000E+00;  2.1938007E-10;  1.2500236E-07;
 -7.9999998E-02;  9.9999998E-03;  1.2000000E-01;311;  0.0000000E+00;  0.0000000E+00;  0.0000000E+00;  1.0000000E+03;  4.0000001E-01;  0.0000000E+00;0;  0.0000000E+00;  0.0000000E+00;  0.0000000E+00;0; -3.4591700E-08;  1.0000000E+04;  0.0000000E+00;  0.0000000E+00;  1.0000000E+04;  0.0000000E+00;  1.0000000E+04; -3.4863536E-08;  0.0000000E+00;  2.7183467E-10;  1.3832575E-07;
 -7.9999998E-02;  9.9999998E-03;  1.4000000E-01;312;  0.0000000E+00;  0.0000000E+00;  0.0000000E+00;  1.0000000E+03;  4.0000001E-01;  0.0000000E+00;0;  0.0000000E+00;  0.0000000E+00;  0.0000000E+00;0; -3.3590556E-08;  1.0000000E+04;  0.0000000E+00;  0.0000000E+00;  1.0000000E+04;  0.0000000E+00;  1.0000000E+04; -3.3918212E-08;  0.0000000E+00;  3.2765757E-10;  1.5330970E-07;
 -5.9999999E-02;  9.9999998E-03;  0.0000000E+00;346;  0.0000000E+00;  0.0000000E+00;  0.0000000E+00;  1.0000000E+03;  4.0000001E-01;  0.0000000E+00;0;  0.0000000E+00;  0.0000000E+00;  0.0000000E+00;0; -8.8889053E-08;  1.0000000E+04;  0.0000000E+00;  0.0000000E+00;  1.0000000E+04;  0.0000000E+00;  1.0000000E+04; -8.9156472E-08;  0.0000000E+00;  2.6742203E-10;  2.6311750E-07;
 -5.9999999E-02;  9.9999998E-03;  2.0000000E-02;347;  0.0000000E+00;  0.0000000E+00;  0.0000000E+00;  1.0000000E+03;  4.0000001E-01;  0.0000000E+00;0;  0.0000000E+00;  0.0000000E+00;  0.0000000E+00;0; -8.8773092E-08;  1.0000000E+04;  0.0000000E+00;  0.0000000E+00;  1.0000000E+04;  0.0000000E+00;  1.0000000E+04; -8.9055810E-08;  0.0000000E+00;  2.8271666E-10;  2.6656483E-07;
 -5.9999999E-02;  9.9999998E-03;  3.9999999E-02;348;  0.0000000E+00;  0.0000000E+00;  0.0000000E+00;  1.0000000E+03;  4.0000001E-01;  0.0000000E+00;0;  0.0000000E+00;  0.0000000E+00;  0.0000000E+00;0; -8.8414644E-08;  1.0000000E+04;  0.0000000E+00;  0.0000000E+00;  1.0000000E+04;  0.0000000E+00;  1.0000000E+04; -8.8743136E-08;  0.0000000E+00;  3.2848918E-10;  2.7708813E-07;
 -5.9999999E-02;  9.9999998E-03;  5.9999999E-02;349;  0.0000000E+00;  0.0000000E+00;  0.0000000E+00;  1.0000000E+03;  4.0000001E-01;  0.0000000E+00;0;  0.0000000E+00;  0.0000000E+00;  0.0000000E+00;0; -8.7781800E-08;  1.0000000E+04;  0.0000000E+00;  0.0000000E+00;  1.0000000E+04;  0.0000000E+00;  1.0000000E+04; -8.8186020E-08;  0.0000000E+00;  4.0422188E-10;  2.9514808E-07;
 -5.9999999E-02;  9.9999998E-03;  7.9999998E-02;350;  0.0000000E+00;  0.0000000E+00;  0.0000000E+00;  1.0000000E+03;  4.0000001E-01;  0.0000000E+00;0;  0.0000000E+00;  0.0000000E+00;  0.0000000E+00;0; -8.6821977E-08;  1.0000000E+04;  0.0000000E+00;  0.0000000E+00;  1.0000000E+04;  0.0000000E+00;  1.0000000E+04; -8.7330420E-08;  0.0000000E+00;  5.0844234E-10;  3.2123157E-07;
 -5.9999999E-02;  9.9999998E-03;  1.0000000E-01;351;  0.0000000E+00;  0.0000000E+00;  0.0000000E+00;  1.0000000E+03;  4.0000001E-01;  0.0000000E+00;0;  0.0000000E+00;  0.0000000E+00;  0.0000000E+00;0; -8.5462510E-08;  1.0000000E+04;  0.0000000E+00;  0.0000000E+00;  1.0000000E+04;  0.0000000E+00;  1.0000000E+04; -8.6100357E-08;  0.0000000E+00;  6.3784472E-10;  3.5544207E-07;
 -5.9999999E-02;  9.9999998E-03;  1.2000000E-01;352;  0.0000000E+00;  0.0000000E+00;  0.0000000E+00;  1.0000000E+03;  4.0000001E-01;  0.0000000E+00;0;  0.0000000E+00;  0.0000000E+00;  0.0000000E+00;0; -8.3612669E-08;  1.0000000E+04;  0.0000000E+00;  0.0000000E+00;  1.0000000E+04;  0.0000000E+00;  1.0000000E+04; -8.4398941E-08;  0.0000000E+00;  7.8626955E-10;  3.9697511E-07;
 -5.9999999E-02;  9.9999998E-03;  1.4000000E-01;353;  0.0000000E+00;  0.0000000E+00;  0.0000000E+00;  1.0000000E+03;  4.0000001E-01;  0.0000000E+00;0;  0.0000000E+00;  0.0000000E+00;  0.0000000E+00;0; -8.1166249E-08;  1.0000000E+04;  0.0000000E+00;  0.0000000E+00;  1.0000000E+04;  0.0000000E+00;  1.0000000E+04; -8.2109928E-08;  0.0000000E+00;  9.4368091E-10;  4.4354695E-07;
 -3.9999999E-02;  9.9999998E-03;  0.0000000E+00;387;  0.0000000E+00;  0.0000000E+00;  0.0000000E+00;  1.0000000E+03;  4.0000001E-01;  0.0000000E+00;0;  0.0000000E+00;  0.0000000E+00;  0.0000000E+00;0; -1.9233450E-07;  1.0000000E+04;  0.0000000E+00;  0.0000000E+00;  1.0000000E+04;  0.0000000E+00;  1.0000000E+04; -1.9302469E-07;  0.0000000E+00;  6.9019951E-10;  6.5755461E-07;
 -3.9999999E-02;  9.9999998E-03;  2.0000000E-02;388;  0.0000000E+00;  0.0000000E+00;  0.0000000E+00;  1.0000000E+03;  4.0000001E-01;  0.0000000E+00;0;  0.0000000E+00;  0.0000000E+00;  0.0000000E+00;0; -1.9207641E-07;  1.0000000E+04;  0.0000000E+00;  0.0000000E+00;  1.0000000E+04;  0.0000000E+00;  1.0000000E+04; -1.9280435E-07;  0.0000000E+00;  7.2793144E-10;  6.6711027E-07;
 -3.9999999E-02;  9.9999998E-03;  3.9999999E-02;389;  0.0000000E+00;  0.0000000E+00;  0.0000000E+00;  1.0000000E+03;  4.0000001E-01;  0.0000000E+00;0;  0.0000000E+00;  0.0000000E+00;  0.0000000E+00;0; -1.9128005E-07;  1.0000000E+04;  0.0000000E+00;  0.0000000E+00;  1.0000000E+04;  0.0000000E+00;  1.0000000E+04; -1.9212084E-07;  0.0000000E+00;  8.4078838E-10;  6.9622956E-07;
 -3.9999999E-02;  9.9999998E-03;  5.9999999E-02;390;  0.0000000E+00;  0.0000000E+00;  0.0000000E+00;  1.0000000E+03;  4.0000001E-01;  0.0000000E+00;0;  0.0000000E+00;  0.0000000E+00;  0.0000000E+00;0; -1.8987940E-07;  1.0000000E+04;  0.0000000E+00;  0.0000000E+00;  1.0000000E+04;  0.0000000E+00;  1.0000000E+04; -1.9090672E-07;  0.0000000E+00;  1.0273205E-09;  7.4605038E-07;
 -3.9999999E-02;  9.9999998E-03;  7.9999998E-02;391;  0.0000000E+00;  0.0000000E+00;  0.0000000E+00;  1.0000000E+03;  4.0000001E-01;  0.0000000E+00;0;  0.0000000E+00;  0.0000000E+00;  0.0000000E+00;0; -1.8776501E-07;  1.0000000E+04;  0.0000000E+00;  0.0000000E+00;  1.0000000E+04;  0.0000000E+00;  1.0000000E+04; -1.8904868E-07;  0.0000000E+00;  1.2836616E-09;  8.1773641E-07;
 -3.9999999E-02;  9.9999998E-03;  1.0000000E-01;392;  0.0000000E+00;  0.0000000E+00;  0.0000000E+00;  1.0000000E+03;  4.0000001E-01;  0.0000000E+00;0;  0.0000000E+00;  0.0000000E+00;  0.0000000E+00;0; -1.8478620E-07;  1.0000000E+04;  0.0000000E+00;  0.0000000E+00;  1.0000000E+04;  0.0000000E+00;  1.0000000E+04; -1.8638767E-07;  0.0000000E+00;  1.6014573E-09;  9.1141101E-07;
 -3.9999999E-02;  9.9999998E-03;  1.2000000E-01;393;  0.0000000E+00;  0.0000000E+00;  0.0000000E+00;  1.0000000E+03;  4.0000001E-01;  0.0000000E+00;0;  0.0000000E+00;  0.0000000E+00;  0.0000000E+00;0; -1.8075436E-07;  1.0000000E+04;  0.0000000E+00;  0.0000000E+00;  1.0000000E+04;  0.0000000E+00;  1.0000000E+04; -1.8271982E-07;  0.0000000E+00;  1.9654653E-09;  1.0247899E-06;
 -3.9999999E-02;  9.9999998E-03;  1.4000000E-01;394;  0.0000000E+00;  0.0000000E+00;  0.0000000E+00;  1.0000000E+03;  4.0000001E-01;  0.0000000E+00;0;  0.0000000E+00;  0.0000000E+00;  0.0000000E+00;0; -1.7544822E-07;  1.0000000E+04;  0.0000000E+00;  0.0000000E+00;  1.0000000E+04;  0.0000000E+00;  1.0000000E+04; -1.7779915E-07;  0.0000000E+00;  2.3509350E-09;  1.1516373E-06;
 -2.0000000E-02;  9.9999998E-03;  0.0000000E+00;428;  0.0000000E+00;  0.0000000E+00;  0.0000000E+00;  1.0000000E+03;  4.0000001E-01;  0.0000000E+00;0;  0.0000000E+00;  0.0000000E+00;  0.0000000E+00;0; -3.8551701E-07;  1.0000000E+04;  0.0000000E+00;  0.0000000E+00;  1.0000000E+04;  0.0000000E+00;  1.0000000E+04; -3.8712344E-07;  0.0000000E+00;  1.6064239E-09;  1.5422115E-06;
 -2.0000000E-02;  9.9999998E-03;  2.0000000E-02;429;  0.0000000E+00;  0.0000000E+00;  0.0000000E+00;  1.0000000E+03;  4.0000001E-01;  0.0000000E+00;0;  0.0000000E+00;  0.0000000E+00;  0.0000000E+00;0; -3.8498942E-07;  1.0000000E+04;  0.0000000E+00;  0.0000000E+00;  1.0000000E+04;  0.0000000E+00;  1.0000000E+04; -3.8667972E-07;  0.0000000E+00;  1.6902902E-09;  1.5663884E-06;
 -2.0000000E-02;  9.9999998E-03;  3.9999999E-02;430;  0.0000000E+00;  0.0000000E+00;  0.0000000E+00;  1.0000000E+03;  4.0000001E-01;  0.0000000E+00;0;  0.0000000E+00;  0.0000000E+00;  0.0000000E+00;0; -3.8336475E-07;  1.0000000E+04;  0.0000000E+00;  0.0000000E+00;  1.0000000E+04;  0.0000000E+00;  1.0000000E+04; -3.8530581E-07;  0.0000000E+00;  1.9410629E-09;  1.6399447E-06;
 -2.0000000E-02;  9.9999998E-03;  5.9999999E-02;431;  0.0000000E+00;  0.0000000E+00;  0.0000000E+00;  1.0000000E+03;  4.0000001E-01;  0.0000000E+00;0;  0.0000000E+00;  0.0000000E+00;  0.0000000E+00;0; -3.8051670E-07;  1.0000000E+04;  0.0000000E+00;  0.0000000E+00;  1.0000000E+04;  0.0000000E+00;  1.0000000E+04; -3.8287203E-07;  0.0000000E+00;  2.3553284E-09;  1.7654387E-06;
 -2.0000000E-02;  9.9999998E-03;  7.9999998E-02;432;  0.0000000E+00;  0.0000000E+00;  0.0000000E+00;  1.0000000E+03;  4.0000001E-01;  0.0000000E+00;0;  0.0000000E+00;  0.0000000E+00;  0.0000000E+00;0; -3.7623633E-07;  1.0000000E+04;  0.0000000E+00;  0.0000000E+00;  1.0000000E+04;  0.0000000E+00;  1.0000000E+04; -3.7916061E-07;  0.0000000E+00;  2.9242853E-09;  1.9454012E-06;
 -2.0000000E-02;  9.9999998E-03;  1.0000000E-01;433;  0.0000000E+00;  0.0000000E+00;  0.0000000E+00;  1.0000000E+03;  4.0000001E-01;  0.0000000E+00;0;  0.0000000E+00;  0.0000000E+00;  0.0000000E+00;0; -3.7023560E-07;  1.0000000E+04;  0.0000000E+00;  0.0000000E+00;  1.0000000E+04;  0.0000000E+00;  1.0000000E+04; -3.7386494E-07;  0.0000000E+00;  3.6293453E-09;  2.1798039E-06;
 -2.0000000E-02;  9.9999998E-03;  1.2000000E-01;434;  0.0000000E+00;  0.0000000E+00;  0.0000000E+00;  1.0000000E+03;  4.0000001E-01;  0.0000000E+00;0;  0.0000000E+00;  0.0000000E+00;  0.0000000E+00;0; -3.6215144E-07;  1.0000000E+04;  0.0000000E+00;  0.0000000E+00;  1.0000000E+04;  0.0000000E+00;  1.0000000E+04; -3.6658841E-07;  0.0000000E+00;  4.4369632E-09;  2.4627968E-06;
 -2.0000000E-02;  9.9999998E-03;  1.4000000E-01;435;  0.0000000E+00;  0.0000000E+00;  0.0000000E+00;  1.0000000E+03;  4.0000001E-01;  0.0000000E+00;0;  0.0000000E+00;  0.0000000E+00;  0.0000000E+00;0; -3.5155696E-07;  1.0000000E+04;  0.0000000E+00;  0.0000000E+00;  1.0000000E+04;  0.0000000E+00;  1.0000000E+04; -3.5684943E-07;  0.0000000E+00;  5.2924571E-09;  2.7789054E-06;
 -2.2000000E-01;  9.9999998E-03;  1.6000000E-01;27;  0.0000000E+00;  0.0000000E+00;  0.0000000E+00;  1.0000000E+03;  4.0000001E-01;  0.0000000E+00;0;  0.0000000E+00;  0.0000000E+00;  0.0000000E+00;0;  0.0000000E+00;  1.0000000E+04;  0.0000000E+00;  0.0000000E+00;  1.0000000E+04;  0.0000000E+00;  1.0000000E+04;  0.0000000E+00;  0.0000000E+00;  0.0000000E+00;  0.0000000E+00;
 -2.2000000E-01;  9.9999998E-03;  1.8000001E-01;28;  0.0000000E+00;  0.0000000E+00;  0.0000000E+00;  1.0000000E+03;  4.0000001E-01;  0.0000000E+00;0;  0.0000000E+00;  0.0000000E+00;  0.0000000E+00;0;  0.0000000E+00;  1.0000000E+04;  0.0000000E+00;  0.0000000E+00;  1.0000000E+04;  0.0000000E+00;  1.0000000E+04;  0.0000000E+00;  0.0000000E+00;  0.0000000E+00;  0.0000000E+00;
 -2.2000000E-01;  9.9999998E-03;  2.0000000E-01;29;  0.0000000E+00;  0.0000000E+00;  0.0000000E+00;  1.0000000E+03;  4.0000001E-01;  0.0000000E+00;0;  0.0000000E+00;  0.0000000E+00;  0.0000000E+00;0;  0.0000000E+00;  1.0000000E+04;  0.0000000E+00;  0.0000000E+00;  1.0000000E+04;  0.0000000E+00;  1.0000000E+04;  0.0000000E+00;  0.0000000E+00;  0.0000000E+00;  0.0000000E+00;
 -2.2000000E-01;  9.9999998E-03;  2.2000000E-01;30;  0.0000000E+00;  0.0000000E+00;  0.0000000E+00;  1.0000000E+03;  4.0000001E-01;  0.0000000E+00;0;  0.0000000E+00;  0.0000000E+00;  0.0000000E+00;0;  0.0000000E+00;  1.0000000E+04;  0.0000000E+00;  0.0000000E+00;  1.0000000E+04;  0.0000000E+00;  1.0000000E+04;  0.0000000E+00;  0.0000000E+00;  0.0000000E+00;  0.0000000E+00;
 -2.2000000E-01;  9.9999998E-03;  2.3999999E-01;31;  0.0000000E+00;  0.0000000E+00;  0.0000000E+00;  1.0000000E+03;  4.0000001E-01;  0.0000000E+00;0;  0.0000000E+00;  0.0000000E+00;  0.0000000E+00;0;  0.0000000E+00;  1.0000000E+04;  0.0000000E+00;  0.0000000E+00;  1.0000000E+04;  0.0000000E+00;  1.0000000E+04;  0.0000000E+00;  0.0000000E+00;  0.0000000E+00;  0.0000000E+00;
 -2.2000000E-01;  9.9999998E-03;  2.5999999E-01;32;  0.0000000E+00;  0.0000000E+00;  0.0000000E+00;  1.0000000E+03;  4.0000001E-01;  0.0000000E+00;0;  0.0000000E+00;  0.0000000E+00;  0.0000000E+00;0;  0.0000000E+00;  1.0000000E+04;  0.0000000E+00;  0.0000000E+00;  1.0000000E+04;  0.0000000E+00;  1.0000000E+04;  0.0000000E+00;  0.0000000E+00;  0.0000000E+00;  0.0000000E+00;
 -2.2000000E-01;  9.9999998E-03;  2.8000000E-01;33;  0.0000000E+00;  0.0000000E+00;  0.0000000E+00;  1.0000000E+03;  4.0000001E-01;  0.0000000E+00;0;  0.0000000E+00;  0.0000000E+00;  0.0000000E+00;0;  0.0000000E+00;  1.0000000E+04;  0.0000000E+00;  0.0000000E+00;  1.0000000E+04;  0.0000000E+00;  1.0000000E+04;  0.0000000E+00;  0.0000000E+00;  0.0000000E+00;  0.0000000E+00;
 -2.2000000E-01;  9.9999998E-03;  3.0000001E-01;34;  0.0000000E+00;  0.0000000E+00;  0.0000000E+00;  1.0000000E+03;  4.0000001E-01;  0.0000000E+00;0;  0.0000000E+00;  0.0000000E+00;  0.0000000E+00;0;  0.0000000E+00;  1.0000000E+04;  0.0000000E+00;  0.0000000E+00;  1.0000000E+04;  0.0000000E+00;  1.0000000E+04;  0.0000000E+00;  0.0000000E+00;  0.0000000E+00;  0.0000000E+00;
 -2.2000000E-01;  9.9999998E-03;  3.1999999E-01;35;  0.0000000E+00;  0.0000000E+00;  0.0000000E+00;  1.0000000E+03;  4.0000001E-01;  0.0000000E+00;0;  0.0000000E+00;  0.0000000E+00;  0.0000000E+00;0;  0.0000000E+00;  1.0000000E+04;  0.0000000E+00;  0.0000000E+00;  1.0000000E+04;  0.0000000E+00;  1.0000000E+04;  0.0000000E+00;  0.0000000E+00;  0.0000000E+00;  0.0000000E+00;
 -2.0000000E-01;  9.9999998E-03;  1.6000000E-01;67;  0.0000000E+00;  0.0000000E+00;  0.0000000E+00;  1.0000000E+03;  4.0000001E-01;  0.0000000E+00;0;  0.0000000E+00;  0.0000000E+00;  0.0000000E+00;0;  0.0000000E+00;  1.0000000E+04;  0.0000000E+00;  0.0000000E+00;  1.0000000E+04;  0.0000000E+00;  1.0000000E+04;  0.0000000E+00;  0.0000000E+00;  0.0000000E+00;  0.0000000E+00;
 -2.0000000E-01;  9.9999998E-03;  1.8000001E-01;68;  0.0000000E+00;  0.0000000E+00;  0.0000000E+00;  1.0000000E+03;  4.0000001E-01;  0.0000000E+00;0;  0.0000000E+00;  0.0000000E+00;  0.0000000E+00;0;  0.0000000E+00;  1.0000000E+04;  0.0000000E+00;  0.0000000E+00;  1.0000000E+04;  0.0000000E+00;  1.0000000E+04;  0.0000000E+00;  0.0000000E+00;  0.0000000E+00;  0.0000000E+00;
 -2.0000000E-01;  9.9999998E-03;  2.0000000E-01;69;  0.0000000E+00;  0.0000000E+00;  0.0000000E+00;  1.0000000E+03;  4.0000001E-01;  0.0000000E+00;0;  0.0000000E+00;  0.0000000E+00;  0.0000000E+00;0;  0.0000000E+00;  1.0000000E+04;  0.0000000E+00;  0.0000000E+00;  1.0000000E+04;  0.0000000E+00;  1.0000000E+04;  0.0000000E+00;  0.0000000E+00;  0.0000000E+00;  0.0000000E+00;
 -2.0000000E-01;  9.9999998E-03;  2.2000000E-01;70;  0.0000000E+00;  0.0000000E+00;  0.0000000E+00;  1.0000000E+03;  4.0000001E-01;  0.0000000E+00;0;  0.0000000E+00;  0.0000000E+00;  0.0000000E+00;0;  0.0000000E+00;  1.0000000E+04;  0.0000000E+00;  0.0000000E+00;  1.0000000E+04;  0.0000000E+00;  1.0000000E+04;  0.0000000E+00;  0.0000000E+00;  0.0000000E+00;  0.0000000E+00;
 -2.0000000E-01;  9.9999998E-03;  2.3999999E-01;71;  0.0000000E+00;  0.0000000E+00;  0.0000000E+00;  1.0000000E+03;  4.0000001E-01;  0.0000000E+00;0;  0.0000000E+00;  0.0000000E+00;  0.0000000E+00;0;  0.0000000E+00;  1.0000000E+04;  0.0000000E+00;  0.0000000E+00;  1.0000000E+04;  0.0000000E+00;  1.0000000E+04;  0.0000000E+00;  0.0000000E+00;  0.0000000E+00;  0.0000000E+00;
 -2.0000000E-01;  9.9999998E-03;  2.5999999E-01;72;  0.0000000E+00;  0.0000000E+00;  0.0000000E+00;  1.0000000E+03;  4.0000001E-01;  0.0000000E+00;0;  0.0000000E+00;  0.0000000E+00;  0.0000000E+00;0;  0.0000000E+00;  1.0000000E+04;  0.0000000E+00;  0.0000000E+00;  1.0000000E+04;  0.0000000E+00;  1.0000000E+04;  0.0000000E+00;  0.0000000E+00;  0.0000000E+00;  0.0000000E+00;
 -2.0000000E-01;  9.9999998E-03;  2.8000000E-01;73;  0.0000000E+00;  0.0000000E+00;  0.0000000E+00;  1.0000000E+03;  4.0000001E-01;  0.0000000E+00;0;  0.0000000E+00;  0.0000000E+00;  0.0000000E+00;0;  0.0000000E+00;  1.0000000E+04;  0.0000000E+00;  0.0000000E+00;  1.0000000E+04;  0.0000000E+00;  1.0000000E+04;  0.0000000E+00;  0.0000000E+00;  0.0000000E+00;  0.0000000E+00;
 -2.0000000E-01;  9.9999998E-03;  3.0000001E-01;74;  0.0000000E+00;  0.0000000E+00;  0.0000000E+00;  1.0000000E+03;  4.0000001E-01;  0.0000000E+00;0;  0.0000000E+00;  0.0000000E+00;  0.0000000E+00;0;  0.0000000E+00;  1.0000000E+04;  0.0000000E+00;  0.0000000E+00;  1.0000000E+04;  0.0000000E+00;  1.0000000E+04;  0.0000000E+00;  0.0000000E+00;  0.0000000E+00;  0.0000000E+00;
 -2.0000000E-01;  9.9999998E-03;  3.1999999E-01;75;  0.0000000E+00;  0.0000000E+00;  0.0000000E+00;  1.0000000E+03;  4.0000001E-01;  0.0000000E+00;0;  0.0000000E+00;  0.0000000E+00;  0.0000000E+00;0;  0.0000000E+00;  1.0000000E+04;  0.0000000E+00;  0.0000000E+00;  1.0000000E+04;  0.0000000E+00;  1.0000000E+04;  0.0000000E+00;  0.0000000E+00;  0.0000000E+00;  0.0000000E+00;
 -1.8000001E-01;  9.9999998E-03;  1.6000000E-01;108;  0.0000000E+00;  0.0000000E+00;  0.0000000E+00;  1.0000000E+03;  4.0000001E-01;  0.0000000E+00;0;  0.0000000E+00;  0.0000000E+00;  0.0000000E+00;0;  0.0000000E+00;  1.0000000E+04;  0.0000000E+00;  0.0000000E+00;  1.0000000E+04;  0.0000000E+00;  1.0000000E+04;  0.0000000E+00;  0.0000000E+00;  0.0000000E+00;  0.0000000E+00;
 -1.8000001E-01;  9.9999998E-03;  1.8000001E-01;109;  0.0000000E+00;  0.0000000E+00;  0.0000000E+00;  1.0000000E+03;  4.0000001E-01;  0.0000000E+00;0;  0.0000000E+00;  0.0000000E+00;  0.0000000E+00;0;  0.0000000E+00;  1.0000000E+04;  0.0000000E+00;  0.0000000E+00;  1.0000000E+04;  0.0000000E+00;  1.0000000E+04;  0.0000000E+00;  0.0000000E+00;  0.0000000E+00;  0.0000000E+00;
 -1.8000001E-01;  9.9999998E-03;  2.0000000E-01;110;  0.0000000E+00;  0.0000000E+00;  0.0000000E+00;  1.0000000E+03;  4.0000001E-01;  0.0000000E+00;0;  0.0000000E+00;  0.0000000E+00;  0.0000000E+00;0;  0.0000000E+00;  1.0000000E+04;  0.0000000E+00;  0.0000000E+00;  1.0000000E+04;  0.0000000E+00;  1.0000000E+04;  0.0000000E+00;  0.0000000E+00;  0.0000000E+00;  0.0000000E+00;
 -1.8000001E-01;  9.9999998E-03;  2.2000000E-01;111;  0.0000000E+00;  0.0000000E+00;  0.0000000E+00;  1.0000000E+03;  4.0000001E-01;  0.0000000E+00;0;  0.0000000E+00;  0.0000000E+00;  0.0000000E+00;0;  0.0000000E+00;  1.0000000E+04;  0.0000000E+00;  0.0000000E+00;  1.0000000E+04;  0.0000000E+00;  1.0000000E+04;  0.0000000E+00;  0.0000000E+00;  0.0000000E+00;  0.0000000E+00;
 -1.8000001E-01;  9.9999998E-03;  2.3999999E-01;112;  0.0000000E+00;  0.0000000E+00;  0.0000000E+00;  1.0000000E+03;  4.0000001E-01;  0.0000000E+00;0;  0.0000000E+00;  0.0000000E+00;  0.0000000E+00;0;  0.0000000E+00;  1.0000000E+04;  0.0000000E+00;  0.0000000E+00;  1.0000000E+04;  0.0000000E+00;  1.0000000E+04;  0.0000000E+00;  0.0000000E+00;  0.0000000E+00;  0.0000000E+00;
 -1.8000001E-01;  9.9999998E-03;  2.5999999E-01;113;  0.0000000E+00;  0.0000000E+00;  0.0000000E+00;  1.0000000E+03;  4.0000001E-01;  0.0000000E+00;0;  0.0000000E+00;  0.0000000E+00;  0.0000000E+00;0;  0.0000000E+00;  1.0000000E+04;  0.0000000E+00;  0.0000000E+00;  1.0000000E+04;  0.0000000E+00;  1.0000000E+04;  0.0000000E+00;  0.0000000E+00;  0.0000000E+00;  0.0000000E+00;
 -1.8000001E-01;  9.9999998E-03;  2.8000000E-01;114;  0.0000000E+00;  0.0000000E+00;  0.0000000E+00;  1.0000000E+03;  4.0000001E-01;  0.0000000E+00;0;  0.0000000E+00;  0.0000000E+00;  0.0000000E+00;0;  0.0000000E+00;  1.0000000E+04;  0.0000000E+00;  0.0000000E+00;  1.0000000E+04;  0.0000000E+00;  1.0000000E+04;  0.0000000E+00;  0.0000000E+00;  0.0000000E+00;  0.0000000E+00;
 -1.8000001E-01;  9.9999998E-03;  3.0000001E-01;115;  0.0000000E+00;  0.0000000E+00;  0.0000000E+00;  1.0000000E+03;  4.0000001E-01;  0.0000000E+00;0;  0.0000000E+00;  0.0000000E+00;  0.0000000E+00;0;  0.0000000E+00;  1.0000000E+04;  0.0000000E+00;  0.0000000E+00;  1.0000000E+04;  0.0000000E+00;  1.0000000E+04;  0.0000000E+00;  0.0000000E+00;  0.0000000E+00;  0.0000000E+00;
 -1.8000001E-01;  9.9999998E-03;  3.1999999E-01;116;  0.0000000E+00;  0.0000000E+00;  0.0000000E+00;  1.0000000E+03;  4.0000001E-01;  0.0000000E+00;0;  0.0000000E+00;  0.0000000E+00;  0.0000000E+00;0;  0.0000000E+00;  1.0000000E+04;  0.0000000E+00;  0.0000000E+00;  1.0000000E+04;  0.0000000E+00;  1.0000000E+04;  0.0000000E+00;  0.0000000E+00;  0.0000000E+00;  0.0000000E+00;
 -1.6000000E-01;  9.9999998E-03;  1.6000000E-01;149;  0.0000000E+00;  0.0000000E+00;  0.0000000E+00;  1.0000000E+03;  4.0000001E-01;  0.0000000E+00;0;  0.0000000E+00;  0.0000000E+00;  0.0000000E+00;0; -1.3663201E-11;  1.0000000E+04;  0.0000000E+00;  0.0000000E+00;  1.0000000E+04;  0.0000000E+00;  1.0000000E+04; -1.3679337E-11;  0.0000000E+00;  1.6136574E-14;  2.9921621E-11;
 -1.6000000E-01;  9.9999998E-03;  1.8000001E-01;150;  0.0000000E+00;  0.0000000E+00;  0.0000000E+00;  1.0000000E+03;  4.0000001E-01;  0.0000000E+00;0;  0.0000000E+00;  0.0000000E+00;  0.0000000E+00;0; -1.3035880E-11;  1.0000000E+04;  0.0000000E+00;  0.0000000E+00;  1.0000000E+04;  0.0000000E+00;  1.0000000E+04; -1.3054489E-11;  0.0000000E+00;  1.8609399E-14;  2.9656947E-11;
 -1.6000000E-01;  9.9999998E-03;  2.0000000E-01;151;  0.0000000E+00;  0.0000000E+00;  0.0000000E+00;  1.0000000E+03;  4.0000001E-01;  0.0000000E+00;0;  0.0000000E+00;  0.0000000E+00;  0.0000000E+00;0; -1.2230603E-11;  1.0000000E+04;  0.0000000E+00;  0.0000000E+00;  1.0000000E+04;  0.0000000E+00;  1.0000000E+04; -1.2251066E-11;  0.0000000E+00;  2.0463223E-14;  2.8925183E-11;
 -1.6000000E-01;  9.9999998E-03;  2.2000000E-01;152;  0.0000000E+00;  0.0000000E+00;  0.0000000E+00;  1.0000000E+03;  4.0000001E-01;  0.0000000E+00;0;  0.0000000E+00;  0.0000000E+00;  0.0000000E+00;0; -1.1221667E-11;  1.0000000E+04;  0.0000000E+00;  0.0000000E+00;  1.0000000E+04;  0.0000000E+00;  1.0000000E+04; -1.1242954E-11;  0.0000000E+00;  2.1286932E-14;  2.7521742E-11;
 -1.6000000E-01;  9.9999998E-03;  2.3999999E-01;153;  0.0000000E+00;  0.0000000E+00;  0.0000000E+00;  1.0000000E+03;  4.0000001E-01;  0.0000000E+00;0;  0.0000000E+00;  0.0000000E+00;  0.0000000E+00;0; -9.9876045E-12;  1.0000000E+04;  0.0000000E+00;  0.0000000E+00;  1.0000000E+04;  0.0000000E+00;  1.0000000E+04; -1.0007883E-11;  0.0000000E+00;  2.0278492E-14;  2.5143049E-11;
 -1.6000000E-01;  9.9999998E-03;  2.5999999E-01;154;  0.0000000E+00;  0.0000000E+00;  0.0000000E+00;  1.0000000E+03;  4.0000001E-01;  0.0000000E+00;0;  0.0000000E+00;  0.0000000E+00;  0.0000000E+00;0; -8.3041152E-12;  1.0000000E+04;  0.0000000E+00;  0.0000000E+00;  1.0000000E+04;  0.0000000E+00;  1.0000000E+04; -8.3017369E-12;  0.0000000E+00; -2.3782889E-15;  1.6956851E-11;
 -1.6000000E-01;  9.9999998E-03;  2.8000000E-01;155;  0.0000000E+00;  0.0000000E+00;  0.0000000E+00;  1.0000000E+03;  4.0000001E-01;  0.0000000E+00;0;  0.0000000E+00;  0.0000000E+00;  0.0000000E+00;0; -5.4729940E-12;  1.0000000E+04;  0.0000000E+00;  0.0000000E+00;  1.0000000E+04;  0.0000000E+00;  1.0000000E+04; -5.4113142E-12;  0.0000000E+00; -6.1679801E-14;  3.5619723E-12;
 -1.6000000E-01;  9.9999998E-03;  3.0000001E-01;156;  0.0000000E+00;  0.0000000E+00;  0.0000000E+00;  1.0000000E+03;  4.0000001E-01;  0.0000000E+00;0;  0.0000000E+00;  0.0000000E+00;  0.0000000E+00;0; -2.2805215E-12;  1.0000000E+04;  0.0000000E+00;  0.0000000E+00;  1.0000000E+04;  0.0000000E+00;  1.0000000E+04; -2.2092543E-12;  0.0000000E+00; -7.1267306E-14;  1.1222624E-11;
 -1.6000000E-01;  9.9999998E-03;  3.1999999E-01;157;  0.0000000E+00;  0.0000000E+00;  0.0000000E+00;  1.0000000E+03;  4.0000001E-01;  0.0000000E+00;0;  0.0000000E+00;  0.0000000E+00;  0.0000000E+00;0; -3.5366515E-13;  1.0000000E+04;  0.0000000E+00;  0.0000000E+00;  1.0000000E+04;  0.0000000E+00;  1.0000000E+04; -3.3232754E-13;  0.0000000E+00; -2.1337605E-14;  3.8929246E-12;
 -1.4000000E-01;  9.9999998E-03;  1.6000000E-01;190;  0.0000000E+00;  0.0000000E+00;  0.0000000E+00;  1.0000000E+03;  4.0000001E-01;  0.0000000E+00;0;  0.0000000E+00;  0.0000000E+00;  0.0000000E+00;0; -5.0713467E-10;  1.0000000E+04;  0.0000000E+00;  0.0000000E+00;  1.0000000E+04;  0.0000000E+00;  1.0000000E+04; -5.0916232E-10;  0.0000000E+00;  2.0276289E-12;  1.4126372E-09;
 -1.4000000E-01;  9.9999998E-03;  1.8000001E-01;191;  0.0000000E+00;  0.0000000E+00;  0.0000000E+00;  1.0000000E+03;  4.0000001E-01;  0.0000000E+00;0;  0.0000000E+00;  0.0000000E+00;  0.0000000E+00;0; -4.8265691E-10;  1.0000000E+04;  0.0000000E+00;  0.0000000E+00;  1.0000000E+04;  0.0000000E+00;  1.0000000E+04; -4.8496945E-10;  0.0000000E+00;  2.3125440E-12;  1.4604815E-09;
 -1.4000000E-01;  9.9999998E-03;  2.0000000E-01;192;  0.0000000E+00;  0.0000000E+00;  0.0000000E+00;  1.0000000E+03;  4.0000001E-01;  0.0000000E+00;0;  0.0000000E+00;  0.0000000E+00;  0.0000000E+00;0; -4.5161364E-10;  1.0000000E+04;  0.0000000E+00;  0.0000000E+00;  1.0000000E+04;  0.0000000E+00;  1.0000000E+04; -4.5412463E-10;  0.0000000E+00;  2.5109897E-12;  1.4797522E-09;
 -1.4000000E-01;  9.9999998E-03;  2.2000000E-01;193;  0.0000000E+00;  0.0000000E+00;  0.0000000E+00;  1.0000000E+03;  4.0000001E-01;  0.0000000E+00;0;  0.0000000E+00;  0.0000000E+00;  0.0000000E+00;0; -4.1240239E-10;  1.0000000E+04;  0.0000000E+00;  0.0000000E+00;  1.0000000E+04;  0.0000000E+00;  1.0000000E+04; -4.1475559E-10;  0.0000000E+00;  2.3531882E-12;  1.4022666E-09;
 -1.4000000E-01;  9.9999998E-03;  2.3999999E-01;194;  0.0000000E+00;  0.0000000E+00;  0.0000000E+00;  1.0000000E+03;  4.0000001E-01;  0.0000000E+00;0;  0.0000000E+00;  0.0000000E+00;  0.0000000E+00;0; -3.5925571E-10;  1.0000000E+04;  0.0000000E+00;  0.0000000E+00;  1.0000000E+04;  0.0000000E+00;  1.0000000E+04; -3.6011444E-10;  0.0000000E+00;  8.5873263E-13;  9.9635489E-10;
 -1.4000000E-01;  9.9999998E-03;  2.5999999E-01;195;  0.0000000E+00;  0.0000000E+00;  0.0000000E+00;  1.0000000E+03;  4.0000001E-01;  0.0000000E+00;0;  0.0000000E+00;  0.0000000E+00;  0.0000000E+00;0; -2.8845623E-10;  1.0000000E+04;  0.0000000E+00;  0.0000000E+00;  1.0000000E+04;  0.0000000E+00;  1.0000000E+04; -2.8654890E-10;  0.0000000E+00; -1.9073337E-12;  2.6068711E-10;
 -1.4000000E-01;  9.9999998E-03;  2.8000000E-01;196;  0.0000000E+00;  0.0000000E+00;  0.0000000E+00;  1.0000000E+03;  4.0000001E-01;  0.0000000E+00;0;  0.0000000E+00;  0.0000000E+00;  0.0000000E+00;0; -2.0505622E-10;  1.0000000E+04;  0.0000000E+00;  0.0000000E+00;  1.0000000E+04;  0.0000000E+00;  1.0000000E+04; -2.0057103E-10;  0.0000000E+00; -4.4851917E-12;  4.8559262E-10;
 -1.4000000E-01;  9.9999998E-03;  3.0000001E-01;197;  0.0000000E+00;  0.0000000E+00;  0.0000000E+00;  1.0000000E+03;  4.0000001E-01;  0.0000000E+00;0;  0.0000000E+00;  0.0000000E+00;  0.0000000E+00;0; -1.2234057E-10;  1.0000000E+04;  0.0000000E+00;  0.0000000E+00;  1.0000000E+04;  0.0000000E+00;  1.0000000E+04; -1.1690403E-10;  0.0000000E+00; -5.4365427E-12;  9.0171842E-10;
 -1.4000000E-01;  9.9999998E-03;  3.1999999E-01;198;  0.0000000E+00;  0.0000000E+00;  0.0000000E+00;  1.0000000E+03;  4.0000001E-01;  0.0000000E+00;0;  0.0000000E+00;  0.0000000E+00;  0.0000000E+00;0; -5.6383873E-11;  1.0000000E+04;  0.0000000E+00;  0.0000000E+00;  1.0000000E+04;  0.0000000E+00;  1.0000000E+04; -5.2082429E-11;  0.0000000E+00; -4.3014455E-12;  8.1608409E-10;
 -1.2000000E-01;  9.9999998E-03;  1.6000000E-01;231;  0.0000000E+00;  0.0000000E+00;  0.0000000E+00;  1.0000000E+03;  4.0000001E-01;  0.0000000E+00;0;  0.0000000E+00;  0.0000000E+00;  0.0000000E+00;0; -3.1015637E-09;  1.0000000E+04;  0.0000000E+00;  0.0000000E+00;  1.0000000E+04;  0.0000000E+00;  1.0000000E+04; -3.1225256E-09;  0.0000000E+00;  2.0961849E-11;  1.0842161E-08;
 -1.2000000E-01;  9.9999998E-03;  1.8000001E-01;232;  0.0000000E+00;  0.0000000E+00;  0.0000000E+00;  1.0000000E+03;  4.0000001E-01;  0.0000000E+00;0;  0.0000000E+00;  0.0000000E+00;  0.0000000E+00;0; -2.9474079E-09;  1.0000000E+04;  0.0000000E+00;  0.0000000E+00;  1.0000000E+04;  0.0000000E+00;  1.0000000E+04; -2.9711023E-09;  0.0000000E+00;  2.3694392E-11;  1.1460034E-08;
 -1.2000000E-01;  9.9999998E-03;  2.0000000E-01;233;  0.0000000E+00;  0.0000000E+00;  0.0000000E+00;  1.0000000E+03;  4.0000001E-01;  0.0000000E+00;0;  0.0000000E+00;  0.0000000E+00;  0.0000000E+00;0; -2.7515570E-09;  1.0000000E+04;  0.0000000E+00;  0.0000000E+00;  1.0000000E+04;  0.0000000E+00;  1.0000000E+04; -2.7759988E-09;  0.0000000E+00;  2.4441690E-11;  1.1581378E-08;
 -1.2000000E-01;  9.9999998E-03;  2.2000000E-01;234;  0.0000000E+00;  0.0000000E+00;  0.0000000E+00;  1.0000000E+03;  4.0000001E-01;  0.0000000E+00;0;  0.0000000E+00;  0.0000000E+00;  0.0000000E+00;0; -2.4996007E-09;  1.0000000E+04;  0.0000000E+00;  0.0000000E+00;  1.0000000E+04;  0.0000000E+00;  1.0000000E+04; -2.5187465E-09;  0.0000000E+00;  1.9145843E-11;  1.0229777E-08;
 -1.2000000E-01;  9.9999998E-03;  2.3999999E-01;235;  0.0000000E+00;  0.0000000E+00;  0.0000000E+00;  1.0000000E+03;  4.0000001E-01;  0.0000000E+00;0;  0.0000000E+00;  0.0000000E+00;  0.0000000E+00;0; -2.1785524E-09;  1.0000000E+04;  0.0000000E+00;  0.0000000E+00;  1.0000000E+04;  0.0000000E+00;  1.0000000E+04; -2.1841700E-09;  0.0000000E+00;  5.6175971E-12;  6.8029697E-09;
 -1.2000000E-01;  9.9999998E-03;  2.5999999E-01;236;  0.0000000E+00;  0.0000000E+00;  0.0000000E+00;  1.0000000E+03;  4.0000001E-01;  0.0000000E+00;0;  0.0000000E+00;  0.0000000E+00;  0.0000000E+00;0; -1.7850166E-09;  1.0000000E+04;  0.0000000E+00;  0.0000000E+00;  1.0000000E+04;  0.0000000E+00;  1.0000000E+04; -1.7704131E-09;  0.0000000E+00; -1.4603468E-11;  1.5061360E-09;
 -1.2000000E-01;  9.9999998E-03;  2.8000000E-01;237;  0.0000000E+00;  0.0000000E+00;  0.0000000E+00;  1.0000000E+03;  4.0000001E-01;  0.0000000E+00;0;  0.0000000E+00;  0.0000000E+00;  0.0000000E+00;0; -1.3399242E-09;  1.0000000E+04;  0.0000000E+00;  0.0000000E+00;  1.0000000E+04;  0.0000000E+00;  1.0000000E+04; -1.3053767E-09;  0.0000000E+00; -3.4547473E-11;  4.0893764E-09;
 -1.2000000E-01;  9.9999998E-03;  3.0000001E-01;238;  0.0000000E+00;  0.0000000E+00;  0.0000000E+00;  1.0000000E+03;  4.0000001E-01;  0.0000000E+00;0;  0.0000000E+00;  0.0000000E+00;  0.0000000E+00;0; -8.9441060E-10;  1.0000000E+04;  0.0000000E+00;  0.0000000E+00;  1.0000000E+04;  0.0000000E+00;  1.0000000E+04; -8.4820861E-10;  0.0000000E+00; -4.6202001E-11;  7.9894988E-09;
 -1.2000000E-01;  9.9999998E-03;  3.1999999E-01;239;  0.0000000E+00;  0.0000000E+00;  0.0000000E+00;  1.0000000E+03;  4.0000001E-01;  0.0000000E+00;0;  0.0000000E+00;  0.0000000E+00;  0.0000000E+00;0; -5.1210319E-10;  1.0000000E+04;  0.0000000E+00;  0.0000000E+00;  1.0000000E+04;  0.0000000E+00;  1.0000000E+04; -4.6694165E-10;  0.0000000E+00; -4.5161545E-11;  8.9026582E-09;
 -1.0000000E-01;  9.9999998E-03;  1.6000000E-01;272;  0.0000000E+00;  0.0000000E+00;  0.0000000E+00;  1.0000000E+03;  4.0000001E-01;  0.0000000E+00;0;  0.0000000E+00;  0.0000000E+00;  0.0000000E+00;0; -1.1367455E-08;  1.0000000E+04;  0.0000000E+00;  0.0000000E+00;  1.0000000E+04;  0.0000000E+00;  1.0000000E+04; -1.1474456E-08;  0.0000000E+00;  1.0700092E-10;  4.8954785E-08;
 -1.0000000E-01;  9.9999998E-03;  1.8000001E-01;273;  0.0000000E+00;  0.0000000E+00;  0.0000000E+00;  1.0000000E+03;  4.0000001E-01;  0.0000000E+00;0;  0.0000000E+00;  0.0000000E+00;  0.0000000E+00;0; -1.0790719E-08;  1.0000000E+04;  0.0000000E+00;  0.0000000E+00;  1.0000000E+04;  0.0000000E+00;  1.0000000E+04; -1.0909632E-08;  0.0000000E+00;  1.1891384E-10;  5.2134361E-08;
 -1.0000000E-01;  9.9999998E-03;  2.0000000E-01;274;  0.0000000E+00;  0.0000000E+00;  0.0000000E+00;  1.0000000E+03;  4.0000001E-01;  0.0000000E+00;0;  0.0000000E+00;  0.0000000E+00;  0.0000000E+00;0; -1.0059868E-08;  1.0000000E+04;  0.0000000E+00;  0.0000000E+00;  1.0000000E+04;  0.0000000E+00;  1.0000000E+04; -1.0177450E-08;  0.0000000E+00;  1.1758143E-10;  5.2117315E-08;
 -1.0000000E-01;  9.9999998E-03;  2.2000000E-01;275;  0.0000000E+00;  0.0000000E+00;  0.0000000E+00;  1.0000000E+03;  4.0000001E-01;  0.0000000E+00;0;  0.0000000E+00;  0.0000000E+00;  0.0000000E+00;0; -9.1433963E-09;  1.0000000E+04;  0.0000000E+00;  0.0000000E+00;  1.0000000E+04;  0.0000000E+00;  1.0000000E+04; -9.2348174E-09;  0.0000000E+00;  9.1420781E-11;  4.5853113E-08;
 -1.0000000E-01;  9.9999998E-03;  2.3999999E-01;276;  0.0000000E+00;  0.0000000E+00;  0.0000000E+00;  1.0000000E+03;  4.0000001E-01;  0.0000000E+00;0;  0.0000000E+00;  0.0000000E+00;  0.0000000E+00;0; -8.0136777E-09;  1.0000000E+04;  0.0000000E+00;  0.0000000E+00;  1.0000000E+04;  0.0000000E+00;  1.0000000E+04; -8.0452036E-09;  0.0000000E+00;  3.1525751E-11;  3.0626428E-08;
 -1.0000000E-01;  9.9999998E-03;  2.5999999E-01;277;  0.0000000E+00;  0.0000000E+00;  0.0000000E+00;  1.0000000E+03;  4.0000001E-01;  0.0000000E+00;0;  0.0000000E+00;  0.0000000E+00;  0.0000000E+00;0; -6.6649877E-09;  1.0000000E+04;  0.0000000E+00;  0.0000000E+00;  1.0000000E+04;  0.0000000E+00;  1.0000000E+04; -6.6078827E-09;  0.0000000E+00; -5.7104911E-11;  6.9180053E-09;
 -1.0000000E-01;  9.9999998E-03;  2.8000000E-01;278;  0.0000000E+00;  0.0000000E+00;  0.0000000E+00;  1.0000000E+03;  4.0000001E-01;  0.0000000E+00;0;  0.0000000E+00;  0.0000000E+00;  0.0000000E+00;0; -5.1542210E-09;  1.0000000E+04;  0.0000000E+00;  0.0000000E+00;  1.0000000E+04;  0.0000000E+00;  1.0000000E+04; -5.0057261E-09;  0.0000000E+00; -1.4849488E-10;  1.9106283E-08;
 -1.0000000E-01;  9.9999998E-03;  3.0000001E-01;279;  0.0000000E+00;  0.0000000E+00;  0.0000000E+00;  1.0000000E+03;  4.0000001E-01;  0.0000000E+00;0;  0.0000000E+00;  0.0000000E+00;  0.0000000E+00;0; -3.6267831E-09;  1.0000000E+04;  0.0000000E+00;  0.0000000E+00;  1.0000000E+04;  0.0000000E+00;  1.0000000E+04; -3.4152661E-09;  0.0000000E+00; -2.1151704E-10;  3.9134736E-08;
 -1.0000000E-01;  9.9999998E-03;  3.1999999E-01;280;  0.0000000E+00;  0.0000000E+00;  0.0000000E+00;  1.0000000E+03;  4.0000001E-01;  0.0000000E+00;0;  0.0000000E+00;  0.0000000E+00;  0.0000000E+00;0; -2.2745443E-09;  1.0000000E+04;  0.0000000E+00;  0.0000000E+00;  1.0000000E+04;  0.0000000E+00;  1.0000000E+04; -2.0476145E-09;  0.0000000E+00; -2.2692988E-10;  4.7355552E-08;
 -7.9999998E-02;  9.9999998E-03;  1.6000000E-01;313;  0.0000000E+00;  0.0000000E+00;  0.0000000E+00;  1.0000000E+03;  4.0000001E-01;  0.0000000E+00;0;  0.0000000E+00;  0.0000000E+00;  0.0000000E+00;0; -3.2290703E-08;  1.0000000E+04;  0.0000000E+00;  0.0000000E+00;  1.0000000E+04;  0.0000000E+00;  1.0000000E+04; -3.2671959E-08;  0.0000000E+00;  3.8125667E-10;  1.6845979E-07;
 -7.9999998E-02;  9.9999998E-03;  1.8000001E-01;314;  0.0000000E+00;  0.0000000E+00;  0.0000000E+00;  1.0000000E+03;  4.0000001E-01;  0.0000000E+00;0;  0.0000000E+00;  0.0000000E+00;  0.0000000E+00;0; -3.0635714E-08;  1.0000000E+04;  0.0000000E+00;  0.0000000E+00;  1.0000000E+04;  0.0000000E+00;  1.0000000E+04; -3.1053514E-08;  0.0000000E+00;  4.1780088E-10;  1.7983965E-07;
 -7.9999998E-02;  9.9999998E-03;  2.0000000E-01;315;  0.0000000E+00;  0.0000000E+00;  0.0000000E+00;  1.0000000E+03;  4.0000001E-01;  0.0000000E+00;0;  0.0000000E+00;  0.0000000E+00;  0.0000000E+00;0; -2.8563486E-08;  1.0000000E+04;  0.0000000E+00;  0.0000000E+00;  1.0000000E+04;  0.0000000E+00;  1.0000000E+04; -2.8974799E-08;  0.0000000E+00;  4.1131376E-10;  1.8044217E-07;
 -7.9999998E-02;  9.9999998E-03;  2.2000000E-01;316;  0.0000000E+00;  0.0000000E+00;  0.0000000E+00;  1.0000000E+03;  4.0000001E-01;  0.0000000E+00;0;  0.0000000E+00;  0.0000000E+00;  0.0000000E+00;0; -2.6008520E-08;  1.0000000E+04;  0.0000000E+00;  0.0000000E+00;  1.0000000E+04;  0.0000000E+00;  1.0000000E+04; -2.6332895E-08;  0.0000000E+00;  3.2437594E-10;  1.5959914E-07;
 -7.9999998E-02;  9.9999998E-03;  2.3999999E-01;317;  0.0000000E+00;  0.0000000E+00;  0.0000000E+00;  1.0000000E+03;  4.0000001E-01;  0.0000000E+00;0;  0.0000000E+00;  0.0000000E+00;  0.0000000E+00;0; -2.2909415E-08;  1.0000000E+04;  0.0000000E+00;  0.0000000E+00;  1.0000000E+04;  0.0000000E+00;  1.0000000E+04; -2.3036026E-08;  0.0000000E+00;  1.2661147E-10;  1.0731267E-07;
 -7.9999998E-02;  9.9999998E-03;  2.5999999E-01;318;  0.0000000E+00;  0.0000000E+00;  0.0000000E+00;  1.0000000E+03;  4.0000001E-01;  0.0000000E+00;0;  0.0000000E+00;  0.0000000E+00;  0.0000000E+00;0; -1.9249173E-08;  1.0000000E+04;  0.0000000E+00;  0.0000000E+00;  1.0000000E+04;  0.0000000E+00;  1.0000000E+04; -1.9082199E-08;  0.0000000E+00; -1.6697382E-10;  2.4934060E-08;
 -7.9999998E-02;  9.9999998E-03;  2.8000000E-01;319;  0.0000000E+00;  0.0000000E+00;  0.0000000E+00;  1.0000000E+03;  4.0000001E-01;  0.0000000E+00;0;  0.0000000E+00;  0.0000000E+00;  0.0000000E+00;0; -1.5155504E-08;  1.0000000E+04;  0.0000000E+00;  0.0000000E+00;  1.0000000E+04;  0.0000000E+00;  1.0000000E+04; -1.4678271E-08;  0.0000000E+00; -4.7723309E-10;  6.7374692E-08;
 -7.9999998E-02;  9.9999998E-03;  3.0000001E-01;320;  0.0000000E+00;  0.0000000E+00;  0.0000000E+00;  1.0000000E+03;  4.0000001E-01;  0.0000000E+00;0;  0.0000000E+00;  0.0000000E+00;  0.0000000E+00;0; -1.0983152E-08;  1.0000000E+04;  0.0000000E+00;  0.0000000E+00;  1.0000000E+04;  0.0000000E+00;  1.0000000E+04; -1.0274849E-08;  0.0000000E+00; -7.0830308E-10;  1.4211832E-07;
 -7.9999998E-02;  9.9999998E-03;  3.1999999E-01;321;  0.0000000E+00;  0.0000000E+00;  0.0000000E+00;  1.0000000E+03;  4.0000001E-01;  0.0000000E+00;0;  0.0000000E+00;  0.0000000E+00;  0.0000000E+00;0; -7.2213231E-09;  1.0000000E+04;  0.0000000E+00;  0.0000000E+00;  1.0000000E+04;  0.0000000E+00;  1.0000000E+04; -6.4230741E-09;  0.0000000E+00; -7.9824919E-10;  1.7939199E-07;
 -5.9999999E-02;  9.9999998E-03;  1.6000000E-01;354;  0.0000000E+00;  0.0000000E+00;  0.0000000E+00;  1.0000000E+03;  4.0000001E-01;  0.0000000E+00;0;  0.0000000E+00;  0.0000000E+00;  0.0000000E+00;0; -7.8006089E-08;  1.0000000E+04;  0.0000000E+00;  0.0000000E+00;  1.0000000E+04;  0.0000000E+00;  1.0000000E+04; -7.9098115E-08;  0.0000000E+00;  1.0920264E-09;  4.9011584E-07;
 -5.9999999E-02;  9.9999998E-03;  1.8000001E-01;355;  0.0000000E+00;  0.0000000E+00;  0.0000000E+00;  1.0000000E+03;  4.0000001E-01;  0.0000000E+00;0;  0.0000000E+00;  0.0000000E+00;  0.0000000E+00;0; -7.4008661E-08;  1.0000000E+04;  0.0000000E+00;  0.0000000E+00;  1.0000000E+04;  0.0000000E+00;  1.0000000E+04; -7.5201797E-08;  0.0000000E+00;  1.1931394E-09;  5.2579776E-07;
 -5.9999999E-02;  9.9999998E-03;  2.0000000E-01;356;  0.0000000E+00;  0.0000000E+00;  0.0000000E+00;  1.0000000E+03;  4.0000001E-01;  0.0000000E+00;0;  0.0000000E+00;  0.0000000E+00;  0.0000000E+00;0; -6.9050465E-08;  1.0000000E+04;  0.0000000E+00;  0.0000000E+00;  1.0000000E+04;  0.0000000E+00;  1.0000000E+04; -7.0228694E-08;  0.0000000E+00;  1.1782265E-09;  5.3042078E-07;
 -5.9999999E-02;  9.9999998E-03;  2.2000000E-01;357;  0.0000000E+00;  0.0000000E+00;  0.0000000E+00;  1.0000000E+03;  4.0000001E-01;  0.0000000E+00;0;  0.0000000E+00;  0.0000000E+00;  0.0000000E+00;0; -6.3001103E-08;  1.0000000E+04;  0.0000000E+00;  0.0000000E+00;  1.0000000E+04;  0.0000000E+00;  1.0000000E+04; -6.3942394E-08;  0.0000000E+00;  9.4129082E-10;  4.7117913E-07;
 -5.9999999E-02;  9.9999998E-03;  2.3999999E-01;358;  0.0000000E+00;  0.0000000E+00;  0.0000000E+00;  1.0000000E+03;  4.0000001E-01;  0.0000000E+00;0;  0.0000000E+00;  0.0000000E+00;  0.0000000E+00;0; -5.5728485E-08;  1.0000000E+04;  0.0000000E+00;  0.0000000E+00;  1.0000000E+04;  0.0000000E+00;  1.0000000E+04; -5.6126883E-08;  0.0000000E+00;  3.9839826E-10;  3.1803435E-07;
 -5.9999999E-02;  9.9999998E-03;  2.5999999E-01;359;  0.0000000E+00;  0.0000000E+00;  0.0000000E+00;  1.0000000E+03;  4.0000001E-01;  0.0000000E+00;0;  0.0000000E+00;  0.0000000E+00;  0.0000000E+00;0; -4.7177419E-08;  1.0000000E+04;  0.0000000E+00;  0.0000000E+00;  1.0000000E+04;  0.0000000E+00;  1.0000000E+04; -4.6764985E-08;  0.0000000E+00; -4.1243489E-10;  7.4488263E-08;
 -5.9999999E-02;  9.9999998E-03;  2.8000000E-01;360;  0.0000000E+00;  0.0000000E+00;  0.0000000E+00;  1.0000000E+03;  4.0000001E-01;  0.0000000E+00;0;  0.0000000E+00;  0.0000000E+00;  0.0000000E+00;0; -3.7592624E-08;  1.0000000E+04;  0.0000000E+00;  0.0000000E+00;  1.0000000E+04;  0.0000000E+00;  1.0000000E+04; -3.6308208E-08;  0.0000000E+00; -1.2844152E-09;  2.0209532E-07;
 -5.9999999E-02;  9.9999998E-03;  3.0000001E-01;361;  0.0000000E+00;  0.0000000E+00;  0.0000000E+00;  1.0000000E+03;  4.0000001E-01;  0.0000000E+00;0;  0.0000000E+00;  0.0000000E+00;  0.0000000E+00;0; -2.7746349E-08;  1.0000000E+04;  0.0000000E+00;  0.0000000E+00;  1.0000000E+04;  0.0000000E+00;  1.0000000E+04; -2.5784136E-08;  0.0000000E+00; -1.9622137E-09;  4.3241516E-07;
 -5.9999999E-02;  9.9999998E-03;  3.1999999E-01;362;  0.0000000E+00;  0.0000000E+00;  0.0000000E+00;  1.0000000E+03;  4.0000001E-01;  0.0000000E+00;0;  0.0000000E+00;  0.0000000E+00;  0.0000000E+00;0; -1.8760183E-08;  1.0000000E+04;  0.0000000E+00;  0.0000000E+00;  1.0000000E+04;  0.0000000E+00;  1.0000000E+04; -1.6483796E-08;  0.0000000E+00; -2.2763877E-09;  5.5804242E-07;
 -3.9999999E-02;  9.9999998E-03;  1.6000000E-01;395;  0.0000000E+00;  0.0000000E+00;  0.0000000E+00;  1.0000000E+03;  4.0000001E-01;  0.0000000E+00;0;  0.0000000E+00;  0.0000000E+00;  0.0000000E+00;0; -1.6862576E-07;  1.0000000E+04;  0.0000000E+00;  0.0000000E+00;  1.0000000E+04;  0.0000000E+00;  1.0000000E+04; -1.7133864E-07;  0.0000000E+00;  2.7128835E-09;  1.2783638E-06;
 -3.9999999E-02;  9.9999998E-03;  1.8000001E-01;396;  0.0000000E+00;  0.0000000E+00;  0.0000000E+00;  1.0000000E+03;  4.0000001E-01;  0.0000000E+00;0;  0.0000000E+00;  0.0000000E+00;  0.0000000E+00;0; -1.6004168E-07;  1.0000000E+04;  0.0000000E+00;  0.0000000E+00;  1.0000000E+04;  0.0000000E+00;  1.0000000E+04; -1.6300831E-07;  0.0000000E+00;  2.9666247E-09;  1.3782270E-06;
 -3.9999999E-02;  9.9999998E-03;  2.0000000E-01;397;  0.0000000E+00;  0.0000000E+00;  0.0000000E+00;  1.0000000E+03;  4.0000001E-01;  0.0000000E+00;0;  0.0000000E+00;  0.0000000E+00;  0.0000000E+00;0; -1.4946410E-07;  1.0000000E+04;  0.0000000E+00;  0.0000000E+00;  1.0000000E+04;  0.0000000E+00;  1.0000000E+04; -1.5240529E-07;  0.0000000E+00;  2.9411964E-09;  1.3964334E-06;
 -3.9999999E-02;  9.9999998E-03;  2.2000000E-01;398;  0.0000000E+00;  0.0000000E+00;  0.0000000E+00;  1.0000000E+03;  4.0000001E-01;  0.0000000E+00;0;  0.0000000E+00;  0.0000000E+00;  0.0000000E+00;0; -1.3664567E-07;  1.0000000E+04;  0.0000000E+00;  0.0000000E+00;  1.0000000E+04;  0.0000000E+00;  1.0000000E+04; -1.3902117E-07;  0.0000000E+00;  2.3755069E-09;  1.2441657E-06;
 -3.9999999E-02;  9.9999998E-03;  2.3999999E-01;399;  0.0000000E+00;  0.0000000E+00;  0.0000000E+00;  1.0000000E+03;  4.0000001E-01;  0.0000000E+00;0;  0.0000000E+00;  0.0000000E+00;  0.0000000E+00;0; -1.2131643E-07;  1.0000000E+04;  0.0000000E+00;  0.0000000E+00;  1.0000000E+04;  0.0000000E+00;  1.0000000E+04; -1.2238128E-07;  0.0000000E+00;  1.0648535E-09;  8.4131756E-07;
 -3.9999999E-02;  9.9999998E-03;  2.5999999E-01;400;  0.0000000E+00;  0.0000000E+00;  0.0000000E+00;  1.0000000E+03;  4.0000001E-01;  0.0000000E+00;0;  0.0000000E+00;  0.0000000E+00;  0.0000000E+00;0; -1.0332237E-07;  1.0000000E+04;  0.0000000E+00;  0.0000000E+00;  1.0000000E+04;  0.0000000E+00;  1.0000000E+04; -1.0241268E-07;  0.0000000E+00; -9.0968344E-10;  1.9541004E-07;
 -3.9999999E-02;  9.9999998E-03;  2.8000000E-01;401;  0.0000000E+00;  0.0000000E+00;  0.0000000E+00;  1.0000000E+03;  4.0000001E-01;  0.0000000E+00;0;  0.0000000E+00;  0.0000000E+00;  0.0000000E+00;0; -8.3072983E-08;  1.0000000E+04;  0.0000000E+00;  0.0000000E+00;  1.0000000E+04;  0.0000000E+00;  1.0000000E+04; -8.0005456E-08;  0.0000000E+00; -3.0675269E-09;  5.4617163E-07;
 -3.9999999E-02;  9.9999998E-03;  3.0000001E-01;402;  0.0000000E+00;  0.0000000E+00;  0.0000000E+00;  1.0000000E+03;  4.0000001E-01;  0.0000000E+00;0;  0.0000000E+00;  0.0000000E+00;  0.0000000E+00;0; -6.2090905E-08;  1.0000000E+04;  0.0000000E+00;  0.0000000E+00;  1.0000000E+04;  0.0000000E+00;  1.0000000E+04; -5.7298518E-08;  0.0000000E+00; -4.7923905E-09;  1.1746988E-06;
 -3.9999999E-02;  9.9999998E-03;  3.1999999E-01;403;  0.0000000E+00;  0.0000000E+00;  0.0000000E+00;  1.0000000E+03;  4.0000001E-01;  0.0000000E+00;0;  0.0000000E+00;  0.0000000E+00;  0.0000000E+00;0; -4.2739167E-08;  1.0000000E+04;  0.0000000E+00;  0.0000000E+00;  1.0000000E+04;  0.0000000E+00;  1.0000000E+04; -3.7077157E-08;  0.0000000E+00; -5.6620086E-09;  1.5332131E-06;
 -2.0000000E-02;  9.9999998E-03;  1.6000000E-01;436;  0.0000000E+00;  0.0000000E+00;  0.0000000E+00;  1.0000000E+03;  4.0000001E-01;  0.0000000E+00;0;  0.0000000E+00;  0.0000000E+00;  0.0000000E+00;0; -3.3798455E-07;  1.0000000E+04;  0.0000000E+00;  0.0000000E+00;  1.0000000E+04;  0.0000000E+00;  1.0000000E+04; -3.4408581E-07;  0.0000000E+00;  6.1012737E-09;  3.0961605E-06;
 -2.0000000E-02;  9.9999998E-03;  1.8000001E-01;437;  0.0000000E+00;  0.0000000E+00;  0.0000000E+00;  1.0000000E+03;  4.0000001E-01;  0.0000000E+00;0;  0.0000000E+00;  0.0000000E+00;  0.0000000E+00;0; -3.2097142E-07;  1.0000000E+04;  0.0000000E+00;  0.0000000E+00;  1.0000000E+04;  0.0000000E+00;  1.0000000E+04; -3.2765473E-07;  0.0000000E+00;  6.6833197E-09;  3.3510587E-06;
 -2.0000000E-02;  9.9999998E-03;  2.0000000E-01;438;  0.0000000E+00;  0.0000000E+00;  0.0000000E+00;  1.0000000E+03;  4.0000001E-01;  0.0000000E+00;0;  0.0000000E+00;  0.0000000E+00;  0.0000000E+00;0; -3.0009642E-07;  1.0000000E+04;  0.0000000E+00;  0.0000000E+00;  1.0000000E+04;  0.0000000E+00;  1.0000000E+04; -3.0674732E-07;  0.0000000E+00;  6.6509100E-09;  3.4060231E-06;
 -2.0000000E-02;  9.9999998E-03;  2.2000000E-01;439;  0.0000000E+00;  0.0000000E+00;  0.0000000E+00;  1.0000000E+03;  4.0000001E-01;  0.0000000E+00;0;  0.0000000E+00;  0.0000000E+00;  0.0000000E+00;0; -2.7490356E-07;  1.0000000E+04;  0.0000000E+00;  0.0000000E+00;  1.0000000E+04;  0.0000000E+00;  1.0000000E+04; -2.8032477E-07;  0.0000000E+00;  5.4212079E-09;  3.0404410E-06;
 -2.0000000E-02;  9.9999998E-03;  2.3999999E-01;440;  0.0000000E+00;  0.0000000E+00;  0.0000000E+00;  1.0000000E+03;  4.0000001E-01;  0.0000000E+00;0;  0.0000000E+00;  0.0000000E+00;  0.0000000E+00;0; -2.4486272E-07;  1.0000000E+04;  0.0000000E+00;  0.0000000E+00;  1.0000000E+04;  0.0000000E+00;  1.0000000E+04; -2.4739992E-07;  0.0000000E+00;  2.5371945E-09;  2.0570542E-06;
 -2.0000000E-02;  9.9999998E-03;  2.5999999E-01;441;  0.0000000E+00;  0.0000000E+00;  0.0000000E+00;  1.0000000E+03;  4.0000001E-01;  0.0000000E+00;0;  0.0000000E+00;  0.0000000E+00;  0.0000000E+00;0; -2.0961031E-07;  1.0000000E+04;  0.0000000E+00;  0.0000000E+00;  1.0000000E+04;  0.0000000E+00;  1.0000000E+04; -2.0776176E-07;  0.0000000E+00; -1.8485521E-09;  4.7006324E-07;
 -2.0000000E-02;  9.9999998E-03;  2.8000000E-01;442;  0.0000000E+00;  0.0000000E+00;  0.0000000E+00;  1.0000000E+03;  4.0000001E-01;  0.0000000E+00;0;  0.0000000E+00;  0.0000000E+00;  0.0000000E+00;0; -1.6978170E-07;  1.0000000E+04;  0.0000000E+00;  0.0000000E+00;  1.0000000E+04;  0.0000000E+00;  1.0000000E+04; -1.6306201E-07;  0.0000000E+00; -6.7196946E-09;  1.3697213E-06;
 -2.0000000E-02;  9.9999998E-03;  3.0000001E-01;443;  0.0000000E+00;  0.0000000E+00;  0.0000000E+00;  1.0000000E+03;  4.0000001E-01;  0.0000000E+00;0;  0.0000000E+00;  0.0000000E+00;  0.0000000E+00;0; -1.2814253E-07;  1.0000000E+04;  0.0000000E+00;  0.0000000E+00;  1.0000000E+04;  0.0000000E+00;  1.0000000E+04; -1.1744113E-07;  0.0000000E+00; -1.0701402E-08;  2.9499975E-06;
 -2.0000000E-02;  9.9999998E-03;  3.1999999E-01;444;  0.0000000E+00;  0.0000000E+00;  0.0000000E+00;  1.0000000E+03;  4.0000001E-01;  0.0000000E+00;0;  0.0000000E+00;  0.0000000E+00;  0.0000000E+00;0; -8.9328942E-08;  1.0000000E+04;  0.0000000E+00;  0.0000000E+00;  1.0000000E+04;  0.0000000E+00;  1.0000000E+04; -7.6525538E-08;  0.0000000E+00; -1.2803402E-08;  3.8734697E-06;
  0.0000000E+00;  9.9999998E-03;  3.0000001E-01;455;  0.0000000E+00;  0.0000000E+00;  0.0000000E+00;  1.0000000E+03;  4.0000001E-01;  0.0000000E+00;0;  0.0000000E+00;  0.0000000E+00;  0.0000000E+00;0; -2.5038489E-07;  1.0000000E+04;  0.0000000E+00;  0.0000000E+00;  1.0000000E+04;  0.0000000E+00;  1.0000000E+04; -2.2804875E-07;  0.0000000E+00; -2.2336145E-08;  6.9873367E-06;
  0.0000000E+00;  9.9999998E-03;  3.1999999E-01;456;  0.0000000E+00;  0.0000000E+00;  0.0000000E+00;  1.0000000E+03;  4.0000001E-01;  0.0000000E+00;0;  0.0000000E+00;  0.0000000E+00;  0.0000000E+00;0; -1.7629289E-07;  1.0000000E+04;  0.0000000E+00;  0.0000000E+00;  1.0000000E+04;  0.0000000E+00;  1.0000000E+04; -1.4929009E-07;  0.0000000E+00; -2.7002800E-08;  9.2117007E-06;
  2.0000000E-02;  9.9999998E-03;  3.1999999E-01;466;  0.0000000E+00;  0.0000000E+00;  0.0000000E+00;  1.0000000E+03;  4.0000001E-01;  0.0000000E+00;0;  0.0000000E+00;  0.0000000E+00;  0.0000000E+00;0; -3.3479972E-07;  1.0000000E+04;  0.0000000E+00;  0.0000000E+00;  1.0000000E+04;  0.0000000E+00;  1.0000000E+04; -2.8077392E-07;  0.0000000E+00; -5.4025811E-08;  2.0909749E-05;
  3.9999999E-02;  9.9999998E-03;  3.1999999E-01;476;  0.0000000E+00;  0.0000000E+00;  0.0000000E+00;  1.0000000E+03;  4.0000001E-01;  0.0000000E+00;0;  0.0000000E+00;  0.0000000E+00;  0.0000000E+00;0; -6.1947981E-07;  1.0000000E+04;  0.0000000E+00;  0.0000000E+00;  1.0000000E+04;  0.0000000E+00;  1.0000000E+04; -5.1564149E-07;  0.0000000E+00; -1.0383832E-07;  4.5690645E-05;
  5.9999999E-02;  9.9999998E-03;  3.1999999E-01;486;  0.0000000E+00;  0.0000000E+00;  0.0000000E+00;  1.0000000E+03;  4.0000001E-01;  0.0000000E+00;0;  0.0000000E+00;  0.0000000E+00;  0.0000000E+00;0; -1.1239204E-06;  1.0000000E+04;  0.0000000E+00;  0.0000000E+00;  1.0000000E+04;  0.0000000E+00;  1.0000000E+04; -9.3028581E-07;  0.0000000E+00; -1.9363458E-07;  9.6635857E-05;
  7.9999998E-02;  9.9999998E-03;  3.1999999E-01;496;  0.0000000E+00;  0.0000000E+00;  0.0000000E+00;  1.0000000E+03;  4.0000001E-01;  0.0000000E+00;0;  0.0000000E+00;  0.0000000E+00;  0.0000000E+00;0; -2.0148366E-06;  1.0000000E+04;  0.0000000E+00;  0.0000000E+00;  1.0000000E+04;  0.0000000E+00;  1.0000000E+04; -1.6620274E-06;  0.0000000E+00; -3.5280911E-07;  1.9895071E-04;
  1.0000000E-01;  9.9999998E-03;  3.1999999E-01;506;  0.0000000E+00;  0.0000000E+00;  0.0000000E+00;  1.0000000E+03;  4.0000001E-01;  0.0000000E+00;0;  0.0000000E+00;  0.0000000E+00;  0.0000000E+00;0; -3.6140905E-06;  1.0000000E+04;  0.0000000E+00;  0.0000000E+00;  1.0000000E+04;  0.0000000E+00;  1.0000000E+04; -2.9811154E-06;  0.0000000E+00; -6.3297506E-07;  4.2116380E-04;
  1.2000000E-01;  9.9999998E-03;  3.1999999E-01;516;  0.0000000E+00;  0.0000000E+00;  0.0000000E+00;  1.0000000E+03;  4.0000001E-01;  0.0000000E+00;0;  0.0000000E+00;  0.0000000E+00;  0.0000000E+00;0; -6.5488357E-06;  1.0000000E+04;  0.0000000E+00;  0.0000000E+00;  1.0000000E+04;  0.0000000E+00;  1.0000000E+04; -5.4202246E-06;  0.0000000E+00; -1.1286112E-06;  1.1347935E-03;
  1.4000000E-01;  9.9999998E-03;  3.1999999E-01;526;  0.0000000E+00;  0.0000000E+00;  0.0000000E+00;  1.0000000E+03;  4.0000001E-01;  0.0000000E+00;0;  0.0000000E+00;  0.0000000E+00;  0.0000000E+00;0; -1.2001005E-05;  1.0000000E+04;  0.0000000E+00;  0.0000000E+00;  1.0000000E+04;  0.0000000E+00;  1.0000000E+04; -9.9803665E-06;  0.0000000E+00; -2.0206378E-06;  3.8978038E-03;
  1.6000000E-01;  9.9999998E-03;  3.1999999E-01;536;  0.0000000E+00;  0.0000000E+00;  0.0000000E+00;  1.0000000E+03;  4.0000001E-01;  0.0000000E+00;0;  0.0000000E+00;  0.0000000E+00;  0.0000000E+00;0; -2.2002256E-05;  1.0000000E+04;  0.0000000E+00;  0.0000000E+00;  1.0000000E+04;  0.0000000E+00;  1.0000000E+04; -1.8336008E-05;  0.0000000E+00; -3.6662479E-06;  1.2956672E-02;
  1.8000001E-01;  9.9999998E-03;  3.1999999E-01;546;  0.0000000E+00;  0.0000000E+00;  0.0000000E+00;  1.0000000E+03;  4.0000001E-01;  0.0000000E+00;0;  0.0000000E+00;  0.0000000E+00;  0.0000000E+00;0; -3.9457758E-05;  1.0000000E+04;  0.0000000E+00;  0.0000000E+00;  1.0000000E+04;  0.0000000E+00;  1.0000000E+04; -3.2696011E-05;  0.0000000E+00; -6.7617475E-06;  3.6845434E-02;
  2.0000000E-01;  9.9999998E-03;  3.1999999E-01;555;  0.0000000E+00;  0.0000000E+00;  0.0000000E+00;  1.0000000E+03;  4.0000001E-01;  0.0000000E+00;0;  0.0000000E+00;  0.0000000E+00;  0.0000000E+00;0; -6.7705609E-05;  1.0000000E+04;  0.0000000E+00;  0.0000000E+00;  1.0000000E+04;  0.0000000E+00;  1.0000000E+04; -5.5152814E-05;  0.0000000E+00; -1.2552797E-05;  8.5613489E-02;
 -2.2000000E-01;  9.9999998E-03;  3.4000000E-01;36;  0.0000000E+00;  0.0000000E+00;  0.0000000E+00;  1.0000000E+03;  4.0000001E-01;  0.0000000E+00;0;  0.0000000E+00;  0.0000000E+00;  0.0000000E+00;0;  0.0000000E+00;  1.0000000E+04;  0.0000000E+00;  0.0000000E+00;  1.0000000E+04;  0.0000000E+00;  1.0000000E+04;  0.0000000E+00;  0.0000000E+00;  0.0000000E+00;  0.0000000E+00;
 -2.2000000E-01;  9.9999998E-03;  3.6000001E-01;37;  0.0000000E+00;  0.0000000E+00;  0.0000000E+00;  1.0000000E+03;  4.0000001E-01;  0.0000000E+00;0;  0.0000000E+00;  0.0000000E+00;  0.0000000E+00;0;  0.0000000E+00;  1.0000000E+04;  0.0000000E+00;  0.0000000E+00;  1.0000000E+04;  0.0000000E+00;  1.0000000E+04;  0.0000000E+00;  0.0000000E+00;  0.0000000E+00;  0.0000000E+00;
 -2.2000000E-01;  9.9999998E-03;  3.8000000E-01;38;  0.0000000E+00;  0.0000000E+00;  0.0000000E+00;  1.0000000E+03;  4.0000001E-01;  0.0000000E+00;0;  0.0000000E+00;  0.0000000E+00;  0.0000000E+00;0;  0.0000000E+00;  1.0000000E+04;  0.0000000E+00;  0.0000000E+00;  1.0000000E+04;  0.0000000E+00;  1.0000000E+04;  0.0000000E+00;  0.0000000E+00;  0.0000000E+00;  0.0000000E+00;
 -2.0000000E-01;  9.9999998E-03;  3.4000000E-01;76;  0.0000000E+00;  0.0000000E+00;  0.0000000E+00;  1.0000000E+03;  4.0000001E-01;  0.0000000E+00;0;  0.0000000E+00;  0.0000000E+00;  0.0000000E+00;0;  0.0000000E+00;  1.0000000E+04;  0.0000000E+00;  0.0000000E+00;  1.0000000E+04;  0.0000000E+00;  1.0000000E+04;  0.0000000E+00;  0.0000000E+00;  0.0000000E+00;  0.0000000E+00;
 -2.0000000E-01;  9.9999998E-03;  3.6000001E-01;77;  0.0000000E+00;  0.0000000E+00;  0.0000000E+00;  1.0000000E+03;  4.0000001E-01;  0.0000000E+00;0;  0.0000000E+00;  0.0000000E+00;  0.0000000E+00;0;  0.0000000E+00;  1.0000000E+04;  0.0000000E+00;  0.0000000E+00;  1.0000000E+04;  0.0000000E+00;  1.0000000E+04;  0.0000000E+00;  0.0000000E+00;  0.0000000E+00;  0.0000000E+00;
 -2.0000000E-01;  9.9999998E-03;  3.8000000E-01;78;  0.0000000E+00;  0.0000000E+00;  0.0000000E+00;  1.0000000E+03;  4.0000001E-01;  0.0000000E+00;0;  0.0000000E+00;  0.0000000E+00;  0.0000000E+00;0;  0.0000000E+00;  1.0000000E+04;  0.0000000E+00;  0.0000000E+00;  1.0000000E+04;  0.0000000E+00;  1.0000000E+04;  0.0000000E+00;  0.0000000E+00;  0.0000000E+00;  0.0000000E+00;
 -2.0000000E-01;  9.9999998E-03;  4.0000001E-01;79;  0.0000000E+00;  0.0000000E+00;  0.0000000E+00;  1.0000000E+03;  4.0000001E-01;  0.0000000E+00;0;  0.0000000E+00;  0.0000000E+00;  0.0000000E+00;0;  0.0000000E+00;  1.0000000E+04;  0.0000000E+00;  0.0000000E+00;  1.0000000E+04;  0.0000000E+00;  1.0000000E+04;  0.0000000E+00;  0.0000000E+00;  0.0000000E+00;  0.0000000E+00;
 -1.8000001E-01;  9.9999998E-03;  3.4000000E-01;117;  0.0000000E+00;  0.0000000E+00;  0.0000000E+00;  1.0000000E+03;  4.0000001E-01;  0.0000000E+00;0;  0.0000000E+00;  0.0000000E+00;  0.0000000E+00;0;  0.0000000E+00;  1.0000000E+04;  0.0000000E+00;  0.0000000E+00;  1.0000000E+04;  0.0000000E+00;  1.0000000E+04;  0.0000000E+00;  0.0000000E+00;  0.0000000E+00;  0.0000000E+00;
 -1.8000001E-01;  9.9999998E-03;  3.6000001E-01;118;  0.0000000E+00;  0.0000000E+00;  0.0000000E+00;  1.0000000E+03;  4.0000001E-01;  0.0000000E+00;0;  0.0000000E+00;  0.0000000E+00;  0.0000000E+00;0;  0.0000000E+00;  1.0000000E+04;  0.0000000E+00;  0.0000000E+00;  1.0000000E+04;  0.0000000E+00;  1.0000000E+04;  0.0000000E+00;  0.0000000E+00;  0.0000000E+00;  0.0000000E+00;
 -1.8000001E-01;  9.9999998E-03;  3.8000000E-01;119;  0.0000000E+00;  0.0000000E+00;  0.0000000E+00;  1.0000000E+03;  4.0000001E-01;  0.0000000E+00;0;  0.0000000E+00;  0.0000000E+00;  0.0000000E+00;0;  0.0000000E+00;  1.0000000E+04;  0.0000000E+00;  0.0000000E+00;  1.0000000E+04;  0.0000000E+00;  1.0000000E+04;  0.0000000E+00;  0.0000000E+00;  0.0000000E+00;  0.0000000E+00;
 -1.8000001E-01;  9.9999998E-03;  4.0000001E-01;120;  0.0000000E+00;  0.0000000E+00;  0.0000000E+00;  1.0000000E+03;  4.0000001E-01;  0.0000000E+00;0;  0.0000000E+00;  0.0000000E+00;  0.0000000E+00;0;  0.0000000E+00;  1.0000000E+04;  0.0000000E+00;  0.0000000E+00;  1.0000000E+04;  0.0000000E+00;  1.0000000E+04;  0.0000000E+00;  0.0000000E+00;  0.0000000E+00;  0.0000000E+00;
 -1.6000000E-01;  9.9999998E-03;  3.4000000E-01;158;  0.0000000E+00;  0.0000000E+00;  0.0000000E+00;  1.0000000E+03;  4.0000001E-01;  0.0000000E+00;0;  0.0000000E+00;  0.0000000E+00;  0.0000000E+00;0;  0.0000000E+00;  1.0000000E+04;  0.0000000E+00;  0.0000000E+00;  1.0000000E+04;  0.0000000E+00;  1.0000000E+04;  0.0000000E+00;  0.0000000E+00;  0.0000000E+00;  0.0000000E+00;
 -1.6000000E-01;  9.9999998E-03;  3.6000001E-01;159;  0.0000000E+00;  0.0000000E+00;  0.0000000E+00;  1.0000000E+03;  4.0000001E-01;  0.0000000E+00;0;  0.0000000E+00;  0.0000000E+00;  0.0000000E+00;0;  0.0000000E+00;  1.0000000E+04;  0.0000000E+00;  0.0000000E+00;  1.0000000E+04;  0.0000000E+00;  1.0000000E+04;  0.0000000E+00;  0.0000000E+00;  0.0000000E+00;  0.0000000E+00;
 -1.6000000E-01;  9.9999998E-03;  3.8000000E-01;160;  0.0000000E+00;  0.0000000E+00;  0.0000000E+00;  1.0000000E+03;  4.0000001E-01;  0.0000000E+00;0;  0.0000000E+00;  0.0000000E+00;  0.0000000E+00;0;  0.0000000E+00;  1.0000000E+04;  0.0000000E+00;  0.0000000E+00;  1.0000000E+04;  0.0000000E+00;  1.0000000E+04;  0.0000000E+00;  0.0000000E+00;  0.0000000E+00;  0.0000000E+00;
 -1.6000000E-01;  9.9999998E-03;  4.0000001E-01;161;  0.0000000E+00;  0.0000000E+00;  0.0000000E+00;  1.0000000E+03;  4.0000001E-01;  0.0000000E+00;0;  0.0000000E+00;  0.0000000E+00;  0.0000000E+00;0;  0.0000000E+00;  1.0000000E+04;  0.0000000E+00;  0.0000000E+00;  1.0000000E+04;  0.0000000E+00;  1.0000000E+04;  0.0000000E+00;  0.0000000E+00;  0.0000000E+00;  0.0000000E+00;
 -1.4000000E-01;  9.9999998E-03;  3.4000000E-01;199;  0.0000000E+00;  0.0000000E+00;  0.0000000E+00;  1.0000000E+03;  4.0000001E-01;  0.0000000E+00;0;  0.0000000E+00;  0.0000000E+00;  0.0000000E+00;0; -1.6880618E-11;  1.0000000E+04;  0.0000000E+00;  0.0000000E+00;  1.0000000E+04;  0.0000000E+00;  1.0000000E+04; -1.4878428E-11;  0.0000000E+00; -2.0021894E-12;  3.9488054E-10;
 -1.4000000E-01;  9.9999998E-03;  3.6000001E-01;200;  0.0000000E+00;  0.0000000E+00;  0.0000000E+00;  1.0000000E+03;  4.0000001E-01;  0.0000000E+00;0;  0.0000000E+00;  0.0000000E+00;  0.0000000E+00;0; -1.9060270E-12;  1.0000000E+04;  0.0000000E+00;  0.0000000E+00;  1.0000000E+04;  0.0000000E+00;  1.0000000E+04; -1.5912360E-12;  0.0000000E+00; -3.1479100E-13;  6.3543185E-11;
 -1.4000000E-01;  9.9999998E-03;  3.8000000E-01;201;  0.0000000E+00;  0.0000000E+00;  0.0000000E+00;  1.0000000E+03;  4.0000001E-01;  0.0000000E+00;0;  0.0000000E+00;  0.0000000E+00;  0.0000000E+00;0;  0.0000000E+00;  1.0000000E+04;  0.0000000E+00;  0.0000000E+00;  1.0000000E+04;  0.0000000E+00;  1.0000000E+04;  0.0000000E+00;  0.0000000E+00;  0.0000000E+00;  0.0000000E+00;
 -1.4000000E-01;  9.9999998E-03;  4.0000001E-01;202;  0.0000000E+00;  0.0000000E+00;  0.0000000E+00;  1.0000000E+03;  4.0000001E-01;  0.0000000E+00;0;  0.0000000E+00;  0.0000000E+00;  0.0000000E+00;0;  0.0000000E+00;  1.0000000E+04;  0.0000000E+00;  0.0000000E+00;  1.0000000E+04;  0.0000000E+00;  1.0000000E+04;  0.0000000E+00;  0.0000000E+00;  0.0000000E+00;  0.0000000E+00;
 -1.2000000E-01;  9.9999998E-03;  3.4000000E-01;240;  0.0000000E+00;  0.0000000E+00;  0.0000000E+00;  1.0000000E+03;  4.0000001E-01;  0.0000000E+00;0;  0.0000000E+00;  0.0000000E+00;  0.0000000E+00;0; -2.3710359E-10;  1.0000000E+04;  0.0000000E+00;  0.0000000E+00;  1.0000000E+04;  0.0000000E+00;  1.0000000E+04; -2.0460834E-10;  0.0000000E+00; -3.2495253E-11;  6.7911503E-09;
 -1.2000000E-01;  9.9999998E-03;  3.6000001E-01;241;  0.0000000E+00;  0.0000000E+00;  0.0000000E+00;  1.0000000E+03;  4.0000001E-01;  0.0000000E+00;0;  0.0000000E+00;  0.0000000E+00;  0.0000000E+00;0; -7.7307792E-11;  1.0000000E+04;  0.0000000E+00;  0.0000000E+00;  1.0000000E+04;  0.0000000E+00;  1.0000000E+04; -6.2379914E-11;  0.0000000E+00; -1.4927877E-11;  3.1870990E-09;
 -1.2000000E-01;  9.9999998E-03;  3.8000000E-01;242;  0.0000000E+00;  0.0000000E+00;  0.0000000E+00;  1.0000000E+03;  4.0000001E-01;  0.0000000E+00;0;  0.0000000E+00;  0.0000000E+00;  0.0000000E+00;0; -1.1060763E-11;  1.0000000E+04;  0.0000000E+00;  0.0000000E+00;  1.0000000E+04;  0.0000000E+00;  1.0000000E+04; -8.4520880E-12;  0.0000000E+00; -2.6086746E-12;  5.6044597E-10;
 -1.2000000E-01;  9.9999998E-03;  4.0000001E-01;243;  0.0000000E+00;  0.0000000E+00;  0.0000000E+00;  1.0000000E+03;  4.0000001E-01;  0.0000000E+00;0;  0.0000000E+00;  0.0000000E+00;  0.0000000E+00;0;  0.0000000E+00;  1.0000000E+04;  0.0000000E+00;  0.0000000E+00;  1.0000000E+04;  0.0000000E+00;  1.0000000E+04;  0.0000000E+00;  0.0000000E+00;  0.0000000E+00;  0.0000000E+00;
 -1.0000000E-01;  9.9999998E-03;  3.4000000E-01;281;  0.0000000E+00;  0.0000000E+00;  0.0000000E+00;  1.0000000E+03;  4.0000001E-01;  0.0000000E+00;0;  0.0000000E+00;  0.0000000E+00;  0.0000000E+00;0; -1.2367655E-09;  1.0000000E+04;  0.0000000E+00;  0.0000000E+00;  1.0000000E+04;  0.0000000E+00;  1.0000000E+04; -1.0449307E-09;  0.0000000E+00; -1.9183477E-10;  4.2277438E-08;
 -1.0000000E-01;  9.9999998E-03;  3.6000001E-01;282;  0.0000000E+00;  0.0000000E+00;  0.0000000E+00;  1.0000000E+03;  4.0000001E-01;  0.0000000E+00;0;  0.0000000E+00;  0.0000000E+00;  0.0000000E+00;0; -5.4860128E-10;  1.0000000E+04;  0.0000000E+00;  0.0000000E+00;  1.0000000E+04;  0.0000000E+00;  1.0000000E+04; -4.2849840E-10;  0.0000000E+00; -1.2010289E-10;  2.7098766E-08;
 -1.0000000E-01;  9.9999998E-03;  3.8000000E-01;283;  0.0000000E+00;  0.0000000E+00;  0.0000000E+00;  1.0000000E+03;  4.0000001E-01;  0.0000000E+00;0;  0.0000000E+00;  0.0000000E+00;  0.0000000E+00;0; -1.6873522E-10;  1.0000000E+04;  0.0000000E+00;  0.0000000E+00;  1.0000000E+04;  0.0000000E+00;  1.0000000E+04; -1.2316988E-10;  0.0000000E+00; -4.5565347E-11;  1.0325535E-08;
 -1.0000000E-01;  9.9999998E-03;  4.0000001E-01;284;  0.0000000E+00;  0.0000000E+00;  0.0000000E+00;  1.0000000E+03;  4.0000001E-01;  0.0000000E+00;0;  0.0000000E+00;  0.0000000E+00;  0.0000000E+00;0; -2.3369962E-11;  1.0000000E+04;  0.0000000E+00;  0.0000000E+00;  1.0000000E+04;  0.0000000E+00;  1.0000000E+04; -1.6851437E-11;  0.0000000E+00; -6.5185244E-12;  1.4851387E-09;
 -7.9999998E-02;  9.9999998E-03;  3.4000000E-01;322;  0.0000000E+00;  0.0000000E+00;  0.0000000E+00;  1.0000000E+03;  4.0000001E-01;  0.0000000E+00;0;  0.0000000E+00;  0.0000000E+00;  0.0000000E+00;0; -4.2432498E-09;  1.0000000E+04;  0.0000000E+00;  0.0000000E+00;  1.0000000E+04;  0.0000000E+00;  1.0000000E+04; -3.5144903E-09;  0.0000000E+00; -7.2875961E-10;  1.7195740E-07;
 -7.9999998E-02;  9.9999998E-03;  3.6000001E-01;323;  0.0000000E+00;  0.0000000E+00;  0.0000000E+00;  1.0000000E+03;  4.0000001E-01;  0.0000000E+00;0;  0.0000000E+00;  0.0000000E+00;  0.0000000E+00;0; -2.1519053E-09;  1.0000000E+04;  0.0000000E+00;  0.0000000E+00;  1.0000000E+04;  0.0000000E+00;  1.0000000E+04; -1.6306543E-09;  0.0000000E+00; -5.2125115E-10;  1.2528186E-07;
 -7.9999998E-02;  9.9999998E-03;  3.8000000E-01;324;  0.0000000E+00;  0.0000000E+00;  0.0000000E+00;  1.0000000E+03;  4.0000001E-01;  0.0000000E+00;0;  0.0000000E+00;  0.0000000E+00;  0.0000000E+00;0; -8.5620655E-10;  1.0000000E+04;  0.0000000E+00;  0.0000000E+00;  1.0000000E+04;  0.0000000E+00;  1.0000000E+04; -5.9972782E-10;  0.0000000E+00; -2.5647870E-10;  6.1595706E-08;
 -7.9999998E-02;  9.9999998E-03;  4.0000001E-01;325;  0.0000000E+00;  0.0000000E+00;  0.0000000E+00;  1.0000000E+03;  4.0000001E-01;  0.0000000E+00;0;  0.0000000E+00;  0.0000000E+00;  0.0000000E+00;0; -2.1820318E-10;  1.0000000E+04;  0.0000000E+00;  0.0000000E+00;  1.0000000E+04;  0.0000000E+00;  1.0000000E+04; -1.4961478E-10;  0.0000000E+00; -6.8588399E-11;  1.6306691E-08;
 -5.9999999E-02;  9.9999998E-03;  3.4000000E-01;363;  0.0000000E+00;  0.0000000E+00;  0.0000000E+00;  1.0000000E+03;  4.0000001E-01;  0.0000000E+00;0;  0.0000000E+00;  0.0000000E+00;  0.0000000E+00;0; -1.1513674E-08;  1.0000000E+04;  0.0000000E+00;  0.0000000E+00;  1.0000000E+04;  0.0000000E+00;  1.0000000E+04; -9.3476595E-09;  0.0000000E+00; -2.1660138E-09;  5.5479774E-07;
 -5.9999999E-02;  9.9999998E-03;  3.6000001E-01;364;  0.0000000E+00;  0.0000000E+00;  0.0000000E+00;  1.0000000E+03;  4.0000001E-01;  0.0000000E+00;0;  0.0000000E+00;  0.0000000E+00;  0.0000000E+00;0; -6.2634746E-09;  1.0000000E+04;  0.0000000E+00;  0.0000000E+00;  1.0000000E+04;  0.0000000E+00;  1.0000000E+04; -4.6057402E-09;  0.0000000E+00; -1.6577344E-09;  4.3035206E-07;
 -5.9999999E-02;  9.9999998E-03;  3.8000000E-01;365;  0.0000000E+00;  0.0000000E+00;  0.0000000E+00;  1.0000000E+03;  4.0000001E-01;  0.0000000E+00;0;  0.0000000E+00;  0.0000000E+00;  0.0000000E+00;0; -2.8126630E-09;  1.0000000E+04;  0.0000000E+00;  0.0000000E+00;  1.0000000E+04;  0.0000000E+00;  1.0000000E+04; -1.8915176E-09;  0.0000000E+00; -9.2114533E-10;  2.3748416E-07;
 -5.9999999E-02;  9.9999998E-03;  4.0000001E-01;366;  0.0000000E+00;  0.0000000E+00;  0.0000000E+00;  1.0000000E+03;  4.0000001E-01;  0.0000000E+00;0;  0.0000000E+00;  0.0000000E+00;  0.0000000E+00;0; -9.0731189E-10;  1.0000000E+04;  0.0000000E+00;  0.0000000E+00;  1.0000000E+04;  0.0000000E+00;  1.0000000E+04; -5.9251476E-10;  0.0000000E+00; -3.1479713E-10;  7.9539788E-08;
 -3.9999999E-02;  9.9999998E-03;  3.4000000E-01;404;  0.0000000E+00;  0.0000000E+00;  0.0000000E+00;  1.0000000E+03;  4.0000001E-01;  0.0000000E+00;0;  0.0000000E+00;  0.0000000E+00;  0.0000000E+00;0; -2.6934663E-08;  1.0000000E+04;  0.0000000E+00;  0.0000000E+00;  1.0000000E+04;  0.0000000E+00;  1.0000000E+04; -2.1419952E-08;  0.0000000E+00; -5.5147100E-09;  1.5534622E-06;
 -3.9999999E-02;  9.9999998E-03;  3.6000001E-01;405;  0.0000000E+00;  0.0000000E+00;  0.0000000E+00;  1.0000000E+03;  4.0000001E-01;  0.0000000E+00;0;  0.0000000E+00;  0.0000000E+00;  0.0000000E+00;0; -1.5258436E-08;  1.0000000E+04;  0.0000000E+00;  0.0000000E+00;  1.0000000E+04;  0.0000000E+00;  1.0000000E+04; -1.0879901E-08;  0.0000000E+00; -4.3785358E-09;  1.2449080E-06;
 -3.9999999E-02;  9.9999998E-03;  3.8000000E-01;406;  0.0000000E+00;  0.0000000E+00;  0.0000000E+00;  1.0000000E+03;  4.0000001E-01;  0.0000000E+00;0;  0.0000000E+00;  0.0000000E+00;  0.0000000E+00;0; -7.3074751E-09;  1.0000000E+04;  0.0000000E+00;  0.0000000E+00;  1.0000000E+04;  0.0000000E+00;  1.0000000E+04; -4.7142086E-09;  0.0000000E+00; -2.5932665E-09;  7.2845398E-07;
 -3.9999999E-02;  9.9999998E-03;  4.0000001E-01;407;  0.0000000E+00;  0.0000000E+00;  0.0000000E+00;  1.0000000E+03;  4.0000001E-01;  0.0000000E+00;0;  0.0000000E+00;  0.0000000E+00;  0.0000000E+00;0; -2.6362776E-09;  1.0000000E+04;  0.0000000E+00;  0.0000000E+00;  1.0000000E+04;  0.0000000E+00;  1.0000000E+04; -1.6370215E-09;  0.0000000E+00; -9.9925612E-10;  2.7289781E-07;
 -2.0000000E-02;  9.9999998E-03;  3.4000000E-01;445;  0.0000000E+00;  0.0000000E+00;  0.0000000E+00;  1.0000000E+03;  4.0000001E-01;  0.0000000E+00;0;  0.0000000E+00;  0.0000000E+00;  0.0000000E+00;0; -5.7275710E-08;  1.0000000E+04;  0.0000000E+00;  0.0000000E+00;  1.0000000E+04;  0.0000000E+00;  1.0000000E+04; -4.4636252E-08;  0.0000000E+00; -1.2639457E-08;  3.9635065E-06;
 -2.0000000E-02;  9.9999998E-03;  3.6000001E-01;446;  0.0000000E+00;  0.0000000E+00;  0.0000000E+00;  1.0000000E+03;  4.0000001E-01;  0.0000000E+00;0;  0.0000000E+00;  0.0000000E+00;  0.0000000E+00;0; -3.3257596E-08;  1.0000000E+04;  0.0000000E+00;  0.0000000E+00;  1.0000000E+04;  0.0000000E+00;  1.0000000E+04; -2.3015730E-08;  0.0000000E+00; -1.0241865E-08;  3.2318706E-06;
 -2.0000000E-02;  9.9999998E-03;  3.8000000E-01;447;  0.0000000E+00;  0.0000000E+00;  0.0000000E+00;  1.0000000E+03;  4.0000001E-01;  0.0000000E+00;0;  0.0000000E+00;  0.0000000E+00;  0.0000000E+00;0; -1.6514210E-08;  1.0000000E+04;  0.0000000E+00;  0.0000000E+00;  1.0000000E+04;  0.0000000E+00;  1.0000000E+04; -1.0231219E-08;  0.0000000E+00; -6.2829901E-09;  1.9514591E-06;
 -2.0000000E-02;  9.9999998E-03;  4.0000001E-01;448;  0.0000000E+00;  0.0000000E+00;  0.0000000E+00;  1.0000000E+03;  4.0000001E-01;  0.0000000E+00;0;  0.0000000E+00;  0.0000000E+00;  0.0000000E+00;0; -6.3043792E-09;  1.0000000E+04;  0.0000000E+00;  0.0000000E+00;  1.0000000E+04;  0.0000000E+00;  1.0000000E+04; -3.7233463E-09;  0.0000000E+00; -2.5810327E-09;  7.7472396E-07;
  0.0000000E+00;  9.9999998E-03;  3.4000000E-01;457;  0.0000000E+00;  0.0000000E+00;  0.0000000E+00;  1.0000000E+03;  4.0000001E-01;  0.0000000E+00;0;  0.0000000E+00;  0.0000000E+00;  0.0000000E+00;0; -1.1441870E-07;  1.0000000E+04;  0.0000000E+00;  0.0000000E+00;  1.0000000E+04;  0.0000000E+00;  1.0000000E+04; -8.7547839E-08;  0.0000000E+00; -2.6870858E-08;  9.4753404E-06;
  0.0000000E+00;  9.9999998E-03;  3.6000001E-01;458;  0.0000000E+00;  0.0000000E+00;  0.0000000E+00;  1.0000000E+03;  4.0000001E-01;  0.0000000E+00;0;  0.0000000E+00;  0.0000000E+00;  0.0000000E+00;0; -6.7521853E-08;  1.0000000E+04;  0.0000000E+00;  0.0000000E+00;  1.0000000E+04;  0.0000000E+00;  1.0000000E+04; -4.5493376E-08;  0.0000000E+00; -2.2028473E-08;  7.8026360E-06;
  0.0000000E+00;  9.9999998E-03;  3.8000000E-01;459;  0.0000000E+00;  0.0000000E+00;  0.0000000E+00;  1.0000000E+03;  4.0000001E-01;  0.0000000E+00;0;  0.0000000E+00;  0.0000000E+00;  0.0000000E+00;0; -3.4258960E-08;  1.0000000E+04;  0.0000000E+00;  0.0000000E+00;  1.0000000E+04;  0.0000000E+00;  1.0000000E+04; -2.0469862E-08;  0.0000000E+00; -1.3789100E-08;  4.7971034E-06;
  0.0000000E+00;  9.9999998E-03;  4.0000001E-01;460;  0.0000000E+00;  0.0000000E+00;  0.0000000E+00;  1.0000000E+03;  4.0000001E-01;  0.0000000E+00;0;  0.0000000E+00;  0.0000000E+00;  0.0000000E+00;0; -1.3470927E-08;  1.0000000E+04;  0.0000000E+00;  0.0000000E+00;  1.0000000E+04;  0.0000000E+00;  1.0000000E+04; -7.6007245E-09;  0.0000000E+00; -5.8702021E-09;  1.9662550E-06;
  2.0000000E-02;  9.9999998E-03;  3.4000000E-01;467;  0.0000000E+00;  0.0000000E+00;  0.0000000E+00;  1.0000000E+03;  4.0000001E-01;  0.0000000E+00;0;  0.0000000E+00;  0.0000000E+00;  0.0000000E+00;0; -2.1933212E-07;  1.0000000E+04;  0.0000000E+00;  0.0000000E+00;  1.0000000E+04;  0.0000000E+00;  1.0000000E+04; -1.6528878E-07;  0.0000000E+00; -5.4043340E-08;  2.1578877E-05;
  2.0000000E-02;  9.9999998E-03;  3.6000001E-01;468;  0.0000000E+00;  0.0000000E+00;  0.0000000E+00;  1.0000000E+03;  4.0000001E-01;  0.0000000E+00;0;  0.0000000E+00;  0.0000000E+00;  0.0000000E+00;0; -1.3093840E-07;  1.0000000E+04;  0.0000000E+00;  0.0000000E+00;  1.0000000E+04;  0.0000000E+00;  1.0000000E+04; -8.6303331E-08;  0.0000000E+00; -4.4635069E-08;  1.7887762E-05;
  2.0000000E-02;  9.9999998E-03;  3.8000000E-01;469;  0.0000000E+00;  0.0000000E+00;  0.0000000E+00;  1.0000000E+03;  4.0000001E-01;  0.0000000E+00;0;  0.0000000E+00;  0.0000000E+00;  0.0000000E+00;0; -6.7371502E-08;  1.0000000E+04;  0.0000000E+00;  0.0000000E+00;  1.0000000E+04;  0.0000000E+00;  1.0000000E+04; -3.9080408E-08;  0.0000000E+00; -2.8291096E-08;  1.1128341E-05;
  2.0000000E-02;  9.9999998E-03;  4.0000001E-01;470;  0.0000000E+00;  0.0000000E+00;  0.0000000E+00;  1.0000000E+03;  4.0000001E-01;  0.0000000E+00;0;  0.0000000E+00;  0.0000000E+00;  0.0000000E+00;0; -2.6934906E-08;  1.0000000E+04;  0.0000000E+00;  0.0000000E+00;  1.0000000E+04;  0.0000000E+00;  1.0000000E+04; -1.4636694E-08;  0.0000000E+00; -1.2298212E-08;  4.6511514E-06;
  3.9999999E-02;  9.9999998E-03;  3.4000000E-01;477;  0.0000000E+00;  0.0000000E+00;  0.0000000E+00;  1.0000000E+03;  4.0000001E-01;  0.0000000E+00;0;  0.0000000E+00;  0.0000000E+00;  0.0000000E+00;0; -4.0884328E-07;  1.0000000E+04;  0.0000000E+00;  0.0000000E+00;  1.0000000E+04;  0.0000000E+00;  1.0000000E+04; -3.0453407E-07;  0.0000000E+00; -1.0430922E-07;  4.7286514E-05;
  3.9999999E-02;  9.9999998E-03;  3.6000001E-01;478;  0.0000000E+00;  0.0000000E+00;  0.0000000E+00;  1.0000000E+03;  4.0000001E-01;  0.0000000E+00;0;  0.0000000E+00;  0.0000000E+00;  0.0000000E+00;0; -2.4623409E-07;  1.0000000E+04;  0.0000000E+00;  0.0000000E+00;  1.0000000E+04;  0.0000000E+00;  1.0000000E+04; -1.5960546E-07;  0.0000000E+00; -8.6628624E-08;  3.9412836E-05;
  3.9999999E-02;  9.9999998E-03;  3.8000000E-01;479;  0.0000000E+00;  0.0000000E+00;  0.0000000E+00;  1.0000000E+03;  4.0000001E-01;  0.0000000E+00;0;  0.0000000E+00;  0.0000000E+00;  0.0000000E+00;0; -1.2797987E-07;  1.0000000E+04;  0.0000000E+00;  0.0000000E+00;  1.0000000E+04;  0.0000000E+00;  1.0000000E+04; -7.2598105E-08;  0.0000000E+00; -5.5381772E-08;  2.4745741E-05;
  3.9999999E-02;  9.9999998E-03;  4.0000001E-01;480;  0.0000000E+00;  0.0000000E+00;  0.0000000E+00;  1.0000000E+03;  4.0000001E-01;  0.0000000E+00;0;  0.0000000E+00;  0.0000000E+00;  0.0000000E+00;0; -5.1722687E-08;  1.0000000E+04;  0.0000000E+00;  0.0000000E+00;  1.0000000E+04;  0.0000000E+00;  1.0000000E+04; -2.7325667E-08;  0.0000000E+00; -2.4397020E-08;  1.0488344E-05;
  5.9999999E-02;  9.9999998E-03;  3.4000000E-01;487;  0.0000000E+00;  0.0000000E+00;  0.0000000E+00;  1.0000000E+03;  4.0000001E-01;  0.0000000E+00;0;  0.0000000E+00;  0.0000000E+00;  0.0000000E+00;0; -7.4662501E-07;  1.0000000E+04;  0.0000000E+00;  0.0000000E+00;  1.0000000E+04;  0.0000000E+00;  1.0000000E+04; -5.5142988E-07;  0.0000000E+00; -1.9519514E-07;  1.0028495E-04;
  5.9999999E-02;  9.9999998E-03;  3.6000001E-01;488;  0.0000000E+00;  0.0000000E+00;  0.0000000E+00;  1.0000000E+03;  4.0000001E-01;  0.0000000E+00;0;  0.0000000E+00;  0.0000000E+00;  0.0000000E+00;0; -4.5316153E-07;  1.0000000E+04;  0.0000000E+00;  0.0000000E+00;  1.0000000E+04;  0.0000000E+00;  1.0000000E+04; -2.9031963E-07;  0.0000000E+00; -1.6284189E-07;  8.4009298E-05;
  5.9999999E-02;  9.9999998E-03;  3.8000000E-01;489;  0.0000000E+00;  0.0000000E+00;  0.0000000E+00;  1.0000000E+03;  4.0000001E-01;  0.0000000E+00;0;  0.0000000E+00;  0.0000000E+00;  0.0000000E+00;0; -2.3754737E-07;  1.0000000E+04;  0.0000000E+00;  0.0000000E+00;  1.0000000E+04;  0.0000000E+00;  1.0000000E+04; -1.3276295E-07;  0.0000000E+00; -1.0478442E-07;  5.3169493E-05;
  5.9999999E-02;  9.9999998E-03;  4.0000001E-01;490;  0.0000000E+00;  0.0000000E+00;  0.0000000E+00;  1.0000000E+03;  4.0000001E-01;  0.0000000E+00;0;  0.0000000E+00;  0.0000000E+00;  0.0000000E+00;0; -9.6853341E-08;  1.0000000E+04;  0.0000000E+00;  0.0000000E+00;  1.0000000E+04;  0.0000000E+00;  1.0000000E+04; -5.0253274E-08;  0.0000000E+00; -4.6600071E-08;  2.2801023E-05;
  7.9999998E-02;  9.9999998E-03;  3.4000000E-01;497;  0.0000000E+00;  0.0000000E+00;  0.0000000E+00;  1.0000000E+03;  4.0000001E-01;  0.0000000E+00;0;  0.0000000E+00;  0.0000000E+00;  0.0000000E+00;0; -1.3492178E-06;  1.0000000E+04;  0.0000000E+00;  0.0000000E+00;  1.0000000E+04;  0.0000000E+00;  1.0000000E+04; -9.9232602E-07;  0.0000000E+00; -3.5689172E-07;  2.0712064E-04;
  7.9999998E-02;  9.9999998E-03;  3.6000001E-01;498;  0.0000000E+00;  0.0000000E+00;  0.0000000E+00;  1.0000000E+03;  4.0000001E-01;  0.0000000E+00;0;  0.0000000E+00;  0.0000000E+00;  0.0000000E+00;0; -8.2523911E-07;  1.0000000E+04;  0.0000000E+00;  0.0000000E+00;  1.0000000E+04;  0.0000000E+00;  1.0000000E+04; -5.2640763E-07;  0.0000000E+00; -2.9883148E-07;  1.7416035E-04;
  7.9999998E-02;  9.9999998E-03;  3.8000000E-01;499;  0.0000000E+00;  0.0000000E+00;  0.0000000E+00;  1.0000000E+03;  4.0000001E-01;  0.0000000E+00;0;  0.0000000E+00;  0.0000000E+00;  0.0000000E+00;0; -4.3576881E-07;  1.0000000E+04;  0.0000000E+00;  0.0000000E+00;  1.0000000E+04;  0.0000000E+00;  1.0000000E+04; -2.4255209E-07;  0.0000000E+00; -1.9321671E-07;  1.1086404E-04;
  7.9999998E-02;  9.9999998E-03;  4.0000001E-01;500;  0.0000000E+00;  0.0000000E+00;  0.0000000E+00;  1.0000000E+03;  4.0000001E-01;  0.0000000E+00;0;  0.0000000E+00;  0.0000000E+00;  0.0000000E+00;0; -1.7905845E-07;  1.0000000E+04;  0.0000000E+00;  0.0000000E+00;  1.0000000E+04;  0.0000000E+00;  1.0000000E+04; -9.2495966E-08;  0.0000000E+00; -8.6562487E-08;  4.8060399E-05;
  1.0000000E-01;  9.9999998E-03;  3.4000000E-01;507;  0.0000000E+00;  0.0000000E+00;  0.0000000E+00;  1.0000000E+03;  4.0000001E-01;  0.0000000E+00;0;  0.0000000E+00;  0.0000000E+00;  0.0000000E+00;0; -2.4465514E-06;  1.0000000E+04;  0.0000000E+00;  0.0000000E+00;  1.0000000E+04;  0.0000000E+00;  1.0000000E+04; -1.8037190E-06;  0.0000000E+00; -6.4283245E-07;  4.2988482E-04;
  1.0000000E-01;  9.9999998E-03;  3.6000001E-01;508;  0.0000000E+00;  0.0000000E+00;  0.0000000E+00;  1.0000000E+03;  4.0000001E-01;  0.0000000E+00;0;  0.0000000E+00;  0.0000000E+00;  0.0000000E+00;0; -1.5084603E-06;  1.0000000E+04;  0.0000000E+00;  0.0000000E+00;  1.0000000E+04;  0.0000000E+00;  1.0000000E+04; -9.6862686E-07;  0.0000000E+00; -5.3983342E-07;  3.5484071E-04;
  1.0000000E-01;  9.9999998E-03;  3.8000000E-01;509;  0.0000000E+00;  0.0000000E+00;  0.0000000E+00;  1.0000000E+03;  4.0000001E-01;  0.0000000E+00;0;  0.0000000E+00;  0.0000000E+00;  0.0000000E+00;0; -8.0144798E-07;  1.0000000E+04;  0.0000000E+00;  0.0000000E+00;  1.0000000E+04;  0.0000000E+00;  1.0000000E+04; -4.5123537E-07;  0.0000000E+00; -3.5021264E-07;  2.2561943E-04;
  1.0000000E-01;  9.9999998E-03;  4.0000001E-01;510;  0.0000000E+00;  0.0000000E+00;  0.0000000E+00;  1.0000000E+03;  4.0000001E-01;  0.0000000E+00;0;  0.0000000E+00;  0.0000000E+00;  0.0000000E+00;0; -3.3165909E-07;  1.0000000E+04;  0.0000000E+00;  0.0000000E+00;  1.0000000E+04;  0.0000000E+00;  1.0000000E+04; -1.7386159E-07;  0.0000000E+00; -1.5779750E-07;  1.0084656E-04;
  1.2000000E-01;  9.9999998E-03;  3.4000000E-01;517;  0.0000000E+00;  0.0000000E+00;  0.0000000E+00;  1.0000000E+03;  4.0000001E-01;  0.0000000E+00;0;  0.0000000E+00;  0.0000000E+00;  0.0000000E+00;0; -4.4990566E-06;  1.0000000E+04;  0.0000000E+00;  0.0000000E+00;  1.0000000E+04;  0.0000000E+00;  1.0000000E+04; -3.3476483E-06;  0.0000000E+00; -1.1514082E-06;  9.9890248E-04;
  1.2000000E-01;  9.9999998E-03;  3.6000001E-01;518;  0.0000000E+00;  0.0000000E+00;  0.0000000E+00;  1.0000000E+03;  4.0000001E-01;  0.0000000E+00;0;  0.0000000E+00;  0.0000000E+00;  0.0000000E+00;0; -2.7999304E-06;  1.0000000E+04;  0.0000000E+00;  0.0000000E+00;  1.0000000E+04;  0.0000000E+00;  1.0000000E+04; -1.8304007E-06;  0.0000000E+00; -9.6952965E-07;  7.2178571E-04;
  1.2000000E-01;  9.9999998E-03;  3.8000000E-01;519;  0.0000000E+00;  0.0000000E+00;  0.0000000E+00;  1.0000000E+03;  4.0000001E-01;  0.0000000E+00;0;  0.0000000E+00;  0.0000000E+00;  0.0000000E+00;0; -1.4974639E-06;  1.0000000E+04;  0.0000000E+00;  0.0000000E+00;  1.0000000E+04;  0.0000000E+00;  1.0000000E+04; -8.6616456E-07;  0.0000000E+00; -6.3129932E-07;  4.6575771E-04;
  1.2000000E-01;  9.9999998E-03;  4.0000001E-01;520;  0.0000000E+00;  0.0000000E+00;  0.0000000E+00;  1.0000000E+03;  4.0000001E-01;  0.0000000E+00;0;  0.0000000E+00;  0.0000000E+00;  0.0000000E+00;0; -6.2511594E-07;  1.0000000E+04;  0.0000000E+00;  0.0000000E+00;  1.0000000E+04;  0.0000000E+00;  1.0000000E+04; -3.3872993E-07;  0.0000000E+00; -2.8638601E-07;  2.5219657E-04;
  1.4000000E-01;  9.9999998E-03;  3.4000000E-01;527;  0.0000000E+00;  0.0000000E+00;  0.0000000E+00;  1.0000000E+03;  4.0000001E-01;  0.0000000E+00;0;  0.0000000E+00;  0.0000000E+00;  0.0000000E+00;0; -8.4029625E-06;  1.0000000E+04;  0.0000000E+00;  0.0000000E+00;  1.0000000E+04;  0.0000000E+00;  1.0000000E+04; -6.3329312E-06;  0.0000000E+00; -2.0700313E-06;  2.8175095E-03;
  1.4000000E-01;  9.9999998E-03;  3.6000001E-01;528;  0.0000000E+00;  0.0000000E+00;  0.0000000E+00;  1.0000000E+03;  4.0000001E-01;  0.0000000E+00;0;  0.0000000E+00;  0.0000000E+00;  0.0000000E+00;0; -5.2915907E-06;  1.0000000E+04;  0.0000000E+00;  0.0000000E+00;  1.0000000E+04;  0.0000000E+00;  1.0000000E+04; -3.5441331E-06;  0.0000000E+00; -1.7474575E-06;  1.4790015E-03;
  1.4000000E-01;  9.9999998E-03;  3.8000000E-01;529;  0.0000000E+00;  0.0000000E+00;  0.0000000E+00;  1.0000000E+03;  4.0000001E-01;  0.0000000E+00;0;  0.0000000E+00;  0.0000000E+00;  0.0000000E+00;0; -2.8611410E-06;  1.0000000E+04;  0.0000000E+00;  0.0000000E+00;  1.0000000E+04;  0.0000000E+00;  1.0000000E+04; -1.7142103E-06;  0.0000000E+00; -1.1469307E-06;  1.1482752E-03;
  1.4000000E-01;  9.9999998E-03;  4.0000001E-01;530;  0.0000000E+00;  0.0000000E+00;  0.0000000E+00;  1.0000000E+03;  4.0000001E-01;  0.0000000E+00;0;  0.0000000E+00;  0.0000000E+00;  0.0000000E+00;0; -1.2156487E-06;  1.0000000E+04;  0.0000000E+00;  0.0000000E+00;  1.0000000E+04;  0.0000000E+00;  1.0000000E+04; -6.8645215E-07;  0.0000000E+00; -5.2919654E-07;  9.1244245E-04;
  1.6000000E-01;  9.9999998E-03;  3.4000000E-01;537;  0.0000000E+00;  0.0000000E+00;  0.0000000E+00;  1.0000000E+03;  4.0000001E-01;  0.0000000E+00;0;  0.0000000E+00;  0.0000000E+00;  0.0000000E+00;0; -1.5730286E-05;  1.0000000E+04;  0.0000000E+00;  0.0000000E+00;  1.0000000E+04;  0.0000000E+00;  1.0000000E+04; -1.1968526E-05;  0.0000000E+00; -3.7617599E-06;  8.3924020E-03;
  1.6000000E-01;  9.9999998E-03;  3.6000001E-01;538;  0.0000000E+00;  0.0000000E+00;  0.0000000E+00;  1.0000000E+03;  4.0000001E-01;  0.0000000E+00;0;  0.0000000E+00;  0.0000000E+00;  0.0000000E+00;0; -1.0043569E-05;  1.0000000E+04;  0.0000000E+00;  0.0000000E+00;  1.0000000E+04;  0.0000000E+00;  1.0000000E+04; -6.8607842E-06;  0.0000000E+00; -3.1827851E-06;  2.9916342E-03;
  1.6000000E-01;  9.9999998E-03;  3.8000000E-01;539;  0.0000000E+00;  0.0000000E+00;  0.0000000E+00;  1.0000000E+03;  4.0000001E-01;  0.0000000E+00;0;  0.0000000E+00;  0.0000000E+00;  0.0000000E+00;0; -5.5410928E-06;  1.0000000E+04;  0.0000000E+00;  0.0000000E+00;  1.0000000E+04;  0.0000000E+00;  1.0000000E+04; -3.4131226E-06;  0.0000000E+00; -2.1279702E-06;  3.6943264E-03;
  1.6000000E-01;  9.9999998E-03;  4.0000001E-01;540;  0.0000000E+00;  0.0000000E+00;  0.0000000E+00;  1.0000000E+03;  4.0000001E-01;  0.0000000E+00;0;  0.0000000E+00;  0.0000000E+00;  0.0000000E+00;0; -2.4484880E-06;  1.0000000E+04;  0.0000000E+00;  0.0000000E+00;  1.0000000E+04;  0.0000000E+00;  1.0000000E+04; -1.4231878E-06;  0.0000000E+00; -1.0253003E-06;  3.6382438E-03;
  1.8000001E-01;  9.9999998E-03;  3.4000000E-01;547;  0.0000000E+00;  0.0000000E+00;  0.0000000E+00;  1.0000000E+03;  4.0000001E-01;  0.0000000E+00;0;  0.0000000E+00;  0.0000000E+00;  0.0000000E+00;0; -2.8676073E-05;  1.0000000E+04;  0.0000000E+00;  0.0000000E+00;  1.0000000E+04;  0.0000000E+00;  1.0000000E+04; -2.1762320E-05;  0.0000000E+00; -6.9137523E-06;  2.2308320E-02;
  1.8000001E-01;  9.9999998E-03;  3.6000001E-01;548;  0.0000000E+00;  0.0000000E+00;  0.0000000E+00;  1.0000000E+03;  4.0000001E-01;  0.0000000E+00;0;  0.0000000E+00;  0.0000000E+00;  0.0000000E+00;0; -1.8550505E-05;  1.0000000E+04;  0.0000000E+00;  0.0000000E+00;  1.0000000E+04;  0.0000000E+00;  1.0000000E+04; -1.2682529E-05;  0.0000000E+00; -5.8679752E-06;  5.7245786E-03;
  1.8000001E-01;  9.9999998E-03;  3.8000000E-01;549;  0.0000000E+00;  0.0000000E+00;  0.0000000E+00;  1.0000000E+03;  4.0000001E-01;  0.0000000E+00;0;  0.0000000E+00;  0.0000000E+00;  0.0000000E+00;0; -1.0572712E-05;  1.0000000E+04;  0.0000000E+00;  0.0000000E+00;  1.0000000E+04;  0.0000000E+00;  1.0000000E+04; -6.5038566E-06;  0.0000000E+00; -4.0688551E-06;  1.1993804E-02;
  1.8000001E-01;  9.9999998E-03;  4.0000001E-01;550;  0.0000000E+00;  0.0000000E+00;  0.0000000E+00;  1.0000000E+03;  4.0000001E-01;  0.0000000E+00;0;  0.0000000E+00;  0.0000000E+00;  0.0000000E+00;0; -5.0242725E-06;  1.0000000E+04;  0.0000000E+00;  0.0000000E+00;  1.0000000E+04;  0.0000000E+00;  1.0000000E+04; -2.8849367E-06;  0.0000000E+00; -2.1393355E-06;  1.2876183E-02;
  2.0000000E-01;  9.9999998E-03;  3.4000000E-01;556;  0.0000000E+00;  0.0000000E+00;  0.0000000E+00;  1.0000000E+03;  4.0000001E-01;  0.0000000E+00;0;  0.0000000E+00;  0.0000000E+00;  0.0000000E+00;0; -4.9638580E-05;  1.0000000E+04;  0.0000000E+00;  0.0000000E+00;  1.0000000E+04;  0.0000000E+00;  1.0000000E+04; -3.6898109E-05;  0.0000000E+00; -1.2740472E-05;  4.8641846E-02;
  2.0000000E-01;  9.9999998E-03;  3.6000001E-01;557;  0.0000000E+00;  0.0000000E+00;  0.0000000E+00;  1.0000000E+03;  4.0000001E-01;  0.0000000E+00;0;  0.0000000E+00;  0.0000000E+00;  0.0000000E+00;0; -3.2554926E-05;  1.0000000E+04;  0.0000000E+00;  0.0000000E+00;  1.0000000E+04;  0.0000000E+00;  1.0000000E+04; -2.1654609E-05;  0.0000000E+00; -1.0900318E-05;  1.0886373E-02;
  2.0000000E-01;  9.9999998E-03;  3.8000000E-01;558;  0.0000000E+00;  0.0000000E+00;  0.0000000E+00;  1.0000000E+03;  4.0000001E-01;  0.0000000E+00;0;  0.0000000E+00;  0.0000000E+00;  0.0000000E+00;0; -1.9395866E-05;  1.0000000E+04;  0.0000000E+00;  0.0000000E+00;  1.0000000E+04;  0.0000000E+00;  1.0000000E+04; -1.1414458E-05;  0.0000000E+00; -7.9814090E-06;  3.2699227E-02;
  1.9200000E+00;  9.9999998E-03; -3.6000001E-01;559;  0.0000000E+00;  0.0000000E+00;  0.0000000E+00;  1.0000000E+03;  4.0000001E-01;  0.0000000E+00;0;  0.0000000E+00;  0.0000000E+00;  0.0000000E+00;0;  0.0000000E+00;  1.0000000E+04;  0.0000000E+00;  0.0000000E+00;  1.0000000E+04;  0.0000000E+00;  1.0000000E+04;  0.0000000E+00;  0.0000000E+00;  0.0000000E+00;  0.0000000E+00;
  1.9200000E+00;  9.9999998E-03; -3.4000000E-01;560;  0.0000000E+00;  0.0000000E+00;  0.0000000E+00;  1.0000000E+03;  4.0000001E-01;  0.0000000E+00;0;  0.0000000E+00;  0.0000000E+00;  0.0000000E+00;0;  0.0000000E+00;  1.0000000E+04;  0.0000000E+00;  0.0000000E+00;  1.0000000E+04;  0.0000000E+00;  1.0000000E+04;  0.0000000E+00;  0.0000000E+00;  0.0000000E+00;  0.0000000E+00;
  1.9200000E+00;  9.9999998E-03; -3.1999999E-01;561;  0.0000000E+00;  0.0000000E+00;  0.0000000E+00;  1.0000000E+03;  4.0000001E-01;  0.0000000E+00;0;  0.0000000E+00;  0.0000000E+00;  0.0000000E+00;0;  0.0000000E+00;  1.0000000E+04;  0.0000000E+00;  0.0000000E+00;  1.0000000E+04;  0.0000000E+00;  1.0000000E+04;  0.0000000E+00;  0.0000000E+00;  0.0000000E+00;  0.0000000E+00;
  1.9400001E+00;  9.9999998E-03; -3.8000000E-01;562;  0.0000000E+00;  0.0000000E+00;  0.0000000E+00;  1.0000000E+03;  4.0000001E-01;  0.0000000E+00;0;  0.0000000E+00;  0.0000000E+00;  0.0000000E+00;0;  0.0000000E+00;  1.0000000E+04;  0.0000000E+00;  0.0000000E+00;  1.0000000E+04;  0.0000000E+00;  1.0000000E+04;  0.0000000E+00;  0.0000000E+00;  0.0000000E+00;  0.0000000E+00;
  1.9400001E+00;  9.9999998E-03; -3.6000001E-01;563;  0.0000000E+00;  0.0000000E+00;  0.0000000E+00;  1.0000000E+03;  4.0000001E-01;  0.0000000E+00;0;  0.0000000E+00;  0.0000000E+00;  0.0000000E+00;0;  0.0000000E+00;  1.0000000E+04;  0.0000000E+00;  0.0000000E+00;  1.0000000E+04;  0.0000000E+00;  1.0000000E+04;  0.0000000E+00;  0.0000000E+00;  0.0000000E+00;  0.0000000E+00;
  1.9400001E+00;  9.9999998E-03; -3.4000000E-01;564;  0.0000000E+00;  0.0000000E+00;  0.0000000E+00;  1.0000000E+03;  4.0000001E-01;  0.0000000E+00;0;  0.0000000E+00;  0.0000000E+00;  0.0000000E+00;0;  0.0000000E+00;  1.0000000E+04;  0.0000000E+00;  0.0000000E+00;  1.0000000E+04;  0.0000000E+00;  1.0000000E+04;  0.0000000E+00;  0.0000000E+00;  0.0000000E+00;  0.0000000E+00;
  1.9400001E+00;  9.9999998E-03; -3.1999999E-01;565;  0.0000000E+00;  0.0000000E+00;  0.0000000E+00;  1.0000000E+03;  4.0000001E-01;  0.0000000E+00;0;  0.0000000E+00;  0.0000000E+00;  0.0000000E+00;0;  0.0000000E+00;  1.0000000E+04;  0.0000000E+00;  0.0000000E+00;  1.0000000E+04;  0.0000000E+00;  1.0000000E+04;  0.0000000E+00;  0.0000000E+00;  0.0000000E+00;  0.0000000E+00;
  1.9400001E+00;  9.9999998E-03; -3.0000001E-01;566;  0.0000000E+00;  0.0000000E+00;  0.0000000E+00;  1.0000000E+03;  4.0000001E-01;  0.0000000E+00;0;  0.0000000E+00;  0.0000000E+00;  0.0000000E+00;0;  0.0000000E+00;  1.0000000E+04;  0.0000000E+00;  0.0000000E+00;  1.0000000E+04;  0.0000000E+00;  1.0000000E+04;  0.0000000E+00;  0.0000000E+00;  0.0000000E+00;  0.0000000E+00;
  1.9400001E+00;  9.9999998E-03; -2.8000000E-01;567;  0.0000000E+00;  0.0000000E+00;  0.0000000E+00;  1.0000000E+03;  4.0000001E-01;  0.0000000E+00;0;  0.0000000E+00;  0.0000000E+00;  0.0000000E+00;0;  0.0000000E+00;  1.0000000E+04;  0.0000000E+00;  0.0000000E+00;  1.0000000E+04;  0.0000000E+00;  1.0000000E+04;  0.0000000E+00;  0.0000000E+00;  0.0000000E+00;  0.0000000E+00;
  1.9400001E+00;  9.9999998E-03; -2.5999999E-01;568;  0.0000000E+00;  0.0000000E+00;  0.0000000E+00;  1.0000000E+03;  4.0000001E-01;  0.0000000E+00;0;  0.0000000E+00;  0.0000000E+00;  0.0000000E+00;0;  0.0000000E+00;  1.0000000E+04;  0.0000000E+00;  0.0000000E+00;  1.0000000E+04;  0.0000000E+00;  1.0000000E+04;  0.0000000E+00;  0.0000000E+00;  0.0000000E+00;  0.0000000E+00;
  1.9400001E+00;  9.9999998E-03; -2.3999999E-01;569;  0.0000000E+00;  0.0000000E+00;  0.0000000E+00;  1.0000000E+03;  4.0000001E-01;  0.0000000E+00;0;  0.0000000E+00;  0.0000000E+00;  0.0000000E+00;0;  0.0000000E+00;  1.0000000E+04;  0.0000000E+00;  0.0000000E+00;  1.0000000E+04;  0.0000000E+00;  1.0000000E+04;  0.0000000E+00;  0.0000000E+00;  0.0000000E+00;  0.0000000E+00;
  1.9400001E+00;  9.9999998E-03; -2.2000000E-01;570;  0.0000000E+00;  0.0000000E+00;  0.0000000E+00;  1.0000000E+03;  4.0000001E-01;  0.0000000E+00;0;  0.0000000E+00;  0.0000000E+00;  0.0000000E+00;0;  0.0000000E+00;  1.0000000E+04;  0.0000000E+00;  0.0000000E+00;  1.0000000E+04;  0.0000000E+00;  1.0000000E+04;  0.0000000E+00;  0.0000000E+00;  0.0000000E+00;  0.0000000E+00;
  1.9600000E+00;  9.9999998E-03; -3.8000000E-01;571;  0.0000000E+00;  0.0000000E+00;  0.0000000E+00;  1.0000000E+03;  4.0000001E-01;  0.0000000E+00;0;  0.0000000E+00;  0.0000000E+00;  0.0000000E+00;0;  0.0000000E+00;  1.0000000E+04;  0.0000000E+00;  0.0000000E+00;  1.0000000E+04;  0.0000000E+00;  1.0000000E+04;  0.0000000E+00;  0.0000000E+00;  0.0000000E+00;  0.0000000E+00;
  1.9600000E+00;  9.9999998E-03; -3.6000001E-01;572;  0.0000000E+00;  0.0000000E+00;  0.0000000E+00;  1.0000000E+03;  4.0000001E-01;  0.0000000E+00;0;  0.0000000E+00;  0.0000000E+00;  0.0000000E+00;0;  0.0000000E+00;  1.0000000E+04;  0.0000000E+00;  0.0000000E+00;  1.0000000E+04;  0.0000000E+00;  1.0000000E+04;  0.0000000E+00;  0.0000000E+00;  0.0000000E+00;  0.0000000E+00;
  1.9600000E+00;  9.9999998E-03; -3.4000000E-01;573;  0.0000000E+00;  0.0000000E+00;  0.0000000E+00;  1.0000000E+03;  4.0000001E-01;  0.0000000E+00;0;  0.0000000E+00;  0.0000000E+00;  0.0000000E+00;0;  0.0000000E+00;  1.0000000E+04;  0.0000000E+00;  0.0000000E+00;  1.0000000E+04;  0.0000000E+00;  1.0000000E+04;  0.0000000E+00;  0.0000000E+00;  0.0000000E+00;  0.0000000E+00;
  1.9600000E+00;  9.9999998E-03; -3.1999999E-01;574;  0.0000000E+00;  0.0000000E+00;  0.0000000E+00;  1.0000000E+03;  4.0000001E-01;  0.0000000E+00;0;  0.0000000E+00;  0.0000000E+00;  0.0000000E+00;0;  0.0000000E+00;  1.0000000E+04;  0.0000000E+00;  0.0000000E+00;  1.0000000E+04;  0.0000000E+00;  1.0000000E+04;  0.0000000E+00;  0.0000000E+00;  0.0000000E+00;  0.0000000E+00;
  1.9600000E+00;  9.9999998E-03; -3.0000001E-01;575;  0.0000000E+00;  0.0000000E+00;  0.0000000E+00;  1.0000000E+03;  4.0000001E-01;  0.0000000E+00;0;  0.0000000E+00;  0.0000000E+00;  0.0000000E+00;0;  0.0000000E+00;  1.0000000E+04;  0.0000000E+00;  0.0000000E+00;  1.0000000E+04;  0.0000000E+00;  1.0000000E+04;  0.0000000E+00;  0.0000000E+00;  0.0000000E+00;  0.0000000E+00;
  1.9600000E+00;  9.9999998E-03; -2.8000000E-01;576;  0.0000000E+00;  0.0000000E+00;  0.0000000E+00;  1.0000000E+03;  4.0000001E-01;  0.0000000E+00;0;  0.0000000E+00;  0.0000000E+00;  0.0000000E+00;0;  0.0000000E+00;  1.0000000E+04;  0.0000000E+00;  0.0000000E+00;  1.0000000E+04;  0.0000000E+00;  1.0000000E+04;  0.0000000E+00;  0.0000000E+00;  0.0000000E+00;  0.0000000E+00;
  1.9600000E+00;  9.9999998E-03; -2.5999999E-01;577;  0.0000000E+00;  0.0000000E+00;  0.0000000E+00;  1.0000000E+03;  4.0000001E-01;  0.0000000E+00;0;  0.0000000E+00;  0.0000000E+00;  0.0000000E+00;0;  0.0000000E+00;  1.0000000E+04;  0.0000000E+00;  0.0000000E+00;  1.0000000E+04;  0.0000000E+00;  1.0000000E+04;  0.0000000E+00;  0.0000000E+00;  0.0000000E+00;  0.0000000E+00;
  1.9600000E+00;  9.9999998E-03; -2.3999999E-01;578;  0.0000000E+00;  0.0000000E+00;  0.0000000E+00;  1.0000000E+03;  4.0000001E-01;  0.0000000E+00;0;  0.0000000E+00;  0.0000000E+00;  0.0000000E+00;0;  0.0000000E+00;  1.0000000E+04;  0.0000000E+00;  0.0000000E+00;  1.0000000E+04;  0.0000000E+00;  1.0000000E+04;  0.0000000E+00;  0.0000000E+00;  0.0000000E+00;  0.0000000E+00;
  1.9600000E+00;  9.9999998E-03; -2.2000000E-01;579;  0.0000000E+00;  0.0000000E+00;  0.0000000E+00;  1.0000000E+03;  4.0000001E-01;  0.0000000E+00;0;  0.0000000E+00;  0.0000000E+00;  0.0000000E+00;0;  0.0000000E+00;  1.0000000E+04;  0.0000000E+00;  0.0000000E+00;  1.0000000E+04;  0.0000000E+00;  1.0000000E+04;  0.0000000E+00;  0.0000000E+00;  0.0000000E+00;  0.0000000E+00;
  1.9600000E+00;  9.9999998E-03; -2.0000000E-01;580;  0.0000000E+00;  0.0000000E+00;  0.0000000E+00;  1.0000000E+03;  4.0000001E-01;  0.0000000E+00;0;  0.0000000E+00;  0.0000000E+00;  0.0000000E+00;0;  0.0000000E+00;  1.0000000E+04;  0.0000000E+00;  0.0000000E+00;  1.0000000E+04;  0.0000000E+00;  1.0000000E+04;  0.0000000E+00;  0.0000000E+00;  0.0000000E+00;  0.0000000E+00;
  1.9600000E+00;  9.9999998E-03; -1.8000001E-01;581;  0.0000000E+00;  0.0000000E+00;  0.0000000E+00;  1.0000000E+03;  4.0000001E-01;  0.0000000E+00;0;  0.0000000E+00;  0.0000000E+00;  0.0000000E+00;0;  0.0000000E+00;  1.0000000E+04;  0.0000000E+00;  0.0000000E+00;  1.0000000E+04;  0.0000000E+00;  1.0000000E+04;  0.0000000E+00;  0.0000000E+00;  0.0000000E+00;  0.0000000E+00;
  1.9600000E+00;  9.9999998E-03; -1.6000000E-01;582;  0.0000000E+00;  0.0000000E+00;  0.0000000E+00;  1.0000000E+03;  4.0000001E-01;  0.0000000E+00;0;  0.0000000E+00;  0.0000000E+00;  0.0000000E+00;0;  0.0000000E+00;  1.0000000E+04;  0.0000000E+00;  0.0000000E+00;  1.0000000E+04;  0.0000000E+00;  1.0000000E+04;  0.0000000E+00;  0.0000000E+00;  0.0000000E+00;  0.0000000E+00;
  1.9600000E+00;  9.9999998E-03; -1.4000000E-01;583;  0.0000000E+00;  0.0000000E+00;  0.0000000E+00;  1.0000000E+03;  4.0000001E-01;  0.0000000E+00;0;  0.0000000E+00;  0.0000000E+00;  0.0000000E+00;0;  0.0000000E+00;  1.0000000E+04;  0.0000000E+00;  0.0000000E+00;  1.0000000E+04;  0.0000000E+00;  1.0000000E+04;  0.0000000E+00;  0.0000000E+00;  0.0000000E+00;  0.0000000E+00;
  1.9600000E+00;  9.9999998E-03; -1.2000000E-01;584;  0.0000000E+00;  0.0000000E+00;  0.0000000E+00;  1.0000000E+03;  4.0000001E-01;  0.0000000E+00;0;  0.0000000E+00;  0.0000000E+00;  0.0000000E+00;0;  0.0000000E+00;  1.0000000E+04;  0.0000000E+00;  0.0000000E+00;  1.0000000E+04;  0.0000000E+00;  1.0000000E+04;  0.0000000E+00;  0.0000000E+00;  0.0000000E+00;  0.0000000E+00;
  1.9800000E+00;  9.9999998E-03; -3.8000000E-01;585;  0.0000000E+00;  0.0000000E+00;  0.0000000E+00;  1.0000000E+03;  4.0000001E-01;  0.0000000E+00;0;  0.0000000E+00;  0.0000000E+00;  0.0000000E+00;0;  0.0000000E+00;  1.0000000E+04;  0.0000000E+00;  0.0000000E+00;  1.0000000E+04;  0.0000000E+00;  1.0000000E+04;  0.0000000E+00;  0.0000000E+00;  0.0000000E+00;  0.0000000E+00;
  1.9800000E+00;  9.9999998E-03; -3.6000001E-01;586;  0.0000000E+00;  0.0000000E+00;  0.0000000E+00;  1.0000000E+03;  4.0000001E-01;  0.0000000E+00;0;  0.0000000E+00;  0.0000000E+00;  0.0000000E+00;0;  0.0000000E+00;  1.0000000E+04;  0.0000000E+00;  0.0000000E+00;  1.0000000E+04;  0.0000000E+00;  1.0000000E+04;  0.0000000E+00;  0.0000000E+00;  0.0000000E+00;  0.0000000E+00;
  1.9800000E+00;  9.9999998E-03; -3.4000000E-01;587;  0.0000000E+00;  0.0000000E+00;  0.0000000E+00;  1.0000000E+03;  4.0000001E-01;  0.0000000E+00;0;  0.0000000E+00;  0.0000000E+00;  0.0000000E+00;0;  0.0000000E+00;  1.0000000E+04;  0.0000000E+00;  0.0000000E+00;  1.0000000E+04;  0.0000000E+00;  1.0000000E+04;  0.0000000E+00;  0.0000000E+00;  0.0000000E+00;  0.0000000E+00;
  1.9800000E+00;  9.9999998E-03; -3.1999999E-01;588;  0.0000000E+00;  0.0000000E+00;  0.0000000E+00;  1.0000000E+03;  4.0000001E-01;  0.0000000E+00;0;  0.0000000E+00;  0.0000000E+00;  0.0000000E+00;0;  0.0000000E+00;  1.0000000E+04;  0.0000000E+00;  0.0000000E+00;  1.0000000E+04;  0.0000000E+00;  1.0000000E+04;  0.0000000E+00;  0.0000000E+00;  0.0000000E+00;  0.0000000E+00;
  1.9800000E+00;  9.9999998E-03; -3.0000001E-01;589;  0.0000000E+00;  0.0000000E+00;  0.0000000E+00;  1.0000000E+03;  4.0000001E-01;  0.0000000E+00;0;  0.0000000E+00;  0.0000000E+00;  0.0000000E+00;0;  0.0000000E+00;  1.0000000E+04;  0.0000000E+00;  0.0000000E+00;  1.0000000E+04;  0.0000000E+00;  1.0000000E+04;  0.0000000E+00;  0.0000000E+00;  0.0000000E+00;  0.0000000E+00;
  1.9800000E+00;  9.9999998E-03; -2.8000000E-01;590;  0.0000000E+00;  0.0000000E+00;  0.0000000E+00;  1.0000000E+03;  4.0000001E-01;  0.0000000E+00;0;  0.0000000E+00;  0.0000000E+00;  0.0000000E+00;0;  0.0000000E+00;  1.0000000E+04;  0.0000000E+00;  0.0000000E+00;  1.0000000E+04;  0.0000000E+00;  1.0000000E+04;  0.0000000E+00;  0.0000000E+00;  0.0000000E+00;  0.0000000E+00;
  1.9800000E+00;  9.9999998E-03; -2.5999999E-01;591;  0.0000000E+00;  0.0000000E+00;  0.0000000E+00;  1.0000000E+03;  4.0000001E-01;  0.0000000E+00;0;  0.0000000E+00;  0.0000000E+00;  0.0000000E+00;0;  0.0000000E+00;  1.0000000E+04;  0.0000000E+00;  0.0000000E+00;  1.0000000E+04;  0.0000000E+00;  1.0000000E+04;  0.0000000E+00;  0.0000000E+00;  0.0000000E+00;  0.0000000E+00;
  1.9800000E+00;  9.9999998E-03; -2.3999999E-01;592;  0.0000000E+00;  0.0000000E+00;  0.0000000E+00;  1.0000000E+03;  4.0000001E-01;  0.0000000E+00;0;  0.0000000E+00;  0.0000000E+00;  0.0000000E+00;0;  0.0000000E+00;  1.0000000E+04;  0.0000000E+00;  0.0000000E+00;  1.0000000E+04;  0.0000000E+00;  1.0000000E+04;  0.0000000E+00;  0.0000000E+00;  0.0000000E+00;  0.0000000E+00;
  1.9800000E+00;  9.9999998E-03; -2.2000000E-01;593;  0.0000000E+00;  0.0000000E+00;  0.0000000E+00;  1.0000000E+03;  4.0000001E-01;  0.0000000E+00;0;  0.0000000E+00;  0.0000000E+00;  0.0000000E+00;0;  0.0000000E+00;  1.0000000E+04;  0.0000000E+00;  0.0000000E+00;  1.0000000E+04;  0.0000000E+00;  1.0000000E+04;  0.0000000E+00;  0.0000000E+00;  0.0000000E+00;  0.0000000E+00;
  1.9800000E+00;  9.9999998E-03; -2.0000000E-01;594;  0.0000000E+00;  0.0000000E+00;  0.0000000E+00;  1.0000000E+03;  4.0000001E-01;  0.0000000E+00;0;  0.0000000E+00;  0.0000000E+00;  0.0000000E+00;0;  0.0000000E+00;  1.0000000E+04;  0.0000000E+00;  0.0000000E+00;  1.0000000E+04;  0.0000000E+00;  1.0000000E+04;  0.0000000E+00;  0.0000000E+00;  0.0000000E+00;  0.0000000E+00;
  1.9800000E+00;  9.9999998E-03; -1.8000001E-01;595;  0.0000000E+00;  0.0000000E+00;  0.0000000E+00;  1.0000000E+03;  4.0000001E-01;  0.0000000E+00;0;  0.0000000E+00;  0.0000000E+00;  0.0000000E+00;0;  0.0000000E+00;  1.0000000E+04;  0.0000000E+00;  0.0000000E+00;  1.0000000E+04;  0.0000000E+00;  1.0000000E+04;  0.0000000E+00;  0.0000000E+00;  0.0000000E+00;  0.0000000E+00;
  1.9800000E+00;  9.9999998E-03; -1.6000000E-01;596;  0.0000000E+00;  0.0000000E+00;  0.0000000E+00;  1.0000000E+03;  4.0000001E-01;  0.0000000E+00;0;  0.0000000E+00;  0.0000000E+00;  0.0000000E+00;0;  0.0000000E+00;  1.0000000E+04;  0.0000000E+00;  0.0000000E+00;  1.0000000E+04;  0.0000000E+00;  1.0000000E+04;  0.0000000E+00;  0.0000000E+00;  0.0000000E+00;  0.0000000E+00;
  1.9800000E+00;  9.9999998E-03; -1.4000000E-01;597;  0.0000000E+00;  0.0000000E+00;  0.0000000E+00;  1.0000000E+03;  4.0000001E-01;  0.0000000E+00;0;  0.0000000E+00;  0.0000000E+00;  0.0000000E+00;0;  0.0000000E+00;  1.0000000E+04;  0.0000000E+00;  0.0000000E+00;  1.0000000E+04;  0.0000000E+00;  1.0000000E+04;  0.0000000E+00;  0.0000000E+00;  0.0000000E+00;  0.0000000E+00;
  1.9800000E+00;  9.9999998E-03; -1.2000000E-01;598;  0.0000000E+00;  0.0000000E+00;  0.0000000E+00;  1.0000000E+03;  4.0000001E-01;  0.0000000E+00;0;  0.0000000E+00;  0.0000000E+00;  0.0000000E+00;0;  0.0000000E+00;  1.0000000E+04;  0.0000000E+00;  0.0000000E+00;  1.0000000E+04;  0.0000000E+00;  1.0000000E+04;  0.0000000E+00;  0.0000000E+00;  0.0000000E+00;  0.0000000E+00;
  1.9800000E+00;  9.9999998E-03; -1.0000000E-01;599;  0.0000000E+00;  0.0000000E+00;  0.0000000E+00;  1.0000000E+03;  4.0000001E-01;  0.0000000E+00;0;  0.0000000E+00;  0.0000000E+00;  0.0000000E+00;0;  0.0000000E+00;  1.0000000E+04;  0.0000000E+00;  0.0000000E+00;  1.0000000E+04;  0.0000000E+00;  1.0000000E+04;  0.0000000E+00;  0.0000000E+00;  0.0000000E+00;  0.0000000E+00;
  1.9800000E+00;  9.9999998E-03; -7.9999998E-02;600;  0.0000000E+00;  0.0000000E+00;  0.0000000E+00;  1.0000000E+03;  4.0000001E-01;  0.0000000E+00;0;  0.0000000E+00;  0.0000000E+00;  0.0000000E+00;0;  0.0000000E+00;  1.0000000E+04;  0.0000000E+00;  0.0000000E+00;  1.0000000E+04;  0.0000000E+00;  1.0000000E+04;  0.0000000E+00;  0.0000000E+00;  0.0000000E+00;  0.0000000E+00;
  1.9800000E+00;  9.9999998E-03; -5.9999999E-02;601;  0.0000000E+00;  0.0000000E+00;  0.0000000E+00;  1.0000000E+03;  4.0000001E-01;  0.0000000E+00;0;  0.0000000E+00;  0.0000000E+00;  0.0000000E+00;0;  0.0000000E+00;  1.0000000E+04;  0.0000000E+00;  0.0000000E+00;  1.0000000E+04;  0.0000000E+00;  1.0000000E+04;  0.0000000E+00;  0.0000000E+00;  0.0000000E+00;  0.0000000E+00;
  1.9800000E+00;  9.9999998E-03; -3.9999999E-02;602;  0.0000000E+00;  0.0000000E+00;  0.0000000E+00;  1.0000000E+03;  4.0000001E-01;  0.0000000E+00;0;  0.0000000E+00;  0.0000000E+00;  0.0000000E+00;0;  0.0000000E+00;  1.0000000E+04;  0.0000000E+00;  0.0000000E+00;  1.0000000E+04;  0.0000000E+00;  1.0000000E+04;  0.0000000E+00;  0.0000000E+00;  0.0000000E+00;  0.0000000E+00;
  1.9800000E+00;  9.9999998E-03; -2.0000000E-02;603;  0.0000000E+00;  0.0000000E+00;  0.0000000E+00;  1.0000000E+03;  4.0000001E-01;  0.0000000E+00;0;  0.0000000E+00;  0.0000000E+00;  0.0000000E+00;0;  0.0000000E+00;  1.0000000E+04;  0.0000000E+00;  0.0000000E+00;  1.0000000E+04;  0.0000000E+00;  1.0000000E+04;  0.0000000E+00;  0.0000000E+00;  0.0000000E+00;  0.0000000E+00;
  2.0000000E+00;  9.9999998E-03; -3.8000000E-01;604;  0.0000000E+00;  0.0000000E+00;  0.0000000E+00;  1.0000000E+03;  4.0000001E-01;  0.0000000E+00;0;  0.0000000E+00;  0.0000000E+00;  0.0000000E+00;0;  0.0000000E+00;  1.0000000E+04;  0.0000000E+00;  0.0000000E+00;  1.0000000E+04;  0.0000000E+00;  1.0000000E+04;  0.0000000E+00;  0.0000000E+00;  0.0000000E+00;  0.0000000E+00;
  2.0000000E+00;  9.9999998E-03; -3.6000001E-01;605;  0.0000000E+00;  0.0000000E+00;  0.0000000E+00;  1.0000000E+03;  4.0000001E-01;  0.0000000E+00;0;  0.0000000E+00;  0.0000000E+00;  0.0000000E+00;0;  0.0000000E+00;  1.0000000E+04;  0.0000000E+00;  0.0000000E+00;  1.0000000E+04;  0.0000000E+00;  1.0000000E+04;  0.0000000E+00;  0.0000000E+00;  0.0000000E+00;  0.0000000E+00;
  2.0000000E+00;  9.9999998E-03; -3.4000000E-01;606;  0.0000000E+00;  0.0000000E+00;  0.0000000E+00;  1.0000000E+03;  4.0000001E-01;  0.0000000E+00;0;  0.0000000E+00;  0.0000000E+00;  0.0000000E+00;0;  0.0000000E+00;  1.0000000E+04;  0.0000000E+00;  0.0000000E+00;  1.0000000E+04;  0.0000000E+00;  1.0000000E+04;  0.0000000E+00;  0.0000000E+00;  0.0000000E+00;  0.0000000E+00;
  2.0000000E+00;  9.9999998E-03; -3.1999999E-01;607;  0.0000000E+00;  0.0000000E+00;  0.0000000E+00;  1.0000000E+03;  4.0000001E-01;  0.0000000E+00;0;  0.0000000E+00;  0.0000000E+00;  0.0000000E+00;0;  0.0000000E+00;  1.0000000E+04;  0.0000000E+00;  0.0000000E+00;  1.0000000E+04;  0.0000000E+00;  1.0000000E+04;  0.0000000E+00;  0.0000000E+00;  0.0000000E+00;  0.0000000E+00;
  2.0000000E+00;  9.9999998E-03; -3.0000001E-01;608;  0.0000000E+00;  0.0000000E+00;  0.0000000E+00;  1.0000000E+03;  4.0000001E-01;  0.0000000E+00;0;  0.0000000E+00;  0.0000000E+00;  0.0000000E+00;0;  0.0000000E+00;  1.0000000E+04;  0.0000000E+00;  0.0000000E+00;  1.0000000E+04;  0.0000000E+00;  1.0000000E+04;  0.0000000E+00;  0.0000000E+00;  0.0000000E+00;  0.0000000E+00;
  2.0000000E+00;  9.9999998E-03; -2.8000000E-01;609;  0.0000000E+00;  0.0000000E+00;  0.0000000E+00;  1.0000000E+03;  4.0000001E-01;  0.0000000E+00;0;  0.0000000E+00;  0.0000000E+00;  0.0000000E+00;0;  0.0000000E+00;  1.0000000E+04;  0.0000000E+00;  0.0000000E+00;  1.0000000E+04;  0.0000000E+00;  1.0000000E+04;  0.0000000E+00;  0.0000000E+00;  0.0000000E+00;  0.0000000E+00;
  2.0000000E+00;  9.9999998E-03; -2.5999999E-01;610;  0.0000000E+00;  0.0000000E+00;  0.0000000E+00;  1.0000000E+03;  4.0000001E-01;  0.0000000E+00;0;  0.0000000E+00;  0.0000000E+00;  0.0000000E+00;0;  0.0000000E+00;  1.0000000E+04;  0.0000000E+00;  0.0000000E+00;  1.0000000E+04;  0.0000000E+00;  1.0000000E+04;  0.0000000E+00;  0.0000000E+00;  0.0000000E+00;  0.0000000E+00;
  2.0000000E+00;  9.9999998E-03; -2.3999999E-01;611;  0.0000000E+00;  0.0000000E+00;  0.0000000E+00;  1.0000000E+03;  4.0000001E-01;  0.0000000E+00;0;  0.0000000E+00;  0.0000000E+00;  0.0000000E+00;0;  0.0000000E+00;  1.0000000E+04;  0.0000000E+00;  0.0000000E+00;  1.0000000E+04;  0.0000000E+00;  1.0000000E+04;  0.0000000E+00;  0.0000000E+00;  0.0000000E+00;  0.0000000E+00;
  2.0000000E+00;  9.9999998E-03; -2.2000000E-01;612;  0.0000000E+00;  0.0000000E+00;  0.0000000E+00;  1.0000000E+03;  4.0000001E-01;  0.0000000E+00;0;  0.0000000E+00;  0.0000000E+00;  0.0000000E+00;0;  0.0000000E+00;  1.0000000E+04;  0.0000000E+00;  0.0000000E+00;  1.0000000E+04;  0.0000000E+00;  1.0000000E+04;  0.0000000E+00;  0.0000000E+00;  0.0000000E+00;  0.0000000E+00;
  2.0000000E+00;  9.9999998E-03; -2.0000000E-01;613;  0.0000000E+00;  0.0000000E+00;  0.0000000E+00;  1.0000000E+03;  4.0000001E-01;  0.0000000E+00;0;  0.0000000E+00;  0.0000000E+00;  0.0000000E+00;0;  0.0000000E+00;  1.0000000E+04;  0.0000000E+00;  0.0000000E+00;  1.0000000E+04;  0.0000000E+00;  1.0000000E+04;  0.0000000E+00;  0.0000000E+00;  0.0000000E+00;  0.0000000E+00;
  2.0000000E+00;  9.9999998E-03; -1.8000001E-01;614;  0.0000000E+00;  0.0000000E+00;  0.0000000E+00;  1.0000000E+03;  4.0000001E-01;  0.0000000E+00;0;  0.0000000E+00;  0.0000000E+00;  0.0000000E+00;0;  0.0000000E+00;  1.0000000E+04;  0.0000000E+00;  0.0000000E+00;  1.0000000E+04;  0.0000000E+00;  1.0000000E+04;  0.0000000E+00;  0.0000000E+00;  0.0000000E+00;  0.0000000E+00;
  2.0000000E+00;  9.9999998E-03; -1.6000000E-01;615;  0.0000000E+00;  0.0000000E+00;  0.0000000E+00;  1.0000000E+03;  4.0000001E-01;  0.0000000E+00;0;  0.0000000E+00;  0.0000000E+00;  0.0000000E+00;0;  0.0000000E+00;  1.0000000E+04;  0.0000000E+00;  0.0000000E+00;  1.0000000E+04;  0.0000000E+00;  1.0000000E+04;  0.0000000E+00;  0.0000000E+00;  0.0000000E+00;  0.0000000E+00;
  2.0000000E+00;  9.9999998E-03; -1.4000000E-01;616;  0.0000000E+00;  0.0000000E+00;  0.0000000E+00;  1.0000000E+03;  4.0000001E-01;  0.0000000E+00;0;  0.0000000E+00;  0.0000000E+00;  0.0000000E+00;0;  0.0000000E+00;  1.0000000E+04;  0.0000000E+00;  0.0000000E+00;  1.0000000E+04;  0.0000000E+00;  1.0000000E+04;  0.0000000E+00;  0.0000000E+00;  0.0000000E+00;  0.0000000E+00;
  2.0000000E+00;  9.9999998E-03; -1.2000000E-01;617;  0.0000000E+00;  0.0000000E+00;  0.0000000E+00;  1.0000000E+03;  4.0000001E-01;  0.0000000E+00;0;  0.0000000E+00;  0.0000000E+00;  0.0000000E+00;0;  0.0000000E+00;  1.0000000E+04;  0.0000000E+00;  0.0000000E+00;  1.0000000E+04;  0.0000000E+00;  1.0000000E+04;  0.0000000E+00;  0.0000000E+00;  0.0000000E+00;  0.0000000E+00;
  2.0000000E+00;  9.9999998E-03; -1.0000000E-01;618;  0.0000000E+00;  0.0000000E+00;  0.0000000E+00;  1.0000000E+03;  4.0000001E-01;  0.0000000E+00;0;  0.0000000E+00;  0.0000000E+00;  0.0000000E+00;0;  0.0000000E+00;  1.0000000E+04;  0.0000000E+00;  0.0000000E+00;  1.0000000E+04;  0.0000000E+00;  1.0000000E+04;  0.0000000E+00;  0.0000000E+00;  0.0000000E+00;  0.0000000E+00;
  2.0000000E+00;  9.9999998E-03; -7.9999998E-02;619;  0.0000000E+00;  0.0000000E+00;  0.0000000E+00;  1.0000000E+03;  4.0000001E-01;  0.0000000E+00;0;  0.0000000E+00;  0.0000000E+00;  0.0000000E+00;0;  0.0000000E+00;  1.0000000E+04;  0.0000000E+00;  0.0000000E+00;  1.0000000E+04;  0.0000000E+00;  1.0000000E+04;  0.0000000E+00;  0.0000000E+00;  0.0000000E+00;  0.0000000E+00;
  2.0000000E+00;  9.9999998E-03; -5.9999999E-02;620;  0.0000000E+00;  0.0000000E+00;  0.0000000E+00;  1.0000000E+03;  4.0000001E-01;  0.0000000E+00;0;  0.0000000E+00;  0.0000000E+00;  0.0000000E+00;0;  0.0000000E+00;  1.0000000E+04;  0.0000000E+00;  0.0000000E+00;  1.0000000E+04;  0.0000000E+00;  1.0000000E+04;  0.0000000E+00;  0.0000000E+00;  0.0000000E+00;  0.0000000E+00;
  2.0000000E+00;  9.9999998E-03; -3.9999999E-02;621;  0.0000000E+00;  0.0000000E+00;  0.0000000E+00;  1.0000000E+03;  4.0000001E-01;  0.0000000E+00;0;  0.0000000E+00;  0.0000000E+00;  0.0000000E+00;0;  0.0000000E+00;  1.0000000E+04;  0.0000000E+00;  0.0000000E+00;  1.0000000E+04;  0.0000000E+00;  1.0000000E+04;  0.0000000E+00;  0.0000000E+00;  0.0000000E+00;  0.0000000E+00;
  2.0000000E+00;  9.9999998E-03; -2.0000000E-02;622;  0.0000000E+00;  0.0000000E+00;  0.0000000E+00;  1.0000000E+03;  4.0000001E-01;  0.0000000E+00;0;  0.0000000E+00;  0.0000000E+00;  0.0000000E+00;0;  0.0000000E+00;  1.0000000E+04;  0.0000000E+00;  0.0000000E+00;  1.0000000E+04;  0.0000000E+00;  1.0000000E+04;  0.0000000E+00;  0.0000000E+00;  0.0000000E+00;  0.0000000E+00;
  2.0000000E+00;  9.9999998E-03;  0.0000000E+00;623;  0.0000000E+00;  0.0000000E+00;  0.0000000E+00;  1.0000000E+03;  4.0000001E-01;  0.0000000E+00;0;  0.0000000E+00;  0.0000000E+00;  0.0000000E+00;0;  0.0000000E+00;  1.0000000E+04;  0.0000000E+00;  0.0000000E+00;  1.0000000E+04;  0.0000000E+00;  1.0000000E+04;  0.0000000E+00;  0.0000000E+00;  0.0000000E+00;  0.0000000E+00;
  2.0000000E+00;  9.9999998E-03;  2.0000000E-02;624;  0.0000000E+00;  0.0000000E+00;  0.0000000E+00;  1.0000000E+03;  4.0000001E-01;  0.0000000E+00;0;  0.0000000E+00;  0.0000000E+00;  0.0000000E+00;0;  0.0000000E+00;  1.0000000E+04;  0.0000000E+00;  0.0000000E+00;  1.0000000E+04;  0.0000000E+00;  1.0000000E+04;  0.0000000E+00;  0.0000000E+00;  0.0000000E+00;  0.0000000E+00;
  2.0000000E+00;  9.9999998E-03;  3.9999999E-02;625;  0.0000000E+00;  0.0000000E+00;  0.0000000E+00;  1.0000000E+03;  4.0000001E-01;  0.0000000E+00;0;  0.0000000E+00;  0.0000000E+00;  0.0000000E+00;0;  0.0000000E+00;  1.0000000E+04;  0.0000000E+00;  0.0000000E+00;  1.0000000E+04;  0.0000000E+00;  1.0000000E+04;  0.0000000E+00;  0.0000000E+00;  0.0000000E+00;  0.0000000E+00;
  2.0000000E+00;  9.9999998E-03;  5.9999999E-02;626;  0.0000000E+00;  0.0000000E+00;  0.0000000E+00;  1.0000000E+03;  4.0000001E-01;  0.0000000E+00;0;  0.0000000E+00;  0.0000000E+00;  0.0000000E+00;0;  0.0000000E+00;  1.0000000E+04;  0.0000000E+00;  0.0000000E+00;  1.0000000E+04;  0.0000000E+00;  1.0000000E+04;  0.0000000E+00;  0.0000000E+00;  0.0000000E+00;  0.0000000E+00;
  2.0000000E+00;  9.9999998E-03;  7.9999998E-02;627;  0.0000000E+00;  0.0000000E+00;  0.0000000E+00;  1.0000000E+03;  4.0000001E-01;  0.0000000E+00;0;  0.0000000E+00;  0.0000000E+00;  0.0000000E+00;0;  0.0000000E+00;  1.0000000E+04;  0.0000000E+00;  0.0000000E+00;  1.0000000E+04;  0.0000000E+00;  1.0000000E+04;  0.0000000E+00;  0.0000000E+00;  0.0000000E+00;  0.0000000E+00;
  2.0200000E+00;  9.9999998E-03; -4.0000001E-01;628;  0.0000000E+00;  0.0000000E+00;  0.0000000E+00;  1.0000000E+03;  4.0000001E-01;  0.0000000E+00;0;  0.0000000E+00;  0.0000000E+00;  0.0000000E+00;0;  0.0000000E+00;  1.0000000E+04;  0.0000000E+00;  0.0000000E+00;  1.0000000E+04;  0.0000000E+00;  1.0000000E+04;  0.0000000E+00;  0.0000000E+00;  0.0000000E+00;  0.0000000E+00;
  2.0200000E+00;  9.9999998E-03; -3.8000000E-01;629;  0.0000000E+00;  0.0000000E+00;  0.0000000E+00;  1.0000000E+03;  4.0000001E-01;  0.0000000E+00;0;  0.0000000E+00;  0.0000000E+00;  0.0000000E+00;0;  0.0000000E+00;  1.0000000E+04;  0.0000000E+00;  0.0000000E+00;  1.0000000E+04;  0.0000000E+00;  1.0000000E+04;  0.0000000E+00;  0.0000000E+00;  0.0000000E+00;  0.0000000E+00;
  2.0200000E+00;  9.9999998E-03; -3.6000001E-01;630;  0.0000000E+00;  0.0000000E+00;  0.0000000E+00;  1.0000000E+03;  4.0000001E-01;  0.0000000E+00;0;  0.0000000E+00;  0.0000000E+00;  0.0000000E+00;0;  0.0000000E+00;  1.0000000E+04;  0.0000000E+00;  0.0000000E+00;  1.0000000E+04;  0.0000000E+00;  1.0000000E+04;  0.0000000E+00;  0.0000000E+00;  0.0000000E+00;  0.0000000E+00;
  2.0200000E+00;  9.9999998E-03; -3.4000000E-01;631;  0.0000000E+00;  0.0000000E+00;  0.0000000E+00;  1.0000000E+03;  4.0000001E-01;  0.0000000E+00;0;  0.0000000E+00;  0.0000000E+00;  0.0000000E+00;0;  0.0000000E+00;  1.0000000E+04;  0.0000000E+00;  0.0000000E+00;  1.0000000E+04;  0.0000000E+00;  1.0000000E+04;  0.0000000E+00;  0.0000000E+00;  0.0000000E+00;  0.0000000E+00;
  2.0200000E+00;  9.9999998E-03; -3.1999999E-01;632;  0.0000000E+00;  0.0000000E+00;  0.0000000E+00;  1.0000000E+03;  4.0000001E-01;  0.0000000E+00;0;  0.0000000E+00;  0.0000000E+00;  0.0000000E+00;0;  0.0000000E+00;  1.0000000E+04;  0.0000000E+00;  0.0000000E+00;  1.0000000E+04;  0.0000000E+00;  1.0000000E+04;  0.0000000E+00;  0.0000000E+00;  0.0000000E+00;  0.0000000E+00;
  2.0200000E+00;  9.9999998E-03; -3.0000001E-01;633;  0.0000000E+00;  0.0000000E+00;  0.0000000E+00;  1.0000000E+03;  4.0000001E-01;  0.0000000E+00;0;  0.0000000E+00;  0.0000000E+00;  0.0000000E+00;0;  0.0000000E+00;  1.0000000E+04;  0.0000000E+00;  0.0000000E+00;  1.0000000E+04;  0.0000000E+00;  1.0000000E+04;  0.0000000E+00;  0.0000000E+00;  0.0000000E+00;  0.0000000E+00;
  2.0200000E+00;  9.9999998E-03; -2.8000000E-01;634;  0.0000000E+00;  0.0000000E+00;  0.0000000E+00;  1.0000000E+03;  4.0000001E-01;  0.0000000E+00;0;  0.0000000E+00;  0.0000000E+00;  0.0000000E+00;0;  0.0000000E+00;  1.0000000E+04;  0.0000000E+00;  0.0000000E+00;  1.0000000E+04;  0.0000000E+00;  1.0000000E+04;  0.0000000E+00;  0.0000000E+00;  0.0000000E+00;  0.0000000E+00;
  2.0200000E+00;  9.9999998E-03; -2.5999999E-01;635;  0.0000000E+00;  0.0000000E+00;  0.0000000E+00;  1.0000000E+03;  4.0000001E-01;  0.0000000E+00;0;  0.0000000E+00;  0.0000000E+00;  0.0000000E+00;0;  0.0000000E+00;  1.0000000E+04;  0.0000000E+00;  0.0000000E+00;  1.0000000E+04;  0.0000000E+00;  1.0000000E+04;  0.0000000E+00;  0.0000000E+00;  0.0000000E+00;  0.0000000E+00;
  2.0200000E+00;  9.9999998E-03; -2.3999999E-01;636;  0.0000000E+00;  0.0000000E+00;  0.0000000E+00;  1.0000000E+03;  4.0000001E-01;  0.0000000E+00;0;  0.0000000E+00;  0.0000000E+00;  0.0000000E+00;0;  0.0000000E+00;  1.0000000E+04;  0.0000000E+00;  0.0000000E+00;  1.0000000E+04;  0.0000000E+00;  1.0000000E+04;  0.0000000E+00;  0.0000000E+00;  0.0000000E+00;  0.0000000E+00;
  2.0200000E+00;  9.9999998E-03; -2.2000000E-01;637;  0.0000000E+00;  0.0000000E+00;  0.0000000E+00;  1.0000000E+03;  4.0000001E-01;  0.0000000E+00;0;  0.0000000E+00;  0.0000000E+00;  0.0000000E+00;0;  0.0000000E+00;  1.0000000E+04;  0.0000000E+00;  0.0000000E+00;  1.0000000E+04;  0.0000000E+00;  1.0000000E+04;  0.0000000E+00;  0.0000000E+00;  0.0000000E+00;  0.0000000E+00;
  2.0200000E+00;  9.9999998E-03; -2.0000000E-01;638;  0.0000000E+00;  0.0000000E+00;  0.0000000E+00;  1.0000000E+03;  4.0000001E-01;  0.0000000E+00;0;  0.0000000E+00;  0.0000000E+00;  0.0000000E+00;0;  0.0000000E+00;  1.0000000E+04;  0.0000000E+00;  0.0000000E+00;  1.0000000E+04;  0.0000000E+00;  1.0000000E+04;  0.0000000E+00;  0.0000000E+00;  0.0000000E+00;  0.0000000E+00;
  2.0200000E+00;  9.9999998E-03; -1.8000001E-01;639;  0.0000000E+00;  0.0000000E+00;  0.0000000E+00;  1.0000000E+03;  4.0000001E-01;  0.0000000E+00;0;  0.0000000E+00;  0.0000000E+00;  0.0000000E+00;0;  0.0000000E+00;  1.0000000E+04;  0.0000000E+00;  0.0000000E+00;  1.0000000E+04;  0.0000000E+00;  1.0000000E+04;  0.0000000E+00;  0.0000000E+00;  0.0000000E+00;  0.0000000E+00;
  2.0200000E+00;  9.9999998E-03; -1.6000000E-01;640;  0.0000000E+00;  0.0000000E+00;  0.0000000E+00;  1.0000000E+03;  4.0000001E-01;  0.0000000E+00;0;  0.0000000E+00;  0.0000000E+00;  0.0000000E+00;0;  0.0000000E+00;  1.0000000E+04;  0.0000000E+00;  0.0000000E+00;  1.0000000E+04;  0.0000000E+00;  1.0000000E+04;  0.0000000E+00;  0.0000000E+00;  0.0000000E+00;  0.0000000E+00;
  2.0200000E+00;  9.9999998E-03; -1.4000000E-01;641;  0.0000000E+00;  0.0000000E+00;  0.0000000E+00;  1.0000000E+03;  4.0000001E-01;  0.0000000E+00;0;  0.0000000E+00;  0.0000000E+00;  0.0000000E+00;0;  0.0000000E+00;  1.0000000E+04;  0.0000000E+00;  0.0000000E+00;  1.0000000E+04;  0.0000000E+00;  1.0000000E+04;  0.0000000E+00;  0.0000000E+00;  0.0000000E+00;  0.0000000E+00;
  2.0200000E+00;  9.9999998E-03; -1.2000000E-01;642;  0.0000000E+00;  0.0000000E+00;  0.0000000E+00;  1.0000000E+03;  4.0000001E-01;  0.0000000E+00;0;  0.0000000E+00;  0.0000000E+00;  0.0000000E+00;0;  0.0000000E+00;  1.0000000E+04;  0.0000000E+00;  0.0000000E+00;  1.0000000E+04;  0.0000000E+00;  1.0000000E+04;  0.0000000E+00;  0.0000000E+00;  0.0000000E+00;  0.0000000E+00;
  2.0200000E+00;  9.9999998E-03; -1.0000000E-01;643;  0.0000000E+00;  0.0000000E+00;  0.0000000E+00;  1.0000000E+03;  4.0000001E-01;  0.0000000E+00;0;  0.0000000E+00;  0.0000000E+00;  0.0000000E+00;0;  0.0000000E+00;  1.0000000E+04;  0.0000000E+00;  0.0000000E+00;  1.0000000E+04;  0.0000000E+00;  1.0000000E+04;  0.0000000E+00;  0.0000000E+00;  0.0000000E+00;  0.0000000E+00;
  2.0200000E+00;  9.9999998E-03; -7.9999998E-02;644;  0.0000000E+00;  0.0000000E+00;  0.0000000E+00;  1.0000000E+03;  4.0000001E-01;  0.0000000E+00;0;  0.0000000E+00;  0.0000000E+00;  0.0000000E+00;0;  0.0000000E+00;  1.0000000E+04;  0.0000000E+00;  0.0000000E+00;  1.0000000E+04;  0.0000000E+00;  1.0000000E+04;  0.0000000E+00;  0.0000000E+00;  0.0000000E+00;  0.0000000E+00;
  2.0200000E+00;  9.9999998E-03; -5.9999999E-02;645;  0.0000000E+00;  0.0000000E+00;  0.0000000E+00;  1.0000000E+03;  4.0000001E-01;  0.0000000E+00;0;  0.0000000E+00;  0.0000000E+00;  0.0000000E+00;0;  0.0000000E+00;  1.0000000E+04;  0.0000000E+00;  0.0000000E+00;  1.0000000E+04;  0.0000000E+00;  1.0000000E+04;  0.0000000E+00;  0.0000000E+00;  0.0000000E+00;  0.0000000E+00;
  2.0200000E+00;  9.9999998E-03; -3.9999999E-02;646;  0.0000000E+00;  0.0000000E+00;  0.0000000E+00;  1.0000000E+03;  4.0000001E-01;  0.0000000E+00;0;  0.0000000E+00;  0.0000000E+00;  0.0000000E+00;0;  0.0000000E+00;  1.0000000E+04;  0.0000000E+00;  0.0000000E+00;  1.0000000E+04;  0.0000000E+00;  1.0000000E+04;  0.0000000E+00;  0.0000000E+00;  0.0000000E+00;  0.0000000E+00;
  2.0200000E+00;  9.9999998E-03; -2.0000000E-02;647;  0.0000000E+00;  0.0000000E+00;  0.0000000E+00;  1.0000000E+03;  4.0000001E-01;  0.0000000E+00;0;  0.0000000E+00;  0.0000000E+00;  0.0000000E+00;0;  0.0000000E+00;  1.0000000E+04;  0.0000000E+00;  0.0000000E+00;  1.0000000E+04;  0.0000000E+00;  1.0000000E+04;  0.0000000E+00;  0.0000000E+00;  0.0000000E+00;  0.0000000E+00;
  2.0200000E+00;  9.9999998E-03;  0.0000000E+00;648;  0.0000000E+00;  0.0000000E+00;  0.0000000E+00;  1.0000000E+03;  4.0000001E-01;  0.0000000E+00;0;  0.0000000E+00;  0.0000000E+00;  0.0000000E+00;0;  0.0000000E+00;  1.0000000E+04;  0.0000000E+00;  0.0000000E+00;  1.0000000E+04;  0.0000000E+00;  1.0000000E+04;  0.0000000E+00;  0.0000000E+00;  0.0000000E+00;  0.0000000E+00;
  2.0200000E+00;  9.9999998E-03;  2.0000000E-02;649;  0.0000000E+00;  0.0000000E+00;  0.0000000E+00;  1.0000000E+03;  4.0000001E-01;  0.0000000E+00;0;  0.0000000E+00;  0.0000000E+00;  0.0000000E+00;0;  0.0000000E+00;  1.0000000E+04;  0.0000000E+00;  0.0000000E+00;  1.0000000E+04;  0.0000000E+00;  1.0000000E+04;  0.0000000E+00;  0.0000000E+00;  0.0000000E+00;  0.0000000E+00;
  2.0200000E+00;  9.9999998E-03;  3.9999999E-02;650;  0.0000000E+00;  0.0000000E+00;  0.0000000E+00;  1.0000000E+03;  4.0000001E-01;  0.0000000E+00;0;  0.0000000E+00;  0.0000000E+00;  0.0000000E+00;0;  0.0000000E+00;  1.0000000E+04;  0.0000000E+00;  0.0000000E+00;  1.0000000E+04;  0.0000000E+00;  1.0000000E+04;  0.0000000E+00;  0.0000000E+00;  0.0000000E+00;  0.0000000E+00;
  2.0200000E+00;  9.9999998E-03;  5.9999999E-02;651;  0.0000000E+00;  0.0000000E+00;  0.0000000E+00;  1.0000000E+03;  4.0000001E-01;  0.0000000E+00;0;  0.0000000E+00;  0.0000000E+00;  0.0000000E+00;0;  0.0000000E+00;  1.0000000E+04;  0.0000000E+00;  0.0000000E+00;  1.0000000E+04;  0.0000000E+00;  1.0000000E+04;  0.0000000E+00;  0.0000000E+00;  0.0000000E+00;  0.0000000E+00;
  2.0200000E+00;  9.9999998E-03;  7.9999998E-02;652;  0.0000000E+00;  0.0000000E+00;  0.0000000E+00;  1.0000000E+03;  4.0000001E-01;  0.0000000E+00;0;  0.0000000E+00;  0.0000000E+00;  0.0000000E+00;0;  0.0000000E+00;  1.0000000E+04;  0.0000000E+00;  0.0000000E+00;  1.0000000E+04;  0.0000000E+00;  1.0000000E+04;  0.0000000E+00;  0.0000000E+00;  0.0000000E+00;  0.0000000E+00;
  2.0200000E+00;  9.9999998E-03;  1.0000000E-01;653;  0.0000000E+00;  0.0000000E+00;  0.0000000E+00;  1.0000000E+03;  4.0000001E-01;  0.0000000E+00;0;  0.0000000E+00;  0.0000000E+00;  0.0000000E+00;0;  0.0000000E+00;  1.0000000E+04;  0.0000000E+00;  0.0000000E+00;  1.0000000E+04;  0.0000000E+00;  1.0000000E+04;  0.0000000E+00;  0.0000000E+00;  0.0000000E+00;  0.0000000E+00;
  2.0200000E+00;  9.9999998E-03;  1.2000000E-01;654;  0.0000000E+00;  0.0000000E+00;  0.0000000E+00;  1.0000000E+03;  4.0000001E-01;  0.0000000E+00;0;  0.0000000E+00;  0.0000000E+00;  0.0000000E+00;0;  0.0000000E+00;  1.0000000E+04;  0.0000000E+00;  0.0000000E+00;  1.0000000E+04;  0.0000000E+00;  1.0000000E+04;  0.0000000E+00;  0.0000000E+00;  0.0000000E+00;  0.0000000E+00;
  2.0200000E+00;  9.9999998E-03;  1.4000000E-01;655;  0.0000000E+00;  0.0000000E+00;  0.0000000E+00;  1.0000000E+03;  4.0000001E-01;  0.0000000E+00;0;  0.0000000E+00;  0.0000000E+00;  0.0000000E+00;0;  0.0000000E+00;  1.0000000E+04;  0.0000000E+00;  0.0000000E+00;  1.0000000E+04;  0.0000000E+00;  1.0000000E+04;  0.0000000E+00;  0.0000000E+00;  0.0000000E+00;  0.0000000E+00;
  2.0200000E+00;  9.9999998E-03;  1.6000000E-01;656;  0.0000000E+00;  0.0000000E+00;  0.0000000E+00;  1.0000000E+03;  4.0000001E-01;  0.0000000E+00;0;  0.0000000E+00;  0.0000000E+00;  0.0000000E+00;0;  0.0000000E+00;  1.0000000E+04;  0.0000000E+00;  0.0000000E+00;  1.0000000E+04;  0.0000000E+00;  1.0000000E+04;  0.0000000E+00;  0.0000000E+00;  0.0000000E+00;  0.0000000E+00;
  2.0200000E+00;  9.9999998E-03;  1.8000001E-01;657;  0.0000000E+00;  0.0000000E+00;  0.0000000E+00;  1.0000000E+03;  4.0000001E-01;  0.0000000E+00;0;  0.0000000E+00;  0.0000000E+00;  0.0000000E+00;0;  0.0000000E+00;  1.0000000E+04;  0.0000000E+00;  0.0000000E+00;  1.0000000E+04;  0.0000000E+00;  1.0000000E+04;  0.0000000E+00;  0.0000000E+00;  0.0000000E+00;  0.0000000E+00;
  2.0400000E+00;  9.9999998E-03; -4.0000001E-01;658;  0.0000000E+00;  0.0000000E+00;  0.0000000E+00;  1.0000000E+03;  4.0000001E-01;  0.0000000E+00;0;  0.0000000E+00;  0.0000000E+00;  0.0000000E+00;0;  0.0000000E+00;  1.0000000E+04;  0.0000000E+00;  0.0000000E+00;  1.0000000E+04;  0.0000000E+00;  1.0000000E+04;  0.0000000E+00;  0.0000000E+00;  0.0000000E+00;  0.0000000E+00;
  2.0400000E+00;  9.9999998E-03; -3.8000000E-01;659;  0.0000000E+00;  0.0000000E+00;  0.0000000E+00;  1.0000000E+03;  4.0000001E-01;  0.0000000E+00;0;  0.0000000E+00;  0.0000000E+00;  0.0000000E+00;0;  0.0000000E+00;  1.0000000E+04;  0.0000000E+00;  0.0000000E+00;  1.0000000E+04;  0.0000000E+00;  1.0000000E+04;  0.0000000E+00;  0.0000000E+00;  0.0000000E+00;  0.0000000E+00;
  2.0400000E+00;  9.9999998E-03; -3.6000001E-01;660;  0.0000000E+00;  0.0000000E+00;  0.0000000E+00;  1.0000000E+03;  4.0000001E-01;  0.0000000E+00;0;  0.0000000E+00;  0.0000000E+00;  0.0000000E+00;0;  0.0000000E+00;  1.0000000E+04;  0.0000000E+00;  0.0000000E+00;  1.0000000E+04;  0.0000000E+00;  1.0000000E+04;  0.0000000E+00;  0.0000000E+00;  0.0000000E+00;  0.0000000E+00;
  2.0400000E+00;  9.9999998E-03; -3.4000000E-01;661;  0.0000000E+00;  0.0000000E+00;  0.0000000E+00;  1.0000000E+03;  4.0000001E-01;  0.0000000E+00;0;  0.0000000E+00;  0.0000000E+00;  0.0000000E+00;0;  0.0000000E+00;  1.0000000E+04;  0.0000000E+00;  0.0000000E+00;  1.0000000E+04;  0.0000000E+00;  1.0000000E+04;  0.0000000E+00;  0.0000000E+00;  0.0000000E+00;  0.0000000E+00;
  2.0400000E+00;  9.9999998E-03; -3.1999999E-01;662;  0.0000000E+00;  0.0000000E+00;  0.0000000E+00;  1.0000000E+03;  4.0000001E-01;  0.0000000E+00;0;  0.0000000E+00;  0.0000000E+00;  0.0000000E+00;0;  0.0000000E+00;  1.0000000E+04;  0.0000000E+00;  0.0000000E+00;  1.0000000E+04;  0.0000000E+00;  1.0000000E+04;  0.0000000E+00;  0.0000000E+00;  0.0000000E+00;  0.0000000E+00;
  2.0400000E+00;  9.9999998E-03; -3.0000001E-01;663;  0.0000000E+00;  0.0000000E+00;  0.0000000E+00;  1.0000000E+03;  4.0000001E-01;  0.0000000E+00;0;  0.0000000E+00;  0.0000000E+00;  0.0000000E+00;0;  0.0000000E+00;  1.0000000E+04;  0.0000000E+00;  0.0000000E+00;  1.0000000E+04;  0.0000000E+00;  1.0000000E+04;  0.0000000E+00;  0.0000000E+00;  0.0000000E+00;  0.0000000E+00;
  2.0400000E+00;  9.9999998E-03; -2.8000000E-01;664;  0.0000000E+00;  0.0000000E+00;  0.0000000E+00;  1.0000000E+03;  4.0000001E-01;  0.0000000E+00;0;  0.0000000E+00;  0.0000000E+00;  0.0000000E+00;0;  0.0000000E+00;  1.0000000E+04;  0.0000000E+00;  0.0000000E+00;  1.0000000E+04;  0.0000000E+00;  1.0000000E+04;  0.0000000E+00;  0.0000000E+00;  0.0000000E+00;  0.0000000E+00;
  2.0400000E+00;  9.9999998E-03; -2.5999999E-01;665;  0.0000000E+00;  0.0000000E+00;  0.0000000E+00;  1.0000000E+03;  4.0000001E-01;  0.0000000E+00;0;  0.0000000E+00;  0.0000000E+00;  0.0000000E+00;0;  0.0000000E+00;  1.0000000E+04;  0.0000000E+00;  0.0000000E+00;  1.0000000E+04;  0.0000000E+00;  1.0000000E+04;  0.0000000E+00;  0.0000000E+00;  0.0000000E+00;  0.0000000E+00;
  2.0400000E+00;  9.9999998E-03; -2.3999999E-01;666;  0.0000000E+00;  0.0000000E+00;  0.0000000E+00;  1.0000000E+03;  4.0000001E-01;  0.0000000E+00;0;  0.0000000E+00;  0.0000000E+00;  0.0000000E+00;0;  0.0000000E+00;  1.0000000E+04;  0.0000000E+00;  0.0000000E+00;  1.0000000E+04;  0.0000000E+00;  1.0000000E+04;  0.0000000E+00;  0.0000000E+00;  0.0000000E+00;  0.0000000E+00;
  2.0400000E+00;  9.9999998E-03; -2.2000000E-01;667;  0.0000000E+00;  0.0000000E+00;  0.0000000E+00;  1.0000000E+03;  4.0000001E-01;  0.0000000E+00;0;  0.0000000E+00;  0.0000000E+00;  0.0000000E+00;0;  0.0000000E+00;  1.0000000E+04;  0.0000000E+00;  0.0000000E+00;  1.0000000E+04;  0.0000000E+00;  1.0000000E+04;  0.0000000E+00;  0.0000000E+00;  0.0000000E+00;  0.0000000E+00;
  2.0400000E+00;  9.9999998E-03; -2.0000000E-01;668;  0.0000000E+00;  0.0000000E+00;  0.0000000E+00;  1.0000000E+03;  4.0000001E-01;  0.0000000E+00;0;  0.0000000E+00;  0.0000000E+00;  0.0000000E+00;0;  0.0000000E+00;  1.0000000E+04;  0.0000000E+00;  0.0000000E+00;  1.0000000E+04;  0.0000000E+00;  1.0000000E+04;  0.0000000E+00;  0.0000000E+00;  0.0000000E+00;  0.0000000E+00;
  2.0400000E+00;  9.9999998E-03; -1.8000001E-01;669;  0.0000000E+00;  0.0000000E+00;  0.0000000E+00;  1.0000000E+03;  4.0000001E-01;  0.0000000E+00;0;  0.0000000E+00;  0.0000000E+00;  0.0000000E+00;0;  0.0000000E+00;  1.0000000E+04;  0.0000000E+00;  0.0000000E+00;  1.0000000E+04;  0.0000000E+00;  1.0000000E+04;  0.0000000E+00;  0.0000000E+00;  0.0000000E+00;  0.0000000E+00;
  2.0400000E+00;  9.9999998E-03; -1.6000000E-01;670;  0.0000000E+00;  0.0000000E+00;  0.0000000E+00;  1.0000000E+03;  4.0000001E-01;  0.0000000E+00;0;  0.0000000E+00;  0.0000000E+00;  0.0000000E+00;0;  0.0000000E+00;  1.0000000E+04;  0.0000000E+00;  0.0000000E+00;  1.0000000E+04;  0.0000000E+00;  1.0000000E+04;  0.0000000E+00;  0.0000000E+00;  0.0000000E+00;  0.0000000E+00;
  2.0400000E+00;  9.9999998E-03; -1.4000000E-01;671;  0.0000000E+00;  0.0000000E+00;  0.0000000E+00;  1.0000000E+03;  4.0000001E-01;  0.0000000E+00;0;  0.0000000E+00;  0.0000000E+00;  0.0000000E+00;0;  0.0000000E+00;  1.0000000E+04;  0.0000000E+00;  0.0000000E+00;  1.0000000E+04;  0.0000000E+00;  1.0000000E+04;  0.0000000E+00;  0.0000000E+00;  0.0000000E+00;  0.0000000E+00;
  2.0400000E+00;  9.9999998E-03; -1.2000000E-01;672;  0.0000000E+00;  0.0000000E+00;  0.0000000E+00;  1.0000000E+03;  4.0000001E-01;  0.0000000E+00;0;  0.0000000E+00;  0.0000000E+00;  0.0000000E+00;0;  0.0000000E+00;  1.0000000E+04;  0.0000000E+00;  0.0000000E+00;  1.0000000E+04;  0.0000000E+00;  1.0000000E+04;  0.0000000E+00;  0.0000000E+00;  0.0000000E+00;  0.0000000E+00;
  2.0400000E+00;  9.9999998E-03; -1.0000000E-01;673;  0.0000000E+00;  0.0000000E+00;  0.0000000E+00;  1.0000000E+03;  4.0000001E-01;  0.0000000E+00;0;  0.0000000E+00;  0.0000000E+00;  0.0000000E+00;0;  0.0000000E+00;  1.0000000E+04;  0.0000000E+00;  0.0000000E+00;  1.0000000E+04;  0.0000000E+00;  1.0000000E+04;  0.0000000E+00;  0.0000000E+00;  0.0000000E+00;  0.0000000E+00;
  2.0400000E+00;  9.9999998E-03; -7.9999998E-02;674;  0.0000000E+00;  0.0000000E+00;  0.0000000E+00;  1.0000000E+03;  4.0000001E-01;  0.0000000E+00;0;  0.0000000E+00;  0.0000000E+00;  0.0000000E+00;0;  0.0000000E+00;  1.0000000E+04;  0.0000000E+00;  0.0000000E+00;  1.0000000E+04;  0.0000000E+00;  1.0000000E+04;  0.0000000E+00;  0.0000000E+00;  0.0000000E+00;  0.0000000E+00;
  2.0400000E+00;  9.9999998E-03; -5.9999999E-02;675;  0.0000000E+00;  0.0000000E+00;  0.0000000E+00;  1.0000000E+03;  4.0000001E-01;  0.0000000E+00;0;  0.0000000E+00;  0.0000000E+00;  0.0000000E+00;0;  0.0000000E+00;  1.0000000E+04;  0.0000000E+00;  0.0000000E+00;  1.0000000E+04;  0.0000000E+00;  1.0000000E+04;  0.0000000E+00;  0.0000000E+00;  0.0000000E+00;  0.0000000E+00;
  2.0400000E+00;  9.9999998E-03; -3.9999999E-02;676;  0.0000000E+00;  0.0000000E+00;  0.0000000E+00;  1.0000000E+03;  4.0000001E-01;  0.0000000E+00;0;  0.0000000E+00;  0.0000000E+00;  0.0000000E+00;0;  0.0000000E+00;  1.0000000E+04;  0.0000000E+00;  0.0000000E+00;  1.0000000E+04;  0.0000000E+00;  1.0000000E+04;  0.0000000E+00;  0.0000000E+00;  0.0000000E+00;  0.0000000E+00;
  2.0400000E+00;  9.9999998E-03; -2.0000000E-02;677;  0.0000000E+00;  0.0000000E+00;  0.0000000E+00;  1.0000000E+03;  4.0000001E-01;  0.0000000E+00;0;  0.0000000E+00;  0.0000000E+00;  0.0000000E+00;0;  0.0000000E+00;  1.0000000E+04;  0.0000000E+00;  0.0000000E+00;  1.0000000E+04;  0.0000000E+00;  1.0000000E+04;  0.0000000E+00;  0.0000000E+00;  0.0000000E+00;  0.0000000E+00;
  2.0400000E+00;  9.9999998E-03;  0.0000000E+00;678;  0.0000000E+00;  0.0000000E+00;  0.0000000E+00;  1.0000000E+03;  4.0000001E-01;  0.0000000E+00;0;  0.0000000E+00;  0.0000000E+00;  0.0000000E+00;0;  0.0000000E+00;  1.0000000E+04;  0.0000000E+00;  0.0000000E+00;  1.0000000E+04;  0.0000000E+00;  1.0000000E+04;  0.0000000E+00;  0.0000000E+00;  0.0000000E+00;  0.0000000E+00;
  2.0400000E+00;  9.9999998E-03;  2.0000000E-02;679;  0.0000000E+00;  0.0000000E+00;  0.0000000E+00;  1.0000000E+03;  4.0000001E-01;  0.0000000E+00;0;  0.0000000E+00;  0.0000000E+00;  0.0000000E+00;0;  0.0000000E+00;  1.0000000E+04;  0.0000000E+00;  0.0000000E+00;  1.0000000E+04;  0.0000000E+00;  1.0000000E+04;  0.0000000E+00;  0.0000000E+00;  0.0000000E+00;  0.0000000E+00;
  2.0400000E+00;  9.9999998E-03;  3.9999999E-02;680;  0.0000000E+00;  0.0000000E+00;  0.0000000E+00;  1.0000000E+03;  4.0000001E-01;  0.0000000E+00;0;  0.0000000E+00;  0.0000000E+00;  0.0000000E+00;0;  0.0000000E+00;  1.0000000E+04;  0.0000000E+00;  0.0000000E+00;  1.0000000E+04;  0.0000000E+00;  1.0000000E+04;  0.0000000E+00;  0.0000000E+00;  0.0000000E+00;  0.0000000E+00;
  2.0400000E+00;  9.9999998E-03;  5.9999999E-02;681;  0.0000000E+00;  0.0000000E+00;  0.0000000E+00;  1.0000000E+03;  4.0000001E-01;  0.0000000E+00;0;  0.0000000E+00;  0.0000000E+00;  0.0000000E+00;0;  0.0000000E+00;  1.0000000E+04;  0.0000000E+00;  0.0000000E+00;  1.0000000E+04;  0.0000000E+00;  1.0000000E+04;  0.0000000E+00;  0.0000000E+00;  0.0000000E+00;  0.0000000E+00;
  2.0400000E+00;  9.9999998E-03;  7.9999998E-02;682;  0.0000000E+00;  0.0000000E+00;  0.0000000E+00;  1.0000000E+03;  4.0000001E-01;  0.0000000E+00;0;  0.0000000E+00;  0.0000000E+00;  0.0000000E+00;0;  0.0000000E+00;  1.0000000E+04;  0.0000000E+00;  0.0000000E+00;  1.0000000E+04;  0.0000000E+00;  1.0000000E+04;  0.0000000E+00;  0.0000000E+00;  0.0000000E+00;  0.0000000E+00;
  2.0400000E+00;  9.9999998E-03;  1.0000000E-01;683;  0.0000000E+00;  0.0000000E+00;  0.0000000E+00;  1.0000000E+03;  4.0000001E-01;  0.0000000E+00;0;  0.0000000E+00;  0.0000000E+00;  0.0000000E+00;0;  0.0000000E+00;  1.0000000E+04;  0.0000000E+00;  0.0000000E+00;  1.0000000E+04;  0.0000000E+00;  1.0000000E+04;  0.0000000E+00;  0.0000000E+00;  0.0000000E+00;  0.0000000E+00;
  2.0400000E+00;  9.9999998E-03;  1.2000000E-01;684;  0.0000000E+00;  0.0000000E+00;  0.0000000E+00;  1.0000000E+03;  4.0000001E-01;  0.0000000E+00;0;  0.0000000E+00;  0.0000000E+00;  0.0000000E+00;0;  0.0000000E+00;  1.0000000E+04;  0.0000000E+00;  0.0000000E+00;  1.0000000E+04;  0.0000000E+00;  1.0000000E+04;  0.0000000E+00;  0.0000000E+00;  0.0000000E+00;  0.0000000E+00;
  2.0400000E+00;  9.9999998E-03;  1.4000000E-01;685;  0.0000000E+00;  0.0000000E+00;  0.0000000E+00;  1.0000000E+03;  4.0000001E-01;  0.0000000E+00;0;  0.0000000E+00;  0.0000000E+00;  0.0000000E+00;0;  0.0000000E+00;  1.0000000E+04;  0.0000000E+00;  0.0000000E+00;  1.0000000E+04;  0.0000000E+00;  1.0000000E+04;  0.0000000E+00;  0.0000000E+00;  0.0000000E+00;  0.0000000E+00;
  2.0400000E+00;  9.9999998E-03;  1.6000000E-01;686;  0.0000000E+00;  0.0000000E+00;  0.0000000E+00;  1.0000000E+03;  4.0000001E-01;  0.0000000E+00;0;  0.0000000E+00;  0.0000000E+00;  0.0000000E+00;0;  0.0000000E+00;  1.0000000E+04;  0.0000000E+00;  0.0000000E+00;  1.0000000E+04;  0.0000000E+00;  1.0000000E+04;  0.0000000E+00;  0.0000000E+00;  0.0000000E+00;  0.0000000E+00;
  2.0400000E+00;  9.9999998E-03;  1.8000001E-01;687;  0.0000000E+00;  0.0000000E+00;  0.0000000E+00;  1.0000000E+03;  4.0000001E-01;  0.0000000E+00;0;  0.0000000E+00;  0.0000000E+00;  0.0000000E+00;0;  0.0000000E+00;  1.0000000E+04;  0.0000000E+00;  0.0000000E+00;  1.0000000E+04;  0.0000000E+00;  1.0000000E+04;  0.0000000E+00;  0.0000000E+00;  0.0000000E+00;  0.0000000E+00;
  2.0400000E+00;  9.9999998E-03;  2.0000000E-01;688;  0.0000000E+00;  0.0000000E+00;  0.0000000E+00;  1.0000000E+03;  4.0000001E-01;  0.0000000E+00;0;  0.0000000E+00;  0.0000000E+00;  0.0000000E+00;0;  0.0000000E+00;  1.0000000E+04;  0.0000000E+00;  0.0000000E+00;  1.0000000E+04;  0.0000000E+00;  1.0000000E+04;  0.0000000E+00;  0.0000000E+00;  0.0000000E+00;  0.0000000E+00;
  2.0400000E+00;  9.9999998E-03;  2.2000000E-01;689;  0.0000000E+00;  0.0000000E+00;  0.0000000E+00;  1.0000000E+03;  4.0000001E-01;  0.0000000E+00;0;  0.0000000E+00;  0.0000000E+00;  0.0000000E+00;0;  0.0000000E+00;  1.0000000E+04;  0.0000000E+00;  0.0000000E+00;  1.0000000E+04;  0.0000000E+00;  1.0000000E+04;  0.0000000E+00;  0.0000000E+00;  0.0000000E+00;  0.0000000E+00;
  2.0400000E+00;  9.9999998E-03;  2.3999999E-01;690;  0.0000000E+00;  0.0000000E+00;  0.0000000E+00;  1.0000000E+03;  4.0000001E-01;  0.0000000E+00;0;  0.0000000E+00;  0.0000000E+00;  0.0000000E+00;0;  0.0000000E+00;  1.0000000E+04;  0.0000000E+00;  0.0000000E+00;  1.0000000E+04;  0.0000000E+00;  1.0000000E+04;  0.0000000E+00;  0.0000000E+00;  0.0000000E+00;  0.0000000E+00;
  2.0400000E+00;  9.9999998E-03;  2.5999999E-01;691;  0.0000000E+00;  0.0000000E+00;  0.0000000E+00;  1.0000000E+03;  4.0000001E-01;  0.0000000E+00;0;  0.0000000E+00;  0.0000000E+00;  0.0000000E+00;0;  0.0000000E+00;  1.0000000E+04;  0.0000000E+00;  0.0000000E+00;  1.0000000E+04;  0.0000000E+00;  1.0000000E+04;  0.0000000E+00;  0.0000000E+00;  0.0000000E+00;  0.0000000E+00;
  2.0400000E+00;  9.9999998E-03;  2.8000000E-01;692;  0.0000000E+00;  0.0000000E+00;  0.0000000E+00;  1.0000000E+03;  4.0000001E-01;  0.0000000E+00;0;  0.0000000E+00;  0.0000000E+00;  0.0000000E+00;0;  0.0000000E+00;  1.0000000E+04;  0.0000000E+00;  0.0000000E+00;  1.0000000E+04;  0.0000000E+00;  1.0000000E+04;  0.0000000E+00;  0.0000000E+00;  0.0000000E+00;  0.0000000E+00;
  2.0599999E+00;  9.9999998E-03; -4.0000001E-01;693;  0.0000000E+00;  0.0000000E+00;  0.0000000E+00;  1.0000000E+03;  4.0000001E-01;  0.0000000E+00;0;  0.0000000E+00;  0.0000000E+00;  0.0000000E+00;0;  0.0000000E+00;  1.0000000E+04;  0.0000000E+00;  0.0000000E+00;  1.0000000E+04;  0.0000000E+00;  1.0000000E+04;  0.0000000E+00;  0.0000000E+00;  0.0000000E+00;  0.0000000E+00;
  2.0599999E+00;  9.9999998E-03; -3.8000000E-01;694;  0.0000000E+00;  0.0000000E+00;  0.0000000E+00;  1.0000000E+03;  4.0000001E-01;  0.0000000E+00;0;  0.0000000E+00;  0.0000000E+00;  0.0000000E+00;0;  0.0000000E+00;  1.0000000E+04;  0.0000000E+00;  0.0000000E+00;  1.0000000E+04;  0.0000000E+00;  1.0000000E+04;  0.0000000E+00;  0.0000000E+00;  0.0000000E+00;  0.0000000E+00;
  2.0599999E+00;  9.9999998E-03; -3.6000001E-01;695;  0.0000000E+00;  0.0000000E+00;  0.0000000E+00;  1.0000000E+03;  4.0000001E-01;  0.0000000E+00;0;  0.0000000E+00;  0.0000000E+00;  0.0000000E+00;0;  0.0000000E+00;  1.0000000E+04;  0.0000000E+00;  0.0000000E+00;  1.0000000E+04;  0.0000000E+00;  1.0000000E+04;  0.0000000E+00;  0.0000000E+00;  0.0000000E+00;  0.0000000E+00;
  2.0599999E+00;  9.9999998E-03; -3.4000000E-01;696;  0.0000000E+00;  0.0000000E+00;  0.0000000E+00;  1.0000000E+03;  4.0000001E-01;  0.0000000E+00;0;  0.0000000E+00;  0.0000000E+00;  0.0000000E+00;0;  0.0000000E+00;  1.0000000E+04;  0.0000000E+00;  0.0000000E+00;  1.0000000E+04;  0.0000000E+00;  1.0000000E+04;  0.0000000E+00;  0.0000000E+00;  0.0000000E+00;  0.0000000E+00;
  2.0599999E+00;  9.9999998E-03; -3.1999999E-01;697;  0.0000000E+00;  0.0000000E+00;  0.0000000E+00;  1.0000000E+03;  4.0000001E-01;  0.0000000E+00;0;  0.0000000E+00;  0.0000000E+00;  0.0000000E+00;0;  0.0000000E+00;  1.0000000E+04;  0.0000000E+00;  0.0000000E+00;  1.0000000E+04;  0.0000000E+00;  1.0000000E+04;  0.0000000E+00;  0.0000000E+00;  0.0000000E+00;  0.0000000E+00;
  2.0599999E+00;  9.9999998E-03; -3.0000001E-01;698;  0.0000000E+00;  0.0000000E+00;  0.0000000E+00;  1.0000000E+03;  4.0000001E-01;  0.0000000E+00;0;  0.0000000E+00;  0.0000000E+00;  0.0000000E+00;0;  0.0000000E+00;  1.0000000E+04;  0.0000000E+00;  0.0000000E+00;  1.0000000E+04;  0.0000000E+00;  1.0000000E+04;  0.0000000E+00;  0.0000000E+00;  0.0000000E+00;  0.0000000E+00;
  2.0599999E+00;  9.9999998E-03; -2.8000000E-01;699;  0.0000000E+00;  0.0000000E+00;  0.0000000E+00;  1.0000000E+03;  4.0000001E-01;  0.0000000E+00;0;  0.0000000E+00;  0.0000000E+00;  0.0000000E+00;0;  0.0000000E+00;  1.0000000E+04;  0.0000000E+00;  0.0000000E+00;  1.0000000E+04;  0.0000000E+00;  1.0000000E+04;  0.0000000E+00;  0.0000000E+00;  0.0000000E+00;  0.0000000E+00;
  2.0599999E+00;  9.9999998E-03; -2.5999999E-01;700;  0.0000000E+00;  0.0000000E+00;  0.0000000E+00;  1.0000000E+03;  4.0000001E-01;  0.0000000E+00;0;  0.0000000E+00;  0.0000000E+00;  0.0000000E+00;0;  0.0000000E+00;  1.0000000E+04;  0.0000000E+00;  0.0000000E+00;  1.0000000E+04;  0.0000000E+00;  1.0000000E+04;  0.0000000E+00;  0.0000000E+00;  0.0000000E+00;  0.0000000E+00;
  2.0599999E+00;  9.9999998E-03; -2.3999999E-01;701;  0.0000000E+00;  0.0000000E+00;  0.0000000E+00;  1.0000000E+03;  4.0000001E-01;  0.0000000E+00;0;  0.0000000E+00;  0.0000000E+00;  0.0000000E+00;0;  0.0000000E+00;  1.0000000E+04;  0.0000000E+00;  0.0000000E+00;  1.0000000E+04;  0.0000000E+00;  1.0000000E+04;  0.0000000E+00;  0.0000000E+00;  0.0000000E+00;  0.0000000E+00;
  2.0599999E+00;  9.9999998E-03; -2.2000000E-01;702;  0.0000000E+00;  0.0000000E+00;  0.0000000E+00;  1.0000000E+03;  4.0000001E-01;  0.0000000E+00;0;  0.0000000E+00;  0.0000000E+00;  0.0000000E+00;0;  0.0000000E+00;  1.0000000E+04;  0.0000000E+00;  0.0000000E+00;  1.0000000E+04;  0.0000000E+00;  1.0000000E+04;  0.0000000E+00;  0.0000000E+00;  0.0000000E+00;  0.0000000E+00;
  2.0599999E+00;  9.9999998E-03; -2.0000000E-01;703;  0.0000000E+00;  0.0000000E+00;  0.0000000E+00;  1.0000000E+03;  4.0000001E-01;  0.0000000E+00;0;  0.0000000E+00;  0.0000000E+00;  0.0000000E+00;0;  0.0000000E+00;  1.0000000E+04;  0.0000000E+00;  0.0000000E+00;  1.0000000E+04;  0.0000000E+00;  1.0000000E+04;  0.0000000E+00;  0.0000000E+00;  0.0000000E+00;  0.0000000E+00;
  2.0599999E+00;  9.9999998E-03; -1.8000001E-01;704;  0.0000000E+00;  0.0000000E+00;  0.0000000E+00;  1.0000000E+03;  4.0000001E-01;  0.0000000E+00;0;  0.0000000E+00;  0.0000000E+00;  0.0000000E+00;0;  0.0000000E+00;  1.0000000E+04;  0.0000000E+00;  0.0000000E+00;  1.0000000E+04;  0.0000000E+00;  1.0000000E+04;  0.0000000E+00;  0.0000000E+00;  0.0000000E+00;  0.0000000E+00;
  2.0599999E+00;  9.9999998E-03; -1.6000000E-01;705;  0.0000000E+00;  0.0000000E+00;  0.0000000E+00;  1.0000000E+03;  4.0000001E-01;  0.0000000E+00;0;  0.0000000E+00;  0.0000000E+00;  0.0000000E+00;0;  0.0000000E+00;  1.0000000E+04;  0.0000000E+00;  0.0000000E+00;  1.0000000E+04;  0.0000000E+00;  1.0000000E+04;  0.0000000E+00;  0.0000000E+00;  0.0000000E+00;  0.0000000E+00;
  2.0599999E+00;  9.9999998E-03; -1.4000000E-01;706;  0.0000000E+00;  0.0000000E+00;  0.0000000E+00;  1.0000000E+03;  4.0000001E-01;  0.0000000E+00;0;  0.0000000E+00;  0.0000000E+00;  0.0000000E+00;0;  0.0000000E+00;  1.0000000E+04;  0.0000000E+00;  0.0000000E+00;  1.0000000E+04;  0.0000000E+00;  1.0000000E+04;  0.0000000E+00;  0.0000000E+00;  0.0000000E+00;  0.0000000E+00;
  2.0599999E+00;  9.9999998E-03; -1.2000000E-01;707;  0.0000000E+00;  0.0000000E+00;  0.0000000E+00;  1.0000000E+03;  4.0000001E-01;  0.0000000E+00;0;  0.0000000E+00;  0.0000000E+00;  0.0000000E+00;0;  0.0000000E+00;  1.0000000E+04;  0.0000000E+00;  0.0000000E+00;  1.0000000E+04;  0.0000000E+00;  1.0000000E+04;  0.0000000E+00;  0.0000000E+00;  0.0000000E+00;  0.0000000E+00;
  2.0599999E+00;  9.9999998E-03; -1.0000000E-01;708;  0.0000000E+00;  0.0000000E+00;  0.0000000E+00;  1.0000000E+03;  4.0000001E-01;  0.0000000E+00;0;  0.0000000E+00;  0.0000000E+00;  0.0000000E+00;0;  0.0000000E+00;  1.0000000E+04;  0.0000000E+00;  0.0000000E+00;  1.0000000E+04;  0.0000000E+00;  1.0000000E+04;  0.0000000E+00;  0.0000000E+00;  0.0000000E+00;  0.0000000E+00;
  2.0599999E+00;  9.9999998E-03; -7.9999998E-02;709;  0.0000000E+00;  0.0000000E+00;  0.0000000E+00;  1.0000000E+03;  4.0000001E-01;  0.0000000E+00;0;  0.0000000E+00;  0.0000000E+00;  0.0000000E+00;0;  0.0000000E+00;  1.0000000E+04;  0.0000000E+00;  0.0000000E+00;  1.0000000E+04;  0.0000000E+00;  1.0000000E+04;  0.0000000E+00;  0.0000000E+00;  0.0000000E+00;  0.0000000E+00;
  2.0599999E+00;  9.9999998E-03; -5.9999999E-02;710;  0.0000000E+00;  0.0000000E+00;  0.0000000E+00;  1.0000000E+03;  4.0000001E-01;  0.0000000E+00;0;  0.0000000E+00;  0.0000000E+00;  0.0000000E+00;0;  0.0000000E+00;  1.0000000E+04;  0.0000000E+00;  0.0000000E+00;  1.0000000E+04;  0.0000000E+00;  1.0000000E+04;  0.0000000E+00;  0.0000000E+00;  0.0000000E+00;  0.0000000E+00;
  2.0599999E+00;  9.9999998E-03; -3.9999999E-02;711;  0.0000000E+00;  0.0000000E+00;  0.0000000E+00;  1.0000000E+03;  4.0000001E-01;  0.0000000E+00;0;  0.0000000E+00;  0.0000000E+00;  0.0000000E+00;0;  0.0000000E+00;  1.0000000E+04;  0.0000000E+00;  0.0000000E+00;  1.0000000E+04;  0.0000000E+00;  1.0000000E+04;  0.0000000E+00;  0.0000000E+00;  0.0000000E+00;  0.0000000E+00;
  2.0599999E+00;  9.9999998E-03; -2.0000000E-02;712;  0.0000000E+00;  0.0000000E+00;  0.0000000E+00;  1.0000000E+03;  4.0000001E-01;  0.0000000E+00;0;  0.0000000E+00;  0.0000000E+00;  0.0000000E+00;0;  0.0000000E+00;  1.0000000E+04;  0.0000000E+00;  0.0000000E+00;  1.0000000E+04;  0.0000000E+00;  1.0000000E+04;  0.0000000E+00;  0.0000000E+00;  0.0000000E+00;  0.0000000E+00;
  2.0599999E+00;  9.9999998E-03;  0.0000000E+00;713;  0.0000000E+00;  0.0000000E+00;  0.0000000E+00;  1.0000000E+03;  4.0000001E-01;  0.0000000E+00;0;  0.0000000E+00;  0.0000000E+00;  0.0000000E+00;0;  0.0000000E+00;  1.0000000E+04;  0.0000000E+00;  0.0000000E+00;  1.0000000E+04;  0.0000000E+00;  1.0000000E+04;  0.0000000E+00;  0.0000000E+00;  0.0000000E+00;  0.0000000E+00;
  2.0599999E+00;  9.9999998E-03;  2.0000000E-02;714;  0.0000000E+00;  0.0000000E+00;  0.0000000E+00;  1.0000000E+03;  4.0000001E-01;  0.0000000E+00;0;  0.0000000E+00;  0.0000000E+00;  0.0000000E+00;0;  0.0000000E+00;  1.0000000E+04;  0.0000000E+00;  0.0000000E+00;  1.0000000E+04;  0.0000000E+00;  1.0000000E+04;  0.0000000E+00;  0.0000000E+00;  0.0000000E+00;  0.0000000E+00;
  2.0599999E+00;  9.9999998E-03;  3.9999999E-02;715;  0.0000000E+00;  0.0000000E+00;  0.0000000E+00;  1.0000000E+03;  4.0000001E-01;  0.0000000E+00;0;  0.0000000E+00;  0.0000000E+00;  0.0000000E+00;0;  0.0000000E+00;  1.0000000E+04;  0.0000000E+00;  0.0000000E+00;  1.0000000E+04;  0.0000000E+00;  1.0000000E+04;  0.0000000E+00;  0.0000000E+00;  0.0000000E+00;  0.0000000E+00;
  2.0599999E+00;  9.9999998E-03;  5.9999999E-02;716;  0.0000000E+00;  0.0000000E+00;  0.0000000E+00;  1.0000000E+03;  4.0000001E-01;  0.0000000E+00;0;  0.0000000E+00;  0.0000000E+00;  0.0000000E+00;0;  0.0000000E+00;  1.0000000E+04;  0.0000000E+00;  0.0000000E+00;  1.0000000E+04;  0.0000000E+00;  1.0000000E+04;  0.0000000E+00;  0.0000000E+00;  0.0000000E+00;  0.0000000E+00;
  2.0599999E+00;  9.9999998E-03;  7.9999998E-02;717;  0.0000000E+00;  0.0000000E+00;  0.0000000E+00;  1.0000000E+03;  4.0000001E-01;  0.0000000E+00;0;  0.0000000E+00;  0.0000000E+00;  0.0000000E+00;0;  0.0000000E+00;  1.0000000E+04;  0.0000000E+00;  0.0000000E+00;  1.0000000E+04;  0.0000000E+00;  1.0000000E+04;  0.0000000E+00;  0.0000000E+00;  0.0000000E+00;  0.0000000E+00;
  2.0599999E+00;  9.9999998E-03;  1.0000000E-01;718;  0.0000000E+00;  0.0000000E+00;  0.0000000E+00;  1.0000000E+03;  4.0000001E-01;  0.0000000E+00;0;  0.0000000E+00;  0.0000000E+00;  0.0000000E+00;0;  0.0000000E+00;  1.0000000E+04;  0.0000000E+00;  0.0000000E+00;  1.0000000E+04;  0.0000000E+00;  1.0000000E+04;  0.0000000E+00;  0.0000000E+00;  0.0000000E+00;  0.0000000E+00;
  2.0599999E+00;  9.9999998E-03;  1.2000000E-01;719;  0.0000000E+00;  0.0000000E+00;  0.0000000E+00;  1.0000000E+03;  4.0000001E-01;  0.0000000E+00;0;  0.0000000E+00;  0.0000000E+00;  0.0000000E+00;0;  0.0000000E+00;  1.0000000E+04;  0.0000000E+00;  0.0000000E+00;  1.0000000E+04;  0.0000000E+00;  1.0000000E+04;  0.0000000E+00;  0.0000000E+00;  0.0000000E+00;  0.0000000E+00;
  2.0599999E+00;  9.9999998E-03;  1.4000000E-01;720;  0.0000000E+00;  0.0000000E+00;  0.0000000E+00;  1.0000000E+03;  4.0000001E-01;  0.0000000E+00;0;  0.0000000E+00;  0.0000000E+00;  0.0000000E+00;0;  0.0000000E+00;  1.0000000E+04;  0.0000000E+00;  0.0000000E+00;  1.0000000E+04;  0.0000000E+00;  1.0000000E+04;  0.0000000E+00;  0.0000000E+00;  0.0000000E+00;  0.0000000E+00;
  2.0599999E+00;  9.9999998E-03;  1.6000000E-01;721;  0.0000000E+00;  0.0000000E+00;  0.0000000E+00;  1.0000000E+03;  4.0000001E-01;  0.0000000E+00;0;  0.0000000E+00;  0.0000000E+00;  0.0000000E+00;0;  0.0000000E+00;  1.0000000E+04;  0.0000000E+00;  0.0000000E+00;  1.0000000E+04;  0.0000000E+00;  1.0000000E+04;  0.0000000E+00;  0.0000000E+00;  0.0000000E+00;  0.0000000E+00;
  2.0599999E+00;  9.9999998E-03;  1.8000001E-01;722;  0.0000000E+00;  0.0000000E+00;  0.0000000E+00;  1.0000000E+03;  4.0000001E-01;  0.0000000E+00;0;  0.0000000E+00;  0.0000000E+00;  0.0000000E+00;0;  0.0000000E+00;  1.0000000E+04;  0.0000000E+00;  0.0000000E+00;  1.0000000E+04;  0.0000000E+00;  1.0000000E+04;  0.0000000E+00;  0.0000000E+00;  0.0000000E+00;  0.0000000E+00;
  2.0599999E+00;  9.9999998E-03;  2.0000000E-01;723;  0.0000000E+00;  0.0000000E+00;  0.0000000E+00;  1.0000000E+03;  4.0000001E-01;  0.0000000E+00;0;  0.0000000E+00;  0.0000000E+00;  0.0000000E+00;0;  0.0000000E+00;  1.0000000E+04;  0.0000000E+00;  0.0000000E+00;  1.0000000E+04;  0.0000000E+00;  1.0000000E+04;  0.0000000E+00;  0.0000000E+00;  0.0000000E+00;  0.0000000E+00;
  2.0599999E+00;  9.9999998E-03;  2.2000000E-01;724;  0.0000000E+00;  0.0000000E+00;  0.0000000E+00;  1.0000000E+03;  4.0000001E-01;  0.0000000E+00;0;  0.0000000E+00;  0.0000000E+00;  0.0000000E+00;0;  0.0000000E+00;  1.0000000E+04;  0.0000000E+00;  0.0000000E+00;  1.0000000E+04;  0.0000000E+00;  1.0000000E+04;  0.0000000E+00;  0.0000000E+00;  0.0000000E+00;  0.0000000E+00;
  2.0599999E+00;  9.9999998E-03;  2.3999999E-01;725;  0.0000000E+00;  0.0000000E+00;  0.0000000E+00;  1.0000000E+03;  4.0000001E-01;  0.0000000E+00;0;  0.0000000E+00;  0.0000000E+00;  0.0000000E+00;0;  0.0000000E+00;  1.0000000E+04;  0.0000000E+00;  0.0000000E+00;  1.0000000E+04;  0.0000000E+00;  1.0000000E+04;  0.0000000E+00;  0.0000000E+00;  0.0000000E+00;  0.0000000E+00;
  2.0599999E+00;  9.9999998E-03;  2.5999999E-01;726;  0.0000000E+00;  0.0000000E+00;  0.0000000E+00;  1.0000000E+03;  4.0000001E-01;  0.0000000E+00;0;  0.0000000E+00;  0.0000000E+00;  0.0000000E+00;0;  0.0000000E+00;  1.0000000E+04;  0.0000000E+00;  0.0000000E+00;  1.0000000E+04;  0.0000000E+00;  1.0000000E+04;  0.0000000E+00;  0.0000000E+00;  0.0000000E+00;  0.0000000E+00;
  2.0599999E+00;  9.9999998E-03;  2.8000000E-01;727;  0.0000000E+00;  0.0000000E+00;  0.0000000E+00;  1.0000000E+03;  4.0000001E-01;  0.0000000E+00;0;  0.0000000E+00;  0.0000000E+00;  0.0000000E+00;0;  0.0000000E+00;  1.0000000E+04;  0.0000000E+00;  0.0000000E+00;  1.0000000E+04;  0.0000000E+00;  1.0000000E+04;  0.0000000E+00;  0.0000000E+00;  0.0000000E+00;  0.0000000E+00;
  2.0599999E+00;  9.9999998E-03;  3.0000001E-01;728;  0.0000000E+00;  0.0000000E+00;  0.0000000E+00;  1.0000000E+03;  4.0000001E-01;  0.0000000E+00;0;  0.0000000E+00;  0.0000000E+00;  0.0000000E+00;0;  0.0000000E+00;  1.0000000E+04;  0.0000000E+00;  0.0000000E+00;  1.0000000E+04;  0.0000000E+00;  1.0000000E+04;  0.0000000E+00;  0.0000000E+00;  0.0000000E+00;  0.0000000E+00;
  2.0599999E+00;  9.9999998E-03;  3.1999999E-01;729;  0.0000000E+00;  0.0000000E+00;  0.0000000E+00;  1.0000000E+03;  4.0000001E-01;  0.0000000E+00;0;  0.0000000E+00;  0.0000000E+00;  0.0000000E+00;0;  0.0000000E+00;  1.0000000E+04;  0.0000000E+00;  0.0000000E+00;  1.0000000E+04;  0.0000000E+00;  1.0000000E+04;  0.0000000E+00;  0.0000000E+00;  0.0000000E+00;  0.0000000E+00;
  2.0599999E+00;  9.9999998E-03;  3.4000000E-01;730;  0.0000000E+00;  0.0000000E+00;  0.0000000E+00;  1.0000000E+03;  4.0000001E-01;  0.0000000E+00;0;  0.0000000E+00;  0.0000000E+00;  0.0000000E+00;0;  0.0000000E+00;  1.0000000E+04;  0.0000000E+00;  0.0000000E+00;  1.0000000E+04;  0.0000000E+00;  1.0000000E+04;  0.0000000E+00;  0.0000000E+00;  0.0000000E+00;  0.0000000E+00;
  2.0599999E+00;  9.9999998E-03;  3.6000001E-01;731;  0.0000000E+00;  0.0000000E+00;  0.0000000E+00;  1.0000000E+03;  4.0000001E-01;  0.0000000E+00;0;  0.0000000E+00;  0.0000000E+00;  0.0000000E+00;0;  0.0000000E+00;  1.0000000E+04;  0.0000000E+00;  0.0000000E+00;  1.0000000E+04;  0.0000000E+00;  1.0000000E+04;  0.0000000E+00;  0.0000000E+00;  0.0000000E+00;  0.0000000E+00;
  2.0599999E+00;  9.9999998E-03;  3.8000000E-01;732;  0.0000000E+00;  0.0000000E+00;  0.0000000E+00;  1.0000000E+03;  4.0000001E-01;  0.0000000E+00;0;  0.0000000E+00;  0.0000000E+00;  0.0000000E+00;0;  0.0000000E+00;  1.0000000E+04;  0.0000000E+00;  0.0000000E+00;  1.0000000E+04;  0.0000000E+00;  1.0000000E+04;  0.0000000E+00;  0.0000000E+00;  0.0000000E+00;  0.0000000E+00;
  2.0799999E+00;  9.9999998E-03; -4.0000001E-01;733;  0.0000000E+00;  0.0000000E+00;  0.0000000E+00;  1.0000000E+03;  4.0000001E-01;  0.0000000E+00;0;  0.0000000E+00;  0.0000000E+00;  0.0000000E+00;0;  0.0000000E+00;  1.0000000E+04;  0.0000000E+00;  0.0000000E+00;  1.0000000E+04;  0.0000000E+00;  1.0000000E+04;  0.0000000E+00;  0.0000000E+00;  0.0000000E+00;  0.0000000E+00;
  2.0799999E+00;  9.9999998E-03; -3.8000000E-01;734;  0.0000000E+00;  0.0000000E+00;  0.0000000E+00;  1.0000000E+03;  4.0000001E-01;  0.0000000E+00;0;  0.0000000E+00;  0.0000000E+00;  0.0000000E+00;0;  0.0000000E+00;  1.0000000E+04;  0.0000000E+00;  0.0000000E+00;  1.0000000E+04;  0.0000000E+00;  1.0000000E+04;  0.0000000E+00;  0.0000000E+00;  0.0000000E+00;  0.0000000E+00;
  2.0799999E+00;  9.9999998E-03; -3.6000001E-01;735;  0.0000000E+00;  0.0000000E+00;  0.0000000E+00;  1.0000000E+03;  4.0000001E-01;  0.0000000E+00;0;  0.0000000E+00;  0.0000000E+00;  0.0000000E+00;0;  0.0000000E+00;  1.0000000E+04;  0.0000000E+00;  0.0000000E+00;  1.0000000E+04;  0.0000000E+00;  1.0000000E+04;  0.0000000E+00;  0.0000000E+00;  0.0000000E+00;  0.0000000E+00;
  2.0799999E+00;  9.9999998E-03; -3.4000000E-01;736;  0.0000000E+00;  0.0000000E+00;  0.0000000E+00;  1.0000000E+03;  4.0000001E-01;  0.0000000E+00;0;  0.0000000E+00;  0.0000000E+00;  0.0000000E+00;0;  0.0000000E+00;  1.0000000E+04;  0.0000000E+00;  0.0000000E+00;  1.0000000E+04;  0.0000000E+00;  1.0000000E+04;  0.0000000E+00;  0.0000000E+00;  0.0000000E+00;  0.0000000E+00;
  2.0799999E+00;  9.9999998E-03; -3.1999999E-01;737;  0.0000000E+00;  0.0000000E+00;  0.0000000E+00;  1.0000000E+03;  4.0000001E-01;  0.0000000E+00;0;  0.0000000E+00;  0.0000000E+00;  0.0000000E+00;0;  0.0000000E+00;  1.0000000E+04;  0.0000000E+00;  0.0000000E+00;  1.0000000E+04;  0.0000000E+00;  1.0000000E+04;  0.0000000E+00;  0.0000000E+00;  0.0000000E+00;  0.0000000E+00;
  2.0799999E+00;  9.9999998E-03; -3.0000001E-01;738;  0.0000000E+00;  0.0000000E+00;  0.0000000E+00;  1.0000000E+03;  4.0000001E-01;  0.0000000E+00;0;  0.0000000E+00;  0.0000000E+00;  0.0000000E+00;0;  0.0000000E+00;  1.0000000E+04;  0.0000000E+00;  0.0000000E+00;  1.0000000E+04;  0.0000000E+00;  1.0000000E+04;  0.0000000E+00;  0.0000000E+00;  0.0000000E+00;  0.0000000E+00;
  2.0799999E+00;  9.9999998E-03; -2.8000000E-01;739;  0.0000000E+00;  0.0000000E+00;  0.0000000E+00;  1.0000000E+03;  4.0000001E-01;  0.0000000E+00;0;  0.0000000E+00;  0.0000000E+00;  0.0000000E+00;0;  0.0000000E+00;  1.0000000E+04;  0.0000000E+00;  0.0000000E+00;  1.0000000E+04;  0.0000000E+00;  1.0000000E+04;  0.0000000E+00;  0.0000000E+00;  0.0000000E+00;  0.0000000E+00;
  2.0799999E+00;  9.9999998E-03; -2.5999999E-01;740;  0.0000000E+00;  0.0000000E+00;  0.0000000E+00;  1.0000000E+03;  4.0000001E-01;  0.0000000E+00;0;  0.0000000E+00;  0.0000000E+00;  0.0000000E+00;0;  0.0000000E+00;  1.0000000E+04;  0.0000000E+00;  0.0000000E+00;  1.0000000E+04;  0.0000000E+00;  1.0000000E+04;  0.0000000E+00;  0.0000000E+00;  0.0000000E+00;  0.0000000E+00;
  2.0799999E+00;  9.9999998E-03; -2.3999999E-01;741;  0.0000000E+00;  0.0000000E+00;  0.0000000E+00;  1.0000000E+03;  4.0000001E-01;  0.0000000E+00;0;  0.0000000E+00;  0.0000000E+00;  0.0000000E+00;0;  0.0000000E+00;  1.0000000E+04;  0.0000000E+00;  0.0000000E+00;  1.0000000E+04;  0.0000000E+00;  1.0000000E+04;  0.0000000E+00;  0.0000000E+00;  0.0000000E+00;  0.0000000E+00;
  2.0799999E+00;  9.9999998E-03; -2.2000000E-01;742;  0.0000000E+00;  0.0000000E+00;  0.0000000E+00;  1.0000000E+03;  4.0000001E-01;  0.0000000E+00;0;  0.0000000E+00;  0.0000000E+00;  0.0000000E+00;0;  0.0000000E+00;  1.0000000E+04;  0.0000000E+00;  0.0000000E+00;  1.0000000E+04;  0.0000000E+00;  1.0000000E+04;  0.0000000E+00;  0.0000000E+00;  0.0000000E+00;  0.0000000E+00;
  2.0799999E+00;  9.9999998E-03; -2.0000000E-01;743;  0.0000000E+00;  0.0000000E+00;  0.0000000E+00;  1.0000000E+03;  4.0000001E-01;  0.0000000E+00;0;  0.0000000E+00;  0.0000000E+00;  0.0000000E+00;0;  0.0000000E+00;  1.0000000E+04;  0.0000000E+00;  0.0000000E+00;  1.0000000E+04;  0.0000000E+00;  1.0000000E+04;  0.0000000E+00;  0.0000000E+00;  0.0000000E+00;  0.0000000E+00;
  2.0799999E+00;  9.9999998E-03; -1.8000001E-01;744;  0.0000000E+00;  0.0000000E+00;  0.0000000E+00;  1.0000000E+03;  4.0000001E-01;  0.0000000E+00;0;  0.0000000E+00;  0.0000000E+00;  0.0000000E+00;0;  0.0000000E+00;  1.0000000E+04;  0.0000000E+00;  0.0000000E+00;  1.0000000E+04;  0.0000000E+00;  1.0000000E+04;  0.0000000E+00;  0.0000000E+00;  0.0000000E+00;  0.0000000E+00;
  2.0799999E+00;  9.9999998E-03; -1.6000000E-01;745;  0.0000000E+00;  0.0000000E+00;  0.0000000E+00;  1.0000000E+03;  4.0000001E-01;  0.0000000E+00;0;  0.0000000E+00;  0.0000000E+00;  0.0000000E+00;0;  0.0000000E+00;  1.0000000E+04;  0.0000000E+00;  0.0000000E+00;  1.0000000E+04;  0.0000000E+00;  1.0000000E+04;  0.0000000E+00;  0.0000000E+00;  0.0000000E+00;  0.0000000E+00;
  2.0799999E+00;  9.9999998E-03; -1.4000000E-01;746;  0.0000000E+00;  0.0000000E+00;  0.0000000E+00;  1.0000000E+03;  4.0000001E-01;  0.0000000E+00;0;  0.0000000E+00;  0.0000000E+00;  0.0000000E+00;0;  0.0000000E+00;  1.0000000E+04;  0.0000000E+00;  0.0000000E+00;  1.0000000E+04;  0.0000000E+00;  1.0000000E+04;  0.0000000E+00;  0.0000000E+00;  0.0000000E+00;  0.0000000E+00;
  2.0799999E+00;  9.9999998E-03; -1.2000000E-01;747;  0.0000000E+00;  0.0000000E+00;  0.0000000E+00;  1.0000000E+03;  4.0000001E-01;  0.0000000E+00;0;  0.0000000E+00;  0.0000000E+00;  0.0000000E+00;0;  0.0000000E+00;  1.0000000E+04;  0.0000000E+00;  0.0000000E+00;  1.0000000E+04;  0.0000000E+00;  1.0000000E+04;  0.0000000E+00;  0.0000000E+00;  0.0000000E+00;  0.0000000E+00;
  2.0799999E+00;  9.9999998E-03; -1.0000000E-01;748;  0.0000000E+00;  0.0000000E+00;  0.0000000E+00;  1.0000000E+03;  4.0000001E-01;  0.0000000E+00;0;  0.0000000E+00;  0.0000000E+00;  0.0000000E+00;0;  0.0000000E+00;  1.0000000E+04;  0.0000000E+00;  0.0000000E+00;  1.0000000E+04;  0.0000000E+00;  1.0000000E+04;  0.0000000E+00;  0.0000000E+00;  0.0000000E+00;  0.0000000E+00;
  2.0799999E+00;  9.9999998E-03; -7.9999998E-02;749;  0.0000000E+00;  0.0000000E+00;  0.0000000E+00;  1.0000000E+03;  4.0000001E-01;  0.0000000E+00;0;  0.0000000E+00;  0.0000000E+00;  0.0000000E+00;0;  0.0000000E+00;  1.0000000E+04;  0.0000000E+00;  0.0000000E+00;  1.0000000E+04;  0.0000000E+00;  1.0000000E+04;  0.0000000E+00;  0.0000000E+00;  0.0000000E+00;  0.0000000E+00;
  2.0799999E+00;  9.9999998E-03; -5.9999999E-02;750;  0.0000000E+00;  0.0000000E+00;  0.0000000E+00;  1.0000000E+03;  4.0000001E-01;  0.0000000E+00;0;  0.0000000E+00;  0.0000000E+00;  0.0000000E+00;0;  0.0000000E+00;  1.0000000E+04;  0.0000000E+00;  0.0000000E+00;  1.0000000E+04;  0.0000000E+00;  1.0000000E+04;  0.0000000E+00;  0.0000000E+00;  0.0000000E+00;  0.0000000E+00;
  2.0799999E+00;  9.9999998E-03; -3.9999999E-02;751;  0.0000000E+00;  0.0000000E+00;  0.0000000E+00;  1.0000000E+03;  4.0000001E-01;  0.0000000E+00;0;  0.0000000E+00;  0.0000000E+00;  0.0000000E+00;0;  0.0000000E+00;  1.0000000E+04;  0.0000000E+00;  0.0000000E+00;  1.0000000E+04;  0.0000000E+00;  1.0000000E+04;  0.0000000E+00;  0.0000000E+00;  0.0000000E+00;  0.0000000E+00;
  2.0799999E+00;  9.9999998E-03; -2.0000000E-02;752;  0.0000000E+00;  0.0000000E+00;  0.0000000E+00;  1.0000000E+03;  4.0000001E-01;  0.0000000E+00;0;  0.0000000E+00;  0.0000000E+00;  0.0000000E+00;0;  0.0000000E+00;  1.0000000E+04;  0.0000000E+00;  0.0000000E+00;  1.0000000E+04;  0.0000000E+00;  1.0000000E+04;  0.0000000E+00;  0.0000000E+00;  0.0000000E+00;  0.0000000E+00;
  2.0799999E+00;  9.9999998E-03;  0.0000000E+00;753;  0.0000000E+00;  0.0000000E+00;  0.0000000E+00;  1.0000000E+03;  4.0000001E-01;  0.0000000E+00;0;  0.0000000E+00;  0.0000000E+00;  0.0000000E+00;0;  0.0000000E+00;  1.0000000E+04;  0.0000000E+00;  0.0000000E+00;  1.0000000E+04;  0.0000000E+00;  1.0000000E+04;  0.0000000E+00;  0.0000000E+00;  0.0000000E+00;  0.0000000E+00;
  2.0799999E+00;  9.9999998E-03;  2.0000000E-02;754;  0.0000000E+00;  0.0000000E+00;  0.0000000E+00;  1.0000000E+03;  4.0000001E-01;  0.0000000E+00;0;  0.0000000E+00;  0.0000000E+00;  0.0000000E+00;0;  0.0000000E+00;  1.0000000E+04;  0.0000000E+00;  0.0000000E+00;  1.0000000E+04;  0.0000000E+00;  1.0000000E+04;  0.0000000E+00;  0.0000000E+00;  0.0000000E+00;  0.0000000E+00;
  2.0799999E+00;  9.9999998E-03;  3.9999999E-02;755;  0.0000000E+00;  0.0000000E+00;  0.0000000E+00;  1.0000000E+03;  4.0000001E-01;  0.0000000E+00;0;  0.0000000E+00;  0.0000000E+00;  0.0000000E+00;0;  0.0000000E+00;  1.0000000E+04;  0.0000000E+00;  0.0000000E+00;  1.0000000E+04;  0.0000000E+00;  1.0000000E+04;  0.0000000E+00;  0.0000000E+00;  0.0000000E+00;  0.0000000E+00;
  2.0799999E+00;  9.9999998E-03;  5.9999999E-02;756;  0.0000000E+00;  0.0000000E+00;  0.0000000E+00;  1.0000000E+03;  4.0000001E-01;  0.0000000E+00;0;  0.0000000E+00;  0.0000000E+00;  0.0000000E+00;0;  0.0000000E+00;  1.0000000E+04;  0.0000000E+00;  0.0000000E+00;  1.0000000E+04;  0.0000000E+00;  1.0000000E+04;  0.0000000E+00;  0.0000000E+00;  0.0000000E+00;  0.0000000E+00;
  2.0799999E+00;  9.9999998E-03;  7.9999998E-02;757;  0.0000000E+00;  0.0000000E+00;  0.0000000E+00;  1.0000000E+03;  4.0000001E-01;  0.0000000E+00;0;  0.0000000E+00;  0.0000000E+00;  0.0000000E+00;0;  0.0000000E+00;  1.0000000E+04;  0.0000000E+00;  0.0000000E+00;  1.0000000E+04;  0.0000000E+00;  1.0000000E+04;  0.0000000E+00;  0.0000000E+00;  0.0000000E+00;  0.0000000E+00;
  2.0799999E+00;  9.9999998E-03;  1.0000000E-01;758;  0.0000000E+00;  0.0000000E+00;  0.0000000E+00;  1.0000000E+03;  4.0000001E-01;  0.0000000E+00;0;  0.0000000E+00;  0.0000000E+00;  0.0000000E+00;0;  0.0000000E+00;  1.0000000E+04;  0.0000000E+00;  0.0000000E+00;  1.0000000E+04;  0.0000000E+00;  1.0000000E+04;  0.0000000E+00;  0.0000000E+00;  0.0000000E+00;  0.0000000E+00;
  2.0799999E+00;  9.9999998E-03;  1.2000000E-01;759;  0.0000000E+00;  0.0000000E+00;  0.0000000E+00;  1.0000000E+03;  4.0000001E-01;  0.0000000E+00;0;  0.0000000E+00;  0.0000000E+00;  0.0000000E+00;0;  0.0000000E+00;  1.0000000E+04;  0.0000000E+00;  0.0000000E+00;  1.0000000E+04;  0.0000000E+00;  1.0000000E+04;  0.0000000E+00;  0.0000000E+00;  0.0000000E+00;  0.0000000E+00;
  2.0799999E+00;  9.9999998E-03;  1.4000000E-01;760;  0.0000000E+00;  0.0000000E+00;  0.0000000E+00;  1.0000000E+03;  4.0000001E-01;  0.0000000E+00;0;  0.0000000E+00;  0.0000000E+00;  0.0000000E+00;0;  0.0000000E+00;  1.0000000E+04;  0.0000000E+00;  0.0000000E+00;  1.0000000E+04;  0.0000000E+00;  1.0000000E+04;  0.0000000E+00;  0.0000000E+00;  0.0000000E+00;  0.0000000E+00;
  2.0799999E+00;  9.9999998E-03;  1.6000000E-01;761;  0.0000000E+00;  0.0000000E+00;  0.0000000E+00;  1.0000000E+03;  4.0000001E-01;  0.0000000E+00;0;  0.0000000E+00;  0.0000000E+00;  0.0000000E+00;0;  0.0000000E+00;  1.0000000E+04;  0.0000000E+00;  0.0000000E+00;  1.0000000E+04;  0.0000000E+00;  1.0000000E+04;  0.0000000E+00;  0.0000000E+00;  0.0000000E+00;  0.0000000E+00;
  2.0799999E+00;  9.9999998E-03;  1.8000001E-01;762;  0.0000000E+00;  0.0000000E+00;  0.0000000E+00;  1.0000000E+03;  4.0000001E-01;  0.0000000E+00;0;  0.0000000E+00;  0.0000000E+00;  0.0000000E+00;0;  0.0000000E+00;  1.0000000E+04;  0.0000000E+00;  0.0000000E+00;  1.0000000E+04;  0.0000000E+00;  1.0000000E+04;  0.0000000E+00;  0.0000000E+00;  0.0000000E+00;  0.0000000E+00;
  2.0799999E+00;  9.9999998E-03;  2.0000000E-01;763;  0.0000000E+00;  0.0000000E+00;  0.0000000E+00;  1.0000000E+03;  4.0000001E-01;  0.0000000E+00;0;  0.0000000E+00;  0.0000000E+00;  0.0000000E+00;0;  0.0000000E+00;  1.0000000E+04;  0.0000000E+00;  0.0000000E+00;  1.0000000E+04;  0.0000000E+00;  1.0000000E+04;  0.0000000E+00;  0.0000000E+00;  0.0000000E+00;  0.0000000E+00;
  2.0799999E+00;  9.9999998E-03;  2.2000000E-01;764;  0.0000000E+00;  0.0000000E+00;  0.0000000E+00;  1.0000000E+03;  4.0000001E-01;  0.0000000E+00;0;  0.0000000E+00;  0.0000000E+00;  0.0000000E+00;0;  0.0000000E+00;  1.0000000E+04;  0.0000000E+00;  0.0000000E+00;  1.0000000E+04;  0.0000000E+00;  1.0000000E+04;  0.0000000E+00;  0.0000000E+00;  0.0000000E+00;  0.0000000E+00;
  2.0799999E+00;  9.9999998E-03;  2.3999999E-01;765;  0.0000000E+00;  0.0000000E+00;  0.0000000E+00;  1.0000000E+03;  4.0000001E-01;  0.0000000E+00;0;  0.0000000E+00;  0.0000000E+00;  0.0000000E+00;0;  0.0000000E+00;  1.0000000E+04;  0.0000000E+00;  0.0000000E+00;  1.0000000E+04;  0.0000000E+00;  1.0000000E+04;  0.0000000E+00;  0.0000000E+00;  0.0000000E+00;  0.0000000E+00;
  2.0799999E+00;  9.9999998E-03;  2.5999999E-01;766;  0.0000000E+00;  0.0000000E+00;  0.0000000E+00;  1.0000000E+03;  4.0000001E-01;  0.0000000E+00;0;  0.0000000E+00;  0.0000000E+00;  0.0000000E+00;0;  0.0000000E+00;  1.0000000E+04;  0.0000000E+00;  0.0000000E+00;  1.0000000E+04;  0.0000000E+00;  1.0000000E+04;  0.0000000E+00;  0.0000000E+00;  0.0000000E+00;  0.0000000E+00;
  2.0799999E+00;  9.9999998E-03;  2.8000000E-01;767;  0.0000000E+00;  0.0000000E+00;  0.0000000E+00;  1.0000000E+03;  4.0000001E-01;  0.0000000E+00;0;  0.0000000E+00;  0.0000000E+00;  0.0000000E+00;0;  0.0000000E+00;  1.0000000E+04;  0.0000000E+00;  0.0000000E+00;  1.0000000E+04;  0.0000000E+00;  1.0000000E+04;  0.0000000E+00;  0.0000000E+00;  0.0000000E+00;  0.0000000E+00;
  2.0799999E+00;  9.9999998E-03;  3.0000001E-01;768;  0.0000000E+00;  0.0000000E+00;  0.0000000E+00;  1.0000000E+03;  4.0000001E-01;  0.0000000E+00;0;  0.0000000E+00;  0.0000000E+00;  0.0000000E+00;0;  0.0000000E+00;  1.0000000E+04;  0.0000000E+00;  0.0000000E+00;  1.0000000E+04;  0.0000000E+00;  1.0000000E+04;  0.0000000E+00;  0.0000000E+00;  0.0000000E+00;  0.0000000E+00;
  2.0799999E+00;  9.9999998E-03;  3.1999999E-01;769;  0.0000000E+00;  0.0000000E+00;  0.0000000E+00;  1.0000000E+03;  4.0000001E-01;  0.0000000E+00;0;  0.0000000E+00;  0.0000000E+00;  0.0000000E+00;0;  0.0000000E+00;  1.0000000E+04;  0.0000000E+00;  0.0000000E+00;  1.0000000E+04;  0.0000000E+00;  1.0000000E+04;  0.0000000E+00;  0.0000000E+00;  0.0000000E+00;  0.0000000E+00;
  2.0799999E+00;  9.9999998E-03;  3.4000000E-01;770;  0.0000000E+00;  0.0000000E+00;  0.0000000E+00;  1.0000000E+03;  4.0000001E-01;  0.0000000E+00;0;  0.0000000E+00;  0.0000000E+00;  0.0000000E+00;0;  0.0000000E+00;  1.0000000E+04;  0.0000000E+00;  0.0000000E+00;  1.0000000E+04;  0.0000000E+00;  1.0000000E+04;  0.0000000E+00;  0.0000000E+00;  0.0000000E+00;  0.0000000E+00;
  2.0799999E+00;  9.9999998E-03;  3.6000001E-01;771;  0.0000000E+00;  0.0000000E+00;  0.0000000E+00;  1.0000000E+03;  4.0000001E-01;  0.0000000E+00;0;  0.0000000E+00;  0.0000000E+00;  0.0000000E+00;0;  0.0000000E+00;  1.0000000E+04;  0.0000000E+00;  0.0000000E+00;  1.0000000E+04;  0.0000000E+00;  1.0000000E+04;  0.0000000E+00;  0.0000000E+00;  0.0000000E+00;  0.0000000E+00;
  2.0799999E+00;  9.9999998E-03;  3.8000000E-01;772;  0.0000000E+00;  0.0000000E+00;  0.0000000E+00;  1.0000000E+03;  4.0000001E-01;  0.0000000E+00;0;  0.0000000E+00;  0.0000000E+00;  0.0000000E+00;0;  0.0000000E+00;  1.0000000E+04;  0.0000000E+00;  0.0000000E+00;  1.0000000E+04;  0.0000000E+00;  1.0000000E+04;  0.0000000E+00;  0.0000000E+00;  0.0000000E+00;  0.0000000E+00;
  2.0799999E+00;  9.9999998E-03;  4.0000001E-01;773;  0.0000000E+00;  0.0000000E+00;  0.0000000E+00;  1.0000000E+03;  4.0000001E-01;  0.0000000E+00;0;  0.0000000E+00;  0.0000000E+00;  0.0000000E+00;0;  0.0000000E+00;  1.0000000E+04;  0.0000000E+00;  0.0000000E+00;  1.0000000E+04;  0.0000000E+00;  1.0000000E+04;  0.0000000E+00;  0.0000000E+00;  0.0000000E+00;  0.0000000E+00;
  2.0999999E+00;  9.9999998E-03; -4.0000001E-01;774;  0.0000000E+00;  0.0000000E+00;  0.0000000E+00;  1.0000000E+03;  4.0000001E-01;  0.0000000E+00;0;  0.0000000E+00;  0.0000000E+00;  0.0000000E+00;0;  0.0000000E+00;  1.0000000E+04;  0.0000000E+00;  0.0000000E+00;  1.0000000E+04;  0.0000000E+00;  1.0000000E+04;  0.0000000E+00;  0.0000000E+00;  0.0000000E+00;  0.0000000E+00;
  2.0999999E+00;  9.9999998E-03; -3.8000000E-01;775;  0.0000000E+00;  0.0000000E+00;  0.0000000E+00;  1.0000000E+03;  4.0000001E-01;  0.0000000E+00;0;  0.0000000E+00;  0.0000000E+00;  0.0000000E+00;0;  0.0000000E+00;  1.0000000E+04;  0.0000000E+00;  0.0000000E+00;  1.0000000E+04;  0.0000000E+00;  1.0000000E+04;  0.0000000E+00;  0.0000000E+00;  0.0000000E+00;  0.0000000E+00;
  2.0999999E+00;  9.9999998E-03; -3.6000001E-01;776;  0.0000000E+00;  0.0000000E+00;  0.0000000E+00;  1.0000000E+03;  4.0000001E-01;  0.0000000E+00;0;  0.0000000E+00;  0.0000000E+00;  0.0000000E+00;0;  0.0000000E+00;  1.0000000E+04;  0.0000000E+00;  0.0000000E+00;  1.0000000E+04;  0.0000000E+00;  1.0000000E+04;  0.0000000E+00;  0.0000000E+00;  0.0000000E+00;  0.0000000E+00;
  2.0999999E+00;  9.9999998E-03; -3.4000000E-01;777;  0.0000000E+00;  0.0000000E+00;  0.0000000E+00;  1.0000000E+03;  4.0000001E-01;  0.0000000E+00;0;  0.0000000E+00;  0.0000000E+00;  0.0000000E+00;0;  0.0000000E+00;  1.0000000E+04;  0.0000000E+00;  0.0000000E+00;  1.0000000E+04;  0.0000000E+00;  1.0000000E+04;  0.0000000E+00;  0.0000000E+00;  0.0000000E+00;  0.0000000E+00;
  2.0999999E+00;  9.9999998E-03; -3.1999999E-01;778;  0.0000000E+00;  0.0000000E+00;  0.0000000E+00;  1.0000000E+03;  4.0000001E-01;  0.0000000E+00;0;  0.0000000E+00;  0.0000000E+00;  0.0000000E+00;0;  0.0000000E+00;  1.0000000E+04;  0.0000000E+00;  0.0000000E+00;  1.0000000E+04;  0.0000000E+00;  1.0000000E+04;  0.0000000E+00;  0.0000000E+00;  0.0000000E+00;  0.0000000E+00;
  2.0999999E+00;  9.9999998E-03; -3.0000001E-01;779;  0.0000000E+00;  0.0000000E+00;  0.0000000E+00;  1.0000000E+03;  4.0000001E-01;  0.0000000E+00;0;  0.0000000E+00;  0.0000000E+00;  0.0000000E+00;0;  0.0000000E+00;  1.0000000E+04;  0.0000000E+00;  0.0000000E+00;  1.0000000E+04;  0.0000000E+00;  1.0000000E+04;  0.0000000E+00;  0.0000000E+00;  0.0000000E+00;  0.0000000E+00;
  2.0999999E+00;  9.9999998E-03; -2.8000000E-01;780;  0.0000000E+00;  0.0000000E+00;  0.0000000E+00;  1.0000000E+03;  4.0000001E-01;  0.0000000E+00;0;  0.0000000E+00;  0.0000000E+00;  0.0000000E+00;0;  0.0000000E+00;  1.0000000E+04;  0.0000000E+00;  0.0000000E+00;  1.0000000E+04;  0.0000000E+00;  1.0000000E+04;  0.0000000E+00;  0.0000000E+00;  0.0000000E+00;  0.0000000E+00;
  2.0999999E+00;  9.9999998E-03; -2.5999999E-01;781;  0.0000000E+00;  0.0000000E+00;  0.0000000E+00;  1.0000000E+03;  4.0000001E-01;  0.0000000E+00;0;  0.0000000E+00;  0.0000000E+00;  0.0000000E+00;0;  0.0000000E+00;  1.0000000E+04;  0.0000000E+00;  0.0000000E+00;  1.0000000E+04;  0.0000000E+00;  1.0000000E+04;  0.0000000E+00;  0.0000000E+00;  0.0000000E+00;  0.0000000E+00;
  2.0999999E+00;  9.9999998E-03; -2.3999999E-01;782;  0.0000000E+00;  0.0000000E+00;  0.0000000E+00;  1.0000000E+03;  4.0000001E-01;  0.0000000E+00;0;  0.0000000E+00;  0.0000000E+00;  0.0000000E+00;0;  0.0000000E+00;  1.0000000E+04;  0.0000000E+00;  0.0000000E+00;  1.0000000E+04;  0.0000000E+00;  1.0000000E+04;  0.0000000E+00;  0.0000000E+00;  0.0000000E+00;  0.0000000E+00;
  2.0999999E+00;  9.9999998E-03; -2.2000000E-01;783;  0.0000000E+00;  0.0000000E+00;  0.0000000E+00;  1.0000000E+03;  4.0000001E-01;  0.0000000E+00;0;  0.0000000E+00;  0.0000000E+00;  0.0000000E+00;0;  0.0000000E+00;  1.0000000E+04;  0.0000000E+00;  0.0000000E+00;  1.0000000E+04;  0.0000000E+00;  1.0000000E+04;  0.0000000E+00;  0.0000000E+00;  0.0000000E+00;  0.0000000E+00;
  2.0999999E+00;  9.9999998E-03; -2.0000000E-01;784;  0.0000000E+00;  0.0000000E+00;  0.0000000E+00;  1.0000000E+03;  4.0000001E-01;  0.0000000E+00;0;  0.0000000E+00;  0.0000000E+00;  0.0000000E+00;0;  0.0000000E+00;  1.0000000E+04;  0.0000000E+00;  0.0000000E+00;  1.0000000E+04;  0.0000000E+00;  1.0000000E+04;  0.0000000E+00;  0.0000000E+00;  0.0000000E+00;  0.0000000E+00;
  2.0999999E+00;  9.9999998E-03; -1.8000001E-01;785;  0.0000000E+00;  0.0000000E+00;  0.0000000E+00;  1.0000000E+03;  4.0000001E-01;  0.0000000E+00;0;  0.0000000E+00;  0.0000000E+00;  0.0000000E+00;0;  0.0000000E+00;  1.0000000E+04;  0.0000000E+00;  0.0000000E+00;  1.0000000E+04;  0.0000000E+00;  1.0000000E+04;  0.0000000E+00;  0.0000000E+00;  0.0000000E+00;  0.0000000E+00;
  2.0999999E+00;  9.9999998E-03; -1.6000000E-01;786;  0.0000000E+00;  0.0000000E+00;  0.0000000E+00;  1.0000000E+03;  4.0000001E-01;  0.0000000E+00;0;  0.0000000E+00;  0.0000000E+00;  0.0000000E+00;0;  0.0000000E+00;  1.0000000E+04;  0.0000000E+00;  0.0000000E+00;  1.0000000E+04;  0.0000000E+00;  1.0000000E+04;  0.0000000E+00;  0.0000000E+00;  0.0000000E+00;  0.0000000E+00;
  2.0999999E+00;  9.9999998E-03; -1.4000000E-01;787;  0.0000000E+00;  0.0000000E+00;  0.0000000E+00;  1.0000000E+03;  4.0000001E-01;  0.0000000E+00;0;  0.0000000E+00;  0.0000000E+00;  0.0000000E+00;0;  0.0000000E+00;  1.0000000E+04;  0.0000000E+00;  0.0000000E+00;  1.0000000E+04;  0.0000000E+00;  1.0000000E+04;  0.0000000E+00;  0.0000000E+00;  0.0000000E+00;  0.0000000E+00;
  2.0999999E+00;  9.9999998E-03; -1.2000000E-01;788;  0.0000000E+00;  0.0000000E+00;  0.0000000E+00;  1.0000000E+03;  4.0000001E-01;  0.0000000E+00;0;  0.0000000E+00;  0.0000000E+00;  0.0000000E+00;0;  0.0000000E+00;  1.0000000E+04;  0.0000000E+00;  0.0000000E+00;  1.0000000E+04;  0.0000000E+00;  1.0000000E+04;  0.0000000E+00;  0.0000000E+00;  0.0000000E+00;  0.0000000E+00;
  2.0999999E+00;  9.9999998E-03; -1.0000000E-01;789;  0.0000000E+00;  0.0000000E+00;  0.0000000E+00;  1.0000000E+03;  4.0000001E-01;  0.0000000E+00;0;  0.0000000E+00;  0.0000000E+00;  0.0000000E+00;0;  0.0000000E+00;  1.0000000E+04;  0.0000000E+00;  0.0000000E+00;  1.0000000E+04;  0.0000000E+00;  1.0000000E+04;  0.0000000E+00;  0.0000000E+00;  0.0000000E+00;  0.0000000E+00;
  2.0999999E+00;  9.9999998E-03; -7.9999998E-02;790;  0.0000000E+00;  0.0000000E+00;  0.0000000E+00;  1.0000000E+03;  4.0000001E-01;  0.0000000E+00;0;  0.0000000E+00;  0.0000000E+00;  0.0000000E+00;0;  0.0000000E+00;  1.0000000E+04;  0.0000000E+00;  0.0000000E+00;  1.0000000E+04;  0.0000000E+00;  1.0000000E+04;  0.0000000E+00;  0.0000000E+00;  0.0000000E+00;  0.0000000E+00;
  2.0999999E+00;  9.9999998E-03; -5.9999999E-02;791;  0.0000000E+00;  0.0000000E+00;  0.0000000E+00;  1.0000000E+03;  4.0000001E-01;  0.0000000E+00;0;  0.0000000E+00;  0.0000000E+00;  0.0000000E+00;0;  0.0000000E+00;  1.0000000E+04;  0.0000000E+00;  0.0000000E+00;  1.0000000E+04;  0.0000000E+00;  1.0000000E+04;  0.0000000E+00;  0.0000000E+00;  0.0000000E+00;  0.0000000E+00;
  2.0999999E+00;  9.9999998E-03; -3.9999999E-02;792;  0.0000000E+00;  0.0000000E+00;  0.0000000E+00;  1.0000000E+03;  4.0000001E-01;  0.0000000E+00;0;  0.0000000E+00;  0.0000000E+00;  0.0000000E+00;0;  0.0000000E+00;  1.0000000E+04;  0.0000000E+00;  0.0000000E+00;  1.0000000E+04;  0.0000000E+00;  1.0000000E+04;  0.0000000E+00;  0.0000000E+00;  0.0000000E+00;  0.0000000E+00;
  2.0999999E+00;  9.9999998E-03; -2.0000000E-02;793;  0.0000000E+00;  0.0000000E+00;  0.0000000E+00;  1.0000000E+03;  4.0000001E-01;  0.0000000E+00;0;  0.0000000E+00;  0.0000000E+00;  0.0000000E+00;0;  0.0000000E+00;  1.0000000E+04;  0.0000000E+00;  0.0000000E+00;  1.0000000E+04;  0.0000000E+00;  1.0000000E+04;  0.0000000E+00;  0.0000000E+00;  0.0000000E+00;  0.0000000E+00;
  2.0999999E+00;  9.9999998E-03;  0.0000000E+00;794;  0.0000000E+00;  0.0000000E+00;  0.0000000E+00;  1.0000000E+03;  4.0000001E-01;  0.0000000E+00;0;  0.0000000E+00;  0.0000000E+00;  0.0000000E+00;0;  0.0000000E+00;  1.0000000E+04;  0.0000000E+00;  0.0000000E+00;  1.0000000E+04;  0.0000000E+00;  1.0000000E+04;  0.0000000E+00;  0.0000000E+00;  0.0000000E+00;  0.0000000E+00;
  2.0999999E+00;  9.9999998E-03;  2.0000000E-02;795;  0.0000000E+00;  0.0000000E+00;  0.0000000E+00;  1.0000000E+03;  4.0000001E-01;  0.0000000E+00;0;  0.0000000E+00;  0.0000000E+00;  0.0000000E+00;0;  0.0000000E+00;  1.0000000E+04;  0.0000000E+00;  0.0000000E+00;  1.0000000E+04;  0.0000000E+00;  1.0000000E+04;  0.0000000E+00;  0.0000000E+00;  0.0000000E+00;  0.0000000E+00;
  2.0999999E+00;  9.9999998E-03;  3.9999999E-02;796;  0.0000000E+00;  0.0000000E+00;  0.0000000E+00;  1.0000000E+03;  4.0000001E-01;  0.0000000E+00;0;  0.0000000E+00;  0.0000000E+00;  0.0000000E+00;0;  0.0000000E+00;  1.0000000E+04;  0.0000000E+00;  0.0000000E+00;  1.0000000E+04;  0.0000000E+00;  1.0000000E+04;  0.0000000E+00;  0.0000000E+00;  0.0000000E+00;  0.0000000E+00;
  2.0999999E+00;  9.9999998E-03;  5.9999999E-02;797;  0.0000000E+00;  0.0000000E+00;  0.0000000E+00;  1.0000000E+03;  4.0000001E-01;  0.0000000E+00;0;  0.0000000E+00;  0.0000000E+00;  0.0000000E+00;0;  0.0000000E+00;  1.0000000E+04;  0.0000000E+00;  0.0000000E+00;  1.0000000E+04;  0.0000000E+00;  1.0000000E+04;  0.0000000E+00;  0.0000000E+00;  0.0000000E+00;  0.0000000E+00;
  2.0999999E+00;  9.9999998E-03;  7.9999998E-02;798;  0.0000000E+00;  0.0000000E+00;  0.0000000E+00;  1.0000000E+03;  4.0000001E-01;  0.0000000E+00;0;  0.0000000E+00;  0.0000000E+00;  0.0000000E+00;0;  0.0000000E+00;  1.0000000E+04;  0.0000000E+00;  0.0000000E+00;  1.0000000E+04;  0.0000000E+00;  1.0000000E+04;  0.0000000E+00;  0.0000000E+00;  0.0000000E+00;  0.0000000E+00;
  2.0999999E+00;  9.9999998E-03;  1.0000000E-01;799;  0.0000000E+00;  0.0000000E+00;  0.0000000E+00;  1.0000000E+03;  4.0000001E-01;  0.0000000E+00;0;  0.0000000E+00;  0.0000000E+00;  0.0000000E+00;0;  0.0000000E+00;  1.0000000E+04;  0.0000000E+00;  0.0000000E+00;  1.0000000E+04;  0.0000000E+00;  1.0000000E+04;  0.0000000E+00;  0.0000000E+00;  0.0000000E+00;  0.0000000E+00;
  2.0999999E+00;  9.9999998E-03;  1.2000000E-01;800;  0.0000000E+00;  0.0000000E+00;  0.0000000E+00;  1.0000000E+03;  4.0000001E-01;  0.0000000E+00;0;  0.0000000E+00;  0.0000000E+00;  0.0000000E+00;0;  0.0000000E+00;  1.0000000E+04;  0.0000000E+00;  0.0000000E+00;  1.0000000E+04;  0.0000000E+00;  1.0000000E+04;  0.0000000E+00;  0.0000000E+00;  0.0000000E+00;  0.0000000E+00;
  2.0999999E+00;  9.9999998E-03;  1.4000000E-01;801;  0.0000000E+00;  0.0000000E+00;  0.0000000E+00;  1.0000000E+03;  4.0000001E-01;  0.0000000E+00;0;  0.0000000E+00;  0.0000000E+00;  0.0000000E+00;0;  0.0000000E+00;  1.0000000E+04;  0.0000000E+00;  0.0000000E+00;  1.0000000E+04;  0.0000000E+00;  1.0000000E+04;  0.0000000E+00;  0.0000000E+00;  0.0000000E+00;  0.0000000E+00;
  2.0999999E+00;  9.9999998E-03;  1.6000000E-01;802;  0.0000000E+00;  0.0000000E+00;  0.0000000E+00;  1.0000000E+03;  4.0000001E-01;  0.0000000E+00;0;  0.0000000E+00;  0.0000000E+00;  0.0000000E+00;0;  0.0000000E+00;  1.0000000E+04;  0.0000000E+00;  0.0000000E+00;  1.0000000E+04;  0.0000000E+00;  1.0000000E+04;  0.0000000E+00;  0.0000000E+00;  0.0000000E+00;  0.0000000E+00;
  2.0999999E+00;  9.9999998E-03;  1.8000001E-01;803;  0.0000000E+00;  0.0000000E+00;  0.0000000E+00;  1.0000000E+03;  4.0000001E-01;  0.0000000E+00;0;  0.0000000E+00;  0.0000000E+00;  0.0000000E+00;0;  0.0000000E+00;  1.0000000E+04;  0.0000000E+00;  0.0000000E+00;  1.0000000E+04;  0.0000000E+00;  1.0000000E+04;  0.0000000E+00;  0.0000000E+00;  0.0000000E+00;  0.0000000E+00;
  2.0999999E+00;  9.9999998E-03;  2.0000000E-01;804;  0.0000000E+00;  0.0000000E+00;  0.0000000E+00;  1.0000000E+03;  4.0000001E-01;  0.0000000E+00;0;  0.0000000E+00;  0.0000000E+00;  0.0000000E+00;0;  0.0000000E+00;  1.0000000E+04;  0.0000000E+00;  0.0000000E+00;  1.0000000E+04;  0.0000000E+00;  1.0000000E+04;  0.0000000E+00;  0.0000000E+00;  0.0000000E+00;  0.0000000E+00;
  2.0999999E+00;  9.9999998E-03;  2.2000000E-01;805;  0.0000000E+00;  0.0000000E+00;  0.0000000E+00;  1.0000000E+03;  4.0000001E-01;  0.0000000E+00;0;  0.0000000E+00;  0.0000000E+00;  0.0000000E+00;0;  0.0000000E+00;  1.0000000E+04;  0.0000000E+00;  0.0000000E+00;  1.0000000E+04;  0.0000000E+00;  1.0000000E+04;  0.0000000E+00;  0.0000000E+00;  0.0000000E+00;  0.0000000E+00;
  2.0999999E+00;  9.9999998E-03;  2.3999999E-01;806;  0.0000000E+00;  0.0000000E+00;  0.0000000E+00;  1.0000000E+03;  4.0000001E-01;  0.0000000E+00;0;  0.0000000E+00;  0.0000000E+00;  0.0000000E+00;0;  0.0000000E+00;  1.0000000E+04;  0.0000000E+00;  0.0000000E+00;  1.0000000E+04;  0.0000000E+00;  1.0000000E+04;  0.0000000E+00;  0.0000000E+00;  0.0000000E+00;  0.0000000E+00;
  2.0999999E+00;  9.9999998E-03;  2.5999999E-01;807;  0.0000000E+00;  0.0000000E+00;  0.0000000E+00;  1.0000000E+03;  4.0000001E-01;  0.0000000E+00;0;  0.0000000E+00;  0.0000000E+00;  0.0000000E+00;0;  0.0000000E+00;  1.0000000E+04;  0.0000000E+00;  0.0000000E+00;  1.0000000E+04;  0.0000000E+00;  1.0000000E+04;  0.0000000E+00;  0.0000000E+00;  0.0000000E+00;  0.0000000E+00;
  2.0999999E+00;  9.9999998E-03;  2.8000000E-01;808;  0.0000000E+00;  0.0000000E+00;  0.0000000E+00;  1.0000000E+03;  4.0000001E-01;  0.0000000E+00;0;  0.0000000E+00;  0.0000000E+00;  0.0000000E+00;0;  0.0000000E+00;  1.0000000E+04;  0.0000000E+00;  0.0000000E+00;  1.0000000E+04;  0.0000000E+00;  1.0000000E+04;  0.0000000E+00;  0.0000000E+00;  0.0000000E+00;  0.0000000E+00;
  2.0999999E+00;  9.9999998E-03;  3.0000001E-01;809;  0.0000000E+00;  0.0000000E+00;  0.0000000E+00;  1.0000000E+03;  4.0000001E-01;  0.0000000E+00;0;  0.0000000E+00;  0.0000000E+00;  0.0000000E+00;0;  0.0000000E+00;  1.0000000E+04;  0.0000000E+00;  0.0000000E+00;  1.0000000E+04;  0.0000000E+00;  1.0000000E+04;  0.0000000E+00;  0.0000000E+00;  0.0000000E+00;  0.0000000E+00;
  2.0999999E+00;  9.9999998E-03;  3.1999999E-01;810;  0.0000000E+00;  0.0000000E+00;  0.0000000E+00;  1.0000000E+03;  4.0000001E-01;  0.0000000E+00;0;  0.0000000E+00;  0.0000000E+00;  0.0000000E+00;0;  0.0000000E+00;  1.0000000E+04;  0.0000000E+00;  0.0000000E+00;  1.0000000E+04;  0.0000000E+00;  1.0000000E+04;  0.0000000E+00;  0.0000000E+00;  0.0000000E+00;  0.0000000E+00;
  2.0999999E+00;  9.9999998E-03;  3.4000000E-01;811;  0.0000000E+00;  0.0000000E+00;  0.0000000E+00;  1.0000000E+03;  4.0000001E-01;  0.0000000E+00;0;  0.0000000E+00;  0.0000000E+00;  0.0000000E+00;0;  0.0000000E+00;  1.0000000E+04;  0.0000000E+00;  0.0000000E+00;  1.0000000E+04;  0.0000000E+00;  1.0000000E+04;  0.0000000E+00;  0.0000000E+00;  0.0000000E+00;  0.0000000E+00;
  2.0999999E+00;  9.9999998E-03;  3.6000001E-01;812;  0.0000000E+00;  0.0000000E+00;  0.0000000E+00;  1.0000000E+03;  4.0000001E-01;  0.0000000E+00;0;  0.0000000E+00;  0.0000000E+00;  0.0000000E+00;0;  0.0000000E+00;  1.0000000E+04;  0.0000000E+00;  0.0000000E+00;  1.0000000E+04;  0.0000000E+00;  1.0000000E+04;  0.0000000E+00;  0.0000000E+00;  0.0000000E+00;  0.0000000E+00;
  2.0999999E+00;  9.9999998E-03;  3.8000000E-01;813;  0.0000000E+00;  0.0000000E+00;  0.0000000E+00;  1.0000000E+03;  4.0000001E-01;  0.0000000E+00;0;  0.0000000E+00;  0.0000000E+00;  0.0000000E+00;0;  0.0000000E+00;  1.0000000E+04;  0.0000000E+00;  0.0000000E+00;  1.0000000E+04;  0.0000000E+00;  1.0000000E+04;  0.0000000E+00;  0.0000000E+00;  0.0000000E+00;  0.0000000E+00;
  2.0999999E+00;  9.9999998E-03;  4.0000001E-01;814;  0.0000000E+00;  0.0000000E+00;  0.0000000E+00;  1.0000000E+03;  4.0000001E-01;  0.0000000E+00;0;  0.0000000E+00;  0.0000000E+00;  0.0000000E+00;0;  0.0000000E+00;  1.0000000E+04;  0.0000000E+00;  0.0000000E+00;  1.0000000E+04;  0.0000000E+00;  1.0000000E+04;  0.0000000E+00;  0.0000000E+00;  0.0000000E+00;  0.0000000E+00;
  2.1199999E+00;  9.9999998E-03; -4.1999999E-01;815;  0.0000000E+00;  0.0000000E+00;  0.0000000E+00;  1.0000000E+03;  4.0000001E-01;  0.0000000E+00;0;  0.0000000E+00;  0.0000000E+00;  0.0000000E+00;0;  0.0000000E+00;  1.0000000E+04;  0.0000000E+00;  0.0000000E+00;  1.0000000E+04;  0.0000000E+00;  1.0000000E+04;  0.0000000E+00;  0.0000000E+00;  0.0000000E+00;  0.0000000E+00;
  2.1199999E+00;  9.9999998E-03; -4.0000001E-01;816;  0.0000000E+00;  0.0000000E+00;  0.0000000E+00;  1.0000000E+03;  4.0000001E-01;  0.0000000E+00;0;  0.0000000E+00;  0.0000000E+00;  0.0000000E+00;0;  0.0000000E+00;  1.0000000E+04;  0.0000000E+00;  0.0000000E+00;  1.0000000E+04;  0.0000000E+00;  1.0000000E+04;  0.0000000E+00;  0.0000000E+00;  0.0000000E+00;  0.0000000E+00;
  2.1199999E+00;  9.9999998E-03; -3.8000000E-01;817;  0.0000000E+00;  0.0000000E+00;  0.0000000E+00;  1.0000000E+03;  4.0000001E-01;  0.0000000E+00;0;  0.0000000E+00;  0.0000000E+00;  0.0000000E+00;0;  0.0000000E+00;  1.0000000E+04;  0.0000000E+00;  0.0000000E+00;  1.0000000E+04;  0.0000000E+00;  1.0000000E+04;  0.0000000E+00;  0.0000000E+00;  0.0000000E+00;  0.0000000E+00;
  2.1199999E+00;  9.9999998E-03; -3.6000001E-01;818;  0.0000000E+00;  0.0000000E+00;  0.0000000E+00;  1.0000000E+03;  4.0000001E-01;  0.0000000E+00;0;  0.0000000E+00;  0.0000000E+00;  0.0000000E+00;0;  0.0000000E+00;  1.0000000E+04;  0.0000000E+00;  0.0000000E+00;  1.0000000E+04;  0.0000000E+00;  1.0000000E+04;  0.0000000E+00;  0.0000000E+00;  0.0000000E+00;  0.0000000E+00;
  2.1199999E+00;  9.9999998E-03; -3.4000000E-01;819;  0.0000000E+00;  0.0000000E+00;  0.0000000E+00;  1.0000000E+03;  4.0000001E-01;  0.0000000E+00;0;  0.0000000E+00;  0.0000000E+00;  0.0000000E+00;0;  0.0000000E+00;  1.0000000E+04;  0.0000000E+00;  0.0000000E+00;  1.0000000E+04;  0.0000000E+00;  1.0000000E+04;  0.0000000E+00;  0.0000000E+00;  0.0000000E+00;  0.0000000E+00;
  2.1199999E+00;  9.9999998E-03; -3.1999999E-01;820;  0.0000000E+00;  0.0000000E+00;  0.0000000E+00;  1.0000000E+03;  4.0000001E-01;  0.0000000E+00;0;  0.0000000E+00;  0.0000000E+00;  0.0000000E+00;0;  0.0000000E+00;  1.0000000E+04;  0.0000000E+00;  0.0000000E+00;  1.0000000E+04;  0.0000000E+00;  1.0000000E+04;  0.0000000E+00;  0.0000000E+00;  0.0000000E+00;  0.0000000E+00;
  2.1199999E+00;  9.9999998E-03; -3.0000001E-01;821;  0.0000000E+00;  0.0000000E+00;  0.0000000E+00;  1.0000000E+03;  4.0000001E-01;  0.0000000E+00;0;  0.0000000E+00;  0.0000000E+00;  0.0000000E+00;0;  0.0000000E+00;  1.0000000E+04;  0.0000000E+00;  0.0000000E+00;  1.0000000E+04;  0.0000000E+00;  1.0000000E+04;  0.0000000E+00;  0.0000000E+00;  0.0000000E+00;  0.0000000E+00;
  2.1199999E+00;  9.9999998E-03; -2.8000000E-01;822;  0.0000000E+00;  0.0000000E+00;  0.0000000E+00;  1.0000000E+03;  4.0000001E-01;  0.0000000E+00;0;  0.0000000E+00;  0.0000000E+00;  0.0000000E+00;0;  0.0000000E+00;  1.0000000E+04;  0.0000000E+00;  0.0000000E+00;  1.0000000E+04;  0.0000000E+00;  1.0000000E+04;  0.0000000E+00;  0.0000000E+00;  0.0000000E+00;  0.0000000E+00;
  2.1199999E+00;  9.9999998E-03; -2.5999999E-01;823;  0.0000000E+00;  0.0000000E+00;  0.0000000E+00;  1.0000000E+03;  4.0000001E-01;  0.0000000E+00;0;  0.0000000E+00;  0.0000000E+00;  0.0000000E+00;0;  0.0000000E+00;  1.0000000E+04;  0.0000000E+00;  0.0000000E+00;  1.0000000E+04;  0.0000000E+00;  1.0000000E+04;  0.0000000E+00;  0.0000000E+00;  0.0000000E+00;  0.0000000E+00;
  2.1199999E+00;  9.9999998E-03; -2.3999999E-01;824;  0.0000000E+00;  0.0000000E+00;  0.0000000E+00;  1.0000000E+03;  4.0000001E-01;  0.0000000E+00;0;  0.0000000E+00;  0.0000000E+00;  0.0000000E+00;0;  0.0000000E+00;  1.0000000E+04;  0.0000000E+00;  0.0000000E+00;  1.0000000E+04;  0.0000000E+00;  1.0000000E+04;  0.0000000E+00;  0.0000000E+00;  0.0000000E+00;  0.0000000E+00;
  2.1199999E+00;  9.9999998E-03; -2.2000000E-01;825;  0.0000000E+00;  0.0000000E+00;  0.0000000E+00;  1.0000000E+03;  4.0000001E-01;  0.0000000E+00;0;  0.0000000E+00;  0.0000000E+00;  0.0000000E+00;0;  0.0000000E+00;  1.0000000E+04;  0.0000000E+00;  0.0000000E+00;  1.0000000E+04;  0.0000000E+00;  1.0000000E+04;  0.0000000E+00;  0.0000000E+00;  0.0000000E+00;  0.0000000E+00;
  2.1199999E+00;  9.9999998E-03; -2.0000000E-01;826;  0.0000000E+00;  0.0000000E+00;  0.0000000E+00;  1.0000000E+03;  4.0000001E-01;  0.0000000E+00;0;  0.0000000E+00;  0.0000000E+00;  0.0000000E+00;0;  0.0000000E+00;  1.0000000E+04;  0.0000000E+00;  0.0000000E+00;  1.0000000E+04;  0.0000000E+00;  1.0000000E+04;  0.0000000E+00;  0.0000000E+00;  0.0000000E+00;  0.0000000E+00;
  2.1199999E+00;  9.9999998E-03; -1.8000001E-01;827;  0.0000000E+00;  0.0000000E+00;  0.0000000E+00;  1.0000000E+03;  4.0000001E-01;  0.0000000E+00;0;  0.0000000E+00;  0.0000000E+00;  0.0000000E+00;0;  0.0000000E+00;  1.0000000E+04;  0.0000000E+00;  0.0000000E+00;  1.0000000E+04;  0.0000000E+00;  1.0000000E+04;  0.0000000E+00;  0.0000000E+00;  0.0000000E+00;  0.0000000E+00;
  2.1199999E+00;  9.9999998E-03; -1.6000000E-01;828;  0.0000000E+00;  0.0000000E+00;  0.0000000E+00;  1.0000000E+03;  4.0000001E-01;  0.0000000E+00;0;  0.0000000E+00;  0.0000000E+00;  0.0000000E+00;0;  0.0000000E+00;  1.0000000E+04;  0.0000000E+00;  0.0000000E+00;  1.0000000E+04;  0.0000000E+00;  1.0000000E+04;  0.0000000E+00;  0.0000000E+00;  0.0000000E+00;  0.0000000E+00;
  2.1199999E+00;  9.9999998E-03; -1.4000000E-01;829;  0.0000000E+00;  0.0000000E+00;  0.0000000E+00;  1.0000000E+03;  4.0000001E-01;  0.0000000E+00;0;  0.0000000E+00;  0.0000000E+00;  0.0000000E+00;0;  0.0000000E+00;  1.0000000E+04;  0.0000000E+00;  0.0000000E+00;  1.0000000E+04;  0.0000000E+00;  1.0000000E+04;  0.0000000E+00;  0.0000000E+00;  0.0000000E+00;  0.0000000E+00;
  2.1199999E+00;  9.9999998E-03; -1.2000000E-01;830;  0.0000000E+00;  0.0000000E+00;  0.0000000E+00;  1.0000000E+03;  4.0000001E-01;  0.0000000E+00;0;  0.0000000E+00;  0.0000000E+00;  0.0000000E+00;0;  0.0000000E+00;  1.0000000E+04;  0.0000000E+00;  0.0000000E+00;  1.0000000E+04;  0.0000000E+00;  1.0000000E+04;  0.0000000E+00;  0.0000000E+00;  0.0000000E+00;  0.0000000E+00;
  2.1199999E+00;  9.9999998E-03; -1.0000000E-01;831;  0.0000000E+00;  0.0000000E+00;  0.0000000E+00;  1.0000000E+03;  4.0000001E-01;  0.0000000E+00;0;  0.0000000E+00;  0.0000000E+00;  0.0000000E+00;0;  0.0000000E+00;  1.0000000E+04;  0.0000000E+00;  0.0000000E+00;  1.0000000E+04;  0.0000000E+00;  1.0000000E+04;  0.0000000E+00;  0.0000000E+00;  0.0000000E+00;  0.0000000E+00;
  2.1199999E+00;  9.9999998E-03; -7.9999998E-02;832;  0.0000000E+00;  0.0000000E+00;  0.0000000E+00;  1.0000000E+03;  4.0000001E-01;  0.0000000E+00;0;  0.0000000E+00;  0.0000000E+00;  0.0000000E+00;0;  0.0000000E+00;  1.0000000E+04;  0.0000000E+00;  0.0000000E+00;  1.0000000E+04;  0.0000000E+00;  1.0000000E+04;  0.0000000E+00;  0.0000000E+00;  0.0000000E+00;  0.0000000E+00;
  2.1199999E+00;  9.9999998E-03; -5.9999999E-02;833;  0.0000000E+00;  0.0000000E+00;  0.0000000E+00;  1.0000000E+03;  4.0000001E-01;  0.0000000E+00;0;  0.0000000E+00;  0.0000000E+00;  0.0000000E+00;0;  0.0000000E+00;  1.0000000E+04;  0.0000000E+00;  0.0000000E+00;  1.0000000E+04;  0.0000000E+00;  1.0000000E+04;  0.0000000E+00;  0.0000000E+00;  0.0000000E+00;  0.0000000E+00;
  2.1199999E+00;  9.9999998E-03; -3.9999999E-02;834;  0.0000000E+00;  0.0000000E+00;  0.0000000E+00;  1.0000000E+03;  4.0000001E-01;  0.0000000E+00;0;  0.0000000E+00;  0.0000000E+00;  0.0000000E+00;0;  0.0000000E+00;  1.0000000E+04;  0.0000000E+00;  0.0000000E+00;  1.0000000E+04;  0.0000000E+00;  1.0000000E+04;  0.0000000E+00;  0.0000000E+00;  0.0000000E+00;  0.0000000E+00;
  2.1199999E+00;  9.9999998E-03; -2.0000000E-02;835;  0.0000000E+00;  0.0000000E+00;  0.0000000E+00;  1.0000000E+03;  4.0000001E-01;  0.0000000E+00;0;  0.0000000E+00;  0.0000000E+00;  0.0000000E+00;0;  0.0000000E+00;  1.0000000E+04;  0.0000000E+00;  0.0000000E+00;  1.0000000E+04;  0.0000000E+00;  1.0000000E+04;  0.0000000E+00;  0.0000000E+00;  0.0000000E+00;  0.0000000E+00;
  2.1199999E+00;  9.9999998E-03;  0.0000000E+00;836;  0.0000000E+00;  0.0000000E+00;  0.0000000E+00;  1.0000000E+03;  4.0000001E-01;  0.0000000E+00;0;  0.0000000E+00;  0.0000000E+00;  0.0000000E+00;0;  0.0000000E+00;  1.0000000E+04;  0.0000000E+00;  0.0000000E+00;  1.0000000E+04;  0.0000000E+00;  1.0000000E+04;  0.0000000E+00;  0.0000000E+00;  0.0000000E+00;  0.0000000E+00;
  2.1199999E+00;  9.9999998E-03;  2.0000000E-02;837;  0.0000000E+00;  0.0000000E+00;  0.0000000E+00;  1.0000000E+03;  4.0000001E-01;  0.0000000E+00;0;  0.0000000E+00;  0.0000000E+00;  0.0000000E+00;0;  0.0000000E+00;  1.0000000E+04;  0.0000000E+00;  0.0000000E+00;  1.0000000E+04;  0.0000000E+00;  1.0000000E+04;  0.0000000E+00;  0.0000000E+00;  0.0000000E+00;  0.0000000E+00;
  2.1199999E+00;  9.9999998E-03;  3.9999999E-02;838;  0.0000000E+00;  0.0000000E+00;  0.0000000E+00;  1.0000000E+03;  4.0000001E-01;  0.0000000E+00;0;  0.0000000E+00;  0.0000000E+00;  0.0000000E+00;0;  0.0000000E+00;  1.0000000E+04;  0.0000000E+00;  0.0000000E+00;  1.0000000E+04;  0.0000000E+00;  1.0000000E+04;  0.0000000E+00;  0.0000000E+00;  0.0000000E+00;  0.0000000E+00;
  2.1199999E+00;  9.9999998E-03;  5.9999999E-02;839;  0.0000000E+00;  0.0000000E+00;  0.0000000E+00;  1.0000000E+03;  4.0000001E-01;  0.0000000E+00;0;  0.0000000E+00;  0.0000000E+00;  0.0000000E+00;0;  0.0000000E+00;  1.0000000E+04;  0.0000000E+00;  0.0000000E+00;  1.0000000E+04;  0.0000000E+00;  1.0000000E+04;  0.0000000E+00;  0.0000000E+00;  0.0000000E+00;  0.0000000E+00;
  2.1199999E+00;  9.9999998E-03;  7.9999998E-02;840;  0.0000000E+00;  0.0000000E+00;  0.0000000E+00;  1.0000000E+03;  4.0000001E-01;  0.0000000E+00;0;  0.0000000E+00;  0.0000000E+00;  0.0000000E+00;0;  0.0000000E+00;  1.0000000E+04;  0.0000000E+00;  0.0000000E+00;  1.0000000E+04;  0.0000000E+00;  1.0000000E+04;  0.0000000E+00;  0.0000000E+00;  0.0000000E+00;  0.0000000E+00;
  2.1199999E+00;  9.9999998E-03;  1.0000000E-01;841;  0.0000000E+00;  0.0000000E+00;  0.0000000E+00;  1.0000000E+03;  4.0000001E-01;  0.0000000E+00;0;  0.0000000E+00;  0.0000000E+00;  0.0000000E+00;0;  0.0000000E+00;  1.0000000E+04;  0.0000000E+00;  0.0000000E+00;  1.0000000E+04;  0.0000000E+00;  1.0000000E+04;  0.0000000E+00;  0.0000000E+00;  0.0000000E+00;  0.0000000E+00;
  2.1199999E+00;  9.9999998E-03;  1.2000000E-01;842;  0.0000000E+00;  0.0000000E+00;  0.0000000E+00;  1.0000000E+03;  4.0000001E-01;  0.0000000E+00;0;  0.0000000E+00;  0.0000000E+00;  0.0000000E+00;0;  0.0000000E+00;  1.0000000E+04;  0.0000000E+00;  0.0000000E+00;  1.0000000E+04;  0.0000000E+00;  1.0000000E+04;  0.0000000E+00;  0.0000000E+00;  0.0000000E+00;  0.0000000E+00;
  2.1199999E+00;  9.9999998E-03;  1.4000000E-01;843;  0.0000000E+00;  0.0000000E+00;  0.0000000E+00;  1.0000000E+03;  4.0000001E-01;  0.0000000E+00;0;  0.0000000E+00;  0.0000000E+00;  0.0000000E+00;0;  0.0000000E+00;  1.0000000E+04;  0.0000000E+00;  0.0000000E+00;  1.0000000E+04;  0.0000000E+00;  1.0000000E+04;  0.0000000E+00;  0.0000000E+00;  0.0000000E+00;  0.0000000E+00;
  2.1199999E+00;  9.9999998E-03;  1.6000000E-01;844;  0.0000000E+00;  0.0000000E+00;  0.0000000E+00;  1.0000000E+03;  4.0000001E-01;  0.0000000E+00;0;  0.0000000E+00;  0.0000000E+00;  0.0000000E+00;0;  0.0000000E+00;  1.0000000E+04;  0.0000000E+00;  0.0000000E+00;  1.0000000E+04;  0.0000000E+00;  1.0000000E+04;  0.0000000E+00;  0.0000000E+00;  0.0000000E+00;  0.0000000E+00;
  2.1199999E+00;  9.9999998E-03;  1.8000001E-01;845;  0.0000000E+00;  0.0000000E+00;  0.0000000E+00;  1.0000000E+03;  4.0000001E-01;  0.0000000E+00;0;  0.0000000E+00;  0.0000000E+00;  0.0000000E+00;0;  0.0000000E+00;  1.0000000E+04;  0.0000000E+00;  0.0000000E+00;  1.0000000E+04;  0.0000000E+00;  1.0000000E+04;  0.0000000E+00;  0.0000000E+00;  0.0000000E+00;  0.0000000E+00;
  2.1199999E+00;  9.9999998E-03;  2.0000000E-01;846;  0.0000000E+00;  0.0000000E+00;  0.0000000E+00;  1.0000000E+03;  4.0000001E-01;  0.0000000E+00;0;  0.0000000E+00;  0.0000000E+00;  0.0000000E+00;0;  0.0000000E+00;  1.0000000E+04;  0.0000000E+00;  0.0000000E+00;  1.0000000E+04;  0.0000000E+00;  1.0000000E+04;  0.0000000E+00;  0.0000000E+00;  0.0000000E+00;  0.0000000E+00;
  2.1199999E+00;  9.9999998E-03;  2.2000000E-01;847;  0.0000000E+00;  0.0000000E+00;  0.0000000E+00;  1.0000000E+03;  4.0000001E-01;  0.0000000E+00;0;  0.0000000E+00;  0.0000000E+00;  0.0000000E+00;0;  0.0000000E+00;  1.0000000E+04;  0.0000000E+00;  0.0000000E+00;  1.0000000E+04;  0.0000000E+00;  1.0000000E+04;  0.0000000E+00;  0.0000000E+00;  0.0000000E+00;  0.0000000E+00;
  2.1199999E+00;  9.9999998E-03;  2.3999999E-01;848;  0.0000000E+00;  0.0000000E+00;  0.0000000E+00;  1.0000000E+03;  4.0000001E-01;  0.0000000E+00;0;  0.0000000E+00;  0.0000000E+00;  0.0000000E+00;0;  0.0000000E+00;  1.0000000E+04;  0.0000000E+00;  0.0000000E+00;  1.0000000E+04;  0.0000000E+00;  1.0000000E+04;  0.0000000E+00;  0.0000000E+00;  0.0000000E+00;  0.0000000E+00;
  2.1199999E+00;  9.9999998E-03;  2.5999999E-01;849;  0.0000000E+00;  0.0000000E+00;  0.0000000E+00;  1.0000000E+03;  4.0000001E-01;  0.0000000E+00;0;  0.0000000E+00;  0.0000000E+00;  0.0000000E+00;0;  0.0000000E+00;  1.0000000E+04;  0.0000000E+00;  0.0000000E+00;  1.0000000E+04;  0.0000000E+00;  1.0000000E+04;  0.0000000E+00;  0.0000000E+00;  0.0000000E+00;  0.0000000E+00;
  2.1199999E+00;  9.9999998E-03;  2.8000000E-01;850;  0.0000000E+00;  0.0000000E+00;  0.0000000E+00;  1.0000000E+03;  4.0000001E-01;  0.0000000E+00;0;  0.0000000E+00;  0.0000000E+00;  0.0000000E+00;0;  0.0000000E+00;  1.0000000E+04;  0.0000000E+00;  0.0000000E+00;  1.0000000E+04;  0.0000000E+00;  1.0000000E+04;  0.0000000E+00;  0.0000000E+00;  0.0000000E+00;  0.0000000E+00;
  2.1199999E+00;  9.9999998E-03;  3.0000001E-01;851;  0.0000000E+00;  0.0000000E+00;  0.0000000E+00;  1.0000000E+03;  4.0000001E-01;  0.0000000E+00;0;  0.0000000E+00;  0.0000000E+00;  0.0000000E+00;0;  0.0000000E+00;  1.0000000E+04;  0.0000000E+00;  0.0000000E+00;  1.0000000E+04;  0.0000000E+00;  1.0000000E+04;  0.0000000E+00;  0.0000000E+00;  0.0000000E+00;  0.0000000E+00;
  2.1199999E+00;  9.9999998E-03;  3.1999999E-01;852;  0.0000000E+00;  0.0000000E+00;  0.0000000E+00;  1.0000000E+03;  4.0000001E-01;  0.0000000E+00;0;  0.0000000E+00;  0.0000000E+00;  0.0000000E+00;0;  0.0000000E+00;  1.0000000E+04;  0.0000000E+00;  0.0000000E+00;  1.0000000E+04;  0.0000000E+00;  1.0000000E+04;  0.0000000E+00;  0.0000000E+00;  0.0000000E+00;  0.0000000E+00;
  2.1199999E+00;  9.9999998E-03;  3.4000000E-01;853;  0.0000000E+00;  0.0000000E+00;  0.0000000E+00;  1.0000000E+03;  4.0000001E-01;  0.0000000E+00;0;  0.0000000E+00;  0.0000000E+00;  0.0000000E+00;0;  0.0000000E+00;  1.0000000E+04;  0.0000000E+00;  0.0000000E+00;  1.0000000E+04;  0.0000000E+00;  1.0000000E+04;  0.0000000E+00;  0.0000000E+00;  0.0000000E+00;  0.0000000E+00;
  2.1199999E+00;  9.9999998E-03;  3.6000001E-01;854;  0.0000000E+00;  0.0000000E+00;  0.0000000E+00;  1.0000000E+03;  4.0000001E-01;  0.0000000E+00;0;  0.0000000E+00;  0.0000000E+00;  0.0000000E+00;0;  0.0000000E+00;  1.0000000E+04;  0.0000000E+00;  0.0000000E+00;  1.0000000E+04;  0.0000000E+00;  1.0000000E+04;  0.0000000E+00;  0.0000000E+00;  0.0000000E+00;  0.0000000E+00;
  2.1199999E+00;  9.9999998E-03;  3.8000000E-01;855;  0.0000000E+00;  0.0000000E+00;  0.0000000E+00;  1.0000000E+03;  4.0000001E-01;  0.0000000E+00;0;  0.0000000E+00;  0.0000000E+00;  0.0000000E+00;0;  0.0000000E+00;  1.0000000E+04;  0.0000000E+00;  0.0000000E+00;  1.0000000E+04;  0.0000000E+00;  1.0000000E+04;  0.0000000E+00;  0.0000000E+00;  0.0000000E+00;  0.0000000E+00;
  2.1199999E+00;  9.9999998E-03;  4.0000001E-01;856;  0.0000000E+00;  0.0000000E+00;  0.0000000E+00;  1.0000000E+03;  4.0000001E-01;  0.0000000E+00;0;  0.0000000E+00;  0.0000000E+00;  0.0000000E+00;0;  0.0000000E+00;  1.0000000E+04;  0.0000000E+00;  0.0000000E+00;  1.0000000E+04;  0.0000000E+00;  1.0000000E+04;  0.0000000E+00;  0.0000000E+00;  0.0000000E+00;  0.0000000E+00;
  2.1400001E+00;  9.9999998E-03; -3.8000000E-01;857;  0.0000000E+00;  0.0000000E+00;  0.0000000E+00;  1.0000000E+03;  4.0000001E-01;  0.0000000E+00;0;  0.0000000E+00;  0.0000000E+00;  0.0000000E+00;0;  0.0000000E+00;  1.0000000E+04;  0.0000000E+00;  0.0000000E+00;  1.0000000E+04;  0.0000000E+00;  1.0000000E+04;  0.0000000E+00;  0.0000000E+00;  0.0000000E+00;  0.0000000E+00;
  2.1400001E+00;  9.9999998E-03; -3.6000001E-01;858;  0.0000000E+00;  0.0000000E+00;  0.0000000E+00;  1.0000000E+03;  4.0000001E-01;  0.0000000E+00;0;  0.0000000E+00;  0.0000000E+00;  0.0000000E+00;0;  0.0000000E+00;  1.0000000E+04;  0.0000000E+00;  0.0000000E+00;  1.0000000E+04;  0.0000000E+00;  1.0000000E+04;  0.0000000E+00;  0.0000000E+00;  0.0000000E+00;  0.0000000E+00;
  2.1400001E+00;  9.9999998E-03; -3.4000000E-01;859;  0.0000000E+00;  0.0000000E+00;  0.0000000E+00;  1.0000000E+03;  4.0000001E-01;  0.0000000E+00;0;  0.0000000E+00;  0.0000000E+00;  0.0000000E+00;0;  0.0000000E+00;  1.0000000E+04;  0.0000000E+00;  0.0000000E+00;  1.0000000E+04;  0.0000000E+00;  1.0000000E+04;  0.0000000E+00;  0.0000000E+00;  0.0000000E+00;  0.0000000E+00;
  2.1400001E+00;  9.9999998E-03; -3.1999999E-01;860;  0.0000000E+00;  0.0000000E+00;  0.0000000E+00;  1.0000000E+03;  4.0000001E-01;  0.0000000E+00;0;  0.0000000E+00;  0.0000000E+00;  0.0000000E+00;0;  0.0000000E+00;  1.0000000E+04;  0.0000000E+00;  0.0000000E+00;  1.0000000E+04;  0.0000000E+00;  1.0000000E+04;  0.0000000E+00;  0.0000000E+00;  0.0000000E+00;  0.0000000E+00;
  2.1400001E+00;  9.9999998E-03; -3.0000001E-01;861;  0.0000000E+00;  0.0000000E+00;  0.0000000E+00;  1.0000000E+03;  4.0000001E-01;  0.0000000E+00;0;  0.0000000E+00;  0.0000000E+00;  0.0000000E+00;0;  0.0000000E+00;  1.0000000E+04;  0.0000000E+00;  0.0000000E+00;  1.0000000E+04;  0.0000000E+00;  1.0000000E+04;  0.0000000E+00;  0.0000000E+00;  0.0000000E+00;  0.0000000E+00;
  2.1400001E+00;  9.9999998E-03; -2.8000000E-01;862;  0.0000000E+00;  0.0000000E+00;  0.0000000E+00;  1.0000000E+03;  4.0000001E-01;  0.0000000E+00;0;  0.0000000E+00;  0.0000000E+00;  0.0000000E+00;0;  0.0000000E+00;  1.0000000E+04;  0.0000000E+00;  0.0000000E+00;  1.0000000E+04;  0.0000000E+00;  1.0000000E+04;  0.0000000E+00;  0.0000000E+00;  0.0000000E+00;  0.0000000E+00;
  2.1400001E+00;  9.9999998E-03; -2.5999999E-01;863;  0.0000000E+00;  0.0000000E+00;  0.0000000E+00;  1.0000000E+03;  4.0000001E-01;  0.0000000E+00;0;  0.0000000E+00;  0.0000000E+00;  0.0000000E+00;0;  0.0000000E+00;  1.0000000E+04;  0.0000000E+00;  0.0000000E+00;  1.0000000E+04;  0.0000000E+00;  1.0000000E+04;  0.0000000E+00;  0.0000000E+00;  0.0000000E+00;  0.0000000E+00;
  2.1400001E+00;  9.9999998E-03; -2.3999999E-01;864;  0.0000000E+00;  0.0000000E+00;  0.0000000E+00;  1.0000000E+03;  4.0000001E-01;  0.0000000E+00;0;  0.0000000E+00;  0.0000000E+00;  0.0000000E+00;0;  0.0000000E+00;  1.0000000E+04;  0.0000000E+00;  0.0000000E+00;  1.0000000E+04;  0.0000000E+00;  1.0000000E+04;  0.0000000E+00;  0.0000000E+00;  0.0000000E+00;  0.0000000E+00;
  2.1400001E+00;  9.9999998E-03; -2.2000000E-01;865;  0.0000000E+00;  0.0000000E+00;  0.0000000E+00;  1.0000000E+03;  4.0000001E-01;  0.0000000E+00;0;  0.0000000E+00;  0.0000000E+00;  0.0000000E+00;0;  0.0000000E+00;  1.0000000E+04;  0.0000000E+00;  0.0000000E+00;  1.0000000E+04;  0.0000000E+00;  1.0000000E+04;  0.0000000E+00;  0.0000000E+00;  0.0000000E+00;  0.0000000E+00;
  2.1400001E+00;  9.9999998E-03; -2.0000000E-01;866;  0.0000000E+00;  0.0000000E+00;  0.0000000E+00;  1.0000000E+03;  4.0000001E-01;  0.0000000E+00;0;  0.0000000E+00;  0.0000000E+00;  0.0000000E+00;0;  0.0000000E+00;  1.0000000E+04;  0.0000000E+00;  0.0000000E+00;  1.0000000E+04;  0.0000000E+00;  1.0000000E+04;  0.0000000E+00;  0.0000000E+00;  0.0000000E+00;  0.0000000E+00;
  2.1400001E+00;  9.9999998E-03; -1.8000001E-01;867;  0.0000000E+00;  0.0000000E+00;  0.0000000E+00;  1.0000000E+03;  4.0000001E-01;  0.0000000E+00;0;  0.0000000E+00;  0.0000000E+00;  0.0000000E+00;0;  0.0000000E+00;  1.0000000E+04;  0.0000000E+00;  0.0000000E+00;  1.0000000E+04;  0.0000000E+00;  1.0000000E+04;  0.0000000E+00;  0.0000000E+00;  0.0000000E+00;  0.0000000E+00;
  2.1400001E+00;  9.9999998E-03; -1.6000000E-01;868;  0.0000000E+00;  0.0000000E+00;  0.0000000E+00;  1.0000000E+03;  4.0000001E-01;  0.0000000E+00;0;  0.0000000E+00;  0.0000000E+00;  0.0000000E+00;0;  0.0000000E+00;  1.0000000E+04;  0.0000000E+00;  0.0000000E+00;  1.0000000E+04;  0.0000000E+00;  1.0000000E+04;  0.0000000E+00;  0.0000000E+00;  0.0000000E+00;  0.0000000E+00;
  2.1400001E+00;  9.9999998E-03; -1.4000000E-01;869;  0.0000000E+00;  0.0000000E+00;  0.0000000E+00;  1.0000000E+03;  4.0000001E-01;  0.0000000E+00;0;  0.0000000E+00;  0.0000000E+00;  0.0000000E+00;0;  0.0000000E+00;  1.0000000E+04;  0.0000000E+00;  0.0000000E+00;  1.0000000E+04;  0.0000000E+00;  1.0000000E+04;  0.0000000E+00;  0.0000000E+00;  0.0000000E+00;  0.0000000E+00;
  2.1400001E+00;  9.9999998E-03; -1.2000000E-01;870;  0.0000000E+00;  0.0000000E+00;  0.0000000E+00;  1.0000000E+03;  4.0000001E-01;  0.0000000E+00;0;  0.0000000E+00;  0.0000000E+00;  0.0000000E+00;0;  0.0000000E+00;  1.0000000E+04;  0.0000000E+00;  0.0000000E+00;  1.0000000E+04;  0.0000000E+00;  1.0000000E+04;  0.0000000E+00;  0.0000000E+00;  0.0000000E+00;  0.0000000E+00;
  2.1400001E+00;  9.9999998E-03; -1.0000000E-01;871;  0.0000000E+00;  0.0000000E+00;  0.0000000E+00;  1.0000000E+03;  4.0000001E-01;  0.0000000E+00;0;  0.0000000E+00;  0.0000000E+00;  0.0000000E+00;0;  0.0000000E+00;  1.0000000E+04;  0.0000000E+00;  0.0000000E+00;  1.0000000E+04;  0.0000000E+00;  1.0000000E+04;  0.0000000E+00;  0.0000000E+00;  0.0000000E+00;  0.0000000E+00;
  2.1400001E+00;  9.9999998E-03; -7.9999998E-02;872;  0.0000000E+00;  0.0000000E+00;  0.0000000E+00;  1.0000000E+03;  4.0000001E-01;  0.0000000E+00;0;  0.0000000E+00;  0.0000000E+00;  0.0000000E+00;0;  0.0000000E+00;  1.0000000E+04;  0.0000000E+00;  0.0000000E+00;  1.0000000E+04;  0.0000000E+00;  1.0000000E+04;  0.0000000E+00;  0.0000000E+00;  0.0000000E+00;  0.0000000E+00;
  2.1400001E+00;  9.9999998E-03; -5.9999999E-02;873;  0.0000000E+00;  0.0000000E+00;  0.0000000E+00;  1.0000000E+03;  4.0000001E-01;  0.0000000E+00;0;  0.0000000E+00;  0.0000000E+00;  0.0000000E+00;0;  0.0000000E+00;  1.0000000E+04;  0.0000000E+00;  0.0000000E+00;  1.0000000E+04;  0.0000000E+00;  1.0000000E+04;  0.0000000E+00;  0.0000000E+00;  0.0000000E+00;  0.0000000E+00;
  2.1400001E+00;  9.9999998E-03; -3.9999999E-02;874;  0.0000000E+00;  0.0000000E+00;  0.0000000E+00;  1.0000000E+03;  4.0000001E-01;  0.0000000E+00;0;  0.0000000E+00;  0.0000000E+00;  0.0000000E+00;0;  0.0000000E+00;  1.0000000E+04;  0.0000000E+00;  0.0000000E+00;  1.0000000E+04;  0.0000000E+00;  1.0000000E+04;  0.0000000E+00;  0.0000000E+00;  0.0000000E+00;  0.0000000E+00;
  2.1400001E+00;  9.9999998E-03; -2.0000000E-02;875;  0.0000000E+00;  0.0000000E+00;  0.0000000E+00;  1.0000000E+03;  4.0000001E-01;  0.0000000E+00;0;  0.0000000E+00;  0.0000000E+00;  0.0000000E+00;0;  0.0000000E+00;  1.0000000E+04;  0.0000000E+00;  0.0000000E+00;  1.0000000E+04;  0.0000000E+00;  1.0000000E+04;  0.0000000E+00;  0.0000000E+00;  0.0000000E+00;  0.0000000E+00;
  2.1400001E+00;  9.9999998E-03;  0.0000000E+00;876;  0.0000000E+00;  0.0000000E+00;  0.0000000E+00;  1.0000000E+03;  4.0000001E-01;  0.0000000E+00;0;  0.0000000E+00;  0.0000000E+00;  0.0000000E+00;0;  0.0000000E+00;  1.0000000E+04;  0.0000000E+00;  0.0000000E+00;  1.0000000E+04;  0.0000000E+00;  1.0000000E+04;  0.0000000E+00;  0.0000000E+00;  0.0000000E+00;  0.0000000E+00;
  2.1400001E+00;  9.9999998E-03;  2.0000000E-02;877;  0.0000000E+00;  0.0000000E+00;  0.0000000E+00;  1.0000000E+03;  4.0000001E-01;  0.0000000E+00;0;  0.0000000E+00;  0.0000000E+00;  0.0000000E+00;0;  0.0000000E+00;  1.0000000E+04;  0.0000000E+00;  0.0000000E+00;  1.0000000E+04;  0.0000000E+00;  1.0000000E+04;  0.0000000E+00;  0.0000000E+00;  0.0000000E+00;  0.0000000E+00;
  2.1400001E+00;  9.9999998E-03;  3.9999999E-02;878;  0.0000000E+00;  0.0000000E+00;  0.0000000E+00;  1.0000000E+03;  4.0000001E-01;  0.0000000E+00;0;  0.0000000E+00;  0.0000000E+00;  0.0000000E+00;0;  0.0000000E+00;  1.0000000E+04;  0.0000000E+00;  0.0000000E+00;  1.0000000E+04;  0.0000000E+00;  1.0000000E+04;  0.0000000E+00;  0.0000000E+00;  0.0000000E+00;  0.0000000E+00;
  2.1400001E+00;  9.9999998E-03;  5.9999999E-02;879;  0.0000000E+00;  0.0000000E+00;  0.0000000E+00;  1.0000000E+03;  4.0000001E-01;  0.0000000E+00;0;  0.0000000E+00;  0.0000000E+00;  0.0000000E+00;0;  0.0000000E+00;  1.0000000E+04;  0.0000000E+00;  0.0000000E+00;  1.0000000E+04;  0.0000000E+00;  1.0000000E+04;  0.0000000E+00;  0.0000000E+00;  0.0000000E+00;  0.0000000E+00;
  2.1400001E+00;  9.9999998E-03;  7.9999998E-02;880;  0.0000000E+00;  0.0000000E+00;  0.0000000E+00;  1.0000000E+03;  4.0000001E-01;  0.0000000E+00;0;  0.0000000E+00;  0.0000000E+00;  0.0000000E+00;0;  0.0000000E+00;  1.0000000E+04;  0.0000000E+00;  0.0000000E+00;  1.0000000E+04;  0.0000000E+00;  1.0000000E+04;  0.0000000E+00;  0.0000000E+00;  0.0000000E+00;  0.0000000E+00;
  2.1400001E+00;  9.9999998E-03;  1.0000000E-01;881;  0.0000000E+00;  0.0000000E+00;  0.0000000E+00;  1.0000000E+03;  4.0000001E-01;  0.0000000E+00;0;  0.0000000E+00;  0.0000000E+00;  0.0000000E+00;0;  0.0000000E+00;  1.0000000E+04;  0.0000000E+00;  0.0000000E+00;  1.0000000E+04;  0.0000000E+00;  1.0000000E+04;  0.0000000E+00;  0.0000000E+00;  0.0000000E+00;  0.0000000E+00;
  2.1400001E+00;  9.9999998E-03;  1.2000000E-01;882;  0.0000000E+00;  0.0000000E+00;  0.0000000E+00;  1.0000000E+03;  4.0000001E-01;  0.0000000E+00;0;  0.0000000E+00;  0.0000000E+00;  0.0000000E+00;0;  0.0000000E+00;  1.0000000E+04;  0.0000000E+00;  0.0000000E+00;  1.0000000E+04;  0.0000000E+00;  1.0000000E+04;  0.0000000E+00;  0.0000000E+00;  0.0000000E+00;  0.0000000E+00;
  2.1400001E+00;  9.9999998E-03;  1.4000000E-01;883;  0.0000000E+00;  0.0000000E+00;  0.0000000E+00;  1.0000000E+03;  4.0000001E-01;  0.0000000E+00;0;  0.0000000E+00;  0.0000000E+00;  0.0000000E+00;0;  0.0000000E+00;  1.0000000E+04;  0.0000000E+00;  0.0000000E+00;  1.0000000E+04;  0.0000000E+00;  1.0000000E+04;  0.0000000E+00;  0.0000000E+00;  0.0000000E+00;  0.0000000E+00;
  2.1400001E+00;  9.9999998E-03;  1.6000000E-01;884;  0.0000000E+00;  0.0000000E+00;  0.0000000E+00;  1.0000000E+03;  4.0000001E-01;  0.0000000E+00;0;  0.0000000E+00;  0.0000000E+00;  0.0000000E+00;0;  0.0000000E+00;  1.0000000E+04;  0.0000000E+00;  0.0000000E+00;  1.0000000E+04;  0.0000000E+00;  1.0000000E+04;  0.0000000E+00;  0.0000000E+00;  0.0000000E+00;  0.0000000E+00;
  2.1400001E+00;  9.9999998E-03;  1.8000001E-01;885;  0.0000000E+00;  0.0000000E+00;  0.0000000E+00;  1.0000000E+03;  4.0000001E-01;  0.0000000E+00;0;  0.0000000E+00;  0.0000000E+00;  0.0000000E+00;0;  0.0000000E+00;  1.0000000E+04;  0.0000000E+00;  0.0000000E+00;  1.0000000E+04;  0.0000000E+00;  1.0000000E+04;  0.0000000E+00;  0.0000000E+00;  0.0000000E+00;  0.0000000E+00;
  2.1400001E+00;  9.9999998E-03;  2.0000000E-01;886;  0.0000000E+00;  0.0000000E+00;  0.0000000E+00;  1.0000000E+03;  4.0000001E-01;  0.0000000E+00;0;  0.0000000E+00;  0.0000000E+00;  0.0000000E+00;0;  0.0000000E+00;  1.0000000E+04;  0.0000000E+00;  0.0000000E+00;  1.0000000E+04;  0.0000000E+00;  1.0000000E+04;  0.0000000E+00;  0.0000000E+00;  0.0000000E+00;  0.0000000E+00;
  2.1400001E+00;  9.9999998E-03;  2.2000000E-01;887;  0.0000000E+00;  0.0000000E+00;  0.0000000E+00;  1.0000000E+03;  4.0000001E-01;  0.0000000E+00;0;  0.0000000E+00;  0.0000000E+00;  0.0000000E+00;0;  0.0000000E+00;  1.0000000E+04;  0.0000000E+00;  0.0000000E+00;  1.0000000E+04;  0.0000000E+00;  1.0000000E+04;  0.0000000E+00;  0.0000000E+00;  0.0000000E+00;  0.0000000E+00;
  2.1400001E+00;  9.9999998E-03;  2.3999999E-01;888;  0.0000000E+00;  0.0000000E+00;  0.0000000E+00;  1.0000000E+03;  4.0000001E-01;  0.0000000E+00;0;  0.0000000E+00;  0.0000000E+00;  0.0000000E+00;0;  0.0000000E+00;  1.0000000E+04;  0.0000000E+00;  0.0000000E+00;  1.0000000E+04;  0.0000000E+00;  1.0000000E+04;  0.0000000E+00;  0.0000000E+00;  0.0000000E+00;  0.0000000E+00;
  2.1400001E+00;  9.9999998E-03;  2.5999999E-01;889;  0.0000000E+00;  0.0000000E+00;  0.0000000E+00;  1.0000000E+03;  4.0000001E-01;  0.0000000E+00;0;  0.0000000E+00;  0.0000000E+00;  0.0000000E+00;0;  0.0000000E+00;  1.0000000E+04;  0.0000000E+00;  0.0000000E+00;  1.0000000E+04;  0.0000000E+00;  1.0000000E+04;  0.0000000E+00;  0.0000000E+00;  0.0000000E+00;  0.0000000E+00;
  2.1400001E+00;  9.9999998E-03;  2.8000000E-01;890;  0.0000000E+00;  0.0000000E+00;  0.0000000E+00;  1.0000000E+03;  4.0000001E-01;  0.0000000E+00;0;  0.0000000E+00;  0.0000000E+00;  0.0000000E+00;0;  0.0000000E+00;  1.0000000E+04;  0.0000000E+00;  0.0000000E+00;  1.0000000E+04;  0.0000000E+00;  1.0000000E+04;  0.0000000E+00;  0.0000000E+00;  0.0000000E+00;  0.0000000E+00;
  2.1400001E+00;  9.9999998E-03;  3.0000001E-01;891;  0.0000000E+00;  0.0000000E+00;  0.0000000E+00;  1.0000000E+03;  4.0000001E-01;  0.0000000E+00;0;  0.0000000E+00;  0.0000000E+00;  0.0000000E+00;0;  0.0000000E+00;  1.0000000E+04;  0.0000000E+00;  0.0000000E+00;  1.0000000E+04;  0.0000000E+00;  1.0000000E+04;  0.0000000E+00;  0.0000000E+00;  0.0000000E+00;  0.0000000E+00;
  2.1400001E+00;  9.9999998E-03;  3.1999999E-01;892;  0.0000000E+00;  0.0000000E+00;  0.0000000E+00;  1.0000000E+03;  4.0000001E-01;  0.0000000E+00;0;  0.0000000E+00;  0.0000000E+00;  0.0000000E+00;0;  0.0000000E+00;  1.0000000E+04;  0.0000000E+00;  0.0000000E+00;  1.0000000E+04;  0.0000000E+00;  1.0000000E+04;  0.0000000E+00;  0.0000000E+00;  0.0000000E+00;  0.0000000E+00;
  2.1400001E+00;  9.9999998E-03;  3.4000000E-01;893;  0.0000000E+00;  0.0000000E+00;  0.0000000E+00;  1.0000000E+03;  4.0000001E-01;  0.0000000E+00;0;  0.0000000E+00;  0.0000000E+00;  0.0000000E+00;0;  0.0000000E+00;  1.0000000E+04;  0.0000000E+00;  0.0000000E+00;  1.0000000E+04;  0.0000000E+00;  1.0000000E+04;  0.0000000E+00;  0.0000000E+00;  0.0000000E+00;  0.0000000E+00;
  2.1400001E+00;  9.9999998E-03;  3.6000001E-01;894;  0.0000000E+00;  0.0000000E+00;  0.0000000E+00;  1.0000000E+03;  4.0000001E-01;  0.0000000E+00;0;  0.0000000E+00;  0.0000000E+00;  0.0000000E+00;0;  0.0000000E+00;  1.0000000E+04;  0.0000000E+00;  0.0000000E+00;  1.0000000E+04;  0.0000000E+00;  1.0000000E+04;  0.0000000E+00;  0.0000000E+00;  0.0000000E+00;  0.0000000E+00;
  2.1400001E+00;  9.9999998E-03;  3.8000000E-01;895;  0.0000000E+00;  0.0000000E+00;  0.0000000E+00;  1.0000000E+03;  4.0000001E-01;  0.0000000E+00;0;  0.0000000E+00;  0.0000000E+00;  0.0000000E+00;0;  0.0000000E+00;  1.0000000E+04;  0.0000000E+00;  0.0000000E+00;  1.0000000E+04;  0.0000000E+00;  1.0000000E+04;  0.0000000E+00;  0.0000000E+00;  0.0000000E+00;  0.0000000E+00;
  2.1400001E+00;  9.9999998E-03;  4.0000001E-01;896;  0.0000000E+00;  0.0000000E+00;  0.0000000E+00;  1.0000000E+03;  4.0000001E-01;  0.0000000E+00;0;  0.0000000E+00;  0.0000000E+00;  0.0000000E+00;0;  0.0000000E+00;  1.0000000E+04;  0.0000000E+00;  0.0000000E+00;  1.0000000E+04;  0.0000000E+00;  1.0000000E+04;  0.0000000E+00;  0.0000000E+00;  0.0000000E+00;  0.0000000E+00;
  2.1600001E+00;  9.9999998E-03; -2.8000000E-01;897;  0.0000000E+00;  0.0000000E+00;  0.0000000E+00;  1.0000000E+03;  4.0000001E-01;  0.0000000E+00;0;  0.0000000E+00;  0.0000000E+00;  0.0000000E+00;0;  0.0000000E+00;  1.0000000E+04;  0.0000000E+00;  0.0000000E+00;  1.0000000E+04;  0.0000000E+00;  1.0000000E+04;  0.0000000E+00;  0.0000000E+00;  0.0000000E+00;  0.0000000E+00;
  2.1600001E+00;  9.9999998E-03; -2.5999999E-01;898;  0.0000000E+00;  0.0000000E+00;  0.0000000E+00;  1.0000000E+03;  4.0000001E-01;  0.0000000E+00;0;  0.0000000E+00;  0.0000000E+00;  0.0000000E+00;0;  0.0000000E+00;  1.0000000E+04;  0.0000000E+00;  0.0000000E+00;  1.0000000E+04;  0.0000000E+00;  1.0000000E+04;  0.0000000E+00;  0.0000000E+00;  0.0000000E+00;  0.0000000E+00;
  2.1600001E+00;  9.9999998E-03; -2.3999999E-01;899;  0.0000000E+00;  0.0000000E+00;  0.0000000E+00;  1.0000000E+03;  4.0000001E-01;  0.0000000E+00;0;  0.0000000E+00;  0.0000000E+00;  0.0000000E+00;0;  0.0000000E+00;  1.0000000E+04;  0.0000000E+00;  0.0000000E+00;  1.0000000E+04;  0.0000000E+00;  1.0000000E+04;  0.0000000E+00;  0.0000000E+00;  0.0000000E+00;  0.0000000E+00;
  2.1600001E+00;  9.9999998E-03; -2.2000000E-01;900;  0.0000000E+00;  0.0000000E+00;  0.0000000E+00;  1.0000000E+03;  4.0000001E-01;  0.0000000E+00;0;  0.0000000E+00;  0.0000000E+00;  0.0000000E+00;0;  0.0000000E+00;  1.0000000E+04;  0.0000000E+00;  0.0000000E+00;  1.0000000E+04;  0.0000000E+00;  1.0000000E+04;  0.0000000E+00;  0.0000000E+00;  0.0000000E+00;  0.0000000E+00;
  2.1600001E+00;  9.9999998E-03; -2.0000000E-01;901;  0.0000000E+00;  0.0000000E+00;  0.0000000E+00;  1.0000000E+03;  4.0000001E-01;  0.0000000E+00;0;  0.0000000E+00;  0.0000000E+00;  0.0000000E+00;0;  0.0000000E+00;  1.0000000E+04;  0.0000000E+00;  0.0000000E+00;  1.0000000E+04;  0.0000000E+00;  1.0000000E+04;  0.0000000E+00;  0.0000000E+00;  0.0000000E+00;  0.0000000E+00;
  2.1600001E+00;  9.9999998E-03; -1.8000001E-01;902;  0.0000000E+00;  0.0000000E+00;  0.0000000E+00;  1.0000000E+03;  4.0000001E-01;  0.0000000E+00;0;  0.0000000E+00;  0.0000000E+00;  0.0000000E+00;0;  0.0000000E+00;  1.0000000E+04;  0.0000000E+00;  0.0000000E+00;  1.0000000E+04;  0.0000000E+00;  1.0000000E+04;  0.0000000E+00;  0.0000000E+00;  0.0000000E+00;  0.0000000E+00;
  2.1600001E+00;  9.9999998E-03; -1.6000000E-01;903;  0.0000000E+00;  0.0000000E+00;  0.0000000E+00;  1.0000000E+03;  4.0000001E-01;  0.0000000E+00;0;  0.0000000E+00;  0.0000000E+00;  0.0000000E+00;0;  0.0000000E+00;  1.0000000E+04;  0.0000000E+00;  0.0000000E+00;  1.0000000E+04;  0.0000000E+00;  1.0000000E+04;  0.0000000E+00;  0.0000000E+00;  0.0000000E+00;  0.0000000E+00;
  2.1600001E+00;  9.9999998E-03; -1.4000000E-01;904;  0.0000000E+00;  0.0000000E+00;  0.0000000E+00;  1.0000000E+03;  4.0000001E-01;  0.0000000E+00;0;  0.0000000E+00;  0.0000000E+00;  0.0000000E+00;0;  0.0000000E+00;  1.0000000E+04;  0.0000000E+00;  0.0000000E+00;  1.0000000E+04;  0.0000000E+00;  1.0000000E+04;  0.0000000E+00;  0.0000000E+00;  0.0000000E+00;  0.0000000E+00;
  2.1600001E+00;  9.9999998E-03; -1.2000000E-01;905;  0.0000000E+00;  0.0000000E+00;  0.0000000E+00;  1.0000000E+03;  4.0000001E-01;  0.0000000E+00;0;  0.0000000E+00;  0.0000000E+00;  0.0000000E+00;0;  0.0000000E+00;  1.0000000E+04;  0.0000000E+00;  0.0000000E+00;  1.0000000E+04;  0.0000000E+00;  1.0000000E+04;  0.0000000E+00;  0.0000000E+00;  0.0000000E+00;  0.0000000E+00;
  2.1600001E+00;  9.9999998E-03; -1.0000000E-01;906;  0.0000000E+00;  0.0000000E+00;  0.0000000E+00;  1.0000000E+03;  4.0000001E-01;  0.0000000E+00;0;  0.0000000E+00;  0.0000000E+00;  0.0000000E+00;0;  0.0000000E+00;  1.0000000E+04;  0.0000000E+00;  0.0000000E+00;  1.0000000E+04;  0.0000000E+00;  1.0000000E+04;  0.0000000E+00;  0.0000000E+00;  0.0000000E+00;  0.0000000E+00;
  2.1600001E+00;  9.9999998E-03; -7.9999998E-02;907;  0.0000000E+00;  0.0000000E+00;  0.0000000E+00;  1.0000000E+03;  4.0000001E-01;  0.0000000E+00;0;  0.0000000E+00;  0.0000000E+00;  0.0000000E+00;0;  0.0000000E+00;  1.0000000E+04;  0.0000000E+00;  0.0000000E+00;  1.0000000E+04;  0.0000000E+00;  1.0000000E+04;  0.0000000E+00;  0.0000000E+00;  0.0000000E+00;  0.0000000E+00;
  2.1600001E+00;  9.9999998E-03; -5.9999999E-02;908;  0.0000000E+00;  0.0000000E+00;  0.0000000E+00;  1.0000000E+03;  4.0000001E-01;  0.0000000E+00;0;  0.0000000E+00;  0.0000000E+00;  0.0000000E+00;0;  0.0000000E+00;  1.0000000E+04;  0.0000000E+00;  0.0000000E+00;  1.0000000E+04;  0.0000000E+00;  1.0000000E+04;  0.0000000E+00;  0.0000000E+00;  0.0000000E+00;  0.0000000E+00;
  2.1600001E+00;  9.9999998E-03; -3.9999999E-02;909;  0.0000000E+00;  0.0000000E+00;  0.0000000E+00;  1.0000000E+03;  4.0000001E-01;  0.0000000E+00;0;  0.0000000E+00;  0.0000000E+00;  0.0000000E+00;0;  0.0000000E+00;  1.0000000E+04;  0.0000000E+00;  0.0000000E+00;  1.0000000E+04;  0.0000000E+00;  1.0000000E+04;  0.0000000E+00;  0.0000000E+00;  0.0000000E+00;  0.0000000E+00;
  2.1600001E+00;  9.9999998E-03; -2.0000000E-02;910;  0.0000000E+00;  0.0000000E+00;  0.0000000E+00;  1.0000000E+03;  4.0000001E-01;  0.0000000E+00;0;  0.0000000E+00;  0.0000000E+00;  0.0000000E+00;0;  0.0000000E+00;  1.0000000E+04;  0.0000000E+00;  0.0000000E+00;  1.0000000E+04;  0.0000000E+00;  1.0000000E+04;  0.0000000E+00;  0.0000000E+00;  0.0000000E+00;  0.0000000E+00;
  2.1600001E+00;  9.9999998E-03;  0.0000000E+00;911;  0.0000000E+00;  0.0000000E+00;  0.0000000E+00;  1.0000000E+03;  4.0000001E-01;  0.0000000E+00;0;  0.0000000E+00;  0.0000000E+00;  0.0000000E+00;0;  0.0000000E+00;  1.0000000E+04;  0.0000000E+00;  0.0000000E+00;  1.0000000E+04;  0.0000000E+00;  1.0000000E+04;  0.0000000E+00;  0.0000000E+00;  0.0000000E+00;  0.0000000E+00;
  2.1600001E+00;  9.9999998E-03;  2.0000000E-02;912;  0.0000000E+00;  0.0000000E+00;  0.0000000E+00;  1.0000000E+03;  4.0000001E-01;  0.0000000E+00;0;  0.0000000E+00;  0.0000000E+00;  0.0000000E+00;0;  0.0000000E+00;  1.0000000E+04;  0.0000000E+00;  0.0000000E+00;  1.0000000E+04;  0.0000000E+00;  1.0000000E+04;  0.0000000E+00;  0.0000000E+00;  0.0000000E+00;  0.0000000E+00;
  2.1600001E+00;  9.9999998E-03;  3.9999999E-02;913;  0.0000000E+00;  0.0000000E+00;  0.0000000E+00;  1.0000000E+03;  4.0000001E-01;  0.0000000E+00;0;  0.0000000E+00;  0.0000000E+00;  0.0000000E+00;0;  0.0000000E+00;  1.0000000E+04;  0.0000000E+00;  0.0000000E+00;  1.0000000E+04;  0.0000000E+00;  1.0000000E+04;  0.0000000E+00;  0.0000000E+00;  0.0000000E+00;  0.0000000E+00;
  2.1600001E+00;  9.9999998E-03;  5.9999999E-02;914;  0.0000000E+00;  0.0000000E+00;  0.0000000E+00;  1.0000000E+03;  4.0000001E-01;  0.0000000E+00;0;  0.0000000E+00;  0.0000000E+00;  0.0000000E+00;0;  0.0000000E+00;  1.0000000E+04;  0.0000000E+00;  0.0000000E+00;  1.0000000E+04;  0.0000000E+00;  1.0000000E+04;  0.0000000E+00;  0.0000000E+00;  0.0000000E+00;  0.0000000E+00;
  2.1600001E+00;  9.9999998E-03;  7.9999998E-02;915;  0.0000000E+00;  0.0000000E+00;  0.0000000E+00;  1.0000000E+03;  4.0000001E-01;  0.0000000E+00;0;  0.0000000E+00;  0.0000000E+00;  0.0000000E+00;0;  0.0000000E+00;  1.0000000E+04;  0.0000000E+00;  0.0000000E+00;  1.0000000E+04;  0.0000000E+00;  1.0000000E+04;  0.0000000E+00;  0.0000000E+00;  0.0000000E+00;  0.0000000E+00;
  2.1600001E+00;  9.9999998E-03;  1.0000000E-01;916;  0.0000000E+00;  0.0000000E+00;  0.0000000E+00;  1.0000000E+03;  4.0000001E-01;  0.0000000E+00;0;  0.0000000E+00;  0.0000000E+00;  0.0000000E+00;0;  0.0000000E+00;  1.0000000E+04;  0.0000000E+00;  0.0000000E+00;  1.0000000E+04;  0.0000000E+00;  1.0000000E+04;  0.0000000E+00;  0.0000000E+00;  0.0000000E+00;  0.0000000E+00;
  2.1600001E+00;  9.9999998E-03;  1.2000000E-01;917;  0.0000000E+00;  0.0000000E+00;  0.0000000E+00;  1.0000000E+03;  4.0000001E-01;  0.0000000E+00;0;  0.0000000E+00;  0.0000000E+00;  0.0000000E+00;0;  0.0000000E+00;  1.0000000E+04;  0.0000000E+00;  0.0000000E+00;  1.0000000E+04;  0.0000000E+00;  1.0000000E+04;  0.0000000E+00;  0.0000000E+00;  0.0000000E+00;  0.0000000E+00;
  2.1600001E+00;  9.9999998E-03;  1.4000000E-01;918;  0.0000000E+00;  0.0000000E+00;  0.0000000E+00;  1.0000000E+03;  4.0000001E-01;  0.0000000E+00;0;  0.0000000E+00;  0.0000000E+00;  0.0000000E+00;0;  0.0000000E+00;  1.0000000E+04;  0.0000000E+00;  0.0000000E+00;  1.0000000E+04;  0.0000000E+00;  1.0000000E+04;  0.0000000E+00;  0.0000000E+00;  0.0000000E+00;  0.0000000E+00;
  2.1600001E+00;  9.9999998E-03;  1.6000000E-01;919;  0.0000000E+00;  0.0000000E+00;  0.0000000E+00;  1.0000000E+03;  4.0000001E-01;  0.0000000E+00;0;  0.0000000E+00;  0.0000000E+00;  0.0000000E+00;0;  0.0000000E+00;  1.0000000E+04;  0.0000000E+00;  0.0000000E+00;  1.0000000E+04;  0.0000000E+00;  1.0000000E+04;  0.0000000E+00;  0.0000000E+00;  0.0000000E+00;  0.0000000E+00;
  2.1600001E+00;  9.9999998E-03;  1.8000001E-01;920;  0.0000000E+00;  0.0000000E+00;  0.0000000E+00;  1.0000000E+03;  4.0000001E-01;  0.0000000E+00;0;  0.0000000E+00;  0.0000000E+00;  0.0000000E+00;0;  0.0000000E+00;  1.0000000E+04;  0.0000000E+00;  0.0000000E+00;  1.0000000E+04;  0.0000000E+00;  1.0000000E+04;  0.0000000E+00;  0.0000000E+00;  0.0000000E+00;  0.0000000E+00;
  2.1600001E+00;  9.9999998E-03;  2.0000000E-01;921;  0.0000000E+00;  0.0000000E+00;  0.0000000E+00;  1.0000000E+03;  4.0000001E-01;  0.0000000E+00;0;  0.0000000E+00;  0.0000000E+00;  0.0000000E+00;0;  0.0000000E+00;  1.0000000E+04;  0.0000000E+00;  0.0000000E+00;  1.0000000E+04;  0.0000000E+00;  1.0000000E+04;  0.0000000E+00;  0.0000000E+00;  0.0000000E+00;  0.0000000E+00;
  2.1600001E+00;  9.9999998E-03;  2.2000000E-01;922;  0.0000000E+00;  0.0000000E+00;  0.0000000E+00;  1.0000000E+03;  4.0000001E-01;  0.0000000E+00;0;  0.0000000E+00;  0.0000000E+00;  0.0000000E+00;0;  0.0000000E+00;  1.0000000E+04;  0.0000000E+00;  0.0000000E+00;  1.0000000E+04;  0.0000000E+00;  1.0000000E+04;  0.0000000E+00;  0.0000000E+00;  0.0000000E+00;  0.0000000E+00;
  2.1600001E+00;  9.9999998E-03;  2.3999999E-01;923;  0.0000000E+00;  0.0000000E+00;  0.0000000E+00;  1.0000000E+03;  4.0000001E-01;  0.0000000E+00;0;  0.0000000E+00;  0.0000000E+00;  0.0000000E+00;0;  0.0000000E+00;  1.0000000E+04;  0.0000000E+00;  0.0000000E+00;  1.0000000E+04;  0.0000000E+00;  1.0000000E+04;  0.0000000E+00;  0.0000000E+00;  0.0000000E+00;  0.0000000E+00;
  2.1600001E+00;  9.9999998E-03;  2.5999999E-01;924;  0.0000000E+00;  0.0000000E+00;  0.0000000E+00;  1.0000000E+03;  4.0000001E-01;  0.0000000E+00;0;  0.0000000E+00;  0.0000000E+00;  0.0000000E+00;0;  0.0000000E+00;  1.0000000E+04;  0.0000000E+00;  0.0000000E+00;  1.0000000E+04;  0.0000000E+00;  1.0000000E+04;  0.0000000E+00;  0.0000000E+00;  0.0000000E+00;  0.0000000E+00;
  2.1600001E+00;  9.9999998E-03;  2.8000000E-01;925;  0.0000000E+00;  0.0000000E+00;  0.0000000E+00;  1.0000000E+03;  4.0000001E-01;  0.0000000E+00;0;  0.0000000E+00;  0.0000000E+00;  0.0000000E+00;0;  0.0000000E+00;  1.0000000E+04;  0.0000000E+00;  0.0000000E+00;  1.0000000E+04;  0.0000000E+00;  1.0000000E+04;  0.0000000E+00;  0.0000000E+00;  0.0000000E+00;  0.0000000E+00;
  2.1600001E+00;  9.9999998E-03;  3.0000001E-01;926;  0.0000000E+00;  0.0000000E+00;  0.0000000E+00;  1.0000000E+03;  4.0000001E-01;  0.0000000E+00;0;  0.0000000E+00;  0.0000000E+00;  0.0000000E+00;0;  0.0000000E+00;  1.0000000E+04;  0.0000000E+00;  0.0000000E+00;  1.0000000E+04;  0.0000000E+00;  1.0000000E+04;  0.0000000E+00;  0.0000000E+00;  0.0000000E+00;  0.0000000E+00;
  2.1600001E+00;  9.9999998E-03;  3.1999999E-01;927;  0.0000000E+00;  0.0000000E+00;  0.0000000E+00;  1.0000000E+03;  4.0000001E-01;  0.0000000E+00;0;  0.0000000E+00;  0.0000000E+00;  0.0000000E+00;0;  0.0000000E+00;  1.0000000E+04;  0.0000000E+00;  0.0000000E+00;  1.0000000E+04;  0.0000000E+00;  1.0000000E+04;  0.0000000E+00;  0.0000000E+00;  0.0000000E+00;  0.0000000E+00;
  2.1600001E+00;  9.9999998E-03;  3.4000000E-01;928;  0.0000000E+00;  0.0000000E+00;  0.0000000E+00;  1.0000000E+03;  4.0000001E-01;  0.0000000E+00;0;  0.0000000E+00;  0.0000000E+00;  0.0000000E+00;0;  0.0000000E+00;  1.0000000E+04;  0.0000000E+00;  0.0000000E+00;  1.0000000E+04;  0.0000000E+00;  1.0000000E+04;  0.0000000E+00;  0.0000000E+00;  0.0000000E+00;  0.0000000E+00;
  2.1600001E+00;  9.9999998E-03;  3.6000001E-01;929;  0.0000000E+00;  0.0000000E+00;  0.0000000E+00;  1.0000000E+03;  4.0000001E-01;  0.0000000E+00;0;  0.0000000E+00;  0.0000000E+00;  0.0000000E+00;0;  0.0000000E+00;  1.0000000E+04;  0.0000000E+00;  0.0000000E+00;  1.0000000E+04;  0.0000000E+00;  1.0000000E+04;  0.0000000E+00;  0.0000000E+00;  0.0000000E+00;  0.0000000E+00;
  2.1600001E+00;  9.9999998E-03;  3.8000000E-01;930;  0.0000000E+00;  0.0000000E+00;  0.0000000E+00;  1.0000000E+03;  4.0000001E-01;  0.0000000E+00;0;  0.0000000E+00;  0.0000000E+00;  0.0000000E+00;0;  0.0000000E+00;  1.0000000E+04;  0.0000000E+00;  0.0000000E+00;  1.0000000E+04;  0.0000000E+00;  1.0000000E+04;  0.0000000E+00;  0.0000000E+00;  0.0000000E+00;  0.0000000E+00;
  2.1600001E+00;  9.9999998E-03;  4.0000001E-01;931;  0.0000000E+00;  0.0000000E+00;  0.0000000E+00;  1.0000000E+03;  4.0000001E-01;  0.0000000E+00;0;  0.0000000E+00;  0.0000000E+00;  0.0000000E+00;0;  0.0000000E+00;  1.0000000E+04;  0.0000000E+00;  0.0000000E+00;  1.0000000E+04;  0.0000000E+00;  1.0000000E+04;  0.0000000E+00;  0.0000000E+00;  0.0000000E+00;  0.0000000E+00;
  2.1800001E+00;  9.9999998E-03; -1.8000001E-01;932;  0.0000000E+00;  0.0000000E+00;  0.0000000E+00;  1.0000000E+03;  4.0000001E-01;  0.0000000E+00;0;  0.0000000E+00;  0.0000000E+00;  0.0000000E+00;0;  0.0000000E+00;  1.0000000E+04;  0.0000000E+00;  0.0000000E+00;  1.0000000E+04;  0.0000000E+00;  1.0000000E+04;  0.0000000E+00;  0.0000000E+00;  0.0000000E+00;  0.0000000E+00;
  2.1800001E+00;  9.9999998E-03; -1.6000000E-01;933;  0.0000000E+00;  0.0000000E+00;  0.0000000E+00;  1.0000000E+03;  4.0000001E-01;  0.0000000E+00;0;  0.0000000E+00;  0.0000000E+00;  0.0000000E+00;0;  0.0000000E+00;  1.0000000E+04;  0.0000000E+00;  0.0000000E+00;  1.0000000E+04;  0.0000000E+00;  1.0000000E+04;  0.0000000E+00;  0.0000000E+00;  0.0000000E+00;  0.0000000E+00;
  2.1800001E+00;  9.9999998E-03; -1.4000000E-01;934;  0.0000000E+00;  0.0000000E+00;  0.0000000E+00;  1.0000000E+03;  4.0000001E-01;  0.0000000E+00;0;  0.0000000E+00;  0.0000000E+00;  0.0000000E+00;0;  0.0000000E+00;  1.0000000E+04;  0.0000000E+00;  0.0000000E+00;  1.0000000E+04;  0.0000000E+00;  1.0000000E+04;  0.0000000E+00;  0.0000000E+00;  0.0000000E+00;  0.0000000E+00;
  2.1800001E+00;  9.9999998E-03; -1.2000000E-01;935;  0.0000000E+00;  0.0000000E+00;  0.0000000E+00;  1.0000000E+03;  4.0000001E-01;  0.0000000E+00;0;  0.0000000E+00;  0.0000000E+00;  0.0000000E+00;0;  0.0000000E+00;  1.0000000E+04;  0.0000000E+00;  0.0000000E+00;  1.0000000E+04;  0.0000000E+00;  1.0000000E+04;  0.0000000E+00;  0.0000000E+00;  0.0000000E+00;  0.0000000E+00;
  2.1800001E+00;  9.9999998E-03; -1.0000000E-01;936;  0.0000000E+00;  0.0000000E+00;  0.0000000E+00;  1.0000000E+03;  4.0000001E-01;  0.0000000E+00;0;  0.0000000E+00;  0.0000000E+00;  0.0000000E+00;0;  0.0000000E+00;  1.0000000E+04;  0.0000000E+00;  0.0000000E+00;  1.0000000E+04;  0.0000000E+00;  1.0000000E+04;  0.0000000E+00;  0.0000000E+00;  0.0000000E+00;  0.0000000E+00;
  2.1800001E+00;  9.9999998E-03; -7.9999998E-02;937;  0.0000000E+00;  0.0000000E+00;  0.0000000E+00;  1.0000000E+03;  4.0000001E-01;  0.0000000E+00;0;  0.0000000E+00;  0.0000000E+00;  0.0000000E+00;0;  0.0000000E+00;  1.0000000E+04;  0.0000000E+00;  0.0000000E+00;  1.0000000E+04;  0.0000000E+00;  1.0000000E+04;  0.0000000E+00;  0.0000000E+00;  0.0000000E+00;  0.0000000E+00;
  2.1800001E+00;  9.9999998E-03; -5.9999999E-02;938;  0.0000000E+00;  0.0000000E+00;  0.0000000E+00;  1.0000000E+03;  4.0000001E-01;  0.0000000E+00;0;  0.0000000E+00;  0.0000000E+00;  0.0000000E+00;0;  0.0000000E+00;  1.0000000E+04;  0.0000000E+00;  0.0000000E+00;  1.0000000E+04;  0.0000000E+00;  1.0000000E+04;  0.0000000E+00;  0.0000000E+00;  0.0000000E+00;  0.0000000E+00;
  2.1800001E+00;  9.9999998E-03; -3.9999999E-02;939;  0.0000000E+00;  0.0000000E+00;  0.0000000E+00;  1.0000000E+03;  4.0000001E-01;  0.0000000E+00;0;  0.0000000E+00;  0.0000000E+00;  0.0000000E+00;0;  0.0000000E+00;  1.0000000E+04;  0.0000000E+00;  0.0000000E+00;  1.0000000E+04;  0.0000000E+00;  1.0000000E+04;  0.0000000E+00;  0.0000000E+00;  0.0000000E+00;  0.0000000E+00;
  2.1800001E+00;  9.9999998E-03; -2.0000000E-02;940;  0.0000000E+00;  0.0000000E+00;  0.0000000E+00;  1.0000000E+03;  4.0000001E-01;  0.0000000E+00;0;  0.0000000E+00;  0.0000000E+00;  0.0000000E+00;0;  0.0000000E+00;  1.0000000E+04;  0.0000000E+00;  0.0000000E+00;  1.0000000E+04;  0.0000000E+00;  1.0000000E+04;  0.0000000E+00;  0.0000000E+00;  0.0000000E+00;  0.0000000E+00;
  2.1800001E+00;  9.9999998E-03;  0.0000000E+00;941;  0.0000000E+00;  0.0000000E+00;  0.0000000E+00;  1.0000000E+03;  4.0000001E-01;  0.0000000E+00;0;  0.0000000E+00;  0.0000000E+00;  0.0000000E+00;0;  0.0000000E+00;  1.0000000E+04;  0.0000000E+00;  0.0000000E+00;  1.0000000E+04;  0.0000000E+00;  1.0000000E+04;  0.0000000E+00;  0.0000000E+00;  0.0000000E+00;  0.0000000E+00;
  2.1800001E+00;  9.9999998E-03;  2.0000000E-02;942;  0.0000000E+00;  0.0000000E+00;  0.0000000E+00;  1.0000000E+03;  4.0000001E-01;  0.0000000E+00;0;  0.0000000E+00;  0.0000000E+00;  0.0000000E+00;0;  0.0000000E+00;  1.0000000E+04;  0.0000000E+00;  0.0000000E+00;  1.0000000E+04;  0.0000000E+00;  1.0000000E+04;  0.0000000E+00;  0.0000000E+00;  0.0000000E+00;  0.0000000E+00;
  2.1800001E+00;  9.9999998E-03;  3.9999999E-02;943;  0.0000000E+00;  0.0000000E+00;  0.0000000E+00;  1.0000000E+03;  4.0000001E-01;  0.0000000E+00;0;  0.0000000E+00;  0.0000000E+00;  0.0000000E+00;0;  0.0000000E+00;  1.0000000E+04;  0.0000000E+00;  0.0000000E+00;  1.0000000E+04;  0.0000000E+00;  1.0000000E+04;  0.0000000E+00;  0.0000000E+00;  0.0000000E+00;  0.0000000E+00;
  2.1800001E+00;  9.9999998E-03;  5.9999999E-02;944;  0.0000000E+00;  0.0000000E+00;  0.0000000E+00;  1.0000000E+03;  4.0000001E-01;  0.0000000E+00;0;  0.0000000E+00;  0.0000000E+00;  0.0000000E+00;0;  0.0000000E+00;  1.0000000E+04;  0.0000000E+00;  0.0000000E+00;  1.0000000E+04;  0.0000000E+00;  1.0000000E+04;  0.0000000E+00;  0.0000000E+00;  0.0000000E+00;  0.0000000E+00;
  2.1800001E+00;  9.9999998E-03;  7.9999998E-02;945;  0.0000000E+00;  0.0000000E+00;  0.0000000E+00;  1.0000000E+03;  4.0000001E-01;  0.0000000E+00;0;  0.0000000E+00;  0.0000000E+00;  0.0000000E+00;0;  0.0000000E+00;  1.0000000E+04;  0.0000000E+00;  0.0000000E+00;  1.0000000E+04;  0.0000000E+00;  1.0000000E+04;  0.0000000E+00;  0.0000000E+00;  0.0000000E+00;  0.0000000E+00;
  2.1800001E+00;  9.9999998E-03;  1.0000000E-01;946;  0.0000000E+00;  0.0000000E+00;  0.0000000E+00;  1.0000000E+03;  4.0000001E-01;  0.0000000E+00;0;  0.0000000E+00;  0.0000000E+00;  0.0000000E+00;0;  0.0000000E+00;  1.0000000E+04;  0.0000000E+00;  0.0000000E+00;  1.0000000E+04;  0.0000000E+00;  1.0000000E+04;  0.0000000E+00;  0.0000000E+00;  0.0000000E+00;  0.0000000E+00;
  2.1800001E+00;  9.9999998E-03;  1.2000000E-01;947;  0.0000000E+00;  0.0000000E+00;  0.0000000E+00;  1.0000000E+03;  4.0000001E-01;  0.0000000E+00;0;  0.0000000E+00;  0.0000000E+00;  0.0000000E+00;0;  0.0000000E+00;  1.0000000E+04;  0.0000000E+00;  0.0000000E+00;  1.0000000E+04;  0.0000000E+00;  1.0000000E+04;  0.0000000E+00;  0.0000000E+00;  0.0000000E+00;  0.0000000E+00;
  2.1800001E+00;  9.9999998E-03;  1.4000000E-01;948;  0.0000000E+00;  0.0000000E+00;  0.0000000E+00;  1.0000000E+03;  4.0000001E-01;  0.0000000E+00;0;  0.0000000E+00;  0.0000000E+00;  0.0000000E+00;0;  0.0000000E+00;  1.0000000E+04;  0.0000000E+00;  0.0000000E+00;  1.0000000E+04;  0.0000000E+00;  1.0000000E+04;  0.0000000E+00;  0.0000000E+00;  0.0000000E+00;  0.0000000E+00;
  2.1800001E+00;  9.9999998E-03;  1.6000000E-01;949;  0.0000000E+00;  0.0000000E+00;  0.0000000E+00;  1.0000000E+03;  4.0000001E-01;  0.0000000E+00;0;  0.0000000E+00;  0.0000000E+00;  0.0000000E+00;0;  0.0000000E+00;  1.0000000E+04;  0.0000000E+00;  0.0000000E+00;  1.0000000E+04;  0.0000000E+00;  1.0000000E+04;  0.0000000E+00;  0.0000000E+00;  0.0000000E+00;  0.0000000E+00;
  2.1800001E+00;  9.9999998E-03;  1.8000001E-01;950;  0.0000000E+00;  0.0000000E+00;  0.0000000E+00;  1.0000000E+03;  4.0000001E-01;  0.0000000E+00;0;  0.0000000E+00;  0.0000000E+00;  0.0000000E+00;0;  0.0000000E+00;  1.0000000E+04;  0.0000000E+00;  0.0000000E+00;  1.0000000E+04;  0.0000000E+00;  1.0000000E+04;  0.0000000E+00;  0.0000000E+00;  0.0000000E+00;  0.0000000E+00;
  2.1800001E+00;  9.9999998E-03;  2.0000000E-01;951;  0.0000000E+00;  0.0000000E+00;  0.0000000E+00;  1.0000000E+03;  4.0000001E-01;  0.0000000E+00;0;  0.0000000E+00;  0.0000000E+00;  0.0000000E+00;0;  0.0000000E+00;  1.0000000E+04;  0.0000000E+00;  0.0000000E+00;  1.0000000E+04;  0.0000000E+00;  1.0000000E+04;  0.0000000E+00;  0.0000000E+00;  0.0000000E+00;  0.0000000E+00;
  2.1800001E+00;  9.9999998E-03;  2.2000000E-01;952;  0.0000000E+00;  0.0000000E+00;  0.0000000E+00;  1.0000000E+03;  4.0000001E-01;  0.0000000E+00;0;  0.0000000E+00;  0.0000000E+00;  0.0000000E+00;0;  0.0000000E+00;  1.0000000E+04;  0.0000000E+00;  0.0000000E+00;  1.0000000E+04;  0.0000000E+00;  1.0000000E+04;  0.0000000E+00;  0.0000000E+00;  0.0000000E+00;  0.0000000E+00;
  2.1800001E+00;  9.9999998E-03;  2.3999999E-01;953;  0.0000000E+00;  0.0000000E+00;  0.0000000E+00;  1.0000000E+03;  4.0000001E-01;  0.0000000E+00;0;  0.0000000E+00;  0.0000000E+00;  0.0000000E+00;0;  0.0000000E+00;  1.0000000E+04;  0.0000000E+00;  0.0000000E+00;  1.0000000E+04;  0.0000000E+00;  1.0000000E+04;  0.0000000E+00;  0.0000000E+00;  0.0000000E+00;  0.0000000E+00;
  2.1800001E+00;  9.9999998E-03;  2.5999999E-01;954;  0.0000000E+00;  0.0000000E+00;  0.0000000E+00;  1.0000000E+03;  4.0000001E-01;  0.0000000E+00;0;  0.0000000E+00;  0.0000000E+00;  0.0000000E+00;0;  0.0000000E+00;  1.0000000E+04;  0.0000000E+00;  0.0000000E+00;  1.0000000E+04;  0.0000000E+00;  1.0000000E+04;  0.0000000E+00;  0.0000000E+00;  0.0000000E+00;  0.0000000E+00;
  2.1800001E+00;  9.9999998E-03;  2.8000000E-01;955;  0.0000000E+00;  0.0000000E+00;  0.0000000E+00;  1.0000000E+03;  4.0000001E-01;  0.0000000E+00;0;  0.0000000E+00;  0.0000000E+00;  0.0000000E+00;0;  0.0000000E+00;  1.0000000E+04;  0.0000000E+00;  0.0000000E+00;  1.0000000E+04;  0.0000000E+00;  1.0000000E+04;  0.0000000E+00;  0.0000000E+00;  0.0000000E+00;  0.0000000E+00;
  2.1800001E+00;  9.9999998E-03;  3.0000001E-01;956;  0.0000000E+00;  0.0000000E+00;  0.0000000E+00;  1.0000000E+03;  4.0000001E-01;  0.0000000E+00;0;  0.0000000E+00;  0.0000000E+00;  0.0000000E+00;0;  0.0000000E+00;  1.0000000E+04;  0.0000000E+00;  0.0000000E+00;  1.0000000E+04;  0.0000000E+00;  1.0000000E+04;  0.0000000E+00;  0.0000000E+00;  0.0000000E+00;  0.0000000E+00;
  2.1800001E+00;  9.9999998E-03;  3.1999999E-01;957;  0.0000000E+00;  0.0000000E+00;  0.0000000E+00;  1.0000000E+03;  4.0000001E-01;  0.0000000E+00;0;  0.0000000E+00;  0.0000000E+00;  0.0000000E+00;0;  0.0000000E+00;  1.0000000E+04;  0.0000000E+00;  0.0000000E+00;  1.0000000E+04;  0.0000000E+00;  1.0000000E+04;  0.0000000E+00;  0.0000000E+00;  0.0000000E+00;  0.0000000E+00;
  2.1800001E+00;  9.9999998E-03;  3.4000000E-01;958;  0.0000000E+00;  0.0000000E+00;  0.0000000E+00;  1.0000000E+03;  4.0000001E-01;  0.0000000E+00;0;  0.0000000E+00;  0.0000000E+00;  0.0000000E+00;0;  0.0000000E+00;  1.0000000E+04;  0.0000000E+00;  0.0000000E+00;  1.0000000E+04;  0.0000000E+00;  1.0000000E+04;  0.0000000E+00;  0.0000000E+00;  0.0000000E+00;  0.0000000E+00;
  2.1800001E+00;  9.9999998E-03;  3.6000001E-01;959;  0.0000000E+00;  0.0000000E+00;  0.0000000E+00;  1.0000000E+03;  4.0000001E-01;  0.0000000E+00;0;  0.0000000E+00;  0.0000000E+00;  0.0000000E+00;0;  0.0000000E+00;  1.0000000E+04;  0.0000000E+00;  0.0000000E+00;  1.0000000E+04;  0.0000000E+00;  1.0000000E+04;  0.0000000E+00;  0.0000000E+00;  0.0000000E+00;  0.0000000E+00;
  2.1800001E+00;  9.9999998E-03;  3.8000000E-01;960;  0.0000000E+00;  0.0000000E+00;  0.0000000E+00;  1.0000000E+03;  4.0000001E-01;  0.0000000E+00;0;  0.0000000E+00;  0.0000000E+00;  0.0000000E+00;0;  0.0000000E+00;  1.0000000E+04;  0.0000000E+00;  0.0000000E+00;  1.0000000E+04;  0.0000000E+00;  1.0000000E+04;  0.0000000E+00;  0.0000000E+00;  0.0000000E+00;  0.0000000E+00;
  2.1800001E+00;  9.9999998E-03;  4.0000001E-01;961;  0.0000000E+00;  0.0000000E+00;  0.0000000E+00;  1.0000000E+03;  4.0000001E-01;  0.0000000E+00;0;  0.0000000E+00;  0.0000000E+00;  0.0000000E+00;0;  0.0000000E+00;  1.0000000E+04;  0.0000000E+00;  0.0000000E+00;  1.0000000E+04;  0.0000000E+00;  1.0000000E+04;  0.0000000E+00;  0.0000000E+00;  0.0000000E+00;  0.0000000E+00;
  2.2000000E+00;  9.9999998E-03; -7.9999998E-02;962;  0.0000000E+00;  0.0000000E+00;  0.0000000E+00;  1.0000000E+03;  4.0000001E-01;  0.0000000E+00;0;  0.0000000E+00;  0.0000000E+00;  0.0000000E+00;0;  0.0000000E+00;  1.0000000E+04;  0.0000000E+00;  0.0000000E+00;  1.0000000E+04;  0.0000000E+00;  1.0000000E+04;  0.0000000E+00;  0.0000000E+00;  0.0000000E+00;  0.0000000E+00;
  2.2000000E+00;  9.9999998E-03; -5.9999999E-02;963;  0.0000000E+00;  0.0000000E+00;  0.0000000E+00;  1.0000000E+03;  4.0000001E-01;  0.0000000E+00;0;  0.0000000E+00;  0.0000000E+00;  0.0000000E+00;0;  0.0000000E+00;  1.0000000E+04;  0.0000000E+00;  0.0000000E+00;  1.0000000E+04;  0.0000000E+00;  1.0000000E+04;  0.0000000E+00;  0.0000000E+00;  0.0000000E+00;  0.0000000E+00;
  2.2000000E+00;  9.9999998E-03; -3.9999999E-02;964;  0.0000000E+00;  0.0000000E+00;  0.0000000E+00;  1.0000000E+03;  4.0000001E-01;  0.0000000E+00;0;  0.0000000E+00;  0.0000000E+00;  0.0000000E+00;0;  0.0000000E+00;  1.0000000E+04;  0.0000000E+00;  0.0000000E+00;  1.0000000E+04;  0.0000000E+00;  1.0000000E+04;  0.0000000E+00;  0.0000000E+00;  0.0000000E+00;  0.0000000E+00;
  2.2000000E+00;  9.9999998E-03; -2.0000000E-02;965;  0.0000000E+00;  0.0000000E+00;  0.0000000E+00;  1.0000000E+03;  4.0000001E-01;  0.0000000E+00;0;  0.0000000E+00;  0.0000000E+00;  0.0000000E+00;0;  0.0000000E+00;  1.0000000E+04;  0.0000000E+00;  0.0000000E+00;  1.0000000E+04;  0.0000000E+00;  1.0000000E+04;  0.0000000E+00;  0.0000000E+00;  0.0000000E+00;  0.0000000E+00;
  2.2000000E+00;  9.9999998E-03;  0.0000000E+00;966;  0.0000000E+00;  0.0000000E+00;  0.0000000E+00;  1.0000000E+03;  4.0000001E-01;  0.0000000E+00;0;  0.0000000E+00;  0.0000000E+00;  0.0000000E+00;0;  0.0000000E+00;  1.0000000E+04;  0.0000000E+00;  0.0000000E+00;  1.0000000E+04;  0.0000000E+00;  1.0000000E+04;  0.0000000E+00;  0.0000000E+00;  0.0000000E+00;  0.0000000E+00;
  2.2000000E+00;  9.9999998E-03;  2.0000000E-02;967;  0.0000000E+00;  0.0000000E+00;  0.0000000E+00;  1.0000000E+03;  4.0000001E-01;  0.0000000E+00;0;  0.0000000E+00;  0.0000000E+00;  0.0000000E+00;0;  0.0000000E+00;  1.0000000E+04;  0.0000000E+00;  0.0000000E+00;  1.0000000E+04;  0.0000000E+00;  1.0000000E+04;  0.0000000E+00;  0.0000000E+00;  0.0000000E+00;  0.0000000E+00;
  2.2000000E+00;  9.9999998E-03;  3.9999999E-02;968;  0.0000000E+00;  0.0000000E+00;  0.0000000E+00;  1.0000000E+03;  4.0000001E-01;  0.0000000E+00;0;  0.0000000E+00;  0.0000000E+00;  0.0000000E+00;0;  0.0000000E+00;  1.0000000E+04;  0.0000000E+00;  0.0000000E+00;  1.0000000E+04;  0.0000000E+00;  1.0000000E+04;  0.0000000E+00;  0.0000000E+00;  0.0000000E+00;  0.0000000E+00;
  2.2000000E+00;  9.9999998E-03;  5.9999999E-02;969;  0.0000000E+00;  0.0000000E+00;  0.0000000E+00;  1.0000000E+03;  4.0000001E-01;  0.0000000E+00;0;  0.0000000E+00;  0.0000000E+00;  0.0000000E+00;0;  0.0000000E+00;  1.0000000E+04;  0.0000000E+00;  0.0000000E+00;  1.0000000E+04;  0.0000000E+00;  1.0000000E+04;  0.0000000E+00;  0.0000000E+00;  0.0000000E+00;  0.0000000E+00;
  2.2000000E+00;  9.9999998E-03;  7.9999998E-02;970;  0.0000000E+00;  0.0000000E+00;  0.0000000E+00;  1.0000000E+03;  4.0000001E-01;  0.0000000E+00;0;  0.0000000E+00;  0.0000000E+00;  0.0000000E+00;0;  0.0000000E+00;  1.0000000E+04;  0.0000000E+00;  0.0000000E+00;  1.0000000E+04;  0.0000000E+00;  1.0000000E+04;  0.0000000E+00;  0.0000000E+00;  0.0000000E+00;  0.0000000E+00;
  2.2000000E+00;  9.9999998E-03;  1.0000000E-01;971;  0.0000000E+00;  0.0000000E+00;  0.0000000E+00;  1.0000000E+03;  4.0000001E-01;  0.0000000E+00;0;  0.0000000E+00;  0.0000000E+00;  0.0000000E+00;0;  0.0000000E+00;  1.0000000E+04;  0.0000000E+00;  0.0000000E+00;  1.0000000E+04;  0.0000000E+00;  1.0000000E+04;  0.0000000E+00;  0.0000000E+00;  0.0000000E+00;  0.0000000E+00;
  2.2000000E+00;  9.9999998E-03;  1.2000000E-01;972;  0.0000000E+00;  0.0000000E+00;  0.0000000E+00;  1.0000000E+03;  4.0000001E-01;  0.0000000E+00;0;  0.0000000E+00;  0.0000000E+00;  0.0000000E+00;0;  0.0000000E+00;  1.0000000E+04;  0.0000000E+00;  0.0000000E+00;  1.0000000E+04;  0.0000000E+00;  1.0000000E+04;  0.0000000E+00;  0.0000000E+00;  0.0000000E+00;  0.0000000E+00;
  2.2000000E+00;  9.9999998E-03;  1.4000000E-01;973;  0.0000000E+00;  0.0000000E+00;  0.0000000E+00;  1.0000000E+03;  4.0000001E-01;  0.0000000E+00;0;  0.0000000E+00;  0.0000000E+00;  0.0000000E+00;0;  0.0000000E+00;  1.0000000E+04;  0.0000000E+00;  0.0000000E+00;  1.0000000E+04;  0.0000000E+00;  1.0000000E+04;  0.0000000E+00;  0.0000000E+00;  0.0000000E+00;  0.0000000E+00;
  2.2000000E+00;  9.9999998E-03;  1.6000000E-01;974;  0.0000000E+00;  0.0000000E+00;  0.0000000E+00;  1.0000000E+03;  4.0000001E-01;  0.0000000E+00;0;  0.0000000E+00;  0.0000000E+00;  0.0000000E+00;0;  0.0000000E+00;  1.0000000E+04;  0.0000000E+00;  0.0000000E+00;  1.0000000E+04;  0.0000000E+00;  1.0000000E+04;  0.0000000E+00;  0.0000000E+00;  0.0000000E+00;  0.0000000E+00;
  2.2000000E+00;  9.9999998E-03;  1.8000001E-01;975;  0.0000000E+00;  0.0000000E+00;  0.0000000E+00;  1.0000000E+03;  4.0000001E-01;  0.0000000E+00;0;  0.0000000E+00;  0.0000000E+00;  0.0000000E+00;0;  0.0000000E+00;  1.0000000E+04;  0.0000000E+00;  0.0000000E+00;  1.0000000E+04;  0.0000000E+00;  1.0000000E+04;  0.0000000E+00;  0.0000000E+00;  0.0000000E+00;  0.0000000E+00;
  2.2000000E+00;  9.9999998E-03;  2.0000000E-01;976;  0.0000000E+00;  0.0000000E+00;  0.0000000E+00;  1.0000000E+03;  4.0000001E-01;  0.0000000E+00;0;  0.0000000E+00;  0.0000000E+00;  0.0000000E+00;0;  0.0000000E+00;  1.0000000E+04;  0.0000000E+00;  0.0000000E+00;  1.0000000E+04;  0.0000000E+00;  1.0000000E+04;  0.0000000E+00;  0.0000000E+00;  0.0000000E+00;  0.0000000E+00;
  2.2000000E+00;  9.9999998E-03;  2.2000000E-01;977;  0.0000000E+00;  0.0000000E+00;  0.0000000E+00;  1.0000000E+03;  4.0000001E-01;  0.0000000E+00;0;  0.0000000E+00;  0.0000000E+00;  0.0000000E+00;0;  0.0000000E+00;  1.0000000E+04;  0.0000000E+00;  0.0000000E+00;  1.0000000E+04;  0.0000000E+00;  1.0000000E+04;  0.0000000E+00;  0.0000000E+00;  0.0000000E+00;  0.0000000E+00;
  2.2000000E+00;  9.9999998E-03;  2.3999999E-01;978;  0.0000000E+00;  0.0000000E+00;  0.0000000E+00;  1.0000000E+03;  4.0000001E-01;  0.0000000E+00;0;  0.0000000E+00;  0.0000000E+00;  0.0000000E+00;0;  0.0000000E+00;  1.0000000E+04;  0.0000000E+00;  0.0000000E+00;  1.0000000E+04;  0.0000000E+00;  1.0000000E+04;  0.0000000E+00;  0.0000000E+00;  0.0000000E+00;  0.0000000E+00;
  2.2000000E+00;  9.9999998E-03;  2.5999999E-01;979;  0.0000000E+00;  0.0000000E+00;  0.0000000E+00;  1.0000000E+03;  4.0000001E-01;  0.0000000E+00;0;  0.0000000E+00;  0.0000000E+00;  0.0000000E+00;0;  0.0000000E+00;  1.0000000E+04;  0.0000000E+00;  0.0000000E+00;  1.0000000E+04;  0.0000000E+00;  1.0000000E+04;  0.0000000E+00;  0.0000000E+00;  0.0000000E+00;  0.0000000E+00;
  2.2000000E+00;  9.9999998E-03;  2.8000000E-01;980;  0.0000000E+00;  0.0000000E+00;  0.0000000E+00;  1.0000000E+03;  4.0000001E-01;  0.0000000E+00;0;  0.0000000E+00;  0.0000000E+00;  0.0000000E+00;0;  0.0000000E+00;  1.0000000E+04;  0.0000000E+00;  0.0000000E+00;  1.0000000E+04;  0.0000000E+00;  1.0000000E+04;  0.0000000E+00;  0.0000000E+00;  0.0000000E+00;  0.0000000E+00;
  2.2000000E+00;  9.9999998E-03;  3.0000001E-01;981;  0.0000000E+00;  0.0000000E+00;  0.0000000E+00;  1.0000000E+03;  4.0000001E-01;  0.0000000E+00;0;  0.0000000E+00;  0.0000000E+00;  0.0000000E+00;0;  0.0000000E+00;  1.0000000E+04;  0.0000000E+00;  0.0000000E+00;  1.0000000E+04;  0.0000000E+00;  1.0000000E+04;  0.0000000E+00;  0.0000000E+00;  0.0000000E+00;  0.0000000E+00;
  2.2000000E+00;  9.9999998E-03;  3.1999999E-01;982;  0.0000000E+00;  0.0000000E+00;  0.0000000E+00;  1.0000000E+03;  4.0000001E-01;  0.0000000E+00;0;  0.0000000E+00;  0.0000000E+00;  0.0000000E+00;0;  0.0000000E+00;  1.0000000E+04;  0.0000000E+00;  0.0000000E+00;  1.0000000E+04;  0.0000000E+00;  1.0000000E+04;  0.0000000E+00;  0.0000000E+00;  0.0000000E+00;  0.0000000E+00;
  2.2000000E+00;  9.9999998E-03;  3.4000000E-01;983;  0.0000000E+00;  0.0000000E+00;  0.0000000E+00;  1.0000000E+03;  4.0000001E-01;  0.0000000E+00;0;  0.0000000E+00;  0.0000000E+00;  0.0000000E+00;0;  0.0000000E+00;  1.0000000E+04;  0.0000000E+00;  0.0000000E+00;  1.0000000E+04;  0.0000000E+00;  1.0000000E+04;  0.0000000E+00;  0.0000000E+00;  0.0000000E+00;  0.0000000E+00;
  2.2000000E+00;  9.9999998E-03;  3.6000001E-01;984;  0.0000000E+00;  0.0000000E+00;  0.0000000E+00;  1.0000000E+03;  4.0000001E-01;  0.0000000E+00;0;  0.0000000E+00;  0.0000000E+00;  0.0000000E+00;0;  0.0000000E+00;  1.0000000E+04;  0.0000000E+00;  0.0000000E+00;  1.0000000E+04;  0.0000000E+00;  1.0000000E+04;  0.0000000E+00;  0.0000000E+00;  0.0000000E+00;  0.0000000E+00;
  2.2000000E+00;  9.9999998E-03;  3.8000000E-01;985;  0.0000000E+00;  0.0000000E+00;  0.0000000E+00;  1.0000000E+03;  4.0000001E-01;  0.0000000E+00;0;  0.0000000E+00;  0.0000000E+00;  0.0000000E+00;0;  0.0000000E+00;  1.0000000E+04;  0.0000000E+00;  0.0000000E+00;  1.0000000E+04;  0.0000000E+00;  1.0000000E+04;  0.0000000E+00;  0.0000000E+00;  0.0000000E+00;  0.0000000E+00;
  2.2200000E+00;  9.9999998E-03;  2.0000000E-02;986;  0.0000000E+00;  0.0000000E+00;  0.0000000E+00;  1.0000000E+03;  4.0000001E-01;  0.0000000E+00;0;  0.0000000E+00;  0.0000000E+00;  0.0000000E+00;0;  0.0000000E+00;  1.0000000E+04;  0.0000000E+00;  0.0000000E+00;  1.0000000E+04;  0.0000000E+00;  1.0000000E+04;  0.0000000E+00;  0.0000000E+00;  0.0000000E+00;  0.0000000E+00;
  2.2200000E+00;  9.9999998E-03;  3.9999999E-02;987;  0.0000000E+00;  0.0000000E+00;  0.0000000E+00;  1.0000000E+03;  4.0000001E-01;  0.0000000E+00;0;  0.0000000E+00;  0.0000000E+00;  0.0000000E+00;0;  0.0000000E+00;  1.0000000E+04;  0.0000000E+00;  0.0000000E+00;  1.0000000E+04;  0.0000000E+00;  1.0000000E+04;  0.0000000E+00;  0.0000000E+00;  0.0000000E+00;  0.0000000E+00;
  2.2200000E+00;  9.9999998E-03;  5.9999999E-02;988;  0.0000000E+00;  0.0000000E+00;  0.0000000E+00;  1.0000000E+03;  4.0000001E-01;  0.0000000E+00;0;  0.0000000E+00;  0.0000000E+00;  0.0000000E+00;0;  0.0000000E+00;  1.0000000E+04;  0.0000000E+00;  0.0000000E+00;  1.0000000E+04;  0.0000000E+00;  1.0000000E+04;  0.0000000E+00;  0.0000000E+00;  0.0000000E+00;  0.0000000E+00;
  2.2200000E+00;  9.9999998E-03;  7.9999998E-02;989;  0.0000000E+00;  0.0000000E+00;  0.0000000E+00;  1.0000000E+03;  4.0000001E-01;  0.0000000E+00;0;  0.0000000E+00;  0.0000000E+00;  0.0000000E+00;0;  0.0000000E+00;  1.0000000E+04;  0.0000000E+00;  0.0000000E+00;  1.0000000E+04;  0.0000000E+00;  1.0000000E+04;  0.0000000E+00;  0.0000000E+00;  0.0000000E+00;  0.0000000E+00;
  2.2200000E+00;  9.9999998E-03;  1.0000000E-01;990;  0.0000000E+00;  0.0000000E+00;  0.0000000E+00;  1.0000000E+03;  4.0000001E-01;  0.0000000E+00;0;  0.0000000E+00;  0.0000000E+00;  0.0000000E+00;0;  0.0000000E+00;  1.0000000E+04;  0.0000000E+00;  0.0000000E+00;  1.0000000E+04;  0.0000000E+00;  1.0000000E+04;  0.0000000E+00;  0.0000000E+00;  0.0000000E+00;  0.0000000E+00;
  2.2200000E+00;  9.9999998E-03;  1.2000000E-01;991;  0.0000000E+00;  0.0000000E+00;  0.0000000E+00;  1.0000000E+03;  4.0000001E-01;  0.0000000E+00;0;  0.0000000E+00;  0.0000000E+00;  0.0000000E+00;0;  0.0000000E+00;  1.0000000E+04;  0.0000000E+00;  0.0000000E+00;  1.0000000E+04;  0.0000000E+00;  1.0000000E+04;  0.0000000E+00;  0.0000000E+00;  0.0000000E+00;  0.0000000E+00;
  2.2200000E+00;  9.9999998E-03;  1.4000000E-01;992;  0.0000000E+00;  0.0000000E+00;  0.0000000E+00;  1.0000000E+03;  4.0000001E-01;  0.0000000E+00;0;  0.0000000E+00;  0.0000000E+00;  0.0000000E+00;0;  0.0000000E+00;  1.0000000E+04;  0.0000000E+00;  0.0000000E+00;  1.0000000E+04;  0.0000000E+00;  1.0000000E+04;  0.0000000E+00;  0.0000000E+00;  0.0000000E+00;  0.0000000E+00;
  2.2200000E+00;  9.9999998E-03;  1.6000000E-01;993;  0.0000000E+00;  0.0000000E+00;  0.0000000E+00;  1.0000000E+03;  4.0000001E-01;  0.0000000E+00;0;  0.0000000E+00;  0.0000000E+00;  0.0000000E+00;0;  0.0000000E+00;  1.0000000E+04;  0.0000000E+00;  0.0000000E+00;  1.0000000E+04;  0.0000000E+00;  1.0000000E+04;  0.0000000E+00;  0.0000000E+00;  0.0000000E+00;  0.0000000E+00;
  2.2200000E+00;  9.9999998E-03;  1.8000001E-01;994;  0.0000000E+00;  0.0000000E+00;  0.0000000E+00;  1.0000000E+03;  4.0000001E-01;  0.0000000E+00;0;  0.0000000E+00;  0.0000000E+00;  0.0000000E+00;0;  0.0000000E+00;  1.0000000E+04;  0.0000000E+00;  0.0000000E+00;  1.0000000E+04;  0.0000000E+00;  1.0000000E+04;  0.0000000E+00;  0.0000000E+00;  0.0000000E+00;  0.0000000E+00;
  2.2200000E+00;  9.9999998E-03;  2.0000000E-01;995;  0.0000000E+00;  0.0000000E+00;  0.0000000E+00;  1.0000000E+03;  4.0000001E-01;  0.0000000E+00;0;  0.0000000E+00;  0.0000000E+00;  0.0000000E+00;0;  0.0000000E+00;  1.0000000E+04;  0.0000000E+00;  0.0000000E+00;  1.0000000E+04;  0.0000000E+00;  1.0000000E+04;  0.0000000E+00;  0.0000000E+00;  0.0000000E+00;  0.0000000E+00;
  2.2200000E+00;  9.9999998E-03;  2.2000000E-01;996;  0.0000000E+00;  0.0000000E+00;  0.0000000E+00;  1.0000000E+03;  4.0000001E-01;  0.0000000E+00;0;  0.0000000E+00;  0.0000000E+00;  0.0000000E+00;0;  0.0000000E+00;  1.0000000E+04;  0.0000000E+00;  0.0000000E+00;  1.0000000E+04;  0.0000000E+00;  1.0000000E+04;  0.0000000E+00;  0.0000000E+00;  0.0000000E+00;  0.0000000E+00;
  2.2200000E+00;  9.9999998E-03;  2.3999999E-01;997;  0.0000000E+00;  0.0000000E+00;  0.0000000E+00;  1.0000000E+03;  4.0000001E-01;  0.0000000E+00;0;  0.0000000E+00;  0.0000000E+00;  0.0000000E+00;0;  0.0000000E+00;  1.0000000E+04;  0.0000000E+00;  0.0000000E+00;  1.0000000E+04;  0.0000000E+00;  1.0000000E+04;  0.0000000E+00;  0.0000000E+00;  0.0000000E+00;  0.0000000E+00;
  2.2200000E+00;  9.9999998E-03;  2.5999999E-01;998;  0.0000000E+00;  0.0000000E+00;  0.0000000E+00;  1.0000000E+03;  4.0000001E-01;  0.0000000E+00;0;  0.0000000E+00;  0.0000000E+00;  0.0000000E+00;0;  0.0000000E+00;  1.0000000E+04;  0.0000000E+00;  0.0000000E+00;  1.0000000E+04;  0.0000000E+00;  1.0000000E+04;  0.0000000E+00;  0.0000000E+00;  0.0000000E+00;  0.0000000E+00;
  2.2200000E+00;  9.9999998E-03;  2.8000000E-01;999;  0.0000000E+00;  0.0000000E+00;  0.0000000E+00;  1.0000000E+03;  4.0000001E-01;  0.0000000E+00;0;  0.0000000E+00;  0.0000000E+00;  0.0000000E+00;0;  0.0000000E+00;  1.0000000E+04;  0.0000000E+00;  0.0000000E+00;  1.0000000E+04;  0.0000000E+00;  1.0000000E+04;  0.0000000E+00;  0.0000000E+00;  0.0000000E+00;  0.0000000E+00;
  2.2200000E+00;  9.9999998E-03;  3.0000001E-01;1000;  0.0000000E+00;  0.0000000E+00;  0.0000000E+00;  1.0000000E+03;  4.0000001E-01;  0.0000000E+00;0;  0.0000000E+00;  0.0000000E+00;  0.0000000E+00;0;  0.0000000E+00;  1.0000000E+04;  0.0000000E+00;  0.0000000E+00;  1.0000000E+04;  0.0000000E+00;  1.0000000E+04;  0.0000000E+00;  0.0000000E+00;  0.0000000E+00;  0.0000000E+00;
  2.2200000E+00;  9.9999998E-03;  3.1999999E-01;1001;  0.0000000E+00;  0.0000000E+00;  0.0000000E+00;  1.0000000E+03;  4.0000001E-01;  0.0000000E+00;0;  0.0000000E+00;  0.0000000E+00;  0.0000000E+00;0;  0.0000000E+00;  1.0000000E+04;  0.0000000E+00;  0.0000000E+00;  1.0000000E+04;  0.0000000E+00;  1.0000000E+04;  0.0000000E+00;  0.0000000E+00;  0.0000000E+00;  0.0000000E+00;
  2.2200000E+00;  9.9999998E-03;  3.4000000E-01;1002;  0.0000000E+00;  0.0000000E+00;  0.0000000E+00;  1.0000000E+03;  4.0000001E-01;  0.0000000E+00;0;  0.0000000E+00;  0.0000000E+00;  0.0000000E+00;0;  0.0000000E+00;  1.0000000E+04;  0.0000000E+00;  0.0000000E+00;  1.0000000E+04;  0.0000000E+00;  1.0000000E+04;  0.0000000E+00;  0.0000000E+00;  0.0000000E+00;  0.0000000E+00;
  2.2200000E+00;  9.9999998E-03;  3.6000001E-01;1003;  0.0000000E+00;  0.0000000E+00;  0.0000000E+00;  1.0000000E+03;  4.0000001E-01;  0.0000000E+00;0;  0.0000000E+00;  0.0000000E+00;  0.0000000E+00;0;  0.0000000E+00;  1.0000000E+04;  0.0000000E+00;  0.0000000E+00;  1.0000000E+04;  0.0000000E+00;  1.0000000E+04;  0.0000000E+00;  0.0000000E+00;  0.0000000E+00;  0.0000000E+00;
  2.2200000E+00;  9.9999998E-03;  3.8000000E-01;1004;  0.0000000E+00;  0.0000000E+00;  0.0000000E+00;  1.0000000E+03;  4.0000001E-01;  0.0000000E+00;0;  0.0000000E+00;  0.0000000E+00;  0.0000000E+00;0;  0.0000000E+00;  1.0000000E+04;  0.0000000E+00;  0.0000000E+00;  1.0000000E+04;  0.0000000E+00;  1.0000000E+04;  0.0000000E+00;  0.0000000E+00;  0.0000000E+00;  0.0000000E+00;
  2.2400000E+00;  9.9999998E-03;  1.2000000E-01;1005;  0.0000000E+00;  0.0000000E+00;  0.0000000E+00;  1.0000000E+03;  4.0000001E-01;  0.0000000E+00;0;  0.0000000E+00;  0.0000000E+00;  0.0000000E+00;0;  0.0000000E+00;  1.0000000E+04;  0.0000000E+00;  0.0000000E+00;  1.0000000E+04;  0.0000000E+00;  1.0000000E+04;  0.0000000E+00;  0.0000000E+00;  0.0000000E+00;  0.0000000E+00;
  2.2400000E+00;  9.9999998E-03;  1.4000000E-01;1006;  0.0000000E+00;  0.0000000E+00;  0.0000000E+00;  1.0000000E+03;  4.0000001E-01;  0.0000000E+00;0;  0.0000000E+00;  0.0000000E+00;  0.0000000E+00;0;  0.0000000E+00;  1.0000000E+04;  0.0000000E+00;  0.0000000E+00;  1.0000000E+04;  0.0000000E+00;  1.0000000E+04;  0.0000000E+00;  0.0000000E+00;  0.0000000E+00;  0.0000000E+00;
  2.2400000E+00;  9.9999998E-03;  1.6000000E-01;1007;  0.0000000E+00;  0.0000000E+00;  0.0000000E+00;  1.0000000E+03;  4.0000001E-01;  0.0000000E+00;0;  0.0000000E+00;  0.0000000E+00;  0.0000000E+00;0;  0.0000000E+00;  1.0000000E+04;  0.0000000E+00;  0.0000000E+00;  1.0000000E+04;  0.0000000E+00;  1.0000000E+04;  0.0000000E+00;  0.0000000E+00;  0.0000000E+00;  0.0000000E+00;
  2.2400000E+00;  9.9999998E-03;  1.8000001E-01;1008;  0.0000000E+00;  0.0000000E+00;  0.0000000E+00;  1.0000000E+03;  4.0000001E-01;  0.0000000E+00;0;  0.0000000E+00;  0.0000000E+00;  0.0000000E+00;0;  0.0000000E+00;  1.0000000E+04;  0.0000000E+00;  0.0000000E+00;  1.0000000E+04;  0.0000000E+00;  1.0000000E+04;  0.0000000E+00;  0.0000000E+00;  0.0000000E+00;  0.0000000E+00;
  2.2400000E+00;  9.9999998E-03;  2.0000000E-01;1009;  0.0000000E+00;  0.0000000E+00;  0.0000000E+00;  1.0000000E+03;  4.0000001E-01;  0.0000000E+00;0;  0.0000000E+00;  0.0000000E+00;  0.0000000E+00;0;  0.0000000E+00;  1.0000000E+04;  0.0000000E+00;  0.0000000E+00;  1.0000000E+04;  0.0000000E+00;  1.0000000E+04;  0.0000000E+00;  0.0000000E+00;  0.0000000E+00;  0.0000000E+00;
  2.2400000E+00;  9.9999998E-03;  2.2000000E-01;1010;  0.0000000E+00;  0.0000000E+00;  0.0000000E+00;  1.0000000E+03;  4.0000001E-01;  0.0000000E+00;0;  0.0000000E+00;  0.0000000E+00;  0.0000000E+00;0;  0.0000000E+00;  1.0000000E+04;  0.0000000E+00;  0.0000000E+00;  1.0000000E+04;  0.0000000E+00;  1.0000000E+04;  0.0000000E+00;  0.0000000E+00;  0.0000000E+00;  0.0000000E+00;
  2.2400000E+00;  9.9999998E-03;  2.3999999E-01;1011;  0.0000000E+00;  0.0000000E+00;  0.0000000E+00;  1.0000000E+03;  4.0000001E-01;  0.0000000E+00;0;  0.0000000E+00;  0.0000000E+00;  0.0000000E+00;0;  0.0000000E+00;  1.0000000E+04;  0.0000000E+00;  0.0000000E+00;  1.0000000E+04;  0.0000000E+00;  1.0000000E+04;  0.0000000E+00;  0.0000000E+00;  0.0000000E+00;  0.0000000E+00;
  2.2400000E+00;  9.9999998E-03;  2.5999999E-01;1012;  0.0000000E+00;  0.0000000E+00;  0.0000000E+00;  1.0000000E+03;  4.0000001E-01;  0.0000000E+00;0;  0.0000000E+00;  0.0000000E+00;  0.0000000E+00;0;  0.0000000E+00;  1.0000000E+04;  0.0000000E+00;  0.0000000E+00;  1.0000000E+04;  0.0000000E+00;  1.0000000E+04;  0.0000000E+00;  0.0000000E+00;  0.0000000E+00;  0.0000000E+00;
  2.2400000E+00;  9.9999998E-03;  2.8000000E-01;1013;  0.0000000E+00;  0.0000000E+00;  0.0000000E+00;  1.0000000E+03;  4.0000001E-01;  0.0000000E+00;0;  0.0000000E+00;  0.0000000E+00;  0.0000000E+00;0;  0.0000000E+00;  1.0000000E+04;  0.0000000E+00;  0.0000000E+00;  1.0000000E+04;  0.0000000E+00;  1.0000000E+04;  0.0000000E+00;  0.0000000E+00;  0.0000000E+00;  0.0000000E+00;
  2.2400000E+00;  9.9999998E-03;  3.0000001E-01;1014;  0.0000000E+00;  0.0000000E+00;  0.0000000E+00;  1.0000000E+03;  4.0000001E-01;  0.0000000E+00;0;  0.0000000E+00;  0.0000000E+00;  0.0000000E+00;0;  0.0000000E+00;  1.0000000E+04;  0.0000000E+00;  0.0000000E+00;  1.0000000E+04;  0.0000000E+00;  1.0000000E+04;  0.0000000E+00;  0.0000000E+00;  0.0000000E+00;  0.0000000E+00;
  2.2400000E+00;  9.9999998E-03;  3.1999999E-01;1015;  0.0000000E+00;  0.0000000E+00;  0.0000000E+00;  1.0000000E+03;  4.0000001E-01;  0.0000000E+00;0;  0.0000000E+00;  0.0000000E+00;  0.0000000E+00;0;  0.0000000E+00;  1.0000000E+04;  0.0000000E+00;  0.0000000E+00;  1.0000000E+04;  0.0000000E+00;  1.0000000E+04;  0.0000000E+00;  0.0000000E+00;  0.0000000E+00;  0.0000000E+00;
  2.2400000E+00;  9.9999998E-03;  3.4000000E-01;1016;  0.0000000E+00;  0.0000000E+00;  0.0000000E+00;  1.0000000E+03;  4.0000001E-01;  0.0000000E+00;0;  0.0000000E+00;  0.0000000E+00;  0.0000000E+00;0;  0.0000000E+00;  1.0000000E+04;  0.0000000E+00;  0.0000000E+00;  1.0000000E+04;  0.0000000E+00;  1.0000000E+04;  0.0000000E+00;  0.0000000E+00;  0.0000000E+00;  0.0000000E+00;
  2.2400000E+00;  9.9999998E-03;  3.6000001E-01;1017;  0.0000000E+00;  0.0000000E+00;  0.0000000E+00;  1.0000000E+03;  4.0000001E-01;  0.0000000E+00;0;  0.0000000E+00;  0.0000000E+00;  0.0000000E+00;0;  0.0000000E+00;  1.0000000E+04;  0.0000000E+00;  0.0000000E+00;  1.0000000E+04;  0.0000000E+00;  1.0000000E+04;  0.0000000E+00;  0.0000000E+00;  0.0000000E+00;  0.0000000E+00;
  2.2400000E+00;  9.9999998E-03;  3.8000000E-01;1018;  0.0000000E+00;  0.0000000E+00;  0.0000000E+00;  1.0000000E+03;  4.0000001E-01;  0.0000000E+00;0;  0.0000000E+00;  0.0000000E+00;  0.0000000E+00;0;  0.0000000E+00;  1.0000000E+04;  0.0000000E+00;  0.0000000E+00;  1.0000000E+04;  0.0000000E+00;  1.0000000E+04;  0.0000000E+00;  0.0000000E+00;  0.0000000E+00;  0.0000000E+00;
  2.2600000E+00;  9.9999998E-03;  2.2000000E-01;1019;  0.0000000E+00;  0.0000000E+00;  0.0000000E+00;  1.0000000E+03;  4.0000001E-01;  0.0000000E+00;0;  0.0000000E+00;  0.0000000E+00;  0.0000000E+00;0;  0.0000000E+00;  1.0000000E+04;  0.0000000E+00;  0.0000000E+00;  1.0000000E+04;  0.0000000E+00;  1.0000000E+04;  0.0000000E+00;  0.0000000E+00;  0.0000000E+00;  0.0000000E+00;
  2.2600000E+00;  9.9999998E-03;  2.3999999E-01;1020;  0.0000000E+00;  0.0000000E+00;  0.0000000E+00;  1.0000000E+03;  4.0000001E-01;  0.0000000E+00;0;  0.0000000E+00;  0.0000000E+00;  0.0000000E+00;0;  0.0000000E+00;  1.0000000E+04;  0.0000000E+00;  0.0000000E+00;  1.0000000E+04;  0.0000000E+00;  1.0000000E+04;  0.0000000E+00;  0.0000000E+00;  0.0000000E+00;  0.0000000E+00;
  2.2600000E+00;  9.9999998E-03;  2.5999999E-01;1021;  0.0000000E+00;  0.0000000E+00;  0.0000000E+00;  1.0000000E+03;  4.0000001E-01;  0.0000000E+00;0;  0.0000000E+00;  0.0000000E+00;  0.0000000E+00;0;  0.0000000E+00;  1.0000000E+04;  0.0000000E+00;  0.0000000E+00;  1.0000000E+04;  0.0000000E+00;  1.0000000E+04;  0.0000000E+00;  0.0000000E+00;  0.0000000E+00;  0.0000000E+00;
  2.2600000E+00;  9.9999998E-03;  2.8000000E-01;1022;  0.0000000E+00;  0.0000000E+00;  0.0000000E+00;  1.0000000E+03;  4.0000001E-01;  0.0000000E+00;0;  0.0000000E+00;  0.0000000E+00;  0.0000000E+00;0;  0.0000000E+00;  1.0000000E+04;  0.0000000E+00;  0.0000000E+00;  1.0000000E+04;  0.0000000E+00;  1.0000000E+04;  0.0000000E+00;  0.0000000E+00;  0.0000000E+00;  0.0000000E+00;
  2.2600000E+00;  9.9999998E-03;  3.0000001E-01;1023;  0.0000000E+00;  0.0000000E+00;  0.0000000E+00;  1.0000000E+03;  4.0000001E-01;  0.0000000E+00;0;  0.0000000E+00;  0.0000000E+00;  0.0000000E+00;0;  0.0000000E+00;  1.0000000E+04;  0.0000000E+00;  0.0000000E+00;  1.0000000E+04;  0.0000000E+00;  1.0000000E+04;  0.0000000E+00;  0.0000000E+00;  0.0000000E+00;  0.0000000E+00;
  2.2600000E+00;  9.9999998E-03;  3.1999999E-01;1024;  0.0000000E+00;  0.0000000E+00;  0.0000000E+00;  1.0000000E+03;  4.0000001E-01;  0.0000000E+00;0;  0.0000000E+00;  0.0000000E+00;  0.0000000E+00;0;  0.0000000E+00;  1.0000000E+04;  0.0000000E+00;  0.0000000E+00;  1.0000000E+04;  0.0000000E+00;  1.0000000E+04;  0.0000000E+00;  0.0000000E+00;  0.0000000E+00;  0.0000000E+00;
  2.2600000E+00;  9.9999998E-03;  3.4000000E-01;1025;  0.0000000E+00;  0.0000000E+00;  0.0000000E+00;  1.0000000E+03;  4.0000001E-01;  0.0000000E+00;0;  0.0000000E+00;  0.0000000E+00;  0.0000000E+00;0;  0.0000000E+00;  1.0000000E+04;  0.0000000E+00;  0.0000000E+00;  1.0000000E+04;  0.0000000E+00;  1.0000000E+04;  0.0000000E+00;  0.0000000E+00;  0.0000000E+00;  0.0000000E+00;
  2.2600000E+00;  9.9999998E-03;  3.6000001E-01;1026;  0.0000000E+00;  0.0000000E+00;  0.0000000E+00;  1.0000000E+03;  4.0000001E-01;  0.0000000E+00;0;  0.0000000E+00;  0.0000000E+00;  0.0000000E+00;0;  0.0000000E+00;  1.0000000E+04;  0.0000000E+00;  0.0000000E+00;  1.0000000E+04;  0.0000000E+00;  1.0000000E+04;  0.0000000E+00;  0.0000000E+00;  0.0000000E+00;  0.0000000E+00;
  2.2600000E+00;  9.9999998E-03;  3.8000000E-01;1027;  0.0000000E+00;  0.0000000E+00;  0.0000000E+00;  1.0000000E+03;  4.0000001E-01;  0.0000000E+00;0;  0.0000000E+00;  0.0000000E+00;  0.0000000E+00;0;  0.0000000E+00;  1.0000000E+04;  0.0000000E+00;  0.0000000E+00;  1.0000000E+04;  0.0000000E+00;  1.0000000E+04;  0.0000000E+00;  0.0000000E+00;  0.0000000E+00;  0.0000000E+00;
  2.2800000E+00;  9.9999998E-03;  3.1999999E-01;1028;  0.0000000E+00;  0.0000000E+00;  0.0000000E+00;  1.0000000E+03;  4.0000001E-01;  0.0000000E+00;0;  0.0000000E+00;  0.0000000E+00;  0.0000000E+00;0;  0.0000000E+00;  1.0000000E+04;  0.0000000E+00;  0.0000000E+00;  1.0000000E+04;  0.0000000E+00;  1.0000000E+04;  0.0000000E+00;  0.0000000E+00;  0.0000000E+00;  0.0000000E+00;
  2.2800000E+00;  9.9999998E-03;  3.4000000E-01;1029;  0.0000000E+00;  0.0000000E+00;  0.0000000E+00;  1.0000000E+03;  4.0000001E-01;  0.0000000E+00;0;  0.0000000E+00;  0.0000000E+00;  0.0000000E+00;0;  0.0000000E+00;  1.0000000E+04;  0.0000000E+00;  0.0000000E+00;  1.0000000E+04;  0.0000000E+00;  1.0000000E+04;  0.0000000E+00;  0.0000000E+00;  0.0000000E+00;  0.0000000E+00;
  2.2800000E+00;  9.9999998E-03;  3.6000001E-01;1030;  0.0000000E+00;  0.0000000E+00;  0.0000000E+00;  1.0000000E+03;  4.0000001E-01;  0.0000000E+00;0;  0.0000000E+00;  0.0000000E+00;  0.0000000E+00;0;  0.0000000E+00;  1.0000000E+04;  0.0000000E+00;  0.0000000E+00;  1.0000000E+04;  0.0000000E+00;  1.0000000E+04;  0.0000000E+00;  0.0000000E+00;  0.0000000E+00;  0.0000000E+00;
 -2.4651511E-12;  9.9999998E-03; -2.8000000E-01;1031; -1.7562510E-08;  0.0000000E+00; -5.4960720E-09;  1.0000000E+03;  4.0000001E-01;  0.0000000E+00;3; -6.4435590E-05;  0.0000000E+00; -2.0261559E-05;0; -3.2885387E-07;  1.0000000E+04;  0.0000000E+00;  4.9159467E-15;  1.0000000E+04;  0.0000000E+00;  1.0000000E+04; -3.1513565E-07;  0.0000000E+00; -1.3718234E-08;  3.2304615E-06;
 -3.0514046E-12;  9.9999998E-03; -2.5999999E-01;1032; -2.1722222E-08;  0.0000000E+00; -5.1256452E-09;  1.0000000E+03;  4.0000001E-01;  0.0000000E+00;3; -7.9641635E-05;  0.0000000E+00; -1.8907489E-05;0; -4.0353262E-07;  1.0000000E+04;  0.0000000E+00; -8.8452792E-16;  1.0000000E+04;  0.0000000E+00;  1.0000000E+04; -3.9998605E-07;  0.0000000E+00; -3.5465775E-09;  1.0609490E-06;
 -3.5542550E-12;  9.9999998E-03; -2.3999999E-01;1033; -2.5294437E-08;  0.0000000E+00; -4.6044835E-09;  1.0000000E+03;  4.0000001E-01;  0.0000000E+00;3; -9.2705443E-05;  0.0000000E+00; -1.7005181E-05;0; -4.6936390E-07;  1.0000000E+04;  0.0000000E+00;  9.9322999E-16;  1.0000000E+04;  0.0000000E+00;  1.0000000E+04; -4.7490741E-07;  0.0000000E+00;  5.5435141E-09;  4.7475610E-06;
 -3.9786395E-12;  9.9999998E-03; -2.2000000E-01;1034; -2.8317881E-08;  0.0000000E+00; -4.0000265E-09;  1.0000000E+03;  4.0000001E-01;  0.0000000E+00;3; -1.0378029E-04;  0.0000000E+00; -1.4793116E-05;0; -5.2539718E-07;  1.0000000E+04;  0.0000000E+00;  1.6331544E-14;  1.0000000E+04;  0.0000000E+00;  1.0000000E+04; -5.3687580E-07;  0.0000000E+00;  1.1478608E-08;  7.0232231E-06;
 -4.3298503E-12;  9.9999998E-03; -2.0000000E-01;1035; -3.0828588E-08;  0.0000000E+00; -3.3923901E-09;  1.0000000E+03;  4.0000001E-01;  0.0000000E+00;3; -1.1299604E-04;  0.0000000E+00; -1.2565890E-05;0; -5.7242283E-07;  1.0000000E+04;  0.0000000E+00; -1.0356980E-14;  1.0000000E+04;  0.0000000E+00;  1.0000000E+04; -5.8640461E-07;  0.0000000E+00;  1.3981769E-08;  7.8599269E-06;
  2.0000000E-02;  9.9999998E-03; -3.0000001E-01;1060; -2.4238052E-08;  0.0000000E+00; -1.0449721E-08;  1.0000000E+03;  4.0000001E-01;  0.0000000E+00;3; -8.8256696E-05;  0.0000000E+00; -3.8242844E-05;0; -4.7090165E-07;  1.0000000E+04;  0.0000000E+00;  1.3194146E-14;  1.0000000E+04;  0.0000000E+00;  1.0000000E+04; -4.2742639E-07;  0.0000000E+00; -4.3475257E-08;  1.5612546E-05;
  2.0000000E-02;  9.9999998E-03; -2.8000000E-01;1061; -3.3058416E-08;  0.0000000E+00; -1.0286153E-08;  1.0000000E+03;  4.0000001E-01;  0.0000000E+00;3; -1.2021810E-04;  0.0000000E+00; -3.7625003E-05;0; -6.1553914E-07;  1.0000000E+04;  0.0000000E+00;  1.1514402E-14;  1.0000000E+04;  0.0000000E+00;  1.0000000E+04; -5.8872951E-07;  0.0000000E+00; -2.6809655E-08;  7.3208735E-06;
  2.0000000E-02;  9.9999998E-03; -2.5999999E-01;1062; -4.0879481E-08;  0.0000000E+00; -9.5896109E-09;  1.0000000E+03;  4.0000001E-01;  0.0000000E+00;3; -1.4851576E-04;  0.0000000E+00; -3.5103367E-05;0; -7.5168339E-07;  1.0000000E+04;  0.0000000E+00; -9.2325973E-15;  1.0000000E+04;  0.0000000E+00;  1.0000000E+04; -7.4509569E-07;  0.0000000E+00; -6.5876997E-09;  2.2760794E-06;
  2.0000000E-02;  9.9999998E-03; -2.3999999E-01;1063; -4.7510472E-08;  0.0000000E+00; -8.6181302E-09;  1.0000000E+03;  4.0000001E-01;  0.0000000E+00;3; -1.7250987E-04;  0.0000000E+00; -3.1595217E-05;0; -8.7108879E-07;  1.0000000E+04;  0.0000000E+00;  4.7621954E-15;  1.0000000E+04;  0.0000000E+00;  1.0000000E+04; -8.8243394E-07;  0.0000000E+00;  1.1345160E-08;  1.0490505E-05;
  2.0000000E-02;  9.9999998E-03; -2.2000000E-01;1064; -5.3075549E-08;  0.0000000E+00; -7.4930826E-09;  1.0000000E+03;  4.0000001E-01;  0.0000000E+00;3; -1.9268539E-04;  0.0000000E+00; -2.7519860E-05;0; -9.7238944E-07;  1.0000000E+04;  0.0000000E+00;  3.1353602E-14;  1.0000000E+04;  0.0000000E+00;  1.0000000E+04; -9.9538477E-07;  0.0000000E+00;  2.2995302E-08;  1.5549791E-05;
  2.0000000E-02;  9.9999998E-03; -2.0000000E-01;1065; -5.7668835E-08;  0.0000000E+00; -6.3634138E-09;  1.0000000E+03;  4.0000001E-01;  0.0000000E+00;3; -2.0938148E-04;  0.0000000E+00; -2.3420005E-05;0; -1.0573001E-06;  1.0000000E+04;  0.0000000E+00;  8.6482208E-15;  1.0000000E+04;  0.0000000E+00;  1.0000000E+04; -1.0851636E-06;  0.0000000E+00;  2.7863511E-08;  1.7395292E-05;
  3.9999999E-02;  9.9999998E-03; -3.0000001E-01;1091; -4.4894112E-08;  0.0000000E+00; -1.9037579E-08;  1.0000000E+03;  4.0000001E-01;  0.0000000E+00;3; -1.6175906E-04;  0.0000000E+00; -6.8973954E-05;0; -8.6568946E-07;  1.0000000E+04;  0.0000000E+00;  3.9514429E-14;  1.0000000E+04;  0.0000000E+00;  1.0000000E+04; -7.8275076E-07;  0.0000000E+00; -8.2938698E-08;  3.4017368E-05;
  3.9999999E-02;  9.9999998E-03; -2.8000000E-01;1092; -6.0934731E-08;  0.0000000E+00; -1.8809731E-08;  1.0000000E+03;  4.0000001E-01;  0.0000000E+00;3; -2.1914361E-04;  0.0000000E+00; -6.8106354E-05;0; -1.1261327E-06;  1.0000000E+04;  0.0000000E+00;  8.2986435E-15;  1.0000000E+04;  0.0000000E+00;  1.0000000E+04; -1.0754003E-06;  0.0000000E+00; -5.0732453E-08;  1.6030737E-05;
  3.9999999E-02;  9.9999998E-03; -2.5999999E-01;1093; -7.5045783E-08;  0.0000000E+00; -1.7469263E-08;  1.0000000E+03;  4.0000001E-01;  0.0000000E+00;3; -2.6950784E-04;  0.0000000E+00; -6.3303356E-05;0; -1.3695545E-06;  1.0000000E+04;  0.0000000E+00; -1.7342192E-14;  1.0000000E+04;  0.0000000E+00;  1.0000000E+04; -1.3575676E-06;  0.0000000E+00; -1.1986901E-08;  4.7021276E-06;
  3.9999999E-02;  9.9999998E-03; -2.3999999E-01;1094; -8.6959936E-08;  0.0000000E+00; -1.5665231E-08;  1.0000000E+03;  4.0000001E-01;  0.0000000E+00;3; -3.1202889E-04;  0.0000000E+00; -5.6872246E-05;0; -1.5816338E-06;  1.0000000E+04;  0.0000000E+00;  1.6268452E-14;  1.0000000E+04;  0.0000000E+00;  1.0000000E+04; -1.6038118E-06;  0.0000000E+00;  2.2177986E-08;  2.2398850E-05;
  3.9999999E-02;  9.9999998E-03; -2.2000000E-01;1095; -9.6899342E-08;  0.0000000E+00; -1.3608912E-08;  1.0000000E+03;  4.0000001E-01;  0.0000000E+00;3; -3.4758265E-04;  0.0000000E+00; -4.9519633E-05;0; -1.7606635E-06;  1.0000000E+04;  0.0000000E+00;  1.5394947E-14;  1.0000000E+04;  0.0000000E+00;  1.0000000E+04; -1.8049394E-06;  0.0000000E+00;  4.4275851E-08;  3.3275410E-05;
  3.9999999E-02;  9.9999998E-03; -2.0000000E-01;1096; -1.0505852E-07;  0.0000000E+00; -1.1554073E-08;  1.0000000E+03;  4.0000001E-01;  0.0000000E+00;3; -3.7686361E-04;  0.0000000E+00; -4.2156691E-05;0; -1.9103147E-06;  1.0000000E+04;  0.0000000E+00;  2.5478097E-14;  1.0000000E+04;  0.0000000E+00;  1.0000000E+04; -1.9637446E-06;  0.0000000E+00;  5.3429837E-08;  3.7212369E-05;
  5.9999999E-02;  9.9999998E-03; -3.0000001E-01;1122; -8.1171542E-08;  0.0000000E+00; -3.4034439E-08;  1.0000000E+03;  4.0000001E-01;  0.0000000E+00;3; -2.8869879E-04;  0.0000000E+00; -1.2175512E-04;0; -1.5616423E-06;  1.0000000E+04;  0.0000000E+00; -4.1005182E-11;  1.0000000E+04;  0.0000000E+00;  1.0000000E+04; -1.4079349E-06;  0.0000000E+00; -1.5370740E-07;  7.1737159E-05;
  5.9999999E-02;  9.9999998E-03; -2.8000000E-01;1123; -1.0976901E-07;  0.0000000E+00; -3.3567080E-08;  1.0000000E+03;  4.0000001E-01;  0.0000000E+00;3; -3.8941781E-04;  0.0000000E+00; -1.1997797E-04;0; -2.0222396E-06;  1.0000000E+04;  0.0000000E+00; -1.1176960E-11;  1.0000000E+04;  0.0000000E+00;  1.0000000E+04; -1.9287750E-06;  0.0000000E+00; -9.3464564E-08;  3.3956010E-05;
  5.9999999E-02;  9.9999998E-03; -2.5999999E-01;1124; -1.3467486E-07;  0.0000000E+00; -3.1104772E-08;  1.0000000E+03;  4.0000001E-01;  0.0000000E+00;3; -4.7683131E-04;  0.0000000E+00; -1.1127628E-04;0; -2.4493393E-06;  1.0000000E+04;  0.0000000E+00; -5.8845797E-15;  1.0000000E+04;  0.0000000E+00;  1.0000000E+04; -2.4280218E-06;  0.0000000E+00; -2.1317387E-08;  9.4771012E-06;
  5.9999999E-02;  9.9999998E-03; -2.3999999E-01;1125; -1.5554403E-07;  0.0000000E+00; -2.7831920E-08;  1.0000000E+03;  4.0000001E-01;  0.0000000E+00;3; -5.5004534E-04;  0.0000000E+00; -9.9791745E-05;0; -2.8186282E-06;  1.0000000E+04;  0.0000000E+00;  2.9730331E-14;  1.0000000E+04;  0.0000000E+00;  1.0000000E+04; -2.8606298E-06;  0.0000000E+00;  4.2001567E-08;  4.6446181E-05;
  5.9999999E-02;  9.9999998E-03; -2.2000000E-01;1126; -1.7282936E-07;  0.0000000E+00; -2.4154314E-08;  1.0000000E+03;  4.0000001E-01;  0.0000000E+00;3; -6.1084121E-04;  0.0000000E+00; -8.6852473E-05;0; -3.1284364E-06;  1.0000000E+04;  0.0000000E+00; -3.3047824E-14;  1.0000000E+04;  0.0000000E+00;  1.0000000E+04; -3.2112114E-06;  0.0000000E+00;  8.2774967E-08;  6.9105503E-05;
  5.9999999E-02;  9.9999998E-03; -2.0000000E-01;1127; -1.8693977E-07;  0.0000000E+00; -2.0488223E-08;  1.0000000E+03;  4.0000001E-01;  0.0000000E+00;3; -6.6066498E-04;  0.0000000E+00; -7.3921576E-05;0; -3.3863876E-06;  1.0000000E+04;  0.0000000E+00;  1.1910640E-14;  1.0000000E+04;  0.0000000E+00;  1.0000000E+04; -3.4858992E-06;  0.0000000E+00;  9.9511794E-08;  7.7230558E-05;
  7.9999998E-02;  9.9999998E-03; -3.0000001E-01;1153; -1.4401918E-07;  0.0000000E+00; -5.9798154E-08;  1.0000000E+03;  4.0000001E-01;  0.0000000E+00;3; -5.0437188E-04;  0.0000000E+00; -2.1063515E-04;0; -2.7785211E-06;  1.0000000E+04;  0.0000000E+00; -6.3919545E-09;  1.0000000E+04;  0.0000000E+00;  1.0000000E+04; -2.5004522E-06;  0.0000000E+00; -2.7806885E-07;  1.4695915E-04;
  7.9999998E-02;  9.9999998E-03; -2.8000000E-01;1154; -1.9405255E-07;  0.0000000E+00; -5.8737260E-08;  1.0000000E+03;  4.0000001E-01;  0.0000000E+00;3; -6.7737018E-04;  0.0000000E+00; -2.0663820E-04;0; -3.5745379E-06;  1.0000000E+04;  0.0000000E+00; -3.7769032E-09;  1.0000000E+04;  0.0000000E+00;  1.0000000E+04; -3.4066138E-06;  0.0000000E+00; -1.6792410E-07;  6.9681373E-05;
  7.9999998E-02;  9.9999998E-03; -2.5999999E-01;1155; -2.3720676E-07;  0.0000000E+00; -5.4258340E-08;  1.0000000E+03;  4.0000001E-01;  0.0000000E+00;3; -8.2586420E-04;  0.0000000E+00; -1.9106400E-04;0; -4.3058940E-06;  1.0000000E+04;  0.0000000E+00; -1.4062480E-09;  1.0000000E+04;  0.0000000E+00;  1.0000000E+04; -4.2692577E-06;  0.0000000E+00; -3.6636241E-08;  1.9043269E-05;
  7.9999998E-02;  9.9999998E-03; -2.3999999E-01;1156; -2.7304901E-07;  0.0000000E+00; -4.8427268E-08;  1.0000000E+03;  4.0000001E-01;  0.0000000E+00;3; -9.4906881E-04;  0.0000000E+00; -1.7098036E-04;0; -4.9343089E-06;  1.0000000E+04;  0.0000000E+00; -1.6589048E-10;  1.0000000E+04;  0.0000000E+00;  1.0000000E+04; -5.0122376E-06;  0.0000000E+00;  7.7928476E-08;  9.3911891E-05;
  7.9999998E-02;  9.9999998E-03; -2.2000000E-01;1157; -3.0247620E-07;  0.0000000E+00; -4.1980691E-08;  1.0000000E+03;  4.0000001E-01;  0.0000000E+00;3; -1.0504856E-03;  0.0000000E+00; -1.4873694E-04;0; -5.4591660E-06;  1.0000000E+04;  0.0000000E+00; -1.9814853E-14;  1.0000000E+04;  0.0000000E+00;  1.0000000E+04; -5.6104259E-06;  0.0000000E+00;  1.5125981E-07;  1.3963890E-04;
  7.9999998E-02;  9.9999998E-03; -2.0000000E-01;1158; -3.2634597E-07;  0.0000000E+00; -3.5569567E-08;  1.0000000E+03;  4.0000001E-01;  0.0000000E+00;3; -1.1331220E-03;  0.0000000E+00; -1.2654715E-04;0; -5.8942073E-06;  1.0000000E+04;  0.0000000E+00; -5.1033146E-15;  1.0000000E+04;  0.0000000E+00;  1.0000000E+04; -6.0752213E-06;  0.0000000E+00;  1.8101395E-07;  1.5581396E-04;
  1.0000000E-01;  9.9999998E-03; -3.0000001E-01;1184; -2.5176493E-07;  0.0000000E+00; -1.0351064E-07;  1.0000000E+03;  4.0000001E-01;  0.0000000E+00;3; -8.6622982E-04;  0.0000000E+00; -3.5798986E-04;0; -4.9305331E-06;  1.0000000E+04;  0.0000000E+00; -8.2543309E-08;  1.0000000E+04;  0.0000000E+00;  1.0000000E+04; -4.4376952E-06;  0.0000000E+00; -4.9283790E-07;  3.1570563E-04;
  1.0000000E-01;  9.9999998E-03; -2.8000000E-01;1185; -3.3781575E-07;  0.0000000E+00; -1.0110247E-07;  1.0000000E+03;  4.0000001E-01;  0.0000000E+00;3; -1.1575916E-03;  0.0000000E+00; -3.4904771E-04;0; -6.2636241E-06;  1.0000000E+04;  0.0000000E+00; -5.5426550E-08;  1.0000000E+04;  0.0000000E+00;  1.0000000E+04; -5.9695521E-06;  0.0000000E+00; -2.9407204E-07;  1.5942780E-04;
  1.0000000E-01;  9.9999998E-03; -2.5999999E-01;1186; -4.1128095E-07;  0.0000000E+00; -9.2988735E-08;  1.0000000E+03;  4.0000001E-01;  0.0000000E+00;3; -1.4047548E-03;  0.0000000E+00; -3.2134543E-04;0; -7.4691611E-06;  1.0000000E+04;  0.0000000E+00; -2.7649461E-08;  1.0000000E+04;  0.0000000E+00;  1.0000000E+04; -7.4100071E-06;  0.0000000E+00; -5.9153827E-08;  5.6167137E-05;
  1.0000000E-01;  9.9999998E-03; -2.3999999E-01;1187; -4.7172551E-07;  0.0000000E+00; -8.2733209E-08;  1.0000000E+03;  4.0000001E-01;  0.0000000E+00;3; -1.6077333E-03;  0.0000000E+00; -2.8676397E-04;0; -8.4983531E-06;  1.0000000E+04;  0.0000000E+00; -8.4153244E-09;  1.0000000E+04;  0.0000000E+00;  1.0000000E+04; -8.6421587E-06;  0.0000000E+00;  1.4380592E-07;  1.8687946E-04;
  1.0000000E-01;  9.9999998E-03; -2.2000000E-01;1188; -5.2090348E-07;  0.0000000E+00; -7.1592574E-08;  1.0000000E+03;  4.0000001E-01;  0.0000000E+00;3; -1.7732743E-03;  0.0000000E+00; -2.4918569E-04;0; -9.3600538E-06;  1.0000000E+04;  0.0000000E+00; -1.0610209E-09;  1.0000000E+04;  0.0000000E+00;  1.0000000E+04; -9.6322192E-06;  0.0000000E+00;  2.7216524E-07;  2.7561537E-04;
  1.0000000E-01;  9.9999998E-03; -2.0000000E-01;1189; -5.6050953E-07;  0.0000000E+00; -6.0573136E-08;  1.0000000E+03;  4.0000001E-01;  0.0000000E+00;3; -1.9072582E-03;  0.0000000E+00; -2.1186656E-04;0; -1.0076970E-05;  1.0000000E+04;  0.0000000E+00;  1.4279828E-13;  1.0000000E+04;  0.0000000E+00;  1.0000000E+04; -1.0400076E-05;  0.0000000E+00;  3.2310660E-07;  3.0633251E-04;
  1.2000000E-01;  9.9999998E-03; -3.0000001E-01;1215; -4.3471888E-07;  0.0000000E+00; -1.7702749E-07;  1.0000000E+03;  4.0000001E-01;  0.0000000E+00;3; -1.4667974E-03;  0.0000000E+00; -5.9961784E-04;0; -8.8133065E-06;  1.0000000E+04;  0.0000000E+00; -5.0393851E-07;  1.0000000E+04;  0.0000000E+00;  1.0000000E+04; -7.9551110E-06;  0.0000000E+00; -8.5819590E-07;  9.8163250E-04;
  1.2000000E-01;  9.9999998E-03; -2.8000000E-01;1216; -5.8047192E-07;  0.0000000E+00; -1.7171723E-07;  1.0000000E+03;  4.0000001E-01;  0.0000000E+00;3; -1.9491217E-03;  0.0000000E+00; -5.8026292E-04;0; -1.0963517E-05;  1.0000000E+04;  0.0000000E+00; -3.6743103E-07;  1.0000000E+04;  0.0000000E+00;  1.0000000E+04; -1.0462871E-05;  0.0000000E+00; -5.0064551E-07;  6.4217550E-04;
  1.2000000E-01;  9.9999998E-03; -2.5999999E-01;1217; -7.0355765E-07;  0.0000000E+00; -1.5707992E-07;  1.0000000E+03;  4.0000001E-01;  0.0000000E+00;3; -2.3531625E-03;  0.0000000E+00; -5.3128955E-04;0; -1.2846450E-05;  1.0000000E+04;  0.0000000E+00; -2.0057431E-07;  1.0000000E+04;  0.0000000E+00;  1.0000000E+04; -1.2762100E-05;  0.0000000E+00; -8.4350319E-08;  3.3170584E-04;
  1.2000000E-01;  9.9999998E-03; -2.3999999E-01;1218; -8.0380249E-07;  0.0000000E+00; -1.3920260E-07;  1.0000000E+03;  4.0000001E-01;  0.0000000E+00;3; -2.6812856E-03;  0.0000000E+00; -4.7238034E-04;0; -1.4440393E-05;  1.0000000E+04;  0.0000000E+00; -7.7387071E-08;  1.0000000E+04;  0.0000000E+00;  1.0000000E+04; -1.4709439E-05;  0.0000000E+00;  2.6904598E-07;  3.8758843E-04;
  1.2000000E-01;  9.9999998E-03; -2.2000000E-01;1219; -8.8459376E-07;  0.0000000E+00; -1.2007631E-07;  1.0000000E+03;  4.0000001E-01;  0.0000000E+00;3; -2.9462329E-03;  0.0000000E+00; -4.0943178E-04;0; -1.5789232E-05;  1.0000000E+04;  0.0000000E+00; -1.7666103E-08;  1.0000000E+04;  0.0000000E+00;  1.0000000E+04; -1.6276366E-05;  0.0000000E+00;  4.8713514E-07;  5.3553242E-04;
  1.2000000E-01;  9.9999998E-03; -2.0000000E-01;1220; -9.4907682E-07;  0.0000000E+00; -1.0133422E-07;  1.0000000E+03;  4.0000001E-01;  0.0000000E+00;3; -3.1587617E-03;  0.0000000E+00; -3.4744141E-04;0; -1.6931594E-05;  1.0000000E+04;  0.0000000E+00; -1.4655062E-09;  1.0000000E+04;  0.0000000E+00;  1.0000000E+04; -1.7500983E-05;  0.0000000E+00;  5.6938927E-07;  5.8925286E-04;
  1.4000000E-01;  9.9999998E-03; -3.0000001E-01;1246; -7.4306996E-07;  0.0000000E+00; -2.9952054E-07;  1.0000000E+03;  4.0000001E-01;  0.0000000E+00;3; -2.4562397E-03;  0.0000000E+00; -9.9175726E-04;0; -1.5900734E-05;  1.0000000E+04;  0.0000000E+00; -2.1258011E-06;  1.0000000E+04;  0.0000000E+00;  1.0000000E+04; -1.4429781E-05;  0.0000000E+00; -1.4709526E-06;  3.8022499E-03;
  1.4000000E-01;  9.9999998E-03; -2.8000000E-01;1247; -9.8576095E-07;  0.0000000E+00; -2.8817479E-07;  1.0000000E+03;  4.0000001E-01;  0.0000000E+00;3; -3.2399164E-03;  0.0000000E+00; -9.5130858E-04;0; -1.9201285E-05;  1.0000000E+04;  0.0000000E+00; -1.5995203E-06;  1.0000000E+04;  0.0000000E+00;  1.0000000E+04; -1.8377263E-05;  0.0000000E+00; -8.2402238E-07;  2.7976125E-03;
  1.4000000E-01;  9.9999998E-03; -2.5999999E-01;1248; -1.1880943E-06;  0.0000000E+00; -2.6196119E-07;  1.0000000E+03;  4.0000001E-01;  0.0000000E+00;3; -3.8868089E-03;  0.0000000E+00; -8.6550007E-04;0; -2.1942133E-05;  1.0000000E+04;  0.0000000E+00; -9.0784016E-07;  1.0000000E+04;  0.0000000E+00;  1.0000000E+04; -2.1853761E-05;  0.0000000E+00; -8.8371422E-08;  1.5799192E-03;
  1.4000000E-01;  9.9999998E-03; -2.3999999E-01;1249; -1.3511939E-06;  0.0000000E+00; -2.3113478E-07;  1.0000000E+03;  4.0000001E-01;  0.0000000E+00;3; -4.4062552E-03;  0.0000000E+00; -7.6636206E-04;0; -2.4241550E-05;  1.0000000E+04;  0.0000000E+00; -3.8210456E-07;  1.0000000E+04;  0.0000000E+00;  1.0000000E+04; -2.4759638E-05;  0.0000000E+00;  5.1808786E-07;  9.7946310E-04;
  1.4000000E-01;  9.9999998E-03; -2.2000000E-01;1250; -1.4816175E-06;  0.0000000E+00; -1.9854477E-07;  1.0000000E+03;  4.0000001E-01;  0.0000000E+00;3; -4.8222328E-03;  0.0000000E+00; -6.6178694E-04;0; -2.6236887E-05;  1.0000000E+04;  0.0000000E+00; -1.0844025E-07;  1.0000000E+04;  0.0000000E+00;  1.0000000E+04; -2.7113121E-05;  0.0000000E+00;  8.7623391E-07;  1.0438041E-03;
  1.4000000E-01;  9.9999998E-03; -2.0000000E-01;1251; -1.5848756E-06;  0.0000000E+00; -1.6690929E-07;  1.0000000E+03;  4.0000001E-01;  0.0000000E+00;3; -5.1532146E-03;  0.0000000E+00; -5.5965118E-04;0; -2.7985730E-05;  1.0000000E+04;  0.0000000E+00; -1.6293560E-08;  1.0000000E+04;  0.0000000E+00;  1.0000000E+04; -2.8983239E-05;  0.0000000E+00;  9.9750889E-07;  1.1148304E-03;
  1.6000000E-01;  9.9999998E-03; -3.0000001E-01;1277; -1.2575091E-06;  0.0000000E+00; -5.0013966E-07;  1.0000000E+03;  4.0000001E-01;  0.0000000E+00;3; -4.0709325E-03;  0.0000000E+00; -1.6170086E-03;0; -2.8687678E-05;  1.0000000E+04;  0.0000000E+00; -7.0328470E-06;  1.0000000E+04;  0.0000000E+00;  1.0000000E+04; -2.6207872E-05;  0.0000000E+00; -2.4798064E-06;  1.3071997E-02;
  1.6000000E-01;  9.9999998E-03; -2.8000000E-01;1278; -1.6531618E-06;  0.0000000E+00; -4.7687047E-07;  1.0000000E+03;  4.0000001E-01;  0.0000000E+00;3; -5.3154938E-03;  0.0000000E+00; -1.5361144E-03;0; -3.3421235E-05;  1.0000000E+04;  0.0000000E+00; -5.2847113E-06;  1.0000000E+04;  0.0000000E+00;  1.0000000E+04; -3.2124855E-05;  0.0000000E+00; -1.2963789E-06;  9.7972956E-03;
  1.6000000E-01;  9.9999998E-03; -2.5999999E-01;1279; -1.9784065E-06;  0.0000000E+00; -4.3085257E-07;  1.0000000E+03;  4.0000001E-01;  0.0000000E+00;3; -6.3265618E-03;  0.0000000E+00; -1.3890445E-03;0; -3.7067952E-05;  1.0000000E+04;  0.0000000E+00; -3.0148583E-06;  1.0000000E+04;  0.0000000E+00;  1.0000000E+04; -3.7072296E-05;  0.0000000E+00;  4.3430646E-09;  5.6034485E-03;
  1.6000000E-01;  9.9999998E-03; -2.3999999E-01;1280; -2.2381851E-06;  0.0000000E+00; -3.7870899E-07;  1.0000000E+03;  4.0000001E-01;  0.0000000E+00;3; -7.1305279E-03;  0.0000000E+00; -1.2256082E-03;0; -4.0136641E-05;  1.0000000E+04;  0.0000000E+00; -1.3058808E-06;  1.0000000E+04;  0.0000000E+00;  1.0000000E+04; -4.1166033E-05;  0.0000000E+00;  1.0293902E-06;  2.8119835E-03;
  1.6000000E-01;  9.9999998E-03; -2.2000000E-01;1281; -2.4447668E-06;  0.0000000E+00; -3.2400948E-07;  1.0000000E+03;  4.0000001E-01;  0.0000000E+00;3; -7.7708084E-03;  0.0000000E+00; -1.0545286E-03;0; -4.2942644E-05;  1.0000000E+04;  0.0000000E+00; -4.0683392E-07;  1.0000000E+04;  0.0000000E+00;  1.0000000E+04; -4.4535649E-05;  0.0000000E+00;  1.5930038E-06;  2.0989995E-03;
  1.6000000E-01;  9.9999998E-03; -2.0000000E-01;1282; -2.6073731E-06;  0.0000000E+00; -2.7119199E-07;  1.0000000E+03;  4.0000001E-01;  0.0000000E+00;3; -8.2774926E-03;  0.0000000E+00; -8.8797527E-04;0; -4.5534664E-05;  1.0000000E+04;  0.0000000E+00; -7.7836205E-08;  1.0000000E+04;  0.0000000E+00;  1.0000000E+04; -4.7280642E-05;  0.0000000E+00;  1.7459777E-06;  2.0852706E-03;
  1.7999999E-01;  9.9999998E-03; -3.0000001E-01;1308; -2.1055869E-06;  0.0000000E+00; -8.2169385E-07;  1.0000000E+03;  4.0000001E-01;  0.0000000E+00;3; -6.6729756E-03;  0.0000000E+00; -2.5921981E-03;0; -5.0697832E-05;  1.0000000E+04;  0.0000000E+00; -1.8908218E-05;  1.0000000E+04;  0.0000000E+00;  1.0000000E+04; -4.6616289E-05;  0.0000000E+00; -4.0815412E-06;  3.7225336E-02;
  1.7999999E-01;  9.9999998E-03; -2.8000000E-01;1309; -2.7365857E-06;  0.0000000E+00; -7.7603687E-07;  1.0000000E+03;  4.0000001E-01;  0.0000000E+00;3; -8.6022001E-03;  0.0000000E+00; -2.4381096E-03;0; -5.7006713E-05;  1.0000000E+04;  0.0000000E+00; -1.3964869E-05;  1.0000000E+04;  0.0000000E+00;  1.0000000E+04; -5.5105844E-05;  0.0000000E+00; -1.9008689E-06;  2.7580202E-02;
  1.7999999E-01;  9.9999998E-03; -2.5999999E-01;1310; -3.2475243E-06;  0.0000000E+00; -6.9768510E-07;  1.0000000E+03;  4.0000001E-01;  0.0000000E+00;3; -1.0143587E-02;  0.0000000E+00; -2.1945173E-03;0; -6.1422455E-05;  1.0000000E+04;  0.0000000E+00; -7.8427729E-06;  1.0000000E+04;  0.0000000E+00;  1.0000000E+04; -6.1813000E-05;  0.0000000E+00;  3.9054669E-07;  1.5558486E-02;
  1.7999999E-01;  9.9999998E-03; -2.3999999E-01;1311; -3.6529248E-06;  0.0000000E+00; -6.1089344E-07;  1.0000000E+03;  4.0000001E-01;  0.0000000E+00;3; -1.1361944E-02;  0.0000000E+00; -1.9293125E-03;0; -6.5284665E-05;  1.0000000E+04;  0.0000000E+00; -3.3918341E-06;  1.0000000E+04;  0.0000000E+00;  1.0000000E+04; -6.7367866E-05;  0.0000000E+00;  2.0831981E-06;  7.2949240E-03;
  1.7999999E-01;  9.9999998E-03; -2.2000000E-01;1312; -3.9731999E-06;  0.0000000E+00; -5.2139433E-07;  1.0000000E+03;  4.0000001E-01;  0.0000000E+00;3; -1.2326205E-02;  0.0000000E+00; -1.6567524E-03;0; -6.9146918E-05;  1.0000000E+04;  0.0000000E+00; -1.0922057E-06;  1.0000000E+04;  0.0000000E+00;  1.0000000E+04; -7.2064060E-05;  0.0000000E+00;  2.9171429E-06;  4.2999308E-03;
  1.7999999E-01;  9.9999998E-03; -2.0000000E-01;1313; -4.2245902E-06;  0.0000000E+00; -4.3457311E-07;  1.0000000E+03;  4.0000001E-01;  0.0000000E+00;3; -1.3088144E-02;  0.0000000E+00; -1.3889559E-03;0; -7.2946685E-05;  1.0000000E+04;  0.0000000E+00; -2.3221746E-07;  1.0000000E+04;  0.0000000E+00;  1.0000000E+04; -7.5998738E-05;  0.0000000E+00;  3.0520564E-06;  3.8647240E-03;
  2.0000000E-01;  9.9999998E-03; -3.0000001E-01;1339; -3.4837462E-06;  0.0000000E+00; -1.3331429E-06;  1.0000000E+03;  4.0000001E-01;  0.0000000E+00;3; -1.0803039E-02;  0.0000000E+00; -4.1040834E-03;0; -8.5631385E-05;  1.0000000E+04;  0.0000000E+00; -4.1080479E-05;  1.0000000E+04;  0.0000000E+00;  1.0000000E+04; -7.9209123E-05;  0.0000000E+00; -6.4222622E-06;  8.5982837E-02;
  2.0000000E-01;  9.9999998E-03; -2.8000000E-01;1340; -4.4705334E-06;  0.0000000E+00; -1.2435352E-06;  1.0000000E+03;  4.0000001E-01;  0.0000000E+00;3; -1.3730049E-02;  0.0000000E+00; -3.8109994E-03;0; -9.3866387E-05;  1.0000000E+04;  0.0000000E+00; -2.9816236E-05;  1.0000000E+04;  0.0000000E+00;  1.0000000E+04; -9.1413393E-05;  0.0000000E+00; -2.4529911E-06;  6.2745310E-02;
  2.0000000E-01;  9.9999998E-03; -2.5999999E-01;1341; -5.2573168E-06;  0.0000000E+00; -1.1104333E-06;  1.0000000E+03;  4.0000001E-01;  0.0000000E+00;3; -1.6029721E-02;  0.0000000E+00; -3.4083594E-03;0; -9.9048906E-05;  1.0000001E+04;  0.0000000E+00; -1.6353699E-05;  1.0000000E+04;  0.0000000E+00;  1.0000000E+04; -1.0056177E-04;  0.0000000E+00;  1.5128653E-06;  3.4609631E-02;
  2.0000000E-01;  9.9999998E-03; -2.3999999E-01;1342; -5.8773458E-06;  0.0000000E+00; -9.6836516E-07;  1.0000000E+03;  4.0000001E-01;  0.0000000E+00;3; -1.7837515E-02;  0.0000000E+00; -2.9849338E-03;0; -1.0397457E-04;  1.0000001E+04;  0.0000000E+00; -6.9452485E-06;  1.0000000E+04;  0.0000000E+00;  1.0000000E+04; -1.0817881E-04;  0.0000000E+00;  4.2042352E-06;  1.5725372E-02;
  2.0000000E-01;  9.9999998E-03; -2.2000000E-01;1343; -6.3630300E-06;  0.0000000E+00; -8.2591532E-07;  1.0000000E+03;  4.0000001E-01;  0.0000000E+00;3; -1.9256527E-02;  0.0000000E+00; -2.5636370E-03;0; -1.0944029E-04;  1.0000001E+04;  0.0000000E+00; -2.2349946E-06;  1.0000000E+04;  0.0000000E+00;  1.0000000E+04; -1.1476596E-04;  0.0000000E+00;  5.3256631E-06;  8.4434031E-03;
  2.0000000E-01;  9.9999998E-03; -2.0000000E-01;1344; -6.7439078E-06;  0.0000000E+00; -6.8543687E-07;  1.0000001E+03;  4.0000001E-01;  9.8762624E-02;3; -2.0380028E-02;  0.0000000E+00; -2.1389602E-03;0; -1.1508507E-04;  1.0000001E+04;  0.0000000E+00; -4.9187645E-07;  1.0000000E+04;  0.0000000E+00;  1.0000000E+04; -1.2038299E-04;  0.0000000E+00;  5.2979203E-06;  7.0669283E-03;
  2.2000000E-01;  9.9999998E-03; -3.0000001E-01;1370; -5.6694885E-06;  0.0000000E+00; -2.3055441E-06;  1.0000001E+03;  4.0000001E-01;  9.8762624E-02;3; -1.7192580E-02;  0.0000000E+00; -6.9847098E-03;0; -1.3654353E-04;  1.0000001E+04;  0.0000000E+00; -7.1319431E-05;  1.0000000E+04;  0.0000000E+00;  1.0000000E+04; -1.2763850E-04;  0.0000000E+00; -8.9050263E-06;  1.5867163E-01;
  2.2000000E-01;  9.9999998E-03; -2.8000000E-01;1371; -7.1977893E-06;  0.0000000E+00; -2.0574994E-06;  1.0000001E+03;  4.0000001E-01;  9.8762624E-02;3; -2.1591868E-02;  0.0000000E+00; -6.1817230E-03;0; -1.4835622E-04;  1.0000001E+04;  0.0000000E+00; -5.1321014E-05;  1.0000000E+04;  0.0000000E+00;  1.0000000E+04; -1.4613505E-04;  0.0000000E+00; -2.2211784E-06;  1.1499711E-01;
  2.2000000E-01;  9.9999998E-03; -2.5999999E-01;1372; -8.3918476E-06;  0.0000000E+00; -1.7826090E-06;  1.0000001E+03;  4.0000001E-01;  9.8762624E-02;3; -2.4970319E-02;  0.0000000E+00; -5.3535672E-03;0; -1.5522512E-04;  1.0000001E+04;  0.0000000E+00; -2.7490270E-05;  1.0000000E+04;  0.0000000E+00;  1.0000000E+04; -1.5949317E-04;  0.0000000E+00;  4.2680467E-06;  6.2106200E-02;
  2.2000000E-01;  9.9999998E-03; -2.3999999E-01;1373; -9.3228837E-06;  0.0000000E+00; -1.5272553E-06;  1.0000001E+03;  4.0000001E-01;  9.8762624E-02;3; -2.7599899E-02;  0.0000000E+00; -4.6013766E-03;0; -1.6220800E-04;  1.0000001E+04;  0.0000000E+00; -1.1350361E-05;  1.0000000E+04;  0.0000000E+00;  1.0000000E+04; -1.7048897E-04;  0.0000000E+00;  8.2809720E-06;  2.7898323E-02;
  2.2000000E-01;  9.9999998E-03; -2.2000000E-01;1374; -1.0044509E-05;  0.0000000E+00; -1.2923433E-06;  1.0000001E+03;  4.0000001E-01;  9.8762624E-02;3; -2.9641815E-02;  0.0000000E+00; -3.9217477E-03;0; -1.7039594E-04;  1.0000001E+04;  0.0000000E+00; -3.5657604E-06;  1.0000000E+04;  0.0000000E+00;  1.0000000E+04; -1.7996020E-04;  0.0000000E+00;  9.5642636E-06;  1.5297576E-02;
  2.2000000E-01;  9.9999998E-03; -2.0000000E-01;1375; -1.0609624E-05;  0.0000000E+00; -1.0640912E-06;  1.0000001E+03;  4.0000001E-01;  9.8762624E-02;3; -3.1261545E-02;  0.0000000E+00; -3.2434883E-03;0; -1.7894016E-04;  1.0000001E+04;  0.0000000E+00; -7.7294709E-07;  1.0000000E+04;  0.0000000E+00;  1.0000000E+04; -1.8799817E-04;  0.0000000E+00;  9.0580161E-06;  1.2660463E-02;
  2.3999999E-01;  9.9999998E-03; -3.0000001E-01;1401; -9.3208118E-06;  0.0000000E+00; -4.1594094E-06;  1.0000001E+03;  4.0000001E-01;  9.8762624E-02;3; -2.7679365E-02;  0.0000000E+00; -1.2459643E-02;0; -2.0984121E-04;  1.0000001E+04;  0.0000000E+00; -9.9854966E-05;  1.0000000E+04;  0.0000000E+00;  1.0000000E+04; -2.0041529E-04;  0.0000000E+00; -9.4259167E-06;  2.3623037E-01;
  2.3999999E-01;  9.9999998E-03; -2.8000000E-01;1402; -1.1516599E-05;  0.0000000E+00; -3.5279124E-06;  1.0000001E+03;  4.0000001E-01;  9.8762624E-02;3; -3.3744127E-02;  0.0000000E+00; -1.0435118E-02;0; -2.2765783E-04;  1.0000001E+04;  0.0000000E+00; -7.1412986E-05;  1.0000000E+04;  0.0000000E+00;  1.0000000E+04; -2.2826112E-04;  0.0000000E+00;  6.0329967E-07;  1.7025799E-01;
  2.3999999E-01;  9.9999998E-03; -2.5999999E-01;1403; -1.3249132E-05;  0.0000000E+00; -2.9081866E-06;  1.0000001E+03;  4.0000001E-01;  9.8762624E-02;3; -3.8454950E-02;  0.0000000E+00; -8.5645337E-03;0; -2.3821402E-04;  1.0000001E+04;  0.0000000E+00; -3.7266131E-05;  1.0000000E+04;  0.0000000E+00;  1.0000000E+04; -2.4843664E-04;  0.0000000E+00;  1.0222616E-05;  9.0243846E-02;
  2.3999999E-01;  9.9999998E-03; -2.3999999E-01;1404; -1.4605024E-05;  0.0000000E+00; -2.4074891E-06;  1.0000001E+03;  4.0000001E-01;  9.8762624E-02;3; -4.2145144E-02;  0.0000000E+00; -7.0948154E-03;0; -2.4905510E-04;  1.0000001E+04;  0.0000000E+00; -1.4793831E-05;  1.0000000E+04;  0.0000000E+00;  1.0000000E+04; -2.6470624E-04;  0.0000000E+00;  1.5651145E-05;  4.1595824E-02;
  2.3999999E-01;  9.9999998E-03; -2.2000000E-01;1405; -1.5648262E-05;  0.0000000E+00; -2.0012369E-06;  1.0000001E+03;  4.0000001E-01;  9.8762624E-02;3; -4.4990234E-02;  0.0000000E+00; -5.9353039E-03;0; -2.6165659E-04;  1.0000002E+04;  0.0000000E+00; -4.4331300E-06;  1.0000000E+04;  0.0000000E+00;  1.0000000E+04; -2.7835157E-04;  0.0000000E+00;  1.6694989E-05;  2.5999349E-02;
  2.3999999E-01;  9.9999998E-03; -2.0000000E-01;1406; -1.6466813E-05;  0.0000000E+00; -1.6270038E-06;  1.0000001E+03;  4.0000001E-01;  9.8762624E-02;3; -4.7259819E-02;  0.0000000E+00; -4.8415139E-03;0; -2.7456612E-04;  1.0000002E+04;  0.0000000E+00; -9.0109717E-07;  1.0000000E+04;  0.0000000E+00;  1.0000000E+04; -2.8970480E-04;  0.0000000E+00;  1.5138683E-05;  2.2167573E-02;
  2.5999999E-01;  9.9999998E-03; -3.0000001E-01;1432; -1.5241756E-05;  0.0000000E+00; -7.1554919E-06;  1.0000001E+03;  4.0000001E-01;  9.8762617E-02;3; -4.4303797E-02;  0.0000000E+00; -2.1092730E-02;0; -3.2125512E-04;  1.0000002E+04;  0.0000000E+00; -1.1469926E-04;  1.0000000E+04;  0.0000000E+00;  1.0000000E+04; -3.1550805E-04;  0.0000000E+00; -5.7470652E-06;  2.8853559E-01;
  2.5999999E-01;  9.9999998E-03; -2.8000000E-01;1433; -1.8317005E-05;  0.0000000E+00; -5.9335084E-06;  1.0000001E+03;  4.0000001E-01;  9.8762617E-02;3; -5.2379198E-02;  0.0000000E+00; -1.7242134E-02;0; -3.4614422E-04;  1.0000003E+04;  0.0000000E+00; -8.0479658E-05;  1.0000000E+04;  0.0000000E+00;  1.0000000E+04; -3.5464726E-04;  0.0000000E+00;  8.5030442E-06;  2.0408823E-01;
  2.5999999E-01;  9.9999998E-03; -2.5999999E-01;1434; -2.0737501E-05;  0.0000000E+00; -4.7006292E-06;  1.0000001E+03;  4.0000001E-01;  9.8762617E-02;3; -5.8639910E-02;  0.0000000E+00; -1.3554410E-02;0; -3.6208244E-04;  1.0000003E+04;  0.0000000E+00; -4.0435076E-05;  1.0000000E+04;  0.0000000E+00;  1.0000000E+04; -3.8360493E-04;  0.0000000E+00;  2.1522501E-05;  1.0699622E-01;
  2.5999999E-01;  9.9999998E-03; -2.3999999E-01;1435; -2.2631117E-05;  0.0000000E+00; -3.8437443E-06;  1.0000001E+03;  4.0000001E-01;  9.8762617E-02;3; -6.3543566E-02;  0.0000000E+00; -1.1138021E-02;0; -3.7855431E-04;  1.0000003E+04;  0.0000000E+00; -1.5148236E-05;  1.0000000E+04;  0.0000000E+00;  1.0000000E+04; -4.0663881E-04;  0.0000000E+00;  2.8084491E-05;  5.6143329E-02;
  2.5999999E-01;  9.9999998E-03; -2.2000000E-01;1436; -2.4104740E-05;  0.0000000E+00; -3.0895183E-06;  1.0000001E+03;  4.0000001E-01;  9.8762617E-02;3; -6.7393430E-02;  0.0000000E+00; -8.9655481E-03;0; -3.9735710E-04;  1.0000003E+04;  0.0000000E+00; -4.1943849E-06;  1.0000000E+04;  0.0000000E+00;  1.0000000E+04; -4.2548025E-04;  0.0000000E+00;  2.8123155E-05;  4.3376978E-02;
  2.5999999E-01;  9.9999998E-03; -2.0000000E-01;1437; -2.5263282E-05;  0.0000000E+00; -2.4577284E-06;  1.0000002E+03;  4.0000001E-01;  1.9752523E-01;3; -7.0480965E-02;  0.0000000E+00; -7.1320594E-03;0; -4.1630585E-04;  1.0000003E+04;  0.0000000E+00; -7.4593305E-07;  1.0000000E+04;  0.0000000E+00;  1.0000000E+04; -4.4093322E-04;  0.0000000E+00;  2.4627361E-05;  3.7981741E-02;
  2.8000000E-01;  9.9999998E-03; -3.0000001E-01;1463; -2.4444631E-05;  0.0000000E+00; -1.2014943E-05;  1.0000002E+03;  4.0000001E-01;  1.9752523E-01;3; -6.9363169E-02;  0.0000000E+00; -3.4948956E-02;0; -4.9473962E-04;  1.0000004E+04;  0.0000000E+00; -1.0702232E-04;  1.0000000E+04;  0.0000000E+00;  1.0000000E+04; -5.0224108E-04;  0.0000000E+00;  7.5014705E-06;  2.8502420E-01;
  2.8000000E-01;  9.9999998E-03; -2.8000000E-01;1464; -2.8793203E-05;  0.0000000E+00; -9.7950006E-06;  1.0000002E+03;  4.0000001E-01;  1.9752523E-01;3; -8.0192171E-02;  0.0000000E+00; -2.8033130E-02;0; -5.2591553E-04;  1.0000004E+04;  0.0000000E+00; -7.2105315E-05;  1.0000000E+04;  0.0000000E+00;  1.0000000E+04; -5.5177341E-04;  0.0000000E+00;  2.5857884E-05;  1.9533926E-01;
  2.8000000E-01;  9.9999998E-03; -2.5999999E-01;1465; -3.2140812E-05;  0.0000000E+00; -7.5214407E-06;  1.0000002E+03;  4.0000001E-01;  1.9752523E-01;3; -8.8356614E-02;  0.0000000E+00; -2.1276560E-02;0; -5.4792373E-04;  1.0000004E+04;  0.0000000E+00; -3.4107994E-05;  1.0000000E+04;  0.0000000E+00;  1.0000000E+04; -5.8918499E-04;  0.0000000E+00;  4.1261235E-05;  1.0899445E-01;
  2.8000000E-01;  9.9999998E-03; -2.3999999E-01;1466; -3.4764471E-05;  0.0000000E+00; -5.8282753E-06;  1.0000002E+03;  4.0000001E-01;  1.9752523E-01;3; -9.4784416E-02;  0.0000000E+00; -1.6391376E-02;0; -5.7106162E-04;  1.0000004E+04;  0.0000000E+00; -1.1696889E-05;  1.0000000E+04;  0.0000000E+00;  1.0000000E+04; -6.1894319E-04;  0.0000000E+00;  4.7881560E-05;  7.9677261E-02;
  2.8000000E-01;  9.9999998E-03; -2.2000000E-01;1467; -3.6795438E-05;  0.0000000E+00; -4.6207010E-06;  1.0000002E+03;  4.0000001E-01;  1.9752523E-01;3; -9.9803850E-02;  0.0000000E+00; -1.3018772E-02;0; -5.9750176E-04;  1.0000004E+04;  0.0000000E+00; -2.8324878E-06;  1.0000000E+04;  0.0000000E+00;  1.0000000E+04; -6.4319238E-04;  0.0000000E+00;  4.5690649E-05;  7.2635092E-02;
  2.8000000E-01;  9.9999998E-03; -2.0000000E-01;1468; -3.8398794E-05;  0.0000000E+00; -3.6495096E-06;  1.0000002E+03;  4.0000001E-01;  1.9752523E-01;3; -1.0386836E-01;  0.0000000E+00; -1.0292358E-02;0; -6.2424433E-04;  1.0000005E+04;  0.0000000E+00; -3.8593018E-07;  1.0000000E+04;  0.0000000E+00;  1.0000000E+04; -6.6322408E-04;  0.0000000E+00;  3.8979750E-05;  6.3718185E-02;
  2.9999998E-01;  9.9999998E-03; -3.0000001E-01;1494; -3.8531634E-05;  0.0000000E+00; -1.8727149E-05;  1.0000002E+03;  4.0000001E-01;  1.9752520E-01;3; -1.0655116E-01;  0.0000000E+00; -5.2983038E-02;0; -7.7302154E-04;  1.0000005E+04;  0.0000000E+00; -7.6383694E-05;  1.0000000E+04;  0.0000000E+00;  1.0000000E+04; -7.9979887E-04;  0.0000000E+00;  2.6777303E-05;  2.1473572E-01;
  2.9999998E-01;  9.9999998E-03; -2.8000000E-01;1495; -4.4675828E-05;  0.0000000E+00; -1.5140544E-05;  1.0000002E+03;  4.0000001E-01;  1.9752520E-01;3; -1.2095119E-01;  0.0000000E+00; -4.2117316E-02;0; -8.0261042E-04;  1.0000006E+04;  0.0000000E+00; -4.8242102E-05;  1.0000000E+04;  0.0000000E+00;  1.0000000E+04; -8.5440505E-04;  0.0000000E+00;  5.1794650E-05;  1.5027586E-01;
  2.9999998E-01;  9.9999998E-03; -2.5999999E-01;1496; -4.9310918E-05;  0.0000000E+00; -1.1467194E-05;  1.0000003E+03;  4.0000001E-01;  2.9628780E-01;3; -1.3152033E-01;  0.0000000E+00; -3.1497363E-02;0; -8.2624354E-04;  1.0000007E+04;  0.0000000E+00; -2.0733356E-05;  1.0000000E+04;  0.0000000E+00;  1.0000000E+04; -8.9712237E-04;  0.0000000E+00;  7.0878858E-05;  1.2284328E-01;
  2.9999998E-01;  9.9999998E-03; -2.3999999E-01;1497; -5.2918193E-05;  0.0000000E+00; -8.7551616E-06;  1.0000003E+03;  4.0000001E-01;  2.9628780E-01;3; -1.3977961E-01;  0.0000000E+00; -2.3902245E-02;0; -8.5453788E-04;  1.0000007E+04;  0.0000000E+00; -6.1842825E-06;  1.0000000E+04;  0.0000000E+00;  1.0000000E+04; -9.3198847E-04;  0.0000000E+00;  7.7450612E-05;  1.2702037E-01;
  2.9999998E-01;  9.9999998E-03; -2.2000000E-01;1498; -5.5702229E-05;  0.0000000E+00; -6.8515083E-06;  1.0000003E+03;  4.0000001E-01;  2.9628780E-01;3; -1.4624012E-01;  0.0000000E+00; -1.8725388E-02;0; -8.8942662E-04;  1.0000007E+04;  0.0000000E+00; -1.1661933E-06;  1.0000000E+04;  0.0000000E+00;  1.0000000E+04; -9.6122938E-04;  0.0000000E+00;  7.1802780E-05;  1.2070720E-01;
  2.9999998E-01;  9.9999998E-03; -2.0000000E-01;1499; -5.7891251E-05;  0.0000000E+00; -5.3644421E-06;  1.0000003E+03;  4.0000001E-01;  2.9628780E-01;3; -1.5147127E-01;  0.0000000E+00; -1.4668392E-02;0; -9.2595565E-04;  1.0000007E+04;  0.0000000E+00; -8.6015156E-08;  1.0000000E+04;  0.0000000E+00;  1.0000000E+04; -9.8617293E-04;  0.0000000E+00;  6.0217302E-05;  1.0473436E-01;
  3.1999999E-01;  9.9999998E-03; -3.0000001E-01;1525; -5.9579517E-05;  0.0000000E+00; -2.9207353E-05;  1.0000004E+03;  4.0000001E-01;  3.9505041E-01;3; -1.6016747E-01;  0.0000000E+00; -7.9281881E-02;0; -1.1863853E-03;  1.0000009E+04;  0.0000000E+00; -3.6675003E-05;  1.0000000E+04;  0.0000000E+00;  1.0000000E+04; -1.2502675E-03;  0.0000000E+00;  6.3882217E-05;  1.1878381E-01;
  3.1999999E-01;  9.9999998E-03; -2.8000000E-01;1526; -6.8320012E-05;  0.0000000E+00; -2.3352059E-05;  1.0000004E+03;  4.0000001E-01;  3.9505041E-01;3; -1.7941591E-01;  0.0000000E+00; -6.2240608E-02;0; -1.2086504E-03;  1.0000009E+04;  0.0000000E+00; -2.0789739E-05;  1.0000000E+04;  0.0000000E+00;  9.9999990E+03; -1.3028533E-03;  0.0000000E+00;  9.4202893E-05;  1.4346424E-01;
  3.1999999E-01;  9.9999998E-03; -2.5999999E-01;1527; -7.4796619E-05;  0.0000000E+00; -1.7399982E-05;  1.0000004E+03;  4.0000001E-01;  3.9505041E-01;3; -1.9317515E-01;  0.0000000E+00; -4.5863759E-02;0; -1.2316512E-03;  1.0000010E+04;  0.0000000E+00; -7.6682618E-06;  1.0000000E+04;  0.0000000E+00;  9.9999990E+03; -1.3471352E-03;  0.0000000E+00;  1.1548398E-04;  1.9019605E-01;
  3.1999999E-01;  9.9999998E-03; -2.4000001E-01;1528; -7.9777332E-05;  0.0000000E+00; -1.3059556E-05;  1.0000004E+03;  4.0000001E-01;  3.9505041E-01;3; -2.0381136E-01;  0.0000000E+00; -3.4305993E-02;0; -1.2646399E-03;  1.0000011E+04;  0.0000000E+00; -1.7402040E-06;  1.0000000E+04;  0.0000000E+00;  9.9999990E+03; -1.3856133E-03;  0.0000000E+00;  1.2097340E-04;  2.0979567E-01;
  3.1999999E-01;  9.9999998E-03; -2.2000000E-01;1529; -8.3576939E-05;  0.0000000E+00; -1.0080756E-05;  1.0000005E+03;  4.0000001E-01;  3.9505041E-01;3; -2.1204259E-01;  0.0000000E+00; -2.6574640E-02;0; -1.3096783E-03;  1.0000012E+04;  0.0000000E+00; -1.7712286E-07;  1.0000000E+04;  0.0000000E+00;  9.9999990E+03; -1.4196733E-03;  0.0000000E+00;  1.0999502E-04;  1.9708827E-01;
  3.1999999E-01;  9.9999998E-03; -2.0000000E-01;1530; -8.6543558E-05;  0.0000000E+00; -7.8151497E-06;  1.0000005E+03;  4.0000001E-01;  3.9505041E-01;3; -2.1869652E-01;  0.0000000E+00; -2.0625558E-02;0; -1.3588271E-03;  1.0000012E+04;  0.0000000E+00;  8.6121058E-12;  1.0000000E+04;  0.0000000E+00;  1.0000000E+04; -1.4500309E-03;  0.0000000E+00;  9.1203889E-05;  1.6912360E-01;
  3.3999997E-01;  9.9999998E-03; -3.0000001E-01;1556; -9.0704612E-05;  0.0000000E+00; -4.4152977E-05;  1.0000007E+03;  4.0000001E-01;  5.9257555E-01;3; -2.3657633E-01;  0.0000000E+00; -1.1766231E-01;0; -1.7827190E-03;  1.0000015E+04;  0.0000000E+00; -8.2635688E-06;  1.0000000E+04;  0.0000000E+00;  9.9999990E+03; -1.8980355E-03;  0.0000000E+00;  1.1531653E-04;  1.2099998E-01;
  3.3999997E-01;  9.9999998E-03; -2.8000000E-01;1557; -1.0314699E-04;  0.0000000E+00; -3.4888471E-05;  1.0000007E+03;  4.0000001E-01;  5.9257555E-01;3; -2.6232168E-01;  0.0000000E+00; -9.1284916E-02;0; -1.7929046E-03;  1.0000016E+04;  0.0000000E+00; -3.9501938E-06;  1.0000000E+04;  0.0000000E+00;  9.9999990E+03; -1.9461917E-03;  0.0000000E+00;  1.5328705E-04;  2.3271208E-01;
  3.3999997E-01;  9.9999998E-03; -2.6000002E-01;1558; -1.1220127E-04;  0.0000000E+00; -2.5659721E-05;  1.0000007E+03;  4.0000001E-01;  5.9257555E-01;3; -2.8031233E-01;  0.0000000E+00; -6.6216543E-02;0; -1.8121528E-03;  1.0000016E+04;  0.0000000E+00; -1.0286101E-06;  1.0000000E+04;  0.0000000E+00;  9.9999990E+03; -1.9914194E-03;  0.0000000E+00;  1.7926662E-04;  3.1486869E-01;
  3.3999997E-01;  9.9999998E-03; -2.4000001E-01;1559; -1.1903061E-04;  0.0000000E+00; -1.9066270E-05;  1.0000007E+03;  4.0000001E-01;  5.9257555E-01;3; -2.9394001E-01;  0.0000000E+00; -4.8788581E-02;0; -1.8496956E-03;  1.0000016E+04;  0.0000000E+00; -8.8624418E-08;  1.0000000E+04;  0.0000000E+00;  9.9999990E+03; -2.0335470E-03;  0.0000000E+00;  1.8385141E-04;  3.4096384E-01;
  3.3999997E-01;  9.9999998E-03; -2.2000000E-01;1560; -1.2416470E-04;  0.0000000E+00; -1.4601373E-05;  1.0000007E+03;  4.0000001E-01;  5.9257555E-01;3; -3.0430165E-01;  0.0000000E+00; -3.7338644E-02;0; -1.9074293E-03;  1.0000016E+04;  0.0000000E+00; -4.1936486E-11;  1.0000000E+04;  0.0000000E+00;  9.9999990E+03; -2.0726861E-03;  0.0000000E+00;  1.6525682E-04;  3.1636360E-01;
  3.3999997E-01;  9.9999998E-03; -2.0000000E-01;1561; -1.2811020E-04;  0.0000000E+00; -1.1274678E-05;  1.0000008E+03;  4.0000001E-01;  6.9133818E-01;3; -3.1256244E-01;  0.0000000E+00; -2.8739177E-02;0; -1.9727566E-03;  1.0000016E+04;  0.0000000E+00; -2.9583131E-11;  1.0000000E+04;  0.0000000E+00;  9.9999990E+03; -2.1087504E-03;  0.0000000E+00;  1.3599380E-04;  2.6926249E-01;
  3.5999995E-01;  9.9999998E-03; -3.0000001E-01;1587; -1.3643815E-04;  0.0000000E+00; -6.5052693E-05;  1.0000010E+03;  4.0000001E-01;  8.8886321E-01;3; -3.4476453E-01;  0.0000000E+00; -1.6809244E-01;0; -2.6123025E-03;  1.0000021E+04;  0.0000000E+00; -1.6564219E-07;  1.0000000E+04;  0.0000000E+00;  9.9999990E+03; -2.8086237E-03;  0.0000000E+00;  1.9632113E-04;  2.2600350E-01;
  3.5999995E-01;  9.9999998E-03; -2.8000000E-01;1588; -1.5399620E-04;  0.0000000E+00; -5.0760609E-05;  1.0000010E+03;  4.0000001E-01;  8.8886321E-01;3; -3.7904227E-01;  0.0000000E+00; -1.2864837E-01;0; -2.6161252E-03;  1.0000023E+04;  0.0000000E+00; -3.0632812E-08;  1.0000000E+04;  0.0000000E+00;  9.9999990E+03; -2.8566727E-03;  0.0000000E+00;  2.4054751E-04;  3.9092305E-01;
  3.5999995E-01;  9.9999998E-03; -2.6000002E-01;1589; -1.6645598E-04;  0.0000000E+00; -3.6950209E-05;  1.0000010E+03;  4.0000001E-01;  8.8886321E-01;3; -4.0230966E-01;  0.0000000E+00; -9.2208378E-02;0; -2.6327886E-03;  1.0000023E+04;  0.0000000E+00;  4.1834103E-10;  1.0000000E+04;  0.0000000E+00;  9.9999990E+03; -2.9041592E-03;  0.0000000E+00;  2.7137069E-04;  5.1104957E-01;
  3.5999995E-01;  9.9999998E-03; -2.4000001E-01;1590; -1.7559099E-04;  0.0000000E+00; -2.7319855E-05;  1.0000011E+03;  4.0000001E-01;  8.8886321E-01;3; -4.1935170E-01;  0.0000000E+00; -6.7498676E-02;0; -2.6751391E-03;  1.0000023E+04;  0.0000000E+00;  1.7129975E-10;  1.0000000E+04;  0.0000000E+00;  9.9999990E+03; -2.9494294E-03;  0.0000000E+00;  2.7429042E-04;  5.4567432E-01;
  3.5999995E-01;  9.9999998E-03; -2.2000000E-01;1591; -1.8230919E-04;  0.0000000E+00; -2.0884223E-05;  1.0000011E+03;  4.0000001E-01;  8.8886321E-01;3; -4.3194288E-01;  0.0000000E+00; -5.1506914E-02;0; -2.7475946E-03;  1.0000024E+04;  0.0000000E+00;  4.0279127E-11;  1.0000000E+04;  0.0000000E+00;  9.9999990E+03; -2.9922661E-03;  0.0000000E+00;  2.4467157E-04;  5.0191331E-01;
  3.5999995E-01;  9.9999998E-03; -2.0000000E-01;1592; -1.8737275E-04;  0.0000000E+00; -1.6171829E-05;  1.0000011E+03;  4.0000001E-01;  8.8886321E-01;3; -4.4175076E-01;  0.0000000E+00; -3.9685905E-02;0; -2.8322919E-03;  1.0000024E+04;  0.0000000E+00;  2.4553536E-11;  1.0000000E+04;  0.0000000E+00;  9.9999990E+03; -3.0326867E-03;  0.0000000E+00;  2.0039473E-04;  4.2448616E-01;
  3.7999994E-01;  9.9999998E-03; -3.0000001E-01;1618; -2.0329653E-04;  0.0000000E+00; -9.5938674E-05;  1.0000015E+03;  4.0000001E-01;  1.2839134E+00;3; -4.9736127E-01;  0.0000000E+00; -2.3960136E-01;0; -3.7661600E-03;  1.0000033E+04;  0.0000000E+00;  1.8195755E-09;  1.0000000E+04;  0.0000000E+00;  9.9999980E+03; -4.0957984E-03;  0.0000000E+00;  3.2963839E-04;  4.2018437E-01;
  3.7999994E-01;  9.9999998E-03; -2.8000003E-01;1619; -2.2753004E-04;  0.0000000E+00; -7.3673385E-05;  1.0000015E+03;  4.0000001E-01;  1.2839134E+00;3; -5.4210281E-01;  0.0000000E+00; -1.8033041E-01;0; -3.7709572E-03;  1.0000034E+04;  0.0000000E+00;  1.3025798E-09;  1.0000000E+04;  0.0000000E+00;  9.9999971E+03; -4.1427719E-03;  0.0000000E+00;  3.7181465E-04;  6.4838415E-01;
  3.7999994E-01;  9.9999998E-03; -2.6000002E-01;1620; -2.4408549E-04;  0.0000000E+00; -5.2863848E-05;  1.0000015E+03;  4.0000001E-01;  1.2839134E+00;3; -5.7106906E-01;  0.0000000E+00; -1.2739907E-01;0; -3.7836260E-03;  1.0000035E+04;  0.0000000E+00;  7.2499701E-10;  1.0000000E+04;  0.0000000E+00;  9.9999971E+03; -4.1877679E-03;  0.0000000E+00;  4.0414176E-04;  8.1967390E-01;
  3.7999994E-01;  9.9999998E-03; -2.4000001E-01;1621; -2.5574572E-04;  0.0000000E+00; -3.8811559E-05;  1.0000016E+03;  4.0000001E-01;  1.2839134E+00;3; -5.9122610E-01;  0.0000000E+00; -9.2597894E-02;0; -3.8259809E-03;  1.0000035E+04;  0.0000000E+00;  1.8637814E-10;  1.0000000E+04;  0.0000000E+00;  9.9999971E+03; -4.2298869E-03;  0.0000000E+00;  4.0390593E-04;  8.6589772E-01;
  3.7999994E-01;  9.9999998E-03; -2.2000001E-01;1622; -2.6408129E-04;  0.0000000E+00; -2.9637213E-05;  1.0000016E+03;  4.0000001E-01;  1.2839134E+00;3; -6.0550529E-01;  0.0000000E+00; -7.0546269E-02;0; -3.9120968E-03;  1.0000035E+04;  0.0000000E+00; -4.9194357E-11;  1.0000000E+04;  0.0000000E+00;  9.9999971E+03; -4.2706621E-03;  0.0000000E+00;  3.5856545E-04;  7.9129851E-01;
  3.7999994E-01;  9.9999998E-03; -2.0000000E-01;1623; -2.7025305E-04;  0.0000000E+00; -2.3105917E-05;  1.0000016E+03;  4.0000001E-01;  1.3826759E+00;3; -6.1633784E-01;  0.0000000E+00; -5.4663867E-02;0; -4.0184474E-03;  1.0000035E+04;  0.0000000E+00; -6.8387948E-11;  1.0000000E+04;  0.0000000E+00;  9.9999971E+03; -4.3116044E-03;  0.0000000E+00;  2.9315727E-04;  6.6599858E-01;
  3.9999992E-01;  9.9999998E-03; -3.0000004E-01;1649; -3.0053683E-04;  0.0000000E+00; -1.3939921E-04;  1.0000023E+03;  4.0000001E-01;  1.8764883E+00;3; -7.1140140E-01;  0.0000000E+00; -3.3454785E-01;0; -5.3830533E-03;  1.0000049E+04;  0.0000000E+00;  2.7163674E-09;  1.0000000E+04;  0.0000000E+00;  9.9999961E+03; -5.9120702E-03;  0.0000000E+00;  5.2901701E-04;  7.6605129E-01;
  3.9999992E-01;  9.9999998E-03; -2.8000003E-01;1650; -3.3296860E-04;  0.0000000E+00; -1.0480882E-04;  1.0000023E+03;  4.0000001E-01;  1.8764883E+00;3; -7.6762670E-01;  0.0000000E+00; -2.4750297E-01;0; -5.3900899E-03;  1.0000049E+04;  0.0000000E+00;  2.6212084E-09;  1.0000000E+04;  0.0000000E+00;  9.9999961E+03; -5.9438087E-03;  0.0000000E+00;  5.5371871E-04;  1.0587238E+00;
  3.9999992E-01;  9.9999998E-03; -2.6000002E-01;1651; -3.5391597E-04;  0.0000000E+00; -7.4140313E-05;  1.0000023E+03;  4.0000001E-01;  1.8764883E+00;3; -8.0140448E-01;  0.0000000E+00; -1.7266689E-01;0; -5.3805420E-03;  1.0000050E+04;  0.0000000E+00;  1.2422975E-09;  1.0000000E+04;  0.0000000E+00;  9.9999961E+03; -5.9714410E-03;  0.0000000E+00;  5.9089909E-04;  1.3050057E+00;
  3.9999989E-01;  9.9999998E-03; -2.4000001E-01;1652; -3.6782798E-04;  0.0000000E+00; -5.4271102E-05;  1.0000023E+03;  4.0000001E-01;  1.8764883E+00;3; -8.2304156E-01;  0.0000000E+00; -1.2518679E-01;0; -5.4068239E-03;  1.0000052E+04;  0.0000000E+00;  3.0879924E-10;  1.0000000E+04;  0.0000000E+00;  9.9999961E+03; -5.9965262E-03;  0.0000000E+00;  5.8970228E-04;  1.3714609E+00;
  3.9999989E-01;  9.9999998E-03; -2.2000001E-01;1653; -3.7740869E-04;  0.0000000E+00; -4.1674841E-05;  1.0000023E+03;  4.0000001E-01;  1.8764883E+00;3; -8.3732885E-01;  0.0000000E+00; -9.5798634E-02;0; -5.5007813E-03;  1.0000052E+04;  0.0000000E+00; -6.4672300E-12;  1.0000000E+04;  0.0000000E+00;  9.9999961E+03; -6.0240650E-03;  0.0000000E+00;  5.2328379E-04;  1.2480856E+00;
  3.9999989E-01;  9.9999998E-03; -2.0000000E-01;1654; -3.8442318E-04;  0.0000000E+00; -3.2919994E-05;  1.0000024E+03;  4.0000001E-01;  1.9752508E+00;3; -8.4791064E-01;  0.0000000E+00; -7.5238094E-02;0; -5.6298617E-03;  1.0000052E+04;  0.0000000E+00; -3.5049918E-11;  1.0000000E+04;  0.0000000E+00;  9.9999971E+03; -6.0581504E-03;  0.0000000E+00;  4.2828851E-04;  1.0460958E+00;
  4.1999987E-01;  9.9999998E-03; -3.0000004E-01;1680; -4.4141107E-04;  0.0000000E+00; -2.0091640E-04;  1.0000034E+03;  4.0000001E-01;  2.8641129E+00;3; -1.0094019E+00;  0.0000000E+00; -4.6653306E-01;0; -7.6289135E-03;  1.0000073E+04;  0.0000000E+00;  4.7162048E-09;  1.0000000E+04;  0.0000000E+00;  9.9999951E+03; -8.4392680E-03;  0.0000000E+00;  8.1035460E-04;  1.2762923E+00;
  4.1999987E-01;  9.9999998E-03; -2.8000003E-01;1681; -4.8330548E-04;  0.0000000E+00; -1.4788227E-04;  1.0000034E+03;  4.0000001E-01;  2.8641129E+00;3; -1.0764487E+00;  0.0000000E+00; -3.3727881E-01;0; -7.6198364E-03;  1.0000074E+04;  0.0000000E+00;  4.8051048E-09;  1.0000000E+04;  0.0000000E+00;  9.9999951E+03; -8.4298719E-03;  0.0000000E+00;  8.1003556E-04;  1.6775948E+00;
  4.1999987E-01;  9.9999998E-03; -2.6000002E-01;1682; -5.0823623E-04;  0.0000000E+00; -1.0288339E-04;  1.0000034E+03;  4.0000001E-01;  2.7653503E+00;3; -1.1120174E+00;  0.0000000E+00; -2.3119104E-01;0; -7.5554443E-03;  1.0000074E+04;  0.0000000E+00;  2.6620017E-09;  1.0000000E+04;  0.0000000E+00;  9.9999932E+03; -8.4143057E-03;  0.0000000E+00;  8.5886137E-04;  2.0708256E+00;
  4.1999984E-01;  9.9999998E-03; -2.4000002E-01;1683; -5.2341231E-04;  0.0000000E+00; -7.5294149E-05;  1.0000034E+03;  4.0000001E-01;  2.7653503E+00;3; -1.1314440E+00;  0.0000000E+00; -1.6775148E-01;0; -7.5369021E-03;  1.0000074E+04;  0.0000000E+00;  7.9869161E-10;  1.0000000E+04;  0.0000000E+00;  9.9999922E+03; -8.3989399E-03;  0.0000000E+00;  8.6203800E-04;  2.1847107E+00;
  4.1999984E-01;  9.9999998E-03; -2.2000001E-01;1684; -5.3335715E-04;  0.0000000E+00; -5.8259553E-05;  1.0000034E+03;  4.0000001E-01;  2.8641129E+00;3; -1.1425627E+00;  0.0000000E+00; -1.2947710E-01;0; -7.6276949E-03;  1.0000074E+04;  0.0000000E+00; -9.8159439E-11;  1.0000000E+04;  0.0000000E+00;  9.9999941E+03; -8.3946008E-03;  0.0000000E+00;  7.6690596E-04;  1.9837718E+00;
  4.1999984E-01;  9.9999998E-03; -2.0000002E-01;1685; -5.4061052E-04;  0.0000000E+00; -4.6975980E-05;  1.0000035E+03;  4.0000001E-01;  2.8641129E+00;3; -1.1505506E+00;  0.0000000E+00; -1.0402250E-01;0; -7.7799377E-03;  1.0000074E+04;  0.0000000E+00; -2.6490071E-10;  1.0000000E+04;  0.0000000E+00;  9.9999961E+03; -8.4092747E-03;  0.0000000E+00;  6.2933710E-04;  1.6545773E+00;
  4.3999982E-01;  9.9999998E-03; -3.0000007E-01;1711; -6.4537709E-04;  0.0000000E+00; -2.8650233E-04;  1.0000049E+03;  4.0000001E-01;  4.0492616E+00;3; -1.4224941E+00;  0.0000000E+00; -6.4138514E-01;0; -1.0704519E-02;  1.0000107E+04;  0.0000000E+00;  4.3170454E-09;  1.0000000E+04;  0.0000000E+00;  9.9999922E+03; -1.1888004E-02;  0.0000000E+00;  1.1834846E-03;  1.9599512E+00;
  4.3999979E-01;  9.9999998E-03; -2.8000006E-01;1712; -6.9705828E-04;  0.0000000E+00; -2.0563114E-04;  1.0000048E+03;  4.0000001E-01;  3.9504991E+00;3; -1.4963568E+00;  0.0000000E+00; -4.5066825E-01;0; -1.0641353E-02;  1.0000106E+04;  0.0000000E+00;  9.8166364E-09;  1.0000000E+04;  0.0000000E+00;  9.9999922E+03; -1.1796858E-02;  0.0000000E+00;  1.1555054E-03;  2.6193337E+00;
  4.3999979E-01;  9.9999998E-03; -2.6000005E-01;1713; -7.2438404E-04;  0.0000000E+00; -1.4122015E-04;  1.0000047E+03;  4.0000001E-01;  3.8517365E+00;3; -1.5271312E+00;  0.0000000E+00; -3.0547655E-01;0; -1.0447864E-02;  1.0000106E+04;  0.0000000E+00;  5.7696181E-09;  1.0000000E+04;  0.0000000E+00;  9.9999893E+03; -1.1698493E-02;  0.0000000E+00;  1.2506281E-03;  3.3175476E+00;
  4.3999979E-01;  9.9999998E-03; -2.4000002E-01;1714; -7.3886837E-04;  0.0000000E+00; -1.0421993E-04;  1.0000047E+03;  4.0000001E-01;  3.8517365E+00;3; -1.5377424E+00;  0.0000000E+00; -2.2389382E-01;0; -1.0331767E-02;  1.0000105E+04;  0.0000000E+00;  1.9514743E-09;  1.0000000E+04;  0.0000000E+00;  9.9999893E+03; -1.1607343E-02;  0.0000000E+00;  1.2755767E-03;  3.5319293E+00;
  4.3999979E-01;  9.9999998E-03; -2.2000003E-01;1715; -7.4783259E-04;  0.0000000E+00; -8.1993108E-05;  1.0000048E+03;  4.0000001E-01;  3.9504991E+00;3; -1.5408345E+00;  0.0000000E+00; -1.7578924E-01;0; -1.0403123E-02;  1.0000105E+04;  0.0000000E+00;  4.2775641E-10;  1.0000000E+04;  0.0000000E+00;  9.9999902E+03; -1.1542970E-02;  0.0000000E+00;  1.1398477E-03;  3.1984174E+00;
  4.3999976E-01;  9.9999998E-03; -2.0000002E-01;1716; -7.5457018E-04;  0.0000000E+00; -6.7483466E-05;  1.0000048E+03;  4.0000001E-01;  3.9504991E+00;3; -1.5429840E+00;  0.0000000E+00; -1.4495495E-01;0; -1.0581877E-02;  1.0000106E+04;  0.0000000E+00; -1.5604838E-10;  1.0000000E+04;  0.0000000E+00;  9.9999922E+03; -1.1518604E-02;  0.0000000E+00;  9.3672692E-04;  2.6460612E+00;
  4.5999971E-01;  9.9999998E-03; -3.0000013E-01;1742; -9.4042765E-04;  0.0000000E+00; -4.0722627E-04;  1.0000074E+03;  4.0000013E-01;  6.1232696E+00;3; -1.9936643E+00;  0.0000000E+00; -8.7019593E-01;0; -1.4750699E-02;  1.0000152E+04;  0.0000000E+00;  7.4098101E-09;  1.0000000E+04;  0.0000000E+00;  9.9999883E+03; -1.6461762E-02;  0.0000000E+00;  1.7110630E-03;  3.0945642E+00;
  4.5999968E-01;  9.9999998E-03; -2.8000009E-01;1743; -9.9979003E-04;  0.0000000E+00; -2.8446622E-04;  1.0000071E+03;  4.0000013E-01;  5.8269825E+00;3; -2.0635033E+00;  0.0000000E+00; -5.9478450E-01;0; -1.4585086E-02;  1.0000150E+04;  0.0000000E+00;  2.0910910E-08;  1.0000000E+04;  0.0000000E+00;  9.9999863E+03; -1.6232638E-02;  0.0000000E+00;  1.6475512E-03;  4.1537066E+00;
  4.5999968E-01;  9.9999998E-03; -2.6000005E-01;1744; -1.0256188E-03;  0.0000000E+00; -1.9405391E-04;  1.0000069E+03;  4.0000013E-01;  5.7282200E+00;3; -2.0770199E+00;  0.0000000E+00; -4.0076268E-01;0; -1.4136350E-02;  1.0000149E+04;  0.0000000E+00;  1.4277969E-08;  1.0000000E+04;  0.0000000E+00;  9.9999834E+03; -1.5997211E-02;  0.0000000E+00;  1.8608606E-03;  5.4365139E+00;
  4.5999968E-01;  9.9999998E-03; -2.4000004E-01;1745; -1.0362328E-03;  0.0000000E+00; -1.4597125E-04;  1.0000068E+03;  4.0000013E-01;  5.6294575E+00;3; -2.0685365E+00;  0.0000000E+00; -3.0066288E-01;0; -1.3846079E-02;  1.0000148E+04;  0.0000000E+00;  5.6289049E-09;  1.0000000E+04;  0.0000000E+00;  9.9999824E+03; -1.5782168E-02;  0.0000000E+00;  1.9360889E-03;  5.8340912E+00;
  4.5999968E-01;  9.9999998E-03; -2.2000003E-01;1746; -1.0427189E-03;  0.0000000E+00; -1.1735418E-04;  1.0000068E+03;  4.0000013E-01;  5.6294575E+00;3; -2.0573606E+00;  0.0000000E+00; -2.4209352E-01;0; -1.3884615E-02;  1.0000147E+04;  0.0000000E+00;  1.3847198E-09;  1.0000000E+04;  0.0000000E+00;  9.9999844E+03; -1.5618534E-02;  0.0000000E+00;  1.7339186E-03;  5.2501140E+00;
  4.5999968E-01;  9.9999998E-03; -2.0000003E-01;1747; -1.0484986E-03;  0.0000000E+00; -9.8249031E-05;  1.0000070E+03;  4.0000013E-01;  5.7282200E+00;3; -2.0499625E+00;  0.0000000E+00; -2.0475671E-01;0; -1.4105950E-02;  1.0000146E+04;  0.0000000E+00;  1.8227729E-10;  1.0000000E+04;  0.0000000E+00;  9.9999873E+03; -1.5525946E-02;  0.0000000E+00;  1.4199973E-03;  4.2849689E+00;
  4.7999957E-01;  9.9999998E-03; -3.0000019E-01;1773; -1.3665650E-03;  0.0000000E+00; -5.7863735E-04;  1.0000107E+03;  4.0000042E-01;  8.8886108E+00;3; -2.7821977E+00;  0.0000000E+00; -1.1744968E+00;0; -1.9880181E-02;  1.0000214E+04;  0.0000000E+00;  1.6691281E-08;  1.0000000E+04;  0.0000000E+00;  9.9999834E+03; -2.2270428E-02;  0.0000000E+00;  2.3902473E-03;  4.7302847E+00;
  4.7999954E-01;  9.9999998E-03; -2.8000012E-01;1774; -1.4248028E-03;  0.0000000E+00; -3.9464107E-04;  1.0000104E+03;  4.0000042E-01;  8.5923233E+00;3; -2.8228121E+00;  0.0000000E+00; -7.8009170E-01;0; -1.9453244E-02;  1.0000210E+04;  0.0000000E+00;  4.9228564E-08;  1.0000000E+04;  0.0000000E+00;  9.9999795E+03; -2.1836134E-02;  0.0000000E+00;  2.3828889E-03;  6.7349730E+00;
  4.7999954E-01;  9.9999998E-03; -2.6000008E-01;1775; -1.4405739E-03;  0.0000000E+00; -2.7017423E-04;  1.0000099E+03;  4.0000039E-01;  8.1972742E+00;3; -2.7971675E+00;  0.0000000E+00; -5.2776343E-01;0; -1.8529909E-02;  1.0000206E+04;  0.0000000E+00;  3.5374352E-08;  1.0000000E+04;  0.0000000E+00;  9.9999727E+03; -2.1399474E-02;  0.0000000E+00;  2.8695655E-03;  9.1544790E+00;
  4.7999951E-01;  9.9999998E-03; -2.4000007E-01;1776; -1.4421715E-03;  0.0000000E+00; -2.0931878E-04;  1.0000096E+03;  4.0000042E-01;  7.9009871E+00;3; -2.7543149E+00;  0.0000000E+00; -4.1045704E-01;0; -1.7962018E-02;  1.0000203E+04;  0.0000000E+00;  1.5351876E-08;  1.0000000E+04;  0.0000000E+00;  9.9999697E+03; -2.1003736E-02;  0.0000000E+00;  3.0417179E-03;  9.8580933E+00;
  4.7999951E-01;  9.9999998E-03; -2.2000006E-01;1777; -1.4451166E-03;  0.0000000E+00; -1.7256242E-04;  1.0000096E+03;  4.0000042E-01;  7.9997497E+00;3; -2.7221959E+00;  0.0000000E+00; -3.4205624E-01;0; -1.7977023E-02;  1.0000200E+04;  0.0000000E+00;  4.3555537E-09;  1.0000000E+04;  0.0000000E+00;  9.9999736E+03; -2.0692457E-02;  0.0000000E+00;  2.7154328E-03;  8.7734690E+00;
  4.7999951E-01;  9.9999998E-03; -2.0000005E-01;1778; -1.4506161E-03;  0.0000000E+00; -1.4557513E-04;  1.0000099E+03;  4.0000036E-01;  8.1972742E+00;3; -2.7021112E+00;  0.0000000E+00; -2.9512593E-01;0; -1.8292818E-02;  1.0000199E+04;  0.0000000E+00;  1.2975007E-09;  1.0000000E+04;  0.0000000E+00;  9.9999805E+03; -2.0491429E-02;  0.0000000E+00;  2.1986112E-03;  7.0202909E+00;
  4.9999934E-01;  9.9999998E-03; -3.0000028E-01;1804; -1.9783992E-03;  0.0000000E+00; -8.2515058E-04;  1.0000152E+03;  4.0000090E-01;  1.2542805E+01;3; -3.8658848E+00;  0.0000000E+00; -1.5815749E+00;0; -2.5895847E-02;  1.0000286E+04;  0.0000000E+00;  3.5030521E-08;  1.0000000E+04;  0.0000000E+00;  9.9999746E+03; -2.9183358E-02;  0.0000000E+00;  3.2875114E-03;  7.2363062E+00;
  4.9999931E-01;  9.9999998E-03; -2.8000018E-01;1805; -2.0115902E-03;  0.0000000E+00; -5.5435958E-04;  1.0000145E+03;  4.0000090E-01;  1.1950232E+01;3; -3.8258159E+00;  0.0000000E+00; -1.0262336E+00;0; -2.4912367E-02;  1.0000280E+04;  0.0000000E+00;  1.2629836E-07;  1.0000000E+04;  0.0000000E+00;  9.9999668E+03; -2.8482068E-02;  0.0000000E+00;  3.5697019E-03;  1.1271756E+01;
  4.9999931E-01;  9.9999998E-03; -2.6000014E-01;1806; -1.9993612E-03;  0.0000000E+00; -3.8669689E-04;  1.0000136E+03;  4.0000087E-01;  1.1258896E+01;3; -3.7230229E+00;  0.0000000E+00; -7.1009529E-01;0; -2.3159944E-02;  1.0000274E+04;  0.0000000E+00;  9.2837396E-08;  1.0000000E+04;  0.0000000E+00;  9.9999551E+03; -2.7785709E-02;  0.0000000E+00;  4.6257647E-03;  1.5809960E+01;
  4.9999931E-01;  9.9999998E-03; -2.4000010E-01;1807; -1.9838214E-03;  0.0000000E+00; -3.1000123E-04;  1.0000132E+03;  4.0000090E-01;  1.0962609E+01;3; -3.6246941E+00;  0.0000000E+00; -5.7753307E-01;0; -2.2201341E-02;  1.0000271E+04;  0.0000000E+00;  4.0730662E-08;  1.0000000E+04;  0.0000000E+00;  9.9999512E+03; -2.7157223E-02;  0.0000000E+00;  4.9558822E-03;  1.6963734E+01;
  4.9999931E-01;  9.9999998E-03; -2.2000009E-01;1808; -1.9829888E-03;  0.0000000E+00; -2.6119011E-04;  1.0000133E+03;  4.0000090E-01;  1.1061371E+01;3; -3.5657814E+00;  0.0000000E+00; -4.9745125E-01;0; -2.2268271E-02;  1.0000266E+04;  0.0000000E+00;  1.1694631E-08;  1.0000000E+04;  0.0000000E+00;  9.9999570E+03; -2.6649846E-02;  0.0000000E+00;  4.3815742E-03;  1.4875377E+01;
  4.9999931E-01;  9.9999998E-03; -2.0000006E-01;1809; -1.9913679E-03;  0.0000000E+00; -2.1764009E-04;  1.0000136E+03;  4.0000087E-01;  1.1258896E+01;3; -3.5323405E+00;  0.0000000E+00; -4.3020767E-01;0; -2.2814011E-02;  1.0000263E+04;  0.0000000E+00;  4.0993995E-09;  1.0000000E+04;  0.0000000E+00;  9.9999668E+03; -2.6292829E-02;  0.0000000E+00;  3.4788169E-03;  1.1615328E+01;
  5.1999903E-01;  9.9999998E-03; -3.0000043E-01;1835; -2.8437967E-03;  0.0000000E+00; -1.1975103E-03;  1.0000225E+03;  4.0000245E-01;  1.8666039E+01;3; -5.3411140E+00;  0.0000000E+00; -2.1456437E+00;0; -3.1960979E-02;  1.0000367E+04;  0.0000000E+00;  1.2313443E-07;  1.0000000E+04;  0.0000000E+00;  9.9999609E+03; -3.6655959E-02;  0.0000000E+00;  4.6949801E-03;  1.1954861E+01;
  5.1999903E-01;  9.9999998E-03; -2.8000030E-01;1836; -2.7994448E-03;  0.0000000E+00; -8.0272765E-04;  1.0000212E+03;  4.0000251E-01;  1.7579655E+01;3; -5.1230283E+00;  0.0000000E+00; -1.3770965E+00;0; -2.9963737E-02;  1.0000358E+04;  0.0000000E+00;  3.3886292E-07;  1.0000000E+04;  0.0000000E+00;  9.9999434E+03; -3.5661884E-02;  0.0000000E+00;  5.6981468E-03;  1.9742758E+01;
  5.1999903E-01;  9.9999998E-03; -2.6000020E-01;1837; -2.7253532E-03;  0.0000000E+00; -5.7737052E-04;  1.0000196E+03;  4.0000245E-01;  1.6196985E+01;3; -4.8804498E+00;  0.0000000E+00; -9.9252135E-01;0; -2.6910627E-02;  1.0000350E+04;  0.0000000E+00;  2.4911384E-07;  1.0000000E+04;  0.0000000E+00;  9.9999219E+03; -3.4681287E-02;  0.0000000E+00;  7.7706594E-03;  2.7793831E+01;
  5.1999903E-01;  9.9999998E-03; -2.4000016E-01;1838; -2.6813934E-03;  0.0000000E+00; -4.7420859E-04;  1.0000190E+03;  4.0000245E-01;  1.5801937E+01;3; -4.7001386E+00;  0.0000000E+00; -8.4390509E-01;0; -2.5499290E-02;  1.0000344E+04;  0.0000000E+00;  1.0610265E-07;  1.0000000E+04;  0.0000000E+00;  9.9999150E+03; -3.3796299E-02;  0.0000000E+00;  8.2970094E-03;  2.9421268E+01;
  5.1999903E-01;  9.9999998E-03; -2.2000013E-01;1839; -2.6788348E-03;  0.0000000E+00; -3.9899049E-04;  1.0000193E+03;  4.0000245E-01;  1.5999462E+01;3; -4.6048388E+00;  0.0000000E+00; -7.4574471E-01;0; -2.5838448E-02;  1.0000337E+04;  0.0000000E+00;  3.0251080E-08;  1.0000000E+04;  0.0000000E+00;  9.9999277E+03; -3.3062182E-02;  0.0000000E+00;  7.2237346E-03;  2.5356932E+01;
  5.1999903E-01;  9.9999998E-03; -2.0000011E-01;1840; -2.6962692E-03;  0.0000000E+00; -3.2257775E-04;  1.0000200E+03;  4.0000251E-01;  1.6592035E+01;3; -4.5685396E+00;  0.0000000E+00; -6.2560773E-01;0; -2.6898634E-02;  1.0000333E+04;  0.0000000E+00;  7.4122761E-09;  1.0000000E+04;  0.0000000E+00;  9.9999453E+03; -3.2507554E-02;  0.0000000E+00;  5.6089200E-03;  1.9335928E+01;
  5.3999853E-01;  9.9999998E-03; -3.0000070E-01;1866; -4.0290416E-03;  0.0000000E+00; -1.7751042E-03;  1.0000352E+03;  4.0000647E-01;  2.9134768E+01;3; -7.3017497E+00;  0.0000000E+00; -2.9691164E+00;0; -3.6507916E-02;  1.0000442E+04;  0.0000000E+00;  4.1410286E-07;  1.0000000E+04;  0.0000000E+00;  9.9999365E+03; -4.3592781E-02;  0.0000000E+00;  7.0848665E-03;  2.1157654E+01;
  5.3999859E-01;  9.9999998E-03; -2.8000048E-01;1867; -3.8122968E-03;  0.0000000E+00; -1.2155616E-03;  1.0000328E+03;  4.0000650E-01;  2.7159529E+01;3; -6.7420316E+00;  0.0000000E+00; -1.9330648E+00;0; -3.2672577E-02;  1.0000432E+04;  0.0000000E+00;  9.0412959E-07;  1.0000000E+04;  0.0000000E+00;  9.9998984E+03; -4.2353611E-02;  0.0000000E+00;  9.6810348E-03;  3.5660004E+01;
  5.3999865E-01;  9.9999998E-03; -2.6000035E-01;1868; -3.6222381E-03;  0.0000000E+00; -9.0216851E-04;  1.0000304E+03;  4.0000650E-01;  2.5184290E+01;3; -6.2697411E+00;  0.0000000E+00; -1.4630262E+00;0; -2.7798992E-02;  1.0000421E+04;  0.0000000E+00;  6.5028831E-07;  1.0000000E+04;  0.0000000E+00;  9.9998604E+03; -4.1133307E-02;  0.0000000E+00;  1.3334315E-02;  4.8767952E+01;
  5.3999871E-01;  9.9999998E-03; -2.4000026E-01;1869; -3.5500827E-03;  0.0000000E+00; -7.2135282E-04;  1.0000296E+03;  4.0000653E-01;  2.4492956E+01;3; -5.9871273E+00;  0.0000000E+00; -1.2524732E+00;0; -2.6097264E-02;  1.0000413E+04;  0.0000000E+00;  2.6377418E-07;  1.0000000E+04;  0.0000000E+00;  9.9998555E+03; -4.0025566E-02;  0.0000000E+00;  1.3928303E-02;  5.0371258E+01;
  5.3999865E-01;  9.9999998E-03; -2.2000019E-01;1870; -3.5550292E-03;  0.0000000E+00; -5.8147672E-04;  1.0000303E+03;  4.0000653E-01;  2.5085529E+01;3; -5.8734722E+00;  0.0000000E+00; -1.0692528E+00;0; -2.7103562E-02;  1.0000405E+04;  0.0000000E+00;  6.6439398E-08;  1.0000000E+04;  0.0000000E+00;  9.9998770E+03; -3.9077982E-02;  0.0000000E+00;  1.1974420E-02;  4.2876984E+01;
  5.3999865E-01;  9.9999998E-03; -2.0000015E-01;1871; -3.5798158E-03;  0.0000000E+00; -4.6279925E-04;  1.0000316E+03;  4.0000650E-01;  2.6171909E+01;3; -5.8277655E+00;  0.0000000E+00; -8.8544542E-01;0; -2.9184794E-02;  1.0000399E+04;  0.0000000E+00;  1.0975558E-08;  1.0000000E+04;  0.0000000E+00;  9.9999072E+03; -3.8314525E-02;  0.0000000E+00;  9.1297310E-03;  3.2111580E+01;
  5.5999792E-01;  9.9999998E-03; -3.0000111E-01;1897; -5.5662831E-03;  0.0000000E+00; -2.7191250E-03;  1.0000626E+03;  4.0001747E-01;  5.1849884E+01;3; -9.7935009E+00;  0.0000000E+00; -4.2752109E+00;0; -3.6340322E-02;  1.0000496E+04;  0.0000000E+00;  1.1518116E-06;  1.0000000E+04;  0.0000000E+00;  9.9998828E+03; -4.8326369E-02;  0.0000000E+00;  1.1986048E-02;  4.0508587E+01;
  5.5999810E-01;  9.9999998E-03; -2.8000081E-01;1898; -5.0353650E-03;  0.0000000E+00; -1.9192818E-03;  1.0000588E+03;  4.0001747E-01;  4.8689510E+01;3; -8.6493330E+00;  0.0000000E+00; -2.8715780E+00;0; -2.9931046E-02;  1.0000484E+04;  0.0000000E+00;  2.2462702E-06;  1.0000000E+04;  0.0000000E+00;  9.9998184E+03; -4.6989843E-02;  0.0000000E+00;  1.7058797E-02;  6.4712837E+01;
  5.5999821E-01;  9.9999998E-03; -2.6000056E-01;1899; -4.7075436E-03;  0.0000000E+00; -1.4027157E-03;  1.0000555E+03;  4.0001747E-01;  4.5924183E+01;3; -7.8613601E+00;  0.0000000E+00; -2.2168574E+00;0; -2.3330959E-02;  1.0000474E+04;  0.0000000E+00;  1.5915664E-06;  1.0000000E+04;  0.0000000E+00;  9.9997637E+03; -4.5668133E-02;  0.0000000E+00;  2.2337174E-02;  8.2665718E+01;
  5.5999821E-01;  9.9999998E-03; -2.4000038E-01;1900; -4.6097762E-03;  0.0000000E+00; -1.0494650E-03;  1.0000548E+03;  4.0001747E-01;  4.5430374E+01;3; -7.5157413E+00;  0.0000000E+00; -1.7922615E+00;0; -2.1548538E-02;  1.0000465E+04;  0.0000000E+00;  6.2937187E-07;  1.0000000E+04;  0.0000000E+00;  9.9997598E+03; -4.4453684E-02;  0.0000000E+00;  2.2905147E-02;  8.3697769E+01;
  5.5999821E-01;  9.9999998E-03; -2.2000028E-01;1901; -4.6104095E-03;  0.0000000E+00; -8.1017253E-04;  1.0000562E+03;  4.0001747E-01;  4.6615517E+01;3; -7.3792233E+00;  0.0000000E+00; -1.4753251E+00;0; -2.3788156E-02;  1.0000455E+04;  0.0000000E+00;  1.3692345E-07;  1.0000000E+04;  0.0000000E+00;  9.9997969E+03; -4.3377507E-02;  0.0000000E+00;  1.9589351E-02;  7.0816811E+01;
  5.5999821E-01;  9.9999998E-03; -2.0000021E-01;1902; -4.6313568E-03;  0.0000000E+00; -6.3345645E-04;  1.0000584E+03;  4.0001747E-01;  4.8393227E+01;3; -7.3003049E+00;  0.0000000E+00; -1.2092446E+00;0; -2.7689416E-02;  1.0000448E+04;  0.0000000E+00;  1.5390911E-09;  1.0000000E+04;  0.0000000E+00;  9.9998486E+03; -4.2454336E-02;  0.0000000E+00;  1.4764919E-02;  5.2468594E+01;
  5.7999718E-01;  9.9999998E-03; -3.0000183E-01;1928; -7.3943501E-03;  0.0000000E+00; -4.2878217E-03;  1.0001301E+03;  4.0004665E-01;  1.0784740E+02;3; -1.2725042E+01;  0.0000000E+00; -6.3820882E+00;0; -2.6399095E-02;  1.0000504E+04;  0.0000000E+00;  2.7558774E-06;  1.0000000E+04;  0.0000000E+00;  9.9997646E+03; -4.8821155E-02;  0.0000000E+00;  2.2422060E-02;  8.1893776E+01;
  5.7999754E-01;  9.9999998E-03; -2.8000134E-01;1929; -6.4391545E-03;  0.0000000E+00; -3.1326371E-03;  1.0001249E+03;  4.0004665E-01;  1.0350189E+02;3; -1.0757468E+01;  0.0000000E+00; -4.5061455E+00;0; -1.7262101E-02;  1.0000494E+04;  0.0000000E+00;  4.9482196E-06;  1.0000000E+04;  0.0000000E+00;  9.9996709E+03; -4.7626749E-02;  0.0000000E+00;  3.0364648E-02;  1.1601357E+02;
  5.7999766E-01;  9.9999998E-03; -2.6000085E-01;1930; -5.9856535E-03;  0.0000000E+00; -2.1426626E-03;  1.0001214E+03;  4.0004665E-01;  1.0053905E+02;3; -9.7383919E+00;  0.0000000E+00; -3.2503581E+00;0; -1.0158412E-02;  1.0000484E+04;  0.0000000E+00;  3.4622451E-06;  1.0000000E+04;  0.0000000E+00;  9.9996123E+03; -4.6432447E-02;  0.0000000E+00;  3.6274035E-02;  1.3523796E+02;
  5.7999772E-01;  9.9999998E-03; -2.4000055E-01;1931; -5.8485158E-03;  0.0000000E+00; -1.4813353E-03;  1.0001211E+03;  4.0004665E-01;  1.0034153E+02;3; -9.2953529E+00;  0.0000000E+00; -2.4828892E+00;0; -8.9080706E-03;  1.0000475E+04;  0.0000000E+00;  1.3606583E-06;  1.0000000E+04;  0.0000000E+00;  9.9996152E+03; -4.5312092E-02;  0.0000000E+00;  3.6404021E-02;  1.3357986E+02;
  5.7999772E-01;  9.9999998E-03; -2.2000037E-01;1932; -5.8086496E-03;  0.0000000E+00; -1.0843511E-03;  1.0001236E+03;  4.0004665E-01;  1.0241552E+02;3; -9.0627203E+00;  0.0000000E+00; -1.9802101E+00;0; -1.3225973E-02;  1.0000467E+04;  0.0000000E+00;  2.6485978E-07;  1.0000000E+04;  0.0000000E+00;  9.9996738E+03; -4.4273235E-02;  0.0000000E+00;  3.1047262E-02;  1.1258421E+02;
  5.7999772E-01;  9.9999998E-03; -2.0000027E-01;1933; -5.8028884E-03;  0.0000000E+00; -8.2412176E-04;  1.0001274E+03;  4.0004665E-01;  1.0557588E+02;3; -8.9226971E+00;  0.0000000E+00; -1.5982319E+00;0; -2.0030759E-02;  1.0000459E+04;  0.0000000E+00; -2.6742915E-08;  1.0000000E+04;  0.0000000E+00;  9.9997588E+03; -4.3316279E-02;  0.0000000E+00;  2.3285519E-02;  8.3027847E+01;
  5.9999639E-01;  9.9999998E-03; -3.0000302E-01;1959; -9.2955083E-03;  0.0000000E+00; -6.9729993E-03;  1.0003000E+03;  4.0012076E-01;  2.4858119E+02;3; -1.5760420E+01;  0.0000000E+00; -9.9574480E+00;0;  1.7268062E-03;  1.0000447E+04;  0.0000000E+00;  5.4652874E-06;  1.0000000E+04;  0.0000000E+00;  9.9995166E+03; -4.3192532E-02;  0.0000000E+00;  4.4919338E-02;  1.6909630E+02;
  5.9999686E-01;  9.9999998E-03; -2.8000224E-01;1960; -8.0544073E-03;  0.0000000E+00; -5.1628500E-03;  1.0002948E+03;  4.0012074E-01;  2.4423572E+02;3; -1.3223580E+01;  0.0000000E+00; -7.1747627E+00;0;  1.0885384E-02;  1.0000439E+04;  0.0000000E+00;  9.2472801E-06;  1.0000000E+04;  0.0000000E+00;  9.9994180E+03; -4.2410452E-02;  0.0000000E+00;  5.3295836E-02;  2.0420012E+02;
  5.9999704E-01;  9.9999998E-03; -2.6000136E-01;1961; -7.4789925E-03;  0.0000000E+00; -3.3217787E-03;  1.0002930E+03;  4.0012076E-01;  2.4275430E+02;3; -1.1918760E+01;  0.0000000E+00; -4.8533468E+00;0;  1.5367426E-02;  1.0000434E+04;  0.0000000E+00;  6.4629321E-06;  1.0000000E+04;  0.0000000E+00;  9.9993887E+03; -4.1616295E-02;  0.0000000E+00;  5.6983721E-02;  2.1319582E+02;
  5.9999716E-01;  9.9999998E-03; -2.4000080E-01;1962; -7.1898182E-03;  0.0000000E+00; -2.1044698E-03;  1.0002938E+03;  4.0012076E-01;  2.4334686E+02;3; -1.1196057E+01;  0.0000000E+00; -3.4569154E+00;0;  1.4612619E-02;  1.0000428E+04;  0.0000000E+00;  2.5607083E-06;  1.0000000E+04;  0.0000000E+00;  9.9994121E+03; -4.0842045E-02;  0.0000000E+00;  5.5454664E-02;  2.0359004E+02;
  5.9999716E-01;  9.9999998E-03; -2.2000049E-01;1963; -7.0730913E-03;  0.0000000E+00; -1.4197357E-03;  1.0002981E+03;  4.0012074E-01;  2.4700102E+02;3; -1.0827201E+01;  0.0000000E+00; -2.6096623E+00;0;  7.0177950E-03;  1.0000422E+04;  0.0000000E+00;  4.8916223E-07;  1.0000000E+04;  0.0000000E+00;  9.9995039E+03; -4.0059857E-02;  0.0000000E+00;  4.7077652E-02;  1.7058595E+02;
  5.9999716E-01;  9.9999998E-03; -2.0000033E-01;1964; -7.0184558E-03;  0.0000000E+00; -1.0279664E-03;  1.0003043E+03;  4.0012074E-01;  2.5203783E+02;3; -1.0597013E+01;  0.0000000E+00; -2.0468383E+00;0; -4.0006153E-03;  1.0000415E+04;  0.0000000E+00; -8.5143064E-08;  1.0000000E+04;  0.0000000E+00;  9.9996328E+03; -3.9253298E-02;  0.0000000E+00;  3.5252683E-02;  1.2560878E+02;
  6.1999571E-01;  9.9999998E-03; -3.0000508E-01;1990; -1.0956842E-02;  0.0000000E+00; -1.1443197E-02;  1.0006929E+03;  4.0029040E-01;  5.7409363E+02;3; -1.8437971E+01;  0.0000000E+00; -1.5859105E+01;0;  5.9131302E-02;  1.0000314E+04;  0.0000000E+00;  8.9160167E-06;  1.0000000E+04;  0.0000000E+00;  9.9990244E+03; -3.0479947E-02;  0.0000000E+00;  8.9611247E-02;  3.4099554E+02;
  6.1999625E-01;  9.9999998E-03; -2.8000382E-01;1991; -9.5106456E-03;  0.0000000E+00; -8.7421080E-03;  1.0006905E+03;  4.0029040E-01;  5.7201965E+02;3; -1.5427962E+01;  0.0000000E+00; -1.1927835E+01;0;  6.3560724E-02;  1.0000313E+04;  0.0000000E+00;  1.4497410E-05;  1.0000000E+04;  0.0000000E+00;  9.9989795E+03; -3.0322015E-02;  0.0000000E+00;  9.3882740E-02;  3.5690555E+02;
  6.1999649E-01;  9.9999998E-03; -2.6000234E-01;1992; -8.8783288E-03;  0.0000000E+00; -5.5517699E-03;  1.0006942E+03;  4.0029034E-01;  5.7508124E+02;3; -1.3923289E+01;  0.0000000E+00; -7.9411054E+00;0;  5.8104627E-02;  1.0000313E+04;  0.0000000E+00;  1.0121134E-05;  1.0000000E+04;  0.0000000E+00;  9.9990537E+03; -3.0148512E-02;  0.0000000E+00;  8.8253140E-02;  3.2865900E+02;
  6.1999655E-01;  9.9999998E-03; -2.4000123E-01;1993; -8.5786441E-03;  0.0000000E+00; -3.1787015E-03;  1.0006985E+03;  4.0029040E-01;  5.7873535E+02;3; -1.3125919E+01;  0.0000000E+00; -5.0507207E+00;0;  5.0899357E-02;  1.0000311E+04;  0.0000000E+00;  4.0645341E-06;  1.0000000E+04;  0.0000000E+00;  9.9991416E+03; -2.9931428E-02;  0.0000000E+00;  8.0830783E-02;  2.9617899E+02;
  6.1999661E-01;  9.9999998E-03; -2.2000065E-01;1994; -8.3504329E-03;  0.0000000E+00; -1.8963033E-03;  1.0007057E+03;  4.0029043E-01;  5.8466095E+02;3; -1.2553699E+01;  0.0000000E+00; -3.4732077E+00;0;  3.8174145E-02;  1.0000309E+04;  0.0000000E+00;  7.9890896E-07;  1.0000000E+04;  0.0000000E+00;  9.9992871E+03; -2.9604631E-02;  0.0000000E+00;  6.7778774E-02;  2.4495233E+02;
  6.1999667E-01;  9.9999998E-03; -2.0000039E-01;1995; -8.2002059E-03;  0.0000000E+00; -1.2536942E-03;  1.0007148E+03;  4.0029040E-01;  5.9216675E+02;3; -1.2180833E+01;  0.0000000E+00; -2.5603812E+00;0;  2.1564597E-02;  1.0000305E+04;  0.0000000E+00; -1.3765477E-07;  1.0000000E+04;  0.0000000E+00;  9.9994727E+03; -2.9135639E-02;  0.0000000E+00;  5.0700236E-02;  1.8014310E+02;
  6.3999528E-01;  9.9999998E-03; -3.0000821E-01;2021; -1.1997947E-02;  0.0000000E+00; -1.8348908E-02;  1.0014172E+03;  4.0060100E-01;  1.1740527E+03;3; -2.0140533E+01;  0.0000000E+00; -2.5045801E+01;0;  1.5554520E-01;  1.0000117E+04;  0.0000000E+00;  1.1768132E-05;  1.0000000E+04;  0.0000000E+00;  9.9981826E+03; -1.1347274E-02;  0.0000000E+00;  1.6689248E-01;  6.3328949E+02;
  6.3999581E-01;  9.9999998E-03; -2.8000638E-01;2022; -1.0500485E-02;  0.0000000E+00; -1.4561594E-02;  1.0014223E+03;  4.0060097E-01;  1.1782994E+03;3; -1.6870483E+01;  0.0000000E+00; -1.9866276E+01;0;  1.4742956E-01;  1.0000121E+04;  0.0000000E+00;  1.8698276E-05;  1.0000000E+04;  0.0000000E+00;  9.9982813E+03; -1.1878171E-02;  0.0000000E+00;  1.5930773E-01;  5.9685760E+02;
  6.3999599E-01;  9.9999998E-03; -2.6000392E-01;2023; -1.0005552E-02;  0.0000000E+00; -9.3489280E-03;  1.0014379E+03;  4.0060097E-01;  1.1912369E+03;3; -1.5479813E+01;  0.0000000E+00; -1.3356271E+01;0;  1.1993386E-01;  1.0000126E+04;  0.0000000E+00;  1.2997290E-05;  1.0000000E+04;  0.0000000E+00;  9.9985879E+03; -1.2385902E-02;  0.0000000E+00;  1.3231976E-01;  4.8768335E+02;
  6.3999605E-01;  9.9999998E-03; -2.4000204E-01;2024; -9.7906068E-03;  0.0000000E+00; -5.1625087E-03;  1.0014489E+03;  4.0060094E-01;  1.2003228E+03;3; -1.4772485E+01;  0.0000000E+00; -8.0199432E+00;0;  9.9914186E-02;  1.0000129E+04;  0.0000000E+00;  5.2936225E-06;  1.0000000E+04;  0.0000000E+00;  9.9988057E+03; -1.2787581E-02;  0.0000000E+00;  1.1270177E-01;  4.1086325E+02;
  6.3999611E-01;  9.9999998E-03; -2.2000098E-01;2025; -9.5467260E-03;  0.0000000E+00; -2.7483660E-03;  1.0014601E+03;  4.0060094E-01;  1.2097050E+03;3; -1.4164519E+01;  0.0000000E+00; -4.8703961E+00;0;  7.9423122E-02;  1.0000131E+04;  0.0000000E+00;  1.0754708E-06;  1.0000000E+04;  0.0000000E+00;  9.9990293E+03; -1.2999804E-02;  0.0000000E+00;  9.2422925E-02;  3.3282205E+02;
  6.3999617E-01;  9.9999998E-03; -2.0000049E-01;2026; -9.3090655E-03;  0.0000000E+00; -1.5978462E-03;  1.0014730E+03;  4.0060091E-01;  1.2202722E+03;3; -1.3652967E+01;  0.0000000E+00; -3.2801080E+00;0;  5.5929538E-02;  1.0000131E+04;  0.0000000E+00; -1.7364324E-07;  1.0000000E+04;  0.0000000E+00;  9.9992832E+03; -1.2982998E-02;  0.0000000E+00;  6.8912536E-02;  2.4395450E+02;
  6.5999526E-01;  9.9999998E-03; -3.0001196E-01;2052; -1.2158190E-02;  0.0000000E+00; -2.6696756E-02;  1.0023277E+03;  4.0099090E-01;  1.9283562E+03;3; -2.0482290E+01;  0.0000000E+00; -3.6250660E+01;0;  2.7528119E-01;  9.9998809E+03;  0.0000000E+00;  1.2365002E-05;  1.0000000E+04;  0.0000000E+00;  9.9971377E+03;  1.1669235E-02;  0.0000000E+00;  2.6361194E-01;  9.9531689E+02;
  6.5999568E-01;  9.9999998E-03; -2.8000951E-01;2053; -1.0917337E-02;  0.0000000E+00; -2.1836130E-02;  1.0023427E+03;  4.0099090E-01;  1.9407998E+03;3; -1.7557590E+01;  0.0000000E+00; -3.0001808E+01;0;  2.5087067E-01;  9.9998896E+03;  0.0000000E+00;  1.9250707E-05;  1.0000000E+04;  0.0000000E+00;  9.9974277E+03;  1.0581912E-02;  0.0000000E+00;  2.4028875E-01;  8.8855334E+02;
  6.5999573E-01;  9.9999998E-03; -2.6000592E-01;2054; -1.0610522E-02;  0.0000000E+00; -1.4213845E-02;  1.0023741E+03;  4.0099084E-01;  1.9668719E+03;3; -1.6456966E+01;  0.0000000E+00; -2.0527916E+01;0;  1.9348705E-01;  9.9998975E+03;  0.0000000E+00;  1.3443793E-05;  1.0000000E+04;  0.0000000E+00;  9.9980488E+03;  9.5298821E-03;  0.0000000E+00;  1.8395716E-01;  6.7063361E+02;
  6.5999573E-01;  9.9999998E-03; -2.4000306E-01;2055; -1.0528293E-02;  0.0000000E+00; -7.7529862E-03;  1.0023940E+03;  4.0099087E-01;  1.9833646E+03;3; -1.5947397E+01;  0.0000000E+00; -1.2062469E+01;0;  1.5646479E-01;  9.9999063E+03;  0.0000000E+00;  5.5633063E-06;  1.0000000E+04;  0.0000000E+00;  9.9984375E+03;  8.6309873E-03;  0.0000000E+00;  1.4783379E-01;  5.3573871E+02;
  6.5999579E-01;  9.9999998E-03; -2.2000143E-01;2056; -1.0317477E-02;  0.0000000E+00; -3.9593712E-03;  1.0024100E+03;  4.0099087E-01;  1.9965983E+03;3; -1.5348579E+01;  0.0000000E+00; -6.9321427E+00;0;  1.2691602E-01;  9.9999111E+03;  0.0000000E+00;  1.1873448E-06;  1.0000000E+04;  0.0000000E+00;  9.9987510E+03;  7.9573756E-03;  0.0000000E+00;  1.1895865E-01;  4.2662384E+02;
  6.5999591E-01;  9.9999998E-03; -2.0000066E-01;2057; -1.0062413E-02;  0.0000000E+00; -2.1253268E-03;  1.0024268E+03;  4.0099084E-01;  2.0104244E+03;3; -1.4765557E+01;  0.0000000E+00; -4.3145561E+00;0;  9.5936492E-02;  9.9999150E+03;  0.0000000E+00; -1.5844284E-07;  1.0000000E+04;  0.0000000E+00;  9.9990811E+03;  7.5389012E-03;  0.0000000E+00;  8.8397592E-02;  3.1174460E+02;
  6.7999566E-01;  9.9999998E-03; -3.0001521E-01;2083; -1.1153543E-02;  0.0000000E+00; -3.3970445E-02;  1.0030490E+03;  4.0130153E-01;  2.5259053E+03;3; -1.8959909E+01;  0.0000000E+00; -4.6122974E+01;0;  3.7903109E-01;  9.9996484E+03;  0.0000000E+00;  1.0439252E-05;  1.0000000E+04;  0.0000000E+00;  9.9962676E+03;  3.4547005E-02;  0.0000000E+00;  3.4448409E-01;  1.2964387E+03;
  6.7999595E-01;  9.9999998E-03; -2.8001225E-01;2084; -1.0357630E-02;  0.0000000E+00; -2.8219018E-02;  1.0030709E+03;  4.0130159E-01;  2.5439778E+03;3; -1.6897892E+01;  0.0000000E+00; -3.9024212E+01;0;  3.4362280E-01;  9.9996602E+03;  0.0000000E+00;  1.5983529E-05;  1.0000000E+04;  0.0000000E+00;  9.9966914E+03;  3.3184394E-02;  0.0000000E+00;  3.1043842E-01;  1.1395745E+03;
  6.7999595E-01;  9.9999998E-03; -2.6000768E-01;2085; -1.0243398E-02;  0.0000000E+00; -1.8532803E-02;  1.0031149E+03;  4.0130150E-01;  2.5804192E+03;3; -1.6157795E+01;  0.0000000E+00; -2.6980375E+01;0;  2.6267606E-01;  9.9996719E+03;  0.0000000E+00;  1.1222094E-05;  1.0000000E+04;  0.0000000E+00;  9.9975596E+03;  3.1864770E-02;  0.0000000E+00;  2.3081130E-01;  8.3589996E+02;
  6.7999589E-01;  9.9999998E-03; -2.4000399E-01;2086; -1.0310949E-02;  0.0000000E+00; -1.0138593E-02;  1.0031419E+03;  4.0130150E-01;  2.6028369E+03;3; -1.5938250E+01;  0.0000000E+00; -1.5847277E+01;0;  2.1180087E-01;  9.9996807E+03;  0.0000000E+00;  4.6945156E-06;  1.0000000E+04;  0.0000000E+00;  9.9980898E+03;  3.0718928E-02;  0.0000000E+00;  1.8108195E-01;  6.5334430E+02;
  6.7999595E-01;  9.9999998E-03; -2.2000183E-01;2087; -1.0199248E-02;  0.0000000E+00; -5.0880499E-03;  1.0031622E+03;  4.0130150E-01;  2.6196255E+03;3; -1.5522489E+01;  0.0000000E+00; -8.8955984E+00;0;  1.7417745E-01;  9.9996875E+03;  0.0000000E+00;  1.0397672E-06;  1.0000000E+04;  0.0000000E+00;  9.9984863E+03;  2.9786583E-02;  0.0000000E+00;  1.4439087E-01;  5.1614789E+02;
  6.7999601E-01;  9.9999998E-03; -2.0000081E-01;2088; -9.9853296E-03;  0.0000000E+00; -2.5980957E-03;  1.0031825E+03;  4.0130147E-01;  2.6365129E+03;3; -1.4984600E+01;  0.0000000E+00; -5.2811685E+00;0;  1.3623679E-01;  9.9996943E+03;  0.0000000E+00; -1.0197425E-07;  1.0000000E+04;  0.0000000E+00;  9.9988877E+03;  2.9074958E-02;  0.0000000E+00;  1.0716183E-01;  3.7671063E+02;
  6.9999659E-01;  9.9999998E-03; -3.0001736E-01;2114; -8.8719977E-03;  0.0000000E+00; -3.8752984E-02;  1.0034383E+03;  4.0147123E-01;  2.8482891E+03;3; -1.5165544E+01;  0.0000000E+00; -5.2593216E+01;0;  4.4442439E-01;  9.9994678E+03;  0.0000000E+00;  7.1710374E-06;  1.0000000E+04;  0.0000000E+00;  9.9957539E+03;  5.2915350E-02;  0.0000000E+00;  3.9150903E-01;  1.4740453E+03;
  6.9999665E-01;  9.9999998E-03; -2.8001407E-01;2115; -8.6736875E-03;  0.0000000E+00; -3.2427885E-02;  1.0034616E+03;  4.0147120E-01;  2.8676450E+03;3; -1.4385921E+01;  0.0000000E+00; -4.4947163E+01;0;  4.0764299E-01;  9.9994785E+03;  0.0000000E+00;  1.0802652E-05;  1.0000000E+04;  0.0000000E+00;  9.9962080E+03;  5.1588990E-02;  0.0000000E+00;  3.5605401E-01;  1.3043621E+03;
  6.9999665E-01;  9.9999998E-03; -2.6000887E-01;2116; -8.6804936E-03;  0.0000000E+00; -2.1441581E-02;  1.0035115E+03;  4.0147117E-01;  2.9090232E+03;3; -1.4034059E+01;  0.0000000E+00; -3.1381050E+01;0;  3.1600058E-01;  9.9994893E+03;  0.0000000E+00;  7.6076249E-06;  1.0000000E+04;  0.0000000E+00;  9.9971963E+03;  5.0300114E-02;  0.0000000E+00;  2.6570046E-01;  9.5950665E+02;
  6.9999659E-01;  9.9999998E-03; -2.4000461E-01;2117; -8.7228641E-03;  0.0000000E+00; -1.1772937E-02;  1.0035425E+03;  4.0147117E-01;  2.9346008E+03;3; -1.3869243E+01;  0.0000000E+00; -1.8516697E+01;0;  2.5762114E-01;  9.9994980E+03;  0.0000000E+00;  3.1907803E-06;  1.0000000E+04;  0.0000000E+00;  9.9978037E+03;  4.9165990E-02;  0.0000000E+00;  2.0845515E-01;  7.5033124E+02;
  6.9999659E-01;  9.9999998E-03; -2.2000213E-01;2118; -8.6583346E-03;  0.0000000E+00; -5.9086308E-03;  1.0035656E+03;  4.0147114E-01;  2.9538579E+03;3; -1.3583467E+01;  0.0000000E+00; -1.0376158E+01;0;  2.1445385E-01;  9.9995049E+03;  0.0000000E+00;  7.1366657E-07;  1.0000000E+04;  0.0000000E+00;  9.9982578E+03;  4.8196815E-02;  0.0000000E+00;  1.6625704E-01;  5.9300763E+02;
  6.9999665E-01;  9.9999998E-03; -2.0000093E-01;2119; -8.5321087E-03;  0.0000000E+00; -2.9843657E-03;  1.0035891E+03;  4.0147111E-01;  2.9733127E+03;3; -1.3234961E+01;  0.0000000E+00; -6.0920057E+00;0;  1.7084767E-01;  9.9995127E+03;  0.0000000E+00; -5.3115002E-08;  1.0000000E+04;  0.0000000E+00;  9.9987188E+03;  4.7379106E-02;  0.0000000E+00;  1.2346856E-01;  4.3300613E+02;
  7.1999758E-01;  9.9999998E-03; -3.0001864E-01;2145; -6.1957040E-03;  0.0000000E+00; -4.1551095E-02;  1.0036058E+03;  4.0154538E-01;  2.9869575E+03;3; -1.0638775E+01;  0.0000000E+00; -5.6363304E+01;0;  4.7769666E-01;  9.9993633E+03;  0.0000000E+00;  3.7271634E-06;  1.0000000E+04;  0.0000000E+00;  9.9955049E+03;  6.3735560E-02;  0.0000000E+00;  4.1396111E-01;  1.5610690E+03;
  7.1999758E-01;  9.9999998E-03; -2.8001508E-01;2146; -6.2333257E-03;  0.0000000E+00; -3.4805555E-02;  1.0036279E+03;  4.0154535E-01;  3.0053254E+03;3; -1.0445774E+01;  0.0000000E+00; -4.8213799E+01;0;  4.4409510E-01;  9.9993730E+03;  0.0000000E+00;  5.9113418E-06;  1.0000000E+04;  0.0000000E+00;  9.9959346E+03;  6.2657453E-02;  0.0000000E+00;  3.8143766E-01;  1.3984751E+03;
  7.1999758E-01;  9.9999998E-03; -2.6000953E-01;2147; -6.2449933E-03;  0.0000000E+00; -2.3059029E-02;  1.0036792E+03;  4.0154532E-01;  3.0477888E+03;3; -1.0234976E+01;  0.0000000E+00; -3.3763088E+01;0;  3.5034552E-01;  9.9993809E+03;  0.0000000E+00;  4.1666476E-06;  1.0000000E+04;  0.0000000E+00;  9.9969521E+03;  6.1599489E-02;  0.0000000E+00;  2.8874603E-01;  1.0427450E+03;
  7.1999758E-01;  9.9999998E-03; -2.4000496E-01;2148; -6.2187519E-03;  0.0000000E+00; -1.2691217E-02;  1.0037115E+03;  4.0154529E-01;  3.0745508E+03;3; -1.0016648E+01;  0.0000000E+00; -1.9999689E+01;0;  2.8943205E-01;  9.9993887E+03;  0.0000000E+00;  1.7297425E-06;  1.0000000E+04;  0.0000000E+00;  9.9975898E+03;  6.0639866E-02;  0.0000000E+00;  2.2879219E-01;  8.2295380E+02;
  7.1999764E-01;  9.9999998E-03; -2.2000229E-01;2149; -6.1397497E-03;  0.0000000E+00; -6.3983463E-03;  1.0037365E+03;  4.0154529E-01;  3.0952888E+03;3; -9.7498732E+00;  0.0000000E+00; -1.1276817E+01;0;  2.4299936E-01;  9.9993945E+03;  0.0000000E+00;  3.7460117E-07;  1.0000000E+04;  0.0000000E+00;  9.9980811E+03;  5.9776191E-02;  0.0000000E+00;  1.8322317E-01;  6.5273944E+02;
  7.1999764E-01;  9.9999998E-03; -2.0000102E-01;2150; -6.0369107E-03;  0.0000000E+00; -3.2532995E-03;  1.0037621E+03;  4.0154529E-01;  3.1165205E+03;3; -9.4708681E+00;  0.0000000E+00; -6.6654491E+00;0;  1.9523463E-01;  9.9994014E+03;  0.0000000E+00; -2.5870277E-08;  1.0000000E+04;  0.0000000E+00;  9.9985869E+03;  5.8989301E-02;  0.0000000E+00;  1.3624533E-01;  4.7708755E+02;
  7.3999852E-01;  9.9999998E-03; -3.0001932E-01;2176; -3.7921064E-03;  0.0000000E+00; -4.3105010E-02;  1.0036722E+03;  4.0157449E-01;  3.0418501E+03;3; -6.5535059E+00;  0.0000000E+00; -5.8448364E+01;0;  4.8987922E-01;  9.9993418E+03;  0.0000000E+00;  1.2852429E-06;  1.0000000E+04;  0.0000000E+00;  9.9953955E+03;  6.6496052E-02;  0.0000000E+00;  4.2338318E-01;  1.5990570E+03;
  7.3999852E-01;  9.9999998E-03; -2.8001565E-01;2177; -3.8354190E-03;  0.0000000E+00; -3.6074888E-02;  1.0036921E+03;  4.0157449E-01;  3.0583411E+03;3; -6.4725323E+00;  0.0000000E+00; -4.9907619E+01;0;  4.6045005E-01;  9.9993477E+03;  0.0000000E+00;  2.4547221E-06;  1.0000000E+04;  0.0000000E+00;  9.9957891E+03;  6.5730244E-02;  0.0000000E+00;  3.9471981E-01;  1.4491455E+03;
  7.3999852E-01;  9.9999998E-03; -2.6000988E-01;2178; -3.8474344E-03;  0.0000000E+00; -2.3906445E-02;  1.0037430E+03;  4.0157452E-01;  3.1005068E+03;3; -6.3595066E+00;  0.0000000E+00; -3.4968151E+01;0;  3.6806121E-01;  9.9993525E+03;  0.0000000E+00;  1.7462422E-06;  1.0000000E+04;  0.0000000E+00;  9.9967979E+03;  6.4967044E-02;  0.0000000E+00;  3.0309418E-01;  1.0953960E+03;
  7.3999852E-01;  9.9999998E-03; -2.4000515E-01;2179; -3.8208489E-03;  0.0000000E+00; -1.3183627E-02;  1.0037756E+03;  4.0157446E-01;  3.1275637E+03;3; -6.2076731E+00;  0.0000000E+00; -2.0786705E+01;0;  3.0689874E-01;  9.9993594E+03;  0.0000000E+00;  7.0608490E-07;  1.0000000E+04;  0.0000000E+00;  9.9974434E+03;  6.4233549E-02;  0.0000000E+00;  2.4266519E-01;  8.7275446E+02;
  7.3999858E-01;  9.9999998E-03; -2.2000238E-01;2180; -3.7628238E-03;  0.0000000E+00; -6.6777072E-03;  1.0038016E+03;  4.0157443E-01;  3.1490911E+03;3; -6.0254722E+00;  0.0000000E+00; -1.1799898E+01;0;  2.5863346E-01;  9.9993643E+03;  0.0000000E+00;  1.4399335E-07;  1.0000000E+04;  0.0000000E+00;  9.9979561E+03;  6.3521922E-02;  0.0000000E+00;  1.9511154E-01;  6.9466138E+02;
  7.3999858E-01;  9.9999998E-03; -2.0000106E-01;2181; -3.6891494E-03;  0.0000000E+00; -3.4234042E-03;  1.0038289E+03;  4.0157443E-01;  3.1717043E+03;3; -5.8325887E+00;  0.0000000E+00; -7.0374956E+00;0;  2.0804712E-01;  9.9993691E+03;  0.0000000E+00; -1.0903619E-08;  1.0000000E+04;  0.0000000E+00;  9.9984951E+03;  6.2822193E-02;  0.0000000E+00;  1.4522493E-01;  5.0808633E+02;
  7.5999928E-01;  9.9999998E-03; -3.0001968E-01;2207; -1.9221046E-03;  0.0000000E+00; -4.3904841E-02;  1.0036995E+03;  4.0158552E-01;  3.0644097E+03;3; -3.3548822E+00;  0.0000000E+00; -5.9527252E+01;0;  4.8970804E-01;  9.9993789E+03;  0.0000000E+00;  1.6848112E-07;  1.0000000E+04;  0.0000000E+00;  9.9953564E+03;  6.3070528E-02;  0.0000000E+00;  4.2663750E-01;  1.6126332E+03;
  7.5999928E-01;  9.9999998E-03; -2.8001595E-01;2208; -1.9521344E-03;  0.0000000E+00; -3.6710426E-02;  1.0037177E+03;  4.0158555E-01;  3.0794187E+03;3; -3.3318202E+00;  0.0000000E+00; -5.0739552E+01;0;  4.6378332E-01;  9.9993828E+03;  0.0000000E+00;  6.5222491E-07;  1.0000000E+04;  0.0000000E+00;  9.9957158E+03;  6.2583268E-02;  0.0000000E+00;  4.0120006E-01;  1.4741276E+03;
  7.5999928E-01;  9.9999998E-03; -2.6001006E-01;2209; -1.9614592E-03;  0.0000000E+00; -2.4323385E-02;  1.0037677E+03;  4.0158552E-01;  3.1208911E+03;3; -3.2832446E+00;  0.0000000E+00; -3.5545372E+01;0;  3.7336949E-01;  9.9993867E+03;  0.0000000E+00;  4.8443650E-07;  1.0000000E+04;  0.0000000E+00;  9.9967090E+03;  6.2079344E-02;  0.0000000E+00;  3.1129014E-01;  1.1255500E+03;
  7.5999928E-01;  9.9999998E-03; -2.4000525E-01;2210; -1.9465836E-03;  0.0000000E+00; -1.3431175E-02;  1.0038002E+03;  4.0158546E-01;  3.1478479E+03;3; -3.2055650E+00;  0.0000000E+00; -2.1182356E+01;0;  3.1264329E-01;  9.9993906E+03;  0.0000000E+00;  1.8984106E-07;  1.0000000E+04;  0.0000000E+00;  9.9973535E+03;  6.1544582E-02;  0.0000000E+00;  2.5109872E-01;  9.0299091E+02;
  7.5999928E-01;  9.9999998E-03; -2.2000244E-01;2211; -1.9124129E-03;  0.0000000E+00; -6.8270178E-03;  1.0038268E+03;  4.0158549E-01;  3.1698679E+03;3; -3.1047750E+00;  0.0000000E+00; -1.2086849E+01;0;  2.6341033E-01;  9.9993955E+03;  0.0000000E+00;  3.4244781E-08;  1.0000000E+04;  0.0000000E+00;  9.9978789E+03;  6.0969293E-02;  0.0000000E+00;  2.0244104E-01;  7.2045319E+02;
  7.5999928E-01;  9.9999998E-03; -2.0000109E-01;2212; -1.8688650E-03;  0.0000000E+00; -3.5231824E-03;  1.0038550E+03;  4.0158549E-01;  3.1931714E+03;3; -2.9940174E+00;  0.0000000E+00; -7.2611103E+00;0;  2.1110746E-01;  9.9993994E+03;  0.0000000E+00; -4.2981059E-09;  1.0000000E+04;  0.0000000E+00;  9.9984375E+03;  6.0359679E-02;  0.0000000E+00;  1.5074778E-01;  5.2711792E+02;
  7.7999979E-01;  9.9999998E-03; -3.0001983E-01;2238; -5.5137154E-04;  0.0000000E+00; -4.4241261E-02;  1.0037127E+03;  4.0158960E-01;  3.0750642E+03;3; -9.9037170E-01;  0.0000000E+00; -5.9991634E+01;0;  4.8376173E-01;  9.9994473E+03;  0.0000000E+00; -8.7199666E-08;  1.0000000E+04;  0.0000000E+00;  9.9953477E+03;  5.6492519E-02;  0.0000000E+00;  4.2726922E-01;  1.6147328E+03;
  7.7999979E-01;  9.9999998E-03; -2.8001606E-01;2239; -5.6749710E-04;  0.0000000E+00; -3.6964044E-02;  1.0037297E+03;  4.0158963E-01;  3.0891836E+03;3; -1.0013735E+00;  0.0000000E+00; -5.1064785E+01;0;  4.5990819E-01;  9.9994502E+03;  0.0000000E+00;  2.9113831E-08;  1.0000000E+04;  0.0000000E+00;  9.9956865E+03;  5.6206077E-02;  0.0000000E+00;  4.0370211E-01;  1.4832495E+03;
  7.7999979E-01;  9.9999998E-03; -2.6001015E-01;2240; -5.7384989E-04;  0.0000000E+00; -2.4483150E-02;  1.0037791E+03;  4.0158957E-01;  3.1300608E+03;3; -9.9758476E-01;  0.0000000E+00; -3.5758476E+01;0;  3.7092659E-01;  9.9994512E+03;  0.0000000E+00;  3.6826091E-08;  1.0000000E+04;  0.0000000E+00;  9.9966680E+03;  5.5879015E-02;  0.0000000E+00;  3.1504756E-01;  1.1389878E+03;
  7.7999979E-01;  9.9999998E-03; -2.4000528E-01;2241; -5.6984264E-04;  0.0000000E+00; -1.3527229E-02;  1.0038114E+03;  4.0158954E-01;  3.1568184E+03;3; -9.7816008E-01;  0.0000000E+00; -2.1334646E+01;0;  3.1065989E-01;  9.9994551E+03;  0.0000000E+00;  1.3791973E-08;  1.0000000E+04;  0.0000000E+00;  9.9973096E+03;  5.5478748E-02;  0.0000000E+00;  2.5518113E-01;  9.1729608E+02;
  7.7999979E-01;  9.9999998E-03; -2.2000246E-01;2242; -5.5770739E-04;  0.0000000E+00; -6.8897526E-03;  1.0038383E+03;  4.0158951E-01;  3.1791331E+03;3; -9.4570994E-01;  0.0000000E+00; -1.2210381E+01;0;  2.6101628E-01;  9.9994580E+03;  0.0000000E+00;  1.6858490E-09;  1.0000000E+04;  0.0000000E+00;  9.9978418E+03;  5.4999169E-02;  0.0000000E+00;  2.0601712E-01;  7.3277655E+02;
  7.7999979E-01;  9.9999998E-03; -2.0000111E-01;2243; -5.4133980E-04;  0.0000000E+00; -3.5704528E-03;  1.0038669E+03;  4.0158954E-01;  3.2028298E+03;3; -9.0570164E-01;  0.0000000E+00; -7.3691754E+00;0;  2.0788382E-01;  9.9994619E+03;  0.0000000E+00; -4.2040296E-10;  1.0000000E+04;  0.0000000E+00;  9.9984102E+03;  5.4461282E-02;  0.0000000E+00;  1.5342253E-01;  5.3616461E+02;
  8.0000019E-01;  9.9999998E-03; -3.0001983E-01;2269;  5.1458372E-04;  0.0000000E+00; -4.4247098E-02;  1.0037176E+03;  4.0158993E-01;  3.0788328E+03;3;  8.6158818E-01;  0.0000000E+00; -6.0035591E+01;0;  4.7592500E-01;  9.9995176E+03;  0.0000000E+00; -1.3617731E-09;  1.0000000E+04;  0.0000000E+00;  9.9953574E+03;  4.9500324E-02;  0.0000000E+00;  4.2642468E-01;  1.6092338E+03;
  8.0000019E-01;  9.9999998E-03; -2.8001603E-01;2270;  5.1100925E-04;  0.0000000E+00; -3.6950503E-02;  1.0037342E+03;  4.0158996E-01;  3.0926545E+03;3;  8.2819730E-01;  0.0000000E+00; -5.1057705E+01;0;  4.5275730E-01;  9.9995186E+03;  0.0000000E+00;  8.0434539E-09;  1.0000000E+04;  0.0000000E+00;  9.9956904E+03;  4.9328733E-02;  0.0000000E+00;  4.0342855E-01;  1.4805417E+03;
  8.0000019E-01;  9.9999998E-03; -2.6001012E-01;2271;  5.0701300E-04;  0.0000000E+00; -2.4464630E-02;  1.0037832E+03;  4.0158990E-01;  3.1332319E+03;3;  7.9799098E-01;  0.0000000E+00; -3.5731354E+01;0;  3.6449242E-01;  9.9995195E+03;  0.0000000E+00;  1.0245517E-08;  1.0000000E+04;  0.0000000E+00;  9.9966631E+03;  4.9094517E-02;  0.0000000E+00;  3.1539789E-01;  1.1391392E+03;
  8.0000019E-01;  9.9999998E-03; -2.4000528E-01;2272;  5.0148153E-04;  0.0000000E+00; -1.3516737E-02;  1.0038153E+03;  4.0158993E-01;  3.1597898E+03;3;  7.7054197E-01;  0.0000000E+00; -2.1319344E+01;0;  3.0456397E-01;  9.9995225E+03;  0.0000000E+00;  5.9769705E-09;  1.0000000E+04;  0.0000000E+00;  9.9973027E+03;  4.8767034E-02;  0.0000000E+00;  2.5579694E-01;  9.1862042E+02;
  8.0000019E-01;  9.9999998E-03; -2.2000246E-01;2273;  4.9483741E-04;  0.0000000E+00; -6.8886867E-03;  1.0038422E+03;  4.0158987E-01;  3.1821023E+03;3;  7.4666458E-01;  0.0000000E+00; -1.2212685E+01;0;  2.5493035E-01;  9.9995254E+03;  0.0000000E+00;  1.6031594E-09;  1.0000000E+04;  0.0000000E+00;  9.9978359E+03;  4.8346404E-02;  0.0000000E+00;  2.0658393E-01;  7.3408783E+02;
  8.0000019E-01;  9.9999998E-03; -2.0000111E-01;2274;  4.8822456E-04;  0.0000000E+00; -3.5760882E-03;  1.0038710E+03;  4.0158987E-01;  3.2058958E+03;3;  7.2747982E-01;  0.0000000E+00; -7.3843937E+00;0;  2.0168793E-01;  9.9995283E+03;  0.0000000E+00; -1.7981004E-10;  1.0000000E+04;  0.0000000E+00;  9.9984063E+03;  4.7861572E-02;  0.0000000E+00;  1.5382636E-01;  5.3708801E+02;
  8.2000059E-01;  9.9999998E-03; -3.0001974E-01;2300;  1.4839502E-03;  0.0000000E+00; -4.4030331E-02;  1.0037187E+03;  4.0158898E-01;  3.0794426E+03;3;  2.5466826E+00;  0.0000000E+00; -5.9756310E+01;0;  4.6891624E-01;  9.9995752E+03;  0.0000000E+00;  1.8314522E-07;  1.0000000E+04;  0.0000000E+00;  9.9953711E+03;  4.3603618E-02;  0.0000000E+00;  4.2531261E-01;  1.6017228E+03;
  8.2000059E-01;  9.9999998E-03; -2.8001598E-01;2301;  1.4908337E-03;  0.0000000E+00; -3.6764450E-02;  1.0037357E+03;  4.0158892E-01;  3.0934602E+03;3;  2.4916003E+00;  0.0000000E+00; -5.0809681E+01;0;  4.4494331E-01;  9.9995762E+03;  0.0000000E+00;  2.8071815E-07;  1.0000000E+04;  0.0000000E+00;  9.9957109E+03;  4.3476738E-02;  0.0000000E+00;  4.0146658E-01;  1.4704990E+03;
  8.2000059E-01;  9.9999998E-03; -2.6001006E-01;2302;  1.4880609E-03;  0.0000000E+00; -2.4331599E-02;  1.0037847E+03;  4.0158892E-01;  3.1341311E+03;3;  2.4292314E+00;  0.0000000E+00; -3.5534088E+01;0;  3.5639092E-01;  9.9995781E+03;  0.0000000E+00;  2.0039973E-07;  1.0000000E+04;  0.0000000E+00;  9.9966875E+03;  4.3274682E-02;  0.0000000E+00;  3.1311625E-01;  1.1288912E+03;
  8.2000059E-01;  9.9999998E-03; -2.4000525E-01;2303;  1.4741183E-03;  0.0000000E+00; -1.3434244E-02;  1.0038170E+03;  4.0158892E-01;  3.1607844E+03;3;  2.3599060E+00;  0.0000000E+00; -2.1179741E+01;0;  2.9653266E-01;  9.9995811E+03;  0.0000000E+00;  8.4447564E-08;  1.0000000E+04;  0.0000000E+00;  9.9973271E+03;  4.2978365E-02;  0.0000000E+00;  2.5355428E-01;  9.0905994E+02;
  8.2000059E-01;  9.9999998E-03; -2.2000244E-01;2304;  1.4516978E-03;  0.0000000E+00; -6.8403510E-03;  1.0038436E+03;  4.0158886E-01;  3.1828967E+03;3;  2.2872875E+00;  0.0000000E+00; -1.2118506E+01;0;  2.4723558E-01;  9.9995830E+03;  0.0000000E+00;  1.6216317E-08;  1.0000000E+04;  0.0000000E+00;  9.9978555E+03;  4.2592008E-02;  0.0000000E+00;  2.0464358E-01;  7.2604767E+02;
  8.2000053E-01;  9.9999998E-03; -2.0000109E-01;2305;  1.4256445E-03;  0.0000000E+00; -3.5473970E-03;  1.0038721E+03;  4.0158889E-01;  3.2063911E+03;3;  2.2169447E+00;  0.0000000E+00; -7.3207855E+00;0;  1.9448411E-01;  9.9995859E+03;  0.0000000E+00; -2.8673017E-09;  1.0000000E+04;  0.0000000E+00;  9.9984199E+03;  4.2144336E-02;  0.0000000E+00;  1.5233977E-01;  5.3110370E+02;
  8.4000093E-01;  9.9999998E-03; -3.0001938E-01;2331;  2.4703927E-03;  0.0000000E+00; -4.3234881E-02;  1.0036608E+03;  4.0156326E-01;  3.0309653E+03;3;  4.2540908E+00;  0.0000000E+00; -5.8712902E+01;0;  4.5709780E-01;  9.9996201E+03;  0.0000000E+00;  4.8624929E-07;  1.0000000E+04;  0.0000000E+00;  9.9954502E+03;  3.8955200E-02;  0.0000000E+00;  4.1814259E-01;  1.5701324E+03;
  8.4000093E-01;  9.9999998E-03; -2.8001568E-01;2332;  2.4858762E-03;  0.0000000E+00; -3.6094118E-02;  1.0036778E+03;  4.0156326E-01;  3.0450793E+03;3;  4.1728740E+00;  0.0000000E+00; -4.9907349E+01;0;  4.3301332E-01;  9.9996221E+03;  0.0000000E+00;  7.9483237E-07;  1.0000000E+04;  0.0000000E+00;  9.9957900E+03;  3.8826585E-02;  0.0000000E+00;  3.9418674E-01;  1.4398820E+03;
  8.4000093E-01;  9.9999998E-03; -2.6000988E-01;2333;  2.4832203E-03;  0.0000000E+00; -2.3879420E-02;  1.0037261E+03;  4.0156329E-01;  3.0850527E+03;3;  4.0755634E+00;  0.0000000E+00; -3.4879974E+01;0;  3.4563389E-01;  9.9996240E+03;  0.0000000E+00;  5.6642330E-07;  1.0000000E+04;  0.0000000E+00;  9.9967520E+03;  3.8619667E-02;  0.0000000E+00;  3.0701423E-01;  1.1040540E+03;
  8.4000093E-01;  9.9999998E-03; -2.4000515E-01;2334;  2.4614618E-03;  0.0000000E+00; -1.3177604E-02;  1.0037578E+03;  4.0156320E-01;  3.1112080E+03;3;  3.9650211E+00;  0.0000000E+00; -2.0771980E+01;0;  2.8670639E-01;  9.9996260E+03;  0.0000000E+00;  2.3228597E-07;  1.0000000E+04;  0.0000000E+00;  9.9973818E+03;  3.8326152E-02;  0.0000000E+00;  2.4838023E-01;  8.8834229E+02;
  8.4000093E-01;  9.9999998E-03; -2.2000240E-01;2335;  2.4251700E-03;  0.0000000E+00; -6.7050979E-03;  1.0037840E+03;  4.0156323E-01;  3.1329219E+03;3;  3.8470049E+00;  0.0000000E+00; -1.1873771E+01;0;  2.3833464E-01;  9.9996289E+03;  0.0000000E+00;  4.8194295E-08;  1.0000000E+04;  0.0000000E+00;  9.9979004E+03;  3.7951197E-02;  0.0000000E+00;  2.0038344E-01;  7.0926404E+02;
  8.4000093E-01;  9.9999998E-03; -2.0000108E-01;2336;  2.3819085E-03;  0.0000000E+00; -3.4742411E-03;  1.0038118E+03;  4.0156323E-01;  3.1560176E+03;3;  3.7298796E+00;  0.0000000E+00; -7.1667595E+00;0;  1.8665680E-01;  9.9996318E+03;  0.0000000E+00; -5.8714926E-09;  1.0000000E+04;  0.0000000E+00;  9.9984541E+03;  3.7518770E-02;  0.0000000E+00;  1.4913803E-01;  5.1876672E+02;
  8.6000133E-01;  9.9999998E-03; -3.0001876E-01;2362;  3.4731014E-03;  0.0000000E+00; -4.1859828E-02;  1.0035438E+03;  4.0151274E-01;  2.9334866E+03;3;  5.9828954E+00;  0.0000000E+00; -5.6885868E+01;0;  4.3967056E-01;  9.9996611E+03;  0.0000000E+00;  9.6499582E-07;  1.0000000E+04;  0.0000000E+00;  9.9955967E+03;  3.4870759E-02;  0.0000000E+00;  4.0479979E-01;  1.5143855E+03;
  8.6000133E-01;  9.9999998E-03; -2.8001517E-01;2363;  3.4956126E-03;  0.0000000E+00; -3.4937132E-02;  1.0035604E+03;  4.0151277E-01;  2.9471040E+03;3;  5.8714542E+00;  0.0000000E+00; -4.8331017E+01;0;  4.1626576E-01;  9.9996621E+03;  0.0000000E+00;  1.5744325E-06;  1.0000000E+04;  0.0000000E+00;  9.9959248E+03;  3.4708224E-02;  0.0000000E+00;  3.8155752E-01;  1.3888009E+03;
  8.6000133E-01;  9.9999998E-03; -2.6000956E-01;2364;  3.4925365E-03;  0.0000000E+00; -2.3105588E-02;  1.0036072E+03;  4.0151274E-01;  2.9858843E+03;3;  5.7372389E+00;  0.0000000E+00; -3.3756237E+01;0;  3.3162099E-01;  9.9996641E+03;  0.0000000E+00;  1.1101724E-06;  1.0000000E+04;  0.0000000E+00;  9.9968574E+03;  3.4465861E-02;  0.0000000E+00;  2.9715514E-01;  1.0649481E+03;
  8.6000133E-01;  9.9999998E-03; -2.4000499E-01;2365;  3.4634490E-03;  0.0000000E+00; -1.2746131E-02;  1.0036378E+03;  4.0151268E-01;  3.0112444E+03;3;  5.5856404E+00;  0.0000000E+00; -2.0091013E+01;0;  2.7453294E-01;  9.9996670E+03;  0.0000000E+00;  4.5745119E-07;  1.0000000E+04;  0.0000000E+00;  9.9974658E+03;  3.4141619E-02;  0.0000000E+00;  2.4039133E-01;  8.5689441E+02;
  8.6000133E-01;  9.9999998E-03; -2.2000231E-01;2366;  3.4145056E-03;  0.0000000E+00; -6.4827600E-03;  1.0036631E+03;  4.0151268E-01;  3.0321641E+03;3;  5.4241943E+00;  0.0000000E+00; -1.1477620E+01;0;  2.2765493E-01;  9.9996699E+03;  0.0000000E+00;  9.5735025E-08;  1.0000000E+04;  0.0000000E+00;  9.9979697E+03;  3.3740878E-02;  0.0000000E+00;  1.9391406E-01;  6.8412012E+02;
  8.6000133E-01;  9.9999998E-03; -2.0000103E-01;2367;  3.3555112E-03;  0.0000000E+00; -3.3576260E-03;  1.0036901E+03;  4.0151265E-01;  3.0545640E+03;3;  5.2631717E+00;  0.0000000E+00; -6.9247971E+00;0;  1.7758615E-01;  9.9996719E+03;  0.0000000E+00; -8.9352916E-09;  1.0000000E+04;  0.0000000E+00;  9.9985039E+03;  3.3285096E-02;  0.0000000E+00;  1.4430106E-01;  5.0034521E+02;
  8.8000172E-01;  9.9999998E-03; -3.0001789E-01;2393;  4.4256272E-03;  0.0000000E+00; -3.9949220E-02;  1.0033752E+03;  4.0144026E-01;  2.7931155E+03;3;  7.6224484E+00;  0.0000000E+00; -5.4337440E+01;0;  4.1633180E-01;  9.9997021E+03;  0.0000000E+00;  1.6439739E-06;  1.0000000E+04;  0.0000000E+00;  9.9958057E+03;  3.0570675E-02;  0.0000000E+00;  3.8576111E-01;  1.4362537E+03;
  8.8000172E-01;  9.9999998E-03; -2.8001446E-01;2394;  4.4537419E-03;  0.0000000E+00; -3.3328958E-02;  1.0033908E+03;  4.0144029E-01;  2.8059397E+03;3;  7.4799085E+00;  0.0000000E+00; -4.6130627E+01;0;  3.9428872E-01;  9.9997041E+03;  0.0000000E+00;  2.5554939E-06;  1.0000000E+04;  0.0000000E+00;  9.9961143E+03;  3.0338176E-02;  0.0000000E+00;  3.6395055E-01;  1.3186123E+03;
  8.8000172E-01;  9.9999998E-03; -2.6000911E-01;2395;  4.4500045E-03;  0.0000000E+00; -2.2032181E-02;  1.0034352E+03;  4.0144023E-01;  2.8427354E+03;3;  7.3097119E+00;  0.0000000E+00; -3.2193523E+01;0;  3.1379583E-01;  9.9997061E+03;  0.0000000E+00;  1.7920273E-06;  1.0000000E+04;  0.0000000E+00;  9.9969990E+03;  3.0016787E-02;  0.0000000E+00;  2.8377905E-01;  1.0124321E+03;
  8.8000172E-01;  9.9999998E-03; -2.4000475E-01;2396;  4.4141212E-03;  0.0000000E+00; -1.2150633E-02;  1.0034645E+03;  4.0144020E-01;  2.8669043E+03;3;  7.1190987E+00;  0.0000000E+00; -1.9152328E+01;0;  2.5936562E-01;  9.9997100E+03;  0.0000000E+00;  7.4454653E-07;  1.0000000E+04;  0.0000000E+00;  9.9975791E+03;  2.9607283E-02;  0.0000000E+00;  2.2975834E-01;  8.1533124E+02;
  8.8000166E-01;  9.9999998E-03; -2.2000220E-01;2397;  4.3535829E-03;  0.0000000E+00; -6.1788387E-03;  1.0034887E+03;  4.0144017E-01;  2.8869297E+03;3;  6.9170218E+00;  0.0000000E+00; -1.0939344E+01;0;  2.1448593E-01;  9.9997139E+03;  0.0000000E+00;  1.5967896E-07;  1.0000000E+04;  0.0000000E+00;  9.9980576E+03;  2.9119482E-02;  0.0000000E+00;  1.8536645E-01;  6.5108344E+02;
  8.8000166E-01;  9.9999998E-03; -2.0000099E-01;2398;  4.2802086E-03;  0.0000000E+00; -3.2003357E-03;  1.0035145E+03;  4.0144017E-01;  2.9083362E+03;3;  6.7154503E+00;  0.0000000E+00; -6.6007133E+00;0;  1.6650215E-01;  9.9997178E+03;  0.0000000E+00; -1.1666017E-08;  1.0000000E+04;  0.0000000E+00;  9.9985713E+03;  2.8581372E-02;  0.0000000E+00;  1.3792078E-01;  4.7616724E+02;
  9.0000200E-01;  9.9999998E-03; -3.0001682E-01;2424;  5.2468744E-03;  0.0000000E+00; -3.7579563E-02;  1.0031642E+03;  4.0134969E-01;  2.6174465E+03;3;  9.0371265E+00;  0.0000000E+00; -5.1171574E+01;0;  3.8760373E-01;  9.9997490E+03;  0.0000000E+00;  2.3807274E-06;  1.0000000E+04;  0.0000000E+00;  9.9960664E+03;  2.5725367E-02;  0.0000000E+00;  3.6187837E-01;  1.3388475E+03;
  9.0000200E-01;  9.9999998E-03; -2.8001359E-01;2425;  5.2787769E-03;  0.0000000E+00; -3.1333014E-02;  1.0031786E+03;  4.0134969E-01;  2.6292795E+03;3;  8.8664417E+00;  0.0000000E+00; -4.3394756E+01;0;  3.6741126E-01;  9.9997529E+03;  0.0000000E+00;  3.6041317E-06;  1.0000000E+04;  0.0000000E+00;  9.9963477E+03;  2.5365632E-02;  0.0000000E+00;  3.4204563E-01;  1.2317355E+03;
  9.0000200E-01;  9.9999998E-03; -2.6000857E-01;2426;  5.2746665E-03;  0.0000000E+00; -2.0700490E-02;  1.0032202E+03;  4.0134966E-01;  2.6636938E+03;3;  8.6642923E+00;  0.0000000E+00; -3.0252275E+01;0;  2.9221547E-01;  9.9997568E+03;  0.0000000E+00;  2.5084928E-06;  1.0000000E+04;  0.0000000E+00;  9.9971738E+03;  2.4895614E-02;  0.0000000E+00;  2.6731986E-01;  9.4805426E+02;
  9.0000200E-01;  9.9999998E-03; -2.4000446E-01;2427;  5.2326098E-03;  0.0000000E+00; -1.1412471E-02;  1.0032475E+03;  4.0134963E-01;  2.6862749E+03;3;  8.4391069E+00;  0.0000000E+00; -1.7989346E+01;0;  2.4110201E-01;  9.9997617E+03;  0.0000000E+00;  1.0430879E-06;  1.0000000E+04;  0.0000000E+00;  9.9977148E+03;  2.4319462E-02;  0.0000000E+00;  2.1678254E-01;  7.6472858E+02;
  9.0000200E-01;  9.9999998E-03; -2.2000207E-01;2428;  5.1617133E-03;  0.0000000E+00; -5.8034980E-03;  1.0032704E+03;  4.0134966E-01;  2.7052075E+03;3;  8.2011051E+00;  0.0000000E+00; -1.0276005E+01;0;  1.9863251E-01;  9.9997666E+03;  0.0000000E+00;  2.3097746E-07;  1.0000000E+04;  0.0000000E+00;  9.9981670E+03;  2.3660712E-02;  0.0000000E+00;  1.7497180E-01;  6.1097717E+02;
  9.0000200E-01;  9.9999998E-03; -2.0000093E-01;2429;  5.0756177E-03;  0.0000000E+00; -3.0074783E-03;  1.0032950E+03;  4.0134963E-01;  2.7255208E+03;3;  7.9638767E+00;  0.0000000E+00; -6.2044983E+00;0;  1.5313418E-01;  9.9997725E+03;  0.0000000E+00; -1.3469959E-08;  1.0000000E+04;  0.0000000E+00;  9.9986514E+03;  2.2967219E-02;  0.0000000E+00;  1.3016696E-01;  4.4683289E+02;
  9.2000228E-01;  9.9999998E-03; -3.0001557E-01;2455;  5.8728317E-03;  0.0000000E+00; -3.4857024E-02;  1.0029222E+03;  4.0124577E-01;  2.4158523E+03;3;  1.0119232E+01;  0.0000000E+00; -4.7531761E+01;0;  3.5493183E-01;  9.9997988E+03;  0.0000000E+00;  3.0218373E-06;  1.0000000E+04;  0.0000000E+00;  9.9963672E+03;  2.0621145E-02;  0.0000000E+00;  3.3431068E-01;  1.2265031E+03;
  9.2000228E-01;  9.9999998E-03; -2.8001258E-01;2456;  5.8929618E-03;  0.0000000E+00; -2.9035527E-02;  1.0029351E+03;  4.0124577E-01;  2.4265947E+03;3;  9.8937769E+00;  0.0000000E+00; -4.0238850E+01;0;  3.3681712E-01;  9.9998047E+03;  0.0000000E+00;  4.5116612E-06;  1.0000000E+04;  0.0000000E+00;  9.9966182E+03;  2.0044532E-02;  0.0000000E+00;  3.1677258E-01;  1.1316151E+03;
  9.2000228E-01;  9.9999998E-03; -2.6000795E-01;2457;  5.9024403E-03;  0.0000000E+00; -1.9168979E-02;  1.0029732E+03;  4.0124580E-01;  2.4580334E+03;3;  9.6984749E+00;  0.0000000E+00; -2.8016521E+01;0;  2.6772723E-01;  9.9998115E+03;  0.0000000E+00;  3.1289164E-06;  1.0000000E+04;  0.0000000E+00;  9.9973740E+03;  1.9323593E-02;  0.0000000E+00;  2.4840364E-01;  8.7404401E+02;
  9.2000228E-01;  9.9999998E-03; -2.4000414E-01;2458;  5.8549861E-03;  0.0000000E+00; -1.0563688E-02;  1.0029986E+03;  4.0124577E-01;  2.4790254E+03;3;  9.4453440E+00;  0.0000000E+00; -1.6650648E+01;0;  2.2038928E-01;  9.9998193E+03;  0.0000000E+00;  1.2890291E-06;  1.0000000E+04;  0.0000000E+00;  9.9978711E+03;  1.8473322E-02;  0.0000000E+00;  2.0191595E-01;  7.0669464E+02;
  9.2000222E-01;  9.9999998E-03; -2.2000192E-01;2459;  5.7722828E-03;  0.0000000E+00; -5.3721024E-03;  1.0030200E+03;  4.0124577E-01;  2.4967651E+03;3;  9.1714220E+00;  0.0000000E+00; -9.5135164E+00;0;  1.8062872E-01;  9.9998271E+03;  0.0000000E+00;  2.8110787E-07;  1.0000000E+04;  0.0000000E+00;  9.9982910E+03;  1.7544296E-02;  0.0000000E+00;  1.6308442E-01;  5.6505383E+02;
  9.2000222E-01;  9.9999998E-03; -2.0000087E-01;2460;  5.6622881E-03;  0.0000000E+00; -2.7876238E-03;  1.0030430E+03;  4.0124574E-01;  2.5156875E+03;3;  8.8759975E+00;  0.0000000E+00; -5.7529097E+00;0;  1.3792859E-01;  9.9998350E+03;  0.0000000E+00; -1.6138566E-08;  1.0000000E+04;  0.0000000E+00;  9.9987422E+03;  1.6619056E-02;  0.0000000E+00;  1.2130953E-01;  4.1328143E+02;
  9.4000238E-01;  9.9999998E-03; -3.0001426E-01;2486;  6.2722103E-03;  0.0000000E+00; -3.1901490E-02;  1.0026601E+03;  4.0113345E-01;  2.1975122E+03;3;  1.0815381E+01;  0.0000000E+00; -4.3581562E+01;0;  3.2026476E-01;  9.9998447E+03;  0.0000000E+00;  3.4260356E-06;  1.0000000E+04;  0.0000000E+00;  9.9966953E+03;  1.5984837E-02;  0.0000000E+00;  3.0427992E-01;  1.1038948E+03;
  9.4000238E-01;  9.9999998E-03; -2.8001150E-01;2487;  6.2839696E-03;  0.0000000E+00; -2.6541110E-02;  1.0026715E+03;  4.0113345E-01;  2.2069663E+03;3;  1.0555595E+01;  0.0000000E+00; -3.6812996E+01;0;  3.0428258E-01;  9.9998535E+03;  0.0000000E+00;  1.0477472E-05;  1.0000000E+04;  0.0000000E+00;  9.9969131E+03;  1.5070060E-02;  0.0000000E+00;  2.8921252E-01;  1.0221558E+03;
  9.4000244E-01;  9.9999998E-03; -2.6000723E-01;2488;  6.2990692E-03;  0.0000000E+00; -1.7504076E-02;  1.0027060E+03;  4.0113348E-01;  2.2355259E+03;3;  1.0356723E+01;  0.0000000E+00; -2.5585257E+01;0;  2.4171989E-01;  9.9998633E+03;  0.0000000E+00;  4.8395477E-06;  1.0000000E+04;  0.0000000E+00;  9.9975928E+03;  1.3967609E-02;  0.0000000E+00;  2.2775228E-01;  7.9301288E+02;
  9.4000238E-01;  9.9999998E-03; -2.4000376E-01;2489;  6.2433095E-03;  0.0000000E+00; -9.6397074E-03;  1.0027291E+03;  4.0113339E-01;  2.2546313E+03;3;  1.0076511E+01;  0.0000000E+00; -1.5191675E+01;0;  1.9843240E-01;  9.9998750E+03;  0.0000000E+00;  1.4342460E-06;  1.0000000E+04;  0.0000000E+00;  9.9980430E+03;  1.2717575E-02;  0.0000000E+00;  1.8571483E-01;  6.4322009E+02;
  9.4000238E-01;  9.9999998E-03; -2.2000176E-01;2490;  6.1150356E-03;  0.0000000E+00; -4.9039158E-03;  1.0027490E+03;  4.0113342E-01;  2.2709792E+03;3;  9.6989059E+00;  0.0000000E+00; -8.6853342E+00;0;  1.6157885E-01;  9.9998877E+03;  0.0000000E+00;  3.1375617E-07;  1.0000000E+04;  0.0000000E+00;  9.9984268E+03;  1.1414260E-02;  0.0000000E+00;  1.5016459E-01;  5.1493622E+02;
  9.4000232E-01;  9.9999998E-03; -2.0000079E-01;2491;  5.9371260E-03;  0.0000000E+00; -2.5576658E-03;  1.0027703E+03;  4.0113342E-01;  2.2886074E+03;3;  9.2602797E+00;  0.0000000E+00; -5.2788815E+00;0;  1.2189621E-01;  9.9998984E+03;  0.0000000E+00; -1.4847577E-08;  1.0000000E+04;  0.0000000E+00;  9.9988418E+03;  1.0187394E-02;  0.0000000E+00;  1.1170881E-01;  3.7675793E+02;
  9.6000248E-01;  9.9999998E-03; -3.0001286E-01;2517;  6.5041338E-03;  0.0000000E+00; -2.8835708E-02;  1.0023892E+03;  4.0101761E-01;  1.9718053E+03;3;  1.1226476E+01;  0.0000000E+00; -3.9486771E+01;0;  2.8554678E-01;  9.9998779E+03;  0.0000000E+00;  3.4927639E-06;  1.0000000E+04;  0.0000000E+00;  9.9970361E+03;  1.2561439E-02;  0.0000000E+00;  2.7298534E-01;  9.7567615E+02;
  9.6000248E-01;  9.9999998E-03; -2.8001037E-01;2518;  6.5114186E-03;  0.0000000E+00; -2.3966527E-02;  1.0023991E+03;  4.0101758E-01;  1.9799711E+03;3;  1.0955057E+01;  0.0000000E+00; -3.3282661E+01;0;  2.7177960E-01;  9.9998906E+03;  0.0000000E+00;  1.8811597E-04;  1.0000000E+04;  0.0000000E+00;  9.9972188E+03;  1.1185233E-02;  0.0000000E+00;  2.6059437E-01;  9.0783783E+02;
  9.6000248E-01;  9.9999998E-03; -2.6000655E-01;2519;  6.4845295E-03;  0.0000000E+00; -1.5781745E-02;  1.0024299E+03;  4.0101758E-01;  2.0054525E+03;3;  1.0670975E+01;  0.0000000E+00; -2.3067278E+01;0;  2.1579754E-01;  9.9999072E+03;  0.0000000E+00;  1.5314649E-04;  1.0000000E+04;  0.0000000E+00;  9.9978213E+03;  9.5784329E-03;  0.0000000E+00;  2.0621911E-01;  7.0804285E+02;
  9.6000248E-01;  9.9999998E-03; -2.4000339E-01;2520;  6.3785543E-03;  0.0000000E+00; -8.6822063E-03;  1.0024509E+03;  4.0101752E-01;  2.0227679E+03;3;  1.0291357E+01;  0.0000000E+00; -1.3676950E+01;0;  1.7663603E-01;  9.9999238E+03;  0.0000000E+00;  5.1669649E-05;  1.0000000E+04;  0.0000000E+00;  9.9982217E+03;  7.8185163E-03;  0.0000000E+00;  1.6881751E-01;  5.7660077E+02;
  9.6000242E-01;  9.9999998E-03; -2.2000158E-01;2521;  6.1819614E-03;  0.0000000E+00; -4.4202381E-03;  1.0024691E+03;  4.0101755E-01;  2.0377223E+03;3;  9.7779903E+00;  0.0000000E+00; -7.8283496E+00;0;  1.4278957E-01;  9.9999404E+03;  0.0000000E+00;  4.5980737E-06;  1.0000000E+04;  0.0000000E+00;  9.9985684E+03;  6.0506496E-03;  0.0000000E+00;  1.3673893E-01;  4.6248508E+02;
  9.6000236E-01;  9.9999998E-03; -2.0000072E-01;2522;  5.9459265E-03;  0.0000000E+00; -2.3256328E-03;  1.0024887E+03;  4.0101758E-01;  2.0539558E+03;3;  9.2397175E+00;  0.0000000E+00; -4.7943444E+00;0;  1.0624009E-01;  9.9999551E+03;  0.0000000E+00; -1.1798698E-08;  1.0000000E+04;  0.0000000E+00;  9.9989453E+03;  4.4574616E-03;  0.0000000E+00;  1.0178263E-01;  3.3870746E+02;
  9.8000258E-01;  9.9999998E-03; -3.0001149E-01;2548;  6.7024636E-03;  0.0000000E+00; -2.5777334E-02;  1.0021202E+03;  4.0090272E-01;  1.7474200E+03;3;  1.1586897E+01;  0.0000000E+00; -3.5415524E+01;0;  2.5214675E-01;  9.9998965E+03;  0.0000000E+00; -3.5134365E-06;  1.0000000E+04;  0.0000000E+00;  9.9973809E+03;  1.0667912E-02;  0.0000000E+00;  2.4147883E-01;  8.4605072E+02;
  9.8000252E-01;  9.9999998E-03; -2.8000927E-01;2549;  6.6403933E-03;  0.0000000E+00; -2.1408722E-02;  1.0021285E+03;  4.0090272E-01;  1.7542977E+03;3;  1.1187584E+01;  0.0000000E+00; -2.9774368E+01;0;  2.4075772E-01;  9.9999141E+03;  0.0000000E+00;  8.9777244E-04;  1.0000000E+04;  0.0000000E+00;  9.9975264E+03;  8.7562175E-03;  0.0000000E+00;  2.3200150E-01;  7.9297150E+02;
  9.8000252E-01;  9.9999998E-03; -2.6000583E-01;2550;  6.5377620E-03;  0.0000000E+00; -1.4088615E-02;  1.0021556E+03;  4.0090263E-01;  1.7766992E+03;3;  1.0769654E+01;  0.0000000E+00; -2.0588638E+01;0;  1.9134921E-01;  9.9999365E+03;  0.0000000E+00;  8.4358105E-04;  1.0000000E+04;  0.0000000E+00;  9.9980459E+03;  6.5802336E-03;  0.0000000E+00;  1.8476897E-01;  6.2268134E+02;
  9.8000246E-01;  9.9999998E-03; -2.4000303E-01;2551;  6.3599944E-03;  0.0000000E+00; -7.7449833E-03;  1.0021744E+03;  4.0090263E-01;  1.7921249E+03;3;  1.0265606E+01;  0.0000000E+00; -1.2188199E+01;0;  1.5620604E-01;  9.9999600E+03;  0.0000000E+00;  3.8766381E-04;  1.0000000E+04;  0.0000000E+00;  9.9983994E+03;  4.2635794E-03;  0.0000000E+00;  1.5194246E-01;  5.0941525E+02;
  9.8000234E-01;  9.9999998E-03; -2.2000141E-01;2552;  6.0866526E-03;  0.0000000E+00; -3.9474536E-03;  1.0021909E+03;  4.0090266E-01;  1.8057820E+03;3;  9.6234322E+00;  0.0000000E+00; -6.9851737E+00;0;  1.2536536E-01;  9.9999805E+03;  0.0000000E+00;  9.2744893E-05;  1.0000000E+04;  0.0000000E+00;  9.9987090E+03;  1.9958338E-03;  0.0000000E+00;  1.2336953E-01;  4.0968613E+02;
  9.8000228E-01;  9.9999998E-03; -2.0000064E-01;2553;  5.8077727E-03;  0.0000000E+00; -2.1001322E-03;  1.0022089E+03;  4.0090266E-01;  1.8205199E+03;3;  9.0253611E+00;  0.0000000E+00; -4.3199167E+00;0;  9.1968626E-02;  1.0000000E+04;  0.0000000E+00;  7.7843479E-06;  1.0000000E+04;  0.0000000E+00;  9.9990459E+03; -9.9499431E-08;  0.0000000E+00;  9.1968723E-02;  3.0063773E+02;
  1.0000027E+00;  9.9999998E-03; -3.0001014E-01;2579;  7.0364764E-03;  0.0000000E+00; -2.2829263E-02;  1.0018620E+03;  4.0079248E-01;  1.5319546E+03;3;  1.2180182E+01;  0.0000000E+00; -3.1513765E+01;0;  2.2070253E-01;  9.9999014E+03;  0.0000000E+00; -1.9717874E-04;  1.0000000E+04;  0.0000000E+00;  9.9977178E+03;  1.0089090E-02;  0.0000000E+00;  2.1061344E-01;  7.1867676E+02;
  1.0000026E+00;  9.9999998E-03; -2.8000820E-01;2580;  6.8035200E-03;  0.0000000E+00; -1.8967928E-02;  1.0018682E+03;  4.0079254E-01;  1.5370546E+03;3;  1.1476692E+01;  0.0000000E+00; -2.6431686E+01;0;  2.1207894E-01;  9.9999268E+03;  0.0000000E+00;  2.3211015E-03;  1.0000000E+04;  0.0000000E+00;  9.9978193E+03;  7.6107993E-03;  0.0000000E+00;  2.0446815E-01;  6.8162476E+02;
  1.0000025E+00;  9.9999998E-03; -2.6000518E-01;2581;  6.5609594E-03;  0.0000000E+00; -1.2510944E-02;  1.0018918E+03;  4.0079251E-01;  1.5563756E+03;3;  1.0820120E+01;  0.0000000E+00; -1.8272327E+01;0;  1.6919658E-01;  9.9999531E+03;  0.0000000E+00;  2.3930161E-03;  1.0000000E+04;  0.0000000E+00;  9.9982627E+03;  4.8793769E-03;  0.0000000E+00;  1.6431721E-01;  5.4029077E+02;
  1.0000024E+00;  9.9999998E-03; -2.4000271E-01;2582;  6.2882057E-03;  0.0000000E+00; -6.8898308E-03;  1.0019085E+03;  4.0079248E-01;  1.5702045E+03;3;  1.0164020E+01;  0.0000000E+00; -1.0818757E+01;0;  1.3782690E-01;  9.9999814E+03;  0.0000000E+00;  1.2188159E-03;  1.0000000E+04;  0.0000000E+00;  9.9985693E+03;  2.0572578E-03;  0.0000000E+00;  1.3576965E-01;  4.4411844E+02;
  1.0000023E+00;  9.9999998E-03; -2.2000127E-01;2583;  5.9170160E-03;  0.0000000E+00; -3.5193253E-03;  1.0019235E+03;  4.0079248E-01;  1.5825620E+03;3;  9.3704977E+00;  0.0000000E+00; -6.2086277E+00;0;  1.0992975E-01;  1.0000008E+04;  0.0000000E+00;  3.4976864E-04;  1.0000000E+04;  0.0000000E+00;  9.9988418E+03; -6.5131002E-04;  0.0000000E+00;  1.1058106E-01;  3.5838843E+02;
  1.0000021E+00;  9.9999998E-03; -2.0000058E-01;2584;  5.5907168E-03;  0.0000000E+00; -1.8901639E-03;  1.0019398E+03;  4.0079245E-01;  1.5959004E+03;3;  8.7078648E+00;  0.0000000E+00; -3.8685944E+00;0;  7.9662293E-02;  1.0000031E+04;  0.0000000E+00;  4.6413967E-05;  1.0000000E+04;  0.0000000E+00;  9.9991426E+03; -3.0144288E-03;  0.0000000E+00;  8.2676724E-02;  2.6394086E+02;
  1.0200030E+00;  9.9999998E-03; -3.0000889E-01;2610;  7.5811874E-03;  0.0000000E+00; -2.0051034E-02;  1.0016221E+03;  4.0069005E-01;  1.3313217E+03;3;  1.3123378E+01;  0.0000000E+00; -2.7866457E+01;0;  1.9104065E-01;  9.9998984E+03;  0.0000000E+00; -8.0065435E-04;  1.0000000E+04;  0.0000000E+00;  9.9980449E+03;  1.0343296E-02;  0.0000000E+00;  1.8069735E-01;  5.9576447E+02;
  1.0200027E+00;  9.9999998E-03; -2.8000724E-01;2611;  7.1077105E-03;  0.0000000E+00; -1.6730992E-02;  1.0016262E+03;  4.0069008E-01;  1.3346482E+03;3;  1.2005206E+01;  0.0000000E+00; -2.3379215E+01;0;  1.8604365E-01;  9.9999307E+03;  0.0000000E+00;  4.0526739E-03;  1.0000000E+04;  0.0000000E+00;  9.9980938E+03;  7.2067413E-03;  0.0000000E+00;  1.7883691E-01;  5.7714362E+02;
  1.0200025E+00;  9.9999998E-03; -2.6000461E-01;2612;  6.6391611E-03;  0.0000000E+00; -1.1131914E-02;  1.0016461E+03;  4.0069011E-01;  1.3510854E+03;3;  1.0962993E+01;  0.0000000E+00; -1.6242216E+01;0;  1.4959447E-01;  9.9999609E+03;  0.0000000E+00;  4.6031023E-03;  1.0000000E+04;  0.0000000E+00;  9.9984609E+03;  3.9701629E-03;  0.0000000E+00;  1.4562431E-01;  4.6371414E+02;
  1.0200024E+00;  9.9999998E-03; -2.4000244E-01;2613;  6.2101125E-03;  0.0000000E+00; -6.1810706E-03;  1.0016611E+03;  4.0069008E-01;  1.3634135E+03;3;  1.0056618E+01;  0.0000000E+00; -9.6653128E+00;0;  1.2163671E-01;  9.9999932E+03;  0.0000000E+00;  2.4301196E-03;  1.0000000E+04;  0.0000000E+00;  9.9987285E+03;  7.9569494E-04;  0.0000000E+00;  1.2084102E-01;  3.8269440E+02;
  1.0200022E+00;  9.9999998E-03; -2.2000115E-01;2614;  5.7114358E-03;  0.0000000E+00; -3.1778810E-03;  1.0016745E+03;  4.0069005E-01;  1.3743718E+03;3;  9.0697260E+00;  0.0000000E+00; -5.5639901E+00;0;  9.6598752E-02;  1.0000023E+04;  0.0000000E+00;  6.8573555E-04;  1.0000000E+04;  0.0000000E+00;  9.9989658E+03; -2.1787421E-03;  0.0000000E+00;  9.8777495E-02;  3.1001852E+02;
  1.0200021E+00;  9.9999998E-03; -2.0000054E-01;2615;  5.3354166E-03;  0.0000000E+00; -1.7276392E-03;  1.0016891E+03;  4.0069005E-01;  1.3863085E+03;3;  8.3409348E+00;  0.0000000E+00; -3.4915872E+00;0;  6.9463573E-02;  1.0000051E+04;  0.0000000E+00;  6.7678629E-05;  1.0000000E+04;  0.0000000E+00;  9.9992305E+03; -4.7649089E-03;  0.0000000E+00;  7.4228480E-02;  2.2967560E+02;
  1.0400032E+00;  9.9999998E-03; -3.0000773E-01;2641;  8.3932951E-03;  0.0000000E+00; -1.7501447E-02;  1.0014057E+03;  4.0059745E-01;  1.1500338E+03;3;  1.4528751E+01;  0.0000000E+00; -2.4562943E+01;0;  1.6340153E-01;  9.9998887E+03;  0.0000000E+00; -1.5218502E-03;  1.0000000E+04;  0.0000000E+00;  9.9983555E+03;  1.1243617E-02;  0.0000000E+00;  1.5215792E-01;  4.7988239E+02;
  1.0400029E+00;  9.9999998E-03; -2.8000638E-01;2642;  7.5905947E-03;  0.0000000E+00; -1.4758673E-02;  1.0014070E+03;  4.0059742E-01;  1.1511066E+03;3;  1.2837989E+01;  0.0000000E+00; -2.0709591E+01;0;  1.6260271E-01;  9.9999316E+03;  0.0000000E+00;  4.8941132E-03;  1.0000000E+04;  0.0000000E+00;  9.9983428E+03;  7.0394767E-03;  0.0000000E+00;  1.5556324E-01;  4.8148795E+02;
  1.0400026E+00;  9.9999998E-03; -2.6000416E-01;2643;  6.8133222E-03;  0.0000000E+00; -1.0017564E-02;  1.0014237E+03;  4.0059742E-01;  1.1647605E+03;3;  1.1267809E+01;  0.0000000E+00; -1.4596714E+01;0;  1.3246322E-01;  9.9999678E+03;  0.0000000E+00;  6.4728740E-03;  1.0000000E+04;  0.0000000E+00;  9.9986357E+03;  3.2591601E-03;  0.0000000E+00;  1.2920405E-01;  3.9475598E+02;
  1.0400023E+00;  9.9999998E-03; -2.4000224E-01;2644;  6.1462624E-03;  0.0000000E+00; -5.6713154E-03;  1.0014370E+03;  4.0059748E-01;  1.1755859E+03;3;  9.9701309E+00;  0.0000000E+00; -8.8090086E+00;0;  1.0741927E-01;  1.0000002E+04;  0.0000000E+00;  3.4175622E-03;  1.0000000E+04;  0.0000000E+00;  9.9988682E+03; -6.8882975E-05;  0.0000000E+00;  1.0748815E-01;  3.2636768E+02;
  1.0400021E+00;  9.9999998E-03; -2.2000109E-01;2645;  5.5055479E-03;  0.0000000E+00; -2.9634333E-03;  1.0014490E+03;  4.0059745E-01;  1.1854362E+03;3;  8.7708549E+00;  0.0000000E+00; -5.1157069E+00;0;  8.5156567E-02;  1.0000032E+04;  0.0000000E+00;  7.1382930E-04;  1.0000000E+04;  0.0000000E+00;  9.9990771E+03; -3.0278300E-03;  0.0000000E+00;  8.8184394E-02;  2.6539218E+02;
  1.0400020E+00;  9.9999998E-03; -2.0000052E-01;2646;  5.0709331E-03;  0.0000000E+00; -1.6183965E-03;  1.0014618E+03;  4.0059745E-01;  1.1958716E+03;3;  7.9650373E+00;  0.0000000E+00; -3.1971257E+00;0;  6.1209358E-02;  1.0000059E+04;  0.0000000E+00; -1.3684141E-04;  1.0000000E+04;  0.0000000E+00;  9.9993066E+03; -5.5830684E-03;  0.0000000E+00;  6.6792428E-02;  1.9838173E+02;
  1.0600036E+00;  9.9999998E-03; -3.0000669E-01;2672;  9.4120568E-03;  0.0000000E+00; -1.5213046E-02;  1.0012153E+03;  4.0051588E-01;  9.8992682E+02;3;  1.6289953E+01;  0.0000000E+00; -2.1645666E+01;0;  1.3874133E-01;  9.9998672E+03;  0.0000000E+00; -6.9504249E-04;  1.0000000E+04;  0.0000000E+00;  9.9986484E+03;  1.3379914E-02;  0.0000000E+00;  1.2536141E-01;  3.7342963E+02;
  1.0600032E+00;  9.9999998E-03; -2.8000566E-01;2673;  8.2122181E-03;  0.0000000E+00; -1.3088046E-02;  1.0012143E+03;  4.0051588E-01;  9.8915015E+02;3;  1.3911181E+01;  0.0000000E+00; -1.8485477E+01;0;  1.4184710E-01;  9.9999297E+03;  0.0000000E+00;  3.4031940E-03;  1.0000000E+04;  0.0000000E+00;  9.9985645E+03;  7.0552034E-03;  0.0000000E+00;  1.3479190E-01;  3.9531863E+02;
  1.0600027E+00;  9.9999998E-03; -2.6000383E-01;2674;  7.0831752E-03;  0.0000000E+00; -9.2049204E-03;  1.0012276E+03;  4.0051585E-01;  1.0000264E+03;3;  1.1737392E+01;  0.0000000E+00; -1.3395832E+01;0;  1.1773358E-01;  9.9999756E+03;  0.0000000E+00;  6.3985446E-03;  1.0000000E+04;  0.0000000E+00;  9.9987842E+03;  2.4330204E-03;  0.0000000E+00;  1.1530056E-01;  3.3385886E+02;
  1.0600023E+00;  9.9999998E-03; -2.4000216E-01;2675;  6.1160829E-03;  0.0000000E+00; -5.3958562E-03;  1.0012397E+03;  4.0051588E-01;  1.0099316E+03;3;  9.9370451E+00;  0.0000000E+00; -8.3043385E+00;0;  9.4938084E-02;  1.0000010E+04;  0.0000000E+00;  3.3102741E-03;  1.0000000E+04;  0.0000000E+00;  9.9989922E+03; -9.4317592E-04;  0.0000000E+00;  9.5881261E-02;  2.7568280E+02;
  1.0600021E+00;  9.9999998E-03; -2.2000107E-01;2676;  5.3260042E-03;  0.0000000E+00; -2.8887982E-03;  1.0012502E+03;  4.0051588E-01;  1.0184772E+03;3;  8.5155745E+00;  0.0000000E+00; -4.8792758E+00;0;  7.5268634E-02;  1.0000036E+04;  0.0000000E+00; -8.3543106E-05;  1.0000000E+04;  0.0000000E+00;  9.9991768E+03; -3.5712016E-03;  0.0000000E+00;  7.8839839E-02;  2.2476924E+02;
  1.0600019E+00;  9.9999998E-03; -2.0000052E-01;2677;  4.8149698E-03;  0.0000000E+00; -1.5761685E-03;  1.0012614E+03;  4.0051588E-01;  1.0275083E+03;3;  7.6059155E+00;  0.0000000E+00; -3.0063066E+00;0;  5.4609343E-02;  1.0000061E+04;  0.0000000E+00; -9.0296369E-04;  1.0000000E+04;  0.0000000E+00;  9.9993750E+03; -5.7753385E-03;  0.0000000E+00;  6.0384683E-02;  1.7013237E+02;
  1.0800040E+00;  9.9999998E-03; -3.0000579E-01;2703;  1.0347026E-02;  0.0000000E+00; -1.3194122E-02;  1.0010515E+03;  4.0044582E-01;  8.5172241E+02;3;  1.7906473E+01;  0.0000000E+00; -1.9101854E+01;0;  1.1805660E-01;  9.9998262E+03;  0.0000000E+00;  5.1190346E-03;  1.0000000E+04;  0.0000000E+00;  9.9989160E+03;  1.7326880E-02;  0.0000000E+00;  1.0072971E-01;  2.7944904E+02;
  1.0800034E+00;  9.9999998E-03; -2.8000507E-01;2704;  8.8084918E-03;  0.0000000E+00; -1.1715924E-02;  1.0010487E+03;  4.0044585E-01;  8.4940521E+02;3;  1.4952545E+01;  0.0000000E+00; -1.6706970E+01;0;  1.2386622E-01;  9.9999229E+03;  0.0000000E+00; -1.7795633E-04;  1.0000000E+04;  0.0000000E+00;  9.9987607E+03;  7.6176454E-03;  0.0000000E+00;  1.1624858E-01;  3.1848669E+02;
  1.0800028E+00;  9.9999998E-03; -2.6000363E-01;2705;  7.3803086E-03;  0.0000000E+00; -8.6772637E-03;  1.0010588E+03;  4.0044582E-01;  8.5761267E+02;3;  1.2262753E+01;  0.0000000E+00; -1.2626731E+01;0;  1.0541666E-01;  9.9999814E+03;  0.0000000E+00;  3.1019612E-03;  1.0000000E+04;  0.0000000E+00;  9.9989063E+03;  1.6543494E-03;  0.0000000E+00;  1.0376231E-01;  2.8032797E+02;
  1.0800023E+00;  9.9999998E-03; -2.4000216E-01;2706;  6.1388817E-03;  0.0000000E+00; -5.3539579E-03;  1.0010702E+03;  4.0044579E-01;  8.6678564E+02;3;  9.9930191E+00;  0.0000000E+00; -8.1530104E+00;0;  8.4232241E-02;  1.0000018E+04;  0.0000000E+00;  1.3459248E-03;  1.0000000E+04;  0.0000000E+00;  9.9990967E+03; -1.8496064E-03;  0.0000000E+00;  8.6081848E-02;  2.3086772E+02;
  1.0800020E+00;  9.9999998E-03; -2.2000113E-01;2707;  5.1926337E-03;  0.0000000E+00; -2.9661704E-03;  1.0010796E+03;  4.0044579E-01;  8.7441370E+02;3;  8.3346338E+00;  0.0000000E+00; -4.8728633E+00;0;  6.6764168E-02;  1.0000040E+04;  0.0000000E+00; -2.0723385E-03;  1.0000000E+04;  0.0000000E+00;  9.9992617E+03; -3.9396989E-03;  0.0000000E+00;  7.0703864E-02;  1.8831352E+02;
  1.0800018E+00;  9.9999998E-03; -2.0000055E-01;2708;  4.5873630E-03;  0.0000000E+00; -1.6120669E-03;  1.0010889E+03;  4.0044582E-01;  8.8194519E+02;3;  7.2920246E+00;  0.0000000E+00; -2.9394255E+00;0;  4.9394980E-02;  1.0000056E+04;  0.0000000E+00; -2.5600842E-03;  1.0000000E+04;  0.0000000E+00;  9.9994316E+03; -5.5029802E-03;  0.0000000E+00;  5.4897960E-02;  1.4477686E+02;
  1.1000035E+00;  9.9999998E-03; -2.8000456E-01;2734;  9.1238609E-03;  0.0000000E+00; -1.0570316E-02;  1.0009105E+03;  4.0038714E-01;  7.3195367E+02;3;  1.5533919E+01;  0.0000000E+00; -1.5285731E+01;0;  1.0754349E-01;  9.9999111E+03;  0.0000000E+00; -2.0174719E-03;  1.0000000E+04;  0.0000000E+00;  9.9989473E+03;  8.6451396E-03;  0.0000000E+00;  9.8898351E-02;  2.4909303E+02;
  1.1000029E+00;  9.9999998E-03; -2.6000351E-01;2735;  7.6035121E-03;  0.0000000E+00; -8.3361138E-03;  1.0009175E+03;  4.0038708E-01;  7.3751196E+02;3;  1.2677907E+01;  0.0000000E+00; -1.2161008E+01;0;  9.5149562E-02;  9.9999824E+03;  0.0000000E+00; -2.7966376E-03;  1.0000000E+04;  0.0000000E+00;  9.9990127E+03;  1.3826947E-03;  0.0000000E+00;  9.3766868E-02;  2.3285876E+02;
  1.1000024E+00;  9.9999998E-03; -2.4000224E-01;2736;  6.2144664E-03;  0.0000000E+00; -5.5047651E-03;  1.0009279E+03;  4.0038708E-01;  7.4594531E+02;3;  1.0149542E+01;  0.0000000E+00; -8.3030643E+00;0;  7.5699933E-02;  1.0000021E+04;  0.0000000E+00; -2.7623829E-03;  1.0000000E+04;  0.0000000E+00;  9.9991836E+03; -2.4104004E-03;  0.0000000E+00;  7.8110330E-02;  1.9237888E+02;
  1.1000019E+00;  9.9999998E-03; -2.2000124E-01;2737;  5.1258691E-03;  0.0000000E+00; -3.1895612E-03;  1.0009364E+03;  4.0038714E-01;  7.5274939E+02;3;  8.2630911E+00;  0.0000000E+00; -5.0894675E+00;0;  5.9743673E-02;  1.0000038E+04;  0.0000000E+00; -5.2415384E-03;  1.0000000E+04;  0.0000000E+00;  9.9993369E+03; -4.0052887E-03;  0.0000000E+00;  6.3748963E-02;  1.5644586E+02;
  1.1000017E+00;  9.9999998E-03; -2.0000063E-01;2738;  4.4152676E-03;  0.0000000E+00; -1.7473649E-03;  1.0009442E+03;  4.0038714E-01;  7.5907428E+02;3;  7.0595956E+00;  0.0000000E+00; -3.0292962E+00;0;  4.5398392E-02;  1.0000049E+04;  0.0000000E+00; -5.2331579E-03;  1.0000000E+04;  0.0000000E+00;  9.9994814E+03; -4.7865184E-03;  0.0000000E+00;  5.0184909E-02;  1.2229900E+02;
  1.1200036E+00;  9.9999998E-03; -2.8000411E-01;2763;  9.1673192E-03;  0.0000000E+00; -9.5242439E-03;  1.0007985E+03;  4.0033889E-01;  6.3554602E+02;3;  1.5658961E+01;  0.0000000E+00; -1.4037675E+01;0;  9.1786429E-02;  9.9998936E+03;  0.0000000E+00;  2.7828170E-03;  1.0000000E+04;  0.0000000E+00;  9.9991309E+03;  1.0192410E-02;  0.0000000E+00;  8.1594020E-02;  1.8529922E+02;
  1.1200030E+00;  9.9999998E-03; -2.6000339E-01;2764;  7.7321609E-03;  0.0000000E+00; -8.0393832E-03;  1.0008017E+03;  4.0033889E-01;  6.3810815E+02;3;  1.2948203E+01;  0.0000000E+00; -1.1812529E+01;0;  8.6152583E-02;  9.9999736E+03;  0.0000000E+00; -7.8055277E-03;  1.0000000E+04;  0.0000000E+00;  9.9991162E+03;  2.1704144E-03;  0.0000000E+00;  8.3982170E-02;  1.8917372E+02;
  1.1200025E+00;  9.9999998E-03; -2.4000236E-01;2765;  6.3396934E-03;  0.0000000E+00; -5.7564531E-03;  1.0008105E+03;  4.0033889E-01;  6.4512994E+02;3;  1.0405250E+01;  0.0000000E+00; -8.6289577E+00;0;  6.9733940E-02;  1.0000016E+04;  0.0000000E+00; -8.3804186E-03;  1.0000000E+04;  0.0000000E+00;  9.9992520E+03; -2.0369245E-03;  0.0000000E+00;  7.1770862E-02;  1.6040863E+02;
  1.1200020E+00;  9.9999998E-03; -2.2000141E-01;2766;  5.1541119E-03;  0.0000000E+00; -3.5470538E-03;  1.0008187E+03;  4.0033889E-01;  6.5158234E+02;3;  8.3440542E+00;  0.0000000E+00; -5.5193954E+00;0;  5.4597627E-02;  1.0000032E+04;  0.0000000E+00; -9.2389155E-03;  1.0000000E+04;  0.0000000E+00;  9.9993965E+03; -3.4798591E-03;  0.0000000E+00;  5.8077488E-02;  1.2980978E+02;
  1.1200017E+00;  9.9999998E-03; -2.0000075E-01;2767;  4.3220338E-03;  0.0000000E+00; -1.9904335E-03;  1.0008251E+03;  4.0033892E-01;  6.5670630E+02;3;  6.9424958E+00;  0.0000000E+00; -3.2859066E+00;0;  4.2519357E-02;  1.0000034E+04;  0.0000000E+00; -8.7106125E-03;  1.0000000E+04;  0.0000000E+00;  9.9995225E+03; -3.6104789E-03;  0.0000000E+00;  4.6129838E-02;  1.0287669E+02;
  1.1400031E+00;  9.9999998E-03; -2.6000327E-01;2792;  7.7800215E-03;  0.0000000E+00; -7.6938001E-03;  1.0007095E+03;  4.0030029E-01;  5.5743457E+02;3;  1.3092942E+01;  0.0000000E+00; -1.1450202E+01;0;  7.7975988E-02;  9.9999512E+03;  0.0000000E+00; -6.3175731E-03;  1.0000000E+04;  0.0000000E+00;  9.9992256E+03;  4.4218116E-03;  0.0000000E+00;  7.3554181E-02;  1.4675792E+02;
  1.1400025E+00;  9.9999998E-03; -2.4000248E-01;2793;  6.5189945E-03;  0.0000000E+00; -5.9892614E-03;  1.0007158E+03;  4.0030023E-01;  5.6249298E+02;3;  1.0746458E+01;  0.0000000E+00; -8.9774036E+00;0;  6.6250697E-02;  9.9999961E+03;  0.0000000E+00; -1.3217429E-02;  1.0000000E+04;  0.0000000E+00;  9.9993086E+03; -9.4133618E-05;  0.0000000E+00;  6.6344827E-02;  1.3304373E+02;
  1.1400020E+00;  9.9999998E-03; -2.2000162E-01;2794;  5.3160139E-03;  0.0000000E+00; -4.0045381E-03;  1.0007234E+03;  4.0030026E-01;  5.6839447E+02;3;  8.6353035E+00;  0.0000000E+00; -6.1322703E+00;0;  5.1931385E-02;  1.0000015E+04;  0.0000000E+00; -1.3574943E-02;  1.0000000E+04;  0.0000000E+00;  9.9994414E+03; -1.9287660E-03;  0.0000000E+00;  5.3860150E-02;  1.0856139E+02;
  1.1400017E+00;  9.9999998E-03; -2.0000093E-01;2795;  4.3563503E-03;  0.0000000E+00; -2.3681025E-03;  1.0007293E+03;  4.0030023E-01;  5.7307813E+02;3;  7.0146871E+00;  0.0000000E+00; -3.7574925E+00;0;  4.0887900E-02;  1.0000015E+04;  0.0000000E+00; -1.2484710E-02;  1.0000000E+04;  0.0000000E+00;  9.9995586E+03; -1.9149189E-03;  0.0000000E+00;  4.2802818E-02;  8.6683212E+01;
  1.1600031E+00;  9.9999998E-03; -2.6000309E-01;2819;  7.8259325E-03;  0.0000000E+00; -7.2532371E-03;  1.0006372E+03;  4.0026996E-01;  4.9243802E+02;3;  1.3235870E+01;  0.0000000E+00; -1.0986717E+01;0;  7.1076527E-02;  9.9999063E+03;  0.0000000E+00;  6.4306716E-03;  1.0000000E+04;  0.0000000E+00;  9.9993428E+03;  8.5705323E-03;  0.0000000E+00;  6.2505998E-02;  1.0822925E+02;
  1.1600027E+00;  9.9999998E-03; -2.4000254E-01;2820;  6.7555560E-03;  0.0000000E+00; -6.0959840E-03;  1.0006409E+03;  4.0026996E-01;  4.9529431E+02;3;  1.1196893E+01;  0.0000000E+00; -9.2025919E+00;0;  6.4561717E-02;  9.9999551E+03;  0.0000000E+00; -1.2560173E-02;  1.0000000E+04;  0.0000000E+00;  9.9993672E+03;  3.8279882E-03;  0.0000000E+00;  6.0733728E-02;  1.0586749E+02;
  1.1600022E+00;  9.9999998E-03; -2.2000183E-01;2821;  5.6302552E-03;  0.0000000E+00; -4.4695190E-03;  1.0006475E+03;  4.0026993E-01;  5.0036166E+02;3;  9.1677628E+00;  0.0000000E+00; -6.8094125E+00;0;  5.2119106E-02;  9.9999814E+03;  0.0000000E+00; -1.7060507E-02;  1.0000000E+04;  0.0000000E+00;  9.9994746E+03;  1.2302556E-03;  0.0000000E+00;  5.0888851E-02;  9.1013344E+01;
  1.1600018E+00;  9.9999998E-03; -2.0000115E-01;2822;  4.5899902E-03;  0.0000000E+00; -2.8678975E-03;  1.0006534E+03;  4.0026993E-01;  5.0496844E+02;3;  7.3869758E+00;  0.0000000E+00; -4.4523187E+00;0;  4.1009486E-02;  9.9999893E+03;  0.0000000E+00; -1.6003363E-02;  1.0000000E+04;  0.0000000E+00;  9.9995850E+03;  5.9162144E-04;  0.0000000E+00;  4.0417865E-02;  7.3395096E+01;
  1.1800028E+00;  9.9999998E-03; -2.4000254E-01;2846;  6.9782636E-03;  0.0000000E+00; -6.0633901E-03;  1.0005828E+03;  4.0024659E-01;  4.4106317E+02;3;  1.1637804E+01;  0.0000000E+00; -9.2768030E+00;0;  6.4099506E-02;  9.9998984E+03;  0.0000000E+00; -1.1978351E-04;  1.0000000E+04;  0.0000000E+00;  9.9994307E+03;  9.3429377E-03;  0.0000000E+00;  5.4756567E-02;  7.9234024E+01;
  1.1800023E+00;  9.9999998E-03; -2.2000200E-01;2847;  6.0428535E-03;  0.0000000E+00; -4.8357164E-03;  1.0005880E+03;  4.0024662E-01;  4.4494260E+02;3;  9.8798075E+00;  0.0000000E+00; -7.3945079E+00;0;  5.4755237E-02;  9.9999297E+03;  0.0000000E+00; -1.5785636E-02;  1.0000000E+04;  0.0000000E+00;  9.9995010E+03;  6.3446085E-03;  0.0000000E+00;  4.8410628E-02;  7.3198616E+01;
  1.1800020E+00;  9.9999998E-03; -2.0000137E-01;2848;  5.0543225E-03;  0.0000000E+00; -3.3967202E-03;  1.0005938E+03;  4.0024659E-01;  4.4936340E+02;3;  8.1290998E+00;  0.0000000E+00; -5.2375708E+00;0;  4.3576665E-02;  9.9999463E+03;  0.0000000E+00; -1.8433765E-02;  1.0000000E+04;  0.0000000E+00;  9.9995996E+03;  4.6399352E-03;  0.0000000E+00;  3.8936730E-02;  6.1684490E+01;
  1.2000026E+00;  9.9999998E-03; -2.2000210E-01;2871;  6.4312923E-03;  0.0000000E+00; -5.0400314E-03;  1.0005423E+03;  4.0022910E-01;  3.9980807E+02;3;  1.0590878E+01;  0.0000000E+00; -7.7915001E+00;0;  5.8462583E-02;  9.9998643E+03;  0.0000000E+00; -2.4848736E-03;  1.0000000E+04;  0.0000000E+00;  9.9995273E+03;  1.2715054E-02;  0.0000000E+00;  4.5747530E-02;  5.4386482E+01;
  1.2000023E+00;  9.9999998E-03; -2.0000157E-01;2872;  5.6840959E-03;  0.0000000E+00; -3.8314885E-03;  1.0005475E+03;  4.0022910E-01;  4.0367538E+02;3;  9.1886473E+00;  0.0000000E+00; -5.9215026E+00;0;  4.8721477E-02;  9.9998828E+03;  0.0000000E+00; -1.6342383E-02;  1.0000000E+04;  0.0000000E+00;  9.9996133E+03;  1.0926203E-02;  0.0000000E+00;  3.7795275E-02;  4.8601795E+01;
  1.2200027E+00;  9.9999998E-03; -2.2000213E-01;2894;  6.7155822E-03;  0.0000000E+00; -5.0984379E-03;  1.0005080E+03;  4.0021619E-01;  3.6279535E+02;3;  1.1143819E+01;  0.0000000E+00; -7.9973044E+00;0;  6.2342487E-02;  9.9997988E+03;  0.0000000E+00;  2.7546145E-02;  1.0000000E+04;  0.0000000E+00;  9.9995498E+03;  1.8948400E-02;  0.0000000E+00;  4.3394089E-02;  5.0082394E+01;
  1.2200025E+00;  9.9999998E-03; -2.0000170E-01;2895;  6.2109358E-03;  0.0000000E+00; -4.1302936E-03;  1.0005123E+03;  4.0021622E-01;  3.6586063E+02;3;  1.0127570E+01;  0.0000000E+00; -6.4546590E+00;0;  5.4495748E-02;  9.9998135E+03;  0.0000000E+00; -2.4494978E-03;  1.0000000E+04;  0.0000000E+00;  9.9996240E+03;  1.7821871E-02;  0.0000000E+00;  3.6673877E-02;  3.4553596E+01;
 -4.6160914E-12;  9.9999998E-03; -1.8000001E-01;1036; -3.2883303E-08;  0.0000000E+00; -2.8067244E-09;  1.0000000E+03;  4.0000001E-01;  0.0000000E+00;3; -1.2055614E-04;  0.0000000E+00; -1.0414288E-05;0; -6.1146983E-07;  1.0000000E+04;  0.0000000E+00; -1.2346847E-14;  1.0000000E+04;  0.0000000E+00;  1.0000000E+04; -6.2547525E-07;  0.0000000E+00;  1.4005449E-08;  7.7161530E-06;
 -4.8451247E-12;  9.9999998E-03; -1.6000000E-01;1037; -3.4534953E-08;  0.0000000E+00; -2.2646571E-09;  1.0000000E+03;  4.0000001E-01;  0.0000000E+00;3; -1.2664846E-04;  0.0000000E+00; -8.4176845E-06;0; -6.4337405E-07;  1.0000000E+04;  0.0000000E+00;  6.1295793E-15;  1.0000000E+04;  0.0000000E+00;  1.0000000E+04; -6.5613813E-07;  0.0000000E+00;  1.2764058E-08;  7.1086697E-06;
 -5.0247454E-12;  9.9999998E-03; -1.4000000E-01;1038; -3.5836536E-08;  0.0000000E+00; -1.7901636E-09;  1.0000000E+03;  4.0000001E-01;  0.0000000E+00;3; -1.3146148E-04;  0.0000000E+00; -6.6657835E-06;0; -6.6888464E-07;  1.0000000E+04;  0.0000000E+00;  3.7998838E-15;  1.0000000E+04;  0.0000000E+00;  1.0000000E+04; -6.7995967E-07;  0.0000000E+00;  1.1075012E-08;  6.3624225E-06;
 -5.1633073E-12;  9.9999998E-03; -1.2000000E-01;1039; -3.6845577E-08;  0.0000000E+00; -1.3796759E-09;  1.0000000E+03;  4.0000001E-01;  0.0000000E+00;3; -1.3520195E-04;  0.0000000E+00; -5.1459001E-06;0; -6.8884856E-07;  1.0000000E+04;  0.0000000E+00;  1.5508981E-16;  1.0000000E+04;  0.0000000E+00;  1.0000000E+04; -6.9815388E-07;  0.0000000E+00;  9.3052988E-09;  5.6226691E-06;
 -5.2679384E-12;  9.9999998E-03; -1.0000000E-01;1040; -3.7611123E-08;  0.0000000E+00; -1.0371782E-09;  1.0000000E+03;  4.0000001E-01;  0.0000000E+00;3; -1.3804639E-04;  0.0000000E+00; -3.8744515E-06;0; -7.0413239E-07;  1.0000000E+04;  0.0000000E+00; -3.7479561E-16;  1.0000000E+04;  0.0000000E+00;  1.0000000E+04; -7.1177084E-07;  0.0000000E+00;  7.6384312E-09;  4.9599576E-06;
 -5.3450421E-12;  9.9999998E-03; -7.9999998E-02;1041; -3.8177710E-08;  0.0000000E+00; -7.5333628E-10;  1.0000000E+03;  4.0000001E-01;  0.0000000E+00;3; -1.4015607E-04;  0.0000000E+00; -2.8179472E-06;0; -7.1552188E-07;  1.0000000E+04;  0.0000000E+00; -6.1019862E-16;  1.0000000E+04;  0.0000000E+00;  1.0000000E+04; -7.2170712E-07;  0.0000000E+00;  6.1852568E-09;  4.4098633E-06;
 -5.3997406E-12;  9.9999998E-03; -5.9999999E-02;1042; -3.8581156E-08;  0.0000000E+00; -5.1975496E-10;  1.0000000E+03;  4.0000001E-01;  0.0000000E+00;3; -1.4166102E-04;  0.0000000E+00; -1.9463776E-06;0; -7.2367988E-07;  1.0000000E+04;  0.0000000E+00;  1.7839346E-15;  1.0000000E+04;  0.0000000E+00;  1.0000000E+04; -7.2869329E-07;  0.0000000E+00;  5.0134470E-09;  3.9862853E-06;
 -5.4360093E-12;  9.9999998E-03; -3.9999999E-02;1043; -3.8849461E-08;  0.0000000E+00; -3.2471409E-10;  1.0000000E+03;  4.0000001E-01;  0.0000000E+00;3; -1.4266331E-04;  0.0000000E+00; -1.2170013E-06;0; -7.2912940E-07;  1.0000000E+04;  0.0000000E+00;  7.2111351E-16;  1.0000000E+04;  0.0000000E+00;  1.0000000E+04; -7.3328982E-07;  0.0000000E+00;  4.1604271E-09;  3.6899755E-06;
 -5.4566642E-12;  9.9999998E-03; -2.0000000E-02;1044; -3.9002572E-08;  0.0000000E+00; -1.5575778E-10;  1.0000000E+03;  4.0000001E-01;  0.0000000E+00;3; -1.4323583E-04;  0.0000000E+00; -5.8406744E-07;0; -7.3224800E-07;  1.0000000E+04;  0.0000000E+00; -4.1724390E-16;  1.0000000E+04;  0.0000000E+00;  1.0000000E+04; -7.3589206E-07;  0.0000000E+00;  3.6440426E-09;  3.5158307E-06;
  2.0000000E-02;  9.9999998E-03; -1.8000001E-01;1066; -6.1411647E-08;  0.0000000E+00; -5.2749130E-09;  1.0000000E+03;  4.0000001E-01;  0.0000000E+00;3; -2.2302860E-04;  0.0000000E+00; -1.9458010E-05;0; -1.1278346E-06;  1.0000000E+04;  0.0000000E+00; -6.7699272E-16;  1.0000000E+04;  0.0000000E+00;  1.0000000E+04; -1.1556739E-06;  0.0000000E+00;  2.7839349E-08;  1.7049004E-05;
  2.0000000E-02;  9.9999998E-03; -1.6000000E-01;1067; -6.4410997E-08;  0.0000000E+00; -4.2659676E-09;  1.0000000E+03;  4.0000001E-01;  0.0000000E+00;3; -2.3400053E-04;  0.0000000E+00; -1.5772854E-05;0; -1.1855328E-06;  1.0000000E+04;  0.0000000E+00;  1.6832428E-14;  1.0000000E+04;  0.0000000E+00;  1.0000000E+04; -1.2108663E-06;  0.0000000E+00;  2.5333485E-08;  1.5671561E-05;
  2.0000000E-02;  9.9999998E-03; -1.4000000E-01;1068; -6.6770269E-08;  0.0000000E+00; -3.3825998E-09;  1.0000000E+03;  4.0000001E-01;  0.0000000E+00;3; -2.4265885E-04;  0.0000000E+00; -1.2536309E-05;0; -1.2317203E-06;  1.0000000E+04;  0.0000000E+00;  4.0529938E-15;  1.0000000E+04;  0.0000000E+00;  1.0000000E+04; -1.2537016E-06;  0.0000000E+00;  2.1981370E-08;  1.3996878E-05;
  2.0000000E-02;  9.9999998E-03; -1.2000000E-01;1069; -6.8598595E-08;  0.0000000E+00; -2.6153451E-09;  1.0000000E+03;  4.0000001E-01;  0.0000000E+00;3; -2.4939052E-04;  0.0000000E+00; -9.7144475E-06;0; -1.2679166E-06;  1.0000000E+04;  0.0000000E+00;  6.3534189E-16;  1.0000000E+04;  0.0000000E+00;  1.0000000E+04; -1.2864170E-06;  0.0000000E+00;  1.8500534E-08;  1.2344894E-05;
  2.0000000E-02;  9.9999998E-03; -1.0000000E-01;1070; -6.9986051E-08;  0.0000000E+00; -1.9745143E-09;  1.0000000E+03;  4.0000001E-01;  0.0000000E+00;3; -2.5451474E-04;  0.0000000E+00; -7.3494407E-06;0; -1.2956889E-06;  1.0000000E+04;  0.0000000E+00; -4.7346055E-17;  1.0000000E+04;  0.0000000E+00;  1.0000000E+04; -1.3109221E-06;  0.0000000E+00;  1.5233288E-08;  1.0865254E-05;
  2.0000000E-02;  9.9999998E-03; -7.9999998E-02;1071; -7.1014483E-08;  0.0000000E+00; -1.4401070E-09;  1.0000000E+03;  4.0000001E-01;  0.0000000E+00;3; -2.5832388E-04;  0.0000000E+00; -5.3700619E-06;0; -1.3164407E-06;  1.0000000E+04;  0.0000000E+00; -1.1830022E-15;  1.0000000E+04;  0.0000000E+00;  1.0000000E+04; -1.3288329E-06;  0.0000000E+00;  1.2392154E-08;  9.6350559E-06;
  2.0000000E-02;  9.9999998E-03; -5.9999999E-02;1072; -7.1748268E-08;  0.0000000E+00; -9.9800002E-10;  1.0000000E+03;  4.0000001E-01;  0.0000000E+00;3; -2.6104841E-04;  0.0000000E+00; -3.7270986E-06;0; -1.3313509E-06;  1.0000000E+04;  0.0000000E+00;  1.4864759E-15;  1.0000000E+04;  0.0000000E+00;  1.0000000E+04; -1.3414566E-06;  0.0000000E+00;  1.0105726E-08;  8.6853188E-06;
  2.0000000E-02;  9.9999998E-03; -3.9999999E-02;1073; -7.2237505E-08;  0.0000000E+00; -6.2576155E-10;  1.0000000E+03;  4.0000001E-01;  0.0000000E+00;3; -2.6286853E-04;  0.0000000E+00; -2.3395837E-06;0; -1.3413409E-06;  1.0000000E+04;  0.0000000E+00;  2.2084648E-15;  1.0000000E+04;  0.0000000E+00;  1.0000000E+04; -1.3497845E-06;  0.0000000E+00;  8.4436262E-09;  8.0190111E-06;
  2.0000000E-02;  9.9999998E-03; -2.0000000E-02;1074; -7.2517203E-08;  0.0000000E+00; -3.0094352E-10;  1.0000000E+03;  4.0000001E-01;  0.0000000E+00;3; -2.6391051E-04;  0.0000000E+00; -1.1259464E-06;0; -1.3470718E-06;  1.0000000E+04;  0.0000000E+00;  3.5457379E-16;  1.0000000E+04;  0.0000000E+00;  1.0000000E+04; -1.3545100E-06;  0.0000000E+00;  7.4382283E-09;  7.6264355E-06;
  3.9999999E-02;  9.9999998E-03; -1.8000001E-01;1097; -1.1167802E-07;  0.0000000E+00; -9.5820063E-09;  1.0000000E+03;  4.0000001E-01;  0.0000000E+00;3; -4.0071242E-04;  0.0000000E+00; -3.5065143E-05;0; -2.0345306E-06;  1.0000000E+04;  0.0000000E+00;  1.2918710E-14;  1.0000000E+04;  0.0000000E+00;  1.0000000E+04; -2.0877953E-06;  0.0000000E+00;  5.3264895E-08;  3.6415171E-05;
  3.9999999E-02;  9.9999998E-03; -1.6000000E-01;1098; -1.1696494E-07;  0.0000000E+00; -7.7569844E-09;  1.0000000E+03;  4.0000001E-01;  0.0000000E+00;3; -4.1983832E-04;  0.0000000E+00; -2.8472950E-05;0; -2.1361573E-06;  1.0000000E+04;  0.0000000E+00; -3.0201758E-15;  1.0000000E+04;  0.0000000E+00;  1.0000000E+04; -2.1845590E-06;  0.0000000E+00;  4.8401727E-08;  3.3404580E-05;
  3.9999999E-02;  9.9999998E-03; -1.4000000E-01;1099; -1.2111525E-07;  0.0000000E+00; -6.1593592E-09;  1.0000000E+03;  4.0000001E-01;  0.0000000E+00;3; -4.3491373E-04;  0.0000000E+00; -2.2679109E-05;0; -2.2175336E-06;  1.0000000E+04;  0.0000000E+00; -4.3471755E-15;  1.0000000E+04;  0.0000000E+00;  1.0000000E+04; -2.2595227E-06;  0.0000000E+00;  4.1989189E-08;  2.9780811E-05;
  3.9999999E-02;  9.9999998E-03; -1.2000000E-01;1100; -1.2432625E-07;  0.0000000E+00; -4.7759747E-09;  1.0000000E+03;  4.0000001E-01;  0.0000000E+00;3; -4.4662584E-04;  0.0000000E+00; -1.7637660E-05;0; -2.2813458E-06;  1.0000000E+04;  0.0000000E+00;  2.3179546E-15;  1.0000000E+04;  0.0000000E+00;  1.0000000E+04; -2.3167286E-06;  0.0000000E+00;  3.5382676E-08;  2.6225112E-05;
  3.9999999E-02;  9.9999998E-03; -1.0000000E-01;1101; -1.2676226E-07;  0.0000000E+00; -3.6165499E-09;  1.0000000E+03;  4.0000001E-01;  0.0000000E+00;3; -4.5554707E-04;  0.0000000E+00; -1.3393050E-05;0; -2.3303696E-06;  1.0000000E+04;  0.0000000E+00;  5.1937011E-16;  1.0000000E+04;  0.0000000E+00;  1.0000000E+04; -2.3595755E-06;  0.0000000E+00;  2.9205884E-08;  2.3044313E-05;
  3.9999999E-02;  9.9999998E-03; -7.9999998E-02;1102; -1.2856837E-07;  0.0000000E+00; -2.6466864E-09;  1.0000000E+03;  4.0000001E-01;  0.0000000E+00;3; -4.6218646E-04;  0.0000000E+00; -9.8253395E-06;0; -2.3670661E-06;  1.0000000E+04;  0.0000000E+00;  4.7735320E-16;  1.0000000E+04;  0.0000000E+00;  1.0000000E+04; -2.3909186E-06;  0.0000000E+00;  2.3852435E-08;  2.0397551E-05;
  3.9999999E-02;  9.9999998E-03; -5.9999999E-02;1103; -1.2985807E-07;  0.0000000E+00; -1.8407580E-09;  1.0000000E+03;  4.0000001E-01;  0.0000000E+00;3; -4.6694308E-04;  0.0000000E+00; -6.8474224E-06;0; -2.3934772E-06;  1.0000000E+04;  0.0000000E+00; -2.0998504E-15;  1.0000000E+04;  0.0000000E+00;  1.0000000E+04; -2.4130347E-06;  0.0000000E+00;  1.9557563E-08;  1.8350029E-05;
  3.9999999E-02;  9.9999998E-03; -3.9999999E-02;1104; -1.3071923E-07;  0.0000000E+00; -1.1575783E-09;  1.0000000E+03;  4.0000001E-01;  0.0000000E+00;3; -4.7012771E-04;  0.0000000E+00; -4.3126356E-06;0; -2.4112073E-06;  1.0000000E+04;  0.0000000E+00; -4.2439334E-16;  1.0000000E+04;  0.0000000E+00;  1.0000000E+04; -2.4276512E-06;  0.0000000E+00;  1.6443860E-08;  1.6909977E-05;
  3.9999999E-02;  9.9999998E-03; -2.0000000E-02;1105; -1.3121205E-07;  0.0000000E+00; -5.5793153E-10;  1.0000000E+03;  4.0000001E-01;  0.0000000E+00;3; -4.7195356E-04;  0.0000000E+00; -2.0805826E-06;0; -2.4213928E-06;  1.0000000E+04;  0.0000000E+00;  1.3892378E-15;  1.0000000E+04;  0.0000000E+00;  1.0000000E+04; -2.4359567E-06;  0.0000000E+00;  1.4564052E-08;  1.6059657E-05;
  5.9999999E-02;  9.9999998E-03; -1.8000001E-01;1128; -1.9833625E-07;  0.0000000E+00; -1.6978777E-08;  1.0000000E+03;  4.0000001E-01;  0.0000000E+00;3; -7.0109830E-04;  0.0000000E+00; -6.1489576E-05;0; -3.6001327E-06;  1.0000000E+04;  0.0000000E+00; -2.2791888E-15;  1.0000000E+04;  0.0000000E+00;  1.0000000E+04; -3.6991200E-06;  0.0000000E+00;  9.8987321E-08;  7.5444848E-05;
  5.9999999E-02;  9.9999998E-03; -1.6000000E-01;1129; -2.0739969E-07;  0.0000000E+00; -1.3756177E-08;  1.0000000E+03;  4.0000001E-01;  0.0000000E+00;3; -7.3341327E-04;  0.0000000E+00; -5.0013110E-05;0; -3.7749305E-06;  1.0000000E+04;  0.0000000E+00; -1.5810459E-14;  1.0000000E+04;  0.0000000E+00;  1.0000000E+04; -3.8647463E-06;  0.0000000E+00;  8.9815678E-08;  6.9059352E-05;
  5.9999999E-02;  9.9999998E-03; -1.4000000E-01;1130; -2.1449939E-07;  0.0000000E+00; -1.0928085E-08;  1.0000000E+03;  4.0000001E-01;  0.0000000E+00;3; -7.5885316E-04;  0.0000000E+00; -3.9889965E-05;0; -3.9148667E-06;  1.0000000E+04;  0.0000000E+00;  2.2245093E-15;  1.0000000E+04;  0.0000000E+00;  1.0000000E+04; -3.9927472E-06;  0.0000000E+00;  7.7880706E-08;  6.1456383E-05;
  5.9999999E-02;  9.9999998E-03; -1.2000000E-01;1131; -2.1997911E-07;  0.0000000E+00; -8.4892422E-09;  1.0000000E+03;  4.0000001E-01;  0.0000000E+00;3; -7.7858975E-04;  0.0000000E+00; -3.1107120E-05;0; -4.0246191E-06;  1.0000000E+04;  0.0000000E+00; -1.4196747E-15;  1.0000000E+04;  0.0000000E+00;  1.0000000E+04; -4.0902905E-06;  0.0000000E+00;  6.5671450E-08;  5.4042190E-05;
  5.9999999E-02;  9.9999998E-03; -1.0000000E-01;1132; -2.2413212E-07;  0.0000000E+00; -6.4381731E-09;  1.0000000E+03;  4.0000001E-01;  0.0000000E+00;3; -7.9362426E-04;  0.0000000E+00; -2.3676768E-05;0; -4.1089970E-06;  1.0000000E+04;  0.0000000E+00;  3.1815347E-15;  1.0000000E+04;  0.0000000E+00;  1.0000000E+04; -4.1633002E-06;  0.0000000E+00;  5.4303140E-08;  4.7425488E-05;
  5.9999999E-02;  9.9999998E-03; -7.9999998E-02;1133; -2.2720808E-07;  0.0000000E+00; -4.7228079E-09;  1.0000000E+03;  4.0000001E-01;  0.0000000E+00;3; -8.0481364E-04;  0.0000000E+00; -1.7424310E-05;0; -4.1722183E-06;  1.0000000E+04;  0.0000000E+00; -1.5338492E-15;  1.0000000E+04;  0.0000000E+00;  1.0000000E+04; -4.2167053E-06;  0.0000000E+00;  4.4486814E-08;  4.1920481E-05;
  5.9999999E-02;  9.9999998E-03; -5.9999999E-02;1134; -2.2940424E-07;  0.0000000E+00; -3.2926968E-09;  1.0000000E+03;  4.0000001E-01;  0.0000000E+00;3; -8.1283692E-04;  0.0000000E+00; -1.2180943E-05;0; -4.2177735E-06;  1.0000000E+04;  0.0000000E+00; -4.7915738E-16;  1.0000000E+04;  0.0000000E+00;  1.0000000E+04; -4.2544148E-06;  0.0000000E+00;  3.6641165E-08;  3.7656446E-05;
  5.9999999E-02;  9.9999998E-03; -3.9999999E-02;1135; -2.3087073E-07;  0.0000000E+00; -2.0747231E-09;  1.0000000E+03;  4.0000001E-01;  0.0000000E+00;3; -8.1821339E-04;  0.0000000E+00; -7.6907872E-06;0; -4.2483803E-06;  1.0000000E+04;  0.0000000E+00; -7.6869458E-16;  1.0000000E+04;  0.0000000E+00;  1.0000000E+04; -4.2793540E-06;  0.0000000E+00;  3.0973801E-08;  3.4651839E-05;
  5.9999999E-02;  9.9999998E-03; -2.0000000E-02;1136; -2.3171052E-07;  0.0000000E+00; -1.0015252E-09;  1.0000000E+03;  4.0000001E-01;  0.0000000E+00;3; -8.2129985E-04;  0.0000000E+00; -3.7172736E-06;0; -4.2659744E-06;  1.0000000E+04;  0.0000000E+00; -1.1427835E-16;  1.0000000E+04;  0.0000000E+00;  1.0000000E+04; -4.2935367E-06;  0.0000000E+00;  2.7562413E-08;  3.2874494E-05;
  7.9999998E-02;  9.9999998E-03; -1.8000001E-01;1159; -3.4552582E-07;  0.0000000E+00; -2.9444003E-08;  1.0000000E+03;  4.0000001E-01;  0.0000000E+00;3; -1.1998914E-03;  0.0000000E+00; -1.0523691E-04;0; -6.2537811E-06;  1.0000000E+04;  0.0000000E+00;  4.1234472E-14;  1.0000000E+04;  0.0000000E+00;  1.0000000E+04; -6.4333713E-06;  0.0000000E+00;  1.7959019E-07;  1.5187780E-04;
  7.9999998E-02;  9.9999998E-03; -1.6000000E-01;1160; -3.6070728E-07;  0.0000000E+00; -2.3862944E-08;  1.0000000E+03;  4.0000001E-01;  0.0000000E+00;3; -1.2530417E-03;  0.0000000E+00; -8.5703570E-05;0; -6.5475501E-06;  1.0000000E+04;  0.0000000E+00; -2.7878788E-14;  1.0000000E+04;  0.0000000E+00;  1.0000000E+04; -6.7102064E-06;  0.0000000E+00;  1.6265636E-07;  1.3868956E-04;
  7.9999998E-02;  9.9999998E-03; -1.4000000E-01;1161; -3.7256848E-07;  0.0000000E+00; -1.8951880E-08;  1.0000000E+03;  4.0000001E-01;  0.0000000E+00;3; -1.2948122E-03;  0.0000000E+00; -6.8404079E-05;0; -6.7826099E-06;  1.0000000E+04;  0.0000000E+00; -1.1205765E-14;  1.0000000E+04;  0.0000000E+00;  1.0000000E+04; -6.9235316E-06;  0.0000000E+00;  1.4092187E-07;  1.2318199E-04;
  7.9999998E-02;  9.9999998E-03; -1.2000000E-01;1162; -3.8169597E-07;  0.0000000E+00; -1.4735244E-08;  1.0000000E+03;  4.0000001E-01;  0.0000000E+00;3; -1.3271529E-03;  0.0000000E+00; -5.3442916E-05;0; -6.9669477E-06;  1.0000000E+04;  0.0000000E+00; -3.1551956E-15;  1.0000000E+04;  0.0000000E+00;  1.0000000E+04; -7.0857927E-06;  0.0000000E+00;  1.1884489E-07;  1.0816969E-04;
  7.9999998E-02;  9.9999998E-03; -1.0000000E-01;1163; -3.8860114E-07;  0.0000000E+00; -1.1179575E-08;  1.0000000E+03;  4.0000001E-01;  0.0000000E+00;3; -1.3517715E-03;  0.0000000E+00; -4.0732302E-05;0; -7.1087406E-06;  1.0000000E+04;  0.0000000E+00;  7.5402111E-15;  1.0000000E+04;  0.0000000E+00;  1.0000000E+04; -7.2071189E-06;  0.0000000E+00;  9.8378280E-08;  9.4818810E-05;
  7.9999998E-02;  9.9999998E-03; -7.9999998E-02;1164; -3.9370542E-07;  0.0000000E+00; -8.2106615E-09;  1.0000000E+03;  4.0000001E-01;  0.0000000E+00;3; -1.3700782E-03;  0.0000000E+00; -3.0038593E-05;0; -7.2150424E-06;  1.0000000E+04;  0.0000000E+00;  1.5172885E-15;  1.0000000E+04;  0.0000000E+00;  1.0000000E+04; -7.2958173E-06;  0.0000000E+00;  8.0774996E-08;  8.3723680E-05;
  7.9999998E-02;  9.9999998E-03; -5.9999999E-02;1165; -3.9734533E-07;  0.0000000E+00; -5.7303371E-09;  1.0000000E+03;  4.0000001E-01;  0.0000000E+00;3; -1.3832033E-03;  0.0000000E+00; -2.1037580E-05;0; -7.2916887E-06;  1.0000000E+04;  0.0000000E+00; -2.8102677E-15;  1.0000000E+04;  0.0000000E+00;  1.0000000E+04; -7.3584515E-06;  0.0000000E+00;  6.6762695E-08;  7.5126431E-05;
  7.9999998E-02;  9.9999998E-03; -3.9999999E-02;1166; -3.9977380E-07;  0.0000000E+00; -3.6150292E-09;  1.0000000E+03;  4.0000001E-01;  0.0000000E+00;3; -1.3919994E-03;  0.0000000E+00; -1.3306872E-05;0; -7.3432066E-06;  1.0000000E+04;  0.0000000E+00; -1.3548940E-15;  1.0000000E+04;  0.0000000E+00;  1.0000000E+04; -7.3998881E-06;  0.0000000E+00;  5.6681500E-08;  6.9061454E-05;
  7.9999998E-02;  9.9999998E-03; -2.0000000E-02;1167; -4.0116285E-07;  0.0000000E+00; -1.7466661E-09;  1.0000000E+03;  4.0000001E-01;  0.0000000E+00;3; -1.3970467E-03;  0.0000000E+00; -6.4401684E-06;0; -7.3728297E-06;  1.0000000E+04;  0.0000000E+00;  2.1207918E-15;  1.0000000E+04;  0.0000000E+00;  1.0000000E+04; -7.4234636E-06;  0.0000000E+00;  5.0633815E-08;  6.5469183E-05;
  1.0000000E-01;  9.9999998E-03; -1.8000001E-01;1190; -5.9215154E-07;  0.0000000E+00; -5.0077016E-08;  1.0000000E+03;  4.0000001E-01;  0.0000000E+00;3; -2.0149597E-03;  0.0000000E+00; -1.7611595E-04;0; -1.0668938E-05;  1.0000000E+04;  0.0000000E+00;  7.1379365E-14;  1.0000000E+04;  0.0000000E+00;  1.0000000E+04; -1.0988133E-05;  0.0000000E+00;  3.1919518E-07;  2.9758585E-04;
  1.0000000E-01;  9.9999998E-03; -1.6000000E-01;1191; -6.1707397E-07;  0.0000000E+00; -4.0576762E-08;  1.0000000E+03;  4.0000001E-01;  0.0000000E+00;3; -2.1003201E-03;  0.0000000E+00; -1.4353839E-04;0; -1.1151828E-05;  1.0000000E+04;  0.0000000E+00; -4.8120985E-14;  1.0000000E+04;  0.0000000E+00;  1.0000000E+04; -1.1440128E-05;  0.0000000E+00;  2.8830004E-07;  2.7092770E-04;
  1.0000000E-01;  9.9999998E-03; -1.4000000E-01;1192; -6.3649117E-07;  0.0000000E+00; -3.2199189E-08;  1.0000000E+03;  4.0000001E-01;  0.0000000E+00;3; -2.1672668E-03;  0.0000000E+00; -1.1458370E-04;0; -1.1537881E-05;  1.0000000E+04;  0.0000000E+00; -1.9311269E-14;  1.0000000E+04;  0.0000000E+00;  1.0000000E+04; -1.1787270E-05;  0.0000000E+00;  2.4938893E-07;  2.4009976E-04;
  1.0000000E-01;  9.9999998E-03; -1.2000000E-01;1193; -6.5138306E-07;  0.0000000E+00; -2.5037044E-08;  1.0000000E+03;  4.0000001E-01;  0.0000000E+00;3; -2.2189678E-03;  0.0000000E+00; -8.9622263E-05;0; -1.1840549E-05;  1.0000000E+04;  0.0000000E+00; -9.0991551E-16;  1.0000000E+04;  0.0000000E+00;  1.0000000E+04; -1.2050765E-05;  0.0000000E+00;  2.1021576E-07;  2.1053226E-04;
  1.0000000E-01;  9.9999998E-03; -1.0000000E-01;1194; -6.6262510E-07;  0.0000000E+00; -1.8986144E-08;  1.0000000E+03;  4.0000001E-01;  0.0000000E+00;3; -2.2582789E-03;  0.0000000E+00; -6.8341426E-05;0; -1.2073439E-05;  1.0000000E+04;  0.0000000E+00;  1.2969442E-14;  1.0000000E+04;  0.0000000E+00;  1.0000000E+04; -1.2247530E-05;  0.0000000E+00;  1.7409057E-07;  1.8436128E-04;
  1.0000000E-01;  9.9999998E-03; -7.9999998E-02;1195; -6.7091503E-07;  0.0000000E+00; -1.3946817E-08;  1.0000000E+03;  4.0000001E-01;  0.0000000E+00;3; -2.2874698E-03;  0.0000000E+00; -5.0458922E-05;0; -1.2248137E-05;  1.0000000E+04;  0.0000000E+00;  2.6670651E-15;  1.0000000E+04;  0.0000000E+00;  1.0000000E+04; -1.2391289E-05;  0.0000000E+00;  1.4315214E-07;  1.6265856E-04;
  1.0000000E-01;  9.9999998E-03; -5.9999999E-02;1196; -6.7681515E-07;  0.0000000E+00; -9.7330428E-09;  1.0000000E+03;  4.0000001E-01;  0.0000000E+00;3; -2.3083799E-03;  0.0000000E+00; -3.5367138E-05;0; -1.2374158E-05;  1.0000000E+04;  0.0000000E+00;  1.8359206E-15;  1.0000000E+04;  0.0000000E+00;  1.0000000E+04; -1.2492785E-05;  0.0000000E+00;  1.1862663E-07;  1.4585108E-04;
  1.0000000E-01;  9.9999998E-03; -3.9999999E-02;1197; -6.8074354E-07;  0.0000000E+00; -6.1424417E-09;  1.0000000E+03;  4.0000001E-01;  0.0000000E+00;3; -2.3223779E-03;  0.0000000E+00; -2.2394557E-05;0; -1.2458883E-05;  1.0000000E+04;  0.0000000E+00; -2.3306380E-15;  1.0000000E+04;  0.0000000E+00;  1.0000000E+04; -1.2559935E-05;  0.0000000E+00;  1.0105187E-07;  1.3398989E-04;
  1.0000000E-01;  9.9999998E-03; -2.0000000E-02;1198; -6.8298880E-07;  0.0000000E+00; -2.9686882E-09;  1.0000000E+03;  4.0000001E-01;  0.0000000E+00;3; -2.3304098E-03;  0.0000000E+00; -1.0846416E-05;0; -1.2507601E-05;  1.0000000E+04;  0.0000000E+00;  3.6512609E-15;  1.0000000E+04;  0.0000000E+00;  1.0000000E+04; -1.2598144E-05;  0.0000000E+00;  9.0543367E-08;  1.2695970E-04;
  1.2000000E-01;  9.9999998E-03; -1.8000001E-01;1221; -1.0001795E-06;  0.0000000E+00; -8.3617337E-08;  1.0000000E+03;  4.0000001E-01;  0.0000000E+00;3; -3.3282440E-03;  0.0000000E+00; -2.8849934E-04;0; -1.7884915E-05;  1.0000000E+04;  0.0000000E+00;  1.2232873E-13;  1.0000000E+04;  0.0000000E+00;  1.0000000E+04; -1.8442764E-05;  0.0000000E+00;  5.5785034E-07;  5.6901784E-04;
  1.2000000E-01;  9.9999998E-03; -1.6000000E-01;1222; -1.0401978E-06;  0.0000000E+00; -6.7721501E-08;  1.0000000E+03;  4.0000001E-01;  0.0000000E+00;3; -3.4618308E-03;  0.0000000E+00; -2.3524575E-04;0; -1.8662693E-05;  1.0000000E+04;  0.0000000E+00; -8.0798757E-14;  1.0000000E+04;  0.0000000E+00;  1.0000000E+04; -1.9164021E-05;  0.0000000E+00;  5.0132758E-07;  5.1578146E-04;
  1.2000000E-01;  9.9999998E-03; -1.4000000E-01;1223; -1.0713371E-06;  0.0000000E+00; -5.3689625E-08;  1.0000000E+03;  4.0000001E-01;  0.0000000E+00;3; -3.5665499E-03;  0.0000000E+00; -1.8779805E-04;0; -1.9283669E-05;  1.0000000E+04;  0.0000000E+00; -3.2032899E-14;  1.0000000E+04;  0.0000000E+00;  1.0000000E+04; -1.9716070E-05;  0.0000000E+00;  4.3240169E-07;  4.5577832E-04;
  1.2000000E-01;  9.9999998E-03; -1.2000000E-01;1224; -1.0951860E-06;  0.0000000E+00; -4.1734229E-08;  1.0000000E+03;  4.0000001E-01;  0.0000000E+00;3; -3.6473670E-03;  0.0000000E+00; -1.4698852E-04;0; -1.9770257E-05;  1.0000000E+04;  0.0000000E+00; -1.5436575E-15;  1.0000000E+04;  0.0000000E+00;  1.0000000E+04; -2.0134245E-05;  0.0000000E+00;  3.6398686E-07;  3.9898322E-04;
  1.2000000E-01;  9.9999998E-03; -1.0000000E-01;1225; -1.1131619E-06;  0.0000000E+00; -3.1615581E-08;  1.0000000E+03;  4.0000001E-01;  0.0000000E+00;3; -3.7087686E-03;  0.0000000E+00; -1.1207849E-04;0; -2.0144747E-05;  1.0000000E+04;  0.0000000E+00;  1.6187233E-14;  1.0000000E+04;  0.0000000E+00;  1.0000000E+04; -2.0446127E-05;  0.0000000E+00;  3.0137866E-07;  3.4904986E-04;
  1.2000000E-01;  9.9999998E-03; -7.9999998E-02;1226; -1.1263866E-06;  0.0000000E+00; -2.3214392E-08;  1.0000000E+03;  4.0000001E-01;  0.0000000E+00;3; -3.7542910E-03;  0.0000000E+00; -8.2797917E-05;0; -2.0425858E-05;  1.0000000E+04;  0.0000000E+00; -3.8887185E-15;  1.0000000E+04;  0.0000000E+00;  1.0000000E+04; -2.0673899E-05;  0.0000000E+00;  2.4804052E-07;  3.0777938E-04;
  1.2000000E-01;  9.9999998E-03; -5.9999999E-02;1227; -1.1357814E-06;  0.0000000E+00; -1.6188743E-08;  1.0000000E+03;  4.0000001E-01;  0.0000000E+00;3; -3.7868673E-03;  0.0000000E+00; -5.8041591E-05;0; -2.0628762E-05;  1.0000000E+04;  0.0000000E+00;  1.4385166E-14;  1.0000000E+04;  0.0000000E+00;  1.0000000E+04; -2.0834703E-05;  0.0000000E+00;  2.0593987E-07;  2.7586397E-04;
  1.2000000E-01;  9.9999998E-03; -3.9999999E-02;1228; -1.1420249E-06;  0.0000000E+00; -1.0214021E-08;  1.0000000E+03;  4.0000001E-01;  0.0000000E+00;3; -3.8086504E-03;  0.0000000E+00; -3.6769343E-05;0; -2.0765252E-05;  1.0000000E+04;  0.0000000E+00; -3.8350374E-15;  1.0000000E+04;  0.0000000E+00;  1.0000000E+04; -2.0941134E-05;  0.0000000E+00;  1.7588208E-07;  2.5335094E-04;
  1.2000000E-01;  9.9999998E-03; -2.0000000E-02;1229; -1.1455893E-06;  0.0000000E+00; -4.9357221E-09;  1.0000000E+03;  4.0000001E-01;  0.0000000E+00;3; -3.8211441E-03;  0.0000000E+00; -1.7814187E-05;0; -2.0843756E-05;  1.0000000E+04;  0.0000000E+00; -5.2708838E-16;  1.0000000E+04;  0.0000000E+00;  1.0000000E+04; -2.1001717E-05;  0.0000000E+00;  1.5796095E-07;  2.4000710E-04;
  1.4000000E-01;  9.9999998E-03; -1.8000001E-01;1252; -1.6660559E-06;  0.0000000E+00; -1.3724579E-07;  1.0000000E+03;  4.0000001E-01;  0.0000000E+00;3; -5.4150061E-03;  0.0000000E+00; -4.6329782E-04;0; -2.9481385E-05;  1.0000000E+04;  0.0000000E+00; -4.4458029E-10;  1.0000000E+04;  0.0000000E+00;  1.0000000E+04; -3.0444162E-05;  0.0000000E+00;  9.6277620E-07;  1.0654045E-03;
  1.4000000E-01;  9.9999998E-03; -1.6000000E-01;1253; -1.7291190E-06;  0.0000000E+00; -1.1095205E-07;  1.0000000E+03;  4.0000001E-01;  0.0000000E+00;3; -5.6196013E-03;  0.0000000E+00; -3.7737461E-04;0; -3.0711308E-05;  1.0000000E+04;  0.0000000E+00; -1.2809499E-13;  1.0000000E+04;  0.0000000E+00;  1.0000000E+04; -3.1568827E-05;  0.0000000E+00;  8.5751753E-07;  9.5933641E-04;
  1.4000000E-01;  9.9999998E-03; -1.4000000E-01;1254; -1.7779666E-06;  0.0000000E+00; -8.7906898E-08;  1.0000000E+03;  4.0000001E-01;  0.0000000E+00;3; -5.7792678E-03;  0.0000000E+00; -3.0133437E-04;0; -3.1691739E-05;  1.0000000E+04;  0.0000000E+00; -5.0237507E-14;  1.0000000E+04;  0.0000000E+00;  1.0000000E+04; -3.2427521E-05;  0.0000000E+00;  7.3578218E-07;  8.4428885E-04;
  1.4000000E-01;  9.9999998E-03; -1.2000000E-01;1255; -1.8153839E-06;  0.0000000E+00; -6.8343880E-08;  1.0000000E+03;  4.0000001E-01;  0.0000000E+00;3; -5.9025898E-03;  0.0000000E+00; -2.3611188E-04;0; -3.2459149E-05;  1.0000000E+04;  0.0000000E+00;  1.8126266E-15;  1.0000000E+04;  0.0000000E+00;  1.0000000E+04; -3.3076900E-05;  0.0000000E+00;  6.1774938E-07;  7.3748676E-04;
  1.4000000E-01;  9.9999998E-03; -1.0000000E-01;1256; -1.8436566E-06;  0.0000000E+00; -5.1732165E-08;  1.0000000E+03;  4.0000001E-01;  0.0000000E+00;3; -5.9965984E-03;  0.0000000E+00; -1.8004327E-04;0; -3.3049924E-05;  1.0000000E+04;  0.0000000E+00;  2.6867167E-14;  1.0000000E+04;  0.0000000E+00;  1.0000000E+04; -3.3560962E-05;  0.0000000E+00;  5.1103814E-07;  6.4451300E-04;
  1.4000000E-01;  9.9999998E-03; -7.9999998E-02;1257; -1.8644448E-06;  0.0000000E+00; -3.7968015E-08;  1.0000000E+03;  4.0000001E-01;  0.0000000E+00;3; -6.0662879E-03;  0.0000000E+00; -1.3306031E-04;0; -3.3493699E-05;  1.0000000E+04;  0.0000000E+00;  8.6605678E-16;  1.0000000E+04;  0.0000000E+00;  1.0000000E+04; -3.3914486E-05;  0.0000000E+00;  4.2078767E-07;  5.6804734E-04;
  1.4000000E-01;  9.9999998E-03; -5.9999999E-02;1258; -1.8791943E-06;  0.0000000E+00; -2.6454526E-08;  1.0000000E+03;  4.0000001E-01;  0.0000000E+00;3; -6.1161169E-03;  0.0000000E+00; -9.3266812E-05;0; -3.3814362E-05;  1.0000000E+04;  0.0000000E+00;  2.4652706E-14;  1.0000000E+04;  0.0000000E+00;  1.0000000E+04; -3.4164263E-05;  0.0000000E+00;  3.4990012E-07;  5.0905353E-04;
  1.4000000E-01;  9.9999998E-03; -3.9999999E-02;1259; -1.8889851E-06;  0.0000000E+00; -1.6684726E-08;  1.0000000E+03;  4.0000001E-01;  0.0000000E+00;3; -6.1494145E-03;  0.0000000E+00; -5.9101574E-05;0; -3.4030250E-05;  1.0000000E+04;  0.0000000E+00; -5.4822869E-15;  1.0000000E+04;  0.0000000E+00;  1.0000000E+04; -3.4329714E-05;  0.0000000E+00;  2.9946392E-07;  4.6748412E-04;
  1.4000000E-01;  9.9999998E-03; -2.0000000E-02;1260; -1.8945677E-06;  0.0000000E+00; -8.0595335E-09;  1.0000000E+03;  4.0000001E-01;  0.0000000E+00;3; -6.1684949E-03;  0.0000000E+00; -2.8635763E-05;0; -3.4154524E-05;  1.0000000E+04;  0.0000000E+00; -2.1410294E-16;  1.0000000E+04;  0.0000000E+00;  1.0000000E+04; -3.4423985E-05;  0.0000000E+00;  2.6946287E-07;  4.4285716E-04;
  1.6000000E-01;  9.9999998E-03; -1.8000001E-01;1283; -2.7343963E-06;  0.0000000E+00; -2.2204246E-07;  1.0000000E+03;  4.0000001E-01;  0.0000000E+00;3; -8.6756293E-03;  0.0000000E+00; -7.3201559E-04;0; -4.7827067E-05;  1.0000000E+04;  0.0000000E+00; -5.4862253E-09;  1.0000000E+04;  0.0000000E+00;  1.0000000E+04; -4.9474260E-05;  0.0000000E+00;  1.6471931E-06;  1.9595784E-03;
  1.6000000E-01;  9.9999998E-03; -1.6000000E-01;1284; -2.8325117E-06;  0.0000000E+00; -1.7893143E-07;  1.0000000E+03;  4.0000001E-01;  0.0000000E+00;3; -8.9848181E-03;  0.0000000E+00; -5.9462758E-04;0; -4.9738122E-05;  1.0000000E+04;  0.0000000E+00; -4.6737435E-13;  1.0000000E+04;  0.0000000E+00;  1.0000000E+04; -5.1184619E-05;  0.0000000E+00;  1.4464968E-06;  1.7478042E-03;
  1.6000000E-01;  9.9999998E-03; -1.4000000E-01;1285; -2.9082489E-06;  0.0000000E+00; -1.4159272E-07;  1.0000000E+03;  4.0000001E-01;  0.0000000E+00;3; -9.2252493E-03;  0.0000000E+00; -4.7449244E-04;0; -5.1261093E-05;  1.0000000E+04;  0.0000000E+00; -6.6724661E-14;  1.0000000E+04;  0.0000000E+00;  1.0000000E+04; -5.2491934E-05;  0.0000000E+00;  1.2308425E-06;  1.5295505E-03;
  1.6000000E-01;  9.9999998E-03; -1.2000000E-01;1286; -2.9662517E-06;  0.0000000E+00; -1.1018968E-07;  1.0000000E+03;  4.0000001E-01;  0.0000000E+00;3; -9.4109429E-03;  0.0000000E+00; -3.7245356E-04;0; -5.2450825E-05;  1.0000000E+04;  0.0000000E+00;  6.7717648E-16;  1.0000000E+04;  0.0000000E+00;  1.0000000E+04; -5.3479795E-05;  0.0000000E+00;  1.0289707E-06;  1.3321873E-03;
  1.6000000E-01;  9.9999998E-03; -1.0000000E-01;1287; -3.0102881E-06;  0.0000000E+00; -8.3479719E-08;  1.0000000E+03;  4.0000001E-01;  0.0000000E+00;3; -9.5532956E-03;  0.0000000E+00; -2.8447219E-04;0; -5.3366450E-05;  1.0000000E+04;  0.0000000E+00;  4.4706473E-14;  1.0000000E+04;  0.0000000E+00;  1.0000000E+04; -5.4216300E-05;  0.0000000E+00;  8.4985112E-07;  1.1627553E-03;
  1.6000000E-01;  9.9999998E-03; -7.9999998E-02;1288; -3.0428214E-06;  0.0000000E+00; -6.1267407E-08;  1.0000000E+03;  4.0000001E-01;  0.0000000E+00;3; -9.6593881E-03;  0.0000000E+00; -2.1036543E-04;0; -5.4054904E-05;  1.0000000E+04;  0.0000000E+00; -6.0164204E-15;  1.0000000E+04;  0.0000000E+00;  1.0000000E+04; -5.4754808E-05;  0.0000000E+00;  6.9990193E-07;  1.0243698E-03;
  1.6000000E-01;  9.9999998E-03; -5.9999999E-02;1289; -3.0659126E-06;  0.0000000E+00; -4.2640846E-08;  1.0000000E+03;  4.0000001E-01;  0.0000000E+00;3; -9.7352648E-03;  0.0000000E+00; -1.4735965E-04;0; -5.4553097E-05;  1.0000000E+04;  0.0000000E+00;  3.1382984E-14;  1.0000000E+04;  0.0000000E+00;  1.0000000E+04; -5.5135926E-05;  0.0000000E+00;  5.8283086E-07;  9.1794936E-04;
  1.6000000E-01;  9.9999998E-03; -3.9999999E-02;1290; -3.0811839E-06;  0.0000000E+00; -2.6872497E-08;  1.0000000E+03;  4.0000001E-01;  0.0000000E+00;3; -9.7857509E-03;  0.0000000E+00; -9.3349714E-05;0; -5.4888995E-05;  1.0000000E+04;  0.0000000E+00; -3.9608382E-14;  1.0000000E+04;  0.0000000E+00;  1.0000000E+04; -5.5388820E-05;  0.0000000E+00;  4.9982435E-07;  8.4306870E-04;
  1.6000000E-01;  9.9999998E-03; -2.0000000E-02;1291; -3.0898600E-06;  0.0000000E+00; -1.2974629E-08;  1.0000000E+03;  4.0000001E-01;  0.0000000E+00;3; -9.8145623E-03;  0.0000000E+00; -4.5222998E-05;0; -5.5082535E-05;  1.0000000E+04;  0.0000000E+00; -1.2745139E-14;  1.0000000E+04;  0.0000000E+00;  1.0000000E+04; -5.5533077E-05;  0.0000000E+00;  4.5054352E-07;  7.9873524E-04;
  1.7999999E-01;  9.9999998E-03; -1.8000001E-01;1314; -4.4200674E-06;  0.0000000E+00; -3.5457691E-07;  1.0000000E+03;  4.0000001E-01;  0.0000000E+00;3; -1.3684122E-02;  0.0000000E+00; -1.1409702E-03;0; -7.6416014E-05;  1.0000000E+04;  0.0000000E+00; -2.2620060E-08;  1.0000000E+04;  0.0000000E+00;  1.0000000E+04; -7.9212572E-05;  0.0000000E+00;  2.7965593E-06;  3.5470487E-03;
  1.7999999E-01;  9.9999998E-03; -1.6000000E-01;1315; -4.5707534E-06;  0.0000000E+00; -2.8498977E-07;  1.0000000E+03;  4.0000001E-01;  0.0000000E+00;3; -1.4146011E-02;  0.0000000E+00; -9.2460436E-04;0; -7.9342099E-05;  1.0000000E+04;  0.0000000E+00; -9.4127463E-11;  1.0000000E+04;  0.0000000E+00;  1.0000000E+04; -8.1751758E-05;  0.0000000E+00;  2.4096603E-06;  3.1252452E-03;
  1.7999999E-01;  9.9999998E-03; -1.4000000E-01;1316; -4.6870327E-06;  0.0000000E+00; -2.2529262E-07;  1.0000000E+03;  4.0000001E-01;  0.0000000E+00;3; -1.4505125E-02;  0.0000000E+00; -7.3725055E-04;0; -8.1673083E-05;  1.0000000E+04;  0.0000000E+00; -2.1848373E-13;  1.0000000E+04;  0.0000000E+00;  1.0000000E+04; -8.3700004E-05;  0.0000000E+00;  2.0269222E-06;  2.7154833E-03;
  1.7999999E-01;  9.9999998E-03; -1.2000000E-01;1317; -4.7761923E-06;  0.0000000E+00; -1.7559529E-07;  1.0000000E+03;  4.0000001E-01;  0.0000000E+00;3; -1.4782812E-02;  0.0000000E+00; -5.7993818E-04;0; -8.3488449E-05;  1.0000000E+04;  0.0000000E+00;  9.9582453E-15;  1.0000000E+04;  0.0000000E+00;  1.0000000E+04; -8.5172622E-05;  0.0000000E+00;  1.6841726E-06;  2.3563199E-03;
  1.7999999E-01;  9.9999998E-03; -1.0000000E-01;1318; -4.8441725E-06;  0.0000000E+00; -1.3337849E-07;  1.0000000E+03;  4.0000001E-01;  0.0000000E+00;3; -1.4996679E-02;  0.0000000E+00; -4.4439238E-04;0; -8.4884181E-05;  1.0000000E+04;  0.0000000E+00;  9.5265091E-14;  1.0000000E+04;  0.0000000E+00;  1.0000000E+04; -8.6271961E-05;  0.0000000E+00;  1.3877809E-06;  2.0533800E-03;
  1.7999999E-01;  9.9999998E-03; -7.9999998E-02;1319; -4.8947459E-06;  0.0000000E+00; -9.8078253E-08;  1.0000000E+03;  4.0000001E-01;  0.0000000E+00;3; -1.5157263E-02;  0.0000000E+00; -3.2940335E-04;0; -8.5934531E-05;  1.0000000E+04;  0.0000000E+00; -5.2614345E-15;  1.0000000E+04;  0.0000000E+00;  1.0000000E+04; -8.7077635E-05;  0.0000000E+00;  1.1431006E-06;  1.8081480E-03;
  1.7999999E-01;  9.9999998E-03; -5.9999999E-02;1320; -4.9308733E-06;  0.0000000E+00; -6.8243295E-08;  1.0000000E+03;  4.0000001E-01;  0.0000000E+00;3; -1.5272876E-02;  0.0000000E+00; -2.3071773E-04;0; -8.6695858E-05;  1.0000000E+04;  0.0000000E+00;  6.5999357E-14;  1.0000000E+04;  0.0000000E+00;  1.0000000E+04; -8.7649321E-05;  0.0000000E+00;  9.5346439E-07;  1.6203125E-03;
  1.7999999E-01;  9.9999998E-03; -3.9999999E-02;1321; -4.9548044E-06;  0.0000000E+00; -4.2941654E-08;  1.0000000E+03;  4.0000001E-01;  0.0000000E+00;3; -1.5349865E-02;  0.0000000E+00; -1.4593560E-04;0; -8.7210232E-05;  1.0000000E+04;  0.0000000E+00; -2.6782706E-14;  1.0000000E+04;  0.0000000E+00;  1.0000000E+04; -8.8029738E-05;  0.0000000E+00;  8.1950856E-07;  1.4883468E-03;
  1.7999999E-01;  9.9999998E-03; -2.0000000E-02;1322; -4.9683608E-06;  0.0000000E+00; -2.0683460E-08;  1.0000000E+03;  4.0000001E-01;  0.0000000E+00;3; -1.5393620E-02;  0.0000000E+00; -7.0521317E-05;0; -8.7507113E-05;  1.0000000E+04;  0.0000000E+00; -6.2066441E-15;  1.0000000E+04;  0.0000000E+00;  1.0000000E+04; -8.8247223E-05;  0.0000000E+00;  7.4010825E-07;  1.4102530E-03;
  2.0000000E-01;  9.9999998E-03; -1.8000001E-01;1345; -7.0383821E-06;  0.0000000E+00; -5.5831066E-07;  1.0000001E+03;  4.0000001E-01;  9.8762624E-02;3; -2.1253694E-02;  0.0000000E+00; -1.7543262E-03;0; -1.2032241E-04;  1.0000001E+04;  0.0000000E+00; -5.3931764E-08;  1.0000000E+04;  0.0000000E+00;  1.0000000E+04; -1.2502252E-04;  0.0000000E+00;  4.7001090E-06;  6.3211797E-03;
  2.0000000E-01;  9.9999998E-03; -1.6000000E-01;1346; -7.2652192E-06;  0.0000000E+00; -4.4814956E-07;  1.0000001E+03;  4.0000001E-01;  9.8762624E-02;3; -2.1930836E-02;  0.0000000E+00; -1.4199390E-03;0; -1.2475146E-04;  1.0000001E+04;  0.0000000E+00; -5.5973631E-10;  1.0000000E+04;  0.0000000E+00;  1.0000000E+04; -1.2871395E-04;  0.0000000E+00;  3.9624897E-06;  5.4912195E-03;
  2.0000000E-01;  9.9999998E-03; -1.4000000E-01;1347; -7.4403565E-06;  0.0000000E+00; -3.5418034E-07;  1.0000001E+03;  4.0000001E-01;  9.8762624E-02;3; -2.2457812E-02;  0.0000000E+00; -1.1319506E-03;0; -1.2826701E-04;  1.0000001E+04;  0.0000000E+00; -1.1373419E-13;  1.0000000E+04;  0.0000000E+00;  1.0000000E+04; -1.3155463E-04;  0.0000000E+00;  3.2876137E-06;  4.7318381E-03;
  2.0000000E-01;  9.9999998E-03; -1.2000000E-01;1348; -7.5748444E-06;  0.0000000E+00; -2.7666840E-07;  1.0000001E+03;  4.0000001E-01;  9.8762624E-02;3; -2.2865836E-02;  0.0000000E+00; -8.9285796E-04;0; -1.3099340E-04;  1.0000001E+04;  0.0000000E+00;  1.1299344E-14;  1.0000000E+04;  0.0000000E+00;  1.0000000E+04; -1.3370474E-04;  0.0000000E+00;  2.7113440E-06;  4.0881136E-03;
  2.0000000E-01;  9.9999998E-03; -1.0000000E-01;1349; -7.6778424E-06;  0.0000000E+00; -2.1091741E-07;  1.0000001E+03;  4.0000001E-01;  9.8762624E-02;3; -2.3181578E-02;  0.0000000E+00; -6.8694033E-04;0; -1.3308581E-04;  1.0000001E+04;  0.0000000E+00;  1.1154104E-13;  1.0000000E+04;  0.0000000E+00;  1.0000000E+04; -1.3531381E-04;  0.0000000E+00;  2.2280060E-06;  3.5559270E-03;
  2.0000000E-01;  9.9999998E-03; -7.9999998E-02;1350; -7.7549821E-06;  0.0000000E+00; -1.5568187E-07;  1.0000001E+03;  4.0000001E-01;  9.8762624E-02;3; -2.3420300E-02;  0.0000000E+00; -5.1125995E-04;0; -1.3466099E-04;  1.0000001E+04;  0.0000000E+00;  1.4186367E-14;  1.0000000E+04;  0.0000000E+00;  1.0000000E+04; -1.3649683E-04;  0.0000000E+00;  1.8358350E-06;  3.1295288E-03;
  2.0000000E-01;  9.9999998E-03; -5.9999999E-02;1351; -7.8105377E-06;  0.0000000E+00; -1.0855546E-07;  1.0000001E+03;  4.0000001E-01;  9.8762624E-02;3; -2.3593586E-02;  0.0000000E+00; -3.5884642E-04;0; -1.3580499E-04;  1.0000001E+04;  0.0000000E+00;  1.6221639E-13;  1.0000000E+04;  0.0000000E+00;  1.0000000E+04; -1.3733952E-04;  0.0000000E+00;  1.5345327E-06;  2.8043468E-03;
  2.0000000E-01;  9.9999998E-03; -3.9999999E-02;1352; -7.8475905E-06;  0.0000000E+00; -6.8325114E-08;  1.0000001E+03;  4.0000001E-01;  9.8762624E-02;3; -2.3709744E-02;  0.0000000E+00; -2.2698176E-04;0; -1.3657974E-04;  1.0000001E+04;  0.0000000E+00; -2.1431497E-14;  1.0000000E+04;  0.0000000E+00;  1.0000000E+04; -1.3790226E-04;  0.0000000E+00;  1.3225224E-06;  2.5761880E-03;
  2.0000000E-01;  9.9999998E-03; -2.0000000E-02;1353; -7.8686935E-06;  0.0000000E+00; -3.2865941E-08;  1.0000001E+03;  4.0000001E-01;  9.8762624E-02;3; -2.3776093E-02;  0.0000000E+00; -1.0949928E-04;0; -1.3702788E-04;  1.0000001E+04;  0.0000000E+00; -1.1135774E-15;  1.0000000E+04;  0.0000000E+00;  1.0000000E+04; -1.3822492E-04;  0.0000000E+00;  1.1970340E-06;  2.4411823E-03;
  2.2000000E-01;  9.9999998E-03; -1.8000001E-01;1376; -1.1043276E-05;  0.0000000E+00; -8.6470396E-07;  1.0000001E+03;  4.0000001E-01;  9.8762624E-02;3; -3.2511529E-02;  0.0000000E+00; -2.6543094E-03;0; -1.8683016E-04;  1.0000001E+04;  0.0000000E+00; -8.4088278E-08;  1.0000000E+04;  0.0000000E+00;  1.0000000E+04; -1.9461478E-04;  0.0000000E+00;  7.7846225E-06;  1.1080673E-02;
  2.2000000E-01;  9.9999998E-03; -1.6000000E-01;1377; -1.1376579E-05;  0.0000000E+00; -6.9373823E-07;  1.0000001E+03;  4.0000001E-01;  9.8762624E-02;3; -3.3479139E-02;  0.0000000E+00; -2.1478764E-03;0; -1.9345376E-04;  1.0000001E+04;  0.0000000E+00; -8.6925694E-10;  1.0000000E+04;  0.0000000E+00;  1.0000000E+04; -1.9987412E-04;  0.0000000E+00;  6.4203659E-06;  9.4854375E-03;
  2.2000000E-01;  9.9999998E-03; -1.4000000E-01;1378; -1.1633747E-05;  0.0000000E+00; -5.4839563E-07;  1.0000001E+03;  4.0000001E-01;  9.8762624E-02;3; -3.4232326E-02;  0.0000000E+00; -1.7125746E-03;0; -1.9867279E-04;  1.0000001E+04;  0.0000000E+00; -1.4775216E-13;  1.0000000E+04;  0.0000000E+00;  1.0000000E+04; -2.0392361E-04;  0.0000000E+00;  5.2508221E-06;  8.1023918E-03;
  2.2000000E-01;  9.9999998E-03; -1.2000000E-01;1379; -1.1831081E-05;  0.0000000E+00; -4.2952723E-07;  1.0000001E+03;  4.0000001E-01;  9.8762624E-02;3; -3.4815058E-02;  0.0000000E+00; -1.3551773E-03;0; -2.0269828E-04;  1.0000001E+04;  0.0000000E+00;  1.6913717E-13;  1.0000000E+04;  0.0000000E+00;  1.0000000E+04; -2.0699452E-04;  0.0000000E+00;  4.2962392E-06;  6.9676703E-03;
  2.2000000E-01;  9.9999998E-03; -1.0000000E-01;1380; -1.1982624E-05;  0.0000000E+00; -3.2876906E-07;  1.0000001E+03;  4.0000001E-01;  9.8762624E-02;3; -3.5267480E-02;  0.0000000E+00; -1.0470486E-03;0; -2.0577938E-04;  1.0000001E+04;  0.0000000E+00;  3.5503536E-13;  1.0000000E+04;  0.0000000E+00;  1.0000000E+04; -2.0930012E-04;  0.0000000E+00;  3.5207449E-06;  6.0486509E-03;
  2.2000000E-01;  9.9999998E-03; -7.9999998E-02;1381; -1.2096722E-05;  0.0000000E+00; -2.4385992E-07;  1.0000001E+03;  4.0000001E-01;  9.8762624E-02;3; -3.5611339E-02;  0.0000000E+00; -7.8322861E-04;0; -2.0809927E-04;  1.0000001E+04;  0.0000000E+00;  2.7641944E-15;  1.0000000E+04;  0.0000000E+00;  1.0000000E+04; -2.1100261E-04;  0.0000000E+00;  2.9033420E-06;  5.3200377E-03;
  2.2000000E-01;  9.9999998E-03; -5.9999999E-02;1382; -1.2179545E-05;  0.0000000E+00; -1.7073853E-07;  1.0000001E+03;  4.0000001E-01;  9.8762624E-02;3; -3.5862930E-02;  0.0000000E+00; -5.5195729E-04;0; -2.0978738E-04;  1.0000001E+04;  0.0000000E+00;  2.7829526E-13;  1.0000000E+04;  0.0000000E+00;  1.0000000E+04; -2.1222090E-04;  0.0000000E+00;  2.4335106E-06;  4.7666305E-03;
  2.2000000E-01;  9.9999998E-03; -3.9999999E-02;1383; -1.2235272E-05;  0.0000000E+00; -1.0775332E-07;  1.0000001E+03;  4.0000001E-01;  9.8762624E-02;3; -3.6033109E-02;  0.0000000E+00; -3.4997868E-04;0; -2.1093385E-04;  1.0000001E+04;  0.0000000E+00; -1.1692736E-13;  1.0000000E+04;  0.0000000E+00;  1.0000000E+04; -2.1303803E-04;  0.0000000E+00;  2.1041776E-06;  4.3786177E-03;
  2.2000000E-01;  9.9999998E-03; -2.0000000E-02;1384; -1.2267291E-05;  0.0000000E+00; -5.1925337E-08;  1.0000001E+03;  4.0000001E-01;  9.8762624E-02;3; -3.6131199E-02;  0.0000000E+00; -1.6910133E-04;0; -2.1159867E-04;  1.0000001E+04;  0.0000000E+00; -2.8917207E-14;  1.0000000E+04;  0.0000000E+00;  1.0000000E+04; -2.1350813E-04;  0.0000000E+00;  1.9094548E-06;  4.1489163E-03;
  2.3999999E-01;  9.9999998E-03; -1.8000001E-01;1407; -1.7090972E-05;  0.0000000E+00; -1.3162878E-06;  1.0000001E+03;  4.0000001E-01;  9.8762624E-02;3; -4.8999954E-02;  0.0000000E+00; -3.9449125E-03;0; -2.8630506E-04;  1.0000002E+04;  0.0000000E+00; -8.5755026E-08;  1.0000000E+04;  0.0000000E+00;  1.0000000E+04; -2.9895510E-04;  0.0000000E+00;  1.2650047E-05;  1.9076021E-02;
  2.3999999E-01;  9.9999998E-03; -1.6000000E-01;1408; -1.7569095E-05;  0.0000000E+00; -1.0545625E-06;  1.0000001E+03;  4.0000001E-01;  9.8762624E-02;3; -5.0343659E-02;  0.0000000E+00; -3.1886839E-03;0; -2.9605089E-04;  1.0000002E+04;  0.0000000E+00; -3.5352229E-10;  1.0000000E+04;  0.0000000E+00;  1.0000000E+04; -3.0627934E-04;  0.0000000E+00;  1.0228452E-05;  1.6107129E-02;
  2.3999999E-01;  9.9999998E-03; -1.4000000E-01;1409; -1.7936585E-05;  0.0000000E+00; -8.3425095E-07;  1.0000001E+03;  4.0000001E-01;  9.8762624E-02;3; -5.1385876E-02;  0.0000000E+00; -2.5447283E-03;0; -3.0366264E-04;  1.0000002E+04;  0.0000000E+00; -4.3279293E-13;  1.0000000E+04;  0.0000000E+00;  1.0000000E+04; -3.1191646E-04;  0.0000000E+00;  8.2538227E-06;  1.3643841E-02;
  2.3999999E-01;  9.9999998E-03; -1.2000000E-01;1410; -1.8217903E-05;  0.0000000E+00; -6.5507595E-07;  1.0000001E+03;  4.0000001E-01;  9.8762624E-02;3; -5.2190296E-02;  0.0000000E+00; -2.0204589E-03;0; -3.0949645E-04;  1.0000002E+04;  0.0000000E+00;  4.6037143E-13;  1.0000000E+04;  0.0000000E+00;  1.0000000E+04; -3.1620060E-04;  0.0000000E+00;  6.7041542E-06;  1.1681191E-02;
  2.3999999E-01;  9.9999998E-03; -1.0000000E-01;1411; -1.8433951E-05;  0.0000000E+00; -5.0313412E-07;  1.0000001E+03;  4.0000001E-01;  9.8762624E-02;3; -5.2815743E-02;  0.0000000E+00; -1.5669324E-03;0; -3.1394677E-04;  1.0000002E+04;  0.0000000E+00;  4.2477770E-13;  1.0000000E+04;  0.0000000E+00;  1.0000000E+04; -3.1942924E-04;  0.0000000E+00;  5.4824704E-06;  1.0121550E-02;
  2.3999999E-01;  9.9999998E-03; -7.9999998E-02;1412; -1.8596755E-05;  0.0000000E+00; -3.7490324E-07;  1.0000001E+03;  4.0000001E-01;  9.8762624E-02;3; -5.3291809E-02;  0.0000000E+00; -1.1777339E-03;0; -3.1729758E-04;  1.0000002E+04;  0.0000000E+00;  8.3492058E-14;  1.0000000E+04;  0.0000000E+00;  1.0000000E+04; -3.2182527E-04;  0.0000000E+00;  4.5276870E-06;  8.8965055E-03;
  2.3999999E-01;  9.9999998E-03; -5.9999999E-02;1413; -1.8715415E-05;  0.0000000E+00; -2.6372709E-07;  1.0000001E+03;  4.0000001E-01;  9.8762624E-02;3; -5.3641673E-02;  0.0000000E+00; -8.3381520E-04;0; -3.1974108E-04;  1.0000002E+04;  0.0000000E+00;  3.1340997E-13;  1.0000000E+04;  0.0000000E+00;  1.0000000E+04; -3.2354885E-04;  0.0000000E+00;  3.8077585E-06;  7.9686707E-03;
  2.3999999E-01;  9.9999998E-03; -3.9999999E-02;1414; -1.8795807E-05;  0.0000000E+00; -1.6716575E-07;  1.0000001E+03;  4.0000001E-01;  9.8762624E-02;3; -5.3879961E-02;  0.0000000E+00; -5.3094263E-04;0; -3.2140571E-04;  1.0000002E+04;  0.0000000E+00; -1.5942792E-13;  1.0000000E+04;  0.0000000E+00;  1.0000000E+04; -3.2471048E-04;  0.0000000E+00;  3.3047609E-06;  7.3178913E-03;
  2.3999999E-01;  9.9999998E-03; -2.0000000E-02;1415; -1.8842342E-05;  0.0000000E+00; -8.0824918E-08;  1.0000001E+03;  4.0000001E-01;  9.8762624E-02;3; -5.4018401E-02;  0.0000000E+00; -2.5738194E-04;0; -3.2237353E-04;  1.0000002E+04;  0.0000000E+00;  2.0567210E-14;  1.0000000E+04;  0.0000000E+00;  1.0000000E+04; -3.2538100E-04;  0.0000000E+00;  3.0074843E-06;  6.9321357E-03;
  2.5999999E-01;  9.9999998E-03; -1.8000001E-01;1438; -2.6143480E-05;  0.0000000E+00; -1.9705899E-06;  1.0000002E+03;  4.0000001E-01;  1.9752523E-01;3; -7.2840407E-02;  0.0000000E+00; -5.7549947E-03;0; -4.3336221E-04;  1.0000003E+04;  0.0000000E+00; -5.0615981E-08;  1.0000000E+04;  0.0000000E+00;  1.0000000E+04; -4.5347930E-04;  0.0000000E+00;  2.0117091E-05;  3.2212358E-02;
  2.5999999E-01;  9.9999998E-03; -1.6000000E-01;1439; -2.6812155E-05;  0.0000000E+00; -1.5752236E-06;  1.0000002E+03;  4.0000001E-01;  1.9752523E-01;3; -7.4646272E-02;  0.0000000E+00; -4.6429415E-03;0; -4.4741656E-04;  1.0000004E+04;  0.0000000E+00; -9.9109555E-13;  1.0000000E+04;  0.0000000E+00;  1.0000000E+04; -4.6341951E-04;  0.0000000E+00;  1.6002939E-05;  2.6884109E-02;
  2.5999999E-01;  9.9999998E-03; -1.4000000E-01;1440; -2.7323134E-05;  0.0000000E+00; -1.2461317E-06;  1.0000002E+03;  4.0000001E-01;  1.9752523E-01;3; -7.6039217E-02;  0.0000000E+00; -3.7057311E-03;0; -4.5830765E-04;  1.0000004E+04;  0.0000000E+00; -9.5480850E-13;  1.0000000E+04;  0.0000000E+00;  1.0000000E+04; -4.7107626E-04;  0.0000000E+00;  1.2768612E-05;  2.2608874E-02;
  2.5999999E-01;  9.9999998E-03; -1.2000000E-01;1441; -2.7712431E-05;  0.0000000E+00; -9.8033195E-07;  1.0000002E+03;  4.0000001E-01;  1.9752523E-01;3; -7.7108480E-02;  0.0000000E+00; -2.9511009E-03;0; -4.6659639E-04;  1.0000004E+04;  0.0000000E+00;  9.2527060E-13;  1.0000000E+04;  0.0000000E+00;  1.0000000E+04; -4.7690811E-04;  0.0000000E+00;  1.0311726E-05;  1.9285627E-02;
  2.5999999E-01;  9.9999998E-03; -1.0000000E-01;1442; -2.8010920E-05;  0.0000000E+00; -7.5502300E-07;  1.0000002E+03;  4.0000001E-01;  1.9752523E-01;3; -7.7939734E-02;  0.0000000E+00; -2.2966363E-03;0; -4.7289734E-04;  1.0000004E+04;  0.0000000E+00;  3.2208158E-13;  1.0000000E+04;  0.0000000E+00;  1.0000000E+04; -4.8132174E-04;  0.0000000E+00;  8.4244020E-06;  1.6685603E-02;
  2.5999999E-01;  9.9999998E-03; -7.9999998E-02;1443; -2.8235627E-05;  0.0000000E+00; -5.6433169E-07;  1.0000002E+03;  4.0000001E-01;  1.9752523E-01;3; -7.8572564E-02;  0.0000000E+00; -1.7326275E-03;0; -4.7764147E-04;  1.0000004E+04;  0.0000000E+00;  1.3830343E-13;  1.0000000E+04;  0.0000000E+00;  1.0000000E+04; -4.8461417E-04;  0.0000000E+00;  6.9726980E-06;  1.4656568E-02;
  2.5999999E-01;  9.9999998E-03; -5.9999999E-02;1444; -2.8399427E-05;  0.0000000E+00; -3.9846307E-07;  1.0000002E+03;  4.0000001E-01;  1.9752523E-01;3; -7.9038359E-02;  0.0000000E+00; -1.2314006E-03;0; -4.8110948E-04;  1.0000004E+04;  0.0000000E+00;  1.3505091E-13;  1.0000000E+04;  0.0000000E+00;  1.0000000E+04; -4.8699553E-04;  0.0000000E+00;  5.8860501E-06;  1.3120654E-02;
  2.5999999E-01;  9.9999998E-03; -3.9999999E-02;1445; -2.8510687E-05;  0.0000000E+00; -2.5362419E-07;  1.0000002E+03;  4.0000001E-01;  1.9752523E-01;3; -7.9356685E-02;  0.0000000E+00; -7.8741205E-04;0; -4.8348002E-04;  1.0000004E+04;  0.0000000E+00; -9.7823842E-14;  1.0000000E+04;  0.0000000E+00;  1.0000000E+04; -4.8860826E-04;  0.0000000E+00;  5.1282509E-06;  1.2041164E-02;
  2.5999999E-01;  9.9999998E-03; -2.0000000E-02;1446; -2.8575361E-05;  0.0000000E+00; -1.2303592E-07;  1.0000002E+03;  4.0000001E-01;  1.9752523E-01;3; -7.9542540E-02;  0.0000000E+00; -3.8299413E-04;0; -4.8486207E-04;  1.0000004E+04;  0.0000000E+00; -4.0039020E-14;  1.0000000E+04;  0.0000000E+00;  1.0000000E+04; -4.8954220E-04;  0.0000000E+00;  4.6801342E-06;  1.1399786E-02;
  2.8000000E-01;  9.9999998E-03; -1.8000001E-01;1469; -3.9612660E-05;  0.0000000E+00; -2.9080315E-06;  1.0000002E+03;  4.0000001E-01;  1.9752523E-01;3; -1.0696928E-01;  0.0000000E+00; -8.2525210E-03;0; -6.4837624E-04;  1.0000005E+04;  0.0000000E+00; -1.0006207E-08;  1.0000000E+04;  0.0000000E+00;  1.0000000E+04; -6.7968591E-04;  0.0000000E+00;  3.1309683E-05;  5.3354971E-02;
  2.8000000E-01;  9.9999998E-03; -1.6000000E-01;1470; -4.0527189E-05;  0.0000000E+00; -2.3175487E-06;  1.0000002E+03;  4.0000001E-01;  1.9752523E-01;3; -1.0932172E-01;  0.0000000E+00; -6.6401549E-03;0; -6.6823722E-04;  1.0000005E+04;  0.0000000E+00; -1.7021705E-12;  1.0000000E+04;  0.0000000E+00;  1.0000000E+04; -6.9283409E-04;  0.0000000E+00;  2.4596888E-05;  4.4124164E-02;
  2.8000000E-01;  9.9999998E-03; -1.4000000E-01;1471; -4.1219573E-05;  0.0000000E+00; -1.8320919E-06;  1.0000002E+03;  4.0000001E-01;  1.9752523E-01;3; -1.1111924E-01;  0.0000000E+00; -5.2983812E-03;0; -6.8352115E-04;  1.0000005E+04;  0.0000000E+00; -1.2908340E-12;  1.0000000E+04;  0.0000000E+00;  1.0000000E+04; -7.0297974E-04;  0.0000000E+00;  1.9458581E-05;  3.6900636E-02;
  2.8000000E-01;  9.9999998E-03; -1.2000000E-01;1472; -4.1743420E-05;  0.0000000E+00; -1.4421400E-06;  1.0000002E+03;  4.0000001E-01;  1.9752523E-01;3; -1.1248896E-01;  0.0000000E+00; -4.2268750E-03;0; -6.9506792E-04;  1.0000005E+04;  0.0000000E+00;  7.4976809E-13;  1.0000000E+04;  0.0000000E+00;  1.0000000E+04; -7.1072602E-04;  0.0000000E+00;  1.5658106E-05;  3.1397123E-02;
  2.8000000E-01;  9.9999998E-03; -1.0000000E-01;1473; -4.2143842E-05;  0.0000000E+00; -1.1123085E-06;  1.0000002E+03;  4.0000001E-01;  1.9752523E-01;3; -1.1355229E-01;  0.0000000E+00; -3.2972728E-03;0; -7.0381793E-04;  1.0000005E+04;  0.0000000E+00;  8.9371506E-13;  1.0000000E+04;  0.0000000E+00;  1.0000000E+04; -7.1661553E-04;  0.0000000E+00;  1.2797586E-05;  2.7137913E-02;
  2.8000000E-01;  9.9999998E-03; -7.9999998E-02;1474; -4.2444728E-05;  0.0000000E+00; -8.3271249E-07;  1.0000002E+03;  4.0000001E-01;  1.9752523E-01;3; -1.1436126E-01;  0.0000000E+00; -2.4941275E-03;0; -7.1041001E-04;  1.0000005E+04;  0.0000000E+00; -1.0461341E-13;  1.0000000E+04;  0.0000000E+00;  1.0000000E+04; -7.2103215E-04;  0.0000000E+00;  1.0622118E-05;  2.3821687E-02;
  2.8000000E-01;  9.9999998E-03; -5.9999999E-02;1475; -4.2664255E-05;  0.0000000E+00; -5.8945659E-07;  1.0000002E+03;  4.0000001E-01;  1.9752523E-01;3; -1.1495878E-01;  0.0000000E+00; -1.7783629E-03;0; -7.1524316E-04;  1.0000005E+04;  0.0000000E+00; -9.7140610E-15;  1.0000000E+04;  0.0000000E+00;  1.0000000E+04; -7.2424312E-04;  0.0000000E+00;  8.9999594E-06;  2.1304749E-02;
  2.8000000E-01;  9.9999998E-03; -3.9999999E-02;1476; -4.2813746E-05;  0.0000000E+00; -3.7634811E-07;  1.0000002E+03;  4.0000001E-01;  1.9752523E-01;3; -1.1536925E-01;  0.0000000E+00; -1.1412540E-03;0; -7.1855832E-04;  1.0000005E+04;  0.0000000E+00; -6.9628832E-14;  1.0000000E+04;  0.0000000E+00;  1.0000000E+04; -7.2642643E-04;  0.0000000E+00;  7.8681314E-06;  1.9528501E-02;
  2.8000000E-01;  9.9999998E-03; -2.0000000E-02;1477; -4.2900800E-05;  0.0000000E+00; -1.8305853E-07;  1.0000002E+03;  4.0000001E-01;  1.9752523E-01;3; -1.1560977E-01;  0.0000000E+00; -5.5672094E-04;0; -7.2049722E-04;  1.0000005E+04;  0.0000000E+00; -2.1233137E-13;  1.0000000E+04;  0.0000000E+00;  1.0000000E+04; -7.2769471E-04;  0.0000000E+00;  7.1974982E-06;  1.8469442E-02;
  2.9999998E-01;  9.9999998E-03; -1.8000001E-01;1500; -5.9536324E-05;  0.0000000E+00; -4.2479451E-06;  1.0000003E+03;  4.0000001E-01;  2.9628780E-01;3; -1.5543528E-01;  0.0000000E+00; -1.1682657E-02;0; -9.5940422E-04;  1.0000007E+04;  0.0000000E+00; -2.2176642E-12;  1.0000000E+04;  0.0000000E+00;  1.0000000E+04; -1.0071989E-03;  0.0000000E+00;  4.7794703E-05;  8.6814716E-02;
  2.9999998E-01;  9.9999998E-03; -1.6000000E-01;1501; -6.0763672E-05;  0.0000000E+00; -3.3736640E-06;  1.0000003E+03;  4.0000001E-01;  2.9628780E-01;3; -1.5841135E-01;  0.0000000E+00; -9.3692699E-03;0; -9.8696549E-04;  1.0000008E+04;  0.0000000E+00; -5.7328404E-12;  1.0000000E+04;  0.0000000E+00;  1.0000000E+04; -1.0241736E-03;  0.0000000E+00;  3.7208123E-05;  7.1303762E-02;
  2.9999998E-01;  9.9999998E-03; -1.4000000E-01;1502; -6.1684674E-05;  0.0000000E+00; -2.6606003E-06;  1.0000003E+03;  4.0000001E-01;  2.9628780E-01;3; -1.6066529E-01;  0.0000000E+00; -7.4616037E-03;0; -1.0080192E-03;  1.0000008E+04;  0.0000000E+00; -6.6150785E-13;  1.0000000E+04;  0.0000000E+00;  1.0000000E+04; -1.0372949E-03;  0.0000000E+00;  2.9275670E-05;  5.9408762E-02;
  2.9999998E-01;  9.9999998E-03; -1.2000000E-01;1503; -6.2374820E-05;  0.0000000E+00; -2.0916227E-06;  1.0000003E+03;  4.0000001E-01;  2.9628780E-01;3; -1.6236471E-01;  0.0000000E+00; -5.9521450E-03;0; -1.0238168E-03;  1.0000008E+04;  0.0000000E+00;  5.7491333E-13;  1.0000000E+04;  0.0000000E+00;  1.0000000E+04; -1.0473487E-03;  0.0000000E+00;  2.3531968E-05;  5.0485216E-02;
  2.9999998E-01;  9.9999998E-03; -1.0000000E-01;1504; -6.2898755E-05;  0.0000000E+00; -1.6135301E-06;  1.0000004E+03;  4.0000001E-01;  3.9505041E-01;3; -1.6367728E-01;  0.0000000E+00; -4.6496615E-03;0; -1.0357619E-03;  1.0000008E+04;  0.0000000E+00;  1.4950938E-12;  1.0000000E+04;  0.0000000E+00;  1.0000000E+04; -1.0550295E-03;  0.0000000E+00;  1.9267547E-05;  4.3615248E-02;
  2.9999998E-01;  9.9999998E-03; -7.9999998E-02;1505; -6.3292508E-05;  0.0000000E+00; -1.2088610E-06;  1.0000004E+03;  4.0000001E-01;  3.9505041E-01;3; -1.6467936E-01;  0.0000000E+00; -3.5250706E-03;0; -1.0447778E-03;  1.0000008E+04;  0.0000000E+00;  1.4379044E-13;  1.0000000E+04;  0.0000000E+00;  1.0000000E+04; -1.0608180E-03;  0.0000000E+00;  1.6040223E-05;  3.8251426E-02;
  2.9999998E-01;  9.9999998E-03; -5.9999999E-02;1506; -6.3581014E-05;  0.0000000E+00; -8.5746990E-07;  1.0000004E+03;  4.0000001E-01;  3.9505041E-01;3; -1.6542642E-01;  0.0000000E+00; -2.5221601E-03;0; -1.0514121E-03;  1.0000008E+04;  0.0000000E+00;  6.7449993E-14;  1.0000000E+04;  0.0000000E+00;  1.0000000E+04; -1.0650430E-03;  0.0000000E+00;  1.3630909E-05;  3.4155041E-02;
  2.9999998E-01;  9.9999998E-03; -3.9999999E-02;1507; -6.3778309E-05;  0.0000000E+00; -5.4875824E-07;  1.0000004E+03;  4.0000001E-01;  3.9505041E-01;3; -1.6594410E-01;  0.0000000E+00; -1.6243634E-03;0; -1.0559825E-03;  1.0000008E+04;  0.0000000E+00;  1.4768263E-14;  1.0000000E+04;  0.0000000E+00;  1.0000000E+04; -1.0679261E-03;  0.0000000E+00;  1.1943542E-05;  3.1246347E-02;
  2.9999998E-01;  9.9999998E-03; -2.0000000E-02;1508; -6.3893604E-05;  0.0000000E+00; -2.6735958E-07;  1.0000004E+03;  4.0000001E-01;  3.9505041E-01;3; -1.6624965E-01;  0.0000000E+00; -7.9427264E-04;0; -1.0586646E-03;  1.0000008E+04;  0.0000000E+00;  2.7849261E-14;  1.0000000E+04;  0.0000000E+00;  1.0000000E+04; -1.0696047E-03;  0.0000000E+00;  1.0939965E-05;  2.9504389E-02;
  3.1999999E-01;  9.9999998E-03; -1.8000001E-01;1531; -8.8745823E-05;  0.0000000E+00; -6.1526348E-06;  1.0000005E+03;  4.0000001E-01;  3.9505041E-01;3; -2.2366156E-01;  0.0000000E+00; -1.6338741E-02;0; -1.4044896E-03;  1.0000012E+04;  0.0000000E+00;  3.3669495E-12;  1.0000000E+04;  0.0000000E+00;  1.0000000E+04; -1.4762820E-03;  0.0000000E+00;  7.1792361E-05;  1.3911478E-01;
  3.1999999E-01;  9.9999998E-03; -1.6000000E-01;1532; -9.0371374E-05;  0.0000000E+00; -4.8708198E-06;  1.0000005E+03;  4.0000001E-01;  3.9505041E-01;3; -2.2734073E-01;  0.0000000E+00; -1.3069496E-02;0; -1.4420806E-03;  1.0000012E+04;  0.0000000E+00;  3.4162898E-12;  1.0000000E+04;  0.0000000E+00;  1.0000000E+04; -1.4976424E-03;  0.0000000E+00;  5.5561810E-05;  1.1369637E-01;
  3.1999999E-01;  9.9999998E-03; -1.4000000E-01;1533; -9.1582900E-05;  0.0000000E+00; -3.8358726E-06;  1.0000005E+03;  4.0000001E-01;  3.9505041E-01;3; -2.3010764E-01;  0.0000000E+00; -1.0401514E-02;0; -1.4706003E-03;  1.0000012E+04;  0.0000000E+00;  2.8091258E-12;  1.0000000E+04;  0.0000000E+00;  1.0000000E+04; -1.5142271E-03;  0.0000000E+00;  4.3626886E-05;  9.4549045E-02;
  3.1999996E-01;  9.9999998E-03; -1.2000000E-01;1534; -9.2485883E-05;  0.0000000E+00; -3.0082231E-06;  1.0000005E+03;  4.0000001E-01;  3.9505041E-01;3; -2.3218052E-01;  0.0000000E+00; -8.2879672E-03;0; -1.4918856E-03;  1.0000012E+04;  0.0000000E+00; -1.0568173E-12;  1.0000000E+04;  0.0000000E+00;  1.0000000E+04; -1.5270045E-03;  0.0000000E+00;  3.5118937E-05;  8.0336183E-02;
  3.1999996E-01;  9.9999998E-03; -1.0000000E-01;1535; -9.3168856E-05;  0.0000000E+00; -2.3185523E-06;  1.0000005E+03;  4.0000001E-01;  4.9381301E-01;3; -2.3378062E-01;  0.0000000E+00; -6.4807576E-03;0; -1.5079770E-03;  1.0000012E+04;  0.0000000E+00;  2.7979474E-12;  1.0000000E+04;  0.0000000E+00;  1.0000000E+04; -1.5368140E-03;  0.0000000E+00;  2.8836976E-05;  6.9382608E-02;
  3.1999996E-01;  9.9999998E-03; -7.9999998E-02;1536; -9.3682567E-05;  0.0000000E+00; -1.7376752E-06;  1.0000005E+03;  4.0000001E-01;  4.9381301E-01;3; -2.3501074E-01;  0.0000000E+00; -4.9260990E-03;0; -1.5201689E-03;  1.0000012E+04;  0.0000000E+00;  1.0334952E-12;  1.0000000E+04;  0.0000000E+00;  1.0000000E+04; -1.5442362E-03;  0.0000000E+00;  2.4067374E-05;  6.0760979E-02;
  3.1999996E-01;  9.9999998E-03; -5.9999999E-02;1537; -9.4060175E-05;  0.0000000E+00; -1.2342798E-06;  1.0000005E+03;  4.0000001E-01;  4.9381301E-01;3; -2.3593742E-01;  0.0000000E+00; -3.5369601E-03;0; -1.5291874E-03;  1.0000012E+04;  0.0000000E+00; -2.5645116E-13;  1.0000000E+04;  0.0000000E+00;  1.0000000E+04; -1.5496681E-03;  0.0000000E+00;  2.0480691E-05;  5.4114651E-02;
  3.1999996E-01;  9.9999998E-03; -3.9999999E-02;1538; -9.4319315E-05;  0.0000000E+00; -7.9098027E-07;  1.0000005E+03;  4.0000001E-01;  4.9381301E-01;3; -2.3658583E-01;  0.0000000E+00; -2.2852491E-03;0; -1.5354300E-03;  1.0000012E+04;  0.0000000E+00; -5.7332540E-13;  1.0000000E+04;  0.0000000E+00;  1.0000000E+04; -1.5533802E-03;  0.0000000E+00;  1.7950153E-05;  4.9359903E-02;
  3.1999996E-01;  9.9999998E-03; -2.0000000E-02;1539; -9.4471019E-05;  0.0000000E+00; -3.8567214E-07;  1.0000005E+03;  4.0000001E-01;  4.9381301E-01;3; -2.3697080E-01;  0.0000000E+00; -1.1195971E-03;0; -1.5391064E-03;  1.0000012E+04;  0.0000000E+00;  1.1792653E-13;  1.0000000E+04;  0.0000000E+00;  1.0000000E+04; -1.5555433E-03;  0.0000000E+00;  1.6436859E-05;  4.6498772E-02;
  3.3999997E-01;  9.9999998E-03; -1.8000001E-01;1562; -1.3100763E-04;  0.0000000E+00; -8.8685601E-06;  1.0000008E+03;  4.0000001E-01;  6.9133818E-01;3; -3.1863123E-01;  0.0000000E+00; -2.2708183E-02;0; -2.0339957E-03;  1.0000017E+04;  0.0000000E+00;  8.2025853E-12;  1.0000000E+04;  0.0000000E+00;  9.9999990E+03; -2.1404803E-03;  0.0000000E+00;  1.0648466E-04;  2.2021542E-01;
  3.3999997E-01;  9.9999998E-03; -1.6000000E-01;1563; -1.3313364E-04;  0.0000000E+00; -7.0142064E-06;  1.0000009E+03;  4.0000001E-01;  6.9133818E-01;3; -3.2308212E-01;  0.0000000E+00; -1.8136777E-02;0; -2.0844073E-03;  1.0000018E+04;  0.0000000E+00; -2.3977166E-11;  1.0000000E+04;  0.0000000E+00;  1.0000000E+04; -2.1666242E-03;  0.0000000E+00;  8.2217011E-05;  1.7941880E-01;
  3.3999997E-01;  9.9999998E-03; -1.4000000E-01;1564; -1.3471484E-04;  0.0000000E+00; -5.5272826E-06;  1.0000009E+03;  4.0000001E-01;  6.9133818E-01;3; -3.2641113E-01;  0.0000000E+00; -1.4462039E-02;0; -2.1224848E-03;  1.0000018E+04;  0.0000000E+00; -4.8779288E-12;  1.0000000E+04;  0.0000000E+00;  1.0000000E+04; -2.1871382E-03;  0.0000000E+00;  6.4653352E-05;  1.4913981E-01;
  3.3999997E-01;  9.9999998E-03; -1.2000000E-01;1565; -1.3589773E-04;  0.0000000E+00; -4.3266300E-06;  1.0000009E+03;  4.0000001E-01;  6.9133818E-01;3; -3.2891655E-01;  0.0000000E+00; -1.1518718E-02;0; -2.1508245E-03;  1.0000018E+04;  0.0000000E+00;  2.5967104E-12;  1.0000000E+04;  0.0000000E+00;  1.0000000E+04; -2.2030666E-03;  0.0000000E+00;  5.2242143E-05;  1.2677658E-01;
  3.3999997E-01;  9.9999998E-03; -1.0000000E-01;1566; -1.3679586E-04;  0.0000000E+00; -3.3302351E-06;  1.0000009E+03;  4.0000001E-01;  6.9133818E-01;3; -3.3086944E-01;  0.0000000E+00; -9.0178316E-03;0; -2.1723183E-03;  1.0000018E+04;  0.0000000E+00;  2.2613782E-12;  1.0000000E+04;  0.0000000E+00;  1.0000000E+04; -2.2153568E-03;  0.0000000E+00;  4.3038603E-05;  1.0941318E-01;
  3.3999997E-01;  9.9999998E-03; -7.9999998E-02;1567; -1.3747354E-04;  0.0000000E+00; -2.4929766E-06;  1.0000009E+03;  4.0000001E-01;  7.9010075E-01;3; -3.3238819E-01;  0.0000000E+00; -6.8653072E-03;0; -2.1887089E-03;  1.0000018E+04;  0.0000000E+00;  1.2681207E-12;  1.0000000E+04;  0.0000000E+00;  1.0000000E+04; -2.2246731E-03;  0.0000000E+00;  3.5964116E-05;  9.5575169E-02;
  3.3999997E-01;  9.9999998E-03; -5.9999999E-02;1568; -1.3797193E-04;  0.0000000E+00; -1.7701362E-06;  1.0000009E+03;  4.0000001E-01;  7.9010075E-01;3; -3.3354211E-01;  0.0000000E+00; -4.9409796E-03;0; -2.2009166E-03;  1.0000018E+04;  0.0000000E+00; -1.4302326E-12;  1.0000000E+04;  0.0000000E+00;  1.0000000E+04; -2.2314896E-03;  0.0000000E+00;  3.0573025E-05;  8.4788553E-02;
  3.3999997E-01;  9.9999998E-03; -3.9999999E-02;1569; -1.3831415E-04;  0.0000000E+00; -1.1340363E-06;  1.0000009E+03;  4.0000001E-01;  7.9010075E-01;3; -3.3435583E-01;  0.0000000E+00; -3.1986681E-03;0; -2.2094152E-03;  1.0000018E+04;  0.0000000E+00; -4.7846366E-16;  1.0000000E+04;  0.0000000E+00;  1.0000000E+04; -2.2361451E-03;  0.0000000E+00;  2.6729953E-05;  7.7013947E-02;
  3.3999997E-01;  9.9999998E-03; -2.0000000E-02;1570; -1.3851466E-04;  0.0000000E+00; -5.5279133E-07;  1.0000009E+03;  4.0000001E-01;  7.9010075E-01;3; -3.3484215E-01;  0.0000000E+00; -1.5689057E-03;0; -2.2144401E-03;  1.0000018E+04;  0.0000000E+00; -6.7202510E-13;  1.0000000E+04;  0.0000000E+00;  1.0000000E+04; -2.2388569E-03;  0.0000000E+00;  2.4416770E-05;  7.2316103E-02;
  3.5999995E-01;  9.9999998E-03; -1.8000001E-01;1593; -1.9107168E-04;  0.0000000E+00; -1.2766819E-05;  1.0000012E+03;  4.0000001E-01;  9.8762578E-01;3; -4.4886029E-01;  0.0000000E+00; -3.1459883E-02;0; -2.9127470E-03;  1.0000025E+04;  0.0000000E+00; -1.6846026E-11;  1.0000000E+04;  0.0000000E+00;  9.9999990E+03; -3.0693344E-03;  0.0000000E+00;  1.5658740E-04;  3.4570968E-01;
  3.5999995E-01;  9.9999998E-03; -1.6000000E-01;1594; -1.9379181E-04;  0.0000000E+00; -1.0128852E-05;  1.0000012E+03;  4.0000001E-01;  9.8762578E-01;3; -4.5405251E-01;  0.0000000E+00; -2.5208320E-02;0; -2.9792874E-03;  1.0000025E+04;  0.0000000E+00;  2.6785350E-11;  1.0000000E+04;  0.0000000E+00;  9.9999990E+03; -3.1003708E-03;  0.0000000E+00;  1.2108325E-04;  2.8119692E-01;
  3.5999995E-01;  9.9999998E-03; -1.4000000E-01;1595; -1.9582841E-04;  0.0000000E+00; -8.0032924E-06;  1.0000012E+03;  4.0000001E-01;  9.8762578E-01;3; -4.5793745E-01;  0.0000000E+00; -2.0186896E-02;0; -3.0295108E-03;  1.0000025E+04;  0.0000000E+00;  1.4368141E-11;  1.0000000E+04;  0.0000000E+00;  9.9999990E+03; -3.1251914E-03;  0.0000000E+00;  9.5680480E-05;  2.3380953E-01;
  3.5999995E-01;  9.9999998E-03; -1.2000000E-01;1596; -1.9737562E-04;  0.0000000E+00; -6.2600238E-06;  1.0000012E+03;  4.0000001E-01;  9.8762578E-01;3; -4.6092084E-01;  0.0000000E+00; -1.6093541E-02;0; -3.0669430E-03;  1.0000025E+04;  0.0000000E+00;  1.1608271E-11;  1.0000000E+04;  0.0000000E+00;  1.0000000E+04; -3.1446731E-03;  0.0000000E+00;  7.7730132E-05;  1.9877043E-01;
  3.5999995E-01;  9.9999998E-03; -1.0000000E-01;1597; -1.9856395E-04;  0.0000000E+00; -4.8103238E-06;  1.0000012E+03;  4.0000001E-01;  9.8762578E-01;3; -4.6329400E-01;  0.0000000E+00; -1.2614158E-02;0; -3.0955356E-03;  1.0000025E+04;  0.0000000E+00;  6.5055756E-12;  1.0000000E+04;  0.0000000E+00;  1.0000000E+04; -3.1597514E-03;  0.0000000E+00;  6.4215965E-05;  1.7121924E-01;
  3.5999995E-01;  9.9999998E-03; -7.9999998E-02;1598; -1.9946820E-04;  0.0000000E+00; -3.5904150E-06;  1.0000013E+03;  4.0000001E-01;  1.0863883E+00;3; -4.6517655E-01;  0.0000000E+00; -9.6031716E-03;0; -3.1175453E-03;  1.0000025E+04;  0.0000000E+00;  2.4104848E-12;  1.0000000E+04;  0.0000000E+00;  1.0000000E+04; -3.1711569E-03;  0.0000000E+00;  5.3611566E-05;  1.4894384E-01;
  3.5999995E-01;  9.9999998E-03; -6.0000002E-02;1599; -2.0013447E-04;  0.0000000E+00; -2.5426161E-06;  1.0000013E+03;  4.0000001E-01;  1.0863883E+00;3; -4.6662402E-01;  0.0000000E+00; -6.9139125E-03;0; -3.1340832E-03;  1.0000025E+04;  0.0000000E+00;  1.6243519E-12;  1.0000000E+04;  0.0000000E+00;  1.0000000E+04; -3.1794717E-03;  0.0000000E+00;  4.5388530E-05;  1.3139990E-01;
  3.5999995E-01;  9.9999998E-03; -3.9999999E-02;1600; -2.0059178E-04;  0.0000000E+00; -1.6251731E-06;  1.0000013E+03;  4.0000001E-01;  1.0863883E+00;3; -4.6765369E-01;  0.0000000E+00; -4.4768341E-03;0; -3.1456714E-03;  1.0000025E+04;  0.0000000E+00;  6.8650359E-13;  1.0000000E+04;  0.0000000E+00;  1.0000000E+04; -3.1851314E-03;  0.0000000E+00;  3.9459959E-05;  1.1868321E-01;
  3.5999995E-01;  9.9999998E-03; -2.0000000E-02;1601; -2.0085930E-04;  0.0000000E+00; -7.9103694E-07;  1.0000013E+03;  4.0000001E-01;  1.0863883E+00;3; -4.6827182E-01;  0.0000000E+00; -2.1960873E-03;0; -3.1525493E-03;  1.0000025E+04;  0.0000000E+00; -7.3947809E-13;  1.0000000E+04;  0.0000000E+00;  1.0000000E+04; -3.1884185E-03;  0.0000000E+00;  3.5869281E-05;  1.1097990E-01;
  3.7999994E-01;  9.9999998E-03; -1.8000001E-01;1624; -2.7477543E-04;  0.0000000E+00; -1.8379034E-05;  1.0000017E+03;  4.0000001E-01;  1.3826759E+00;3; -6.2410706E-01;  0.0000000E+00; -4.3656226E-02;0; -4.1219885E-03;  1.0000036E+04;  0.0000000E+00; -5.4073131E-11;  1.0000000E+04;  0.0000000E+00;  9.9999990E+03; -4.3513672E-03;  0.0000000E+00;  2.2937874E-04;  5.4070187E-01;
  3.7999994E-01;  9.9999998E-03; -1.6000000E-01;1625; -2.7814583E-04;  0.0000000E+00; -1.4680229E-05;  1.0000017E+03;  4.0000001E-01;  1.3826759E+00;3; -6.2981910E-01;  0.0000000E+00; -3.5212874E-02;0; -4.2085941E-03;  1.0000036E+04;  0.0000000E+00;  2.2004914E-11;  1.0000000E+04;  0.0000000E+00;  9.9999990E+03; -4.3868665E-03;  0.0000000E+00;  1.7827257E-04;  4.3928316E-01;
  3.7999994E-01;  9.9999998E-03; -1.4000000E-01;1626; -2.8071378E-04;  0.0000000E+00; -1.1655603E-05;  1.0000018E+03;  4.0000001E-01;  1.4814385E+00;3; -6.3415110E-01;  0.0000000E+00; -2.8369104E-02;0; -4.2742556E-03;  1.0000037E+04;  0.0000000E+00; -4.3742839E-12;  1.0000000E+04;  0.0000000E+00;  9.9999990E+03; -4.4161552E-03;  0.0000000E+00;  1.4189957E-04;  3.6516878E-01;
  3.7999994E-01;  9.9999998E-03; -1.2000000E-01;1627; -2.8271673E-04;  0.0000000E+00; -9.1204038E-06;  1.0000018E+03;  4.0000001E-01;  1.4814385E+00;3; -6.3760710E-01;  0.0000000E+00; -2.2664096E-02;0; -4.3234951E-03;  1.0000037E+04;  0.0000000E+00;  1.6971747E-11;  1.0000000E+04;  0.0000000E+00;  9.9999990E+03; -4.4394243E-03;  0.0000000E+00;  1.1592905E-04;  3.0998680E-01;
  3.7999994E-01;  9.9999998E-03; -1.0000000E-01;1628; -2.8428668E-04;  0.0000000E+00; -6.9931775E-06;  1.0000018E+03;  4.0000001E-01;  1.4814385E+00;3; -6.4045596E-01;  0.0000000E+00; -1.7768884E-02;0; -4.3615215E-03;  1.0000037E+04;  0.0000000E+00;  9.8832253E-12;  1.0000000E+04;  0.0000000E+00;  9.9999990E+03; -4.4574067E-03;  0.0000000E+00;  9.5885407E-05;  2.6595399E-01;
  3.7999994E-01;  9.9999998E-03; -7.9999998E-02;1629; -2.8549795E-04;  0.0000000E+00; -5.1978095E-06;  1.0000018E+03;  4.0000001E-01;  1.4814385E+00;3; -6.4278227E-01;  0.0000000E+00; -1.3509360E-02;0; -4.3911370E-03;  1.0000037E+04;  0.0000000E+00;  2.5549246E-12;  1.0000000E+04;  0.0000000E+00;  1.0000000E+04; -4.4708918E-03;  0.0000000E+00;  7.9754580E-05;  2.2990763E-01;
  3.7999994E-01;  9.9999998E-03; -6.0000002E-02;1630; -2.8639581E-04;  0.0000000E+00; -3.6638708E-06;  1.0000018E+03;  4.0000001E-01;  1.4814385E+00;3; -6.4460564E-01;  0.0000000E+00; -9.7091980E-03;0; -4.4136131E-03;  1.0000037E+04;  0.0000000E+00; -4.3438164E-13;  1.0000000E+04;  0.0000000E+00;  1.0000000E+04; -4.4806353E-03;  0.0000000E+00;  6.7021960E-05;  2.0132974E-01;
  3.7999994E-01;  9.9999998E-03; -3.9999999E-02;1631; -2.8701185E-04;  0.0000000E+00; -2.3321938E-06;  1.0000018E+03;  4.0000001E-01;  1.4814385E+00;3; -6.4591420E-01;  0.0000000E+00; -6.2766639E-03;0; -4.4294689E-03;  1.0000037E+04;  0.0000000E+00;  1.5965856E-12;  1.0000000E+04;  0.0000000E+00;  1.0000000E+04; -4.4872207E-03;  0.0000000E+00;  5.7751553E-05;  1.8057202E-01;
  3.7999994E-01;  9.9999998E-03; -2.0000000E-02;1632; -2.8737134E-04;  0.0000000E+00; -1.1320975E-06;  1.0000018E+03;  4.0000001E-01;  1.4814385E+00;3; -6.4670330E-01;  0.0000000E+00; -3.0756064E-03;0; -4.4389199E-03;  1.0000037E+04;  0.0000000E+00; -1.9340228E-12;  1.0000000E+04;  0.0000000E+00;  1.0000000E+04; -4.4910321E-03;  0.0000000E+00;  5.2112347E-05;  1.6799910E-01;
  3.9999989E-01;  9.9999998E-03; -1.8000001E-01;1655; -3.8964002E-04;  0.0000000E+00; -2.6504178E-05;  1.0000025E+03;  4.0000001E-01;  2.0740135E+00;3; -8.5546988E-01;  0.0000000E+00; -6.0840372E-02;0; -5.7607689E-03;  1.0000052E+04;  0.0000000E+00; -5.2584100E-11;  1.0000000E+04;  0.0000000E+00;  9.9999971E+03; -6.0972366E-03;  0.0000000E+00;  3.3646793E-04;  8.4641361E-01;
  3.9999989E-01;  9.9999998E-03; -1.6000001E-01;1656; -3.9363551E-04;  0.0000000E+00; -2.1366577E-05;  1.0000026E+03;  4.0000001E-01;  2.1727760E+00;3; -8.6117125E-01;  0.0000000E+00; -4.9549252E-02;0; -5.8724205E-03;  1.0000052E+04;  0.0000000E+00; -3.8846270E-12;  1.0000000E+04;  0.0000000E+00;  9.9999980E+03; -6.1358316E-03;  0.0000000E+00;  2.6341109E-04;  6.8600160E-01;
  3.9999989E-01;  9.9999998E-03; -1.4000000E-01;1657; -3.9677482E-04;  0.0000000E+00; -1.7053506E-05;  1.0000026E+03;  4.0000001E-01;  2.1727760E+00;3; -8.6567408E-01;  0.0000000E+00; -4.0172826E-02;0; -5.9579401E-03;  1.0000054E+04;  0.0000000E+00;  3.6569948E-11;  1.0000000E+04;  0.0000000E+00;  9.9999990E+03; -6.1692405E-03;  0.0000000E+00;  2.1130052E-04;  5.6884724E-01;
  3.9999989E-01;  9.9999998E-03; -1.2000000E-01;1658; -3.9930621E-04;  0.0000000E+00; -1.3348053E-05;  1.0000026E+03;  4.0000001E-01;  2.1727760E+00;3; -8.6948651E-01;  0.0000000E+00; -3.2156520E-02;0; -6.0227537E-03;  1.0000054E+04;  0.0000000E+00;  1.3078401E-11;  1.0000000E+04;  0.0000000E+00;  9.9999990E+03; -6.1960872E-03;  0.0000000E+00;  1.7333339E-04;  4.8080030E-01;
  3.9999989E-01;  9.9999998E-03; -1.0000000E-01;1659; -4.0134101E-04;  0.0000000E+00; -1.0199720E-05;  1.0000026E+03;  4.0000001E-01;  2.1727760E+00;3; -8.7279975E-01;  0.0000000E+00; -2.5163144E-02;0; -6.0734753E-03;  1.0000054E+04;  0.0000000E+00;  1.3428420E-11;  1.0000000E+04;  0.0000000E+00;  9.9999990E+03; -6.2166112E-03;  0.0000000E+00;  1.4313596E-04;  4.0968671E-01;
  3.9999989E-01;  9.9999998E-03; -7.9999998E-02;1660; -4.0293796E-04;  0.0000000E+00; -7.5409262E-06;  1.0000026E+03;  4.0000001E-01;  2.1727760E+00;3; -8.7560773E-01;  0.0000000E+00; -1.9077776E-02;0; -6.1134589E-03;  1.0000054E+04;  0.0000000E+00;  1.6357609E-12;  1.0000000E+04;  0.0000000E+00;  9.9999990E+03; -6.2317052E-03;  0.0000000E+00;  1.1824629E-04;  3.5110861E-01;
  3.9999989E-01;  9.9999998E-03; -6.0000002E-02;1661; -4.0413332E-04;  0.0000000E+00; -5.2826654E-06;  1.0000027E+03;  4.0000001E-01;  2.2715385E+00;3; -8.7786555E-01;  0.0000000E+00; -1.3657004E-02;0; -6.1440831E-03;  1.0000054E+04;  0.0000000E+00; -2.2563830E-12;  1.0000000E+04;  0.0000000E+00;  9.9999990E+03; -6.2424107E-03;  0.0000000E+00;  9.8327735E-05;  3.0464563E-01;
  3.9999989E-01;  9.9999998E-03; -3.9999999E-02;1662; -4.0495640E-04;  0.0000000E+00; -3.3447884E-06;  1.0000027E+03;  4.0000001E-01;  2.2715385E+00;3; -8.7950891E-01;  0.0000000E+00; -8.8029997E-03;0; -6.1658304E-03;  1.0000054E+04;  0.0000000E+00; -5.0509787E-12;  1.0000000E+04;  0.0000000E+00;  1.0000000E+04; -6.2495689E-03;  0.0000000E+00;  8.3738443E-05;  2.7098569E-01;
  3.9999989E-01;  9.9999998E-03; -2.0000000E-02;1663; -4.0543632E-04;  0.0000000E+00; -1.6176665E-06;  1.0000027E+03;  4.0000001E-01;  2.2715385E+00;3; -8.8050622E-01;  0.0000000E+00; -4.3038926E-03;0; -6.1788401E-03;  1.0000054E+04;  0.0000000E+00; -1.0204856E-12;  1.0000000E+04;  0.0000000E+00;  1.0000000E+04; -6.2536891E-03;  0.0000000E+00;  7.4848991E-05;  2.5066289E-01;
  4.1999984E-01;  9.9999998E-03; -1.8000001E-01;1686; -5.4622750E-04;  0.0000000E+00; -3.8361144E-05;  1.0000036E+03;  4.0000001E-01;  2.9628754E+00;3; -1.1564535E+00;  0.0000000E+00; -8.5392669E-02;0; -7.9441182E-03;  1.0000075E+04;  0.0000000E+00; -4.4358310E-12;  1.0000000E+04;  0.0000000E+00;  9.9999961E+03; -8.4408289E-03;  0.0000000E+00;  4.9671094E-04;  1.3309083E+00;
  4.1999984E-01;  9.9999998E-03; -1.6000001E-01;1687; -5.5070192E-04;  0.0000000E+00; -3.1207157E-05;  1.0000036E+03;  4.0000001E-01;  2.9628754E+00;3; -1.1612104E+00;  0.0000000E+00; -7.0304230E-02;0; -8.0880309E-03;  1.0000075E+04;  0.0000000E+00; -6.7371525E-11;  1.0000000E+04;  0.0000000E+00;  9.9999971E+03; -8.4794862E-03;  0.0000000E+00;  3.9145519E-04;  1.0721115E+00;
  4.1999984E-01;  9.9999998E-03; -1.4000000E-01;1688; -5.5435597E-04;  0.0000000E+00; -2.4982588E-05;  1.0000037E+03;  4.0000001E-01;  3.0616379E+00;3; -1.1653184E+00;  0.0000000E+00; -5.7229578E-02;0; -8.1998343E-03;  1.0000076E+04;  0.0000000E+00;  4.4876425E-12;  1.0000000E+04;  0.0000000E+00;  9.9999971E+03; -8.5155861E-03;  0.0000000E+00;  3.1575223E-04;  8.8309336E-01;
  4.1999984E-01;  9.9999998E-03; -1.2000000E-01;1689; -5.5740296E-04;  0.0000000E+00; -1.9522529E-05;  1.0000037E+03;  4.0000001E-01;  3.0616379E+00;3; -1.1691302E+00;  0.0000000E+00; -4.5820702E-02;0; -8.2856324E-03;  1.0000076E+04;  0.0000000E+00;  1.0874604E-11;  1.0000000E+04;  0.0000000E+00;  9.9999980E+03; -8.5448455E-03;  0.0000000E+00;  2.5921309E-04;  7.4029285E-01;
  4.1999984E-01;  9.9999998E-03; -1.0000000E-01;1690; -5.5992254E-04;  0.0000000E+00; -1.4827630E-05;  1.0000037E+03;  4.0000001E-01;  3.0616379E+00;3; -1.1727268E+00;  0.0000000E+00; -3.5670474E-02;0; -8.3536515E-03;  1.0000077E+04;  0.0000000E+00;  1.0740734E-11;  1.0000000E+04;  0.0000000E+00;  9.9999990E+03; -8.5666263E-03;  0.0000000E+00;  2.1297474E-04;  6.2450105E-01;
  4.1999984E-01;  9.9999998E-03; -8.0000006E-02;1691; -5.6194054E-04;  0.0000000E+00; -1.0887415E-05;  1.0000038E+03;  4.0000001E-01;  3.1604004E+00;3; -1.1759411E+00;  0.0000000E+00; -2.6893420E-02;0; -8.4078098E-03;  1.0000077E+04;  0.0000000E+00;  3.0888237E-12;  1.0000000E+04;  0.0000000E+00;  9.9999990E+03; -8.5820248E-03;  0.0000000E+00;  1.7421495E-04;  5.2934068E-01;
  4.1999984E-01;  9.9999998E-03; -6.0000002E-02;1692; -5.6347472E-04;  0.0000000E+00; -7.5745784E-06;  1.0000038E+03;  4.0000001E-01;  3.1604004E+00;3; -1.1786252E+00;  0.0000000E+00; -1.9151019E-02;0; -8.4495703E-03;  1.0000077E+04;  0.0000000E+00;  6.2873936E-13;  1.0000000E+04;  0.0000000E+00;  9.9999990E+03; -8.5925702E-03;  0.0000000E+00;  1.4300032E-04;  4.5437533E-01;
  4.1999984E-01;  9.9999998E-03; -4.0000003E-02;1693; -5.6454277E-04;  0.0000000E+00; -4.7659646E-06;  1.0000038E+03;  4.0000001E-01;  3.1604004E+00;3; -1.1806288E+00;  0.0000000E+00; -1.2286839E-02;0; -8.4793577E-03;  1.0000077E+04;  0.0000000E+00; -1.8316126E-11;  1.0000000E+04;  0.0000000E+00;  9.9999990E+03; -8.5994722E-03;  0.0000000E+00;  1.2011491E-04;  4.0046832E-01;
  4.1999984E-01;  9.9999998E-03; -2.0000001E-02;1694; -5.6516903E-04;  0.0000000E+00; -2.2975314E-06;  1.0000038E+03;  4.0000001E-01;  3.1604004E+00;3; -1.1818620E+00;  0.0000000E+00; -5.9970808E-03;0; -8.4972270E-03;  1.0000077E+04;  0.0000000E+00; -3.7133482E-12;  1.0000000E+04;  0.0000000E+00;  9.9999990E+03; -8.6034145E-03;  0.0000000E+00;  1.0618756E-04;  3.6812052E-01;
  4.3999976E-01;  9.9999998E-03; -1.8000002E-01;1717; -7.6019199E-04;  0.0000000E+00; -5.5830507E-05;  1.0000049E+03;  4.0000001E-01;  4.0492616E+00;3; -1.5451351E+00;  0.0000000E+00; -1.2099052E-01;0; -1.0790261E-02;  1.0000106E+04;  0.0000000E+00; -1.7431333E-10;  1.0000000E+04;  0.0000000E+00;  9.9999932E+03; -1.1530869E-02;  0.0000000E+00;  7.4060768E-04;  2.1051137E+00;
  4.3999976E-01;  9.9999998E-03; -1.6000001E-01;1718; -7.6489005E-04;  0.0000000E+00; -4.5649507E-05;  1.0000051E+03;  4.0000001E-01;  4.1480241E+00;3; -1.5475502E+00;  0.0000000E+00; -1.0049613E-01;0; -1.0978386E-02;  1.0000106E+04;  0.0000000E+00;  3.4894795E-11;  1.0000000E+04;  0.0000000E+00;  9.9999961E+03; -1.1563356E-02;  0.0000000E+00;  5.8497058E-04;  1.6747290E+00;
  4.3999976E-01;  9.9999998E-03; -1.4000002E-01;1719; -7.6884899E-04;  0.0000000E+00; -3.6447607E-05;  1.0000051E+03;  4.0000001E-01;  4.1480241E+00;3; -1.5502653E+00;  0.0000000E+00; -8.1749395E-02;0; -1.1126540E-02;  1.0000106E+04;  0.0000000E+00;  8.1835337E-11;  1.0000000E+04;  0.0000000E+00;  9.9999961E+03; -1.1598527E-02;  0.0000000E+00;  4.7198744E-04;  1.3619237E+00;
  4.3999976E-01;  9.9999998E-03; -1.2000000E-01;1720; -7.7221898E-04;  0.0000000E+00; -2.8343682E-05;  1.0000052E+03;  4.0000001E-01;  4.3455491E+00;3; -1.5533079E+00;  0.0000000E+00; -6.5226577E-02;0; -1.1241306E-02;  1.0000107E+04;  0.0000000E+00;  5.1759892E-11;  1.0000000E+04;  0.0000000E+00;  9.9999971E+03; -1.1627262E-02;  0.0000000E+00;  3.8595719E-04;  1.1271363E+00;
  4.3999976E-01;  9.9999998E-03; -1.0000001E-01;1721; -7.7509938E-04;  0.0000000E+00; -2.1328655E-05;  1.0000052E+03;  4.0000001E-01;  4.3455491E+00;3; -1.5567007E+00;  0.0000000E+00; -5.0342649E-02;0; -1.1333080E-02;  1.0000107E+04;  0.0000000E+00; -6.3325270E-12;  1.0000000E+04;  0.0000000E+00;  9.9999971E+03; -1.1647501E-02;  0.0000000E+00;  3.1442076E-04;  9.3848437E-01;
  4.3999976E-01;  9.9999998E-03; -8.0000006E-02;1722; -7.7747327E-04;  0.0000000E+00; -1.5516200E-05;  1.0000053E+03;  4.0000001E-01;  4.4443111E+00;3; -1.5600595E+00;  0.0000000E+00; -3.7583321E-02;0; -1.1406592E-02;  1.0000107E+04;  0.0000000E+00;  1.6240127E-11;  1.0000000E+04;  0.0000000E+00;  9.9999990E+03; -1.1660664E-02;  0.0000000E+00;  2.5407251E-04;  7.8524953E-01;
  4.3999976E-01;  9.9999998E-03; -6.0000002E-02;1723; -7.7932159E-04;  0.0000000E+00; -1.0728489E-05;  1.0000053E+03;  4.0000001E-01;  4.4443111E+00;3; -1.5630314E+00;  0.0000000E+00; -2.6657578E-02;0; -1.1463461E-02;  1.0000107E+04;  0.0000000E+00; -5.4945107E-12;  1.0000000E+04;  0.0000000E+00;  9.9999990E+03; -1.1668990E-02;  0.0000000E+00;  2.0553019E-04;  6.6604435E-01;
  4.3999976E-01;  9.9999998E-03; -4.0000003E-02;1724; -7.8063883E-04;  0.0000000E+00; -6.7081482E-06;  1.0000053E+03;  4.0000001E-01;  4.4443111E+00;3; -1.5653650E+00;  0.0000000E+00; -1.7003054E-02;0; -1.1504092E-02;  1.0000107E+04;  0.0000000E+00; -1.6329682E-11;  1.0000000E+04;  0.0000000E+00;  9.9999990E+03; -1.1674176E-02;  0.0000000E+00;  1.7008344E-04;  5.8129328E-01;
  4.3999976E-01;  9.9999998E-03; -2.0000001E-02;1725; -7.8142021E-04;  0.0000000E+00; -3.2250334E-06;  1.0000053E+03;  4.0000001E-01;  4.4443111E+00;3; -1.5668302E+00;  0.0000000E+00; -8.2877809E-03;0; -1.1528505E-02;  1.0000107E+04;  0.0000000E+00; -9.9974586E-12;  1.0000000E+04;  0.0000000E+00;  9.9999990E+03; -1.1677097E-02;  0.0000000E+00;  1.4859201E-04;  5.3086174E-01;
  4.5999965E-01;  9.9999998E-03; -1.8000002E-01;1748; -1.0540517E-03;  0.0000000E+00; -8.1732564E-05;  1.0000072E+03;  4.0000015E-01;  5.9257450E+00;3; -2.0463440E+00;  0.0000000E+00; -1.7304359E-01;0; -1.4382660E-02;  1.0000146E+04;  0.0000000E+00;  6.3123000E-11;  1.0000000E+04;  0.0000000E+00;  9.9999902E+03; -1.5499411E-02;  0.0000000E+00;  1.1167509E-03;  3.3462811E+00;
  4.5999965E-01;  9.9999998E-03; -1.6000001E-01;1749; -1.0587435E-03;  0.0000000E+00; -6.6678011E-05;  1.0000073E+03;  4.0000015E-01;  6.0245075E+00;3; -2.0446327E+00;  0.0000000E+00; -1.4430597E-01;0; -1.4636967E-02;  1.0000146E+04;  0.0000000E+00;  3.5506495E-10;  1.0000000E+04;  0.0000000E+00;  9.9999922E+03; -1.5513615E-02;  0.0000000E+00;  8.7664759E-04;  2.6060073E+00;
  4.5999965E-01;  9.9999998E-03; -1.4000002E-01;1750; -1.0626576E-03;  0.0000000E+00; -5.2685471E-05;  1.0000073E+03;  4.0000015E-01;  6.0245075E+00;3; -2.0444663E+00;  0.0000000E+00; -1.1660074E-01;0; -1.4837855E-02;  1.0000146E+04;  0.0000000E+00;  2.8132366E-10;  1.0000000E+04;  0.0000000E+00;  9.9999941E+03; -1.5539957E-02;  0.0000000E+00;  7.0210197E-04;  2.0761464E+00;
  4.5999965E-01;  9.9999998E-03; -1.2000001E-01;1751; -1.0659496E-03;  0.0000000E+00; -4.0478586E-05;  1.0000074E+03;  4.0000015E-01;  6.1232696E+00;3; -2.0455837E+00;  0.0000000E+00; -9.1788165E-02;0; -1.4993290E-02;  1.0000148E+04;  0.0000000E+00;  1.2390626E-10;  1.0000000E+04;  0.0000000E+00;  9.9999961E+03; -1.5562098E-02;  0.0000000E+00;  5.6880823E-04;  1.6876998E+00;
  4.5999965E-01;  9.9999998E-03; -1.0000001E-01;1752; -1.0688194E-03;  0.0000000E+00; -3.0187392E-05;  1.0000075E+03;  4.0000013E-01;  6.2220321E+00;3; -2.0477464E+00;  0.0000000E+00; -7.0410788E-02;0; -1.5117668E-02;  1.0000148E+04;  0.0000000E+00;  5.1533122E-11;  1.0000000E+04;  0.0000000E+00;  9.9999971E+03; -1.5575754E-02;  0.0000000E+00;  4.5808713E-04;  1.3832506E+00;
  4.5999965E-01;  9.9999998E-03; -8.0000006E-02;1753; -1.0713114E-03;  0.0000000E+00; -2.1734122E-05;  1.0000076E+03;  4.0000013E-01;  6.2220321E+00;3; -2.0506649E+00;  0.0000000E+00; -5.1966645E-02;0; -1.5217386E-02;  1.0000148E+04;  0.0000000E+00;  2.4061796E-11;  1.0000000E+04;  0.0000000E+00;  9.9999971E+03; -1.5582558E-02;  0.0000000E+00;  3.6517199E-04;  1.1410350E+00;
  4.5999965E-01;  9.9999998E-03; -6.0000002E-02;1754; -1.0733411E-03;  0.0000000E+00; -1.4931541E-05;  1.0000076E+03;  4.0000013E-01;  6.2220321E+00;3; -2.0535975E+00;  0.0000000E+00; -3.6692172E-02;0; -1.5294550E-02;  1.0000148E+04;  0.0000000E+00;  1.3225299E-11;  1.0000000E+04;  0.0000000E+00;  9.9999971E+03; -1.5585532E-02;  0.0000000E+00;  2.9098263E-04;  9.5574492E-01;
  4.5999965E-01;  9.9999998E-03; -4.0000003E-02;1755; -1.0748493E-03;  0.0000000E+00; -9.2783484E-06;  1.0000076E+03;  4.0000015E-01;  6.3207946E+00;3; -2.0561216E+00;  0.0000000E+00; -2.3251165E-02;0; -1.5349679E-02;  1.0000148E+04;  0.0000000E+00; -1.1404554E-11;  1.0000000E+04;  0.0000000E+00;  9.9999990E+03; -1.5586865E-02;  0.0000000E+00;  2.3718682E-04;  8.2571566E-01;
  4.5999965E-01;  9.9999998E-03; -2.0000001E-02;1756; -1.0757665E-03;  0.0000000E+00; -4.4498825E-06;  1.0000076E+03;  4.0000015E-01;  6.3207946E+00;3; -2.0577714E+00;  0.0000000E+00; -1.1320283E-02;0; -1.5382800E-02;  1.0000148E+04;  0.0000000E+00; -6.1430991E-12;  1.0000000E+04;  0.0000000E+00;  9.9999990E+03; -1.5587542E-02;  0.0000000E+00;  2.0474206E-04;  7.4905515E-01;
  4.7999951E-01;  9.9999998E-03; -1.8000004E-01;1779; -1.4569325E-03;  0.0000000E+00; -1.2007354E-04;  1.0000101E+03;  4.0000042E-01;  8.2960367E+00;3; -2.6914399E+00;  0.0000000E+00; -2.4956310E-01;0; -1.8692425E-02;  1.0000199E+04;  0.0000000E+00;  8.1848439E-10;  1.0000000E+04;  0.0000000E+00;  9.9999844E+03; -2.0394713E-02;  0.0000000E+00;  1.7022884E-03;  5.3355284E+00;
  4.7999951E-01;  9.9999998E-03; -1.6000003E-01;1780; -1.4616353E-03;  0.0000000E+00; -9.6937474E-05;  1.0000103E+03;  4.0000045E-01;  8.5923233E+00;3; -2.6838648E+00;  0.0000000E+00; -2.0724343E-01;0; -1.9055609E-02;  1.0000200E+04;  0.0000000E+00;  9.4773411E-10;  1.0000000E+04;  0.0000000E+00;  9.9999893E+03; -2.0368317E-02;  0.0000000E+00;  1.3127081E-03;  4.0248151E+00;
  4.7999951E-01;  9.9999998E-03; -1.4000002E-01;1781; -1.4650861E-03;  0.0000000E+00; -7.5231721E-05;  1.0000104E+03;  4.0000045E-01;  8.6910858E+00;3; -2.6789553E+00;  0.0000000E+00; -1.6519356E-01;0; -1.9337080E-02;  1.0000200E+04;  0.0000000E+00;  7.5053702E-10;  1.0000000E+04;  0.0000000E+00;  9.9999912E+03; -2.0370491E-02;  0.0000000E+00;  1.0334111E-03;  3.1115270E+00;
  4.7999951E-01;  9.9999998E-03; -1.2000001E-01;1782; -1.4676675E-03;  0.0000000E+00; -5.6861401E-05;  1.0000106E+03;  4.0000039E-01;  8.7898483E+00;3; -2.6763401E+00;  0.0000000E+00; -1.2801625E-01;0; -1.9550297E-02;  1.0000200E+04;  0.0000000E+00;  3.7096928E-10;  1.0000000E+04;  0.0000000E+00;  9.9999941E+03; -2.0374941E-02;  0.0000000E+00;  8.2464423E-04;  2.4698038E+00;
  4.7999951E-01;  9.9999998E-03; -1.0000001E-01;1783; -1.4699200E-03;  0.0000000E+00; -4.1965443E-05;  1.0000107E+03;  4.0000042E-01;  8.8886108E+00;3; -2.6758053E+00;  0.0000000E+00; -9.7388953E-02;0; -1.9718744E-02;  1.0000200E+04;  0.0000000E+00;  1.8219157E-10;  1.0000000E+04;  0.0000000E+00;  9.9999951E+03; -2.0373758E-02;  0.0000000E+00;  6.5501395E-04;  1.9875571E+00;
  4.7999951E-01;  9.9999998E-03; -8.0000006E-02;1784; -1.4721137E-03;  0.0000000E+00; -2.9862300E-05;  1.0000107E+03;  4.0000042E-01;  8.8886108E+00;3; -2.6773407E+00;  0.0000000E+00; -7.1062945E-02;0; -1.9853216E-02;  1.0000200E+04;  0.0000000E+00;  3.5277278E-11;  1.0000000E+04;  0.0000000E+00;  9.9999961E+03; -2.0368205E-02;  0.0000000E+00;  5.1498885E-04;  1.6152371E+00;
  4.7999951E-01;  9.9999998E-03; -6.0000006E-02;1785; -1.4740706E-03;  0.0000000E+00; -2.0335316E-05;  1.0000107E+03;  4.0000042E-01;  8.8886108E+00;3; -2.6797111E+00;  0.0000000E+00; -4.9697738E-02;0; -1.9957196E-02;  1.0000200E+04;  0.0000000E+00; -3.2546164E-13;  1.0000000E+04;  0.0000000E+00;  9.9999971E+03; -2.0361656E-02;  0.0000000E+00;  4.0446050E-04;  1.3358897E+00;
  4.7999951E-01;  9.9999998E-03; -4.0000003E-02;1786; -1.4756323E-03;  0.0000000E+00; -1.2581433E-05;  1.0000107E+03;  4.0000042E-01;  8.8886108E+00;3; -2.6821425E+00;  0.0000000E+00; -3.1371642E-02;0; -2.0031441E-02;  1.0000200E+04;  0.0000000E+00; -1.9831336E-11;  1.0000000E+04;  0.0000000E+00;  9.9999971E+03; -2.0356422E-02;  0.0000000E+00;  3.2498184E-04;  1.1424335E+00;
  4.7999951E-01;  9.9999998E-03; -2.0000001E-02;1787; -1.4766279E-03;  0.0000000E+00; -6.0138063E-06;  1.0000107E+03;  4.0000042E-01;  8.8886108E+00;3; -2.6838689E+00;  0.0000000E+00; -1.5230223E-02;0; -2.0076049E-02;  1.0000200E+04;  0.0000000E+00; -1.7182657E-12;  1.0000000E+04;  0.0000000E+00;  9.9999980E+03; -2.0353349E-02;  0.0000000E+00;  2.7729952E-04;  1.0293375E+00;
  4.9999928E-01;  9.9999998E-03; -1.8000005E-01;1810; -2.0004418E-03;  0.0000000E+00; -1.7617813E-04;  1.0000140E+03;  4.0000087E-01;  1.1653945E+01;3; -3.5144308E+00;  0.0000000E+00; -3.6037746E-01;0; -2.3458816E-02;  1.0000262E+04;  0.0000000E+00;  2.9349232E-09;  1.0000000E+04;  0.0000000E+00;  9.9999766E+03; -2.6081678E-02;  0.0000000E+00;  2.6228609E-03;  8.5277138E+00;
  4.9999928E-01;  9.9999998E-03; -1.6000004E-01;1811; -2.0060851E-03;  0.0000000E+00; -1.3843784E-04;  1.0000143E+03;  4.0000090E-01;  1.1851469E+01;3; -3.5003252E+00;  0.0000000E+00; -2.9251567E-01;0; -2.4017923E-02;  1.0000262E+04;  0.0000000E+00;  3.1120122E-09;  1.0000000E+04;  0.0000000E+00;  9.9999824E+03; -2.5978269E-02;  0.0000000E+00;  1.9603455E-03;  6.1619663E+00;
  4.9999928E-01;  9.9999998E-03; -1.4000003E-01;1812; -2.0083981E-03;  0.0000000E+00; -1.0607156E-04;  1.0000145E+03;  4.0000087E-01;  1.2048994E+01;3; -3.4876862E+00;  0.0000000E+00; -2.3189697E-01;0; -2.4430702E-02;  1.0000262E+04;  0.0000000E+00;  2.0095690E-09;  1.0000000E+04;  0.0000000E+00;  9.9999873E+03; -2.5929870E-02;  0.0000000E+00;  1.4991683E-03;  4.5693970E+00;
  4.9999928E-01;  9.9999998E-03; -1.2000002E-01;1813; -2.0094838E-03;  0.0000000E+00; -7.8756537E-05;  1.0000147E+03;  4.0000087E-01;  1.2147756E+01;3; -3.4789331E+00;  0.0000000E+00; -1.7716929E-01;0; -2.4727996E-02;  1.0000262E+04;  0.0000000E+00;  1.0025684E-09;  1.0000000E+04;  0.0000000E+00;  9.9999902E+03; -2.5898326E-02;  0.0000000E+00;  1.1703304E-03;  3.5140448E+00;
  4.9999928E-01;  9.9999998E-03; -1.0000002E-01;1814; -2.0103839E-03;  0.0000000E+00; -5.7289777E-05;  1.0000148E+03;  4.0000087E-01;  1.2246518E+01;3; -3.4740210E+00;  0.0000000E+00; -1.3274378E-01;0; -2.4955126E-02;  1.0000263E+04;  0.0000000E+00;  4.7100707E-10;  1.0000000E+04;  0.0000000E+00;  9.9999932E+03; -2.5869882E-02;  0.0000000E+00;  9.1475627E-04;  2.7672982E+00;
  4.9999928E-01;  9.9999998E-03; -8.0000013E-02;1815; -2.0116949E-03;  0.0000000E+00; -4.0369192E-05;  1.0000149E+03;  4.0000084E-01;  1.2345281E+01;3; -3.4728439E+00;  0.0000000E+00; -9.6175745E-02;0; -2.5134128E-02;  1.0000262E+04;  0.0000000E+00;  1.3719442E-10;  1.0000000E+04;  0.0000000E+00;  9.9999951E+03; -2.5843799E-02;  0.0000000E+00;  7.0967217E-04;  2.2142639E+00;
  4.9999928E-01;  9.9999998E-03; -6.0000006E-02;1816; -2.0132372E-03;  0.0000000E+00; -2.7204271E-05;  1.0000150E+03;  4.0000084E-01;  1.2345281E+01;3; -3.4739735E+00;  0.0000000E+00; -6.6504873E-02;0; -2.5272330E-02;  1.0000262E+04;  0.0000000E+00;  1.4850563E-11;  1.0000000E+04;  0.0000000E+00;  9.9999961E+03; -2.5822535E-02;  0.0000000E+00;  5.5020547E-04;  1.8087236E+00;
  4.9999928E-01;  9.9999998E-03; -4.0000003E-02;1817; -2.0146570E-03;  0.0000000E+00; -1.6731989E-05;  1.0000150E+03;  4.0000090E-01;  1.2444043E+01;3; -3.4759393E+00;  0.0000000E+00; -4.1758236E-02;0; -2.5371194E-02;  1.0000262E+04;  0.0000000E+00;  5.7988432E-12;  1.0000000E+04;  0.0000000E+00;  9.9999971E+03; -2.5807634E-02;  0.0000000E+00;  4.3644008E-04;  1.5312456E+00;
  4.9999928E-01;  9.9999998E-03; -2.0000001E-02;1818; -2.0156463E-03;  0.0000000E+00; -7.9590482E-06;  1.0000151E+03;  4.0000090E-01;  1.2542805E+01;3; -3.4775987E+00;  0.0000000E+00; -2.0172782E-02;0; -2.5430640E-02;  1.0000262E+04;  0.0000000E+00; -6.5562646E-12;  1.0000000E+04;  0.0000000E+00;  9.9999971E+03; -2.5799142E-02;  0.0000000E+00;  3.6850129E-04;  1.3701564E+00;
  5.1999903E-01;  9.9999998E-03; -1.8000008E-01;1841; -2.7117538E-03;  0.0000000E+00; -2.5373767E-04;  1.0000207E+03;  4.0000248E-01;  1.7184607E+01;3; -4.5452251E+00;  0.0000000E+00; -5.1210243E-01;0; -2.8044388E-02;  1.0000331E+04;  0.0000000E+00;  5.6918577E-09;  1.0000000E+04;  0.0000000E+00;  9.9999609E+03; -3.2133017E-02;  0.0000000E+00;  4.0886286E-03;  1.3672267E+01;
  5.1999897E-01;  9.9999998E-03; -1.6000006E-01;1842; -2.7184174E-03;  0.0000000E+00; -1.9613940E-04;  1.0000212E+03;  4.0000245E-01;  1.7579655E+01;3; -4.5214114E+00;  0.0000000E+00; -4.1083586E-01;0; -2.8979665E-02;  1.0000328E+04;  0.0000000E+00;  6.0107137E-09;  1.0000000E+04;  0.0000000E+00;  9.9999736E+03; -3.1905558E-02;  0.0000000E+00;  2.9258926E-03;  9.3795090E+00;
  5.1999897E-01;  9.9999998E-03; -1.4000005E-01;1843; -2.7194668E-03;  0.0000000E+00; -1.4779154E-04;  1.0000216E+03;  4.0000248E-01;  1.7875942E+01;3; -4.4988370E+00;  0.0000000E+00; -3.2166043E-01;0; -2.9624462E-02;  1.0000328E+04;  0.0000000E+00;  4.3915969E-09;  1.0000000E+04;  0.0000000E+00;  9.9999814E+03; -3.1769015E-02;  0.0000000E+00;  2.1445518E-03;  6.5842962E+00;
  5.1999897E-01;  9.9999998E-03; -1.2000003E-01;1844; -2.7183150E-03;  0.0000000E+00; -1.0801815E-04;  1.0000219E+03;  4.0000251E-01;  1.8073465E+01;3; -4.4813366E+00;  0.0000000E+00; -2.4326667E-01;0; -3.0052206E-02;  1.0000327E+04;  0.0000000E+00;  2.2546864E-09;  1.0000000E+04;  0.0000000E+00;  9.9999863E+03; -3.1675160E-02;  0.0000000E+00;  1.6229548E-03;  4.8513641E+00;
  5.1999897E-01;  9.9999998E-03; -1.0000002E-01;1845; -2.7170824E-03;  0.0000000E+00; -7.7313322E-05;  1.0000220E+03;  4.0000248E-01;  1.8172228E+01;3; -4.4700136E+00;  0.0000000E+00; -1.7962356E-01;0; -3.0358654E-02;  1.0000327E+04;  0.0000000E+00;  9.3858132E-10;  1.0000000E+04;  0.0000000E+00;  9.9999893E+03; -3.1602599E-02;  0.0000000E+00;  1.2439449E-03;  3.7169902E+00;
  5.1999897E-01;  9.9999998E-03; -8.0000013E-02;1846; -2.7168884E-03;  0.0000000E+00; -5.3802109E-05;  1.0000220E+03;  4.0000248E-01;  1.8270990E+01;3; -4.4647441E+00;  0.0000000E+00; -1.2876192E-01;0; -3.0593237E-02;  1.0000327E+04;  0.0000000E+00;  2.9355407E-10;  1.0000000E+04;  0.0000000E+00;  9.9999932E+03; -3.1545736E-02;  0.0000000E+00;  9.5249829E-04;  2.9235785E+00;
  5.1999897E-01;  9.9999998E-03; -6.0000010E-02;1847; -2.7176307E-03;  0.0000000E+00; -3.5826561E-05;  1.0000222E+03;  4.0000251E-01;  1.8369753E+01;3; -4.4638996E+00;  0.0000000E+00; -8.7967344E-02;0; -3.0773407E-02;  1.0000327E+04;  0.0000000E+00;  9.1878762E-11;  1.0000000E+04;  0.0000000E+00;  9.9999951E+03; -3.1503759E-02;  0.0000000E+00;  7.3035277E-04;  2.3588293E+00;
  5.1999897E-01;  9.9999998E-03; -4.0000007E-02;1848; -2.7186919E-03;  0.0000000E+00; -2.1881497E-05;  1.0000222E+03;  4.0000251E-01;  1.8369753E+01;3; -4.4650135E+00;  0.0000000E+00; -5.4899078E-02;0; -3.0902697E-02;  1.0000327E+04;  0.0000000E+00;  1.7989873E-11;  1.0000000E+04;  0.0000000E+00;  9.9999961E+03; -3.1475797E-02;  0.0000000E+00;  5.7310075E-04;  1.9771262E+00;
  5.1999897E-01;  9.9999998E-03; -2.0000003E-02;1849; -2.7195716E-03;  0.0000000E+00; -1.0343772E-05;  1.0000223E+03;  4.0000251E-01;  1.8468515E+01;3; -4.4664421E+00;  0.0000000E+00; -2.6341693E-02;0; -3.0980708E-02;  1.0000327E+04;  0.0000000E+00; -1.5845976E-12;  1.0000000E+04;  0.0000000E+00;  9.9999961E+03; -3.1460177E-02;  0.0000000E+00;  4.7946841E-04;  1.7565811E+00;
  5.3999865E-01;  9.9999998E-03; -1.8000011E-01;1872; -3.5991655E-03;  0.0000000E+00; -3.6031505E-04;  1.0000328E+03;  4.0000647E-01;  2.7159529E+01;3; -5.7918434E+00;  0.0000000E+00; -7.1960229E-01;0; -3.1307891E-02;  1.0000396E+04;  0.0000000E+00;  7.4619750E-09;  1.0000000E+04;  0.0000000E+00;  9.9999365E+03; -3.7744738E-02;  0.0000000E+00;  6.4368458E-03;  2.1946426E+01;
  5.3999859E-01;  9.9999998E-03; -1.6000009E-01;1873; -3.6084652E-03;  0.0000000E+00; -2.7322932E-04;  1.0000338E+03;  4.0000650E-01;  2.7949625E+01;3; -5.7571921E+00;  0.0000000E+00; -5.6948733E-01;0; -3.2969356E-02;  1.0000393E+04;  0.0000000E+00;  1.0054281E-08;  1.0000000E+04;  0.0000000E+00;  9.9999590E+03; -3.7351791E-02;  0.0000000E+00;  4.3824352E-03;  1.4255857E+01;
  5.3999859E-01;  9.9999998E-03; -1.4000006E-01;1874; -3.6079059E-03;  0.0000000E+00; -2.0264603E-04;  1.0000344E+03;  4.0000647E-01;  2.8443434E+01;3; -5.7217765E+00;  0.0000000E+00; -4.4061396E-01;0; -3.4047514E-02;  1.0000392E+04;  0.0000000E+00;  7.7124174E-09;  1.0000000E+04;  0.0000000E+00;  9.9999727E+03; -3.7088428E-02;  0.0000000E+00;  3.0409121E-03;  9.3668280E+00;
  5.3999859E-01;  9.9999998E-03; -1.2000004E-01;1875; -3.6035879E-03;  0.0000000E+00; -1.4622565E-04;  1.0000347E+03;  4.0000647E-01;  2.8739719E+01;3; -5.6926031E+00;  0.0000000E+00; -3.2997626E-01;0; -3.4698043E-02;  1.0000391E+04;  0.0000000E+00;  4.3021333E-09;  1.0000000E+04;  0.0000000E+00;  9.9999814E+03; -3.6903080E-02;  0.0000000E+00;  2.2050354E-03;  6.5177302E+00;
  5.3999859E-01;  9.9999998E-03; -1.0000002E-01;1876; -3.5994449E-03;  0.0000000E+00; -1.0304832E-04;  1.0000350E+03;  4.0000650E-01;  2.8937244E+01;3; -5.6728601E+00;  0.0000000E+00; -2.4055444E-01;0; -3.5120308E-02;  1.0000390E+04;  0.0000000E+00;  1.8495198E-09;  1.0000000E+04;  0.0000000E+00;  9.9999863E+03; -3.6767572E-02;  0.0000000E+00;  1.6472645E-03;  4.8107505E+00;
  5.3999859E-01;  9.9999998E-03; -8.0000021E-02;1877; -3.5971343E-03;  0.0000000E+00; -7.0811373E-05;  1.0000351E+03;  4.0000650E-01;  2.9036005E+01;3; -5.6622453E+00;  0.0000000E+00; -1.7056699E-01;0; -3.5425570E-02;  1.0000388E+04;  0.0000000E+00;  5.8799104E-10;  1.0000000E+04;  0.0000000E+00;  9.9999902E+03; -3.6669049E-02;  0.0000000E+00;  1.2434806E-03;  3.7042513E+00;
  5.3999859E-01;  9.9999998E-03; -6.0000010E-02;1878; -3.5966490E-03;  0.0000000E+00; -4.6552475E-05;  1.0000352E+03;  4.0000650E-01;  2.9134768E+01;3; -5.6585155E+00;  0.0000000E+00; -1.1508492E-01;0; -3.5656184E-02;  1.0000388E+04;  0.0000000E+00;  1.5026197E-10;  1.0000000E+04;  0.0000000E+00;  9.9999932E+03; -3.6600370E-02;  0.0000000E+00;  9.4418414E-04;  2.9487865E+00;
  5.3999859E-01;  9.9999998E-03; -4.0000007E-02;1879; -3.5971403E-03;  0.0000000E+00; -2.8187938E-05;  1.0000353E+03;  4.0000650E-01;  2.9233530E+01;3; -5.6584244E+00;  0.0000000E+00; -7.1248241E-02;0; -3.5821997E-02;  1.0000388E+04;  0.0000000E+00;  3.3206389E-11;  1.0000000E+04;  0.0000000E+00;  9.9999951E+03; -3.6556214E-02;  0.0000000E+00;  7.3421712E-04;  2.4459999E+00;
  5.3999859E-01;  9.9999998E-03; -2.0000003E-02;1880; -3.5978032E-03;  0.0000000E+00; -1.3222739E-05;  1.0000353E+03;  4.0000653E-01;  2.9233530E+01;3; -5.6594481E+00;  0.0000000E+00; -3.3892266E-02;0; -3.5922553E-02;  1.0000387E+04;  0.0000000E+00; -7.6397184E-13;  1.0000000E+04;  0.0000000E+00;  9.9999961E+03; -3.6531959E-02;  0.0000000E+00;  6.0940621E-04;  2.1564951E+00;
  5.5999815E-01;  9.9999998E-03; -1.8000016E-01;1903; -4.6506710E-03;  0.0000000E+00; -4.8753983E-04;  1.0000607E+03;  4.0001747E-01;  5.0269699E+01;3; -7.2418499E+00;  0.0000000E+00; -9.7627044E-01;0; -3.1565279E-02;  1.0000443E+04;  0.0000000E+00; -1.1605434E-09;  1.0000000E+04;  0.0000000E+00;  9.9998984E+03; -4.1704696E-02;  0.0000000E+00;  1.0139416E-02;  3.4961468E+01;
  5.5999815E-01;  9.9999998E-03; -1.6000012E-01;1904; -4.6545258E-03;  0.0000000E+00; -3.7058874E-04;  1.0000624E+03;  4.0001747E-01;  5.1652363E+01;3; -7.1836782E+00;  0.0000000E+00; -7.6974076E-01;0; -3.4552488E-02;  1.0000439E+04;  0.0000000E+00;  1.0445564E-08;  1.0000000E+04;  0.0000000E+00;  9.9999365E+03; -4.1137308E-02;  0.0000000E+00;  6.5848189E-03;  2.1624146E+01;
  5.5999815E-01;  9.9999998E-03; -1.4000008E-01;1905; -4.6505635E-03;  0.0000000E+00; -2.7247667E-04;  1.0000635E+03;  4.0001747E-01;  5.2541218E+01;3; -7.1306343E+00;  0.0000000E+00; -5.9174788E-01;0; -3.6429346E-02;  1.0000436E+04;  0.0000000E+00;  1.0210162E-08;  1.0000000E+04;  0.0000000E+00;  9.9999619E+03; -4.0727980E-02;  0.0000000E+00;  4.2986358E-03;  1.3240455E+01;
  5.5999815E-01;  9.9999998E-03; -1.2000005E-01;1906; -4.6422500E-03;  0.0000000E+00; -1.9414703E-04;  1.0000640E+03;  4.0001747E-01;  5.3035027E+01;3; -7.0865431E+00;  0.0000000E+00; -4.3967915E-01;0; -3.7480220E-02;  1.0000434E+04;  0.0000000E+00;  5.9994476E-09;  1.0000000E+04;  0.0000000E+00;  9.9999756E+03; -4.0432915E-02;  0.0000000E+00;  2.9526956E-03;  8.5794039E+00;
  5.5999815E-01;  9.9999998E-03; -1.0000003E-01;1907; -4.6342523E-03;  0.0000000E+00; -1.3496510E-04;  1.0000643E+03;  4.0001750E-01;  5.3331310E+01;3; -7.0560336E+00;  0.0000000E+00; -3.1625634E-01;0; -3.8090587E-02;  1.0000433E+04;  0.0000000E+00;  2.7213067E-09;  1.0000000E+04;  0.0000000E+00;  9.9999824E+03; -4.0221773E-02;  0.0000000E+00;  2.1311848E-03;  6.0152454E+00;
  5.5999815E-01;  9.9999998E-03; -8.0000021E-02;1908; -4.6291444E-03;  0.0000000E+00; -9.1663591E-05;  1.0000645E+03;  4.0001747E-01;  5.3430073E+01;3; -7.0384412E+00;  0.0000000E+00; -2.2239456E-01;0; -3.8493954E-02;  1.0000431E+04;  0.0000000E+00;  9.5119801E-10;  1.0000000E+04;  0.0000000E+00;  9.9999873E+03; -4.0074553E-02;  0.0000000E+00;  1.5805992E-03;  4.4981389E+00;
  5.5999815E-01;  9.9999998E-03; -6.0000014E-02;1909; -4.6270359E-03;  0.0000000E+00; -5.9564842E-05;  1.0000647E+03;  4.0001753E-01;  5.3627594E+01;3; -7.0310864E+00;  0.0000000E+00; -1.4828745E-01;0; -3.8787518E-02;  1.0000429E+04;  0.0000000E+00;  2.7790931E-10;  1.0000000E+04;  0.0000000E+00;  9.9999922E+03; -3.9975859E-02;  0.0000000E+00;  1.1883433E-03;  3.5210536E+00;
  5.5999815E-01;  9.9999998E-03; -4.0000007E-02;1910; -4.6267197E-03;  0.0000000E+00; -3.5716745E-05;  1.0000648E+03;  4.0001753E-01;  5.3627594E+01;3; -7.0293045E+00;  0.0000000E+00; -9.0913840E-02;0; -3.8997509E-02;  1.0000429E+04;  0.0000000E+00;  7.1959647E-11;  1.0000000E+04;  0.0000000E+00;  9.9999932E+03; -3.9914005E-02;  0.0000000E+00;  9.1649673E-04;  2.8850994E+00;
  5.5999815E-01;  9.9999998E-03; -2.0000003E-02;1911; -4.6270778E-03;  0.0000000E+00; -1.6657847E-05;  1.0000648E+03;  4.0001750E-01;  5.3726357E+01;3; -7.0297608E+00;  0.0000000E+00; -4.2994928E-02;0; -3.9125364E-02;  1.0000429E+04;  0.0000000E+00;  1.4160196E-11;  1.0000000E+04;  0.0000000E+00;  9.9999951E+03; -3.9880451E-02;  0.0000000E+00;  7.5508741E-04;  2.5203233E+00;
  5.7999772E-01;  9.9999998E-03; -1.8000020E-01;1934; -5.7983985E-03;  0.0000000E+00; -6.4009399E-04;  1.0001312E+03;  4.0004665E-01;  1.0873624E+02;3; -8.8151951E+00;  0.0000000E+00; -1.2914460E+00;0; -2.6744017E-02;  1.0000453E+04;  0.0000000E+00; -2.7457856E-08;  1.0000000E+04;  0.0000000E+00;  9.9998418E+03; -4.2470429E-02;  0.0000000E+00;  1.5726412E-02;  5.4480198E+01;
  5.7999766E-01;  9.9999998E-03; -1.6000015E-01;1935; -5.7958090E-03;  0.0000000E+00; -4.7718987E-04;  1.0001342E+03;  4.0004665E-01;  1.1110652E+02;3; -8.7285471E+00;  0.0000000E+00; -1.0041304E+00;0; -3.1937916E-02;  1.0000447E+04;  0.0000000E+00;  4.5714819E-09;  1.0000000E+04;  0.0000000E+00;  9.9999053E+03; -4.1775413E-02;  0.0000000E+00;  9.8374961E-03;  3.2453735E+01;
  5.7999766E-01;  9.9999998E-03; -1.4000010E-01;1936; -5.7807928E-03;  0.0000000E+00; -3.5253810E-04;  1.0001360E+03;  4.0004662E-01;  1.1268670E+02;3; -8.6456499E+00;  0.0000000E+00; -7.6991385E-01;0; -3.5182837E-02;  1.0000443E+04;  0.0000000E+00;  1.1125596E-08;  1.0000000E+04;  0.0000000E+00;  9.9999453E+03; -4.1242413E-02;  0.0000000E+00;  6.0595749E-03;  1.8613976E+01;
  5.7999766E-01;  9.9999998E-03; -1.2000006E-01;1937; -5.7648942E-03;  0.0000000E+00; -2.5137028E-04;  1.0001370E+03;  4.0004665E-01;  1.1347679E+02;3; -8.5816755E+00;  0.0000000E+00; -5.7246578E-01;0; -3.6930211E-02;  1.0000439E+04;  0.0000000E+00;  7.1447745E-09;  1.0000000E+04;  0.0000000E+00;  9.9999678E+03; -4.0847737E-02;  0.0000000E+00;  3.9175274E-03;  1.1142040E+01;
  5.7999766E-01;  9.9999998E-03; -1.0000005E-01;1938; -5.7518990E-03;  0.0000000E+00; -1.7305365E-04;  1.0001374E+03;  4.0004665E-01;  1.1387183E+02;3; -8.5383005E+00;  0.0000000E+00; -4.0755552E-01;0; -3.7858970E-02;  1.0000438E+04;  0.0000000E+00;  3.2712242E-09;  1.0000000E+04;  0.0000000E+00;  9.9999775E+03; -4.0566325E-02;  0.0000000E+00;  2.7073561E-03;  7.3066087E+00;
  5.7999766E-01;  9.9999998E-03; -8.0000028E-02;1939; -5.7433392E-03;  0.0000000E+00; -1.1595226E-04;  1.0001376E+03;  4.0004662E-01;  1.1406936E+02;3; -8.5123377E+00;  0.0000000E+00; -2.8259385E-01;0; -3.8412210E-02;  1.0000437E+04;  0.0000000E+00;  1.1682444E-09;  1.0000000E+04;  0.0000000E+00;  9.9999844E+03; -4.0374208E-02;  0.0000000E+00;  1.9619996E-03;  5.2417135E+00;
  5.7999766E-01;  9.9999998E-03; -6.0000017E-02;1940; -5.7392051E-03;  0.0000000E+00; -7.4776348E-05;  1.0001378E+03;  4.0004665E-01;  1.1416812E+02;3; -8.5005159E+00;  0.0000000E+00; -1.8716714E-01;0; -3.8790677E-02;  1.0000436E+04;  0.0000000E+00;  3.4380257E-10;  1.0000000E+04;  0.0000000E+00;  9.9999893E+03; -4.0248536E-02;  0.0000000E+00;  1.4578606E-03;  4.0075612E+00;
  5.7999766E-01;  9.9999998E-03; -4.0000010E-02;1941; -5.7379291E-03;  0.0000000E+00; -4.4277120E-05;  1.0001379E+03;  4.0004665E-01;  1.1426688E+02;3; -8.4967346E+00;  0.0000000E+00; -1.1319224E-01;0; -3.9056703E-02;  1.0000435E+04;  0.0000000E+00;  1.0684996E-10;  1.0000000E+04;  0.0000000E+00;  9.9999922E+03; -4.0171251E-02;  0.0000000E+00;  1.1145481E-03;  3.2301092E+00;
  5.7999766E-01;  9.9999998E-03; -2.0000005E-02;1942; -5.7378891E-03;  0.0000000E+00; -2.0584150E-05;  1.0001380E+03;  4.0004665E-01;  1.1436565E+02;3; -8.4964046E+00;  0.0000000E+00; -5.3391427E-02;0; -3.9218776E-02;  1.0000435E+04;  0.0000000E+00;  1.7169448E-11;  1.0000000E+04;  0.0000000E+00;  9.9999941E+03; -4.0129770E-02;  0.0000000E+00;  9.1099308E-04;  2.7868266E+00;
  5.9999716E-01;  9.9999998E-03; -1.8000023E-01;1965; -6.9763088E-03;  0.0000000E+00; -7.7181432E-04;  1.0003103E+03;  4.0012074E-01;  2.5707462E+02;3; -1.0420918E+01;  0.0000000E+00; -1.6103853E+00;0; -1.4854023E-02;  1.0000408E+04;  0.0000000E+00; -7.8953875E-08;  1.0000000E+04;  0.0000000E+00;  9.9997607E+03; -3.8457830E-02;  0.0000000E+00;  2.3603806E-02;  8.1786537E+01;
  5.9999716E-01;  9.9999998E-03; -1.6000018E-01;1966; -6.9352570E-03;  0.0000000E+00; -5.9267791E-04;  1.0003149E+03;  4.0012074E-01;  2.6092630E+02;3; -1.0269828E+01;  0.0000000E+00; -1.2790229E+00;0; -2.3347881E-02;  1.0000403E+04;  0.0000000E+00; -1.1445825E-08;  1.0000000E+04;  0.0000000E+00;  9.9998594E+03; -3.7742384E-02;  0.0000000E+00;  1.4394502E-02;  4.7515465E+01;
  5.9999716E-01;  9.9999998E-03; -1.4000012E-01;1967; -6.9041569E-03;  0.0000000E+00; -4.3249791E-04;  1.0003179E+03;  4.0012076E-01;  2.6329657E+02;3; -1.0154697E+01;  0.0000000E+00; -9.6158260E-01;0; -2.8705321E-02;  1.0000397E+04;  0.0000000E+00;  9.0832808E-09;  1.0000000E+04;  0.0000000E+00;  9.9999219E+03; -3.7158616E-02;  0.0000000E+00;  8.4532937E-03;  2.5845032E+01;
  5.9999722E-01;  9.9999998E-03; -1.2000008E-01;1968; -6.8744132E-03;  0.0000000E+00; -3.0953580E-04;  1.0003193E+03;  4.0012074E-01;  2.6458044E+02;3; -1.0060894E+01;  0.0000000E+00; -7.1281523E-01;0; -3.1560451E-02;  1.0000394E+04;  0.0000000E+00;  7.1065802E-09;  1.0000000E+04;  0.0000000E+00;  9.9999561E+03; -3.6713097E-02;  0.0000000E+00;  5.1526478E-03;  1.4317186E+01;
  5.9999722E-01;  9.9999998E-03; -1.0000005E-01;1969; -6.8526291E-03;  0.0000000E+00; -2.1435760E-04;  1.0003201E+03;  4.0012074E-01;  2.6517303E+02;3; -9.9989567E+00;  0.0000000E+00; -5.0946444E-01;0; -3.3002611E-02;  1.0000393E+04;  0.0000000E+00;  3.1833398E-09;  1.0000000E+04;  0.0000000E+00;  9.9999736E+03; -3.6393244E-02;  0.0000000E+00;  3.3906342E-03;  8.6779766E+00;
  5.9999722E-01;  9.9999998E-03; -8.0000035E-02;1970; -6.8395524E-03;  0.0000000E+00; -1.4287936E-04;  1.0003204E+03;  4.0012079E-01;  2.6546930E+02;3; -9.9634552E+00;  0.0000000E+00; -3.4915072E-01;0; -3.3789232E-02;  1.0000391E+04;  0.0000000E+00;  1.1282620E-09;  1.0000000E+04;  0.0000000E+00;  9.9999814E+03; -3.6176428E-02;  0.0000000E+00;  2.3871954E-03;  5.8840232E+00;
  5.9999722E-01;  9.9999998E-03; -6.0000021E-02;1971; -6.8329941E-03;  0.0000000E+00; -9.1317597E-05;  1.0003206E+03;  4.0012082E-01;  2.6566684E+02;3; -9.9462538E+00;  0.0000000E+00; -2.2925887E-01;0; -3.4288999E-02;  1.0000390E+04;  0.0000000E+00;  2.9864550E-10;  1.0000000E+04;  0.0000000E+00;  9.9999873E+03; -3.6036514E-02;  0.0000000E+00;  1.7475137E-03;  4.3470893E+00;
  5.9999722E-01;  9.9999998E-03; -4.0000014E-02;1972; -6.8306495E-03;  0.0000000E+00; -5.3586667E-05;  1.0003208E+03;  4.0012076E-01;  2.6576559E+02;3; -9.9403105E+00;  0.0000000E+00; -1.3723817E-01;0; -3.4629505E-02;  1.0000389E+04;  0.0000000E+00;  7.0041341E-11;  1.0000000E+04;  0.0000000E+00;  9.9999912E+03; -3.5951458E-02;  0.0000000E+00;  1.3219527E-03;  3.4203243E+00;
  5.9999722E-01;  9.9999998E-03; -2.0000005E-02;1973; -6.8301363E-03;  0.0000000E+00; -2.4705823E-05;  1.0003209E+03;  4.0012076E-01;  2.6586435E+02;3; -9.9390039E+00;  0.0000000E+00; -6.4082332E-02;0; -3.4835815E-02;  1.0000389E+04;  0.0000000E+00;  6.4079588E-12;  1.0000000E+04;  0.0000000E+00;  9.9999922E+03; -3.5906110E-02;  0.0000000E+00;  1.0702960E-03;  2.8969884E+00;
  6.1999667E-01;  9.9999998E-03; -1.8000026E-01;1996; -8.1099067E-03;  0.0000000E+00; -9.0673630E-04;  1.0007237E+03;  4.0029037E-01;  5.9957379E+02;3; -1.1923964E+01;  0.0000000E+00; -1.9796079E+00;0;  5.2647460E-03;  1.0000299E+04;  0.0000000E+00; -1.5007501E-07;  1.0000000E+04;  0.0000000E+00;  9.9996553E+03; -2.8561829E-02;  0.0000000E+00;  3.3826575E-02;  1.1692924E+02;
  6.1999673E-01;  9.9999998E-03; -1.6000019E-01;1997; -8.0267843E-03;  0.0000000E+00; -6.8167114E-04;  1.0007306E+03;  4.0029037E-01;  6.0530188E+02;3; -1.1708785E+01;  0.0000000E+00; -1.5299104E+00;0; -7.6551996E-03;  1.0000295E+04;  0.0000000E+00; -3.2668840E-08;  1.0000000E+04;  0.0000000E+00;  9.9997988E+03; -2.7971191E-02;  0.0000000E+00;  2.0315992E-02;  6.6920349E+01;
  6.1999673E-01;  9.9999998E-03; -1.4000013E-01;1998; -7.9610478E-03;  0.0000000E+00; -5.0956616E-04;  1.0007350E+03;  4.0029040E-01;  6.0895599E+02;3; -1.1536392E+01;  0.0000000E+00; -1.1703140E+00;0; -1.5925389E-02;  1.0000291E+04;  0.0000000E+00;  5.6012004E-09;  1.0000000E+04;  0.0000000E+00;  9.9998916E+03; -2.7448744E-02;  0.0000000E+00;  1.1523354E-02;  3.5019531E+01;
  6.1999673E-01;  9.9999998E-03; -1.2000009E-01;1999; -7.9143923E-03;  0.0000000E+00; -3.6273125E-04;  1.0007374E+03;  4.0029037E-01;  6.1093121E+02;3; -1.1414213E+01;  0.0000000E+00; -8.5021859E-01;0; -2.0352542E-02;  1.0000287E+04;  0.0000000E+00;  6.1596079E-09;  1.0000000E+04;  0.0000000E+00;  9.9999424E+03; -2.7034163E-02;  0.0000000E+00;  6.6816206E-03;  1.8143696E+01;
  6.1999673E-01;  9.9999998E-03; -1.0000006E-01;2000; -7.8800404E-03;  0.0000000E+00; -2.5140692E-04;  1.0007385E+03;  4.0029040E-01;  6.1182007E+02;3; -1.1326435E+01;  0.0000000E+00; -6.0395694E-01;0; -2.2542939E-02;  1.0000284E+04;  0.0000000E+00;  2.6966618E-09;  1.0000000E+04;  0.0000000E+00;  9.9999668E+03; -2.6732083E-02;  0.0000000E+00;  4.1891439E-03;  1.0128677E+01;
  6.1999673E-01;  9.9999998E-03; -8.0000043E-02;2001; -7.8597171E-03;  0.0000000E+00; -1.6713046E-04;  1.0007391E+03;  4.0029037E-01;  6.1231384E+02;3; -1.1276808E+01;  0.0000000E+00; -4.0921393E-01;0; -2.3671540E-02;  1.0000283E+04;  0.0000000E+00;  8.3176599E-10;  1.0000000E+04;  0.0000000E+00;  9.9999785E+03; -2.6526939E-02;  0.0000000E+00;  2.8553999E-03;  6.4010072E+00;
  6.1999673E-01;  9.9999998E-03; -6.0000025E-02;2002; -7.8492397E-03;  0.0000000E+00; -1.0563255E-04;  1.0007394E+03;  4.0029037E-01;  6.1251135E+02;3; -1.1251163E+01;  0.0000000E+00; -2.6419547E-01;0; -2.4342669E-02;  1.0000281E+04;  0.0000000E+00;  2.5805946E-10;  1.0000000E+04;  0.0000000E+00;  9.9999844E+03; -2.6395233E-02;  0.0000000E+00;  2.0525639E-03;  4.5056357E+00;
  6.1999673E-01;  9.9999998E-03; -4.0000014E-02;2003; -7.8444751E-03;  0.0000000E+00; -6.1369763E-05;  1.0007396E+03;  4.0029034E-01;  6.1270892E+02;3; -1.1239468E+01;  0.0000000E+00; -1.5648499E-01;0; -2.4783136E-02;  1.0000281E+04;  0.0000000E+00;  5.3667487E-11;  1.0000000E+04;  0.0000000E+00;  9.9999902E+03; -2.6315721E-02;  0.0000000E+00;  1.5325848E-03;  3.4190712E+00;
  6.1999673E-01;  9.9999998E-03; -2.0000007E-02;2004; -7.8428406E-03;  0.0000000E+00; -2.8072478E-05;  1.0007396E+03;  4.0029034E-01;  6.1270892E+02;3; -1.1235513E+01;  0.0000000E+00; -7.2616674E-02;0; -2.5047114E-02;  1.0000281E+04;  0.0000000E+00;  5.2973695E-13;  1.0000000E+04;  0.0000000E+00;  9.9999912E+03; -2.6273523E-02;  0.0000000E+00;  1.2264076E-03;  2.8138466E+00;
  6.3999623E-01;  9.9999998E-03; -1.8000029E-01;2027; -9.1296295E-03;  0.0000000E+00; -1.0802385E-03;  1.0014852E+03;  4.0060094E-01;  1.2304445E+03;3; -1.3261804E+01;  0.0000000E+00; -2.4350932E+00;0;  3.3152178E-02;  1.0000129E+04;  0.0000000E+00; -2.0372435E-07;  1.0000000E+04;  0.0000000E+00;  9.9995313E+03; -1.2766538E-02;  0.0000000E+00;  4.5918718E-02;  1.5815916E+02;
  6.3999629E-01;  9.9999998E-03; -1.6000021E-01;2028; -9.0054292E-03;  0.0000000E+00; -7.9570845E-04;  1.0014951E+03;  4.0060097E-01;  1.2385427E+03;3; -1.2985985E+01;  0.0000000E+00; -1.8599061E+00;0;  1.4911469E-02;  1.0000127E+04;  0.0000000E+00; -5.3088385E-08;  1.0000000E+04;  0.0000000E+00;  9.9997285E+03; -1.2436679E-02;  0.0000000E+00;  2.7348148E-02;  8.9755913E+01;
  6.3999629E-01;  9.9999998E-03; -1.4000015E-01;2029; -8.9095086E-03;  0.0000000E+00; -5.8730837E-04;  1.0015013E+03;  4.0060094E-01;  1.2437770E+03;3; -1.2767698E+01;  0.0000000E+00; -1.3917774E+00;0;  3.0664662E-03;  1.0000124E+04;  0.0000000E+00;  1.3121799E-09;  1.0000000E+04;  0.0000000E+00;  9.9998584E+03; -1.2092779E-02;  0.0000000E+00;  1.5159246E-02;  4.5759834E+01;
  6.3999635E-01;  9.9999998E-03; -1.2000010E-01;2030; -8.8392291E-03;  0.0000000E+00; -4.1696083E-04;  1.0015046E+03;  4.0060091E-01;  1.2465422E+03;3; -1.2601194E+01;  0.0000000E+00; -1.0013119E+00;0; -3.3362238E-03;  1.0000122E+04;  0.0000000E+00;  5.0773812E-09;  1.0000000E+04;  0.0000000E+00;  9.9999258E+03; -1.1800230E-02;  0.0000000E+00;  8.4640058E-03;  2.2504147E+01;
  6.3999635E-01;  9.9999998E-03; -1.0000007E-01;2031; -8.7929498E-03;  0.0000000E+00; -2.8100546E-04;  1.0015062E+03;  4.0060094E-01;  1.2478262E+03;3; -1.2492167E+01;  0.0000000E+00; -6.8417490E-01;0; -6.4917491E-03;  1.0000119E+04;  0.0000000E+00;  1.9784390E-09;  1.0000000E+04;  0.0000000E+00;  9.9999580E+03; -1.1581164E-02;  0.0000000E+00;  5.0894148E-03;  1.1639982E+01;
  6.3999635E-01;  9.9999998E-03; -8.0000043E-02;2032; -8.7650772E-03;  0.0000000E+00; -1.8057600E-04;  1.0015070E+03;  4.0060091E-01;  1.2484187E+03;3; -1.2426506E+01;  0.0000000E+00; -4.4435230E-01;0; -8.0705471E-03;  1.0000118E+04;  0.0000000E+00;  5.0857801E-10;  1.0000000E+04;  0.0000000E+00;  9.9999756E+03; -1.1431171E-02;  0.0000000E+00;  3.3606237E-03;  6.7996359E+00;
  6.3999635E-01;  9.9999998E-03; -6.0000025E-02;2033; -8.7485127E-03;  0.0000000E+00; -1.1056574E-04;  1.0015073E+03;  4.0060091E-01;  1.2487150E+03;3; -1.2386722E+01;  0.0000000E+00; -2.7716291E-01;0; -8.9668976E-03;  1.0000117E+04;  0.0000000E+00;  7.2249061E-11;  1.0000000E+04;  0.0000000E+00;  9.9999824E+03; -1.1335077E-02;  0.0000000E+00;  2.3681789E-03;  4.4917574E+00;
  6.3999635E-01;  9.9999998E-03; -4.0000014E-02;2034; -8.7399203E-03;  0.0000000E+00; -6.3281565E-05;  1.0015075E+03;  4.0060091E-01;  1.2489125E+03;3; -1.2366383E+01;  0.0000000E+00; -1.6172387E-01;0; -9.5357150E-03;  1.0000116E+04;  0.0000000E+00;  2.1915268E-11;  1.0000000E+04;  0.0000000E+00;  9.9999883E+03; -1.1277405E-02;  0.0000000E+00;  1.7416895E-03;  3.2324843E+00;
  6.3999635E-01;  9.9999998E-03; -2.0000007E-02;2035; -8.7360265E-03;  0.0000000E+00; -2.8201359E-05;  1.0015077E+03;  4.0060094E-01;  1.2490112E+03;3; -1.2357109E+01;  0.0000000E+00; -7.2820403E-02;0; -9.8722801E-03;  1.0000116E+04;  0.0000000E+00;  1.4818988E-12;  1.0000000E+04;  0.0000000E+00;  9.9999912E+03; -1.1246959E-02;  0.0000000E+00;  1.3746788E-03;  2.5421386E+00;
  6.5999597E-01;  9.9999998E-03; -1.8000036E-01;2058; -9.8373070E-03;  0.0000000E+00; -1.3266536E-03;  1.0024427E+03;  4.0099087E-01;  2.0236581E+03;3; -1.4279116E+01;  0.0000000E+00; -3.0146134E+00;0;  6.6233456E-02;  9.9999170E+03;  0.0000000E+00; -2.0330818E-07;  1.0000000E+04;  0.0000000E+00;  9.9993984E+03;  7.3596076E-03;  0.0000000E+00;  5.8873847E-02;  2.0199788E+02;
  6.5999597E-01;  9.9999998E-03; -1.6000025E-01;2059; -9.6776895E-03;  0.0000000E+00; -9.5721969E-04;  1.0024555E+03;  4.0099084E-01;  2.0342252E+03;3; -1.3930432E+01;  0.0000000E+00; -2.2673020E+00;0;  4.2269837E-02;  9.9999170E+03;  0.0000000E+00; -5.6118665E-08;  1.0000000E+04;  0.0000000E+00;  9.9996533E+03;  7.3584071E-03;  0.0000000E+00;  3.4911431E-02;  1.1409501E+02;
  6.5999603E-01;  9.9999998E-03; -1.4000018E-01;2060; -9.5655601E-03;  0.0000000E+00; -7.0379011E-04;  1.0024638E+03;  4.0099087E-01;  2.0411383E+03;3; -1.3676425E+01;  0.0000000E+00; -1.6852390E+00;0;  2.6527191E-02;  9.9999160E+03;  0.0000000E+00;  6.4873140E-10;  1.0000000E+04;  0.0000000E+00;  9.9998193E+03;  7.4479613E-03;  0.0000000E+00;  1.9079229E-02;  5.7201309E+01;
  6.5999603E-01;  9.9999998E-03; -1.2000012E-01;2061; -9.4865598E-03;  0.0000000E+00; -4.9272686E-04;  1.0024682E+03;  4.0099084E-01;  2.0447924E+03;3; -1.3493901E+01;  0.0000000E+00; -1.1958518E+00;0;  1.7933914E-02;  9.9999141E+03;  0.0000000E+00;  4.2070094E-09;  1.0000000E+04;  0.0000000E+00;  9.9999092E+03;  7.5531956E-03;  0.0000000E+00;  1.0380719E-02;  2.7099344E+01;
  6.5999609E-01;  9.9999998E-03; -1.0000008E-01;2062; -9.4312020E-03;  0.0000000E+00; -3.2371841E-04;  1.0024702E+03;  4.0099084E-01;  2.0464712E+03;3; -1.3362407E+01;  0.0000000E+00; -7.9351848E-01;0;  1.3685830E-02;  9.9999131E+03;  0.0000000E+00;  1.4368970E-09;  1.0000000E+04;  0.0000000E+00;  9.9999502E+03;  7.6394742E-03;  0.0000000E+00;  6.0463557E-03;  1.3159424E+01;
  6.5999609E-01;  9.9999998E-03; -8.0000050E-02;2063; -9.3936790E-03;  0.0000000E+00; -2.0052477E-04;  1.0024712E+03;  4.0099087E-01;  2.0472614E+03;3; -1.3271539E+01;  0.0000000E+00; -4.9718922E-01;0;  1.1585845E-02;  9.9999131E+03;  0.0000000E+00;  2.5016506E-10;  1.0000000E+04;  0.0000000E+00;  9.9999717E+03;  7.6995580E-03;  0.0000000E+00;  3.8862864E-03;  7.1135430E+00;
  6.5999609E-01;  9.9999998E-03; -6.0000028E-02;2064; -9.3697878E-03;  0.0000000E+00; -1.1708139E-04;  1.0024717E+03;  4.0099078E-01;  2.0476564E+03;3; -1.3213362E+01;  0.0000000E+00; -2.9531446E-01;0;  1.0424863E-02;  9.9999121E+03;  0.0000000E+00; -2.9264386E-11;  1.0000000E+04;  0.0000000E+00;  9.9999805E+03;  7.7373637E-03;  0.0000000E+00;  2.6874992E-03;  4.3608975E+00;
  6.5999609E-01;  9.9999998E-03; -4.0000014E-02;2065; -9.3558952E-03;  0.0000000E+00; -6.3599618E-05;  1.0024719E+03;  4.0099084E-01;  2.0478539E+03;3; -1.3179522E+01;  0.0000000E+00; -1.6393004E-01;0;  9.7052082E-03;  9.9999121E+03;  0.0000000E+00; -1.5009769E-11;  1.0000000E+04;  0.0000000E+00;  9.9999863E+03;  7.7593150E-03;  0.0000000E+00;  1.9458935E-03;  2.9188221E+00;
  6.5999609E-01;  9.9999998E-03; -2.0000007E-02;2066; -9.3484605E-03;  0.0000000E+00; -2.7331977E-05;  1.0024721E+03;  4.0099084E-01;  2.0480513E+03;3; -1.3161001E+01;  0.0000000E+00; -7.1247578E-02;0;  9.2838937E-03;  9.9999121E+03;  0.0000000E+00;  1.9698063E-12;  1.0000000E+04;  0.0000000E+00;  9.9999902E+03;  7.7705667E-03;  0.0000000E+00;  1.5133271E-03;  2.1397469E+00;
  6.7999601E-01;  9.9999998E-03; -1.8000041E-01;2089; -9.7834021E-03;  0.0000000E+00; -1.5398533E-03;  1.0032019E+03;  4.0130147E-01;  2.6526104E+03;3; -1.4503519E+01;  0.0000000E+00; -3.5660343E+00;0;  9.9970467E-02;  9.9996982E+03;  0.0000000E+00; -1.6324162E-07;  1.0000000E+04;  0.0000000E+00;  9.9992705E+03;  2.8579941E-02;  0.0000000E+00;  7.1390525E-02;  2.4409064E+02;
  6.7999607E-01;  9.9999998E-03; -1.6000026E-01;2090; -9.6348887E-03;  0.0000000E+00; -1.0933352E-03;  1.0032176E+03;  4.0130150E-01;  2.6655476E+03;3; -1.4152361E+01;  0.0000000E+00; -2.6567478E+00;0;  7.0519038E-02;  9.9996992E+03;  0.0000000E+00; -4.1729539E-08;  1.0000000E+04;  0.0000000E+00;  9.9995801E+03;  2.8276781E-02;  0.0000000E+00;  4.2242259E-02;  1.3749394E+02;
  6.7999613E-01;  9.9999998E-03; -1.4000019E-01;2091; -9.5275203E-03;  0.0000000E+00; -8.0656819E-04;  1.0032278E+03;  4.0130150E-01;  2.6740405E+03;3; -1.3898112E+01;  0.0000000E+00; -1.9750425E+00;0;  5.1007561E-02;  9.9997012E+03;  0.0000000E+00;  1.2230351E-09;  1.0000000E+04;  0.0000000E+00;  9.9997842E+03;  2.8110851E-02;  0.0000000E+00;  2.2896709E-02;  6.8218941E+01;
  6.7999613E-01;  9.9999998E-03; -1.2000014E-01;2092; -9.4512012E-03;  0.0000000E+00; -5.5768515E-04;  1.0032332E+03;  4.0130147E-01;  2.6784846E+03;3; -1.3712188E+01;  0.0000000E+00; -1.3742409E+00;0;  4.0275224E-02;  9.9997021E+03;  0.0000000E+00;  3.8350967E-09;  1.0000000E+04;  0.0000000E+00;  9.9998916E+03;  2.8016739E-02;  0.0000000E+00;  1.2258484E-02;  3.1527504E+01;
  6.7999613E-01;  9.9999998E-03; -1.0000008E-01;2093; -9.3983579E-03;  0.0000000E+00; -3.5896938E-04;  1.0032359E+03;  4.0130147E-01;  2.6807561E+03;3; -1.3581045E+01;  0.0000000E+00; -8.9266759E-01;0;  3.4946375E-02;  9.9997021E+03;  0.0000000E+00;  1.0713651E-09;  1.0000000E+04;  0.0000000E+00;  9.9999434E+03;  2.7957132E-02;  0.0000000E+00;  6.9892425E-03;  1.4615690E+01;
  6.7999613E-01;  9.9999998E-03; -8.0000050E-02;2094; -9.3633244E-03;  0.0000000E+00; -2.1465866E-04;  1.0032371E+03;  4.0130144E-01;  2.6816450E+03;3; -1.3493949E+01;  0.0000000E+00; -5.4177827E-01;0;  3.2321569E-02;  9.9997021E+03;  0.0000000E+00;  1.1821991E-10;  1.0000000E+04;  0.0000000E+00;  9.9999668E+03;  2.7916718E-02;  0.0000000E+00;  4.4048508E-03;  7.3970618E+00;
  6.7999613E-01;  9.9999998E-03; -6.0000028E-02;2095; -9.3417410E-03;  0.0000000E+00; -1.1975582E-04;  1.0032376E+03;  4.0130144E-01;  2.6821387E+03;3; -1.3439575E+01;  0.0000000E+00; -3.0847016E-01;0;  3.0888971E-02;  9.9997021E+03;  0.0000000E+00; -3.5408242E-11;  1.0000000E+04;  0.0000000E+00;  9.9999785E+03;  2.7888875E-02;  0.0000000E+00;  3.0000946E-03;  4.2063613E+00;
  6.7999613E-01;  9.9999998E-03; -4.0000014E-02;2096; -9.3291225E-03;  0.0000000E+00; -6.1136532E-05;  1.0032380E+03;  4.0130144E-01;  2.6824351E+03;3; -1.3406795E+01;  0.0000000E+00; -1.6067380E-01;0;  3.0012669E-02;  9.9997031E+03;  0.0000000E+00; -1.4513724E-11;  1.0000000E+04;  0.0000000E+00;  9.9999854E+03;  2.7870590E-02;  0.0000000E+00;  2.1420785E-03;  2.5811541E+00;
  6.7999613E-01;  9.9999998E-03; -2.0000005E-02;2097; -9.3227290E-03;  0.0000000E+00; -2.5303912E-05;  1.0032381E+03;  4.0130144E-01;  2.6825337E+03;3; -1.3390346E+01;  0.0000000E+00; -6.7900702E-02;0;  2.9503005E-02;  9.9997031E+03;  0.0000000E+00; -3.9554852E-12;  1.0000000E+04;  0.0000000E+00;  9.9999893E+03;  2.7860248E-02;  0.0000000E+00;  1.6427557E-03;  1.7121446E+00;
  6.9999671E-01;  9.9999998E-03; -1.8000045E-01;2120; -8.3978288E-03;  0.0000000E+00; -1.7306271E-03;  1.0036115E+03;  4.0147114E-01;  2.9917798E+03;3; -1.2898725E+01;  0.0000000E+00; -4.0397220E+00;0;  1.2900129E-01;  9.9995166E+03;  0.0000000E+00; -9.5019402E-08;  1.0000000E+04;  0.0000000E+00;  9.9991611E+03;  4.6716008E-02;  0.0000000E+00;  8.2285278E-02;  2.8057513E+02;
  6.9999671E-01;  9.9999998E-03; -1.6000029E-01;2121; -8.2843844E-03;  0.0000000E+00; -1.2202809E-03;  1.0036295E+03;  4.0147111E-01;  3.0067905E+03;3; -1.2620126E+01;  0.0000000E+00; -2.9958503E+00;0;  9.4847590E-02;  9.9995205E+03;  0.0000000E+00; -1.9684039E-08;  1.0000000E+04;  0.0000000E+00;  9.9995176E+03;  4.6214517E-02;  0.0000000E+00;  4.8633069E-02;  1.5776735E+02;
  6.9999671E-01;  9.9999998E-03; -1.4000022E-01;2122; -8.1976829E-03;  0.0000000E+00; -9.0110436E-04;  1.0036414E+03;  4.0147114E-01;  3.0165674E+03;3; -1.2406713E+01;  0.0000000E+00; -2.2223790E+00;0;  7.2103329E-02;  9.9995234E+03;  0.0000000E+00;  3.8836516E-09;  1.0000000E+04;  0.0000000E+00;  9.9997510E+03;  4.5857839E-02;  0.0000000E+00;  2.6245488E-02;  7.7803673E+01;
  6.9999677E-01;  9.9999998E-03; -1.2000015E-01;2123; -8.1359278E-03;  0.0000000E+00; -6.1966729E-04;  1.0036478E+03;  4.0147114E-01;  3.0219001E+03;3; -1.2254158E+01;  0.0000000E+00; -1.5343752E+00;0;  5.9531078E-02;  9.9995244E+03;  0.0000000E+00;  3.0058458E-09;  1.0000000E+04;  0.0000000E+00;  9.9998770E+03;  4.5604166E-02;  0.0000000E+00;  1.3926910E-02;  3.5430546E+01;
  6.9999677E-01;  9.9999998E-03; -1.0000009E-01;2124; -8.0948919E-03;  0.0000000E+00; -3.9172155E-04;  1.0036509E+03;  4.0147108E-01;  3.0244678E+03;3; -1.2152247E+01;  0.0000000E+00; -9.7567439E-01;0;  5.3267967E-02;  9.9995254E+03;  0.0000000E+00;  8.2262630E-10;  1.0000000E+04;  0.0000000E+00;  9.9999365E+03;  4.5424026E-02;  0.0000000E+00;  7.8439415E-03;  1.5953286E+01;
  6.9999677E-01;  9.9999998E-03; -8.0000058E-02;2125; -8.0698272E-03;  0.0000000E+00; -2.2611713E-04;  1.0036522E+03;  4.0147114E-01;  3.0255540E+03;3; -1.2089551E+01;  0.0000000E+00; -5.6825483E-01;0;  5.0184373E-02;  9.9995273E+03;  0.0000000E+00;  1.2745970E-10;  1.0000000E+04;  0.0000000E+00;  9.9999629E+03;  4.5299586E-02;  0.0000000E+00;  4.8847855E-03;  7.7144008E+00;
  6.9999677E-01;  9.9999998E-03; -6.0000028E-02;2126; -8.0558565E-03;  0.0000000E+00; -1.1885448E-04;  1.0036530E+03;  4.0147117E-01;  3.0261465E+03;3; -1.2054211E+01;  0.0000000E+00; -3.0270731E-01;0;  4.8509948E-02;  9.9995273E+03;  0.0000000E+00; -3.0911239E-11;  1.0000000E+04;  0.0000000E+00;  9.9999766E+03;  4.5216937E-02;  0.0000000E+00;  3.2930113E-03;  4.1332836E+00;
  6.9999677E-01;  9.9999998E-03; -4.0000014E-02;2127; -8.0487924E-03;  0.0000000E+00; -5.6296700E-05;  1.0036533E+03;  4.0147117E-01;  3.0264429E+03;3; -1.2036087E+01;  0.0000000E+00; -1.4598551E-01;0;  4.7491536E-02;  9.9995283E+03;  0.0000000E+00; -1.8524390E-11;  1.0000000E+04;  0.0000000E+00;  9.9999844E+03;  4.5165338E-02;  0.0000000E+00;  2.3261970E-03;  2.3375888E+00;
  6.9999677E-01;  9.9999998E-03; -2.0000005E-02;2128; -8.0456696E-03;  0.0000000E+00; -2.1708889E-05;  1.0036535E+03;  4.0147111E-01;  3.0266404E+03;3; -1.2027940E+01;  0.0000000E+00; -5.7315242E-02;0;  4.6900760E-02;  9.9995283E+03;  0.0000000E+00; -8.8467489E-12;  1.0000000E+04;  0.0000000E+00;  9.9999873E+03;  4.5137256E-02;  0.0000000E+00;  1.7635055E-03;  1.3820673E+00;
  7.1999764E-01;  9.9999998E-03; -1.8000050E-01;2151; -5.9333062E-03;  0.0000000E+00; -1.8982021E-03;  1.0037868E+03;  4.0154523E-01;  3.1369622E+03;3; -9.2108011E+00;  0.0000000E+00; -4.4402857E+00;0;  1.4910419E-01;  9.9994063E+03;  0.0000000E+00; -4.0822609E-08;  1.0000000E+04;  0.0000000E+00;  9.9990742E+03;  5.8288142E-02;  0.0000000E+00;  9.0816051E-02;  3.0909058E+02;
  7.1999770E-01;  9.9999998E-03; -1.6000032E-01;2152; -5.8441726E-03;  0.0000000E+00; -1.3426095E-03;  1.0038068E+03;  4.0154523E-01;  3.1534539E+03;3; -8.9911766E+00;  0.0000000E+00; -3.2992561E+00;0;  1.1133741E-01;  9.9994111E+03;  0.0000000E+00; -4.3120894E-09;  1.0000000E+04;  0.0000000E+00;  9.9994688E+03;  5.7700552E-02;  0.0000000E+00;  5.3636853E-02;  1.7359251E+02;
  7.1999770E-01;  9.9999998E-03; -1.4000024E-01;2153; -5.7747886E-03;  0.0000000E+00; -9.9210127E-04;  1.0038199E+03;  4.0154526E-01;  3.1644153E+03;3; -8.8200655E+00;  0.0000000E+00; -2.4487181E+00;0;  8.6127676E-02;  9.9994131E+03;  0.0000000E+00;  4.6490745E-09;  1.0000000E+04;  0.0000000E+00;  9.9997266E+03;  5.7239372E-02;  0.0000000E+00;  2.8888306E-02;  8.5346176E+01;
  7.1999770E-01;  9.9999998E-03; -1.2000017E-01;2154; -5.7247449E-03;  0.0000000E+00; -6.8210025E-04;  1.0038270E+03;  4.0154526E-01;  3.1702417E+03;3; -8.6961889E+00;  0.0000000E+00; -1.6900022E+00;0;  7.2158806E-02;  9.9994160E+03;  0.0000000E+00;  2.3258235E-09;  1.0000000E+04;  0.0000000E+00;  9.9998652E+03;  5.6889139E-02;  0.0000000E+00;  1.5269666E-02;  3.8592636E+01;
  7.1999770E-01;  9.9999998E-03; -1.0000011E-01;2155; -5.6915781E-03;  0.0000000E+00; -4.3073366E-04;  1.0038304E+03;  4.0154523E-01;  3.1731055E+03;3; -8.6137094E+00;  0.0000000E+00; -1.0732720E+00;0;  6.5188035E-02;  9.9994170E+03;  0.0000000E+00;  6.4139477E-10;  1.0000000E+04;  0.0000000E+00;  9.9999316E+03;  5.6633394E-02;  0.0000000E+00;  8.5546421E-03;  1.7140219E+01;
  7.1999776E-01;  9.9999998E-03; -8.0000058E-02;2156; -5.6715752E-03;  0.0000000E+00; -2.4807069E-04;  1.0038319E+03;  4.0154523E-01;  3.1742905E+03;3; -8.5636349E+00;  0.0000000E+00; -6.2352121E-01;0;  6.1754383E-02;  9.9994189E+03;  0.0000000E+00;  1.2046039E-10;  1.0000000E+04;  0.0000000E+00;  9.9999609E+03;  5.6455784E-02;  0.0000000E+00;  5.2986005E-03;  8.1086216E+00;
  7.1999776E-01;  9.9999998E-03; -6.0000032E-02;2157; -5.6606564E-03;  0.0000000E+00; -1.2991972E-04;  1.0038327E+03;  4.0154520E-01;  3.1749817E+03;3; -8.5360107E+00;  0.0000000E+00; -3.3083922E-01;0;  5.9891202E-02;  9.9994199E+03;  0.0000000E+00; -8.1918404E-12;  1.0000000E+04;  0.0000000E+00;  9.9999746E+03;  5.6338612E-02;  0.0000000E+00;  3.5525903E-03;  4.2131581E+00;
  7.1999776E-01;  9.9999998E-03; -4.0000014E-02;2158; -5.6553008E-03;  0.0000000E+00; -6.1225481E-05;  1.0038331E+03;  4.0154523E-01;  3.1753767E+03;3; -8.5222473E+00;  0.0000000E+00; -1.5870297E-01;0;  5.8758639E-02;  9.9994199E+03;  0.0000000E+00;  2.7794505E-12;  1.0000000E+04;  0.0000000E+00;  9.9999824E+03;  5.6266330E-02;  0.0000000E+00;  2.4923082E-03;  2.2711959E+00;
  7.1999776E-01;  9.9999998E-03; -2.0000005E-02;2159; -5.6530093E-03;  0.0000000E+00; -2.3492927E-05;  1.0038334E+03;  4.0154523E-01;  3.1755742E+03;3; -8.5162430E+00;  0.0000000E+00; -6.2010903E-02;0;  5.8101594E-02;  9.9994209E+03;  0.0000000E+00; -2.6314953E-12;  1.0000000E+04;  0.0000000E+00;  9.9999873E+03;  5.6227595E-02;  0.0000000E+00;  1.8740003E-03;  1.2379534E+00;
  7.3999858E-01;  9.9999998E-03; -1.8000053E-01;2182; -3.6158010E-03;  0.0000000E+00; -2.0170428E-03;  1.0038550E+03;  4.0157437E-01;  3.1933303E+03;3; -5.6509237E+00;  0.0000000E+00; -4.7257462E+00;0;  1.5894338E-01;  9.9993730E+03;  0.0000000E+00; -1.1487152E-08;  1.0000000E+04;  0.0000000E+00;  9.9990127E+03;  6.2154230E-02;  0.0000000E+00;  9.6789151E-02;  3.2906091E+02;
  7.3999858E-01;  9.9999998E-03; -1.6000035E-01;2183; -3.5526420E-03;  0.0000000E+00; -1.4342342E-03;  1.0038763E+03;  4.0157440E-01;  3.2110063E+03;3; -5.4956369E+00;  0.0000000E+00; -3.5250640E+00;0;  1.1869523E-01;  9.9993779E+03;  0.0000000E+00;  1.9066806E-09;  1.0000000E+04;  0.0000000E+00;  9.9994336E+03;  6.1558217E-02;  0.0000000E+00;  5.7137016E-02;  1.8466879E+02;
  7.3999864E-01;  9.9999998E-03; -1.4000025E-01;2184; -3.5027722E-03;  0.0000000E+00; -1.0610970E-03;  1.0038904E+03;  4.0157440E-01;  3.2226587E+03;3; -5.3726101E+00;  0.0000000E+00; -2.6193757E+00;0;  9.1819912E-02;  9.9993818E+03;  0.0000000E+00;  3.1513867E-09;  1.0000000E+04;  0.0000000E+00;  9.9997090E+03;  6.1063625E-02;  0.0000000E+00;  3.0756291E-02;  9.0702263E+01;
  7.3999864E-01;  9.9999998E-03; -1.2000018E-01;2185; -3.4664245E-03;  0.0000000E+00; -7.2992127E-04;  1.0038979E+03;  4.0157440E-01;  3.2288799E+03;3; -5.2826262E+00;  0.0000000E+00; -1.8087807E+00;0;  7.6920033E-02;  9.9993848E+03;  0.0000000E+00;  1.3989462E-09;  1.0000000E+04;  0.0000000E+00;  9.9998574E+03;  6.0675208E-02;  0.0000000E+00;  1.6244825E-02;  4.0949669E+01;
  7.3999864E-01;  9.9999998E-03; -1.0000011E-01;2186; -3.4422411E-03;  0.0000000E+00; -4.6093503E-04;  1.0039016E+03;  4.0157440E-01;  3.2319412E+03;3; -5.2224894E+00;  0.0000000E+00; -1.1487399E+00;0;  6.9481775E-02;  9.9993867E+03;  0.0000000E+00;  4.2912168E-10;  1.0000000E+04;  0.0000000E+00;  9.9999277E+03;  6.0387697E-02;  0.0000000E+00;  9.0940753E-03;  1.8149683E+01;
  7.3999864E-01;  9.9999998E-03; -8.0000065E-02;2187; -3.4276512E-03;  0.0000000E+00; -2.6535249E-04;  1.0039031E+03;  4.0157437E-01;  3.2332249E+03;3; -5.1859698E+00;  0.0000000E+00; -6.6709214E-01;0;  6.5815002E-02;  9.9993887E+03;  0.0000000E+00;  9.0395191E-11;  1.0000000E+04;  0.0000000E+00;  9.9999580E+03;  6.0187273E-02;  0.0000000E+00;  5.6277304E-03;  8.5706396E+00;
  7.3999864E-01;  9.9999998E-03; -6.0000032E-02;2188; -3.4196966E-03;  0.0000000E+00; -1.3884660E-04;  1.0039040E+03;  4.0157434E-01;  3.2339160E+03;3; -5.1658578E+00;  0.0000000E+00; -3.5366195E-01;0;  6.3821845E-02;  9.9993896E+03;  0.0000000E+00;  2.6494891E-11;  1.0000000E+04;  0.0000000E+00;  9.9999736E+03;  6.0055446E-02;  0.0000000E+00;  3.7663977E-03;  4.4471345E+00;
  7.3999864E-01;  9.9999998E-03; -4.0000014E-02;2189; -3.4157925E-03;  0.0000000E+00; -6.5346190E-05;  1.0039044E+03;  4.0157440E-01;  3.2343110E+03;3; -5.1558323E+00;  0.0000000E+00; -1.6943085E-01;0;  6.2607296E-02;  9.9993896E+03;  0.0000000E+00; -6.8883519E-12;  1.0000000E+04;  0.0000000E+00;  9.9999824E+03;  5.9974700E-02;  0.0000000E+00;  2.6325965E-03;  2.3902428E+00;
  7.3999864E-01;  9.9999998E-03; -2.0000005E-02;2190; -3.4141270E-03;  0.0000000E+00; -2.5046749E-05;  1.0039047E+03;  4.0157440E-01;  3.2345085E+03;3; -5.1514740E+00;  0.0000000E+00; -6.6128597E-02;0;  6.1901178E-02;  9.9993896E+03;  0.0000000E+00;  5.8452982E-12;  1.0000000E+04;  0.0000000E+00;  9.9999863E+03;  5.9931688E-02;  0.0000000E+00;  1.9694888E-03;  1.2927997E+00;
  7.5999928E-01;  9.9999998E-03; -1.8000054E-01;2213; -1.8252244E-03;  0.0000000E+00; -2.0931466E-03;  1.0038823E+03;  4.0158540E-01;  3.2157837E+03;3; -2.8869221E+00;  0.0000000E+00; -4.9097672E+00;0;  1.6018941E-01;  9.9994033E+03;  0.0000000E+00; -1.0126689E-09;  1.0000000E+04;  0.0000000E+00;  9.9989756E+03;  5.9749339E-02;  0.0000000E+00;  1.0044007E-01;  3.4126038E+02;
  7.5999928E-01;  9.9999998E-03; -1.6000037E-01;2214; -1.7868835E-03;  0.0000000E+00; -1.4955836E-03;  1.0039043E+03;  4.0158540E-01;  3.2340513E+03;3; -2.7927980E+00;  0.0000000E+00; -3.6761539E+00;0;  1.1846052E-01;  9.9994072E+03;  0.0000000E+00;  2.3785334E-09;  1.0000000E+04;  0.0000000E+00;  9.9994121E+03;  5.9185091E-02;  0.0000000E+00;  5.9275430E-02;  1.9145332E+02;
  7.5999933E-01;  9.9999998E-03; -1.4000027E-01;2215; -1.7559172E-03;  0.0000000E+00; -1.1080592E-03;  1.0039188E+03;  4.0158543E-01;  3.2459993E+03;3; -2.7164302E+00;  0.0000000E+00; -2.7355030E+00;0;  9.0616770E-02;  9.9994111E+03;  0.0000000E+00;  1.6546677E-09;  1.0000000E+04;  0.0000000E+00;  9.9996992E+03;  5.8702402E-02;  0.0000000E+00;  3.1914368E-02;  9.4065056E+01;
  7.5999933E-01;  9.9999998E-03; -1.2000018E-01;2216; -1.7330862E-03;  0.0000000E+00; -7.6266157E-04;  1.0039266E+03;  4.0158540E-01;  3.2524175E+03;3; -2.6599369E+00;  0.0000000E+00; -1.8901279E+00;0;  7.5188704E-02;  9.9994131E+03;  0.0000000E+00;  7.0043404E-10;  1.0000000E+04;  0.0000000E+00;  9.9998525E+03;  5.8316726E-02;  0.0000000E+00;  1.6871976E-02;  4.2539646E+01;
  7.5999933E-01;  9.9999998E-03; -1.0000011E-01;2217; -1.7178445E-03;  0.0000000E+00; -4.8160757E-04;  1.0039304E+03;  4.0158543E-01;  3.2555774E+03;3; -2.6220720E+00;  0.0000000E+00; -1.2004585E+00;0;  6.7489780E-02;  9.9994160E+03;  0.0000000E+00;  1.9635941E-10;  1.0000000E+04;  0.0000000E+00;  9.9999248E+03;  5.8029108E-02;  0.0000000E+00;  9.4606737E-03;  1.8946871E+01;
  7.5999933E-01;  9.9999998E-03; -8.0000065E-02;2218; -1.7086631E-03;  0.0000000E+00; -2.7713898E-04;  1.0039321E+03;  4.0158537E-01;  3.2570583E+03;3; -2.5991275E+00;  0.0000000E+00; -6.9689476E-01;0;  6.3691601E-02;  9.9994170E+03;  0.0000000E+00;  4.5400694E-11;  1.0000000E+04;  0.0000000E+00;  9.9999570E+03;  5.7828028E-02;  0.0000000E+00;  5.8635706E-03;  9.0397940E+00;
  7.5999933E-01;  9.9999998E-03; -6.0000036E-02;2219; -1.7036644E-03;  0.0000000E+00; -1.4491245E-04;  1.0039329E+03;  4.0158540E-01;  3.2576509E+03;3; -2.5865200E+00;  0.0000000E+00; -3.6924046E-01;0;  6.1621159E-02;  9.9994180E+03;  0.0000000E+00;  1.2897865E-11;  1.0000000E+04;  0.0000000E+00;  9.9999727E+03;  5.7695899E-02;  0.0000000E+00;  3.9252602E-03;  4.7700667E+00;
  7.5999933E-01;  9.9999998E-03; -4.0000014E-02;2220; -1.7012171E-03;  0.0000000E+00; -6.8149937E-05;  1.0039333E+03;  4.0158543E-01;  3.2580459E+03;3; -2.5802550E+00;  0.0000000E+00; -1.7679068E-01;0;  6.0354806E-02;  9.9994180E+03;  0.0000000E+00; -2.7141672E-12;  1.0000000E+04;  0.0000000E+00;  9.9999814E+03;  5.7615370E-02;  0.0000000E+00;  2.7394358E-03;  2.6322653E+00;
  7.5999933E-01;  9.9999998E-03; -2.0000005E-02;2221; -1.7001707E-03;  0.0000000E+00; -2.6099498E-05;  1.0039336E+03;  4.0158540E-01;  3.2582434E+03;3; -2.5775237E+00;  0.0000000E+00; -6.8971165E-02;0;  5.9616651E-02;  9.9994180E+03;  0.0000000E+00;  1.4983559E-12;  1.0000000E+04;  0.0000000E+00;  9.9999863E+03;  5.7572804E-02;  0.0000000E+00;  2.0438479E-03;  1.4873629E+00;
  7.7999979E-01;  9.9999998E-03; -1.8000056E-01;2244; -5.2401202E-04;  0.0000000E+00; -2.1329075E-03;  1.0038947E+03;  4.0158945E-01;  3.2258357E+03;3; -8.6356777E-01;  0.0000000E+00; -5.0062399E+00;0;  1.5610215E-01;  9.9994648E+03;  0.0000000E+00;  8.9482294E-10;  1.0000000E+04;  0.0000000E+00;  9.9989590E+03;  5.3908981E-02;  0.0000000E+00;  1.0219317E-01;  3.4703326E+02;
  7.7999979E-01;  9.9999998E-03; -1.6000037E-01;2245; -5.0778128E-04;  0.0000000E+00; -1.5291813E-03;  1.0039171E+03;  4.0158951E-01;  3.2443982E+03;3; -8.2375330E-01;  0.0000000E+00; -3.7588255E+00;0;  1.1369523E-01;  9.9994697E+03;  0.0000000E+00;  7.2376627E-10;  1.0000000E+04;  0.0000000E+00;  9.9994023E+03;  5.3390838E-02;  0.0000000E+00;  6.0304388E-02;  1.9469926E+02;
  7.7999979E-01;  9.9999998E-03; -1.4000027E-01;2246; -4.9406127E-04;  0.0000000E+00; -1.1342604E-03;  1.0039318E+03;  4.0158948E-01;  3.2566416E+03;3; -7.8995335E-01;  0.0000000E+00; -2.8002789E+00;0;  8.5427552E-02;  9.9994727E+03;  0.0000000E+00;  4.4152318E-10;  1.0000000E+04;  0.0000000E+00;  9.9996934E+03;  5.2941680E-02;  0.0000000E+00;  3.2485876E-02;  9.5752655E+01;
  7.7999979E-01;  9.9999998E-03; -1.2000019E-01;2247; -4.8376221E-04;  0.0000000E+00; -7.8101252E-04;  1.0039398E+03;  4.0158951E-01;  3.2632568E+03;3; -7.6449579E-01;  0.0000000E+00; -1.9357681E+00;0;  6.9779754E-02;  9.9994746E+03;  0.0000000E+00;  1.4434078E-10;  1.0000000E+04;  0.0000000E+00;  9.9998496E+03;  5.2580118E-02;  0.0000000E+00;  1.7199634E-02;  4.3435009E+01;
  7.7999979E-01;  9.9999998E-03; -1.0000012E-01;2248; -4.7688035E-04;  0.0000000E+00; -4.9315795E-04;  1.0039435E+03;  4.0158951E-01;  3.2663179E+03;3; -7.4744898E-01;  0.0000000E+00; -1.2294320E+00;0;  6.1976679E-02;  9.9994775E+03;  0.0000000E+00;  4.9418872E-11;  1.0000000E+04;  0.0000000E+00;  9.9999219E+03;  5.2309349E-02;  0.0000000E+00;  9.6673286E-03;  1.9490496E+01;
  7.7999979E-01;  9.9999998E-03; -8.0000065E-02;2249; -4.7275014E-04;  0.0000000E+00; -2.8367719E-04;  1.0039453E+03;  4.0158945E-01;  3.2677988E+03;3; -7.3718387E-01;  0.0000000E+00; -7.1351653E-01;0;  5.8124736E-02;  9.9994785E+03;  0.0000000E+00;  1.7922039E-11;  1.0000000E+04;  0.0000000E+00;  9.9999561E+03;  5.2119538E-02;  0.0000000E+00;  6.0051992E-03;  9.4327087E+00;
  7.7999979E-01;  9.9999998E-03; -6.0000036E-02;2250; -4.7051886E-04;  0.0000000E+00; -1.4825702E-04;  1.0039460E+03;  4.0158945E-01;  3.2683911E+03;3; -7.3158562E-01;  0.0000000E+00; -3.7790120E-01;0;  5.6019105E-02;  9.9994795E+03;  0.0000000E+00;  9.2012222E-12;  1.0000000E+04;  0.0000000E+00;  9.9999717E+03;  5.1994838E-02;  0.0000000E+00;  4.0242686E-03;  5.0878401E+00;
  7.7999979E-01;  9.9999998E-03; -4.0000018E-02;2251; -4.6943245E-04;  0.0000000E+00; -6.9682159E-05;  1.0039465E+03;  4.0158948E-01;  3.2687861E+03;3; -7.2883803E-01;  0.0000000E+00; -1.8086733E-01;0;  5.4726597E-02;  9.9994795E+03;  0.0000000E+00;  3.3313765E-13;  1.0000000E+04;  0.0000000E+00;  9.9999814E+03;  5.1919173E-02;  0.0000000E+00;  2.8074221E-03;  2.9030001E+00;
  7.7999979E-01;  9.9999998E-03; -2.0000005E-02;2252; -4.6896926E-04;  0.0000000E+00; -2.6666141E-05;  1.0039468E+03;  4.0158945E-01;  3.2689836E+03;3; -7.2763473E-01;  0.0000000E+00; -7.0516586E-02;0;  5.3971298E-02;  9.9994805E+03;  0.0000000E+00; -2.5574896E-12;  1.0000000E+04;  0.0000000E+00;  9.9999863E+03;  5.1879387E-02;  0.0000000E+00;  2.0919109E-03;  1.7289703E+00;
  8.0000019E-01;  9.9999998E-03; -1.8000056E-01;2275;  4.8304096E-04;  0.0000000E+00; -2.1416226E-03;  1.0038987E+03;  4.0158981E-01;  3.2288992E+03;3;  7.1410215E-01;  0.0000000E+00; -5.0277195E+00;0;  1.4980195E-01;  9.9995322E+03;  0.0000000E+00; -6.2989269E-10;  1.0000000E+04;  0.0000000E+00;  9.9989551E+03;  4.7359269E-02;  0.0000000E+00;  1.0244268E-01;  3.4760110E+02;
  8.0000019E-01;  9.9999998E-03; -1.6000037E-01;2276;  4.7986375E-04;  0.0000000E+00; -1.5381444E-03;  1.0039212E+03;  4.0158987E-01;  3.2474602E+03;3;  7.0623332E-01;  0.0000000E+00; -3.7808318E+00;0;  1.0733931E-01;  9.9995352E+03;  0.0000000E+00; -2.7443167E-10;  1.0000000E+04;  0.0000000E+00;  9.9994014E+03;  4.6885900E-02;  0.0000000E+00;  6.0453411E-02;  1.9506447E+02;
  8.0000019E-01;  9.9999998E-03; -1.4000028E-01;2277;  4.7815652E-04;  0.0000000E+00; -1.1417294E-03;  1.0039359E+03;  4.0158984E-01;  3.2597024E+03;3;  7.0199347E-01;  0.0000000E+00; -2.8187673E+00;0;  7.9058275E-02;  9.9995391E+03;  0.0000000E+00; -6.8791889E-11;  1.0000000E+04;  0.0000000E+00;  9.9996924E+03;  4.6474293E-02;  0.0000000E+00;  3.2583982E-02;  9.6036102E+01;
  8.0000019E-01;  9.9999998E-03; -1.2000019E-01;2278;  4.7716094E-04;  0.0000000E+00; -7.8629964E-04;  1.0039439E+03;  4.0158978E-01;  3.2663171E+03;3;  6.9947457E-01;  0.0000000E+00; -1.9489843E+00;0;  6.3417390E-02;  9.9995400E+03;  0.0000000E+00; -8.1022463E-12;  1.0000000E+04;  0.0000000E+00;  9.9998486E+03;  4.6142332E-02;  0.0000000E+00;  1.7275058E-02;  4.3695248E+01;
  8.0000019E-01;  9.9999998E-03; -1.0000012E-01;2279;  4.7650535E-04;  0.0000000E+00; -4.9642386E-04;  1.0039476E+03;  4.0158981E-01;  3.2693777E+03;3;  6.9775409E-01;  0.0000000E+00; -1.2377274E+00;0;  5.5623002E-02;  9.9995420E+03;  0.0000000E+00; -1.2715516E-13;  1.0000000E+04;  0.0000000E+00;  9.9999219E+03;  4.5892954E-02;  0.0000000E+00;  9.7300466E-03;  1.9744280E+01;
  8.0000019E-01;  9.9999998E-03; -8.0000065E-02;2280;  4.7606902E-04;  0.0000000E+00; -2.8546283E-04;  1.0039493E+03;  4.0158981E-01;  3.2707600E+03;3;  6.9659728E-01;  0.0000000E+00; -7.1816337E-01;0;  5.1773764E-02;  9.9995439E+03;  0.0000000E+00;  2.3159209E-13;  1.0000000E+04;  0.0000000E+00;  9.9999561E+03;  4.5717645E-02;  0.0000000E+00;  6.0561174E-03;  9.6779547E+00;
  8.0000019E-01;  9.9999998E-03; -6.0000036E-02;2281;  4.7580147E-04;  0.0000000E+00; -1.4913161E-04;  1.0039502E+03;  4.0158987E-01;  3.2715498E+03;3;  6.9584852E-01;  0.0000000E+00; -3.8027668E-01;0;  4.9665015E-02;  9.9995439E+03;  0.0000000E+00; -2.6994254E-13;  1.0000000E+04;  0.0000000E+00;  9.9999717E+03;  4.5602359E-02;  0.0000000E+00;  4.0626554E-03;  5.3195701E+00;
  8.0000019E-01;  9.9999998E-03; -4.0000018E-02;2282;  4.7566797E-04;  0.0000000E+00; -7.0071801E-05;  1.0039506E+03;  4.0158984E-01;  3.2718459E+03;3;  6.9545615E-01;  0.0000000E+00; -1.8198764E-01;0;  4.8366942E-02;  9.9995449E+03;  0.0000000E+00; -5.5075864E-14;  1.0000000E+04;  0.0000000E+00;  9.9999814E+03;  4.5532547E-02;  0.0000000E+00;  2.8343936E-03;  3.1203110E+00;
  8.0000019E-01;  9.9999998E-03; -2.0000007E-02;2283;  4.7561032E-04;  0.0000000E+00; -2.6813697E-05;  1.0039509E+03;  4.0158981E-01;  3.2721421E+03;3;  6.9528913E-01;  0.0000000E+00; -7.0949599E-02;0;  4.7606960E-02;  9.9995449E+03;  0.0000000E+00;  4.5285878E-14;  1.0000000E+04;  0.0000000E+00;  9.9999863E+03;  4.5495976E-02;  0.0000000E+00;  2.1109853E-03;  1.9357333E+00;
  8.2000053E-01;  9.9999998E-03; -1.8000056E-01;2306;  1.4008621E-03;  0.0000000E+00; -2.1232683E-03;  1.0038996E+03;  4.0158883E-01;  3.2291946E+03;3;  2.1547308E+00;  0.0000000E+00; -4.9835591E+00;0;  1.4311853E-01;  9.9995898E+03;  0.0000000E+00; -3.5136190E-09;  1.0000000E+04;  0.0000000E+00;  9.9989658E+03;  4.1678645E-02;  0.0000000E+00;  1.0143988E-01;  3.4372635E+02;
  8.2000053E-01;  9.9999998E-03; -1.6000037E-01;2307;  1.3803745E-03;  0.0000000E+00; -1.5252641E-03;  1.0039218E+03;  4.0158883E-01;  3.2476545E+03;3;  2.1042566E+00;  0.0000000E+00; -3.7491047E+00;0;  1.0110356E-01;  9.9995918E+03;  0.0000000E+00; -7.4177664E-10;  1.0000000E+04;  0.0000000E+00;  9.9994072E+03;  4.1238673E-02;  0.0000000E+00;  5.9864882E-02;  1.9294232E+02;
  8.2000053E-01;  9.9999998E-03; -1.4000027E-01;2308;  1.3648289E-03;  0.0000000E+00; -1.1325147E-03;  1.0039364E+03;  4.0158883E-01;  3.2596978E+03;3;  2.0658884E+00;  0.0000000E+00; -2.7960598E+00;0;  7.3135510E-02;  9.9995947E+03;  0.0000000E+00;  7.6884110E-11;  1.0000000E+04;  0.0000000E+00;  9.9996963E+03;  4.0856197E-02;  0.0000000E+00;  3.2279316E-02;  9.5074554E+01;
  8.2000053E-01;  9.9999998E-03; -1.2000019E-01;2309;  1.3537299E-03;  0.0000000E+00; -7.7996281E-04;  1.0039443E+03;  4.0158883E-01;  3.2662131E+03;3;  2.0383627E+00;  0.0000000E+00; -1.9333634E+00;0;  5.7677582E-02;  9.9995967E+03;  0.0000000E+00;  7.5096207E-11;  1.0000000E+04;  0.0000000E+00;  9.9998496E+03;  4.0547732E-02;  0.0000000E+00;  1.7129850E-02;  4.3357189E+01;
  8.2000053E-01;  9.9999998E-03; -1.0000012E-01;2310;  1.3463466E-03;  0.0000000E+00; -4.9233949E-04;  1.0039480E+03;  4.0158880E-01;  3.2692732E+03;3;  2.0199428E+00;  0.0000000E+00; -1.2276502E+00;0;  4.9977854E-02;  9.9995986E+03;  0.0000000E+00;  2.2706791E-11;  1.0000000E+04;  0.0000000E+00;  9.9999229E+03;  4.0315598E-02;  0.0000000E+00;  9.6622556E-03;  1.9692184E+01;
  8.2000053E-01;  9.9999998E-03; -8.0000065E-02;2311;  1.3418454E-03;  0.0000000E+00; -2.8304092E-04;  1.0039498E+03;  4.0158883E-01;  3.2707539E+03;3;  2.0085907E+00;  0.0000000E+00; -7.1219015E-01;0;  4.6174135E-02;  9.9995996E+03;  0.0000000E+00;  8.0042925E-12;  1.0000000E+04;  0.0000000E+00;  9.9999561E+03;  4.0151887E-02;  0.0000000E+00;  6.0222484E-03;  9.7407827E+00;
  8.2000053E-01;  9.9999998E-03; -6.0000036E-02;2312;  1.3393622E-03;  0.0000000E+00; -1.4782205E-04;  1.0039506E+03;  4.0158883E-01;  3.2714451E+03;3;  2.0022302E+00;  0.0000000E+00; -3.7706009E-01;0;  4.4087179E-02;  9.9995996E+03;  0.0000000E+00;  5.5711243E-12;  1.0000000E+04;  0.0000000E+00;  9.9999717E+03;  4.0043913E-02;  0.0000000E+00;  4.0432680E-03;  5.4251657E+00;
  8.2000053E-01;  9.9999998E-03; -4.0000018E-02;2313;  1.3381309E-03;  0.0000000E+00; -6.9439418E-05;  1.0039510E+03;  4.0158883E-01;  3.2717412E+03;3;  1.9990278E+00;  0.0000000E+00; -1.8042341E-01;0;  4.2799920E-02;  9.9996006E+03;  0.0000000E+00; -1.4773657E-13;  1.0000000E+04;  0.0000000E+00;  9.9999814E+03;  3.9978243E-02;  0.0000000E+00;  2.8216755E-03;  3.2426205E+00;
  8.2000053E-01;  9.9999998E-03; -2.0000005E-02;2314;  1.3376054E-03;  0.0000000E+00; -2.6575648E-05;  1.0039513E+03;  4.0158883E-01;  3.2720374E+03;3;  1.9976109E+00;  0.0000000E+00; -7.0354432E-02;0;  4.2045254E-02;  9.9996006E+03;  0.0000000E+00;  8.9052957E-13;  1.0000000E+04;  0.0000000E+00;  9.9999863E+03;  3.9943725E-02;  0.0000000E+00;  2.1015280E-03;  2.0654242E+00;
  8.4000093E-01;  9.9999998E-03; -1.8000054E-01;2337;  2.3394504E-03;  0.0000000E+00; -2.0781143E-03;  1.0038388E+03;  4.0156317E-01;  3.1783237E+03;3;  3.6230054E+00;  0.0000000E+00; -4.8767929E+00;0;  1.3636518E-01;  9.9996357E+03;  0.0000000E+00; -6.3652510E-09;  1.0000000E+04;  0.0000000E+00;  9.9989883E+03;  3.7067458E-02;  0.0000000E+00;  9.9297717E-02;  3.3574789E+02;
  8.4000093E-01;  9.9999998E-03; -1.6000037E-01;2338;  2.3031805E-03;  0.0000000E+00; -1.4927267E-03;  1.0038607E+03;  4.0156320E-01;  3.1964846E+03;3;  3.5335631E+00;  0.0000000E+00; -3.6691325E+00;0;  9.5240638E-02;  9.9996377E+03;  0.0000000E+00; -1.0311918E-09;  1.0000000E+04;  0.0000000E+00;  9.9994189E+03;  3.6639880E-02;  0.0000000E+00;  5.8600757E-02;  1.8850174E+02;
  8.4000093E-01;  9.9999998E-03; -1.4000027E-01;2339;  2.2751060E-03;  0.0000000E+00; -1.1084764E-03;  1.0038749E+03;  4.0156317E-01;  3.2082297E+03;3;  3.4643357E+00;  0.0000000E+00; -2.7367547E+00;0;  6.7873076E-02;  9.9996406E+03;  0.0000000E+00;  5.0361487E-10;  1.0000000E+04;  0.0000000E+00;  9.9997012E+03;  3.6268886E-02;  0.0000000E+00;  3.1604193E-02;  9.2941948E+01;
  8.4000093E-01;  9.9999998E-03; -1.2000018E-01;2340;  2.2549357E-03;  0.0000000E+00; -7.6335383E-04;  1.0038825E+03;  4.0156320E-01;  3.2145466E+03;3;  3.4143746E+00;  0.0000000E+00; -1.8922607E+00;0;  5.2751936E-02;  9.9996426E+03;  0.0000000E+00;  3.3760231E-10;  1.0000000E+04;  0.0000000E+00;  9.9998535E+03;  3.5970528E-02;  0.0000000E+00;  1.6781408E-02;  4.2451275E+01;
  8.4000087E-01;  9.9999998E-03; -1.0000011E-01;2341;  2.2415584E-03;  0.0000000E+00; -4.8177200E-04;  1.0038862E+03;  4.0156317E-01;  3.2176062E+03;3;  3.3810556E+00;  0.0000000E+00; -1.2013811E+00;0;  4.5220897E-02;  9.9996445E+03;  0.0000000E+00;  1.1094608E-10;  1.0000000E+04;  0.0000000E+00;  9.9999258E+03;  3.5746068E-02;  0.0000000E+00;  9.4748298E-03;  1.9348034E+01;
  8.4000087E-01;  9.9999998E-03; -8.0000065E-02;2342;  2.2334387E-03;  0.0000000E+00; -2.7690938E-04;  1.0038878E+03;  4.0156314E-01;  3.2188894E+03;3;  3.3606627E+00;  0.0000000E+00; -6.9685572E-01;0;  4.1498851E-02;  9.9996455E+03;  0.0000000E+00;  1.4701927E-11;  1.0000000E+04;  0.0000000E+00;  9.9999570E+03;  3.5587389E-02;  0.0000000E+00;  5.9114634E-03;  9.6293983E+00;
  8.4000087E-01;  9.9999998E-03; -6.0000036E-02;2343;  2.2289758E-03;  0.0000000E+00; -1.4459316E-04;  1.0038887E+03;  4.0156314E-01;  3.2196790E+03;3;  3.3492947E+00;  0.0000000E+00; -3.6890909E-01;0;  3.9454110E-02;  9.9996455E+03;  0.0000000E+00; -2.5220702E-12;  1.0000000E+04;  0.0000000E+00;  9.9999717E+03;  3.5482015E-02;  0.0000000E+00;  3.9720936E-03;  5.4103947E+00;
  8.4000087E-01;  9.9999998E-03; -4.0000014E-02;2344;  2.2267606E-03;  0.0000000E+00; -6.7915338E-05;  1.0038892E+03;  4.0156314E-01;  3.2200737E+03;3;  3.3435411E+00;  0.0000000E+00; -1.7652567E-01;0;  3.8191140E-02;  9.9996465E+03;  0.0000000E+00; -3.1180108E-12;  1.0000000E+04;  0.0000000E+00;  9.9999814E+03;  3.5417303E-02;  0.0000000E+00;  2.7738372E-03;  3.2739449E+00;
  8.4000087E-01;  9.9999998E-03; -2.0000005E-02;2345;  2.2258107E-03;  0.0000000E+00; -2.5987147E-05;  1.0038894E+03;  4.0156314E-01;  3.2202710E+03;3;  3.3410110E+00;  0.0000000E+00; -6.8848833E-02;0;  3.7450068E-02;  9.9996465E+03;  0.0000000E+00; -1.6832162E-12;  1.0000000E+04;  0.0000000E+00;  9.9999863E+03;  3.5382904E-02;  0.0000000E+00;  2.0671645E-03;  2.1207986E+00;
  8.6000127E-01;  9.9999998E-03; -1.8000053E-01;2368;  3.2968081E-03;  0.0000000E+00; -2.0078418E-03;  1.0037161E+03;  4.0151268E-01;  3.0760757E+03;3;  5.1148391E+00;  0.0000000E+00; -4.7116408E+00;0;  1.2887536E-01;  9.9996758E+03;  0.0000000E+00; -1.2198170E-08;  1.0000000E+04;  0.0000000E+00;  9.9990205E+03;  3.2812085E-02;  0.0000000E+00;  9.6063279E-02;  3.2381992E+02;
  8.6000127E-01;  9.9999998E-03; -1.6000035E-01;2369;  3.2460792E-03;  0.0000000E+00; -1.4423477E-03;  1.0037372E+03;  4.0151262E-01;  3.0935415E+03;3;  4.9896388E+00;  0.0000000E+00; -3.5453641E+00;0;  8.9053556E-02;  9.9996797E+03;  0.0000000E+00; -1.8708433E-09;  1.0000000E+04;  0.0000000E+00;  9.9994385E+03;  3.2366671E-02;  0.0000000E+00;  5.6686882E-02;  1.8182483E+02;
  8.6000127E-01;  9.9999998E-03; -1.4000025E-01;2370;  3.2066642E-03;  0.0000000E+00; -1.0711746E-03;  1.0037510E+03;  4.0151262E-01;  3.1049880E+03;3;  4.8924661E+00;  0.0000000E+00; -2.6447055E+00;0;  6.2558696E-02;  9.9996826E+03;  0.0000000E+00;  9.5202646E-10;  1.0000000E+04;  0.0000000E+00;  9.9997119E+03;  3.1983968E-02;  0.0000000E+00;  3.0574726E-02;  8.9690796E+01;
  8.6000127E-01;  9.9999998E-03; -1.2000018E-01;2371;  3.1783823E-03;  0.0000000E+00; -7.3762116E-04;  1.0037586E+03;  4.0151262E-01;  3.1112048E+03;3;  4.8224769E+00;  0.0000000E+00; -1.8285139E+00;0;  4.7921278E-02;  9.9996846E+03;  0.0000000E+00;  5.7109778E-10;  1.0000000E+04;  0.0000000E+00;  9.9998584E+03;  3.1678818E-02;  0.0000000E+00;  1.6242458E-02;  4.1020416E+01;
  8.6000127E-01;  9.9999998E-03; -1.0000011E-01;2372;  3.1596485E-03;  0.0000000E+00; -4.6546260E-04;  1.0037621E+03;  4.0151262E-01;  3.1141650E+03;3;  4.7758722E+00;  0.0000000E+00; -1.1607590E+00;0;  4.0629473E-02;  9.9996855E+03;  0.0000000E+00;  1.4746511E-10;  1.0000000E+04;  0.0000000E+00;  9.9999268E+03;  3.1450365E-02;  0.0000000E+00;  9.1791088E-03;  1.8752726E+01;
  8.6000127E-01;  9.9999998E-03; -8.0000065E-02;2373;  3.1483162E-03;  0.0000000E+00; -2.6749546E-04;  1.0037637E+03;  4.0151265E-01;  3.1154480E+03;3;  4.7474332E+00;  0.0000000E+00; -6.7321986E-01;0;  3.7022557E-02;  9.9996875E+03;  0.0000000E+00;  2.4869492E-12;  1.0000000E+04;  0.0000000E+00;  9.9999580E+03;  3.1288747E-02;  0.0000000E+00;  5.7338113E-03;  9.3835306E+00;
  8.6000127E-01;  9.9999998E-03; -6.0000032E-02;2374;  3.1420889E-03;  0.0000000E+00; -1.3966158E-04;  1.0037645E+03;  4.0151262E-01;  3.1161387E+03;3;  4.7316108E+00;  0.0000000E+00; -3.5639027E-01;0;  3.5038419E-02;  9.9996885E+03;  0.0000000E+00; -7.9835921E-12;  1.0000000E+04;  0.0000000E+00;  9.9999727E+03;  3.1180713E-02;  0.0000000E+00;  3.8577074E-03;  5.3129187E+00;
  8.6000127E-01;  9.9999998E-03; -4.0000014E-02;2375;  3.1389953E-03;  0.0000000E+00; -6.5594329E-05;  1.0037650E+03;  4.0151262E-01;  3.1165334E+03;3;  4.7236142E+00;  0.0000000E+00; -1.7053735E-01;0;  3.3811618E-02;  9.9996885E+03;  0.0000000E+00;  5.3633167E-13;  1.0000000E+04;  0.0000000E+00;  9.9999814E+03;  3.1113541E-02;  0.0000000E+00;  2.6980762E-03;  3.2495701E+00;
  8.6000127E-01;  9.9999998E-03; -2.0000005E-02;2376;  3.1376544E-03;  0.0000000E+00; -2.5103078E-05;  1.0037652E+03;  4.0151262E-01;  3.1167307E+03;3;  4.7200570E+00;  0.0000000E+00; -6.6534773E-02;0;  3.3091497E-02;  9.9996885E+03;  0.0000000E+00;  3.9387374E-13;  1.0000000E+04;  0.0000000E+00;  9.9999863E+03;  3.1077353E-02;  0.0000000E+00;  2.0141420E-03;  2.1354117E+00;
  8.8000166E-01;  9.9999998E-03; -1.8000050E-01;2399;  4.2067301E-03;  0.0000000E+00; -1.9145362E-03;  1.0035396E+03;  4.0144020E-01;  2.9290522E+03;3;  6.5292926E+00;  0.0000000E+00; -4.4929833E+00;0;  1.1983267E-01;  9.9997217E+03;  0.0000000E+00; -1.7976635E-08;  1.0000000E+04;  0.0000000E+00;  9.9990635E+03;  2.8038263E-02;  0.0000000E+00;  9.1794409E-02;  3.0814899E+02;
  8.8000166E-01;  9.9999998E-03; -1.6000034E-01;2400;  4.1430229E-03;  0.0000000E+00; -1.3759679E-03;  1.0035598E+03;  4.0144017E-01;  2.9457239E+03;3;  6.3719850E+00;  0.0000000E+00; -3.3822694E+00;0;  8.1698194E-02;  9.9997256E+03;  0.0000000E+00; -3.1054193E-09;  1.0000000E+04;  0.0000000E+00;  9.9994629E+03;  2.7540218E-02;  0.0000000E+00;  5.4157976E-02;  1.7303688E+02;
  8.8000160E-01;  9.9999998E-03; -1.4000025E-01;2401;  4.0935655E-03;  0.0000000E+00; -1.0221069E-03;  1.0035729E+03;  4.0144017E-01;  2.9566738E+03;3;  6.2500854E+00;  0.0000000E+00; -2.5235763E+00;0;  5.6336001E-02;  9.9997295E+03;  0.0000000E+00;  1.1381783E-09;  1.0000000E+04;  0.0000000E+00;  9.9997236E+03;  2.7122436E-02;  0.0000000E+00;  2.9213564E-02;  8.5403229E+01;
  8.8000160E-01;  9.9999998E-03; -1.2000017E-01;2402;  4.0581650E-03;  0.0000000E+00; -7.0386421E-04;  1.0035801E+03;  4.0144017E-01;  2.9625925E+03;3;  6.1625266E+00;  0.0000000E+00; -1.7448174E+00;0;  4.2325601E-02;  9.9997305E+03;  0.0000000E+00;  6.5340894E-10;  1.0000000E+04;  0.0000000E+00;  9.9998643E+03;  2.6795527E-02;  0.0000000E+00;  1.5530073E-02;  3.9128262E+01;
  8.8000160E-01;  9.9999998E-03; -1.0000011E-01;2403;  4.0347585E-03;  0.0000000E+00; -4.4413257E-04;  1.0035835E+03;  4.0144017E-01;  2.9654534E+03;3;  6.1043334E+00;  0.0000000E+00; -1.1075594E+00;0;  3.5343129E-02;  9.9997334E+03;  0.0000000E+00;  1.0154173E-10;  1.0000000E+04;  0.0000000E+00;  9.9999297E+03;  2.6553731E-02;  0.0000000E+00;  8.7893987E-03;  1.7962215E+01;
  8.8000160E-01;  9.9999998E-03; -8.0000058E-02;2404;  4.0206099E-03;  0.0000000E+00; -2.5521737E-04;  1.0035850E+03;  4.0144020E-01;  2.9666372E+03;3;  6.0688949E+00;  0.0000000E+00; -6.4232326E-01;0;  3.1885039E-02;  9.9997344E+03;  0.0000000E+00; -4.8154886E-11;  1.0000000E+04;  0.0000000E+00;  9.9999600E+03;  2.6383439E-02;  0.0000000E+00;  5.5015991E-03;  9.0546732E+00;
  8.8000160E-01;  9.9999998E-03; -6.0000032E-02;2405;  4.0128385E-03;  0.0000000E+00; -1.3325275E-04;  1.0035858E+03;  4.0144017E-01;  2.9672290E+03;3;  6.0491905E+00;  0.0000000E+00; -3.4004921E-01;0;  2.9979851E-02;  9.9997344E+03;  0.0000000E+00; -3.9970274E-11;  1.0000000E+04;  0.0000000E+00;  9.9999736E+03;  2.6269253E-02;  0.0000000E+00;  3.7105982E-03;  5.1804051E+00;
  8.8000160E-01;  9.9999998E-03; -4.0000014E-02;2406;  4.0089800E-03;  0.0000000E+00; -6.2589919E-05;  1.0035862E+03;  4.0144017E-01;  2.9676235E+03;3;  6.0392303E+00;  0.0000000E+00; -1.6274309E-01;0;  2.8800935E-02;  9.9997363E+03;  0.0000000E+00; -9.0041481E-12;  1.0000000E+04;  0.0000000E+00;  9.9999824E+03;  2.6197603E-02;  0.0000000E+00;  2.6033313E-03;  3.2138598E+00;
  8.8000160E-01;  9.9999998E-03; -2.0000005E-02;2407;  4.0073046E-03;  0.0000000E+00; -2.3953149E-05;  1.0035864E+03;  4.0144017E-01;  2.9678210E+03;3;  6.0348063E+00;  0.0000000E+00; -6.3476592E-02;0;  2.8108992E-02;  9.9997363E+03;  0.0000000E+00; -7.2031209E-12;  1.0000000E+04;  0.0000000E+00;  9.9999863E+03;  2.6158584E-02;  0.0000000E+00;  1.9504082E-03;  2.1514382E+00;
  9.0000194E-01;  9.9999998E-03; -1.8000047E-01;2430;  4.9889330E-03;  0.0000000E+00; -1.8011758E-03;  1.0033185E+03;  4.0134963E-01;  2.7450452E+03;3;  7.7441568E+00;  0.0000000E+00; -4.2276220E+00;0;  1.0890744E-01;  9.9997783E+03;  0.0000000E+00; -2.5587465E-08;  1.0000000E+04;  0.0000000E+00;  9.9991162E+03;  2.2301564E-02;  0.0000000E+00;  8.6605877E-02;  2.8913458E+02;
  9.0000194E-01;  9.9999998E-03; -1.6000032E-01;2431;  4.9138274E-03;  0.0000000E+00; -1.2958200E-03;  1.0033377E+03;  4.0134960E-01;  2.7609211E+03;3;  7.5587506E+00;  0.0000000E+00; -3.1852880E+00;0;  7.2805449E-02;  9.9997822E+03;  0.0000000E+00; -4.1163677E-09;  1.0000000E+04;  0.0000000E+00;  9.9994932E+03;  2.1720197E-02;  0.0000000E+00;  5.1085256E-02;  1.6237985E+02;
  9.0000194E-01;  9.9999998E-03; -1.4000024E-01;2432;  4.8557119E-03;  0.0000000E+00; -9.6305500E-04;  1.0033503E+03;  4.0134969E-01;  2.7712749E+03;3;  7.4155760E+00;  0.0000000E+00; -2.3776970E+00;0;  4.8815601E-02;  9.9997861E+03;  0.0000000E+00;  1.4498063E-09;  1.0000000E+04;  0.0000000E+00;  9.9997393E+03;  2.1252383E-02;  0.0000000E+00;  2.7563216E-02;  8.0218613E+01;
  9.0000194E-01;  9.9999998E-03; -1.2000016E-01;2433;  4.8141615E-03;  0.0000000E+00; -6.6334277E-04;  1.0033569E+03;  4.0134963E-01;  2.7767969E+03;3;  7.3128586E+00;  0.0000000E+00; -1.6442671E+00;0;  3.5569098E-02;  9.9997881E+03;  0.0000000E+00;  4.7363941E-10;  1.0000000E+04;  0.0000000E+00;  9.9998711E+03;  2.0898079E-02;  0.0000000E+00;  1.4671017E-02;  3.6859634E+01;
  9.0000188E-01;  9.9999998E-03; -1.0000010E-01;2434;  4.7867335E-03;  0.0000000E+00; -4.1860918E-04;  1.0033602E+03;  4.0134960E-01;  2.7794592E+03;3;  7.2447300E+00;  0.0000000E+00; -1.0438139E+00;0;  2.8966326E-02;  9.9997910E+03;  0.0000000E+00; -1.4024655E-10;  1.0000000E+04;  0.0000000E+00;  9.9999336E+03;  2.0641899E-02;  0.0000000E+00;  8.3244285E-03;  1.7035500E+01;
  9.0000188E-01;  9.9999998E-03; -8.0000058E-02;2435;  4.7700778E-03;  0.0000000E+00; -2.4058449E-04;  1.0033616E+03;  4.0134963E-01;  2.7806426E+03;3;  7.2029576E+00;  0.0000000E+00; -6.0542792E-01;0;  2.5692906E-02;  9.9997930E+03;  0.0000000E+00; -1.8628687E-10;  1.0000000E+04;  0.0000000E+00;  9.9999619E+03;  2.0463727E-02;  0.0000000E+00;  5.2291784E-03;  8.6895275E+00;
  9.0000188E-01;  9.9999998E-03; -6.0000028E-02;2436;  4.7608903E-03;  0.0000000E+00; -1.2565781E-04;  1.0033624E+03;  4.0134966E-01;  2.7813330E+03;3;  7.1796274E+00;  0.0000000E+00; -3.2064208E-01;0;  2.3886904E-02;  9.9997930E+03;  0.0000000E+00; -9.1501133E-11;  1.0000000E+04;  0.0000000E+00;  9.9999756E+03;  2.0344645E-02;  0.0000000E+00;  3.5422603E-03;  5.0525856E+00;
  9.0000188E-01;  9.9999998E-03; -4.0000014E-02;2437;  4.7562891E-03;  0.0000000E+00; -5.9052290E-05;  1.0033628E+03;  4.0134966E-01;  2.7816287E+03;3;  7.1677070E+00;  0.0000000E+00; -1.5354881E-01;0;  2.2768835E-02;  9.9997939E+03;  0.0000000E+00; -4.3146011E-11;  1.0000000E+04;  0.0000000E+00;  9.9999824E+03;  2.0269714E-02;  0.0000000E+00;  2.4991205E-03;  3.2019873E+00;
  9.0000188E-01;  9.9999998E-03; -2.0000005E-02;2438;  4.7542853E-03;  0.0000000E+00; -2.2617154E-05;  1.0033630E+03;  4.0134966E-01;  2.7818259E+03;3;  7.1624088E+00;  0.0000000E+00; -5.9950110E-02;0;  2.2112940E-02;  9.9997939E+03;  0.0000000E+00; -1.4279715E-11;  1.0000000E+04;  0.0000000E+00;  9.9999873E+03;  2.0228678E-02;  0.0000000E+00;  1.8842602E-03;  2.2012970E+00;
  9.2000216E-01;  9.9999998E-03; -1.8000044E-01;2461;  5.5454778E-03;  0.0000000E+00; -1.6758820E-03;  1.0030651E+03;  4.0124571E-01;  2.5340186E+03;3;  8.5876999E+00;  0.0000000E+00; -3.9326975E+00;0;  9.6470408E-02;  9.9998418E+03;  0.0000000E+00; -3.1088774E-08;  1.0000000E+04;  0.0000000E+00;  9.9991768E+03;  1.5785689E-02;  0.0000000E+00;  8.0684721E-02;  2.6741406E+02;
  9.2000216E-01;  9.9999998E-03; -1.6000029E-01;2462;  5.4487335E-03;  0.0000000E+00; -1.2099972E-03;  1.0030831E+03;  4.0124571E-01;  2.5489001E+03;3;  8.3531513E+00;  0.0000000E+00; -2.9711742E+00;0;  6.2689528E-02;  9.9998477E+03;  0.0000000E+00; -4.6952202E-09;  1.0000000E+04;  0.0000000E+00;  9.9995273E+03;  1.5104152E-02;  0.0000000E+00;  4.7585372E-02;  1.5023491E+02;
  9.2000216E-01;  9.9999998E-03; -1.4000022E-01;2463;  5.3748488E-03;  0.0000000E+00; -9.0077659E-04;  1.0030947E+03;  4.0124571E-01;  2.5584600E+03;3;  8.1728907E+00;  0.0000000E+00; -2.2212636E+00;0;  4.0278219E-02;  9.9998516E+03;  0.0000000E+00;  8.8767443E-10;  1.0000000E+04;  0.0000000E+00;  9.9997568E+03;  1.4587538E-02;  0.0000000E+00;  2.5690679E-02;  7.4340988E+01;
  9.2000210E-01;  9.9999998E-03; -1.2000015E-01;2464;  5.3211180E-03;  0.0000000E+00; -6.2239805E-04;  1.0031010E+03;  4.0124568E-01;  2.5636833E+03;3;  8.0402632E+00;  0.0000000E+00; -1.5410062E+00;0;  2.7918410E-02;  9.9998545E+03;  0.0000000E+00;  1.5021619E-11;  1.0000000E+04;  0.0000000E+00;  9.9998809E+03;  1.4215040E-02;  0.0000000E+00;  1.3703369E-02;  3.4318478E+01;
  9.2000210E-01;  9.9999998E-03; -1.0000010E-01;2465;  5.2836081E-03;  0.0000000E+00; -3.9494119E-04;  1.0031040E+03;  4.0124571E-01;  2.5661472E+03;3;  7.9466124E+00;  0.0000000E+00; -9.8396641E-01;0;  2.1762908E-02;  9.9998564E+03;  0.0000000E+00; -5.2292382E-10;  1.0000000E+04;  0.0000000E+00;  9.9999375E+03;  1.3955599E-02;  0.0000000E+00;  7.8073097E-03;  1.6027729E+01;
  9.2000210E-01;  9.9999998E-03; -8.0000058E-02;2466;  5.2594715E-03;  0.0000000E+00; -2.2934876E-04;  1.0031053E+03;  4.0124571E-01;  2.5672312E+03;3;  7.8854618E+00;  0.0000000E+00; -5.7706517E-01;0;  1.8711619E-02;  9.9998574E+03;  0.0000000E+00; -3.8873252E-10;  1.0000000E+04;  0.0000000E+00;  9.9999629E+03;  1.3779565E-02;  0.0000000E+00;  4.9320539E-03;  8.3210955E+00;
  9.2000210E-01;  9.9999998E-03; -6.0000028E-02;2467;  5.2444683E-03;  0.0000000E+00; -1.2201944E-04;  1.0031060E+03;  4.0124571E-01;  2.5678225E+03;3;  7.8463187E+00;  0.0000000E+00; -3.1182623E-01;0;  1.7027363E-02;  9.9998584E+03;  0.0000000E+00; -1.6352147E-10;  1.0000000E+04;  0.0000000E+00;  9.9999766E+03;  1.3663435E-02;  0.0000000E+00;  3.3639269E-03;  4.9519086E+00;
  9.2000210E-01;  9.9999998E-03; -4.0000014E-02;2468;  5.2359449E-03;  0.0000000E+00; -5.8861177E-05;  1.0031063E+03;  4.0124574E-01;  2.5681182E+03;3;  7.8237596E+00;  0.0000000E+00; -1.5359601E-01;0;  1.5984725E-02;  9.9998584E+03;  0.0000000E+00; -2.7011676E-11;  1.0000000E+04;  0.0000000E+00;  9.9999834E+03;  1.3590774E-02;  0.0000000E+00;  2.3939507E-03;  3.2305396E+00;
  9.2000210E-01;  9.9999998E-03; -2.0000005E-02;2469;  5.2319621E-03;  0.0000000E+00; -2.3260665E-05;  1.0031066E+03;  4.0124571E-01;  2.5683152E+03;3;  7.8133531E+00;  0.0000000E+00; -6.2064786E-02;0;  1.5373627E-02;  9.9998584E+03;  0.0000000E+00; -1.4464210E-11;  1.0000000E+04;  0.0000000E+00;  9.9999873E+03;  1.3551048E-02;  0.0000000E+00;  1.8225792E-03;  2.2982559E+00;
  9.4000226E-01;  9.9999998E-03; -1.8000041E-01;2492;  5.7604453E-03;  0.0000000E+00; -1.5590776E-03;  1.0027908E+03;  4.0113339E-01;  2.3055461E+03;3;  8.8593597E+00;  0.0000000E+00; -3.6443539E+00;0;  8.3438680E-02;  9.9999072E+03;  0.0000000E+00; -2.9611925E-08;  1.0000000E+04;  0.0000000E+00;  9.9992422E+03;  9.1537405E-03;  0.0000000E+00;  7.4284941E-02;  2.4383997E+02;
  9.4000226E-01;  9.9999998E-03; -1.6000028E-01;2493;  5.6267874E-03;  0.0000000E+00; -1.1361660E-03;  1.0028074E+03;  4.0113339E-01;  2.3192351E+03;3;  8.5553083E+00;  0.0000000E+00; -2.7687633E+00;0;  5.2186333E-02;  9.9999160E+03;  0.0000000E+00; -4.6476538E-09;  1.0000000E+04;  0.0000000E+00;  9.9995654E+03;  8.3693787E-03;  0.0000000E+00;  4.3816954E-02;  1.3711035E+02;
  9.4000220E-01;  9.9999998E-03; -1.4000021E-01;2494;  5.5307825E-03;  0.0000000E+00; -8.4812386E-04;  1.0028182E+03;  4.0113342E-01;  2.3281968E+03;3;  8.3336315E+00;  0.0000000E+00; -2.0759392E+00;0;  3.1503782E-02;  9.9999199E+03;  0.0000000E+00;  7.1320927E-10;  1.0000000E+04;  0.0000000E+00;  9.9997764E+03;  7.8183804E-03;  0.0000000E+00;  2.3685399E-02;  6.8032997E+01;
  9.4000220E-01;  9.9999998E-03; -1.2000015E-01;2495;  5.4609133E-03;  0.0000000E+00; -5.8937451E-04;  1.0028240E+03;  4.0113339E-01;  2.3329241E+03;3;  8.1700649E+00;  0.0000000E+00; -1.4474584E+00;0;  2.0122763E-02;  9.9999229E+03;  0.0000000E+00; -5.9639199E-10;  1.0000000E+04;  0.0000000E+00;  9.9998887E+03;  7.4477158E-03;  0.0000000E+00;  1.2675046E-02;  3.1624966E+01;
  9.4000220E-01;  9.9999998E-03; -1.0000009E-01;2496;  5.4110200E-03;  0.0000000E+00; -3.7995755E-04;  1.0028267E+03;  4.0113336E-01;  2.3351890E+03;3;  8.0496473E+00;  0.0000000E+00; -9.3793386E-01;0;  1.4468164E-02;  9.9999238E+03;  0.0000000E+00; -9.1606422E-10;  1.0000000E+04;  0.0000000E+00;  9.9999424E+03;  7.2040590E-03;  0.0000000E+00;  7.2641051E-03;  1.4988092E+01;
  9.4000220E-01;  9.9999998E-03; -8.0000058E-02;2497;  5.3776726E-03;  0.0000000E+00; -2.2741167E-04;  1.0028280E+03;  4.0113342E-01;  2.3362725E+03;3;  7.9700170E+00;  0.0000000E+00; -5.6618929E-01;0;  1.1671063E-02;  9.9999268E+03;  0.0000000E+00; -5.6875349E-10;  1.0000000E+04;  0.0000000E+00;  9.9999658E+03;  7.0456690E-03;  0.0000000E+00;  4.6253940E-03;  7.9670215E+00;
  9.4000214E-01;  9.9999998E-03; -6.0000032E-02;2498;  5.3555449E-03;  0.0000000E+00; -1.2791311E-04;  1.0028286E+03;  4.0113336E-01;  2.3367646E+03;3;  7.9166832E+00;  0.0000000E+00; -3.2314673E-01;0;  1.0128950E-02;  9.9999268E+03;  0.0000000E+00; -2.3283092E-10;  1.0000000E+04;  0.0000000E+00;  9.9999775E+03;  6.9440147E-03;  0.0000000E+00;  3.1849353E-03;  4.8822627E+00;
  9.4000214E-01;  9.9999998E-03; -4.0000014E-02;2499;  5.3416253E-03;  0.0000000E+00; -6.6127031E-05;  1.0028290E+03;  4.0113336E-01;  2.3370603E+03;3;  7.8820033E+00;  0.0000000E+00; -1.6948594E-01;0;  9.1750398E-03;  9.9999277E+03;  0.0000000E+00; -2.5595463E-11;  1.0000000E+04;  0.0000000E+00;  9.9999854E+03;  6.8814247E-03;  0.0000000E+00;  2.2936151E-03;  3.2966652E+00;
  9.4000214E-01;  9.9999998E-03; -2.0000007E-02;2500;  5.3339526E-03;  0.0000000E+00; -2.7718879E-05;  1.0028292E+03;  4.0113342E-01;  2.3372571E+03;3;  7.8632765E+00;  0.0000000E+00; -7.2252452E-02;0;  8.6165676E-03;  9.9999277E+03;  0.0000000E+00; -2.4598006E-11;  1.0000000E+04;  0.0000000E+00;  9.9999873E+03;  6.8475334E-03;  0.0000000E+00;  1.7690345E-03;  2.4358439E+00;
  9.6000224E-01;  9.9999998E-03; -1.8000038E-01;2523;  5.7317680E-03;  0.0000000E+00; -1.4431204E-03;  1.0025076E+03;  4.0101755E-01;  2.0695005E+03;3;  8.7827425E+00;  0.0000000E+00; -3.3469224E+00;0;  7.0895478E-02;  9.9999678E+03;  0.0000000E+00; -2.6286633E-08;  1.0000000E+04;  0.0000000E+00;  9.9993086E+03;  3.1898068E-03;  0.0000000E+00;  6.7705669E-02;  2.1941435E+02;
  9.6000224E-01;  9.9999998E-03; -1.6000026E-01;2524;  5.5801827E-03;  0.0000000E+00; -1.0590384E-03;  1.0025228E+03;  4.0101752E-01;  2.0819954E+03;3;  8.4581566E+00;  0.0000000E+00; -2.5485880E+00;0;  4.2264204E-02;  9.9999756E+03;  0.0000000E+00; -3.2431726E-09;  1.0000000E+04;  0.0000000E+00;  9.9996035E+03;  2.2946752E-03;  0.0000000E+00;  3.9969530E-02;  1.2360935E+02;
  9.6000218E-01;  9.9999998E-03; -1.4000019E-01;2525;  5.4741725E-03;  0.0000000E+00; -7.9259649E-04;  1.0025326E+03;  4.0101755E-01;  2.0901611E+03;3;  8.2205429E+00;  0.0000000E+00; -1.9163295E+00;0;  2.3370607E-02;  9.9999814E+03;  0.0000000E+00;  1.6521867E-11;  1.0000000E+04;  0.0000000E+00;  9.9997949E+03;  1.7168071E-03;  0.0000000E+00;  2.1653799E-02;  6.1605400E+01;
  9.6000218E-01;  9.9999998E-03; -1.2000014E-01;2526;  5.3975000E-03;  0.0000000E+00; -5.5503316E-04;  1.0025378E+03;  4.0101755E-01;  2.0944900E+03;3;  8.0479546E+00;  0.0000000E+00; -1.3501682E+00;0;  1.3002091E-02;  9.9999844E+03;  0.0000000E+00; -1.1896381E-09;  1.0000000E+04;  0.0000000E+00;  9.9998984E+03;  1.3609587E-03;  0.0000000E+00;  1.1641133E-02;  2.8915421E+01;
  9.6000218E-01;  9.9999998E-03; -1.0000009E-01;2527;  5.3441706E-03;  0.0000000E+00; -3.6332189E-04;  1.0025405E+03;  4.0101755E-01;  2.0966545E+03;3;  7.9268308E+00;  0.0000000E+00; -8.9158237E-01;0;  7.8679780E-03;  9.9999863E+03;  0.0000000E+00; -1.3743910E-09;  1.0000000E+04;  0.0000000E+00;  9.9999453E+03;  1.1456793E-03;  0.0000000E+00;  6.7222985E-03;  1.3964305E+01;
  9.6000212E-01;  9.9999998E-03; -8.0000058E-02;2528;  5.3058942E-03;  0.0000000E+00; -2.2130529E-04;  1.0025416E+03;  4.0101755E-01;  2.0976382E+03;3;  7.8357811E+00;  0.0000000E+00; -5.4553246E-01;0;  5.3377622E-03;  9.9999863E+03;  0.0000000E+00; -7.3939987E-10;  1.0000000E+04;  0.0000000E+00;  9.9999678E+03;  1.0147785E-03;  0.0000000E+00;  4.3229838E-03;  7.6357737E+00;
  9.6000212E-01;  9.9999998E-03; -6.0000032E-02;2529;  5.2807936E-03;  0.0000000E+00; -1.2677812E-04;  1.0025421E+03;  4.0101755E-01;  2.0980317E+03;3;  7.7759604E+00;  0.0000000E+00; -3.1519979E-01;0;  3.9463774E-03;  9.9999883E+03;  0.0000000E+00; -2.7834696E-10;  1.0000000E+04;  0.0000000E+00;  9.9999785E+03;  9.3430461E-04;  0.0000000E+00;  3.0120728E-03;  4.8360829E+00;
  9.6000212E-01;  9.9999998E-03; -4.0000018E-02;2530;  5.2669537E-03;  0.0000000E+00; -6.7734531E-05;  1.0025425E+03;  4.0101755E-01;  2.0983269E+03;3;  7.7436533E+00;  0.0000000E+00; -1.7032769E-01;0;  3.0867811E-03;  9.9999883E+03;  0.0000000E+00; -1.0234336E-10;  1.0000000E+04;  0.0000000E+00;  9.9999854E+03;  8.8592607E-04;  0.0000000E+00;  2.2008549E-03;  3.3859205E+00;
  9.6000212E-01;  9.9999998E-03; -2.0000007E-02;2531;  5.2593858E-03;  0.0000000E+00; -2.9233828E-05;  1.0025427E+03;  4.0101752E-01;  2.0984253E+03;3;  7.7262392E+00;  0.0000000E+00; -7.4714415E-02;0;  2.5841049E-03;  9.9999883E+03;  0.0000000E+00; -3.2879300E-11;  1.0000000E+04;  0.0000000E+00;  9.9999883E+03;  8.6010405E-04;  0.0000000E+00;  1.7240008E-03;  2.5963008E+00;
  9.8000222E-01;  9.9999998E-03; -1.8000035E-01;2554;  5.5782185E-03;  0.0000000E+00; -1.3226777E-03;  1.0022260E+03;  4.0090266E-01;  1.8346682E+03;3;  8.5541620E+00;  0.0000000E+00; -3.0410473E+00;0;  5.9721261E-02;  1.0000015E+04;  0.0000000E+00; -1.6145107E-08;  1.0000000E+04;  0.0000000E+00;  9.9993750E+03; -1.5450435E-03;  0.0000000E+00;  6.1266303E-02;  1.9519960E+02;
  9.8000216E-01;  9.9999998E-03; -1.6000025E-01;2555;  5.4211109E-03;  0.0000000E+00; -9.8130561E-04;  1.0022399E+03;  4.0090266E-01;  1.8460654E+03;3;  8.2197351E+00;  0.0000000E+00; -2.3360388E+00;0;  3.3665054E-02;  1.0000026E+04;  0.0000000E+00; -7.8888107E-10;  1.0000000E+04;  0.0000000E+00;  9.9996406E+03; -2.5846430E-03;  0.0000000E+00;  3.6249697E-02;  1.1038548E+02;
  9.8000211E-01;  9.9999998E-03; -1.4000018E-01;2556;  5.3125792E-03;  0.0000000E+00; -7.3452236E-04;  1.0022488E+03;  4.0090272E-01;  1.8535327E+03;3;  7.9801817E+00;  0.0000000E+00; -1.7647067E+00;0;  1.6504249E-02;  1.0000031E+04;  0.0000000E+00; -1.0478127E-09;  1.0000000E+04;  0.0000000E+00;  9.9998135E+03; -3.2095797E-03;  0.0000000E+00;  1.9713828E-02;  5.5403469E+01;
  9.8000211E-01;  9.9999998E-03; -1.2000013E-01;2557;  5.2332832E-03;  0.0000000E+00; -5.1752501E-04;  1.0022537E+03;  4.0090266E-01;  1.8574629E+03;3;  7.8046837E+00;  0.0000000E+00; -1.2516425E+00;0;  7.0998855E-03;  1.0000035E+04;  0.0000000E+00; -2.2758093E-09;  1.0000000E+04;  0.0000000E+00;  9.9999063E+03; -3.5622052E-03;  0.0000000E+00;  1.0662091E-02;  2.6344719E+01;
  9.8000211E-01;  9.9999998E-03; -1.0000008E-01;2558;  5.1784613E-03;  0.0000000E+00; -3.4080862E-04;  1.0022559E+03;  4.0090263E-01;  1.8593297E+03;3;  7.6780996E+00;  0.0000000E+00; -8.2627600E-01;0;  2.4537845E-03;  1.0000037E+04;  0.0000000E+00; -1.7219285E-09;  1.0000000E+04;  0.0000000E+00;  9.9999492E+03; -3.7566028E-03;  0.0000000E+00;  6.2103872E-03;  1.3011178E+01;
  9.8000211E-01;  9.9999998E-03; -8.0000050E-02;2559;  5.1442357E-03;  0.0000000E+00; -2.1233845E-04;  1.0022570E+03;  4.0090263E-01;  1.8602140E+03;3;  7.6004596E+00;  0.0000000E+00; -5.1784283E-01;0;  1.7172890E-04;  1.0000038E+04;  0.0000000E+00; -8.7753838E-10;  1.0000000E+04;  0.0000000E+00;  9.9999697E+03; -3.8657733E-03;  0.0000000E+00;  4.0375022E-03;  7.3370457E+00;
  9.8000211E-01;  9.9999998E-03; -6.0000032E-02;2560;  5.1236711E-03;  0.0000000E+00; -1.2604953E-04;  1.0022576E+03;  4.0090263E-01;  1.8607052E+03;3;  7.5536928E+00;  0.0000000E+00; -3.0756319E-01;0; -1.0794725E-03;  1.0000038E+04;  0.0000000E+00; -3.2178579E-10;  1.0000000E+04;  0.0000000E+00;  9.9999795E+03; -3.9298916E-03;  0.0000000E+00;  2.8504191E-03;  4.8054314E+00;
  9.8000211E-01;  9.9999998E-03; -4.0000018E-02;2561;  5.1118587E-03;  0.0000000E+00; -6.9643029E-05;  1.0022578E+03;  4.0090266E-01;  1.8609017E+03;3;  7.5265164E+00;  0.0000000E+00; -1.7195080E-01;0; -1.8511270E-03;  1.0000039E+04;  0.0000000E+00; -1.6913194E-10;  1.0000000E+04;  0.0000000E+00;  9.9999854E+03; -3.9679278E-03;  0.0000000E+00;  2.1168008E-03;  3.4840250E+00;
  9.8000211E-01;  9.9999998E-03; -2.0000007E-02;2562;  5.1059360E-03;  0.0000000E+00; -3.1395273E-05;  1.0022580E+03;  4.0090266E-01;  1.8610000E+03;3;  7.5130539E+00;  0.0000000E+00; -7.8132100E-02;0; -2.3017316E-03;  1.0000039E+04;  0.0000000E+00; -3.6439605E-11;  1.0000000E+04;  0.0000000E+00;  9.9999883E+03; -3.9882241E-03;  0.0000000E+00;  1.6864926E-03;  2.7630219E+00;
  1.0000021E+00;  9.9999998E-03; -1.8000033E-01;2585;  5.3557958E-03;  0.0000000E+00; -1.2148232E-03;  1.0019553E+03;  4.0079248E-01;  1.6086505E+03;3;  8.2355738E+00;  0.0000000E+00; -2.7598755E+00;0;  5.0426014E-02;  1.0000050E+04;  0.0000000E+00;  1.1805693E-06;  1.0000000E+04;  0.0000000E+00;  9.9994365E+03; -4.8499438E-03;  0.0000000E+00;  5.5275958E-02;  1.7220021E+02;
  1.0000020E+00;  9.9999998E-03; -1.6000023E-01;2586;  5.2118269E-03;  0.0000000E+00; -9.0872648E-04;  1.0019679E+03;  4.0079248E-01;  1.6190466E+03;3;  7.9197893E+00;  0.0000000E+00; -2.1304252E+00;0;  2.6781021E-02;  1.0000062E+04;  0.0000000E+00;  6.7508737E-10;  1.0000000E+04;  0.0000000E+00;  9.9996729E+03; -6.0848095E-03;  0.0000000E+00;  3.2865830E-02;  9.8080658E+01;
  1.0000020E+00;  9.9999998E-03; -1.4000018E-01;2587;  5.1023271E-03;  0.0000000E+00; -6.8177871E-04;  1.0019761E+03;  4.0079245E-01;  1.6258138E+03;3;  7.6796265E+00;  0.0000000E+00; -1.6140262E+00;0;  1.1181606E-02;  1.0000070E+04;  0.0000000E+00; -3.4778094E-09;  1.0000000E+04;  0.0000000E+00;  9.9998291E+03; -6.8068807E-03;  0.0000000E+00;  1.7988486E-02;  4.9780827E+01;
  1.0000020E+00;  9.9999998E-03; -1.2000012E-01;2588;  5.0243740E-03;  0.0000000E+00; -4.8281770E-04;  1.0019805E+03;  4.0079245E-01;  1.6294427E+03;3;  7.5075974E+00;  0.0000000E+00; -1.1490512E+00;0;  2.6067994E-03;  1.0000074E+04;  0.0000000E+00; -3.9261563E-09;  1.0000000E+04;  0.0000000E+00;  9.9999141E+03; -7.1957908E-03;  0.0000000E+00;  9.8025901E-03;  2.4080988E+01;
  1.0000020E+00;  9.9999998E-03; -1.0000008E-01;2589;  4.9725790E-03;  0.0000000E+00; -3.2441696E-04;  1.0019826E+03;  4.0079254E-01;  1.6311100E+03;3;  7.3920021E+00;  0.0000000E+00; -7.7469999E-01;0; -1.6403035E-03;  1.0000076E+04;  0.0000000E+00; -2.2635041E-09;  1.0000000E+04;  0.0000000E+00;  9.9999531E+03; -7.3988927E-03;  0.0000000E+00;  5.7585891E-03;  1.2193927E+01;
  1.0000020E+00;  9.9999998E-03; -8.0000050E-02;2590;  4.9415589E-03;  0.0000000E+00; -2.0940276E-04;  1.0019836E+03;  4.0079251E-01;  1.6318947E+03;3;  7.3226066E+00;  0.0000000E+00; -5.0219786E-01;0; -3.7265478E-03;  1.0000077E+04;  0.0000000E+00; -9.4058494E-10;  1.0000000E+04;  0.0000000E+00;  9.9999707E+03; -7.5079068E-03;  0.0000000E+00;  3.7813589E-03;  7.0872688E+00;
  1.0000020E+00;  9.9999998E-03; -6.0000032E-02;2591;  4.9232896E-03;  0.0000000E+00; -1.2884253E-04;  1.0019841E+03;  4.0079248E-01;  1.6323850E+03;3;  7.2809744E+00;  0.0000000E+00; -3.1174099E-01;0; -4.8668245E-03;  1.0000077E+04;  0.0000000E+00; -1.8571271E-10;  1.0000000E+04;  0.0000000E+00;  9.9999795E+03; -7.5709154E-03;  0.0000000E+00;  2.7040907E-03;  4.7875752E+00;
  1.0000020E+00;  9.9999998E-03; -4.0000018E-02;2592;  4.9132579E-03;  0.0000000E+00; -7.4103285E-05;  1.0019843E+03;  4.0079248E-01;  1.6325812E+03;3;  7.2580729E+00;  0.0000000E+00; -1.8122637E-01;0; -5.5670892E-03;  1.0000078E+04;  0.0000000E+00; -9.0183735E-11;  1.0000000E+04;  0.0000000E+00;  9.9999854E+03; -7.6088854E-03;  0.0000000E+00;  2.0417962E-03;  3.5823874E+00;
  1.0000020E+00;  9.9999998E-03; -2.0000009E-02;2593;  4.9086059E-03;  0.0000000E+00; -3.3180895E-05;  1.0019845E+03;  4.0079254E-01;  1.6326792E+03;3;  7.2476606E+00;  0.0000000E+00; -8.1017427E-02;0; -5.9745498E-03;  1.0000079E+04;  0.0000000E+00; -3.0057942E-11;  1.0000000E+04;  0.0000000E+00;  9.9999883E+03; -7.6296921E-03;  0.0000000E+00;  1.6551424E-03;  2.9261270E+00;
  1.0200020E+00;  9.9999998E-03; -1.8000032E-01;2616;  5.1112119E-03;  0.0000000E+00; -1.1239401E-03;  1.0017031E+03;  4.0069005E-01;  1.3978536E+03;3;  7.8865018E+00;  0.0000000E+00; -2.5025477E+00;0;  4.3155301E-02;  1.0000071E+04;  0.0000000E+00; -8.0088284E-06;  1.0000000E+04;  0.0000000E+00;  9.9994883E+03; -6.8281111E-03;  0.0000000E+00;  4.9983412E-02;  1.5117189E+02;
  1.0200020E+00;  9.9999998E-03; -1.6000023E-01;2617;  4.9640243E-03;  0.0000000E+00; -8.4936974E-04;  1.0017145E+03;  4.0069008E-01;  1.4071486E+03;3;  7.5642648E+00;  0.0000000E+00; -1.9465446E+00;0;  2.1723695E-02;  1.0000087E+04;  0.0000000E+00; -4.4453199E-07;  1.0000000E+04;  0.0000000E+00;  9.9997012E+03; -8.2827825E-03;  0.0000000E+00;  3.0006478E-02;  8.7229576E+01;
  1.0200019E+00;  9.9999998E-03; -1.4000016E-01;2618;  4.8575574E-03;  0.0000000E+00; -6.3660933E-04;  1.0017220E+03;  4.0069005E-01;  1.4133125E+03;3;  7.3328214E+00;  0.0000000E+00; -1.4727163E+00;0;  7.4317288E-03;  1.0000096E+04;  0.0000000E+00; -8.8434433E-09;  1.0000000E+04;  0.0000000E+00;  9.9998418E+03; -9.1654006E-03;  0.0000000E+00;  1.6597129E-02;  4.5051880E+01;
  1.0200019E+00;  9.9999998E-03; -1.2000012E-01;2619;  4.7790017E-03;  0.0000000E+00; -4.5470276E-04;  1.0017261E+03;  4.0069005E-01;  1.4166392E+03;3;  7.1618977E+00;  0.0000000E+00; -1.0603646E+00;0; -5.1978044E-04;  1.0000100E+04;  0.0000000E+00; -6.4954606E-09;  1.0000000E+04;  0.0000000E+00;  9.9999180E+03; -9.6485624E-03;  0.0000000E+00;  9.1287820E-03;  2.2285397E+01;
  1.0200019E+00;  9.9999998E-03; -1.0000008E-01;2620;  4.7277636E-03;  0.0000000E+00; -3.1247770E-04;  1.0017281E+03;  4.0069002E-01;  1.4183024E+03;3;  7.0496898E+00;  0.0000000E+00; -7.3576313E-01;0; -4.5062071E-03;  1.0000104E+04;  0.0000000E+00; -3.0229363E-09;  1.0000000E+04;  0.0000000E+00;  9.9999551E+03; -9.9048754E-03;  0.0000000E+00;  5.3986683E-03;  1.1582024E+01;
  1.0200019E+00;  9.9999998E-03; -8.0000050E-02;2621;  4.6957345E-03;  0.0000000E+00; -2.0631865E-04;  1.0017289E+03;  4.0069005E-01;  1.4189873E+03;3;  6.9795938E+00;  0.0000000E+00; -4.9116945E-01;0; -6.4777248E-03;  1.0000106E+04;  0.0000000E+00; -9.6590036E-10;  1.0000000E+04;  0.0000000E+00;  9.9999727E+03; -1.0044759E-02;  0.0000000E+00;  3.5670344E-03;  6.9084692E+00;
  1.0200019E+00;  9.9999998E-03; -6.0000032E-02;2622;  4.6780165E-03;  0.0000000E+00; -1.3036010E-04;  1.0017295E+03;  4.0069005E-01;  1.4194764E+03;3;  6.9417849E+00;  0.0000000E+00; -3.1511509E-01;0; -7.5505702E-03;  1.0000106E+04;  0.0000000E+00; -1.7134595E-10;  1.0000000E+04;  0.0000000E+00;  9.9999805E+03; -1.0126884E-02;  0.0000000E+00;  2.5763141E-03;  4.7843223E+00;
  1.0200019E+00;  9.9999998E-03; -4.0000018E-02;2623;  4.6684626E-03;  0.0000000E+00; -7.5444179E-05;  1.0017297E+03;  4.0069005E-01;  1.4196722E+03;3;  6.9214358E+00;  0.0000000E+00; -1.8231104E-01;0; -8.2017304E-03;  1.0000106E+04;  0.0000000E+00; -4.3687567E-11;  1.0000000E+04;  0.0000000E+00;  9.9999854E+03; -1.0177176E-02;  0.0000000E+00;  1.9754453E-03;  3.6766939E+00;
  1.0200019E+00;  9.9999998E-03; -2.0000009E-02;2624;  4.6637114E-03;  0.0000000E+00; -3.4342014E-05;  1.0017299E+03;  4.0069005E-01;  1.4198679E+03;3;  6.9111547E+00;  0.0000000E+00; -8.3805606E-02;0; -8.5769063E-03;  1.0000106E+04;  0.0000000E+00; -2.4097908E-11;  1.0000000E+04;  0.0000000E+00;  9.9999883E+03; -1.0205261E-02;  0.0000000E+00;  1.6283549E-03;  3.0804775E+00;
  1.0400019E+00;  9.9999998E-03; -1.8000031E-01;2647;  4.8363972E-03;  0.0000000E+00; -1.0590798E-03;  1.0014742E+03;  4.0059751E-01;  1.2061118E+03;3;  7.4962387E+00;  0.0000000E+00; -2.2951517E+00;0;  3.7813287E-02;  1.0000081E+04;  0.0000000E+00; -9.7864518E-05;  1.0000000E+04;  0.0000000E+00;  9.9995342E+03; -7.7211005E-03;  0.0000000E+00;  4.5534387E-02;  1.3247719E+02;
  1.0400019E+00;  9.9999998E-03; -1.6000022E-01;2648;  4.6834061E-03;  0.0000000E+00; -7.9168600E-04;  1.0014846E+03;  4.0059745E-01;  1.2144991E+03;3;  7.1730485E+00;  0.0000000E+00; -1.7713400E+00;0;  1.8443093E-02;  1.0000099E+04;  0.0000000E+00; -9.9919889E-06;  1.0000000E+04;  0.0000000E+00;  9.9997217E+03; -9.3587348E-03;  0.0000000E+00;  2.7801828E-02;  7.8107399E+01;
  1.0400019E+00;  9.9999998E-03; -1.4000016E-01;2649;  4.5731929E-03;  0.0000000E+00; -5.9684512E-04;  1.0014915E+03;  4.0059742E-01;  1.2201556E+03;3;  6.9399729E+00;  0.0000000E+00; -1.3515012E+00;0;  5.1929047E-03;  1.0000110E+04;  0.0000000E+00; -1.8540888E-08;  1.0000000E+04;  0.0000000E+00;  9.9998496E+03; -1.0450653E-02;  0.0000000E+00;  1.5643558E-02;  4.1427940E+01;
  1.0400017E+00;  9.9999998E-03; -1.2000012E-01;2650;  4.4941530E-03;  0.0000000E+00; -4.3264843E-04;  1.0014954E+03;  4.0059742E-01;  1.2234716E+03;3;  6.7711792E+00;  0.0000000E+00; -9.8994774E-01;0; -2.3878412E-03;  1.0000117E+04;  0.0000000E+00; -1.1249467E-08;  1.0000000E+04;  0.0000000E+00;  9.9999209E+03; -1.1093210E-02;  0.0000000E+00;  8.7053692E-03;  2.1084286E+01;
  1.0400017E+00;  9.9999998E-03; -1.0000008E-01;2651;  4.4394769E-03;  0.0000000E+00; -3.0111038E-04;  1.0014974E+03;  4.0059742E-01;  1.2250320E+03;3;  6.6535606E+00;  0.0000000E+00; -6.9803709E-01;0; -6.2905056E-03;  1.0000121E+04;  0.0000000E+00; -4.2188266E-09;  1.0000000E+04;  0.0000000E+00;  9.9999561E+03; -1.1455498E-02;  0.0000000E+00;  5.1649921E-03;  1.1241641E+01;
  1.0400017E+00;  9.9999998E-03; -8.0000050E-02;2652;  4.4058496E-03;  0.0000000E+00; -2.0164307E-04;  1.0014984E+03;  4.0059742E-01;  1.2258123E+03;3;  6.5845447E+00;  0.0000000E+00; -4.7469252E-01;0; -8.2531013E-03;  1.0000124E+04;  0.0000000E+00; -1.0504626E-09;  1.0000000E+04;  0.0000000E+00;  9.9999727E+03; -1.1662246E-02;  0.0000000E+00;  3.4091440E-03;  6.8280072E+00;
  1.0400017E+00;  9.9999998E-03; -6.0000032E-02;2653;  4.3864935E-03;  0.0000000E+00; -1.2893125E-04;  1.0014989E+03;  4.0059742E-01;  1.2262999E+03;3;  6.5457091E+00;  0.0000000E+00; -3.0710396E-01;0; -9.3142241E-03;  1.0000125E+04;  0.0000000E+00; -1.0078612E-10;  1.0000000E+04;  0.0000000E+00;  9.9999814E+03; -1.1785408E-02;  0.0000000E+00;  2.4711832E-03;  4.8019753E+00;
  1.0400017E+00;  9.9999998E-03; -4.0000018E-02;2654;  4.3758820E-03;  0.0000000E+00; -7.5838565E-05;  1.0014991E+03;  4.0059742E-01;  1.2263975E+03;3;  6.5237894E+00;  0.0000000E+00; -1.8212467E-01;0; -9.9429525E-03;  1.0000125E+04;  0.0000000E+00;  3.8587748E-11;  1.0000000E+04;  0.0000000E+00;  9.9999863E+03; -1.1860287E-02;  0.0000000E+00;  1.9173340E-03;  3.7641103E+00;
  1.0400017E+00;  9.9999998E-03; -2.0000009E-02;2655;  4.3707849E-03;  0.0000000E+00; -3.5078050E-05;  1.0014992E+03;  4.0059742E-01;  1.2264949E+03;3;  6.5136189E+00;  0.0000000E+00; -8.5083373E-02;0; -1.0297452E-02;  1.0000126E+04;  0.0000000E+00; -1.8861957E-11;  1.0000000E+04;  0.0000000E+00;  9.9999883E+03; -1.1901729E-02;  0.0000000E+00;  1.6042771E-03;  3.2204666E+00;
  1.0600017E+00;  9.9999998E-03; -1.8000031E-01;2678;  4.5395028E-03;  0.0000000E+00; -1.0137262E-03;  1.0012722E+03;  4.0051588E-01;  1.0363453E+03;3;  7.0825930E+00;  0.0000000E+00; -2.1277864E+00;0;  3.4198642E-02;  1.0000081E+04;  0.0000000E+00; -4.3339207E-04;  1.0000000E+04;  0.0000000E+00;  9.9995703E+03; -7.7526341E-03;  0.0000000E+00;  4.1951276E-02;  1.1605691E+02;
  1.0600017E+00;  9.9999998E-03; -1.6000021E-01;2679;  4.3750606E-03;  0.0000000E+00; -7.3905906E-04;  1.0012815E+03;  4.0051588E-01;  1.0439198E+03;3;  6.7471304E+00;  0.0000000E+00; -1.6160246E+00;0;  1.6831901E-02;  1.0000100E+04;  0.0000000E+00; -6.8278212E-05;  1.0000000E+04;  0.0000000E+00;  9.9997373E+03; -9.4636651E-03;  0.0000000E+00;  2.6295565E-02;  7.0641861E+01;
  1.0600017E+00;  9.9999998E-03; -1.4000016E-01;2680;  4.2628497E-03;  0.0000000E+00; -5.6075258E-04;  1.0012880E+03;  4.0051588E-01;  1.0492607E+03;3;  6.5153213E+00;  0.0000000E+00; -1.2420168E+00;0;  4.4250162E-03;  1.0000115E+04;  0.0000000E+00; -1.0565760E-06;  1.0000000E+04;  0.0000000E+00;  9.9998525E+03; -1.0776584E-02;  0.0000000E+00;  1.5201600E-02;  3.8947361E+01;
  1.0600016E+00;  9.9999998E-03; -1.2000012E-01;2681;  4.1762232E-03;  0.0000000E+00; -4.1140447E-04;  1.0012919E+03;  4.0051585E-01;  1.0524653E+03;3;  6.3357224E+00;  0.0000000E+00; -9.2150110E-01;0; -3.0513639E-03;  1.0000124E+04;  0.0000000E+00; -1.9145935E-08;  1.0000000E+04;  0.0000000E+00;  9.9999209E+03; -1.1645021E-02;  0.0000000E+00;  8.5936571E-03;  2.0538218E+01;
  1.0600016E+00;  9.9999998E-03; -1.0000008E-01;2682;  4.1171662E-03;  0.0000000E+00; -2.9036435E-04;  1.0012940E+03;  4.0051588E-01;  1.0541162E+03;3;  6.2182746E+00;  0.0000000E+00; -6.6036141E-01;0; -7.0760399E-03;  1.0000129E+04;  0.0000000E+00; -6.9447261E-09;  1.0000000E+04;  0.0000000E+00;  9.9999561E+03; -1.2174740E-02;  0.0000000E+00;  5.0987005E-03;  1.1227597E+01;
  1.0600016E+00;  9.9999998E-03; -8.0000050E-02;2683;  4.0797982E-03;  0.0000000E+00; -1.9766204E-04;  1.0012950E+03;  4.0051588E-01;  1.0549902E+03;3;  6.1459751E+00;  0.0000000E+00; -4.5715049E-01;0; -9.1622006E-03;  1.0000134E+04;  0.0000000E+00; -1.5277610E-09;  1.0000000E+04;  0.0000000E+00;  9.9999736E+03; -1.2492211E-02;  0.0000000E+00;  3.3300102E-03;  6.8809648E+00;
  1.0600016E+00;  9.9999998E-03; -6.0000032E-02;2684;  4.0569329E-03;  0.0000000E+00; -1.2832331E-04;  1.0012955E+03;  4.0051588E-01;  1.0553787E+03;3;  6.1018701E+00;  0.0000000E+00; -3.0027807E-01;0; -1.0285206E-02;  1.0000135E+04;  0.0000000E+00; -4.2161177E-11;  1.0000000E+04;  0.0000000E+00;  9.9999814E+03; -1.2682932E-02;  0.0000000E+00;  2.3977265E-03;  4.8547859E+00;
  1.0600016E+00;  9.9999998E-03; -4.0000018E-02;2685;  4.0443703E-03;  0.0000000E+00; -7.6091899E-05;  1.0012958E+03;  4.0051588E-01;  1.0555729E+03;3;  6.0778198E+00;  0.0000000E+00; -1.7970866E-01;0; -1.0927510E-02;  1.0000137E+04;  0.0000000E+00;  1.7359529E-10;  1.0000000E+04;  0.0000000E+00;  9.9999863E+03; -1.2796497E-02;  0.0000000E+00;  1.8689873E-03;  3.8437943E+00;
  1.0600016E+00;  9.9999998E-03; -2.0000009E-02;2686;  4.0379860E-03;  0.0000000E+00; -3.5769997E-05;  1.0012960E+03;  4.0051582E-01;  1.0556699E+03;3;  6.0656147E+00;  0.0000000E+00; -8.5699596E-02;0; -1.1276704E-02;  1.0000137E+04;  0.0000000E+00;  1.5793790E-11;  1.0000000E+04;  0.0000000E+00;  9.9999873E+03; -1.2857811E-02;  0.0000000E+00;  1.5811067E-03;  3.3371723E+00;
  1.0800016E+00;  9.9999998E-03; -1.8000031E-01;2709;  4.2468188E-03;  0.0000000E+00; -9.9142233E-04;  1.0010981E+03;  4.0044579E-01;  8.8947662E+02;3;  6.6794772E+00;  0.0000000E+00; -2.0013018E+00;0;  3.2074034E-02;  1.0000073E+04;  0.0000000E+00; -1.2855900E-03;  1.0000000E+04;  0.0000000E+00;  9.9995986E+03; -7.0616589E-03;  0.0000000E+00;  3.9135695E-02;  1.0153731E+02;
  1.0800016E+00;  9.9999998E-03; -1.6000021E-01;2710;  4.0676259E-03;  0.0000000E+00; -6.9980917E-04;  1.0011063E+03;  4.0044582E-01;  8.9604242E+02;3;  6.3309717E+00;  0.0000000E+00; -1.4881318E+00;0;  1.6754691E-02;  1.0000092E+04;  0.0000000E+00; -3.0262730E-04;  1.0000000E+04;  0.0000000E+00;  9.9997441E+03; -8.6769965E-03;  0.0000000E+00;  2.5431687E-02;  6.4424141E+01;
  1.0800016E+00;  9.9999998E-03; -1.4000015E-01;2711;  3.9388477E-03;  0.0000000E+00; -5.2238698E-04;  1.0011124E+03;  4.0044582E-01;  9.0106335E+02;3;  6.0771036E+00;  0.0000000E+00; -1.1334212E+00;0;  5.1264009E-03;  1.0000108E+04;  0.0000000E+00; -2.1529249E-05;  1.0000000E+04;  0.0000000E+00;  9.9998506E+03; -1.0158764E-02;  0.0000000E+00;  1.5285165E-02;  3.7384609E+01;
  1.0800015E+00;  9.9999998E-03; -1.2000011E-01;2712;  3.8478915E-03;  0.0000000E+00; -3.8967939E-04;  1.0011164E+03;  4.0044582E-01;  9.0424976E+02;3;  5.8954926E+00;  0.0000000E+00; -8.5672641E-01;0; -2.4583610E-03;  1.0000120E+04;  0.0000000E+00; -3.3104236E-08;  1.0000000E+04;  0.0000000E+00;  9.9999180E+03; -1.1305558E-02;  0.0000000E+00;  8.8471975E-03;  2.0604677E+01;
  1.0800015E+00;  9.9999998E-03; -1.0000008E-01;2713;  3.7829832E-03;  0.0000000E+00; -2.8168585E-04;  1.0011187E+03;  4.0044582E-01;  9.0608429E+02;3;  5.7703385E+00;  0.0000000E+00; -6.2478775E-01;0; -6.8275323E-03;  1.0000129E+04;  0.0000000E+00; -1.2323557E-08;  1.0000000E+04;  0.0000000E+00;  9.9999531E+03; -1.2078448E-02;  0.0000000E+00;  5.2509159E-03;  1.1564998E+01;
  1.0800015E+00;  9.9999998E-03; -8.0000050E-02;2714;  3.7385670E-03;  0.0000000E+00; -1.9527064E-04;  1.0011198E+03;  4.0044582E-01;  9.0704987E+02;3;  5.6884460E+00;  0.0000000E+00; -4.3953428E-01;0; -9.2025315E-03;  1.0000134E+04;  0.0000000E+00; -3.1843446E-09;  1.0000000E+04;  0.0000000E+00;  9.9999727E+03; -1.2569064E-02;  0.0000000E+00;  3.3665325E-03;  7.1070814E+00;
  1.0800015E+00;  9.9999998E-03; -6.0000036E-02;2715;  3.7107680E-03;  0.0000000E+00; -1.2822266E-04;  1.0011204E+03;  4.0044582E-01;  9.0753265E+02;3;  5.6387954E+00;  0.0000000E+00; -2.9223359E-01;0; -1.0492893E-02;  1.0000137E+04;  0.0000000E+00; -2.0321288E-10;  1.0000000E+04;  0.0000000E+00;  9.9999814E+03; -1.2869582E-02;  0.0000000E+00;  2.3766891E-03;  4.9693332E+00;
  1.0800015E+00;  9.9999998E-03; -4.0000021E-02;2716;  3.6946174E-03;  0.0000000E+00; -7.7223776E-05;  1.0011208E+03;  4.0044582E-01;  9.0782233E+02;3;  5.6100550E+00;  0.0000000E+00; -1.7807911E-01;0; -1.1207378E-02;  1.0000140E+04;  0.0000000E+00;  1.9060224E-10;  1.0000000E+04;  0.0000000E+00;  9.9999854E+03; -1.3046190E-02;  0.0000000E+00;  1.8388113E-03;  3.9229503E+00;
  1.0800015E+00;  9.9999998E-03; -2.0000009E-02;2717;  3.6862250E-03;  0.0000000E+00; -3.6308262E-05;  1.0011209E+03;  4.0044582E-01;  9.0791888E+02;3;  5.5951023E+00;  0.0000000E+00; -8.4666640E-02;0; -1.1578922E-02;  1.0000140E+04;  0.0000000E+00;  4.2409003E-11;  1.0000000E+04;  0.0000000E+00;  9.9999883E+03; -1.3139140E-02;  0.0000000E+00;  1.5602179E-03;  3.4235916E+00;
  1.1000016E+00;  9.9999998E-03; -1.8000033E-01;2739;  3.9945929E-03;  0.0000000E+00; -1.0166755E-03;  1.0009517E+03;  4.0038708E-01;  7.6511169E+02;3;  6.3378391E+00;  0.0000000E+00; -1.9456699E+00;0;  3.1190114E-02;  1.0000060E+04;  0.0000000E+00; -2.9596610E-03;  1.0000000E+04;  0.0000000E+00;  9.9996230E+03; -5.7136132E-03;  0.0000000E+00;  3.6903728E-02;  8.8513504E+01;
  1.1000015E+00;  9.9999998E-03; -1.6000021E-01;2740;  3.7657965E-03;  0.0000000E+00; -6.6876295E-04;  1.0009587E+03;  4.0038711E-01;  7.7066992E+02;3;  5.9216652E+00;  0.0000000E+00; -1.3750461E+00;0;  1.8029021E-02;  1.0000073E+04;  0.0000000E+00; -9.7258150E-04;  1.0000000E+04;  0.0000000E+00;  9.9997480E+03; -7.0311353E-03;  0.0000000E+00;  2.5060156E-02;  5.8856579E+01;
  1.1000015E+00;  9.9999998E-03; -1.4000015E-01;2741;  3.6281417E-03;  0.0000000E+00; -4.8885308E-04;  1.0009644E+03;  4.0038714E-01;  7.7526978E+02;3;  5.6599994E+00;  0.0000000E+00; -1.0364507E+00;0;  7.2644334E-03;  1.0000090E+04;  0.0000000E+00; -1.6026670E-04;  1.0000000E+04;  0.0000000E+00;  9.9998438E+03; -8.5560977E-03;  0.0000000E+00;  1.5820531E-02;  3.6235752E+01;
  1.1000013E+00;  9.9999998E-03; -1.2000011E-01;2742;  3.5276262E-03;  0.0000000E+00; -3.6733638E-04;  1.0009685E+03;  4.0038708E-01;  7.7852802E+02;3;  5.4652267E+00;  0.0000000E+00; -7.9055613E-01;0; -4.7552865E-04;  1.0000105E+04;  0.0000000E+00; -7.4156901E-06;  1.0000000E+04;  0.0000000E+00;  9.9999092E+03; -9.9707358E-03;  0.0000000E+00;  9.4952071E-03;  2.1088213E+01;
  1.1000013E+00;  9.9999998E-03; -1.0000008E-01;2743;  3.4551760E-03;  0.0000000E+00; -2.6981111E-04;  1.0009709E+03;  4.0038702E-01;  7.8054047E+02;3;  5.3321838E+00;  0.0000000E+00; -5.8383173E-01;0; -5.3846720E-03;  1.0000117E+04;  0.0000000E+00; -2.3285578E-08;  1.0000000E+04;  0.0000000E+00;  9.9999482E+03; -1.1064498E-02;  0.0000000E+00;  5.6798258E-03;  1.2215600E+01;
  1.1000013E+00;  9.9999998E-03; -8.0000058E-02;2744;  3.4047458E-03;  0.0000000E+00; -1.9330364E-04;  1.0009725E+03;  4.0038708E-01;  7.8178632E+02;3;  5.2430978E+00;  0.0000000E+00; -4.2306495E-01;0; -8.2409047E-03;  1.0000125E+04;  0.0000000E+00; -7.3454092E-09;  1.0000000E+04;  0.0000000E+00;  9.9999688E+03; -1.1814580E-02;  0.0000000E+00;  3.5736756E-03;  7.5302930E+00;
  1.1000013E+00;  9.9999998E-03; -6.0000036E-02;2745;  3.3702396E-03;  0.0000000E+00; -1.2992223E-04;  1.0009733E+03;  4.0038708E-01;  7.8236133E+02;3;  5.1831117E+00;  0.0000000E+00; -2.8622353E-01;0; -9.8470505E-03;  1.0000131E+04;  0.0000000E+00; -1.5313547E-09;  1.0000000E+04;  0.0000000E+00;  9.9999805E+03; -1.2295119E-02;  0.0000000E+00;  2.4480685E-03;  5.1792607E+00;
  1.1000013E+00;  9.9999998E-03; -4.0000021E-02;2746;  3.3488164E-03;  0.0000000E+00; -7.9566053E-05;  1.0009738E+03;  4.0038714E-01;  7.8274463E+02;3;  5.1469941E+00;  0.0000000E+00; -1.7701377E-01;0; -1.0731451E-02;  1.0000134E+04;  0.0000000E+00; -4.1608578E-11;  1.0000000E+04;  0.0000000E+00;  9.9999854E+03; -1.2582326E-02;  0.0000000E+00;  1.8508756E-03;  4.0222759E+00;
  1.1000013E+00;  9.9999998E-03; -2.0000011E-02;2747;  3.3373730E-03;  0.0000000E+00; -3.7522677E-05;  1.0009739E+03;  4.0038711E-01;  7.8293628E+02;3;  5.1281867E+00;  0.0000000E+00; -8.4004007E-02;0; -1.1178264E-02;  1.0000135E+04;  0.0000000E+00; -3.1659395E-12;  1.0000000E+04;  0.0000000E+00;  9.9999883E+03; -1.2732929E-02;  0.0000000E+00;  1.5546640E-03;  3.4855516E+00;
  1.1200014E+00;  9.9999998E-03; -1.8000039E-01;2768;  3.8044907E-03;  0.0000000E+00; -1.1145574E-03;  1.0008311E+03;  4.0033889E-01;  6.6154553E+02;3;  6.0831327E+00;  0.0000000E+00; -1.9993982E+00;0;  3.1217745E-02;  1.0000038E+04;  0.0000000E+00; -5.6680278E-03;  1.0000000E+04;  0.0000000E+00;  9.9996416E+03; -3.8121694E-03;  0.0000000E+00;  3.5029914E-02;  7.6828735E+01;
  1.1200013E+00;  9.9999998E-03; -1.6000022E-01;2769;  3.5100211E-03;  0.0000000E+00; -6.6981057E-04;  1.0008369E+03;  4.0033892E-01;  6.6619507E+02;3;  5.5780654E+00;  0.0000000E+00; -1.3125783E+00;0;  2.0316724E-02;  1.0000048E+04;  0.0000000E+00; -2.4861167E-03;  1.0000000E+04;  0.0000000E+00;  9.9997471E+03; -4.6336288E-03;  0.0000000E+00;  2.4950352E-02;  5.3436485E+01;
  1.1200013E+00;  9.9999998E-03; -1.4000013E-01;2770;  3.3406906E-03;  0.0000000E+00; -4.5828236E-04;  1.0008420E+03;  4.0033892E-01;  6.7027515E+02;3;  5.2776265E+00;  0.0000000E+00; -9.4703346E-01;0;  1.0648399E-02;  1.0000063E+04;  0.0000000E+00; -7.0522935E-04;  1.0000000E+04;  0.0000000E+00;  9.9998340E+03; -5.9936075E-03;  0.0000000E+00;  1.6642006E-02;  3.4876331E+01;
  1.1200012E+00;  9.9999998E-03; -1.2000010E-01;2771;  3.2299419E-03;  0.0000000E+00; -3.3985396E-04;  1.0008460E+03;  4.0033889E-01;  6.7340637E+02;3;  5.0705352E+00;  0.0000000E+00; -7.1940821E-01;0;  2.9491927E-03;  1.0000079E+04;  0.0000000E+00; -1.1095862E-04;  1.0000000E+04;  0.0000000E+00;  9.9998984E+03; -7.5412388E-03;  0.0000000E+00;  1.0490431E-02;  2.1567295E+01;
  1.1200012E+00;  9.9999998E-03; -1.0000008E-01;2772;  3.1512850E-03;  0.0000000E+00; -2.5535517E-04;  1.0008489E+03;  4.0033889E-01;  6.7568365E+02;3;  4.9261580E+00;  0.0000000E+00; -5.4095358E-01;0; -2.5136988E-03;  1.0000094E+04;  0.0000000E+00; -6.5668414E-06;  1.0000000E+04;  0.0000000E+00;  9.9999395E+03; -8.9485683E-03;  0.0000000E+00;  6.4348695E-03;  1.3032495E+01;
  1.1200012E+00;  9.9999998E-03; -8.0000058E-02;2773;  3.0945356E-03;  0.0000000E+00; -1.8700864E-04;  1.0008506E+03;  4.0033889E-01;  6.7710699E+02;3;  4.8262081E+00;  0.0000000E+00; -3.9676350E-01;0; -6.0149292E-03;  1.0000106E+04;  0.0000000E+00; -1.6685281E-08;  1.0000000E+04;  0.0000000E+00;  9.9999629E+03; -1.0036113E-02;  0.0000000E+00;  4.0211836E-03;  8.1219511E+00;
  1.1200012E+00;  9.9999998E-03; -6.0000040E-02;2774;  3.0547888E-03;  0.0000000E+00; -1.3018811E-04;  1.0008517E+03;  4.0033892E-01;  6.7786609E+02;3;  4.7599397E+00;  0.0000000E+00; -2.7807429E-01;0; -8.1089037E-03;  1.0000114E+04;  0.0000000E+00; -5.4165739E-09;  1.0000000E+04;  0.0000000E+00;  9.9999775E+03; -1.0783977E-02;  0.0000000E+00;  2.6750730E-03;  5.5004544E+00;
  1.1200012E+00;  9.9999998E-03; -4.0000025E-02;2775;  3.0281798E-03;  0.0000000E+00; -8.1733713E-05;  1.0008523E+03;  4.0033889E-01;  6.7843542E+02;3;  4.7153606E+00;  0.0000000E+00; -1.7468777E-01;0; -9.2977900E-03;  1.0000118E+04;  0.0000000E+00; -1.3840715E-09;  1.0000000E+04;  0.0000000E+00;  9.9999844E+03; -1.1251858E-02;  0.0000000E+00;  1.9540680E-03;  4.1653562E+00;
  1.1200012E+00;  9.9999998E-03; -2.0000011E-02;2776;  3.0134721E-03;  0.0000000E+00; -3.9007638E-05;  1.0008526E+03;  4.0033892E-01;  6.7862518E+02;3;  4.6920390E+00;  0.0000000E+00; -8.3300903E-02;0; -9.9024074E-03;  1.0000122E+04;  0.0000000E+00; -3.2063274E-10;  1.0000000E+04;  0.0000000E+00;  9.9999873E+03; -1.1503647E-02;  0.0000000E+00;  1.6012399E-03;  3.5415604E+00;
  1.1400014E+00;  9.9999998E-03; -1.8000048E-01;2796;  3.7102660E-03;  0.0000000E+00; -1.3153690E-03;  1.0007343E+03;  4.0030029E-01;  5.7691876E+02;3;  5.9584990E+00;  0.0000000E+00; -2.2109377E+00;0;  3.1802207E-02;  1.0000013E+04;  0.0000000E+00; -9.2601972E-03;  1.0000000E+04;  0.0000000E+00;  9.9996592E+03; -1.5328981E-03;  0.0000000E+00;  3.3335105E-02;  6.6583946E+01;
  1.1400013E+00;  9.9999998E-03; -1.6000026E-01;2797;  3.3270835E-03;  0.0000000E+00; -7.3966064E-04;  1.0007388E+03;  4.0030029E-01;  5.8047833E+02;3;  5.3312945E+00;  0.0000000E+00; -1.3492147E+00;0;  2.3112345E-02;  1.0000016E+04;  0.0000000E+00; -5.1876577E-03;  1.0000000E+04;  0.0000000E+00;  9.9997480E+03; -1.7310664E-03;  0.0000000E+00;  2.4843412E-02;  4.8121468E+01;
  1.1400012E+00;  9.9999998E-03; -1.4000015E-01;2798;  3.1016783E-03;  0.0000000E+00; -4.5159081E-04;  1.0007432E+03;  4.0030029E-01;  5.8403784E+02;3;  4.9562397E+00;  0.0000000E+00; -8.8755149E-01;0;  1.4826667E-02;  1.0000027E+04;  0.0000000E+00; -2.1588882E-03;  1.0000000E+04;  0.0000000E+00;  9.9998252E+03; -2.6811257E-03;  0.0000000E+00;  1.7507793E-02;  3.2913395E+01;
  1.1400012E+00;  9.9999998E-03; -1.2000009E-01;2799;  2.9654920E-03;  0.0000000E+00; -3.1448077E-04;  1.0007469E+03;  4.0030032E-01;  5.8694171E+02;3;  4.7198095E+00;  0.0000000E+00; -6.5070921E-01;0;  7.5753308E-03;  1.0000042E+04;  0.0000000E+00; -6.4658420E-04;  1.0000000E+04;  0.0000000E+00;  9.9998857E+03; -4.1043940E-03;  0.0000000E+00;  1.1679725E-02;  2.1524252E+01;
  1.1400011E+00;  9.9999998E-03; -1.0000007E-01;2800;  2.8797893E-03;  0.0000000E+00; -2.3234963E-04;  1.0007499E+03;  4.0030026E-01;  5.8918982E+02;3;  4.5684891E+00;  0.0000000E+00; -4.8789504E-01;0;  1.8568449E-03;  1.0000059E+04;  0.0000000E+00; -1.3153198E-04;  1.0000000E+04;  0.0000000E+00;  9.9999277E+03; -5.6371489E-03;  0.0000000E+00;  7.4939937E-03;  1.3684093E+01;
  1.1400011E+00;  9.9999998E-03; -8.0000050E-02;2801;  2.8165299E-03;  0.0000000E+00; -1.7205483E-04;  1.0007520E+03;  4.0030023E-01;  5.9087585E+02;3;  4.4559383E+00;  0.0000000E+00; -3.6191773E-01;0; -2.2251159E-03;  1.0000073E+04;  0.0000000E+00; -1.5550047E-05;  1.0000000E+04;  0.0000000E+00;  9.9999561E+03; -6.9971378E-03;  0.0000000E+00;  4.7720219E-03;  8.7508545E+00;
  1.1400011E+00;  9.9999998E-03; -6.0000036E-02;2802;  2.7741841E-03;  0.0000000E+00; -1.2307943E-04;  1.0007534E+03;  4.0030032E-01;  5.9199994E+02;3;  4.3820848E+00;  0.0000000E+00; -2.5812933E-01;0; -4.9027056E-03;  1.0000084E+04;  0.0000000E+00; -6.5287958E-07;  1.0000000E+04;  0.0000000E+00;  9.9999717E+03; -8.0432417E-03;  0.0000000E+00;  3.1405361E-03;  5.8929281E+00;
  1.1400011E+00;  9.9999998E-03; -4.0000025E-02;2803;  2.7459431E-03;  0.0000000E+00; -7.9576886E-05;  1.0007542E+03;  4.0030026E-01;  5.9265564E+02;3;  4.3345261E+00;  0.0000000E+00; -1.6659507E-01;0; -6.5211486E-03;  1.0000093E+04;  0.0000000E+00; -4.6271529E-09;  1.0000000E+04;  0.0000000E+00;  9.9999805E+03; -8.7474762E-03;  0.0000000E+00;  2.2263278E-03;  4.3473663E+00;
  1.1400011E+00;  9.9999998E-03; -2.0000013E-02;2804;  2.7291859E-03;  0.0000000E+00; -3.8617964E-05;  1.0007546E+03;  4.0030023E-01;  5.9293665E+02;3;  4.3072104E+00;  0.0000000E+00; -8.0085814E-02;0; -7.3732054E-03;  1.0000096E+04;  0.0000000E+00; -1.0791379E-09;  1.0000000E+04;  0.0000000E+00;  9.9999854E+03; -9.1425795E-03;  0.0000000E+00;  1.7693740E-03;  3.5983412E+00;
  1.1600015E+00;  9.9999998E-03; -1.8000065E-01;2823;  3.7820856E-03;  0.0000000E+00; -1.6612634E-03;  1.0006577E+03;  4.0026993E-01;  5.0828528E+02;3;  6.0610809E+00;  0.0000000E+00; -2.6558402E+00;0;  3.2830052E-02;  9.9999863E+03;  0.0000000E+00; -1.3096793E-02;  1.0000000E+04;  0.0000000E+00;  9.9996738E+03;  9.9631341E-04;  0.0000000E+00;  3.1833738E-02;  5.7709351E+01;
  1.1600013E+00;  9.9999998E-03; -1.6000034E-01;2824;  3.2578351E-03;  0.0000000E+00; -9.1713434E-04;  1.0006614E+03;  4.0026993E-01;  5.1114145E+02;3;  5.2323961E+00;  0.0000000E+00; -1.5441355E+00;0;  2.5876604E-02;  9.9999834E+03;  0.0000000E+00; -8.9340964E-03;  1.0000000E+04;  0.0000000E+00;  9.9997520E+03;  1.3262578E-03;  0.0000000E+00;  2.4550347E-02;  4.3216732E+01;
  1.1600012E+00;  9.9999998E-03; -1.4000018E-01;2825;  2.9480597E-03;  0.0000000E+00; -5.1430339E-04;  1.0006650E+03;  4.0026996E-01;  5.1390540E+02;3;  4.7481518E+00;  0.0000000E+00; -9.3133616E-01;0;  1.9158412E-02;  9.9999883E+03;  0.0000000E+00; -4.9182181E-03;  1.0000000E+04;  0.0000000E+00;  9.9998174E+03;  9.8782789E-04;  0.0000000E+00;  1.8170584E-02;  3.0587002E+01;
  1.1600010E+00;  9.9999998E-03; -1.2000010E-01;2826;  2.7619647E-03;  0.0000000E+00; -3.1462367E-04;  1.0006682E+03;  4.0026996E-01;  5.1639301E+02;3;  4.4520373E+00;  0.0000000E+00; -6.1100531E-01;0;  1.2834650E-02;  9.9999980E+03;  0.0000000E+00; -2.1792331E-03;  1.0000000E+04;  0.0000000E+00;  9.9998730E+03; -2.3513517E-06;  0.0000000E+00;  1.2837002E-02;  2.0783876E+01;
  1.1600010E+00;  9.9999998E-03; -1.0000006E-01;2827;  2.6459116E-03;  0.0000000E+00; -2.1041493E-04;  1.0006711E+03;  4.0026990E-01;  5.1860413E+02;3;  4.2572408E+00;  0.0000000E+00; -4.3242326E-01;0;  7.3817186E-03;  1.0000012E+04;  0.0000000E+00; -7.7708543E-04;  1.0000000E+04;  0.0000000E+00;  9.9999150E+03; -1.3361815E-03;  0.0000000E+00;  8.7179001E-03;  1.3796184E+01;
  1.1600010E+00;  9.9999998E-03; -8.0000043E-02;2828;  2.5762303E-03;  0.0000000E+00; -1.5142688E-04;  1.0006732E+03;  4.0026993E-01;  5.2026251E+02;3;  4.1404729E+00;  0.0000000E+00; -3.1896591E-01;0;  3.1086309E-03;  1.0000027E+04;  0.0000000E+00; -2.1979638E-04;  1.0000000E+04;  0.0000000E+00;  9.9999434E+03; -2.6977141E-03;  0.0000000E+00;  5.8063450E-03;  9.1324749E+00;
  1.1600009E+00;  9.9999998E-03; -6.0000032E-02;2829;  2.5268332E-03;  0.0000000E+00; -1.0478671E-04;  1.0006749E+03;  4.0026990E-01;  5.2155237E+02;3;  4.0555530E+00;  0.0000000E+00; -2.2165787E-01;0;  4.0315557E-05;  1.0000038E+04;  0.0000000E+00; -4.5419805E-05;  1.0000000E+04;  0.0000000E+00;  9.9999639E+03; -3.8692555E-03;  0.0000000E+00;  3.9095711E-03;  6.2124224E+00;
  1.1600009E+00;  9.9999998E-03; -4.0000021E-02;2830;  2.4972677E-03;  0.0000000E+00; -6.8558809E-05;  1.0006759E+03;  4.0026996E-01;  5.2238153E+02;3;  4.0029159E+00;  0.0000000E+00; -1.4423545E-01;0; -1.9758868E-03;  1.0000049E+04;  0.0000000E+00; -6.1382430E-06;  1.0000000E+04;  0.0000000E+00;  9.9999746E+03; -4.7395737E-03;  0.0000000E+00;  2.7636869E-03;  4.5015883E+00;
  1.1600009E+00;  9.9999998E-03; -2.0000011E-02;2831;  2.4804045E-03;  0.0000000E+00; -3.3434964E-05;  1.0006765E+03;  4.0026990E-01;  5.2275006E+02;3;  3.9747624E+00;  0.0000000E+00; -6.9952928E-02;0; -3.1049822E-03;  1.0000055E+04;  0.0000000E+00; -2.4059165E-07;  1.0000000E+04;  0.0000000E+00;  9.9999805E+03; -5.2650236E-03;  0.0000000E+00;  2.1600414E-03;  3.6211324E+00;
  1.1800016E+00;  9.9999998E-03; -1.8000086E-01;2849;  4.1380073E-03;  0.0000000E+00; -2.1510927E-03;  1.0005983E+03;  4.0024659E-01;  4.5279178E+02;3;  6.5952387E+00;  0.0000000E+00; -3.3640883E+00;0;  3.4910765E-02;  9.9999521E+03;  0.0000000E+00; -1.6467979E-02;  1.0000000E+04;  0.0000000E+00;  9.9996865E+03;  4.1501895E-03;  0.0000000E+00;  3.0760575E-02;  4.9734085E+01;
  1.1800014E+00;  9.9999998E-03; -1.6000049E-01;2850;  3.4151303E-03;  0.0000000E+00; -1.2611330E-03;  1.0006017E+03;  4.0024656E-01;  4.5531799E+02;3;  5.4382510E+00;  0.0000000E+00; -2.0112123E+00;0;  2.8497552E-02;  9.9999502E+03;  0.0000000E+00; -1.2919690E-02;  1.0000000E+04;  0.0000000E+00;  9.9997549E+03;  4.3634796E-03;  0.0000000E+00;  2.4134073E-02;  3.8651096E+01;
  1.1800011E+00;  9.9999998E-03; -1.4000027E-01;2851;  2.9384859E-03;  0.0000000E+00; -7.0444652E-04;  1.0006046E+03;  4.0024659E-01;  4.5757346E+02;3;  4.7114434E+00;  0.0000000E+00; -1.1617088E+00;0;  2.3054846E-02;  9.9999502E+03;  0.0000000E+00; -8.7356726E-03;  1.0000000E+04;  0.0000000E+00;  9.9998125E+03;  4.5441566E-03;  0.0000000E+00;  1.8510690E-02;  2.8396854E+01;
  1.1800010E+00;  9.9999998E-03; -1.2000015E-01;2852;  2.6557548E-03;  0.0000000E+00; -3.9322101E-04;  1.0006072E+03;  4.0024659E-01;  4.5955826E+02;3;  4.2963758E+00;  0.0000000E+00; -6.8191379E-01;0;  1.7989635E-02;  9.9999531E+03;  0.0000000E+00; -5.0317650E-03;  1.0000000E+04;  0.0000000E+00;  9.9998623E+03;  4.2362791E-03;  0.0000000E+00;  1.3753357E-02;  1.9820677E+01;
  1.1800009E+00;  9.9999998E-03; -1.0000008E-01;2853;  2.4841223E-03;  0.0000000E+00; -2.2947074E-04;  1.0006096E+03;  4.0024656E-01;  4.6136261E+02;3;  4.0367117E+00;  0.0000000E+00; -4.2778280E-01;0;  1.3363660E-02;  9.9999619E+03;  0.0000000E+00; -2.4669364E-03;  1.0000000E+04;  0.0000000E+00;  9.9999023E+03;  3.4568112E-03;  0.0000000E+00;  9.9068489E-03;  1.3435534E+01;
  1.1800009E+00;  9.9999998E-03; -8.0000043E-02;2854;  2.3792647E-03;  0.0000000E+00; -1.4029794E-04;  1.0006116E+03;  4.0024662E-01;  4.6289633E+02;3;  3.8750260E+00;  0.0000000E+00; -2.8016439E-01;0;  9.4476119E-03;  9.9999717E+03;  0.0000000E+00; -1.0209910E-03;  1.0000000E+04;  0.0000000E+00;  9.9999316E+03;  2.4489546E-03;  0.0000000E+00;  6.9986568E-03;  9.0702362E+00;
  1.1800009E+00;  9.9999998E-03; -6.0000025E-02;2855;  2.3167797E-03;  0.0000000E+00; -8.7777255E-05;  1.0006132E+03;  4.0024656E-01;  4.6406912E+02;3;  3.7770779E+00;  0.0000000E+00; -1.8506049E-01;0;  6.4068185E-03;  9.9999824E+03;  0.0000000E+00; -3.4176424E-04;  1.0000000E+04;  0.0000000E+00;  9.9999521E+03;  1.4534489E-03;  0.0000000E+00;  4.9533695E-03;  6.2429190E+00;
  1.1800009E+00;  9.9999998E-03; -4.0000014E-02;2856;  2.2803068E-03;  0.0000000E+00; -5.3142048E-05;  1.0006143E+03;  4.0024659E-01;  4.6488107E+02;3;  3.7159886E+00;  0.0000000E+00; -1.1617630E-01;0;  4.2569814E-03;  9.9999912E+03;  0.0000000E+00; -8.4487358E-05;  1.0000000E+04;  0.0000000E+00;  9.9999658E+03;  6.3650153E-04;  0.0000000E+00;  3.6204800E-03;  4.4960790E+00;
  1.1800009E+00;  9.9999998E-03; -2.0000007E-02;2857;  2.2611867E-03;  0.0000000E+00; -2.5055586E-05;  1.0006149E+03;  4.0024659E-01;  4.6533215E+02;3;  3.6822755E+00;  0.0000000E+00; -5.6032415E-02;0;  2.9779044E-03;  9.9999961E+03;  0.0000000E+00; -1.1317809E-05;  1.0000000E+04;  0.0000000E+00;  9.9999727E+03;  1.0661240E-04;  0.0000000E+00;  2.8712919E-03;  3.5409868E+00;
  1.2000020E+00;  9.9999998E-03; -1.8000108E-01;2873;  4.8232866E-03;  0.0000000E+00; -2.6689337E-03;  1.0005524E+03;  4.0022916E-01;  4.0727905E+02;3;  7.6816640E+00;  0.0000000E+00; -4.1462593E+00;0;  3.9351154E-02;  9.9999004E+03;  0.0000000E+00; -1.8644666E-02;  1.0000000E+04;  0.0000000E+00;  9.9996924E+03;  9.2164082E-03;  0.0000000E+00;  3.0134747E-02;  4.1747322E+01;
  1.2000016E+00;  9.9999998E-03; -1.6000070E-01;2874;  3.9541940E-03;  0.0000000E+00; -1.7433179E-03;  1.0005562E+03;  4.0022907E-01;  4.1009171E+02;3;  6.2366090E+00;  0.0000000E+00; -2.7340100E+00;0;  3.2026280E-02;  9.9999102E+03;  0.0000000E+00; -1.6336404E-02;  1.0000000E+04;  0.0000000E+00;  9.9997578E+03;  8.1686340E-03;  0.0000000E+00;  2.3857646E-02;  3.3881985E+01;
  1.2000012E+00;  9.9999998E-03; -1.4000042E-01;2875;  3.2401555E-03;  0.0000000E+00; -1.0786867E-03;  1.0005590E+03;  4.0022913E-01;  4.1211334E+02;3;  5.1116080E+00;  0.0000000E+00; -1.7050803E+00;0;  2.6661096E-02;  9.9999131E+03;  0.0000000E+00; -1.2608968E-02;  1.0000000E+04;  0.0000000E+00;  9.9998105E+03;  7.9581533E-03;  0.0000000E+00;  1.8702943E-02;  2.6080910E+01;
  1.2000011E+00;  9.9999998E-03; -1.2000024E-01;2876;  2.7572042E-03;  0.0000000E+00; -6.2711671E-04;  1.0005612E+03;  4.0022916E-01;  4.1369547E+02;3;  4.3910656E+00;  0.0000000E+00; -9.9530548E-01;0;  2.2492323E-02;  9.9999121E+03;  0.0000000E+00; -8.6057484E-03;  1.0000000E+04;  0.0000000E+00;  9.9998555E+03;  8.0813700E-03;  0.0000000E+00;  1.4410952E-02;  1.8912266E+01;
  1.2000009E+00;  9.9999998E-03; -1.0000014E-01;2877;  2.4562902E-03;  0.0000000E+00; -3.5387481E-04;  1.0005630E+03;  4.0022916E-01;  4.1510175E+02;3;  3.9604623E+00;  0.0000000E+00; -5.7298851E-01;0;  1.8947344E-02;  9.9999131E+03;  0.0000000E+00; -5.1309722E-03;  1.0000000E+04;  0.0000000E+00;  9.9998906E+03;  8.0171097E-03;  0.0000000E+00;  1.0930235E-02;  1.3040895E+01;
  1.2000009E+00;  9.9999998E-03; -8.0000073E-02;2878;  2.2823154E-03;  0.0000000E+00; -1.9550965E-04;  1.0005646E+03;  4.0022910E-01;  4.1624438E+02;3;  3.7218955E+00;  0.0000000E+00; -3.3039829E-01;0;  1.5873196E-02;  9.9999170E+03;  0.0000000E+00; -2.6208656E-03;  1.0000000E+04;  0.0000000E+00;  9.9999180E+03;  7.6732743E-03;  0.0000000E+00;  8.1999218E-03;  8.7647800E+00;
  1.2000008E+00;  9.9999998E-03; -6.0000036E-02;2879;  2.1793162E-03;  0.0000000E+00; -1.0434476E-04;  1.0005659E+03;  4.0022916E-01;  4.1721121E+02;3;  3.5769875E+00;  0.0000000E+00; -1.8753180E-01;0;  1.3326855E-02;  9.9999219E+03;  0.0000000E+00; -1.1047104E-03;  1.0000000E+04;  0.0000000E+00;  9.9999385E+03;  7.1591046E-03;  0.0000000E+00;  6.1677508E-03;  5.9519925E+00;
  1.2000008E+00;  9.9999998E-03; -4.0000018E-02;2880;  2.1223463E-03;  0.0000000E+00; -5.2531446E-05;  1.0005668E+03;  4.0022910E-01;  4.1782645E+02;3;  3.4965215E+00;  0.0000000E+00; -1.0043826E-01;0;  1.1402495E-02;  9.9999277E+03;  0.0000000E+00; -3.5461938E-04;  1.0000000E+04;  0.0000000E+00;  9.9999531E+03;  6.6437824E-03;  0.0000000E+00;  4.7587133E-03;  4.2275543E+00;
  1.2000008E+00;  9.9999998E-03; -2.0000007E-02;2881;  2.0942225E-03;  0.0000000E+00; -2.1636275E-05;  1.0005674E+03;  4.0022913E-01;  4.1835382E+02;3;  3.4563668E+00;  0.0000000E+00; -4.3172989E-02;0;  1.0195154E-02;  9.9999316E+03;  0.0000000E+00; -6.6400433E-05;  1.0000000E+04;  0.0000000E+00;  9.9999619E+03;  6.2730429E-03;  0.0000000E+00;  3.9221109E-03;  3.2787924E+00;
  1.2200022E+00;  9.9999998E-03; -1.8000129E-01;2896;  5.5763996E-03;  0.0000000E+00; -3.1455813E-03;  1.0005166E+03;  4.0021616E-01;  3.6901108E+02;3;  8.9454718E+00;  0.0000000E+00; -4.9017944E+00;0;  4.6198256E-02;  9.9998291E+03;  0.0000000E+00; -1.5815115E-02;  1.0000000E+04;  0.0000000E+00;  9.9996943E+03;  1.6271330E-02;  0.0000000E+00;  2.9926926E-02;  3.1739403E+01;
  1.2200019E+00;  9.9999998E-03; -1.6000091E-01;2897;  4.8114266E-03;  0.0000000E+00; -2.2515007E-03;  1.0005208E+03;  4.0021622E-01;  3.7190619E+02;3;  7.6174874E+00;  0.0000000E+00; -3.5106571E+00;0;  3.8198769E-02;  9.9998486E+03;  0.0000000E+00; -1.8020604E-02;  1.0000000E+04;  0.0000000E+00;  9.9997578E+03;  1.4298577E-02;  0.0000000E+00;  2.3900192E-02;  2.8090654E+01;
  1.2200016E+00;  9.9999998E-03; -1.4000061E-01;2898;  4.0142760E-03;  0.0000000E+00; -1.5401050E-03;  1.0005240E+03;  4.0021622E-01;  3.7429037E+02;3;  6.2928643E+00;  0.0000000E+00; -2.4109974E+00;0;  3.1738274E-02;  9.9998643E+03;  0.0000000E+00; -1.5552300E-02;  1.0000000E+04;  0.0000000E+00;  9.9998086E+03;  1.2749846E-02;  0.0000000E+00;  1.8988427E-02;  2.2847618E+01;
  1.2200013E+00;  9.9999998E-03; -1.2000040E-01;2899;  3.3046470E-03;  0.0000000E+00; -1.0216241E-03;  1.0005264E+03;  4.0021622E-01;  3.7599344E+02;3;  5.1539278E+00;  0.0000000E+00; -1.6058909E+00;0;  2.7095784E-02;  9.9998711E+03;  0.0000000E+00; -1.1729158E-02;  1.0000000E+04;  0.0000000E+00;  9.9998486E+03;  1.2046445E-02;  0.0000000E+00;  1.5049339E-02;  1.7365742E+01;
  1.2200011E+00;  9.9999998E-03; -1.0000025E-01;2900;  2.7725995E-03;  0.0000000E+00; -6.4646965E-04;  1.0005281E+03;  4.0021619E-01;  3.7718558E+02;3;  4.3416805E+00;  0.0000000E+00; -1.0112654E+00;0;  2.3876283E-02;  9.9998711E+03;  0.0000000E+00; -7.8257388E-03;  1.0000000E+04;  0.0000000E+00;  9.9998809E+03;  1.1997947E-02;  0.0000000E+00;  1.1878335E-02;  1.2359761E+01;
  1.2200010E+00;  9.9999998E-03; -8.0000155E-02;2901;  2.4295037E-03;  0.0000000E+00; -3.8139991E-04;  1.0005292E+03;  4.0021619E-01;  3.7803711E+02;3;  3.8532033E+00;  0.0000000E+00; -5.8768803E-01;0;  2.1533284E-02;  9.9998701E+03;  0.0000000E+00; -4.5197424E-03;  1.0000000E+04;  0.0000000E+00;  9.9999063E+03;  1.2164508E-02;  0.0000000E+00;  9.3687754E-03;  8.3137817E+00;
  1.2200009E+00;  9.9999998E-03; -6.0000084E-02;2902;  2.2266395E-03;  0.0000000E+00; -2.0676083E-04;  1.0005302E+03;  4.0021622E-01;  3.7871832E+02;3;  3.5752993E+00;  0.0000000E+00; -3.1598839E-01;0;  1.9707359E-02;  9.9998691E+03;  0.0000000E+00; -2.1737278E-03;  1.0000000E+04;  0.0000000E+00;  9.9999248E+03;  1.2252354E-02;  0.0000000E+00;  7.4550044E-03;  5.4728713E+00;
  1.2200009E+00;  9.9999998E-03; -4.0000040E-02;2903;  2.1146825E-03;  0.0000000E+00; -1.0183568E-04;  1.0005309E+03;  4.0021622E-01;  3.7914407E+02;3;  3.4269676E+00;  0.0000000E+00; -1.5640919E-01;0;  1.8296698E-02;  9.9998701E+03;  0.0000000E+00; -8.0408005E-04;  1.0000000E+04;  0.0000000E+00;  9.9999404E+03;  1.2217114E-02;  0.0000000E+00;  6.0795848E-03;  3.7340209E+00;
  1.2200007E+00;  9.9999998E-03; -2.0000016E-02;2904;  2.0603777E-03;  0.0000000E+00; -4.0965995E-05;  1.0005314E+03;  4.0021616E-01;  3.7948468E+02;3;  3.3553715E+00;  0.0000000E+00; -6.4477362E-02;0;  1.7372172E-02;  9.9998701E+03;  0.0000000E+00; -1.7149700E-04;  1.0000000E+04;  0.0000000E+00;  9.9999482E+03;  1.2140160E-02;  0.0000000E+00;  5.2320110E-03;  2.8188956E+00;
  1.2400024E+00;  9.9999998E-03; -1.8000145E-01;2917;  5.9958291E-03;  0.0000000E+00; -3.5429248E-03;  1.0004904E+03;  4.0020674E-01;  3.3738458E+02;3;  9.7281208E+00;  0.0000000E+00; -5.5896950E+00;0;  5.1458254E-02;  9.9997783E+03;  0.0000000E+00; -1.1462907E-04;  1.0000000E+04;  0.0000000E+00;  9.9996904E+03;  2.1135362E-02;  0.0000000E+00;  3.0322893E-02;  2.1872963E+01;
  1.2400023E+00;  9.9999998E-03; -1.6000111E-01;2918;  5.5401330E-03;  0.0000000E+00; -2.7384069E-03;  1.0004935E+03;  4.0020680E-01;  3.3951694E+02;3;  8.8559790E+00;  0.0000000E+00; -4.2972813E+00;0;  4.5500755E-02;  9.9997803E+03;  0.0000000E+00; -1.2785411E-02;  1.0000000E+04;  0.0000000E+00;  9.9997520E+03;  2.0990659E-02;  0.0000000E+00;  2.4510099E-02;  1.9647375E+01;
  1.2400020E+00;  9.9999998E-03; -1.4000082E-01;2919;  4.9594040E-03;  0.0000000E+00; -2.0244343E-03;  1.0004966E+03;  4.0020680E-01;  3.4164932E+02;3;  7.8326144E+00;  0.0000000E+00; -3.1661463E+00;0;  3.9480142E-02;  9.9997930E+03;  0.0000000E+00; -1.5596445E-02;  1.0000000E+04;  0.0000000E+00;  9.9998008E+03;  1.9817367E-02;  0.0000000E+00;  1.9662773E-02;  1.7858973E+01;
  1.2400017E+00;  9.9999998E-03; -1.2000058E-01;2920;  4.3047001E-03;  0.0000000E+00; -1.4499468E-03;  1.0004994E+03;  4.0020683E-01;  3.4353571E+02;3;  6.7353063E+00;  0.0000000E+00; -2.2649603E+00;0;  3.4120440E-02;  9.9998076E+03;  0.0000000E+00; -1.3454407E-02;  1.0000000E+04;  0.0000000E+00;  9.9998408E+03;  1.8261148E-02;  0.0000000E+00;  1.5859295E-02;  1.4544571E+01;
  1.2400014E+00;  9.9999998E-03; -1.0000040E-01;2921;  3.6799358E-03;  0.0000000E+00; -1.0028592E-03;  1.0005013E+03;  4.0020680E-01;  3.4493005E+02;3;  5.7181740E+00;  0.0000000E+00; -1.5682020E+00;0;  3.0066034E-02;  9.9998184E+03;  0.0000000E+00; -9.6442290E-03;  1.0000000E+04;  0.0000000E+00;  9.9998711E+03;  1.7183846E-02;  0.0000000E+00;  1.2882188E-02;  1.0703826E+01;
  1.2400013E+00;  9.9999998E-03; -8.0000259E-02;2922;  3.1690253E-03;  0.0000000E+00; -6.5965240E-04;  1.0005027E+03;  4.0020680E-01;  3.4583231E+02;3;  4.9015670E+00;  0.0000000E+00; -1.0342802E+00;0;  2.7338397E-02;  9.9998223E+03;  0.0000000E+00; -5.9188944E-03;  1.0000000E+04;  0.0000000E+00;  9.9998936E+03;  1.6779047E-02;  0.0000000E+00;  1.0559349E-02;  7.2575278E+00;
  1.2400011E+00;  9.9999998E-03; -6.0000159E-02;2923;  2.8050330E-03;  0.0000000E+00; -4.0093434E-04;  1.0005037E+03;  4.0020680E-01;  3.4648846E+02;3;  4.3303785E+00;  0.0000000E+00; -6.3071746E-01;0;  2.5562705E-02;  9.9998223E+03;  0.0000000E+00; -3.0385111E-03;  1.0000000E+04;  0.0000000E+00;  9.9999121E+03;  1.6782720E-02;  0.0000000E+00;  8.7799858E-03;  4.6661177E+00;
  1.2400011E+00;  9.9999998E-03; -4.0000085E-02;2924;  2.5784275E-03;  0.0000000E+00; -2.1779224E-04;  1.0005043E+03;  4.0020683E-01;  3.4689859E+02;3;  3.9823656E+00;  0.0000000E+00; -3.4376866E-01;0;  2.4393231E-02;  9.9998193E+03;  0.0000000E+00; -1.2042904E-03;  1.0000000E+04;  0.0000000E+00;  9.9999248E+03;  1.6911225E-02;  0.0000000E+00;  7.4820044E-03;  3.0212383E+00;
  1.2400010E+00;  9.9999998E-03; -2.0000037E-02;2925;  2.4597454E-03;  0.0000000E+00; -9.3668270E-05;  1.0005046E+03;  4.0020680E-01;  3.4714465E+02;3;  3.8034661E+00;  0.0000000E+00; -1.4886603E-01;0;  2.3683721E-02;  9.9998193E+03;  0.0000000E+00; -2.7222559E-04;  1.0000000E+04;  0.0000000E+00;  9.9999346E+03;  1.7015204E-02;  0.0000000E+00;  6.6685178E-03;  2.1736279E+00;
  1.2600024E+00;  9.9999998E-03; -1.6000129E-01;2936;  5.7930849E-03;  0.0000000E+00; -3.1525269E-03;  1.0004754E+03;  4.0020025E-01;  3.1331882E+02;3;  9.3915596E+00;  0.0000000E+00; -5.0187445E+00;0;  4.8548214E-02;  9.9997646E+03;  0.0000000E+00;  6.0479711E-03;  1.0000000E+04;  0.0000000E+00;  9.9997354E+03;  2.2533344E-02;  0.0000000E+00;  2.6014870E-02;  1.4553071E+01;
  1.2600023E+00;  9.9999998E-03; -1.4000101E-01;2937;  5.5610174E-03;  0.0000000E+00; -2.4904781E-03;  1.0004769E+03;  4.0020022E-01;  3.1434024E+02;3;  8.8930864E+00;  0.0000000E+00; -3.9380641E+00;0;  4.5757659E-02;  9.9997432E+03;  0.0000000E+00; -6.6242390E-03;  1.0000000E+04;  0.0000000E+00;  9.9997861E+03;  2.4672300E-02;  0.0000000E+00;  2.1085359E-02;  1.0866611E+01;
  1.2600021E+00;  9.9999998E-03; -1.2000077E-01;2938;  5.2011986E-03;  0.0000000E+00; -1.9117297E-03;  1.0004787E+03;  4.0020022E-01;  3.1551883E+02;3;  8.2234898E+00;  0.0000000E+00; -3.0048277E+00;0;  4.2413734E-02;  9.9997383E+03;  0.0000000E+00; -1.0685676E-02;  1.0000000E+04;  0.0000000E+00;  9.9998262E+03;  2.5166752E-02;  0.0000000E+00;  1.7246982E-02;  9.8412485E+00;
  1.2600019E+00;  9.9999998E-03; -1.0000057E-01;2939;  4.7653234E-03;  0.0000000E+00; -1.3993960E-03;  1.0004805E+03;  4.0020022E-01;  3.1669745E+02;3;  7.4675851E+00;  0.0000000E+00; -2.1910191E+00;0;  3.8815174E-02;  9.9997441E+03;  0.0000000E+00; -9.4094379E-03;  1.0000000E+04;  0.0000000E+00;  9.9998574E+03;  2.4619922E-02;  0.0000000E+00;  1.4195253E-02;  7.8139720E+00;
  1.2600018E+00;  9.9999998E-03; -8.0000386E-02;2940;  4.3335357E-03;  0.0000000E+00; -9.6044305E-04;  1.0004821E+03;  4.0020022E-01;  3.1771890E+02;3;  6.7451043E+00;  0.0000000E+00; -1.5011640E+00;0;  3.5708793E-02;  9.9997510E+03;  0.0000000E+00; -6.2409556E-03;  1.0000000E+04;  0.0000000E+00;  9.9998818E+03;  2.3865890E-02;  0.0000000E+00;  1.1842903E-02;  5.2912192E+00;
  1.2600017E+00;  9.9999998E-03; -6.0000241E-02;2941;  3.9835521E-03;  0.0000000E+00; -6.0134026E-04;  1.0004832E+03;  4.0020022E-01;  3.1842609E+02;3;  6.1713977E+00;  0.0000000E+00; -9.4062543E-01;0;  3.3541150E-02;  9.9997549E+03;  0.0000000E+00; -3.2899284E-03;  1.0000000E+04;  0.0000000E+00;  9.9998994E+03;  2.3443123E-02;  0.0000000E+00;  1.0098028E-02;  3.1455247E+00;
  1.2600015E+00;  9.9999998E-03; -4.0000133E-02;2942;  3.7467713E-03;  0.0000000E+00; -3.3463509E-04;  1.0004839E+03;  4.0020025E-01;  3.1889758E+02;3;  5.7879119E+00;  0.0000000E+00; -5.2481049E-01;0;  3.2220025E-02;  9.9997549E+03;  0.0000000E+00; -1.3228438E-03;  1.0000000E+04;  0.0000000E+00;  9.9999121E+03;  2.3358103E-02;  0.0000000E+00;  8.8619227E-03;  1.7139679E+00;
  1.2600014E+00;  9.9999998E-03; -2.0000057E-02;2943;  3.6147938E-03;  0.0000000E+00; -1.4614753E-04;  1.0004842E+03;  4.0020019E-01;  3.1913330E+02;3;  5.5748496E+00;  0.0000000E+00; -2.2979702E-01;0;  3.1497121E-02;  9.9997549E+03;  0.0000000E+00; -3.0293802E-04;  1.0000000E+04;  0.0000000E+00;  9.9999189E+03;  2.3401527E-02;  0.0000000E+00;  8.0955932E-03;  9.6352792E-01;
  1.2800022E+00;  9.9999998E-03; -1.2000097E-01;2953;  5.4974100E-03;  0.0000000E+00; -2.3716581E-03;  1.0004662E+03;  4.0019569E-01;  2.9308142E+02;3;  8.8351326E+00;  0.0000000E+00; -3.7848911E+00;0;  4.4725984E-02;  9.9997393E+03;  0.0000000E+00;  2.7510196E-03;  1.0000000E+04;  0.0000000E+00;  9.9998008E+03;  2.4949906E-02;  0.0000000E+00;  1.9776080E-02;  6.7878857E+00;
  1.2800022E+00;  9.9999998E-03; -1.0000075E-01;2954;  5.3977249E-03;  0.0000000E+00; -1.8274389E-03;  1.0004664E+03;  4.0019572E-01;  2.9315637E+02;3;  8.5813923E+00;  0.0000000E+00; -2.8979132E+00;0;  4.4372752E-02;  9.9997080E+03;  0.0000000E+00; -2.7600133E-03;  1.0000000E+04;  0.0000000E+00;  9.9998359E+03;  2.8102549E-02;  0.0000000E+00;  1.6270204E-02;  4.1397390E+00;
  1.2800021E+00;  9.9999998E-03; -8.0000527E-02;2955;  5.2357959E-03;  0.0000000E+00; -1.3048775E-03;  1.0004669E+03;  4.0019566E-01;  2.9353113E+02;3;  8.2542248E+00;  0.0000000E+00; -2.0602746E+00;0;  4.3364778E-02;  9.9996914E+03;  0.0000000E+00; -3.4807096E-03;  1.0000000E+04;  0.0000000E+00;  9.9998643E+03;  2.9880920E-02;  0.0000000E+00;  1.3483860E-02;  2.5544033E+00;
  1.2800021E+00;  9.9999998E-03; -6.0000334E-02;2956;  5.0801234E-03;  0.0000000E+00; -8.3008868E-04;  1.0004673E+03;  4.0019566E-01;  2.9375595E+02;3;  7.9589663E+00;  0.0000000E+00; -1.3079187E+00;0;  4.2507432E-02;  9.9996787E+03;  0.0000000E+00; -2.1896497E-03;  1.0000000E+04;  0.0000000E+00;  9.9998848E+03;  3.1040115E-02;  0.0000000E+00;  1.1467319E-02;  1.1755128E+00;
  1.2800020E+00;  9.9999998E-03; -4.0000185E-02;2957;  4.9658213E-03;  0.0000000E+00; -4.6447583E-04;  1.0004675E+03;  4.0019569E-01;  2.9390588E+02;3;  7.7489362E+00;  0.0000000E+00; -7.3182738E-01;0;  4.2055756E-02;  9.9996709E+03;  0.0000000E+00; -9.2181406E-04;  1.0000000E+04;  0.0000000E+00;  9.9998984E+03;  3.1889498E-02;  0.0000000E+00;  1.0166258E-02;  6.6790032E-01;
  1.2800020E+00;  9.9999998E-03; -2.0000082E-02;2958;  4.8986827E-03;  0.0000000E+00; -2.0315708E-04;  1.0004677E+03;  4.0019569E-01;  2.9398083E+02;3;  7.6268525E+00;  0.0000000E+00; -3.2031825E-01;0;  4.1845646E-02;  9.9996650E+03;  0.0000000E+00; -2.1277207E-04;  1.0000000E+04;  0.0000000E+00;  9.9999063E+03;  3.2431263E-02;  0.0000000E+00;  9.4143823E-03;  1.0475816E+00;
  1.3000022E+00;  9.9999998E-03; -8.0000684E-02;2966;  5.3422730E-03;  0.0000000E+00; -1.6738432E-03;  1.0004605E+03;  4.0019250E-01;  2.7535840E+02;3;  8.5890045E+00;  0.0000000E+00; -2.6892164E+00;0;  4.0435717E-02;  9.9997441E+03;  0.0000000E+00;  5.5190539E-03;  1.0000000E+04;  0.0000000E+00;  9.9998379E+03;  2.4499221E-02;  0.0000000E+00;  1.5936494E-02;  3.5810971E+00;
  1.3000022E+00;  9.9999998E-03; -6.0000438E-02;2967;  5.3950269E-03;  0.0000000E+00; -1.0735261E-03;  1.0004601E+03;  4.0019253E-01;  2.7514456E+02;3;  8.6132889E+00;  0.0000000E+00; -1.7200613E+00;0;  4.1232042E-02;  9.9997080E+03;  0.0000000E+00;  1.6493712E-03;  1.0000000E+04;  0.0000000E+00;  9.9998682E+03;  2.8205695E-02;  0.0000000E+00;  1.3026346E-02;  9.1144854E-01;
  1.3000022E+00;  9.9999998E-03; -4.0000245E-02;2968;  5.4268874E-03;  0.0000000E+00; -6.0114334E-04;  1.0004595E+03;  4.0019253E-01;  2.7478815E+02;3;  8.6238985E+00;  0.0000000E+00; -9.6205842E-01;0;  4.2310987E-02;  9.9996797E+03;  0.0000000E+00;  3.6547595E-04;  1.0000000E+04;  0.0000000E+00;  9.9998857E+03;  3.0924367E-02;  0.0000000E+00;  1.1386621E-02;  7.3874301E-01;
  1.3000022E+00;  9.9999998E-03; -2.0000106E-02;2969;  5.4421099E-03;  0.0000000E+00; -2.6225802E-04;  1.0004592E+03;  4.0019250E-01;  2.7457431E+02;3;  8.6249838E+00;  0.0000000E+00; -4.1961068E-01;0;  4.3114729E-02;  9.9996631E+03;  0.0000000E+00;  5.0016486E-05;  1.0000000E+04;  0.0000000E+00;  9.9998936E+03;  3.2546725E-02;  0.0000000E+00;  1.0568004E-02;  1.4684240E+00;
 -5.4633598E-12;  9.9999998E-03;  4.5478711E-19;1045; -3.9052257E-08;  0.0000000E+00;  3.4889509E-15;  1.0000000E+03;  4.0000001E-01;  0.0000000E+00;3; -1.4342171E-04;  0.0000000E+00;  1.3258460E-11;0; -7.3326237E-07;  1.0000000E+04;  0.0000000E+00;  5.4825584E-21;  1.0000000E+04;  0.0000000E+00;  1.0000000E+04; -7.3673368E-07;  0.0000000E+00;  3.4713379E-09;  3.4585041E-06;
 -5.4566581E-12;  9.9999998E-03;  2.0000000E-02;1046; -3.9002526E-08;  0.0000000E+00;  1.5575952E-10;  1.0000000E+03;  4.0000001E-01;  0.0000000E+00;3; -1.4323565E-04;  0.0000000E+00;  5.8407403E-07;0; -7.3224788E-07;  1.0000000E+04;  0.0000000E+00; -4.8779992E-16;  1.0000000E+04;  0.0000000E+00;  1.0000000E+04; -7.3589194E-07;  0.0000000E+00;  3.6440451E-09;  3.5158314E-06;
 -5.4360088E-12;  9.9999998E-03;  3.9999999E-02;1047; -3.8849457E-08;  0.0000000E+00;  3.2471392E-10;  1.0000000E+03;  4.0000001E-01;  0.0000000E+00;3; -1.4266330E-04;  0.0000000E+00;  1.2170008E-06;0; -7.2912934E-07;  1.0000000E+04;  0.0000000E+00; -6.7039746E-16;  1.0000000E+04;  0.0000000E+00;  1.0000000E+04; -7.3328977E-07;  0.0000000E+00;  4.1604307E-09;  3.6899762E-06;
 -5.3997375E-12;  9.9999998E-03;  5.9999999E-02;1048; -3.8581131E-08;  0.0000000E+00;  5.1975535E-10;  1.0000000E+03;  4.0000001E-01;  0.0000000E+00;3; -1.4166093E-04;  0.0000000E+00;  1.9463791E-06;0; -7.2367942E-07;  1.0000000E+04;  0.0000000E+00; -7.2136403E-17;  1.0000000E+04;  0.0000000E+00;  1.0000000E+04; -7.2869290E-07;  0.0000000E+00;  5.0134488E-09;  3.9862871E-06;
 -5.3450399E-12;  9.9999998E-03;  7.9999998E-02;1049; -3.8177696E-08;  0.0000000E+00;  7.5333523E-10;  1.0000000E+03;  4.0000001E-01;  0.0000000E+00;3; -1.4015603E-04;  0.0000000E+00;  2.8179434E-06;0; -7.1552199E-07;  1.0000000E+04;  0.0000000E+00;  1.1462649E-16;  1.0000000E+04;  0.0000000E+00;  1.0000000E+04; -7.2170724E-07;  0.0000000E+00;  6.1852554E-09;  4.4098665E-06;
 -5.2679384E-12;  9.9999998E-03;  1.0000000E-01;1050; -3.7611123E-08;  0.0000000E+00;  1.0371775E-09;  1.0000000E+03;  4.0000001E-01;  0.0000000E+00;3; -1.3804639E-04;  0.0000000E+00;  3.8744488E-06;0; -7.0413216E-07;  1.0000000E+04;  0.0000000E+00; -3.6444554E-15;  1.0000000E+04;  0.0000000E+00;  1.0000000E+04; -7.1177061E-07;  0.0000000E+00;  7.6384294E-09;  4.9599630E-06;
 -5.1633060E-12;  9.9999998E-03;  1.2000000E-01;1051; -3.6845567E-08;  0.0000000E+00;  1.3796770E-09;  1.0000000E+03;  4.0000001E-01;  0.0000000E+00;3; -1.3520190E-04;  0.0000000E+00;  5.1459042E-06;0; -6.8884867E-07;  1.0000000E+04;  0.0000000E+00; -3.2090171E-15;  1.0000000E+04;  0.0000000E+00;  1.0000000E+04; -6.9815394E-07;  0.0000000E+00;  9.3052961E-09;  5.6226727E-06;
 -5.0247462E-12;  9.9999998E-03;  1.4000000E-01;1052; -3.5836543E-08;  0.0000000E+00;  1.7901644E-09;  1.0000000E+03;  4.0000001E-01;  0.0000000E+00;3; -1.3146151E-04;  0.0000000E+00;  6.6657863E-06;0; -6.6888464E-07;  1.0000000E+04;  0.0000000E+00;  2.6707692E-15;  1.0000000E+04;  0.0000000E+00;  1.0000000E+04; -6.7995967E-07;  0.0000000E+00;  1.1075007E-08;  6.3624257E-06;
  2.0000000E-02;  9.9999998E-03;  3.4255555E-19;1075; -7.2608096E-08;  0.0000000E+00;  2.4525687E-15;  1.0000000E+03;  4.0000001E-01;  0.0000000E+00;3; -2.6424936E-04;  0.0000000E+00;  9.0080617E-12;0; -1.3489386E-06;  1.0000000E+04;  0.0000000E+00; -2.6088148E-21;  1.0000000E+04;  0.0000000E+00;  1.0000000E+04; -1.3560406E-06;  0.0000000E+00;  7.1020656E-09;  7.4970130E-06;
  2.0000000E-02;  9.9999998E-03;  2.0000000E-02;1076; -7.2517167E-08;  0.0000000E+00;  3.0094727E-10;  1.0000000E+03;  4.0000001E-01;  0.0000000E+00;3; -2.6391036E-04;  0.0000000E+00;  1.1259602E-06;0; -1.3470718E-06;  1.0000000E+04;  0.0000000E+00; -1.4508904E-15;  1.0000000E+04;  0.0000000E+00;  1.0000000E+04; -1.3545100E-06;  0.0000000E+00;  7.4382314E-09;  7.6264355E-06;
  2.0000000E-02;  9.9999998E-03;  3.9999999E-02;1077; -7.2237420E-08;  0.0000000E+00;  6.2576011E-10;  1.0000000E+03;  4.0000001E-01;  0.0000000E+00;3; -2.6286821E-04;  0.0000000E+00;  2.3395787E-06;0; -1.3413414E-06;  1.0000000E+04;  0.0000000E+00; -5.3754267E-16;  1.0000000E+04;  0.0000000E+00;  1.0000000E+04; -1.3497851E-06;  0.0000000E+00;  8.4436325E-09;  8.0190130E-06;
  2.0000000E-02;  9.9999998E-03;  5.9999999E-02;1078; -7.1748268E-08;  0.0000000E+00;  9.9800035E-10;  1.0000000E+03;  4.0000001E-01;  0.0000000E+00;3; -2.6104841E-04;  0.0000000E+00;  3.7270997E-06;0; -1.3313506E-06;  1.0000000E+04;  0.0000000E+00;  3.5029654E-16;  1.0000000E+04;  0.0000000E+00;  1.0000000E+04; -1.3414564E-06;  0.0000000E+00;  1.0105727E-08;  8.6853242E-06;
  2.0000000E-02;  9.9999998E-03;  7.9999998E-02;1079; -7.1014519E-08;  0.0000000E+00;  1.4401054E-09;  1.0000000E+03;  4.0000001E-01;  0.0000000E+00;3; -2.5832403E-04;  0.0000000E+00;  5.3700555E-06;0; -1.3164412E-06;  1.0000000E+04;  0.0000000E+00; -2.5666668E-16;  1.0000000E+04;  0.0000000E+00;  1.0000000E+04; -1.3288333E-06;  0.0000000E+00;  1.2392147E-08;  9.6350605E-06;
  2.0000000E-02;  9.9999998E-03;  1.0000000E-01;1080; -6.9986029E-08;  0.0000000E+00;  1.9745161E-09;  1.0000000E+03;  4.0000001E-01;  0.0000000E+00;3; -2.5451466E-04;  0.0000000E+00;  7.3494475E-06;0; -1.2956884E-06;  1.0000000E+04;  0.0000000E+00; -4.3469172E-15;  1.0000000E+04;  0.0000000E+00;  1.0000000E+04; -1.3109217E-06;  0.0000000E+00;  1.5233287E-08;  1.0865258E-05;
  2.0000000E-02;  9.9999998E-03;  1.2000000E-01;1081; -6.8598609E-08;  0.0000000E+00;  2.6153466E-09;  1.0000000E+03;  4.0000001E-01;  0.0000000E+00;3; -2.4939055E-04;  0.0000000E+00;  9.7144539E-06;0; -1.2679167E-06;  1.0000000E+04;  0.0000000E+00; -6.1492856E-15;  1.0000000E+04;  0.0000000E+00;  1.0000000E+04; -1.2864172E-06;  0.0000000E+00;  1.8500520E-08;  1.2344899E-05;
  2.0000000E-02;  9.9999998E-03;  1.4000000E-01;1082; -6.6770276E-08;  0.0000000E+00;  3.3825962E-09;  1.0000000E+03;  4.0000001E-01;  0.0000000E+00;3; -2.4265889E-04;  0.0000000E+00;  1.2536296E-05;0; -1.2317198E-06;  1.0000000E+04;  0.0000000E+00; -4.2906767E-15;  1.0000000E+04;  0.0000000E+00;  1.0000000E+04; -1.2537012E-06;  0.0000000E+00;  2.1981364E-08;  1.3996880E-05;
  3.9999999E-02;  9.9999998E-03; -7.6220418E-19;1106; -1.3137245E-07;  0.0000000E+00; -5.4985029E-15;  1.0000000E+03;  4.0000001E-01;  0.0000000E+00;3; -4.7254845E-04;  0.0000000E+00; -2.0272867E-11;0; -2.4247142E-06;  1.0000000E+04;  0.0000000E+00;  4.0056741E-20;  1.0000000E+04;  0.0000000E+00;  1.0000000E+04; -2.4386504E-06;  0.0000000E+00;  1.3936137E-08;  1.5778973E-05;
  3.9999999E-02;  9.9999998E-03;  2.0000000E-02;1107; -1.3121205E-07;  0.0000000E+00;  5.5792865E-10;  1.0000000E+03;  4.0000001E-01;  0.0000000E+00;3; -4.7195359E-04;  0.0000000E+00;  2.0805735E-06;0; -2.4213941E-06;  1.0000000E+04;  0.0000000E+00; -2.6874590E-16;  1.0000000E+04;  0.0000000E+00;  1.0000000E+04; -2.4359581E-06;  0.0000000E+00;  1.4564050E-08;  1.6059657E-05;
  3.9999999E-02;  9.9999998E-03;  3.9999999E-02;1108; -1.3071909E-07;  0.0000000E+00;  1.1575757E-09;  1.0000000E+03;  4.0000001E-01;  0.0000000E+00;3; -4.7012721E-04;  0.0000000E+00;  4.3126274E-06;0; -2.4112069E-06;  1.0000000E+04;  0.0000000E+00;  8.6632095E-16;  1.0000000E+04;  0.0000000E+00;  1.0000000E+04; -2.4276508E-06;  0.0000000E+00;  1.6443854E-08;  1.6909979E-05;
  3.9999999E-02;  9.9999998E-03;  5.9999999E-02;1109; -1.2985804E-07;  0.0000000E+00;  1.8407552E-09;  1.0000000E+03;  4.0000001E-01;  0.0000000E+00;3; -4.6694296E-04;  0.0000000E+00;  6.8474124E-06;0; -2.3934774E-06;  1.0000000E+04;  0.0000000E+00; -2.5602145E-16;  1.0000000E+04;  0.0000000E+00;  1.0000000E+04; -2.4130350E-06;  0.0000000E+00;  1.9557557E-08;  1.8350034E-05;
  3.9999999E-02;  9.9999998E-03;  7.9999998E-02;1110; -1.2856833E-07;  0.0000000E+00;  2.6466822E-09;  1.0000000E+03;  4.0000001E-01;  0.0000000E+00;3; -4.6218629E-04;  0.0000000E+00;  9.8253240E-06;0; -2.3670657E-06;  1.0000000E+04;  0.0000000E+00;  1.2972371E-15;  1.0000000E+04;  0.0000000E+00;  1.0000000E+04; -2.3909181E-06;  0.0000000E+00;  2.3852415E-08;  2.0397560E-05;
  3.9999999E-02;  9.9999998E-03;  1.0000000E-01;1111; -1.2676225E-07;  0.0000000E+00;  3.6165524E-09;  1.0000000E+03;  4.0000001E-01;  0.0000000E+00;3; -4.5554701E-04;  0.0000000E+00;  1.3393059E-05;0; -2.3303699E-06;  1.0000000E+04;  0.0000000E+00;  3.0209138E-15;  1.0000000E+04;  0.0000000E+00;  1.0000000E+04; -2.3595758E-06;  0.0000000E+00;  2.9205854E-08;  2.3044320E-05;
  3.9999999E-02;  9.9999998E-03;  1.2000000E-01;1112; -1.2432626E-07;  0.0000000E+00;  4.7759920E-09;  1.0000000E+03;  4.0000001E-01;  0.0000000E+00;3; -4.4662590E-04;  0.0000000E+00;  1.7637723E-05;0; -2.2813449E-06;  1.0000000E+04;  0.0000000E+00; -4.7675279E-15;  1.0000000E+04;  0.0000000E+00;  1.0000000E+04; -2.3167277E-06;  0.0000000E+00;  3.5382666E-08;  2.6225125E-05;
  3.9999999E-02;  9.9999998E-03;  1.4000000E-01;1113; -1.2111522E-07;  0.0000000E+00;  6.1593579E-09;  1.0000000E+03;  4.0000001E-01;  0.0000000E+00;3; -4.3491364E-04;  0.0000000E+00;  2.2679103E-05;0; -2.2175334E-06;  1.0000000E+04;  0.0000000E+00; -1.6654142E-14;  1.0000000E+04;  0.0000000E+00;  1.0000000E+04; -2.2595225E-06;  0.0000000E+00;  4.1989178E-08;  2.9780824E-05;
  5.9999999E-02;  9.9999998E-03;  6.5076310E-19;1137; -2.3198376E-07;  0.0000000E+00;  6.3280519E-15;  1.0000000E+03;  4.0000001E-01;  0.0000000E+00;3; -8.2230545E-04;  0.0000000E+00;  2.6501551E-11;0; -4.2717138E-06;  1.0000000E+04;  0.0000000E+00; -1.5207625E-21;  1.0000000E+04;  0.0000000E+00;  1.0000000E+04; -4.2981387E-06;  0.0000000E+00;  2.6424795E-08;  3.2287178E-05;
  5.9999999E-02;  9.9999998E-03;  2.0000000E-02;1138; -2.3171052E-07;  0.0000000E+00;  1.0015447E-09;  1.0000000E+03;  4.0000001E-01;  0.0000000E+00;3; -8.2129985E-04;  0.0000000E+00;  3.7173472E-06;0; -4.2659735E-06;  1.0000000E+04;  0.0000000E+00; -1.6705389E-17;  1.0000000E+04;  0.0000000E+00;  1.0000000E+04; -4.2935358E-06;  0.0000000E+00;  2.7562423E-08;  3.2874501E-05;
  5.9999999E-02;  9.9999998E-03;  3.9999999E-02;1139; -2.3087080E-07;  0.0000000E+00;  2.0747213E-09;  1.0000000E+03;  4.0000001E-01;  0.0000000E+00;3; -8.1821362E-04;  0.0000000E+00;  7.6907845E-06;0; -4.2483789E-06;  1.0000000E+04;  0.0000000E+00;  1.9768436E-16;  1.0000000E+04;  0.0000000E+00;  1.0000000E+04; -4.2793527E-06;  0.0000000E+00;  3.0973801E-08;  3.4651839E-05;
  5.9999999E-02;  9.9999998E-03;  5.9999999E-02;1140; -2.2940429E-07;  0.0000000E+00;  3.2926817E-09;  1.0000000E+03;  4.0000001E-01;  0.0000000E+00;3; -8.1283710E-04;  0.0000000E+00;  1.2180891E-05;0; -4.2177717E-06;  1.0000000E+04;  0.0000000E+00; -1.0065542E-15;  1.0000000E+04;  0.0000000E+00;  1.0000000E+04; -4.2544129E-06;  0.0000000E+00;  3.6641143E-08;  3.7656457E-05;
  5.9999999E-02;  9.9999998E-03;  7.9999998E-02;1141; -2.2720813E-07;  0.0000000E+00;  4.7228017E-09;  1.0000000E+03;  4.0000001E-01;  0.0000000E+00;3; -8.0481381E-04;  0.0000000E+00;  1.7424289E-05;0; -4.1722192E-06;  1.0000000E+04;  0.0000000E+00; -5.3482458E-17;  1.0000000E+04;  0.0000000E+00;  1.0000000E+04; -4.2167057E-06;  0.0000000E+00;  4.4486768E-08;  4.1920492E-05;
  5.9999999E-02;  9.9999998E-03;  1.0000000E-01;1142; -2.2413207E-07;  0.0000000E+00;  6.4381740E-09;  1.0000000E+03;  4.0000001E-01;  0.0000000E+00;3; -7.9362403E-04;  0.0000000E+00;  2.3676772E-05;0; -4.1089979E-06;  1.0000000E+04;  0.0000000E+00;  9.8902224E-16;  1.0000000E+04;  0.0000000E+00;  1.0000000E+04; -4.1633011E-06;  0.0000000E+00;  5.4303126E-08;  4.7425514E-05;
  5.9999999E-02;  9.9999998E-03;  1.2000000E-01;1143; -2.1997909E-07;  0.0000000E+00;  8.4892715E-09;  1.0000000E+03;  4.0000001E-01;  0.0000000E+00;3; -7.7858957E-04;  0.0000000E+00;  3.1107233E-05;0; -4.0246173E-06;  1.0000000E+04;  0.0000000E+00;  3.3533577E-15;  1.0000000E+04;  0.0000000E+00;  1.0000000E+04; -4.0902887E-06;  0.0000000E+00;  6.5671450E-08;  5.4042204E-05;
  5.9999999E-02;  9.9999998E-03;  1.4000000E-01;1144; -2.1449938E-07;  0.0000000E+00;  1.0928084E-08;  1.0000000E+03;  4.0000001E-01;  0.0000000E+00;3; -7.5885310E-04;  0.0000000E+00;  3.9889961E-05;0; -3.9148672E-06;  1.0000000E+04;  0.0000000E+00; -1.4323071E-14;  1.0000000E+04;  0.0000000E+00;  1.0000000E+04; -3.9927477E-06;  0.0000000E+00;  7.7880671E-08;  6.1456398E-05;
  7.9999998E-02;  9.9999998E-03;  4.8384205E-18;1168; -4.0161507E-07;  0.0000000E+00;  3.8348302E-14;  1.0000000E+03;  4.0000001E-01;  0.0000000E+00;3; -1.3986926E-03;  0.0000000E+00;  1.4808185E-10;0; -7.3824904E-06;  1.0000000E+04;  0.0000000E+00;  2.8395052E-20;  1.0000000E+04;  0.0000000E+00;  1.0000000E+04; -7.4311115E-06;  0.0000000E+00;  4.8620983E-08;  6.4281128E-05;
  7.9999998E-02;  9.9999998E-03;  2.0000000E-02;1169; -4.0116296E-07;  0.0000000E+00;  1.7466629E-09;  1.0000000E+03;  4.0000001E-01;  0.0000000E+00;3; -1.3970472E-03;  0.0000000E+00;  6.4401584E-06;0; -7.3728279E-06;  1.0000000E+04;  0.0000000E+00; -3.4130314E-15;  1.0000000E+04;  0.0000000E+00;  1.0000000E+04; -7.4234617E-06;  0.0000000E+00;  5.0633815E-08;  6.5469190E-05;
  7.9999998E-02;  9.9999998E-03;  3.9999999E-02;1170; -3.9977351E-07;  0.0000000E+00;  3.6150070E-09;  1.0000000E+03;  4.0000001E-01;  0.0000000E+00;3; -1.3919984E-03;  0.0000000E+00;  1.3306782E-05;0; -7.3432061E-06;  1.0000000E+04;  0.0000000E+00; -8.6165279E-16;  1.0000000E+04;  0.0000000E+00;  1.0000000E+04; -7.3998876E-06;  0.0000000E+00;  5.6681490E-08;  6.9061462E-05;
  7.9999998E-02;  9.9999998E-03;  5.9999999E-02;1171; -3.9734525E-07;  0.0000000E+00;  5.7303549E-09;  1.0000000E+03;  4.0000001E-01;  0.0000000E+00;3; -1.3832031E-03;  0.0000000E+00;  2.1037657E-05;0; -7.2916887E-06;  1.0000000E+04;  0.0000000E+00; -8.3044518E-16;  1.0000000E+04;  0.0000000E+00;  1.0000000E+04; -7.3584515E-06;  0.0000000E+00;  6.6762659E-08;  7.5126445E-05;
  7.9999998E-02;  9.9999998E-03;  7.9999998E-02;1172; -3.9370539E-07;  0.0000000E+00;  8.2106633E-09;  1.0000000E+03;  4.0000001E-01;  0.0000000E+00;3; -1.3700781E-03;  0.0000000E+00;  3.0038607E-05;0; -7.2150438E-06;  1.0000000E+04;  0.0000000E+00; -1.2122234E-16;  1.0000000E+04;  0.0000000E+00;  1.0000000E+04; -7.2958187E-06;  0.0000000E+00;  8.0774960E-08;  8.3723702E-05;
  7.9999998E-02;  9.9999998E-03;  1.0000000E-01;1173; -3.8860099E-07;  0.0000000E+00;  1.1179576E-08;  1.0000000E+03;  4.0000001E-01;  0.0000000E+00;3; -1.3517711E-03;  0.0000000E+00;  4.0732313E-05;0; -7.1087397E-06;  1.0000000E+04;  0.0000000E+00;  5.6601084E-15;  1.0000000E+04;  0.0000000E+00;  1.0000000E+04; -7.2071180E-06;  0.0000000E+00;  9.8378187E-08;  9.4818824E-05;
  7.9999998E-02;  9.9999998E-03;  1.2000000E-01;1174; -3.8169594E-07;  0.0000000E+00;  1.4735291E-08;  1.0000000E+03;  4.0000001E-01;  0.0000000E+00;3; -1.3271528E-03;  0.0000000E+00;  5.3443095E-05;0; -6.9669472E-06;  1.0000000E+04;  0.0000000E+00; -1.5124483E-14;  1.0000000E+04;  0.0000000E+00;  1.0000000E+04; -7.0857923E-06;  0.0000000E+00;  1.1884485E-07;  1.0816970E-04;
  7.9999998E-02;  9.9999998E-03;  1.4000000E-01;1175; -3.7256876E-07;  0.0000000E+00;  1.8951898E-08;  1.0000000E+03;  4.0000001E-01;  0.0000000E+00;3; -1.2948132E-03;  0.0000000E+00;  6.8404137E-05;0; -6.7826095E-06;  1.0000000E+04;  0.0000000E+00; -2.5222124E-14;  1.0000000E+04;  0.0000000E+00;  1.0000000E+04; -6.9235311E-06;  0.0000000E+00;  1.4092183E-07;  1.2318199E-04;
  1.0000000E-01;  9.9999998E-03;  7.9365374E-18;1199; -6.8371918E-07;  0.0000000E+00;  5.9909421E-14;  1.0000000E+03;  4.0000001E-01;  0.0000000E+00;3; -2.3330282E-03;  0.0000000E+00;  2.2580315E-10;0; -1.2523494E-05;  1.0000000E+04;  0.0000000E+00; -3.7121675E-20;  1.0000000E+04;  0.0000000E+00;  1.0000000E+04; -1.2610546E-05;  0.0000000E+00;  8.7052470E-08;  1.2463350E-04;
  1.0000000E-01;  9.9999998E-03;  2.0000000E-02;1200; -6.8298903E-07;  0.0000000E+00;  2.9686871E-09;  1.0000000E+03;  4.0000001E-01;  0.0000000E+00;3; -2.3304105E-03;  0.0000000E+00;  1.0846421E-05;0; -1.2507601E-05;  1.0000000E+04;  0.0000000E+00; -5.8752666E-15;  1.0000000E+04;  0.0000000E+00;  1.0000000E+04; -1.2598145E-05;  0.0000000E+00;  9.0543402E-08;  1.2695973E-04;
  1.0000000E-01;  9.9999998E-03;  3.9999999E-02;1201; -6.8074343E-07;  0.0000000E+00;  6.1424301E-09;  1.0000000E+03;  4.0000001E-01;  0.0000000E+00;3; -2.3223774E-03;  0.0000000E+00;  2.2394530E-05;0; -1.2458880E-05;  1.0000000E+04;  0.0000000E+00;  3.7226124E-15;  1.0000000E+04;  0.0000000E+00;  1.0000000E+04; -1.2559932E-05;  0.0000000E+00;  1.0105187E-07;  1.3398989E-04;
  1.0000000E-01;  9.9999998E-03;  5.9999999E-02;1202; -6.7681538E-07;  0.0000000E+00;  9.7330428E-09;  1.0000000E+03;  4.0000001E-01;  0.0000000E+00;3; -2.3083808E-03;  0.0000000E+00;  3.5367149E-05;0; -1.2374157E-05;  1.0000000E+04;  0.0000000E+00; -3.0671304E-15;  1.0000000E+04;  0.0000000E+00;  1.0000000E+04; -1.2492784E-05;  0.0000000E+00;  1.1862658E-07;  1.4585111E-04;
  1.0000000E-01;  9.9999998E-03;  7.9999998E-02;1203; -6.7091526E-07;  0.0000000E+00;  1.3946808E-08;  1.0000000E+03;  4.0000001E-01;  0.0000000E+00;3; -2.2874707E-03;  0.0000000E+00;  5.0458890E-05;0; -1.2248142E-05;  1.0000000E+04;  0.0000000E+00; -2.6092856E-15;  1.0000000E+04;  0.0000000E+00;  1.0000000E+04; -1.2391293E-05;  0.0000000E+00;  1.4315206E-07;  1.6265865E-04;
  1.0000000E-01;  9.9999998E-03;  1.0000000E-01;1204; -6.6262498E-07;  0.0000000E+00;  1.8986118E-08;  1.0000000E+03;  4.0000001E-01;  0.0000000E+00;3; -2.2582784E-03;  0.0000000E+00;  6.8341331E-05;0; -1.2073439E-05;  1.0000000E+04;  0.0000000E+00; -3.7078283E-15;  1.0000000E+04;  0.0000000E+00;  1.0000000E+04; -1.2247530E-05;  0.0000000E+00;  1.7409054E-07;  1.8436131E-04;
  1.0000000E-01;  9.9999998E-03;  1.2000000E-01;1205; -6.5138312E-07;  0.0000000E+00;  2.5037078E-08;  1.0000000E+03;  4.0000001E-01;  0.0000000E+00;3; -2.2189680E-03;  0.0000000E+00;  8.9622379E-05;0; -1.1840551E-05;  1.0000000E+04;  0.0000000E+00;  1.0154858E-14;  1.0000000E+04;  0.0000000E+00;  1.0000000E+04; -1.2050768E-05;  0.0000000E+00;  2.1021573E-07;  2.1053228E-04;
  1.0000000E-01;  9.9999998E-03;  1.4000000E-01;1206; -6.3649111E-07;  0.0000000E+00;  3.2199207E-08;  1.0000000E+03;  4.0000001E-01;  0.0000000E+00;3; -2.1672668E-03;  0.0000000E+00;  1.1458375E-04;0; -1.1537881E-05;  1.0000000E+04;  0.0000000E+00; -4.3467606E-14;  1.0000000E+04;  0.0000000E+00;  1.0000000E+04; -1.1787270E-05;  0.0000000E+00;  2.4938896E-07;  2.4009979E-04;
  1.2000000E-01;  9.9999998E-03; -9.2939466E-18;1230; -1.1467469E-06;  0.0000000E+00; -9.1800387E-14;  1.0000000E+03;  4.0000001E-01;  0.0000000E+00;3; -3.8252114E-03;  0.0000000E+00; -3.8687631E-10;0; -2.0869364E-05;  1.0000000E+04;  0.0000000E+00;  1.6573703E-20;  1.0000000E+04;  0.0000000E+00;  1.0000000E+04; -2.1021380E-05;  0.0000000E+00;  1.5201704E-07;  2.3559130E-04;
  1.2000000E-01;  9.9999998E-03;  2.0000000E-02;1231; -1.1455892E-06;  0.0000000E+00;  4.9356279E-09;  1.0000000E+03;  4.0000001E-01;  0.0000000E+00;3; -3.8211434E-03;  0.0000000E+00;  1.7813880E-05;0; -2.0843752E-05;  1.0000000E+04;  0.0000000E+00; -3.1901688E-15;  1.0000000E+04;  0.0000000E+00;  1.0000000E+04; -2.1001713E-05;  0.0000000E+00;  1.5796095E-07;  2.4000724E-04;
  1.2000000E-01;  9.9999998E-03;  3.9999999E-02;1232; -1.1420252E-06;  0.0000000E+00;  1.0214045E-08;  1.0000000E+03;  4.0000001E-01;  0.0000000E+00;3; -3.8086518E-03;  0.0000000E+00;  3.6769467E-05;0; -2.0765252E-05;  1.0000000E+04;  0.0000000E+00;  6.2699132E-15;  1.0000000E+04;  0.0000000E+00;  1.0000000E+04; -2.0941134E-05;  0.0000000E+00;  1.7588202E-07;  2.5335100E-04;
  1.2000000E-01;  9.9999998E-03;  5.9999999E-02;1233; -1.1357810E-06;  0.0000000E+00;  1.6188723E-08;  1.0000000E+03;  4.0000001E-01;  0.0000000E+00;3; -3.7868656E-03;  0.0000000E+00;  5.8041544E-05;0; -2.0628764E-05;  1.0000000E+04;  0.0000000E+00; -8.0782650E-15;  1.0000000E+04;  0.0000000E+00;  1.0000000E+04; -2.0834705E-05;  0.0000000E+00;  2.0593983E-07;  2.7586403E-04;
  1.2000000E-01;  9.9999998E-03;  7.9999998E-02;1234; -1.1263866E-06;  0.0000000E+00;  2.3214382E-08;  1.0000000E+03;  4.0000001E-01;  0.0000000E+00;3; -3.7542910E-03;  0.0000000E+00;  8.2797880E-05;0; -2.0425856E-05;  1.0000000E+04;  0.0000000E+00;  3.7662858E-15;  1.0000000E+04;  0.0000000E+00;  1.0000000E+04; -2.0673897E-05;  0.0000000E+00;  2.4804049E-07;  3.0777938E-04;
  1.2000000E-01;  9.9999998E-03;  1.0000000E-01;1235; -1.1131619E-06;  0.0000000E+00;  3.1615553E-08;  1.0000000E+03;  4.0000001E-01;  0.0000000E+00;3; -3.7087686E-03;  0.0000000E+00;  1.1207839E-04;0; -2.0144742E-05;  1.0000000E+04;  0.0000000E+00; -1.7778244E-14;  1.0000000E+04;  0.0000000E+00;  1.0000000E+04; -2.0446121E-05;  0.0000000E+00;  3.0137880E-07;  3.4905004E-04;
  1.2000000E-01;  9.9999998E-03;  1.2000000E-01;1236; -1.0951861E-06;  0.0000000E+00;  4.1734197E-08;  1.0000000E+03;  4.0000001E-01;  0.0000000E+00;3; -3.6473675E-03;  0.0000000E+00;  1.4698837E-04;0; -1.9770248E-05;  1.0000000E+04;  0.0000000E+00; -4.4293735E-14;  1.0000000E+04;  0.0000000E+00;  1.0000000E+04; -2.0134235E-05;  0.0000000E+00;  3.6398686E-07;  3.9898342E-04;
  1.2000000E-01;  9.9999998E-03;  1.4000000E-01;1237; -1.0713375E-06;  0.0000000E+00;  5.3689543E-08;  1.0000000E+03;  4.0000001E-01;  0.0000000E+00;3; -3.5665513E-03;  0.0000000E+00;  1.8779778E-04;0; -1.9283667E-05;  1.0000000E+04;  0.0000000E+00; -7.4053746E-14;  1.0000000E+04;  0.0000000E+00;  1.0000000E+04; -1.9716068E-05;  0.0000000E+00;  4.3240178E-07;  4.5577838E-04;
  1.4000000E-01;  9.9999998E-03; -8.7100102E-19;1261; -1.8963815E-06;  0.0000000E+00; -2.7685562E-14;  1.0000000E+03;  4.0000001E-01;  0.0000000E+00;3; -6.1747110E-03;  0.0000000E+00; -1.4493251E-10;0; -3.4195058E-05;  1.0000000E+04;  0.0000000E+00; -2.1187797E-20;  1.0000000E+04;  0.0000000E+00;  1.0000000E+04; -3.4454584E-05;  0.0000000E+00;  2.5952454E-07;  4.3470899E-04;
  1.4000000E-01;  9.9999998E-03;  2.0000000E-02;1262; -1.8945682E-06;  0.0000000E+00;  8.0592848E-09;  1.0000000E+03;  4.0000001E-01;  0.0000000E+00;3; -6.1684968E-03;  0.0000000E+00;  2.8634857E-05;0; -3.4154513E-05;  1.0000000E+04;  0.0000000E+00; -5.6904415E-15;  1.0000000E+04;  0.0000000E+00;  1.0000000E+04; -3.4423974E-05;  0.0000000E+00;  2.6946282E-07;  4.4285733E-04;
  1.4000000E-01;  9.9999998E-03;  3.9999999E-02;1263; -1.8889851E-06;  0.0000000E+00;  1.6684766E-08;  1.0000000E+03;  4.0000001E-01;  0.0000000E+00;3; -6.1494149E-03;  0.0000000E+00;  5.9101760E-05;0; -3.4030243E-05;  1.0000000E+04;  0.0000000E+00;  1.0033272E-14;  1.0000000E+04;  0.0000000E+00;  1.0000000E+04; -3.4329707E-05;  0.0000000E+00;  2.9946392E-07;  4.6748412E-04;
  1.4000000E-01;  9.9999998E-03;  5.9999999E-02;1264; -1.8791932E-06;  0.0000000E+00;  2.6454527E-08;  1.0000000E+03;  4.0000001E-01;  0.0000000E+00;3; -6.1161127E-03;  0.0000000E+00;  9.3266855E-05;0; -3.3814355E-05;  1.0000000E+04;  0.0000000E+00; -1.7954939E-14;  1.0000000E+04;  0.0000000E+00;  1.0000000E+04; -3.4164255E-05;  0.0000000E+00;  3.4989984E-07;  5.0905376E-04;
  1.4000000E-01;  9.9999998E-03;  7.9999998E-02;1265; -1.8644445E-06;  0.0000000E+00;  3.7967975E-08;  1.0000000E+03;  4.0000001E-01;  0.0000000E+00;3; -6.0662865E-03;  0.0000000E+00;  1.3306015E-04;0; -3.3493696E-05;  1.0000000E+04;  0.0000000E+00; -8.6606567E-16;  1.0000000E+04;  0.0000000E+00;  1.0000000E+04; -3.3914483E-05;  0.0000000E+00;  4.2078753E-07;  5.6804763E-04;
  1.4000000E-01;  9.9999998E-03;  1.0000000E-01;1266; -1.8436569E-06;  0.0000000E+00;  5.1732197E-08;  1.0000000E+03;  4.0000001E-01;  0.0000000E+00;3; -5.9965998E-03;  0.0000000E+00;  1.8004335E-04;0; -3.3049913E-05;  1.0000000E+04;  0.0000000E+00; -4.9723090E-14;  1.0000000E+04;  0.0000000E+00;  1.0000000E+04; -3.3560951E-05;  0.0000000E+00;  5.1103802E-07;  6.4451335E-04;
  1.4000000E-01;  9.9999998E-03;  1.2000000E-01;1267; -1.8153842E-06;  0.0000000E+00;  6.8343716E-08;  1.0000000E+03;  4.0000001E-01;  0.0000000E+00;3; -5.9025907E-03;  0.0000000E+00;  2.3611129E-04;0; -3.2459175E-05;  1.0000000E+04;  0.0000000E+00; -7.6971287E-14;  1.0000000E+04;  0.0000000E+00;  1.0000000E+04; -3.3076925E-05;  0.0000000E+00;  6.1774944E-07;  7.3748699E-04;
  1.4000000E-01;  9.9999998E-03;  1.4000000E-01;1268; -1.7779674E-06;  0.0000000E+00;  8.7906642E-08;  1.0000000E+03;  4.0000001E-01;  0.0000000E+00;3; -5.7792710E-03;  0.0000000E+00;  3.0133332E-04;0; -3.1691743E-05;  1.0000000E+04;  0.0000000E+00;  4.3715193E-15;  1.0000000E+04;  0.0000000E+00;  1.0000000E+04; -3.2427524E-05;  0.0000000E+00;  7.3578263E-07;  8.4428908E-04;
  1.6000000E-01;  9.9999998E-03; -4.3760944E-18;1292; -3.0926740E-06;  0.0000000E+00; -5.2742739E-14;  1.0000000E+03;  4.0000001E-01;  0.0000000E+00;3; -9.8239304E-03;  0.0000000E+00; -2.3993119E-10;0; -5.5145749E-05;  1.0000000E+04;  0.0000000E+00; -2.2089971E-21;  1.0000000E+04;  0.0000000E+00;  1.0000000E+04; -5.5579982E-05;  0.0000000E+00;  4.3423233E-07;  7.8407070E-04;
  1.6000000E-01;  9.9999998E-03;  2.0000000E-02;1293; -3.0898593E-06;  0.0000000E+00;  1.2974374E-08;  1.0000000E+03;  4.0000001E-01;  0.0000000E+00;3; -9.8145595E-03;  0.0000000E+00;  4.5221881E-05;0; -5.5082546E-05;  1.0000000E+04;  0.0000000E+00; -1.0214566E-14;  1.0000000E+04;  0.0000000E+00;  1.0000000E+04; -5.5533088E-05;  0.0000000E+00;  4.5054327E-07;  7.9873553E-04;
  1.6000000E-01;  9.9999998E-03;  3.9999999E-02;1294; -3.0811846E-06;  0.0000000E+00;  2.6872421E-08;  1.0000000E+03;  4.0000001E-01;  0.0000000E+00;3; -9.7857527E-03;  0.0000000E+00;  9.3349394E-05;0; -5.4888969E-05;  1.0000000E+04;  0.0000000E+00;  1.5189596E-14;  1.0000000E+04;  0.0000000E+00;  1.0000000E+04; -5.5388795E-05;  0.0000000E+00;  4.9982413E-07;  8.4306870E-04;
  1.6000000E-01;  9.9999998E-03;  5.9999999E-02;1295; -3.0659146E-06;  0.0000000E+00;  4.2640835E-08;  1.0000000E+03;  4.0000001E-01;  0.0000000E+00;3; -9.7352723E-03;  0.0000000E+00;  1.4735961E-04;0; -5.4553086E-05;  1.0000000E+04;  0.0000000E+00; -2.2925248E-14;  1.0000000E+04;  0.0000000E+00;  1.0000000E+04; -5.5135915E-05;  0.0000000E+00;  5.8283024E-07;  9.1794936E-04;
  1.6000000E-01;  9.9999998E-03;  7.9999998E-02;1296; -3.0428205E-06;  0.0000000E+00;  6.1267372E-08;  1.0000000E+03;  4.0000001E-01;  0.0000000E+00;3; -9.6593844E-03;  0.0000000E+00;  2.1036531E-04;0; -5.4054919E-05;  1.0000000E+04;  0.0000000E+00; -3.8482189E-15;  1.0000000E+04;  0.0000000E+00;  1.0000000E+04; -5.4754819E-05;  0.0000000E+00;  6.9990136E-07;  1.0243698E-03;
  1.6000000E-01;  9.9999998E-03;  1.0000000E-01;1297; -3.0102894E-06;  0.0000000E+00;  8.3479399E-08;  1.0000000E+03;  4.0000001E-01;  0.0000000E+00;3; -9.5533011E-03;  0.0000000E+00;  2.8447094E-04;0; -5.3366435E-05;  1.0000000E+04;  0.0000000E+00; -9.0367458E-14;  1.0000000E+04;  0.0000000E+00;  1.0000000E+04; -5.4216285E-05;  0.0000000E+00;  8.4985084E-07;  1.1627552E-03;
  1.6000000E-01;  9.9999998E-03;  1.2000000E-01;1298; -2.9662535E-06;  0.0000000E+00;  1.1018938E-07;  1.0000000E+03;  4.0000001E-01;  0.0000000E+00;3; -9.4109504E-03;  0.0000000E+00;  3.7245275E-04;0; -5.2450847E-05;  1.0000000E+04;  0.0000000E+00; -1.5854657E-13;  1.0000000E+04;  0.0000000E+00;  1.0000000E+04; -5.3479816E-05;  0.0000000E+00;  1.0289709E-06;  1.3321876E-03;
  1.6000000E-01;  9.9999998E-03;  1.4000000E-01;1299; -2.9082466E-06;  0.0000000E+00;  1.4159218E-07;  1.0000000E+03;  4.0000001E-01;  0.0000000E+00;3; -9.2252418E-03;  0.0000000E+00;  4.7449049E-04;0; -5.1261090E-05;  1.0000000E+04;  0.0000000E+00; -5.8838161E-14;  1.0000000E+04;  0.0000000E+00;  1.0000000E+04; -5.2491931E-05;  0.0000000E+00;  1.2308424E-06;  1.5295515E-03;
  1.7999999E-01;  9.9999998E-03; -7.1352547E-17;1323; -4.9727273E-06;  0.0000000E+00; -4.1821516E-13;  1.0000000E+03;  4.0000001E-01;  0.0000000E+00;3; -1.5407729E-02;  0.0000000E+00; -1.3587775E-09;0; -8.7604130E-05;  1.0000000E+04;  0.0000000E+00; -5.9371399E-20;  1.0000000E+04;  0.0000000E+00;  1.0000000E+04; -8.8317975E-05;  0.0000000E+00;  7.1384312E-07;  1.3844224E-03;
  1.7999999E-01;  9.9999998E-03;  2.0000000E-02;1324; -4.9683595E-06;  0.0000000E+00;  2.0683689E-08;  1.0000000E+03;  4.0000001E-01;  0.0000000E+00;3; -1.5393614E-02;  0.0000000E+00;  7.0522401E-05;0; -8.7507098E-05;  1.0000000E+04;  0.0000000E+00; -3.7642181E-14;  1.0000000E+04;  0.0000000E+00;  1.0000000E+04; -8.8247209E-05;  0.0000000E+00;  7.4010779E-07;  1.4102530E-03;
  1.7999999E-01;  9.9999998E-03;  3.9999999E-02;1325; -4.9548021E-06;  0.0000000E+00;  4.2941920E-08;  1.0000000E+03;  4.0000001E-01;  0.0000000E+00;3; -1.5349856E-02;  0.0000000E+00;  1.4593668E-04;0; -8.7210195E-05;  1.0000000E+04;  0.0000000E+00;  3.0005431E-14;  1.0000000E+04;  0.0000000E+00;  1.0000000E+04; -8.8029701E-05;  0.0000000E+00;  8.1950833E-07;  1.4883473E-03;
  1.7999999E-01;  9.9999998E-03;  5.9999999E-02;1326; -4.9308724E-06;  0.0000000E+00;  6.8243438E-08;  1.0000000E+03;  4.0000001E-01;  0.0000000E+00;3; -1.5272873E-02;  0.0000000E+00;  2.3071810E-04;0; -8.6695851E-05;  1.0000000E+04;  0.0000000E+00; -2.5751994E-14;  1.0000000E+04;  0.0000000E+00;  1.0000000E+04; -8.7649314E-05;  0.0000000E+00;  9.5346400E-07;  1.6203127E-03;
  1.7999999E-01;  9.9999998E-03;  7.9999998E-02;1327; -4.8947445E-06;  0.0000000E+00;  9.8078196E-08;  1.0000000E+03;  4.0000001E-01;  0.0000000E+00;3; -1.5157261E-02;  0.0000000E+00;  3.2940300E-04;0; -8.5934524E-05;  1.0000000E+04;  0.0000000E+00;  5.8795572E-15;  1.0000000E+04;  0.0000000E+00;  1.0000000E+04; -8.7077620E-05;  0.0000000E+00;  1.1431000E-06;  1.8081488E-03;
  1.7999999E-01;  9.9999998E-03;  1.0000000E-01;1328; -4.8441721E-06;  0.0000000E+00;  1.3337825E-07;  1.0000000E+03;  4.0000001E-01;  0.0000000E+00;3; -1.4996676E-02;  0.0000000E+00;  4.4439142E-04;0; -8.4884196E-05;  1.0000000E+04;  0.0000000E+00; -1.2371298E-13;  1.0000000E+04;  0.0000000E+00;  1.0000000E+04; -8.6271975E-05;  0.0000000E+00;  1.3877802E-06;  2.0533802E-03;
  1.7999999E-01;  9.9999998E-03;  1.2000000E-01;1329; -4.7761910E-06;  0.0000000E+00;  1.7559523E-07;  1.0000000E+03;  4.0000001E-01;  0.0000000E+00;3; -1.4782807E-02;  0.0000000E+00;  5.7993806E-04;0; -8.3488514E-05;  1.0000000E+04;  0.0000000E+00; -4.0453239E-13;  1.0000000E+04;  0.0000000E+00;  1.0000000E+04; -8.5172687E-05;  0.0000000E+00;  1.6841724E-06;  2.3563199E-03;
  1.7999999E-01;  9.9999998E-03;  1.4000000E-01;1330; -4.6870332E-06;  0.0000000E+00;  2.2529257E-07;  1.0000000E+03;  4.0000001E-01;  0.0000000E+00;3; -1.4505127E-02;  0.0000000E+00;  7.3725008E-04;0; -8.1673061E-05;  1.0000000E+04;  0.0000000E+00; -2.6350588E-13;  1.0000000E+04;  0.0000000E+00;  1.0000000E+04; -8.3699982E-05;  0.0000000E+00;  2.0269226E-06;  2.7154835E-03;
  2.0000000E-01;  9.9999998E-03; -1.0142367E-17;1354; -7.8755293E-06;  0.0000000E+00;  1.5478500E-13;  1.0000001E+03;  4.0000001E-01;  9.8762624E-02;3; -2.3797618E-02;  0.0000000E+00;  1.0292718E-09;0; -1.3717452E-04;  1.0000001E+04;  0.0000000E+00;  5.2629686E-20;  1.0000000E+04;  0.0000000E+00;  1.0000000E+04; -1.3833006E-04;  0.0000000E+00;  1.1555377E-06;  2.3965205E-03;
  2.0000000E-01;  9.9999998E-03;  2.0000000E-02;1355; -7.8686971E-06;  0.0000000E+00;  3.2866108E-08;  1.0000001E+03;  4.0000001E-01;  9.8762624E-02;3; -2.3776112E-02;  0.0000000E+00;  1.0950021E-04;0; -1.3702782E-04;  1.0000001E+04;  0.0000000E+00; -6.6732623E-14;  1.0000000E+04;  0.0000000E+00;  1.0000000E+04; -1.3822486E-04;  0.0000000E+00;  1.1970334E-06;  2.4411827E-03;
  2.0000000E-01;  9.9999998E-03;  3.9999999E-02;1356; -7.8475896E-06;  0.0000000E+00;  6.8325001E-08;  1.0000001E+03;  4.0000001E-01;  9.8762624E-02;3; -2.3709740E-02;  0.0000000E+00;  2.2698090E-04;0; -1.3657972E-04;  1.0000001E+04;  0.0000000E+00;  2.2986540E-14;  1.0000000E+04;  0.0000000E+00;  1.0000000E+04; -1.3790224E-04;  0.0000000E+00;  1.3225217E-06;  2.5761884E-03;
  2.0000000E-01;  9.9999998E-03;  5.9999999E-02;1357; -7.8105359E-06;  0.0000000E+00;  1.0855523E-07;  1.0000001E+03;  4.0000001E-01;  9.8762624E-02;3; -2.3593577E-02;  0.0000000E+00;  3.5884514E-04;0; -1.3580498E-04;  1.0000001E+04;  0.0000000E+00; -1.4937445E-14;  1.0000000E+04;  0.0000000E+00;  1.0000000E+04; -1.3733951E-04;  0.0000000E+00;  1.5345317E-06;  2.8043475E-03;
  2.0000000E-01;  9.9999998E-03;  7.9999998E-02;1358; -7.7549848E-06;  0.0000000E+00;  1.5568180E-07;  1.0000001E+03;  4.0000001E-01;  9.8762624E-02;3; -2.3420310E-02;  0.0000000E+00;  5.1125942E-04;0; -1.3466098E-04;  1.0000001E+04;  0.0000000E+00; -5.7745391E-15;  1.0000000E+04;  0.0000000E+00;  1.0000000E+04; -1.3649682E-04;  0.0000000E+00;  1.8358346E-06;  3.1295291E-03;
  2.0000000E-01;  9.9999998E-03;  1.0000000E-01;1359; -7.6778406E-06;  0.0000000E+00;  2.1091745E-07;  1.0000001E+03;  4.0000001E-01;  9.8762624E-02;3; -2.3181574E-02;  0.0000000E+00;  6.8694050E-04;0; -1.3308579E-04;  1.0000001E+04;  0.0000000E+00; -1.6697933E-13;  1.0000000E+04;  0.0000000E+00;  1.0000000E+04; -1.3531379E-04;  0.0000000E+00;  2.2280062E-06;  3.5559274E-03;
  2.0000000E-01;  9.9999998E-03;  1.2000000E-01;1360; -7.5748494E-06;  0.0000000E+00;  2.7666860E-07;  1.0000001E+03;  4.0000001E-01;  9.8762624E-02;3; -2.2865854E-02;  0.0000000E+00;  8.9285924E-04;0; -1.3099343E-04;  1.0000001E+04;  0.0000000E+00; -6.8917756E-13;  1.0000000E+04;  0.0000000E+00;  1.0000000E+04; -1.3370477E-04;  0.0000000E+00;  2.7113426E-06;  4.0881136E-03;
  2.0000000E-01;  9.9999998E-03;  1.4000000E-01;1361; -7.4403579E-06;  0.0000000E+00;  3.5417963E-07;  1.0000001E+03;  4.0000001E-01;  9.8762624E-02;3; -2.2457814E-02;  0.0000000E+00;  1.1319476E-03;0; -1.2826697E-04;  1.0000001E+04;  0.0000000E+00; -4.6871469E-13;  1.0000000E+04;  0.0000000E+00;  1.0000000E+04; -1.3155458E-04;  0.0000000E+00;  3.2876128E-06;  4.7318414E-03;
  2.2000000E-01;  9.9999998E-03; -3.2483598E-17;1385; -1.2277716E-05;  0.0000000E+00; -5.1708746E-13;  1.0000001E+03;  4.0000001E-01;  9.8762624E-02;3; -3.6163192E-02;  0.0000000E+00; -2.5238167E-09;0; -2.1181644E-04;  1.0000001E+04;  0.0000000E+00;  3.0628718E-20;  1.0000000E+04;  0.0000000E+00;  1.0000000E+04; -2.1366151E-04;  0.0000000E+00;  1.8450702E-06;  4.0728920E-03;
  2.2000000E-01;  9.9999998E-03;  2.0000000E-02;1386; -1.2267294E-05;  0.0000000E+00;  5.1926385E-08;  1.0000001E+03;  4.0000001E-01;  9.8762624E-02;3; -3.6131211E-02;  0.0000000E+00;  1.6910632E-04;0; -2.1159853E-04;  1.0000001E+04;  0.0000000E+00; -1.8623810E-14;  1.0000000E+04;  0.0000000E+00;  1.0000000E+04; -2.1350798E-04;  0.0000000E+00;  1.9094543E-06;  4.1489182E-03;
  2.2000000E-01;  9.9999998E-03;  3.9999999E-02;1387; -1.2235281E-05;  0.0000000E+00;  1.0775418E-07;  1.0000001E+03;  4.0000001E-01;  9.8762624E-02;3; -3.6033139E-02;  0.0000000E+00;  3.4998302E-04;0; -2.1093375E-04;  1.0000001E+04;  0.0000000E+00;  2.6448853E-14;  1.0000000E+04;  0.0000000E+00;  1.0000000E+04; -2.1303793E-04;  0.0000000E+00;  2.1041783E-06;  4.3786196E-03;
  2.2000000E-01;  9.9999998E-03;  5.9999999E-02;1388; -1.2179541E-05;  0.0000000E+00;  1.7073828E-07;  1.0000001E+03;  4.0000001E-01;  9.8762624E-02;3; -3.5862926E-02;  0.0000000E+00;  5.5195647E-04;0; -2.0978734E-04;  1.0000001E+04;  0.0000000E+00; -1.6885185E-14;  1.0000000E+04;  0.0000000E+00;  1.0000000E+04; -2.1222085E-04;  0.0000000E+00;  2.4335100E-06;  4.7666319E-03;
  2.2000000E-01;  9.9999998E-03;  7.9999998E-02;1389; -1.2096718E-05;  0.0000000E+00;  2.4385983E-07;  1.0000001E+03;  4.0000001E-01;  9.8762624E-02;3; -3.5611324E-02;  0.0000000E+00;  7.8322843E-04;0; -2.0809927E-04;  1.0000001E+04;  0.0000000E+00;  1.7070480E-13;  1.0000000E+04;  0.0000000E+00;  1.0000000E+04; -2.1100261E-04;  0.0000000E+00;  2.9033422E-06;  5.3200386E-03;
  2.2000000E-01;  9.9999998E-03;  1.0000000E-01;1390; -1.1982629E-05;  0.0000000E+00;  3.2876940E-07;  1.0000001E+03;  4.0000001E-01;  9.8762624E-02;3; -3.5267502E-02;  0.0000000E+00;  1.0470499E-03;0; -2.0577936E-04;  1.0000001E+04;  0.0000000E+00; -2.3858487E-13;  1.0000000E+04;  0.0000000E+00;  1.0000000E+04; -2.0930011E-04;  0.0000000E+00;  3.5207449E-06;  6.0486514E-03;
  2.2000000E-01;  9.9999998E-03;  1.2000000E-01;1391; -1.1831076E-05;  0.0000000E+00;  4.2952550E-07;  1.0000001E+03;  4.0000001E-01;  9.8762624E-02;3; -3.4815039E-02;  0.0000000E+00;  1.3551709E-03;0; -2.0269830E-04;  1.0000001E+04;  0.0000000E+00; -5.8871920E-14;  1.0000000E+04;  0.0000000E+00;  1.0000000E+04; -2.0699453E-04;  0.0000000E+00;  4.2962388E-06;  6.9676703E-03;
  2.2000000E-01;  9.9999998E-03;  1.4000000E-01;1392; -1.1633748E-05;  0.0000000E+00;  5.4839472E-07;  1.0000001E+03;  4.0000001E-01;  9.8762624E-02;3; -3.4232326E-02;  0.0000000E+00;  1.7125716E-03;0; -1.9867280E-04;  1.0000001E+04;  0.0000000E+00;  2.1449197E-14;  1.0000000E+04;  0.0000000E+00;  1.0000000E+04; -2.0392363E-04;  0.0000000E+00;  5.2508203E-06;  8.1023974E-03;
  2.3999999E-01;  9.9999998E-03;  1.3279936E-16;1416; -1.8857565E-05;  0.0000000E+00; -8.8341247E-14;  1.0000001E+03;  4.0000001E-01;  9.8762624E-02;3; -5.4063778E-02;  0.0000000E+00; -2.4315021E-09;0; -3.2269111E-04;  1.0000002E+04;  0.0000000E+00;  4.2150764E-19;  1.0000000E+04;  0.0000000E+00;  1.0000000E+04; -3.2560027E-04;  0.0000000E+00;  2.9091634E-06;  6.8043433E-03;
  2.3999999E-01;  9.9999998E-03;  2.0000000E-02;1417; -1.8842346E-05;  0.0000000E+00;  8.0825117E-08;  1.0000001E+03;  4.0000001E-01;  9.8762624E-02;3; -5.4018416E-02;  0.0000000E+00;  2.5738354E-04;0; -3.2237335E-04;  1.0000002E+04;  0.0000000E+00; -2.2801229E-14;  1.0000000E+04;  0.0000000E+00;  1.0000000E+04; -3.2538082E-04;  0.0000000E+00;  3.0074841E-06;  6.9321375E-03;
  2.3999999E-01;  9.9999998E-03;  3.9999999E-02;1418; -1.8795801E-05;  0.0000000E+00;  1.6716585E-07;  1.0000001E+03;  4.0000001E-01;  9.8762624E-02;3; -5.3879932E-02;  0.0000000E+00;  5.3094333E-04;0; -3.2140556E-04;  1.0000002E+04;  0.0000000E+00;  1.3151500E-13;  1.0000000E+04;  0.0000000E+00;  1.0000000E+04; -3.2471033E-04;  0.0000000E+00;  3.3047609E-06;  7.3178909E-03;
  2.3999999E-01;  9.9999998E-03;  5.9999999E-02;1419; -1.8715411E-05;  0.0000000E+00;  2.6372683E-07;  1.0000001E+03;  4.0000001E-01;  9.8762624E-02;3; -5.3641655E-02;  0.0000000E+00;  8.3381415E-04;0; -3.1974108E-04;  1.0000002E+04;  0.0000000E+00; -7.2220150E-14;  1.0000000E+04;  0.0000000E+00;  1.0000000E+04; -3.2354885E-04;  0.0000000E+00;  3.8077594E-06;  7.9686707E-03;
  2.3999999E-01;  9.9999998E-03;  7.9999998E-02;1420; -1.8596751E-05;  0.0000000E+00;  3.7490321E-07;  1.0000001E+03;  4.0000001E-01;  9.8762624E-02;3; -5.3291801E-02;  0.0000000E+00;  1.1777336E-03;0; -3.1729753E-04;  1.0000002E+04;  0.0000000E+00;  4.5044223E-13;  1.0000000E+04;  0.0000000E+00;  1.0000000E+04; -3.2182521E-04;  0.0000000E+00;  4.5276911E-06;  8.8965027E-03;
  2.3999999E-01;  9.9999998E-03;  1.0000000E-01;1421; -1.8433953E-05;  0.0000000E+00;  5.0313452E-07;  1.0000001E+03;  4.0000001E-01;  9.8762624E-02;3; -5.2815750E-02;  0.0000000E+00;  1.5669343E-03;0; -3.1394683E-04;  1.0000002E+04;  0.0000000E+00; -2.2506376E-13;  1.0000000E+04;  0.0000000E+00;  1.0000000E+04; -3.1942929E-04;  0.0000000E+00;  5.4824709E-06;  1.0121550E-02;
  2.3999999E-01;  9.9999998E-03;  1.2000000E-01;1422; -1.8217890E-05;  0.0000000E+00;  6.5507709E-07;  1.0000001E+03;  4.0000001E-01;  9.8762624E-02;3; -5.2190248E-02;  0.0000000E+00;  2.0204643E-03;0; -3.0949648E-04;  1.0000002E+04;  0.0000000E+00; -4.1862566E-13;  1.0000000E+04;  0.0000000E+00;  1.0000000E+04; -3.1620063E-04;  0.0000000E+00;  6.7041556E-06;  1.1681191E-02;
  2.3999999E-01;  9.9999998E-03;  1.4000000E-01;1423; -1.7936592E-05;  0.0000000E+00;  8.3425124E-07;  1.0000001E+03;  4.0000001E-01;  9.8762624E-02;3; -5.1385902E-02;  0.0000000E+00;  2.5447323E-03;0; -3.0366270E-04;  1.0000002E+04;  0.0000000E+00; -1.7273643E-12;  1.0000000E+04;  0.0000000E+00;  1.0000000E+04; -3.1191652E-04;  0.0000000E+00;  8.2538227E-06;  1.3643843E-02;
  2.5999999E-01;  9.9999998E-03; -2.0796611E-16;1447; -2.8596589E-05;  0.0000000E+00; -1.0918489E-12;  1.0000002E+03;  4.0000001E-01;  1.9752523E-01;3; -7.9603665E-02;  0.0000000E+00; -3.5182310E-09;0; -4.8531650E-04;  1.0000004E+04;  0.0000000E+00; -6.3682419E-20;  1.0000000E+04;  0.0000000E+00;  1.0000000E+04; -4.8984832E-04;  0.0000000E+00;  4.5318079E-06;  1.1187012E-02;
  2.5999999E-01;  9.9999998E-03;  2.0000000E-02;1448; -2.8575361E-05;  0.0000000E+00;  1.2303362E-07;  1.0000002E+03;  4.0000001E-01;  1.9752523E-01;3; -7.9542533E-02;  0.0000000E+00;  3.8298557E-04;0; -4.8486219E-04;  1.0000004E+04;  0.0000000E+00; -1.6953756E-13;  1.0000000E+04;  0.0000000E+00;  1.0000000E+04; -4.8954232E-04;  0.0000000E+00;  4.6801374E-06;  1.1399787E-02;
  2.5999999E-01;  9.9999998E-03;  3.9999999E-02;1449; -2.8510700E-05;  0.0000000E+00;  2.5362243E-07;  1.0000002E+03;  4.0000001E-01;  1.9752523E-01;3; -7.9356737E-02;  0.0000000E+00;  7.8740763E-04;0; -4.8347993E-04;  1.0000004E+04;  0.0000000E+00;  2.7758370E-13;  1.0000000E+04;  0.0000000E+00;  1.0000000E+04; -4.8860820E-04;  0.0000000E+00;  5.1282555E-06;  1.2041164E-02;
  2.5999999E-01;  9.9999998E-03;  5.9999999E-02;1450; -2.8399430E-05;  0.0000000E+00;  3.9846296E-07;  1.0000002E+03;  4.0000001E-01;  1.9752523E-01;3; -7.9038367E-02;  0.0000000E+00;  1.2313988E-03;0; -4.8110969E-04;  1.0000004E+04;  0.0000000E+00; -1.6335529E-13;  1.0000000E+04;  0.0000000E+00;  1.0000000E+04; -4.8699573E-04;  0.0000000E+00;  5.8860519E-06;  1.3120654E-02;
  2.5999999E-01;  9.9999998E-03;  7.9999998E-02;1451; -2.8235625E-05;  0.0000000E+00;  5.6433151E-07;  1.0000002E+03;  4.0000001E-01;  1.9752523E-01;3; -7.8572556E-02;  0.0000000E+00;  1.7326266E-03;0; -4.7764165E-04;  1.0000004E+04;  0.0000000E+00;  6.3110547E-13;  1.0000000E+04;  0.0000000E+00;  1.0000000E+04; -4.8461434E-04;  0.0000000E+00;  6.9727007E-06;  1.4656570E-02;
  2.5999999E-01;  9.9999998E-03;  1.0000000E-01;1452; -2.8010934E-05;  0.0000000E+00;  7.5502567E-07;  1.0000002E+03;  4.0000001E-01;  1.9752523E-01;3; -7.7939786E-02;  0.0000000E+00;  2.2966471E-03;0; -4.7289726E-04;  1.0000004E+04;  0.0000000E+00;  2.1596474E-13;  1.0000000E+04;  0.0000000E+00;  1.0000000E+04; -4.8132165E-04;  0.0000000E+00;  8.4244066E-06;  1.6685603E-02;
  2.5999999E-01;  9.9999998E-03;  1.2000000E-01;1453; -2.7712418E-05;  0.0000000E+00;  9.8032979E-07;  1.0000002E+03;  4.0000001E-01;  1.9752523E-01;3; -7.7108428E-02;  0.0000000E+00;  2.9510907E-03;0; -4.6659628E-04;  1.0000004E+04;  0.0000000E+00; -1.9391181E-12;  1.0000000E+04;  0.0000000E+00;  1.0000000E+04; -4.7690800E-04;  0.0000000E+00;  1.0311731E-05;  1.9285621E-02;
  2.5999999E-01;  9.9999998E-03;  1.4000000E-01;1454; -2.7323134E-05;  0.0000000E+00;  1.2461328E-06;  1.0000002E+03;  4.0000001E-01;  1.9752523E-01;3; -7.6039217E-02;  0.0000000E+00;  3.7057374E-03;0; -4.5830774E-04;  1.0000004E+04;  0.0000000E+00; -1.9640528E-12;  1.0000000E+04;  0.0000000E+00;  1.0000000E+04; -4.7107635E-04;  0.0000000E+00;  1.2768612E-05;  2.2608880E-02;
  2.8000000E-01;  9.9999998E-03;  2.1654906E-16;1478; -4.2929401E-05;  0.0000000E+00;  1.2432112E-12;  1.0000002E+03;  4.0000001E-01;  1.9752523E-01;3; -1.1568900E-01;  0.0000000E+00;  3.6243790E-09;0; -7.2113588E-04;  1.0000005E+04;  0.0000000E+00;  1.9053984E-19;  1.0000000E+04;  0.0000000E+00;  1.0000000E+04; -7.2811107E-04;  0.0000000E+00;  6.9751968E-06;  1.8117420E-02;
  2.8000000E-01;  9.9999998E-03;  2.0000000E-02;1479; -4.2900789E-05;  0.0000000E+00;  1.8305555E-07;  1.0000002E+03;  4.0000001E-01;  1.9752523E-01;3; -1.1560972E-01;  0.0000000E+00;  5.5671536E-04;0; -7.2049716E-04;  1.0000005E+04;  0.0000000E+00; -1.1644193E-13;  1.0000000E+04;  0.0000000E+00;  1.0000000E+04; -7.2769466E-04;  0.0000000E+00;  7.1975028E-06;  1.8469444E-02;
  2.8000000E-01;  9.9999998E-03;  3.9999999E-02;1480; -4.2813735E-05;  0.0000000E+00;  3.7634462E-07;  1.0000002E+03;  4.0000001E-01;  1.9752523E-01;3; -1.1536925E-01;  0.0000000E+00;  1.1412425E-03;0; -7.1855786E-04;  1.0000005E+04;  0.0000000E+00;  1.4629446E-13;  1.0000000E+04;  0.0000000E+00;  1.0000000E+04; -7.2642602E-04;  0.0000000E+00;  7.8681369E-06;  1.9528506E-02;
  2.8000000E-01;  9.9999998E-03;  5.9999999E-02;1481; -4.2664258E-05;  0.0000000E+00;  5.8945415E-07;  1.0000002E+03;  4.0000001E-01;  1.9752523E-01;3; -1.1495880E-01;  0.0000000E+00;  1.7783551E-03;0; -7.1524299E-04;  1.0000005E+04;  0.0000000E+00; -8.7330493E-14;  1.0000000E+04;  0.0000000E+00;  1.0000000E+04; -7.2424294E-04;  0.0000000E+00;  8.9999676E-06;  2.1304753E-02;
  2.8000000E-01;  9.9999998E-03;  7.9999998E-02;1482; -4.2444728E-05;  0.0000000E+00;  8.3271112E-07;  1.0000002E+03;  4.0000001E-01;  1.9752523E-01;3; -1.1436128E-01;  0.0000000E+00;  2.4941217E-03;0; -7.1041007E-04;  1.0000005E+04;  0.0000000E+00;  3.1705416E-13;  1.0000000E+04;  0.0000000E+00;  1.0000000E+04; -7.2103221E-04;  0.0000000E+00;  1.0622123E-05;  2.3821687E-02;
  2.8000000E-01;  9.9999998E-03;  1.0000000E-01;1483; -4.2143838E-05;  0.0000000E+00;  1.1123092E-06;  1.0000002E+03;  4.0000001E-01;  1.9752523E-01;3; -1.1355229E-01;  0.0000000E+00;  3.2972782E-03;0; -7.0381811E-04;  1.0000005E+04;  0.0000000E+00;  1.6306652E-12;  1.0000000E+04;  0.0000000E+00;  1.0000000E+04; -7.1661570E-04;  0.0000000E+00;  1.2797594E-05;  2.7137913E-02;
  2.8000000E-01;  9.9999998E-03;  1.2000000E-01;1484; -4.1743417E-05;  0.0000000E+00;  1.4421385E-06;  1.0000002E+03;  4.0000001E-01;  1.9752523E-01;3; -1.1248896E-01;  0.0000000E+00;  4.2268732E-03;0; -6.9506816E-04;  1.0000005E+04;  0.0000000E+00; -1.1628207E-12;  1.0000000E+04;  0.0000000E+00;  1.0000000E+04; -7.1072625E-04;  0.0000000E+00;  1.5658105E-05;  3.1397115E-02;
  2.8000000E-01;  9.9999998E-03;  1.4000000E-01;1485; -4.1219555E-05;  0.0000000E+00;  1.8320916E-06;  1.0000002E+03;  4.0000001E-01;  1.9752523E-01;3; -1.1111919E-01;  0.0000000E+00;  5.2983859E-03;0; -6.8352098E-04;  1.0000005E+04;  0.0000000E+00; -1.6492326E-12;  1.0000000E+04;  0.0000000E+00;  1.0000000E+04; -7.0297957E-04;  0.0000000E+00;  1.9458586E-05;  3.6900647E-02;
  2.9999998E-01;  9.9999998E-03; -7.3637148E-16;1509; -6.3931446E-05;  0.0000000E+00; -3.5032229E-12;  1.0000004E+03;  4.0000001E-01;  3.9505041E-01;3; -1.6635033E-01;  0.0000000E+00; -9.8881472E-09;0; -1.0595495E-03;  1.0000008E+04;  0.0000000E+00;  4.0004680E-18;  1.0000000E+04;  0.0000000E+00;  1.0000000E+04; -1.0701561E-03;  0.0000000E+00;  1.0606560E-05;  2.8924074E-02;
  2.9999998E-01;  9.9999998E-03;  2.0000000E-02;1510; -6.3893589E-05;  0.0000000E+00;  2.6735225E-07;  1.0000004E+03;  4.0000001E-01;  3.9505041E-01;3; -1.6624962E-01;  0.0000000E+00;  7.9425838E-04;0; -1.0586649E-03;  1.0000008E+04;  0.0000000E+00; -3.6116458E-13;  1.0000000E+04;  0.0000000E+00;  1.0000000E+04; -1.0696049E-03;  0.0000000E+00;  1.0939972E-05;  2.9504389E-02;
  2.9999998E-01;  9.9999998E-03;  3.9999999E-02;1511; -6.3778352E-05;  0.0000000E+00;  5.4874886E-07;  1.0000004E+03;  4.0000001E-01;  3.9505041E-01;3; -1.6594429E-01;  0.0000000E+00;  1.6243227E-03;0; -1.0559825E-03;  1.0000008E+04;  0.0000000E+00; -2.5725773E-13;  1.0000000E+04;  0.0000000E+00;  1.0000000E+04; -1.0679261E-03;  0.0000000E+00;  1.1943553E-05;  3.1246355E-02;
  2.9999998E-01;  9.9999998E-03;  5.9999999E-02;1512; -6.3580999E-05;  0.0000000E+00;  8.5746763E-07;  1.0000004E+03;  4.0000001E-01;  3.9505041E-01;3; -1.6542637E-01;  0.0000000E+00;  2.5221505E-03;0; -1.0514121E-03;  1.0000008E+04;  0.0000000E+00;  1.8031547E-13;  1.0000000E+04;  0.0000000E+00;  1.0000000E+04; -1.0650430E-03;  0.0000000E+00;  1.3630920E-05;  3.4155041E-02;
  2.9999998E-01;  9.9999998E-03;  7.9999998E-02;1513; -6.3292500E-05;  0.0000000E+00;  1.2088624E-06;  1.0000004E+03;  4.0000001E-01;  3.9505041E-01;3; -1.6467933E-01;  0.0000000E+00;  3.5250755E-03;0; -1.0447778E-03;  1.0000008E+04;  0.0000000E+00; -6.4985257E-13;  1.0000000E+04;  0.0000000E+00;  1.0000000E+04; -1.0608181E-03;  0.0000000E+00;  1.6040234E-05;  3.8251430E-02;
  2.9999998E-01;  9.9999998E-03;  1.0000000E-01;1514; -6.2898725E-05;  0.0000000E+00;  1.6135343E-06;  1.0000004E+03;  4.0000001E-01;  3.9505041E-01;3; -1.6367717E-01;  0.0000000E+00;  4.6496768E-03;0; -1.0357618E-03;  1.0000008E+04;  0.0000000E+00;  2.4530723E-12;  1.0000000E+04;  0.0000000E+00;  1.0000000E+04; -1.0550293E-03;  0.0000000E+00;  1.9267560E-05;  4.3615252E-02;
  2.9999998E-01;  9.9999998E-03;  1.2000000E-01;1515; -6.2374798E-05;  0.0000000E+00;  2.0916191E-06;  1.0000003E+03;  4.0000001E-01;  2.9628780E-01;3; -1.6236459E-01;  0.0000000E+00;  5.9521329E-03;0; -1.0238169E-03;  1.0000008E+04;  0.0000000E+00; -2.6784666E-12;  1.0000000E+04;  0.0000000E+00;  1.0000000E+04; -1.0473488E-03;  0.0000000E+00;  2.3531975E-05;  5.0485212E-02;
  2.9999998E-01;  9.9999998E-03;  1.4000000E-01;1516; -6.1684637E-05;  0.0000000E+00;  2.6605990E-06;  1.0000003E+03;  4.0000001E-01;  2.9628780E-01;3; -1.6066517E-01;  0.0000000E+00;  7.4616042E-03;0; -1.0080190E-03;  1.0000008E+04;  0.0000000E+00; -4.3654221E-12;  1.0000000E+04;  0.0000000E+00;  1.0000000E+04; -1.0372946E-03;  0.0000000E+00;  2.9275681E-05;  5.9408773E-02;
  3.1999996E-01;  9.9999998E-03; -8.0002246E-16;1540; -9.4520939E-05;  0.0000000E+00; -4.3572051E-12;  1.0000005E+03;  4.0000001E-01;  4.9381301E-01;3; -2.3709846E-01;  0.0000000E+00; -1.5246634E-08;0; -1.5403216E-03;  1.0000012E+04;  0.0000000E+00;  7.2032480E-19;  1.0000000E+04;  0.0000000E+00;  1.0000000E+04; -1.5562543E-03;  0.0000000E+00;  1.5932716E-05;  4.5543496E-02;
  3.1999996E-01;  9.9999998E-03;  2.0000000E-02;1541; -9.4471026E-05;  0.0000000E+00;  3.8566952E-07;  1.0000005E+03;  4.0000001E-01;  4.9381301E-01;3; -2.3697090E-01;  0.0000000E+00;  1.1195856E-03;0; -1.5391060E-03;  1.0000012E+04;  0.0000000E+00; -3.7008780E-13;  1.0000000E+04;  0.0000000E+00;  1.0000000E+04; -1.5555429E-03;  0.0000000E+00;  1.6436867E-05;  4.6498772E-02;
  3.1999996E-01;  9.9999998E-03;  3.9999999E-02;1542; -9.4319294E-05;  0.0000000E+00;  7.9099561E-07;  1.0000005E+03;  4.0000001E-01;  4.9381301E-01;3; -2.3658574E-01;  0.0000000E+00;  2.2853049E-03;0; -1.5354303E-03;  1.0000012E+04;  0.0000000E+00;  6.4969303E-13;  1.0000000E+04;  0.0000000E+00;  1.0000000E+04; -1.5533805E-03;  0.0000000E+00;  1.7950171E-05;  4.9359892E-02;
  3.1999996E-01;  9.9999998E-03;  5.9999999E-02;1543; -9.4060197E-05;  0.0000000E+00;  1.2342761E-06;  1.0000005E+03;  4.0000001E-01;  4.9381301E-01;3; -2.3593752E-01;  0.0000000E+00;  3.5369394E-03;0; -1.5291877E-03;  1.0000012E+04;  0.0000000E+00; -7.7378967E-13;  1.0000000E+04;  0.0000000E+00;  1.0000000E+04; -1.5496684E-03;  0.0000000E+00;  2.0480707E-05;  5.4114647E-02;
  3.1999996E-01;  9.9999998E-03;  7.9999998E-02;1544; -9.3682560E-05;  0.0000000E+00;  1.7376717E-06;  1.0000005E+03;  4.0000001E-01;  4.9381301E-01;3; -2.3501071E-01;  0.0000000E+00;  4.9260808E-03;0; -1.5201692E-03;  1.0000012E+04;  0.0000000E+00;  2.1458163E-12;  1.0000000E+04;  0.0000000E+00;  1.0000000E+04; -1.5442366E-03;  0.0000000E+00;  2.4067383E-05;  6.0760982E-02;
  3.1999996E-01;  9.9999998E-03;  1.0000000E-01;1545; -9.3168848E-05;  0.0000000E+00;  2.3185523E-06;  1.0000005E+03;  4.0000001E-01;  4.9381301E-01;3; -2.3378058E-01;  0.0000000E+00;  6.4807567E-03;0; -1.5079770E-03;  1.0000012E+04;  0.0000000E+00;  5.0898179E-12;  1.0000000E+04;  0.0000000E+00;  1.0000000E+04; -1.5368140E-03;  0.0000000E+00;  2.8836981E-05;  6.9382593E-02;
  3.1999996E-01;  9.9999998E-03;  1.2000000E-01;1546; -9.2485920E-05;  0.0000000E+00;  3.0082217E-06;  1.0000005E+03;  4.0000001E-01;  3.9505041E-01;3; -2.3218073E-01;  0.0000000E+00;  8.2879746E-03;0; -1.4918846E-03;  1.0000012E+04;  0.0000000E+00;  2.1562265E-13;  1.0000000E+04;  0.0000000E+00;  1.0000000E+04; -1.5270035E-03;  0.0000000E+00;  3.5118930E-05;  8.0336161E-02;
  3.1999999E-01;  9.9999998E-03;  1.4000000E-01;1547; -9.1582937E-05;  0.0000000E+00;  3.8358630E-06;  1.0000005E+03;  4.0000001E-01;  3.9505041E-01;3; -2.3010781E-01;  0.0000000E+00;  1.0401505E-02;0; -1.4706001E-03;  1.0000012E+04;  0.0000000E+00;  8.4032451E-12;  1.0000000E+04;  0.0000000E+00;  1.0000000E+04; -1.5142270E-03;  0.0000000E+00;  4.3626900E-05;  9.4549045E-02;
  3.3999997E-01;  9.9999998E-03;  2.0684966E-15;1571; -1.3858058E-04;  0.0000000E+00;  1.4405010E-11;  1.0000009E+03;  4.0000001E-01;  7.9010075E-01;3; -3.3500355E-01;  0.0000000E+00;  5.7419356E-08;0; -2.2161037E-03;  1.0000018E+04;  0.0000000E+00; -1.4946645E-18;  1.0000000E+04;  0.0000000E+00;  1.0000000E+04; -2.2397474E-03;  0.0000000E+00;  2.3643786E-05;  7.0744842E-02;
  3.3999997E-01;  9.9999998E-03;  2.0000000E-02;1572; -1.3851465E-04;  0.0000000E+00;  5.5280822E-07;  1.0000009E+03;  4.0000001E-01;  7.9010075E-01;3; -3.3484218E-01;  0.0000000E+00;  1.5689856E-03;0; -2.2144392E-03;  1.0000018E+04;  0.0000000E+00; -3.3024999E-13;  1.0000000E+04;  0.0000000E+00;  1.0000000E+04; -2.2388559E-03;  0.0000000E+00;  2.4416768E-05;  7.2316095E-02;
  3.3999997E-01;  9.9999998E-03;  3.9999999E-02;1573; -1.3831415E-04;  0.0000000E+00;  1.1340413E-06;  1.0000009E+03;  4.0000001E-01;  7.9010075E-01;3; -3.3435580E-01;  0.0000000E+00;  3.1986847E-03;0; -2.2094147E-03;  1.0000018E+04;  0.0000000E+00;  5.8705184E-13;  1.0000000E+04;  0.0000000E+00;  1.0000000E+04; -2.2361446E-03;  0.0000000E+00;  2.6729962E-05;  7.7013925E-02;
  3.3999997E-01;  9.9999998E-03;  5.9999999E-02;1574; -1.3797196E-04;  0.0000000E+00;  1.7701290E-06;  1.0000009E+03;  4.0000001E-01;  7.9010075E-01;3; -3.3354220E-01;  0.0000000E+00;  4.9409471E-03;0; -2.2009178E-03;  1.0000018E+04;  0.0000000E+00;  1.3417514E-12;  1.0000000E+04;  0.0000000E+00;  1.0000000E+04; -2.2314908E-03;  0.0000000E+00;  3.0573039E-05;  8.4788553E-02;
  3.3999997E-01;  9.9999998E-03;  7.9999998E-02;1575; -1.3747351E-04;  0.0000000E+00;  2.4929745E-06;  1.0000009E+03;  4.0000001E-01;  7.9010075E-01;3; -3.3238801E-01;  0.0000000E+00;  6.8652965E-03;0; -2.1887079E-03;  1.0000018E+04;  0.0000000E+00; -7.8113060E-14;  1.0000000E+04;  0.0000000E+00;  1.0000000E+04; -2.2246721E-03;  0.0000000E+00;  3.5964113E-05;  9.5575131E-02;
  3.3999997E-01;  9.9999998E-03;  1.0000000E-01;1576; -1.3679586E-04;  0.0000000E+00;  3.3302390E-06;  1.0000009E+03;  4.0000001E-01;  6.9133818E-01;3; -3.3086947E-01;  0.0000000E+00;  9.0178493E-03;0; -2.1723190E-03;  1.0000018E+04;  0.0000000E+00;  3.3509851E-12;  1.0000000E+04;  0.0000000E+00;  1.0000000E+04; -2.2153575E-03;  0.0000000E+00;  4.3038621E-05;  1.0941318E-01;
  3.3999997E-01;  9.9999998E-03;  1.2000000E-01;1577; -1.3589778E-04;  0.0000000E+00;  4.3266341E-06;  1.0000009E+03;  4.0000001E-01;  6.9133818E-01;3; -3.2891676E-01;  0.0000000E+00;  1.1518737E-02;0; -2.1508243E-03;  1.0000018E+04;  0.0000000E+00; -3.4611190E-12;  1.0000000E+04;  0.0000000E+00;  1.0000000E+04; -2.2030664E-03;  0.0000000E+00;  5.2242143E-05;  1.2677652E-01;
  3.3999997E-01;  9.9999998E-03;  1.4000000E-01;1578; -1.3471482E-04;  0.0000000E+00;  5.5272894E-06;  1.0000009E+03;  4.0000001E-01;  6.9133818E-01;3; -3.2641110E-01;  0.0000000E+00;  1.4462060E-02;0; -2.1224841E-03;  1.0000018E+04;  0.0000000E+00; -2.0257739E-12;  1.0000000E+04;  0.0000000E+00;  1.0000000E+04; -2.1871375E-03;  0.0000000E+00;  6.4653388E-05;  1.4913979E-01;
  3.5999995E-01;  9.9999998E-03; -1.6827219E-16;1602; -2.0094719E-04;  0.0000000E+00; -3.2950122E-11;  1.0000013E+03;  4.0000001E-01;  1.0863883E+00;3; -4.6847746E-01;  0.0000000E+00; -1.7809356E-07;0; -3.1548326E-03;  1.0000025E+04;  0.0000000E+00; -1.8826215E-18;  1.0000000E+04;  0.0000000E+00;  1.0000000E+04; -3.1894988E-03;  0.0000000E+00;  3.4666165E-05;  1.0840121E-01;
  3.5999995E-01;  9.9999998E-03;  2.0000000E-02;1603; -2.0085931E-04;  0.0000000E+00;  7.9100909E-07;  1.0000013E+03;  4.0000001E-01;  1.0863883E+00;3; -4.6827188E-01;  0.0000000E+00;  2.1959378E-03;0; -3.1525490E-03;  1.0000025E+04;  0.0000000E+00; -6.7785865E-13;  1.0000000E+04;  0.0000000E+00;  1.0000000E+04; -3.1884182E-03;  0.0000000E+00;  3.5869296E-05;  1.1097988E-01;
  3.5999995E-01;  9.9999998E-03;  3.9999999E-02;1604; -2.0059179E-04;  0.0000000E+00;  1.6251396E-06;  1.0000013E+03;  4.0000001E-01;  1.0863883E+00;3; -4.6765363E-01;  0.0000000E+00;  4.4767344E-03;0; -3.1456703E-03;  1.0000025E+04;  0.0000000E+00; -1.8929494E-14;  1.0000000E+04;  0.0000000E+00;  1.0000000E+04; -3.1851302E-03;  0.0000000E+00;  3.9459970E-05;  1.1868320E-01;
  3.5999995E-01;  9.9999998E-03;  6.0000002E-02;1605; -2.0013450E-04;  0.0000000E+00;  2.5426184E-06;  1.0000013E+03;  4.0000001E-01;  1.0863883E+00;3; -4.6662408E-01;  0.0000000E+00;  6.9139111E-03;0; -3.1340828E-03;  1.0000025E+04;  0.0000000E+00;  1.9422417E-12;  1.0000000E+04;  0.0000000E+00;  1.0000000E+04; -3.1794712E-03;  0.0000000E+00;  4.5388555E-05;  1.3139988E-01;
  3.5999995E-01;  9.9999998E-03;  7.9999998E-02;1606; -1.9946824E-04;  0.0000000E+00;  3.5904170E-06;  1.0000013E+03;  4.0000001E-01;  1.0863883E+00;3; -4.6517655E-01;  0.0000000E+00;  9.6031670E-03;0; -3.1175469E-03;  1.0000025E+04;  0.0000000E+00; -3.3878821E-14;  1.0000000E+04;  0.0000000E+00;  1.0000000E+04; -3.1711585E-03;  0.0000000E+00;  5.3611584E-05;  1.4894378E-01;
  3.5999995E-01;  9.9999998E-03;  1.0000000E-01;1607; -1.9856397E-04;  0.0000000E+00;  4.8103157E-06;  1.0000012E+03;  4.0000001E-01;  9.8762578E-01;3; -4.6329409E-01;  0.0000000E+00;  1.2614113E-02;0; -3.0955363E-03;  1.0000025E+04;  0.0000000E+00;  1.4360378E-11;  1.0000000E+04;  0.0000000E+00;  1.0000000E+04; -3.1597521E-03;  0.0000000E+00;  6.4215928E-05;  1.7121923E-01;
  3.5999995E-01;  9.9999998E-03;  1.2000000E-01;1608; -1.9737567E-04;  0.0000000E+00;  6.2600234E-06;  1.0000012E+03;  4.0000001E-01;  9.8762578E-01;3; -4.6092096E-01;  0.0000000E+00;  1.6093528E-02;0; -3.0669423E-03;  1.0000025E+04;  0.0000000E+00;  1.2530688E-11;  1.0000000E+04;  0.0000000E+00;  1.0000000E+04; -3.1446724E-03;  0.0000000E+00;  7.7730139E-05;  1.9877043E-01;
  3.5999995E-01;  9.9999998E-03;  1.4000000E-01;1609; -1.9582838E-04;  0.0000000E+00;  8.0032869E-06;  1.0000012E+03;  4.0000001E-01;  9.8762578E-01;3; -4.5793733E-01;  0.0000000E+00;  2.0186858E-02;0; -3.0295120E-03;  1.0000025E+04;  0.0000000E+00;  3.1186838E-11;  1.0000000E+04;  0.0000000E+00;  9.9999990E+03; -3.1251924E-03;  0.0000000E+00;  9.5680422E-05;  2.3380955E-01;
  3.7999994E-01;  9.9999998E-03; -1.7705657E-15;1633; -2.8748941E-04;  0.0000000E+00; -1.4298389E-12;  1.0000018E+03;  4.0000001E-01;  1.4814385E+00;3; -6.4696652E-01;  0.0000000E+00;  2.5132977E-08;0; -4.4420627E-03;  1.0000037E+04;  0.0000000E+00;  1.5270538E-17;  1.0000000E+04;  0.0000000E+00;  1.0000000E+04; -4.4922824E-03;  0.0000000E+00;  5.0219744E-05;  1.6379218E-01;
  3.7999994E-01;  9.9999998E-03;  2.0000000E-02;1634; -2.8737140E-04;  0.0000000E+00;  1.1321387E-06;  1.0000018E+03;  4.0000001E-01;  1.4814385E+00;3; -6.4670342E-01;  0.0000000E+00;  3.0757906E-03;0; -4.4389213E-03;  1.0000037E+04;  0.0000000E+00; -5.2171386E-13;  1.0000000E+04;  0.0000000E+00;  1.0000000E+04; -4.4910335E-03;  0.0000000E+00;  5.2112358E-05;  1.6799910E-01;
  3.7999994E-01;  9.9999998E-03;  3.9999999E-02;1635; -2.8701188E-04;  0.0000000E+00;  2.3321988E-06;  1.0000018E+03;  4.0000001E-01;  1.4814385E+00;3; -6.4591414E-01;  0.0000000E+00;  6.2767277E-03;0; -4.4294694E-03;  1.0000037E+04;  0.0000000E+00;  2.4038725E-12;  1.0000000E+04;  0.0000000E+00;  1.0000000E+04; -4.4872211E-03;  0.0000000E+00;  5.7751600E-05;  1.8057197E-01;
  3.7999994E-01;  9.9999998E-03;  6.0000002E-02;1636; -2.8639581E-04;  0.0000000E+00;  3.6638608E-06;  1.0000018E+03;  4.0000001E-01;  1.4814385E+00;3; -6.4460540E-01;  0.0000000E+00;  9.7091328E-03;0; -4.4136140E-03;  1.0000037E+04;  0.0000000E+00;  2.0845079E-12;  1.0000000E+04;  0.0000000E+00;  1.0000000E+04; -4.4806362E-03;  0.0000000E+00;  6.7021967E-05;  2.0132972E-01;
  3.7999994E-01;  9.9999998E-03;  7.9999998E-02;1637; -2.8549795E-04;  0.0000000E+00;  5.1978031E-06;  1.0000018E+03;  4.0000001E-01;  1.4814385E+00;3; -6.4278209E-01;  0.0000000E+00;  1.3509316E-02;0; -4.3911384E-03;  1.0000037E+04;  0.0000000E+00;  1.9412618E-12;  1.0000000E+04;  0.0000000E+00;  1.0000000E+04; -4.4708932E-03;  0.0000000E+00;  7.9754616E-05;  2.2990759E-01;
  3.7999994E-01;  9.9999998E-03;  1.0000000E-01;1638; -2.8428674E-04;  0.0000000E+00;  6.9931821E-06;  1.0000018E+03;  4.0000001E-01;  1.4814385E+00;3; -6.4045584E-01;  0.0000000E+00;  1.7768882E-02;0; -4.3615187E-03;  1.0000037E+04;  0.0000000E+00;  1.3081088E-11;  1.0000000E+04;  0.0000000E+00;  9.9999990E+03; -4.4574039E-03;  0.0000000E+00;  9.5885327E-05;  2.6595387E-01;
  3.7999994E-01;  9.9999998E-03;  1.2000000E-01;1639; -2.8271676E-04;  0.0000000E+00;  9.1204147E-06;  1.0000018E+03;  4.0000001E-01;  1.4814385E+00;3; -6.3760722E-01;  0.0000000E+00;  2.2664148E-02;0; -4.3234946E-03;  1.0000037E+04;  0.0000000E+00;  1.6064780E-11;  1.0000000E+04;  0.0000000E+00;  9.9999990E+03; -4.4394238E-03;  0.0000000E+00;  1.1592900E-04;  3.0998668E-01;
  3.7999994E-01;  9.9999998E-03;  1.4000000E-01;1640; -2.8071387E-04;  0.0000000E+00;  1.1655609E-05;  1.0000018E+03;  4.0000001E-01;  1.4814385E+00;3; -6.3415158E-01;  0.0000000E+00;  2.8369186E-02;0; -4.2742556E-03;  1.0000037E+04;  0.0000000E+00;  1.3342671E-11;  1.0000000E+04;  0.0000000E+00;  9.9999990E+03; -4.4161552E-03;  0.0000000E+00;  1.4189963E-04;  3.6516884E-01;
  3.9999989E-01;  9.9999998E-03; -5.0627773E-16;1664; -4.0559366E-04;  0.0000000E+00; -1.8686384E-11;  1.0000027E+03;  4.0000001E-01;  2.2715385E+00;3; -8.8083982E-01;  0.0000000E+00; -7.9496090E-08;0; -6.1831721E-03;  1.0000054E+04;  0.0000000E+00;  3.7956812E-18;  1.0000000E+04;  0.0000000E+00;  1.0000000E+04; -6.2550376E-03;  0.0000000E+00;  7.1865594E-05;  2.4387662E-01;
  3.9999989E-01;  9.9999998E-03;  2.0000000E-02;1665; -4.0543638E-04;  0.0000000E+00;  1.6176713E-06;  1.0000027E+03;  4.0000001E-01;  2.2715385E+00;3; -8.8050622E-01;  0.0000000E+00;  4.3040537E-03;0; -6.1788447E-03;  1.0000054E+04;  0.0000000E+00;  1.6195225E-12;  1.0000000E+04;  0.0000000E+00;  1.0000000E+04; -6.2536937E-03;  0.0000000E+00;  7.4849006E-05;  2.5066286E-01;
  3.9999989E-01;  9.9999998E-03;  3.9999999E-02;1666; -4.0495628E-04;  0.0000000E+00;  3.3447807E-06;  1.0000027E+03;  4.0000001E-01;  2.2715385E+00;3; -8.7950873E-01;  0.0000000E+00;  8.8029578E-03;0; -6.1658300E-03;  1.0000054E+04;  0.0000000E+00;  2.3710109E-12;  1.0000000E+04;  0.0000000E+00;  1.0000000E+04; -6.2495684E-03;  0.0000000E+00;  8.3738480E-05;  2.7098578E-01;
  3.9999989E-01;  9.9999998E-03;  6.0000002E-02;1667; -4.0413335E-04;  0.0000000E+00;  5.2826204E-06;  1.0000027E+03;  4.0000001E-01;  2.2715385E+00;3; -8.7786579E-01;  0.0000000E+00;  1.3656862E-02;0; -6.1440854E-03;  1.0000054E+04;  0.0000000E+00; -3.5876395E-12;  1.0000000E+04;  0.0000000E+00;  9.9999990E+03; -6.2424131E-03;  0.0000000E+00;  9.8327735E-05;  3.0464563E-01;
  3.9999989E-01;  9.9999998E-03;  7.9999998E-02;1668; -4.0293791E-04;  0.0000000E+00;  7.5409275E-06;  1.0000026E+03;  4.0000001E-01;  2.1727760E+00;3; -8.7560743E-01;  0.0000000E+00;  1.9077793E-02;0; -6.1134575E-03;  1.0000054E+04;  0.0000000E+00;  3.6376915E-12;  1.0000000E+04;  0.0000000E+00;  9.9999990E+03; -6.2317038E-03;  0.0000000E+00;  1.1824634E-04;  3.5110855E-01;
  3.9999989E-01;  9.9999998E-03;  1.0000000E-01;1669; -4.0134109E-04;  0.0000000E+00;  1.0199708E-05;  1.0000026E+03;  4.0000001E-01;  2.1727760E+00;3; -8.7279999E-01;  0.0000000E+00;  2.5163079E-02;0; -6.0734758E-03;  1.0000054E+04;  0.0000000E+00;  1.4518086E-11;  1.0000000E+04;  0.0000000E+00;  9.9999990E+03; -6.2166117E-03;  0.0000000E+00;  1.4313591E-04;  4.0968660E-01;
  3.9999989E-01;  9.9999998E-03;  1.2000000E-01;1670; -3.9930621E-04;  0.0000000E+00;  1.3348007E-05;  1.0000026E+03;  4.0000001E-01;  2.1727760E+00;3; -8.6948639E-01;  0.0000000E+00;  3.2156389E-02;0; -6.0227541E-03;  1.0000054E+04;  0.0000000E+00;  3.2473666E-11;  1.0000000E+04;  0.0000000E+00;  9.9999990E+03; -6.1960872E-03;  0.0000000E+00;  1.7333332E-04;  4.8080015E-01;
  3.9999989E-01;  9.9999998E-03;  1.4000000E-01;1671; -3.9677470E-04;  0.0000000E+00;  1.7053515E-05;  1.0000026E+03;  4.0000001E-01;  2.1727760E+00;3; -8.6567378E-01;  0.0000000E+00;  4.0172819E-02;0; -5.9579401E-03;  1.0000054E+04;  0.0000000E+00;  5.0630049E-11;  1.0000000E+04;  0.0000000E+00;  9.9999990E+03; -6.1692405E-03;  0.0000000E+00;  2.1130050E-04;  5.6884736E-01;
  4.1999984E-01;  9.9999998E-03; -5.3989677E-15;1695; -5.6537479E-04;  0.0000000E+00; -7.2070067E-12;  1.0000038E+03;  4.0000001E-01;  3.1604004E+00;3; -1.1822772E+00;  0.0000000E+00;  9.4486268E-09;0; -8.5031865E-03;  1.0000077E+04;  0.0000000E+00;  7.7925261E-18;  1.0000000E+04;  0.0000000E+00;  9.9999990E+03; -8.6047063E-03;  0.0000000E+00;  1.0151949E-04;  3.5735643E-01;
  4.1999984E-01;  9.9999998E-03;  2.0000001E-02;1696; -5.6516880E-04;  0.0000000E+00;  2.2975698E-06;  1.0000038E+03;  4.0000001E-01;  3.1604004E+00;3; -1.1818609E+00;  0.0000000E+00;  5.9972410E-03;0; -8.4972316E-03;  1.0000077E+04;  0.0000000E+00;  2.3325302E-12;  1.0000000E+04;  0.0000000E+00;  9.9999990E+03; -8.6034192E-03;  0.0000000E+00;  1.0618759E-04;  3.6812058E-01;
  4.1999984E-01;  9.9999998E-03;  4.0000003E-02;1697; -5.6454295E-04;  0.0000000E+00;  4.7659960E-06;  1.0000038E+03;  4.0000001E-01;  3.1604004E+00;3; -1.1806295E+00;  0.0000000E+00;  1.2286922E-02;0; -8.4793521E-03;  1.0000077E+04;  0.0000000E+00; -2.9355379E-12;  1.0000000E+04;  0.0000000E+00;  9.9999990E+03; -8.5994666E-03;  0.0000000E+00;  1.2011495E-04;  4.0046847E-01;
  4.1999984E-01;  9.9999998E-03;  6.0000002E-02;1698; -5.6347472E-04;  0.0000000E+00;  7.5745706E-06;  1.0000038E+03;  4.0000001E-01;  3.1604004E+00;3; -1.1786252E+00;  0.0000000E+00;  1.9151038E-02;0; -8.4495712E-03;  1.0000077E+04;  0.0000000E+00; -2.6437268E-12;  1.0000000E+04;  0.0000000E+00;  9.9999990E+03; -8.5925711E-03;  0.0000000E+00;  1.4300038E-04;  4.5437542E-01;
  4.1999984E-01;  9.9999998E-03;  8.0000006E-02;1699; -5.6194083E-04;  0.0000000E+00;  1.0887400E-05;  1.0000038E+03;  4.0000001E-01;  3.1604004E+00;3; -1.1759421E+00;  0.0000000E+00;  2.6893366E-02;0; -8.4078116E-03;  1.0000077E+04;  0.0000000E+00; -9.9077977E-12;  1.0000000E+04;  0.0000000E+00;  9.9999990E+03; -8.5820267E-03;  0.0000000E+00;  1.7421506E-04;  5.2934068E-01;
  4.1999984E-01;  9.9999998E-03;  1.0000000E-01;1700; -5.5992260E-04;  0.0000000E+00;  1.4827609E-05;  1.0000037E+03;  4.0000001E-01;  3.0616379E+00;3; -1.1727270E+00;  0.0000000E+00;  3.5670411E-02;0; -8.3536562E-03;  1.0000077E+04;  0.0000000E+00; -1.1021697E-12;  1.0000000E+04;  0.0000000E+00;  9.9999990E+03; -8.5666310E-03;  0.0000000E+00;  2.1297479E-04;  6.2450099E-01;
  4.1999984E-01;  9.9999998E-03;  1.2000000E-01;1701; -5.5740273E-04;  0.0000000E+00;  1.9522518E-05;  1.0000037E+03;  4.0000001E-01;  3.0616379E+00;3; -1.1691294E+00;  0.0000000E+00;  4.5820709E-02;0; -8.2856370E-03;  1.0000076E+04;  0.0000000E+00;  1.5969222E-11;  1.0000000E+04;  0.0000000E+00;  9.9999980E+03; -8.5448502E-03;  0.0000000E+00;  2.5921303E-04;  7.4029261E-01;
  4.1999984E-01;  9.9999998E-03;  1.4000000E-01;1702; -5.5435614E-04;  0.0000000E+00;  2.4982639E-05;  1.0000037E+03;  4.0000001E-01;  3.0616379E+00;3; -1.1653192E+00;  0.0000000E+00;  5.7229847E-02;0; -8.1998389E-03;  1.0000076E+04;  0.0000000E+00;  5.2524169E-11;  1.0000000E+04;  0.0000000E+00;  9.9999971E+03; -8.5155908E-03;  0.0000000E+00;  3.1575214E-04;  8.8309336E-01;
  4.3999976E-01;  9.9999998E-03; -8.8305514E-15;1726; -7.8167993E-04;  0.0000000E+00; -3.6693943E-11;  1.0000053E+03;  4.0000001E-01;  4.4443111E+00;3; -1.5673325E+00;  0.0000000E+00; -1.0899453E-07;0; -1.1536652E-02;  1.0000107E+04;  0.0000000E+00; -2.1974910E-17;  1.0000000E+04;  0.0000000E+00;  9.9999990E+03; -1.1678057E-02;  0.0000000E+00;  1.4140418E-04;  5.1415592E-01;
  4.3999976E-01;  9.9999998E-03;  2.0000001E-02;1727; -7.8142044E-04;  0.0000000E+00;  3.2250246E-06;  1.0000053E+03;  4.0000001E-01;  4.4443111E+00;3; -1.5668303E+00;  0.0000000E+00;  8.2877660E-03;0; -1.1528510E-02;  1.0000107E+04;  0.0000000E+00;  3.3985557E-12;  1.0000000E+04;  0.0000000E+00;  9.9999990E+03; -1.1677102E-02;  0.0000000E+00;  1.4859212E-04;  5.3086185E-01;
  4.3999976E-01;  9.9999998E-03;  4.0000003E-02;1728; -7.8063871E-04;  0.0000000E+00;  6.7082256E-06;  1.0000053E+03;  4.0000001E-01;  4.4443111E+00;3; -1.5653642E+00;  0.0000000E+00;  1.7003331E-02;0; -1.1504091E-02;  1.0000107E+04;  0.0000000E+00;  1.9909322E-12;  1.0000000E+04;  0.0000000E+00;  9.9999990E+03; -1.1674175E-02;  0.0000000E+00;  1.7008353E-04;  5.8129340E-01;
  4.3999976E-01;  9.9999998E-03;  6.0000002E-02;1729; -7.7932188E-04;  0.0000000E+00;  1.0728462E-05;  1.0000053E+03;  4.0000001E-01;  4.4443111E+00;3; -1.5630322E+00;  0.0000000E+00;  2.6657498E-02;0; -1.1463458E-02;  1.0000107E+04;  0.0000000E+00;  2.0677854E-12;  1.0000000E+04;  0.0000000E+00;  9.9999990E+03; -1.1668989E-02;  0.0000000E+00;  2.0553035E-04;  6.6604459E-01;
  4.3999976E-01;  9.9999998E-03;  8.0000006E-02;1730; -7.7747315E-04;  0.0000000E+00;  1.5516185E-05;  1.0000053E+03;  4.0000001E-01;  4.4443111E+00;3; -1.5600592E+00;  0.0000000E+00;  3.7583303E-02;0; -1.1406592E-02;  1.0000107E+04;  0.0000000E+00;  4.5771052E-12;  1.0000000E+04;  0.0000000E+00;  9.9999990E+03; -1.1660664E-02;  0.0000000E+00;  2.5407248E-04;  7.8524953E-01;
  4.3999976E-01;  9.9999998E-03;  1.0000001E-01;1731; -7.7509956E-04;  0.0000000E+00;  2.1328651E-05;  1.0000052E+03;  4.0000001E-01;  4.3455491E+00;3; -1.5567012E+00;  0.0000000E+00;  5.0342627E-02;0; -1.1333083E-02;  1.0000107E+04;  0.0000000E+00; -9.0988207E-12;  1.0000000E+04;  0.0000000E+00;  9.9999971E+03; -1.1647504E-02;  0.0000000E+00;  3.1442064E-04;  9.3848419E-01;
  4.3999976E-01;  9.9999998E-03;  1.2000000E-01;1732; -7.7221880E-04;  0.0000000E+00;  2.8343713E-05;  1.0000052E+03;  4.0000001E-01;  4.3455491E+00;3; -1.5533072E+00;  0.0000000E+00;  6.5226696E-02;0; -1.1241309E-02;  1.0000107E+04;  0.0000000E+00;  3.0413092E-11;  1.0000000E+04;  0.0000000E+00;  9.9999971E+03; -1.1627266E-02;  0.0000000E+00;  3.8595698E-04;  1.1271361E+00;
  4.3999976E-01;  9.9999998E-03;  1.4000002E-01;1733; -7.6884928E-04;  0.0000000E+00;  3.6447593E-05;  1.0000051E+03;  4.0000001E-01;  4.1480241E+00;3; -1.5502660E+00;  0.0000000E+00;  8.1749305E-02;0; -1.1126547E-02;  1.0000106E+04;  0.0000000E+00;  1.5455905E-10;  1.0000000E+04;  0.0000000E+00;  9.9999961E+03; -1.1598535E-02;  0.0000000E+00;  4.7198732E-04;  1.3619238E+00;
  4.5999965E-01;  9.9999998E-03;  3.1315909E-14;1757; -1.0760757E-03;  0.0000000E+00;  1.2762606E-10;  1.0000076E+03;  4.0000015E-01;  6.3207946E+00;3; -2.0583515E+00;  0.0000000E+00;  2.6741702E-07;0; -1.5393849E-02;  1.0000148E+04;  0.0000000E+00; -1.5220161E-17;  1.0000000E+04;  0.0000000E+00;  9.9999990E+03; -1.5587769E-02;  0.0000000E+00;  1.9392025E-04;  7.2378647E-01;
  4.5999965E-01;  9.9999998E-03;  2.0000001E-02;1758; -1.0757663E-03;  0.0000000E+00;  4.4497469E-06;  1.0000076E+03;  4.0000015E-01;  6.3207946E+00;3; -2.0577707E+00;  0.0000000E+00;  1.1319627E-02;0; -1.5382802E-02;  1.0000148E+04;  0.0000000E+00;  2.0762875E-12;  1.0000000E+04;  0.0000000E+00;  9.9999990E+03; -1.5587544E-02;  0.0000000E+00;  2.0474204E-04;  7.4905527E-01;
  4.5999965E-01;  9.9999998E-03;  4.0000003E-02;1759; -1.0748492E-03;  0.0000000E+00;  9.2783130E-06;  1.0000076E+03;  4.0000015E-01;  6.3207946E+00;3; -2.0561218E+00;  0.0000000E+00;  2.3251003E-02;0; -1.5349679E-02;  1.0000148E+04;  0.0000000E+00;  1.0394192E-11;  1.0000000E+04;  0.0000000E+00;  9.9999990E+03; -1.5586865E-02;  0.0000000E+00;  2.3718688E-04;  8.2571566E-01;
  4.5999965E-01;  9.9999998E-03;  6.0000002E-02;1760; -1.0733414E-03;  0.0000000E+00;  1.4931553E-05;  1.0000076E+03;  4.0000013E-01;  6.2220321E+00;3; -2.0535979E+00;  0.0000000E+00;  3.6692303E-02;0; -1.5294550E-02;  1.0000148E+04;  0.0000000E+00;  7.1807209E-12;  1.0000000E+04;  0.0000000E+00;  9.9999971E+03; -1.5585532E-02;  0.0000000E+00;  2.9098272E-04;  9.5574474E-01;
  4.5999965E-01;  9.9999998E-03;  8.0000006E-02;1761; -1.0713116E-03;  0.0000000E+00;  2.1734166E-05;  1.0000076E+03;  4.0000013E-01;  6.2220321E+00;3; -2.0506661E+00;  0.0000000E+00;  5.1966794E-02;0; -1.5217382E-02;  1.0000148E+04;  0.0000000E+00;  1.7901819E-11;  1.0000000E+04;  0.0000000E+00;  9.9999971E+03; -1.5582553E-02;  0.0000000E+00;  3.6517184E-04;  1.1410347E+00;
  4.5999965E-01;  9.9999998E-03;  1.0000001E-01;1762; -1.0688194E-03;  0.0000000E+00;  3.0187386E-05;  1.0000075E+03;  4.0000013E-01;  6.2220321E+00;3; -2.0477462E+00;  0.0000000E+00;  7.0410885E-02;0; -1.5117669E-02;  1.0000148E+04;  0.0000000E+00;  4.9417644E-11;  1.0000000E+04;  0.0000000E+00;  9.9999971E+03; -1.5575756E-02;  0.0000000E+00;  4.5808704E-04;  1.3832502E+00;
  4.5999965E-01;  9.9999998E-03;  1.2000001E-01;1763; -1.0659499E-03;  0.0000000E+00;  4.0478477E-05;  1.0000074E+03;  4.0000015E-01;  6.1232696E+00;3; -2.0455847E+00;  0.0000000E+00;  9.1787785E-02;0; -1.4993289E-02;  1.0000148E+04;  0.0000000E+00;  1.5598065E-10;  1.0000000E+04;  0.0000000E+00;  9.9999961E+03; -1.5562098E-02;  0.0000000E+00;  5.6880794E-04;  1.6876993E+00;
  4.5999965E-01;  9.9999998E-03;  1.4000002E-01;1764; -1.0626576E-03;  0.0000000E+00;  5.2685496E-05;  1.0000073E+03;  4.0000015E-01;  6.0245075E+00;3; -2.0444667E+00;  0.0000000E+00;  1.1660072E-01;0; -1.4837856E-02;  1.0000146E+04;  0.0000000E+00;  3.0970967E-10;  1.0000000E+04;  0.0000000E+00;  9.9999941E+03; -1.5539958E-02;  0.0000000E+00;  7.0210174E-04;  2.0761464E+00;
  4.7999951E-01;  9.9999998E-03; -2.0707235E-14;1788; -1.4769715E-03;  0.0000000E+00; -1.2114747E-11;  1.0000107E+03;  4.0000042E-01;  8.8886108E+00;3; -2.6845002E+00;  0.0000000E+00;  1.2344992E-07;0; -2.0090923E-02;  1.0000200E+04;  0.0000000E+00; -9.4438509E-17;  1.0000000E+04;  0.0000000E+00;  9.9999990E+03; -2.0352358E-02;  0.0000000E+00;  2.6143563E-04;  9.9221975E-01;
  4.7999951E-01;  9.9999998E-03;  2.0000001E-02;1789; -1.4766280E-03;  0.0000000E+00;  6.0135076E-06;  1.0000107E+03;  4.0000042E-01;  8.8886108E+00;3; -2.6838686E+00;  0.0000000E+00;  1.5229817E-02;0; -2.0076048E-02;  1.0000200E+04;  0.0000000E+00; -5.7084797E-12;  1.0000000E+04;  0.0000000E+00;  9.9999980E+03; -2.0353347E-02;  0.0000000E+00;  2.7729970E-04;  1.0293376E+00;
  4.7999951E-01;  9.9999998E-03;  4.0000003E-02;1790; -1.4756323E-03;  0.0000000E+00;  1.2581467E-05;  1.0000107E+03;  4.0000042E-01;  8.8886108E+00;3; -2.6821420E+00;  0.0000000E+00;  3.1371992E-02;0; -2.0031439E-02;  1.0000200E+04;  0.0000000E+00;  4.3386540E-13;  1.0000000E+04;  0.0000000E+00;  9.9999971E+03; -2.0356420E-02;  0.0000000E+00;  3.2498216E-04;  1.1424334E+00;
  4.7999951E-01;  9.9999998E-03;  6.0000006E-02;1791; -1.4740701E-03;  0.0000000E+00;  2.0335330E-05;  1.0000107E+03;  4.0000042E-01;  8.8886108E+00;3; -2.6797101E+00;  0.0000000E+00;  4.9697910E-02;0; -1.9957187E-02;  1.0000200E+04;  0.0000000E+00;  3.3283205E-12;  1.0000000E+04;  0.0000000E+00;  9.9999971E+03; -2.0361647E-02;  0.0000000E+00;  4.0446056E-04;  1.3358893E+00;
  4.7999951E-01;  9.9999998E-03;  8.0000006E-02;1792; -1.4721132E-03;  0.0000000E+00;  2.9862285E-05;  1.0000107E+03;  4.0000042E-01;  8.8886108E+00;3; -2.6773388E+00;  0.0000000E+00;  7.1063116E-02;0; -1.9853212E-02;  1.0000200E+04;  0.0000000E+00;  3.0642919E-11;  1.0000000E+04;  0.0000000E+00;  9.9999961E+03; -2.0368202E-02;  0.0000000E+00;  5.1498885E-04;  1.6152365E+00;
  4.7999951E-01;  9.9999998E-03;  1.0000001E-01;1793; -1.4699193E-03;  0.0000000E+00;  4.1965341E-05;  1.0000107E+03;  4.0000042E-01;  8.8886108E+00;3; -2.6758037E+00;  0.0000000E+00;  9.7388856E-02;0; -1.9718740E-02;  1.0000200E+04;  0.0000000E+00;  1.4745537E-10;  1.0000000E+04;  0.0000000E+00;  9.9999951E+03; -2.0373754E-02;  0.0000000E+00;  6.5501424E-04;  1.9875562E+00;
  4.7999951E-01;  9.9999998E-03;  1.2000001E-01;1794; -1.4676669E-03;  0.0000000E+00;  5.6861230E-05;  1.0000106E+03;  4.0000039E-01;  8.7898483E+00;3; -2.6763382E+00;  0.0000000E+00;  1.2801588E-01;0; -1.9550305E-02;  1.0000200E+04;  0.0000000E+00;  4.3762713E-10;  1.0000000E+04;  0.0000000E+00;  9.9999941E+03; -2.0374948E-02;  0.0000000E+00;  8.2464365E-04;  2.4698033E+00;
  4.7999951E-01;  9.9999998E-03;  1.4000002E-01;1795; -1.4650855E-03;  0.0000000E+00;  7.5231779E-05;  1.0000104E+03;  4.0000045E-01;  8.6910858E+00;3; -2.6789544E+00;  0.0000000E+00;  1.6519400E-01;0; -1.9337105E-02;  1.0000200E+04;  0.0000000E+00;  6.7667172E-10;  1.0000000E+04;  0.0000000E+00;  9.9999912E+03; -2.0370515E-02;  0.0000000E+00;  1.0334107E-03;  3.1115260E+00;
  4.9999928E-01;  9.9999998E-03;  6.4463824E-15;1819; -2.0159988E-03;  0.0000000E+00;  1.7020120E-10;  1.0000151E+03;  4.0000090E-01;  1.2542805E+01;3; -3.4782364E+00;  0.0000000E+00;  7.2742853E-07;0; -2.5450490E-02;  1.0000262E+04;  0.0000000E+00; -3.0412516E-17;  1.0000000E+04;  0.0000000E+00;  9.9999971E+03; -2.5796434E-02;  0.0000000E+00;  3.4594274E-04;  1.3174512E+00;
  4.9999928E-01;  9.9999998E-03;  2.0000001E-02;1820; -2.0156458E-03;  0.0000000E+00;  7.9591064E-06;  1.0000151E+03;  4.0000090E-01;  1.2542805E+01;3; -3.4775984E+00;  0.0000000E+00;  2.0173591E-02;0; -2.5430648E-02;  1.0000262E+04;  0.0000000E+00;  4.7494912E-12;  1.0000000E+04;  0.0000000E+00;  9.9999971E+03; -2.5799150E-02;  0.0000000E+00;  3.6850153E-04;  1.3701562E+00;
  4.9999928E-01;  9.9999998E-03;  4.0000003E-02;1821; -2.0146575E-03;  0.0000000E+00;  1.6732036E-05;  1.0000150E+03;  4.0000090E-01;  1.2444043E+01;3; -3.4759407E+00;  0.0000000E+00;  4.1758098E-02;0; -2.5371203E-02;  1.0000262E+04;  0.0000000E+00;  9.4826074E-12;  1.0000000E+04;  0.0000000E+00;  9.9999971E+03; -2.5807643E-02;  0.0000000E+00;  4.3644043E-04;  1.5312452E+00;
  4.9999928E-01;  9.9999998E-03;  6.0000006E-02;1822; -2.0132372E-03;  0.0000000E+00;  2.7204524E-05;  1.0000150E+03;  4.0000084E-01;  1.2345281E+01;3; -3.4739735E+00;  0.0000000E+00;  6.6505745E-02;0; -2.5272349E-02;  1.0000262E+04;  0.0000000E+00;  2.1692471E-11;  1.0000000E+04;  0.0000000E+00;  9.9999961E+03; -2.5822556E-02;  0.0000000E+00;  5.5020588E-04;  1.8087229E+00;
  4.9999928E-01;  9.9999998E-03;  8.0000013E-02;1823; -2.0116954E-03;  0.0000000E+00;  4.0369170E-05;  1.0000149E+03;  4.0000084E-01;  1.2345281E+01;3; -3.4728458E+00;  0.0000000E+00;  9.6175700E-02;0; -2.5134124E-02;  1.0000262E+04;  0.0000000E+00;  1.1465713E-10;  1.0000000E+04;  0.0000000E+00;  9.9999951E+03; -2.5843795E-02;  0.0000000E+00;  7.0967234E-04;  2.2142627E+00;
  4.9999928E-01;  9.9999998E-03;  1.0000002E-01;1824; -2.0103834E-03;  0.0000000E+00;  5.7289551E-05;  1.0000148E+03;  4.0000087E-01;  1.2246518E+01;3; -3.4740202E+00;  0.0000000E+00;  1.3274300E-01;0; -2.4955116E-02;  1.0000263E+04;  0.0000000E+00;  4.4039403E-10;  1.0000000E+04;  0.0000000E+00;  9.9999932E+03; -2.5869872E-02;  0.0000000E+00;  9.1475650E-04;  2.7672977E+00;
  4.9999928E-01;  9.9999998E-03;  1.2000002E-01;1825; -2.0094838E-03;  0.0000000E+00;  7.8756457E-05;  1.0000147E+03;  4.0000087E-01;  1.2147756E+01;3; -3.4789314E+00;  0.0000000E+00;  1.7716874E-01;0; -2.4727985E-02;  1.0000262E+04;  0.0000000E+00;  8.8870689E-10;  1.0000000E+04;  0.0000000E+00;  9.9999902E+03; -2.5898317E-02;  0.0000000E+00;  1.1703307E-03;  3.5140431E+00;
  4.9999928E-01;  9.9999998E-03;  1.4000003E-01;1826; -2.0083978E-03;  0.0000000E+00;  1.0607154E-04;  1.0000145E+03;  4.0000087E-01;  1.2048994E+01;3; -3.4876859E+00;  0.0000000E+00;  2.3189680E-01;0; -2.4430694E-02;  1.0000262E+04;  0.0000000E+00;  1.8967179E-09;  1.0000000E+04;  0.0000000E+00;  9.9999873E+03; -2.5929863E-02;  0.0000000E+00;  1.4991679E-03;  4.5693955E+00;
  5.1999897E-01;  9.9999998E-03; -3.4913217E-14;1850; -2.7199036E-03;  0.0000000E+00; -5.9414015E-11;  1.0000223E+03;  4.0000251E-01;  1.8468515E+01;3; -4.4670401E+00;  0.0000000E+00; -2.0689060E-07;0; -3.1006793E-02;  1.0000327E+04;  0.0000000E+00;  1.1364525E-16;  1.0000000E+04;  0.0000000E+00;  9.9999971E+03; -3.1455215E-02;  0.0000000E+00;  4.4842163E-04;  1.6845571E+00;
  5.1999897E-01;  9.9999998E-03;  2.0000003E-02;1851; -2.7195709E-03;  0.0000000E+00;  1.0343560E-05;  1.0000223E+03;  4.0000251E-01;  1.8468515E+01;3; -4.4664388E+00;  0.0000000E+00;  2.6340595E-02;0; -3.0980719E-02;  1.0000327E+04;  0.0000000E+00; -4.7729442E-12;  1.0000000E+04;  0.0000000E+00;  9.9999961E+03; -3.1460188E-02;  0.0000000E+00;  4.7946878E-04;  1.7565806E+00;
  5.1999897E-01;  9.9999998E-03;  4.0000007E-02;1852; -2.7186919E-03;  0.0000000E+00;  2.1881573E-05;  1.0000222E+03;  4.0000251E-01;  1.8369753E+01;3; -4.4650126E+00;  0.0000000E+00;  5.4899290E-02;0; -3.0902708E-02;  1.0000327E+04;  0.0000000E+00;  1.0103061E-11;  1.0000000E+04;  0.0000000E+00;  9.9999961E+03; -3.1475808E-02;  0.0000000E+00;  5.7310116E-04;  1.9771254E+00;
  5.1999897E-01;  9.9999998E-03;  6.0000010E-02;1853; -2.7176302E-03;  0.0000000E+00;  3.5826597E-05;  1.0000222E+03;  4.0000251E-01;  1.8369753E+01;3; -4.4638968E+00;  0.0000000E+00;  8.7967336E-02;0; -3.0773396E-02;  1.0000327E+04;  0.0000000E+00;  6.5831951E-11;  1.0000000E+04;  0.0000000E+00;  9.9999951E+03; -3.1503748E-02;  0.0000000E+00;  7.3035329E-04;  2.3588288E+00;
  5.1999897E-01;  9.9999998E-03;  8.0000013E-02;1854; -2.7168898E-03;  0.0000000E+00;  5.3802061E-05;  1.0000220E+03;  4.0000248E-01;  1.8270990E+01;3; -4.4647508E+00;  0.0000000E+00;  1.2876193E-01;0; -3.0593229E-02;  1.0000327E+04;  0.0000000E+00;  3.0375838E-10;  1.0000000E+04;  0.0000000E+00;  9.9999932E+03; -3.1545728E-02;  0.0000000E+00;  9.5249852E-04;  2.9235773E+00;
  5.1999897E-01;  9.9999998E-03;  1.0000002E-01;1855; -2.7170824E-03;  0.0000000E+00;  7.7313183E-05;  1.0000220E+03;  4.0000248E-01;  1.8172228E+01;3; -4.4700136E+00;  0.0000000E+00;  1.7962329E-01;0; -3.0358657E-02;  1.0000327E+04;  0.0000000E+00;  9.2305957E-10;  1.0000000E+04;  0.0000000E+00;  9.9999893E+03; -3.1602602E-02;  0.0000000E+00;  1.2439454E-03;  3.7169888E+00;
  5.1999897E-01;  9.9999998E-03;  1.2000003E-01;1856; -2.7183148E-03;  0.0000000E+00;  1.0801783E-04;  1.0000219E+03;  4.0000251E-01;  1.8073465E+01;3; -4.4813366E+00;  0.0000000E+00;  2.4326572E-01;0; -3.0052194E-02;  1.0000327E+04;  0.0000000E+00;  2.1136917E-09;  1.0000000E+04;  0.0000000E+00;  9.9999863E+03; -3.1675149E-02;  0.0000000E+00;  1.6229547E-03;  4.8513622E+00;
  5.1999897E-01;  9.9999998E-03;  1.4000005E-01;1857; -2.7194673E-03;  0.0000000E+00;  1.4779158E-04;  1.0000216E+03;  4.0000248E-01;  1.7875942E+01;3; -4.4988379E+00;  0.0000000E+00;  3.2166135E-01;0; -2.9624466E-02;  1.0000328E+04;  0.0000000E+00;  3.9940162E-09;  1.0000000E+04;  0.0000000E+00;  9.9999814E+03; -3.1769019E-02;  0.0000000E+00;  2.1445525E-03;  6.5842934E+00;
  5.3999859E-01;  9.9999998E-03;  1.9686404E-14;1881; -3.5980823E-03;  0.0000000E+00; -2.5610625E-10;  1.0000353E+03;  4.0000653E-01;  2.9233530E+01;3; -5.6599569E+00;  0.0000000E+00; -1.5221091E-06;0; -3.5956252E-02;  1.0000387E+04;  0.0000000E+00; -3.5873202E-18;  1.0000000E+04;  0.0000000E+00;  9.9999961E+03; -3.6524277E-02;  0.0000000E+00;  5.6802633E-04;  2.0619898E+00;
  5.3999859E-01;  9.9999998E-03;  2.0000003E-02;1882; -3.5978041E-03;  0.0000000E+00;  1.3222172E-05;  1.0000353E+03;  4.0000653E-01;  2.9233530E+01;3; -5.6594477E+00;  0.0000000E+00;  3.3889972E-02;0; -3.5922550E-02;  1.0000387E+04;  0.0000000E+00;  3.3545282E-12;  1.0000000E+04;  0.0000000E+00;  9.9999961E+03; -3.6531955E-02;  0.0000000E+00;  6.0940685E-04;  2.1564951E+00;
  5.3999859E-01;  9.9999998E-03;  4.0000007E-02;1883; -3.5971403E-03;  0.0000000E+00;  2.8188162E-05;  1.0000353E+03;  4.0000650E-01;  2.9233530E+01;3; -5.6584229E+00;  0.0000000E+00;  7.1249314E-02;0; -3.5822004E-02;  1.0000388E+04;  0.0000000E+00;  2.8247384E-11;  1.0000000E+04;  0.0000000E+00;  9.9999951E+03; -3.6556222E-02;  0.0000000E+00;  7.3421828E-04;  2.4459994E+00;
  5.3999859E-01;  9.9999998E-03;  6.0000010E-02;1884; -3.5966488E-03;  0.0000000E+00;  4.6552541E-05;  1.0000352E+03;  4.0000650E-01;  2.9134768E+01;3; -5.6585121E+00;  0.0000000E+00;  1.1508515E-01;0; -3.5656191E-02;  1.0000388E+04;  0.0000000E+00;  1.5105353E-10;  1.0000000E+04;  0.0000000E+00;  9.9999932E+03; -3.6600377E-02;  0.0000000E+00;  9.4418536E-04;  2.9487860E+00;
  5.3999859E-01;  9.9999998E-03;  8.0000021E-02;1885; -3.5971354E-03;  0.0000000E+00;  7.0811147E-05;  1.0000351E+03;  4.0000650E-01;  2.9036005E+01;3; -5.6622467E+00;  0.0000000E+00;  1.7056669E-01;0; -3.5425548E-02;  1.0000388E+04;  0.0000000E+00;  5.7555227E-10;  1.0000000E+04;  0.0000000E+00;  9.9999902E+03; -3.6669031E-02;  0.0000000E+00;  1.2434816E-03;  3.7042501E+00;
  5.3999859E-01;  9.9999998E-03;  1.0000002E-01;1886; -3.5994437E-03;  0.0000000E+00;  1.0304808E-04;  1.0000350E+03;  4.0000650E-01;  2.8937244E+01;3; -5.6728587E+00;  0.0000000E+00;  2.4055414E-01;0; -3.5120297E-02;  1.0000390E+04;  0.0000000E+00;  1.7788891E-09;  1.0000000E+04;  0.0000000E+00;  9.9999863E+03; -3.6767561E-02;  0.0000000E+00;  1.6472643E-03;  4.8107471E+00;
  5.3999859E-01;  9.9999998E-03;  1.2000004E-01;1887; -3.6035876E-03;  0.0000000E+00;  1.4622552E-04;  1.0000347E+03;  4.0000647E-01;  2.8739719E+01;3; -5.6926041E+00;  0.0000000E+00;  3.2997602E-01;0; -3.4698050E-02;  1.0000391E+04;  0.0000000E+00;  3.9981143E-09;  1.0000000E+04;  0.0000000E+00;  9.9999814E+03; -3.6903083E-02;  0.0000000E+00;  2.2050340E-03;  6.5177264E+00;
  5.3999859E-01;  9.9999998E-03;  1.4000006E-01;1888; -3.6079073E-03;  0.0000000E+00;  2.0264555E-04;  1.0000344E+03;  4.0000647E-01;  2.8443434E+01;3; -5.7217808E+00;  0.0000000E+00;  4.4061333E-01;0; -3.4047529E-02;  1.0000392E+04;  0.0000000E+00;  7.5561868E-09;  1.0000000E+04;  0.0000000E+00;  9.9999727E+03; -3.7088443E-02;  0.0000000E+00;  3.0409126E-03;  9.3668261E+00;
  5.5999815E-01;  9.9999998E-03; -1.6606110E-14;1912; -4.6272762E-03;  0.0000000E+00;  2.7726019E-10;  1.0000648E+03;  4.0001750E-01;  5.3726357E+01;3; -7.0301213E+00;  0.0000000E+00;  1.8044536E-06;0; -3.9168391E-02;  1.0000429E+04;  0.0000000E+00;  1.1294912E-16;  1.0000000E+04;  0.0000000E+00;  9.9999951E+03; -3.9869908E-02;  0.0000000E+00;  7.0151628E-04;  2.4011467E+00;
  5.5999815E-01;  9.9999998E-03;  2.0000003E-02;1913; -4.6270788E-03;  0.0000000E+00;  1.6658918E-05;  1.0000648E+03;  4.0001750E-01;  5.3726357E+01;3; -7.0297637E+00;  0.0000000E+00;  4.2996958E-02;0; -3.9125383E-02;  1.0000429E+04;  0.0000000E+00;  8.1422993E-12;  1.0000000E+04;  0.0000000E+00;  9.9999951E+03; -3.9880469E-02;  0.0000000E+00;  7.5508811E-04;  2.5203228E+00;
  5.5999815E-01;  9.9999998E-03;  4.0000007E-02;1914; -4.6267188E-03;  0.0000000E+00;  3.5716785E-05;  1.0000648E+03;  4.0001753E-01;  5.3627594E+01;3; -7.0293040E+00;  0.0000000E+00;  9.0912513E-02;0; -3.8997512E-02;  1.0000429E+04;  0.0000000E+00;  6.6902810E-11;  1.0000000E+04;  0.0000000E+00;  9.9999932E+03; -3.9914012E-02;  0.0000000E+00;  9.1649842E-04;  2.8850989E+00;
  5.5999815E-01;  9.9999998E-03;  6.0000014E-02;1915; -4.6270373E-03;  0.0000000E+00;  5.9564740E-05;  1.0000647E+03;  4.0001753E-01;  5.3627594E+01;3; -7.0310912E+00;  0.0000000E+00;  1.4828740E-01;0; -3.8787518E-02;  1.0000429E+04;  0.0000000E+00;  2.7272387E-10;  1.0000000E+04;  0.0000000E+00;  9.9999922E+03; -3.9975863E-02;  0.0000000E+00;  1.1883449E-03;  3.5210533E+00;
  5.5999815E-01;  9.9999998E-03;  8.0000021E-02;1916; -4.6291440E-03;  0.0000000E+00;  9.1663438E-05;  1.0000645E+03;  4.0001747E-01;  5.3430073E+01;3; -7.0384378E+00;  0.0000000E+00;  2.2239372E-01;0; -3.8493961E-02;  1.0000431E+04;  0.0000000E+00;  9.7280484E-10;  1.0000000E+04;  0.0000000E+00;  9.9999873E+03; -4.0074561E-02;  0.0000000E+00;  1.5806009E-03;  4.4981365E+00;
  5.5999815E-01;  9.9999998E-03;  1.0000003E-01;1917; -4.6342532E-03;  0.0000000E+00;  1.3496513E-04;  1.0000643E+03;  4.0001750E-01;  5.3331310E+01;3; -7.0560346E+00;  0.0000000E+00;  3.1625620E-01;0; -3.8090587E-02;  1.0000433E+04;  0.0000000E+00;  2.7718556E-09;  1.0000000E+04;  0.0000000E+00;  9.9999824E+03; -4.0221773E-02;  0.0000000E+00;  2.1311853E-03;  6.0152431E+00;
  5.5999815E-01;  9.9999998E-03;  1.2000005E-01;1918; -4.6422505E-03;  0.0000000E+00;  1.9414694E-04;  1.0000640E+03;  4.0001747E-01;  5.3035027E+01;3; -7.0865493E+00;  0.0000000E+00;  4.3967938E-01;0; -3.7480224E-02;  1.0000434E+04;  0.0000000E+00;  5.9904708E-09;  1.0000000E+04;  0.0000000E+00;  9.9999756E+03; -4.0432919E-02;  0.0000000E+00;  2.9526951E-03;  8.5794001E+00;
  5.5999815E-01;  9.9999998E-03;  1.4000008E-01;1919; -4.6505639E-03;  0.0000000E+00;  2.7247664E-04;  1.0000635E+03;  4.0001747E-01;  5.2541218E+01;3; -7.1306367E+00;  0.0000000E+00;  5.9174830E-01;0; -3.6429364E-02;  1.0000436E+04;  0.0000000E+00;  1.0346497E-08;  1.0000000E+04;  0.0000000E+00;  9.9999619E+03; -4.0727999E-02;  0.0000000E+00;  4.2986362E-03;  1.3240452E+01;
  5.7999766E-01;  9.9999998E-03; -2.4107880E-13;1943; -5.7379925E-03;  0.0000000E+00; -1.1592460E-10;  1.0001380E+03;  4.0004665E-01;  1.1436565E+02;3; -8.4965954E+00;  0.0000000E+00;  2.2524910E-06;0; -3.9273430E-02;  1.0000435E+04;  0.0000000E+00; -1.2139782E-16;  1.0000000E+04;  0.0000000E+00;  9.9999941E+03; -4.0116746E-02;  0.0000000E+00;  8.4331480E-04;  2.6417935E+00;
  5.7999766E-01;  9.9999998E-03;  2.0000005E-02;1944; -5.7378900E-03;  0.0000000E+00;  2.0584312E-05;  1.0001380E+03;  4.0004665E-01;  1.1436565E+02;3; -8.4964056E+00;  0.0000000E+00;  5.3392243E-02;0; -3.9218772E-02;  1.0000435E+04;  0.0000000E+00;  1.5298748E-11;  1.0000000E+04;  0.0000000E+00;  9.9999941E+03; -4.0129766E-02;  0.0000000E+00;  9.1099390E-04;  2.7868278E+00;
  5.7999766E-01;  9.9999998E-03;  4.0000010E-02;1945; -5.7379296E-03;  0.0000000E+00;  4.4277382E-05;  1.0001379E+03;  4.0004665E-01;  1.1426688E+02;3; -8.4967365E+00;  0.0000000E+00;  1.1319427E-01;0; -3.9056707E-02;  1.0000435E+04;  0.0000000E+00;  8.2540287E-11;  1.0000000E+04;  0.0000000E+00;  9.9999922E+03; -4.0171258E-02;  0.0000000E+00;  1.1145495E-03;  3.2301099E+00;
  5.7999766E-01;  9.9999998E-03;  6.0000017E-02;1946; -5.7392074E-03;  0.0000000E+00;  7.4775773E-05;  1.0001378E+03;  4.0004665E-01;  1.1416812E+02;3; -8.5005207E+00;  0.0000000E+00;  1.8716602E-01;0; -3.8790677E-02;  1.0000436E+04;  0.0000000E+00;  3.6663964E-10;  1.0000000E+04;  0.0000000E+00;  9.9999893E+03; -4.0248539E-02;  0.0000000E+00;  1.4578622E-03;  4.0075617E+00;
  5.7999766E-01;  9.9999998E-03;  8.0000028E-02;1947; -5.7433387E-03;  0.0000000E+00;  1.1595197E-04;  1.0001376E+03;  4.0004662E-01;  1.1406936E+02;3; -8.5123329E+00;  0.0000000E+00;  2.8259316E-01;0; -3.8412202E-02;  1.0000437E+04;  0.0000000E+00;  1.1834072E-09;  1.0000000E+04;  0.0000000E+00;  9.9999844E+03; -4.0374205E-02;  0.0000000E+00;  1.9620019E-03;  5.2417121E+00;
  5.7999766E-01;  9.9999998E-03;  1.0000005E-01;1948; -5.7519018E-03;  0.0000000E+00;  1.7305357E-04;  1.0001374E+03;  4.0004665E-01;  1.1387183E+02;3; -8.5383072E+00;  0.0000000E+00;  4.0755588E-01;0; -3.7858967E-02;  1.0000438E+04;  0.0000000E+00;  3.2340124E-09;  1.0000000E+04;  0.0000000E+00;  9.9999775E+03; -4.0566325E-02;  0.0000000E+00;  2.7073575E-03;  7.3066068E+00;
  5.7999766E-01;  9.9999998E-03;  1.2000006E-01;1949; -5.7648933E-03;  0.0000000E+00;  2.5137037E-04;  1.0001370E+03;  4.0004665E-01;  1.1347679E+02;3; -8.5816774E+00;  0.0000000E+00;  5.7246631E-01;0; -3.6930189E-02;  1.0000439E+04;  0.0000000E+00;  7.1977984E-09;  1.0000000E+04;  0.0000000E+00;  9.9999678E+03; -4.0847719E-02;  0.0000000E+00;  3.9175306E-03;  1.1142035E+01;
  5.7999766E-01;  9.9999998E-03;  1.4000010E-01;1950; -5.7807919E-03;  0.0000000E+00;  3.5253828E-04;  1.0001360E+03;  4.0004662E-01;  1.1268670E+02;3; -8.6456442E+00;  0.0000000E+00;  7.6991642E-01;0; -3.5182845E-02;  1.0000443E+04;  0.0000000E+00;  1.1064729E-08;  1.0000000E+04;  0.0000000E+00;  9.9999453E+03; -4.1242421E-02;  0.0000000E+00;  6.0595744E-03;  1.8613974E+01;
  5.9999722E-01;  9.9999998E-03; -7.4312518E-14;1974; -6.8301405E-03;  0.0000000E+00;  7.3719564E-10;  1.0003209E+03;  4.0012076E-01;  2.6586435E+02;3; -9.9390116E+00;  0.0000000E+00;  6.1009487E-06;0; -3.4905486E-02;  1.0000389E+04;  0.0000000E+00;  7.8814629E-17;  1.0000000E+04;  0.0000000E+00;  9.9999941E+03; -3.5891939E-02;  0.0000000E+00;  9.8645338E-04;  2.7255206E+00;
  5.9999722E-01;  9.9999998E-03;  2.0000005E-02;1975; -6.8301372E-03;  0.0000000E+00;  2.4703841E-05;  1.0003209E+03;  4.0012076E-01;  2.6586435E+02;3; -9.9390030E+00;  0.0000000E+00;  6.4076416E-02;0; -3.4835793E-02;  1.0000389E+04;  0.0000000E+00;  2.1361378E-11;  1.0000000E+04;  0.0000000E+00;  9.9999922E+03; -3.5906091E-02;  0.0000000E+00;  1.0702967E-03;  2.8969903E+00;
  5.9999722E-01;  9.9999998E-03;  4.0000014E-02;1976; -6.8306471E-03;  0.0000000E+00;  5.3585169E-05;  1.0003208E+03;  4.0012076E-01;  2.6576559E+02;3; -9.9403000E+00;  0.0000000E+00;  1.3723625E-01;0; -3.4629505E-02;  1.0000389E+04;  0.0000000E+00;  7.8244300E-11;  1.0000000E+04;  0.0000000E+00;  9.9999912E+03; -3.5951458E-02;  0.0000000E+00;  1.3219542E-03;  3.4203277E+00;
  5.9999722E-01;  9.9999998E-03;  6.0000021E-02;1977; -6.8329950E-03;  0.0000000E+00;  9.1317910E-05;  1.0003206E+03;  4.0012082E-01;  2.6566684E+02;3; -9.9462481E+00;  0.0000000E+00;  2.2926083E-01;0; -3.4288988E-02;  1.0000390E+04;  0.0000000E+00;  3.5125644E-10;  1.0000000E+04;  0.0000000E+00;  9.9999873E+03; -3.6036503E-02;  0.0000000E+00;  1.7475161E-03;  4.3470912E+00;
  5.9999722E-01;  9.9999998E-03;  8.0000035E-02;1978; -6.8395520E-03;  0.0000000E+00;  1.4287888E-04;  1.0003204E+03;  4.0012079E-01;  2.6546930E+02;3; -9.9634533E+00;  0.0000000E+00;  3.4915027E-01;0; -3.3789247E-02;  1.0000391E+04;  0.0000000E+00;  1.1351960E-09;  1.0000000E+04;  0.0000000E+00;  9.9999814E+03; -3.6176447E-02;  0.0000000E+00;  2.3871979E-03;  5.8840222E+00;
  5.9999722E-01;  9.9999998E-03;  1.0000005E-01;1979; -6.8526291E-03;  0.0000000E+00;  2.1435796E-04;  1.0003201E+03;  4.0012074E-01;  2.6517303E+02;3; -9.9989634E+00;  0.0000000E+00;  5.0946712E-01;0; -3.3002608E-02;  1.0000393E+04;  0.0000000E+00;  3.0838250E-09;  1.0000000E+04;  0.0000000E+00;  9.9999736E+03; -3.6393244E-02;  0.0000000E+00;  3.3906365E-03;  8.6779766E+00;
  5.9999722E-01;  9.9999998E-03;  1.2000008E-01;1980; -6.8744132E-03;  0.0000000E+00;  3.0953519E-04;  1.0003193E+03;  4.0012074E-01;  2.6458044E+02;3; -1.0060896E+01;  0.0000000E+00;  7.1281582E-01;0; -3.1560477E-02;  1.0000394E+04;  0.0000000E+00;  7.0887953E-09;  1.0000000E+04;  0.0000000E+00;  9.9999561E+03; -3.6713127E-02;  0.0000000E+00;  5.1526506E-03;  1.4317180E+01;
  5.9999716E-01;  9.9999998E-03;  1.4000012E-01;1981; -6.9041564E-03;  0.0000000E+00;  4.3249756E-04;  1.0003179E+03;  4.0012076E-01;  2.6329657E+02;3; -1.0154699E+01;  0.0000000E+00;  9.6158129E-01;0; -2.8705325E-02;  1.0000397E+04;  0.0000000E+00;  9.2964889E-09;  1.0000000E+04;  0.0000000E+00;  9.9999219E+03; -3.7158616E-02;  0.0000000E+00;  8.4532918E-03;  2.5845030E+01;
  6.1999673E-01;  9.9999998E-03; -2.5100329E-13;2005; -7.8424364E-03;  0.0000000E+00; -2.0982331E-10;  1.0007396E+03;  4.0029034E-01;  6.1270892E+02;3; -1.1234511E+01;  0.0000000E+00; -2.4650653E-06;0; -2.5136121E-02;  1.0000281E+04;  0.0000000E+00;  4.5413006E-17;  1.0000000E+04;  0.0000000E+00;  9.9999922E+03; -2.6260328E-02;  0.0000000E+00;  1.1242061E-03;  2.6153896E+00;
  6.1999673E-01;  9.9999998E-03;  2.0000007E-02;2006; -7.8428416E-03;  0.0000000E+00;  2.8071127E-05;  1.0007396E+03;  4.0029034E-01;  6.1270892E+02;3; -1.1235517E+01;  0.0000000E+00;  7.2615638E-02;0; -2.5047125E-02;  1.0000281E+04;  0.0000000E+00;  6.9868018E-12;  1.0000000E+04;  0.0000000E+00;  9.9999912E+03; -2.6273534E-02;  0.0000000E+00;  1.2264079E-03;  2.8138492E+00;
  6.1999673E-01;  9.9999998E-03;  4.0000014E-02;2007; -7.8444751E-03;  0.0000000E+00;  6.1369450E-05;  1.0007396E+03;  4.0029034E-01;  6.1270892E+02;3; -1.1239454E+01;  0.0000000E+00;  1.5648505E-01;0; -2.4783138E-02;  1.0000281E+04;  0.0000000E+00;  3.5350060E-11;  1.0000000E+04;  0.0000000E+00;  9.9999902E+03; -2.6315726E-02;  0.0000000E+00;  1.5325873E-03;  3.4190736E+00;
  6.1999673E-01;  9.9999998E-03;  6.0000025E-02;2008; -7.8492388E-03;  0.0000000E+00;  1.0563278E-04;  1.0007394E+03;  4.0029037E-01;  6.1251135E+02;3; -1.1251161E+01;  0.0000000E+00;  2.6419029E-01;0; -2.4342680E-02;  1.0000281E+04;  0.0000000E+00;  2.2157107E-10;  1.0000000E+04;  0.0000000E+00;  9.9999844E+03; -2.6395246E-02;  0.0000000E+00;  2.0525667E-03;  4.5056381E+00;
  6.1999673E-01;  9.9999998E-03;  8.0000043E-02;2009; -7.8597143E-03;  0.0000000E+00;  1.6712955E-04;  1.0007391E+03;  4.0029037E-01;  6.1231384E+02;3; -1.1276798E+01;  0.0000000E+00;  4.0921080E-01;0; -2.3671521E-02;  1.0000283E+04;  0.0000000E+00;  8.4707324E-10;  1.0000000E+04;  0.0000000E+00;  9.9999785E+03; -2.6526922E-02;  0.0000000E+00;  2.8554017E-03;  6.4010077E+00;
  6.1999673E-01;  9.9999998E-03;  1.0000006E-01;2010; -7.8800414E-03;  0.0000000E+00;  2.5140715E-04;  1.0007385E+03;  4.0029040E-01;  6.1182007E+02;3; -1.1326434E+01;  0.0000000E+00;  6.0395992E-01;0; -2.2542942E-02;  1.0000284E+04;  0.0000000E+00;  2.6780969E-09;  1.0000000E+04;  0.0000000E+00;  9.9999668E+03; -2.6732085E-02;  0.0000000E+00;  4.1891434E-03;  1.0128678E+01;
  6.1999673E-01;  9.9999998E-03;  1.2000009E-01;2011; -7.9143932E-03;  0.0000000E+00;  3.6273152E-04;  1.0007374E+03;  4.0029037E-01;  6.1093121E+02;3; -1.1414217E+01;  0.0000000E+00;  8.5021907E-01;0; -2.0352554E-02;  1.0000287E+04;  0.0000000E+00;  6.2058847E-09;  1.0000000E+04;  0.0000000E+00;  9.9999424E+03; -2.7034171E-02;  0.0000000E+00;  6.6816178E-03;  1.8143692E+01;
  6.1999673E-01;  9.9999998E-03;  1.4000013E-01;2012; -7.9610478E-03;  0.0000000E+00;  5.0956663E-04;  1.0007350E+03;  4.0029040E-01;  6.0895599E+02;3; -1.1536391E+01;  0.0000000E+00;  1.1703193E+00;0; -1.5925385E-02;  1.0000291E+04;  0.0000000E+00;  5.6421823E-09;  1.0000000E+04;  0.0000000E+00;  9.9998916E+03; -2.7448744E-02;  0.0000000E+00;  1.1523359E-02;  3.5019531E+01;
  6.3999635E-01;  9.9999998E-03;  6.0526067E-14;2036; -8.7348642E-03;  0.0000000E+00;  7.5770779E-10;  1.0015077E+03;  4.0060094E-01;  1.2490112E+03;3; -1.2354346E+01;  0.0000000E+00; -6.3798507E-07;0; -9.9854795E-03;  1.0000116E+04;  0.0000000E+00;  2.9463379E-16;  1.0000000E+04;  0.0000000E+00;  9.9999912E+03; -1.1237473E-02;  0.0000000E+00;  1.2519934E-03;  2.3157759E+00;
  6.3999635E-01;  9.9999998E-03;  2.0000007E-02;2037; -8.7360283E-03;  0.0000000E+00;  2.8201601E-05;  1.0015077E+03;  4.0060094E-01;  1.2490112E+03;3; -1.2357113E+01;  0.0000000E+00;  7.2831295E-02;0; -9.8722847E-03;  1.0000116E+04;  0.0000000E+00;  3.8730954E-12;  1.0000000E+04;  0.0000000E+00;  9.9999912E+03; -1.1246963E-02;  0.0000000E+00;  1.3746785E-03;  2.5421388E+00;
  6.3999635E-01;  9.9999998E-03;  4.0000014E-02;2038; -8.7399203E-03;  0.0000000E+00;  6.3280611E-05;  1.0015075E+03;  4.0060091E-01;  1.2489125E+03;3; -1.2366386E+01;  0.0000000E+00;  1.6172332E-01;0; -9.5357215E-03;  1.0000116E+04;  0.0000000E+00;  1.7862331E-11;  1.0000000E+04;  0.0000000E+00;  9.9999883E+03; -1.1277412E-02;  0.0000000E+00;  1.7416904E-03;  3.2324853E+00;
  6.3999635E-01;  9.9999998E-03;  6.0000025E-02;2039; -8.7485118E-03;  0.0000000E+00;  1.1056630E-04;  1.0015073E+03;  4.0060091E-01;  1.2487150E+03;3; -1.2386720E+01;  0.0000000E+00;  2.7716243E-01;0; -8.9668985E-03;  1.0000117E+04;  0.0000000E+00;  1.0194547E-10;  1.0000000E+04;  0.0000000E+00;  9.9999824E+03; -1.1335080E-02;  0.0000000E+00;  2.3681822E-03;  4.4917607E+00;
  6.3999635E-01;  9.9999998E-03;  8.0000043E-02;2040; -8.7650772E-03;  0.0000000E+00;  1.8057584E-04;  1.0015070E+03;  4.0060091E-01;  1.2484187E+03;3; -1.2426508E+01;  0.0000000E+00;  4.4434869E-01;0; -8.0705583E-03;  1.0000118E+04;  0.0000000E+00;  4.9662924E-10;  1.0000000E+04;  0.0000000E+00;  9.9999756E+03; -1.1431184E-02;  0.0000000E+00;  3.3606249E-03;  6.7996397E+00;
  6.3999635E-01;  9.9999998E-03;  1.0000007E-01;2041; -8.7929498E-03;  0.0000000E+00;  2.8100662E-04;  1.0015062E+03;  4.0060094E-01;  1.2478262E+03;3; -1.2492170E+01;  0.0000000E+00;  6.8417656E-01;0; -6.4917472E-03;  1.0000119E+04;  0.0000000E+00;  1.9029511E-09;  1.0000000E+04;  0.0000000E+00;  9.9999580E+03; -1.1581165E-02;  0.0000000E+00;  5.0894176E-03;  1.1639988E+01;
  6.3999635E-01;  9.9999998E-03;  1.2000010E-01;2042; -8.8392291E-03;  0.0000000E+00;  4.1696290E-04;  1.0015046E+03;  4.0060091E-01;  1.2465422E+03;3; -1.2601185E+01;  0.0000000E+00;  1.0013210E+00;0; -3.3362266E-03;  1.0000122E+04;  0.0000000E+00;  5.0791158E-09;  1.0000000E+04;  0.0000000E+00;  9.9999258E+03; -1.1800235E-02;  0.0000000E+00;  8.4640086E-03;  2.2504139E+01;
  6.3999629E-01;  9.9999998E-03;  1.4000015E-01;2043; -8.9095095E-03;  0.0000000E+00;  5.8730977E-04;  1.0015013E+03;  4.0060094E-01;  1.2437770E+03;3; -1.2767697E+01;  0.0000000E+00;  1.3917873E+00;0;  3.0664587E-03;  1.0000124E+04;  0.0000000E+00;  1.5739517E-09;  1.0000000E+04;  0.0000000E+00;  9.9998584E+03; -1.2092783E-02;  0.0000000E+00;  1.5159242E-02;  4.5759838E+01;
  6.5999609E-01;  9.9999998E-03; -2.7177006E-14;2067; -9.3463045E-03;  0.0000000E+00;  2.1046118E-09;  1.0024722E+03;  4.0099084E-01;  2.0480513E+03;3; -1.3155749E+01;  0.0000000E+00;  1.3019308E-05;0;  9.1425776E-03;  9.9999121E+03;  0.0000000E+00;  5.5207495E-16;  1.0000000E+04;  0.0000000E+00;  9.9999912E+03;  7.7740196E-03;  0.0000000E+00;  1.3685583E-03;  1.8843974E+00;
  6.5999609E-01;  9.9999998E-03;  2.0000007E-02;2068; -9.3484595E-03;  0.0000000E+00;  2.7328790E-05;  1.0024721E+03;  4.0099084E-01;  2.0480513E+03;3; -1.3161002E+01;  0.0000000E+00;  7.1231581E-02;0;  9.2838928E-03;  9.9999121E+03;  0.0000000E+00;  1.2296857E-12;  1.0000000E+04;  0.0000000E+00;  9.9999902E+03;  7.7705663E-03;  0.0000000E+00;  1.5133268E-03;  2.1397443E+00;
  6.5999609E-01;  9.9999998E-03;  4.0000014E-02;2069; -9.3558980E-03;  0.0000000E+00;  6.3598818E-05;  1.0024719E+03;  4.0099084E-01;  2.0478539E+03;3; -1.3179533E+01;  0.0000000E+00;  1.6392601E-01;0;  9.7052054E-03;  9.9999121E+03;  0.0000000E+00; -2.2611185E-11;  1.0000000E+04;  0.0000000E+00;  9.9999863E+03;  7.7593103E-03;  0.0000000E+00;  1.9458950E-03;  2.9188194E+00;
  6.5999609E-01;  9.9999998E-03;  6.0000028E-02;2070; -9.3697868E-03;  0.0000000E+00;  1.1707809E-04;  1.0024717E+03;  4.0099078E-01;  2.0476564E+03;3; -1.3213359E+01;  0.0000000E+00;  2.9530838E-01;0;  1.0424867E-02;  9.9999121E+03;  0.0000000E+00; -2.9828113E-12;  1.0000000E+04;  0.0000000E+00;  9.9999805E+03;  7.7373651E-03;  0.0000000E+00;  2.6875027E-03;  4.3608961E+00;
  6.5999609E-01;  9.9999998E-03;  8.0000050E-02;2071; -9.3936799E-03;  0.0000000E+00;  2.0052434E-04;  1.0024712E+03;  4.0099087E-01;  2.0472614E+03;3; -1.3271544E+01;  0.0000000E+00;  4.9718529E-01;0;  1.1585849E-02;  9.9999131E+03;  0.0000000E+00;  2.5218033E-10;  1.0000000E+04;  0.0000000E+00;  9.9999717E+03;  7.6995604E-03;  0.0000000E+00;  3.8862887E-03;  7.1135392E+00;
  6.5999609E-01;  9.9999998E-03;  1.0000008E-01;2072; -9.4311982E-03;  0.0000000E+00;  3.2371888E-04;  1.0024702E+03;  4.0099084E-01;  2.0464712E+03;3; -1.3362398E+01;  0.0000000E+00;  7.9352486E-01;0;  1.3685836E-02;  9.9999131E+03;  0.0000000E+00;  1.4716889E-09;  1.0000000E+04;  0.0000000E+00;  9.9999502E+03;  7.6394780E-03;  0.0000000E+00;  6.0463585E-03;  1.3159424E+01;
  6.5999603E-01;  9.9999998E-03;  1.2000012E-01;2073; -9.4865579E-03;  0.0000000E+00;  4.9272383E-04;  1.0024682E+03;  4.0099084E-01;  2.0447924E+03;3; -1.3493894E+01;  0.0000000E+00;  1.1958472E+00;0;  1.7933909E-02;  9.9999141E+03;  0.0000000E+00;  4.4244213E-09;  1.0000000E+04;  0.0000000E+00;  9.9999092E+03;  7.5531937E-03;  0.0000000E+00;  1.0380715E-02;  2.7099342E+01;
  6.5999603E-01;  9.9999998E-03;  1.4000018E-01;2074; -9.5655601E-03;  0.0000000E+00;  7.0379011E-04;  1.0024638E+03;  4.0099087E-01;  2.0411383E+03;3; -1.3676425E+01;  0.0000000E+00;  1.6852341E+00;0;  2.6527179E-02;  9.9999160E+03;  0.0000000E+00;  1.3151109E-10;  1.0000000E+04;  0.0000000E+00;  9.9998193E+03;  7.4479617E-03;  0.0000000E+00;  1.9079218E-02;  5.7201298E+01;
  6.7999613E-01;  9.9999998E-03;  4.4625601E-13;2098; -9.3207862E-03;  0.0000000E+00;  9.9706292E-11;  1.0032382E+03;  4.0130144E-01;  2.6826326E+03;3; -1.3385159E+01;  0.0000000E+00; -2.5422778E-06;0;  2.9332347E-02;  9.9997031E+03;  0.0000000E+00;  3.0063605E-16;  1.0000000E+04;  0.0000000E+00;  9.9999902E+03;  2.7856916E-02;  0.0000000E+00;  1.4754302E-03;  1.4272989E+00;
  6.7999613E-01;  9.9999998E-03;  2.0000005E-02;2099; -9.3227327E-03;  0.0000000E+00;  2.5308451E-05;  1.0032381E+03;  4.0130144E-01;  2.6825337E+03;3; -1.3390358E+01;  0.0000000E+00;  6.7910001E-02;0;  2.9503008E-02;  9.9997031E+03;  0.0000000E+00; -5.9860918E-12;  1.0000000E+04;  0.0000000E+00;  9.9999893E+03;  2.7860254E-02;  0.0000000E+00;  1.6427543E-03;  1.7121384E+00;
  6.7999613E-01;  9.9999998E-03;  4.0000014E-02;2100; -9.3291188E-03;  0.0000000E+00;  6.1132174E-05;  1.0032380E+03;  4.0130144E-01;  2.6824351E+03;3; -1.3406787E+01;  0.0000000E+00;  1.6066326E-01;0;  3.0012671E-02;  9.9997031E+03;  0.0000000E+00; -1.1046950E-11;  1.0000000E+04;  0.0000000E+00;  9.9999854E+03;  2.7870594E-02;  0.0000000E+00;  2.1420773E-03;  2.5811453E+00;
  6.7999613E-01;  9.9999998E-03;  6.0000028E-02;2101; -9.3417410E-03;  0.0000000E+00;  1.1975782E-04;  1.0032376E+03;  4.0130144E-01;  2.6821387E+03;3; -1.3439574E+01;  0.0000000E+00;  3.0848154E-01;0;  3.0888973E-02;  9.9997021E+03;  0.0000000E+00; -5.3023072E-11;  1.0000000E+04;  0.0000000E+00;  9.9999785E+03;  2.7888877E-02;  0.0000000E+00;  3.0000953E-03;  4.2063541E+00;
  6.7999613E-01;  9.9999998E-03;  8.0000050E-02;2102; -9.3633253E-03;  0.0000000E+00;  2.1465730E-04;  1.0032371E+03;  4.0130144E-01;  2.6816450E+03;3; -1.3493952E+01;  0.0000000E+00;  5.4177278E-01;0;  3.2321557E-02;  9.9997021E+03;  0.0000000E+00;  1.2022709E-10;  1.0000000E+04;  0.0000000E+00;  9.9999668E+03;  2.7916709E-02;  0.0000000E+00;  4.4048503E-03;  7.3970618E+00;
  6.7999613E-01;  9.9999998E-03;  1.0000008E-01;2103; -9.3983561E-03;  0.0000000E+00;  3.5896801E-04;  1.0032359E+03;  4.0130147E-01;  2.6807561E+03;3; -1.3581039E+01;  0.0000000E+00;  8.9266187E-01;0;  3.4946375E-02;  9.9997021E+03;  0.0000000E+00;  1.1238809E-09;  1.0000000E+04;  0.0000000E+00;  9.9999434E+03;  2.7957128E-02;  0.0000000E+00;  6.9892458E-03;  1.4615697E+01;
  6.7999613E-01;  9.9999998E-03;  1.2000014E-01;2104; -9.4512040E-03;  0.0000000E+00;  5.5768673E-04;  1.0032332E+03;  4.0130147E-01;  2.6784846E+03;3; -1.3712188E+01;  0.0000000E+00;  1.3742502E+00;0;  4.0275235E-02;  9.9997021E+03;  0.0000000E+00;  3.7687324E-09;  1.0000000E+04;  0.0000000E+00;  9.9998916E+03;  2.8016752E-02;  0.0000000E+00;  1.2258483E-02;  3.1527502E+01;
  6.7999613E-01;  9.9999998E-03;  1.4000019E-01;2105; -9.5275193E-03;  0.0000000E+00;  8.0657110E-04;  1.0032278E+03;  4.0130150E-01;  2.6740405E+03;3; -1.3898101E+01;  0.0000000E+00;  1.9750550E+00;0;  5.1007550E-02;  9.9997012E+03;  0.0000000E+00;  2.7406730E-09;  1.0000000E+04;  0.0000000E+00;  9.9997842E+03;  2.8110854E-02;  0.0000000E+00;  2.2896696E-02;  6.8218933E+01;
  6.9999677E-01;  9.9999998E-03;  1.1980676E-12;2129; -8.0448044E-03;  0.0000000E+00;  2.3220506E-10;  1.0036535E+03;  4.0147111E-01;  3.0266404E+03;3; -1.2025656E+01;  0.0000000E+00; -1.1748023E-05;0;  4.6703067E-02;  9.9995283E+03;  0.0000000E+00; -3.0068224E-16;  1.0000000E+04;  0.0000000E+00;  9.9999893E+03;  4.5128401E-02;  0.0000000E+00;  1.5746650E-03;  1.0685529E+00;
  6.9999677E-01;  9.9999998E-03;  2.0000005E-02;2130; -8.0456696E-03;  0.0000000E+00;  2.1708909E-05;  1.0036535E+03;  4.0147111E-01;  3.0266404E+03;3; -1.2027938E+01;  0.0000000E+00;  5.7326492E-02;0;  4.6900760E-02;  9.9995283E+03;  0.0000000E+00; -1.1126294E-11;  1.0000000E+04;  0.0000000E+00;  9.9999873E+03;  4.5137256E-02;  0.0000000E+00;  1.7635028E-03;  1.3820575E+00;
  6.9999677E-01;  9.9999998E-03;  4.0000014E-02;2131; -8.0487924E-03;  0.0000000E+00;  5.6295583E-05;  1.0036533E+03;  4.0147117E-01;  3.0264429E+03;3; -1.2036085E+01;  0.0000000E+00;  1.4597532E-01;0;  4.7491521E-02;  9.9995283E+03;  0.0000000E+00; -2.4187733E-11;  1.0000000E+04;  0.0000000E+00;  9.9999844E+03;  4.5165326E-02;  0.0000000E+00;  2.3261937E-03;  2.3375745E+00;
  6.9999677E-01;  9.9999998E-03;  6.0000028E-02;2132; -8.0558555E-03;  0.0000000E+00;  1.1885566E-04;  1.0036530E+03;  4.0147117E-01;  3.0261465E+03;3; -1.2054207E+01;  0.0000000E+00;  3.0270490E-01;0;  4.8509941E-02;  9.9995273E+03;  0.0000000E+00; -4.8615251E-11;  1.0000000E+04;  0.0000000E+00;  9.9999766E+03;  4.5216933E-02;  0.0000000E+00;  3.2930095E-03;  4.1332717E+00;
  6.9999677E-01;  9.9999998E-03;  8.0000058E-02;2133; -8.0698319E-03;  0.0000000E+00;  2.2611801E-04;  1.0036522E+03;  4.0147114E-01;  3.0255540E+03;3; -1.2089554E+01;  0.0000000E+00;  5.6825471E-01;0;  5.0184391E-02;  9.9995273E+03;  0.0000000E+00;  1.1278178E-10;  1.0000000E+04;  0.0000000E+00;  9.9999629E+03;  4.5299605E-02;  0.0000000E+00;  4.8847883E-03;  7.7143955E+00;
  6.9999677E-01;  9.9999998E-03;  1.0000009E-01;2134; -8.0948891E-03;  0.0000000E+00;  3.9172321E-04;  1.0036509E+03;  4.0147108E-01;  3.0244678E+03;3; -1.2152246E+01;  0.0000000E+00;  9.7567904E-01;0;  5.3267948E-02;  9.9995254E+03;  0.0000000E+00;  8.5292506E-10;  1.0000000E+04;  0.0000000E+00;  9.9999365E+03;  4.5424011E-02;  0.0000000E+00;  7.8439359E-03;  1.5953279E+01;
  6.9999677E-01;  9.9999998E-03;  1.2000015E-01;2135; -8.1359260E-03;  0.0000000E+00;  6.1967713E-04;  1.0036478E+03;  4.0147114E-01;  3.0219001E+03;3; -1.2254154E+01;  0.0000000E+00;  1.5343831E+00;0;  5.9531074E-02;  9.9995244E+03;  0.0000000E+00;  3.1153236E-09;  1.0000000E+04;  0.0000000E+00;  9.9998770E+03;  4.5604166E-02;  0.0000000E+00;  1.3926909E-02;  3.5430546E+01;
  6.9999671E-01;  9.9999998E-03;  1.4000022E-01;2136; -8.1976848E-03;  0.0000000E+00;  9.0110116E-04;  1.0036414E+03;  4.0147114E-01;  3.0165674E+03;3; -1.2406716E+01;  0.0000000E+00;  2.2223637E+00;0;  7.2103329E-02;  9.9995234E+03;  0.0000000E+00;  3.9664734E-09;  1.0000000E+04;  0.0000000E+00;  9.9997510E+03;  4.5857850E-02;  0.0000000E+00;  2.6245480E-02;  7.7803658E+01;
  7.1999776E-01;  9.9999998E-03;  2.3641652E-13;2160; -5.6523914E-03;  0.0000000E+00;  1.0404955E-09;  1.0038334E+03;  4.0154523E-01;  3.1755742E+03;3; -8.5145969E+00;  0.0000000E+00;  6.1898318E-06;0;  5.7881568E-02;  9.9994209E+03;  0.0000000E+00;  1.8190289E-16;  1.0000000E+04;  0.0000000E+00;  9.9999893E+03;  5.6215405E-02;  0.0000000E+00;  1.6661626E-03;  8.9835531E-01;
  7.1999776E-01;  9.9999998E-03;  2.0000005E-02;2161; -5.6530111E-03;  0.0000000E+00;  2.3496070E-05;  1.0038334E+03;  4.0154523E-01;  3.1755742E+03;3; -8.5162449E+00;  0.0000000E+00;  6.2025502E-02;0;  5.8101568E-02;  9.9994209E+03;  0.0000000E+00; -2.4772343E-12;  1.0000000E+04;  0.0000000E+00;  9.9999873E+03;  5.6227572E-02;  0.0000000E+00;  1.8739973E-03;  1.2379402E+00;
  7.1999776E-01;  9.9999998E-03;  4.0000014E-02;2162; -5.6553022E-03;  0.0000000E+00;  6.1221785E-05;  1.0038331E+03;  4.0154523E-01;  3.1753767E+03;3; -8.5222502E+00;  0.0000000E+00;  1.5869501E-01;0;  5.8758654E-02;  9.9994199E+03;  0.0000000E+00; -1.7796599E-12;  1.0000000E+04;  0.0000000E+00;  9.9999824E+03;  5.6266349E-02;  0.0000000E+00;  2.4923042E-03;  2.2711763E+00;
  7.1999776E-01;  9.9999998E-03;  6.0000032E-02;2163; -5.6606564E-03;  0.0000000E+00;  1.2991911E-04;  1.0038327E+03;  4.0154520E-01;  3.1749817E+03;3; -8.5360117E+00;  0.0000000E+00;  3.3084324E-01;0;  5.9891205E-02;  9.9994199E+03;  0.0000000E+00;  8.2625974E-13;  1.0000000E+04;  0.0000000E+00;  9.9999746E+03;  5.6338616E-02;  0.0000000E+00;  3.5525882E-03;  4.2131410E+00;
  7.1999776E-01;  9.9999998E-03;  8.0000058E-02;2164; -5.6715775E-03;  0.0000000E+00;  2.4807316E-04;  1.0038319E+03;  4.0154523E-01;  3.1742905E+03;3; -8.5636330E+00;  0.0000000E+00;  6.2352622E-01;0;  6.1754383E-02;  9.9994189E+03;  0.0000000E+00;  1.0879099E-10;  1.0000000E+04;  0.0000000E+00;  9.9999609E+03;  5.6455784E-02;  0.0000000E+00;  5.2985977E-03;  8.1086092E+00;
  7.1999770E-01;  9.9999998E-03;  1.0000011E-01;2165; -5.6915800E-03;  0.0000000E+00;  4.3073049E-04;  1.0038304E+03;  4.0154523E-01;  3.1731055E+03;3; -8.6137123E+00;  0.0000000E+00;  1.0732713E+00;0;  6.5188043E-02;  9.9994170E+03;  0.0000000E+00;  6.4250699E-10;  1.0000000E+04;  0.0000000E+00;  9.9999316E+03;  5.6633417E-02;  0.0000000E+00;  8.5546291E-03;  1.7140205E+01;
  7.1999770E-01;  9.9999998E-03;  1.2000017E-01;2166; -5.7247430E-03;  0.0000000E+00;  6.8209931E-04;  1.0038270E+03;  4.0154526E-01;  3.1702417E+03;3; -8.6961889E+00;  0.0000000E+00;  1.6899970E+00;0;  7.2158799E-02;  9.9994160E+03;  0.0000000E+00;  2.1520332E-09;  1.0000000E+04;  0.0000000E+00;  9.9998652E+03;  5.6889147E-02;  0.0000000E+00;  1.5269652E-02;  3.8592625E+01;
  7.1999770E-01;  9.9999998E-03;  1.4000024E-01;2167; -5.7747886E-03;  0.0000000E+00;  9.9210546E-04;  1.0038199E+03;  4.0154526E-01;  3.1644153E+03;3; -8.8200665E+00;  0.0000000E+00;  2.4487190E+00;0;  8.6127669E-02;  9.9994131E+03;  0.0000000E+00;  4.2823411E-09;  1.0000000E+04;  0.0000000E+00;  9.9997266E+03;  5.7239376E-02;  0.0000000E+00;  2.8888289E-02;  8.5346123E+01;
  7.3999864E-01;  9.9999998E-03;  1.7255591E-12;2191; -3.4136747E-03;  0.0000000E+00;  2.0462114E-09;  1.0039047E+03;  4.0157437E-01;  3.2345085E+03;3; -5.1502614E+00;  0.0000000E+00; -4.1218591E-06;0;  6.1664511E-02;  9.9993896E+03;  0.0000000E+00; -1.6523970E-17;  1.0000000E+04;  0.0000000E+00;  9.9999883E+03;  5.9918258E-02;  0.0000000E+00;  1.7462536E-03;  9.3138814E-01;
  7.3999864E-01;  9.9999998E-03;  2.0000005E-02;2192; -3.4141247E-03;  0.0000000E+00;  2.5048934E-05;  1.0039047E+03;  4.0157440E-01;  3.2345085E+03;3; -5.1514673E+00;  0.0000000E+00;  6.6141658E-02;0;  6.1901167E-02;  9.9993896E+03;  0.0000000E+00; -3.5112651E-12;  1.0000000E+04;  0.0000000E+00;  9.9999863E+03;  5.9931684E-02;  0.0000000E+00;  1.9694841E-03;  1.2927840E+00;
  7.3999864E-01;  9.9999998E-03;  4.0000014E-02;2193; -3.4157890E-03;  0.0000000E+00;  6.5349835E-05;  1.0039044E+03;  4.0157440E-01;  3.2343110E+03;3; -5.1558270E+00;  0.0000000E+00;  1.6943458E-01;0;  6.2607273E-02;  9.9993896E+03;  0.0000000E+00; -7.0723206E-12;  1.0000000E+04;  0.0000000E+00;  9.9999824E+03;  5.9974682E-02;  0.0000000E+00;  2.6325912E-03;  2.3902235E+00;
  7.3999864E-01;  9.9999998E-03;  6.0000032E-02;2194; -3.4196940E-03;  0.0000000E+00;  1.3884871E-04;  1.0039040E+03;  4.0157434E-01;  3.2339160E+03;3; -5.1658497E+00;  0.0000000E+00;  3.5366383E-01;0;  6.3821808E-02;  9.9993896E+03;  0.0000000E+00;  1.7366131E-11;  1.0000000E+04;  0.0000000E+00;  9.9999736E+03;  6.0055420E-02;  0.0000000E+00;  3.7663898E-03;  4.4471183E+00;
  7.3999864E-01;  9.9999998E-03;  8.0000065E-02;2195; -3.4276508E-03;  0.0000000E+00;  2.6534987E-04;  1.0039031E+03;  4.0157437E-01;  3.2332249E+03;3; -5.1859708E+00;  0.0000000E+00;  6.6708404E-01;0;  6.5815009E-02;  9.9993887E+03;  0.0000000E+00;  9.5775471E-11;  1.0000000E+04;  0.0000000E+00;  9.9999580E+03;  6.0187280E-02;  0.0000000E+00;  5.6277257E-03;  8.5706234E+00;
  7.3999864E-01;  9.9999998E-03;  1.0000011E-01;2196; -3.4422390E-03;  0.0000000E+00;  4.6093538E-04;  1.0039016E+03;  4.0157440E-01;  3.2319412E+03;3; -5.2224870E+00;  0.0000000E+00;  1.1487446E+00;0;  6.9481783E-02;  9.9993867E+03;  0.0000000E+00;  4.0355072E-10;  1.0000000E+04;  0.0000000E+00;  9.9999277E+03;  6.0387712E-02;  0.0000000E+00;  9.0940725E-03;  1.8149673E+01;
  7.3999864E-01;  9.9999998E-03;  1.2000018E-01;2197; -3.4664243E-03;  0.0000000E+00;  7.2992453E-04;  1.0038979E+03;  4.0157440E-01;  3.2288799E+03;3; -5.2826266E+00;  0.0000000E+00;  1.8087757E+00;0;  7.6920070E-02;  9.9993848E+03;  0.0000000E+00;  1.5197056E-09;  1.0000000E+04;  0.0000000E+00;  9.9998574E+03;  6.0675245E-02;  0.0000000E+00;  1.6244823E-02;  4.0949642E+01;
  7.3999864E-01;  9.9999998E-03;  1.4000025E-01;2198; -3.5027759E-03;  0.0000000E+00;  1.0611069E-03;  1.0038904E+03;  4.0157440E-01;  3.2226587E+03;3; -5.3726144E+00;  0.0000000E+00;  2.6194119E+00;0;  9.1819949E-02;  9.9993818E+03;  0.0000000E+00;  3.3206988E-09;  1.0000000E+04;  0.0000000E+00;  9.9997090E+03;  6.1063673E-02;  0.0000000E+00;  3.0756276E-02;  9.0702225E+01;
  7.5999933E-01;  9.9999998E-03;  1.3358071E-12;2222; -1.6998888E-03;  0.0000000E+00; -3.0925551E-10;  1.0039337E+03;  4.0158540E-01;  3.2583420E+03;3; -2.5767691E+00;  0.0000000E+00; -9.3916024E-06;0;  5.9368949E-02;  9.9994180E+03;  0.0000000E+00;  2.8526018E-17;  1.0000000E+04;  0.0000000E+00;  9.9999873E+03;  5.7559568E-02;  0.0000000E+00;  1.8093821E-03;  1.1096566E+00;
  7.5999933E-01;  9.9999998E-03;  2.0000005E-02;2223; -1.7001706E-03;  0.0000000E+00;  2.6101403E-05;  1.0039336E+03;  4.0158540E-01;  3.2582434E+03;3; -2.5775228E+00;  0.0000000E+00;  6.8961509E-02;0;  5.9616636E-02;  9.9994180E+03;  0.0000000E+00; -1.5630607E-12;  1.0000000E+04;  0.0000000E+00;  9.9999863E+03;  5.7572793E-02;  0.0000000E+00;  2.0438428E-03;  1.4873480E+00;
  7.5999933E-01;  9.9999998E-03;  4.0000014E-02;2224; -1.7012183E-03;  0.0000000E+00;  6.8148118E-05;  1.0039333E+03;  4.0158543E-01;  3.2580459E+03;3; -2.5802591E+00;  0.0000000E+00;  1.7678183E-01;0;  6.0354818E-02;  9.9994180E+03;  0.0000000E+00; -7.9275345E-12;  1.0000000E+04;  0.0000000E+00;  9.9999814E+03;  5.7615392E-02;  0.0000000E+00;  2.7394274E-03;  2.6322436E+00;
  7.5999933E-01;  9.9999998E-03;  6.0000036E-02;2225; -1.7036651E-03;  0.0000000E+00;  1.4491561E-04;  1.0039329E+03;  4.0158540E-01;  3.2576509E+03;3; -2.5865195E+00;  0.0000000E+00;  3.6924767E-01;0;  6.1621148E-02;  9.9994180E+03;  0.0000000E+00;  5.2619124E-12;  1.0000000E+04;  0.0000000E+00;  9.9999727E+03;  5.7695895E-02;  0.0000000E+00;  3.9252527E-03;  4.7700491E+00;
  7.5999933E-01;  9.9999998E-03;  8.0000065E-02;2226; -1.7086599E-03;  0.0000000E+00;  2.7713875E-04;  1.0039321E+03;  4.0158537E-01;  3.2570583E+03;3; -2.5991206E+00;  0.0000000E+00;  6.9689345E-01;0;  6.3691601E-02;  9.9994170E+03;  0.0000000E+00;  4.2730153E-11;  1.0000000E+04;  0.0000000E+00;  9.9999570E+03;  5.7828035E-02;  0.0000000E+00;  5.8635655E-03;  9.0397854E+00;
  7.5999933E-01;  9.9999998E-03;  1.0000011E-01;2227; -1.7178418E-03;  0.0000000E+00;  4.8161071E-04;  1.0039304E+03;  4.0158543E-01;  3.2555774E+03;3; -2.6220701E+00;  0.0000000E+00;  1.2004682E+00;0;  6.7489773E-02;  9.9994160E+03;  0.0000000E+00;  2.1436375E-10;  1.0000000E+04;  0.0000000E+00;  9.9999248E+03;  5.8029108E-02;  0.0000000E+00;  9.4606653E-03;  1.8946861E+01;
  7.5999933E-01;  9.9999998E-03;  1.2000018E-01;2228; -1.7330839E-03;  0.0000000E+00;  7.6266122E-04;  1.0039266E+03;  4.0158540E-01;  3.2524175E+03;3; -2.6599360E+00;  0.0000000E+00;  1.8901252E+00;0;  7.5188719E-02;  9.9994131E+03;  0.0000000E+00;  7.0514744E-10;  1.0000000E+04;  0.0000000E+00;  9.9998525E+03;  5.8316745E-02;  0.0000000E+00;  1.6871972E-02;  4.2539635E+01;
  7.5999933E-01;  9.9999998E-03;  1.4000027E-01;2229; -1.7559195E-03;  0.0000000E+00;  1.1080590E-03;  1.0039188E+03;  4.0158543E-01;  3.2459993E+03;3; -2.7164371E+00;  0.0000000E+00;  2.7355072E+00;0;  9.0616770E-02;  9.9994111E+03;  0.0000000E+00;  1.6815334E-09;  1.0000000E+04;  0.0000000E+00;  9.9996992E+03;  5.8702409E-02;  0.0000000E+00;  3.1914361E-02;  9.4064995E+01;
  7.7999979E-01;  9.9999998E-03; -8.9654315E-13;2253; -4.6884007E-04;  0.0000000E+00; -5.9121441E-10;  1.0039469E+03;  4.0158948E-01;  3.2690823E+03;3; -7.2730464E-01;  0.0000000E+00;  6.6838693E-06;0;  5.3717628E-02;  9.9994805E+03;  0.0000000E+00; -2.9963002E-16;  1.0000000E+04;  0.0000000E+00;  9.9999873E+03;  5.1867113E-02;  0.0000000E+00;  1.8505143E-03;  1.3411516E+00;
  7.7999979E-01;  9.9999998E-03;  2.0000005E-02;2254; -4.6896856E-04;  0.0000000E+00;  2.6671414E-05;  1.0039468E+03;  4.0158945E-01;  3.2689836E+03;3; -7.2763819E-01;  0.0000000E+00;  7.0518032E-02;0;  5.3971272E-02;  9.9994805E+03;  0.0000000E+00; -2.5693490E-12;  1.0000000E+04;  0.0000000E+00;  9.9999863E+03;  5.1879365E-02;  0.0000000E+00;  2.0919070E-03;  1.7289577E+00;
  7.7999979E-01;  9.9999998E-03;  4.0000018E-02;2255; -4.6942916E-04;  0.0000000E+00;  6.9682006E-05;  1.0039465E+03;  4.0158948E-01;  3.2687861E+03;3; -7.2882676E-01;  0.0000000E+00;  1.8086031E-01;0;  5.4726586E-02;  9.9994795E+03;  0.0000000E+00; -3.1788615E-12;  1.0000000E+04;  0.0000000E+00;  9.9999814E+03;  5.1919173E-02;  0.0000000E+00;  2.8074121E-03;  2.9029832E+00;
  7.7999979E-01;  9.9999998E-03;  6.0000036E-02;2256; -4.7051921E-04;  0.0000000E+00;  1.4825669E-04;  1.0039460E+03;  4.0158945E-01;  3.2683911E+03;3; -7.3159003E-01;  0.0000000E+00;  3.7790880E-01;0;  5.6019109E-02;  9.9994795E+03;  0.0000000E+00;  1.4231233E-12;  1.0000000E+04;  0.0000000E+00;  9.9999717E+03;  5.1994845E-02;  0.0000000E+00;  4.0242621E-03;  5.0878243E+00;
  7.7999979E-01;  9.9999998E-03;  8.0000065E-02;2257; -4.7274990E-04;  0.0000000E+00;  2.8367547E-04;  1.0039453E+03;  4.0158945E-01;  3.2677988E+03;3; -7.3717988E-01;  0.0000000E+00;  7.1351290E-01;0;  5.8124747E-02;  9.9994785E+03;  0.0000000E+00;  1.7147088E-11;  1.0000000E+04;  0.0000000E+00;  9.9999561E+03;  5.2119557E-02;  0.0000000E+00;  6.0051894E-03;  9.4327068E+00;
  7.7999979E-01;  9.9999998E-03;  1.0000012E-01;2258; -4.7687962E-04;  0.0000000E+00;  4.9315917E-04;  1.0039435E+03;  4.0158951E-01;  3.2663179E+03;3; -7.4744266E-01;  0.0000000E+00;  1.2294357E+00;0;  6.1976679E-02;  9.9994775E+03;  0.0000000E+00;  4.4677095E-11;  1.0000000E+04;  0.0000000E+00;  9.9999219E+03;  5.2309364E-02;  0.0000000E+00;  9.6673146E-03;  1.9490499E+01;
  7.7999979E-01;  9.9999998E-03;  1.2000019E-01;2259; -4.8376614E-04;  0.0000000E+00;  7.8101549E-04;  1.0039398E+03;  4.0158951E-01;  3.2632568E+03;3; -7.6451510E-01;  0.0000000E+00;  1.9357688E+00;0;  6.9779739E-02;  9.9994746E+03;  0.0000000E+00;  1.3570044E-10;  1.0000000E+04;  0.0000000E+00;  9.9998496E+03;  5.2580111E-02;  0.0000000E+00;  1.7199632E-02;  4.3435005E+01;
  7.7999979E-01;  9.9999998E-03;  1.4000027E-01;2260; -4.9406092E-04;  0.0000000E+00;  1.1342590E-03;  1.0039318E+03;  4.0158948E-01;  3.2566416E+03;3; -7.8994447E-01;  0.0000000E+00;  2.8002846E+00;0;  8.5427538E-02;  9.9994727E+03;  0.0000000E+00;  4.6432774E-10;  1.0000000E+04;  0.0000000E+00;  9.9996934E+03;  5.2941658E-02;  0.0000000E+00;  3.2485880E-02;  9.5752640E+01;
  8.0000019E-01;  9.9999998E-03; -9.7666634E-13;2284;  4.7559678E-04;  0.0000000E+00; -4.7810360E-09;  1.0039511E+03;  4.0158981E-01;  3.2722410E+03;3;  6.9524807E-01;  0.0000000E+00; -9.1614784E-06;0;  4.7351461E-02;  9.9995449E+03;  0.0000000E+00; -6.4472003E-16;  1.0000000E+04;  0.0000000E+00;  9.9999873E+03;  4.5484673E-02;  0.0000000E+00;  1.8667871E-03;  1.5441177E+00;
  8.0000019E-01;  9.9999998E-03;  2.0000007E-02;2285;  4.7560968E-04;  0.0000000E+00;  2.6816640E-05;  1.0039509E+03;  4.0158981E-01;  3.2721421E+03;3;  6.9528657E-01;  0.0000000E+00;  7.0953593E-02;0;  4.7606934E-02;  9.9995449E+03;  0.0000000E+00;  1.0688626E-13;  1.0000000E+04;  0.0000000E+00;  9.9999863E+03;  4.5495953E-02;  0.0000000E+00;  2.1109795E-03;  1.9357275E+00;
  8.0000019E-01;  9.9999998E-03;  4.0000018E-02;2286;  4.7566849E-04;  0.0000000E+00;  7.0071386E-05;  1.0039506E+03;  4.0158984E-01;  3.2718459E+03;3;  6.9546044E-01;  0.0000000E+00;  1.8197586E-01;0;  4.8366938E-02;  9.9995449E+03;  0.0000000E+00; -1.4692933E-14;  1.0000000E+04;  0.0000000E+00;  9.9999814E+03;  4.5532554E-02;  0.0000000E+00;  2.8343843E-03;  3.1203036E+00;
  8.0000019E-01;  9.9999998E-03;  6.0000036E-02;2287;  4.7580388E-04;  0.0000000E+00;  1.4913044E-04;  1.0039502E+03;  4.0158987E-01;  3.2715498E+03;3;  6.9585490E-01;  0.0000000E+00;  3.8027972E-01;0;  4.9665041E-02;  9.9995439E+03;  0.0000000E+00; -7.6762392E-13;  1.0000000E+04;  0.0000000E+00;  9.9999717E+03;  4.5602392E-02;  0.0000000E+00;  4.0626489E-03;  5.3195710E+00;
  8.0000019E-01;  9.9999998E-03;  8.0000065E-02;2288;  4.7606896E-04;  0.0000000E+00;  2.8546277E-04;  1.0039493E+03;  4.0158981E-01;  3.2707600E+03;3;  6.9659609E-01;  0.0000000E+00;  7.1816534E-01;0;  5.1773749E-02;  9.9995439E+03;  0.0000000E+00;  1.8320758E-13;  1.0000000E+04;  0.0000000E+00;  9.9999561E+03;  4.5717638E-02;  0.0000000E+00;  6.0561099E-03;  9.6779585E+00;
  8.0000019E-01;  9.9999998E-03;  1.0000012E-01;2289;  4.7650692E-04;  0.0000000E+00;  4.9642456E-04;  1.0039476E+03;  4.0158981E-01;  3.2693777E+03;3;  6.9776392E-01;  0.0000000E+00;  1.2377305E+00;0;  5.5623010E-02;  9.9995420E+03;  0.0000000E+00; -6.4070190E-13;  1.0000000E+04;  0.0000000E+00;  9.9999219E+03;  4.5892965E-02;  0.0000000E+00;  9.7300448E-03;  1.9744287E+01;
  8.0000019E-01;  9.9999998E-03;  1.2000019E-01;2290;  4.7716251E-04;  0.0000000E+00;  7.8629761E-04;  1.0039439E+03;  4.0158978E-01;  3.2663171E+03;3;  6.9947511E-01;  0.0000000E+00;  1.9489820E+00;0;  6.3417397E-02;  9.9995400E+03;  0.0000000E+00; -6.6755243E-12;  1.0000000E+04;  0.0000000E+00;  9.9998486E+03;  4.6142332E-02;  0.0000000E+00;  1.7275063E-02;  4.3695244E+01;
  8.0000019E-01;  9.9999998E-03;  1.4000028E-01;2291;  4.7815766E-04;  0.0000000E+00;  1.1417258E-03;  1.0039359E+03;  4.0158984E-01;  3.2597024E+03;3;  7.0199418E-01;  0.0000000E+00;  2.8187737E+00;0;  7.9058304E-02;  9.9995391E+03;  0.0000000E+00; -7.0682134E-11;  1.0000000E+04;  0.0000000E+00;  9.9996924E+03;  4.6474326E-02;  0.0000000E+00;  3.2583978E-02;  9.6036095E+01;
  8.2000053E-01;  9.9999998E-03;  1.0019173E-12;2315;  1.3374644E-03;  0.0000000E+00;  6.3993494E-10;  1.0039514E+03;  4.0158883E-01;  3.2721360E+03;3;  1.9972222E+00;  0.0000000E+00; -1.2885052E-05;0;  4.1791413E-02;  9.9996006E+03;  0.0000000E+00; -9.3007161E-16;  1.0000000E+04;  0.0000000E+00;  9.9999873E+03;  3.9933056E-02;  0.0000000E+00;  1.8583590E-03;  1.6760806E+00;
  8.2000053E-01;  9.9999998E-03;  2.0000005E-02;2316;  1.3376066E-03;  0.0000000E+00;  2.6568325E-05;  1.0039513E+03;  4.0158883E-01;  3.2720374E+03;3;  1.9976201E+00;  0.0000000E+00;  7.0342317E-02;0;  4.2045236E-02;  9.9996006E+03;  0.0000000E+00; -1.3363120E-12;  1.0000000E+04;  0.0000000E+00;  9.9999863E+03;  3.9943714E-02;  0.0000000E+00;  2.1015222E-03;  2.0654202E+00;
  8.2000053E-01;  9.9999998E-03;  4.0000018E-02;2317;  1.3381358E-03;  0.0000000E+00;  6.9437345E-05;  1.0039510E+03;  4.0158883E-01;  3.2717412E+03;3;  1.9990351E+00;  0.0000000E+00;  1.8042009E-01;0;  4.2799920E-02;  9.9996006E+03;  0.0000000E+00;  1.9333749E-12;  1.0000000E+04;  0.0000000E+00;  9.9999814E+03;  3.9978251E-02;  0.0000000E+00;  2.8216694E-03;  3.2426233E+00;
  8.2000053E-01;  9.9999998E-03;  6.0000036E-02;2318;  1.3393590E-03;  0.0000000E+00;  1.4782476E-04;  1.0039506E+03;  4.0158883E-01;  3.2714451E+03;3;  2.0022302E+00;  0.0000000E+00;  3.7707278E-01;0;  4.4087183E-02;  9.9995996E+03;  0.0000000E+00;  2.9782925E-12;  1.0000000E+04;  0.0000000E+00;  9.9999717E+03;  4.0043917E-02;  0.0000000E+00;  4.0432652E-03;  5.4251733E+00;
  8.2000053E-01;  9.9999998E-03;  8.0000065E-02;2319;  1.3418460E-03;  0.0000000E+00;  2.8304072E-04;  1.0039498E+03;  4.0158883E-01;  3.2707539E+03;3;  2.0085895E+00;  0.0000000E+00;  7.1218908E-01;0;  4.6174120E-02;  9.9995996E+03;  0.0000000E+00;  9.6718085E-12;  1.0000000E+04;  0.0000000E+00;  9.9999561E+03;  4.0151875E-02;  0.0000000E+00;  6.0222447E-03;  9.7407923E+00;
  8.2000053E-01;  9.9999998E-03;  1.0000012E-01;2320;  1.3463461E-03;  0.0000000E+00;  4.9234158E-04;  1.0039480E+03;  4.0158880E-01;  3.2692732E+03;3;  2.0199370E+00;  0.0000000E+00;  1.2276534E+00;0;  4.9977850E-02;  9.9995986E+03;  0.0000000E+00;  2.5055453E-11;  1.0000000E+04;  0.0000000E+00;  9.9999229E+03;  4.0315602E-02;  0.0000000E+00;  9.6622491E-03;  1.9692192E+01;
  8.2000053E-01;  9.9999998E-03;  1.2000019E-01;2321;  1.3537279E-03;  0.0000000E+00;  7.7996316E-04;  1.0039443E+03;  4.0158883E-01;  3.2662131E+03;3;  2.0383623E+00;  0.0000000E+00;  1.9333470E+00;0;  5.7677571E-02;  9.9995967E+03;  0.0000000E+00;  8.4357299E-11;  1.0000000E+04;  0.0000000E+00;  9.9998496E+03;  4.0547714E-02;  0.0000000E+00;  1.7129857E-02;  4.3357193E+01;
  8.2000053E-01;  9.9999998E-03;  1.4000027E-01;2322;  1.3648260E-03;  0.0000000E+00;  1.1325087E-03;  1.0039364E+03;  4.0158883E-01;  3.2596978E+03;3;  2.0658870E+00;  0.0000000E+00;  2.7960391E+00;0;  7.3135532E-02;  9.9995947E+03;  0.0000000E+00; -1.5092818E-11;  1.0000000E+04;  0.0000000E+00;  9.9996963E+03;  4.0856212E-02;  0.0000000E+00;  3.2279320E-02;  9.5074532E+01;
  8.4000087E-01;  9.9999998E-03;  9.0249070E-13;2346;  2.2255511E-03;  0.0000000E+00;  3.3264407E-09;  1.0038895E+03;  4.0156314E-01;  3.2203699E+03;3;  3.3403151E+00;  0.0000000E+00;  6.8276131E-06;0;  3.7200734E-02;  9.9996465E+03;  0.0000000E+00; -1.2321067E-16;  1.0000000E+04;  0.0000000E+00;  9.9999873E+03;  3.5372213E-02;  0.0000000E+00;  1.8285207E-03;  1.7393391E+00;
  8.4000087E-01;  9.9999998E-03;  2.0000005E-02;2347;  2.2258062E-03;  0.0000000E+00;  2.5983632E-05;  1.0038894E+03;  4.0156314E-01;  3.2202710E+03;3;  3.3410046E+00;  0.0000000E+00;  6.8842568E-02;0;  3.7450057E-02;  9.9996465E+03;  0.0000000E+00; -2.7000106E-12;  1.0000000E+04;  0.0000000E+00;  9.9999863E+03;  3.5382897E-02;  0.0000000E+00;  2.0671603E-03;  2.1207981E+00;
  8.4000087E-01;  9.9999998E-03;  4.0000014E-02;2348;  2.2267641E-03;  0.0000000E+00;  6.7908157E-05;  1.0038892E+03;  4.0156314E-01;  3.2200737E+03;3;  3.3435509E+00;  0.0000000E+00;  1.7651938E-01;0;  3.8191114E-02;  9.9996465E+03;  0.0000000E+00; -8.0463620E-13;  1.0000000E+04;  0.0000000E+00;  9.9999814E+03;  3.5417277E-02;  0.0000000E+00;  2.7738349E-03;  3.2739534E+00;
  8.4000087E-01;  9.9999998E-03;  6.0000036E-02;2349;  2.2289783E-03;  0.0000000E+00;  1.4459193E-04;  1.0038887E+03;  4.0156314E-01;  3.2196790E+03;3;  3.3492970E+00;  0.0000000E+00;  3.6891466E-01;0;  3.9454088E-02;  9.9996455E+03;  0.0000000E+00;  1.9194724E-12;  1.0000000E+04;  0.0000000E+00;  9.9999717E+03;  3.5481997E-02;  0.0000000E+00;  3.9720922E-03;  5.4104104E+00;
  8.4000087E-01;  9.9999998E-03;  8.0000065E-02;2350;  2.2334401E-03;  0.0000000E+00;  2.7690694E-04;  1.0038878E+03;  4.0156314E-01;  3.2188894E+03;3;  3.3606625E+00;  0.0000000E+00;  6.9684899E-01;0;  4.1498840E-02;  9.9996455E+03;  0.0000000E+00;  2.9261489E-11;  1.0000000E+04;  0.0000000E+00;  9.9999570E+03;  3.5587378E-02;  0.0000000E+00;  5.9114629E-03;  9.6294174E+00;
  8.4000087E-01;  9.9999998E-03;  1.0000011E-01;2351;  2.2415568E-03;  0.0000000E+00;  4.8176755E-04;  1.0038862E+03;  4.0156317E-01;  3.2176062E+03;3;  3.3810501E+00;  0.0000000E+00;  1.2013713E+00;0;  4.5220897E-02;  9.9996445E+03;  0.0000000E+00;  1.1371602E-10;  1.0000000E+04;  0.0000000E+00;  9.9999258E+03;  3.5746064E-02;  0.0000000E+00;  9.4748326E-03;  1.9348049E+01;
  8.4000093E-01;  9.9999998E-03;  1.2000018E-01;2352;  2.2549401E-03;  0.0000000E+00;  7.6335151E-04;  1.0038825E+03;  4.0156320E-01;  3.2145466E+03;3;  3.4143920E+00;  0.0000000E+00;  1.8922541E+00;0;  5.2751943E-02;  9.9996426E+03;  0.0000000E+00;  3.6834535E-10;  1.0000000E+04;  0.0000000E+00;  9.9998535E+03;  3.5970539E-02;  0.0000000E+00;  1.6781405E-02;  4.2451267E+01;
  8.4000093E-01;  9.9999998E-03;  1.4000027E-01;2353;  2.2751049E-03;  0.0000000E+00;  1.1084741E-03;  1.0038749E+03;  4.0156317E-01;  3.2082297E+03;3;  3.4643223E+00;  0.0000000E+00;  2.7367465E+00;0;  6.7873076E-02;  9.9996406E+03;  0.0000000E+00;  5.7347338E-10;  1.0000000E+04;  0.0000000E+00;  9.9997012E+03;  3.6268901E-02;  0.0000000E+00;  3.1604171E-02;  9.2941986E+01;
  8.6000127E-01;  9.9999998E-03;  1.6973216E-12;2377;  3.1372893E-03;  0.0000000E+00;  5.4958056E-09;  1.0037653E+03;  4.0151262E-01;  3.1167307E+03;3;  4.7190776E+00;  0.0000000E+00;  1.1087250E-05;0;  3.2849181E-02;  9.9996885E+03;  0.0000000E+00; -2.6285730E-16;  1.0000000E+04;  0.0000000E+00;  9.9999873E+03;  3.1065986E-02;  0.0000000E+00;  1.7831948E-03;  1.7668439E+00;
  8.6000127E-01;  9.9999998E-03;  2.0000005E-02;2378;  3.1376567E-03;  0.0000000E+00;  2.5090940E-05;  1.0037652E+03;  4.0151262E-01;  3.1167307E+03;3;  4.7200632E+00;  0.0000000E+00;  6.6496968E-02;0;  3.3091493E-02;  9.9996885E+03;  0.0000000E+00; -2.0232882E-12;  1.0000000E+04;  0.0000000E+00;  9.9999863E+03;  3.1077353E-02;  0.0000000E+00;  2.0141411E-03;  2.1354139E+00;
  8.6000127E-01;  9.9999998E-03;  4.0000014E-02;2379;  3.1389934E-03;  0.0000000E+00;  6.5592270E-05;  1.0037650E+03;  4.0151262E-01;  3.1165334E+03;3;  4.7236028E+00;  0.0000000E+00;  1.7053808E-01;0;  3.3811610E-02;  9.9996885E+03;  0.0000000E+00; -5.8725052E-12;  1.0000000E+04;  0.0000000E+00;  9.9999814E+03;  3.1113535E-02;  0.0000000E+00;  2.6980750E-03;  3.2495790E+00;
  8.6000127E-01;  9.9999998E-03;  6.0000032E-02;2380;  3.1420898E-03;  0.0000000E+00;  1.3966372E-04;  1.0037645E+03;  4.0151262E-01;  3.1161387E+03;3;  4.7316098E+00;  0.0000000E+00;  3.5639566E-01;0;  3.5038393E-02;  9.9996885E+03;  0.0000000E+00; -5.8752530E-12;  1.0000000E+04;  0.0000000E+00;  9.9999727E+03;  3.1180685E-02;  0.0000000E+00;  3.8577083E-03;  5.3129325E+00;
  8.6000127E-01;  9.9999998E-03;  8.0000065E-02;2381;  3.1483150E-03;  0.0000000E+00;  2.6749657E-04;  1.0037637E+03;  4.0151265E-01;  3.1154480E+03;3;  4.7474375E+00;  0.0000000E+00;  6.7322409E-01;0;  3.7022550E-02;  9.9996875E+03;  0.0000000E+00;  1.2138572E-11;  1.0000000E+04;  0.0000000E+00;  9.9999580E+03;  3.1288739E-02;  0.0000000E+00;  5.7338094E-03;  9.3835449E+00;
  8.6000127E-01;  9.9999998E-03;  1.0000011E-01;2382;  3.1596506E-03;  0.0000000E+00;  4.6546140E-04;  1.0037621E+03;  4.0151262E-01;  3.1141650E+03;3;  4.7758703E+00;  0.0000000E+00;  1.1607593E+00;0;  4.0629454E-02;  9.9996855E+03;  0.0000000E+00;  1.7731218E-10;  1.0000000E+04;  0.0000000E+00;  9.9999268E+03;  3.1450346E-02;  0.0000000E+00;  9.1791078E-03;  1.8752739E+01;
  8.6000127E-01;  9.9999998E-03;  1.2000018E-01;2383;  3.1783774E-03;  0.0000000E+00;  7.3761959E-04;  1.0037586E+03;  4.0151262E-01;  3.1112048E+03;3;  4.8224711E+00;  0.0000000E+00;  1.8285137E+00;0;  4.7921270E-02;  9.9996846E+03;  0.0000000E+00;  5.1711191E-10;  1.0000000E+04;  0.0000000E+00;  9.9998584E+03;  3.1678818E-02;  0.0000000E+00;  1.6242452E-02;  4.1020409E+01;
  8.6000127E-01;  9.9999998E-03;  1.4000025E-01;2384;  3.2066666E-03;  0.0000000E+00;  1.0711717E-03;  1.0037510E+03;  4.0151262E-01;  3.1049880E+03;3;  4.8924704E+00;  0.0000000E+00;  2.6447055E+00;0;  6.2558696E-02;  9.9996826E+03;  0.0000000E+00;  1.1190154E-09;  1.0000000E+04;  0.0000000E+00;  9.9997119E+03;  3.1983968E-02;  0.0000000E+00;  3.0574726E-02;  8.9690773E+01;
  8.8000160E-01;  9.9999998E-03;  1.7997710E-13;2408;  4.0068473E-03;  0.0000000E+00;  4.9204979E-10;  1.0035865E+03;  4.0144017E-01;  2.9679197E+03;3;  6.0335793E+00;  0.0000000E+00;  1.2005912E-06;0;  2.7876202E-02;  9.9997363E+03;  0.0000000E+00; -9.6764920E-18;  1.0000000E+04;  0.0000000E+00;  9.9999893E+03;  2.6146216E-02;  0.0000000E+00;  1.7299850E-03;  1.8000154E+00;
  8.8000160E-01;  9.9999998E-03;  2.0000005E-02;2409;  4.0073055E-03;  0.0000000E+00;  2.3944864E-05;  1.0035864E+03;  4.0144017E-01;  2.9678210E+03;3;  6.0348101E+00;  0.0000000E+00;  6.3458301E-02;0;  2.8108981E-02;  9.9997363E+03;  0.0000000E+00; -2.8657612E-12;  1.0000000E+04;  0.0000000E+00;  9.9999863E+03;  2.6158573E-02;  0.0000000E+00;  1.9504077E-03;  2.1514418E+00;
  8.8000160E-01;  9.9999998E-03;  4.0000014E-02;2410;  4.0089795E-03;  0.0000000E+00;  6.2583676E-05;  1.0035862E+03;  4.0144017E-01;  2.9676235E+03;3;  6.0392241E+00;  0.0000000E+00;  1.6273317E-01;0;  2.8800940E-02;  9.9997363E+03;  0.0000000E+00; -6.9072486E-12;  1.0000000E+04;  0.0000000E+00;  9.9999824E+03;  2.6197609E-02;  0.0000000E+00;  2.6033323E-03;  3.2138689E+00;
  8.8000160E-01;  9.9999998E-03;  6.0000032E-02;2411;  4.0128385E-03;  0.0000000E+00;  1.3325051E-04;  1.0035858E+03;  4.0144017E-01;  2.9672290E+03;3;  6.0491843E+00;  0.0000000E+00;  3.4004024E-01;0;  2.9979842E-02;  9.9997344E+03;  0.0000000E+00; -3.5513301E-11;  1.0000000E+04;  0.0000000E+00;  9.9999736E+03;  2.6269246E-02;  0.0000000E+00;  3.7105966E-03;  5.1804171E+00;
  8.8000160E-01;  9.9999998E-03;  8.0000058E-02;2412;  4.0206108E-03;  0.0000000E+00;  2.5521562E-04;  1.0035850E+03;  4.0144020E-01;  2.9666372E+03;3;  6.0688992E+00;  0.0000000E+00;  6.4231861E-01;0;  3.1885024E-02;  9.9997344E+03;  0.0000000E+00; -4.9320849E-11;  1.0000000E+04;  0.0000000E+00;  9.9999600E+03;  2.6383432E-02;  0.0000000E+00;  5.5015921E-03;  9.0546827E+00;
  8.8000160E-01;  9.9999998E-03;  1.0000011E-01;2413;  4.0347581E-03;  0.0000000E+00;  4.4413315E-04;  1.0035835E+03;  4.0144017E-01;  2.9654534E+03;3;  6.1043358E+00;  0.0000000E+00;  1.1075594E+00;0;  3.5343103E-02;  9.9997334E+03;  0.0000000E+00;  1.0593593E-10;  1.0000000E+04;  0.0000000E+00;  9.9999297E+03;  2.6553715E-02;  0.0000000E+00;  8.7893903E-03;  1.7962214E+01;
  8.8000160E-01;  9.9999998E-03;  1.2000017E-01;2414;  4.0581604E-03;  0.0000000E+00;  7.0385879E-04;  1.0035801E+03;  4.0144017E-01;  2.9625925E+03;3;  6.1625137E+00;  0.0000000E+00;  1.7448078E+00;0;  4.2325579E-02;  9.9997305E+03;  0.0000000E+00;  6.3285555E-10;  1.0000000E+04;  0.0000000E+00;  9.9998643E+03;  2.6795520E-02;  0.0000000E+00;  1.5530061E-02;  3.9128254E+01;
  8.8000160E-01;  9.9999998E-03;  1.4000025E-01;2415;  4.0935627E-03;  0.0000000E+00;  1.0221078E-03;  1.0035729E+03;  4.0144017E-01;  2.9566738E+03;3;  6.2500768E+00;  0.0000000E+00;  2.5235839E+00;0;  5.6335993E-02;  9.9997295E+03;  0.0000000E+00;  1.1580922E-09;  1.0000000E+04;  0.0000000E+00;  9.9997236E+03;  2.7122432E-02;  0.0000000E+00;  2.9213559E-02;  8.5403206E+01;
  9.0000188E-01;  9.9999998E-03; -8.1752302E-13;2439;  4.7537354E-03;  0.0000000E+00; -6.2399761E-09;  1.0033631E+03;  4.0134966E-01;  2.7819246E+03;3;  7.1609249E+00;  0.0000000E+00; -2.3083820E-05;0;  2.1892412E-02;  9.9997939E+03;  0.0000000E+00;  5.9776947E-16;  1.0000000E+04;  0.0000000E+00;  9.9999893E+03;  2.0215629E-02;  0.0000000E+00;  1.6767830E-03;  1.8703477E+00;
  9.0000188E-01;  9.9999998E-03;  2.0000005E-02;2440;  4.7542844E-03;  0.0000000E+00;  2.2614868E-05;  1.0033630E+03;  4.0134966E-01;  2.7818259E+03;3;  7.1624093E+00;  0.0000000E+00;  5.9947673E-02;0;  2.2112943E-02;  9.9997939E+03;  0.0000000E+00; -4.7759904E-12;  1.0000000E+04;  0.0000000E+00;  9.9999873E+03;  2.0228682E-02;  0.0000000E+00;  1.8842610E-03;  2.2012999E+00;
  9.0000188E-01;  9.9999998E-03;  4.0000014E-02;2441;  4.7562863E-03;  0.0000000E+00;  5.9051552E-05;  1.0033628E+03;  4.0134966E-01;  2.7816287E+03;3;  7.1677012E+00;  0.0000000E+00;  1.5354501E-01;0;  2.2768829E-02;  9.9997939E+03;  0.0000000E+00; -3.1788638E-11;  1.0000000E+04;  0.0000000E+00;  9.9999824E+03;  2.0269709E-02;  0.0000000E+00;  2.4991203E-03;  3.2019932E+00;
  9.0000188E-01;  9.9999998E-03;  6.0000028E-02;2442;  4.7608917E-03;  0.0000000E+00;  1.2565458E-04;  1.0033624E+03;  4.0134966E-01;  2.7813330E+03;3;  7.1796265E+00;  0.0000000E+00;  3.2063428E-01;0;  2.3886906E-02;  9.9997930E+03;  0.0000000E+00; -1.0153153E-10;  1.0000000E+04;  0.0000000E+00;  9.9999756E+03;  2.0344647E-02;  0.0000000E+00;  3.5422598E-03;  5.0525904E+00;
  9.0000188E-01;  9.9999998E-03;  8.0000058E-02;2443;  4.7700778E-03;  0.0000000E+00;  2.4058425E-04;  1.0033616E+03;  4.0134963E-01;  2.7806426E+03;3;  7.2029581E+00;  0.0000000E+00;  6.0542899E-01;0;  2.5692880E-02;  9.9997930E+03;  0.0000000E+00; -2.0094899E-10;  1.0000000E+04;  0.0000000E+00;  9.9999619E+03;  2.0463705E-02;  0.0000000E+00;  5.2291742E-03;  8.6895323E+00;
  9.0000188E-01;  9.9999998E-03;  1.0000010E-01;2444;  4.7867312E-03;  0.0000000E+00;  4.1861006E-04;  1.0033602E+03;  4.0134960E-01;  2.7794592E+03;3;  7.2447195E+00;  0.0000000E+00;  1.0438155E+00;0;  2.8966304E-02;  9.9997910E+03;  0.0000000E+00; -1.7014636E-10;  1.0000000E+04;  0.0000000E+00;  9.9999336E+03;  2.0641880E-02;  0.0000000E+00;  8.3244229E-03;  1.7035494E+01;
  9.0000194E-01;  9.9999998E-03;  1.2000016E-01;2445;  4.8141619E-03;  0.0000000E+00;  6.6334172E-04;  1.0033569E+03;  4.0134963E-01;  2.7767969E+03;3;  7.3128653E+00;  0.0000000E+00;  1.6442693E+00;0;  3.5569079E-02;  9.9997881E+03;  0.0000000E+00;  4.2878875E-10;  1.0000000E+04;  0.0000000E+00;  9.9998711E+03;  2.0898072E-02;  0.0000000E+00;  1.4671007E-02;  3.6859623E+01;
  9.0000194E-01;  9.9999998E-03;  1.4000024E-01;2446;  4.8557073E-03;  0.0000000E+00;  9.6305087E-04;  1.0033503E+03;  4.0134969E-01;  2.7712749E+03;3;  7.4155684E+00;  0.0000000E+00;  2.3776927E+00;0;  4.8815615E-02;  9.9997861E+03;  0.0000000E+00;  1.2606315E-09;  1.0000000E+04;  0.0000000E+00;  9.9997393E+03;  2.1252407E-02;  0.0000000E+00;  2.7563207E-02;  8.0218658E+01;
  9.2000210E-01;  9.9999998E-03;  1.7356573E-12;2470;  5.2305292E-03;  0.0000000E+00;  2.7667757E-09;  1.0031066E+03;  4.0124571E-01;  2.5683152E+03;3;  7.8092947E+00;  0.0000000E+00;  1.5495752E-06;0;  1.5168339E-02;  9.9998594E+03;  0.0000000E+00;  1.8809073E-16;  1.0000000E+04;  0.0000000E+00;  9.9999893E+03;  1.3538424E-02;  0.0000000E+00;  1.6299154E-03;  1.9900007E+00;
  9.2000210E-01;  9.9999998E-03;  2.0000005E-02;2471;  5.2319653E-03;  0.0000000E+00;  2.3260833E-05;  1.0031066E+03;  4.0124571E-01;  2.5683152E+03;3;  7.8133717E+00;  0.0000000E+00;  6.2075287E-02;0;  1.5373625E-02;  9.9998584E+03;  0.0000000E+00; -1.0404741E-12;  1.0000000E+04;  0.0000000E+00;  9.9999873E+03;  1.3551046E-02;  0.0000000E+00;  1.8225791E-03;  2.2982583E+00;
  9.2000210E-01;  9.9999998E-03;  4.0000014E-02;2472;  5.2359435E-03;  0.0000000E+00;  5.8860191E-05;  1.0031063E+03;  4.0124574E-01;  2.5681182E+03;3;  7.8237495E+00;  0.0000000E+00;  1.5360083E-01;0;  1.5984727E-02;  9.9998584E+03;  0.0000000E+00; -4.2220373E-11;  1.0000000E+04;  0.0000000E+00;  9.9999834E+03;  1.3590776E-02;  0.0000000E+00;  2.3939514E-03;  3.2305393E+00;
  9.2000210E-01;  9.9999998E-03;  6.0000028E-02;2473;  5.2444688E-03;  0.0000000E+00;  1.2201841E-04;  1.0031060E+03;  4.0124571E-01;  2.5678225E+03;3;  7.8463240E+00;  0.0000000E+00;  3.1182501E-01;0;  1.7027358E-02;  9.9998584E+03;  0.0000000E+00; -1.8170178E-10;  1.0000000E+04;  0.0000000E+00;  9.9999766E+03;  1.3663434E-02;  0.0000000E+00;  3.3639239E-03;  4.9519048E+00;
  9.2000210E-01;  9.9999998E-03;  8.0000058E-02;2474;  5.2594710E-03;  0.0000000E+00;  2.2934841E-04;  1.0031053E+03;  4.0124571E-01;  2.5672312E+03;3;  7.8854661E+00;  0.0000000E+00;  5.7706434E-01;0;  1.8711610E-02;  9.9998574E+03;  0.0000000E+00; -4.0053114E-10;  1.0000000E+04;  0.0000000E+00;  9.9999629E+03;  1.3779560E-02;  0.0000000E+00;  4.9320497E-03;  8.3210907E+00;
  9.2000210E-01;  9.9999998E-03;  1.0000010E-01;2475;  5.2836062E-03;  0.0000000E+00;  3.9494294E-04;  1.0031040E+03;  4.0124571E-01;  2.5661472E+03;3;  7.9466128E+00;  0.0000000E+00;  9.8397195E-01;0;  2.1762902E-02;  9.9998564E+03;  0.0000000E+00; -5.2026672E-10;  1.0000000E+04;  0.0000000E+00;  9.9999375E+03;  1.3955599E-02;  0.0000000E+00;  7.8073037E-03;  1.6027718E+01;
  9.2000210E-01;  9.9999998E-03;  1.2000015E-01;2476;  5.3211199E-03;  0.0000000E+00;  6.2239746E-04;  1.0031010E+03;  4.0124568E-01;  2.5636833E+03;3;  8.0402718E+00;  0.0000000E+00;  1.5410094E+00;0;  2.7918413E-02;  9.9998545E+03;  0.0000000E+00;  9.5494848E-11;  1.0000000E+04;  0.0000000E+00;  9.9998809E+03;  1.4215054E-02;  0.0000000E+00;  1.3703360E-02;  3.4318459E+01;
  9.2000216E-01;  9.9999998E-03;  1.4000022E-01;2477;  5.3748470E-03;  0.0000000E+00;  9.0077356E-04;  1.0030947E+03;  4.0124571E-01;  2.5584600E+03;3;  8.1728859E+00;  0.0000000E+00;  2.2212582E+00;0;  4.0278208E-02;  9.9998516E+03;  0.0000000E+00;  9.4285013E-10;  1.0000000E+04;  0.0000000E+00;  9.9997568E+03;  1.4587545E-02;  0.0000000E+00;  2.5690664E-02;  7.4340988E+01;
  9.4000214E-01;  9.9999998E-03; -1.8281959E-13;2501;  5.3315251E-03;  0.0000000E+00; -1.7547754E-09;  1.0028292E+03;  4.0113339E-01;  2.3372571E+03;3;  7.8571196E+00;  0.0000000E+00; -5.4036209E-06;0;  8.4291445E-03;  9.9999277E+03;  0.0000000E+00;  4.1113904E-18;  1.0000000E+04;  0.0000000E+00;  9.9999893E+03;  6.8368241E-03;  0.0000000E+00;  1.5923206E-03;  2.1512828E+00;
  9.4000214E-01;  9.9999998E-03;  2.0000007E-02;2502;  5.3339517E-03;  0.0000000E+00;  2.7717264E-05;  1.0028292E+03;  4.0113342E-01;  2.3372571E+03;3;  7.8632755E+00;  0.0000000E+00;  7.2240293E-02;0;  8.6165722E-03;  9.9999277E+03;  0.0000000E+00; -8.6556838E-12;  1.0000000E+04;  0.0000000E+00;  9.9999873E+03;  6.8475390E-03;  0.0000000E+00;  1.7690329E-03;  2.4358420E+00;
  9.4000214E-01;  9.9999998E-03;  4.0000014E-02;2503;  5.3416248E-03;  0.0000000E+00;  6.6130422E-05;  1.0028290E+03;  4.0113336E-01;  2.3370603E+03;3;  7.8820062E+00;  0.0000000E+00;  1.6948892E-01;0;  9.1750408E-03;  9.9999277E+03;  0.0000000E+00; -4.7233179E-11;  1.0000000E+04;  0.0000000E+00;  9.9999854E+03;  6.8814275E-03;  0.0000000E+00;  2.2936133E-03;  3.2966614E+00;
  9.4000214E-01;  9.9999998E-03;  6.0000032E-02;2504;  5.3555444E-03;  0.0000000E+00;  1.2791369E-04;  1.0028286E+03;  4.0113336E-01;  2.3367646E+03;3;  7.9166822E+00;  0.0000000E+00;  3.2314736E-01;0;  1.0128947E-02;  9.9999268E+03;  0.0000000E+00; -2.1129554E-10;  1.0000000E+04;  0.0000000E+00;  9.9999775E+03;  6.9440147E-03;  0.0000000E+00;  3.1849323E-03;  4.8822551E+00;
  9.4000220E-01;  9.9999998E-03;  8.0000058E-02;2505;  5.3776735E-03;  0.0000000E+00;  2.2741324E-04;  1.0028280E+03;  4.0113342E-01;  2.3362725E+03;3;  7.9700246E+00;  0.0000000E+00;  5.6619239E-01;0;  1.1671063E-02;  9.9999268E+03;  0.0000000E+00; -5.7824340E-10;  1.0000000E+04;  0.0000000E+00;  9.9999658E+03;  7.0456755E-03;  0.0000000E+00;  4.6253880E-03;  7.9670105E+00;
  9.4000220E-01;  9.9999998E-03;  1.0000009E-01;2506;  5.4110182E-03;  0.0000000E+00;  3.7995749E-04;  1.0028267E+03;  4.0113336E-01;  2.3351890E+03;3;  8.0496426E+00;  0.0000000E+00;  9.3793625E-01;0;  1.4468159E-02;  9.9999238E+03;  0.0000000E+00; -9.6160913E-10;  1.0000000E+04;  0.0000000E+00;  9.9999424E+03;  7.2040614E-03;  0.0000000E+00;  7.2640972E-03;  1.4988076E+01;
  9.4000220E-01;  9.9999998E-03;  1.2000015E-01;2507;  5.4609147E-03;  0.0000000E+00;  5.8937346E-04;  1.0028240E+03;  4.0113339E-01;  2.3329241E+03;3;  8.1700668E+00;  0.0000000E+00;  1.4474528E+00;0;  2.0122759E-02;  9.9999229E+03;  0.0000000E+00; -6.1067773E-10;  1.0000000E+04;  0.0000000E+00;  9.9998887E+03;  7.4477182E-03;  0.0000000E+00;  1.2675040E-02;  3.1624943E+01;
  9.4000220E-01;  9.9999998E-03;  1.4000021E-01;2508;  5.5307811E-03;  0.0000000E+00;  8.4812415E-04;  1.0028182E+03;  4.0113342E-01;  2.3281968E+03;3;  8.3336191E+00;  0.0000000E+00;  2.0759304E+00;0;  3.1503782E-02;  9.9999199E+03;  0.0000000E+00;  6.6035977E-10;  1.0000000E+04;  0.0000000E+00;  9.9997764E+03;  7.8183934E-03;  0.0000000E+00;  2.3685388E-02;  6.8032967E+01;
  9.6000212E-01;  9.9999998E-03; -8.7263795E-13;2532;  5.2571604E-03;  0.0000000E+00; -2.5470843E-09;  1.0025427E+03;  4.0101752E-01;  2.0984253E+03;3;  7.7210517E+00;  0.0000000E+00; -1.3572280E-06;0;  2.4155721E-03;  9.9999883E+03;  0.0000000E+00;  3.5208185E-17;  1.0000000E+04;  0.0000000E+00;  9.9999902E+03;  8.5200917E-04;  0.0000000E+00;  1.5635629E-03;  2.3353388E+00;
  9.6000212E-01;  9.9999998E-03;  2.0000007E-02;2533;  5.2593881E-03;  0.0000000E+00;  2.9233590E-05;  1.0025427E+03;  4.0101752E-01;  2.0984253E+03;3;  7.7262483E+00;  0.0000000E+00;  7.4713565E-02;0;  2.5841051E-03;  9.9999883E+03;  0.0000000E+00;  6.1601566E-12;  1.0000000E+04;  0.0000000E+00;  9.9999883E+03;  8.6010655E-04;  0.0000000E+00;  1.7239986E-03;  2.5962975E+00;
  9.6000212E-01;  9.9999998E-03;  4.0000018E-02;2534;  5.2669523E-03;  0.0000000E+00;  6.7739238E-05;  1.0025425E+03;  4.0101755E-01;  2.0983269E+03;3;  7.7436590E+00;  0.0000000E+00;  1.7034212E-01;0;  3.0867849E-03;  9.9999883E+03;  0.0000000E+00; -6.9899982E-11;  1.0000000E+04;  0.0000000E+00;  9.9999854E+03;  8.8593189E-04;  0.0000000E+00;  2.2008528E-03;  3.3859129E+00;
  9.6000212E-01;  9.9999998E-03;  6.0000032E-02;2535;  5.2807955E-03;  0.0000000E+00;  1.2677808E-04;  1.0025421E+03;  4.0101755E-01;  2.0980317E+03;3;  7.7759643E+00;  0.0000000E+00;  3.1520185E-01;0;  3.9463784E-03;  9.9999883E+03;  0.0000000E+00; -2.5189292E-10;  1.0000000E+04;  0.0000000E+00;  9.9999785E+03;  9.3431148E-04;  0.0000000E+00;  3.0120669E-03;  4.8360715E+00;
  9.6000212E-01;  9.9999998E-03;  8.0000058E-02;2536;  5.3058979E-03;  0.0000000E+00;  2.2130432E-04;  1.0025416E+03;  4.0101755E-01;  2.0976382E+03;3;  7.8357987E+00;  0.0000000E+00;  5.4552758E-01;0;  5.3377636E-03;  9.9999863E+03;  0.0000000E+00; -7.4539275E-10;  1.0000000E+04;  0.0000000E+00;  9.9999678E+03;  1.0147862E-03;  0.0000000E+00;  4.3229773E-03;  7.6357608E+00;
  9.6000218E-01;  9.9999998E-03;  1.0000009E-01;2537;  5.3441725E-03;  0.0000000E+00;  3.6332602E-04;  1.0025405E+03;  4.0101755E-01;  2.0966545E+03;3;  7.9268279E+00;  0.0000000E+00;  8.9159793E-01;0;  7.8679733E-03;  9.9999863E+03;  0.0000000E+00; -1.3547721E-09;  1.0000000E+04;  0.0000000E+00;  9.9999453E+03;  1.1456847E-03;  0.0000000E+00;  6.7222887E-03;  1.3964293E+01;
  9.6000218E-01;  9.9999998E-03;  1.2000014E-01;2538;  5.3974986E-03;  0.0000000E+00;  5.5503350E-04;  1.0025378E+03;  4.0101755E-01;  2.0944900E+03;3;  8.0479612E+00;  0.0000000E+00;  1.3501681E+00;0;  1.3002088E-02;  9.9999844E+03;  0.0000000E+00; -1.3426815E-09;  1.0000000E+04;  0.0000000E+00;  9.9998984E+03;  1.3609653E-03;  0.0000000E+00;  1.1641123E-02;  2.8915409E+01;
  9.6000218E-01;  9.9999998E-03;  1.4000019E-01;2539;  5.4741744E-03;  0.0000000E+00;  7.9259975E-04;  1.0025326E+03;  4.0101755E-01;  2.0901611E+03;3;  8.2205477E+00;  0.0000000E+00;  1.9163389E+00;0;  2.3370605E-02;  9.9999814E+03;  0.0000000E+00;  2.0445420E-10;  1.0000000E+04;  0.0000000E+00;  9.9997949E+03;  1.7168118E-03;  0.0000000E+00;  2.1653794E-02;  6.1605400E+01;
  9.8000211E-01;  9.9999998E-03; -7.4560312E-14;2563;  5.1041404E-03;  0.0000000E+00; -5.8467620E-11;  1.0022581E+03;  4.0090266E-01;  1.8610983E+03;3;  7.5093040E+00;  0.0000000E+00;  8.7710214E-07;0; -2.4526445E-03;  1.0000039E+04;  0.0000000E+00;  6.9504255E-17;  1.0000000E+04;  0.0000000E+00;  9.9999902E+03; -3.9945929E-03;  0.0000000E+00;  1.5419485E-03;  2.5249166E+00;
  9.8000211E-01;  9.9999998E-03;  2.0000007E-02;2564;  5.1059355E-03;  0.0000000E+00;  3.1396154E-05;  1.0022580E+03;  4.0090266E-01;  1.8610000E+03;3;  7.5130434E+00;  0.0000000E+00;  7.8139037E-02;0; -2.3017263E-03;  1.0000039E+04;  0.0000000E+00; -1.5220479E-11;  1.0000000E+04;  0.0000000E+00;  9.9999883E+03; -3.9882185E-03;  0.0000000E+00;  1.6864922E-03;  2.7630184E+00;
  9.8000211E-01;  9.9999998E-03;  4.0000018E-02;2565;  5.1118582E-03;  0.0000000E+00;  6.9649235E-05;  1.0022578E+03;  4.0090266E-01;  1.8609017E+03;3;  7.5265241E+00;  0.0000000E+00;  1.7197330E-01;0; -1.8511247E-03;  1.0000039E+04;  0.0000000E+00; -1.3251708E-10;  1.0000000E+04;  0.0000000E+00;  9.9999854E+03; -3.9679222E-03;  0.0000000E+00;  2.1167975E-03;  3.4840162E+00;
  9.8000211E-01;  9.9999998E-03;  6.0000032E-02;2566;  5.1236707E-03;  0.0000000E+00;  1.2605033E-04;  1.0022576E+03;  4.0090263E-01;  1.8607052E+03;3;  7.5536928E+00;  0.0000000E+00;  3.0756369E-01;0; -1.0794683E-03;  1.0000038E+04;  0.0000000E+00; -3.0127192E-10;  1.0000000E+04;  0.0000000E+00;  9.9999795E+03; -3.9298842E-03;  0.0000000E+00;  2.8504159E-03;  4.8054190E+00;
  9.8000211E-01;  9.9999998E-03;  8.0000050E-02;2567;  5.1442352E-03;  0.0000000E+00;  2.1233859E-04;  1.0022570E+03;  4.0090263E-01;  1.8602140E+03;3;  7.6004605E+00;  0.0000000E+00;  5.1783681E-01;0;  1.7173076E-04;  1.0000038E+04;  0.0000000E+00; -8.6273533E-10;  1.0000000E+04;  0.0000000E+00;  9.9999697E+03; -3.8657668E-03;  0.0000000E+00;  4.0374976E-03;  7.3370304E+00;
  9.8000211E-01;  9.9999998E-03;  1.0000008E-01;2568;  5.1784632E-03;  0.0000000E+00;  3.4080891E-04;  1.0022559E+03;  4.0090263E-01;  1.8593297E+03;3;  7.6781068E+00;  0.0000000E+00;  8.2627594E-01;0;  2.4537845E-03;  1.0000037E+04;  0.0000000E+00; -1.8301292E-09;  1.0000000E+04;  0.0000000E+00;  9.9999492E+03; -3.7565958E-03;  0.0000000E+00;  6.2103802E-03;  1.3011166E+01;
  9.8000211E-01;  9.9999998E-03;  1.2000013E-01;2569;  5.2332832E-03;  0.0000000E+00;  5.1752431E-04;  1.0022537E+03;  4.0090266E-01;  1.8574629E+03;3;  7.8046870E+00;  0.0000000E+00;  1.2516392E+00;0;  7.0998771E-03;  1.0000035E+04;  0.0000000E+00; -2.4168116E-09;  1.0000000E+04;  0.0000000E+00;  9.9999063E+03; -3.5622015E-03;  0.0000000E+00;  1.0662079E-02;  2.6344696E+01;
  9.8000211E-01;  9.9999998E-03;  1.4000018E-01;2570;  5.3125811E-03;  0.0000000E+00;  7.3451933E-04;  1.0022488E+03;  4.0090272E-01;  1.8535327E+03;3;  7.9801869E+00;  0.0000000E+00;  1.7647090E+00;0;  1.6504234E-02;  1.0000031E+04;  0.0000000E+00; -1.0391504E-09;  1.0000000E+04;  0.0000000E+00;  9.9998135E+03; -3.2095776E-03;  0.0000000E+00;  1.9713812E-02;  5.5403461E+01;
  1.0000020E+00;  9.9999998E-03; -9.4972706E-13;2594;  4.9071237E-03;  0.0000000E+00; -3.3401952E-09;  1.0019846E+03;  4.0079254E-01;  1.6327773E+03;3;  7.2441802E+00;  0.0000000E+00; -2.4466281E-06;0; -6.1107362E-03;  1.0000079E+04;  0.0000000E+00; -1.2759731E-16;  1.0000000E+04;  0.0000000E+00;  9.9999902E+03; -7.6363385E-03;  0.0000000E+00;  1.5256022E-03;  2.7099738E+00;
  1.0000020E+00;  9.9999998E-03;  2.0000009E-02;2595;  4.9086036E-03;  0.0000000E+00;  3.3182609E-05;  1.0019845E+03;  4.0079254E-01;  1.6326792E+03;3;  7.2476559E+00;  0.0000000E+00;  8.1014492E-02;0; -5.9745456E-03;  1.0000079E+04;  0.0000000E+00; -5.8048002E-12;  1.0000000E+04;  0.0000000E+00;  9.9999883E+03; -7.6296865E-03;  0.0000000E+00;  1.6551409E-03;  2.9261220E+00;
  1.0000020E+00;  9.9999998E-03;  4.0000018E-02;2596;  4.9132574E-03;  0.0000000E+00;  7.4103242E-05;  1.0019843E+03;  4.0079248E-01;  1.6325812E+03;3;  7.2580709E+00;  0.0000000E+00;  1.8122856E-01;0; -5.5670831E-03;  1.0000078E+04;  0.0000000E+00; -2.9029331E-11;  1.0000000E+04;  0.0000000E+00;  9.9999854E+03; -7.6088766E-03;  0.0000000E+00;  2.0417932E-03;  3.5823760E+00;
  1.0000020E+00;  9.9999998E-03;  6.0000032E-02;2597;  4.9232906E-03;  0.0000000E+00;  1.2884187E-04;  1.0019841E+03;  4.0079248E-01;  1.6323850E+03;3;  7.2809749E+00;  0.0000000E+00;  3.1173944E-01;0; -4.8668240E-03;  1.0000077E+04;  0.0000000E+00; -2.8882988E-10;  1.0000000E+04;  0.0000000E+00;  9.9999795E+03; -7.5709103E-03;  0.0000000E+00;  2.7040862E-03;  4.7875609E+00;
  1.0000020E+00;  9.9999998E-03;  8.0000050E-02;2598;  4.9415561E-03;  0.0000000E+00;  2.0940242E-04;  1.0019836E+03;  4.0079251E-01;  1.6318947E+03;3;  7.3225927E+00;  0.0000000E+00;  5.0219798E-01;0; -3.7265469E-03;  1.0000077E+04;  0.0000000E+00; -9.0332042E-10;  1.0000000E+04;  0.0000000E+00;  9.9999707E+03; -7.5079002E-03;  0.0000000E+00;  3.7813534E-03;  7.0872531E+00;
  1.0000020E+00;  9.9999998E-03;  1.0000008E-01;2599;  4.9725766E-03;  0.0000000E+00;  3.2441449E-04;  1.0019826E+03;  4.0079254E-01;  1.6311100E+03;3;  7.3919868E+00;  0.0000000E+00;  7.7469504E-01;0; -1.6403021E-03;  1.0000076E+04;  0.0000000E+00; -2.2207971E-09;  1.0000000E+04;  0.0000000E+00;  9.9999531E+03; -7.3988861E-03;  0.0000000E+00;  5.7585840E-03;  1.2193911E+01;
  1.0000020E+00;  9.9999998E-03;  1.2000012E-01;2600;  5.0243735E-03;  0.0000000E+00;  4.8281526E-04;  1.0019805E+03;  4.0079245E-01;  1.6294427E+03;3;  7.5075898E+00;  0.0000000E+00;  1.1490366E+00;0;  2.6067994E-03;  1.0000074E+04;  0.0000000E+00; -3.9707087E-09;  1.0000000E+04;  0.0000000E+00;  9.9999141E+03; -7.1957880E-03;  0.0000000E+00;  9.8025873E-03;  2.4080969E+01;
  1.0000020E+00;  9.9999998E-03;  1.4000018E-01;2601;  5.1023280E-03;  0.0000000E+00;  6.8177702E-04;  1.0019761E+03;  4.0079245E-01;  1.6258138E+03;3;  7.6796284E+00;  0.0000000E+00;  1.6140205E+00;0;  1.1181610E-02;  1.0000070E+04;  0.0000000E+00; -3.1706091E-09;  1.0000000E+04;  0.0000000E+00;  9.9998291E+03; -6.8068826E-03;  0.0000000E+00;  1.7988492E-02;  4.9780819E+01;
  1.0200019E+00;  9.9999998E-03; -5.8847859E-13;2625;  4.6625347E-03;  0.0000000E+00; -1.4564566E-09;  1.0017300E+03;  4.0069005E-01;  1.4198679E+03;3;  6.9089127E+00;  0.0000000E+00; -1.0076183E-06;0; -8.7017044E-03;  1.0000107E+04;  0.0000000E+00; -8.7371885E-17;  1.0000000E+04;  0.0000000E+00;  9.9999902E+03; -1.0214367E-02;  0.0000000E+00;  1.5126630E-03;  2.8855259E+00;
  1.0200019E+00;  9.9999998E-03;  2.0000009E-02;2626;  4.6637119E-03;  0.0000000E+00;  3.4346471E-05;  1.0017299E+03;  4.0069005E-01;  1.4198679E+03;3;  6.9111466E+00;  0.0000000E+00;  8.3806351E-02;0; -8.5769035E-03;  1.0000106E+04;  0.0000000E+00;  2.2555354E-12;  1.0000000E+04;  0.0000000E+00;  9.9999883E+03; -1.0205257E-02;  0.0000000E+00;  1.6283534E-03;  3.0804696E+00;
  1.0200019E+00;  9.9999998E-03;  4.0000018E-02;2627;  4.6684635E-03;  0.0000000E+00;  7.5443051E-05;  1.0017297E+03;  4.0069005E-01;  1.4196722E+03;3;  6.9214334E+00;  0.0000000E+00;  1.8230726E-01;0; -8.2017295E-03;  1.0000106E+04;  0.0000000E+00;  2.9209114E-11;  1.0000000E+04;  0.0000000E+00;  9.9999854E+03; -1.0177171E-02;  0.0000000E+00;  1.9754414E-03;  3.6766803E+00;
  1.0200019E+00;  9.9999998E-03;  6.0000032E-02;2628;  4.6780179E-03;  0.0000000E+00;  1.3035820E-04;  1.0017295E+03;  4.0069005E-01;  1.4194764E+03;3;  6.9417801E+00;  0.0000000E+00;  3.1511298E-01;0; -7.5505646E-03;  1.0000106E+04;  0.0000000E+00; -1.9441980E-10;  1.0000000E+04;  0.0000000E+00;  9.9999805E+03; -1.0126876E-02;  0.0000000E+00;  2.5763114E-03;  4.7843065E+00;
  1.0200019E+00;  9.9999998E-03;  8.0000050E-02;2629;  4.6957335E-03;  0.0000000E+00;  2.0632007E-04;  1.0017289E+03;  4.0069005E-01;  1.4189873E+03;3;  6.9795957E+00;  0.0000000E+00;  4.9117285E-01;0; -6.4777238E-03;  1.0000106E+04;  0.0000000E+00; -9.1454216E-10;  1.0000000E+04;  0.0000000E+00;  9.9999727E+03; -1.0044754E-02;  0.0000000E+00;  3.5670300E-03;  6.9084516E+00;
  1.0200019E+00;  9.9999998E-03;  1.0000008E-01;2630;  4.7277645E-03;  0.0000000E+00;  3.1247741E-04;  1.0017281E+03;  4.0069002E-01;  1.4183024E+03;3;  7.0496941E+00;  0.0000000E+00;  7.3576224E-01;0; -4.5062131E-03;  1.0000104E+04;  0.0000000E+00; -3.1055629E-09;  1.0000000E+04;  0.0000000E+00;  9.9999551E+03; -9.9048745E-03;  0.0000000E+00;  5.3986614E-03;  1.1582011E+01;
  1.0200019E+00;  9.9999998E-03;  1.2000012E-01;2631;  4.7790012E-03;  0.0000000E+00;  4.5469965E-04;  1.0017261E+03;  4.0069005E-01;  1.4166392E+03;3;  7.1618891E+00;  0.0000000E+00;  1.0603592E+00;0; -5.1978789E-04;  1.0000100E+04;  0.0000000E+00; -6.5357328E-09;  1.0000000E+04;  0.0000000E+00;  9.9999180E+03; -9.6485624E-03;  0.0000000E+00;  9.1287745E-03;  2.2285379E+01;
  1.0200019E+00;  9.9999998E-03;  1.4000016E-01;2632;  4.8575597E-03;  0.0000000E+00;  6.3660828E-04;  1.0017220E+03;  4.0069005E-01;  1.4133125E+03;3;  7.3328195E+00;  0.0000000E+00;  1.4727150E+00;0;  7.4317204E-03;  1.0000096E+04;  0.0000000E+00; -7.9479126E-09;  1.0000000E+04;  0.0000000E+00;  9.9998418E+03; -9.1653997E-03;  0.0000000E+00;  1.6597120E-02;  4.5051868E+01;
  1.0400017E+00;  9.9999998E-03;  1.3050463E-12;2656;  4.3692770E-03;  0.0000000E+00;  2.0227149E-09;  1.0014993E+03;  4.0059742E-01;  1.2265924E+03;3;  6.5105519E+00;  0.0000000E+00;  1.4256802E-06;0; -1.0414119E-02;  1.0000127E+04;  0.0000000E+00; -1.9621775E-16;  1.0000000E+04;  0.0000000E+00;  9.9999893E+03; -1.1915118E-02;  0.0000000E+00;  1.5009997E-03;  3.0455029E+00;
  1.0400017E+00;  9.9999998E-03;  2.0000009E-02;2657;  4.3707839E-03;  0.0000000E+00;  3.5078443E-05;  1.0014992E+03;  4.0059742E-01;  1.2264949E+03;3;  6.5136127E+00;  0.0000000E+00;  8.5089497E-02;0; -1.0297447E-02;  1.0000126E+04;  0.0000000E+00;  4.2202280E-11;  1.0000000E+04;  0.0000000E+00;  9.9999883E+03; -1.1901723E-02;  0.0000000E+00;  1.6042761E-03;  3.2204595E+00;
  1.0400017E+00;  9.9999998E-03;  4.0000018E-02;2658;  4.3758820E-03;  0.0000000E+00;  7.5838565E-05;  1.0014991E+03;  4.0059742E-01;  1.2263975E+03;3;  6.5237942E+00;  0.0000000E+00;  1.8212694E-01;0; -9.9429470E-03;  1.0000125E+04;  0.0000000E+00;  1.0456649E-10;  1.0000000E+04;  0.0000000E+00;  9.9999863E+03; -1.1860278E-02;  0.0000000E+00;  1.9173315E-03;  3.7640967E+00;
  1.0400017E+00;  9.9999998E-03;  6.0000032E-02;2659;  4.3864916E-03;  0.0000000E+00;  1.2893045E-04;  1.0014989E+03;  4.0059742E-01;  1.2262999E+03;3;  6.5456977E+00;  0.0000000E+00;  3.0710170E-01;0; -9.3142260E-03;  1.0000125E+04;  0.0000000E+00; -4.5842521E-11;  1.0000000E+04;  0.0000000E+00;  9.9999814E+03; -1.1785408E-02;  0.0000000E+00;  2.4711816E-03;  4.8019605E+00;
  1.0400017E+00;  9.9999998E-03;  8.0000050E-02;2660;  4.4058487E-03;  0.0000000E+00;  2.0164320E-04;  1.0014984E+03;  4.0059742E-01;  1.2258123E+03;3;  6.5845418E+00;  0.0000000E+00;  4.7469246E-01;0; -8.2530975E-03;  1.0000124E+04;  0.0000000E+00; -1.0566045E-09;  1.0000000E+04;  0.0000000E+00;  9.9999727E+03; -1.1662238E-02;  0.0000000E+00;  3.4091412E-03;  6.8279910E+00;
  1.0400017E+00;  9.9999998E-03;  1.0000008E-01;2661;  4.4394745E-03;  0.0000000E+00;  3.0111097E-04;  1.0014974E+03;  4.0059742E-01;  1.2250320E+03;3;  6.6535592E+00;  0.0000000E+00;  6.9803697E-01;0; -6.2905024E-03;  1.0000121E+04;  0.0000000E+00; -4.2859023E-09;  1.0000000E+04;  0.0000000E+00;  9.9999561E+03; -1.1455494E-02;  0.0000000E+00;  5.1649916E-03;  1.1241629E+01;
  1.0400017E+00;  9.9999998E-03;  1.2000012E-01;2662;  4.4941567E-03;  0.0000000E+00;  4.3264995E-04;  1.0014954E+03;  4.0059742E-01;  1.2234716E+03;3;  6.7711911E+00;  0.0000000E+00;  9.8994803E-01;0; -2.3878552E-03;  1.0000117E+04;  0.0000000E+00; -1.1389493E-08;  1.0000000E+04;  0.0000000E+00;  9.9999209E+03; -1.1093219E-02;  0.0000000E+00;  8.7053636E-03;  2.1084278E+01;
  1.0400019E+00;  9.9999998E-03;  1.4000016E-01;2663;  4.5731957E-03;  0.0000000E+00;  5.9684378E-04;  1.0014915E+03;  4.0059742E-01;  1.2201556E+03;3;  6.9399815E+00;  0.0000000E+00;  1.3514951E+00;0;  5.1928945E-03;  1.0000110E+04;  0.0000000E+00; -1.9656097E-08;  1.0000000E+04;  0.0000000E+00;  9.9998496E+03; -1.0450659E-02;  0.0000000E+00;  1.5643554E-02;  4.1427929E+01;
  1.0600016E+00;  9.9999998E-03;  8.3510179E-13;2687;  4.0362757E-03;  0.0000000E+00;  1.3293571E-11;  1.0012960E+03;  4.0051585E-01;  1.0557671E+03;3;  6.0625234E+00;  0.0000000E+00; -7.4945274E-06;0; -1.1389424E-02;  1.0000137E+04;  0.0000000E+00;  3.0339106E-16;  1.0000000E+04;  0.0000000E+00;  9.9999893E+03; -1.2877349E-02;  0.0000000E+00;  1.4879248E-03;  3.1785715E+00;
  1.0600016E+00;  9.9999998E-03;  2.0000009E-02;2688;  4.0379879E-03;  0.0000000E+00;  3.5770736E-05;  1.0012960E+03;  4.0051582E-01;  1.0556699E+03;3;  6.0656147E+00;  0.0000000E+00;  8.5692413E-02;0; -1.1276710E-02;  1.0000137E+04;  0.0000000E+00;  6.7050601E-11;  1.0000000E+04;  0.0000000E+00;  9.9999873E+03; -1.2857815E-02;  0.0000000E+00;  1.5811053E-03;  3.3371654E+00;
  1.0600016E+00;  9.9999998E-03;  4.0000018E-02;2689;  4.0443707E-03;  0.0000000E+00;  7.6090750E-05;  1.0012958E+03;  4.0051588E-01;  1.0555729E+03;3;  6.0778170E+00;  0.0000000E+00;  1.7971164E-01;0; -1.0927510E-02;  1.0000137E+04;  0.0000000E+00;  2.1580940E-10;  1.0000000E+04;  0.0000000E+00;  9.9999863E+03; -1.2796494E-02;  0.0000000E+00;  1.8689843E-03;  3.8437810E+00;
  1.0600016E+00;  9.9999998E-03;  6.0000032E-02;2690;  4.0569343E-03;  0.0000000E+00;  1.2832538E-04;  1.0012955E+03;  4.0051588E-01;  1.0553787E+03;3;  6.1018753E+00;  0.0000000E+00;  3.0028370E-01;0; -1.0285198E-02;  1.0000135E+04;  0.0000000E+00; -5.8276703E-11;  1.0000000E+04;  0.0000000E+00;  9.9999814E+03; -1.2682921E-02;  0.0000000E+00;  2.3977233E-03;  4.8547721E+00;
  1.0600016E+00;  9.9999998E-03;  8.0000050E-02;2691;  4.0797982E-03;  0.0000000E+00;  1.9766249E-04;  1.0012950E+03;  4.0051588E-01;  1.0549902E+03;3;  6.1459708E+00;  0.0000000E+00;  4.5715228E-01;0; -9.1622053E-03;  1.0000134E+04;  0.0000000E+00; -1.5442466E-09;  1.0000000E+04;  0.0000000E+00;  9.9999736E+03; -1.2492212E-02;  0.0000000E+00;  3.3300074E-03;  6.8809505E+00;
  1.0600016E+00;  9.9999998E-03;  1.0000008E-01;2692;  4.1171657E-03;  0.0000000E+00;  2.9036435E-04;  1.0012940E+03;  4.0051588E-01;  1.0541162E+03;3;  6.2182779E+00;  0.0000000E+00;  6.6036171E-01;0; -7.0760432E-03;  1.0000129E+04;  0.0000000E+00; -6.9995632E-09;  1.0000000E+04;  0.0000000E+00;  9.9999561E+03; -1.2174740E-02;  0.0000000E+00;  5.0986963E-03;  1.1227583E+01;
  1.0600016E+00;  9.9999998E-03;  1.2000012E-01;2693;  4.1762250E-03;  0.0000000E+00;  4.1140348E-04;  1.0012919E+03;  4.0051585E-01;  1.0524653E+03;3;  6.3357186E+00;  0.0000000E+00;  9.2149615E-01;0; -3.0513797E-03;  1.0000124E+04;  0.0000000E+00; -1.9316609E-08;  1.0000000E+04;  0.0000000E+00;  9.9999209E+03; -1.1645030E-02;  0.0000000E+00;  8.5936505E-03;  2.0538198E+01;
  1.0600017E+00;  9.9999998E-03;  1.4000016E-01;2694;  4.2628497E-03;  0.0000000E+00;  5.6075247E-04;  1.0012880E+03;  4.0051588E-01;  1.0492607E+03;3;  6.5153174E+00;  0.0000000E+00;  1.2420176E+00;0;  4.4250013E-03;  1.0000115E+04;  0.0000000E+00; -1.0570624E-06;  1.0000000E+04;  0.0000000E+00;  9.9998525E+03; -1.0776589E-02;  0.0000000E+00;  1.5201590E-02;  3.8947353E+01;
  1.0800015E+00;  9.9999998E-03;  2.9345122E-13;2718;  3.6838730E-03;  0.0000000E+00;  1.4826996E-09;  1.0011210E+03;  4.0044582E-01;  9.0791888E+02;3;  5.5912008E+00;  0.0000000E+00;  3.0887240E-06;0; -1.1695607E-02;  1.0000141E+04;  0.0000000E+00; -1.0731042E-16;  1.0000000E+04;  0.0000000E+00;  9.9999883E+03; -1.3168220E-02;  0.0000000E+00;  1.4726137E-03;  3.2727528E+00;
  1.0800015E+00;  9.9999998E-03;  2.0000009E-02;2719;  3.6862255E-03;  0.0000000E+00;  3.6311314E-05;  1.0011209E+03;  4.0044582E-01;  9.0791888E+02;3;  5.5951023E+00;  0.0000000E+00;  8.4674887E-02;0; -1.1578919E-02;  1.0000140E+04;  0.0000000E+00;  8.3728260E-11;  1.0000000E+04;  0.0000000E+00;  9.9999883E+03; -1.3139136E-02;  0.0000000E+00;  1.5602163E-03;  3.4235859E+00;
  1.0800015E+00;  9.9999998E-03;  4.0000021E-02;2720;  3.6946167E-03;  0.0000000E+00;  7.7224082E-05;  1.0011208E+03;  4.0044582E-01;  9.0782233E+02;3;  5.6100531E+00;  0.0000000E+00;  1.7808525E-01;0; -1.1207378E-02;  1.0000140E+04;  0.0000000E+00;  2.4383967E-10;  1.0000000E+04;  0.0000000E+00;  9.9999854E+03; -1.3046187E-02;  0.0000000E+00;  1.8388091E-03;  3.9229391E+00;
  1.0800015E+00;  9.9999998E-03;  6.0000036E-02;2721;  3.7107673E-03;  0.0000000E+00;  1.2822298E-04;  1.0011204E+03;  4.0044582E-01;  9.0753265E+02;3;  5.6387873E+00;  0.0000000E+00;  2.9223081E-01;0; -1.0492896E-02;  1.0000137E+04;  0.0000000E+00; -2.4387964E-10;  1.0000000E+04;  0.0000000E+00;  9.9999814E+03; -1.2869583E-02;  0.0000000E+00;  2.3766868E-03;  4.9693203E+00;
  1.0800015E+00;  9.9999998E-03;  8.0000050E-02;2722;  3.7385675E-03;  0.0000000E+00;  1.9527036E-04;  1.0011198E+03;  4.0044582E-01;  9.0704987E+02;3;  5.6884451E+00;  0.0000000E+00;  4.3953252E-01;0; -9.2025325E-03;  1.0000134E+04;  0.0000000E+00; -3.1576000E-09;  1.0000000E+04;  0.0000000E+00;  9.9999727E+03; -1.2569063E-02;  0.0000000E+00;  3.3665306E-03;  7.1070681E+00;
  1.0800015E+00;  9.9999998E-03;  1.0000008E-01;2723;  3.7829855E-03;  0.0000000E+00;  2.8168588E-04;  1.0011187E+03;  4.0044582E-01;  9.0608429E+02;3;  5.7703404E+00;  0.0000000E+00;  6.2478483E-01;0; -6.8275295E-03;  1.0000129E+04;  0.0000000E+00; -1.2303564E-08;  1.0000000E+04;  0.0000000E+00;  9.9999531E+03; -1.2078446E-02;  0.0000000E+00;  5.2509168E-03;  1.1564986E+01;
  1.0800015E+00;  9.9999998E-03;  1.2000011E-01;2724;  3.8478926E-03;  0.0000000E+00;  3.8968006E-04;  1.0011164E+03;  4.0044582E-01;  9.0424976E+02;3;  5.8955016E+00;  0.0000000E+00;  8.5673308E-01;0; -2.4583787E-03;  1.0000120E+04;  0.0000000E+00; -3.3425096E-08;  1.0000000E+04;  0.0000000E+00;  9.9999180E+03; -1.1305569E-02;  0.0000000E+00;  8.8471901E-03;  2.0604662E+01;
  1.0800016E+00;  9.9999998E-03;  1.4000015E-01;2725;  3.9388482E-03;  0.0000000E+00;  5.2238756E-04;  1.0011124E+03;  4.0044582E-01;  9.0106335E+02;3;  6.0770984E+00;  0.0000000E+00;  1.1334215E+00;0;  5.1264018E-03;  1.0000108E+04;  0.0000000E+00; -2.1530408E-05;  1.0000000E+04;  0.0000000E+00;  9.9998506E+03; -1.0158760E-02;  0.0000000E+00;  1.5285162E-02;  3.7384590E+01;
  1.1000013E+00;  9.9999998E-03;  2.2583121E-13;2748;  3.3339371E-03;  0.0000000E+00;  9.8354647E-10;  1.0009739E+03;  4.0038711E-01;  7.8293628E+02;3;  5.1229062E+00;  0.0000000E+00;  2.6076377E-06;0; -1.1315368E-02;  1.0000136E+04;  0.0000000E+00;  1.5217656E-16;  1.0000000E+04;  0.0000000E+00;  9.9999883E+03; -1.2779655E-02;  0.0000000E+00;  1.4642871E-03;  3.3278797E+00;
  1.1000013E+00;  9.9999998E-03;  2.0000011E-02;2749;  3.3373719E-03;  0.0000000E+00;  3.7524274E-05;  1.0009739E+03;  4.0038711E-01;  7.8293628E+02;3;  5.1281824E+00;  0.0000000E+00;  8.4013328E-02;0; -1.1178271E-02;  1.0000135E+04;  0.0000000E+00;  6.8146058E-11;  1.0000000E+04;  0.0000000E+00;  9.9999883E+03; -1.2732933E-02;  0.0000000E+00;  1.5546625E-03;  3.4855466E+00;
  1.1000013E+00;  9.9999998E-03;  4.0000021E-02;2750;  3.3488164E-03;  0.0000000E+00;  7.9566169E-05;  1.0009738E+03;  4.0038714E-01;  7.8274463E+02;3;  5.1469936E+00;  0.0000000E+00;  1.7701006E-01;0; -1.0731451E-02;  1.0000134E+04;  0.0000000E+00; -8.4199717E-11;  1.0000000E+04;  0.0000000E+00;  9.9999854E+03; -1.2582324E-02;  0.0000000E+00;  1.8508733E-03;  4.0222683E+00;
  1.1000013E+00;  9.9999998E-03;  6.0000036E-02;2751;  3.3702396E-03;  0.0000000E+00;  1.2992093E-04;  1.0009733E+03;  4.0038708E-01;  7.8236133E+02;3;  5.1831093E+00;  0.0000000E+00;  2.8621912E-01;0; -9.8470431E-03;  1.0000131E+04;  0.0000000E+00; -1.6078748E-09;  1.0000000E+04;  0.0000000E+00;  9.9999805E+03; -1.2295110E-02;  0.0000000E+00;  2.4480673E-03;  5.1792517E+00;
  1.1000013E+00;  9.9999998E-03;  8.0000058E-02;2752;  3.4047428E-03;  0.0000000E+00;  1.9330371E-04;  1.0009725E+03;  4.0038708E-01;  7.8178632E+02;3;  5.2430840E+00;  0.0000000E+00;  4.2306542E-01;0; -8.2409037E-03;  1.0000125E+04;  0.0000000E+00; -7.3790107E-09;  1.0000000E+04;  0.0000000E+00;  9.9999688E+03; -1.1814578E-02;  0.0000000E+00;  3.5736735E-03;  7.5302820E+00;
  1.1000013E+00;  9.9999998E-03;  1.0000008E-01;2753;  3.4551756E-03;  0.0000000E+00;  2.6981105E-04;  1.0009709E+03;  4.0038702E-01;  7.8054047E+02;3;  5.3321824E+00;  0.0000000E+00;  5.8382964E-01;0; -5.3846743E-03;  1.0000117E+04;  0.0000000E+00; -2.3638435E-08;  1.0000000E+04;  0.0000000E+00;  9.9999482E+03; -1.1064500E-02;  0.0000000E+00;  5.6798253E-03;  1.2215594E+01;
  1.1000013E+00;  9.9999998E-03;  1.2000011E-01;2754;  3.5276245E-03;  0.0000000E+00;  3.6733516E-04;  1.0009685E+03;  4.0038708E-01;  7.7852802E+02;3;  5.4652233E+00;  0.0000000E+00;  7.9055643E-01;0; -4.7554169E-04;  1.0000105E+04;  0.0000000E+00; -7.4172144E-06;  1.0000000E+04;  0.0000000E+00;  9.9999092E+03; -9.9707413E-03;  0.0000000E+00;  9.4951997E-03;  2.1088207E+01;
  1.1000015E+00;  9.9999998E-03;  1.4000015E-01;2755;  3.6281438E-03;  0.0000000E+00;  4.8885192E-04;  1.0009644E+03;  4.0038714E-01;  7.7526978E+02;3;  5.6600022E+00;  0.0000000E+00;  1.0364463E+00;0;  7.2644278E-03;  1.0000090E+04;  0.0000000E+00; -1.6026682E-04;  1.0000000E+04;  0.0000000E+00;  9.9998438E+03; -8.5561015E-03;  0.0000000E+00;  1.5820529E-02;  3.6235760E+01;
  1.1200012E+00;  9.9999998E-03;  1.2165525E-13;2777;  3.0087794E-03;  0.0000000E+00; -1.0008814E-09;  1.0008527E+03;  4.0033889E-01;  6.7872009E+02;3;  4.6846552E+00;  0.0000000E+00; -7.1801187E-06;0; -1.0087400E-02;  1.0000122E+04;  0.0000000E+00; -4.4172530E-17;  1.0000000E+04;  0.0000000E+00;  9.9999883E+03; -1.1582563E-02;  0.0000000E+00;  1.4951628E-03;  3.3591564E+00;
  1.1200012E+00;  9.9999998E-03;  2.0000011E-02;2778;  3.0134728E-03;  0.0000000E+00;  3.9008355E-05;  1.0008526E+03;  4.0033892E-01;  6.7862518E+02;3;  4.6920381E+00;  0.0000000E+00;  8.3303504E-02;0; -9.9024028E-03;  1.0000122E+04;  0.0000000E+00; -1.9223116E-10;  1.0000000E+04;  0.0000000E+00;  9.9999873E+03; -1.1503641E-02;  0.0000000E+00;  1.6012383E-03;  3.5415571E+00;
  1.1200012E+00;  9.9999998E-03;  4.0000025E-02;2779;  3.0281777E-03;  0.0000000E+00;  8.1734128E-05;  1.0008523E+03;  4.0033889E-01;  6.7843542E+02;3;  4.7153559E+00;  0.0000000E+00;  1.7468932E-01;0; -9.2977881E-03;  1.0000118E+04;  0.0000000E+00; -1.2764505E-09;  1.0000000E+04;  0.0000000E+00;  9.9999844E+03; -1.1251854E-02;  0.0000000E+00;  1.9540661E-03;  4.1653495E+00;
  1.1200012E+00;  9.9999998E-03;  6.0000040E-02;2780;  3.0547881E-03;  0.0000000E+00;  1.3018896E-04;  1.0008517E+03;  4.0033892E-01;  6.7786609E+02;3;  4.7599349E+00;  0.0000000E+00;  2.7807656E-01;0; -8.1089120E-03;  1.0000114E+04;  0.0000000E+00; -5.5007066E-09;  1.0000000E+04;  0.0000000E+00;  9.9999775E+03; -1.0783982E-02;  0.0000000E+00;  2.6750707E-03;  5.5004463E+00;
  1.1200012E+00;  9.9999998E-03;  8.0000058E-02;2781;  3.0945365E-03;  0.0000000E+00;  1.8700839E-04;  1.0008506E+03;  4.0033889E-01;  6.7710699E+02;3;  4.8262062E+00;  0.0000000E+00;  3.9676183E-01;0; -6.0149310E-03;  1.0000106E+04;  0.0000000E+00; -1.6846162E-08;  1.0000000E+04;  0.0000000E+00;  9.9999629E+03; -1.0036114E-02;  0.0000000E+00;  4.0211827E-03;  8.1219454E+00;
  1.1200012E+00;  9.9999998E-03;  1.0000008E-01;2782;  3.1512859E-03;  0.0000000E+00;  2.5535526E-04;  1.0008489E+03;  4.0033889E-01;  6.7568365E+02;3;  4.9261560E+00;  0.0000000E+00;  5.4095542E-01;0; -2.5137081E-03;  1.0000094E+04;  0.0000000E+00; -6.5675144E-06;  1.0000000E+04;  0.0000000E+00;  9.9999395E+03; -8.9485748E-03;  0.0000000E+00;  6.4348667E-03;  1.3032490E+01;
  1.1200012E+00;  9.9999998E-03;  1.2000010E-01;2783;  3.2299410E-03;  0.0000000E+00;  3.3985436E-04;  1.0008460E+03;  4.0033889E-01;  6.7340637E+02;3;  5.0705333E+00;  0.0000000E+00;  7.1940625E-01;0;  2.9491903E-03;  1.0000079E+04;  0.0000000E+00; -1.1096014E-04;  1.0000000E+04;  0.0000000E+00;  9.9998984E+03; -7.5412458E-03;  0.0000000E+00;  1.0490436E-02;  2.1567289E+01;
  1.1200013E+00;  9.9999998E-03;  1.4000013E-01;2784;  3.3406909E-03;  0.0000000E+00;  4.5828038E-04;  1.0008420E+03;  4.0033892E-01;  6.7027515E+02;3;  5.2776308E+00;  0.0000000E+00;  9.4703001E-01;0;  1.0648391E-02;  1.0000063E+04;  0.0000000E+00; -7.0523005E-04;  1.0000000E+04;  0.0000000E+00;  9.9998340E+03; -5.9936093E-03;  0.0000000E+00;  1.6642001E-02;  3.4876331E+01;
  1.1400011E+00;  9.9999998E-03; -1.6700607E-13;2805;  2.7236836E-03;  0.0000000E+00; -4.1756046E-10;  1.0007548E+03;  4.0030026E-01;  5.9303033E+02;3;  4.2983804E+00;  0.0000000E+00; -4.6843343E-07;0; -7.6379874E-03;  1.0000097E+04;  0.0000000E+00; -9.8700408E-17;  1.0000000E+04;  0.0000000E+00;  9.9999863E+03; -9.2689665E-03;  0.0000000E+00;  1.6309791E-03;  3.3755667E+00;
  1.1400011E+00;  9.9999998E-03;  2.0000013E-02;2806;  2.7291856E-03;  0.0000000E+00;  3.8619099E-05;  1.0007546E+03;  4.0030023E-01;  5.9293665E+02;3;  4.3072081E+00;  0.0000000E+00;  8.0090418E-02;0; -7.3732035E-03;  1.0000096E+04;  0.0000000E+00; -8.6571994E-10;  1.0000000E+04;  0.0000000E+00;  9.9999854E+03; -9.1425776E-03;  0.0000000E+00;  1.7693740E-03;  3.5983398E+00;
  1.1400011E+00;  9.9999998E-03;  4.0000025E-02;2807;  2.7459424E-03;  0.0000000E+00;  7.9576675E-05;  1.0007542E+03;  4.0030026E-01;  5.9265564E+02;3;  4.3345165E+00;  0.0000000E+00;  1.6659348E-01;0; -6.5211481E-03;  1.0000093E+04;  0.0000000E+00; -4.4844239E-09;  1.0000000E+04;  0.0000000E+00;  9.9999805E+03; -8.7474734E-03;  0.0000000E+00;  2.2263252E-03;  4.3473630E+00;
  1.1400011E+00;  9.9999998E-03;  6.0000036E-02;2808;  2.7741864E-03;  0.0000000E+00;  1.2307895E-04;  1.0007534E+03;  4.0030032E-01;  5.9199994E+02;3;  4.3820901E+00;  0.0000000E+00;  2.5812933E-01;0; -4.9027125E-03;  1.0000084E+04;  0.0000000E+00; -6.5300145E-07;  1.0000000E+04;  0.0000000E+00;  9.9999717E+03; -8.0432473E-03;  0.0000000E+00;  3.1405347E-03;  5.8929238E+00;
  1.1400011E+00;  9.9999998E-03;  8.0000050E-02;2809;  2.8165290E-03;  0.0000000E+00;  1.7205485E-04;  1.0007520E+03;  4.0030023E-01;  5.9087585E+02;3;  4.4559355E+00;  0.0000000E+00;  3.6191645E-01;0; -2.2251206E-03;  1.0000073E+04;  0.0000000E+00; -1.5549711E-05;  1.0000000E+04;  0.0000000E+00;  9.9999561E+03; -6.9971401E-03;  0.0000000E+00;  4.7720196E-03;  8.7508526E+00;
  1.1400011E+00;  9.9999998E-03;  1.0000007E-01;2810;  2.8797877E-03;  0.0000000E+00;  2.3235074E-04;  1.0007499E+03;  4.0030026E-01;  5.8918982E+02;3;  4.5684843E+00;  0.0000000E+00;  4.8790091E-01;0;  1.8568486E-03;  1.0000059E+04;  0.0000000E+00; -1.3153169E-04;  1.0000000E+04;  0.0000000E+00;  9.9999277E+03; -5.6371461E-03;  0.0000000E+00;  7.4939947E-03;  1.3684089E+01;
  1.1400012E+00;  9.9999998E-03;  1.2000009E-01;2811;  2.9654934E-03;  0.0000000E+00;  3.1448065E-04;  1.0007469E+03;  4.0030032E-01;  5.8694171E+02;3;  4.7198124E+00;  0.0000000E+00;  6.5070742E-01;0;  7.5753354E-03;  1.0000042E+04;  0.0000000E+00; -6.4658438E-04;  1.0000000E+04;  0.0000000E+00;  9.9998857E+03; -4.1043949E-03;  0.0000000E+00;  1.1679730E-02;  2.1524250E+01;
  1.1400012E+00;  9.9999998E-03;  1.4000015E-01;2812;  3.1016786E-03;  0.0000000E+00;  4.5158903E-04;  1.0007432E+03;  4.0030029E-01;  5.8403784E+02;3;  4.9562392E+00;  0.0000000E+00;  8.8754970E-01;0;  1.4826652E-02;  1.0000027E+04;  0.0000000E+00; -2.1588888E-03;  1.0000000E+04;  0.0000000E+00;  9.9998252E+03; -2.6811282E-03;  0.0000000E+00;  1.7507780E-02;  3.2913391E+01;
  1.1600009E+00;  9.9999998E-03;  2.0557147E-13;2832;  2.4751974E-03;  0.0000000E+00; -2.4612853E-11;  1.0006766E+03;  4.0026993E-01;  5.2293433E+02;3;  3.9665225E+00;  0.0000000E+00; -2.7952519E-06;0; -3.4681663E-03;  1.0000056E+04;  0.0000000E+00; -3.7429178E-18;  1.0000000E+04;  0.0000000E+00;  9.9999824E+03; -5.4401713E-03;  0.0000000E+00;  1.9720050E-03;  3.3504071E+00;
  1.1600009E+00;  9.9999998E-03;  2.0000011E-02;2833;  2.4804051E-03;  0.0000000E+00;  3.3436936E-05;  1.0006765E+03;  4.0026990E-01;  5.2275006E+02;3;  3.9747627E+00;  0.0000000E+00;  6.9956444E-02;0; -3.1049796E-03;  1.0000055E+04;  0.0000000E+00; -2.4031124E-07;  1.0000000E+04;  0.0000000E+00;  9.9999805E+03; -5.2650203E-03;  0.0000000E+00;  2.1600407E-03;  3.6211290E+00;
  1.1600009E+00;  9.9999998E-03;  4.0000021E-02;2834;  2.4972688E-03;  0.0000000E+00;  6.8558387E-05;  1.0006759E+03;  4.0026996E-01;  5.2238153E+02;3;  4.0029159E+00;  0.0000000E+00;  1.4423421E-01;0; -1.9758868E-03;  1.0000049E+04;  0.0000000E+00; -6.1378578E-06;  1.0000000E+04;  0.0000000E+00;  9.9999746E+03; -4.7395718E-03;  0.0000000E+00;  2.7636851E-03;  4.5015874E+00;
  1.1600009E+00;  9.9999998E-03;  6.0000032E-02;2835;  2.5268339E-03;  0.0000000E+00;  1.0478641E-04;  1.0006749E+03;  4.0026990E-01;  5.2155237E+02;3;  4.0555539E+00;  0.0000000E+00;  2.2165827E-01;0;  4.0315092E-05;  1.0000038E+04;  0.0000000E+00; -4.5419525E-05;  1.0000000E+04;  0.0000000E+00;  9.9999639E+03; -3.8692546E-03;  0.0000000E+00;  3.9095697E-03;  6.2124186E+00;
  1.1600010E+00;  9.9999998E-03;  8.0000043E-02;2836;  2.5762320E-03;  0.0000000E+00;  1.5142660E-04;  1.0006732E+03;  4.0026993E-01;  5.2026251E+02;3;  4.1404791E+00;  0.0000000E+00;  3.1896505E-01;0;  3.1086307E-03;  1.0000027E+04;  0.0000000E+00; -2.1979668E-04;  1.0000000E+04;  0.0000000E+00;  9.9999434E+03; -2.6977162E-03;  0.0000000E+00;  5.8063469E-03;  9.1324759E+00;
  1.1600010E+00;  9.9999998E-03;  1.0000006E-01;2837;  2.6459114E-03;  0.0000000E+00;  2.1041450E-04;  1.0006711E+03;  4.0026990E-01;  5.1860413E+02;3;  4.2572432E+00;  0.0000000E+00;  4.3242183E-01;0;  7.3817195E-03;  1.0000012E+04;  0.0000000E+00; -7.7708584E-04;  1.0000000E+04;  0.0000000E+00;  9.9999150E+03; -1.3361778E-03;  0.0000000E+00;  8.7178973E-03;  1.3796178E+01;
  1.1600010E+00;  9.9999998E-03;  1.2000010E-01;2838;  2.7619649E-03;  0.0000000E+00;  3.1462382E-04;  1.0006682E+03;  4.0026996E-01;  5.1639301E+02;3;  4.4520359E+00;  0.0000000E+00;  6.1100423E-01;0;  1.2834655E-02;  9.9999980E+03;  0.0000000E+00; -2.1792371E-03;  1.0000000E+04;  0.0000000E+00;  9.9998730E+03; -2.3465836E-06;  0.0000000E+00;  1.2837002E-02;  2.0783876E+01;
  1.1600012E+00;  9.9999998E-03;  1.4000018E-01;2839;  2.9480597E-03;  0.0000000E+00;  5.1430357E-04;  1.0006650E+03;  4.0026996E-01;  5.1390540E+02;3;  4.7481518E+00;  0.0000000E+00;  9.3133616E-01;0;  1.9158421E-02;  9.9999883E+03;  0.0000000E+00; -4.9182177E-03;  1.0000000E+04;  0.0000000E+00;  9.9998174E+03;  9.8783185E-04;  0.0000000E+00;  1.8170590E-02;  3.0587002E+01;
  1.1800009E+00;  9.9999998E-03;  3.5848641E-13;2858;  2.2560209E-03;  0.0000000E+00;  2.6112196E-10;  1.0006152E+03;  4.0024659E-01;  4.6551257E+02;3;  3.6748426E+00;  0.0000000E+00; -1.6664490E-06;0;  2.5532651E-03;  9.9999980E+03;  0.0000000E+00; -1.8198275E-18;  1.0000000E+04;  0.0000000E+00;  9.9999756E+03; -7.6653116E-05;  0.0000000E+00;  2.6299183E-03;  3.2368338E+00;
  1.1800009E+00;  9.9999998E-03;  2.0000007E-02;2859;  2.2611869E-03;  0.0000000E+00;  2.5055100E-05;  1.0006149E+03;  4.0024659E-01;  4.6533215E+02;3;  3.6822751E+00;  0.0000000E+00;  5.6031220E-02;0;  2.9779056E-03;  9.9999961E+03;  0.0000000E+00; -1.1317665E-05;  1.0000000E+04;  0.0000000E+00;  9.9999727E+03;  1.0661310E-04;  0.0000000E+00;  2.8712924E-03;  3.5409851E+00;
  1.1800009E+00;  9.9999998E-03;  4.0000014E-02;2860;  2.2803082E-03;  0.0000000E+00;  5.3142558E-05;  1.0006143E+03;  4.0024659E-01;  4.6488107E+02;3;  3.7159939E+00;  0.0000000E+00;  1.1617975E-01;0;  4.2569842E-03;  9.9999912E+03;  0.0000000E+00; -8.4487401E-05;  1.0000000E+04;  0.0000000E+00;  9.9999658E+03;  6.3650316E-04;  0.0000000E+00;  3.6204809E-03;  4.4960771E+00;
  1.1800009E+00;  9.9999998E-03;  6.0000025E-02;2861;  2.3167792E-03;  0.0000000E+00;  8.7776818E-05;  1.0006132E+03;  4.0024656E-01;  4.6406912E+02;3;  3.7770791E+00;  0.0000000E+00;  1.8505889E-01;0;  6.4068176E-03;  9.9999824E+03;  0.0000000E+00; -3.4176416E-04;  1.0000000E+04;  0.0000000E+00;  9.9999521E+03;  1.4534496E-03;  0.0000000E+00;  4.9533681E-03;  6.2429171E+00;
  1.1800009E+00;  9.9999998E-03;  8.0000043E-02;2862;  2.3792647E-03;  0.0000000E+00;  1.4029843E-04;  1.0006116E+03;  4.0024662E-01;  4.6289633E+02;3;  3.8750274E+00;  0.0000000E+00;  2.8016603E-01;0;  9.4476137E-03;  9.9999717E+03;  0.0000000E+00; -1.0209914E-03;  1.0000000E+04;  0.0000000E+00;  9.9999316E+03;  2.4489574E-03;  0.0000000E+00;  6.9986563E-03;  9.0702333E+00;
  1.1800009E+00;  9.9999998E-03;  1.0000008E-01;2863;  2.4841223E-03;  0.0000000E+00;  2.2947062E-04;  1.0006096E+03;  4.0024656E-01;  4.6136261E+02;3;  4.0367112E+00;  0.0000000E+00;  4.2778316E-01;0;  1.3363667E-02;  9.9999619E+03;  0.0000000E+00; -2.4669382E-03;  1.0000000E+04;  0.0000000E+00;  9.9999023E+03;  3.4568142E-03;  0.0000000E+00;  9.9068526E-03;  1.3435532E+01;
  1.1800010E+00;  9.9999998E-03;  1.2000015E-01;2864;  2.6557546E-03;  0.0000000E+00;  3.9322104E-04;  1.0006072E+03;  4.0024659E-01;  4.5955826E+02;3;  4.2963748E+00;  0.0000000E+00;  6.8191350E-01;0;  1.7989647E-02;  9.9999531E+03;  0.0000000E+00; -5.0317668E-03;  1.0000000E+04;  0.0000000E+00;  9.9998623E+03;  4.2362870E-03;  0.0000000E+00;  1.3753360E-02;  1.9820677E+01;
  1.1800011E+00;  9.9999998E-03;  1.4000027E-01;2865;  2.9384855E-03;  0.0000000E+00;  7.0444593E-04;  1.0006046E+03;  4.0024659E-01;  4.5757346E+02;3;  4.7114406E+00;  0.0000000E+00;  1.1617080E+00;0;  2.3054849E-02;  9.9999502E+03;  0.0000000E+00; -8.7356772E-03;  1.0000000E+04;  0.0000000E+00;  9.9998125E+03;  4.5441622E-03;  0.0000000E+00;  1.8510688E-02;  2.8396852E+01;
  1.2000008E+00;  9.9999998E-03;  2.7559403E-13;2882;  2.0851961E-03;  0.0000000E+00;  4.9342258E-10;  1.0005676E+03;  4.0022910E-01;  4.1852957E+02;3;  3.4420552E+00;  0.0000000E+00; -6.6235225E-07;0;  9.7860703E-03;  9.9999336E+03;  0.0000000E+00;  4.3140211E-16;  1.0000000E+04;  0.0000000E+00;  9.9999639E+03;  6.1397525E-03;  0.0000000E+00;  3.6463181E-03;  2.9748557E+00;
  1.2000008E+00;  9.9999998E-03;  2.0000007E-02;2883;  2.0942232E-03;  0.0000000E+00;  2.1636552E-05;  1.0005674E+03;  4.0022913E-01;  4.1835382E+02;3;  3.4563694E+00;  0.0000000E+00;  4.3175798E-02;0;  1.0195157E-02;  9.9999316E+03;  0.0000000E+00; -6.6400302E-05;  1.0000000E+04;  0.0000000E+00;  9.9999619E+03;  6.2730443E-03;  0.0000000E+00;  3.9221123E-03;  3.2787919E+00;
  1.2000008E+00;  9.9999998E-03;  4.0000018E-02;2884;  2.1223461E-03;  0.0000000E+00;  5.2532385E-05;  1.0005668E+03;  4.0022910E-01;  4.1782645E+02;3;  3.4965219E+00;  0.0000000E+00;  1.0044013E-01;0;  1.1402493E-02;  9.9999277E+03;  0.0000000E+00; -3.5461903E-04;  1.0000000E+04;  0.0000000E+00;  9.9999531E+03;  6.6437805E-03;  0.0000000E+00;  4.7587133E-03;  4.2275538E+00;
  1.2000008E+00;  9.9999998E-03;  6.0000036E-02;2885;  2.1793162E-03;  0.0000000E+00;  1.0434461E-04;  1.0005659E+03;  4.0022916E-01;  4.1721121E+02;3;  3.5769863E+00;  0.0000000E+00;  1.8753064E-01;0;  1.3326857E-02;  9.9999219E+03;  0.0000000E+00; -1.1047102E-03;  1.0000000E+04;  0.0000000E+00;  9.9999385E+03;  7.1591050E-03;  0.0000000E+00;  6.1677517E-03;  5.9519916E+00;
  1.2000009E+00;  9.9999998E-03;  8.0000073E-02;2886;  2.2823159E-03;  0.0000000E+00;  1.9550975E-04;  1.0005646E+03;  4.0022910E-01;  4.1624438E+02;3;  3.7218945E+00;  0.0000000E+00;  3.3039835E-01;0;  1.5873199E-02;  9.9999170E+03;  0.0000000E+00; -2.6208663E-03;  1.0000000E+04;  0.0000000E+00;  9.9999180E+03;  7.6732808E-03;  0.0000000E+00;  8.1999181E-03;  8.7647810E+00;
  1.2000009E+00;  9.9999998E-03;  1.0000014E-01;2887;  2.4562909E-03;  0.0000000E+00;  3.5387470E-04;  1.0005630E+03;  4.0022916E-01;  4.1510175E+02;3;  3.9604628E+00;  0.0000000E+00;  5.7298714E-01;0;  1.8947359E-02;  9.9999131E+03;  0.0000000E+00; -5.1309746E-03;  1.0000000E+04;  0.0000000E+00;  9.9998906E+03;  8.0171227E-03;  0.0000000E+00;  1.0930236E-02;  1.3040893E+01;
  1.2000011E+00;  9.9999998E-03;  1.2000024E-01;2888;  2.7572052E-03;  0.0000000E+00;  6.2711653E-04;  1.0005612E+03;  4.0022916E-01;  4.1369547E+02;3;  4.3910656E+00;  0.0000000E+00;  9.9530631E-01;0;  2.2492331E-02;  9.9999121E+03;  0.0000000E+00; -8.6057531E-03;  1.0000000E+04;  0.0000000E+00;  9.9998555E+03;  8.0813775E-03;  0.0000000E+00;  1.4410952E-02;  1.8912275E+01;
  1.2000012E+00;  9.9999998E-03;  1.4000042E-01;2889;  3.2401562E-03;  0.0000000E+00;  1.0786877E-03;  1.0005590E+03;  4.0022913E-01;  4.1211334E+02;3;  5.1116095E+00;  0.0000000E+00;  1.7050824E+00;0;  2.6661098E-02;  9.9999131E+03;  0.0000000E+00; -1.2608974E-02;  1.0000000E+04;  0.0000000E+00;  9.9998105E+03;  7.9581579E-03;  0.0000000E+00;  1.8702941E-02;  2.6080914E+01;
  1.2200007E+00;  9.9999998E-03; -2.1577359E-13;2905;  2.0440514E-03;  0.0000000E+00; -4.9372381E-11;  1.0005316E+03;  4.0021622E-01;  3.7965497E+02;3;  3.3327832E+00;  0.0000000E+00;  2.1935302E-06;0;  1.7051348E-02;  9.9998701E+03;  0.0000000E+00; -7.2298312E-17;  1.0000000E+04;  0.0000000E+00;  9.9999502E+03;  1.2104384E-02;  0.0000000E+00;  4.9469653E-03;  2.5362790E+00;
  1.2200007E+00;  9.9999998E-03;  2.0000016E-02;2906;  2.0603780E-03;  0.0000000E+00;  4.0966024E-05;  1.0005314E+03;  4.0021616E-01;  3.7948468E+02;3;  3.3553743E+00;  0.0000000E+00;  6.4477965E-02;0;  1.7372174E-02;  9.9998701E+03;  0.0000000E+00; -1.7149693E-04;  1.0000000E+04;  0.0000000E+00;  9.9999482E+03;  1.2140163E-02;  0.0000000E+00;  5.2320114E-03;  2.8188956E+00;
  1.2200009E+00;  9.9999998E-03;  4.0000040E-02;2907;  2.1146829E-03;  0.0000000E+00;  1.0183550E-04;  1.0005309E+03;  4.0021622E-01;  3.7914407E+02;3;  3.4269667E+00;  0.0000000E+00;  1.5640841E-01;0;  1.8296702E-02;  9.9998701E+03;  0.0000000E+00; -8.0408173E-04;  1.0000000E+04;  0.0000000E+00;  9.9999404E+03;  1.2217117E-02;  0.0000000E+00;  6.0795839E-03;  3.7340205E+00;
  1.2200009E+00;  9.9999998E-03;  6.0000084E-02;2908;  2.2266407E-03;  0.0000000E+00;  2.0676092E-04;  1.0005302E+03;  4.0021622E-01;  3.7871832E+02;3;  3.5753038E+00;  0.0000000E+00;  3.1598759E-01;0;  1.9707378E-02;  9.9998691E+03;  0.0000000E+00; -2.1737292E-03;  1.0000000E+04;  0.0000000E+00;  9.9999248E+03;  1.2252370E-02;  0.0000000E+00;  7.4550072E-03;  5.4728727E+00;
  1.2200010E+00;  9.9999998E-03;  8.0000155E-02;2909;  2.4295046E-03;  0.0000000E+00;  3.8139985E-04;  1.0005292E+03;  4.0021619E-01;  3.7803711E+02;3;  3.8532059E+00;  0.0000000E+00;  5.8768761E-01;0;  2.1533286E-02;  9.9998701E+03;  0.0000000E+00; -4.5197452E-03;  1.0000000E+04;  0.0000000E+00;  9.9999063E+03;  1.2164513E-02;  0.0000000E+00;  9.3687735E-03;  8.3137827E+00;
  1.2200011E+00;  9.9999998E-03;  1.0000025E-01;2910;  2.7726002E-03;  0.0000000E+00;  6.4647017E-04;  1.0005281E+03;  4.0021619E-01;  3.7718558E+02;3;  4.3416820E+00;  0.0000000E+00;  1.0112664E+00;0;  2.3876280E-02;  9.9998711E+03;  0.0000000E+00; -7.8257415E-03;  1.0000000E+04;  0.0000000E+00;  9.9998809E+03;  1.1997952E-02;  0.0000000E+00;  1.1878327E-02;  1.2359761E+01;
  1.2200013E+00;  9.9999998E-03;  1.2000040E-01;2911;  3.3046475E-03;  0.0000000E+00;  1.0216243E-03;  1.0005264E+03;  4.0021622E-01;  3.7599344E+02;3;  5.1539278E+00;  0.0000000E+00;  1.6058919E+00;0;  2.7095800E-02;  9.9998711E+03;  0.0000000E+00; -1.1729165E-02;  1.0000000E+04;  0.0000000E+00;  9.9998486E+03;  1.2046462E-02;  0.0000000E+00;  1.5049338E-02;  1.7365747E+01;
  1.2200016E+00;  9.9999998E-03;  1.4000061E-01;2912;  4.0142769E-03;  0.0000000E+00;  1.5401058E-03;  1.0005240E+03;  4.0021622E-01;  3.7429037E+02;3;  6.2928634E+00;  0.0000000E+00;  2.4109976E+00;0;  3.1738281E-02;  9.9998643E+03;  0.0000000E+00; -1.5552301E-02;  1.0000000E+04;  0.0000000E+00;  9.9998086E+03;  1.2749857E-02;  0.0000000E+00;  1.8988425E-02;  2.2847622E+01;
  1.2400010E+00;  9.9999998E-03;  2.2558080E-14;2926;  2.4231181E-03;  0.0000000E+00; -3.2854960E-10;  1.0005048E+03;  4.0020680E-01;  3.4722665E+02;3;  3.7481024E+00;  0.0000000E+00; -1.4021498E-06;0;  2.3442566E-02;  9.9998184E+03;  0.0000000E+00;  1.2723361E-15;  1.0000000E+04;  0.0000000E+00;  9.9999355E+03;  1.7051298E-02;  0.0000000E+00;  6.3912687E-03;  1.9246677E+00;
  1.2400010E+00;  9.9999998E-03;  2.0000037E-02;2927;  2.4597454E-03;  0.0000000E+00;  9.3667702E-05;  1.0005046E+03;  4.0020680E-01;  3.4714465E+02;3;  3.8034651E+00;  0.0000000E+00;  1.4886436E-01;0;  2.3683719E-02;  9.9998193E+03;  0.0000000E+00; -2.7222646E-04;  1.0000000E+04;  0.0000000E+00;  9.9999346E+03;  1.7015204E-02;  0.0000000E+00;  6.6685164E-03;  2.1736279E+00;
  1.2400011E+00;  9.9999998E-03;  4.0000085E-02;2928;  2.5784278E-03;  0.0000000E+00;  2.1779278E-04;  1.0005043E+03;  4.0020683E-01;  3.4689859E+02;3;  3.9823670E+00;  0.0000000E+00;  3.4376985E-01;0;  2.4393240E-02;  9.9998193E+03;  0.0000000E+00; -1.2042923E-03;  1.0000000E+04;  0.0000000E+00;  9.9999248E+03;  1.6911233E-02;  0.0000000E+00;  7.4820076E-03;  3.0212390E+00;
  1.2400011E+00;  9.9999998E-03;  6.0000159E-02;2929;  2.8050330E-03;  0.0000000E+00;  4.0093425E-04;  1.0005037E+03;  4.0020680E-01;  3.4648846E+02;3;  4.3303790E+00;  0.0000000E+00;  6.3071656E-01;0;  2.5562709E-02;  9.9998223E+03;  0.0000000E+00; -3.0385156E-03;  1.0000000E+04;  0.0000000E+00;  9.9999121E+03;  1.6782725E-02;  0.0000000E+00;  8.7799840E-03;  4.6661196E+00;
  1.2400013E+00;  9.9999998E-03;  8.0000259E-02;2930;  3.1690265E-03;  0.0000000E+00;  6.5965235E-04;  1.0005027E+03;  4.0020680E-01;  3.4583231E+02;3;  4.9015689E+00;  0.0000000E+00;  1.0342796E+00;0;  2.7338408E-02;  9.9998223E+03;  0.0000000E+00; -5.9188991E-03;  1.0000000E+04;  0.0000000E+00;  9.9998936E+03;  1.6779058E-02;  0.0000000E+00;  1.0559351E-02;  7.2575269E+00;
  1.2400014E+00;  9.9999998E-03;  1.0000040E-01;2931;  3.6799375E-03;  0.0000000E+00;  1.0028596E-03;  1.0005013E+03;  4.0020680E-01;  3.4493005E+02;3;  5.7181778E+00;  0.0000000E+00;  1.5682021E+00;0;  3.0066067E-02;  9.9998184E+03;  0.0000000E+00; -9.6442392E-03;  1.0000000E+04;  0.0000000E+00;  9.9998711E+03;  1.7183874E-02;  0.0000000E+00;  1.2882194E-02;  1.0703828E+01;
  1.2400017E+00;  9.9999998E-03;  1.2000058E-01;2932;  4.3047019E-03;  0.0000000E+00;  1.4499468E-03;  1.0004994E+03;  4.0020683E-01;  3.4353571E+02;3;  6.7353120E+00;  0.0000000E+00;  2.2649610E+00;0;  3.4120478E-02;  9.9998076E+03;  0.0000000E+00; -1.3454413E-02;  1.0000000E+04;  0.0000000E+00;  9.9998408E+03;  1.8261183E-02;  0.0000000E+00;  1.5859293E-02;  1.4544571E+01;
  1.2400020E+00;  9.9999998E-03;  1.4000082E-01;2933;  4.9594063E-03;  0.0000000E+00;  2.0244340E-03;  1.0004966E+03;  4.0020680E-01;  3.4164932E+02;3;  7.8326178E+00;  0.0000000E+00;  3.1661451E+00;0;  3.9480172E-02;  9.9997930E+03;  0.0000000E+00; -1.5596459E-02;  1.0000000E+04;  0.0000000E+00;  9.9998008E+03;  1.9817401E-02;  0.0000000E+00;  1.9662773E-02;  1.7858982E+01;
  1.2600014E+00;  9.9999998E-03; -4.6208957E-14;2944;  3.5730200E-03;  0.0000000E+00; -2.8226371E-10;  1.0004843E+03;  4.0020022E-01;  3.1921188E+02;3;  5.5079465E+00;  0.0000000E+00; -4.7095818E-07;0;  3.1264320E-02;  9.9997549E+03;  0.0000000E+00; -1.2733718E-17;  1.0000000E+04;  0.0000000E+00;  9.9999209E+03;  2.3430534E-02;  0.0000000E+00;  7.8337882E-03;  7.5370014E-01;
  1.2600014E+00;  9.9999998E-03;  2.0000057E-02;2945;  3.6147952E-03;  0.0000000E+00;  1.4614778E-04;  1.0004842E+03;  4.0020019E-01;  3.1913330E+02;3;  5.5748520E+00;  0.0000000E+00;  2.2979711E-01;0;  3.1497143E-02;  9.9997549E+03;  0.0000000E+00; -3.0293819E-04;  1.0000000E+04;  0.0000000E+00;  9.9999189E+03;  2.3401545E-02;  0.0000000E+00;  8.0955969E-03;  9.6352482E-01;
  1.2600015E+00;  9.9999998E-03;  4.0000133E-02;2946;  3.7467727E-03;  0.0000000E+00;  3.3463494E-04;  1.0004839E+03;  4.0020025E-01;  3.1889758E+02;3;  5.7879138E+00;  0.0000000E+00;  5.2481043E-01;0;  3.2220043E-02;  9.9997549E+03;  0.0000000E+00; -1.3228465E-03;  1.0000000E+04;  0.0000000E+00;  9.9999121E+03;  2.3358123E-02;  0.0000000E+00;  8.8619189E-03;  1.7139634E+00;
  1.2600017E+00;  9.9999998E-03;  6.0000241E-02;2947;  3.9835530E-03;  0.0000000E+00;  6.0134073E-04;  1.0004832E+03;  4.0020022E-01;  3.1842609E+02;3;  6.1714005E+00;  0.0000000E+00;  9.4062656E-01;0;  3.3541169E-02;  9.9997549E+03;  0.0000000E+00; -3.2899331E-03;  1.0000000E+04;  0.0000000E+00;  9.9998994E+03;  2.3443136E-02;  0.0000000E+00;  1.0098033E-02;  3.1455250E+00;
  1.2600018E+00;  9.9999998E-03;  8.0000386E-02;2948;  4.3335361E-03;  0.0000000E+00;  9.6044276E-04;  1.0004821E+03;  4.0020022E-01;  3.1771890E+02;3;  6.7451062E+00;  0.0000000E+00;  1.5011635E+00;0;  3.5708804E-02;  9.9997510E+03;  0.0000000E+00; -6.2409597E-03;  1.0000000E+04;  0.0000000E+00;  9.9998818E+03;  2.3865901E-02;  0.0000000E+00;  1.1842903E-02;  5.2912188E+00;
  1.2600019E+00;  9.9999998E-03;  1.0000057E-01;2949;  4.7653238E-03;  0.0000000E+00;  1.3993955E-03;  1.0004805E+03;  4.0020022E-01;  3.1669745E+02;3;  7.4675841E+00;  0.0000000E+00;  2.1910179E+00;0;  3.8815185E-02;  9.9997441E+03;  0.0000000E+00; -9.4094472E-03;  1.0000000E+04;  0.0000000E+00;  9.9998574E+03;  2.4619937E-02;  0.0000000E+00;  1.4195249E-02;  7.8139753E+00;
  1.2600021E+00;  9.9999998E-03;  1.2000077E-01;2950;  5.2012000E-03;  0.0000000E+00;  1.9117299E-03;  1.0004787E+03;  4.0020022E-01;  3.1551883E+02;3;  8.2234898E+00;  0.0000000E+00;  3.0048277E+00;0;  4.2413764E-02;  9.9997383E+03;  0.0000000E+00; -1.0685686E-02;  1.0000000E+04;  0.0000000E+00;  9.9998262E+03;  2.5166780E-02;  0.0000000E+00;  1.7246984E-02;  9.8412533E+00;
  1.2600023E+00;  9.9999998E-03;  1.4000101E-01;2951;  5.5610193E-03;  0.0000000E+00;  2.4904786E-03;  1.0004769E+03;  4.0020022E-01;  3.1434024E+02;3;  8.8930874E+00;  0.0000000E+00;  3.9380643E+00;0;  4.5757674E-02;  9.9997432E+03;  0.0000000E+00; -6.6242451E-03;  1.0000000E+04;  0.0000000E+00;  9.9997861E+03;  2.4672311E-02;  0.0000000E+00;  2.1085361E-02;  1.0866609E+01;
  1.2800020E+00;  9.9999998E-03;  6.8180521E-14;2959;  4.8766714E-03;  0.0000000E+00; -3.3691199E-11;  1.0004677E+03;  4.0019569E-01;  2.9398087E+02;3;  7.5872855E+00;  0.0000000E+00; -5.9301965E-07;0;  4.1778725E-02;  9.9996631E+03;  0.0000000E+00;  1.0509795E-15;  1.0000000E+04;  0.0000000E+00;  9.9999082E+03;  3.2614850E-02;  0.0000000E+00;  9.1638751E-03;  1.2277719E+00;
  1.2800020E+00;  9.9999998E-03;  2.0000082E-02;2960;  4.8986827E-03;  0.0000000E+00;  2.0315709E-04;  1.0004677E+03;  4.0019569E-01;  2.9398083E+02;3;  7.6268525E+00;  0.0000000E+00;  3.2031855E-01;0;  4.1845642E-02;  9.9996650E+03;  0.0000000E+00; -2.1277090E-04;  1.0000000E+04;  0.0000000E+00;  9.9999063E+03;  3.2431256E-02;  0.0000000E+00;  9.4143879E-03;  1.0475831E+00;
  1.2800020E+00;  9.9999998E-03;  4.0000185E-02;2961;  4.9658231E-03;  0.0000000E+00;  4.6447627E-04;  1.0004675E+03;  4.0019569E-01;  2.9390588E+02;3;  7.7489429E+00;  0.0000000E+00;  7.3182786E-01;0;  4.2055767E-02;  9.9996709E+03;  0.0000000E+00; -9.2181558E-04;  1.0000000E+04;  0.0000000E+00;  9.9998984E+03;  3.1889509E-02;  0.0000000E+00;  1.0166259E-02;  6.6790390E-01;
  1.2800021E+00;  9.9999998E-03;  6.0000334E-02;2962;  5.0801258E-03;  0.0000000E+00;  8.3008839E-04;  1.0004673E+03;  4.0019566E-01;  2.9375595E+02;3;  7.9589710E+00;  0.0000000E+00;  1.3079181E+00;0;  4.2507444E-02;  9.9996787E+03;  0.0000000E+00; -2.1896521E-03;  1.0000000E+04;  0.0000000E+00;  9.9998848E+03;  3.1040125E-02;  0.0000000E+00;  1.1467319E-02;  1.1755115E+00;
  1.2800021E+00;  9.9999998E-03;  8.0000527E-02;2963;  5.2357968E-03;  0.0000000E+00;  1.3048773E-03;  1.0004669E+03;  4.0019566E-01;  2.9353113E+02;3;  8.2542267E+00;  0.0000000E+00;  2.0602744E+00;0;  4.3364782E-02;  9.9996914E+03;  0.0000000E+00; -3.4807117E-03;  1.0000000E+04;  0.0000000E+00;  9.9998643E+03;  2.9880930E-02;  0.0000000E+00;  1.3483853E-02;  2.5544019E+00;
  1.2800022E+00;  9.9999998E-03;  1.0000075E-01;2964;  5.3977272E-03;  0.0000000E+00;  1.8274386E-03;  1.0004664E+03;  4.0019572E-01;  2.9315637E+02;3;  8.5813999E+00;  0.0000000E+00;  2.8979120E+00;0;  4.4372771E-02;  9.9997080E+03;  0.0000000E+00; -2.7600157E-03;  1.0000000E+04;  0.0000000E+00;  9.9998359E+03;  2.8102579E-02;  0.0000000E+00;  1.6270192E-02;  4.1397371E+00;
  1.2800022E+00;  9.9999998E-03;  1.2000097E-01;2965;  5.4974090E-03;  0.0000000E+00;  2.3716581E-03;  1.0004662E+03;  4.0019569E-01;  2.9308142E+02;3;  8.8351307E+00;  0.0000000E+00;  3.7848902E+00;0;  4.4725962E-02;  9.9997393E+03;  0.0000000E+00;  2.7510130E-03;  1.0000000E+04;  0.0000000E+00;  9.9998008E+03;  2.4949882E-02;  0.0000000E+00;  1.9776082E-02;  6.7878900E+00;
  1.3000022E+00;  9.9999998E-03;  5.3072642E-14;2970;  5.4466128E-03;  0.0000000E+00;  1.7534445E-10;  1.0004590E+03;  4.0019253E-01;  2.7443173E+02;3;  8.6258249E+00;  0.0000000E+00;  2.9893272E-07;0;  4.3395862E-02;  9.9996582E+03;  0.0000000E+00; -9.6828413E-16;  1.0000000E+04;  0.0000000E+00;  9.9998965E+03;  3.3080574E-02;  0.0000000E+00;  1.0315288E-02;  1.7040321E+00;
  1.3000022E+00;  9.9999998E-03;  2.0000106E-02;2971;  5.4421108E-03;  0.0000000E+00;  2.6225793E-04;  1.0004592E+03;  4.0019250E-01;  2.7457431E+02;3;  8.6249857E+00;  0.0000000E+00;  4.1961065E-01;0;  4.3114737E-02;  9.9996631E+03;  0.0000000E+00;  5.0017428E-05;  1.0000000E+04;  0.0000000E+00;  9.9998936E+03;  3.2546736E-02;  0.0000000E+00;  1.0568002E-02;  1.4684255E+00;
  1.3000022E+00;  9.9999998E-03;  4.0000245E-02;2972;  5.4268888E-03;  0.0000000E+00;  6.0114387E-04;  1.0004595E+03;  4.0019253E-01;  2.7478815E+02;3;  8.6238995E+00;  0.0000000E+00;  9.6205920E-01;0;  4.2311005E-02;  9.9996797E+03;  0.0000000E+00;  3.6547417E-04;  1.0000000E+04;  0.0000000E+00;  9.9998857E+03;  3.0924380E-02;  0.0000000E+00;  1.1386625E-02;  7.3874354E-01;
  1.3000022E+00;  9.9999998E-03;  6.0000438E-02;2973;  5.3950269E-03;  0.0000000E+00;  1.0735263E-03;  1.0004601E+03;  4.0019253E-01;  2.7514456E+02;3;  8.6132879E+00;  0.0000000E+00;  1.7200617E+00;0;  4.1232027E-02;  9.9997080E+03;  0.0000000E+00;  1.6493720E-03;  1.0000000E+04;  0.0000000E+00;  9.9998682E+03;  2.8205674E-02;  0.0000000E+00;  1.3026351E-02;  9.1144884E-01;
  1.3000022E+00;  9.9999998E-03;  8.0000684E-02;2974;  5.3422735E-03;  0.0000000E+00;  1.6738434E-03;  1.0004605E+03;  4.0019250E-01;  2.7535840E+02;3;  8.5890074E+00;  0.0000000E+00;  2.6892159E+00;0;  4.0435717E-02;  9.9997441E+03;  0.0000000E+00;  5.5190562E-03;  1.0000000E+04;  0.0000000E+00;  9.9998379E+03;  2.4499223E-02;  0.0000000E+00;  1.5936496E-02;  3.5811017E+00;
 -4.8451243E-12;  9.9999998E-03;  1.6000000E-01;1053; -3.4534949E-08;  0.0000000E+00;  2.2646576E-09;  1.0000000E+03;  4.0000001E-01;  0.0000000E+00;3; -1.2664845E-04;  0.0000000E+00;  8.4176863E-06;0; -6.4337382E-07;  1.0000000E+04;  0.0000000E+00;  5.0249878E-15;  1.0000000E+04;  0.0000000E+00;  1.0000000E+04; -6.5613790E-07;  0.0000000E+00;  1.2764059E-08;  7.1086702E-06;
 -4.6160918E-12;  9.9999998E-03;  1.8000001E-01;1054; -3.2883307E-08;  0.0000000E+00;  2.8067262E-09;  1.0000000E+03;  4.0000001E-01;  0.0000000E+00;3; -1.2055616E-04;  0.0000000E+00;  1.0414295E-05;0; -6.1146989E-07;  1.0000000E+04;  0.0000000E+00; -9.8720250E-15;  1.0000000E+04;  0.0000000E+00;  1.0000000E+04; -6.2547537E-07;  0.0000000E+00;  1.4005451E-08;  7.7161521E-06;
 -4.3298511E-12;  9.9999998E-03;  2.0000000E-01;1055; -3.0828595E-08;  0.0000000E+00;  3.3923906E-09;  1.0000000E+03;  4.0000001E-01;  0.0000000E+00;3; -1.1299605E-04;  0.0000000E+00;  1.2565892E-05;0; -5.7242272E-07;  1.0000000E+04;  0.0000000E+00; -7.6104106E-15;  1.0000000E+04;  0.0000000E+00;  1.0000000E+04; -5.8640450E-07;  0.0000000E+00;  1.3981776E-08;  7.8599269E-06;
 -3.9786382E-12;  9.9999998E-03;  2.2000000E-01;1056; -2.8317872E-08;  0.0000000E+00;  4.0000256E-09;  1.0000000E+03;  4.0000001E-01;  0.0000000E+00;3; -1.0378026E-04;  0.0000000E+00;  1.4793112E-05;0; -5.2539713E-07;  1.0000000E+04;  0.0000000E+00; -1.3519626E-15;  1.0000000E+04;  0.0000000E+00;  1.0000000E+04; -5.3687575E-07;  0.0000000E+00;  1.1478612E-08;  7.0232200E-06;
 -3.5542567E-12;  9.9999998E-03;  2.3999999E-01;1057; -2.5294451E-08;  0.0000000E+00;  4.6044817E-09;  1.0000000E+03;  4.0000001E-01;  0.0000000E+00;3; -9.2705493E-05;  0.0000000E+00;  1.7005174E-05;0; -4.6936398E-07;  1.0000000E+04;  0.0000000E+00; -2.1570046E-15;  1.0000000E+04;  0.0000000E+00;  1.0000000E+04; -4.7490749E-07;  0.0000000E+00;  5.5435141E-09;  4.7475601E-06;
 -3.0514040E-12;  9.9999998E-03;  2.5999999E-01;1058; -2.1722217E-08;  0.0000000E+00;  5.1256452E-09;  1.0000000E+03;  4.0000001E-01;  0.0000000E+00;3; -7.9641613E-05;  0.0000000E+00;  1.8907489E-05;0; -4.0353268E-07;  1.0000000E+04;  0.0000000E+00; -1.5055672E-15;  1.0000000E+04;  0.0000000E+00;  1.0000000E+04; -3.9998611E-07;  0.0000000E+00; -3.5465766E-09;  1.0609491E-06;
 -2.4651516E-12;  9.9999998E-03;  2.8000000E-01;1059; -1.7562513E-08;  0.0000000E+00;  5.4960734E-09;  1.0000000E+03;  4.0000001E-01;  0.0000000E+00;3; -6.4435604E-05;  0.0000000E+00;  2.0261563E-05;0; -3.2885401E-07;  1.0000000E+04;  0.0000000E+00; -3.6170695E-15;  1.0000000E+04;  0.0000000E+00;  1.0000000E+04; -3.1513579E-07;  0.0000000E+00; -1.3718235E-08;  3.2304602E-06;
  2.0000000E-02;  9.9999998E-03;  1.6000000E-01;1083; -6.4410983E-08;  0.0000000E+00;  4.2659654E-09;  1.0000000E+03;  4.0000001E-01;  0.0000000E+00;3; -2.3400046E-04;  0.0000000E+00;  1.5772846E-05;0; -1.1855325E-06;  1.0000000E+04;  0.0000000E+00; -8.5496295E-15;  1.0000000E+04;  0.0000000E+00;  1.0000000E+04; -1.2108660E-06;  0.0000000E+00;  2.5333481E-08;  1.5671561E-05;
  2.0000000E-02;  9.9999998E-03;  1.8000001E-01;1084; -6.1411654E-08;  0.0000000E+00;  5.2749161E-09;  1.0000000E+03;  4.0000001E-01;  0.0000000E+00;3; -2.2302862E-04;  0.0000000E+00;  1.9458021E-05;0; -1.1278345E-06;  1.0000000E+04;  0.0000000E+00; -2.6530207E-14;  1.0000000E+04;  0.0000000E+00;  1.0000000E+04; -1.1556738E-06;  0.0000000E+00;  2.7839345E-08;  1.7049000E-05;
  2.0000000E-02;  9.9999998E-03;  2.0000000E-01;1085; -5.7668839E-08;  0.0000000E+00;  6.3634142E-09;  1.0000000E+03;  4.0000001E-01;  0.0000000E+00;3; -2.0938150E-04;  0.0000000E+00;  2.3420007E-05;0; -1.0573001E-06;  1.0000000E+04;  0.0000000E+00; -5.0778096E-15;  1.0000000E+04;  0.0000000E+00;  1.0000000E+04; -1.0851636E-06;  0.0000000E+00;  2.7863527E-08;  1.7395292E-05;
  2.0000000E-02;  9.9999998E-03;  2.2000000E-01;1086; -5.3075549E-08;  0.0000000E+00;  7.4930755E-09;  1.0000000E+03;  4.0000001E-01;  0.0000000E+00;3; -1.9268539E-04;  0.0000000E+00;  2.7519834E-05;0; -9.7238944E-07;  1.0000000E+04;  0.0000000E+00; -5.4521906E-15;  1.0000000E+04;  0.0000000E+00;  1.0000000E+04; -9.9538477E-07;  0.0000000E+00;  2.2995295E-08;  1.5549787E-05;
  2.0000000E-02;  9.9999998E-03;  2.3999999E-01;1087; -4.7510461E-08;  0.0000000E+00;  8.6181231E-09;  1.0000000E+03;  4.0000001E-01;  0.0000000E+00;3; -1.7250983E-04;  0.0000000E+00;  3.1595187E-05;0; -8.7108913E-07;  1.0000000E+04;  0.0000000E+00;  2.5844629E-15;  1.0000000E+04;  0.0000000E+00;  1.0000000E+04; -8.8243428E-07;  0.0000000E+00;  1.1345170E-08;  1.0490501E-05;
  2.0000000E-02;  9.9999998E-03;  2.5999999E-01;1088; -4.0879485E-08;  0.0000000E+00;  9.5896073E-09;  1.0000000E+03;  4.0000001E-01;  0.0000000E+00;3; -1.4851577E-04;  0.0000000E+00;  3.5103352E-05;0; -7.5168316E-07;  1.0000000E+04;  0.0000000E+00;  1.2137184E-14;  1.0000000E+04;  0.0000000E+00;  1.0000000E+04; -7.4509546E-07;  0.0000000E+00; -6.5876975E-09;  2.2760785E-06;
  2.0000000E-02;  9.9999998E-03;  2.8000000E-01;1089; -3.3058409E-08;  0.0000000E+00;  1.0286151E-08;  1.0000000E+03;  4.0000001E-01;  0.0000000E+00;3; -1.2021808E-04;  0.0000000E+00;  3.7624995E-05;0; -6.1553931E-07;  1.0000000E+04;  0.0000000E+00;  8.5240237E-15;  1.0000000E+04;  0.0000000E+00;  1.0000000E+04; -5.8872968E-07;  0.0000000E+00; -2.6809655E-08;  7.3208730E-06;
  2.0000000E-02;  9.9999998E-03;  3.0000001E-01;1090; -2.4238053E-08;  0.0000000E+00;  1.0449718E-08;  1.0000000E+03;  4.0000001E-01;  0.0000000E+00;3; -8.8256704E-05;  0.0000000E+00;  3.8242833E-05;0; -4.7090171E-07;  1.0000000E+04;  0.0000000E+00; -6.8640429E-15;  1.0000000E+04;  0.0000000E+00;  1.0000000E+04; -4.2742647E-07;  0.0000000E+00; -4.3475243E-08;  1.5612537E-05;
  3.9999999E-02;  9.9999998E-03;  1.6000000E-01;1114; -1.1696489E-07;  0.0000000E+00;  7.7569853E-09;  1.0000000E+03;  4.0000001E-01;  0.0000000E+00;3; -4.1983812E-04;  0.0000000E+00;  2.8472954E-05;0; -2.1361566E-06;  1.0000000E+04;  0.0000000E+00; -1.5831588E-14;  1.0000000E+04;  0.0000000E+00;  1.0000000E+04; -2.1845583E-06;  0.0000000E+00;  4.8401745E-08;  3.3404576E-05;
  3.9999999E-02;  9.9999998E-03;  1.8000001E-01;1115; -1.1167805E-07;  0.0000000E+00;  9.5819912E-09;  1.0000000E+03;  4.0000001E-01;  0.0000000E+00;3; -4.0071254E-04;  0.0000000E+00;  3.5065084E-05;0; -2.0345296E-06;  1.0000000E+04;  0.0000000E+00; -6.6382929E-15;  1.0000000E+04;  0.0000000E+00;  1.0000000E+04; -2.0877947E-06;  0.0000000E+00;  5.3264920E-08;  3.6415164E-05;
  3.9999999E-02;  9.9999998E-03;  2.0000000E-01;1116; -1.0505855E-07;  0.0000000E+00;  1.1554070E-08;  1.0000000E+03;  4.0000001E-01;  0.0000000E+00;3; -3.7686370E-04;  0.0000000E+00;  4.2156676E-05;0; -1.9103152E-06;  1.0000000E+04;  0.0000000E+00;  8.2105106E-15;  1.0000000E+04;  0.0000000E+00;  1.0000000E+04; -1.9637450E-06;  0.0000000E+00;  5.3429858E-08;  3.7212354E-05;
  3.9999999E-02;  9.9999998E-03;  2.2000000E-01;1117; -9.6899342E-08;  0.0000000E+00;  1.3608904E-08;  1.0000000E+03;  4.0000001E-01;  0.0000000E+00;3; -3.4758265E-04;  0.0000000E+00;  4.9519604E-05;0; -1.7606640E-06;  1.0000000E+04;  0.0000000E+00; -1.0121342E-14;  1.0000000E+04;  0.0000000E+00;  1.0000000E+04; -1.8049398E-06;  0.0000000E+00;  4.4275847E-08;  3.3275399E-05;
  3.9999999E-02;  9.9999998E-03;  2.3999999E-01;1118; -8.6959943E-08;  0.0000000E+00;  1.5665231E-08;  1.0000000E+03;  4.0000001E-01;  0.0000000E+00;3; -3.1202892E-04;  0.0000000E+00;  5.6872246E-05;0; -1.5816341E-06;  1.0000000E+04;  0.0000000E+00; -4.1604230E-15;  1.0000000E+04;  0.0000000E+00;  1.0000000E+04; -1.6038122E-06;  0.0000000E+00;  2.2177982E-08;  2.2398846E-05;
  3.9999999E-02;  9.9999998E-03;  2.5999999E-01;1119; -7.5045783E-08;  0.0000000E+00;  1.7469262E-08;  1.0000000E+03;  4.0000001E-01;  0.0000000E+00;3; -2.6950784E-04;  0.0000000E+00;  6.3303349E-05;0; -1.3695548E-06;  1.0000000E+04;  0.0000000E+00;  8.6734497E-15;  1.0000000E+04;  0.0000000E+00;  1.0000000E+04; -1.3575678E-06;  0.0000000E+00; -1.1986899E-08;  4.7021313E-06;
  3.9999999E-02;  9.9999998E-03;  2.8000000E-01;1120; -6.0934745E-08;  0.0000000E+00;  1.8809724E-08;  1.0000000E+03;  4.0000001E-01;  0.0000000E+00;3; -2.1914367E-04;  0.0000000E+00;  6.8106325E-05;0; -1.1261330E-06;  1.0000000E+04;  0.0000000E+00; -1.3313199E-14;  1.0000000E+04;  0.0000000E+00;  1.0000000E+04; -1.0754006E-06;  0.0000000E+00; -5.0732453E-08;  1.6030730E-05;
  3.9999999E-02;  9.9999998E-03;  3.0000001E-01;1121; -4.4894119E-08;  0.0000000E+00;  1.9037579E-08;  1.0000000E+03;  4.0000001E-01;  0.0000000E+00;3; -1.6175909E-04;  0.0000000E+00;  6.8973954E-05;0; -8.6568957E-07;  1.0000000E+04;  0.0000000E+00; -1.3022698E-14;  1.0000000E+04;  0.0000000E+00;  1.0000000E+04; -7.8275087E-07;  0.0000000E+00; -8.2938712E-08;  3.4017365E-05;
  5.9999999E-02;  9.9999998E-03;  1.6000000E-01;1145; -2.0739974E-07;  0.0000000E+00;  1.3756196E-08;  1.0000000E+03;  4.0000001E-01;  0.0000000E+00;3; -7.3341338E-04;  0.0000000E+00;  5.0013183E-05;0; -3.7749323E-06;  1.0000000E+04;  0.0000000E+00; -2.8562944E-14;  1.0000000E+04;  0.0000000E+00;  1.0000000E+04; -3.8647481E-06;  0.0000000E+00;  8.9815693E-08;  6.9059359E-05;
  5.9999999E-02;  9.9999998E-03;  1.8000001E-01;1146; -1.9833627E-07;  0.0000000E+00;  1.6978762E-08;  1.0000000E+03;  4.0000001E-01;  0.0000000E+00;3; -7.0109835E-04;  0.0000000E+00;  6.1489518E-05;0; -3.6001327E-06;  1.0000000E+04;  0.0000000E+00; -1.1991395E-14;  1.0000000E+04;  0.0000000E+00;  1.0000000E+04; -3.6991200E-06;  0.0000000E+00;  9.8987371E-08;  7.5444834E-05;
  5.9999999E-02;  9.9999998E-03;  2.0000000E-01;1147; -1.8693983E-07;  0.0000000E+00;  2.0488219E-08;  1.0000000E+03;  4.0000001E-01;  0.0000000E+00;3; -6.6066522E-04;  0.0000000E+00;  7.3921568E-05;0; -3.3863878E-06;  1.0000000E+04;  0.0000000E+00;  1.4877580E-14;  1.0000000E+04;  0.0000000E+00;  1.0000000E+04; -3.4858997E-06;  0.0000000E+00;  9.9511801E-08;  7.7230485E-05;
  5.9999999E-02;  9.9999998E-03;  2.2000000E-01;1148; -1.7282942E-07;  0.0000000E+00;  2.4154314E-08;  1.0000000E+03;  4.0000001E-01;  0.0000000E+00;3; -6.1084144E-04;  0.0000000E+00;  8.6852473E-05;0; -3.1284369E-06;  1.0000000E+04;  0.0000000E+00; -8.5838480E-15;  1.0000000E+04;  0.0000000E+00;  1.0000000E+04; -3.2112118E-06;  0.0000000E+00;  8.2774946E-08;  6.9105481E-05;
  5.9999999E-02;  9.9999998E-03;  2.3999999E-01;1149; -1.5554404E-07;  0.0000000E+00;  2.7831911E-08;  1.0000000E+03;  4.0000001E-01;  0.0000000E+00;3; -5.5004540E-04;  0.0000000E+00;  9.9791716E-05;0; -2.8186289E-06;  1.0000000E+04;  0.0000000E+00; -7.4701980E-16;  1.0000000E+04;  0.0000000E+00;  1.0000000E+04; -2.8606305E-06;  0.0000000E+00;  4.2001574E-08;  4.6446163E-05;
  5.9999999E-02;  9.9999998E-03;  2.5999999E-01;1150; -1.3467485E-07;  0.0000000E+00;  3.1104779E-08;  1.0000000E+03;  4.0000001E-01;  0.0000000E+00;3; -4.7683128E-04;  0.0000000E+00;  1.1127631E-04;0; -2.4493411E-06;  1.0000000E+04;  0.0000000E+00; -3.5967726E-14;  1.0000000E+04;  0.0000000E+00;  1.0000000E+04; -2.4280237E-06;  0.0000000E+00; -2.1317382E-08;  9.4771103E-06;
  5.9999999E-02;  9.9999998E-03;  2.8000000E-01;1151; -1.0976901E-07;  0.0000000E+00;  3.3567083E-08;  1.0000000E+03;  4.0000001E-01;  0.0000000E+00;3; -3.8941781E-04;  0.0000000E+00;  1.1997799E-04;0; -2.0222401E-06;  1.0000000E+04;  0.0000000E+00; -1.1250769E-11;  1.0000000E+04;  0.0000000E+00;  1.0000000E+04; -1.9287754E-06;  0.0000000E+00; -9.3464564E-08;  3.3956003E-05;
  5.9999999E-02;  9.9999998E-03;  3.0000001E-01;1152; -8.1171549E-08;  0.0000000E+00;  3.4034457E-08;  1.0000000E+03;  4.0000001E-01;  0.0000000E+00;3; -2.8869882E-04;  0.0000000E+00;  1.2175518E-04;0; -1.5616431E-06;  1.0000000E+04;  0.0000000E+00; -4.0970366E-11;  1.0000000E+04;  0.0000000E+00;  1.0000000E+04; -1.4079357E-06;  0.0000000E+00; -1.5370742E-07;  7.1737159E-05;
  7.9999998E-02;  9.9999998E-03;  1.6000000E-01;1176; -3.6070713E-07;  0.0000000E+00;  2.3862981E-08;  1.0000000E+03;  4.0000001E-01;  0.0000000E+00;3; -1.2530412E-03;  0.0000000E+00;  8.5703708E-05;0; -6.5475529E-06;  1.0000000E+04;  0.0000000E+00; -5.0360937E-14;  1.0000000E+04;  0.0000000E+00;  1.0000000E+04; -6.7102092E-06;  0.0000000E+00;  1.6265642E-07;  1.3868957E-04;
  7.9999998E-02;  9.9999998E-03;  1.8000001E-01;1177; -3.4552579E-07;  0.0000000E+00;  2.9444001E-08;  1.0000000E+03;  4.0000001E-01;  0.0000000E+00;3; -1.1998913E-03;  0.0000000E+00;  1.0523691E-04;0; -6.2537811E-06;  1.0000000E+04;  0.0000000E+00; -6.6448833E-14;  1.0000000E+04;  0.0000000E+00;  1.0000000E+04; -6.4333713E-06;  0.0000000E+00;  1.7959030E-07;  1.5187776E-04;
  7.9999998E-02;  9.9999998E-03;  2.0000000E-01;1178; -3.2634583E-07;  0.0000000E+00;  3.5569574E-08;  1.0000000E+03;  4.0000001E-01;  0.0000000E+00;3; -1.1331216E-03;  0.0000000E+00;  1.2654718E-04;0; -5.8942092E-06;  1.0000000E+04;  0.0000000E+00; -3.0270105E-14;  1.0000000E+04;  0.0000000E+00;  1.0000000E+04; -6.0752232E-06;  0.0000000E+00;  1.8101396E-07;  1.5581393E-04;
  7.9999998E-02;  9.9999998E-03;  2.2000000E-01;1179; -3.0247625E-07;  0.0000000E+00;  4.1980663E-08;  1.0000000E+03;  4.0000001E-01;  0.0000000E+00;3; -1.0504859E-03;  0.0000000E+00;  1.4873684E-04;0; -5.4591678E-06;  1.0000000E+04;  0.0000000E+00; -1.7447688E-14;  1.0000000E+04;  0.0000000E+00;  1.0000000E+04; -5.6104277E-06;  0.0000000E+00;  1.5125987E-07;  1.3963890E-04;
  7.9999998E-02;  9.9999998E-03;  2.3999999E-01;1180; -2.7304904E-07;  0.0000000E+00;  4.8427257E-08;  1.0000000E+03;  4.0000001E-01;  0.0000000E+00;3; -9.4906893E-04;  0.0000000E+00;  1.7098033E-04;0; -4.9343103E-06;  1.0000000E+04;  0.0000000E+00; -1.6589514E-10;  1.0000000E+04;  0.0000000E+00;  1.0000000E+04; -5.0122389E-06;  0.0000000E+00;  7.7928483E-08;  9.3911891E-05;
  7.9999998E-02;  9.9999998E-03;  2.5999999E-01;1181; -2.3720683E-07;  0.0000000E+00;  5.4258326E-08;  1.0000000E+03;  4.0000001E-01;  0.0000000E+00;3; -8.2586450E-04;  0.0000000E+00;  1.9106394E-04;0; -4.3058949E-06;  1.0000000E+04;  0.0000000E+00; -1.4062794E-09;  1.0000000E+04;  0.0000000E+00;  1.0000000E+04; -4.2692586E-06;  0.0000000E+00; -3.6636205E-08;  1.9043277E-05;
  7.9999998E-02;  9.9999998E-03;  2.8000000E-01;1182; -1.9405256E-07;  0.0000000E+00;  5.8737267E-08;  1.0000000E+03;  4.0000001E-01;  0.0000000E+00;3; -6.7737023E-04;  0.0000000E+00;  2.0663823E-04;0; -3.5745391E-06;  1.0000000E+04;  0.0000000E+00; -3.7770440E-09;  1.0000000E+04;  0.0000000E+00;  1.0000000E+04; -3.4066150E-06;  0.0000000E+00; -1.6792410E-07;  6.9681359E-05;
  7.9999998E-02;  9.9999998E-03;  3.0000001E-01;1183; -1.4401927E-07;  0.0000000E+00;  5.9798154E-08;  1.0000000E+03;  4.0000001E-01;  0.0000000E+00;3; -5.0437218E-04;  0.0000000E+00;  2.1063515E-04;0; -2.7785218E-06;  1.0000000E+04;  0.0000000E+00; -6.3920798E-09;  1.0000000E+04;  0.0000000E+00;  1.0000000E+04; -2.5004529E-06;  0.0000000E+00; -2.7806882E-07;  1.4695909E-04;
  1.0000000E-01;  9.9999998E-03;  1.6000000E-01;1207; -6.1707419E-07;  0.0000000E+00;  4.0576783E-08;  1.0000000E+03;  4.0000001E-01;  0.0000000E+00;3; -2.1003210E-03;  0.0000000E+00;  1.4353848E-04;0; -1.1151830E-05;  1.0000000E+04;  0.0000000E+00; -8.6939821E-14;  1.0000000E+04;  0.0000000E+00;  1.0000000E+04; -1.1440130E-05;  0.0000000E+00;  2.8830013E-07;  2.7092773E-04;
  1.0000000E-01;  9.9999998E-03;  1.8000001E-01;1208; -5.9215154E-07;  0.0000000E+00;  5.0076970E-08;  1.0000000E+03;  4.0000001E-01;  0.0000000E+00;3; -2.0149597E-03;  0.0000000E+00;  1.7611578E-04;0; -1.0668941E-05;  1.0000000E+04;  0.0000000E+00; -3.6666257E-14;  1.0000000E+04;  0.0000000E+00;  1.0000000E+04; -1.0988137E-05;  0.0000000E+00;  3.1919518E-07;  2.9758582E-04;
  1.0000000E-01;  9.9999998E-03;  2.0000000E-01;1209; -5.6050948E-07;  0.0000000E+00;  6.0573122E-08;  1.0000000E+03;  4.0000001E-01;  0.0000000E+00;3; -1.9072578E-03;  0.0000000E+00;  2.1186651E-04;0; -1.0076972E-05;  1.0000000E+04;  0.0000000E+00;  4.5862823E-14;  1.0000000E+04;  0.0000000E+00;  1.0000000E+04; -1.0400079E-05;  0.0000000E+00;  3.2310672E-07;  3.0633248E-04;
  1.0000000E-01;  9.9999998E-03;  2.2000000E-01;1210; -5.2090348E-07;  0.0000000E+00;  7.1592581E-08;  1.0000000E+03;  4.0000001E-01;  0.0000000E+00;3; -1.7732743E-03;  0.0000000E+00;  2.4918569E-04;0; -9.3600556E-06;  1.0000000E+04;  0.0000000E+00; -1.0610622E-09;  1.0000000E+04;  0.0000000E+00;  1.0000000E+04; -9.6322210E-06;  0.0000000E+00;  2.7216521E-07;  2.7561517E-04;
  1.0000000E-01;  9.9999998E-03;  2.3999999E-01;1211; -4.7172560E-07;  0.0000000E+00;  8.2733166E-08;  1.0000000E+03;  4.0000001E-01;  0.0000000E+00;3; -1.6077337E-03;  0.0000000E+00;  2.8676382E-04;0; -8.4983549E-06;  1.0000000E+04;  0.0000000E+00; -8.4153955E-09;  1.0000000E+04;  0.0000000E+00;  1.0000000E+04; -8.6421605E-06;  0.0000000E+00;  1.4380598E-07;  1.8687941E-04;
  1.0000000E-01;  9.9999998E-03;  2.5999999E-01;1212; -4.1128101E-07;  0.0000000E+00;  9.2988699E-08;  1.0000000E+03;  4.0000001E-01;  0.0000000E+00;3; -1.4047551E-03;  0.0000000E+00;  3.2134529E-04;0; -7.4691629E-06;  1.0000000E+04;  0.0000000E+00; -2.7649437E-08;  1.0000000E+04;  0.0000000E+00;  1.0000000E+04; -7.4100089E-06;  0.0000000E+00; -5.9153798E-08;  5.6167144E-05;
  1.0000000E-01;  9.9999998E-03;  2.8000000E-01;1213; -3.3781583E-07;  0.0000000E+00;  1.0110249E-07;  1.0000000E+03;  4.0000001E-01;  0.0000000E+00;3; -1.1575919E-03;  0.0000000E+00;  3.4904774E-04;0; -6.2636254E-06;  1.0000000E+04;  0.0000000E+00; -5.5426714E-08;  1.0000000E+04;  0.0000000E+00;  1.0000000E+04; -5.9695535E-06;  0.0000000E+00; -2.9407209E-07;  1.5942786E-04;
  1.0000000E-01;  9.9999998E-03;  3.0000001E-01;1214; -2.5176496E-07;  0.0000000E+00;  1.0351066E-07;  1.0000000E+03;  4.0000001E-01;  0.0000000E+00;3; -8.6622994E-04;  0.0000000E+00;  3.5798992E-04;0; -4.9305331E-06;  1.0000000E+04;  0.0000000E+00; -8.2543714E-08;  1.0000000E+04;  0.0000000E+00;  1.0000000E+04; -4.4376952E-06;  0.0000000E+00; -4.9283784E-07;  3.1570584E-04;
  1.2000000E-01;  9.9999998E-03;  1.6000000E-01;1238; -1.0401980E-06;  0.0000000E+00;  6.7721352E-08;  1.0000000E+03;  4.0000001E-01;  0.0000000E+00;3; -3.4618312E-03;  0.0000000E+00;  2.3524521E-04;0; -1.8662693E-05;  1.0000000E+04;  0.0000000E+00; -4.3649996E-14;  1.0000000E+04;  0.0000000E+00;  1.0000000E+04; -1.9164021E-05;  0.0000000E+00;  5.0132741E-07;  5.1578134E-04;
  1.2000000E-01;  9.9999998E-03;  1.8000001E-01;1239; -1.0001794E-06;  0.0000000E+00;  8.3617202E-08;  1.0000000E+03;  4.0000001E-01;  0.0000000E+00;3; -3.3282437E-03;  0.0000000E+00;  2.8849879E-04;0; -1.7884910E-05;  1.0000000E+04;  0.0000000E+00; -6.2601217E-14;  1.0000000E+04;  0.0000000E+00;  1.0000000E+04; -1.8442761E-05;  0.0000000E+00;  5.5785046E-07;  5.6901778E-04;
  1.2000000E-01;  9.9999998E-03;  2.0000000E-01;1240; -9.4907688E-07;  0.0000000E+00;  1.0133418E-07;  1.0000000E+03;  4.0000001E-01;  0.0000000E+00;3; -3.1587619E-03;  0.0000000E+00;  3.4744127E-04;0; -1.6931595E-05;  1.0000000E+04;  0.0000000E+00; -1.4655830E-09;  1.0000000E+04;  0.0000000E+00;  1.0000000E+04; -1.7500985E-05;  0.0000000E+00;  5.6938939E-07;  5.8925280E-04;
  1.2000000E-01;  9.9999998E-03;  2.2000000E-01;1241; -8.8459387E-07;  0.0000000E+00;  1.2007631E-07;  1.0000000E+03;  4.0000001E-01;  0.0000000E+00;3; -2.9462334E-03;  0.0000000E+00;  4.0943178E-04;0; -1.5789235E-05;  1.0000000E+04;  0.0000000E+00; -1.7666105E-08;  1.0000000E+04;  0.0000000E+00;  1.0000000E+04; -1.6276370E-05;  0.0000000E+00;  4.8713514E-07;  5.3553231E-04;
  1.2000000E-01;  9.9999998E-03;  2.3999999E-01;1242; -8.0380272E-07;  0.0000000E+00;  1.3920257E-07;  1.0000000E+03;  4.0000001E-01;  0.0000000E+00;3; -2.6812865E-03;  0.0000000E+00;  4.7238028E-04;0; -1.4440400E-05;  1.0000000E+04;  0.0000000E+00; -7.7386979E-08;  1.0000000E+04;  0.0000000E+00;  1.0000000E+04; -1.4709446E-05;  0.0000000E+00;  2.6904621E-07;  3.8758840E-04;
  1.2000000E-01;  9.9999998E-03;  2.5999999E-01;1243; -7.0355748E-07;  0.0000000E+00;  1.5707985E-07;  1.0000000E+03;  4.0000001E-01;  0.0000000E+00;3; -2.3531618E-03;  0.0000000E+00;  5.3128932E-04;0; -1.2846451E-05;  1.0000000E+04;  0.0000000E+00; -2.0057421E-07;  1.0000000E+04;  0.0000000E+00;  1.0000000E+04; -1.2762101E-05;  0.0000000E+00; -8.4350233E-08;  3.3170561E-04;
  1.2000000E-01;  9.9999998E-03;  2.8000000E-01;1244; -5.8047226E-07;  0.0000000E+00;  1.7171725E-07;  1.0000000E+03;  4.0000001E-01;  0.0000000E+00;3; -1.9491229E-03;  0.0000000E+00;  5.8026297E-04;0; -1.0963518E-05;  1.0000000E+04;  0.0000000E+00; -3.6743154E-07;  1.0000000E+04;  0.0000000E+00;  1.0000000E+04; -1.0462873E-05;  0.0000000E+00; -5.0064563E-07;  6.4217602E-04;
  1.2000000E-01;  9.9999998E-03;  3.0000001E-01;1245; -4.3471897E-07;  0.0000000E+00;  1.7702750E-07;  1.0000000E+03;  4.0000001E-01;  0.0000000E+00;3; -1.4667977E-03;  0.0000000E+00;  5.9961790E-04;0; -8.8133047E-06;  1.0000000E+04;  0.0000000E+00; -5.0393834E-07;  1.0000000E+04;  0.0000000E+00;  1.0000000E+04; -7.9551091E-06;  0.0000000E+00; -8.5819585E-07;  9.8163250E-04;
  1.4000000E-01;  9.9999998E-03;  1.6000000E-01;1269; -1.7291195E-06;  0.0000000E+00;  1.1095218E-07;  1.0000000E+03;  4.0000001E-01;  0.0000000E+00;3; -5.6196027E-03;  0.0000000E+00;  3.7737525E-04;0; -3.0711326E-05;  1.0000000E+04;  0.0000000E+00; -8.0230608E-14;  1.0000000E+04;  0.0000000E+00;  1.0000000E+04; -3.1568845E-05;  0.0000000E+00;  8.5751788E-07;  9.5933629E-04;
  1.4000000E-01;  9.9999998E-03;  1.8000001E-01;1270; -1.6660558E-06;  0.0000000E+00;  1.3724588E-07;  1.0000000E+03;  4.0000001E-01;  0.0000000E+00;3; -5.4150061E-03;  0.0000000E+00;  4.6329814E-04;0; -2.9481384E-05;  1.0000000E+04;  0.0000000E+00; -4.4490484E-10;  1.0000000E+04;  0.0000000E+00;  1.0000000E+04; -3.0444160E-05;  0.0000000E+00;  9.6277677E-07;  1.0654047E-03;
  1.4000000E-01;  9.9999998E-03;  2.0000000E-01;1271; -1.5848756E-06;  0.0000000E+00;  1.6690913E-07;  1.0000000E+03;  4.0000001E-01;  0.0000000E+00;3; -5.1532141E-03;  0.0000000E+00;  5.5965059E-04;0; -2.7985734E-05;  1.0000000E+04;  0.0000000E+00; -1.6293694E-08;  1.0000000E+04;  0.0000000E+00;  1.0000000E+04; -2.8983242E-05;  0.0000000E+00;  9.9750832E-07;  1.1148304E-03;
  1.4000000E-01;  9.9999998E-03;  2.2000000E-01;1272; -1.4816176E-06;  0.0000000E+00;  1.9854471E-07;  1.0000000E+03;  4.0000001E-01;  0.0000000E+00;3; -4.8222332E-03;  0.0000000E+00;  6.6178676E-04;0; -2.6236899E-05;  1.0000000E+04;  0.0000000E+00; -1.0844024E-07;  1.0000000E+04;  0.0000000E+00;  1.0000000E+04; -2.7113134E-05;  0.0000000E+00;  8.7623437E-07;  1.0438041E-03;
  1.4000000E-01;  9.9999998E-03;  2.3999999E-01;1273; -1.3511941E-06;  0.0000000E+00;  2.3113479E-07;  1.0000000E+03;  4.0000001E-01;  0.0000000E+00;3; -4.4062561E-03;  0.0000000E+00;  7.6636218E-04;0; -2.4241566E-05;  1.0000000E+04;  0.0000000E+00; -3.8210450E-07;  1.0000000E+04;  0.0000000E+00;  1.0000000E+04; -2.4759654E-05;  0.0000000E+00;  5.1808792E-07;  9.7946299E-04;
  1.4000000E-01;  9.9999998E-03;  2.5999999E-01;1274; -1.1880946E-06;  0.0000000E+00;  2.6196113E-07;  1.0000000E+03;  4.0000001E-01;  0.0000000E+00;3; -3.8868103E-03;  0.0000000E+00;  8.6549995E-04;0; -2.1942133E-05;  1.0000000E+04;  0.0000000E+00; -9.0783959E-07;  1.0000000E+04;  0.0000000E+00;  1.0000000E+04; -2.1853761E-05;  0.0000000E+00; -8.8371223E-08;  1.5799185E-03;
  1.4000000E-01;  9.9999998E-03;  2.8000000E-01;1275; -9.8576118E-07;  0.0000000E+00;  2.8817487E-07;  1.0000000E+03;  4.0000001E-01;  0.0000000E+00;3; -3.2399171E-03;  0.0000000E+00;  9.5130887E-04;0; -1.9201289E-05;  1.0000000E+04;  0.0000000E+00; -1.5995209E-06;  1.0000000E+04;  0.0000000E+00;  1.0000000E+04; -1.8377266E-05;  0.0000000E+00; -8.2402215E-07;  2.7976136E-03;
  1.4000000E-01;  9.9999998E-03;  3.0000001E-01;1276; -7.4307002E-07;  0.0000000E+00;  2.9952048E-07;  1.0000000E+03;  4.0000001E-01;  0.0000000E+00;3; -2.4562399E-03;  0.0000000E+00;  9.9175703E-04;0; -1.5900734E-05;  1.0000000E+04;  0.0000000E+00; -2.1258015E-06;  1.0000000E+04;  0.0000000E+00;  1.0000000E+04; -1.4429782E-05;  0.0000000E+00; -1.4709528E-06;  3.8022515E-03;
  1.6000000E-01;  9.9999998E-03;  1.6000000E-01;1300; -2.8325107E-06;  0.0000000E+00;  1.7893132E-07;  1.0000000E+03;  4.0000001E-01;  0.0000000E+00;3; -8.9848144E-03;  0.0000000E+00;  5.9462700E-04;0; -4.9738152E-05;  1.0000000E+04;  0.0000000E+00;  6.3883022E-14;  1.0000000E+04;  0.0000000E+00;  1.0000000E+04; -5.1184648E-05;  0.0000000E+00;  1.4464972E-06;  1.7478038E-03;
  1.6000000E-01;  9.9999998E-03;  1.8000001E-01;1301; -2.7343963E-06;  0.0000000E+00;  2.2204196E-07;  1.0000000E+03;  4.0000001E-01;  0.0000000E+00;3; -8.6756302E-03;  0.0000000E+00;  7.3201349E-04;0; -4.7827081E-05;  1.0000000E+04;  0.0000000E+00; -5.4865410E-09;  1.0000000E+04;  0.0000000E+00;  1.0000000E+04; -4.9474274E-05;  0.0000000E+00;  1.6471938E-06;  1.9595781E-03;
  1.6000000E-01;  9.9999998E-03;  2.0000000E-01;1302; -2.6073737E-06;  0.0000000E+00;  2.7119185E-07;  1.0000000E+03;  4.0000001E-01;  0.0000000E+00;3; -8.2774945E-03;  0.0000000E+00;  8.8797486E-04;0; -4.5534660E-05;  1.0000000E+04;  0.0000000E+00; -7.7836241E-08;  1.0000000E+04;  0.0000000E+00;  1.0000000E+04; -4.7280639E-05;  0.0000000E+00;  1.7459786E-06;  2.0852708E-03;
  1.6000000E-01;  9.9999998E-03;  2.2000000E-01;1303; -2.4447675E-06;  0.0000000E+00;  3.2400948E-07;  1.0000000E+03;  4.0000001E-01;  0.0000000E+00;3; -7.7708107E-03;  0.0000000E+00;  1.0545286E-03;0; -4.2942651E-05;  1.0000000E+04;  0.0000000E+00; -4.0683318E-07;  1.0000000E+04;  0.0000000E+00;  1.0000000E+04; -4.4535656E-05;  0.0000000E+00;  1.5930045E-06;  2.0989990E-03;
  1.6000000E-01;  9.9999998E-03;  2.3999999E-01;1304; -2.2381857E-06;  0.0000000E+00;  3.7870885E-07;  1.0000000E+03;  4.0000001E-01;  0.0000000E+00;3; -7.1305311E-03;  0.0000000E+00;  1.2256078E-03;0; -4.0136660E-05;  1.0000000E+04;  0.0000000E+00; -1.3058808E-06;  1.0000000E+04;  0.0000000E+00;  1.0000000E+04; -4.1166051E-05;  0.0000000E+00;  1.0293907E-06;  2.8119830E-03;
  1.6000000E-01;  9.9999998E-03;  2.5999999E-01;1305; -1.9784070E-06;  0.0000000E+00;  4.3085257E-07;  1.0000000E+03;  4.0000001E-01;  0.0000000E+00;3; -6.3265632E-03;  0.0000000E+00;  1.3890446E-03;0; -3.7067952E-05;  1.0000000E+04;  0.0000000E+00; -3.0148592E-06;  1.0000000E+04;  0.0000000E+00;  1.0000000E+04; -3.7072296E-05;  0.0000000E+00;  4.3433488E-09;  5.6034462E-03;
  1.6000000E-01;  9.9999998E-03;  2.8000000E-01;1306; -1.6531617E-06;  0.0000000E+00;  4.7687075E-07;  1.0000000E+03;  4.0000001E-01;  0.0000000E+00;3; -5.3154933E-03;  0.0000000E+00;  1.5361155E-03;0; -3.3421242E-05;  1.0000000E+04;  0.0000000E+00; -5.2847113E-06;  1.0000000E+04;  0.0000000E+00;  1.0000000E+04; -3.2124863E-05;  0.0000000E+00; -1.2963789E-06;  9.7972956E-03;
  1.6000000E-01;  9.9999998E-03;  3.0000001E-01;1307; -1.2575097E-06;  0.0000000E+00;  5.0013989E-07;  1.0000000E+03;  4.0000001E-01;  0.0000000E+00;3; -4.0709344E-03;  0.0000000E+00;  1.6170095E-03;0; -2.8687689E-05;  1.0000000E+04;  0.0000000E+00; -7.0328501E-06;  1.0000000E+04;  0.0000000E+00;  1.0000000E+04; -2.6207883E-05;  0.0000000E+00; -2.4798069E-06;  1.3072003E-02;
  1.7999999E-01;  9.9999998E-03;  1.6000000E-01;1331; -4.5707538E-06;  0.0000000E+00;  2.8498872E-07;  1.0000000E+03;  4.0000001E-01;  0.0000000E+00;3; -1.4146013E-02;  0.0000000E+00;  9.2460046E-04;0; -7.9342179E-05;  1.0000000E+04;  0.0000000E+00; -9.4236258E-11;  1.0000000E+04;  0.0000000E+00;  1.0000000E+04; -8.1751838E-05;  0.0000000E+00;  2.4096601E-06;  3.1252459E-03;
  1.7999999E-01;  9.9999998E-03;  1.8000001E-01;1332; -4.4200692E-06;  0.0000000E+00;  3.5457703E-07;  1.0000000E+03;  4.0000001E-01;  0.0000000E+00;3; -1.3684129E-02;  0.0000000E+00;  1.1409700E-03;0; -7.6416021E-05;  1.0000000E+04;  0.0000000E+00; -2.2620696E-08;  1.0000000E+04;  0.0000000E+00;  1.0000000E+04; -7.9212579E-05;  0.0000000E+00;  2.7965598E-06;  3.5470496E-03;
  1.7999999E-01;  9.9999998E-03;  2.0000000E-01;1333; -4.2245902E-06;  0.0000000E+00;  4.3457263E-07;  1.0000000E+03;  4.0000001E-01;  0.0000000E+00;3; -1.3088145E-02;  0.0000000E+00;  1.3889540E-03;0; -7.2946714E-05;  1.0000000E+04;  0.0000000E+00; -2.3221772E-07;  1.0000000E+04;  0.0000000E+00;  1.0000000E+04; -7.5998774E-05;  0.0000000E+00;  3.0520569E-06;  3.8647247E-03;
  1.7999999E-01;  9.9999998E-03;  2.2000000E-01;1334; -3.9732017E-06;  0.0000000E+00;  5.2139421E-07;  1.0000000E+03;  4.0000001E-01;  0.0000000E+00;3; -1.2326212E-02;  0.0000000E+00;  1.6567523E-03;0; -6.9146925E-05;  1.0000000E+04;  0.0000000E+00; -1.0922063E-06;  1.0000000E+04;  0.0000000E+00;  1.0000000E+04; -7.2064067E-05;  0.0000000E+00;  2.9171433E-06;  4.2999284E-03;
  1.7999999E-01;  9.9999998E-03;  2.3999999E-01;1335; -3.6529252E-06;  0.0000000E+00;  6.1089321E-07;  1.0000000E+03;  4.0000001E-01;  0.0000000E+00;3; -1.1361947E-02;  0.0000000E+00;  1.9293118E-03;0; -6.5284679E-05;  1.0000000E+04;  0.0000000E+00; -3.3918332E-06;  1.0000000E+04;  0.0000000E+00;  1.0000000E+04; -6.7367881E-05;  0.0000000E+00;  2.0831988E-06;  7.2949259E-03;
  1.7999999E-01;  9.9999998E-03;  2.5999999E-01;1336; -3.2475257E-06;  0.0000000E+00;  6.9768521E-07;  1.0000000E+03;  4.0000001E-01;  0.0000000E+00;3; -1.0143594E-02;  0.0000000E+00;  2.1945178E-03;0; -6.1422477E-05;  1.0000000E+04;  0.0000000E+00; -7.8427784E-06;  1.0000000E+04;  0.0000000E+00;  1.0000000E+04; -6.1813022E-05;  0.0000000E+00;  3.9054726E-07;  1.5558481E-02;
  1.7999999E-01;  9.9999998E-03;  2.8000000E-01;1337; -2.7365857E-06;  0.0000000E+00;  7.7603681E-07;  1.0000000E+03;  4.0000001E-01;  0.0000000E+00;3; -8.6021991E-03;  0.0000000E+00;  2.4381094E-03;0; -5.7006739E-05;  1.0000000E+04;  0.0000000E+00; -1.3964872E-05;  1.0000000E+04;  0.0000000E+00;  1.0000000E+04; -5.5105869E-05;  0.0000000E+00; -1.9008685E-06;  2.7580205E-02;
  1.7999999E-01;  9.9999998E-03;  3.0000001E-01;1338; -2.1055876E-06;  0.0000000E+00;  8.2169419E-07;  1.0000000E+03;  4.0000001E-01;  0.0000000E+00;3; -6.6729779E-03;  0.0000000E+00;  2.5921995E-03;0; -5.0697843E-05;  1.0000000E+04;  0.0000000E+00; -1.8908231E-05;  1.0000000E+04;  0.0000000E+00;  1.0000000E+04; -4.6616300E-05;  0.0000000E+00; -4.0815421E-06;  3.7225351E-02;
  2.0000000E-01;  9.9999998E-03;  1.6000000E-01;1362; -7.2652206E-06;  0.0000000E+00;  4.4814965E-07;  1.0000001E+03;  4.0000001E-01;  9.8762624E-02;3; -2.1930840E-02;  0.0000000E+00;  1.4199389E-03;0; -1.2475152E-04;  1.0000001E+04;  0.0000000E+00; -5.6013966E-10;  1.0000000E+04;  0.0000000E+00;  1.0000000E+04; -1.2871400E-04;  0.0000000E+00;  3.9624915E-06;  5.4912199E-03;
  2.0000000E-01;  9.9999998E-03;  1.8000001E-01;1363; -7.0383844E-06;  0.0000000E+00;  5.5831111E-07;  1.0000001E+03;  4.0000001E-01;  9.8762624E-02;3; -2.1253703E-02;  0.0000000E+00;  1.7543287E-03;0; -1.2032239E-04;  1.0000001E+04;  0.0000000E+00; -5.3932979E-08;  1.0000000E+04;  0.0000000E+00;  1.0000000E+04; -1.2502250E-04;  0.0000000E+00;  4.7001108E-06;  6.3211806E-03;
  2.0000000E-01;  9.9999998E-03;  2.0000000E-01;1364; -6.7439078E-06;  0.0000000E+00;  6.8543625E-07;  1.0000001E+03;  4.0000001E-01;  9.8762624E-02;3; -2.0380026E-02;  0.0000000E+00;  2.1389574E-03;0; -1.1508507E-04;  1.0000001E+04;  0.0000000E+00; -4.9187668E-07;  1.0000000E+04;  0.0000000E+00;  1.0000000E+04; -1.2038299E-04;  0.0000000E+00;  5.2979217E-06;  7.0669283E-03;
  2.0000000E-01;  9.9999998E-03;  2.2000000E-01;1365; -6.3630305E-06;  0.0000000E+00;  8.2591509E-07;  1.0000000E+03;  4.0000001E-01;  0.0000000E+00;3; -1.9256528E-02;  0.0000000E+00;  2.5636365E-03;0; -1.0944032E-04;  1.0000001E+04;  0.0000000E+00; -2.2349966E-06;  1.0000000E+04;  0.0000000E+00;  1.0000000E+04; -1.1476599E-04;  0.0000000E+00;  5.3256640E-06;  8.4434040E-03;
  2.0000000E-01;  9.9999998E-03;  2.3999999E-01;1366; -5.8773485E-06;  0.0000000E+00;  9.6836538E-07;  1.0000000E+03;  4.0000001E-01;  0.0000000E+00;3; -1.7837524E-02;  0.0000000E+00;  2.9849350E-03;0; -1.0397458E-04;  1.0000001E+04;  0.0000000E+00; -6.9452467E-06;  1.0000000E+04;  0.0000000E+00;  1.0000000E+04; -1.0817881E-04;  0.0000000E+00;  4.2042352E-06;  1.5725367E-02;
  2.0000000E-01;  9.9999998E-03;  2.5999999E-01;1367; -5.2573191E-06;  0.0000000E+00;  1.1104330E-06;  1.0000000E+03;  4.0000001E-01;  0.0000000E+00;3; -1.6029729E-02;  0.0000000E+00;  3.4083577E-03;0; -9.9048921E-05;  1.0000001E+04;  0.0000000E+00; -1.6353702E-05;  1.0000000E+04;  0.0000000E+00;  1.0000000E+04; -1.0056179E-04;  0.0000000E+00;  1.5128683E-06;  3.4609631E-02;
  2.0000000E-01;  9.9999998E-03;  2.8000000E-01;1368; -4.4705343E-06;  0.0000000E+00;  1.2435349E-06;  1.0000000E+03;  4.0000001E-01;  0.0000000E+00;3; -1.3730053E-02;  0.0000000E+00;  3.8109990E-03;0; -9.3866445E-05;  1.0000000E+04;  0.0000000E+00; -2.9816247E-05;  1.0000000E+04;  0.0000000E+00;  1.0000000E+04; -9.1413451E-05;  0.0000000E+00; -2.4529916E-06;  6.2745355E-02;
  2.0000000E-01;  9.9999998E-03;  3.0000001E-01;1369; -3.4837460E-06;  0.0000000E+00;  1.3331435E-06;  1.0000000E+03;  4.0000001E-01;  0.0000000E+00;3; -1.0803039E-02;  0.0000000E+00;  4.1040853E-03;0; -8.5631400E-05;  1.0000000E+04;  0.0000000E+00; -4.1080486E-05;  1.0000000E+04;  0.0000000E+00;  1.0000000E+04; -7.9209138E-05;  0.0000000E+00; -6.4222613E-06;  8.5982859E-02;
  2.2000000E-01;  9.9999998E-03;  1.6000000E-01;1393; -1.1376585E-05;  0.0000000E+00;  6.9373732E-07;  1.0000001E+03;  4.0000001E-01;  9.8762624E-02;3; -3.3479162E-02;  0.0000000E+00;  2.1478715E-03;0; -1.9345380E-04;  1.0000001E+04;  0.0000000E+00; -8.6914692E-10;  1.0000000E+04;  0.0000000E+00;  1.0000000E+04; -1.9987416E-04;  0.0000000E+00;  6.4203655E-06;  9.4854347E-03;
  2.2000000E-01;  9.9999998E-03;  1.8000001E-01;1394; -1.1043282E-05;  0.0000000E+00;  8.6470453E-07;  1.0000001E+03;  4.0000001E-01;  9.8762624E-02;3; -3.2511551E-02;  0.0000000E+00;  2.6543129E-03;0; -1.8683015E-04;  1.0000001E+04;  0.0000000E+00; -8.4089336E-08;  1.0000000E+04;  0.0000000E+00;  1.0000000E+04; -1.9461477E-04;  0.0000000E+00;  7.7846225E-06;  1.1080679E-02;
  2.2000000E-01;  9.9999998E-03;  2.0000000E-01;1395; -1.0609628E-05;  0.0000000E+00;  1.0640913E-06;  1.0000001E+03;  4.0000001E-01;  9.8762624E-02;3; -3.1261552E-02;  0.0000000E+00;  3.2434885E-03;0; -1.7894013E-04;  1.0000001E+04;  0.0000000E+00; -7.7294925E-07;  1.0000000E+04;  0.0000000E+00;  1.0000000E+04; -1.8799814E-04;  0.0000000E+00;  9.0580143E-06;  1.2660463E-02;
  2.2000000E-01;  9.9999998E-03;  2.2000000E-01;1396; -1.0044508E-05;  0.0000000E+00;  1.2923433E-06;  1.0000001E+03;  4.0000001E-01;  9.8762624E-02;3; -2.9641811E-02;  0.0000000E+00;  3.9217481E-03;0; -1.7039597E-04;  1.0000001E+04;  0.0000000E+00; -3.5657627E-06;  1.0000000E+04;  0.0000000E+00;  1.0000000E+04; -1.7996023E-04;  0.0000000E+00;  9.5642599E-06;  1.5297577E-02;
  2.2000000E-01;  9.9999998E-03;  2.3999999E-01;1397; -9.3228837E-06;  0.0000000E+00;  1.5272552E-06;  1.0000001E+03;  4.0000001E-01;  9.8762624E-02;3; -2.7599899E-02;  0.0000000E+00;  4.6013766E-03;0; -1.6220800E-04;  1.0000001E+04;  0.0000000E+00; -1.1350359E-05;  1.0000000E+04;  0.0000000E+00;  1.0000000E+04; -1.7048897E-04;  0.0000000E+00;  8.2809674E-06;  2.7898312E-02;
  2.2000000E-01;  9.9999998E-03;  2.5999999E-01;1398; -8.3918458E-06;  0.0000000E+00;  1.7826090E-06;  1.0000001E+03;  4.0000001E-01;  9.8762624E-02;3; -2.4970310E-02;  0.0000000E+00;  5.3535672E-03;0; -1.5522516E-04;  1.0000001E+04;  0.0000000E+00; -2.7490274E-05;  1.0000000E+04;  0.0000000E+00;  1.0000000E+04; -1.5949321E-04;  0.0000000E+00;  4.2680485E-06;  6.2106185E-02;
  2.2000000E-01;  9.9999998E-03;  2.8000000E-01;1399; -7.1977920E-06;  0.0000000E+00;  2.0575003E-06;  1.0000001E+03;  4.0000001E-01;  9.8762624E-02;3; -2.1591879E-02;  0.0000000E+00;  6.1817262E-03;0; -1.4835625E-04;  1.0000001E+04;  0.0000000E+00; -5.1321018E-05;  1.0000000E+04;  0.0000000E+00;  1.0000000E+04; -1.4613508E-04;  0.0000000E+00; -2.2211771E-06;  1.1499709E-01;
  2.2000000E-01;  9.9999998E-03;  3.0000001E-01;1400; -5.6694898E-06;  0.0000000E+00;  2.3055443E-06;  1.0000001E+03;  4.0000001E-01;  9.8762624E-02;3; -1.7192584E-02;  0.0000000E+00;  6.9847098E-03;0; -1.3654355E-04;  1.0000001E+04;  0.0000000E+00; -7.1319431E-05;  1.0000000E+04;  0.0000000E+00;  1.0000000E+04; -1.2763852E-04;  0.0000000E+00; -8.9050300E-06;  1.5867169E-01;
  2.3999999E-01;  9.9999998E-03;  1.6000000E-01;1424; -1.7569097E-05;  0.0000000E+00;  1.0545610E-06;  1.0000001E+03;  4.0000001E-01;  9.8762624E-02;3; -5.0343670E-02;  0.0000000E+00;  3.1886778E-03;0; -2.9605097E-04;  1.0000002E+04;  0.0000000E+00; -3.5463765E-10;  1.0000000E+04;  0.0000000E+00;  1.0000000E+04; -3.0627943E-04;  0.0000000E+00;  1.0228454E-05;  1.6107133E-02;
  2.3999999E-01;  9.9999998E-03;  1.8000001E-01;1425; -1.7090975E-05;  0.0000000E+00;  1.3162868E-06;  1.0000001E+03;  4.0000001E-01;  9.8762624E-02;3; -4.8999958E-02;  0.0000000E+00;  3.9449073E-03;0; -2.8630503E-04;  1.0000002E+04;  0.0000000E+00; -8.5758181E-08;  1.0000000E+04;  0.0000000E+00;  1.0000000E+04; -2.9895507E-04;  0.0000000E+00;  1.2650048E-05;  1.9076027E-02;
  2.3999999E-01;  9.9999998E-03;  2.0000000E-01;1426; -1.6466818E-05;  0.0000000E+00;  1.6270041E-06;  1.0000001E+03;  4.0000001E-01;  9.8762624E-02;3; -4.7259830E-02;  0.0000000E+00;  4.8415135E-03;0; -2.7456621E-04;  1.0000002E+04;  0.0000000E+00; -9.0110092E-07;  1.0000000E+04;  0.0000000E+00;  1.0000000E+04; -2.8970488E-04;  0.0000000E+00;  1.5138679E-05;  2.2167576E-02;
  2.3999999E-01;  9.9999998E-03;  2.2000000E-01;1427; -1.5648266E-05;  0.0000000E+00;  2.0012369E-06;  1.0000001E+03;  4.0000001E-01;  9.8762624E-02;3; -4.4990238E-02;  0.0000000E+00;  5.9353043E-03;0; -2.6165665E-04;  1.0000002E+04;  0.0000000E+00; -4.4331273E-06;  1.0000000E+04;  0.0000000E+00;  1.0000000E+04; -2.7835162E-04;  0.0000000E+00;  1.6694981E-05;  2.5999350E-02;
  2.3999999E-01;  9.9999998E-03;  2.3999999E-01;1428; -1.4605024E-05;  0.0000000E+00;  2.4074905E-06;  1.0000001E+03;  4.0000001E-01;  9.8762624E-02;3; -4.2145152E-02;  0.0000000E+00;  7.0948210E-03;0; -2.4905519E-04;  1.0000001E+04;  0.0000000E+00; -1.4793827E-05;  1.0000000E+04;  0.0000000E+00;  1.0000000E+04; -2.6470632E-04;  0.0000000E+00;  1.5651138E-05;  4.1595802E-02;
  2.3999999E-01;  9.9999998E-03;  2.5999999E-01;1429; -1.3249133E-05;  0.0000000E+00;  2.9081880E-06;  1.0000001E+03;  4.0000001E-01;  9.8762624E-02;3; -3.8454954E-02;  0.0000000E+00;  8.5645393E-03;0; -2.3821420E-04;  1.0000001E+04;  0.0000000E+00; -3.7266123E-05;  1.0000000E+04;  0.0000000E+00;  1.0000000E+04; -2.4843682E-04;  0.0000000E+00;  1.0222618E-05;  9.0243831E-02;
  2.3999999E-01;  9.9999998E-03;  2.8000000E-01;1430; -1.1516605E-05;  0.0000000E+00;  3.5279127E-06;  1.0000001E+03;  4.0000001E-01;  9.8762624E-02;3; -3.3744141E-02;  0.0000000E+00;  1.0435117E-02;0; -2.2765792E-04;  1.0000001E+04;  0.0000000E+00; -7.1412986E-05;  1.0000000E+04;  0.0000000E+00;  1.0000000E+04; -2.2826123E-04;  0.0000000E+00;  6.0330422E-07;  1.7025805E-01;
  2.3999999E-01;  9.9999998E-03;  3.0000001E-01;1431; -9.3208200E-06;  0.0000000E+00;  4.1594099E-06;  1.0000001E+03;  4.0000001E-01;  9.8762624E-02;3; -2.7679393E-02;  0.0000000E+00;  1.2459644E-02;0; -2.0984119E-04;  1.0000001E+04;  0.0000000E+00; -9.9855009E-05;  1.0000000E+04;  0.0000000E+00;  1.0000000E+04; -2.0041528E-04;  0.0000000E+00; -9.4259112E-06;  2.3623042E-01;
  2.5999999E-01;  9.9999998E-03;  1.6000000E-01;1455; -2.6812138E-05;  0.0000000E+00;  1.5752233E-06;  1.0000002E+03;  4.0000001E-01;  1.9752523E-01;3; -7.4646220E-02;  0.0000000E+00;  4.6429434E-03;0; -4.4741691E-04;  1.0000004E+04;  0.0000000E+00;  2.4291224E-14;  1.0000000E+04;  0.0000000E+00;  1.0000000E+04; -4.6341986E-04;  0.0000000E+00;  1.6002939E-05;  2.6884114E-02;
  2.5999999E-01;  9.9999998E-03;  1.8000001E-01;1456; -2.6143478E-05;  0.0000000E+00;  1.9705917E-06;  1.0000002E+03;  4.0000001E-01;  1.9752523E-01;3; -7.2840400E-02;  0.0000000E+00;  5.7550003E-03;0; -4.3336218E-04;  1.0000003E+04;  0.0000000E+00; -5.0621587E-08;  1.0000000E+04;  0.0000000E+00;  1.0000000E+04; -4.5347927E-04;  0.0000000E+00;  2.0117090E-05;  3.2212362E-02;
  2.5999999E-01;  9.9999998E-03;  2.0000000E-01;1457; -2.5263285E-05;  0.0000000E+00;  2.4577296E-06;  1.0000002E+03;  4.0000001E-01;  1.9752523E-01;3; -7.0480980E-02;  0.0000000E+00;  7.1320636E-03;0; -4.1630591E-04;  1.0000003E+04;  0.0000000E+00; -7.4593726E-07;  1.0000000E+04;  0.0000000E+00;  1.0000000E+04; -4.4093325E-04;  0.0000000E+00;  2.4627356E-05;  3.7981734E-02;
  2.5999999E-01;  9.9999998E-03;  2.2000000E-01;1458; -2.4104756E-05;  0.0000000E+00;  3.0895173E-06;  1.0000001E+03;  4.0000001E-01;  9.8762617E-02;3; -6.7393489E-02;  0.0000000E+00;  8.9655444E-03;0; -3.9735727E-04;  1.0000003E+04;  0.0000000E+00; -4.1943790E-06;  1.0000000E+04;  0.0000000E+00;  1.0000000E+04; -4.2548042E-04;  0.0000000E+00;  2.8123155E-05;  4.3376967E-02;
  2.5999999E-01;  9.9999998E-03;  2.3999999E-01;1459; -2.2631119E-05;  0.0000000E+00;  3.8437443E-06;  1.0000001E+03;  4.0000001E-01;  9.8762617E-02;3; -6.3543566E-02;  0.0000000E+00;  1.1138020E-02;0; -3.7855440E-04;  1.0000003E+04;  0.0000000E+00; -1.5148228E-05;  1.0000000E+04;  0.0000000E+00;  1.0000000E+04; -4.0663886E-04;  0.0000000E+00;  2.8084472E-05;  5.6143310E-02;
  2.5999999E-01;  9.9999998E-03;  2.5999999E-01;1460; -2.0737500E-05;  0.0000000E+00;  4.7006283E-06;  1.0000001E+03;  4.0000001E-01;  9.8762617E-02;3; -5.8639906E-02;  0.0000000E+00;  1.3554407E-02;0; -3.6208253E-04;  1.0000003E+04;  0.0000000E+00; -4.0435065E-05;  1.0000000E+04;  0.0000000E+00;  1.0000000E+04; -3.8360502E-04;  0.0000000E+00;  2.1522499E-05;  1.0699619E-01;
  2.5999999E-01;  9.9999998E-03;  2.8000000E-01;1461; -1.8317005E-05;  0.0000000E+00;  5.9335080E-06;  1.0000001E+03;  4.0000001E-01;  9.8762617E-02;3; -5.2379195E-02;  0.0000000E+00;  1.7242132E-02;0; -3.4614434E-04;  1.0000003E+04;  0.0000000E+00; -8.0479651E-05;  1.0000000E+04;  0.0000000E+00;  1.0000000E+04; -3.5464737E-04;  0.0000000E+00;  8.5030388E-06;  2.0408824E-01;
  2.5999999E-01;  9.9999998E-03;  3.0000001E-01;1462; -1.5241760E-05;  0.0000000E+00;  7.1554919E-06;  1.0000001E+03;  4.0000001E-01;  9.8762617E-02;3; -4.4303805E-02;  0.0000000E+00;  2.1092728E-02;0; -3.2125515E-04;  1.0000002E+04;  0.0000000E+00; -1.1469931E-04;  1.0000000E+04;  0.0000000E+00;  1.0000000E+04; -3.1550811E-04;  0.0000000E+00; -5.7470570E-06;  2.8853565E-01;
  2.8000000E-01;  9.9999998E-03;  1.6000000E-01;1486; -4.0527175E-05;  0.0000000E+00;  2.3175469E-06;  1.0000002E+03;  4.0000001E-01;  1.9752523E-01;3; -1.0932168E-01;  0.0000000E+00;  6.6401442E-03;0; -6.6823734E-04;  1.0000005E+04;  0.0000000E+00; -3.9556628E-13;  1.0000000E+04;  0.0000000E+00;  1.0000000E+04; -6.9283420E-04;  0.0000000E+00;  2.4596868E-05;  4.4124175E-02;
  2.8000000E-01;  9.9999998E-03;  1.8000001E-01;1487; -3.9612671E-05;  0.0000000E+00;  2.9080243E-06;  1.0000002E+03;  4.0000001E-01;  1.9752523E-01;3; -1.0696931E-01;  0.0000000E+00;  8.2524912E-03;0; -6.4837659E-04;  1.0000005E+04;  0.0000000E+00; -1.0011696E-08;  1.0000000E+04;  0.0000000E+00;  1.0000000E+04; -6.7968626E-04;  0.0000000E+00;  3.1309672E-05;  5.3354986E-02;
  2.8000000E-01;  9.9999998E-03;  2.0000000E-01;1488; -3.8398783E-05;  0.0000000E+00;  3.6495048E-06;  1.0000002E+03;  4.0000001E-01;  1.9752523E-01;3; -1.0386830E-01;  0.0000000E+00;  1.0292336E-02;0; -6.2424445E-04;  1.0000005E+04;  0.0000000E+00; -3.8593112E-07;  1.0000000E+04;  0.0000000E+00;  1.0000000E+04; -6.6322420E-04;  0.0000000E+00;  3.8979742E-05;  6.3718170E-02;
  2.8000000E-01;  9.9999998E-03;  2.2000000E-01;1489; -3.6795420E-05;  0.0000000E+00;  4.6206992E-06;  1.0000002E+03;  4.0000001E-01;  1.9752523E-01;3; -9.9803761E-02;  0.0000000E+00;  1.3018762E-02;0; -5.9750170E-04;  1.0000004E+04;  0.0000000E+00; -2.8324912E-06;  1.0000000E+04;  0.0000000E+00;  1.0000000E+04; -6.4319232E-04;  0.0000000E+00;  4.5690649E-05;  7.2635077E-02;
  2.8000000E-01;  9.9999998E-03;  2.3999999E-01;1490; -3.4764475E-05;  0.0000000E+00;  5.8282749E-06;  1.0000002E+03;  4.0000001E-01;  1.9752523E-01;3; -9.4784416E-02;  0.0000000E+00;  1.6391374E-02;0; -5.7106168E-04;  1.0000004E+04;  0.0000000E+00; -1.1696873E-05;  1.0000000E+04;  0.0000000E+00;  1.0000000E+04; -6.1894325E-04;  0.0000000E+00;  4.7881553E-05;  7.9677202E-02;
  2.8000000E-01;  9.9999998E-03;  2.5999999E-01;1491; -3.2140815E-05;  0.0000000E+00;  7.5214407E-06;  1.0000002E+03;  4.0000001E-01;  1.9752523E-01;3; -8.8356622E-02;  0.0000000E+00;  2.1276560E-02;0; -5.4792390E-04;  1.0000004E+04;  0.0000000E+00; -3.4107976E-05;  1.0000000E+04;  0.0000000E+00;  1.0000000E+04; -5.8918510E-04;  0.0000000E+00;  4.1261210E-05;  1.0899442E-01;
  2.8000000E-01;  9.9999998E-03;  2.8000000E-01;1492; -2.8793202E-05;  0.0000000E+00;  9.7950006E-06;  1.0000002E+03;  4.0000001E-01;  1.9752523E-01;3; -8.0192164E-02;  0.0000000E+00;  2.8033128E-02;0; -5.2591570E-04;  1.0000004E+04;  0.0000000E+00; -7.2105322E-05;  1.0000000E+04;  0.0000000E+00;  1.0000000E+04; -5.5177358E-04;  0.0000000E+00;  2.5857877E-05;  1.9533931E-01;
  2.8000000E-01;  9.9999998E-03;  3.0000001E-01;1493; -2.4444631E-05;  0.0000000E+00;  1.2014946E-05;  1.0000002E+03;  4.0000001E-01;  1.9752523E-01;3; -6.9363169E-02;  0.0000000E+00;  3.4948967E-02;0; -4.9473986E-04;  1.0000004E+04;  0.0000000E+00; -1.0702237E-04;  1.0000000E+04;  0.0000000E+00;  1.0000000E+04; -5.0224131E-04;  0.0000000E+00;  7.5014818E-06;  2.8502432E-01;
  2.9999998E-01;  9.9999998E-03;  1.6000000E-01;1517; -6.0763672E-05;  0.0000000E+00;  3.3736717E-06;  1.0000003E+03;  4.0000001E-01;  2.9628780E-01;3; -1.5841138E-01;  0.0000000E+00;  9.3692942E-03;0; -9.8696549E-04;  1.0000008E+04;  0.0000000E+00; -8.5353738E-12;  1.0000000E+04;  0.0000000E+00;  1.0000000E+04; -1.0241736E-03;  0.0000000E+00;  3.7208130E-05;  7.1303777E-02;
  2.9999998E-01;  9.9999998E-03;  1.8000001E-01;1518; -5.9536331E-05;  0.0000000E+00;  4.2479428E-06;  1.0000003E+03;  4.0000001E-01;  2.9628780E-01;3; -1.5543531E-01;  0.0000000E+00;  1.1682645E-02;0; -9.5940410E-04;  1.0000007E+04;  0.0000000E+00; -1.4875032E-11;  1.0000000E+04;  0.0000000E+00;  1.0000000E+04; -1.0071988E-03;  0.0000000E+00;  4.7794696E-05;  8.6814724E-02;
  2.9999998E-01;  9.9999998E-03;  2.0000000E-01;1519; -5.7891288E-05;  0.0000000E+00;  5.3644462E-06;  1.0000003E+03;  4.0000001E-01;  2.9628780E-01;3; -1.5147139E-01;  0.0000000E+00;  1.4668402E-02;0; -9.2595577E-04;  1.0000007E+04;  0.0000000E+00; -8.6025317E-08;  1.0000000E+04;  0.0000000E+00;  1.0000000E+04; -9.8617305E-04;  0.0000000E+00;  6.0217288E-05;  1.0473437E-01;
  2.9999998E-01;  9.9999998E-03;  2.2000000E-01;1520; -5.5702210E-05;  0.0000000E+00;  6.8515096E-06;  1.0000003E+03;  4.0000001E-01;  2.9628780E-01;3; -1.4624004E-01;  0.0000000E+00;  1.8725391E-02;0; -8.8942662E-04;  1.0000007E+04;  0.0000000E+00; -1.1661912E-06;  1.0000000E+04;  0.0000000E+00;  1.0000000E+04; -9.6122938E-04;  0.0000000E+00;  7.1802744E-05;  1.2070717E-01;
  2.9999998E-01;  9.9999998E-03;  2.3999999E-01;1521; -5.2918200E-05;  0.0000000E+00;  8.7551634E-06;  1.0000003E+03;  4.0000001E-01;  2.9628780E-01;3; -1.3977961E-01;  0.0000000E+00;  2.3902250E-02;0; -8.5453788E-04;  1.0000007E+04;  0.0000000E+00; -6.1842684E-06;  1.0000000E+04;  0.0000000E+00;  1.0000000E+04; -9.3198847E-04;  0.0000000E+00;  7.7450590E-05;  1.2702033E-01;
  2.9999998E-01;  9.9999998E-03;  2.5999999E-01;1522; -4.9310922E-05;  0.0000000E+00;  1.1467194E-05;  1.0000003E+03;  4.0000001E-01;  2.9628780E-01;3; -1.3152033E-01;  0.0000000E+00;  3.1497367E-02;0; -8.2624389E-04;  1.0000007E+04;  0.0000000E+00; -2.0733332E-05;  1.0000000E+04;  0.0000000E+00;  1.0000000E+04; -8.9712272E-04;  0.0000000E+00;  7.0878821E-05;  1.2284319E-01;
  2.9999998E-01;  9.9999998E-03;  2.8000000E-01;1523; -4.4675828E-05;  0.0000000E+00;  1.5140547E-05;  1.0000002E+03;  4.0000001E-01;  1.9752520E-01;3; -1.2095117E-01;  0.0000000E+00;  4.2117324E-02;0; -8.0261065E-04;  1.0000006E+04;  0.0000000E+00; -4.8242098E-05;  1.0000000E+04;  0.0000000E+00;  1.0000000E+04; -8.5440528E-04;  0.0000000E+00;  5.1794636E-05;  1.5027586E-01;
  2.9999998E-01;  9.9999998E-03;  3.0000001E-01;1524; -3.8531649E-05;  0.0000000E+00;  1.8727149E-05;  1.0000002E+03;  4.0000001E-01;  1.9752520E-01;3; -1.0655119E-01;  0.0000000E+00;  5.2983031E-02;0; -7.7302172E-04;  1.0000005E+04;  0.0000000E+00; -7.6383745E-05;  1.0000000E+04;  0.0000000E+00;  1.0000000E+04; -7.9979905E-04;  0.0000000E+00;  2.6777319E-05;  2.1473579E-01;
  3.1999999E-01;  9.9999998E-03;  1.6000000E-01;1548; -9.0371395E-05;  0.0000000E+00;  4.8708121E-06;  1.0000005E+03;  4.0000001E-01;  3.9505041E-01;3; -2.2734086E-01;  0.0000000E+00;  1.3069469E-02;0; -1.4420801E-03;  1.0000012E+04;  0.0000000E+00;  7.6031742E-12;  1.0000000E+04;  0.0000000E+00;  1.0000000E+04; -1.4976420E-03;  0.0000000E+00;  5.5561832E-05;  1.1369637E-01;
  3.1999999E-01;  9.9999998E-03;  1.8000001E-01;1549; -8.8745830E-05;  0.0000000E+00;  6.1526339E-06;  1.0000005E+03;  4.0000001E-01;  3.9505041E-01;3; -2.2366159E-01;  0.0000000E+00;  1.6338743E-02;0; -1.4044906E-03;  1.0000012E+04;  0.0000000E+00; -8.6789412E-12;  1.0000000E+04;  0.0000000E+00;  1.0000000E+04; -1.4762830E-03;  0.0000000E+00;  7.1792369E-05;  1.3911483E-01;
  3.1999999E-01;  9.9999998E-03;  2.0000000E-01;1550; -8.6543616E-05;  0.0000000E+00;  7.8151434E-06;  1.0000005E+03;  4.0000001E-01;  3.9505041E-01;3; -2.1869668E-01;  0.0000000E+00;  2.0625528E-02;0; -1.3588276E-03;  1.0000012E+04;  0.0000000E+00;  3.8740027E-12;  1.0000000E+04;  0.0000000E+00;  1.0000000E+04; -1.4500314E-03;  0.0000000E+00;  9.1203809E-05;  1.6912360E-01;
  3.1999999E-01;  9.9999998E-03;  2.2000000E-01;1551; -8.3576946E-05;  0.0000000E+00;  1.0080747E-05;  1.0000005E+03;  4.0000001E-01;  3.9505041E-01;3; -2.1204256E-01;  0.0000000E+00;  2.6574610E-02;0; -1.3096789E-03;  1.0000012E+04;  0.0000000E+00; -1.7711531E-07;  1.0000000E+04;  0.0000000E+00;  9.9999990E+03; -1.4196739E-03;  0.0000000E+00;  1.0999502E-04;  1.9708830E-01;
  3.1999999E-01;  9.9999998E-03;  2.4000001E-01;1552; -7.9777317E-05;  0.0000000E+00;  1.3059559E-05;  1.0000004E+03;  4.0000001E-01;  3.9505041E-01;3; -2.0381127E-01;  0.0000000E+00;  3.4306001E-02;0; -1.2646413E-03;  1.0000011E+04;  0.0000000E+00; -1.7401910E-06;  1.0000000E+04;  0.0000000E+00;  9.9999990E+03; -1.3856146E-03;  0.0000000E+00;  1.2097334E-04;  2.0979555E-01;
  3.1999999E-01;  9.9999998E-03;  2.5999999E-01;1553; -7.4796641E-05;  0.0000000E+00;  1.7399983E-05;  1.0000004E+03;  4.0000001E-01;  3.9505041E-01;3; -1.9317524E-01;  0.0000000E+00;  4.5863770E-02;0; -1.2316519E-03;  1.0000010E+04;  0.0000000E+00; -7.6682736E-06;  1.0000000E+04;  0.0000000E+00;  9.9999990E+03; -1.3471358E-03;  0.0000000E+00;  1.1548390E-04;  1.9019593E-01;
  3.1999999E-01;  9.9999998E-03;  2.8000000E-01;1554; -6.8320005E-05;  0.0000000E+00;  2.3352057E-05;  1.0000004E+03;  4.0000001E-01;  3.9505041E-01;3; -1.7941591E-01;  0.0000000E+00;  6.2240593E-02;0; -1.2086506E-03;  1.0000009E+04;  0.0000000E+00; -2.0789756E-05;  1.0000000E+04;  0.0000000E+00;  9.9999990E+03; -1.3028536E-03;  0.0000000E+00;  9.4202907E-05;  1.4346416E-01;
  3.1999999E-01;  9.9999998E-03;  3.0000001E-01;1555; -5.9579528E-05;  0.0000000E+00;  2.9207351E-05;  1.0000004E+03;  4.0000001E-01;  3.9505041E-01;3; -1.6016752E-01;  0.0000000E+00;  7.9281881E-02;0; -1.1863860E-03;  1.0000009E+04;  0.0000000E+00; -3.6675105E-05;  1.0000000E+04;  0.0000000E+00;  1.0000000E+04; -1.2502681E-03;  0.0000000E+00;  6.3882129E-05;  1.1878426E-01;
  3.3999997E-01;  9.9999998E-03;  1.6000000E-01;1579; -1.3313365E-04;  0.0000000E+00;  7.0142059E-06;  1.0000009E+03;  4.0000001E-01;  6.9133818E-01;3; -3.2308224E-01;  0.0000000E+00;  1.8136775E-02;0; -2.0844089E-03;  1.0000018E+04;  0.0000000E+00; -3.8686833E-13;  1.0000000E+04;  0.0000000E+00;  1.0000000E+04; -2.1666258E-03;  0.0000000E+00;  8.2217033E-05;  1.7941880E-01;
  3.3999997E-01;  9.9999998E-03;  1.8000001E-01;1580; -1.3100766E-04;  0.0000000E+00;  8.8685829E-06;  1.0000008E+03;  4.0000001E-01;  6.9133818E-01;3; -3.1863132E-01;  0.0000000E+00;  2.2708230E-02;0; -2.0339959E-03;  1.0000017E+04;  0.0000000E+00; -1.9197343E-11;  1.0000000E+04;  0.0000000E+00;  9.9999990E+03; -2.1404806E-03;  0.0000000E+00;  1.0648466E-04;  2.2021542E-01;
  3.3999997E-01;  9.9999998E-03;  2.0000000E-01;1581; -1.2811022E-04;  0.0000000E+00;  1.1274697E-05;  1.0000008E+03;  4.0000001E-01;  6.9133818E-01;3; -3.1256250E-01;  0.0000000E+00;  2.8739253E-02;0; -1.9727577E-03;  1.0000016E+04;  0.0000000E+00; -2.0018329E-11;  1.0000000E+04;  0.0000000E+00;  9.9999990E+03; -2.1087516E-03;  0.0000000E+00;  1.3599376E-04;  2.6926249E-01;
  3.3999997E-01;  9.9999998E-03;  2.2000000E-01;1582; -1.2416471E-04;  0.0000000E+00;  1.4601367E-05;  1.0000007E+03;  4.0000001E-01;  5.9257555E-01;3; -3.0430168E-01;  0.0000000E+00;  3.7338622E-02;0; -1.9074291E-03;  1.0000016E+04;  0.0000000E+00; -2.7049188E-11;  1.0000000E+04;  0.0000000E+00;  9.9999990E+03; -2.0726859E-03;  0.0000000E+00;  1.6525683E-04;  3.1636357E-01;
  3.3999997E-01;  9.9999998E-03;  2.4000001E-01;1583; -1.1903067E-04;  0.0000000E+00;  1.9066272E-05;  1.0000007E+03;  4.0000001E-01;  5.9257555E-01;3; -2.9394016E-01;  0.0000000E+00;  4.8788581E-02;0; -1.8496964E-03;  1.0000016E+04;  0.0000000E+00; -8.8569870E-08;  1.0000000E+04;  0.0000000E+00;  9.9999990E+03; -2.0335477E-03;  0.0000000E+00;  1.8385134E-04;  3.4096372E-01;
  3.3999997E-01;  9.9999998E-03;  2.6000002E-01;1584; -1.1220128E-04;  0.0000000E+00;  2.5659732E-05;  1.0000007E+03;  4.0000001E-01;  5.9257555E-01;3; -2.8031233E-01;  0.0000000E+00;  6.6216581E-02;0; -1.8121530E-03;  1.0000016E+04;  0.0000000E+00; -1.0286468E-06;  1.0000000E+04;  0.0000000E+00;  9.9999990E+03; -1.9914196E-03;  0.0000000E+00;  1.7926659E-04;  3.1486866E-01;
  3.3999997E-01;  9.9999998E-03;  2.8000000E-01;1585; -1.0314699E-04;  0.0000000E+00;  3.4888468E-05;  1.0000007E+03;  4.0000001E-01;  5.9257555E-01;3; -2.6232171E-01;  0.0000000E+00;  9.1284908E-02;0; -1.7929059E-03;  1.0000016E+04;  0.0000000E+00; -3.9502193E-06;  1.0000000E+04;  0.0000000E+00;  9.9999990E+03; -1.9461928E-03;  0.0000000E+00;  1.5328698E-04;  2.3271200E-01;
  3.3999997E-01;  9.9999998E-03;  3.0000001E-01;1586; -9.0704627E-05;  0.0000000E+00;  4.4152977E-05;  1.0000007E+03;  4.0000001E-01;  5.9257555E-01;3; -2.3657636E-01;  0.0000000E+00;  1.1766230E-01;0; -1.7827196E-03;  1.0000015E+04;  0.0000000E+00; -8.2637034E-06;  1.0000000E+04;  0.0000000E+00;  9.9999990E+03; -1.8980361E-03;  0.0000000E+00;  1.1531652E-04;  1.2100014E-01;
  3.5999995E-01;  9.9999998E-03;  1.6000000E-01;1610; -1.9379187E-04;  0.0000000E+00;  1.0128879E-05;  1.0000012E+03;  4.0000001E-01;  9.8762578E-01;3; -4.5405272E-01;  0.0000000E+00;  2.5208432E-02;0; -2.9792876E-03;  1.0000025E+04;  0.0000000E+00;  2.5131887E-12;  1.0000000E+04;  0.0000000E+00;  9.9999990E+03; -3.1003710E-03;  0.0000000E+00;  1.2108326E-04;  2.8119695E-01;
  3.5999995E-01;  9.9999998E-03;  1.8000001E-01;1611; -1.9107165E-04;  0.0000000E+00;  1.2766837E-05;  1.0000012E+03;  4.0000001E-01;  9.8762578E-01;3; -4.4886023E-01;  0.0000000E+00;  3.1459905E-02;0; -2.9127484E-03;  1.0000025E+04;  0.0000000E+00; -9.3126912E-12;  1.0000000E+04;  0.0000000E+00;  9.9999990E+03; -3.0693358E-03;  0.0000000E+00;  1.5658741E-04;  3.4570977E-01;
  3.5999995E-01;  9.9999998E-03;  2.0000000E-01;1612; -1.8737279E-04;  0.0000000E+00;  1.6171822E-05;  1.0000011E+03;  4.0000001E-01;  8.8886321E-01;3; -4.4175091E-01;  0.0000000E+00;  3.9685901E-02;0; -2.8322935E-03;  1.0000024E+04;  0.0000000E+00;  2.2427995E-11;  1.0000000E+04;  0.0000000E+00;  9.9999990E+03; -3.0326883E-03;  0.0000000E+00;  2.0039474E-04;  4.2448625E-01;
  3.5999995E-01;  9.9999998E-03;  2.2000000E-01;1613; -1.8230919E-04;  0.0000000E+00;  2.0884218E-05;  1.0000011E+03;  4.0000001E-01;  8.8886321E-01;3; -4.3194282E-01;  0.0000000E+00;  5.1506896E-02;0; -2.7475953E-03;  1.0000024E+04;  0.0000000E+00;  9.4024608E-11;  1.0000000E+04;  0.0000000E+00;  9.9999990E+03; -2.9922670E-03;  0.0000000E+00;  2.4467160E-04;  5.0191325E-01;
  3.5999995E-01;  9.9999998E-03;  2.4000001E-01;1614; -1.7559098E-04;  0.0000000E+00;  2.7319848E-05;  1.0000011E+03;  4.0000001E-01;  8.8886321E-01;3; -4.1935158E-01;  0.0000000E+00;  6.7498654E-02;0; -2.6751396E-03;  1.0000023E+04;  0.0000000E+00;  1.5213536E-10;  1.0000000E+04;  0.0000000E+00;  9.9999990E+03; -2.9494299E-03;  0.0000000E+00;  2.7429027E-04;  5.4567438E-01;
  3.5999995E-01;  9.9999998E-03;  2.6000002E-01;1615; -1.6645601E-04;  0.0000000E+00;  3.6950201E-05;  1.0000010E+03;  4.0000001E-01;  8.8886321E-01;3; -4.0230978E-01;  0.0000000E+00;  9.2208356E-02;0; -2.6327893E-03;  1.0000023E+04;  0.0000000E+00;  4.2359330E-10;  1.0000000E+04;  0.0000000E+00;  9.9999990E+03; -2.9041599E-03;  0.0000000E+00;  2.7137069E-04;  5.1104945E-01;
  3.5999995E-01;  9.9999998E-03;  2.8000000E-01;1616; -1.5399622E-04;  0.0000000E+00;  5.0760624E-05;  1.0000010E+03;  4.0000001E-01;  8.8886321E-01;3; -3.7904227E-01;  0.0000000E+00;  1.2864842E-01;0; -2.6161275E-03;  1.0000023E+04;  0.0000000E+00; -3.0725410E-08;  1.0000000E+04;  0.0000000E+00;  9.9999990E+03; -2.8566748E-03;  0.0000000E+00;  2.4054747E-04;  3.9092302E-01;
  3.5999995E-01;  9.9999998E-03;  3.0000001E-01;1617; -1.3643818E-04;  0.0000000E+00;  6.5052693E-05;  1.0000010E+03;  4.0000001E-01;  8.8886321E-01;3; -3.4476456E-01;  0.0000000E+00;  1.6809240E-01;0; -2.6123032E-03;  1.0000021E+04;  0.0000000E+00; -1.6597131E-07;  1.0000000E+04;  0.0000000E+00;  9.9999990E+03; -2.8086244E-03;  0.0000000E+00;  1.9632121E-04;  2.2600378E-01;
  3.7999994E-01;  9.9999998E-03;  1.6000000E-01;1641; -2.7814589E-04;  0.0000000E+00;  1.4680181E-05;  1.0000017E+03;  4.0000001E-01;  1.3826759E+00;3; -6.2981921E-01;  0.0000000E+00;  3.5212744E-02;0; -4.2085946E-03;  1.0000036E+04;  0.0000000E+00;  2.1688616E-11;  1.0000000E+04;  0.0000000E+00;  9.9999990E+03; -4.3868669E-03;  0.0000000E+00;  1.7827259E-04;  4.3928325E-01;
  3.7999994E-01;  9.9999998E-03;  1.8000001E-01;1642; -2.7477546E-04;  0.0000000E+00;  1.8378980E-05;  1.0000017E+03;  4.0000001E-01;  1.3826759E+00;3; -6.2410718E-01;  0.0000000E+00;  4.3656033E-02;0; -4.1219885E-03;  1.0000036E+04;  0.0000000E+00; -4.5530867E-11;  1.0000000E+04;  0.0000000E+00;  9.9999990E+03; -4.3513672E-03;  0.0000000E+00;  2.2937875E-04;  5.4070187E-01;
  3.7999994E-01;  9.9999998E-03;  2.0000000E-01;1643; -2.7025316E-04;  0.0000000E+00;  2.3105915E-05;  1.0000016E+03;  4.0000001E-01;  1.3826759E+00;3; -6.1633831E-01;  0.0000000E+00;  5.4663785E-02;0; -4.0184497E-03;  1.0000035E+04;  0.0000000E+00; -5.7301754E-11;  1.0000000E+04;  0.0000000E+00;  9.9999971E+03; -4.3116072E-03;  0.0000000E+00;  2.9315738E-04;  6.6599864E-01;
  3.7999994E-01;  9.9999998E-03;  2.2000001E-01;1644; -2.6408129E-04;  0.0000000E+00;  2.9637209E-05;  1.0000016E+03;  4.0000001E-01;  1.2839134E+00;3; -6.0550535E-01;  0.0000000E+00;  7.0546269E-02;0; -3.9120987E-03;  1.0000035E+04;  0.0000000E+00;  2.3346818E-11;  1.0000000E+04;  0.0000000E+00;  9.9999971E+03; -4.2706640E-03;  0.0000000E+00;  3.5856542E-04;  7.9129869E-01;
  3.7999994E-01;  9.9999998E-03;  2.4000001E-01;1645; -2.5574578E-04;  0.0000000E+00;  3.8811562E-05;  1.0000016E+03;  4.0000001E-01;  1.2839134E+00;3; -5.9122634E-01;  0.0000000E+00;  9.2597894E-02;0; -3.8259809E-03;  1.0000035E+04;  0.0000000E+00;  2.5853863E-10;  1.0000000E+04;  0.0000000E+00;  9.9999971E+03; -4.2298869E-03;  0.0000000E+00;  4.0390604E-04;  8.6589795E-01;
  3.7999994E-01;  9.9999998E-03;  2.6000002E-01;1646; -2.4408555E-04;  0.0000000E+00;  5.2863837E-05;  1.0000015E+03;  4.0000001E-01;  1.2839134E+00;3; -5.7106918E-01;  0.0000000E+00;  1.2739903E-01;0; -3.7836281E-03;  1.0000035E+04;  0.0000000E+00;  6.5192501E-10;  1.0000000E+04;  0.0000000E+00;  9.9999971E+03; -4.1877697E-03;  0.0000000E+00;  4.0414164E-04;  8.1967413E-01;
  3.7999994E-01;  9.9999998E-03;  2.8000003E-01;1647; -2.2753009E-04;  0.0000000E+00;  7.3673407E-05;  1.0000015E+03;  4.0000001E-01;  1.2839134E+00;3; -5.4210293E-01;  0.0000000E+00;  1.8033046E-01;0; -3.7709596E-03;  1.0000034E+04;  0.0000000E+00;  1.0564367E-09;  1.0000000E+04;  0.0000000E+00;  9.9999971E+03; -4.1427743E-03;  0.0000000E+00;  3.7181459E-04;  6.4838409E-01;
  3.7999994E-01;  9.9999998E-03;  3.0000001E-01;1648; -2.0329656E-04;  0.0000000E+00;  9.5938682E-05;  1.0000015E+03;  4.0000001E-01;  1.2839134E+00;3; -4.9736133E-01;  0.0000000E+00;  2.3960134E-01;0; -3.7661628E-03;  1.0000033E+04;  0.0000000E+00;  1.6639091E-09;  1.0000000E+04;  0.0000000E+00;  9.9999980E+03; -4.0958012E-03;  0.0000000E+00;  3.2963837E-04;  4.2018473E-01;
  3.9999989E-01;  9.9999998E-03;  1.6000001E-01;1672; -3.9363554E-04;  0.0000000E+00;  2.1366472E-05;  1.0000026E+03;  4.0000001E-01;  2.1727760E+00;3; -8.6117113E-01;  0.0000000E+00;  4.9548868E-02;0; -5.8724196E-03;  1.0000052E+04;  0.0000000E+00;  4.9659679E-11;  1.0000000E+04;  0.0000000E+00;  9.9999980E+03; -6.1358307E-03;  0.0000000E+00;  2.6341100E-04;  6.8600142E-01;
  3.9999989E-01;  9.9999998E-03;  1.8000001E-01;1673; -3.8963996E-04;  0.0000000E+00;  2.6504094E-05;  1.0000025E+03;  4.0000001E-01;  2.0740135E+00;3; -8.5546964E-01;  0.0000000E+00;  6.0840063E-02;0; -5.7607698E-03;  1.0000052E+04;  0.0000000E+00;  9.0273058E-13;  1.0000000E+04;  0.0000000E+00;  9.9999971E+03; -6.0972376E-03;  0.0000000E+00;  3.3646775E-04;  8.4641385E-01;
  3.9999989E-01;  9.9999998E-03;  2.0000000E-01;1674; -3.8442333E-04;  0.0000000E+00;  3.2919983E-05;  1.0000024E+03;  4.0000001E-01;  1.9752508E+00;3; -8.4791088E-01;  0.0000000E+00;  7.5238071E-02;0; -5.6298636E-03;  1.0000052E+04;  0.0000000E+00; -7.8417751E-11;  1.0000000E+04;  0.0000000E+00;  9.9999971E+03; -6.0581523E-03;  0.0000000E+00;  4.2828868E-04;  1.0460957E+00;
  3.9999989E-01;  9.9999998E-03;  2.2000001E-01;1675; -3.7740887E-04;  0.0000000E+00;  4.1674833E-05;  1.0000023E+03;  4.0000001E-01;  1.8764883E+00;3; -8.3732945E-01;  0.0000000E+00;  9.5798604E-02;0; -5.5007800E-03;  1.0000052E+04;  0.0000000E+00;  1.1369414E-10;  1.0000000E+04;  0.0000000E+00;  9.9999961E+03; -6.0240636E-03;  0.0000000E+00;  5.2328373E-04;  1.2480857E+00;
  3.9999989E-01;  9.9999998E-03;  2.4000001E-01;1676; -3.6782803E-04;  0.0000000E+00;  5.4271091E-05;  1.0000023E+03;  4.0000001E-01;  1.8764883E+00;3; -8.2304174E-01;  0.0000000E+00;  1.2518676E-01;0; -5.4068258E-03;  1.0000052E+04;  0.0000000E+00;  4.0314699E-10;  1.0000000E+04;  0.0000000E+00;  9.9999961E+03; -5.9965281E-03;  0.0000000E+00;  5.8970222E-04;  1.3714610E+00;
  3.9999992E-01;  9.9999998E-03;  2.6000002E-01;1677; -3.5391594E-04;  0.0000000E+00;  7.4140320E-05;  1.0000023E+03;  4.0000001E-01;  1.8764883E+00;3; -8.0140430E-01;  0.0000000E+00;  1.7266697E-01;0; -5.3805429E-03;  1.0000050E+04;  0.0000000E+00;  1.1513454E-09;  1.0000000E+04;  0.0000000E+00;  9.9999961E+03; -5.9714420E-03;  0.0000000E+00;  5.9089926E-04;  1.3050057E+00;
  3.9999992E-01;  9.9999998E-03;  2.8000003E-01;1678; -3.3296863E-04;  0.0000000E+00;  1.0480883E-04;  1.0000023E+03;  4.0000001E-01;  1.8764883E+00;3; -7.6762676E-01;  0.0000000E+00;  2.4750297E-01;0; -5.3900923E-03;  1.0000049E+04;  0.0000000E+00;  2.5798534E-09;  1.0000000E+04;  0.0000000E+00;  9.9999961E+03; -5.9438110E-03;  0.0000000E+00;  5.5371865E-04;  1.0587242E+00;
  3.9999992E-01;  9.9999998E-03;  3.0000004E-01;1679; -3.0053686E-04;  0.0000000E+00;  1.3939929E-04;  1.0000023E+03;  4.0000001E-01;  1.8764883E+00;3; -7.1140158E-01;  0.0000000E+00;  3.3454815E-01;0; -5.3830566E-03;  1.0000049E+04;  0.0000000E+00;  3.2614778E-09;  1.0000000E+04;  0.0000000E+00;  9.9999961E+03; -5.9120734E-03;  0.0000000E+00;  5.2901689E-04;  7.6605165E-01;
  4.1999984E-01;  9.9999998E-03;  1.6000001E-01;1703; -5.5070192E-04;  0.0000000E+00;  3.1207066E-05;  1.0000036E+03;  4.0000001E-01;  2.9628754E+00;3; -1.1612099E+00;  0.0000000E+00;  7.0304126E-02;0; -8.0880299E-03;  1.0000075E+04;  0.0000000E+00;  1.5000249E-11;  1.0000000E+04;  0.0000000E+00;  9.9999971E+03; -8.4794853E-03;  0.0000000E+00;  3.9145522E-04;  1.0721118E+00;
  4.1999984E-01;  9.9999998E-03;  1.8000001E-01;1704; -5.4622744E-04;  0.0000000E+00;  3.8361057E-05;  1.0000036E+03;  4.0000001E-01;  2.9628754E+00;3; -1.1564534E+00;  0.0000000E+00;  8.5392386E-02;0; -7.9441192E-03;  1.0000075E+04;  0.0000000E+00; -1.5624941E-11;  1.0000000E+04;  0.0000000E+00;  9.9999961E+03; -8.4408307E-03;  0.0000000E+00;  4.9671117E-04;  1.3309083E+00;
  4.1999984E-01;  9.9999998E-03;  2.0000002E-01;1705; -5.4061046E-04;  0.0000000E+00;  4.6975896E-05;  1.0000035E+03;  4.0000001E-01;  2.8641129E+00;3; -1.1505501E+00;  0.0000000E+00;  1.0402221E-01;0; -7.7799386E-03;  1.0000074E+04;  0.0000000E+00; -2.2871877E-10;  1.0000000E+04;  0.0000000E+00;  9.9999961E+03; -8.4092757E-03;  0.0000000E+00;  6.2933686E-04;  1.6545779E+00;
  4.1999984E-01;  9.9999998E-03;  2.2000001E-01;1706; -5.3335726E-04;  0.0000000E+00;  5.8259582E-05;  1.0000034E+03;  4.0000001E-01;  2.8641129E+00;3; -1.1425629E+00;  0.0000000E+00;  1.2947720E-01;0; -7.6276958E-03;  1.0000074E+04;  0.0000000E+00;  5.1357262E-11;  1.0000000E+04;  0.0000000E+00;  9.9999941E+03; -8.3946018E-03;  0.0000000E+00;  7.6690613E-04;  1.9837722E+00;
  4.1999984E-01;  9.9999998E-03;  2.4000002E-01;1707; -5.2341254E-04;  0.0000000E+00;  7.5294149E-05;  1.0000034E+03;  4.0000001E-01;  2.7653503E+00;3; -1.1314448E+00;  0.0000000E+00;  1.6775143E-01;0; -7.5369026E-03;  1.0000074E+04;  0.0000000E+00;  8.5233154E-10;  1.0000000E+04;  0.0000000E+00;  9.9999922E+03; -8.3989408E-03;  0.0000000E+00;  8.6203835E-04;  2.1847117E+00;
  4.1999987E-01;  9.9999998E-03;  2.6000002E-01;1708; -5.0823629E-04;  0.0000000E+00;  1.0288336E-04;  1.0000034E+03;  4.0000001E-01;  2.7653503E+00;3; -1.1120175E+00;  0.0000000E+00;  2.3119096E-01;0; -7.5554447E-03;  1.0000074E+04;  0.0000000E+00;  2.7818727E-09;  1.0000000E+04;  0.0000000E+00;  9.9999932E+03; -8.4143067E-03;  0.0000000E+00;  8.5886184E-04;  2.0708256E+00;
  4.1999987E-01;  9.9999998E-03;  2.8000003E-01;1709; -4.8330560E-04;  0.0000000E+00;  1.4788227E-04;  1.0000034E+03;  4.0000001E-01;  2.8641129E+00;3; -1.0764489E+00;  0.0000000E+00;  3.3727881E-01;0; -7.6198392E-03;  1.0000074E+04;  0.0000000E+00;  5.0059090E-09;  1.0000000E+04;  0.0000000E+00;  9.9999951E+03; -8.4298747E-03;  0.0000000E+00;  8.1003545E-04;  1.6775945E+00;
  4.1999987E-01;  9.9999998E-03;  3.0000004E-01;1710; -4.4141110E-04;  0.0000000E+00;  2.0091643E-04;  1.0000034E+03;  4.0000001E-01;  2.8641129E+00;3; -1.0094018E+00;  0.0000000E+00;  4.6653312E-01;0; -7.6289154E-03;  1.0000073E+04;  0.0000000E+00;  4.2783186E-09;  1.0000000E+04;  0.0000000E+00;  9.9999951E+03; -8.4392698E-03;  0.0000000E+00;  8.1035466E-04;  1.2762934E+00;
  4.3999976E-01;  9.9999998E-03;  1.6000001E-01;1734; -7.6489011E-04;  0.0000000E+00;  4.5649369E-05;  1.0000051E+03;  4.0000001E-01;  4.1480241E+00;3; -1.5475500E+00;  0.0000000E+00;  1.0049564E-01;0; -1.0978390E-02;  1.0000106E+04;  0.0000000E+00;  7.7301866E-11;  1.0000000E+04;  0.0000000E+00;  9.9999961E+03; -1.1563360E-02;  0.0000000E+00;  5.8497052E-04;  1.6747290E+00;
  4.3999976E-01;  9.9999998E-03;  1.8000002E-01;1735; -7.6019223E-04;  0.0000000E+00;  5.5830496E-05;  1.0000049E+03;  4.0000001E-01;  4.0492616E+00;3; -1.5451359E+00;  0.0000000E+00;  1.2099045E-01;0; -1.0790263E-02;  1.0000106E+04;  0.0000000E+00;  1.1727380E-10;  1.0000000E+04;  0.0000000E+00;  9.9999932E+03; -1.1530872E-02;  0.0000000E+00;  7.4060803E-04;  2.1051145E+00;
  4.3999976E-01;  9.9999998E-03;  2.0000002E-01;1736; -7.5457012E-04;  0.0000000E+00;  6.7483576E-05;  1.0000048E+03;  4.0000001E-01;  3.9504991E+00;3; -1.5429837E+00;  0.0000000E+00;  1.4495550E-01;0; -1.0581874E-02;  1.0000106E+04;  0.0000000E+00;  1.0162914E-10;  1.0000000E+04;  0.0000000E+00;  9.9999922E+03; -1.1518601E-02;  0.0000000E+00;  9.3672710E-04;  2.6460617E+00;
  4.3999979E-01;  9.9999998E-03;  2.2000003E-01;1737; -7.4783247E-04;  0.0000000E+00;  8.1993116E-05;  1.0000048E+03;  4.0000001E-01;  3.9504991E+00;3; -1.5408341E+00;  0.0000000E+00;  1.7578919E-01;0; -1.0403123E-02;  1.0000105E+04;  0.0000000E+00;  2.9797637E-10;  1.0000000E+04;  0.0000000E+00;  9.9999902E+03; -1.1542970E-02;  0.0000000E+00;  1.1398480E-03;  3.1984181E+00;
  4.3999979E-01;  9.9999998E-03;  2.4000002E-01;1738; -7.3886832E-04;  0.0000000E+00;  1.0421994E-04;  1.0000047E+03;  4.0000001E-01;  3.8517365E+00;3; -1.5377423E+00;  0.0000000E+00;  2.2389390E-01;0; -1.0331770E-02;  1.0000105E+04;  0.0000000E+00;  2.1044209E-09;  1.0000000E+04;  0.0000000E+00;  9.9999893E+03; -1.1607348E-02;  0.0000000E+00;  1.2755772E-03;  3.5319288E+00;
  4.3999979E-01;  9.9999998E-03;  2.6000005E-01;1739; -7.2438410E-04;  0.0000000E+00;  1.4122020E-04;  1.0000047E+03;  4.0000001E-01;  3.8517365E+00;3; -1.5271313E+00;  0.0000000E+00;  3.0547675E-01;0; -1.0447865E-02;  1.0000106E+04;  0.0000000E+00;  5.9279897E-09;  1.0000000E+04;  0.0000000E+00;  9.9999893E+03; -1.1698494E-02;  0.0000000E+00;  1.2506285E-03;  3.3175483E+00;
  4.3999979E-01;  9.9999998E-03;  2.8000006E-01;1740; -6.9705845E-04;  0.0000000E+00;  2.0563115E-04;  1.0000048E+03;  4.0000001E-01;  3.9504991E+00;3; -1.4963570E+00;  0.0000000E+00;  4.5066825E-01;0; -1.0641355E-02;  1.0000106E+04;  0.0000000E+00;  8.9507539E-09;  1.0000000E+04;  0.0000000E+00;  9.9999922E+03; -1.1796860E-02;  0.0000000E+00;  1.1555054E-03;  2.6193347E+00;
  4.3999982E-01;  9.9999998E-03;  3.0000007E-01;1741; -6.4537727E-04;  0.0000000E+00;  2.8650239E-04;  1.0000049E+03;  4.0000001E-01;  4.0492616E+00;3; -1.4224944E+00;  0.0000000E+00;  6.4138520E-01;0; -1.0704522E-02;  1.0000107E+04;  0.0000000E+00;  4.0037862E-09;  1.0000000E+04;  0.0000000E+00;  9.9999922E+03; -1.1888007E-02;  0.0000000E+00;  1.1834848E-03;  1.9599527E+00;
  4.5999965E-01;  9.9999998E-03;  1.6000001E-01;1765; -1.0587435E-03;  0.0000000E+00;  6.6678069E-05;  1.0000073E+03;  4.0000015E-01;  6.0245075E+00;3; -2.0446327E+00;  0.0000000E+00;  1.4430617E-01;0; -1.4636972E-02;  1.0000146E+04;  0.0000000E+00;  3.4275438E-10;  1.0000000E+04;  0.0000000E+00;  9.9999922E+03; -1.5513619E-02;  0.0000000E+00;  8.7664725E-04;  2.6060073E+00;
  4.5999965E-01;  9.9999998E-03;  1.8000002E-01;1766; -1.0540516E-03;  0.0000000E+00;  8.1732542E-05;  1.0000072E+03;  4.0000015E-01;  5.9257450E+00;3; -2.0463438E+00;  0.0000000E+00;  1.7304352E-01;0; -1.4382659E-02;  1.0000146E+04;  0.0000000E+00;  4.6662708E-12;  1.0000000E+04;  0.0000000E+00;  9.9999902E+03; -1.5499410E-02;  0.0000000E+00;  1.1167513E-03;  3.3462825E+00;
  4.5999968E-01;  9.9999998E-03;  2.0000003E-01;1767; -1.0484983E-03;  0.0000000E+00;  9.8249053E-05;  1.0000070E+03;  4.0000013E-01;  5.7282200E+00;3; -2.0499623E+00;  0.0000000E+00;  2.0475677E-01;0; -1.4105950E-02;  1.0000146E+04;  0.0000000E+00;  4.7011561E-10;  1.0000000E+04;  0.0000000E+00;  9.9999873E+03; -1.5525946E-02;  0.0000000E+00;  1.4199971E-03;  4.2849698E+00;
  4.5999968E-01;  9.9999998E-03;  2.2000003E-01;1768; -1.0427190E-03;  0.0000000E+00;  1.1735409E-04;  1.0000068E+03;  4.0000013E-01;  5.6294575E+00;3; -2.0573604E+00;  0.0000000E+00;  2.4209322E-01;0; -1.3884624E-02;  1.0000147E+04;  0.0000000E+00;  1.6042182E-09;  1.0000000E+04;  0.0000000E+00;  9.9999844E+03; -1.5618542E-02;  0.0000000E+00;  1.7339187E-03;  5.2501149E+00;
  4.5999968E-01;  9.9999998E-03;  2.4000004E-01;1769; -1.0362327E-03;  0.0000000E+00;  1.4597125E-04;  1.0000068E+03;  4.0000013E-01;  5.6294575E+00;3; -2.0685358E+00;  0.0000000E+00;  3.0066296E-01;0; -1.3846082E-02;  1.0000148E+04;  0.0000000E+00;  5.9062399E-09;  1.0000000E+04;  0.0000000E+00;  9.9999824E+03; -1.5782170E-02;  0.0000000E+00;  1.9360884E-03;  5.8340921E+00;
  4.5999968E-01;  9.9999998E-03;  2.6000005E-01;1770; -1.0256189E-03;  0.0000000E+00;  1.9405388E-04;  1.0000069E+03;  4.0000013E-01;  5.7282200E+00;3; -2.0770197E+00;  0.0000000E+00;  4.0076268E-01;0; -1.4136353E-02;  1.0000149E+04;  0.0000000E+00;  1.3799761E-08;  1.0000000E+04;  0.0000000E+00;  9.9999834E+03; -1.5997214E-02;  0.0000000E+00;  1.8608613E-03;  5.4365139E+00;
  4.5999968E-01;  9.9999998E-03;  2.8000009E-01;1771; -9.9979015E-04;  0.0000000E+00;  2.8446628E-04;  1.0000071E+03;  4.0000013E-01;  5.8269825E+00;3; -2.0635033E+00;  0.0000000E+00;  5.9478486E-01;0; -1.4585086E-02;  1.0000150E+04;  0.0000000E+00;  1.9509731E-08;  1.0000000E+04;  0.0000000E+00;  9.9999863E+03; -1.6232638E-02;  0.0000000E+00;  1.6475513E-03;  4.1537075E+00;
  4.5999971E-01;  9.9999998E-03;  3.0000013E-01;1772; -9.4042765E-04;  0.0000000E+00;  4.0722633E-04;  1.0000074E+03;  4.0000013E-01;  6.1232696E+00;3; -1.9936645E+00;  0.0000000E+00;  8.7019610E-01;0; -1.4750695E-02;  1.0000152E+04;  0.0000000E+00;  8.3862846E-09;  1.0000000E+04;  0.0000000E+00;  9.9999883E+03; -1.6461758E-02;  0.0000000E+00;  1.7110636E-03;  3.0945656E+00;
  4.7999951E-01;  9.9999998E-03;  1.6000003E-01;1796; -1.4616353E-03;  0.0000000E+00;  9.6937270E-05;  1.0000103E+03;  4.0000045E-01;  8.5923233E+00;3; -2.6838646E+00;  0.0000000E+00;  2.0724288E-01;0; -1.9055612E-02;  1.0000200E+04;  0.0000000E+00;  7.3507506E-10;  1.0000000E+04;  0.0000000E+00;  9.9999893E+03; -2.0368321E-02;  0.0000000E+00;  1.3127084E-03;  4.0248156E+00;
  4.7999951E-01;  9.9999998E-03;  1.8000004E-01;1797; -1.4569325E-03;  0.0000000E+00;  1.2007350E-04;  1.0000101E+03;  4.0000042E-01;  8.2960367E+00;3; -2.6914399E+00;  0.0000000E+00;  2.4956293E-01;0; -1.8692423E-02;  1.0000199E+04;  0.0000000E+00;  9.8786812E-10;  1.0000000E+04;  0.0000000E+00;  9.9999844E+03; -2.0394713E-02;  0.0000000E+00;  1.7022897E-03;  5.3355293E+00;
  4.7999951E-01;  9.9999998E-03;  2.0000005E-01;1798; -1.4506164E-03;  0.0000000E+00;  1.4557510E-04;  1.0000099E+03;  4.0000036E-01;  8.1972742E+00;3; -2.7021124E+00;  0.0000000E+00;  2.9512602E-01;0; -1.8292818E-02;  1.0000199E+04;  0.0000000E+00;  1.9376527E-09;  1.0000000E+04;  0.0000000E+00;  9.9999805E+03; -2.0491431E-02;  0.0000000E+00;  2.1986121E-03;  7.0202918E+00;
  4.7999951E-01;  9.9999998E-03;  2.2000006E-01;1799; -1.4451168E-03;  0.0000000E+00;  1.7256232E-04;  1.0000096E+03;  4.0000042E-01;  7.9997497E+00;3; -2.7221956E+00;  0.0000000E+00;  3.4205583E-01;0; -1.7977037E-02;  1.0000200E+04;  0.0000000E+00;  5.1122555E-09;  1.0000000E+04;  0.0000000E+00;  9.9999736E+03; -2.0692471E-02;  0.0000000E+00;  2.7154342E-03;  8.7734671E+00;
  4.7999951E-01;  9.9999998E-03;  2.4000007E-01;1800; -1.4421716E-03;  0.0000000E+00;  2.0931881E-04;  1.0000096E+03;  4.0000042E-01;  7.9009871E+00;3; -2.7543144E+00;  0.0000000E+00;  4.1045699E-01;0; -1.7962024E-02;  1.0000203E+04;  0.0000000E+00;  1.5377202E-08;  1.0000000E+04;  0.0000000E+00;  9.9999697E+03; -2.1003742E-02;  0.0000000E+00;  3.0417182E-03;  9.8580942E+00;
  4.7999954E-01;  9.9999998E-03;  2.6000008E-01;1801; -1.4405743E-03;  0.0000000E+00;  2.7017423E-04;  1.0000099E+03;  4.0000039E-01;  8.1972742E+00;3; -2.7971692E+00;  0.0000000E+00;  5.2776355E-01;0; -1.8529911E-02;  1.0000206E+04;  0.0000000E+00;  3.4935390E-08;  1.0000000E+04;  0.0000000E+00;  9.9999727E+03; -2.1399477E-02;  0.0000000E+00;  2.8695662E-03;  9.1544809E+00;
  4.7999954E-01;  9.9999998E-03;  2.8000012E-01;1802; -1.4248032E-03;  0.0000000E+00;  3.9464099E-04;  1.0000104E+03;  4.0000042E-01;  8.5923233E+00;3; -2.8228130E+00;  0.0000000E+00;  7.8009158E-01;0; -1.9453250E-02;  1.0000210E+04;  0.0000000E+00;  4.6700080E-08;  1.0000000E+04;  0.0000000E+00;  9.9999795E+03; -2.1836137E-02;  0.0000000E+00;  2.3828880E-03;  6.7349715E+00;
  4.7999957E-01;  9.9999998E-03;  3.0000019E-01;1803; -1.3665649E-03;  0.0000000E+00;  5.7863741E-04;  1.0000107E+03;  4.0000042E-01;  8.8886108E+00;3; -2.7821972E+00;  0.0000000E+00;  1.1744969E+00;0; -1.9880183E-02;  1.0000214E+04;  0.0000000E+00;  1.3768564E-08;  1.0000000E+04;  0.0000000E+00;  9.9999834E+03; -2.2270432E-02;  0.0000000E+00;  2.3902478E-03;  4.7302866E+00;
  4.9999928E-01;  9.9999998E-03;  1.6000004E-01;1827; -2.0060854E-03;  0.0000000E+00;  1.3843772E-04;  1.0000143E+03;  4.0000090E-01;  1.1851469E+01;3; -3.5003252E+00;  0.0000000E+00;  2.9251567E-01;0; -2.4017937E-02;  1.0000262E+04;  0.0000000E+00;  3.4319514E-09;  1.0000000E+04;  0.0000000E+00;  9.9999824E+03; -2.5978284E-02;  0.0000000E+00;  1.9603455E-03;  6.1619654E+00;
  4.9999928E-01;  9.9999998E-03;  1.8000005E-01;1828; -2.0004418E-03;  0.0000000E+00;  1.7617809E-04;  1.0000140E+03;  4.0000087E-01;  1.1653945E+01;3; -3.5144291E+00;  0.0000000E+00;  3.6037734E-01;0; -2.3458822E-02;  1.0000262E+04;  0.0000000E+00;  3.1621068E-09;  1.0000000E+04;  0.0000000E+00;  9.9999766E+03; -2.6081683E-02;  0.0000000E+00;  2.6228619E-03;  8.5277138E+00;
  4.9999931E-01;  9.9999998E-03;  2.0000006E-01;1829; -1.9913684E-03;  0.0000000E+00;  2.1763994E-04;  1.0000136E+03;  4.0000087E-01;  1.1258896E+01;3; -3.5323424E+00;  0.0000000E+00;  4.3020731E-01;0; -2.2814028E-02;  1.0000263E+04;  0.0000000E+00;  4.9716911E-09;  1.0000000E+04;  0.0000000E+00;  9.9999668E+03; -2.6292846E-02;  0.0000000E+00;  3.4788181E-03;  1.1615328E+01;
  4.9999931E-01;  9.9999998E-03;  2.2000009E-01;1830; -1.9829888E-03;  0.0000000E+00;  2.6119006E-04;  1.0000133E+03;  4.0000090E-01;  1.1061371E+01;3; -3.5657816E+00;  0.0000000E+00;  4.9745101E-01;0; -2.2268277E-02;  1.0000266E+04;  0.0000000E+00;  1.3140129E-08;  1.0000000E+04;  0.0000000E+00;  9.9999570E+03; -2.6649853E-02;  0.0000000E+00;  4.3815756E-03;  1.4875377E+01;
  4.9999931E-01;  9.9999998E-03;  2.4000010E-01;1831; -1.9838216E-03;  0.0000000E+00;  3.1000123E-04;  1.0000132E+03;  4.0000090E-01;  1.0962609E+01;3; -3.6246943E+00;  0.0000000E+00;  5.7753295E-01;0; -2.2201350E-02;  1.0000271E+04;  0.0000000E+00;  4.1171308E-08;  1.0000000E+04;  0.0000000E+00;  9.9999512E+03; -2.7157236E-02;  0.0000000E+00;  4.9558855E-03;  1.6963734E+01;
  4.9999931E-01;  9.9999998E-03;  2.6000014E-01;1832; -1.9993617E-03;  0.0000000E+00;  3.8669704E-04;  1.0000136E+03;  4.0000087E-01;  1.1258896E+01;3; -3.7230244E+00;  0.0000000E+00;  7.1009594E-01;0; -2.3159945E-02;  1.0000274E+04;  0.0000000E+00;  9.3140883E-08;  1.0000000E+04;  0.0000000E+00;  9.9999551E+03; -2.7785711E-02;  0.0000000E+00;  4.6257656E-03;  1.5809962E+01;
  4.9999931E-01;  9.9999998E-03;  2.8000018E-01;1833; -2.0115902E-03;  0.0000000E+00;  5.5435952E-04;  1.0000145E+03;  4.0000090E-01;  1.1950232E+01;3; -3.8258157E+00;  0.0000000E+00;  1.0262332E+00;0; -2.4912367E-02;  1.0000280E+04;  0.0000000E+00;  1.2317982E-07;  1.0000000E+04;  0.0000000E+00;  9.9999668E+03; -2.8482068E-02;  0.0000000E+00;  3.5697010E-03;  1.1271753E+01;
  4.9999934E-01;  9.9999998E-03;  3.0000028E-01;1834; -1.9783995E-03;  0.0000000E+00;  8.2515046E-04;  1.0000152E+03;  4.0000090E-01;  1.2542805E+01;3; -3.8658850E+00;  0.0000000E+00;  1.5815742E+00;0; -2.5895858E-02;  1.0000286E+04;  0.0000000E+00;  3.3973034E-08;  1.0000000E+04;  0.0000000E+00;  9.9999746E+03; -2.9183371E-02;  0.0000000E+00;  3.2875123E-03;  7.2363143E+00;
  5.1999897E-01;  9.9999998E-03;  1.6000006E-01;1858; -2.7184172E-03;  0.0000000E+00;  1.9613846E-04;  1.0000212E+03;  4.0000245E-01;  1.7579655E+01;3; -4.5214114E+00;  0.0000000E+00;  4.1083363E-01;0; -2.8979674E-02;  1.0000328E+04;  0.0000000E+00;  5.6718461E-09;  1.0000000E+04;  0.0000000E+00;  9.9999736E+03; -3.1905569E-02;  0.0000000E+00;  2.9258952E-03;  9.3795071E+00;
  5.1999903E-01;  9.9999998E-03;  1.8000008E-01;1859; -2.7117555E-03;  0.0000000E+00;  2.5373779E-04;  1.0000207E+03;  4.0000248E-01;  1.7184607E+01;3; -4.5452294E+00;  0.0000000E+00;  5.1210290E-01;0; -2.8044403E-02;  1.0000331E+04;  0.0000000E+00;  6.6164327E-09;  1.0000000E+04;  0.0000000E+00;  9.9999609E+03; -3.2133035E-02;  0.0000000E+00;  4.0886318E-03;  1.3672263E+01;
  5.1999903E-01;  9.9999998E-03;  2.0000011E-01;1860; -2.6962690E-03;  0.0000000E+00;  3.2257772E-04;  1.0000200E+03;  4.0000251E-01;  1.6592035E+01;3; -4.5685382E+00;  0.0000000E+00;  6.2560767E-01;0; -2.6898630E-02;  1.0000333E+04;  0.0000000E+00;  8.5956167E-09;  1.0000000E+04;  0.0000000E+00;  9.9999453E+03; -3.2507550E-02;  0.0000000E+00;  5.6089205E-03;  1.9335928E+01;
  5.1999903E-01;  9.9999998E-03;  2.2000013E-01;1861; -2.6788351E-03;  0.0000000E+00;  3.9899044E-04;  1.0000193E+03;  4.0000245E-01;  1.5999462E+01;3; -4.6048403E+00;  0.0000000E+00;  7.4574447E-01;0; -2.5838463E-02;  1.0000337E+04;  0.0000000E+00;  3.0460363E-08;  1.0000000E+04;  0.0000000E+00;  9.9999277E+03; -3.3062197E-02;  0.0000000E+00;  7.2237351E-03;  2.5356934E+01;
  5.1999903E-01;  9.9999998E-03;  2.4000016E-01;1862; -2.6813929E-03;  0.0000000E+00;  4.7420865E-04;  1.0000190E+03;  4.0000245E-01;  1.5801937E+01;3; -4.7001367E+00;  0.0000000E+00;  8.4390509E-01;0; -2.5499299E-02;  1.0000344E+04;  0.0000000E+00;  1.0564031E-07;  1.0000000E+04;  0.0000000E+00;  9.9999150E+03; -3.3796314E-02;  0.0000000E+00;  8.2970159E-03;  2.9421268E+01;
  5.1999903E-01;  9.9999998E-03;  2.6000020E-01;1863; -2.7253544E-03;  0.0000000E+00;  5.7737058E-04;  1.0000196E+03;  4.0000245E-01;  1.6196985E+01;3; -4.8804526E+00;  0.0000000E+00;  9.9252176E-01;0; -2.6910633E-02;  1.0000350E+04;  0.0000000E+00;  2.4811831E-07;  1.0000000E+04;  0.0000000E+00;  9.9999219E+03; -3.4681298E-02;  0.0000000E+00;  7.7706645E-03;  2.7793829E+01;
  5.1999903E-01;  9.9999998E-03;  2.8000030E-01;1864; -2.7994455E-03;  0.0000000E+00;  8.0272777E-04;  1.0000212E+03;  4.0000251E-01;  1.7579655E+01;3; -5.1230292E+00;  0.0000000E+00;  1.3770971E+00;0; -2.9963735E-02;  1.0000358E+04;  0.0000000E+00;  3.3559795E-07;  1.0000000E+04;  0.0000000E+00;  9.9999434E+03; -3.5661884E-02;  0.0000000E+00;  5.6981472E-03;  1.9742750E+01;
  5.1999903E-01;  9.9999998E-03;  3.0000043E-01;1865; -2.8437967E-03;  0.0000000E+00;  1.1975103E-03;  1.0000225E+03;  4.0000245E-01;  1.8666039E+01;3; -5.3411131E+00;  0.0000000E+00;  2.1456437E+00;0; -3.1960990E-02;  1.0000367E+04;  0.0000000E+00;  1.2422016E-07;  1.0000000E+04;  0.0000000E+00;  9.9999609E+03; -3.6655970E-02;  0.0000000E+00;  4.6949810E-03;  1.1954867E+01;
  5.3999859E-01;  9.9999998E-03;  1.6000009E-01;1889; -3.6084652E-03;  0.0000000E+00;  2.7322950E-04;  1.0000338E+03;  4.0000650E-01;  2.7949625E+01;3; -5.7571945E+00;  0.0000000E+00;  5.6948781E-01;0; -3.2969367E-02;  1.0000393E+04;  0.0000000E+00;  9.6222754E-09;  1.0000000E+04;  0.0000000E+00;  9.9999590E+03; -3.7351798E-02;  0.0000000E+00;  4.3824320E-03;  1.4255850E+01;
  5.3999865E-01;  9.9999998E-03;  1.8000011E-01;1890; -3.5991659E-03;  0.0000000E+00;  3.6031401E-04;  1.0000328E+03;  4.0000647E-01;  2.7159529E+01;3; -5.7918420E+00;  0.0000000E+00;  7.1959835E-01;0; -3.1307906E-02;  1.0000396E+04;  0.0000000E+00;  7.7469400E-09;  1.0000000E+04;  0.0000000E+00;  9.9999365E+03; -3.7744753E-02;  0.0000000E+00;  6.4368485E-03;  2.1946424E+01;
  5.3999865E-01;  9.9999998E-03;  2.0000015E-01;1891; -3.5798161E-03;  0.0000000E+00;  4.6279936E-04;  1.0000316E+03;  4.0000650E-01;  2.6171909E+01;3; -5.8277645E+00;  0.0000000E+00;  8.8544708E-01;0; -2.9184792E-02;  1.0000399E+04;  0.0000000E+00;  1.1587947E-08;  1.0000000E+04;  0.0000000E+00;  9.9999072E+03; -3.8314521E-02;  0.0000000E+00;  9.1297301E-03;  3.2111576E+01;
  5.3999865E-01;  9.9999998E-03;  2.2000019E-01;1892; -3.5550303E-03;  0.0000000E+00;  5.8147666E-04;  1.0000303E+03;  4.0000653E-01;  2.5085529E+01;3; -5.8734760E+00;  0.0000000E+00;  1.0692526E+00;0; -2.7103569E-02;  1.0000405E+04;  0.0000000E+00;  6.4623173E-08;  1.0000000E+04;  0.0000000E+00;  9.9998770E+03; -3.9077993E-02;  0.0000000E+00;  1.1974425E-02;  4.2876980E+01;
  5.3999871E-01;  9.9999998E-03;  2.4000026E-01;1893; -3.5500827E-03;  0.0000000E+00;  7.2135282E-04;  1.0000296E+03;  4.0000653E-01;  2.4492956E+01;3; -5.9871264E+00;  0.0000000E+00;  1.2524735E+00;0; -2.6097272E-02;  1.0000413E+04;  0.0000000E+00;  2.6463596E-07;  1.0000000E+04;  0.0000000E+00;  9.9998555E+03; -4.0025573E-02;  0.0000000E+00;  1.3928302E-02;  5.0371250E+01;
  5.3999865E-01;  9.9999998E-03;  2.6000035E-01;1894; -3.6222378E-03;  0.0000000E+00;  9.0216863E-04;  1.0000304E+03;  4.0000650E-01;  2.5184290E+01;3; -6.2697411E+00;  0.0000000E+00;  1.4630269E+00;0; -2.7798977E-02;  1.0000421E+04;  0.0000000E+00;  6.4882460E-07;  1.0000000E+04;  0.0000000E+00;  9.9998604E+03; -4.1133299E-02;  0.0000000E+00;  1.3334324E-02;  4.8767960E+01;
  5.3999859E-01;  9.9999998E-03;  2.8000048E-01;1895; -3.8122968E-03;  0.0000000E+00;  1.2155618E-03;  1.0000328E+03;  4.0000650E-01;  2.7159529E+01;3; -6.7420316E+00;  0.0000000E+00;  1.9330653E+00;0; -3.2672592E-02;  1.0000432E+04;  0.0000000E+00;  9.0119960E-07;  1.0000000E+04;  0.0000000E+00;  9.9998984E+03; -4.2353623E-02;  0.0000000E+00;  9.6810311E-03;  3.5660000E+01;
  5.3999853E-01;  9.9999998E-03;  3.0000070E-01;1896; -4.0290421E-03;  0.0000000E+00;  1.7751043E-03;  1.0000352E+03;  4.0000647E-01;  2.9134768E+01;3; -7.3017492E+00;  0.0000000E+00;  2.9691155E+00;0; -3.6507927E-02;  1.0000442E+04;  0.0000000E+00;  4.1673403E-07;  1.0000000E+04;  0.0000000E+00;  9.9999365E+03; -4.3592803E-02;  0.0000000E+00;  7.0848754E-03;  2.1157667E+01;
  5.5999815E-01;  9.9999998E-03;  1.6000012E-01;1920; -4.6545267E-03;  0.0000000E+00;  3.7058970E-04;  1.0000624E+03;  4.0001747E-01;  5.1652363E+01;3; -7.1836810E+00;  0.0000000E+00;  7.6974285E-01;0; -3.4552503E-02;  1.0000439E+04;  0.0000000E+00;  1.0014282E-08;  1.0000000E+04;  0.0000000E+00;  9.9999365E+03; -4.1137323E-02;  0.0000000E+00;  6.5848203E-03;  2.1624140E+01;
  5.5999815E-01;  9.9999998E-03;  1.8000016E-01;1921; -4.6506720E-03;  0.0000000E+00;  4.8753995E-04;  1.0000607E+03;  4.0001747E-01;  5.0269699E+01;3; -7.2418509E+00;  0.0000000E+00;  9.7627097E-01;0; -3.1565316E-02;  1.0000443E+04;  0.0000000E+00; -2.2555197E-10;  1.0000000E+04;  0.0000000E+00;  9.9998984E+03; -4.1704729E-02;  0.0000000E+00;  1.0139415E-02;  3.4961464E+01;
  5.5999821E-01;  9.9999998E-03;  2.0000021E-01;1922; -4.6313582E-03;  0.0000000E+00;  6.3345610E-04;  1.0000584E+03;  4.0001747E-01;  4.8393227E+01;3; -7.3003106E+00;  0.0000000E+00;  1.2092435E+00;0; -2.7689427E-02;  1.0000448E+04;  0.0000000E+00;  2.0961937E-09;  1.0000000E+04;  0.0000000E+00;  9.9998486E+03; -4.2454358E-02;  0.0000000E+00;  1.4764932E-02;  5.2468594E+01;
  5.5999821E-01;  9.9999998E-03;  2.2000028E-01;1923; -4.6104095E-03;  0.0000000E+00;  8.1017270E-04;  1.0000562E+03;  4.0001747E-01;  4.6615517E+01;3; -7.3792224E+00;  0.0000000E+00;  1.4753252E+00;0; -2.3788171E-02;  1.0000455E+04;  0.0000000E+00;  1.3619653E-07;  1.0000000E+04;  0.0000000E+00;  9.9997969E+03; -4.3377522E-02;  0.0000000E+00;  1.9589351E-02;  7.0816811E+01;
  5.5999821E-01;  9.9999998E-03;  2.4000038E-01;1924; -4.6097776E-03;  0.0000000E+00;  1.0494653E-03;  1.0000548E+03;  4.0001747E-01;  4.5430374E+01;3; -7.5157413E+00;  0.0000000E+00;  1.7922611E+00;0; -2.1548571E-02;  1.0000465E+04;  0.0000000E+00;  6.3179777E-07;  1.0000000E+04;  0.0000000E+00;  9.9997598E+03; -4.4453714E-02;  0.0000000E+00;  2.2905143E-02;  8.3697792E+01;
  5.5999821E-01;  9.9999998E-03;  2.6000056E-01;1925; -4.7075446E-03;  0.0000000E+00;  1.4027159E-03;  1.0000555E+03;  4.0001747E-01;  4.5924183E+01;3; -7.8613639E+00;  0.0000000E+00;  2.2168584E+00;0; -2.3330973E-02;  1.0000474E+04;  0.0000000E+00;  1.5905493E-06;  1.0000000E+04;  0.0000000E+00;  9.9997637E+03; -4.5668140E-02;  0.0000000E+00;  2.2337167E-02;  8.2665710E+01;
  5.5999810E-01;  9.9999998E-03;  2.8000081E-01;1926; -5.0353650E-03;  0.0000000E+00;  1.9192816E-03;  1.0000588E+03;  4.0001747E-01;  4.8689510E+01;3; -8.6493320E+00;  0.0000000E+00;  2.8715763E+00;0; -2.9931042E-02;  1.0000484E+04;  0.0000000E+00;  2.2508714E-06;  1.0000000E+04;  0.0000000E+00;  9.9998184E+03; -4.6989840E-02;  0.0000000E+00;  1.7058797E-02;  6.4712852E+01;
  5.5999792E-01;  9.9999998E-03;  3.0000111E-01;1927; -5.5662836E-03;  0.0000000E+00;  2.7191252E-03;  1.0000626E+03;  4.0001747E-01;  5.1849884E+01;3; -9.7935019E+00;  0.0000000E+00;  4.2752118E+00;0; -3.6340345E-02;  1.0000496E+04;  0.0000000E+00;  1.1633776E-06;  1.0000000E+04;  0.0000000E+00;  9.9998828E+03; -4.8326392E-02;  0.0000000E+00;  1.1986046E-02;  4.0508587E+01;
  5.7999766E-01;  9.9999998E-03;  1.6000015E-01;1951; -5.7958099E-03;  0.0000000E+00;  4.7718955E-04;  1.0001342E+03;  4.0004665E-01;  1.1110652E+02;3; -8.7285461E+00;  0.0000000E+00;  1.0041295E+00;0; -3.1937897E-02;  1.0000447E+04;  0.0000000E+00;  4.0956691E-09;  1.0000000E+04;  0.0000000E+00;  9.9999053E+03; -4.1775398E-02;  0.0000000E+00;  9.8374998E-03;  3.2453728E+01;
  5.7999772E-01;  9.9999998E-03;  1.8000020E-01;1952; -5.7983985E-03;  0.0000000E+00;  6.4009428E-04;  1.0001312E+03;  4.0004665E-01;  1.0873624E+02;3; -8.8151922E+00;  0.0000000E+00;  1.2914478E+00;0; -2.6744023E-02;  1.0000453E+04;  0.0000000E+00; -2.8159656E-08;  1.0000000E+04;  0.0000000E+00;  9.9998418E+03; -4.2470429E-02;  0.0000000E+00;  1.5726406E-02;  5.4480190E+01;
  5.7999772E-01;  9.9999998E-03;  2.0000027E-01;1953; -5.8028894E-03;  0.0000000E+00;  8.2412123E-04;  1.0001274E+03;  4.0004665E-01;  1.0557588E+02;3; -8.9227009E+00;  0.0000000E+00;  1.5982310E+00;0; -2.0030774E-02;  1.0000459E+04;  0.0000000E+00; -2.7840718E-08;  1.0000000E+04;  0.0000000E+00;  9.9997588E+03; -4.3316286E-02;  0.0000000E+00;  2.3285512E-02;  8.3027824E+01;
  5.7999772E-01;  9.9999998E-03;  2.2000037E-01;1954; -5.8086501E-03;  0.0000000E+00;  1.0843510E-03;  1.0001236E+03;  4.0004665E-01;  1.0241552E+02;3; -9.0627232E+00;  0.0000000E+00;  1.9802108E+00;0; -1.3225978E-02;  1.0000467E+04;  0.0000000E+00;  2.6729799E-07;  1.0000000E+04;  0.0000000E+00;  9.9996738E+03; -4.4273239E-02;  0.0000000E+00;  3.1047260E-02;  1.1258416E+02;
  5.7999772E-01;  9.9999998E-03;  2.4000055E-01;1955; -5.8485162E-03;  0.0000000E+00;  1.4813353E-03;  1.0001211E+03;  4.0004665E-01;  1.0034153E+02;3; -9.2953548E+00;  0.0000000E+00;  2.4828889E+00;0; -8.9080706E-03;  1.0000475E+04;  0.0000000E+00;  1.3632060E-06;  1.0000000E+04;  0.0000000E+00;  9.9996152E+03; -4.5312092E-02;  0.0000000E+00;  3.6404021E-02;  1.3357982E+02;
  5.7999766E-01;  9.9999998E-03;  2.6000085E-01;1956; -5.9856544E-03;  0.0000000E+00;  2.1426629E-03;  1.0001214E+03;  4.0004665E-01;  1.0053905E+02;3; -9.7383919E+00;  0.0000000E+00;  3.2503583E+00;0; -1.0158431E-02;  1.0000484E+04;  0.0000000E+00;  3.4703805E-06;  1.0000000E+04;  0.0000000E+00;  9.9996123E+03; -4.6432462E-02;  0.0000000E+00;  3.6274031E-02;  1.3523790E+02;
  5.7999754E-01;  9.9999998E-03;  2.8000134E-01;1957; -6.4391559E-03;  0.0000000E+00;  3.1326381E-03;  1.0001249E+03;  4.0004665E-01;  1.0350189E+02;3; -1.0757476E+01;  0.0000000E+00;  4.5061483E+00;0; -1.7262114E-02;  1.0000494E+04;  0.0000000E+00;  4.9470509E-06;  1.0000000E+04;  0.0000000E+00;  9.9996709E+03; -4.7626771E-02;  0.0000000E+00;  3.0364657E-02;  1.1601357E+02;
  5.7999718E-01;  9.9999998E-03;  3.0000183E-01;1958; -7.3943506E-03;  0.0000000E+00;  4.2878212E-03;  1.0001301E+03;  4.0004665E-01;  1.0784740E+02;3; -1.2725042E+01;  0.0000000E+00;  6.3820891E+00;0; -2.6399087E-02;  1.0000504E+04;  0.0000000E+00;  2.7711608E-06;  1.0000000E+04;  0.0000000E+00;  9.9997646E+03; -4.8821151E-02;  0.0000000E+00;  2.2422064E-02;  8.1893791E+01;
  5.9999716E-01;  9.9999998E-03;  1.6000018E-01;1982; -6.9352561E-03;  0.0000000E+00;  5.9267838E-04;  1.0003149E+03;  4.0012074E-01;  2.6092630E+02;3; -1.0269827E+01;  0.0000000E+00;  1.2790215E+00;0; -2.3347866E-02;  1.0000403E+04;  0.0000000E+00; -1.0648098E-08;  1.0000000E+04;  0.0000000E+00;  9.9998594E+03; -3.7742365E-02;  0.0000000E+00;  1.4394500E-02;  4.7515461E+01;
  5.9999716E-01;  9.9999998E-03;  1.8000023E-01;1983; -6.9763097E-03;  0.0000000E+00;  7.7181472E-04;  1.0003103E+03;  4.0012074E-01;  2.5707462E+02;3; -1.0420917E+01;  0.0000000E+00;  1.6103823E+00;0; -1.4854064E-02;  1.0000408E+04;  0.0000000E+00; -7.9802142E-08;  1.0000000E+04;  0.0000000E+00;  9.9997607E+03; -3.8457859E-02;  0.0000000E+00;  2.3603795E-02;  8.1786537E+01;
  5.9999716E-01;  9.9999998E-03;  2.0000033E-01;1984; -7.0184562E-03;  0.0000000E+00;  1.0279652E-03;  1.0003043E+03;  4.0012074E-01;  2.5203783E+02;3; -1.0597013E+01;  0.0000000E+00;  2.0468328E+00;0; -4.0006377E-03;  1.0000415E+04;  0.0000000E+00; -8.5429122E-08;  1.0000000E+04;  0.0000000E+00;  9.9996328E+03; -3.9253328E-02;  0.0000000E+00;  3.5252690E-02;  1.2560876E+02;
  5.9999716E-01;  9.9999998E-03;  2.2000049E-01;1985; -7.0730918E-03;  0.0000000E+00;  1.4197351E-03;  1.0002981E+03;  4.0012074E-01;  2.4700102E+02;3; -1.0827201E+01;  0.0000000E+00;  2.6096599E+00;0;  7.0177801E-03;  1.0000422E+04;  0.0000000E+00;  4.9102664E-07;  1.0000000E+04;  0.0000000E+00;  9.9995039E+03; -4.0059853E-02;  0.0000000E+00;  4.7077633E-02;  1.7058597E+02;
  5.9999716E-01;  9.9999998E-03;  2.4000080E-01;1986; -7.1898191E-03;  0.0000000E+00;  2.1044696E-03;  1.0002938E+03;  4.0012076E-01;  2.4334686E+02;3; -1.1196059E+01;  0.0000000E+00;  3.4569137E+00;0;  1.4612596E-02;  1.0000428E+04;  0.0000000E+00;  2.5615668E-06;  1.0000000E+04;  0.0000000E+00;  9.9994121E+03; -4.0842053E-02;  0.0000000E+00;  5.5454649E-02;  2.0359006E+02;
  5.9999704E-01;  9.9999998E-03;  2.6000136E-01;1987; -7.4789952E-03;  0.0000000E+00;  3.3217792E-03;  1.0002930E+03;  4.0012076E-01;  2.4275430E+02;3; -1.1918766E+01;  0.0000000E+00;  4.8533497E+00;0;  1.5367419E-02;  1.0000434E+04;  0.0000000E+00;  6.4617016E-06;  1.0000000E+04;  0.0000000E+00;  9.9993887E+03; -4.1616321E-02;  0.0000000E+00;  5.6983739E-02;  2.1319576E+02;
  5.9999686E-01;  9.9999998E-03;  2.8000224E-01;1988; -8.0544082E-03;  0.0000000E+00;  5.1628500E-03;  1.0002948E+03;  4.0012074E-01;  2.4423572E+02;3; -1.3223582E+01;  0.0000000E+00;  7.1747622E+00;0;  1.0885384E-02;  1.0000439E+04;  0.0000000E+00;  9.2437740E-06;  1.0000000E+04;  0.0000000E+00;  9.9994180E+03; -4.2410467E-02;  0.0000000E+00;  5.3295851E-02;  2.0420023E+02;
  5.9999639E-01;  9.9999998E-03;  3.0000302E-01;1989; -9.2955073E-03;  0.0000000E+00;  6.9729979E-03;  1.0003000E+03;  4.0012076E-01;  2.4858119E+02;3; -1.5760416E+01;  0.0000000E+00;  9.9574461E+00;0;  1.7267913E-03;  1.0000447E+04;  0.0000000E+00;  5.4718562E-06;  1.0000000E+04;  0.0000000E+00;  9.9995166E+03; -4.3192532E-02;  0.0000000E+00;  4.4919323E-02;  1.6909636E+02;
  6.1999673E-01;  9.9999998E-03;  1.6000019E-01;2013; -8.0267852E-03;  0.0000000E+00;  6.8167155E-04;  1.0007306E+03;  4.0029037E-01;  6.0530188E+02;3; -1.1708793E+01;  0.0000000E+00;  1.5299104E+00;0; -7.6552089E-03;  1.0000295E+04;  0.0000000E+00; -3.2431373E-08;  1.0000000E+04;  0.0000000E+00;  9.9997988E+03; -2.7971195E-02;  0.0000000E+00;  2.0315986E-02;  6.6920341E+01;
  6.1999667E-01;  9.9999998E-03;  1.8000026E-01;2014; -8.1099058E-03;  0.0000000E+00;  9.0673612E-04;  1.0007237E+03;  4.0029037E-01;  5.9957379E+02;3; -1.1923961E+01;  0.0000000E+00;  1.9796112E+00;0;  5.2647442E-03;  1.0000299E+04;  0.0000000E+00; -1.5082369E-07;  1.0000000E+04;  0.0000000E+00;  9.9996553E+03; -2.8561827E-02;  0.0000000E+00;  3.3826571E-02;  1.1692920E+02;
  6.1999667E-01;  9.9999998E-03;  2.0000039E-01;2015; -8.2002059E-03;  0.0000000E+00;  1.2536935E-03;  1.0007148E+03;  4.0029040E-01;  5.9216675E+02;3; -1.2180836E+01;  0.0000000E+00;  2.5603809E+00;0;  2.1564579E-02;  1.0000305E+04;  0.0000000E+00; -1.4419430E-07;  1.0000000E+04;  0.0000000E+00;  9.9994727E+03; -2.9135643E-02;  0.0000000E+00;  5.0700221E-02;  1.8014308E+02;
  6.1999661E-01;  9.9999998E-03;  2.2000065E-01;2016; -8.3504347E-03;  0.0000000E+00;  1.8963021E-03;  1.0007057E+03;  4.0029043E-01;  5.8466095E+02;3; -1.2553708E+01;  0.0000000E+00;  3.4732089E+00;0;  3.8174145E-02;  1.0000309E+04;  0.0000000E+00;  7.9667097E-07;  1.0000000E+04;  0.0000000E+00;  9.9992871E+03; -2.9604636E-02;  0.0000000E+00;  6.7778781E-02;  2.4495230E+02;
  6.1999655E-01;  9.9999998E-03;  2.4000123E-01;2017; -8.5786460E-03;  0.0000000E+00;  3.1787017E-03;  1.0006985E+03;  4.0029040E-01;  5.7873535E+02;3; -1.3125924E+01;  0.0000000E+00;  5.0507207E+00;0;  5.0899312E-02;  1.0000311E+04;  0.0000000E+00;  4.0624859E-06;  1.0000000E+04;  0.0000000E+00;  9.9991416E+03; -2.9931435E-02;  0.0000000E+00;  8.0830745E-02;  2.9617886E+02;
  6.1999649E-01;  9.9999998E-03;  2.6000234E-01;2018; -8.8783307E-03;  0.0000000E+00;  5.5517694E-03;  1.0006942E+03;  4.0029034E-01;  5.7508124E+02;3; -1.3923291E+01;  0.0000000E+00;  7.9411044E+00;0;  5.8104645E-02;  1.0000313E+04;  0.0000000E+00;  1.0119327E-05;  1.0000000E+04;  0.0000000E+00;  9.9990537E+03; -3.0148517E-02;  0.0000000E+00;  8.8253163E-02;  3.2865900E+02;
  6.1999625E-01;  9.9999998E-03;  2.8000382E-01;2019; -9.5106456E-03;  0.0000000E+00;  8.7421080E-03;  1.0006905E+03;  4.0029040E-01;  5.7201965E+02;3; -1.5427964E+01;  0.0000000E+00;  1.1927838E+01;0;  6.3560724E-02;  1.0000313E+04;  0.0000000E+00;  1.4505737E-05;  1.0000000E+04;  0.0000000E+00;  9.9989795E+03; -3.0322019E-02;  0.0000000E+00;  9.3882740E-02;  3.5690546E+02;
  6.1999571E-01;  9.9999998E-03;  3.0000508E-01;2020; -1.0956844E-02;  0.0000000E+00;  1.1443199E-02;  1.0006929E+03;  4.0029040E-01;  5.7409363E+02;3; -1.8437979E+01;  0.0000000E+00;  1.5859104E+01;0;  5.9131309E-02;  1.0000314E+04;  0.0000000E+00;  8.8990328E-06;  1.0000000E+04;  0.0000000E+00;  9.9990244E+03; -3.0479973E-02;  0.0000000E+00;  8.9611284E-02;  3.4099564E+02;
  6.3999629E-01;  9.9999998E-03;  1.6000021E-01;2044; -9.0054311E-03;  0.0000000E+00;  7.9570839E-04;  1.0014951E+03;  4.0060097E-01;  1.2385427E+03;3; -1.2985985E+01;  0.0000000E+00;  1.8599072E+00;0;  1.4911449E-02;  1.0000127E+04;  0.0000000E+00; -5.1755197E-08;  1.0000000E+04;  0.0000000E+00;  9.9997285E+03; -1.2436692E-02;  0.0000000E+00;  2.7348140E-02;  8.9755928E+01;
  6.3999623E-01;  9.9999998E-03;  1.8000029E-01;2045; -9.1296323E-03;  0.0000000E+00;  1.0802400E-03;  1.0014852E+03;  4.0060094E-01;  1.2304445E+03;3; -1.3261816E+01;  0.0000000E+00;  2.4351044E+00;0;  3.3152200E-02;  1.0000129E+04;  0.0000000E+00; -2.0229453E-07;  1.0000000E+04;  0.0000000E+00;  9.9995313E+03; -1.2766543E-02;  0.0000000E+00;  4.5918744E-02;  1.5815915E+02;
  6.3999617E-01;  9.9999998E-03;  2.0000049E-01;2046; -9.3090683E-03;  0.0000000E+00;  1.5978449E-03;  1.0014730E+03;  4.0060091E-01;  1.2202722E+03;3; -1.3652967E+01;  0.0000000E+00;  3.2801006E+00;0;  5.5929542E-02;  1.0000131E+04;  0.0000000E+00; -1.7612309E-07;  1.0000000E+04;  0.0000000E+00;  9.9992832E+03; -1.2983000E-02;  0.0000000E+00;  6.8912543E-02;  2.4395445E+02;
  6.3999611E-01;  9.9999998E-03;  2.2000098E-01;2047; -9.5467269E-03;  0.0000000E+00;  2.7483650E-03;  1.0014601E+03;  4.0060094E-01;  1.2097050E+03;3; -1.4164518E+01;  0.0000000E+00;  4.8704004E+00;0;  7.9423115E-02;  1.0000131E+04;  0.0000000E+00;  1.0817378E-06;  1.0000000E+04;  0.0000000E+00;  9.9990293E+03; -1.2999812E-02;  0.0000000E+00;  9.2422925E-02;  3.3282199E+02;
  6.3999605E-01;  9.9999998E-03;  2.4000204E-01;2048; -9.7906068E-03;  0.0000000E+00;  5.1625092E-03;  1.0014489E+03;  4.0060094E-01;  1.2003228E+03;3; -1.4772482E+01;  0.0000000E+00;  8.0199432E+00;0;  9.9914134E-02;  1.0000129E+04;  0.0000000E+00;  5.2944943E-06;  1.0000000E+04;  0.0000000E+00;  9.9988057E+03; -1.2787572E-02;  0.0000000E+00;  1.1270171E-01;  4.1086313E+02;
  6.3999599E-01;  9.9999998E-03;  2.6000392E-01;2049; -1.0005553E-02;  0.0000000E+00;  9.3489261E-03;  1.0014379E+03;  4.0060097E-01;  1.1912369E+03;3; -1.5479812E+01;  0.0000000E+00;  1.3356272E+01;0;  1.1993383E-01;  1.0000126E+04;  0.0000000E+00;  1.2991821E-05;  1.0000000E+04;  0.0000000E+00;  9.9985879E+03; -1.2385903E-02;  0.0000000E+00;  1.3231973E-01;  4.8768314E+02;
  6.3999581E-01;  9.9999998E-03;  2.8000638E-01;2050; -1.0500487E-02;  0.0000000E+00;  1.4561591E-02;  1.0014223E+03;  4.0060097E-01;  1.1782994E+03;3; -1.6870481E+01;  0.0000000E+00;  1.9866266E+01;0;  1.4742951E-01;  1.0000121E+04;  0.0000000E+00;  1.8688830E-05;  1.0000000E+04;  0.0000000E+00;  9.9982813E+03; -1.1878165E-02;  0.0000000E+00;  1.5930767E-01;  5.9685754E+02;
  6.3999528E-01;  9.9999998E-03;  3.0000821E-01;2051; -1.1997948E-02;  0.0000000E+00;  1.8348906E-02;  1.0014172E+03;  4.0060100E-01;  1.1740527E+03;3; -2.0140533E+01;  0.0000000E+00;  2.5045805E+01;0;  1.5554518E-01;  1.0000117E+04;  0.0000000E+00;  1.1758141E-05;  1.0000000E+04;  0.0000000E+00;  9.9981826E+03; -1.1347259E-02;  0.0000000E+00;  1.6689244E-01;  6.3328937E+02;
  6.5999597E-01;  9.9999998E-03;  1.6000025E-01;2075; -9.6776914E-03;  0.0000000E+00;  9.5722033E-04;  1.0024555E+03;  4.0099084E-01;  2.0342252E+03;3; -1.3930434E+01;  0.0000000E+00;  2.2672956E+00;0;  4.2269845E-02;  9.9999170E+03;  0.0000000E+00; -5.5664888E-08;  1.0000000E+04;  0.0000000E+00;  9.9996533E+03;  7.3584118E-03;  0.0000000E+00;  3.4911431E-02;  1.1409496E+02;
  6.5999597E-01;  9.9999998E-03;  1.8000036E-01;2076; -9.8373061E-03;  0.0000000E+00;  1.3266552E-03;  1.0024427E+03;  4.0099087E-01;  2.0236581E+03;3; -1.4279105E+01;  0.0000000E+00;  3.0146184E+00;0;  6.6233434E-02;  9.9999170E+03;  0.0000000E+00; -2.0577544E-07;  1.0000000E+04;  0.0000000E+00;  9.9993984E+03;  7.3596044E-03;  0.0000000E+00;  5.8873829E-02;  2.0199789E+02;
  6.5999591E-01;  9.9999998E-03;  2.0000066E-01;2077; -1.0062412E-02;  0.0000000E+00;  2.1253226E-03;  1.0024268E+03;  4.0099084E-01;  2.0104244E+03;3; -1.4765556E+01;  0.0000000E+00;  4.3145542E+00;0;  9.5936492E-02;  9.9999150E+03;  0.0000000E+00; -1.5541471E-07;  1.0000000E+04;  0.0000000E+00;  9.9990811E+03;  7.5389035E-03;  0.0000000E+00;  8.8397585E-02;  3.1174445E+02;
  6.5999579E-01;  9.9999998E-03;  2.2000143E-01;2078; -1.0317476E-02;  0.0000000E+00;  3.9593698E-03;  1.0024100E+03;  4.0099087E-01;  1.9965983E+03;3; -1.5348573E+01;  0.0000000E+00;  6.9321394E+00;0;  1.2691596E-01;  9.9999111E+03;  0.0000000E+00;  1.1858472E-06;  1.0000000E+04;  0.0000000E+00;  9.9987510E+03;  7.9573812E-03;  0.0000000E+00;  1.1895858E-01;  4.2662381E+02;
  6.5999573E-01;  9.9999998E-03;  2.4000306E-01;2079; -1.0528294E-02;  0.0000000E+00;  7.7529848E-03;  1.0023940E+03;  4.0099087E-01;  1.9833646E+03;3; -1.5947407E+01;  0.0000000E+00;  1.2062469E+01;0;  1.5646474E-01;  9.9999063E+03;  0.0000000E+00;  5.5564892E-06;  1.0000000E+04;  0.0000000E+00;  9.9984375E+03;  8.6309901E-03;  0.0000000E+00;  1.4783375E-01;  5.3573853E+02;
  6.5999573E-01;  9.9999998E-03;  2.6000592E-01;2080; -1.0610525E-02;  0.0000000E+00;  1.4213844E-02;  1.0023741E+03;  4.0099084E-01;  1.9668719E+03;3; -1.6456964E+01;  0.0000000E+00;  2.0527933E+01;0;  1.9348706E-01;  9.9998975E+03;  0.0000000E+00;  1.3436910E-05;  1.0000000E+04;  0.0000000E+00;  9.9980488E+03;  9.5298849E-03;  0.0000000E+00;  1.8395717E-01;  6.7063324E+02;
  6.5999568E-01;  9.9999998E-03;  2.8000951E-01;2081; -1.0917334E-02;  0.0000000E+00;  2.1836130E-02;  1.0023427E+03;  4.0099090E-01;  1.9407998E+03;3; -1.7557575E+01;  0.0000000E+00;  3.0001812E+01;0;  2.5087070E-01;  9.9998896E+03;  0.0000000E+00;  1.9264246E-05;  1.0000000E+04;  0.0000000E+00;  9.9974277E+03;  1.0581913E-02;  0.0000000E+00;  2.4028878E-01;  8.8855304E+02;
  6.5999526E-01;  9.9999998E-03;  3.0001196E-01;2082; -1.2158190E-02;  0.0000000E+00;  2.6696758E-02;  1.0023277E+03;  4.0099090E-01;  1.9283562E+03;3; -2.0482294E+01;  0.0000000E+00;  3.6250660E+01;0;  2.7528131E-01;  9.9998809E+03;  0.0000000E+00;  1.2353793E-05;  1.0000000E+04;  0.0000000E+00;  9.9971377E+03;  1.1669244E-02;  0.0000000E+00;  2.6361206E-01;  9.9531732E+02;
  6.7999607E-01;  9.9999998E-03;  1.6000026E-01;2106; -9.6348887E-03;  0.0000000E+00;  1.0933398E-03;  1.0032176E+03;  4.0130150E-01;  2.6655476E+03;3; -1.4152363E+01;  0.0000000E+00;  2.6567662E+00;0;  7.0519015E-02;  9.9996992E+03;  0.0000000E+00; -4.1384375E-08;  1.0000000E+04;  0.0000000E+00;  9.9995801E+03;  2.8276779E-02;  0.0000000E+00;  4.2242233E-02;  1.3749391E+02;
  6.7999601E-01;  9.9999998E-03;  1.8000041E-01;2107; -9.7834049E-03;  0.0000000E+00;  1.5398546E-03;  1.0032019E+03;  4.0130147E-01;  2.6526104E+03;3; -1.4503523E+01;  0.0000000E+00;  3.5660233E+00;0;  9.9970452E-02;  9.9996982E+03;  0.0000000E+00; -1.6122878E-07;  1.0000000E+04;  0.0000000E+00;  9.9992705E+03;  2.8579948E-02;  0.0000000E+00;  7.1390502E-02;  2.4409056E+02;
  6.7999601E-01;  9.9999998E-03;  2.0000081E-01;2108; -9.9853314E-03;  0.0000000E+00;  2.5980955E-03;  1.0031825E+03;  4.0130147E-01;  2.6365129E+03;3; -1.4984602E+01;  0.0000000E+00;  5.2811656E+00;0;  1.3623677E-01;  9.9996943E+03;  0.0000000E+00; -1.0454290E-07;  1.0000000E+04;  0.0000000E+00;  9.9988877E+03;  2.9074972E-02;  0.0000000E+00;  1.0716181E-01;  3.7671045E+02;
  6.7999595E-01;  9.9999998E-03;  2.2000183E-01;2109; -1.0199253E-02;  0.0000000E+00;  5.0880495E-03;  1.0031622E+03;  4.0130150E-01;  2.6196255E+03;3; -1.5522500E+01;  0.0000000E+00;  8.8955965E+00;0;  1.7417748E-01;  9.9996875E+03;  0.0000000E+00;  1.0350367E-06;  1.0000000E+04;  0.0000000E+00;  9.9984863E+03;  2.9786602E-02;  0.0000000E+00;  1.4439088E-01;  5.1614777E+02;
  6.7999589E-01;  9.9999998E-03;  2.4000399E-01;2110; -1.0310950E-02;  0.0000000E+00;  1.0138589E-02;  1.0031419E+03;  4.0130150E-01;  2.6028369E+03;3; -1.5938258E+01;  0.0000000E+00;  1.5847268E+01;0;  2.1180074E-01;  9.9996807E+03;  0.0000000E+00;  4.6949940E-06;  1.0000000E+04;  0.0000000E+00;  9.9980898E+03;  3.0718932E-02;  0.0000000E+00;  1.8108180E-01;  6.5334412E+02;
  6.7999595E-01;  9.9999998E-03;  2.6000768E-01;2111; -1.0243398E-02;  0.0000000E+00;  1.8532803E-02;  1.0031149E+03;  4.0130150E-01;  2.5804192E+03;3; -1.6157797E+01;  0.0000000E+00;  2.6980379E+01;0;  2.6267612E-01;  9.9996719E+03;  0.0000000E+00;  1.1218315E-05;  1.0000000E+04;  0.0000000E+00;  9.9975596E+03;  3.1864773E-02;  0.0000000E+00;  2.3081136E-01;  8.3589990E+02;
  6.7999595E-01;  9.9999998E-03;  2.8001225E-01;2112; -1.0357628E-02;  0.0000000E+00;  2.8219018E-02;  1.0030709E+03;  4.0130159E-01;  2.5439778E+03;3; -1.6897892E+01;  0.0000000E+00;  3.9024208E+01;0;  3.4362280E-01;  9.9996602E+03;  0.0000000E+00;  1.6011520E-05;  1.0000000E+04;  0.0000000E+00;  9.9966914E+03;  3.3184394E-02;  0.0000000E+00;  3.1043842E-01;  1.1395740E+03;
  6.7999566E-01;  9.9999998E-03;  3.0001521E-01;2113; -1.1153542E-02;  0.0000000E+00;  3.3970445E-02;  1.0030490E+03;  4.0130153E-01;  2.5259053E+03;3; -1.8959908E+01;  0.0000000E+00;  4.6122971E+01;0;  3.7903106E-01;  9.9996484E+03;  0.0000000E+00;  1.0442605E-05;  1.0000000E+04;  0.0000000E+00;  9.9962676E+03;  3.4547016E-02;  0.0000000E+00;  3.4448406E-01;  1.2964387E+03;
  6.9999671E-01;  9.9999998E-03;  1.6000029E-01;2137; -8.2843881E-03;  0.0000000E+00;  1.2202767E-03;  1.0036295E+03;  4.0147111E-01;  3.0067905E+03;3; -1.2620139E+01;  0.0000000E+00;  2.9958465E+00;0;  9.4847575E-02;  9.9995205E+03;  0.0000000E+00; -1.9807793E-08;  1.0000000E+04;  0.0000000E+00;  9.9995176E+03;  4.6214528E-02;  0.0000000E+00;  4.8633046E-02;  1.5776727E+02;
  6.9999671E-01;  9.9999998E-03;  1.8000045E-01;2138; -8.3978297E-03;  0.0000000E+00;  1.7306283E-03;  1.0036115E+03;  4.0147114E-01;  2.9917798E+03;3; -1.2898726E+01;  0.0000000E+00;  4.0397153E+00;0;  1.2900126E-01;  9.9995166E+03;  0.0000000E+00; -9.3970115E-08;  1.0000000E+04;  0.0000000E+00;  9.9991611E+03;  4.6715997E-02;  0.0000000E+00;  8.2285255E-02;  2.8057498E+02;
  6.9999665E-01;  9.9999998E-03;  2.0000093E-01;2139; -8.5321097E-03;  0.0000000E+00;  2.9843668E-03;  1.0035891E+03;  4.0147111E-01;  2.9733127E+03;3; -1.3234963E+01;  0.0000000E+00;  6.0920057E+00;0;  1.7084765E-01;  9.9995127E+03;  0.0000000E+00; -5.7692876E-08;  1.0000000E+04;  0.0000000E+00;  9.9987188E+03;  4.7379114E-02;  0.0000000E+00;  1.2346854E-01;  4.3300589E+02;
  6.9999659E-01;  9.9999998E-03;  2.2000213E-01;2140; -8.6583374E-03;  0.0000000E+00;  5.9086313E-03;  1.0035656E+03;  4.0147114E-01;  2.9538579E+03;3; -1.3583474E+01;  0.0000000E+00;  1.0376160E+01;0;  2.1445383E-01;  9.9995049E+03;  0.0000000E+00;  7.1092609E-07;  1.0000000E+04;  0.0000000E+00;  9.9982578E+03;  4.8196822E-02;  0.0000000E+00;  1.6625701E-01;  5.9300745E+02;
  6.9999659E-01;  9.9999998E-03;  2.4000461E-01;2141; -8.7228622E-03;  0.0000000E+00;  1.1772937E-02;  1.0035425E+03;  4.0147117E-01;  2.9346008E+03;3; -1.3869235E+01;  0.0000000E+00;  1.8516693E+01;0;  2.5762117E-01;  9.9994980E+03;  0.0000000E+00;  3.1916900E-06;  1.0000000E+04;  0.0000000E+00;  9.9978037E+03;  4.9165998E-02;  0.0000000E+00;  2.0845516E-01;  7.5033087E+02;
  6.9999665E-01;  9.9999998E-03;  2.6000887E-01;2142; -8.6804936E-03;  0.0000000E+00;  2.1441577E-02;  1.0035115E+03;  4.0147117E-01;  2.9090232E+03;3; -1.4034056E+01;  0.0000000E+00;  3.1381058E+01;0;  3.1600043E-01;  9.9994893E+03;  0.0000000E+00;  7.6033057E-06;  1.0000000E+04;  0.0000000E+00;  9.9971963E+03;  5.0300132E-02;  0.0000000E+00;  2.6570031E-01;  9.5950623E+02;
  6.9999665E-01;  9.9999998E-03;  2.8001407E-01;2143; -8.6736893E-03;  0.0000000E+00;  3.2427885E-02;  1.0034616E+03;  4.0147120E-01;  2.8676450E+03;3; -1.4385925E+01;  0.0000000E+00;  4.4947159E+01;0;  4.0764302E-01;  9.9994785E+03;  0.0000000E+00;  1.0806957E-05;  1.0000000E+04;  0.0000000E+00;  9.9962080E+03;  5.1589016E-02;  0.0000000E+00;  3.5605401E-01;  1.3043616E+03;
  6.9999659E-01;  9.9999998E-03;  3.0001736E-01;2144; -8.8720014E-03;  0.0000000E+00;  3.8752981E-02;  1.0034383E+03;  4.0147123E-01;  2.8482891E+03;3; -1.5165557E+01;  0.0000000E+00;  5.2593204E+01;0;  4.4442454E-01;  9.9994678E+03;  0.0000000E+00;  7.1822005E-06;  1.0000000E+04;  0.0000000E+00;  9.9957539E+03;  5.2915372E-02;  0.0000000E+00;  3.9150918E-01;  1.4740457E+03;
  7.1999770E-01;  9.9999998E-03;  1.6000032E-01;2168; -5.8441730E-03;  0.0000000E+00;  1.3426086E-03;  1.0038068E+03;  4.0154523E-01;  3.1534539E+03;3; -8.9911795E+00;  0.0000000E+00;  3.2992644E+00;0;  1.1133744E-01;  9.9994111E+03;  0.0000000E+00; -4.9386664E-09;  1.0000000E+04;  0.0000000E+00;  9.9994688E+03;  5.7700593E-02;  0.0000000E+00;  5.3636841E-02;  1.7359238E+02;
  7.1999764E-01;  9.9999998E-03;  1.8000050E-01;2169; -5.9333076E-03;  0.0000000E+00;  1.8981989E-03;  1.0037868E+03;  4.0154523E-01;  3.1369622E+03;3; -9.2108021E+00;  0.0000000E+00;  4.4402771E+00;0;  1.4910421E-01;  9.9994063E+03;  0.0000000E+00; -4.0708610E-08;  1.0000000E+04;  0.0000000E+00;  9.9990742E+03;  5.8288164E-02;  0.0000000E+00;  9.0816043E-02;  3.0909042E+02;
  7.1999764E-01;  9.9999998E-03;  2.0000102E-01;2170; -6.0369107E-03;  0.0000000E+00;  3.2532976E-03;  1.0037621E+03;  4.0154529E-01;  3.1165205E+03;3; -9.4708700E+00;  0.0000000E+00;  6.6654358E+00;0;  1.9523461E-01;  9.9994014E+03;  0.0000000E+00; -2.7001418E-08;  1.0000000E+04;  0.0000000E+00;  9.9985869E+03;  5.8989331E-02;  0.0000000E+00;  1.3624528E-01;  4.7708749E+02;
  7.1999764E-01;  9.9999998E-03;  2.2000229E-01;2171; -6.1397469E-03;  0.0000000E+00;  6.3983453E-03;  1.0037365E+03;  4.0154529E-01;  3.0952888E+03;3; -9.7498655E+00;  0.0000000E+00;  1.1276802E+01;0;  2.4299923E-01;  9.9993945E+03;  0.0000000E+00;  3.7276536E-07;  1.0000000E+04;  0.0000000E+00;  9.9980811E+03;  5.9776191E-02;  0.0000000E+00;  1.8322304E-01;  6.5273926E+02;
  7.1999758E-01;  9.9999998E-03;  2.4000496E-01;2172; -6.2187514E-03;  0.0000000E+00;  1.2691215E-02;  1.0037115E+03;  4.0154529E-01;  3.0745508E+03;3; -1.0016649E+01;  0.0000000E+00;  1.9999689E+01;0;  2.8943196E-01;  9.9993887E+03;  0.0000000E+00;  1.7300850E-06;  1.0000000E+04;  0.0000000E+00;  9.9975898E+03;  6.0639884E-02;  0.0000000E+00;  2.2879209E-01;  8.2295343E+02;
  7.1999758E-01;  9.9999998E-03;  2.6000953E-01;2173; -6.2449928E-03;  0.0000000E+00;  2.3059031E-02;  1.0036792E+03;  4.0154532E-01;  3.0477888E+03;3; -1.0234975E+01;  0.0000000E+00;  3.3763115E+01;0;  3.5034573E-01;  9.9993809E+03;  0.0000000E+00;  4.1655935E-06;  1.0000000E+04;  0.0000000E+00;  9.9969521E+03;  6.1599482E-02;  0.0000000E+00;  2.8874624E-01;  1.0427443E+03;
  7.1999758E-01;  9.9999998E-03;  2.8001508E-01;2174; -6.2333238E-03;  0.0000000E+00;  3.4805544E-02;  1.0036279E+03;  4.0154535E-01;  3.0053254E+03;3; -1.0445771E+01;  0.0000000E+00;  4.8213779E+01;0;  4.4409496E-01;  9.9993730E+03;  0.0000000E+00;  5.9160734E-06;  1.0000000E+04;  0.0000000E+00;  9.9959346E+03;  6.2657431E-02;  0.0000000E+00;  3.8143754E-01;  1.3984753E+03;
  7.1999758E-01;  9.9999998E-03;  3.0001864E-01;2175; -6.1957040E-03;  0.0000000E+00;  4.1551087E-02;  1.0036058E+03;  4.0154538E-01;  2.9869575E+03;3; -1.0638776E+01;  0.0000000E+00;  5.6363281E+01;0;  4.7769672E-01;  9.9993633E+03;  0.0000000E+00;  3.7386465E-06;  1.0000000E+04;  0.0000000E+00;  9.9955049E+03;  6.3735560E-02;  0.0000000E+00;  4.1396114E-01;  1.5610692E+03;
  7.3999858E-01;  9.9999998E-03;  1.6000035E-01;2199; -3.5526452E-03;  0.0000000E+00;  1.4342312E-03;  1.0038763E+03;  4.0157440E-01;  3.2110063E+03;3; -5.4956403E+00;  0.0000000E+00;  3.5250556E+00;0;  1.1869521E-01;  9.9993779E+03;  0.0000000E+00;  2.0109558E-09;  1.0000000E+04;  0.0000000E+00;  9.9994336E+03;  6.1558202E-02;  0.0000000E+00;  5.7137016E-02;  1.8466873E+02;
  7.3999858E-01;  9.9999998E-03;  1.8000053E-01;2200; -3.6158015E-03;  0.0000000E+00;  2.0170428E-03;  1.0038550E+03;  4.0157437E-01;  3.1933303E+03;3; -5.6509223E+00;  0.0000000E+00;  4.7257528E+00;0;  1.5894338E-01;  9.9993730E+03;  0.0000000E+00; -1.1411062E-08;  1.0000000E+04;  0.0000000E+00;  9.9990127E+03;  6.2154237E-02;  0.0000000E+00;  9.6789151E-02;  3.2906091E+02;
  7.3999858E-01;  9.9999998E-03;  2.0000106E-01;2201; -3.6891466E-03;  0.0000000E+00;  3.4233974E-03;  1.0038289E+03;  4.0157443E-01;  3.1717043E+03;3; -5.8325849E+00;  0.0000000E+00;  7.0374827E+00;0;  2.0804718E-01;  9.9993691E+03;  0.0000000E+00; -1.1292746E-08;  1.0000000E+04;  0.0000000E+00;  9.9984951E+03;  6.2822245E-02;  0.0000000E+00;  1.4522494E-01;  5.0808624E+02;
  7.3999858E-01;  9.9999998E-03;  2.2000238E-01;2202; -3.7628212E-03;  0.0000000E+00;  6.6777058E-03;  1.0038016E+03;  4.0157443E-01;  3.1490911E+03;3; -6.0254693E+00;  0.0000000E+00;  1.1799895E+01;0;  2.5863335E-01;  9.9993643E+03;  0.0000000E+00;  1.4282188E-07;  1.0000000E+04;  0.0000000E+00;  9.9979561E+03;  6.3521929E-02;  0.0000000E+00;  1.9511142E-01;  6.9466083E+02;
  7.3999852E-01;  9.9999998E-03;  2.4000515E-01;2203; -3.8208493E-03;  0.0000000E+00;  1.3183626E-02;  1.0037756E+03;  4.0157446E-01;  3.1275637E+03;3; -6.2076716E+00;  0.0000000E+00;  2.0786697E+01;0;  3.0689868E-01;  9.9993594E+03;  0.0000000E+00;  7.0826576E-07;  1.0000000E+04;  0.0000000E+00;  9.9974434E+03;  6.4233549E-02;  0.0000000E+00;  2.4266514E-01;  8.7275409E+02;
  7.3999852E-01;  9.9999998E-03;  2.6000988E-01;2204; -3.8474349E-03;  0.0000000E+00;  2.3906443E-02;  1.0037430E+03;  4.0157452E-01;  3.1005068E+03;3; -6.3595085E+00;  0.0000000E+00;  3.4968143E+01;0;  3.6806116E-01;  9.9993525E+03;  0.0000000E+00;  1.7512184E-06;  1.0000000E+04;  0.0000000E+00;  9.9967979E+03;  6.4967029E-02;  0.0000000E+00;  3.0309412E-01;  1.0953956E+03;
  7.3999852E-01;  9.9999998E-03;  2.8001565E-01;2205; -3.8354222E-03;  0.0000000E+00;  3.6074895E-02;  1.0036921E+03;  4.0157449E-01;  3.0583411E+03;3; -6.4725418E+00;  0.0000000E+00;  4.9907646E+01;0;  4.6045008E-01;  9.9993477E+03;  0.0000000E+00;  2.4505948E-06;  1.0000000E+04;  0.0000000E+00;  9.9957891E+03;  6.5730244E-02;  0.0000000E+00;  3.9471984E-01;  1.4491451E+03;
  7.3999852E-01;  9.9999998E-03;  3.0001932E-01;2206; -3.7921078E-03;  0.0000000E+00;  4.3105010E-02;  1.0036722E+03;  4.0157449E-01;  3.0418501E+03;3; -6.5535097E+00;  0.0000000E+00;  5.8448364E+01;0;  4.8987931E-01;  9.9993418E+03;  0.0000000E+00;  1.2780686E-06;  1.0000000E+04;  0.0000000E+00;  9.9953955E+03;  6.6496059E-02;  0.0000000E+00;  4.2338324E-01;  1.5990570E+03;
  7.5999928E-01;  9.9999998E-03;  1.6000037E-01;2230; -1.7868823E-03;  0.0000000E+00;  1.4955822E-03;  1.0039043E+03;  4.0158540E-01;  3.2340513E+03;3; -2.7927895E+00;  0.0000000E+00;  3.6761513E+00;0;  1.1846051E-01;  9.9994072E+03;  0.0000000E+00;  2.1509940E-09;  1.0000000E+04;  0.0000000E+00;  9.9994121E+03;  5.9185103E-02;  0.0000000E+00;  5.9275407E-02;  1.9145319E+02;
  7.5999928E-01;  9.9999998E-03;  1.8000054E-01;2231; -1.8252264E-03;  0.0000000E+00;  2.0931477E-03;  1.0038823E+03;  4.0158540E-01;  3.2157837E+03;3; -2.8869267E+00;  0.0000000E+00;  4.9097648E+00;0;  1.6018936E-01;  9.9994033E+03;  0.0000000E+00; -8.9345392E-10;  1.0000000E+04;  0.0000000E+00;  9.9989756E+03;  5.9749350E-02;  0.0000000E+00;  1.0044000E-01;  3.4126035E+02;
  7.5999928E-01;  9.9999998E-03;  2.0000109E-01;2232; -1.8688679E-03;  0.0000000E+00;  3.5231786E-03;  1.0038550E+03;  4.0158549E-01;  3.1931714E+03;3; -2.9940243E+00;  0.0000000E+00;  7.2611046E+00;0;  2.1110743E-01;  9.9993994E+03;  0.0000000E+00; -3.6219778E-09;  1.0000000E+04;  0.0000000E+00;  9.9984375E+03;  6.0359735E-02;  0.0000000E+00;  1.5074770E-01;  5.2711768E+02;
  7.5999928E-01;  9.9999998E-03;  2.2000244E-01;2233; -1.9124125E-03;  0.0000000E+00;  6.8270178E-03;  1.0038268E+03;  4.0158549E-01;  3.1698679E+03;3; -3.1047707E+00;  0.0000000E+00;  1.2086849E+01;0;  2.6341039E-01;  9.9993955E+03;  0.0000000E+00;  3.3057965E-08;  1.0000000E+04;  0.0000000E+00;  9.9978789E+03;  6.0969293E-02;  0.0000000E+00;  2.0244110E-01;  7.2045276E+02;
  7.5999928E-01;  9.9999998E-03;  2.4000525E-01;2234; -1.9465878E-03;  0.0000000E+00;  1.3431175E-02;  1.0038002E+03;  4.0158546E-01;  3.1478479E+03;3; -3.2055790E+00;  0.0000000E+00;  2.1182362E+01;0;  3.1264329E-01;  9.9993906E+03;  0.0000000E+00;  1.8875517E-07;  1.0000000E+04;  0.0000000E+00;  9.9973535E+03;  6.1544586E-02;  0.0000000E+00;  2.5109869E-01;  9.0299060E+02;
  7.5999928E-01;  9.9999998E-03;  2.6001006E-01;2235; -1.9614620E-03;  0.0000000E+00;  2.4323391E-02;  1.0037677E+03;  4.0158552E-01;  3.1208911E+03;3; -3.2832408E+00;  0.0000000E+00;  3.5545399E+01;0;  3.7336934E-01;  9.9993867E+03;  0.0000000E+00;  4.8402023E-07;  1.0000000E+04;  0.0000000E+00;  9.9967090E+03;  6.2079336E-02;  0.0000000E+00;  3.1129000E-01;  1.1255499E+03;
  7.5999928E-01;  9.9999998E-03;  2.8001595E-01;2236; -1.9521355E-03;  0.0000000E+00;  3.6710430E-02;  1.0037177E+03;  4.0158555E-01;  3.0794187E+03;3; -3.3318229E+00;  0.0000000E+00;  5.0739559E+01;0;  4.6378338E-01;  9.9993828E+03;  0.0000000E+00;  6.5599357E-07;  1.0000000E+04;  0.0000000E+00;  9.9957158E+03;  6.2583290E-02;  0.0000000E+00;  4.0120009E-01;  1.4741271E+03;
  7.5999928E-01;  9.9999998E-03;  3.0001968E-01;2237; -1.9220996E-03;  0.0000000E+00;  4.3904841E-02;  1.0036995E+03;  4.0158552E-01;  3.0644097E+03;3; -3.3548741E+00;  0.0000000E+00;  5.9527252E+01;0;  4.8970798E-01;  9.9993789E+03;  0.0000000E+00;  1.6937643E-07;  1.0000000E+04;  0.0000000E+00;  9.9953564E+03;  6.3070558E-02;  0.0000000E+00;  4.2663741E-01;  1.6126333E+03;
  7.7999979E-01;  9.9999998E-03;  1.6000037E-01;2261; -5.0778064E-04;  0.0000000E+00;  1.5291842E-03;  1.0039171E+03;  4.0158951E-01;  3.2443982E+03;3; -8.2375431E-01;  0.0000000E+00;  3.7588234E+00;0;  1.1369524E-01;  9.9994697E+03;  0.0000000E+00;  8.7221214E-10;  1.0000000E+04;  0.0000000E+00;  9.9994023E+03;  5.3390846E-02;  0.0000000E+00;  6.0304396E-02;  1.9469914E+02;
  7.7999979E-01;  9.9999998E-03;  1.8000056E-01;2262; -5.2401121E-04;  0.0000000E+00;  2.1329024E-03;  1.0038947E+03;  4.0158945E-01;  3.2258357E+03;3; -8.6356926E-01;  0.0000000E+00;  5.0062280E+00;0;  1.5610209E-01;  9.9994648E+03;  0.0000000E+00;  8.3099028E-10;  1.0000000E+04;  0.0000000E+00;  9.9989590E+03;  5.3909030E-02;  0.0000000E+00;  1.0219306E-01;  3.4703314E+02;
  7.7999979E-01;  9.9999998E-03;  2.0000111E-01;2263; -5.4134481E-04;  0.0000000E+00;  3.5704519E-03;  1.0038669E+03;  4.0158954E-01;  3.2028298E+03;3; -9.0571535E-01;  0.0000000E+00;  7.3691812E+00;0;  2.0788375E-01;  9.9994619E+03;  0.0000000E+00;  1.9916041E-11;  1.0000000E+04;  0.0000000E+00;  9.9984102E+03;  5.4461297E-02;  0.0000000E+00;  1.5342245E-01;  5.3616461E+02;
  7.7999979E-01;  9.9999998E-03;  2.2000246E-01;2264; -5.5770430E-04;  0.0000000E+00;  6.8897502E-03;  1.0038383E+03;  4.0158951E-01;  3.1791331E+03;3; -9.4570136E-01;  0.0000000E+00;  1.2210383E+01;0;  2.6101631E-01;  9.9994580E+03;  0.0000000E+00;  1.4004680E-09;  1.0000000E+04;  0.0000000E+00;  9.9978418E+03;  5.4999184E-02;  0.0000000E+00;  2.0601712E-01;  7.3277600E+02;
  7.7999979E-01;  9.9999998E-03;  2.4000528E-01;2265; -5.6984311E-04;  0.0000000E+00;  1.3527229E-02;  1.0038114E+03;  4.0158954E-01;  3.1568184E+03;3; -9.7815710E-01;  0.0000000E+00;  2.1334646E+01;0;  3.1065983E-01;  9.9994551E+03;  0.0000000E+00;  1.3433082E-08;  1.0000000E+04;  0.0000000E+00;  9.9973096E+03;  5.5478748E-02;  0.0000000E+00;  2.5518107E-01;  9.1729578E+02;
  7.7999979E-01;  9.9999998E-03;  2.6001015E-01;2266; -5.7385286E-04;  0.0000000E+00;  2.4483144E-02;  1.0037791E+03;  4.0158957E-01;  3.1300608E+03;3; -9.9759579E-01;  0.0000000E+00;  3.5758453E+01;0;  3.7092644E-01;  9.9994512E+03;  0.0000000E+00;  3.5908339E-08;  1.0000000E+04;  0.0000000E+00;  9.9966680E+03;  5.5879023E-02;  0.0000000E+00;  3.1504741E-01;  1.1389875E+03;
  7.7999979E-01;  9.9999998E-03;  2.8001606E-01;2267; -5.6749611E-04;  0.0000000E+00;  3.6964044E-02;  1.0037297E+03;  4.0158963E-01;  3.0891836E+03;3; -1.0013604E+00;  0.0000000E+00;  5.1064789E+01;0;  4.5990810E-01;  9.9994502E+03;  0.0000000E+00;  2.9866051E-08;  1.0000000E+04;  0.0000000E+00;  9.9956865E+03;  5.6206077E-02;  0.0000000E+00;  4.0370202E-01;  1.4832484E+03;
  7.7999979E-01;  9.9999998E-03;  3.0001983E-01;2268; -5.5137137E-04;  0.0000000E+00;  4.4241257E-02;  1.0037127E+03;  4.0158960E-01;  3.0750642E+03;3; -9.9036604E-01;  0.0000000E+00;  5.9991631E+01;0;  4.8376179E-01;  9.9994473E+03;  0.0000000E+00; -8.8392504E-08;  1.0000000E+04;  0.0000000E+00;  9.9953477E+03;  5.6492537E-02;  0.0000000E+00;  4.2726925E-01;  1.6147327E+03;
  8.0000019E-01;  9.9999998E-03;  1.6000037E-01;2292;  4.7986538E-04;  0.0000000E+00;  1.5381433E-03;  1.0039212E+03;  4.0158987E-01;  3.2474602E+03;3;  7.0623481E-01;  0.0000000E+00;  3.7808230E+00;0;  1.0733930E-01;  9.9995352E+03;  0.0000000E+00; -3.0332029E-10;  1.0000000E+04;  0.0000000E+00;  9.9994014E+03;  4.6885915E-02;  0.0000000E+00;  6.0453385E-02;  1.9506438E+02;
  8.0000019E-01;  9.9999998E-03;  1.8000056E-01;2293;  4.8304329E-04;  0.0000000E+00;  2.1416228E-03;  1.0038987E+03;  4.0158981E-01;  3.2288992E+03;3;  7.1410072E-01;  0.0000000E+00;  5.0277152E+00;0;  1.4980197E-01;  9.9995322E+03;  0.0000000E+00; -5.9385180E-10;  1.0000000E+04;  0.0000000E+00;  9.9989551E+03;  4.7359250E-02;  0.0000000E+00;  1.0244271E-01;  3.4760095E+02;
  8.0000019E-01;  9.9999998E-03;  2.0000111E-01;2294;  4.8822211E-04;  0.0000000E+00;  3.5760859E-03;  1.0038710E+03;  4.0158987E-01;  3.2058958E+03;3;  7.2747457E-01;  0.0000000E+00;  7.3843818E+00;0;  2.0168787E-01;  9.9995283E+03;  0.0000000E+00; -4.7743787E-10;  1.0000000E+04;  0.0000000E+00;  9.9984063E+03;  4.7861576E-02;  0.0000000E+00;  1.5382630E-01;  5.3708789E+02;
  8.0000019E-01;  9.9999998E-03;  2.2000246E-01;2295;  4.9483776E-04;  0.0000000E+00;  6.8886853E-03;  1.0038422E+03;  4.0158987E-01;  3.1821023E+03;3;  7.4666852E-01;  0.0000000E+00;  1.2212686E+01;0;  2.5493032E-01;  9.9995254E+03;  0.0000000E+00;  1.6682468E-09;  1.0000000E+04;  0.0000000E+00;  9.9978359E+03;  4.8346408E-02;  0.0000000E+00;  2.0658390E-01;  7.3408734E+02;
  8.0000019E-01;  9.9999998E-03;  2.4000528E-01;2296;  5.0148030E-04;  0.0000000E+00;  1.3516731E-02;  1.0038153E+03;  4.0158993E-01;  3.1597898E+03;3;  7.7053851E-01;  0.0000000E+00;  2.1319342E+01;0;  3.0456394E-01;  9.9995225E+03;  0.0000000E+00;  6.1684320E-09;  1.0000000E+04;  0.0000000E+00;  9.9973027E+03;  4.8767056E-02;  0.0000000E+00;  2.5579688E-01;  9.1862000E+02;
  8.0000019E-01;  9.9999998E-03;  2.6001012E-01;2297;  5.0701160E-04;  0.0000000E+00;  2.4464628E-02;  1.0037832E+03;  4.0158990E-01;  3.1332319E+03;3;  7.9799211E-01;  0.0000000E+00;  3.5731350E+01;0;  3.6449242E-01;  9.9995195E+03;  0.0000000E+00;  1.0175779E-08;  1.0000000E+04;  0.0000000E+00;  9.9966631E+03;  4.9094513E-02;  0.0000000E+00;  3.1539789E-01;  1.1391389E+03;
  8.0000019E-01;  9.9999998E-03;  2.8001603E-01;2298;  5.1101285E-04;  0.0000000E+00;  3.6950510E-02;  1.0037342E+03;  4.0158996E-01;  3.0926545E+03;3;  8.2820302E-01;  0.0000000E+00;  5.1057724E+01;0;  4.5275742E-01;  9.9995186E+03;  0.0000000E+00;  7.8757374E-09;  1.0000000E+04;  0.0000000E+00;  9.9956904E+03;  4.9328733E-02;  0.0000000E+00;  4.0342867E-01;  1.4805416E+03;
  8.0000019E-01;  9.9999998E-03;  3.0001983E-01;2299;  5.1458454E-04;  0.0000000E+00;  4.4247098E-02;  1.0037176E+03;  4.0158993E-01;  3.0788328E+03;3;  8.6158806E-01;  0.0000000E+00;  6.0035595E+01;0;  4.7592506E-01;  9.9995176E+03;  0.0000000E+00; -1.7641963E-09;  1.0000000E+04;  0.0000000E+00;  9.9953574E+03;  4.9500339E-02;  0.0000000E+00;  4.2642471E-01;  1.6092340E+03;
  8.2000053E-01;  9.9999998E-03;  1.6000037E-01;2323;  1.3803735E-03;  0.0000000E+00;  1.5252614E-03;  1.0039218E+03;  4.0158883E-01;  3.2476545E+03;3;  2.1042466E+00;  0.0000000E+00;  3.7490978E+00;0;  1.0110356E-01;  9.9995918E+03;  0.0000000E+00; -8.3517382E-10;  1.0000000E+04;  0.0000000E+00;  9.9994072E+03;  4.1238695E-02;  0.0000000E+00;  5.9864864E-02;  1.9294225E+02;
  8.2000053E-01;  9.9999998E-03;  1.8000056E-01;2324;  1.4008613E-03;  0.0000000E+00;  2.1232630E-03;  1.0038996E+03;  4.0158883E-01;  3.2291946E+03;3;  2.1547232E+00;  0.0000000E+00;  4.9835491E+00;0;  1.4311850E-01;  9.9995898E+03;  0.0000000E+00; -3.0928908E-09;  1.0000000E+04;  0.0000000E+00;  9.9989658E+03;  4.1678637E-02;  0.0000000E+00;  1.0143986E-01;  3.4372620E+02;
  8.2000053E-01;  9.9999998E-03;  2.0000109E-01;2325;  1.4256460E-03;  0.0000000E+00;  3.5473944E-03;  1.0038721E+03;  4.0158889E-01;  3.2063911E+03;3;  2.2169499E+00;  0.0000000E+00;  7.3207803E+00;0;  1.9448410E-01;  9.9995859E+03;  0.0000000E+00; -3.2034646E-09;  1.0000000E+04;  0.0000000E+00;  9.9984199E+03;  4.2144347E-02;  0.0000000E+00;  1.5233976E-01;  5.3110358E+02;
  8.2000059E-01;  9.9999998E-03;  2.2000244E-01;2326;  1.4516995E-03;  0.0000000E+00;  6.8403473E-03;  1.0038436E+03;  4.0158886E-01;  3.1828967E+03;3;  2.2872834E+00;  0.0000000E+00;  1.2118505E+01;0;  2.4723566E-01;  9.9995830E+03;  0.0000000E+00;  1.6702625E-08;  1.0000000E+04;  0.0000000E+00;  9.9978555E+03;  4.2592037E-02;  0.0000000E+00;  2.0464362E-01;  7.2604718E+02;
  8.2000059E-01;  9.9999998E-03;  2.4000525E-01;2327;  1.4741233E-03;  0.0000000E+00;  1.3434241E-02;  1.0038170E+03;  4.0158892E-01;  3.1607844E+03;3;  2.3599198E+00;  0.0000000E+00;  2.1179745E+01;0;  2.9653263E-01;  9.9995811E+03;  0.0000000E+00;  8.4341877E-08;  1.0000000E+04;  0.0000000E+00;  9.9973271E+03;  4.2978369E-02;  0.0000000E+00;  2.5355425E-01;  9.0905951E+02;
  8.2000059E-01;  9.9999998E-03;  2.6001006E-01;2328;  1.4880638E-03;  0.0000000E+00;  2.4331592E-02;  1.0037847E+03;  4.0158892E-01;  3.1341311E+03;3;  2.4292297E+00;  0.0000000E+00;  3.5534073E+01;0;  3.5639080E-01;  9.9995781E+03;  0.0000000E+00;  2.0011964E-07;  1.0000000E+04;  0.0000000E+00;  9.9966875E+03;  4.3274675E-02;  0.0000000E+00;  3.1311613E-01;  1.1288910E+03;
  8.2000059E-01;  9.9999998E-03;  2.8001598E-01;2329;  1.4908337E-03;  0.0000000E+00;  3.6764447E-02;  1.0037357E+03;  4.0158892E-01;  3.0934602E+03;3;  2.4915953E+00;  0.0000000E+00;  5.0809700E+01;0;  4.4494316E-01;  9.9995762E+03;  0.0000000E+00;  2.8004393E-07;  1.0000000E+04;  0.0000000E+00;  9.9957109E+03;  4.3476742E-02;  0.0000000E+00;  4.0146643E-01;  1.4704977E+03;
  8.2000059E-01;  9.9999998E-03;  3.0001974E-01;2330;  1.4839547E-03;  0.0000000E+00;  4.4030327E-02;  1.0037187E+03;  4.0158898E-01;  3.0794426E+03;3;  2.5466964E+00;  0.0000000E+00;  5.9756306E+01;0;  4.6891612E-01;  9.9995752E+03;  0.0000000E+00;  1.8425632E-07;  1.0000000E+04;  0.0000000E+00;  9.9953711E+03;  4.3603640E-02;  0.0000000E+00;  4.2531249E-01;  1.6017224E+03;
  8.4000093E-01;  9.9999998E-03;  1.6000037E-01;2354;  2.3031824E-03;  0.0000000E+00;  1.4927242E-03;  1.0038607E+03;  4.0156320E-01;  3.1964846E+03;3;  3.5335717E+00;  0.0000000E+00;  3.6691277E+00;0;  9.5240645E-02;  9.9996377E+03;  0.0000000E+00; -1.2719618E-09;  1.0000000E+04;  0.0000000E+00;  9.9994189E+03;  3.6639895E-02;  0.0000000E+00;  5.8600750E-02;  1.8850162E+02;
  8.4000093E-01;  9.9999998E-03;  1.8000054E-01;2355;  2.3394495E-03;  0.0000000E+00;  2.0781183E-03;  1.0038388E+03;  4.0156317E-01;  3.1783237E+03;3;  3.6230016E+00;  0.0000000E+00;  4.8767953E+00;0;  1.3636512E-01;  9.9996357E+03;  0.0000000E+00; -6.7571184E-09;  1.0000000E+04;  0.0000000E+00;  9.9989883E+03;  3.7067454E-02;  0.0000000E+00;  9.9297658E-02;  3.3574777E+02;
  8.4000093E-01;  9.9999998E-03;  2.0000108E-01;2356;  2.3819066E-03;  0.0000000E+00;  3.4742490E-03;  1.0038118E+03;  4.0156323E-01;  3.1560176E+03;3;  3.7298770E+00;  0.0000000E+00;  7.1667771E+00;0;  1.8665677E-01;  9.9996318E+03;  0.0000000E+00; -6.2238512E-09;  1.0000000E+04;  0.0000000E+00;  9.9984541E+03;  3.7518788E-02;  0.0000000E+00;  1.4913799E-01;  5.1876654E+02;
  8.4000093E-01;  9.9999998E-03;  2.2000240E-01;2357;  2.4251689E-03;  0.0000000E+00;  6.7050960E-03;  1.0037840E+03;  4.0156323E-01;  3.1329219E+03;3;  3.8470016E+00;  0.0000000E+00;  1.1873768E+01;0;  2.3833460E-01;  9.9996289E+03;  0.0000000E+00;  4.6672969E-08;  1.0000000E+04;  0.0000000E+00;  9.9979004E+03;  3.7951231E-02;  0.0000000E+00;  2.0038337E-01;  7.0926392E+02;
  8.4000093E-01;  9.9999998E-03;  2.4000515E-01;2358;  2.4614604E-03;  0.0000000E+00;  1.3177602E-02;  1.0037578E+03;  4.0156320E-01;  3.1112080E+03;3;  3.9650202E+00;  0.0000000E+00;  2.0771975E+01;0;  2.8670633E-01;  9.9996260E+03;  0.0000000E+00;  2.3266965E-07;  1.0000000E+04;  0.0000000E+00;  9.9973818E+03;  3.8326140E-02;  0.0000000E+00;  2.4838018E-01;  8.8834192E+02;
  8.4000093E-01;  9.9999998E-03;  2.6000988E-01;2359;  2.4832180E-03;  0.0000000E+00;  2.3879420E-02;  1.0037261E+03;  4.0156329E-01;  3.0850527E+03;3;  4.0755639E+00;  0.0000000E+00;  3.4879974E+01;0;  3.4563395E-01;  9.9996240E+03;  0.0000000E+00;  5.6528381E-07;  1.0000000E+04;  0.0000000E+00;  9.9967520E+03;  3.8619664E-02;  0.0000000E+00;  3.0701429E-01;  1.1040536E+03;
  8.4000093E-01;  9.9999998E-03;  2.8001568E-01;2360;  2.4858746E-03;  0.0000000E+00;  3.6094118E-02;  1.0036778E+03;  4.0156326E-01;  3.0450793E+03;3;  4.1728592E+00;  0.0000000E+00;  4.9907356E+01;0;  4.3301332E-01;  9.9996221E+03;  0.0000000E+00;  7.9437507E-07;  1.0000000E+04;  0.0000000E+00;  9.9957900E+03;  3.8826600E-02;  0.0000000E+00;  3.9418671E-01;  1.4398813E+03;
  8.4000093E-01;  9.9999998E-03;  3.0001938E-01;2361;  2.4703902E-03;  0.0000000E+00;  4.3234877E-02;  1.0036608E+03;  4.0156326E-01;  3.0309653E+03;3;  4.2540951E+00;  0.0000000E+00;  5.8712921E+01;0;  4.5709759E-01;  9.9996201E+03;  0.0000000E+00;  4.8371209E-07;  1.0000000E+04;  0.0000000E+00;  9.9954502E+03;  3.8955215E-02;  0.0000000E+00;  4.1814238E-01;  1.5701323E+03;
  8.6000127E-01;  9.9999998E-03;  1.6000035E-01;2385;  3.2460869E-03;  0.0000000E+00;  1.4423465E-03;  1.0037372E+03;  4.0151262E-01;  3.0935415E+03;3;  4.9896564E+00;  0.0000000E+00;  3.5453539E+00;0;  8.9053601E-02;  9.9996797E+03;  0.0000000E+00; -2.0828226E-09;  1.0000000E+04;  0.0000000E+00;  9.9994385E+03;  3.2366700E-02;  0.0000000E+00;  5.6686904E-02;  1.8182486E+02;
  8.6000127E-01;  9.9999998E-03;  1.8000053E-01;2386;  3.2968030E-03;  0.0000000E+00;  2.0078376E-03;  1.0037161E+03;  4.0151268E-01;  3.0760757E+03;3;  5.1148276E+00;  0.0000000E+00;  4.7116199E+00;0;  1.2887539E-01;  9.9996758E+03;  0.0000000E+00; -1.2251872E-08;  1.0000000E+04;  0.0000000E+00;  9.9990205E+03;  3.2812100E-02;  0.0000000E+00;  9.6063286E-02;  3.2381973E+02;
  8.6000133E-01;  9.9999998E-03;  2.0000103E-01;2387;  3.3555152E-03;  0.0000000E+00;  3.3576288E-03;  1.0036901E+03;  4.0151265E-01;  3.0545640E+03;3;  5.2631769E+00;  0.0000000E+00;  6.9248061E+00;0;  1.7758620E-01;  9.9996719E+03;  0.0000000E+00; -1.0068557E-08;  1.0000000E+04;  0.0000000E+00;  9.9985039E+03;  3.3285093E-02;  0.0000000E+00;  1.4430110E-01;  5.0034515E+02;
  8.6000133E-01;  9.9999998E-03;  2.2000231E-01;2388;  3.4145052E-03;  0.0000000E+00;  6.4827539E-03;  1.0036631E+03;  4.0151268E-01;  3.0321641E+03;3;  5.4241972E+00;  0.0000000E+00;  1.1477611E+01;0;  2.2765486E-01;  9.9996699E+03;  0.0000000E+00;  9.4556277E-08;  1.0000000E+04;  0.0000000E+00;  9.9979697E+03;  3.3740893E-02;  0.0000000E+00;  1.9391397E-01;  6.8411987E+02;
  8.6000133E-01;  9.9999998E-03;  2.4000499E-01;2389;  3.4634478E-03;  0.0000000E+00;  1.2746128E-02;  1.0036378E+03;  4.0151268E-01;  3.0112444E+03;3;  5.5856476E+00;  0.0000000E+00;  2.0091015E+01;0;  2.7453303E-01;  9.9996670E+03;  0.0000000E+00;  4.5668264E-07;  1.0000000E+04;  0.0000000E+00;  9.9974658E+03;  3.4141615E-02;  0.0000000E+00;  2.4039140E-01;  8.5689404E+02;
  8.6000133E-01;  9.9999998E-03;  2.6000956E-01;2390;  3.4925351E-03;  0.0000000E+00;  2.3105584E-02;  1.0036072E+03;  4.0151274E-01;  2.9858843E+03;3;  5.7372298E+00;  0.0000000E+00;  3.3756245E+01;0;  3.3162111E-01;  9.9996641E+03;  0.0000000E+00;  1.1096714E-06;  1.0000000E+04;  0.0000000E+00;  9.9968574E+03;  3.4465868E-02;  0.0000000E+00;  2.9715523E-01;  1.0649475E+03;
  8.6000133E-01;  9.9999998E-03;  2.8001517E-01;2391;  3.4956094E-03;  0.0000000E+00;  3.4937125E-02;  1.0035604E+03;  4.0151277E-01;  2.9471040E+03;3;  5.8714490E+00;  0.0000000E+00;  4.8331020E+01;0;  4.1626564E-01;  9.9996621E+03;  0.0000000E+00;  1.5727657E-06;  1.0000000E+04;  0.0000000E+00;  9.9959248E+03;  3.4708239E-02;  0.0000000E+00;  3.8155740E-01;  1.3888004E+03;
  8.6000133E-01;  9.9999998E-03;  3.0001876E-01;2392;  3.4730958E-03;  0.0000000E+00;  4.1859828E-02;  1.0035438E+03;  4.0151274E-01;  2.9334866E+03;3;  5.9828806E+00;  0.0000000E+00;  5.6885868E+01;0;  4.3967053E-01;  9.9996611E+03;  0.0000000E+00;  9.7176314E-07;  1.0000000E+04;  0.0000000E+00;  9.9955967E+03;  3.4870766E-02;  0.0000000E+00;  4.0479976E-01;  1.5143859E+03;
  8.8000166E-01;  9.9999998E-03;  1.6000034E-01;2416;  4.1430220E-03;  0.0000000E+00;  1.3759626E-03;  1.0035598E+03;  4.0144017E-01;  2.9457239E+03;3;  6.3719835E+00;  0.0000000E+00;  3.3822663E+00;0;  8.1698246E-02;  9.9997256E+03;  0.0000000E+00; -2.8393472E-09;  1.0000000E+04;  0.0000000E+00;  9.9994629E+03;  2.7540231E-02;  0.0000000E+00;  5.4158013E-02;  1.7303685E+02;
  8.8000166E-01;  9.9999998E-03;  1.8000050E-01;2417;  4.2067342E-03;  0.0000000E+00;  1.9145350E-03;  1.0035396E+03;  4.0144020E-01;  2.9290522E+03;3;  6.5292997E+00;  0.0000000E+00;  4.4929776E+00;0;  1.1983276E-01;  9.9997217E+03;  0.0000000E+00; -1.8269038E-08;  1.0000000E+04;  0.0000000E+00;  9.9990635E+03;  2.8038276E-02;  0.0000000E+00;  9.1794483E-02;  3.0814890E+02;
  8.8000166E-01;  9.9999998E-03;  2.0000099E-01;2418;  4.2802086E-03;  0.0000000E+00;  3.2003417E-03;  1.0035145E+03;  4.0144017E-01;  2.9083362E+03;3;  6.7154474E+00;  0.0000000E+00;  6.6007261E+00;0;  1.6650212E-01;  9.9997178E+03;  0.0000000E+00; -1.3982508E-08;  1.0000000E+04;  0.0000000E+00;  9.9985713E+03;  2.8581394E-02;  0.0000000E+00;  1.3792072E-01;  4.7616702E+02;
  8.8000166E-01;  9.9999998E-03;  2.2000220E-01;2419;  4.3535833E-03;  0.0000000E+00;  6.1788387E-03;  1.0034887E+03;  4.0144017E-01;  2.8869297E+03;3;  6.9170222E+00;  0.0000000E+00;  1.0939340E+01;0;  2.1448591E-01;  9.9997139E+03;  0.0000000E+00;  1.5976003E-07;  1.0000000E+04;  0.0000000E+00;  9.9980576E+03;  2.9119490E-02;  0.0000000E+00;  1.8536642E-01;  6.5108313E+02;
  8.8000172E-01;  9.9999998E-03;  2.4000475E-01;2420;  4.4141212E-03;  0.0000000E+00;  1.2150632E-02;  1.0034645E+03;  4.0144020E-01;  2.8669043E+03;3;  7.1190929E+00;  0.0000000E+00;  1.9152332E+01;0;  2.5936568E-01;  9.9997100E+03;  0.0000000E+00;  7.4126939E-07;  1.0000000E+04;  0.0000000E+00;  9.9975791E+03;  2.9607279E-02;  0.0000000E+00;  2.2975841E-01;  8.1533075E+02;
  8.8000172E-01;  9.9999998E-03;  2.6000911E-01;2421;  4.4499999E-03;  0.0000000E+00;  2.2032175E-02;  1.0034352E+03;  4.0144023E-01;  2.8427354E+03;3;  7.3097024E+00;  0.0000000E+00;  3.2193531E+01;0;  3.1379598E-01;  9.9997061E+03;  0.0000000E+00;  1.7878078E-06;  1.0000000E+04;  0.0000000E+00;  9.9969990E+03;  3.0016799E-02;  0.0000000E+00;  2.8377917E-01;  1.0124318E+03;
  8.8000172E-01;  9.9999998E-03;  2.8001446E-01;2422;  4.4537378E-03;  0.0000000E+00;  3.3328958E-02;  1.0033908E+03;  4.0144029E-01;  2.8059397E+03;3;  7.4798985E+00;  0.0000000E+00;  4.6130634E+01;0;  3.9428869E-01;  9.9997041E+03;  0.0000000E+00;  2.5609995E-06;  1.0000000E+04;  0.0000000E+00;  9.9961143E+03;  3.0338177E-02;  0.0000000E+00;  3.6395052E-01;  1.3186116E+03;
  8.8000172E-01;  9.9999998E-03;  3.0001789E-01;2423;  4.4256230E-03;  0.0000000E+00;  3.9949223E-02;  1.0033752E+03;  4.0144026E-01;  2.7931155E+03;3;  7.6224365E+00;  0.0000000E+00;  5.4337452E+01;0;  4.1633195E-01;  9.9997021E+03;  0.0000000E+00;  1.6445548E-06;  1.0000000E+04;  0.0000000E+00;  9.9958057E+03;  3.0570671E-02;  0.0000000E+00;  3.8576126E-01;  1.4362540E+03;
  9.0000194E-01;  9.9999998E-03;  1.6000032E-01;2447;  4.9138311E-03;  0.0000000E+00;  1.2958146E-03;  1.0033377E+03;  4.0134960E-01;  2.7609211E+03;3;  7.5587559E+00;  0.0000000E+00;  3.1852810E+00;0;  7.2805464E-02;  9.9997822E+03;  0.0000000E+00; -3.9385122E-09;  1.0000000E+04;  0.0000000E+00;  9.9994932E+03;  2.1720212E-02;  0.0000000E+00;  5.1085252E-02;  1.6237985E+02;
  9.0000194E-01;  9.9999998E-03;  1.8000047E-01;2448;  4.9889307E-03;  0.0000000E+00;  1.8011752E-03;  1.0033185E+03;  4.0134963E-01;  2.7450452E+03;3;  7.7441454E+00;  0.0000000E+00;  4.2276306E+00;0;  1.0890741E-01;  9.9997783E+03;  0.0000000E+00; -2.5150227E-08;  1.0000000E+04;  0.0000000E+00;  9.9991162E+03;  2.2301570E-02;  0.0000000E+00;  8.6605839E-02;  2.8913467E+02;
  9.0000200E-01;  9.9999998E-03;  2.0000093E-01;2449;  5.0756200E-03;  0.0000000E+00;  3.0074765E-03;  1.0032950E+03;  4.0134963E-01;  2.7255208E+03;3;  7.9638796E+00;  0.0000000E+00;  6.2044992E+00;0;  1.5313424E-01;  9.9997725E+03;  0.0000000E+00; -1.5524000E-08;  1.0000000E+04;  0.0000000E+00;  9.9986514E+03;  2.2967234E-02;  0.0000000E+00;  1.3016701E-01;  4.4683267E+02;
  9.0000200E-01;  9.9999998E-03;  2.2000207E-01;2450;  5.1617147E-03;  0.0000000E+00;  5.8035008E-03;  1.0032704E+03;  4.0134966E-01;  2.7052075E+03;3;  8.2011089E+00;  0.0000000E+00;  1.0276005E+01;0;  1.9863243E-01;  9.9997666E+03;  0.0000000E+00;  2.2968311E-07;  1.0000000E+04;  0.0000000E+00;  9.9981670E+03;  2.3660729E-02;  0.0000000E+00;  1.7497170E-01;  6.1097693E+02;
  9.0000200E-01;  9.9999998E-03;  2.4000446E-01;2451;  5.2326126E-03;  0.0000000E+00;  1.1412473E-02;  1.0032475E+03;  4.0134963E-01;  2.6862749E+03;3;  8.4391155E+00;  0.0000000E+00;  1.7989349E+01;0;  2.4110202E-01;  9.9997617E+03;  0.0000000E+00;  1.0425276E-06;  1.0000000E+04;  0.0000000E+00;  9.9977148E+03;  2.4319472E-02;  0.0000000E+00;  2.1678255E-01;  7.6472845E+02;
  9.0000200E-01;  9.9999998E-03;  2.6000857E-01;2452;  5.2746655E-03;  0.0000000E+00;  2.0700492E-02;  1.0032202E+03;  4.0134966E-01;  2.6636938E+03;3;  8.6642885E+00;  0.0000000E+00;  3.0252287E+01;0;  2.9221550E-01;  9.9997568E+03;  0.0000000E+00;  2.5130119E-06;  1.0000000E+04;  0.0000000E+00;  9.9971738E+03;  2.4895612E-02;  0.0000000E+00;  2.6731989E-01;  9.4805383E+02;
  9.0000200E-01;  9.9999998E-03;  2.8001359E-01;2453;  5.2787750E-03;  0.0000000E+00;  3.1333003E-02;  1.0031786E+03;  4.0134969E-01;  2.6292795E+03;3;  8.8664351E+00;  0.0000000E+00;  4.3394753E+01;0;  3.6741132E-01;  9.9997529E+03;  0.0000000E+00;  3.6087220E-06;  1.0000000E+04;  0.0000000E+00;  9.9963477E+03;  2.5365645E-02;  0.0000000E+00;  3.4204566E-01;  1.2317350E+03;
  9.0000200E-01;  9.9999998E-03;  3.0001682E-01;2454;  5.2468716E-03;  0.0000000E+00;  3.7579559E-02;  1.0031642E+03;  4.0134969E-01;  2.6174465E+03;3;  9.0371199E+00;  0.0000000E+00;  5.1171570E+01;0;  3.8760367E-01;  9.9997490E+03;  0.0000000E+00;  2.3572541E-06;  1.0000000E+04;  0.0000000E+00;  9.9960664E+03;  2.5725385E-02;  0.0000000E+00;  3.6187828E-01;  1.3388478E+03;
  9.2000216E-01;  9.9999998E-03;  1.6000029E-01;2478;  5.4487372E-03;  0.0000000E+00;  1.2099950E-03;  1.0030831E+03;  4.0124571E-01;  2.5489001E+03;3;  8.3531599E+00;  0.0000000E+00;  2.9711738E+00;0;  6.2689520E-02;  9.9998477E+03;  0.0000000E+00; -5.2944453E-09;  1.0000000E+04;  0.0000000E+00;  9.9995273E+03;  1.5104158E-02;  0.0000000E+00;  4.7585364E-02;  1.5023492E+02;
  9.2000216E-01;  9.9999998E-03;  1.8000044E-01;2479;  5.5454769E-03;  0.0000000E+00;  1.6758781E-03;  1.0030651E+03;  4.0124571E-01;  2.5340186E+03;3;  8.5876951E+00;  0.0000000E+00;  3.9326856E+00;0;  9.6470416E-02;  9.9998418E+03;  0.0000000E+00; -3.1106740E-08;  1.0000000E+04;  0.0000000E+00;  9.9991768E+03;  1.5785698E-02;  0.0000000E+00;  8.0684721E-02;  2.6741400E+02;
  9.2000222E-01;  9.9999998E-03;  2.0000087E-01;2480;  5.6622894E-03;  0.0000000E+00;  2.7876240E-03;  1.0030430E+03;  4.0124574E-01;  2.5156875E+03;3;  8.8760004E+00;  0.0000000E+00;  5.7529106E+00;0;  1.3792859E-01;  9.9998350E+03;  0.0000000E+00; -1.6463625E-08;  1.0000000E+04;  0.0000000E+00;  9.9987422E+03;  1.6619049E-02;  0.0000000E+00;  1.2130954E-01;  4.1328131E+02;
  9.2000222E-01;  9.9999998E-03;  2.2000192E-01;2481;  5.7722847E-03;  0.0000000E+00;  5.3720991E-03;  1.0030200E+03;  4.0124577E-01;  2.4967651E+03;3;  9.1714296E+00;  0.0000000E+00;  9.5135145E+00;0;  1.8062873E-01;  9.9998271E+03;  0.0000000E+00;  2.8425126E-07;  1.0000000E+04;  0.0000000E+00;  9.9982910E+03;  1.7544298E-02;  0.0000000E+00;  1.6308443E-01;  5.6505365E+02;
  9.2000228E-01;  9.9999998E-03;  2.4000414E-01;2482;  5.8549866E-03;  0.0000000E+00;  1.0563689E-02;  1.0029986E+03;  4.0124577E-01;  2.4790254E+03;3;  9.4453506E+00;  0.0000000E+00;  1.6650650E+01;0;  2.2038929E-01;  9.9998193E+03;  0.0000000E+00;  1.2884441E-06;  1.0000000E+04;  0.0000000E+00;  9.9978711E+03;  1.8473323E-02;  0.0000000E+00;  2.0191596E-01;  7.0669440E+02;
  9.2000228E-01;  9.9999998E-03;  2.6000795E-01;2483;  5.9024384E-03;  0.0000000E+00;  1.9168973E-02;  1.0029732E+03;  4.0124580E-01;  2.4580334E+03;3;  9.6984739E+00;  0.0000000E+00;  2.8016516E+01;0;  2.6772723E-01;  9.9998115E+03;  0.0000000E+00;  3.1294878E-06;  1.0000000E+04;  0.0000000E+00;  9.9973740E+03;  1.9323604E-02;  0.0000000E+00;  2.4840361E-01;  8.7404388E+02;
  9.2000228E-01;  9.9999998E-03;  2.8001258E-01;2484;  5.8929618E-03;  0.0000000E+00;  2.9035525E-02;  1.0029351E+03;  4.0124577E-01;  2.4265947E+03;3;  9.8937712E+00;  0.0000000E+00;  4.0238846E+01;0;  3.3681715E-01;  9.9998047E+03;  0.0000000E+00;  4.5147167E-06;  1.0000000E+04;  0.0000000E+00;  9.9966182E+03;  2.0044537E-02;  0.0000000E+00;  3.1677261E-01;  1.1316150E+03;
  9.2000228E-01;  9.9999998E-03;  3.0001557E-01;2485;  5.8728280E-03;  0.0000000E+00;  3.4857020E-02;  1.0029222E+03;  4.0124577E-01;  2.4158523E+03;3;  1.0119223E+01;  0.0000000E+00;  4.7531754E+01;0;  3.5493189E-01;  9.9997988E+03;  0.0000000E+00;  3.0211058E-06;  1.0000000E+04;  0.0000000E+00;  9.9963672E+03;  2.0621145E-02;  0.0000000E+00;  3.3431074E-01;  1.2265028E+03;
  9.4000226E-01;  9.9999998E-03;  1.6000028E-01;2509;  5.6267912E-03;  0.0000000E+00;  1.1361695E-03;  1.0028074E+03;  4.0113339E-01;  2.3192351E+03;3;  8.5553160E+00;  0.0000000E+00;  2.7687664E+00;0;  5.2186362E-02;  9.9999160E+03;  0.0000000E+00; -4.9730273E-09;  1.0000000E+04;  0.0000000E+00;  9.9995654E+03;  8.3693936E-03;  0.0000000E+00;  4.3816969E-02;  1.3711035E+02;
  9.4000226E-01;  9.9999998E-03;  1.8000041E-01;2510;  5.7604457E-03;  0.0000000E+00;  1.5590782E-03;  1.0027908E+03;  4.0113339E-01;  2.3055461E+03;3;  8.8593559E+00;  0.0000000E+00;  3.6443658E+00;0;  8.3438717E-02;  9.9999072E+03;  0.0000000E+00; -2.9684839E-08;  1.0000000E+04;  0.0000000E+00;  9.9992422E+03;  9.1537414E-03;  0.0000000E+00;  7.4284978E-02;  2.4383997E+02;
  9.4000232E-01;  9.9999998E-03;  2.0000079E-01;2511;  5.9371302E-03;  0.0000000E+00;  2.5576630E-03;  1.0027703E+03;  4.0113342E-01;  2.2886074E+03;3;  9.2602882E+00;  0.0000000E+00;  5.2788792E+00;0;  1.2189621E-01;  9.9998984E+03;  0.0000000E+00; -1.6220932E-08;  1.0000000E+04;  0.0000000E+00;  9.9988418E+03;  1.0187399E-02;  0.0000000E+00;  1.1170880E-01;  3.7675784E+02;
  9.4000238E-01;  9.9999998E-03;  2.2000176E-01;2512;  6.1150379E-03;  0.0000000E+00;  4.9039144E-03;  1.0027490E+03;  4.0113342E-01;  2.2709792E+03;3;  9.6989069E+00;  0.0000000E+00;  8.6853266E+00;0;  1.6157880E-01;  9.9998877E+03;  0.0000000E+00;  3.1172971E-07;  1.0000000E+04;  0.0000000E+00;  9.9984268E+03;  1.1414265E-02;  0.0000000E+00;  1.5016454E-01;  5.1493585E+02;
  9.4000238E-01;  9.9999998E-03;  2.4000376E-01;2513;  6.2433053E-03;  0.0000000E+00;  9.6397065E-03;  1.0027291E+03;  4.0113339E-01;  2.2546313E+03;3;  1.0076489E+01;  0.0000000E+00;  1.5191678E+01;0;  1.9843236E-01;  9.9998750E+03;  0.0000000E+00;  1.4331285E-06;  1.0000000E+04;  0.0000000E+00;  9.9980430E+03;  1.2717576E-02;  0.0000000E+00;  1.8571478E-01;  6.4321960E+02;
  9.4000244E-01;  9.9999998E-03;  2.6000723E-01;2514;  6.2990710E-03;  0.0000000E+00;  1.7504076E-02;  1.0027060E+03;  4.0113348E-01;  2.2355259E+03;3;  1.0356717E+01;  0.0000000E+00;  2.5585258E+01;0;  2.4172001E-01;  9.9998633E+03;  0.0000000E+00;  4.8380034E-06;  1.0000000E+04;  0.0000000E+00;  9.9975928E+03;  1.3967617E-02;  0.0000000E+00;  2.2775239E-01;  7.9301263E+02;
  9.4000238E-01;  9.9999998E-03;  2.8001150E-01;2515;  6.2839673E-03;  0.0000000E+00;  2.6541105E-02;  1.0026715E+03;  4.0113345E-01;  2.2069663E+03;3;  1.0555585E+01;  0.0000000E+00;  3.6812969E+01;0;  3.0428258E-01;  9.9998535E+03;  0.0000000E+00;  1.0482816E-05;  1.0000000E+04;  0.0000000E+00;  9.9969131E+03;  1.5070065E-02;  0.0000000E+00;  2.8921252E-01;  1.0221558E+03;
  9.4000238E-01;  9.9999998E-03;  3.0001426E-01;2516;  6.2722140E-03;  0.0000000E+00;  3.1901494E-02;  1.0026601E+03;  4.0113345E-01;  2.1975122E+03;3;  1.0815390E+01;  0.0000000E+00;  4.3581570E+01;0;  3.2026497E-01;  9.9998447E+03;  0.0000000E+00;  3.4357759E-06;  1.0000000E+04;  0.0000000E+00;  9.9966953E+03;  1.5984844E-02;  0.0000000E+00;  3.0428013E-01;  1.1038951E+03;
  9.6000224E-01;  9.9999998E-03;  1.6000026E-01;2540;  5.5801836E-03;  0.0000000E+00;  1.0590444E-03;  1.0025228E+03;  4.0101752E-01;  2.0819954E+03;3;  8.4581575E+00;  0.0000000E+00;  2.5486042E+00;0;  4.2264182E-02;  9.9999756E+03;  0.0000000E+00; -3.2344303E-09;  1.0000000E+04;  0.0000000E+00;  9.9996035E+03;  2.2946782E-03;  0.0000000E+00;  3.9969504E-02;  1.2360938E+02;
  9.6000224E-01;  9.9999998E-03;  1.8000038E-01;2541;  5.7317684E-03;  0.0000000E+00;  1.4431172E-03;  1.0025076E+03;  4.0101755E-01;  2.0695005E+03;3;  8.7827368E+00;  0.0000000E+00;  3.3469195E+00;0;  7.0895411E-02;  9.9999678E+03;  0.0000000E+00; -2.6191493E-08;  1.0000000E+04;  0.0000000E+00;  9.9993086E+03;  3.1898087E-03;  0.0000000E+00;  6.7705601E-02;  2.1941432E+02;
  9.6000236E-01;  9.9999998E-03;  2.0000072E-01;2542;  5.9459312E-03;  0.0000000E+00;  2.3256319E-03;  1.0024887E+03;  4.0101758E-01;  2.0539558E+03;3;  9.2397280E+00;  0.0000000E+00;  4.7943382E+00;0;  1.0624007E-01;  9.9999551E+03;  0.0000000E+00; -1.3395061E-08;  1.0000000E+04;  0.0000000E+00;  9.9989453E+03;  4.4574598E-03;  0.0000000E+00;  1.0178261E-01;  3.3870737E+02;
  9.6000242E-01;  9.9999998E-03;  2.2000158E-01;2543;  6.1819688E-03;  0.0000000E+00;  4.4202353E-03;  1.0024691E+03;  4.0101755E-01;  2.0377223E+03;3;  9.7780104E+00;  0.0000000E+00;  7.8283505E+00;0;  1.4278956E-01;  9.9999404E+03;  0.0000000E+00;  4.5975498E-06;  1.0000000E+04;  0.0000000E+00;  9.9985684E+03;  6.0506561E-03;  0.0000000E+00;  1.3673890E-01;  4.6248468E+02;
  9.6000248E-01;  9.9999998E-03;  2.4000339E-01;2544;  6.3785557E-03;  0.0000000E+00;  8.6822035E-03;  1.0024509E+03;  4.0101752E-01;  2.0227679E+03;3;  1.0291358E+01;  0.0000000E+00;  1.3676951E+01;0;  1.7663604E-01;  9.9999238E+03;  0.0000000E+00;  5.1667361E-05;  1.0000000E+04;  0.0000000E+00;  9.9982217E+03;  7.8185117E-03;  0.0000000E+00;  1.6881754E-01;  5.7660065E+02;
  9.6000248E-01;  9.9999998E-03;  2.6000655E-01;2545;  6.4845271E-03;  0.0000000E+00;  1.5781742E-02;  1.0024299E+03;  4.0101758E-01;  2.0054525E+03;3;  1.0670966E+01;  0.0000000E+00;  2.3067280E+01;0;  2.1579751E-01;  9.9999072E+03;  0.0000000E+00;  1.5314730E-04;  1.0000000E+04;  0.0000000E+00;  9.9978213E+03;  9.5784385E-03;  0.0000000E+00;  2.0621908E-01;  7.0804279E+02;
  9.6000248E-01;  9.9999998E-03;  2.8001037E-01;2546;  6.5114191E-03;  0.0000000E+00;  2.3966525E-02;  1.0023991E+03;  4.0101758E-01;  1.9799711E+03;3;  1.0955061E+01;  0.0000000E+00;  3.3282677E+01;0;  2.7177954E-01;  9.9998906E+03;  0.0000000E+00;  1.8811939E-04;  1.0000000E+04;  0.0000000E+00;  9.9972188E+03;  1.1185233E-02;  0.0000000E+00;  2.6059431E-01;  9.0783752E+02;
  9.6000248E-01;  9.9999998E-03;  3.0001286E-01;2547;  6.5041315E-03;  0.0000000E+00;  2.8835706E-02;  1.0023892E+03;  4.0101761E-01;  1.9718053E+03;3;  1.1226473E+01;  0.0000000E+00;  3.9486755E+01;0;  2.8554690E-01;  9.9998779E+03;  0.0000000E+00;  3.4722002E-06;  1.0000000E+04;  0.0000000E+00;  9.9970361E+03;  1.2561441E-02;  0.0000000E+00;  2.7298546E-01;  9.7567670E+02;
  9.8000216E-01;  9.9999998E-03;  1.6000025E-01;2571;  5.4211100E-03;  0.0000000E+00;  9.8131050E-04;  1.0022399E+03;  4.0090266E-01;  1.8460654E+03;3;  8.2197285E+00;  0.0000000E+00;  2.3360441E+00;0;  3.3665076E-02;  1.0000026E+04;  0.0000000E+00; -1.0111451E-09;  1.0000000E+04;  0.0000000E+00;  9.9996406E+03; -2.5846432E-03;  0.0000000E+00;  3.6249720E-02;  1.1038554E+02;
  9.8000222E-01;  9.9999998E-03;  1.8000035E-01;2572;  5.5782194E-03;  0.0000000E+00;  1.3226767E-03;  1.0022260E+03;  4.0090266E-01;  1.8346682E+03;3;  8.5541735E+00;  0.0000000E+00;  3.0410452E+00;0;  5.9721209E-02;  1.0000015E+04;  0.0000000E+00; -1.5938326E-08;  1.0000000E+04;  0.0000000E+00;  9.9993750E+03; -1.5450468E-03;  0.0000000E+00;  6.1266255E-02;  1.9519963E+02;
  9.8000228E-01;  9.9999998E-03;  2.0000064E-01;2573;  5.8077751E-03;  0.0000000E+00;  2.1001331E-03;  1.0022089E+03;  4.0090266E-01;  1.8205199E+03;3;  9.0253677E+00;  0.0000000E+00;  4.3199196E+00;0;  9.1968633E-02;  1.0000000E+04;  0.0000000E+00;  7.7838677E-06;  1.0000000E+04;  0.0000000E+00;  9.9990459E+03; -1.0426084E-07;  0.0000000E+00;  9.1968738E-02;  3.0063770E+02;
  9.8000234E-01;  9.9999998E-03;  2.2000141E-01;2574;  6.0866536E-03;  0.0000000E+00;  3.9474550E-03;  1.0021909E+03;  4.0090266E-01;  1.8057820E+03;3;  9.6234388E+00;  0.0000000E+00;  6.9851780E+00;0;  1.2536538E-01;  9.9999805E+03;  0.0000000E+00;  9.2745831E-05;  1.0000000E+04;  0.0000000E+00;  9.9987090E+03;  1.9958292E-03;  0.0000000E+00;  1.2336955E-01;  4.0968604E+02;
  9.8000246E-01;  9.9999998E-03;  2.4000303E-01;2575;  6.3599972E-03;  0.0000000E+00;  7.7449814E-03;  1.0021744E+03;  4.0090263E-01;  1.7921249E+03;3;  1.0265614E+01;  0.0000000E+00;  1.2188198E+01;0;  1.5620591E-01;  9.9999600E+03;  0.0000000E+00;  3.8766584E-04;  1.0000000E+04;  0.0000000E+00;  9.9983994E+03;  4.2635803E-03;  0.0000000E+00;  1.5194233E-01;  5.0941516E+02;
  9.8000252E-01;  9.9999998E-03;  2.6000583E-01;2576;  6.5377662E-03;  0.0000000E+00;  1.4088614E-02;  1.0021556E+03;  4.0090263E-01;  1.7766992E+03;3;  1.0769667E+01;  0.0000000E+00;  2.0588644E+01;0;  1.9134916E-01;  9.9999365E+03;  0.0000000E+00;  8.4358547E-04;  1.0000000E+04;  0.0000000E+00;  9.9980459E+03;  6.5802308E-03;  0.0000000E+00;  1.8476893E-01;  6.2268109E+02;
  9.8000252E-01;  9.9999998E-03;  2.8000927E-01;2577;  6.6403910E-03;  0.0000000E+00;  2.1408720E-02;  1.0021285E+03;  4.0090272E-01;  1.7542977E+03;3;  1.1187578E+01;  0.0000000E+00;  2.9774370E+01;0;  2.4075767E-01;  9.9999141E+03;  0.0000000E+00;  8.9777156E-04;  1.0000000E+04;  0.0000000E+00;  9.9975264E+03;  8.7562185E-03;  0.0000000E+00;  2.3200145E-01;  7.9297113E+02;
  9.8000258E-01;  9.9999998E-03;  3.0001149E-01;2578;  6.7024641E-03;  0.0000000E+00;  2.5777342E-02;  1.0021202E+03;  4.0090272E-01;  1.7474200E+03;3;  1.1586896E+01;  0.0000000E+00;  3.5415531E+01;0;  2.5214684E-01;  9.9998965E+03;  0.0000000E+00; -3.4985417E-06;  1.0000000E+04;  0.0000000E+00;  9.9973809E+03;  1.0667916E-02;  0.0000000E+00;  2.4147893E-01;  8.4605078E+02;
  1.0000020E+00;  9.9999998E-03;  1.6000023E-01;2602;  5.2118301E-03;  0.0000000E+00;  9.0872496E-04;  1.0019679E+03;  4.0079248E-01;  1.6190466E+03;3;  7.9197993E+00;  0.0000000E+00;  2.1304245E+00;0;  2.6781023E-02;  1.0000062E+04;  0.0000000E+00;  7.6186518E-10;  1.0000000E+04;  0.0000000E+00;  9.9996729E+03; -6.0848119E-03;  0.0000000E+00;  3.2865833E-02;  9.8080650E+01;
  1.0000021E+00;  9.9999998E-03;  1.8000033E-01;2603;  5.3557972E-03;  0.0000000E+00;  1.2148226E-03;  1.0019553E+03;  4.0079248E-01;  1.6086505E+03;3;  8.2355671E+00;  0.0000000E+00;  2.7598760E+00;0;  5.0426006E-02;  1.0000050E+04;  0.0000000E+00;  1.1811534E-06;  1.0000000E+04;  0.0000000E+00;  9.9994365E+03; -4.8499475E-03;  0.0000000E+00;  5.5275954E-02;  1.7220020E+02;
  1.0000021E+00;  9.9999998E-03;  2.0000058E-01;2604;  5.5907168E-03;  0.0000000E+00;  1.8901622E-03;  1.0019398E+03;  4.0079245E-01;  1.5959004E+03;3;  8.7078648E+00;  0.0000000E+00;  3.8685915E+00;0;  7.9662263E-02;  1.0000031E+04;  0.0000000E+00;  4.6411864E-05;  1.0000000E+04;  0.0000000E+00;  9.9991426E+03; -3.0144325E-03;  0.0000000E+00;  8.2676694E-02;  2.6394077E+02;
  1.0000023E+00;  9.9999998E-03;  2.2000127E-01;2605;  5.9170192E-03;  0.0000000E+00;  3.5193269E-03;  1.0019235E+03;  4.0079248E-01;  1.5825620E+03;3;  9.3705053E+00;  0.0000000E+00;  6.2086287E+00;0;  1.0992973E-01;  1.0000008E+04;  0.0000000E+00;  3.4976701E-04;  1.0000000E+04;  0.0000000E+00;  9.9988418E+03; -6.5131421E-04;  0.0000000E+00;  1.1058104E-01;  3.5838837E+02;
  1.0000024E+00;  9.9999998E-03;  2.4000271E-01;2606;  6.2882090E-03;  0.0000000E+00;  6.8898294E-03;  1.0019085E+03;  4.0079248E-01;  1.5702045E+03;3;  1.0164032E+01;  0.0000000E+00;  1.0818753E+01;0;  1.3782687E-01;  9.9999814E+03;  0.0000000E+00;  1.2188124E-03;  1.0000000E+04;  0.0000000E+00;  9.9985693E+03;  2.0572520E-03;  0.0000000E+00;  1.3576962E-01;  4.4411807E+02;
  1.0000025E+00;  9.9999998E-03;  2.6000518E-01;2607;  6.5609599E-03;  0.0000000E+00;  1.2510943E-02;  1.0018918E+03;  4.0079251E-01;  1.5563756E+03;3;  1.0820122E+01;  0.0000000E+00;  1.8272329E+01;0;  1.6919662E-01;  9.9999531E+03;  0.0000000E+00;  2.3930112E-03;  1.0000000E+04;  0.0000000E+00;  9.9982627E+03;  4.8793713E-03;  0.0000000E+00;  1.6431725E-01;  5.4029059E+02;
  1.0000026E+00;  9.9999998E-03;  2.8000820E-01;2608;  6.8035224E-03;  0.0000000E+00;  1.8967928E-02;  1.0018682E+03;  4.0079254E-01;  1.5370546E+03;3;  1.1476693E+01;  0.0000000E+00;  2.6431698E+01;0;  2.1207885E-01;  9.9999268E+03;  0.0000000E+00;  2.3211110E-03;  1.0000000E+04;  0.0000000E+00;  9.9978193E+03;  7.6107946E-03;  0.0000000E+00;  2.0446806E-01;  6.8162439E+02;
  1.0000027E+00;  9.9999998E-03;  3.0001014E-01;2609;  7.0364745E-03;  0.0000000E+00;  2.2829263E-02;  1.0018620E+03;  4.0079248E-01;  1.5319546E+03;3;  1.2180174E+01;  0.0000000E+00;  3.1513760E+01;0;  2.2070254E-01;  9.9999014E+03;  0.0000000E+00; -1.9719504E-04;  1.0000000E+04;  0.0000000E+00;  9.9977178E+03;  1.0089086E-02;  0.0000000E+00;  2.1061346E-01;  7.1867712E+02;
  1.0200020E+00;  9.9999998E-03;  1.6000023E-01;2633;  4.9640317E-03;  0.0000000E+00;  8.4936380E-04;  1.0017145E+03;  4.0069008E-01;  1.4071486E+03;3;  7.5642843E+00;  0.0000000E+00;  1.9465327E+00;0;  2.1723680E-02;  1.0000087E+04;  0.0000000E+00; -4.4457798E-07;  1.0000000E+04;  0.0000000E+00;  9.9997012E+03; -8.2827918E-03;  0.0000000E+00;  3.0006472E-02;  8.7229568E+01;
  1.0200020E+00;  9.9999998E-03;  1.8000032E-01;2634;  5.1112147E-03;  0.0000000E+00;  1.1239382E-03;  1.0017031E+03;  4.0069005E-01;  1.3978536E+03;3;  7.8865085E+00;  0.0000000E+00;  2.5025449E+00;0;  4.3155279E-02;  1.0000071E+04;  0.0000000E+00; -8.0088221E-06;  1.0000000E+04;  0.0000000E+00;  9.9994883E+03; -6.8281149E-03;  0.0000000E+00;  4.9983393E-02;  1.5117194E+02;
  1.0200021E+00;  9.9999998E-03;  2.0000054E-01;2635;  5.3354143E-03;  0.0000000E+00;  1.7276409E-03;  1.0016891E+03;  4.0069005E-01;  1.3863085E+03;3;  8.3409252E+00;  0.0000000E+00;  3.4915900E+00;0;  6.9463536E-02;  1.0000051E+04;  0.0000000E+00;  6.7678331E-05;  1.0000000E+04;  0.0000000E+00;  9.9992305E+03; -4.7649145E-03;  0.0000000E+00;  7.4228451E-02;  2.2967554E+02;
  1.0200022E+00;  9.9999998E-03;  2.2000115E-01;2636;  5.7114367E-03;  0.0000000E+00;  3.1778810E-03;  1.0016745E+03;  4.0069005E-01;  1.3743718E+03;3;  9.0697298E+00;  0.0000000E+00;  5.5639939E+00;0;  9.6598692E-02;  1.0000023E+04;  0.0000000E+00;  6.8573450E-04;  1.0000000E+04;  0.0000000E+00;  9.9989658E+03; -2.1787474E-03;  0.0000000E+00;  9.8777443E-02;  3.1001843E+02;
  1.0200024E+00;  9.9999998E-03;  2.4000244E-01;2637;  6.2101134E-03;  0.0000000E+00;  6.1810706E-03;  1.0016611E+03;  4.0069008E-01;  1.3634135E+03;3;  1.0056623E+01;  0.0000000E+00;  9.6653118E+00;0;  1.2163670E-01;  9.9999932E+03;  0.0000000E+00;  2.4301151E-03;  1.0000000E+04;  0.0000000E+00;  9.9987285E+03;  7.9568930E-04;  0.0000000E+00;  1.2084101E-01;  3.8269431E+02;
  1.0200025E+00;  9.9999998E-03;  2.6000461E-01;2638;  6.6391588E-03;  0.0000000E+00;  1.1131916E-02;  1.0016461E+03;  4.0069011E-01;  1.3510854E+03;3;  1.0962984E+01;  0.0000000E+00;  1.6242214E+01;0;  1.4959449E-01;  9.9999609E+03;  0.0000000E+00;  4.6031051E-03;  1.0000000E+04;  0.0000000E+00;  9.9984609E+03;  3.9701597E-03;  0.0000000E+00;  1.4562432E-01;  4.6371414E+02;
  1.0200027E+00;  9.9999998E-03;  2.8000724E-01;2639;  7.1077100E-03;  0.0000000E+00;  1.6730990E-02;  1.0016262E+03;  4.0069008E-01;  1.3346482E+03;3;  1.2005206E+01;  0.0000000E+00;  2.3379210E+01;0;  1.8604362E-01;  9.9999307E+03;  0.0000000E+00;  4.0526716E-03;  1.0000000E+04;  0.0000000E+00;  9.9980938E+03;  7.2067352E-03;  0.0000000E+00;  1.7883688E-01;  5.7714362E+02;
  1.0200030E+00;  9.9999998E-03;  3.0000889E-01;2640;  7.5811883E-03;  0.0000000E+00;  2.0051034E-02;  1.0016221E+03;  4.0069005E-01;  1.3313217E+03;3;  1.3123372E+01;  0.0000000E+00;  2.7866451E+01;0;  1.9104066E-01;  9.9998984E+03;  0.0000000E+00; -8.0065802E-04;  1.0000000E+04;  0.0000000E+00;  9.9980449E+03;  1.0343291E-02;  0.0000000E+00;  1.8069738E-01;  5.9576471E+02;
  1.0400019E+00;  9.9999998E-03;  1.6000022E-01;2664;  4.6834070E-03;  0.0000000E+00;  7.9168502E-04;  1.0014846E+03;  4.0059745E-01;  1.2144991E+03;3;  7.1730509E+00;  0.0000000E+00;  1.7713419E+00;0;  1.8443085E-02;  1.0000099E+04;  0.0000000E+00; -9.9907620E-06;  1.0000000E+04;  0.0000000E+00;  9.9997217E+03; -9.3587413E-03;  0.0000000E+00;  2.7801827E-02;  7.8107399E+01;
  1.0400019E+00;  9.9999998E-03;  1.8000031E-01;2665;  4.8364000E-03;  0.0000000E+00;  1.0590800E-03;  1.0014742E+03;  4.0059751E-01;  1.2061118E+03;3;  7.4962406E+00;  0.0000000E+00;  2.2951560E+00;0;  3.7813280E-02;  1.0000081E+04;  0.0000000E+00; -9.7865181E-05;  1.0000000E+04;  0.0000000E+00;  9.9995342E+03; -7.7211070E-03;  0.0000000E+00;  4.5534387E-02;  1.3247716E+02;
  1.0400020E+00;  9.9999998E-03;  2.0000052E-01;2666;  5.0709364E-03;  0.0000000E+00;  1.6183961E-03;  1.0014618E+03;  4.0059745E-01;  1.1958716E+03;3;  7.9650512E+00;  0.0000000E+00;  3.1971252E+00;0;  6.1209355E-02;  1.0000059E+04;  0.0000000E+00; -1.3684260E-04;  1.0000000E+04;  0.0000000E+00;  9.9993066E+03; -5.5830735E-03;  0.0000000E+00;  6.6792428E-02;  1.9838162E+02;
  1.0400021E+00;  9.9999998E-03;  2.2000109E-01;2667;  5.5055479E-03;  0.0000000E+00;  2.9634328E-03;  1.0014490E+03;  4.0059745E-01;  1.1854362E+03;3;  8.7708521E+00;  0.0000000E+00;  5.1157088E+00;0;  8.5156552E-02;  1.0000032E+04;  0.0000000E+00;  7.1382883E-04;  1.0000000E+04;  0.0000000E+00;  9.9990771E+03; -3.0278352E-03;  0.0000000E+00;  8.8184386E-02;  2.6539206E+02;
  1.0400023E+00;  9.9999998E-03;  2.4000224E-01;2668;  6.1462643E-03;  0.0000000E+00;  5.6713140E-03;  1.0014370E+03;  4.0059748E-01;  1.1755859E+03;3;  9.9701376E+00;  0.0000000E+00;  8.8090076E+00;0;  1.0741926E-01;  1.0000002E+04;  0.0000000E+00;  3.4175618E-03;  1.0000000E+04;  0.0000000E+00;  9.9988682E+03; -6.8887581E-05;  0.0000000E+00;  1.0748815E-01;  3.2636752E+02;
  1.0400026E+00;  9.9999998E-03;  2.6000416E-01;2669;  6.8133231E-03;  0.0000000E+00;  1.0017565E-02;  1.0014237E+03;  4.0059742E-01;  1.1647605E+03;3;  1.1267805E+01;  0.0000000E+00;  1.4596716E+01;0;  1.3246317E-01;  9.9999678E+03;  0.0000000E+00;  6.4728674E-03;  1.0000000E+04;  0.0000000E+00;  9.9986357E+03;  3.2591580E-03;  0.0000000E+00;  1.2920402E-01;  3.9475586E+02;
  1.0400029E+00;  9.9999998E-03;  2.8000638E-01;2670;  7.5905970E-03;  0.0000000E+00;  1.4758672E-02;  1.0014070E+03;  4.0059742E-01;  1.1511066E+03;3;  1.2837997E+01;  0.0000000E+00;  2.0709591E+01;0;  1.6260271E-01;  9.9999316E+03;  0.0000000E+00;  4.8941141E-03;  1.0000000E+04;  0.0000000E+00;  9.9983428E+03;  7.0394748E-03;  0.0000000E+00;  1.5556324E-01;  4.8148779E+02;
  1.0400032E+00;  9.9999998E-03;  3.0000773E-01;2671;  8.3932979E-03;  0.0000000E+00;  1.7501445E-02;  1.0014057E+03;  4.0059745E-01;  1.1500338E+03;3;  1.4528758E+01;  0.0000000E+00;  2.4562943E+01;0;  1.6340153E-01;  9.9998887E+03;  0.0000000E+00; -1.5218565E-03;  1.0000000E+04;  0.0000000E+00;  9.9983555E+03;  1.1243613E-02;  0.0000000E+00;  1.5215792E-01;  4.7988239E+02;
  1.0600017E+00;  9.9999998E-03;  1.6000021E-01;2695;  4.3750620E-03;  0.0000000E+00;  7.3906139E-04;  1.0012815E+03;  4.0051588E-01;  1.0439198E+03;3;  6.7471399E+00;  0.0000000E+00;  1.6160305E+00;0;  1.6831882E-02;  1.0000100E+04;  0.0000000E+00; -6.8278663E-05;  1.0000000E+04;  0.0000000E+00;  9.9997373E+03; -9.4636744E-03;  0.0000000E+00;  2.6295558E-02;  7.0641876E+01;
  1.0600017E+00;  9.9999998E-03;  1.8000031E-01;2696;  4.5395060E-03;  0.0000000E+00;  1.0137281E-03;  1.0012722E+03;  4.0051588E-01;  1.0363453E+03;3;  7.0826058E+00;  0.0000000E+00;  2.1277926E+00;0;  3.4198627E-02;  1.0000081E+04;  0.0000000E+00; -4.3339340E-04;  1.0000000E+04;  0.0000000E+00;  9.9995703E+03; -7.7526388E-03;  0.0000000E+00;  4.1951265E-02;  1.1605689E+02;
  1.0600019E+00;  9.9999998E-03;  2.0000052E-01;2697;  4.8149722E-03;  0.0000000E+00;  1.5761680E-03;  1.0012614E+03;  4.0051588E-01;  1.0275083E+03;3;  7.6059203E+00;  0.0000000E+00;  3.0063059E+00;0;  5.4609340E-02;  1.0000061E+04;  0.0000000E+00; -9.0296345E-04;  1.0000000E+04;  0.0000000E+00;  9.9993750E+03; -5.7753427E-03;  0.0000000E+00;  6.0384683E-02;  1.7013235E+02;
  1.0600021E+00;  9.9999998E-03;  2.2000107E-01;2698;  5.3260005E-03;  0.0000000E+00;  2.8887975E-03;  1.0012502E+03;  4.0051588E-01;  1.0184772E+03;3;  8.5155649E+00;  0.0000000E+00;  4.8792772E+00;0;  7.5268611E-02;  1.0000036E+04;  0.0000000E+00; -8.3543324E-05;  1.0000000E+04;  0.0000000E+00;  9.9991768E+03; -3.5712067E-03;  0.0000000E+00;  7.8839816E-02;  2.2476921E+02;
  1.0600023E+00;  9.9999998E-03;  2.4000216E-01;2699;  6.1160843E-03;  0.0000000E+00;  5.3958562E-03;  1.0012397E+03;  4.0051588E-01;  1.0099316E+03;3;  9.9370470E+00;  0.0000000E+00;  8.3043385E+00;0;  9.4938055E-02;  1.0000010E+04;  0.0000000E+00;  3.3102732E-03;  1.0000000E+04;  0.0000000E+00;  9.9989922E+03; -9.4317843E-04;  0.0000000E+00;  9.5881231E-02;  2.7568271E+02;
  1.0600027E+00;  9.9999998E-03;  2.6000383E-01;2700;  7.0831762E-03;  0.0000000E+00;  9.2049194E-03;  1.0012276E+03;  4.0051585E-01;  1.0000264E+03;3;  1.1737396E+01;  0.0000000E+00;  1.3395830E+01;0;  1.1773350E-01;  9.9999756E+03;  0.0000000E+00;  6.3985423E-03;  1.0000000E+04;  0.0000000E+00;  9.9987842E+03;  2.4330183E-03;  0.0000000E+00;  1.1530048E-01;  3.3385870E+02;
  1.0600032E+00;  9.9999998E-03;  2.8000566E-01;2701;  8.2122181E-03;  0.0000000E+00;  1.3088048E-02;  1.0012143E+03;  4.0051588E-01;  9.8915015E+02;3;  1.3911180E+01;  0.0000000E+00;  1.8485476E+01;0;  1.4184710E-01;  9.9999297E+03;  0.0000000E+00;  3.4031963E-03;  1.0000000E+04;  0.0000000E+00;  9.9985645E+03;  7.0551960E-03;  0.0000000E+00;  1.3479191E-01;  3.9531866E+02;
  1.0600036E+00;  9.9999998E-03;  3.0000669E-01;2702;  9.4120549E-03;  0.0000000E+00;  1.5213046E-02;  1.0012153E+03;  4.0051588E-01;  9.8992682E+02;3;  1.6289959E+01;  0.0000000E+00;  2.1645666E+01;0;  1.3874136E-01;  9.9998672E+03;  0.0000000E+00; -6.9504610E-04;  1.0000000E+04;  0.0000000E+00;  9.9986484E+03;  1.3379914E-02;  0.0000000E+00;  1.2536144E-01;  3.7342972E+02;
  1.0800016E+00;  9.9999998E-03;  1.6000021E-01;2726;  4.0676296E-03;  0.0000000E+00;  6.9980876E-04;  1.0011063E+03;  4.0044582E-01;  8.9604242E+02;3;  6.3309832E+00;  0.0000000E+00;  1.4881335E+00;0;  1.6754679E-02;  1.0000092E+04;  0.0000000E+00; -3.0262847E-04;  1.0000000E+04;  0.0000000E+00;  9.9997441E+03; -8.6770020E-03;  0.0000000E+00;  2.5431681E-02;  6.4424149E+01;
  1.0800016E+00;  9.9999998E-03;  1.8000031E-01;2727;  4.2468170E-03;  0.0000000E+00;  9.9142047E-04;  1.0010981E+03;  4.0044579E-01;  8.8947662E+02;3;  6.6794720E+00;  0.0000000E+00;  2.0012932E+00;0;  3.2074027E-02;  1.0000073E+04;  0.0000000E+00; -1.2855901E-03;  1.0000000E+04;  0.0000000E+00;  9.9995986E+03; -7.0616635E-03;  0.0000000E+00;  3.9135691E-02;  1.0153732E+02;
  1.0800018E+00;  9.9999998E-03;  2.0000055E-01;2728;  4.5873607E-03;  0.0000000E+00;  1.6120643E-03;  1.0010889E+03;  4.0044582E-01;  8.8194519E+02;3;  7.2920179E+00;  0.0000000E+00;  2.9394155E+00;0;  4.9394939E-02;  1.0000056E+04;  0.0000000E+00; -2.5600835E-03;  1.0000000E+04;  0.0000000E+00;  9.9994316E+03; -5.5029844E-03;  0.0000000E+00;  5.4897923E-02;  1.4477686E+02;
  1.0800020E+00;  9.9999998E-03;  2.2000113E-01;2729;  5.1926342E-03;  0.0000000E+00;  2.9661714E-03;  1.0010796E+03;  4.0044579E-01;  8.7441370E+02;3;  8.3346319E+00;  0.0000000E+00;  4.8728657E+00;0;  6.6764176E-02;  1.0000040E+04;  0.0000000E+00; -2.0723420E-03;  1.0000000E+04;  0.0000000E+00;  9.9992617E+03; -3.9397045E-03;  0.0000000E+00;  7.0703879E-02;  1.8831351E+02;
  1.0800023E+00;  9.9999998E-03;  2.4000216E-01;2730;  6.1388826E-03;  0.0000000E+00;  5.3539565E-03;  1.0010702E+03;  4.0044579E-01;  8.6678564E+02;3;  9.9930201E+00;  0.0000000E+00;  8.1530085E+00;0;  8.4232233E-02;  1.0000018E+04;  0.0000000E+00;  1.3459236E-03;  1.0000000E+04;  0.0000000E+00;  9.9990967E+03; -1.8496083E-03;  0.0000000E+00;  8.6081840E-02;  2.3086765E+02;
  1.0800028E+00;  9.9999998E-03;  2.6000363E-01;2731;  7.3803081E-03;  0.0000000E+00;  8.6772610E-03;  1.0010588E+03;  4.0044582E-01;  8.5761267E+02;3;  1.2262749E+01;  0.0000000E+00;  1.2626727E+01;0;  1.0541661E-01;  9.9999814E+03;  0.0000000E+00;  3.1019556E-03;  1.0000000E+04;  0.0000000E+00;  9.9989063E+03;  1.6543486E-03;  0.0000000E+00;  1.0376226E-01;  2.8032788E+02;
  1.0800034E+00;  9.9999998E-03;  2.8000507E-01;2732;  8.8084908E-03;  0.0000000E+00;  1.1715923E-02;  1.0010487E+03;  4.0044585E-01;  8.4940521E+02;3;  1.4952547E+01;  0.0000000E+00;  1.6706968E+01;0;  1.2386615E-01;  9.9999229E+03;  0.0000000E+00; -1.7795504E-04;  1.0000000E+04;  0.0000000E+00;  9.9987607E+03;  7.6176389E-03;  0.0000000E+00;  1.1624851E-01;  3.1848669E+02;
  1.0800040E+00;  9.9999998E-03;  3.0000579E-01;2733;  1.0347026E-02;  0.0000000E+00;  1.3194121E-02;  1.0010515E+03;  4.0044582E-01;  8.5172241E+02;3;  1.7906473E+01;  0.0000000E+00;  1.9101860E+01;0;  1.1805661E-01;  9.9998262E+03;  0.0000000E+00;  5.1190378E-03;  1.0000000E+04;  0.0000000E+00;  9.9989160E+03;  1.7326890E-02;  0.0000000E+00;  1.0072972E-01;  2.7944904E+02;
  1.1000015E+00;  9.9999998E-03;  1.6000021E-01;2756;  3.7657968E-03;  0.0000000E+00;  6.6876196E-04;  1.0009587E+03;  4.0038711E-01;  7.7066992E+02;3;  5.9216666E+00;  0.0000000E+00;  1.3750439E+00;0;  1.8029027E-02;  1.0000073E+04;  0.0000000E+00; -9.7258145E-04;  1.0000000E+04;  0.0000000E+00;  9.9997480E+03; -7.0311390E-03;  0.0000000E+00;  2.5060166E-02;  5.8856579E+01;
  1.1000016E+00;  9.9999998E-03;  1.8000033E-01;2757;  3.9945915E-03;  0.0000000E+00;  1.0166755E-03;  1.0009517E+03;  4.0038708E-01;  7.6511169E+02;3;  6.3378353E+00;  0.0000000E+00;  1.9456705E+00;0;  3.1190142E-02;  1.0000060E+04;  0.0000000E+00; -2.9596610E-03;  1.0000000E+04;  0.0000000E+00;  9.9996230E+03; -5.7136165E-03;  0.0000000E+00;  3.6903758E-02;  8.8513496E+01;
  1.1000017E+00;  9.9999998E-03;  2.0000063E-01;2758;  4.4152676E-03;  0.0000000E+00;  1.7473642E-03;  1.0009442E+03;  4.0038714E-01;  7.5907428E+02;3;  7.0595984E+00;  0.0000000E+00;  3.0292912E+00;0;  4.5398403E-02;  1.0000049E+04;  0.0000000E+00; -5.2331584E-03;  1.0000000E+04;  0.0000000E+00;  9.9994814E+03; -4.7865217E-03;  0.0000000E+00;  5.0184924E-02;  1.2229897E+02;
  1.1000019E+00;  9.9999998E-03;  2.2000124E-01;2759;  5.1258686E-03;  0.0000000E+00;  3.1895605E-03;  1.0009364E+03;  4.0038714E-01;  7.5274939E+02;3;  8.2630863E+00;  0.0000000E+00;  5.0894637E+00;0;  5.9743650E-02;  1.0000038E+04;  0.0000000E+00; -5.2415431E-03;  1.0000000E+04;  0.0000000E+00;  9.9993369E+03; -4.0052887E-03;  0.0000000E+00;  6.3748941E-02;  1.5644585E+02;
  1.1000024E+00;  9.9999998E-03;  2.4000224E-01;2760;  6.2144659E-03;  0.0000000E+00;  5.5047655E-03;  1.0009279E+03;  4.0038708E-01;  7.4594531E+02;3;  1.0149543E+01;  0.0000000E+00;  8.3030672E+00;0;  7.5699896E-02;  1.0000021E+04;  0.0000000E+00; -2.7623852E-03;  1.0000000E+04;  0.0000000E+00;  9.9991836E+03; -2.4104062E-03;  0.0000000E+00;  7.8110300E-02;  1.9237885E+02;
  1.1000029E+00;  9.9999998E-03;  2.6000351E-01;2761;  7.6035126E-03;  0.0000000E+00;  8.3361138E-03;  1.0009175E+03;  4.0038708E-01;  7.3751196E+02;3;  1.2677903E+01;  0.0000000E+00;  1.2161007E+01;0;  9.5149562E-02;  9.9999824E+03;  0.0000000E+00; -2.7966544E-03;  1.0000000E+04;  0.0000000E+00;  9.9990127E+03;  1.3827062E-03;  0.0000000E+00;  9.3766853E-02;  2.3285880E+02;
  1.1000035E+00;  9.9999998E-03;  2.8000456E-01;2762;  9.1238618E-03;  0.0000000E+00;  1.0570318E-02;  1.0009105E+03;  4.0038714E-01;  7.3195367E+02;3;  1.5533920E+01;  0.0000000E+00;  1.5285734E+01;0;  1.0754357E-01;  9.9999111E+03;  0.0000000E+00; -2.0174778E-03;  1.0000000E+04;  0.0000000E+00;  9.9989473E+03;  8.6451517E-03;  0.0000000E+00;  9.8898418E-02;  2.4909311E+02;
  1.1200013E+00;  9.9999998E-03;  1.6000022E-01;2785;  3.5100214E-03;  0.0000000E+00;  6.6981051E-04;  1.0008369E+03;  4.0033892E-01;  6.6619507E+02;3;  5.5780606E+00;  0.0000000E+00;  1.3125812E+00;0;  2.0316716E-02;  1.0000048E+04;  0.0000000E+00; -2.4861137E-03;  1.0000000E+04;  0.0000000E+00;  9.9997471E+03; -4.6336269E-03;  0.0000000E+00;  2.4950342E-02;  5.3436497E+01;
  1.1200014E+00;  9.9999998E-03;  1.8000039E-01;2786;  3.8044921E-03;  0.0000000E+00;  1.1145563E-03;  1.0008311E+03;  4.0033889E-01;  6.6154553E+02;3;  6.0831351E+00;  0.0000000E+00;  1.9993948E+00;0;  3.1217732E-02;  1.0000038E+04;  0.0000000E+00; -5.6680301E-03;  1.0000000E+04;  0.0000000E+00;  9.9996416E+03; -3.8121706E-03;  0.0000000E+00;  3.5029903E-02;  7.6828735E+01;
  1.1200017E+00;  9.9999998E-03;  2.0000075E-01;2787;  4.3220324E-03;  0.0000000E+00;  1.9904322E-03;  1.0008251E+03;  4.0033892E-01;  6.5670630E+02;3;  6.9424973E+00;  0.0000000E+00;  3.2859056E+00;0;  4.2519327E-02;  1.0000034E+04;  0.0000000E+00; -8.7106088E-03;  1.0000000E+04;  0.0000000E+00;  9.9995225E+03; -3.6104848E-03;  0.0000000E+00;  4.6129812E-02;  1.0287666E+02;
  1.1200020E+00;  9.9999998E-03;  2.2000141E-01;2788;  5.1541147E-03;  0.0000000E+00;  3.5470538E-03;  1.0008187E+03;  4.0033889E-01;  6.5158234E+02;3;  8.3440619E+00;  0.0000000E+00;  5.5193949E+00;0;  5.4597624E-02;  1.0000032E+04;  0.0000000E+00; -9.2389192E-03;  1.0000000E+04;  0.0000000E+00;  9.9993965E+03; -3.4798605E-03;  0.0000000E+00;  5.8077484E-02;  1.2980978E+02;
  1.1200025E+00;  9.9999998E-03;  2.4000236E-01;2789;  6.3396962E-03;  0.0000000E+00;  5.7564513E-03;  1.0008105E+03;  4.0033889E-01;  6.4512994E+02;3;  1.0405252E+01;  0.0000000E+00;  8.6289530E+00;0;  6.9733918E-02;  1.0000016E+04;  0.0000000E+00; -8.3804214E-03;  1.0000000E+04;  0.0000000E+00;  9.9992520E+03; -2.0369194E-03;  0.0000000E+00;  7.1770839E-02;  1.6040865E+02;
  1.1200030E+00;  9.9999998E-03;  2.6000339E-01;2790;  7.7321595E-03;  0.0000000E+00;  8.0393851E-03;  1.0008017E+03;  4.0033889E-01;  6.3810815E+02;3;  1.2948199E+01;  0.0000000E+00;  1.1812531E+01;0;  8.6152613E-02;  9.9999736E+03;  0.0000000E+00; -7.8055300E-03;  1.0000000E+04;  0.0000000E+00;  9.9991162E+03;  2.1704054E-03;  0.0000000E+00;  8.3982207E-02;  1.8917375E+02;
  1.1200036E+00;  9.9999998E-03;  2.8000411E-01;2791;  9.1673182E-03;  0.0000000E+00;  9.5242430E-03;  1.0007985E+03;  4.0033889E-01;  6.3554602E+02;3;  1.5658959E+01;  0.0000000E+00;  1.4037672E+01;0;  9.1786385E-02;  9.9998936E+03;  0.0000000E+00;  2.7828249E-03;  1.0000000E+04;  0.0000000E+00;  9.9991309E+03;  1.0192407E-02;  0.0000000E+00;  8.1593975E-02;  1.8529916E+02;
  1.1400013E+00;  9.9999998E-03;  1.6000026E-01;2813;  3.3270849E-03;  0.0000000E+00;  7.3966151E-04;  1.0007388E+03;  4.0030029E-01;  5.8047833E+02;3;  5.3312979E+00;  0.0000000E+00;  1.3492148E+00;0;  2.3112336E-02;  1.0000016E+04;  0.0000000E+00; -5.1876553E-03;  1.0000000E+04;  0.0000000E+00;  9.9997480E+03; -1.7310649E-03;  0.0000000E+00;  2.4843400E-02;  4.8121468E+01;
  1.1400014E+00;  9.9999998E-03;  1.8000048E-01;2814;  3.7102655E-03;  0.0000000E+00;  1.3153689E-03;  1.0007343E+03;  4.0030029E-01;  5.7691876E+02;3;  5.9584947E+00;  0.0000000E+00;  2.2109363E+00;0;  3.1802215E-02;  1.0000013E+04;  0.0000000E+00; -9.2601962E-03;  1.0000000E+04;  0.0000000E+00;  9.9996592E+03; -1.5328941E-03;  0.0000000E+00;  3.3335108E-02;  6.6583931E+01;
  1.1400017E+00;  9.9999998E-03;  2.0000093E-01;2815;  4.3563521E-03;  0.0000000E+00;  2.3681032E-03;  1.0007293E+03;  4.0030023E-01;  5.7307813E+02;3;  7.0146928E+00;  0.0000000E+00;  3.7574914E+00;0;  4.0887903E-02;  1.0000015E+04;  0.0000000E+00; -1.2484713E-02;  1.0000000E+04;  0.0000000E+00;  9.9995586E+03; -1.9149173E-03;  0.0000000E+00;  4.2802822E-02;  8.6683197E+01;
  1.1400020E+00;  9.9999998E-03;  2.2000162E-01;2816;  5.3160121E-03;  0.0000000E+00;  4.0045376E-03;  1.0007234E+03;  4.0030026E-01;  5.6839447E+02;3;  8.6353025E+00;  0.0000000E+00;  6.1322703E+00;0;  5.1931366E-02;  1.0000015E+04;  0.0000000E+00; -1.3574936E-02;  1.0000000E+04;  0.0000000E+00;  9.9994414E+03; -1.9287725E-03;  0.0000000E+00;  5.3860139E-02;  1.0856138E+02;
  1.1400025E+00;  9.9999998E-03;  2.4000248E-01;2817;  6.5189959E-03;  0.0000000E+00;  5.9892610E-03;  1.0007158E+03;  4.0030023E-01;  5.6249298E+02;3;  1.0746460E+01;  0.0000000E+00;  8.9774017E+00;0;  6.6250712E-02;  9.9999961E+03;  0.0000000E+00; -1.3217432E-02;  1.0000000E+04;  0.0000000E+00;  9.9993086E+03; -9.4125491E-05;  0.0000000E+00;  6.6344835E-02;  1.3304375E+02;
  1.1400031E+00;  9.9999998E-03;  2.6000327E-01;2818;  7.7800234E-03;  0.0000000E+00;  7.6938020E-03;  1.0007095E+03;  4.0030029E-01;  5.5743457E+02;3;  1.3092942E+01;  0.0000000E+00;  1.1450204E+01;0;  7.7976018E-02;  9.9999512E+03;  0.0000000E+00; -6.3175852E-03;  1.0000000E+04;  0.0000000E+00;  9.9992256E+03;  4.4218278E-03;  0.0000000E+00;  7.3554188E-02;  1.4675793E+02;
  1.1600013E+00;  9.9999998E-03;  1.6000034E-01;2840;  3.2578346E-03;  0.0000000E+00;  9.1713545E-04;  1.0006614E+03;  4.0026993E-01;  5.1114145E+02;3;  5.2323937E+00;  0.0000000E+00;  1.5441346E+00;0;  2.5876606E-02;  9.9999834E+03;  0.0000000E+00; -8.9340964E-03;  1.0000000E+04;  0.0000000E+00;  9.9997520E+03;  1.3262621E-03;  0.0000000E+00;  2.4550343E-02;  4.3216732E+01;
  1.1600015E+00;  9.9999998E-03;  1.8000065E-01;2841;  3.7820865E-03;  0.0000000E+00;  1.6612631E-03;  1.0006577E+03;  4.0026993E-01;  5.0828528E+02;3;  6.0610795E+00;  0.0000000E+00;  2.6558380E+00;0;  3.2830041E-02;  9.9999863E+03;  0.0000000E+00; -1.3096791E-02;  1.0000000E+04;  0.0000000E+00;  9.9996738E+03;  9.9631806E-04;  0.0000000E+00;  3.1833723E-02;  5.7709339E+01;
  1.1600018E+00;  9.9999998E-03;  2.0000115E-01;2842;  4.5899902E-03;  0.0000000E+00;  2.8678970E-03;  1.0006534E+03;  4.0026993E-01;  5.0496844E+02;3;  7.3869767E+00;  0.0000000E+00;  4.4523177E+00;0;  4.1009475E-02;  9.9999893E+03;  0.0000000E+00; -1.6003365E-02;  1.0000000E+04;  0.0000000E+00;  9.9995850E+03;  5.9162657E-04;  0.0000000E+00;  4.0417846E-02;  7.3395103E+01;
  1.1600022E+00;  9.9999998E-03;  2.2000183E-01;2843;  5.6302552E-03;  0.0000000E+00;  4.4695185E-03;  1.0006475E+03;  4.0026993E-01;  5.0036166E+02;3;  9.1677637E+00;  0.0000000E+00;  6.8094134E+00;0;  5.2119106E-02;  9.9999814E+03;  0.0000000E+00; -1.7060507E-02;  1.0000000E+04;  0.0000000E+00;  9.9994746E+03;  1.2302571E-03;  0.0000000E+00;  5.0888848E-02;  9.1013306E+01;
  1.1600027E+00;  9.9999998E-03;  2.4000254E-01;2844;  6.7555569E-03;  0.0000000E+00;  6.0959822E-03;  1.0006409E+03;  4.0026996E-01;  4.9529431E+02;3;  1.1196896E+01;  0.0000000E+00;  9.2025881E+00;0;  6.4561695E-02;  9.9999551E+03;  0.0000000E+00; -1.2560171E-02;  1.0000000E+04;  0.0000000E+00;  9.9993672E+03;  3.8279884E-03;  0.0000000E+00;  6.0733706E-02;  1.0586747E+02;
  1.1600031E+00;  9.9999998E-03;  2.6000309E-01;2845;  7.8259325E-03;  0.0000000E+00;  7.2532371E-03;  1.0006372E+03;  4.0026996E-01;  4.9243802E+02;3;  1.3235868E+01;  0.0000000E+00;  1.0986719E+01;0;  7.1076520E-02;  9.9999063E+03;  0.0000000E+00;  6.4306692E-03;  1.0000000E+04;  0.0000000E+00;  9.9993428E+03;  8.5705388E-03;  0.0000000E+00;  6.2505983E-02;  1.0822925E+02;
  1.1800014E+00;  9.9999998E-03;  1.6000049E-01;2866;  3.4151294E-03;  0.0000000E+00;  1.2611323E-03;  1.0006017E+03;  4.0024656E-01;  4.5531799E+02;3;  5.4382443E+00;  0.0000000E+00;  2.0112126E+00;0;  2.8497558E-02;  9.9999502E+03;  0.0000000E+00; -1.2919676E-02;  1.0000000E+04;  0.0000000E+00;  9.9997549E+03;  4.3634856E-03;  0.0000000E+00;  2.4134073E-02;  3.8651081E+01;
  1.1800016E+00;  9.9999998E-03;  1.8000086E-01;2867;  4.1380068E-03;  0.0000000E+00;  2.1510923E-03;  1.0005983E+03;  4.0024659E-01;  4.5279178E+02;3;  6.5952373E+00;  0.0000000E+00;  3.3640890E+00;0;  3.4910746E-02;  9.9999521E+03;  0.0000000E+00; -1.6467962E-02;  1.0000000E+04;  0.0000000E+00;  9.9996865E+03;  4.1501885E-03;  0.0000000E+00;  3.0760556E-02;  4.9734081E+01;
  1.1800020E+00;  9.9999998E-03;  2.0000137E-01;2868;  5.0543249E-03;  0.0000000E+00;  3.3967197E-03;  1.0005938E+03;  4.0024659E-01;  4.4936340E+02;3;  8.1291056E+00;  0.0000000E+00;  5.2375684E+00;0;  4.3576676E-02;  9.9999463E+03;  0.0000000E+00; -1.8433783E-02;  1.0000000E+04;  0.0000000E+00;  9.9995996E+03;  4.6399492E-03;  0.0000000E+00;  3.8936727E-02;  6.1684502E+01;
  1.1800023E+00;  9.9999998E-03;  2.2000200E-01;2869;  6.0428549E-03;  0.0000000E+00;  4.8357155E-03;  1.0005880E+03;  4.0024662E-01;  4.4494260E+02;3;  9.8798113E+00;  0.0000000E+00;  7.3945055E+00;0;  5.4755241E-02;  9.9999297E+03;  0.0000000E+00; -1.5785627E-02;  1.0000000E+04;  0.0000000E+00;  9.9995010E+03;  6.3446187E-03;  0.0000000E+00;  4.8410621E-02;  7.3198578E+01;
  1.1800028E+00;  9.9999998E-03;  2.4000254E-01;2870;  6.9782631E-03;  0.0000000E+00;  6.0633896E-03;  1.0005828E+03;  4.0024659E-01;  4.4106317E+02;3;  1.1637804E+01;  0.0000000E+00;  9.2768040E+00;0;  6.4099491E-02;  9.9998984E+03;  0.0000000E+00; -1.1978132E-04;  1.0000000E+04;  0.0000000E+00;  9.9994307E+03;  9.3429284E-03;  0.0000000E+00;  5.4756559E-02;  7.9234024E+01;
  1.2000016E+00;  9.9999998E-03;  1.6000070E-01;2890;  3.9541945E-03;  0.0000000E+00;  1.7433189E-03;  1.0005562E+03;  4.0022907E-01;  4.1009171E+02;3;  6.2366090E+00;  0.0000000E+00;  2.7340117E+00;0;  3.2026302E-02;  9.9999102E+03;  0.0000000E+00; -1.6336411E-02;  1.0000000E+04;  0.0000000E+00;  9.9997578E+03;  8.1686424E-03;  0.0000000E+00;  2.3857659E-02;  3.3881985E+01;
  1.2000020E+00;  9.9999998E-03;  1.8000108E-01;2891;  4.8232879E-03;  0.0000000E+00;  2.6689337E-03;  1.0005524E+03;  4.0022916E-01;  4.0727905E+02;3;  7.6816664E+00;  0.0000000E+00;  4.1462579E+00;0;  3.9351180E-02;  9.9999004E+03;  0.0000000E+00; -1.8644683E-02;  1.0000000E+04;  0.0000000E+00;  9.9996924E+03;  9.2164241E-03;  0.0000000E+00;  3.0134756E-02;  4.1747337E+01;
  1.2000023E+00;  9.9999998E-03;  2.0000157E-01;2892;  5.6840959E-03;  0.0000000E+00;  3.8314890E-03;  1.0005475E+03;  4.0022910E-01;  4.0367538E+02;3;  9.1886435E+00;  0.0000000E+00;  5.9215031E+00;0;  4.8721477E-02;  9.9998828E+03;  0.0000000E+00; -1.6342383E-02;  1.0000000E+04;  0.0000000E+00;  9.9996133E+03;  1.0926211E-02;  0.0000000E+00;  3.7795268E-02;  4.8601799E+01;
  1.2000026E+00;  9.9999998E-03;  2.2000210E-01;2893;  6.4312918E-03;  0.0000000E+00;  5.0400323E-03;  1.0005423E+03;  4.0022910E-01;  3.9980807E+02;3;  1.0590878E+01;  0.0000000E+00;  7.7915030E+00;0;  5.8462597E-02;  9.9998643E+03;  0.0000000E+00; -2.4848667E-03;  1.0000000E+04;  0.0000000E+00;  9.9995273E+03;  1.2715054E-02;  0.0000000E+00;  4.5747545E-02;  5.4386482E+01;
  1.2200019E+00;  9.9999998E-03;  1.6000091E-01;2913;  4.8114280E-03;  0.0000000E+00;  2.2515005E-03;  1.0005208E+03;  4.0021622E-01;  3.7190619E+02;3;  7.6174879E+00;  0.0000000E+00;  3.5106564E+00;0;  3.8198777E-02;  9.9998486E+03;  0.0000000E+00; -1.8020602E-02;  1.0000000E+04;  0.0000000E+00;  9.9997578E+03;  1.4298590E-02;  0.0000000E+00;  2.3900185E-02;  2.8090652E+01;
  1.2200022E+00;  9.9999998E-03;  1.8000129E-01;2914;  5.5764015E-03;  0.0000000E+00;  3.1455813E-03;  1.0005166E+03;  4.0021616E-01;  3.6901108E+02;3;  8.9454765E+00;  0.0000000E+00;  4.9017940E+00;0;  4.6198279E-02;  9.9998291E+03;  0.0000000E+00; -1.5815122E-02;  1.0000000E+04;  0.0000000E+00;  9.9996943E+03;  1.6271347E-02;  0.0000000E+00;  2.9926931E-02;  3.1739408E+01;
  1.2200025E+00;  9.9999998E-03;  2.0000170E-01;2915;  6.2109367E-03;  0.0000000E+00;  4.1302936E-03;  1.0005123E+03;  4.0021622E-01;  3.6586063E+02;3;  1.0127571E+01;  0.0000000E+00;  6.4546580E+00;0;  5.4495752E-02;  9.9998135E+03;  0.0000000E+00; -2.4495013E-03;  1.0000000E+04;  0.0000000E+00;  9.9996240E+03;  1.7821880E-02;  0.0000000E+00;  3.6673870E-02;  3.4553612E+01;
  1.2200027E+00;  9.9999998E-03;  2.2000213E-01;2916;  6.7155818E-03;  0.0000000E+00;  5.0984379E-03;  1.0005080E+03;  4.0021619E-01;  3.6279535E+02;3;  1.1143819E+01;  0.0000000E+00;  7.9973059E+00;0;  6.2342506E-02;  9.9997988E+03;  0.0000000E+00;  2.7546128E-02;  1.0000000E+04;  0.0000000E+00;  9.9995498E+03;  1.8948406E-02;  0.0000000E+00;  4.3394100E-02;  5.0082375E+01;
  1.2400023E+00;  9.9999998E-03;  1.6000111E-01;2934;  5.5401362E-03;  0.0000000E+00;  2.7384069E-03;  1.0004935E+03;  4.0020680E-01;  3.3951694E+02;3;  8.8559818E+00;  0.0000000E+00;  4.2972784E+00;0;  4.5500789E-02;  9.9997803E+03;  0.0000000E+00; -1.2785421E-02;  1.0000000E+04;  0.0000000E+00;  9.9997520E+03;  2.0990698E-02;  0.0000000E+00;  2.4510091E-02;  1.9647375E+01;
  1.2400024E+00;  9.9999998E-03;  1.8000145E-01;2935;  5.9958263E-03;  0.0000000E+00;  3.5429245E-03;  1.0004904E+03;  4.0020674E-01;  3.3738458E+02;3;  9.7281179E+00;  0.0000000E+00;  5.5896945E+00;0;  5.1458225E-02;  9.9997783E+03;  0.0000000E+00; -1.1463676E-04;  1.0000000E+04;  0.0000000E+00;  9.9996904E+03;  2.1135340E-02;  0.0000000E+00;  3.0322887E-02;  2.1872963E+01;
  1.2600024E+00;  9.9999998E-03;  1.6000129E-01;2952;  5.7930863E-03;  0.0000000E+00;  3.1525278E-03;  1.0004754E+03;  4.0020025E-01;  3.1331882E+02;3;  9.3915644E+00;  0.0000000E+00;  5.0187478E+00;0;  4.8548222E-02;  9.9997646E+03;  0.0000000E+00;  6.0479678E-03;  1.0000000E+04;  0.0000000E+00;  9.9997354E+03;  2.2533350E-02;  0.0000000E+00;  2.6014872E-02;  1.4553072E+01;
